#------------------------------------------------------------------------------
#$Date: 2019-10-29 06:15:30 +0200 (Tue, 29 Oct 2019) $
#$Revision: 220351 $
#$URL: file:///home/coder/svn-repositories/cod/cif/7/05/89/7058927.cif $
#------------------------------------------------------------------------------
#
# This file is available in the Crystallography Open Database (COD),
# http://www.crystallography.net/
#
# All data on this site have been placed in the public domain by the
# contributors.
#
data_7058927
loop_
_publ_author_name
'Juneja, Navkiran Kaur'
'Unruh, Daniel K.'
'Bosch, Eric'
'Groeneman , Ryan'
'Hutchins, Kristin M.'
_publ_section_title
;
 Effects of dynamic pedal motion and static disorder on thermal expansion
 within halogen bonded co-crystals
;
_journal_name_full               'New Journal of Chemistry'
_journal_paper_doi               10.1039/C9NJ04833B
_journal_year                    2019
_chemical_formula_sum            'C9 H5 Cl2 I N'
_chemical_formula_weight         324.94
_space_group_IT_number           2
_space_group_name_Hall           '-P 1'
_space_group_name_H-M_alt        'P -1'
_symmetry_cell_setting           triclinic
_symmetry_Int_Tables_number      2
_symmetry_space_group_name_Hall  '-P 1'
_symmetry_space_group_name_H-M   'P -1'
_atom_sites_solution_hydrogens   geom
_atom_sites_solution_primary     dual
_atom_sites_solution_secondary   difmap
_audit_creation_date             2019-09-06T14:46:51-00:00
_audit_creation_method           'WinGX routine CIF_UPDATE'
_audit_update_record
;
2019-09-20 deposited with the CCDC.    2019-10-28 downloaded from the CCDC.
;
_cell_angle_alpha                110.7818(12)
_cell_angle_beta                 92.5300(13)
_cell_angle_gamma                94.8692(13)
_cell_formula_units_Z            2
_cell_length_a                   4.07136(7)
_cell_length_b                   10.92294(16)
_cell_length_c                   12.36101(14)
_cell_measurement_reflns_used    14645
_cell_measurement_temperature    270(2)
_cell_measurement_theta_max      77.217
_cell_measurement_theta_min      3.812
_cell_volume                     510.460(14)
_computing_cell_refinement       'CrysAlisPro 1.171.40.57a (Rigaku OD, 2019)'
_computing_data_collection       'CrysAlisPro 1.171.40.57a (Rigaku OD, 2019)'
_computing_data_reduction        'CrysAlisPro 1.171.40.57a (Rigaku OD, 2019)'
_computing_structure_refinement  'SHELXL-2018/3 (Sheldrick, 2018)'
_computing_structure_solution    'SHELXT 2014/5 (Sheldrick, 2014)'
_diffrn_ambient_environment      N~2~
_diffrn_ambient_temperature      270(2)
_diffrn_detector                 'Hybrid Pixel Array Detector'
_diffrn_detector_area_resol_mean 10
_diffrn_detector_type            HyPix
_diffrn_measured_fraction_theta_full 0.998
_diffrn_measured_fraction_theta_max 0.958
_diffrn_measurement_device       'four-circle diffractometer'
_diffrn_measurement_device_type  'XtaLAB Synergy, Dualflex, HyPix'
_diffrn_measurement_method       '\w scans'
_diffrn_orient_matrix_type
'CrysAlisPro convention (1999,Acta A55,543-557)'
_diffrn_orient_matrix_UB_11      -0.0162561
_diffrn_orient_matrix_UB_12      -0.0138911
_diffrn_orient_matrix_UB_13      -0.1286308
_diffrn_orient_matrix_UB_21      0.0293302
_diffrn_orient_matrix_UB_22      0.151042
_diffrn_orient_matrix_UB_23      0.0364965
_diffrn_orient_matrix_UB_31      0.379494
_diffrn_orient_matrix_UB_32      0.0041286
_diffrn_orient_matrix_UB_33      0.002371
_diffrn_radiation_monochromator  mirror
_diffrn_radiation_probe          x-ray
_diffrn_radiation_type           CuK\a
_diffrn_radiation_wavelength     1.54178
_diffrn_reflns_av_R_equivalents  0.0655
_diffrn_reflns_av_unetI/netI     0.0642
_diffrn_reflns_Laue_measured_fraction_full 0.998
_diffrn_reflns_Laue_measured_fraction_max 0.958
_diffrn_reflns_limit_h_max       4
_diffrn_reflns_limit_h_min       -4
_diffrn_reflns_limit_k_max       13
_diffrn_reflns_limit_k_min       -13
_diffrn_reflns_limit_l_max       15
_diffrn_reflns_limit_l_min       -15
_diffrn_reflns_number            19057
_diffrn_reflns_point_group_measured_fraction_full 0.998
_diffrn_reflns_point_group_measured_fraction_max 0.958
_diffrn_reflns_theta_full        67.679
_diffrn_reflns_theta_max         77.373
_diffrn_reflns_theta_min         3.837
_diffrn_source                   'micro-focus sealed X-ray tube'
_diffrn_source_type              'PhotonJet (Cu) X-ray Source'
_exptl_absorpt_coefficient_mu    29.058
_exptl_absorpt_correction_T_max  0.446
_exptl_absorpt_correction_T_min  0.134
_exptl_absorpt_correction_type   gaussian
_exptl_absorpt_process_details
;
        CrysAlisPro 1.171.40.57a (Rigaku Oxford Diffraction, 2019)
Numerical absorption correction based on gaussian integration over
                        a multifaceted crystal model
        Empirical absorption correction using spherical harmonics,
 implemented in SCALE3 ABSPACK scaling algorithm.
;
_exptl_crystal_colour            'clear colourless'
_exptl_crystal_density_diffrn    2.114
_exptl_crystal_description       block
_exptl_crystal_F_000             306
_exptl_crystal_size_max          0.12
_exptl_crystal_size_mid          0.086
_exptl_crystal_size_min          0.048
_refine_diff_density_max         0.645
_refine_diff_density_min         -0.9
_refine_diff_density_rms         0.099
_refine_ls_extinction_coef       0.0030(3)
_refine_ls_extinction_expression Fc^*^=kFc[1+0.001xFc^2^\l^3^/sin(2\q)]^-1/4^
_refine_ls_extinction_method     'SHELXL-2018/3 (Sheldrick 2018)'
_refine_ls_goodness_of_fit_ref   1.04
_refine_ls_hydrogen_treatment    constr
_refine_ls_matrix_type           full
_refine_ls_number_parameters     172
_refine_ls_number_reflns         2081
_refine_ls_number_restraints     343
_refine_ls_restrained_S_all      0.967
_refine_ls_R_factor_all          0.0276
_refine_ls_R_factor_gt           0.0253
_refine_ls_shift/su_max          0
_refine_ls_shift/su_mean         0
_refine_ls_structure_factor_coef Fsqd
_refine_ls_weighting_details
'w=1/[\s^2^(Fo^2^)+(0.0433P)^2^+0.2215P] where P=(Fo^2^+2Fc^2^)/3'
_refine_ls_weighting_scheme      calc
_refine_ls_wR_factor_gt          0.0646
_refine_ls_wR_factor_ref         0.0672
_reflns_Friedel_coverage         0
_reflns_number_gt                1979
_reflns_number_total             2081
_reflns_threshold_expression     'I > 2\s(I)'
_cod_data_source_file            c9nj04833b2.cif
_cod_data_source_block           hut19_49_270
_cod_database_code               7058927
_shelx_estimated_absorpt_t_min   0.128
_shelx_estimated_absorpt_t_max   0.336
_shelx_shelxl_version_number     2018/3
_shelx_res_file
;
TITL 270_a.res in P-1
    270_a.res
    created by SHELXL-2018/3 at 14:36:17 on 06-Sep-2019
REM Old TITL 270 in P1

REM SHELXT solution in P-1
REM R1 0.141,  Rweak 0.011,  Alpha 0.043,  Orientation as input
REM Formula found by SHELXT:  C10 O2 I

CELL  1.54178   4.071363  10.922939  12.361011   110.7818    92.5300    94.8692
ZERR    2.000   0.000074   0.000157   0.000136     0.0012     0.0013     0.0013
LATT  1
SFAC C H CL I N
UNIT 18 10 4 2 2
TEMP -3.2
SIZE 0.120 0.086 0.048
L.S. 10
BOND $H
ACTA
LIST 4
FMAP 2
PLAN 50

BIND I1 N1A
BIND I1 N1B

RIGU
SIMU 0.01 N1A N1B C4A C4B C5A C5B C6A C6B C7A C7B C8A C8B C9A C9B

DFIX 31 C6A C9A C6B C9B

OMIT  4  -5   8

WGHT    0.043300    0.221500
EXTI    0.002975
FVAR       0.60576   0.89883   1.47323
I1    4    0.712906    0.710803    0.288146    11.00000    0.04129    0.03667 =
         0.03831    0.00289    0.00461    0.00835
CL1   3    0.412942    0.735092    0.542330    11.00000    0.07666    0.03721 =
         0.04739    0.01881    0.00768    0.00705
CL2   3    0.233218    0.988030    0.728182    11.00000    0.06147    0.05102 =
         0.03648    0.01635    0.01437    0.00471
C1    1    0.586444    0.883469    0.414542    11.00000    0.03446    0.03194 =
         0.03525    0.00778    0.00214    0.00676
C2    1    0.463340    0.881618    0.517143    11.00000    0.03841    0.03303 =
         0.03437    0.01241   -0.00004    0.00350
C3    1    0.380039    0.995476    0.601382    11.00000    0.03259    0.03841 =
         0.03010    0.01099    0.00090    0.00195
PART  1
N1A   5    0.882737    0.453712    0.144047    21.00000    0.05335    0.02935 =
         0.05445    0.01016    0.01328    0.00743
C4A   1    1.039363    0.407137    0.216161    21.00000    0.06137    0.03474 =
         0.04573    0.00584    0.00780    0.00453
AFIX  43
H4A   2    1.104810    0.465003    0.291228    21.00000   -1.20000
AFIX   0
C5A   1    1.109483    0.279085    0.186154    21.00000    0.05995    0.03899 =
         0.04047    0.01310    0.00189    0.00482
AFIX  43
H5A   2    1.222644    0.252633    0.239683    21.00000   -1.20000
AFIX   0
C6A   1    1.010424    0.189076    0.075271    21.00000    0.04350    0.03217 =
         0.03892    0.01401    0.01175    0.00602
C7A   1    0.845773    0.236322    0.000125    21.00000    0.05585    0.03111 =
         0.03779    0.00980    0.00397    0.00829
AFIX  43
H7A   2    0.772915    0.180494   -0.074976    21.00000   -1.20000
AFIX   0
C8A   1    0.791267    0.368148    0.038613    21.00000    0.05823    0.03445 =
         0.05165    0.01796    0.00684    0.01145
AFIX  43
H8A   2    0.683002    0.398270   -0.013360    21.00000   -1.20000
AFIX   0
C9A   1    1.075827    0.050571    0.043804    21.00000    0.04489    0.03377 =
         0.03721    0.01488    0.00722    0.01030
AFIX  43
H9A   2    1.238317    0.032625    0.089645    21.00000   -1.20000
AFIX  66
PART  2
N1B   5    0.957819    0.459431    0.140474   -21.00000    0.05653    0.03252 =
         0.04973    0.01165    0.00807    0.00682
C4B   1    1.105832    0.389507    0.200263   -21.00000    0.05675    0.03336 =
         0.04584    0.01040    0.00709    0.00633
AFIX  43
H4B   2    1.214482    0.433970    0.273366   -21.00000   -1.20000
AFIX  65
C5B   1    1.091454    0.253127    0.150792   -21.00000    0.05435    0.03324 =
         0.03999    0.01229    0.00887    0.00667
AFIX  43
H5B   2    1.190485    0.206344    0.190795   -21.00000   -1.20000
AFIX  65
C6B   1    0.929063    0.186671    0.041531   -21.00000    0.04993    0.03165 =
         0.03790    0.01358    0.00886    0.00720
C7B   1    0.781049    0.256594   -0.018259   -21.00000    0.05245    0.03169 =
         0.04159    0.01462    0.00752    0.00910
AFIX  43
H7B   2    0.672399    0.212130   -0.091362   -21.00000   -1.20000
AFIX  65
C8B   1    0.795425    0.392974    0.031211   -21.00000    0.05576    0.03119 =
         0.04815    0.01341    0.00818    0.00999
AFIX  43
H8B   2    0.696394    0.439757   -0.008793   -21.00000   -1.20000
AFIX   0
C9B   1    0.931796    0.042819   -0.010811   -21.00000    0.04560    0.03118 =
         0.03856    0.01204    0.00882    0.00610
AFIX  43
H9B   2    0.792416    0.007219   -0.078611   -21.00000   -1.20000
AFIX   0
HKLF 4




REM  270_a.res in P-1
REM wR2 = 0.067214, GooF = S = 1.03965, Restrained GooF = 0.96670 for all data
REM R1 = 0.025290 for 1979 Fo > 4sig(Fo) and 0.027579 for all 2081 data
REM 172 parameters refined using 343 restraints

END

WGHT      0.0433      0.2215

REM Highest difference peak  0.645,  deepest hole -0.900,  1-sigma level  0.099
Q1    1   0.8881  0.7281  0.3536  11.00000  0.05    0.65
Q2    1   0.5473  0.6848  0.2205  11.00000  0.05    0.63
Q3    1   0.5969  0.5955  0.2674  11.00000  0.05    0.49
Q4    1   0.8066  0.6523  0.2427  11.00000  0.05    0.45
Q5    1   0.9620  0.8597  0.3154  11.00000  0.05    0.35
Q6    1   1.0073  0.4713  0.3230  11.00000  0.05    0.34
Q7    1   0.6910  0.6632  0.1629  11.00000  0.05    0.33
Q8    1   0.8960  0.7115  0.2239  11.00000  0.05    0.33
Q9    1   0.5373  0.6963  0.3399  11.00000  0.05    0.33
Q10   1   0.5845  0.7867  0.3420  11.00000  0.05    0.31
Q11   1   0.7103  0.7518  0.4001  11.00000  0.05    0.31
Q12   1   1.3931  0.5547  0.2838  11.00000  0.05    0.28
Q13   1   1.3993  0.5406  0.3291  11.00000  0.05    0.27
Q14   1   0.1895  0.6993  0.3726  11.00000  0.05    0.27
Q15   1   0.9043  0.5165  0.2802  11.00000  0.05    0.26
Q16   1   0.3417  0.6005  0.2431  11.00000  0.05    0.26
Q17   1   1.3418  0.4879  0.3189  11.00000  0.05    0.26
Q18   1   0.4496  0.8578  0.3397  11.00000  0.05    0.26
Q19   1   0.7415  0.8185  0.2980  11.00000  0.05    0.26
Q20   1   0.1405  0.6299  0.4952  11.00000  0.05    0.25
Q21   1   0.1067  0.7161  0.4793  11.00000  0.05    0.25
Q22   1   0.8953  0.5344  0.2437  11.00000  0.05    0.25
Q23   1   1.2106  0.6347  0.1808  11.00000  0.05    0.24
Q24   1   0.6464  1.0614  0.7587  11.00000  0.05    0.24
Q25   1   0.7125  0.8722  0.6095  11.00000  0.05    0.24
Q26   1   0.2989  0.6976  0.4539  11.00000  0.05    0.24
Q27   1   0.1383  0.9895  0.5122  11.00000  0.05    0.23
Q28   1   0.4620  1.0105  0.8129  11.00000  0.05    0.23
Q29   1   0.8362  0.7353  0.4776  11.00000  0.05    0.23
Q30   1   0.9643  0.2816  0.3719  11.00000  0.05    0.22
Q31   1   1.0322  0.9608  0.4620  11.00000  0.05    0.22
Q32   1   1.0521  0.1211  0.0628  11.00000  0.05    0.21
Q33   1   0.9393  0.1980 -0.0638  11.00000  0.05    0.21
Q34   1   0.6799 -0.0116 -0.2137  11.00000  0.05    0.21
Q35   1   0.8386  0.3019  0.0239  11.00000  0.05    0.21
Q36   1   0.9629  0.3561  0.3851  11.00000  0.05    0.21
Q37   1   1.1972  0.0255 -0.0227  11.00000  0.05    0.21
Q38   1   0.4332  1.0902  0.7530  11.00000  0.05    0.21
Q39   1   1.4342  0.5095  0.3754  11.00000  0.05    0.20
Q40   1  -0.0019  1.0854  0.7818  11.00000  0.05    0.20
Q41   1   1.1068  0.4595  0.4503  11.00000  0.05    0.20
Q42   1   1.1737  0.4921  0.3613  11.00000  0.05    0.20
Q43   1   0.6041  0.4531  0.0837  11.00000  0.05    0.20
Q44   1   0.7058  0.2321 -0.2013  11.00000  0.05    0.20
Q45   1   1.1303  0.7436  0.3235  11.00000  0.05    0.20
Q46   1   0.6196  0.8982  0.4849  11.00000  0.05    0.19
Q47   1   1.0102  0.5361  0.3975  11.00000  0.05    0.19
Q48   1  -0.1504  1.0292  0.7165  11.00000  0.05    0.19
Q49   1   0.3035  0.9488  0.8530  11.00000  0.05    0.19
Q50   1   1.4003  0.0384  0.1642  11.00000  0.05    0.19
;
_shelx_res_checksum              2457
loop_
_symmetry_equiv_pos_as_xyz
'x, y, z'
'-x, -y, -z'
loop_
_atom_site_label
_atom_site_type_symbol
_atom_site_fract_x
_atom_site_fract_y
_atom_site_fract_z
_atom_site_U_iso_or_equiv
_atom_site_adp_type
_atom_site_occupancy
_atom_site_site_symmetry_order
_atom_site_calc_flag
_atom_site_refinement_flags_posn
_atom_site_refinement_flags_adp
_atom_site_refinement_flags_occupancy
_atom_site_disorder_assembly
_atom_site_disorder_group
I1 I 0.71291(5) 0.71080(2) 0.28815(2) 0.04136(12) Uani 1 1 d . . . . .
Cl1 Cl 0.4129(3) 0.73509(8) 0.54233(8) 0.0526(2) Uani 1 1 d . . . . .
Cl2 Cl 0.2332(2) 0.98803(9) 0.72818(7) 0.0492(2) Uani 1 1 d . . . . .
C1 C 0.5864(8) 0.8835(3) 0.4145(3) 0.0349(6) Uani 1 1 d . . . . .
C2 C 0.4633(8) 0.8816(3) 0.5171(3) 0.0353(6) Uani 1 1 d . . . . .
C3 C 0.3800(8) 0.9955(3) 0.6014(3) 0.0342(6) Uani 1 1 d . . . . .
N1A N 0.8827(12) 0.4537(4) 0.1440(5) 0.0466(11) Uani 0.899(10) 1 d . U P A 1
C4A C 1.0394(14) 0.4071(5) 0.2162(4) 0.0496(11) Uani 0.899(10) 1 d . U P A 1
H4A H 1.10481 0.465003 0.291228 0.059 Uiso 0.899(10) 1 calc R U P A 1
C5A C 1.1095(13) 0.2791(5) 0.1862(4) 0.0469(10) Uani 0.899(10) 1 d . U P A 1
H5A H 1.222644 0.252633 0.239683 0.056 Uiso 0.899(10) 1 calc R U P A 1
C6A C 1.0104(12) 0.1891(4) 0.0753(4) 0.0375(9) Uani 0.899(10) 1 d D U P A 1
C7A C 0.8458(13) 0.2363(4) 0.0001(4) 0.0421(10) Uani 0.899(10) 1 d . U P A 1
H7A H 0.772915 0.180494 -0.074976 0.05 Uiso 0.899(10) 1 calc R U P A 1
C8A C 0.7913(15) 0.3681(5) 0.0386(5) 0.0470(10) Uani 0.899(10) 1 d . U P A 1
H8A H 0.683002 0.39827 -0.01336 0.056 Uiso 0.899(10) 1 calc R U P A 1
C9A C 1.0758(11) 0.0506(3) 0.0438(4) 0.0376(10) Uani 0.899(10) 1 d D U P A 1
H9A H 1.238317 0.032625 0.089645 0.045 Uiso 0.899(10) 1 calc R U P A 1
N1B N 0.958(12) 0.459(2) 0.140(4) 0.047(3) Uani 0.101(10) 1 d G U P A 2
C4B C 1.106(11) 0.390(4) 0.200(3) 0.046(3) Uani 0.101(10) 1 d G U P A 2
H4B H 1.214482 0.43397 0.273366 0.055 Uiso 0.101(10) 1 calc R U P A 2
C5B C 1.091(10) 0.253(4) 0.151(3) 0.042(3) Uani 0.101(10) 1 d G U P A 2
H5B H 1.190485 0.206344 0.190795 0.051 Uiso 0.101(10) 1 calc R U P A 2
C6B C 0.929(10) 0.187(2) 0.042(3) 0.039(3) Uani 0.101(10) 1 d DG U P A 2
C7B C 0.781(10) 0.257(4) -0.018(3) 0.041(3) Uani 0.101(10) 1 d G U P A 2
H7B H 0.672399 0.21213 -0.091362 0.049 Uiso 0.101(10) 1 calc R U P A 2
C8B C 0.795(12) 0.393(4) 0.031(4) 0.045(3) Uani 0.101(10) 1 d G U P A 2
H8B H 0.696394 0.439757 -0.008793 0.054 Uiso 0.101(10) 1 calc R U P A 2
C9B C 0.932(10) 0.043(3) -0.011(3) 0.038(3) Uani 0.101(10) 1 d D U P A 2
H9B H 0.792416 0.007219 -0.078611 0.046 Uiso 0.101(10) 1 calc R U P A 2
loop_
_atom_site_aniso_label
_atom_site_aniso_U_11
_atom_site_aniso_U_22
_atom_site_aniso_U_33
_atom_site_aniso_U_23
_atom_site_aniso_U_13
_atom_site_aniso_U_12
I1 0.04129(18) 0.03667(15) 0.03831(16) 0.00289(9) 0.00461(9) 0.00835(9)
Cl1 0.0767(7) 0.0372(4) 0.0474(5) 0.0188(3) 0.0077(4) 0.0071(4)
Cl2 0.0615(6) 0.0510(5) 0.0365(4) 0.0163(3) 0.0144(4) 0.0047(4)
C1 0.0345(17) 0.0319(14) 0.0353(15) 0.0078(12) 0.0021(12) 0.0068(11)
C2 0.0384(18) 0.0330(14) 0.0344(15) 0.0124(12) 0.0000(12) 0.0035(11)
C3 0.0326(17) 0.0384(15) 0.0301(14) 0.0110(12) 0.0009(12) 0.0020(12)
N1A 0.053(3) 0.0293(14) 0.0544(18) 0.0102(13) 0.0133(18) 0.0074(14)
C4A 0.061(3) 0.0347(18) 0.046(2) 0.0058(15) 0.0078(19) 0.0045(17)
C5A 0.060(2) 0.039(2) 0.040(2) 0.0131(17) 0.0019(19) 0.0048(17)
C6A 0.044(2) 0.0322(15) 0.039(2) 0.0140(15) 0.0118(16) 0.0060(14)
C7A 0.056(2) 0.0311(17) 0.0378(19) 0.0098(14) 0.0040(16) 0.0083(15)
C8A 0.058(2) 0.034(2) 0.052(2) 0.0180(16) 0.0068(17) 0.0114(18)
C9A 0.045(2) 0.0338(17) 0.037(2) 0.0149(14) 0.0072(17) 0.0103(14)
N1B 0.057(5) 0.033(4) 0.050(4) 0.012(4) 0.008(4) 0.007(4)
C4B 0.057(5) 0.033(4) 0.046(5) 0.010(4) 0.007(5) 0.006(4)
C5B 0.054(5) 0.033(4) 0.040(5) 0.012(4) 0.009(4) 0.007(4)
C6B 0.050(4) 0.032(4) 0.038(4) 0.014(4) 0.009(4) 0.007(4)
C7B 0.052(5) 0.032(4) 0.042(5) 0.015(4) 0.008(4) 0.009(4)
C8B 0.056(5) 0.031(4) 0.048(4) 0.013(4) 0.008(4) 0.010(5)
C9B 0.046(6) 0.031(5) 0.039(6) 0.012(5) 0.009(6) 0.006(5)
loop_
_atom_type_symbol
_atom_type_description
_atom_type_scat_dispersion_real
_atom_type_scat_dispersion_imag
_atom_type_scat_source
C C 0.0181 0.0091 'International Tables Vol C Tables 4.2.6.8 and 6.1.1.4'
H H 0 0 'International Tables Vol C Tables 4.2.6.8 and 6.1.1.4'
Cl Cl 0.3639 0.7018 'International Tables Vol C Tables 4.2.6.8 and 6.1.1.4'
I I -0.3257 6.8362 'International Tables Vol C Tables 4.2.6.8 and 6.1.1.4'
N N 0.0311 0.018 'International Tables Vol C Tables 4.2.6.8 and 6.1.1.4'
loop_
_exptl_crystal_face_index_h
_exptl_crystal_face_index_k
_exptl_crystal_face_index_l
_exptl_crystal_face_perp_dist
1 -4 7 0.0254
0 7 -3 0.0206
-3 1 -1 0.0667
0 4 -8 0.0449
-3 0 0 0.0713
3 0 0 0.0225
0 -6 -2 0.0356
0 -4 -5 0.0281
0 -6 -1 0.0337
0 6 2 0.0131
loop_
_geom_angle_atom_site_label_1
_geom_angle_atom_site_label_2
_geom_angle_atom_site_label_3
_geom_angle
_geom_angle_site_symmetry_1
_geom_angle_site_symmetry_3
C1 I1 N1A 170.36(14) . .
C1 I1 N1B 170.5(9) . .
C2 C1 C3 117.4(3) . 2_676
C2 C1 I1 121.1(2) . .
C3 C1 I1 121.5(2) 2_676 .
C3 C2 C1 121.4(3) . .
C3 C2 Cl1 118.6(2) . .
C1 C2 Cl1 119.9(2) . .
C2 C3 C1 121.1(3) . 2_676
C2 C3 Cl2 119.5(2) . .
C1 C3 Cl2 119.3(2) 2_676 .
C8A N1A C4A 116.1(4) . .
C8A N1A I1 136.4(4) . .
C4A N1A I1 105.8(3) . .
N1A C4A C5A 124.0(4) . .
N1A C4A H4A 118 . .
C5A C4A H4A 118 . .
C4A C5A C6A 119.7(4) . .
C4A C5A H5A 120.2 . .
C6A C5A H5A 120.2 . .
C7A C6A C5A 116.7(3) . .
C7A C6A C9A 123.4(4) . .
C5A C6A C9A 119.9(4) . .
C6A C7A C8A 119.0(4) . .
C6A C7A H7A 120.5 . .
C8A C7A H7A 120.5 . .
N1A C8A C7A 124.4(4) . .
N1A C8A H8A 117.8 . .
C7A C8A H8A 117.8 . .
C9A C9A C6A 125.9(5) 2_755 .
C9A C9A H9A 117.1 2_755 .
C6A C9A H9A 117.1 . .
C4B N1B C8B 120 . .
C4B N1B I1 116(2) . .
C8B N1B I1 118(2) . .
C5B C4B N1B 120 . .
C5B C4B H4B 120 . .
N1B C4B H4B 120 . .
C6B C5B C4B 120 . .
C6B C5B H5B 120 . .
C4B C5B H5B 120 . .
C5B C6B C7B 120 . .
C5B C6B C9B 119(3) . .
C7B C6B C9B 121(3) . .
C8B C7B C6B 120 . .
C8B C7B H7B 120 . .
C6B C7B H7B 120 . .
C7B C8B N1B 120 . .
C7B C8B H8B 120 . .
N1B C8B H8B 120 . .
C9B C9B C6B 137(5) 2_755 .
C9B C9B H9B 111.4 2_755 .
C6B C9B H9B 111.4 . .
loop_
_geom_bond_atom_site_label_1
_geom_bond_atom_site_label_2
_geom_bond_distance
_geom_bond_site_symmetry_2
I1 C1 2.100(3) .
I1 N1A 2.903(4) .
I1 N1B 2.99(3) .
Cl1 C2 1.733(3) .
Cl2 C3 1.728(3) .
C1 C2 1.390(4) .
C1 C3 1.401(4) 2_676
C2 C3 1.389(4) .
N1A C8A 1.321(6) .
N1A C4A 1.337(6) .
C4A C5A 1.373(6) .
C4A H4A 0.93 .
C5A C6A 1.391(6) .
C5A H5A 0.93 .
C6A C7A 1.387(6) .
C6A C9A 1.473(5) .
C7A C8A 1.388(5) .
C7A H7A 0.93 .
C8A H8A 0.93 .
C9A C9A 1.323(9) 2_755
C9A H9A 0.93 .
N1B C4B 1.39 .
N1B C8B 1.39 .
C4B C5B 1.39 .
C4B H4B 0.93 .
C5B C6B 1.39 .
C5B H5B 0.93 .
C6B C7B 1.39 .
C6B C9B 1.47(2) .
C7B C8B 1.39 .
C7B H7B 0.93 .
C8B H8B 0.93 .
C9B C9B 1.23(7) 2_755
C9B H9B 0.93 .
