#------------------------------------------------------------------------------
#$Date: 2019-10-29 06:15:30 +0200 (Tue, 29 Oct 2019) $
#$Revision: 220351 $
#$URL: file:///home/coder/svn-repositories/cod/cif/7/05/89/7058928.cif $
#------------------------------------------------------------------------------
#
# This file is available in the Crystallography Open Database (COD),
# http://www.crystallography.net/
#
# All data on this site have been placed in the public domain by the
# contributors.
#
data_7058928
loop_
_publ_author_name
'Juneja, Navkiran Kaur'
'Unruh, Daniel K.'
'Bosch, Eric'
'Groeneman , Ryan'
'Hutchins, Kristin M.'
_publ_section_title
;
 Effects of dynamic pedal motion and static disorder on thermal expansion
 within halogen bonded co-crystals
;
_journal_name_full               'New Journal of Chemistry'
_journal_paper_doi               10.1039/C9NJ04833B
_journal_year                    2019
_chemical_formula_sum            'C18 H10 Cl4 I2 N2'
_chemical_formula_weight         649.88
_space_group_IT_number           2
_space_group_name_Hall           '-P 1'
_space_group_name_H-M_alt        'P -1'
_symmetry_cell_setting           triclinic
_symmetry_Int_Tables_number      2
_symmetry_space_group_name_Hall  '-P 1'
_symmetry_space_group_name_H-M   'P -1'
_atom_sites_solution_hydrogens   geom
_atom_sites_solution_primary     dual
_atom_sites_solution_secondary   difmap
_audit_creation_date             2019-09-06T14:45:09-00:00
_audit_creation_method           'WinGX routine CIF_UPDATE'
_audit_update_record
;
2019-09-20 deposited with the CCDC.    2019-10-28 downloaded from the CCDC.
;
_cell_angle_alpha                110.5582(9)
_cell_angle_beta                 92.6207(9)
_cell_angle_gamma                94.6300(9)
_cell_formula_units_Z            1
_cell_length_a                   4.05144(5)
_cell_length_b                   10.90047(11)
_cell_length_c                   12.32575(11)
_cell_measurement_reflns_used    15186
_cell_measurement_temperature    230(2)
_cell_measurement_theta_max      77.164
_cell_measurement_theta_min      3.819
_cell_volume                     506.406(10)
_computing_cell_refinement       'CrysAlisPro 1.171.40.57a (Rigaku OD, 2019)'
_computing_data_collection       'CrysAlisPro 1.171.40.57a (Rigaku OD, 2019)'
_computing_data_reduction        'CrysAlisPro 1.171.40.57a (Rigaku OD, 2019)'
_computing_structure_refinement  'SHELXL-2018/3 (Sheldrick, 2018)'
_computing_structure_solution    'SHELXT 2014/5 (Sheldrick, 2014)'
_diffrn_ambient_environment      N~2~
_diffrn_ambient_temperature      230(2)
_diffrn_detector                 'Hybrid Pixel Array Detector'
_diffrn_detector_area_resol_mean 10
_diffrn_detector_type            HyPix
_diffrn_measured_fraction_theta_full 0.998
_diffrn_measured_fraction_theta_max 0.962
_diffrn_measurement_device       'four-circle diffractometer'
_diffrn_measurement_device_type  'XtaLAB Synergy, Dualflex, HyPix'
_diffrn_measurement_method       '\w scans'
_diffrn_orient_matrix_type
'CrysAlisPro convention (1999,Acta A55,543-557)'
_diffrn_orient_matrix_UB_11      -0.016034
_diffrn_orient_matrix_UB_12      -0.013696
_diffrn_orient_matrix_UB_13      -0.1289043
_diffrn_orient_matrix_UB_21      0.0269996
_diffrn_orient_matrix_UB_22      0.1510711
_diffrn_orient_matrix_UB_23      0.0361743
_diffrn_orient_matrix_UB_31      0.3814117
_diffrn_orient_matrix_UB_32      0.0044851
_diffrn_orient_matrix_UB_33      0.0026844
_diffrn_radiation_monochromator  mirror
_diffrn_radiation_probe          x-ray
_diffrn_radiation_type           CuK\a
_diffrn_radiation_wavelength     1.54178
_diffrn_reflns_av_R_equivalents  0.0623
_diffrn_reflns_av_unetI/netI     0.0623
_diffrn_reflns_Laue_measured_fraction_full 0.998
_diffrn_reflns_Laue_measured_fraction_max 0.962
_diffrn_reflns_limit_h_max       4
_diffrn_reflns_limit_h_min       -4
_diffrn_reflns_limit_k_max       13
_diffrn_reflns_limit_k_min       -13
_diffrn_reflns_limit_l_max       15
_diffrn_reflns_limit_l_min       -15
_diffrn_reflns_number            18963
_diffrn_reflns_point_group_measured_fraction_full 0.998
_diffrn_reflns_point_group_measured_fraction_max 0.962
_diffrn_reflns_theta_full        67.679
_diffrn_reflns_theta_max         77.16
_diffrn_reflns_theta_min         3.842
_diffrn_source                   'micro-focus sealed X-ray tube'
_diffrn_source_type              'PhotonJet (Cu) X-ray Source'
_exptl_absorpt_coefficient_mu    29.291
_exptl_absorpt_correction_T_max  0.445
_exptl_absorpt_correction_T_min  0.134
_exptl_absorpt_correction_type   gaussian
_exptl_absorpt_process_details
;
        CrysAlisPro 1.171.40.57a (Rigaku Oxford Diffraction, 2019)
Numerical absorption correction based on gaussian integration over
                        a multifaceted crystal model
        Empirical absorption correction using spherical harmonics,
 implemented in SCALE3 ABSPACK scaling algorithm.
;
_exptl_crystal_colour            'clear colourless'
_exptl_crystal_density_diffrn    2.131
_exptl_crystal_description       block
_exptl_crystal_F_000             306
_exptl_crystal_size_max          0.12
_exptl_crystal_size_mid          0.086
_exptl_crystal_size_min          0.048
_refine_diff_density_max         0.701
_refine_diff_density_min         -0.955
_refine_diff_density_rms         0.107
_refine_ls_extinction_coef       0.0030(3)
_refine_ls_extinction_expression Fc^*^=kFc[1+0.001xFc^2^\l^3^/sin(2\q)]^-1/4^
_refine_ls_extinction_method     'SHELXL-2018/3 (Sheldrick 2018)'
_refine_ls_goodness_of_fit_ref   1.072
_refine_ls_hydrogen_treatment    constr
_refine_ls_matrix_type           full
_refine_ls_number_parameters     173
_refine_ls_number_reflns         2064
_refine_ls_number_restraints     351
_refine_ls_restrained_S_all      0.992
_refine_ls_R_factor_all          0.0266
_refine_ls_R_factor_gt           0.0248
_refine_ls_shift/su_max          0.001
_refine_ls_shift/su_mean         0
_refine_ls_structure_factor_coef Fsqd
_refine_ls_weighting_details
'w=1/[\s^2^(Fo^2^)+(0.0433P)^2^+0.2215P] where P=(Fo^2^+2Fc^2^)/3'
_refine_ls_weighting_scheme      calc
_refine_ls_wR_factor_gt          0.0638
_refine_ls_wR_factor_ref         0.0663
_reflns_Friedel_coverage         0
_reflns_number_gt                1995
_reflns_number_total             2064
_reflns_threshold_expression     'I > 2\s(I)'
_cod_data_source_file            c9nj04833b2.cif
_cod_data_source_block           hut19_49_230
_cod_database_code               7058928
_shelx_estimated_absorpt_t_min   0.127
_shelx_estimated_absorpt_t_max   0.334
_shelx_shelxl_version_number     2018/3
_shelx_res_file
;
TITL 230_a.res in P-1
    230_a.res
    created by SHELXL-2018/3 at 14:39:41 on 06-Sep-2019
REM Old TITL 230 in P1

REM SHELXT solution in P-1
REM R1 0.137,  Rweak 0.011,  Alpha 0.033,  Orientation as input
REM Formula found by SHELXT:  C10 O2 I

CELL  1.54178   4.051444  10.900469  12.325746   110.5582    92.6207    94.6300
ZERR    1.000   0.000050   0.000109   0.000105     0.0009     0.0009     0.0009
LATT  1
SFAC C H CL I N
UNIT 18 10 4 2 2
TEMP -43.2
SIZE 0.120 0.086 0.048
L.S. 10
BOND $H
ACTA
LIST 4
FMAP 2
PLAN 50

BIND I1 N1A
BIND I1 N1B

EQIV $1 2-x, -y, -z

RIGU
SIMU 0.01 N1A N1B C4A C4B C5A C5B C6A C6B C7A C7B C8A C8B C9A C9B

DFIX 31 C6A C9A C6B C9B
DFIX 41 C9A C9A_$1 C9B C9B_$1

WGHT    0.043300    0.221500
EXTI    0.002988
FVAR       0.60390   0.96269   1.47135   1.32628
I1    4    0.710201    0.710647    0.287016    11.00000    0.03392    0.03029 =
         0.03143    0.00268    0.00362    0.00688
CL1   3    0.406545    0.733900    0.541352    11.00000    0.06236    0.03098 =
         0.03869    0.01551    0.00557    0.00496
CL2   3    0.230637    0.986959    0.728286    11.00000    0.05058    0.04261 =
         0.03023    0.01360    0.01211    0.00423
C1    1    0.584620    0.883279    0.413836    11.00000    0.02869    0.02688 =
         0.02977    0.00659    0.00233    0.00503
C2    1    0.460755    0.881193    0.517069    11.00000    0.02978    0.02871 =
         0.02915    0.00923    0.00120    0.00416
C3    1    0.379039    0.994772    0.601510    11.00000    0.02781    0.03291 =
         0.02640    0.01072    0.00083    0.00312
PART  1
N1A   5    0.884884    0.454492    0.143582    21.00000    0.04640    0.02555 =
         0.04410    0.00844    0.00905    0.00624
C4A   1    1.043551    0.407060    0.215595    21.00000    0.04975    0.03029 =
         0.03753    0.00429    0.00361    0.00159
AFIX  43
H4A   2    1.111114    0.465330    0.291428    21.00000   -1.20000
AFIX   0
C5A   1    1.113944    0.278742    0.185794    21.00000    0.04887    0.03199 =
         0.03528    0.01224    0.00076    0.00399
AFIX  43
H5A   2    1.230221    0.251552    0.239708    21.00000   -1.20000
AFIX   0
C6A   1    1.011002    0.189108    0.074592    21.00000    0.03451    0.02749 =
         0.03221    0.01141    0.00773    0.00437
C7A   1    0.844902    0.237440   -0.000349    21.00000    0.04866    0.02514 =
         0.03099    0.00779    0.00430    0.00629
AFIX  43
H7A   2    0.770059    0.181214   -0.076218    21.00000   -1.20000
AFIX   0
C8A   1    0.790135    0.369401    0.037561    21.00000    0.04868    0.02930 =
         0.04367    0.01563    0.00452    0.00975
AFIX  43
H8A   2    0.679492    0.400306   -0.014910    21.00000   -1.20000
AFIX   0
C9A   1    1.078133    0.050726    0.043810    21.00000    0.03502    0.02965 =
         0.03267    0.01253    0.00643    0.00822
AFIX  43
H9A   2    1.244989    0.032416    0.089749    21.00000   -1.20000
AFIX  66
PART  2
N1B   5    0.972643    0.464236    0.137167   -21.00000    0.04782    0.02815 =
         0.04063    0.00955    0.00526    0.00517
C4B   1    1.108132    0.391305    0.197395   -21.00000    0.04721    0.02869 =
         0.03837    0.00880    0.00420    0.00422
AFIX  43
H4B   2    1.218027    0.434387    0.271652   -21.00000   -1.20000
AFIX  65
C5B   1    1.081120    0.254668    0.147818   -21.00000    0.04521    0.02808 =
         0.03369    0.01046    0.00424    0.00470
AFIX  43
H5B   2    1.172747    0.205348    0.188549   -21.00000   -1.20000
AFIX  65
C6B   1    0.918618    0.190961    0.038013   -21.00000    0.04143    0.02745 =
         0.03229    0.01149    0.00516    0.00594
C7B   1    0.783127    0.263891   -0.022217   -21.00000    0.04357    0.02711 =
         0.03535    0.01241    0.00560    0.00679
AFIX  43
H7B   2    0.673233    0.220807   -0.096474   -21.00000   -1.20000
AFIX  65
C8B   1    0.810137    0.400528    0.027359   -21.00000    0.04727    0.02682 =
         0.03903    0.01138    0.00631    0.00662
AFIX  43
H8B   2    0.718510    0.449847   -0.013372   -21.00000   -1.20000
AFIX   0
C9B   1    0.944115    0.048555   -0.013350   -21.00000    0.03672    0.02765 =
         0.03168    0.01229    0.00594    0.00712
AFIX  43
H9B   2    0.849930    0.016019   -0.090491   -21.00000   -1.20000
AFIX   0
HKLF 4




REM  230_a.res in P-1
REM wR2 = 0.066284, GooF = S = 1.07209, Restrained GooF = 0.99186 for all data
REM R1 = 0.024792 for 1995 Fo > 4sig(Fo) and 0.026632 for all 2064 data
REM 173 parameters refined using 351 restraints

END

WGHT      0.0424      0.2776

REM Highest difference peak  0.701,  deepest hole -0.955,  1-sigma level  0.107
Q1    1   0.8612  0.7175  0.3483  11.00000  0.05    0.70
Q2    1   0.5545  0.6850  0.2194  11.00000  0.05    0.70
Q3    1   0.5592  0.5986  0.2590  11.00000  0.05    0.49
Q4    1   0.6023  0.7793  0.3410  11.00000  0.05    0.44
Q5    1   0.8104  0.6542  0.2372  11.00000  0.05    0.44
Q6    1   0.5407  0.7173  0.3585  11.00000  0.05    0.38
Q7    1   0.7159  0.7534  0.3971  11.00000  0.05    0.38
Q8    1   1.1637  0.6782  0.3668  11.00000  0.05    0.37
Q9    1   0.5526  0.7651  0.6032  11.00000  0.05    0.34
Q10   1  -0.0051  1.1091  0.7787  11.00000  0.05    0.34
Q11   1   0.9325  0.8364  0.3264  11.00000  0.05    0.33
Q12   1   1.3043  0.5819  0.2433  11.00000  0.05    0.33
Q13   1   1.3837  0.5427  0.3196  11.00000  0.05    0.32
Q14   1   0.2526  0.7015  0.4685  11.00000  0.05    0.31
Q15   1   0.6858  0.6571  0.1663  11.00000  0.05    0.30
Q16   1   0.7408  0.8272  0.2957  11.00000  0.05    0.29
Q17   1   0.6180  0.8934  0.4852  11.00000  0.05    0.27
Q18   1   1.0465  0.4805  0.3418  11.00000  0.05    0.27
Q19   1   0.8144  0.2996  0.0235  11.00000  0.05    0.27
Q20   1   0.4187  0.9989  0.8089  11.00000  0.05    0.26
Q21   1   1.1106  0.7433  0.3171  11.00000  0.05    0.26
Q22   1   0.8018  0.7167  0.4700  11.00000  0.05    0.26
Q23   1   0.3046  0.9374  0.5430  11.00000  0.05    0.25
Q24   1   1.1990  0.4478  0.3346  11.00000  0.05    0.25
Q25   1   0.6461  1.0396  0.7615  11.00000  0.05    0.24
Q26   1   0.1442  0.6270  0.4814  11.00000  0.05    0.24
Q27   1   0.6620  0.2775  0.1543  11.00000  0.05    0.24
Q28   1   0.8386  0.9771  0.4727  11.00000  0.05    0.24
Q29   1   0.7474  0.2964 -0.2054  11.00000  0.05    0.24
Q30   1   1.3380  0.2227  0.2941  11.00000  0.05    0.23
Q31   1   0.6300  0.5027 -0.1196  11.00000  0.05    0.23
Q32   1   1.1993  0.0181 -0.0163  11.00000  0.05    0.23
Q33   1   0.3998  0.6456  0.5075  11.00000  0.05    0.23
Q34   1   1.2336  0.2677  0.3781  11.00000  0.05    0.23
Q35   1   0.5404  0.7189  0.4675  11.00000  0.05    0.22
Q36   1   0.8106  0.0658 -0.1844  11.00000  0.05    0.22
Q37   1   0.4498  0.8333  0.3290  11.00000  0.05    0.22
Q38   1   1.0580  0.7511  0.2257  11.00000  0.05    0.22
Q39   1   0.8988  0.5159  0.3014  11.00000  0.05    0.22
Q40   1   1.2974  0.5073  0.4164  11.00000  0.05    0.22
Q41   1   0.7394  0.4542  0.1762  11.00000  0.05    0.21
Q42   1   1.0330  0.9519  0.4564  11.00000  0.05    0.21
Q43   1   0.4744  0.4145  0.0394  11.00000  0.05    0.21
Q44   1   0.4426  0.9241  0.7668  11.00000  0.05    0.21
Q45   1   0.4580  1.0963  0.7437  11.00000  0.05    0.21
Q46   1   0.9172  0.4008  0.0989  11.00000  0.05    0.21
Q47   1   1.4251  0.0252  0.1155  11.00000  0.05    0.21
Q48   1   1.1969  0.6040  0.1837  11.00000  0.05    0.21
Q49   1   0.5347  0.3446  0.1190  11.00000  0.05    0.21
Q50   1   0.3693  0.6723  0.4289  11.00000  0.05    0.21
;
_shelx_res_checksum              37250
loop_
_symmetry_equiv_pos_as_xyz
'x, y, z'
'-x, -y, -z'
loop_
_atom_site_label
_atom_site_type_symbol
_atom_site_fract_x
_atom_site_fract_y
_atom_site_fract_z
_atom_site_U_iso_or_equiv
_atom_site_adp_type
_atom_site_occupancy
_atom_site_site_symmetry_order
_atom_site_calc_flag
_atom_site_refinement_flags_posn
_atom_site_refinement_flags_adp
_atom_site_refinement_flags_occupancy
_atom_site_disorder_assembly
_atom_site_disorder_group
I1 I 0.71020(5) 0.71065(2) 0.28702(2) 0.03388(12) Uani 1 1 d . . . . .
Cl1 Cl 0.4065(3) 0.73390(8) 0.54135(7) 0.0431(2) Uani 1 1 d . . . . .
Cl2 Cl 0.2306(2) 0.98696(8) 0.72829(7) 0.0407(2) Uani 1 1 d . . . . .
C1 C 0.5846(8) 0.8833(3) 0.4138(3) 0.0293(6) Uani 1 1 d . . . . .
C2 C 0.4608(8) 0.8812(3) 0.5171(3) 0.0295(6) Uani 1 1 d . . . . .
C3 C 0.3790(8) 0.9948(3) 0.6015(3) 0.0290(6) Uani 1 1 d . . . . .
N1A N 0.8849(10) 0.4545(3) 0.1436(3) 0.0394(9) Uani 0.963(8) 1 d . U P A 1
C4A C 1.0436(12) 0.4071(4) 0.2156(4) 0.0414(10) Uani 0.963(8) 1 d . U P A 1
H4A H 1.111114 0.46533 0.291428 0.05 Uiso 0.963(8) 1 calc R U P A 1
C5A C 1.1139(11) 0.2787(4) 0.1858(4) 0.0387(9) Uani 0.963(8) 1 d . U P A 1
H5A H 1.230221 0.251552 0.239708 0.046 Uiso 0.963(8) 1 calc R U P A 1
C6A C 1.0110(10) 0.1891(3) 0.0746(4) 0.0310(8) Uani 0.963(8) 1 d D U P A 1
C7A C 0.8449(11) 0.2374(4) -0.0003(3) 0.0353(8) Uani 0.963(8) 1 d . U P A 1
H7A H 0.770059 0.181214 -0.076218 0.042 Uiso 0.963(8) 1 calc R U P A 1
C8A C 0.7901(11) 0.3694(4) 0.0376(4) 0.0395(8) Uani 0.963(8) 1 d . U P A 1
H8A H 0.679492 0.400306 -0.01491 0.047 Uiso 0.963(8) 1 calc R U P A 1
C9A C 1.0781(9) 0.0507(3) 0.0438(3) 0.0317(8) Uani 0.963(8) 1 d D U P A 1
H9A H 1.244989 0.032416 0.089749 0.038 Uiso 0.963(8) 1 calc R U P A 1
N1B N 0.97(3) 0.464(5) 0.137(8) 0.039(3) Uani 0.037(8) 1 d G U P A 2
C4B C 1.11(3) 0.391(8) 0.197(7) 0.039(3) Uani 0.037(8) 1 d G U P A 2
H4B H 1.218027 0.434387 0.271652 0.047 Uiso 0.037(8) 1 calc R U P A 2
C5B C 1.08(2) 0.255(8) 0.148(8) 0.036(3) Uani 0.037(8) 1 d G U P A 2
H5B H 1.172747 0.205348 0.188549 0.043 Uiso 0.037(8) 1 calc R U P A 2
C6B C 0.92(2) 0.191(5) 0.038(8) 0.033(3) Uani 0.037(8) 1 d DG U P A 2
C7B C 0.78(2) 0.264(7) -0.022(6) 0.035(3) Uani 0.037(8) 1 d G U P A 2
H7B H 0.673233 0.220807 -0.096474 0.042 Uiso 0.037(8) 1 calc R U P A 2
C8B C 0.81(2) 0.401(7) 0.027(8) 0.038(3) Uani 0.037(8) 1 d G U P A 2
H8B H 0.71851 0.449847 -0.013372 0.045 Uiso 0.037(8) 1 calc R U P A 2
C9B C 0.94(2) 0.049(5) -0.013(6) 0.031(4) Uani 0.037(8) 1 d D U P A 2
H9B H 0.84993 0.016019 -0.090491 0.037 Uiso 0.037(8) 1 calc R U P A 2
loop_
_atom_site_aniso_label
_atom_site_aniso_U_11
_atom_site_aniso_U_22
_atom_site_aniso_U_33
_atom_site_aniso_U_23
_atom_site_aniso_U_13
_atom_site_aniso_U_12
I1 0.03392(17) 0.03029(14) 0.03143(15) 0.00268(9) 0.00362(9) 0.00688(9)
Cl1 0.0624(6) 0.0310(4) 0.0387(4) 0.0155(3) 0.0056(4) 0.0050(3)
Cl2 0.0506(5) 0.0426(4) 0.0302(4) 0.0136(3) 0.0121(3) 0.0042(3)
C1 0.0287(17) 0.0269(14) 0.0298(15) 0.0066(11) 0.0023(12) 0.0050(11)
C2 0.0298(17) 0.0287(13) 0.0291(15) 0.0092(11) 0.0012(12) 0.0042(11)
C3 0.0278(17) 0.0329(15) 0.0264(14) 0.0107(12) 0.0008(11) 0.0031(12)
N1A 0.046(2) 0.0255(13) 0.0441(16) 0.0084(12) 0.0090(15) 0.0062(12)
C4A 0.050(2) 0.0303(16) 0.0375(18) 0.0043(14) 0.0036(16) 0.0016(15)
C5A 0.049(2) 0.0320(17) 0.0353(19) 0.0122(15) 0.0008(16) 0.0040(15)
C6A 0.0345(18) 0.0275(14) 0.0322(18) 0.0114(13) 0.0077(13) 0.0044(12)
C7A 0.049(2) 0.0251(15) 0.0310(16) 0.0078(12) 0.0043(14) 0.0063(13)
C8A 0.049(2) 0.0293(18) 0.0437(18) 0.0156(14) 0.0045(15) 0.0098(15)
C9A 0.0350(19) 0.0297(15) 0.0327(17) 0.0125(12) 0.0064(13) 0.0082(12)
N1B 0.048(5) 0.028(4) 0.041(5) 0.010(4) 0.005(5) 0.005(5)
C4B 0.047(5) 0.029(4) 0.038(5) 0.009(4) 0.004(5) 0.004(4)
C5B 0.045(4) 0.028(4) 0.034(4) 0.010(4) 0.004(4) 0.005(4)
C6B 0.041(4) 0.027(4) 0.032(4) 0.011(4) 0.005(4) 0.006(4)
C7B 0.044(5) 0.027(4) 0.035(5) 0.012(4) 0.006(5) 0.007(4)
C8B 0.047(5) 0.027(4) 0.039(5) 0.011(4) 0.006(5) 0.007(5)
C9B 0.037(6) 0.028(5) 0.032(6) 0.012(5) 0.006(6) 0.007(6)
loop_
_atom_type_symbol
_atom_type_description
_atom_type_scat_dispersion_real
_atom_type_scat_dispersion_imag
_atom_type_scat_source
C C 0.0181 0.0091 'International Tables Vol C Tables 4.2.6.8 and 6.1.1.4'
H H 0 0 'International Tables Vol C Tables 4.2.6.8 and 6.1.1.4'
Cl Cl 0.3639 0.7018 'International Tables Vol C Tables 4.2.6.8 and 6.1.1.4'
I I -0.3257 6.8362 'International Tables Vol C Tables 4.2.6.8 and 6.1.1.4'
N N 0.0311 0.018 'International Tables Vol C Tables 4.2.6.8 and 6.1.1.4'
loop_
_exptl_crystal_face_index_h
_exptl_crystal_face_index_k
_exptl_crystal_face_index_l
_exptl_crystal_face_perp_dist
1 -4 7 0.0254
0 7 -3 0.0206
-3 1 -1 0.0667
0 4 -8 0.0449
-3 0 0 0.0713
3 0 0 0.0225
0 -6 -2 0.0356
0 -4 -5 0.0281
0 -6 -1 0.0337
0 6 2 0.0131
loop_
_geom_angle_atom_site_label_1
_geom_angle_atom_site_label_2
_geom_angle_atom_site_label_3
_geom_angle
_geom_angle_site_symmetry_1
_geom_angle_site_symmetry_3
C1 I1 N1A 170.23(12) . .
C1 I1 N1B 170.4(19) . .
C2 C1 C3 117.3(3) . 2_676
C2 C1 I1 121.1(2) . .
C3 C1 I1 121.6(2) 2_676 .
C3 C2 C1 121.5(3) . .
C3 C2 Cl1 118.7(2) . .
C1 C2 Cl1 119.8(2) . .
C2 C3 C1 121.2(3) . 2_676
C2 C3 Cl2 119.6(2) . .
C1 C3 Cl2 119.2(2) 2_676 .
C8A N1A C4A 116.4(3) . .
C8A N1A I1 135.7(3) . .
C4A N1A I1 106.1(2) . .
N1A C4A C5A 124.2(3) . .
N1A C4A H4A 117.9 . .
C5A C4A H4A 117.9 . .
C4A C5A C6A 119.3(3) . .
C4A C5A H5A 120.3 . .
C6A C5A H5A 120.3 . .
C7A C6A C5A 116.8(3) . .
C7A C6A C9A 123.9(4) . .
C5A C6A C9A 119.3(4) . .
C8A C7A C6A 119.5(3) . .
C8A C7A H7A 120.3 . .
C6A C7A H7A 120.3 . .
N1A C8A C7A 123.8(3) . .
N1A C8A H8A 118.1 . .
C7A C8A H8A 118.1 . .
C9A C9A C6A 125.4(4) 2_755 .
C9A C9A H9A 117.3 2_755 .
C6A C9A H9A 117.3 . .
C4B N1B C8B 120 . .
C4B N1B I1 115(5) . .
C8B N1B I1 117(5) . .
C5B C4B N1B 120 . .
C5B C4B H4B 120 . .
N1B C4B H4B 120 . .
C6B C5B C4B 120 . .
C6B C5B H5B 120 . .
C4B C5B H5B 120 . .
C5B C6B C7B 120 . .
C5B C6B C9B 116(7) . .
C7B C6B C9B 124(7) . .
C6B C7B C8B 120 . .
C6B C7B H7B 120 . .
C8B C7B H7B 120 . .
C7B C8B N1B 120 . .
C7B C8B H8B 120 . .
N1B C8B H8B 120 . .
C9B C9B C6B 141(9) 2_755 .
C9B C9B H9B 109.6 2_755 .
C6B C9B H9B 109.6 . .
loop_
_geom_bond_atom_site_label_1
_geom_bond_atom_site_label_2
_geom_bond_distance
_geom_bond_site_symmetry_2
I1 C1 2.099(3) .
I1 N1A 2.896(3) .
I1 N1B 2.99(7) .
Cl1 C2 1.733(3) .
Cl2 C3 1.727(3) .
C1 C2 1.396(4) .
C1 C3 1.404(4) 2_676
C2 C3 1.385(4) .
N1A C8A 1.327(5) .
N1A C4A 1.339(5) .
C4A C5A 1.373(5) .
C4A H4A 0.94 .
C5A C6A 1.396(5) .
C5A H5A 0.94 .
C6A C7A 1.388(5) .
C6A C9A 1.472(4) .
C7A C8A 1.388(5) .
C7A H7A 0.94 .
C8A H8A 0.94 .
C9A C9A 1.333(7) 2_755
C9A H9A 0.94 .
N1B C4B 1.39 .
N1B C8B 1.39 .
C4B C5B 1.39 .
C4B H4B 0.94 .
C5B C6B 1.39 .
C5B H5B 0.94 .
C6B C7B 1.39 .
C6B C9B 1.47(3) .
C7B C8B 1.39 .
C7B H7B 0.94 .
C8B H8B 0.94 .
C9B C9B 1.32(3) 2_755
C9B H9B 0.94 .
