#------------------------------------------------------------------------------
#$Date: 2019-10-29 06:15:30 +0200 (Tue, 29 Oct 2019) $
#$Revision: 220351 $
#$URL: file:///home/coder/svn-repositories/cod/cif/7/05/89/7058929.cif $
#------------------------------------------------------------------------------
#
# This file is available in the Crystallography Open Database (COD),
# http://www.crystallography.net/
#
# All data on this site have been placed in the public domain by the
# contributors.
#
data_7058929
loop_
_publ_author_name
'Juneja, Navkiran Kaur'
'Unruh, Daniel K.'
'Bosch, Eric'
'Groeneman , Ryan'
'Hutchins, Kristin M.'
_publ_section_title
;
 Effects of dynamic pedal motion and static disorder on thermal expansion
 within halogen bonded co-crystals
;
_journal_name_full               'New Journal of Chemistry'
_journal_paper_doi               10.1039/C9NJ04833B
_journal_year                    2019
_chemical_formula_moiety         'C12 H8 N2, C6 Cl4 I2'
_chemical_formula_sum            'C18 H8 Cl4 I2 N2'
_chemical_formula_weight         647.86
_chemical_name_common
'Cocrystal 1,2,4,5-tetrachlorobenzene and 1,2-bis(4-pyridyl)ethyne'
_space_group_crystal_system      triclinic
_space_group_IT_number           2
_space_group_name_Hall           '-P 1'
_space_group_name_H-M_alt        'P -1'
_symmetry_space_group_name_Hall  '-P 1'
_symmetry_space_group_name_H-M   'P -1'
_atom_sites_solution_hydrogens   geom
_audit_creation_method           SHELXL-2018/3
_audit_update_record
;
2019-09-24 deposited with the CCDC.    2019-10-28 downloaded from the CCDC.
;
_cell_angle_alpha                111.5050(10)
_cell_angle_beta                 90.5190(10)
_cell_angle_gamma                97.6160(10)
_cell_formula_units_Z            1
_cell_length_a                   4.0179(2)
_cell_length_b                   11.1807(6)
_cell_length_c                   12.1538(7)
_cell_measurement_reflns_used    5176
_cell_measurement_temperature    190(2)
_cell_measurement_theta_max      27.31
_cell_measurement_theta_min      3.14
_cell_volume                     502.51(5)
_computing_cell_refinement       'Bruker SMART'
_computing_data_collection       'Bruker SMART'
_computing_data_reduction        'Bruker SAINT'
_computing_molecular_graphics    'XSeed (Barbour, 2001)'
_computing_publication_material  'XSeed (Barbour, 2001)'
_computing_structure_refinement  'SHELXL-2018/3 (Sheldrick, 2015)'
_computing_structure_solution    'SHELXT 2018/2 (Sheldrick, 2015)'
_diffrn_ambient_temperature      190(2)
_diffrn_detector_area_resol_mean 8.3660
_diffrn_measured_fraction_theta_full 1.000
_diffrn_measured_fraction_theta_max 0.998
_diffrn_measurement_device_type  'Bruker APEX-II CCD'
_diffrn_measurement_method       'phi and omega scans'
_diffrn_radiation_monochromator  graphite
_diffrn_radiation_source         'fine-focus sealed tube'
_diffrn_radiation_type           MoK\a
_diffrn_radiation_wavelength     0.71073
_diffrn_reflns_av_R_equivalents  0.0153
_diffrn_reflns_av_unetI/netI     0.0156
_diffrn_reflns_Laue_measured_fraction_full 1.000
_diffrn_reflns_Laue_measured_fraction_max 0.998
_diffrn_reflns_limit_h_max       5
_diffrn_reflns_limit_h_min       -5
_diffrn_reflns_limit_k_max       14
_diffrn_reflns_limit_k_min       -14
_diffrn_reflns_limit_l_max       15
_diffrn_reflns_limit_l_min       -15
_diffrn_reflns_number            6295
_diffrn_reflns_point_group_measured_fraction_full 1.000
_diffrn_reflns_point_group_measured_fraction_max 0.998
_diffrn_reflns_theta_full        25.242
_diffrn_reflns_theta_max         27.313
_diffrn_reflns_theta_min         1.804
_exptl_absorpt_coefficient_mu    3.666
_exptl_absorpt_correction_T_max  1.000
_exptl_absorpt_correction_T_min  0.706
_exptl_absorpt_correction_type   multi-scan
_exptl_absorpt_process_details   'SADABS V2014(Bruker AXS)'
_exptl_crystal_colour            colourless
_exptl_crystal_density_diffrn    2.141
_exptl_crystal_description       cut
_exptl_crystal_F_000             304
_exptl_crystal_size_max          0.30
_exptl_crystal_size_mid          0.18
_exptl_crystal_size_min          0.03
_refine_diff_density_max         0.461
_refine_diff_density_min         -0.285
_refine_diff_density_rms         0.065
_refine_ls_extinction_method     none
_refine_ls_goodness_of_fit_ref   1.088
_refine_ls_hydrogen_treatment    constr
_refine_ls_matrix_type           full
_refine_ls_number_parameters     118
_refine_ls_number_reflns         2261
_refine_ls_number_restraints     0
_refine_ls_restrained_S_all      1.088
_refine_ls_R_factor_all          0.0133
_refine_ls_R_factor_gt           0.0126
_refine_ls_shift/su_max          0.001
_refine_ls_shift/su_mean         0.000
_refine_ls_structure_factor_coef Fsqd
_refine_ls_weighting_details
'w=1/[\s^2^(Fo^2^)+(0.0156P)^2^+0.1270P] where P=(Fo^2^+2Fc^2^)/3'
_refine_ls_weighting_scheme      calc
_refine_ls_wR_factor_gt          0.0315
_refine_ls_wR_factor_ref         0.0318
_reflns_Friedel_coverage         0.000
_reflns_number_gt                2195
_reflns_number_total             2261
_reflns_threshold_expression     'I > 2\s(I)'
_cod_data_source_file            c9nj04833b2.cif
_cod_data_source_block           eb889190_a
_cod_database_code               7058929
_shelx_shelxl_version_number     2018/3
_shelx_space_group_comment
;
The symmetry employed for this shelxl refinement is uniquely defined
by the following loop, which should always be used as a source of
symmetry information in preference to the above space-group names.
They are only intended as comments.
;
_shelx_res_file
;
TITL eb889190_a.res in P-1
    I:\XRAYDATA\EB8891~2\eb889190_a.res
    created by SHELXL-2018/3 at 17:03:02 on 08-May-2019
CELL 0.71073 4.0179 11.1807 12.1538 111.505 90.519 97.616
ZERR 1.0000 0.0002 0.0006 0.0007 0.001 0.001 0.001
LATT 1
SFAC C H N CL I
UNIT 18 8 2 4 2
BOND
ACTA
FMAP 2 1 53
PLAN 20 0 0
LIST 4 1
TEMP -83.15
L.S. 16
WGHT    0.015600    0.127000
FVAR       0.51481
I1    5    0.215022    0.709148    0.793623    11.00000    0.02029    0.01648 =
         0.01986    0.00107    0.00202    0.00524
CL1   4    0.284550    0.997859    0.761775    11.00000    0.03771    0.02294 =
         0.01853    0.00617    0.00937    0.00335
N1    3    0.374118    0.454664    0.648012    11.00000    0.03540    0.01518 =
         0.03183    0.00591    0.00584    0.00684
C1    1    0.307500    0.246245    0.489726    11.00000    0.03023    0.01943 =
         0.02128    0.00411    0.00160    0.00532
AFIX  43
H1    2    0.234583    0.194671    0.409738    11.00000   -1.20000
AFIX   0
CL2   4    0.094399    1.251145    0.941564    11.00000    0.04219    0.01862 =
         0.02535    0.01029    0.00549    0.00656
C2    1    0.276445    0.377091    0.536591    11.00000    0.03021    0.02061 =
         0.03073    0.01075    0.00201    0.00819
AFIX  43
H2    2    0.180355    0.413557    0.486656    11.00000   -1.20000
AFIX   0
C3    1    0.511383    0.402178    0.716998    11.00000    0.03850    0.01914 =
         0.02398    0.00359    0.00324    0.00212
AFIX  43
H3    2    0.584203    0.456752    0.796257    11.00000   -1.20000
AFIX   0
C4    1    0.552937    0.272547    0.679006    11.00000    0.03482    0.02055 =
         0.02444    0.01000    0.00202    0.00544
AFIX  43
H4    2    0.650782    0.239294    0.731210    11.00000   -1.20000
AFIX   0
C5    1    0.448317    0.191626    0.562522    11.00000    0.02346    0.01475 =
         0.02413    0.00693    0.00723    0.00446
C6    1    0.485074    0.056168    0.518190    11.00000    0.03009    0.02019 =
         0.02167    0.00771    0.00520    0.00622
C7    1    0.089014    0.883455    0.917079    11.00000    0.01673    0.01609 =
         0.01681    0.00115   -0.00117    0.00345
C8    1    0.127641    0.997797    0.893484    11.00000    0.01847    0.01954 =
         0.01459    0.00470    0.00105    0.00243
C9    1    0.039968    1.112752    0.975446    11.00000    0.01947    0.01566 =
         0.01936    0.00585   -0.00167    0.00187
HKLF 4




REM  eb889190_a.res in P-1
REM wR2 = 0.0318, GooF = S = 1.088, Restrained GooF = 1.088 for all data
REM R1 = 0.0126 for 2195 Fo > 4sig(Fo) and 0.0133 for all 2261 data
REM 118 parameters refined using 0 restraints

END

WGHT      0.0156      0.1270

REM Highest difference peak  0.461,  deepest hole -0.285,  1-sigma level  0.065
Q1    1   0.2353  0.7054  0.8573  11.00000  0.05    0.46
Q2    1   0.3531  0.3193  0.5190  11.00000  0.05    0.33
Q3    1   0.5857  0.3354  0.6889  11.00000  0.05    0.28
Q4    1   0.1718  0.6190  0.7658  11.00000  0.05    0.26
Q5    1   0.4474  0.2203  0.6211  11.00000  0.05    0.25
Q6    1   0.5745  0.2421  0.6043  11.00000  0.05    0.25
Q7    1   0.4617  0.7361  0.8016  11.00000  0.05    0.25
Q8    1   0.0249  1.0469  0.9310  11.00000  0.05    0.25
Q9    1  -0.0200  0.8798  0.9626  11.00000  0.05    0.24
Q10   1   0.0620  0.9377  0.9004  11.00000  0.05    0.24
Q11   1   0.2008  0.3009  0.5274  11.00000  0.05    0.24
Q12   1   0.4888  0.1317  0.5400  11.00000  0.05    0.24
Q13   1   0.3286  0.2219  0.5414  11.00000  0.05    0.24
Q14   1   0.3023  0.7821  0.8036  11.00000  0.05    0.23
Q15   1   0.4556  0.4214  0.6752  11.00000  0.05    0.23
Q16   1   0.1614  0.7243  0.7158  11.00000  0.05    0.22
Q17   1   0.0501  0.1501  0.3899  11.00000  0.05    0.21
Q18   1   0.6850  0.2642  0.8752  11.00000  0.05    0.20
Q19   1   0.9756  0.0635  0.5567  11.00000  0.05    0.20
Q20   1   0.6819  0.2615  0.6856  11.00000  0.05    0.20
;
_shelx_res_checksum              93726
loop_
_space_group_symop_operation_xyz
'x, y, z'
'-x, -y, -z'
loop_
_atom_site_label
_atom_site_type_symbol
_atom_site_fract_x
_atom_site_fract_y
_atom_site_fract_z
_atom_site_U_iso_or_equiv
_atom_site_adp_type
_atom_site_occupancy
_atom_site_site_symmetry_order
_atom_site_calc_flag
_atom_site_refinement_flags_posn
_atom_site_refinement_flags_adp
I1 I 0.21502(2) 0.70915(2) 0.79362(2) 0.02025(4) Uani 1 1 d . .
Cl1 Cl 0.28455(11) 0.99786(4) 0.76177(3) 0.02688(9) Uani 1 1 d . .
N1 N 0.3741(4) 0.45466(14) 0.64801(14) 0.0279(3) Uani 1 1 d . .
C1 C 0.3075(4) 0.24624(16) 0.48973(15) 0.0245(3) Uani 1 1 d . .
H1 H 0.234583 0.194671 0.409738 0.029 Uiso 1 1 calc R U
Cl2 Cl 0.09440(12) 1.25114(4) 0.94156(4) 0.02788(9) Uani 1 1 d . .
C2 C 0.2764(4) 0.37709(17) 0.53659(16) 0.0264(4) Uani 1 1 d . .
H2 H 0.180355 0.413557 0.486656 0.032 Uiso 1 1 calc R U
C3 C 0.5114(5) 0.40218(17) 0.71700(16) 0.0287(4) Uani 1 1 d . .
H3 H 0.584203 0.456752 0.796257 0.034 Uiso 1 1 calc R U
C4 C 0.5529(5) 0.27255(16) 0.67901(15) 0.0260(4) Uani 1 1 d . .
H4 H 0.650782 0.239294 0.731210 0.031 Uiso 1 1 calc R U
C5 C 0.4483(4) 0.19163(15) 0.56252(14) 0.0207(3) Uani 1 1 d . .
C6 C 0.4851(4) 0.05617(16) 0.51819(15) 0.0237(3) Uani 1 1 d . .
C7 C 0.0890(4) 0.88346(15) 0.91708(13) 0.0179(3) Uani 1 1 d . .
C8 C 0.1276(4) 0.99780(15) 0.89348(13) 0.0180(3) Uani 1 1 d . .
C9 C 0.0400(4) 1.11275(15) 0.97545(13) 0.0184(3) Uani 1 1 d . .
loop_
_atom_site_aniso_label
_atom_site_aniso_U_11
_atom_site_aniso_U_22
_atom_site_aniso_U_33
_atom_site_aniso_U_23
_atom_site_aniso_U_13
_atom_site_aniso_U_12
I1 0.02029(6) 0.01648(6) 0.01986(6) 0.00107(4) 0.00202(4) 0.00524(4)
Cl1 0.0377(2) 0.0229(2) 0.01853(18) 0.00617(15) 0.00937(16) 0.00335(17)
N1 0.0354(8) 0.0152(7) 0.0318(8) 0.0059(6) 0.0058(6) 0.0068(6)
C1 0.0302(9) 0.0194(8) 0.0213(8) 0.0041(6) 0.0016(7) 0.0053(7)
Cl2 0.0422(2) 0.01862(19) 0.0254(2) 0.01029(16) 0.00549(17) 0.00656(17)
C2 0.0302(9) 0.0206(8) 0.0307(9) 0.0108(7) 0.0020(7) 0.0082(7)
C3 0.0385(10) 0.0191(8) 0.0240(8) 0.0036(7) 0.0032(7) 0.0021(7)
C4 0.0348(9) 0.0205(8) 0.0244(8) 0.0100(7) 0.0020(7) 0.0054(7)
C5 0.0235(8) 0.0148(7) 0.0241(8) 0.0069(6) 0.0072(6) 0.0045(6)
C6 0.0301(9) 0.0202(7) 0.0217(8) 0.0077(6) 0.0052(7) 0.0062(6)
C7 0.0167(7) 0.0161(7) 0.0168(7) 0.0012(6) -0.0012(6) 0.0035(6)
C8 0.0185(7) 0.0195(7) 0.0146(7) 0.0047(6) 0.0011(6) 0.0024(6)
C9 0.0195(7) 0.0157(7) 0.0194(7) 0.0058(6) -0.0017(6) 0.0019(6)
loop_
_atom_type_symbol
_atom_type_description
_atom_type_scat_dispersion_real
_atom_type_scat_dispersion_imag
_atom_type_scat_source
C C 0.0033 0.0016 'International Tables Vol C Tables 4.2.6.8 and 6.1.1.4'
H H 0.0000 0.0000 'International Tables Vol C Tables 4.2.6.8 and 6.1.1.4'
N N 0.0061 0.0033 'International Tables Vol C Tables 4.2.6.8 and 6.1.1.4'
Cl Cl 0.1484 0.1585 'International Tables Vol C Tables 4.2.6.8 and 6.1.1.4'
I I -0.4742 1.8119 'International Tables Vol C Tables 4.2.6.8 and 6.1.1.4'
loop_
_geom_angle_atom_site_label_1
_geom_angle_atom_site_label_2
_geom_angle_atom_site_label_3
_geom_angle
_geom_angle_site_symmetry_1
C2 N1 C3 117.54(15) .
C2 C1 C5 118.66(16) .
N1 C2 C1 123.57(16) .
N1 C3 C4 123.48(17) .
C3 C4 C5 118.74(16) .
C4 C5 C1 118.02(15) .
C4 C5 C6 121.18(15) .
C1 C5 C6 120.80(15) .
C6 C6 C5 179.7(3) 2_656
C9 C7 C8 118.22(14) 2_577
C9 C7 I1 120.58(11) 2_577
C8 C7 I1 121.20(11) .
C9 C8 C7 120.80(14) .
C9 C8 Cl1 119.26(12) .
C7 C8 Cl1 119.94(12) .
C7 C9 C8 120.98(14) 2_577
C7 C9 Cl2 120.30(12) 2_577
C8 C9 Cl2 118.72(12) .
loop_
_geom_bond_atom_site_label_1
_geom_bond_atom_site_label_2
_geom_bond_distance
_geom_bond_site_symmetry_2
I1 C7 2.1065(15) .
Cl1 C8 1.7259(16) .
N1 C2 1.334(2) .
N1 C3 1.338(2) .
C1 C2 1.385(2) .
C1 C5 1.398(2) .
Cl2 C9 1.7294(16) .
C3 C4 1.384(2) .
C4 C5 1.396(2) .
C5 C6 1.438(2) .
C6 C6 1.192(3) 2_656
C7 C9 1.398(2) 2_577
C7 C8 1.399(2) .
C8 C9 1.399(2) .
