#------------------------------------------------------------------------------
#$Date: 2019-10-29 06:15:30 +0200 (Tue, 29 Oct 2019) $
#$Revision: 220351 $
#$URL: file:///home/coder/svn-repositories/cod/cif/7/05/89/7058919.cif $
#------------------------------------------------------------------------------
#
# This file is available in the Crystallography Open Database (COD),
# http://www.crystallography.net/
#
# All data on this site have been placed in the public domain by the
# contributors.
#
data_7058919
loop_
_publ_author_name
'Juneja, Navkiran Kaur'
'Unruh, Daniel K.'
'Bosch, Eric'
'Groeneman , Ryan'
'Hutchins, Kristin M.'
_publ_section_title
;
 Effects of dynamic pedal motion and static disorder on thermal expansion
 within halogen bonded co-crystals
;
_journal_name_full               'New Journal of Chemistry'
_journal_paper_doi               10.1039/C9NJ04833B
_journal_year                    2019
_chemical_formula_sum            'C16 H8 Cl4 I2 N4'
_chemical_formula_weight         651.86
_space_group_IT_number           2
_space_group_name_Hall           '-P 1'
_space_group_name_H-M_alt        'P -1'
_symmetry_cell_setting           triclinic
_symmetry_Int_Tables_number      2
_symmetry_space_group_name_Hall  '-P 1'
_symmetry_space_group_name_H-M   'P -1'
_atom_sites_solution_hydrogens   geom
_atom_sites_solution_primary     dual
_atom_sites_solution_secondary   difmap
_audit_creation_date             2019-09-05T11:50:14-00:00
_audit_creation_method           'WinGX routine CIF_UPDATE'
_audit_update_record
;
2019-09-20 deposited with the CCDC.    2019-10-28 downloaded from the CCDC.
;
_cell_angle_alpha                111.495(3)
_cell_angle_beta                 92.054(3)
_cell_angle_gamma                94.675(3)
_cell_formula_units_Z            1
_cell_length_a                   4.03260(16)
_cell_length_b                   10.8287(3)
_cell_length_c                   12.3790(3)
_cell_measurement_reflns_used    9826
_cell_measurement_temperature    230(2)
_cell_measurement_theta_max      77.026
_cell_measurement_theta_min      3.811
_cell_volume                     500.03(3)
_computing_cell_refinement       'CrysAlisPro 1.171.40.58a (Rigaku OD, 2019)'
_computing_data_collection       'CrysAlisPro 1.171.40.58a (Rigaku OD, 2019)'
_computing_data_reduction        'CrysAlisPro 1.171.40.58a (Rigaku OD, 2019)'
_computing_structure_refinement  'SHELXL-2018/3 (Sheldrick, 2018)'
_computing_structure_solution    'SHELXT 2014/5 (Sheldrick, 2014)'
_diffrn_ambient_environment      N~2~
_diffrn_ambient_temperature      230(2)
_diffrn_detector                 'Hybrid Pixel Array Detector'
_diffrn_detector_area_resol_mean 10
_diffrn_detector_type            HyPix
_diffrn_measured_fraction_theta_full 0.996
_diffrn_measured_fraction_theta_max 0.956
_diffrn_measurement_device       'four-circle diffractometer'
_diffrn_measurement_device_type  'XtaLAB Synergy, Dualflex, HyPix'
_diffrn_measurement_method       '\w scans'
_diffrn_orient_matrix_type
'CrysAlisPro convention (1999,Acta A55,543-557)'
_diffrn_orient_matrix_UB_11      0.1507274
_diffrn_orient_matrix_UB_12      0.1446654
_diffrn_orient_matrix_UB_13      0.0679249
_diffrn_orient_matrix_UB_21      0.0581281
_diffrn_orient_matrix_UB_22      0.0187301
_diffrn_orient_matrix_UB_23      -0.1156119
_diffrn_orient_matrix_UB_31      -0.3486603
_diffrn_orient_matrix_UB_32      0.0484219
_diffrn_orient_matrix_UB_33      -0.0003821
_diffrn_radiation_monochromator  mirror
_diffrn_radiation_probe          x-ray
_diffrn_radiation_type           CuK\a
_diffrn_radiation_wavelength     1.54178
_diffrn_reflns_av_R_equivalents  0.0829
_diffrn_reflns_av_unetI/netI     0.0601
_diffrn_reflns_Laue_measured_fraction_full 0.996
_diffrn_reflns_Laue_measured_fraction_max 0.956
_diffrn_reflns_limit_h_max       4
_diffrn_reflns_limit_h_min       -5
_diffrn_reflns_limit_k_max       13
_diffrn_reflns_limit_k_min       -13
_diffrn_reflns_limit_l_max       15
_diffrn_reflns_limit_l_min       -15
_diffrn_reflns_number            16476
_diffrn_reflns_point_group_measured_fraction_full 0.996
_diffrn_reflns_point_group_measured_fraction_max 0.956
_diffrn_reflns_theta_full        67.679
_diffrn_reflns_theta_max         77.116
_diffrn_reflns_theta_min         3.847
_diffrn_source                   'micro-focus sealed X-ray tube'
_diffrn_source_type              'PhotonJet (Cu) X-ray Source'
_exptl_absorpt_coefficient_mu    29.697
_exptl_absorpt_correction_T_max  0.473
_exptl_absorpt_correction_T_min  0.068
_exptl_absorpt_correction_type   gaussian
_exptl_absorpt_process_details
;
        CrysAlisPro 1.171.40.58a (Rigaku Oxford Diffraction, 2019)
Numerical absorption correction based on gaussian integration over
                        a multifaceted crystal model
        Empirical absorption correction using spherical harmonics,
 implemented in SCALE3 ABSPACK scaling algorithm.
;
_exptl_crystal_colour            'clear yellow'
_exptl_crystal_density_diffrn    2.165
_exptl_crystal_description       block
_exptl_crystal_F_000             306
_exptl_crystal_size_max          0.143
_exptl_crystal_size_mid          0.094
_exptl_crystal_size_min          0.054
_refine_diff_density_max         1.151
_refine_diff_density_min         -1.249
_refine_diff_density_rms         0.159
_refine_ls_extinction_method     none
_refine_ls_goodness_of_fit_ref   1.099
_refine_ls_hydrogen_treatment    constr
_refine_ls_matrix_type           full
_refine_ls_number_parameters     159
_refine_ls_number_reflns         2016
_refine_ls_number_restraints     343
_refine_ls_restrained_S_all      1.024
_refine_ls_R_factor_all          0.0395
_refine_ls_R_factor_gt           0.0347
_refine_ls_shift/su_max          0
_refine_ls_shift/su_mean         0
_refine_ls_structure_factor_coef Fsqd
_refine_ls_weighting_details
'w=1/[\s^2^(Fo^2^)+(0.0559P)^2^+0.6428P] where P=(Fo^2^+2Fc^2^)/3'
_refine_ls_weighting_scheme      calc
_refine_ls_wR_factor_gt          0.0879
_refine_ls_wR_factor_ref         0.0913
_reflns_Friedel_coverage         0
_reflns_number_gt                1930
_reflns_number_total             2016
_reflns_threshold_expression     'I > 2\s(I)'
_cod_data_source_file            c9nj04833b2.cif
_cod_data_source_block           hut19_48_230
_cod_database_code               7058919
_shelx_estimated_absorpt_t_min   0.101
_shelx_estimated_absorpt_t_max   0.297
_shelx_shelxl_version_number     2018/3
_shelx_res_file
;
TITL 230_a.res in P-1
    230_a.res
    created by SHELXL-2018/3 at 16:05:41 on 04-Sep-2019
REM Old TITL 230 in P1

REM SHELXT solution in P-1
REM R1 0.158,  Rweak 0.014,  Alpha 0.103,  Orientation as input
REM Formula found by SHELXT:  C9 N O2 I

CELL  1.54178   4.032604  10.828697  12.378999   111.4955    92.0543    94.6748
ZERR    1.000   0.000165   0.000267   0.000348     0.0025     0.0029     0.0026
LATT  1
SFAC C H CL I N
UNIT 16 8 4 2 4
TEMP -43.2
SIZE 0.143 0.094 0.054
L.S. 10
BOND $H
ACTA
LIST 4
FMAP 2
PLAN 20

RIGU

BIND I1 N1A
BIND I1 N1B

SIMU 0.01 N1A N1B N2A N2B C4A C4B C5A C5B C6A C6B C7A C7B C8A C8B

DFIX 31 C6A N2A C6B N2B

OMIT    3  -9   9
OMIT    4  -8   6
OMIT    0  12   0
OMIT   -4  -5   8
OMIT   -3  10   1

WGHT    0.055900    0.642800
FVAR       0.54372   0.55832   1.44107
I1    4    0.772108    0.294942    0.209778    11.00000    0.03704    0.02986 =
         0.03584    0.00194    0.00169    0.00471
CL1   3    0.716433   -0.007156    0.228177    11.00000    0.05588    0.04022 =
         0.03270    0.01090    0.00954    0.00052
CL2   3    0.918872   -0.264763    0.045799    11.00000    0.06695    0.03145 =
         0.04333    0.01538    0.00499    0.00418
C1    1    0.908145    0.118540    0.084314    11.00000    0.03006    0.02788 =
         0.03072    0.00261    0.00014    0.00162
C2    1    0.875106   -0.001874    0.102539    11.00000    0.02870    0.03562 =
         0.02636    0.00681    0.00070    0.00176
C3    1    0.964613   -0.118340    0.019162    11.00000    0.03688    0.02637 =
         0.03125    0.00816   -0.00413    0.00111
PART 1
AFIX  66
N1A   5    0.606664    0.557578    0.366660    21.00000    0.05049    0.02566 =
         0.04102    0.01222    0.00017    0.00544
C4A   1    0.444685    0.599040    0.286809    21.00000    0.05705    0.01808 =
         0.04541    0.01557    0.00302    0.00652
AFIX  43
H4A   2    0.371783    0.536938    0.212273    21.00000   -1.20000
AFIX  65
C5A   1    0.390508    0.732334    0.317175    21.00000    0.05491    0.01774 =
         0.04215    0.00398    0.00066    0.00063
AFIX  43
H5A   2    0.280968    0.760373    0.263175    21.00000   -1.20000
AFIX  65
C6A   1    0.498308    0.824166    0.427393    21.00000    0.05163    0.02049 =
         0.03924    0.00739    0.00456    0.00395
C7A   1    0.660288    0.782706    0.507245    21.00000    0.05463    0.01765 =
         0.04135    0.00757    0.00670    0.00600
AFIX  43
H7A   2    0.733189    0.844809    0.581780    21.00000   -1.20000
AFIX  65
C8A   1    0.714467    0.649413    0.476880    21.00000    0.05848    0.02161 =
         0.04526    0.01109    0.00272    0.00474
AFIX  43
H8A   2    0.824007    0.621375    0.530880    21.00000   -1.20000
AFIX   0
N2A   5    0.443800    0.961509    0.451824    21.00000    0.05654    0.02265 =
         0.03723    0.00727   -0.00340    0.00330
PART  2
AFIX  66
N1B   5    0.569088    0.555851    0.351474   -21.00000    0.05494    0.02671 =
         0.04556    0.00325    0.00415    0.00116
C4B   1    0.427213    0.629404    0.293844   -21.00000    0.05879    0.02233 =
         0.04738    0.00045    0.00385   -0.00120
AFIX  43
H4B   2    0.337161    0.586736    0.216603   -21.00000   -1.20000
AFIX  65
C5B   1    0.418501    0.766052    0.350432   -21.00000    0.05517    0.01978 =
         0.04201    0.00526    0.00610    0.00191
AFIX  43
H5B   2    0.322557    0.815793    0.311459   -21.00000   -1.20000
AFIX  65
C6B   1    0.551663    0.829147    0.464650   -21.00000    0.04866    0.02100 =
         0.04163    0.00698    0.00587    0.00059
C7B   1    0.693539    0.755595    0.522281   -21.00000    0.05489    0.01708 =
         0.04711    0.00599    0.00388    0.00201
AFIX  43
H7B   2    0.783591    0.798265    0.599522   -21.00000   -1.20000
AFIX  65
C8B   1    0.702253    0.618948    0.465694   -21.00000    0.05344    0.01246 =
         0.04235   -0.00406    0.00367   -0.00310
AFIX  43
H8B   2    0.798198    0.569208    0.504668   -21.00000   -1.20000
AFIX   0
N2B   5    0.546798    0.969849    0.529061   -21.00000    0.05874    0.02396 =
         0.04039    0.00676    0.00099    0.00275
HKLF 4




REM  230_a.res in P-1
REM wR2 = 0.091328, GooF = S = 1.09873, Restrained GooF = 1.02391 for all data
REM R1 = 0.034677 for 1930 Fo > 4sig(Fo) and 0.039525 for all 2016 data
REM 159 parameters refined using 343 restraints

END

WGHT      0.0559      0.6428

REM Highest difference peak  1.151,  deepest hole -1.249,  1-sigma level  0.159
Q1    1   0.7349  0.2909  0.1377  11.00000  0.05    1.15
Q2    1   0.5868  0.3264  0.2457  11.00000  0.05    0.96
Q3    1   0.8407  0.3024  0.2923  11.00000  0.05    0.91
Q4    1   0.9547  0.2415  0.1781  11.00000  0.05    0.79
Q5    1   0.4102  0.2653  0.1785  11.00000  0.05    0.66
Q6    1   0.9132  0.7251  0.6835  11.00000  0.05    0.61
Q7    1   0.2931  0.2794  0.2632  11.00000  0.05    0.57
Q8    1   1.1884 -0.2545 -0.0387  11.00000  0.05    0.51
Q9    1   1.2002  0.3011  0.1574  11.00000  0.05    0.50
Q10   1   0.8513 -0.1196 -0.0452  11.00000  0.05    0.46
Q11   1   0.9035 -0.2677 -0.0240  11.00000  0.05    0.45
Q12   1   0.5750  0.6630  0.6025  11.00000  0.05    0.42
Q13   1   0.5946  0.8538  0.7374  11.00000  0.05    0.41
Q14   1   0.7925  0.1559  0.1131  11.00000  0.05    0.41
Q15   1   0.6240 -0.2864 -0.0946  11.00000  0.05    0.40
Q16   1   1.1092  0.3565  0.2447  11.00000  0.05    0.40
Q17   1   0.6452  0.7625  0.6626  11.00000  0.05    0.40
Q18   1   0.6522 -0.0282  0.1228  11.00000  0.05    0.39
Q19   1   0.8787 -0.0611  0.1948  11.00000  0.05    0.39
Q20   1   0.3005 -0.0236  0.2773  11.00000  0.05    0.39
;
_shelx_res_checksum              23001
loop_
_symmetry_equiv_pos_as_xyz
'x, y, z'
'-x, -y, -z'
loop_
_atom_site_label
_atom_site_type_symbol
_atom_site_fract_x
_atom_site_fract_y
_atom_site_fract_z
_atom_site_U_iso_or_equiv
_atom_site_adp_type
_atom_site_occupancy
_atom_site_site_symmetry_order
_atom_site_calc_flag
_atom_site_refinement_flags_posn
_atom_site_refinement_flags_adp
_atom_site_refinement_flags_occupancy
_atom_site_disorder_assembly
_atom_site_disorder_group
I1 I 0.77211(7) 0.29494(2) 0.20978(2) 0.03711(14) Uani 1 1 d . . . . .
Cl1 Cl 0.7164(3) -0.00716(12) 0.22818(9) 0.0438(3) Uani 1 1 d . . . . .
Cl2 Cl 0.9189(4) -0.26476(11) 0.04580(10) 0.0468(3) Uani 1 1 d . . . . .
C1 C 0.9081(11) 0.1185(4) 0.0843(4) 0.0320(9) Uani 1 1 d . . . . .
C2 C 0.8751(11) -0.0019(4) 0.1025(4) 0.0317(9) Uani 1 1 d . . . . .
C3 C 0.9646(11) -0.1183(4) 0.0192(4) 0.0325(9) Uani 1 1 d . . . . .
N1A N 0.607(3) 0.5576(6) 0.3667(9) 0.0391(17) Uani 0.558(14) 1 d G U P A 1
C4A C 0.445(3) 0.5990(8) 0.2868(6) 0.0390(17) Uani 0.558(14) 1 d G U P A 1
H4A H 0.371783 0.536938 0.212273 0.047 Uiso 0.558(14) 1 calc R U P A 1
C5A C 0.391(3) 0.7323(9) 0.3172(8) 0.0405(19) Uani 0.558(14) 1 d G U P A 1
H5A H 0.280968 0.760373 0.263175 0.049 Uiso 0.558(14) 1 calc R U P A 1
C6A C 0.498(3) 0.8242(6) 0.4274(9) 0.0381(17) Uani 0.558(14) 1 d DG U P A 1
C7A C 0.660(3) 0.7827(7) 0.5072(6) 0.0386(19) Uani 0.558(14) 1 d G U P A 1
H7A H 0.733189 0.844809 0.58178 0.046 Uiso 0.558(14) 1 calc R U P A 1
C8A C 0.714(3) 0.6494(8) 0.4769(8) 0.0421(19) Uani 0.558(14) 1 d G U P A 1
H8A H 0.824007 0.621375 0.53088 0.051 Uiso 0.558(14) 1 calc R U P A 1
N2A N 0.444(2) 0.9615(9) 0.4518(8) 0.0401(19) Uani 0.558(14) 1 d D U P A 1
N1B N 0.569(5) 0.5559(8) 0.3515(12) 0.045(2) Uani 0.442(14) 1 d G U P A 2
C4B C 0.427(4) 0.6294(12) 0.2938(8) 0.047(2) Uani 0.442(14) 1 d G U P A 2
H4B H 0.337161 0.586736 0.216603 0.056 Uiso 0.442(14) 1 calc R U P A 2
C5B C 0.419(3) 0.7661(11) 0.3504(11) 0.041(2) Uani 0.442(14) 1 d G U P A 2
H5B H 0.322557 0.815793 0.311459 0.049 Uiso 0.442(14) 1 calc R U P A 2
C6B C 0.552(3) 0.8291(7) 0.4646(10) 0.039(2) Uani 0.442(14) 1 d DG U P A 2
C7B C 0.694(4) 0.7556(11) 0.5223(8) 0.041(2) Uani 0.442(14) 1 d G U P A 2
H7B H 0.783591 0.798265 0.599522 0.05 Uiso 0.442(14) 1 calc R U P A 2
C8B C 0.702(4) 0.6189(11) 0.4657(11) 0.041(2) Uani 0.442(14) 1 d G U P A 2
H8B H 0.798198 0.569208 0.504668 0.049 Uiso 0.442(14) 1 calc R U P A 2
N2B N 0.547(3) 0.9698(12) 0.5291(10) 0.043(2) Uani 0.442(14) 1 d D U P A 2
loop_
_atom_site_aniso_label
_atom_site_aniso_U_11
_atom_site_aniso_U_22
_atom_site_aniso_U_33
_atom_site_aniso_U_23
_atom_site_aniso_U_13
_atom_site_aniso_U_12
I1 0.0370(2) 0.02986(19) 0.0358(2) 0.00194(13) 0.00169(12) 0.00471(12)
Cl1 0.0559(7) 0.0402(6) 0.0327(5) 0.0109(4) 0.0095(5) 0.0005(5)
Cl2 0.0670(8) 0.0314(5) 0.0433(6) 0.0154(5) 0.0050(5) 0.0042(5)
C1 0.030(2) 0.0279(19) 0.031(2) 0.0026(16) 0.0001(17) 0.0016(16)
C2 0.029(2) 0.036(2) 0.0264(19) 0.0068(16) 0.0007(16) 0.0018(17)
C3 0.037(2) 0.0264(19) 0.031(2) 0.0082(16) -0.0041(17) 0.0011(16)
N1A 0.050(4) 0.026(3) 0.041(3) 0.012(2) 0.000(3) 0.005(3)
C4A 0.057(4) 0.018(3) 0.045(3) 0.016(3) 0.003(3) 0.007(3)
C5A 0.055(4) 0.018(3) 0.042(4) 0.004(3) 0.001(3) 0.001(3)
C6A 0.052(4) 0.020(3) 0.039(4) 0.007(3) 0.005(3) 0.004(3)
C7A 0.055(4) 0.018(3) 0.041(3) 0.008(3) 0.007(3) 0.006(3)
C8A 0.058(4) 0.022(4) 0.045(3) 0.011(3) 0.003(3) 0.005(3)
N2A 0.057(4) 0.023(3) 0.037(4) 0.007(3) -0.003(3) 0.003(3)
N1B 0.055(4) 0.027(3) 0.046(4) 0.003(3) 0.004(3) 0.001(3)
C4B 0.059(4) 0.022(4) 0.047(4) 0.000(3) 0.004(4) -0.001(4)
C5B 0.055(4) 0.020(4) 0.042(4) 0.005(3) 0.006(4) 0.002(4)
C6B 0.049(4) 0.021(3) 0.042(4) 0.007(3) 0.006(3) 0.001(3)
C7B 0.055(4) 0.017(4) 0.047(4) 0.006(3) 0.004(3) 0.002(3)
C8B 0.053(4) 0.012(4) 0.042(4) -0.004(3) 0.004(3) -0.003(4)
N2B 0.059(4) 0.024(4) 0.040(4) 0.007(4) 0.001(4) 0.003(4)
loop_
_atom_type_symbol
_atom_type_description
_atom_type_scat_dispersion_real
_atom_type_scat_dispersion_imag
_atom_type_scat_source
C C 0.0181 0.0091 'International Tables Vol C Tables 4.2.6.8 and 6.1.1.4'
H H 0 0 'International Tables Vol C Tables 4.2.6.8 and 6.1.1.4'
Cl Cl 0.3639 0.7018 'International Tables Vol C Tables 4.2.6.8 and 6.1.1.4'
I I -0.3257 6.8362 'International Tables Vol C Tables 4.2.6.8 and 6.1.1.4'
N N 0.0311 0.018 'International Tables Vol C Tables 4.2.6.8 and 6.1.1.4'
loop_
_exptl_crystal_face_index_h
_exptl_crystal_face_index_k
_exptl_crystal_face_index_l
_exptl_crystal_face_perp_dist
0 6 1 0.0747
2 3 -2 0.0542
3 0 1 0.0594
0 -6 -1 0.0462
0 -4 8 0.0381
-3 0 -1 0.0276
0 7 -3 0.0515
0 4 -8 0.0132
1 3 5 0.062
0 -5 7 0.0339
0 1 -8 0.0283
2 4 2 0.0644
loop_
_geom_angle_atom_site_label_1
_geom_angle_atom_site_label_2
_geom_angle_atom_site_label_3
_geom_angle
_geom_angle_site_symmetry_1
_geom_angle_site_symmetry_3
C1 I1 N1B 170.3(3) . .
C1 I1 N1A 173.2(3) . .
C3 C1 C2 118.2(4) 2_755 .
C3 C1 I1 121.0(3) 2_755 .
C2 C1 I1 120.9(3) . .
C3 C2 C1 120.6(4) . .
C3 C2 Cl1 119.4(3) . .
C1 C2 Cl1 120.0(3) . .
C2 C3 C1 121.2(4) . 2_755
C2 C3 Cl2 118.9(3) . .
C1 C3 Cl2 119.9(3) 2_755 .
C4A N1A C8A 120 . .
C4A N1A I1 99.9(5) . .
C8A N1A I1 137.5(5) . .
N1A C4A C5A 120 . .
N1A C4A H4A 120 . .
C5A C4A H4A 120 . .
C6A C5A C4A 120 . .
C6A C5A H5A 120 . .
C4A C5A H5A 120 . .
C7A C6A C5A 120 . .
C7A C6A N2A 122.9(7) . .
C5A C6A N2A 117.1(7) . .
C8A C7A C6A 120 . .
C8A C7A H7A 120 . .
C6A C7A H7A 120 . .
C7A C8A N1A 120 . .
C7A C8A H8A 120 . .
N1A C8A H8A 120 . .
N2A N2A C6A 114.2(11) 2_676 .
C4B N1B C8B 120 . .
C4B N1B I1 117.7(7) . .
C8B N1B I1 119.4(6) . .
C5B C4B N1B 120 . .
C5B C4B H4B 120 . .
N1B C4B H4B 120 . .
C4B C5B C6B 120 . .
C4B C5B H5B 120 . .
C6B C5B H5B 120 . .
C7B C6B C5B 120 . .
C7B C6B N2B 117.0(9) . .
C5B C6B N2B 123.0(9) . .
C6B C7B C8B 120 . .
C6B C7B H7B 120 . .
C8B C7B H7B 120 . .
C7B C8B N1B 120 . .
C7B C8B H8B 120 . .
N1B C8B H8B 120 . .
N2B N2B C6B 113.7(15) 2_676 .
loop_
_geom_bond_atom_site_label_1
_geom_bond_atom_site_label_2
_geom_bond_distance
_geom_bond_site_symmetry_2
I1 C1 2.102(4) .
I1 N1B 2.929(9) .
I1 N1A 2.943(7) .
Cl1 C2 1.721(4) .
Cl2 C3 1.731(4) .
C1 C3 1.396(6) 2_755
C1 C2 1.399(6) .
C2 C3 1.390(6) .
N1A C4A 1.39 .
N1A C8A 1.39 .
C4A C5A 1.39 .
C4A H4A 0.94 .
C5A C6A 1.39 .
C5A H5A 0.94 .
C6A C7A 1.39 .
C6A N2A 1.442(9) .
C7A C8A 1.39 .
C7A H7A 0.94 .
C8A H8A 0.94 .
N2A N2A 1.222(19) 2_676
N1B C4B 1.39 .
N1B C8B 1.39 .
C4B C5B 1.39 .
C4B H4B 0.94 .
C5B C6B 1.39 .
C5B H5B 0.94 .
C6B C7B 1.39 .
C6B N2B 1.440(12) .
C7B C8B 1.39 .
C7B H7B 0.94 .
C8B H8B 0.94 .
N2B N2B 1.20(2) 2_676
