#------------------------------------------------------------------------------
#$Date: 2019-11-08 03:03:48 +0200 (Fri, 08 Nov 2019) $
#$Revision: 224956 $
#$URL: file:///home/coder/svn-repositories/cod/cif/7/05/86/7058671.cif $
#------------------------------------------------------------------------------
#
# This file is available in the Crystallography Open Database (COD),
# http://www.crystallography.net/
#
# All data on this site have been placed in the public domain by the
# contributors.
#
data_7058671
loop_
_publ_author_name
'Jardim, Guilherme A. M.'
'Bozzi, \'Icaro A. O.'
'Oliveira, Willian X. C.'
'Mesquita-Rodrigues, Camila'
'Menna-Barreto, Rubem F. S.'
'Kumar, Ramar A.'
'Gravel, Edmond'
'Doris, Eric'
'Braga, Antonio L.'
'da Silva J\'unior, Eufr\^anio N.'
_publ_section_title
;
 Copper complexes and carbon nanotube--copper ferrite-catalyzed benzenoid
 A-ring selenation of quinones: an efficient method for the synthesis of
 trypanocidal agents
;
_journal_issue                   35
_journal_name_full               'New Journal of Chemistry'
_journal_page_first              13751
_journal_paper_doi               10.1039/C9NJ02026H
_journal_volume                  43
_journal_year                    2019
_chemical_formula_sum            'C20 H11 F O2 Se'
_chemical_formula_weight         381.25
_space_group_crystal_system      triclinic
_space_group_IT_number           2
_space_group_name_Hall           '-P 1'
_space_group_name_H-M_alt        'P -1'
_symmetry_space_group_name_Hall  '-P 1'
_symmetry_space_group_name_H-M   'P -1'
_atom_sites_solution_hydrogens   geom
_audit_creation_method           SHELXL-2018/3
_audit_update_record
;
2019-06-05 deposited with the CCDC.    2019-07-25 downloaded from the CCDC.
;
_cell_angle_alpha                103.912(4)
_cell_angle_beta                 101.386(4)
_cell_angle_gamma                93.706(4)
_cell_formula_units_Z            2
_cell_length_a                   7.9915(3)
_cell_length_b                   9.0274(4)
_cell_length_c                   11.5170(4)
_cell_measurement_reflns_used    4815
_cell_measurement_temperature    298(2)
_cell_measurement_theta_max      25.1210
_cell_measurement_theta_min      3.4620
_cell_volume                     785.11(6)
_computing_cell_refinement       'CrysAlisPro 1.171.39.46 (Rigaku OD, 2018)'
_computing_data_collection       'CrysAlisPro 1.171.39.46 (Rigaku OD, 2018)'
_computing_data_reduction        'CrysAlisPro 1.171.39.46 (Rigaku OD, 2018)'
_computing_structure_refinement  'SHELXL-2018/3 (Sheldrick, 2018)'
_computing_structure_solution    SIR-92
_diffrn_ambient_temperature      298(2)
_diffrn_detector_area_resol_mean 5.2923
_diffrn_measured_fraction_theta_full 0.999
_diffrn_measured_fraction_theta_max 0.999
_diffrn_measurement_device_type  'SuperNova, Dual, Cu at home/near, AtlasS2'
_diffrn_measurement_method       '\w scans'
_diffrn_radiation_type           MoK\a
_diffrn_radiation_wavelength     0.71073
_diffrn_reflns_av_R_equivalents  0.0295
_diffrn_reflns_av_unetI/netI     0.0292
_diffrn_reflns_Laue_measured_fraction_full 0.999
_diffrn_reflns_Laue_measured_fraction_max 0.999
_diffrn_reflns_limit_h_max       9
_diffrn_reflns_limit_h_min       -9
_diffrn_reflns_limit_k_max       11
_diffrn_reflns_limit_k_min       -11
_diffrn_reflns_limit_l_max       14
_diffrn_reflns_limit_l_min       -14
_diffrn_reflns_number            11420
_diffrn_reflns_point_group_measured_fraction_full 0.999
_diffrn_reflns_point_group_measured_fraction_max 0.999
_diffrn_reflns_theta_full        25.242
_diffrn_reflns_theta_max         26.367
_diffrn_reflns_theta_min         2.589
_diffrn_source                   'micro-focus sealed X-ray tube'
_exptl_absorpt_coefficient_mu    2.411
_exptl_absorpt_correction_T_max  1.000
_exptl_absorpt_correction_T_min  0.461
_exptl_absorpt_correction_type   gaussian
_exptl_absorpt_process_details
;
CrysAlisPro 1.171.39.46 (Rigaku Oxford Diffraction, 2018)
Numerical absorption correction based on gaussian integration over
                        a multifaceted crystal model
Empirical absorption correction using spherical harmonics,
 implemented in SCALE3 ABSPACK scaling algorithm.
;
_exptl_crystal_colour            orange
_exptl_crystal_density_diffrn    1.613
_exptl_crystal_description       block
_exptl_crystal_F_000             380
_exptl_crystal_size_max          0.309
_exptl_crystal_size_mid          0.171
_exptl_crystal_size_min          0.084
_refine_diff_density_max         0.355
_refine_diff_density_min         -0.352
_refine_diff_density_rms         0.052
_refine_ls_extinction_method     none
_refine_ls_goodness_of_fit_ref   1.062
_refine_ls_hydrogen_treatment    constr
_refine_ls_matrix_type           full
_refine_ls_number_parameters     217
_refine_ls_number_reflns         3209
_refine_ls_number_restraints     0
_refine_ls_restrained_S_all      1.062
_refine_ls_R_factor_all          0.0427
_refine_ls_R_factor_gt           0.0330
_refine_ls_shift/su_max          0.001
_refine_ls_shift/su_mean         0.000
_refine_ls_structure_factor_coef Fsqd
_refine_ls_weighting_details
'w=1/[\s^2^(Fo^2^)+(0.0440P)^2^+0.1127P] where P=(Fo^2^+2Fc^2^)/3'
_refine_ls_weighting_scheme      calc
_refine_ls_wR_factor_gt          0.0789
_refine_ls_wR_factor_ref         0.0837
_reflns_Friedel_coverage         0.000
_reflns_number_gt                2710
_reflns_number_total             3209
_reflns_threshold_expression     'I > 2\s(I)'
_cod_data_source_file            c9nj02026h2.cif
_cod_data_source_block           shelx_CCDC2
_cod_depositor_comments
'Adding full bibliography for 7058669--7058675.cif.'
_cod_database_code               7058671
_shelx_shelxl_version_number     2018/3
_shelx_space_group_comment
;
The symmetry employed for this shelxl refinement is uniquely defined
by the following loop, which should always be used as a source of
symmetry information in preference to the above space-group names.
They are only intended as comments.
;
_shelx_res_file
;
TITL SIR92 run in space group P -1
    shelx.res
    created by SHELXL-2018/3 at 14:56:42 on 22-May-2019
CELL  0.71073   7.9915   9.0274  11.5170  103.912  101.386   93.706
ZERR     2.00   0.0003   0.0004   0.0004    0.004    0.004    0.004
LATT   1
SFAC  C    H    O    SE   F
UNIT  40 22 4 2 2
MERG   2
FMAP   2
PLAN   25
ACTA
shel 50 0.8
temp 17
BOND   $H
CONF
L.S.  10
TEMP    25.00
WGHT    0.044000    0.112700
FVAR       5.79154
SE1   4    0.887488    0.314291    0.819899    11.00000    0.04248    0.07149 =
         0.06402    0.03078    0.01525    0.01815
O1    3    0.941695    0.509978    0.688384    11.00000    0.03629    0.08582 =
         0.06951    0.03563    0.01671    0.01824
O2    3    0.339003    0.732898    0.597683    11.00000    0.04734    0.09846 =
         0.12455    0.06190    0.02652    0.03309
C4A   1    0.503479    0.574341    0.698446    11.00000    0.03393    0.04462 =
         0.04845    0.00525    0.00736    0.00380
C1    1    0.680698    0.410729    0.795507    11.00000    0.03524    0.04843 =
         0.04529    0.00943    0.00744    0.00472
C9A   1    0.661159    0.513637    0.720961    11.00000    0.03156    0.04692 =
         0.04108    0.00561    0.00640    0.00354
C8A   1    0.776050    0.666319    0.588016    11.00000    0.03951    0.04695 =
         0.04192    0.00500    0.00757    0.00291
C9    1    0.802577    0.558818    0.667225    11.00000    0.03294    0.05171 =
         0.04306    0.00814    0.00666    0.00332
C4    1    0.370885    0.535269    0.749943    11.00000    0.03522    0.06145 =
         0.06855    0.01521    0.01667    0.01202
AFIX  43
H4    2    0.266364    0.574181    0.733306    11.00000   -1.20000
AFIX   0
C5    1    0.596337    0.822212    0.486746    11.00000    0.06015    0.05273 =
         0.06360    0.01875    0.01179    0.01479
AFIX  43
H5    2    0.490905    0.859133    0.468618    11.00000   -1.20000
AFIX   0
C16   1    0.824391    0.182835    0.916978    11.00000    0.04785    0.05148 =
         0.05526    0.01652    0.01037    0.01133
C10   1    0.475874    0.681480    0.617749    11.00000    0.03914    0.05190 =
         0.05998    0.01317    0.00499    0.00904
C5A   1    0.617823    0.723441    0.562959    11.00000    0.04469    0.04373 =
         0.04543    0.00672    0.00758    0.00680
C13   1    0.758801   -0.010744    1.056323    11.00000    0.07210    0.05967 =
         0.08498    0.03465    0.02110    0.01121
C2    1    0.545871    0.375967    0.848157    11.00000    0.04645    0.06197 =
         0.06086    0.02197    0.01621    0.00802
AFIX  43
H2    2    0.558542    0.309608    0.898988    11.00000   -1.20000
AFIX   0
C8    1    0.909170    0.709782    0.536813    11.00000    0.04786    0.06212 =
         0.05695    0.01646    0.01779    0.00597
AFIX  43
H8    2    1.014422    0.671889    0.552875    11.00000   -1.20000
AFIX   0
C11   1    0.877478    0.226862    1.042180    11.00000    0.06993    0.05769 =
         0.05848    0.01772   -0.00010   -0.00332
AFIX  43
H11   2    0.937408    0.323736    1.080230    11.00000   -1.20000
AFIX   0
C3    1    0.393871    0.438495    0.826024    11.00000    0.04249    0.07069 =
         0.07485    0.02390    0.02539    0.00677
AFIX  43
H3    2    0.305700    0.415004    0.862966    11.00000   -1.20000
AFIX   0
C7    1    0.885155    0.808731    0.462481    11.00000    0.07087    0.06778 =
         0.06837    0.02394    0.03044    0.00586
AFIX  43
H7    2    0.974482    0.837405    0.428499    11.00000   -1.20000
AFIX   0
C15   1    0.735302    0.038035    0.862553    11.00000    0.10686    0.06033 =
         0.05814    0.00725    0.00652   -0.00544
AFIX  43
H15   2    0.698198    0.005922    0.777717    11.00000   -1.20000
AFIX   0
C6    1    0.729278    0.865915    0.437872    11.00000    0.08396    0.06239 =
         0.06563    0.02843    0.02000    0.01231
AFIX  43
H6    2    0.714425    0.933774    0.388377    11.00000   -1.20000
AFIX   0
C14   1    0.701201   -0.058905    0.933263    11.00000    0.11411    0.04930 =
         0.09854    0.01684    0.01482   -0.01070
AFIX  43
H14   2    0.639774   -0.155542    0.897017    11.00000   -1.20000
AFIX   0
C12   1    0.843290    0.129552    1.112533    11.00000    0.08706    0.07565 =
         0.05816    0.02717    0.00849    0.00156
AFIX  43
H12   2    0.878201    0.160621    1.197535    11.00000   -1.20000
AFIX   0
F1    5    0.729040   -0.108012    1.124863    11.00000    0.13150    0.09148 =
         0.12707    0.06799    0.03662    0.00241
HKLF    4
 
 
 
 
REM  SIR92 run in space group P -1
REM wR2 = 0.0837, GooF = S = 1.062, Restrained GooF = 1.062 for all data
REM R1 = 0.0330 for 2710 Fo > 4sig(Fo) and 0.0427 for all 3209 data
REM 217 parameters refined using 0 restraints
 
END
 
WGHT      0.0330      0.3031
 
REM Highest difference peak  0.355,  deepest hole -0.352,  1-sigma level  0.052
Q1    1   0.8137  0.2289  0.7762  11.00000  0.05    0.35
Q2    1   0.8561  0.3773  0.8683  11.00000  0.05    0.25
Q3    1   0.9233  0.3461  0.7705  11.00000  0.05    0.23
Q4    1   0.7139  0.6866  0.5807  11.00000  0.05    0.20
Q5    1   0.4744  0.6008  0.6474  11.00000  0.05    0.20
Q6    1   0.9670  0.5116  0.7205  11.00000  0.05    0.18
Q7    1   0.4688  0.4097  0.8205  11.00000  0.05    0.18
Q8    1   0.2970  0.7576  0.6416  11.00000  0.05    0.18
Q9    1   0.7201  0.5419  0.7018  11.00000  0.05    0.18
Q10   1   0.3953  0.7806  0.6653  11.00000  0.05    0.17
Q11   1   0.7679  0.3499  0.7909  11.00000  0.05    0.17
Q12   1   0.8877  0.0770  1.0752  11.00000  0.05    0.16
Q13   1   0.5504  0.5196  0.6823  11.00000  0.05    0.16
Q14   1   0.5541  0.7233  0.5967  11.00000  0.05    0.16
Q15   1   0.7398 -0.0235  0.8986  11.00000  0.05    0.16
Q16   1   0.7193  0.1019  0.9004  11.00000  0.05    0.16
Q17   1   0.9042  0.4312  0.6497  11.00000  0.05    0.16
Q18   1   0.3379  0.4737  0.9470  11.00000  0.05    0.16
Q19   1   0.6968  0.5122  0.7911  11.00000  0.05    0.16
Q20   1   0.8076  0.8638  0.4746  11.00000  0.05    0.16
Q21   1   0.8183  0.6493  0.5247  11.00000  0.05    0.15
Q22   1   0.5891  0.3799  0.8950  11.00000  0.05    0.15
Q23   1   0.8001  0.3551  1.0782  11.00000  0.05    0.15
Q24   1   0.4054  0.5240  0.8221  11.00000  0.05    0.15
Q25   1   0.5550 -0.0313  1.1581  11.00000  0.05    0.15
;
_shelx_res_checksum              1170
loop_
_space_group_symop_operation_xyz
'x, y, z'
'-x, -y, -z'
loop_
_atom_site_label
_atom_site_type_symbol
_atom_site_fract_x
_atom_site_fract_y
_atom_site_fract_z
_atom_site_U_iso_or_equiv
_atom_site_adp_type
_atom_site_occupancy
_atom_site_site_symmetry_order
_atom_site_calc_flag
_atom_site_refinement_flags_posn
_atom_site_refinement_flags_adp
Se1 Se 0.88749(3) 0.31429(3) 0.81990(2) 0.05597(12) Uani 1 1 d . .
O1 O 0.9417(2) 0.5100(2) 0.68838(17) 0.0599(5) Uani 1 1 d . .
O2 O 0.3390(2) 0.7329(3) 0.5977(2) 0.0821(7) Uani 1 1 d . .
C4A C 0.5035(3) 0.5743(3) 0.6984(2) 0.0438(5) Uani 1 1 d . .
C1 C 0.6807(3) 0.4107(3) 0.7955(2) 0.0437(5) Uani 1 1 d . .
C9A C 0.6612(3) 0.5136(3) 0.72096(19) 0.0411(5) Uani 1 1 d . .
C8A C 0.7760(3) 0.6663(3) 0.5880(2) 0.0442(5) Uani 1 1 d . .
C9 C 0.8026(3) 0.5588(3) 0.6672(2) 0.0436(5) Uani 1 1 d . .
C4 C 0.3709(3) 0.5353(3) 0.7499(2) 0.0543(6) Uani 1 1 d . .
H4 H 0.266364 0.574181 0.733306 0.065 Uiso 1 1 calc R U
C5 C 0.5963(4) 0.8222(3) 0.4867(2) 0.0581(7) Uani 1 1 d . .
H5 H 0.490905 0.859133 0.468618 0.070 Uiso 1 1 calc R U
C16 C 0.8244(3) 0.1828(3) 0.9170(2) 0.0509(6) Uani 1 1 d . .
C10 C 0.4759(3) 0.6815(3) 0.6177(2) 0.0512(6) Uani 1 1 d . .
C5A C 0.6178(3) 0.7234(3) 0.5630(2) 0.0457(5) Uani 1 1 d . .
C13 C 0.7588(4) -0.0107(4) 1.0563(3) 0.0687(8) Uani 1 1 d . .
C2 C 0.5459(3) 0.3760(3) 0.8482(2) 0.0547(6) Uani 1 1 d . .
H2 H 0.558542 0.309608 0.898988 0.066 Uiso 1 1 calc R U
C8 C 0.9092(3) 0.7098(3) 0.5368(2) 0.0546(6) Uani 1 1 d . .
H8 H 1.014422 0.671889 0.552875 0.066 Uiso 1 1 calc R U
C11 C 0.8775(4) 0.2269(3) 1.0422(3) 0.0641(7) Uani 1 1 d . .
H11 H 0.937408 0.323736 1.080230 0.077 Uiso 1 1 calc R U
C3 C 0.3939(3) 0.4385(3) 0.8260(3) 0.0600(7) Uani 1 1 d . .
H3 H 0.305700 0.415004 0.862966 0.072 Uiso 1 1 calc R U
C7 C 0.8852(4) 0.8087(3) 0.4625(3) 0.0658(7) Uani 1 1 d . .
H7 H 0.974482 0.837405 0.428499 0.079 Uiso 1 1 calc R U
C15 C 0.7353(5) 0.0380(4) 0.8626(3) 0.0789(9) Uani 1 1 d . .
H15 H 0.698198 0.005922 0.777717 0.095 Uiso 1 1 calc R U
C6 C 0.7293(4) 0.8659(3) 0.4379(3) 0.0679(8) Uani 1 1 d . .
H6 H 0.714425 0.933774 0.388377 0.081 Uiso 1 1 calc R U
C14 C 0.7012(5) -0.0589(4) 0.9333(4) 0.0899(11) Uani 1 1 d . .
H14 H 0.639774 -0.155542 0.897017 0.108 Uiso 1 1 calc R U
C12 C 0.8433(4) 0.1296(4) 1.1125(3) 0.0733(8) Uani 1 1 d . .
H12 H 0.878201 0.160621 1.197535 0.088 Uiso 1 1 calc R U
F1 F 0.7290(3) -0.1080(2) 1.1249(2) 0.1090(7) Uani 1 1 d . .
loop_
_atom_site_aniso_label
_atom_site_aniso_U_11
_atom_site_aniso_U_22
_atom_site_aniso_U_33
_atom_site_aniso_U_23
_atom_site_aniso_U_13
_atom_site_aniso_U_12
Se1 0.04248(16) 0.0715(2) 0.06402(19) 0.03078(14) 0.01525(12) 0.01815(12)
O1 0.0363(9) 0.0858(13) 0.0695(12) 0.0356(10) 0.0167(8) 0.0182(9)
O2 0.0473(11) 0.0985(16) 0.1245(18) 0.0619(14) 0.0265(11) 0.0331(11)
C4A 0.0339(11) 0.0446(13) 0.0484(13) 0.0052(10) 0.0074(10) 0.0038(9)
C1 0.0352(11) 0.0484(13) 0.0453(12) 0.0094(10) 0.0074(9) 0.0047(10)
C9A 0.0316(11) 0.0469(13) 0.0411(12) 0.0056(10) 0.0064(9) 0.0035(9)
C8A 0.0395(12) 0.0469(13) 0.0419(12) 0.0050(10) 0.0076(10) 0.0029(10)
C9 0.0329(11) 0.0517(14) 0.0431(12) 0.0081(10) 0.0067(9) 0.0033(10)
C4 0.0352(12) 0.0615(16) 0.0685(16) 0.0152(13) 0.0167(11) 0.0120(11)
C5 0.0601(16) 0.0527(16) 0.0636(16) 0.0188(13) 0.0118(13) 0.0148(12)
C16 0.0478(13) 0.0515(15) 0.0553(15) 0.0165(12) 0.0104(11) 0.0113(11)
C10 0.0391(13) 0.0519(15) 0.0600(15) 0.0132(12) 0.0050(11) 0.0090(11)
C5A 0.0447(13) 0.0437(13) 0.0454(13) 0.0067(10) 0.0076(10) 0.0068(10)
C13 0.0721(19) 0.0597(18) 0.085(2) 0.0347(16) 0.0211(16) 0.0112(15)
C2 0.0464(13) 0.0620(17) 0.0609(15) 0.0220(13) 0.0162(12) 0.0080(12)
C8 0.0479(14) 0.0621(16) 0.0569(15) 0.0165(13) 0.0178(12) 0.0060(11)
C11 0.0699(18) 0.0577(17) 0.0585(16) 0.0177(13) -0.0001(14) -0.0033(13)
C3 0.0425(14) 0.0707(18) 0.0748(18) 0.0239(14) 0.0254(13) 0.0068(12)
C7 0.0709(18) 0.0678(18) 0.0684(18) 0.0239(15) 0.0304(15) 0.0059(14)
C15 0.107(3) 0.060(2) 0.0581(17) 0.0073(15) 0.0065(17) -0.0054(17)
C6 0.084(2) 0.0624(18) 0.0656(17) 0.0284(14) 0.0200(15) 0.0123(15)
C14 0.114(3) 0.0493(18) 0.099(3) 0.0168(17) 0.015(2) -0.0107(17)
C12 0.087(2) 0.076(2) 0.0582(17) 0.0272(15) 0.0085(15) 0.0016(17)
F1 0.1315(18) 0.0915(15) 0.1271(17) 0.0680(13) 0.0366(14) 0.0024(13)
loop_
_atom_type_symbol
_atom_type_description
_atom_type_scat_dispersion_real
_atom_type_scat_dispersion_imag
_atom_type_scat_source
C C 0.0033 0.0016 'International Tables Vol C Tables 4.2.6.8 and 6.1.1.4'
H H 0.0000 0.0000 'International Tables Vol C Tables 4.2.6.8 and 6.1.1.4'
O O 0.0106 0.0060 'International Tables Vol C Tables 4.2.6.8 and 6.1.1.4'
Se Se -0.0929 2.2259 'International Tables Vol C Tables 4.2.6.8 and 6.1.1.4'
F F 0.0171 0.0103 'International Tables Vol C Tables 4.2.6.8 and 6.1.1.4'
loop_
_geom_angle_atom_site_label_1
_geom_angle_atom_site_label_2
_geom_angle_atom_site_label_3
_geom_angle
C1 Se1 C16 99.19(10)
C4 C4A C9A 120.7(2)
C4 C4A C10 118.5(2)
C9A C4A C10 120.8(2)
C2 C1 C9A 119.0(2)
C2 C1 Se1 120.48(18)
C9A C1 Se1 120.51(17)
C1 C9A C4A 119.0(2)
C1 C9A C9 121.0(2)
C4A C9A C9 120.0(2)
C8 C8A C5A 119.6(2)
C8 C8A C9 119.7(2)
C5A C8A C9 120.7(2)
O1 C9 C9A 120.8(2)
O1 C9 C8A 119.9(2)
C9A C9 C8A 119.31(19)
C3 C4 C4A 119.7(2)
C3 C4 H4 120.2
C4A C4 H4 120.2
C6 C5 C5A 120.7(3)
C6 C5 H5 119.6
C5A C5 H5 119.6
C11 C16 C15 118.4(3)
C11 C16 Se1 120.2(2)
C15 C16 Se1 121.2(2)
O2 C10 C5A 120.8(2)
O2 C10 C4A 120.7(2)
C5A C10 C4A 118.5(2)
C5 C5A C8A 119.2(2)
C5 C5A C10 120.1(2)
C8A C5A C10 120.7(2)
C12 C13 C14 122.5(3)
C12 C13 F1 119.1(3)
C14 C13 F1 118.4(3)
C3 C2 C1 120.9(2)
C3 C2 H2 119.6
C1 C2 H2 119.6
C7 C8 C8A 120.1(3)
C7 C8 H8 120.0
C8A C8 H8 120.0
C16 C11 C12 120.9(3)
C16 C11 H11 119.5
C12 C11 H11 119.5
C4 C3 C2 120.8(2)
C4 C3 H3 119.6
C2 C3 H3 119.6
C8 C7 C6 120.5(3)
C8 C7 H7 119.7
C6 C7 H7 119.7
C14 C15 C16 120.5(3)
C14 C15 H15 119.8
C16 C15 H15 119.8
C5 C6 C7 119.8(3)
C5 C6 H6 120.1
C7 C6 H6 120.1
C13 C14 C15 118.7(3)
C13 C14 H14 120.6
C15 C14 H14 120.6
C13 C12 C11 118.9(3)
C13 C12 H12 120.5
C11 C12 H12 120.5
loop_
_geom_bond_atom_site_label_1
_geom_bond_atom_site_label_2
_geom_bond_distance
Se1 C1 1.920(2)
Se1 C16 1.922(3)
O1 C9 1.224(3)
O2 C10 1.218(3)
C4A C4 1.378(3)
C4A C9A 1.409(3)
C4A C10 1.492(3)
C1 C2 1.390(3)
C1 C9A 1.405(3)
C9A C9 1.471(3)
C8A C8 1.392(3)
C8A C5A 1.400(3)
C8A C9 1.482(3)
C4 C3 1.375(4)
C4 H4 0.9300
C5 C6 1.375(4)
C5 C5A 1.390(4)
C5 H5 0.9300
C16 C11 1.370(4)
C16 C15 1.385(4)
C10 C5A 1.473(3)
C13 C12 1.342(4)
C13 C14 1.353(5)
C13 F1 1.353(3)
C2 C3 1.376(4)
C2 H2 0.9300
C8 C7 1.376(4)
C8 H8 0.9300
C11 C12 1.379(4)
C11 H11 0.9300
C3 H3 0.9300
C7 C6 1.383(4)
C7 H7 0.9300
C15 C14 1.379(5)
C15 H15 0.9300
C6 H6 0.9300
C14 H14 0.9300
C12 H12 0.9300
loop_
_geom_torsion_atom_site_label_1
_geom_torsion_atom_site_label_2
_geom_torsion_atom_site_label_3
_geom_torsion_atom_site_label_4
_geom_torsion
C2 C1 C9A C4A -2.2(3)
Se1 C1 C9A C4A 175.79(16)
C2 C1 C9A C9 177.5(2)
Se1 C1 C9A C9 -4.5(3)
C4 C4A C9A C1 0.9(3)
C10 C4A C9A C1 -178.7(2)
C4 C4A C9A C9 -178.8(2)
C10 C4A C9A C9 1.6(3)
C1 C9A C9 O1 -1.5(3)
C4A C9A C9 O1 178.2(2)
C1 C9A C9 C8A 179.3(2)
C4A C9A C9 C8A -1.0(3)
C8 C8A C9 O1 0.8(3)
C5A C8A C9 O1 -179.9(2)
C8 C8A C9 C9A 180.0(2)
C5A C8A C9 C9A -0.7(3)
C9A C4A C4 C3 1.3(4)
C10 C4A C4 C3 -179.1(2)
C4 C4A C10 O2 -0.2(4)
C9A C4A C10 O2 179.4(2)
C4 C4A C10 C5A 179.9(2)
C9A C4A C10 C5A -0.5(3)
C6 C5 C5A C8A -1.1(4)
C6 C5 C5A C10 178.1(2)
C8 C8A C5A C5 0.3(3)
C9 C8A C5A C5 -179.0(2)
C8 C8A C5A C10 -178.9(2)
C9 C8A C5A C10 1.8(3)
O2 C10 C5A C5 -0.3(4)
C4A C10 C5A C5 179.6(2)
O2 C10 C5A C8A 178.8(2)
C4A C10 C5A C8A -1.2(3)
C9A C1 C2 C3 1.3(4)
Se1 C1 C2 C3 -176.6(2)
C5A C8A C8 C7 0.2(4)
C9 C8A C8 C7 179.6(2)
C15 C16 C11 C12 0.0(4)
Se1 C16 C11 C12 -175.6(2)
C4A C4 C3 C2 -2.2(4)
C1 C2 C3 C4 0.9(4)
C8A C8 C7 C6 0.0(4)
C11 C16 C15 C14 0.0(5)
Se1 C16 C15 C14 175.6(3)
C5A C5 C6 C7 1.4(4)
C8 C7 C6 C5 -0.8(5)
C12 C13 C14 C15 2.1(6)
F1 C13 C14 C15 -178.2(3)
C16 C15 C14 C13 -1.1(6)
C14 C13 C12 C11 -2.0(5)
F1 C13 C12 C11 178.3(3)
C16 C11 C12 C13 0.9(5)
