#------------------------------------------------------------------------------
#$Date: 2019-10-29 06:15:30 +0200 (Tue, 29 Oct 2019) $
#$Revision: 220351 $
#$URL: file:///home/coder/svn-repositories/cod/cif/7/05/89/7058921.cif $
#------------------------------------------------------------------------------
#
# This file is available in the Crystallography Open Database (COD),
# http://www.crystallography.net/
#
# All data on this site have been placed in the public domain by the
# contributors.
#
data_7058921
loop_
_publ_author_name
'Juneja, Navkiran Kaur'
'Unruh, Daniel K.'
'Bosch, Eric'
'Groeneman , Ryan'
'Hutchins, Kristin M.'
_publ_section_title
;
 Effects of dynamic pedal motion and static disorder on thermal expansion
 within halogen bonded co-crystals
;
_journal_name_full               'New Journal of Chemistry'
_journal_paper_doi               10.1039/C9NJ04833B
_journal_year                    2019
_chemical_formula_sum            'C16 H8 Cl4 I2 N4'
_chemical_formula_weight         651.86
_space_group_IT_number           2
_space_group_name_Hall           '-P 1'
_space_group_name_H-M_alt        'P -1'
_symmetry_cell_setting           triclinic
_symmetry_Int_Tables_number      2
_symmetry_space_group_name_Hall  '-P 1'
_symmetry_space_group_name_H-M   'P -1'
_atom_sites_solution_hydrogens   geom
_atom_sites_solution_primary     dual
_atom_sites_solution_secondary   difmap
_audit_creation_date             2019-09-05T11:46:33-00:00
_audit_creation_method           'WinGX routine CIF_UPDATE'
_audit_update_record
;
2019-09-20 deposited with the CCDC.    2019-10-28 downloaded from the CCDC.
;
_cell_angle_alpha                111.476(2)
_cell_angle_beta                 92.043(3)
_cell_angle_gamma                94.580(2)
_cell_formula_units_Z            1
_cell_length_a                   4.01450(14)
_cell_length_b                   10.8241(2)
_cell_length_c                   12.3534(3)
_cell_measurement_reflns_used    10195
_cell_measurement_temperature    190(2)
_cell_measurement_theta_max      77.131
_cell_measurement_theta_min      3.894
_cell_volume                     496.71(2)
_computing_cell_refinement       'CrysAlisPro 1.171.40.58a (Rigaku OD, 2019)'
_computing_data_collection       'CrysAlisPro 1.171.40.58a (Rigaku OD, 2019)'
_computing_data_reduction        'CrysAlisPro 1.171.40.58a (Rigaku OD, 2019)'
_computing_structure_refinement  'SHELXL-2018/3 (Sheldrick, 2018)'
_computing_structure_solution    'SHELXT 2014/5 (Sheldrick, 2014)'
_diffrn_ambient_environment      N~2~
_diffrn_ambient_temperature      190(2)
_diffrn_detector                 'Hybrid Pixel Array Detector'
_diffrn_detector_area_resol_mean 10
_diffrn_detector_type            HyPix
_diffrn_measured_fraction_theta_full 0.996
_diffrn_measured_fraction_theta_max 0.957
_diffrn_measurement_device       'four-circle diffractometer'
_diffrn_measurement_device_type  'XtaLAB Synergy, Dualflex, HyPix'
_diffrn_measurement_method       '\w scans'
_diffrn_orient_matrix_type
'CrysAlisPro convention (1999,Acta A55,543-557)'
_diffrn_orient_matrix_UB_11      0.1497906
_diffrn_orient_matrix_UB_12      0.1444586
_diffrn_orient_matrix_UB_13      0.0694391
_diffrn_orient_matrix_UB_21      0.0569472
_diffrn_orient_matrix_UB_22      0.02099
_diffrn_orient_matrix_UB_23      -0.1150005
_diffrn_orient_matrix_UB_31      -0.3510809
_diffrn_orient_matrix_UB_32      0.0481571
_diffrn_orient_matrix_UB_33      0.0006419
_diffrn_radiation_monochromator  mirror
_diffrn_radiation_probe          x-ray
_diffrn_radiation_type           CuK\a
_diffrn_radiation_wavelength     1.54178
_diffrn_reflns_av_R_equivalents  0.0656
_diffrn_reflns_av_unetI/netI     0.0554
_diffrn_reflns_Laue_measured_fraction_full 0.996
_diffrn_reflns_Laue_measured_fraction_max 0.957
_diffrn_reflns_limit_h_max       4
_diffrn_reflns_limit_h_min       -5
_diffrn_reflns_limit_k_max       13
_diffrn_reflns_limit_k_min       -13
_diffrn_reflns_limit_l_max       15
_diffrn_reflns_limit_l_min       -15
_diffrn_reflns_number            16568
_diffrn_reflns_point_group_measured_fraction_full 0.996
_diffrn_reflns_point_group_measured_fraction_max 0.957
_diffrn_reflns_theta_full        67.679
_diffrn_reflns_theta_max         77.275
_diffrn_reflns_theta_min         3.855
_diffrn_source                   'micro-focus sealed X-ray tube'
_diffrn_source_type              'PhotonJet (Cu) X-ray Source'
_exptl_absorpt_coefficient_mu    29.895
_exptl_absorpt_correction_T_max  0.475
_exptl_absorpt_correction_T_min  0.067
_exptl_absorpt_correction_type   gaussian
_exptl_absorpt_process_details
;
        CrysAlisPro 1.171.40.58a (Rigaku Oxford Diffraction, 2019)
Numerical absorption correction based on gaussian integration over
                        a multifaceted crystal model
        Empirical absorption correction using spherical harmonics,
 implemented in SCALE3 ABSPACK scaling algorithm.
;
_exptl_crystal_colour            'clear pale yellow'
_exptl_crystal_density_diffrn    2.179
_exptl_crystal_description       block
_exptl_crystal_F_000             306
_exptl_crystal_size_max          0.143
_exptl_crystal_size_mid          0.094
_exptl_crystal_size_min          0.054
_refine_diff_density_max         1.032
_refine_diff_density_min         -1.157
_refine_diff_density_rms         0.17
_refine_ls_extinction_method     none
_refine_ls_goodness_of_fit_ref   1.095
_refine_ls_hydrogen_treatment    constr
_refine_ls_matrix_type           full
_refine_ls_number_parameters     159
_refine_ls_number_reflns         2008
_refine_ls_number_restraints     343
_refine_ls_restrained_S_all      1.019
_refine_ls_R_factor_all          0.0377
_refine_ls_R_factor_gt           0.0323
_refine_ls_shift/su_max          0
_refine_ls_shift/su_mean         0
_refine_ls_structure_factor_coef Fsqd
_refine_ls_weighting_details
'w=1/[\s^2^(Fo^2^)+(0.0528P)^2^+0.8008P] where P=(Fo^2^+2Fc^2^)/3'
_refine_ls_weighting_scheme      calc
_refine_ls_wR_factor_gt          0.0816
_refine_ls_wR_factor_ref         0.0846
_reflns_Friedel_coverage         0
_reflns_number_gt                1934
_reflns_number_total             2008
_reflns_threshold_expression     'I > 2\s(I)'
_cod_data_source_file            c9nj04833b2.cif
_cod_data_source_block           hut19_48_190
_cod_original_cell_volume        496.72(3)
_cod_database_code               7058921
_shelx_estimated_absorpt_t_min   0.1
_shelx_estimated_absorpt_t_max   0.295
_shelx_shelxl_version_number     2018/3
_shelx_res_file
;
TITL 190_a.res in P-1
    190_a.res
    created by SHELXL-2018/3 at 15:43:50 on 04-Sep-2019
REM Old TITL 190 in P1
REM SHELXT solution in P-1
REM R1 0.108,  Rweak 0.010,  Alpha 0.087,  Orientation as input
REM Formula found by SHELXT:  C9 Cl2 I N
CELL  1.54178   4.014497  10.824149  12.353430   111.4756    92.0434    94.580
ZERR    1.000   0.000137   0.000239   0.000324     0.0023     0.0025    0.0022
LATT  1
SFAC C H CL I N
UNIT 16 8 4 2 4
TEMP -83.2
SIZE 0.143 0.094 0.054
L.S. 10
BOND $H
ACTA
LIST 4
FMAP 2
PLAN 20

RIGU

BIND I1 N1A
BIND I1 N1B

SIMU 0.01 N1A N1B N2A N2B C4A C4B C5A C5B C6A C6B C7A C7B C8A C8B

DFIX 31 C6A N2A C6B N2B

OMIT   3  -9   9
OMIT   2   9   3
OMIT   0  12   0
OMIT  -3  -2  12
OMIT  -4  -5   8
OMIT  -4   5   0
OMIT  -3  10   1
OMIT   1 -13   3

WGHT    0.052800    0.800800
FVAR       0.55835   0.60054   1.44241
I1    4    0.771503    0.294890    0.210806    11.00000    0.03186    0.02553 =
         0.02923    0.00161    0.00148    0.00261
CL1   3    0.713948   -0.007802    0.228451    11.00000    0.04740    0.03395 =
         0.02671    0.00908    0.00782   -0.00041
CL2   3    0.916229   -0.265532    0.045041    11.00000    0.05688    0.02685 =
         0.03515    0.01244    0.00394    0.00242
C1    1    0.908249    0.118523    0.085032    11.00000    0.02719    0.02315 =
         0.02423    0.00120    0.00065   -0.00045
C2    1    0.874219   -0.002498    0.102573    11.00000    0.02780    0.03063 =
         0.02150    0.00581   -0.00052   -0.00089
C3    1    0.962070   -0.118566    0.019023    11.00000    0.03216    0.02329 =
         0.02682    0.00624   -0.00232   -0.00106
PART 1
AFIX  66
N1A   5    0.599882    0.556535    0.365498    21.00000    0.04515    0.02185 =
         0.03445    0.00985    0.00200    0.00438
C4A   1    0.438214    0.598924    0.285862    21.00000    0.04976    0.01609 =
         0.03896    0.01369    0.00414    0.00372
AFIX  43
H4A   2    0.363111    0.536536    0.210397    21.00000   -1.20000
AFIX  65
C5A   1    0.386432    0.732595    0.316642    21.00000    0.04397    0.01619 =
         0.03301    0.00589   -0.00001   -0.00135
AFIX  43
H5A   2    0.275939    0.761565    0.262214    21.00000   -1.20000
AFIX  65
C6A   1    0.496319    0.823879    0.427059    21.00000    0.04258    0.01797 =
         0.02921    0.00554    0.00417    0.00136
C7A   1    0.657987    0.781492    0.506696    21.00000    0.04352    0.01613 =
         0.03514    0.00822    0.00629    0.00464
AFIX  43
H7A   2    0.733089    0.843881    0.582161    21.00000   -1.20000
AFIX  65
C8A   1    0.709771    0.647821    0.475917    21.00000    0.04886    0.01922 =
         0.03795    0.01304    0.00285    0.00425
AFIX  43
H8A   2    0.820264    0.618852    0.530346    21.00000   -1.20000
AFIX   0
N2A   5    0.442300    0.961132    0.451181    21.00000    0.04887    0.01847 =
         0.02802    0.00529   -0.00186    0.00194
PART  2
AFIX  66
N1B   5    0.570623    0.555116    0.353471   -21.00000    0.04809    0.02249 =
         0.03750    0.00294    0.00575   -0.00013
C4B   1    0.429625    0.628273    0.294932   -21.00000    0.04954    0.01861 =
         0.03568   -0.00094    0.00396   -0.00288
AFIX  43
H4B   2    0.338686    0.584742    0.216738   -21.00000   -1.20000
AFIX  65
C5B   1    0.421683    0.765123    0.350803   -21.00000    0.04663    0.01659 =
         0.03448    0.00235    0.00425   -0.00034
AFIX  43
H5B   2    0.325316    0.815122    0.310793   -21.00000   -1.20000
AFIX  65
C6B   1    0.554739    0.828816    0.465213   -21.00000    0.03992    0.01689 =
         0.03317    0.00574    0.00342   -0.00212
C7B   1    0.695739    0.755660    0.523753   -21.00000    0.04631    0.01644 =
         0.03869    0.00669    0.00314    0.00040
AFIX  43
H7B   2    0.786677    0.799193    0.601947   -21.00000   -1.20000
AFIX  65
C8B   1    0.703683    0.618811    0.467884   -21.00000    0.04630    0.01102 =
         0.03770   -0.00398    0.00448   -0.00837
AFIX  43
H8B   2    0.800049    0.568813    0.507893   -21.00000   -1.20000
AFIX   0
N2B   5    0.548077    0.970118    0.528954   -21.00000    0.04883    0.02157 =
         0.03162    0.00180    0.00159    0.00100
HKLF 4




REM  190_a.res in P-1
REM wR2 = 0.084637, GooF = S = 1.09509, Restrained GooF = 1.01934 for all data
REM R1 = 0.032296 for 1934 Fo > 4sig(Fo) and 0.037687 for all 2008 data
REM 159 parameters refined using 343 restraints

END

WGHT      0.0528      0.8008

REM Highest difference peak  1.032,  deepest hole -1.157,  1-sigma level  0.170
Q1    1   0.7341  0.2908  0.1440  11.00000  0.05    1.03
Q2    1   0.5909  0.3188  0.2512  11.00000  0.05    0.96
Q3    1   0.9760  0.2773  0.2615  11.00000  0.05    0.87
Q4    1   0.9312  0.2921  0.1659  11.00000  0.05    0.84
Q5    1   0.8110  0.2990  0.2862  11.00000  0.05    0.83
Q6    1   0.6012  0.3198  0.1642  11.00000  0.05    0.82
Q7    1   0.2933  0.2765  0.2642  11.00000  0.05    0.71
Q8    1   1.1803 -0.2620 -0.0421  11.00000  0.05    0.58
Q9    1   1.2510  0.3023  0.1631  11.00000  0.05    0.57
Q10   1   0.6224 -0.2988 -0.1020  11.00000  0.05    0.50
Q11   1   0.6908  0.3197  0.3744  11.00000  0.05    0.49
Q12   1   0.8471  0.7346  0.6790  11.00000  0.05    0.48
Q13   1   0.7637  0.6749  0.6808  11.00000  0.05    0.46
Q14   1   0.8954 -0.2638 -0.0208  11.00000  0.05    0.45
Q15   1   1.3538 -0.2757  0.0810  11.00000  0.05    0.45
Q16   1   1.0646  0.1350  0.0653  11.00000  0.05    0.44
Q17   1   0.9387  0.6270  0.6010  11.00000  0.05    0.44
Q18   1   0.8567  0.4592  0.4602  11.00000  0.05    0.43
Q19   1   0.7528  0.4743  0.5442  11.00000  0.05    0.43
Q20   1   0.5154  0.3127  0.3200  11.00000  0.05    0.43
;
_shelx_res_checksum              34981
loop_
_symmetry_equiv_pos_as_xyz
'x, y, z'
'-x, -y, -z'
loop_
_atom_site_label
_atom_site_type_symbol
_atom_site_fract_x
_atom_site_fract_y
_atom_site_fract_z
_atom_site_U_iso_or_equiv
_atom_site_adp_type
_atom_site_occupancy
_atom_site_site_symmetry_order
_atom_site_calc_flag
_atom_site_refinement_flags_posn
_atom_site_refinement_flags_adp
_atom_site_refinement_flags_occupancy
_atom_site_disorder_assembly
_atom_site_disorder_group
I1 I 0.77150(6) 0.29489(2) 0.21081(2) 0.03133(13) Uani 1 1 d . . . . .
Cl1 Cl 0.7139(3) -0.00780(11) 0.22845(9) 0.0368(3) Uani 1 1 d . . . . .
Cl2 Cl 0.9162(3) -0.26553(10) 0.04504(10) 0.0394(3) Uani 1 1 d . . . . .
C1 C 0.9082(10) 0.1185(4) 0.0850(3) 0.0272(8) Uani 1 1 d . . . . .
C2 C 0.8742(11) -0.0025(4) 0.1026(3) 0.0280(8) Uani 1 1 d . . . . .
C3 C 0.9621(11) -0.1186(4) 0.0190(4) 0.0286(8) Uani 1 1 d . . . . .
N1A N 0.600(3) 0.5565(5) 0.3655(8) 0.0339(16) Uani 0.601(14) 1 d G U P A 1
C4A C 0.438(3) 0.5989(7) 0.2859(6) 0.0339(16) Uani 0.601(14) 1 d G U P A 1
H4A H 0.363111 0.536536 0.210397 0.041 Uiso 0.601(14) 1 calc R U P A 1
C5A C 0.386(2) 0.7326(8) 0.3166(7) 0.0323(16) Uani 0.601(14) 1 d G U P A 1
H5A H 0.275939 0.761565 0.262214 0.039 Uiso 0.601(14) 1 calc R U P A 1
C6A C 0.496(2) 0.8239(5) 0.4271(7) 0.0309(16) Uani 0.601(14) 1 d DG U P A 1
C7A C 0.658(2) 0.7815(6) 0.5067(6) 0.0318(17) Uani 0.601(14) 1 d G U P A 1
H7A H 0.733089 0.843881 0.582161 0.038 Uiso 0.601(14) 1 calc R U P A 1
C8A C 0.710(3) 0.6478(7) 0.4759(7) 0.0346(16) Uani 0.601(14) 1 d G U P A 1
H8A H 0.820264 0.618852 0.530346 0.042 Uiso 0.601(14) 1 calc R U P A 1
N2A N 0.4423(19) 0.9611(8) 0.4512(7) 0.0329(17) Uani 0.601(14) 1 d D U P A 1
N1B N 0.571(5) 0.5551(8) 0.3535(13) 0.038(2) Uani 0.399(14) 1 d G U P A 2
C4B C 0.430(5) 0.6283(12) 0.2949(9) 0.038(2) Uani 0.399(14) 1 d G U P A 2
H4B H 0.338686 0.584742 0.216738 0.046 Uiso 0.399(14) 1 calc R U P A 2
C5B C 0.422(4) 0.7651(12) 0.3508(11) 0.035(2) Uani 0.399(14) 1 d G U P A 2
H5B H 0.325316 0.815122 0.310793 0.042 Uiso 0.399(14) 1 calc R U P A 2
C6B C 0.555(3) 0.8288(8) 0.4652(11) 0.031(2) Uani 0.399(14) 1 d DG U P A 2
C7B C 0.696(4) 0.7557(12) 0.5238(9) 0.035(2) Uani 0.399(14) 1 d G U P A 2
H7B H 0.786677 0.799193 0.601947 0.042 Uiso 0.399(14) 1 calc R U P A 2
C8B C 0.704(5) 0.6188(12) 0.4679(13) 0.036(2) Uani 0.399(14) 1 d G U P A 2
H8B H 0.800049 0.568813 0.507893 0.043 Uiso 0.399(14) 1 calc R U P A 2
N2B N 0.548(3) 0.9701(12) 0.5290(10) 0.036(2) Uani 0.399(14) 1 d D U P A 2
loop_
_atom_site_aniso_label
_atom_site_aniso_U_11
_atom_site_aniso_U_22
_atom_site_aniso_U_33
_atom_site_aniso_U_23
_atom_site_aniso_U_13
_atom_site_aniso_U_12
I1 0.03186(19) 0.02553(17) 0.02923(18) 0.00161(12) 0.00148(11) 0.00261(11)
Cl1 0.0474(6) 0.0339(5) 0.0267(5) 0.0091(4) 0.0078(4) -0.0004(4)
Cl2 0.0569(7) 0.0268(5) 0.0352(5) 0.0124(4) 0.0039(5) 0.0024(4)
C1 0.027(2) 0.0232(18) 0.0242(19) 0.0012(15) 0.0007(16) -0.0005(15)
C2 0.028(2) 0.031(2) 0.0215(18) 0.0058(15) -0.0005(15) -0.0009(16)
C3 0.032(2) 0.0233(18) 0.0268(19) 0.0062(15) -0.0023(16) -0.0011(15)
N1A 0.045(3) 0.022(3) 0.034(3) 0.010(2) 0.002(3) 0.004(3)
C4A 0.050(3) 0.016(3) 0.039(3) 0.014(2) 0.004(3) 0.004(3)
C5A 0.044(3) 0.016(3) 0.033(3) 0.006(3) 0.000(3) -0.001(3)
C6A 0.043(3) 0.018(2) 0.029(3) 0.006(2) 0.004(3) 0.001(2)
C7A 0.044(4) 0.016(3) 0.035(3) 0.008(2) 0.006(3) 0.005(3)
C8A 0.049(3) 0.019(3) 0.038(3) 0.013(3) 0.003(3) 0.004(3)
N2A 0.049(3) 0.018(3) 0.028(3) 0.005(3) -0.002(3) 0.002(3)
N1B 0.048(4) 0.022(3) 0.037(4) 0.003(3) 0.006(3) 0.000(3)
C4B 0.050(4) 0.019(4) 0.036(4) -0.001(3) 0.004(3) -0.003(4)
C5B 0.047(4) 0.017(4) 0.034(4) 0.002(3) 0.004(4) 0.000(4)
C6B 0.040(4) 0.017(3) 0.033(4) 0.006(3) 0.003(3) -0.002(3)
C7B 0.046(4) 0.016(4) 0.039(4) 0.007(3) 0.003(3) 0.000(4)
C8B 0.046(4) 0.011(4) 0.038(4) -0.004(3) 0.004(3) -0.008(4)
N2B 0.049(4) 0.022(4) 0.032(4) 0.002(4) 0.002(4) 0.001(4)
loop_
_atom_type_symbol
_atom_type_description
_atom_type_scat_dispersion_real
_atom_type_scat_dispersion_imag
_atom_type_scat_source
C C 0.0181 0.0091 'International Tables Vol C Tables 4.2.6.8 and 6.1.1.4'
H H 0 0 'International Tables Vol C Tables 4.2.6.8 and 6.1.1.4'
Cl Cl 0.3639 0.7018 'International Tables Vol C Tables 4.2.6.8 and 6.1.1.4'
I I -0.3257 6.8362 'International Tables Vol C Tables 4.2.6.8 and 6.1.1.4'
N N 0.0311 0.018 'International Tables Vol C Tables 4.2.6.8 and 6.1.1.4'
loop_
_exptl_crystal_face_index_h
_exptl_crystal_face_index_k
_exptl_crystal_face_index_l
_exptl_crystal_face_perp_dist
0 6 1 0.0747
-3 0 -1 0.0276
0 -6 -1 0.0462
3 0 1 0.0594
2 4 2 0.0644
0 4 -8 0.0132
0 -4 8 0.0381
0 7 -3 0.0515
2 3 -2 0.0542
1 3 5 0.062
0 -5 7 0.0339
0 1 -8 0.0283
loop_
_geom_angle_atom_site_label_1
_geom_angle_atom_site_label_2
_geom_angle_atom_site_label_3
_geom_angle
_geom_angle_site_symmetry_1
_geom_angle_site_symmetry_3
C1 I1 N1B 170.5(3) . .
C1 I1 N1A 172.9(2) . .
C2 C1 C3 118.0(4) . 2_755
C2 C1 I1 121.1(3) . .
C3 C1 I1 120.9(3) 2_755 .
C3 C2 C1 120.8(4) . .
C3 C2 Cl1 119.5(3) . .
C1 C2 Cl1 119.7(3) . .
C2 C3 C1 121.2(4) . 2_755
C2 C3 Cl2 119.1(3) . .
C1 C3 Cl2 119.7(3) 2_755 .
C4A N1A C8A 120 . .
C4A N1A I1 100.7(4) . .
C8A N1A I1 136.5(4) . .
N1A C4A C5A 120 . .
N1A C4A H4A 120 . .
C5A C4A H4A 120 . .
C6A C5A C4A 120 . .
C6A C5A H5A 120 . .
C4A C5A H5A 120 . .
C5A C6A C7A 120 . .
C5A C6A N2A 116.7(6) . .
C7A C6A N2A 123.3(6) . .
C8A C7A C6A 120 . .
C8A C7A H7A 120 . .
C6A C7A H7A 120 . .
C7A C8A N1A 120 . .
C7A C8A H8A 120 . .
N1A C8A H8A 120 . .
N2A N2A C6A 114.0(9) 2_676 .
C4B N1B C8B 120 . .
C4B N1B I1 117.0(7) . .
C8B N1B I1 120.0(7) . .
N1B C4B C5B 120 . .
N1B C4B H4B 120 . .
C5B C4B H4B 120 . .
C6B C5B C4B 120 . .
C6B C5B H5B 120 . .
C4B C5B H5B 120 . .
C5B C6B C7B 120 . .
C5B C6B N2B 122.7(10) . .
C7B C6B N2B 117.3(10) . .
C8B C7B C6B 120 . .
C8B C7B H7B 120 . .
C6B C7B H7B 120 . .
C7B C8B N1B 120 . .
C7B C8B H8B 120 . .
N1B C8B H8B 120 . .
N2B N2B C6B 114.2(15) 2_676 .
loop_
_geom_bond_atom_site_label_1
_geom_bond_atom_site_label_2
_geom_bond_distance
_geom_bond_site_symmetry_2
I1 C1 2.101(4) .
I1 N1B 2.919(10) .
I1 N1A 2.931(6) .
Cl1 C2 1.722(4) .
Cl2 C3 1.732(4) .
C1 C2 1.401(6) .
C1 C3 1.404(6) 2_755
C2 C3 1.384(6) .
N1A C4A 1.39 .
N1A C8A 1.39 .
C4A C5A 1.39 .
C4A H4A 0.95 .
C5A C6A 1.39 .
C5A H5A 0.95 .
C6A C7A 1.39 .
C6A N2A 1.440(8) .
C7A C8A 1.39 .
C7A H7A 0.95 .
C8A H8A 0.95 .
N2A N2A 1.238(16) 2_676
N1B C4B 1.39 .
N1B C8B 1.39 .
C4B C5B 1.39 .
C4B H4B 0.95 .
C5B C6B 1.39 .
C5B H5B 0.95 .
C6B C7B 1.39 .
C6B N2B 1.444(13) .
C7B C8B 1.39 .
C7B H7B 0.95 .
C8B H8B 0.95 .
N2B N2B 1.20(3) 2_676
