#------------------------------------------------------------------------------
#$Date: 2019-11-08 03:09:27 +0200 (Fri, 08 Nov 2019) $
#$Revision: 224986 $
#$URL: file:///home/coder/svn-repositories/cod/cif/7/05/87/7058774.cif $
#------------------------------------------------------------------------------
#
# This file is available in the Crystallography Open Database (COD),
# http://www.crystallography.net/
#
# All data on this site have been placed in the public domain by the
# contributors.
#
data_7058774
loop_
_publ_author_name
'Chen, Jifeng'
'Yu, Yi'
'Zhang, Shujuan'
'Li, Yuchuan'
'Pang, Siping'
_publ_section_title
;
 Energetic materials with fluorinated four-membered heterocyclic ring:
 3,3&#x2032;-difluoroazetidine (DFAZ) salts
;
_journal_issue                   38
_journal_name_full               'New Journal of Chemistry'
_journal_page_first              15115
_journal_paper_doi               10.1039/C9NJ02569C
_journal_volume                  43
_journal_year                    2019
_chemical_formula_sum            'C4 H6 F2 N4 O6'
_chemical_formula_weight         244.13
_space_group_crystal_system      triclinic
_space_group_IT_number           2
_space_group_name_Hall           '-P 1'
_space_group_name_H-M_alt        'P -1'
_symmetry_space_group_name_Hall  '-P 1'
_symmetry_space_group_name_H-M   'P -1'
_atom_sites_solution_hydrogens   geom
_audit_creation_method           SHELXL-2018/3
_audit_update_record
;
2019-08-22 deposited with the CCDC.    2019-08-26 downloaded from the CCDC.
;
_cell_angle_alpha                100.379(8)
_cell_angle_beta                 103.018(6)
_cell_angle_gamma                92.979(8)
_cell_formula_units_Z            2
_cell_length_a                   5.7184(4)
_cell_length_b                   8.2861(10)
_cell_length_c                   9.6182(7)
_cell_measurement_reflns_used    1495
_cell_measurement_temperature    293(2)
_cell_measurement_theta_max      29.2656
_cell_measurement_theta_min      2.9993
_cell_volume                     434.72(7)
_computing_structure_refinement  'SHELXL-2018/3 (Sheldrick, 2018)'
_diffrn_ambient_temperature      293(2)
_diffrn_measured_fraction_theta_full 0.997
_diffrn_measured_fraction_theta_max 0.998
_diffrn_measurement_device_type  'Xcalibur, Eos, Gemini'
_diffrn_radiation_type           MoK\a
_diffrn_radiation_wavelength     0.71073
_diffrn_reflns_av_R_equivalents  0.0228
_diffrn_reflns_av_unetI/netI     0.0349
_diffrn_reflns_Laue_measured_fraction_full 0.997
_diffrn_reflns_Laue_measured_fraction_max 0.998
_diffrn_reflns_limit_h_max       7
_diffrn_reflns_limit_h_min       -7
_diffrn_reflns_limit_k_max       10
_diffrn_reflns_limit_k_min       -8
_diffrn_reflns_limit_l_max       9
_diffrn_reflns_limit_l_min       -11
_diffrn_reflns_number            2903
_diffrn_reflns_point_group_measured_fraction_full 0.997
_diffrn_reflns_point_group_measured_fraction_max 0.998
_diffrn_reflns_theta_full        25.242
_diffrn_reflns_theta_max         25.996
_diffrn_reflns_theta_min         3.004
_exptl_absorpt_coefficient_mu    0.196
_exptl_crystal_colour            yellow
_exptl_crystal_density_diffrn    1.865
_exptl_crystal_description       block
_exptl_crystal_F_000             248
_exptl_crystal_size_max          0.550
_exptl_crystal_size_mid          0.500
_exptl_crystal_size_min          0.500
_refine_diff_density_max         0.258
_refine_diff_density_min         -0.277
_refine_diff_density_rms         0.060
_refine_ls_extinction_method     none
_refine_ls_goodness_of_fit_ref   1.069
_refine_ls_hydrogen_treatment    constr
_refine_ls_matrix_type           full
_refine_ls_number_parameters     145
_refine_ls_number_reflns         1698
_refine_ls_number_restraints     0
_refine_ls_restrained_S_all      1.069
_refine_ls_R_factor_all          0.0387
_refine_ls_R_factor_gt           0.0345
_refine_ls_shift/su_max          0.000
_refine_ls_shift/su_mean         0.000
_refine_ls_structure_factor_coef Fsqd
_refine_ls_weighting_details
'w=1/[\s^2^(Fo^2^)+(0.0438P)^2^+0.0661P] where P=(Fo^2^+2Fc^2^)/3'
_refine_ls_weighting_scheme      calc
_refine_ls_wR_factor_gt          0.0858
_refine_ls_wR_factor_ref         0.0893
_reflns_Friedel_coverage         0.000
_reflns_number_gt                1519
_reflns_number_total             1698
_reflns_threshold_expression     'I > 2\s(I)'
_cod_data_source_file            c9nj02569c2.cif
_cod_data_source_block           exp_3042
_cod_depositor_comments
'Adding full bibliography for 7058774--7058778.cif.'
_cod_database_code               7058774
_shelx_shelxl_version_number     2018/3
_shelx_space_group_comment
;
The symmetry employed for this shelxl refinement is uniquely defined
by the following loop, which should always be used as a source of
symmetry information in preference to the above space-group names.
They are only intended as comments.
;
_shelx_estimated_absorpt_t_min   0.900
_shelx_estimated_absorpt_t_max   0.908
_shelx_res_file
;
TITL exp_3042 in P-1 #2
    exp_3042.res
    created by SHELXL-2018/3 at 16:51:49 on 15-Aug-2019
CELL 0.71073 5.718429 8.286133 9.618158 100.379 103.018 92.9788
ZERR 2 0.000449 0.000964 0.000691 0.0077 0.0064 0.0078
LATT 1

SFAC C H F N O
UNIT 8 12 4 8 12
LIST 4 ! automatically inserted. Change 6 to 4 for CHECKCIF!!

L.S. 4
PLAN  4
SIZE 0.5 0.55 0.5

bond $H
conf
EQIV $1 x+1, y, z
HTAB N1 O3_$1
EQIV $2 -x+1, -y+1, -z+1
HTAB N1 O6_$2
HTAB N1 O4_$2
HTAB C3 O3
HTAB C3 O6_$2
EQIV $3 -x+1, -y+2, -z+1
HTAB C3 O2_$3
EQIV $4 -x+2, -y+2, -z+1
HTAB C3 O1_$4
fmap 2
acta
OMIT -2 52

WGHT    0.043800    0.066100
FVAR      12.51456
F1    3    0.464783    0.731809    0.024089    11.00000    0.01973    0.02888 =
         0.02058    0.00188   -0.00733    0.00269
F2    3    0.755532    0.923044    0.055983    11.00000    0.03089    0.02448 =
         0.02566    0.01554    0.00764    0.00488
O3    5    0.334231    0.800713    0.491137    11.00000    0.01460    0.01915 =
         0.01588    0.00825    0.00011    0.00208
O5    5    0.926398    0.663358    0.817467    11.00000    0.01691    0.02222 =
         0.01979    0.00600   -0.00562    0.00074
O6    5    0.603645    0.488974    0.759156    11.00000    0.02445    0.01660 =
         0.02303    0.00870    0.00098   -0.00278
O4    5    0.254237    0.562413    0.548522    11.00000    0.01659    0.01854 =
         0.01901    0.00535    0.00030   -0.00570
O2    5    0.739791    1.001866    0.752443    11.00000    0.02344    0.01369 =
         0.01829   -0.00011    0.00040    0.00290
N2    4    0.750248    0.873696    0.669318    11.00000    0.01242    0.01567 =
         0.01177    0.00387   -0.00260   -0.00013
N3    4    0.386893    0.692605    0.568136    11.00000    0.01328    0.01521 =
         0.01198    0.00272    0.00244    0.00086
O1    5    0.880166    0.857305    0.583569    11.00000    0.01876    0.02641 =
         0.01752    0.00354    0.00660   -0.00241
N4    4    0.712303    0.620078    0.752575    11.00000    0.01740    0.01677 =
         0.01201    0.00340    0.00088    0.00071
N1    4    0.871622    0.689423    0.285306    11.00000    0.01342    0.01802 =
         0.01237    0.00448   -0.00042    0.00078
AFIX  23
H1A   2    1.017103    0.724228    0.342914    11.00000   -1.20000
H1B   2    0.807762    0.602237    0.310795    11.00000   -1.20000
AFIX   0
C1    1    0.866799    0.663558    0.124428    11.00000    0.01999    0.02000 =
         0.01054    0.00240    0.00167    0.00334
AFIX  23
H1C   2    0.801364    0.553971    0.070550    11.00000   -1.20000
H1D   2    1.020102    0.694696    0.104611    11.00000   -1.20000
AFIX   0

C4    1    0.598177    0.728640    0.672968    11.00000    0.01440    0.01464 =
         0.01453    0.00411   -0.00042    0.00033
C2    1    0.687512    0.793261    0.108784    11.00000    0.01671    0.01711 =
         0.01542    0.00500   -0.00162   -0.00012
C3    1    0.704516    0.825705    0.271589    11.00000    0.01430    0.01336 =
         0.01626    0.00179    0.00217    0.00149
AFIX  23
H3A   2    0.552654    0.802581    0.296461    11.00000   -1.20000
H3B   2    0.780414    0.934244    0.322249    11.00000   -1.20000
AFIX   0
HKLF 4




REM  exp_3042 in P-1 #2
REM wR2 = 0.089292, GooF = S = 1.06892, Restrained GooF = 1.06892 for all data
REM R1 = 0.034510 for 1519 Fo > 4sig(Fo) and 0.038736 for all 1698 data
REM 145 parameters refined using 0 restraints

END

WGHT      0.0439      0.0673

REM Highest difference peak  0.258,  deepest hole -0.277,  1-sigma level  0.060
Q1    1   0.6817  0.8174  0.1877  11.00000  0.05    0.26
Q2    1   0.7691  0.7268  0.0954  11.00000  0.05    0.23
Q3    1   0.9996  0.5449  0.8009  11.00000  0.05    0.21
Q4    1   0.9169  0.5362  0.0924  11.00000  0.05    0.18
;
_shelx_res_checksum              59902
loop_
_space_group_symop_operation_xyz
'x, y, z'
'-x, -y, -z'
loop_
_atom_site_label
_atom_site_type_symbol
_atom_site_fract_x
_atom_site_fract_y
_atom_site_fract_z
_atom_site_U_iso_or_equiv
_atom_site_adp_type
_atom_site_occupancy
_atom_site_site_symmetry_order
_atom_site_calc_flag
_atom_site_refinement_flags_posn
_atom_site_refinement_flags_adp
F1 F 0.46478(17) 0.73181(12) 0.02409(9) 0.0254(3) Uani 1 1 d . .
F2 F 0.75553(18) 0.92304(12) 0.05598(10) 0.0254(3) Uani 1 1 d . .
O3 O 0.33423(19) 0.80071(13) 0.49114(10) 0.0165(3) Uani 1 1 d . .
O5 O 0.9264(2) 0.66336(14) 0.81747(11) 0.0211(3) Uani 1 1 d . .
O6 O 0.6036(2) 0.48897(14) 0.75916(11) 0.0217(3) Uani 1 1 d . .
O4 O 0.25424(19) 0.56241(13) 0.54852(11) 0.0187(3) Uani 1 1 d . .
O2 O 0.7398(2) 1.00187(13) 0.75244(11) 0.0196(3) Uani 1 1 d . .
N2 N 0.7502(2) 0.87370(15) 0.66932(13) 0.0141(3) Uani 1 1 d . .
N3 N 0.3869(2) 0.69260(15) 0.56814(12) 0.0136(3) Uani 1 1 d . .
O1 O 0.8802(2) 0.85731(14) 0.58357(11) 0.0208(3) Uani 1 1 d . .
N4 N 0.7123(2) 0.62008(16) 0.75257(13) 0.0158(3) Uani 1 1 d . .
N1 N 0.8716(2) 0.68942(16) 0.28531(12) 0.0150(3) Uani 1 1 d . .
H1A H 1.017103 0.724228 0.342914 0.018 Uiso 1 1 calc R U
H1B H 0.807762 0.602237 0.310795 0.018 Uiso 1 1 calc R U
C1 C 0.8668(3) 0.6636(2) 0.12443(15) 0.0172(3) Uani 1 1 d . .
H1C H 0.801364 0.553971 0.070550 0.021 Uiso 1 1 calc R U
H1D H 1.020102 0.694696 0.104611 0.021 Uiso 1 1 calc R U
C4 C 0.5982(3) 0.72864(18) 0.67297(15) 0.0150(3) Uani 1 1 d . .
C2 C 0.6875(3) 0.79326(19) 0.10878(15) 0.0171(3) Uani 1 1 d . .
C3 C 0.7045(3) 0.82571(18) 0.27159(15) 0.0150(3) Uani 1 1 d . .
H3A H 0.552654 0.802581 0.296461 0.018 Uiso 1 1 calc R U
H3B H 0.780414 0.934244 0.322249 0.018 Uiso 1 1 calc R U
loop_
_atom_site_aniso_label
_atom_site_aniso_U_11
_atom_site_aniso_U_22
_atom_site_aniso_U_33
_atom_site_aniso_U_23
_atom_site_aniso_U_13
_atom_site_aniso_U_12
F1 0.0197(5) 0.0289(6) 0.0206(5) 0.0019(4) -0.0073(4) 0.0027(4)
F2 0.0309(6) 0.0245(5) 0.0257(5) 0.0155(4) 0.0076(4) 0.0049(4)
O3 0.0146(6) 0.0191(6) 0.0159(5) 0.0082(4) 0.0001(4) 0.0021(4)
O5 0.0169(6) 0.0222(6) 0.0198(5) 0.0060(5) -0.0056(5) 0.0007(5)
O6 0.0245(6) 0.0166(6) 0.0230(6) 0.0087(5) 0.0010(5) -0.0028(5)
O4 0.0166(6) 0.0185(6) 0.0190(5) 0.0054(4) 0.0003(4) -0.0057(5)
O2 0.0234(6) 0.0137(6) 0.0183(5) -0.0001(4) 0.0004(5) 0.0029(5)
N2 0.0124(6) 0.0157(7) 0.0118(6) 0.0039(5) -0.0026(5) -0.0001(5)
N3 0.0133(6) 0.0152(7) 0.0120(6) 0.0027(5) 0.0024(5) 0.0009(5)
O1 0.0188(6) 0.0264(7) 0.0175(5) 0.0035(5) 0.0066(5) -0.0024(5)
N4 0.0174(7) 0.0168(7) 0.0120(6) 0.0034(5) 0.0009(5) 0.0007(5)
N1 0.0134(6) 0.0180(7) 0.0124(6) 0.0045(5) -0.0004(5) 0.0008(5)
C1 0.0200(8) 0.0200(8) 0.0105(7) 0.0024(6) 0.0017(6) 0.0033(7)
C4 0.0144(8) 0.0146(8) 0.0145(7) 0.0041(6) -0.0004(6) 0.0003(6)
C2 0.0167(8) 0.0171(8) 0.0154(7) 0.0050(6) -0.0016(6) -0.0001(6)
C3 0.0143(7) 0.0134(8) 0.0163(7) 0.0018(6) 0.0022(6) 0.0015(6)
loop_
_atom_type_symbol
_atom_type_description
_atom_type_scat_dispersion_real
_atom_type_scat_dispersion_imag
_atom_type_scat_source
C C 0.0033 0.0016 'International Tables Vol C Tables 4.2.6.8 and 6.1.1.4'
H H 0.0000 0.0000 'International Tables Vol C Tables 4.2.6.8 and 6.1.1.4'
F F 0.0171 0.0103 'International Tables Vol C Tables 4.2.6.8 and 6.1.1.4'
N N 0.0061 0.0033 'International Tables Vol C Tables 4.2.6.8 and 6.1.1.4'
O O 0.0106 0.0060 'International Tables Vol C Tables 4.2.6.8 and 6.1.1.4'
loop_
_geom_angle_atom_site_label_1
_geom_angle_atom_site_label_2
_geom_angle_atom_site_label_3
_geom_angle
O2 N2 O1 124.98(13)
O2 N2 C4 117.75(13)
O1 N2 C4 117.27(12)
O4 N3 O3 121.81(11)
O4 N3 C4 122.66(12)
O3 N3 C4 115.53(12)
O6 N4 O5 123.04(11)
O6 N4 C4 121.12(12)
O5 N4 C4 115.84(13)
C1 N1 C3 91.11(10)
C1 N1 H1A 113.4
C3 N1 H1A 113.4
C1 N1 H1B 113.4
C3 N1 H1B 113.4
H1A N1 H1B 110.7
N1 C1 C2 88.92(11)
N1 C1 H1C 113.8
C2 C1 H1C 113.8
N1 C1 H1D 113.8
C2 C1 H1D 113.8
H1C C1 H1D 111.1
N3 C4 N4 125.78(14)
N3 C4 N2 116.23(12)
N4 C4 N2 115.22(12)
F2 C2 F1 106.17(11)
F2 C2 C3 115.63(13)
F1 C2 C3 114.68(13)
F2 C2 C1 115.76(13)
F1 C2 C1 113.71(13)
C3 C2 C1 90.78(10)
C2 C3 N1 89.02(10)
C2 C3 H3A 113.8
N1 C3 H3A 113.8
C2 C3 H3B 113.8
N1 C3 H3B 113.8
H3A C3 H3B 111.0
loop_
_geom_bond_atom_site_label_1
_geom_bond_atom_site_label_2
_geom_bond_distance
F1 C2 1.3641(18)
F2 C2 1.3446(18)
O3 N3 1.2682(15)
O5 N4 1.2436(17)
O6 N4 1.2420(17)
O4 N3 1.2458(17)
O2 N2 1.2218(16)
N2 O1 1.2234(17)
N2 C4 1.457(2)
N3 C4 1.3678(19)
N4 C4 1.3804(18)
N1 C1 1.5171(17)
N1 C3 1.5214(18)
N1 H1A 0.8900
N1 H1B 0.8900
C1 C2 1.527(2)
C1 H1C 0.9700
C1 H1D 0.9700
C2 C3 1.5201(19)
C3 H3A 0.9700
C3 H3B 0.9700
loop_
_geom_hbond_atom_site_label_D
_geom_hbond_atom_site_label_H
_geom_hbond_atom_site_label_A
_geom_hbond_distance_DH
_geom_hbond_distance_HA
_geom_hbond_distance_DA
_geom_hbond_angle_DHA
_geom_hbond_site_symmetry_A
_geom_hbond_publ_flag
N1 H1A O3 0.89 2.03 2.9150(16) 174.3 1_655 yes
N1 H1B O6 0.89 2.34 2.9301(18) 123.8 2_666 yes
N1 H1B O4 0.89 2.16 2.9985(16) 157.7 2_666 yes
C3 H3A O3 0.97 2.48 3.3335(19) 147.3 . yes
C3 H3A O6 0.97 2.45 3.0003(19) 115.4 2_666 yes
C3 H3A O2 0.97 2.42 2.9634(17) 115.2 2_676 yes
C3 H3B O1 0.97 2.42 3.320(2) 153.8 2_776 yes
loop_
_geom_torsion_atom_site_label_1
_geom_torsion_atom_site_label_2
_geom_torsion_atom_site_label_3
_geom_torsion_atom_site_label_4
_geom_torsion
C3 N1 C1 C2 -3.10(12)
O4 N3 C4 N4 11.4(2)
O3 N3 C4 N4 -168.45(13)
O4 N3 C4 N2 171.53(12)
O3 N3 C4 N2 -8.27(19)
O6 N4 C4 N3 -16.9(2)
O5 N4 C4 N3 164.03(14)
O6 N4 C4 N2 -177.26(13)
O5 N4 C4 N2 3.67(19)
O2 N2 C4 N3 98.73(15)
O1 N2 C4 N3 -81.74(16)
O2 N2 C4 N4 -98.97(15)
O1 N2 C4 N4 80.56(15)
N1 C1 C2 F2 122.23(13)
N1 C1 C2 F1 -114.42(13)
N1 C1 C2 C3 3.10(12)
F2 C2 C3 N1 -122.34(13)
F1 C2 C3 N1 113.58(13)
C1 C2 C3 N1 -3.09(12)
C1 N1 C3 C2 3.11(12)
