#------------------------------------------------------------------------------
#$Date: 2019-11-24 05:56:16 +0200 (Sun, 24 Nov 2019) $
#$Revision: 236875 $
#$URL: file:///home/coder/svn-repositories/cod/cif/7/05/91/7059131.cif $
#------------------------------------------------------------------------------
#
# This file is available in the Crystallography Open Database (COD),
# http://www.crystallography.net/
#
# All data on this site have been placed in the public domain by the
# contributors.
#
data_7059131
loop_
_publ_author_name
'Huang, Ying'
'Min, Wei'
'Wu, Qiu-Wen'
'Sun, Jing'
'Shi, Da-Hua'
'Yan, Chao-Guo'
_publ_section_title
;
 Facile one-pot synthesis of spirooxindole-pyrrolidine derivatives and
 their antimicrobial and acetylcholinesterase inhibitory activities
;
_journal_issue                   19
_journal_name_full               'New Journal of Chemistry'
_journal_page_first              16211
_journal_paper_doi               10.1039/C8NJ03813A
_journal_volume                  42
_journal_year                    2018
_chemical_formula_moiety         'C16 H16 N4 O'
_chemical_formula_sum            'C16 H16 N4 O'
_chemical_formula_weight         280.33
_space_group_crystal_system      triclinic
_space_group_IT_number           2
_space_group_name_Hall           '-P 1'
_space_group_name_H-M_alt        'P -1'
_atom_sites_solution_hydrogens   geom
_audit_creation_method           SHELXL-2014/7
_audit_update_record
;
2018-08-25 deposited with the CCDC.
2018-08-29 downloaded from the CCDC.
;
_cell_angle_alpha                73.180(3)
_cell_angle_beta                 70.237(3)
_cell_angle_gamma                72.218(3)
_cell_formula_units_Z            2
_cell_length_a                   7.8537(7)
_cell_length_b                   10.0186(8)
_cell_length_c                   10.4353(9)
_cell_measurement_reflns_used    5425
_cell_measurement_temperature    296(2)
_cell_measurement_theta_max      27.46
_cell_measurement_theta_min      2.18
_cell_volume                     719.76(11)
_computing_cell_refinement       'Bruker SAINT'
_computing_data_collection       'Bruker APEX2'
_computing_data_reduction        'Bruker SAINT'
_computing_molecular_graphics    'Bruker SHELXTL'
_computing_publication_material  'Bruker SHELXTL'
_computing_structure_refinement  'SHELXL-2014/7 (Sheldrick, 2014)'
_computing_structure_solution    'SHELXS-97 (Sheldrick 2008)'
_diffrn_ambient_temperature      296(2)
_diffrn_measured_fraction_theta_full 0.983
_diffrn_measured_fraction_theta_max 0.984
_diffrn_measurement_device_type  'CCD area detector'
_diffrn_measurement_method       'phi and omega scans'
_diffrn_radiation_source         'fine-focus sealed tube'
_diffrn_radiation_type           MoK\a
_diffrn_radiation_wavelength     0.71073
_diffrn_reflns_av_R_equivalents  0.0280
_diffrn_reflns_av_unetI/netI     0.0311
_diffrn_reflns_Laue_measured_fraction_full 0.983
_diffrn_reflns_Laue_measured_fraction_max 0.984
_diffrn_reflns_limit_h_max       10
_diffrn_reflns_limit_h_min       -10
_diffrn_reflns_limit_k_max       12
_diffrn_reflns_limit_k_min       -12
_diffrn_reflns_limit_l_max       13
_diffrn_reflns_limit_l_min       -13
_diffrn_reflns_number            10797
_diffrn_reflns_point_group_measured_fraction_full 0.983
_diffrn_reflns_point_group_measured_fraction_max 0.984
_diffrn_reflns_theta_full        25.242
_diffrn_reflns_theta_max         27.533
_diffrn_reflns_theta_min         2.120
_exptl_absorpt_coefficient_mu    0.085
_exptl_absorpt_correction_T_max  0.983
_exptl_absorpt_correction_T_min  0.976
_exptl_absorpt_correction_type   multi-scan
_exptl_absorpt_process_details   sadabs
_exptl_crystal_colour            colorless
_exptl_crystal_density_diffrn    1.293
_exptl_crystal_description       block
_exptl_crystal_F_000             296
_exptl_crystal_size_max          0.320
_exptl_crystal_size_mid          0.240
_exptl_crystal_size_min          0.200
_refine_diff_density_max         0.231
_refine_diff_density_min         -0.169
_refine_diff_density_rms         0.034
_refine_ls_extinction_method     none
_refine_ls_goodness_of_fit_ref   1.043
_refine_ls_hydrogen_treatment    constr
_refine_ls_matrix_type           full
_refine_ls_number_parameters     193
_refine_ls_number_reflns         3261
_refine_ls_number_restraints     0
_refine_ls_restrained_S_all      1.043
_refine_ls_R_factor_all          0.0646
_refine_ls_R_factor_gt           0.0468
_refine_ls_shift/su_max          0.000
_refine_ls_shift/su_mean         0.000
_refine_ls_structure_factor_coef Fsqd
_refine_ls_weighting_details
'w=1/[\s^2^(Fo^2^)+(0.0645P)^2^+0.1169P] where P=(Fo^2^+2Fc^2^)/3'
_refine_ls_weighting_scheme      calc
_refine_ls_wR_factor_gt          0.1176
_refine_ls_wR_factor_ref         0.1270
_reflns_Friedel_coverage         0.000
_reflns_number_gt                2507
_reflns_number_total             3261
_reflns_threshold_expression     'I > 2\s(I)'
_cod_data_source_file            c8nj03813a2.cif
_cod_data_source_block           4i
_cod_database_code               7059131
_shelx_shelxl_version_number     2014/7
_shelx_space_group_comment
; 
The symmetry employed for this shelxl refinement is uniquely defined 
by the following loop, which should always be used as a source of 
symmetry information in preference to the above space-group names. 
They are only intended as comments. 
;
_shelx_estimated_absorpt_t_min   0.973
_shelx_estimated_absorpt_t_max   0.983
_shelx_res_file
; 
  
    HY161104.res created by SHELXL-2014/7 
  
  
TITL HY161104 in P-1 
CELL 0.71073   7.85370  10.01860  10.43530  73.1801  70.2374  72.2179 
ZERR   2  0.00070   0.00080   0.00090   0.0026   0.0026   0.0027 
LATT 1 
SFAC C  H  N  O 
UNIT 32  32   8   2 
L.S. 10 
ACTA 
BOND  $h 
size  0.32 0.24   0.20 
FMAP 2 
PLAN 20 
TEMP 23 
WGHT    0.064500    0.116900 
FVAR       0.72534 
MOLE 1 
C1    1    0.570408    0.178134    0.432590    11.00000    0.04925    0.05621 = 
         0.04766   -0.02361   -0.00202   -0.01143 
AFIX 137 
H1A   2    0.657395    0.095187    0.465446    11.00000   -1.50000 
H1B   2    0.636839    0.244429    0.362389    11.00000   -1.50000 
H1C   2    0.495464    0.149742    0.393772    11.00000   -1.50000 
AFIX   0 
C2    1    0.328768    0.382654    0.533634    11.00000    0.03651    0.03809 = 
         0.03460   -0.00620   -0.00895   -0.01401 
C3    1    0.295783    0.474097    0.413351    11.00000    0.05045    0.05381 = 
         0.03092   -0.00522   -0.00907   -0.02181 
AFIX  43 
H3    2    0.349353    0.447111    0.327708    11.00000   -1.20000 
AFIX   0 
C4    1    0.179601    0.607968    0.424882    11.00000    0.04962    0.04758 = 
         0.03969    0.00749   -0.01860   -0.01884 
AFIX  43 
H4    2    0.155661    0.671524    0.344762    11.00000   -1.20000 
AFIX   0 
C5    1    0.097576    0.650984    0.551129    11.00000    0.04034    0.03777 = 
         0.05012    0.00010   -0.01502   -0.01343 
C6    1   -0.022493    0.800168    0.555386    11.00000    0.05806    0.04171 = 
         0.07263    0.00043   -0.02086   -0.00499 
AFIX 137 
H6A   2   -0.145424    0.802456    0.555017    11.00000   -1.50000 
H6B   2    0.030080    0.866405    0.475370    11.00000   -1.50000 
H6C   2   -0.028567    0.826607    0.638483    11.00000   -1.50000 
AFIX   0 
C7    1    0.130053    0.554599    0.671594    11.00000    0.04350    0.03641 = 
         0.03956   -0.00654   -0.00972   -0.01115 
AFIX  43 
H7    2    0.074835    0.580670    0.757590    11.00000   -1.20000 
AFIX   0 
C8    1    0.244657    0.420122    0.662713    11.00000    0.03810    0.03480 = 
         0.03214   -0.00376   -0.00926   -0.01250 
C9    1    0.314691    0.299533    0.770834    11.00000    0.03756    0.03616 = 
         0.03187   -0.00333   -0.00858   -0.01084 
C10   1    0.460600    0.194673    0.681190    11.00000    0.03622    0.04022 = 
         0.04175   -0.00652   -0.00702   -0.00852 
C11   1    0.167051    0.214056    0.881644    11.00000    0.03752    0.03372 = 
         0.03543   -0.00524   -0.00762   -0.00991 
C12   1    0.142438    0.099486    0.831847    11.00000    0.04531    0.04431 = 
         0.04400   -0.00843   -0.00861   -0.01517 
C13   1   -0.017564    0.309568    0.921557    11.00000    0.04230    0.04053 = 
         0.04964   -0.00631   -0.00638   -0.01281 
C14   1    0.398024    0.338326    0.866231    11.00000    0.04982    0.05071 = 
         0.03553   -0.00069   -0.01370   -0.02210 
AFIX  23 
H14A  2    0.530465    0.296025    0.847456    11.00000   -1.20000 
H14B  2    0.378945    0.441450    0.850589    11.00000   -1.20000 
AFIX   0 
C15   1    0.250686    0.156446    1.006132    11.00000    0.04793    0.04187 = 
         0.03685    0.00032   -0.01201   -0.01393 
AFIX  23 
H15A  2    0.159587    0.126818    1.091639    11.00000   -1.20000 
H15B  2    0.357787    0.077054    0.990292    11.00000   -1.20000 
AFIX   0 
C16   1    0.410737    0.258715    1.104473    11.00000    0.08032    0.07915 = 
         0.04314   -0.00130   -0.02846   -0.03281 
AFIX 137 
H16A  2    0.343055    0.220627    1.196828    11.00000   -1.50000 
H16B  2    0.433530    0.348143    1.102758    11.00000   -1.50000 
H16C  2    0.527114    0.192153    1.077523    11.00000   -1.50000 
AFIX   0 
N1    3    0.451491    0.246392    0.548002    11.00000    0.04025    0.04096 = 
         0.03578   -0.01113   -0.00580   -0.00841 
N2    3    0.121625    0.010901    0.795105    11.00000    0.07526    0.06882 = 
         0.07133   -0.02804   -0.00841   -0.03171 
N3    3   -0.163537    0.378556    0.953354    11.00000    0.04590    0.05795 = 
         0.10291   -0.01662   -0.00177   -0.00688 
N4    3    0.302818    0.281693    1.008326    11.00000    0.05217    0.04923 = 
         0.03465   -0.00432   -0.01339   -0.01843 
O1    4    0.563325    0.084662    0.723695    11.00000    0.05333    0.05087 = 
         0.05731   -0.00457   -0.01313    0.00669 
HKLF 4 
  
REM  HY161104 in P-1 
REM R1 =  0.0468 for    2507 Fo > 4sig(Fo)  and  0.0646 for all    3261 data 
REM    193 parameters refined using      0 restraints 
  
END 
  
WGHT      0.0643      0.1183 
  
REM Highest difference peak  0.231,  deepest hole -0.169,  1-sigma level  0.034 
Q1    1   0.2409  0.2610  0.8209  11.00000  0.05    0.23 
Q2    1   0.4090  0.1981  0.9791  11.00000  0.05    0.23 
Q3    1   0.3782  0.2442  0.7397  11.00000  0.05    0.21 
Q4    1   0.2570  0.3609  0.7269  11.00000  0.05    0.19 
Q5    1   0.2473  0.3935  0.6027  11.00000  0.05    0.16 
Q6    1   0.3826  0.3139  0.5378  11.00000  0.05    0.16 
Q7    1   0.1562  0.6225  0.6070  11.00000  0.05    0.15 
Q8    1   0.3530  0.3242  0.8181  11.00000  0.05    0.14 
Q9    1  -0.1284  0.8012  0.6309  11.00000  0.05    0.14 
Q10   1   0.0794  0.2543  0.9134  11.00000  0.05    0.14 
Q11   1   0.7092  0.1543  0.4363  11.00000  0.05    0.13 
Q12   1   0.0331  0.7126  0.5609  11.00000  0.05    0.12 
Q13   1   0.2500  0.4001  0.4924  11.00000  0.05    0.12 
Q14   1   0.1690  0.4563  0.6784  11.00000  0.05    0.12 
Q15   1   0.3637  0.4473  0.4670  11.00000  0.05    0.12 
Q16   1   0.1650  0.1629  0.8594  11.00000  0.05    0.12 
Q17   1   0.4944  0.2427  0.5983  11.00000  0.05    0.11 
Q18   1   0.2151  0.4771  0.6690  11.00000  0.05    0.11 
Q19   1   0.5589  0.2074  0.8479  11.00000  0.05    0.11 
Q20   1   0.1048  0.6175  0.5041  11.00000  0.05    0.11 
;
_shelx_res_checksum              12583
loop_
_space_group_symop_operation_xyz
'x, y, z'
'-x, -y, -z'
loop_
_atom_site_label
_atom_site_type_symbol
_atom_site_fract_x
_atom_site_fract_y
_atom_site_fract_z
_atom_site_U_iso_or_equiv
_atom_site_adp_type
_atom_site_occupancy
_atom_site_site_symmetry_order
_atom_site_calc_flag
_atom_site_refinement_flags_posn
_atom_site_refinement_flags_adp
C1 C 0.5704(2) 0.17813(18) 0.43259(16) 0.0513(4) Uani 1 1 d . .
H1A H 0.6574 0.0952 0.4654 0.077 Uiso 1 1 calc R U
H1B H 0.6368 0.2444 0.3624 0.077 Uiso 1 1 calc R U
H1C H 0.4955 0.1497 0.3938 0.077 Uiso 1 1 calc R U
C2 C 0.32877(17) 0.38265(14) 0.53363(13) 0.0356(3) Uani 1 1 d . .
C3 C 0.2958(2) 0.47410(16) 0.41335(14) 0.0441(3) Uani 1 1 d . .
H3 H 0.3494 0.4471 0.3277 0.053 Uiso 1 1 calc R U
C4 C 0.1796(2) 0.60797(16) 0.42488(15) 0.0458(4) Uani 1 1 d . .
H4 H 0.1557 0.6715 0.3448 0.055 Uiso 1 1 calc R U
C5 C 0.09758(19) 0.65098(15) 0.55113(15) 0.0431(3) Uani 1 1 d . .
C6 C -0.0225(2) 0.80017(17) 0.5554(2) 0.0610(5) Uani 1 1 d . .
H6A H -0.1454 0.8025 0.5550 0.091 Uiso 1 1 calc R U
H6B H 0.0301 0.8664 0.4754 0.091 Uiso 1 1 calc R U
H6C H -0.0286 0.8266 0.6385 0.091 Uiso 1 1 calc R U
C7 C 0.13005(19) 0.55460(15) 0.67159(14) 0.0401(3) Uani 1 1 d . .
H7 H 0.0748 0.5807 0.7576 0.048 Uiso 1 1 calc R U
C8 C 0.24466(17) 0.42012(14) 0.66271(13) 0.0348(3) Uani 1 1 d . .
C9 C 0.31469(17) 0.29953(14) 0.77083(13) 0.0357(3) Uani 1 1 d . .
C10 C 0.46060(18) 0.19467(15) 0.68119(14) 0.0409(3) Uani 1 1 d . .
C11 C 0.16705(18) 0.21406(14) 0.88164(13) 0.0362(3) Uani 1 1 d . .
C12 C 0.1424(2) 0.09949(16) 0.83185(15) 0.0445(3) Uani 1 1 d . .
C13 C -0.0176(2) 0.30957(16) 0.92156(15) 0.0457(4) Uani 1 1 d . .
C14 C 0.3980(2) 0.33833(17) 0.86623(14) 0.0442(3) Uani 1 1 d . .
H14A H 0.5305 0.2960 0.8475 0.053 Uiso 1 1 calc R U
H14B H 0.3789 0.4414 0.8506 0.053 Uiso 1 1 calc R U
C15 C 0.2507(2) 0.15645(15) 1.00613(14) 0.0432(3) Uani 1 1 d . .
H15A H 0.1596 0.1268 1.0916 0.052 Uiso 1 1 calc R U
H15B H 0.3578 0.0771 0.9903 0.052 Uiso 1 1 calc R U
C16 C 0.4107(3) 0.2587(2) 1.10447(17) 0.0636(5) Uani 1 1 d . .
H16A H 0.3431 0.2206 1.1968 0.095 Uiso 1 1 calc R U
H16B H 0.4335 0.3481 1.1028 0.095 Uiso 1 1 calc R U
H16C H 0.5271 0.1922 1.0775 0.095 Uiso 1 1 calc R U
N1 N 0.45149(15) 0.24639(12) 0.54800(11) 0.0397(3) Uani 1 1 d . .
N2 N 0.1216(2) 0.01090(17) 0.79510(16) 0.0683(4) Uani 1 1 d . .
N3 N -0.1635(2) 0.37856(17) 0.95335(19) 0.0751(5) Uani 1 1 d . .
N4 N 0.30282(17) 0.28169(13) 1.00833(12) 0.0443(3) Uani 1 1 d . .
O1 O 0.56332(15) 0.08466(12) 0.72370(12) 0.0603(3) Uani 1 1 d . .
loop_
_atom_site_aniso_label
_atom_site_aniso_U_11
_atom_site_aniso_U_22
_atom_site_aniso_U_33
_atom_site_aniso_U_23
_atom_site_aniso_U_13
_atom_site_aniso_U_12
C1 0.0492(8) 0.0562(10) 0.0477(9) -0.0236(7) -0.0020(7) -0.0114(7)
C2 0.0365(6) 0.0381(7) 0.0346(7) -0.0062(5) -0.0089(5) -0.0140(6)
C3 0.0505(8) 0.0538(9) 0.0309(7) -0.0052(6) -0.0091(6) -0.0218(7)
C4 0.0496(8) 0.0476(9) 0.0397(8) 0.0075(6) -0.0186(6) -0.0188(7)
C5 0.0403(7) 0.0378(8) 0.0501(8) 0.0001(6) -0.0150(6) -0.0134(6)
C6 0.0581(10) 0.0417(9) 0.0726(11) 0.0004(8) -0.0209(8) -0.0050(7)
C7 0.0435(7) 0.0364(7) 0.0396(7) -0.0065(6) -0.0097(6) -0.0111(6)
C8 0.0381(7) 0.0348(7) 0.0321(6) -0.0038(5) -0.0093(5) -0.0125(5)
C9 0.0376(7) 0.0362(7) 0.0319(7) -0.0033(5) -0.0086(5) -0.0108(5)
C10 0.0362(7) 0.0402(8) 0.0418(8) -0.0065(6) -0.0070(6) -0.0085(6)
C11 0.0375(7) 0.0337(7) 0.0354(7) -0.0052(5) -0.0076(5) -0.0099(5)
C12 0.0453(8) 0.0443(8) 0.0440(8) -0.0084(6) -0.0086(6) -0.0152(6)
C13 0.0423(8) 0.0405(8) 0.0496(8) -0.0063(6) -0.0064(6) -0.0128(6)
C14 0.0498(8) 0.0507(9) 0.0355(7) -0.0007(6) -0.0137(6) -0.0221(7)
C15 0.0479(8) 0.0419(8) 0.0369(7) 0.0003(6) -0.0120(6) -0.0139(6)
C16 0.0803(12) 0.0792(12) 0.0431(9) -0.0013(8) -0.0285(8) -0.0328(10)
N1 0.0403(6) 0.0410(7) 0.0358(6) -0.0111(5) -0.0058(5) -0.0084(5)
N2 0.0753(10) 0.0688(10) 0.0713(10) -0.0280(8) -0.0084(8) -0.0317(8)
N3 0.0459(8) 0.0579(9) 0.1029(13) -0.0166(9) -0.0018(8) -0.0069(7)
N4 0.0522(7) 0.0492(7) 0.0346(6) -0.0043(5) -0.0134(5) -0.0184(6)
O1 0.0533(6) 0.0509(7) 0.0573(7) -0.0046(5) -0.0131(5) 0.0067(5)
loop_
_atom_type_symbol
_atom_type_description
_atom_type_scat_dispersion_real
_atom_type_scat_dispersion_imag
_atom_type_scat_source
C C 0.0033 0.0016 'International Tables Vol C Tables 4.2.6.8 and 6.1.1.4'
H H 0.0000 0.0000 'International Tables Vol C Tables 4.2.6.8 and 6.1.1.4'
N N 0.0061 0.0033 'International Tables Vol C Tables 4.2.6.8 and 6.1.1.4'
O O 0.0106 0.0060 'International Tables Vol C Tables 4.2.6.8 and 6.1.1.4'
loop_
_geom_angle_atom_site_label_1
_geom_angle_atom_site_label_2
_geom_angle_atom_site_label_3
_geom_angle
N1 C1 H1A 109.5
N1 C1 H1B 109.5
H1A C1 H1B 109.5
N1 C1 H1C 109.5
H1A C1 H1C 109.5
H1B C1 H1C 109.5
C3 C2 C8 121.80(13)
C3 C2 N1 128.11(12)
C8 C2 N1 110.03(11)
C2 C3 C4 117.32(13)
C2 C3 H3 121.3
C4 C3 H3 121.3
C3 C4 C5 122.59(13)
C3 C4 H4 118.7
C5 C4 H4 118.7
C4 C5 C7 118.70(14)
C4 C5 C6 119.76(14)
C7 C5 C6 121.54(14)
C5 C6 H6A 109.5
C5 C6 H6B 109.5
H6A C6 H6B 109.5
C5 C6 H6C 109.5
H6A C6 H6C 109.5
H6B C6 H6C 109.5
C8 C7 C5 119.71(13)
C8 C7 H7 120.1
C5 C7 H7 120.1
C7 C8 C2 119.82(12)
C7 C8 C9 131.58(12)
C2 C8 C9 108.41(11)
C8 C9 C14 116.89(11)
C8 C9 C10 102.19(10)
C14 C9 C10 111.88(11)
C8 C9 C11 116.63(10)
C14 C9 C11 101.71(10)
C10 C9 C11 107.52(10)
O1 C10 N1 126.26(13)
O1 C10 C9 125.84(13)
N1 C10 C9 107.89(11)
C13 C11 C12 107.08(12)
C13 C11 C15 109.90(12)
C12 C11 C15 112.86(12)
C13 C11 C9 111.78(11)
C12 C11 C9 113.47(11)
C15 C11 C9 101.77(10)
N2 C12 C11 179.07(16)
N3 C13 C11 177.05(16)
N4 C14 C9 106.69(11)
N4 C14 H14A 110.4
C9 C14 H14A 110.4
N4 C14 H14B 110.4
C9 C14 H14B 110.4
H14A C14 H14B 108.6
N4 C15 C11 100.57(11)
N4 C15 H15A 111.7
C11 C15 H15A 111.7
N4 C15 H15B 111.7
C11 C15 H15B 111.7
H15A C15 H15B 109.4
N4 C16 H16A 109.5
N4 C16 H16B 109.5
H16A C16 H16B 109.5
N4 C16 H16C 109.5
H16A C16 H16C 109.5
H16B C16 H16C 109.5
C10 N1 C2 111.09(11)
C10 N1 C1 123.96(12)
C2 N1 C1 124.53(12)
C15 N4 C16 115.07(12)
C15 N4 C14 106.89(11)
C16 N4 C14 112.32(12)
loop_
_geom_bond_atom_site_label_1
_geom_bond_atom_site_label_2
_geom_bond_distance
C1 N1 1.4547(17)
C1 H1A 0.9600
C1 H1B 0.9600
C1 H1C 0.9600
C2 C3 1.3753(19)
C2 C8 1.3896(18)
C2 N1 1.4109(17)
C3 C4 1.385(2)
C3 H3 0.9300
C4 C5 1.386(2)
C4 H4 0.9300
C5 C7 1.393(2)
C5 C6 1.508(2)
C6 H6A 0.9600
C6 H6B 0.9600
C6 H6C 0.9600
C7 C8 1.3817(19)
C7 H7 0.9300
C8 C9 1.5033(18)
C9 C14 1.5461(18)
C9 C10 1.5493(19)
C9 C11 1.5943(17)
C10 O1 1.2159(17)
C10 N1 1.3539(18)
C11 C13 1.472(2)
C11 C12 1.474(2)
C11 C15 1.5374(19)
C12 N2 1.135(2)
C13 N3 1.1374(19)
C14 N4 1.4499(17)
C14 H14A 0.9700
C14 H14B 0.9700
C15 N4 1.4420(19)
C15 H15A 0.9700
C15 H15B 0.9700
C16 N4 1.449(2)
C16 H16A 0.9600
C16 H16B 0.9600
C16 H16C 0.9600
