#------------------------------------------------------------------------------
#$Date: 2019-11-24 00:13:33 +0200 (Sun, 24 Nov 2019) $
#$Revision: 235714 $
#$URL: file:///home/coder/svn-repositories/cod/cif/7/05/91/7059116.cif $
#------------------------------------------------------------------------------
#
# This file is available in the Crystallography Open Database (COD),
# http://www.crystallography.net/
#
# All data on this site have been placed in the public domain by the
# contributors.
#
data_7059116
loop_
_publ_author_name
'Huang, Haifeng'
'Li, Ying'
'Yang, Jun'
'Pan, Renming'
'Lin, Xiangyang'
_publ_section_title
;
 Materials with good energetic properties resulting from the smart
 combination of nitramino and dinitromethyl group with furazan
;
_journal_issue                   15
_journal_name_full               'New Journal of Chemistry'
_journal_page_first              7697
_journal_paper_doi               10.1039/C7NJ01417A
_journal_volume                  41
_journal_year                    2017
_chemical_formula_sum            'C3 H8 N8 O7'
_chemical_formula_weight         268.17
_space_group_crystal_system      triclinic
_space_group_IT_number           2
_space_group_name_Hall           '-P 1'
_space_group_name_H-M_alt        'P -1'
_atom_sites_solution_hydrogens   difmap
_audit_creation_method           SHELXL-2013
_audit_update_record
;
2017-02-15 deposited with the CCDC.
2017-06-20 downloaded from the CCDC.
;
_cell_angle_alpha                105.941(6)
_cell_angle_beta                 91.695(6)
_cell_angle_gamma                114.650(5)
_cell_formula_units_Z            2
_cell_length_a                   7.588(2)
_cell_length_b                   7.666(2)
_cell_length_c                   10.104(3)
_cell_measurement_reflns_used    746
_cell_measurement_temperature    293(2)
_cell_measurement_theta_max      50.089
_cell_measurement_theta_min      5.990
_cell_volume                     506.6(2)
_computing_cell_refinement       'Bruker SMART'
_computing_data_collection       'Bruker SMART'
_computing_data_reduction        'Bruker SHELXTL'
_computing_molecular_graphics    'Bruker SHELXTL'
_computing_publication_material  'Bruker SHELXTL'
_computing_structure_refinement  'SHELXL-2013 (Sheldrick, 2013)'
_computing_structure_solution    'Bruker SHELXTL'
_diffrn_ambient_temperature      293(2)
_diffrn_measured_fraction_theta_full 0.998
_diffrn_measured_fraction_theta_max 0.998
_diffrn_measurement_device_type  'CCD area detector'
_diffrn_measurement_method       'phi and omega scans'
_diffrn_radiation_type           MoK\a
_diffrn_radiation_wavelength     0.71073
_diffrn_reflns_av_R_equivalents  0.0256
_diffrn_reflns_av_unetI/netI     0.0505
_diffrn_reflns_Laue_measured_fraction_full 0.998
_diffrn_reflns_Laue_measured_fraction_max 0.998
_diffrn_reflns_limit_h_max       9
_diffrn_reflns_limit_h_min       -9
_diffrn_reflns_limit_k_max       9
_diffrn_reflns_limit_k_min       -9
_diffrn_reflns_limit_l_max       12
_diffrn_reflns_limit_l_min       -7
_diffrn_reflns_number            2910
_diffrn_reflns_point_group_measured_fraction_full 0.998
_diffrn_reflns_point_group_measured_fraction_max 0.998
_diffrn_reflns_theta_full        25.242
_diffrn_reflns_theta_max         25.490
_diffrn_reflns_theta_min         2.125
_exptl_absorpt_coefficient_mu    0.167
_exptl_absorpt_correction_T_max  0.7456
_exptl_absorpt_correction_T_min  0.5498
_exptl_absorpt_correction_type   multi-scan
_exptl_absorpt_process_details   sadabs
_exptl_crystal_colour            yellow
_exptl_crystal_density_diffrn    1.758
_exptl_crystal_description       prismatic
_exptl_crystal_F_000             276
_exptl_crystal_size_max          0.220
_exptl_crystal_size_mid          0.150
_exptl_crystal_size_min          0.070
_refine_diff_density_max         0.226
_refine_diff_density_min         -0.200
_refine_diff_density_rms         0.055
_refine_ls_extinction_method     none
_refine_ls_goodness_of_fit_ref   1.074
_refine_ls_hydrogen_treatment    refall
_refine_ls_matrix_type           full
_refine_ls_number_parameters     195
_refine_ls_number_reflns         1882
_refine_ls_number_restraints     0
_refine_ls_restrained_S_all      1.074
_refine_ls_R_factor_all          0.0653
_refine_ls_R_factor_gt           0.0493
_refine_ls_shift/su_max          0.000
_refine_ls_shift/su_mean         0.000
_refine_ls_structure_factor_coef Fsqd
_refine_ls_weighting_details
'w=1/[\s^2^(Fo^2^)+(0.0555P)^2^+0.0980P] where P=(Fo^2^+2Fc^2^)/3'
_refine_ls_weighting_scheme      calc
_refine_ls_wR_factor_gt          0.1154
_refine_ls_wR_factor_ref         0.1246
_reflns_Friedel_coverage         0.000
_reflns_number_gt                1455
_reflns_number_total             1882
_reflns_threshold_expression     'I > 2\s(I)'
_cod_data_source_file            c7nj01417a2.cif
_cod_data_source_block           cd16390
_cod_original_cell_volume        506.6(3)
_cod_database_code               7059116
_shelx_space_group_comment
; 
The symmetry employed for this shelxl refinement is uniquely defined 
by the following loop, which should always be used as a source of 
symmetry information in preference to the above space-group names. 
They are only intended as comments. 
;
_shelx_estimated_absorpt_t_min   0.964
_shelx_estimated_absorpt_t_max   0.988
_shelxl_version_number           2013-4
_shelx_res_file
; 
TITL cd16390 in P-1 
CELL 0.71073   7.5876   7.6660  10.1037 105.941  91.695 114.650 
ZERR    2.00   0.0023   0.0023   0.0030   0.006   0.006   0.005 
LATT 1 
SFAC C  H  N  O 
UNIT 6 16 16 14 
OMIT  -3.00  51.00 
L.S. 10 
ACTA 
BOND  $H 
FMAP 2 
PLAN 20 
HTAB N8 O7_$7 
HTAB N8 O5_$8 
EQIV $8 -x+1, -y+2, -z+1 
HTAB N8 N2_$7 
EQIV $7 x, y+1, z 
HTAB N8 O4 
HTAB N8 N1_$6 
EQIV $6 -x+1, -y+1, -z 
HTAB N8 O7_$5 
HTAB N8 O6_$5 
EQIV $5 -x+1, -y+1, -z+1 
HTAB N8 O3_$4 
HTAB N8 N3_$4 
EQIV $4 x-1, y, z 
HTAB N7 O7 
HTAB N7 O3_$3 
HTAB N7 N4_$3 
HTAB N7 N3_$3 
EQIV $3 x, y-1, z 
HTAB N7 O3_$2 
HTAB N7 O2_$2 
HTAB N7 N4_$2 
EQIV $2 -x+2, -y+1, -z 
HTAB N7 O6_$1 
HTAB N7 O5_$1 
EQIV $1 -x+2, -y+1, -z+1 
conf 
htab 
mpla c1 c2 n1 n2 o1 
size 0.22 0.15 0.07 
wpdb -1 
WGHT    0.055500    0.098000 
FVAR       0.37716 
MOLE 1 
N1    3    0.555717    0.302948   -0.009318    11.00000    0.03348    0.02939 = 
         0.03241    0.00883    0.00245    0.00552 
N2    3    0.428896    0.221191    0.181269    11.00000    0.04306    0.03116 = 
         0.03232    0.00920    0.00414    0.00315 
N3    3    0.842265    0.618214    0.127126    11.00000    0.03105    0.03183 = 
         0.02560    0.00789    0.00231    0.00563 
N4    3    0.905308    0.658298    0.014238    11.00000    0.03416    0.02712 = 
         0.02915    0.00858    0.00747    0.01489 
N5    3    0.704411    0.704416    0.421443    11.00000    0.04014    0.02868 = 
         0.03040    0.00778    0.00651    0.01607 
N6    3    0.723087    0.412602    0.457939    11.00000    0.03797    0.02485 = 
         0.03015    0.00892    0.00897    0.01060 
N7    3    0.932413    0.096808    0.223817    11.00000    0.05439    0.03664 = 
         0.03188    0.00801    0.00172    0.01640 
N8    3    0.292232    0.839221    0.291543    11.00000    0.04895    0.03063 = 
         0.03898    0.00787   -0.00056    0.01771 
O1    4    0.404319    0.162512    0.037375    11.00000    0.04068    0.03022 = 
         0.03308    0.00550   -0.00180   -0.00147 
O2    4    0.821749    0.555130   -0.106672    11.00000    0.05867    0.03293 = 
         0.02279    0.00159    0.00590    0.00712 
O3    4    1.064912    0.820757    0.037516    11.00000    0.03188    0.03419 = 
         0.04027    0.01256    0.00342    0.00191 
O4    4    0.635628    0.764298    0.339207    11.00000    0.05366    0.03708 = 
         0.04924    0.01751    0.00269    0.02581 
O5    4    0.794714    0.818594    0.539064    11.00000    0.10327    0.03692 = 
         0.03800   -0.00445   -0.01338    0.03514 
O6    4    0.802568    0.503212    0.582316    11.00000    0.08297    0.03450 = 
         0.02666    0.00579   -0.00837    0.01843 
O7    4    0.681531    0.226247    0.406459    11.00000    0.05668    0.02384 = 
         0.04319    0.00875    0.00438    0.01748 
C1    1    0.668777    0.443543    0.106137    11.00000    0.03009    0.02544 = 
         0.02299    0.00573    0.00068    0.01096 
C2    1    0.589118    0.391023    0.224746    11.00000    0.03113    0.02294 = 
         0.03033    0.00765    0.00385    0.00966 
C3    1    0.673543    0.502113    0.372262    11.00000    0.03499    0.02338 = 
         0.02499    0.00852    0.00672    0.01095 
H1    2    1.035291    0.185095    0.283644    11.00000    0.10340 
H2    2    0.916689    0.135822    0.142800    11.00000    0.06499 
H3    2    0.918230   -0.021799    0.210891    11.00000    0.13211 
H4    2    0.830900    0.093350    0.265551    11.00000    0.12400 
H5    2    0.181921    0.813592    0.247482    11.00000    0.14942 
H6    2    0.276249    0.778814    0.353660    11.00000    0.11866 
H7    2    0.363969    0.807483    0.246028    11.00000    0.13918 
H8    2    0.354082    0.973209    0.337668    11.00000    0.11636 
HKLF 4 
  
REM  cd16390 in P-1 
REM R1 =  0.0493 for    1455 Fo > 4sig(Fo)  and  0.0653 for all    1882 data 
REM    195 parameters refined using      0 restraints 
  
END 
  
WGHT      0.0548      0.1023 
  
REM Instructions for potential hydrogen bonds 
HTAB N7 O5_$1 
HTAB N7 O6_$1 
HTAB N7 N4_$2 
HTAB N7 O2_$2 
HTAB N7 O3_$2 
HTAB N7 N3_$3 
HTAB N7 N4_$3 
HTAB N7 O3_$3 
HTAB N7 O7 
HTAB N8 N3_$4 
HTAB N8 O3_$4 
HTAB N8 O6_$5 
HTAB N8 O7_$5 
HTAB N8 N1_$6 
HTAB N8 O4 
HTAB N8 N2_$7 
HTAB N8 O5_$8 
HTAB N8 O7_$7 
  
REM Highest difference peak  0.226,  deepest hole -0.200,  1-sigma level  0.055 
Q1    1   0.8646  0.7919  0.4777  11.00000  0.05    0.23 
Q2    1   0.5583  0.2820  0.2154  11.00000  0.05    0.23 
Q3    1   0.8940  0.6783  0.2038  11.00000  0.05    0.22 
Q4    1   0.6023  0.4242  0.0329  11.00000  0.05    0.22 
Q5    1   0.8450  0.4718  0.5270  11.00000  0.05    0.21 
Q6    1   0.7577  0.5113  0.1123  11.00000  0.05    0.21 
Q7    1   0.6271  0.4349  0.1735  11.00000  0.05    0.21 
Q8    1   0.5876  0.4364  0.2998  11.00000  0.05    0.20 
Q9    1   0.9140  0.5649 -0.0655  11.00000  0.05    0.20 
Q10   1   0.6920  0.1414  0.4530  11.00000  0.05    0.19 
Q11   1   0.8760  0.6043  0.0789  11.00000  0.05    0.18 
Q12   1   0.8522  0.5450 -0.1842  11.00000  0.05    0.18 
Q13   1   0.8661  0.6360  0.5748  11.00000  0.05    0.18 
Q14   1   0.4696  0.2877  0.0152  11.00000  0.05    0.17 
Q15   1   0.8267  0.6339 -0.0850  11.00000  0.05    0.17 
Q16   1   0.8072  0.9339  0.5255  11.00000  0.05    0.17 
Q17   1   1.1365  0.8598  0.1348  11.00000  0.05    0.16 
Q18   1   0.7093  0.5465  0.5628  11.00000  0.05    0.16 
Q19   1   1.1725  0.7522  0.0629  11.00000  0.05    0.16 
Q20   1   0.8269  0.6904  0.0860  11.00000  0.05    0.16 
;
_shelx_res_checksum              15160
loop_
_space_group_symop_operation_xyz
'x, y, z'
'-x, -y, -z'
loop_
_atom_site_label
_atom_site_type_symbol
_atom_site_fract_x
_atom_site_fract_y
_atom_site_fract_z
_atom_site_U_iso_or_equiv
_atom_site_adp_type
_atom_site_occupancy
_atom_site_site_symmetry_order
_atom_site_calc_flag
N1 N 0.5557(3) 0.3029(3) -0.0093(2) 0.0351(5) Uani 1 1 d
N2 N 0.4289(3) 0.2212(3) 0.1813(2) 0.0405(6) Uani 1 1 d
N3 N 0.8423(3) 0.6182(3) 0.1271(2) 0.0328(5) Uani 1 1 d
N4 N 0.9053(3) 0.6583(3) 0.0142(2) 0.0297(5) Uani 1 1 d
N5 N 0.7044(3) 0.7044(3) 0.4214(2) 0.0331(5) Uani 1 1 d
N6 N 0.7231(3) 0.4126(3) 0.4579(2) 0.0320(5) Uani 1 1 d
N7 N 0.9324(5) 0.0968(4) 0.2238(3) 0.0431(6) Uani 1 1 d
N8 N 0.2922(5) 0.8392(4) 0.2915(3) 0.0404(6) Uani 1 1 d
O1 O 0.4043(3) 0.1625(2) 0.03737(18) 0.0420(5) Uani 1 1 d
O2 O 0.8217(3) 0.5551(3) -0.10667(18) 0.0445(5) Uani 1 1 d
O3 O 1.0649(2) 0.8208(3) 0.03752(18) 0.0399(5) Uani 1 1 d
O4 O 0.6356(3) 0.7643(3) 0.3392(2) 0.0439(5) Uani 1 1 d
O5 O 0.7947(4) 0.8186(3) 0.5391(2) 0.0621(7) Uani 1 1 d
O6 O 0.8026(3) 0.5032(3) 0.58232(19) 0.0520(6) Uani 1 1 d
O7 O 0.6815(3) 0.2262(2) 0.40646(18) 0.0419(5) Uani 1 1 d
C1 C 0.6688(3) 0.4435(3) 0.1061(2) 0.0272(5) Uani 1 1 d
C2 C 0.5891(3) 0.3910(3) 0.2247(2) 0.0292(6) Uani 1 1 d
C3 C 0.6735(3) 0.5021(3) 0.3723(2) 0.0283(6) Uani 1 1 d
H1 H 1.035(7) 0.185(7) 0.284(5) 0.103(16) Uiso 1 1 d
H2 H 0.917(5) 0.136(5) 0.143(4) 0.065(10) Uiso 1 1 d
H3 H 0.918(8) -0.022(8) 0.211(5) 0.13(2) Uiso 1 1 d
H4 H 0.831(8) 0.093(7) 0.266(5) 0.124(19) Uiso 1 1 d
H5 H 0.182(9) 0.814(8) 0.247(6) 0.15(2) Uiso 1 1 d
H6 H 0.276(7) 0.779(7) 0.354(5) 0.119(18) Uiso 1 1 d
H7 H 0.364(8) 0.807(8) 0.246(6) 0.14(2) Uiso 1 1 d
H8 H 0.354(7) 0.973(7) 0.338(5) 0.116(16) Uiso 1 1 d
loop_
_atom_site_aniso_label
_atom_site_aniso_U_11
_atom_site_aniso_U_22
_atom_site_aniso_U_33
_atom_site_aniso_U_23
_atom_site_aniso_U_13
_atom_site_aniso_U_12
N1 0.0335(11) 0.0294(11) 0.0324(12) 0.0088(9) 0.0024(9) 0.0055(9)
N2 0.0431(13) 0.0312(11) 0.0323(13) 0.0092(10) 0.0041(10) 0.0032(10)
N3 0.0311(11) 0.0318(11) 0.0256(11) 0.0079(9) 0.0023(9) 0.0056(9)
N4 0.0342(11) 0.0271(10) 0.0292(12) 0.0086(9) 0.0075(9) 0.0149(9)
N5 0.0401(12) 0.0287(11) 0.0304(12) 0.0078(10) 0.0065(10) 0.0161(10)
N6 0.0380(12) 0.0248(10) 0.0301(12) 0.0089(9) 0.0090(10) 0.0106(9)
N7 0.0544(17) 0.0366(14) 0.0319(14) 0.0080(12) 0.0017(13) 0.0164(13)
N8 0.0490(16) 0.0306(13) 0.0390(15) 0.0079(12) -0.0006(13) 0.0177(12)
O1 0.0407(11) 0.0302(9) 0.0331(11) 0.0055(8) -0.0018(8) -0.0015(8)
O2 0.0587(12) 0.0329(9) 0.0228(10) 0.0016(8) 0.0059(9) 0.0071(9)
O3 0.0319(10) 0.0342(9) 0.0403(11) 0.0126(8) 0.0034(8) 0.0019(8)
O4 0.0537(12) 0.0371(10) 0.0492(12) 0.0175(9) 0.0027(10) 0.0258(9)
O5 0.1033(18) 0.0369(11) 0.0380(12) -0.0045(10) -0.0134(12) 0.0351(12)
O6 0.0830(15) 0.0345(10) 0.0267(10) 0.0058(9) -0.0084(10) 0.0184(10)
O7 0.0567(12) 0.0238(9) 0.0432(11) 0.0088(8) 0.0044(9) 0.0175(8)
C1 0.0301(13) 0.0254(11) 0.0230(12) 0.0057(10) 0.0007(10) 0.0110(10)
C2 0.0311(13) 0.0229(11) 0.0303(14) 0.0076(10) 0.0039(10) 0.0097(10)
C3 0.0350(13) 0.0234(11) 0.0250(13) 0.0085(10) 0.0067(10) 0.0109(10)
loop_
_atom_type_symbol
_atom_type_description
_atom_type_scat_dispersion_real
_atom_type_scat_dispersion_imag
_atom_type_scat_source
C C 0.0033 0.0016 'International Tables Vol C Tables 4.2.6.8 and 6.1.1.4'
H H 0.0000 0.0000 'International Tables Vol C Tables 4.2.6.8 and 6.1.1.4'
N N 0.0061 0.0033 'International Tables Vol C Tables 4.2.6.8 and 6.1.1.4'
O O 0.0106 0.0060 'International Tables Vol C Tables 4.2.6.8 and 6.1.1.4'
loop_
_geom_angle_atom_site_label_1
_geom_angle_atom_site_label_2
_geom_angle_atom_site_label_3
_geom_angle
C1 N1 O1 104.39(18)
C2 N2 O1 105.89(19)
N4 N3 C1 116.23(19)
O2 N4 O3 120.2(2)
O2 N4 N3 125.3(2)
O3 N4 N3 114.53(19)
O5 N5 O4 121.2(2)
O5 N5 C3 122.6(2)
O4 N5 C3 116.2(2)
O6 N6 O7 119.2(2)
O6 N6 C3 123.51(19)
O7 N6 C3 117.3(2)
H1 N7 H2 113(4)
H1 N7 H3 112(5)
H2 N7 H3 118(4)
H1 N7 H4 106(4)
H2 N7 H4 105(4)
H3 N7 H4 101(4)
H5 N8 H6 111(5)
H5 N8 H7 116(5)
H6 N8 H7 105(5)
H5 N8 H8 108(5)
H6 N8 H8 107(4)
H7 N8 H8 109(5)
N2 O1 N1 111.28(16)
N1 C1 N3 131.2(2)
N1 C1 C2 109.3(2)
N3 C1 C2 119.5(2)
N2 C2 C1 109.2(2)
N2 C2 C3 123.9(2)
C1 C2 C3 126.9(2)
N6 C3 N5 121.5(2)
N6 C3 C2 121.19(19)
N5 C3 C2 117.3(2)
loop_
_geom_bond_atom_site_label_1
_geom_bond_atom_site_label_2
_geom_bond_distance
N1 C1 1.318(3)
N1 O1 1.407(3)
N2 C2 1.304(3)
N2 O1 1.380(3)
N3 N4 1.314(3)
N3 C1 1.389(3)
N4 O2 1.235(2)
N4 O3 1.279(2)
N5 O5 1.236(3)
N5 O4 1.248(3)
N5 C3 1.405(3)
N6 O6 1.246(3)
N6 O7 1.272(2)
N6 C3 1.372(3)
N7 H1 0.86(5)
N7 H2 0.97(4)
N7 H3 0.84(5)
N7 H4 0.88(6)
N8 H5 0.85(7)
N8 H6 0.86(5)
N8 H7 0.79(6)
N8 H8 0.90(5)
C1 C2 1.438(3)
C2 C3 1.466(3)
loop_
_geom_hbond_atom_site_label_D
_geom_hbond_atom_site_label_H
_geom_hbond_atom_site_label_A
_geom_hbond_distance_DH
_geom_hbond_distance_HA
_geom_hbond_distance_DA
_geom_hbond_angle_DHA
_geom_hbond_site_symmetry_A
N8 H8 O7 0.90(5) 2.36(5) 3.077(3) 137(4) 1_565
N8 H8 O5 0.90(5) 2.42(5) 3.048(4) 127(4) 2_676
N8 H8 N2 0.90(5) 2.69(4) 3.197(4) 117(3) 1_565
N8 H7 O4 0.79(6) 2.42(6) 2.946(4) 124(5) .
N8 H7 N1 0.79(6) 2.49(6) 3.192(4) 148(5) 2_665
N8 H6 O7 0.86(5) 2.45(5) 3.239(4) 153(4) 2_666
N8 H6 O6 0.86(5) 2.27(5) 3.058(3) 152(4) 2_666
N8 H5 O3 0.85(7) 2.30(6) 2.986(4) 138(5) 1_455
N8 H5 N3 0.85(7) 2.44(6) 3.253(4) 159(5) 1_455
N7 H4 O7 0.88(6) 2.15(6) 2.965(4) 154(4) .
N7 H3 O3 0.84(5) 2.42(5) 2.955(4) 123(4) 1_545
N7 H3 N4 0.84(5) 2.66(5) 3.364(3) 142(4) 1_545
N7 H3 N3 0.84(5) 2.45(5) 3.284(4) 169(5) 1_545
N7 H2 O3 0.97(4) 1.94(4) 2.878(3) 163(3) 2_765
N7 H2 O2 0.97(4) 2.51(3) 3.117(3) 121(2) 2_765
N7 H2 N4 0.97(4) 2.56(4) 3.399(4) 145(3) 2_765
N7 H1 O6 0.86(5) 2.17(5) 2.934(3) 147(4) 2_766
N7 H1 O5 0.86(5) 2.19(5) 2.860(4) 135(4) 2_766
loop_
_geom_torsion_atom_site_label_1
_geom_torsion_atom_site_label_2
_geom_torsion_atom_site_label_3
_geom_torsion_atom_site_label_4
_geom_torsion
C1 N3 N4 O2 0.9(3)
C1 N3 N4 O3 179.7(2)
C2 N2 O1 N1 -0.2(3)
C1 N1 O1 N2 0.0(3)
O1 N1 C1 N3 178.6(2)
O1 N1 C1 C2 0.3(3)
N4 N3 C1 N1 2.6(4)
N4 N3 C1 C2 -179.2(2)
O1 N2 C2 C1 0.4(3)
O1 N2 C2 C3 -177.6(2)
N1 C1 C2 N2 -0.4(3)
N3 C1 C2 N2 -179.0(2)
N1 C1 C2 C3 177.4(2)
N3 C1 C2 C3 -1.1(4)
O6 N6 C3 N5 -2.0(4)
O7 N6 C3 N5 176.8(2)
O6 N6 C3 C2 176.9(2)
O7 N6 C3 C2 -4.3(3)
O5 N5 C3 N6 7.4(4)
O4 N5 C3 N6 -172.8(2)
O5 N5 C3 C2 -171.6(2)
O4 N5 C3 C2 8.2(3)
N2 C2 C3 N6 57.0(3)
C1 C2 C3 N6 -120.5(3)
N2 C2 C3 N5 -124.0(3)
C1 C2 C3 N5 58.5(3)
