#------------------------------------------------------------------------------
#$Date: 2020-10-06 13:25:26 +0300 (Tue, 06 Oct 2020) $
#$Revision: 257823 $
#$URL: file:///home/coder/svn-repositories/cod/cif/7/05/92/7059257.cif $
#------------------------------------------------------------------------------
#
# This file is available in the Crystallography Open Database (COD),
# http://www.crystallography.net/
#
# All data on this site have been placed in the public domain by the
# contributors.
#
data_7059257
loop_
_publ_author_name
'Biswas, Nirmalendu'
'Bera, Sachinath'
'Sepay, Nayim'
'Pal, Amrita'
'Halder, Tanmoy'
'Ray, Sudipta'
'Acharyya, Swarnali'
'Biswas, Anup Kumar'
'Drew, Michael G. B.'
'Ghosh, Tapas'
_publ_section_title
;
 Simultaneous formation of non-oxidovanadium(iv) and oxidovanadium(v)
 complexes incorporating phenol-based hydrazone ligands in aerobic
 conditions
;
_journal_issue                   9
_journal_name_full               'New Journal of Chemistry'
_journal_page_first              3700
_journal_page_last               3716
_journal_paper_doi               10.1039/C9NJ06114B
_journal_volume                  44
_journal_year                    2020
_chemical_formula_sum            'C32 H30 Cl2 N6 O8 V2'
_chemical_formula_weight         799.40
_space_group_crystal_system      triclinic
_space_group_IT_number           2
_space_group_name_Hall           '-P 1'
_space_group_name_H-M_alt        'P -1'
_atom_sites_solution_hydrogens   mixed
_audit_creation_method           SHELXL-2016/6
_audit_update_record
;
2018-06-25 deposited with the CCDC.	2020-01-31 downloaded from the CCDC.
;
_cell_angle_alpha                103.797(9)
_cell_angle_beta                 92.767(9)
_cell_angle_gamma                91.011(9)
_cell_formula_units_Z            1
_cell_length_a                   6.8992(8)
_cell_length_b                   10.7180(12)
_cell_length_c                   11.0208(12)
_cell_measurement_temperature    293(2)
_cell_volume                     790.15(16)
_computing_structure_refinement  'SHELXL-2016/6 (Sheldrick, 2016)'
_diffrn_ambient_temperature      293(2)
_diffrn_measured_fraction_theta_full 0.981
_diffrn_measured_fraction_theta_max 0.956
_diffrn_radiation_type           MoK\a
_diffrn_radiation_wavelength     0.71073
_diffrn_reflns_av_R_equivalents  0.0362
_diffrn_reflns_av_unetI/netI     0.0877
_diffrn_reflns_Laue_measured_fraction_full 0.981
_diffrn_reflns_Laue_measured_fraction_max 0.956
_diffrn_reflns_limit_h_max       9
_diffrn_reflns_limit_h_min       -5
_diffrn_reflns_limit_k_max       14
_diffrn_reflns_limit_k_min       -15
_diffrn_reflns_limit_l_max       15
_diffrn_reflns_limit_l_min       -15
_diffrn_reflns_number            5601
_diffrn_reflns_point_group_measured_fraction_full 0.981
_diffrn_reflns_point_group_measured_fraction_max 0.956
_diffrn_reflns_theta_full        25.242
_diffrn_reflns_theta_max         30.000
_diffrn_reflns_theta_min         3.431
_exptl_absorpt_coefficient_mu    0.825
_exptl_crystal_density_diffrn    1.680
_exptl_crystal_F_000             408
_refine_diff_density_max         0.738
_refine_diff_density_min         -0.680
_refine_diff_density_rms         0.115
_refine_ls_extinction_method     none
_refine_ls_goodness_of_fit_ref   1.102
_refine_ls_hydrogen_treatment    mixed
_refine_ls_matrix_type           full
_refine_ls_number_parameters     234
_refine_ls_number_reflns         4414
_refine_ls_number_restraints     2
_refine_ls_restrained_S_all      1.101
_refine_ls_R_factor_all          0.0910
_refine_ls_R_factor_gt           0.0673
_refine_ls_shift/su_max          0.095
_refine_ls_shift/su_mean         0.001
_refine_ls_structure_factor_coef Fsqd
_refine_ls_weighting_details
'w=1/[\s^2^(Fo^2^)+(0.0821P)^2^+1.3159P] where P=(Fo^2^+2Fc^2^)/3'
_refine_ls_weighting_scheme      calc
_refine_ls_wR_factor_gt          0.1897
_refine_ls_wR_factor_ref         0.2044
_reflns_Friedel_coverage         0.000
_reflns_number_gt                3316
_reflns_number_total             4414
_reflns_threshold_expression     'I > 2\s(I)'
_cod_data_source_file            c9nj06114b2.cif
_cod_data_source_block           8
_cod_depositor_comments
;Adding full bibliography for 7059256--7059262.cif.

 Adding full bibliography for 7059256--7059262.cif.
;
_cod_database_code               7059257
_shelx_shelxl_version_number     2016/6
_shelx_space_group_comment
;
The symmetry employed for this shelxl refinement is uniquely defined
by the following loop, which should always be used as a source of
symmetry information in preference to the above space-group names.
They are only intended as comments.
;
_shelx_res_file
;
TITL x in P1
    shelx.res
    created by SHELXL-2016/6 at 15:14:17 on 12-Apr-2018
CELL  0.71073   6.8992  10.7180  11.0208  103.797   92.767   91.011
ZERR    1.00   0.0008   0.0012   0.0012    0.009    0.009    0.009
LATT   1
SFAC  C    H    N    O    V    CL
UNIT  32 30 6 8 2 2
MERG   2
OMIT     0.00  60.00
HTAB  N3 N2
HTAB  N3 O2_$1
HTAB  N3 O2_$1
eqiv $1 -x, 1-y, -z
bind v1 n3_$1
bind n3 v1_$1
dfix 0.86 n3 h3a n3 h3b
FMAP   2
PLAN   20
mpla 4 o1 o2 o4 n1 v1
ACTA
HTAB    2.00000
BOND   $H
L.S.  12
WGHT    0.082100    1.315900
FVAR       4.67169
V1    5    0.262539    0.622337    0.269885    11.00000    0.02267    0.01648 =
         0.01133    0.00294   -0.00108    0.00133
CL    6    0.490472   -0.037107    0.289524    11.00000    0.05005    0.01909 =
         0.02617    0.00993    0.00332    0.00629

O1    4    0.269024    0.496046    0.355217    11.00000    0.02372    0.01872 =
         0.01026    0.00407   -0.00025    0.00272
O2    4    0.165590    0.690422    0.133220    11.00000    0.02336    0.01896 =
         0.01292    0.00423    0.00075    0.00266
O3    4    0.484416    0.667611    0.278031    11.00000    0.02976    0.02634 =
         0.01612    0.00386   -0.00259   -0.00689
O4    4    0.143724    0.745455    0.372747    11.00000    0.04020    0.02469 =
         0.01639    0.00142    0.00253    0.00944
N1    3    0.278057    0.469899    0.111835    11.00000    0.01439    0.01954 =
         0.01056    0.00669    0.00045   -0.00038
N2    3    0.245668    0.504493   -0.001493    11.00000    0.01907    0.01964 =
         0.01131    0.00644   -0.00062    0.00039
N3    3    0.123078    0.482987   -0.245061    11.00000    0.03011    0.02931 =
         0.01225    0.00556   -0.00034    0.00645
H3A   2    0.189419    0.454622   -0.190849    11.00000   -1.20000
H3B   2    0.142417    0.469012   -0.323490    11.00000   -1.20000
C1    1    0.354099    0.299722    0.214259    11.00000    0.01320    0.01882 =
         0.01431    0.00529   -0.00163   -0.00102
C2    1    0.334342    0.377232    0.335615    11.00000    0.01538    0.01786 =
         0.01547    0.00709    0.00071   -0.00072
C3    1    0.377093    0.328657    0.440115    11.00000    0.02371    0.02220 =
         0.01161    0.00413   -0.00090   -0.00064
AFIX  43
H3    2    0.371928    0.382175    0.519794    11.00000   -1.20000
AFIX   0
C4    1    0.427125    0.201816    0.426821    11.00000    0.02494    0.02499 =
         0.01683    0.00976    0.00073    0.00166
AFIX  43
H4    2    0.455771    0.169857    0.496803    11.00000   -1.20000
AFIX   0
C5    1    0.433798    0.123477    0.307858    11.00000    0.02347    0.01813 =
         0.02254    0.00645    0.00369    0.00066
C6    1    0.400853    0.170880    0.203446    11.00000    0.02161    0.01747 =
         0.01736    0.00345    0.00192    0.00109
AFIX  43
H6    2    0.409724    0.116632    0.124438    11.00000   -1.20000
AFIX   0
C7    1    0.318673    0.348835    0.102064    11.00000    0.01383    0.02190 =
         0.01334    0.00450    0.00101   -0.00148
C8    1    0.189770    0.622018    0.019683    11.00000    0.01445    0.01950 =
         0.01276    0.00373   -0.00057   -0.00202
C9    1    0.156989    0.684499   -0.084550    11.00000    0.01502    0.01963 =
         0.01592    0.00652    0.00097   -0.00025
C10   1    0.136902    0.616590   -0.210925    11.00000    0.01330    0.02518 =
         0.01715    0.00615    0.00191   -0.00049
C11   1    0.116697    0.686363   -0.303584    11.00000    0.01908    0.03510 =
         0.01823    0.01276   -0.00176   -0.00449
AFIX  43
H11   2    0.108541    0.642461   -0.387419    11.00000   -1.20000
AFIX   0
C12   1    0.108765    0.817847   -0.272897    11.00000    0.02238    0.03787 =
         0.02572    0.02105   -0.00052   -0.00380
AFIX  43
H12   2    0.095342    0.861743   -0.335998    11.00000   -1.20000
AFIX   0
C13   1    0.120501    0.885735   -0.149284    11.00000    0.02441    0.02569 =
         0.03061    0.01682   -0.00014   -0.00055
AFIX  43
H13   2    0.111574    0.974710   -0.128832    11.00000   -1.20000
AFIX   0
C14   1    0.145753    0.819686   -0.056003    11.00000    0.01849    0.02042 =
         0.02395    0.01115   -0.00161    0.00023
AFIX  43
H14   2    0.155507    0.865459    0.027232    11.00000   -1.20000
AFIX   0
C15   1    0.329210    0.260922   -0.025393    11.00000    0.02620    0.01914 =
         0.01407    0.00176    0.00071    0.00124
AFIX 137
H15A  2    0.200488    0.241430   -0.063123    11.00000   -1.50000
H15B  2    0.389577    0.182830   -0.018102    11.00000   -1.50000
H15C  2    0.404312    0.302205   -0.076575    11.00000   -1.50000
AFIX   0
C16   1    0.005291    0.835682    0.368805    11.00000    0.06794    0.04977 =
         0.03355    0.01310    0.01370    0.03712
AFIX 137
H16A  2    0.064646    0.920224    0.393820    11.00000   -1.50000
H16B  2   -0.094189    0.827755    0.424709    11.00000   -1.50000
H16C  2   -0.051050    0.821942    0.285138    11.00000   -1.50000
AFIX   0
HKLF    4




REM  x in P1
REM R1 =  0.0673 for    3316 Fo > 4sig(Fo)  and  0.0910 for all    4414 data
REM    234 parameters refined using      2 restraints

END

WGHT      0.0794      0.5294

REM Instructions for potential hydrogen bonds
HTAB N3 N2
EQIV $2 -x+1, -y+1, -z+1
HTAB C3 O3_$2
EQIV $3 -x+1, -y+1, -z
HTAB C15 O3_$3
HTAB C16 O2

REM Highest difference peak  0.738,  deepest hole -0.680,  1-sigma level  0.115
Q1    1   0.3925  0.6989  0.3085  11.00000  0.05    0.74
Q2    1   0.1180  0.5812  0.3239  11.00000  0.05    0.71
Q3    1   0.0886  0.6195  0.3806  11.00000  0.05    0.55
Q4    1   0.4059  0.6587  0.2183  11.00000  0.05    0.49
Q5    1   0.1333  0.5413  0.2392  11.00000  0.05    0.49
Q6    1   0.1755  0.6648  0.3417  11.00000  0.05    0.46
Q7    1   0.1114  0.8539  0.4100  11.00000  0.05    0.45
Q8    1   0.2156  0.5377  0.1942  11.00000  0.05    0.44
Q9    1   0.6485 -0.0027  0.2401  11.00000  0.05    0.42
Q10   1   0.3844  0.3457  0.3832  11.00000  0.05    0.42
Q11   1   0.3836 -0.1221  0.2443  11.00000  0.05    0.41
Q12   1   0.1752  0.8449  0.3197  11.00000  0.05    0.41
Q13   1   0.5184  0.0862  0.1156  11.00000  0.05    0.41
Q14   1   0.2580  0.5783  0.0208  11.00000  0.05    0.40
Q15   1  -0.0307  0.8658  0.4460  11.00000  0.05    0.39
Q16   1   0.2438  0.1744 -0.0342  11.00000  0.05    0.39
Q17   1   0.5446  0.7495  0.3029  11.00000  0.05    0.39
Q18   1   0.3134  0.8799 -0.0893  11.00000  0.05    0.38
Q19   1   0.1505  0.6651 -0.2456  11.00000  0.05    0.38
Q20   1   0.3457  0.4780 -0.0728  11.00000  0.05    0.38
;
_shelx_res_checksum              98042
loop_
_space_group_symop_operation_xyz
'x, y, z'
'-x, -y, -z'
loop_
_atom_site_label
_atom_site_type_symbol
_atom_site_fract_x
_atom_site_fract_y
_atom_site_fract_z
_atom_site_U_iso_or_equiv
_atom_site_adp_type
_atom_site_occupancy
_atom_site_site_symmetry_order
_atom_site_calc_flag
_atom_site_refinement_flags_posn
_atom_site_refinement_flags_adp
V1 V 0.26254(10) 0.62234(7) 0.26988(6) 0.01695(19) Uani 1 1 d . .
Cl Cl 0.49047(19) -0.03711(11) 0.28952(11) 0.0309(3) Uani 1 1 d . .
O1 O 0.2690(4) 0.4960(3) 0.3552(2) 0.0175(6) Uani 1 1 d . .
O2 O 0.1656(4) 0.6904(3) 0.1332(3) 0.0183(6) Uani 1 1 d . .
O3 O 0.4844(4) 0.6676(3) 0.2780(3) 0.0245(7) Uani 1 1 d . .
O4 O 0.1437(5) 0.7455(3) 0.3727(3) 0.0276(7) Uani 1 1 d . .
N1 N 0.2781(4) 0.4699(3) 0.1118(3) 0.0143(6) Uani 1 1 d . .
N2 N 0.2457(5) 0.5045(3) -0.0015(3) 0.0163(7) Uani 1 1 d . .
N3 N 0.1231(6) 0.4830(4) -0.2451(3) 0.0238(8) Uani 1 1 d D .
H3A H 0.189(6) 0.455(5) -0.191(4) 0.029 Uiso 1 1 d D U
H3B H 0.142(7) 0.469(5) -0.323(2) 0.029 Uiso 1 1 d D U
C1 C 0.3541(5) 0.2997(4) 0.2143(4) 0.0153(7) Uani 1 1 d . .
C2 C 0.3343(5) 0.3772(4) 0.3356(4) 0.0157(7) Uani 1 1 d . .
C3 C 0.3771(6) 0.3287(4) 0.4401(4) 0.0192(8) Uani 1 1 d . .
H3 H 0.371928 0.382175 0.519794 0.023 Uiso 1 1 calc R U
C4 C 0.4271(6) 0.2018(4) 0.4268(4) 0.0215(8) Uani 1 1 d . .
H4 H 0.455771 0.169857 0.496803 0.026 Uiso 1 1 calc R U
C5 C 0.4338(6) 0.1235(4) 0.3079(4) 0.0210(8) Uani 1 1 d . .
C6 C 0.4009(6) 0.1709(4) 0.2034(4) 0.0189(8) Uani 1 1 d . .
H6 H 0.409724 0.116632 0.124438 0.023 Uiso 1 1 calc R U
C7 C 0.3187(5) 0.3488(4) 0.1021(4) 0.0163(7) Uani 1 1 d . .
C8 C 0.1898(5) 0.6220(4) 0.0197(4) 0.0157(7) Uani 1 1 d . .
C9 C 0.1570(5) 0.6845(4) -0.0845(4) 0.0165(7) Uani 1 1 d . .
C10 C 0.1369(5) 0.6166(4) -0.2109(4) 0.0183(8) Uani 1 1 d . .
C11 C 0.1167(6) 0.6864(5) -0.3036(4) 0.0232(9) Uani 1 1 d . .
H11 H 0.108541 0.642461 -0.387419 0.028 Uiso 1 1 calc R U
C12 C 0.1088(6) 0.8178(5) -0.2729(4) 0.0265(10) Uani 1 1 d . .
H12 H 0.095342 0.861743 -0.335998 0.032 Uiso 1 1 calc R U
C13 C 0.1205(6) 0.8857(5) -0.1493(4) 0.0253(9) Uani 1 1 d . .
H13 H 0.111574 0.974710 -0.128832 0.030 Uiso 1 1 calc R U
C14 C 0.1458(6) 0.8197(4) -0.0560(4) 0.0201(8) Uani 1 1 d . .
H14 H 0.155507 0.865459 0.027232 0.024 Uiso 1 1 calc R U
C15 C 0.3292(6) 0.2609(4) -0.0254(4) 0.0202(8) Uani 1 1 d . .
H15A H 0.200488 0.241430 -0.063123 0.030 Uiso 1 1 calc R U
H15B H 0.389577 0.182830 -0.018102 0.030 Uiso 1 1 calc R U
H15C H 0.404312 0.302205 -0.076575 0.030 Uiso 1 1 calc R U
C16 C 0.0053(9) 0.8357(6) 0.3688(6) 0.0491(16) Uani 1 1 d . .
H16A H 0.064646 0.920224 0.393820 0.074 Uiso 1 1 calc R U
H16B H -0.094189 0.827755 0.424709 0.074 Uiso 1 1 calc R U
H16C H -0.051050 0.821942 0.285138 0.074 Uiso 1 1 calc R U
loop_
_atom_site_aniso_label
_atom_site_aniso_U_11
_atom_site_aniso_U_22
_atom_site_aniso_U_33
_atom_site_aniso_U_23
_atom_site_aniso_U_13
_atom_site_aniso_U_12
V1 0.0227(3) 0.0165(4) 0.0113(3) 0.0029(2) -0.0011(2) 0.0013(2)
Cl 0.0500(7) 0.0191(5) 0.0262(6) 0.0099(4) 0.0033(5) 0.0063(5)
O1 0.0237(14) 0.0187(14) 0.0103(13) 0.0041(11) -0.0002(11) 0.0027(11)
O2 0.0234(14) 0.0190(14) 0.0129(13) 0.0042(11) 0.0007(11) 0.0027(11)
O3 0.0298(16) 0.0263(17) 0.0161(14) 0.0039(12) -0.0026(12) -0.0069(13)
O4 0.0402(18) 0.0247(17) 0.0164(15) 0.0014(12) 0.0025(13) 0.0094(14)
N1 0.0144(14) 0.0195(16) 0.0106(14) 0.0067(12) 0.0005(11) -0.0004(12)
N2 0.0191(15) 0.0196(17) 0.0113(15) 0.0064(13) -0.0006(12) 0.0004(13)
N3 0.0301(19) 0.029(2) 0.0122(16) 0.0056(15) -0.0003(14) 0.0065(15)
C1 0.0132(16) 0.0188(19) 0.0143(17) 0.0053(14) -0.0016(13) -0.0010(13)
C2 0.0154(16) 0.0179(19) 0.0155(18) 0.0071(14) 0.0007(14) -0.0007(14)
C3 0.0237(19) 0.022(2) 0.0116(18) 0.0041(15) -0.0009(14) -0.0006(15)
C4 0.025(2) 0.025(2) 0.0168(19) 0.0098(16) 0.0007(16) 0.0017(16)
C5 0.0235(19) 0.018(2) 0.023(2) 0.0064(16) 0.0037(16) 0.0007(15)
C6 0.0216(18) 0.0175(19) 0.0174(19) 0.0034(15) 0.0019(15) 0.0011(15)
C7 0.0138(16) 0.022(2) 0.0133(17) 0.0045(15) 0.0010(13) -0.0015(14)
C8 0.0144(16) 0.0195(19) 0.0128(17) 0.0037(14) -0.0006(13) -0.0020(14)
C9 0.0150(16) 0.0196(19) 0.0159(18) 0.0065(15) 0.0010(14) -0.0003(14)
C10 0.0133(16) 0.025(2) 0.0172(19) 0.0062(16) 0.0019(14) -0.0005(14)
C11 0.0191(18) 0.035(3) 0.018(2) 0.0128(18) -0.0018(15) -0.0045(17)
C12 0.022(2) 0.038(3) 0.026(2) 0.021(2) -0.0005(17) -0.0038(18)
C13 0.024(2) 0.026(2) 0.031(2) 0.0168(19) -0.0001(18) -0.0006(17)
C14 0.0185(18) 0.020(2) 0.024(2) 0.0111(17) -0.0016(15) 0.0002(15)
C15 0.026(2) 0.019(2) 0.0141(18) 0.0018(15) 0.0007(15) 0.0012(16)
C16 0.068(4) 0.050(4) 0.034(3) 0.013(3) 0.014(3) 0.037(3)
loop_
_atom_type_symbol
_atom_type_description
_atom_type_scat_dispersion_real
_atom_type_scat_dispersion_imag
_atom_type_scat_source
C C 0.0033 0.0016 'International Tables Vol C Tables 4.2.6.8 and 6.1.1.4'
H H 0.0000 0.0000 'International Tables Vol C Tables 4.2.6.8 and 6.1.1.4'
N N 0.0061 0.0033 'International Tables Vol C Tables 4.2.6.8 and 6.1.1.4'
O O 0.0106 0.0060 'International Tables Vol C Tables 4.2.6.8 and 6.1.1.4'
V V 0.3005 0.5294 'International Tables Vol C Tables 4.2.6.8 and 6.1.1.4'
Cl Cl 0.1484 0.1585 'International Tables Vol C Tables 4.2.6.8 and 6.1.1.4'
loop_
_geom_angle_atom_site_label_1
_geom_angle_atom_site_label_2
_geom_angle_atom_site_label_3
_geom_angle
_geom_angle_site_symmetry_1
_geom_angle_site_symmetry_3
O3 V1 O4 106.17(16) . .
O3 V1 O1 102.30(15) . .
O4 V1 O1 102.07(14) . .
O3 V1 O2 100.30(15) . .
O4 V1 O2 88.59(14) . .
O1 V1 O2 151.09(13) . .
O3 V1 N1 96.51(14) . .
O4 V1 N1 154.36(15) . .
O1 V1 N1 84.21(13) . .
O2 V1 N1 75.51(12) . .
O3 V1 N3 174.51(14) . 2_565
O4 V1 N3 79.06(14) . 2_565
O1 V1 N3 74.63(12) . 2_565
O2 V1 N3 81.29(12) . 2_565
N1 V1 N3 78.74(12) . 2_565
C2 O1 V1 136.1(2) . .
C8 O2 V1 117.3(3) . .
C16 O4 V1 139.5(3) . .
C7 N1 N2 115.1(3) . .
C7 N1 V1 130.7(3) . .
N2 N1 V1 114.1(2) . .
C8 N2 N1 109.5(3) . .
C10 N3 V1 114.8(2) . 2_565
C10 N3 H3A 108(4) . .
V1 N3 H3A 110(4) 2_565 .
C10 N3 H3B 101(4) . .
V1 N3 H3B 97(4) 2_565 .
H3A N3 H3B 126(5) . .
C6 C1 C2 117.6(4) . .
C6 C1 C7 120.4(4) . .
C2 C1 C7 121.9(4) . .
O1 C2 C3 117.6(4) . .
O1 C2 C1 122.2(3) . .
C3 C2 C1 120.2(4) . .
C4 C3 C2 120.8(4) . .
C4 C3 H3 119.6 . .
C2 C3 H3 119.6 . .
C5 C4 C3 118.9(4) . .
C5 C4 H4 120.6 . .
C3 C4 H4 120.6 . .
C6 C5 C4 121.2(4) . .
C6 C5 Cl 119.3(3) . .
C4 C5 Cl 119.5(3) . .
C5 C6 C1 121.0(4) . .
C5 C6 H6 119.5 . .
C1 C6 H6 119.5 . .
N1 C7 C1 120.6(4) . .
N1 C7 C15 119.2(4) . .
C1 C7 C15 120.2(4) . .
N2 C8 O2 121.9(4) . .
N2 C8 C9 120.3(3) . .
O2 C8 C9 117.8(3) . .
C10 C9 C14 118.4(4) . .
C10 C9 C8 123.5(4) . .
C14 C9 C8 118.1(4) . .
N3 C10 C11 119.6(4) . .
N3 C10 C9 121.5(4) . .
C11 C10 C9 118.8(4) . .
C12 C11 C10 121.3(4) . .
C12 C11 H11 119.3 . .
C10 C11 H11 119.3 . .
C11 C12 C13 120.7(4) . .
C11 C12 H12 119.7 . .
C13 C12 H12 119.7 . .
C12 C13 C14 119.2(4) . .
C12 C13 H13 120.4 . .
C14 C13 H13 120.4 . .
C13 C14 C9 121.5(4) . .
C13 C14 H14 119.3 . .
C9 C14 H14 119.3 . .
C7 C15 H15A 109.5 . .
C7 C15 H15B 109.5 . .
H15A C15 H15B 109.5 . .
C7 C15 H15C 109.5 . .
H15A C15 H15C 109.5 . .
H15B C15 H15C 109.5 . .
O4 C16 H16A 109.5 . .
O4 C16 H16B 109.5 . .
H16A C16 H16B 109.5 . .
O4 C16 H16C 109.5 . .
H16A C16 H16C 109.5 . .
H16B C16 H16C 109.5 . .
loop_
_geom_bond_atom_site_label_1
_geom_bond_atom_site_label_2
_geom_bond_distance
_geom_bond_site_symmetry_2
V1 O3 1.590(3) .
V1 O4 1.764(3) .
V1 O1 1.823(3) .
V1 O2 1.922(3) .
V1 N1 2.093(3) .
V1 N3 2.847(4) 2_565
Cl C5 1.738(4) .
O1 C2 1.330(5) .
O2 C8 1.311(5) .
O4 C16 1.378(6) .
N1 C7 1.313(5) .
N1 N2 1.394(4) .
N2 C8 1.294(5) .
N3 C10 1.391(6) .
N3 H3A 0.851(19) .
N3 H3B 0.859(19) .
C1 C6 1.402(6) .
C1 C2 1.410(5) .
C1 C7 1.467(5) .
C2 C3 1.394(5) .
C3 C4 1.384(6) .
C3 H3 0.9300 .
C4 C5 1.381(6) .
C4 H4 0.9300 .
C5 C6 1.375(6) .
C6 H6 0.9300 .
C7 C15 1.499(5) .
C8 C9 1.472(5) .
C9 C10 1.408(6) .
C9 C14 1.412(6) .
C10 C11 1.406(6) .
C11 C12 1.371(7) .
C11 H11 0.9300 .
C12 C13 1.381(7) .
C12 H12 0.9300 .
C13 C14 1.387(6) .
C13 H13 0.9300 .
C14 H14 0.9300 .
C15 H15A 0.9600 .
C15 H15B 0.9600 .
C15 H15C 0.9600 .
C16 H16A 0.9600 .
C16 H16B 0.9600 .
C16 H16C 0.9600 .
loop_
_geom_hbond_atom_site_label_D
_geom_hbond_atom_site_label_H
_geom_hbond_atom_site_label_A
_geom_hbond_distance_DH
_geom_hbond_distance_HA
_geom_hbond_distance_DA
_geom_hbond_angle_DHA
_geom_hbond_site_symmetry_A
N3 H3A N2 0.851(19) 2.04(4) 2.730(5) 137(5) .
N3 H3A O2 0.851(19) 3.05(5) 3.184(5) 91(4) 2_565
N3 H3A O2 0.851(19) 3.05(5) 3.184(5) 91(4) 2_565
