#------------------------------------------------------------------------------
#$Date: 2020-10-06 13:24:22 +0300 (Tue, 06 Oct 2020) $
#$Revision: 257818 $
#$URL: file:///home/coder/svn-repositories/cod/cif/7/05/92/7059264.cif $
#------------------------------------------------------------------------------
#
# This file is available in the Crystallography Open Database (COD),
# http://www.crystallography.net/
#
# All data on this site have been placed in the public domain by the
# contributors.
#
data_7059264
loop_
_publ_author_name
'Al-Zoubi, Raed M.'
'Al-Jammal, Walid K.'
'McDonald, Robert'
_publ_section_title
;
 Regioselective synthesis of ortho-iodobiphenylboronic acid derivatives: a
 superior catalyst for carboxylic acid activation
;
_journal_issue                   9
_journal_name_full               'New Journal of Chemistry'
_journal_page_first              3612
_journal_page_last               3623
_journal_paper_doi               10.1039/C9NJ05708K
_journal_volume                  44
_journal_year                    2020
_chemical_formula_moiety         'C14 H14 B I O4'
_chemical_formula_sum            'C14 H14 B I O4'
_chemical_formula_weight         383.96
_chemical_name_common            (19A)
_chemical_name_systematic
'(2-iodo-4',5-dimethoxybiphenyl-3-yl)boronic acid'
_space_group_crystal_system      triclinic
_space_group_IT_number           2
_space_group_name_Hall           '-P 1'
_space_group_name_H-M_alt        'P -1'
_atom_sites_solution_hydrogens   mixed
_audit_creation_method           SHELXL-2014/7
_audit_update_record
;
2018-11-28 deposited with the CCDC.	2020-01-31 downloaded from the CCDC.
;
_cell_angle_alpha                101.6750(4)
_cell_angle_beta                 90.6702(5)
_cell_angle_gamma                105.7630(4)
_cell_formula_units_Z            2
_cell_length_a                   7.4048(3)
_cell_length_b                   9.6801(4)
_cell_length_c                   10.5728(4)
_cell_measurement_reflns_used    7784
_cell_measurement_temperature    193(2)
_cell_measurement_theta_max      28.07
_cell_measurement_theta_min      2.24
_cell_volume                     712.47(5)
_computing_cell_refinement       'Bruker SAINT'
_computing_data_collection       'Bruker APEX2'
_computing_data_reduction        'Bruker SAINT'
_computing_molecular_graphics    'Bruker SHELXTL'
_computing_publication_material  'Bruker SHELXTL'
_computing_structure_refinement  'SHELXL-2014/7 (Sheldrick, 2014)'
_computing_structure_solution    'DIRDIF-2008 (Beurskens et al., 2008)'
_diffrn_ambient_temperature      193(2)
_diffrn_measured_fraction_theta_full 1.000
_diffrn_measured_fraction_theta_max 0.987
_diffrn_measurement_device_type  'Bruker APEX-II CCD'
_diffrn_measurement_method       '\w scans'
_diffrn_radiation_type           MoK\a
_diffrn_radiation_wavelength     0.71073
_diffrn_reflns_av_R_equivalents  0.0144
_diffrn_reflns_av_unetI/netI     0.0212
_diffrn_reflns_Laue_measured_fraction_full 1.000
_diffrn_reflns_Laue_measured_fraction_max 0.987
_diffrn_reflns_limit_h_max       9
_diffrn_reflns_limit_h_min       -9
_diffrn_reflns_limit_k_max       12
_diffrn_reflns_limit_k_min       -12
_diffrn_reflns_limit_l_max       14
_diffrn_reflns_limit_l_min       -14
_diffrn_reflns_number            6867
_diffrn_reflns_point_group_measured_fraction_full 1.000
_diffrn_reflns_point_group_measured_fraction_max 0.987
_diffrn_reflns_theta_full        25.242
_diffrn_reflns_theta_max         28.344
_diffrn_reflns_theta_min         1.972
_exptl_absorpt_coefficient_mu    2.256
_exptl_absorpt_correction_T_max  0.9660
_exptl_absorpt_correction_T_min  0.7538
_exptl_absorpt_correction_type   numerical
_exptl_absorpt_process_details   'SADABS 2014/5'
_exptl_crystal_colour            colourless
_exptl_crystal_density_diffrn    1.790
_exptl_crystal_description       fragment
_exptl_crystal_F_000             376
_exptl_crystal_recrystallization_method
'Re-crystallisation from solvent: Hexanes'
_exptl_crystal_size_max          0.168
_exptl_crystal_size_mid          0.139
_exptl_crystal_size_min          0.038
_refine_diff_density_max         0.924
_refine_diff_density_min         -0.445
_refine_diff_density_rms         0.071
_refine_ls_extinction_method     none
_refine_ls_goodness_of_fit_ref   1.070
_refine_ls_hydrogen_treatment    mixed
_refine_ls_matrix_type           full
_refine_ls_number_parameters     191
_refine_ls_number_reflns         3500
_refine_ls_number_restraints     2
_refine_ls_restrained_S_all      1.070
_refine_ls_R_factor_all          0.0232
_refine_ls_R_factor_gt           0.0208
_refine_ls_shift/su_max          0.001
_refine_ls_shift/su_mean         0.000
_refine_ls_structure_factor_coef Fsqd
_refine_ls_weighting_details
'w=1/[\s^2^(Fo^2^)+(0.0229P)^2^+0.3304P] where P=(Fo^2^+2Fc^2^)/3'
_refine_ls_weighting_scheme      calc
_refine_ls_wR_factor_gt          0.0485
_refine_ls_wR_factor_ref         0.0499
_reflns_Friedel_coverage         0.000
_reflns_number_gt                3235
_reflns_number_total             3500
_reflns_threshold_expression     'I > 2\s(I)'
_cod_data_source_file            c9nj05708k2.cif
_cod_data_source_block           jus1508
_cod_depositor_comments
;Adding full bibliography for 7059263--7059266.cif.

 Adding full bibliography for 7059263--7059266.cif.
;
_cod_database_code               7059264
_shelx_shelxl_version_number     2014/7
_shelx_space_group_comment
; 
The symmetry employed for this shelxl refinement is uniquely defined 
by the following loop, which should always be used as a source of 
symmetry information in preference to the above space-group names. 
They are only intended as comments. 
;
_shelx_estimated_absorpt_t_min   0.703
_shelx_estimated_absorpt_t_max   0.919
_shelx_res_file
; 
  
    jus1508.res created by SHELXL-2014/7 
  
  
TITL jus1508 in P-1 
CELL 0.71073 7.4048 9.6801 10.5728 101.6750 90.6702 105.7630 
ZERR    2.00 0.0003 0.0004  0.0004   0.0004  0.0005   0.0004 
LATT 1 
SFAC C  H  B O I 
UNIT 28 28 2 8 2 
SIZE 0.038 0.139 0.168 
TEMP -80 
EQIV $1 2-X, 1-Y, -Z 
EQIV $2 1-X, -Y, -Z 
DFIX 0.84 0.01 O1 H1O O2 H2O 
L.S. 4 
ACTA 
CONF 
HTAB O1 O2_$1 
HTAB O2 O3_$2 
WGHT    0.022900    0.330400 
FVAR       0.18788 
I     5    0.592046    0.467159    0.295326    11.00000    0.03558    0.01838 = 
         0.03727    0.00611    0.01223    0.00709 
O1    4    1.014379    0.394669    0.131979    11.00000    0.02309    0.03180 = 
         0.03928    0.02065    0.00219    0.00058 
H1O   2    1.077893    0.462866    0.100484    11.00000    0.05901 
O2    4    0.778437    0.372703   -0.027072    11.00000    0.02528    0.02751 = 
         0.02801    0.01450    0.00228   -0.00040 
H2O   2    0.671868    0.325253   -0.060965    11.00000    0.04676 
O3    4    0.580863   -0.192294    0.127450    11.00000    0.02659    0.01772 = 
         0.02934    0.00655    0.00776    0.00733 
O4    4   -0.092537    0.244483    0.633680    11.00000    0.03088    0.03038 = 
         0.03002    0.01175    0.01400    0.01414 
C1    1    0.444696    0.133499    0.278927    11.00000    0.01908    0.02101 = 
         0.01939    0.00786    0.00237    0.00457 
C2    1    0.571813    0.241870    0.228115    11.00000    0.02025    0.01633 = 
         0.02157    0.00568    0.00248    0.00335 
C3    1    0.701640    0.208503    0.140569    11.00000    0.02025    0.01833 = 
         0.02181    0.00759    0.00246    0.00329 
C4    1    0.708523    0.062626    0.105653    11.00000    0.01944    0.02269 = 
         0.02130    0.00714    0.00596    0.00619 
AFIX  43 
H4    2    0.796565    0.037681    0.046981    11.00000   -1.20000 
AFIX   0 
C5    1    0.586591   -0.045768    0.156786    11.00000    0.02367    0.01648 = 
         0.01976    0.00489    0.00078    0.00561 
C6    1    0.454952   -0.010635    0.241059    11.00000    0.02071    0.01938 = 
         0.02322    0.00971    0.00374    0.00228 
AFIX  43 
H6    2    0.370452   -0.086312    0.273408    11.00000   -1.20000 
AFIX   0 
C7    1    0.300969    0.164090    0.370286    11.00000    0.02070    0.01949 = 
         0.02141    0.00687    0.00459    0.00471 
C8    1    0.167533    0.230271    0.338588    11.00000    0.02644    0.02835 = 
         0.02141    0.01010    0.00462    0.00972 
AFIX  43 
H8    2    0.168408    0.257378    0.257068    11.00000   -1.20000 
AFIX   0 
C9    1    0.032278    0.258160    0.422771    11.00000    0.02203    0.02645 = 
         0.02845    0.01129    0.00402    0.00921 
AFIX  43 
H9    2   -0.058265    0.303062    0.398673    11.00000   -1.20000 
AFIX   0 
C10   1    0.031281    0.219522    0.542512    11.00000    0.02074    0.01712 = 
         0.02483    0.00451    0.00588    0.00299 
C11   1    0.161349    0.150295    0.575045    11.00000    0.02844    0.02348 = 
         0.02053    0.00810    0.00412    0.00732 
AFIX  43 
H11   2    0.158997    0.121967    0.656086    11.00000   -1.20000 
AFIX   0 
C12   1    0.294204    0.122381    0.490173    11.00000    0.02192    0.02063 = 
         0.02455    0.00826    0.00228    0.00692 
AFIX  43 
H12   2    0.381872    0.074432    0.513289    11.00000   -1.20000 
AFIX   0 
C13   1    0.729071   -0.232868    0.055781    11.00000    0.03596    0.02703 = 
         0.03262    0.00766    0.01094    0.01499 
AFIX 137 
H13A  2    0.851071   -0.175644    0.100739    11.00000   -1.20000 
H13B  2    0.722304   -0.212794   -0.031095    11.00000   -1.20000 
H13C  2    0.714887   -0.337830    0.048834    11.00000   -1.20000 
AFIX   0 
C14   1   -0.211809    0.330704    0.609354    11.00000    0.03134    0.03248 = 
         0.04146    0.01182    0.01406    0.01612 
AFIX 137 
H14A  2   -0.294808    0.279515    0.531371    11.00000   -1.20000 
H14B  2   -0.134879    0.425992    0.596565    11.00000   -1.20000 
H14C  2   -0.287883    0.345987    0.683374    11.00000   -1.20000 
AFIX   0 
B     3    0.838283    0.332873    0.079773    11.00000    0.02372    0.01970 = 
         0.02479    0.00787    0.00914    0.00747 
  
HKLF 4 
  
REM  jus1508 in P-1 
REM R1 =  0.0208 for    3235 Fo > 4sig(Fo)  and  0.0232 for all    3500 data 
REM    191 parameters refined using      2 restraints 
  
END 
  
WGHT      0.0227      0.3331 
  
REM Highest difference peak  0.924,  deepest hole -0.445,  1-sigma level  0.071 
Q1    1   0.7767  0.4017 -0.1153  11.00000  0.05    0.92 
Q2    1   0.3653  0.1408  0.3224  11.00000  0.05    0.45 
Q3    1   0.7511  0.2631  0.1095  11.00000  0.05    0.41 
Q4    1   0.6294  0.0030  0.1205  11.00000  0.05    0.41 
Q5    1   0.6352  0.4095  0.3186  11.00000  0.05    0.40 
Q6    1   0.2755  0.1283  0.4139  11.00000  0.05    0.40 
Q7    1   0.5309  0.1967  0.2706  11.00000  0.05    0.38 
Q8    1   0.5856  0.4403  0.3841  11.00000  0.05    0.38 
Q9    1   0.7293  0.1407  0.1438  11.00000  0.05    0.38 
Q10   1   0.5480  0.4433  0.2216  11.00000  0.05    0.37 
Q11   1   0.0515  0.2410  0.4822  11.00000  0.05    0.37 
Q12   1   0.1914  0.1024  0.5065  11.00000  0.05    0.35 
Q13   1   0.2451  0.2027  0.3574  11.00000  0.05    0.33 
Q14   1   0.6408  0.2174  0.1831  11.00000  0.05    0.32 
Q15   1   0.1144  0.2665  0.3965  11.00000  0.05    0.31 
Q16   1   0.5367 -0.0209  0.1936  11.00000  0.05    0.30 
Q17   1   0.4666  0.0678  0.2739  11.00000  0.05    0.29 
Q18   1   0.0860  0.1813  0.5549  11.00000  0.05    0.29 
Q19   1   0.9130  0.4008  0.1073  11.00000  0.05    0.28 
Q20   1   0.6756  0.4528  0.2211  11.00000  0.05    0.28 
;
_shelx_res_checksum              76183
loop_
_space_group_symop_operation_xyz
'x, y, z'
'-x, -y, -z'
loop_
_atom_site_label
_atom_site_type_symbol
_atom_site_fract_x
_atom_site_fract_y
_atom_site_fract_z
_atom_site_U_iso_or_equiv
_atom_site_adp_type
_atom_site_occupancy
_atom_site_site_symmetry_order
_atom_site_calc_flag
_atom_site_refinement_flags_posn
_atom_site_refinement_flags_adp
I I 0.59205(2) 0.46716(2) 0.29533(2) 0.03040(5) Uani 1 1 d . .
O1 O 1.0144(2) 0.39467(17) 0.13198(15) 0.0309(3) Uani 1 1 d D .
H1O H 1.078(4) 0.463(2) 0.100(3) 0.059(9) Uiso 1 1 d D .
O2 O 0.7784(2) 0.37270(16) -0.02707(14) 0.0272(3) Uani 1 1 d D .
H2O H 0.672(2) 0.325(3) -0.061(3) 0.047(8) Uiso 1 1 d D .
O3 O 0.58086(19) -0.19229(14) 0.12745(13) 0.0241(3) Uani 1 1 d . .
O4 O -0.0925(2) 0.24448(16) 0.63368(14) 0.0284(3) Uani 1 1 d . .
C1 C 0.4447(3) 0.1335(2) 0.27893(17) 0.0195(4) Uani 1 1 d . .
C2 C 0.5718(3) 0.2419(2) 0.22811(17) 0.0195(4) Uani 1 1 d . .
C3 C 0.7016(3) 0.2085(2) 0.14057(18) 0.0201(4) Uani 1 1 d . .
C4 C 0.7085(3) 0.0626(2) 0.10565(18) 0.0207(4) Uani 1 1 d . .
H4 H 0.7966 0.0377 0.0470 0.025 Uiso 1 1 calc R U
C5 C 0.5866(3) -0.0458(2) 0.15679(17) 0.0198(4) Uani 1 1 d . .
C6 C 0.4550(3) -0.0106(2) 0.24106(18) 0.0210(4) Uani 1 1 d . .
H6 H 0.3705 -0.0863 0.2734 0.025 Uiso 1 1 calc R U
C7 C 0.3010(3) 0.1641(2) 0.37029(18) 0.0203(4) Uani 1 1 d . .
C8 C 0.1675(3) 0.2303(2) 0.33859(18) 0.0243(4) Uani 1 1 d . .
H8 H 0.1684 0.2574 0.2571 0.029 Uiso 1 1 calc R U
C9 C 0.0323(3) 0.2582(2) 0.42277(19) 0.0243(4) Uani 1 1 d . .
H9 H -0.0583 0.3031 0.3987 0.029 Uiso 1 1 calc R U
C10 C 0.0313(3) 0.2195(2) 0.54251(18) 0.0213(4) Uani 1 1 d . .
C11 C 0.1613(3) 0.1503(2) 0.57504(18) 0.0236(4) Uani 1 1 d . .
H11 H 0.1590 0.1220 0.6561 0.028 Uiso 1 1 calc R U
C12 C 0.2942(3) 0.1224(2) 0.49017(18) 0.0217(4) Uani 1 1 d . .
H12 H 0.3819 0.0744 0.5133 0.026 Uiso 1 1 calc R U
C13 C 0.7291(3) -0.2329(2) 0.0558(2) 0.0304(4) Uani 1 1 d . .
H13A H 0.8511 -0.1756 0.1007 0.036 Uiso 1 1 calc R U
H13B H 0.7223 -0.2128 -0.0311 0.036 Uiso 1 1 calc R U
H13C H 0.7149 -0.3378 0.0488 0.036 Uiso 1 1 calc R U
C14 C -0.2118(3) 0.3307(3) 0.6094(2) 0.0330(5) Uani 1 1 d . .
H14A H -0.2948 0.2795 0.5314 0.040 Uiso 1 1 calc R U
H14B H -0.1349 0.4260 0.5966 0.040 Uiso 1 1 calc R U
H14C H -0.2879 0.3460 0.6834 0.040 Uiso 1 1 calc R U
B B 0.8383(3) 0.3329(2) 0.0798(2) 0.0219(4) Uani 1 1 d . .
loop_
_atom_site_aniso_label
_atom_site_aniso_U_11
_atom_site_aniso_U_22
_atom_site_aniso_U_33
_atom_site_aniso_U_23
_atom_site_aniso_U_13
_atom_site_aniso_U_12
I 0.03558(9) 0.01838(8) 0.03727(9) 0.00611(5) 0.01223(6) 0.00709(6)
O1 0.0231(7) 0.0318(8) 0.0393(8) 0.0206(7) 0.0022(6) 0.0006(6)
O2 0.0253(7) 0.0275(8) 0.0280(7) 0.0145(6) 0.0023(6) -0.0004(6)
O3 0.0266(7) 0.0177(7) 0.0293(7) 0.0066(5) 0.0078(6) 0.0073(6)
O4 0.0309(8) 0.0304(8) 0.0300(7) 0.0118(6) 0.0140(6) 0.0141(6)
C1 0.0191(8) 0.0210(9) 0.0194(8) 0.0079(7) 0.0024(7) 0.0046(7)
C2 0.0203(9) 0.0163(9) 0.0216(9) 0.0057(7) 0.0025(7) 0.0034(7)
C3 0.0202(9) 0.0183(9) 0.0218(9) 0.0076(7) 0.0025(7) 0.0033(7)
C4 0.0194(9) 0.0227(9) 0.0213(9) 0.0071(7) 0.0060(7) 0.0062(7)
C5 0.0237(9) 0.0165(9) 0.0198(8) 0.0049(7) 0.0008(7) 0.0056(7)
C6 0.0207(9) 0.0194(9) 0.0232(9) 0.0097(7) 0.0037(7) 0.0023(7)
C7 0.0207(9) 0.0195(9) 0.0214(9) 0.0069(7) 0.0046(7) 0.0047(7)
C8 0.0264(10) 0.0284(10) 0.0214(9) 0.0101(8) 0.0046(7) 0.0097(8)
C9 0.0220(9) 0.0265(10) 0.0285(10) 0.0113(8) 0.0040(7) 0.0092(8)
C10 0.0207(9) 0.0171(9) 0.0248(9) 0.0045(7) 0.0059(7) 0.0030(7)
C11 0.0284(10) 0.0235(10) 0.0205(9) 0.0081(7) 0.0041(7) 0.0073(8)
C12 0.0219(9) 0.0206(9) 0.0246(9) 0.0083(7) 0.0023(7) 0.0069(7)
C13 0.0360(11) 0.0270(11) 0.0326(11) 0.0077(9) 0.0109(9) 0.0150(9)
C14 0.0313(11) 0.0325(12) 0.0415(12) 0.0118(10) 0.0141(9) 0.0161(9)
B 0.0237(10) 0.0197(10) 0.0248(10) 0.0079(8) 0.0091(8) 0.0075(8)
loop_
_atom_type_symbol
_atom_type_description
_atom_type_scat_dispersion_real
_atom_type_scat_dispersion_imag
_atom_type_scat_source
C C 0.0033 0.0016 'International Tables Vol C Tables 4.2.6.8 and 6.1.1.4'
H H 0.0000 0.0000 'International Tables Vol C Tables 4.2.6.8 and 6.1.1.4'
B B 0.0013 0.0007 'International Tables Vol C Tables 4.2.6.8 and 6.1.1.4'
O O 0.0106 0.0060 'International Tables Vol C Tables 4.2.6.8 and 6.1.1.4'
I I -0.4742 1.8119 'International Tables Vol C Tables 4.2.6.8 and 6.1.1.4'
loop_
_geom_angle_atom_site_label_1
_geom_angle_atom_site_label_2
_geom_angle_atom_site_label_3
_geom_angle
C5 O3 C13 117.85(15)
C10 O4 C14 117.06(16)
C6 C1 C2 117.43(17)
C6 C1 C7 118.66(16)
C2 C1 C7 123.91(17)
C3 C2 C1 122.26(17)
C3 C2 I 116.64(13)
C1 C2 I 120.85(13)
C2 C3 C4 118.57(16)
C2 C3 B 121.14(16)
C4 C3 B 120.29(16)
C5 C4 C3 120.07(17)
O3 C5 C4 124.49(17)
O3 C5 C6 115.15(16)
C4 C5 C6 120.34(17)
C5 C6 C1 121.28(17)
C8 C7 C12 117.91(17)
C8 C7 C1 121.55(16)
C12 C7 C1 120.51(16)
C7 C8 C9 121.91(17)
C10 C9 C8 119.22(18)
O4 C10 C11 116.09(17)
O4 C10 C9 124.15(17)
C11 C10 C9 119.76(17)
C12 C11 C10 120.41(17)
C11 C12 C7 120.75(17)
O1 B O2 120.18(18)
O1 B C3 119.14(17)
O2 B C3 120.65(17)
loop_
_geom_bond_atom_site_label_1
_geom_bond_atom_site_label_2
_geom_bond_distance
I C2 2.1157(18)
O1 B 1.337(3)
O2 B 1.371(3)
O3 C5 1.378(2)
O3 C13 1.437(2)
O4 C10 1.369(2)
O4 C14 1.423(2)
C1 C6 1.395(3)
C1 C2 1.407(2)
C1 C7 1.494(3)
C2 C3 1.398(3)
C3 C4 1.401(3)
C3 B 1.598(3)
C4 C5 1.391(2)
C5 C6 1.392(3)
C7 C8 1.386(3)
C7 C12 1.403(3)
C8 C9 1.392(3)
C9 C10 1.390(3)
C10 C11 1.390(3)
C11 C12 1.383(3)
loop_
_geom_hbond_atom_site_label_D
_geom_hbond_atom_site_label_H
_geom_hbond_atom_site_label_A
_geom_hbond_distance_DH
_geom_hbond_distance_HA
_geom_hbond_distance_DA
_geom_hbond_angle_DHA
_geom_hbond_site_symmetry_A
O1 H1O O2 0.832(10) 1.966(10) 2.7979(19) 178(3) 2_765
O2 H2O O3 0.832(10) 1.987(11) 2.813(2) 172(3) 2_655
loop_
_geom_torsion_atom_site_label_1
_geom_torsion_atom_site_label_2
_geom_torsion_atom_site_label_3
_geom_torsion_atom_site_label_4
_geom_torsion
C6 C1 C2 C3 1.5(3)
C7 C1 C2 C3 -178.55(17)
C6 C1 C2 I -172.62(13)
C7 C1 C2 I 7.4(2)
C1 C2 C3 C4 -2.0(3)
I C2 C3 C4 172.36(13)
C1 C2 C3 B 177.33(17)
I C2 C3 B -8.3(2)
C2 C3 C4 C5 0.6(3)
B C3 C4 C5 -178.66(17)
C13 O3 C5 C4 10.3(3)
C13 O3 C5 C6 -171.52(17)
C3 C4 C5 O3 179.24(17)
C3 C4 C5 C6 1.1(3)
O3 C5 C6 C1 -179.92(16)
C4 C5 C6 C1 -1.6(3)
C2 C1 C6 C5 0.3(3)
C7 C1 C6 C5 -179.63(17)
C6 C1 C7 C8 -122.8(2)
C2 C1 C7 C8 57.2(3)
C6 C1 C7 C12 55.3(2)
C2 C1 C7 C12 -124.6(2)
C12 C7 C8 C9 1.3(3)
C1 C7 C8 C9 179.51(18)
C7 C8 C9 C10 0.4(3)
C14 O4 C10 C11 172.62(18)
C14 O4 C10 C9 -7.7(3)
C8 C9 C10 O4 178.62(18)
C8 C9 C10 C11 -1.7(3)
O4 C10 C11 C12 -178.98(18)
C9 C10 C11 C12 1.4(3)
C10 C11 C12 C7 0.4(3)
C8 C7 C12 C11 -1.7(3)
C1 C7 C12 C11 -179.94(17)
C2 C3 B O1 97.9(2)
C4 C3 B O1 -82.8(2)
C2 C3 B O2 -84.2(2)
C4 C3 B O2 95.1(2)
