#------------------------------------------------------------------------------
#$Date: 2021-09-06 15:12:54 +0300 (Mon, 06 Sep 2021) $
#$Revision: 268893 $
#$URL: file:///home/coder/svn-repositories/cod/cif/7/06/07/7060799.cif $
#------------------------------------------------------------------------------
#
# This file is available in the Crystallography Open Database (COD),
# http://www.crystallography.net/
#
# All data on this site have been placed in the public domain by the
# contributors.
#
data_7060799
loop_
_publ_author_name
'Hchicha, Khouloud'
'Korb, Marcus'
'Badraoui, Riadh'
'Na\"ili, Houcine'
_publ_section_title
;
 A novel sulfate-bridged binuclear copper(ii) complex: structure, optical,
 ADMET and in vivo approach in a murine model of bone metastasis
;
_journal_issue                   31
_journal_name_full               'New Journal of Chemistry'
_journal_page_first              13775
_journal_page_last               13784
_journal_paper_doi               10.1039/D1NJ02388H
_journal_volume                  45
_journal_year                    2021
_chemical_formula_moiety         'C16 H24 Cu2 N8 O8 S2'
_chemical_formula_sum            'C16 H24 Cu2 N8 O8 S2'
_chemical_formula_weight         647.63
_space_group_crystal_system      triclinic
_space_group_IT_number           2
_space_group_name_Hall           '-P 1'
_space_group_name_H-M_alt        'P -1'
_atom_sites_solution_hydrogens   mixed
_audit_creation_method           SHELXL-2013
_audit_update_record
;
2019-02-16 deposited with the CCDC.	2021-06-29 downloaded from the CCDC.
;
_cell_angle_alpha                115.216(8)
_cell_angle_beta                 97.265(6)
_cell_angle_gamma                108.823(8)
_cell_formula_units_Z            1
_cell_length_a                   8.5712(6)
_cell_length_b                   8.7884(10)
_cell_length_c                   9.8797(6)
_cell_measurement_reflns_used    3561
_cell_measurement_temperature    125.3(6)
_cell_measurement_theta_max      27.3620
_cell_measurement_theta_min      4.0550
_cell_volume                     606.26(12)
_computing_cell_refinement       'CrysAlisPro 1.171.38.41l (Rigaku OD, 2015)'
_computing_data_collection       'CrysAlisPro 1.171.38.41l (Rigaku OD, 2015)'
_computing_data_reduction        'CrysAlisPro 1.171.38.41l (Rigaku OD, 2015)'
_computing_structure_refinement  'SHELXL-2013 (Sheldrick, 2013)'
_computing_structure_solution    'SHELXS-2013 (Sheldrick, 2013)'
_diffrn_ambient_temperature      125.3(6)
_diffrn_measured_fraction_theta_full 0.996
_diffrn_measured_fraction_theta_max 0.996
_diffrn_measurement_device_type  'oxford gemini s'
_diffrn_measurement_method       '\w scans'
_diffrn_radiation_type           MoK\a
_diffrn_radiation_wavelength     0.71073
_diffrn_reflns_av_R_equivalents  0.0413
_diffrn_reflns_av_unetI/netI     0.0380
_diffrn_reflns_Laue_measured_fraction_full 0.996
_diffrn_reflns_Laue_measured_fraction_max 0.996
_diffrn_reflns_limit_h_max       10
_diffrn_reflns_limit_h_min       -10
_diffrn_reflns_limit_k_max       10
_diffrn_reflns_limit_k_min       -10
_diffrn_reflns_limit_l_max       11
_diffrn_reflns_limit_l_min       -11
_diffrn_reflns_number            7568
_diffrn_reflns_point_group_measured_fraction_full 0.996
_diffrn_reflns_point_group_measured_fraction_max 0.996
_diffrn_reflns_theta_full        25.000
_diffrn_reflns_theta_max         24.999
_diffrn_reflns_theta_min         2.946
_exptl_absorpt_coefficient_mu    1.986
_exptl_absorpt_correction_T_max  1.00000
_exptl_absorpt_correction_T_min  0.71451
_exptl_absorpt_correction_type   multi-scan
_exptl_absorpt_process_details
;
CrysAlisPro 1.171.38.41l (Rigaku Oxford Diffraction, 2015)
Empirical absorption correction using spherical harmonics,
 implemented in SCALE3 ABSPACK scaling algorithm.
;
_exptl_crystal_colour            blue
_exptl_crystal_density_diffrn    1.774
_exptl_crystal_description       block
_exptl_crystal_F_000             330
_exptl_crystal_size_max          0.2
_exptl_crystal_size_mid          0.2
_exptl_crystal_size_min          0.2
_refine_diff_density_max         0.791
_refine_diff_density_min         -0.342
_refine_diff_density_rms         0.084
_refine_ls_extinction_method     none
_refine_ls_goodness_of_fit_ref   1.098
_refine_ls_hydrogen_treatment    mixed
_refine_ls_matrix_type           full
_refine_ls_number_parameters     173
_refine_ls_number_reflns         2125
_refine_ls_number_restraints     2
_refine_ls_restrained_S_all      1.098
_refine_ls_R_factor_all          0.0398
_refine_ls_R_factor_gt           0.0338
_refine_ls_shift/su_max          0.001
_refine_ls_shift/su_mean         0.000
_refine_ls_structure_factor_coef Fsqd
_refine_ls_weighting_details
'w=1/[\s^2^(Fo^2^)+(0.0395P)^2^+0.2925P] where P=(Fo^2^+2Fc^2^)/3'
_refine_ls_weighting_scheme      calc
_refine_ls_wR_factor_gt          0.0775
_refine_ls_wR_factor_ref         0.0796
_reflns_Friedel_coverage         0.000
_reflns_number_gt                1915
_reflns_number_total             2125
_reflns_threshold_expression     'I > 2\s(I)'
_cod_data_source_file            d1nj02388h1.cif
_cod_data_source_block           NH-I1
_cod_depositor_comments          'Adding full bibliography for 7060799.cif.'
_cod_original_cell_volume        606.26(10)
_cod_database_code               7060799
_shelx_space_group_comment
;
The symmetry employed for this shelxl refinement is uniquely defined
by the following loop, which should always be used as a source of
symmetry information in preference to the above space-group names.
They are only intended as comments.
;
_oxdiff_exptl_absorpt_empirical_full_min 0.792
_oxdiff_exptl_absorpt_empirical_full_max 1.211
_oxdiff_exptl_absorpt_empirical_details
;
Empirical correction (ABSPACK) includes:
- Absorption correction using spherical harmonics
- Frame scaling
;
_shelxl_version_number           2013-4
_shelx_res_file
;
TITL NH-I1 in P-1
CELL  0.71073   8.5712   8.7884   9.8797  115.216   97.265  108.823
ZERR     1.00   0.0006   0.0010   0.0006    0.008    0.006    0.008
LATT   1
SFAC  C    H    O    S    CU   N
UNIT  16   24   8    2    2    8
MERG   2
OMIT     0.00  50.00
OMIT    -2  -1   4
OMIT     0  -1   2
OMIT     3  -4   1
OMIT     0  -1   3
DFIX  0.870 0.010 H4N N4
DFIX  0.870 0.010 N2 H2N
FMAP   2
PLAN   20
ACTA    50.00
BOND   $H
CONF
L.S.  10
WGHT    0.039500    0.292500
FVAR       5.39837
C1    1    0.510590    0.768026    0.968755    11.00000    0.02030    0.02121 =
         0.01684    0.01085    0.00681    0.01002
AFIX  43
H1    2    0.490534    0.872429    1.023049    11.00000   -1.20000
AFIX   0
C2    1    0.667360    0.764738    0.978010    11.00000    0.01665    0.02453 =
         0.01954    0.01205    0.00263    0.00705
AFIX  43
H2    2    0.774410    0.864232    1.039789    11.00000   -1.20000
AFIX   0
C3    1    0.464967    0.483088    0.811114    11.00000    0.01707    0.02466 =
         0.01563    0.01495    0.00917    0.01127
C4    1    0.384771    0.283932    0.692182    11.00000    0.02011    0.02132 =
         0.02336    0.01080    0.01196    0.01057
AFIX 137
H4A   2    0.277710    0.223735    0.706113    11.00000   -1.50000
H4B   2    0.461963    0.228931    0.704346    11.00000   -1.50000
H4C   2    0.362540    0.269747    0.588823    11.00000   -1.50000
AFIX   0
C5    1    0.003472    0.757940    0.734648    11.00000    0.01789    0.02430 =
         0.02144    0.01242    0.00873    0.01227
AFIX  43
H5    2   -0.073399    0.749989    0.792473    11.00000   -1.20000
AFIX   0
C6    1    0.013155    0.842303    0.647540    11.00000    0.02402    0.02180 =
         0.01931    0.01111    0.00276    0.01202
AFIX  43
H6    2   -0.054202    0.901999    0.633517    11.00000   -1.20000
AFIX   0
C7    1    0.208916    0.727079    0.632464    11.00000    0.02003    0.02154 =
         0.01008    0.00915    0.00446    0.00876
C8    1    0.352295    0.680282    0.582774    11.00000    0.02417    0.04145 =
         0.02399    0.02186    0.01311    0.01759
AFIX 137
H8A   2    0.460516    0.768996    0.663624    11.00000   -1.50000
H8B   2    0.356196    0.683141    0.487168    11.00000   -1.50000
H8C   2    0.332407    0.558604    0.565565    11.00000   -1.50000
AFIX   0
O1    3   -0.123730    0.423313    0.786628    11.00000    0.01379    0.02076 =
         0.01848    0.01157    0.00678    0.00973
O2    3    0.066204    0.300730    0.838783    11.00000    0.01737    0.02351 =
         0.02115    0.01578    0.00824    0.01247
O3    3   -0.191049    0.248024    0.925737    11.00000    0.02150    0.02085 =
         0.01263    0.00822    0.00865    0.00770
O4    3   -0.221694    0.087153    0.649844    11.00000    0.02002    0.01940 =
         0.01375    0.00789    0.00493    0.00823
S1    4   -0.123557    0.257172    0.800201    11.00000    0.01422    0.01809 =
         0.01193    0.00879    0.00579    0.00908
CU1   5    0.137169    0.534228    0.824103    11.00000    0.01312    0.02121 =
         0.01401    0.01193    0.00625    0.01017
N2    6    0.637391    0.584991    0.877917    11.00000    0.01446    0.02369 =
         0.02087    0.01409    0.00689    0.01125
N1    6    0.384565    0.591908    0.865938    11.00000    0.01448    0.02037 =
         0.01412    0.01099    0.00551    0.00977
N4    6    0.143314    0.821523    0.583951    11.00000    0.02477    0.02169 =
         0.01346    0.01148    0.00639    0.00978
N3    6    0.125296    0.685011    0.724906    11.00000    0.01645    0.02043 =
         0.01409    0.01048    0.00571    0.00924
H2N   2    0.716541    0.544137    0.871948    11.00000    0.02245
H4N   2    0.179678    0.853635    0.518082    11.00000    0.04780
HKLF    4

REM  NH-I1 in P-1
REM R1 =  0.0338 for    1915 Fo > 4sig(Fo)  and  0.0398 for all    2125 data
REM    173 parameters refined using      2 restraints

END

WGHT      0.0397      0.2874

REM Highest difference peak  0.791,  deepest hole -0.342,  1-sigma level  0.084
Q1    1   0.0638  0.3942  0.7628  11.00000  0.05    0.79
Q2    1   0.2080  0.6775  0.8890  11.00000  0.05    0.66
Q3    1  -0.1853  0.1246  0.7253  11.00000  0.05    0.44
Q4    1  -0.1743  0.2577  0.8654  11.00000  0.05    0.37
Q5    1   0.1499  0.6614  0.6561  11.00000  0.05    0.35
Q6    1   0.0965  0.6044  0.7124  11.00000  0.05    0.32
Q7    1   0.2985  0.5804  0.8557  11.00000  0.05    0.31
Q8    1  -0.2523  0.1446  0.8774  11.00000  0.05    0.31
Q9    1  -0.0759  0.4000  0.8410  11.00000  0.05    0.30
Q10   1  -0.0002  0.3200  0.8602  11.00000  0.05    0.30
Q11   1   0.5459  0.5395  0.8327  11.00000  0.05    0.30
Q12   1   0.4316  0.6714  0.9421  11.00000  0.05    0.29
Q13   1   0.0417  0.6959  0.7084  11.00000  0.05    0.28
Q14   1  -0.0144  0.5209  0.8016  11.00000  0.05    0.28
Q15   1  -0.0491  0.7255  0.6155  11.00000  0.05    0.28
Q16   1  -0.0529  0.4995  0.8785  11.00000  0.05    0.27
Q17   1  -0.2561  0.3048  0.9343  11.00000  0.05    0.27
Q18   1   0.4042  0.5339  0.8066  11.00000  0.05    0.27
Q19   1   0.5819  0.7768  1.0201  11.00000  0.05    0.25
Q20   1   0.1496  0.4228  0.9203  11.00000  0.05    0.24
;
_shelx_res_checksum              92011
loop_
_space_group_symop_operation_xyz
'x, y, z'
'-x, -y, -z'
loop_
_atom_site_label
_atom_site_type_symbol
_atom_site_fract_x
_atom_site_fract_y
_atom_site_fract_z
_atom_site_U_iso_or_equiv
_atom_site_adp_type
_atom_site_occupancy
_atom_site_site_symmetry_order
_atom_site_calc_flag
_atom_site_refinement_flags_posn
_atom_site_refinement_flags_adp
_atom_site_refinement_flags_occupancy
_atom_site_disorder_assembly
_atom_site_disorder_group
C1 C 0.5106(4) 0.7680(5) 0.9688(3) 0.0184(7) Uani 1 1 d . . . . .
H1 H 0.4905 0.8724 1.0230 0.022 Uiso 1 1 calc R U . . .
C2 C 0.6674(4) 0.7647(5) 0.9780(4) 0.0206(7) Uani 1 1 d . . . . .
H2 H 0.7744 0.8642 1.0398 0.025 Uiso 1 1 calc R U . . .
C3 C 0.4650(4) 0.4831(4) 0.8111(3) 0.0160(7) Uani 1 1 d . . . . .
C4 C 0.3848(4) 0.2839(4) 0.6922(4) 0.0206(7) Uani 1 1 d . . . . .
H4A H 0.2777 0.2237 0.7061 0.031 Uiso 1 1 calc R U . . .
H4B H 0.4620 0.2289 0.7043 0.031 Uiso 1 1 calc R U . . .
H4C H 0.3625 0.2697 0.5888 0.031 Uiso 1 1 calc R U . . .
C5 C 0.0035(4) 0.7579(5) 0.7346(4) 0.0195(7) Uani 1 1 d . . . . .
H5 H -0.0734 0.7500 0.7925 0.023 Uiso 1 1 calc R U . . .
C6 C 0.0132(4) 0.8423(5) 0.6475(4) 0.0211(7) Uani 1 1 d . . . . .
H6 H -0.0542 0.9020 0.6335 0.025 Uiso 1 1 calc R U . . .
C7 C 0.2089(4) 0.7271(4) 0.6325(3) 0.0167(7) Uani 1 1 d . . . . .
C8 C 0.3523(4) 0.6803(5) 0.5828(4) 0.0259(8) Uani 1 1 d . . . . .
H8A H 0.4605 0.7690 0.6636 0.039 Uiso 1 1 calc R U . . .
H8B H 0.3562 0.6831 0.4872 0.039 Uiso 1 1 calc R U . . .
H8C H 0.3324 0.5586 0.5656 0.039 Uiso 1 1 calc R U . . .
O1 O -0.1237(3) 0.4233(3) 0.7866(2) 0.0160(5) Uani 1 1 d . . . . .
O2 O 0.0662(3) 0.3007(3) 0.8388(2) 0.0174(5) Uani 1 1 d . . . . .
O3 O -0.1910(3) 0.2480(3) 0.9257(2) 0.0183(5) Uani 1 1 d . . . . .
O4 O -0.2217(3) 0.0872(3) 0.6498(2) 0.0179(5) Uani 1 1 d . . . . .
S1 S -0.12356(9) 0.25717(10) 0.80020(8) 0.01335(19) Uani 1 1 d . . . . .
Cu1 Cu 0.13717(4) 0.53423(5) 0.82410(4) 0.01375(14) Uani 1 1 d . . . . .
N2 N 0.6374(3) 0.5850(4) 0.8779(3) 0.0174(6) Uani 1 1 d D . . . .
N1 N 0.3846(3) 0.5919(4) 0.8659(3) 0.0145(5) Uani 1 1 d . . . . .
N4 N 0.1433(3) 0.8215(4) 0.5840(3) 0.0188(6) Uani 1 1 d D . . . .
N3 N 0.1253(3) 0.6850(4) 0.7249(3) 0.0157(6) Uani 1 1 d . . . . .
H2N H 0.717(3) 0.544(4) 0.872(4) 0.022(9) Uiso 1 1 d D . . . .
H4N H 0.180(5) 0.854(6) 0.518(4) 0.048(12) Uiso 1 1 d D . . . .
loop_
_atom_site_aniso_label
_atom_site_aniso_U_11
_atom_site_aniso_U_22
_atom_site_aniso_U_33
_atom_site_aniso_U_23
_atom_site_aniso_U_13
_atom_site_aniso_U_12
C1 0.0203(17) 0.0212(18) 0.0168(15) 0.0109(14) 0.0068(13) 0.0100(14)
C2 0.0166(16) 0.0245(19) 0.0195(16) 0.0120(15) 0.0026(13) 0.0070(14)
C3 0.0171(16) 0.0247(18) 0.0156(15) 0.0150(15) 0.0092(12) 0.0113(14)
C4 0.0201(16) 0.0213(18) 0.0234(16) 0.0108(15) 0.0120(14) 0.0106(14)
C5 0.0179(16) 0.0243(19) 0.0214(16) 0.0124(15) 0.0087(13) 0.0123(14)
C6 0.0240(17) 0.0218(18) 0.0193(16) 0.0111(15) 0.0028(13) 0.0120(15)
C7 0.0200(16) 0.0215(18) 0.0101(14) 0.0091(14) 0.0045(12) 0.0088(14)
C8 0.0242(18) 0.041(2) 0.0240(17) 0.0219(17) 0.0131(14) 0.0176(16)
O1 0.0138(10) 0.0208(12) 0.0185(11) 0.0116(10) 0.0068(9) 0.0097(9)
O2 0.0174(11) 0.0235(13) 0.0211(11) 0.0158(10) 0.0082(9) 0.0125(10)
O3 0.0215(11) 0.0208(13) 0.0126(10) 0.0082(10) 0.0086(9) 0.0077(10)
O4 0.0200(11) 0.0194(12) 0.0137(10) 0.0079(10) 0.0049(9) 0.0082(10)
S1 0.0142(4) 0.0181(4) 0.0119(4) 0.0088(3) 0.0058(3) 0.0091(3)
Cu1 0.0131(2) 0.0212(2) 0.0140(2) 0.01193(18) 0.00625(15) 0.01017(17)
N2 0.0145(14) 0.0237(16) 0.0209(13) 0.0141(13) 0.0069(11) 0.0113(12)
N1 0.0145(12) 0.0204(15) 0.0141(12) 0.0110(12) 0.0055(10) 0.0098(11)
N4 0.0248(15) 0.0217(15) 0.0135(13) 0.0115(12) 0.0064(11) 0.0098(12)
N3 0.0165(13) 0.0204(15) 0.0141(12) 0.0105(12) 0.0057(10) 0.0092(11)
loop_
_atom_type_symbol
_atom_type_description
_atom_type_scat_dispersion_real
_atom_type_scat_dispersion_imag
_atom_type_scat_source
C C 0.0033 0.0016 'International Tables Vol C Tables 4.2.6.8 and 6.1.1.4'
H H 0.0000 0.0000 'International Tables Vol C Tables 4.2.6.8 and 6.1.1.4'
O O 0.0106 0.0060 'International Tables Vol C Tables 4.2.6.8 and 6.1.1.4'
S S 0.1246 0.1234 'International Tables Vol C Tables 4.2.6.8 and 6.1.1.4'
Cu Cu 0.3201 1.2651 'International Tables Vol C Tables 4.2.6.8 and 6.1.1.4'
N N 0.0061 0.0033 'International Tables Vol C Tables 4.2.6.8 and 6.1.1.4'
loop_
_geom_angle_atom_site_label_1
_geom_angle_atom_site_label_2
_geom_angle_atom_site_label_3
_geom_angle
_geom_angle_site_symmetry_1
_geom_angle_site_symmetry_3
_geom_angle_publ_flag
C2 C1 N1 109.1(3) . . ?
C2 C1 H1 125.5 . . ?
N1 C1 H1 125.5 . . ?
C1 C2 N2 106.1(3) . . ?
C1 C2 H2 126.9 . . ?
N2 C2 H2 126.9 . . ?
N1 C3 N2 108.9(3) . . ?
N1 C3 C4 127.2(3) . . ?
N2 C3 C4 123.8(3) . . ?
C3 C4 H4A 109.5 . . ?
C3 C4 H4B 109.5 . . ?
H4A C4 H4B 109.5 . . ?
C3 C4 H4C 109.5 . . ?
H4A C4 H4C 109.5 . . ?
H4B C4 H4C 109.5 . . ?
C6 C5 N3 109.7(3) . . ?
C6 C5 H5 125.2 . . ?
N3 C5 H5 125.2 . . ?
C5 C6 N4 105.5(3) . . ?
C5 C6 H6 127.2 . . ?
N4 C6 H6 127.2 . . ?
N3 C7 N4 109.4(3) . . ?
N3 C7 C8 128.3(3) . . ?
N4 C7 C8 122.3(3) . . ?
C7 C8 H8A 109.5 . . ?
C7 C8 H8B 109.5 . . ?
H8A C8 H8B 109.5 . . ?
C7 C8 H8C 109.5 . . ?
H8A C8 H8C 109.5 . . ?
H8B C8 H8C 109.5 . . ?
S1 O1 Cu1 93.33(10) . . ?
S1 O2 Cu1 94.89(10) . . ?
S1 O3 Cu1 131.96(13) . 2_567 ?
O3 S1 O4 111.40(12) . . ?
O3 S1 O2 111.54(12) . . ?
O4 S1 O2 111.06(12) . . ?
O3 S1 O1 111.07(12) . . ?
O4 S1 O1 110.05(12) . . ?
O2 S1 O1 101.31(12) . . ?
O3 S1 Cu1 127.09(9) . . ?
O4 S1 Cu1 121.50(9) . . ?
O2 S1 Cu1 50.23(8) . . ?
O1 S1 Cu1 51.15(8) . . ?
N1 Cu1 N3 98.83(10) . . ?
N1 Cu1 O2 96.45(9) . . ?
N3 Cu1 O2 155.32(10) . . ?
N1 Cu1 O1 166.81(9) . . ?
N3 Cu1 O1 93.66(9) . . ?
O2 Cu1 O1 70.36(8) . . ?
N1 Cu1 O3 89.63(9) . 2_567 ?
N3 Cu1 O3 97.42(9) . 2_567 ?
O2 Cu1 O3 101.96(8) . 2_567 ?
O1 Cu1 O3 92.97(8) . 2_567 ?
N1 Cu1 S1 131.30(8) . . ?
N3 Cu1 S1 126.28(7) . . ?
O2 Cu1 S1 34.88(6) . . ?
O1 Cu1 S1 35.52(6) . . ?
O3 Cu1 S1 100.38(6) 2_567 . ?
C3 N2 C2 108.7(3) . . ?
C3 N2 H2N 127(2) . . ?
C2 N2 H2N 124(2) . . ?
C3 N1 C1 107.2(3) . . ?
C3 N1 Cu1 130.6(2) . . ?
C1 N1 Cu1 122.2(2) . . ?
C7 N4 C6 109.0(3) . . ?
C7 N4 H4N 121(3) . . ?
C6 N4 H4N 130(3) . . ?
C7 N3 C5 106.4(2) . . ?
C7 N3 Cu1 132.3(2) . . ?
C5 N3 Cu1 121.18(19) . . ?
loop_
_geom_bond_atom_site_label_1
_geom_bond_atom_site_label_2
_geom_bond_distance
_geom_bond_site_symmetry_2
_geom_bond_publ_flag
C1 C2 1.346(4) . ?
C1 N1 1.378(4) . ?
C1 H1 0.9300 . ?
C2 N2 1.372(4) . ?
C2 H2 0.9300 . ?
C3 N1 1.327(4) . ?
C3 N2 1.348(4) . ?
C3 C4 1.478(4) . ?
C4 H4A 0.9600 . ?
C4 H4B 0.9600 . ?
C4 H4C 0.9600 . ?
C5 C6 1.349(4) . ?
C5 N3 1.384(4) . ?
C5 H5 0.9300 . ?
C6 N4 1.372(4) . ?
C6 H6 0.9300 . ?
C7 N3 1.329(4) . ?
C7 N4 1.344(4) . ?
C7 C8 1.492(4) . ?
C8 H8A 0.9600 . ?
C8 H8B 0.9600 . ?
C8 H8C 0.9600 . ?
O1 S1 1.523(2) . ?
O1 Cu1 2.041(2) . ?
O2 S1 1.501(2) . ?
O2 Cu1 2.018(2) . ?
O3 S1 1.455(2) . ?
O3 Cu1 2.257(2) 2_567 ?
O4 S1 1.459(2) . ?
S1 Cu1 2.6161(9) . ?
Cu1 N1 1.957(2) . ?
Cu1 N3 1.974(2) . ?
Cu1 O3 2.257(2) 2_567 ?
N2 H2N 0.861(10) . ?
N4 H4N 0.867(10) . ?
loop_
_geom_torsion_atom_site_label_1
_geom_torsion_atom_site_label_2
_geom_torsion_atom_site_label_3
_geom_torsion_atom_site_label_4
_geom_torsion
_geom_torsion_site_symmetry_1
_geom_torsion_site_symmetry_2
_geom_torsion_site_symmetry_3
_geom_torsion_site_symmetry_4
_geom_torsion_publ_flag
N1 C1 C2 N2 0.9(3) . . . . ?
N3 C5 C6 N4 -0.3(4) . . . . ?
Cu1 O3 S1 O4 -169.23(14) 2_567 . . . ?
Cu1 O3 S1 O2 66.04(19) 2_567 . . . ?
Cu1 O3 S1 O1 -46.2(2) 2_567 . . . ?
Cu1 O3 S1 Cu1 10.4(2) 2_567 . . . ?
Cu1 O2 S1 O3 -121.00(11) . . . . ?
Cu1 O2 S1 O4 114.08(11) . . . . ?
Cu1 O2 S1 O1 -2.78(11) . . . . ?
Cu1 O1 S1 O3 121.31(11) . . . . ?
Cu1 O1 S1 O4 -114.85(11) . . . . ?
Cu1 O1 S1 O2 2.74(11) . . . . ?
N1 C3 N2 C2 -0.3(3) . . . . ?
C4 C3 N2 C2 177.7(3) . . . . ?
C1 C2 N2 C3 -0.4(3) . . . . ?
N2 C3 N1 C1 0.8(3) . . . . ?
C4 C3 N1 C1 -177.1(3) . . . . ?
N2 C3 N1 Cu1 -178.02(18) . . . . ?
C4 C3 N1 Cu1 4.1(4) . . . . ?
C2 C1 N1 C3 -1.1(3) . . . . ?
C2 C1 N1 Cu1 177.88(19) . . . . ?
N3 C7 N4 C6 0.3(4) . . . . ?
C8 C7 N4 C6 179.6(3) . . . . ?
C5 C6 N4 C7 0.0(4) . . . . ?
N4 C7 N3 C5 -0.4(3) . . . . ?
C8 C7 N3 C5 -179.6(3) . . . . ?
N4 C7 N3 Cu1 174.5(2) . . . . ?
C8 C7 N3 Cu1 -4.7(5) . . . . ?
C6 C5 N3 C7 0.4(4) . . . . ?
C6 C5 N3 Cu1 -175.2(2) . . . . ?
