#------------------------------------------------------------------------------
#$Date: 2021-05-05 11:59:25 +0300 (Wed, 05 May 2021) $
#$Revision: 264937 $
#$URL: file:///home/coder/svn-repositories/cod/cif/7/06/04/7060472.cif $
#------------------------------------------------------------------------------
#
# This file is available in the Crystallography Open Database (COD),
# http://www.crystallography.net/
#
# All data on this site have been placed in the public domain by the
# contributors.
#
data_7060472
loop_
_publ_author_name
'Kukkonen, Esa'
'Lahtinen, Elmeri'
'Myllyperki\"o, Pasi'
'Haukka, Matti'
'Konu, Jari'
_publ_section_title
;
 Nonlinear optical properties of diaromatic stilbene, butadiene and
 thiophene derivatives
;
_journal_issue                   15
_journal_name_full               'New Journal of Chemistry'
_journal_page_first              6640
_journal_page_last               6650
_journal_paper_doi               10.1039/D1NJ00456E
_journal_volume                  45
_journal_year                    2021
_chemical_formula_moiety         'C16 H14 Cl N O4'
_chemical_formula_sum            'C16 H14 Cl N O4'
_chemical_formula_weight         319.73
_space_group_crystal_system      monoclinic
_space_group_IT_number           4
_space_group_name_Hall           'P 2yb'
_space_group_name_H-M_alt        'P 1 21 1'
_atom_sites_solution_hydrogens   geom
_atom_sites_solution_primary     dual
_audit_creation_date             2021-02-25
_audit_creation_method
;
Olex2 1.2
(compiled 2018.05.29 svn.r3508 for OlexSys, GUI svn.r5506)
;
_audit_update_record
;
2021-03-10 deposited with the CCDC.	2021-03-19 downloaded from the CCDC.
;
_cell_angle_alpha                90
_cell_angle_beta                 93.821(4)
_cell_angle_gamma                90
_cell_formula_units_Z            2
_cell_length_a                   4.2178(2)
_cell_length_b                   16.5839(6)
_cell_length_c                   10.2700(4)
_cell_measurement_reflns_used    1711
_cell_measurement_temperature    120.01(10)
_cell_measurement_theta_max      76.4350
_cell_measurement_theta_min      4.2640
_cell_volume                     716.76(5)
_computing_cell_refinement       'CrysAlisPro 1.171.38.43 (Rigaku OD, 2015)'
_computing_data_collection       'CrysAlisPro 1.171.38.43 (Rigaku OD, 2015)'
_computing_data_reduction        'CrysAlisPro 1.171.38.43 (Rigaku OD, 2015)'
_computing_molecular_graphics    'Olex2 (Dolomanov et al., 2009)'
_computing_publication_material  'Olex2 (Dolomanov et al., 2009)'
_computing_structure_refinement  'ShelXL (Sheldrick, 2015)'
_computing_structure_solution    'ShelXT (Sheldrick, 2015)'
_diffrn_ambient_environment      N~2~
_diffrn_ambient_temperature      120.01(10)
_diffrn_detector                 'CCD plate'
_diffrn_detector_area_resol_mean 5.1977
_diffrn_detector_type            Atlas
_diffrn_measured_fraction_theta_full 0.997
_diffrn_measured_fraction_theta_max 0.973
_diffrn_measurement_details
;
List of Runs (angles in degrees, time in seconds):

  # Type    Start    End  Width  t~exp~   \w     \q     \k     \f   Frames
#--------------------------------------------------------------------------
  1  \w   -107.00 -25.00   1.00    1.00    --  -41.65 -37.00 150.00   82
  2  \w    -60.00  24.00   1.00    1.00    --  -41.65  37.00 -30.00   84
  3  \w     45.00  83.00   1.00    1.00    --   41.65-125.00 120.00   38
  4  \w    101.00 174.00   1.00    2.00    --  112.00 111.00  90.00   73
  5  \w     42.00  91.00   1.00    2.00    --  112.00 -94.00  30.00   49
  6  \w     37.00 128.00   1.00    2.00    --  112.00 -30.00-180.00   91
  7  \w     77.00 104.00   1.00    2.00    --  112.00 -94.00  60.00   27
  8  \w     32.00  71.00   1.00    2.00    --  112.00 -94.00  60.00   39
  9  \w     63.00 141.00   1.00    2.00    --  112.00 -61.00  30.00   78
 10  \w     40.00 133.00   1.00    2.00    --  112.00 -61.00 150.00   93
;
_diffrn_measurement_device       'four-circle diffractometer'
_diffrn_measurement_device_type  'SuperNova, Dual, Cu at zero, Atlas'
_diffrn_measurement_method       '\w scans'
_diffrn_orient_matrix_type
'CrysAlisPro convention (1999,Acta A55,543-557)'
_diffrn_orient_matrix_UB_11      -0.0620266000
_diffrn_orient_matrix_UB_12      0.0435017000
_diffrn_orient_matrix_UB_13      0.1285330000
_diffrn_orient_matrix_UB_21      -0.0832803000
_diffrn_orient_matrix_UB_22      0.0777831000
_diffrn_orient_matrix_UB_23      -0.0767051000
_diffrn_orient_matrix_UB_31      -0.3509222000
_diffrn_orient_matrix_UB_32      -0.0261243000
_diffrn_orient_matrix_UB_33      -0.0148044000
_diffrn_radiation_monochromator  mirror
_diffrn_radiation_probe          x-ray
_diffrn_radiation_type           CuK\a
_diffrn_radiation_wavelength     1.54184
_diffrn_reflns_av_R_equivalents  0.0321
_diffrn_reflns_av_unetI/netI     0.0421
_diffrn_reflns_Laue_measured_fraction_full 0.997
_diffrn_reflns_Laue_measured_fraction_max 0.973
_diffrn_reflns_limit_h_max       2
_diffrn_reflns_limit_h_min       -5
_diffrn_reflns_limit_k_max       16
_diffrn_reflns_limit_k_min       -20
_diffrn_reflns_limit_l_max       12
_diffrn_reflns_limit_l_min       -12
_diffrn_reflns_number            2847
_diffrn_reflns_point_group_measured_fraction_full 0.719
_diffrn_reflns_point_group_measured_fraction_max 0.683
_diffrn_reflns_theta_full        67.684
_diffrn_reflns_theta_max         76.873
_diffrn_reflns_theta_min         4.315
_diffrn_source                   'micro-focus sealed X-ray tube'
_diffrn_source_type              'SuperNova (Cu) X-ray Source'
_exptl_absorpt_coefficient_mu    2.533
_exptl_absorpt_correction_T_max  0.954
_exptl_absorpt_correction_T_min  0.863
_exptl_absorpt_correction_type   analytical
_exptl_absorpt_process_details
;
CrysAlisPro 1.171.38.43 (Rigaku Oxford Diffraction, 2015)
Analytical numeric absorption correction using a multifaceted crystal
			model based on expressions derived by R.C. Clark & J.S. Reid.
(Clark, R. C. & Reid, J. S. (1995). Acta Cryst. A51, 887-897)
Empirical absorption correction using spherical harmonics,
 implemented in SCALE3 ABSPACK scaling algorithm.
;
_exptl_crystal_colour            orange
_exptl_crystal_colour_primary    orange
_exptl_crystal_density_diffrn    1.481
_exptl_crystal_description       block
_exptl_crystal_F_000             332
_exptl_crystal_size_max          0.389
_exptl_crystal_size_mid          0.07
_exptl_crystal_size_min          0.069
_refine_diff_density_max         0.268
_refine_diff_density_min         -0.375
_refine_diff_density_rms         0.064
_refine_ls_abs_structure_details
;
 Classical Flack method preferred over Parsons because s.u. lower.
;
_refine_ls_abs_structure_Flack   0.00(2)
_refine_ls_extinction_method     none
_refine_ls_goodness_of_fit_ref   1.077
_refine_ls_hydrogen_treatment    constr
_refine_ls_matrix_type           full
_refine_ls_number_parameters     201
_refine_ls_number_reflns         2072
_refine_ls_number_restraints     1
_refine_ls_restrained_S_all      1.076
_refine_ls_R_factor_all          0.0418
_refine_ls_R_factor_gt           0.0391
_refine_ls_shift/su_max          0.001
_refine_ls_shift/su_mean         0.000
_refine_ls_structure_factor_coef Fsqd
_refine_ls_weighting_details
'w=1/[\s^2^(Fo^2^)+(0.0685P)^2^] where P=(Fo^2^+2Fc^2^)/3'
_refine_ls_weighting_scheme      calc
_refine_ls_wR_factor_gt          0.1024
_refine_ls_wR_factor_ref         0.1061
_reflns_Friedel_coverage         0.354
_reflns_Friedel_fraction_full    0.420
_reflns_Friedel_fraction_max     0.370
_reflns_number_gt                1977
_reflns_number_total             2072
_reflns_threshold_expression     'I > 2\s(I)'
_cod_data_source_file            d1nj00456e2.cif
_cod_data_source_block           compound_1a_noncentro
_cod_depositor_comments
'Adding full bibliography for 7060468--7060480.cif.'
_cod_database_code               7060472
_shelx_shelxl_version_number     2018/3
_chemical_oxdiff_formula         'C16 H14 Cl N O'
_shelx_space_group_comment
;
The symmetry employed for this shelxl refinement is uniquely defined
by the following loop, which should always be used as a source of
symmetry information in preference to the above space-group names.
They are only intended as comments.
;
_shelx_estimated_absorpt_t_max   0.845
_shelx_estimated_absorpt_t_min   0.439
_reflns_odcompleteness_completeness 99.02
_reflns_odcompleteness_iscentric 1
_reflns_odcompleteness_theta     74.33
_olex2_refinement_description
;
1. Fixed Uiso
 At 1.2 times of:
  All C(H) groups
 At 1.5 times of:
  All C(H,H,H) groups
2.a Aromatic/amide H refined with riding coordinates:
 C2(H2), C3(H3), C5(H5), C6(H6), C7(H7), C8(H8), C10(H10), C11(H11)
2.b Idealised Me refined as rotating group:
 C15(H15A,H15B,H15C), C16(H16A,H16B,H16C)
;
_shelx_res_file
;
TITL ek1833_a2_a.res in P2(1)
    ek1833_a2.res
    created by SHELXL-2018/3 at 12:38:28 on 25-Feb-2021
REM Old TITL ek1833_a2 in P2(1)
REM SHELXT solution in P2(1): R1 0.092, Rweak 0.028, Alpha 0.001
REM <I/s> 0.626 for 10 systematic absences, Orientation as input
REM Flack x = 0.092 ( 0.024 ) from 502 Parsons' quotients
REM Formula found by SHELXT: C17 N O3 Cl
CELL 1.54184 4.2178 16.5839 10.27 90 93.821 90
ZERR 2 0.0002 0.0006 0.0004 0 0.004 0
LATT -1
SYMM -X,0.5+Y,-Z
SFAC C H Cl N O
UNIT 32 28 2 2 8
EQIV $1 1+X,+Y,-1+Z
EQIV $2 1-X,0.5+Y,1-Z
EQIV $3 2-X,-0.5+Y,-Z

L.S. 4
PLAN  2
SIZE 0.069 0.07 0.389
HTAB C2 O4_$1
HTAB C5 O3_$2
HTAB C10 O1_$3
BOND $H
list 4
conf
fmap 2
acta
REM <olex2.extras>
REM <HklSrc "%.\\ek1833_a2.hkl">
REM </olex2.extras>

WGHT    0.068500
FVAR       1.08220
CL1   3    0.532833    0.540061    0.602944    11.00000    0.03605    0.02171 =
         0.01993   -0.00393    0.00263   -0.00332
O1    5    1.349232    0.791054   -0.072678    11.00000    0.07243    0.02808 =
         0.02888   -0.00035    0.01245   -0.01524
O2    5    1.443677    0.696996   -0.210842    11.00000    0.04894    0.03203 =
         0.02500    0.00224    0.01311   -0.00357
O3    5   -0.068116    0.279746    0.609724    11.00000    0.03286    0.02636 =
         0.02025   -0.00044    0.00354   -0.00646
O4    5    0.172701    0.414580    0.722878    11.00000    0.02910    0.02560 =
         0.01690   -0.00047    0.00235    0.00277
N1    4    1.325377    0.720837   -0.112364    11.00000    0.03688    0.02616 =
         0.01761    0.00195    0.00009   -0.00170
C1    1    1.145122    0.663674   -0.036148    11.00000    0.02578    0.02426 =
         0.01602    0.00072   -0.00002   -0.00071
C2    1    1.091076    0.586249   -0.084173    11.00000    0.03006    0.02623 =
         0.01611   -0.00173    0.00174   -0.00030
AFIX  43
H2    2    1.163939    0.570372   -0.163735    11.00000   -1.20000
AFIX   0
C3    1    0.925928    0.533873   -0.009871    11.00000    0.02972    0.02392 =
         0.02103   -0.00485    0.00051   -0.00223
AFIX  43
H3    2    0.885839    0.481901   -0.040749    11.00000   -1.20000
AFIX   0
C4    1    0.816336    0.556169    0.110515    11.00000    0.02162    0.02023 =
         0.02002   -0.00086   -0.00153    0.00189
C5    1    0.872916    0.635387    0.154227    11.00000    0.02926    0.02268 =
         0.02068   -0.00509    0.00261    0.00108
AFIX  43
H5    2    0.797941    0.651837    0.233112    11.00000   -1.20000
AFIX   0
C6    1    1.039262    0.689571    0.081377    11.00000    0.02990    0.02395 =
         0.02023   -0.00333    0.00219    0.00108
AFIX  43
H6    2    1.078411    0.741883    0.110858    11.00000   -1.20000
AFIX   0
C7    1    0.647290    0.496799    0.185865    11.00000    0.02766    0.02112 =
         0.02046   -0.00238    0.00148   -0.00182
AFIX  43
H7    2    0.586372    0.448947    0.144118    11.00000   -1.20000
AFIX   0
C8    1    0.573731    0.505759    0.309268    11.00000    0.02651    0.01900 =
         0.02345   -0.00184   -0.00093    0.00118
AFIX  43
H8    2    0.636618    0.553488    0.350939    11.00000   -1.20000
AFIX   0
C9    1    0.402563    0.447122    0.385218    11.00000    0.02330    0.02229 =
         0.01827    0.00022    0.00300    0.00362
C10   1    0.266081    0.378117    0.327847    11.00000    0.02708    0.02541 =
         0.01482   -0.00184    0.00033    0.00199
AFIX  43
H10   2    0.282836    0.369732    0.239032    11.00000   -1.20000
AFIX   0
C11   1    0.105814    0.321340    0.398396    11.00000    0.02708    0.02264 =
         0.01993   -0.00266   -0.00089    0.00117
AFIX  43
H11   2    0.016746    0.276117    0.356773    11.00000   -1.20000
AFIX   0
C12   1    0.079336    0.332431    0.531114    11.00000    0.02430    0.02076 =
         0.02147   -0.00052    0.00080    0.00223
C13   1    0.210728    0.401526    0.593639    11.00000    0.02444    0.02219 =
         0.01756   -0.00137    0.00076    0.00278
C14   1    0.372081    0.457407    0.519713    11.00000    0.02317    0.02028 =
         0.02065   -0.00196   -0.00081    0.00277
C15   1   -0.207054    0.209793    0.548175    11.00000    0.02922    0.02523 =
         0.02541    0.00060   -0.00108   -0.00742
AFIX 137
H15A  2   -0.361752    0.225945    0.480389    11.00000   -1.50000
H15B  2   -0.308403    0.178041    0.611614    11.00000   -1.50000
H15C  2   -0.044404    0.178368    0.511148    11.00000   -1.50000
AFIX   0
C16   1    0.399149    0.371678    0.807158    11.00000    0.03338    0.03269 =
         0.01300    0.00207   -0.00112   -0.00055
AFIX 137
H16A  2    0.384647    0.315036    0.788407    11.00000   -1.50000
H16B  2    0.354870    0.380883    0.896432    11.00000   -1.50000
H16C  2    0.609485    0.390400    0.793043    11.00000   -1.50000
AFIX   0
HKLF 4




REM  ek1833_a2_a.res in P2(1)
REM wR2 = 0.1061, GooF = S = 1.077, Restrained GooF = 1.076 for all data
REM R1 = 0.0391 for 1977 Fo > 4sig(Fo) and 0.0418 for all 2072 data
REM 201 parameters refined using 1 restraints

END

WGHT      0.0685      0.0000

REM Highest difference peak  0.268,  deepest hole -0.375,  1-sigma level  0.064
Q1    1   0.7285  0.5401  0.4360  11.00000  0.05    0.27
Q2    1   1.3402  0.5405 -0.2359  11.00000  0.05    0.25
;
_shelx_res_checksum              74104
_ins_header
;
TITL ek1833_a2 in P2(1) 
REM P2(1) (#4 in standard setting)
CELL 1.54184   4.217774  16.583920  10.269984  90.0000  93.8207  90.0000
ZERR    2.00   0.000160   0.000558   0.000413   0.0000   0.0037   0.0000
LATT -1
SYMM -x, y+1/2,-z 
SFAC C H N O Cl
UNIT 32.00 28.00 2.00 2.00 2.00
TREF
HKLF 4
END
;
_olex2_submission_special_instructions 'No special instructions were received'
_oxdiff_exptl_absorpt_empirical_details
;
Empirical correction (ABSPACK) includes:
- Absorption correction using spherical harmonics
- Frame scaling
;
_oxdiff_exptl_absorpt_empirical_full_max 1.520
_oxdiff_exptl_absorpt_empirical_full_min 0.753
loop_
_space_group_symop_operation_xyz
'x, y, z'
'-x, y+1/2, -z'
loop_
_atom_site_label
_atom_site_type_symbol
_atom_site_fract_x
_atom_site_fract_y
_atom_site_fract_z
_atom_site_U_iso_or_equiv
_atom_site_adp_type
_atom_site_occupancy
_atom_site_site_symmetry_order
_atom_site_calc_flag
_atom_site_refinement_flags_posn
_atom_site_refinement_flags_adp
_atom_site_refinement_flags_occupancy
_atom_site_disorder_assembly
_atom_site_disorder_group
Cl1 Cl 0.53283(18) 0.54006(5) 0.60294(7) 0.0259(2) Uani 1 1 d . . . . .
O1 O 1.3492(9) 0.79105(19) -0.0727(3) 0.0427(8) Uani 1 1 d . . . . .
O2 O 1.4437(8) 0.69700(19) -0.2108(3) 0.0348(6) Uani 1 1 d . . . . .
O3 O -0.0681(6) 0.27975(16) 0.6097(2) 0.0264(6) Uani 1 1 d . . . . .
O4 O 0.1727(6) 0.41458(16) 0.7229(2) 0.0238(5) Uani 1 1 d . . . . .
N1 N 1.3254(8) 0.7208(2) -0.1124(3) 0.0270(6) Uani 1 1 d . . . . .
C1 C 1.1451(8) 0.6637(2) -0.0361(3) 0.0221(6) Uani 1 1 d . . . . .
C2 C 1.0911(8) 0.5862(2) -0.0842(3) 0.0241(7) Uani 1 1 d . . . . .
H2 H 1.163939 0.570372 -0.163735 0.029 Uiso 1 1 calc R . . . .
C3 C 0.9259(7) 0.5339(2) -0.0099(3) 0.0249(6) Uani 1 1 d . . . . .
H3 H 0.885839 0.481901 -0.040749 0.030 Uiso 1 1 calc R . . . .
C4 C 0.8163(7) 0.55617(19) 0.1105(3) 0.0208(7) Uani 1 1 d . . . . .
C5 C 0.8729(8) 0.6354(2) 0.1542(3) 0.0242(7) Uani 1 1 d . . . . .
H5 H 0.797941 0.651837 0.233112 0.029 Uiso 1 1 calc R . . . .
C6 C 1.0393(8) 0.6896(2) 0.0814(3) 0.0247(7) Uani 1 1 d . . . . .
H6 H 1.078411 0.741883 0.110858 0.030 Uiso 1 1 calc R . . . .
C7 C 0.6473(8) 0.4968(2) 0.1859(3) 0.0231(7) Uani 1 1 d . . . . .
H7 H 0.586372 0.448947 0.144118 0.028 Uiso 1 1 calc R . . . .
C8 C 0.5737(8) 0.5058(2) 0.3093(3) 0.0231(6) Uani 1 1 d . . . . .
H8 H 0.636618 0.553488 0.350939 0.028 Uiso 1 1 calc R . . . .
C9 C 0.4026(8) 0.4471(2) 0.3852(3) 0.0212(6) Uani 1 1 d . . . . .
C10 C 0.2661(8) 0.3781(2) 0.3278(3) 0.0225(6) Uani 1 1 d . . . . .
H10 H 0.282836 0.369732 0.239032 0.027 Uiso 1 1 calc R . . . .
C11 C 0.1058(8) 0.3213(2) 0.3984(3) 0.0233(7) Uani 1 1 d . . . . .
H11 H 0.016746 0.276117 0.356773 0.028 Uiso 1 1 calc R . . . .
C12 C 0.0793(8) 0.3324(2) 0.5311(3) 0.0222(6) Uani 1 1 d . . . . .
C13 C 0.2107(8) 0.4015(2) 0.5936(3) 0.0214(6) Uani 1 1 d . . . . .
C14 C 0.3721(8) 0.4574(2) 0.5197(3) 0.0215(7) Uani 1 1 d . . . . .
C15 C -0.2071(8) 0.2098(2) 0.5482(4) 0.0267(7) Uani 1 1 d . . . . .
H15A H -0.361752 0.225945 0.480389 0.040 Uiso 1 1 calc GR . . . .
H15B H -0.308403 0.178041 0.611614 0.040 Uiso 1 1 calc GR . . . .
H15C H -0.044404 0.178368 0.511148 0.040 Uiso 1 1 calc GR . . . .
C16 C 0.3991(9) 0.3717(3) 0.8072(3) 0.0265(7) Uani 1 1 d . . . . .
H16A H 0.384647 0.315036 0.788407 0.040 Uiso 1 1 calc GR . . . .
H16B H 0.354870 0.380883 0.896432 0.040 Uiso 1 1 calc GR . . . .
H16C H 0.609485 0.390400 0.793043 0.040 Uiso 1 1 calc GR . . . .
loop_
_atom_site_aniso_label
_atom_site_aniso_U_11
_atom_site_aniso_U_22
_atom_site_aniso_U_33
_atom_site_aniso_U_23
_atom_site_aniso_U_13
_atom_site_aniso_U_12
Cl1 0.0361(4) 0.0217(4) 0.0199(4) -0.0039(3) 0.0026(3) -0.0033(3)
O1 0.072(2) 0.0281(15) 0.0289(15) -0.0003(12) 0.0125(14) -0.0152(15)
O2 0.0489(15) 0.0320(15) 0.0250(14) 0.0022(12) 0.0131(11) -0.0036(13)
O3 0.0329(13) 0.0264(14) 0.0203(12) -0.0004(10) 0.0035(9) -0.0065(11)
O4 0.0291(11) 0.0256(12) 0.0169(11) -0.0005(10) 0.0023(9) 0.0028(10)
N1 0.0369(15) 0.0262(15) 0.0176(14) 0.0020(12) 0.0001(11) -0.0017(13)
C1 0.0258(14) 0.0243(16) 0.0160(15) 0.0007(13) 0.0000(12) -0.0007(13)
C2 0.0301(15) 0.0262(17) 0.0161(15) -0.0017(13) 0.0017(12) -0.0003(13)
C3 0.0297(14) 0.0239(15) 0.0210(14) -0.0048(15) 0.0005(11) -0.0022(16)
C4 0.0216(13) 0.0202(17) 0.0200(14) -0.0009(12) -0.0015(11) 0.0019(11)
C5 0.0293(15) 0.0227(16) 0.0207(16) -0.0051(14) 0.0026(12) 0.0011(13)
C6 0.0299(16) 0.0240(16) 0.0202(15) -0.0033(14) 0.0022(13) 0.0011(13)
C7 0.0277(14) 0.0211(17) 0.0205(15) -0.0024(14) 0.0015(12) -0.0018(13)
C8 0.0265(14) 0.0190(14) 0.0235(16) -0.0018(13) -0.0009(12) 0.0012(13)
C9 0.0233(14) 0.0223(16) 0.0183(15) 0.0002(13) 0.0030(11) 0.0036(13)
C10 0.0271(15) 0.0254(16) 0.0148(15) -0.0018(13) 0.0003(11) 0.0020(13)
C11 0.0271(16) 0.0226(15) 0.0199(16) -0.0027(14) -0.0009(13) 0.0012(13)
C12 0.0243(14) 0.0208(15) 0.0215(16) -0.0005(13) 0.0008(12) 0.0022(13)
C13 0.0244(14) 0.0222(16) 0.0176(15) -0.0014(13) 0.0008(12) 0.0028(13)
C14 0.0232(14) 0.0203(15) 0.0207(16) -0.0020(13) -0.0008(12) 0.0028(12)
C15 0.0292(15) 0.0252(17) 0.0254(17) 0.0006(14) -0.0011(13) -0.0074(14)
C16 0.0334(17) 0.0327(19) 0.0130(16) 0.0021(14) -0.0011(12) -0.0006(15)
loop_
_atom_type_symbol
_atom_type_description
_atom_type_scat_dispersion_real
_atom_type_scat_dispersion_imag
_atom_type_scat_source
C C 0.0181 0.0091 'International Tables Vol C Tables 4.2.6.8 and 6.1.1.4'
H H 0.0000 0.0000 'International Tables Vol C Tables 4.2.6.8 and 6.1.1.4'
Cl Cl 0.3639 0.7018 'International Tables Vol C Tables 4.2.6.8 and 6.1.1.4'
N N 0.0311 0.0180 'International Tables Vol C Tables 4.2.6.8 and 6.1.1.4'
O O 0.0492 0.0322 'International Tables Vol C Tables 4.2.6.8 and 6.1.1.4'
loop_
_exptl_crystal_face_index_h
_exptl_crystal_face_index_k
_exptl_crystal_face_index_l
_exptl_crystal_face_perp_dist
0 -5 -3 0.0203
1 5 2 0.1199
-1 -5 -2 0.0979
0 5 -3 0.0411
0 -5 3 0.0291
-1 5 -3 0.0725
-1 7 5 0.0616
1 -6 -5 0.0651
0 7 5 0.0448
loop_
_geom_angle_atom_site_label_1
_geom_angle_atom_site_label_2
_geom_angle_atom_site_label_3
_geom_angle
_geom_angle_site_symmetry_1
_geom_angle_site_symmetry_3
_geom_angle_publ_flag
C12 O3 C15 116.6(3) . . ?
C13 O4 C16 113.0(3) . . ?
O1 N1 C1 117.7(3) . . ?
O2 N1 O1 123.3(3) . . ?
O2 N1 C1 119.0(3) . . ?
C2 C1 N1 119.0(3) . . ?
C6 C1 N1 118.2(3) . . ?
C6 C1 C2 122.8(3) . . ?
C1 C2 H2 121.2 . . ?
C3 C2 C1 117.6(3) . . ?
C3 C2 H2 121.2 . . ?
C2 C3 H3 118.9 . . ?
C2 C3 C4 122.2(3) . . ?
C4 C3 H3 118.9 . . ?
C3 C4 C5 118.1(3) . . ?
C3 C4 C7 119.3(3) . . ?
C5 C4 C7 122.5(3) . . ?
C4 C5 H5 119.5 . . ?
C6 C5 C4 121.0(3) . . ?
C6 C5 H5 119.5 . . ?
C1 C6 C5 118.2(3) . . ?
C1 C6 H6 120.9 . . ?
C5 C6 H6 120.9 . . ?
C4 C7 H7 117.3 . . ?
C8 C7 C4 125.4(3) . . ?
C8 C7 H7 117.3 . . ?
C7 C8 H8 117.1 . . ?
C7 C8 C9 125.9(3) . . ?
C9 C8 H8 117.1 . . ?
C10 C9 C8 121.6(3) . . ?
C10 C9 C14 116.9(3) . . ?
C14 C9 C8 121.5(3) . . ?
C9 C10 H10 118.8 . . ?
C11 C10 C9 122.5(3) . . ?
C11 C10 H10 118.8 . . ?
C10 C11 H11 120.1 . . ?
C12 C11 C10 119.7(3) . . ?
C12 C11 H11 120.1 . . ?
O3 C12 C11 124.4(3) . . ?
O3 C12 C13 115.5(3) . . ?
C11 C12 C13 120.0(3) . . ?
O4 C13 C12 120.3(3) . . ?
O4 C13 C14 121.0(3) . . ?
C14 C13 C12 118.7(3) . . ?
C9 C14 Cl1 121.5(3) . . ?
C13 C14 Cl1 116.4(2) . . ?
C13 C14 C9 122.1(3) . . ?
O3 C15 H15A 109.5 . . ?
O3 C15 H15B 109.5 . . ?
O3 C15 H15C 109.5 . . ?
H15A C15 H15B 109.5 . . ?
H15A C15 H15C 109.5 . . ?
H15B C15 H15C 109.5 . . ?
O4 C16 H16A 109.5 . . ?
O4 C16 H16B 109.5 . . ?
O4 C16 H16C 109.5 . . ?
H16A C16 H16B 109.5 . . ?
H16A C16 H16C 109.5 . . ?
H16B C16 H16C 109.5 . . ?
loop_
_geom_bond_atom_site_label_1
_geom_bond_atom_site_label_2
_geom_bond_distance
_geom_bond_site_symmetry_2
_geom_bond_publ_flag
Cl1 C14 1.730(3) . ?
O1 N1 1.236(5) . ?
O2 N1 1.223(4) . ?
O3 C12 1.367(4) . ?
O3 C15 1.428(4) . ?
O4 C13 1.365(4) . ?
O4 C16 1.434(4) . ?
N1 C1 1.473(4) . ?
C1 C2 1.389(5) . ?
C1 C6 1.383(5) . ?
C2 H2 0.9300 . ?
C2 C3 1.376(5) . ?
C3 H3 0.9300 . ?
C3 C4 1.398(5) . ?
C4 C5 1.404(5) . ?
C4 C7 1.466(5) . ?
C5 H5 0.9300 . ?
C5 C6 1.389(5) . ?
C6 H6 0.9300 . ?
C7 H7 0.9300 . ?
C7 C8 1.333(5) . ?
C8 H8 0.9300 . ?
C8 C9 1.466(5) . ?
C9 C10 1.394(5) . ?
C9 C14 1.406(5) . ?
C10 H10 0.9300 . ?
C10 C11 1.391(5) . ?
C11 H11 0.9300 . ?
C11 C12 1.387(5) . ?
C12 C13 1.409(5) . ?
C13 C14 1.403(5) . ?
C15 H15A 0.9600 . ?
C15 H15B 0.9600 . ?
C15 H15C 0.9600 . ?
C16 H16A 0.9600 . ?
C16 H16B 0.9600 . ?
C16 H16C 0.9600 . ?
loop_
_geom_torsion_atom_site_label_1
_geom_torsion_atom_site_label_2
_geom_torsion_atom_site_label_3
_geom_torsion_atom_site_label_4
_geom_torsion
_geom_torsion_site_symmetry_1
_geom_torsion_site_symmetry_2
_geom_torsion_site_symmetry_3
_geom_torsion_site_symmetry_4
_geom_torsion_publ_flag
O1 N1 C1 C2 174.5(3) . . . . ?
O1 N1 C1 C6 -6.0(5) . . . . ?
O2 N1 C1 C2 -5.5(5) . . . . ?
O2 N1 C1 C6 173.9(3) . . . . ?
O3 C12 C13 O4 -3.3(4) . . . . ?
O3 C12 C13 C14 178.6(3) . . . . ?
O4 C13 C14 Cl1 2.9(4) . . . . ?
O4 C13 C14 C9 -177.2(3) . . . . ?
N1 C1 C2 C3 179.1(3) . . . . ?
N1 C1 C6 C5 -179.1(3) . . . . ?
C1 C2 C3 C4 -0.5(5) . . . . ?
C2 C1 C6 C5 0.2(5) . . . . ?
C2 C3 C4 C5 1.4(5) . . . . ?
C2 C3 C4 C7 -178.8(3) . . . . ?
C3 C4 C5 C6 -1.4(5) . . . . ?
C3 C4 C7 C8 169.1(3) . . . . ?
C4 C5 C6 C1 0.6(5) . . . . ?
C4 C7 C8 C9 179.5(3) . . . . ?
C5 C4 C7 C8 -11.0(5) . . . . ?
C6 C1 C2 C3 -0.3(5) . . . . ?
C7 C4 C5 C6 178.8(3) . . . . ?
C7 C8 C9 C10 -7.5(5) . . . . ?
C7 C8 C9 C14 171.6(3) . . . . ?
C8 C9 C10 C11 179.3(3) . . . . ?
C8 C9 C14 Cl1 0.4(4) . . . . ?
C8 C9 C14 C13 -179.6(3) . . . . ?
C9 C10 C11 C12 -0.3(5) . . . . ?
C10 C9 C14 Cl1 179.6(2) . . . . ?
C10 C9 C14 C13 -0.4(5) . . . . ?
C10 C11 C12 O3 -178.8(3) . . . . ?
C10 C11 C12 C13 0.9(5) . . . . ?
C11 C12 C13 O4 177.0(3) . . . . ?
C11 C12 C13 C14 -1.1(4) . . . . ?
C12 C13 C14 Cl1 -179.0(2) . . . . ?
C12 C13 C14 C9 0.9(5) . . . . ?
C14 C9 C10 C11 0.1(5) . . . . ?
C15 O3 C12 C11 -1.1(5) . . . . ?
C15 O3 C12 C13 179.2(3) . . . . ?
C16 O4 C13 C12 82.8(4) . . . . ?
C16 O4 C13 C14 -99.1(4) . . . . ?
loop_
_exptl_oxdiff_crystal_face_indexfrac_h
_exptl_oxdiff_crystal_face_indexfrac_k
_exptl_oxdiff_crystal_face_indexfrac_l
_exptl_oxdiff_crystal_face_x
_exptl_oxdiff_crystal_face_y
_exptl_oxdiff_crystal_face_z
-0.0000 -5.0000 -3.0000 -0.6031 -0.1588 0.1750
1.0000 5.0000 2.0000 0.4125 0.1522 -0.5112
-1.0000 -5.0000 -2.0000 -0.4125 -0.1522 0.5112
0.0000 5.0000 -3.0000 -0.1681 0.6190 -0.0862
-0.0000 -5.0000 3.0000 0.1681 -0.6190 0.0862
-1.0000 5.0000 -3.0000 -0.1061 0.7023 0.2647
-1.0000 7.0000 5.0000 1.0092 0.2442 0.0940
1.0000 -6.0000 -5.0000 -0.9657 -0.1665 -0.1202
0.0000 7.0000 5.0000 0.9472 0.1610 -0.2569
loop_
_hkl_oxdiff_h
_hkl_oxdiff_k
_hkl_oxdiff_l
_hkl_oxdiff_f2
_hkl_oxdiff_sig
_hkl_oxdiff_ba
0 -20 0 9057.86 542.345 6
0 -20 -1 365.799 130.437 6
0 -20 1 379.171 131.440 6
0 -20 2 1634.60 227.740 6
0 -20 -2 1328.00 207.249 6
0 -20 3 1189.96 168.965 6
0 -20 -3 931.359 158.313 6
0 -19 0 -46.1402 107.320 6
0 -19 1 3600.86 401.768 6
0 -19 -1 2778.89 368.352 6
0 -19 2 7132.22 555.285 6
0 -19 -2 5944.05 529.630 6
0 -19 3 4584.74 417.579 6
0 -19 -3 3674.57 402.460 6
0 -19 4 4046.52 356.439 6
0 -19 -4 2737.61 320.462 6
0 -19 -5 25.2926 55.4324 6
0 -18 0 10767.1 803.307 6
0 -18 1 7581.45 667.400 6
0 -18 -1 7660.14 698.460 6
0 -18 -2 1372.63 316.695 6
0 -18 2 1586.80 297.424 6
0 -18 3 1058.35 246.290 6
0 -18 4 4413.07 445.542 6
0 -18 5 18762.8 812.359 6
0 -18 6 774.323 144.210 6
0 -17 0 -40.6734 142.600 6
0 -17 -1 30772.9 1499.32 6
0 -17 1 29557.2 1429.62 6
0 -17 2 9777.25 812.904 6
0 -17 2 6651.79 553.985 10
0 -17 3 8696.77 740.864 6
0 -17 3 7184.30 570.956 10
0 -17 4 2569.52 322.435 10
0 -17 4 2401.31 377.323 6
0 -17 5 3190.70 387.471 6
0 -17 6 4782.11 426.682 6
0 -17 7 12094.6 537.301 6
0 -16 0 10176.0 916.904 6
0 -16 1 11758.7 815.966 10
0 -16 1 12998.1 1011.41 6
0 -16 2 28419.2 1446.54 6
0 -16 2 26334.6 1208.08 10
0 -16 3 14553.8 1022.68 6
0 -16 3 14567.8 910.121 10
0 -16 4 1183.28 256.088 10
0 -16 4 1241.73 293.838 6
0 -16 5 4807.03 528.229 6
0 -16 6 16870.1 921.404 6
0 -16 7 3339.44 359.962 6
0 -15 0 99.9657 171.692 10
0 -15 1 41761.9 1871.65 6
0 -15 1 41136.6 1572.60 10
0 -15 2 106570. 2898.58 6
0 -15 2 105729. 2542.34 10
0 -15 3 61423.2 1953.33 10
0 -15 3 60169.5 2151.25 6
0 -15 4 9239.84 769.727 10
0 -15 4 8519.98 800.878 6
0 -15 5 1927.75 378.082 6
0 -15 5 1990.18 357.529 10
0 -15 6 3647.33 473.260 6
0 -15 7 3550.87 427.178 6
0 -15 8 34718.0 1096.61 6
0 -14 0 4825.35 545.416 10
0 -14 1 34966.2 1456.89 10
0 -14 1 33788.6 1685.86 6
0 -14 1 38961.8 2836.55 2
0 -14 2 22884.8 1350.72 6
0 -14 2 21651.7 2129.63 2
0 -14 2 21255.1 1170.17 10
0 -14 3 13549.4 954.468 10
0 -14 3 14761.9 1083.19 6
0 -14 4 357.582 158.542 6
0 -14 4 361.541 155.187 10
0 -14 5 30227.6 1415.47 10
0 -14 5 29067.9 1459.09 6
0 -14 6 10931.7 861.272 6
0 -14 7 3432.64 447.728 6
0 -14 8 12041.3 744.289 6
0 -14 9 5287.94 395.634 6
0 -13 0 2.09094 153.861 10
0 -13 1 4905.60 551.296 10
0 -13 1 5639.86 1081.86 2
0 -13 2 13304.3 909.649 10
0 -13 2 12326.8 1526.41 2
0 -13 2 13939.7 1049.16 6
0 -13 3 3484.79 805.583 2
0 -13 3 2160.17 372.273 10
0 -13 3 2294.22 452.836 6
0 -13 4 50845.1 1985.55 6
0 -13 4 52062.1 1880.44 10
0 -13 5 2482.63 432.945 6
0 -13 5 3604.51 513.021 10
0 -13 6 15185.8 1060.47 6
0 -13 7 662.528 212.817 6
0 -13 8 5046.79 548.833 6
0 -13 9 2805.98 348.036 6
0 -12 0 94746.3 4161.34 2
0 -12 1 9329.25 1328.55 2
0 -12 2 12722.5 976.900 6
0 -12 2 12004.7 1452.67 2
0 -12 3 7758.15 691.256 10
0 -12 3 7162.66 1135.62 2
0 -12 3 8596.02 794.465 6
0 -12 4 38226.4 2610.84 2
0 -12 4 41725.9 1778.72 6
0 -12 4 40354.1 1635.27 10
0 -12 5 36345.9 1678.96 6
0 -12 5 37934.5 1641.35 10
0 -12 6 2487.71 434.880 10
0 -12 6 2182.76 417.146 6
0 -12 7 9646.92 851.240 6
0 -12 8 5581.42 601.646 6
0 -12 9 1050.91 247.661 6
0 -12 10 8657.39 529.235 6
0 -11 0 366.394 300.692 2
0 -11 1 13484.1 1507.06 2
0 -11 2 32925.0 2255.81 2
0 -11 3 22475.6 1909.55 2
0 -11 4 16336.0 1084.10 6
0 -11 4 16771.8 1014.95 10
0 -11 4 15464.2 1596.74 2
0 -11 5 3196.83 467.832 10
0 -11 5 3647.23 553.289 6
0 -11 5 3174.87 712.829 2
0 -11 6 15862.5 1112.27 6
0 -11 -6 15673.6 1033.15 10
0 -11 6 16610.9 1101.74 10
0 -11 -7 8019.84 741.458 10
0 -11 7 8843.12 832.936 6
0 -11 8 8367.66 772.341 6
0 -11 8 8045.39 694.074 4
0 -11 9 7295.23 672.544 6
0 -11 9 7687.82 605.569 4
0 -11 10 573.510 161.556 4
0 -11 10 183.678 123.623 6
0 -10 0 8980.31 1154.68 2
0 -10 1 58836.9 2862.69 2
0 -10 2 36474.3 2250.16 2
0 -10 3 226.842 337.488 2
0 -10 4 6712.37 1018.83 2
0 -10 5 17444.9 1696.03 2
0 -10 5 19734.0 1204.83 6
0 -10 5 19123.5 1124.79 10
0 -10 6 4258.41 550.239 10
0 -10 6 5172.35 638.042 6
0 -10 6 4959.04 937.645 2
0 -10 7 45385.9 1885.46 6
0 -10 -8 49037.7 1817.49 10
0 -10 8 52274.7 1974.06 6
0 -10 8 51602.4 1836.47 4
0 -10 9 4517.50 552.818 6
0 -10 -9 3628.69 461.821 10
0 -10 10 924.510 268.858 6
0 -10 10 1573.69 275.526 4
0 -10 11 4751.10 330.789 4
0 -9 0 -1096.62 407.679 2
0 -9 1 930.674 351.398 2
0 -9 -1 1292.13 484.361 2
0 -9 2 150244. 4270.67 2
0 -9 3 18043.9 1500.26 2
0 -9 4 1901.94 581.484 2
0 -9 5 17004.1 1599.80 2
0 -9 6 815.293 276.489 10
0 -9 6 780.167 239.215 6
0 -9 7 94858.1 2711.91 6
0 -9 8 24078.0 1373.62 6
0 -9 9 216.851 204.211 4
0 -9 9 530.582 219.644 6
0 -9 10 226.384 196.240 4
0 -9 -10 20.4569 142.306 10
0 -9 10 7.48455 118.478 6
0 -9 11 3883.42 360.670 4
0 -8 0 232533. 5005.98 2
0 -8 -1 6912.71 922.647 2
0 -8 1 7061.15 869.804 2
0 -8 2 83879.0 2968.68 2
0 -8 3 170255. 4350.29 2
0 -8 4 22635.5 1644.37 2
0 -8 5 69027.8 3033.24 2
0 -8 6 80145.4 3468.20 2
0 -8 6 78291.1 2264.62 10
0 -8 6 85467.7 2427.86 6
0 -8 -6 75343.1 2262.17 9
0 -8 7 20791.7 1262.39 6
0 -8 7 23536.5 1988.08 2
0 -8 -7 20248.0 1251.01 9
0 -8 8 17830.1 1197.01 6
0 -8 9 43638.4 1838.32 6
0 -8 10 12493.2 873.498 4
0 -8 10 11437.0 897.436 6
0 -8 11 11995.4 706.385 4
0 -7 0 66.5246 157.845 2
0 -7 -1 246433. 4771.69 2
0 -7 1 225997. 4440.10 2
0 -7 2 113627. 3163.81 2
0 -7 3 54648.8 2262.70 2
0 -7 4 69452.4 2693.35 2
0 -7 5 19435.2 1529.21 2
0 -7 6 119264. 4161.93 2
0 -7 -7 47477.3 1886.76 9
0 -7 7 48180.3 1885.52 6
0 -7 7 44345.4 2747.30 2
0 -7 8 125759. 3175.14 6
0 -7 -8 126189. 3254.74 9
0 -7 9 10028.7 915.787 6
0 -7 10 598.023 240.663 4
0 -7 10 307.327 159.106 6
0 -7 11 14852.7 842.043 4
0 -7 12 6128.56 406.699 4
0 -6 0 274526. 4460.81 2
0 -6 1 1019.46 350.685 2
0 -6 -1 624.106 266.510 2
0 -6 2 13071.0 989.103 2
0 -6 3 3053.90 501.325 2
0 -6 4 29966.8 1783.49 2
0 -6 5 48629.6 2436.01 2
0 -6 6 36856.5 2288.96 2
0 -6 -7 6554.19 701.025 9
0 -6 7 7432.08 732.028 6
0 -6 7 7041.20 1104.95 2
0 -6 8 7851.55 1257.86 2
0 -6 8 8013.10 823.334 6
0 -6 -8 8836.24 867.706 9
0 -6 -9 21072.5 1362.30 9
0 -6 9 19931.6 1301.33 6
0 -6 10 28515.6 1503.09 6
0 -6 11 2475.96 382.279 4
0 -6 12 530.772 145.948 4
0 -5 0 60.3413 154.587 2
0 -5 -1 58525.0 1913.79 2
0 -5 1 65106.5 1962.27 2
0 -5 2 12637.1 889.357 2
0 -5 3 68872.6 2281.05 2
0 -5 4 79556.4 2569.21 2
0 -5 5 36195.6 1888.37 2
0 -5 6 26305.2 1805.12 2
0 -5 -7 15726.2 1050.83 9
0 -5 7 15785.4 1543.78 2
0 -5 8 6777.63 748.222 6
0 -5 8 7235.56 1144.71 2
0 -5 -8 5228.82 659.601 9
0 -5 9 29941.2 1614.50 6
0 -5 -9 33580.5 1724.43 9
0 -5 10 20391.7 1321.48 6
0 -5 -10 21225.7 1332.85 9
0 -5 11 11700.4 829.626 4
0 -5 12 7860.67 540.007 4
0 -4 0 68669.5 1773.73 2
0 -4 1 20626.9 967.065 2
0 -4 -1 19705.5 973.379 2
0 -4 2 134296. 2704.75 2
0 -4 3 54203.8 1751.72 2
0 -4 4 139177. 3165.87 2
0 -4 5 34320.3 1794.33 2
0 -4 6 19919.7 1508.54 2
0 -4 7 206.475 204.026 2
0 -4 8 10065.7 906.211 6
0 -4 -8 10609.5 922.127 9
0 -4 8 10356.0 1321.82 2
0 -4 9 5578.15 710.122 6
0 -4 -9 5973.49 754.384 9
0 -4 10 33606.5 1723.79 6
0 -4 -10 34417.5 1711.37 9
0 -4 11 1652.98 308.398 4
0 -4 12 6018.83 506.190 4
0 -3 0 -37.5486 107.821 2
0 -3 1 55717.6 1395.44 2
0 -3 2 323844. 3554.99 2
0 -3 3 231198. 3512.44 2
0 -3 6 44446.9 2257.60 2
0 -3 7 23868.6 1823.23 2
0 -3 8 14731.1 1098.24 6
0 -3 8 15455.6 1618.21 2
0 -3 -8 14814.2 1092.35 9
0 -3 -9 -120.392 217.802 9
0 -3 9 -31.8126 201.692 6
0 -3 10 3675.91 595.910 6
0 -3 -10 2740.15 516.939 9
0 -3 11 7540.64 693.170 4
0 -3 12 26653.7 1073.37 4
0 -2 0 26151.5 749.237 2
0 -2 1 477693. 3327.71 2
0 -2 3 62324.7 1646.07 1
0 -2 4 9612.32 743.816 1
0 -2 5 15268.0 1070.93 1
0 -2 6 10811.8 1039.84 1
0 -2 -8 7360.32 766.171 9
0 -2 8 6779.58 739.834 6
0 -2 8 8247.14 1208.49 2
0 -2 -9 21758.3 1365.08 9
0 -2 9 20873.8 1401.64 6
0 -2 10 20966.4 1429.44 6
0 -2 -10 23285.2 1380.49 9
0 -2 11 1295.80 299.436 4
0 -2 12 2955.36 362.247 4
0 -1 0 234.816 64.5346 2
0 -1 1 3978.73 240.189 1
0 -1 2 92978.6 1561.70 1
0 -1 3 34768.2 1181.01 1
0 -1 4 109314. 2454.43 1
0 -1 5 96320.6 2723.47 1
0 -1 6 53927.3 2276.21 1
0 -1 7 18703.3 1485.36 1
0 -1 -8 24952.7 1349.65 9
0 -1 8 22238.2 1363.23 6
0 -1 -9 2762.82 505.706 9
0 -1 9 2553.01 546.741 6
0 -1 -10 16049.2 1139.08 9
0 -1 11 17814.5 1067.84 4
0 -1 12 2707.77 343.616 4
0 0 1 30191.8 603.174 1
0 0 2 86476.5 1458.35 1
0 0 3 109.839 125.181 1
0 0 4 177193. 3097.45 1
0 0 5 49417.0 1907.90 1
0 0 6 67224.9 2515.58 1
0 0 7 3990.88 702.893 1
0 0 8 439.845 279.736 1
0 0 8 416.854 287.012 6
0 0 -8 519.777 254.911 9
0 0 -9 27393.4 1464.75 9
0 0 9 23375.2 1565.21 6
0 0 -10 97484.1 2715.55 9
0 0 11 -37.0114 228.521 4
0 0 12 358.606 167.327 4
0 1 1 4774.64 262.071 1
0 1 2 88081.3 1527.89 1
0 1 3 36121.8 1188.54 1
0 1 -4 90352.8 998.155 3
0 1 4 100360. 2350.06 1
0 1 5 94769.8 2624.75 1
0 1 6 62064.1 2427.31 1
0 1 7 22206.5 1633.50 1
0 1 8 19958.7 1365.99 6
0 1 -8 23030.5 1226.13 9
0 1 8 23123.4 1835.38 1
0 1 -9 4096.81 592.558 9
0 1 11 16702.2 982.691 4
0 2 2 60368.0 1271.14 1
0 2 3 65445.8 1683.73 1
0 2 4 13337.6 868.549 1
0 2 5 14986.5 1064.29 1
0 2 6 15579.5 1239.50 1
0 2 7 27448.0 1835.18 1
0 2 8 6612.29 986.705 1
0 3 2 334955. 3436.85 1
0 3 3 236218. 3332.30 1
0 3 4 12726.8 897.784 1
0 3 5 8349.09 829.527 1
0 3 6 49985.3 2246.64 1
0 3 7 26713.3 1830.00 1
0 3 8 13416.2 1408.21 1
0 4 2 118118. 2270.33 1
0 4 3 49551.9 1530.31 1
0 4 4 151055. 3201.08 1
0 4 5 38327.5 1809.96 1
0 4 6 19427.4 1451.37 1
0 4 7 698.202 330.270 1
0 4 8 11309.2 1318.40 1
0 5 3 66538.4 2058.00 1
0 5 4 75530.0 2393.20 1
0 5 5 40717.5 1947.30 1
0 5 6 27848.9 1776.07 1
0 5 7 14652.6 1424.89 1
0 5 8 5724.59 906.919 1
0 6 3 5537.32 661.026 1
0 6 4 31469.5 1622.44 1
0 6 5 42159.3 2102.14 1
0 6 6 41058.6 2235.39 1
0 6 7 7460.42 1044.91 1
0 6 8 8867.04 1227.58 1
0 7 3 45305.2 1951.61 1
0 7 4 67736.7 2438.39 1
0 7 5 19664.5 1508.21 1
0 7 6 115037. 3906.10 1
0 7 7 49951.6 2803.23 1
0 8 3 178979. 4178.46 1
0 8 4 21216.0 1439.20 1
0 8 5 72437.1 3055.21 1
0 8 6 91997.1 3666.34 1
0 8 7 21493.4 1874.72 1
0 9 3 12847.3 1217.86 1
0 9 4 2041.56 489.391 1
0 9 5 18058.3 1609.75 1
0 9 6 183.968 216.425 1
0 10 3 846.286 364.415 1
0 10 4 9052.34 1086.99 1
0 10 5 20726.5 1795.78 1
0 10 6 4508.37 917.122 1
0 11 3 30705.5 2108.29 1
0 11 4 18293.4 1619.94 1
0 11 5 3249.79 763.787 1
0 12 2 13582.7 1496.07 1
0 12 3 8300.68 1157.80 1
0 12 4 40436.5 2456.32 1
0 13 2 15695.7 1615.05 1
0 13 3 2758.64 731.543 1
0 14 2 21908.8 1973.57 1
-1 -20 3 2349.68 220.712 6
-1 -20 2 662.338 139.941 6
-1 -20 1 8791.48 493.683 6
-1 -20 0 8816.16 501.414 6
-1 -20 -1 7958.83 460.849 6
-1 -20 -2 2725.49 246.243 6
-1 -19 5 773.666 129.655 6
-1 -19 4 936.287 178.050 6
1 -19 -4 451.700 110.083 6
1 -19 -3 755.250 159.087 6
-1 -19 3 1080.84 201.149 6
-1 -19 3 1198.25 193.696 10
-1 -19 2 4278.69 373.497 10
-1 -19 2 3731.23 392.618 6
-1 -19 1 4360.81 431.793 6
1 -19 -1 3413.50 340.733 6
-1 -19 1 4025.97 362.609 10
-1 -19 0 2281.73 275.084 10
-1 -19 0 1902.03 288.959 6
1 -19 0 1488.59 230.882 6
-1 -19 -1 17443.1 855.691 6
1 -19 1 16418.9 692.353 6
-1 -19 -1 17353.5 709.139 10
-1 -19 -2 11605.8 671.259 6
-1 -19 -2 11608.7 538.153 10
-1 -19 -3 2101.39 269.816 6
-1 -19 -4 1201.70 179.905 6
-1 -18 6 991.332 159.733 6
-1 -18 5 8798.44 553.388 6
-1 -18 4 7248.84 555.480 6
-1 -18 4 7013.13 503.473 10
-1 -18 3 7773.81 618.759 6
-1 -18 3 8186.74 584.686 10
-1 -18 2 2572.49 343.253 10
1 -18 -2 2355.24 351.716 6
-1 -18 2 3327.94 424.755 6
-1 -18 1 12711.4 837.783 6
1 -18 -1 11990.5 759.268 6
-1 -18 1 11803.9 721.058 10
-1 -18 0 2529.07 337.959 10
-1 -18 0 3026.10 427.126 6
1 -18 0 2616.85 359.547 6
-1 -18 -1 5977.57 503.626 10
1 -18 1 6029.84 522.185 6
-1 -18 -1 6972.53 627.869 6
1 -18 2 13218.7 718.206 6
-1 -18 -2 13283.2 845.085 6
-1 -18 -2 12721.4 695.146 10
1 -18 3 3585.84 342.440 6
-1 -18 -3 3683.86 365.002 10
-1 -18 -3 3542.46 430.554 6
-1 -18 -4 6430.23 412.969 10
-1 -18 -4 5405.44 481.186 6
-1 -18 -5 12756.5 608.270 6
-1 -17 7 15743.2 637.220 6
-1 -17 6 2325.65 299.606 6
-1 -17 5 57.3414 126.927 10
-1 -17 5 10.7779 106.491 6
-1 -17 4 11853.2 807.195 6
-1 -17 4 12164.8 772.667 10
-1 -17 3 12621.6 877.573 6
-1 -17 3 11945.4 788.011 10
-1 -17 2 15253.4 903.271 10
-1 -17 2 15756.6 997.974 6
-1 -17 1 661.188 226.585 6
-1 -17 1 539.631 204.690 10
1 -17 -1 1246.25 309.985 6
1 -17 0 -157.099 146.821 6
-1 -17 0 168.284 160.512 10
-1 -17 0 128.200 200.327 6
-1 -17 -1 18657.3 1142.77 6
-1 -17 -1 18352.9 985.443 10
1 -17 1 16536.8 955.772 6
-1 -17 -2 46702.4 1777.92 6
-1 -17 -2 46236.8 1513.11 10
1 -17 2 46865.7 1564.55 6
-1 -17 -3 16742.7 877.202 10
1 -17 3 17563.3 884.145 6
-1 -17 -4 4893.38 440.593 10
-1 -17 -5 7198.22 472.404 10
-1 -17 -6 2113.86 271.185 6
-1 -16 8 1324.03 193.605 6
-1 -16 7 1156.96 225.924 6
-1 -16 6 15869.4 889.415 6
-1 -16 5 7090.81 608.174 10
-1 -16 5 7920.19 677.146 6
-1 -16 4 2930.78 451.416 6
-1 -16 4 3599.93 488.689 10
-1 -16 3 566.079 234.058 10
-1 -16 3 540.645 205.684 6
-1 -16 2 6012.43 665.678 6
-1 -16 2 6012.68 627.202 10
-1 -16 1 902.402 264.096 6
-1 -16 1 1177.85 292.560 10
-1 -16 0 7128.30 758.509 6
-1 -16 0 6816.20 656.071 10
1 -16 0 7381.38 722.907 6
-1 -16 -1 8426.71 827.429 6
1 -16 1 9892.23 811.930 6
-1 -16 -1 8447.62 724.897 10
-1 -16 -2 7616.35 683.184 10
1 -16 2 7946.78 709.894 6
1 -16 3 2945.89 428.033 6
-1 -16 -3 2443.32 386.795 10
-1 -16 -4 50677.7 1603.52 10
1 -16 4 51724.0 1566.98 6
-1 -16 -5 3857.32 421.359 10
-1 -16 -6 8418.49 530.659 10
-1 -15 8 5240.26 448.191 6
-1 -15 7 17891.0 943.537 6
-1 -15 6 1260.37 291.579 10
-1 -15 6 1355.13 308.092 6
-1 -15 5 -209.260 190.064 10
-1 -15 5 -67.4878 148.343 6
-1 -15 4 5159.55 594.629 10
-1 -15 4 5387.22 638.298 6
-1 -15 3 11334.8 883.282 10
-1 -15 3 11459.6 937.450 6
-1 -15 2 34203.0 1639.11 6
-1 -15 2 35686.3 1562.95 10
-1 -15 1 353.859 223.962 10
-1 -15 1 446.065 200.058 6
-1 -15 0 30188.5 1429.47 10
1 -15 0 32887.8 1576.30 6
-1 -15 0 31566.8 1634.47 6
1 -15 1 4545.50 587.728 6
-1 -15 -1 4232.43 559.172 10
-1 -15 -2 23042.1 1248.19 10
1 -15 2 24306.3 1275.29 6
-1 -15 -3 5686.01 619.881 10
1 -15 3 6848.90 653.271 6
-1 -15 -4 11883.9 865.121 10
1 -15 4 12173.3 841.785 6
-1 -15 -5 6417.20 597.593 10
1 -15 5 7852.75 616.600 6
-1 -15 -6 1847.18 311.609 10
-1 -15 -7 5272.62 430.227 10
-1 -14 9 3206.51 332.417 6
-1 -14 8 2848.58 373.942 6
-1 -14 7 2792.07 429.449 6
-1 -14 6 10974.9 881.309 6
-1 -14 6 10445.7 832.676 10
-1 -14 5 25250.8 1382.61 6
-1 -14 5 26267.8 1382.04 10
-1 -14 4 27871.8 1407.40 10
-1 -14 4 28640.4 1508.52 6
-1 -14 3 759.895 252.916 6
-1 -14 3 1102.84 312.629 10
-1 -14 2 10667.0 930.799 6
-1 -14 2 10909.5 890.080 10
-1 -14 1 81031.6 2380.73 10
-1 -14 1 79585.6 2566.22 6
-1 -14 0 8501.11 781.578 10
1 -14 1 3981.91 567.723 6
-1 -14 -1 4391.32 580.257 10
1 -14 2 10500.7 868.786 6
-1 -14 -2 10382.4 878.091 10
1 -14 3 6102.55 650.656 6
-1 -14 -3 5504.12 636.840 10
1 -14 4 5534.69 599.026 6
-1 -14 -4 4911.22 606.198 10
1 -14 5 16466.4 963.495 6
-1 -14 -5 16069.0 1031.30 10
-1 -14 -6 1366.37 302.541 10
-1 -14 -7 676.615 199.696 10
-1 -14 -8 8830.94 530.702 10
-1 -13 10 5288.49 367.672 6
-1 -13 9 12761.2 762.448 6
-1 -13 8 12637.3 867.918 6
-1 -13 7 11614.8 910.832 6
-1 -13 6 18833.1 1204.38 6
-1 -13 6 18937.0 1169.85 10
-1 -13 5 1390.57 363.252 10
-1 -13 5 871.640 286.662 6
-1 -13 4 6162.89 709.603 6
-1 -13 4 6317.18 699.106 10
-1 -13 3 40194.3 1788.35 6
-1 -13 3 40496.2 1710.95 10
-1 -13 3 40896.0 2889.05 2
-1 -13 2 6080.85 1094.31 2
-1 -13 2 5730.52 687.322 6
-1 -13 2 4790.81 593.189 10
-1 -13 1 117048. 2844.59 10
-1 -13 1 118291. 3110.26 6
-1 -13 1 125054. 4968.30 2
-1 -13 0 3640.17 512.313 10
-1 -13 -1 21001.8 1221.02 10
1 -13 1 22185.5 1265.59 6
1 -13 2 28666.4 1413.04 6
-1 -13 -2 27338.5 1420.42 10
-1 -13 -3 27333.7 1441.16 10
1 -13 3 28947.7 1390.28 6
-1 -13 -4 7763.40 797.384 10
1 -13 4 7012.60 674.582 6
-1 -13 -5 4174.73 584.962 10
1 -13 5 4917.98 552.383 6
-1 -13 -6 26264.6 1346.80 10
-1 -13 -7 12021.2 839.562 10
-1 -13 -8 1762.47 299.647 10
-1 -13 -9 6305.68 407.415 10
-1 -12 10 8334.04 570.564 6
-1 -12 9 11087.3 790.378 6
-1 -12 8 741.576 236.370 6
-1 -12 7 20725.2 1275.07 6
-1 -12 6 24574.5 1416.66 6
-1 -12 6 24281.9 1362.40 10
-1 -12 5 10075.8 875.675 10
-1 -12 5 9731.57 901.709 6
-1 -12 4 7599.95 1215.21 2
-1 -12 4 7558.29 788.302 6
-1 -12 4 8226.04 774.302 10
-1 -12 3 16982.0 1828.77 2
-1 -12 3 15968.2 1118.02 6
-1 -12 3 15638.5 1053.55 10
-1 -12 2 77504.5 2284.34 10
-1 -12 2 79049.6 3790.20 2
-1 -12 2 77626.7 2450.54 6
-1 -12 1 67541.0 3514.99 2
-1 -12 1 64856.1 2058.46 10
-1 -12 1 67378.4 2275.50 6
-1 -12 0 89611.2 4075.98 2
-1 -12 0 82891.3 2374.00 10
-1 -12 -1 971.827 317.797 10
1 -12 2 8691.19 747.929 6
-1 -12 -2 9562.73 836.509 10
1 -12 3 7139.92 685.950 6
-1 -12 -3 6340.29 714.055 10
1 -12 4 4116.13 520.270 6
-1 -12 -4 4316.88 606.685 10
-1 -12 -5 16368.8 1152.11 10
1 -12 5 16556.9 1020.30 6
-1 -12 -6 17215.3 1148.79 10
-1 -12 -7 4667.72 578.823 10
-1 -12 -8 9439.82 721.885 10
-1 -12 -9 11342.5 666.278 10
-1 -11 10 -91.7094 127.338 4
-1 -11 10 90.2233 119.867 6
-1 -11 9 16427.1 911.867 4
-1 -11 9 18109.4 1100.11 6
-1 -11 8 10838.9 843.544 4
-1 -11 8 11160.6 926.916 6
-1 -11 7 8328.30 835.764 6
-1 -11 7 7079.89 727.967 4
-1 -11 7 7542.04 770.670 10
-1 -11 6 82497.9 2628.17 6
-1 -11 6 84265.1 2573.36 10
-1 -11 5 8743.68 800.780 10
-1 -11 5 8645.14 854.084 6
-1 -11 5 7322.38 1205.43 2
-1 -11 4 13029.2 1018.96 6
-1 -11 4 11575.1 928.911 10
-1 -11 4 10771.9 1368.54 2
-1 -11 3 59212.8 1966.80 10
-1 -11 3 59823.9 3195.46 2
-1 -11 3 59905.4 2111.11 6
-1 -11 2 -73.8881 389.020 2
-1 -11 1 30263.2 2246.66 2
-1 -11 0 17614.0 1709.99 2
1 -11 1 22828.3 1788.87 2
1 -11 2 2633.74 620.304 2
-1 -11 -3 1346.73 353.570 10
-1 -11 -4 118.325 230.227 10
-1 -11 -5 5412.46 697.641 10
-1 -11 -6 3828.58 615.752 10
-1 -11 -7 11152.6 934.365 10
-1 -11 -8 1462.61 349.536 10
1 -11 9 1634.40 236.543 4
-1 -11 -9 1362.08 275.646 10
-1 -11 -10 1439.56 216.245 10
-1 -10 11 5592.42 359.330 4
-1 -10 11 5989.15 472.318 6
-1 -10 10 19189.1 1061.64 6
-1 -10 10 17777.3 885.388 4
-1 -10 9 967.140 299.103 6
-1 -10 9 2136.00 397.683 4
-1 -10 8 3398.59 545.940 4
-1 -10 8 3481.62 550.749 6
-1 -10 7 7867.58 791.653 4
-1 -10 7 8647.27 886.689 6
-1 -10 7 7505.76 776.243 10
-1 -10 6 126092. 3122.54 4
-1 -10 6 129467. 3299.99 6
-1 -10 6 118422. 4826.75 2
-1 -10 6 129574. 3174.99 10
-1 -10 5 6596.78 690.949 10
-1 -10 5 6900.54 759.166 6
-1 -10 5 5466.79 976.144 2
-1 -10 4 58905.2 2097.68 6
-1 -10 4 57255.2 1935.18 10
-1 -10 4 54309.8 2981.45 2
-1 -10 3 11350.3 1347.79 2
-1 -10 2 21443.0 1786.84 2
-1 -10 1 116860. 4133.08 2
-1 -10 0 9070.39 1142.13 2
1 -10 1 31568.1 1970.74 2
1 -10 2 13156.0 1257.93 2
1 -10 3 46087.1 2362.20 2
-1 -10 -4 81987.6 2509.39 10
-1 -10 -5 17400.0 1204.91 10
-1 -10 -6 6236.59 746.943 10
-1 -10 -6 5954.93 660.922 9
-1 -10 -7 4418.82 574.880 9
-1 -10 -7 5386.39 690.658 10
-1 -10 -8 23629.2 1323.65 10
-1 -10 -9 53216.4 1785.27 10
-1 -10 -10 3655.80 392.115 10
1 -10 10 4279.63 363.433 4
-1 -9 11 212.539 141.414 6
-1 -9 11 102.829 103.883 4
-1 -9 10 31.1258 135.763 6
-1 -9 10 228.687 182.222 4
-1 -9 9 1288.34 342.016 4
-1 -9 9 964.355 318.109 6
-1 -9 8 21976.0 1391.05 6
-1 -9 8 20181.5 1289.34 4
-1 -9 7 55494.7 2210.81 6
-1 -9 7 54944.2 2140.69 4
-1 -9 7 55483.5 2080.64 10
-1 -9 6 7883.21 798.700 4
-1 -9 6 8379.27 842.658 6
-1 -9 6 8036.14 777.320 10
-1 -9 6 8549.04 1279.92 2
-1 -9 5 21828.4 1298.09 6
-1 -9 5 20508.4 1172.43 10
-1 -9 5 20454.9 1879.18 2
-1 -9 4 21411.6 1794.21 2
-1 -9 3 22255.1 1757.34 2
-1 -9 2 53492.7 2613.62 2
-1 -9 1 26170.8 1824.29 2
-1 -9 0 38569.7 2218.58 2
1 -9 1 21821.9 1523.28 2
-1 -9 -1 18413.5 1560.29 2
1 -9 2 75804.0 2805.51 2
1 -9 3 82710.6 3053.34 2
1 -9 4 5913.79 864.140 2
-1 -9 -5 11837.7 876.539 9
-1 -9 -6 8627.11 833.478 9
-1 -9 -7 35271.0 1644.73 9
-1 -9 -8 25250.5 1379.33 9
-1 -9 -10 1077.45 271.075 10
1 -9 11 704.735 141.178 4
-1 -9 -11 328.287 111.676 10
-1 -8 11 14456.7 786.581 4
-1 -8 11 13848.7 886.947 6
-1 -8 10 1490.07 309.449 4
-1 -8 10 1671.45 379.323 6
-1 -8 9 4915.58 620.240 4
-1 -8 9 5183.73 693.340 6
-1 -8 8 1128.89 386.409 4
-1 -8 8 1139.31 365.697 6
-1 -8 7 248.182 229.046 4
-1 -8 7 239.777 589.526 2
-1 -8 7 258.650 183.971 10
-1 -8 7 68.4078 155.739 6
-1 -8 6 35974.7 2481.04 2
-1 -8 6 36699.8 1726.26 6
-1 -8 6 34634.5 1657.28 4
-1 -8 6 33831.9 1551.60 10
-1 -8 5 50496.0 2790.74 2
-1 -8 4 14812.2 1426.68 2
-1 -8 3 1968.17 525.961 2
-1 -8 2 4725.04 745.569 2
-1 -8 1 13984.6 1215.55 2
-1 -8 0 2679.41 569.909 2
1 -8 0 2558.88 491.580 2
1 -8 1 41384.2 1912.31 2
-1 -8 -1 46242.7 2320.17 2
1 -8 2 14254.6 1166.26 2
1 -8 3 1430.68 401.972 2
1 -8 4 86806.5 3017.56 2
-1 -8 -6 16599.6 1099.52 9
-1 -8 -7 2979.84 508.490 9
-1 -8 -8 47435.6 1961.18 9
-1 -8 -9 9425.05 861.342 9
1 -8 11 3088.31 312.079 4
-1 -8 -11 2672.21 315.463 10
-1 -7 12 7489.20 442.008 4
-1 -7 11 3960.98 536.833 6
-1 -7 11 5074.76 507.532 4
-1 -7 10 5530.33 630.465 4
-1 -7 10 5404.45 698.069 6
-1 -7 9 12750.9 1092.79 6
-1 -7 9 12015.3 993.965 4
-1 -7 8 13672.8 1127.68 6
-1 -7 8 12958.6 1052.71 4
-1 -7 7 23577.2 2125.60 2
-1 -7 7 21567.3 1353.53 4
-1 -7 7 23806.0 1419.43 6
-1 -7 6 15600.5 1633.54 2
-1 -7 6 18637.6 1192.87 6
-1 -7 6 17258.9 1074.86 10
-1 -7 5 3550.63 719.041 2
-1 -7 4 35273.7 2078.30 2
-1 -7 3 15648.7 1300.47 2
-1 -7 2 34004.0 1834.33 2
-1 -7 1 15396.4 1200.98 2
1 -7 0 28113.6 1494.94 2
-1 -7 0 27724.2 1640.61 2
-1 -7 -1 74601.0 2725.42 2
1 -7 1 74590.5 2381.53 2
1 -7 2 34470.3 1639.34 2
1 -7 3 107210. 2980.47 2
1 -7 4 3450.87 599.931 2
1 -7 5 209.048 241.415 2
-1 -7 -6 18317.1 1109.29 9
-1 -7 -7 42083.3 1793.59 9
-1 -7 -8 21712.4 1354.79 9
-1 -7 -9 11604.1 989.033 9
-1 -7 -10 23943.5 1301.20 9
-1 -7 -11 6407.29 524.709 10
1 -7 11 7306.45 522.977 4
-1 -6 12 374.609 124.100 4
-1 -6 11 360.423 217.814 6
-1 -6 11 349.945 185.667 4
-1 -6 10 35674.7 1591.84 4
-1 -6 10 36573.1 1802.58 6
-1 -6 9 20894.8 1330.36 4
-1 -6 9 21352.7 1435.85 6
-1 -6 8 9390.17 890.432 4
-1 -6 8 9177.03 928.920 6
-1 -6 7 49370.9 2018.66 6
-1 -6 7 50789.5 3211.76 2
-1 -6 7 48066.7 1969.85 4
-1 -6 6 6773.12 1109.60 2
-1 -6 5 60521.3 2997.61 2
-1 -6 4 109300. 3498.92 2
-1 -6 3 5670.51 747.772 2
-1 -6 2 82592.9 2638.86 2
-1 -6 1 55567.1 2092.84 2
-1 -6 0 85584.0 2592.07 2
1 -6 0 91155.1 2346.63 2
-1 -6 -1 72444.4 2454.35 2
1 -6 1 79815.8 2183.40 2
1 -6 2 167505. 3273.92 2
1 -6 3 13546.4 1010.87 2
1 -6 4 30079.1 1596.72 2
1 -6 5 146679. 3797.52 2
1 -6 6 25501.7 1724.67 2
-1 -6 -7 57714.4 2095.54 9
-1 -6 -8 361.895 228.982 9
-1 -6 -9 7154.78 810.110 9
-1 -6 -10 8446.00 805.335 9
1 -6 12 5774.39 352.013 4
-1 -5 12 11436.1 650.800 4
-1 -5 11 12073.7 845.857 4
-1 -5 11 10066.1 916.144 6
-1 -5 10 3890.07 638.441 6
-1 -5 10 4341.04 601.612 4
-1 -5 9 43847.5 1906.92 4
-1 -5 9 45215.2 2113.41 6
-1 -5 8 79941.2 2692.42 6
-1 -5 8 78820.2 2553.69 4
-1 -5 8 82423.2 4080.36 2
-1 -5 7 81012.9 2560.27 6
-1 -5 7 82659.0 3810.66 2
-1 -5 6 36079.3 2314.67 2
-1 -5 5 8337.71 1035.04 2
-1 -5 4 4658.65 734.978 2
-1 -5 3 260383. 4775.74 2
-1 -5 2 55501.0 1989.65 2
-1 -5 1 68957.9 2119.12 2
1 -5 0 53642.6 1587.88 2
-1 -5 0 54150.2 1870.38 2
1 -5 1 86250.0 2023.12 2
-1 -5 -1 83016.7 2380.15 2
1 -5 2 175650. 3076.74 2
1 -5 3 40801.1 1592.18 2
1 -5 4 26127.6 1413.87 2
1 -5 5 7640.24 913.581 2
1 -5 6 64638.8 2798.74 2
-1 -5 -7 97164.0 2671.76 9
-1 -5 -8 11876.0 1021.20 9
-1 -5 -9 4252.31 643.072 9
-1 -5 -10 10346.4 936.641 9
-1 -5 -11 14200.9 921.969 9
1 -5 12 6907.58 424.463 4
-1 -5 -12 5806.80 393.883 10
-1 -4 12 5401.91 480.953 4
-1 -4 11 18318.8 1046.19 4
-1 -4 10 10692.1 901.192 4
-1 -4 10 11810.2 1100.47 6
-1 -4 9 37404.3 1930.34 6
-1 -4 9 36588.8 1718.48 4
-1 -4 8 76983.8 2643.27 6
-1 -4 8 76949.3 2466.97 4
-1 -4 8 71138.4 3616.38 2
-1 -4 7 18139.1 1183.29 6
-1 -4 7 16872.9 1646.96 2
-1 -4 6 38970.1 2275.83 2
-1 -4 5 25600.8 1672.81 2
-1 -4 4 2608.03 521.136 2
-1 -4 3 104079. 2799.78 2
-1 -4 2 35294.1 1491.12 2
-1 -4 1 16592.2 961.909 2
-1 -4 0 168840. 2964.46 2
-1 -4 -1 29332.4 1274.78 2
1 -4 1 32565.1 1077.28 2
1 -4 2 34986.8 1223.61 2
1 -4 3 4546.50 548.385 2
1 -4 4 62394.2 2028.98 2
1 -4 5 800.662 298.552 2
1 -4 6 4414.19 709.873 2
-1 -4 -7 1731.98 365.311 9
-1 -4 -8 22406.7 1390.92 9
-1 -4 -9 11670.8 1037.41 9
-1 -4 -10 173.777 218.025 9
-1 -4 -11 1893.01 402.341 9
1 -4 12 680.021 150.449 4
-1 -3 12 20331.5 919.961 4
-1 -3 11 782.541 276.213 4
-1 -3 10 8016.85 776.954 4
-1 -3 10 7356.09 888.372 6
-1 -3 9 18614.2 1213.74 4
-1 -3 9 18308.0 1365.41 6
-1 -3 8 58182.1 2116.82 4
-1 -3 8 58501.5 2300.36 6
-1 -3 8 58706.4 3225.16 2
-1 -3 7 12529.2 1419.52 2
-1 -3 6 11948.5 1273.12 2
-1 -3 5 54171.1 2439.86 2
-1 -3 4 36250.0 1764.77 2
-1 -3 3 91529.7 2405.98 2
-1 -3 2 203066. 3339.32 2
-1 -3 1 82725.5 1877.15 2
-1 -3 0 933324. 6099.49 2
1 -3 1 66079.6 1265.07 2
-1 -3 -1 59099.9 1583.53 2
1 -3 2 266998. 3067.49 2
1 -3 3 56700.1 1565.46 2
1 -3 4 577.203 205.589 2
1 -3 5 1224.39 341.422 2
1 -3 6 4433.17 721.943 2
-1 -3 -7 47058.0 1826.01 9
1 -3 7 36046.3 2171.86 2
-1 -3 -8 38187.1 1776.14 9
-1 -3 -9 978.362 324.739 9
-1 -3 -10 16545.9 1182.54 9
-1 -3 -11 1852.28 380.611 9
1 -3 12 3235.52 315.947 4
-1 -2 12 4562.04 449.927 4
-1 -2 11 14459.5 935.519 4
-1 -2 10 28859.2 1440.44 4
-1 -2 10 27110.7 1715.49 6
-1 -2 9 53458.3 2344.26 6
-1 -2 9 54095.8 2013.81 4
-1 -2 8 5823.70 735.393 6
-1 -2 8 6286.96 680.660 4
-1 -2 8 5913.59 1084.04 2
-1 -2 7 10134.6 1286.88 2
-1 -2 3 28335.4 1318.57 2
-1 -2 2 2216.87 323.895 2
-1 -2 1 471832. 4352.39 3
-1 -2 1 467942. 4068.94 2
-1 -2 0 236549. 2610.03 2
1 -2 1 999999. 3702.59 2
-1 -2 -1 844424. 6037.65 3
1 -2 2 137978. 1849.56 2
-1 -2 -2 125819. 2414.17 3
1 -2 3 27411.9 1093.39 1
-1 -2 -3 31180.6 1287.70 3
1 -2 4 47715.9 1666.12 1
-1 -2 -4 55090.0 1744.95 3
1 -2 5 129763. 3200.97 1
1 -2 6 23690.7 1544.12 1
1 -2 7 5122.20 855.821 2
-1 -2 -7 5758.53 642.158 9
-1 -2 -8 11827.2 1005.10 9
-1 -2 -9 41809.5 1923.33 9
-1 -2 -10 24539.9 1448.66 9
-1 -2 -11 9723.82 826.138 9
1 -2 12 1258.06 223.094 4
-1 -1 12 8319.37 569.410 4
-1 -1 11 2355.05 388.656 4
-1 -1 10 969.803 320.490 4
-1 -1 9 4287.31 695.289 6
-1 -1 9 4433.67 601.081 4
-1 -1 8 2591.86 520.149 6
-1 -1 8 4015.94 551.773 4
-1 -1 5 12462.6 1043.21 1
-1 -1 4 160447. 3185.78 1
-1 -1 2 71757.1 1557.35 3
-1 -1 1 100578. 1577.48 2
-1 -1 1 98996.4 1806.63 3
-1 -1 0 57701.8 1017.00 2
1 -1 1 374600. 2291.52 1
-1 -1 -1 372927. 3719.86 3
1 -1 2 66024.9 1342.09 1
-1 -1 -2 64953.5 1638.85 3
1 -1 3 67691.1 1684.14 1
-1 -1 -3 71454.5 1816.98 3
1 -1 4 34803.3 1436.26 1
-1 -1 -4 38909.5 1410.56 3
1 -1 5 11989.9 991.432 1
1 -1 6 13128.1 1147.66 1
1 -1 7 62056.8 2767.60 1
-1 -1 -8 6794.72 781.607 9
-1 -1 -9 5985.54 752.328 9
-1 -1 -10 5399.50 691.978 9
-1 -1 -11 4361.67 536.894 9
1 -1 12 17348.4 733.399 4
-1 0 12 434.247 142.270 4
-1 0 11 3882.41 474.284 4
-1 0 10 10951.6 884.576 4
-1 0 9 6416.18 847.049 6
-1 0 9 6897.13 706.255 4
-1 0 8 5643.86 747.723 6
-1 0 8 5590.74 593.263 4
-1 0 7 7097.24 985.665 1
-1 0 6 18014.1 1342.96 1
-1 0 5 113534. 3039.22 1
-1 0 4 472.518 243.848 1
-1 0 3 14234.1 788.492 1
-1 0 2 71434.1 1376.99 1
-1 0 2 72524.4 1426.16 3
-1 0 1 22251.4 840.044 3
-1 0 0 9408.40 253.983 2
1 0 1 415793. 2456.74 1
-1 0 -2 873601. 6075.31 3
1 0 2 859398. 4877.23 1
1 0 3 13882.4 766.895 1
-1 0 -3 15451.2 856.721 3
-1 0 -4 25884.2 1130.10 3
1 0 4 26323.9 1235.74 1
1 0 5 9259.94 860.837 1
1 0 6 14856.0 1237.28 1
1 0 7 18840.2 1531.44 1
1 0 8 -118.977 151.382 1
-1 0 -8 234.141 177.419 9
-1 0 -9 537.820 282.907 9
-1 0 -10 37996.1 1727.18 9
-1 0 -11 20022.0 1136.16 9
1 0 12 11084.0 555.949 4
-1 1 11 2269.66 339.640 4
-1 1 10 1143.76 304.619 4
-1 1 9 7022.63 701.856 4
-1 1 8 3013.83 569.753 6
-1 1 8 2914.95 438.652 4
-1 1 8 1518.16 488.463 1
-1 1 7 17508.0 1471.29 1
-1 1 6 37142.6 1977.98 1
-1 1 5 14026.0 1048.12 1
-1 1 4 156085. 3034.76 1
-1 1 3 79462.5 1810.61 1
-1 1 3 80369.4 1363.95 3
-1 1 2 73032.0 1372.63 1
-1 1 1 87868.3 950.994 1
1 1 1 382896. 2579.14 1
1 1 2 56956.8 1337.24 1
1 1 3 77301.0 1832.67 1
1 1 4 35173.5 1454.60 1
-1 1 -4 38311.0 1430.26 3
1 1 5 12625.9 1016.31 1
1 1 6 9020.41 946.870 1
1 1 7 70555.5 3026.75 1
-1 1 -8 3685.16 580.395 9
1 1 8 5692.10 935.236 1
-1 1 -9 4662.96 654.331 9
-1 1 -10 6606.87 698.496 9
-1 1 -11 5723.35 585.440 9
-1 2 10 33054.8 1405.33 4
-1 2 9 51567.4 1797.11 4
-1 2 8 5899.58 594.695 4
-1 2 8 7754.19 1068.55 1
-1 2 7 7870.28 1030.90 1
-1 2 6 32852.8 1808.13 1
-1 2 5 28323.4 1491.56 1
-1 2 4 183147. 3283.02 1
-1 2 3 28539.8 1093.22 1
-1 2 2 3570.37 321.345 1
-1 2 1 466686. 2520.63 1
1 2 1 851924. 4888.30 1
1 2 2 121770. 2071.00 1
1 2 3 29548.4 1210.42 1
1 2 4 52515.5 1801.16 1
1 2 5 141898. 3439.51 1
-1 2 -5 149797. 3011.62 3
1 2 6 26720.1 1677.70 1
1 2 7 5670.75 849.207 1
1 2 8 11562.7 1330.29 1
-1 2 -8 13328.3 1029.01 9
-1 2 -9 42760.2 1821.51 9
-1 2 -10 22503.3 1268.86 9
-1 2 -11 8862.52 693.807 9
-1 3 8 58848.7 2998.04 1
-1 3 7 12181.6 1257.65 1
-1 3 6 8898.08 961.213 1
-1 3 5 55578.8 2095.54 1
-1 3 4 41407.5 1588.81 1
-1 3 3 83251.3 1915.92 1
-1 3 2 196560. 2478.48 1
-1 3 1 80158.4 1263.90 1
1 3 2 219200. 3165.37 1
1 3 3 48141.8 1636.00 1
1 3 4 872.659 284.309 1
1 3 5 2260.76 479.943 1
1 3 6 8660.19 986.110 1
1 3 7 48404.1 2541.50 1
-1 3 -7 49709.5 1778.81 9
1 3 8 34439.6 2314.72 1
-1 3 -8 39514.4 1698.66 9
-1 3 -9 988.561 292.614 9
-1 3 -10 14669.7 979.375 9
-1 4 8 73029.6 3420.87 1
-1 4 7 17890.8 1511.84 1
-1 4 6 41273.7 2076.50 1
-1 4 5 31721.2 1622.72 1
-1 4 4 4043.63 532.830 1
-1 4 3 105546. 2284.24 1
-1 4 2 30248.5 981.327 1
1 4 2 30302.1 1261.68 1
1 4 3 2522.45 414.297 1
1 4 4 58105.7 2164.04 1
1 4 5 -58.5629 192.966 1
1 4 6 5267.76 795.617 1
1 4 7 1241.00 453.650 1
-1 4 -7 1548.64 346.162 9
1 4 8 20141.4 1772.49 1
-1 4 -8 21593.0 1229.15 9
-1 4 -9 12964.7 945.565 9
-1 5 8 72310.5 3316.79 1
-1 5 7 70986.0 3085.10 1
-1 5 6 38184.3 2043.07 1
-1 5 5 7279.80 814.514 1
-1 5 4 2824.97 461.061 1
-1 5 3 240936. 3645.00 1
-1 5 2 51889.0 1514.69 1
1 5 2 178384. 3332.66 1
1 5 3 45246.7 1762.22 1
1 5 4 28338.2 1589.41 1
1 5 5 8200.89 929.571 1
1 5 6 60934.3 2737.68 1
1 5 7 89486.4 3619.45 1
-1 5 -7 96704.8 2417.89 9
-1 5 -8 12625.8 909.391 9
-1 6 7 44046.4 2484.37 1
-1 6 6 8889.09 1026.94 1
-1 6 5 52083.2 2217.93 1
-1 6 4 102503. 2845.84 1
-1 6 3 5058.38 577.182 1
-1 6 2 91762.0 2205.43 1
1 6 2 157110. 3401.44 1
1 6 3 12358.7 1031.58 1
1 6 4 33133.1 1780.40 1
1 6 5 151986. 4198.63 1
1 6 6 23522.2 1746.21 1
1 6 7 63052.1 3094.58 1
-1 7 7 20570.5 1750.66 1
-1 7 6 13382.5 1302.80 1
-1 7 5 3597.25 621.173 1
-1 7 4 38334.0 1841.11 1
-1 7 3 14873.8 1004.01 1
-1 7 2 30029.9 1396.93 1
1 7 3 97046.6 3043.06 1
1 7 4 3338.14 624.362 1
1 7 5 235.608 187.018 1
1 7 6 16852.6 1552.83 1
1 7 7 35435.7 2392.36 1
-1 8 7 1647.59 463.218 1
-1 8 6 35781.0 2185.33 1
-1 8 5 60267.1 2634.65 1
-1 8 4 12934.3 1130.00 1
-1 8 3 2245.73 453.303 1
-1 8 2 5387.73 658.971 1
1 8 3 1103.85 351.506 1
1 8 4 84342.6 3064.19 1
1 8 5 20077.8 1666.85 1
1 8 6 17314.5 1654.37 1
-1 9 6 6588.12 968.210 1
-1 9 5 20867.0 1637.70 1
-1 9 4 21048.8 1562.35 1
-1 9 3 25468.4 1584.09 1
-1 9 2 62126.2 2386.09 1
1 9 3 81230.6 3098.12 1
1 9 4 4664.64 774.770 1
1 9 5 14279.1 1470.19 1
1 9 6 11940.9 1391.42 1
-1 10 6 121057. 4248.76 1
-1 10 5 10410.6 1200.83 1
-1 10 4 60662.0 2756.79 1
-1 10 3 11042.0 1122.63 1
-1 10 2 26166.9 1671.11 1
1 10 3 40039.9 2299.88 1
1 10 4 73898.4 3112.66 1
1 10 5 17683.0 1676.17 1
-1 11 5 10183.6 1294.24 1
-1 11 4 13902.2 1378.62 1
-1 11 3 51102.6 2464.63 1
-1 11 2 4.34440 329.985 1
1 11 2 5971.88 928.560 1
1 11 3 559.700 280.377 1
1 11 4 -58.7728 301.041 1
1 11 5 5668.29 976.637 1
-1 12 3 15949.1 1440.13 1
-1 12 2 82293.9 3314.21 1
1 12 2 9760.84 1211.92 1
1 12 3 5734.90 957.395 1
1 12 4 3306.61 698.391 1
1 13 2 30051.9 2202.35 1
-2 -19 2 2528.71 239.855 10
-2 -19 1 4360.19 322.829 10
-2 -19 0 852.713 148.160 10
-2 -19 -1 20026.3 658.614 10
-2 -18 4 13367.2 585.105 10
-2 -18 3 451.153 132.082 10
-2 -18 3 546.661 137.885 6
-2 -18 2 2153.69 258.728 6
-2 -18 2 2044.52 268.758 10
-2 -18 1 1438.46 225.188 6
-2 -18 1 1404.83 232.691 10
-2 -18 0 5077.41 399.556 6
-2 -18 0 5981.97 469.263 10
-2 -18 -1 13583.4 690.186 10
-2 -18 -2 273.117 112.942 10
-2 -18 -3 2708.04 277.040 10
-2 -17 5 5678.52 399.593 6
-2 -17 5 6299.95 437.113 10
-2 -17 4 5573.77 445.673 6
-2 -17 4 6329.37 492.359 10
-2 -17 3 13118.7 725.191 6
-2 -17 3 14210.2 772.563 10
-2 -17 2 4637.89 454.621 6
-2 -17 2 4848.11 473.213 10
-2 -17 1 -45.7673 135.419 10
-2 -17 1 182.314 124.750 6
-2 -17 0 2348.63 324.514 6
-2 -17 0 2533.61 366.285 10
-2 -17 -1 11026.4 688.018 6
-2 -17 -1 12496.7 764.618 10
-2 -17 -2 8392.92 604.865 10
-2 -17 -3 6738.14 517.431 10
-2 -17 -4 477.472 137.150 10
-2 -17 -5 7358.99 411.696 10
-2 -16 6 1067.24 187.195 6
-2 -16 5 3026.37 354.363 6
-2 -16 5 2483.77 333.471 10
-2 -16 4 2604.47 349.059 6
-2 -16 4 2849.13 392.368 10
-2 -16 3 7424.67 630.836 10
-2 -16 3 6646.84 589.308 6
-2 -16 2 11138.3 789.227 10
-2 -16 2 9885.41 746.517 6
-2 -16 1 17441.2 991.516 6
-2 -16 1 16805.7 969.158 10
-2 -16 0 1255.23 285.179 6
-2 -16 0 901.259 254.382 10
-2 -16 -1 2935.07 416.683 6
-2 -16 -1 3618.30 454.422 10
-2 -16 -2 468.242 175.690 6
-2 -16 -2 699.093 227.800 10
-2 -16 -3 216.729 177.069 10
-2 -16 -4 6364.53 536.480 10
-2 -16 -5 16897.8 770.467 10
-2 -16 -6 2879.13 270.209 10
-2 -15 7 9376.75 551.331 6
-2 -15 6 4381.72 433.039 6
-2 -15 6 4778.60 456.793 10
-2 -15 5 6519.17 579.015 6
-2 -15 5 7890.04 643.708 10
-2 -15 4 5077.80 555.444 10
-2 -15 4 4582.84 511.545 6
-2 -15 3 3685.34 472.685 6
-2 -15 3 4277.25 541.267 10
-2 -15 2 11930.1 877.550 6
-2 -15 2 12668.9 903.637 10
-2 -15 1 1166.82 302.197 6
-2 -15 1 1775.55 367.358 10
-2 -15 0 7186.59 692.514 6
-2 -15 0 7563.11 708.759 10
-2 -15 -1 2762.08 442.751 6
-2 -15 -1 2022.06 401.148 10
-2 -15 -2 4997.28 551.867 6
-2 -15 -2 6068.71 639.475 10
-2 -15 -3 13788.8 938.187 10
-2 -15 -4 6202.64 599.414 10
-2 -15 -5 5642.60 534.315 10
-2 -15 -6 5232.83 445.859 10
-2 -15 -7 6820.55 392.988 10
-2 -14 8 2016.52 257.531 6
-2 -14 7 4825.21 460.198 6
-2 -14 6 23902.5 1124.59 6
-2 -14 6 24153.6 1125.13 10
-2 -14 5 4177.83 507.259 6
-2 -14 5 4410.08 532.350 10
-2 -14 4 739.008 256.212 6
-2 -14 4 665.801 248.611 10
-2 -14 3 5988.97 636.791 10
-2 -14 3 5678.95 628.701 6
-2 -14 2 10924.1 865.185 6
-2 -14 2 12161.4 922.437 10
-2 -14 1 11871.3 912.738 6
-2 -14 1 13645.8 981.648 10
-2 -14 0 20587.1 1198.90 6
-2 -14 0 20503.3 1213.67 10
-2 -14 -1 1397.94 339.765 6
-2 -14 -1 873.694 275.661 10
-2 -14 -2 966.604 256.280 10
-2 -14 -3 2246.47 436.609 10
-2 -14 -4 6119.77 668.379 10
-2 -14 -5 2718.49 451.350 10
-2 -14 -6 9865.30 703.504 10
-2 -14 -7 862.564 192.925 10
-2 -13 9 2344.63 256.119 6
-2 -13 8 13569.2 757.898 6
-2 -13 7 3579.07 440.620 6
-2 -13 6 5590.96 591.495 6
-2 -13 6 6618.18 633.066 10
-2 -13 5 21234.5 1193.60 6
-2 -13 5 23768.5 1266.58 10
-2 -13 4 25745.5 1328.18 6
-2 -13 4 27777.5 1396.10 10
-2 -13 3 3349.43 505.254 6
-2 -13 3 3321.97 508.187 10
-2 -13 2 3899.68 540.885 6
-2 -13 2 4420.39 577.156 10
-2 -13 1 54705.2 1959.79 6
-2 -13 1 53123.9 1968.13 10
-2 -13 0 8416.13 795.928 6
-2 -13 0 7455.01 749.280 10
-2 -13 -1 59489.4 2146.13 10
-2 -13 -2 18214.8 1213.82 10
-2 -13 -3 2.76262 227.645 10
-2 -13 -4 16921.6 1154.95 10
-2 -13 -5 8880.99 818.461 10
-2 -13 -6 18099.6 1065.07 10
-2 -13 -7 3461.96 431.570 10
-2 -13 -8 3036.70 312.806 10
-2 -12 9 7386.96 529.973 6
-2 -12 8 760.736 200.480 6
-2 -12 7 8889.53 743.089 6
-2 -12 6 19619.6 1174.20 6
-2 -12 6 19241.3 1154.44 10
-2 -12 5 136881. 3121.48 6
-2 -12 5 145281. 3225.31 10
-2 -12 4 4072.34 558.957 6
-2 -12 4 3736.55 555.670 10
-2 -12 3 6374.97 689.349 6
-2 -12 3 7585.61 755.155 10
-2 -12 2 9465.12 817.084 6
-2 -12 2 11073.2 898.418 10
-2 -12 1 3884.44 524.094 6
-2 -12 1 4371.25 594.761 10
-2 -12 1 2807.28 701.912 2
-2 -12 0 43806.8 1812.64 10
-2 -12 -1 8334.32 816.757 10
-2 -12 -2 11937.7 998.460 10
-2 -12 -3 2302.68 494.983 10
-2 -12 -4 19477.5 1298.48 10
-2 -12 -5 3489.63 563.184 10
-2 -12 -6 2625.41 468.332 10
-2 -12 -7 3950.36 494.977 10
-2 -12 -8 18740.7 896.926 10
-2 -12 -9 24351.9 735.713 10
-2 -11 10 5405.00 399.864 6
-2 -11 9 704.309 193.050 4
-2 -11 9 628.406 197.493 6
-2 -11 8 12958.4 873.105 4
-2 -11 8 13266.4 905.764 6
-2 -11 7 12852.8 960.101 4
-2 -11 7 14034.9 985.261 6
-2 -11 6 2315.33 417.033 6
-2 -11 6 2218.46 442.140 4
-2 -11 6 2446.68 459.888 10
-2 -11 5 2488.95 453.529 10
-2 -11 5 1697.42 383.057 6
-2 -11 4 22950.5 1286.47 6
-2 -11 4 21822.5 1272.57 10
-2 -11 3 34063.0 2564.69 2
-2 -11 3 32019.0 1500.85 6
-2 -11 3 32953.6 1552.61 10
-2 -11 2 47671.3 2975.95 2
-2 -11 2 42412.0 1702.49 6
-2 -11 2 45552.6 1797.02 10
-2 -11 1 38906.6 2629.80 2
-2 -11 1 40997.8 1701.46 10
-2 -11 0 105372. 2779.46 10
-2 -11 -1 41873.8 1791.01 10
-2 -11 -2 29826.8 1558.99 10
-2 -11 -3 10136.2 968.824 10
-2 -11 -4 9197.42 943.851 10
-2 -11 -5 6920.82 809.682 10
-2 -11 -6 8142.30 839.571 10
-2 -11 -7 6074.67 680.801 10
-2 -11 -8 14629.8 889.122 10
-2 -11 -9 9929.17 580.083 10
-2 -10 10 21720.0 818.204 4
-2 -10 10 20976.1 919.484 6
-2 -10 9 2531.49 377.042 4
-2 -10 9 2106.37 358.177 6
-2 -10 8 47.3905 173.653 4
-2 -10 8 235.816 142.494 6
-2 -10 7 6265.36 744.513 4
-2 -10 7 7721.94 769.530 6
-2 -10 7 7199.70 708.378 10
-2 -10 6 18946.2 1291.71 4
-2 -10 6 19263.5 1215.91 6
-2 -10 6 17893.6 1174.08 10
-2 -10 5 26058.2 1460.39 4
-2 -10 5 27068.1 1417.27 6
-2 -10 5 28802.4 1469.18 10
-2 -10 4 4977.65 954.748 2
-2 -10 4 5236.05 614.586 6
-2 -10 4 5853.74 668.918 10
-2 -10 3 14493.1 1686.64 2
-2 -10 3 11501.0 881.208 6
-2 -10 3 13590.1 978.189 10
-2 -10 2 8965.02 1210.64 2
-2 -10 2 9950.51 832.087 10
-2 -10 1 115197. 4320.73 2
-2 -10 1 116589. 2789.23 10
-2 -10 0 14605.7 1021.44 10
-2 -10 -1 423.463 239.512 10
-2 -10 -2 9571.44 870.125 10
-2 -10 -3 26507.5 1496.78 10
-2 -10 -4 23605.4 1476.57 10
-2 -10 -5 13680.7 1167.02 10
-2 -10 -6 3449.96 609.579 10
-2 -10 -7 2998.90 538.248 10
-2 -10 -7 2213.53 386.431 9
-2 -10 -8 4907.34 579.724 10
-2 -10 -9 11343.3 708.062 10
-2 -9 10 1835.24 300.663 4
-2 -9 10 1765.51 308.360 6
-2 -9 9 7411.98 693.158 4
-2 -9 9 5769.49 627.133 6
-2 -9 8 12795.4 1017.31 4
-2 -9 8 12139.9 956.441 6
-2 -9 7 19739.8 1365.63 4
-2 -9 7 19072.4 1236.58 6
-2 -9 7 20625.2 1232.50 10
-2 -9 6 1866.48 430.728 4
-2 -9 6 1955.72 399.090 6
-2 -9 6 3081.67 512.120 10
-2 -9 5 4870.91 991.617 2
-2 -9 5 6232.61 689.698 6
-2 -9 5 5197.25 674.455 4
-2 -9 5 6739.59 726.230 10
-2 -9 4 3420.66 549.808 4
-2 -9 4 3499.47 493.599 6
-2 -9 4 3770.22 536.424 10
-2 -9 4 3241.43 721.172 2
-2 -9 3 38796.3 2544.41 2
-2 -9 3 40728.8 1633.85 10
-2 -9 2 12140.9 1360.27 2
-2 -9 1 27864.2 1994.61 2
-2 -9 0 18478.0 1629.23 2
-2 -9 -2 4762.85 612.421 10
-2 -9 -3 17599.4 1211.09 10
-2 -9 -4 662.707 287.804 10
-2 -9 -5 9028.84 956.678 10
-2 -9 -6 15157.3 1221.03 10
-2 -9 -7 14863.5 1167.80 10
-2 -9 -7 12951.0 930.508 9
-2 -9 -8 2617.63 490.322 10
-2 -9 -8 2418.07 380.198 9
-2 -9 -9 3598.74 457.525 10
-2 -9 -10 9405.97 527.097 10
-2 -8 11 17790.7 711.301 4
-2 -8 10 5070.13 527.510 4
-2 -8 10 4379.65 521.443 6
-2 -8 9 4483.96 585.709 6
-2 -8 9 3853.38 545.819 4
-2 -8 8 618.525 245.979 4
-2 -8 8 497.077 210.345 6
-2 -8 7 7102.93 847.323 4
-2 -8 7 7024.74 766.965 6
-2 -8 6 681.806 327.426 4
-2 -8 6 1232.70 347.406 6
-2 -8 6 1433.17 367.621 10
-2 -8 5 31566.6 1689.72 4
-2 -8 5 31947.3 2467.67 2
-2 -8 5 29281.2 1447.37 6
-2 -8 5 32985.1 1532.39 10
-2 -8 4 5717.18 694.052 4
-2 -8 4 6247.21 1049.22 2
-2 -8 4 6678.28 668.765 10
-2 -8 3 4786.55 829.941 2
-2 -8 2 8742.86 1106.28 2
-2 -8 1 59755.4 2752.51 2
-2 -8 0 21588.5 1622.23 2
-2 -8 -3 1583.04 360.737 10
-2 -8 -4 38693.0 1839.69 10
-2 -8 -6 3597.16 502.994 9
-2 -8 -7 1386.51 332.617 9
-2 -8 -8 20159.3 1290.33 10
-2 -8 -8 17290.0 1066.02 9
-2 -8 -9 2640.72 437.532 10
-2 -8 -9 2522.27 376.618 9
-2 -8 -10 7188.00 524.953 10
-2 -7 11 6580.94 493.379 4
-2 -7 10 3832.02 490.545 4
-2 -7 10 3908.12 540.838 6
-2 -7 9 19952.1 1247.54 4
-2 -7 9 19964.8 1254.78 6
-2 -7 8 14937.4 1194.28 4
-2 -7 8 14698.4 1124.30 6
-2 -7 7 3450.24 556.037 6
-2 -7 7 3618.51 606.364 4
-2 -7 6 8554.96 1307.11 2
-2 -7 6 6753.48 821.371 4
-2 -7 6 7453.25 772.904 6
-2 -7 6 8649.61 812.272 10
-2 -7 5 13213.3 1565.27 2
-2 -7 5 12028.2 1028.14 4
-2 -7 5 11764.7 898.463 6
-2 -7 5 13108.1 951.748 10
-2 -7 4 15368.4 1532.51 2
-2 -7 3 21570.0 1719.98 2
-2 -7 2 19785.0 1522.50 2
-2 -7 1 12597.6 1165.24 2
-2 -7 0 5235.16 759.103 2
-2 -7 -5 10945.2 815.105 9
-2 -7 -6 20554.6 1177.67 9
-2 -7 -7 12118.1 926.908 9
-2 -7 -8 3706.42 511.433 9
-2 -7 -9 5130.79 559.659 9
-2 -7 -10 7021.27 571.964 10
-2 -7 -10 6719.77 533.551 9
-2 -6 11 1300.41 249.994 4
-2 -6 10 21062.8 1166.97 4
-2 -6 10 20423.7 1234.77 6
-2 -6 9 19950.9 1302.34 4
-2 -6 9 20252.9 1318.11 6
-2 -6 8 2020.49 497.291 4
-2 -6 8 1317.13 410.612 6
-2 -6 7 3641.74 567.802 6
-2 -6 7 3035.41 586.406 4
-2 -6 6 8818.44 1370.39 2
-2 -6 6 7859.73 885.455 4
-2 -6 6 8231.19 787.193 6
-2 -6 6 9934.59 836.835 10
-2 -6 5 14440.1 1563.60 2
-2 -6 5 14622.0 1111.13 4
-2 -6 4 1070.33 356.514 2
-2 -6 3 19709.0 1521.72 2
-2 -6 2 32128.2 1830.61 2
-2 -6 1 18435.2 1314.36 2
-2 -6 0 33270.3 1738.04 2
-2 -6 -5 35470.4 1479.66 9
-2 -6 -6 2222.28 421.149 9
-2 -6 -7 20594.8 1225.78 9
-2 -6 -8 1815.30 388.935 9
-2 -6 -9 29247.4 1371.67 9
-2 -6 -10 9491.72 704.788 10
-2 -6 -10 9543.09 689.875 9
-2 -6 -11 184.509 78.5209 10
-2 -5 11 2877.49 385.936 4
-2 -5 10 4353.22 550.009 4
-2 -5 10 3572.80 551.539 6
-2 -5 9 21895.9 1334.66 4
-2 -5 9 21170.4 1386.16 6
-2 -5 8 14542.6 1174.82 4
-2 -5 8 14377.8 1145.60 6
-2 -5 7 9510.74 966.094 4
-2 -5 7 10870.2 949.109 6
-2 -5 7 10046.9 1547.84 2
-2 -5 6 19150.6 1316.80 4
-2 -5 6 21070.4 1223.12 6
-2 -5 5 21452.7 1856.68 2
-2 -5 4 101967. 3623.39 2
-2 -5 3 12667.8 1157.78 2
-2 -5 2 14292.9 1122.46 2
-2 -5 1 47776.8 1925.42 2
-2 -5 0 16570.4 1123.78 2
-2 -5 -5 7046.92 720.328 7
-2 -5 -5 5878.24 591.973 9
-2 -5 -6 3847.92 556.324 9
-2 -5 -7 2435.85 444.458 9
-2 -5 -8 37862.6 1693.80 9
-2 -5 -9 9868.26 836.682 9
-2 -5 -10 1289.37 296.835 9
-2 -5 -11 12253.9 600.579 10
-2 -4 11 13484.4 805.659 4
-2 -4 10 5318.28 613.399 4
-2 -4 10 6115.21 742.690 6
-2 -4 9 12627.4 1021.10 4
-2 -4 9 10567.3 1023.35 6
-2 -4 8 64044.9 2402.36 4
-2 -4 8 66194.2 2428.35 6
-2 -4 7 20877.5 1389.00 4
-2 -4 7 22241.2 1350.90 6
-2 -4 7 24438.0 2361.24 2
-2 -4 6 14249.7 1139.19 4
-2 -4 6 15231.1 1026.24 6
-2 -4 5 58243.6 3170.43 2
-2 -4 4 2348.45 566.169 2
-2 -4 3 112183. 3237.99 2
-2 -4 2 5984.88 707.079 2
-2 -4 1 61826.5 2004.15 2
-2 -4 0 114220. 2611.35 2
-2 -4 -5 30238.9 1438.56 7
-2 -4 -6 38914.1 1624.63 9
-2 -4 -7 16167.8 1118.67 9
-2 -4 -8 17034.1 1153.48 9
-2 -4 -9 16856.3 1106.01 9
-2 -4 -10 9557.58 755.550 9
-2 -4 -11 6462.14 469.102 10
-2 -4 -11 7196.59 514.128 9
-2 -3 11 3785.19 435.319 4
-2 -3 10 869.161 286.785 4
-2 -3 9 4062.79 586.138 4
-2 -3 9 2681.28 540.628 6
-2 -3 8 14312.7 1124.51 4
-2 -3 8 14715.9 1148.45 6
-2 -3 7 176294. 3877.71 4
-2 -3 7 173669. 3693.11 6
-2 -3 6 14602.2 1085.31 4
-2 -3 6 15622.6 1682.13 2
-2 -3 5 9925.16 1208.31 2
-2 -3 4 21190.6 1620.74 2
-2 -3 3 61436.2 2303.84 2
-2 -3 2 144802. 3102.07 2
-2 -3 1 33441.2 1321.41 2
-2 -3 1 31785.2 1705.52 3
-2 -3 0 10499.8 1014.88 3
-2 -3 -1 19858.9 1409.96 3
-2 -3 -2 164417. 4156.62 3
-2 -3 -3 167853. 4253.06 3
-2 -3 -6 4408.87 611.226 7
-2 -3 -6 3240.13 478.036 9
-2 -3 -7 36865.3 1692.97 9
-2 -3 -8 49727.6 1968.65 9
-2 -3 -9 2118.95 434.634 9
-2 -3 -10 13065.2 896.248 9
-2 -3 -11 9649.68 629.621 9
-2 -2 11 7565.98 610.784 4
-2 -2 10 15189.5 1008.75 4
-2 -2 9 2698.12 480.850 4
-2 -2 9 2141.71 491.074 6
-2 -2 8 4898.37 647.165 4
-2 -2 8 5611.81 715.193 6
-2 -2 7 124074. 3148.50 4
-2 -2 7 123099. 3099.00 6
-2 -2 7 119416. 4665.23 2
-2 -2 6 39437.7 2510.40 2
-2 -2 5 7306.68 994.502 2
-2 -2 4 6293.11 821.473 2
-2 -2 3 34933.2 1750.18 2
-2 -2 2 94741.0 2293.40 2
-2 -2 2 90956.2 2730.14 3
-2 -2 1 96105.0 2869.34 3
-2 -2 0 43440.5 1966.89 3
-2 -2 -1 14494.5 1150.97 3
-2 -2 -2 17671.5 1319.96 3
-2 -2 -3 206449. 4643.62 3
-2 -2 -4 7521.24 931.401 3
-2 -2 -6 1046.51 355.321 7
-2 -2 -6 1419.99 334.096 9
-2 -2 -7 41700.5 1776.60 9
-2 -2 -8 3114.00 530.843 9
-2 -2 -9 15727.9 1099.76 9
-2 -2 -10 2627.15 443.483 9
-2 -2 -11 1197.24 229.718 9
-2 -1 11 3525.56 421.413 4
-2 -1 10 1905.85 374.556 4
-2 -1 9 16023.6 1090.25 4
-2 -1 8 8808.03 832.312 4
-2 -1 8 8861.72 898.896 6
-2 -1 7 3293.95 523.314 4
-2 -1 7 3561.05 525.326 6
-2 -1 7 2263.17 602.027 2
-2 -1 6 1488.22 465.929 2
-2 -1 5 19541.8 1576.52 2
-2 -1 4 40583.1 1969.31 2
-2 -1 3 81967.2 2512.84 3
-2 -1 3 79620.4 2411.05 2
-2 -1 2 17911.5 935.207 2
-2 -1 2 18568.2 1218.73 3
-2 -1 1 3248.83 552.258 3
-2 -1 0 21561.1 1337.17 3
-2 -1 -1 36981.6 1779.32 3
-2 -1 -2 16684.2 1240.98 3
-2 -1 -3 25290.8 1549.65 3
-2 -1 -4 24501.0 1606.49 3
-2 -1 -5 1777.07 454.122 3
-2 -1 -6 55144.7 1937.34 7
-2 -1 -6 48273.9 1791.00 9
-2 -1 -7 8566.10 810.563 9
-2 -1 -8 18597.8 1221.04 9
-2 -1 -9 3715.56 571.552 9
-2 -1 -10 254.052 190.747 9
-2 -1 -11 4186.42 433.363 9
-2 0 11 -190.116 215.899 4
-2 0 10 22762.8 1159.32 4
-2 0 9 47950.4 1839.51 4
-2 0 8 8783.18 824.789 4
-2 0 8 7165.45 827.061 6
-2 0 7 -192.301 192.562 4
-2 0 7 90.8374 131.579 6
-2 0 6 759.720 342.129 2
-2 0 5 73770.8 3108.38 2
-2 0 4 31259.1 1761.02 2
-2 0 3 2484.20 418.679 2
-2 0 3 2995.53 500.590 3
-2 0 2 35373.1 1600.83 3
-2 0 1 3176.99 519.888 3
-2 0 0 30543.4 1585.41 3
-2 0 -1 34820.0 1753.89 3
-2 0 -2 278.322 220.910 3
-2 0 -3 5735.89 800.467 3
-2 0 -4 181.491 158.624 3
-2 0 -5 56843.2 2536.08 3
-2 0 -6 17176.0 1080.13 7
-2 0 -6 15883.9 1028.65 9
-2 0 -7 25840.5 1387.64 9
-2 0 -8 34338.4 1672.42 9
-2 0 -9 1643.24 379.138 9
-2 0 -10 15817.1 996.386 9
-2 0 -11 3054.81 379.910 9
-2 1 10 776.401 205.568 4
-2 1 9 16289.7 1043.94 4
-2 1 8 10890.0 879.521 4
-2 1 7 5585.97 614.978 4
-2 1 7 4848.54 660.302 6
-2 1 3 76619.2 2294.89 3
-2 1 2 17276.6 1137.83 3
-2 1 1 4229.63 614.005 3
-2 1 0 20895.5 1374.80 3
-2 1 -1 38708.5 1909.65 3
-2 1 -2 23082.6 1505.94 3
-2 1 -3 23323.0 1550.59 3
-2 1 -4 23367.6 1572.09 3
-2 1 -5 2155.87 484.521 3
-2 1 -6 47168.6 1771.81 9
-2 1 -7 7242.43 744.373 9
-2 1 -8 19782.0 1250.56 9
-2 1 -9 3684.01 542.679 9
-2 1 -10 69.0573 200.183 9
-2 1 -11 3655.48 385.380 9
-2 2 9 2657.31 422.674 4
-2 2 8 4932.33 557.340 4
-2 2 7 117420. 2710.28 4
-2 2 3 28225.2 1409.97 3
-2 2 2 80256.5 2539.75 3
-2 2 -3 221293. 4931.43 3
-2 2 -4 7434.28 952.066 3
-2 2 -5 3156.29 659.184 3
-2 2 -6 1942.30 383.778 9
-2 2 -7 40892.1 1740.68 9
-2 2 -8 2767.20 511.981 9
-2 2 -9 16454.7 1091.01 9
-2 2 -10 3349.17 447.322 9
-2 2 -11 1181.53 222.775 9
-2 3 3 62679.8 2187.43 3
2 3 2 185858. 2980.80 1
2 3 3 165616. 3131.46 1
-2 3 -4 19901.6 1562.40 3
2 3 4 20946.4 1262.45 1
-2 3 -5 11522.8 1204.28 3
-2 3 -6 5957.32 641.744 9
-2 3 -7 35660.3 1618.95 9
-2 3 -8 50542.6 1926.94 9
-2 3 -9 2089.24 374.238 9
-2 3 -10 12761.6 821.922 9
-2 3 -11 10149.8 561.836 9
2 4 1 250625. 3548.95 1
2 4 2 86436.7 2236.88 1
2 4 3 40149.7 1695.76 1
2 4 4 43436.2 1914.49 1
-2 4 -5 27511.6 1891.87 3
-2 4 -5 28158.1 1309.03 9
-2 4 -6 44006.0 1718.06 9
-2 4 -7 15385.1 1057.25 9
-2 4 -8 15933.8 1075.11 9
-2 4 -9 17159.5 1041.85 9
-2 4 -10 7965.96 613.353 9
2 5 1 270626. 4077.13 1
2 5 2 71101.5 2134.62 1
2 5 3 49933.6 2034.27 1
2 5 4 32722.8 1769.20 1
2 5 5 8541.11 962.490 1
-2 5 -5 7933.33 713.673 9
-2 5 -6 5902.51 635.771 9
-2 5 -7 1629.98 360.209 9
-2 5 -8 34330.1 1519.72 9
-2 5 -9 9014.88 709.542 9
-2 5 -10 654.203 162.460 9
2 6 1 50232.4 1942.29 1
2 6 2 22621.8 1345.42 1
2 6 3 24109.2 1484.83 1
2 6 4 2306.72 573.125 1
2 6 5 42443.9 2293.97 1
-2 6 -5 43816.8 1648.41 9
-2 6 -6 1683.88 348.409 9
-2 6 -7 22822.5 1238.68 9
-2 6 -8 2161.52 389.603 9
-2 6 -9 35204.2 1329.05 9
2 7 1 63519.0 2368.75 1
2 7 2 31094.6 1720.45 1
2 7 3 9305.56 968.190 1
2 7 4 11535.7 1170.05 1
2 7 5 9751.12 1113.77 1
-2 7 -5 10135.9 812.684 9
-2 7 -6 22560.9 1203.67 9
-2 7 -7 14736.6 970.080 9
-2 7 -8 5606.73 581.311 9
-2 7 -9 5361.19 482.818 9
2 8 1 68.7899 113.787 1
2 8 2 5201.62 714.873 1
2 8 3 498.772 228.956 1
2 8 4 34616.8 2133.10 1
2 8 5 17306.9 1543.82 1
-2 8 -5 19324.8 1088.53 9
-2 8 -6 3723.72 489.637 9
-2 8 -7 2169.52 362.194 9
-2 8 -8 16574.7 899.754 9
2 9 1 11375.9 1146.11 1
2 9 2 7448.39 964.359 1
2 9 3 15589.2 1375.09 1
2 9 4 1537.61 483.429 1
-2 9 -5 9923.99 766.058 9
-2 9 -6 12700.7 845.784 9
-2 9 -7 16783.7 924.823 9
2 10 1 -1295.29 427.266 1
2 10 2 8019.57 1048.37 1
2 10 3 24210.9 1780.28 1
-2 10 -5 13152.7 862.154 9
-2 10 -6 4329.73 487.946 9
2 11 1 38508.1 2326.02 1
2 11 2 31769.7 2146.65 1
2 12 1 7939.42 1099.83 1
-3 -17 1 219.169 74.6563 10
-3 -17 0 4014.08 305.006 10
-3 -16 3 4616.74 351.794 10
-3 -16 2 3209.34 315.527 10
-3 -16 1 17942.2 770.122 10
-3 -16 0 4791.77 413.270 10
-3 -16 -1 481.678 144.714 10
-3 -16 -2 4837.14 391.622 10
-3 -16 -3 2261.53 248.917 10
-3 -15 4 10481.9 552.665 10
-3 -15 3 9981.72 599.643 10
-3 -15 2 3550.61 381.197 10
-3 -15 1 1803.38 293.953 10
-3 -15 0 4094.93 443.394 10
-3 -15 -1 13422.3 766.258 10
-3 -15 -2 7330.10 559.409 10
-3 -15 -3 1185.75 233.554 10
-3 -15 -4 580.782 138.467 10
-3 -14 5 12033.2 596.217 10
-3 -14 4 12114.5 688.322 10
-3 -14 3 5364.29 490.365 10
-3 -14 2 1818.74 320.351 10
-3 -14 1 14347.2 864.157 10
-3 -14 0 15498.5 902.319 10
-3 -14 -1 2122.26 359.383 10
-3 -14 -2 740.574 250.917 10
-3 -14 -3 9136.59 664.701 10
-3 -14 -4 13084.9 733.223 10
-3 -14 -5 8039.63 502.052 10
-3 -13 5 774.130 183.205 10
-3 -13 4 3260.55 394.252 10
-3 -13 3 43714.4 1483.16 10
-3 -13 2 4994.76 536.029 10
-3 -13 1 864.793 261.233 10
-3 -13 0 50.7203 128.327 10
-3 -13 -1 2543.60 395.608 10
-3 -13 -2 18278.7 1058.33 10
-3 -13 -3 2628.12 408.735 10
-3 -13 -4 297.583 184.639 10
-3 -13 -5 3612.51 395.220 10
-3 -13 -6 2901.64 293.716 10
-3 -12 5 13341.4 766.679 10
-3 -12 4 15000.2 876.157 10
-3 -12 3 20808.4 1084.32 10
-3 -12 2 1835.98 346.416 10
-3 -12 1 9002.80 747.011 10
-3 -12 0 2575.96 414.753 10
-3 -12 -1 2282.47 415.317 10
-3 -12 -2 5363.44 634.564 10
-3 -12 -3 2100.82 387.665 10
-3 -12 -4 3800.95 515.325 10
-3 -12 -5 13589.5 858.138 10
-3 -12 -6 1855.39 289.848 10
-3 -12 -7 1848.44 215.165 10
-3 -11 7 2853.62 375.107 4
-3 -11 6 -178.532 178.829 4
-3 -11 5 1201.23 267.900 10
-3 -11 4 6880.25 628.251 10
-3 -11 3 4615.88 540.681 10
-3 -11 2 5661.12 597.850 10
-3 -11 1 7377.99 700.096 10
-3 -11 0 12064.7 902.339 10
-3 -11 -1 5212.35 625.249 10
-3 -11 -2 52732.2 1942.97 10
-3 -11 -3 623.898 256.810 10
-3 -11 -4 2254.29 420.331 10
-3 -11 -5 4572.52 555.488 10
-3 -11 -6 18394.4 968.838 10
-3 -11 -7 10767.3 613.634 10
-3 -10 8 1262.49 247.481 4
-3 -10 7 1058.27 286.843 4
-3 -10 6 19862.5 1188.60 4
-3 -10 5 4480.65 635.515 4
-3 -10 4 17879.6 1022.36 10
-3 -10 4 13843.2 1072.89 4
-3 -10 3 320.991 177.164 10
-3 -10 2 4321.30 529.385 10
-3 -10 1 27070.0 1320.88 10
-3 -10 0 17503.2 1088.01 10
-3 -10 -1 25166.2 1340.64 10
-3 -10 -2 2174.53 425.612 10
-3 -10 -3 2181.72 426.043 10
-3 -10 -4 9780.33 885.734 10
-3 -10 -5 1707.35 386.341 10
-3 -10 -6 1890.69 368.364 10
-3 -10 -7 1545.09 282.872 10
-3 -9 9 3008.28 334.937 4
-3 -9 8 10141.4 756.668 4
-3 -9 7 8247.11 761.433 4
-3 -9 6 1416.81 406.204 4
-3 -9 5 13748.8 1126.21 4
-3 -9 4 2355.13 490.672 4
-3 -9 3 3702.78 601.051 4
-3 -9 2 19065.3 1189.71 4
-3 -9 1 21482.2 1171.31 10
-3 -9 0 70842.5 2155.92 10
-3 -9 -1 8276.98 774.410 10
-3 -9 -2 19611.7 1225.93 10
-3 -9 -3 10927.3 946.855 10
-3 -9 -4 1405.07 367.751 10
-3 -9 -5 1145.11 345.210 10
-3 -9 -6 2114.09 416.780 10
-3 -9 -7 2545.69 396.052 10
-3 -9 -8 2995.53 317.687 10
-3 -8 9 11211.6 718.214 4
-3 -8 8 8039.98 733.559 4
-3 -8 7 12707.7 1003.64 4
-3 -8 6 7848.97 872.382 4
-3 -8 5 21849.9 1467.48 4
-3 -8 4 4589.27 696.394 4
-3 -8 3 12922.0 1068.75 4
-3 -8 2 10906.9 943.700 4
-3 -8 1 31546.7 1506.97 4
-3 -8 -1 11043.9 879.847 10
-3 -8 -2 15896.8 1082.11 10
-3 -8 -3 19036.1 1244.58 10
-3 -8 -4 22481.2 1367.49 10
-3 -8 -5 6565.84 762.557 10
-3 -8 -6 879.869 296.718 10
-3 -8 -7 -65.1218 182.928 10
-3 -8 -8 4849.25 459.815 10
-3 -7 10 8711.24 512.456 4
-3 -7 9 12012.3 803.998 4
-3 -7 8 32782.7 1541.72 4
-3 -7 7 573.840 329.769 4
-3 -7 6 1070.91 363.812 4
-3 -7 5 16124.8 1288.54 4
-3 -7 4 14016.3 1209.12 4
-3 -7 3 48002.8 2039.67 4
-3 -7 2 1139.15 355.073 4
-3 -7 1 3755.43 564.366 4
-3 -7 -1 91287.8 2340.46 7
-3 -7 -2 58560.3 1973.85 7
-3 -7 -3 592.973 327.691 7
-3 -7 -3 477.014 193.455 10
-3 -7 -4 1369.41 370.912 10
-3 -7 -5 3889.17 612.302 10
-3 -7 -6 10346.3 928.279 10
-3 -7 -7 7232.95 702.948 10
-3 -7 -7 7561.33 588.494 9
-3 -7 -8 1399.31 282.297 10
-3 -7 -8 1326.06 234.928 9
-3 -6 10 9651.10 588.159 4
-3 -6 9 10152.9 770.118 4
-3 -6 8 2739.51 501.761 4
-3 -6 7 1797.54 444.338 4
-3 -6 6 2675.84 556.844 4
-3 -6 5 5142.10 769.815 4
-3 -6 4 12731.6 1119.36 4
-3 -6 3 4905.95 690.920 4
-3 -6 2 50.4055 211.768 4
-3 -6 1 12598.7 992.656 4
-3 -6 -1 41927.5 1588.38 7
-3 -6 -2 26729.2 1350.92 7
-3 -6 -3 13785.0 1016.76 7
-3 -6 -4 907.457 373.985 7
-3 -6 -4 1134.16 381.117 10
-3 -6 -5 15372.0 1145.07 10
-3 -6 -6 14068.4 1090.74 10
-3 -6 -6 13860.9 900.855 9
-3 -6 -7 7631.79 750.571 10
-3 -6 -7 7444.19 629.960 9
-3 -6 -8 4711.62 501.454 10
-3 -6 -8 5257.62 474.146 9
-3 -6 -9 1280.62 190.141 10
-3 -6 -9 1255.16 193.073 9
-3 -5 10 -154.470 157.021 4
-3 -5 9 4598.12 552.279 4
-3 -5 8 10849.4 951.183 4
-3 -5 7 3198.10 561.866 4
-3 -5 6 13673.7 1216.48 4
-3 -5 5 64.0290 215.752 4
-3 -5 4 14106.5 1173.89 4
-3 -5 3 30444.4 1640.53 4
-3 -5 2 30882.9 1598.83 4
-3 -5 1 3537.43 539.386 4
-3 -5 0 3399.50 532.363 4
-3 -5 -1 2145.07 366.295 7
-3 -5 -1 2581.07 404.016 5
-3 -5 -2 40843.1 1615.68 7
-3 -5 -3 7043.04 720.152 7
-3 -5 -4 10489.7 928.754 7
-3 -5 -5 8350.05 872.629 7
-3 -5 -5 8852.15 870.221 10
-3 -5 -5 9233.79 743.643 9
-3 -5 -6 15149.3 1142.54 10
-3 -5 -6 14000.9 914.889 9
-3 -5 -7 1116.25 335.280 10
-3 -5 -7 945.963 263.875 9
-3 -5 -8 7.83170 156.727 10
-3 -5 -8 93.8668 155.184 9
-3 -5 -9 -193.263 117.641 10
-3 -5 -9 311.760 129.797 9
-3 -4 10 3226.36 392.286 4
-3 -4 9 323.340 219.632 4
-3 -4 8 370.225 233.098 4
-3 -4 7 222.798 281.301 4
-3 -4 6 18365.1 1368.74 4
-3 -4 5 7560.39 910.305 4
-3 -4 4 3392.07 598.206 4
-3 -4 3 5302.61 706.189 4
-3 -4 2 23141.7 1356.97 4
-3 -4 1 42384.7 1778.95 4
-3 -4 0 11126.6 883.854 4
-3 -4 -1 203.897 224.509 5
-3 -4 -2 157.652 215.831 7
-3 -4 -2 340.865 221.840 5
-3 -4 -3 15146.6 1039.81 7
-3 -4 -4 60603.7 2119.61 7
-3 -4 -5 -43.9652 327.834 7
-3 -4 -5 132.660 184.122 9
-3 -4 -6 1928.10 426.078 10
-3 -4 -6 1305.07 329.419 9
-3 -4 -7 2761.82 466.433 10
-3 -4 -7 3808.15 490.542 9
-3 -4 -8 16844.8 995.529 10
-3 -4 -8 18365.1 965.776 9
-3 -4 -9 532.139 143.549 10
-3 -4 -9 887.327 192.179 9
-3 -3 10 7001.72 568.973 4
-3 -3 9 7590.01 687.926 4
-3 -3 8 3756.89 578.396 4
-3 -3 7 5484.43 739.029 4
-3 -3 6 1566.36 431.100 4
-3 -3 5 20937.6 1422.78 4
-3 -3 4 16124.9 1203.16 4
-3 -3 3 16812.5 1225.01 4
-3 -3 2 7450.55 761.037 4
-3 -3 -2 10503.5 814.112 5
-3 -3 -3 9732.18 816.955 7
-3 -3 -4 36628.2 1623.83 7
-3 -3 -4 35326.6 1435.07 9
-3 -3 -5 37171.5 1689.37 7
-3 -3 -5 34706.2 1485.03 9
-3 -3 -6 1642.57 478.646 7
-3 -3 -6 1744.79 356.438 9
-3 -3 -7 3176.49 462.320 9
-3 -3 -8 13666.1 899.080 10
-3 -3 -8 15849.4 919.017 9
-3 -3 -9 5236.09 467.803 9
-3 -2 10 4073.13 433.687 4
-3 -2 9 6390.98 618.965 4
-3 -2 8 4485.73 594.467 4
-3 -2 7 18550.6 1267.18 4
-3 -2 6 57873.8 2276.06 4
-3 -2 5 10947.9 1020.24 4
-3 -2 4 10098.7 965.143 4
-3 -2 4 11799.7 1001.42 5
-3 -2 3 2450.63 510.019 4
-3 -2 1 3065.56 715.641 3
-3 -2 0 39210.2 2574.58 3
-3 -2 -1 -164.321 422.438 3
-3 -2 -2 4024.98 521.821 5
-3 -2 -2 3822.45 872.719 3
-3 -2 -3 22172.7 1190.38 7
-3 -2 -3 24681.6 2159.55 3
-3 -2 -3 20626.2 1206.94 5
-3 -2 -3 21671.3 1068.67 9
-3 -2 -4 61288.0 2062.31 7
-3 -2 -4 54521.2 1816.16 9
-3 -2 -5 2753.00 532.777 7
-3 -2 -5 2340.49 403.969 9
-3 -2 -6 9174.15 876.337 7
-3 -2 -6 8536.08 759.165 9
-3 -2 -7 1383.95 330.108 9
-3 -2 -8 14428.5 894.162 9
-3 -2 -9 -21.9512 115.494 9
-3 -2 -10 8216.44 457.465 9
-3 -1 10 937.534 218.600 4
-3 -1 9 8429.73 691.410 4
-3 -1 8 17390.7 1106.74 4
-3 -1 7 10059.9 914.784 4
-3 -1 6 57575.6 2187.73 4
-3 -1 5 12293.1 1050.63 4
-3 -1 4 3341.50 563.737 4
-3 -1 3 45390.6 1925.66 5
-3 -1 3 42644.6 1837.51 4
-3 -1 2 31326.6 2173.74 3
-3 -1 1 21878.4 1856.68 3
-3 -1 0 5680.76 981.763 3
-3 -1 -1 32084.9 2365.24 3
-3 -1 -2 14733.9 995.356 5
-3 -1 -2 15792.3 1087.31 8
-3 -1 -3 11880.8 1540.70 3
-3 -1 -3 10922.5 874.679 5
-3 -1 -3 11463.7 807.031 9
-3 -1 -4 3037.79 487.022 7
-3 -1 -4 2887.94 448.721 9
-3 -1 -5 2105.03 426.173 7
-3 -1 -5 2431.79 399.563 9
-3 -1 -6 12085.5 966.811 7
-3 -1 -6 11179.6 860.410 9
-3 -1 -7 29372.4 1380.84 9
-3 -1 -8 15422.8 941.365 9
-3 -1 -9 3526.95 409.770 9
-3 -1 -10 3615.11 316.308 9
-3 0 10 1586.29 251.666 4
-3 0 9 3962.59 468.660 4
-3 0 8 23069.5 1232.18 4
-3 0 7 194924. 3790.14 4
-3 0 6 53759.5 2056.01 4
-3 0 5 30119.5 1545.70 4
-3 0 4 235.310 237.444 4
-3 0 3 12632.6 1341.95 3
-3 0 3 14400.1 1052.65 4
-3 0 2 31959.7 2172.36 3
-3 0 1 5581.58 947.161 3
-3 0 0 13787.3 1493.47 3
-3 0 -1 22917.5 1961.48 3
-3 0 -2 44757.8 1815.91 8
-3 0 -2 44121.3 2756.03 3
-3 0 -2 45890.2 1730.71 5
-3 0 -3 68508.9 2170.54 5
-3 0 -3 65452.7 1920.05 9
-3 0 -4 5462.39 1048.19 3
-3 0 -4 4072.51 521.532 9
-3 0 -5 5154.81 644.265 7
-3 0 -5 5863.71 629.217 9
-3 0 -6 1340.54 391.976 7
-3 0 -6 1532.58 354.267 9
-3 0 -7 22559.5 1209.33 9
-3 0 -8 46036.2 1634.35 9
-3 0 -9 7889.12 603.431 9
-3 0 -10 212.973 93.6052 9
-3 1 9 9366.24 665.516 4
-3 1 8 17017.0 1030.10 4
-3 1 7 8537.35 779.330 4
-3 1 6 58097.0 2066.67 4
-3 1 5 13013.0 978.256 4
-3 1 4 4116.41 557.862 4
-3 1 3 41766.5 2396.26 3
-3 1 3 39120.0 1681.17 4
-3 1 2 29442.7 2040.96 3
-3 1 1 19500.2 1721.64 3
-3 1 0 4956.44 919.979 3
-3 1 -1 30915.0 2315.37 3
-3 1 -2 18241.1 1159.88 8
-3 1 -2 17739.5 1765.25 3
-3 1 -2 18569.2 1123.33 5
-3 1 -3 12984.3 1017.89 8
-3 1 -3 13419.5 1565.70 3
-3 1 -3 12877.2 946.742 5
-3 1 -4 4274.56 953.325 3
-3 1 -4 2484.90 417.607 9
-3 1 -5 2273.93 459.854 7
-3 1 -5 1865.57 376.942 9
-3 1 -6 12889.4 951.240 7
-3 1 -6 13098.7 942.903 9
-3 1 -7 34044.7 1444.63 7
-3 1 -7 30876.7 1420.72 9
-3 1 -8 15462.6 948.964 9
-3 1 -9 3186.91 392.561 9
-3 1 -10 3406.55 308.044 9
-3 2 8 4486.83 523.493 4
-3 2 7 13773.2 956.015 4
-3 2 6 54161.6 1946.82 4
-3 2 5 13557.0 993.536 4
-3 2 4 10898.4 893.043 4
-3 2 3 2749.98 483.607 8
-3 2 3 2926.62 481.549 4
-3 2 2 5644.75 917.950 3
-3 2 1 614.115 354.821 3
-3 2 0 37360.1 2505.90 3
-3 2 -1 -99.6529 285.666 3
-3 2 -2 3293.54 518.497 8
-3 2 -2 3847.73 520.987 5
-3 2 -2 3526.41 820.721 3
-3 2 -3 17629.1 1159.99 8
-3 2 -3 17875.3 1856.18 3
-3 2 -3 19331.1 1152.04 5
-3 2 -4 56522.0 3188.68 3
-3 2 -4 57139.2 2021.79 5
-3 2 -4 54789.4 1880.88 9
-3 2 -5 3365.79 484.861 7
-3 2 -5 3825.42 510.415 9
-3 2 -6 9383.15 795.202 7
-3 2 -6 8355.04 770.998 9
-3 2 -7 1747.93 405.549 7
-3 2 -7 1487.56 338.574 9
-3 2 -8 11037.7 782.160 9
-3 2 -9 18.7773 138.924 9
-3 2 -10 7859.00 442.747 9
-3 3 6 2314.91 384.325 4
-3 3 5 24986.4 1298.91 4
-3 3 4 15809.2 1034.12 4
-3 3 3 19523.2 1146.76 4
-3 3 2 6335.34 739.502 8
-3 3 2 6304.90 993.340 3
-3 3 1 13070.1 1498.92 3
-3 3 0 34372.0 2456.09 3
-3 3 -1 993.326 297.631 8
-3 3 -1 780.341 451.065 3
-3 3 -1 1177.32 339.273 5
-3 3 -2 8997.40 840.541 8
-3 3 -2 9174.43 806.701 5
-3 3 -3 10526.4 910.773 8
-3 3 -3 10876.3 1432.89 3
-3 3 -3 11060.0 887.366 5
-3 3 -4 37469.2 2620.18 3
-3 3 -4 40073.3 1675.47 5
-3 3 -4 36876.7 1547.42 9
-3 3 -5 35283.9 1516.44 7
-3 3 -5 34054.5 1500.82 9
-3 3 -6 1535.35 423.998 7
-3 3 -6 1378.83 346.515 9
-3 3 -7 2346.26 414.984 9
-3 3 -8 14409.0 893.136 9
-3 3 -9 5865.22 487.534 9
-3 4 2 24132.7 1931.93 3
-3 4 1 42560.7 1921.09 8
-3 4 1 41912.4 2666.20 3
-3 4 1 42734.1 1867.18 5
-3 4 0 14342.8 1081.38 8
-3 4 0 14888.7 1699.21 3
-3 4 0 15122.5 1090.56 5
-3 4 -1 462.101 174.922 8
-3 4 -1 566.073 523.773 3
-3 4 -1 594.166 269.032 5
-3 4 -2 403.067 232.631 8
-3 4 -2 510.453 404.387 3
-3 4 -2 313.916 233.686 5
-3 4 -3 12956.6 1009.57 8
-3 4 -3 15206.5 1740.50 3
-3 4 -3 13936.8 973.683 5
-3 4 -4 64151.8 3520.43 3
-3 4 -4 63997.1 2091.63 5
-3 4 -4 65119.2 2226.20 8
-3 4 -5 257.154 193.027 9
-3 4 -6 1752.54 343.968 7
-3 4 -6 2089.92 385.652 9
-3 4 -7 3278.55 472.721 9
-3 4 -8 21897.9 1060.15 9
-3 4 -9 1881.35 282.985 9
-3 5 2 36567.0 2424.86 3
-3 5 1 3767.63 588.064 8
-3 5 1 4218.28 882.589 3
-3 5 1 4407.23 619.545 5
-3 5 0 3932.49 596.905 8
-3 5 0 4305.08 606.118 5
-3 5 0 2860.01 787.125 3
-3 5 -1 4119.94 583.204 8
-3 5 -1 4870.43 618.623 5
-3 5 -1 3093.64 807.960 3
-3 5 -2 46028.1 1897.92 8
-3 5 -2 46577.9 3168.02 3
-3 5 -2 47395.6 1804.19 5
-3 5 -3 7598.25 780.558 8
-3 5 -3 6972.53 701.650 5
-3 5 -3 5251.91 1047.71 3
-3 5 -4 10375.4 901.779 8
-3 5 -5 8482.30 754.062 9
-3 5 -6 12751.9 905.177 9
-3 5 -7 2444.07 398.600 9
-3 5 -8 95.3350 130.838 9
-3 5 -9 669.395 160.811 9
-3 6 2 1288.31 478.352 3
-3 6 1 17669.9 1822.49 3
-3 6 1 18242.7 1234.80 5
-3 6 0 24443.5 1472.93 8
-3 6 0 21132.5 2053.58 3
-3 6 0 24327.8 1402.87 5
-3 6 -1 44301.4 1908.16 8
-3 6 -1 41549.2 2963.73 3
-3 6 -1 43739.1 1786.06 5
-3 6 -2 31313.3 1566.96 8
-3 6 -2 27907.9 2477.47 3
-3 6 -2 29599.5 1417.79 5
-3 6 -3 11933.8 962.120 8
-3 6 -3 12538.6 895.159 5
-3 6 -3 10702.5 1550.23 3
-3 6 -4 2253.26 448.071 8
-3 6 -5 14175.9 982.851 9
-3 6 -6 15741.1 979.979 9
-3 6 -7 7243.79 622.512 9
-3 6 -8 5632.12 494.884 9
-3 6 -9 1538.26 212.845 9
-3 7 2 3191.11 751.305 3
-3 7 2 1146.93 373.029 5
-3 7 1 4756.95 1001.15 3
-3 7 1 5130.77 665.170 5
-3 7 0 40701.4 1932.48 8
-3 7 0 42086.2 1820.62 5
-3 7 -1 99042.0 2897.74 8
-3 7 -1 101679. 2649.64 5
-3 7 -2 62678.9 2231.95 8
-3 7 -2 62222.3 1992.46 5
-3 7 -2 62505.0 3704.88 3
-3 7 -3 295.051 189.899 8
-3 7 -3 350.782 220.330 5
-3 7 -4 999.640 310.238 8
-3 7 -5 4875.29 579.779 9
-3 7 -6 13417.1 884.632 9
-3 7 -7 9052.56 678.258 9
-3 7 -8 1590.85 241.396 9
-3 8 2 8831.51 885.485 5
-3 8 1 38135.7 1765.01 5
-3 8 0 38006.1 1870.65 8
-3 8 0 37889.6 1701.09 5
-3 8 -1 10276.7 957.159 8
-3 8 -1 10053.6 819.520 5
-3 8 -2 16389.5 1134.39 8
-3 8 -3 15703.6 1074.53 8
-3 8 -4 20496.3 1149.74 8
-3 8 -5 4969.28 568.586 9
-3 8 -6 389.798 177.231 9
-3 8 -7 14.7217 112.764 9
-3 8 -8 6561.88 449.756 9
-3 9 2 19914.6 1269.50 5
-3 9 1 20026.0 1258.81 5
-3 9 0 63729.8 2417.34 8
-3 9 0 66625.5 2156.20 5
-3 9 -1 5894.58 711.179 8
-3 9 -2 15233.9 1081.43 8
-3 9 -3 11178.4 876.884 8
-3 9 -5 725.102 262.074 9
-3 9 -6 2888.41 371.137 9
-3 9 -7 3274.55 354.830 9
-3 10 9 1373.34 188.154 5
-3 10 8 690.701 177.185 8
-3 10 3 -178.868 218.977 5
-3 10 2 5442.83 668.660 5
-3 10 0 16316.6 1217.75 8
-3 10 -1 24074.1 1393.87 8
-3 10 -2 1296.14 327.834 8
-3 10 -3 1677.24 315.737 8
-3 10 -5 1664.15 317.504 9
-3 10 -6 1952.63 296.276 9
-3 10 -7 1858.81 236.075 9
-3 11 8 5109.96 362.519 8
-3 11 8 6217.06 424.322 5
-3 11 4 6782.45 672.565 5
-3 11 3 5314.88 617.604 5
-3 11 0 12347.7 1035.74 8
-3 11 -1 5604.97 651.572 8
-3 11 -2 51824.1 1840.18 8
-3 11 -4 1700.32 300.007 9
-3 11 -5 4080.98 422.332 9
-3 11 -6 19448.2 785.957 9
-3 12 7 6782.51 448.851 5
-3 12 6 1823.42 277.603 5
-3 12 5 11657.2 732.761 5
-3 12 4 12915.0 799.609 5
-3 12 1 9539.93 875.451 8
-3 12 0 3850.98 545.825 8
-3 12 -1 2486.45 425.398 8
-3 12 -2 4586.71 508.829 8
-3 12 -4 4413.90 441.953 9
-3 12 -5 14219.1 683.550 9
-3 13 7 4376.52 350.584 8
-3 13 1 803.023 278.257 8
-3 13 0 19.1146 163.488 8
-3 13 -1 2224.88 363.915 8
-3 13 -4 481.005 175.250 9
-3 14 6 11559.7 599.927 8
-3 14 2 1005.21 275.691 8
-3 14 1 15726.3 940.747 8
-3 14 0 19186.3 972.328 8
-3 14 -3 8784.33 522.058 9
-3 15 5 26334.3 885.928 8
-3 15 4 9632.39 601.173 8
-3 15 3 9924.98 652.878 8
-3 15 2 2811.20 364.989 8
-3 15 1 2106.55 311.951 8
-3 15 0 5496.65 439.266 8
-3 15 -2 7556.08 441.092 9
-3 16 4 1522.56 195.314 8
-3 16 3 4646.12 357.869 8
-3 16 2 3094.32 296.619 8
-3 16 1 17842.4 659.645 8
-4 -8 6 11459.9 756.887 4
-4 -8 5 7699.65 691.590 4
-4 -7 7 4907.84 474.980 4
-4 -7 6 4576.46 540.793 4
-4 -7 5 202.483 235.784 4
-4 -7 4 24649.2 1355.87 4
-4 -6 8 2371.53 279.298 4
-4 -6 7 2536.99 378.301 4
-4 -6 6 1103.52 314.990 4
-4 -6 5 5526.83 677.702 4
-4 -6 4 2273.04 480.269 4
-4 -6 3 2479.94 557.678 4
-4 -6 -1 12904.4 911.988 7
-4 -6 -2 5174.02 616.871 7
-4 -5 8 8990.60 577.107 4
-4 -5 7 4140.19 501.964 4
-4 -5 6 2439.78 452.270 4
-4 -5 5 6432.44 742.832 4
-4 -5 4 11051.2 1002.24 4
-4 -5 3 4208.67 642.811 4
-4 -5 0 26027.0 1271.40 7
-4 -5 -1 15503.8 1015.63 7
-4 -5 -2 7531.97 743.725 7
-4 -5 -3 4077.12 569.187 7
-4 -4 8 2100.77 319.263 4
-4 -4 7 3034.06 428.698 4
-4 -4 6 2894.62 500.588 4
-4 -4 5 2378.66 523.729 4
-4 -4 4 608.799 343.905 4
-4 -4 3 2932.81 596.674 4
-4 -4 2 1021.27 297.985 5
-4 -4 1 9862.41 789.037 5
-4 -4 0 1562.00 353.314 7
-4 -4 0 1305.45 338.273 5
-4 -4 -1 3900.40 547.560 7
-4 -4 -2 104.429 245.648 7
-4 -4 -3 -201.722 299.010 7
-4 -4 -4 4589.13 563.050 7
-4 -3 8 -51.4113 116.170 4
-4 -3 7 1744.71 340.196 4
-4 -3 6 7077.44 721.700 4
-4 -3 5 3536.37 572.452 4
-4 -3 4 2863.69 563.574 4
-4 -3 3 2590.10 568.017 4
-4 -3 3 3824.84 519.461 5
-4 -3 2 7109.17 712.826 5
-4 -3 1 115.722 200.310 7
-4 -3 1 478.219 257.916 5
-4 -3 0 13155.6 957.313 7
-4 -3 0 12560.8 937.824 5
-4 -3 -1 26880.3 1393.64 7
-4 -3 -1 26517.4 1326.04 5
-4 -3 -2 -143.192 277.245 7
-4 -3 -3 866.530 272.406 7
-4 -3 -4 1743.65 421.445 7
-4 -3 -5 2054.89 422.124 7
-4 -2 8 2705.99 346.771 4
-4 -2 7 12073.9 803.089 4
-4 -2 6 59259.5 1950.37 4
-4 -2 5 8568.27 755.329 5
-4 -2 5 10963.9 918.867 4
-4 -2 4 767.441 366.858 4
-4 -2 4 548.487 267.640 5
-4 -2 3 986.671 366.211 4
-4 -2 3 1277.36 354.139 5
-4 -2 2 17626.5 1162.52 5
-4 -2 1 19340.6 1206.29 5
-4 -2 0 1072.69 337.398 5
-4 -2 -1 881.065 322.895 7
-4 -2 -1 815.127 291.805 5
-4 -2 -2 7606.37 762.458 7
-4 -2 -3 9564.72 841.081 7
-4 -2 -4 19432.5 1141.91 7
-4 -2 -5 1175.36 365.323 7
-4 -2 -5 1621.93 283.320 9
-4 -2 -6 9553.85 604.749 9
-4 -2 -7 6101.66 405.276 9
-4 -1 8 11033.4 636.634 4
-4 -1 7 13679.9 825.049 4
-4 -1 6 11200.4 825.669 5
-4 -1 6 11711.1 861.227 4
-4 -1 5 24236.5 1362.40 5
-4 -1 5 24040.4 1314.75 4
-4 -1 4 62163.9 2267.14 5
-4 -1 4 60523.5 2165.17 4
-4 -1 3 5854.59 729.190 5
-4 -1 3 6125.83 761.039 4
-4 -1 2 2785.08 478.273 8
-4 -1 2 1842.75 433.883 5
-4 -1 1 2903.04 509.990 5
-4 -1 0 4814.92 626.385 5
-4 -1 -1 6781.00 729.187 5
-4 -1 -2 9096.45 833.357 7
-4 -1 -2 9242.63 817.913 5
-4 -1 -3 12461.5 948.596 7
-4 -1 -4 4102.12 552.158 7
-4 -1 -4 3667.55 435.288 9
-4 -1 -5 938.289 353.857 7
-4 -1 -5 780.965 219.913 9
-4 -1 -6 12140.7 693.502 9
-4 -1 -7 5723.45 413.554 9
-4 0 8 839.881 207.230 4
-4 0 7 2109.16 346.298 4
-4 0 7 1289.98 251.316 5
-4 0 6 1413.50 318.467 4
-4 0 6 2240.15 407.739 5
-4 0 5 893.460 294.392 4
-4 0 5 679.232 286.941 5
-4 0 4 962.763 339.636 4
-4 0 4 554.156 281.378 5
-4 0 3 466.188 264.294 4
-4 0 3 290.793 220.887 5
-4 0 2 602.149 267.210 8
-4 0 2 -45.6668 238.191 5
-4 0 1 58.4149 166.530 8
-4 0 1 137.063 210.493 5
-4 0 0 12067.9 976.005 5
-4 0 0 10069.6 958.194 8
-4 0 -1 21147.6 1263.29 5
-4 0 -2 1565.63 380.920 5
-4 0 -2 1265.88 264.459 9
-4 0 -3 25086.1 1323.48 7
-4 0 -3 23886.0 1140.45 9
-4 0 -4 16259.4 1044.18 7
-4 0 -4 14982.7 882.544 9
-4 0 -5 637.972 304.726 7
-4 0 -5 540.431 189.244 9
-4 0 -6 4128.05 429.335 9
-4 0 -7 9.88718 85.1556 9
-4 1 8 9008.70 524.057 5
-4 1 7 11828.4 792.514 5
-4 1 7 13339.4 741.831 4
-4 1 6 10570.5 888.013 5
-4 1 6 11970.6 787.380 4
-4 1 5 21371.2 1361.44 5
-4 1 5 23593.3 1211.75 4
-4 1 4 63229.8 2437.30 5
-4 1 4 64125.7 2105.09 4
-4 1 3 4623.71 599.116 8
-4 1 3 4580.56 680.753 5
-4 1 2 1945.45 427.996 8
-4 1 2 2176.09 506.377 5
-4 1 1 2348.35 497.244 8
-4 1 1 3088.16 549.460 5
-4 1 0 6466.73 770.935 8
-4 1 0 6503.86 737.164 5
-4 1 -1 7057.59 753.183 5
-4 1 -1 6713.29 628.391 9
-4 1 -1 6696.56 770.608 8
-4 1 -2 8984.39 827.783 5
-4 1 -2 8386.04 691.084 9
-4 1 -3 11981.5 918.135 7
-4 1 -3 10300.4 762.896 9
-4 1 -4 4916.67 590.923 7
-4 1 -4 3994.39 485.253 9
-4 1 -5 1268.78 298.863 7
-4 1 -5 1699.56 298.119 9
-4 1 -6 13729.6 783.943 7
-4 1 -6 13531.9 756.629 9
-4 1 -7 4859.09 402.795 9
-4 2 8 2174.97 280.150 5
-4 2 7 9569.59 738.168 5
-4 2 6 51182.0 1945.72 5
-4 2 6 56994.4 1626.11 4
-4 2 5 10733.0 995.325 5
-4 2 4 609.702 280.326 5
-4 2 3 2368.04 483.866 8
-4 2 3 2020.96 495.603 5
-4 2 2 19355.7 1311.34 8
-4 2 2 20868.6 1392.16 5
-4 2 1 23419.1 1467.11 8
-4 2 1 22362.1 1385.00 5
-4 2 0 1661.79 445.380 8
-4 2 0 1172.40 349.176 5
-4 2 -1 1230.50 405.173 8
-4 2 -1 672.245 294.196 5
-4 2 -2 7820.70 770.710 5
-4 2 -2 7778.49 677.676 9
-4 2 -3 8047.86 678.467 9
-4 2 -4 16490.2 1015.86 7
-4 2 -4 17343.5 965.066 9
-4 2 -5 1152.37 291.756 7
-4 2 -5 2206.03 353.279 9
-4 2 -6 9185.89 632.572 7
-4 2 -6 8437.69 600.273 9
-4 2 -7 7005.49 474.220 9
-4 3 8 94.6148 100.089 5
-4 3 7 1622.41 318.452 5
-4 3 6 8258.47 791.826 5
-4 3 5 4311.16 670.921 5
-4 3 4 3278.19 492.296 8
-4 3 4 3202.25 577.342 5
-4 3 3 2835.40 514.669 8
-4 3 3 3311.35 582.651 5
-4 3 2 6341.69 776.931 8
-4 3 2 6545.40 802.854 5
-4 3 1 335.789 264.482 8
-4 3 1 806.361 365.177 5
-4 3 0 15133.2 1175.54 8
-4 3 0 14096.5 1059.21 5
-4 3 -1 30534.6 1623.06 8
-4 3 -1 28500.9 1445.96 5
-4 3 -2 52.5648 225.796 8
-4 3 -2 288.245 258.305 5
-4 3 -2 339.718 231.762 9
-4 3 -3 819.540 255.119 9
-4 3 -4 1267.26 340.983 7
-4 3 -4 1831.71 345.886 9
-4 3 -5 2288.76 389.060 7
-4 3 -5 2704.65 379.099 9
-4 3 -6 7332.78 533.210 7
-4 3 -6 7808.68 576.401 9
-4 3 -7 264.706 114.224 9
-4 4 8 1527.56 245.977 5
-4 4 7 2964.75 414.667 5
-4 4 6 2420.32 450.629 5
-4 4 5 2127.63 362.208 8
-4 4 5 2148.57 446.461 5
-4 4 4 1192.27 320.362 8
-4 4 4 579.641 302.673 5
-4 4 3 2634.10 486.950 8
-4 4 3 2872.32 569.286 5
-4 4 2 729.219 309.775 8
-4 4 2 618.236 320.973 5
-4 4 1 10385.9 1007.60 8
-4 4 1 10980.5 967.390 5
-4 4 0 933.583 309.386 8
-4 4 0 1278.70 357.073 5
-4 4 -1 2708.61 505.414 8
-4 4 -1 3576.14 532.057 5
-4 4 -2 399.241 286.530 8
-4 4 -2 355.744 221.769 5
-4 4 -3 191.747 192.078 9
-4 4 -4 3192.05 462.524 7
-4 4 -4 3824.33 456.671 9
-4 4 -5 9304.54 667.889 7
-4 4 -5 9276.65 664.294 9
-4 4 -6 2079.54 278.595 7
-4 4 -6 2393.17 312.921 9
-4 4 -7 11.0077 80.6494 9
-4 5 8 8141.67 509.760 5
-4 5 7 4796.79 489.987 5
-4 5 6 2587.36 425.314 5
-4 5 5 8030.90 682.266 8
-4 5 5 8389.93 800.950 5
-4 5 4 10523.3 885.964 8
-4 5 4 12685.8 1048.27 5
-4 5 3 5017.90 671.952 8
-4 5 3 5833.51 746.998 5
-4 5 2 3275.89 592.823 8
-4 5 2 2834.55 516.854 5
-4 5 1 7142.58 821.849 8
-4 5 1 6442.41 747.386 5
-4 5 0 25413.1 1526.71 8
-4 5 0 27782.6 1431.57 5
-4 5 -1 13108.2 1057.06 8
-4 5 -1 13184.4 962.096 5
-4 5 -2 7969.82 823.761 8
-4 5 -2 9006.07 767.273 5
-4 5 -3 3345.24 462.677 9
-4 5 -4 9518.43 710.339 7
-4 5 -4 10847.9 744.290 9
-4 5 -5 1268.51 266.569 7
-4 5 -5 1075.02 247.958 9
-4 5 -6 14499.0 724.434 9
-4 5 -7 3171.11 284.740 9
-4 6 8 2095.45 242.870 5
-4 6 7 3013.58 377.246 5
-4 6 6 1208.88 287.524 5
-4 6 5 6943.00 622.961 8
-4 6 5 6164.08 663.629 5
-4 6 4 2160.93 412.592 8
-4 6 4 2757.30 490.544 5
-4 6 3 2405.22 502.807 8
-4 6 3 2574.42 500.872 5
-4 6 2 24207.1 1450.99 8
-4 6 2 25720.1 1429.01 5
-4 6 1 6515.99 774.489 8
-4 6 1 7209.74 745.117 5
-4 6 0 28557.7 1568.17 8
-4 6 0 28864.9 1399.23 5
-4 6 -1 12613.8 1011.09 8
-4 6 -1 11408.2 864.168 5
-4 6 -2 4321.44 590.369 8
-4 6 -2 4323.93 513.039 5
-4 6 -3 5701.98 572.548 9
-4 6 -4 16923.4 894.093 7
-4 6 -4 17934.3 934.228 9
-4 6 -5 3480.70 357.675 7
-4 6 -5 3727.52 398.733 9
-4 6 -6 3568.25 347.885 9
-4 6 -7 3621.91 273.431 9
-4 7 7 4526.44 413.939 5
-4 7 6 5188.91 424.570 8
-4 7 6 5012.02 509.310 5
-4 7 5 435.645 144.750 8
-4 7 5 148.098 162.344 5
-4 7 4 21062.6 1215.67 8
-4 7 4 21902.8 1225.24 5
-4 7 3 4833.63 639.401 8
-4 7 3 5439.47 651.949 5
-4 7 2 3432.70 547.161 8
-4 7 2 4070.26 567.288 5
-4 7 1 10994.8 962.357 8
-4 7 1 11842.4 904.674 5
-4 7 0 1347.55 377.453 8
-4 7 0 1376.69 329.391 5
-4 7 -1 13904.0 1046.66 8
-4 7 -1 14125.1 908.672 5
-4 7 -2 6114.94 664.700 8
-4 7 -2 7116.20 592.078 5
-4 7 -3 4179.40 484.975 9
-4 7 -4 4652.76 449.645 7
-4 7 -4 4180.69 449.143 9
-4 7 -5 896.751 228.300 9
-4 7 -6 4543.40 367.986 9
-4 8 7 132.810 102.025 5
-4 8 6 10128.0 561.828 8
-4 8 6 9458.38 628.785 5
-4 8 5 7899.33 627.014 8
-4 8 5 7367.40 615.556 5
-4 8 4 600.284 227.182 8
-4 8 4 511.283 224.196 5
-4 8 3 7235.43 735.643 8
-4 8 3 7033.51 676.300 5
-4 8 2 4945.96 617.558 8
-4 8 2 3744.07 502.500 5
-4 8 1 2659.75 478.486 8
-4 8 1 1333.60 305.662 5
-4 8 0 3060.48 502.413 8
-4 8 0 2474.45 383.280 5
-4 8 -1 18938.6 1133.90 8
-4 8 -1 20355.7 998.103 5
-4 8 -2 17703.3 1040.51 8
-4 8 -3 2951.37 404.174 9
-4 8 -4 7956.77 521.506 7
-4 8 -4 8139.42 578.144 9
-4 8 -5 1113.95 213.081 9
-4 8 -6 612.873 130.191 9
-4 9 7 6369.29 359.915 5
-4 9 6 1778.12 221.400 8
-4 9 6 1580.24 229.634 5
-4 9 5 5149.60 467.972 8
-4 9 5 5010.87 458.702 5
-4 9 4 7057.90 634.195 8
-4 9 4 6938.31 575.942 5
-4 9 3 1822.65 358.773 8
-4 9 3 1369.88 276.194 5
-4 9 2 2953.45 475.378 8
-4 9 2 2957.29 388.933 5
-4 9 1 1434.89 352.082 8
-4 9 1 1665.09 308.387 5
-4 9 0 7765.57 734.720 8
-4 9 0 6905.62 567.838 5
-4 9 -1 33747.4 1449.48 8
-4 9 -1 34510.5 1149.81 5
-4 9 -2 14014.7 860.505 8
-4 9 -3 21482.2 970.298 9
-4 9 -4 501.925 150.005 9
-4 9 -5 17104.7 678.911 9
-4 10 6 8210.81 418.787 5
-4 10 5 2137.79 277.703 8
-4 10 5 1972.89 255.815 5
-4 10 4 3588.68 415.802 8
-4 10 4 3266.07 355.686 5
-4 10 3 9289.80 722.995 8
-4 10 3 9218.68 608.099 5
-4 10 2 10060.9 769.906 8
-4 10 2 9644.55 622.255 5
-4 10 1 4476.51 520.510 8
-4 10 1 4774.72 418.029 5
-4 10 0 -89.0739 136.579 8
-4 10 -1 5258.27 527.842 8
-4 10 -2 26214.2 1057.02 8
-4 10 -3 6088.86 472.131 9
-4 10 -4 4623.47 374.442 9
-4 10 -5 836.878 131.077 9
-4 11 5 428.771 121.899 8
-4 11 4 725.744 172.992 8
-4 11 4 389.329 119.987 5
-4 11 3 1202.69 242.883 8
-4 11 3 877.297 143.950 5
-4 11 2 699.225 196.327 8
-4 11 1 -13.7581 117.297 8
-4 11 0 1012.70 241.053 8
-4 11 -1 2720.19 347.944 8
-4 11 -2 2619.26 311.032 9
-4 11 -3 4606.40 365.982 9
-4 11 -4 5067.73 330.587 9
-4 12 4 1328.05 198.397 8
-4 12 3 1367.23 228.497 8
-4 12 2 7554.08 535.744 8
-4 12 1 6000.62 483.383 8
-4 12 0 3509.06 359.336 8
-4 12 -1 665.871 157.791 8
-4 12 -2 8037.23 463.407 9
-4 12 -3 8431.77 412.137 9
-4 13 3 5836.67 373.608 8
-4 13 2 3689.14 312.916 8
-4 13 1 4315.17 335.313 8
-4 13 0 1865.52 214.289 8
-4 13 -1 3352.58 270.448 9
-5 -2 0 2423.48 290.883 7
-5 -2 -1 1999.14 283.795 7
-5 -1 3 14834.7 629.966 5
-5 -1 2 1163.89 214.940 5
-5 -1 0 1824.99 263.997 7
-5 -1 -1 5775.67 483.794 7
-5 -1 -2 2075.32 299.885 7
-5 0 4 1047.48 155.823 5
-5 0 3 4320.23 381.922 5
-5 0 2 1717.32 281.423 5
-5 0 1 5342.43 427.980 7
-5 0 1 5041.30 463.334 5
-5 0 0 150.553 153.558 7
-5 0 -1 10582.3 648.992 7
-5 0 -2 689.626 229.778 7
-5 0 -3 12363.5 607.547 7
-5 1 4 625.816 138.045 5
-5 1 3 16619.6 749.152 5
-5 1 2 949.440 214.305 5
-5 1 1 2365.85 296.656 7
-5 1 1 2312.47 331.811 5
-5 1 0 1650.59 264.216 7
-5 1 -1 5609.14 480.719 7
-5 1 -2 2274.32 307.130 7
-5 1 -3 56.0801 117.934 7
-5 2 4 7194.55 441.473 5
-5 2 3 4488.81 400.597 5
-5 2 2 2706.77 279.289 7
-5 2 2 1806.51 266.206 5
-5 2 1 126.493 132.592 7
-5 2 1 373.659 182.390 5
-5 2 0 3429.43 373.375 7
-5 2 -1 2028.33 301.802 7
-5 2 -2 41.6316 136.477 7
-5 2 -3 4341.04 352.536 7
-5 3 4 1024.72 175.078 5
-5 3 3 4166.17 382.499 5
-5 3 2 -128.557 122.982 7
-5 3 2 153.689 116.774 5
-5 3 1 -112.874 141.031 7
-5 3 1 200.155 140.263 5
-5 3 0 4855.13 426.074 7
-5 3 -1 17707.4 798.959 7
-5 3 -2 1780.26 260.379 7
-5 3 -3 496.099 145.047 7
-5 4 4 2364.87 235.997 5
-5 4 3 2172.34 264.708 5
-5 4 2 8313.21 529.993 5
-5 4 1 8322.94 526.822 7
-5 4 1 9268.32 561.160 5
-5 4 0 11119.1 617.245 7
-5 4 -1 5065.69 413.063 7
-5 4 -2 430.961 141.746 7
-5 5 4 5563.87 327.672 5
-5 5 3 4441.07 339.394 5
-5 5 2 -179.494 138.575 5
-5 5 1 626.832 154.404 5
-5 5 0 407.728 162.056 7
-5 5 -1 5259.33 390.802 7
-5 5 -2 2913.19 268.157 7
-5 6 3 384.746 98.5800 5
-5 6 2 3294.61 276.689 5
-5 6 1 2388.07 240.737 5
-5 6 0 861.424 151.241 7
-5 6 -1 2395.56 246.443 7
-5 7 0 2160.16 214.721 7
