#------------------------------------------------------------------------------
#$Date: 2021-06-05 22:20:57 +0300 (Sat, 05 Jun 2021) $
#$Revision: 266138 $
#$URL: file:///home/coder/svn-repositories/cod/cif/7/06/05/7060570.cif $
#------------------------------------------------------------------------------
#
# This file is available in the Crystallography Open Database (COD),
# http://www.crystallography.net/
#
# All data on this site have been placed in the public domain by the
# contributors.
#
data_7060570
loop_
_publ_author_name
'Melnic, Elena'
'Kravtsov, Victor Ch.'
'Lucenti, Elena'
'Cariati, Elena'
'Forni, Alessandra'
'Siminel, Nikita'
'Fonari, Marina S.'
_publ_section_title
;
 Regulation of \p&#x22EF;\p stacking interactions between triimidazole
 luminophores and comprehensive emission quenching by coordination to
 Cu(ii)
;
_journal_issue                   20
_journal_name_full               'New Journal of Chemistry'
_journal_page_first              9040
_journal_page_last               9052
_journal_paper_doi               10.1039/D1NJ00909E
_journal_volume                  45
_journal_year                    2021
_chemical_formula_sum            'C22 H18 Cu N12 O4'
_chemical_formula_weight         578.02
_space_group_crystal_system      triclinic
_space_group_IT_number           2
_space_group_name_Hall           '-P 1'
_space_group_name_H-M_alt        'P -1'
_atom_sites_solution_hydrogens   geom
_atom_sites_solution_primary     direct
_atom_sites_solution_secondary   difmap
_audit_creation_method           SHELXL-2014/7
_audit_update_record
;
2021-03-30 deposited with the CCDC.	2021-04-16 downloaded from the CCDC.
;
_cell_angle_alpha                86.805(5)
_cell_angle_beta                 82.711(6)
_cell_angle_gamma                77.543(6)
_cell_formula_units_Z            1
_cell_length_a                   5.5430(4)
_cell_length_b                   9.8667(6)
_cell_length_c                   10.8819(7)
_cell_measurement_reflns_used    1373
_cell_measurement_temperature    293(2)
_cell_measurement_theta_max      29.9650
_cell_measurement_theta_min      3.7860
_cell_volume                     576.19(7)
_computing_cell_refinement
;
CrysAlisPro, Agilent Technologies,
Version 1.171.37.35 (release 13-08-2014 CrysAlis171 .NET)
(compiled Aug 13 2014,18:06:01)
;
_computing_data_collection
;
CrysAlisPro, Agilent Technologies,
Version 1.171.37.35 (release 13-08-2014 CrysAlis171 .NET)
(compiled Aug 13 2014,18:06:01)
;
_computing_data_reduction
;
CrysAlisPro, Agilent Technologies,
Version 1.171.37.35 (release 13-08-2014 CrysAlis171 .NET)
(compiled Aug 13 2014,18:06:01)
;
_computing_structure_refinement  'SHELXL-2014/7 (Sheldrick, 2014)'
_computing_structure_solution    'SHELXS-2014 (Sheldrick, 2014)'
_diffrn_ambient_temperature      293(2)
_diffrn_detector_area_resol_mean 15.9914
_diffrn_measured_fraction_theta_full 0.998
_diffrn_measured_fraction_theta_max 0.998
_diffrn_measurement_device_type  'Xcalibur, Eos'
_diffrn_radiation_type           MoK\a
_diffrn_radiation_wavelength     0.71073
_diffrn_reflns_av_R_equivalents  0.0213
_diffrn_reflns_av_unetI/netI     0.0458
_diffrn_reflns_Laue_measured_fraction_full 0.998
_diffrn_reflns_Laue_measured_fraction_max 0.998
_diffrn_reflns_limit_h_max       6
_diffrn_reflns_limit_h_min       -5
_diffrn_reflns_limit_k_max       11
_diffrn_reflns_limit_k_min       -11
_diffrn_reflns_limit_l_max       13
_diffrn_reflns_limit_l_min       -9
_diffrn_reflns_number            3423
_diffrn_reflns_point_group_measured_fraction_full 0.998
_diffrn_reflns_point_group_measured_fraction_max 0.998
_diffrn_reflns_theta_full        25.242
_diffrn_reflns_theta_max         25.498
_diffrn_reflns_theta_min         3.777
_exptl_absorpt_coefficient_mu    1.008
_exptl_absorpt_correction_T_max  1.00000
_exptl_absorpt_correction_T_min  0.88053
_exptl_absorpt_correction_type   multi-scan
_exptl_absorpt_process_details
;
CrysAlisPro, Agilent Technologies,
Version 1.171.37.35 (release 13-08-2014 CrysAlis171 .NET)
(compiled Aug 13 2014,18:06:01)
Empirical absorption correction using spherical harmonics,
 implemented in SCALE3 ABSPACK scaling algorithm.
;
_exptl_crystal_colour            violet
_exptl_crystal_density_diffrn    1.666
_exptl_crystal_description       prism
_exptl_crystal_F_000             295
_exptl_crystal_size_max          0.600
_exptl_crystal_size_mid          0.220
_exptl_crystal_size_min          0.080
_refine_diff_density_max         0.476
_refine_diff_density_min         -0.421
_refine_diff_density_rms         0.065
_refine_ls_extinction_method     none
_refine_ls_goodness_of_fit_ref   1.001
_refine_ls_hydrogen_treatment    constr
_refine_ls_matrix_type           full
_refine_ls_number_parameters     179
_refine_ls_number_reflns         2136
_refine_ls_number_restraints     0
_refine_ls_restrained_S_all      1.001
_refine_ls_R_factor_all          0.0460
_refine_ls_R_factor_gt           0.0403
_refine_ls_shift/su_max          0.000
_refine_ls_shift/su_mean         0.000
_refine_ls_structure_factor_coef Fsqd
_refine_ls_weighting_details
'w=1/[\s^2^(Fo^2^)+(0.0585P)^2^+0.1885P] where P=(Fo^2^+2Fc^2^)/3'
_refine_ls_weighting_scheme      calc
_refine_ls_wR_factor_gt          0.1042
_refine_ls_wR_factor_ref         0.1108
_reflns_Friedel_coverage         0.000
_reflns_number_gt                1886
_reflns_number_total             2136
_reflns_threshold_expression     'I > 2\s(I)'
_cod_data_source_file            d1nj00909e2.cif
_cod_data_source_block           str_4
_cod_depositor_comments
'Adding full bibliography for 7060567--7060574.cif.'
_cod_original_cell_volume        576.20(7)
_cod_database_code               7060570
_shelx_shelxl_version_number     2014/7
_shelx_space_group_comment
;
The symmetry employed for this shelxl refinement is uniquely defined
by the following loop, which should always be used as a source of
symmetry information in preference to the above space-group names.
They are only intended as comments.
;
_shelx_estimated_absorpt_t_min   0.583
_shelx_estimated_absorpt_t_max   0.924
_shelx_res_file
;

    V_5497.res created by SHELXL-2014/7


TITL CF solution in P-1
CELL 0.71073 5.543049 9.866738 10.881895 86.8051 82.7113 77.5429
ZERR 1 0.000383 0.000631 0.000732 0.0053 0.0056 0.0057
LATT 1
SFAC C  H  N  O  Cu
UNIT 22  18  12  4  1
OMIT 0 51
L.S. 7
ACTA
BOND
FMAP 2
PLAN 25
HTAB
EQIV $1 -x+1, -y+1, -z
HTAB C1 O2_$1
HTAB C3 O2_$1
EQIV $2 -x, -y, -z+1
HTAB C4 N2_$2
EQIV $3 -x+2, -y+1, -z+1
HTAB C7 O1_$3
SIZE 0.6x0.22x0.08
DELU 0.01 C5
DELU 0.005 C2
WGHT    0.058500    0.188500
FVAR       6.22499
CU1   5    1.000000    0.500000    0.000000    10.50000    0.04969    0.04384 =
         0.01955    0.00498   -0.00391   -0.02769
C1    1    0.654082    0.337306    0.148800    11.00000    0.04767    0.04147 =
         0.02680    0.00227   -0.00309   -0.02537
AFIX  43
H1    2    0.599231    0.311155    0.078175    11.00000   -1.20000
AFIX   0
C2    1    0.584731    0.299109    0.265783    11.00000    0.03825    0.03283 =
         0.02640    0.00242   -0.00356   -0.01527
C3    1    0.279533    0.140488    0.273636    11.00000    0.04293    0.04215 =
         0.03553   -0.00306   -0.00526   -0.02182
AFIX  43
H3    2    0.261980    0.132975    0.190571    11.00000   -1.20000
AFIX   0
C4    1    0.166516    0.080613    0.373472    11.00000    0.04157    0.03899 =
         0.04552    0.00156   -0.00195   -0.02195
AFIX  43
H4    2    0.053942    0.024133    0.368473    11.00000   -1.20000
AFIX   0
C5    1    0.392577    0.193274    0.447810    11.00000    0.03434    0.03157 =
         0.02776    0.00342    0.00142   -0.01279
C6    1    0.524633    0.257629    0.646042    11.00000    0.05508    0.04498 =
         0.02424    0.00546    0.00148   -0.01712
AFIX  43
H6    2    0.438701    0.209227    0.705975    11.00000   -1.20000
AFIX   0
C7    1    0.674973    0.341952    0.664783    11.00000    0.06089    0.04360 =
         0.02424    0.00122   -0.00820   -0.01311
AFIX  43
H7    2    0.709346    0.361494    0.742567    11.00000   -1.20000
AFIX   0
C8    1    0.677208    0.342952    0.471416    11.00000    0.03589    0.03087 =
         0.02604    0.00347   -0.00224   -0.01071
C9    1    0.850608    0.434995    0.267504    11.00000    0.03974    0.03671 =
         0.03010   -0.00032    0.00164   -0.02015
AFIX  43
H9    2    0.953556    0.487133    0.294766    11.00000   -1.20000
AFIX   0
N1    3    0.822094    0.422724    0.151437    11.00000    0.04556    0.03939 =
         0.02777    0.00312   -0.00270   -0.02181
N2    3    0.237573    0.113033    0.483395    11.00000    0.04426    0.03607 =
         0.03889    0.00409    0.00245   -0.01865
N3    3    0.773669    0.396870    0.554067    11.00000    0.04677    0.04156 =
         0.02849    0.00159   -0.00583   -0.01634
N4    3    0.523523    0.257370    0.519209    11.00000    0.04266    0.03631 =
         0.02288    0.00341   -0.00051   -0.01673
N5    3    0.708429    0.360737    0.342479    11.00000    0.03565    0.03164 =
         0.02520    0.00289   -0.00139   -0.01593
N6    3    0.427055    0.215387    0.322994    11.00000    0.03826    0.03453 =
         0.02468    0.00407   -0.00029   -0.01832
O1    4    1.052193    0.647750    0.095676    11.00000    0.06658    0.05169 =
         0.02135    0.00446   -0.00586   -0.03400
C10   1    0.890675    0.759372    0.078580    11.00000    0.06859    0.05504 =
         0.01942    0.00417    0.00149   -0.03336
C11   1    0.934470    0.887319    0.136282    11.00000    0.10629    0.05188 =
         0.05310   -0.00332   -0.00321   -0.03711
AFIX 137
H11A  2    0.803743    0.965343    0.120880    11.00000   -1.50000
H11B  2    1.091559    0.906294    0.100406    11.00000   -1.50000
H11C  2    0.935794    0.871204    0.224037    11.00000   -1.50000
AFIX   0
O2    4    0.713316    0.765418    0.020589    11.00000    0.06949    0.08587 =
         0.05098   -0.00221   -0.01930   -0.02481
HKLF 4

REM  CF solution in P-1
REM R1 =  0.0403 for    1886 Fo > 4sig(Fo)  and  0.0460 for all    2136 data
REM    179 parameters refined using      0 restraints

END

WGHT      0.0463      0.2092

REM Instructions for potential hydrogen bonds
HTAB C1 O2_$1
HTAB C3 O2_$1
HTAB C4 N2_$2
HTAB C7 O1_$3

REM Highest difference peak  0.476,  deepest hole -0.421,  1-sigma level  0.065
Q1    1   1.2115  0.4799  0.0202  11.00000  0.05    0.48
Q2    1   0.5821  0.3595  0.3123  11.00000  0.05    0.30
Q3    1   0.5056  0.2562  0.2975  11.00000  0.05    0.28
Q4    1   0.2983  0.2075  0.2959  11.00000  0.05    0.27
Q5    1   1.1439  0.3816  0.0228  11.00000  0.05    0.27
Q6    1   0.6989  0.3012  0.2999  11.00000  0.05    0.26
Q7    1   1.0871  0.5818  0.0202  11.00000  0.05    0.23
Q8    1   0.3750  0.2377  0.3758  11.00000  0.05    0.22
Q9    1   0.7865  0.3507  0.4983  11.00000  0.05    0.22
Q10   1   0.5108  0.4680  0.0802  11.00000  0.05    0.22
Q11   1   0.9953  0.3760  0.1952  11.00000  0.05    0.22
Q12   1   0.4536  0.2189  0.4854  11.00000  0.05    0.21
Q13   1   0.6046  0.2939  0.4838  11.00000  0.05    0.21
Q14   1   1.1034  0.6946  0.0651  11.00000  0.05    0.20
Q15   1   0.2933  0.1604  0.4778  11.00000  0.05    0.20
Q16   1   0.7770  0.7408 -0.0125  11.00000  0.05    0.20
Q17   1   0.7388  0.4970  0.1396  11.00000  0.05    0.20
Q18   1   1.3171  0.7708  0.1190  11.00000  0.05    0.19
Q19   1   1.0815  0.5641  0.0933  11.00000  0.05    0.19
Q20   1   1.1278  0.7191  0.0968  11.00000  0.05    0.19
Q21   1   0.5714  0.3131  0.2256  11.00000  0.05    0.19
Q22   1   0.6158  0.1818  0.3221  11.00000  0.05    0.19
Q23   1   0.7516  0.4816  0.5527  11.00000  0.05    0.19
Q24   1   0.5479  0.8951  0.0169  11.00000  0.05    0.18
Q25   1   0.6368  0.2622  0.6590  11.00000  0.05    0.18
;
_shelx_res_checksum              7094
loop_
_space_group_symop_operation_xyz
'x, y, z'
'-x, -y, -z'
loop_
_atom_site_label
_atom_site_type_symbol
_atom_site_fract_x
_atom_site_fract_y
_atom_site_fract_z
_atom_site_U_iso_or_equiv
_atom_site_adp_type
_atom_site_occupancy
_atom_site_site_symmetry_order
_atom_site_calc_flag
_atom_site_refinement_flags_posn
_atom_site_refinement_flags_adp
_atom_site_refinement_flags_occupancy
_atom_site_disorder_assembly
_atom_site_disorder_group
Cu1 Cu 1.0000 0.5000 0.0000 0.0352(2) Uani 1 2 d S . P . .
C1 C 0.6541(5) 0.3373(3) 0.1488(3) 0.0365(7) Uani 1 1 d . . . . .
H1 H 0.5992 0.3112 0.0782 0.044 Uiso 1 1 calc R U . . .
C2 C 0.5847(5) 0.2991(3) 0.2658(2) 0.0315(6) Uani 1 1 d . . . . .
C3 C 0.2795(5) 0.1405(3) 0.2736(3) 0.0381(7) Uani 1 1 d . . . . .
H3 H 0.2620 0.1330 0.1906 0.046 Uiso 1 1 calc R U . . .
C4 C 0.1665(6) 0.0806(3) 0.3735(3) 0.0404(7) Uani 1 1 d . . . . .
H4 H 0.0539 0.0241 0.3685 0.048 Uiso 1 1 calc R U . . .
C5 C 0.3926(5) 0.1933(3) 0.4478(2) 0.0309(6) Uani 1 1 d . . . . .
C6 C 0.5246(6) 0.2576(3) 0.6460(3) 0.0412(7) Uani 1 1 d . . . . .
H6 H 0.4387 0.2092 0.7060 0.049 Uiso 1 1 calc R U . . .
C7 C 0.6750(6) 0.3420(3) 0.6648(3) 0.0424(7) Uani 1 1 d . . . . .
H7 H 0.7093 0.3615 0.7426 0.051 Uiso 1 1 calc R U . . .
C8 C 0.6772(5) 0.3430(3) 0.4714(2) 0.0307(6) Uani 1 1 d . . . . .
C9 C 0.8506(5) 0.4350(3) 0.2675(2) 0.0342(6) Uani 1 1 d . . . . .
H9 H 0.9536 0.4871 0.2948 0.041 Uiso 1 1 calc R U . . .
N1 N 0.8221(4) 0.4227(2) 0.1514(2) 0.0359(6) Uani 1 1 d . . . . .
N2 N 0.2376(5) 0.1130(2) 0.4834(2) 0.0390(6) Uani 1 1 d . . . . .
N3 N 0.7737(5) 0.3969(3) 0.5541(2) 0.0378(6) Uani 1 1 d . . . . .
N4 N 0.5235(4) 0.2574(2) 0.51921(19) 0.0331(5) Uani 1 1 d . . . . .
N5 N 0.7084(4) 0.3607(2) 0.3425(2) 0.0298(5) Uani 1 1 d . . . . .
N6 N 0.4271(4) 0.2154(2) 0.32299(19) 0.0314(5) Uani 1 1 d . . . . .
O1 O 1.0522(4) 0.6477(2) 0.09568(17) 0.0434(5) Uani 1 1 d . . . . .
C10 C 0.8907(7) 0.7594(4) 0.0786(3) 0.0454(8) Uani 1 1 d . . . . .
C11 C 0.9345(9) 0.8873(4) 0.1363(4) 0.0678(11) Uani 1 1 d . . . . .
H11A H 0.8037 0.9653 0.1209 0.102 Uiso 1 1 calc R U . . .
H11B H 1.0916 0.9063 0.1004 0.102 Uiso 1 1 calc R U . . .
H11C H 0.9358 0.8712 0.2240 0.102 Uiso 1 1 calc R U . . .
O2 O 0.7133(5) 0.7654(3) 0.0206(2) 0.0664(7) Uani 1 1 d . . . . .
loop_
_atom_site_aniso_label
_atom_site_aniso_U_11
_atom_site_aniso_U_22
_atom_site_aniso_U_33
_atom_site_aniso_U_23
_atom_site_aniso_U_13
_atom_site_aniso_U_12
Cu1 0.0497(3) 0.0438(3) 0.0196(3) 0.0050(2) -0.0039(2) -0.0277(2)
C1 0.0477(17) 0.0415(16) 0.0268(14) 0.0023(12) -0.0031(12) -0.0254(14)
C2 0.0383(15) 0.0328(14) 0.0264(14) 0.0024(11) -0.0036(11) -0.0153(12)
C3 0.0429(17) 0.0422(16) 0.0355(16) -0.0031(13) -0.0053(13) -0.0218(14)
C4 0.0416(16) 0.0390(16) 0.0455(18) 0.0016(13) -0.0020(13) -0.0219(13)
C5 0.0343(15) 0.0316(14) 0.0278(14) 0.0034(11) 0.0014(11) -0.0128(12)
C6 0.0551(19) 0.0450(17) 0.0242(14) 0.0055(12) 0.0015(13) -0.0171(15)
C7 0.061(2) 0.0436(17) 0.0242(15) 0.0012(13) -0.0082(13) -0.0131(15)
C8 0.0359(15) 0.0309(14) 0.0260(14) 0.0035(11) -0.0022(11) -0.0107(11)
C9 0.0397(15) 0.0367(15) 0.0301(15) -0.0003(12) 0.0016(12) -0.0202(12)
N1 0.0456(14) 0.0394(13) 0.0278(12) 0.0031(10) -0.0027(10) -0.0218(11)
N2 0.0443(14) 0.0361(13) 0.0389(14) 0.0041(11) 0.0024(11) -0.0187(11)
N3 0.0468(14) 0.0416(13) 0.0285(12) 0.0016(10) -0.0058(10) -0.0163(11)
N4 0.0427(13) 0.0363(13) 0.0229(12) 0.0034(10) -0.0005(10) -0.0167(11)
N5 0.0357(12) 0.0316(12) 0.0252(11) 0.0029(9) -0.0014(9) -0.0159(10)
N6 0.0383(13) 0.0345(12) 0.0247(12) 0.0041(9) -0.0003(9) -0.0183(10)
O1 0.0666(15) 0.0517(13) 0.0214(10) 0.0045(9) -0.0059(9) -0.0340(12)
C10 0.069(2) 0.055(2) 0.0194(14) 0.0042(13) 0.0015(14) -0.0334(18)
C11 0.106(3) 0.052(2) 0.053(2) -0.0033(18) -0.003(2) -0.037(2)
O2 0.0695(17) 0.0859(19) 0.0510(15) -0.0022(14) -0.0193(13) -0.0248(15)
loop_
_atom_type_symbol
_atom_type_description
_atom_type_scat_dispersion_real
_atom_type_scat_dispersion_imag
_atom_type_scat_source
C C 0.0033 0.0016 'International Tables Vol C Tables 4.2.6.8 and 6.1.1.4'
H H 0.0000 0.0000 'International Tables Vol C Tables 4.2.6.8 and 6.1.1.4'
N N 0.0061 0.0033 'International Tables Vol C Tables 4.2.6.8 and 6.1.1.4'
O O 0.0106 0.0060 'International Tables Vol C Tables 4.2.6.8 and 6.1.1.4'
Cu Cu 0.3201 1.2651 'International Tables Vol C Tables 4.2.6.8 and 6.1.1.4'
loop_
_geom_angle_atom_site_label_1
_geom_angle_atom_site_label_2
_geom_angle_atom_site_label_3
_geom_angle
_geom_angle_site_symmetry_1
_geom_angle_site_symmetry_3
_geom_angle_publ_flag
O1 Cu1 O1 180.00(12) 2_765 . ?
O1 Cu1 N1 90.28(9) 2_765 2_765 ?
O1 Cu1 N1 89.72(9) . 2_765 ?
O1 Cu1 N1 89.72(9) 2_765 . ?
O1 Cu1 N1 90.28(9) . . ?
N1 Cu1 N1 180.0 2_765 . ?
C2 C1 N1 108.1(2) . . ?
C1 C2 N5 107.5(2) . . ?
C1 C2 N6 135.6(2) . . ?
N5 C2 N6 116.9(2) . . ?
C4 C3 N6 104.6(2) . . ?
C3 C4 N2 112.3(2) . . ?
N2 C5 N6 113.8(2) . . ?
N2 C5 N4 129.0(2) . . ?
N6 C5 N4 117.2(2) . . ?
C7 C6 N4 105.7(2) . . ?
C6 C7 N3 111.9(3) . . ?
N3 C8 N4 114.1(2) . . ?
N3 C8 N5 129.2(2) . . ?
N4 C8 N5 116.7(2) . . ?
N1 C9 N5 110.3(2) . . ?
C9 N1 C1 107.6(2) . . ?
C9 N1 Cu1 127.86(19) . . ?
C1 N1 Cu1 124.46(19) . . ?
C5 N2 C4 103.3(2) . . ?
C8 N3 C7 103.0(2) . . ?
C8 N4 C6 105.2(2) . . ?
C8 N4 C5 123.7(2) . . ?
C6 N4 C5 130.9(2) . . ?
C9 N5 C2 106.6(2) . . ?
C9 N5 C8 130.9(2) . . ?
C2 N5 C8 122.5(2) . . ?
C5 N6 C3 106.0(2) . . ?
C5 N6 C2 122.9(2) . . ?
C3 N6 C2 131.0(2) . . ?
C10 O1 Cu1 110.45(19) . . ?
O2 C10 O1 123.9(3) . . ?
O2 C10 C11 121.3(4) . . ?
O1 C10 C11 114.9(3) . . ?
loop_
_geom_bond_atom_site_label_1
_geom_bond_atom_site_label_2
_geom_bond_distance
_geom_bond_site_symmetry_2
_geom_bond_publ_flag
Cu1 O1 1.9288(19) 2_765 ?
Cu1 O1 1.9288(19) . ?
Cu1 N1 2.010(2) 2_765 ?
Cu1 N1 2.010(2) . ?
C1 C2 1.340(4) . ?
C1 N1 1.388(3) . ?
C2 N5 1.385(3) . ?
C2 N6 1.396(3) . ?
C3 C4 1.355(4) . ?
C3 N6 1.386(3) . ?
C4 N2 1.380(4) . ?
C5 N2 1.300(3) . ?
C5 N6 1.359(3) . ?
C5 N4 1.388(3) . ?
C6 C7 1.338(4) . ?
C6 N4 1.381(3) . ?
C7 N3 1.390(4) . ?
C8 N3 1.295(3) . ?
C8 N4 1.363(3) . ?
C8 N5 1.398(3) . ?
C9 N1 1.308(3) . ?
C9 N5 1.358(3) . ?
O1 C10 1.282(4) . ?
C10 O2 1.223(4) . ?
C10 C11 1.519(4) . ?
loop_
_geom_hbond_atom_site_label_D
_geom_hbond_atom_site_label_H
_geom_hbond_atom_site_label_A
_geom_hbond_distance_DH
_geom_hbond_distance_HA
_geom_hbond_distance_DA
_geom_hbond_angle_DHA
_geom_hbond_site_symmetry_A
C1 H1 O2 0.93 2.42 3.259(4) 150.2 2_665
C3 H3 O2 0.93 2.45 3.281(4) 148.1 2_665
C4 H4 N2 0.93 2.66 3.424(4) 139.8 2_556
C7 H7 O1 0.93 2.32 3.192(3) 156.3 2_766
