#------------------------------------------------------------------------------
#$Date: 2021-06-05 22:20:57 +0300 (Sat, 05 Jun 2021) $
#$Revision: 266138 $
#$URL: file:///home/coder/svn-repositories/cod/cif/7/06/05/7060572.cif $
#------------------------------------------------------------------------------
#
# This file is available in the Crystallography Open Database (COD),
# http://www.crystallography.net/
#
# All data on this site have been placed in the public domain by the
# contributors.
#
data_7060572
loop_
_publ_author_name
'Melnic, Elena'
'Kravtsov, Victor Ch.'
'Lucenti, Elena'
'Cariati, Elena'
'Forni, Alessandra'
'Siminel, Nikita'
'Fonari, Marina S.'
_publ_section_title
;
 Regulation of \p&#x22EF;\p stacking interactions between triimidazole
 luminophores and comprehensive emission quenching by coordination to
 Cu(ii)
;
_journal_issue                   20
_journal_name_full               'New Journal of Chemistry'
_journal_page_first              9040
_journal_page_last               9052
_journal_paper_doi               10.1039/D1NJ00909E
_journal_volume                  45
_journal_year                    2021
_chemical_formula_sum            'C14 H9 Cu N9 O6'
_chemical_formula_weight         462.84
_space_group_crystal_system      triclinic
_space_group_IT_number           2
_space_group_name_Hall           '-P 1'
_space_group_name_H-M_alt        'P -1'
_atom_sites_solution_hydrogens   geom
_atom_sites_solution_primary     direct
_atom_sites_solution_secondary   difmap
_audit_creation_method           SHELXL-2014/7
_audit_update_record
;
2021-03-30 deposited with the CCDC.	2021-04-16 downloaded from the CCDC.
;
_cell_angle_alpha                102.727(14)
_cell_angle_beta                 96.166(12)
_cell_angle_gamma                93.241(13)
_cell_formula_units_Z            2
_cell_length_a                   5.3026(8)
_cell_length_b                   8.8828(15)
_cell_length_c                   18.203(3)
_cell_measurement_reflns_used    953
_cell_measurement_temperature    293(2)
_cell_measurement_theta_max      24.8440
_cell_measurement_theta_min      3.6600
_cell_volume                     828.6(2)
_computing_cell_refinement
;
CrysAlisPro, Agilent Technologies,
Version 1.171.37.35 (release 13-08-2014 CrysAlis171 .NET)
(compiled Aug 13 2014,18:06:01)
;
_computing_data_collection
;
CrysAlisPro, Agilent Technologies,
Version 1.171.37.35 (release 13-08-2014 CrysAlis171 .NET)
(compiled Aug 13 2014,18:06:01)
;
_computing_data_reduction
;
CrysAlisPro, Agilent Technologies,
Version 1.171.37.35 (release 13-08-2014 CrysAlis171 .NET)
(compiled Aug 13 2014,18:06:01)
;
_computing_structure_refinement  'SHELXL-2014/7 (Sheldrick, 2014)'
_computing_structure_solution    'SHELXS-2014 (Sheldrick, 2014)'
_diffrn_ambient_temperature      293(2)
_diffrn_detector_area_resol_mean 15.9914
_diffrn_measured_fraction_theta_full 0.997
_diffrn_measured_fraction_theta_max 0.997
_diffrn_measurement_device_type  'Xcalibur, Eos'
_diffrn_radiation_type           MoK\a
_diffrn_radiation_wavelength     0.71073
_diffrn_reflns_av_R_equivalents  0.0674
_diffrn_reflns_av_unetI/netI     0.1322
_diffrn_reflns_Laue_measured_fraction_full 0.997
_diffrn_reflns_Laue_measured_fraction_max 0.997
_diffrn_reflns_limit_h_max       6
_diffrn_reflns_limit_h_min       -6
_diffrn_reflns_limit_k_max       10
_diffrn_reflns_limit_k_min       -10
_diffrn_reflns_limit_l_max       21
_diffrn_reflns_limit_l_min       -16
_diffrn_reflns_number            5231
_diffrn_reflns_point_group_measured_fraction_full 0.997
_diffrn_reflns_point_group_measured_fraction_max 0.997
_diffrn_reflns_theta_full        24.997
_diffrn_reflns_theta_max         24.997
_diffrn_reflns_theta_min         2.902
_diffrn_source                   'Enhance (Mo) X-ray Source'
_exptl_absorpt_coefficient_mu    1.380
_exptl_absorpt_correction_T_max  1.00000
_exptl_absorpt_correction_T_min  0.86784
_exptl_absorpt_correction_type   multi-scan
_exptl_absorpt_process_details
;
CrysAlisPro, Agilent Technologies,
Version 1.171.37.35 (release 13-08-2014 CrysAlis171 .NET)
(compiled Aug 13 2014,18:06:01)
Empirical absorption correction using spherical harmonics,
 implemented in SCALE3 ABSPACK scaling algorithm.
;
_exptl_crystal_colour            green
_exptl_crystal_density_diffrn    1.855
_exptl_crystal_description       prism
_exptl_crystal_F_000             466
_exptl_crystal_size_max          0.350
_exptl_crystal_size_mid          0.080
_exptl_crystal_size_min          0.040
_refine_diff_density_max         0.894
_refine_diff_density_min         -0.589
_refine_diff_density_rms         0.125
_refine_ls_extinction_method     none
_refine_ls_goodness_of_fit_ref   0.999
_refine_ls_hydrogen_treatment    constr
_refine_ls_matrix_type           full
_refine_ls_number_parameters     271
_refine_ls_number_reflns         2905
_refine_ls_number_restraints     0
_refine_ls_restrained_S_all      0.999
_refine_ls_R_factor_all          0.1203
_refine_ls_R_factor_gt           0.0817
_refine_ls_shift/su_max          0.000
_refine_ls_shift/su_mean         0.000
_refine_ls_structure_factor_coef Fsqd
_refine_ls_weighting_details
'w=1/[\s^2^(Fo^2^)+(0.0851P)^2^] where P=(Fo^2^+2Fc^2^)/3'
_refine_ls_weighting_scheme      calc
_refine_ls_wR_factor_gt          0.1779
_refine_ls_wR_factor_ref         0.2083
_reflns_Friedel_coverage         0.000
_reflns_number_gt                1786
_reflns_number_total             2905
_reflns_threshold_expression     'I > 2\s(I)'
_cod_data_source_file            d1nj00909e2.cif
_cod_data_source_block           str_8
_cod_depositor_comments
'Adding full bibliography for 7060567--7060574.cif.'
_cod_original_cell_volume        828.7(2)
_cod_database_code               7060572
_shelx_shelxl_version_number     2014/7
_shelx_space_group_comment
;
The symmetry employed for this shelxl refinement is uniquely defined
by the following loop, which should always be used as a source of
symmetry information in preference to the above space-group names.
They are only intended as comments.
;
_shelx_estimated_absorpt_t_min   0.644
_shelx_estimated_absorpt_t_max   0.947
_shelx_res_file
;

    V_5260_ItL42.res created by SHELXL-2014/7


TITL CF solution in P-1
CELL 0.71073 5.30262 8.882773 18.203341 102.7272 96.1662 93.2407
ZERR 2 0.000824 0.001528 0.002682 0.0136 0.0124 0.0133
LATT 1
SFAC C  H  N  O  Cu
UNIT 28  18  18  12  2
OMIT 0 50
L.S. 10
ACTA
BOND
SIZE 0.35x0.08x0.04
FMAP 2
PLAN 25
HTAB
EQIV $1 x-1, y, z
HTAB C1 O5_$1
EQIV $2 -x, -y+1, -z
HTAB C2 N3_$2
EQIV $3 -x+1, -y+1, -z
HTAB C4 O5_$3
EQIV $4 -x+2, -y+2, -z
HTAB C5 N2_$4
EQIV $5 x+1, y+1, z
HTAB C7 O6_$5
HTAB C11 O6_$5
EQIV $6 -x+1, -y+2, -z+1
HTAB C14 O1_$6
WGHT    0.085100
FVAR       3.84352
CU1   5    0.407514    0.844811    0.327675    11.00000    0.04882    0.04711 =
         0.03014    0.00569    0.01428   -0.00761
C1    1    0.045769    0.707602    0.187963    11.00000    0.03987    0.06123 =
         0.04056    0.00828    0.01450   -0.00872
AFIX  43
H1    2   -0.077083    0.669122    0.213397    11.00000   -1.20000
AFIX   0
C2    1    0.063076    0.657262    0.114080    11.00000    0.04207    0.05301 =
         0.03926    0.00453    0.00767   -0.01957
AFIX  43
H2    2   -0.040493    0.579750    0.079436    11.00000   -1.20000
AFIX   0
C3    1    0.379549    0.737846    0.033753    11.00000    0.05071    0.03742 =
         0.03002    0.00141    0.01412   -0.00515
C4    1    0.504732    0.685040   -0.073749    11.00000    0.06345    0.05463 =
         0.02925   -0.00044    0.01722    0.00145
AFIX  43
H4    2    0.510442    0.638552   -0.124522    11.00000   -1.20000
AFIX   0
C5    1    0.676181    0.796882   -0.032956    11.00000    0.05590    0.05606 =
         0.01766    0.00664    0.01590    0.00114
AFIX  43
H5    2    0.818046    0.841129   -0.048693    11.00000   -1.20000
AFIX   0
C6    1    0.694985    0.936851    0.103585    11.00000    0.04876    0.03958 =
         0.04156    0.00766    0.02784    0.00121
C7    1    0.904129    1.112589    0.189411    11.00000    0.06105    0.04864 =
         0.03850    0.00226    0.02213   -0.01605
AFIX  43
H7    2    1.026986    1.192534    0.212806    11.00000   -1.20000
AFIX   0
C8    1    0.710914    1.063025    0.225030    11.00000    0.03987    0.02922 =
         0.03076   -0.00282    0.01033   -0.01365
C9    1    0.362078    0.845427    0.166089    11.00000    0.03948    0.03958 =
         0.03711   -0.00191    0.02133   -0.00052
C10   1    0.652422    1.138808    0.300917    11.00000    0.04488    0.03696 =
         0.01869   -0.00016    0.00845   -0.00297
C11   1    0.761356    1.288898    0.332328    11.00000    0.07336    0.04025 =
         0.03538    0.00621    0.02612   -0.00375
AFIX  43
H11   2    0.866603    1.337045    0.305140    11.00000   -1.20000
AFIX   0
C12   1    0.714994    1.366205    0.402821    11.00000    0.07633    0.04649 =
         0.04606   -0.01068    0.00288   -0.00625
AFIX  43
H12   2    0.791076    1.465282    0.424369    11.00000   -1.20000
AFIX   0
C13   1    0.552737    1.293653    0.441136    11.00000    0.07431    0.04713 =
         0.03795   -0.00334    0.02027   -0.00339
AFIX  43
H13   2    0.512281    1.344387    0.488254    11.00000   -1.20000
AFIX   0
C14   1    0.454223    1.148079    0.408987    11.00000    0.06004    0.04202 =
         0.04052    0.00999    0.02156   -0.00363
AFIX  43
H14   2    0.344837    1.099981    0.435069    11.00000   -1.20000
AFIX   0
N1    3    0.235016    0.825127    0.222219    11.00000    0.03266    0.04429 =
         0.03123    0.01190    0.00981   -0.00639
N2    3    0.897014    1.032155    0.115988    11.00000    0.04916    0.05031 =
         0.03361    0.00054    0.01887   -0.02278
N3    3    0.316390    0.645958   -0.031579    11.00000    0.05665    0.05146 =
         0.02900   -0.00133    0.01747   -0.01256
N4    3    0.592739    0.831974    0.038927    11.00000    0.03937    0.04450 =
         0.03088   -0.00263    0.01030   -0.01210
N5    3    0.571000    0.946351    0.168075    11.00000    0.03420    0.03579 =
         0.02130    0.00175    0.01306   -0.00964
N6    3    0.267985    0.745241    0.100328    11.00000    0.03552    0.04168 =
         0.03261   -0.00165    0.01650   -0.00730
N7    3    0.505668    1.068488    0.341107    11.00000    0.05186    0.04077 =
         0.02256    0.00211    0.01329    0.00560
N8    3    0.886941    0.848029    0.409999    11.00000    0.05010    0.05616 =
         0.05086    0.01121    0.01695    0.01180
N9    3    0.382229    0.531975    0.275983    11.00000    0.04362    0.04569 =
         0.05356    0.00699    0.01745    0.00619
O1    4    0.646295    0.832435    0.415478    11.00000    0.04966    0.07364 =
         0.03686    0.02120    0.01669   -0.00544
O2    4    0.954830    0.881419    0.352776    11.00000    0.07417    0.06133 =
         0.04656    0.01953    0.03555    0.00622
O3    4    1.033798    0.830643    0.462394    11.00000    0.06669    0.14888 =
         0.05270    0.02094    0.00213    0.02703
O4    4    0.280426    0.629405    0.324620    11.00000    0.05472    0.04635 =
         0.04278    0.01431    0.02146   -0.00252
O5    4    0.566952    0.578356    0.249618    11.00000    0.05628    0.06104 =
         0.06589   -0.00113    0.03205   -0.01514
O6    4    0.292467    0.399345    0.257251    11.00000    0.07149    0.04147 =
         0.08810   -0.00454    0.01755   -0.01698
HKLF 4

REM  CF solution in P-1
REM R1 =  0.0817 for    1786 Fo > 4sig(Fo)  and  0.1203 for all    2905 data
REM    271 parameters refined using      0 restraints

END

WGHT      0.0865      0.0000

REM Instructions for potential hydrogen bonds
HTAB C1 O5_$1
HTAB C2 N3_$2
HTAB C4 O5_$3
HTAB C5 N2_$4
HTAB C7 O6_$5
HTAB C11 O6_$5
HTAB C14 O1_$6

REM Highest difference peak  0.894,  deepest hole -0.589,  1-sigma level  0.125
Q1    1   0.2834  0.9237  0.3004  11.00000  0.05    0.85
Q2    1   0.4991  0.7438  0.3473  11.00000  0.05    0.81
Q3    1   0.2256  0.5334 -0.0213  11.00000  0.05    0.50
Q4    1   0.8324  0.9768  0.3573  11.00000  0.05    0.47
Q5    1   1.1415  0.7509  0.4686  11.00000  0.05    0.41
Q6    1   0.2845  0.9004  0.1912  11.00000  0.05    0.41
Q7    1   0.5490  1.0546  0.3208  11.00000  0.05    0.40
Q8    1   0.6058  0.8434  0.4308  11.00000  0.05    0.39
Q9    1   1.0005  0.7309  0.4325  11.00000  0.05    0.38
Q10   1   0.6096  0.4634  0.2779  11.00000  0.05    0.37
Q11   1   0.2501  0.5456  0.3514  11.00000  0.05    0.37
Q12   1   0.4996  1.0482  0.0565  11.00000  0.05    0.36
Q13   1   0.2965  0.6987  0.3019  11.00000  0.05    0.36
Q14   1  -0.0866  0.6812  0.0290  11.00000  0.05    0.35
Q15   1   0.4490  1.0810  0.4259  11.00000  0.05    0.35
Q16   1   0.1850  0.8390  0.0811  11.00000  0.05    0.35
Q17   1   0.4373  0.3670  0.2487  11.00000  0.05    0.35
Q18   1   0.3350  1.2974  0.3959  11.00000  0.05    0.34
Q19   1   0.5481  0.9308  0.4289  11.00000  0.05    0.34
Q20   1   0.4209  0.6400  0.0261  11.00000  0.05    0.34
Q21   1   0.9991  0.9249  0.3288  11.00000  0.05    0.34
Q22   1   0.8217  0.8632  0.4178  11.00000  0.05    0.33
Q23   1   0.2990  0.2822  0.2942  11.00000  0.05    0.33
Q24   1   0.3316  0.9723  0.4605  11.00000  0.05    0.33
Q25   1   0.5990  1.0466  0.3857  11.00000  0.05    0.32
;
_shelx_res_checksum              17987
loop_
_space_group_symop_operation_xyz
'x, y, z'
'-x, -y, -z'
loop_
_atom_site_label
_atom_site_type_symbol
_atom_site_fract_x
_atom_site_fract_y
_atom_site_fract_z
_atom_site_U_iso_or_equiv
_atom_site_adp_type
_atom_site_occupancy
_atom_site_site_symmetry_order
_atom_site_calc_flag
_atom_site_refinement_flags_posn
_atom_site_refinement_flags_adp
_atom_site_refinement_flags_occupancy
_atom_site_disorder_assembly
_atom_site_disorder_group
Cu1 Cu 0.40751(15) 0.84481(10) 0.32768(5) 0.0423(4) Uani 1 1 d . . . . .
C1 C 0.0458(13) 0.7076(9) 0.1880(4) 0.048(2) Uani 1 1 d . . . . .
H1 H -0.0771 0.6691 0.2134 0.057 Uiso 1 1 calc R U . . .
C2 C 0.0631(12) 0.6573(8) 0.1141(4) 0.0464(19) Uani 1 1 d . . . . .
H2 H -0.0405 0.5797 0.0794 0.056 Uiso 1 1 calc R U . . .
C3 C 0.3795(13) 0.7378(8) 0.0338(4) 0.0400(17) Uani 1 1 d . . . . .
C4 C 0.5047(13) 0.6850(9) -0.0737(4) 0.050(2) Uani 1 1 d . . . . .
H4 H 0.5104 0.6386 -0.1245 0.060 Uiso 1 1 calc R U . . .
C5 C 0.6762(13) 0.7969(9) -0.0330(4) 0.0428(18) Uani 1 1 d . . . . .
H5 H 0.8180 0.8411 -0.0487 0.051 Uiso 1 1 calc R U . . .
C6 C 0.6950(13) 0.9369(8) 0.1036(4) 0.0420(19) Uani 1 1 d . . . . .
C7 C 0.9041(14) 1.1126(9) 0.1894(5) 0.050(2) Uani 1 1 d . . . . .
H7 H 1.0270 1.1925 0.2128 0.060 Uiso 1 1 calc R U . . .
C8 C 0.7109(12) 1.0630(7) 0.2250(4) 0.0350(16) Uani 1 1 d . . . . .
C9 C 0.3621(12) 0.8454(8) 0.1661(4) 0.0393(18) Uani 1 1 d . . . . .
C10 C 0.6524(12) 1.1388(8) 0.3009(4) 0.0344(16) Uani 1 1 d . . . . .
C11 C 0.7614(14) 1.2889(8) 0.3323(4) 0.049(2) Uani 1 1 d . . . . .
H11 H 0.8666 1.3370 0.3051 0.059 Uiso 1 1 calc R U . . .
C12 C 0.7150(15) 1.3662(9) 0.4028(5) 0.060(2) Uani 1 1 d . . . . .
H12 H 0.7911 1.4653 0.4244 0.072 Uiso 1 1 calc R U . . .
C13 C 0.5527(15) 1.2937(9) 0.4411(5) 0.054(2) Uani 1 1 d . . . . .
H13 H 0.5123 1.3444 0.4883 0.065 Uiso 1 1 calc R U . . .
C14 C 0.4542(14) 1.1481(8) 0.4090(4) 0.0466(19) Uani 1 1 d . . . . .
H14 H 0.3448 1.1000 0.4351 0.056 Uiso 1 1 calc R U . . .
N1 N 0.2350(9) 0.8251(6) 0.2222(3) 0.0355(14) Uani 1 1 d . . . . .
N2 N 0.8970(10) 1.0322(7) 0.1160(4) 0.0458(16) Uani 1 1 d . . . . .
N3 N 0.3164(11) 0.6460(7) -0.0316(3) 0.0471(16) Uani 1 1 d . . . . .
N4 N 0.5927(10) 0.8320(6) 0.0389(3) 0.0402(15) Uani 1 1 d . . . . .
N5 N 0.5710(9) 0.9464(6) 0.1681(3) 0.0309(13) Uani 1 1 d . . . . .
N6 N 0.2680(9) 0.7452(6) 0.1003(3) 0.0377(14) Uani 1 1 d . . . . .
N7 N 0.5057(10) 1.0685(6) 0.3411(3) 0.0385(14) Uani 1 1 d . . . . .
N8 N 0.8869(12) 0.8480(7) 0.4100(4) 0.0514(17) Uani 1 1 d . . . . .
N9 N 0.3822(11) 0.5320(7) 0.2760(4) 0.0473(17) Uani 1 1 d . . . . .
O1 O 0.6463(9) 0.8324(6) 0.4155(3) 0.0516(14) Uani 1 1 d . . . . .
O2 O 0.9548(10) 0.8814(6) 0.3528(3) 0.0574(15) Uani 1 1 d . . . . .
O3 O 1.0338(11) 0.8306(9) 0.4624(4) 0.089(2) Uani 1 1 d . . . . .
O4 O 0.2804(9) 0.6294(6) 0.3246(3) 0.0464(13) Uani 1 1 d . . . . .
O5 O 0.5670(9) 0.5784(6) 0.2496(3) 0.0625(16) Uani 1 1 d . . . . .
O6 O 0.2925(10) 0.3993(6) 0.2573(4) 0.0703(18) Uani 1 1 d . . . . .
loop_
_atom_site_aniso_label
_atom_site_aniso_U_11
_atom_site_aniso_U_22
_atom_site_aniso_U_33
_atom_site_aniso_U_23
_atom_site_aniso_U_13
_atom_site_aniso_U_12
Cu1 0.0488(6) 0.0471(6) 0.0301(6) 0.0057(5) 0.0143(4) -0.0076(4)
C1 0.040(4) 0.061(5) 0.041(5) 0.008(4) 0.015(4) -0.009(4)
C2 0.042(4) 0.053(5) 0.039(5) 0.005(4) 0.008(4) -0.020(3)
C3 0.051(4) 0.037(4) 0.030(5) 0.001(4) 0.014(4) -0.005(3)
C4 0.063(5) 0.055(5) 0.029(5) 0.000(4) 0.017(4) 0.001(4)
C5 0.056(4) 0.056(5) 0.018(4) 0.007(4) 0.016(3) 0.001(4)
C6 0.049(4) 0.040(4) 0.042(5) 0.008(4) 0.028(4) 0.001(3)
C7 0.061(5) 0.049(5) 0.038(5) 0.002(4) 0.022(4) -0.016(4)
C8 0.040(3) 0.029(4) 0.031(4) -0.003(3) 0.010(3) -0.014(3)
C9 0.039(4) 0.040(4) 0.037(5) -0.002(4) 0.021(3) -0.001(3)
C10 0.045(4) 0.037(4) 0.019(4) 0.000(3) 0.008(3) -0.003(3)
C11 0.073(5) 0.040(4) 0.035(5) 0.006(4) 0.026(4) -0.004(4)
C12 0.076(6) 0.046(5) 0.046(6) -0.011(4) 0.003(5) -0.006(4)
C13 0.074(5) 0.047(5) 0.038(5) -0.003(4) 0.020(4) -0.003(4)
C14 0.060(4) 0.042(4) 0.041(5) 0.010(4) 0.022(4) -0.004(4)
N1 0.033(3) 0.044(3) 0.031(4) 0.012(3) 0.010(3) -0.006(2)
N2 0.049(3) 0.050(4) 0.034(4) 0.001(3) 0.019(3) -0.023(3)
N3 0.057(4) 0.051(4) 0.029(4) -0.001(3) 0.017(3) -0.013(3)
N4 0.039(3) 0.045(4) 0.031(4) -0.003(3) 0.010(3) -0.012(3)
N5 0.034(3) 0.036(3) 0.021(3) 0.002(3) 0.013(2) -0.010(2)
N6 0.036(3) 0.042(3) 0.033(4) -0.002(3) 0.016(3) -0.007(3)
N7 0.052(3) 0.041(3) 0.023(4) 0.002(3) 0.013(3) 0.006(3)
N8 0.050(4) 0.056(4) 0.051(5) 0.011(4) 0.017(4) 0.012(3)
N9 0.044(3) 0.046(4) 0.054(5) 0.007(4) 0.017(3) 0.006(3)
O1 0.050(3) 0.074(4) 0.037(3) 0.021(3) 0.017(3) -0.005(3)
O2 0.074(3) 0.061(4) 0.047(4) 0.020(3) 0.036(3) 0.006(3)
O3 0.067(4) 0.149(7) 0.053(5) 0.021(5) 0.002(4) 0.027(4)
O4 0.055(3) 0.046(3) 0.043(4) 0.014(3) 0.021(3) -0.003(2)
O5 0.056(3) 0.061(4) 0.066(4) -0.001(3) 0.032(3) -0.015(3)
O6 0.071(4) 0.041(3) 0.088(6) -0.005(3) 0.018(4) -0.017(3)
loop_
_atom_type_symbol
_atom_type_description
_atom_type_scat_dispersion_real
_atom_type_scat_dispersion_imag
_atom_type_scat_source
C C 0.0033 0.0016 'International Tables Vol C Tables 4.2.6.8 and 6.1.1.4'
H H 0.0000 0.0000 'International Tables Vol C Tables 4.2.6.8 and 6.1.1.4'
N N 0.0061 0.0033 'International Tables Vol C Tables 4.2.6.8 and 6.1.1.4'
O O 0.0106 0.0060 'International Tables Vol C Tables 4.2.6.8 and 6.1.1.4'
Cu Cu 0.3201 1.2651 'International Tables Vol C Tables 4.2.6.8 and 6.1.1.4'
loop_
_geom_angle_atom_site_label_1
_geom_angle_atom_site_label_2
_geom_angle_atom_site_label_3
_geom_angle
_geom_angle_site_symmetry_1
_geom_angle_site_symmetry_3
_geom_angle_publ_flag
O1 Cu1 O4 87.1(2) . . ?
O1 Cu1 N7 91.8(2) . . ?
O4 Cu1 N7 172.56(19) . . ?
O1 Cu1 N1 164.1(2) . . ?
O4 Cu1 N1 90.1(2) . . ?
N7 Cu1 N1 92.9(2) . . ?
C2 C1 N1 111.5(6) . . ?
C1 C2 N6 105.0(7) . . ?
N3 C3 N4 114.6(6) . . ?
N3 C3 N6 128.7(6) . . ?
N4 C3 N6 116.6(7) . . ?
C5 C4 N3 112.5(7) . . ?
C4 C5 N4 104.1(6) . . ?
N2 C6 N4 130.0(6) . . ?
N2 C6 N5 112.2(7) . . ?
N4 C6 N5 117.7(6) . . ?
N2 C7 C8 112.9(7) . . ?
C7 C8 N5 103.5(6) . . ?
C7 C8 C10 125.1(7) . . ?
N5 C8 C10 130.6(5) . . ?
N1 C9 N6 111.2(6) . . ?
N1 C9 N5 129.0(7) . . ?
N6 C9 N5 119.8(6) . . ?
N7 C10 C11 119.4(6) . . ?
N7 C10 C8 122.9(6) . . ?
C11 C10 C8 117.7(6) . . ?
C12 C11 C10 120.7(7) . . ?
C11 C12 C13 118.5(8) . . ?
C14 C13 C12 118.7(7) . . ?
N7 C14 C13 123.5(7) . . ?
C9 N1 C1 104.2(6) . . ?
C9 N1 Cu1 122.1(5) . . ?
C1 N1 Cu1 122.5(4) . . ?
C6 N2 C7 105.2(6) . . ?
C3 N3 C4 102.9(6) . . ?
C3 N4 C6 124.0(6) . . ?
C3 N4 C5 105.9(6) . . ?
C6 N4 C5 130.1(6) . . ?
C9 N5 C6 119.7(6) . . ?
C9 N5 C8 134.1(5) . . ?
C6 N5 C8 106.1(5) . . ?
C9 N6 C2 108.1(6) . . ?
C9 N6 C3 122.0(6) . . ?
C2 N6 C3 129.9(6) . . ?
C10 N7 C14 119.1(6) . . ?
C10 N7 Cu1 128.9(4) . . ?
C14 N7 Cu1 110.5(4) . . ?
O3 N8 O2 123.4(7) . . ?
O3 N8 O1 117.8(7) . . ?
O2 N8 O1 118.8(7) . . ?
O6 N9 O5 122.5(6) . . ?
O6 N9 O4 119.3(5) . . ?
O5 N9 O4 118.2(6) . . ?
N8 O1 Cu1 117.9(4) . . ?
N9 O4 Cu1 111.3(4) . . ?
loop_
_geom_bond_atom_site_label_1
_geom_bond_atom_site_label_2
_geom_bond_distance
_geom_bond_site_symmetry_2
_geom_bond_publ_flag
Cu1 O1 1.957(5) . ?
Cu1 O4 1.979(5) . ?
Cu1 N7 1.980(6) . ?
Cu1 N1 2.002(6) . ?
C1 C2 1.335(10) . ?
C1 N1 1.395(9) . ?
C2 N6 1.379(8) . ?
C3 N3 1.284(9) . ?
C3 N4 1.350(8) . ?
C3 N6 1.395(8) . ?
C4 C5 1.339(10) . ?
C4 N3 1.396(8) . ?
C5 N4 1.402(8) . ?
C6 N2 1.295(9) . ?
C6 N4 1.367(9) . ?
C6 N5 1.395(8) . ?
C7 N2 1.365(9) . ?
C7 C8 1.372(8) . ?
C8 N5 1.405(8) . ?
C8 C10 1.471(9) . ?
C9 N1 1.321(8) . ?
C9 N6 1.351(9) . ?
C9 N5 1.377(8) . ?
C10 N7 1.342(8) . ?
C10 C11 1.394(10) . ?
C11 C12 1.370(10) . ?
C12 C13 1.381(10) . ?
C13 C14 1.346(10) . ?
C14 N7 1.345(9) . ?
N8 O3 1.208(8) . ?
N8 O2 1.228(7) . ?
N8 O1 1.293(7) . ?
N9 O6 1.206(7) . ?
N9 O5 1.226(7) . ?
N9 O4 1.281(7) . ?
loop_
_geom_hbond_atom_site_label_D
_geom_hbond_atom_site_label_H
_geom_hbond_atom_site_label_A
_geom_hbond_distance_DH
_geom_hbond_distance_HA
_geom_hbond_distance_DA
_geom_hbond_angle_DHA
_geom_hbond_site_symmetry_A
C1 H1 O5 0.93 2.23 3.142(8) 166.4 1_455
C2 H2 N3 0.93 2.35 3.243(9) 159.6 2_565
C4 H4 O5 0.93 2.62 3.494(10) 157.6 2_665
C5 H5 N2 0.93 2.42 3.327(8) 164.6 2_775
C7 H7 O6 0.93 2.20 3.119(9) 172.1 1_665
C11 H11 O6 0.93 2.58 3.445(9) 154.8 1_665
C14 H14 O1 0.93 2.65 3.264(9) 124.3 2_676
