#------------------------------------------------------------------------------
#$Date: 2020-12-02 06:56:04 +0200 (Wed, 02 Dec 2020) $
#$Revision: 259428 $
#$URL: file:///home/coder/svn-repositories/cod/cif/7/06/01/7060106.cif $
#------------------------------------------------------------------------------
#
# This file is available in the Crystallography Open Database (COD),
# http://www.crystallography.net/
#
# All data on this site have been placed in the public domain by the
# contributors.
#
data_7060106
loop_
_publ_author_name
'Wilde, Myron'
'Arzur, Danielle'
'Baratte, Blandine'
'Lefebvre, Dorian'
'Robert, Thomas'
'Roisnel, Thierry'
'Le Jossic-Corcos, Catherine'
'Bach, St\'ephane'
'Corcos, Laurent'
'Erb, William'
_publ_section_title
;
 Regorafenib analogues and their ferrocenic counterparts: synthesis and
 biological evaluation
;
_journal_issue                   45
_journal_name_full               'New Journal of Chemistry'
_journal_page_first              19723
_journal_page_last               19733
_journal_paper_doi               10.1039/D0NJ05334A
_journal_volume                  44
_journal_year                    2020
_chemical_compound_source        'synthesis as described'
_chemical_formula_moiety         'C13 H12 F N3 O2'
_chemical_formula_sum            'C13 H12 F N3 O2'
_chemical_formula_weight         261.26
_space_group_crystal_system      triclinic
_space_group_IT_number           2
_space_group_name_Hall           '-P 1'
_space_group_name_H-M_alt        'P -1'
_atom_sites_solution_hydrogens   mixed
_atom_sites_solution_primary     dual
_atom_sites_solution_secondary   difmap
_audit_update_record
;
2020-07-17 deposited with the CCDC.	2020-11-02 downloaded from the CCDC.
;
_cell_angle_alpha                108.895(3)
_cell_angle_beta                 99.835(3)
_cell_angle_gamma                97.095(3)
_cell_formula_units_Z            2
_cell_length_a                   7.2126(7)
_cell_length_b                   7.7988(7)
_cell_length_c                   11.6303(11)
_cell_measurement_reflns_used    8607
_cell_measurement_temperature    150(2)
_cell_measurement_theta_max      27.5084
_cell_measurement_theta_min      2.8128
_cell_measurement_wavelength     0.710730
_cell_volume                     598.52(10)
_computing_cell_refinement       'APEX3 (Bruker, 2015)'
_computing_data_collection       'Bruker APEX3 (Bruker, 2015)'
_computing_data_reduction        'SAINT (Bruker, 2014)'
_computing_molecular_graphics
;
   'SXGRAPH (L. Farrugia, 1999), Mercury (CSD, 2016)'
;
_computing_publication_material  'CRYSCALC (T. Roisnel, local program, 2020)'
_computing_structure_refinement  'SHELXL-2018_3 (Sheldrick, 2018)'
_computing_structure_solution    'SHELXT 2018_2 (Sheldrick, 2018)'
_diffrn_ambient_temperature      150(2)
_diffrn_detector                 '(CMOS) PHOTON 100'
_diffrn_detector_area_resol_mean 10.4167
_diffrn_measured_fraction_theta_full 0.992
_diffrn_measured_fraction_theta_max 0.993
_diffrn_measurement_device_type  'D8 VENTURE Bruker AXS'
_diffrn_measurement_method       'rotation images'
_diffrn_orient_matrix_UB_11      0.0548299
_diffrn_orient_matrix_UB_12      -0.1083369
_diffrn_orient_matrix_UB_13      -0.0434647
_diffrn_orient_matrix_UB_21      0.0971617
_diffrn_orient_matrix_UB_22      0.0240543
_diffrn_orient_matrix_UB_23      0.0786260
_diffrn_orient_matrix_UB_31      -0.0900579
_diffrn_orient_matrix_UB_32      -0.0821837
_diffrn_orient_matrix_UB_33      0.0250267
_diffrn_radiation_monochromator  'multilayer monochromator'
_diffrn_radiation_probe          x-ray
_diffrn_radiation_source         'Incoatec microfocus sealed tube'
_diffrn_radiation_type           MoK\a
_diffrn_radiation_wavelength     0.71073
_diffrn_reflns_av_R_equivalents  0.0275
_diffrn_reflns_av_unetI/netI     0.0255
_diffrn_reflns_limit_h_max       9
_diffrn_reflns_limit_h_min       -9
_diffrn_reflns_limit_k_max       10
_diffrn_reflns_limit_k_min       -10
_diffrn_reflns_limit_l_max       15
_diffrn_reflns_limit_l_min       -15
_diffrn_reflns_number            11230
_diffrn_reflns_theta_full        25.242
_diffrn_reflns_theta_max         27.508
_diffrn_reflns_theta_min         2.813
_diffrn_source_current           1.0
_diffrn_source_voltage           55.0
_exptl_absorpt_coefficient_mu    0.111
_exptl_absorpt_correction_T_max  0.970
_exptl_absorpt_correction_T_min  0.893
_exptl_absorpt_correction_type   multi-scan
_exptl_absorpt_process_details
;
  [Sheldrick, G.M. (2014). SADABS Bruker AXS Inc., Madison, Wisconsin, USA]
;
_exptl_crystal_colour            colourless
_exptl_crystal_density_diffrn    1.450
_exptl_crystal_description       prism
_exptl_crystal_F_000             272
_exptl_crystal_size_max          0.580
_exptl_crystal_size_mid          0.450
_exptl_crystal_size_min          0.270
_refine_diff_density_max         0.326
_refine_diff_density_min         -0.316
_refine_diff_density_rms         0.060
_refine_ls_extinction_coef       0.056(9)
_refine_ls_extinction_method     'SHELXL-2018_3 (Sheldrick 2018)'
_refine_ls_goodness_of_fit_ref   0.991
_refine_ls_hydrogen_treatment    mixed
_refine_ls_matrix_type           full
_refine_ls_number_parameters     187
_refine_ls_number_reflns         2726
_refine_ls_number_restraints     0
_refine_ls_restrained_S_all      0.991
_refine_ls_R_factor_all          0.0474
_refine_ls_R_factor_gt           0.0424
_refine_ls_shift/su_max          0.000
_refine_ls_shift/su_mean         0.000
_refine_ls_structure_factor_coef Fsqd
_refine_ls_weighting_details
'w=1/[\s^2^(Fo^2^)+(0.0643P)^2^+0.3934P] where P=(Fo^2^+2Fc^2^)/3'
_refine_ls_weighting_scheme      calc
_refine_ls_wR_factor_gt          0.1181
_refine_ls_wR_factor_ref         0.1229
_reflns_number_gt                2411
_reflns_number_total             2726
_reflns_threshold_expression     >2sigma(I)
_cod_data_source_file            d0nj05334a2.cif
_cod_data_source_block           MW1404
_cod_database_code               7060106
_shelx_res_file
;
TITL MW1404 [Space group= P-1]
    job.res
    created by SHELXL-2018/3 at 09:14:52 on 09-Jun-2020
REM Old TITL MW1404
REM SHELXT solution in P-1: R1 0.136, Rweak 0.003, Alpha 0.024
REM <I/s>   0.000 for    0 systematic absences,  Orientation as input
REM Formula found by SHELXT:  C14 N2 O3

CELL  0.71073   7.2126   7.7988  11.6303  108.895   99.835   97.095
ZERR    2.000   0.0007   0.0007   0.0011    0.003    0.003    0.003
LATT   1
SFAC  C    H    F    N    O
UNIT  26   24   2    6    4
MERG   2
EADP N9A N9B
EXYZ C3A C3B
EADP C3A C3B
EXYZ C4A C4B
EADP C4A C4B
FMAP   2
PLAN   20
OMIT 0 -1 1
SIZE     0.27   0.45   0.58
ACTA
BOND   $H
CONF
LIST   4
WPDB  -2
L.S.   4
TEMP  -123.00
WGHT    0.064300    0.393400
EXTI    0.055886
FVAR       1.28924   0.90149
C1    1    0.433118    0.228538    0.493567    11.00000    0.02622    0.01670 =
         0.01911    0.00290    0.00684    0.00722
AFIX  43
H1    2    0.559093    0.210102    0.519176    11.00000   -1.20000
AFIX   0
C2    1    0.387393    0.292792    0.397059    11.00000    0.03001    0.01548 =
         0.01806    0.00300    0.01190    0.00362
C5    1    0.105512    0.221561    0.515712    11.00000    0.02742    0.01980 =
         0.01886    0.00654    0.00900    0.00405
AFIX  43
H5    2    0.008089    0.196666    0.556905    11.00000   -1.20000
AFIX   0
C6    1    0.288829    0.191764    0.551947    11.00000    0.03094    0.01460 =
         0.01450    0.00490    0.00713    0.00775
F7    3    0.524990    0.322329    0.335302    11.00000    0.04702    0.03503 =
         0.03827    0.01603    0.02597    0.00987
PART    1
C3A   1    0.205583    0.322921    0.355359    21.00000    0.03582    0.01390 =
         0.01273    0.00287    0.00522    0.00494
C4A   1    0.065979    0.287933    0.418932    21.00000    0.02483    0.02051 =
         0.01850    0.00506    0.00243    0.00459
AFIX  43
H4A   2   -0.058950    0.310160    0.395259    21.00000   -1.20000
AFIX   0
N9A   4    0.167208    0.387843    0.256942    21.00000    0.03814    0.02477 =
         0.01378    0.01096    0.00693    0.00900
AFIX   2
H9A   2    0.064948    0.364382    0.225868    21.00000   -1.20000
H9B   2    0.232689    0.371052    0.218922    21.00000   -1.20000
AFIX   0
PART    2
C3B   1    0.205583    0.322921    0.355359   -21.00000    0.03582    0.01390 =
         0.01273    0.00287    0.00522    0.00494
AFIX  43
H3B   2    0.178069    0.364977    0.287379   -21.00000   -1.20000
AFIX   0
C4B   1    0.065979    0.287933    0.418932   -21.00000    0.02483    0.02051 =
         0.01850    0.00506    0.00243    0.00459
N9B   4   -0.109620    0.312489    0.383887   -21.00000    0.03814    0.02477 =
         0.01378    0.01096    0.00693    0.00900
AFIX  93
H9B1  2   -0.199171    0.286821    0.421814   -21.00000   -1.20000
H9B2  2   -0.137182    0.354536    0.322588   -21.00000   -1.20000
AFIX   0
O9    5    0.330573    0.106332    0.639795    11.00000    0.04406    0.02223 =
         0.01736    0.00954    0.01359    0.01778
C10   1    0.305956    0.186219    0.758206    11.00000    0.01954    0.01850 =
         0.01508    0.00585    0.00483    0.00495
C11   1    0.314454    0.077029    0.831683    11.00000    0.02062    0.01464 =
         0.02116    0.00708    0.00444    0.00461
AFIX  43
H11   2    0.329590   -0.047605    0.798882    11.00000   -1.20000
AFIX   0
C12   1    0.300211    0.155200    0.954215    11.00000    0.02572    0.01823 =
         0.01938    0.01037    0.00422    0.00420
AFIX  43
H12   2    0.308490    0.081254    1.005024    11.00000   -1.20000
AFIX   0
N13   4    0.275390    0.329316    1.005606    11.00000    0.02332    0.01757 =
         0.01586    0.00621    0.00321    0.00323
C14   1    0.264132    0.430382    0.931946    11.00000    0.01473    0.01469 =
         0.01610    0.00483    0.00168    0.00100
C15   1    0.279974    0.367425    0.808270    11.00000    0.01936    0.01580 =
         0.01628    0.00755    0.00384    0.00329
AFIX  43
H15   2    0.273338    0.444920    0.759881    11.00000   -1.20000
AFIX   0
C16   1    0.232887    0.625593    0.988028    11.00000    0.01658    0.01508 =
         0.01755    0.00406    0.00149    0.00099
O17   5    0.216697    0.725680    0.925130    11.00000    0.03845    0.01667 =
         0.02277    0.00872    0.00735    0.00763
N18   4    0.222929    0.677639    1.107865    11.00000    0.02497    0.01553 =
         0.01736    0.00378    0.00470    0.00346
AFIX   2
H18   2    0.237440    0.601296    1.147125    11.00000   -1.20000
AFIX   0
C19   1    0.197257    0.861811    1.176922    11.00000    0.02610    0.01842 =
         0.02273    0.00006    0.00711    0.00417
AFIX 137
H19A  2    0.318922    0.949099    1.199477    11.00000   -1.50000
H19B  2    0.155736    0.861664    1.252849    11.00000   -1.50000
H19C  2    0.099800    0.898873    1.125009    11.00000   -1.50000
PART    0
AFIX   0
HKLF    4




REM  MW1404 [Space group= P-1]
REM wR2 = 0.1229, GooF = S = 0.991, Restrained GooF = 0.991 for all data
REM R1 = 0.0424 for 2411 Fo > 4sig(Fo) and 0.0474 for all 2726 data
REM 187 parameters refined using 0 restraints

END

WGHT      0.0607      0.3432

REM Highest difference peak  0.326,  deepest hole -0.316,  1-sigma level  0.060
Q1    1   0.2336  0.3838  0.8632  11.00000  0.05    0.33
Q2    1   0.3313  0.1371  0.8976  11.00000  0.05    0.30
Q3    1   0.2879  0.2769  0.7863  11.00000  0.05    0.30
Q4    1   0.2459  0.5229  0.9576  11.00000  0.05    0.27
Q5    1  -0.0981  0.3182  0.3586  11.00000  0.05    0.25
Q6    1   0.3007  0.1282  0.7950  11.00000  0.05    0.25
Q7    1   0.2768  0.2730  0.3583  11.00000  0.05    0.24
Q8    1  -0.0044  0.3199  0.2030  11.00000  0.05    0.24
Q9    1   0.1112  0.2424  0.3624  11.00000  0.05    0.24
Q10   1   0.2515  0.3225  0.1859  11.00000  0.05    0.24
Q11   1   0.3105  0.2448  0.9769  11.00000  0.05    0.24
Q12   1   0.1867  0.1734  0.5208  11.00000  0.05    0.24
Q13   1   0.2717  0.9643  1.1567  11.00000  0.05    0.23
Q14   1   0.2876  0.8868  1.2672  11.00000  0.05    0.23
Q15   1   0.1420  0.3146  0.3991  11.00000  0.05    0.22
Q16   1   0.2922  0.3124  0.3795  11.00000  0.05    0.21
Q17   1   0.2145  0.7736  1.1417  11.00000  0.05    0.21
Q18   1   0.1058  0.2768  0.4800  11.00000  0.05    0.20
Q19   1   0.2607  0.3725  0.9620  11.00000  0.05    0.20
Q20   1   0.4136  0.2951  0.4612  11.00000  0.05    0.19
;
_shelx_res_checksum              68415
loop_
_space_group_symop_operation_xyz
'x, y, z'
'-x, -y, -z'
loop_
_atom_site_label
_atom_site_type_symbol
_atom_site_fract_x
_atom_site_fract_y
_atom_site_fract_z
_atom_site_U_iso_or_equiv
_atom_site_adp_type
_atom_site_occupancy
_atom_site_site_symmetry_order
_atom_site_calc_flag
_atom_site_refinement_flags_posn
_atom_site_refinement_flags_adp
_atom_site_refinement_flags_occupancy
_atom_site_disorder_assembly
_atom_site_disorder_group
C1 C 0.4331(2) 0.22854(18) 0.49357(13) 0.0210(3) Uani 1 1 d . . . . .
H1 H 0.559093 0.210102 0.519176 0.025 Uiso 1 1 calc R U . . .
C2 C 0.3874(2) 0.29279(18) 0.39706(12) 0.0212(3) Uani 1 1 d . . . . .
C5 C 0.1055(2) 0.22156(19) 0.51571(13) 0.0217(3) Uani 1 1 d . . . . .
H5 H 0.008089 0.196666 0.556905 0.026 Uiso 1 1 calc R U . A 1
C6 C 0.2888(2) 0.19176(18) 0.55195(12) 0.0195(3) Uani 1 1 d . . . . .
F7 F 0.52499(15) 0.32233(14) 0.33530(9) 0.0370(3) Uani 1 1 d . . . . .
C3A C 0.2056(2) 0.32292(18) 0.35536(12) 0.0213(3) Uani 0.901(3) 1 d . . P B 1
C4A C 0.0660(2) 0.28793(19) 0.41893(13) 0.0220(3) Uani 0.901(3) 1 d . . P B 1
H4A H -0.058950 0.310160 0.395259 0.026 Uiso 0.901(3) 1 calc R U P B 1
N9A N 0.1672(3) 0.3878(2) 0.25694(13) 0.0241(3) Uani 0.901(3) 1 d . . P B 1
H9A H 0.065(3) 0.364(3) 0.226(2) 0.029 Uiso 0.9015 1 d . U P B 1
H9B H 0.233(3) 0.371(3) 0.219(2) 0.029 Uiso 0.9015 1 d . U P B 1
C3B C 0.2056(2) 0.32292(18) 0.35536(12) 0.0213(3) Uani 0.099(3) 1 d . . P B 2
H3B H 0.178069 0.364977 0.287379 0.026 Uiso 0.099(3) 1 calc R U P B 2
C4B C 0.0660(2) 0.28793(19) 0.41893(13) 0.0220(3) Uani 0.099(3) 1 d . . P B 2
N9B N -0.1096(19) 0.3125(17) 0.3839(11) 0.0241(3) Uani 0.099(3) 1 d . . P B 2
H9B1 H -0.199171 0.286821 0.421814 0.029 Uiso 0.099(3) 1 calc R U P B 2
H9B2 H -0.137182 0.354536 0.322588 0.029 Uiso 0.099(3) 1 calc R U P B 2
O9 O 0.33057(17) 0.10633(14) 0.63980(9) 0.0253(3) Uani 1 1 d . . . C 2
C10 C 0.30596(19) 0.18622(18) 0.75821(12) 0.0175(3) Uani 1 1 d . . . C 2
C11 C 0.31445(19) 0.07703(18) 0.83168(13) 0.0185(3) Uani 1 1 d . . . C 2
H11 H 0.329590 -0.047605 0.798882 0.022 Uiso 1 1 calc R U . C 2
C12 C 0.3002(2) 0.15520(19) 0.95421(13) 0.0203(3) Uani 1 1 d . . . C 2
H12 H 0.308490 0.081254 1.005024 0.024 Uiso 1 1 calc R U . C 2
N13 N 0.27539(16) 0.32932(16) 1.00561(10) 0.0190(3) Uani 1 1 d . . . C 2
C14 C 0.26413(17) 0.43038(17) 0.93195(12) 0.0157(3) Uani 1 1 d . . . C 2
C15 C 0.27997(18) 0.36743(18) 0.80827(12) 0.0167(3) Uani 1 1 d . . . C 2
H15 H 0.273338 0.444920 0.759881 0.020 Uiso 1 1 calc R U . C 2
C16 C 0.23289(18) 0.62559(18) 0.98803(12) 0.0173(3) Uani 1 1 d . . . C 2
O17 O 0.21670(16) 0.72568(14) 0.92513(10) 0.0252(3) Uani 1 1 d . . . C 2
N18 N 0.22293(17) 0.67764(16) 1.10787(11) 0.0198(3) Uani 1 1 d . . . C 2
H18 H 0.237(3) 0.601(3) 1.1471(17) 0.024 Uiso 1 1 d . U . D 2
C19 C 0.1973(2) 0.86181(19) 1.17692(14) 0.0240(3) Uani 1 1 d . . . C 2
H19A H 0.318922 0.949099 1.199477 0.036 Uiso 1 1 calc R U . C 2
H19B H 0.155736 0.861664 1.252849 0.036 Uiso 1 1 calc R U . C 2
H19C H 0.099800 0.898873 1.125009 0.036 Uiso 1 1 calc R U . C 2
loop_
_atom_site_aniso_label
_atom_site_aniso_U_11
_atom_site_aniso_U_22
_atom_site_aniso_U_33
_atom_site_aniso_U_23
_atom_site_aniso_U_13
_atom_site_aniso_U_12
C1 0.0262(7) 0.0167(6) 0.0191(6) 0.0029(5) 0.0068(5) 0.0072(5)
C2 0.0300(7) 0.0155(6) 0.0181(6) 0.0030(5) 0.0119(5) 0.0036(5)
C5 0.0274(7) 0.0198(6) 0.0189(6) 0.0065(5) 0.0090(5) 0.0041(5)
C6 0.0309(7) 0.0146(6) 0.0145(6) 0.0049(5) 0.0071(5) 0.0077(5)
F7 0.0470(6) 0.0350(5) 0.0383(6) 0.0160(4) 0.0260(5) 0.0099(4)
C3A 0.0358(8) 0.0139(6) 0.0127(6) 0.0029(5) 0.0052(5) 0.0049(5)
C4A 0.0248(7) 0.0205(7) 0.0185(6) 0.0051(5) 0.0024(5) 0.0046(5)
N9A 0.0381(8) 0.0248(7) 0.0138(6) 0.0110(5) 0.0069(6) 0.0090(6)
C3B 0.0358(8) 0.0139(6) 0.0127(6) 0.0029(5) 0.0052(5) 0.0049(5)
C4B 0.0248(7) 0.0205(7) 0.0185(6) 0.0051(5) 0.0024(5) 0.0046(5)
N9B 0.0381(8) 0.0248(7) 0.0138(6) 0.0110(5) 0.0069(6) 0.0090(6)
O9 0.0441(6) 0.0222(5) 0.0174(5) 0.0095(4) 0.0136(4) 0.0178(5)
C10 0.0195(6) 0.0185(6) 0.0151(6) 0.0059(5) 0.0048(5) 0.0050(5)
C11 0.0206(6) 0.0146(6) 0.0212(6) 0.0071(5) 0.0044(5) 0.0046(5)
C12 0.0257(7) 0.0182(6) 0.0194(6) 0.0104(5) 0.0042(5) 0.0042(5)
N13 0.0233(6) 0.0176(5) 0.0159(5) 0.0062(4) 0.0032(4) 0.0032(4)
C14 0.0147(6) 0.0147(6) 0.0161(6) 0.0048(5) 0.0017(4) 0.0010(4)
C15 0.0194(6) 0.0158(6) 0.0163(6) 0.0076(5) 0.0038(5) 0.0033(5)
C16 0.0166(6) 0.0151(6) 0.0175(6) 0.0041(5) 0.0015(5) 0.0010(5)
O17 0.0384(6) 0.0167(5) 0.0228(5) 0.0087(4) 0.0074(4) 0.0076(4)
N18 0.0250(6) 0.0155(5) 0.0174(6) 0.0038(4) 0.0047(4) 0.0035(4)
C19 0.0261(7) 0.0184(7) 0.0227(7) 0.0001(5) 0.0071(5) 0.0042(5)
loop_
_atom_type_symbol
_atom_type_description
_atom_type_scat_dispersion_real
_atom_type_scat_dispersion_imag
_atom_type_scat_source
C C 0.0033 0.0016 'International Tables Vol C Tables 4.2.6.8 and 6.1.1.4'
H H 0.0000 0.0000 'International Tables Vol C Tables 4.2.6.8 and 6.1.1.4'
F F 0.0171 0.0103 'International Tables Vol C Tables 4.2.6.8 and 6.1.1.4'
N N 0.0061 0.0033 'International Tables Vol C Tables 4.2.6.8 and 6.1.1.4'
O O 0.0106 0.0060 'International Tables Vol C Tables 4.2.6.8 and 6.1.1.4'
loop_
_geom_angle_atom_site_label_1
_geom_angle_atom_site_label_2
_geom_angle_atom_site_label_3
_geom_angle
_geom_angle_site_symmetry_1
_geom_angle_site_symmetry_3
_geom_angle_publ_flag
C2 C1 C6 117.64(13) . . ?
C2 C1 H1 121.2 . . ?
C6 C1 H1 121.2 . . ?
F7 C2 C1 118.45(13) . . ?
F7 C2 C3B 117.61(12) . . ?
C1 C2 C3B 123.89(13) . . ?
F7 C2 C3A 117.61(12) . . ?
C1 C2 C3A 123.89(13) . . ?
C4B C5 C6 119.41(13) . . ?
C4A C5 C6 119.41(13) . . ?
C4A C5 H5 120.3 . . ?
C6 C5 H5 120.3 . . ?
C1 C6 C5 121.11(12) . . ?
C1 C6 O9 117.10(12) . . ?
C5 C6 O9 121.48(12) . . ?
C2 C3A N9A 121.46(14) . . ?
C2 C3A C4A 116.40(12) . . ?
N9A C3A C4A 122.13(14) . . ?
C5 C4A C3A 121.53(13) . . ?
C5 C4A H4A 119.2 . . ?
C3A C4A H4A 119.2 . . ?
C3A N9A H9A 112.7(18) . . ?
C3A N9A H9B 112.4(19) . . ?
H9A N9A H9B 117(3) . . ?
C2 C3B C4B 116.40(12) . . ?
C2 C3B H3B 121.8 . . ?
C4B C3B H3B 121.8 . . ?
N9B C4B C5 118.8(5) . . ?
N9B C4B C3B 119.6(5) . . ?
C5 C4B C3B 121.53(13) . . ?
C4B N9B H9B1 120.0 . . ?
C4B N9B H9B2 120.0 . . ?
H9B1 N9B H9B2 120.0 . . ?
C10 O9 C6 119.77(10) . . ?
O9 C10 C11 115.96(11) . . ?
O9 C10 C15 124.34(12) . . ?
C11 C10 C15 119.67(12) . . ?
C12 C11 C10 117.99(12) . . ?
C12 C11 H11 121.0 . . ?
C10 C11 H11 121.0 . . ?
N13 C12 C11 123.94(12) . . ?
N13 C12 H12 118.0 . . ?
C11 C12 H12 118.0 . . ?
C14 N13 C12 116.78(11) . . ?
N13 C14 C15 124.24(12) . . ?
N13 C14 C16 117.32(11) . . ?
C15 C14 C16 118.44(11) . . ?
C14 C15 C10 117.35(12) . . ?
C14 C15 H15 121.3 . . ?
C10 C15 H15 121.3 . . ?
O17 C16 N18 123.87(12) . . ?
O17 C16 C14 121.05(12) . . ?
N18 C16 C14 115.08(11) . . ?
C16 N18 C19 122.29(12) . . ?
C16 N18 H18 119.3(12) . . ?
C19 N18 H18 118.4(12) . . ?
N18 C19 H19A 109.5 . . ?
N18 C19 H19B 109.5 . . ?
H19A C19 H19B 109.5 . . ?
N18 C19 H19C 109.5 . . ?
H19A C19 H19C 109.5 . . ?
H19B C19 H19C 109.5 . . ?
loop_
_geom_bond_atom_site_label_1
_geom_bond_atom_site_label_2
_geom_bond_distance
_geom_bond_site_symmetry_2
_geom_bond_publ_flag
C1 C2 1.3778(19) . ?
C1 C6 1.3857(19) . ?
C1 H1 0.9500 . ?
C2 F7 1.3594(16) . ?
C2 C3B 1.394(2) . ?
C2 C3A 1.394(2) . ?
C5 C4B 1.3858(19) . ?
C5 C4A 1.3858(19) . ?
C5 C6 1.389(2) . ?
C5 H5 0.9500 . ?
C6 O9 1.4013(15) . ?
C3A N9A 1.3946(18) . ?
C3A C4A 1.397(2) . ?
C4A H4A 0.9500 . ?
N9A H9A 0.74(2) . ?
N9A H9B 0.70(2) . ?
C3B C4B 1.397(2) . ?
C3B H3B 0.9500 . ?
C4B N9B 1.319(13) . ?
N9B H9B1 0.8800 . ?
N9B H9B2 0.8800 . ?
O9 C10 1.3680(15) . ?
C10 C11 1.3876(18) . ?
C10 C15 1.3932(18) . ?
C11 C12 1.3841(19) . ?
C11 H11 0.9500 . ?
C12 N13 1.3432(18) . ?
C12 H12 0.9500 . ?
N13 C14 1.3383(16) . ?
C14 C15 1.3913(18) . ?
C14 C16 1.5119(18) . ?
C15 H15 0.9500 . ?
C16 O17 1.2334(16) . ?
C16 N18 1.3369(17) . ?
N18 C19 1.4532(17) . ?
N18 H18 0.865(19) . ?
C19 H19A 0.9800 . ?
C19 H19B 0.9800 . ?
C19 H19C 0.9800 . ?
loop_
_geom_torsion_atom_site_label_1
_geom_torsion_atom_site_label_2
_geom_torsion_atom_site_label_3
_geom_torsion_atom_site_label_4
_geom_torsion
_geom_torsion_site_symmetry_1
_geom_torsion_site_symmetry_2
_geom_torsion_site_symmetry_3
_geom_torsion_site_symmetry_4
_geom_torsion_publ_flag
C6 C1 C2 F7 -177.31(12) . . . . ?
C6 C1 C2 C3B 0.1(2) . . . . ?
C6 C1 C2 C3A 0.1(2) . . . . ?
C2 C1 C6 C5 -1.0(2) . . . . ?
C2 C1 C6 O9 172.71(11) . . . . ?
C4B C5 C6 C1 0.5(2) . . . . ?
C4A C5 C6 C1 0.5(2) . . . . ?
C4B C5 C6 O9 -173.00(12) . . . . ?
F7 C2 C3A N9A -2.4(2) . . . . ?
C1 C2 C3A N9A -179.86(13) . . . . ?
F7 C2 C3A C4A 178.75(12) . . . . ?
C1 C2 C3A C4A 1.3(2) . . . . ?
C6 C5 C4A C3A 1.0(2) . . . . ?
C2 C3A C4A C5 -1.9(2) . . . . ?
N9A C3A C4A C5 179.30(13) . . . . ?
F7 C2 C3B C4B 178.75(12) . . . . ?
C1 C2 C3B C4B 1.3(2) . . . . ?
C6 C5 C4B N9B 178.8(6) . . . . ?
C6 C5 C4B C3B 1.0(2) . . . . ?
C2 C3B C4B N9B -179.6(6) . . . . ?
C2 C3B C4B C5 -1.9(2) . . . . ?
C1 C6 O9 C10 125.11(14) . . . . ?
C5 C6 O9 C10 -61.17(18) . . . . ?
C6 O9 C10 C11 168.01(12) . . . . ?
C6 O9 C10 C15 -14.1(2) . . . . ?
O9 C10 C11 C12 176.74(12) . . . . ?
C15 C10 C11 C12 -1.23(19) . . . . ?
C10 C11 C12 N13 1.2(2) . . . . ?
C11 C12 N13 C14 0.0(2) . . . . ?
C12 N13 C14 C15 -1.23(19) . . . . ?
C12 N13 C14 C16 179.01(11) . . . . ?
N13 C14 C15 C10 1.1(2) . . . . ?
C16 C14 C15 C10 -179.10(11) . . . . ?
O9 C10 C15 C14 -177.63(12) . . . . ?
C11 C10 C15 C14 0.16(19) . . . . ?
N13 C14 C16 O17 -178.35(12) . . . . ?
C15 C14 C16 O17 1.87(19) . . . . ?
N13 C14 C16 N18 1.07(17) . . . . ?
C15 C14 C16 N18 -178.71(11) . . . . ?
O17 C16 N18 C19 -1.9(2) . . . . ?
C14 C16 N18 C19 178.73(11) . . . . ?
