#------------------------------------------------------------------------------
#$Date: 2022-08-06 14:54:35 +0300 (Sat, 06 Aug 2022) $
#$Revision: 277113 $
#$URL: file:///home/coder/svn-repositories/cod/cif/7/06/16/7061634.cif $
#------------------------------------------------------------------------------
#
# This file is available in the Crystallography Open Database (COD),
# http://www.crystallography.net/
#
# All data on this site have been placed in the public domain by the
# contributors.
#
data_7061634
loop_
_publ_author_name
'Rogozhin, Anton F.'
'Ilichev, Vasily A.'
'Fagin, Anatoly A.'
'Rumyantcev, Roman V.'
'Fukin, Georgy K.'
'Yablonskiy, Artem N.'
'Andreev, Boris A.'
'Bochkarev, Mikhail N.'
_publ_section_title
;
 Novel ditopic 2-mercaptothiazoles and their sodium salts: synthesis,
 structural diversity and luminescence
;
_journal_issue                   29
_journal_name_full               'New Journal of Chemistry'
_journal_page_first              13987
_journal_page_last               13995
_journal_paper_doi               10.1039/D2NJ02746A
_journal_volume                  46
_journal_year                    2022
_chemical_formula_sum            'C12 H12 F2 N2 O2 S4'
_chemical_formula_weight         382.48
_space_group_crystal_system      triclinic
_space_group_IT_number           2
_space_group_name_Hall           '-P 1'
_space_group_name_H-M_alt        'P -1'
_atom_sites_solution_hydrogens   mixed
_atom_sites_solution_primary     dual
_atom_sites_solution_secondary   difmap
_audit_creation_method           SHELXL-2014/7
_audit_update_record
;
2022-03-16 deposited with the CCDC.	2022-07-01 downloaded from the CCDC.
;
_cell_angle_alpha                93.322(5)
_cell_angle_beta                 107.069(6)
_cell_angle_gamma                103.852(5)
_cell_formula_units_Z            2
_cell_length_a                   8.2628(6)
_cell_length_b                   9.9330(5)
_cell_length_c                   10.3705(6)
_cell_measurement_reflns_used    2242
_cell_measurement_temperature    100(2)
_cell_measurement_theta_max      29.7840
_cell_measurement_theta_min      3.2620
_cell_volume                     782.42(9)
_computing_cell_refinement       'CrysAlisPro, Agilent Technologies'
_computing_data_collection       'CrysAlisPro, Agilent Technologies'
_computing_data_reduction        'CrysAlisPro, Agilent Technologies'
_computing_molecular_graphics    SHELXTL
_computing_publication_material  \^A
_computing_structure_refinement  \^A
_computing_structure_solution    SHELXT-2014/5
_diffrn_ambient_temperature      100(2)
_diffrn_measured_fraction_theta_full 0.998
_diffrn_measured_fraction_theta_max 0.998
_diffrn_measurement_device_type  'Xcalibur EOS'
_diffrn_measurement_method       '\w scans'
_diffrn_radiation_monochromator  graphite
_diffrn_radiation_source         'Enhance (Mo) X-ray Source'
_diffrn_radiation_type           MoK\a
_diffrn_radiation_wavelength     0.71073
_diffrn_reflns_av_R_equivalents  0.0299
_diffrn_reflns_av_unetI/netI     0.0479
_diffrn_reflns_Laue_measured_fraction_full 0.998
_diffrn_reflns_Laue_measured_fraction_max 0.998
_diffrn_reflns_limit_h_max       10
_diffrn_reflns_limit_h_min       -10
_diffrn_reflns_limit_k_max       12
_diffrn_reflns_limit_k_min       -12
_diffrn_reflns_limit_l_max       13
_diffrn_reflns_limit_l_min       -11
_diffrn_reflns_number            6815
_diffrn_reflns_point_group_measured_fraction_full 0.998
_diffrn_reflns_point_group_measured_fraction_max 0.998
_diffrn_reflns_theta_full        25.242
_diffrn_reflns_theta_max         26.999
_diffrn_reflns_theta_min         3.174
_exptl_absorpt_coefficient_mu    0.634
_exptl_absorpt_correction_T_max  0.967
_exptl_absorpt_correction_T_min  0.820
_exptl_absorpt_correction_type   analytical
_exptl_absorpt_process_details
;
CrysAlisPro 1.171.38.46 (Rigaku Oxford Diffraction, 2015)
Analytical numeric absorption correction using a multifaceted crystal
			model based on expressions derived by R.C. Clark & J.S. Reid.
(Clark, R. C. & Reid, J. S. (1995). Acta Cryst. A51, 887-897)
Empirical absorption correction using spherical harmonics,
 implemented in SCALE3 ABSPACK scaling algorithm.
;
_exptl_crystal_colour            colorless
_exptl_crystal_density_diffrn    1.623
_exptl_crystal_description       stick
_exptl_crystal_F_000             392
_exptl_crystal_size_max          0.400
_exptl_crystal_size_mid          0.100
_exptl_crystal_size_min          0.050
_refine_diff_density_max         0.694
_refine_diff_density_min         -0.326
_refine_diff_density_rms         0.072
_refine_ls_extinction_method     none
_refine_ls_goodness_of_fit_ref   1.035
_refine_ls_hydrogen_treatment    mixed
_refine_ls_matrix_type           full
_refine_ls_number_parameters     209
_refine_ls_number_reflns         3414
_refine_ls_number_restraints     0
_refine_ls_restrained_S_all      1.035
_refine_ls_R_factor_all          0.0475
_refine_ls_R_factor_gt           0.0352
_refine_ls_shift/su_max          0.000
_refine_ls_shift/su_mean         0.000
_refine_ls_structure_factor_coef Fsqd
_refine_ls_weighting_details
'w=1/[\s^2^(Fo^2^)+(0.0427P)^2^] where P=(Fo^2^+2Fc^2^)/3'
_refine_ls_weighting_scheme      calc
_refine_ls_wR_factor_gt          0.0844
_refine_ls_wR_factor_ref         0.0891
_reflns_Friedel_coverage         0.000
_reflns_number_gt                2809
_reflns_number_total             3414
_reflns_threshold_expression     'I > 2\s(I)'
_cod_data_source_file            d2nj02746a2.cif
_cod_data_source_block           dmbtf
_cod_depositor_comments
'Adding full bibliography for 7061634--7061639.cif.'
_cod_database_code               7061634
_shelx_shelxl_version_number     2014/7
_shelx_space_group_comment
;
The symmetry employed for this shelxl refinement is uniquely defined
by the following loop, which should always be used as a source of
symmetry information in preference to the above space-group names.
They are only intended as comments.
;
_shelx_estimated_absorpt_t_min   0.786
_shelx_estimated_absorpt_t_max   0.969
_oxdiff_exptl_absorpt_empirical_full_min 0.878
_oxdiff_exptl_absorpt_empirical_full_max 1.254
_oxdiff_exptl_absorpt_empirical_details
;
Empirical correction (ABSPACK) includes:
- Absorption correction using spherical harmonics
- Frame scaling
;
_shelx_res_file
;

    rx1012.res created by SHELXL-2014/7

TITL rx1012 in P-1
REM P-1 (#2 in standard setting)
CELL 0.71073   8.262824   9.933013  10.370496  93.3224 107.0689 103.8520
ZERR    2.00   0.000564   0.000527   0.000590   0.0045   0.0055   0.0052
LATT  1
SFAC C H N O F S
UNIT 24 24 4 4 4 8
SIZE 0.05 0.10 0.40
TEMP -173.0

L.S. 34
BOND $H
LIST 4
FMAP 2
PLAN 201

ACTA

OMIT  0 54
OMIT  2  -3   4

WGHT    0.042700
FVAR       4.42133
S1    6    0.459562    0.177122    0.593710    11.00000    0.02148    0.01804 =
         0.02278    0.00547    0.00569    0.00832
S2    6    0.369557    0.436375    0.678746    11.00000    0.01813    0.01821 =
         0.01402    0.00297    0.00386    0.00648
S3    6    0.059208    0.841132    0.489047    11.00000    0.02006    0.01762 =
         0.01870    0.00218    0.00563    0.00723
S4    6    0.125373    0.938127    0.784360    11.00000    0.03108    0.02384 =
         0.02227   -0.00347    0.00767    0.01015
F1    5    0.128372    0.438772    0.184930    11.00000    0.02308    0.02487 =
         0.01303    0.00033    0.00491    0.00825
F2    5    0.016149    0.672887    0.205964    11.00000    0.02528    0.02905 =
         0.01503    0.00731    0.00318    0.01312
O1    4    0.399049    0.672080    0.937463    11.00000    0.02316    0.02417 =
         0.01662    0.00009    0.00388    0.00237
O2    4    0.638782    0.797720    0.792218    11.00000    0.02893    0.01975 =
         0.01538    0.00184    0.00783    0.01028
N1    3    0.304688    0.341294    0.429001    11.00000    0.01617    0.01607 =
         0.01407    0.00250    0.00597    0.00662
H1    2    0.304950    0.295946    0.358958    11.00000    0.02751
N2    3    0.216827    0.723693    0.681946    11.00000    0.01610    0.01810 =
         0.01475    0.00163    0.00280    0.00494
H2    2    0.269120    0.715041    0.757732    11.00000    0.02151
C1    1    0.377118    0.310377    0.554957    11.00000    0.01328    0.01728 =
         0.01906    0.00209    0.00676    0.00228
C2    1    0.265950    0.525301    0.553646    11.00000    0.01296    0.01773 =
         0.01690    0.00428    0.00530    0.00328
C3    1    0.239736    0.458386    0.424921    11.00000    0.01312    0.01451 =
         0.01670    0.00290    0.00594    0.00325
C4    1    0.154157    0.507047    0.308365    11.00000    0.01406    0.02071 =
         0.01283   -0.00025    0.00499    0.00260
C5    1    0.097075    0.624640    0.320020    11.00000    0.01265    0.02100 =
         0.01267    0.00679    0.00197    0.00332
C6    1    0.122631    0.693915    0.446717    11.00000    0.01498    0.01541 =
         0.01991    0.00323    0.00678    0.00417
C7    1    0.208109    0.644921    0.564605    11.00000    0.01216    0.01608 =
         0.01689    0.00135    0.00505    0.00196
C8    1    0.142223    0.831444    0.663731    11.00000    0.01596    0.01834 =
         0.01847    0.00107    0.00557    0.00167
C9    1    0.277771    0.662256    1.013887    11.00000    0.02387    0.04043 =
         0.02097    0.00744    0.00574    0.00065
AFIX 137
H9A   2    0.177363    0.580206    0.973595    11.00000   -1.50000
H9B   2    0.236389    0.746942    1.011654    11.00000   -1.50000
H9C   2    0.336960    0.652928    1.108464    11.00000   -1.50000
AFIX   0
C10   1    0.557323    0.779741    1.001700    11.00000    0.02279    0.02352 =
         0.01518   -0.00167    0.00293    0.00264
AFIX  23
H10A  2    0.604457    0.769270    1.098923    11.00000   -1.20000
H10B  2    0.533397    0.872626    0.996481    11.00000   -1.20000
AFIX   0
C11   1    0.688693    0.768928    0.930852    11.00000    0.02480    0.02666 =
         0.01644    0.00230    0.00430    0.00920
AFIX  23
H11A  2    0.803107    0.835480    0.982503    11.00000   -1.20000
H11B  2    0.704837    0.673344    0.931443    11.00000   -1.20000
AFIX   0
C12   1    0.654272    0.943792    0.782840    11.00000    0.04181    0.02155 =
         0.03122    0.00538    0.01655    0.01495
AFIX 137
H12A  2    0.635308    0.959590    0.687762    11.00000   -1.50000
H12B  2    0.772026    0.999019    0.838792    11.00000   -1.50000
H12C  2    0.566046    0.972366    0.815572    11.00000   -1.50000

AFIX   0
HKLF 4

REM  rx1012 in P-1
REM R1 =  0.0352 for    2809 Fo > 4sig(Fo)  and  0.0475 for all    3414 data
REM    209 parameters refined using      0 restraints

END

WGHT      0.0469      0.0000

REM Highest difference peak  0.694,  deepest hole -0.326,  1-sigma level  0.072
Q1    1   0.0632  0.9915  0.7170  11.00000  0.05    0.69
Q2    1   0.2620  0.4063  0.4225  11.00000  0.05    0.40
Q3    1   0.2226  0.5791  0.5638  11.00000  0.05    0.37
Q4    1   0.3978  0.3770  0.6218  11.00000  0.05    0.34
Q5    1   0.1903  0.8937  0.7342  11.00000  0.05    0.33
Q6    1   0.3098  0.4863  0.6056  11.00000  0.05    0.32
Q7    1   0.1717  0.5870  0.3215  11.00000  0.05    0.32
Q8    1   0.4219  0.2462  0.5603  11.00000  0.05    0.32
Q9    1   0.1212  0.7854  0.4597  11.00000  0.05    0.32
Q10   1   0.1311  0.7432  0.6648  11.00000  0.05    0.31
Q11   1   0.0736  0.6409  0.2889  11.00000  0.05    0.31
Q12   1   0.5255  0.1415  0.5397  11.00000  0.05    0.31
Q13   1   0.6285  0.7617  0.9845  11.00000  0.05    0.31
Q14   1   0.0847  0.5446  0.3230  11.00000  0.05    0.29
Q15   1   0.1528  0.7751  0.6791  11.00000  0.05    0.29
Q16   1   0.6552  0.8707  0.7953  11.00000  0.05    0.28
Q17   1   0.1555  0.6600  0.3927  11.00000  0.05    0.27
Q18   1   0.1748  0.5039  0.2827  11.00000  0.05    0.26
Q19   1   0.6593  0.7889  0.8560  11.00000  0.05    0.25
Q20   1   0.3061  0.5592  0.5553  11.00000  0.05    0.25
Q21   1   0.3019  0.3544  0.5927  11.00000  0.05    0.25
Q22   1   0.1555  0.6573  0.5006  11.00000  0.05    0.25
Q23   1   0.4211  0.2342  0.6547  11.00000  0.05    0.24
Q24   1   0.5181  0.1411  0.7050  11.00000  0.05    0.24
Q25   1   0.1847  0.9045  0.5181  11.00000  0.05    0.24
Q26   1   0.0620  0.9324  0.4670  11.00000  0.05    0.24
Q27   1   0.2200  0.4133  0.6544  11.00000  0.05    0.23
Q28   1   0.2173  0.7559  0.7431  11.00000  0.05    0.23
Q29   1  -0.0503  0.8756  0.5129  11.00000  0.05    0.23
Q30   1   0.2704  0.4570  0.7252  11.00000  0.05    0.23
Q31   1   0.4273  0.6038  0.9388  11.00000  0.05    0.23
Q32   1   0.1433  0.4798  0.2604  11.00000  0.05    0.23
Q33   1   0.4763  0.7342  0.9607  11.00000  0.05    0.22
Q34   1   0.2416  0.4448  0.1947  11.00000  0.05    0.22
Q35   1   0.0104  0.7561  0.2031  11.00000  0.05    0.22
Q36   1   0.4965  0.4862  0.7005  11.00000  0.05    0.22
Q37   1   0.1188  0.8241  0.6003  11.00000  0.05    0.22
Q38   1   0.4101  0.6388  0.8797  11.00000  0.05    0.22
Q39   1   0.5501  0.4134  0.6482  11.00000  0.05    0.22
Q40   1   0.0442  0.9780  0.8419  11.00000  0.05    0.21
Q41   1  -0.0005  0.4329  0.1854  11.00000  0.05    0.21
Q42   1   0.0649  0.7962  0.5827  11.00000  0.05    0.21
Q43   1   0.2224  0.4787  0.4845  11.00000  0.05    0.21
Q44   1   0.2379  0.9839  0.7889  11.00000  0.05    0.20
Q45   1   0.4514  0.0886  0.6201  11.00000  0.05    0.20
Q46   1   0.2061  0.4994  0.3642  11.00000  0.05    0.20
Q47   1  -0.0233  0.5000  0.2345  11.00000  0.05    0.20
Q48   1   0.3661  0.6273  0.4136  11.00000  0.05    0.20
Q49   1   0.2284  0.5558  1.0001  11.00000  0.05    0.20
Q50   1   0.5544  0.8208  0.9994  11.00000  0.05    0.20
Q51   1  -0.0115  0.9149  0.7552  11.00000  0.05    0.19
Q52   1   0.2673  0.4971  0.4954  11.00000  0.05    0.19
Q53   1   0.2423  0.7806  0.6483  11.00000  0.05    0.19
Q54   1   0.6103  1.0330  0.8995  11.00000  0.05    0.19
Q55   1   0.8175  1.1628  0.7757  11.00000  0.05    0.19
Q56   1  -0.0452  0.9421  0.6029  11.00000  0.05    0.18
Q57   1   0.3598  0.6622  0.9501  11.00000  0.05    0.18
Q58   1   0.1991  0.6617  0.6002  11.00000  0.05    0.18
Q59   1   0.1641  0.4362  0.1801  11.00000  0.05    0.18
Q60   1   0.0219  0.5614  0.4986  11.00000  0.05    0.18
Q61   1   0.2938  0.7916  0.5896  11.00000  0.05    0.17
Q62   1   0.1744  0.9053  0.8805  11.00000  0.05    0.17
Q63   1   0.7163  0.9520  0.6790  11.00000  0.05    0.17
Q64   1  -0.1310  0.5190  0.2405  11.00000  0.05    0.17
Q65   1   1.0012  0.9255  0.9398  11.00000  0.05    0.17
Q66   1   0.3236  0.2431  0.6988  11.00000  0.05    0.17
Q67   1   0.5000  0.5000  0.5000  10.50000  0.05    0.17
Q68   1   0.3478  0.3867  0.7559  11.00000  0.05    0.17
Q69   1   0.2180  0.9822  0.7406  11.00000  0.05    0.17
Q70   1  -0.1312  0.8550  0.5480  11.00000  0.05    0.17
Q71   1   0.1633  0.4393  0.9120  11.00000  0.05    0.17
Q72   1   0.6064  0.5190  0.7754  11.00000  0.05    0.17
Q73   1   0.5966  0.9201  0.6774  11.00000  0.05    0.16
Q74   1   0.5887  0.7632  1.0388  11.00000  0.05    0.16
Q75   1   0.5479  0.2506  0.6984  11.00000  0.05    0.16
Q76   1  -0.0785  0.8294  0.4771  11.00000  0.05    0.16
Q77   1   0.5461  0.9788  0.7793  11.00000  0.05    0.16
Q78   1   0.4498  0.9672  0.8306  11.00000  0.05    0.16
Q79   1  -0.0843  0.7627  0.3147  11.00000  0.05    0.16
Q80   1  -0.0720  0.6452  0.4340  11.00000  0.05    0.16
Q81   1   0.6005  0.2122  0.6221  11.00000  0.05    0.16
Q82   1   0.2992  0.3753  0.2387  11.00000  0.05    0.16
Q83   1   0.5606  0.9491  0.7835  11.00000  0.05    0.16
Q84   1   0.1638  0.8378  0.8985  11.00000  0.05    0.16
Q85   1  -0.0228  0.7637  0.7532  11.00000  0.05    0.15
Q86   1   0.1255  0.8677  0.8642  11.00000  0.05    0.15
Q87   1   0.3113  0.7635  0.4962  11.00000  0.05    0.15
Q88   1   0.2414  0.6818  0.2755  11.00000  0.05    0.15
Q89   1   0.1537  0.1558  0.3593  11.00000  0.05    0.15
Q90   1  -0.1326  0.6260  0.1998  11.00000  0.05    0.15
Q91   1   0.6057  0.7379  1.1597  11.00000  0.05    0.15
Q92   1   0.8195  0.9185  1.0561  11.00000  0.05    0.15
Q93   1   0.1160  0.2400  0.4313  11.00000  0.05    0.15
Q94   1   0.3010  0.3229  0.4931  11.00000  0.05    0.15
Q95   1   0.2337  0.2696  0.6997  11.00000  0.05    0.15
Q96   1  -0.1234  0.6818  0.4406  11.00000  0.05    0.15
Q97   1   0.3593  0.9639  0.6649  11.00000  0.05    0.15
Q98   1  -0.0237  0.8800  0.4101  11.00000  0.05    0.15
Q99   1   0.1339  0.7925  0.1643  11.00000  0.05    0.14
Q100  1   0.3760  0.5361  0.8064  11.00000  0.05    0.14
Q101  1   0.0005  0.8657  0.3044  11.00000  0.05    0.14
Q102  1   0.0095  1.0583  0.6794  11.00000  0.05    0.14
Q103  1   0.4689  0.5285  1.1313  11.00000  0.05    0.14
Q104  1   0.3269  0.1646  0.5850  11.00000  0.05    0.14
Q105  1   0.2751  0.2873  0.5605  11.00000  0.05    0.14
Q106  1   0.0366  0.4362  0.9536  11.00000  0.05    0.14
Q107  1   0.3313  0.5791  1.1847  11.00000  0.05    0.14
Q108  1   0.5418  0.2583  0.4212  11.00000  0.05    0.14
Q109  1   0.3326  1.0186  0.8669  11.00000  0.05    0.14
Q110  1   0.5058  0.2375  0.4974  11.00000  0.05    0.14
Q111  1  -0.0668  0.7009  0.2547  11.00000  0.05    0.14
Q112  1   0.1922  0.8209  1.0701  11.00000  0.05    0.14
Q113  1   0.8170  0.9823  0.7969  11.00000  0.05    0.14
Q114  1   0.6553  0.9174  1.2152  11.00000  0.05    0.14
Q115  1   0.1542  0.7429  0.8620  11.00000  0.05    0.14
Q116  1   0.7912  0.7267  0.9720  11.00000  0.05    0.14
Q117  1   0.5583  0.5984  0.8558  11.00000  0.05    0.14
Q118  1  -0.1303  0.5879  0.3167  11.00000  0.05    0.14
Q119  1   0.6902  0.9606  1.0530  11.00000  0.05    0.14
Q120  1   0.3694  0.8637  0.8602  11.00000  0.05    0.14
Q121  1   0.4744  0.8955  0.9532  11.00000  0.05    0.14
Q122  1   0.2965  0.7167  0.9547  11.00000  0.05    0.14
Q123  1   0.6337  0.8296  1.2361  11.00000  0.05    0.14
Q124  1   0.2453  0.0666  0.5127  11.00000  0.05    0.13
Q125  1   0.8203  0.7848  0.9367  11.00000  0.05    0.13
Q126  1   0.5557  1.1193  0.8834  11.00000  0.05    0.13
Q127  1   0.3072  0.5638  0.9956  11.00000  0.05    0.13
Q128  1   0.4188  0.7789  0.5576  11.00000  0.05    0.13
Q129  1   0.0120  0.8551  0.6847  11.00000  0.05    0.13
Q130  1   0.3490  0.7778  1.0565  11.00000  0.05    0.13
Q131  1   1.0076  0.8552  1.0586  11.00000  0.05    0.13
Q132  1   0.6550  0.9996  0.8453  11.00000  0.05    0.13
Q133  1   0.7034  0.6589  1.1844  11.00000  0.05    0.13
Q134  1   0.8752  0.8187  0.8590  11.00000  0.05    0.13
Q135  1   0.4223  0.9904  0.6452  11.00000  0.05    0.13
Q136  1   0.6491  0.6771  0.9682  11.00000  0.05    0.13
Q137  1   0.1893  0.7998  0.4059  11.00000  0.05    0.13
Q138  1   0.1002  0.6272  0.8854  11.00000  0.05    0.13
Q139  1   0.3080  0.7093  0.8346  11.00000  0.05    0.13
Q140  1   0.5826  0.9413  0.5553  11.00000  0.05    0.13
Q141  1   0.1448  0.6990  0.2182  11.00000  0.05    0.13
Q142  1   0.4365  0.6613  1.2549  11.00000  0.05    0.13
Q143  1   0.4561  0.5501  0.5612  11.00000  0.05    0.13
Q144  1   0.5573  0.9247  1.0451  11.00000  0.05    0.13
Q145  1   0.7948  1.0056  0.7819  11.00000  0.05    0.13
Q146  1   0.6362  0.7076  1.0742  11.00000  0.05    0.13
Q147  1   0.3443  0.9550  0.7657  11.00000  0.05    0.12
Q148  1   0.3601  0.0978  0.5190  11.00000  0.05    0.12
Q149  1   0.0019  0.9588  0.3556  11.00000  0.05    0.12
Q150  1   0.8888  1.0787  0.9626  11.00000  0.05    0.12
Q151  1   0.6783  0.7876  0.7211  11.00000  0.05    0.12
Q152  1   0.3454  0.5054  0.2680  11.00000  0.05    0.12
Q153  1   0.1205  0.6161  0.1392  11.00000  0.05    0.12
Q154  1   0.3161  0.5328  1.1486  11.00000  0.05    0.12
Q155  1  -0.1841  0.6823  0.1568  11.00000  0.05    0.12
Q156  1   0.4663  0.6594  1.1466  11.00000  0.05    0.12
Q157  1   0.0223  0.5621  0.1997  11.00000  0.05    0.12
Q158  1   0.3371  0.1728  0.3570  11.00000  0.05    0.12
Q159  1   0.5291  0.8203  0.8157  11.00000  0.05    0.12
Q160  1   0.1578  0.7228  1.0946  11.00000  0.05    0.12
Q161  1   0.5333  0.7616  0.7994  11.00000  0.05    0.12
Q162  1   0.3575  0.5646  1.0643  11.00000  0.05    0.12
Q163  1   0.3944  0.8644  0.6858  11.00000  0.05    0.12
Q164  1   0.9976  0.8348  0.9631  11.00000  0.05    0.12
Q165  1   0.1781  0.6631  0.9602  11.00000  0.05    0.12
Q166  1  -0.0326  0.8171  0.5882  11.00000  0.05    0.12
Q167  1   0.7822  0.7582  0.7827  11.00000  0.05    0.12
Q168  1   0.0231  0.2792  0.1612  11.00000  0.05    0.11
Q169  1  -0.1806  0.8388  0.4403  11.00000  0.05    0.11
Q170  1   0.3761  0.7168  0.8778  11.00000  0.05    0.11
Q171  1   0.3585  0.9162  0.5593  11.00000  0.05    0.11
Q172  1   0.0603  0.9797  0.5993  11.00000  0.05    0.11
Q173  1   0.3669  0.0474  0.5226  11.00000  0.05    0.11
Q174  1   0.4978  0.8131  0.7869  11.00000  0.05    0.11
Q175  1   0.6026  0.5683  0.9590  11.00000  0.05    0.11
Q176  1   0.5696  0.6800  1.2069  11.00000  0.05    0.11
Q177  1   0.7607  0.7547  1.1401  11.00000  0.05    0.11
Q178  1   0.5529  1.0839  0.8225  11.00000  0.05    0.11
Q179  1   0.3045  0.8596  0.4549  11.00000  0.05    0.11
Q180  1   0.2789  0.6732  1.2054  11.00000  0.05    0.11
Q181  1   0.2693  0.4135  0.8229  11.00000  0.05    0.11
Q182  1   0.8533  0.8834  0.9333  11.00000  0.05    0.11
Q183  1   0.1670  1.0702  0.4402  11.00000  0.05    0.11
Q184  1   0.8529  0.9590  0.6545  11.00000  0.05    0.11
Q185  1   0.1466  1.0038  0.6646  11.00000  0.05    0.11
Q186  1   0.1519  0.7381  1.0465  11.00000  0.05    0.11
Q187  1   0.4438  1.0581  0.8508  11.00000  0.05    0.11
Q188  1   0.2817  0.1589  0.4659  11.00000  0.05    0.11
Q189  1  -0.0264  0.9865  0.4055  11.00000  0.05    0.11
Q190  1   0.7678  1.1672  0.8388  11.00000  0.05    0.11
Q191  1   0.0546  0.7579  1.0562  11.00000  0.05    0.11
Q192  1   0.8658  0.6952  0.9550  11.00000  0.05    0.11
Q193  1   0.3458  0.8319  1.0215  11.00000  0.05    0.11
Q194  1   0.9137  0.9014  1.0175  11.00000  0.05    0.11
Q195  1   0.4991  0.5482  1.0348  11.00000  0.05    0.10
Q196  1   0.7052  0.6425  0.8536  11.00000  0.05    0.10
Q197  1   0.2027  0.5615  0.8226  11.00000  0.05    0.10
Q198  1   0.8962  1.1134  0.8557  11.00000  0.05    0.10
Q199  1   0.0168  0.7430  0.2992  11.00000  0.05    0.10
Q200  1   0.1272  1.1362  0.7289  11.00000  0.05    0.10
Q201  1   0.4972  0.5862  0.6405  11.00000  0.05    0.10
;
_shelx_res_checksum              98012
loop_
_space_group_symop_operation_xyz
'x, y, z'
'-x, -y, -z'
loop_
_atom_site_label
_atom_site_type_symbol
_atom_site_fract_x
_atom_site_fract_y
_atom_site_fract_z
_atom_site_U_iso_or_equiv
_atom_site_adp_type
_atom_site_occupancy
_atom_site_site_symmetry_order
_atom_site_calc_flag
_atom_site_refinement_flags_posn
_atom_site_refinement_flags_adp
_atom_site_refinement_flags_occupancy
_atom_site_disorder_assembly
_atom_site_disorder_group
S1 S 0.45956(7) 0.17712(5) 0.59371(6) 0.02041(14) Uani 1 1 d . . . . .
S2 S 0.36956(7) 0.43637(5) 0.67875(5) 0.01675(13) Uani 1 1 d . . . . .
S3 S 0.05921(7) 0.84113(5) 0.48905(6) 0.01853(14) Uani 1 1 d . . . . .
S4 S 0.12537(8) 0.93813(6) 0.78436(6) 0.02569(15) Uani 1 1 d . . . . .
F1 F 0.12837(16) 0.43877(12) 0.18493(12) 0.0203(3) Uani 1 1 d . . . . .
F2 F 0.01615(16) 0.67289(13) 0.20596(12) 0.0226(3) Uani 1 1 d . . . . .
O1 O 0.3990(2) 0.67208(15) 0.93746(15) 0.0227(3) Uani 1 1 d . . . . .
O2 O 0.6388(2) 0.79772(14) 0.79222(15) 0.0205(3) Uani 1 1 d . . . . .
N1 N 0.3047(2) 0.34129(17) 0.42900(19) 0.0147(4) Uani 1 1 d . . . . .
H1 H 0.305(3) 0.296(2) 0.359(3) 0.028(7) Uiso 1 1 d . . . . .
N2 N 0.2168(2) 0.72369(18) 0.68195(19) 0.0168(4) Uani 1 1 d . . . . .
H2 H 0.269(3) 0.715(2) 0.758(3) 0.022(7) Uiso 1 1 d . . . . .
C1 C 0.3771(3) 0.3104(2) 0.5550(2) 0.0165(4) Uani 1 1 d . . . . .
C2 C 0.2659(3) 0.5253(2) 0.5536(2) 0.0158(4) Uani 1 1 d . . . . .
C3 C 0.2397(3) 0.4584(2) 0.4249(2) 0.0146(4) Uani 1 1 d . . . . .
C4 C 0.1542(3) 0.5070(2) 0.3084(2) 0.0162(4) Uani 1 1 d . . . . .
C5 C 0.0971(3) 0.6246(2) 0.3200(2) 0.0159(4) Uani 1 1 d . . . . .
C6 C 0.1226(3) 0.6939(2) 0.4467(2) 0.0164(4) Uani 1 1 d . . . . .
C7 C 0.2081(3) 0.6449(2) 0.5646(2) 0.0153(4) Uani 1 1 d . . . . .
C8 C 0.1422(3) 0.8314(2) 0.6637(2) 0.0182(4) Uani 1 1 d . . . . .
C9 C 0.2778(3) 0.6623(3) 1.0139(2) 0.0300(5) Uani 1 1 d . . . . .
H9A H 0.1774 0.5802 0.9736 0.045 Uiso 1 1 calc R U . . .
H9B H 0.2364 0.7469 1.0117 0.045 Uiso 1 1 calc R U . . .
H9C H 0.3370 0.6529 1.1085 0.045 Uiso 1 1 calc R U . . .
C10 C 0.5573(3) 0.7797(2) 1.0017(2) 0.0220(5) Uani 1 1 d . . . . .
H10A H 0.6045 0.7693 1.0989 0.026 Uiso 1 1 calc R U . . .
H10B H 0.5334 0.8726 0.9965 0.026 Uiso 1 1 calc R U . . .
C11 C 0.6887(3) 0.7689(2) 0.9309(2) 0.0228(5) Uani 1 1 d . . . . .
H11A H 0.8031 0.8355 0.9825 0.027 Uiso 1 1 calc R U . . .
H11B H 0.7048 0.6733 0.9314 0.027 Uiso 1 1 calc R U . . .
C12 C 0.6543(3) 0.9438(2) 0.7828(3) 0.0292(5) Uani 1 1 d . . . . .
H12A H 0.6353 0.9596 0.6878 0.044 Uiso 1 1 calc R U . . .
H12B H 0.7720 0.9990 0.8388 0.044 Uiso 1 1 calc R U . . .
H12C H 0.5660 0.9724 0.8156 0.044 Uiso 1 1 calc R U . . .
loop_
_atom_site_aniso_label
_atom_site_aniso_U_11
_atom_site_aniso_U_22
_atom_site_aniso_U_33
_atom_site_aniso_U_23
_atom_site_aniso_U_13
_atom_site_aniso_U_12
S1 0.0215(3) 0.0180(3) 0.0228(3) 0.0055(2) 0.0057(2) 0.0083(2)
S2 0.0181(3) 0.0182(3) 0.0140(3) 0.0030(2) 0.0039(2) 0.0065(2)
S3 0.0201(3) 0.0176(3) 0.0187(3) 0.0022(2) 0.0056(2) 0.0072(2)
S4 0.0311(3) 0.0238(3) 0.0223(3) -0.0035(2) 0.0077(3) 0.0102(2)
F1 0.0231(7) 0.0249(6) 0.0130(6) 0.0003(5) 0.0049(5) 0.0082(5)
F2 0.0253(7) 0.0290(7) 0.0150(6) 0.0073(5) 0.0032(5) 0.0131(5)
O1 0.0232(9) 0.0242(8) 0.0166(8) 0.0001(6) 0.0039(7) 0.0024(6)
O2 0.0289(9) 0.0198(7) 0.0154(8) 0.0018(6) 0.0078(7) 0.0103(6)
N1 0.0162(9) 0.0161(9) 0.0141(9) 0.0025(7) 0.0060(7) 0.0066(7)
N2 0.0161(10) 0.0181(9) 0.0148(10) 0.0016(7) 0.0028(8) 0.0049(7)
C1 0.0133(10) 0.0173(10) 0.0191(11) 0.0021(8) 0.0068(9) 0.0023(8)
C2 0.0130(10) 0.0177(10) 0.0169(11) 0.0043(8) 0.0053(9) 0.0033(8)
C3 0.0131(10) 0.0145(9) 0.0167(11) 0.0029(8) 0.0059(9) 0.0033(7)
C4 0.0141(11) 0.0207(10) 0.0128(10) -0.0002(8) 0.0050(8) 0.0026(8)
C5 0.0127(10) 0.0210(10) 0.0127(10) 0.0068(8) 0.0020(8) 0.0033(8)
C6 0.0150(11) 0.0154(10) 0.0199(11) 0.0032(8) 0.0068(9) 0.0042(8)
C7 0.0122(10) 0.0161(10) 0.0169(11) 0.0013(8) 0.0051(8) 0.0020(8)
C8 0.0160(11) 0.0183(10) 0.0185(11) 0.0011(8) 0.0056(9) 0.0017(8)
C9 0.0239(13) 0.0404(14) 0.0210(13) 0.0074(11) 0.0057(10) 0.0007(10)
C10 0.0228(12) 0.0235(11) 0.0152(11) -0.0017(9) 0.0029(9) 0.0026(9)
C11 0.0248(12) 0.0267(11) 0.0164(11) 0.0023(9) 0.0043(9) 0.0092(9)
C12 0.0418(15) 0.0216(12) 0.0312(14) 0.0054(10) 0.0165(12) 0.0150(10)
loop_
_atom_type_symbol
_atom_type_description
_atom_type_scat_dispersion_real
_atom_type_scat_dispersion_imag
_atom_type_scat_source
C C 0.0033 0.0016 'International Tables Vol C Tables 4.2.6.8 and 6.1.1.4'
H H 0.0000 0.0000 'International Tables Vol C Tables 4.2.6.8 and 6.1.1.4'
N N 0.0061 0.0033 'International Tables Vol C Tables 4.2.6.8 and 6.1.1.4'
O O 0.0106 0.0060 'International Tables Vol C Tables 4.2.6.8 and 6.1.1.4'
F F 0.0171 0.0103 'International Tables Vol C Tables 4.2.6.8 and 6.1.1.4'
S S 0.1246 0.1234 'International Tables Vol C Tables 4.2.6.8 and 6.1.1.4'
loop_
_geom_angle_atom_site_label_1
_geom_angle_atom_site_label_2
_geom_angle_atom_site_label_3
_geom_angle
_geom_angle_site_symmetry_1
_geom_angle_site_symmetry_3
_geom_angle_publ_flag
C2 S2 C1 91.68(10) . . ?
C6 S3 C8 91.54(10) . . ?
C10 O1 C9 111.54(16) . . ?
C11 O2 C12 112.77(17) . . ?
C1 N1 C3 115.65(18) . . ?
C1 N1 H1 121.9(17) . . ?
C3 N1 H1 122.3(17) . . ?
C8 N2 C7 115.92(18) . . ?
C8 N2 H2 118.4(17) . . ?
C7 N2 H2 125.5(17) . . ?
N1 C1 S1 127.41(17) . . ?
N1 C1 S2 109.49(14) . . ?
S1 C1 S2 123.10(13) . . ?
C3 C2 C7 118.93(19) . . ?
C3 C2 S2 110.30(15) . . ?
C7 C2 S2 130.76(17) . . ?
C2 C3 N1 112.85(18) . . ?
C2 C3 C4 121.09(18) . . ?
N1 C3 C4 126.05(19) . . ?
F1 C4 C5 120.64(18) . . ?
F1 C4 C3 119.75(17) . . ?
C5 C4 C3 119.62(19) . . ?
F2 C5 C6 120.12(17) . . ?
F2 C5 C4 119.35(18) . . ?
C6 C5 C4 120.52(19) . . ?
C5 C6 C7 120.10(18) . . ?
C5 C6 S3 129.53(16) . . ?
C7 C6 S3 110.36(15) . . ?
N2 C7 C2 127.87(19) . . ?
N2 C7 C6 112.34(17) . . ?
C2 C7 C6 119.73(19) . . ?
N2 C8 S4 126.47(17) . . ?
N2 C8 S3 109.81(15) . . ?
S4 C8 S3 123.71(12) . . ?
O1 C9 H9A 109.5 . . ?
O1 C9 H9B 109.5 . . ?
H9A C9 H9B 109.5 . . ?
O1 C9 H9C 109.5 . . ?
H9A C9 H9C 109.5 . . ?
H9B C9 H9C 109.5 . . ?
O1 C10 C11 108.85(17) . . ?
O1 C10 H10A 109.9 . . ?
C11 C10 H10A 109.9 . . ?
O1 C10 H10B 109.9 . . ?
C11 C10 H10B 109.9 . . ?
H10A C10 H10B 108.3 . . ?
O2 C11 C10 113.64(18) . . ?
O2 C11 H11A 108.8 . . ?
C10 C11 H11A 108.8 . . ?
O2 C11 H11B 108.8 . . ?
C10 C11 H11B 108.8 . . ?
H11A C11 H11B 107.7 . . ?
O2 C12 H12A 109.5 . . ?
O2 C12 H12B 109.5 . . ?
H12A C12 H12B 109.5 . . ?
O2 C12 H12C 109.5 . . ?
H12A C12 H12C 109.5 . . ?
H12B C12 H12C 109.5 . . ?
loop_
_geom_bond_atom_site_label_1
_geom_bond_atom_site_label_2
_geom_bond_distance
_geom_bond_site_symmetry_2
_geom_bond_publ_flag
S1 C1 1.646(2) . ?
S2 C2 1.743(2) . ?
S2 C1 1.765(2) . ?
S3 C6 1.742(2) . ?
S3 C8 1.756(2) . ?
S4 C8 1.651(2) . ?
F1 C4 1.347(2) . ?
F2 C5 1.353(2) . ?
O1 C10 1.426(3) . ?
O1 C9 1.439(3) . ?
O2 C11 1.440(3) . ?
O2 C12 1.437(2) . ?
N1 C1 1.354(3) . ?
N1 C3 1.391(2) . ?
N1 H1 0.83(3) . ?
N2 C8 1.354(3) . ?
N2 C7 1.382(3) . ?
N2 H2 0.80(2) . ?
C2 C3 1.389(3) . ?
C2 C7 1.393(3) . ?
C3 C4 1.387(3) . ?
C4 C5 1.372(3) . ?
C5 C6 1.381(3) . ?
C6 C7 1.399(3) . ?
C9 H9A 0.9800 . ?
C9 H9B 0.9800 . ?
C9 H9C 0.9800 . ?
C10 C11 1.498(3) . ?
C10 H10A 0.9900 . ?
C10 H10B 0.9900 . ?
C11 H11A 0.9900 . ?
C11 H11B 0.9900 . ?
C12 H12A 0.9800 . ?
C12 H12B 0.9800 . ?
C12 H12C 0.9800 . ?
