#------------------------------------------------------------------------------
#$Date: 2022-05-05 23:50:08 +0300 (Thu, 05 May 2022) $
#$Revision: 275045 $
#$URL: file:///home/coder/svn-repositories/cod/cif/7/06/13/7061320.cif $
#------------------------------------------------------------------------------
#
# This file is available in the Crystallography Open Database (COD),
# http://www.crystallography.net/
#
# All data on this site have been placed in the public domain by the
# contributors.
#
data_7061320
loop_
_publ_author_name
'Galvez, Carolina E.'
'Piro, Oscar E.'
'Echeverr\'ia, Gustavo A.'
'Robles, Norma Lis'
'Lezama, Jos\'e O. G.'
'Sankaran, Sankaran Venkatachalam'
'Thamotharan, Subbiah'
'Villecco, Margarita B.'
'Loandos, Mar\'ia del H.'
'Gil, Diego M.'
_publ_section_title
;
 Experimental and theoretical insights into the formation of weak hydrogen
 bonds and H&#x22EF;H bonding interactions in the solid-state structure of
 two eucalyptol derivatives
;
_journal_issue                   12
_journal_name_full               'New Journal of Chemistry'
_journal_page_first              5690
_journal_page_last               5704
_journal_paper_doi               10.1039/D2NJ00428C
_journal_volume                  46
_journal_year                    2022
_chemical_formula_sum            'C12 H20 O3'
_chemical_formula_weight         212.28
_chemical_name_systematic
'1,3,3-trimethyl-2-oxabicycle[2.2.2]oct-5-yl acetate'
_space_group_crystal_system      triclinic
_space_group_IT_number           2
_space_group_name_Hall           '-P 1'
_space_group_name_H-M_alt        'P -1'
_atom_sites_solution_hydrogens   geom
_atom_sites_solution_primary     dual
_atom_sites_solution_secondary   difmap
_audit_creation_method           SHELXL-2014/7
_audit_update_record
;
2021-08-21 deposited with the CCDC.	2022-02-24 downloaded from the CCDC.
;
_cell_angle_alpha                88.056(7)
_cell_angle_beta                 87.341(7)
_cell_angle_gamma                70.216(8)
_cell_formula_units_Z            2
_cell_length_a                   5.9803(5)
_cell_length_b                   7.9085(7)
_cell_length_c                   13.5905(12)
_cell_measurement_reflns_used    1141
_cell_measurement_temperature    297(2)
_cell_measurement_theta_max      24.0140
_cell_measurement_theta_min      3.8660
_cell_volume                     604.06(10)
_computing_cell_refinement       'CrysAlisPro 1.171.38.41 (Rigaku OD, 2015)'
_computing_data_collection       'CrysAlisPro 1.171.38.41 (Rigaku OD, 2015)'
_computing_data_reduction        'CrysAlisPro 1.171.38.41 (Rigaku OD, 2015)'
_computing_molecular_graphics    'ORTEP for Windows (Farrugia, 2012)'
_computing_publication_material  'SHELXL-2014/7 (Sheldrick, 2014)'
_computing_structure_refinement  'SHELXL-2014/7 (Sheldrick, 2014)'
_computing_structure_solution    'SHELXT (Sheldrick, 2015)'
_diffrn_ambient_temperature      297(2)
_diffrn_detector                 'CCD plate'
_diffrn_detector_area_resol_mean 16.0604
_diffrn_detector_type            Eos
_diffrn_measured_fraction_theta_full 0.998
_diffrn_measured_fraction_theta_max 0.824
_diffrn_measurement_device       'four-circle diffractometer'
_diffrn_measurement_device_type  'Xcalibur, Eos, Gemini'
_diffrn_radiation_monochromator  graphite
_diffrn_radiation_probe          x-ray
_diffrn_radiation_type           'Mo K\a'
_diffrn_radiation_wavelength     0.71073
_diffrn_reflns_av_R_equivalents  0.0318
_diffrn_reflns_av_unetI/netI     0.0548
_diffrn_reflns_Laue_measured_fraction_full 0.998
_diffrn_reflns_Laue_measured_fraction_max 0.824
_diffrn_reflns_limit_h_max       7
_diffrn_reflns_limit_h_min       -8
_diffrn_reflns_limit_k_max       9
_diffrn_reflns_limit_k_min       -10
_diffrn_reflns_limit_l_max       17
_diffrn_reflns_limit_l_min       -16
_diffrn_reflns_number            4757
_diffrn_reflns_point_group_measured_fraction_full 0.998
_diffrn_reflns_point_group_measured_fraction_max 0.824
_diffrn_reflns_theta_full        25.242
_diffrn_reflns_theta_max         28.909
_diffrn_reflns_theta_min         3.002
_diffrn_source                   'fine-focus sealed X-ray tube'
_diffrn_source_type              'Enhance (Mo) X-ray Source'
_exptl_absorpt_coefficient_mu    0.082
_exptl_absorpt_correction_T_max  1.00000
_exptl_absorpt_correction_T_min  0.75917
_exptl_absorpt_correction_type   multi-scan
_exptl_absorpt_process_details
;
CrysAlisPro 1.171.38.41 (Rigaku Oxford Diffraction, 2015)
Empirical absorption correction using spherical harmonics,
implemented in SCALE3 ABSPACK scaling algorithm.
;
_exptl_crystal_colour            colorless
_exptl_crystal_density_diffrn    1.167
_exptl_crystal_description       fragment
_exptl_crystal_F_000             232
_exptl_crystal_recrystallization_method
'Re-crystallisation from solvent: Methanol'
_exptl_crystal_size_max          0.466
_exptl_crystal_size_mid          0.352
_exptl_crystal_size_min          0.215
_refine_diff_density_max         0.163
_refine_diff_density_min         -0.145
_refine_diff_density_rms         0.037
_refine_ls_extinction_coef       0.110(14)
_refine_ls_extinction_expression Fc^*^=kFc[1+0.001xFc^2^\l^3^/sin(2\q)]^-1/4^
_refine_ls_extinction_method     'SHELXL-2014/7 (Sheldrick 2014'
_refine_ls_goodness_of_fit_ref   1.003
_refine_ls_hydrogen_treatment    constr
_refine_ls_matrix_type           full
_refine_ls_number_parameters     141
_refine_ls_number_reflns         2630
_refine_ls_number_restraints     0
_refine_ls_restrained_S_all      1.003
_refine_ls_R_factor_all          0.0918
_refine_ls_R_factor_gt           0.0532
_refine_ls_shift/su_max          0.003
_refine_ls_shift/su_mean         0.000
_refine_ls_structure_factor_coef Fsqd
_refine_ls_weighting_details
'w=1/[\s^2^(Fo^2^)+(0.0731P)^2^+0.0103P] where P=(Fo^2^+2Fc^2^)/3'
_refine_ls_weighting_scheme      calc
_refine_ls_wR_factor_gt          0.1222
_refine_ls_wR_factor_ref         0.1578
_reflns_Friedel_coverage         0.000
_reflns_number_gt                1637
_reflns_number_total             2630
_reflns_threshold_expression     'I > 2\s(I)'
_cod_data_source_file            d2nj00428c2.cif
_cod_data_source_block           shelx
_cod_depositor_comments
'Adding full bibliography for 7061320--7061321.cif.'
_cod_database_code               7061320
_shelx_shelxl_version_number     2014/7
_shelx_space_group_comment
;
The symmetry employed for this shelxl refinement is uniquely defined
by the following loop, which should always be used as a source of
symmetry information in preference to the above space-group names.
They are only intended as comments.
;
_shelx_estimated_absorpt_t_min   0.963
_shelx_estimated_absorpt_t_max   0.983
_oxdiff_exptl_absorpt_empirical_full_min 0.707
_oxdiff_exptl_absorpt_empirical_full_max 1.514
_oxdiff_exptl_absorpt_empirical_details
;
Empirical correction (ABSPACK) includes:
- Absorption correction using spherical harmonics
- Frame scaling
;
_shelx_res_file
;

    shelx.res created by SHELXL-2014/7


TITL shelxt_a.res in P-1
CELL  0.71073   5.9803   7.9085  13.5905   88.056   87.341   70.216
ZERR     2.00   0.0005   0.0007   0.0012    0.007    0.007    0.008
LATT   1
SFAC  C    H    O
UNIT  24   40   6
MERG   2
FMAP   2
PLAN  -3
SIZE  0.215 0.352 0.466
TEMP  24
REM   Crystal shape/color: fragment/colorless
CONF
ACTA
EQIV $1 x+1, y, z
HTAB C3 O1_$1
HTAB C9 O2
EQIV $2 -x+2, -y, -z+1
HTAB C12 O3_$2
L.S.  5
WGHT    0.073100    0.010300
EXTI    0.109852
FVAR      17.98658
C1    1    0.203811    0.241671    0.151342    11.00000    0.04148    0.04560 =
         0.04590   -0.01142   -0.00119   -0.01392
C2    1    0.372867    0.160157    0.233656    11.00000    0.05326    0.03986 =
         0.05613   -0.00324   -0.00646   -0.00521
AFIX  23
H2A   2    0.503805    0.057986    0.209357    11.00000   -1.20000
H2B   2    0.290036    0.118312    0.286949    11.00000   -1.20000
AFIX   0
C3    1    0.468435    0.300959    0.271570    11.00000    0.03411    0.05581 =
         0.03701   -0.00199   -0.00244   -0.01153
AFIX  13
H3    2    0.629986    0.277938    0.243837    11.00000   -1.20000
AFIX   0
C4    1    0.310813    0.483738    0.234929    11.00000    0.04092    0.04424 =
         0.04179   -0.00092   -0.00591   -0.01988
AFIX  13
H4    2    0.347587    0.578723    0.268139    11.00000   -1.20000
AFIX   0
C5    1    0.376682    0.487112    0.124774    11.00000    0.04912    0.07058 =
         0.04834    0.00863   -0.00495   -0.03029
AFIX  23
H5A   2    0.544386    0.470914    0.115345    11.00000   -1.20000
H5B   2    0.285621    0.601779    0.095279    11.00000   -1.20000
AFIX   0
C6    1    0.321019    0.334149    0.076158    11.00000    0.05745    0.07835 =
         0.04104   -0.00588    0.00001   -0.02748
AFIX  23
H6A   2    0.215792    0.382194    0.022164    11.00000   -1.20000
H6B   2    0.466892    0.247831    0.049682    11.00000   -1.20000
AFIX   0
C7    1    0.044504    0.510795    0.249296    11.00000    0.03739    0.03773 =
         0.04788   -0.00640   -0.00590   -0.01187
C8    1   -0.112026    0.693150    0.209841    11.00000    0.05951    0.04382 =
         0.08067   -0.00573   -0.01845   -0.00612
AFIX 137
H8A   2   -0.070942    0.705858    0.141529    11.00000   -1.50000
H8B   2   -0.087780    0.786834    0.246427    11.00000   -1.50000
H8C   2   -0.275932    0.701596    0.216719    11.00000   -1.50000
AFIX   0
C9    1   -0.033444    0.490091    0.355324    11.00000    0.04049    0.06757 =
         0.05631   -0.01234    0.00636   -0.01486
AFIX 137
H9A   2   -0.201236    0.510548    0.359096    11.00000   -1.50000
H9B   2    0.000699    0.575874    0.395007    11.00000   -1.50000
H9C   2    0.050799    0.370727    0.379076    11.00000   -1.50000
AFIX   0
C10   1    0.112893    0.106164    0.106136    11.00000    0.07428    0.06018 =
         0.07502   -0.02298   -0.00551   -0.02847
AFIX 137
H10A  2    0.041191    0.051741    0.156853    11.00000   -1.50000
H10B  2    0.242988    0.015062    0.074339    11.00000   -1.50000
H10C  2   -0.003157    0.165757    0.058548    11.00000   -1.50000
AFIX   0
C11   1    0.655933    0.171119    0.419696    11.00000    0.04555    0.05512 =
         0.05518    0.00287   -0.01426   -0.01101
C12   1    0.651472    0.191767    0.528246    11.00000    0.07315    0.08795 =
         0.05314    0.00590   -0.02061   -0.01278
AFIX 137
H12A  2    0.516951    0.166572    0.557829    11.00000   -1.50000
H12B  2    0.639548    0.312622    0.542555    11.00000   -1.50000
H12C  2    0.795038    0.109431    0.554396    11.00000   -1.50000
AFIX   0
O1    3   -0.004516    0.376882    0.191435    11.00000    0.03524    0.04766 =
         0.06062   -0.01524   -0.00299   -0.01652
O2    3    0.474944    0.300467    0.378533    11.00000    0.04078    0.06361 =
         0.04065    0.00034   -0.00680   -0.00857
O3    3    0.799811    0.055860    0.373123    11.00000    0.07287    0.06846 =
         0.06915   -0.00917   -0.02302    0.01304
HKLF    4

REM  shelxt_a.res in P-1
REM R1 =  0.0532 for    1637 Fo > 4sig(Fo)  and  0.0918 for all    2630 data
REM    141 parameters refined using      0 restraints

END

WGHT      0.0556      0.0230

REM Highest difference peak  0.163,  deepest hole -0.145,  1-sigma level  0.037
Q1    1   0.4742  0.0193  0.2655  11.00000  0.05    0.16
Q2    1   0.3687  0.3864  0.2524  11.00000  0.05    0.15
Q3    1   0.1623  0.5046  0.2500  11.00000  0.05    0.14
;
_shelx_res_checksum              14295
loop_
_space_group_symop_operation_xyz
'x, y, z'
'-x, -y, -z'
loop_
_atom_site_label
_atom_site_type_symbol
_atom_site_fract_x
_atom_site_fract_y
_atom_site_fract_z
_atom_site_U_iso_or_equiv
_atom_site_adp_type
_atom_site_occupancy
_atom_site_site_symmetry_order
_atom_site_calc_flag
_atom_site_refinement_flags_posn
_atom_site_refinement_flags_adp
_atom_site_refinement_flags_occupancy
_atom_site_disorder_assembly
_atom_site_disorder_group
C1 C 0.2038(3) 0.2417(3) 0.15134(13) 0.0443(5) Uani 1 1 d . . . . .
C2 C 0.3729(4) 0.1602(3) 0.23366(14) 0.0522(5) Uani 1 1 d . . . . .
H2A H 0.5038 0.0580 0.2094 0.063 Uiso 1 1 calc R U . . .
H2B H 0.2900 0.1183 0.2869 0.063 Uiso 1 1 calc R U . . .
C3 C 0.4684(3) 0.3010(3) 0.27157(12) 0.0432(5) Uani 1 1 d . . . . .
H3 H 0.6300 0.2779 0.2438 0.052 Uiso 1 1 calc R U . . .
C4 C 0.3108(3) 0.4837(3) 0.23493(12) 0.0408(5) Uani 1 1 d . . . . .
H4 H 0.3476 0.5787 0.2681 0.049 Uiso 1 1 calc R U . . .
C5 C 0.3767(4) 0.4871(3) 0.12477(13) 0.0536(6) Uani 1 1 d . . . . .
H5A H 0.5444 0.4709 0.1153 0.064 Uiso 1 1 calc R U . . .
H5B H 0.2856 0.6018 0.0953 0.064 Uiso 1 1 calc R U . . .
C6 C 0.3210(4) 0.3341(3) 0.07616(13) 0.0577(6) Uani 1 1 d . . . . .
H6A H 0.2158 0.3822 0.0222 0.069 Uiso 1 1 calc R U . . .
H6B H 0.4669 0.2478 0.0497 0.069 Uiso 1 1 calc R U . . .
C7 C 0.0445(3) 0.5108(2) 0.24930(13) 0.0409(5) Uani 1 1 d . . . . .
C8 C -0.1120(4) 0.6932(3) 0.20984(17) 0.0636(6) Uani 1 1 d . . . . .
H8A H -0.0709 0.7059 0.1415 0.095 Uiso 1 1 calc R U . . .
H8B H -0.0878 0.7868 0.2464 0.095 Uiso 1 1 calc R U . . .
H8C H -0.2759 0.7016 0.2167 0.095 Uiso 1 1 calc R U . . .
C9 C -0.0334(3) 0.4901(3) 0.35532(14) 0.0557(6) Uani 1 1 d . . . . .
H9A H -0.2012 0.5105 0.3591 0.083 Uiso 1 1 calc R U . . .
H9B H 0.0007 0.5759 0.3950 0.083 Uiso 1 1 calc R U . . .
H9C H 0.0508 0.3707 0.3791 0.083 Uiso 1 1 calc R U . . .
C10 C 0.1129(4) 0.1062(3) 0.10614(16) 0.0677(7) Uani 1 1 d . . . . .
H10A H 0.0412 0.0517 0.1569 0.102 Uiso 1 1 calc R U . . .
H10B H 0.2430 0.0151 0.0743 0.102 Uiso 1 1 calc R U . . .
H10C H -0.0032 0.1658 0.0585 0.102 Uiso 1 1 calc R U . . .
C11 C 0.6559(4) 0.1711(3) 0.41970(15) 0.0532(6) Uani 1 1 d . . . . .
C12 C 0.6515(4) 0.1918(4) 0.52825(15) 0.0747(8) Uani 1 1 d . . . . .
H12A H 0.5170 0.1666 0.5578 0.112 Uiso 1 1 calc R U . . .
H12B H 0.6395 0.3126 0.5426 0.112 Uiso 1 1 calc R U . . .
H12C H 0.7950 0.1094 0.5544 0.112 Uiso 1 1 calc R U . . .
O1 O -0.0045(2) 0.37688(17) 0.19144(9) 0.0468(4) Uani 1 1 d . . . . .
O2 O 0.4749(2) 0.30047(19) 0.37853(8) 0.0505(4) Uani 1 1 d . . . . .
O3 O 0.7998(3) 0.0559(2) 0.37312(12) 0.0787(6) Uani 1 1 d . . . . .
loop_
_atom_site_aniso_label
_atom_site_aniso_U_11
_atom_site_aniso_U_22
_atom_site_aniso_U_33
_atom_site_aniso_U_23
_atom_site_aniso_U_13
_atom_site_aniso_U_12
C1 0.0415(10) 0.0456(12) 0.0459(10) -0.0114(9) -0.0012(8) -0.0139(9)
C2 0.0533(12) 0.0399(12) 0.0561(12) -0.0032(9) -0.0065(9) -0.0052(10)
C3 0.0341(10) 0.0558(13) 0.0370(10) -0.0020(8) -0.0024(7) -0.0115(9)
C4 0.0409(10) 0.0442(12) 0.0418(10) -0.0009(8) -0.0059(8) -0.0199(9)
C5 0.0491(12) 0.0706(15) 0.0483(11) 0.0086(10) -0.0049(9) -0.0303(11)
C6 0.0574(13) 0.0784(17) 0.0410(11) -0.0059(10) 0.0000(9) -0.0275(12)
C7 0.0374(10) 0.0377(11) 0.0479(11) -0.0064(8) -0.0059(8) -0.0119(8)
C8 0.0595(13) 0.0438(13) 0.0807(15) -0.0057(11) -0.0185(11) -0.0061(11)
C9 0.0405(11) 0.0676(16) 0.0563(12) -0.0123(11) 0.0064(9) -0.0149(11)
C10 0.0743(15) 0.0602(16) 0.0750(15) -0.0230(12) -0.0055(12) -0.0285(13)
C11 0.0456(12) 0.0551(14) 0.0552(13) 0.0029(10) -0.0143(10) -0.0110(11)
C12 0.0732(16) 0.088(2) 0.0531(13) 0.0059(12) -0.0206(11) -0.0128(14)
O1 0.0352(7) 0.0477(9) 0.0606(8) -0.0152(6) -0.0030(6) -0.0165(6)
O2 0.0408(7) 0.0636(10) 0.0406(7) 0.0003(6) -0.0068(5) -0.0086(7)
O3 0.0729(11) 0.0685(12) 0.0692(10) -0.0092(9) -0.0230(8) 0.0130(9)
loop_
_atom_type_symbol
_atom_type_description
_atom_type_scat_dispersion_real
_atom_type_scat_dispersion_imag
_atom_type_scat_source
C C 0.0033 0.0016 'International Tables Vol C Tables 4.2.6.8 and 6.1.1.4'
H H 0.0000 0.0000 'International Tables Vol C Tables 4.2.6.8 and 6.1.1.4'
O O 0.0106 0.0060 'International Tables Vol C Tables 4.2.6.8 and 6.1.1.4'
loop_
_geom_angle_atom_site_label_1
_geom_angle_atom_site_label_2
_geom_angle_atom_site_label_3
_geom_angle
_geom_angle_site_symmetry_1
_geom_angle_site_symmetry_3
_geom_angle_publ_flag
O1 C1 C10 105.14(14) . . ?
O1 C1 C6 107.33(16) . . ?
C10 C1 C6 113.03(16) . . ?
O1 C1 C2 109.04(14) . . ?
C10 C1 C2 112.48(18) . . ?
C6 C1 C2 109.54(15) . . ?
C1 C2 C3 109.61(16) . . ?
O2 C3 C4 109.56(14) . . ?
O2 C3 C2 113.20(16) . . ?
C4 C3 C2 107.85(13) . . ?
C3 C4 C5 104.45(15) . . ?
C3 C4 C7 112.72(15) . . ?
C5 C4 C7 109.76(14) . . ?
C4 C5 C6 108.16(16) . . ?
C1 C6 C5 109.89(14) . . ?
O1 C7 C9 108.25(15) . . ?
O1 C7 C8 106.15(13) . . ?
C9 C7 C8 108.32(16) . . ?
O1 C7 C4 107.69(13) . . ?
C9 C7 C4 113.86(14) . . ?
C8 C7 C4 112.22(17) . . ?
O3 C11 O2 122.99(18) . . ?
O3 C11 C12 125.7(2) . . ?
O2 C11 C12 111.27(18) . . ?
C1 O1 C7 114.45(12) . . ?
C11 O2 C3 116.39(15) . . ?
loop_
_geom_bond_atom_site_label_1
_geom_bond_atom_site_label_2
_geom_bond_distance
_geom_bond_site_symmetry_2
_geom_bond_publ_flag
C1 O1 1.438(2) . ?
C1 C10 1.514(3) . ?
C1 C6 1.517(3) . ?
C1 C2 1.518(3) . ?
C2 C3 1.526(2) . ?
C3 O2 1.456(2) . ?
C3 C4 1.516(3) . ?
C4 C5 1.532(2) . ?
C4 C7 1.537(2) . ?
C5 C6 1.536(3) . ?
C7 O1 1.4539(19) . ?
C7 C9 1.515(3) . ?
C7 C8 1.524(3) . ?
C11 O3 1.196(2) . ?
C11 O2 1.341(2) . ?
C11 C12 1.488(3) . ?
loop_
_geom_hbond_atom_site_label_D
_geom_hbond_atom_site_label_H
_geom_hbond_atom_site_label_A
_geom_hbond_distance_DH
_geom_hbond_distance_HA
_geom_hbond_distance_DA
_geom_hbond_angle_DHA
_geom_hbond_site_symmetry_A
C3 H3 O1 0.98 2.62 3.521(2) 152.7 1_655
C9 H9C O2 0.96 2.41 2.926(2) 113.7 .
C12 H12C O3 0.96 2.56 3.504(3) 168.9 2_756
loop_
_geom_torsion_atom_site_label_1
_geom_torsion_atom_site_label_2
_geom_torsion_atom_site_label_3
_geom_torsion_atom_site_label_4
_geom_torsion
_geom_torsion_site_symmetry_1
_geom_torsion_site_symmetry_2
_geom_torsion_site_symmetry_3
_geom_torsion_site_symmetry_4
_geom_torsion_publ_flag
O1 C1 C2 C3 -67.08(18) . . . . ?
C10 C1 C2 C3 176.70(16) . . . . ?
C6 C1 C2 C3 50.1(2) . . . . ?
C1 C2 C3 O2 137.22(16) . . . . ?
C1 C2 C3 C4 15.84(19) . . . . ?
O2 C3 C4 C5 163.33(13) . . . . ?
C2 C3 C4 C5 -73.05(17) . . . . ?
O2 C3 C4 C7 -77.57(17) . . . . ?
C2 C3 C4 C7 46.05(18) . . . . ?
C3 C4 C5 C6 60.98(18) . . . . ?
C7 C4 C5 C6 -60.1(2) . . . . ?
O1 C1 C6 C5 56.65(19) . . . . ?
C10 C1 C6 C5 172.11(17) . . . . ?
C2 C1 C6 C5 -61.6(2) . . . . ?
C4 C5 C6 C1 4.2(2) . . . . ?
C3 C4 C7 O1 -62.10(17) . . . . ?
C5 C4 C7 O1 53.9(2) . . . . ?
C3 C4 C7 C9 57.9(2) . . . . ?
C5 C4 C7 C9 173.90(16) . . . . ?
C3 C4 C7 C8 -178.56(14) . . . . ?
C5 C4 C7 C8 -62.6(2) . . . . ?
C10 C1 O1 C7 172.99(16) . . . . ?
C6 C1 O1 C7 -66.42(17) . . . . ?
C2 C1 O1 C7 52.16(19) . . . . ?
C9 C7 O1 C1 -113.91(16) . . . . ?
C8 C7 O1 C1 129.98(17) . . . . ?
C4 C7 O1 C1 9.61(19) . . . . ?
O3 C11 O2 C3 -3.5(3) . . . . ?
C12 C11 O2 C3 176.42(17) . . . . ?
C4 C3 O2 C11 -161.10(15) . . . . ?
C2 C3 O2 C11 78.48(19) . . . . ?
