#------------------------------------------------------------------------------
#$Date: 2022-09-06 13:13:25 +0300 (Tue, 06 Sep 2022) $
#$Revision: 277675 $
#$URL: file:///home/coder/svn-repositories/cod/cif/7/06/16/7061647.cif $
#------------------------------------------------------------------------------
#
# This file is available in the Crystallography Open Database (COD),
# http://www.crystallography.net/
#
# All data on this site have been placed in the public domain by the
# contributors.
#
data_7061647
loop_
_publ_author_name
'Plaza-Lozano, Diego'
'Ram\'irez-Palma, David'
'Vela, Alberto'
'Olgu\'in, Juan'
_publ_section_title
;
 High spin iron(ii) complexes based on imidazolyl- and
 1,2,3-triazolyl-thione ligands and NCE (E = S, Se or BH3) co-ligands:
 effect of the S-functional group on the structural and magnetic
 properties
;
_journal_issue                   31
_journal_name_full               'New Journal of Chemistry'
_journal_page_first              14910
_journal_page_last               14921
_journal_paper_doi               10.1039/D2NJ01989B
_journal_volume                  46
_journal_year                    2022
_chemical_formula_moiety         'C30 H30 B2 Fe N10 S2'
_chemical_formula_sum            'C30 H30 B2 Fe N10 S2'
_chemical_formula_weight         672.23
_space_group_crystal_system      triclinic
_space_group_IT_number           2
_space_group_name_Hall           '-P 1'
_space_group_name_H-M_alt        'P -1'
_atom_sites_solution_hydrogens   difmap
_atom_sites_solution_primary     direct
_atom_sites_solution_secondary   difmap
_audit_creation_method           SHELXL-2014/7
_audit_update_record
;
2020-05-23 deposited with the CCDC.	2022-07-07 downloaded from the CCDC.
;
_cell_angle_alpha                104.946(4)
_cell_angle_beta                 103.136(3)
_cell_angle_gamma                99.831(3)
_cell_formula_units_Z            1
_cell_length_a                   8.2367(7)
_cell_length_b                   8.4429(9)
_cell_length_c                   12.9792(13)
_cell_measurement_reflns_used    9613
_cell_measurement_temperature    166(2)
_cell_measurement_theta_max      25.01
_cell_measurement_theta_min      2.57
_cell_volume                     823.62(14)
_computing_cell_refinement       'Bruker SAINT'
_computing_data_collection       'Bruker APEX2'
_computing_data_reduction        'Bruker SAINT'
_computing_molecular_graphics    'Bruker SHELXTL'
_computing_publication_material  'Bruker SHELXTL'
_computing_structure_refinement  'SHELXL-2017/1 (Sheldrick, 2017)'
_computing_structure_solution    'SHELXT 2014/5 (Sheldrick, 2014)'
_diffrn_ambient_temperature      166(2)
_diffrn_detector_area_resol_mean 10.4167
_diffrn_measured_fraction_theta_full 0.996
_diffrn_measured_fraction_theta_max 0.996
_diffrn_measurement_device_type  'Bruker D8 VENTURE diffractometer'
_diffrn_measurement_method       '\f and \w scans'
_diffrn_radiation_monochromator  'multilayer mirror'
_diffrn_radiation_type           MoK\a
_diffrn_radiation_wavelength     0.71073
_diffrn_reflns_av_R_equivalents  0.0804
_diffrn_reflns_av_unetI/netI     0.0227
_diffrn_reflns_Laue_measured_fraction_full 0.996
_diffrn_reflns_Laue_measured_fraction_max 0.996
_diffrn_reflns_limit_h_max       9
_diffrn_reflns_limit_h_min       -9
_diffrn_reflns_limit_k_max       10
_diffrn_reflns_limit_k_min       -10
_diffrn_reflns_limit_l_max       15
_diffrn_reflns_limit_l_min       -15
_diffrn_reflns_number            64134
_diffrn_reflns_point_group_measured_fraction_full 0.996
_diffrn_reflns_point_group_measured_fraction_max 0.996
_diffrn_reflns_theta_full        25.124
_diffrn_reflns_theta_max         25.124
_diffrn_reflns_theta_min         2.575
_diffrn_source                   'microfocus sealed tube'
_diffrn_source_type              'Incoatec I\mS HB'
_exptl_absorpt_coefficient_mu    0.622
_exptl_absorpt_correction_T_max  0.7452
_exptl_absorpt_correction_T_min  0.6934
_exptl_absorpt_correction_type   multi-scan
_exptl_absorpt_process_details   '(Sheldrick, 2012)'
_exptl_crystal_colour            orange
_exptl_crystal_density_diffrn    1.355
_exptl_crystal_density_meas      ?
_exptl_crystal_density_method    'not measured'
_exptl_crystal_description       square
_exptl_crystal_F_000             348
_exptl_crystal_size_max          0.088
_exptl_crystal_size_mid          0.058
_exptl_crystal_size_min          0.022
_exptl_transmission_factor_max   0.7452
_exptl_transmission_factor_min   0.6934
_refine_diff_density_max         0.213
_refine_diff_density_min         -0.238
_refine_diff_density_rms         0.044
_refine_ls_extinction_method     none
_refine_ls_goodness_of_fit_ref   1.090
_refine_ls_hydrogen_treatment    refall
_refine_ls_matrix_type           full
_refine_ls_number_parameters     265
_refine_ls_number_reflns         2923
_refine_ls_number_restraints     0
_refine_ls_restrained_S_all      1.090
_refine_ls_R_factor_all          0.0369
_refine_ls_R_factor_gt           0.0281
_refine_ls_shift/su_max          0.001
_refine_ls_shift/su_mean         0.000
_refine_ls_structure_factor_coef Fsqd
_refine_ls_weighting_details
'w=1/[\s^2^(Fo^2^)+(0.0215P)^2^+0.4975P] where P=(Fo^2^+2Fc^2^)/3'
_refine_ls_weighting_scheme      calc
_refine_ls_wR_factor_gt          0.0606
_refine_ls_wR_factor_ref         0.0637
_reflns_Friedel_coverage         0.000
_reflns_number_gt                2536
_reflns_number_total             2923
_reflns_threshold_expression     'I > 2\s(I)'
_cod_data_source_file            d2nj01989b2.cif
_cod_data_source_block           DPL277BT
_cod_depositor_comments
;
The following automatic conversions were performed:

data item '_exptl_crystal_density_meas' value 'not measured' was
changed to '?' -- the value is perceived as not measured.

Automatic conversion script
Id: cif_fix_values 7556 2019-12-06 15:28:31Z antanas 

 Adding full bibliography for 7061643--7061648.cif.
;
_cod_database_code               7061647
_shelx_shelxl_version_number     2014/7
_shelx_space_group_comment
;
The symmetry employed for this shelxl refinement is uniquely defined
by the following loop, which should always be used as a source of
symmetry information in preference to the above space-group names.
They are only intended as comments.
;
_shelx_estimated_absorpt_t_min   0.947
_shelx_estimated_absorpt_t_max   0.986
_shelx_res_file
;

    DPL277BT.res created by SHELXL-2014/7


TITL mo_JODiegoDPL277BT_0m_a.res in P-1
CELL 0.71073 8.2367 8.4429 12.9792 104.946 103.136 99.831
ZERR 1.00 0.0007 0.0009 0.0013 0.004 0.003 0.003
LATT 1
SFAC C H N B S FE
UNIT 30 30 10 2 2 1
LIST 4
TEMP -107.400
SIZE 0.022 0.058 0.088
L.S. 20
FMAP 2
PLAN 20
OMIT   -3   0   6
OMIT   2   3   1
OMIT   2   3   2
CONF
HTAB
ACTA
BOND $H
WGHT    0.021500    0.497500
FVAR       0.86918
FE1   6    1.000000    0.500000    0.500000    10.50000    0.01782    0.01746 =
         0.01766    0.00704    0.00478    0.00723
C1    1    1.044869    0.880279    0.621258    11.00000    0.02396    0.02447 =
         0.02543    0.00626    0.00528    0.00433
N1    3    0.925091    0.749119    0.543597    11.00000    0.02059    0.01895 =
         0.02203    0.00762    0.00655    0.00627
S1    5    0.697431    0.368040    0.480793    11.00000    0.01894    0.02197 =
         0.02630    0.01347    0.00588    0.00733
B1    4    1.201636    0.481865    0.875725    11.00000    0.05106    0.03782 =
         0.02311    0.01108    0.00392    0.01056
H1A   2    1.106098    0.474850    0.916262    11.00000    0.08552
H1B   2    1.306996    0.585836    0.923516    11.00000    0.08021
H1C   2    1.261820    0.372714    0.864171    11.00000    0.08144
N2    3    0.648267    0.646467    0.416066    11.00000    0.02010    0.02044 =
         0.02287    0.01005    0.00545    0.00930
C2    1    1.016541    1.038155    0.659382    11.00000    0.03533    0.01986 =
         0.02859    0.00259    0.00854    0.00185
C4    1    0.731116    0.931410    0.540998    11.00000    0.03033    0.02526 =
         0.03747    0.01046    0.01016    0.01449
N4    3    0.452431    0.553076    0.266525    11.00000    0.02635    0.02636 =
         0.02441    0.01220    0.00225    0.00843
N3    3    0.553328    0.695539    0.336950    11.00000    0.02593    0.02571 =
         0.02823    0.01388    0.00284    0.00979
C3    1    0.856927    1.063422    0.618967    11.00000    0.04542    0.01944 =
         0.03715    0.00749    0.01581    0.01376
N5    3    1.065928    0.512798    0.672057    11.00000    0.02290    0.02482 =
         0.02366    0.00862    0.00658    0.00671
C5    1    0.772603    0.778471    0.505052    11.00000    0.02314    0.01824 =
         0.02340    0.00871    0.00885    0.00668
H4    2    0.622933    0.939862    0.510864    11.00000    0.04172
C10   1    0.207056    0.189670    0.201310    11.00000    0.02888    0.03823 =
         0.02768    0.01198    0.00384    0.00504
C12   1    0.213849   -0.078919    0.085999    11.00000    0.06354    0.02761 =
         0.03271    0.00728   -0.00202   -0.00359
C11   1    0.122522    0.028290    0.131241    11.00000    0.03494    0.04671 =
         0.03244    0.01608   -0.00342   -0.00625
H14   2    0.599575    0.170884    0.197518    11.00000    0.04079
C13   1    0.390031   -0.027857    0.110411    11.00000    0.06273    0.02803 =
         0.04456    0.00856    0.01194    0.01451
H13   2    0.455410   -0.101944    0.077199    11.00000    0.06954
H12   2    0.156790   -0.188535    0.038785    11.00000    0.05960
C14   1    0.476521    0.132294    0.181045    11.00000    0.03670    0.02958 =
         0.03874    0.01171    0.00773    0.01036
H11   2    0.001407   -0.002260    0.114782    11.00000    0.04703
C15   1    1.121603    0.500105    0.757986    11.00000    0.02580    0.01935 =
         0.02237    0.00415    0.00854    0.00541
H10   2    0.144590    0.264449    0.229145    11.00000    0.03753
H6C   2    0.346846    0.483547    0.104760    11.00000    0.08049
H6B   2    0.218461    0.530115    0.169082    11.00000    0.09062
H6A   2    0.361170    0.664729    0.162798    11.00000    0.07548
H3    2    0.835026    1.170342    0.643646    11.00000    0.04369
C9    1    0.385115    0.242278    0.226191    11.00000    0.02792    0.02481 =
         0.02099    0.01165    0.00343    0.00600
H2    2    1.104669    1.122093    0.711119    11.00000    0.03660
C8    1    0.477702    0.414691    0.296439    11.00000    0.02107    0.02446 =
         0.02375    0.01047    0.00726    0.00916
H1    2    1.155638    0.861378    0.648804    11.00000    0.02837
C7    1    0.606480    0.473978    0.396403    11.00000    0.01813    0.01892 =
         0.02300    0.00817    0.00835    0.00695
C6    1    0.335496    0.558190    0.164470    11.00000    0.04550    0.04140 =
         0.03522    0.02032   -0.00797    0.01043
HKLF 4 1 1 0 0 0 1 0 0 0 1

REM  mo_JODiegoDPL277BT_0m_a.res in P-1
REM R1 =  0.0281 for    2536 Fo > 4sig(Fo)  and  0.0369 for all    2923 data
REM    265 parameters refined using      0 restraints

END

WGHT      0.0215      0.4975

REM Instructions for potential hydrogen bonds
EQIV $1 -x+2, -y+1, -z+1
HTAB C1 S1_$1

REM Highest difference peak  0.213,  deepest hole -0.238,  1-sigma level  0.044
Q1    1   0.7682  0.8634  0.5024  11.00000  0.05    0.21
Q2    1   1.0973  0.3716  0.8968  11.00000  0.05    0.20
Q3    1   0.2431  0.4459  0.1228  11.00000  0.05    0.19
Q4    1   0.7268  0.7256  0.4635  11.00000  0.05    0.19
Q5    1   0.5535  0.4288  0.3321  11.00000  0.05    0.18
Q6    1   1.1786  0.6006  0.9609  11.00000  0.05    0.17
Q7    1   0.7310  0.8449  0.5227  11.00000  0.05    0.17
Q8    1   0.6161  0.3359  0.5445  11.00000  0.05    0.17
Q9    1   0.8638  0.7705  0.5139  11.00000  0.05    0.17
Q10   1   0.2998  0.2009  0.2372  11.00000  0.05    0.16
Q11   1   0.6295  0.5521  0.4203  11.00000  0.05    0.16
Q12   1   0.4269  0.3241  0.2663  11.00000  0.05    0.16
Q13   1   0.4194  0.6027  0.1185  11.00000  0.05    0.16
Q14   1   0.7968  0.3541  0.4484  11.00000  0.05    0.15
Q15   1   0.5940  0.4437  0.4996  11.00000  0.05    0.15
Q16   1   0.9174  1.0175  0.6462  11.00000  0.05    0.15
Q17   1   1.1209  0.5579  0.9458  11.00000  0.05    0.15
Q18   1   1.0071  0.4761  0.6053  11.00000  0.05    0.15
Q19   1   0.4011  0.5584  0.2184  11.00000  0.05    0.14
Q20   1   0.6429  0.4219  0.4243  11.00000  0.05    0.14
;
_shelx_res_checksum              38106
loop_
_space_group_symop_operation_xyz
'x, y, z'
'-x, -y, -z'
loop_
_atom_site_label
_atom_site_type_symbol
_atom_site_fract_x
_atom_site_fract_y
_atom_site_fract_z
_atom_site_U_iso_or_equiv
_atom_site_adp_type
_atom_site_occupancy
_atom_site_site_symmetry_order
_atom_site_calc_flag
_atom_site_refinement_flags_posn
_atom_site_refinement_flags_adp
_atom_site_refinement_flags_occupancy
_atom_site_disorder_assembly
_atom_site_disorder_group
Fe1 Fe 1.0000 0.5000 0.5000 0.01700(11) Uani 1 2 d S . P . .
C1 C 1.0449(2) 0.8803(2) 0.62126(16) 0.0254(4) Uani 1 1 d . . . . .
N1 N 0.92509(18) 0.74912(18) 0.54360(12) 0.0200(3) Uani 1 1 d . . . . .
S1 S 0.69743(5) 0.36804(6) 0.48079(4) 0.02101(12) Uani 1 1 d . . . . .
B1 B 1.2016(4) 0.4819(4) 0.8757(2) 0.0382(6) Uani 1 1 d . . . . .
H1A H 1.106(4) 0.475(4) 0.916(2) 0.086(10) Uiso 1 1 d . . . . .
H1B H 1.307(4) 0.586(4) 0.924(2) 0.080(9) Uiso 1 1 d . . . . .
H1C H 1.262(4) 0.373(4) 0.864(2) 0.081(9) Uiso 1 1 d . . . . .
N2 N 0.64827(18) 0.64647(18) 0.41607(12) 0.0200(3) Uani 1 1 d . . . . .
C2 C 1.0165(3) 1.0382(2) 0.65938(17) 0.0296(4) Uani 1 1 d . . . . .
C4 C 0.7311(3) 0.9314(2) 0.54100(18) 0.0298(5) Uani 1 1 d . . . . .
N4 N 0.4524(2) 0.5531(2) 0.26653(13) 0.0255(4) Uani 1 1 d . . . . .
N3 N 0.55333(19) 0.6955(2) 0.33695(13) 0.0259(4) Uani 1 1 d . . . . .
C3 C 0.8569(3) 1.0634(3) 0.61897(18) 0.0328(5) Uani 1 1 d . . . . .
N5 N 1.06593(19) 0.51280(19) 0.67206(13) 0.0235(3) Uani 1 1 d . . . . .
C5 C 0.7726(2) 0.7785(2) 0.50505(15) 0.0205(4) Uani 1 1 d . . . . .
H4 H 0.623(3) 0.940(3) 0.5109(18) 0.042(6) Uiso 1 1 d . . . . .
C10 C 0.2071(3) 0.1897(3) 0.20131(17) 0.0324(5) Uani 1 1 d . . . . .
C12 C 0.2138(3) -0.0789(3) 0.0860(2) 0.0463(6) Uani 1 1 d . . . . .
C11 C 0.1225(3) 0.0283(3) 0.13124(18) 0.0416(6) Uani 1 1 d . . . . .
H14 H 0.600(3) 0.171(3) 0.1975(18) 0.041(6) Uiso 1 1 d . . . . .
C13 C 0.3900(3) -0.0279(3) 0.1104(2) 0.0458(6) Uani 1 1 d . . . . .
H13 H 0.455(4) -0.102(4) 0.077(2) 0.070(9) Uiso 1 1 d . . . . .
H12 H 0.157(3) -0.189(3) 0.039(2) 0.060(8) Uiso 1 1 d . . . . .
C14 C 0.4765(3) 0.1323(3) 0.18105(18) 0.0350(5) Uani 1 1 d . . . . .
H11 H 0.001(3) -0.002(3) 0.1148(19) 0.047(7) Uiso 1 1 d . . . . .
C15 C 1.1216(2) 0.5001(2) 0.75799(15) 0.0227(4) Uani 1 1 d . . . . .
H10 H 0.145(3) 0.264(3) 0.2291(18) 0.038(6) Uiso 1 1 d . . . . .
H6C H 0.347(4) 0.484(4) 0.105(3) 0.080(11) Uiso 1 1 d . . . . .
H6B H 0.218(4) 0.530(4) 0.169(3) 0.091(11) Uiso 1 1 d . . . . .
H6A H 0.361(4) 0.665(4) 0.163(2) 0.075(10) Uiso 1 1 d . . . . .
H3 H 0.835(3) 1.170(3) 0.6436(19) 0.044(6) Uiso 1 1 d . . . . .
C9 C 0.3851(2) 0.2423(2) 0.22619(15) 0.0243(4) Uani 1 1 d . . . . .
H2 H 1.105(3) 1.122(3) 0.7111(18) 0.037(6) Uiso 1 1 d . . . . .
C8 C 0.4777(2) 0.4147(2) 0.29644(15) 0.0219(4) Uani 1 1 d . . . . .
H1 H 1.156(3) 0.861(2) 0.6488(16) 0.028(5) Uiso 1 1 d . . . . .
C7 C 0.6065(2) 0.4740(2) 0.39640(14) 0.0189(4) Uani 1 1 d . . . . .
C6 C 0.3355(3) 0.5582(4) 0.1645(2) 0.0424(6) Uani 1 1 d . . . . .
loop_
_atom_site_aniso_label
_atom_site_aniso_U_11
_atom_site_aniso_U_22
_atom_site_aniso_U_33
_atom_site_aniso_U_23
_atom_site_aniso_U_13
_atom_site_aniso_U_12
Fe1 0.01782(19) 0.0175(2) 0.01766(19) 0.00704(15) 0.00478(14) 0.00723(14)
C1 0.0240(10) 0.0245(10) 0.0254(10) 0.0063(8) 0.0053(8) 0.0043(8)
N1 0.0206(8) 0.0189(8) 0.0220(8) 0.0076(6) 0.0066(6) 0.0063(6)
S1 0.0189(2) 0.0220(2) 0.0263(3) 0.0135(2) 0.00588(19) 0.00733(18)
B1 0.0511(16) 0.0378(15) 0.0231(12) 0.0111(11) 0.0039(11) 0.0106(13)
N2 0.0201(8) 0.0204(8) 0.0229(8) 0.0101(6) 0.0054(6) 0.0093(6)
C2 0.0353(12) 0.0199(10) 0.0286(11) 0.0026(9) 0.0085(9) 0.0019(9)
C4 0.0303(11) 0.0253(11) 0.0375(12) 0.0105(9) 0.0102(9) 0.0145(9)
N4 0.0263(8) 0.0264(9) 0.0244(8) 0.0122(7) 0.0022(7) 0.0084(7)
N3 0.0259(8) 0.0257(9) 0.0282(9) 0.0139(7) 0.0028(7) 0.0098(7)
C3 0.0454(13) 0.0194(11) 0.0372(12) 0.0075(9) 0.0158(10) 0.0138(9)
N5 0.0229(8) 0.0248(9) 0.0237(9) 0.0086(7) 0.0066(7) 0.0067(7)
C5 0.0231(9) 0.0182(9) 0.0234(10) 0.0087(8) 0.0089(8) 0.0067(7)
C10 0.0289(11) 0.0382(12) 0.0277(11) 0.0120(10) 0.0038(9) 0.0050(10)
C12 0.0635(17) 0.0276(12) 0.0327(12) 0.0073(10) -0.0020(11) -0.0036(12)
C11 0.0349(13) 0.0467(15) 0.0324(12) 0.0161(11) -0.0034(10) -0.0063(11)
C13 0.0627(17) 0.0280(12) 0.0446(14) 0.0086(11) 0.0119(12) 0.0145(12)
C14 0.0367(13) 0.0296(12) 0.0387(12) 0.0117(10) 0.0077(10) 0.0104(10)
C15 0.0258(10) 0.0193(10) 0.0224(10) 0.0042(8) 0.0085(8) 0.0054(8)
C9 0.0279(10) 0.0248(10) 0.0210(9) 0.0116(8) 0.0034(8) 0.0060(8)
C8 0.0211(9) 0.0245(10) 0.0238(10) 0.0105(8) 0.0073(8) 0.0092(8)
C7 0.0181(9) 0.0189(9) 0.0230(9) 0.0082(8) 0.0083(7) 0.0069(7)
C6 0.0455(15) 0.0414(15) 0.0352(14) 0.0203(12) -0.0080(11) 0.0104(12)
loop_
_atom_type_symbol
_atom_type_description
_atom_type_scat_dispersion_real
_atom_type_scat_dispersion_imag
_atom_type_scat_source
C C 0.0033 0.0016 'International Tables Vol C Tables 4.2.6.8 and 6.1.1.4'
H H 0.0000 0.0000 'International Tables Vol C Tables 4.2.6.8 and 6.1.1.4'
N N 0.0061 0.0033 'International Tables Vol C Tables 4.2.6.8 and 6.1.1.4'
B B 0.0013 0.0007 'International Tables Vol C Tables 4.2.6.8 and 6.1.1.4'
S S 0.1246 0.1234 'International Tables Vol C Tables 4.2.6.8 and 6.1.1.4'
Fe Fe 0.3463 0.8444 'International Tables Vol C Tables 4.2.6.8 and 6.1.1.4'
loop_
_geom_angle_atom_site_label_1
_geom_angle_atom_site_label_2
_geom_angle_atom_site_label_3
_geom_angle
_geom_angle_site_symmetry_1
_geom_angle_site_symmetry_3
_geom_angle_publ_flag
N5 Fe1 N5 180.0 . 2_766 ?
N5 Fe1 N1 89.86(5) . 2_766 ?
N5 Fe1 N1 90.14(5) 2_766 2_766 ?
N5 Fe1 N1 90.14(5) . . ?
N5 Fe1 N1 89.86(5) 2_766 . ?
N1 Fe1 N1 180.00(7) 2_766 . ?
N5 Fe1 S1 90.68(4) . 2_766 ?
N5 Fe1 S1 89.32(4) 2_766 2_766 ?
N1 Fe1 S1 85.76(4) 2_766 2_766 ?
N1 Fe1 S1 94.24(4) . 2_766 ?
N5 Fe1 S1 89.32(4) . . ?
N5 Fe1 S1 90.68(4) 2_766 . ?
N1 Fe1 S1 94.24(4) 2_766 . ?
N1 Fe1 S1 85.76(4) . . ?
S1 Fe1 S1 180.0 2_766 . ?
N1 C1 C2 123.33(18) . . ?
N1 C1 H1 117.1(12) . . ?
C2 C1 H1 119.5(12) . . ?
C5 N1 C1 116.30(15) . . ?
C5 N1 Fe1 127.11(12) . . ?
C1 N1 Fe1 116.50(12) . . ?
C7 S1 Fe1 96.26(6) . . ?
C15 B1 H1A 108.4(17) . . ?
C15 B1 H1B 110.8(16) . . ?
H1A B1 H1B 110(2) . . ?
C15 B1 H1C 108.7(15) . . ?
H1A B1 H1C 115(2) . . ?
H1B B1 H1C 103(2) . . ?
N3 N2 C7 113.10(14) . . ?
N3 N2 C5 115.78(14) . . ?
C7 N2 C5 131.12(14) . . ?
C3 C2 C1 118.83(19) . . ?
C3 C2 H2 122.5(14) . . ?
C1 C2 H2 118.6(14) . . ?
C3 C4 C5 117.97(19) . . ?
C3 C4 H4 123.6(14) . . ?
C5 C4 H4 118.5(15) . . ?
N3 N4 C8 113.74(15) . . ?
N3 N4 C6 118.49(17) . . ?
C8 N4 C6 127.67(18) . . ?
N4 N3 N2 103.50(14) . . ?
C4 C3 C2 119.23(19) . . ?
C4 C3 H3 120.6(14) . . ?
C2 C3 H3 120.2(14) . . ?
C15 N5 Fe1 166.69(15) . . ?
N1 C5 C4 124.30(17) . . ?
N1 C5 N2 117.47(15) . . ?
C4 C5 N2 118.11(16) . . ?
C11 C10 C9 119.6(2) . . ?
C11 C10 H10 120.2(14) . . ?
C9 C10 H10 120.1(14) . . ?
C11 C12 C13 120.6(2) . . ?
C11 C12 H12 120.2(16) . . ?
C13 C12 H12 119.2(16) . . ?
C12 C11 C10 120.1(2) . . ?
C12 C11 H11 122.5(14) . . ?
C10 C11 H11 117.4(14) . . ?
C12 C13 C14 120.0(2) . . ?
C12 C13 H13 121.1(17) . . ?
C14 C13 H13 118.9(17) . . ?
C13 C14 C9 119.8(2) . . ?
C13 C14 H14 121.0(13) . . ?
C9 C14 H14 119.1(13) . . ?
N5 C15 B1 178.9(2) . . ?
C14 C9 C10 119.81(19) . . ?
C14 C9 C8 119.19(17) . . ?
C10 C9 C8 120.97(18) . . ?
N4 C8 C7 106.06(16) . . ?
N4 C8 C9 122.50(16) . . ?
C7 C8 C9 131.36(16) . . ?
N2 C7 C8 103.59(15) . . ?
N2 C7 S1 125.85(13) . . ?
C8 C7 S1 130.56(14) . . ?
N4 C6 H6C 110(2) . . ?
N4 C6 H6B 108.3(19) . . ?
H6C C6 H6B 110(3) . . ?
N4 C6 H6A 106.7(19) . . ?
H6C C6 H6A 113(3) . . ?
H6B C6 H6A 109(3) . . ?
loop_
_geom_bond_atom_site_label_1
_geom_bond_atom_site_label_2
_geom_bond_distance
_geom_bond_site_symmetry_2
_geom_bond_publ_flag
Fe1 N5 2.1443(16) . ?
Fe1 N5 2.1443(16) 2_766 ?
Fe1 N1 2.2611(14) 2_766 ?
Fe1 N1 2.2611(14) . ?
Fe1 S1 2.4780(5) 2_766 ?
Fe1 S1 2.4780(5) . ?
C1 N1 1.347(2) . ?
C1 C2 1.376(3) . ?
C1 H1 0.96(2) . ?
N1 C5 1.332(2) . ?
S1 C7 1.7094(17) . ?
B1 C15 1.579(3) . ?
B1 H1A 1.04(3) . ?
B1 H1B 1.06(3) . ?
B1 H1C 1.11(3) . ?
N2 N3 1.343(2) . ?
N2 C7 1.379(2) . ?
N2 C5 1.426(2) . ?
C2 C3 1.374(3) . ?
C2 H2 0.92(2) . ?
C4 C3 1.374(3) . ?
C4 C5 1.384(3) . ?
C4 H4 0.91(2) . ?
N4 N3 1.311(2) . ?
N4 C8 1.356(2) . ?
N4 C6 1.466(3) . ?
C3 H3 0.94(2) . ?
N5 C15 1.145(2) . ?
C10 C11 1.385(3) . ?
C10 C9 1.393(3) . ?
C10 H10 0.93(2) . ?
C12 C11 1.374(4) . ?
C12 C13 1.378(4) . ?
C12 H12 0.94(3) . ?
C11 H11 0.95(2) . ?
C13 C14 1.382(3) . ?
C13 H13 0.97(3) . ?
C14 C9 1.390(3) . ?
C14 H14 0.97(2) . ?
C9 C8 1.467(3) . ?
C8 C7 1.385(2) . ?
C6 H6C 0.90(3) . ?
C6 H6B 0.97(3) . ?
C6 H6A 0.90(3) . ?
loop_
_geom_torsion_atom_site_label_1
_geom_torsion_atom_site_label_2
_geom_torsion_atom_site_label_3
_geom_torsion_atom_site_label_4
_geom_torsion
_geom_torsion_site_symmetry_1
_geom_torsion_site_symmetry_2
_geom_torsion_site_symmetry_3
_geom_torsion_site_symmetry_4
_geom_torsion_publ_flag
C2 C1 N1 C5 -0.9(3) . . . . ?
C2 C1 N1 Fe1 -177.66(15) . . . . ?
N1 C1 C2 C3 1.9(3) . . . . ?
C8 N4 N3 N2 0.0(2) . . . . ?
C6 N4 N3 N2 -176.64(19) . . . . ?
C7 N2 N3 N4 -0.62(19) . . . . ?
C5 N2 N3 N4 179.66(14) . . . . ?
C5 C4 C3 C2 -1.1(3) . . . . ?
C1 C2 C3 C4 -0.7(3) . . . . ?
C1 N1 C5 C4 -1.1(3) . . . . ?
Fe1 N1 C5 C4 175.19(14) . . . . ?
C1 N1 C5 N2 174.73(15) . . . . ?
Fe1 N1 C5 N2 -8.9(2) . . . . ?
C3 C4 C5 N1 2.2(3) . . . . ?
C3 C4 C5 N2 -173.66(17) . . . . ?
N3 N2 C5 N1 -140.27(16) . . . . ?
C7 N2 C5 N1 40.1(3) . . . . ?
N3 N2 C5 C4 35.9(2) . . . . ?
C7 N2 C5 C4 -143.79(19) . . . . ?
C13 C12 C11 C10 0.5(4) . . . . ?
C9 C10 C11 C12 -0.4(3) . . . . ?
C11 C12 C13 C14 0.1(4) . . . . ?
C12 C13 C14 C9 -0.8(3) . . . . ?
C13 C14 C9 C10 0.9(3) . . . . ?
C13 C14 C9 C8 -176.91(19) . . . . ?
C11 C10 C9 C14 -0.3(3) . . . . ?
C11 C10 C9 C8 177.48(18) . . . . ?
N3 N4 C8 C7 0.5(2) . . . . ?
C6 N4 C8 C7 176.8(2) . . . . ?
N3 N4 C8 C9 -176.47(16) . . . . ?
C6 N4 C8 C9 -0.2(3) . . . . ?
C14 C9 C8 N4 114.8(2) . . . . ?
C10 C9 C8 N4 -63.1(3) . . . . ?
C14 C9 C8 C7 -61.4(3) . . . . ?
C10 C9 C8 C7 120.7(2) . . . . ?
N3 N2 C7 C8 0.94(19) . . . . ?
C5 N2 C7 C8 -179.39(17) . . . . ?
N3 N2 C7 S1 -178.53(12) . . . . ?
C5 N2 C7 S1 1.1(3) . . . . ?
N4 C8 C7 N2 -0.85(19) . . . . ?
C9 C8 C7 N2 175.80(18) . . . . ?
N4 C8 C7 S1 178.58(14) . . . . ?
C9 C8 C7 S1 -4.8(3) . . . . ?
Fe1 S1 C7 N2 -50.65(15) . . . . ?
Fe1 S1 C7 C8 130.03(17) . . . . ?
