#------------------------------------------------------------------------------
#$Date: 2022-05-05 23:47:08 +0300 (Thu, 05 May 2022) $
#$Revision: 275032 $
#$URL: file:///home/coder/svn-repositories/cod/cif/7/06/13/7061346.cif $
#------------------------------------------------------------------------------
#
# This file is available in the Crystallography Open Database (COD),
# http://www.crystallography.net/
#
# All data on this site have been placed in the public domain by the
# contributors.
#
data_7061346
loop_
_publ_author_name
'Podjed, Nina'
'Modec, Barbara'
'Cl\'erac, Rodolphe'
'Rouzi\`eres, Mathieu'
'Alcaide, Mar\'ia M.'
'L\'opez-Serrano, Joaqu\'in'
_publ_section_title
;
 Structural diversity and magnetic properties of copper(ii) quinaldinate
 compounds with amino alcohols
;
_journal_issue                   15
_journal_name_full               'New Journal of Chemistry'
_journal_page_first              6899
_journal_page_last               6920
_journal_paper_doi               10.1039/D2NJ00296E
_journal_volume                  46
_journal_year                    2022
_chemical_formula_moiety         'C26 H30 Cu N4 O6'
_chemical_formula_sum            'C26 H30 Cu N4 O6'
_chemical_formula_weight         558.08
_space_group_crystal_system      triclinic
_space_group_IT_number           2
_space_group_name_Hall           '-P 1'
_space_group_name_H-M_alt        'P -1'
_atom_sites_solution_hydrogens   mixed
_atom_sites_solution_primary     dual
_audit_creation_date             2021-03-10
_audit_creation_method
;
Olex2 1.2
(compiled 2018.05.29 svn.r3508 for OlexSys, GUI svn.r5506)
;
_audit_update_record
;
2021-04-12 deposited with the CCDC.	2022-03-01 downloaded from the CCDC.
;
_cell_angle_alpha                104.885(5)
_cell_angle_beta                 95.480(5)
_cell_angle_gamma                99.643(4)
_cell_formula_units_Z            1
_cell_length_a                   5.6066(3)
_cell_length_b                   10.4353(6)
_cell_length_c                   11.2830(7)
_cell_measurement_reflns_used    2953
_cell_measurement_temperature    150.00(10)
_cell_measurement_theta_max      74.9260
_cell_measurement_theta_min      4.0490
_cell_volume                     622.28(7)
_computing_cell_refinement       'CrysAlisPro 1.171.39.46e (Rigaku OD, 2018)'
_computing_data_collection       'CrysAlisPro 1.171.39.46e (Rigaku OD, 2018)'
_computing_data_reduction        'CrysAlisPro 1.171.39.46e (Rigaku OD, 2018)'
_computing_molecular_graphics    'Olex2 (Dolomanov et al., 2009)'
_computing_publication_material  'Olex2 (Dolomanov et al., 2009)'
_computing_structure_refinement  'ShelXL (Sheldrick, 2015)'
_computing_structure_solution    'ShelXT (Sheldrick, 2015)'
_diffrn_ambient_environment      N~2~
_diffrn_ambient_temperature      150.00(10)
_diffrn_detector                 'CCD plate'
_diffrn_detector_area_resol_mean 10.4933
_diffrn_detector_type            Atlas
_diffrn_measured_fraction_theta_full 1.000
_diffrn_measured_fraction_theta_max 0.989
_diffrn_measurement_details
;
List of Runs (angles in degrees, time in seconds):

  # Type    Start    End  Width  t~exp~   \w     \q     \k     \f   Frames
#--------------------------------------------------------------------------
  1  \w   -116.00 -17.00   1.00    2.00    --  -41.57 -37.00 -30.00   99
  2  \w   -115.00 -29.00   1.00    2.00    --  -41.57 -37.00-120.00   86
  3  \w      1.00  67.00   1.00    2.00    --   41.57 -99.00-150.00   66
  4  \w      2.00  58.00   1.00    2.00    --   41.57 -99.00 120.00   56
  5  \w     47.00  79.00   1.00    2.00    --   41.57-125.00  30.00   32
  6  \w     27.00  92.00   1.00    8.00    --  109.50 -94.00-180.00   65
  7  \w     99.00 141.00   1.00    8.00    --  109.50 -77.00-180.00   42
  8  \w     41.00  77.00   1.00    8.00    --  109.50 -45.00   0.00   36
  9  \w     28.00  76.00   1.00    8.00    --  109.50 -94.00  30.00   48
 10  \w    107.00 159.00   1.00    8.00    --  109.50  45.00 -90.00   52
 11  \w     28.00 106.00   1.00    8.00    --  109.50 -94.00  90.00   78
 12  \w     73.00 117.00   1.00    8.00    --  109.50-125.00 -90.00   44
 13  \w     37.00  68.00   1.00    8.00    --  109.50 -77.00-180.00   31
 14  \w     86.00 118.00   1.00    8.00    --  109.50-125.00   0.00   32
 15  \w     37.00  62.00   1.00    8.00    --  109.50-125.00  90.00   25
 16  \w     68.00  94.00   1.00    8.00    --  109.50-125.00-180.00   26
 17  \w     36.00  99.00   1.00    8.00    --  109.50 -45.00-180.00   63
 18  \w     82.00 118.00   1.00    8.00    --  109.50-125.00  90.00   36
 19  \w     99.00 126.00   1.00    8.00    --  109.50  30.00 120.00   27
 20  \w    135.00 177.00   1.00    8.00    --  109.50  30.00 120.00   42
 21  \w    102.00 133.00   1.00    8.00    --  109.50 -45.00   0.00   31
 22  \w     88.00 173.00   1.00    8.00    --  109.50  30.00-180.00   85
 23  \w     38.00 104.00   1.00    8.00    --  109.50-125.00  30.00   66
 24  \w     85.00 154.00   1.00    8.00    --  109.50 -15.00  90.00   69
;
_diffrn_measurement_device       'four-circle diffractometer'
_diffrn_measurement_device_type  'SuperNova, Dual, Cu at home/near, Atlas'
_diffrn_measurement_method       '\w scans'
_diffrn_orient_matrix_type
'CrysAlisPro convention (1999,Acta A55,543-557)'
_diffrn_orient_matrix_UB_11      0.0747092000
_diffrn_orient_matrix_UB_12      -0.0901726000
_diffrn_orient_matrix_UB_13      -0.1158150000
_diffrn_orient_matrix_UB_21      -0.2200571000
_diffrn_orient_matrix_UB_22      0.0203738000
_diffrn_orient_matrix_UB_23      -0.0809118000
_diffrn_orient_matrix_UB_31      0.1592211000
_diffrn_orient_matrix_UB_32      0.1255253000
_diffrn_orient_matrix_UB_33      -0.0207547000
_diffrn_radiation_monochromator  mirror
_diffrn_radiation_probe          x-ray
_diffrn_radiation_type           CuK\a
_diffrn_radiation_wavelength     1.54184
_diffrn_reflns_av_R_equivalents  0.0235
_diffrn_reflns_av_unetI/netI     0.0249
_diffrn_reflns_Laue_measured_fraction_full 1.000
_diffrn_reflns_Laue_measured_fraction_max 0.989
_diffrn_reflns_limit_h_max       6
_diffrn_reflns_limit_h_min       -6
_diffrn_reflns_limit_k_max       13
_diffrn_reflns_limit_k_min       -12
_diffrn_reflns_limit_l_max       13
_diffrn_reflns_limit_l_min       -14
_diffrn_reflns_number            4819
_diffrn_reflns_point_group_measured_fraction_full 1.000
_diffrn_reflns_point_group_measured_fraction_max 0.989
_diffrn_reflns_theta_full        67.684
_diffrn_reflns_theta_max         75.088
_diffrn_reflns_theta_min         4.098
_diffrn_source                   'micro-focus sealed X-ray tube'
_diffrn_source_type              'SuperNova (Cu) X-ray Source'
_exptl_absorpt_coefficient_mu    1.662
_exptl_absorpt_correction_T_max  1.00000
_exptl_absorpt_correction_T_min  0.19594
_exptl_absorpt_correction_type   multi-scan
_exptl_absorpt_process_details
;
CrysAlisPro 1.171.39.46e (Rigaku Oxford Diffraction, 2018)
Empirical absorption correction using spherical harmonics,
 implemented in SCALE3 ABSPACK scaling algorithm.
;
_exptl_crystal_colour            blue
_exptl_crystal_density_diffrn    1.489
_exptl_crystal_description       needle
_exptl_crystal_F_000             291
_exptl_crystal_size_max          0.6
_exptl_crystal_size_mid          0.1
_exptl_crystal_size_min          0.04
_refine_diff_density_max         0.393
_refine_diff_density_min         -0.621
_refine_diff_density_rms         0.069
_refine_ls_extinction_method     none
_refine_ls_goodness_of_fit_ref   1.047
_refine_ls_hydrogen_treatment    mixed
_refine_ls_matrix_type           full
_refine_ls_number_parameters     181
_refine_ls_number_reflns         2524
_refine_ls_number_restraints     0
_refine_ls_restrained_S_all      1.047
_refine_ls_R_factor_all          0.0350
_refine_ls_R_factor_gt           0.0340
_refine_ls_shift/su_max          0.000
_refine_ls_shift/su_mean         0.000
_refine_ls_structure_factor_coef Fsqd
_refine_ls_weighting_details
'w=1/[\s^2^(Fo^2^)+(0.0536P)^2^+0.3761P] where P=(Fo^2^+2Fc^2^)/3'
_refine_ls_weighting_scheme      calc
_refine_ls_wR_factor_gt          0.0921
_refine_ls_wR_factor_ref         0.0933
_reflns_Friedel_coverage         0.000
_reflns_number_gt                2437
_reflns_number_total             2524
_reflns_threshold_expression     'I > 2\s(I)'
_cod_data_source_file            d2nj00296e2.cif
_cod_data_source_block           11a
_cod_depositor_comments
'Adding full bibliography for 7061330--7061353.cif.'
_cod_original_cell_volume        622.28(6)
_cod_database_code               7061346
_shelx_shelxl_version_number     2018/3
_shelx_space_group_comment
;
The symmetry employed for this shelxl refinement is uniquely defined
by the following loop, which should always be used as a source of
symmetry information in preference to the above space-group names.
They are only intended as comments.
;
_shelx_estimated_absorpt_t_max   0.936
_shelx_estimated_absorpt_t_min   0.435
_reflns_odcompleteness_completeness 99.92
_reflns_odcompleteness_iscentric 1
_reflns_odcompleteness_theta     73.11
_olex2_refinement_description
;
1. Fixed Uiso
 At 1.2 times of:
  All C(H) groups, All C(H,H) groups
2.a Secondary CH2 refined with riding coordinates:
 C21(H21A,H21B), C22(H22A,H22B), C23(H23A,H23B)
2.b Aromatic/amide H refined with riding coordinates:
 C11(H11), C12(H12), C13(H13), C14(H14), C16(H16), C17(H17)
;
_shelx_res_file
;
TITL cua156_a.res in P-1
    cua156.res
    created by SHELXL-2018/3 at 13:29:57 on 10-Mar-2021
REM Old TITL Cua156 in P-1
REM SHELXT solution in P-1: R1 0.088, Rweak 0.011, Alpha 0.036
REM <I/s> 0.000 for 0 systematic absences, Orientation as input
REM Formula found by SHELXT: C26 N6 O4 Cu
CELL 1.54184 5.6066 10.4353 11.283 104.885 95.48 99.643
ZERR 1 0.0003 0.0006 0.0007 0.005 0.005 0.004
LATT 1
SFAC C H Cu N O
UNIT 26 30 1 4 6
EQIV $1 1-X,1-Y,-Z

L.S. 10
PLAN  10
SIZE 0.6 0.1 0.04
MPLA O1 O11 C19
MPLA N1 C10 C12 C13 C14 C15 C16 C17 C18
HTAB O2 O11_$1
BOND
list 4
fmap 2 53
acta
REM <olex2.extras>
REM <HklSrc "%.\\Cua156.hkl">
REM </olex2.extras>

WGHT    0.053600    0.376100
FVAR       0.82013
CU1   3    0.500000    0.500000    0.500000    10.50000    0.01607    0.02250 =
         0.01363    0.00718    0.00290    0.00546
O1    5    0.754150    0.474169    0.387472    11.00000    0.01725    0.02275 =
         0.01679    0.00511    0.00327    0.00260
O2    5    0.067522    0.721675    0.022476    11.00000    0.05693    0.03865 =
         0.01602    0.01028    0.00571    0.02433
H2    2    0.071709    0.705163   -0.049875    11.00000    0.04503
O11   5    0.875061    0.356106    0.219625    11.00000    0.02311    0.03415 =
         0.01880    0.00650    0.00791    0.00450
N1    4    0.360959    0.274411    0.361753    11.00000    0.01739    0.02055 =
         0.01679    0.00605    0.00194    0.00586
N2    4    0.302574    0.578636    0.387727    11.00000    0.01573    0.02513 =
         0.01668    0.00873    0.00163    0.00361
H2A   2    0.168571    0.539825    0.384261    11.00000    0.01781
H2B   2    0.309183    0.661019    0.432600    11.00000    0.03266
C10   1    0.159721    0.174925    0.349288    11.00000    0.01737    0.02012 =
         0.02098    0.00794    0.00149    0.00658
C11   1    0.018602    0.184280    0.447675    11.00000    0.02223    0.02339 =
         0.02450    0.00600    0.00532    0.00660
AFIX  43
H11   2    0.063059    0.256889    0.518688    11.00000   -1.20000
AFIX   0
C12   1   -0.183554    0.086068    0.437931    11.00000    0.02450    0.02845 =
         0.03432    0.01265    0.01080    0.00654
AFIX  43
H12   2   -0.276424    0.092687    0.502478    11.00000   -1.20000
AFIX   0
C13   1   -0.252363   -0.024953    0.331100    11.00000    0.02217    0.02439 =
         0.04223    0.01095    0.00384    0.00016
AFIX  43
H13   2   -0.390659   -0.090462    0.325856    11.00000   -1.20000
AFIX   0
C14   1   -0.118335   -0.037570    0.235047    11.00000    0.02421    0.02169 =
         0.03247    0.00492   -0.00074    0.00348
AFIX  43
H14   2   -0.164661   -0.111710    0.165400    11.00000   -1.20000
AFIX   0
C15   1    0.091883    0.062887    0.241930    11.00000    0.01972    0.02125 =
         0.02301    0.00629   -0.00038    0.00561
C16   1    0.238518    0.056747    0.146175    11.00000    0.02853    0.02437 =
         0.02014    0.00165    0.00058    0.00621
AFIX  43
H16   2    0.198169   -0.014387    0.073886    11.00000   -1.20000
AFIX   0
C17   1    0.440365    0.156480    0.160900    11.00000    0.02619    0.02822 =
         0.01726    0.00503    0.00465    0.00607
AFIX  43
H17   2    0.539562    0.153808    0.099141    11.00000   -1.20000
AFIX   0
C18   1    0.495371    0.263207    0.271105    11.00000    0.01836    0.02138 =
         0.01611    0.00657    0.00080    0.00613
C19   1    0.725531    0.372521    0.292855    11.00000    0.01713    0.02499 =
         0.01479    0.00909    0.00136    0.00590
C21   1    0.360141    0.587181    0.264920    11.00000    0.02277    0.02780 =
         0.01776    0.01084    0.00473    0.00653
AFIX  23
H21A  2    0.350705    0.496588    0.211916    11.00000   -1.20000
H21B  2    0.526476    0.636720    0.273835    11.00000   -1.20000
AFIX   0
C22   1    0.187063    0.656878    0.203304    11.00000    0.02499    0.02501 =
         0.01870    0.00932    0.00304    0.00625
AFIX  23
H22A  2    0.019958    0.610092    0.198044    11.00000   -1.20000
H22B  2    0.202654    0.749095    0.254078    11.00000   -1.20000
AFIX   0
C23   1    0.239798    0.658755    0.074558    11.00000    0.03357    0.03229 =
         0.01863    0.01051    0.00475    0.00885
AFIX  23
H23A  2    0.404351    0.708538    0.078970    11.00000   -1.20000
H23B  2    0.227139    0.567063    0.023198    11.00000   -1.20000
AFIX   0
HKLF 4




REM  cua156_a.res in P-1
REM wR2 = 0.0933, GooF = S = 1.047, Restrained GooF = 1.047 for all data
REM R1 = 0.0340 for 2437 Fo > 4sig(Fo) and 0.0350 for all 2524 data
REM 181 parameters refined using 0 restraints

END

WGHT      0.0536      0.3761

REM Highest difference peak  0.393,  deepest hole -0.621,  1-sigma level  0.069
Q1    1   0.5314  0.4934  0.5978  11.00000  0.05    0.39
Q2    1   0.3882  0.5765  0.4399  11.00000  0.05    0.32
Q3    1   0.6128  0.3186  0.2883  11.00000  0.05    0.32
Q4    1   0.2773  0.6225  0.2388  11.00000  0.05    0.30
Q5    1   0.2284  0.6571  0.1394  11.00000  0.05    0.28
Q6    1   0.0062  0.0081  0.2419  11.00000  0.05    0.25
Q7    1   0.3682  0.1037  0.1621  11.00000  0.05    0.25
Q8    1   0.8558  0.4659  0.4632  11.00000  0.05    0.25
Q9    1  -0.0940  0.1369  0.4331  11.00000  0.05    0.24
Q10   1   0.3606  0.5837  0.3444  11.00000  0.05    0.23
;
_shelx_res_checksum              88940
_oxdiff_exptl_absorpt_empirical_details
;
Empirical correction (ABSPACK) includes:
- Absorption correction using spherical harmonics
- Frame scaling
;
_oxdiff_exptl_absorpt_empirical_full_max 3.423
_oxdiff_exptl_absorpt_empirical_full_min 0.370
loop_
_space_group_symop_operation_xyz
'x, y, z'
'-x, -y, -z'
loop_
_atom_site_label
_atom_site_type_symbol
_atom_site_fract_x
_atom_site_fract_y
_atom_site_fract_z
_atom_site_U_iso_or_equiv
_atom_site_adp_type
_atom_site_occupancy
_atom_site_site_symmetry_order
_atom_site_calc_flag
_atom_site_refinement_flags_posn
_atom_site_refinement_flags_adp
_atom_site_refinement_flags_occupancy
_atom_site_disorder_assembly
_atom_site_disorder_group
Cu1 Cu 0.500000 0.500000 0.500000 0.01675(13) Uani 1 2 d S T P . .
O1 O 0.7541(2) 0.47417(12) 0.38747(10) 0.0191(2) Uani 1 1 d . . . . .
O2 O 0.0675(3) 0.72167(15) 0.02248(13) 0.0349(3) Uani 1 1 d . . . . .
H2 H 0.072(5) 0.705(3) -0.050(3) 0.045(8) Uiso 1 1 d . . . . .
O11 O 0.8751(2) 0.35611(13) 0.21962(11) 0.0253(3) Uani 1 1 d . . . . .
N1 N 0.3610(3) 0.27441(14) 0.36175(13) 0.0179(3) Uani 1 1 d . . . . .
N2 N 0.3026(3) 0.57864(16) 0.38773(13) 0.0187(3) Uani 1 1 d . . . . .
H2A H 0.169(5) 0.540(2) 0.384(2) 0.018(5) Uiso 1 1 d . . . . .
H2B H 0.309(5) 0.661(3) 0.433(2) 0.033(6) Uiso 1 1 d . . . . .
C10 C 0.1597(3) 0.17493(16) 0.34929(16) 0.0188(3) Uani 1 1 d . . . . .
C11 C 0.0186(3) 0.18428(18) 0.44767(17) 0.0231(3) Uani 1 1 d . . . . .
H11 H 0.063059 0.256889 0.518688 0.028 Uiso 1 1 calc R . . . .
C12 C -0.1836(3) 0.08607(19) 0.43793(19) 0.0278(4) Uani 1 1 d . . . . .
H12 H -0.276424 0.092687 0.502478 0.033 Uiso 1 1 calc R . . . .
C13 C -0.2524(3) -0.02495(19) 0.3311(2) 0.0299(4) Uani 1 1 d . . . . .
H13 H -0.390659 -0.090462 0.325856 0.036 Uiso 1 1 calc R . . . .
C14 C -0.1183(3) -0.03757(18) 0.23505(19) 0.0271(4) Uani 1 1 d . . . . .
H14 H -0.164661 -0.111710 0.165400 0.032 Uiso 1 1 calc R . . . .
C15 C 0.0919(3) 0.06289(17) 0.24193(16) 0.0214(3) Uani 1 1 d . . . . .
C16 C 0.2385(3) 0.05675(18) 0.14617(17) 0.0253(4) Uani 1 1 d . . . . .
H16 H 0.198169 -0.014387 0.073886 0.030 Uiso 1 1 calc R . . . .
C17 C 0.4404(3) 0.15648(18) 0.16090(16) 0.0240(4) Uani 1 1 d . . . . .
H17 H 0.539562 0.153808 0.099141 0.029 Uiso 1 1 calc R . . . .
C18 C 0.4954(3) 0.26321(16) 0.27110(15) 0.0182(3) Uani 1 1 d . . . . .
C19 C 0.7255(3) 0.37252(17) 0.29286(15) 0.0182(3) Uani 1 1 d . . . . .
C21 C 0.3601(3) 0.58718(18) 0.26492(15) 0.0216(3) Uani 1 1 d . . . . .
H21A H 0.350705 0.496588 0.211916 0.026 Uiso 1 1 calc R . . . .
H21B H 0.526476 0.636720 0.273835 0.026 Uiso 1 1 calc R . . . .
C22 C 0.1871(3) 0.65688(18) 0.20330(16) 0.0221(3) Uani 1 1 d . . . . .
H22A H 0.019958 0.610092 0.198044 0.027 Uiso 1 1 calc R . . . .
H22B H 0.202654 0.749095 0.254078 0.027 Uiso 1 1 calc R . . . .
C23 C 0.2398(4) 0.6588(2) 0.07456(16) 0.0272(4) Uani 1 1 d . . . . .
H23A H 0.404351 0.708538 0.078970 0.033 Uiso 1 1 calc R . . . .
H23B H 0.227139 0.567063 0.023198 0.033 Uiso 1 1 calc R . . . .
loop_
_atom_site_aniso_label
_atom_site_aniso_U_11
_atom_site_aniso_U_22
_atom_site_aniso_U_33
_atom_site_aniso_U_23
_atom_site_aniso_U_13
_atom_site_aniso_U_12
Cu1 0.01607(19) 0.02250(19) 0.01363(19) 0.00718(13) 0.00290(12) 0.00546(13)
O1 0.0173(5) 0.0228(6) 0.0168(5) 0.0051(4) 0.0033(4) 0.0026(4)
O2 0.0569(10) 0.0386(8) 0.0160(6) 0.0103(6) 0.0057(6) 0.0243(7)
O11 0.0231(6) 0.0342(7) 0.0188(6) 0.0065(5) 0.0079(5) 0.0045(5)
N1 0.0174(6) 0.0205(7) 0.0168(6) 0.0060(5) 0.0019(5) 0.0059(5)
N2 0.0157(7) 0.0251(7) 0.0167(7) 0.0087(6) 0.0016(5) 0.0036(6)
C10 0.0174(7) 0.0201(7) 0.0210(8) 0.0079(6) 0.0015(6) 0.0066(6)
C11 0.0222(8) 0.0234(8) 0.0245(9) 0.0060(7) 0.0053(7) 0.0066(6)
C12 0.0245(9) 0.0285(9) 0.0343(10) 0.0127(8) 0.0108(7) 0.0065(7)
C13 0.0222(9) 0.0244(9) 0.0422(11) 0.0109(8) 0.0038(8) 0.0002(7)
C14 0.0242(9) 0.0217(8) 0.0325(10) 0.0049(7) -0.0007(7) 0.0035(7)
C15 0.0197(8) 0.0212(8) 0.0230(8) 0.0063(6) -0.0004(6) 0.0056(6)
C16 0.0285(9) 0.0244(8) 0.0201(8) 0.0017(7) 0.0006(7) 0.0062(7)
C17 0.0262(9) 0.0282(9) 0.0173(8) 0.0050(7) 0.0047(6) 0.0061(7)
C18 0.0184(8) 0.0214(8) 0.0161(7) 0.0066(6) 0.0008(6) 0.0061(6)
C19 0.0171(7) 0.0250(8) 0.0148(7) 0.0091(6) 0.0014(6) 0.0059(6)
C21 0.0228(8) 0.0278(8) 0.0178(8) 0.0108(6) 0.0047(6) 0.0065(6)
C22 0.0250(8) 0.0250(8) 0.0187(8) 0.0093(6) 0.0030(6) 0.0062(6)
C23 0.0336(10) 0.0323(9) 0.0186(8) 0.0105(7) 0.0048(7) 0.0088(7)
loop_
_atom_type_symbol
_atom_type_description
_atom_type_scat_dispersion_real
_atom_type_scat_dispersion_imag
_atom_type_scat_source
C C 0.0181 0.0091 'International Tables Vol C Tables 4.2.6.8 and 6.1.1.4'
H H 0.0000 0.0000 'International Tables Vol C Tables 4.2.6.8 and 6.1.1.4'
Cu Cu -1.9646 0.5888 'International Tables Vol C Tables 4.2.6.8 and 6.1.1.4'
N N 0.0311 0.0180 'International Tables Vol C Tables 4.2.6.8 and 6.1.1.4'
O O 0.0492 0.0322 'International Tables Vol C Tables 4.2.6.8 and 6.1.1.4'
loop_
_geom_angle_atom_site_label_1
_geom_angle_atom_site_label_2
_geom_angle_atom_site_label_3
_geom_angle
_geom_angle_site_symmetry_1
_geom_angle_site_symmetry_3
_geom_angle_publ_flag
O1 Cu1 O1 180.0 . 2_666 ?
O1 Cu1 N1 74.77(5) . . ?
O1 Cu1 N1 105.23(5) 2_666 . ?
O1 Cu1 N1 105.23(5) . 2_666 ?
O1 Cu1 N1 74.77(5) 2_666 2_666 ?
O1 Cu1 N2 93.09(5) . . ?
O1 Cu1 N2 86.91(5) . 2_666 ?
O1 Cu1 N2 93.09(5) 2_666 2_666 ?
O1 Cu1 N2 86.91(5) 2_666 . ?
N1 Cu1 N1 180.0 2_666 . ?
N2 Cu1 N1 88.61(5) 2_666 . ?
N2 Cu1 N1 88.61(5) . 2_666 ?
N2 Cu1 N1 91.39(5) . . ?
N2 Cu1 N1 91.39(5) 2_666 2_666 ?
N2 Cu1 N2 180.0 . 2_666 ?
C19 O1 Cu1 122.37(10) . . ?
C10 N1 Cu1 133.61(11) . . ?
C18 N1 Cu1 107.04(10) . . ?
C18 N1 C10 118.18(15) . . ?
C21 N2 Cu1 123.86(11) . . ?
N1 C10 C11 118.49(16) . . ?
N1 C10 C15 121.86(15) . . ?
C11 C10 C15 119.64(16) . . ?
C12 C11 C10 119.80(17) . . ?
C11 C12 C13 120.71(17) . . ?
C14 C13 C12 120.86(17) . . ?
C13 C14 C15 119.86(18) . . ?
C10 C15 C14 119.12(16) . . ?
C16 C15 C10 117.91(16) . . ?
C16 C15 C14 122.97(17) . . ?
C17 C16 C15 119.35(16) . . ?
C16 C17 C18 118.89(16) . . ?
N1 C18 C17 123.79(15) . . ?
N1 C18 C19 116.05(14) . . ?
C17 C18 C19 120.14(15) . . ?
O1 C19 C18 117.75(14) . . ?
O11 C19 O1 123.84(15) . . ?
O11 C19 C18 118.40(15) . . ?
N2 C21 C22 112.47(14) . . ?
C23 C22 C21 112.00(15) . . ?
O2 C23 C22 108.52(15) . . ?
loop_
_geom_bond_atom_site_label_1
_geom_bond_atom_site_label_2
_geom_bond_distance
_geom_bond_site_symmetry_2
_geom_bond_publ_flag
Cu1 O1 2.0034(11) . ?
Cu1 O1 2.0034(11) 2_666 ?
Cu1 N1 2.4184(14) 2_666 ?
Cu1 N1 2.4185(14) . ?
Cu1 N2 2.0184(14) . ?
Cu1 N2 2.0184(14) 2_666 ?
O1 C19 1.272(2) . ?
O2 C23 1.418(2) . ?
O11 C19 1.234(2) . ?
N1 C10 1.369(2) . ?
N1 C18 1.320(2) . ?
N2 C21 1.474(2) . ?
C10 C11 1.416(2) . ?
C10 C15 1.419(2) . ?
C11 C12 1.370(3) . ?
C12 C13 1.410(3) . ?
C13 C14 1.368(3) . ?
C14 C15 1.422(2) . ?
C15 C16 1.414(3) . ?
C16 C17 1.368(3) . ?
C17 C18 1.408(2) . ?
C18 C19 1.526(2) . ?
C21 C22 1.524(2) . ?
C22 C23 1.514(2) . ?
loop_
_geom_hbond_atom_site_label_D
_geom_hbond_atom_site_label_H
_geom_hbond_atom_site_label_A
_geom_hbond_distance_DH
_geom_hbond_distance_HA
_geom_hbond_distance_DA
_geom_hbond_angle_DHA
_geom_hbond_site_symmetry_A
_geom_hbond_publ_flag
O2 H2 O11 0.79(3) 1.93(3) 2.7094(19) 169(3) 2_665 yes
