#------------------------------------------------------------------------------
#$Date: 2017-10-14 22:27:35 +0300 (Sat, 14 Oct 2017) $
#$Revision: 202017 $
#$URL: file:///home/coder/svn-repositories/cod/cif/7/10/64/7106429.cif $
#------------------------------------------------------------------------------
#
# This file is available in the Crystallography Open Database (COD),
# http://www.crystallography.net/
#
# All data on this site have been placed in the public domain by the
# contributors.
#
data_7106429
loop_
_publ_author_name
'Dinabandhu Das'
'Tia Jacobs'
'Adam Pietraszako'
'L. J. Barbour'
_publ_section_title
;
 Anomalous thermal expansion of an organic crystal-implications for
 elucidating the mechanism of an enantiotropic phase transformation
;
_journal_name_full               Chem.Commun.
_journal_page_first              6009
_journal_paper_doi               10.1039/c1cc10716j
_journal_volume                  47
_journal_year                    2011
_chemical_absolute_configuration syn
_chemical_formula_moiety         'C8 H10 O2'
_chemical_formula_sum            'C8 H10 O2'
_chemical_formula_weight         138.16
_chemical_melting_point          343
_chemical_name_systematic
;
(s,s)-3,5-Ocatadiyn-2,7-diol
;
_space_group_IT_number           19
_symmetry_cell_setting           orthorhombic
_symmetry_space_group_name_Hall  'P 2ac 2ab'
_symmetry_space_group_name_H-M   'P 21 21 21'
_atom_sites_solution_hydrogens   geom
_atom_sites_solution_primary     direct
_atom_sites_solution_secondary   difmap
_audit_creation_method           SHELXL-97
_cell_angle_alpha                90.00
_cell_angle_beta                 90.00
_cell_angle_gamma                90.00
_cell_formula_units_Z            4
_cell_length_a                   4.1314(11)
_cell_length_b                   11.955(3)
_cell_length_c                   16.429(4)
_cell_measurement_reflns_used    1047
_cell_measurement_temperature    225(2)
_cell_measurement_theta_max      20.25
_cell_measurement_theta_min      2.48
_cell_volume                     811.4(4)
_computing_cell_refinement       'Bruker SMART APEX-II'
_computing_data_collection       'Bruker SMART APEX-II'
_computing_data_reduction        'Bruker SAINT '
_computing_molecular_graphics    'XSEED (Barbour 2001)'
_computing_structure_refinement  'SHELXL-97 (Sheldrick, 1997)'
_computing_structure_solution    'SHELXS-97 (Sheldrick, 1990)'
_diffrn_ambient_temperature      225(2)
_diffrn_measured_fraction_theta_full 1.000
_diffrn_measured_fraction_theta_max 0.973
_diffrn_measurement_device_type  'Bruker APEX-II CCD'
_diffrn_measurement_method       '\f and \w scans'
_diffrn_radiation_monochromator  graphite
_diffrn_radiation_source         'fine-focus sealed tube'
_diffrn_radiation_type           MoK\a
_diffrn_radiation_wavelength     0.71073
_diffrn_reflns_av_R_equivalents  0.0332
_diffrn_reflns_av_sigmaI/netI    0.0431
_diffrn_reflns_limit_h_max       4
_diffrn_reflns_limit_h_min       -5
_diffrn_reflns_limit_k_max       12
_diffrn_reflns_limit_k_min       -15
_diffrn_reflns_limit_l_max       20
_diffrn_reflns_limit_l_min       -20
_diffrn_reflns_number            4635
_diffrn_reflns_theta_full        25.00
_diffrn_reflns_theta_max         27.39
_diffrn_reflns_theta_min         2.11
_exptl_absorpt_coefficient_mu    0.080
_exptl_absorpt_correction_T_max  0.9952
_exptl_absorpt_correction_T_min  0.9724
_exptl_absorpt_correction_type   multi-scan
_exptl_absorpt_process_details   SADABS
_exptl_crystal_colour            colorless
_exptl_crystal_density_diffrn    1.131
_exptl_crystal_density_method    'not measured'
_exptl_crystal_description       needle
_exptl_crystal_F_000             296
_exptl_crystal_size_max          0.35
_exptl_crystal_size_mid          0.10
_exptl_crystal_size_min          0.06
_refine_diff_density_max         0.097
_refine_diff_density_min         -0.167
_refine_diff_density_rms         0.034
_refine_ls_abs_structure_details 'Flack H D (1983), Acta Cryst. A39, 876-881'
_refine_ls_abs_structure_Flack   -1(2)
_refine_ls_extinction_method     none
_refine_ls_goodness_of_fit_ref   1.023
_refine_ls_hydrogen_treatment    constr
_refine_ls_matrix_type           full
_refine_ls_number_parameters     95
_refine_ls_number_reflns         1763
_refine_ls_number_restraints     0
_refine_ls_restrained_S_all      1.023
_refine_ls_R_factor_all          0.0716
_refine_ls_R_factor_gt           0.0457
_refine_ls_shift/su_max          0.000
_refine_ls_shift/su_mean         0.000
_refine_ls_structure_factor_coef Fsqd
_refine_ls_weighting_details
'calc w=1/[\s^2^(Fo^2^)+(0.0545P)^2^+0.0450P] where P=(Fo^2^+2Fc^2^)/3'
_refine_ls_weighting_scheme      calc
_refine_ls_wR_factor_gt          0.1020
_refine_ls_wR_factor_ref         0.1171
_reflns_number_gt                1283
_reflns_number_total             1763
_reflns_threshold_expression     >2sigma(I)
_cod_data_source_file            c1cc10716j.txt
_cod_data_source_block           LT_225K
_cod_depositor_comments
;
The following automatic conversions were performed:

'_chemical_melting_point' value '343K' was changed to '343' - the
value should be numeric and without a unit
designator.

'_exptl_absorpt_correction_type' value 'multi-scaN'
changed to 'multi-scan' according to the built-in table from CIF Core
dictionary named 'cif_core.dic' version 2.4.1 from 2010-06-29.

Automatic conversion script
Id: cif_fix_values 1673 2011-04-08 12:14:43Z adriana 
;
_cod_original_cell_volume        811.5(4)
_cod_original_sg_symbol_H-M      'P2(1)2(1)2(1) '
_cod_database_code               7106429
loop_
_symmetry_equiv_pos_as_xyz
'x, y, z'
'-x+1/2, -y, z+1/2'
'x+1/2, -y+1/2, -z'
'-x, y+1/2, -z+1/2'
loop_
_atom_site_label
_atom_site_type_symbol
_atom_site_fract_x
_atom_site_fract_y
_atom_site_fract_z
_atom_site_U_iso_or_equiv
_atom_site_adp_type
_atom_site_occupancy
_atom_site_symmetry_multiplicity
_atom_site_calc_flag
_atom_site_refinement_flags
_atom_site_disorder_assembly
_atom_site_disorder_group
O1 O 0.0777(4) 0.60285(11) 0.00441(8) 0.0519(4) Uani 1 1 d . . .
O2 O -0.2720(4) 0.25705(12) -0.39092(8) 0.0481(4) Uani 1 1 d . . .
C4 C -0.0265(6) 0.38540(16) -0.12372(12) 0.0429(5) Uani 1 1 d . . .
C5 C -0.1696(6) 0.33781(16) -0.19113(12) 0.0444(5) Uani 1 1 d . . .
C7 C -0.4689(6) 0.24840(18) -0.31911(11) 0.0434(5) Uani 1 1 d . . .
H7 H -0.6741 0.2892 -0.3285 0.052 Uiso 1 1 calc R . .
C6 C -0.3000(6) 0.29968(15) -0.24981(12) 0.0440(5) Uani 1 1 d . . .
C3 C 0.0958(6) 0.43044(16) -0.06685(12) 0.0435(5) Uani 1 1 d . . .
C2 C 0.2343(6) 0.49569(17) 0.00095(12) 0.0457(5) Uani 1 1 d . . .
H2 H 0.4686 0.5067 -0.0088 0.055 Uiso 1 1 calc R . .
C8 C -0.5455(7) 0.12693(19) -0.30294(13) 0.0549(6) Uani 1 1 d . . .
H8A H -0.6608 0.0959 -0.3491 0.082 Uiso 1 1 calc R . .
H8B H -0.6793 0.1210 -0.2546 0.082 Uiso 1 1 calc R . .
H8C H -0.3458 0.0858 -0.2947 0.082 Uiso 1 1 calc R . .
C1 C 0.1871(8) 0.4394(2) 0.08267(13) 0.0676(8) Uani 1 1 d . . .
H1A H 0.2911 0.4835 0.1248 0.101 Uiso 1 1 calc R . .
H1B H 0.2824 0.3653 0.0813 0.101 Uiso 1 1 calc R . .
H1C H -0.0424 0.4334 0.0943 0.101 Uiso 1 1 calc R . .
H10 H 0.1652 0.6451 -0.0434 0.068(7) Uiso 1 1 d R . .
H20 H -0.3803 0.3010 -0.4304 0.093(10) Uiso 1 1 d R . .
loop_
_atom_site_aniso_label
_atom_site_aniso_U_11
_atom_site_aniso_U_22
_atom_site_aniso_U_33
_atom_site_aniso_U_23
_atom_site_aniso_U_13
_atom_site_aniso_U_12
O1 0.0706(11) 0.0426(8) 0.0426(8) -0.0072(6) 0.0104(8) 0.0003(7)
O2 0.0538(9) 0.0526(8) 0.0378(7) 0.0027(6) -0.0008(7) 0.0051(8)
C4 0.0506(13) 0.0356(11) 0.0424(11) -0.0031(9) 0.0038(10) -0.0003(10)
C5 0.0517(14) 0.0370(10) 0.0445(11) -0.0022(9) 0.0057(10) 0.0016(10)
C7 0.0419(12) 0.0477(11) 0.0407(10) -0.0013(9) -0.0007(9) 0.0067(11)
C6 0.0496(13) 0.0378(10) 0.0448(11) -0.0009(9) 0.0053(11) 0.0035(10)
C3 0.0448(13) 0.0382(11) 0.0474(12) 0.0001(9) 0.0042(10) 0.0036(10)
C2 0.0464(11) 0.0478(11) 0.0430(11) -0.0075(9) 0.0000(11) 0.0008(10)
C8 0.0621(16) 0.0529(13) 0.0496(12) -0.0027(10) -0.0027(11) -0.0102(12)
C1 0.083(2) 0.0693(16) 0.0500(12) 0.0066(11) -0.0092(13) -0.0004(16)
loop_
_atom_type_symbol
_atom_type_description
_atom_type_scat_dispersion_real
_atom_type_scat_dispersion_imag
_atom_type_scat_source
C C 0.0033 0.0016 'International Tables Vol C Tables 4.2.6.8 and 6.1.1.4'
H H 0.0000 0.0000 'International Tables Vol C Tables 4.2.6.8 and 6.1.1.4'
O O 0.0106 0.0060 'International Tables Vol C Tables 4.2.6.8 and 6.1.1.4'
loop_
_geom_angle_atom_site_label_1
_geom_angle_atom_site_label_2
_geom_angle_atom_site_label_3
_geom_angle
_geom_angle_site_symmetry_1
_geom_angle_site_symmetry_3
_geom_angle_publ_flag
C2 O1 H10 104.8 . . ?
C7 O2 H20 109.6 . . ?
C3 C4 C5 177.5(2) . . ?
C6 C5 C4 177.8(2) . . ?
O2 C7 C6 109.71(18) . . ?
O2 C7 C8 109.42(17) . . ?
C6 C7 C8 111.38(17) . . ?
O2 C7 H7 108.8 . . ?
C6 C7 H7 108.8 . . ?
C8 C7 H7 108.8 . . ?
C5 C6 C7 176.9(2) . . ?
C4 C3 C2 174.8(2) . . ?
O1 C2 C3 109.08(17) . . ?
O1 C2 C1 107.65(16) . . ?
C3 C2 C1 112.61(18) . . ?
O1 C2 H2 109.1 . . ?
C3 C2 H2 109.1 . . ?
C1 C2 H2 109.1 . . ?
C7 C8 H8A 109.5 . . ?
C7 C8 H8B 109.5 . . ?
H8A C8 H8B 109.5 . . ?
C7 C8 H8C 109.5 . . ?
H8A C8 H8C 109.5 . . ?
H8B C8 H8C 109.5 . . ?
C2 C1 H1A 109.5 . . ?
C2 C1 H1B 109.5 . . ?
H1A C1 H1B 109.5 . . ?
C2 C1 H1C 109.5 . . ?
H1A C1 H1C 109.5 . . ?
H1B C1 H1C 109.5 . . ?
loop_
_geom_bond_atom_site_label_1
_geom_bond_atom_site_label_2
_geom_bond_distance
_geom_bond_site_symmetry_2
_geom_bond_publ_flag
O1 C2 1.436(2) . ?
O1 H10 1.0012 . ?
O2 C7 1.437(2) . ?
O2 H20 0.9477 . ?
C4 C3 1.191(3) . ?
C4 C5 1.378(3) . ?
C5 C6 1.195(3) . ?
C7 C6 1.469(3) . ?
C7 C8 1.510(3) . ?
C7 H7 0.9900 . ?
C3 C2 1.475(3) . ?
C2 C1 1.514(3) . ?
C2 H2 0.9900 . ?
C8 H8A 0.9700 . ?
C8 H8B 0.9700 . ?
C8 H8C 0.9700 . ?
C1 H1A 0.9700 . ?
C1 H1B 0.9700 . ?
C1 H1C 0.9700 . ?
loop_
_cod_related_entry_id
_cod_related_entry_database
_cod_related_entry_code
1 ChemSpider 26668939
