#------------------------------------------------------------------------------
#$Date: 2017-10-14 22:27:35 +0300 (Sat, 14 Oct 2017) $
#$Revision: 202017 $
#$URL: file:///home/coder/svn-repositories/cod/cif/7/10/64/7106430.cif $
#------------------------------------------------------------------------------
#
# This file is available in the Crystallography Open Database (COD),
# http://www.crystallography.net/
#
# All data on this site have been placed in the public domain by the
# contributors.
#
data_7106430
loop_
_publ_author_name
'Dinabandhu Das'
'Tia Jacobs'
'Adam Pietraszako'
'L. J. Barbour'
_publ_section_title
;
 Anomalous thermal expansion of an organic crystal-implications for
 elucidating the mechanism of an enantiotropic phase transformation
;
_journal_name_full               Chem.Commun.
_journal_page_first              6009
_journal_paper_doi               10.1039/c1cc10716j
_journal_volume                  47
_journal_year                    2011
_chemical_absolute_configuration syn
_chemical_formula_moiety         'C8 H10 O2'
_chemical_formula_sum            'C8 H10 O2'
_chemical_formula_weight         138.16
_chemical_melting_point          343
_chemical_name_systematic
;
(s,s)-3,5-Ocatadiyn-2,7-diol
;
_space_group_IT_number           19
_symmetry_cell_setting           orthorhombic
_symmetry_space_group_name_Hall  'P 2ac 2ab'
_symmetry_space_group_name_H-M   'P 21 21 21'
_atom_sites_solution_hydrogens   geom
_atom_sites_solution_primary     direct
_atom_sites_solution_secondary   difmap
_audit_creation_method           SHELXL-97
_cell_angle_alpha                90.00
_cell_angle_beta                 90.00
_cell_angle_gamma                90.00
_cell_formula_units_Z            4
_cell_length_a                   4.1427(11)
_cell_length_b                   11.962(3)
_cell_length_c                   16.432(4)
_cell_measurement_reflns_used    991
_cell_measurement_temperature    240(2)
_cell_measurement_theta_max      20.24
_cell_measurement_theta_min      2.48
_cell_volume                     814.3(4)
_computing_cell_refinement       'Bruker SMART APEX-II'
_computing_data_collection       'Bruker SMART APEX-II'
_computing_data_reduction        'Bruker SAINT '
_computing_molecular_graphics    'XSEED (Barbour 2001)'
_computing_structure_refinement  'SHELXL-97 (Sheldrick, 1997)'
_computing_structure_solution    'SHELXS-97 (Sheldrick, 1990)'
_diffrn_ambient_temperature      240(2)
_diffrn_measured_fraction_theta_full 1.000
_diffrn_measured_fraction_theta_max 0.970
_diffrn_measurement_device_type  'Bruker APEX-II CCD'
_diffrn_measurement_method       '\f and \w scans'
_diffrn_radiation_monochromator  graphite
_diffrn_radiation_source         'fine-focus sealed tube'
_diffrn_radiation_type           MoK\a
_diffrn_radiation_wavelength     0.71073
_diffrn_reflns_av_R_equivalents  0.0345
_diffrn_reflns_av_sigmaI/netI    0.0443
_diffrn_reflns_limit_h_max       4
_diffrn_reflns_limit_h_min       -5
_diffrn_reflns_limit_k_max       12
_diffrn_reflns_limit_k_min       -15
_diffrn_reflns_limit_l_max       20
_diffrn_reflns_limit_l_min       -20
_diffrn_reflns_number            4649
_diffrn_reflns_theta_full        25.00
_diffrn_reflns_theta_max         27.47
_diffrn_reflns_theta_min         2.11
_exptl_absorpt_coefficient_mu    0.080
_exptl_absorpt_correction_T_max  0.9952
_exptl_absorpt_correction_T_min  0.9725
_exptl_absorpt_correction_type   multi-scan
_exptl_absorpt_process_details   SADABS
_exptl_crystal_colour            colorless
_exptl_crystal_density_diffrn    1.127
_exptl_crystal_density_method    'not measured'
_exptl_crystal_description       needle
_exptl_crystal_F_000             296
_exptl_crystal_size_max          0.35
_exptl_crystal_size_mid          0.10
_exptl_crystal_size_min          0.06
_refine_diff_density_max         0.112
_refine_diff_density_min         -0.153
_refine_diff_density_rms         0.033
_refine_ls_abs_structure_details 'Flack H D (1983), Acta Cryst. A39, 876-881'
_refine_ls_abs_structure_Flack   -2(2)
_refine_ls_extinction_method     none
_refine_ls_goodness_of_fit_ref   1.007
_refine_ls_hydrogen_treatment    constr
_refine_ls_matrix_type           full
_refine_ls_number_parameters     95
_refine_ls_number_reflns         1764
_refine_ls_number_restraints     0
_refine_ls_restrained_S_all      1.007
_refine_ls_R_factor_all          0.0742
_refine_ls_R_factor_gt           0.0464
_refine_ls_shift/su_max          0.000
_refine_ls_shift/su_mean         0.000
_refine_ls_structure_factor_coef Fsqd
_refine_ls_weighting_details
'calc w=1/[\s^2^(Fo^2^)+(0.0597P)^2^+0.0000P] where P=(Fo^2^+2Fc^2^)/3'
_refine_ls_weighting_scheme      calc
_refine_ls_wR_factor_gt          0.1041
_refine_ls_wR_factor_ref         0.1189
_reflns_number_gt                1243
_reflns_number_total             1764
_reflns_threshold_expression     >2sigma(I)
_cod_data_source_file            c1cc10716j.txt
_cod_data_source_block           LT_240k
_cod_depositor_comments
;
The following automatic conversions were performed:

'_chemical_melting_point' value '343K' was changed to '343' - the
value should be numeric and without a unit designator.

Automatic conversion script
Id: cif_fix_values 1673 2011-04-08 12:14:43Z adriana 
;
_cod_original_cell_volume        814.2(4)
_cod_original_sg_symbol_H-M      'P2(1)2(1)2(1) '
_cod_database_code               7106430
loop_
_symmetry_equiv_pos_as_xyz
'x, y, z'
'-x+1/2, -y, z+1/2'
'x+1/2, -y+1/2, -z'
'-x, y+1/2, -z+1/2'
loop_
_atom_site_label
_atom_site_type_symbol
_atom_site_fract_x
_atom_site_fract_y
_atom_site_fract_z
_atom_site_U_iso_or_equiv
_atom_site_adp_type
_atom_site_occupancy
_atom_site_symmetry_multiplicity
_atom_site_calc_flag
_atom_site_refinement_flags
_atom_site_disorder_assembly
_atom_site_disorder_group
O1 O 0.0792(4) 0.60260(11) 0.00438(8) 0.0563(4) Uani 1 1 d . . .
O2 O -0.2734(4) 0.25718(12) -0.39115(7) 0.0519(4) Uani 1 1 d . . .
C4 C -0.0256(6) 0.38578(16) -0.12387(12) 0.0465(5) Uani 1 1 d . . .
C5 C -0.1709(6) 0.33820(16) -0.19122(12) 0.0469(5) Uani 1 1 d . . .
C7 C -0.4701(5) 0.24904(17) -0.31909(11) 0.0455(5) Uani 1 1 d . . .
H7 H -0.6744 0.2901 -0.3284 0.055 Uiso 1 1 calc R . .
C6 C -0.3003(6) 0.30004(15) -0.24998(12) 0.0458(5) Uani 1 1 d . . .
C3 C 0.0953(6) 0.43066(16) -0.06692(12) 0.0470(5) Uani 1 1 d . . .
C2 C 0.2334(6) 0.49559(16) 0.00090(11) 0.0498(5) Uani 1 1 d . . .
H2 H 0.4669 0.5066 -0.0091 0.060 Uiso 1 1 calc R . .
C8 C -0.5472(7) 0.12763(18) -0.30281(13) 0.0581(6) Uani 1 1 d . . .
H8A H -0.6625 0.0966 -0.3490 0.087 Uiso 1 1 calc R . .
H8B H -0.6804 0.1219 -0.2544 0.087 Uiso 1 1 calc R . .
H8C H -0.3482 0.0864 -0.2946 0.087 Uiso 1 1 calc R . .
C1 C 0.1891(8) 0.4390(2) 0.08249(12) 0.0723(8) Uani 1 1 d . . .
H1A H 0.2912 0.4834 0.1246 0.108 Uiso 1 1 calc R . .
H1B H 0.2871 0.3653 0.0810 0.108 Uiso 1 1 calc R . .
H1C H -0.0395 0.4318 0.0942 0.108 Uiso 1 1 calc R . .
H10 H 0.1579 0.6462 -0.0413 0.080(8) Uiso 1 1 d R . .
H20 H -0.3751 0.3071 -0.4316 0.104(10) Uiso 1 1 d R . .
loop_
_atom_site_aniso_label
_atom_site_aniso_U_11
_atom_site_aniso_U_22
_atom_site_aniso_U_33
_atom_site_aniso_U_23
_atom_site_aniso_U_13
_atom_site_aniso_U_12
O1 0.0782(11) 0.0436(8) 0.0471(8) -0.0061(6) 0.0125(8) -0.0002(7)
O2 0.0589(9) 0.0565(9) 0.0403(7) 0.0028(6) 0.0009(7) 0.0053(8)
C4 0.0541(13) 0.0393(11) 0.0461(11) -0.0032(9) 0.0035(10) 0.0007(10)
C5 0.0535(14) 0.0385(10) 0.0488(11) -0.0016(9) 0.0080(10) 0.0028(10)
C7 0.0432(12) 0.0489(11) 0.0445(10) -0.0022(9) -0.0009(9) 0.0063(11)
C6 0.0492(13) 0.0411(11) 0.0473(11) -0.0020(9) 0.0043(11) 0.0027(10)
C3 0.0509(13) 0.0404(11) 0.0498(12) -0.0009(9) 0.0029(10) 0.0023(10)
C2 0.0527(12) 0.0492(11) 0.0476(11) -0.0066(9) 0.0005(11) 0.0009(10)
C8 0.0629(16) 0.0546(13) 0.0568(13) -0.0047(10) -0.0018(12) -0.0132(12)
C1 0.090(2) 0.0736(17) 0.0532(12) 0.0092(11) -0.0098(14) 0.0002(16)
loop_
_atom_type_symbol
_atom_type_description
_atom_type_scat_dispersion_real
_atom_type_scat_dispersion_imag
_atom_type_scat_source
C C 0.0033 0.0016 'International Tables Vol C Tables 4.2.6.8 and 6.1.1.4'
H H 0.0000 0.0000 'International Tables Vol C Tables 4.2.6.8 and 6.1.1.4'
O O 0.0106 0.0060 'International Tables Vol C Tables 4.2.6.8 and 6.1.1.4'
loop_
_geom_angle_atom_site_label_1
_geom_angle_atom_site_label_2
_geom_angle_atom_site_label_3
_geom_angle
_geom_angle_site_symmetry_1
_geom_angle_site_symmetry_3
_geom_angle_publ_flag
C2 O1 H10 107.5 . . ?
C7 O2 H20 110.7 . . ?
C3 C4 C5 177.4(2) . . ?
C6 C5 C4 178.1(2) . . ?
O2 C7 C6 109.66(17) . . ?
O2 C7 C8 109.27(16) . . ?
C6 C7 C8 111.33(17) . . ?
O2 C7 H7 108.8 . . ?
C6 C7 H7 108.8 . . ?
C8 C7 H7 108.8 . . ?
C5 C6 C7 176.7(2) . . ?
C4 C3 C2 175.0(2) . . ?
O1 C2 C3 109.16(18) . . ?
O1 C2 C1 108.10(16) . . ?
C3 C2 C1 112.76(18) . . ?
O1 C2 H2 108.9 . . ?
C3 C2 H2 108.9 . . ?
C1 C2 H2 108.9 . . ?
C7 C8 H8A 109.5 . . ?
C7 C8 H8B 109.5 . . ?
H8A C8 H8B 109.5 . . ?
C7 C8 H8C 109.5 . . ?
H8A C8 H8C 109.5 . . ?
H8B C8 H8C 109.5 . . ?
C2 C1 H1A 109.5 . . ?
C2 C1 H1B 109.5 . . ?
H1A C1 H1B 109.5 . . ?
C2 C1 H1C 109.5 . . ?
H1A C1 H1C 109.5 . . ?
H1B C1 H1C 109.5 . . ?
loop_
_geom_bond_atom_site_label_1
_geom_bond_atom_site_label_2
_geom_bond_distance
_geom_bond_site_symmetry_2
_geom_bond_publ_flag
O1 C2 1.432(2) . ?
O1 H10 0.9701 . ?
O2 C7 1.441(2) . ?
O2 H20 0.9883 . ?
C4 C3 1.189(3) . ?
C4 C5 1.382(3) . ?
C5 C6 1.195(3) . ?
C7 C6 1.468(3) . ?
C7 C8 1.511(3) . ?
C7 H7 0.9900 . ?
C3 C2 1.474(3) . ?
C2 C1 1.513(3) . ?
C2 H2 0.9900 . ?
C8 H8A 0.9700 . ?
C8 H8B 0.9700 . ?
C8 H8C 0.9700 . ?
C1 H1A 0.9700 . ?
C1 H1B 0.9700 . ?
C1 H1C 0.9700 . ?
loop_
_cod_related_entry_id
_cod_related_entry_database
_cod_related_entry_code
1 ChemSpider 26668939
