#------------------------------------------------------------------------------
#$Date: 2016-03-26 03:21:29 +0200 (Sat, 26 Mar 2016) $
#$Revision: 180179 $
#$URL: svn://www.crystallography.net/cod/cif/7/10/75/7107540.cif $
#------------------------------------------------------------------------------
#
# This file is available in the Crystallography Open Database (COD),
# http://www.crystallography.net/
#
# All data on this site have been placed in the public domain by the
# contributors.
#
data_7107540
loop_
_publ_author_name
'Lars-Arne Schaper'
'Karl Ofele'
'Renat Kadyrov'
'Bettina Bechlars'
'Markus Drees'
'Mirza Cokoja'
'Wolfgang A. Herrmann'
'Fritz E. Kuhn'
_publ_section_title
;
 N-Heterocyclic Carbenes via Abstraction of Ammonia Filling a Gap:
 "Normal" Carbenes with "Abnormal" Character
;
_journal_name_full               Chem.Commun.
_journal_page_first              3857
_journal_paper_doi               10.1039/c2cc30611e
_journal_volume                  48
_journal_year                    2012
_chemical_formula_moiety         'C16 H15 Au Cl N3'
_chemical_formula_sum            'C16 H15 Au Cl N3'
_chemical_formula_weight         481.73
_chemical_name_systematic
;
?
;
_space_group_IT_number           2
_symmetry_cell_setting           triclinic
_symmetry_Int_Tables_number      2
_symmetry_space_group_name_Hall  '-P 1'
_symmetry_space_group_name_H-M   'P -1'
_atom_sites_solution_hydrogens   geom
_atom_sites_solution_primary     direct
_atom_sites_solution_secondary   difmap
_audit_creation_date             28-April-11
_audit_creation_method           SHELXL-97
_audit_update_record
;
28-April-11 Updated by the Author B.B.
21-December-11 Updated by the Author L.-A.S.
Text writing by B.B.
Checkcif OK
;
_cell_angle_alpha                67.988(3)
_cell_angle_beta                 87.564(3)
_cell_angle_gamma                78.131(3)
_cell_formula_units_Z            2
_cell_length_a                   5.7486(4)
_cell_length_b                   11.6907(8)
_cell_length_c                   12.9093(9)
_cell_measurement_reflns_used    7633
_cell_measurement_temperature    173(2)
_cell_measurement_theta_max      25.32
_cell_measurement_theta_min      3.00
_cell_volume                     786.56(10)
_computing_cell_refinement       'SAINT (Bruker, 2008b)'
_computing_data_collection       'APEX II Control Software (Bruker, 2008a)'
_computing_data_reduction        'SAINT (Bruker, 2008b)'
_computing_molecular_graphics    'PLATON (Spek, 2008)'
_computing_publication_material  'PLATON (Spek, 2008)'
_computing_structure_refinement  'SHELXL97 (Sheldrick, 1998)'
_computing_structure_solution    'SHELXS97 (Sheldrick, 1998)'
_diffrn_ambient_temperature      173(2)
_diffrn_detector                 ' CCD plate '
_diffrn_detector_area_resol_mean 16
_diffrn_measured_fraction_theta_full 0.985
_diffrn_measured_fraction_theta_max 0.985
_diffrn_measurement_device       ' \k-geometry diffractometer '
_diffrn_measurement_device_type  ' Bruker APEX-II CCD '
_diffrn_measurement_method       ' phi- and omega-rotation '
_diffrn_radiation_monochromator  graphite
_diffrn_radiation_source         'fine-focus sealed tube'
_diffrn_radiation_type           MoK\a
_diffrn_radiation_wavelength     0.71073
_diffrn_reflns_av_R_equivalents  0.0340
_diffrn_reflns_av_sigmaI/netI    0.0293
_diffrn_reflns_limit_h_max       6
_diffrn_reflns_limit_h_min       -6
_diffrn_reflns_limit_k_max       14
_diffrn_reflns_limit_k_min       -14
_diffrn_reflns_limit_l_max       15
_diffrn_reflns_limit_l_min       -15
_diffrn_reflns_number            12020
_diffrn_reflns_theta_full        25.33
_diffrn_reflns_theta_max         25.33
_diffrn_reflns_theta_min         1.70
_diffrn_standards_decay_%        0
_exptl_absorpt_coefficient_mu    9.517
_exptl_absorpt_correction_T_max  0.6476
_exptl_absorpt_correction_T_min  0.0969
_exptl_absorpt_correction_type   multi-scan
_exptl_absorpt_process_details   'SADABS, Bruker, 2008b'
_exptl_crystal_colour            yellow
_exptl_crystal_density_diffrn    2.034
_exptl_crystal_density_meas      ?
_exptl_crystal_density_method    'not measured'
_exptl_crystal_description       needle
_exptl_crystal_F_000             456
_exptl_crystal_size_max          0.46
_exptl_crystal_size_mid          0.05
_exptl_crystal_size_min          0.05
_refine_diff_density_max         2.091
_refine_diff_density_min         -1.184
_refine_diff_density_rms         0.166
_refine_ls_extinction_method     none
_refine_ls_goodness_of_fit_ref   1.070
_refine_ls_hydrogen_treatment    constr
_refine_ls_matrix_type           full
_refine_ls_number_parameters     192
_refine_ls_number_reflns         2833
_refine_ls_number_restraints     0
_refine_ls_restrained_S_all      1.070
_refine_ls_R_factor_all          0.0333
_refine_ls_R_factor_gt           0.0278
_refine_ls_shift/su_max          0.001
_refine_ls_shift/su_mean         0.000
_refine_ls_structure_factor_coef Fsqd
_refine_ls_weighting_details
'calc w=1/[\s^2^(Fo^2^)+(0.0527P)^2^+0.4083P] where P=(Fo^2^+2Fc^2^)/3'
_refine_ls_weighting_scheme      calc
_refine_ls_wR_factor_gt          0.0728
_refine_ls_wR_factor_ref         0.0760
_reflns_number_gt                2571
_reflns_number_total             2833
_reflns_threshold_expression     >2\s(I)
_cod_data_source_file            c2cc30611e.txt
_cod_data_source_block           5a
_cod_depositor_comments
;
The following automatic conversions were performed:

'_exptl_crystal_density_meas' value 'none' was changed to '?' - the
value is perceived as not measured.

Automatic conversion script
Id: cif_fix_values 3008 2015-01-20 13:52:24Z robertas 
;
_cod_original_cell_volume        786.56(9)
_cod_original_sg_symbol_H-M      P-1
_cod_database_code               7107540
loop_
_symmetry_equiv_pos_as_xyz
'x, y, z'
'-x, -y, -z'
loop_
_atom_site_label
_atom_site_type_symbol
_atom_site_fract_x
_atom_site_fract_y
_atom_site_fract_z
_atom_site_U_iso_or_equiv
_atom_site_adp_type
_atom_site_occupancy
_atom_site_symmetry_multiplicity
_atom_site_calc_flag
_atom_site_refinement_flags
C1 C 1.0037(11) -0.0160(5) 0.1910(5) 0.0298(13) Uani 1 1 d .
C2 C 0.8236(10) -0.0159(5) 0.2678(4) 0.0283(12) Uani 1 1 d .
C3 C 0.6674(11) -0.1071(5) 0.3172(5) 0.0305(13) Uani 1 1 d .
C4 C 0.6610(11) -0.2053(5) 0.2824(5) 0.0328(13) Uani 1 1 d .
H4 H 0.7573 -0.2144 0.2232 0.039 Uiso 1 1 calc R
C5 C 0.5160(11) -0.2901(6) 0.3330(5) 0.0353(14) Uani 1 1 d .
H5 H 0.5152 -0.3568 0.3079 0.042 Uiso 1 1 calc R
C6 C 0.3732(11) -0.2803(6) 0.4183(5) 0.0335(13) Uani 1 1 d .
C7 C 0.3738(13) -0.1809(6) 0.4526(5) 0.0435(16) Uani 1 1 d .
H7 H 0.2731 -0.1708 0.5102 0.052 Uiso 1 1 calc R
C8 C 0.5194(12) -0.0970(6) 0.4036(5) 0.0390(15) Uani 1 1 d .
H8 H 0.5196 -0.0306 0.4290 0.047 Uiso 1 1 calc R
C9 C 0.2055(13) -0.3718(6) 0.4719(5) 0.0451(16) Uani 1 1 d .
H9A H 0.2788 -0.4555 0.4725 0.068 Uiso 1 1 calc R
H9B H 0.0542 -0.3411 0.4286 0.068 Uiso 1 1 calc R
H9C H 0.1767 -0.3771 0.5488 0.068 Uiso 1 1 calc R
C10 C 0.9912(11) 0.2663(5) 0.2412(5) 0.0334(13) Uani 1 1 d .
C11 C 0.8225(13) 0.3720(6) 0.1875(6) 0.0437(16) Uani 1 1 d .
H11 H 0.6867 0.3671 0.1511 0.052 Uiso 1 1 calc R
C12 C 0.8546(14) 0.4872(6) 0.1873(6) 0.0499(18) Uani 1 1 d .
H12 H 0.7405 0.5619 0.1498 0.060 Uiso 1 1 calc R
C13 C 1.0496(14) 0.4930(6) 0.2410(6) 0.0481(17) Uani 1 1 d .
H13 H 1.0698 0.5718 0.2406 0.058 Uiso 1 1 calc R
C14 C 1.2157(14) 0.3859(7) 0.2952(7) 0.055(2) Uani 1 1 d .
H14 H 1.3500 0.3908 0.3327 0.066 Uiso 1 1 calc R
C15 C 1.1886(13) 0.2705(7) 0.2957(7) 0.0504(18) Uani 1 1 d .
H15 H 1.3036 0.1960 0.3327 0.060 Uiso 1 1 calc R
C16 C 1.2673(12) 0.1420(6) 0.1030(5) 0.0385(14) Uani 1 1 d .
H16A H 1.3359 0.0869 0.0633 0.058 Uiso 1 1 calc R
H16B H 1.3928 0.1501 0.1473 0.058 Uiso 1 1 calc R
H16C H 1.1945 0.2254 0.0488 0.058 Uiso 1 1 calc R
Au1 Au 1.14059(4) -0.131925(19) 0.112985(16) 0.02990(10) Uani 1 1 d .
Cl1 Cl 1.3036(3) -0.27260(14) 0.03206(12) 0.0362(3) Uani 1 1 d .
N1 N 1.0866(9) 0.0878(5) 0.1770(4) 0.0322(11) Uani 1 1 d .
N2 N 0.9635(9) 0.1473(4) 0.2405(4) 0.0327(11) Uani 1 1 d .
N3 N 0.8006(9) 0.0859(5) 0.2958(4) 0.0335(11) Uani 1 1 d .
loop_
_atom_site_aniso_label
_atom_site_aniso_U_11
_atom_site_aniso_U_22
_atom_site_aniso_U_33
_atom_site_aniso_U_23
_atom_site_aniso_U_13
_atom_site_aniso_U_12
C1 0.031(3) 0.028(3) 0.022(3) -0.002(2) -0.007(2) 0.000(2)
C2 0.031(3) 0.022(3) 0.028(3) -0.007(2) -0.003(2) -0.001(2)
C3 0.031(3) 0.027(3) 0.031(3) -0.011(2) -0.001(2) -0.001(2)
C4 0.035(3) 0.033(3) 0.032(3) -0.014(3) 0.007(2) -0.004(3)
C5 0.039(4) 0.026(3) 0.041(3) -0.015(3) -0.002(3) -0.003(3)
C6 0.030(3) 0.027(3) 0.034(3) -0.002(2) -0.002(2) -0.001(2)
C7 0.059(5) 0.044(4) 0.027(3) -0.013(3) 0.012(3) -0.010(3)
C8 0.054(4) 0.031(3) 0.036(3) -0.017(3) 0.008(3) -0.008(3)
C9 0.050(4) 0.038(4) 0.038(4) -0.004(3) 0.012(3) -0.011(3)
C10 0.030(3) 0.028(3) 0.043(3) -0.015(3) 0.009(3) -0.008(2)
C11 0.046(4) 0.038(3) 0.048(4) -0.022(3) -0.007(3) 0.005(3)
C12 0.069(5) 0.028(3) 0.043(4) -0.011(3) 0.004(3) 0.007(3)
C13 0.061(5) 0.031(3) 0.059(4) -0.020(3) 0.017(4) -0.018(3)
C14 0.040(4) 0.047(4) 0.092(6) -0.039(4) 0.002(4) -0.012(3)
C15 0.039(4) 0.035(3) 0.079(5) -0.026(4) -0.006(4) -0.001(3)
C16 0.036(4) 0.037(3) 0.042(4) -0.015(3) 0.006(3) -0.009(3)
Au1 0.02972(15) 0.02771(14) 0.03071(15) -0.01144(10) 0.00203(9) -0.00171(9)
Cl1 0.0386(8) 0.0333(7) 0.0372(8) -0.0163(6) 0.0077(6) -0.0037(6)
N1 0.030(3) 0.027(2) 0.039(3) -0.014(2) -0.002(2) 0.001(2)
N2 0.030(3) 0.028(2) 0.043(3) -0.017(2) 0.004(2) -0.006(2)
N3 0.033(3) 0.027(2) 0.043(3) -0.016(2) 0.000(2) -0.005(2)
loop_
_atom_type_symbol
_atom_type_description
_atom_type_scat_dispersion_real
_atom_type_scat_dispersion_imag
_atom_type_scat_source
C C 0.0033 0.0016 'International Tables Vol C Tables 4.2.6.8 and 6.1.1.4'
H H 0.0000 0.0000 'International Tables Vol C Tables 4.2.6.8 and 6.1.1.4'
Au Au -2.0133 8.8022 'International Tables Vol C Tables 4.2.6.8 and 6.1.1.4'
Cl Cl 0.1484 0.1585 'International Tables Vol C Tables 4.2.6.8 and 6.1.1.4'
N N 0.0061 0.0033 'International Tables Vol C Tables 4.2.6.8 and 6.1.1.4'
loop_
_geom_angle_atom_site_label_1
_geom_angle_atom_site_label_2
_geom_angle_atom_site_label_3
_geom_angle
N1 C1 C2 103.9(5)
N1 C1 Au1 121.9(5)
C2 C1 Au1 134.1(5)
N3 C2 C1 110.5(5)
N3 C2 C3 119.7(5)
C1 C2 C3 129.8(5)
C4 C3 C8 117.3(6)
C4 C3 C2 122.8(5)
C8 C3 C2 119.9(5)
C5 C4 C3 120.7(5)
C5 C4 H4 119.6
C3 C4 H4 119.6
C6 C5 C4 121.6(6)
C6 C5 H5 119.2
C4 C5 H5 119.2
C5 C6 C7 118.3(6)
C5 C6 C9 121.7(6)
C7 C6 C9 119.9(6)
C8 C7 C6 120.3(6)
C8 C7 H7 119.8
C6 C7 H7 119.8
C7 C8 C3 121.7(6)
C7 C8 H8 119.2
C3 C8 H8 119.2
C6 C9 H9A 109.5
C6 C9 H9B 109.5
H9A C9 H9B 109.5
C6 C9 H9C 109.5
H9A C9 H9C 109.5
H9B C9 H9C 109.5
C11 C10 C15 122.0(6)
C11 C10 N2 119.2(6)
C15 C10 N2 118.8(5)
C10 C11 C12 118.4(6)
C10 C11 H11 120.8
C12 C11 H11 120.8
C13 C12 C11 120.3(6)
C13 C12 H12 119.8
C11 C12 H12 119.8
C12 C13 C14 120.4(6)
C12 C13 H13 119.8
C14 C13 H13 119.8
C13 C14 C15 120.2(7)
C13 C14 H14 119.9
C15 C14 H14 119.9
C10 C15 C14 118.6(7)
C10 C15 H15 120.7
C14 C15 H15 120.7
N1 C16 H16A 109.5
N1 C16 H16B 109.5
H16A C16 H16B 109.5
N1 C16 H16C 109.5
H16A C16 H16C 109.5
H16B C16 H16C 109.5
C1 Au1 Cl1 177.13(15)
C1 N1 N2 109.2(5)
C1 N1 C16 129.9(5)
N2 N1 C16 120.8(5)
N3 N2 N1 110.7(4)
N3 N2 C10 124.0(5)
N1 N2 C10 125.1(5)
N2 N3 C2 105.7(5)
loop_
_geom_bond_atom_site_label_1
_geom_bond_atom_site_label_2
_geom_bond_distance
C1 N1 1.341(8)
C1 C2 1.403(9)
C1 Au1 1.997(6)
C2 N3 1.349(7)
C2 C3 1.477(8)
C3 C4 1.388(8)
C3 C8 1.399(9)
C4 C5 1.383(9)
C4 H4 0.9500
C5 C6 1.371(9)
C5 H5 0.9500
C6 C7 1.391(9)
C6 C9 1.537(9)
C7 C8 1.375(10)
C7 H7 0.9500
C8 H8 0.9500
C9 H9A 0.9800
C9 H9B 0.9800
C9 H9C 0.9800
C10 C11 1.367(9)
C10 C15 1.379(9)
C10 N2 1.436(7)
C11 C12 1.395(10)
C11 H11 0.9500
C12 C13 1.369(11)
C12 H12 0.9500
C13 C14 1.370(10)
C13 H13 0.9500
C14 C15 1.388(10)
C14 H14 0.9500
C15 H15 0.9500
C16 N1 1.457(8)
C16 H16A 0.9800
C16 H16B 0.9800
C16 H16C 0.9800
Au1 Cl1 2.2901(14)
N1 N2 1.354(7)
N2 N3 1.318(7)
