#------------------------------------------------------------------------------
#$Date: 2016-02-16 03:10:39 +0200 (Tue, 16 Feb 2016) $
#$Revision: 176453 $
#$URL: svn://www.crystallography.net/cod/cif/7/10/76/7107635.cif $
#------------------------------------------------------------------------------
#
# This file is available in the Crystallography Open Database (COD),
# http://www.crystallography.net/
#
# All data on this site have been placed in the public domain by the
# contributors.
#
data_7107635
loop_
_publ_author_name
'Francisco J. Munoz Lara'
'Ana B. Gaspar'
'Daniel Aravena'
'Eliseo Ruiz'
'M. Carmen Munoz'
'Masaaki Ohba'
'Ryo Ohtani'
'Susumu Kitagawa'
'Jose  A. Real'
_publ_section_title
;
 Enhanced bistability by guest inclusion in Fe(II) spin crossover porous
 coordination polymers
;
_journal_name_full               Chem.Commun.
_journal_page_first              4686
_journal_paper_doi               10.1039/c2cc31048a
_journal_volume                  48
_journal_year                    2012
_chemical_formula_sum            'C8.5 H6 Fe N7 Pd S0.5'
_chemical_formula_weight         384.48
_chemical_name_systematic
;
?
;
_space_group_IT_number           123
_symmetry_cell_setting           tetragonal
_symmetry_space_group_name_Hall  '-P 4 2'
_symmetry_space_group_name_H-M   'P 4/m m m'
_atom_sites_solution_primary     direct
_atom_sites_solution_secondary   difmap
_audit_creation_method           SHELXL-97
_cell_angle_alpha                90.00
_cell_angle_beta                 90.00
_cell_angle_gamma                90.00
_cell_formula_units_Z            1
_cell_length_a                   7.2070(12)
_cell_length_b                   7.2070(12)
_cell_length_c                   6.798(3)
_cell_measurement_reflns_used    50
_cell_measurement_temperature    120(1)
_cell_measurement_theta_max      25
_cell_measurement_theta_min      12
_cell_volume                     353.09(18)
_computing_cell_refinement       'HKL DENZO'
_computing_data_collection       COLLECT
_computing_data_reduction        'HKL DENZO and SCALEPACK'
_computing_structure_refinement  'SHELXL-97 (Sheldrick, 2008)'
_computing_structure_solution    SHELXS-97
_diffrn_ambient_temperature      120(1)
_diffrn_measured_fraction_theta_full 0.959
_diffrn_measured_fraction_theta_max 0.959
_diffrn_radiation_monochromator  graphite
_diffrn_radiation_source         'fine-focus sealed tube'
_diffrn_radiation_type           MoK\a
_diffrn_radiation_wavelength     0.71073
_diffrn_reflns_av_R_equivalents  0.0681
_diffrn_reflns_av_sigmaI/netI    0.0969
_diffrn_reflns_limit_h_max       10
_diffrn_reflns_limit_h_min       -10
_diffrn_reflns_limit_k_max       8
_diffrn_reflns_limit_k_min       -9
_diffrn_reflns_limit_l_max       10
_diffrn_reflns_limit_l_min       -9
_diffrn_reflns_number            1652
_diffrn_reflns_theta_full        32.25
_diffrn_reflns_theta_max         32.25
_diffrn_reflns_theta_min         2.83
_exptl_absorpt_coefficient_mu    2.366
_exptl_absorpt_correction_T_max  0.9542
_exptl_absorpt_correction_T_min  0.9113
_exptl_absorpt_correction_type   empirical
_exptl_absorpt_process_details   'Empirical absorption correction:XABS2'
_exptl_crystal_colour            red
_exptl_crystal_density_diffrn    1.808
_exptl_crystal_density_method    'not measured'
_exptl_crystal_description       prismatic
_exptl_crystal_F_000             186
_exptl_crystal_size_max          0.04
_exptl_crystal_size_mid          0.02
_exptl_crystal_size_min          0.02
_refine_diff_density_max         1.351
_refine_diff_density_min         -0.683
_refine_diff_density_rms         0.242
_refine_ls_extinction_method     none
_refine_ls_goodness_of_fit_ref   0.894
_refine_ls_matrix_type           full
_refine_ls_number_parameters     29
_refine_ls_number_reflns         401
_refine_ls_number_restraints     2
_refine_ls_restrained_S_all      0.892
_refine_ls_R_factor_all          0.1120
_refine_ls_R_factor_gt           0.0485
_refine_ls_shift/su_max          0.000
_refine_ls_shift/su_mean         0.000
_refine_ls_structure_factor_coef Fsqd
_refine_ls_weighting_details
'calc w=1/[\s^2^(Fo^2^)+(0.0495P)^2^+0.0000P] where P=(Fo^2^+2Fc^2^)/3'
_refine_ls_weighting_scheme      calc
_refine_ls_wR_factor_gt          0.1047
_refine_ls_wR_factor_ref         0.1142
_reflns_number_gt                198
_reflns_number_total             401
_reflns_threshold_expression     >2sigma(I)
_cod_data_source_file            c2cc31048a.txt
_cod_data_source_block           2@120K
_cod_original_cell_volume        353.09(15)
_cod_original_sg_symbol_H-M      P4/mmm
_cod_original_formula_sum        'C8.50 H6 Fe N7 Pd S0.50'
_cod_database_code               7107635
loop_
_symmetry_equiv_pos_as_xyz
'x, y, z'
'-x, -y, z'
'x, -y, -z'
'-x, y, -z'
'-y, -x, -z'
'y, x, -z'
'y, -x, z'
'-y, x, z'
'-x, -y, -z'
'x, y, -z'
'-x, y, z'
'x, -y, z'
'y, x, z'
'-y, -x, z'
'-y, x, -z'
'y, -x, -z'
loop_
_atom_site_label
_atom_site_type_symbol
_atom_site_fract_x
_atom_site_fract_y
_atom_site_fract_z
_atom_site_U_iso_or_equiv
_atom_site_adp_type
_atom_site_occupancy
_atom_site_symmetry_multiplicity
_atom_site_calc_flag
_atom_site_refinement_flags
Pd Pd 0.0000 0.0000 0.0000 0.0147(6) Uani 1 16 d S
Fe Fe 0.5000 0.5000 0.0000 0.0123(10) Uani 1 16 d S
N2 N 0.3093(10) 0.3093(10) 0.0000 0.012(3) Uani 1 4 d S
C2 C 0.1957(12) 0.1957(12) 0.0000 0.015(3) Uani 1 4 d S
N1 N 0.5000 0.5000 -0.2958(19) 0.016(3) Uani 1 8 d S
C1 C 0.5000 0.657(2) -0.400(2) 0.018(3) Uani 0.50 2 d SP
S S 0.0000 0.139(4) 0.5000 0.070(12) Uiso 0.13 4 d SPD
C3 C 0.0000 0.368(4) 0.5000 0.03(2) Uiso 0.13 4 d SPD
N3 N 0.0000 0.5000 0.340(4) 0.067(14) Uiso 0.25 4 d SPD
loop_
_atom_site_aniso_label
_atom_site_aniso_U_11
_atom_site_aniso_U_22
_atom_site_aniso_U_33
_atom_site_aniso_U_23
_atom_site_aniso_U_13
_atom_site_aniso_U_12
Pd 0.0105(6) 0.0105(6) 0.0229(18) 0.000 0.000 0.000
Fe 0.0133(11) 0.0133(11) 0.010(3) 0.000 0.000 0.000
N2 0.013(3) 0.013(3) 0.011(8) 0.000 0.000 0.003(4)
C2 0.013(4) 0.013(4) 0.020(11) 0.000 0.000 0.006(5)
N1 0.021(4) 0.021(4) 0.006(7) 0.000 0.000 0.000
C1 0.022(8) 0.016(7) 0.016(9) -0.002(6) 0.000 0.000
loop_
_atom_type_symbol
_atom_type_description
_atom_type_scat_dispersion_real
_atom_type_scat_dispersion_imag
_atom_type_scat_source
C C 0.0033 0.0016 'International Tables Vol C Tables 4.2.6.8 and 6.1.1.4'
H H 0.0000 0.0000 'International Tables Vol C Tables 4.2.6.8 and 6.1.1.4'
N N 0.0061 0.0033 'International Tables Vol C Tables 4.2.6.8 and 6.1.1.4'
S S 0.1246 0.1234 'International Tables Vol C Tables 4.2.6.8 and 6.1.1.4'
Fe Fe 0.3463 0.8444 'International Tables Vol C Tables 4.2.6.8 and 6.1.1.4'
Pd Pd -0.9988 1.0072 'International Tables Vol C Tables 4.2.6.8 and 6.1.1.4'
loop_
_geom_angle_atom_site_label_1
_geom_angle_atom_site_label_2
_geom_angle_atom_site_label_3
_geom_angle
_geom_angle_site_symmetry_1
_geom_angle_site_symmetry_3
C2 Pd C2 180.0(4) . 9
C2 Pd C2 90.0 . 11
C2 Pd C2 90.0 9 11
C2 Pd C2 90.0 . 3
C2 Pd C2 90.0 9 3
C2 Pd C2 180.0(4) 11 3
N2 Fe N2 180.0 9_665 .
N2 Fe N2 90.0 9_665 11_655
N2 Fe N2 90.0 . 11_655
N2 Fe N2 90.0 9_665 3_565
N2 Fe N2 90.0 . 3_565
N2 Fe N2 180.0 11_655 3_565
N2 Fe N1 90.000(1) 9_665 9_665
N2 Fe N1 90.000(1) . 9_665
N2 Fe N1 90.0 11_655 9_665
N2 Fe N1 90.0 3_565 9_665
N2 Fe N1 90.000(1) 9_665 .
N2 Fe N1 90.000(1) . .
N2 Fe N1 90.0 11_655 .
N2 Fe N1 90.0 3_565 .
N1 Fe N1 180.0 9_665 .
C2 N2 Fe 180.0(6) . .
N2 C2 Pd 180.0(10) . .
C1 N1 C1 73.6(8) 14_665 2_665
C1 N1 C1 73.6(8) 14_665 .
C1 N1 C1 115.9(16) 2_665 .
C1 N1 C1 115.9(16) 14_665 13
C1 N1 C1 73.6(8) 2_665 13
C1 N1 C1 73.6(8) . 13
C1 N1 Fe 122.0(8) 14_665 .
C1 N1 Fe 122.0(8) 2_665 .
C1 N1 Fe 122.0(8) . .
C1 N1 Fe 122.0(8) 13 .
N1 C1 C1 122.0(8) . 10_554
N1 C1 C1 53.2(4) . 14_665
C1 C1 C1 90.0 10_554 14_665
N1 C1 C1 53.2(4) . 13
C1 C1 C1 90.000(2) 10_554 13
C1 C1 C1 90.000(3) 14_665 13
S S S 90.000(1) 5_556 13
S S C3 135.000(3) 5_556 .
S S C3 135.000(7) 13 .
S S S 45.000(2) 5_556 9_556
S S S 45.000(1) 13 9_556
C3 S S 180.000(2) . 9_556
N3 C3 N3 98(3) 9_566 .
N3 C3 S 131.2(17) 9_566 .
N3 C3 S 131.2(17) . .
N3 C3 C3 48.8(17) 9_566 9_566
N3 C3 C3 48.8(17) . 9_566
S C3 C3 180.000(4) . 9_566
C3 N3 C3 82(3) 9_566 .
loop_
_geom_bond_atom_site_label_1
_geom_bond_atom_site_label_2
_geom_bond_distance
_geom_bond_site_symmetry_2
Pd C2 1.995(12) .
Pd C2 1.995(12) 9
Pd C2 1.995(12) 11
Pd C2 1.995(12) 3
Fe N2 1.943(10) 9_665
Fe N2 1.943(10) .
Fe N2 1.943(10) 11_655
Fe N2 1.943(10) 3_565
Fe N1 2.011(13) 9_665
Fe N1 2.011(13) .
N2 C2 1.158(10) .
N1 C1 1.335(16) 14_665
N1 C1 1.335(16) 2_665
N1 C1 1.335(16) .
N1 C1 1.335(16) 13
C1 C1 1.36(3) 10_554
C1 C1 1.60(2) 14_665
C1 C1 1.60(2) 13
S S 1.42(4) 5_556
S S 1.42(4) 13
S C3 1.644(10) .
S S 2.01(6) 9_556
C3 N3 1.447(10) 9_566
C3 N3 1.447(10) .
C3 C3 1.91(6) 9_566
N3 C3 1.447(10) 9_566
