#------------------------------------------------------------------------------
#$Date: 2016-03-26 03:32:55 +0200 (Sat, 26 Mar 2016) $
#$Revision: 180186 $
#$URL: svn://www.crystallography.net/cod/cif/7/10/82/7108258.cif $
#------------------------------------------------------------------------------
#
# This file is available in the Crystallography Open Database (COD),
# http://www.crystallography.net/
#
# All data on this site have been placed in the public domain by the
# contributors.
#
data_7108258
loop_
_publ_author_name
'Ritesh Dubey'
'Mysore S. Pavan'
'Gautam R. Desiraju'
_publ_section_title
;
 Structural landscape of benzoic acid: using experimental crystal
 structures of fluorobenzoic acids as a probe
;
_journal_name_full               Chem.Commun.
_journal_page_first              9020
_journal_paper_doi               10.1039/c2cc33811d
_journal_volume                  48
_journal_year                    2012
_chemical_compound_source        'see text'
_chemical_formula_moiety         'C7 H2 F3 O2'
_chemical_formula_sum            'C7 H2 F3 O2'
_chemical_formula_weight         175.09
_chemical_name_systematic        ?
_space_group_IT_number           14
_symmetry_cell_setting           monoclinic
_symmetry_Int_Tables_number      14
_symmetry_space_group_name_Hall  '-P 2ybc'
_symmetry_space_group_name_H-M   'P 1 21/c 1'
_atom_sites_solution_hydrogens   geom
_atom_sites_solution_primary     direct
_atom_sites_solution_secondary   difmap
_cell_angle_alpha                90
_cell_angle_beta                 93.734(7)
_cell_angle_gamma                90
_cell_formula_units_Z            4
_cell_length_a                   3.6704(9)
_cell_length_b                   15.516(4)
_cell_length_c                   11.882(3)
_cell_measurement_reflns_used    5078
_cell_measurement_temperature    150
_cell_measurement_theta_max      27.5
_cell_measurement_theta_min      3.1
_cell_volume                     675.2(3)
_computing_cell_refinement
;
CrystalClear-SM Expert 2.0 r4 (Rigaku, 2009)
;
_computing_data_collection
;
CrystalClear-SM Expert 2.0 r4 (Rigaku, 2009)
;
_computing_data_reduction
;
CrystalClear-SM Expert 2.0 r4 (Rigaku, 2009)
;
_computing_publication_material  'PLATON (Spek, 2003)'
_computing_structure_refinement  'SHELXL-97 (Sheldrick, 1997)'
_computing_structure_solution    'SHELXS-97 (Sheldrick, 1997)'
_diffrn_ambient_temperature      150
_diffrn_detector_area_resol_mean 13.6612
_diffrn_measured_fraction_theta_full 0.998
_diffrn_measured_fraction_theta_max 0.998
_diffrn_measurement_details
;
scan:
Number of images: 180
Slice: -60.0000 - 120.0000
Image width: 1.0000
Exp time: 16.0000
Rotation axis: Omega
Omega: 0.0000
Chi: 54.0000
Phi: 0.0000
XTD: 49.4000
2theta: 29.6000
scan:
Number of images: 180
Slice: -60.0000 - 120.0000
Image width: 1.0000
Exp time: 16.0000
Rotation axis: Omega
Omega: 0.0000
Chi: 54.0000
Phi: 120.0000
XTD: 49.4000
2theta: 29.6000
scan:
Number of images: 180
Slice: -60.0000 - 120.0000
Image width: 1.0000
Exp time: 16.0000
Rotation axis: Omega
Omega: 0.0000
Chi: 54.0000
Phi: 240.0000
XTD: 49.4000
2theta: 29.6000

;
_diffrn_measurement_device
;
XtaLABmini: Fixed Chi 2 circle
;
_diffrn_measurement_device_type
;
Rigaku Mercury375R (2x2 bin mode)
;
_diffrn_measurement_method       'profile data from \w-scans'
_diffrn_radiation_monochromator  'Graphite Monochromator'
_diffrn_radiation_probe          x-ray
_diffrn_radiation_source         'Sealed Tube'
_diffrn_radiation_type           MoK\a
_diffrn_radiation_wavelength     0.71073
_diffrn_reflns_av_R_equivalents  0.0593
_diffrn_reflns_av_sigmaI/netI    0.0472
_diffrn_reflns_limit_h_max       4
_diffrn_reflns_limit_h_min       -4
_diffrn_reflns_limit_k_max       20
_diffrn_reflns_limit_k_min       -19
_diffrn_reflns_limit_l_max       15
_diffrn_reflns_limit_l_min       -15
_diffrn_reflns_number            6781
_diffrn_reflns_reduction_process
;
;
_diffrn_reflns_theta_full        27.47
_diffrn_reflns_theta_max         27.47
_diffrn_reflns_theta_min         3.14
_exptl_absorpt_coefficient_mu    0.178
_exptl_absorpt_correction_T_max  0.982
_exptl_absorpt_correction_T_min  0.979
_exptl_absorpt_correction_type   multi-scan
_exptl_absorpt_process_details   'Jacobson, R. (1998) Private communication'
_exptl_crystal_colour            colorless
_exptl_crystal_density_diffrn    1.722
_exptl_crystal_density_method    'Not Measured'
_exptl_crystal_description       block
_exptl_crystal_F_000             348
_exptl_crystal_size_max          0.120
_exptl_crystal_size_mid          0.120
_exptl_crystal_size_min          0.100
_refine_diff_density_max         0.243
_refine_diff_density_min         -0.223
_refine_diff_density_rms         0.056
_refine_ls_extinction_method     none
_refine_ls_goodness_of_fit_ref   1.041
_refine_ls_hydrogen_treatment    mixed
_refine_ls_matrix_type           full
_refine_ls_number_parameters     126
_refine_ls_number_reflns         1546
_refine_ls_number_restraints     0
_refine_ls_restrained_S_all      1.041
_refine_ls_R_factor_all          0.0914
_refine_ls_R_factor_gt           0.0518
_refine_ls_shift/su_max          0.000
_refine_ls_shift/su_mean         0.000
_refine_ls_structure_factor_coef Fsqd
_refine_ls_weighting_details
'calc w=1/[\s^2^(Fo^2^)+(0.0526P)^2^+0.2901P] where P=(Fo^2^+2Fc^2^)/3'
_refine_ls_weighting_scheme      calc
_refine_ls_wR_factor_gt          0.1132
_refine_ls_wR_factor_ref         0.1296
_reflns_number_gt                995
_reflns_number_total             1546
_reflns_threshold_expression     I>2\s(I)
_iucr_refine_instructions_details
;
;
_cod_data_source_file            c2cc33811d.txt
_cod_data_source_block           datam5
_cod_original_sg_symbol_H-M      'P 21/c'
_cod_database_code               7108258
loop_
_symmetry_equiv_pos_site_id
_symmetry_equiv_pos_as_xyz
1 x,y,z
2 -x,1/2+y,1/2-z
3 -x,-y,-z
4 x,1/2-y,1/2+z
loop_
_atom_site_aniso_label
_atom_site_aniso_U_11
_atom_site_aniso_U_22
_atom_site_aniso_U_33
_atom_site_aniso_U_23
_atom_site_aniso_U_13
_atom_site_aniso_U_12
F1A 0.0434(9) 0.0234(8) 0.0259(8) -0.0008(6) -0.0072(7) -0.0017(7)
F2 0.0610(11) 0.0305(9) 0.0502(10) 0.0135(7) -0.0045(8) 0.0013(7)
F3 0.0599(11) 0.0624(11) 0.0295(9) -0.0083(7) -0.0161(7) 0.0058(9)
O1 0.0542(12) 0.0256(10) 0.0424(12) 0.0065(8) -0.0164(9) -0.0072(9)
O2 0.0471(11) 0.0281(9) 0.0306(10) 0.0038(8) -0.0134(8) -0.0044(9)
C1 0.0233(12) 0.0262(13) 0.0259(13) 0.0022(9) 0.0005(10) 0.0045(10)
C2 0.0254(12) 0.0309(13) 0.0238(13) 0.0000(10) 0.0002(10) 0.0020(10)
C3 0.0313(13) 0.0290(14) 0.0338(14) 0.0065(10) 0.0046(11) 0.0042(11)
C4 0.0334(14) 0.0436(16) 0.0255(14) 0.0094(11) 0.0005(11) 0.0093(12)
C5 0.0308(14) 0.0493(17) 0.0220(13) -0.0033(11) -0.0041(10) 0.0066(12)
C6 0.0324(14) 0.0330(16) 0.0275(13) -0.0013(11) -0.0011(10) 0.0030(12)
C7 0.0279(12) 0.0229(12) 0.0304(14) 0.0002(10) -0.0023(10) 0.0010(10)
F1B 0.059(12) 0.020(9) 0.040(11) 0.005(7) -0.002(9) 0.001(9)
loop_
_atom_site_label
_atom_site_type_symbol
_atom_site_thermal_displace_type
_atom_site_fract_x
_atom_site_fract_y
_atom_site_fract_z
_atom_site_occupancy
_atom_site_U_iso_or_equiv
_atom_site_calc_flag
_atom_site_refinement_flags
F1A F Uani 0.4248(4) 0.25668(9) 0.85923(11) 0.920 0.0313(5) d P
F2 F Uani 0.1988(4) 0.34547(10) 0.68019(13) 1.000 0.0476(6) d .
F3 F Uani -0.1985(5) 0.09293(11) 0.49258(12) 1.000 0.0514(6) d .
O1 O Uani 0.2444(5) -0.00767(11) 0.86787(16) 1.000 0.0416(7) d .
O2 O Uani 0.5458(5) 0.10159(11) 0.95259(14) 1.000 0.0360(6) d .
C1 C Uani 0.2304(6) 0.12399(15) 0.77314(19) 1.000 0.0252(7) d .
C2 C Uani 0.2724(6) 0.21245(15) 0.77176(19) 1.000 0.0268(7) d .
C3 C Uani 0.1536(7) 0.25956(16) 0.6774(2) 1.000 0.0313(8) d .
C4 C Uani -0.0067(7) 0.22113(18) 0.5827(2) 1.000 0.0342(8) d .
C5 C Uani -0.0402(7) 0.13309(18) 0.5850(2) 1.000 0.0343(9) d .
C6 C Uani 0.0689(7) 0.08305(17) 0.6767(2) 1.000 0.0311(8) d .
C7 C Uani 0.3556(6) 0.07179(15) 0.8737(2) 1.000 0.0273(7) d .
F1B F Uani 0.021(5) 0.0171(11) 0.6729(14) 0.080 0.040(6) d P
H1 H Uiso 0.311(12) -0.038(3) 0.940(4) 1.000 0.133(16) d .
H4 H Uiso -0.085(7) 0.2538(18) 0.519(2) 1.000 0.044(8) d .
loop_
_atom_type_symbol
_atom_type_description
_atom_type_scat_dispersion_real
_atom_type_scat_dispersion_imag
_atom_type_scat_source
C C 0.0033 0.0016 ' International Tables Vol C Tables 4.2.6.8 and 6.1.1.4'
H H 0.0000 0.0000 ' International Tables Vol C Tables 4.2.6.8 and 6.1.1.4'
F F 0.0171 0.0103 ' International Tables Vol C Tables 4.2.6.8 and 6.1.1.4'
O O 0.0106 0.0060 ' International Tables Vol C Tables 4.2.6.8 and 6.1.1.4'
loop_
_geom_angle_atom_site_label_1
_geom_angle_atom_site_label_2
_geom_angle_atom_site_label_3
_geom_angle
_geom_angle_publ_flag
C7 O1 H1 110(3) no
C2 C1 C6 118.7(2) no
C6 C1 C7 119.9(2) no
C2 C1 C7 121.4(2) no
F1A C2 C1 122.8(2) yes
C1 C2 C3 120.3(2) no
F1A C2 C3 116.9(2) yes
F2 C3 C4 119.8(2) yes
C2 C3 C4 122.0(2) no
F2 C3 C2 118.2(2) yes
C3 C4 C5 116.8(2) no
F3 C5 C4 118.3(2) yes
F3 C5 C6 117.9(2) yes
C4 C5 C6 123.8(2) no
F1B C6 C1 122.8(10) yes
F1B C6 C5 118.8(10) yes
C1 C6 C5 118.4(2) no
O1 C7 C1 113.2(2) yes
O2 C7 C1 122.7(2) yes
O1 C7 O2 124.2(2) yes
C3 C4 H4 121.2(17) no
C5 C4 H4 122.0(16) no
loop_
_geom_bond_atom_site_label_1
_geom_bond_atom_site_label_2
_geom_bond_distance
_geom_bond_publ_flag
F1A C2 1.337(3) yes
F1B C6 1.039(17) yes
F2 C3 1.343(3) yes
F3 C5 1.360(3) yes
O1 C7 1.299(3) yes
O2 C7 1.223(3) yes
O1 H1 0.99(5) no
C1 C7 1.491(3) no
C1 C2 1.381(3) no
C1 C6 1.407(3) no
C2 C3 1.385(3) no
C3 C4 1.372(3) no
C4 C5 1.372(4) no
C5 C6 1.376(4) no
C4 H4 0.94(3) no
loop_
_geom_hbond_atom_site_label_D
_geom_hbond_atom_site_label_H
_geom_hbond_atom_site_label_A
_geom_hbond_distance_DH
_geom_hbond_distance_HA
_geom_hbond_distance_DA
_geom_hbond_angle_DHA
_geom_hbond_site_symmetry_A
_geom_hbond_publ_flag
O1 H1 O2 0.99(5) 1.67(5) 2.656(3) 170(4) 3_657 yes
C4 H4 F1A 0.94(3) 2.53(2) 3.287(3) 137(2) 4_454 yes
loop_
_geom_torsion_atom_site_label_1
_geom_torsion_atom_site_label_2
_geom_torsion_atom_site_label_3
_geom_torsion_atom_site_label_4
_geom_torsion
_geom_torsion_publ_flag
C6 C1 C2 F1A -179.6(2) no
C6 C1 C2 C3 0.7(3) no
C7 C1 C2 F1A -0.2(3) no
C7 C1 C2 C3 -179.9(2) no
C2 C1 C6 C5 0.0(4) no
C7 C1 C6 C5 -179.4(2) no
C2 C1 C7 O1 169.7(2) no
C2 C1 C7 O2 -10.8(3) no
C6 C1 C7 O1 -10.9(3) no
C6 C1 C7 O2 168.6(2) no
F1A C2 C3 F2 -0.1(3) no
F1A C2 C3 C4 180.0(2) no
C1 C2 C3 F2 179.7(2) no
C1 C2 C3 C4 -0.3(4) no
F2 C3 C4 C5 179.2(2) no
C2 C3 C4 C5 -0.8(4) no
C3 C4 C5 F3 179.9(2) no
C3 C4 C5 C6 1.6(4) no
F3 C5 C6 C1 -179.5(2) no
C4 C5 C6 C1 -1.2(4) no
