#------------------------------------------------------------------------------
#$Date: 2016-03-26 03:32:55 +0200 (Sat, 26 Mar 2016) $
#$Revision: 180186 $
#$URL: svn://www.crystallography.net/cod/cif/7/10/82/7108261.cif $
#------------------------------------------------------------------------------
#
# This file is available in the Crystallography Open Database (COD),
# http://www.crystallography.net/
#
# All data on this site have been placed in the public domain by the
# contributors.
#
data_7108261
loop_
_publ_author_name
'Ritesh Dubey'
'Mysore S. Pavan'
'Gautam R. Desiraju'
_publ_section_title
;
 Structural landscape of benzoic acid: using experimental crystal
 structures of fluorobenzoic acids as a probe
;
_journal_name_full               Chem.Commun.
_journal_page_first              9020
_journal_paper_doi               10.1039/c2cc33811d
_journal_volume                  48
_journal_year                    2012
_chemical_compound_source        'see text'
_chemical_formula_moiety         'C7 H3 F3 O2'
_chemical_formula_sum            'C7 H3 F3 O2'
_chemical_formula_weight         176.09
_chemical_name_systematic        ?
_space_group_IT_number           14
_symmetry_cell_setting           monoclinic
_symmetry_Int_Tables_number      14
_symmetry_space_group_name_Hall  '-P 2yn'
_symmetry_space_group_name_H-M   'P 1 21/n 1'
_atom_sites_solution_hydrogens   geom
_atom_sites_solution_primary     direct
_atom_sites_solution_secondary   difmap
_cell_angle_alpha                90
_cell_angle_beta                 95.574(7)
_cell_angle_gamma                90
_cell_formula_units_Z            4
_cell_length_a                   5.1190(14)
_cell_length_b                   6.4295(17)
_cell_length_c                   20.343(6)
_cell_measurement_temperature    150
_cell_volume                     666.4(3)
_computing_cell_refinement
;
CrystalClear-SM Expert 2.0 rc14 (Rigaku, 2009)
;
_computing_data_collection
;
CrystalClear-SM Expert 2.0 rc14 (Rigaku, 2009)
;
_computing_data_reduction
;
CrystalClear-SM Expert 2.0 rc14 (Rigaku, 2009)
;
_computing_publication_material  'PLATON (Spek, 2003)'
_computing_structure_refinement  'SHELXL-97 (Sheldrick, 1997)'
_computing_structure_solution    'SHELXS-97 (Sheldrick, 1997)'
_diffrn_ambient_temperature      150
_diffrn_detector_area_resol_mean 13.6612
_diffrn_measured_fraction_theta_full 0.995
_diffrn_measured_fraction_theta_max 0.995
_diffrn_measurement_details
;
scan:
Number of images: 180
Slice: -60.0000 - 120.0000
Image width: 1.0000
Exp time: 16.0000
Rotation axis: Omega
Omega: 0.0000
Chi: 54.0000
Phi: 0.0000
XTD: 49.4000
2theta: 29.6000
scan:
Number of images: 180
Slice: -60.0000 - 120.0000
Image width: 1.0000
Exp time: 16.0000
Rotation axis: Omega
Omega: 0.0000
Chi: 54.0000
Phi: 120.0000
XTD: 49.4000
2theta: 29.6000
scan:
Number of images: 180
Slice: -60.0000 - 120.0000
Image width: 1.0000
Exp time: 16.0000
Rotation axis: Omega
Omega: 0.0000
Chi: 54.0000
Phi: 240.0000
XTD: 49.4000
2theta: 29.6000

;
_diffrn_measurement_device
;
XtaLABmini: Fixed Chi 2 circle
;
_diffrn_measurement_device_type
;
Rigaku Mercury375R (2x2 bin mode)
;
_diffrn_measurement_method       'profile data from \w-scans'
_diffrn_radiation_monochromator  'Graphite Monochromator'
_diffrn_radiation_probe          x-ray
_diffrn_radiation_source         'Sealed Tube'
_diffrn_radiation_type           MoK\a
_diffrn_radiation_wavelength     0.71073
_diffrn_reflns_av_R_equivalents  0.0819
_diffrn_reflns_av_sigmaI/netI    0.0673
_diffrn_reflns_limit_h_max       6
_diffrn_reflns_limit_h_min       -6
_diffrn_reflns_limit_k_max       8
_diffrn_reflns_limit_k_min       -8
_diffrn_reflns_limit_l_max       26
_diffrn_reflns_limit_l_min       -26
_diffrn_reflns_number            5694
_diffrn_reflns_reduction_process
;
;
_diffrn_reflns_theta_full        27.48
_diffrn_reflns_theta_max         27.48
_diffrn_reflns_theta_min         3.32
_exptl_absorpt_coefficient_mu    0.181
_exptl_absorpt_correction_T_max  0.9733
_exptl_absorpt_correction_T_min  0.9612
_exptl_absorpt_correction_type   multi-scan
_exptl_absorpt_process_details   'Jacobson, R. (1998) Private communication'
_exptl_crystal_colour            colourless
_exptl_crystal_density_diffrn    1.755
_exptl_crystal_density_method    'Not Measured'
_exptl_crystal_description       block
_exptl_crystal_F_000             352
_exptl_crystal_size_max          0.22
_exptl_crystal_size_mid          0.2
_exptl_crystal_size_min          0.15
_refine_diff_density_max         0.250
_refine_diff_density_min         -0.231
_refine_diff_density_rms         0.062
_refine_ls_extinction_method     none
_refine_ls_goodness_of_fit_ref   1.062
_refine_ls_hydrogen_treatment    constr
_refine_ls_matrix_type           full
_refine_ls_number_parameters     110
_refine_ls_number_reflns         1532
_refine_ls_number_restraints     0
_refine_ls_restrained_S_all      1.062
_refine_ls_R_factor_all          0.1015
_refine_ls_R_factor_gt           0.0596
_refine_ls_shift/su_max          0.000
_refine_ls_shift/su_mean         0.000
_refine_ls_structure_factor_coef Fsqd
_refine_ls_weighting_details
'calc w=1/[\s^2^(Fo^2^)+(0.0707P)^2^+0.0000P] where P=(Fo^2^+2Fc^2^)/3'
_refine_ls_weighting_scheme      calc
_refine_ls_wR_factor_gt          0.1424
_refine_ls_wR_factor_ref         0.1612
_reflns_number_gt                943
_reflns_number_total             1532
_reflns_threshold_expression     >2sigma(I)
_cod_data_source_file            c2cc33811d.txt
_cod_data_source_block           345fba
_cod_original_sg_symbol_H-M      'P 21/n'
_cod_database_code               7108261
loop_
_symmetry_equiv_pos_site_id
_symmetry_equiv_pos_as_xyz
1 x,y,z
2 1/2-x,1/2+y,1/2-z
3 -x,-y,-z
4 1/2+x,1/2-y,1/2+z
loop_
_atom_site_aniso_label
_atom_site_aniso_U_11
_atom_site_aniso_U_22
_atom_site_aniso_U_33
_atom_site_aniso_U_23
_atom_site_aniso_U_13
_atom_site_aniso_U_12
F1 0.0456(10) 0.0419(10) 0.0675(12) 0.0033(8) 0.0166(8) 0.0160(8)
F2 0.0493(10) 0.0436(10) 0.0607(12) 0.0163(8) 0.0098(8) 0.0050(8)
F3 0.0532(11) 0.0553(12) 0.0565(12) 0.0086(9) 0.0250(9) 0.0066(9)
O1 0.0440(11) 0.0355(11) 0.0522(13) 0.0045(9) 0.0139(9) 0.0126(10)
O2 0.0409(11) 0.0363(12) 0.0475(13) 0.0039(9) 0.0125(9) 0.0075(9)
C1 0.0300(14) 0.0347(15) 0.0425(17) -0.0001(12) 0.0085(12) 0.0006(12)
C2 0.0310(14) 0.0310(14) 0.0403(16) -0.0037(12) 0.0020(12) 0.0036(12)
C3 0.0300(14) 0.0355(15) 0.0448(17) -0.0059(13) 0.0078(12) 0.0036(12)
C4 0.0359(14) 0.0335(15) 0.0438(17) 0.0031(12) 0.0013(13) 0.0010(13)
C5 0.0320(14) 0.0402(16) 0.0413(16) -0.0029(13) 0.0116(12) -0.0017(13)
C6 0.0306(13) 0.0362(15) 0.0376(16) -0.0069(12) 0.0067(12) 0.0029(12)
C7 0.0282(13) 0.0352(16) 0.0493(18) -0.0054(13) 0.0046(12) 0.0077(13)
loop_
_atom_site_label
_atom_site_type_symbol
_atom_site_thermal_displace_type
_atom_site_fract_x
_atom_site_fract_y
_atom_site_fract_z
_atom_site_occupancy
_atom_site_U_iso_or_equiv
F1 F Uani 0.9738(3) 0.0971(3) 0.11719(9) 1.000 0.0509(6)
F2 F Uani 0.6469(3) 0.0479(3) 0.21113(9) 1.000 0.0509(6)
F3 F Uani 0.2941(3) 0.3432(3) 0.23237(8) 1.000 0.0537(7)
O1 O Uani 0.3985(4) 0.8909(3) 0.06266(10) 1.000 0.0433(7)
O2 O Uani 0.7307(4) 0.7741(3) 0.00924(10) 1.000 0.0410(7)
C1 C Uani 0.7870(5) 0.4228(4) 0.08712(14) 1.000 0.0354(9)
C2 C Uani 0.6004(5) 0.5732(4) 0.09739(14) 1.000 0.0342(8)
C3 C Uani 0.4329(5) 0.5493(4) 0.14660(14) 1.000 0.0365(9)
C4 C Uani 0.6326(5) 0.2214(4) 0.17444(15) 1.000 0.0379(9)
C5 C Uani 0.4531(5) 0.3725(4) 0.18445(14) 1.000 0.0373(9)
C6 C Uani 0.5678(5) 0.7614(4) 0.05501(13) 1.000 0.0346(8)
C7 C Uani 0.7985(5) 0.2480(4) 0.12578(15) 1.000 0.0375(9)
H1 H Uiso 0.90138 0.44038 0.05474 1.000 0.0425
H2 H Uiso 0.69685 0.87815 -0.01331 1.000 0.0615
H3 H Uiso 0.30958 0.65104 0.15374 1.000 0.0438
loop_
_atom_type_symbol
_atom_type_description
_atom_type_scat_dispersion_real
_atom_type_scat_dispersion_imag
_atom_type_scat_source
O O 0.0106 0.0060 'International Tables Vol C Tables 4.2.6.8 and 6.1.1.4'
F F 0.0171 0.0103 'International Tables Vol C Tables 4.2.6.8 and 6.1.1.4'
H H 0.0000 0.0000 'International Tables Vol C Tables 4.2.6.8 and 6.1.1.4'
C C 0.0033 0.0016 'International Tables Vol C Tables 4.2.6.8 and 6.1.1.4'
loop_
_geom_angle_atom_site_label_1
_geom_angle_atom_site_label_2
_geom_angle_atom_site_label_3
_geom_angle
_geom_angle_publ_flag
C6 O2 H2 109.00 no
C2 C1 C7 118.5(3) no
C1 C2 C3 120.9(2) no
C3 C2 C6 117.8(2) no
C1 C2 C6 121.3(2) no
C2 C3 C5 118.6(2) no
F2 C4 C5 120.7(2) yes
F2 C4 C7 120.0(2) yes
C5 C4 C7 119.3(3) no
F3 C5 C3 120.4(2) yes
F3 C5 C4 118.2(2) yes
C3 C5 C4 121.4(3) no
O1 C6 C2 121.5(2) yes
O2 C6 C2 114.8(2) yes
O1 C6 O2 123.7(2) yes
F1 C7 C4 118.0(2) yes
C1 C7 C4 121.3(2) no
F1 C7 C1 120.6(2) yes
C2 C1 H1 121.00 no
C7 C1 H1 121.00 no
C2 C3 H3 121.00 no
C5 C3 H3 121.00 no
loop_
_geom_bond_atom_site_label_1
_geom_bond_atom_site_label_2
_geom_bond_distance
_geom_bond_publ_flag
F1 C7 1.345(3) yes
F2 C4 1.340(3) yes
F3 C5 1.343(3) yes
O1 C6 1.223(3) yes
O2 C6 1.311(3) yes
O2 H2 0.8200 no
C1 C7 1.370(4) no
C1 C2 1.389(4) no
C2 C3 1.388(4) no
C2 C6 1.486(4) no
C3 C5 1.371(4) no
C4 C5 1.366(4) no
C4 C7 1.376(4) no
C1 H1 0.9300 no
C3 H3 0.9300 no
loop_
_geom_contact_atom_site_label_1
_geom_contact_atom_site_label_2
_geom_contact_distance
_geom_contact_site_symmetry_2
_geom_contact_publ_flag
F1 F2 2.678(3) . no
F1 O1 2.861(3) 1_645 no
F1 O2 3.186(3) 1_545 no
F1 C5 3.221(3) 1_655 no
F1 C6 3.173(3) 1_545 no
F2 F3 2.942(2) 2_545 no
F2 F1 2.678(3) . no
F2 F3 2.684(3) . no
F2 C4 3.254(4) 2_645 no
F2 C5 3.022(3) 2_645 no
F3 C7 3.232(3) 1_455 no
F3 F2 2.684(3) . no
F3 F2 2.942(2) 2_555 no
F1 H2 2.8300 3_765 no
F3 H3 2.7200 2_545 no
O1 F1 2.861(3) 1_465 no
O1 C4 3.255(4) 1_565 no
O1 C7 3.256(3) 1_565 no
O1 C6 3.292(3) 3_675 no
O1 O1 3.172(3) 3_675 no
O1 O2 2.651(3) 3_675 no
O2 O1 2.651(3) 3_675 no
O2 F1 3.186(3) 1_565 no
O2 C1 3.385(3) 3_665 no
O1 H2 1.8300 3_675 no
O1 H3 2.4900 . no
O2 H1 2.4600 . no
O2 H1 2.7600 3_765 no
C1 C3 3.504(4) 1_655 no
C1 O2 3.385(3) 3_665 no
C1 C6 3.470(4) 3_665 no
C3 C1 3.504(4) 1_455 no
C4 O1 3.255(4) 1_545 no
C4 F2 3.254(4) 2_655 no
C5 F1 3.221(3) 1_455 no
C5 C7 3.538(4) 1_455 no
C5 F2 3.022(3) 2_655 no
C6 F1 3.173(3) 1_565 no
C6 C7 3.595(4) 1_565 no
C6 O1 3.292(3) 3_675 no
C6 C1 3.470(4) 3_665 no
C7 C5 3.538(4) 1_655 no
C7 F3 3.232(3) 1_655 no
C7 O1 3.256(3) 1_545 no
C7 C6 3.595(4) 1_545 no
C6 H2 2.7800 3_675 no
H1 O2 2.4600 . no
H1 O2 2.7600 3_765 no
H2 F1 2.8300 3_765 no
H2 O1 1.8300 3_675 no
H2 C6 2.7800 3_675 no
H3 O1 2.4900 . no
H3 F3 2.7200 2_555 no
loop_
_geom_hbond_atom_site_label_D
_geom_hbond_atom_site_label_H
_geom_hbond_atom_site_label_A
_geom_hbond_distance_DH
_geom_hbond_distance_HA
_geom_hbond_distance_DA
_geom_hbond_angle_DHA
_geom_hbond_site_symmetry_A
_geom_hbond_publ_flag
O2 H2 O1 0.8200 1.8300 2.651(3) 177.00 3_675 yes
loop_
_geom_torsion_atom_site_label_1
_geom_torsion_atom_site_label_2
_geom_torsion_atom_site_label_3
_geom_torsion_atom_site_label_4
_geom_torsion
_geom_torsion_publ_flag
C7 C1 C2 C3 1.3(4) no
C7 C1 C2 C6 -176.8(2) no
C2 C1 C7 F1 179.3(2) no
C2 C1 C7 C4 -0.9(4) no
C1 C2 C3 C5 -0.8(4) no
C6 C2 C3 C5 177.4(2) no
C1 C2 C6 O1 177.8(3) no
C1 C2 C6 O2 -1.4(4) no
C3 C2 C6 O1 -0.5(4) no
C3 C2 C6 O2 -179.6(2) no
C2 C3 C5 F3 -179.8(2) no
C2 C3 C5 C4 -0.2(4) no
F2 C4 C5 F3 0.7(4) no
F2 C4 C5 C3 -178.9(2) no
C7 C4 C5 F3 -179.8(2) no
C7 C4 C5 C3 0.7(4) no
F2 C4 C7 F1 -0.7(4) no
F2 C4 C7 C1 179.4(2) no
C5 C4 C7 F1 179.8(2) no
C5 C4 C7 C1 -0.1(4) no
