#------------------------------------------------------------------------------
#$Date: 2016-03-26 03:32:55 +0200 (Sat, 26 Mar 2016) $
#$Revision: 180186 $
#$URL: svn://www.crystallography.net/cod/cif/7/10/82/7108256.cif $
#------------------------------------------------------------------------------
#
# This file is available in the Crystallography Open Database (COD),
# http://www.crystallography.net/
#
# All data on this site have been placed in the public domain by the
# contributors.
#
data_7108256
loop_
_publ_author_name
'Ritesh Dubey'
'Mysore S. Pavan'
'Gautam R. Desiraju'
_publ_section_title
;
 Structural landscape of benzoic acid: using experimental crystal
 structures of fluorobenzoic acids as a probe
;
_journal_name_full               Chem.Commun.
_journal_page_first              9020
_journal_paper_doi               10.1039/c2cc33811d
_journal_volume                  48
_journal_year                    2012
_chemical_compound_source        'see text'
_chemical_formula_moiety         'C7 H3 F2 O2'
_chemical_formula_sum            'C7 H3 F2 O2'
_chemical_formula_weight         157.09
_chemical_name_systematic        ?
_space_group_IT_number           14
_symmetry_cell_setting           monoclinic
_symmetry_Int_Tables_number      14
_symmetry_space_group_name_Hall  '-P 2yn'
_symmetry_space_group_name_H-M   'P 1 21/n 1'
_atom_sites_solution_hydrogens   geom
_atom_sites_solution_primary     direct
_atom_sites_solution_secondary   difmap
_cell_angle_alpha                90
_cell_angle_beta                 94.792(7)
_cell_angle_gamma                90
_cell_formula_units_Z            4
_cell_length_a                   5.5154(12)
_cell_length_b                   5.0528(11)
_cell_length_c                   23.144(5)
_cell_measurement_reflns_used    4677
_cell_measurement_temperature    150
_cell_measurement_theta_max      27.6
_cell_measurement_theta_min      3.5
_cell_volume                     642.7(2)
_computing_cell_refinement
;
CrystalClear-SM Expert 2.0 rc14 (Rigaku, 2009)
;
_computing_data_collection
;
CrystalClear-SM Expert 2.0 rc14 (Rigaku, 2009)
;
_computing_data_reduction
;
CrystalClear-SM Expert 2.0 rc14 (Rigaku, 2009)
;
_computing_publication_material  'PLATON (Spek, 2003)'
_computing_structure_refinement  'SHELXL-97 (Sheldrick, 1997)'
_computing_structure_solution    'SHELXS-97 (Sheldrick, 1997)'
_diffrn_ambient_temperature      150
_diffrn_detector_area_resol_mean 13.6612
_diffrn_measured_fraction_theta_full 0.999
_diffrn_measured_fraction_theta_max 0.999
_diffrn_measurement_details
;
scan:
Number of images: 180
Slice: -60.0000 - 120.0000
Image width: 1.0000
Exp time: 16.0000
Rotation axis: Omega
Omega: 0.0000
Chi: 54.0000
Phi: 0.0000
XTD: 49.4000
2theta: 29.6000
scan:
Number of images: 180
Slice: -60.0000 - 120.0000
Image width: 1.0000
Exp time: 16.0000
Rotation axis: Omega
Omega: 0.0000
Chi: 54.0000
Phi: 120.0000
XTD: 49.4000
2theta: 29.6000
scan:
Number of images: 180
Slice: -60.0000 - 120.0000
Image width: 1.0000
Exp time: 16.0000
Rotation axis: Omega
Omega: 0.0000
Chi: 54.0000
Phi: 240.0000
XTD: 49.4000
2theta: 29.6000

;
_diffrn_measurement_device
;
XtaLABmini: Fixed Chi 2 circle
;
_diffrn_measurement_device_type
;
Rigaku Mercury375R (2x2 bin mode)
;
_diffrn_measurement_method       'profile data from \w-scans'
_diffrn_radiation_monochromator  'Graphite Monochromator'
_diffrn_radiation_probe          x-ray
_diffrn_radiation_source         'Sealed Tube'
_diffrn_radiation_type           MoK\a
_diffrn_radiation_wavelength     0.71073
_diffrn_reflns_av_R_equivalents  0.0411
_diffrn_reflns_av_sigmaI/netI    0.0337
_diffrn_reflns_limit_h_max       7
_diffrn_reflns_limit_h_min       -7
_diffrn_reflns_limit_k_max       6
_diffrn_reflns_limit_k_min       -6
_diffrn_reflns_limit_l_max       29
_diffrn_reflns_limit_l_min       -29
_diffrn_reflns_number            6090
_diffrn_reflns_reduction_process
;
;
_diffrn_reflns_theta_full        27.48
_diffrn_reflns_theta_max         27.48
_diffrn_reflns_theta_min         3.53
_exptl_absorpt_coefficient_mu    0.156
_exptl_absorpt_correction_T_max  0.982
_exptl_absorpt_correction_T_min  0.962
_exptl_absorpt_correction_type   multi-scan
_exptl_absorpt_process_details   'Jacobson, R. (1998) Private communication'
_exptl_crystal_colour            colorless
_exptl_crystal_density_diffrn    1.623
_exptl_crystal_density_method    'Not Measured'
_exptl_crystal_description       block
_exptl_crystal_F_000             316
_exptl_crystal_size_max          0.250
_exptl_crystal_size_mid          0.120
_exptl_crystal_size_min          0.120
_refine_diff_density_max         0.322
_refine_diff_density_min         -0.216
_refine_diff_density_rms         0.049
_refine_ls_extinction_method     none
_refine_ls_goodness_of_fit_ref   1.040
_refine_ls_hydrogen_treatment    mixed
_refine_ls_matrix_type           full
_refine_ls_number_parameters     117
_refine_ls_number_reflns         1474
_refine_ls_number_restraints     0
_refine_ls_restrained_S_all      1.040
_refine_ls_R_factor_all          0.0789
_refine_ls_R_factor_gt           0.0493
_refine_ls_shift/su_max          0.000
_refine_ls_shift/su_mean         0.000
_refine_ls_structure_factor_coef Fsqd
_refine_ls_weighting_details
'calc w=1/[\s^2^(Fo^2^)+(0.0551P)^2^+0.2602P] where P=(Fo^2^+2Fc^2^)/3'
_refine_ls_weighting_scheme      calc
_refine_ls_wR_factor_gt          0.1123
_refine_ls_wR_factor_ref         0.1270
_reflns_number_gt                1005
_reflns_number_total             1474
_reflns_threshold_expression     I>2\s(I)
_iucr_refine_instructions_details
;
;
_cod_data_source_file            c2cc33811d.txt
_cod_data_source_block           datam3
_cod_original_sg_symbol_H-M      'P 21/n'
_cod_database_code               7108256
loop_
_symmetry_equiv_pos_site_id
_symmetry_equiv_pos_as_xyz
1 x,y,z
2 1/2-x,1/2+y,1/2-z
3 -x,-y,-z
4 1/2+x,1/2-y,1/2+z
loop_
_atom_site_aniso_label
_atom_site_aniso_U_11
_atom_site_aniso_U_22
_atom_site_aniso_U_33
_atom_site_aniso_U_23
_atom_site_aniso_U_13
_atom_site_aniso_U_12
F1A 0.0613(11) 0.0515(11) 0.0406(9) -0.0164(8) -0.0189(8) 0.0067(9)
F2 0.0822(11) 0.0394(8) 0.0473(8) -0.0167(6) 0.0257(7) -0.0034(7)
O1 0.0423(9) 0.0365(9) 0.0381(8) -0.0076(7) 0.0007(6) 0.0094(7)
O2 0.0458(9) 0.0401(9) 0.0306(7) -0.0037(7) -0.0054(6) 0.0076(7)
C1 0.0361(11) 0.0255(10) 0.0265(10) 0.0017(8) 0.0086(8) -0.0017(8)
C2 0.0415(12) 0.0315(11) 0.0293(10) 0.0002(9) 0.0033(9) -0.0021(10)
C3 0.0610(15) 0.0347(12) 0.0282(11) -0.0027(9) 0.0045(10) -0.0101(11)
C4 0.0605(15) 0.0287(12) 0.0364(12) -0.0053(9) 0.0220(11) -0.0049(10)
C5 0.0444(13) 0.0356(12) 0.0473(13) -0.0030(10) 0.0175(10) 0.0018(11)
C6 0.0371(12) 0.0363(12) 0.0366(12) -0.0038(10) 0.0057(9) 0.0004(10)
C7 0.0331(11) 0.0273(10) 0.0270(10) 0.0035(8) 0.0050(8) 0.0005(8)
F1B 0.032(3) 0.051(4) 0.074(4) -0.008(3) -0.004(3) 0.023(3)
loop_
_atom_site_label
_atom_site_type_symbol
_atom_site_thermal_displace_type
_atom_site_fract_x
_atom_site_fract_y
_atom_site_fract_z
_atom_site_occupancy
_atom_site_U_iso_or_equiv
_atom_site_calc_flag
_atom_site_refinement_flags
F1A F Uani 0.6845(3) 0.7708(3) 0.22838(7) 0.790 0.0524(6) d P
F2 F Uani 0.2919(3) 1.0626(3) 0.21560(5) 1.000 0.0552(5) d .
O1 O Uani 0.6445(3) 0.1422(3) 0.06177(6) 1.000 0.0391(5) d .
O2 O Uani 0.2937(3) 0.2421(3) 0.01150(6) 1.000 0.0393(5) d .
C1 C Uani 0.4071(4) 0.4852(4) 0.09699(8) 1.000 0.0290(6) d .
C2 C Uani 0.5776(4) 0.5252(4) 0.14412(8) 1.000 0.0341(6) d .
C3 C Uani 0.5336(5) 0.7213(4) 0.18323(9) 1.000 0.0413(7) d .
C4 C Uani 0.3262(4) 0.8729(4) 0.17635(9) 1.000 0.0409(8) d .
C5 C Uani 0.1573(4) 0.8353(5) 0.13003(10) 1.000 0.0417(7) d .
C6 C Uani 0.1978(4) 0.6396(4) 0.09027(9) 1.000 0.0365(7) d .
C7 C Uani 0.4496(4) 0.2771(4) 0.05387(8) 1.000 0.0290(6) d .
F1B F Uani 0.0058(10) 0.9775(13) 0.1344(3) 0.210 0.053(2) d P
H2 H Uiso 0.733(4) 0.416(5) 0.1496(10) 1.000 0.049(7) d .
H6 H Uiso 0.085(4) 0.602(5) 0.0576(11) 1.000 0.057(8) d .
H1 H Uiso 0.64970 0.03080 0.03500 1.000 0.0590 c R
loop_
_atom_type_symbol
_atom_type_description
_atom_type_scat_dispersion_real
_atom_type_scat_dispersion_imag
_atom_type_scat_source
C C 0.0033 0.0016 ' International Tables Vol C Tables 4.2.6.8 and 6.1.1.4'
H H 0.0000 0.0000 ' International Tables Vol C Tables 4.2.6.8 and 6.1.1.4'
F F 0.0171 0.0103 ' International Tables Vol C Tables 4.2.6.8 and 6.1.1.4'
O O 0.0106 0.0060 ' International Tables Vol C Tables 4.2.6.8 and 6.1.1.4'
loop_
_geom_angle_atom_site_label_1
_geom_angle_atom_site_label_2
_geom_angle_atom_site_label_3
_geom_angle
_geom_angle_publ_flag
C7 O1 H1 109.00 no
C2 C1 C6 120.35(18) no
C2 C1 C7 119.70(19) no
C6 C1 C7 119.94(18) no
C1 C2 C3 118.3(2) no
F1A C3 C4 117.06(19) yes
C2 C3 C4 121.0(2) no
F1A C3 C2 121.9(2) yes
F2 C4 C5 120.1(2) yes
C3 C4 C5 121.1(2) no
F2 C4 C3 118.79(19) yes
F1B C5 C4 107.8(4) yes
F1B C5 C6 133.4(4) yes
C4 C5 C6 118.8(2) no
C1 C6 C5 120.4(2) no
O1 C7 C1 117.54(18) yes
O2 C7 C1 119.15(19) yes
O1 C7 O2 123.31(18) yes
C1 C2 H2 121.6(13) no
C3 C2 H2 120.0(14) no
C1 C6 H6 117.1(15) no
C5 C6 H6 122.5(15) no
loop_
_geom_bond_atom_site_label_1
_geom_bond_atom_site_label_2
_geom_bond_distance
_geom_bond_publ_flag
F1A C3 1.305(3) yes
F1B C5 1.113(6) yes
F2 C4 1.345(2) yes
O1 C7 1.273(3) yes
O2 C7 1.262(3) yes
O1 H1 0.8400 no
C1 C7 1.482(3) no
C1 C2 1.394(3) no
C1 C6 1.391(3) no
C2 C3 1.377(3) no
C3 C4 1.375(3) no
C4 C5 1.373(3) no
C5 C6 1.382(3) no
C2 H2 1.02(2) no
C6 H6 0.96(2) no
loop_
_geom_hbond_atom_site_label_D
_geom_hbond_atom_site_label_H
_geom_hbond_atom_site_label_A
_geom_hbond_distance_DH
_geom_hbond_distance_HA
_geom_hbond_distance_DA
_geom_hbond_angle_DHA
_geom_hbond_site_symmetry_A
_geom_hbond_publ_flag
O1 H1 O2 0.8400 1.7900 2.619(2) 168.00 3_655 yes
C6 H6 O2 0.96(2) 2.44(2) 2.793(3) 101.2(16) . yes
loop_
_geom_torsion_atom_site_label_1
_geom_torsion_atom_site_label_2
_geom_torsion_atom_site_label_3
_geom_torsion_atom_site_label_4
_geom_torsion
_geom_torsion_publ_flag
C6 C1 C2 C3 -0.4(3) no
C7 C1 C2 C3 179.58(19) no
C2 C1 C6 C5 0.4(3) no
C7 C1 C6 C5 -179.6(2) no
C2 C1 C7 O1 -0.4(3) no
C2 C1 C7 O2 179.77(19) no
C6 C1 C7 O1 179.60(19) no
C6 C1 C7 O2 -0.3(3) no
C1 C2 C3 F1A -180.0(2) no
C1 C2 C3 C4 0.5(3) no
F1A C3 C4 F2 0.6(3) no
F1A C3 C4 C5 179.8(2) no
C2 C3 C4 F2 -179.77(19) no
C2 C3 C4 C5 -0.6(3) no
F2 C4 C5 C6 179.8(2) no
C3 C4 C5 C6 0.6(3) no
C4 C5 C6 C1 -0.5(3) no
