#------------------------------------------------------------------------------
#$Date: 2016-03-26 03:32:55 +0200 (Sat, 26 Mar 2016) $
#$Revision: 180186 $
#$URL: svn://www.crystallography.net/cod/cif/7/10/82/7108262.cif $
#------------------------------------------------------------------------------
#
# This file is available in the Crystallography Open Database (COD),
# http://www.crystallography.net/
#
# All data on this site have been placed in the public domain by the
# contributors.
#
data_7108262
loop_
_publ_author_name
'Ritesh Dubey'
'Mysore S. Pavan'
'Gautam R. Desiraju'
_publ_section_title
;
 Structural landscape of benzoic acid: using experimental crystal
 structures of fluorobenzoic acids as a probe
;
_journal_name_full               Chem.Commun.
_journal_page_first              9020
_journal_paper_doi               10.1039/c2cc33811d
_journal_volume                  48
_journal_year                    2012
_chemical_compound_source        'see text'
_chemical_formula_moiety         'C7 H3 F3 O2'
_chemical_formula_sum            'C7 H3 F3 O2'
_chemical_formula_weight         176.09
_chemical_name_systematic        ?
_space_group_IT_number           2
_symmetry_cell_setting           triclinic
_symmetry_Int_Tables_number      2
_symmetry_space_group_name_Hall  '-P 1'
_symmetry_space_group_name_H-M   'P -1'
_atom_sites_solution_hydrogens   geom
_atom_sites_solution_primary     direct
_atom_sites_solution_secondary   difmap
_cell_angle_alpha                105.719(7)
_cell_angle_beta                 91.945(7)
_cell_angle_gamma                98.065(7)
_cell_formula_units_Z            4
_cell_length_a                   6.5824(9)
_cell_length_b                   8.3582(11)
_cell_length_c                   12.7456(17)
_cell_measurement_reflns_used    5913
_cell_measurement_temperature    150
_cell_measurement_theta_max      27.50
_cell_measurement_theta_min      3.10
_cell_volume                     666.42(16)
_computing_cell_refinement
;
CrystalClear-SM Expert 2.0 rc14 (Rigaku, 2009)
;
_computing_data_collection
;
CrystalClear-SM Expert 2.0 rc14 (Rigaku, 2009)
;
_computing_data_reduction
;
CrystalClear-SM Expert 2.0 rc14 (Rigaku, 2009)
;
_computing_publication_material  'PLATON (Spek, 2003)'
_computing_structure_refinement  'SHELXL-97 (Sheldrick, 1997)'
_computing_structure_solution    'SHELXS-97 (Sheldrick, 1997)'
_diffrn_ambient_temperature      150
_diffrn_detector_area_resol_mean 13.6612
_diffrn_measured_fraction_theta_full 0.998
_diffrn_measured_fraction_theta_max 0.998
_diffrn_measurement_details
;
scan:
Number of images: 180
Slice: -60.0000 - 120.0000
Image width: 1.0000
Exp time: 16.0000
Rotation axis: Omega
Omega: 0.0000
Chi: 54.0000
Phi: 0.0000
XTD: 49.4000
2theta: 29.6000
scan:
Number of images: 180
Slice: -60.0000 - 120.0000
Image width: 1.0000
Exp time: 16.0000
Rotation axis: Omega
Omega: 0.0000
Chi: 54.0000
Phi: 120.0000
XTD: 49.4000
2theta: 29.6000
scan:
Number of images: 180
Slice: -60.0000 - 120.0000
Image width: 1.0000
Exp time: 16.0000
Rotation axis: Omega
Omega: 0.0000
Chi: 54.0000
Phi: 240.0000
XTD: 49.4000
2theta: 29.6000

;
_diffrn_measurement_device
;
XtaLABmini: Fixed Chi 2 circle
;
_diffrn_measurement_device_type
;
Rigaku Mercury375R (2x2 bin mode)
;
_diffrn_measurement_method       'profile data from \w-scans'
_diffrn_radiation_monochromator  'Graphite Monochromator'
_diffrn_radiation_probe          x-ray
_diffrn_radiation_source         'Sealed Tube'
_diffrn_radiation_type           MoK\a
_diffrn_radiation_wavelength     0.71073
_diffrn_reflns_av_R_equivalents  0.0236
_diffrn_reflns_av_sigmaI/netI    0.0296
_diffrn_reflns_limit_h_max       8
_diffrn_reflns_limit_h_min       -8
_diffrn_reflns_limit_k_max       10
_diffrn_reflns_limit_k_min       -10
_diffrn_reflns_limit_l_max       16
_diffrn_reflns_limit_l_min       -16
_diffrn_reflns_number            7029
_diffrn_reflns_reduction_process
;
;
_diffrn_reflns_theta_full        27.48
_diffrn_reflns_theta_max         27.48
_diffrn_reflns_theta_min         3.13
_exptl_absorpt_coefficient_mu    0.181
_exptl_absorpt_correction_T_max  0.979
_exptl_absorpt_correction_T_min  0.973
_exptl_absorpt_correction_type   multi-scan
_exptl_absorpt_process_details   'Jacobson, R. (1998) Private communication'
_exptl_crystal_colour            colourless
_exptl_crystal_density_diffrn    1.755
_exptl_crystal_density_method    'Not Measured'
_exptl_crystal_description       block
_exptl_crystal_F_000             352
_exptl_crystal_size_max          0.150
_exptl_crystal_size_mid          0.150
_exptl_crystal_size_min          0.120
_refine_diff_density_max         0.212
_refine_diff_density_min         -0.252
_refine_diff_density_rms         0.051
_refine_ls_extinction_method     none
_refine_ls_goodness_of_fit_ref   1.068
_refine_ls_hydrogen_treatment    mixed
_refine_ls_matrix_type           full
_refine_ls_number_parameters     235
_refine_ls_number_reflns         3058
_refine_ls_number_restraints     0
_refine_ls_restrained_S_all      1.068
_refine_ls_R_factor_all          0.0600
_refine_ls_R_factor_gt           0.0413
_refine_ls_shift/su_max          0.000
_refine_ls_shift/su_mean         0.000
_refine_ls_structure_factor_coef Fsqd
_refine_ls_weighting_details
'calc w=1/[\s^2^(Fo^2^)+(0.0496P)^2^+0.2153P] where P=(Fo^2^+2Fc^2^)/3'
_refine_ls_weighting_scheme      calc
_refine_ls_wR_factor_gt          0.1019
_refine_ls_wR_factor_ref         0.1097
_reflns_number_gt                2315
_reflns_number_total             3058
_reflns_threshold_expression     I>2\s(I)
_iucr_refine_instructions_details
;
;
_cod_data_source_file            c2cc33811d.txt
_cod_data_source_block           datam9
_cod_database_code               7108262
loop_
_symmetry_equiv_pos_site_id
_symmetry_equiv_pos_as_xyz
1 x,y,z
2 -x,-y,-z
loop_
_atom_site_aniso_label
_atom_site_aniso_U_11
_atom_site_aniso_U_22
_atom_site_aniso_U_33
_atom_site_aniso_U_23
_atom_site_aniso_U_13
_atom_site_aniso_U_12
F1 0.0316(6) 0.0451(7) 0.0408(7) 0.0153(5) 0.0115(5) 0.0089(5)
F2 0.0496(7) 0.0354(7) 0.0386(7) 0.0147(5) 0.0059(6) -0.0053(5)
F3 0.0670(9) 0.0267(6) 0.0420(7) 0.0132(5) 0.0089(6) 0.0160(6)
O1 0.0369(8) 0.0344(8) 0.0357(8) 0.0109(6) 0.0142(6) 0.0094(6)
O2 0.0394(8) 0.0282(8) 0.0461(8) 0.0114(6) 0.0118(7) 0.0081(6)
C1 0.0305(9) 0.0255(9) 0.0210(8) 0.0030(7) 0.0007(7) 0.0043(8)
C2 0.0305(10) 0.0253(10) 0.0253(9) 0.0056(7) 0.0024(8) 0.0070(8)
C3 0.0275(9) 0.0339(11) 0.0235(9) 0.0072(8) 0.0029(7) 0.0063(8)
C4 0.0386(11) 0.0272(10) 0.0219(9) 0.0077(7) 0.0005(8) -0.0024(8)
C5 0.0464(12) 0.0234(10) 0.0234(9) 0.0063(7) -0.0007(8) 0.0069(8)
C6 0.0346(10) 0.0298(10) 0.0229(9) 0.0051(8) 0.0026(8) 0.0104(8)
C7 0.0301(9) 0.0262(10) 0.0234(9) 0.0032(7) 0.0040(8) 0.0061(8)
F4 0.0374(6) 0.0517(8) 0.0404(7) 0.0187(6) -0.0026(5) 0.0201(6)
F5 0.0281(6) 0.0370(7) 0.0504(7) 0.0104(5) 0.0061(5) 0.0202(5)
F6 0.0418(7) 0.0377(7) 0.0330(6) 0.0040(5) 0.0121(5) 0.0190(5)
O3 0.0271(7) 0.0385(8) 0.0317(7) 0.0093(6) 0.0033(6) 0.0164(6)
O4 0.0296(7) 0.0408(8) 0.0310(7) 0.0104(6) 0.0081(6) 0.0172(6)
C8 0.0201(8) 0.0198(9) 0.0309(9) 0.0084(7) 0.0033(7) 0.0027(7)
C9 0.0251(9) 0.0235(9) 0.0292(10) 0.0086(8) 0.0058(8) 0.0039(7)
C10 0.0226(9) 0.0267(10) 0.0343(10) 0.0137(8) -0.0006(8) 0.0048(7)
C11 0.0194(8) 0.0205(9) 0.0439(11) 0.0084(8) 0.0051(8) 0.0062(7)
C12 0.0255(9) 0.0208(9) 0.0293(9) 0.0040(7) 0.0080(7) 0.0052(7)
C13 0.0251(9) 0.0229(9) 0.0275(9) 0.0064(7) 0.0028(7) 0.0060(7)
C14 0.0197(8) 0.0226(9) 0.0287(9) 0.0061(7) 0.0025(7) 0.0044(7)
loop_
_atom_site_label
_atom_site_type_symbol
_atom_site_thermal_displace_type
_atom_site_fract_x
_atom_site_fract_y
_atom_site_fract_z
_atom_site_occupancy
_atom_site_U_iso_or_equiv
_atom_site_calc_flag
_atom_site_refinement_flags
F1 F Uani 0.30708(17) 0.78145(15) 0.77814(10) 1.000 0.0380(4) d .
F2 F Uani 0.22637(19) 1.09131(15) 0.78976(10) 1.000 0.0415(4) d .
F3 F Uani -0.1257(2) 1.18887(15) 0.86766(10) 1.000 0.0435(4) d .
O1 O Uani -0.4814(2) 0.71020(18) 0.98681(11) 1.000 0.0348(5) d .
O2 O Uani -0.2863(2) 0.50709(17) 0.93512(12) 1.000 0.0372(5) d .
C1 C Uani -0.1849(3) 0.7661(2) 0.89628(14) 1.000 0.0264(5) d .
C2 C Uani -0.0048(3) 0.7142(2) 0.85462(15) 1.000 0.0271(6) d .
C3 C Uani 0.1293(3) 0.8243(2) 0.81745(15) 1.000 0.0283(6) d .
C4 C Uani 0.0890(3) 0.9837(2) 0.82231(14) 1.000 0.0299(6) d .
C5 C Uani -0.0910(3) 1.0322(2) 0.86267(15) 1.000 0.0310(6) d .
C6 C Uani -0.2299(3) 0.9261(2) 0.89970(15) 1.000 0.0290(6) d .
C7 C Uani -0.3257(3) 0.6509(2) 0.94174(14) 1.000 0.0271(5) d .
F4 F Uani 0.21462(18) 0.34235(16) 0.39922(10) 1.000 0.0408(4) d .
F5 F Uani 0.10176(16) 0.46193(14) 0.60371(10) 1.000 0.0373(4) d .
F6 F Uani 0.31947(18) 0.42597(14) 0.77585(9) 1.000 0.0372(4) d .
O3 O Uani 0.8753(2) 0.10550(18) 0.61883(11) 1.000 0.0314(4) d .
O4 O Uani 0.8387(2) 0.08222(18) 0.43992(11) 1.000 0.0324(4) d .
C8 C Uani 0.6069(3) 0.2224(2) 0.55492(15) 1.000 0.0233(5) d .
C9 C Uani 0.4943(3) 0.2412(2) 0.46558(16) 1.000 0.0256(5) d .
C10 C Uani 0.3258(3) 0.3216(2) 0.48333(16) 1.000 0.0268(6) d .
C11 C Uani 0.2671(3) 0.3839(2) 0.58794(16) 1.000 0.0277(5) d .
C12 C Uani 0.3804(3) 0.3648(2) 0.67548(15) 1.000 0.0255(5) d .
C13 C Uani 0.5505(3) 0.2841(2) 0.66102(15) 1.000 0.0250(5) d .
C14 C Uani 0.7848(3) 0.1305(2) 0.53322(15) 1.000 0.0238(5) d .
H1 H Uiso -0.55120 0.63710 1.01050 1.000 0.0520 c R
H2 H Uiso 0.027(3) 0.602(3) 0.8537(18) 1.000 0.040(6) d .
H6 H Uiso -0.354(3) 0.964(3) 0.9294(17) 1.000 0.034(6) d .
H3 H Uiso 0.96920 0.04780 0.59920 1.000 0.0470 c R
H9 H Uiso 0.534(3) 0.204(2) 0.3923(17) 1.000 0.026(5) d .
H13 H Uiso 0.626(3) 0.274(3) 0.7219(17) 1.000 0.029(5) d .
loop_
_atom_type_symbol
_atom_type_description
_atom_type_scat_dispersion_real
_atom_type_scat_dispersion_imag
_atom_type_scat_source
C C 0.0033 0.0016 ' International Tables Vol C Tables 4.2.6.8 and 6.1.1.4'
H H 0.0000 0.0000 ' International Tables Vol C Tables 4.2.6.8 and 6.1.1.4'
F F 0.0171 0.0103 ' International Tables Vol C Tables 4.2.6.8 and 6.1.1.4'
O O 0.0106 0.0060 ' International Tables Vol C Tables 4.2.6.8 and 6.1.1.4'
loop_
_geom_angle_atom_site_label_1
_geom_angle_atom_site_label_2
_geom_angle_atom_site_label_3
_geom_angle
_geom_angle_publ_flag
C7 O1 H1 109.00 no
C14 O3 H3 109.00 no
C2 C1 C6 121.04(17) no
C6 C1 C7 120.16(17) no
C2 C1 C7 118.75(16) no
C1 C2 C3 118.46(16) no
C2 C3 C4 121.17(18) no
F1 C3 C2 120.83(16) yes
F1 C3 C4 117.98(16) yes
C3 C4 C5 119.56(17) no
F2 C4 C3 120.03(17) yes
F2 C4 C5 120.40(16) yes
C4 C5 C6 121.25(17) no
F3 C5 C6 120.30(17) yes
F3 C5 C4 118.42(16) yes
C1 C6 C5 118.51(18) no
O2 C7 C1 119.27(17) yes
O1 C7 O2 124.61(17) yes
O1 C7 C1 116.12(16) yes
C3 C2 H2 121.0(12) no
C1 C2 H2 120.6(12) no
C1 C6 H6 121.7(15) no
C5 C6 H6 119.8(15) no
C9 C8 C13 121.00(18) no
C9 C8 C14 117.88(17) no
C13 C8 C14 121.09(17) no
C8 C9 C10 118.97(18) no
F4 C10 C11 118.53(17) yes
C9 C10 C11 121.00(18) no
F4 C10 C9 120.47(17) yes
F5 C11 C12 120.49(17) yes
C10 C11 C12 119.34(18) no
F5 C11 C10 120.17(17) yes
F6 C12 C13 120.56(16) yes
C11 C12 C13 121.42(17) no
F6 C12 C11 118.01(17) yes
C8 C13 C12 118.26(17) no
O3 C14 C8 115.36(16) yes
O4 C14 C8 120.75(17) yes
O3 C14 O4 123.90(18) yes
C8 C9 H9 122.3(12) no
C10 C9 H9 118.7(12) no
C8 C13 H13 121.9(13) no
C12 C13 H13 119.8(13) no
loop_
_geom_bond_atom_site_label_1
_geom_bond_atom_site_label_2
_geom_bond_distance
_geom_bond_publ_flag
F1 C3 1.345(2) yes
F2 C4 1.341(2) yes
F3 C5 1.346(2) yes
F4 C10 1.341(2) yes
F5 C11 1.339(2) yes
F6 C12 1.340(2) yes
O1 C7 1.286(2) yes
O2 C7 1.246(2) yes
O1 H1 0.8400 no
O3 C14 1.305(2) yes
O4 C14 1.230(2) yes
O3 H3 0.8400 no
C1 C7 1.487(3) no
C1 C6 1.400(3) no
C1 C2 1.392(3) no
C2 C3 1.374(3) no
C3 C4 1.380(3) no
C4 C5 1.377(3) no
C5 C6 1.369(3) no
C2 H2 0.99(3) no
C6 H6 0.97(2) no
C8 C13 1.394(3) no
C8 C14 1.482(3) no
C8 C9 1.394(3) no
C9 C10 1.370(3) no
C10 C11 1.383(3) no
C11 C12 1.378(3) no
C12 C13 1.379(3) no
C9 H9 0.96(2) no
C13 H13 0.94(2) no
loop_
_geom_hbond_atom_site_label_D
_geom_hbond_atom_site_label_H
_geom_hbond_atom_site_label_A
_geom_hbond_distance_DH
_geom_hbond_distance_HA
_geom_hbond_distance_DA
_geom_hbond_angle_DHA
_geom_hbond_site_symmetry_A
_geom_hbond_publ_flag
O1 H1 O2 0.8400 1.7900 2.633(2) 175.00 2_467 yes
O3 H3 O4 0.8400 1.7800 2.618(2) 177.00 2_756 yes
C9 H9 F1 0.96(2) 2.47(2) 3.380(2) 158.8(14) 2_666 yes
loop_
_geom_torsion_atom_site_label_1
_geom_torsion_atom_site_label_2
_geom_torsion_atom_site_label_3
_geom_torsion_atom_site_label_4
_geom_torsion
_geom_torsion_publ_flag
C6 C1 C2 C3 0.5(3) no
C7 C1 C2 C3 -176.99(17) no
C2 C1 C6 C5 -1.0(3) no
C7 C1 C6 C5 176.38(17) no
C2 C1 C7 O1 174.75(16) no
C2 C1 C7 O2 -4.6(3) no
C6 C1 C7 O1 -2.7(3) no
C6 C1 C7 O2 177.92(17) no
C1 C2 C3 F1 178.86(16) no
C1 C2 C3 C4 0.9(3) no
F1 C3 C4 F2 -0.9(3) no
F1 C3 C4 C5 -179.64(16) no
C2 C3 C4 F2 177.20(17) no
C2 C3 C4 C5 -1.6(3) no
F2 C4 C5 F3 0.5(3) no
F2 C4 C5 C6 -177.79(17) no
C3 C4 C5 F3 179.30(16) no
C3 C4 C5 C6 1.0(3) no
F3 C5 C6 C1 -177.99(16) no
C4 C5 C6 C1 0.3(3) no
C13 C8 C9 C10 -0.1(3) no
C14 C8 C9 C10 178.22(17) no
C9 C8 C13 C12 -0.2(3) no
C14 C8 C13 C12 -178.40(17) no
C9 C8 C14 O3 -175.07(16) no
C9 C8 C14 O4 4.6(3) no
C13 C8 C14 O3 3.2(3) no
C13 C8 C14 O4 -177.10(18) no
C8 C9 C10 F4 179.74(16) no
C8 C9 C10 C11 0.1(3) no
F4 C10 C11 F5 0.5(3) no
F4 C10 C11 C12 -179.54(16) no
C9 C10 C11 F5 -179.90(16) no
C9 C10 C11 C12 0.1(3) no
F5 C11 C12 F6 0.2(3) no
F5 C11 C12 C13 179.66(16) no
C10 C11 C12 F6 -179.79(16) no
C10 C11 C12 C13 -0.4(3) no
F6 C12 C13 C8 179.81(16) no
C11 C12 C13 C8 0.4(3) no
