#------------------------------------------------------------------------------
#$Date: 2016-03-26 03:40:22 +0200 (Sat, 26 Mar 2016) $
#$Revision: 180191 $
#$URL: svn://www.crystallography.net/cod/cif/7/10/87/7108741.cif $
#------------------------------------------------------------------------------
#
# This file is available in the Crystallography Open Database (COD),
# http://www.crystallography.net/
#
# All data on this site have been placed in the public domain by the
# contributors.
#
data_7108741
loop_
_publ_author_name
'Saul H. Lapidus'
'Jamie L. Manson'
'Hyunsoo Park'
'Alexander J. Clement'
'Saman Ghannadzadeh'
'Paul Goddard'
'Tom Lancaster'
'Johannes S. Moller'
'Stephen J. Blundell'
'Mark T. F. Telling'
'Jinhee Kang'
'Myung-Hwan Whangbo'
'John A. Schlueter'
_publ_section_title
;
 Antiferromagnetic ordering through a hydrogen-bonded network in the
 molecular solid CuF2(H2O)2(3-chloropyridine)
;
_journal_name_full               Chem.Commun.
_journal_page_first              499
_journal_paper_doi               10.1039/c2cc37444g
_journal_volume                  49
_journal_year                    2013
_chemical_formula_moiety         'Cu 2+, 2(F 1-), C5 H4 Cl N, 2(H2 O)'
_chemical_formula_sum            'C5 H8 Cl Cu F2 N O2'
_chemical_formula_weight         251.11
_chemical_name_common
'Copper(ii) difluoride dihydrate 3-chloropyridine'
_chemical_name_systematic
;
?
;
_space_group_IT_number           14
_symmetry_cell_setting           monoclinic
_symmetry_Int_Tables_number      14
_symmetry_space_group_name_Hall  '-P 2ybc'
_symmetry_space_group_name_H-M   'P 1 21/c 1'
_atom_sites_solution_hydrogens   geom
_atom_sites_solution_primary     direct
_atom_sites_solution_secondary   difmap
_audit_creation_method           'manual editing of SHELXL-97 cif file'
_cell_angle_alpha                90.00
_cell_angle_beta                 91.7230(10)
_cell_angle_gamma                90.00
_cell_formula_units_Z            4
_cell_length_a                   6.76700(10)
_cell_length_b                   7.6416(2)
_cell_length_c                   16.4281(4)
_cell_measurement_reflns_used    7556
_cell_measurement_temperature    100(2)
_cell_measurement_theta_max      31.498
_cell_measurement_theta_min      2.940
_cell_volume                     849.12(3)
_computing_cell_refinement       'APEX II v.2.2 (Bruker, 2007)'
_computing_data_collection       'APEX II v.2.2 (Bruker, 2007)'
_computing_data_reduction        'APEX II v.2.2 (Bruker, 2007)'
_computing_molecular_graphics    'Diamond 3.1a (Crystal Impact, 2005)'
_computing_publication_material  'SHELXTL (Bruker, 2006)'
_computing_structure_refinement  'SHELXL-97 (Sheldrick, 2008)'
_computing_structure_solution    'SHELXS-97 (Sheldrick, 2008)'
_diffrn_ambient_temperature      100(2)
_diffrn_detector_area_resol_mean 83.33
_diffrn_measured_fraction_theta_full 0.982
_diffrn_measured_fraction_theta_max 0.982
_diffrn_measurement_device_type  '3-circle goniometer'
_diffrn_measurement_method       'omega scans'
_diffrn_radiation_monochromator  graphite
_diffrn_radiation_probe          x-ray
_diffrn_radiation_source         'fine-focus sealed tube'
_diffrn_radiation_type           MoK\a
_diffrn_radiation_wavelength     0.71073
_diffrn_reflns_av_R_equivalents  0.0000
_diffrn_reflns_av_sigmaI/netI    0.0110
_diffrn_reflns_limit_h_max       9
_diffrn_reflns_limit_h_min       -9
_diffrn_reflns_limit_k_max       11
_diffrn_reflns_limit_k_min       0
_diffrn_reflns_limit_l_max       23
_diffrn_reflns_limit_l_min       0
_diffrn_reflns_number            2755
_diffrn_reflns_theta_full        31.50
_diffrn_reflns_theta_max         31.50
_diffrn_reflns_theta_min         2.48
_diffrn_source_type              'Bruker APEX II'
_exptl_absorpt_coefficient_mu    2.877
_exptl_absorpt_correction_T_max  0.746
_exptl_absorpt_correction_T_min  0.575
_exptl_absorpt_correction_type   multi-scan
_exptl_absorpt_process_details   'TWINABS, Bruker AXS V2008/2'
_exptl_crystal_colour            blue
_exptl_crystal_density_diffrn    1.964
_exptl_crystal_density_method    'not measured'
_exptl_crystal_description       rod
_exptl_crystal_F_000             500
_exptl_crystal_size_max          0.43
_exptl_crystal_size_mid          0.20
_exptl_crystal_size_min          0.10
_refine_diff_density_max         0.566
_refine_diff_density_min         -0.582
_refine_diff_density_rms         0.196
_refine_ls_extinction_method     none
_refine_ls_goodness_of_fit_ref   1.209
_refine_ls_hydrogen_treatment    mixed
_refine_ls_matrix_type           full
_refine_ls_number_parameters     122
_refine_ls_number_reflns         2825
_refine_ls_number_restraints     6
_refine_ls_restrained_S_all      1.212
_refine_ls_R_factor_all          0.0215
_refine_ls_R_factor_gt           0.0205
_refine_ls_shift/su_max          0.001
_refine_ls_shift/su_mean         0.000
_refine_ls_structure_factor_coef Fsqd
_refine_ls_weighting_details
'calc w=1/[\s^2^(Fo^2^)+(0.0305P)^2^+0.3435P] where P=(Fo^2^+2Fc^2^)/3'
_refine_ls_weighting_scheme      calc
_refine_ls_wR_factor_gt          0.0580
_refine_ls_wR_factor_ref         0.0586
_reflns_number_gt                2743
_reflns_number_total             2825
_reflns_threshold_expression     >2sigma(I)
_cod_data_source_file            c2cc37444g.txt
_cod_data_source_block           CuF2(H2O)2(3ClPy)100K
_cod_original_sg_symbol_H-M      P21/c
_cod_database_code               7108741
loop_
_symmetry_equiv_pos_as_xyz
'x, y, z'
'-x, y+1/2, -z+1/2'
'-x, -y, -z'
'x, -y-1/2, z-1/2'
loop_
_atom_site_label
_atom_site_type_symbol
_atom_site_fract_x
_atom_site_fract_y
_atom_site_fract_z
_atom_site_U_iso_or_equiv
_atom_site_adp_type
_atom_site_occupancy
_atom_site_symmetry_multiplicity
_atom_site_calc_flag
_atom_site_refinement_flags
Cu1 Cu 0.24059(3) 0.91609(2) 0.202860(9) 0.00907(5) Uani 1 1 d .
F1 F 0.23898(16) 1.16274(11) 0.20188(5) 0.01293(19) Uani 1 1 d .
F2 F 0.24167(15) 0.66948(11) 0.20890(5) 0.01157(18) Uani 1 1 d .
O1 O 0.02552(16) 0.91768(18) 0.28781(8) 0.0124(2) Uani 1 1 d D
H1A H -0.043(3) 0.839(3) 0.2820(17) 0.015 Uiso 1 1 d D
H1B H -0.030(4) 1.002(3) 0.2936(16) 0.015 Uiso 1 1 d D
O2 O 0.48757(16) 0.91628(19) 0.28448(9) 0.0140(2) Uani 1 1 d D
H2A H 0.553(3) 0.830(3) 0.2943(17) 0.017 Uiso 1 1 d D
H2B H 0.554(3) 0.990(3) 0.2811(17) 0.017 Uiso 1 1 d D
N1 N 0.25115(19) 0.90988(15) 0.07798(7) 0.01095(19) Uani 1 1 d .
C2 C 0.2478(2) 1.05957(18) 0.03482(8) 0.0116(2) Uani 1 1 d .
H2 H 0.2440 1.1683 0.0627 0.014 Uiso 1 1 calc R
C3 C 0.2498(2) 1.05845(19) -0.04967(8) 0.0127(3) Uani 1 1 d .
Cl1 Cl 0.24435(7) 1.25559(5) -0.10185(2) 0.01781(8) Uani 1 1 d .
C4 C 0.2554(2) 0.9021(2) -0.09203(9) 0.0163(3) Uani 1 1 d .
H4 H 0.2566 0.9000 -0.1498 0.020 Uiso 1 1 calc R
C5 C 0.2593(3) 0.74757(19) -0.04677(8) 0.0171(3) Uani 1 1 d .
H5 H 0.2638 0.6374 -0.0734 0.020 Uiso 1 1 calc R
C6 C 0.2566(3) 0.75642(18) 0.03757(8) 0.0142(3) Uani 1 1 d .
H6 H 0.2587 0.6506 0.0679 0.017 Uiso 1 1 calc R
loop_
_atom_site_aniso_label
_atom_site_aniso_U_11
_atom_site_aniso_U_22
_atom_site_aniso_U_33
_atom_site_aniso_U_23
_atom_site_aniso_U_13
_atom_site_aniso_U_12
Cu1 0.01340(8) 0.00506(8) 0.00878(8) 0.00013(5) 0.00071(6) 0.00004(7)
F1 0.0191(5) 0.0061(3) 0.0136(4) -0.0010(3) 0.0013(4) 0.0003(4)
F2 0.0148(5) 0.0061(3) 0.0138(4) 0.0008(3) 0.0005(4) 0.0000(3)
O1 0.0122(4) 0.0084(5) 0.0168(6) 0.0002(5) 0.0038(4) 0.0006(5)
O2 0.0122(5) 0.0089(6) 0.0206(6) 0.0006(5) -0.0034(4) -0.0010(5)
N1 0.0131(5) 0.0095(5) 0.0102(5) -0.0001(4) 0.0005(4) -0.0005(5)
C2 0.0134(6) 0.0104(5) 0.0109(5) 0.0003(4) 0.0000(5) 0.0003(5)
C3 0.0136(6) 0.0129(5) 0.0116(6) 0.0032(4) -0.0002(5) -0.0004(6)
Cl1 0.02240(19) 0.01706(15) 0.01392(15) 0.00705(11) -0.00016(14) 0.00004(17)
C4 0.0189(8) 0.0186(6) 0.0114(6) -0.0013(5) 0.0004(5) -0.0006(8)
C5 0.0247(8) 0.0139(6) 0.0127(6) -0.0034(5) 0.0020(7) -0.0007(8)
C6 0.0198(7) 0.0101(5) 0.0127(5) -0.0006(4) 0.0008(6) -0.0004(6)
loop_
_atom_type_symbol
_atom_type_description
_atom_type_scat_dispersion_real
_atom_type_scat_dispersion_imag
_atom_type_scat_source
C C 0.0033 0.0016 'International Tables Vol C Tables 4.2.6.8 and 6.1.1.4'
H H 0.0000 0.0000 'International Tables Vol C Tables 4.2.6.8 and 6.1.1.4'
Cl Cl 0.1484 0.1585 'International Tables Vol C Tables 4.2.6.8 and 6.1.1.4'
Cu Cu 0.3201 1.2651 'International Tables Vol C Tables 4.2.6.8 and 6.1.1.4'
F F 0.0171 0.0103 'International Tables Vol C Tables 4.2.6.8 and 6.1.1.4'
N N 0.0061 0.0033 'International Tables Vol C Tables 4.2.6.8 and 6.1.1.4'
O O 0.0106 0.0060 'International Tables Vol C Tables 4.2.6.8 and 6.1.1.4'
loop_
_geom_angle_atom_site_label_1
_geom_angle_atom_site_label_2
_geom_angle_atom_site_label_3
_geom_angle
F1 Cu1 F2 177.47(3)
F1 Cu1 O1 89.76(5)
F2 Cu1 O1 88.38(5)
F1 Cu1 N1 90.85(4)
F2 Cu1 N1 91.68(4)
O1 Cu1 N1 136.68(5)
F1 Cu1 O2 90.52(5)
F2 Cu1 O2 88.03(5)
O1 Cu1 O2 97.62(4)
N1 Cu1 O2 125.68(5)
Cu1 O1 H1A 110(2)
Cu1 O1 H1B 117(2)
H1A O1 H1B 113(3)
Cu1 O2 H2A 123.1(18)
Cu1 O2 H2B 116(2)
H2A O2 H2B 108(2)
C2 N1 C6 118.69(12)
C2 N1 Cu1 120.38(9)
C6 N1 Cu1 120.91(9)
N1 C2 C3 121.40(13)
N1 C2 H2 119.3
C3 C2 H2 119.3
C4 C3 C2 120.62(13)
C4 C3 Cl1 120.15(11)
C2 C3 Cl1 119.23(11)
C3 C4 C5 117.59(13)
C3 C4 H4 121.2
C5 C4 H4 121.2
C6 C5 C4 119.36(13)
C6 C5 H5 120.3
C4 C5 H5 120.3
N1 C6 C5 122.35(13)
N1 C6 H6 118.8
C5 C6 H6 118.8
loop_
_geom_bond_atom_site_label_1
_geom_bond_atom_site_label_2
_geom_bond_distance
Cu1 F1 1.8849(8)
Cu1 F2 1.8871(8)
Cu1 O1 2.0465(12)
Cu1 N1 2.0554(11)
Cu1 O2 2.1110(12)
O1 H1A 0.76(2)
O1 H1B 0.75(2)
O2 H2A 0.81(2)
O2 H2B 0.72(2)
N1 C2 1.3457(17)
N1 C6 1.3486(17)
C2 C3 1.3885(18)
C2 H2 0.9500
C3 C4 1.384(2)
C3 Cl1 1.7331(14)
C4 C5 1.395(2)
C4 H4 0.9500
C5 C6 1.3879(19)
C5 H5 0.9500
C6 H6 0.9500
loop_
_geom_torsion_atom_site_label_1
_geom_torsion_atom_site_label_2
_geom_torsion_atom_site_label_3
_geom_torsion_atom_site_label_4
_geom_torsion
F1 Cu1 N1 C2 -1.99(12)
F2 Cu1 N1 C2 177.99(12)
O1 Cu1 N1 C2 88.57(13)
O2 Cu1 N1 C2 -93.24(13)
F1 Cu1 N1 C6 179.66(13)
F2 Cu1 N1 C6 -0.36(13)
O1 Cu1 N1 C6 -89.79(14)
O2 Cu1 N1 C6 88.41(14)
C6 N1 C2 C3 0.0(2)
Cu1 N1 C2 C3 -178.36(12)
N1 C2 C3 C4 0.0(3)
N1 C2 C3 Cl1 179.77(12)
C2 C3 C4 C5 -0.1(2)
Cl1 C3 C4 C5 -179.91(14)
C3 C4 C5 C6 0.2(2)
C2 N1 C6 C5 0.1(2)
Cu1 N1 C6 C5 178.51(13)
C4 C5 C6 N1 -0.3(3)
