#------------------------------------------------------------------------------
#$Date: 2016-03-26 03:38:49 +0200 (Sat, 26 Mar 2016) $
#$Revision: 180190 $
#$URL: svn://www.crystallography.net/cod/cif/7/10/86/7108663.cif $
#------------------------------------------------------------------------------
#
# This file is available in the Crystallography Open Database (COD),
# http://www.crystallography.net/
#
# All data on this site have been placed in the public domain by the
# contributors.
#
data_7108663
loop_
_publ_author_name
'Vjekoslav Strukil'
'Boris Bartolec'
'Tomislav Portada'
'Ivica Dilovic'
'Ivan Halasz'
'Davor Margetic'
_publ_section_title
;
 One-pot mechanosynthesis of aromatic amides and dipeptides from
 carboxylic acids and amines
;
_journal_name_full               Chem.Commun.
_journal_page_first              12100
_journal_paper_doi               10.1039/c2cc36613d
_journal_volume                  48
_journal_year                    2012
_chemical_formula_moiety         'C17 H12 Cl N O'
_chemical_formula_sum            'C17 H12 Cl N O'
_chemical_formula_weight         281.73
_chemical_name_systematic
;
?
;
_space_group_IT_number           2
_symmetry_cell_setting           triclinic
_symmetry_Int_Tables_number      2
_symmetry_space_group_name_Hall  '-P 1'
_symmetry_space_group_name_H-M   'P -1'
_atom_sites_solution_hydrogens   geom
_atom_sites_solution_primary     direct
_atom_sites_solution_secondary   difmap
_audit_creation_method           SHELXL-97
_cell_angle_alpha                71.589(4)
_cell_angle_beta                 80.789(3)
_cell_angle_gamma                82.637(3)
_cell_formula_units_Z            2
_cell_length_a                   5.04782(18)
_cell_length_b                   10.7197(4)
_cell_length_c                   13.3908(6)
_cell_measurement_reflns_used    6275
_cell_measurement_temperature    150
_cell_measurement_theta_max      28.5249
_cell_measurement_theta_min      4.2071
_cell_volume                     676.30(5)
_computing_cell_refinement
;
CrysAlisPro, Oxford Diffraction Ltd.,
Version 1.171.34.44 (release 25-10-2010 CrysAlis171 .NET)
(compiled Oct 25 2010,18:11:34)
;
_computing_data_collection
;
CrysAlisPro, Oxford Diffraction Ltd.,
Version 1.171.34.44 (release 25-10-2010 CrysAlis171 .NET)
(compiled Oct 25 2010,18:11:34)
;
_computing_data_reduction
;
CrysAlisPro, Oxford Diffraction Ltd.,
Version 1.171.34.44 (release 25-10-2010 CrysAlis171 .NET)
(compiled Oct 25 2010,18:11:34)
;
_computing_structure_refinement  'SHELXL-97 (Sheldrick, 2008)'
_computing_structure_solution    'SHELXS-97 (Sheldrick, 2008)'
_diffrn_ambient_temperature      150
_diffrn_detector_area_resol_mean 16.3426
_diffrn_measured_fraction_theta_full 0.996
_diffrn_measured_fraction_theta_max 0.996
_diffrn_measurement_device_type  'Xcalibur, Sapphire3'
_diffrn_measurement_method       '\w scans'
_diffrn_radiation_monochromator  graphite
_diffrn_radiation_source         'Enhance (Mo) X-ray Source'
_diffrn_radiation_type           MoK\a
_diffrn_radiation_wavelength     0.71073
_diffrn_reflns_av_R_equivalents  0.0138
_diffrn_reflns_av_sigmaI/netI    0.0142
_diffrn_reflns_limit_h_max       5
_diffrn_reflns_limit_h_min       -5
_diffrn_reflns_limit_k_max       12
_diffrn_reflns_limit_k_min       -12
_diffrn_reflns_limit_l_max       15
_diffrn_reflns_limit_l_min       -15
_diffrn_reflns_number            7477
_diffrn_reflns_theta_full        25.00
_diffrn_reflns_theta_max         25.00
_diffrn_reflns_theta_min         4.22
_exptl_absorpt_coefficient_mu    0.276
_exptl_absorpt_correction_T_max  1.00000
_exptl_absorpt_correction_T_min  0.94328
_exptl_absorpt_correction_type   multi-scan
_exptl_absorpt_process_details
;
CrysAlisPro, Oxford Diffraction Ltd.,
Version 1.171.34.44 (release 25-10-2010 CrysAlis171 .NET)
(compiled Oct 25 2010,18:11:34)
Empirical absorption correction using spherical harmonics,
implemented in SCALE3 ABSPACK scaling algorithm.
;
_exptl_crystal_colour            colorless
_exptl_crystal_density_diffrn    1.383
_exptl_crystal_density_method    'not measured'
_exptl_crystal_description       prism
_exptl_crystal_F_000             292
_exptl_crystal_size_max          0.47
_exptl_crystal_size_mid          0.40
_exptl_crystal_size_min          0.16
_refine_diff_density_max         0.192
_refine_diff_density_min         -0.258
_refine_diff_density_rms         0.045
_refine_ls_extinction_method     none
_refine_ls_goodness_of_fit_ref   1.047
_refine_ls_hydrogen_treatment    constr
_refine_ls_matrix_type           full
_refine_ls_number_parameters     181
_refine_ls_number_reflns         2358
_refine_ls_number_restraints     0
_refine_ls_restrained_S_all      1.047
_refine_ls_R_factor_all          0.0307
_refine_ls_R_factor_gt           0.0280
_refine_ls_shift/su_max          0.000
_refine_ls_shift/su_mean         0.000
_refine_ls_structure_factor_coef Fsqd
_refine_ls_weighting_details
'calc w=1/[\s^2^(Fo^2^)+(0.0442P)^2^+0.2109P] where P=(Fo^2^+2Fc^2^)/3'
_refine_ls_weighting_scheme      calc
_refine_ls_wR_factor_gt          0.0784
_refine_ls_wR_factor_ref         0.0803
_reflns_number_gt                2174
_reflns_number_total             2358
_reflns_threshold_expression     >2\s(I)
_cod_data_source_file            c2cc36613d.txt
_cod_data_source_block           2e
_cod_original_cell_volume        676.30(4)
_cod_database_code               7108663
loop_
_symmetry_equiv_pos_as_xyz
'x, y, z'
'-x, -y, -z'
loop_
_atom_site_label
_atom_site_type_symbol
_atom_site_fract_x
_atom_site_fract_y
_atom_site_fract_z
_atom_site_U_iso_or_equiv
_atom_site_adp_type
_atom_site_occupancy
_atom_site_symmetry_multiplicity
_atom_site_calc_flag
_atom_site_refinement_flags
C1 C 0.3426(2) 0.73285(12) -0.03718(10) 0.0185(3) Uani 1 1 d .
C2 C 0.3046(2) 0.82136(12) -0.14640(10) 0.0187(3) Uani 1 1 d .
C3 C 0.1440(3) 0.78663(13) -0.20560(10) 0.0224(3) Uani 1 1 d .
H3 H 0.0492 0.7096 -0.1750 0.027 Uiso 1 1 calc R
C4 C 0.1180(3) 0.86343(14) -0.31070(11) 0.0260(3) Uani 1 1 d .
H4 H 0.0074 0.8377 -0.3507 0.031 Uiso 1 1 calc R
C5 C 0.2512(3) 0.97482(14) -0.35554(10) 0.0266(3) Uani 1 1 d .
H5 H 0.2349 1.0251 -0.4271 0.032 Uiso 1 1 calc R
C6 C 0.4136(2) 1.01653(13) -0.29682(10) 0.0224(3) Uani 1 1 d .
C7 C 0.5444(3) 1.13478(14) -0.34130(11) 0.0275(3) Uani 1 1 d .
H7 H 0.5265 1.1863 -0.4124 0.033 Uiso 1 1 calc R
C8 C 0.6956(3) 1.17580(13) -0.28360(11) 0.0286(3) Uani 1 1 d .
H8 H 0.7820 1.2553 -0.3145 0.034 Uiso 1 1 calc R
C9 C 0.7233(3) 1.10011(13) -0.17826(11) 0.0262(3) Uani 1 1 d .
H9 H 0.8277 1.1294 -0.1382 0.031 Uiso 1 1 calc R
C10 C 0.6020(3) 0.98510(13) -0.13281(10) 0.0220(3) Uani 1 1 d .
H10 H 0.6242 0.9351 -0.0617 0.026 Uiso 1 1 calc R
C11 C 0.4430(2) 0.93908(12) -0.19044(10) 0.0191(3) Uani 1 1 d .
C12 C 0.1047(2) 0.60070(12) 0.13048(10) 0.0192(3) Uani 1 1 d .
C13 C 0.3073(3) 0.50261(13) 0.16539(11) 0.0228(3) Uani 1 1 d .
H13 H 0.4605 0.4893 0.1174 0.027 Uiso 1 1 calc R
C14 C 0.2852(3) 0.42439(13) 0.27039(11) 0.0247(3) Uani 1 1 d .
H14 H 0.4233 0.3575 0.2946 0.030 Uiso 1 1 calc R
C15 C 0.0616(3) 0.44412(13) 0.33955(10) 0.0238(3) Uani 1 1 d .
C16 C -0.1423(3) 0.54051(14) 0.30619(10) 0.0250(3) Uani 1 1 d .
H16 H -0.2955 0.5529 0.3545 0.030 Uiso 1 1 calc R
C17 C -0.1200(3) 0.61875(13) 0.20138(10) 0.0232(3) Uani 1 1 d .
H17 H -0.2591 0.6853 0.1776 0.028 Uiso 1 1 calc R
N1 N 0.1163(2) 0.68333(11) 0.02391(8) 0.0202(2) Uani 1 1 d .
H1 H -0.0348 0.7040 -0.0047 0.024 Uiso 1 1 calc R
O1 O 0.56460(17) 0.70656(9) -0.00511(7) 0.0247(2) Uani 1 1 d .
Cl1 Cl 0.03591(8) 0.34425(3) 0.47123(3) 0.03528(14) Uani 1 1 d .
loop_
_atom_site_aniso_label
_atom_site_aniso_U_11
_atom_site_aniso_U_22
_atom_site_aniso_U_33
_atom_site_aniso_U_23
_atom_site_aniso_U_13
_atom_site_aniso_U_12
C1 0.0167(6) 0.0194(6) 0.0205(6) -0.0071(5) -0.0025(5) -0.0020(5)
C2 0.0142(6) 0.0211(6) 0.0198(6) -0.0063(5) -0.0009(5) 0.0011(5)
C3 0.0182(6) 0.0242(7) 0.0250(7) -0.0074(5) -0.0039(5) -0.0011(5)
C4 0.0250(7) 0.0314(7) 0.0244(7) -0.0104(6) -0.0092(5) 0.0000(6)
C5 0.0274(7) 0.0307(7) 0.0189(7) -0.0039(6) -0.0064(5) 0.0023(6)
C6 0.0191(6) 0.0238(7) 0.0215(7) -0.0054(5) -0.0009(5) 0.0022(5)
C7 0.0273(7) 0.0257(7) 0.0231(7) -0.0004(6) -0.0008(5) 0.0000(6)
C8 0.0281(7) 0.0217(7) 0.0331(8) -0.0056(6) 0.0024(6) -0.0060(6)
C9 0.0257(7) 0.0271(7) 0.0284(7) -0.0121(6) -0.0011(5) -0.0052(6)
C10 0.0211(6) 0.0240(7) 0.0206(6) -0.0076(5) -0.0009(5) -0.0011(5)
C11 0.0156(6) 0.0212(6) 0.0194(6) -0.0068(5) -0.0002(5) 0.0016(5)
C12 0.0174(6) 0.0210(6) 0.0205(6) -0.0055(5) -0.0040(5) -0.0062(5)
C13 0.0204(6) 0.0210(6) 0.0260(7) -0.0059(5) -0.0009(5) -0.0040(5)
C14 0.0264(7) 0.0191(6) 0.0277(7) -0.0036(5) -0.0076(5) -0.0021(5)
C15 0.0319(7) 0.0212(7) 0.0196(7) -0.0040(5) -0.0063(5) -0.0090(5)
C16 0.0230(7) 0.0313(7) 0.0218(7) -0.0090(6) -0.0005(5) -0.0059(6)
C17 0.0182(6) 0.0276(7) 0.0237(7) -0.0065(6) -0.0047(5) -0.0020(5)
N1 0.0140(5) 0.0249(6) 0.0198(5) -0.0024(4) -0.0043(4) -0.0030(4)
O1 0.0153(5) 0.0302(5) 0.0248(5) -0.0007(4) -0.0054(4) -0.0042(4)
Cl1 0.0533(3) 0.0299(2) 0.01929(19) -0.00131(14) -0.00538(15) -0.00580(16)
loop_
_atom_type_symbol
_atom_type_description
_atom_type_scat_dispersion_real
_atom_type_scat_dispersion_imag
_atom_type_scat_source
C C 0.0033 0.0016 'International Tables Vol C Tables 4.2.6.8 and 6.1.1.4'
H H 0.0000 0.0000 'International Tables Vol C Tables 4.2.6.8 and 6.1.1.4'
N N 0.0061 0.0033 'International Tables Vol C Tables 4.2.6.8 and 6.1.1.4'
O O 0.0106 0.0060 'International Tables Vol C Tables 4.2.6.8 and 6.1.1.4'
Cl Cl 0.1484 0.1585 'International Tables Vol C Tables 4.2.6.8 and 6.1.1.4'
loop_
_geom_angle_atom_site_label_1
_geom_angle_atom_site_label_2
_geom_angle_atom_site_label_3
_geom_angle
O1 C1 N1 122.24(11)
O1 C1 C2 122.23(11)
N1 C1 C2 115.53(10)
C3 C2 C11 120.21(12)
C3 C2 C1 119.67(11)
C11 C2 C1 120.08(11)
C2 C3 C4 120.95(12)
C2 C3 H3 119.5
C4 C3 H3 119.5
C5 C4 C3 120.22(12)
C5 C4 H4 119.9
C3 C4 H4 119.9
C4 C5 C6 120.91(12)
C4 C5 H5 119.5
C6 C5 H5 119.5
C7 C6 C5 121.36(12)
C7 C6 C11 119.23(12)
C5 C6 C11 119.41(12)
C8 C7 C6 121.06(13)
C8 C7 H7 119.5
C6 C7 H7 119.5
C7 C8 C9 119.86(12)
C7 C8 H8 120.1
C9 C8 H8 120.1
C10 C9 C8 120.84(12)
C10 C9 H9 119.6
C8 C9 H9 119.6
C9 C10 C11 120.93(12)
C9 C10 H10 119.5
C11 C10 H10 119.5
C10 C11 C6 118.07(12)
C10 C11 C2 123.62(11)
C6 C11 C2 118.28(11)
C13 C12 C17 119.60(12)
C13 C12 N1 122.30(11)
C17 C12 N1 118.10(11)
C14 C13 C12 119.88(12)
C14 C13 H13 120.1
C12 C13 H13 120.1
C15 C14 C13 119.68(12)
C15 C14 H14 120.2
C13 C14 H14 120.2
C14 C15 C16 121.26(12)
C14 C15 Cl1 119.12(10)
C16 C15 Cl1 119.62(11)
C15 C16 C17 119.07(12)
C15 C16 H16 120.5
C17 C16 H16 120.5
C16 C17 C12 120.51(12)
C16 C17 H17 119.7
C12 C17 H17 119.7
C1 N1 C12 124.95(10)
C1 N1 H1 117.5
C12 N1 H1 117.5
loop_
_geom_bond_atom_site_label_1
_geom_bond_atom_site_label_2
_geom_bond_distance
C1 O1 1.2316(15)
C1 N1 1.3555(16)
C1 C2 1.4975(17)
C2 C3 1.3764(18)
C2 C11 1.4325(18)
C3 C4 1.4055(19)
C3 H3 0.9500
C4 C5 1.364(2)
C4 H4 0.9500
C5 C6 1.4189(19)
C5 H5 0.9500
C6 C7 1.4175(19)
C6 C11 1.4247(18)
C7 C8 1.365(2)
C7 H7 0.9500
C8 C9 1.407(2)
C8 H8 0.9500
C9 C10 1.3657(19)
C9 H9 0.9500
C10 C11 1.4227(18)
C10 H10 0.9500
C12 C13 1.3918(18)
C12 C17 1.3933(18)
C12 N1 1.4187(16)
C13 C14 1.3862(19)
C13 H13 0.9500
C14 C15 1.380(2)
C14 H14 0.9500
C15 C16 1.382(2)
C15 Cl1 1.7442(13)
C16 C17 1.3841(18)
C16 H16 0.9500
C17 H17 0.9500
N1 H1 0.8800
