#------------------------------------------------------------------------------
#$Date: 2016-03-26 12:42:33 +0200 (Sat, 26 Mar 2016) $
#$Revision: 180214 $
#$URL: svn://www.crystallography.net/cod/cif/7/11/00/7110076.cif $
#------------------------------------------------------------------------------
#
# This file is available in the Crystallography Open Database (COD),
# http://www.crystallography.net/
#
# All data on this site have been placed in the public domain by the
# contributors.
#
data_7110076
loop_
_publ_author_name
'Xiaoqiang Tong'
'Wenfu Yan'
'Jihong Yu'
'Ruren Xu'
_publ_section_title
;
 A chiral open-framework fluoroaluminophosphate with enantiomeric excess
 in the bulk product
;
_journal_name_full               Chem.Commun.
_journal_page_first              11287
_journal_paper_doi               10.1039/c3cc47241h
_journal_volume                  49
_journal_year                    2013
_chemical_absolute_configuration ad
_chemical_formula_sum            'C4 H22 Al6 F6 N3 O18 P3'
_chemical_formula_weight         769.04
_chemical_name_common            AlPO-JU89-4
_chemical_name_systematic
; 
 ? 
;
_space_group_IT_number           152
_symmetry_cell_setting           trigonal
_symmetry_space_group_name_Hall  'P 31 2"'
_symmetry_space_group_name_H-M   'P 31 2 1'
_atom_sites_solution_hydrogens   geom
_atom_sites_solution_primary     direct
_atom_sites_solution_secondary   difmap
_audit_creation_method           SHELXL-97
_cell_angle_alpha                90.00
_cell_angle_beta                 90.00
_cell_angle_gamma                120.00
_cell_formula_units_Z            1
_cell_length_a                   9.3392(3)
_cell_length_b                   9.3392(3)
_cell_length_c                   6.9942(4)
_cell_measurement_temperature    296(2)
_cell_volume                     528.31(4)
_computing_cell_refinement       'Bruker SMART'
_computing_data_collection       'Bruker SMART'
_computing_data_reduction        'Bruker SAINT'
_computing_molecular_graphics    'Bruker SHELXTL'
_computing_publication_material  'Bruker SHELXTL'
_computing_structure_refinement  'SHELXL-97 (Sheldrick, 1997)'
_computing_structure_solution    'SHELXS-97 (Sheldrick, 1990)'
_diffrn_ambient_temperature      296(2)
_diffrn_detector_area_resol_mean 5.0cm
_diffrn_measured_fraction_theta_full 1.000
_diffrn_measured_fraction_theta_max 1.000
_diffrn_measurement_device_type  'CCD area detector'
_diffrn_measurement_method       'phi and omega scans'
_diffrn_radiation_monochromator  graphite
_diffrn_radiation_source         'fine-focus sealed tube'
_diffrn_radiation_type           MoK\a
_diffrn_radiation_wavelength     0.71073
_diffrn_reflns_av_R_equivalents  0.0219
_diffrn_reflns_av_sigmaI/netI    0.0174
_diffrn_reflns_limit_h_max       12
_diffrn_reflns_limit_h_min       -9
_diffrn_reflns_limit_k_max       11
_diffrn_reflns_limit_k_min       -12
_diffrn_reflns_limit_l_max       9
_diffrn_reflns_limit_l_min       -8
_diffrn_reflns_number            3936
_diffrn_reflns_theta_full        28.32
_diffrn_reflns_theta_max         28.32
_diffrn_reflns_theta_min         2.52
_diffrn_standards_decay_%        none
_diffrn_standards_interval_count none
_diffrn_standards_interval_time  none
_diffrn_standards_number         none
_exptl_absorpt_coefficient_mu    0.685
_exptl_absorpt_correction_T_max  0.947
_exptl_absorpt_correction_T_min  0.937
_exptl_absorpt_correction_type   multi-scan
_exptl_absorpt_process_details   sadabs
_exptl_crystal_colour            Colorless
_exptl_crystal_density_diffrn    2.417
_exptl_crystal_density_method    'not measured'
_exptl_crystal_description       Prism
_exptl_crystal_F_000             388
_exptl_crystal_size_max          0.24
_exptl_crystal_size_mid          0.08
_exptl_crystal_size_min          0.08
_refine_diff_density_max         0.716
_refine_diff_density_min         -0.275
_refine_diff_density_rms         0.091
_refine_ls_abs_structure_details
'Flack H D (1983), Acta Cryst. A39, 876-881. 70 Friedel pairs'
_refine_ls_abs_structure_Flack   -0.08(19)
_refine_ls_extinction_method     none
_refine_ls_goodness_of_fit_ref   1.098
_refine_ls_hydrogen_treatment    mixed
_refine_ls_matrix_type           full
_refine_ls_number_parameters     66
_refine_ls_number_reflns         893
_refine_ls_number_restraints     0
_refine_ls_restrained_S_all      1.098
_refine_ls_R_factor_all          0.0271
_refine_ls_R_factor_gt           0.0262
_refine_ls_shift/su_max          0.000
_refine_ls_shift/su_mean         0.000
_refine_ls_structure_factor_coef Fsqd
_refine_ls_weighting_details
'calc w=1/[\s^2^(Fo^2^)+(0.0456P)^2^+0.3771P] where P=(Fo^2^+2Fc^2^)/3'
_refine_ls_weighting_scheme      calc
_refine_ls_wR_factor_gt          0.0728
_refine_ls_wR_factor_ref         0.0735
_reflns_number_gt                866
_reflns_number_total             893
_reflns_threshold_expression     >2sigma(I)
_cod_data_source_file            c3cc47241h.txt
_cod_data_source_block           4
_cod_original_sg_symbol_H-M      P3(1)21
_cod_database_code               7110076
loop_
_symmetry_equiv_pos_as_xyz
'x, y, z'
'-y, x-y, z+1/3'
'-x+y, -x, z+2/3'
'y, x, -z'
'x-y, -y, -z+2/3'
'-x, -x+y, -z+1/3'
loop_
_atom_site_label
_atom_site_type_symbol
_atom_site_fract_x
_atom_site_fract_y
_atom_site_fract_z
_atom_site_U_iso_or_equiv
_atom_site_adp_type
_atom_site_occupancy
_atom_site_symmetry_multiplicity
_atom_site_calc_flag
_atom_site_refinement_flags
P1 P 0.0000 0.44942(8) 0.1667 0.00836(18) Uani 1 2 d S
Al1 Al -0.35912(9) 0.16199(8) 0.22298(9) 0.00904(17) Uani 1 1 d .
F1 F -0.3178(2) 0.0000 0.3333 0.0139(4) Uani 1 2 d S
F2 F -0.5684(2) 0.0000 0.3333 0.0154(4) Uani 1 2 d S
O1 O -0.4289(2) 0.3013(2) 0.1268(2) 0.0122(3) Uani 1 1 d .
H1 H -0.4633 0.3510 0.2093 0.015 Uiso 1 1 d R
O2 O -0.1485(2) 0.2784(2) 0.1260(2) 0.0147(3) Uani 1 1 d .
O3 O -0.0327(2) 0.53317(19) 0.3364(2) 0.0123(3) Uani 1 1 d .
C1 C -0.7776(12) 0.1263(9) 0.4542(9) 0.0569(18) Uani 0.67 1 d P
N1 N -0.896(2) 0.0000 0.3333 0.382(19) Uani 1 2 d S
loop_
_atom_site_aniso_label
_atom_site_aniso_U_11
_atom_site_aniso_U_22
_atom_site_aniso_U_33
_atom_site_aniso_U_23
_atom_site_aniso_U_13
_atom_site_aniso_U_12
P1 0.0068(4) 0.0108(3) 0.0062(3) 0.00019(13) 0.0004(3) 0.00341(18)
Al1 0.0106(3) 0.0081(3) 0.0068(3) -0.0003(2) -0.0011(2) 0.0035(2)
F1 0.0146(7) 0.0122(9) 0.0140(9) 0.0020(7) 0.0010(4) 0.0061(5)
F2 0.0165(7) 0.0161(10) 0.0135(8) 0.0012(8) 0.0006(4) 0.0081(5)
O1 0.0200(8) 0.0139(8) 0.0079(6) -0.0006(6) 0.0005(6) 0.0124(6)
O2 0.0132(8) 0.0118(8) 0.0132(7) -0.0028(6) 0.0024(6) 0.0019(7)
O3 0.0117(7) 0.0140(8) 0.0085(6) -0.0021(6) 0.0016(5) 0.0045(7)
C1 0.093(6) 0.059(4) 0.038(3) -0.002(3) -0.008(3) 0.052(4)
N1 0.25(2) 0.33(3) 0.60(6) 0.19(4) 0.096(19) 0.163(15)
loop_
_atom_type_symbol
_atom_type_description
_atom_type_scat_dispersion_real
_atom_type_scat_dispersion_imag
_atom_type_scat_source
C C 0.0033 0.0016 'International Tables Vol C Tables 4.2.6.8 and 6.1.1.4'
H H 0.0000 0.0000 'International Tables Vol C Tables 4.2.6.8 and 6.1.1.4'
N N 0.0061 0.0033 'International Tables Vol C Tables 4.2.6.8 and 6.1.1.4'
O O 0.0106 0.0060 'International Tables Vol C Tables 4.2.6.8 and 6.1.1.4'
F F 0.0171 0.0103 'International Tables Vol C Tables 4.2.6.8 and 6.1.1.4'
Al Al 0.0645 0.0514 'International Tables Vol C Tables 4.2.6.8 and 6.1.1.4'
P P 0.1023 0.0942 'International Tables Vol C Tables 4.2.6.8 and 6.1.1.4'
loop_
_geom_angle_atom_site_label_1
_geom_angle_atom_site_label_2
_geom_angle_atom_site_label_3
_geom_angle
_geom_angle_site_symmetry_1
_geom_angle_site_symmetry_3
O2 P1 O2 107.56(15) . 6
O2 P1 O3 111.63(8) . .
O2 P1 O3 110.59(9) 6 .
O2 P1 O3 110.59(9) . 6
O2 P1 O3 111.63(8) 6 6
O3 P1 O3 104.90(13) . 6
O2 Al1 O1 95.69(8) . .
O2 Al1 O3 91.33(7) . 3_454
O1 Al1 O3 90.29(7) . 3_454
O2 Al1 O1 94.21(8) . 2_565
O1 Al1 O1 92.99(7) . 2_565
O3 Al1 O1 173.26(8) 3_454 2_565
O2 Al1 F1 92.15(8) . .
O1 Al1 F1 172.13(9) . .
O3 Al1 F1 88.83(6) 3_454 .
O1 Al1 F1 87.11(5) 2_565 .
O2 Al1 F2 166.87(8) . .
O1 Al1 F2 97.00(8) . .
O3 Al1 F2 85.24(6) 3_454 .
O1 Al1 F2 88.51(5) 2_565 .
F1 Al1 F2 75.13(7) . .
Al1 F1 Al1 106.18(11) . 5
Al1 F2 Al1 103.55(10) . 5
Al1 O1 Al1 138.67(9) . 3_454
P1 O2 Al1 133.86(11) . .
P1 O3 Al1 140.14(10) . 2_565
N1 C1 C1 105.5(10) . 4_466
C1 N1 C1 137.3(19) 5 .
loop_
_geom_bond_atom_site_label_1
_geom_bond_atom_site_label_2
_geom_bond_distance
_geom_bond_site_symmetry_2
P1 O2 1.5299(17) .
P1 O2 1.5299(17) 6
P1 O3 1.5338(16) .
P1 O3 1.5338(16) 6
Al1 O2 1.8363(18) .
Al1 O1 1.8490(16) .
Al1 O3 1.8627(15) 3_454
Al1 O1 1.8742(16) 2_565
Al1 F1 1.9017(15) .
Al1 F2 1.9356(14) .
F1 Al1 1.9017(15) 5
F2 Al1 1.9356(14) 5
O1 Al1 1.8742(16) 3_454
O3 Al1 1.8627(15) 2_565
C1 N1 1.424(10) .
C1 C1 1.681(15) 4_466
N1 C1 1.424(10) 5
