#------------------------------------------------------------------------------
#$Date: 2016-03-26 13:42:56 +0200 (Sat, 26 Mar 2016) $
#$Revision: 180233 $
#$URL: svn://www.crystallography.net/cod/cif/7/11/19/7111912.cif $
#------------------------------------------------------------------------------
#
# This file is available in the Crystallography Open Database (COD),
# http://www.crystallography.net/
#
# All data on this site have been placed in the public domain by the
# contributors.
#
data_7111912
loop_
_publ_author_name
'Ting Wu'
'Ling Pan'
'Xianxiu Xu'
'Qun Liu'
_publ_section_title
;
 Regiodivergent heterocyclization: a strategy for the synthesis of
 substituted pyrroles and furans using alpha-formyl ketene dithioacetals
 as common precursors
;
_journal_name_full               Chem.Commun.
_journal_page_first              1797
_journal_paper_doi               10.1039/c3cc48546c
_journal_volume                  50
_journal_year                    2014
_chemical_formula_moiety         'C16 H17 N O3 S'
_chemical_formula_sum            'C16 H17 N O3 S'
_chemical_formula_weight         303.37
_chemical_name_systematic
;
 ?
;
_space_group_IT_number           2
_symmetry_cell_setting           triclinic
_symmetry_space_group_name_Hall  '-P 1'
_symmetry_space_group_name_H-M   'P -1'
_atom_sites_solution_hydrogens   geom
_atom_sites_solution_primary     direct
_atom_sites_solution_secondary   difmap
_audit_creation_method           SHELXL-97
_cell_angle_alpha                76.657(5)
_cell_angle_beta                 81.203(6)
_cell_angle_gamma                78.138(5)
_cell_formula_units_Z            2
_cell_length_a                   8.094(2)
_cell_length_b                   9.747(3)
_cell_length_c                   10.514(3)
_cell_measurement_reflns_used    3015
_cell_measurement_temperature    293(2)
_cell_measurement_theta_max      26.0
_cell_measurement_theta_min      2.0
_cell_volume                     785.0(4)
_computing_cell_refinement       CrysAlis
_computing_data_collection       'CrysAlis (Oxford Diffraction, 2006)'
_computing_data_reduction        CrysAlis
_computing_structure_refinement  'SHELXL-97 (Sheldrick, 2008)'
_computing_structure_solution    'SHELXS-97 (Sheldrick, 2008)'
_diffrn_ambient_temperature      293(2)
_diffrn_measured_fraction_theta_full 0.989
_diffrn_measured_fraction_theta_max 0.976
_diffrn_measurement_device_type  'Oxford Diffraction Gemini R Ultra'
_diffrn_measurement_method       '\w scan'
_diffrn_radiation_monochromator  graphite
_diffrn_radiation_source         'fine-focus sealed tube'
_diffrn_radiation_type           MoK\a
_diffrn_radiation_wavelength     0.71073
_diffrn_reflns_av_R_equivalents  0.0173
_diffrn_reflns_av_sigmaI/netI    0.0365
_diffrn_reflns_limit_h_max       9
_diffrn_reflns_limit_h_min       -9
_diffrn_reflns_limit_k_max       12
_diffrn_reflns_limit_k_min       -11
_diffrn_reflns_limit_l_max       12
_diffrn_reflns_limit_l_min       -8
_diffrn_reflns_number            4281
_diffrn_reflns_theta_full        25.00
_diffrn_reflns_theta_max         26.05
_diffrn_reflns_theta_min         2.00
_exptl_absorpt_coefficient_mu    0.215
_exptl_absorpt_correction_T_max  0.979
_exptl_absorpt_correction_T_min  0.975
_exptl_absorpt_correction_type   multi-scan
_exptl_crystal_colour            colorless
_exptl_crystal_density_diffrn    1.283
_exptl_crystal_density_method    'not measured'
_exptl_crystal_description       needle
_exptl_crystal_F_000             320
_exptl_crystal_size_max          0.2
_exptl_crystal_size_mid          0.1
_exptl_crystal_size_min          0.1
_refine_diff_density_max         0.331
_refine_diff_density_min         -0.246
_refine_diff_density_rms         0.048
_refine_ls_extinction_method     none
_refine_ls_goodness_of_fit_ref   1.028
_refine_ls_hydrogen_treatment    mixed
_refine_ls_matrix_type           full
_refine_ls_number_parameters     194
_refine_ls_number_reflns         3015
_refine_ls_number_restraints     0
_refine_ls_restrained_S_all      1.028
_refine_ls_R_factor_all          0.0896
_refine_ls_R_factor_gt           0.0633
_refine_ls_shift/su_max          0.000
_refine_ls_shift/su_mean         0.000
_refine_ls_structure_factor_coef Fsqd
_refine_ls_weighting_details
'calc w=1/[\s^2^(Fo^2^)+(0.0742P)^2^+0.3726P] where P=(Fo^2^+2Fc^2^)/3'
_refine_ls_weighting_scheme      calc
_refine_ls_wR_factor_gt          0.1476
_refine_ls_wR_factor_ref         0.1675
_reflns_number_gt                2136
_reflns_number_total             3015
_reflns_threshold_expression     >2\s(I)
_cod_data_source_file            c3cc48546c.txt
_cod_data_source_block           5a
_cod_database_code               7111912
loop_
_symmetry_equiv_pos_as_xyz
'x, y, z'
'-x, -y, -z'
loop_
_atom_site_label
_atom_site_type_symbol
_atom_site_fract_x
_atom_site_fract_y
_atom_site_fract_z
_atom_site_U_iso_or_equiv
_atom_site_adp_type
_atom_site_occupancy
_atom_site_symmetry_multiplicity
_atom_site_calc_flag
_atom_site_refinement_flags
C1 C 0.9060(3) 0.3219(3) -0.2307(3) 0.0491(7) Uani 1 1 d .
C2 C 0.8779(4) 0.1997(3) -0.1387(3) 0.0558(7) Uani 1 1 d .
H2 H 0.8562 0.2036 -0.0500 0.067 Uiso 1 1 calc R
C3 C 0.8817(4) 0.0729(3) -0.1760(4) 0.0669(9) Uani 1 1 d .
H3 H 0.8633 -0.0082 -0.1127 0.080 Uiso 1 1 calc R
C4 C 0.9126(5) 0.0657(4) -0.3063(4) 0.0768(10) Uani 1 1 d .
H4 H 0.9152 -0.0200 -0.3319 0.092 Uiso 1 1 calc R
C5 C 0.9396(5) 0.1861(4) -0.3988(4) 0.0829(11) Uani 1 1 d .
H5 H 0.9596 0.1818 -0.4874 0.099 Uiso 1 1 calc R
C6 C 0.9375(5) 0.3131(4) -0.3618(3) 0.0701(9) Uani 1 1 d .
H6 H 0.9575 0.3935 -0.4255 0.084 Uiso 1 1 calc R
C7 C 0.8964(3) 0.4569(3) -0.1867(3) 0.0467(6) Uani 1 1 d .
C8 C 1.0058(3) 0.5566(3) -0.2078(3) 0.0477(7) Uani 1 1 d .
C9 C 0.9310(3) 0.6585(3) -0.1311(3) 0.0492(7) Uani 1 1 d .
H9 H 0.9758 0.7370 -0.1250 0.059 Uiso 1 1 calc R
C10 C 0.7812(3) 0.6223(3) -0.0673(3) 0.0478(7) Uani 1 1 d .
C11 C 0.6521(4) 0.6853(3) 0.0249(3) 0.0537(7) Uani 1 1 d .
C12 C 0.5794(5) 0.8515(4) 0.1643(4) 0.0791(11) Uani 1 1 d .
H12A H 0.4670 0.8831 0.1356 0.095 Uiso 1 1 calc R
H12B H 0.5722 0.7783 0.2440 0.095 Uiso 1 1 calc R
C13 C 0.6387(6) 0.9704(5) 0.1905(5) 0.1047(15) Uani 1 1 d .
H13A H 0.5611 1.0097 0.2572 0.157 Uiso 1 1 calc R
H13B H 0.6453 1.0427 0.1115 0.157 Uiso 1 1 calc R
H13C H 0.7491 0.9384 0.2204 0.157 Uiso 1 1 calc R
C14 C 1.1716(4) 0.5491(3) -0.2863(3) 0.0542(7) Uani 1 1 d .
C15 C 1.4764(5) 0.6376(4) -0.3853(4) 0.0887(12) Uani 1 1 d .
H15A H 1.5393 0.5450 -0.3470 0.106 Uiso 1 1 calc R
H15B H 1.4436 0.6303 -0.4681 0.106 Uiso 1 1 calc R
C16 C 1.5858(6) 0.7452(5) -0.4099(5) 0.1179(17) Uani 1 1 d .
H16A H 1.6838 0.7189 -0.4691 0.177 Uiso 1 1 calc R
H16B H 1.6213 0.7506 -0.3285 0.177 Uiso 1 1 calc R
H16C H 1.5242 0.8368 -0.4484 0.177 Uiso 1 1 calc R
N1 N 0.7632(3) 0.4995(2) -0.1023(2) 0.0505(6) Uani 1 1 d .
O1 O 0.5188(3) 0.6442(2) 0.0646(2) 0.0752(7) Uani 1 1 d .
O2 O 0.6967(3) 0.7924(2) 0.0623(2) 0.0608(6) Uani 1 1 d .
O3 O 1.2309(3) 0.4620(2) -0.3540(2) 0.0757(7) Uani 1 1 d .
S1 S 1.28632(11) 0.68205(10) -0.27495(10) 0.0742(3) Uani 1 1 d .
HN1 H 0.678(4) 0.458(4) -0.077(3) 0.074(11) Uiso 1 1 d .
loop_
_atom_site_aniso_label
_atom_site_aniso_U_11
_atom_site_aniso_U_22
_atom_site_aniso_U_33
_atom_site_aniso_U_23
_atom_site_aniso_U_13
_atom_site_aniso_U_12
C1 0.0503(16) 0.0449(15) 0.0548(18) -0.0172(12) -0.0020(13) -0.0092(12)
C2 0.0596(18) 0.0465(16) 0.0620(19) -0.0173(13) 0.0014(14) -0.0097(13)
C3 0.070(2) 0.0432(16) 0.087(3) -0.0212(16) 0.0062(18) -0.0108(14)
C4 0.088(3) 0.057(2) 0.097(3) -0.042(2) -0.006(2) -0.0136(18)
C5 0.116(3) 0.078(2) 0.067(2) -0.0386(19) -0.004(2) -0.023(2)
C6 0.099(3) 0.0585(19) 0.059(2) -0.0172(15) -0.0053(18) -0.0246(18)
C7 0.0518(16) 0.0421(14) 0.0477(16) -0.0136(12) -0.0029(12) -0.0088(12)
C8 0.0529(16) 0.0408(14) 0.0508(17) -0.0109(12) -0.0035(13) -0.0114(12)
C9 0.0559(17) 0.0388(14) 0.0564(18) -0.0136(12) -0.0050(13) -0.0132(12)
C10 0.0515(16) 0.0401(14) 0.0542(17) -0.0153(12) -0.0016(13) -0.0107(12)
C11 0.0554(17) 0.0448(15) 0.0635(19) -0.0172(13) -0.0007(14) -0.0124(13)
C12 0.075(2) 0.075(2) 0.096(3) -0.051(2) 0.0261(19) -0.0209(18)
C13 0.102(3) 0.112(3) 0.122(4) -0.080(3) 0.022(3) -0.031(3)
C14 0.0599(18) 0.0482(16) 0.0560(18) -0.0136(13) -0.0017(14) -0.0129(13)
C15 0.070(2) 0.098(3) 0.106(3) -0.044(2) 0.026(2) -0.031(2)
C16 0.102(3) 0.121(4) 0.138(4) -0.057(3) 0.056(3) -0.054(3)
N1 0.0533(14) 0.0446(13) 0.0575(15) -0.0172(11) 0.0013(12) -0.0151(11)
O1 0.0605(14) 0.0733(15) 0.1034(19) -0.0455(13) 0.0197(12) -0.0287(11)
O2 0.0602(12) 0.0553(12) 0.0748(14) -0.0347(10) 0.0122(10) -0.0184(10)
O3 0.0736(15) 0.0733(15) 0.0877(17) -0.0438(13) 0.0199(12) -0.0205(12)
S1 0.0673(6) 0.0764(6) 0.0900(7) -0.0400(5) 0.0184(5) -0.0321(4)
loop_
_atom_type_symbol
_atom_type_description
_atom_type_scat_dispersion_real
_atom_type_scat_dispersion_imag
_atom_type_scat_source
C C 0.0033 0.0016 'International Tables Vol C Tables 4.2.6.8 and 6.1.1.4'
H H 0.0000 0.0000 'International Tables Vol C Tables 4.2.6.8 and 6.1.1.4'
N N 0.0061 0.0033 'International Tables Vol C Tables 4.2.6.8 and 6.1.1.4'
O O 0.0106 0.0060 'International Tables Vol C Tables 4.2.6.8 and 6.1.1.4'
S S 0.1246 0.1234 'International Tables Vol C Tables 4.2.6.8 and 6.1.1.4'
loop_
_geom_angle_atom_site_label_1
_geom_angle_atom_site_label_2
_geom_angle_atom_site_label_3
_geom_angle
C6 C1 C2 118.1(3)
C6 C1 C7 122.4(3)
C2 C1 C7 119.4(3)
C3 C2 C1 121.2(3)
C3 C2 H2 119.4
C1 C2 H2 119.4
C4 C3 C2 120.1(3)
C4 C3 H3 120.0
C2 C3 H3 120.0
C3 C4 C5 119.4(3)
C3 C4 H4 120.3
C5 C4 H4 120.3
C4 C5 C6 120.7(3)
C4 C5 H5 119.6
C6 C5 H5 119.6
C5 C6 C1 120.4(3)
C5 C6 H6 119.8
C1 C6 H6 119.8
N1 C7 C8 106.9(2)
N1 C7 C1 119.2(2)
C8 C7 C1 133.8(3)
C7 C8 C9 106.8(2)
C7 C8 C14 126.3(2)
C9 C8 C14 126.7(2)
C10 C9 C8 108.1(2)
C10 C9 H9 125.9
C8 C9 H9 125.9
C9 C10 N1 107.3(2)
C9 C10 C11 133.0(2)
N1 C10 C11 119.6(2)
O1 C11 O2 123.4(3)
O1 C11 C10 123.9(3)
O2 C11 C10 112.7(2)
C13 C12 O2 109.5(3)
C13 C12 H12A 109.8
O2 C12 H12A 109.8
C13 C12 H12B 109.8
O2 C12 H12B 109.8
H12A C12 H12B 108.2
C12 C13 H13A 109.5
C12 C13 H13B 109.5
H13A C13 H13B 109.5
C12 C13 H13C 109.5
H13A C13 H13C 109.5
H13B C13 H13C 109.5
O3 C14 C8 125.2(3)
O3 C14 S1 120.8(2)
C8 C14 S1 114.0(2)
C16 C15 S1 111.8(3)
C16 C15 H15A 109.3
S1 C15 H15A 109.3
C16 C15 H15B 109.3
S1 C15 H15B 109.3
H15A C15 H15B 107.9
C15 C16 H16A 109.5
C15 C16 H16B 109.5
H16A C16 H16B 109.5
C15 C16 H16C 109.5
H16A C16 H16C 109.5
H16B C16 H16C 109.5
C7 N1 C10 110.7(2)
C7 N1 HN1 124(2)
C10 N1 HN1 125(2)
C11 O2 C12 115.4(2)
C14 S1 C15 99.98(16)
loop_
_geom_bond_atom_site_label_1
_geom_bond_atom_site_label_2
_geom_bond_distance
C1 C6 1.382(4)
C1 C2 1.385(4)
C1 C7 1.476(4)
C2 C3 1.374(4)
C2 H2 0.9300
C3 C4 1.370(5)
C3 H3 0.9300
C4 C5 1.373(5)
C4 H4 0.9300
C5 C6 1.376(5)
C5 H5 0.9300
C6 H6 0.9300
C7 N1 1.348(4)
C7 C8 1.404(4)
C8 C9 1.406(4)
C8 C14 1.462(4)
C9 C10 1.365(4)
C9 H9 0.9300
C10 N1 1.371(3)
C10 C11 1.453(4)
C11 O1 1.209(3)
C11 O2 1.328(3)
C12 C13 1.437(5)
C12 O2 1.461(4)
C12 H12A 0.9700
C12 H12B 0.9700
C13 H13A 0.9600
C13 H13B 0.9600
C13 H13C 0.9600
C14 O3 1.211(3)
C14 S1 1.777(3)
C15 C16 1.462(5)
C15 S1 1.820(4)
C15 H15A 0.9700
C15 H15B 0.9700
C16 H16A 0.9600
C16 H16B 0.9600
C16 H16C 0.9600
N1 HN1 0.85(3)
loop_
_geom_torsion_atom_site_label_1
_geom_torsion_atom_site_label_2
_geom_torsion_atom_site_label_3
_geom_torsion_atom_site_label_4
_geom_torsion
C6 C1 C2 C3 0.2(5)
C7 C1 C2 C3 178.4(3)
C1 C2 C3 C4 -0.4(5)
C2 C3 C4 C5 0.0(5)
C3 C4 C5 C6 0.6(6)
C4 C5 C6 C1 -0.8(6)
C2 C1 C6 C5 0.4(5)
C7 C1 C6 C5 -177.8(3)
C6 C1 C7 N1 130.7(3)
C2 C1 C7 N1 -47.5(4)
C6 C1 C7 C8 -53.6(5)
C2 C1 C7 C8 128.2(3)
N1 C7 C8 C9 0.4(3)
C1 C7 C8 C9 -175.7(3)
N1 C7 C8 C14 176.1(3)
C1 C7 C8 C14 0.0(5)
C7 C8 C9 C10 -0.6(3)
C14 C8 C9 C10 -176.3(3)
C8 C9 C10 N1 0.5(3)
C8 C9 C10 C11 179.1(3)
C9 C10 C11 O1 174.1(3)
N1 C10 C11 O1 -7.5(5)
C9 C10 C11 O2 -6.5(5)
N1 C10 C11 O2 171.9(2)
C7 C8 C14 O3 7.1(5)
C9 C8 C14 O3 -178.1(3)
C7 C8 C14 S1 -172.7(2)
C9 C8 C14 S1 2.2(4)
C8 C7 N1 C10 -0.1(3)
C1 C7 N1 C10 176.7(2)
C9 C10 N1 C7 -0.3(3)
C11 C10 N1 C7 -179.1(3)
O1 C11 O2 C12 4.9(5)
C10 C11 O2 C12 -174.5(3)
C13 C12 O2 C11 -177.2(3)
O3 C14 S1 C15 1.0(3)
C8 C14 S1 C15 -179.2(2)
C16 C15 S1 C14 171.7(3)
