#------------------------------------------------------------------------------
#$Date: 2016-03-26 13:50:45 +0200 (Sat, 26 Mar 2016) $
#$Revision: 180237 $
#$URL: svn://www.crystallography.net/cod/cif/7/11/23/7112398.cif $
#------------------------------------------------------------------------------
#
# This file is available in the Crystallography Open Database (COD),
# http://www.crystallography.net/
#
# All data on this site have been placed in the public domain by the
# contributors.
#
data_7112398
loop_
_publ_author_name
'Lusi, Matteo'
'Bernstein, Joel'
_publ_section_title
;
 On the propulsion mechanism of &quot;jumping&quot; crystals.
;
_journal_issue                   81
_journal_name_full
'Chemical communications (Cambridge, England)'
_journal_page_first              9293
_journal_page_last               9295
_journal_paper_doi               10.1039/c3cc45646c
_journal_volume                  49
_journal_year                    2013
_chemical_formula_sum            'C10 H8 Br2 N2 Zn'
_chemical_formula_weight         381.37
_chemical_name_common            1_173
_chemical_name_systematic
;
 ?
;
_space_group_IT_number           2
_symmetry_cell_setting           triclinic
_symmetry_space_group_name_Hall  '-P 1'
_symmetry_space_group_name_H-M   'P -1'
_atom_sites_solution_hydrogens   geom
_atom_sites_solution_primary     direct
_atom_sites_solution_secondary   difmap
_audit_creation_method           SHELXL-97
_cell_angle_alpha                113.807(7)
_cell_angle_beta                 95.380(7)
_cell_angle_gamma                95.722(6)
_cell_formula_units_Z            2
_cell_length_a                   7.8183(10)
_cell_length_b                   9.0188(12)
_cell_length_c                   9.2659(14)
_cell_measurement_temperature    172(2)
_cell_volume                     588.30(15)
_computing_cell_refinement       'APEX (Bruker)'
_computing_data_collection       'APEX (Bruker)'
_computing_data_reduction        SAINT
_computing_molecular_graphics    'X-Seed (Barbour,2001;Atwood&Barbour,2003)'
_computing_publication_material  'X-Seed (Barbour,2001;Atwood&Barbour,2003)'
_computing_structure_refinement  'SHELXL-97 (Sheldrick, 1997)'
_computing_structure_solution    'SHELXS-97 (Sheldrick, 1990)'
_diffrn_ambient_temperature      172(2)
_diffrn_measured_fraction_theta_full 0.735
_diffrn_measured_fraction_theta_max 0.735
_diffrn_radiation_monochromator  graphite
_diffrn_radiation_source         'fine-focus sealed tube'
_diffrn_radiation_type           MoK\a
_diffrn_radiation_wavelength     0.71073
_diffrn_reflns_av_R_equivalents  0.1637
_diffrn_reflns_av_sigmaI/netI    0.1170
_diffrn_reflns_limit_h_max       13
_diffrn_reflns_limit_h_min       -13
_diffrn_reflns_limit_k_max       15
_diffrn_reflns_limit_k_min       -15
_diffrn_reflns_limit_l_max       14
_diffrn_reflns_limit_l_min       -13
_diffrn_reflns_number            7771
_diffrn_reflns_theta_full        37.51
_diffrn_reflns_theta_max         37.51
_diffrn_reflns_theta_min         2.50
_exptl_absorpt_coefficient_mu    8.846
_exptl_absorpt_correction_T_max  0.2707
_exptl_absorpt_correction_T_min  0.2707
_exptl_absorpt_correction_type   multi-scan
_exptl_absorpt_process_details   sadabs
_exptl_crystal_colour            colourless
_exptl_crystal_density_diffrn    2.153
_exptl_crystal_density_method    'not measured'
_exptl_crystal_description       prism
_exptl_crystal_F_000             364
_exptl_crystal_size_max          0.20
_exptl_crystal_size_mid          0.20
_exptl_crystal_size_min          0.20
_refine_diff_density_max         4.639
_refine_diff_density_min         -4.096
_refine_diff_density_rms         0.601
_refine_ls_extinction_method     none
_refine_ls_goodness_of_fit_ref   1.695
_refine_ls_hydrogen_treatment    mixed
_refine_ls_matrix_type           full
_refine_ls_number_parameters     136
_refine_ls_number_reflns         4567
_refine_ls_number_restraints     0
_refine_ls_restrained_S_all      1.695
_refine_ls_R_factor_all          0.2166
_refine_ls_R_factor_gt           0.1618
_refine_ls_shift/su_max          0.000
_refine_ls_shift/su_mean         0.000
_refine_ls_structure_factor_coef Fsqd
_refine_ls_weighting_details
'calc w=1/[\s^2^(Fo^2^)+(0.2000P)^2^+0.0000P] where P=(Fo^2^+2Fc^2^)/3'
_refine_ls_weighting_scheme      calc
_refine_ls_wR_factor_gt          0.4651
_refine_ls_wR_factor_ref         0.4944
_reflns_number_gt                2713
_reflns_number_total             4567
_reflns_threshold_expression     >2sigma(I)
_cod_data_source_file            c3cc45646c.txt
_cod_data_source_block           C:1_173.CIF
_cod_original_cell_volume        588.30(14)
_cod_original_sg_symbol_H-M      P-1
_cod_database_code               7112398
loop_
_symmetry_equiv_pos_as_xyz
'x, y, z'
'-x, -y, -z'
loop_
_atom_site_label
_atom_site_type_symbol
_atom_site_fract_x
_atom_site_fract_y
_atom_site_fract_z
_atom_site_U_iso_or_equiv
_atom_site_adp_type
_atom_site_occupancy
_atom_site_symmetry_multiplicity
_atom_site_calc_flag
_atom_site_refinement_flags
Br1 Br 0.96060(19) 0.17964(19) 0.2102(2) 0.0325(5) Uani 1 1 d .
Zn1 Zn 1.2342(2) 0.2866(2) 0.1789(3) 0.0263(5) Uani 1 1 d .
Br2 Br 1.4743(2) 0.2155(2) 0.2927(3) 0.0353(5) Uani 1 1 d .
N8 N 1.2809(16) 0.3012(15) -0.0295(17) 0.024(2) Uani 1 1 d .
N2 N 1.2087(15) 0.5289(13) 0.2362(17) 0.024(2) Uani 1 1 d .
C7 C 1.2662(17) 0.4484(17) -0.032(2) 0.024(2) Uani 1 1 d .
C1 C 1.2220(17) 0.5750(16) 0.1185(19) 0.023(2) Uani 1 1 d .
C6 C 1.186(2) 0.7305(19) 0.126(3) 0.035(4) Uani 1 1 d .
H6 H 1.1822 0.7562 0.0362 0.042 Uiso 1 1 calc R
C9 C 1.3250(18) 0.1825(18) -0.156(2) 0.028(3) Uani 1 1 d .
H9 H 1.3334 0.0789 -0.1541 0.033 Uiso 1 1 calc R
C3 C 1.174(2) 0.6370(18) 0.376(2) 0.031(3) Uani 1 1 d .
H3 H 1.1675 0.6030 0.4599 0.037 Uiso 1 1 calc R
C12 C 1.288(2) 0.480(2) -0.167(2) 0.031(3) Uani 1 1 d .
H12 H 1.2683 0.5796 -0.1719 0.037 Uiso 1 1 calc R
C4 C 1.147(2) 0.795(2) 0.404(2) 0.032(3) Uani 1 1 d .
H4 H 1.1217 0.8681 0.5048 0.038 Uiso 1 1 calc R
C10 C 1.359(2) 0.206(2) -0.292(2) 0.035(4) Uani 1 1 d .
H10 H 1.3940 0.1224 -0.3807 0.042 Uiso 1 1 calc R
C11 C 1.341(3) 0.356(2) -0.289(3) 0.040(4) Uani 1 1 d .
H11 H 1.3658 0.3759 -0.3788 0.048 Uiso 1 1 calc R
C5 C 1.157(3) 0.843(2) 0.277(3) 0.037(4) Uani 1 1 d .
H5 H 1.1452 0.9518 0.2929 0.044 Uiso 1 1 calc R
loop_
_atom_site_aniso_label
_atom_site_aniso_U_11
_atom_site_aniso_U_22
_atom_site_aniso_U_33
_atom_site_aniso_U_23
_atom_site_aniso_U_13
_atom_site_aniso_U_12
Br1 0.0198(6) 0.0471(8) 0.0457(11) 0.0337(8) 0.0102(7) 0.0041(5)
Zn1 0.0193(7) 0.0358(8) 0.0354(11) 0.0262(7) 0.0063(7) 0.0041(5)
Br2 0.0206(7) 0.0541(9) 0.0438(11) 0.0327(8) 0.0032(7) 0.0094(6)
N8 0.017(5) 0.038(5) 0.020(6) 0.017(5) -0.008(5) -0.001(4)
N2 0.017(5) 0.029(5) 0.030(7) 0.019(5) 0.000(5) 0.004(3)
C7 0.012(4) 0.040(6) 0.024(7) 0.022(5) -0.011(5) -0.004(4)
C1 0.013(5) 0.035(6) 0.024(7) 0.018(5) -0.007(5) -0.002(4)
C6 0.034(8) 0.038(7) 0.051(12) 0.032(8) 0.014(8) 0.012(6)
C9 0.016(5) 0.039(6) 0.033(9) 0.022(6) -0.001(6) -0.001(4)
C3 0.035(8) 0.033(6) 0.034(9) 0.025(6) 0.004(7) 0.005(5)
C12 0.025(7) 0.050(8) 0.027(9) 0.026(7) 0.006(6) 0.003(5)
C4 0.026(7) 0.047(8) 0.030(9) 0.026(7) 0.000(7) 0.008(6)
C10 0.029(8) 0.053(8) 0.023(9) 0.017(7) 0.004(7) 0.001(6)
C11 0.032(8) 0.058(10) 0.039(12) 0.027(8) 0.011(9) 0.006(7)
C5 0.039(9) 0.037(7) 0.045(11) 0.025(7) 0.009(9) 0.009(6)
loop_
_atom_type_symbol
_atom_type_description
_atom_type_scat_dispersion_real
_atom_type_scat_dispersion_imag
_atom_type_scat_source
C C 0.0033 0.0016 'International Tables Vol C Tables 4.2.6.8 and 6.1.1.4'
H H 0.0000 0.0000 'International Tables Vol C Tables 4.2.6.8 and 6.1.1.4'
N N 0.0061 0.0033 'International Tables Vol C Tables 4.2.6.8 and 6.1.1.4'
Zn Zn 0.2839 1.4301 'International Tables Vol C Tables 4.2.6.8 and 6.1.1.4'
Br Br -0.2901 2.4595 'International Tables Vol C Tables 4.2.6.8 and 6.1.1.4'
loop_
_geom_angle_atom_site_label_1
_geom_angle_atom_site_label_2
_geom_angle_atom_site_label_3
_geom_angle
N8 Zn1 N2 80.0(5)
N8 Zn1 Br2 110.7(4)
N2 Zn1 Br2 121.2(4)
N8 Zn1 Br1 122.2(4)
N2 Zn1 Br1 102.1(3)
Br2 Zn1 Br1 115.94(8)
C9 N8 C7 119.5(14)
C9 N8 Zn1 126.1(10)
C7 N8 Zn1 114.3(10)
C1 N2 C3 119.0(11)
C1 N2 Zn1 114.7(10)
C3 N2 Zn1 126.3(9)
N8 C7 C12 122.3(15)
N8 C7 C1 115.2(13)
C12 C7 C1 122.5(13)
N2 C1 C6 123.6(15)
N2 C1 C7 115.6(12)
C6 C1 C7 120.6(14)
C5 C6 C1 115.2(16)
N8 C9 C10 121.9(14)
N2 C3 C4 123.9(15)
C11 C12 C7 115.3(15)
C3 C4 C5 116.8(17)
C11 C10 C9 116.4(17)
C12 C11 C10 124.4(18)
C6 C5 C4 120.9(14)
loop_
_geom_bond_atom_site_label_1
_geom_bond_atom_site_label_2
_geom_bond_distance
Br1 Zn1 2.3498(19)
Zn1 N8 2.051(13)
Zn1 N2 2.066(10)
Zn1 Br2 2.337(2)
N8 C9 1.33(2)
N8 C7 1.353(17)
N2 C1 1.323(19)
N2 C3 1.34(2)
C7 C12 1.41(2)
C7 C1 1.50(2)
C1 C6 1.433(18)
C6 C5 1.41(3)
C9 C10 1.40(2)
C3 C4 1.38(2)
C12 C11 1.36(3)
C4 C5 1.42(3)
C10 C11 1.37(3)
