#------------------------------------------------------------------------------
#$Date: 2016-03-26 13:50:45 +0200 (Sat, 26 Mar 2016) $
#$Revision: 180237 $
#$URL: svn://www.crystallography.net/cod/cif/7/11/23/7112399.cif $
#------------------------------------------------------------------------------
#
# This file is available in the Crystallography Open Database (COD),
# http://www.crystallography.net/
#
# All data on this site have been placed in the public domain by the
# contributors.
#
data_7112399
loop_
_publ_author_name
'Lusi, Matteo'
'Bernstein, Joel'
_publ_section_title
;
 On the propulsion mechanism of &quot;jumping&quot; crystals.
;
_journal_issue                   81
_journal_name_full
'Chemical communications (Cambridge, England)'
_journal_page_first              9293
_journal_page_last               9295
_journal_paper_doi               10.1039/c3cc45646c
_journal_volume                  49
_journal_year                    2013
_chemical_formula_sum            'C10 H8 Br2 N2 Zn'
_chemical_formula_weight         381.37
_chemical_name_common            1_193
_chemical_name_systematic
;
 ?
;
_space_group_IT_number           2
_symmetry_cell_setting           triclinic
_symmetry_space_group_name_Hall  '-P 1'
_symmetry_space_group_name_H-M   'P -1'
_atom_sites_solution_hydrogens   geom
_atom_sites_solution_primary     direct
_atom_sites_solution_secondary   difmap
_audit_creation_method           SHELXL-97
_cell_angle_alpha                113.539(6)
_cell_angle_beta                 95.267(6)
_cell_angle_gamma                95.631(5)
_cell_formula_units_Z            2
_cell_length_a                   7.8185(9)
_cell_length_b                   9.0276(10)
_cell_length_c                   9.2664(12)
_cell_measurement_temperature    191(2)
_cell_volume                     590.54(13)
_computing_cell_refinement       'APEX (Bruker)'
_computing_data_collection       'APEX (Bruker)'
_computing_data_reduction        SAINT
_computing_molecular_graphics    'X-Seed (Barbour,2001;Atwood&Barbour,2003)'
_computing_publication_material  'X-Seed (Barbour,2001;Atwood&Barbour,2003)'
_computing_structure_refinement  'SHELXL-97 (Sheldrick, 1997)'
_computing_structure_solution    'SHELXS-97 (Sheldrick, 1990)'
_diffrn_ambient_temperature      191(2)
_diffrn_measured_fraction_theta_full 0.729
_diffrn_measured_fraction_theta_max 0.729
_diffrn_radiation_monochromator  graphite
_diffrn_radiation_source         'fine-focus sealed tube'
_diffrn_radiation_type           MoK\a
_diffrn_radiation_wavelength     0.71073
_diffrn_reflns_av_R_equivalents  0.1681
_diffrn_reflns_av_sigmaI/netI    0.1132
_diffrn_reflns_limit_h_max       13
_diffrn_reflns_limit_h_min       -13
_diffrn_reflns_limit_k_max       15
_diffrn_reflns_limit_k_min       -15
_diffrn_reflns_limit_l_max       14
_diffrn_reflns_limit_l_min       -13
_diffrn_reflns_number            8008
_diffrn_reflns_theta_full        38.05
_diffrn_reflns_theta_max         38.05
_diffrn_reflns_theta_min         2.49
_exptl_absorpt_coefficient_mu    8.812
_exptl_absorpt_correction_T_max  0.2717
_exptl_absorpt_correction_T_min  0.2717
_exptl_absorpt_correction_type   multi-scan
_exptl_absorpt_process_details   sadabs
_exptl_crystal_colour            colourless
_exptl_crystal_density_diffrn    2.145
_exptl_crystal_density_method    'not measured'
_exptl_crystal_description       prism
_exptl_crystal_F_000             364
_exptl_crystal_size_max          0.20
_exptl_crystal_size_mid          0.20
_exptl_crystal_size_min          0.20
_refine_diff_density_max         4.328
_refine_diff_density_min         -4.089
_refine_diff_density_rms         0.556
_refine_ls_extinction_method     none
_refine_ls_goodness_of_fit_ref   1.589
_refine_ls_hydrogen_treatment    mixed
_refine_ls_matrix_type           full
_refine_ls_number_parameters     136
_refine_ls_number_reflns         4698
_refine_ls_number_restraints     0
_refine_ls_restrained_S_all      1.589
_refine_ls_R_factor_all          0.2056
_refine_ls_R_factor_gt           0.1525
_refine_ls_shift/su_max          0.000
_refine_ls_shift/su_mean         0.000
_refine_ls_structure_factor_coef Fsqd
_refine_ls_weighting_details
'calc w=1/[\s^2^(Fo^2^)+(0.2000P)^2^+0.0000P] where P=(Fo^2^+2Fc^2^)/3'
_refine_ls_weighting_scheme      calc
_refine_ls_wR_factor_gt          0.4581
_refine_ls_wR_factor_ref         0.4836
_reflns_number_gt                2633
_reflns_number_total             4698
_reflns_threshold_expression     >2sigma(I)
_cod_data_source_file            c3cc45646c.txt
_cod_data_source_block           C:\1_193.CIF
_cod_original_cell_volume        590.54(12)
_cod_original_sg_symbol_H-M      P-1
_cod_database_code               7112399
loop_
_symmetry_equiv_pos_as_xyz
'x, y, z'
'-x, -y, -z'
loop_
_atom_site_label
_atom_site_type_symbol
_atom_site_fract_x
_atom_site_fract_y
_atom_site_fract_z
_atom_site_U_iso_or_equiv
_atom_site_adp_type
_atom_site_occupancy
_atom_site_symmetry_multiplicity
_atom_site_calc_flag
_atom_site_refinement_flags
Br1 Br 0.96239(18) 0.18056(17) 0.2121(2) 0.0387(5) Uani 1 1 d .
Zn1 Zn 1.2349(2) 0.28687(18) 0.1794(2) 0.0312(4) Uani 1 1 d .
Br2 Br 1.4758(2) 0.2159(2) 0.2928(2) 0.0415(5) Uani 1 1 d .
N8 N 1.2813(15) 0.3006(14) -0.0284(16) 0.031(2) Uani 1 1 d .
N2 N 1.2109(15) 0.5285(13) 0.2348(16) 0.029(2) Uani 1 1 d .
C7 C 1.2666(15) 0.4473(16) -0.0334(18) 0.029(2) Uani 1 1 d .
C1 C 1.2226(16) 0.5731(15) 0.1164(18) 0.030(2) Uani 1 1 d .
C6 C 1.189(2) 0.7290(16) 0.126(2) 0.039(3) Uani 1 1 d .
H6 H 1.1855 0.7557 0.0361 0.046 Uiso 1 1 calc R
C9 C 1.3263(18) 0.1818(17) -0.153(2) 0.034(3) Uani 1 1 d .
H9 H 1.3377 0.0793 -0.1494 0.040 Uiso 1 1 calc R
C3 C 1.176(2) 0.6369(15) 0.375(2) 0.035(3) Uani 1 1 d .
H3 H 1.1690 0.6034 0.4596 0.042 Uiso 1 1 calc R
C12 C 1.288(2) 0.478(2) -0.170(2) 0.038(3) Uani 1 1 d .
H12 H 1.2678 0.5776 -0.1768 0.045 Uiso 1 1 calc R
C4 C 1.149(2) 0.7930(18) 0.401(2) 0.037(3) Uani 1 1 d .
H4 H 1.1233 0.8659 0.5011 0.044 Uiso 1 1 calc R
C10 C 1.358(2) 0.207(2) -0.292(2) 0.043(4) Uani 1 1 d .
H10 H 1.3900 0.1237 -0.3819 0.051 Uiso 1 1 calc R
C11 C 1.340(2) 0.357(2) -0.289(3) 0.046(4) Uani 1 1 d .
H11 H 1.3668 0.3767 -0.3780 0.055 Uiso 1 1 calc R
C5 C 1.160(2) 0.8410(18) 0.276(2) 0.043(4) Uani 1 1 d .
H5 H 1.1479 0.9502 0.2929 0.052 Uiso 1 1 calc R
loop_
_atom_site_aniso_label
_atom_site_aniso_U_11
_atom_site_aniso_U_22
_atom_site_aniso_U_33
_atom_site_aniso_U_23
_atom_site_aniso_U_13
_atom_site_aniso_U_12
Br1 0.0251(6) 0.0526(8) 0.0561(11) 0.0389(7) 0.0129(7) 0.0058(5)
Zn1 0.0241(7) 0.0402(7) 0.0428(11) 0.0300(7) 0.0083(7) 0.0060(5)
Br2 0.0262(7) 0.0604(9) 0.0525(11) 0.0372(8) 0.0051(7) 0.0117(5)
N8 0.023(5) 0.046(5) 0.028(6) 0.020(5) 0.002(5) 0.002(4)
N2 0.025(5) 0.038(5) 0.034(7) 0.024(4) 0.004(5) 0.008(3)
C7 0.013(4) 0.048(6) 0.028(7) 0.023(5) -0.010(4) -0.003(4)
C1 0.022(5) 0.039(5) 0.031(7) 0.022(5) -0.007(5) -0.001(4)
C6 0.041(7) 0.035(6) 0.052(10) 0.030(6) 0.010(7) 0.010(5)
C9 0.024(5) 0.043(6) 0.037(8) 0.020(6) 0.005(6) 0.000(4)
C3 0.045(8) 0.034(5) 0.033(8) 0.024(5) 0.003(6) 0.005(5)
C12 0.036(7) 0.059(8) 0.029(8) 0.030(6) 0.008(6) 0.002(6)
C4 0.034(7) 0.045(6) 0.038(9) 0.026(6) -0.004(6) 0.007(5)
C10 0.046(9) 0.054(7) 0.031(8) 0.019(6) 0.015(7) 0.006(6)
C11 0.037(8) 0.070(9) 0.049(11) 0.041(8) 0.018(8) 0.009(7)
C5 0.048(9) 0.041(6) 0.053(11) 0.029(7) 0.013(8) 0.013(6)
loop_
_atom_type_symbol
_atom_type_description
_atom_type_scat_dispersion_real
_atom_type_scat_dispersion_imag
_atom_type_scat_source
C C 0.0033 0.0016 'International Tables Vol C Tables 4.2.6.8 and 6.1.1.4'
H H 0.0000 0.0000 'International Tables Vol C Tables 4.2.6.8 and 6.1.1.4'
N N 0.0061 0.0033 'International Tables Vol C Tables 4.2.6.8 and 6.1.1.4'
Zn Zn 0.2839 1.4301 'International Tables Vol C Tables 4.2.6.8 and 6.1.1.4'
Br Br -0.2901 2.4595 'International Tables Vol C Tables 4.2.6.8 and 6.1.1.4'
loop_
_geom_angle_atom_site_label_1
_geom_angle_atom_site_label_2
_geom_angle_atom_site_label_3
_geom_angle
N8 Zn1 N2 79.9(5)
N8 Zn1 Br2 110.4(3)
N2 Zn1 Br2 120.9(4)
N8 Zn1 Br1 122.3(4)
N2 Zn1 Br1 102.7(3)
Br2 Zn1 Br1 115.97(8)
C9 N8 C7 119.5(13)
C9 N8 Zn1 125.6(10)
C7 N8 Zn1 114.9(10)
C1 N2 C3 119.3(11)
C1 N2 Zn1 114.7(10)
C3 N2 Zn1 125.9(9)
N8 C7 C12 122.9(14)
N8 C7 C1 114.3(12)
C12 C7 C1 122.8(12)
N2 C1 C6 122.9(14)
N2 C1 C7 116.0(11)
C6 C1 C7 121.0(13)
C5 C6 C1 115.6(14)
N8 C9 C10 120.4(14)
N2 C3 C4 123.2(14)
C11 C12 C7 114.7(15)
C3 C4 C5 117.9(16)
C11 C10 C9 116.9(15)
C12 C11 C10 125.3(17)
C4 C5 C6 120.7(13)
loop_
_geom_bond_atom_site_label_1
_geom_bond_atom_site_label_2
_geom_bond_distance
Br1 Zn1 2.3456(18)
Zn1 N8 2.041(13)
Zn1 N2 2.064(10)
Zn1 Br2 2.340(2)
N8 C9 1.327(19)
N8 C7 1.359(17)
N2 C1 1.318(19)
N2 C3 1.35(2)
C7 C12 1.43(2)
C7 C1 1.50(2)
C1 C6 1.429(16)
C6 C5 1.41(3)
C9 C10 1.44(2)
C3 C4 1.372(18)
C12 C11 1.33(3)
C4 C5 1.39(2)
C10 C11 1.36(2)
