#------------------------------------------------------------------------------
#$Date: 2016-03-26 14:01:31 +0200 (Sat, 26 Mar 2016) $
#$Revision: 180244 $
#$URL: svn://www.crystallography.net/cod/cif/7/11/30/7113088.cif $
#------------------------------------------------------------------------------
#
# This file is available in the Crystallography Open Database (COD),
# http://www.crystallography.net/
#
# All data on this site have been placed in the public domain by the
# contributors.
#
data_7113088
loop_
_publ_author_name
'Shin, Dae-Seop'
'Masciocchi, Daniela'
'Gelain, Arianna'
'Villa, Stefania'
'Barlocco, Daniela'
'Meneghetti, Fiorella'
'Pedretti, Alessandro'
'Han, Young-Min'
'Han, Dong Cho'
'Kwon, Byoung-Mog'
'Legnani, Laura'
'Toma, Lucio'
_publ_section_title
;
 Synthesis, modeling, and crystallographic study of
 3,4-disubstituted-1,2,5-oxadiazoles and evaluation of their ability to
 decrease STAT3 activity
;
_journal_issue                   2
_journal_name_full               MedChemComm
_journal_page_first              156
_journal_paper_doi               10.1039/c0md00057d
_journal_volume                  1
_journal_year                    2010
_chemical_formula_sum            'C10 H11 N3 O3 S'
_chemical_formula_weight         253.28
_chemical_name_common            md34
_chemical_name_systematic
;
?
;
_space_group_IT_number           2
_symmetry_space_group_name_Hall  '-P 1'
_symmetry_space_group_name_H-M   'P -1'
_atom_sites_solution_hydrogens   geom
_atom_sites_solution_primary     direct
_atom_sites_solution_secondary   difmap
_audit_creation_method           SHELXL-97
_cell_angle_alpha                70.085(9)
_cell_angle_beta                 86.169(9)
_cell_angle_gamma                74.027(9)
_cell_formula_units_Z            2
_cell_length_a                   5.589(2)
_cell_length_b                   10.096(2)
_cell_length_c                   10.981(2)
_cell_measurement_temperature    293(2)
_cell_volume                     559.8(3)
_computing_structure_refinement  'SHELXL-97 (Sheldrick, 1997)'
_diffrn_ambient_temperature      293(2)
_diffrn_measured_fraction_theta_full 0.994
_diffrn_measured_fraction_theta_max 0.994
_diffrn_radiation_monochromator  graphite
_diffrn_radiation_source         'fine-focus sealed tube'
_diffrn_radiation_type           MoK\a
_diffrn_radiation_wavelength     0.71073
_diffrn_reflns_av_R_equivalents  0.0868
_diffrn_reflns_av_sigmaI/netI    0.1677
_diffrn_reflns_limit_h_max       7
_diffrn_reflns_limit_h_min       -7
_diffrn_reflns_limit_k_max       12
_diffrn_reflns_limit_k_min       -12
_diffrn_reflns_limit_l_max       13
_diffrn_reflns_limit_l_min       -1
_diffrn_reflns_number            2803
_diffrn_reflns_theta_full        26.99
_diffrn_reflns_theta_max         26.99
_diffrn_reflns_theta_min         2.23
_exptl_absorpt_coefficient_mu    0.289
_exptl_crystal_density_diffrn    1.502
_exptl_crystal_density_method    'not measured'
_exptl_crystal_F_000             264
_exptl_crystal_size_max          0.14
_exptl_crystal_size_mid          0.15
_exptl_crystal_size_min          0.16
_refine_diff_density_max         0.529
_refine_diff_density_min         -0.407
_refine_diff_density_rms         0.081
_refine_ls_extinction_method     none
_refine_ls_goodness_of_fit_ref   0.944
_refine_ls_hydrogen_treatment    mixed
_refine_ls_matrix_type           full
_refine_ls_number_parameters     216
_refine_ls_number_reflns         2420
_refine_ls_number_restraints     0
_refine_ls_restrained_S_all      0.944
_refine_ls_R_factor_all          0.1945
_refine_ls_R_factor_gt           0.0542
_refine_ls_shift/su_max          2.569
_refine_ls_shift/su_mean         0.028
_refine_ls_structure_factor_coef Fsqd
_refine_ls_weighting_details
'calc w=1/[\s^2^(Fo^2^)+(0.0947P)^2^+0.0000P] where P=(Fo^2^+2Fc^2^)/3'
_refine_ls_weighting_scheme      calc
_refine_ls_wR_factor_gt          0.1300
_refine_ls_wR_factor_ref         0.1784
_reflns_number_gt                1023
_reflns_number_total             2420
_reflns_threshold_expression     >2sigma(I)
_cod_data_source_file            c0md00057d.txt
_cod_data_source_block           md34
_cod_original_cell_volume        559.9(3)
_cod_database_code               7113088
loop_
_symmetry_equiv_pos_as_xyz
'x, y, z'
'-x, -y, -z'
loop_
_atom_site_label
_atom_site_type_symbol
_atom_site_fract_x
_atom_site_fract_y
_atom_site_fract_z
_atom_site_U_iso_or_equiv
_atom_site_adp_type
_atom_site_occupancy
_atom_site_symmetry_multiplicity
_atom_site_calc_flag
_atom_site_refinement_flags
S1 S 0.1580(2) 0.20144(12) 0.89492(11) 0.0294(5) Uani 0.94(5) 1 d P
O3 O 0.3801(6) 0.2282(3) 0.8337(3) 0.0429(15) Uani 0.98(6) 1 d P
O2 O 0.0315(7) 0.1208(4) 0.8519(3) 0.0513(16) Uani 1.00(6) 1 d .
N3 N 0.2223(8) 0.1076(5) 1.0492(4) 0.044(2) Uani 1.00(6) 1 d .
O1 O 0.6296(8) 0.2162(5) 1.1945(4) 0.064(2) Uani 0.93(5) 1 d P
N2 N 0.5070(8) 0.2265(5) 1.0847(4) 0.051(2) Uiso 0.97(6) 1 d P
N1 N 0.5625(9) 0.1163(5) 1.3035(4) 0.051(2) Uani 0.96(5) 1 d P
C1 C 0.4052(9) 0.0672(5) 1.2635(4) 0.0366(19) Uiso 1.00(6) 1 d .
C2 C 0.3705(9) 0.1349(5) 1.1267(4) 0.0332(19) Uani 0.97(6) 1 d P
C5 C -0.0834(9) 0.4841(5) 0.7631(5) 0.0375(19) Uani 0.99(6) 1 d P
C3 C 0.2803(15) -0.0387(8) 1.3517(6) 0.050(3) Uani 0.99(7) 1 d P
C6 C -0.2584(11) 0.4955(6) 0.6754(6) 0.048(2) Uani 1.00(6) 1 d P
H6 H -0.362(13) 0.427(8) 0.701(6) 0.04(3) Uiso 0.73(18) 1 d P
C10 C 0.0652(12) 0.5792(5) 0.7301(6) 0.043(3) Uani 1.00(6) 1 d P
H10 H 0.181(12) 0.567(6) 0.792(6) 0.05(3) Uiso 1.0(2) 1 d .
C4 C -0.0510(12) 0.3697(5) 0.8954(5) 0.038(3) Uani 0.93(6) 1 d P
H4A H 0.051(15) 0.386(8) 0.960(9) 0.11(5) Uiso 1.0(3) 1 d .
H4B H -0.201(12) 0.344(6) 0.922(5) 0.05(3) Uiso 0.96(19) 1 d P
C9 C 0.0402(12) 0.6843(6) 0.6076(6) 0.052(3) Uani 1.00(6) 1 d .
H9 H 0.161(14) 0.743(8) 0.584(6) 0.04(3) Uiso 0.72(19) 1 d P
C7 C -0.2809(13) 0.6010(6) 0.5533(7) 0.057(3) Uani 0.98(6) 1 d P
H7 H -0.414(16) 0.612(8) 0.491(8) 0.09(4) Uiso 1.0(2) 1 d .
C8 C -0.1319(12) 0.6937(6) 0.5208(7) 0.054(3) Uani 0.99(6) 1 d P
H8 H -0.153(15) 0.757(11) 0.441(11) 0.11(5) Uiso 1.0(3) 1 d .
H3 H 0.169(12) 0.025(9) 1.076(6) 0.01(3) Uiso 0.60(16) 1 d P
H31 H 0.351(10) -0.062(5) 1.436(7) 0.03(2) Uiso 0.84(18) 1 d P
H32 H 0.305(10) -0.126(8) 1.330(5) 0.04(3) Uiso 0.9(2) 1 d P
H33 H 0.11(2) -0.005(10) 1.326(9) 0.12(5) Uiso 1.0(3) 1 d .
loop_
_atom_site_aniso_label
_atom_site_aniso_U_11
_atom_site_aniso_U_22
_atom_site_aniso_U_33
_atom_site_aniso_U_23
_atom_site_aniso_U_13
_atom_site_aniso_U_12
S1 0.0403(8) 0.0243(6) 0.0248(7) -0.0059(4) 0.0083(5) -0.0151(5)
O3 0.040(2) 0.041(2) 0.042(2) -0.0083(16) 0.0136(15) -0.0126(16)
O2 0.076(3) 0.043(2) 0.041(2) -0.0094(16) -0.0012(18) -0.032(2)
N3 0.054(3) 0.041(3) 0.038(3) -0.004(2) 0.000(2) -0.025(2)
O1 0.085(4) 0.087(4) 0.046(3) -0.023(2) 0.009(2) -0.064(3)
N1 0.058(4) 0.063(3) 0.045(3) -0.024(2) 0.007(2) -0.029(3)
C2 0.040(3) 0.034(3) 0.034(3) -0.015(2) 0.007(2) -0.021(2)
C5 0.039(3) 0.026(3) 0.046(3) -0.012(2) 0.016(2) -0.009(2)
C3 0.071(6) 0.049(5) 0.027(4) -0.003(3) 0.002(3) -0.026(4)
C6 0.043(4) 0.039(3) 0.065(4) -0.017(3) -0.002(3) -0.014(2)
C10 0.049(4) 0.030(3) 0.051(4) -0.012(2) 0.003(3) -0.016(2)
C4 0.045(5) 0.033(3) 0.037(3) -0.016(2) 0.019(3) -0.014(2)
C9 0.050(4) 0.034(3) 0.065(5) -0.009(3) 0.018(3) -0.012(3)
C7 0.059(5) 0.045(4) 0.057(5) -0.011(3) -0.009(3) -0.005(3)
C8 0.069(5) 0.031(4) 0.046(5) -0.002(3) 0.008(3) -0.006(3)
loop_
_atom_type_symbol
_atom_type_description
_atom_type_scat_dispersion_real
_atom_type_scat_dispersion_imag
_atom_type_scat_source
C C 0.0033 0.0016 'International Tables Vol C Tables 4.2.6.8 and 6.1.1.4'
H H 0.0000 0.0000 'International Tables Vol C Tables 4.2.6.8 and 6.1.1.4'
N N 0.0061 0.0033 'International Tables Vol C Tables 4.2.6.8 and 6.1.1.4'
O O 0.0106 0.0060 'International Tables Vol C Tables 4.2.6.8 and 6.1.1.4'
S S 0.1246 0.1234 'International Tables Vol C Tables 4.2.6.8 and 6.1.1.4'
loop_
_geom_angle_atom_site_label_1
_geom_angle_atom_site_label_2
_geom_angle_atom_site_label_3
_geom_angle
O2 S1 O3 119.0(2)
O2 S1 N3 104.6(2)
O3 S1 N3 108.7(2)
O2 S1 C4 110.1(3)
O3 S1 C4 109.3(2)
N3 S1 C4 103.9(3)
C2 N3 S1 125.0(4)
N1 O1 N2 110.7(4)
C2 N2 O1 104.8(4)
C1 N1 O1 105.9(4)
N1 C1 C2 109.1(4)
N1 C1 C3 122.9(5)
C2 C1 C3 128.0(5)
N2 C2 N3 124.4(4)
N2 C2 C1 109.5(4)
N3 C2 C1 126.1(4)
C6 C5 C10 119.9(5)
C6 C5 C4 121.0(5)
C10 C5 C4 119.1(5)
C5 C6 C7 119.5(6)
C5 C10 C9 119.8(6)
C5 C4 S1 111.7(4)
C8 C9 C10 119.9(6)
C8 C7 C6 120.3(7)
C9 C8 C7 120.5(6)
loop_
_geom_bond_atom_site_label_1
_geom_bond_atom_site_label_2
_geom_bond_distance
S1 O2 1.417(4)
S1 O3 1.420(3)
S1 N3 1.642(4)
S1 C4 1.778(5)
N3 C2 1.367(6)
O1 N1 1.384(5)
O1 N2 1.385(6)
N2 C2 1.304(6)
N1 C1 1.285(6)
C1 C2 1.424(6)
C1 C3 1.478(7)
C5 C6 1.373(7)
C5 C10 1.380(7)
C5 C4 1.502(7)
C6 C7 1.387(9)
C10 C9 1.388(8)
C9 C8 1.362(9)
C7 C8 1.363(9)
