#------------------------------------------------------------------------------
#$Date: 2016-02-16 03:10:39 +0200 (Tue, 16 Feb 2016) $
#$Revision: 176453 $
#$URL: svn://www.crystallography.net/cod/cif/7/11/51/7115128.cif $
#------------------------------------------------------------------------------
#
# This file is available in the Crystallography Open Database (COD),
# http://www.crystallography.net/
#
# All data on this site have been placed in the public domain by the
# contributors.
#
data_7115128
loop_
_publ_author_name
'K\'alm\'an, Alajos'
'F\'abi\'an, L\'aszl\'o'
'Argay, Gyula'
_publ_section_title
;
 Supramolecular similarities between a diastereomer pair and their
 truncated derivative: common tetrameric synthon and isostructurality
;
_journal_issue                   22
_journal_name_full               'Chemical Communications'
_journal_page_first              2255
_journal_paper_doi               10.1039/b005422o
_journal_year                    2000
_chemical_formula_sum            'C6 H11 N O2'
_chemical_formula_weight         129.16
_chemical_name_systematic
;
 cis(1R*,2S*)-2-hydroxy-1-cyclopentanecarboxamide
;
_space_group_IT_number           14
_symmetry_cell_setting           monoclinic
_symmetry_space_group_name_Hall  '-P 2ybc'
_symmetry_space_group_name_H-M   'P 1 21/c 1'
_atom_sites_solution_hydrogens   geom
_atom_sites_solution_primary     direct
_atom_sites_solution_secondary   difmap
_audit_creation_method           SHELXL-97
_cell_angle_alpha                90.00
_cell_angle_beta                 103.70(3)
_cell_angle_gamma                90.00
_cell_formula_units_Z            4
_cell_length_a                   11.693(2)
_cell_length_b                   7.225(1)
_cell_length_c                   7.902(2)
_cell_measurement_reflns_used    25
_cell_measurement_temperature    293(2)
_cell_measurement_theta_max      29.89
_cell_measurement_theta_min      26.08
_cell_volume                     648.6(2)
_computing_cell_refinement       'CAD4 Express'
_computing_data_collection       'CAD4 Express'
_computing_data_reduction        'XCAD4 (Harms 1996)'
_computing_molecular_graphics    'PLUTO in CSD(Allen F.H & Kennard O.(1993))'
_computing_structure_refinement  'SHELXL-97 (Sheldrick, 1997)'
_computing_structure_solution    'SHELXS-97 (Sheldrick, 1990)'
_diffrn_ambient_temperature      293(2)
_diffrn_measured_fraction_theta_full 0.957
_diffrn_measured_fraction_theta_max 0.957
_diffrn_measurement_device_type  'Enraf-Nonius CAD4'
_diffrn_measurement_method       \w--2\q
_diffrn_radiation_monochromator  graphite
_diffrn_radiation_source         'fine-focus sealed tube'
_diffrn_radiation_type           CuK\a
_diffrn_radiation_wavelength     1.54178
_diffrn_reflns_av_R_equivalents  0.0170
_diffrn_reflns_av_sigmaI/netI    0.0135
_diffrn_refln_scan_width         0.46+0.22tg(theta)
_diffrn_reflns_limit_h_max       14
_diffrn_reflns_limit_h_min       -14
_diffrn_reflns_limit_k_max       0
_diffrn_reflns_limit_k_min       -9
_diffrn_reflns_limit_l_max       9
_diffrn_reflns_limit_l_min       0
_diffrn_reflns_number            1431
_diffrn_reflns_theta_full        74.91
_diffrn_reflns_theta_max         74.91
_diffrn_reflns_theta_min         3.89
_diffrn_standards_decay_%        2
_diffrn_standards_interval_time  60
_diffrn_standards_number         3
_exptl_absorpt_coefficient_mu    0.819
_exptl_absorpt_correction_T_max  0.9374
_exptl_absorpt_correction_T_min  0.7913
_exptl_absorpt_correction_type   psi-scan
_exptl_absorpt_process_details
'North A.C., Philips, D.C. & Mathews, F.(1968) Acta Cryst. A24, 350-359.'
_exptl_crystal_colour            colourless
_exptl_crystal_density_diffrn    1.323
_exptl_crystal_density_method    'not measured'
_exptl_crystal_description       block
_exptl_crystal_F_000             280
_exptl_crystal_size_max          0.30
_exptl_crystal_size_mid          0.15
_exptl_crystal_size_min          0.08
_refine_diff_density_max         0.308
_refine_diff_density_min         -0.172
_refine_diff_density_rms         0.048
_refine_ls_extinction_coef       0.026(5)
_refine_ls_extinction_expression Fc^*^=kFc[1+0.001xFc^2^\l^3^/sin(2\q)]^-1/4^
_refine_ls_extinction_method     SHELXL
_refine_ls_goodness_of_fit_ref   1.138
_refine_ls_hydrogen_treatment    mixed
_refine_ls_matrix_type           full
_refine_ls_number_parameters     84
_refine_ls_number_reflns         1274
_refine_ls_number_restraints     0
_refine_ls_restrained_S_all      1.138
_refine_ls_R_factor_all          0.0437
_refine_ls_R_factor_gt           0.0406
_refine_ls_shift/su_max          0.000
_refine_ls_shift/su_mean         0.000
_refine_ls_structure_factor_coef Fsqd
_refine_ls_weighting_details
'calc w=1/[\s^2^(Fo^2^)+(0.1000P)^2^+0.0000P] where P=(Fo^2^+2Fc^2^)/3'
_refine_ls_weighting_scheme      calc
_refine_ls_wR_factor_gt          0.1238
_refine_ls_wR_factor_ref         0.1272
_reflns_number_gt                1149
_reflns_number_total             1274
_reflns_threshold_expression     >2sigma(I)
_cod_data_source_file            b005422o.txt
_cod_data_source_block           c
_cod_original_formula_sum        'C6 H11 N1 O2'
_cod_database_code               7115128
loop_
_symmetry_equiv_pos_as_xyz
'x, y, z'
'-x, y+1/2, -z+1/2'
'-x, -y, -z'
'x, -y-1/2, z-1/2'
loop_
_atom_site_label
_atom_site_type_symbol
_atom_site_fract_x
_atom_site_fract_y
_atom_site_fract_z
_atom_site_U_iso_or_equiv
_atom_site_adp_type
_atom_site_occupancy
_atom_site_symmetry_multiplicity
_atom_site_calc_flag
_atom_site_refinement_flags
C1 C 0.23443(9) 0.10209(13) 0.21888(12) 0.0326(3) Uani 1 1 d .
H1 H 0.2422 0.2190 0.1597 0.042 Uiso 1 1 calc R
C2 C 0.21510(11) -0.05220(14) 0.08134(14) 0.0402(3) Uani 1 1 d .
H2 H 0.1580 -0.0152 -0.0252 0.052 Uiso 1 1 calc R
C3 C 0.33844(14) -0.07217(19) 0.0504(2) 0.0586(4) Uani 1 1 d .
H3A H 0.3478 -0.1918 -0.0003 0.076 Uiso 1 1 calc R
H3B H 0.3536 0.0240 -0.0271 0.076 Uiso 1 1 calc R
C4 C 0.42132(12) -0.0536(2) 0.2300(2) 0.0612(4) Uani 1 1 d .
H4A H 0.4928 0.0103 0.2221 0.080 Uiso 1 1 calc R
H4B H 0.4422 -0.1746 0.2811 0.080 Uiso 1 1 calc R
C5 C 0.35446(10) 0.05796(15) 0.34001(17) 0.0433(3) Uani 1 1 d .
H5A H 0.3448 -0.0138 0.4394 0.056 Uiso 1 1 calc R
H5B H 0.3964 0.1711 0.3818 0.056 Uiso 1 1 calc R
C6 C 0.13312(8) 0.12307(12) 0.30682(12) 0.0299(3) Uani 1 1 d .
O1 O 0.17852(8) -0.21545(11) 0.15460(11) 0.0435(3) Uani 1 1 d .
H1A H 0.1785 -0.3029 0.0884 0.057 Uiso 1 1 calc R
O2 O 0.12981(7) 0.03954(10) 0.44220(10) 0.0384(3) Uani 1 1 d .
N3 N 0.04795(8) 0.23645(14) 0.22708(12) 0.0415(3) Uani 1 1 d .
H3C H -0.0125 0.2541 0.2694 0.054 Uiso 1 1 calc R
H3D H 0.0532 0.2922 0.1331 0.054 Uiso 1 1 calc R
loop_
_atom_site_aniso_label
_atom_site_aniso_U_11
_atom_site_aniso_U_22
_atom_site_aniso_U_33
_atom_site_aniso_U_23
_atom_site_aniso_U_13
_atom_site_aniso_U_12
C1 0.0378(5) 0.0265(5) 0.0378(6) 0.0016(3) 0.0173(4) 0.0009(4)
C2 0.0521(7) 0.0376(6) 0.0352(5) -0.0025(4) 0.0189(5) -0.0010(4)
C3 0.0745(9) 0.0452(7) 0.0739(9) -0.0085(6) 0.0528(8) -0.0031(6)
C4 0.0445(7) 0.0541(8) 0.0946(11) -0.0074(7) 0.0358(7) 0.0043(5)
C5 0.0345(6) 0.0383(6) 0.0586(7) -0.0053(5) 0.0140(5) -0.0010(4)
C6 0.0336(5) 0.0264(5) 0.0312(5) -0.0039(3) 0.0109(4) -0.0018(3)
O1 0.0519(5) 0.0357(5) 0.0478(5) -0.0110(3) 0.0215(4) -0.0104(3)
O2 0.0471(5) 0.0359(5) 0.0371(5) 0.0038(3) 0.0196(3) 0.0025(3)
N3 0.0396(5) 0.0452(6) 0.0422(5) 0.0054(4) 0.0147(4) 0.0102(4)
loop_
_atom_type_symbol
_atom_type_description
_atom_type_scat_dispersion_real
_atom_type_scat_dispersion_imag
_atom_type_scat_source
C C 0.0181 0.0091 'International Tables Vol C Tables 4.2.6.8 and 6.1.1.4'
H H 0.0000 0.0000 'International Tables Vol C Tables 4.2.6.8 and 6.1.1.4'
N N 0.0311 0.0180 'International Tables Vol C Tables 4.2.6.8 and 6.1.1.4'
O O 0.0492 0.0322 'International Tables Vol C Tables 4.2.6.8 and 6.1.1.4'
loop_
_geom_angle_atom_site_label_1
_geom_angle_atom_site_label_2
_geom_angle_atom_site_label_3
_geom_angle
C6 C1 C5 115.70(9)
C6 C1 C2 113.38(8)
C5 C1 C2 104.50(9)
O1 C2 C3 111.92(10)
O1 C2 C1 108.76(8)
C3 C2 C1 101.29(10)
C4 C3 C2 105.03(11)
C3 C4 C5 106.15(11)
C1 C5 C4 105.68(11)
O2 C6 N3 122.55(9)
O2 C6 C1 122.37(9)
N3 C6 C1 115.07(9)
loop_
_geom_bond_atom_site_label_1
_geom_bond_atom_site_label_2
_geom_bond_distance
C1 C6 1.5163(13)
C1 C5 1.5334(16)
C1 C2 1.5358(14)
C2 O1 1.4236(13)
C2 C3 1.5257(18)
C3 C4 1.523(3)
C4 C5 1.5294(18)
C6 O2 1.2368(12)
C6 N3 1.3277(14)
loop_
_geom_hbond_atom_site_label_D
_geom_hbond_atom_site_label_H
_geom_hbond_atom_site_label_A
_geom_hbond_distance_DH
_geom_hbond_distance_HA
_geom_hbond_distance_DA
_geom_hbond_angle_DHA
_geom_hbond_site_symmetry_A
O1 H1A O2 0.82 2.07 2.8586(11) 162.2 4
N3 H3C O1 0.86 2.17 3.0299(14) 172.7 2
N3 H3D O2 0.86 2.28 3.1023(13) 160.3 4_565
loop_
_geom_torsion_atom_site_label_1
_geom_torsion_atom_site_label_2
_geom_torsion_atom_site_label_3
_geom_torsion_atom_site_label_4
_geom_torsion
C6 C1 C2 O1 -48.69(12)
C5 C1 C2 O1 78.17(11)
C6 C1 C2 C3 -166.72(9)
C5 C1 C2 C3 -39.86(11)
O1 C2 C3 C4 -76.02(12)
C1 C2 C3 C4 39.70(12)
C2 C3 C4 C5 -24.67(14)
C6 C1 C5 C4 150.64(9)
C2 C1 C5 C4 25.24(12)
C3 C4 C5 C1 -0.49(14)
C5 C1 C6 O2 -29.54(13)
C2 C1 C6 O2 91.18(12)
C5 C1 C6 N3 150.96(9)
C2 C1 C6 N3 -88.32(11)
