#------------------------------------------------------------------------------
#$Date: 2016-03-26 14:38:36 +0200 (Sat, 26 Mar 2016) $
#$Revision: 180271 $
#$URL: svn://www.crystallography.net/cod/cif/7/11/57/7115791.cif $
#------------------------------------------------------------------------------
#
# This file is available in the Crystallography Open Database (COD),
# http://www.crystallography.net/
#
# All data on this site have been placed in the public domain by the
# contributors.
#
data_7115791
loop_
_publ_author_name
'Jose A. Souto'
'Willian Lewis'
'Robert A. Stockman'
_publ_section_title
;
 Isolation of stable non cyclic 1,2-disulfoxides. Revisiting the
 thermolysis of S-aryl sulfinimines
;
_journal_name_full               Chem.Commun.
_journal_page_first              12630
_journal_paper_doi               10.1039/C4cc05751A
_journal_volume                  50
_journal_year                    2014
_chemical_formula_moiety         'C14 H14 O2 S2'
_chemical_formula_sum            'C14 H14 O2 S2'
_chemical_formula_weight         278.37
_chemical_name_systematic
;
 ?
;
_space_group_crystal_system      monoclinic
_space_group_IT_number           14
_space_group_name_Hall           '-P 2ybc'
_space_group_name_H-M_alt        'P 1 21/c 1'
_symmetry_space_group_name_Hall  '-P 2ybc'
_symmetry_space_group_name_H-M   'P 1 21/c 1'
_atom_sites_solution_hydrogens   geom
_atom_sites_solution_primary     iterative
_atom_sites_solution_secondary   difmap
_audit_creation_date             2013-06-10
_audit_creation_method
;
  Olex2 1.2
  (compiled Apr 23 2013 17:59:47, GUI svn.r4466)
;
_cell_angle_alpha                90
_cell_angle_beta                 97.432(15)
_cell_angle_gamma                90
_cell_formula_units_Z            2
_cell_length_a                   5.7235(12)
_cell_length_b                   7.5497(11)
_cell_length_c                   15.671(2)
_cell_measurement_reflns_used    1043
_cell_measurement_temperature    120(2)
_cell_measurement_theta_max      73.1250
_cell_measurement_theta_min      5.7100
_cell_volume                     671.47(19)
_computing_cell_refinement
;
CrysAlisPro, Agilent Technologies,
Version 1.171.36.28 (release 01-02-2013 CrysAlis171 .NET)
(compiled Feb  1 2013,16:14:44)
;
_computing_data_collection
;
CrysAlisPro, Agilent Technologies,
Version 1.171.36.28 (release 01-02-2013 CrysAlis171 .NET)
(compiled Feb  1 2013,16:14:44)
;
_computing_data_reduction
;
CrysAlisPro, Agilent Technologies,
Version 1.171.36.28 (release 01-02-2013 CrysAlis171 .NET)
(compiled Feb  1 2013,16:14:44)
;
_computing_molecular_graphics
;
O. V. Dolomanov, L. J. Bourhis, R. J. Gildea, J. A. K. Howard and H. Puschmann,
OLEX2: a complete structure solution, refinement and analysis program.
J. Appl. Cryst. (2009). 42, 339-341.
;
_computing_publication_material
;
O. V. Dolomanov, L. J. Bourhis, R. J. Gildea, J. A. K. Howard and H. Puschmann,
OLEX2: a complete structure solution, refinement and analysis program.
J. Appl. Cryst. (2009). 42, 339-341.
;
_computing_structure_refinement
;
SHELXL, G.M. Sheldrick, Acta Cryst.
(2008). A64, 112-122
;
_computing_structure_solution
;
olex2.solve (L.J. Bourhis, O.V. Dolomanov, R.J. Gildea, J.A.K. Howard,
H. Puschmann, in preparation, 2011)
;
_diffrn_ambient_temperature      120(2)
_diffrn_detector                 'CCD area detector'
_diffrn_detector_area_resol_mean 10.3613
_diffrn_detector_type            'Agilent Diffraction Atlas detector'
_diffrn_measured_fraction_theta_full 0.9954
_diffrn_measured_fraction_theta_max 0.9458
_diffrn_measurement_details
;
  1 omega -127.00   29.00   2.0000    2.0000
omega____ theta____ kappa____ phi______ frames
    -      -43.6002    0.0000    0.0000 78

  2 omega -130.00 -102.00   2.0000    2.0000
omega____ theta____ kappa____ phi______ frames
    -      -60.0000 -125.0000 -180.0000 14

  3 omega -112.00  -84.00   2.0000    2.0000
omega____ theta____ kappa____ phi______ frames
    -      -60.0000 -125.0000   60.0000 14

  4 omega   93.00  157.00   2.0000    2.0000
omega____ theta____ kappa____ phi______ frames
    -      105.8472   45.0000  -60.0000 32

  5 omega   39.00   67.00   2.0000    2.0000
omega____ theta____ kappa____ phi______ frames
    -      105.8472  -30.0000    0.0000 14

  6 omega   35.00   69.00   2.0000    2.0000
omega____ theta____ kappa____ phi______ frames
    -      105.8472  -30.0000  150.0000 17

  7 omega   34.00   62.00   2.0000    2.0000
omega____ theta____ kappa____ phi______ frames
    -      105.8472  -30.0000  120.0000 14

  8 omega   40.00   70.00   2.0000    2.0000
omega____ theta____ kappa____ phi______ frames
    -      105.8472  -30.0000   60.0000 15

  9 omega   34.00   66.00   2.0000    2.0000
omega____ theta____ kappa____ phi______ frames
    -      105.8472  -30.0000 -180.0000 16

 10 omega   41.00   73.00   2.0000    2.0000
omega____ theta____ kappa____ phi______ frames
    -      105.8472  -45.0000   60.0000 16

 11 omega  122.00  154.00   2.0000    2.0000
omega____ theta____ kappa____ phi______ frames
    -      105.8472   61.0000   60.0000 16

 12 omega   49.00   77.00   2.0000    2.0000
omega____ theta____ kappa____ phi______ frames
    -      105.8472 -125.0000    0.0000 14

 13 omega   86.00  112.00   2.0000    2.0000
omega____ theta____ kappa____ phi______ frames
    -      105.8472   30.0000 -180.0000 13

 14 omega  131.00  157.00   2.0000    2.0000
omega____ theta____ kappa____ phi______ frames
    -      105.8472   30.0000 -180.0000 13

 15 omega   47.00   75.00   2.0000    2.0000
omega____ theta____ kappa____ phi______ frames
    -      105.8472  -45.0000 -150.0000 14

 16 omega   41.00   73.00   2.0000    2.0000
omega____ theta____ kappa____ phi______ frames
    -      105.8472  -45.0000  -30.0000 16

 17 omega   33.00   61.00   2.0000    2.0000
omega____ theta____ kappa____ phi______ frames
    -      105.8472  -30.0000   30.0000 14
;
_diffrn_measurement_device       '\k-geometry diffractometer'
_diffrn_measurement_device_type  'SuperNova-Duo, Atlas'
_diffrn_measurement_method       '\w scans'
_diffrn_orient_matrix_UB_11      -0.0674387000
_diffrn_orient_matrix_UB_12      0.0121081000
_diffrn_orient_matrix_UB_13      -0.0981979000
_diffrn_orient_matrix_UB_21      -0.2011789000
_diffrn_orient_matrix_UB_22      -0.1334271000
_diffrn_orient_matrix_UB_23      0.0052284000
_diffrn_orient_matrix_UB_31      -0.1695375000
_diffrn_orient_matrix_UB_32      0.1538879000
_diffrn_orient_matrix_UB_33      0.0122776000
_diffrn_radiation_collimation    'focusing mirrors'
_diffrn_radiation_monochromator  mirror
_diffrn_radiation_probe          x-ray
_diffrn_radiation_type           'Cu K\a'
_diffrn_radiation_wavelength     1.5418
_diffrn_radiation_xray_symbol    K-L~2,3~
_diffrn_reflns_av_R_equivalents  0.0257
_diffrn_reflns_av_unetI/netI     0.0298
_diffrn_reflns_Laue_measured_fraction_full 0.994
_diffrn_reflns_Laue_measured_fraction_max 0.946
_diffrn_reflns_limit_h_max       6
_diffrn_reflns_limit_h_min       -7
_diffrn_reflns_limit_k_max       9
_diffrn_reflns_limit_k_min       -9
_diffrn_reflns_limit_l_max       19
_diffrn_reflns_limit_l_min       -19
_diffrn_reflns_number            2646
_diffrn_reflns_point_group_measured_fraction_full 0.994
_diffrn_reflns_point_group_measured_fraction_max 0.946
_diffrn_reflns_theta_full        67.684
_diffrn_reflns_theta_max         74.811
_diffrn_reflns_theta_min         6.519
_diffrn_source                   'microfocus sealed tube'
_diffrn_source_target            Cu
_diffrn_source_type              'Agilent Diffraction microfocus tube'
_exptl_absorpt_coefficient_mu    3.519
_exptl_absorpt_correction_T_max  1.228
_exptl_absorpt_correction_T_min  0.518
_exptl_absorpt_correction_type   gaussian
_exptl_absorpt_process_details
;
CrysAlisPro, Agilent Technologies,
Version 1.171.36.28 (release 01-02-2013 CrysAlis171 .NET)
(compiled Feb  1 2013,16:14:44)
Numerical absorption correction based on gaussian integration over
            a multifaceted crystal model
;
_exptl_crystal_colour            'clear colourless'
_exptl_crystal_colour_lustre     clear
_exptl_crystal_colour_primary    colourless
_exptl_crystal_density_diffrn    1.377
_exptl_crystal_description       plate
_exptl_crystal_F_000             292
_exptl_crystal_size_max          0.612
_exptl_crystal_size_mid          0.2273
_exptl_crystal_size_min          0.046
_refine_diff_density_max         0.367
_refine_diff_density_min         -0.357
_refine_diff_density_rms         0.065
_refine_ls_extinction_coef       0.013(2)
_refine_ls_extinction_expression Fc^*^=kFc[1+0.001xFc^2^\l^3^/sin(2\q)]^-1/4^
_refine_ls_extinction_method     SHELXL
_refine_ls_goodness_of_fit_ref   1.087
_refine_ls_hydrogen_treatment    constr
_refine_ls_matrix_type           full
_refine_ls_number_parameters     95
_refine_ls_number_reflns         1306
_refine_ls_number_restraints     0
_refine_ls_restrained_S_all      1.087
_refine_ls_R_factor_all          0.0617
_refine_ls_R_factor_gt           0.0517
_refine_ls_shift/su_max          0.000
_refine_ls_shift/su_mean         0.000
_refine_ls_structure_factor_coef Fsqd
_refine_ls_weighting_details
;
 w=1/[\s^2^(Fo^2^)+(0.0720P)^2^+0.3241P]
 where P=(Fo^2^+2Fc^2^)/3
;
_refine_ls_weighting_scheme      calc
_refine_ls_wR_factor_gt          0.1339
_refine_ls_wR_factor_ref         0.1443
_reflns_Friedel_coverage         0.000
_reflns_number_gt                1086
_reflns_number_total             1306
_reflns_threshold_expression     'I > 2\s(I)'
_cod_data_source_file            c4cc05751a2.cif
_cod_data_source_block           jasrsa
_cod_original_cell_volume        671.45(19)
_cod_database_code               7115791
#BEGIN Tags that were not found in dictionaries:
_nottingham_internal_coll_name   JASRSA
_nottingham_internal_coll_number 12272
_nottingham_internal_coll_client JAS/RS
_nottingham_internal_coll_type   CUSTOM
_nottingham_internal_coll_frame_time 2
_nottingham_internal_coll_frame_width 2
_nottingham_internal_coll_frame_method '\w scans'
_nottingham_internal_coll_user   WL
_nottingham_internal_coll_date   4/3/2013
_nottingham_internal_coll_location NOTTS
_nottingham_internal_process_user WL
_nottingham_internal_process_date 10/5/2013
_nottingham_internal_solution_user WL
_nottingham_internal_solution_date 10/5/2013
_nottingham_internal_refinement_user WL
_nottingham_internal_refinement_date 10/5/2013
_nottingham_internal_validation_user WL
_nottingham_internal_validation_date 10/5/2013
_nottingham_internal_archive_date 10/6/2013
_chemical_oxdiff_formula         'C14 H14 S2 O2'
_reflns_odcompleteness_completeness 99.54
_reflns_odcompleteness_iscentric 1
_reflns_odcompleteness_theta     67.13
_olex2_refinement_description
;
1. Fixed Uiso
 At 1.2 times of:
  All C(H) groups
 At 1.5 times of:
  All C(H,H,H,H,H,H) groups
2. Others
 Sof(O2A)=1-FVAR(1)
 Sof(O2)=FVAR(1)
 Sof(H9BD)=Sof(H9BE)=Sof(H9BF)=1-FVAR(2)
 Sof(H9AA)=Sof(H9AB)=Sof(H9AC)=FVAR(2)
3.a Aromatic/amide H refined with riding coordinates:
 C4(H4), C5(H5), C7(H7), C8(H8)
3.b Idealised Me refined as rotating group:
 C9(H9AA,H9AB,H9AC), C9(H9BD,H9BE,H9BF)
;
_shelx_res_file
;
TITL
CELL 1.54184 5.723509 7.549706 15.670513 90 97.4316 90
ZERR 2 0.00115 0.001071 0.002239 0 0.0154 0
LATT 1
SYMM -X,0.5+Y,0.5-Z
 
SFAC C H O S
UNIT 28 28 4 4
 
L.S. 9
PLAN  20
TEMP -153
bond $h
conf
wpdb -1
htab
fmap 2
acta
OMIT 0 0 2
REM <HKL>C:/Users/pczwl/Dropbox/Organic/JASRSA/JASRSA.hkl</HKL>
 
WGHT    0.072000    0.324100
EXTI    0.012533
FVAR      13.64228   0.59736   0.59957
S1    4    0.425085    0.626279    0.486816    11.00000    0.07556    0.04329 =
         0.04509   -0.00171   -0.00547    0.00736
PART 1
O2    3    0.593267    0.758100    0.494778    21.00000    0.15518    0.11969 =
         0.09295    0.02120   -0.02184   -0.05125
PART 0
PART 2
O2A   3    0.247767    0.654416    0.524961   -21.00000    0.13639    0.15135 =
         0.08295    0.00265    0.04960    0.06604
PART 0
C3    1    0.330530    0.588968    0.375654    11.00000    0.04681    0.03463 =
         0.04485    0.00249   -0.00173    0.00499
C4    1    0.113914    0.507920    0.351159    11.00000    0.04422    0.04741 =
         0.05451    0.00671    0.00827   -0.00126
AFIX  43
H4    2    0.019623    0.469984    0.393341    11.00000   -1.20000
AFIX   0
C5    1    0.037820    0.483363    0.264689    11.00000    0.04095    0.04080 =
         0.06050    0.00450   -0.00621   -0.00466
AFIX  43
H5    2   -0.109633    0.427510    0.247762    11.00000   -1.20000
AFIX   0
C6    1    0.172936    0.538853    0.201690    11.00000    0.05051    0.03152 =
         0.04658    0.00218   -0.00500    0.00451
C7    1    0.389006    0.617711    0.227880    11.00000    0.04411    0.04070 =
         0.04975    0.00484    0.00438    0.00251
AFIX  43
H7    2    0.483635    0.655457    0.185768    11.00000   -1.20000
AFIX   0
C8    1    0.469476    0.642502    0.314036    11.00000    0.03662    0.03842 =
         0.05116    0.00385   -0.00273   -0.00270
AFIX  43
H8    2    0.618667    0.695748    0.330963    11.00000   -1.20000
AFIX   0
C9    1    0.083209    0.514701    0.107838    11.00000    0.08193    0.05058 =
         0.04895    0.00264   -0.01644    0.00325
PART 1
AFIX 137
H9AA  2    0.005796    0.623825    0.085183    31.00000   -1.50000
H9AB  2   -0.030116    0.416801    0.101154    31.00000   -1.50000
H9AC  2    0.215517    0.487749    0.076060    31.00000   -1.50000
AFIX 137
PART 0
PART 2
H9BD  2    0.079476    0.388189    0.093728   -31.00000   -1.50000
H9BE  2    0.187828    0.576301    0.072848   -31.00000   -1.50000
H9BF  2   -0.076108    0.563885    0.095820   -31.00000   -1.50000
AFIX   0
HKLF 4
 
REM
REM R1 =  0.0517 for    1086 Fo > 4sig(Fo)  and  0.0617 for all    1306 data
REM     95 parameters refined using      0 restraints
 
END  
     
WGHT      0.0720      0.3241 

REM Instructions for potential hydrogen bonds
EQIV $1 -x, -y+1, -z+1
HTAB C4 O2A_$1

REM Highest difference peak  0.367,  deepest hole -0.357,  1-sigma level  0.065
Q1    1   0.3675  0.6033  0.4319  11.00000  0.05    0.37
Q2    1   0.4186  0.6150  0.3504  11.00000  0.05    0.23
Q3    1   0.1379  0.5164  0.1518  11.00000  0.05    0.21
Q4    1   0.0833  0.4339  0.0881  11.00000  0.05    0.21
Q5    1   0.0877  0.4918  0.3103  11.00000  0.05    0.19
Q6    1   0.1413  0.6229  0.3903  11.00000  0.05    0.19
Q7    1   0.2597  0.5241  0.3654  11.00000  0.05    0.18
Q8    1   0.0003  0.5688  0.0870  11.00000  0.05    0.18
Q9    1   0.0861  0.4766  0.5073  11.00000  0.05    0.18
Q10   1   0.0188  0.5291  0.4016  11.00000  0.05    0.17
Q11   1   0.0854  0.5130  0.2303  11.00000  0.05    0.17
Q12   1   0.5732  0.6027  0.4731  11.00000  0.05    0.16
Q13   1  -0.0335  0.4704  0.1357  11.00000  0.05    0.16
Q14   1   0.0359  0.5267  0.2825  11.00000  0.05    0.16
Q15   1   0.1726  0.5728  0.4421  11.00000  0.05    0.15
Q16   1   0.5491  0.5349  0.4774  11.00000  0.05    0.15
Q17   1   0.3697  0.8821  0.1608  11.00000  0.05    0.14
Q18   1   0.2555  0.6261  0.3781  11.00000  0.05    0.14
Q19   1   0.4583  0.8884  0.5529  11.00000  0.05    0.14
Q20   1   0.4549  0.5016  0.4853  11.00000  0.05    0.14

REM The information below was added by Olex2.
REM
REM R1 = 0.0517 for 1086 Fo > 4sig(Fo) and 0.0617 for all 2792 data
REM n/a parameters refined using n/a restraints
REM Highest difference peak 0.37, deepest hole -0.36
REM Mean Shift 0, Max Shift 0.

REM +++ Tabular Listing of Refinement Information +++
REM R1_all = 0.0617
REM R1_gt = 0.0517
REM wR_ref = 0.1443
REM GOOF = 1.087
REM Shift_max = 0
REM Shift_mean = 0
REM Reflections_all = 2792
REM Reflections_gt = 1086
REM Parameters = n/a
REM Hole = 0.37
REM Peak = -0.36
REM Flack = n/a

;
_shelx_space_group_comment
;
The symmetry employed for this shelxl refinement is uniquely defined
by the following loop, which should always be used as a source of
symmetry information in preference to the above space-group names.
They are only intended as comments.
;
_shelxl_version_number           2013-2
#END Tags that were not found in dictionaries
loop_
_space_group_symop_operation_xyz
'x, y, z'
'-x, y+1/2, -z+1/2'
'-x, -y, -z'
'x, -y-1/2, z-1/2'
loop_
_atom_site_label
_atom_site_type_symbol
_atom_site_fract_x
_atom_site_fract_y
_atom_site_fract_z
_atom_site_U_iso_or_equiv
_atom_site_adp_type
_atom_site_occupancy
_atom_site_site_symmetry_order
_atom_site_calc_flag
_atom_site_refinement_flags_posn
_atom_site_refinement_flags_adp
_atom_site_refinement_flags_occupancy
_atom_site_disorder_assembly
_atom_site_disorder_group
S1 S 0.42509(14) 0.62628(10) 0.48682(4) 0.0558(3) Uani 1 1 d . . . . .
O2 O 0.5933(11) 0.7581(9) 0.4948(4) 0.126(3) Uani 0.597(8) 1 d . . P A 1
O2A O 0.2478(16) 0.6544(13) 0.5250(5) 0.120(4) Uani 0.403(8) 1 d . . P A 2
C3 C 0.3305(5) 0.5890(3) 0.37565(17) 0.0428(6) Uani 1 1 d . . . . .
C4 C 0.1139(4) 0.5079(4) 0.35116(18) 0.0485(7) Uani 1 1 d . . . . .
H4 H 0.0196 0.4700 0.3933 0.058 Uiso 1 1 calc R U . . .
C5 C 0.0378(4) 0.4834(4) 0.26469(19) 0.0485(7) Uani 1 1 d . . . . .
H5 H -0.1096 0.4275 0.2478 0.058 Uiso 1 1 calc R U . . .
C6 C 0.1729(5) 0.5389(3) 0.20169(16) 0.0439(6) Uani 1 1 d . . . . .
C7 C 0.3890(5) 0.6177(3) 0.22788(17) 0.0450(6) Uani 1 1 d . . . . .
H7 H 0.4836 0.6555 0.1858 0.054 Uiso 1 1 calc R U . . .
C8 C 0.4695(4) 0.6425(3) 0.31404(17) 0.0428(6) Uani 1 1 d . . . . .
H8 H 0.6187 0.6957 0.3310 0.051 Uiso 1 1 calc R U . . .
C9 C 0.0832(6) 0.5147(4) 0.10784(19) 0.0627(8) Uani 1 1 d . . . . .
H9AA H 0.0058 0.6238 0.0852 0.094 Uiso 0.60(8) 1 calc R U P B 1
H9AB H -0.0301 0.4168 0.1012 0.094 Uiso 0.60(8) 1 calc R U P B 1
H9AC H 0.2155 0.4877 0.0761 0.094 Uiso 0.60(8) 1 calc R U P B 1
H9BD H 0.0795 0.3882 0.0937 0.094 Uiso 0.40(8) 1 calc R U P B 2
H9BE H 0.1878 0.5763 0.0728 0.094 Uiso 0.40(8) 1 calc R U P B 2
H9BF H -0.0761 0.5639 0.0958 0.094 Uiso 0.40(8) 1 calc R U P B 2
loop_
_atom_site_aniso_label
_atom_site_aniso_U_11
_atom_site_aniso_U_22
_atom_site_aniso_U_33
_atom_site_aniso_U_23
_atom_site_aniso_U_13
_atom_site_aniso_U_12
S1 0.0756(6) 0.0433(5) 0.0451(4) -0.0017(3) -0.0055(3) 0.0074(3)
O2 0.155(6) 0.120(5) 0.093(4) 0.021(3) -0.022(4) -0.051(4)
O2A 0.136(7) 0.151(8) 0.083(5) 0.003(5) 0.050(5) 0.066(6)
C3 0.0468(14) 0.0346(13) 0.0448(13) 0.0025(10) -0.0017(10) 0.0050(10)
C4 0.0442(14) 0.0474(16) 0.0545(15) 0.0067(12) 0.0083(11) -0.0013(12)
C5 0.0409(14) 0.0408(14) 0.0605(16) 0.0045(12) -0.0062(11) -0.0047(11)
C6 0.0505(14) 0.0315(12) 0.0466(14) 0.0022(10) -0.0050(11) 0.0045(10)
C7 0.0441(14) 0.0407(14) 0.0498(14) 0.0048(11) 0.0044(11) 0.0025(11)
C8 0.0366(12) 0.0384(14) 0.0512(14) 0.0039(11) -0.0027(10) -0.0027(10)
C9 0.082(2) 0.0506(18) 0.0490(15) 0.0026(13) -0.0164(14) 0.0033(15)
loop_
_atom_type_symbol
_atom_type_description
_atom_type_scat_dispersion_real
_atom_type_scat_dispersion_imag
_atom_type_scat_source
C C 0.0181 0.0091 'International Tables Vol C Tables 4.2.6.8 and 6.1.1.4'
H H 0.0000 0.0000 'International Tables Vol C Tables 4.2.6.8 and 6.1.1.4'
O O 0.0492 0.0322 'International Tables Vol C Tables 4.2.6.8 and 6.1.1.4'
S S 0.3331 0.5567 'International Tables Vol C Tables 4.2.6.8 and 6.1.1.4'
loop_
_exptl_crystal_face_index_h
_exptl_crystal_face_index_k
_exptl_crystal_face_index_l
_exptl_crystal_face_perp_dist
_exptl_oxdiff_crystal_face_indexfrac_h
_exptl_oxdiff_crystal_face_indexfrac_k
_exptl_oxdiff_crystal_face_indexfrac_l
_exptl_oxdiff_crystal_face_x
_exptl_oxdiff_crystal_face_y
_exptl_oxdiff_crystal_face_z
0 -1 0 0.1657 -0.0018 -1.0014 -0.0004 -0.0120 0.1340 -0.1538
-2 0 1 0.2542 -1.9974 0.0015 1.0120 0.0353 0.4069 0.3513
2 0 -1 0.3412 1.9974 -0.0015 -1.0120 -0.0353 -0.4069 -0.3513
0 0 1 0.0230 -0.0003 0.0006 1.0010 -0.0983 0.0052 0.0124
0 0 -1 0.0230 0.0003 -0.0006 -1.0010 0.0983 -0.0052 -0.0124
0 5 1 0.0452 0.2342 4.8803 0.6009 -0.0157 -0.6951 0.7187
loop_
_geom_angle_atom_site_label_1
_geom_angle_atom_site_label_2
_geom_angle_atom_site_label_3
_geom_angle
_geom_angle_site_symmetry_3
O2 S1 S1 111.9(3) 3_666
O2 S1 C3 108.9(3) .
O2A S1 S1 113.0(4) 3_666
O2A S1 C3 109.2(4) .
C3 S1 S1 96.50(9) 3_666
C4 C3 S1 119.2(2) .
C8 C3 S1 120.4(2) .
C8 C3 C4 120.4(2) .
C3 C4 H4 120.4 .
C5 C4 C3 119.1(2) .
C5 C4 H4 120.4 .
C4 C5 H5 119.3 .
C4 C5 C6 121.4(2) .
C6 C5 H5 119.3 .
C5 C6 C9 120.3(3) .
C7 C6 C5 118.3(2) .
C7 C6 C9 121.3(3) .
C6 C7 H7 119.4 .
C8 C7 C6 121.3(2) .
C8 C7 H7 119.4 .
C3 C8 H8 120.3 .
C7 C8 C3 119.5(2) .
C7 C8 H8 120.3 .
C6 C9 H9AA 109.5 .
C6 C9 H9AB 109.5 .
C6 C9 H9AC 109.5 .
C6 C9 H9BD 109.5 .
C6 C9 H9BE 109.5 .
C6 C9 H9BF 109.5 .
H9AA C9 H9AB 109.5 .
H9AA C9 H9AC 109.5 .
H9AB C9 H9AC 109.5 .
H9BD C9 H9BE 109.5 .
H9BD C9 H9BF 109.5 .
H9BE C9 H9BF 109.5 .
loop_
_geom_bond_atom_site_label_1
_geom_bond_atom_site_label_2
_geom_bond_distance
_geom_bond_site_symmetry_2
S1 S1 2.1096(15) 3_666
S1 O2 1.379(6) .
S1 O2A 1.261(7) .
S1 C3 1.778(3) .
C3 C4 1.391(4) .
C3 C8 1.388(4) .
C4 H4 0.9500 .
C4 C5 1.381(4) .
C5 H5 0.9500 .
C5 C6 1.395(4) .
C6 C7 1.386(4) .
C6 C9 1.505(4) .
C7 H7 0.9500 .
C7 C8 1.382(4) .
C8 H8 0.9500 .
C9 H9AA 0.9800 .
C9 H9AB 0.9800 .
C9 H9AC 0.9800 .
C9 H9BD 0.9800 .
C9 H9BE 0.9800 .
C9 H9BF 0.9800 .
loop_
_geom_torsion_atom_site_label_1
_geom_torsion_atom_site_label_2
_geom_torsion_atom_site_label_3
_geom_torsion_atom_site_label_4
_geom_torsion
_geom_torsion_site_symmetry_1
S1 S1 C3 C4 85.1(2) 3_666
S1 S1 C3 C8 -95.8(2) 3_666
S1 C3 C4 C5 178.3(2) .
S1 C3 C8 C7 -177.79(19) .
O2 S1 C3 C4 -159.0(4) .
O2 S1 C3 C8 20.0(4) .
O2A S1 C3 C4 -32.0(5) .
O2A S1 C3 C8 147.0(5) .
C3 C4 C5 C6 -0.3(4) .
C4 C3 C8 C7 1.2(4) .
C4 C5 C6 C7 0.9(4) .
C4 C5 C6 C9 -178.4(3) .
C5 C6 C7 C8 -0.4(4) .
C6 C7 C8 C3 -0.6(4) .
C8 C3 C4 C5 -0.8(4) .
C9 C6 C7 C8 178.9(3) .
loop_
_refln_index_h
_refln_index_k
_refln_index_l
_refln_F_squared_meas
_refln_F_squared_sigma
_refln_scale_group_code
0 0 2 863.446 122.778 1
0 0 3 78.1682 115.957 1
0 0 4 361041 2955.24 1
0 0 5 121.583 156.017 1
0 0 6 227010 2916.87 1
0 0 7 591.768 283.011 1
0 0 8 349266 4282.89 1
0 0 9 -177.663 246.959 1
0 0 10 137192 3075.89 1
0 0 11 120.343 124.909 4
0 0 -11 -280.94 164.898 13
0 0 12 7815.58 797.765 4
0 0 -12 8228.61 674.623 13
0 0 13 13.055 365.72 3
0 0 -13 265.723 218.881 13
0 0 14 4511.49 662.206 3
0 0 -14 5655.83 677.981 13
0 0 15 -195.165 296.502 7
0 0 15 876.369 360.19 3
0 0 16 4741.69 643.35 7
0 0 17 171.641 195.119 7
0 0 18 -785.116 251.07 7
0 0 -19 559.852 198.34 14
0 1 0 326.208 58.9411 1
0 1 1 404259 1697.74 1
0 1 2 71339.3 808.824 1
0 1 3 90263.6 1127.89 1
0 -1 4 4845.6 399.715 1
0 1 4 4820.8 345.936 1
0 1 5 150431 2166.38 1
0 -1 5 153756 2544.24 1
0 1 6 243.168 170.477 1
0 -1 6 113.859 219.051 1
0 1 7 396046 4115.64 1
0 -1 7 399892 4625.22 1
0 1 8 88633.1 2073.34 1
0 1 9 1629.98 345.207 1
0 1 10 8231.12 754.085 1
0 1 10 9509.63 895.891 3
0 1 11 858.712 430.552 3
0 1 11 858.848 287.993 1
0 -1 11 1203.04 297.27 4
0 -1 -11 965.744 229.142 13
0 1 -11 1046.36 212.744 13
0 1 -12 50847.7 1650.11 13
0 -1 12 48220.3 1891.63 4
0 1 12 49068.2 2030.11 1
0 1 12 50141.9 2171.3 3
0 -1 -12 50599.2 1689.4 13
0 -1 -13 15759.4 1023.52 13
0 1 13 17268.8 1320.88 3
0 1 -13 17823.7 1053.78 13
0 -1 13 16515 1154.27 4
0 -1 14 5652.56 685.351 3
0 1 14 6177.46 802.887 3
0 1 14 6713.06 878.121 7
0 1 -14 5483.63 641.862 13
0 -1 14 5254.33 709.109 4
0 1 15 2865.74 572.401 3
0 1 15 2364.61 609.457 7
0 -1 15 2357.13 450.653 3
0 1 16 15729 1248.97 7
0 -1 16 14764.3 1062.92 7
0 -1 17 1401.47 307.569 7
0 1 17 1107.07 329.98 7
0 1 18 13287.1 883.591 7
0 -1 -18 13257.6 811.874 14
0 -1 18 11149 695.393 7
0 1 -19 3737.89 365.037 14
0 -1 -19 3794.5 366.553 14
0 2 0 758861 3320.16 1
0 2 0 761004 3609.48 2
0 2 -1 529907 2869.03 1
0 2 1 525025 3063.43 2
0 2 1 531043 2706.44 1
0 2 2 247166 1856.48 1
0 2 -2 246320 2124.45 1
0 2 3 1010.62 143.135 1
0 2 3 904.149 181.934 3
0 2 4 85086.9 1327.99 1
0 2 4 88008.1 1551.16 3
0 2 5 1649.04 271.152 3
0 2 5 2072.8 272.531 1
0 2 6 65143 1761.55 3
0 2 6 67230.9 1627.41 1
0 2 7 52976.5 1807.58 3
0 2 7 50271.8 1510.35 1
0 2 8 15970.2 1078.58 3
0 2 8 15594 910.546 1
0 2 9 21610.8 1114.61 1
0 2 9 21258.8 1301.38 3
0 2 10 632.652 331.937 7
0 2 -10 785.215 180.46 13
0 -2 -10 431.496 139.658 13
0 2 10 633.163 241.296 1
0 2 10 599.186 340.886 3
0 -2 10 440.739 215.579 4
0 2 11 89907.6 2962.47 3
0 -2 11 89860.9 2370.34 4
0 2 -11 90369.8 1992.96 13
0 2 11 87672.5 2544.38 1
0 2 11 88422 2806.64 7
0 2 12 7082.82 900.879 3
0 -2 12 6862.96 722.787 4
0 2 12 6449.33 846.025 7
0 2 12 5944.56 711.804 1
0 2 -12 7154.82 622.392 13
0 2 13 19085.2 1441.35 3
0 -2 13 16761 1171.48 4
0 2 -13 17918.9 1044.43 13
0 2 13 18336 1447.33 7
0 2 14 491.283 431.456 7
0 -2 14 -301.667 301.584 4
0 2 -14 -102.459 240.61 13
0 2 14 132.369 359.865 3
0 -2 14 274.87 221.287 3
0 2 15 16704.3 1394.79 7
0 2 15 15004.7 1237.82 3
0 -2 16 1240.14 272.625 7
0 2 16 615.321 394.739 7
0 -2 -17 20623.9 1055.42 14
0 2 17 22651.4 1363.4 7
0 -2 -18 170.05 135.493 14
0 2 19 10930.2 627.101 6
0 3 0 211.362 106.129 1
0 3 0 257.956 188.477 2
0 3 -1 275280 3038.31 2
0 3 1 271423 2338.71 1
0 3 1 271891 2891.87 2
0 3 -1 270568 2591.17 1
0 3 2 14282.9 534.15 1
0 3 -2 13063.8 608.024 1
0 3 3 86878.1 1326.83 1
0 3 -3 88043.9 1666.3 1
0 3 4 30271.6 849.099 1
0 3 -4 30383.3 1052.27 1
0 3 5 87502.2 1602.13 1
0 3 5 81878.8 1902.87 3
0 3 -5 84617.8 1891.88 1
0 3 -6 15179.1 885.529 1
0 3 6 16510.3 814.241 1
0 3 6 16323.1 957.17 3
0 3 7 26489.2 1149.53 1
0 3 7 25816.4 1330.93 3
0 3 8 69026 1918.52 1
0 3 8 69635.7 2415.33 3
0 3 9 24983.3 1201.16 1
0 3 9 24378.1 1530.73 3
0 -3 9 23621.7 1167.53 4
0 3 9 23658.4 1468.86 7
0 3 -10 8883 584.015 13
0 3 10 9548.53 1016.34 3
0 3 10 10028.5 1015.48 7
0 -3 10 9684.1 776.32 4
0 3 10 8461.55 748.921 1
0 3 11 79976.8 2337.08 1
0 3 -11 84579.6 2742.17 1
0 3 11 75484.8 2887.69 7
0 -3 11 78194.9 2261.4 4
0 3 11 77978.6 2948.87 3
0 3 -11 76979.9 1837.96 13
0 3 12 20914.6 1562.18 3
0 3 12 19689.1 1518.53 7
0 3 -12 24194.4 1493.9 1
0 -3 12 21562.5 1228.15 4
0 3 -12 20650.4 1034.86 13
0 3 13 18253.8 1517.71 7
0 3 13 17542.1 1420.29 3
0 -3 13 16270.1 1086.33 4
0 3 -13 17123.4 981.273 13
0 -3 14 1052.3 338.346 4
0 3 14 2084.18 597.442 7
0 -3 -15 4187.37 526.664 14
0 -3 15 4363.23 523.493 4
0 -3 -16 7670.67 611.232 14
0 3 17 185.206 252.429 6
0 3 18 6860.8 586.976 6
0 4 0 85863.4 2080.15 2
0 4 0 86268.9 1552.76 1
0 4 1 11081.3 535.293 1
0 4 -1 10703.6 771.4 2
0 4 1 10642.4 738.998 2
0 4 -1 9705.18 553.612 1
0 4 -2 123298 2111.44 1
0 4 2 122113 1724.6 1
0 4 -2 118777 2601.72 2
0 4 -3 11308.8 858.747 2
0 4 3 11342.6 529.801 1
0 4 -3 11341.5 696.202 1
0 4 4 167981 2143.67 1
0 4 -4 162849 3202.5 2
0 4 -4 167013 2763.83 1
0 4 5 5271.7 428.145 1
0 4 -5 4938.78 528.182 1
0 4 -6 81114.7 2227.91 1
0 4 7 1717.49 460.676 7
0 4 -7 1550.57 392.694 1
0 4 -8 14436.6 1090.36 1
0 -4 8 16390.5 949.761 4
0 4 8 15951.4 1260.14 7
0 4 9 191.444 295.938 7
0 4 -9 20.6544 268.057 2
0 4 -9 298.987 239.495 1
0 -4 9 -2.91554 259.961 4
0 4 -10 26622.2 1615.72 1
0 -4 10 24885.1 1301.28 4
0 4 -10 24825.6 1364.43 2
0 4 10 25477.1 1760.75 7
0 4 11 8266.5 1115.74 7
0 -4 11 9590.89 820.447 4
0 4 -11 8832.57 944.91 1
0 4 -11 9405.3 805.615 2
0 4 12 3569.89 731.812 7
0 -4 12 4480.04 555.189 4
0 4 -12 4765.5 573.274 2
0 -4 13 6971.68 682.582 4
0 4 14 1102.09 496.227 6
0 4 15 -492.094 452.678 6
0 4 16 3480.46 537.826 6
0 4 17 135.15 179.76 6
0 5 0 2.13955 234.903 2
0 5 -1 86650.4 2537.34 2
0 5 -2 15395.9 1135.67 2
0 5 -2 14709.8 1025.33 15
0 5 -3 47615 1889.13 15
0 5 -3 48841.5 2038.14 2
0 5 4 3689.86 517.567 6
0 5 -4 3689.92 525.079 15
0 5 -4 4027.15 670.687 2
0 5 5 3763.9 568.18 6
0 5 -5 3320.15 538.315 15
0 5 -5 2491.14 554.865 2
0 5 -6 36324.8 1933.38 2
0 5 6 38384.4 1888.77 6
0 5 -7 41141.8 2103.99 2
0 -5 7 37941.8 1480.05 4
0 5 7 38992 2057.11 6
0 5 -8 1476.67 459.467 2
0 5 8 943.515 396.043 6
0 -5 8 1475.57 327.652 4
0 5 -9 20705.9 1432.96 2
0 -5 9 21959.3 1230.03 4
0 5 9 21717.2 1716.8 6
0 5 -10 2183.1 453.768 2
0 -5 10 2461.01 460.427 4
0 5 10 2486.23 668.421 6
0 5 11 25722.4 1888.9 6
0 5 -11 28402.6 1488.46 2
0 5 12 32141 2001.46 6
0 5 13 7380.78 936.522 6
0 5 14 2066.04 452.403 6
0 5 -14 1602.31 295.723 12
0 5 15 6961.89 687.898 6
0 6 0 16326.2 1123.75 9
0 6 0 12870.2 1029.06 12
0 6 -1 5746.96 765.214 15
0 6 -1 4917.09 696.19 12
0 6 1 6243.44 693.205 9
0 6 1 6257.42 692.861 12
0 6 -2 4416.91 717.472 2
0 6 -2 5789.51 790.556 15
0 6 2 6395.21 712.971 9
0 6 -3 963.117 420.323 15
0 6 -3 533.669 380.007 2
0 6 3 631.887 159.411 9
0 6 -4 -518.839 306.412 15
0 6 4 -243.367 191.357 9
0 6 -4 75.9787 348.672 2
0 6 -5 24389.8 1572.11 15
0 6 -5 21503.9 1585.67 2
0 6 5 26037.8 1539.68 9
0 6 5 25462.2 1522.56 6
0 -6 6 193.436 204.073 4
0 6 6 578.032 315.334 6
0 6 -6 627.57 360.939 2
0 6 6 113.125 280.016 9
0 6 7 6699.92 869.118 6
0 -6 7 6273.35 635.363 4
0 6 7 5893.97 785.93 9
0 6 -7 6255.59 912.952 2
0 6 8 1543.52 382.856 6
0 6 -8 1734.97 463.461 2
0 6 8 1651.44 462.064 9
0 6 -9 24884.2 1557.89 2
0 6 9 23601.5 1647.13 6
0 6 9 24832.3 1630.33 9
0 6 10 2692.2 725.084 6
0 6 10 543.572 340.203 9
0 6 11 4538.27 735.058 6
0 6 12 1687.72 449.019 6
0 6 -12 1090.05 351.158 12
0 6 -13 13803.4 849.714 12
0 6 -14 1026.03 197.015 12
0 7 0 19.7032 339.964 15
0 7 0 220.316 259.803 12
0 7 1 21047.5 1475.99 15
0 7 -1 22942.4 1514.99 15
0 7 -1 24432.2 1552.43 12
0 7 2 8834.83 948.228 15
0 7 -2 8749.87 963.836 15
0 7 -2 7253.86 907.999 12
0 7 3 12044.9 969.211 9
0 7 -3 10724.5 1128.03 12
0 7 -3 12041.7 1127 15
0 7 -4 692.492 358.723 15
0 7 -4 743.046 372.346 12
0 7 4 -181.005 252.258 9
0 7 5 56319.2 2134.76 9
0 -7 5 56465.4 1779.27 4
0 7 -5 54221.9 2660.26 12
0 7 -6 2448.12 641.427 12
0 7 -7 7933.05 1033 12
0 7 -8 467.012 354.15 12
0 7 -9 372.439 317.999 12
0 7 -10 5980.41 733.303 12
0 7 -11 4452.37 543.229 12
0 7 -12 7833.89 588.929 12
0 8 0 67724.3 2313.54 15
0 8 1 294.003 293.642 15
0 8 -1 805.559 368.385 15
0 8 -2 8326.36 838.363 15
0 8 -2 8510.94 848.2 12
0 8 2 7622.25 781.024 15
0 8 3 41.879 204.889 15
0 8 -3 -197.499 267.444 12
0 8 -4 21290.1 1433.88 12
0 8 -5 1100.89 411.529 12
0 8 -6 10939.2 1051.15 12
0 8 -7 5437.82 701.086 12
0 8 -8 14042.1 975.221 12
0 8 -9 3445.65 448.587 12
0 8 -10 2628.1 326.764 12
-1 0 19 -13.9331 158.137 7
-1 0 18 7094.05 712.936 7
-1 0 17 -155.663 290.215 7
1 0 -16 23075.2 1224.69 13
1 0 -15 253.823 268.14 13
-1 0 15 -289.785 331.888 3
-1 0 14 11112.7 1061.43 4
-1 0 14 11931.4 1060.89 3
1 0 -14 10725.1 831.848 13
-1 0 13 393.539 347.85 4
-1 0 13 91.2235 266.622 3
1 0 -13 -32.9713 184.506 13
1 0 -12 17997 930.466 13
-1 0 12 15625.2 1219.5 3
-1 0 12 16707.3 1208.85 4
-1 0 11 1298.26 398.282 4
-1 0 11 774.357 278.724 8
-1 0 11 458.072 371.801 3
-1 0 10 97831.6 2601.56 3
-1 0 9 -32.614 253.846 3
-1 0 8 146813 2852.66 3
-1 0 7 42.6986 236.716 3
-1 0 6 151405 2408.05 3
-1 0 5 130.41 116.281 3
-1 0 4 669584 3397.92 3
-1 0 3 74.0195 66.0669 3
1 0 -2 606767 2788.3 1
1 0 -1 45.8838 61.9817 1
1 0 0 218599 1524.49 1
1 0 1 144.51 73.679 1
1 0 2 302815 2078.99 1
1 0 3 295.566 129.695 1
1 0 4 393359 3241.83 1
1 0 5 392.843 208.287 1
1 0 7 303.979 251.939 1
1 0 8 14431.1 923.796 1
1 0 9 -18.4335 225.003 1
1 0 10 32498.3 1573.11 1
1 0 11 94.6966 214.667 1
1 0 11 71.4722 152.234 7
1 0 12 11776.3 1055.61 1
1 0 12 12562.7 1019.57 7
1 0 13 436.28 283.786 7
1 0 14 2233.68 468.431 3
1 0 14 1318.05 363.691 7
1 0 15 19.5243 255.814 3
1 0 15 80.475 280.279 7
1 0 16 941.732 258.858 7
-1 0 -17 446.267 245.346 14
-1 0 -18 4954.82 496.583 14
1 -1 -19 1038.89 206.008 14
-1 -1 19 1085.15 228.147 7
-1 1 19 843.005 222.883 7
-1 -1 18 8503.93 698.003 7
-1 1 18 8533.11 760.944 7
-1 1 17 3102.67 558.522 7
-1 1 16 9640.68 992.973 7
1 1 -16 8844.65 760.935 13
-1 1 15 17701.2 1352.3 3
1 1 -15 18098.3 1091.56 13
-1 -1 15 17507.5 1292.93 4
1 -1 -15 16640.4 1015.05 13
1 1 -14 3135.86 460.219 13
1 -1 -14 2586.9 445.418 13
-1 1 14 3744.92 677.641 3
-1 -1 14 3184.56 521.428 3
-1 -1 14 2666.13 549.241 4
-1 -1 13 18063.9 1267.91 4
1 -1 -13 16880.1 967.885 13
1 1 -13 18453.4 1031.47 13
-1 -1 13 17204.9 1186.98 3
-1 1 13 17357.4 1391.9 3
1 -1 -12 60610.7 1689.27 13
-1 1 12 58426.9 2428.38 3
-1 -1 12 57019.5 2089.25 3
1 1 -12 55393.3 1672.82 13
-1 -1 12 58252.3 2143.56 4
-1 -1 11 169576 2963.03 8
-1 -1 11 162251 3253.16 3
-1 -1 11 163824 3340.19 4
1 -1 -11 162957 2562.01 13
-1 1 11 154629 3770.72 3
-1 1 11 165129 3566.44 4
-1 -1 10 1076.42 296.075 3
-1 1 10 588.595 347.665 3
-1 1 9 49603.4 1959.86 3
-1 1 8 6694.36 752.657 3
-1 1 7 25078.9 1165.26 3
-1 1 7 22727.4 1058.5 1
-1 1 6 4121.31 430.203 3
-1 1 6 5477.58 523.68 1
-1 1 5 1614.07 264.332 1
-1 1 5 880.661 204.462 3
-1 1 4 14024.2 620.524 3
1 1 -3 132870 1746.98 1
1 1 -2 51652.5 1030.23 1
1 -1 0 288217 1154.58 1
1 1 0 287145 2295.92 1
1 1 1 13391.6 506.59 1
1 -1 1 13810.7 413.694 1
1 1 2 96736.5 1397.15 1
1 -1 2 97027.1 1348.82 1
1 -1 3 46967.1 1076.61 1
-1 1 -3 48282.7 886.708 2
1 1 3 48667.5 1034.62 1
-1 1 -4 33841.2 789.449 2
1 1 4 33205.7 918.089 1
1 -1 4 32927.3 988.349 1
1 -1 5 37544.1 1160.34 1
1 1 5 36701.2 1084.71 1
1 -1 6 48318.6 1438.64 1
1 1 6 50808.1 1479.49 1
1 1 7 71010.8 1983.45 1
1 -1 7 70511.5 1910.44 1
1 1 8 108972 2610.61 1
1 -1 8 106601 2516.76 1
1 1 9 11850.8 902.263 1
1 -1 9 11599.7 903.828 1
1 -1 10 27806.5 1486.68 1
1 1 10 28303.8 1449.62 1
-1 1 -10 26357.5 1136.52 13
1 1 10 28773.2 1505.92 7
1 1 11 15537.6 1147.88 1
1 1 11 16453.6 1204.75 7
1 -1 11 16166 1206.04 1
1 1 12 40621.2 1972.09 7
1 1 12 43183.3 1972.34 1
1 -1 13 11804 973.482 7
1 1 13 12357.7 1168.95 7
1 1 13 11873 1071.12 1
1 1 13 11395.4 1013.97 3
1 1 14 8919.19 900.803 3
1 1 14 9006.07 1017.5 7
1 -1 14 8652.41 827.896 7
1 1 15 1586.41 383.334 3
1 -1 15 1566.83 377.971 3
1 1 15 1750.18 450.79 7
1 -1 15 534.813 252.384 7
-1 -1 -16 16198.8 1114.9 14
1 1 16 15661.2 1138.43 7
-1 -1 -17 1329.07 369.025 14
-1 1 -17 1092.91 292.141 14
-1 1 -18 8904.23 624.18 14
1 1 18 8395.87 687.303 6
-1 -1 -18 8380.05 619.763 14
-1 2 19 6479.08 540.437 6
1 -2 -18 272.009 172.85 14
-1 -2 18 669.384 203.286 7
-1 2 18 171.701 201.838 7
-1 2 17 12049.4 1010.5 7
-1 -2 16 338.219 270.415 4
-1 2 16 506.012 412.116 7
1 2 -16 389.123 256.938 13
-1 2 15 2735.1 634.041 7
-1 -2 15 2573.38 501.699 4
1 2 -15 3087.03 465.429 13
-1 -2 14 2243.45 515.188 4
-1 2 14 2406.4 625.839 7
1 2 -14 2344.49 414.249 13
1 2 -13 37566.2 1908 1
-1 2 13 37089 2112.26 3
-1 2 13 39134.2 2013.28 7
1 -2 -13 35620.9 1388.24 13
1 2 -13 38670.1 1491.6 13
-1 -2 13 35499.2 1736.76 4
-1 -2 12 10839 822.728 8
-1 2 12 11014.7 1169.56 3
1 -2 -12 12773 797.594 13
1 2 -12 10055.5 739.826 13
1 2 -12 11682 1094.44 1
-1 -2 12 11254 961.512 4
-1 -2 11 11663 941.693 4
-1 -2 11 12173.7 853.289 3
-1 2 11 12238.8 1199.85 3
-1 -2 11 12070.4 796.774 8
1 -2 -11 13873.4 756.191 13
-1 -2 10 8.06233 126.312 8
-1 -2 10 160.631 183.383 4
-1 2 10 -99.3129 370.772 3
-1 2 9 13721.7 1160.26 3
-1 2 8 2063.82 346.271 1
-1 2 8 2149.46 474.276 3
-1 2 7 19782 1115.3 3
-1 2 7 17725.6 867.054 1
-1 2 6 22778.6 1072.53 3
-1 2 6 19869 845.804 1
1 2 -6 22200.3 1052.29 1
-1 2 5 21007.5 804.905 1
1 2 -5 20494.1 938.457 1
1 2 -4 21.6744 160.966 1
-1 2 4 4.34964 82.5271 1
1 2 -3 123982 2011.33 1
-1 2 3 127266 1019.69 1
1 2 -2 49462.3 1225.75 1
1 2 -1 5244.18 406.175 1
1 2 0 642961 4142.87 1
-1 2 -1 776998 4630.2 2
1 2 1 767710 4553.76 1
1 2 2 20189.1 749.256 1
1 2 2 20209.6 527.05 3
-1 2 -3 44003.4 1157.93 2
1 2 3 44696 1139.92 1
1 -2 4 3299.33 347.505 1
1 2 4 3824.85 364.22 1
-1 2 -4 3347.5 360.855 2
1 2 5 50811.8 1315.12 1
1 -2 5 50849.8 1532.89 1
1 -2 6 15947.8 928.174 1
-1 2 -6 16890.7 866.044 2
1 2 6 16196.1 828.044 1
1 2 7 296088 3967.01 1
-1 2 -7 326495 3933.83 2
1 2 8 86564.2 2441.3 1
-1 2 -8 87432 1946.72 2
1 2 9 78380.2 2409.18 1
1 2 9 77610 2648.43 7
1 2 10 6682.38 741.642 1
1 2 10 6753.33 755.491 3
1 2 10 7427.81 877.214 7
1 2 11 77368.1 2507.24 1
1 2 11 74561.8 2823.19 7
1 2 11 74817.6 2566.98 3
1 2 12 744.365 442.594 7
1 2 12 699.303 285.015 1
1 2 12 820.246 365.712 3
1 2 13 31549.9 1949.31 7
1 2 13 29820.3 1706.81 3
1 2 14 -78.6819 402.304 7
1 2 14 594.385 267.53 3
1 2 15 24928.9 1631.74 7
-1 -2 -15 25024.4 1393.51 14
-1 -2 -16 397.365 243.379 14
-1 -2 -17 22855.6 1091.86 14
1 2 17 24460.3 1351.3 6
1 2 18 920.872 257.501 6
-1 -2 -18 1054.6 195.478 14
-1 3 17 1878 415.478 7
-1 -3 16 1849.2 362.028 4
-1 3 16 1689.93 459.765 7
-1 -3 15 1933.89 402.13 4
-1 3 15 2665.43 552.316 7
1 3 -15 2113.64 375.912 13
-1 3 14 418.584 332.42 7
-1 -3 14 198.405 228.709 4
1 3 -14 177.507 155.725 13
1 3 -13 21238.4 1066.44 13
-1 -3 13 20571 1309.66 4
-1 3 13 21498.3 1566.76 7
-1 -3 12 39043.9 1807.73 4
1 3 -12 39408.3 1412.9 13
-1 3 12 39378.3 2048.26 7
1 3 -12 37811 2010.32 1
-1 -3 11 8806.96 657.421 8
-1 3 11 8825.05 938.559 7
1 3 -11 9376.22 1010.78 1
-1 -3 11 8648.26 855.159 4
-1 3 10 215.293 251.378 7
1 3 -10 -75.4265 259.053 1
-1 -3 10 81.0607 174.364 4
1 3 -9 3717.19 614.482 1
-1 -3 9 4169.63 522.802 4
-1 3 9 4303.87 585.414 7
1 3 -8 3788.46 583.473 1
1 3 -7 57204.3 1972.91 1
1 3 -6 4109.53 506.762 1
1 3 -5 212496 3336.15 1
1 3 -4 5012 520.116 1
1 3 -3 6093.83 547.644 1
1 3 -2 17146.9 844.043 1
1 3 -1 27619.1 1028.91 1
1 3 0 352162 3533.9 1
-1 3 0 338045 3884.84 2
-1 3 -1 250033 3348.73 2
-1 3 -1 250447 1676.91 1
1 3 1 252665 2978.44 1
1 3 1 247597 2464.96 2
-1 3 -2 57143.3 986.743 1
1 3 2 58212.7 1179.43 2
1 3 2 56673.3 1415.71 1
-1 3 -2 55281.1 1608.24 2
-1 3 -3 32738.2 858.598 1
-1 3 -3 31543.1 1245.69 2
1 3 3 32617.2 895.974 3
1 3 3 31036.2 1062.98 1
1 3 4 29215.7 1031.68 1
1 3 4 31042.5 982.011 3
1 3 5 57872.8 1524.91 3
1 3 5 58680.3 1523.8 1
-1 3 -6 38563.7 1621.82 2
1 3 6 40618.1 1443.35 3
1 3 6 38832.9 1347.2 1
1 3 7 42279.8 1649.68 3
1 3 7 42644.4 1543.67 1
-1 3 -7 46809.8 1826.5 2
1 3 8 73306.2 2681.88 7
1 3 8 72735 2308.58 3
-1 3 -8 79116.5 2198.16 2
1 3 8 70282.5 2243.54 1
1 3 9 369.193 297.4 7
-1 -3 -9 472.207 255.566 14
-1 3 -9 220.026 170.164 2
1 3 9 160.071 194.712 1
1 3 9 326.911 248.057 3
-1 -3 -10 47516.7 2001.63 14
1 3 10 46990.4 1927.59 1
1 3 10 44524.5 2391.87 7
1 3 10 46677.8 2061.04 3
-1 -3 -11 3485.63 545.144 14
1 3 11 2787.25 470.416 1
1 3 11 2548.96 527.411 3
1 3 11 2636.57 671.265 7
1 3 12 16381.1 1511.57 7
1 3 12 16334.2 1278.69 3
-1 -3 -12 16992.3 1209.97 14
1 3 13 980.149 322.178 3
-1 -3 -13 2099.75 448.94 14
-1 -3 -14 5226.88 617.744 14
-1 -3 -15 204.394 208.594 14
1 3 15 -98.3218 353.351 6
1 3 16 12612.2 1090.69 6
-1 -3 -16 12380.6 774.64 14
1 3 17 695.75 271.494 6
-1 -4 16 4624.12 471.55 4
-1 -4 15 106.584 163.183 4
-1 4 15 373.869 328.903 6
-1 4 14 -96.5753 314.779 7
-1 4 14 251.362 278.467 6
-1 -4 14 114.756 249.05 4
1 4 -13 579.153 177.756 13
-1 4 13 593.383 390.458 7
-1 -4 13 556.24 301.969 4
-1 4 12 44649 2275.23 7
-1 -4 12 46570.8 1951.61 4
1 4 -12 46167.3 1401.39 13
1 4 -11 -3.66255 227.123 1
-1 -4 11 240.93 226.883 4
-1 4 11 116.269 287.15 7
1 4 -11 80.9721 118.232 13
-1 4 10 27946.3 1710.83 7
1 4 -10 32914.4 1924.2 1
-1 -4 10 31099.8 1607.73 4
-1 4 9 7534.44 847.317 7
1 4 -9 6536.5 849.157 1
-1 -4 9 6697.67 727.683 4
1 4 -8 55879.4 2263 1
-1 4 8 62267.9 2219.17 7
-1 -4 8 60068.8 1984.92 4
-1 -4 7 48304.9 1691.83 4
1 4 -7 46466.4 1947.64 1
1 4 -7 49511.3 1956.81 15
1 4 -6 42023.2 1761.62 1
1 4 -5 38814.1 1618.4 1
1 4 -4 101367 2522.81 1
1 4 -3 308.992 205.751 1
1 4 -2 7420.95 637.463 1
1 4 -1 1556.64 312.334 1
1 4 -1 1351.22 302.29 2
1 4 0 673954 5518.22 1
1 4 0 671357 5260.51 2
-1 4 -1 806.605 324.542 2
1 4 1 895.556 205.787 2
1 4 1 866.418 244.846 1
-1 4 -2 11033.7 898.957 2
1 4 2 9398.28 592.755 2
1 4 2 9506.69 646.249 1
1 4 3 98.0926 115.559 1
-1 4 -3 46.9334 257.623 2
-1 4 -4 27767.4 1469.14 2
1 4 4 28511.4 1098.08 1
-1 4 -5 4931.25 665.686 2
1 4 5 4908.23 476.919 1
1 4 6 25773.5 1605.65 6
-1 4 -6 25751.4 1534.56 2
1 4 6 26153.8 1167.74 1
-1 4 -7 -77.8327 311.794 2
1 4 7 156.698 265.634 6
1 4 7 66.6578 133.926 1
1 4 8 34985.1 1606.5 1
1 4 8 38296.4 2195.42 6
-1 4 -8 41019.8 1843.57 2
-1 4 -9 3469.14 525.092 2
1 4 9 2167.98 416.998 1
1 4 9 3178.69 788.53 6
-1 4 -10 4986.25 583.61 2
1 4 10 4296.22 888.226 6
1 4 10 3391.63 497.938 1
1 4 11 4066.37 854.837 6
1 4 12 10827.5 1346.43 6
1 4 13 -123.738 470.747 6
1 4 14 597.721 457.459 6
1 4 15 -439.396 352.603 6
1 4 16 756.295 295.842 6
-1 -5 15 2495.3 316.647 4
-1 -5 14 3455.31 447.613 4
-1 -5 13 6619.55 654.141 4
-1 -5 12 1646.84 377.4 4
1 5 -12 1091.78 328.371 2
-1 5 12 1736.88 460.488 6
-1 5 11 10464.7 1124.32 6
-1 -5 11 10604.4 944.647 4
1 5 -11 12130.5 994.297 2
1 5 -10 809.719 347.595 2
-1 -5 10 12.9653 248.678 4
-1 5 10 759.817 410.962 6
-1 5 9 18799.8 1368.23 6
-1 -5 9 16485.4 1155.53 4
1 5 -9 15628.9 1277.14 1
1 5 -8 8182.26 904.652 1
-1 -5 8 8054.84 800.439 4
1 5 -7 36511.4 1831.7 1
-1 -5 7 35431.4 1608.41 4
1 5 -6 214.269 211.632 1
1 5 -6 502.01 334.329 15
1 5 -5 51879.2 2077.5 15
1 5 -5 44681.3 1969.89 2
1 5 -5 48947.1 1793.28 11
1 5 -5 49422.6 1966.34 1
1 5 -4 19210.9 1181.77 1
1 5 -4 18219.8 1218.49 2
1 5 -4 19636.9 1280.84 15
1 5 -4 20188.3 1082.58 11
1 5 -3 21264.6 1066.27 11
1 5 -3 21673.1 1271.65 2
-1 5 3 20597.9 1162.56 12
1 5 -3 21127.5 1171.93 1
1 5 -3 21985.6 1324.25 15
1 5 -2 16357.6 1133.47 9
1 5 -2 17077.1 1002.04 1
1 5 -2 16393.2 1070.64 2
-1 5 2 16570.2 1065.52 12
1 5 -2 16887.3 933.364 11
1 5 -1 51547.8 1589.82 11
1 5 -1 55322.4 2056.22 9
1 5 -1 50595.3 1666.76 1
1 5 -1 53016.5 1843.46 2
-1 5 1 52685.1 1956.58 12
1 5 0 3058.54 507.592 9
1 5 0 4810.4 485.314 11
-1 5 0 4447.2 607.333 12
1 5 0 4021.05 457.405 1
1 5 0 3653.83 482.607 2
1 5 1 45048 1585.51 2
1 5 1 47598.1 1945.6 9
1 5 1 47260.2 1515.76 1
-1 5 -1 48796 2019.52 12
1 5 2 31552.2 1637.55 9
1 5 2 30328.3 1587.37 6
-1 5 -2 29526.2 1416.65 15
1 5 2 29583.7 1185 1
-1 5 -2 32251.4 1689.34 12
1 5 3 12043.5 1040.55 9
1 5 3 11217.5 716.021 1
-1 5 -3 12273.9 1159.62 2
1 5 3 11281.5 1001.14 6
-1 5 -3 11140.2 901.289 15
1 5 4 45514.8 2098.54 6
-1 5 -4 43127.1 1856.99 15
-1 5 -4 39392.2 2055.17 2
1 5 4 45312.3 1430.98 1
1 5 5 10810.9 739.514 1
1 5 5 13039.3 1205.07 6
-1 5 -5 10406.3 1089.64 2
-1 5 -6 23936.3 1688.02 2
1 5 6 23909.3 1656 6
-1 5 -7 31281 1897.78 2
1 5 7 27942.4 1915.3 6
-1 5 -8 61974.5 2485.45 2
1 5 8 62557.3 2963.63 6
-1 5 -9 116.101 239.872 2
1 5 9 87.7703 562.477 6
1 5 10 2061.02 725.845 6
-1 5 -10 492.962 194.336 2
1 5 11 1061.06 572.396 6
-1 5 -11 793.828 295.405 12
1 5 12 42214.1 2321.24 6
-1 5 -12 36847.8 1598.64 12
1 5 13 3406.49 703.077 6
1 5 14 2744.55 528.651 6
1 5 15 966.945 292.546 6
1 6 -14 352.071 167.77 12
-1 -6 13 8548.39 552.243 4
-1 -6 12 538.394 220.044 4
-1 -6 11 5561.64 600.078 4
-1 -6 10 169.423 230.237 4
-1 -6 9 95.3833 214.106 4
1 6 -9 223.275 212.948 2
-1 -6 8 6979.49 748.111 4
1 6 -8 7034.35 873.606 2
-1 -6 7 5639.1 663.668 4
1 6 -7 5283.81 771.66 2
1 6 -6 8955.34 1004.48 2
1 6 -6 8463.57 967.728 15
1 6 -5 3997.04 728.667 2
1 6 -5 4140.93 708.946 15
1 6 -4 -164.302 287.869 15
1 6 -4 777.148 407.41 2
1 6 -3 139.457 174.125 11
1 6 -3 338.087 246.305 15
1 6 -3 -224.894 368.787 2
-1 6 2 -35.6457 122.265 12
1 6 -2 11.9871 254.648 15
-1 6 2 333.624 161.112 15
1 6 -2 559.206 238.987 11
1 6 -2 -44.8826 332.059 2
1 6 -1 674.656 318.319 9
-1 6 1 -137.511 280.099 12
1 6 -1 270.827 222.683 11
1 6 -1 212.757 259.363 2
-1 6 1 277.947 238.456 15
-1 6 0 17138.5 1167.37 15
1 6 0 17698.8 1305.36 9
-1 6 0 18101.1 1398.92 12
1 6 0 17838.2 1090.04 11
-1 6 -1 78791.7 2972.35 12
1 6 1 84235.1 2347.39 11
-1 6 -1 75783.3 2471.75 15
1 6 1 79115.9 2779.74 9
1 6 2 5558.6 784.706 9
-1 6 -2 5145.78 678.416 15
-1 6 -2 4772.61 835.439 12
1 6 2 5756.84 601.074 11
1 6 3 8410.15 964.739 9
-1 6 -3 8379.05 870.997 15
-1 6 -3 9740.42 1133.88 12
1 6 4 6429.06 877.297 9
-1 6 -4 6345.24 974.754 12
1 6 5 29952.7 1890.75 9
1 6 5 27076.4 1834.48 6
-1 6 -5 28315.5 1990.83 12
1 6 6 349.675 350.708 9
1 6 6 -393.875 489.905 6
-1 6 -6 -850.31 751.606 12
1 6 7 32769.9 2042.77 9
1 6 7 33471.1 2084.57 6
-1 6 -7 37686.3 2250.11 12
1 6 8 15943.5 1496.62 6
1 6 8 17153.9 1496.92 9
-1 6 -8 17275.9 1436.69 12
1 6 9 16301.3 1496.97 9
-1 6 -9 16915.5 1324.16 12
1 6 9 16473.6 1503.96 6
-1 6 -10 3728.44 617.147 12
1 6 10 3977.96 721.373 9
1 6 10 2654.13 673.964 6
1 6 11 46923.3 2175.78 9
1 6 11 47532.9 2263.2 6
-1 6 -11 48207.4 1831.91 12
-1 6 -12 2061.39 356.776 12
1 6 12 2639.2 483.945 9
1 6 12 2458.68 523.967 6
1 6 13 2462.25 421.386 6
1 7 -12 605.913 214.684 12
1 7 -11 11289.2 852.506 12
-1 -7 11 11500.1 579.2 4
-1 -7 10 1632.36 275.809 4
-1 -7 9 6156.85 617.431 4
-1 -7 8 897.025 324.119 4
-1 -7 7 11146.5 861.211 4
-1 -7 6 217.507 181.659 4
1 7 -6 1238.79 435.122 2
1 7 -5 18975.3 1431.28 15
1 7 -5 16771.3 1347.44 2
1 7 -4 510.569 350.653 15
1 7 -4 621.036 378.174 2
1 7 -3 14758.8 1213.74 2
1 7 -3 15313.9 1284.6 15
1 7 -3 12329.3 1092.86 12
1 7 -2 3576.98 664.361 15
-1 7 2 3276.87 508.227 15
1 7 -2 3622.16 587.567 12
1 7 -1 30874.2 1822.23 15
-1 7 1 30719.5 1555.11 15
1 7 0 2759.84 604.588 15
-1 7 0 2172.25 515.496 12
-1 7 0 2612.81 507.536 15
1 7 1 10210.7 1000.2 9
-1 7 -1 9643.9 888.13 15
-1 7 -1 10190.8 1122.25 12
1 7 2 2643.57 532.957 9
-1 7 -2 2132.29 592.087 12
1 7 3 18826.1 1397.25 9
-1 7 -3 17955.6 1558.25 12
1 7 4 14414.8 1217.65 9
-1 7 -4 13116.6 1429.11 12
1 7 5 8479.69 960.629 9
-1 7 -5 7430.11 1058.7 12
1 7 6 -75.8106 282.335 9
-1 7 -6 457.262 443.041 12
1 7 7 2459.02 536.282 9
-1 7 -7 3413.32 707.831 12
1 7 8 36838.9 1912.67 9
-1 7 -8 37808.6 1983.57 12
1 7 9 445.719 336.884 9
-1 7 -9 745.021 293.568 12
-1 7 -10 308.275 246.66 12
-1 7 -11 10536.1 700.74 12
1 8 -10 5362.5 438.409 12
1 8 -9 934.322 234.704 12
1 8 -8 7322.37 680.801 12
-1 -8 7 874.769 194.154 4
1 8 -7 627.741 298.289 12
-1 -8 6 18927.8 912.669 4
1 8 -6 15743.9 1135.29 12
-1 -8 5 751.725 251.18 4
-1 -8 4 24573.9 1141.13 4
1 8 -3 6544.18 758.685 15
1 8 -2 14025.5 1112.32 15
1 8 -1 694.389 333.781 15
1 8 0 14829.3 1149.07 15
1 8 1 1628.9 448.467 15
1 8 2 9067.26 929.958 15
1 8 3 -236.927 411.775 15
-1 8 -3 -14.4153 304.744 12
-1 8 -4 23823.6 1573.64 12
1 8 4 25286.8 1454.5 15
1 8 5 1229.98 344.756 15
-1 8 -5 1680.37 453.289 12
1 8 6 4431.72 593.575 15
-1 8 -6 5888.08 765.509 12
-1 8 -7 1407.76 367.439 12
1 8 7 941.28 284.093 15
-1 8 -8 19.6173 148.413 12
-1 -9 1 4025.67 336.047 4
1 9 1 541.616 176.639 15
1 9 2 1016.04 227.416 15
-2 0 19 312.508 168.113 7
-2 0 18 9446.03 744.944 7
2 0 -17 330.011 218.699 13
2 0 -16 20667.6 1059.67 13
2 0 -15 -14.1385 238.777 13
-2 0 14 1173.7 388.25 4
2 0 -14 2078.63 364.468 13
-2 0 13 -58.4564 317.618 4
-2 0 13 439.078 301.371 8
2 0 -13 -227.696 327.374 1
2 0 -12 252126 4778.77 1
-2 0 12 241403 3983.24 8
-2 0 12 249055 4636.1 4
-2 0 11 -291.845 298.706 4
-2 0 11 274.651 207.791 8
2 0 -11 -25.9878 277.502 1
-2 0 11 271.004 208.175 10
-2 0 10 52790.6 1711.86 10
-2 0 10 53654 1721.03 8
-2 0 10 51199.7 1837.72 4
2 0 -9 102.692 280.509 1
2 0 -8 45784.8 1720.26 1
2 0 -7 -141.944 205.049 1
2 0 -6 32009.2 1136.15 1
2 0 -5 277.704 150.786 1
2 0 -4 294604 2954.92 1
2 0 -3 5.58965 105.139 1
2 0 -2 69089.6 1299.72 1
2 0 -1 132.559 111.1 1
2 0 0 420133 2999.13 1
2 0 1 12.2553 94.4532 1
2 0 2 29879.1 840.942 1
2 0 3 17.5923 107.333 1
2 0 4 14583.4 692.591 1
2 0 5 279.341 168.205 1
2 0 6 9755.86 755.134 1
2 0 7 213.62 215.953 1
2 0 8 12502.1 944.91 1
2 0 9 -302.629 263.431 1
2 0 10 -163.849 227.417 1
2 0 11 82.0236 186.097 1
2 0 12 26640.7 1565.79 1
-2 0 -13 38.3451 270.961 14
-2 0 -14 287.474 308.544 14
-2 0 -15 64.1618 262.462 14
-2 0 -16 7498.59 742.135 14
-2 0 -17 40.6303 164.911 14
-2 1 19 6392.1 488.674 7
-2 -1 19 5210.05 447.297 7
-2 1 18 956.044 294.679 7
-2 -1 18 980.47 248.088 7
-2 1 17 5706.73 677.297 7
2 1 -17 5461.27 549.761 13
-2 -1 16 2568.33 546.594 4
2 -1 -16 2542.92 381.564 13
2 1 -16 2525.45 420.32 13
-2 -1 15 3486.18 625.987 4
2 -1 -15 3853.52 485.15 13
2 1 -15 4598.99 547.248 13
-2 -1 14 1761.57 449.774 4
2 -1 -14 2124.36 372.847 13
2 1 -14 1943.29 385.563 13
-2 -1 13 19962.4 1194.4 8
2 -1 -13 19661.1 1013.47 13
2 1 -13 23595.3 1538.17 1
-2 -1 13 19692.5 1353.03 4
-2 -1 12 13250.9 957.069 8
-2 1 12 11565.3 1060.05 4
2 1 -12 11527.2 1116.42 1
-2 -1 12 12655.5 1054.8 4
-2 -1 11 31093.3 1305.79 10
-2 1 11 30985.7 1355.78 8
-2 -1 11 28965.2 1352.88 8
2 1 -11 32064.9 1906.1 1
2 -1 -11 28634.6 1589.59 1
-2 -1 11 32589.5 1564.69 4
-2 1 11 31144 1597.5 4
-2 -1 10 607.473 247.53 10
-2 1 10 779.888 214.683 4
-2 -1 10 52.5152 272.971 3
-2 -1 10 287.267 230.008 4
-2 1 10 336.074 196.754 10
-2 1 10 843.876 220.902 8
-2 -1 10 457.629 208.126 8
2 1 -10 130.341 372.868 1
-2 -1 9 42834.9 1786.99 3
2 1 -9 36756.4 1843.85 1
2 1 -8 557.647 323.438 1
2 -1 -8 642.486 251.694 1
2 1 -7 387.461 223.031 1
2 -1 -7 56.1564 149.471 1
2 1 -6 16670 922.271 1
2 -1 -6 16530.7 713.299 1
2 -1 -5 382955 3092.6 1
2 1 -5 386759 4112.99 1
2 1 -4 43717.6 1317.47 1
2 -1 -4 45785.5 963.434 1
2 -1 -3 265.401 79.7444 1
2 1 -3 462.043 185.486 1
2 1 -2 130.843 157.566 1
2 -1 -2 168.402 60.8377 1
2 -1 -1 294.402 80.0062 1
2 1 -1 291.493 179.168 1
2 1 0 146415 2122.86 1
2 -1 0 149667 1317.02 1
2 -1 1 80888.6 1105.52 1
2 1 1 81065 1574.05 1
2 1 2 26965.7 933.937 1
2 -1 2 25895.4 738.14 1
2 1 3 2903.69 342.75 1
2 -1 3 2733.96 309.399 1
2 -1 4 30587.5 1105.22 1
2 1 4 28531.9 1010.4 1
2 -1 5 46314 1436.58 1
2 1 5 45490.9 1382.58 1
2 -1 6 79159.3 1987.1 1
2 1 6 79659.7 1985.78 1
2 -1 7 10066.1 782.507 1
2 1 7 11754.4 882.059 1
2 1 8 79166.4 2521.09 1
2 -1 8 76639.3 2213.45 1
2 1 9 9868.87 910.692 1
2 -1 9 8312.58 801.413 1
2 1 9 9032.86 972.107 7
2 1 10 12184.5 1062.89 1
2 1 10 13778.7 1186.14 7
2 -1 10 11123.7 968.241 1
2 1 11 495.909 321.039 7
2 -1 11 1358.9 418.414 1
2 1 11 1305.76 399.054 1
-2 -1 -11 895.264 456.037 14
2 1 12 28625.8 1613.19 1
2 1 12 27270.3 1672.49 7
-2 -1 -12 29695.5 1756 14
2 1 13 219.24 206.266 3
-2 -1 -13 346.678 332.785 14
-2 1 -13 386.088 286.822 14
2 1 14 7636.78 787.615 3
-2 -1 -14 8598.94 954.419 14
-2 1 -14 6645.8 741.554 14
-2 -1 -15 1031.47 386.726 14
-2 1 -15 1008.09 338.535 14
-2 -1 -16 9075.75 804.488 14
2 1 16 8533.49 750.093 6
-2 1 -16 8609.98 750.963 14
-2 1 -17 7684.05 575.974 14
-2 -1 -17 6603.74 568.523 14
-2 2 18 251.096 188.541 7
-2 2 17 2112.69 424.102 7
2 2 -17 2178.6 336.016 13
-2 2 16 859.376 351.731 7
-2 -2 16 718.329 343.964 4
2 2 -16 1456.92 317.185 13
-2 2 15 205.488 265.553 7
-2 -2 15 839.729 413.681 4
2 -2 -15 306.729 169.25 13
2 2 -15 157.164 179.762 13
-2 -2 14 8145.24 871.504 4
2 -2 -14 7351.33 615.738 13
2 2 -14 8444.75 718.058 13
-2 -2 13 27636.3 1387.83 8
2 -2 -13 30869.1 1202.87 13
-2 -2 13 30729.8 1681.23 4
-2 -2 12 20862.3 1183.39 8
2 -2 -12 19562.5 918.041 13
2 2 -12 22062.9 1613.93 1
-2 -2 12 21135.5 1356.53 4
-2 -2 11 2150.21 346.586 10
-2 -2 11 2495.75 484.742 4
2 -2 -11 3177.86 359.475 13
-2 -2 11 2205.49 439.969 8
2 2 -11 1517.67 435.083 1
2 2 -10 1069.28 404.167 1
-2 -2 10 1725.24 310.554 10
-2 -2 10 1473.54 390.806 4
-2 -2 10 1936.75 386.502 8
-2 2 9 6227.88 578.528 10
-2 -2 9 7457.49 713.814 4
2 2 -9 7979.87 907.358 1
2 2 -8 -42.9547 233.667 1
2 2 -7 646.33 269.597 1
2 2 -6 17531.8 1045.34 1
2 2 -5 10730.3 794.037 1
2 2 -4 6621.46 607.597 1
2 2 -3 48605.2 1527.59 1
2 2 -2 284.248 244.806 1
2 2 -1 141218 2445.29 1
2 2 0 3522.25 421.354 1
2 2 1 305208 3505.93 1
2 -2 2 22561.6 673.918 1
2 2 2 21952.1 962.796 1
2 -2 3 65082.1 1381.15 1
2 2 3 62263.9 1626.24 1
2 -2 4 2662.96 328.692 1
2 2 4 2875.08 388.109 1
2 -2 5 91205.1 2013.36 1
2 2 5 94633.8 2081.17 1
2 -2 6 28316.3 1199.25 1
2 2 6 27850.7 1216.98 1
2 -2 7 264146 3916.55 1
2 2 7 274943 4144.11 1
2 -2 8 35880.5 1538.23 1
-2 -2 -8 38057.7 1926.9 14
2 2 8 40431 1788.57 1
2 2 9 50452.1 2180.88 1
2 2 9 46466.2 2484.65 7
-2 -2 -9 53121.2 2538.08 14
2 2 10 8299.51 898.168 1
-2 -2 -10 8559.65 1024.81 14
2 2 11 76380.9 2620.79 1
2 2 11 70002.4 2385.13 3
-2 -2 -11 73783.2 2827.33 14
2 2 12 8032.43 834.38 3
-2 -2 -12 7936.47 973.822 14
-2 2 -12 8752.07 848.845 14
-2 -2 -13 16143 1279.16 14
2 2 13 16346.5 1140.49 3
-2 2 -13 16515.1 1122.92 14
2 2 14 806.955 329.891 6
-2 -2 -14 496.715 359.182 14
-2 2 -14 1187.96 355.314 14
-2 -2 -15 27783.8 1467.4 14
2 2 15 27076.8 1555.62 6
2 2 16 380.837 248.247 6
-2 -2 -16 739.173 237.299 14
-2 2 -17 5931.07 445.476 16
-2 -3 17 2962.37 424.198 4
2 3 -17 2830.84 317.244 13
-2 -3 16 557.636 272.362 4
-2 3 16 920.265 334.027 7
2 3 -16 939.838 246.24 13
-2 3 15 12608.5 1054.03 7
2 3 -15 11490.7 746 13
-2 -3 15 10792.8 957.677 4
-2 -3 14 415.575 307.635 4
-2 3 14 242.342 294.475 7
2 3 -14 -259.201 235.748 13
-2 -3 13 2115.37 523.286 4
-2 -3 13 1558.23 372.043 8
-2 3 13 2506.24 519.153 7
-2 -3 12 975.574 388.197 4
-2 -3 12 771.277 274.122 8
-2 3 12 592.923 343.173 7
2 3 -12 1202.12 461.052 1
-2 -3 11 51446.4 2167.28 4
-2 -3 11 49875.3 1771.49 8
-2 3 11 52214.9 2192.46 7
-2 -3 10 4989.43 697.366 4
-2 -3 10 5803.45 627.098 8
-2 3 10 5002.92 652.422 7
2 3 -10 5677.97 883.649 1
-2 -3 9 18200.8 959.663 8
-2 3 9 14633.8 1047.46 7
-2 -3 9 16138.9 1091.8 4
2 3 -9 15805.8 1323.73 1
2 3 -8 23658.9 1476.35 1
-2 -3 8 24371 1264.15 4
2 3 -7 32288.6 1635.94 1
-2 -3 7 33471 1395.25 4
2 3 -6 999.594 335.877 1
2 3 -5 9163.16 823.575 1
2 3 -4 62342.6 2011.68 1
2 3 -3 9378.71 770.892 1
2 3 -2 40366.2 1513.28 1
2 3 -1 282601 3848.94 1
2 3 0 167251 2920.3 1
2 3 1 75048.5 1941.34 1
2 3 2 43349.1 1478.39 1
2 3 3 9924.38 725.544 1
2 3 4 37736.1 1394.3 1
2 3 5 753.273 267.145 1
2 3 6 94157 2353.58 1
2 3 6 99916.9 2252.67 3
2 3 6 95640.4 2972.42 6
2 3 7 11400.3 899.076 1
2 3 7 11652.6 1132.52 6
-2 -3 -7 13885.4 1037.72 14
2 3 7 12857.4 877.123 3
2 3 8 96880.3 2538.23 3
-2 -3 -8 92916.9 2977.71 14
2 3 8 97510.9 3515.7 6
2 3 8 98058.6 2853.87 1
2 3 9 7302.19 867.095 1
2 3 9 6815.5 714.623 3
2 3 9 7469.04 1101.29 6
-2 -3 -9 6483.13 953.965 14
2 3 10 6814.71 798.799 1
2 3 10 7259.85 766.003 3
2 3 10 6593.5 1041.22 6
-2 -3 -10 7983.41 1039.19 14
-2 -3 -11 158.965 273.444 14
2 3 11 9.08989 205.297 3
2 3 11 8.54858 474.635 6
2 3 12 22510 1347.68 3
2 3 12 25001.7 1836.98 6
-2 -3 -12 26398.3 1589.58 14
-2 -3 -13 12522.1 1042.68 14
2 3 13 11023.1 1197.33 6
-2 -3 -14 8294.11 786.396 14
2 3 14 7601.03 924.667 6
2 3 15 2268.69 485.51 6
2 3 16 11071.5 770.676 6
-2 -4 16 13672.9 863.686 4
-2 -4 15 164.406 252.442 4
-2 -4 14 10813.8 933.666 4
-2 -4 13 1544.39 455.228 4
2 4 -13 1547.28 275.17 13
-2 4 13 736.15 349.112 7
-2 -4 12 16051.6 1248.02 4
-2 4 12 15610.2 1217.51 7
-2 -4 11 1602.8 511.543 4
-2 -4 11 1140.76 276.693 8
-2 4 11 1454.63 423.289 7
-2 -4 10 42755.3 2002.46 4
2 4 -10 39915.9 2255.81 1
-2 -4 10 40974.9 1488 8
-2 -4 9 3871.67 612.676 4
-2 -4 9 4026.66 470.177 8
2 4 -9 3374.94 654.619 1
2 4 -8 44650.8 2198.27 1
-2 -4 8 47644.3 1925.47 4
2 4 -8 46490.4 1651.67 11
2 4 -7 560.23 312.766 1
2 4 -7 614.516 232.083 11
-2 -4 7 159.384 201.655 4
2 4 -7 574.234 206.816 15
2 4 -6 47520.8 1562.24 11
2 4 -6 46075.7 2040.06 1
2 4 -6 49880.2 1842.42 15
2 4 -5 328.645 226.599 11
2 4 -5 289.042 266.918 1
2 4 -5 370.765 198.982 15
2 4 -4 45475.3 1487.84 11
2 4 -4 45004.3 1871.97 1
2 4 -3 14077.7 1022.01 1
2 4 -2 48673.9 1797.67 1
2 4 -1 42828.5 1657.65 1
2 4 0 19092.6 1084.53 1
2 4 0 19022.3 833.698 2
2 4 1 5967.88 618.577 1
2 4 2 831.985 296.282 1
2 4 3 4070.56 601.702 6
2 4 3 2544.38 404.831 1
-2 4 -3 3199.75 565.074 12
2 4 4 7991.36 701.37 1
2 4 4 8280.62 892.862 6
-2 4 -4 8411.77 906.451 12
2 4 5 627.115 248.29 1
2 4 5 577.047 314.163 6
-2 4 -5 898.367 318.513 12
2 4 6 37667.9 2073.11 6
2 4 6 36117.3 1536.8 1
-2 4 -6 38590.4 2200.63 12
2 4 7 1898.34 402.199 1
2 4 7 1742.4 563.452 6
-2 4 -7 2749.2 590.417 12
2 4 8 91825.2 3674.97 6
-2 4 -8 93935.3 2825.8 12
2 4 8 93014.8 2774.45 1
2 4 9 2321 474.119 1
-2 4 -9 2781.92 472.689 12
2 4 10 1160.95 600.581 6
2 4 11 2431.32 802.861 6
2 4 12 1510.82 551.513 6
2 4 13 2238.34 581.998 6
2 4 14 2367.1 510.852 6
2 4 15 957.824 301.831 6
-2 4 -16 5208.42 438.346 16
-2 -5 15 4080.53 433.043 4
-2 -5 14 -36.0639 227.758 4
-2 -5 13 1159.63 352.783 4
-2 -5 12 3330.59 561.166 4
-2 -5 11 32521.9 1751.04 4
-2 -5 10 2623.02 556.252 4
-2 -5 9 23563 1483.48 4
2 5 -8 -112.293 312.503 1
-2 -5 8 264.556 248.742 4
-2 -5 7 5966.87 760.588 4
2 5 -7 7250.41 885.255 1
2 5 -7 5347.83 742.369 15
2 5 -7 6224.83 681.935 11
2 5 -6 7081.44 832.775 1
2 5 -6 6483.03 821.388 15
2 5 -6 9272.86 814.59 11
2 5 -5 8185.44 744.671 11
2 5 -5 7918.95 867.869 15
2 5 -5 7069.16 820.638 1
2 5 -4 21568.5 1161.72 11
2 5 -4 19801.9 1311.14 1
2 5 -4 21617.7 1380.03 15
2 5 -3 32702.7 1419.51 11
2 5 -3 30196.4 1569.79 1
2 5 -3 32325.3 1644.37 15
2 5 -2 81.5335 223.08 11
2 5 -2 319.865 208.178 2
2 5 -2 319.758 282.404 9
2 5 -2 52.9244 223.582 1
2 5 -1 116955 3296.26 9
2 5 -1 117801 2932.57 1
2 5 -1 128108 2653.02 2
2 5 -1 117046 2657.58 11
-2 5 1 119569 3371.69 12
2 5 0 91558 2359.51 11
2 5 0 93207.4 2558.93 1
-2 5 0 92465.4 3039.84 12
2 5 0 93638.3 3008.13 9
2 5 1 32905.9 1821.53 9
2 5 1 32836 1499.07 1
-2 5 -1 31123.8 1824.79 12
2 5 2 23976.9 1583.16 9
2 5 2 23316.6 1239.49 1
-2 5 -2 26353.3 1712.44 12
2 5 3 7965.06 728.026 1
2 5 3 7657.88 922.305 9
2 5 3 7196.75 921.62 6
-2 5 -3 8108.25 1016.23 12
2 5 4 38242.4 2175.74 9
2 5 4 37092.7 2127.81 6
2 5 4 39072.2 1547.51 1
-2 5 -4 35953.8 2103.57 12
2 5 5 2249.52 599.684 6
2 5 5 3529.79 478.755 1
-2 5 -5 2801.03 694.634 12
2 5 6 35306.2 2222.56 6
2 5 6 36439.1 1555 1
2 5 7 8633.77 1141.68 6
2 5 7 8081.52 779.692 1
-2 5 -7 9522.24 1104.12 12
2 5 8 19345 1740.06 6
-2 5 -8 17305.3 1341.24 12
2 5 9 11730 1418.76 6
-2 5 -9 10906.9 990.834 12
2 5 10 32974.7 2203.57 6
-2 5 -10 28431.6 1447.93 12
2 5 11 249.083 458.49 6
2 5 12 12875.6 1184.15 6
2 5 13 1718.82 474.898 6
2 5 14 6608.62 618.488 9
2 5 14 7139.85 652.501 6
-2 -6 14 174.289 100.967 4
-2 -6 13 431.721 136.711 4
-2 -6 12 1851.93 371.4 4
-2 -6 11 -60.1619 237.752 4
-2 -6 10 294.279 287.521 4
-2 -6 9 389.369 261.664 4
2 6 -9 -1051.81 337.125 2
-2 -6 8 -190.154 402.423 4
2 6 -8 -68.013 271.787 2
-2 -6 7 9177.19 914.298 4
2 6 -7 8509.99 928.167 2
2 6 -6 3302.9 605 15
2 6 -6 3413.52 593.234 2
2 6 -5 82.641 268.104 11
2 6 -5 -394.201 361.663 15
2 6 -5 -34.4823 305.016 2
2 6 -4 158.832 265.485 11
2 6 -4 639.89 143.474 1
2 6 -4 65.0357 303.92 15
2 6 -4 -243.821 323.889 2
2 6 -3 52559.5 2023.05 1
2 6 -3 48675.5 1973.08 2
2 6 -3 54645.9 2355.44 15
2 6 -3 54309.4 1972.44 11
2 6 -2 9350.66 845.392 11
2 6 -2 10300.2 880.988 1
2 6 -2 9424.6 846.341 2
2 6 -2 10212.1 1088.96 15
2 6 -1 1385.13 377.046 11
2 6 -1 1680.16 554.066 9
2 6 -1 1823.11 384.579 1
2 6 0 16400.6 1400.47 9
2 6 0 16190.8 1039.53 1
2 6 0 15622.4 1106.51 11
-2 6 0 15766 1409.98 12
2 6 1 64674.2 2187.08 11
2 6 1 65771.7 2778.93 9
-2 6 -1 65631.3 2927.29 12
2 6 2 -94.1689 292.614 11
2 6 2 -252.653 447.477 9
-2 6 -2 -126.237 465.277 12
2 6 3 19543.4 1187.31 11
2 6 3 18455.1 1527.21 9
-2 6 -3 19552.9 1711.23 12
2 6 4 902.378 311.707 11
2 6 4 414.313 369.888 9
-2 6 -4 176.637 452.128 12
2 6 5 23567.6 1785.69 9
-2 6 -5 20992.3 1807.83 12
2 6 6 4230.85 870.453 9
-2 6 -6 5587.08 984.383 12
2 6 7 82557.7 3350.76 9
2 6 7 81565.1 3389.99 6
-2 6 -7 84613.5 3135.89 12
2 6 8 6178.01 971.314 9
2 6 8 6957.58 1087.04 6
-2 6 -8 6765.86 855.289 12
2 6 9 2349.4 694.38 9
2 6 9 3272.58 736.22 6
-2 6 -9 1169.96 321.952 12
-2 6 -10 1310.96 314.136 12
2 6 10 1309.99 504.155 9
2 6 10 1718.67 568.611 6
2 6 11 22244.8 1401.74 9
2 6 12 2558.49 441.405 9
2 6 13 5508.35 485.037 9
2 7 -12 788.614 201.809 12
-2 -7 11 5880.79 479.877 4
-2 -7 10 1915.57 344.117 4
-2 -7 9 2045.22 409.523 4
-2 -7 8 1529.04 379.297 4
-2 -7 7 17750.1 1135.59 4
-2 -7 6 1829.86 427.759 4
2 7 -5 37639.8 1902.38 15
2 7 -4 158.788 332.651 15
2 7 -3 9.82707 342.386 15
2 7 -2 1571.03 529.692 15
2 7 -2 1724.1 420.89 11
2 7 -1 5999.7 845.033 15
2 7 -1 6342.08 709.564 11
2 7 0 41573.7 1761.13 11
2 7 0 39936.7 2071.1 15
2 7 1 19785.3 1504.1 9
2 7 1 19533 1196.32 11
2 7 2 542.95 302.902 11
2 7 2 303.819 388.385 9
2 7 3 4679.91 749.249 9
-2 7 -3 3037.29 712.024 12
2 7 4 6242.11 851.927 9
-2 7 -4 4931.62 892.694 12
2 7 5 249.072 352.329 9
-2 7 -5 320.221 524.977 12
2 7 6 3358.51 659.179 9
-2 7 -6 6149.56 881.584 12
2 7 7 1300.26 469.714 9
-2 7 -7 999.308 362.487 12
2 7 8 6364.7 786.639 9
-2 7 -8 7053.9 742.23 12
2 7 9 603.438 284.13 9
2 7 10 7773.21 665.311 9
-2 -8 8 8254 539.799 4
-2 -8 7 6289.46 523.037 4
-2 -8 6 5405.52 515.714 4
-2 -8 5 7039.61 635.834 4
-2 -8 4 22684.1 1131.93 4
2 8 -3 5342.58 674 15
2 8 -2 9.86577 284.767 15
2 8 -1 168.998 281.342 15
2 8 0 20054.3 1300.05 15
2 8 1 -112.345 247.69 15
2 8 2 1395.26 393.39 15
2 8 3 752.779 310.053 15
2 8 4 -32.0217 232.036 15
2 8 5 335.172 268.298 15
2 8 6 817.494 287.51 15
2 8 7 1504.18 312.681 15
2 9 1 11.3697 139.286 15
-3 0 18 418.179 168.326 7
3 0 -17 15.3057 137.816 13
3 0 -16 16841.5 862.267 13
3 0 -15 255.972 211.103 13
-3 0 14 14720.7 1057.27 8
-3 0 14 14918.8 1178.99 4
-3 0 13 255.558 238.928 4
-3 0 13 -141.176 262.486 8
-3 0 12 19328.6 1166.73 10
-3 0 12 19625 1216.57 8
-3 0 12 20403.6 1368.72 4
-3 0 11 54.1367 241.545 10
-3 0 11 102.617 244.174 4
-3 0 11 -199.739 266.62 8
3 0 -10 38305.3 2083.7 1
-3 0 10 38745.6 1607.15 10
-3 0 10 37091.1 1642.98 8
-3 0 10 34416.3 1598.26 4
-3 0 9 -45.9865 205.606 10
-3 0 9 -527.011 217.982 4
-3 0 9 96.7439 152.172 8
3 0 -9 110.796 256.971 1
3 0 -8 5184.39 590.855 1
-3 0 8 5379.36 495.982 10
3 0 -7 114.408 147.061 1
3 0 -6 195045 3173.97 1
3 0 -5 67.5665 199.436 1
3 0 -4 2209.23 321.612 1
3 0 -3 119.764 133.607 1
3 0 -2 9942.2 596.898 1
3 0 -1 91.0531 118.987 1
3 0 0 2934.14 321.69 1
3 0 1 20.5235 116.221 1
3 0 2 11695.1 628.21 1
3 0 3 28.1984 109.364 1
3 0 4 1845.61 311.933 1
3 0 5 292.691 190.834 1
-3 0 -6 1802.58 367.01 14
3 0 6 1834.63 369.675 1
-3 0 -7 379.81 256.142 14
3 0 7 -131.824 231.979 1
3 0 8 203375 3980.74 1
-3 0 -8 185334 4945.79 14
3 0 9 -279.043 301.319 1
-3 0 -9 299.354 487.068 14
3 0 10 183.766 230.179 1
-3 0 -10 165.049 439.946 14
-3 0 -11 -12.3842 285.234 14
-3 0 -12 10004.5 978.336 16
-3 0 -12 8565.28 977.822 14
-3 0 -13 164.286 226.3 16
-3 0 -13 26.0158 276.615 14
-3 0 -14 8679.38 725.744 16
-3 0 -14 10186.9 904.095 14
-3 0 -15 -516.089 182.86 16
-3 -1 18 -57.3603 134.403 7
3 1 -18 -101.728 126.555 13
-3 1 17 169.065 179.751 7
3 -1 -17 -46.2601 121.627 13
3 1 -17 259.002 158.06 13
3 1 -16 295.36 181.092 13
3 -1 -16 278.382 135.009 13
-3 -1 15 3352.39 532.368 4
3 -1 -15 3111.38 383.491 13
3 1 -15 3459.98 447.682 13
-3 -1 14 -104.057 289.664 4
-3 -1 14 -71.248 242.066 8
3 -1 -14 -9.92071 197.542 13
-3 -1 13 23425.4 1238.3 10
-3 -1 13 24253.6 1374.19 8
-3 -1 13 23723.7 1469.59 4
-3 1 12 1141.76 337.865 10
-3 -1 12 1046.4 337.515 10
-3 -1 12 424.749 258.014 4
-3 1 12 848.777 283.273 8
-3 -1 12 931.129 345.096 8
3 1 -12 406.317 294.963 1
3 1 -11 18716.1 1771.66 1
-3 1 11 13047.2 960.977 10
-3 -1 11 17722.6 1181.6 10
-3 1 11 13867.8 967.449 8
-3 -1 11 16434.5 1165.56 8
-3 -1 11 15652.4 1136.45 4
-3 1 11 14658.9 1123.27 4
-3 -1 10 8001.06 789.27 4
3 1 -10 9170.1 1088.16 1
-3 1 10 9067.01 810.056 10
-3 -1 10 8535.43 724.074 10
-3 1 10 7972.88 724.63 8
-3 -1 10 8599.86 780.35 8
-3 1 10 7664.09 776.566 4
-3 -1 9 6666.42 683.655 4
3 1 -9 5942.01 807.746 1
-3 1 9 7316.79 680.117 10
-3 -1 9 6649.84 578.243 10
-3 1 9 7853.68 702.124 8
-3 1 9 6197.24 654.129 4
-3 -1 8 6951.35 668.966 4
3 1 -8 5887.92 703.526 1
-3 1 8 7378.6 582.119 10
-3 1 8 7394.98 618.826 8
-3 -1 8 6519.9 559.524 17
3 1 -7 12522.6 963.01 1
3 1 -6 341.413 253.182 1
3 1 -5 14643.4 950.261 1
3 1 -4 47569.1 1622.5 1
3 1 -3 12130.3 793.365 1
3 1 -2 4871.31 514.077 1
3 -1 -1 91855.6 1311.19 1
3 1 -1 92575.8 2067.11 1
3 1 0 71688.3 1793.65 1
3 -1 0 73013.8 1197.29 1
3 1 1 117384 2297.42 1
3 -1 1 118561 1666.04 1
3 1 2 2273.84 341.395 1
3 -1 2 2477.67 282.784 1
3 1 3 1960.18 335.41 1
3 -1 3 2216.35 300.219 1
3 -1 4 22113.6 1033.27 1
3 1 4 19759.1 968.198 1
3 -1 5 3336.84 444.439 1
3 1 5 2578.35 374.683 1
-3 -1 -5 3197.9 450.067 14
-3 -1 -6 44069 1947.47 14
3 -1 6 41134.9 1542.96 1
-3 1 -6 37358.7 1706.34 14
-3 -1 -6 41133.4 1885.7 16
3 1 6 41432.7 1613.39 1
3 -1 7 2864.78 446.62 1
-3 -1 -7 3878.44 677.6 16
3 1 7 2864.11 495.399 1
-3 -1 -7 3075.58 577.432 14
-3 1 -7 2031 387.156 14
3 1 8 11156.5 1041.64 1
3 -1 8 11757.9 887.429 1
-3 -1 -8 12379.2 1214.3 16
-3 -1 -8 11175.1 1231.04 14
-3 1 -8 9306.11 1066.12 14
3 1 9 58653.7 2300.32 1
3 -1 9 57942.9 1997.26 1
-3 -1 -9 57071.6 2542.62 16
3 -1 10 4563.86 608.677 1
3 1 10 3961.07 564.679 1
-3 -1 -10 5232.77 770.376 16
-3 -1 -10 4911.42 911.73 14
-3 1 -10 4263.87 756.27 14
-3 -1 -11 3844.57 751.478 14
-3 -1 -11 3348.63 597.703 16
-3 1 -11 3272.23 592.514 14
-3 -1 -12 5831.98 694.955 16
-3 -1 -12 5487.76 753.95 14
-3 1 -12 4591.29 641.227 14
-3 1 -13 6128.51 765.142 16
-3 -1 -13 6521.13 795.457 14
-3 1 -13 6213.43 725.117 14
-3 -1 -14 4176.47 610.64 14
-3 1 -14 3871.98 580.775 16
-3 1 -14 3989.37 531.53 14
-3 1 -15 10208.7 711.223 16
3 2 -17 343.727 146.763 13
-3 -2 16 76.3834 196.762 4
3 2 -16 166.052 194.066 13
-3 2 15 4581.9 589.767 7
3 2 -15 5679.2 548.755 13
-3 -2 15 4559.61 630.64 4
-3 -2 14 3794.35 551.914 8
-3 2 14 3495.22 520.304 7
3 -2 -14 2068.39 310.89 13
-3 -2 14 4415.96 662.813 4
-3 -2 13 421.363 262.466 4
-3 -2 13 476.62 259.61 8
3 -2 -13 528.957 173.762 13
-3 -2 12 7702.13 714.776 10
-3 -2 12 7465.76 794.408 8
3 -2 -12 8848.37 602.686 13
-3 -2 12 8703.24 896.089 4
-3 -2 11 21508.5 1352.69 4
3 2 -11 25772.9 2047.29 1
-3 -2 11 25270.2 1347.15 10
-3 2 11 21826.1 1155.58 8
-3 -2 11 26582.1 1495.8 8
-3 2 10 143.391 183.59 10
-3 -2 10 514.381 247.425 10
-3 -2 10 450.533 222.426 4
-3 2 10 33.7051 166.243 8
3 2 -10 117.335 374.23 1
-3 -2 9 22032.5 1321.12 4
3 2 -9 23696.9 1640.54 1
-3 2 9 22667.5 1206.64 10
-3 -2 9 22833.2 1075.57 10
-3 2 9 22555.2 1086.35 8
-3 2 8 1480.66 335.517 10
-3 -2 8 454.675 184.793 4
-3 -2 8 953.012 276.92 17
3 2 -8 978.349 364.464 1
-3 -2 7 5113.64 567.457 4
3 2 -7 4915.73 708.665 1
-3 2 7 4925.89 497.911 10
-3 -2 7 5491.61 512.354 17
3 2 -6 14175.3 1062.34 1
-3 -2 6 15022.2 818.74 17
3 2 -5 49914 1926.7 1
3 2 -4 14887.3 1019.08 1
3 2 -3 107530 2621.57 1
3 2 -2 607.521 252.011 1
3 2 -1 67115.9 1978.49 1
3 2 0 435.214 254.404 1
3 2 1 104807 2411.73 1
3 2 2 598.501 269.458 1
3 2 3 34363 1376.8 1
3 2 4 3298.92 478.022 1
-3 -2 -5 67331.3 2185.93 16
3 2 5 65442.3 1977.71 1
-3 -2 -5 68026.6 2317.92 14
3 2 6 1765.51 383.203 1
-3 -2 -6 2566.71 450.86 16
3 2 6 2468.6 493.148 6
-3 -2 -6 1871.86 433.357 14
3 2 7 144765 3888.49 6
-3 -2 -7 138402 3888.28 14
-3 -2 -7 145798 3573 16
3 2 7 142619 3314.84 1
3 2 8 21295.1 1397.68 1
3 2 8 17197.9 1524.95 6
-3 -2 -8 16890.5 1535.67 14
-3 2 -8 19123.9 1374 14
-3 -2 -8 19712.2 1358.85 16
3 2 9 -3.40572 431.428 6
-3 -2 -9 -62.1663 531.363 14
-3 2 -9 -81.1256 209.101 14
3 2 9 335.814 265.804 1
-3 -2 -10 420.304 383.396 14
3 2 10 766.397 450.044 6
-3 2 -10 1129.93 349.701 14
3 2 11 38852.5 2111.69 6
-3 -2 -11 41641.1 2287.63 14
-3 2 -11 34720.5 1776.11 14
-3 2 -12 3449.34 507.87 14
3 2 12 3805.82 619.069 6
-3 -2 -12 4793.33 765.863 14
3 2 13 7296.62 767.247 6
-3 -2 -13 7629 820.473 14
-3 2 -14 -76.0461 256.458 16
-3 2 -15 5056.24 523.771 16
3 3 -17 6274.41 382.24 13
-3 -3 16 428.309 230.666 4
3 3 -16 891.112 207.729 13
-3 -3 15 2696.36 465.872 4
3 3 -15 2810.74 358.163 13
-3 -3 14 317.65 319.873 4
-3 -3 14 307.901 256.404 8
-3 -3 13 4115.38 563.803 8
-3 -3 13 4476.27 663.599 4
-3 -3 12 5030.86 509.695 10
-3 -3 12 4859.58 618.84 8
-3 -3 11 19807.1 1365.95 4
-3 -3 11 18020.1 1039.05 10
-3 -3 10 13645.2 1151.39 4
3 3 -10 15471.8 1480.54 1
-3 -3 10 14833.7 912.131 10
-3 -3 10 15725.5 1054.07 8
-3 -3 9 10883.2 972.802 4
3 3 -9 12981.7 1283.85 1
-3 -3 9 12556.2 774.635 10
-3 -3 8 16018.8 1106.02 4
-3 -3 8 16182 813.082 10
3 3 -8 16481.6 1378.31 1
3 3 -7 2726.51 357.048 11
3 3 -7 2076.5 543.193 1
-3 3 7 1171.32 276.417 10
-3 -3 7 2882.97 465.523 4
-3 -3 7 2427.76 369.903 17
3 3 -6 6740.01 564.589 11
-3 -3 6 6284.73 633.473 4
3 3 -6 6043.43 786.288 1
-3 -3 6 6637.72 579.756 17
3 3 -5 93850.3 2862.59 1
-3 -3 5 91715 2079.57 17
3 3 -4 47102.3 1970.81 1
-3 -3 4 46743.4 1507.92 17
3 3 -3 4740.56 626.988 1
3 3 -2 50982 1933.35 1
3 3 -1 123.757 227.392 1
3 3 0 98339.1 2576.69 1
3 3 1 9030.6 789.352 1
3 3 2 8730.36 757.872 1
3 3 3 597.318 217.744 6
3 3 3 809.173 278.287 1
3 3 4 41459.7 1944.19 6
3 3 4 40252.5 1612.59 1
3 3 5 971.378 275.957 1
3 3 5 1608.07 486.942 6
3 3 6 50456.7 2358.94 6
3 3 6 52554.4 1960.84 1
3 3 7 78022.5 3156.15 6
3 3 7 82004.1 2565.19 1
3 3 8 23904.7 1893.81 6
3 3 8 25287.6 1510.93 1
3 3 9 1376.16 581.577 6
3 3 10 7700.18 1084.6 6
3 3 11 3932.55 724.225 6
3 3 12 2935.71 602.997 6
3 3 13 7398.01 752.154 6
3 3 14 10254.9 719.8 6
-3 3 -14 12446.9 886.311 16
-3 3 -15 3493.18 405.907 16
-3 -4 16 5581.44 486.486 4
-3 -4 15 248.015 215.846 4
-3 -4 14 282.801 242.965 4
-3 -4 13 -184.029 336.223 4
-3 -4 13 179.988 159.237 8
-3 -4 12 71564.5 2471.14 4
-3 -4 12 62844.6 1824.9 8
-3 -4 11 173.674 326.036 4
-3 -4 11 374.229 251.21 8
-3 -4 10 8021.12 927.455 4
-3 -4 10 7639.38 739.144 8
-3 -4 9 422.643 318.642 4
-3 -4 8 10339.7 970.698 4
3 4 -8 10393.5 1118.89 1
3 4 -8 9287.31 740.674 11
3 4 -7 -371.983 334.134 11
3 4 -7 -130.019 406.801 1
-3 -4 7 22.8756 196.117 4
-3 -4 7 -26.1729 146.535 17
3 4 -6 10560.2 799.001 11
3 4 -6 8626.5 965.056 1
-3 -4 6 9541.02 675.393 17
3 4 -5 2463.04 407.498 11
3 4 -5 1234.59 386.105 1
-3 -4 5 1766.98 322.139 17
3 4 -4 57918.6 1865.42 11
3 4 -4 59975.8 2359.88 1
-3 -4 4 61926.9 1719.77 17
3 4 -3 8184.46 863.817 1
-3 -4 3 7436.18 625.678 17
3 4 -2 4140.36 572.318 9
3 4 -2 4112.31 603.492 1
-3 -4 2 4581.75 504.251 5
3 4 -1 771.891 275.915 9
3 4 -1 1142.05 326.93 1
-3 -4 1 696.177 206.01 5
3 4 0 424.925 332.382 9
3 4 0 -69.4454 199.405 1
-3 -4 0 317.519 163.18 5
3 4 1 49.2487 190.027 9
3 4 1 -48.039 207.543 1
-3 -4 -1 611.857 231.404 5
3 4 2 59.2807 307.318 9
3 4 2 415.916 246.909 1
-3 -4 -2 332.462 212.561 5
3 4 3 2708.02 544.939 9
3 4 3 3023.43 658.815 6
-3 -4 -3 3546.71 545.927 5
3 4 3 3063.91 488.023 1
3 4 4 310.052 244.706 1
3 4 4 627.361 401.148 6
-3 4 -4 346.388 461.487 12
3 4 5 622.14 257.945 1
3 4 5 1214.32 432.183 6
-3 4 -5 755.982 642.896 12
3 4 6 1166.24 302.648 1
3 4 6 685.246 419.684 6
-3 4 -6 1494.67 493.279 12
3 4 7 -7.1031 407.057 6
3 4 8 13654.6 1532.35 6
3 4 9 6570.73 1063.87 6
3 4 10 2311.33 610.262 6
3 4 11 339.178 314.56 6
3 4 12 23680.3 1435.86 6
3 4 13 1152.7 337.601 6
-3 4 -13 37.4258 172.867 16
3 4 14 4518.49 474.665 9
-3 4 -14 6540.02 529.028 16
-3 -5 15 203.883 137.956 4
-3 -5 14 2143.95 357.731 4
-3 -5 13 3898.3 514.275 4
-3 -5 12 189.364 291.462 4
-3 -5 11 7572.81 839.762 4
-3 -5 10 4627.41 718.191 4
-3 -5 9 2919.42 593.154 4
-3 -5 9 3715.75 451.84 8
-3 -5 8 6805.23 788.857 4
3 5 -8 8319.56 746.175 11
3 5 -7 499.813 281.33 11
-3 -5 7 632.225 347.451 4
3 5 -6 1038.64 342.461 11
3 5 -6 544.924 184.332 15
3 5 -5 40789.9 1675.16 11
3 5 -5 42417.3 2058.07 1
3 5 -5 43073.8 1856.7 15
3 5 -4 67418.1 2182.68 11
3 5 -4 70283 2614.71 1
3 5 -4 71939.4 2400.26 15
3 5 -3 96.0118 203.451 11
3 5 -3 -131.81 207.051 1
3 5 -3 143.847 203.664 15
3 5 -2 378.829 310.35 11
3 5 -2 256.014 280.516 9
3 5 -2 444.412 235.626 1
3 5 -1 1560.85 503.954 9
3 5 -1 1854.42 444.92 1
3 5 0 42498.2 2163.09 9
3 5 0 45521.1 1935.57 1
3 5 1 604.753 445.125 9
3 5 1 570.968 284.403 1
3 5 2 24231.8 1715.61 9
3 5 2 26274.7 1402.27 1
3 5 3 2194.9 628.929 9
3 5 3 2797.37 469.702 1
3 5 4 10968.3 1230.62 9
3 5 5 616.625 454.074 9
3 5 6 31543 2131.21 9
3 5 6 33948 2219.79 6
3 5 7 30051.3 2104.49 9
3 5 7 30857.3 2166.38 6
3 5 8 4765.11 813.424 9
3 5 8 4815.63 893.925 6
3 5 9 -8.98799 334.193 9
3 5 9 1081 606.321 6
3 5 10 5701.64 830.404 6
3 5 10 5972.25 832.532 9
3 5 11 1281.86 367.49 9
3 5 12 12378.2 904.163 9
3 5 13 9.65801 171.08 9
-3 -6 13 706.01 178.114 4
-3 -6 12 1407.52 293.335 4
-3 -6 11 7808.34 718.287 4
-3 -6 10 1234.35 376.981 4
-3 -6 9 4694.36 643.316 4
-3 -6 8 3619.82 612.889 4
-3 -6 7 4622.17 670.036 4
-3 -6 6 10744.9 960.856 4
3 6 -6 10396.3 874.576 11
3 6 -5 15986.3 1181.36 15
3 6 -5 16460.7 1106.19 11
3 6 -4 12101.7 984.404 11
3 6 -4 13019.2 1083.67 15
3 6 -3 7563.33 778.956 11
3 6 -3 8047.87 882.997 15
3 6 -2 2292.09 484.75 11
3 6 -2 2680.63 564.705 15
3 6 -1 50599.7 1982.35 11
3 6 -1 49709 2236.57 15
3 6 0 9256.71 880.201 11
3 6 0 9863.21 1114.25 9
3 6 1 9856.4 904.872 11
3 6 1 9432.69 1085.34 9
3 6 2 338.778 320.451 11
3 6 2 -404.061 428.879 9
3 6 3 29210.5 1499.76 11
3 6 3 30774.6 1953.12 9
3 6 4 -336.327 320.657 11
3 6 4 -98.3067 415.726 9
3 6 5 6653.66 941.376 9
3 6 6 515.256 468.279 9
3 6 7 24042 1710.83 9
3 6 8 465.725 330.35 9
3 6 9 5014.45 688.449 9
3 6 10 135.026 216.847 9
3 6 11 4214.08 467.168 9
-3 -7 11 2477.36 275.027 4
-3 -7 10 1018.56 220.861 4
-3 -7 9 5573.36 556.034 4
-3 -7 8 6354.86 635.332 4
-3 -7 7 7474.89 703.408 4
-3 -7 6 584.002 298.949 4
-3 -7 5 3547.17 560.003 4
3 7 -4 29025 1500.07 15
3 7 -4 32847.7 1491.46 11
3 7 -3 367.745 325.452 11
3 7 -3 295.783 282.987 15
3 7 -2 1924.71 444.023 11
3 7 -2 1497.17 394.345 15
3 7 -1 30960.9 1648.63 15
3 7 -1 32137.7 1473.69 11
3 7 0 10875.1 1027.16 15
3 7 0 12847 937.279 11
3 7 1 328.214 235.438 11
3 7 1 241.342 255.229 15
3 7 2 695.585 250.122 11
3 7 3 1476.09 379.822 9
3 7 4 7676.56 893.899 9
3 7 5 74.0276 281.184 9
3 7 6 7876.24 835.132 9
3 7 7 132.261 253.053 9
3 7 8 572.386 207.468 9
3 7 9 1205.55 245.061 9
-3 -8 7 109.162 115.482 4
-3 -8 6 5294.88 453.525 4
-3 -8 5 321.502 157.785 4
-3 -8 4 119.578 145.094 4
-3 -8 3 83.0253 146.414 4
-3 -8 2 3007.12 430.485 4
3 8 -2 3000.84 417.319 15
3 8 -1 8308 686.583 15
3 8 0 46.012 236.135 15
3 8 1 5920.77 580.744 15
3 8 2 445.977 178.838 15
3 8 3 917.453 236.235 15
3 8 4 1566.7 283.386 15
3 8 5 -41.6718 136.883 15
4 0 -17 118.856 90.3628 13
4 0 -16 3706.11 338.398 13
4 0 -15 15.2937 143.62 13
-4 0 14 312.32 224.903 8
-4 0 13 -85.4445 304.969 10
-4 0 13 105.366 244.812 8
-4 0 12 18055.8 1213.71 10
-4 0 12 19385.6 1181.93 8
-4 0 12 19480.8 1245.79 4
-4 0 11 14.1052 275.228 10
-4 0 11 208.097 252.976 8
-4 0 10 184.321 273.739 10
-4 0 10 179.228 217.48 8
-4 0 9 129.022 209.826 10
-4 0 9 -148.31 254.256 8
-4 0 8 -87.0129 177.646 10
-4 0 7 -655.791 214.613 17
-4 0 6 404.706 147.392 17
-4 0 5 153.724 130.794 17
-4 0 4 19878.5 1022.44 17
-4 0 4 19298 1073.92 5
-4 0 3 149.469 223.048 5
-4 0 2 4373.8 534.151 5
-4 0 1 539.338 229.903 5
-4 0 0 41414 1737.05 16
4 0 0 41310.3 1280.85 1
4 0 1 -174.427 157.596 1
-4 0 -1 -88.6211 289.213 16
4 0 2 -37.1849 135.409 1
-4 0 -2 492.496 233.301 16
4 0 3 78.2068 143.868 1
-4 0 -3 -77.2 224.238 16
-4 0 -4 15719.6 1251 16
4 0 4 16472.6 970.066 1
4 0 5 -191.729 261.674 1
-4 0 -5 -397.536 335.57 16
4 0 6 10990.4 901.287 1
-4 0 -6 10813.4 1234.76 16
-4 0 -7 -447.2 690.683 16
-4 0 -8 74015.2 3391.97 16
-4 0 -9 -266.553 351.399 16
-4 0 -10 1640.2 464.624 16
-4 0 -11 51.6387 287.211 16
-4 0 -12 24092.6 1259.91 16
-4 0 -13 147.445 164.89 16
4 1 -17 2704.7 250.3 13
4 -1 -16 765.99 157.189 13
4 1 -16 1077.05 216.513 13
4 -1 -15 147.845 106.343 13
4 1 -15 161.195 175.914 13
-4 -1 14 698.217 281.823 8
4 -1 -14 656.414 186.042 13
-4 -1 14 384.637 201.998 4
-4 -1 13 133.517 254.706 10
-4 -1 13 -147.674 250.998 4
-4 1 13 119.352 196.873 8
-4 -1 13 283.009 297.702 8
-4 1 12 5303.63 634.628 10
-4 -1 12 5077.54 669.382 10
-4 1 12 5813.18 632.303 8
-4 -1 12 5171.55 697.752 8
-4 -1 12 5887.97 710.742 4
-4 -1 11 4840.54 660.73 10
-4 1 11 3960.17 589.61 10
-4 -1 11 3922.85 587.004 4
-4 1 11 4203.7 544.855 8
-4 -1 11 4800.91 706.387 8
-4 1 10 11153 976.557 10
-4 -1 10 11362.7 884.362 10
-4 1 10 10501.9 863.159 8
-4 -1 10 11583.4 955.84 8
-4 -1 10 9661.88 861.175 4
-4 1 9 163.327 271.352 10
-4 -1 9 222.434 228.992 10
-4 1 9 157.265 218.598 8
-4 1 8 8118.77 690.936 10
4 1 -8 6771.45 729.623 1
-4 1 8 7552.89 695.73 8
-4 -1 8 6108.08 637.665 17
-4 1 7 136.711 170.774 10
4 1 -7 -16.2272 229.279 1
-4 -1 7 166.867 116.833 17
4 1 -6 5536.89 623.708 1
-4 1 6 5093.98 475.373 17
-4 -1 6 5573.47 584.199 17
4 1 -5 14766.2 1006.03 1
-4 -1 5 14519 929.339 17
-4 1 5 14952.5 789.772 17
4 1 -4 64814.6 2031.76 1
-4 1 4 61855.9 1613.63 17
-4 -1 4 64915.7 1967.74 17
-4 1 4 65527.8 1738.18 5
-4 -1 4 67615.6 2073.8 5
4 1 -3 10829.1 820.336 1
-4 1 3 10261 719.24 5
-4 -1 3 11111.4 875.414 5
4 1 -2 3198.82 446.492 1
-4 -1 2 3594.88 513.157 5
-4 1 2 3004.24 409.57 5
4 1 -1 5118.73 562.189 1
-4 1 1 6517.93 646.275 16
-4 1 1 4749.68 567.324 5
-4 -1 1 6624.9 708.671 5
4 1 0 31540.2 1344.03 1
-4 1 0 31923.9 1498.22 16
-4 -1 -1 1351.37 404.616 16
-4 1 -1 942.797 324.106 16
4 1 1 1237.84 290.983 1
4 1 2 3559.55 451.414 1
-4 -1 -2 4130.24 609.162 16
-4 1 -2 3597.1 573.121 16
4 1 3 -157.083 173.1 1
-4 -1 -3 64.7307 276.649 16
-4 -1 -4 10038.9 1000.56 16
-4 1 -4 8478.21 958.884 16
4 1 4 8194.55 709.366 1
-4 1 -5 607.126 351.819 16
4 1 5 43.6719 216.846 1
-4 -1 -5 813.126 335.81 16
-4 -1 -6 19622.5 1593.22 16
-4 1 -6 19360.7 1657.12 16
4 1 6 22339.3 1325.41 1
4 1 7 143026 3501.2 1
-4 -1 -7 136252 4388.22 16
-4 1 -7 130708 4861.14 16
-4 1 -8 1339.05 737.362 16
-4 -1 -8 1672.58 554.939 16
-4 -1 -9 6822.11 865.765 16
-4 1 -9 6443.68 994.152 16
-4 -1 -10 1297.61 346.316 16
-4 1 -10 1545.43 459.344 16
-4 -1 -11 7706.87 723.237 16
-4 1 -11 7979.87 875.832 16
-4 -1 -12 1119.07 249.939 16
-4 1 -12 1273.72 343.921 16
-4 1 -13 2996.44 429.998 16
-4 1 -14 -24.5417 125.734 16
4 2 -17 7.02832 81.2321 13
4 2 -16 192.09 127.604 13
4 2 -15 2994.22 353.174 13
-4 -2 15 2800.34 400.359 4
-4 -2 14 653.027 257.804 4
-4 -2 14 -149.252 224.894 8
-4 -2 13 1965.71 352.657 10
-4 -2 13 1558.24 407.576 4
-4 -2 13 2151.54 440.469 8
-4 -2 12 1264.04 358.321 10
-4 -2 12 1493.05 398.126 4
-4 -2 12 1322.68 398.854 8
-4 2 11 25236.2 1271.07 10
-4 2 11 24711.3 1189.26 8
-4 -2 11 28858.6 1610.25 8
-4 -2 11 25252.4 1426.99 4
-4 2 10 660.296 262.144 10
-4 -2 10 1043.43 348.039 10
-4 -2 10 621.462 250.669 4
-4 2 10 543.383 211.611 8
-4 -2 9 20715.2 1261.08 4
-4 2 9 20717.4 1222.22 10
-4 -2 9 21381.9 1137.58 10
4 2 -9 24717.4 1631.51 1
-4 2 8 263.9 191.119 10
-4 -2 8 144.435 165.784 4
-4 -2 8 351.816 250.518 17
-4 2 7 5874.13 609.439 10
4 2 -7 5030.02 691.146 1
-4 -2 7 5092.45 612.644 4
-4 -2 7 5695.71 636.271 17
-4 2 6 18225 961.761 10
4 2 -6 17498.2 1223.53 1
-4 -2 6 17391.7 1064.99 17
-4 2 5 74078.1 1788.58 10
4 2 -5 75107.8 2495.4 1
-4 -2 5 75484.3 2208.63 17
4 2 -4 33787.2 1658.68 1
-4 -2 4 32831.5 1469.57 17
-4 -2 4 33596.9 1548.13 5
4 2 -3 46500.6 1881.71 1
-4 -2 3 47533 1858.79 5
4 2 -2 2884.8 479.861 1
-4 -2 2 3060.84 498.206 5
4 2 -1 58755.7 2071.33 1
-4 2 1 59250.9 1917.29 16
-4 -2 1 60004.8 2177.47 5
4 2 0 10526 886.43 1
-4 2 0 8731.54 781.742 16
-4 -2 0 10118.1 953.37 5
4 2 1 13511.1 960.133 1
-4 2 -1 13953.5 1050.13 16
4 2 2 4782.36 600.956 1
-4 2 -2 5658.63 725.229 16
-4 2 -3 39226.9 1992.98 16
4 2 3 38992.5 1608.69 1
4 2 4 -62.4101 188.003 1
-4 -2 -4 -166.769 390.498 16
-4 2 -4 153.509 311.895 16
-4 -2 -5 17392.7 1338.88 16
-4 2 -5 15526.2 1386.47 16
4 2 5 18929.2 1177.86 1
4 2 6 205.225 254.908 1
-4 -2 -6 -216.627 280.338 16
-4 2 -6 356.485 406.387 16
-4 -2 -7 30845.2 1876.06 16
-4 2 -7 30044.2 2391.42 16
-4 -2 -8 101.506 272.166 16
-4 2 -8 -263.129 433.93 16
-4 -2 -9 282.511 184.313 16
-4 2 -9 1225.86 578.715 16
-4 2 -10 121.92 356.741 16
-4 2 -11 7938.29 870.743 16
-4 2 -12 75.8022 217.742 16
-4 2 -13 2987.69 415.541 16
-4 2 -14 243.113 118.682 16
4 3 -16 259.365 90.0021 13
-4 -3 15 -41.9337 150.074 4
4 3 -15 333.892 135.801 13
-4 -3 14 672.274 250.968 4
-4 -3 14 780.338 246.716 8
-4 -3 13 7343.81 669.959 8
-4 -3 13 7643.27 734.625 4
-4 -3 12 3912.64 455.974 10
-4 -3 12 5445.22 634.967 8
-4 -3 12 5398.37 641.858 4
-4 -3 11 49.2913 236.618 10
-4 -3 11 -319.137 321.094 4
-4 -3 11 -211.768 386.664 8
-4 -3 10 7502.68 803.534 4
-4 -3 10 9662.92 761.205 10
-4 -3 9 637.008 238.926 10
-4 -3 9 455.734 258.765 4
-4 -3 8 5820.2 715.139 4
-4 -3 8 5645.54 640.467 17
4 3 -7 1539.19 420.283 1
-4 -3 7 2483.92 484.703 4
-4 -3 7 1536 357.668 17
4 3 -6 2851.81 419.688 11
4 3 -6 2444.72 510.907 1
-4 -3 6 3213.61 504.908 4
-4 -3 6 2791.92 456.967 17
-4 -3 5 5956.59 646.432 4
4 3 -5 6244.45 821.37 1
-4 -3 5 5624.23 637.565 17
4 3 -4 86730 2814.57 1
-4 -3 4 84676.8 2425.8 17
4 3 -3 4228.56 642.567 1
-4 -3 3 3614.4 546.026 5
4 3 -2 4508.04 657.619 1
-4 -3 2 4385.44 602.466 5
4 3 -1 11931 1001.67 1
-4 -3 1 11686.9 1009.45 5
4 3 0 29879.4 1553.78 1
-4 -3 0 27518.1 1598.31 5
-4 3 -1 11421.2 932.906 16
-4 -3 -1 10096.6 1026.9 5
-4 3 -2 3719.21 550.868 16
-4 -3 -2 3140.61 568.398 5
4 3 2 3056.93 507.989 1
4 3 3 7054.24 814.192 9
-4 3 -3 7278.18 874.264 16
4 3 3 7275.53 750.961 1
4 3 4 24024.1 1573.2 9
-4 3 -4 24257.7 1622.51 16
4 3 4 24829.4 1343.45 1
4 3 5 1305.64 297.415 9
-4 3 -5 1785.32 490.418 16
-4 3 -6 19382.7 1650.79 16
-4 3 -7 252.076 333.196 16
-4 3 -8 1219.31 457.974 16
-4 3 -9 28340.1 1815.27 16
-4 3 -10 3382.37 575.741 16
4 3 11 3452.79 517.065 9
-4 3 -11 4310.72 563.388 16
4 3 12 1471.9 281.054 9
-4 3 -12 1834.06 371.801 16
-4 3 -13 6944.29 518.972 16
-4 -4 15 1064.25 190.973 4
-4 -4 14 1607.38 277.553 4
-4 -4 13 372.96 217.618 4
-4 -4 13 384.387 161.948 8
-4 -4 12 3147.81 424.136 8
-4 -4 12 3150.72 464.299 4
-4 -4 11 59.6352 228.417 4
-4 -4 11 56.7245 183.384 8
-4 -4 10 305.537 292.727 4
-4 -4 10 665.586 301.996 8
-4 -4 9 127.853 156.756 10
-4 -4 9 -18.6703 287.668 4
4 4 -8 21.7738 154.54 11
-4 -4 8 212.175 116.795 10
-4 -4 8 -80.4529 244.276 4
4 4 -7 168.445 191.008 11
-4 -4 7 172.011 205.825 4
-4 -4 7 173.859 171.487 17
4 4 -6 45189.8 1650.53 11
-4 -4 6 43761.9 1854.92 4
-4 -4 6 44446.7 1646.96 17
4 4 -5 2711.62 470.737 11
-4 -4 5 2960.49 493.452 4
-4 -4 5 2842.76 437.733 17
4 4 -4 21555.6 1232.27 11
-4 -4 4 24533.1 1337.94 4
4 4 -4 26257.8 1584.79 1
-4 -4 4 24506.7 1291.11 17
4 4 -3 2386.51 471.804 1
-4 -4 3 1998.78 390.473 17
4 4 -2 1029.22 333.903 1
4 4 -1 22.8706 183.444 9
4 4 -1 282.295 230.984 1
-4 -4 1 235.321 210.608 5
4 4 0 504.552 267.175 9
4 4 0 6.47129 249.014 1
-4 -4 0 -87.7137 284.918 5
4 4 1 13933.1 1119.38 9
4 4 1 13755.3 1061.66 1
-4 -4 -1 15496.9 1146.74 5
4 4 2 1364.7 382.192 9
-4 -4 -2 1118.07 394.476 5
4 4 3 3368.55 630.249 9
-4 -4 -3 2707.13 528.907 5
4 4 4 6944.46 901.407 9
-4 4 -4 6556.18 797.289 16
-4 -4 -4 7492.82 862.622 5
4 4 5 426.314 279.476 9
-4 4 -5 42.9824 221.832 16
-4 -4 -5 903.673 367.637 5
4 4 6 6375.01 926.763 9
-4 4 -6 5103.68 753.805 16
-4 -4 -6 5796.19 764.38 5
4 4 7 -52.423 369.892 9
-4 4 -7 196.493 324.501 16
-4 -4 -7 -203.018 340.319 5
4 4 8 25289 1781.54 9
-4 4 -8 29550.2 1800.72 16
-4 -4 -8 28666 1578.88 5
4 4 9 152.936 310.562 9
-4 4 -9 342.996 264.898 16
-4 -4 -9 -88.875 241.42 5
4 4 10 1074.76 299.102 9
-4 4 -10 1532.59 322.676 16
-4 -4 -10 432.361 169.313 5
4 4 11 805.449 262.737 9
-4 4 -11 1242.85 276.234 16
-4 4 -12 3986.68 362.174 16
-4 -5 13 3836.44 367.054 4
-4 -5 12 3228.28 408.459 4
-4 -5 11 564.219 236.713 4
-4 -5 11 530.182 170.492 8
-4 -5 10 2452 415.838 4
-4 -5 10 2917.35 370.171 8
-4 -5 9 534.003 278.968 4
-4 -5 9 262.923 170.583 8
-4 -5 8 8670.39 841.821 4
4 5 -8 7663.46 670.8 11
4 5 -7 243.645 206.996 11
-4 -5 7 -19.1063 222.143 4
4 5 -6 9503.2 779.266 11
-4 -5 6 9407.32 869.604 4
4 5 -5 5201.16 635.163 11
-4 -5 5 4605.01 609.976 4
-4 -5 5 4531.63 475.484 17
4 5 -4 7648.85 762.7 11
-4 -5 4 9090.35 832.521 4
-4 -5 4 9249.66 687.765 17
4 5 -3 7487.65 758.085 11
-4 -5 3 10042.6 727.145 17
4 5 -2 10021.8 930.385 11
-4 -5 2 10368.5 770.265 17
-4 -5 1 517.886 236.481 17
4 5 0 14949.1 1195.73 9
4 5 1 6519.1 823.535 9
4 5 2 21710.2 1487.48 9
-4 -5 -2 20781.9 1148.53 5
4 5 3 1789.39 476.943 9
4 5 4 -209.898 246.721 9
4 5 5 4050.44 699.475 9
4 5 6 9700.38 1066.03 9
4 5 7 569.431 311.886 9
4 5 8 3916.78 595.07 9
4 5 9 7655.41 732.798 9
4 5 10 1136.69 233.04 9
-4 -6 11 4462.89 383.683 4
-4 -6 10 2061.29 312.536 4
-4 -6 9 4296.49 494.28 4
-4 -6 8 507.309 243.371 4
-4 -6 7 2079.94 386.407 4
4 6 -6 1236.94 320.402 11
-4 -6 6 910.418 311.419 4
-4 -6 5 31233.4 1439.36 4
4 6 -5 31586.2 1363.34 11
4 6 -4 5314.68 620.879 11
-4 -6 4 4353.93 591.997 4
4 6 -3 4289.75 586.727 11
4 6 -2 2467.46 467.41 11
4 6 -1 9384.62 848.086 11
4 6 -1 8073.86 713.172 15
4 6 0 2621.97 502.984 11
4 6 0 2010.42 445.868 15
4 6 1 16116.8 1082.59 11
4 6 1 15376.9 1040.37 15
4 6 2 2420.76 440.732 11
4 6 3 4688.9 577.539 11
4 6 3 3885.48 588.508 9
4 6 4 2630.51 404.926 11
4 6 4 1867.67 478.56 9
4 6 5 7863.86 833.203 9
4 6 6 1043.35 295.911 9
4 6 7 3889.52 528.894 9
4 6 8 81.2392 132.141 9
-4 -7 8 2537.19 287.959 4
-4 -7 7 -97.0186 148.959 4
-4 -7 6 699.128 185.042 4
-4 -7 5 128.224 135.098 4
-4 -7 4 3880.99 434.028 4
-4 -7 3 465.003 212.976 4
4 7 -3 188.447 184.697 11
-4 -7 2 8115.13 642.161 4
4 7 -2 8932.39 678.582 11
4 7 -1 373.657 192.518 11
-4 -7 1 331.84 204.334 4
4 7 -1 15.0952 194.129 15
4 7 0 177.286 186.299 11
4 7 0 139.882 147.007 15
4 7 1 247.736 186.095 11
4 7 1 467.415 151.512 15
4 7 2 5169.66 473.629 15
4 7 2 5428.96 456.315 11
4 7 3 2064.28 326.652 15
4 7 4 -270.522 156.914 15
5 0 -14 179.52 92.12 13
-5 0 13 -14.5724 136.496 8
-5 0 12 -74.3943 212.981 10
-5 0 12 -167.587 203.247 8
-5 0 11 16.3342 246.323 10
-5 0 11 -187.702 194.447 8
-5 0 10 2592.72 521.192 10
-5 0 10 2328.96 423.93 8
-5 0 9 97.5407 211.761 10
-5 0 9 -159.377 238.782 8
-5 0 8 5741.93 663.318 10
-5 0 7 -152.241 248.925 10
-5 0 7 -25.603 175.723 17
-5 0 6 26185.8 1247.34 17
-5 0 5 94.4217 186.431 17
-5 0 4 99893.3 2523.41 17
-5 0 3 31.5265 168.666 17
-5 0 3 107.051 186.244 5
-5 0 2 2067.78 458.309 5
-5 0 1 -11.3458 262.075 5
-5 0 0 6193.49 811.72 5
-5 0 -1 -85.9876 272.008 5
-5 0 -2 4152.35 696.942 5
-5 0 -3 686.696 450.102 16
-5 0 -4 26449.7 1791.47 16
-5 0 -5 -108.753 416.08 16
-5 0 -6 38797.7 2435.33 16
-5 0 -7 -239.598 463.742 16
-5 0 -8 2136.19 591.245 16
-5 0 -9 515.485 329.316 16
5 1 -15 -69.9849 77.8859 13
-5 -1 14 56.5121 145.568 8
-5 -1 13 3131.01 408.129 8
-5 -1 12 2563.63 412.063 10
-5 -1 12 2956.77 422.548 8
-5 -1 11 3908.98 596.988 10
-5 1 11 3006.01 480.891 10
-5 -1 11 3440.16 513.676 8
-5 1 10 1059.55 353.03 10
-5 -1 10 2093.48 411.315 10
-5 -1 10 1706.6 456.179 8
-5 1 9 1117.16 389.183 10
-5 -1 9 1128.43 381.41 10
-5 1 9 790.175 248.255 8
-5 1 8 2897.99 472.487 10
-5 -1 8 2295.07 425.054 10
-5 1 8 2052.69 381.365 8
-5 1 7 314.081 209.668 10
-5 1 7 202.154 153.225 8
-5 -1 7 555.079 237.962 17
-5 1 6 6764.48 670.647 10
-5 1 6 5612.56 545.936 17
-5 -1 6 6104.27 649.734 17
-5 1 5 4645.66 489.822 17
-5 -1 5 3949.23 539.645 17
-5 1 4 17023.2 932.496 17
-5 -1 4 14825.1 1044.6 17
-5 1 3 40248.6 1458.28 17
-5 -1 3 38207.3 1708.89 17
-5 1 3 36388.5 1526.29 5
-5 -1 3 36836.4 1787.86 5
-5 1 2 1084.95 255.52 17
-5 1 2 1231.75 280.652 5
-5 -1 2 479.11 333.284 5
-5 1 1 749.888 319.83 5
-5 -1 1 478.112 360.949 5
-5 1 0 4843.89 616.603 5
-5 -1 0 3340.91 638.538 5
-5 1 -1 1219.66 324.168 5
-5 -1 -1 952.953 404.137 5
-5 1 -2 7629.82 927.672 16
-5 1 -2 8688.3 932.821 5
-5 -1 -2 7104.37 979.668 5
-5 1 -3 15561.9 1343.06 16
-5 1 -4 -140.39 430.554 16
-5 1 -5 4599.04 863.307 16
-5 1 -6 5418.02 991.299 16
-5 1 -7 2485.55 706.816 16
-5 1 -8 3846.64 679.158 16
-5 1 -9 5094.74 647.647 16
-5 1 -10 640.712 267.826 16
-5 1 -11 2299.63 329.171 16
5 2 -15 2012.3 191.562 13
-5 -2 14 398.397 167.663 8
-5 -2 13 894.303 247.327 8
-5 -2 12 127.088 196.319 10
-5 -2 12 76.8909 207.95 8
-5 -2 11 6528.22 680.439 10
-5 -2 11 7717.91 761.009 8
-5 2 10 185.172 187.325 10
-5 -2 10 528.955 246.412 10
-5 -2 10 272.443 246.724 8
-5 -2 9 4269.18 546.641 10
-5 2 9 3069.63 464.497 10
-5 2 8 -131.993 276.02 10
-5 -2 8 96.1154 194.116 10
-5 2 7 1751.21 391.161 10
-5 -2 7 902.868 314.655 17
-5 2 6 9145.65 728.181 10
-5 -2 6 9340.62 828.835 17
-5 2 5 61638.7 1774.19 10
-5 -2 5 62682.2 2101.64 17
-5 -2 4 13188.3 1010.3 17
-5 -2 3 442.903 250.227 17
-5 -2 3 486.416 309.988 5
-5 -2 2 -92.3444 264.731 5
-5 -2 1 11887.9 1074.79 5
-5 -2 0 942.183 390.361 5
-5 -2 -1 5145.11 778.876 5
-5 2 -2 3302.23 591.943 16
-5 -2 -2 3322.03 688.518 5
-5 2 -3 10365.7 1071.36 16
-5 -2 -3 9851.71 1096.43 5
-5 2 -4 1683.18 469.114 16
-5 -2 -4 1636.1 512.101 5
-5 2 -5 3660.47 714.369 16
-5 2 -6 2039.1 633.824 16
-5 2 -7 -13.3039 424.756 16
-5 2 -8 7565.7 908.409 16
-5 2 -9 767.378 324.378 16
-5 2 -10 892.481 246.306 16
-5 -2 -10 504.826 227.853 5
-5 2 -11 1032.19 223.676 16
-5 -2 -11 1421.14 250.127 5
5 3 -14 263.608 90.9717 13
-5 -3 13 49.9485 127.25 8
-5 -3 12 3156.48 309.663 10
-5 -3 12 4191.72 464.947 8
-5 -3 11 -2.74667 140.895 10
-5 -3 11 368.824 268.3 8
-5 -3 10 505.006 213.974 10
-5 -3 10 -333.469 250.61 8
-5 -3 9 19.7389 198.969 10
-5 -3 8 1440.43 343.922 10
-5 -3 7 195.591 240.959 17
5 3 -6 2534.55 356.424 11
-5 -3 6 3503.9 502.475 17
5 3 -5 6195.48 599.452 11
-5 -3 5 6386.81 705.804 17
-5 -3 4 13615 1020.13 17
-5 -3 3 499.85 317.019 17
-5 -3 2 913.274 344.559 17
-5 -3 2 809.08 318.191 5
-5 -3 1 1207.21 405.469 5
-5 -3 0 -264.088 316.133 5
-5 -3 -1 4549.15 690.028 5
-5 -3 -2 14282.3 1217.84 5
-5 3 -3 4310.83 603.084 16
-5 -3 -3 3306.72 665.533 5
-5 3 -4 -75.7293 233.038 16
-5 -3 -4 281.281 288.843 5
-5 3 -5 -31.7547 354.594 16
-5 -3 -5 164.7 313.758 5
-5 3 -6 4225.94 700.003 16
-5 -3 -6 3142.17 630.56 5
-5 3 -7 43868.2 2139.46 16
-5 -3 -7 36692.1 2021.03 5
-5 3 -8 2803.74 467.768 16
-5 -3 -8 2302.2 500.105 5
-5 3 -9 1220.62 301.291 16
-5 -3 -9 967.488 267.908 5
-5 3 -10 567.842 173.664 16
-5 -3 -10 517.037 155.756 5
-5 -4 12 87.7507 100.869 8
-5 -4 11 -147.004 147.025 8
-5 -4 10 -484.699 154.432 10
-5 -4 10 101.534 177.407 8
-5 -4 9 2867.52 355.793 10
-5 -4 9 2632.55 417.59 8
-5 -4 8 1033.82 230.886 10
-5 -4 7 -107.938 169.39 10
5 4 -6 362.72 185.266 11
-5 -4 6 412.021 227.636 17
5 4 -5 625.091 235.13 11
-5 -4 5 604.992 250.332 17
5 4 -4 2502.14 417.867 11
-5 -4 4 1895.97 387.433 17
5 4 -3 1148.53 319.228 11
-5 -4 3 1226.16 359.077 17
-5 -4 2 2490.87 460.872 17
-5 -4 1 1345.47 394.039 17
-5 -4 0 8943.88 817.496 5
-5 -4 -1 1966.02 417.175 5
-5 -4 -2 7945.59 811.946 5
-5 -4 -3 1371.86 395.155 5
-5 -4 -4 2701.79 465.387 5
-5 -4 -5 -1.52834 200.573 5
-5 -4 -6 3695.48 528.915 5
-5 -4 -7 4430.85 465.293 5
-5 -4 -8 16130.4 676.358 5
-5 -5 10 2939.93 264.923 8
-5 -5 9 195.799 157.465 8
-5 -5 8 979.162 226.343 8
5 5 -7 -170.028 151.533 11
5 5 -6 3501.4 386.968 11
5 5 -5 3832.2 439.369 11
5 5 -4 5508.58 557.23 11
-5 -5 4 5568.68 488.09 17
5 5 -3 2866 420.77 11
-5 -5 3 3121.45 374.944 17
5 5 -2 -54.4264 235.823 11
-5 -5 2 427.426 233.855 17
5 5 -1 5688.85 644.224 11
-5 -5 1 6203.36 568.688 17
5 5 0 15852.6 1055.02 11
-5 -5 0 15804.5 908.075 17
5 5 1 -6.23447 258.088 11
-5 -5 -1 502.221 215.793 17
5 5 2 -116.944 249.044 11
-5 -5 -2 -121.447 229.721 17
5 5 3 4551.95 557.727 11
-5 -5 -3 3945.15 499.344 17
5 5 4 2125.75 352.576 11
5 5 5 1745.77 303.835 11
5 6 -5 6564.31 463.559 11
5 6 -4 601.46 214.556 11
5 6 -3 2121.12 309.916 11
5 6 -2 941.029 232.737 11
5 6 -1 3273.82 382.872 11
5 6 0 1550.74 302.814 11
5 6 1 1533.34 270.593 11
5 6 2 477.372 162.697 11
5 6 3 829.336 178.001 11
-6 0 11 16.172 104.312 10
-6 0 10 178.196 161.759 10
-6 0 9 -242.482 236.083 10
-6 0 8 1088.07 302.369 10
-6 0 7 99.559 213.64 10
-6 0 6 660.287 239.792 10
-6 0 5 -71.4742 251.251 10
-6 0 5 1155.51 258.825 17
-6 0 4 21899.9 1048.43 17
-6 0 3 93.2095 158.738 17
-6 0 2 1566.96 305.247 17
-6 0 1 171.027 205.82 17
-6 0 1 -778.799 271.261 5
-6 0 0 2398.8 414.105 17
-6 0 0 2237.2 433.03 5
-6 0 -1 -15.9967 188.153 17
-6 0 -1 -145.782 250.365 5
-6 0 -2 27658.3 1454.07 5
-6 0 -3 -92.0023 195.267 5
-6 0 -4 754.033 272.824 5
-6 0 -5 -77.7439 304.731 5
-6 0 -6 3797.61 557.151 5
-6 0 -7 34.3909 146.084 5
-6 -1 11 557.373 152.86 10
-6 -1 10 -84.8551 201.101 10
-6 -1 10 168.794 131.502 8
-6 1 9 276.352 132.55 10
-6 -1 9 50.2451 184.138 10
-6 -1 9 -155.372 203.366 8
-6 1 8 -145.031 207.285 10
-6 -1 8 51.2731 165.277 10
-6 -1 8 132.685 180.381 8
-6 1 7 398.12 197.708 10
-6 -1 7 546.825 279.361 10
-6 1 6 3145.08 438.653 10
-6 -1 6 2833.57 443.173 10
-6 -1 6 3172.8 434.979 17
-6 -1 5 28225.9 1211.86 17
-6 -1 4 349.11 225.438 17
-6 -1 3 -65.4275 229.368 17
-6 -1 2 -59.3326 239.125 17
-6 -1 1 1750.26 366.444 17
-6 -1 1 2320.09 458.499 5
-6 -1 0 647.921 265.494 17
-6 -1 0 1155.67 382.212 5
-6 -1 -1 928.483 342.616 5
-6 -1 -2 740.815 292.453 5
-6 -1 -3 11944.4 1001.2 5
-6 -1 -4 486.448 262.406 5
-6 -1 -5 84.1934 229.084 5
-6 -1 -6 -185.28 317.548 5
-6 -1 -7 6674.33 586.447 5
-6 -1 -8 954.709 182.939 5
-6 -2 11 -113.141 107.661 10
-6 -2 11 61.166 77.0909 8
-6 -2 10 -41.6885 169.165 10
-6 -2 10 85.4813 121.044 8
-6 -2 9 3461.55 402.735 10
-6 -2 9 2753.75 389.546 8
-6 -2 8 947.998 253.463 10
-6 -2 8 1039.81 262.295 8
-6 -2 7 155.6 183.689 10
-6 -2 6 1008.58 260.248 17
-6 -2 5 11193.4 782.99 17
-6 -2 4 321.632 221.997 17
-6 -2 3 1720.65 360.085 17
-6 -2 2 -330.972 260.172 17
-6 -2 1 -86.4108 272.855 17
-6 -2 0 375.701 220.99 17
-6 -2 0 179.009 215.235 5
-6 -2 -1 3383.45 529.913 5
-6 -2 -2 1765.2 415.384 5
-6 -2 -3 282.346 232.643 5
-6 -2 -4 676.844 268.474 5
-6 -2 -5 -34.4921 204.007 5
-6 -2 -6 1137.8 280.677 5
-6 -2 -7 500.54 156.8 5
-6 -3 10 10.5613 93.6488 10
-6 -3 10 -53.3671 89.3685 8
-6 -3 9 2045.54 292.673 10
-6 -3 9 3105.87 353.572 8
-6 -3 8 311.041 143.099 10
-6 -3 8 42.9092 161.528 8
-6 -3 7 448.902 200.081 10
-6 -3 6 2308.96 369.968 10
-6 -3 5 813.485 241.874 17
6 3 -4 273.369 150.575 11
-6 -3 4 192.108 195.762 17
6 3 -3 11085.3 670.683 11
-6 -3 3 12585.5 808.319 17
-6 -3 2 308.729 197.755 17
-6 -3 1 -62.5189 186.902 17
-6 -3 0 -94.4278 196.316 17
-6 -3 -1 3429.79 474.334 17
-6 -3 -2 1076.7 300.046 17
-6 -3 -2 511.877 244.315 5
-6 -3 -3 1554.19 362.911 5
-6 -3 -4 476.2 221.539 5
-6 -3 -5 286.839 150.667 5
-6 -3 -6 868.507 184.745 5
-6 -4 8 3715.25 344.283 8
-6 -4 7 -494.951 133.619 10
-6 -4 7 -187.99 142.674 8
-6 -4 6 932.244 210.825 10
-6 -4 5 56.1954 105.292 10
6 4 -4 16094.3 637.065 11
-6 -4 4 16242.8 758.187 17
6 4 -3 -23.4714 134.895 11
-6 -4 3 -85.7117 157.749 17
6 4 -2 810.382 201.886 11
-6 -4 2 928.826 221.93 17
6 4 -1 1033.21 218.261 11
-6 -4 1 1291.97 251.783 17
6 4 0 1404.18 309.393 11
-6 -4 0 1592.8 278.222 17
6 4 1 327.263 224.952 11
-6 -4 -1 269.319 172.033 17
6 4 2 1642.01 293.666 11
-6 -4 -2 1448.36 269.108 17
6 4 3 -269.38 176.436 11
-6 -4 -3 -125.248 170.892 17
6 4 4 3861.99 346.729 11
-6 -4 -4 3313.94 391.754 17
-7 -1 5 179.664 97.3595 10
-7 -2 3 48.6798 77.123 10
-7 -2 2 167.556 80.4539 10
