#------------------------------------------------------------------------------
#$Date: 2016-03-26 14:56:23 +0200 (Sat, 26 Mar 2016) $
#$Revision: 180281 $
#$URL: svn://www.crystallography.net/cod/cif/7/11/67/7116773.cif $
#------------------------------------------------------------------------------
#
# This file is available in the Crystallography Open Database (COD),
# http://www.crystallography.net/
#
# All data on this site have been placed in the public domain by the
# contributors.
#
data_7116773
loop_
_publ_author_name
'M. Basile'
'D. K. Unruh'
'K. Gojdas'
'E. Flores'
'L. Streicher'
'T. Z. Forbes'
_publ_section_title
;
 Chemical controls on uranyl citrate speciation and the self-assembly of
 nanoscale macrocycles and sandwich complexes in aqueous solutions
;
_journal_name_full               Chem.Commun.
_journal_page_first              5306
_journal_paper_doi               10.1039/C4cc08657K
_journal_volume                  51
_journal_year                    2015
_chemical_formula_moiety         'C12 H14 O20 U2, 2(C5 H6 N), 2(H2 O)'
_chemical_formula_sum            'C22 H30 N2 O22 U2'
_chemical_formula_weight         1150.54
_chemical_name_systematic
;
 ?
;
_space_group_IT_number           2
_symmetry_cell_setting           triclinic
_symmetry_Int_Tables_number      2
_symmetry_space_group_name_Hall  '-P 1'
_symmetry_space_group_name_H-M   'P -1'
_atom_sites_solution_hydrogens   geom
_atom_sites_solution_primary     direct
_atom_sites_solution_secondary   difmap
_audit_creation_date             2014-03-28T08:12:49-00:00
_audit_creation_method           'WinGX routine CIF_UPDATE'
_audit_update_record
;
2014-10-28 deposited with the CCDC.
2014-11-21 downloaded from the CCDC.
;
_cell_angle_alpha                100.6621(23)
_cell_angle_beta                 99.5051(23)
_cell_angle_gamma                91.0417(22)
_cell_formula_units_Z            1
_cell_length_a                   6.7978(5)
_cell_length_b                   9.8815(8)
_cell_length_c                   11.7825(9)
_cell_measurement_reflns_used    9930
_cell_measurement_temperature    210(2)
_cell_measurement_theta_max      27.41
_cell_measurement_theta_min      2.48
_cell_volume                     766.15(10)
_computing_cell_refinement       'APEX2 (Bruker AXS, 2006)'
_computing_data_collection       'Collect (Nonius BV, 1997-2000)'
_computing_data_reduction        'APEX2 (Bruker AXS, 2006)'
_computing_molecular_graphics    'CrystalMaker v2.7.7'
_computing_structure_refinement  'SHELXL-2013 (Sheldrick, 2013)'
_computing_structure_solution    'SHELXS-97 (Sheldrick, 2008)'
_diffrn_ambient_temperature      210(2)
_diffrn_measured_fraction_theta_full 0.999
_diffrn_measured_fraction_theta_max 0.995
_diffrn_measurement_device_type  KappaCCD
_diffrn_measurement_method       'CCD phi and omega scans'
_diffrn_radiation_monochromator  graphite
_diffrn_radiation_type           MoK\a
_diffrn_radiation_wavelength     0.71073
_diffrn_reflns_av_R_equivalents  0.0263
_diffrn_reflns_Laue_measured_fraction_full 0.999
_diffrn_reflns_Laue_measured_fraction_max 0.995
_diffrn_reflns_limit_h_max       8
_diffrn_reflns_limit_h_min       -8
_diffrn_reflns_limit_k_max       12
_diffrn_reflns_limit_k_min       -12
_diffrn_reflns_limit_l_max       15
_diffrn_reflns_limit_l_min       -15
_diffrn_reflns_number            19074
_diffrn_reflns_point_group_measured_fraction_full 0.999
_diffrn_reflns_point_group_measured_fraction_max 0.995
_diffrn_reflns_theta_full        25.242
_diffrn_reflns_theta_max         27.436
_diffrn_reflns_theta_min         3.042
_exptl_absorpt_coefficient_mu    10.654
_exptl_absorpt_correction_T_max  0.7455
_exptl_absorpt_correction_T_min  0.5532
_exptl_absorpt_correction_type   multi-scan
_exptl_absorpt_process_details   SADABS
_exptl_crystal_colour            yellow
_exptl_crystal_density_diffrn    2.494
_exptl_crystal_density_method    'not measured'
_exptl_crystal_description       blade
_exptl_crystal_F_000             536
_exptl_crystal_size_max          0.18
_exptl_crystal_size_mid          0.08
_exptl_crystal_size_min          0.08
_refine_diff_density_max         0.889
_refine_diff_density_min         -0.959
_refine_diff_density_rms         0.092
_refine_ls_extinction_method     none
_refine_ls_goodness_of_fit_ref   1.077
_refine_ls_hydrogen_treatment    mixed
_refine_ls_matrix_type           full
_refine_ls_number_parameters     230
_refine_ls_number_reflns         3482
_refine_ls_number_restraints     6
_refine_ls_restrained_S_all      1.081
_refine_ls_R_factor_all          0.015
_refine_ls_R_factor_gt           0.0134
_refine_ls_shift/su_max          0.001
_refine_ls_shift/su_mean         0
_refine_ls_structure_factor_coef Fsqd
_refine_ls_weighting_details
'w=1/[\s^2^(Fo^2^)+(0.0166P)^2^+0.3105P] where P=(Fo^2^+2Fc^2^)/3'
_refine_ls_weighting_scheme      calc
_refine_ls_wR_factor_gt          0.0321
_refine_ls_wR_factor_ref         0.0327
_reflns_number_gt                3305
_reflns_number_total             3482
_reflns_threshold_expression     'I > 2\s(I)'
_iucr_refine_instructions_details
;
TITL p-1 in P-1
CELL 0.71073   6.7978   9.8815  11.7825 100.662  99.505  91.042
ZERR    1.00   0.0005   0.0008   0.0009   0.002   0.002   0.002
LATT  1
SFAC C H N O U
UNIT 22 30 2 22 2
TEMP -63
SIZE 0.18 0.08 0.08

L.S. 10
BOND $H
FMAP 2
PLAN 10
HTAB

ACTA
LIST 4

OMIT 0 1 0
OMIT 0 0 1
OMIT 0 1 1

DANG 1.6 H4A H4B
DANG 1.6 H11B H11C
DFIX 0.96 0.02 O4 H4A
DFIX 0.96 0.02 O4 H4B
DFIX 0.96 0.02 O11 H11B
DFIX 0.96 0.02 O11 H11C

WGHT    0.016600    0.310500
FVAR       0.12883
U1    5    0.029368    0.189572    0.087700    11.00000    0.02303    0.01177 =
         0.01362    0.00124   -0.00192    0.00076
O1    4    0.090456   -0.043433    0.097312    11.00000    0.02417    0.01377 =
         0.01277    0.00237   -0.00504    0.00235
O2    4    0.270933    0.219101    0.055507    11.00000    0.02767    0.02633 =
         0.02823    0.00665    0.00163   -0.00298
O3    4    0.258454   -0.320430    0.236351    11.00000    0.03726    0.01659 =
         0.02164    0.00540   -0.00558    0.00125
O4    4    0.026274    0.435374    0.177660    11.00000    0.03724    0.01427 =
         0.02704    0.00176   -0.00294    0.00144
O5    4   -0.208507    0.169107    0.127138    11.00000    0.02806    0.02237 =
         0.02942   -0.00141    0.00500    0.00318
O6    4    0.218210    0.150513    0.462725    11.00000    0.05128    0.01945 =
         0.01473   -0.00015   -0.00378    0.00641
O7    4    0.180195    0.193106    0.283862    11.00000    0.04336    0.01641 =
         0.01665    0.00251   -0.00515   -0.00046
O8    4    0.695813   -0.201193    0.245666    11.00000    0.02916    0.02365 =
         0.03703    0.00206   -0.00087    0.00834
O9    4    0.605241   -0.026903    0.372198    11.00000    0.03474    0.02209 =
         0.02197    0.00215   -0.00840    0.00642
AFIX 147
H9B   2    0.680082   -0.062576    0.420251    11.00000   -1.50000
AFIX   0
O10   4    0.108996   -0.309370    0.057340    11.00000    0.05158    0.01426 =
         0.01964    0.00205   -0.01135    0.00008
O11   4    0.683667    0.542996    0.089650    11.00000    0.04384    0.03392 =
         0.03618    0.00181    0.00477    0.00477
C1    1    0.193606   -0.254194    0.159923    11.00000    0.02100    0.01628 =
         0.01888    0.00197    0.00062    0.00002
C2    1    0.437936   -0.057596    0.176254    11.00000    0.02078    0.02044 =
         0.01840    0.00449    0.00044   -0.00001
AFIX  23
H2A   2    0.462163   -0.099190    0.097911    11.00000   -1.20000
H2B   2    0.454899    0.042669    0.184699    11.00000   -1.20000
AFIX   0
C3    1    0.591810   -0.104247    0.265852    11.00000    0.02075    0.01672 =
         0.02354    0.00381   -0.00075   -0.00312
C4    1    0.190278    0.109479    0.353863    11.00000    0.02272    0.01883 =
         0.01773    0.00105   -0.00269    0.00301
C5    1    0.162055   -0.042895    0.306466    11.00000    0.02364    0.01649 =
         0.01383    0.00254    0.00041    0.00047
AFIX  23
H5A   2    0.021351   -0.070132    0.302423    11.00000   -1.20000
H5B   2    0.241034   -0.090720    0.362841    11.00000   -1.20000
AFIX   0
C6    1    0.218825   -0.094732    0.185304    11.00000    0.02096    0.01436 =
         0.01275    0.00206   -0.00399    0.00182
N1    3    0.719590    0.576156    0.463033    11.00000    0.03463    0.01672 =
         0.03316   -0.00563    0.00786    0.00257
AFIX  43
H1    2    0.730224    0.664969    0.487930    11.00000   -1.20000
AFIX   0
C7    1    0.638345    0.527525    0.351287    11.00000    0.03429    0.02715 =
         0.03101    0.00761    0.00473    0.00735
AFIX  43
H7    2    0.592890    0.588633    0.301409    11.00000   -1.20000
AFIX   0
C8    1    0.784864    0.494712    0.537796    11.00000    0.03619    0.03828 =
         0.02145    0.00124    0.00560    0.00132
AFIX  43
H8    2    0.840007    0.532895    0.615976    11.00000   -1.20000
AFIX   0
C9    1    0.771012    0.354077    0.499761    11.00000    0.05052    0.03200 =
         0.03727    0.01437    0.01355    0.00303
AFIX  43
H9A   2    0.816022    0.294758    0.551348    11.00000   -1.20000
AFIX   0
C10   1    0.689679    0.301878    0.384313    11.00000    0.04902    0.01732 =
         0.04238   -0.00017    0.01659   -0.00230
AFIX  43
H10   2    0.680883    0.206082    0.356533    11.00000   -1.20000
AFIX   0
C11   1    0.621735    0.388522    0.309967    11.00000    0.03603    0.03075 =
         0.02487   -0.00628    0.00562   -0.00154
AFIX  43
H11A  2    0.564479    0.352909    0.231622    11.00000   -1.20000
AFIX   0
H4A   2   -0.094006    0.471833    0.148781    11.00000   -1.50000
H4B   2    0.126254    0.502717    0.188046    11.00000   -1.50000
H11B  2    0.675108    0.636815    0.115193    11.00000   -1.50000
H11C  2    0.657535    0.523690    0.010126    11.00000   -1.50000
HKLF 4

REM  p-1 in P-1
REM R1 =  0.0134 for    3305 Fo > 4sig(Fo)  and  0.0150 for all    3482 data
REM    230 parameters refined using      6 restraints

END

WGHT      0.0166      0.3105

REM Instructions for potential hydrogen bonds
EQIV $1 -x+1, -y, -z+1
HTAB O9 O6_$1
EQIV $2 x-1, y, z
HTAB C5 O8_$2
EQIV $3 -x+1, -y+1, -z+1
HTAB N1 O6_$3
EQIV $4 x, y+1, z
HTAB C7 O3_$4
HTAB C7 O8_$4
HTAB C7 O11
HTAB C8 O4_$3
HTAB C9 O3_$1
HTAB O4 O11_$2
HTAB O4 O3_$4
HTAB O4 O10_$4
HTAB O11 O8_$4

REM Highest difference peak  0.889,  deepest hole -0.959,  1-sigma level  0.092
Q1    1  -0.1049  0.1803  0.1081  11.00000  0.05    0.89
Q2    1   0.1751  0.2046  0.0714  11.00000  0.05    0.70
Q3    1   0.0324  0.2607  0.0813  11.00000  0.05    0.51
Q4    1   0.3317  0.2037  0.0752  11.00000  0.05    0.34
Q5    1   0.2045 -0.0673  0.2483  11.00000  0.05    0.34
Q6    1  -0.2391  0.2110  0.1189  11.00000  0.05    0.34
Q7    1   0.5583  0.4438  0.3409  11.00000  0.05    0.33
Q8    1   0.3302  0.2562 -0.0150  11.00000  0.05    0.33
Q9    1   0.1915  0.0979  0.5011  11.00000  0.05    0.33
Q10   1   0.5071 -0.0763  0.2228  11.00000  0.05    0.32
;
_cod_data_source_file            c4cc08657k2.cif
_cod_data_source_block           U2pyr
_cod_database_code               7116773
#BEGIN Tags that were not found in dictionaries:
_shelx_estimated_absorpt_t_min   0.25
_shelx_estimated_absorpt_t_max   0.483
_shelxl_version_number           2013-4
_shelx_res_checksum              39960
#END Tags that were not found in dictionaries
loop_
_symmetry_equiv_pos_as_xyz
'x, y, z'
'-x, -y, -z'
loop_
_atom_site_label
_atom_site_type_symbol
_atom_site_fract_x
_atom_site_fract_y
_atom_site_fract_z
_atom_site_U_iso_or_equiv
_atom_site_adp_type
_atom_site_occupancy
_atom_site_calc_flag
U1 U 0.02937(2) 0.18957(2) 0.08770(2) 0.01688(3) Uani 1 d
O1 O 0.0905(2) -0.04343(16) 0.09731(13) 0.0179(3) Uani 1 d
O2 O 0.2709(3) 0.21910(19) 0.05551(16) 0.0276(4) Uani 1 d
O3 O 0.2585(3) -0.32043(18) 0.23635(15) 0.0262(4) Uani 1 d
O4 O 0.0263(3) 0.43537(17) 0.17766(16) 0.0274(4) Uani 1 d
O5 O -0.2085(3) 0.16911(18) 0.12714(16) 0.0274(4) Uani 1 d
O6 O 0.2182(3) 0.15051(18) 0.46272(15) 0.0300(4) Uani 1 d
O7 O 0.1802(3) 0.19311(18) 0.28386(15) 0.0268(4) Uani 1 d
O8 O 0.6958(3) -0.20119(19) 0.24567(17) 0.0311(4) Uani 1 d
O9 O 0.6052(3) -0.02690(18) 0.37220(16) 0.0280(4) Uani 1 d
H9B H 0.6801 -0.0626 0.4203 0.042 Uiso 1 calc
O10 O 0.1090(3) -0.30937(18) 0.05734(16) 0.0307(4) Uani 1 d
O11 O 0.6837(3) 0.5430(2) 0.08965(19) 0.0388(5) Uani 1 d
C1 C 0.1936(4) -0.2542(2) 0.1599(2) 0.0192(5) Uani 1 d
C2 C 0.4379(3) -0.0576(2) 0.1763(2) 0.0201(5) Uani 1 d
H2A H 0.4622 -0.0992 0.0979 0.024 Uiso 1 calc
H2B H 0.4549 0.0427 0.1847 0.024 Uiso 1 calc
C3 C 0.5918(4) -0.1042(2) 0.2659(2) 0.0209(5) Uani 1 d
C4 C 0.1903(4) 0.1095(2) 0.3539(2) 0.0208(5) Uani 1 d
C5 C 0.1621(4) -0.0429(2) 0.3065(2) 0.0184(5) Uani 1 d
H5A H 0.0214 -0.0701 0.3024 0.022 Uiso 1 calc
H5B H 0.241 -0.0907 0.3628 0.022 Uiso 1 calc
C6 C 0.2188(3) -0.0947(2) 0.18530(19) 0.0169(4) Uani 1 d
N1 N 0.7196(3) 0.5762(2) 0.4630(2) 0.0293(5) Uani 1 d
H1 H 0.7302 0.665 0.4879 0.035 Uiso 1 calc
C7 C 0.6383(4) 0.5275(3) 0.3513(2) 0.0306(6) Uani 1 d
H7 H 0.5929 0.5886 0.3014 0.037 Uiso 1 calc
C8 C 0.7849(4) 0.4947(3) 0.5378(2) 0.0325(6) Uani 1 d
H8 H 0.84 0.5329 0.616 0.039 Uiso 1 calc
C9 C 0.7710(5) 0.3541(3) 0.4998(3) 0.0382(7) Uani 1 d
H9A H 0.816 0.2948 0.5513 0.046 Uiso 1 calc
C10 C 0.6897(5) 0.3019(3) 0.3843(3) 0.0360(7) Uani 1 d
H10 H 0.6809 0.2061 0.3565 0.043 Uiso 1 calc
C11 C 0.6217(4) 0.3885(3) 0.3100(2) 0.0320(6) Uani 1 d
H11A H 0.5645 0.3529 0.2316 0.038 Uiso 1 calc
H4A H -0.094(3) 0.472(3) 0.149(3) 0.048 Uiso 1 d
H4B H 0.126(4) 0.503(3) 0.188(3) 0.048 Uiso 1 d
H11B H 0.675(5) 0.637(2) 0.115(3) 0.048 Uiso 1 d
H11C H 0.658(5) 0.524(3) 0.0101(16) 0.048 Uiso 1 d
loop_
_atom_site_aniso_label
_atom_site_aniso_U_11
_atom_site_aniso_U_22
_atom_site_aniso_U_33
_atom_site_aniso_U_23
_atom_site_aniso_U_13
_atom_site_aniso_U_12
U1 0.02303(6) 0.01177(5) 0.01362(5) 0.00124(3) -0.00192(3) 0.00076(3)
O1 0.0242(8) 0.0138(8) 0.0128(7) 0.0024(6) -0.0050(6) 0.0024(6)
O2 0.0277(10) 0.0263(10) 0.0282(10) 0.0066(8) 0.0016(8) -0.0030(8)
O3 0.0373(10) 0.0166(8) 0.0216(9) 0.0054(7) -0.0056(7) 0.0013(7)
O4 0.0372(11) 0.0143(8) 0.0270(10) 0.0018(7) -0.0029(8) 0.0014(7)
O5 0.0281(10) 0.0224(9) 0.0294(10) -0.0014(8) 0.0050(8) 0.0032(7)
O6 0.0513(12) 0.0195(9) 0.0147(8) -0.0001(7) -0.0038(8) 0.0064(8)
O7 0.0434(11) 0.0164(9) 0.0166(9) 0.0025(7) -0.0051(8) -0.0005(8)
O8 0.0292(10) 0.0237(10) 0.0370(11) 0.0021(8) -0.0009(8) 0.0083(8)
O9 0.0347(11) 0.0221(9) 0.0220(9) 0.0022(7) -0.0084(8) 0.0064(8)
O10 0.0516(12) 0.0143(9) 0.0196(9) 0.0020(7) -0.0114(8) 0.0001(8)
O11 0.0438(12) 0.0339(12) 0.0362(12) 0.0018(9) 0.0048(10) 0.0048(10)
C1 0.0210(12) 0.0163(11) 0.0189(11) 0.0020(9) 0.0006(9) 0.0000(9)
C2 0.0208(12) 0.0204(12) 0.0184(11) 0.0045(9) 0.0004(9) 0.0000(9)
C3 0.0208(12) 0.0167(11) 0.0235(12) 0.0038(9) -0.0008(10) -0.0031(9)
C4 0.0227(12) 0.0188(12) 0.0177(12) 0.0011(9) -0.0027(9) 0.0030(9)
C5 0.0236(12) 0.0165(11) 0.0138(11) 0.0025(9) 0.0004(9) 0.0005(9)
C6 0.0210(12) 0.0144(11) 0.0128(10) 0.0021(8) -0.0040(9) 0.0018(9)
N1 0.0346(13) 0.0167(11) 0.0332(13) -0.0056(9) 0.0079(10) 0.0026(9)
C7 0.0343(15) 0.0271(14) 0.0310(14) 0.0076(11) 0.0047(12) 0.0073(11)
C8 0.0362(16) 0.0383(16) 0.0215(13) 0.0012(11) 0.0056(11) 0.0013(12)
C9 0.0505(19) 0.0320(16) 0.0373(17) 0.0144(13) 0.0136(14) 0.0030(13)
C10 0.0490(18) 0.0173(13) 0.0424(17) -0.0002(12) 0.0166(14) -0.0023(12)
C11 0.0360(15) 0.0307(15) 0.0249(14) -0.0063(11) 0.0056(11) -0.0015(12)
loop_
_atom_type_symbol
_atom_type_description
_atom_type_scat_dispersion_real
_atom_type_scat_dispersion_imag
_atom_type_scat_source
C C 0.0033 0.0016 'International Tables Vol C Tables 4.2.6.8 and 6.1.1.4'
H H 0 0 'International Tables Vol C Tables 4.2.6.8 and 6.1.1.4'
N N 0.0061 0.0033 'International Tables Vol C Tables 4.2.6.8 and 6.1.1.4'
O O 0.0106 0.006 'International Tables Vol C Tables 4.2.6.8 and 6.1.1.4'
U U -9.6767 9.6646 'International Tables Vol C Tables 4.2.6.8 and 6.1.1.4'
loop_
_geom_angle_atom_site_label_1
_geom_angle_atom_site_label_2
_geom_angle_atom_site_label_3
_geom_angle
_geom_angle_site_symmetry_1
_geom_angle_site_symmetry_3
O5 U1 O2 176.42(7) . .
O5 U1 O10 90.43(8) . 2
O2 U1 O10 90.02(8) . 2
O5 U1 O7 89.51(8) . .
O2 U1 O7 88.28(8) . .
O10 U1 O7 149.15(6) 2 .
O5 U1 O1 90.26(7) . .
O2 U1 O1 91.89(7) . .
O10 U1 O1 135.94(6) 2 .
O7 U1 O1 74.91(6) . .
O5 U1 O1 89.00(7) . 2
O2 U1 O1 94.44(7) . 2
O10 U1 O1 66.49(6) 2 2
O7 U1 O1 144.34(6) . 2
O1 U1 O1 69.47(6) . 2
O5 U1 O4 87.09(7) . .
O2 U1 O4 89.68(8) . .
O10 U1 O4 71.59(6) 2 .
O7 U1 O4 77.60(6) . .
O1 U1 O4 152.40(6) . .
O1 U1 O4 137.86(6) 2 .
O5 U1 U1 89.55(6) . 2
O2 U1 U1 93.86(6) . 2
O10 U1 U1 101.04(4) 2 2
O7 U1 U1 109.81(4) . 2
O1 U1 U1 34.92(4) . 2
O1 U1 U1 34.55(4) 2 2
O4 U1 U1 171.85(4) . 2
C6 O1 U1 127.76(13) . .
C6 O1 U1 120.12(13) . 2
U1 O1 U1 110.53(6) . 2
U1 O4 H4A 110(2) . .
U1 O4 H4B 128(2) . .
H4A O4 H4B 108(3) . .
C4 O7 U1 135.82(16) . .
C3 O9 H9B 109.5 . .
C1 O10 U1 125.20(15) . 2
H11B O11 H11C 109(3) . .
O3 C1 O10 123.7(2) . .
O3 C1 C6 120.4(2) . .
O10 C1 C6 115.9(2) . .
C3 C2 C6 114.31(19) . .
C3 C2 H2A 108.7 . .
C6 C2 H2A 108.7 . .
C3 C2 H2B 108.7 . .
C6 C2 H2B 108.7 . .
H2A C2 H2B 107.6 . .
O8 C3 O9 122.3(2) . .
O8 C3 C2 124.8(2) . .
O9 C3 C2 112.9(2) . .
O6 C4 O7 121.6(2) . .
O6 C4 C5 118.5(2) . .
O7 C4 C5 119.8(2) . .
C4 C5 C6 116.81(19) . .
C4 C5 H5A 108.1 . .
C6 C5 H5A 108.1 . .
C4 C5 H5B 108.1 . .
C6 C5 H5B 108.1 . .
H5A C5 H5B 107.3 . .
O1 C6 C5 110.64(18) . .
O1 C6 C1 108.86(18) . .
C5 C6 C1 107.36(18) . .
O1 C6 C2 108.32(18) . .
C5 C6 C2 114.61(18) . .
C1 C6 C2 106.87(18) . .
C8 N1 C7 122.8(2) . .
C8 N1 H1 118.6 . .
C7 N1 H1 118.6 . .
N1 C7 C11 119.6(3) . .
N1 C7 H7 120.2 . .
C11 C7 H7 120.2 . .
N1 C8 C9 119.4(3) . .
N1 C8 H8 120.3 . .
C9 C8 H8 120.3 . .
C8 C9 C10 118.6(3) . .
C8 C9 H9A 120.7 . .
C10 C9 H9A 120.7 . .
C11 C10 C9 120.5(3) . .
C11 C10 H10 119.8 . .
C9 C10 H10 119.8 . .
C7 C11 C10 119.0(3) . .
C7 C11 H11A 120.5 . .
C10 C11 H11A 120.5 . .
loop_
_geom_bond_atom_site_label_1
_geom_bond_atom_site_label_2
_geom_bond_distance
_geom_bond_site_symmetry_2
U1 O5 1.7727(18) .
U1 O2 1.7762(18) .
U1 O10 2.3377(17) 2
U1 O7 2.3623(17) .
U1 O1 2.3669(15) .
U1 O1 2.3889(15) 2
U1 O4 2.4658(17) .
O1 C6 1.416(3) .
O1 U1 2.3889(15) 2
O3 C1 1.237(3) .
O4 H4A 0.937(17) .
O4 H4B 0.920(18) .
O6 C4 1.253(3) .
O7 C4 1.266(3) .
O8 C3 1.212(3) .
O9 C3 1.330(3) .
O9 H9B 0.83 .
O10 C1 1.267(3) .
O11 H11B 0.926(18) .
O11 H11C 0.907(17) .
C1 C6 1.549(3) .
C2 C3 1.501(3) .
C2 C6 1.553(3) .
C2 H2A 0.98 .
C2 H2B 0.98 .
C4 C5 1.503(3) .
C5 C6 1.539(3) .
C5 H5A 0.98 .
C5 H5B 0.98 .
N1 C8 1.329(4) .
N1 C7 1.336(4) .
N1 H1 0.87 .
C7 C11 1.366(4) .
C7 H7 0.94 .
C8 C9 1.375(4) .
C8 H8 0.94 .
C9 C10 1.380(4) .
C9 H9A 0.94 .
C10 C11 1.368(4) .
C10 H10 0.94 .
C11 H11A 0.94 .
