#------------------------------------------------------------------------------
#$Date: 2016-03-26 14:56:23 +0200 (Sat, 26 Mar 2016) $
#$Revision: 180281 $
#$URL: svn://www.crystallography.net/cod/cif/7/11/67/7116772.cif $
#------------------------------------------------------------------------------
#
# This file is available in the Crystallography Open Database (COD),
# http://www.crystallography.net/
#
# All data on this site have been placed in the public domain by the
# contributors.
#
data_7116772
loop_
_publ_author_name
'M. Basile'
'D. K. Unruh'
'K. Gojdas'
'E. Flores'
'L. Streicher'
'T. Z. Forbes'
_publ_section_title
;
 Chemical controls on uranyl citrate speciation and the self-assembly of
 nanoscale macrocycles and sandwich complexes in aqueous solutions
;
_journal_name_full               Chem.Commun.
_journal_page_first              5306
_journal_paper_doi               10.1039/C4cc08657K
_journal_volume                  51
_journal_year                    2015
_chemical_formula_moiety         'C12 H14 O20 U2, C4 H12 N2, 4(H2 O)'
_chemical_formula_sum            'C16 H34 N2 O24 U2'
_chemical_formula_weight         1114.51
_chemical_name_systematic
;
 ?
;
_space_group_IT_number           2
_symmetry_cell_setting           triclinic
_symmetry_space_group_name_Hall  '-P 1'
_symmetry_space_group_name_H-M   'P -1'
_atom_sites_solution_hydrogens   geom
_atom_sites_solution_primary     direct
_atom_sites_solution_secondary   difmap
_audit_creation_date             2014-03-28T08:11:53-00:00
_audit_creation_method           'WinGX routine CIF_UPDATE'
_audit_update_record
;
2014-10-28 deposited with the CCDC.
2014-11-21 downloaded from the CCDC.
;
_cell_angle_alpha                94.6846(18)
_cell_angle_beta                 98.8324(18)
_cell_angle_gamma                104.5031(17)
_cell_formula_units_Z            1
_cell_length_a                   6.3074(4)
_cell_length_b                   10.0063(6)
_cell_length_c                   11.9920(7)
_cell_measurement_reflns_used    9957
_cell_measurement_temperature    210(2)
_cell_measurement_theta_max      27.45
_cell_measurement_theta_min      2.56
_cell_volume                     718.32(8)
_computing_cell_refinement       'APEX2 (Bruker AXS, 2006)'
_computing_data_collection       'Collect (Nonius BV, 1997-2000)'
_computing_data_reduction        'APEX2 (Bruker AXS, 2006)'
_computing_molecular_graphics    'CrystalMaker v2.7.7'
_computing_structure_refinement  'SHELXL-2013 (Sheldrick, 2013)'
_computing_structure_solution    'SHELXS-97 (Sheldrick, 2008)'
_diffrn_ambient_temperature      210(2)
_diffrn_measured_fraction_theta_full 0.998
_diffrn_measured_fraction_theta_max 0.998
_diffrn_measurement_device_type  KappaCCD
_diffrn_measurement_method       'CCD phi and omega scans'
_diffrn_radiation_monochromator  graphite
_diffrn_radiation_type           MoK\a
_diffrn_radiation_wavelength     0.71073
_diffrn_reflns_av_R_equivalents  0.0304
_diffrn_reflns_av_unetI/netI     0.0222
_diffrn_reflns_limit_h_max       8
_diffrn_reflns_limit_h_min       -7
_diffrn_reflns_limit_k_max       12
_diffrn_reflns_limit_k_min       -12
_diffrn_reflns_limit_l_max       15
_diffrn_reflns_limit_l_min       -15
_diffrn_reflns_number            14292
_diffrn_reflns_theta_full        27.45
_diffrn_reflns_theta_max         27.45
_diffrn_reflns_theta_min         2.9
_exptl_absorpt_coefficient_mu    11.363
_exptl_absorpt_correction_T_max  0.7456
_exptl_absorpt_correction_T_min  0.3955
_exptl_absorpt_correction_type   multi-scan
_exptl_absorpt_process_details   SADABS
_exptl_crystal_colour            yellow
_exptl_crystal_density_diffrn    2.576
_exptl_crystal_density_method    'not measured'
_exptl_crystal_description       blocky
_exptl_crystal_F_000             520
_exptl_crystal_size_max          0.2
_exptl_crystal_size_mid          0.2
_exptl_crystal_size_min          0.06
_refine_diff_density_max         3.373
_refine_diff_density_min         -1.87
_refine_diff_density_rms         0.16
_refine_ls_extinction_method     none
_refine_ls_goodness_of_fit_ref   1.081
_refine_ls_hydrogen_treatment    mixed
_refine_ls_matrix_type           full
_refine_ls_number_parameters     220
_refine_ls_number_reflns         3280
_refine_ls_number_restraints     9
_refine_ls_restrained_S_all      1.081
_refine_ls_R_factor_all          0.0269
_refine_ls_R_factor_gt           0.0259
_refine_ls_shift/su_max          0.001
_refine_ls_shift/su_mean         0
_refine_ls_structure_factor_coef Fsqd
_refine_ls_weighting_details
'calc w=1/[\s^2^(Fo^2^)+(0.0170P)^2^+5.5226P] where P=(Fo^2^+2Fc^2^)/3'
_refine_ls_weighting_scheme      calc
_refine_ls_wR_factor_gt          0.0626
_refine_ls_wR_factor_ref         0.0632
_reflns_number_gt                3166
_reflns_number_total             3280
_reflns_threshold_expression     >2sigma(I)
_iucr_refine_instructions_details
;
TITL P1 in P1                    New: P-1
CELL  0.71073    6.3074   10.0063   11.9920    94.685    98.832   104.503
ZERR  1           0.0004    0.0006    0.0007     0.002     0.002     0.002
LATT   1
 
SFAC  C H N O U
UNIT  16 34 2 24 2
 
L.S. 20
BOND $H
FMAP 2
PLAN 100
HTAB
 
ACTA
 
OMIT 0 1 0
OMIT 0 0 1
OMIT -1 1 1
 
DFIX 0.96 0.02 O11 H11A
DFIX 0.96 0.02 O11 H11B
DFIX 0.96 0.02 O12 H12A
DFIX 0.96 0.02 O12 H12B
DFIX 1.7 0.1 H11A H11B
DFIX 1.7 0.1 H12A H12B
DFIX 0.96 0.02 O9 H9A
DFIX 0.96 0.02 O5 H5C
DFIX 0.96 0.02 O5 H5D
 
WGHT    0.017000    5.522600
FVAR       0.16139
U1    5    0.146609    0.191844    0.064123    11.00000    0.02730    0.01874 =
         0.01985    0.00211    0.00071    0.00629
O1    4    0.114566   -0.043604    0.088534    11.00000    0.02919    0.02398 =
         0.01515    0.00556   -0.00629    0.00705
O2    4   -0.068041    0.196749    0.144213    11.00000    0.04038    0.03250 =
         0.03277    0.00090    0.01068    0.01219
O3    4    0.365721    0.194626   -0.013077    11.00000    0.03390    0.03110 =
         0.03609    0.00367    0.01162    0.00623
O4    4    0.386021    0.198867    0.234967    11.00000    0.04562    0.02136 =
         0.02993   -0.00323   -0.00799    0.00771
O5    4    0.328634    0.437539    0.117024    11.00000    0.03395    0.02074 =
         0.03500   -0.00098   -0.00208    0.00467
O6    4    0.028023   -0.314181    0.065906    11.00000    0.04278    0.01742 =
         0.03497    0.00414   -0.00902    0.00763
O7    4    0.279210   -0.321144    0.211953    11.00000    0.04489    0.02654 =
         0.03159    0.00052   -0.00849    0.01038
O8    4    0.657130    0.165036    0.359892    11.00000    0.04211    0.02604 =
         0.02139    0.00189   -0.00412    0.00857
O9    4    0.247507   -0.038824    0.460642    11.00000    0.05996    0.03053 =
         0.02955    0.01033   -0.01220   -0.00159
O10   4    0.036683   -0.253431    0.405869    11.00000    0.05898    0.03108 =
         0.03655    0.01305   -0.00312   -0.00101
O11   4    0.764061    0.453476    0.134185    11.00000    0.03942    0.02595 =
         0.03910    0.00448    0.00619    0.00468
O12   4    0.020329    0.416420    0.348205    11.00000    0.03674    0.03828 =
         0.03226   -0.00147   -0.00013    0.00717
N1    3    0.351514    0.580908    0.524484    11.00000    0.03134    0.02381 =
         0.03026   -0.00036    0.00464    0.00989
AFIX  23
H1A   2    0.226981    0.536097    0.474731    11.00000   -1.20000
H1B   2    0.322807    0.652393    0.564482    11.00000   -1.20000
AFIX   0
C1    1    0.171598   -0.258041    0.153782    11.00000    0.03431    0.02157 =
         0.01906    0.00243   -0.00084    0.00538
C2    1    0.104723   -0.136122    0.386692    11.00000    0.02574    0.02887 =
         0.02224    0.00756    0.00433    0.00698
C3    1    0.194911   -0.100206    0.186067    11.00000    0.02960    0.02291 =
         0.01613    0.00448   -0.00309    0.00793
C4    1    0.041723   -0.085036    0.274568    11.00000    0.02619    0.03267 =
         0.02019    0.00768    0.00065    0.00878
AFIX  23
H4A   2    0.044883    0.012313    0.288998    11.00000   -1.20000
H4B   2   -0.110056   -0.136055    0.241305    11.00000   -1.20000
AFIX   0
C5    1    0.441318   -0.030454    0.229612    11.00000    0.02821    0.02363 =
         0.02067    0.00179   -0.00152    0.00763
AFIX  23
H5A   2    0.495824   -0.082722    0.286961    11.00000   -1.20000
H5B   2    0.520671   -0.036840    0.167053    11.00000   -1.20000
AFIX   0
C6    1    0.499185    0.120230    0.279994    11.00000    0.03422    0.02041 =
         0.02190    0.00468    0.00334    0.00343
C7    1    0.532122    0.635009    0.461717    11.00000    0.03456    0.02242 =
         0.03070    0.00659    0.00617    0.00760
AFIX  23
H7A   2    0.663543    0.688954    0.514752    11.00000   -1.20000
H7B   2    0.486479    0.695736    0.409352    11.00000   -1.20000
AFIX   0
C8    1    0.413495    0.483728    0.603435    11.00000    0.03306    0.02990 =
         0.02032    0.00484    0.00593    0.00787
AFIX  23
H8A   2    0.290926    0.447525    0.642084    11.00000   -1.20000
H8B   2    0.541558    0.533395    0.660462    11.00000   -1.20000
AFIX   0
H5C   2    0.277724    0.511883    0.147238    11.00000   10.05000
H5D   2    0.480250    0.447127    0.113401    11.00000   10.05000
H9A   2    0.278906   -0.076253    0.529677    11.00000   10.05000
H11A  2    0.748999    0.363109    0.096685    11.00000   10.05000
H11B  2    0.854132    0.516295    0.093943    11.00000   10.05000
H12A  2   -0.036934    0.317789    0.340981    11.00000   10.05000
H12B  2   -0.030453    0.449831    0.278748    11.00000   10.05000
HKLF 4
 
REM  P1 in P1                    New: P-1
REM R1 =  0.0259 for   3166 Fo > 4sig(Fo)  and  0.0269 for all   3280 data
REM    220 parameters refined using      9 restraints
 
END  
     
WGHT      0.0165      5.5649 
REM Highest difference peak  3.373,  deepest hole -1.870,  1-sigma level  0.160
Q1    1   0.0677  0.1931  0.0152  11.00000  0.05    3.37
Q2    1   0.1556  0.2610  0.0581  11.00000  0.05    1.56
Q3    1   0.5228  0.1210  0.3575  11.00000  0.05    0.92
Q4    1   0.3653 -0.1267  0.2126  11.00000  0.05    0.92
Q5    1   0.2650  0.2011  0.0409  11.00000  0.05    0.87
Q6    1   0.2306 -0.0078  0.2216  11.00000  0.05    0.83
Q7    1   0.0125 -0.2668  0.0386  11.00000  0.05    0.69
Q8    1   0.1819  0.2158  0.1664  11.00000  0.05    0.67
Q9    1   0.0309 -0.0877  0.0540  11.00000  0.05    0.64
Q10   1   0.3665  0.1215  0.2662  11.00000  0.05    0.58
Q11   1   0.2736 -0.3945  0.2165  11.00000  0.05    0.56
Q12   1   0.3266  0.2667  0.2210  11.00000  0.05    0.55
Q13   1   0.2620  0.3789  0.0746  11.00000  0.05    0.50
Q14   1   0.1806  0.0212  0.1451  11.00000  0.05    0.49
Q15   1   0.2909  0.1882  0.1335  11.00000  0.05    0.46
Q16   1  -0.0468  0.1933  0.0869  11.00000  0.05    0.46
Q17   1  -0.0814 -0.2004  0.0795  11.00000  0.05    0.44
Q18   1   0.0356  0.2025  0.1214  11.00000  0.05    0.44
Q19   1   0.5376  0.5835  0.6065  11.00000  0.05    0.43
Q20   1   0.0173 -0.2748  0.1181  11.00000  0.05    0.42
Q21   1   0.3035  0.2716  0.1136  11.00000  0.05    0.42
Q22   1   0.3269  0.1234  0.1773  11.00000  0.05    0.42
Q23   1  -0.1579 -0.3217  0.0222  11.00000  0.05    0.41
Q24   1  -0.1599  0.1992  0.0859  11.00000  0.05    0.41
Q25   1   0.2345  0.1662  0.2232  11.00000  0.05    0.41
Q26   1   0.1365 -0.2263  0.3881  11.00000  0.05    0.38
Q27   1   0.2557  0.4573  0.0756  11.00000  0.05    0.38
Q28   1   0.1564 -0.0271  0.5078  11.00000  0.05    0.38
Q29   1   0.3966  0.1801  0.1821  11.00000  0.05    0.37
Q30   1   0.2028  0.1253  0.2255  11.00000  0.05    0.36
Q31   1   0.3246  0.3369  0.1984  11.00000  0.05    0.35
Q32   1   0.3685  0.4452  0.0551  11.00000  0.05    0.35
Q33   1   0.1929  0.0008  0.6355  11.00000  0.05    0.35
Q34   1   0.4908  0.2393  0.2389  11.00000  0.05    0.35
Q35   1  -0.0589 -0.3047  0.1030  11.00000  0.05    0.34
Q36   1   0.5628  0.5805  0.4358  11.00000  0.05    0.34
Q37   1  -0.0802  0.2609  0.1223  11.00000  0.05    0.33
Q38   1   0.1898 -0.0067  0.0572  11.00000  0.05    0.33
Q39   1   0.6126  0.2134  0.1483  11.00000  0.05    0.33
Q40   1  -0.0625  0.4351  0.3961  11.00000  0.05    0.32
Q41   1   0.2964 -0.2937  0.2597  11.00000  0.05    0.32
Q42   1   0.0618 -0.0953  0.3361  11.00000  0.05    0.32
Q43   1   0.3494  0.5346  0.1362  11.00000  0.05    0.31
Q44   1   0.0298 -0.0035  0.0838  11.00000  0.05    0.31
Q45   1   0.4097  0.2557  0.0382  11.00000  0.05    0.30
Q46   1   0.1211 -0.0720  0.1185  11.00000  0.05    0.29
Q47   1   0.0277 -0.0734  0.1191  11.00000  0.05    0.29
Q48   1  -0.1657 -0.3117  0.1196  11.00000  0.05    0.28
Q49   1   0.2061 -0.0750  0.4223  11.00000  0.05    0.28
Q50   1   0.7653  0.6212  0.0494  11.00000  0.05    0.28
Q51   1   0.3658 -0.2920  0.2394  11.00000  0.05    0.28
Q52   1   0.1354 -0.2615  0.0808  11.00000  0.05    0.27
Q53   1   0.2591  0.2012 -0.0700  11.00000  0.05    0.27
Q54   1   0.2343  0.5420  0.0548  11.00000  0.05    0.27
Q55   1   0.7003  0.1597  0.3944  11.00000  0.05    0.27
Q56   1   0.6555 -0.0517  0.3171  11.00000  0.05    0.27
Q57   1   0.8625  0.4885  0.1234  11.00000  0.05    0.27
Q58   1   0.4968  0.1867  0.0349  11.00000  0.05    0.26
Q59   1   0.5000  0.5000  0.0000  10.50000  0.05    0.26
Q60   1   0.4918  0.6219  0.5191  11.00000  0.05    0.26
Q61   1   1.0162  0.3791  0.1416  11.00000  0.05    0.25
Q62   1   0.0666 -0.0145  0.2947  11.00000  0.05    0.25
Q63   1   0.3685  0.1513 -0.0316  11.00000  0.05    0.25
Q64   1   0.0567 -0.0978  0.2241  11.00000  0.05    0.25
Q65   1   0.7659  0.4514  0.0612  11.00000  0.05    0.25
Q66   1   0.3015 -0.2998  0.0581  11.00000  0.05    0.25
Q67   1   0.0701  0.5615  0.2460  11.00000  0.05    0.25
Q68   1  -0.0604 -0.2165  0.3961  11.00000  0.05    0.25
Q69   1   0.4872  0.3182  0.2403  11.00000  0.05    0.24
Q70   1   0.2169 -0.0735  0.0605  11.00000  0.05    0.24
Q71   1   0.1841 -0.1798  0.1765  11.00000  0.05    0.24
Q72   1   0.0757  0.1032  0.1411  11.00000  0.05    0.24
Q73   1   0.7605 -0.0215  0.2886  11.00000  0.05    0.24
Q74   1   0.0518 -0.3196  0.1519  11.00000  0.05    0.24
Q75   1   0.3012  0.5387  0.4213  11.00000  0.05    0.23
Q76   1   0.4106 -0.1262  0.3541  11.00000  0.05    0.23
Q77   1   0.5443 -0.0751  0.2398  11.00000  0.05    0.23
Q78   1   0.4390  0.4445  0.1543  11.00000  0.05    0.23
Q79   1   0.0730 -0.2205  0.4804  11.00000  0.05    0.23
Q80   1  -0.0680  0.3432  0.4010  11.00000  0.05    0.23
Q81   1   0.3251  0.2216 -0.0393  11.00000  0.05    0.23
Q82   1   0.6386  0.6308  0.7364  11.00000  0.05    0.23
Q83   1   0.3000  0.5151  0.2405  11.00000  0.05    0.22
Q84   1   0.8417  0.4588  0.2021  11.00000  0.05    0.22
Q85   1  -0.0196 -0.0252  0.2874  11.00000  0.05    0.22
Q86   1   0.3595  0.2193  0.2763  11.00000  0.05    0.22
Q87   1   0.3018  0.6248  0.0684  11.00000  0.05    0.22
Q88   1   0.7017  0.4350  0.0802  11.00000  0.05    0.22
Q89   1  -0.2049  0.1671  0.0085  11.00000  0.05    0.22
Q90   1   0.2383 -0.2936  0.2051  11.00000  0.05    0.22
Q91   1   0.3880  0.2326 -0.0135  11.00000  0.05    0.21
Q92   1   0.4906  0.0645  0.2554  11.00000  0.05    0.21
Q93   1   0.5517  0.2417 -0.0481  11.00000  0.05    0.21
Q94   1   0.1808  0.4949  0.3527  11.00000  0.05    0.21
Q95   1   0.1129  0.3717  0.2660  11.00000  0.05    0.21
Q96   1   0.5271  0.3197 -0.0988  11.00000  0.05    0.21
Q97   1   0.7010 -0.0996  0.3407  11.00000  0.05    0.21
Q98   1   0.0712  0.2641  0.2780  11.00000  0.05    0.21
Q99   1   0.4004  0.5321  0.5583  11.00000  0.05    0.21
Q100  1   0.0289 -0.4186  0.0800  11.00000  0.05    0.21
;
_cod_data_source_file            c4cc08657k2.cif
_cod_data_source_block           U2pip
_cod_original_sg_symbol_H-M      P-1
_cod_database_code               7116772
loop_
_symmetry_equiv_pos_as_xyz
'x, y, z'
'-x, -y, -z'
loop_
_atom_site_label
_atom_site_type_symbol
_atom_site_fract_x
_atom_site_fract_y
_atom_site_fract_z
_atom_site_U_iso_or_equiv
_atom_site_adp_type
_atom_site_occupancy
_atom_site_symmetry_multiplicity
_atom_site_calc_flag
_atom_site_refinement_flags
U1 U 0.14661(3) 0.191844(17) 0.064123(15) 0.02234(7) Uani 1 1 d .
O1 O 0.1146(6) -0.0436(4) 0.0885(3) 0.0237(7) Uani 1 1 d .
O2 O -0.0680(7) 0.1967(4) 0.1442(4) 0.0345(9) Uani 1 1 d .
O3 O 0.3657(7) 0.1946(4) -0.0131(4) 0.0336(9) Uani 1 1 d .
O4 O 0.3860(7) 0.1989(4) 0.2350(3) 0.0345(9) Uani 1 1 d .
O5 O 0.3286(7) 0.4375(4) 0.1170(4) 0.0315(8) Uani 1 1 d D
O6 O 0.0280(7) -0.3142(4) 0.0659(3) 0.0335(9) Uani 1 1 d .
O7 O 0.2792(7) -0.3211(4) 0.2120(3) 0.0361(9) Uani 1 1 d .
O8 O 0.6571(7) 0.1650(4) 0.3599(3) 0.0311(8) Uani 1 1 d .
O9 O 0.2475(8) -0.0388(4) 0.4606(4) 0.0444(11) Uani 1 1 d D
O10 O 0.0367(8) -0.2534(4) 0.4059(4) 0.0454(11) Uani 1 1 d .
O11 O 0.7641(7) 0.4535(4) 0.1342(4) 0.0356(9) Uani 1 1 d D
O12 O 0.0203(7) 0.4164(5) 0.3482(4) 0.0373(9) Uani 1 1 d D
N1 N 0.3515(8) 0.5809(5) 0.5245(4) 0.0283(9) Uani 1 1 d .
H1A H 0.227 0.5361 0.4747 0.034 Uiso 1 1 calc R
H1B H 0.3228 0.6524 0.5645 0.034 Uiso 1 1 calc R
C1 C 0.1716(9) -0.2580(5) 0.1538(4) 0.0260(10) Uani 1 1 d .
C2 C 0.1047(8) -0.1361(5) 0.3867(4) 0.0254(10) Uani 1 1 d .
C3 C 0.1949(9) -0.1002(5) 0.1861(4) 0.0234(10) Uani 1 1 d .
C4 C 0.0417(9) -0.0850(6) 0.2746(4) 0.0263(10) Uani 1 1 d .
H4A H 0.0449 0.0123 0.289 0.032 Uiso 1 1 calc R
H4B H -0.1101 -0.1361 0.2413 0.032 Uiso 1 1 calc R
C5 C 0.4413(9) -0.0305(5) 0.2296(4) 0.0247(10) Uani 1 1 d .
H5A H 0.4958 -0.0827 0.287 0.03 Uiso 1 1 calc R
H5B H 0.5207 -0.0368 0.1671 0.03 Uiso 1 1 calc R
C6 C 0.4992(9) 0.1202(5) 0.2800(4) 0.0263(10) Uani 1 1 d .
C7 C 0.5321(9) 0.6350(5) 0.4617(5) 0.0290(11) Uani 1 1 d .
H7A H 0.6635 0.689 0.5148 0.035 Uiso 1 1 calc R
H7B H 0.4865 0.6957 0.4094 0.035 Uiso 1 1 calc R
C8 C 0.4135(9) 0.4837(6) 0.6034(4) 0.0276(10) Uani 1 1 d .
H8A H 0.2909 0.4475 0.6421 0.033 Uiso 1 1 calc R
H8B H 0.5416 0.5334 0.6605 0.033 Uiso 1 1 calc R
H5C H 0.278(12) 0.512(5) 0.147(6) 0.05 Uiso 1 1 d D
H5D H 0.480(5) 0.447(8) 0.113(7) 0.05 Uiso 1 1 d D
H9A H 0.279(12) -0.076(7) 0.530(4) 0.05 Uiso 1 1 d D
H11A H 0.749(12) 0.363(4) 0.097(6) 0.05 Uiso 1 1 d D
H11B H 0.854(11) 0.516(6) 0.094(6) 0.05 Uiso 1 1 d D
H12A H -0.037(12) 0.318(2) 0.341(6) 0.05 Uiso 1 1 d D
H12B H -0.030(12) 0.450(7) 0.279(4) 0.05 Uiso 1 1 d D
loop_
_atom_site_aniso_label
_atom_site_aniso_U_11
_atom_site_aniso_U_22
_atom_site_aniso_U_33
_atom_site_aniso_U_23
_atom_site_aniso_U_13
_atom_site_aniso_U_12
U1 0.02730(11) 0.01874(10) 0.01985(10) 0.00211(6) 0.00071(7) 0.00629(7)
O1 0.0292(18) 0.0240(17) 0.0152(15) 0.0056(13) -0.0063(13) 0.0071(14)
O2 0.040(2) 0.033(2) 0.033(2) 0.0009(16) 0.0107(17) 0.0122(17)
O3 0.034(2) 0.031(2) 0.036(2) 0.0037(16) 0.0116(17) 0.0062(16)
O4 0.046(2) 0.0214(18) 0.030(2) -0.0032(15) -0.0080(17) 0.0077(16)
O5 0.034(2) 0.0207(17) 0.035(2) -0.0010(15) -0.0021(17) 0.0047(15)
O6 0.043(2) 0.0174(17) 0.035(2) 0.0041(15) -0.0090(17) 0.0076(15)
O7 0.045(2) 0.0265(19) 0.032(2) 0.0005(16) -0.0085(18) 0.0104(17)
O8 0.042(2) 0.0260(18) 0.0214(18) 0.0019(14) -0.0041(16) 0.0086(16)
O9 0.060(3) 0.031(2) 0.030(2) 0.0103(17) -0.012(2) -0.002(2)
O10 0.059(3) 0.031(2) 0.037(2) 0.0130(18) -0.003(2) -0.001(2)
O11 0.039(2) 0.0260(19) 0.039(2) 0.0045(17) 0.0062(18) 0.0047(17)
O12 0.037(2) 0.038(2) 0.032(2) -0.0015(18) -0.0001(18) 0.0072(18)
N1 0.031(2) 0.024(2) 0.030(2) -0.0004(17) 0.0046(19) 0.0099(18)
C1 0.034(3) 0.022(2) 0.019(2) 0.0024(18) -0.001(2) 0.005(2)
C2 0.026(2) 0.029(3) 0.022(2) 0.0076(19) 0.0043(19) 0.007(2)
C3 0.030(2) 0.023(2) 0.016(2) 0.0045(18) -0.0031(18) 0.0079(19)
C4 0.026(2) 0.033(3) 0.020(2) 0.008(2) 0.0006(19) 0.009(2)
C5 0.028(2) 0.024(2) 0.021(2) 0.0018(18) -0.0015(19) 0.0076(19)
C6 0.034(3) 0.020(2) 0.022(2) 0.0047(18) 0.003(2) 0.003(2)
C7 0.035(3) 0.022(2) 0.031(3) 0.007(2) 0.006(2) 0.008(2)
C8 0.033(3) 0.030(3) 0.020(2) 0.005(2) 0.006(2) 0.008(2)
loop_
_atom_type_symbol
_atom_type_description
_atom_type_scat_dispersion_real
_atom_type_scat_dispersion_imag
_atom_type_scat_source
C C 0.0033 0.0016 'International Tables Vol C Tables 4.2.6.8 and 6.1.1.4'
H H 0 0 'International Tables Vol C Tables 4.2.6.8 and 6.1.1.4'
N N 0.0061 0.0033 'International Tables Vol C Tables 4.2.6.8 and 6.1.1.4'
O O 0.0106 0.006 'International Tables Vol C Tables 4.2.6.8 and 6.1.1.4'
U U -9.6767 9.6646 'International Tables Vol C Tables 4.2.6.8 and 6.1.1.4'
loop_
_geom_angle_atom_site_label_1
_geom_angle_atom_site_label_2
_geom_angle_atom_site_label_3
_geom_angle
_geom_angle_site_symmetry_1
_geom_angle_site_symmetry_3
O3 U1 O2 177.51(18) . .
O3 U1 O4 90.86(18) . .
O2 U1 O4 88.33(18) . .
O3 U1 O1 90.94(16) . .
O2 U1 O1 91.13(16) . .
O4 U1 O1 75.16(12) . .
O3 U1 O6 92.60(18) . 2
O2 U1 O6 86.87(17) . 2
O4 U1 O6 148.28(13) . 2
O1 U1 O6 136.23(12) . 2
O3 U1 O1 90.70(16) . 2
O2 U1 O1 91.31(16) . 2
O4 U1 O1 144.90(12) . 2
O1 U1 O1 69.75(13) . 2
O6 U1 O1 66.60(12) 2 2
O3 U1 O5 84.37(16) . .
O2 U1 O5 93.15(17) . .
O4 U1 O5 76.38(13) . .
O1 U1 O5 151.07(12) . .
O6 U1 O5 72.62(13) 2 .
O1 U1 O5 138.63(12) 2 .
O3 U1 U1 91.00(13) . 2
O2 U1 U1 91.49(13) . 2
O4 U1 U1 110.21(9) . 2
O1 U1 U1 35.06(8) . 2
O6 U1 U1 101.24(9) 2 2
O1 U1 U1 34.69(8) 2 2
O5 U1 U1 172.06(10) . 2
C3 O1 U1 128.7(3) . .
C3 O1 U1 119.9(3) . 2
U1 O1 U1 110.25(13) . 2
C6 O4 U1 136.9(3) . .
U1 O5 H5C 132(5) . .
U1 O5 H5D 105(5) . .
H5C O5 H5D 122(7) . .
C1 O6 U1 124.9(3) . 2
C2 O9 H9A 109(5) . .
H11A O11 H11B 105(6) . .
H12A O12 H12B 109(6) . .
C7 N1 C8 111.1(4) . .
C7 N1 H1A 109.4 . .
C8 N1 H1A 109.4 . .
C7 N1 H1B 109.4 . .
C8 N1 H1B 109.4 . .
H1A N1 H1B 108 . .
O7 C1 O6 123.8(5) . .
O7 C1 C3 121.7(4) . .
O6 C1 C3 114.5(4) . .
O10 C2 O9 123.3(5) . .
O10 C2 C4 124.1(5) . .
O9 C2 C4 112.6(4) . .
O1 C3 C5 110.9(4) . .
O1 C3 C1 109.4(4) . .
C5 C3 C1 107.1(4) . .
O1 C3 C4 106.6(4) . .
C5 C3 C4 114.1(4) . .
C1 C3 C4 108.6(4) . .
C2 C4 C3 114.8(4) . .
C2 C4 H4A 108.6 . .
C3 C4 H4A 108.6 . .
C2 C4 H4B 108.6 . .
C3 C4 H4B 108.6 . .
H4A C4 H4B 107.5 . .
C6 C5 C3 116.1(4) . .
C6 C5 H5A 108.3 . .
C3 C5 H5A 108.3 . .
C6 C5 H5B 108.3 . .
C3 C5 H5B 108.3 . .
H5A C5 H5B 107.4 . .
O8 C6 O4 122.2(5) . .
O8 C6 C5 119.4(5) . .
O4 C6 C5 118.3(4) . .
N1 C7 C8 110.1(4) . 2_666
N1 C7 H7A 109.6 . .
C8 C7 H7A 109.6 2_666 .
N1 C7 H7B 109.6 . .
C8 C7 H7B 109.6 2_666 .
H7A C7 H7B 108.1 . .
N1 C8 C7 110.2(4) . 2_666
N1 C8 H8A 109.6 . .
C7 C8 H8A 109.6 2_666 .
N1 C8 H8B 109.6 . .
C7 C8 H8B 109.6 2_666 .
H8A C8 H8B 108.1 . .
loop_
_geom_bond_atom_site_label_1
_geom_bond_atom_site_label_2
_geom_bond_distance
_geom_bond_site_symmetry_2
U1 O3 1.774(4) .
U1 O2 1.784(4) .
U1 O4 2.336(4) .
U1 O1 2.360(3) .
U1 O6 2.367(4) 2
U1 O1 2.382(3) 2
U1 O5 2.423(4) .
O1 C3 1.420(5) .
O4 C6 1.286(6) .
O5 H5C 0.95(2) .
O5 H5D 0.95(2) .
O6 C1 1.266(6) .
O7 C1 1.220(6) .
O8 C6 1.235(6) .
O9 C2 1.311(7) .
O9 H9A 0.95(2) .
O10 C2 1.199(7) .
O11 H11A 0.95(2) .
O11 H11B 0.95(2) .
O12 H12A 0.95(2) .
O12 H12B 0.96(2) .
N1 C7 1.476(7) .
N1 C8 1.491(7) .
N1 H1A 0.9 .
N1 H1B 0.9 .
C1 C3 1.560(7) .
C2 C4 1.509(7) .
C3 C5 1.524(7) .
C3 C4 1.564(7) .
C4 H4A 0.97 .
C4 H4B 0.97 .
C5 C6 1.510(7) .
C5 H5A 0.97 .
C5 H5B 0.97 .
C7 C8 1.508(7) 2_666
C7 H7A 0.97 .
C7 H7B 0.97 .
C8 H8A 0.97 .
C8 H8B 0.97 .
