#------------------------------------------------------------------------------
#$Date: 2015-06-04 11:44:53 +0300 (Thu, 04 Jun 2015) $
#$Revision: 137874 $
#$URL: svn://www.crystallography.net/cod/cif/7/11/72/7117265.cif $
#------------------------------------------------------------------------------
#
# This file is available in the Crystallography Open Database (COD),
# http://www.crystallography.net/
#
# All data on this site have been placed in the public domain by the
# contributors.
#
data_7117265
loop_
_publ_author_name
'Viswanadha G. Saraswatula'
'Binoy K. Saha'
_publ_section_title
;
 A thermal expansion investigation of the melting point anomaly in
 trihalomesitylenes
;
_journal_name_full               Chem.Commun.
_journal_page_first              9829
_journal_paper_doi               10.1039/C5cc03033A
_journal_volume                  51
_journal_year                    2015
_chemical_formula_moiety         'C9 H9 Cl3'
_chemical_formula_sum            'C9 H9 Cl3'
_chemical_formula_weight         223.51
_chemical_name_systematic
;
trichloromesitylene  
;
_space_group_crystal_system      triclinic
_space_group_IT_number           2
_space_group_name_Hall           '-P 1'
_space_group_name_H-M_alt        'P -1'
_symmetry_space_group_name_Hall  '-P 1'
_symmetry_space_group_name_H-M   'P -1'
_atom_sites_solution_hydrogens   geom
_atom_sites_solution_primary     iterative
_atom_sites_solution_secondary   difmap
_audit_creation_date             2013-09-27
_audit_creation_method
;
  Olex2 1.2
  (compiled Dec  5 2012 16:17:34, GUI svn.r4385)
;
_audit_update_record
;
2015-04-06 deposited with the CCDC.
2015-05-07 downloaded from the CCDC.
;
_cell_angle_alpha                119.644(8)
_cell_angle_beta                 107.474(7)
_cell_angle_gamma                96.230(6)
_cell_formula_units_Z            2
_cell_length_a                   7.6629(5)
_cell_length_b                   8.7822(6)
_cell_length_c                   8.7994(7)
_cell_measurement_reflns_used    1852
_cell_measurement_temperature    154(2)
_cell_measurement_theta_max      29.1490
_cell_measurement_theta_min      4.6386
_cell_volume                     466.72(8)
_computing_cell_refinement
;
CrysAlisPro, Agilent Technologies,
Version 1.171.36.21 (release 14-08-2012 CrysAlis171 .NET)
(compiled Sep 14 2012,17:21:16)
;
_computing_data_collection
;
CrysAlisPro, Agilent Technologies,
Version 1.171.36.21 (release 14-08-2012 CrysAlis171 .NET)
(compiled Sep 14 2012,17:21:16)
;
_computing_data_reduction
;
CrysAlisPro, Agilent Technologies,
Version 1.171.36.21 (release 14-08-2012 CrysAlis171 .NET)
(compiled Sep 14 2012,17:21:16)
;
_computing_molecular_graphics
;
O. V. Dolomanov, L. J. Bourhis, R. J. Gildea, J. A. K. Howard and H. Puschmann,
OLEX2: a complete structure solution, refinement and analysis program.
J. Appl. Cryst. (2009). 42, 339-341.
;
_computing_publication_material
;
O. V. Dolomanov, L. J. Bourhis, R. J. Gildea, J. A. K. Howard and H. Puschmann,
OLEX2: a complete structure solution, refinement and analysis program.
J. Appl. Cryst. (2009). 42, 339-341.
;
_computing_structure_refinement
;
SHELXL, G.M. Sheldrick, Acta Cryst.
(2008). A64, 112-122
;
_computing_structure_solution
;
olex2.solve (L.J. Bourhis, O.V. Dolomanov, R.J. Gildea, J.A.K. Howard,
H. Puschmann, in preparation, 2011)
;
_diffrn_ambient_temperature      154(2)
_diffrn_detector_area_resol_mean 15.9821
_diffrn_measured_fraction_theta_full 0.9932
_diffrn_measured_fraction_theta_max 0.9316
_diffrn_measurement_details
;
  1 omega   -8.00   22.00   1.0000    3.0000
omega____ theta____ kappa____ phi______ frames
    -      -17.3397  -99.0000  -30.0000 30

  2 omega   16.00   52.00   1.0000    3.0000
omega____ theta____ kappa____ phi______ frames
    -      -17.3397   37.0000  -30.0000 36

  3 omega   -9.00   21.00   1.0000    3.0000
omega____ theta____ kappa____ phi______ frames
    -      -17.3397  -99.0000   90.0000 30

  4 omega  -88.00  -35.00   1.0000    3.0000
omega____ theta____ kappa____ phi______ frames
    -      -17.3397 -178.0000 -120.0000 53

  5 omega  -24.00    8.00   1.0000    3.0000
omega____ theta____ kappa____ phi______ frames
    -      -17.3397  -99.0000  -90.0000 32

  6 omega  -43.00   54.00   1.0000    3.0000
omega____ theta____ kappa____ phi______ frames
    -      -17.3397   37.0000  120.0000 97

  7 omega  -25.00    2.00   1.0000    3.0000
omega____ theta____ kappa____ phi______ frames
    -      -17.3397  -99.0000   30.0000 27

  8 omega  -44.00  -13.00   1.0000    3.0000
omega____ theta____ kappa____ phi______ frames
    -      -17.3397  -37.0000 -150.0000 31

  9 omega  -37.00   51.00   1.0000    3.0000
omega____ theta____ kappa____ phi______ frames
    -      -17.3397   57.0000 -150.0000 88

 10 omega   -2.00   60.00   1.0000    3.0000
omega____ theta____ kappa____ phi______ frames
    -       19.0585   57.0000  120.0000 62
;
_diffrn_measurement_device_type  'Xcalibur, Eos'
_diffrn_measurement_method       '\w scans'
_diffrn_orient_matrix_UB_11      0.0450586000
_diffrn_orient_matrix_UB_12      0.0355491000
_diffrn_orient_matrix_UB_13      0.0990561000
_diffrn_orient_matrix_UB_21      0.0143660000
_diffrn_orient_matrix_UB_22      -0.0859196000
_diffrn_orient_matrix_UB_23      -0.0228702000
_diffrn_orient_matrix_UB_31      0.0904543000
_diffrn_orient_matrix_UB_32      0.0301368000
_diffrn_orient_matrix_UB_33      0.0012894000
_diffrn_radiation_monochromator  graphite
_diffrn_radiation_type           'Mo K\a'
_diffrn_radiation_wavelength     0.7107
_diffrn_reflns_av_R_equivalents  0.0257
_diffrn_reflns_av_unetI/netI     0.0367
_diffrn_reflns_limit_h_max       10
_diffrn_reflns_limit_h_min       -10
_diffrn_reflns_limit_k_max       12
_diffrn_reflns_limit_k_min       -11
_diffrn_reflns_limit_l_max       10
_diffrn_reflns_limit_l_min       -11
_diffrn_reflns_number            4529
_diffrn_reflns_theta_full        25.00
_diffrn_reflns_theta_max         29.21
_diffrn_reflns_theta_min         4.65
_diffrn_source                   'Enhance (Mo) X-ray Source'
_exptl_absorpt_coefficient_mu    0.918
_exptl_absorpt_correction_T_max  1.00000
_exptl_absorpt_correction_T_min  0.93581
_exptl_absorpt_correction_type   multi-scan
_exptl_absorpt_process_details
;
CrysAlisPro, Agilent Technologies,
Version 1.171.36.21 (release 14-08-2012 CrysAlis171 .NET)
(compiled Sep 14 2012,17:21:16)
Empirical absorption correction using spherical harmonics,
 implemented in SCALE3 ABSPACK scaling algorithm.
;
_exptl_crystal_colour            colourless
_exptl_crystal_colour_primary    colourless
_exptl_crystal_density_diffrn    1.590
_exptl_crystal_density_method    'not measured'
_exptl_crystal_description       block
_exptl_crystal_F_000             228
_exptl_crystal_size_max          0.4
_exptl_crystal_size_mid          0.4
_exptl_crystal_size_min          0.2
_refine_diff_density_max         0.305
_refine_diff_density_min         -0.415
_refine_diff_density_rms         0.081
_refine_ls_extinction_method     none
_refine_ls_goodness_of_fit_ref   1.071
_refine_ls_hydrogen_treatment    mixed
_refine_ls_matrix_type           full
_refine_ls_number_parameters     112
_refine_ls_number_reflns         2155
_refine_ls_number_restraints     0
_refine_ls_restrained_S_all      1.071
_refine_ls_R_factor_all          0.0463
_refine_ls_R_factor_gt           0.0377
_refine_ls_shift/su_max          0.000
_refine_ls_shift/su_mean         0.000
_refine_ls_structure_factor_coef Fsqd
_refine_ls_weighting_details
'calc w=1/[\s^2^(Fo^2^)+(0.0445P)^2^+0.2218P] where P=(Fo^2^+2Fc^2^)/3'
_refine_ls_weighting_scheme      calc
_refine_ls_wR_factor_gt          0.0926
_refine_ls_wR_factor_ref         0.0984
_reflns_number_gt                1809
_reflns_number_total             2155
_reflns_threshold_expression     >2sigma(I)
_cod_data_source_file            c5cc03033a2.cif
_cod_data_source_block           tcm-154K
_cod_original_cell_volume        466.72(6)
_cod_database_code               7117265
loop_
_space_group_symop_id
_space_group_symop_operation_xyz
1 'x, y, z'
2 '-x, -y, -z'
loop_
_atom_site_label
_atom_site_type_symbol
_atom_site_fract_x
_atom_site_fract_y
_atom_site_fract_z
_atom_site_U_iso_or_equiv
_atom_site_adp_type
_atom_site_occupancy
_atom_site_symmetry_multiplicity
_atom_site_calc_flag
_atom_site_refinement_flags
_atom_site_disorder_assembly
_atom_site_disorder_group
Cl1 Cl 0.73836(8) 0.09597(7) 0.74314(8) 0.02927(16) Uani 1 1 d . . .
Cl2 Cl 0.77565(8) 0.65743(7) 1.41311(7) 0.02827(16) Uani 1 1 d . . .
Cl3 Cl 0.73901(9) 0.75433(8) 0.84652(8) 0.03402(17) Uani 1 1 d . . .
C2 C 0.7570(3) 0.3881(3) 1.0720(3) 0.0219(4) Uani 1 1 d . . .
C4 C 0.7545(3) 0.6880(3) 1.1173(3) 0.0214(4) Uani 1 1 d . . .
C5 C 0.7439(3) 0.6121(3) 0.9325(3) 0.0219(4) Uani 1 1 d . . .
C6 C 0.7365(3) 0.4303(3) 0.8109(3) 0.0203(4) Uani 1 1 d . . .
C1 C 0.7451(3) 0.3239(3) 0.8881(3) 0.0215(4) Uani 1 1 d . . .
C7 C 0.7645(4) 0.2675(3) 1.1487(4) 0.0319(5) Uani 1 1 d . . .
H7A H 0.7853 0.1536 1.0619 0.048 Uiso 1 1 calc R . .
H7B H 0.6427 0.2375 1.1579 0.048 Uiso 1 1 calc R . .
H7C H 0.8705 0.3332 1.2760 0.048 Uiso 1 1 calc R . .
C8 C 0.7625(3) 0.8865(3) 1.2423(3) 0.0287(5) Uani 1 1 d . . .
H8A H 0.8905 0.9681 1.2886 0.043 Uiso 1 1 calc R . .
H8B H 0.7369 0.9049 1.3519 0.043 Uiso 1 1 calc R . .
H8C H 0.6653 0.9149 1.1674 0.043 Uiso 1 1 calc R . .
C3 C 0.7610(3) 0.5713(3) 1.1816(3) 0.0206(4) Uani 1 1 d . . .
C9 C 0.7208(3) 0.3540(3) 0.6102(3) 0.0280(5) Uani 1 1 d . . .
H9A H 0.6635 0.4257 0.5641 0.042 Uiso 1 1 calc R . .
H9B H 0.6394 0.2249 0.5258 0.042 Uiso 1 1 calc R . .
H9C H 0.8493 0.3615 0.6100 0.042 Uiso 1 1 calc R . .
loop_
_atom_site_aniso_label
_atom_site_aniso_U_11
_atom_site_aniso_U_22
_atom_site_aniso_U_33
_atom_site_aniso_U_23
_atom_site_aniso_U_13
_atom_site_aniso_U_12
Cl1 0.0417(3) 0.0195(3) 0.0244(3) 0.0093(2) 0.0154(2) 0.0120(2)
Cl2 0.0383(3) 0.0300(3) 0.0176(3) 0.0123(2) 0.0140(2) 0.0118(2)
Cl3 0.0560(4) 0.0289(3) 0.0291(3) 0.0210(3) 0.0213(3) 0.0177(3)
C2 0.0235(10) 0.0222(10) 0.0200(10) 0.0118(9) 0.0087(8) 0.0077(8)
C4 0.0212(9) 0.0196(9) 0.0190(10) 0.0085(8) 0.0074(8) 0.0055(8)
C5 0.0241(10) 0.0224(10) 0.0208(11) 0.0135(9) 0.0083(8) 0.0067(8)
C6 0.0195(9) 0.0216(10) 0.0172(10) 0.0093(8) 0.0077(8) 0.0046(8)
C1 0.0212(10) 0.0187(9) 0.0197(10) 0.0075(8) 0.0084(8) 0.0064(8)
C7 0.0475(14) 0.0295(12) 0.0280(12) 0.0201(10) 0.0182(11) 0.0144(10)
C8 0.0383(12) 0.0217(10) 0.0249(12) 0.0111(9) 0.0140(10) 0.0116(9)
C3 0.0211(9) 0.0238(10) 0.0139(9) 0.0087(8) 0.0070(7) 0.0060(8)
C9 0.0361(12) 0.0283(11) 0.0185(11) 0.0116(9) 0.0126(9) 0.0099(9)
loop_
_atom_type_symbol
_atom_type_description
_atom_type_scat_dispersion_real
_atom_type_scat_dispersion_imag
_atom_type_scat_source
C C 0.0033 0.0016 'International Tables Vol C Tables 4.2.6.8 and 6.1.1.4'
H H 0.0000 0.0000 'International Tables Vol C Tables 4.2.6.8 and 6.1.1.4'
Cl Cl 0.1484 0.1585 'International Tables Vol C Tables 4.2.6.8 and 6.1.1.4'
loop_
_geom_angle_atom_site_label_1
_geom_angle_atom_site_label_2
_geom_angle_atom_site_label_3
_geom_angle
_geom_angle_site_symmetry_1
_geom_angle_site_symmetry_3
C1 C2 C7 122.21(19) . .
C1 C2 C3 116.00(19) . .
C3 C2 C7 121.8(2) . .
C5 C4 C8 121.98(19) . .
C5 C4 C3 115.92(19) . .
C3 C4 C8 122.09(19) . .
C4 C5 Cl3 117.63(16) . .
C4 C5 C6 124.50(19) . .
C6 C5 Cl3 117.88(16) . .
C5 C6 C9 122.30(19) . .
C1 C6 C5 115.53(19) . .
C1 C6 C9 122.17(19) . .
C2 C1 Cl1 118.33(16) . .
C2 C1 C6 124.11(19) . .
C6 C1 Cl1 117.56(16) . .
C2 C7 H7A 109.5 . .
C2 C7 H7B 109.5 . .
C2 C7 H7C 109.5 . .
H7A C7 H7B 109.5 . .
H7A C7 H7C 109.5 . .
H7B C7 H7C 109.5 . .
C4 C8 H8A 109.5 . .
C4 C8 H8B 109.5 . .
C4 C8 H8C 109.5 . .
H8A C8 H8B 109.5 . .
H8A C8 H8C 109.5 . .
H8B C8 H8C 109.5 . .
C2 C3 Cl2 117.55(16) . .
C4 C3 Cl2 118.52(16) . .
C4 C3 C2 123.9(2) . .
C6 C9 H9A 109.5 . .
C6 C9 H9B 109.5 . .
C6 C9 H9C 109.5 . .
H9A C9 H9B 109.5 . .
H9A C9 H9C 109.5 . .
H9B C9 H9C 109.5 . .
loop_
_geom_bond_atom_site_label_1
_geom_bond_atom_site_label_2
_geom_bond_distance
_geom_bond_site_symmetry_2
Cl1 C1 1.746(2) .
Cl2 C3 1.748(2) .
Cl3 C5 1.750(2) .
C2 C1 1.394(3) .
C2 C7 1.509(3) .
C2 C3 1.399(3) .
C4 C5 1.390(3) .
C4 C8 1.514(3) .
C4 C3 1.393(3) .
C5 C6 1.397(3) .
C6 C1 1.397(3) .
C6 C9 1.506(3) .
C7 H7A 0.9800 .
C7 H7B 0.9800 .
C7 H7C 0.9800 .
C8 H8A 0.9800 .
C8 H8B 0.9800 .
C8 H8C 0.9800 .
C9 H9A 0.9800 .
C9 H9B 0.9800 .
C9 H9C 0.9800 .
