#------------------------------------------------------------------------------
#$Date: 2015-06-04 11:44:53 +0300 (Thu, 04 Jun 2015) $
#$Revision: 137874 $
#$URL: svn://www.crystallography.net/cod/cif/7/11/72/7117266.cif $
#------------------------------------------------------------------------------
#
# This file is available in the Crystallography Open Database (COD),
# http://www.crystallography.net/
#
# All data on this site have been placed in the public domain by the
# contributors.
#
data_7117266
loop_
_publ_author_name
'Viswanadha G. Saraswatula'
'Binoy K. Saha'
_publ_section_title
;
 A thermal expansion investigation of the melting point anomaly in
 trihalomesitylenes
;
_journal_name_full               Chem.Commun.
_journal_page_first              9829
_journal_paper_doi               10.1039/C5cc03033A
_journal_volume                  51
_journal_year                    2015
_chemical_formula_moiety         'C9 H9 Cl3'
_chemical_formula_sum            'C9 H9 Cl3'
_chemical_formula_weight         223.51
_chemical_name_systematic
;
trichloromesitylene  
;
_space_group_crystal_system      triclinic
_space_group_IT_number           2
_space_group_name_Hall           '-P 1'
_space_group_name_H-M_alt        'P -1'
_symmetry_space_group_name_Hall  '-P 1'
_symmetry_space_group_name_H-M   'P -1'
_atom_sites_solution_hydrogens   geom
_atom_sites_solution_primary     iterative
_atom_sites_solution_secondary   difmap
_audit_creation_date             2013-09-27
_audit_creation_method
;
  Olex2 1.2
  (compiled Dec  5 2012 16:17:34, GUI svn.r4385)
;
_audit_update_record
;
2015-04-06 deposited with the CCDC.
2015-05-07 downloaded from the CCDC.
;
_cell_angle_alpha                119.651(8)
_cell_angle_beta                 107.294(7)
_cell_angle_gamma                96.335(6)
_cell_formula_units_Z            2
_cell_length_a                   7.6799(5)
_cell_length_b                   8.7893(7)
_cell_length_c                   8.8083(7)
_cell_measurement_reflns_used    1786
_cell_measurement_temperature    189.95(10)
_cell_measurement_theta_max      29.2838
_cell_measurement_theta_min      4.6297
_cell_volume                     469.01(9)
_computing_cell_refinement
;
CrysAlisPro, Agilent Technologies,
Version 1.171.36.21 (release 14-08-2012 CrysAlis171 .NET)
(compiled Sep 14 2012,17:21:16)
;
_computing_data_collection
;
CrysAlisPro, Agilent Technologies,
Version 1.171.36.21 (release 14-08-2012 CrysAlis171 .NET)
(compiled Sep 14 2012,17:21:16)
;
_computing_data_reduction
;
CrysAlisPro, Agilent Technologies,
Version 1.171.36.21 (release 14-08-2012 CrysAlis171 .NET)
(compiled Sep 14 2012,17:21:16)
;
_computing_molecular_graphics
;
O. V. Dolomanov, L. J. Bourhis, R. J. Gildea, J. A. K. Howard and H. Puschmann,
OLEX2: a complete structure solution, refinement and analysis program.
J. Appl. Cryst. (2009). 42, 339-341.
;
_computing_publication_material
;
O. V. Dolomanov, L. J. Bourhis, R. J. Gildea, J. A. K. Howard and H. Puschmann,
OLEX2: a complete structure solution, refinement and analysis program.
J. Appl. Cryst. (2009). 42, 339-341.
;
_computing_structure_refinement
;
SHELXL, G.M. Sheldrick, Acta Cryst.
(2008). A64, 112-122
;
_computing_structure_solution
;
olex2.solve (L.J. Bourhis, O.V. Dolomanov, R.J. Gildea, J.A.K. Howard,
H. Puschmann, in preparation, 2011)
;
_diffrn_ambient_temperature      189.95(10)
_diffrn_detector_area_resol_mean 15.9821
_diffrn_measured_fraction_theta_full 0.9937
_diffrn_measured_fraction_theta_max 0.9372
_diffrn_measurement_details
;
  1 omega  -87.00   -3.00   1.0000    3.0000
omega____ theta____ kappa____ phi______ frames
    -      -17.3397  -37.0000 -150.0000 84

  2 omega  -22.00   22.00   1.0000    3.0000
omega____ theta____ kappa____ phi______ frames
    -      -17.3397  -99.0000    0.0000 44

  3 omega  -90.00    3.00   1.0000    3.0000
omega____ theta____ kappa____ phi______ frames
    -      -17.3397  -37.0000  -60.0000 93

  4 omega  -46.00   35.00   1.0000    3.0000
omega____ theta____ kappa____ phi______ frames
    -      -17.3397   77.0000  120.0000 81

  5 omega    4.00   40.00   1.0000    3.0000
omega____ theta____ kappa____ phi______ frames
    -       19.0585  -57.0000  150.0000 36

  6 omega   36.00   71.00   1.0000    3.0000
omega____ theta____ kappa____ phi______ frames
    -       19.0585  178.0000  150.0000 35

  7 omega   29.00   57.00   1.0000    3.0000
omega____ theta____ kappa____ phi______ frames
    -       19.0585  -99.0000  -90.0000 28

  8 omega  -90.00  -10.00   1.0000    3.0000
omega____ theta____ kappa____ phi______ frames
    -      -17.3397  -19.0000   60.0000 80
;
_diffrn_measurement_device_type  'Xcalibur, Eos'
_diffrn_measurement_method       '\w scans'
_diffrn_orient_matrix_UB_11      0.0449883000
_diffrn_orient_matrix_UB_12      0.0355606000
_diffrn_orient_matrix_UB_13      0.0988385000
_diffrn_orient_matrix_UB_21      0.0142398000
_diffrn_orient_matrix_UB_22      -0.0858797000
_diffrn_orient_matrix_UB_23      -0.0228936000
_diffrn_orient_matrix_UB_31      0.0901462000
_diffrn_orient_matrix_UB_32      0.0300211000
_diffrn_orient_matrix_UB_33      0.0009411000
_diffrn_radiation_monochromator  graphite
_diffrn_radiation_type           'Mo K\a'
_diffrn_radiation_wavelength     0.7107
_diffrn_reflns_av_R_equivalents  0.0267
_diffrn_reflns_av_unetI/netI     0.0378
_diffrn_reflns_limit_h_max       9
_diffrn_reflns_limit_h_min       -9
_diffrn_reflns_limit_k_max       11
_diffrn_reflns_limit_k_min       -11
_diffrn_reflns_limit_l_max       11
_diffrn_reflns_limit_l_min       -11
_diffrn_reflns_number            4530
_diffrn_reflns_theta_full        25.00
_diffrn_reflns_theta_max         29.35
_diffrn_reflns_theta_min         4.64
_diffrn_source                   'Enhance (Mo) X-ray Source'
_exptl_absorpt_coefficient_mu    0.914
_exptl_absorpt_correction_T_max  1.00000
_exptl_absorpt_correction_T_min  0.94144
_exptl_absorpt_correction_type   multi-scan
_exptl_absorpt_process_details
;
CrysAlisPro, Agilent Technologies,
Version 1.171.36.21 (release 14-08-2012 CrysAlis171 .NET)
(compiled Sep 14 2012,17:21:16)
Empirical absorption correction using spherical harmonics,
 implemented in SCALE3 ABSPACK scaling algorithm.
;
_exptl_crystal_colour            'clear light colourless'
_exptl_crystal_density_diffrn    1.583
_exptl_crystal_density_method    'not measured'
_exptl_crystal_description       block
_exptl_crystal_F_000             228
_exptl_crystal_size_max          0.4
_exptl_crystal_size_mid          0.4
_exptl_crystal_size_min          0.2
_refine_diff_density_max         0.281
_refine_diff_density_min         -0.402
_refine_diff_density_rms         0.084
_refine_ls_extinction_method     none
_refine_ls_goodness_of_fit_ref   1.095
_refine_ls_hydrogen_treatment    mixed
_refine_ls_matrix_type           full
_refine_ls_number_parameters     112
_refine_ls_number_reflns         2164
_refine_ls_number_restraints     0
_refine_ls_restrained_S_all      1.095
_refine_ls_R_factor_all          0.0505
_refine_ls_R_factor_gt           0.0385
_refine_ls_shift/su_max          0.000
_refine_ls_shift/su_mean         0.000
_refine_ls_structure_factor_coef Fsqd
_refine_ls_weighting_details
'calc w=1/[\s^2^(Fo^2^)+(0.0481P)^2^+0.1559P] where P=(Fo^2^+2Fc^2^)/3'
_refine_ls_weighting_scheme      calc
_refine_ls_wR_factor_gt          0.0979
_refine_ls_wR_factor_ref         0.1066
_reflns_number_gt                1753
_reflns_number_total             2164
_reflns_threshold_expression     >2sigma(I)
_cod_data_source_file            c5cc03033a2.cif
_cod_data_source_block           tcm-190K
_cod_original_cell_volume        469.02(6)
_cod_database_code               7117266
loop_
_space_group_symop_id
_space_group_symop_operation_xyz
1 'x, y, z'
2 '-x, -y, -z'
loop_
_atom_site_label
_atom_site_type_symbol
_atom_site_fract_x
_atom_site_fract_y
_atom_site_fract_z
_atom_site_U_iso_or_equiv
_atom_site_adp_type
_atom_site_occupancy
_atom_site_symmetry_multiplicity
_atom_site_calc_flag
_atom_site_refinement_flags
_atom_site_disorder_assembly
_atom_site_disorder_group
Cl1 Cl 0.73955(9) 0.09647(7) 0.74399(9) 0.03613(18) Uani 1 1 d . . .
Cl2 Cl 0.77703(9) 0.65735(8) 1.41284(8) 0.03484(18) Uani 1 1 d . . .
Cl3 Cl 0.73612(11) 0.75273(8) 0.84587(9) 0.0417(2) Uani 1 1 d . . .
C2 C 0.7578(3) 0.3880(3) 1.0726(3) 0.0258(4) Uani 1 1 d . . .
C4 C 0.7545(3) 0.6871(3) 1.1174(3) 0.0249(4) Uani 1 1 d . . .
C5 C 0.7426(3) 0.6111(3) 0.9319(3) 0.0262(5) Uani 1 1 d . . .
C6 C 0.7362(3) 0.4296(3) 0.8111(3) 0.0245(4) Uani 1 1 d . . .
C1 C 0.7447(3) 0.3241(3) 0.8879(3) 0.0249(4) Uani 1 1 d . . .
C7 C 0.7666(4) 0.2680(4) 1.1485(4) 0.0386(6) Uani 1 1 d . . .
H7A H 0.6451 0.2314 1.1503 0.058 Uiso 1 1 calc R . .
H7B H 0.8650 0.3352 1.2760 0.058 Uiso 1 1 calc R . .
H7C H 0.7954 0.1605 1.0677 0.058 Uiso 1 1 calc R . .
C8 C 0.7615(4) 0.8856(3) 1.2416(4) 0.0342(5) Uani 1 1 d . . .
H8A H 0.8845 0.9660 1.2822 0.051 Uiso 1 1 calc R . .
H8B H 0.7417 0.9051 1.3517 0.051 Uiso 1 1 calc R . .
H8C H 0.6627 0.9112 1.1696 0.051 Uiso 1 1 calc R . .
C3 C 0.7614(3) 0.5708(3) 1.1812(3) 0.0248(4) Uani 1 1 d . . .
C9 C 0.7199(4) 0.3536(3) 0.6100(3) 0.0344(5) Uani 1 1 d . . .
H9A H 0.6628 0.2222 0.5334 0.052 Uiso 1 1 calc R . .
H9B H 0.8453 0.3832 0.6126 0.052 Uiso 1 1 calc R . .
H9C H 0.6412 0.4069 0.5561 0.052 Uiso 1 1 calc R . .
loop_
_atom_site_aniso_label
_atom_site_aniso_U_11
_atom_site_aniso_U_22
_atom_site_aniso_U_33
_atom_site_aniso_U_23
_atom_site_aniso_U_13
_atom_site_aniso_U_12
Cl1 0.0504(4) 0.0235(3) 0.0305(3) 0.0107(2) 0.0186(3) 0.0142(2)
Cl2 0.0465(4) 0.0363(3) 0.0217(3) 0.0144(3) 0.0166(3) 0.0141(3)
Cl3 0.0672(5) 0.0352(3) 0.0364(4) 0.0256(3) 0.0255(3) 0.0214(3)
C2 0.0266(11) 0.0279(10) 0.0237(11) 0.0148(9) 0.0100(9) 0.0094(9)
C4 0.0233(11) 0.0232(10) 0.0229(11) 0.0103(9) 0.0080(9) 0.0058(8)
C5 0.0295(11) 0.0254(10) 0.0248(11) 0.0151(9) 0.0106(9) 0.0086(9)
C6 0.0233(11) 0.0265(10) 0.0207(10) 0.0111(9) 0.0093(9) 0.0068(8)
C1 0.0242(11) 0.0221(10) 0.0225(11) 0.0087(9) 0.0089(9) 0.0073(8)
C7 0.0576(17) 0.0349(12) 0.0334(13) 0.0237(11) 0.0208(13) 0.0179(12)
C8 0.0456(15) 0.0244(10) 0.0284(12) 0.0111(10) 0.0155(11) 0.0138(10)
C3 0.0231(11) 0.0286(11) 0.0191(10) 0.0115(9) 0.0081(9) 0.0069(9)
C9 0.0449(15) 0.0341(12) 0.0228(12) 0.0135(10) 0.0164(11) 0.0122(11)
loop_
_atom_type_symbol
_atom_type_description
_atom_type_scat_dispersion_real
_atom_type_scat_dispersion_imag
_atom_type_scat_source
C C 0.0033 0.0016 'International Tables Vol C Tables 4.2.6.8 and 6.1.1.4'
H H 0.0000 0.0000 'International Tables Vol C Tables 4.2.6.8 and 6.1.1.4'
Cl Cl 0.1484 0.1585 'International Tables Vol C Tables 4.2.6.8 and 6.1.1.4'
loop_
_geom_angle_atom_site_label_1
_geom_angle_atom_site_label_2
_geom_angle_atom_site_label_3
_geom_angle
_geom_angle_site_symmetry_1
_geom_angle_site_symmetry_3
C1 C2 C7 122.2(2) . .
C3 C2 C1 115.5(2) . .
C3 C2 C7 122.3(2) . .
C5 C4 C8 121.7(2) . .
C3 C4 C5 115.93(19) . .
C3 C4 C8 122.4(2) . .
C4 C5 Cl3 117.69(16) . .
C4 C5 C6 124.3(2) . .
C6 C5 Cl3 118.06(17) . .
C5 C6 C9 122.0(2) . .
C1 C6 C5 115.6(2) . .
C1 C6 C9 122.44(19) . .
C2 C1 Cl1 117.97(17) . .
C6 C1 Cl1 117.60(16) . .
C6 C1 C2 124.42(19) . .
C2 C7 H7A 109.5 . .
C2 C7 H7B 109.5 . .
C2 C7 H7C 109.5 . .
H7A C7 H7B 109.5 . .
H7A C7 H7C 109.5 . .
H7B C7 H7C 109.5 . .
C4 C8 H8A 109.5 . .
C4 C8 H8B 109.5 . .
C4 C8 H8C 109.5 . .
H8A C8 H8B 109.5 . .
H8A C8 H8C 109.5 . .
H8B C8 H8C 109.5 . .
C2 C3 Cl2 117.36(17) . .
C4 C3 Cl2 118.35(16) . .
C4 C3 C2 124.3(2) . .
C6 C9 H9A 109.5 . .
C6 C9 H9B 109.5 . .
C6 C9 H9C 109.5 . .
H9A C9 H9B 109.5 . .
H9A C9 H9C 109.5 . .
H9B C9 H9C 109.5 . .
loop_
_geom_bond_atom_site_label_1
_geom_bond_atom_site_label_2
_geom_bond_distance
_geom_bond_site_symmetry_2
Cl1 C1 1.747(2) .
Cl2 C3 1.748(2) .
Cl3 C5 1.747(2) .
C2 C1 1.399(3) .
C2 C7 1.501(3) .
C2 C3 1.397(3) .
C4 C5 1.393(3) .
C4 C8 1.516(3) .
C4 C3 1.388(3) .
C5 C6 1.397(3) .
C6 C1 1.390(3) .
C6 C9 1.509(3) .
C7 H7A 0.9600 .
C7 H7B 0.9600 .
C7 H7C 0.9600 .
C8 H8A 0.9600 .
C8 H8B 0.9600 .
C8 H8C 0.9600 .
C9 H9A 0.9600 .
C9 H9B 0.9600 .
C9 H9C 0.9600 .
