#------------------------------------------------------------------------------
#$Date: 2015-06-04 11:44:53 +0300 (Thu, 04 Jun 2015) $
#$Revision: 137874 $
#$URL: svn://www.crystallography.net/cod/cif/7/11/72/7117263.cif $
#------------------------------------------------------------------------------
#
# This file is available in the Crystallography Open Database (COD),
# http://www.crystallography.net/
#
# All data on this site have been placed in the public domain by the
# contributors.
#
data_7117263
loop_
_publ_author_name
'Viswanadha G. Saraswatula'
'Binoy K. Saha'
_publ_section_title
;
 A thermal expansion investigation of the melting point anomaly in
 trihalomesitylenes
;
_journal_name_full               Chem.Commun.
_journal_page_first              9829
_journal_paper_doi               10.1039/C5cc03033A
_journal_volume                  51
_journal_year                    2015
_chemical_formula_moiety         'C9 H9 Br3'
_chemical_formula_sum            'C9 H9 Br3'
_chemical_formula_weight         356.89
_chemical_name_systematic
;
tribromomesitylene 
;
_space_group_crystal_system      triclinic
_space_group_IT_number           2
_space_group_name_Hall           '-P 1'
_space_group_name_H-M_alt        'P -1'
_symmetry_space_group_name_Hall  '-P 1'
_symmetry_space_group_name_H-M   'P -1'
_atom_sites_solution_hydrogens   geom
_atom_sites_solution_primary     iterative
_atom_sites_solution_secondary   difmap
_audit_creation_date             2013-09-28
_audit_creation_method
;
  Olex2 1.2
  (compiled Dec  5 2012 16:17:34, GUI svn.r4385)
;
_audit_update_record
;
2015-04-06 deposited with the CCDC.
2015-05-07 downloaded from the CCDC.
;
_cell_angle_alpha                119.760(9)
_cell_angle_beta                 106.811(8)
_cell_angle_gamma                95.019(7)
_cell_formula_units_Z            2
_cell_length_a                   7.7631(7)
_cell_length_b                   9.0805(8)
_cell_length_c                   9.0999(8)
_cell_measurement_reflns_used    1396
_cell_measurement_temperature    262(2)
_cell_measurement_theta_max      28.9353
_cell_measurement_theta_min      3.6126
_cell_volume                     512.06(11)
_computing_cell_refinement
;
CrysAlisPro, Agilent Technologies,
Version 1.171.36.21 (release 14-08-2012 CrysAlis171 .NET)
(compiled Sep 14 2012,17:21:16)
;
_computing_data_collection
;
CrysAlisPro, Agilent Technologies,
Version 1.171.36.21 (release 14-08-2012 CrysAlis171 .NET)
(compiled Sep 14 2012,17:21:16)
;
_computing_data_reduction
;
CrysAlisPro, Agilent Technologies,
Version 1.171.36.21 (release 14-08-2012 CrysAlis171 .NET)
(compiled Sep 14 2012,17:21:16)
;
_computing_molecular_graphics
;
O. V. Dolomanov, L. J. Bourhis, R. J. Gildea, J. A. K. Howard and H. Puschmann,
OLEX2: a complete structure solution, refinement and analysis program.
J. Appl. Cryst. (2009). 42, 339-341.
;
_computing_publication_material
;
O. V. Dolomanov, L. J. Bourhis, R. J. Gildea, J. A. K. Howard and H. Puschmann,
OLEX2: a complete structure solution, refinement and analysis program.
J. Appl. Cryst. (2009). 42, 339-341.
;
_computing_structure_refinement
;
SHELXL, G.M. Sheldrick, Acta Cryst.
(2008). A64, 112-122
;
_computing_structure_solution
;
olex2.solve (L.J. Bourhis, O.V. Dolomanov, R.J. Gildea, J.A.K. Howard,
H. Puschmann, in preparation, 2011)
;
_diffrn_ambient_temperature      262(2)
_diffrn_detector_area_resol_mean 15.9821
_diffrn_measured_fraction_theta_full 0.9924
_diffrn_measured_fraction_theta_max 0.9330
_diffrn_measurement_details
;
  1 omega  -17.00   50.00   1.0000    5.5000
omega____ theta____ kappa____ phi______ frames
    -      -17.3397   57.0000    0.0000 67

  2 omega   -5.00   23.00   1.0000    5.5000
omega____ theta____ kappa____ phi______ frames
    -      -17.3397 -103.0000    7.0000 28

  3 omega  -33.00   48.00   1.0000    5.5000
omega____ theta____ kappa____ phi______ frames
    -      -17.3397   57.0000 -120.0000 81

  4 omega  -35.00   51.00   1.0000    5.5000
omega____ theta____ kappa____ phi______ frames
    -      -17.3397   57.0000  120.0000 86

  5 omega  -62.00   10.00   1.0000    5.5000
omega____ theta____ kappa____ phi______ frames
    -      -17.3397  -77.0000  -90.0000 72

  6 omega   -7.00   24.00   1.0000    5.5000
omega____ theta____ kappa____ phi______ frames
    -      -17.3397  -99.0000  120.0000 31

  7 omega  -86.00  -61.00   1.0000    5.5000
omega____ theta____ kappa____ phi______ frames
    -      -17.3397  -57.0000  -30.0000 25

  8 omega   -2.00   88.00   1.0000    5.5000
omega____ theta____ kappa____ phi______ frames
    -       19.1366   57.0000  150.0000 90
;
_diffrn_measurement_device_type  'Xcalibur, Eos'
_diffrn_measurement_method       '\w scans'
_diffrn_orient_matrix_UB_11      -0.0505032000
_diffrn_orient_matrix_UB_12      0.0459841000
_diffrn_orient_matrix_UB_13      0.0536084000
_diffrn_orient_matrix_UB_21      0.0764001000
_diffrn_orient_matrix_UB_22      0.0773691000
_diffrn_orient_matrix_UB_23      0.0531500000
_diffrn_orient_matrix_UB_31      -0.0385465000
_diffrn_orient_matrix_UB_32      0.0259632000
_diffrn_orient_matrix_UB_33      -0.0613437000
_diffrn_radiation_monochromator  graphite
_diffrn_radiation_type           'Mo K\a'
_diffrn_radiation_wavelength     0.7107
_diffrn_reflns_av_R_equivalents  0.0437
_diffrn_reflns_av_unetI/netI     0.0709
_diffrn_reflns_limit_h_max       10
_diffrn_reflns_limit_h_min       -10
_diffrn_reflns_limit_k_max       11
_diffrn_reflns_limit_k_min       -12
_diffrn_reflns_limit_l_max       12
_diffrn_reflns_limit_l_min       -11
_diffrn_reflns_number            4894
_diffrn_reflns_theta_full        25.00
_diffrn_reflns_theta_max         29.00
_diffrn_reflns_theta_min         3.62
_diffrn_source                   'Enhance (Mo) X-ray Source'
_exptl_absorpt_coefficient_mu    11.760
_exptl_absorpt_correction_T_max  1.00000
_exptl_absorpt_correction_T_min  0.32982
_exptl_absorpt_correction_type   multi-scan
_exptl_absorpt_process_details
;
CrysAlisPro, Agilent Technologies,
Version 1.171.36.21 (release 14-08-2012 CrysAlis171 .NET)
(compiled Sep 14 2012,17:21:16)
Empirical absorption correction using spherical harmonics,
 implemented in SCALE3 ABSPACK scaling algorithm.
;
_exptl_crystal_colour            colourless
_exptl_crystal_colour_primary    colourless
_exptl_crystal_density_diffrn    2.315
_exptl_crystal_density_method    'not measured'
_exptl_crystal_description       block
_exptl_crystal_F_000             336
_exptl_crystal_size_max          0.4
_exptl_crystal_size_mid          0.4
_exptl_crystal_size_min          0.2
_refine_diff_density_max         0.984
_refine_diff_density_min         -1.086
_refine_diff_density_rms         0.170
_refine_ls_extinction_coef       0.0260(18)
_refine_ls_extinction_expression Fc^*^=kFc[1+0.001xFc^2^\l^3^/sin(2\q)]^-1/4^
_refine_ls_extinction_method     SHELXL
_refine_ls_goodness_of_fit_ref   1.070
_refine_ls_hydrogen_treatment    mixed
_refine_ls_matrix_type           full
_refine_ls_number_parameters     113
_refine_ls_number_reflns         2342
_refine_ls_number_restraints     0
_refine_ls_restrained_S_all      1.070
_refine_ls_R_factor_all          0.0678
_refine_ls_R_factor_gt           0.0481
_refine_ls_shift/su_max          0.001
_refine_ls_shift/su_mean         0.000
_refine_ls_structure_factor_coef Fsqd
_refine_ls_weighting_details
'calc w=1/[\s^2^(Fo^2^)+(0.0384P)^2^+0.0000P] where P=(Fo^2^+2Fc^2^)/3'
_refine_ls_weighting_scheme      calc
_refine_ls_wR_factor_gt          0.0940
_refine_ls_wR_factor_ref         0.1079
_reflns_number_gt                1786
_reflns_number_total             2342
_reflns_threshold_expression     >2sigma(I)
_cod_data_source_file            c5cc03033a2.cif
_cod_data_source_block           tbm-262K
_cod_original_cell_volume        512.06(8)
_cod_database_code               7117263
loop_
_space_group_symop_id
_space_group_symop_operation_xyz
1 'x, y, z'
2 '-x, -y, -z'
loop_
_atom_site_label
_atom_site_type_symbol
_atom_site_fract_x
_atom_site_fract_y
_atom_site_fract_z
_atom_site_U_iso_or_equiv
_atom_site_adp_type
_atom_site_occupancy
_atom_site_symmetry_multiplicity
_atom_site_calc_flag
_atom_site_refinement_flags
_atom_site_disorder_assembly
_atom_site_disorder_group
Br3 Br 0.73562(9) 0.60242(9) 0.74354(8) 0.0426(2) Uani 1 1 d . . .
Br2 Br 0.78245(8) 0.73035(8) 1.43177(7) 0.0406(2) Uani 1 1 d . . .
Br1 Br 0.73073(9) 0.04617(8) 0.86086(8) 0.0454(2) Uani 1 1 d . . .
C5 C 0.7447(6) 0.5216(8) 0.9016(7) 0.0281(12) Uani 1 1 d . . .
C7 C 0.7602(9) 0.3282(10) 1.2498(8) 0.0443(16) Uani 1 1 d . . .
H7A H 0.8804 0.3093 1.2881 0.066 Uiso 1 1 calc R . .
H7B H 0.6642 0.2187 1.1830 0.066 Uiso 1 1 calc R . .
H7C H 0.7394 0.4129 1.3556 0.066 Uiso 1 1 calc R . .
C6 C 0.7394(6) 0.3436(7) 0.8294(7) 0.0273(12) Uani 1 1 d . . .
C9 C 0.7263(8) 0.2204(8) 0.6362(7) 0.0370(14) Uani 1 1 d . . .
H9A H 0.8363 0.2605 0.6232 0.056 Uiso 1 1 calc R . .
H9B H 0.6174 0.2188 0.5513 0.056 Uiso 1 1 calc R . .
H9C H 0.7170 0.1034 0.6111 0.056 Uiso 1 1 calc R . .
C1 C 0.7433(7) 0.2890(7) 0.9483(7) 0.0280(11) Uani 1 1 d . . .
C2 C 0.7547(6) 0.3968(7) 1.1283(7) 0.0281(12) Uani 1 1 d . . .
C8 C 0.7643(8) 0.8309(8) 1.1477(8) 0.0376(13) Uani 1 1 d . . .
H8A H 0.6774 0.8379 1.0534 0.056 Uiso 1 1 calc R . .
H8B H 0.8886 0.8958 1.1814 0.056 Uiso 1 1 calc R . .
H8C H 0.7312 0.8804 1.2530 0.056 Uiso 1 1 calc R . .
C4 C 0.7578(6) 0.6418(7) 1.0779(7) 0.0263(11) Uani 1 1 d . . .
C3 C 0.7619(6) 0.5712(8) 1.1867(6) 0.0257(11) Uani 1 1 d . . .
loop_
_atom_site_aniso_label
_atom_site_aniso_U_11
_atom_site_aniso_U_22
_atom_site_aniso_U_33
_atom_site_aniso_U_23
_atom_site_aniso_U_13
_atom_site_aniso_U_12
Br3 0.0656(4) 0.0377(4) 0.0352(4) 0.0260(3) 0.0210(3) 0.0164(3)
Br2 0.0597(4) 0.0313(4) 0.0251(3) 0.0101(3) 0.0194(3) 0.0120(3)
Br1 0.0745(5) 0.0231(4) 0.0427(4) 0.0171(3) 0.0278(3) 0.0188(3)
C5 0.028(2) 0.033(4) 0.022(3) 0.016(3) 0.009(2) 0.009(2)
C7 0.060(4) 0.053(5) 0.037(3) 0.031(3) 0.025(3) 0.025(4)
C6 0.028(2) 0.023(3) 0.025(3) 0.011(3) 0.008(2) 0.006(2)
C9 0.050(3) 0.026(3) 0.020(3) 0.005(3) 0.011(2) 0.010(3)
C1 0.038(3) 0.018(3) 0.029(3) 0.014(2) 0.014(2) 0.009(2)
C2 0.033(3) 0.020(3) 0.026(3) 0.010(3) 0.010(2) 0.005(2)
C8 0.054(3) 0.021(3) 0.031(3) 0.009(3) 0.018(3) 0.011(3)
C4 0.026(2) 0.019(3) 0.023(2) 0.009(2) 0.004(2) 0.001(2)
C3 0.028(2) 0.026(3) 0.018(2) 0.010(2) 0.009(2) 0.006(2)
loop_
_atom_type_symbol
_atom_type_description
_atom_type_scat_dispersion_real
_atom_type_scat_dispersion_imag
_atom_type_scat_source
C C 0.0033 0.0016 'International Tables Vol C Tables 4.2.6.8 and 6.1.1.4'
H H 0.0000 0.0000 'International Tables Vol C Tables 4.2.6.8 and 6.1.1.4'
Br Br -0.2901 2.4595 'International Tables Vol C Tables 4.2.6.8 and 6.1.1.4'
loop_
_geom_angle_atom_site_label_1
_geom_angle_atom_site_label_2
_geom_angle_atom_site_label_3
_geom_angle
_geom_angle_site_symmetry_1
_geom_angle_site_symmetry_3
C6 C5 Br3 116.5(4) . .
C4 C5 Br3 118.2(4) . .
C4 C5 C6 125.3(5) . .
H7A C7 H7B 109.5 . .
H7A C7 H7C 109.5 . .
H7B C7 H7C 109.5 . .
C2 C7 H7A 109.5 . .
C2 C7 H7B 109.5 . .
C2 C7 H7C 109.5 . .
C5 C6 C9 122.4(5) . .
C1 C6 C5 114.7(5) . .
C1 C6 C9 122.8(5) . .
C6 C9 H9A 109.5 . .
C6 C9 H9B 109.5 . .
C6 C9 H9C 109.5 . .
H9A C9 H9B 109.5 . .
H9A C9 H9C 109.5 . .
H9B C9 H9C 109.5 . .
C6 C1 Br1 118.1(4) . .
C6 C1 C2 125.4(5) . .
C2 C1 Br1 116.5(4) . .
C1 C2 C7 122.3(5) . .
C3 C2 C7 122.6(5) . .
C3 C2 C1 115.1(5) . .
H8A C8 H8B 109.5 . .
H8A C8 H8C 109.5 . .
H8B C8 H8C 109.5 . .
C4 C8 H8A 109.5 . .
C4 C8 H8B 109.5 . .
C4 C8 H8C 109.5 . .
C5 C4 C8 122.8(5) . .
C5 C4 C3 114.8(5) . .
C3 C4 C8 122.4(5) . .
C2 C3 Br2 118.4(4) . .
C2 C3 C4 124.6(5) . .
C4 C3 Br2 117.0(4) . .
loop_
_geom_bond_atom_site_label_1
_geom_bond_atom_site_label_2
_geom_bond_distance
_geom_bond_site_symmetry_2
Br3 C5 1.901(5) .
Br2 C3 1.908(5) .
Br1 C1 1.919(6) .
C5 C6 1.402(8) .
C5 C4 1.387(7) .
C7 H7A 0.9600 .
C7 H7B 0.9600 .
C7 H7C 0.9600 .
C7 C2 1.508(7) .
C6 C9 1.509(7) .
C6 C1 1.390(7) .
C9 H9A 0.9600 .
C9 H9B 0.9600 .
C9 H9C 0.9600 .
C1 C2 1.400(7) .
C2 C3 1.388(7) .
C8 H8A 0.9600 .
C8 H8B 0.9600 .
C8 H8C 0.9600 .
C8 C4 1.497(8) .
C4 C3 1.417(7) .
