#------------------------------------------------------------------------------
#$Date: 2015-06-04 11:44:53 +0300 (Thu, 04 Jun 2015) $
#$Revision: 137874 $
#$URL: svn://www.crystallography.net/cod/cif/7/11/72/7117260.cif $
#------------------------------------------------------------------------------
#
# This file is available in the Crystallography Open Database (COD),
# http://www.crystallography.net/
#
# All data on this site have been placed in the public domain by the
# contributors.
#
data_7117260
loop_
_publ_author_name
'Viswanadha G. Saraswatula'
'Binoy K. Saha'
_publ_section_title
;
 A thermal expansion investigation of the melting point anomaly in
 trihalomesitylenes
;
_journal_name_full               Chem.Commun.
_journal_page_first              9829
_journal_paper_doi               10.1039/C5cc03033A
_journal_volume                  51
_journal_year                    2015
_chemical_formula_moiety         'C9 H9 Br3'
_chemical_formula_sum            'C9 H9 Br3'
_chemical_formula_weight         356.89
_chemical_name_systematic
;
tribromomesitylene 
;
_space_group_crystal_system      triclinic
_space_group_IT_number           2
_space_group_name_Hall           '-P 1'
_space_group_name_H-M_alt        'P -1'
_symmetry_space_group_name_Hall  '-P 1'
_symmetry_space_group_name_H-M   'P -1'
_atom_sites_solution_hydrogens   geom
_atom_sites_solution_primary     iterative
_atom_sites_solution_secondary   difmap
_audit_creation_date             2013-09-28
_audit_creation_method
;
  Olex2 1.2
  (compiled Dec  5 2012 16:17:34, GUI svn.r4385)
;
_audit_update_record
;
2015-04-06 deposited with the CCDC.
2015-05-07 downloaded from the CCDC.
;
_cell_angle_alpha                119.817(9)
_cell_angle_beta                 106.887(7)
_cell_angle_gamma                95.081(7)
_cell_formula_units_Z            2
_cell_length_a                   7.6795(6)
_cell_length_b                   9.0494(7)
_cell_length_c                   9.0657(8)
_cell_measurement_reflns_used    1684
_cell_measurement_temperature    154(2)
_cell_measurement_theta_max      29.0477
_cell_measurement_theta_min      4.1291
_cell_volume                     502.02(10)
_computing_cell_refinement
;
CrysAlisPro, Agilent Technologies,
Version 1.171.36.21 (release 14-08-2012 CrysAlis171 .NET)
(compiled Sep 14 2012,17:21:16)
;
_computing_data_collection
;
CrysAlisPro, Agilent Technologies,
Version 1.171.36.21 (release 14-08-2012 CrysAlis171 .NET)
(compiled Sep 14 2012,17:21:16)
;
_computing_data_reduction
;
CrysAlisPro, Agilent Technologies,
Version 1.171.36.21 (release 14-08-2012 CrysAlis171 .NET)
(compiled Sep 14 2012,17:21:16)
;
_computing_molecular_graphics
;
O. V. Dolomanov, L. J. Bourhis, R. J. Gildea, J. A. K. Howard and H. Puschmann,
OLEX2: a complete structure solution, refinement and analysis program.
J. Appl. Cryst. (2009). 42, 339-341.
;
_computing_publication_material
;
O. V. Dolomanov, L. J. Bourhis, R. J. Gildea, J. A. K. Howard and H. Puschmann,
OLEX2: a complete structure solution, refinement and analysis program.
J. Appl. Cryst. (2009). 42, 339-341.
;
_computing_structure_refinement
;
SHELXL, G.M. Sheldrick, Acta Cryst.
(2008). A64, 112-122
;
_computing_structure_solution
;
olex2.solve (L.J. Bourhis, O.V. Dolomanov, R.J. Gildea, J.A.K. Howard,
H. Puschmann, in preparation, 2011)
;
_diffrn_ambient_temperature      154(2)
_diffrn_detector_area_resol_mean 15.9821
_diffrn_measured_fraction_theta_full 0.9951
_diffrn_measured_fraction_theta_max 0.9512
_diffrn_measurement_details
;
  1 omega  -39.00   51.00   1.0000    4.0000
omega____ theta____ kappa____ phi______ frames
    -      -17.3397   57.0000  120.0000 90

  2 omega  -43.00   55.00   1.0000    4.0000
omega____ theta____ kappa____ phi______ frames
    -      -17.3397   37.0000   30.0000 98

  3 omega  -13.00   18.00   1.0000    4.0000
omega____ theta____ kappa____ phi______ frames
    -      -17.3397  -99.0000  150.0000 31

  4 omega  -20.00   16.00   1.0000    4.0000
omega____ theta____ kappa____ phi______ frames
    -      -17.3397 -103.0000    8.0000 36

  5 omega  -42.00  -16.00   1.0000    4.0000
omega____ theta____ kappa____ phi______ frames
    -      -17.3397   77.0000 -150.0000 26

  6 omega   12.00   52.00   1.0000    4.0000
omega____ theta____ kappa____ phi______ frames
    -      -17.3397   77.0000 -150.0000 40

  7 omega   42.00   95.00   1.0000    4.0000
omega____ theta____ kappa____ phi______ frames
    -       19.1366  178.0000    0.0000 53

  8 omega  -86.00  -61.00   1.0000    4.0000
omega____ theta____ kappa____ phi______ frames
    -      -17.3397  -57.0000  -60.0000 25

  9 omega  -86.00    4.00   1.0000    4.0000
omega____ theta____ kappa____ phi______ frames
    -      -17.3397  -57.0000   90.0000 90
;
_diffrn_measurement_device_type  'Xcalibur, Eos'
_diffrn_measurement_method       '\w scans'
_diffrn_orient_matrix_UB_11      -0.0509660000
_diffrn_orient_matrix_UB_12      0.0460621000
_diffrn_orient_matrix_UB_13      0.0538919000
_diffrn_orient_matrix_UB_21      0.0774170000
_diffrn_orient_matrix_UB_22      0.0778104000
_diffrn_orient_matrix_UB_23      0.0536591000
_diffrn_orient_matrix_UB_31      -0.0390239000
_diffrn_orient_matrix_UB_32      0.0261316000
_diffrn_orient_matrix_UB_33      -0.0614936000
_diffrn_radiation_monochromator  graphite
_diffrn_radiation_type           'Mo K\a'
_diffrn_radiation_wavelength     0.7107
_diffrn_reflns_av_R_equivalents  0.0377
_diffrn_reflns_av_unetI/netI     0.0583
_diffrn_reflns_limit_h_max       10
_diffrn_reflns_limit_h_min       -10
_diffrn_reflns_limit_k_max       11
_diffrn_reflns_limit_k_min       -12
_diffrn_reflns_limit_l_max       11
_diffrn_reflns_limit_l_min       -11
_diffrn_reflns_number            4843
_diffrn_reflns_theta_full        25.00
_diffrn_reflns_theta_max         29.11
_diffrn_reflns_theta_min         4.14
_diffrn_source                   'Enhance (Mo) X-ray Source'
_exptl_absorpt_coefficient_mu    11.995
_exptl_absorpt_correction_T_max  1.00000
_exptl_absorpt_correction_T_min  0.25348
_exptl_absorpt_correction_type   multi-scan
_exptl_absorpt_process_details
;
CrysAlisPro, Agilent Technologies,
Version 1.171.36.21 (release 14-08-2012 CrysAlis171 .NET)
(compiled Sep 14 2012,17:21:16)
Empirical absorption correction using spherical harmonics,
 implemented in SCALE3 ABSPACK scaling algorithm.
;
_exptl_crystal_colour            colourless
_exptl_crystal_colour_primary    colourless
_exptl_crystal_density_diffrn    2.361
_exptl_crystal_density_method    'not measured'
_exptl_crystal_description       block
_exptl_crystal_F_000             336
_exptl_crystal_size_max          0.4
_exptl_crystal_size_mid          0.4
_exptl_crystal_size_min          0.2
_refine_diff_density_max         0.671
_refine_diff_density_min         -1.306
_refine_diff_density_rms         0.221
_refine_ls_extinction_method     none
_refine_ls_goodness_of_fit_ref   1.040
_refine_ls_hydrogen_treatment    mixed
_refine_ls_matrix_type           full
_refine_ls_number_parameters     112
_refine_ls_number_reflns         2317
_refine_ls_number_restraints     0
_refine_ls_restrained_S_all      1.040
_refine_ls_R_factor_all          0.0523
_refine_ls_R_factor_gt           0.0393
_refine_ls_shift/su_max          0.000
_refine_ls_shift/su_mean         0.000
_refine_ls_structure_factor_coef Fsqd
_refine_ls_weighting_details
'calc w=1/[\s^2^(Fo^2^)+(0.0410P)^2^+0.0000P] where P=(Fo^2^+2Fc^2^)/3'
_refine_ls_weighting_scheme      calc
_refine_ls_wR_factor_gt          0.0841
_refine_ls_wR_factor_ref         0.0921
_reflns_number_gt                1909
_reflns_number_total             2317
_reflns_threshold_expression     >2sigma(I)
_cod_data_source_file            c5cc03033a2.cif
_cod_data_source_block           tbm-154K
_cod_original_cell_volume        502.03(7)
_cod_database_code               7117260
loop_
_space_group_symop_id
_space_group_symop_operation_xyz
1 'x, y, z'
2 '-x, -y, -z'
loop_
_atom_site_label
_atom_site_type_symbol
_atom_site_fract_x
_atom_site_fract_y
_atom_site_fract_z
_atom_site_U_iso_or_equiv
_atom_site_adp_type
_atom_site_occupancy
_atom_site_symmetry_multiplicity
_atom_site_calc_flag
_atom_site_refinement_flags
_atom_site_disorder_assembly
_atom_site_disorder_group
Br3 Br 0.73343(7) 0.60157(7) 0.74213(7) 0.02257(15) Uani 1 1 d . . .
Br2 Br 0.78200(7) 0.73121(7) 1.43419(7) 0.02092(15) Uani 1 1 d . . .
Br1 Br 0.73260(8) 0.04399(7) 0.86179(7) 0.02418(16) Uani 1 1 d . . .
C5 C 0.7452(6) 0.5191(7) 0.9011(6) 0.0143(10) Uani 1 1 d . . .
C7 C 0.7610(8) 0.3275(8) 1.2510(7) 0.0245(12) Uani 1 1 d . . .
H7A H 0.8889 0.3189 1.2995 0.037 Uiso 1 1 calc R . .
H7B H 0.6699 0.2098 1.1793 0.037 Uiso 1 1 calc R . .
H7C H 0.7282 0.4090 1.3537 0.037 Uiso 1 1 calc R . .
C6 C 0.7384(6) 0.3416(6) 0.8300(6) 0.0138(10) Uani 1 1 d . . .
C9 C 0.7273(8) 0.2209(7) 0.6379(7) 0.0219(11) Uani 1 1 d . . .
H9A H 0.8386 0.2667 0.6249 0.033 Uiso 1 1 calc R . .
H9B H 0.6120 0.2150 0.5501 0.033 Uiso 1 1 calc R . .
H9C H 0.7239 0.1019 0.6129 0.033 Uiso 1 1 calc R . .
C1 C 0.7431(6) 0.2861(6) 0.9480(6) 0.0142(9) Uani 1 1 d . . .
C2 C 0.7546(6) 0.3959(7) 1.1289(6) 0.0145(10) Uani 1 1 d . . .
C8 C 0.7637(7) 0.8302(7) 1.1486(7) 0.0219(11) Uani 1 1 d . . .
H8A H 0.6665 0.8362 1.0555 0.033 Uiso 1 1 calc R . .
H8B H 0.8891 0.8941 1.1732 0.033 Uiso 1 1 calc R . .
H8C H 0.7404 0.8845 1.2627 0.033 Uiso 1 1 calc R . .
C4 C 0.7565(6) 0.6418(7) 1.0798(6) 0.0146(10) Uani 1 1 d . . .
C3 C 0.7617(6) 0.5715(6) 1.1884(6) 0.0123(9) Uani 1 1 d . . .
loop_
_atom_site_aniso_label
_atom_site_aniso_U_11
_atom_site_aniso_U_22
_atom_site_aniso_U_33
_atom_site_aniso_U_23
_atom_site_aniso_U_13
_atom_site_aniso_U_12
Br3 0.0368(3) 0.0187(3) 0.0194(3) 0.0144(2) 0.0121(2) 0.0086(2)
Br2 0.0328(3) 0.0148(3) 0.0138(3) 0.0057(2) 0.0113(2) 0.0064(2)
Br1 0.0420(3) 0.0109(3) 0.0241(3) 0.0101(2) 0.0165(2) 0.0107(2)
C5 0.015(2) 0.012(3) 0.017(2) 0.010(2) 0.0053(19) 0.0032(19)
C7 0.045(3) 0.024(3) 0.022(3) 0.019(3) 0.022(3) 0.018(3)
C6 0.013(2) 0.013(3) 0.014(2) 0.006(2) 0.0060(19) 0.004(2)
C9 0.034(3) 0.013(3) 0.020(3) 0.008(2) 0.012(2) 0.007(2)
C1 0.019(2) 0.009(2) 0.015(2) 0.007(2) 0.0063(19) 0.0038(19)
C2 0.017(2) 0.013(3) 0.013(2) 0.007(2) 0.0054(19) 0.004(2)
C8 0.033(3) 0.012(3) 0.025(3) 0.011(2) 0.014(2) 0.007(2)
C4 0.015(2) 0.016(3) 0.014(2) 0.009(2) 0.0053(19) 0.005(2)
C3 0.015(2) 0.009(2) 0.010(2) 0.004(2) 0.0043(18) 0.0020(19)
loop_
_atom_type_symbol
_atom_type_description
_atom_type_scat_dispersion_real
_atom_type_scat_dispersion_imag
_atom_type_scat_source
C C 0.0033 0.0016 'International Tables Vol C Tables 4.2.6.8 and 6.1.1.4'
H H 0.0000 0.0000 'International Tables Vol C Tables 4.2.6.8 and 6.1.1.4'
Br Br -0.2901 2.4595 'International Tables Vol C Tables 4.2.6.8 and 6.1.1.4'
loop_
_geom_angle_atom_site_label_1
_geom_angle_atom_site_label_2
_geom_angle_atom_site_label_3
_geom_angle
_geom_angle_site_symmetry_1
_geom_angle_site_symmetry_3
C6 C5 Br3 117.5(3) . .
C6 C5 C4 125.1(4) . .
C4 C5 Br3 117.4(3) . .
H7A C7 H7B 109.5 . .
H7A C7 H7C 109.5 . .
H7B C7 H7C 109.5 . .
C2 C7 H7A 109.5 . .
C2 C7 H7B 109.5 . .
C2 C7 H7C 109.5 . .
C5 C6 C9 121.3(4) . .
C1 C6 C5 115.7(4) . .
C1 C6 C9 123.0(4) . .
C6 C9 H9A 109.5 . .
C6 C9 H9B 109.5 . .
C6 C9 H9C 109.5 . .
H9A C9 H9B 109.5 . .
H9A C9 H9C 109.5 . .
H9B C9 H9C 109.5 . .
C6 C1 Br1 118.7(4) . .
C6 C1 C2 124.4(5) . .
C2 C1 Br1 116.9(3) . .
C1 C2 C7 121.8(4) . .
C3 C2 C7 122.4(4) . .
C3 C2 C1 115.8(4) . .
H8A C8 H8B 109.5 . .
H8A C8 H8C 109.5 . .
H8B C8 H8C 109.5 . .
C4 C8 H8A 109.5 . .
C4 C8 H8B 109.5 . .
C4 C8 H8C 109.5 . .
C5 C4 C8 122.8(4) . .
C5 C4 C3 114.4(4) . .
C3 C4 C8 122.8(4) . .
C2 C3 Br2 118.7(3) . .
C2 C3 C4 124.5(4) . .
C4 C3 Br2 116.8(4) . .
loop_
_geom_bond_atom_site_label_1
_geom_bond_atom_site_label_2
_geom_bond_distance
_geom_bond_site_symmetry_2
Br3 C5 1.910(4) .
Br2 C3 1.906(5) .
Br1 C1 1.910(5) .
C5 C6 1.390(7) .
C5 C4 1.407(6) .
C7 H7A 0.9800 .
C7 H7B 0.9800 .
C7 H7C 0.9800 .
C7 C2 1.506(6) .
C6 C9 1.496(6) .
C6 C1 1.384(6) .
C9 H9A 0.9800 .
C9 H9B 0.9800 .
C9 H9C 0.9800 .
C1 C2 1.402(6) .
C2 C3 1.390(7) .
C8 H8A 0.9800 .
C8 H8B 0.9800 .
C8 H8C 0.9800 .
C8 C4 1.485(7) .
C4 C3 1.407(6) .
