#------------------------------------------------------------------------------
#$Date: 2015-10-30 11:10:17 +0200 (Fri, 30 Oct 2015) $
#$Revision: 169889 $
#$URL: svn://www.crystallography.net/cod/cif/7/11/80/7118011.cif $
#------------------------------------------------------------------------------
#
# This file is available in the Crystallography Open Database (COD),
# http://www.crystallography.net/
#
# All data on this site have been placed in the public domain by the
# contributors.
#
data_7118011
loop_
_publ_author_name
'Keiji Mori'
'Ayaka Miyake'
'Takahiko Akiyama'
_publ_section_title
;
 Enantioselective synthesis of fused heterocycles with contiguous
 stereogenic centers by chiral phosphoric acid catalyzed symmetry breaking
;
_journal_name_full               Chem.Commun.
_journal_page_first              16107
_journal_paper_doi               10.1039/C5cc05508C
_journal_volume                  51
_journal_year                    2015
_chemical_absolute_configuration ad
_chemical_formula_sum            'C26 H22 Br N O3'
_chemical_formula_weight         476.35
_space_group_crystal_system      triclinic
_space_group_IT_number           1
_space_group_name_Hall           'P 1'
_space_group_name_H-M_alt        'P 1'
_symmetry_space_group_name_Hall  'P 1'
_symmetry_space_group_name_H-M   'P 1'
_atom_sites_solution_hydrogens   geom
_audit_creation_method           SHELXL-2014/6
_audit_update_record
;
2015-05-08 deposited with the CCDC.
2015-09-14 downloaded from the CCDC.
;
_cell_angle_alpha                71.7010(10)
_cell_angle_beta                 89.752(2)
_cell_angle_gamma                81.716(2)
_cell_formula_units_Z            1
_cell_length_a                   6.2811(10)
_cell_length_b                   7.9645(12)
_cell_length_c                   11.2853(18)
_cell_measurement_temperature    90
_cell_volume                     529.91(14)
_computing_cell_refinement       'APEX2 (Bruker AXS, 2006)'
_computing_data_collection       'APEX2 (Bruker AXS, 2006)'
_computing_data_reduction        'SAINT (Bruker AXS, 2004)'
_computing_molecular_graphics    'XSHELL (Bruker AXS,2002)'
_computing_publication_material  'XCIF (Bruker AXS, 2001)'
_computing_structure_refinement  'SHELXL-97 (Sheldrick, 1997)'
_computing_structure_solution    'SHELXS-97 (Sheldrick, 1997)'
_diffrn_ambient_temperature      90
_diffrn_detector_area_resol_mean 8.333
_diffrn_measured_fraction_theta_full 0.993
_diffrn_measured_fraction_theta_max 0.981
_diffrn_measurement_device_type  'Bruker APEXII CCD area detector'
_diffrn_measurement_method       'phi and omega scans'
_diffrn_radiation_monochromator  'Bruker Helios multilayer confocal mirror'
_diffrn_radiation_source         'Bruker TXS fine-focus rotating anode'
_diffrn_radiation_type           MoK\a
_diffrn_radiation_wavelength     0.71073
_diffrn_reflns_av_R_equivalents  0.0167
_diffrn_reflns_av_unetI/netI     0.0655
_diffrn_reflns_laue_measured_fraction_full 0.993
_diffrn_reflns_laue_measured_fraction_max 0.981
_diffrn_reflns_limit_h_max       8
_diffrn_reflns_limit_h_min       -8
_diffrn_reflns_limit_k_max       10
_diffrn_reflns_limit_k_min       -10
_diffrn_reflns_limit_l_max       14
_diffrn_reflns_limit_l_min       -14
_diffrn_reflns_number            5764
_diffrn_reflns_point_group_measured_fraction_full 0.915
_diffrn_reflns_point_group_measured_fraction_max 0.894
_diffrn_reflns_theta_full        25.242
_diffrn_reflns_theta_max         27.438
_diffrn_reflns_theta_min         1.902
_exptl_absorpt_coefficient_mu    1.968
_exptl_absorpt_correction_type   none
_exptl_crystal_colour            colorless
_exptl_crystal_density_diffrn    1.493
_exptl_crystal_description       block
_exptl_crystal_F_000             244
_exptl_crystal_size_max          0.100
_exptl_crystal_size_mid          0.100
_exptl_crystal_size_min          0.100
_refine_diff_density_max         0.387
_refine_diff_density_min         -0.193
_refine_diff_density_rms         0.046
_refine_ls_abs_structure_details
;
 Flack x determined using 1902 quotients [(I+)-(I-)]/[(I+)+(I-)]
 (Parsons, Flack and Wagner, Acta Cryst. B69 (2013) 249-259).
;
_refine_ls_abs_structure_Flack   0.041(4)
_refine_ls_extinction_coef       .
_refine_ls_extinction_method     none
_refine_ls_goodness_of_fit_ref   0.675
_refine_ls_hydrogen_treatment    constr
_refine_ls_matrix_type           full
_refine_ls_number_parameters     281
_refine_ls_number_reflns         4318
_refine_ls_number_restraints     3
_refine_ls_restrained_S_all      0.674
_refine_ls_R_factor_all          0.0195
_refine_ls_R_factor_gt           0.0193
_refine_ls_shift/su_max          0.000
_refine_ls_shift/su_mean         0.000
_refine_ls_structure_factor_coef Fsqd
_refine_ls_weighting_details     'w=1/[\s^2^(Fo^2^)] where P=(Fo^2^+2Fc^2^)/3'
_refine_ls_weighting_scheme      calc
_refine_ls_wR_factor_gt          0.0469
_refine_ls_wR_factor_ref         0.0470
_reflns_Friedel_coverage         0.823
_reflns_friedel_fraction_full    0.838
_reflns_friedel_fraction_max     0.807
_reflns_number_gt                4274
_reflns_number_total             4318
_reflns_threshold_expression     'I > 2\s(I)'
_cod_data_source_file            c5cc05508c2.cif
_cod_data_source_block           shelxl2_a
_cod_database_code               7118011
_shelx_space_group_comment
;
The symmetry employed for this shelxl refinement is uniquely defined
by the following loop, which should always be used as a source of
symmetry information in preference to the above space-group names.
They are only intended as comments.
;
_shelx_estimated_absorpt_t_min   0.827
_shelx_estimated_absorpt_t_max   0.827
_shelxl_version_number           2014/6
_shelx_res_file
;
TITL shelxl2_a.res in P1
CELL  0.71073   6.2811   7.9645  11.2853   71.701   89.752   81.716
ZERR    1.000   0.0010   0.0012   0.0018    0.001    0.002    0.002
LATT -1
SFAC C  H  N  O  Br
UNIT 26  22  1  3  1
L.S. 10
ACTA
BOND $H
FMAP 2
PLAN 20
SIZE 0.10 0.10 0.10
TEMP -183
WGHT    0.000000
FVAR       0.95240
BR01  5    0.964051    1.424591    0.058724    11.00000    0.02334    0.01970 =
         0.01675   -0.00416    0.00612   -0.01103
C1    1    0.403869   -0.285101    0.852753    11.00000    0.01500    0.01462 =
         0.01168   -0.00451    0.00060   -0.00525
C2    1    0.291700   -0.100068    0.849744    11.00000    0.01274    0.01001 =
         0.01143   -0.00245    0.00313   -0.00517
C3    1    0.430769   -0.044094    0.940257    11.00000    0.01812    0.01702 =
         0.01211   -0.00561    0.00090   -0.00521
AFIX  23
H3A   2    0.390605   -0.100556    1.027096    11.00000   -1.20000
H3B   2    0.584308   -0.088971    0.933663    11.00000   -1.20000
AFIX   0
C4    1    0.402713    0.157273    0.912655    11.00000    0.02276    0.01838 =
         0.01497   -0.00842    0.00082   -0.00462
AFIX  23
H4A   2    0.500737    0.186626    0.969238    11.00000   -1.20000
H4B   2    0.253035    0.201173    0.928333    11.00000   -1.20000
AFIX   0
C5    1    0.451358    0.250320    0.777567    11.00000    0.01977    0.01360 =
         0.01683   -0.00546   -0.00216   -0.00555
AFIX  23
H5A   2    0.431680    0.381364    0.761021    11.00000   -1.20000
H5B   2    0.602687    0.210418    0.762297    11.00000   -1.20000
AFIX   0
C6    1    0.315278    0.015855    0.712367    11.00000    0.01250    0.00988 =
         0.01215   -0.00353    0.00095   -0.00439
AFIX  13
H6    2    0.192668    0.002567    0.661449    11.00000   -1.20000
AFIX   0
C7    1    0.520598   -0.079243    0.674784    11.00000    0.01251    0.01544 =
         0.01260   -0.00725    0.00152   -0.00482
C8    1    0.653829   -0.016790    0.577270    11.00000    0.01883    0.02052 =
         0.01388   -0.00673    0.00329   -0.00818
AFIX  43
H8    2    0.626452    0.103642    0.523966    11.00000   -1.20000
AFIX   0
C9    1    0.827491   -0.133410    0.559145    11.00000    0.01834    0.03351 =
         0.01903   -0.01414    0.00713   -0.01002
AFIX  43
H9    2    0.920131   -0.091872    0.492957    11.00000   -1.20000
AFIX   0
C10   1    0.868903   -0.311945    0.636934    11.00000    0.01535    0.02634 =
         0.02972   -0.02000    0.00175   -0.00137
AFIX  43
H10   2    0.988272   -0.389879    0.622474    11.00000   -1.20000
AFIX   0
C11   1    0.737281   -0.375163    0.734401    11.00000    0.01862    0.01531 =
         0.02404   -0.01073   -0.00227   -0.00236
AFIX  43
H11   2    0.764137   -0.495936    0.787134    11.00000   -1.20000
AFIX   0
C12   1    0.563625   -0.256641    0.753293    11.00000    0.01476    0.01288 =
         0.01519   -0.00722   -0.00002   -0.00406
C13   1    0.057830   -0.097675    0.886680    11.00000    0.01511    0.01773 =
         0.01677   -0.00652    0.00604   -0.00648
AFIX 137
H13A  2   -0.024501   -0.133931    0.827708    11.00000   -1.50000
H13B  2   -0.003657    0.023402    0.884955    11.00000   -1.50000
H13C  2    0.051292   -0.180959    0.971124    11.00000   -1.50000
AFIX   0
C14   1    0.264968    0.324470    0.571438    11.00000    0.01391    0.00960 =
         0.01484   -0.00347    0.00284   -0.00059
C15   1    0.391922    0.458044    0.517715    11.00000    0.01220    0.01201 =
         0.01790   -0.00429    0.00163   -0.00231
AFIX  43
H15   2    0.513201    0.469670    0.562923    11.00000   -1.20000
AFIX   0
C16   1    0.337526    0.573148    0.397295    11.00000    0.01368    0.00908 =
         0.02048   -0.00360    0.00758   -0.00151
C17   1    0.164531    0.561818    0.327326    11.00000    0.02030    0.01220 =
         0.01438   -0.00126    0.00208    0.00133
AFIX  43
H17   2    0.133370    0.640221    0.244457    11.00000   -1.20000
AFIX   0
C18   1    0.036245    0.430947    0.382413    11.00000    0.01643    0.01521 =
         0.01876   -0.00784   -0.00168   -0.00057
AFIX  43
H18   2   -0.086391    0.422113    0.337011    11.00000   -1.20000
AFIX   0
C19   1    0.084849    0.314244    0.501785    11.00000    0.01475    0.01054 =
         0.01844   -0.00469    0.00251   -0.00248
AFIX  43
H19   2   -0.004370    0.226061    0.537261    11.00000   -1.20000
AFIX   0
C20   1    0.403268    0.870318    0.342827    11.00000    0.01509    0.01454 =
         0.01597   -0.00522    0.00056   -0.00191
C21   1    0.542198    1.000604    0.272037    11.00000    0.01368    0.01334 =
         0.00986   -0.00259    0.00114   -0.00076
C22   1    0.736903    0.946419    0.225091    11.00000    0.01440    0.01246 =
         0.01797   -0.00249    0.00305   -0.00102
AFIX  43
H22   2    0.783044    0.823245    0.236388    11.00000   -1.20000
AFIX   0
C23   1    0.862954    1.073205    0.161802    11.00000    0.01372    0.01892 =
         0.01865   -0.00642    0.00520   -0.00173
AFIX  43
H23   2    0.996322    1.037781    0.130052    11.00000   -1.20000
AFIX   0
C24   1    0.790728    1.253355    0.145568    11.00000    0.01951    0.01737 =
         0.00871   -0.00081    0.00254   -0.00955
C25   1    0.596517    1.308595    0.191286    11.00000    0.01942    0.01023 =
         0.01455   -0.00132    0.00186   -0.00287
AFIX  43
H25   2    0.548665    1.431900    0.178650    11.00000   -1.20000
AFIX   0
C26   1    0.473614    1.179892    0.255876    11.00000    0.01417    0.01572 =
         0.02041   -0.00809    0.00345   -0.00266
AFIX  43
H26   2    0.341729    1.215142    0.289147    11.00000   -1.20000
AFIX   0
N1    3    0.306537    0.206967    0.694350    11.00000    0.01651    0.00900 =
         0.01206   -0.00258   -0.00045   -0.00364
O1    4    0.372673   -0.426631    0.926135    11.00000    0.02454    0.01275 =
         0.02311   -0.00222    0.00359   -0.00599
O2    4    0.474010    0.700101    0.342561    11.00000    0.01692    0.01088 =
         0.02334   -0.00174    0.00847   -0.00287
O3    4    0.246071    0.908277    0.395300    11.00000    0.02245    0.01897 =
         0.04355   -0.01434    0.01900   -0.00847
HKLF 4

REM  shelxl2_a.res in P1
REM R1 =  0.0193 for    4274 Fo > 4sig(Fo)  and  0.0195 for all    4318 data
REM    281 parameters refined using      3 restraints

END

WGHT      0.0000      0.0000

REM Highest difference peak  0.387,  deepest hole -0.193,  1-sigma level  0.046
Q1    1   1.0923  1.4208  0.0944  11.00000  0.05    0.34
Q2    1   0.8350  1.4237  0.0289  11.00000  0.05    0.29
Q3    1   1.0224  1.3107  0.1019  11.00000  0.05    0.27
Q4    1   0.4234 -0.0219  0.6929  11.00000  0.05    0.24
Q5    1   0.3474 -0.0777  0.9002  11.00000  0.05    0.24
Q6    1   0.5916  0.9466  0.2242  11.00000  0.05    0.24
Q7    1   0.9660  1.3215  0.0455  11.00000  0.05    0.24
Q8    1   0.3145  0.1054  0.7138  11.00000  0.05    0.23
Q9    1   0.9297  1.5375  0.0438  11.00000  0.05    0.22
Q10   1   0.7100  1.2621  0.1936  11.00000  0.05    0.22
Q11   1   0.3021  0.2568  0.6353  11.00000  0.05    0.21
Q12   1   0.0743  0.5229  0.3721  11.00000  0.05    0.21
Q13   1   0.3983  0.0626  0.9204  11.00000  0.05    0.21
Q14   1   0.6106  0.9708  0.2447  11.00000  0.05    0.20
Q15   1   0.8223 -0.6380  0.7657  11.00000  0.05    0.20
Q16   1   0.8377  1.1511  0.1827  11.00000  0.05    0.20
Q17   1   0.2898 -0.0408  0.7936  11.00000  0.05    0.20
Q18   1   0.0407  0.4041  0.4555  11.00000  0.05    0.20
Q19   1   0.5844  1.2464  0.2478  11.00000  0.05    0.19
Q20   1   0.3658  0.2337  0.7339  11.00000  0.05    0.19
;
_shelx_res_checksum              2086
loop_
_space_group_symop_operation_xyz
'x, y, z'
loop_
_atom_site_label
_atom_site_type_symbol
_atom_site_fract_x
_atom_site_fract_y
_atom_site_fract_z
_atom_site_U_iso_or_equiv
_atom_site_adp_type
_atom_site_occupancy
_atom_site_site_symmetry_order
_atom_site_calc_flag
_atom_site_refinement_flags_posn
_atom_site_refinement_flags_adp
_atom_site_refinement_flags_occupancy
_atom_site_disorder_assembly
_atom_site_disorder_group
Br01 Br 0.96405(3) 1.42459(3) 0.05872(2) 0.01952(7) Uani 1 1 d . . . . .
C1 C 0.4039(5) -0.2851(4) 0.8528(3) 0.0134(6) Uani 1 1 d . . . . .
C2 C 0.2917(5) -0.1001(3) 0.8497(2) 0.0113(5) Uani 1 1 d . . . . .
C3 C 0.4308(4) -0.0441(3) 0.9403(2) 0.0153(5) Uani 1 1 d . . . . .
H3A H 0.3906 -0.1006 1.0271 0.018 Uiso 1 1 calc R U . . .
H3B H 0.5843 -0.0890 0.9337 0.018 Uiso 1 1 calc R U . . .
C4 C 0.4027(4) 0.1573(3) 0.9127(2) 0.0178(5) Uani 1 1 d . . . . .
H4A H 0.5007 0.1866 0.9692 0.021 Uiso 1 1 calc R U . . .
H4B H 0.2530 0.2012 0.9283 0.021 Uiso 1 1 calc R U . . .
C5 C 0.4514(4) 0.2503(4) 0.7776(2) 0.0163(5) Uani 1 1 d . . . . .
H5A H 0.4317 0.3814 0.7610 0.020 Uiso 1 1 calc R U . . .
H5B H 0.6027 0.2104 0.7623 0.020 Uiso 1 1 calc R U . . .
C6 C 0.3153(4) 0.0159(3) 0.7124(2) 0.0112(4) Uani 1 1 d . . . . .
H6 H 0.1927 0.0026 0.6614 0.013 Uiso 1 1 calc R U . . .
C7 C 0.5206(4) -0.0792(3) 0.6748(2) 0.0126(5) Uani 1 1 d . . . . .
C8 C 0.6538(4) -0.0168(3) 0.5773(2) 0.0169(5) Uani 1 1 d . . . . .
H8 H 0.6265 0.1036 0.5240 0.020 Uiso 1 1 calc R U . . .
C9 C 0.8275(4) -0.1334(4) 0.5591(2) 0.0216(6) Uani 1 1 d . . . . .
H9 H 0.9201 -0.0919 0.4930 0.026 Uiso 1 1 calc R U . . .
C10 C 0.8689(4) -0.3119(4) 0.6369(3) 0.0214(6) Uani 1 1 d . . . . .
H10 H 0.9883 -0.3899 0.6225 0.026 Uiso 1 1 calc R U . . .
C11 C 0.7373(4) -0.3752(3) 0.7344(3) 0.0183(5) Uani 1 1 d . . . . .
H11 H 0.7641 -0.4959 0.7871 0.022 Uiso 1 1 calc R U . . .
C12 C 0.5636(4) -0.2566(3) 0.7533(2) 0.0134(5) Uani 1 1 d . . . . .
C13 C 0.0578(4) -0.0977(3) 0.8867(2) 0.0159(5) Uani 1 1 d . . . . .
H13A H -0.0245 -0.1339 0.8277 0.024 Uiso 1 1 calc R U . . .
H13B H -0.0037 0.0234 0.8850 0.024 Uiso 1 1 calc R U . . .
H13C H 0.0513 -0.1810 0.9711 0.024 Uiso 1 1 calc R U . . .
C14 C 0.2650(4) 0.3245(3) 0.5714(2) 0.0130(5) Uani 1 1 d . . . . .
C15 C 0.3919(4) 0.4580(3) 0.5177(2) 0.0141(5) Uani 1 1 d . . . . .
H15 H 0.5132 0.4697 0.5629 0.017 Uiso 1 1 calc R U . . .
C16 C 0.3375(4) 0.5731(3) 0.3973(2) 0.0147(5) Uani 1 1 d . . . . .
C17 C 0.1645(4) 0.5618(3) 0.3273(2) 0.0167(5) Uani 1 1 d . . . . .
H17 H 0.1334 0.6402 0.2445 0.020 Uiso 1 1 calc R U . . .
C18 C 0.0362(4) 0.4309(3) 0.3824(2) 0.0164(5) Uani 1 1 d . . . . .
H18 H -0.0864 0.4221 0.3370 0.020 Uiso 1 1 calc R U . . .
C19 C 0.0848(4) 0.3142(3) 0.5018(2) 0.0145(5) Uani 1 1 d . . . . .
H19 H -0.0044 0.2261 0.5373 0.017 Uiso 1 1 calc R U . . .
C20 C 0.4033(4) 0.8703(3) 0.3428(2) 0.0151(5) Uani 1 1 d . . . . .
C21 C 0.5422(4) 1.0006(4) 0.2720(2) 0.0127(5) Uani 1 1 d . . . . .
C22 C 0.7369(5) 0.9464(3) 0.2251(2) 0.0156(5) Uani 1 1 d . . . . .
H22 H 0.7830 0.8232 0.2364 0.019 Uiso 1 1 calc R U . . .
C23 C 0.8630(4) 1.0732(3) 0.1618(2) 0.0171(5) Uani 1 1 d . . . . .
H23 H 0.9963 1.0378 0.1301 0.020 Uiso 1 1 calc R U . . .
C24 C 0.7907(4) 1.2534(3) 0.1456(2) 0.0153(5) Uani 1 1 d . . . . .
C25 C 0.5965(5) 1.3086(4) 0.1913(3) 0.0153(6) Uani 1 1 d . . . . .
H25 H 0.5487 1.4319 0.1786 0.018 Uiso 1 1 calc R U . . .
C26 C 0.4736(5) 1.1799(4) 0.2559(3) 0.0162(6) Uani 1 1 d . . . . .
H26 H 0.3417 1.2151 0.2891 0.019 Uiso 1 1 calc R U . . .
N1 N 0.3065(3) 0.2070(3) 0.69435(18) 0.0125(4) Uani 1 1 d . . . . .
O1 O 0.3727(4) -0.4266(3) 0.9261(2) 0.0206(5) Uani 1 1 d . . . . .
O2 O 0.4740(3) 0.7001(2) 0.34256(17) 0.0179(4) Uani 1 1 d . . . . .
O3 O 0.2461(3) 0.9083(3) 0.3953(2) 0.0268(5) Uani 1 1 d . . . . .
loop_
_atom_site_aniso_label
_atom_site_aniso_U_11
_atom_site_aniso_U_22
_atom_site_aniso_U_33
_atom_site_aniso_U_23
_atom_site_aniso_U_13
_atom_site_aniso_U_12
Br01 0.02334(12) 0.01970(12) 0.01675(11) -0.00416(8) 0.00612(8) -0.01103(9)
C1 0.0150(14) 0.0146(14) 0.0117(13) -0.0045(11) 0.0006(10) -0.0053(11)
C2 0.0127(13) 0.0100(12) 0.0114(12) -0.0024(10) 0.0031(10) -0.0052(10)
C3 0.0181(12) 0.0170(12) 0.0121(11) -0.0056(10) 0.0009(9) -0.0052(10)
C4 0.0228(13) 0.0184(12) 0.0150(12) -0.0084(10) 0.0008(10) -0.0046(10)
C5 0.0198(13) 0.0136(12) 0.0168(12) -0.0055(10) -0.0022(10) -0.0056(10)
C6 0.0125(11) 0.0099(11) 0.0121(11) -0.0035(9) 0.0009(8) -0.0044(8)
C7 0.0125(11) 0.0154(11) 0.0126(11) -0.0073(9) 0.0015(9) -0.0048(9)
C8 0.0188(13) 0.0205(13) 0.0139(11) -0.0067(10) 0.0033(9) -0.0082(10)
C9 0.0183(13) 0.0335(15) 0.0190(13) -0.0141(12) 0.0071(10) -0.0100(11)
C10 0.0153(12) 0.0263(14) 0.0297(14) -0.0200(12) 0.0017(10) -0.0014(10)
C11 0.0186(13) 0.0153(12) 0.0240(13) -0.0107(11) -0.0023(10) -0.0024(10)
C12 0.0148(12) 0.0129(11) 0.0152(11) -0.0072(9) 0.0000(9) -0.0041(9)
C13 0.0151(13) 0.0177(13) 0.0168(12) -0.0065(10) 0.0060(10) -0.0065(10)
C14 0.0139(11) 0.0096(10) 0.0148(11) -0.0035(9) 0.0028(9) -0.0006(9)
C15 0.0122(11) 0.0120(11) 0.0179(12) -0.0043(9) 0.0016(9) -0.0023(9)
C16 0.0137(12) 0.0091(11) 0.0205(12) -0.0036(9) 0.0076(10) -0.0015(9)
C17 0.0203(13) 0.0122(11) 0.0144(12) -0.0013(9) 0.0021(9) 0.0013(9)
C18 0.0164(12) 0.0152(12) 0.0188(12) -0.0078(10) -0.0017(10) -0.0006(10)
C19 0.0148(12) 0.0105(11) 0.0184(12) -0.0047(9) 0.0025(9) -0.0025(9)
C20 0.0151(12) 0.0145(12) 0.0160(12) -0.0052(10) 0.0006(9) -0.0019(9)
C21 0.0137(13) 0.0133(13) 0.0099(11) -0.0026(10) 0.0011(10) -0.0008(10)
C22 0.0144(14) 0.0125(12) 0.0180(13) -0.0025(10) 0.0031(11) -0.0010(10)
C23 0.0137(12) 0.0189(13) 0.0186(13) -0.0064(11) 0.0052(10) -0.0017(10)
C24 0.0195(13) 0.0174(12) 0.0087(11) -0.0008(9) 0.0025(9) -0.0096(10)
C25 0.0194(15) 0.0102(13) 0.0146(13) -0.0013(11) 0.0019(11) -0.0029(11)
C26 0.0142(14) 0.0157(14) 0.0204(15) -0.0081(12) 0.0035(11) -0.0027(11)
N1 0.0165(10) 0.0090(9) 0.0121(9) -0.0026(8) -0.0005(8) -0.0036(8)
O1 0.0245(12) 0.0128(10) 0.0231(11) -0.0022(9) 0.0036(9) -0.0060(8)
O2 0.0169(9) 0.0109(9) 0.0233(10) -0.0017(8) 0.0085(7) -0.0029(7)
O3 0.0225(10) 0.0190(10) 0.0436(12) -0.0143(9) 0.0190(9) -0.0085(8)
loop_
_atom_type_symbol
_atom_type_description
_atom_type_scat_dispersion_real
_atom_type_scat_dispersion_imag
_atom_type_scat_source
C C 0.0033 0.0016 'International Tables Vol C Tables 4.2.6.8 and 6.1.1.4'
H H 0.0000 0.0000 'International Tables Vol C Tables 4.2.6.8 and 6.1.1.4'
N N 0.0061 0.0033 'International Tables Vol C Tables 4.2.6.8 and 6.1.1.4'
O O 0.0106 0.0060 'International Tables Vol C Tables 4.2.6.8 and 6.1.1.4'
Br Br -0.2901 2.4595 'International Tables Vol C Tables 4.2.6.8 and 6.1.1.4'
loop_
_geom_angle_atom_site_label_1
_geom_angle_atom_site_label_2
_geom_angle_atom_site_label_3
_geom_angle
_geom_angle_site_symmetry_1
_geom_angle_site_symmetry_3
O1 C1 C12 127.2(3) . .
O1 C1 C2 125.8(3) . .
C12 C1 C2 106.9(2) . .
C13 C2 C1 113.4(2) . .
C13 C2 C3 111.9(2) . .
C1 C2 C3 104.9(2) . .
C13 C2 C6 112.8(2) . .
C1 C2 C6 102.7(2) . .
C3 C2 C6 110.4(2) . .
C4 C3 C2 112.5(2) . .
C4 C3 H3A 109.1 . .
C2 C3 H3A 109.1 . .
C4 C3 H3B 109.1 . .
C2 C3 H3B 109.1 . .
H3A C3 H3B 107.8 . .
C3 C4 C5 110.8(2) . .
C3 C4 H4A 109.5 . .
C5 C4 H4A 109.5 . .
C3 C4 H4B 109.5 . .
C5 C4 H4B 109.5 . .
H4A C4 H4B 108.1 . .
N1 C5 C4 109.4(2) . .
N1 C5 H5A 109.8 . .
C4 C5 H5A 109.8 . .
N1 C5 H5B 109.8 . .
C4 C5 H5B 109.8 . .
H5A C5 H5B 108.2 . .
N1 C6 C7 116.69(19) . .
N1 C6 C2 114.34(19) . .
C7 C6 C2 103.18(19) . .
N1 C6 H6 107.4 . .
C7 C6 H6 107.4 . .
C2 C6 H6 107.4 . .
C8 C7 C12 120.1(2) . .
C8 C7 C6 129.8(2) . .
C12 C7 C6 110.0(2) . .
C9 C8 C7 118.8(2) . .
C9 C8 H8 120.6 . .
C7 C8 H8 120.6 . .
C8 C9 C10 121.1(2) . .
C8 C9 H9 119.4 . .
C10 C9 H9 119.4 . .
C11 C10 C9 120.5(2) . .
C11 C10 H10 119.7 . .
C9 C10 H10 119.7 . .
C10 C11 C12 118.2(2) . .
C10 C11 H11 120.9 . .
C12 C11 H11 120.9 . .
C11 C12 C7 121.3(2) . .
C11 C12 C1 129.8(2) . .
C7 C12 C1 108.9(2) . .
C2 C13 H13A 109.5 . .
C2 C13 H13B 109.5 . .
H13A C13 H13B 109.5 . .
C2 C13 H13C 109.5 . .
H13A C13 H13C 109.5 . .
H13B C13 H13C 109.5 . .
C15 C14 C19 118.5(2) . .
C15 C14 N1 122.1(2) . .
C19 C14 N1 119.4(2) . .
C16 C15 C14 119.0(2) . .
C16 C15 H15 120.5 . .
C14 C15 H15 120.5 . .
C17 C16 C15 123.0(2) . .
C17 C16 O2 118.9(2) . .
C15 C16 O2 118.1(2) . .
C16 C17 C18 117.7(2) . .
C16 C17 H17 121.2 . .
C18 C17 H17 121.2 . .
C19 C18 C17 121.1(2) . .
C19 C18 H18 119.5 . .
C17 C18 H18 119.5 . .
C18 C19 C14 120.8(2) . .
C18 C19 H19 119.6 . .
C14 C19 H19 119.6 . .
O3 C20 O2 122.9(2) . .
O3 C20 C21 124.4(2) . .
O2 C20 C21 112.7(2) . .
C26 C21 C22 120.5(3) . .
C26 C21 C20 117.5(2) . .
C22 C21 C20 122.0(2) . .
C23 C22 C21 119.8(2) . .
C23 C22 H22 120.1 . .
C21 C22 H22 120.1 . .
C22 C23 C24 119.0(2) . .
C22 C23 H23 120.5 . .
C24 C23 H23 120.5 . .
C25 C24 C23 121.6(2) . .
C25 C24 Br01 119.9(2) . .
C23 C24 Br01 118.48(19) . .
C24 C25 C26 118.7(3) . .
C24 C25 H25 120.7 . .
C26 C25 H25 120.7 . .
C21 C26 C25 120.4(3) . .
C21 C26 H26 119.8 . .
C25 C26 H26 119.8 . .
C14 N1 C5 118.72(19) . .
C14 N1 C6 116.93(19) . .
C5 N1 C6 115.13(19) . .
C20 O2 C16 115.51(19) . .
loop_
_geom_bond_atom_site_label_1
_geom_bond_atom_site_label_2
_geom_bond_distance
_geom_bond_site_symmetry_2
Br01 C24 1.893(2) .
C1 O1 1.213(4) .
C1 C12 1.488(4) .
C1 C2 1.529(4) .
C2 C13 1.524(4) .
C2 C3 1.553(3) .
C2 C6 1.555(3) .
C3 C4 1.518(3) .
C3 H3A 0.9900 .
C3 H3B 0.9900 .
C4 C5 1.523(3) .
C4 H4A 0.9900 .
C4 H4B 0.9900 .
C5 N1 1.460(3) .
C5 H5A 0.9900 .
C5 H5B 0.9900 .
C6 N1 1.464(3) .
C6 C7 1.527(3) .
C6 H6 1.0000 .
C7 C8 1.388(3) .
C7 C12 1.400(3) .
C8 C9 1.386(4) .
C8 H8 0.9500 .
C9 C10 1.404(4) .
C9 H9 0.9500 .
C10 C11 1.382(4) .
C10 H10 0.9500 .
C11 C12 1.398(4) .
C11 H11 0.9500 .
C13 H13A 0.9800 .
C13 H13B 0.9800 .
C13 H13C 0.9800 .
C14 C15 1.404(3) .
C14 C19 1.407(3) .
C14 N1 1.409(3) .
C15 C16 1.391(3) .
C15 H15 0.9500 .
C16 C17 1.376(4) .
C16 O2 1.411(3) .
C17 C18 1.397(4) .
C17 H17 0.9500 .
C18 C19 1.381(4) .
C18 H18 0.9500 .
C19 H19 0.9500 .
C20 O3 1.199(3) .
C20 O2 1.365(3) .
C20 C21 1.487(4) .
C21 C26 1.385(4) .
C21 C22 1.396(4) .
C22 C23 1.389(4) .
C22 H22 0.9500 .
C23 C24 1.395(4) .
C23 H23 0.9500 .
C24 C25 1.389(4) .
C25 C26 1.390(4) .
C25 H25 0.9500 .
C26 H26 0.9500 .
