#------------------------------------------------------------------------------
#$Date: 2018-03-15 18:33:54 +0200 (Thu, 15 Mar 2018) $
#$Revision: 206958 $
#$URL: file:///home/coder/svn-repositories/cod/cif/7/11/86/7118679.cif $
#------------------------------------------------------------------------------
#
# This file is available in the Crystallography Open Database (COD),
# http://www.crystallography.net/
#
# All data on this site have been placed in the public domain by the
# contributors.
#
data_7118679
loop_
_publ_author_name
'Ding, Ransheng'
'Wolf, Christian'
_publ_section_title
;
 Catalytic insertion of aldehydes into dihalonitroacetophenones via
 sequential bond scission-aldol reaction-acyl transfer.
;
_journal_issue                   17
_journal_name_full
'Chemical communications (Cambridge, England)'
_journal_page_first              3576
_journal_page_last               3579
_journal_paper_doi               10.1039/c5cc09753c
_journal_volume                  52
_journal_year                    2016
_chemical_formula_moiety         'C15 H10 Cl2 N2 O6'
_chemical_formula_sum            'C15 H10 Cl2 N2 O6'
_chemical_formula_weight         385.15
_chemical_name_systematic
'2,2-dichloro-2-nitro-1-(2-nitrophenyl)ethyl benzoate'
_space_group_crystal_system      triclinic
_space_group_IT_number           2
_space_group_name_Hall           '-P 1'
_space_group_name_H-M_alt        'P -1'
_symmetry_space_group_name_Hall  '-P 1'
_symmetry_space_group_name_H-M   'P -1'
_atom_sites_solution_hydrogens   geom
_audit_creation_method           SHELXL-2014/7
_audit_update_record
;
2015-09-15 deposited with the CCDC.
2016-02-01 downloaded from the CCDC.
;
_cell_angle_alpha                88.1220(10)
_cell_angle_beta                 80.5890(10)
_cell_angle_gamma                67.2930(10)
_cell_formula_units_Z            2
_cell_length_a                   6.9802(7)
_cell_length_b                   7.0738(7)
_cell_length_c                   17.9149(18)
_cell_measurement_reflns_used    10417
_cell_measurement_temperature    100(2)
_cell_measurement_theta_max      59.447
_cell_measurement_theta_min      4.612
_cell_volume                     804.58(14)
_computing_cell_refinement       'SAINT v.8.34A, Bruker-AXS'
_computing_data_collection       'APEX 2, Bruker-AXS'
_computing_data_reduction        'SAINT v.8.34A, Bruker-AXS'
_computing_molecular_graphics    'X-SEED, L.Barbour (1999)'
_computing_structure_refinement  'SHELXL-2014/7 (Sheldrick, 2014)'
_computing_structure_solution    'SHELXS-Version 2013/1, G. Sheldrick'
_diffrn_ambient_temperature      100(2)
_diffrn_measured_fraction_theta_full 0.964
_diffrn_measured_fraction_theta_max 0.958
_diffrn_measurement_device_type  'Bruker APEXII CCD'
_diffrn_measurement_method       'omega scans'
_diffrn_radiation_type           MoK\a
_diffrn_radiation_wavelength     0.71073
_diffrn_reflns_av_R_equivalents  0.0220
_diffrn_reflns_av_unetI/netI     0.0230
_diffrn_reflns_laue_measured_fraction_full 0.964
_diffrn_reflns_laue_measured_fraction_max 0.958
_diffrn_reflns_limit_h_max       9
_diffrn_reflns_limit_h_min       -9
_diffrn_reflns_limit_k_max       9
_diffrn_reflns_limit_k_min       -9
_diffrn_reflns_limit_l_max       23
_diffrn_reflns_limit_l_min       -23
_diffrn_reflns_number            10203
_diffrn_reflns_point_group_measured_fraction_full 0.964
_diffrn_reflns_point_group_measured_fraction_max 0.958
_diffrn_reflns_theta_full        25.000
_diffrn_reflns_theta_max         27.999
_diffrn_reflns_theta_min         2.306
_exptl_absorpt_coefficient_mu    0.440
_exptl_absorpt_correction_T_max  0.7459
_exptl_absorpt_correction_T_min  0.5865
_exptl_absorpt_correction_type   multi-scan
_exptl_absorpt_process_details   'SADABS-2012/1, G. Sheldrick'
_exptl_crystal_colour            Yellow
_exptl_crystal_density_diffrn    1.590
_exptl_crystal_description       Prism
_exptl_crystal_F_000             392
_exptl_crystal_recrystallization_method
'Re-crystallisation from solvent: diisopropyl ether, THF'
_exptl_crystal_size_max          0.12
_exptl_crystal_size_mid          0.07
_exptl_crystal_size_min          0.03
_refine_diff_density_max         0.393
_refine_diff_density_min         -0.469
_refine_diff_density_rms         0.079
_refine_ls_extinction_method     none
_refine_ls_goodness_of_fit_ref   1.107
_refine_ls_hydrogen_treatment    constr
_refine_ls_matrix_type           full
_refine_ls_number_parameters     226
_refine_ls_number_reflns         3728
_refine_ls_number_restraints     0
_refine_ls_restrained_S_all      1.107
_refine_ls_R_factor_all          0.0327
_refine_ls_R_factor_gt           0.0315
_refine_ls_shift/su_max          0.000
_refine_ls_shift/su_mean         0.000
_refine_ls_structure_factor_coef Fsqd
_refine_ls_weighting_details
'w=1/[\s^2^(Fo^2^)+(0.0596P)^2^+0.4403P] where P=(Fo^2^+2Fc^2^)/3'
_refine_ls_weighting_scheme      calc
_refine_ls_wR_factor_gt          0.1024
_refine_ls_wR_factor_ref         0.1038
_reflns_Friedel_coverage         0.000
_reflns_number_gt                3546
_reflns_number_total             3728
_reflns_threshold_expression     'I > 2\s(I)'
_cod_data_source_file            c5cc09753c2.cif
_cod_data_source_block           15231_2
_cod_depositor_comments
;
Adding full bibliography for 7118679--7118680.cif.

2018-03-15
Z value and formula fixed to values more according to usual
chemical conventions.                 miguel
;
_cod_original_formula_sum            'C30 H20 Cl4 N4 O12'
_cod_original_formula_weight         770.30
_cod_original_formula_moiety         'C30 H20 Cl4 N4 O12'
_cod_original_formula_units_Z            1
_cod_database_code               7118679
_shelx_shelxl_version_number     2014/7
_shelx_space_group_comment
;
The symmetry employed for this shelxl refinement is uniquely defined
by the following loop, which should always be used as a source of
symmetry information in preference to the above space-group names.
They are only intended as comments.
;
_shelx_res_file
;

    C:\Users\Zeus\Desktop\CIFFIL~1\NEWEST~1\2.res created by SHELXL-2014/7

REM  tri in P1
REM R1 =  0.0453 for    3551 Fo > 4sig(Fo)  and  0.0465 for all    3733 data
REM    226 parameters refined using      0 restraints
REM Highest difference peak  0.422,  deepest hole -2.167,  1-sigma level  0.109
TITL tri in P1
CELL 0.71073 6.9802 7.0738 17.9149 88.122 80.589 67.293
ZERR 1.0000 0.0007 0.0007 0.0018 0.001 0.001 0.001
LATT 1
SFAC C H N O CL
UNIT 30 20 4 12 4
MERG 2
OMIT 0 56
FMAP 2
GRID
PLAN 0
TEMP -173
BOND $H
OMIT 0 0 1
OMIT 0 0 17
OMIT 0 -3 17
OMIT -2 -2 19
OMIT 0 -4 14
L.S. 20
ACTA 50
WGHT    0.059600    0.440300
FVAR       0.30417
CL1   5    0.445045    0.213954    0.131910    11.00000    0.01673    0.02183 =
         0.01373   -0.00110   -0.00052   -0.00866
CL2   5    0.191937    0.555170    0.237377    11.00000    0.02186    0.01403 =
         0.02772   -0.00349   -0.00485   -0.00748
O1    4    0.208236    0.048637   -0.004219    11.00000    0.02305    0.02401 =
         0.01698   -0.00704    0.00442   -0.00887
O2    4    0.168414   -0.079414    0.106197    11.00000    0.02854    0.01317 =
         0.02020   -0.00131   -0.00992   -0.00188
O3    4    0.445864   -0.012919    0.278496    11.00000    0.02664    0.01975 =
         0.02107    0.00370   -0.00845   -0.00395
O4    4    0.450034    0.264964    0.324762    11.00000    0.03211    0.03334 =
         0.02905   -0.00970   -0.01729   -0.00557
O5    4   -0.020371    0.277828    0.299082    11.00000    0.01855    0.01417 =
         0.01148   -0.00203    0.00022   -0.00560
O6    4   -0.065368   -0.022328    0.305219    11.00000    0.03270    0.02079 =
         0.02208   -0.00578    0.00417   -0.01444
N1    3    0.127484    0.064166    0.062873    11.00000    0.01479    0.01522 =
         0.01728   -0.00359   -0.00421   -0.00583
N2    3    0.402557    0.171772    0.280335    11.00000    0.01411    0.02174 =
         0.01634   -0.00326   -0.00401   -0.00273
C1    1   -0.059655    0.334319    0.166700    11.00000    0.01307    0.01247 =
         0.01417   -0.00005   -0.00246   -0.00495
C2    1   -0.224639    0.522474    0.188805    11.00000    0.01571    0.01424 =
         0.01835   -0.00276   -0.00182   -0.00331
AFIX  43
H2    2   -0.248029    0.574599    0.239126    11.00000   -1.20000
AFIX   0
C3    1   -0.354859    0.634499    0.138606    11.00000    0.01579    0.01318 =
         0.02482   -0.00035   -0.00383   -0.00247
AFIX  43
H3    2   -0.468271    0.760074    0.155331    11.00000   -1.20000
AFIX   0
C4    1   -0.320830    0.564703    0.064272    11.00000    0.01782    0.01615 =
         0.02126    0.00547   -0.00741   -0.00658
AFIX  43
H4    2   -0.409084    0.643533    0.030038    11.00000   -1.20000
AFIX   0
C5    1   -0.157695    0.379558    0.039953    11.00000    0.01857    0.01690 =
         0.01563    0.00153   -0.00538   -0.00948
AFIX  43
H5    2   -0.131626    0.331186   -0.011030    11.00000   -1.20000
AFIX   0
C6    1   -0.032758    0.265877    0.091809    11.00000    0.01317    0.01094 =
         0.01648   -0.00098   -0.00240   -0.00496
C7    1    0.085311    0.225125    0.222583    11.00000    0.01399    0.01281 =
         0.01234   -0.00164   -0.00149   -0.00454
AFIX  13
H7    2    0.139312    0.073394    0.213420    11.00000   -1.20000
AFIX   0
C8    1    0.271694    0.294010    0.218471    11.00000    0.01576    0.01402 =
         0.01230    0.00012   -0.00328   -0.00520
C9    1   -0.082592    0.132807    0.336184    11.00000    0.01264    0.01505 =
         0.01746    0.00036   -0.00335   -0.00395
C10   1   -0.167833    0.193942    0.417049    11.00000    0.01243    0.01878 =
         0.01249    0.00038   -0.00265   -0.00423
C11   1   -0.243080    0.063629    0.461681    11.00000    0.01691    0.02278 =
         0.01807    0.00304   -0.00473   -0.00815
AFIX  43
H11   2   -0.242406   -0.057139    0.439750    11.00000   -1.20000
AFIX   0
C12   1   -0.318705    0.111235    0.538071    11.00000    0.01868    0.03271 =
         0.01815    0.00620   -0.00376   -0.01028
AFIX  43
H12   2   -0.370226    0.023165    0.568577    11.00000   -1.20000
AFIX   0
C13   1   -0.319138    0.288437    0.570130    11.00000    0.01863    0.03631 =
         0.01264   -0.00175   -0.00136   -0.00710
AFIX  43
H13   2   -0.370696    0.320506    0.622525    11.00000   -1.20000
AFIX   0
C14   1   -0.244711    0.418125    0.525945    11.00000    0.02159    0.02891 =
         0.01753   -0.00667   -0.00238   -0.00751
AFIX  43
H14   2   -0.245116    0.538419    0.548163    11.00000   -1.20000
AFIX   0
C15   1   -0.169400    0.372279    0.449070    11.00000    0.01807    0.02086 =
         0.01660   -0.00150   -0.00209   -0.00688
AFIX  43
H15   2   -0.119464    0.461485    0.418610    11.00000   -1.20000
AFIX   0
HKLF 4

REM  tri in P1
REM R1 =  0.0315 for    3546 Fo > 4sig(Fo)  and  0.0327 for all    3728 data
REM    226 parameters refined using      0 restraints

END

WGHT      0.0566      0.4589

REM Highest difference peak  0.393,  deepest hole -0.469,  1-sigma level  0.079
Q1    1   0.1812  0.2670  0.2143  11.00000  0.05    0.39
Q2    1  -0.0922  0.3292  0.0661  11.00000  0.05    0.30
Q3    1  -0.1163  0.1646  0.3822  11.00000  0.05    0.30
Q4    1  -0.2904  0.5573  0.1604  11.00000  0.05    0.29
Q5    1   0.0204  0.2741  0.1913  11.00000  0.05    0.28
Q6    1  -0.1401  0.0832  0.2980  11.00000  0.05    0.27
Q7    1  -0.2031  0.3852  0.4920  11.00000  0.05    0.27
Q8    1   0.3969  0.5477  0.2778  11.00000  0.05    0.25
Q9    1  -0.1845  0.1105  0.4407  11.00000  0.05    0.25
Q10   1  -0.1669  0.8260  0.1655  11.00000  0.05    0.25
Q11   1  -0.5407  0.6652  0.0286  11.00000  0.05    0.24
Q12   1  -0.3521  0.2822  0.6792  11.00000  0.05    0.24
Q13   1  -0.3127  0.6009  0.0992  11.00000  0.05    0.24
Q14   1  -0.0293  0.3097  0.1255  11.00000  0.05    0.24
Q15   1  -0.1997  0.4893  0.0477  11.00000  0.05    0.23
Q16   1   0.0041  0.4599  0.3929  11.00000  0.05    0.23
Q17   1   0.3302 -0.2237  0.0494  11.00000  0.05    0.22
Q18   1  -0.4064  0.3057  0.7348  11.00000  0.05    0.22
Q19   1  -0.0886  0.6602  0.2166  11.00000  0.05    0.22
Q20   1  -0.1132  0.7323  0.2081  11.00000  0.05    0.22
;
_shelx_res_checksum              35152
loop_
_space_group_symop_operation_xyz
'x, y, z'
'-x, -y, -z'
loop_
_atom_site_label
_atom_site_type_symbol
_atom_site_fract_x
_atom_site_fract_y
_atom_site_fract_z
_atom_site_U_iso_or_equiv
_atom_site_adp_type
_atom_site_occupancy
_atom_site_site_symmetry_order
_atom_site_calc_flag
_atom_site_refinement_flags_posn
_atom_site_refinement_flags_adp
Cl1 Cl 0.44504(5) 0.21395(5) 0.13191(2) 0.01725(11) Uani 1 1 d . .
Cl2 Cl 0.19194(6) 0.55517(5) 0.23738(2) 0.02083(11) Uani 1 1 d . .
O1 O 0.20824(18) 0.04864(17) -0.00422(6) 0.0222(2) Uani 1 1 d . .
O2 O 0.16841(18) -0.07941(16) 0.10620(6) 0.0218(2) Uani 1 1 d . .
O3 O 0.44586(18) -0.01292(17) 0.27850(7) 0.0235(2) Uani 1 1 d . .
O4 O 0.4500(2) 0.2650(2) 0.32476(8) 0.0319(3) Uani 1 1 d . .
O5 O -0.02037(16) 0.27783(15) 0.29908(6) 0.0152(2) Uani 1 1 d . .
O6 O -0.0654(2) -0.02233(18) 0.30522(7) 0.0248(3) Uani 1 1 d . .
N1 N 0.12748(18) 0.06417(18) 0.06287(7) 0.0155(2) Uani 1 1 d . .
N2 N 0.40256(19) 0.1718(2) 0.28033(7) 0.0184(3) Uani 1 1 d . .
C1 C -0.0597(2) 0.3343(2) 0.16670(8) 0.0132(3) Uani 1 1 d . .
C2 C -0.2246(2) 0.5225(2) 0.18880(9) 0.0169(3) Uani 1 1 d . .
H2 H -0.2480 0.5746 0.2391 0.020 Uiso 1 1 calc R U
C3 C -0.3549(2) 0.6345(2) 0.13861(9) 0.0188(3) Uani 1 1 d . .
H3 H -0.4683 0.7601 0.1553 0.023 Uiso 1 1 calc R U
C4 C -0.3208(2) 0.5647(2) 0.06427(9) 0.0180(3) Uani 1 1 d . .
H4 H -0.4091 0.6435 0.0300 0.022 Uiso 1 1 calc R U
C5 C -0.1577(2) 0.3796(2) 0.03995(8) 0.0159(3) Uani 1 1 d . .
H5 H -0.1316 0.3312 -0.0110 0.019 Uiso 1 1 calc R U
C6 C -0.0328(2) 0.2659(2) 0.09181(8) 0.0134(3) Uani 1 1 d . .
C7 C 0.0853(2) 0.2251(2) 0.22258(8) 0.0133(3) Uani 1 1 d . .
H7 H 0.1393 0.0734 0.2134 0.016 Uiso 1 1 calc R U
C8 C 0.2717(2) 0.2940(2) 0.21847(8) 0.0141(3) Uani 1 1 d . .
C9 C -0.0826(2) 0.1328(2) 0.33618(8) 0.0154(3) Uani 1 1 d . .
C10 C -0.1678(2) 0.1939(2) 0.41705(8) 0.0150(3) Uani 1 1 d . .
C11 C -0.2431(2) 0.0636(2) 0.46168(9) 0.0189(3) Uani 1 1 d . .
H11 H -0.2424 -0.0571 0.4397 0.023 Uiso 1 1 calc R U
C12 C -0.3187(2) 0.1112(3) 0.53807(9) 0.0231(3) Uani 1 1 d . .
H12 H -0.3702 0.0232 0.5686 0.028 Uiso 1 1 calc R U
C13 C -0.3191(2) 0.2884(3) 0.57013(9) 0.0237(3) Uani 1 1 d . .
H13 H -0.3707 0.3205 0.6225 0.028 Uiso 1 1 calc R U
C14 C -0.2447(2) 0.4181(3) 0.52594(9) 0.0233(3) Uani 1 1 d . .
H14 H -0.2451 0.5384 0.5482 0.028 Uiso 1 1 calc R U
C15 C -0.1694(2) 0.3723(2) 0.44907(9) 0.0187(3) Uani 1 1 d . .
H15 H -0.1195 0.4615 0.4186 0.022 Uiso 1 1 calc R U
loop_
_atom_site_aniso_label
_atom_site_aniso_U_11
_atom_site_aniso_U_22
_atom_site_aniso_U_33
_atom_site_aniso_U_23
_atom_site_aniso_U_13
_atom_site_aniso_U_12
Cl1 0.01673(17) 0.02183(18) 0.01373(18) -0.00110(13) -0.00052(12) -0.00866(13)
Cl2 0.02186(18) 0.01403(17) 0.0277(2) -0.00349(14) -0.00485(14) -0.00748(13)
O1 0.0230(5) 0.0240(5) 0.0170(5) -0.0070(4) 0.0044(4) -0.0089(4)
O2 0.0285(6) 0.0132(5) 0.0202(6) -0.0013(4) -0.0099(4) -0.0019(4)
O3 0.0266(6) 0.0197(5) 0.0211(6) 0.0037(4) -0.0085(4) -0.0040(4)
O4 0.0321(6) 0.0333(7) 0.0290(7) -0.0097(5) -0.0173(5) -0.0056(5)
O5 0.0186(5) 0.0142(4) 0.0115(5) -0.0020(4) 0.0002(4) -0.0056(4)
O6 0.0327(6) 0.0208(5) 0.0221(6) -0.0058(4) 0.0042(5) -0.0144(5)
N1 0.0148(5) 0.0152(5) 0.0173(6) -0.0036(4) -0.0042(4) -0.0058(4)
N2 0.0141(5) 0.0217(6) 0.0163(6) -0.0033(5) -0.0040(4) -0.0027(4)
C1 0.0131(6) 0.0125(6) 0.0142(6) -0.0001(5) -0.0025(5) -0.0050(5)
C2 0.0157(6) 0.0142(6) 0.0183(7) -0.0028(5) -0.0018(5) -0.0033(5)
C3 0.0158(6) 0.0132(6) 0.0248(8) -0.0003(5) -0.0038(5) -0.0025(5)
C4 0.0178(6) 0.0161(6) 0.0213(7) 0.0055(5) -0.0074(5) -0.0066(5)
C5 0.0186(6) 0.0169(6) 0.0156(7) 0.0015(5) -0.0054(5) -0.0095(5)
C6 0.0132(6) 0.0109(6) 0.0165(7) -0.0010(5) -0.0024(5) -0.0050(5)
C7 0.0140(6) 0.0128(6) 0.0123(6) -0.0016(5) -0.0015(5) -0.0045(5)
C8 0.0158(6) 0.0140(6) 0.0123(6) 0.0001(5) -0.0033(5) -0.0052(5)
C9 0.0126(6) 0.0151(6) 0.0175(7) 0.0004(5) -0.0034(5) -0.0040(5)
C10 0.0124(6) 0.0188(6) 0.0125(6) 0.0004(5) -0.0026(5) -0.0042(5)
C11 0.0169(6) 0.0228(7) 0.0181(7) 0.0030(5) -0.0047(5) -0.0081(5)
C12 0.0187(7) 0.0327(8) 0.0181(8) 0.0062(6) -0.0038(6) -0.0103(6)
C13 0.0186(7) 0.0363(9) 0.0126(7) -0.0017(6) -0.0014(5) -0.0071(6)
C14 0.0216(7) 0.0289(8) 0.0175(7) -0.0067(6) -0.0024(6) -0.0075(6)
C15 0.0181(6) 0.0209(7) 0.0166(7) -0.0015(5) -0.0021(5) -0.0069(5)
loop_
_atom_type_symbol
_atom_type_description
_atom_type_scat_dispersion_real
_atom_type_scat_dispersion_imag
_atom_type_scat_source
C C 0.0033 0.0016 'International Tables Vol C Tables 4.2.6.8 and 6.1.1.4'
H H 0.0000 0.0000 'International Tables Vol C Tables 4.2.6.8 and 6.1.1.4'
N N 0.0061 0.0033 'International Tables Vol C Tables 4.2.6.8 and 6.1.1.4'
O O 0.0106 0.0060 'International Tables Vol C Tables 4.2.6.8 and 6.1.1.4'
Cl Cl 0.1484 0.1585 'International Tables Vol C Tables 4.2.6.8 and 6.1.1.4'
loop_
_geom_angle_atom_site_label_1
_geom_angle_atom_site_label_2
_geom_angle_atom_site_label_3
_geom_angle
C9 O5 C7 116.01(10)
O2 N1 O1 123.76(12)
O2 N1 C6 118.58(12)
O1 N1 C6 117.63(12)
O4 N2 O3 126.22(13)
O4 N2 C8 118.80(12)
O3 N2 C8 114.98(11)
C2 C1 C6 116.71(12)
C2 C1 C7 118.83(12)
C6 C1 C7 124.34(12)
C3 C2 C1 121.26(13)
C3 C2 H2 119.4
C1 C2 H2 119.4
C4 C3 C2 120.58(13)
C4 C3 H3 119.7
C2 C3 H3 119.7
C3 C4 C5 119.91(13)
C3 C4 H4 120.0
C5 C4 H4 120.0
C4 C5 C6 118.71(13)
C4 C5 H5 120.6
C6 C5 H5 120.6
C5 C6 C1 122.77(12)
C5 C6 N1 115.28(12)
C1 C6 N1 121.92(12)
O5 C7 C1 111.23(11)
O5 C7 C8 103.29(10)
C1 C7 C8 112.23(11)
O5 C7 H7 110.0
C1 C7 H7 110.0
C8 C7 H7 110.0
C7 C8 N2 105.95(11)
C7 C8 Cl2 113.07(9)
N2 C8 Cl2 108.93(9)
C7 C8 Cl1 111.26(9)
N2 C8 Cl1 104.99(9)
Cl2 C8 Cl1 112.10(8)
O6 C9 O5 122.57(14)
O6 C9 C10 126.32(14)
O5 C9 C10 111.11(12)
C11 C10 C15 120.28(13)
C11 C10 C9 117.64(13)
C15 C10 C9 122.07(13)
C12 C11 C10 119.76(14)
C12 C11 H11 120.1
C10 C11 H11 120.1
C11 C12 C13 119.99(15)
C11 C12 H12 120.0
C13 C12 H12 120.0
C14 C13 C12 120.37(15)
C14 C13 H13 119.8
C12 C13 H13 119.8
C13 C14 C15 120.11(15)
C13 C14 H14 119.9
C15 C14 H14 119.9
C14 C15 C10 119.50(15)
C14 C15 H15 120.3
C10 C15 H15 120.3
loop_
_geom_bond_atom_site_label_1
_geom_bond_atom_site_label_2
_geom_bond_distance
Cl1 C8 1.7620(14)
Cl2 C8 1.7386(14)
O1 N1 1.2303(17)
O2 N1 1.2298(17)
O3 N2 1.2223(17)
O4 N2 1.2113(17)
O5 C9 1.3739(17)
O5 C7 1.4324(16)
O6 C9 1.2011(18)
N1 C6 1.4773(17)
N2 C8 1.5713(18)
C1 C2 1.3988(18)
C1 C6 1.3999(19)
C1 C7 1.5166(18)
C2 C3 1.388(2)
C2 H2 0.9500
C3 C4 1.387(2)
C3 H3 0.9500
C4 C5 1.388(2)
C4 H4 0.9500
C5 C6 1.3946(19)
C5 H5 0.9500
C7 C8 1.5463(19)
C7 H7 1.0000
C9 C10 1.4833(19)
C10 C11 1.398(2)
C10 C15 1.398(2)
C11 C12 1.386(2)
C11 H11 0.9500
C12 C13 1.395(2)
C12 H12 0.9500
C13 C14 1.387(2)
C13 H13 0.9500
C14 C15 1.393(2)
C14 H14 0.9500
C15 H15 0.9500
