#------------------------------------------------------------------------------
#$Date: 2017-04-05 12:08:10 +0300 (Wed, 05 Apr 2017) $
#$Revision: 194929 $
#$URL: file:///home/coder/svn-repositories/cod/cif/7/11/98/7119824.cif $
#------------------------------------------------------------------------------
#
# This file is available in the Crystallography Open Database (COD),
# http://www.crystallography.net/
#
# All data on this site have been placed in the public domain by the
# contributors.
#
data_7119824
loop_
_publ_author_name
'Mayo, R. Alex'
'Sullivan, David J.'
'Fillion, Travis A. P.'
'Kycia, Stefan W.'
'Soldatov, Dmitriy V.'
'Preuss, Kathryn E.'
_publ_section_title
;
 Reversible crystal-to-crystal chiral resolution: making/breaking
 non-bonding SO interactions.
;
_journal_issue                   28
_journal_name_full
'Chemical communications (Cambridge, England)'
_journal_page_first              3964
_journal_paper_doi               10.1039/c7cc00907k
_journal_volume                  53
_journal_year                    2017
_chemical_absolute_configuration ad
_chemical_formula_moiety         'C9 H5 N O2 S2'
_chemical_formula_sum            'C9 H5 N O2 S2'
_chemical_formula_weight         223.26
_chemical_name_systematic
;
 4-Benzoyl-5H-1,2,3-dithiazol-5-one, high-temperature polymorph
;
_space_group_crystal_system      orthorhombic
_space_group_IT_number           19
_space_group_name_Hall           'P 2ac 2ab'
_space_group_name_H-M_alt        'P 21 21 21'
_symmetry_space_group_name_Hall  'P 2ac 2ab'
_symmetry_space_group_name_H-M   'P 21 21 21'
_atom_sites_solution_hydrogens   difmap
_audit_creation_method           SHELXL-2013
_audit_update_record
;
2016-12-15 deposited with the CCDC.
2017-03-13 downloaded from the CCDC.
;
_cell_angle_alpha                90
_cell_angle_beta                 90
_cell_angle_gamma                90
_cell_formula_units_Z            4
_cell_length_a                   7.99603(12)
_cell_length_b                   10.01680(13)
_cell_length_c                   11.32452(15)
_cell_measurement_reflns_used    12701
_cell_measurement_temperature    150(1)
_cell_measurement_theta_max      75.9510
_cell_measurement_theta_min      3.9030
_cell_volume                     907.03(2)
_computing_cell_refinement
;
CrysAlisPro, Agilent Technologies,
Version 1.171.36.28 (release 01-02-2013 CrysAlis171 .NET)
(compiled Feb  1 2013,16:14:44)
;
_computing_data_collection
;
CrysAlisPro, Agilent Technologies,
Version 1.171.36.28 (release 01-02-2013 CrysAlis171 .NET)
(compiled Feb  1 2013,16:14:44)
;
_computing_data_reduction
;
CrysAlisPro, Agilent Technologies,
Version 1.171.36.28 (release 01-02-2013 CrysAlis171 .NET)
(compiled Feb  1 2013,16:14:44)
;
_computing_structure_refinement  'SHELXL-2013 (Sheldrick, 2013)'
_computing_structure_solution    SHELXS
_diffrn_ambient_temperature      150(1)
_diffrn_detector_area_resol_mean 10.3693
_diffrn_measured_fraction_theta_full 1.000
_diffrn_measured_fraction_theta_max 0.998
_diffrn_measurement_device_type  'SuperNova, Dual, Cu at zero, Atlas'
_diffrn_measurement_method       '\w scans'
_diffrn_radiation_type           CuK\a
_diffrn_radiation_wavelength     1.54184
_diffrn_reflns_av_R_equivalents  0.0347
_diffrn_reflns_av_unetI/netI     0.0135
_diffrn_reflns_Laue_measured_fraction_full 1.000
_diffrn_reflns_Laue_measured_fraction_max 0.998
_diffrn_reflns_limit_h_max       10
_diffrn_reflns_limit_h_min       -10
_diffrn_reflns_limit_k_max       12
_diffrn_reflns_limit_k_min       -12
_diffrn_reflns_limit_l_max       14
_diffrn_reflns_limit_l_min       -14
_diffrn_reflns_number            17711
_diffrn_reflns_point_group_measured_fraction_full 1.000
_diffrn_reflns_point_group_measured_fraction_max 0.997
_diffrn_reflns_theta_full        67.684
_diffrn_reflns_theta_max         76.829
_diffrn_reflns_theta_min         5.898
_diffrn_source                   'SuperNova (Cu) X-ray Source'
_exptl_absorpt_coefficient_mu    5.086
_exptl_absorpt_correction_T_max  1.00000
_exptl_absorpt_correction_T_min  0.11993
_exptl_absorpt_correction_type   multi-scan
_exptl_absorpt_process_details
;
CrysAlisPro, Agilent Technologies,
Version 1.171.36.28 (release 01-02-2013 CrysAlis171 .NET)
(compiled Feb  1 2013,16:14:44)
Empirical absorption correction using spherical harmonics,
 implemented in SCALE3 ABSPACK scaling algorithm.
;
_exptl_crystal_colour            yellow
_exptl_crystal_density_diffrn    1.635
_exptl_crystal_description       shapeless
_exptl_crystal_F_000             456
_exptl_crystal_recrystallization_method
'Re-crystallisation from solvent: Chlorobenzene'
_exptl_crystal_size_max          0.450
_exptl_crystal_size_mid          0.300
_exptl_crystal_size_min          0.100
_refine_diff_density_max         0.182
_refine_diff_density_min         -0.308
_refine_diff_density_rms         0.040
_refine_ls_abs_structure_details
;
 Flack x determined using 782 quotients [(I+)-(I-)]/[(I+)+(I-)]
 (Parsons and Flack (2004), Acta Cryst. A60, s61).
;
_refine_ls_abs_structure_Flack   0.005(6)
_refine_ls_extinction_method     none
_refine_ls_goodness_of_fit_ref   1.073
_refine_ls_hydrogen_treatment    refxyz
_refine_ls_matrix_type           full
_refine_ls_number_parameters     142
_refine_ls_number_reflns         1911
_refine_ls_number_restraints     0
_refine_ls_restrained_S_all      1.073
_refine_ls_R_factor_all          0.0229
_refine_ls_R_factor_gt           0.0228
_refine_ls_shift/su_max          0.000
_refine_ls_shift/su_mean         0.000
_refine_ls_structure_factor_coef Fsqd
_refine_ls_weighting_details
'w=1/[\s^2^(Fo^2^)+(0.0394P)^2^+0.2038P] where P=(Fo^2^+2Fc^2^)/3'
_refine_ls_weighting_scheme      calc
_refine_ls_wR_factor_gt          0.0625
_refine_ls_wR_factor_ref         0.0625
_reflns_Friedel_coverage         0.697
_reflns_Friedel_fraction_full    1.000
_reflns_Friedel_fraction_max     0.996
_reflns_number_gt                1905
_reflns_number_total             1911
_reflns_threshold_expression     'I > 2\s(I)'
_cod_data_source_file            c7cc00907k2.cif
_cod_data_source_block           shelx
_cod_depositor_comments
'Adding full bibliography for 7119822--7119825.cif.'
_cod_database_code               7119824
_shelx_space_group_comment
;
The symmetry employed for this shelxl refinement is uniquely defined
by the following loop, which should always be used as a source of
symmetry information in preference to the above space-group names.
They are only intended as comments.
;
_shelx_estimated_absorpt_t_min   0.208
_shelx_estimated_absorpt_t_max   0.630
_shelxl_version_number           2013-4
_shelx_res_file
;
TITL DSx547 (New1) in P2(1)2(1)2(1) @ 150K
REM Dave's dione, HT-form at low T
REM final
CELL 1.54184 7.99603 10.0168 11.32452 90 90 90
ZERR       4 0.00012  0.00013  0.00015 0  0  0
LATT -1
SYMM 0.5-X,-Y,0.5+Z
SYMM -X,0.5+Y,0.5-Z
SYMM 0.5+X,0.5-Y,-Z
SFAC C  H  N O S
UNIT 36 20 4 8 8
TEMP -123
OMIT  0
L.S.  8
FMAP  2
PLAN -20
BOND
BOND $H
SIZE 0.45 0.30 0.10
ACTA
WGHT    0.039400    0.203800
FVAR       2.93558
S1    5    0.356298   -0.024675    0.653861    11.00000    0.05207    0.02396 =
         0.02732    0.00495   -0.00272    0.00245
S2    5    0.473486    0.122879    0.745827    11.00000    0.04590    0.03400 =
         0.02036    0.00156   -0.00564    0.00633
N3    3    0.470235    0.239450    0.644645    11.00000    0.03660    0.02906 =
         0.02195   -0.00082   -0.00228    0.00172
C4    1    0.406421    0.209293    0.543256    11.00000    0.02789    0.02218 =
         0.02115   -0.00206    0.00102    0.00552
C5    1    0.336770    0.074685    0.521888    11.00000    0.03978    0.02321 =
         0.02560    0.00098   -0.00479    0.00368
O6    4    0.271186    0.033966    0.433443    11.00000    0.07904    0.03134 =
         0.03499   -0.00003   -0.02300   -0.00760
C7    1    0.415054    0.309020    0.443178    11.00000    0.03274    0.02610 =
         0.02045    0.00045    0.00153    0.00559
O8    4    0.478729    0.272952    0.350918    11.00000    0.06881    0.03515 =
         0.02596    0.00294    0.01541    0.02055
C9    1    0.349333    0.445550    0.461767    11.00000    0.02434    0.02025 =
         0.02175    0.00039   -0.00244   -0.00025
C10   1    0.387538    0.544387    0.378674    11.00000    0.02743    0.02790 =
         0.02135    0.00270    0.00006   -0.00244
H10   2    0.458770    0.519371    0.314065    11.00000   -1.20000
C11   1    0.323604    0.671263    0.391235    11.00000    0.03131    0.02248 =
         0.02713    0.00466   -0.00256   -0.00574
H11   2    0.348673    0.740214    0.341162    11.00000   -1.20000
C12   1    0.219583    0.701218    0.486723    11.00000    0.03448    0.02005 =
         0.02983   -0.00026   -0.00484    0.00058
H12   2    0.174696    0.791822    0.493514    11.00000   -1.20000
C13   1    0.181178    0.603777    0.569345    11.00000    0.03283    0.02555 =
         0.02355   -0.00100    0.00136    0.00248
H13   2    0.112053    0.624105    0.633805    11.00000   -1.20000
C14   1    0.246083    0.475925    0.557813    11.00000    0.02744    0.02185 =
         0.02030    0.00107    0.00020   -0.00034
H14   2    0.213957    0.406910    0.611382    11.00000   -1.20000
HKLF 4

REM  DSx547 (New1) in P2(1)2(1)2(1) @ 150K
REM R1 =  0.0228 for    1905 Fo > 4sig(Fo)  and  0.0229 for all    1911 data
REM    142 parameters refined using      0 restraints

END

WGHT      0.0395      0.2026

REM Highest difference peak  0.182,  deepest hole -0.308,  1-sigma level  0.040
Q1    1   0.3648  0.1528  0.5398  11.00000  0.05    0.18
Q2    1   0.3551  0.3736  0.4590  11.00000  0.05    0.16
Q3    1   0.3719  0.0345  0.5622  11.00000  0.05    0.14
Q4    1   0.3689 -0.1419  0.6168  11.00000  0.05    0.14
Q5    1   0.3520  0.4899  0.4207  11.00000  0.05    0.14
Q6    1   0.3523 -0.1475  0.6703  11.00000  0.05    0.14
Q7    1   0.4605  0.2485  0.7312  11.00000  0.05    0.13
Q8    1   0.2844  0.4628  0.5187  11.00000  0.05    0.13
Q9    1   0.3564  0.6136  0.3888  11.00000  0.05    0.13
Q10   1   0.4502  0.0027  0.7283  11.00000  0.05    0.13
Q11   1   0.3616  0.0251  0.7642  11.00000  0.05    0.13
Q12   1   0.1950  0.5262  0.5544  11.00000  0.05    0.12
Q13   1   0.4818  0.1970  0.3607  11.00000  0.05    0.12
Q14   1   0.2896 -0.0965  0.4102  11.00000  0.05    0.12
Q15   1   0.4360  0.1393  0.8635  11.00000  0.05    0.12
Q16   1   0.3014  0.1620  0.7472  11.00000  0.05    0.12
Q17   1   0.2020  0.6503  0.5215  11.00000  0.05    0.11
Q18   1   0.3947  0.2561  0.4955  11.00000  0.05    0.11
Q19   1   0.5054 -0.0959  0.6628  11.00000  0.05    0.11
Q20   1   0.3288  0.0832  0.7069  11.00000  0.05    0.11
;
_shelx_res_checksum              14073
loop_
_space_group_symop_operation_xyz
'x, y, z'
'-x+1/2, -y, z+1/2'
'-x, y+1/2, -z+1/2'
'x+1/2, -y+1/2, -z'
loop_
_atom_site_label
_atom_site_type_symbol
_atom_site_fract_x
_atom_site_fract_y
_atom_site_fract_z
_atom_site_U_iso_or_equiv
_atom_site_adp_type
_atom_site_occupancy
_atom_site_site_symmetry_order
_atom_site_calc_flag
_atom_site_refinement_flags_adp
S1 S 0.35630(8) -0.02467(5) 0.65386(5) 0.03445(15) Uani 1 1 d .
S2 S 0.47349(7) 0.12288(5) 0.74583(5) 0.03342(15) Uani 1 1 d .
N3 N 0.4702(2) 0.23945(18) 0.64465(15) 0.0292(4) Uani 1 1 d .
C4 C 0.4064(2) 0.20929(19) 0.54326(18) 0.0237(4) Uani 1 1 d .
C5 C 0.3368(3) 0.0747(2) 0.52189(19) 0.0295(4) Uani 1 1 d .
O6 O 0.2712(3) 0.03397(18) 0.43344(16) 0.0485(5) Uani 1 1 d .
C7 C 0.4151(3) 0.3090(2) 0.44318(18) 0.0264(4) Uani 1 1 d .
O8 O 0.4787(3) 0.27295(17) 0.35092(15) 0.0433(4) Uani 1 1 d .
C9 C 0.3493(2) 0.44555(18) 0.46177(17) 0.0221(4) Uani 1 1 d .
C10 C 0.3875(2) 0.5444(2) 0.37867(18) 0.0256(4) Uani 1 1 d .
H10 H 0.459(3) 0.519(3) 0.314(2) 0.031 Uiso 1 1 d U
C11 C 0.3236(3) 0.6713(2) 0.39124(19) 0.0270(4) Uani 1 1 d .
H11 H 0.349(3) 0.740(3) 0.341(2) 0.032 Uiso 1 1 d U
C12 C 0.2196(3) 0.7012(2) 0.48672(19) 0.0281(4) Uani 1 1 d .
H12 H 0.175(3) 0.792(3) 0.494(3) 0.034 Uiso 1 1 d U
C13 C 0.1812(3) 0.6038(2) 0.56935(19) 0.0273(4) Uani 1 1 d .
H13 H 0.112(3) 0.624(3) 0.634(2) 0.033 Uiso 1 1 d U
C14 C 0.2461(2) 0.4759(2) 0.55781(17) 0.0232(4) Uani 1 1 d .
H14 H 0.214(3) 0.407(3) 0.611(2) 0.028 Uiso 1 1 d U
loop_
_atom_site_aniso_label
_atom_site_aniso_U_11
_atom_site_aniso_U_22
_atom_site_aniso_U_33
_atom_site_aniso_U_23
_atom_site_aniso_U_13
_atom_site_aniso_U_12
S1 0.0521(3) 0.0240(2) 0.0273(2) 0.0050(2) -0.0027(2) 0.0025(2)
S2 0.0459(3) 0.0340(3) 0.0204(2) 0.0016(2) -0.0056(2) 0.0063(2)
N3 0.0366(9) 0.0291(8) 0.0220(8) -0.0008(7) -0.0023(7) 0.0017(7)
C4 0.0279(9) 0.0222(9) 0.0211(9) -0.0021(7) 0.0010(7) 0.0055(7)
C5 0.0398(11) 0.0232(9) 0.0256(10) 0.0010(8) -0.0048(9) 0.0037(9)
O6 0.0790(13) 0.0313(8) 0.0350(9) 0.0000(7) -0.0230(9) -0.0076(8)
C7 0.0327(9) 0.0261(9) 0.0204(10) 0.0004(8) 0.0015(7) 0.0056(8)
O8 0.0688(11) 0.0352(9) 0.0260(7) 0.0029(7) 0.0154(8) 0.0206(8)
C9 0.0243(8) 0.0202(8) 0.0217(9) 0.0004(7) -0.0024(7) -0.0002(7)
C10 0.0274(9) 0.0279(10) 0.0214(9) 0.0027(7) 0.0001(8) -0.0024(7)
C11 0.0313(9) 0.0225(9) 0.0271(9) 0.0047(8) -0.0026(8) -0.0057(8)
C12 0.0345(10) 0.0200(8) 0.0298(10) -0.0003(8) -0.0048(8) 0.0006(8)
C13 0.0328(10) 0.0255(9) 0.0235(9) -0.0010(8) 0.0014(8) 0.0025(8)
C14 0.0274(8) 0.0219(8) 0.0203(8) 0.0011(7) 0.0002(7) -0.0003(7)
loop_
_atom_type_symbol
_atom_type_description
_atom_type_scat_dispersion_real
_atom_type_scat_dispersion_imag
_atom_type_scat_source
C C 0.0181 0.0091 'International Tables Vol C Tables 4.2.6.8 and 6.1.1.4'
H H 0.0000 0.0000 'International Tables Vol C Tables 4.2.6.8 and 6.1.1.4'
N N 0.0311 0.0180 'International Tables Vol C Tables 4.2.6.8 and 6.1.1.4'
O O 0.0492 0.0322 'International Tables Vol C Tables 4.2.6.8 and 6.1.1.4'
S S 0.3331 0.5567 'International Tables Vol C Tables 4.2.6.8 and 6.1.1.4'
loop_
_geom_angle_atom_site_label_1
_geom_angle_atom_site_label_2
_geom_angle_atom_site_label_3
_geom_angle
C5 S1 S2 93.62(7)
N3 S2 S1 98.77(7)
C4 N3 S2 117.50(16)
N3 C4 C5 120.48(18)
N3 C4 C7 119.57(18)
C5 C4 C7 119.79(17)
O6 C5 C4 127.6(2)
O6 C5 S1 122.78(17)
C4 C5 S1 109.58(15)
O8 C7 C9 123.02(19)
O8 C7 C4 117.80(18)
C9 C7 C4 119.18(16)
C14 C9 C10 119.85(18)
C14 C9 C7 121.40(17)
C10 C9 C7 118.72(17)
C11 C10 C9 120.15(18)
C11 C10 H10 122.7(18)
C9 C10 H10 117.2(17)
C10 C11 C12 119.95(19)
C10 C11 H11 123.4(17)
C12 C11 H11 116.6(17)
C13 C12 C11 120.20(19)
C13 C12 H12 121.2(17)
C11 C12 H12 118.6(17)
C12 C13 C14 120.21(19)
C12 C13 H13 120.2(17)
C14 C13 H13 119.6(17)
C13 C14 C9 119.64(18)
C13 C14 H14 120.5(16)
C9 C14 H14 119.7(16)
loop_
_geom_bond_atom_site_label_1
_geom_bond_atom_site_label_2
_geom_bond_distance
S1 C5 1.802(2)
S1 S2 2.0365(8)
S2 N3 1.6362(18)
N3 C4 1.292(3)
C4 C5 1.479(3)
C4 C7 1.512(3)
C5 O6 1.202(3)
C7 O8 1.217(3)
C7 C9 1.480(3)
C9 C14 1.399(3)
C9 C10 1.400(3)
C10 C11 1.377(3)
C10 H10 0.96(3)
C11 C12 1.397(3)
C11 H11 0.92(3)
C12 C13 1.387(3)
C12 H12 0.98(3)
C13 C14 1.388(3)
C13 H13 0.94(3)
C14 H14 0.95(3)
