#------------------------------------------------------------------------------
#$Date: 2017-04-05 12:08:10 +0300 (Wed, 05 Apr 2017) $
#$Revision: 194929 $
#$URL: file:///home/coder/svn-repositories/cod/cif/7/11/98/7119825.cif $
#------------------------------------------------------------------------------
#
# This file is available in the Crystallography Open Database (COD),
# http://www.crystallography.net/
#
# All data on this site have been placed in the public domain by the
# contributors.
#
data_7119825
loop_
_publ_author_name
'Mayo, R. Alex'
'Sullivan, David J.'
'Fillion, Travis A. P.'
'Kycia, Stefan W.'
'Soldatov, Dmitriy V.'
'Preuss, Kathryn E.'
_publ_section_title
;
 Reversible crystal-to-crystal chiral resolution: making/breaking
 non-bonding SO interactions.
;
_journal_issue                   28
_journal_name_full
'Chemical communications (Cambridge, England)'
_journal_page_first              3964
_journal_paper_doi               10.1039/c7cc00907k
_journal_volume                  53
_journal_year                    2017
_chemical_absolute_configuration ad
_chemical_formula_moiety         'C9 H5 N O2 S2'
_chemical_formula_sum            'C9 H5 N O2 S2'
_chemical_formula_weight         223.26
_chemical_name_systematic
;
 4-Benzoyl-5H-1,2,3-dithiazol-5-one, high-temperature polymorph
;
_space_group_crystal_system      orthorhombic
_space_group_IT_number           19
_space_group_name_Hall           'P 2ac 2ab'
_space_group_name_H-M_alt        'P 21 21 21'
_symmetry_space_group_name_Hall  'P 2ac 2ab'
_symmetry_space_group_name_H-M   'P 21 21 21'
_atom_sites_solution_hydrogens   difmap
_audit_creation_method           SHELXL-2013
_audit_update_record
;
2016-12-15 deposited with the CCDC.
2017-03-13 downloaded from the CCDC.
;
_cell_angle_alpha                90
_cell_angle_beta                 90
_cell_angle_gamma                90
_cell_formula_units_Z            4
_cell_length_a                   8.23838(12)
_cell_length_b                   10.03744(12)
_cell_length_c                   11.30577(14)
_cell_measurement_reflns_used    11629
_cell_measurement_temperature    296(2)
_cell_measurement_theta_max      76.4110
_cell_measurement_theta_min      3.8890
_cell_volume                     934.90(2)
_computing_cell_refinement
;
CrysAlisPro, Agilent Technologies,
Version 1.171.36.28 (release 01-02-2013 CrysAlis171 .NET)
(compiled Feb  1 2013,16:14:44)
;
_computing_data_collection
;
CrysAlisPro, Agilent Technologies,
Version 1.171.36.28 (release 01-02-2013 CrysAlis171 .NET)
(compiled Feb  1 2013,16:14:44)
;
_computing_data_reduction
;
CrysAlisPro, Agilent Technologies,
Version 1.171.36.28 (release 01-02-2013 CrysAlis171 .NET)
(compiled Feb  1 2013,16:14:44)
;
_computing_structure_refinement  'SHELXL-2013 (Sheldrick, 2013)'
_computing_structure_solution    SHELXS
_diffrn_ambient_temperature      296(2)
_diffrn_detector_area_resol_mean 10.3693
_diffrn_measured_fraction_theta_full 1.000
_diffrn_measured_fraction_theta_max 0.999
_diffrn_measurement_device_type  'SuperNova, Dual, Cu at zero, Atlas'
_diffrn_measurement_method       '\w scans'
_diffrn_radiation_type           CuK\a
_diffrn_radiation_wavelength     1.54184
_diffrn_reflns_av_R_equivalents  0.0360
_diffrn_reflns_av_unetI/netI     0.0138
_diffrn_reflns_Laue_measured_fraction_full 1.000
_diffrn_reflns_Laue_measured_fraction_max 0.999
_diffrn_reflns_limit_h_max       10
_diffrn_reflns_limit_h_min       -10
_diffrn_reflns_limit_k_max       12
_diffrn_reflns_limit_k_min       -12
_diffrn_reflns_limit_l_max       13
_diffrn_reflns_limit_l_min       -14
_diffrn_reflns_number            17588
_diffrn_reflns_point_group_measured_fraction_full 1.000
_diffrn_reflns_point_group_measured_fraction_max 0.997
_diffrn_reflns_theta_full        67.684
_diffrn_reflns_theta_max         76.735
_diffrn_reflns_theta_min         5.895
_diffrn_source                   'SuperNova (Cu) X-ray Source'
_exptl_absorpt_coefficient_mu    4.935
_exptl_absorpt_correction_T_max  1.00000
_exptl_absorpt_correction_T_min  0.04600
_exptl_absorpt_correction_type   multi-scan
_exptl_absorpt_process_details
;
CrysAlisPro, Agilent Technologies,
Version 1.171.36.28 (release 01-02-2013 CrysAlis171 .NET)
(compiled Feb  1 2013,16:14:44)
Empirical absorption correction using spherical harmonics,
 implemented in SCALE3 ABSPACK scaling algorithm.
;
_exptl_crystal_colour            yellow
_exptl_crystal_density_diffrn    1.586
_exptl_crystal_description       shapeless
_exptl_crystal_F_000             456
_exptl_crystal_recrystallization_method
'Re-crystallisation from solvent: Chlorobenzene'
_exptl_crystal_size_max          0.450
_exptl_crystal_size_mid          0.300
_exptl_crystal_size_min          0.100
_refine_diff_density_max         0.108
_refine_diff_density_min         -0.301
_refine_diff_density_rms         0.035
_refine_ls_abs_structure_details
;
 Flack x determined using 794 quotients [(I+)-(I-)]/[(I+)+(I-)]
 (Parsons and Flack (2004), Acta Cryst. A60, s61).
;
_refine_ls_abs_structure_Flack   -0.003(7)
_refine_ls_extinction_method     none
_refine_ls_goodness_of_fit_ref   1.064
_refine_ls_hydrogen_treatment    refxyz
_refine_ls_matrix_type           full
_refine_ls_number_parameters     142
_refine_ls_number_reflns         1974
_refine_ls_number_restraints     0
_refine_ls_restrained_S_all      1.064
_refine_ls_R_factor_all          0.0304
_refine_ls_R_factor_gt           0.0299
_refine_ls_shift/su_max          0.000
_refine_ls_shift/su_mean         0.000
_refine_ls_structure_factor_coef Fsqd
_refine_ls_weighting_details
'w=1/[\s^2^(Fo^2^)+(0.0399P)^2^+0.1992P] where P=(Fo^2^+2Fc^2^)/3'
_refine_ls_weighting_scheme      calc
_refine_ls_wR_factor_gt          0.0801
_refine_ls_wR_factor_ref         0.0808
_reflns_Friedel_coverage         0.697
_reflns_Friedel_fraction_full    1.000
_reflns_Friedel_fraction_max     0.994
_reflns_number_gt                1944
_reflns_number_total             1974
_reflns_threshold_expression     'I > 2\s(I)'
_cod_data_source_file            c7cc00907k2.cif
_cod_data_source_block           shelx
_cod_depositor_comments
'Adding full bibliography for 7119822--7119825.cif.'
_cod_database_code               7119825
_shelx_space_group_comment
;
The symmetry employed for this shelxl refinement is uniquely defined
by the following loop, which should always be used as a source of
symmetry information in preference to the above space-group names.
They are only intended as comments.
;
_shelx_estimated_absorpt_t_min   0.215
_shelx_estimated_absorpt_t_max   0.638
_shelxl_version_number           2013-4
_shelx_res_file
;
TITL DSx546 (New2) in P2(1)2(1)2(1)  @ RT
REM Dave's dione, HT-form at RT
REM final
CELL 1.54184   8.23838  10.03744  11.30577  90  90  90
ZERR       4   0.00012   0.00012   0.00014   0   0   0
LATT -1
SYMM 0.5-X,-Y,0.5+Z
SYMM -X,0.5+Y,0.5-Z
SYMM 0.5+X,0.5-Y,-Z
SFAC C  H  N O S
UNIT 36 20 4 8 8
TEMP 23
OMIT  0
L.S.  8
FMAP  2
PLAN -20
BOND
BOND $H
SIZE 0.45 0.30 0.10
ACTA
WGHT    0.039900    0.199200
FVAR       9.87930
S1    5    0.356894   -0.023370    0.654033    11.00000    0.11051    0.05377 =
         0.06028    0.01050   -0.00566    0.00606
S2    5    0.471858    0.121459    0.746069    11.00000    0.09608    0.07700 =
         0.04398    0.00405   -0.01236    0.01304
N3    3    0.469789    0.238655    0.645371    11.00000    0.07618    0.06324 =
         0.04655   -0.00065   -0.00739    0.00216
C4    1    0.408324    0.209702    0.544267    11.00000    0.05835    0.05016 =
         0.04212   -0.00275    0.00105    0.01170
C5    1    0.339183    0.076645    0.523057    11.00000    0.08355    0.05033 =
         0.05010    0.00243   -0.01107    0.00768
O6    4    0.275376    0.036969    0.434815    11.00000    0.16781    0.06786 =
         0.07182   -0.00228   -0.04946   -0.01340
C7    1    0.417588    0.309782    0.444690    11.00000    0.07108    0.05475 =
         0.04321    0.00077    0.00497    0.01144
O8    4    0.481870    0.274590    0.353345    11.00000    0.14779    0.07749 =
         0.05311    0.00813    0.03340    0.04555
C9    1    0.352257    0.445283    0.462410    11.00000    0.04993    0.04547 =
         0.04190    0.00097   -0.00294   -0.00075
C10   1    0.390811    0.544119    0.380531    11.00000    0.05489    0.06298 =
         0.04869    0.00760    0.00216   -0.00381
H10   2    0.462792    0.516894    0.318001    11.00000   -1.20000
C11   1    0.327439    0.669928    0.392424    11.00000    0.06484    0.04913 =
         0.05914    0.01013   -0.00432   -0.00932
H11   2    0.356519    0.742379    0.339903    11.00000   -1.20000
C12   1    0.223491    0.698749    0.485871    11.00000    0.07376    0.04439 =
         0.06350   -0.00068   -0.00917    0.00243
H12   2    0.179033    0.790765    0.494384    11.00000   -1.20000
C13   1    0.185148    0.601271    0.566985    11.00000    0.06845    0.05518 =
         0.05143   -0.00212    0.00346    0.00812
H13   2    0.116803    0.619374    0.628465    11.00000   -1.20000
C14   1    0.249314    0.474670    0.556506    11.00000    0.05637    0.04703 =
         0.04413    0.00235    0.00127   -0.00011
H14   2    0.218387    0.408776    0.609194    11.00000   -1.20000
HKLF 4

REM  DSx546 (New2) in P2(1)2(1)2(1)  @ RT
REM R1 =  0.0299 for    1944 Fo > 4sig(Fo)  and  0.0304 for all    1974 data
REM    142 parameters refined using      0 restraints

END

WGHT      0.0398      0.1998

REM Highest difference peak  0.108,  deepest hole -0.301,  1-sigma level  0.035
Q1    1   0.5384  0.2801  0.3953  11.00000  0.05    0.11
Q2    1   0.3657  0.1465  0.5361  11.00000  0.05    0.10
Q3    1   0.4362  0.0114  0.6842  11.00000  0.05    0.10
Q4    1   0.2780  0.0255  0.6783  11.00000  0.05    0.10
Q5    1   0.5312  0.1763  0.7220  11.00000  0.05    0.10
Q6    1   0.2107  0.0019  0.4228  11.00000  0.05    0.10
Q7    1   0.3651  0.1287  0.7542  11.00000  0.05    0.10
Q8    1   0.4237  0.2287  0.5933  11.00000  0.05    0.09
Q9    1   0.3530  0.3854  0.4579  11.00000  0.05    0.09
Q10   1   0.3060  0.4600  0.5058  11.00000  0.05    0.09
Q11   1   0.5123  0.4073  0.6185  11.00000  0.05    0.09
Q12   1   0.4172  0.2499  0.5077  11.00000  0.05    0.09
Q13   1   0.4763  0.7251  0.3516  11.00000  0.05    0.09
Q14   1   0.0769  0.7451  0.5019  11.00000  0.05    0.09
Q15   1   0.2305  0.0993  0.4388  11.00000  0.05    0.09
Q16   1   0.3661 -0.1623  0.8043  11.00000  0.05    0.09
Q17   1   0.0235  0.5628  0.5916  11.00000  0.05    0.08
Q18   1   0.6049  0.4136  0.3141  11.00000  0.05    0.08
Q19   1   0.3853  0.1085  0.3807  11.00000  0.05    0.08
Q20   1   0.2099  0.1020  0.7995  11.00000  0.05    0.08
;
_shelx_res_checksum              92062
loop_
_space_group_symop_operation_xyz
'x, y, z'
'-x+1/2, -y, z+1/2'
'-x, y+1/2, -z+1/2'
'x+1/2, -y+1/2, -z'
loop_
_atom_site_label
_atom_site_type_symbol
_atom_site_fract_x
_atom_site_fract_y
_atom_site_fract_z
_atom_site_U_iso_or_equiv
_atom_site_adp_type
_atom_site_occupancy
_atom_site_site_symmetry_order
_atom_site_calc_flag
_atom_site_refinement_flags_adp
S1 S 0.35689(13) -0.02337(8) 0.65403(7) 0.0749(3) Uani 1 1 d .
S2 S 0.47186(11) 0.12146(9) 0.74607(7) 0.0724(2) Uani 1 1 d .
N3 N 0.4698(3) 0.2387(3) 0.6454(2) 0.0620(6) Uani 1 1 d .
C4 C 0.4083(3) 0.2097(3) 0.5443(2) 0.0502(6) Uani 1 1 d .
C5 C 0.3392(4) 0.0766(3) 0.5231(2) 0.0613(7) Uani 1 1 d .
O6 O 0.2754(5) 0.0370(3) 0.4348(2) 0.1025(10) Uani 1 1 d .
C7 C 0.4176(4) 0.3098(3) 0.4447(2) 0.0563(6) Uani 1 1 d .
O8 O 0.4819(4) 0.2746(3) 0.3533(2) 0.0928(9) Uani 1 1 d .
C9 C 0.3523(3) 0.4453(2) 0.4624(2) 0.0458(5) Uani 1 1 d .
C10 C 0.3908(3) 0.5441(3) 0.3805(2) 0.0555(6) Uani 1 1 d .
H10 H 0.463(4) 0.517(4) 0.318(3) 0.067 Uiso 1 1 d U
C11 C 0.3274(4) 0.6699(3) 0.3924(3) 0.0577(6) Uani 1 1 d .
H11 H 0.357(4) 0.742(4) 0.340(3) 0.069 Uiso 1 1 d U
C12 C 0.2235(4) 0.6987(3) 0.4859(3) 0.0606(7) Uani 1 1 d .
H12 H 0.179(4) 0.791(3) 0.494(3) 0.073 Uiso 1 1 d U
C13 C 0.1851(4) 0.6013(3) 0.5670(3) 0.0584(6) Uani 1 1 d .
H13 H 0.117(4) 0.619(3) 0.628(3) 0.070 Uiso 1 1 d U
C14 C 0.2493(3) 0.4747(3) 0.5565(2) 0.0492(5) Uani 1 1 d .
H14 H 0.218(4) 0.409(3) 0.609(3) 0.059 Uiso 1 1 d U
loop_
_atom_site_aniso_label
_atom_site_aniso_U_11
_atom_site_aniso_U_22
_atom_site_aniso_U_33
_atom_site_aniso_U_23
_atom_site_aniso_U_13
_atom_site_aniso_U_12
S1 0.1105(6) 0.0538(3) 0.0603(4) 0.0105(3) -0.0057(4) 0.0061(4)
S2 0.0961(6) 0.0770(5) 0.0440(3) 0.0041(3) -0.0124(4) 0.0130(4)
N3 0.0762(14) 0.0632(13) 0.0465(12) -0.0007(11) -0.0074(11) 0.0022(12)
C4 0.0584(13) 0.0502(13) 0.0421(12) -0.0028(10) 0.0011(10) 0.0117(10)
C5 0.0836(18) 0.0503(13) 0.0501(14) 0.0024(11) -0.0111(14) 0.0077(14)
O6 0.168(3) 0.0679(14) 0.0718(15) -0.0023(12) -0.0495(18) -0.0134(16)
C7 0.0711(16) 0.0547(14) 0.0432(13) 0.0008(11) 0.0050(12) 0.0114(12)
O8 0.148(2) 0.0775(15) 0.0531(12) 0.0081(11) 0.0334(15) 0.0456(16)
C9 0.0499(11) 0.0455(11) 0.0419(11) 0.0010(9) -0.0029(10) -0.0007(10)
C10 0.0549(13) 0.0630(16) 0.0487(14) 0.0076(11) 0.0022(11) -0.0038(11)
C11 0.0648(15) 0.0491(13) 0.0591(15) 0.0101(11) -0.0043(13) -0.0093(12)
C12 0.0738(17) 0.0444(12) 0.0635(16) -0.0007(12) -0.0092(14) 0.0024(12)
C13 0.0684(16) 0.0552(14) 0.0514(14) -0.0021(11) 0.0035(13) 0.0081(13)
C14 0.0564(12) 0.0470(11) 0.0441(12) 0.0023(10) 0.0013(10) -0.0001(10)
loop_
_atom_type_symbol
_atom_type_description
_atom_type_scat_dispersion_real
_atom_type_scat_dispersion_imag
_atom_type_scat_source
C C 0.0181 0.0091 'International Tables Vol C Tables 4.2.6.8 and 6.1.1.4'
H H 0.0000 0.0000 'International Tables Vol C Tables 4.2.6.8 and 6.1.1.4'
N N 0.0311 0.0180 'International Tables Vol C Tables 4.2.6.8 and 6.1.1.4'
O O 0.0492 0.0322 'International Tables Vol C Tables 4.2.6.8 and 6.1.1.4'
S S 0.3331 0.5567 'International Tables Vol C Tables 4.2.6.8 and 6.1.1.4'
loop_
_geom_angle_atom_site_label_1
_geom_angle_atom_site_label_2
_geom_angle_atom_site_label_3
_geom_angle
C5 S1 S2 93.47(10)
N3 S2 S1 98.85(9)
C4 N3 S2 117.4(2)
N3 C4 C5 120.2(2)
N3 C4 C7 119.5(2)
C5 C4 C7 120.1(2)
O6 C5 C4 127.5(3)
O6 C5 S1 122.5(2)
C4 C5 S1 109.98(19)
O8 C7 C9 122.9(3)
O8 C7 C4 117.6(2)
C9 C7 C4 119.5(2)
C14 C9 C10 119.7(2)
C14 C9 C7 121.4(2)
C10 C9 C7 118.9(2)
C11 C10 C9 120.2(3)
C11 C10 H10 125(2)
C9 C10 H10 115(2)
C10 C11 C12 120.0(3)
C10 C11 H11 122(2)
C12 C11 H11 118(2)
C13 C12 C11 119.9(3)
C13 C12 H12 121(2)
C11 C12 H12 119(2)
C12 C13 C14 120.6(3)
C12 C13 H13 120(2)
C14 C13 H13 119(2)
C13 C14 C9 119.6(2)
C13 C14 H14 119.8(19)
C9 C14 H14 121(2)
loop_
_geom_bond_atom_site_label_1
_geom_bond_atom_site_label_2
_geom_bond_distance
S1 C5 1.795(3)
S1 S2 2.0231(12)
S2 N3 1.637(2)
N3 C4 1.284(3)
C4 C5 1.472(4)
C4 C7 1.511(3)
C5 O6 1.196(4)
C7 O8 1.213(3)
C7 C9 1.476(4)
C9 C14 1.392(3)
C9 C10 1.394(3)
C10 C11 1.373(4)
C10 H10 0.96(3)
C11 C12 1.390(5)
C11 H11 0.97(3)
C12 C13 1.378(4)
C12 H12 1.00(3)
C13 C14 1.381(4)
C13 H13 0.91(3)
C14 H14 0.93(3)
