#------------------------------------------------------------------------------
#$Date: 2017-04-28 04:32:51 +0300 (Fri, 28 Apr 2017) $
#$Revision: 195833 $
#$URL: file:///home/coder/svn-repositories/cod/cif/7/12/00/7120038.cif $
#------------------------------------------------------------------------------
#
# This file is available in the Crystallography Open Database (COD),
# http://www.crystallography.net/
#
# All data on this site have been placed in the public domain by the
# contributors.
#
data_7120038
loop_
_publ_author_name
'Luo, Feng'
'Gao, Heng Ya'
'Peng, Wenli'
'Meng, PanPan'
'Feng, Xuefeng'
'Li, Jianqiang'
'Wu, HuiQiong'
'Yan, Chang Sheng'
'Xiaong, Yang Yang'
_publ_section_title
;
 Lanthanide separation using size-selective crystallization of Ln-MOFs
;
_journal_name_full               'Chem. Commun.'
_journal_paper_doi               10.1039/C7CC01898C
_journal_year                    2017
_chemical_formula_moiety         'C13 H14 N2 O3'
_chemical_formula_sum            'C13 H14 N2 O3'
_chemical_formula_weight         246.26
_space_group_crystal_system      triclinic
_space_group_IT_number           2
_space_group_name_Hall           '-P 1'
_space_group_name_H-M_alt        'P -1'
_symmetry_space_group_name_Hall  '-P 1'
_symmetry_space_group_name_H-M   'P -1'
_atom_sites_solution_hydrogens   mixed
_atom_sites_solution_primary     difmap
_atom_sites_solution_secondary   difmap
_audit_creation_method           SHELXL-2014/7
_audit_update_record
;
2017-03-10 deposited with the CCDC.
2017-04-27 downloaded from the CCDC.
;
_cell_angle_alpha                107.090(2)
_cell_angle_beta                 109.747(2)
_cell_angle_gamma                94.640(3)
_cell_formula_units_Z            2
_cell_length_a                   8.7022(12)
_cell_length_b                   8.7472(12)
_cell_length_c                   9.3558(13)
_cell_measurement_reflns_used    3665
_cell_measurement_temperature    296(2)
_cell_measurement_theta_max      31.77
_cell_measurement_theta_min      2.46
_cell_volume                     627.70(15)
_computing_cell_refinement       'Bruker SAINT'
_computing_data_collection       'Bruker APEX2'
_computing_data_reduction        'Bruker SAINT'
_computing_structure_refinement  'SHELXL-2014/7 (Sheldrick, 2014)'
_computing_structure_solution    'SHELXS-97 (Sheldrick 2008)'
_diffrn_ambient_temperature      296(2)
_diffrn_measured_fraction_theta_full 0.739
_diffrn_measured_fraction_theta_max 0.733
_diffrn_measurement_device_type  'Bruker APEX-II CCD'
_diffrn_measurement_method       '\f and \w scans'
_diffrn_radiation_type           MoK\a
_diffrn_radiation_wavelength     0.71073
_diffrn_reflns_av_R_equivalents  0.0585
_diffrn_reflns_av_unetI/netI     0.0801
_diffrn_reflns_Laue_measured_fraction_full 0.739
_diffrn_reflns_Laue_measured_fraction_max 0.733
_diffrn_reflns_limit_h_max       10
_diffrn_reflns_limit_h_min       -10
_diffrn_reflns_limit_k_max       10
_diffrn_reflns_limit_k_min       -10
_diffrn_reflns_limit_l_max       11
_diffrn_reflns_limit_l_min       -11
_diffrn_reflns_number            3218
_diffrn_reflns_point_group_measured_fraction_full 0.739
_diffrn_reflns_point_group_measured_fraction_max 0.733
_diffrn_reflns_theta_full        25.242
_diffrn_reflns_theta_max         25.994
_diffrn_reflns_theta_min         2.462
_exptl_absorpt_coefficient_mu    0.094
_exptl_absorpt_correction_T_max  0.7463
_exptl_absorpt_correction_T_min  0.3309
_exptl_absorpt_correction_type   multi-scan
_exptl_crystal_colour            colourless
_exptl_crystal_density_diffrn    1.303
_exptl_crystal_description       prism
_exptl_crystal_F_000             260
_exptl_crystal_size_max          0.270
_exptl_crystal_size_mid          0.260
_exptl_crystal_size_min          0.230
_refine_diff_density_max         0.609
_refine_diff_density_min         -0.720
_refine_diff_density_rms         0.120
_refine_ls_extinction_method     none
_refine_ls_goodness_of_fit_ref   1.074
_refine_ls_hydrogen_treatment    mixed
_refine_ls_matrix_type           full
_refine_ls_number_parameters     169
_refine_ls_number_reflns         1811
_refine_ls_number_restraints     48
_refine_ls_restrained_S_all      1.086
_refine_ls_R_factor_all          0.2170
_refine_ls_R_factor_gt           0.2042
_refine_ls_shift/su_max          0.000
_refine_ls_shift/su_mean         0.000
_refine_ls_structure_factor_coef Fsqd
_refine_ls_weighting_details
'w=1/[\s^2^(Fo^2^)+(0.7000P)^2^] where P=(Fo^2^+2Fc^2^)/3'
_refine_ls_weighting_scheme      calc
_refine_ls_wR_factor_gt          0.6328
_refine_ls_wR_factor_ref         0.6554
_reflns_Friedel_coverage         0.000
_reflns_number_gt                1305
_reflns_number_total             1811
_reflns_threshold_expression     'I > 2\s(I)'
_cod_data_source_file            c7cc01898c2.cif
_cod_data_source_block           a_a
_cod_database_code               7120038
_shelx_shelxl_version_number     2014/7
_shelx_space_group_comment
;
The symmetry employed for this shelxl refinement is uniquely defined
by the following loop, which should always be used as a source of
symmetry information in preference to the above space-group names.
They are only intended as comments.
;
_shelx_estimated_absorpt_t_min   0.975
_shelx_estimated_absorpt_t_max   0.979
_shelx_res_file
;

    a_a.res created by SHELXL-2014/7


TITL A_a.res in P-1
REM Old TITL A in P-1

REM SHELXT solution in P-1
REM R1 0.347,  Rweak 0.369,  Alpha 0.192,  Orientation as input
REM Formula found by SHELXT:  C13 N O4

CELL  0.71073   8.7022   8.7472   9.3558  107.090  109.747   94.640
ZERR    2.000   0.0012   0.0012   0.0013    0.002    0.002    0.003
LATT  1
SFAC C H N O
UNIT 26 28 4 6
TEMP 23.00
SIZE 0.23 0.27 0.26
L.S. 39
BOND $H
HTAB
ACTA
CONF
OMIT 0 52
ISOR 0.005 C5 C6 C7
ISOR 0.005 C9 C10 C11 C12 C13
HTAB N2 O1
HTAB C1 O2

FMAP 2
PLAN 20
WGHT    0.700000
FVAR       1.79825   0.37597
O1    4    0.357117    0.821137    0.461463    11.00000    0.04208    0.05424 =
         0.09114    0.01340    0.03740    0.01216
O2    4    0.126067    0.331621    0.308402    11.00000    0.05213    0.07199 =
         0.13021    0.01244    0.05780   -0.00047
O3    4    0.349037    0.264195    0.253192    11.00000    0.04345    0.04722 =
         0.09681    0.00821    0.03932    0.00256
N1    3    0.467595    0.557329    0.295384    11.00000    0.02813    0.04041 =
         0.05350    0.00433    0.01242    0.00214
N2    3    0.553206    0.700296    0.322545    11.00000    0.02627    0.04314 =
         0.04940    0.00981    0.00980    0.00833
H2    2    0.521826    0.782154    0.377044    11.00000    0.03529
C1    1    0.178456    0.655674    0.522349    11.00000    0.05463    0.04968 =
         0.07537    0.01615    0.03871    0.00196
AFIX 137
H1A   2    0.092880    0.561539    0.450515    11.00000   -1.50000
H1B   2    0.128881    0.749572    0.544605    11.00000   -1.50000
H1C   2    0.236833    0.637984    0.621529    11.00000   -1.50000
AFIX   0
C2    1    0.299069    0.683837    0.444426    11.00000    0.02585    0.04866 =
         0.05126    0.01394    0.01158    0.01190
C3    1    0.344281    0.540530    0.342992    11.00000    0.03401    0.05197 =
         0.05314    0.02245    0.01947    0.01384
C4    1    0.262462    0.373746    0.301998    11.00000    0.03131    0.05074 =
         0.05642    0.00481    0.01379    0.00047
C5    1    0.266727    0.091885    0.202874    11.00000    0.05924    0.05732 =
         0.07134    0.01540    0.02430    0.00505
AFIX  23
H5A   2    0.261679    0.066009    0.295351    11.00000   -1.20000
H5B   2    0.154156    0.071618    0.124190    11.00000   -1.20000
AFIX   0
C6    1    0.366523   -0.006150    0.132417    11.00000    0.07842    0.07504 =
         0.08883    0.01658    0.02913    0.01631
AFIX  43
H6A   2    0.481573    0.019942    0.187305    11.00000   -1.20000
AFIX   0
C7    1    0.304383   -0.128861   -0.003507    11.00000    0.07771    0.06633 =
         0.10004    0.00491    0.03938    0.01123
AFIX  93
H7A   2    0.189768   -0.157771   -0.061040    11.00000   -1.20000
H7B   2    0.374686   -0.187457   -0.042901    11.00000   -1.20000
AFIX   0
C8    1    0.687094    0.715532    0.268915    11.00000    0.03381    0.04473 =
         0.04723    0.01186    0.01623    0.01155
C9    1    0.708937    0.574733    0.159941    11.00000    0.05097    0.05574 =
         0.06367    0.00890    0.02810    0.01267
AFIX  43
H9A   2    0.640099    0.473319    0.125389    11.00000   -1.20000
AFIX   0
C10   1    0.835760    0.595739    0.108614    11.00000    0.05944    0.06898 =
         0.06081    0.01276    0.03120    0.01605
AFIX  43
H10A  2    0.855793    0.505280    0.040351    11.00000   -1.20000
AFIX   0
C11   1    0.935567    0.746496    0.154320    11.00000    0.05543    0.07228 =
         0.07025    0.01608    0.03412    0.00239
AFIX  43
H11A  2    1.018314    0.758716    0.114177    11.00000   -1.20000
AFIX   0
C12   1    0.908530    0.881639    0.263721    11.00000    0.06007    0.06493 =
         0.08117    0.01779    0.03104    0.00647
AFIX  43
H12A  2    0.977995    0.983100    0.300380    11.00000   -1.20000
AFIX   0
C13   1    0.782221    0.865132    0.316022    11.00000    0.04367    0.04986 =
         0.06315    0.01320    0.02429    0.00812
AFIX  43
H13A  2    0.761405    0.955680    0.383454    11.00000   -1.20000

AFIX   0
HKLF 4

REM  A_a.res in P-1
REM R1 =  0.2042 for    1305 Fo > 4sig(Fo)  and  0.2170 for all    1811 data
REM    169 parameters refined using     48 restraints

END

WGHT      0.2000      0.0000

REM Instructions for potential hydrogen bonds
HTAB N2 O1
HTAB C1 O2
EQIV $1 -x+1, -y+2, -z+1
HTAB C13 O1_$1

REM Highest difference peak  0.609,  deepest hole -0.720,  1-sigma level  0.120
Q1    1   0.6287  0.7254  0.2315  11.00000  0.05    0.61
Q2    1   0.3928  0.6013  0.2639  11.00000  0.05    0.56
Q3    1   0.4049  0.5212  0.3825  11.00000  0.05    0.54
Q4    1   0.2133  0.3159  0.3883  11.00000  0.05    0.52
Q5    1   0.3028  0.2830  0.2411  11.00000  0.05    0.48
Q6    1   0.4553  0.8100  0.5130  11.00000  0.05    0.48
Q7    1   0.3118  0.5808  0.3536  11.00000  0.05    0.44
Q8    1   0.9825  0.7591  0.2146  11.00000  0.05    0.43
Q9    1   0.9914  0.6608  0.1980  11.00000  0.05    0.41
Q10   1   0.6245  0.6396  0.3610  11.00000  0.05    0.41
Q11   1   0.4514  0.7229  0.2590  11.00000  0.05    0.41
Q12   1   0.5353  0.5044  0.3006  11.00000  0.05    0.41
Q13   1   0.1104  0.3519  0.2406  11.00000  0.05    0.40
Q14   1   0.2959  0.3325  0.3289  11.00000  0.05    0.39
Q15   1   0.2279  0.7959  0.4036  11.00000  0.05    0.38
Q16   1   0.4333  0.0174  0.0561  11.00000  0.05    0.37
Q17   1   0.5247  0.4580  0.2262  11.00000  0.05    0.37
Q18   1   0.1951  0.6934  0.4053  11.00000  0.05    0.36
Q19   1   0.3445  0.0801  0.2631  11.00000  0.05    0.36
Q20   1   0.8493  0.8459  0.3377  11.00000  0.05    0.35
;
_shelx_res_checksum              47570
loop_
_space_group_symop_operation_xyz
'x, y, z'
'-x, -y, -z'
loop_
_atom_site_label
_atom_site_type_symbol
_atom_site_fract_x
_atom_site_fract_y
_atom_site_fract_z
_atom_site_U_iso_or_equiv
_atom_site_adp_type
_atom_site_occupancy
_atom_site_site_symmetry_order
_atom_site_calc_flag
_atom_site_refinement_flags_posn
_atom_site_refinement_flags_adp
O1 O 0.3571(8) 0.8211(7) 0.4615(8) 0.062(2) Uani 1 1 d . .
O2 O 0.1261(10) 0.3316(8) 0.3084(11) 0.084(3) Uani 1 1 d . .
O3 O 0.3490(8) 0.2642(6) 0.2532(8) 0.063(2) Uani 1 1 d . .
N1 N 0.4676(8) 0.5573(6) 0.2954(7) 0.0446(19) Uani 1 1 d . .
N2 N 0.5532(9) 0.7003(7) 0.3225(7) 0.0422(19) Uani 1 1 d . .
H2 H 0.522(11) 0.782(8) 0.377(9) 0.035(15) Uiso 1 1 d . .
C1 C 0.1785(12) 0.6557(8) 0.5223(10) 0.058(3) Uani 1 1 d . .
H1A H 0.0929 0.5615 0.4505 0.087 Uiso 1 1 calc R U
H1B H 0.1289 0.7496 0.5446 0.087 Uiso 1 1 calc R U
H1C H 0.2368 0.6380 0.6215 0.087 Uiso 1 1 calc R U
C2 C 0.2991(11) 0.6838(8) 0.4444(8) 0.043(2) Uani 1 1 d . .
C3 C 0.3443(10) 0.5405(8) 0.3430(8) 0.044(2) Uani 1 1 d . .
C4 C 0.2625(11) 0.3737(9) 0.3020(10) 0.051(2) Uani 1 1 d . .
C5 C 0.2667(15) 0.0919(10) 0.2029(12) 0.065(3) Uani 1 1 d . U
H5A H 0.2617 0.0660 0.2954 0.078 Uiso 1 1 calc R U
H5B H 0.1542 0.0716 0.1242 0.078 Uiso 1 1 calc R U
C6 C 0.3665(19) -0.0062(13) 0.1324(14) 0.084(3) Uani 1 1 d . U
H6A H 0.4816 0.0199 0.1873 0.101 Uiso 1 1 calc R U
C7 C 0.3044(17) -0.1289(11) -0.0035(14) 0.086(3) Uani 1 1 d . U
H7A H 0.1898 -0.1578 -0.0610 0.103 Uiso 1 1 calc R U
H7B H 0.3747 -0.1875 -0.0429 0.103 Uiso 1 1 calc R U
C8 C 0.6871(11) 0.7155(7) 0.2689(8) 0.042(2) Uani 1 1 d . .
C9 C 0.7089(13) 0.5747(9) 0.1599(10) 0.058(2) Uani 1 1 d . U
H9A H 0.6401 0.4733 0.1254 0.069 Uiso 1 1 calc R U
C10 C 0.8358(14) 0.5957(10) 0.1086(10) 0.063(2) Uani 1 1 d . U
H10A H 0.8558 0.5053 0.0404 0.075 Uiso 1 1 calc R U
C11 C 0.9356(14) 0.7465(11) 0.1543(11) 0.066(3) Uani 1 1 d . U
H11A H 1.0183 0.7587 0.1142 0.079 Uiso 1 1 calc R U
C12 C 0.9085(14) 0.8816(11) 0.2637(13) 0.070(3) Uani 1 1 d . U
H12A H 0.9780 0.9831 0.3004 0.084 Uiso 1 1 calc R U
C13 C 0.7822(12) 0.8651(9) 0.3160(10) 0.053(2) Uani 1 1 d . U
H13A H 0.7614 0.9557 0.3835 0.063 Uiso 1 1 calc R U
loop_
_atom_site_aniso_label
_atom_site_aniso_U_11
_atom_site_aniso_U_22
_atom_site_aniso_U_33
_atom_site_aniso_U_23
_atom_site_aniso_U_13
_atom_site_aniso_U_12
O1 0.042(4) 0.054(3) 0.091(5) 0.013(3) 0.037(4) 0.012(3)
O2 0.052(5) 0.072(4) 0.130(7) 0.012(4) 0.058(6) 0.000(3)
O3 0.043(4) 0.047(3) 0.097(5) 0.008(3) 0.039(4) 0.003(3)
N1 0.028(4) 0.040(3) 0.054(4) 0.004(2) 0.012(4) 0.002(3)
N2 0.026(4) 0.043(3) 0.049(3) 0.010(3) 0.010(3) 0.008(3)
C1 0.055(6) 0.050(4) 0.075(5) 0.016(4) 0.039(5) 0.002(4)
C2 0.026(5) 0.049(4) 0.051(4) 0.014(3) 0.012(4) 0.012(3)
C3 0.034(5) 0.052(4) 0.053(4) 0.022(3) 0.019(4) 0.014(4)
C4 0.031(5) 0.051(4) 0.056(4) 0.005(3) 0.014(4) 0.000(3)
C5 0.059(5) 0.057(4) 0.071(4) 0.015(3) 0.024(4) 0.005(3)
C6 0.078(5) 0.075(4) 0.089(5) 0.017(3) 0.029(4) 0.016(4)
C7 0.078(8) 0.066(5) 0.100(7) 0.005(4) 0.039(6) 0.011(5)
C8 0.034(5) 0.045(3) 0.047(4) 0.012(3) 0.016(4) 0.012(3)
C9 0.051(5) 0.056(4) 0.064(4) 0.009(3) 0.028(4) 0.013(3)
C10 0.059(5) 0.069(4) 0.061(4) 0.013(3) 0.031(4) 0.016(3)
C11 0.055(5) 0.072(4) 0.070(4) 0.016(3) 0.034(4) 0.002(3)
C12 0.060(5) 0.065(4) 0.081(4) 0.018(3) 0.031(4) 0.006(3)
C13 0.044(4) 0.050(3) 0.063(4) 0.013(3) 0.024(3) 0.008(3)
loop_
_atom_type_symbol
_atom_type_description
_atom_type_scat_dispersion_real
_atom_type_scat_dispersion_imag
_atom_type_scat_source
C C 0.0033 0.0016 'International Tables Vol C Tables 4.2.6.8 and 6.1.1.4'
H H 0.0000 0.0000 'International Tables Vol C Tables 4.2.6.8 and 6.1.1.4'
N N 0.0061 0.0033 'International Tables Vol C Tables 4.2.6.8 and 6.1.1.4'
O O 0.0106 0.0060 'International Tables Vol C Tables 4.2.6.8 and 6.1.1.4'
loop_
_geom_angle_atom_site_label_1
_geom_angle_atom_site_label_2
_geom_angle_atom_site_label_3
_geom_angle
C4 O3 C5 114.8(6)
C3 N1 N2 122.7(6)
N1 N2 C8 121.7(6)
N1 N2 H2 114(5)
C8 N2 H2 125(5)
C2 C1 H1A 109.5
C2 C1 H1B 109.5
H1A C1 H1B 109.5
C2 C1 H1C 109.5
H1A C1 H1C 109.5
H1B C1 H1C 109.5
O1 C2 C3 120.1(7)
O1 C2 C1 120.0(6)
C3 C2 C1 119.8(6)
N1 C3 C4 115.5(6)
N1 C3 C2 122.1(6)
C4 C3 C2 122.2(7)
O2 C4 O3 121.6(7)
O2 C4 C3 125.5(7)
O3 C4 C3 112.9(7)
C6 C5 O3 106.4(8)
C6 C5 H5A 110.4
O3 C5 H5A 110.4
C6 C5 H5B 110.4
O3 C5 H5B 110.4
H5A C5 H5B 108.6
C7 C6 C5 123.8(13)
C7 C6 H6A 118.1
C5 C6 H6A 118.1
C6 C7 H7A 120.0
C6 C7 H7B 120.0
H7A C7 H7B 120.0
C13 C8 C9 122.5(7)
C13 C8 N2 118.7(6)
C9 C8 N2 118.7(7)
C10 C9 C8 116.7(7)
C10 C9 H9A 121.6
C8 C9 H9A 121.6
C9 C10 C11 122.4(7)
C9 C10 H10A 118.8
C11 C10 H10A 118.8
C10 C11 C12 118.2(8)
C10 C11 H11A 120.9
C12 C11 H11A 120.9
C13 C12 C11 120.8(9)
C13 C12 H12A 119.6
C11 C12 H12A 119.6
C8 C13 C12 119.3(7)
C8 C13 H13A 120.4
C12 C13 H13A 120.4
loop_
_geom_bond_atom_site_label_1
_geom_bond_atom_site_label_2
_geom_bond_distance
O1 C2 1.207(8)
O2 C4 1.240(10)
O3 C4 1.337(10)
O3 C5 1.479(10)
N1 C3 1.307(10)
N1 N2 1.311(8)
N2 C8 1.427(11)
N2 H2 0.87(7)
C1 C2 1.508(10)
C1 H1A 0.9600
C1 H1B 0.9600
C1 H1C 0.9600
C2 C3 1.503(9)
C3 C4 1.449(9)
C5 C6 1.449(14)
C5 H5A 0.9700
C5 H5B 0.9700
C6 C7 1.304(16)
C6 H6A 0.9300
C7 H7A 0.9300
C7 H7B 0.9300
C8 C13 1.353(10)
C8 C9 1.422(9)
C9 C10 1.364(13)
C9 H9A 0.9300
C10 C11 1.381(13)
C10 H10A 0.9300
C11 C12 1.413(14)
C11 H11A 0.9300
C12 C13 1.359(13)
C12 H12A 0.9300
C13 H13A 0.9300
loop_
_geom_hbond_atom_site_label_D
_geom_hbond_atom_site_label_H
_geom_hbond_atom_site_label_A
_geom_hbond_distance_DH
_geom_hbond_distance_HA
_geom_hbond_distance_DA
_geom_hbond_angle_DHA
N2 H2 O1 0.87(7) 1.87(8) 2.589(8) 139(7)
C1 H1A O2 0.96 2.16 2.844(9) 126.8
loop_
_geom_torsion_atom_site_label_1
_geom_torsion_atom_site_label_2
_geom_torsion_atom_site_label_3
_geom_torsion_atom_site_label_4
_geom_torsion
C3 N1 N2 C8 -179.8(6)
N2 N1 C3 C4 179.6(7)
N2 N1 C3 C2 -4.9(11)
O1 C2 C3 N1 12.8(12)
C1 C2 C3 N1 -168.4(7)
O1 C2 C3 C4 -172.0(7)
C1 C2 C3 C4 6.8(13)
C5 O3 C4 O2 2.1(13)
C5 O3 C4 C3 -177.3(6)
N1 C3 C4 O2 -165.8(8)
C2 C3 C4 O2 18.8(14)
N1 C3 C4 O3 13.6(11)
C2 C3 C4 O3 -161.8(7)
C4 O3 C5 C6 171.7(9)
O3 C5 C6 C7 -134.0(10)
N1 N2 C8 C13 -172.8(7)
N1 N2 C8 C9 11.1(11)
C13 C8 C9 C10 2.4(14)
N2 C8 C9 C10 178.4(6)
C8 C9 C10 C11 -2.3(14)
C9 C10 C11 C12 2.8(15)
C10 C11 C12 C13 -3.3(16)
C9 C8 C13 C12 -3.0(14)
N2 C8 C13 C12 -179.0(7)
C11 C12 C13 C8 3.4(16)
