#------------------------------------------------------------------------------
#$Date: 2017-05-10 03:58:37 +0300 (Wed, 10 May 2017) $
#$Revision: 196603 $
#$URL: file:///home/coder/svn-repositories/cod/cif/7/12/01/7120102.cif $
#------------------------------------------------------------------------------
#
# This file is available in the Crystallography Open Database (COD),
# http://www.crystallography.net/
#
# All data on this site have been placed in the public domain by the
# contributors.
#
data_7120102
loop_
_publ_author_name
'Seki, Tomohiro'
'Kobayashi, Koh'
'Ito, Hajime'
_publ_section_title
;
 Low-Temperature-Selective Luminescent Mechanochromism of a Thienyl Gold
 Isocyanide Complex
;
_journal_name_full               'Chem. Commun.'
_journal_paper_doi               10.1039/C7CC03190D
_journal_year                    2017
_chemical_formula_moiety         'C11 H8 Au N S'
_chemical_formula_sum            'C11 H8 Au N S'
_chemical_formula_weight         383.22
_chemical_name_systematic        1R
_space_group_crystal_system      triclinic
_space_group_IT_number           2
_space_group_name_Hall           '-P 1'
_space_group_name_H-M_alt        'P -1'
_symmetry_space_group_name_Hall  '-P 1'
_symmetry_space_group_name_H-M   'P -1'
_atom_sites_solution_hydrogens   geom
_atom_sites_solution_primary     direct
_atom_sites_solution_secondary   difmap
_audit_update_record
;
2017-03-14 deposited with the CCDC.
2017-05-09 downloaded from the CCDC.
;
_cell_angle_alpha                102.488(10)
_cell_angle_beta                 99.645(9)
_cell_angle_gamma                96.731(9)
_cell_formula_units_Z            2
_cell_length_a                   5.850(3)
_cell_length_b                   8.472(4)
_cell_length_c                   11.703(6)
_cell_measurement_reflns_used    1968
_cell_measurement_temperature    298
_cell_measurement_theta_max      27.47
_cell_measurement_theta_min      3.42
_cell_volume                     551.1(5)
_computing_cell_refinement       'RAPID AUTO'
_computing_data_collection       'RAPID AUTO (Rigaku, ????)'
_computing_data_reduction        'RAPID AUTO'
_computing_molecular_graphics    'CrystalStructure 4.2.3'
_computing_publication_material  'CrystalStructure 4.2.3 (Rigaku, 2016)'
_computing_structure_refinement  'SHELXL Version 2014/7 (Sheldrick, 2008)'
_computing_structure_solution    'Superflip (Palatinus, et al., 2007)'
_diffrn_ambient_temperature      298
_diffrn_detector_area_resol_mean 10.000
_diffrn_measured_fraction_theta_full 0.997
_diffrn_measured_fraction_theta_max 0.986
_diffrn_measurement_device_type  'Rigaku R-AXIS RAPID'
_diffrn_measurement_method       \w
_diffrn_radiation_type           'Mo K\a'
_diffrn_radiation_wavelength     0.71075
_diffrn_reflns_av_R_equivalents  0.1115
_diffrn_reflns_Laue_measured_fraction_full 0.997
_diffrn_reflns_Laue_measured_fraction_max 0.986
_diffrn_reflns_limit_h_max       7
_diffrn_reflns_limit_h_min       -7
_diffrn_reflns_limit_k_max       8
_diffrn_reflns_limit_k_min       -11
_diffrn_reflns_limit_l_max       15
_diffrn_reflns_limit_l_min       -15
_diffrn_reflns_number            5278
_diffrn_reflns_point_group_measured_fraction_full 0.997
_diffrn_reflns_point_group_measured_fraction_max 0.986
_diffrn_reflns_theta_full        25.242
_diffrn_reflns_theta_max         27.484
_diffrn_reflns_theta_min         3.424
_diffrn_standards_number         0
_exptl_absorpt_coefficient_mu    13.540
_exptl_absorpt_correction_T_max  0.816
_exptl_absorpt_correction_T_min  0.076
_exptl_absorpt_correction_type   multi-scan
_exptl_absorpt_process_details   'ABSCOR (Rigaku, 1995)'
_exptl_crystal_colour            colorless
_exptl_crystal_density_diffrn    2.309
_exptl_crystal_density_method    'not measured'
_exptl_crystal_description       platelet
_exptl_crystal_F_000             352.00
_exptl_crystal_preparation       ', Luminescent'
_exptl_crystal_size_max          0.114
_exptl_crystal_size_mid          0.068
_exptl_crystal_size_min          0.015
_refine_diff_density_max         0.77
_refine_diff_density_min         -1.15
_refine_ls_extinction_method     none
_refine_ls_goodness_of_fit_ref   0.978
_refine_ls_hydrogen_treatment    constr
_refine_ls_number_parameters     164
_refine_ls_number_reflns         2496
_refine_ls_number_restraints     188
_refine_ls_R_factor_all          0.1752
_refine_ls_R_factor_gt           0.0725
_refine_ls_shift/su_max          0.000
_refine_ls_structure_factor_coef Fsqd
_refine_ls_weighting_details
'w = 1/[\s^2^(Fo^2^)+(0.0617P)^2^] where P=(Fo^2^+2Fc^2^)/3'
_refine_ls_weighting_scheme      calc
_refine_ls_wR_factor_gt          0.1296
_refine_ls_wR_factor_ref         0.1666
_reflns_Friedel_coverage         0.000
_reflns_number_gt                1144
_reflns_number_total             2496
_reflns_threshold_expression     F^2^>2.0\s(F^2^)
_cod_data_source_file            c7cc03190d2.cif
_cod_data_source_block           KBY-108-02
_cod_database_code               7120102
_shelx_res_file
;

    shelxl.res created by SHELXL-2014/7


TITL KBY-108-02
CELL  0.71075 5.84960 8.47240 11.70320 102.488 99.645 96.731
ZERR  2 0.00300 0.00410 0.00570 0.010 0.009 0.009
LATT 1
SFAC C H AU N S
UNIT 22 16 2 2 2
DFIX 1.73 S3 C2
DFIX 1.7 S3 C4 S3B C4B
DFIX 1.35 C5B C4B C5 C4
DFIX 1.39 C6B C5B C6 C5
DFIX 1.37 C6 C2
SIMU C2 C4 C5 C6 S3B C4B C5B C6B S3
RIGU C2 C4 C5 C6 S3B C4B C5B C6B S3

L.S. 35
PLAN -10
SIZE 0.114 0.068 0.015
TEMP 25
WPDB -2
BOND $H
CONF
LIST 4
REM HTAB
fmap 2
acta
SHEL 99999.000000 0.000000

FMAP 2

HTAB
WGHT    0.061700
FVAR       0.80649   0.57281
AU1   3    0.967600    0.732120    0.611265    11.00000    0.06763    0.08173 =
         0.07445    0.02413    0.00803    0.00094
N8    4    0.577529    0.800147    0.423943    11.00000    0.08287    0.06743 =
         0.07084    0.01959    0.01839    0.01101
C7    1    0.728352    0.778449    0.493313    11.00000    0.09202    0.07447 =
         0.07378    0.03406   -0.00478    0.00865
C9    1    0.385501    0.818683    0.334594    11.00000    0.07847    0.04543 =
         0.06445    0.01392    0.02100    0.01618
C10   1    0.175989    0.717829    0.309217    11.00000    0.07540    0.04055 =
         0.10304    0.01097    0.01375   -0.01746
AFIX  43
H10   2    0.152649    0.632340    0.346348    11.00000   -1.20000
AFIX   0
C11   1    0.002784    0.746438    0.227975    11.00000    0.05052    0.09435 =
         0.11461    0.02867    0.00365    0.00385
AFIX  43
H11   2   -0.146007    0.685502    0.215511    11.00000   -1.20000
AFIX   0
C12   1    0.035474    0.860992    0.162892    11.00000    0.08934    0.08243 =
         0.05753    0.01192    0.01800    0.01607
AFIX  43
H12   2   -0.083587    0.872815    0.103327    11.00000   -1.20000
AFIX   0
C13   1    0.252385    0.957385    0.189880    11.00000    0.08536    0.06433 =
         0.09942    0.02421    0.02819   -0.00088
AFIX  43
H13   2    0.276859    1.040758    0.150914    11.00000   -1.20000
AFIX   0
C14   1    0.434829    0.934693    0.272715    11.00000    0.04692    0.06206 =
         0.09790    0.02284   -0.01413   -0.01910
AFIX  43
H14   2    0.584257    0.995063    0.286082    11.00000   -1.20000
AFIX   0
C2    1    1.209394    0.685921    0.732311    11.00000    0.05306    0.07535 =
         0.08845    0.02686    0.01916    0.00336
PART 1
S3    5    1.191069    0.740718    0.877453    21.00000    0.06917    0.10045 =
         0.08996    0.02492    0.01685    0.01725
C4    1    1.444578    0.670085    0.922014    21.00000    0.06384    0.09630 =
         0.09668    0.02902    0.01536    0.01671
AFIX  43
H4    2    1.508030    0.677187    1.001665    21.00000   -1.20000
AFIX   0
C5    1    1.544531    0.603014    0.831170    21.00000    0.05919    0.08367 =
         0.10320    0.02622    0.01879    0.00512
AFIX  43
H5    2    1.686754    0.563558    0.838440    21.00000   -1.20000
AFIX   0
C6    1    1.395766    0.603259    0.723506    21.00000    0.05501    0.07640 =
         0.10034    0.02277    0.01971    0.00266
AFIX  43
H6    2    1.422694    0.549865    0.649914    21.00000   -1.20000
AFIX   0
PART 0
PART 2
S3B   5    1.450029    0.603990    0.715811   -21.00000    0.05853    0.06773 =
         0.10075    0.02188    0.02712    0.00097
C4B   1    1.538798    0.617616    0.865550   -21.00000    0.05152    0.08158 =
         0.09634    0.02190    0.02075    0.00915
AFIX  43
H4B   2    1.674433    0.578395    0.892870   -21.00000   -1.20000
AFIX   0
C5B   1    1.411068    0.685471    0.943574   -21.00000    0.05857    0.09759 =
         0.09247    0.02848    0.02003    0.02341
AFIX  43
H5B   2    1.431991    0.697686    1.025738   -21.00000   -1.20000
AFIX   0
C6B   1    1.238712    0.731972    0.865471   -21.00000    0.05391    0.09044 =
         0.08972    0.02599    0.02161    0.01898
AFIX  43
H6B   2    1.135588    0.795550    0.898174   -21.00000   -1.20000
AFIX   0
HKLF 4

REM  KBY-108-02
REM R1 =  0.0725 for    1144 Fo > 4sig(Fo)  and  0.1752 for all    2496 data
REM    164 parameters refined using    188 restraints

END

WGHT      0.0615      0.0000

REM No hydrogen bonds found for HTAB generation

REM Highest difference peak  0.772,  deepest hole -1.150,  1-sigma level  0.200
Q1    1   0.8842  0.5276  0.5244  11.00000  0.05    0.77
Q2    1   0.7644  0.6427  0.4865  11.00000  0.05    0.72
Q3    1   0.9352  0.6854  0.4435  11.00000  0.05    0.68
Q4    1   1.0217  0.7598  0.7606  11.00000  0.05    0.67
Q5    1   0.6280  0.5369  0.4554  11.00000  0.05    0.66
Q6    1   1.1670  0.8266  0.7361  11.00000  0.05    0.66
Q7    1   0.7950  0.7205  0.7028  11.00000  0.05    0.64
Q8    1  -0.1944  1.0240  0.1508  11.00000  0.05    0.63
Q9    1   0.2505  0.8061  0.3740  11.00000  0.05    0.63
Q10   1   0.5436  0.5650  0.5851  11.00000  0.05    0.63
;
_shelx_res_checksum              17632
loop_
_space_group_symop_id
_space_group_symop_operation_xyz
1 +X,+Y,+Z
2 -X,-Y,-Z
loop_
_atom_site_label
_atom_site_type_symbol
_atom_site_fract_x
_atom_site_fract_y
_atom_site_fract_z
_atom_site_U_iso_or_equiv
_atom_site_adp_type
_atom_site_occupancy
_atom_site_site_symmetry_order
_atom_site_calc_flag
_atom_site_refinement_flags_posn
_atom_site_refinement_flags_adp
_atom_site_refinement_flags_occupancy
_atom_site_disorder_assembly
_atom_site_disorder_group
Au1 Au 0.96760(12) 0.73212(10) 0.61127(7) 0.0754(4) Uani 1 1 d . . . . .
N8 N 0.578(3) 0.8001(17) 0.4239(14) 0.073(4) Uani 1 1 d . . . . .
C7 C 0.728(4) 0.778(2) 0.4933(18) 0.080(6) Uani 1 1 d . . . . .
C9 C 0.386(3) 0.8187(19) 0.3346(15) 0.061(4) Uani 1 1 d . . . . .
C10 C 0.176(3) 0.7178(19) 0.3092(18) 0.077(5) Uani 1 1 d . . . . .
H10 H 0.1526 0.6323 0.3463 0.092 Uiso 1 1 calc R U . . .
C11 C 0.003(3) 0.746(3) 0.228(2) 0.088(6) Uani 1 1 d . . . . .
H11 H -0.1460 0.6855 0.2155 0.106 Uiso 1 1 calc R U . . .
C12 C 0.035(3) 0.861(2) 0.1629(16) 0.077(5) Uani 1 1 d . . . . .
H12 H -0.0836 0.8728 0.1033 0.092 Uiso 1 1 calc R U . . .
C13 C 0.252(3) 0.957(2) 0.1899(19) 0.082(5) Uani 1 1 d . . . . .
H13 H 0.2769 1.0408 0.1509 0.099 Uiso 1 1 calc R U . . .
C14 C 0.435(3) 0.935(2) 0.2727(17) 0.074(5) Uani 1 1 d . . . . .
H14 H 0.5843 0.9951 0.2861 0.089 Uiso 1 1 calc R U . . .
C2 C 1.209(3) 0.686(2) 0.7323(14) 0.071(4) Uani 1 1 d D U . . .
S3 S 1.191(3) 0.741(3) 0.8775(13) 0.086(4) Uani 0.573(16) 1 d D U P A 1
C4 C 1.445(7) 0.670(8) 0.922(4) 0.084(7) Uani 0.573(16) 1 d D U P A 1
H4 H 1.5080 0.6772 1.0017 0.101 Uiso 0.573(16) 1 calc R U P A 1
C5 C 1.545(9) 0.603(7) 0.831(3) 0.082(6) Uani 0.573(16) 1 d D U P A 1
H5 H 1.6868 0.5636 0.8384 0.098 Uiso 0.573(16) 1 calc R U P A 1
C6 C 1.396(8) 0.603(8) 0.724(5) 0.077(8) Uani 0.573(16) 1 d D U P A 1
H6 H 1.4227 0.5499 0.6499 0.093 Uiso 0.573(16) 1 calc R U P A 1
S3B S 1.450(3) 0.604(3) 0.7158(17) 0.075(4) Uani 0.427(16) 1 d D U P A 2
C4B C 1.539(11) 0.618(9) 0.866(2) 0.076(7) Uani 0.427(16) 1 d D U P A 2
H4B H 1.6744 0.5784 0.8929 0.091 Uiso 0.427(16) 1 calc R U P A 2
C5B C 1.411(10) 0.685(10) 0.944(5) 0.080(7) Uani 0.427(16) 1 d D U P A 2
H5B H 1.4320 0.6977 1.0257 0.097 Uiso 0.427(16) 1 calc R U P A 2
C6B C 1.239(14) 0.732(14) 0.865(7) 0.076(8) Uani 0.427(16) 1 d D U P A 2
H6B H 1.1356 0.7955 0.8982 0.091 Uiso 0.427(16) 1 calc R U P A 2
loop_
_atom_site_aniso_label
_atom_site_aniso_U_11
_atom_site_aniso_U_22
_atom_site_aniso_U_33
_atom_site_aniso_U_23
_atom_site_aniso_U_13
_atom_site_aniso_U_12
Au1 0.0676(5) 0.0817(6) 0.0744(5) 0.0241(4) 0.0080(3) 0.0009(3)
N8 0.083(10) 0.067(10) 0.071(10) 0.020(9) 0.018(8) 0.011(8)
C7 0.092(14) 0.074(13) 0.074(13) 0.034(11) -0.005(11) 0.009(10)
C9 0.078(11) 0.045(9) 0.064(11) 0.014(9) 0.021(9) 0.016(9)
C10 0.075(12) 0.041(9) 0.103(15) 0.011(10) 0.014(11) -0.017(8)
C11 0.051(10) 0.094(15) 0.115(17) 0.029(14) 0.004(11) 0.004(10)
C12 0.089(14) 0.082(13) 0.058(12) 0.012(11) 0.018(10) 0.016(11)
C13 0.085(13) 0.064(12) 0.099(15) 0.024(11) 0.028(12) -0.001(10)
C14 0.047(9) 0.062(10) 0.098(14) 0.023(11) -0.014(9) -0.019(8)
C2 0.053(7) 0.075(9) 0.088(7) 0.027(6) 0.019(5) 0.003(6)
S3 0.069(7) 0.100(7) 0.090(6) 0.025(5) 0.017(5) 0.017(6)
C4 0.064(10) 0.096(14) 0.097(10) 0.029(9) 0.015(8) 0.017(10)
C5 0.059(9) 0.084(13) 0.103(10) 0.026(11) 0.019(9) 0.005(9)
C6 0.055(11) 0.076(15) 0.100(10) 0.023(9) 0.020(8) 0.003(11)
S3B 0.059(8) 0.068(7) 0.101(7) 0.022(5) 0.027(6) 0.001(6)
C4B 0.052(11) 0.082(15) 0.096(9) 0.022(9) 0.021(8) 0.009(10)
C5B 0.059(12) 0.098(15) 0.092(9) 0.028(8) 0.020(8) 0.023(11)
C6B 0.054(13) 0.090(16) 0.090(8) 0.026(8) 0.022(7) 0.019(12)
loop_
_atom_type_symbol
_atom_type_description
_atom_type_scat_dispersion_real
_atom_type_scat_dispersion_imag
_atom_type_scat_source
C C 0.0033 0.0016
;
International Tables for Crystallography
(Vol. C, Tables 4.2.6.8 and 6.1.1.4)
;
H H 0.0000 0.0000
;
International Tables for Crystallography
(Vol. C, Table 6.1.1.4)
;
Au Au -2.0133 8.8022
;
International Tables for Crystallography
(Vol. C, Tables 4.2.6.8 and 6.1.1.4)
;
N N 0.0061 0.0033
;
International Tables for Crystallography
(Vol. C, Tables 4.2.6.8 and 6.1.1.4)
;
S S 0.1246 0.1234
;
International Tables for Crystallography
(Vol. C, Tables 4.2.6.8 and 6.1.1.4)
;
loop_
_geom_angle_atom_site_label_1
_geom_angle_atom_site_label_2
_geom_angle_atom_site_label_3
_geom_angle
C7 Au1 C2 179.5(8)
C7 N8 C9 177.2(17)
N8 C7 Au1 176.6(16)
C10 C9 C14 122.9(16)
C10 C9 N8 120.9(14)
C14 C9 N8 116.0(14)
C11 C10 C9 117.4(16)
C11 C10 H10 121.3
C9 C10 H10 121.3
C10 C11 C12 123.2(18)
C10 C11 H11 118.4
C12 C11 H11 118.4
C11 C12 C13 116.9(17)
C11 C12 H12 121.6
C13 C12 H12 121.6
C12 C13 C14 122.2(16)
C12 C13 H13 118.9
C14 C13 H13 118.9
C9 C14 C13 116.8(15)
C9 C14 H14 121.6
C13 C14 H14 121.6
C6B C2 S3B 101(3)
C6 C2 S3 108(2)
C6 C2 Au1 132(2)
C6B C2 Au1 129(3)
S3B C2 Au1 129.5(11)
S3 C2 Au1 119.2(10)
C2 S3 C4 92.3(18)
C5 C4 S3 114(4)
C5 C4 H4 123.1
S3 C4 H4 123.1
C4 C5 C6 108(5)
C4 C5 H5 126.0
C6 C5 H5 126.0
C2 C6 C5 117(4)
C2 C6 H6 121.6
C5 C6 H6 121.6
C2 S3B C4B 94(2)
C5B C4B S3B 120(5)
C5B C4B H4B 120.1
S3B C4B H4B 120.1
C4B C5B C6B 100(7)
C4B C5B H5B 130.1
C6B C5B H5B 130.1
C5B C6B C2 124(7)
C5B C6B H6B 117.9
C2 C6B H6B 117.9
loop_
_geom_bond_atom_site_label_1
_geom_bond_atom_site_label_2
_geom_bond_distance
Au1 C7 1.932(19)
Au1 C2 1.964(16)
N8 C7 1.15(2)
N8 C9 1.45(2)
C9 C10 1.36(2)
C9 C14 1.37(2)
C10 C11 1.35(2)
C10 H10 0.9300
C11 C12 1.37(3)
C11 H11 0.9300
C12 C13 1.37(3)
C12 H12 0.9300
C13 C14 1.38(2)
C13 H13 0.9300
C14 H14 0.9300
C2 C6 1.37(2)
C2 C6B 1.50(8)
C2 S3B 1.66(2)
C2 S3 1.686(16)
S3 C4 1.707(18)
C4 C5 1.349(19)
C4 H4 0.9300
C5 C6 1.41(2)
C5 H5 0.9300
C6 H6 0.9300
S3B C4B 1.717(19)
C4B C5B 1.35(2)
C4B H4B 0.9300
C5B C6B 1.40(2)
C5B H5B 0.9300
C6B H6B 0.9300
loop_
_geom_torsion_atom_site_label_1
_geom_torsion_atom_site_label_2
_geom_torsion_atom_site_label_3
_geom_torsion_atom_site_label_4
_geom_torsion
C14 C9 C10 C11 -7(3)
N8 C9 C10 C11 177.7(17)
C9 C10 C11 C12 6(3)
C10 C11 C12 C13 -5(3)
C11 C12 C13 C14 4(3)
C10 C9 C14 C13 7(3)
N8 C9 C14 C13 -178.1(16)
C12 C13 C14 C9 -5(3)
C6 C2 S3 C4 5(5)
Au1 C2 S3 C4 -179(3)
C2 S3 C4 C5 -1(5)
S3 C4 C5 C6 -4(6)
S3 C2 C6 C5 -9(7)
Au1 C2 C6 C5 176(4)
C4 C5 C6 C2 8(8)
C6B C2 S3B C4B 5(6)
Au1 C2 S3B C4B 179(3)
C2 S3B C4B C5B -2(6)
S3B C4B C5B C6B -3(9)
C4B C5B C6B C2 8(12)
S3B C2 C6B C5B -9(12)
Au1 C2 C6B C5B 177(7)
