#------------------------------------------------------------------------------
#$Date: 2019-11-17 06:42:24 +0200 (Sun, 17 Nov 2019) $
#$Revision: 228475 $
#$URL: file:///home/coder/svn-repositories/cod/cif/7/12/18/7121877.cif $
#------------------------------------------------------------------------------
#
# This file is available in the Crystallography Open Database (COD),
# http://www.crystallography.net/
#
# All data on this site have been placed in the public domain by the
# contributors.
#
data_7121877
loop_
_publ_author_name
'Donoshita, Masaki'
'Hayashi, Mikihiro'
'Ikeda, Ryuichi'
'Yoshida, Yukihiro'
'Morikawa, Shota'
'Sugimoto, Kunihisa'
'Kitagawa, Hiroshi'
_publ_section_title
;
 Drastic rearrangement of self-assembled hydrogen-bonded tapes in a
 molecular crystal.
;
_journal_issue                   62
_journal_name_full
'Chemical communications (Cambridge, England)'
_journal_page_first              8571
_journal_page_last               8574
_journal_paper_doi               10.1039/c8cc04376k
_journal_volume                  54
_journal_year                    2018
_chemical_formula_moiety         'C14 H16 Cl2 N2 O6'
_chemical_formula_sum            'C14 H16 Cl2 N2 O6'
_chemical_formula_weight         379.20
_space_group_crystal_system      triclinic
_space_group_IT_number           2
_space_group_name_Hall           '-P 1'
_space_group_name_H-M_alt        'P -1'
_symmetry_space_group_name_Hall  '-P 1'
_symmetry_space_group_name_H-M   'P -1'
_atom_sites_solution_hydrogens   geom
_atom_sites_solution_primary     direct
_atom_sites_solution_secondary   difmap
_audit_block_doi                 10.5517/ccdc.csd.cc1zq42x
_audit_update_record
;
2018-04-20 deposited with the CCDC.
2018-06-15 downloaded from the CCDC.
;
_cell_angle_alpha                103.357(7)
_cell_angle_beta                 96.447(7)
_cell_angle_gamma                93.984(7)
_cell_formula_units_Z            1
_cell_length_a                   4.6904(17)
_cell_length_b                   8.921(3)
_cell_length_c                   9.833(3)
_cell_measurement_reflns_used    2561
_cell_measurement_temperature    100
_cell_measurement_theta_max      27.20
_cell_measurement_theta_min      2.13
_cell_volume                     395.8(2)
_computing_cell_refinement       'RAPID AUTO'
_computing_data_collection       'RAPID AUTO (Rigaku, ????)'
_computing_data_reduction        'RAPID AUTO'
_computing_molecular_graphics    'CrystalStructure 4.2.5'
_computing_publication_material  'CrystalStructure 4.2.5 (Rigaku, 2017)'
_computing_structure_refinement  'SHELXL Version 2014/3 (Sheldrick, 2008)'
_computing_structure_solution    'SHELXT Version 2014/5 (Sheldrick, 2014)'
_diffrn_ambient_temperature      100
_diffrn_detector_area_resol_mean 14.706
_diffrn_measured_fraction_theta_full 0.996
_diffrn_measured_fraction_theta_max 0.991
_diffrn_measurement_device_type  'Rigaku R-AXIS IV'
_diffrn_measurement_method       \w
_diffrn_radiation_type           synchrotron
_diffrn_radiation_wavelength     0.703010
_diffrn_reflns_av_R_equivalents  0.0830
_diffrn_reflns_Laue_measured_fraction_full 0.996
_diffrn_reflns_Laue_measured_fraction_max 0.991
_diffrn_reflns_limit_h_max       6
_diffrn_reflns_limit_h_min       -6
_diffrn_reflns_limit_k_max       11
_diffrn_reflns_limit_k_min       -11
_diffrn_reflns_limit_l_max       12
_diffrn_reflns_limit_l_min       -12
_diffrn_reflns_number            5200
_diffrn_reflns_point_group_measured_fraction_full 0.996
_diffrn_reflns_point_group_measured_fraction_max 0.991
_diffrn_reflns_theta_full        24.948
_diffrn_reflns_theta_max         27.154
_diffrn_reflns_theta_min         2.124
_diffrn_standards_number         0
_exptl_absorpt_coefficient_mu    0.426
_exptl_absorpt_correction_T_max  1.000
_exptl_absorpt_correction_T_min  0.464
_exptl_absorpt_correction_type   multi-scan
_exptl_absorpt_process_details   'ABSCOR (Rigaku, 1995)'
_exptl_crystal_colour            orange
_exptl_crystal_density_diffrn    1.591
_exptl_crystal_density_method    'not measured'
_exptl_crystal_description       plate
_exptl_crystal_F_000             196.00
_exptl_crystal_size_max          0.140
_exptl_crystal_size_mid          0.060
_exptl_crystal_size_min          0.020
_refine_diff_density_max         0.60
_refine_diff_density_min         -0.60
_refine_ls_extinction_method     none
_refine_ls_goodness_of_fit_ref   1.028
_refine_ls_hydrogen_treatment    refxyz
_refine_ls_number_parameters     141
_refine_ls_number_reflns         1799
_refine_ls_number_restraints     0
_refine_ls_R_factor_all          0.0658
_refine_ls_R_factor_gt           0.0535
_refine_ls_shift/su_max          0.000
_refine_ls_structure_factor_coef Fsqd
_refine_ls_weighting_details
'w = 1/[\s^2^(Fo^2^)+(0.0806P)^2^] where P=(Fo^2^+2Fc^2^)/3'
_refine_ls_weighting_scheme      calc
_refine_ls_wR_factor_gt          0.1334
_refine_ls_wR_factor_ref         0.1428
_reflns_Friedel_coverage         0.000
_reflns_number_gt                1422
_reflns_number_total             1799
_reflns_threshold_expression     F^2^>2.0\s(F^2^)
_cod_data_source_file            c8cc04376k5.cif
_cod_data_source_block           LowB
_cod_depositor_comments
'Adding full bibliography for 7121875--7121878.cif.'
_cod_database_code               7121877
_shelxl_version_number           2014-3
_shelx_res_file
;
TITL LowB
CELL  0.703010 4.69039 8.92120 9.83260 103.35680 96.44670 93.98390
ZERR  1 0.00166 0.00320 0.00340 0.00730 0.00680 0.00660
LATT 1
SFAC C H O N CL
UNIT 14 16 6 2 2
L.S. 30
FMAP 2
PLAN 21
WPDB -2
HTAB
BOND $H
CONF
LIST 4
TEMP 23.0
ACTA
SIZE 0.080 0.070 0.030
WGHT    0.080600
FVAR       0.63789
CL1   5    0.403814    0.242434    0.040306    11.00000    0.02248    0.01592 =
         0.02565    0.00449   -0.00201    0.00829
O1    3   -0.042631    0.238360   -0.195582    11.00000    0.02395    0.01640 =
         0.02241   -0.00164   -0.00310    0.00619
O2    3    0.410654    0.552641    0.233108    11.00000    0.02231    0.01710 =
         0.02071    0.00191   -0.00581    0.00586
O3    3    0.500421    0.807952    0.417210    11.00000    0.02116    0.01725 =
         0.02349    0.00238   -0.00450    0.00596
N1    4    0.811618    0.926858    0.612920    11.00000    0.01839    0.00948 =
         0.02354    0.00119   -0.00286    0.00547
C1    1   -0.020556    0.355523   -0.103416    11.00000    0.01554    0.01591 =
         0.01823    0.00511    0.00213    0.00340
C2    1    0.188211    0.386867    0.022632    11.00000    0.01656    0.01321 =
         0.01928    0.00505    0.00100    0.00460
C3    1    0.217134    0.521715    0.119894    11.00000    0.01578    0.01658 =
         0.01984    0.00490    0.00077    0.00377
C4    1    0.707446    0.808115    0.507383    11.00000    0.01885    0.01452 =
         0.01848    0.00400    0.00307    0.00248
C5    1    0.882478    0.674844    0.513984    11.00000    0.02127    0.01428 =
         0.02237    0.00378   -0.00116    0.00645
C6    1    1.067403    0.723659    0.656833    11.00000    0.02298    0.01891 =
         0.02144    0.00701    0.00075    0.00649
C7    1    1.063693    0.899630    0.700619    11.00000    0.01903    0.01859 =
         0.02705    0.00608    0.00018    0.00545
H1    2    0.766686    1.005244    0.623656    11.00000    0.02273
H2    2    0.425697    0.652266    0.290270    11.00000    0.06431
H3    2    0.755369    0.568239    0.495263    11.00000    0.01966
H4    2    0.986724    0.658855    0.436980    11.00000    0.02907
H5    2    1.274096    0.695763    0.655878    11.00000    0.02314
H6    2    0.980048    0.679069    0.723475    11.00000    0.02836
H7    2    1.037701    0.935094    0.802989    11.00000    0.02606
H8    2    1.233937    0.947694    0.680672    11.00000    0.02277
HKLF 4

REM  LowB
REM R1 =  0.0535 for    1422 Fo > 4sig(Fo)  and  0.0658 for all    1799 data
REM    141 parameters refined using      0 restraints

END

WGHT      0.0806      0.0000

REM Instructions for potential hydrogen bonds
EQIV $1 x+1, y+1, z+1
HTAB N1 O1_$1
EQIV $2 -x+1, -y+2, -z+1
HTAB N1 O3_$2
HTAB O2 O3

REM Highest difference peak  0.599,  deepest hole -0.596,  1-sigma level  0.117
Q1    1   0.4960  0.2184  0.1204  11.00000  0.05    0.60
Q2    1   0.5960  0.6760  0.4252  11.00000  0.05    0.59
Q3    1   0.5886  0.8336  0.4602  11.00000  0.05    0.51
Q4    1   0.5068  0.1007  0.0595  11.00000  0.05    0.49
Q5    1   0.2145  0.1640 -0.0801  11.00000  0.05    0.47
Q6    1   0.5922  0.2745  0.0861  11.00000  0.05    0.47
Q7    1   0.0472  0.2137 -0.0750  11.00000  0.05    0.46
Q8    1  -0.1119  0.4202 -0.0999  11.00000  0.05    0.46
Q9    1   1.3818  0.6193  0.7460  11.00000  0.05    0.46
Q10   1   1.0406  0.7953  0.6840  11.00000  0.05    0.42
Q11   1  -0.0442  0.2040 -0.1817  11.00000  0.05    0.42
Q12   1   0.7870  0.7283  0.5023  11.00000  0.05    0.41
Q13   1   0.0433  0.3534 -0.0307  11.00000  0.05    0.40
Q14   1   0.3043  0.5254  0.1999  11.00000  0.05    0.40
Q15   1   0.3257  0.1056 -0.0287  11.00000  0.05    0.38
Q16   1   0.5744  0.5281  0.3006  11.00000  0.05    0.38
Q17   1   1.1871  0.9734  0.8380  11.00000  0.05    0.38
Q18   1   0.2791  0.2680 -0.0225  11.00000  0.05    0.36
Q19   1   1.1925  1.0786  0.8277  11.00000  0.05    0.36
Q20   1   0.1446  0.2448  0.0176  11.00000  0.05    0.36
Q21   1   0.3153  0.4105  0.1440  11.00000  0.05    0.34
;
_shelx_res_checksum              3494
loop_
_space_group_symop_id
_space_group_symop_operation_xyz
1 +X,+Y,+Z
2 -X,-Y,-Z
loop_
_atom_site_label
_atom_site_type_symbol
_atom_site_fract_x
_atom_site_fract_y
_atom_site_fract_z
_atom_site_U_iso_or_equiv
_atom_site_adp_type
_atom_site_occupancy
_atom_site_site_symmetry_order
_atom_site_calc_flag
Cl1 Cl 0.40381(13) 0.24243(6) 0.04031(6) 0.0215(2) Uani 1 1 d
O1 O -0.0426(4) 0.2384(2) -0.19558(18) 0.0222(4) Uani 1 1 d
O2 O 0.4107(4) 0.5526(2) 0.23311(19) 0.0210(4) Uani 1 1 d
O3 O 0.5004(4) 0.8080(2) 0.41721(19) 0.0214(4) Uani 1 1 d
N1 N 0.8116(4) 0.9269(2) 0.6129(2) 0.0178(5) Uani 1 1 d
C1 C -0.0206(5) 0.3555(3) -0.1034(2) 0.0163(5) Uani 1 1 d
C2 C 0.1882(5) 0.3869(3) 0.0226(3) 0.0161(5) Uani 1 1 d
C3 C 0.2171(5) 0.5217(3) 0.1199(3) 0.0173(5) Uani 1 1 d
C4 C 0.7074(5) 0.8081(3) 0.5074(3) 0.0172(5) Uani 1 1 d
C5 C 0.8825(6) 0.6748(3) 0.5140(3) 0.0195(5) Uani 1 1 d
C6 C 1.0674(6) 0.7237(3) 0.6568(3) 0.0207(6) Uani 1 1 d
C7 C 1.0637(6) 0.8996(3) 0.7006(3) 0.0215(6) Uani 1 1 d
H1 H 0.767(6) 1.005(4) 0.624(3) 0.023(8) Uiso 1 1 d
H2 H 0.426(8) 0.652(5) 0.290(4) 0.064(12) Uiso 1 1 d
H3 H 0.755(6) 0.568(3) 0.495(3) 0.020(7) Uiso 1 1 d
H4 H 0.987(6) 0.659(3) 0.437(3) 0.029(8) Uiso 1 1 d
H5 H 1.274(6) 0.696(3) 0.656(3) 0.023(7) Uiso 1 1 d
H6 H 0.980(6) 0.679(3) 0.723(3) 0.028(8) Uiso 1 1 d
H7 H 1.038(6) 0.935(3) 0.803(3) 0.026(7) Uiso 1 1 d
H8 H 1.234(6) 0.948(3) 0.681(3) 0.023(7) Uiso 1 1 d
loop_
_atom_site_aniso_label
_atom_site_aniso_U_11
_atom_site_aniso_U_22
_atom_site_aniso_U_33
_atom_site_aniso_U_23
_atom_site_aniso_U_13
_atom_site_aniso_U_12
Cl1 0.0225(4) 0.0159(3) 0.0256(4) 0.0045(3) -0.0020(3) 0.0083(2)
O1 0.0240(10) 0.0164(9) 0.0224(10) -0.0016(7) -0.0031(8) 0.0062(7)
O2 0.0223(10) 0.0171(9) 0.0207(10) 0.0019(8) -0.0058(8) 0.0059(7)
O3 0.0212(10) 0.0172(9) 0.0235(9) 0.0024(7) -0.0045(8) 0.0060(7)
N1 0.0184(11) 0.0095(10) 0.0235(11) 0.0012(9) -0.0029(9) 0.0055(8)
C1 0.0155(12) 0.0159(12) 0.0182(12) 0.0051(10) 0.0021(10) 0.0034(9)
C2 0.0166(12) 0.0132(11) 0.0193(12) 0.0051(10) 0.0010(10) 0.0046(9)
C3 0.0158(12) 0.0166(12) 0.0198(12) 0.0049(10) 0.0008(10) 0.0038(9)
C4 0.0188(12) 0.0145(12) 0.0185(12) 0.0040(10) 0.0031(10) 0.0025(9)
C5 0.0213(13) 0.0143(12) 0.0224(13) 0.0038(10) -0.0012(11) 0.0064(10)
C6 0.0230(13) 0.0189(13) 0.0214(13) 0.0070(11) 0.0007(11) 0.0065(10)
C7 0.0190(14) 0.0186(13) 0.0271(14) 0.0061(11) 0.0002(11) 0.0055(10)
loop_
_atom_type_symbol
_atom_type_description
_atom_type_scat_dispersion_real
_atom_type_scat_dispersion_imag
_atom_type_scat_source
C C 0.0000 0.0000
;
International Tables for Crystallography
(Vol. C, Tables 4.2.6.8 and 6.1.1.4)
;
H H 0.0000 0.0000
;
International Tables for Crystallography
(Vol. C, Table 6.1.1.4)
;
O O 0.0000 0.0000
;
International Tables for Crystallography
(Vol. C, Tables 4.2.6.8 and 6.1.1.4)
;
N N 0.0000 0.0000
;
International Tables for Crystallography
(Vol. C, Tables 4.2.6.8 and 6.1.1.4)
;
Cl Cl 0.0000 0.0000
;
International Tables for Crystallography
(Vol. C, Tables 4.2.6.8 and 6.1.1.4)
;
loop_
_geom_angle_atom_site_label_1
_geom_angle_atom_site_label_2
_geom_angle_atom_site_label_3
_geom_angle
_geom_angle_site_symmetry_3
C3 O2 H2 117(2) .
C4 N1 C7 114.6(2) .
C4 N1 H1 126(2) .
C7 N1 H1 119(2) .
O1 C1 C2 123.8(2) .
O1 C1 C3 118.6(2) 2_565
C2 C1 C3 117.6(2) 2_565
C3 C2 C1 122.3(2) .
C3 C2 Cl1 121.19(19) .
C1 C2 Cl1 116.46(18) .
O2 C3 C2 122.8(2) .
O2 C3 C1 117.2(2) 2_565
C2 C3 C1 120.0(2) 2_565
O3 C4 N1 125.3(2) .
O3 C4 C5 125.8(2) .
N1 C4 C5 108.9(2) .
C4 C5 C6 104.6(2) .
C4 C5 H3 113.1(15) .
C6 C5 H3 115.0(14) .
C4 C5 H4 107.9(18) .
C6 C5 H4 114.5(18) .
H3 C5 H4 102(2) .
C5 C6 C7 104.6(2) .
C5 C6 H5 114.2(16) .
C7 C6 H5 110.1(16) .
C5 C6 H6 109.8(18) .
C7 C6 H6 108.7(19) .
H5 C6 H6 109(2) .
N1 C7 C6 103.1(2) .
N1 C7 H7 109.6(17) .
C6 C7 H7 111.2(17) .
N1 C7 H8 111.5(16) .
C6 C7 H8 109.4(17) .
H7 C7 H8 112(2) .
loop_
_geom_bond_atom_site_label_1
_geom_bond_atom_site_label_2
_geom_bond_distance
_geom_bond_site_symmetry_2
Cl1 C2 1.720(2) .
O1 C1 1.204(3) .
O2 C3 1.317(3) .
O2 H2 0.93(4) .
O3 C4 1.239(3) .
N1 C4 1.321(3) .
N1 C7 1.452(3) .
N1 H1 0.73(3) .
C1 C2 1.450(3) .
C1 C3 1.505(3) 2_565
C2 C3 1.340(4) .
C3 C1 1.505(3) 2_565
C4 C5 1.500(3) .
C5 C6 1.519(3) .
C5 H3 1.05(3) .
C5 H4 0.94(3) .
C6 C7 1.531(4) .
C6 H5 1.02(3) .
C6 H6 0.96(3) .
C7 H7 1.01(3) .
C7 H8 0.94(3) .
loop_
_geom_torsion_atom_site_label_1
_geom_torsion_atom_site_label_2
_geom_torsion_atom_site_label_3
_geom_torsion_atom_site_label_4
_geom_torsion
_geom_torsion_site_symmetry_1
_geom_torsion_site_symmetry_4
O1 C1 C2 C3 176.5(2) . .
C3 C1 C2 C3 -2.6(4) 2_565 .
O1 C1 C2 Cl1 -2.4(3) . .
C3 C1 C2 Cl1 178.50(16) 2_565 .
C1 C2 C3 O2 -178.4(2) . .
Cl1 C2 C3 O2 0.5(4) . .
C1 C2 C3 C1 2.6(4) . 2_565
Cl1 C2 C3 C1 -178.50(17) . 2_565
C7 N1 C4 O3 -177.4(2) . .
C7 N1 C4 C5 2.0(3) . .
O3 C4 C5 C6 -169.5(2) . .
N1 C4 C5 C6 11.1(3) . .
C4 C5 C6 C7 -18.8(3) . .
C4 N1 C7 C6 -14.0(3) . .
C5 C6 C7 N1 19.6(3) . .
