#------------------------------------------------------------------------------
#$Date: 2019-11-17 06:14:30 +0200 (Sun, 17 Nov 2019) $
#$Revision: 228357 $
#$URL: file:///home/coder/svn-repositories/cod/cif/7/12/17/7121747.cif $
#------------------------------------------------------------------------------
#
# This file is available in the Crystallography Open Database (COD),
# http://www.crystallography.net/
#
# All data on this site have been placed in the public domain by the
# contributors.
#
data_7121747
loop_
_publ_author_name
'Alimi, Lukman O.'
'van Heerden, Dewald P.'
'Lama, Prem'
'Smith, Vincent J.'
'Barbour, Leonard J.'
_publ_section_title
;
 Reversible thermosalience of 4-aminobenzonitrile.
;
_journal_issue                   48
_journal_name_full
'Chemical communications (Cambridge, England)'
_journal_page_first              6208
_journal_page_last               6211
_journal_paper_doi               10.1039/c8cc03636e
_journal_volume                  54
_journal_year                    2018
_chemical_formula_sum            'C7 H6 N2'
_chemical_formula_weight         118.14
_chemical_name_common            4-aminobenzonitrile
_chemical_name_systematic        4-aminobenzonitrile
_space_group_crystal_system      monoclinic
_space_group_IT_number           14
_space_group_name_Hall           '-P 2ybc'
_space_group_name_H-M_alt        'P 1 21/c 1'
_symmetry_space_group_name_Hall  '-P 2ybc'
_symmetry_space_group_name_H-M   'P 1 21/c 1'
_atom_sites_solution_hydrogens   mixed
_audit_creation_method           SHELXL-2018/3
_audit_update_record
;
2018-05-01 deposited with the CCDC.
2018-05-24 downloaded from the CCDC.
;
_cell_angle_alpha                90
_cell_angle_beta                 113.341(6)
_cell_angle_gamma                90
_cell_formula_units_Z            4
_cell_length_a                   7.3320(18)
_cell_length_b                   5.7057(14)
_cell_length_c                   15.859(4)
_cell_measurement_reflns_used    2323
_cell_measurement_temperature    120(2)
_cell_measurement_theta_max      25.96
_cell_measurement_theta_min      2.80
_cell_volume                     609.2(3)
_computing_cell_refinement       'Bruker SAINT'
_computing_data_collection       'Bruker APEX2'
_computing_data_reduction        'Bruker SAINT'
_computing_molecular_graphics    'Bruker SHELXTL'
_computing_publication_material  'Bruker SHELXTL'
_computing_structure_refinement  'SHELXL-2018/3 (Sheldrick, 2018)'
_computing_structure_solution    'SHELXT 2018/2 (Sheldrick, 2018)'
_diffrn_ambient_temperature      120(2)
_diffrn_measured_fraction_theta_full 0.987
_diffrn_measured_fraction_theta_max 0.981
_diffrn_measurement_device_type  'Bruker APEX-II CCD'
_diffrn_measurement_method       '\f and \w scans'
_diffrn_radiation_type           MoK\a
_diffrn_radiation_wavelength     0.71073
_diffrn_reflns_av_R_equivalents  0.0407
_diffrn_reflns_av_unetI/netI     0.0291
_diffrn_reflns_Laue_measured_fraction_full 0.987
_diffrn_reflns_Laue_measured_fraction_max 0.981
_diffrn_reflns_limit_h_max       9
_diffrn_reflns_limit_h_min       -9
_diffrn_reflns_limit_k_max       6
_diffrn_reflns_limit_k_min       -7
_diffrn_reflns_limit_l_max       19
_diffrn_reflns_limit_l_min       -19
_diffrn_reflns_number            7218
_diffrn_reflns_point_group_measured_fraction_full 0.987
_diffrn_reflns_point_group_measured_fraction_max 0.981
_diffrn_reflns_theta_full        25.000
_diffrn_reflns_theta_max         26.113
_diffrn_reflns_theta_min         3.026
_exptl_absorpt_coefficient_mu    0.081
_exptl_absorpt_correction_T_max  0.988
_exptl_absorpt_correction_T_min  0.956
_exptl_absorpt_correction_type   multi-scan
_exptl_absorpt_process_details   SADABS
_exptl_crystal_colour            Colourless
_exptl_crystal_density_diffrn    1.288
_exptl_crystal_description       Rectangular
_exptl_crystal_F_000             248
_exptl_crystal_size_max          0.54
_exptl_crystal_size_mid          0.35
_exptl_crystal_size_min          0.07
_exptl_transmission_factor_max   0.988
_exptl_transmission_factor_min   0.956
_refine_diff_density_max         0.219
_refine_diff_density_min         -0.218
_refine_diff_density_rms         0.052
_refine_ls_extinction_method     none
_refine_ls_goodness_of_fit_ref   1.102
_refine_ls_hydrogen_treatment    mixed
_refine_ls_matrix_type           full
_refine_ls_number_parameters     90
_refine_ls_number_reflns         1184
_refine_ls_number_restraints     2
_refine_ls_restrained_S_all      1.105
_refine_ls_R_factor_all          0.0772
_refine_ls_R_factor_gt           0.0560
_refine_ls_shift/su_max          0.000
_refine_ls_shift/su_mean         0.000
_refine_ls_structure_factor_coef Fsqd
_refine_ls_weighting_details
'w=1/[\s^2^(Fo^2^)+(0.0561P)^2^+0.3649P] where P=(Fo^2^+2Fc^2^)/3'
_refine_ls_weighting_scheme      calc
_refine_ls_wR_factor_gt          0.1277
_refine_ls_wR_factor_ref         0.1382
_reflns_Friedel_coverage         0.000
_reflns_number_gt                912
_reflns_number_total             1184
_reflns_threshold_expression     'I > 2\s(I)'
_cod_data_source_file            c8cc03636e6.cif
_cod_data_source_block           ABN_120K
_cod_depositor_comments
;
The following automatic conversions were performed:

'_exptl_absorpt_correction_type' value 'Multi-scan' changed to
'multi-scan' according to
/home/data/users/saulius/crontab/automatic-downloads/rss-feeds/RSC/lib/dictionaries/cif_core.dic
dictionary named 'cif_core.dic' version 2.4.2 from 2011-04-26.

Automatic conversion script
Id: cif_fix_values 4973 2017-02-22 13:04:09Z antanas 

 Adding full bibliography for 7121738--7121749.cif.
;
_cod_original_cell_volume        609.1(3)
_cod_database_code               7121747
_shelx_shelxl_version_number     2018/3
_shelx_space_group_comment
;
The symmetry employed for this shelxl refinement is uniquely defined
by the following loop, which should always be used as a source of
symmetry information in preference to the above space-group names.
They are only intended as comments.
;
_shelx_res_file
;
TITL C:\frames\guest\LA_ABN~1\120K\work\120K_aa_a.res in P2(1)/c
    C:\frames\guest\LA_ABN~1\120K\work\120K_aa_a.res
    created by SHELXL-2018/3 at 21:27:35 on 24-Apr-2018
CELL 0.71073 7.3320 5.7057 15.8585 90.000 113.341 90.000
ZERR 4.0000 0.0018 0.0014 0.0040 0.000 0.006 0.000
LATT 1
SYMM -X, 0.5+Y, 0.5-Z
SFAC C H N
UNIT 28 24 8
BOND
DFIX 1.02 0.01 N1 H1A
DFIX 1.02 0.01 N1 H1B
ACTA 50
FMAP 2 1 53
PLAN 20 0 0
LIST 6 1
TEMP -153
L.S. 10
WGHT    0.056100    0.364900
FVAR       0.87760
N1    3    0.784623    0.760937    0.772017    11.00000    0.04391    0.02997 =
         0.02318   -0.00443    0.01393   -0.00433
N2    3    0.726656    0.095283    0.410449    11.00000    0.04651    0.03399 =
         0.02799   -0.00549    0.01822   -0.00664
C4    1    0.736813    0.360712    0.544228    11.00000    0.02757    0.02411 =
         0.02060   -0.00018    0.00741    0.00083
C3    1    0.659042    0.280357    0.606167    11.00000    0.02761    0.02395 =
         0.02642    0.00299    0.00837   -0.00161
AFIX  43
H3    2    0.594802    0.132219    0.596457    11.00000   -1.20000
AFIX   0
C1    1    0.770490    0.631353    0.697302    11.00000    0.02692    0.02545 =
         0.02142    0.00113    0.00642    0.00283
C5    1    0.828884    0.581203    0.558694    11.00000    0.02887    0.02464 =
         0.02282    0.00450    0.01105    0.00132
AFIX  43
H5    2    0.878830    0.640096    0.515977    11.00000   -1.20000
AFIX   0
C6    1    0.847243    0.712461    0.634272    11.00000    0.03079    0.02081 =
         0.02629    0.00071    0.00977   -0.00072
AFIX  43
H6    2    0.912630    0.859883    0.644053    11.00000   -1.20000
AFIX   0
C2    1    0.674040    0.412335    0.680941    11.00000    0.03080    0.02884 =
         0.02258    0.00320    0.01191   -0.00092
AFIX  43
H2    2    0.618886    0.355502    0.722046    11.00000   -1.20000
AFIX   0
C7    1    0.729126    0.216552    0.468789    11.00000    0.03017    0.02825 =
         0.02738    0.00151    0.01259   -0.00237
H1A   2    0.871983    0.903039    0.791362    11.00000    0.06395
H1B   2    0.759769    0.683536    0.822879    11.00000    0.05415
HKLF 4




REM  C:\frames\guest\LA_ABN~1\120K\work\120K_aa_a.res in P2(1)/c
REM wR2 = 0.1382, GooF = S = 1.102, Restrained GooF = 1.105 for all data
REM R1 = 0.0560 for 912 Fo > 4sig(Fo) and 0.0772 for all 1184 data
REM 90 parameters refined using 2 restraints

END

WGHT      0.0560      0.3646

REM Highest difference peak  0.219,  deepest hole -0.218,  1-sigma level  0.052
Q1    1   0.7214  0.7083  0.6350  11.00000  0.05    0.22
Q2    1   0.6447  0.7689  0.7593  11.00000  0.05    0.22
Q3    1   0.8663  0.6602  0.6807  11.00000  0.05    0.20
Q4    1   0.8904  0.0714  0.4375  11.00000  0.05    0.20
Q5    1   0.8671  0.3863  0.5588  11.00000  0.05    0.19
Q6    1   0.7824  0.2852  0.5987  11.00000  0.05    0.18
Q7    1   0.8605  0.1820  0.4563  11.00000  0.05    0.18
Q8    1   0.9432  0.7624  0.7966  11.00000  0.05    0.18
Q9    1   0.6039  0.3531  0.5375  11.00000  0.05    0.16
Q10   1   0.5326  0.4094  0.6797  11.00000  0.05    0.16
Q11   1   1.0005  0.7447  0.6567  11.00000  0.05    0.16
Q12   1   0.6410  0.5996  0.6770  11.00000  0.05    0.15
Q13   1   0.5297  0.2641  0.5807  11.00000  0.05    0.15
Q14   1   0.9640  0.5651  0.5777  11.00000  0.05    0.15
Q15   1   0.9791  0.6789  0.4248  11.00000  0.05    0.15
Q16   1   0.5426  0.1320  0.3816  11.00000  0.05    0.14
Q17   1   0.5935  0.4119  0.6193  11.00000  0.05    0.13
Q18   1   0.6267  0.0996  0.4400  11.00000  0.05    0.13
Q19   1   0.4805  0.3618  0.7207  11.00000  0.05    0.13
Q20   1   0.4582  0.0605  0.6244  11.00000  0.05    0.13
;
_shelx_res_checksum              41171
loop_
_space_group_symop_operation_xyz
'x, y, z'
'-x, y+1/2, -z+1/2'
'-x, -y, -z'
'x, -y-1/2, z-1/2'
loop_
_atom_site_label
_atom_site_type_symbol
_atom_site_fract_x
_atom_site_fract_y
_atom_site_fract_z
_atom_site_U_iso_or_equiv
_atom_site_adp_type
_atom_site_occupancy
_atom_site_site_symmetry_order
_atom_site_calc_flag
_atom_site_refinement_flags_posn
_atom_site_refinement_flags_adp
N1 N 0.7846(3) 0.7609(3) 0.77202(12) 0.0322(5) Uani 1 1 d D .
N2 N 0.7267(3) 0.0953(4) 0.41045(12) 0.0351(5) Uani 1 1 d . .
C4 C 0.7368(3) 0.3607(4) 0.54423(13) 0.0248(5) Uani 1 1 d . .
C3 C 0.6590(3) 0.2804(4) 0.60617(13) 0.0267(5) Uani 1 1 d . .
H3 H 0.594802 0.132219 0.596457 0.032 Uiso 1 1 calc R U
C1 C 0.7705(3) 0.6314(4) 0.69730(13) 0.0256(5) Uani 1 1 d . .
C5 C 0.8289(3) 0.5812(4) 0.55869(13) 0.0252(5) Uani 1 1 d . .
H5 H 0.878830 0.640096 0.515977 0.030 Uiso 1 1 calc R U
C6 C 0.8472(3) 0.7125(4) 0.63427(13) 0.0264(5) Uani 1 1 d . .
H6 H 0.912630 0.859883 0.644053 0.032 Uiso 1 1 calc R U
C2 C 0.6740(3) 0.4123(4) 0.68094(13) 0.0270(5) Uani 1 1 d . .
H2 H 0.618886 0.355502 0.722046 0.032 Uiso 1 1 calc R U
C7 C 0.7291(3) 0.2166(4) 0.46879(14) 0.0282(5) Uani 1 1 d . .
H1A H 0.872(3) 0.903(3) 0.7914(18) 0.064(9) Uiso 1 1 d D .
H1B H 0.760(4) 0.684(4) 0.8229(12) 0.054(8) Uiso 1 1 d D .
loop_
_atom_site_aniso_label
_atom_site_aniso_U_11
_atom_site_aniso_U_22
_atom_site_aniso_U_33
_atom_site_aniso_U_23
_atom_site_aniso_U_13
_atom_site_aniso_U_12
N1 0.0439(11) 0.0300(11) 0.0232(9) -0.0044(9) 0.0139(8) -0.0043(9)
N2 0.0465(11) 0.0340(11) 0.0280(10) -0.0055(9) 0.0182(8) -0.0066(9)
C4 0.0276(10) 0.0241(11) 0.0206(10) -0.0002(9) 0.0074(8) 0.0008(8)
C3 0.0276(10) 0.0240(11) 0.0264(11) 0.0030(9) 0.0084(8) -0.0016(9)
C1 0.0269(10) 0.0254(11) 0.0214(10) 0.0011(9) 0.0064(8) 0.0028(8)
C5 0.0289(10) 0.0246(11) 0.0228(10) 0.0045(9) 0.0111(8) 0.0013(8)
C6 0.0308(11) 0.0208(10) 0.0263(11) 0.0007(9) 0.0098(8) -0.0007(9)
C2 0.0308(11) 0.0288(12) 0.0226(10) 0.0032(9) 0.0119(8) -0.0009(9)
C7 0.0302(11) 0.0283(11) 0.0274(11) 0.0015(10) 0.0126(9) -0.0024(9)
loop_
_atom_type_symbol
_atom_type_description
_atom_type_scat_dispersion_real
_atom_type_scat_dispersion_imag
_atom_type_scat_source
C C 0.0033 0.0016 'International Tables Vol C Tables 4.2.6.8 and 6.1.1.4'
H H 0.0000 0.0000 'International Tables Vol C Tables 4.2.6.8 and 6.1.1.4'
N N 0.0061 0.0033 'International Tables Vol C Tables 4.2.6.8 and 6.1.1.4'
loop_
_geom_angle_atom_site_label_1
_geom_angle_atom_site_label_2
_geom_angle_atom_site_label_3
_geom_angle
C3 C4 C5 118.96(19)
C3 C4 C7 120.47(19)
C5 C4 C7 120.53(18)
C2 C3 C4 120.9(2)
N1 C1 C6 121.7(2)
N1 C1 C2 120.02(18)
C6 C1 C2 118.32(19)
C6 C5 C4 120.39(18)
C5 C6 C1 120.8(2)
C3 C2 C1 120.58(19)
N2 C7 C4 177.7(2)
loop_
_geom_bond_atom_site_label_1
_geom_bond_atom_site_label_2
_geom_bond_distance
N1 C1 1.365(3)
N2 C7 1.150(3)
C4 C3 1.394(3)
C4 C5 1.403(3)
C4 C7 1.434(3)
C3 C2 1.372(3)
C1 C6 1.406(3)
C1 C2 1.408(3)
C5 C6 1.374(3)
