#------------------------------------------------------------------------------
#$Date: 2019-11-17 05:12:52 +0200 (Sun, 17 Nov 2019) $
#$Revision: 228059 $
#$URL: file:///home/coder/svn-repositories/cod/cif/7/12/18/7121839.cif $
#------------------------------------------------------------------------------
#
# This file is available in the Crystallography Open Database (COD),
# http://www.crystallography.net/
#
# All data on this site have been placed in the public domain by the
# contributors.
#
data_7121839
loop_
_publ_author_name
'Wang, Miao'
'Tang, Bo-Cheng'
'Wang, Jun-Gang'
'Xiang, Jia-Chen'
'Guan, Ao-Yu'
'Huang, Ping-Ping'
'Guo, Wu-Yinzheng'
'Wu, Yan-Dong'
'Wu, An-Xin'
_publ_section_title
;
 The triple role of rongalite in aminosulfonylation of aryldiazonium
 tetrafluoroborates: synthesis of N-aminosulfonamides via a radical
 coupling reaction.
;
_journal_issue                   55
_journal_name_full
'Chemical communications (Cambridge, England)'
_journal_page_first              7641
_journal_page_last               7644
_journal_paper_doi               10.1039/c8cc03778g
_journal_volume                  54
_journal_year                    2018
_chemical_formula_sum            'C14 H16 N2 O2 S'
_chemical_formula_weight         276.35
_space_group_crystal_system      monoclinic
_space_group_IT_number           4
_space_group_name_Hall           'P 2yb'
_space_group_name_H-M_alt        'P 1 21 1'
_symmetry_space_group_name_Hall  'P 2yb'
_symmetry_space_group_name_H-M   'P 1 21 1'
_atom_sites_solution_hydrogens   geom
_audit_creation_method           SHELXL-2014/7
_audit_update_record
;
2018-04-26 deposited with the CCDC.
2018-06-14 downloaded from the CCDC.
;
_cell_angle_alpha                90
_cell_angle_beta                 92.902(9)
_cell_angle_gamma                90
_cell_formula_units_Z            2
_cell_length_a                   9.955(3)
_cell_length_b                   5.5629(19)
_cell_length_c                   12.732(4)
_cell_measurement_reflns_used    1421
_cell_measurement_temperature    296(2)
_cell_measurement_theta_max      28.35
_cell_measurement_theta_min      2.66
_cell_volume                     704.2(4)
_computing_structure_refinement  'SHELXL-2014/7 (Sheldrick, 2014)'
_diffrn_ambient_temperature      296(2)
_diffrn_measured_fraction_theta_full 0.941
_diffrn_measured_fraction_theta_max 0.941
_diffrn_measurement_device_type  CCD
_diffrn_radiation_type           MoK\a
_diffrn_radiation_wavelength     0.71073
_diffrn_reflns_av_R_equivalents  0.0909
_diffrn_reflns_av_unetI/netI     0.0424
_diffrn_reflns_Laue_measured_fraction_full 0.941
_diffrn_reflns_Laue_measured_fraction_max 0.941
_diffrn_reflns_limit_h_max       11
_diffrn_reflns_limit_h_min       -11
_diffrn_reflns_limit_k_max       6
_diffrn_reflns_limit_k_min       -6
_diffrn_reflns_limit_l_max       1
_diffrn_reflns_limit_l_min       -15
_diffrn_reflns_number            1887
_diffrn_reflns_point_group_measured_fraction_full 0.955
_diffrn_reflns_point_group_measured_fraction_max 0.955
_diffrn_reflns_theta_full        24.994
_diffrn_reflns_theta_max         24.994
_diffrn_reflns_theta_min         2.048
_exptl_absorpt_coefficient_mu    0.229
_exptl_absorpt_correction_type   multi-scan
_exptl_absorpt_process_details   sadabs
_exptl_crystal_colour            colorless
_exptl_crystal_density_diffrn    1.303
_exptl_crystal_description       Block
_exptl_crystal_F_000             292
_exptl_crystal_size_max          0.220
_exptl_crystal_size_mid          0.200
_exptl_crystal_size_min          0.180
_exptl_transmission_factor_max   0.864
_exptl_transmission_factor_min   0.864
_refine_diff_density_max         0.489
_refine_diff_density_min         -0.467
_refine_diff_density_rms         0.113
_refine_ls_abs_structure_details
;
 Refined as an inversion twin.
;
_refine_ls_abs_structure_Flack   0.4(4)
_refine_ls_extinction_method     none
_refine_ls_goodness_of_fit_ref   1.243
_refine_ls_hydrogen_treatment    constr
_refine_ls_matrix_type           full
_refine_ls_number_parameters     151
_refine_ls_number_reflns         1842
_refine_ls_number_restraints     1
_refine_ls_restrained_S_all      1.243
_refine_ls_R_factor_all          0.1102
_refine_ls_R_factor_gt           0.0975
_refine_ls_shift/su_max          0.000
_refine_ls_shift/su_mean         0.000
_refine_ls_structure_factor_coef Fsqd
_refine_ls_weighting_details
'w=1/[\s^2^(Fo^2^)+(0.2000P)^2^] where P=(Fo^2^+2Fc^2^)/3'
_refine_ls_weighting_scheme      calc
_refine_ls_wR_factor_gt          0.2489
_refine_ls_wR_factor_ref         0.2910
_reflns_Friedel_coverage         0.824
_reflns_Friedel_fraction_full    0.973
_reflns_Friedel_fraction_max     0.973
_reflns_number_gt                1580
_reflns_number_total             1842
_reflns_threshold_expression     'I > 2\s(I)'
_cod_data_source_file            c8cc03778g2.cif
_cod_data_source_block           1_a
_cod_depositor_comments          'Adding full bibliography for 7121839.cif.'
_cod_database_code               7121839
_shelx_shelxl_version_number     2014/7
_shelx_space_group_comment
;
The symmetry employed for this shelxl refinement is uniquely defined
by the following loop, which should always be used as a source of
symmetry information in preference to the above space-group names.
They are only intended as comments.
;
_shelx_estimated_absorpt_t_min   0.951
_shelx_estimated_absorpt_t_max   0.960
_shelx_res_file
;

    1_a.res created by SHELXL-2014/7

TITL 1_a.res in P2(1)
CELL  0.71073   9.9554   5.5629  12.7323   90.000   92.902   90.000
ZERR   2.000   0.0031   0.0019   0.0044    0.000    0.009    0.000
LATT -1
SYMM -X, 1/2+Y, -Z
SFAC C  H  O  N  S
UNIT 28 32 4 4 2
OMIT   0.00  50.00
L.S. 20
ACTA
BOND $H
SIZE 0.22 0.2 0.18
CONF
FMAP 2
PLAN 20
LIST 6
TWIN
TEMP 23.000
WGHT    0.200000
BASF   0.43041
FVAR       0.92983
C1    1    0.856622    0.624202    0.424127    11.00000    0.07738    0.09416 =
         0.06072   -0.00510    0.01354    0.00329
AFIX 137
H1A   2    0.866575    0.795770    0.422163    11.00000   -1.50000
H1B   2    0.821572    0.568095    0.356900    11.00000   -1.50000
H1C   2    0.942613    0.551322    0.440253    11.00000   -1.50000
AFIX  66
C2    1    0.758448    0.555554    0.509681    11.00000    0.05851    0.06213 =
         0.03999    0.00348   -0.00632    0.00038
C3    1    0.683176    0.345252    0.502160    11.00000    0.06496    0.05903 =
         0.04338   -0.00652   -0.00387    0.00913
AFIX  43
H3    2    0.694461    0.239349    0.446780    11.00000   -1.20000
AFIX  65
C4    1    0.591039    0.293232    0.577411    11.00000    0.06471    0.03614 =
         0.05803   -0.00812   -0.00534   -0.00544
AFIX  43
H4    2    0.540678    0.152525    0.572378    11.00000   -1.20000
AFIX  65
C5    1    0.574172    0.451515    0.660183    11.00000    0.04745    0.04301 =
         0.03807    0.00400   -0.01467   -0.00336
C6    1    0.649443    0.661819    0.667706    11.00000    0.05000    0.04589 =
         0.04385   -0.00626   -0.00786    0.01384
AFIX  43
H6    2    0.638158    0.767720    0.723086    11.00000   -1.20000
AFIX  65
C7    1    0.741581    0.713841    0.592456    11.00000    0.05278    0.04095 =
         0.05284    0.00527   -0.01227    0.00107
AFIX  43
H7    2    0.791942    0.854548    0.597489    11.00000   -1.20000
AFIX  66
C8    1    0.226595    0.519089    0.858095    11.00000    0.04600    0.04784 =
         0.04420   -0.00507    0.00052    0.00263
C9    1    0.122909    0.597434    0.789254    11.00000    0.06069    0.05896 =
         0.04875    0.01589   -0.00684    0.00248
AFIX  43
H9    2    0.134366    0.733853    0.748445    11.00000   -1.20000
AFIX  65
C10   1    0.002101    0.471884    0.781407    11.00000    0.04883    0.08420 =
         0.06547    0.00430   -0.01692    0.00403
AFIX  43
H10   2   -0.067271    0.524303    0.735348    11.00000   -1.20000
AFIX  65
C11   1   -0.015023    0.267989    0.842401    11.00000    0.04511    0.06509 =
         0.04276   -0.01213   -0.00297   -0.00058
C12   1    0.088661    0.189642    0.911242    11.00000    0.06061    0.04795 =
         0.05627    0.00098   -0.00114   -0.00847
AFIX  43
H12   2    0.077204    0.053222    0.952051    11.00000   -1.20000
AFIX  65
C13   1    0.209471    0.315189    0.919090    11.00000    0.06246    0.05081 =
         0.04230    0.00186   -0.00498    0.00640
AFIX  43
H13   2    0.278843    0.262770    0.965149    11.00000   -1.20000
AFIX   0
C14   1   -0.147504    0.133162    0.835487    11.00000    0.06229    0.09957 =
         0.09677   -0.02266   -0.00109   -0.01355
AFIX 137
H14A  2   -0.203067    0.187612    0.890177    11.00000   -1.50000
H14B  2   -0.130826   -0.035943    0.843668    11.00000   -1.50000
H14C  2   -0.192517    0.162432    0.768239    11.00000   -1.50000
AFIX   0
N1    4    0.478644    0.398065    0.735879    11.00000    0.04765    0.06111 =
         0.04986   -0.00616    0.00019   -0.01334
AFIX  43
H1    2    0.411051    0.306246    0.720285    11.00000   -1.20000
AFIX   0
N2    4    0.496659    0.496926    0.835300    11.00000    0.04759    0.05527 =
         0.04359   -0.00356   -0.00429    0.00376
AFIX  43
H2    2    0.565714    0.464422    0.876148    11.00000   -1.20000
AFIX   0
O1    3    0.409509    0.726358    0.979714    11.00000    0.08142    0.08656 =
         0.05252   -0.02859   -0.00158   -0.02354
O2    3    0.373181    0.872616    0.796936    11.00000    0.06657    0.04631 =
         0.07673    0.01102   -0.00257   -0.00289
S1    5    0.379052    0.678181    0.869843    11.00000    0.05433    0.04726 =
         0.04416   -0.00551   -0.00218   -0.00604
HKLF 4

REM  1_a.res in P2(1)
REM R1 =  0.0975 for    1580 Fo > 4sig(Fo)  and  0.1102 for all    1842 data
REM    151 parameters refined using      1 restraints

END

WGHT      0.2000      0.0000

REM Highest difference peak  0.489,  deepest hole -0.467,  1-sigma level  0.113
Q1    1   0.4299  0.5241  0.8210  11.00000  0.05    0.49
Q2    1   0.2798  0.6720  0.8440  11.00000  0.05    0.49
Q3    1   0.4791  0.2185  0.7356  11.00000  0.05    0.48
Q4    1   0.4718  0.6601  0.9035  11.00000  0.05    0.42
Q5    1  -0.0349  0.1994  0.8426  11.00000  0.05    0.42
Q6    1   0.4243  0.8597  0.8203  11.00000  0.05    0.39
Q7    1   0.7657  0.5528  0.4828  11.00000  0.05    0.39
Q8    1   0.6111  0.1947  0.5518  11.00000  0.05    0.38
Q9    1   0.1123  0.2598  0.9179  11.00000  0.05    0.35
Q10   1   0.3413  0.8260  0.9243  11.00000  0.05    0.34
Q11   1   0.8871  0.4083  0.4007  11.00000  0.05    0.31
Q12   1   0.3596  0.5449  1.0069  11.00000  0.05    0.29
Q13   1   0.6744  0.9650  0.5348  11.00000  0.05    0.28
Q14   1   0.2800  0.1794  0.9886  11.00000  0.05    0.27
Q15   1  -0.1373  0.0482  0.8357  11.00000  0.05    0.27
Q16   1   0.7422  0.9561  0.5341  11.00000  0.05    0.26
Q17   1   0.3612  0.9189  0.7809  11.00000  0.05    0.25
Q18   1   0.7648  0.3744  0.5222  11.00000  0.05    0.25
Q19   1   0.5482  0.6156  0.6737  11.00000  0.05    0.25
Q20   1   0.7883  0.7748  0.4823  11.00000  0.05    0.24
;
_shelx_res_checksum              4197
loop_
_space_group_symop_operation_xyz
'x, y, z'
'-x, y+1/2, -z'
loop_
_atom_site_label
_atom_site_type_symbol
_atom_site_fract_x
_atom_site_fract_y
_atom_site_fract_z
_atom_site_U_iso_or_equiv
_atom_site_adp_type
_atom_site_occupancy
_atom_site_site_symmetry_order
_atom_site_calc_flag
_atom_site_refinement_flags_posn
_atom_site_refinement_flags_adp
C1 C 0.8566(13) 0.624(3) 0.4241(8) 0.077(4) Uani 1 1 d . .
H1A H 0.8666 0.7958 0.4222 0.116 Uiso 1 1 calc R U
H1B H 0.8216 0.5681 0.3569 0.116 Uiso 1 1 calc R U
H1C H 0.9426 0.5513 0.4403 0.116 Uiso 1 1 calc R U
C2 C 0.7584(6) 0.5556(10) 0.5097(4) 0.054(2) Uani 1 1 d G .
C3 C 0.6832(7) 0.3453(9) 0.5022(4) 0.056(3) Uani 1 1 d G .
H3 H 0.6945 0.2393 0.4468 0.067 Uiso 1 1 calc R U
C4 C 0.5910(6) 0.2932(9) 0.5774(4) 0.053(2) Uani 1 1 d G .
H4 H 0.5407 0.1525 0.5724 0.064 Uiso 1 1 calc R U
C5 C 0.5742(5) 0.4515(11) 0.6602(4) 0.043(2) Uani 1 1 d G .
C6 C 0.6494(5) 0.6618(10) 0.6677(3) 0.047(2) Uani 1 1 d G .
H6 H 0.6382 0.7677 0.7231 0.056 Uiso 1 1 calc R U
C7 C 0.7416(5) 0.7138(9) 0.5925(4) 0.049(2) Uani 1 1 d G .
H7 H 0.7919 0.8545 0.5975 0.059 Uiso 1 1 calc R U
C8 C 0.2266(5) 0.5191(10) 0.8581(4) 0.046(2) Uani 1 1 d G .
C9 C 0.1229(6) 0.5974(10) 0.7893(4) 0.056(3) Uani 1 1 d G .
H9 H 0.1344 0.7339 0.7484 0.068 Uiso 1 1 calc R U
C10 C 0.0021(5) 0.4719(13) 0.7814(5) 0.067(3) Uani 1 1 d G .
H10 H -0.0673 0.5243 0.7353 0.080 Uiso 1 1 calc R U
C11 C -0.0150(5) 0.2680(12) 0.8424(5) 0.051(2) Uani 1 1 d G .
C12 C 0.0887(6) 0.1896(10) 0.9112(4) 0.055(2) Uani 1 1 d G .
H12 H 0.0772 0.0532 0.9521 0.066 Uiso 1 1 calc R U
C13 C 0.2095(5) 0.3152(11) 0.9191(4) 0.052(2) Uani 1 1 d G .
H13 H 0.2788 0.2628 0.9651 0.063 Uiso 1 1 calc R U
C14 C -0.1475(12) 0.133(3) 0.8355(10) 0.086(4) Uani 1 1 d . .
H14A H -0.2031 0.1876 0.8902 0.130 Uiso 1 1 calc R U
H14B H -0.1308 -0.0359 0.8437 0.130 Uiso 1 1 calc R U
H14C H -0.1925 0.1624 0.7682 0.130 Uiso 1 1 calc R U
N1 N 0.4786(7) 0.3981(17) 0.7359(5) 0.053(2) Uani 1 1 d . .
H1 H 0.4111 0.3062 0.7203 0.064 Uiso 1 1 calc R U
N2 N 0.4967(8) 0.4969(15) 0.8353(5) 0.049(2) Uani 1 1 d . .
H2 H 0.5657 0.4644 0.8761 0.059 Uiso 1 1 calc R U
O1 O 0.4095(8) 0.7264(18) 0.9797(5) 0.074(3) Uani 1 1 d . .
O2 O 0.3732(7) 0.8726(13) 0.7969(6) 0.0634(19) Uani 1 1 d . .
S1 S 0.3791(2) 0.6782(5) 0.86984(14) 0.0487(8) Uani 1 1 d . .
loop_
_atom_site_aniso_label
_atom_site_aniso_U_11
_atom_site_aniso_U_22
_atom_site_aniso_U_33
_atom_site_aniso_U_23
_atom_site_aniso_U_13
_atom_site_aniso_U_12
C1 0.077(7) 0.094(11) 0.061(6) -0.005(6) 0.014(5) 0.003(7)
C2 0.059(6) 0.062(6) 0.040(4) 0.003(4) -0.006(4) 0.000(6)
C3 0.065(7) 0.059(6) 0.043(5) -0.007(4) -0.004(4) 0.009(6)
C4 0.065(7) 0.036(5) 0.058(5) -0.008(4) -0.005(4) -0.005(5)
C5 0.047(5) 0.043(5) 0.038(4) 0.004(3) -0.015(3) -0.003(4)
C6 0.050(5) 0.046(5) 0.044(4) -0.006(4) -0.008(3) 0.014(5)
C7 0.053(5) 0.041(5) 0.053(4) 0.005(4) -0.012(4) 0.001(5)
C8 0.046(5) 0.048(5) 0.044(4) -0.005(4) 0.001(4) 0.003(4)
C9 0.061(6) 0.059(6) 0.049(5) 0.016(4) -0.007(4) 0.002(5)
C10 0.049(6) 0.084(9) 0.065(6) 0.004(6) -0.017(4) 0.004(6)
C11 0.045(5) 0.065(7) 0.043(4) -0.012(4) -0.003(3) -0.001(5)
C12 0.061(6) 0.048(5) 0.056(4) 0.001(5) -0.001(4) -0.008(6)
C13 0.062(6) 0.051(6) 0.042(4) 0.002(4) -0.005(4) 0.006(5)
C14 0.062(7) 0.100(12) 0.097(8) -0.023(8) -0.001(6) -0.014(8)
N1 0.048(5) 0.061(6) 0.050(4) -0.006(4) 0.000(3) -0.013(4)
N2 0.048(4) 0.055(5) 0.044(4) -0.004(3) -0.004(3) 0.004(4)
O1 0.081(5) 0.087(7) 0.053(3) -0.029(4) -0.002(3) -0.024(5)
O2 0.067(5) 0.046(4) 0.077(4) 0.011(3) -0.003(3) -0.003(4)
S1 0.0543(15) 0.0473(13) 0.0442(11) -0.0055(10) -0.0022(8) -0.0060(13)
loop_
_atom_type_symbol
_atom_type_description
_atom_type_scat_dispersion_real
_atom_type_scat_dispersion_imag
_atom_type_scat_source
C C 0.0033 0.0016 'International Tables Vol C Tables 4.2.6.8 and 6.1.1.4'
H H 0.0000 0.0000 'International Tables Vol C Tables 4.2.6.8 and 6.1.1.4'
O O 0.0106 0.0060 'International Tables Vol C Tables 4.2.6.8 and 6.1.1.4'
N N 0.0061 0.0033 'International Tables Vol C Tables 4.2.6.8 and 6.1.1.4'
S S 0.1246 0.1234 'International Tables Vol C Tables 4.2.6.8 and 6.1.1.4'
loop_
_geom_angle_atom_site_label_1
_geom_angle_atom_site_label_2
_geom_angle_atom_site_label_3
_geom_angle
C2 C1 H1A 109.5
C2 C1 H1B 109.5
H1A C1 H1B 109.5
C2 C1 H1C 109.5
H1A C1 H1C 109.5
H1B C1 H1C 109.5
C3 C2 C7 120.0
C3 C2 C1 121.1(6)
C7 C2 C1 118.8(6)
C4 C3 C2 120.0
C4 C3 H3 120.0
C2 C3 H3 120.0
C3 C4 C5 120.0
C3 C4 H4 120.0
C5 C4 H4 120.0
C6 C5 C4 120.0
C6 C5 N1 120.5(5)
C4 C5 N1 119.5(5)
C7 C6 C5 120.0
C7 C6 H6 120.0
C5 C6 H6 120.0
C6 C7 C2 120.0
C6 C7 H7 120.0
C2 C7 H7 120.0
C9 C8 C13 120.0
C9 C8 S1 120.4(3)
C13 C8 S1 119.6(3)
C10 C9 C8 120.0
C10 C9 H9 120.0
C8 C9 H9 120.0
C11 C10 C9 120.0
C11 C10 H10 120.0
C9 C10 H10 120.0
C12 C11 C10 120.0
C12 C11 C14 119.8(7)
C10 C11 C14 120.1(7)
C11 C12 C13 120.0
C11 C12 H12 120.0
C13 C12 H12 120.0
C12 C13 C8 120.0
C12 C13 H13 120.0
C8 C13 H13 120.0
C11 C14 H14A 109.5
C11 C14 H14B 109.5
H14A C14 H14B 109.5
C11 C14 H14C 109.5
H14A C14 H14C 109.5
H14B C14 H14C 109.5
N2 N1 C5 118.5(6)
N2 N1 H1 120.7
C5 N1 H1 120.7
N1 N2 S1 115.7(6)
N1 N2 H2 122.2
S1 N2 H2 122.2
O2 S1 O1 119.4(5)
O2 S1 N2 107.5(4)
O1 S1 N2 105.0(4)
O2 S1 C8 108.7(4)
O1 S1 C8 108.3(4)
N2 S1 C8 107.2(4)
loop_
_geom_bond_atom_site_label_1
_geom_bond_atom_site_label_2
_geom_bond_distance
C1 C2 1.548(11)
C1 H1A 0.9600
C1 H1B 0.9600
C1 H1C 0.9600
C2 C3 1.3900
C2 C7 1.3900
C3 C4 1.3900
C3 H3 0.9300
C4 C5 1.3900
C4 H4 0.9300
C5 C6 1.3900
C5 N1 1.419(8)
C6 C7 1.3900
C6 H6 0.9300
C7 H7 0.9300
C8 C9 1.3900
C8 C13 1.3900
C8 S1 1.757(5)
C9 C10 1.3900
C9 H9 0.9300
C10 C11 1.3900
C10 H10 0.9300
C11 C12 1.3900
C11 C14 1.516(13)
C12 C13 1.3900
C12 H12 0.9300
C13 H13 0.9300
C14 H14A 0.9600
C14 H14B 0.9600
C14 H14C 0.9600
N1 N2 1.383(9)
N1 H1 0.8600
N2 S1 1.623(8)
N2 H2 0.8600
O1 S1 1.441(6)
O2 S1 1.425(7)
loop_
_geom_torsion_atom_site_label_1
_geom_torsion_atom_site_label_2
_geom_torsion_atom_site_label_3
_geom_torsion_atom_site_label_4
_geom_torsion
C7 C2 C3 C4 0.0
C1 C2 C3 C4 -177.0(7)
C2 C3 C4 C5 0.0
C3 C4 C5 C6 0.0
C3 C4 C5 N1 179.2(6)
C4 C5 C6 C7 0.0
N1 C5 C6 C7 -179.2(6)
C5 C6 C7 C2 0.0
C3 C2 C7 C6 0.0
C1 C2 C7 C6 177.0(7)
C13 C8 C9 C10 0.0
S1 C8 C9 C10 -179.3(5)
C8 C9 C10 C11 0.0
C9 C10 C11 C12 0.0
C9 C10 C11 C14 178.9(8)
C10 C11 C12 C13 0.0
C14 C11 C12 C13 -178.9(8)
C11 C12 C13 C8 0.0
C9 C8 C13 C12 0.0
S1 C8 C13 C12 179.3(5)
C6 C5 N1 N2 -25.4(9)
C4 C5 N1 N2 155.4(6)
C5 N1 N2 S1 117.4(7)
N1 N2 S1 O2 -60.4(7)
N1 N2 S1 O1 171.4(7)
N1 N2 S1 C8 56.3(7)
C9 C8 S1 O2 -2.8(5)
C13 C8 S1 O2 177.9(4)
C9 C8 S1 O1 128.3(5)
C13 C8 S1 O1 -51.0(6)
C9 C8 S1 N2 -118.8(4)
C13 C8 S1 N2 61.9(4)
