#------------------------------------------------------------------------------
#$Date: 2019-11-17 06:14:30 +0200 (Sun, 17 Nov 2019) $
#$Revision: 228357 $
#$URL: file:///home/coder/svn-repositories/cod/cif/7/12/17/7121740.cif $
#------------------------------------------------------------------------------
#
# This file is available in the Crystallography Open Database (COD),
# http://www.crystallography.net/
#
# All data on this site have been placed in the public domain by the
# contributors.
#
data_7121740
loop_
_publ_author_name
'Alimi, Lukman O.'
'van Heerden, Dewald P.'
'Lama, Prem'
'Smith, Vincent J.'
'Barbour, Leonard J.'
_publ_section_title
;
 Reversible thermosalience of 4-aminobenzonitrile.
;
_journal_issue                   48
_journal_name_full
'Chemical communications (Cambridge, England)'
_journal_page_first              6208
_journal_page_last               6211
_journal_paper_doi               10.1039/c8cc03636e
_journal_volume                  54
_journal_year                    2018
_chemical_formula_sum            'C7 H6 N2'
_chemical_formula_weight         118.14
_chemical_name_common            4-aminobenzonitrile
_chemical_name_systematic        4-aminobenzonitrile
_space_group_crystal_system      monoclinic
_space_group_IT_number           14
_space_group_name_Hall           '-P 2ybc'
_space_group_name_H-M_alt        'P 1 21/c 1'
_symmetry_space_group_name_Hall  '-P 2ybc'
_symmetry_space_group_name_H-M   'P 1 21/c 1'
_atom_sites_solution_hydrogens   mixed
_audit_creation_method           SHELXL-2018/3
_audit_update_record
;
2018-05-01 deposited with the CCDC.
2018-05-24 downloaded from the CCDC.
;
_cell_angle_alpha                90
_cell_angle_beta                 102.034(2)
_cell_angle_gamma                90
_cell_formula_units_Z            4
_cell_length_a                   7.3198(5)
_cell_length_b                   5.5097(3)
_cell_length_c                   16.0906(11)
_cell_measurement_reflns_used    3909
_cell_measurement_temperature    280(2)
_cell_measurement_theta_max      25.9
_cell_measurement_theta_min      2.59
_cell_volume                     634.67(7)
_computing_cell_refinement       'Bruker SAINT'
_computing_data_collection       'Bruker APEX2'
_computing_data_reduction        'Bruker SAINT'
_computing_molecular_graphics    'Bruker SHELXTL'
_computing_publication_material  'Bruker SHELXTL'
_computing_structure_refinement  'SHELXL-2018/3 (Sheldrick, 2018)'
_computing_structure_solution    'SHELXS-97 (Sheldrick 2008)'
_diffrn_ambient_temperature      280(2)
_diffrn_measured_fraction_theta_full 0.990
_diffrn_measured_fraction_theta_max 0.991
_diffrn_measurement_device_type  'Bruker APEX-II CCD'
_diffrn_measurement_method       '\f and \w scans'
_diffrn_radiation_type           MoK\a
_diffrn_radiation_wavelength     0.71073
_diffrn_reflns_av_R_equivalents  0.0337
_diffrn_reflns_av_unetI/netI     0.0180
_diffrn_reflns_Laue_measured_fraction_full 0.990
_diffrn_reflns_Laue_measured_fraction_max 0.991
_diffrn_reflns_limit_h_max       8
_diffrn_reflns_limit_h_min       -8
_diffrn_reflns_limit_k_max       6
_diffrn_reflns_limit_k_min       -6
_diffrn_reflns_limit_l_max       19
_diffrn_reflns_limit_l_min       -19
_diffrn_reflns_number            9938
_diffrn_reflns_point_group_measured_fraction_full 0.990
_diffrn_reflns_point_group_measured_fraction_max 0.991
_diffrn_reflns_theta_full        25.000
_diffrn_reflns_theta_max         25.338
_diffrn_reflns_theta_min         2.845
_exptl_absorpt_coefficient_mu    0.078
_exptl_absorpt_correction_T_max  0.987
_exptl_absorpt_correction_T_min  0.953
_exptl_absorpt_correction_type   multi-scan
_exptl_absorpt_process_details   SADABS
_exptl_crystal_colour            Colourless
_exptl_crystal_density_diffrn    1.236
_exptl_crystal_description       Rectangular
_exptl_crystal_F_000             248
_exptl_crystal_size_max          0.62
_exptl_crystal_size_mid          0.43
_exptl_crystal_size_min          0.15
_exptl_transmission_factor_max   0.987
_exptl_transmission_factor_min   0.953
_refine_diff_density_max         0.093
_refine_diff_density_min         -0.118
_refine_diff_density_rms         0.021
_refine_ls_extinction_method     none
_refine_ls_goodness_of_fit_ref   1.078
_refine_ls_hydrogen_treatment    mixed
_refine_ls_matrix_type           full
_refine_ls_number_parameters     90
_refine_ls_number_reflns         1151
_refine_ls_number_restraints     2
_refine_ls_restrained_S_all      1.089
_refine_ls_R_factor_all          0.0493
_refine_ls_R_factor_gt           0.0403
_refine_ls_shift/su_max          0.000
_refine_ls_shift/su_mean         0.000
_refine_ls_structure_factor_coef Fsqd
_refine_ls_weighting_details
'w=1/[\s^2^(Fo^2^)+(0.0499P)^2^+0.0798P] where P=(Fo^2^+2Fc^2^)/3'
_refine_ls_weighting_scheme      calc
_refine_ls_wR_factor_gt          0.1035
_refine_ls_wR_factor_ref         0.1111
_reflns_Friedel_coverage         0.000
_reflns_number_gt                958
_reflns_number_total             1151
_reflns_threshold_expression     'I > 2\s(I)'
_cod_data_source_file            c8cc03636e6.cif
_cod_data_source_block           ABN_280K
_cod_depositor_comments
;
The following automatic conversions were performed:

'_exptl_absorpt_correction_type' value 'Multi-scan' changed to
'multi-scan' according to
/home/data/users/saulius/crontab/automatic-downloads/rss-feeds/RSC/lib/dictionaries/cif_core.dic
dictionary named 'cif_core.dic' version 2.4.2 from 2011-04-26.

Automatic conversion script
Id: cif_fix_values 4973 2017-02-22 13:04:09Z antanas 

 Adding full bibliography for 7121738--7121749.cif.
;
_cod_database_code               7121740
_shelx_shelxl_version_number     2018/3
_shelx_space_group_comment
;
The symmetry employed for this shelxl refinement is uniquely defined
by the following loop, which should always be used as a source of
symmetry information in preference to the above space-group names.
They are only intended as comments.
;
_shelx_res_file
;
TITL 280K in P2(1)/c
    C:\Users\lukman\Desktop\CS_LUK~1\ABN_CH~1\ABN_280K\ABN_280K_CIF.res
    created by SHELXL-2018/3 at 07:20:18 on 24-Apr-2018
CELL 0.71073 7.3198 5.5097 16.0906 90.000 102.034 90.000
ZERR 4.0000 0.0005 0.0003 0.0011 0.000 0.002 0.000
LATT 1
SYMM -X, 0.5+Y, 0.5-Z
SFAC C H N
UNIT 28 24 8
BOND
DFIX 1.02 0.01 N1 H1B
DFIX 1.02 0.01 N1 H1A
ACTA 50
FMAP 2 1 53
PLAN 20 0 0
TEMP 7
L.S. 4
WGHT    0.049900    0.079800
FVAR       0.82512
C5    1    0.828661    0.601574    0.573559    11.00000    0.05915    0.05680 =
         0.06499    0.00888    0.01374   -0.00081
AFIX  43
H5    2    0.878382    0.663376    0.529250    11.00000   -1.20000
AFIX   0
C4    1    0.729190    0.384582    0.562796    11.00000    0.05128    0.05744 =
         0.06024   -0.00105    0.00698   -0.00029
C1    1    0.778883    0.636144    0.716323    11.00000    0.04673    0.05425 =
         0.06541   -0.00158    0.00825    0.00208
C2    1    0.677435    0.419707    0.704379    11.00000    0.05584    0.06380 =
         0.06677    0.00152    0.01759   -0.00745
AFIX  43
H2    2    0.625536    0.358639    0.748140    11.00000   -1.20000
AFIX   0
C3    1    0.653576    0.296809    0.629265    11.00000    0.05497    0.05700 =
         0.07360   -0.00230    0.01335   -0.01092
AFIX  43
H3    2    0.585954    0.152691    0.622478    11.00000   -1.20000
AFIX   0
N1    3    0.803453    0.756234    0.792087    11.00000    0.07807    0.07499 =
         0.07396   -0.01760    0.01977   -0.01227
C6    1    0.853726    0.724644    0.649093    11.00000    0.05795    0.04736 =
         0.07540    0.00180    0.01185   -0.00499
AFIX  43
H6    2    0.921334    0.868777    0.655723    11.00000   -1.20000
AFIX   0
C7    1    0.712334    0.247666    0.486189    11.00000    0.06438    0.07332 =
         0.06788   -0.00279    0.01169   -0.00918
N2    3    0.703851    0.132965    0.425926    11.00000    0.10141    0.10109 =
         0.07699   -0.02163    0.02418   -0.02302
H1B   2    0.758982    0.678491    0.839296    11.00000    0.10005
H1A   2    0.878610    0.905395    0.801101    11.00000    0.11368
HKLF 4




REM  280K in P2(1)/c
REM wR2 = 0.1111, GooF = S = 1.078, Restrained GooF = 1.089 for all data
REM R1 = 0.0403 for 958 Fo > 4sig(Fo) and 0.0493 for all 1151 data
REM 90 parameters refined using 2 restraints

END

WGHT      0.0499      0.0798

REM Highest difference peak  0.093,  deepest hole -0.118,  1-sigma level  0.021
Q1    1   0.7568  0.7077  0.5997  11.00000  0.05    0.09
Q2    1   0.7603  0.7275  0.6762  11.00000  0.05    0.09
Q3    1   0.8843  0.6315  0.6998  11.00000  0.05    0.09
Q4    1   0.7178  0.7415  0.7412  11.00000  0.05    0.09
Q5    1   0.8424  0.4299  0.5777  11.00000  0.05    0.09
Q6    1   0.5830  0.4145  0.6519  11.00000  0.05    0.08
Q7    1   0.7637  0.2957  0.6024  11.00000  0.05    0.08
Q8    1   0.6722  0.5788  0.6963  11.00000  0.05    0.08
Q9    1   0.8054  0.4620  0.7216  11.00000  0.05    0.08
Q10   1   0.6253  0.3853  0.5782  11.00000  0.05    0.08
Q11   1   0.8198  0.1717  0.4774  11.00000  0.05    0.07
Q12   1   0.7214  0.3051  0.7779  11.00000  0.05    0.07
Q13   1   0.6261  0.0914  0.3579  11.00000  0.05    0.07
Q14   1   0.9204  0.5833  0.6276  11.00000  0.05    0.07
Q15   1   0.7168  0.5276  0.5582  11.00000  0.05    0.07
Q16   1   0.5016  0.2233  0.6129  11.00000  0.05    0.07
Q17   1   0.6685  0.0280  0.6545  11.00000  0.05    0.06
Q18   1   0.6820  0.0126  0.3771  11.00000  0.05    0.06
Q19   1   0.6718  0.3160  0.4225  11.00000  0.05    0.06
Q20   1   0.8862  0.6623  0.7772  11.00000  0.05    0.06
;
_shelx_res_checksum              99982
loop_
_space_group_symop_operation_xyz
'x, y, z'
'-x, y+1/2, -z+1/2'
'-x, -y, -z'
'x, -y-1/2, z-1/2'
loop_
_atom_site_label
_atom_site_type_symbol
_atom_site_fract_x
_atom_site_fract_y
_atom_site_fract_z
_atom_site_U_iso_or_equiv
_atom_site_adp_type
_atom_site_occupancy
_atom_site_site_symmetry_order
_atom_site_calc_flag
_atom_site_refinement_flags_posn
_atom_site_refinement_flags_adp
C5 C 0.82866(18) 0.6016(2) 0.57356(8) 0.0602(4) Uani 1 1 d . .
H5 H 0.878382 0.663376 0.529250 0.072 Uiso 1 1 calc R U
C4 C 0.72919(17) 0.3846(2) 0.56280(8) 0.0570(4) Uani 1 1 d . .
C1 C 0.77888(17) 0.6361(2) 0.71632(8) 0.0560(4) Uani 1 1 d . .
C2 C 0.67744(17) 0.4197(3) 0.70438(9) 0.0614(4) Uani 1 1 d . .
H2 H 0.625536 0.358639 0.748140 0.074 Uiso 1 1 calc R U
C3 C 0.65358(18) 0.2968(3) 0.62927(9) 0.0619(4) Uani 1 1 d . .
H3 H 0.585954 0.152691 0.622478 0.074 Uiso 1 1 calc R U
N1 N 0.80345(19) 0.7562(3) 0.79209(8) 0.0751(4) Uani 1 1 d D .
C6 C 0.85373(18) 0.7246(2) 0.64909(8) 0.0605(4) Uani 1 1 d . .
H6 H 0.921334 0.868777 0.655723 0.073 Uiso 1 1 calc R U
C7 C 0.7123(2) 0.2477(3) 0.48619(9) 0.0688(4) Uani 1 1 d . .
N2 N 0.7039(2) 0.1330(3) 0.42593(8) 0.0923(5) Uani 1 1 d . .
H1B H 0.759(2) 0.678(3) 0.8393(8) 0.100(6) Uiso 1 1 d D .
H1A H 0.879(2) 0.905(2) 0.8011(11) 0.114(6) Uiso 1 1 d D .
loop_
_atom_site_aniso_label
_atom_site_aniso_U_11
_atom_site_aniso_U_22
_atom_site_aniso_U_33
_atom_site_aniso_U_23
_atom_site_aniso_U_13
_atom_site_aniso_U_12
C5 0.0591(8) 0.0568(8) 0.0650(8) 0.0089(6) 0.0137(6) -0.0008(6)
C4 0.0513(7) 0.0574(8) 0.0602(8) -0.0010(6) 0.0070(6) -0.0003(6)
C1 0.0467(7) 0.0543(7) 0.0654(8) -0.0016(6) 0.0082(6) 0.0021(6)
C2 0.0558(8) 0.0638(8) 0.0668(8) 0.0015(6) 0.0176(6) -0.0075(6)
C3 0.0550(8) 0.0570(8) 0.0736(9) -0.0023(6) 0.0134(6) -0.0109(6)
N1 0.0781(9) 0.0750(9) 0.0740(8) -0.0176(7) 0.0198(6) -0.0123(7)
C6 0.0580(8) 0.0474(7) 0.0754(9) 0.0018(6) 0.0119(6) -0.0050(6)
C7 0.0644(9) 0.0733(10) 0.0679(9) -0.0028(7) 0.0117(7) -0.0092(7)
N2 0.1014(11) 0.1011(11) 0.0770(9) -0.0216(8) 0.0242(8) -0.0230(8)
loop_
_atom_type_symbol
_atom_type_description
_atom_type_scat_dispersion_real
_atom_type_scat_dispersion_imag
_atom_type_scat_source
C C 0.0033 0.0016 'International Tables Vol C Tables 4.2.6.8 and 6.1.1.4'
H H 0.0000 0.0000 'International Tables Vol C Tables 4.2.6.8 and 6.1.1.4'
N N 0.0061 0.0033 'International Tables Vol C Tables 4.2.6.8 and 6.1.1.4'
loop_
_geom_angle_atom_site_label_1
_geom_angle_atom_site_label_2
_geom_angle_atom_site_label_3
_geom_angle
C6 C5 C4 120.35(12)
C3 C4 C5 119.03(12)
C3 C4 C7 120.25(12)
C5 C4 C7 120.66(12)
N1 C1 C2 120.25(12)
N1 C1 C6 121.45(13)
C2 C1 C6 118.30(12)
C3 C2 C1 120.78(12)
C2 C3 C4 120.74(13)
C5 C6 C1 120.80(13)
N2 C7 C4 177.69(17)
loop_
_geom_bond_atom_site_label_1
_geom_bond_atom_site_label_2
_geom_bond_distance
C5 C6 1.3703(17)
C5 C4 1.3917(19)
C4 C3 1.3896(18)
C4 C7 1.4284(19)
C1 N1 1.3656(17)
C1 C2 1.3968(19)
C1 C6 1.3983(18)
C2 C3 1.3645(18)
C7 N2 1.1482(18)
