#------------------------------------------------------------------------------
#$Date: 2019-11-17 06:14:30 +0200 (Sun, 17 Nov 2019) $
#$Revision: 228357 $
#$URL: file:///home/coder/svn-repositories/cod/cif/7/12/17/7121742.cif $
#------------------------------------------------------------------------------
#
# This file is available in the Crystallography Open Database (COD),
# http://www.crystallography.net/
#
# All data on this site have been placed in the public domain by the
# contributors.
#
data_7121742
loop_
_publ_author_name
'Alimi, Lukman O.'
'van Heerden, Dewald P.'
'Lama, Prem'
'Smith, Vincent J.'
'Barbour, Leonard J.'
_publ_section_title
;
 Reversible thermosalience of 4-aminobenzonitrile.
;
_journal_issue                   48
_journal_name_full
'Chemical communications (Cambridge, England)'
_journal_page_first              6208
_journal_page_last               6211
_journal_paper_doi               10.1039/c8cc03636e
_journal_volume                  54
_journal_year                    2018
_chemical_formula_sum            'C7 H6 N2'
_chemical_formula_weight         118.14
_chemical_name_common            4-aminobenzonitrile
_chemical_name_systematic        4-aminobenzonitrile
_space_group_crystal_system      monoclinic
_space_group_IT_number           14
_space_group_name_Hall           '-P 2ybc'
_space_group_name_H-M_alt        'P 1 21/c 1'
_symmetry_space_group_name_Hall  '-P 2ybc'
_symmetry_space_group_name_H-M   'P 1 21/c 1'
_atom_sites_solution_hydrogens   mixed
_audit_creation_method           SHELXL-2018/3
_audit_update_record
;
2018-05-01 deposited with the CCDC.
2018-05-24 downloaded from the CCDC.
;
_cell_angle_alpha                90
_cell_angle_beta                 102.118(2)
_cell_angle_gamma                90
_cell_formula_units_Z            4
_cell_length_a                   7.3414(5)
_cell_length_b                   5.5181(4)
_cell_length_c                   16.1043(11)
_cell_measurement_reflns_used    3671
_cell_measurement_temperature    300(2)
_cell_measurement_theta_max      26.00
_cell_measurement_theta_min      2.59
_cell_volume                     637.86(8)
_computing_cell_refinement       'Bruker SAINT'
_computing_data_collection       'Bruker APEX2'
_computing_data_reduction        'Bruker SAINT'
_computing_molecular_graphics    'Bruker SHELXTL'
_computing_publication_material  'Bruker SHELXTL'
_computing_structure_refinement  'SHELXL-2018/3 (Sheldrick, 2018)'
_computing_structure_solution    'SHELXS-97 (Sheldrick 2008)'
_diffrn_ambient_temperature      300(2)
_diffrn_measured_fraction_theta_full 0.991
_diffrn_measured_fraction_theta_max 0.991
_diffrn_measurement_device_type  'Bruker APEX-II CCD'
_diffrn_measurement_method       '\f and \w scans'
_diffrn_radiation_type           MoK\a
_diffrn_radiation_wavelength     0.71073
_diffrn_reflns_av_R_equivalents  0.0344
_diffrn_reflns_av_unetI/netI     0.0188
_diffrn_reflns_Laue_measured_fraction_full 0.991
_diffrn_reflns_Laue_measured_fraction_max 0.991
_diffrn_reflns_limit_h_max       8
_diffrn_reflns_limit_h_min       -8
_diffrn_reflns_limit_k_max       6
_diffrn_reflns_limit_k_min       -6
_diffrn_reflns_limit_l_max       19
_diffrn_reflns_limit_l_min       -19
_diffrn_reflns_number            9632
_diffrn_reflns_point_group_measured_fraction_full 0.991
_diffrn_reflns_point_group_measured_fraction_max 0.991
_diffrn_reflns_theta_full        25.000
_diffrn_reflns_theta_max         25.024
_diffrn_reflns_theta_min         2.838
_exptl_absorpt_coefficient_mu    0.077
_exptl_absorpt_correction_T_max  0.987
_exptl_absorpt_correction_T_min  0.953
_exptl_absorpt_correction_type   multi-scan
_exptl_absorpt_process_details   SADABS
_exptl_crystal_colour            Colourless
_exptl_crystal_density_diffrn    1.230
_exptl_crystal_description       Rectangular
_exptl_crystal_F_000             248
_exptl_crystal_size_max          0.63
_exptl_crystal_size_mid          0.44
_exptl_crystal_size_min          0.16
_exptl_transmission_factor_max   0.987
_exptl_transmission_factor_min   0.953
_refine_diff_density_max         0.094
_refine_diff_density_min         -0.120
_refine_diff_density_rms         0.020
_refine_ls_extinction_method     none
_refine_ls_goodness_of_fit_ref   1.043
_refine_ls_hydrogen_treatment    mixed
_refine_ls_matrix_type           full
_refine_ls_number_parameters     90
_refine_ls_number_reflns         1119
_refine_ls_number_restraints     2
_refine_ls_restrained_S_all      1.052
_refine_ls_R_factor_all          0.0522
_refine_ls_R_factor_gt           0.0407
_refine_ls_shift/su_max          0.000
_refine_ls_shift/su_mean         0.000
_refine_ls_structure_factor_coef Fsqd
_refine_ls_weighting_details
'w=1/[\s^2^(Fo^2^)+(0.0471P)^2^+0.0902P] where P=(Fo^2^+2Fc^2^)/3'
_refine_ls_weighting_scheme      calc
_refine_ls_wR_factor_gt          0.1013
_refine_ls_wR_factor_ref         0.1096
_reflns_Friedel_coverage         0.000
_reflns_number_gt                905
_reflns_number_total             1119
_reflns_threshold_expression     'I > 2\s(I)'
_cod_data_source_file            c8cc03636e6.cif
_cod_data_source_block           ABN_300K
_cod_depositor_comments
;
The following automatic conversions were performed:

'_exptl_absorpt_correction_type' value 'Multi-scan' changed to
'multi-scan' according to
/home/data/users/saulius/crontab/automatic-downloads/rss-feeds/RSC/lib/dictionaries/cif_core.dic
dictionary named 'cif_core.dic' version 2.4.2 from 2011-04-26.

Automatic conversion script
Id: cif_fix_values 4973 2017-02-22 13:04:09Z antanas 

 Adding full bibliography for 7121738--7121749.cif.
;
_cod_database_code               7121742
_shelx_shelxl_version_number     2018/3
_shelx_space_group_comment
;
The symmetry employed for this shelxl refinement is uniquely defined
by the following loop, which should always be used as a source of
symmetry information in preference to the above space-group names.
They are only intended as comments.
;
_shelx_res_file
;
TITL 300K in P2(1)/c
    C:\Users\lukman\Desktop\CS_LUK~1\ABN_CH~1\ABN_300K\ABN_300K_CIF.res
    created by SHELXL-2018/3 at 12:17:01 on 23-Apr-2018
CELL 0.71073 7.3414 5.5181 16.1043 90.000 102.118 90.000
ZERR 4.0000 0.0005 0.0004 0.0011 0.000 0.002 0.000
LATT 1
SYMM -X, 0.5+Y, 0.5-Z
SFAC C H N
UNIT 28 24 8
BOND
DFIX 1.02 0.01 N1 H1B
DFIX 1.02 0.01 N1 H1A
ACTA 50
FMAP 2 1 53
PLAN 20 0 0
TEMP 27
L.S. 4
WGHT    0.047100    0.090200
FVAR       0.85007
C5    1    0.828556    0.600645    0.573642    11.00000    0.06580    0.06196 =
         0.07034    0.00910    0.01579   -0.00079
AFIX  43
H5    2    0.878248    0.662471    0.529453    11.00000   -1.20000
AFIX   0
C4    1    0.729407    0.384231    0.562746    11.00000    0.05602    0.06246 =
         0.06535   -0.00150    0.00814   -0.00020
C1    1    0.778532    0.635186    0.716112    11.00000    0.05133    0.05949 =
         0.07022   -0.00187    0.00892    0.00254
N1    3    0.803276    0.754947    0.791917    11.00000    0.08519    0.08242 =
         0.08102   -0.01876    0.02242   -0.01318
C2    1    0.677612    0.419346    0.704060    11.00000    0.06173    0.06952 =
         0.07216    0.00089    0.01909   -0.00895
AFIX  43
H2    2    0.625906    0.358240    0.747747    11.00000   -1.20000
AFIX   0
C3    1    0.653792    0.296796    0.629054    11.00000    0.06030    0.06322 =
         0.07986   -0.00207    0.01449   -0.01157
AFIX  43
H3    2    0.586163    0.153044    0.622193    11.00000   -1.20000
AFIX   0
C7    1    0.712464    0.248007    0.486229    11.00000    0.07137    0.08013 =
         0.07310   -0.00308    0.01273   -0.00954
C6    1    0.853376    0.723101    0.649067    11.00000    0.06267    0.05253 =
         0.08216    0.00138    0.01341   -0.00585
AFIX  43
H6    2    0.921006    0.866855    0.655797    11.00000   -1.20000
AFIX   0
N2    3    0.703727    0.133719    0.425985    11.00000    0.11025    0.11065 =
         0.08408   -0.02363    0.02682   -0.02458
H1B   2    0.757260    0.676648    0.838660    11.00000    0.11032
H1A   2    0.878877    0.904111    0.800210    11.00000    0.12599
HKLF 4




REM  300K in P2(1)/c
REM wR2 = 0.1096, GooF = S = 1.043, Restrained GooF = 1.052 for all data
REM R1 = 0.0407 for 905 Fo > 4sig(Fo) and 0.0522 for all 1119 data
REM 90 parameters refined using 2 restraints

END

WGHT      0.0471      0.0900

REM Highest difference peak  0.094,  deepest hole -0.120,  1-sigma level  0.020
Q1    1   0.7488  0.7375  0.6713  11.00000  0.05    0.09
Q2    1   0.7508  0.7021  0.5999  11.00000  0.05    0.09
Q3    1   0.8397  0.4310  0.5832  11.00000  0.05    0.08
Q4    1   0.7152  0.7395  0.7412  11.00000  0.05    0.08
Q5    1   0.8850  0.6362  0.6999  11.00000  0.05    0.07
Q6    1   0.9319  0.5823  0.6357  11.00000  0.05    0.07
Q7    1   0.7089  0.5330  0.5556  11.00000  0.05    0.07
Q8    1   0.6480  0.6062  0.6831  11.00000  0.05    0.07
Q9    1   0.7554  0.2805  0.6049  11.00000  0.05    0.07
Q10   1   0.8873  0.6412  0.7769  11.00000  0.05    0.07
Q11   1   0.7203  0.2889  0.7786  11.00000  0.05    0.07
Q12   1   0.6141  0.0746  0.3604  11.00000  0.05    0.07
Q13   1   0.8234  0.1632  0.4743  11.00000  0.05    0.07
Q14   1   0.6804  0.3104  0.4255  11.00000  0.05    0.06
Q15   1   0.5858  0.4248  0.6448  11.00000  0.05    0.06
Q16   1   0.7778  0.1231  0.3602  11.00000  0.05    0.06
Q17   1   0.7586  0.7161  0.8239  11.00000  0.05    0.06
Q18   1   0.6159  0.3944  0.5790  11.00000  0.05    0.06
Q19   1   0.8059  0.4667  0.7233  11.00000  0.05    0.06
Q20   1   0.4899  0.1879  0.5632  11.00000  0.05    0.06
;
_shelx_res_checksum              21683
loop_
_space_group_symop_operation_xyz
'x, y, z'
'-x, y+1/2, -z+1/2'
'-x, -y, -z'
'x, -y-1/2, z-1/2'
loop_
_atom_site_label
_atom_site_type_symbol
_atom_site_fract_x
_atom_site_fract_y
_atom_site_fract_z
_atom_site_U_iso_or_equiv
_atom_site_adp_type
_atom_site_occupancy
_atom_site_site_symmetry_order
_atom_site_calc_flag
_atom_site_refinement_flags_posn
_atom_site_refinement_flags_adp
C5 C 0.82856(19) 0.6006(3) 0.57364(9) 0.0658(4) Uani 1 1 d . .
H5 H 0.878248 0.662471 0.529453 0.079 Uiso 1 1 calc R U
C4 C 0.72941(18) 0.3842(3) 0.56275(8) 0.0620(4) Uani 1 1 d . .
C1 C 0.77853(18) 0.6352(3) 0.71611(9) 0.0609(4) Uani 1 1 d . .
N1 N 0.8033(2) 0.7549(3) 0.79192(9) 0.0821(4) Uani 1 1 d D .
C2 C 0.67761(18) 0.4193(3) 0.70406(9) 0.0671(4) Uani 1 1 d . .
H2 H 0.625906 0.358240 0.747747 0.080 Uiso 1 1 calc R U
C3 C 0.65379(19) 0.2968(3) 0.62905(9) 0.0678(4) Uani 1 1 d . .
H3 H 0.586163 0.153044 0.622193 0.081 Uiso 1 1 calc R U
C7 C 0.7125(2) 0.2480(3) 0.48623(10) 0.0752(5) Uani 1 1 d . .
C6 C 0.85338(19) 0.7231(3) 0.64907(9) 0.0661(4) Uani 1 1 d . .
H6 H 0.921006 0.866855 0.655797 0.079 Uiso 1 1 calc R U
N2 N 0.7037(2) 0.1337(3) 0.42598(9) 0.1007(6) Uani 1 1 d . .
H1B H 0.757(2) 0.677(3) 0.8387(8) 0.110(6) Uiso 1 1 d D .
H1A H 0.879(2) 0.904(3) 0.8002(12) 0.126(7) Uiso 1 1 d D .
loop_
_atom_site_aniso_label
_atom_site_aniso_U_11
_atom_site_aniso_U_22
_atom_site_aniso_U_33
_atom_site_aniso_U_23
_atom_site_aniso_U_13
_atom_site_aniso_U_12
C5 0.0658(9) 0.0620(9) 0.0703(9) 0.0091(7) 0.0158(7) -0.0008(7)
C4 0.0560(8) 0.0625(9) 0.0654(8) -0.0015(7) 0.0081(6) -0.0002(6)
C1 0.0513(7) 0.0595(8) 0.0702(8) -0.0019(7) 0.0089(6) 0.0025(6)
N1 0.0852(10) 0.0824(10) 0.0810(9) -0.0188(7) 0.0224(7) -0.0132(8)
C2 0.0617(8) 0.0695(9) 0.0722(9) 0.0009(7) 0.0191(7) -0.0089(7)
C3 0.0603(9) 0.0632(8) 0.0799(9) -0.0021(7) 0.0145(7) -0.0116(7)
C7 0.0714(10) 0.0801(11) 0.0731(10) -0.0031(8) 0.0127(7) -0.0095(8)
C6 0.0627(9) 0.0525(8) 0.0822(10) 0.0014(7) 0.0134(7) -0.0059(6)
N2 0.1102(12) 0.1106(13) 0.0841(10) -0.0236(9) 0.0268(9) -0.0246(9)
loop_
_atom_type_symbol
_atom_type_description
_atom_type_scat_dispersion_real
_atom_type_scat_dispersion_imag
_atom_type_scat_source
C C 0.0033 0.0016 'International Tables Vol C Tables 4.2.6.8 and 6.1.1.4'
H H 0.0000 0.0000 'International Tables Vol C Tables 4.2.6.8 and 6.1.1.4'
N N 0.0061 0.0033 'International Tables Vol C Tables 4.2.6.8 and 6.1.1.4'
loop_
_geom_angle_atom_site_label_1
_geom_angle_atom_site_label_2
_geom_angle_atom_site_label_3
_geom_angle
C6 C5 C4 120.32(13)
C3 C4 C5 118.97(13)
C3 C4 C7 120.30(13)
C5 C4 C7 120.67(13)
N1 C1 C2 120.30(13)
N1 C1 C6 121.50(14)
C2 C1 C6 118.20(13)
C3 C2 C1 120.84(13)
C2 C3 C4 120.74(14)
N2 C7 C4 177.72(18)
C5 C6 C1 120.92(14)
loop_
_geom_bond_atom_site_label_1
_geom_bond_atom_site_label_2
_geom_bond_distance
C5 C6 1.3683(18)
C5 C4 1.390(2)
C4 C3 1.3893(19)
C4 C7 1.426(2)
C1 N1 1.3664(18)
C1 C2 1.395(2)
C1 C6 1.3972(19)
C2 C3 1.3632(19)
C7 N2 1.1476(19)
