#------------------------------------------------------------------------------
#$Date: 2019-11-17 06:14:30 +0200 (Sun, 17 Nov 2019) $
#$Revision: 228357 $
#$URL: file:///home/coder/svn-repositories/cod/cif/7/12/17/7121741.cif $
#------------------------------------------------------------------------------
#
# This file is available in the Crystallography Open Database (COD),
# http://www.crystallography.net/
#
# All data on this site have been placed in the public domain by the
# contributors.
#
data_7121741
loop_
_publ_author_name
'Alimi, Lukman O.'
'van Heerden, Dewald P.'
'Lama, Prem'
'Smith, Vincent J.'
'Barbour, Leonard J.'
_publ_section_title
;
 Reversible thermosalience of 4-aminobenzonitrile.
;
_journal_issue                   48
_journal_name_full
'Chemical communications (Cambridge, England)'
_journal_page_first              6208
_journal_page_last               6211
_journal_paper_doi               10.1039/c8cc03636e
_journal_volume                  54
_journal_year                    2018
_chemical_formula_sum            'C7 H6 N2'
_chemical_formula_weight         118.14
_chemical_name_common            4-aminobenzonitrile
_chemical_name_systematic        4-aminobenzonitrile
_space_group_crystal_system      monoclinic
_space_group_IT_number           14
_space_group_name_Hall           '-P 2ybc'
_space_group_name_H-M_alt        'P 1 21/c 1'
_symmetry_space_group_name_Hall  '-P 2ybc'
_symmetry_space_group_name_H-M   'P 1 21/c 1'
_atom_sites_solution_hydrogens   geom
_audit_creation_method           SHELXL-2018/3
_audit_update_record
;
2018-05-01 deposited with the CCDC.
2018-05-24 downloaded from the CCDC.
;
_cell_angle_alpha                90
_cell_angle_beta                 101.835(3)
_cell_angle_gamma                90
_cell_formula_units_Z            4
_cell_length_a                   7.2662(6)
_cell_length_b                   5.4906(4)
_cell_length_c                   16.0552(13)
_cell_measurement_reflns_used    4270
_cell_measurement_temperature    220(2)
_cell_measurement_theta_max      26.02
_cell_measurement_theta_min      2.59
_cell_volume                     626.92(9)
_computing_cell_refinement       'Bruker SAINT'
_computing_data_collection       'Bruker APEX2'
_computing_data_reduction        'Bruker SAINT'
_computing_molecular_graphics    'Bruker SHELXTL'
_computing_publication_material  'Bruker SHELXTL'
_computing_structure_refinement  'SHELXL-2018/3 (Sheldrick, 2018)'
_computing_structure_solution    'SHELXS-97 (Sheldrick 2008)'
_diffrn_ambient_temperature      220(2)
_diffrn_measured_fraction_theta_full 0.990
_diffrn_measured_fraction_theta_max 0.990
_diffrn_measurement_device_type  'Bruker APEX-II CCD'
_diffrn_measurement_method       '\f and \w scans'
_diffrn_radiation_type           MoK\a
_diffrn_radiation_wavelength     0.71073
_diffrn_reflns_av_R_equivalents  0.0269
_diffrn_reflns_av_unetI/netI     0.0146
_diffrn_reflns_Laue_measured_fraction_full 0.990
_diffrn_reflns_Laue_measured_fraction_max 0.990
_diffrn_reflns_limit_h_max       8
_diffrn_reflns_limit_h_min       -8
_diffrn_reflns_limit_k_max       6
_diffrn_reflns_limit_k_min       -6
_diffrn_reflns_limit_l_max       19
_diffrn_reflns_limit_l_min       -19
_diffrn_reflns_number            9293
_diffrn_reflns_point_group_measured_fraction_full 0.990
_diffrn_reflns_point_group_measured_fraction_max 0.990
_diffrn_reflns_theta_full        25.000
_diffrn_reflns_theta_max         25.340
_diffrn_reflns_theta_min         3.931
_exptl_absorpt_coefficient_mu    0.079
_exptl_absorpt_correction_T_max  0.988
_exptl_absorpt_correction_T_min  0.955
_exptl_absorpt_correction_type   multi-scan
_exptl_absorpt_process_details   SADABS
_exptl_crystal_colour            Colourless
_exptl_crystal_density_diffrn    1.252
_exptl_crystal_description       Rectangular
_exptl_crystal_F_000             248
_exptl_crystal_size_max          0.59
_exptl_crystal_size_mid          0.40
_exptl_crystal_size_min          0.12
_exptl_transmission_factor_max   0.988
_exptl_transmission_factor_min   0.955
_refine_diff_density_max         0.120
_refine_diff_density_min         -0.098
_refine_diff_density_rms         0.022
_refine_ls_extinction_method     none
_refine_ls_goodness_of_fit_ref   1.065
_refine_ls_hydrogen_treatment    constr
_refine_ls_matrix_type           full
_refine_ls_number_parameters     82
_refine_ls_number_reflns         1138
_refine_ls_number_restraints     2
_refine_ls_restrained_S_all      1.257
_refine_ls_R_factor_all          0.0410
_refine_ls_R_factor_gt           0.0350
_refine_ls_shift/su_max          0.000
_refine_ls_shift/su_mean         0.000
_refine_ls_structure_factor_coef Fsqd
_refine_ls_weighting_details
'w=1/[\s^2^(Fo^2^)+(0.0383P)^2^+0.1113P] where P=(Fo^2^+2Fc^2^)/3'
_refine_ls_weighting_scheme      calc
_refine_ls_wR_factor_gt          0.0870
_refine_ls_wR_factor_ref         0.0919
_reflns_Friedel_coverage         0.000
_reflns_number_gt                993
_reflns_number_total             1138
_reflns_threshold_expression     'I > 2\s(I)'
_cod_data_source_file            c8cc03636e6.cif
_cod_data_source_block           ABN_220K
_cod_depositor_comments
;
The following automatic conversions were performed:

'_exptl_absorpt_correction_type' value 'Multi-scan' changed to
'multi-scan' according to
/home/data/users/saulius/crontab/automatic-downloads/rss-feeds/RSC/lib/dictionaries/cif_core.dic
dictionary named 'cif_core.dic' version 2.4.2 from 2011-04-26.

Automatic conversion script
Id: cif_fix_values 4973 2017-02-22 13:04:09Z antanas 

 Adding full bibliography for 7121738--7121749.cif.
;
_cod_database_code               7121741
_shelx_shelxl_version_number     2018/3
_shelx_space_group_comment
;
The symmetry employed for this shelxl refinement is uniquely defined
by the following loop, which should always be used as a source of
symmetry information in preference to the above space-group names.
They are only intended as comments.
;
_shelx_res_file
;
TITL 220K in P2(1)/c
    C:\Users\lukman\Desktop\CS_LUK~1\ABN_CH~1\ABN_220K\ABN_220K_CIF.res
    created by SHELXL-2018/3 at 12:07:01 on 23-Apr-2018
CELL 0.71073 7.2662 5.4906 16.0552 90.000 101.835 90.000
ZERR 4.0000 0.0006 0.0004 0.0013 0.000 0.003 0.000
LATT 1
SYMM -X, 0.5+Y, 0.5-Z
SFAC C H N
UNIT 28 24 8
BOND
DFIX 1.02 0.01 N1 H1A
DFIX 1.02 0.01 N1 H1B
ACTA 50
FMAP 2 1 53
PLAN 20 0 0
TEMP -53
L.S. 4
WGHT    0.038300    0.111300
FVAR       0.75135
C5    1    0.829274    0.603690    0.573363    11.00000    0.04451    0.04359 =
         0.04911    0.00722    0.01042    0.00016
AFIX  43
H5    2    0.879367    0.666411    0.528259    11.00000   -1.20000
AFIX   0
C4    1    0.729299    0.384958    0.562947    11.00000    0.03869    0.04367 =
         0.04651   -0.00073    0.00451    0.00024
C1    1    0.779419    0.638758    0.716683    11.00000    0.03539    0.04125 =
         0.04945   -0.00225    0.00600    0.00245
N1    3    0.804556    0.758887    0.792607    11.00000    0.06002    0.05560 =
         0.05789   -0.01301    0.01706   -0.01080
AFIX  93
H1A   2    0.868627    0.893820    0.799799    11.00000   -1.20000
H1B   2    0.756507    0.700526    0.833809    11.00000   -1.20000
AFIX   0
C2    1    0.677341    0.420466    0.705231    11.00000    0.04178    0.04830 =
         0.05109    0.00142    0.01322   -0.00514
AFIX  43
H2    2    0.624996    0.358679    0.749807    11.00000   -1.20000
AFIX   0
C3    1    0.653058    0.296309    0.629850    11.00000    0.04041    0.04339 =
         0.05654   -0.00200    0.00951   -0.00780
AFIX  43
H3    2    0.584385    0.150031    0.623151    11.00000   -1.20000
AFIX   0
C7    1    0.712745    0.246659    0.486193    11.00000    0.04840    0.05479 =
         0.05137   -0.00161    0.00849   -0.00813
C6    1    0.854868    0.727778    0.649131    11.00000    0.04308    0.03549 =
         0.05650    0.00170    0.00795   -0.00317
AFIX  43
H6    2    0.923721    0.873917    0.655698    11.00000   -1.20000
AFIX   0
N2    3    0.704450    0.131012    0.426034    11.00000    0.07563    0.07576 =
         0.05830   -0.01608    0.01818   -0.01888
HKLF 4




REM  220K in P2(1)/c
REM wR2 = 0.0919, GooF = S = 1.065, Restrained GooF = 1.257 for all data
REM R1 = 0.0350 for 993 Fo > 4sig(Fo) and 0.0410 for all 1138 data
REM 82 parameters refined using 2 restraints

END

WGHT      0.0383      0.1113

REM Highest difference peak  0.120,  deepest hole -0.098,  1-sigma level  0.022
Q1    1   0.7652  0.7188  0.6726  11.00000  0.05    0.12
Q2    1   0.7652  0.7080  0.6037  11.00000  0.05    0.11
Q3    1   0.6041  0.4165  0.6549  11.00000  0.05    0.11
Q4    1   0.7423  0.3071  0.6015  11.00000  0.05    0.10
Q5    1   0.8746  0.6436  0.6987  11.00000  0.05    0.10
Q6    1   0.8289  0.4386  0.5798  11.00000  0.05    0.10
Q7    1   0.7215  0.5224  0.5593  11.00000  0.05    0.09
Q8    1   0.6723  0.5748  0.7001  11.00000  0.05    0.09
Q9    1   0.6484  0.3881  0.5801  11.00000  0.05    0.09
Q10   1   0.8050  0.6374  0.8464  11.00000  0.05    0.09
Q11   1   0.7356  0.7240  0.7395  11.00000  0.05    0.08
Q12   1   0.7826  0.5009  0.7160  11.00000  0.05    0.08
Q13   1   0.7663  0.3002  0.5388  11.00000  0.05    0.08
Q14   1   0.7492  0.1763  0.3636  11.00000  0.05    0.07
Q15   1   0.9140  0.5901  0.6257  11.00000  0.05    0.07
Q16   1   0.6871  0.3730  0.5191  11.00000  0.05    0.07
Q17   1   0.7411  0.2993  0.6798  11.00000  0.05    0.07
Q18   1   0.9201  0.6501  0.7824  11.00000  0.05    0.07
Q19   1   0.6594  0.0572  0.3610  11.00000  0.05    0.07
Q20   1   0.9535  0.8225  0.8201  11.00000  0.05    0.06
;
_shelx_res_checksum              41355
loop_
_space_group_symop_operation_xyz
'x, y, z'
'-x, y+1/2, -z+1/2'
'-x, -y, -z'
'x, -y-1/2, z-1/2'
loop_
_atom_site_label
_atom_site_type_symbol
_atom_site_fract_x
_atom_site_fract_y
_atom_site_fract_z
_atom_site_U_iso_or_equiv
_atom_site_adp_type
_atom_site_occupancy
_atom_site_site_symmetry_order
_atom_site_calc_flag
_atom_site_refinement_flags_posn
_atom_site_refinement_flags_adp
C5 C 0.82927(16) 0.6037(2) 0.57336(7) 0.0456(3) Uani 1 1 d . .
H5 H 0.879367 0.666411 0.528259 0.055 Uiso 1 1 calc R U
C4 C 0.72930(15) 0.3850(2) 0.56295(7) 0.0436(3) Uani 1 1 d . .
C1 C 0.77942(15) 0.6388(2) 0.71668(7) 0.0424(3) Uani 1 1 d . .
N1 N 0.80456(15) 0.7589(2) 0.79261(6) 0.0571(3) Uani 1 1 d D .
H1A H 0.868627 0.893820 0.799799 0.069 Uiso 1 1 calc DR U
H1B H 0.756507 0.700526 0.833809 0.069 Uiso 1 1 calc DR U
C2 C 0.67734(15) 0.4205(2) 0.70523(7) 0.0465(3) Uani 1 1 d . .
H2 H 0.624996 0.358679 0.749807 0.056 Uiso 1 1 calc R U
C3 C 0.65306(16) 0.2963(2) 0.62985(7) 0.0468(3) Uani 1 1 d . .
H3 H 0.584385 0.150031 0.623151 0.056 Uiso 1 1 calc R U
C7 C 0.71275(17) 0.2467(2) 0.48619(8) 0.0518(3) Uani 1 1 d . .
C6 C 0.85487(16) 0.7278(2) 0.64913(7) 0.0453(3) Uani 1 1 d . .
H6 H 0.923721 0.873917 0.655698 0.054 Uiso 1 1 calc R U
N2 N 0.70445(17) 0.1310(2) 0.42603(7) 0.0693(4) Uani 1 1 d . .
loop_
_atom_site_aniso_label
_atom_site_aniso_U_11
_atom_site_aniso_U_22
_atom_site_aniso_U_33
_atom_site_aniso_U_23
_atom_site_aniso_U_13
_atom_site_aniso_U_12
C5 0.0445(6) 0.0436(7) 0.0491(7) 0.0072(5) 0.0104(5) 0.0002(5)
C4 0.0387(6) 0.0437(6) 0.0465(6) -0.0007(5) 0.0045(5) 0.0002(5)
C1 0.0354(6) 0.0412(6) 0.0494(6) -0.0022(5) 0.0060(5) 0.0025(5)
N1 0.0600(7) 0.0556(7) 0.0579(7) -0.0130(5) 0.0171(5) -0.0108(5)
C2 0.0418(6) 0.0483(7) 0.0511(7) 0.0014(5) 0.0132(5) -0.0051(5)
C3 0.0404(6) 0.0434(6) 0.0565(7) -0.0020(5) 0.0095(5) -0.0078(5)
C7 0.0484(7) 0.0548(8) 0.0514(7) -0.0016(6) 0.0085(5) -0.0081(6)
C6 0.0431(6) 0.0355(6) 0.0565(7) 0.0017(5) 0.0079(5) -0.0032(5)
N2 0.0756(8) 0.0758(9) 0.0583(7) -0.0161(6) 0.0182(6) -0.0189(6)
loop_
_atom_type_symbol
_atom_type_description
_atom_type_scat_dispersion_real
_atom_type_scat_dispersion_imag
_atom_type_scat_source
C C 0.0033 0.0016 'International Tables Vol C Tables 4.2.6.8 and 6.1.1.4'
H H 0.0000 0.0000 'International Tables Vol C Tables 4.2.6.8 and 6.1.1.4'
N N 0.0061 0.0033 'International Tables Vol C Tables 4.2.6.8 and 6.1.1.4'
loop_
_geom_angle_atom_site_label_1
_geom_angle_atom_site_label_2
_geom_angle_atom_site_label_3
_geom_angle
C6 C5 C4 120.37(11)
C3 C4 C5 119.19(10)
C3 C4 C7 120.12(11)
C5 C4 C7 120.62(10)
N1 C1 C6 121.42(11)
N1 C1 C2 120.04(10)
C6 C1 C2 118.54(10)
C3 C2 C1 120.71(10)
C2 C3 C4 120.54(11)
N2 C7 C4 177.68(14)
C5 C6 C1 120.64(11)
loop_
_geom_bond_atom_site_label_1
_geom_bond_atom_site_label_2
_geom_bond_distance
C5 C6 1.3732(15)
C5 C4 1.3958(16)
C4 C3 1.3934(16)
C4 C7 1.4314(16)
C1 N1 1.3649(14)
C1 C6 1.3999(16)
C1 C2 1.4016(16)
C2 C3 1.3686(16)
C7 N2 1.1471(16)
