#------------------------------------------------------------------------------
#$Date: 2019-11-17 06:14:30 +0200 (Sun, 17 Nov 2019) $
#$Revision: 228357 $
#$URL: file:///home/coder/svn-repositories/cod/cif/7/12/17/7121744.cif $
#------------------------------------------------------------------------------
#
# This file is available in the Crystallography Open Database (COD),
# http://www.crystallography.net/
#
# All data on this site have been placed in the public domain by the
# contributors.
#
data_7121744
loop_
_publ_author_name
'Alimi, Lukman O.'
'van Heerden, Dewald P.'
'Lama, Prem'
'Smith, Vincent J.'
'Barbour, Leonard J.'
_publ_section_title
;
 Reversible thermosalience of 4-aminobenzonitrile.
;
_journal_issue                   48
_journal_name_full
'Chemical communications (Cambridge, England)'
_journal_page_first              6208
_journal_page_last               6211
_journal_paper_doi               10.1039/c8cc03636e
_journal_volume                  54
_journal_year                    2018
_chemical_formula_sum            'C7 H6 N2'
_chemical_formula_weight         118.14
_chemical_name_common            4-aminobenzonitrile
_chemical_name_systematic        4-aminobenzonitrile
_space_group_crystal_system      monoclinic
_space_group_IT_number           14
_space_group_name_Hall           '-P 2ybc'
_space_group_name_H-M_alt        'P 1 21/c 1'
_symmetry_space_group_name_Hall  '-P 2ybc'
_symmetry_space_group_name_H-M   'P 1 21/c 1'
_atom_sites_solution_hydrogens   mixed
_audit_creation_method           SHELXL-2018/3
_audit_update_record
;
2018-05-01 deposited with the CCDC.
2018-05-24 downloaded from the CCDC.
;
_cell_angle_alpha                90
_cell_angle_beta                 102.119(6)
_cell_angle_gamma                90
_cell_formula_units_Z            4
_cell_length_a                   7.3645(18)
_cell_length_b                   5.5357(14)
_cell_length_c                   16.147(4)
_cell_measurement_reflns_used    1533
_cell_measurement_temperature    300(2)
_cell_measurement_theta_max      25.91
_cell_measurement_theta_min      2.58
_cell_volume                     643.6(3)
_computing_cell_refinement       'Bruker SAINT'
_computing_data_collection       'Bruker APEX2'
_computing_data_reduction        'Bruker SAINT'
_computing_molecular_graphics    'Bruker SHELXTL'
_computing_publication_material  'Bruker SHELXTL'
_computing_structure_refinement  'SHELXL-2018/3 (Sheldrick, 2018)'
_computing_structure_solution    'SHELXS-97 (Sheldrick 2008)'
_diffrn_ambient_temperature      300(2)
_diffrn_measured_fraction_theta_full 0.998
_diffrn_measured_fraction_theta_max 0.992
_diffrn_measurement_device_type  'Bruker APEX-II CCD'
_diffrn_measurement_method       '\f and \w scans'
_diffrn_radiation_type           MoK\a
_diffrn_radiation_wavelength     0.71073
_diffrn_reflns_av_R_equivalents  0.0420
_diffrn_reflns_av_unetI/netI     0.0385
_diffrn_reflns_Laue_measured_fraction_full 0.998
_diffrn_reflns_Laue_measured_fraction_max 0.992
_diffrn_reflns_limit_h_max       9
_diffrn_reflns_limit_h_min       -9
_diffrn_reflns_limit_k_max       6
_diffrn_reflns_limit_k_min       -6
_diffrn_reflns_limit_l_max       20
_diffrn_reflns_limit_l_min       -20
_diffrn_reflns_number            6483
_diffrn_reflns_point_group_measured_fraction_full 0.998
_diffrn_reflns_point_group_measured_fraction_max 0.992
_diffrn_reflns_theta_full        25.000
_diffrn_reflns_theta_max         26.361
_diffrn_reflns_theta_min         2.829
_exptl_absorpt_coefficient_mu    0.077
_exptl_absorpt_correction_T_max  0.988
_exptl_absorpt_correction_T_min  0.953
_exptl_absorpt_correction_type   multi-scan
_exptl_absorpt_process_details   SADABS
_exptl_crystal_colour            Colourless
_exptl_crystal_density_diffrn    1.219
_exptl_crystal_description       Rectangular
_exptl_crystal_F_000             248
_exptl_crystal_size_max          0.630
_exptl_crystal_size_mid          0.440
_exptl_crystal_size_min          0.160
_exptl_transmission_factor_max   0.988
_exptl_transmission_factor_min   0.953
_refine_diff_density_max         0.119
_refine_diff_density_min         -0.151
_refine_diff_density_rms         0.030
_refine_ls_extinction_method     none
_refine_ls_goodness_of_fit_ref   1.070
_refine_ls_hydrogen_treatment    mixed
_refine_ls_matrix_type           full
_refine_ls_number_parameters     90
_refine_ls_number_reflns         1306
_refine_ls_number_restraints     2
_refine_ls_restrained_S_all      1.072
_refine_ls_R_factor_all          0.1150
_refine_ls_R_factor_gt           0.0622
_refine_ls_shift/su_max          0.017
_refine_ls_shift/su_mean         0.002
_refine_ls_structure_factor_coef Fsqd
_refine_ls_weighting_details
'w=1/[\s^2^(Fo^2^)+(0.0520P)^2^+0.2225P] where P=(Fo^2^+2Fc^2^)/3'
_refine_ls_weighting_scheme      calc
_refine_ls_wR_factor_gt          0.1360
_refine_ls_wR_factor_ref         0.1580
_reflns_Friedel_coverage         0.000
_reflns_number_gt                759
_reflns_number_total             1306
_reflns_threshold_expression     'I > 2\s(I)'
_cod_data_source_file            c8cc03636e6.cif
_cod_data_source_block           ABN_300K_R
_cod_depositor_comments
;
The following automatic conversions were performed:

'_exptl_absorpt_correction_type' value 'Multi-scan' changed to
'multi-scan' according to
/home/data/users/saulius/crontab/automatic-downloads/rss-feeds/RSC/lib/dictionaries/cif_core.dic
dictionary named 'cif_core.dic' version 2.4.2 from 2011-04-26.

Automatic conversion script
Id: cif_fix_values 4973 2017-02-22 13:04:09Z antanas 

 Adding full bibliography for 7121738--7121749.cif.
;
_cod_database_code               7121744
_shelx_shelxl_version_number     2018/3
_shelx_space_group_comment
;
The symmetry employed for this shelxl refinement is uniquely defined
by the following loop, which should always be used as a source of
symmetry information in preference to the above space-group names.
They are only intended as comments.
;
_shelx_estimated_absorpt_t_min   0.953
_shelx_estimated_absorpt_t_max   0.988
_shelx_res_file
;
TITL 300K_R in P2(1)/c
    C:\Users\lukman\Desktop\CS_LUK~1\ABN_CH~1\ABN_30~1\ABN_300K_R_CIF.res
    created by SHELXL-2018/3 at 12:18:57 on 23-Apr-2018
CELL 0.71073 7.3645 5.5357 16.1469 90.000 102.119 90.000
ZERR 4.0000 0.0018 0.0014 0.0041 0.000 0.006 0.000
LATT 1
SYMM -X, 0.5+Y, 0.5-Z
SFAC C H N
UNIT 28 24 8
BOND
DFIX 1.02 0.01 N1 H1B
DFIX 1.02 0.01 N1 H1A
ACTA 50
FMAP 2 1 53
PLAN 20 0 0
SIZE 0.63 0.44 0.16
TEMP 27
L.S. 4
WGHT    0.052000    0.222500
FVAR       0.41282
C1    1    0.778633    0.635077    0.715969    11.00000    0.04893    0.05142 =
         0.06264   -0.00254    0.00969    0.00249
C5    1    0.828754    0.600584    0.573600    11.00000    0.06213    0.05902 =
         0.05931    0.00848    0.01656   -0.00049
AFIX  43
H5    2    0.878608    0.661693    0.529546    11.00000   -1.20000
AFIX   0
C6    1    0.853442    0.723318    0.648820    11.00000    0.06135    0.04565 =
         0.07521    0.00250    0.01606   -0.00551
AFIX  43
H6    2    0.920588    0.866831    0.655448    11.00000   -1.20000
AFIX   0
C4    1    0.728918    0.383771    0.562725    11.00000    0.05554    0.05696 =
         0.05511   -0.00189    0.00925   -0.00167
C2    1    0.677922    0.419560    0.704139    11.00000    0.05801    0.06377 =
         0.06087    0.00185    0.01860   -0.00858
AFIX  43
H2    2    0.626871    0.358638    0.747859    11.00000   -1.20000
AFIX   0
N1    3    0.803043    0.755677    0.791797    11.00000    0.08342    0.07652 =
         0.06977   -0.01807    0.02263   -0.01405
C3    1    0.653415    0.296926    0.629049    11.00000    0.05821    0.05734 =
         0.07056   -0.00457    0.01498   -0.01377
AFIX  43
H3    2    0.585566    0.153975    0.622246    11.00000   -1.20000
AFIX   0
C7    1    0.712780    0.248576    0.485919    11.00000    0.06856    0.07417 =
         0.06488   -0.00199    0.01401   -0.00877
N2    3    0.703873    0.133539    0.426131    11.00000    0.11120    0.10591 =
         0.07245   -0.02498    0.02815   -0.02484
H1B   2    0.754234    0.676470    0.838299    11.00000    0.11924
H1A   2    0.883334    0.904029    0.800454    11.00000    0.11256
HKLF 4




REM  300K_R in P2(1)/c
REM wR2 = 0.1580, GooF = S = 1.070, Restrained GooF = 1.072 for all data
REM R1 = 0.0622 for 759 Fo > 4sig(Fo) and 0.1150 for all 1306 data
REM 90 parameters refined using 2 restraints

END

WGHT      0.0520      0.2237

REM Highest difference peak  0.119,  deepest hole -0.151,  1-sigma level  0.030
Q1    1   0.8895  0.6240  0.7008  11.00000  0.05    0.12
Q2    1   0.7981  0.7058  0.8330  11.00000  0.05    0.11
Q3    1   0.8169  0.4591  0.7268  11.00000  0.05    0.11
Q4    1   0.6572  0.8270  0.7882  11.00000  0.05    0.11
Q5    1   0.5831  0.2099  0.4478  11.00000  0.05    0.11
Q6    1   0.7238  0.7530  0.6563  11.00000  0.05    0.11
Q7    1   0.7122  0.5345  0.5595  11.00000  0.05    0.11
Q8    1   0.6754  0.7277  0.7247  11.00000  0.05    0.11
Q9    1   0.7665  0.3007  0.6140  11.00000  0.05    0.10
Q10   1   0.5185  0.2216  0.6184  11.00000  0.05    0.10
Q11   1   0.6636  0.5893  0.7008  11.00000  0.05    0.10
Q12   1   0.8247  0.1456  0.4946  11.00000  0.05    0.10
Q13   1   0.5425  0.4630  0.7052  11.00000  0.05    0.10
Q14   1   0.8378  0.4103  0.5662  11.00000  0.05    0.09
Q15   1   0.8622  0.0710  0.4375  11.00000  0.05    0.09
Q16   1   0.7221  0.6784  0.5785  11.00000  0.05    0.09
Q17   1   0.6084  0.4270  0.5760  11.00000  0.05    0.09
Q18   1   0.8768  0.6374  0.7808  11.00000  0.05    0.09
Q19   1   0.9958  0.7852  0.6678  11.00000  0.05    0.09
Q20   1   0.9490  0.6163  0.6418  11.00000  0.05    0.08
;
_shelx_res_checksum              4822
loop_
_space_group_symop_operation_xyz
'x, y, z'
'-x, y+1/2, -z+1/2'
'-x, -y, -z'
'x, -y-1/2, z-1/2'
loop_
_atom_site_label
_atom_site_type_symbol
_atom_site_fract_x
_atom_site_fract_y
_atom_site_fract_z
_atom_site_U_iso_or_equiv
_atom_site_adp_type
_atom_site_occupancy
_atom_site_site_symmetry_order
_atom_site_calc_flag
_atom_site_refinement_flags_posn
_atom_site_refinement_flags_adp
C1 C 0.7786(3) 0.6351(4) 0.71597(16) 0.0546(6) Uani 1 1 d . .
C5 C 0.8288(3) 0.6006(4) 0.57360(16) 0.0596(7) Uani 1 1 d . .
H5 H 0.878608 0.661693 0.529546 0.072 Uiso 1 1 calc R U
C6 C 0.8534(3) 0.7233(4) 0.64882(16) 0.0605(7) Uani 1 1 d . .
H6 H 0.920588 0.866831 0.655448 0.073 Uiso 1 1 calc R U
C4 C 0.7289(3) 0.3838(5) 0.56273(15) 0.0562(7) Uani 1 1 d . .
C2 C 0.6779(3) 0.4196(5) 0.70414(16) 0.0600(7) Uani 1 1 d . .
H2 H 0.626871 0.358638 0.747859 0.072 Uiso 1 1 calc R U
N1 N 0.8030(3) 0.7557(5) 0.79180(15) 0.0756(7) Uani 1 1 d D .
C3 C 0.6534(3) 0.2969(5) 0.62905(16) 0.0618(7) Uani 1 1 d . .
H3 H 0.585566 0.153975 0.622246 0.074 Uiso 1 1 calc R U
C7 C 0.7128(4) 0.2486(5) 0.48592(18) 0.0692(8) Uani 1 1 d . .
N2 N 0.7039(4) 0.1335(5) 0.42613(15) 0.0952(9) Uani 1 1 d . .
H1B H 0.754(4) 0.676(5) 0.8383(14) 0.119(12) Uiso 1 1 d D .
H1A H 0.883(4) 0.904(4) 0.8005(18) 0.113(11) Uiso 1 1 d D .
loop_
_atom_site_aniso_label
_atom_site_aniso_U_11
_atom_site_aniso_U_22
_atom_site_aniso_U_33
_atom_site_aniso_U_23
_atom_site_aniso_U_13
_atom_site_aniso_U_12
C1 0.0489(14) 0.0514(14) 0.0626(16) -0.0025(13) 0.0097(12) 0.0025(12)
C5 0.0621(16) 0.0590(15) 0.0593(16) 0.0085(14) 0.0166(13) -0.0005(14)
C6 0.0613(16) 0.0456(14) 0.0752(19) 0.0025(13) 0.0161(14) -0.0055(12)
C4 0.0555(15) 0.0570(15) 0.0551(15) -0.0019(13) 0.0093(12) -0.0017(13)
C2 0.0580(16) 0.0638(16) 0.0609(16) 0.0019(13) 0.0186(13) -0.0086(13)
N1 0.0834(18) 0.0765(17) 0.0698(17) -0.0181(14) 0.0226(14) -0.0140(14)
C3 0.0582(16) 0.0573(15) 0.0706(17) -0.0046(14) 0.0150(13) -0.0138(13)
C7 0.0686(18) 0.0742(19) 0.0649(18) -0.0020(16) 0.0140(14) -0.0088(15)
N2 0.111(2) 0.106(2) 0.0724(17) -0.0250(17) 0.0282(15) -0.0248(17)
loop_
_atom_type_symbol
_atom_type_description
_atom_type_scat_dispersion_real
_atom_type_scat_dispersion_imag
_atom_type_scat_source
C C 0.0033 0.0016 'International Tables Vol C Tables 4.2.6.8 and 6.1.1.4'
H H 0.0000 0.0000 'International Tables Vol C Tables 4.2.6.8 and 6.1.1.4'
N N 0.0061 0.0033 'International Tables Vol C Tables 4.2.6.8 and 6.1.1.4'
loop_
_geom_angle_atom_site_label_1
_geom_angle_atom_site_label_2
_geom_angle_atom_site_label_3
_geom_angle
N1 C1 C2 120.2(2)
N1 C1 C6 121.4(2)
C2 C1 C6 118.4(2)
C6 C5 C4 120.3(2)
C5 C6 C1 120.8(2)
C3 C4 C5 118.9(2)
C3 C4 C7 120.8(2)
C5 C4 C7 120.2(2)
C3 C2 C1 120.8(2)
C2 C3 C4 120.7(2)
N2 C7 C4 177.4(3)
loop_
_geom_bond_atom_site_label_1
_geom_bond_atom_site_label_2
_geom_bond_distance
C1 N1 1.373(3)
C1 C2 1.397(3)
C1 C6 1.403(3)
C5 C6 1.370(3)
C5 C4 1.399(3)
C4 C3 1.392(3)
C4 C7 1.432(4)
C2 C3 1.368(3)
C7 N2 1.147(3)
