#------------------------------------------------------------------------------
#$Date: 2019-11-17 06:14:30 +0200 (Sun, 17 Nov 2019) $
#$Revision: 228357 $
#$URL: file:///home/coder/svn-repositories/cod/cif/7/12/17/7121749.cif $
#------------------------------------------------------------------------------
#
# This file is available in the Crystallography Open Database (COD),
# http://www.crystallography.net/
#
# All data on this site have been placed in the public domain by the
# contributors.
#
data_7121749
loop_
_publ_author_name
'Alimi, Lukman O.'
'van Heerden, Dewald P.'
'Lama, Prem'
'Smith, Vincent J.'
'Barbour, Leonard J.'
_publ_section_title
;
 Reversible thermosalience of 4-aminobenzonitrile.
;
_journal_issue                   48
_journal_name_full
'Chemical communications (Cambridge, England)'
_journal_page_first              6208
_journal_page_last               6211
_journal_paper_doi               10.1039/c8cc03636e
_journal_volume                  54
_journal_year                    2018
_chemical_formula_sum            'C7 H6 N2'
_chemical_formula_weight         118.14
_chemical_name_common            4-aminobenzonitrile
_chemical_name_systematic        4-aminobenzonitrile
_space_group_crystal_system      monoclinic
_space_group_IT_number           14
_space_group_name_Hall           '-P 2ybc'
_space_group_name_H-M_alt        'P 1 21/c 1'
_symmetry_space_group_name_Hall  '-P 2ybc'
_symmetry_space_group_name_H-M   'P 1 21/c 1'
_atom_sites_solution_hydrogens   mixed
_audit_creation_method           SHELXL-2018/3
_audit_update_record
;
2018-05-01 deposited with the CCDC.
2018-05-24 downloaded from the CCDC.
;
_cell_angle_alpha                90
_cell_angle_beta                 101.903(2)
_cell_angle_gamma                90
_cell_formula_units_Z            4
_cell_length_a                   7.2815(6)
_cell_length_b                   5.4951(4)
_cell_length_c                   16.0633(12)
_cell_measurement_reflns_used    4249
_cell_measurement_temperature    240(2)
_cell_measurement_theta_max      26.01
_cell_measurement_theta_min      2.59
_cell_volume                     628.91(8)
_computing_cell_refinement       'Bruker SAINT'
_computing_data_collection       'Bruker APEX2'
_computing_data_reduction        'Bruker SAINT'
_computing_molecular_graphics    'Bruker SHELXTL'
_computing_publication_material  'Bruker SHELXTL'
_computing_structure_refinement  'SHELXL-2018/3 (Sheldrick, 2018)'
_computing_structure_solution    'SHELXS-97 (Sheldrick 2008)'
_diffrn_ambient_temperature      240(2)
_diffrn_measured_fraction_theta_full 0.990
_diffrn_measured_fraction_theta_max 0.990
_diffrn_measurement_device_type  'Bruker APEX-II CCD'
_diffrn_measurement_method       '\f and \w scans'
_diffrn_radiation_type           MoK\a
_diffrn_radiation_wavelength     0.71073
_diffrn_reflns_av_R_equivalents  0.0279
_diffrn_reflns_av_unetI/netI     0.0154
_diffrn_reflns_Laue_measured_fraction_full 0.990
_diffrn_reflns_Laue_measured_fraction_max 0.990
_diffrn_reflns_limit_h_max       8
_diffrn_reflns_limit_h_min       -8
_diffrn_reflns_limit_k_max       6
_diffrn_reflns_limit_k_min       -6
_diffrn_reflns_limit_l_max       19
_diffrn_reflns_limit_l_min       -19
_diffrn_reflns_number            9587
_diffrn_reflns_point_group_measured_fraction_full 0.990
_diffrn_reflns_point_group_measured_fraction_max 0.990
_diffrn_reflns_theta_full        25.000
_diffrn_reflns_theta_max         25.347
_diffrn_reflns_theta_min         3.928
_exptl_absorpt_coefficient_mu    0.079
_exptl_absorpt_correction_T_max  0.988
_exptl_absorpt_correction_T_min  0.955
_exptl_absorpt_correction_type   multi-scan
_exptl_absorpt_process_details   SADABS
_exptl_crystal_colour            Colourless
_exptl_crystal_density_diffrn    1.248
_exptl_crystal_description       Rectangular
_exptl_crystal_F_000             248
_exptl_crystal_size_max          0.60
_exptl_crystal_size_mid          0.41
_exptl_crystal_size_min          0.13
_exptl_transmission_factor_max   0.988
_exptl_transmission_factor_min   0.955
_refine_diff_density_max         0.117
_refine_diff_density_min         -0.122
_refine_diff_density_rms         0.022
_refine_ls_extinction_method     none
_refine_ls_goodness_of_fit_ref   1.083
_refine_ls_hydrogen_treatment    mixed
_refine_ls_matrix_type           full
_refine_ls_number_parameters     90
_refine_ls_number_reflns         1142
_refine_ls_number_restraints     2
_refine_ls_restrained_S_all      1.096
_refine_ls_R_factor_all          0.0436
_refine_ls_R_factor_gt           0.0367
_refine_ls_shift/su_max          0.001
_refine_ls_shift/su_mean         0.000
_refine_ls_structure_factor_coef Fsqd
_refine_ls_weighting_details
'w=1/[\s^2^(Fo^2^)+(0.0442P)^2^+0.0950P] where P=(Fo^2^+2Fc^2^)/3'
_refine_ls_weighting_scheme      calc
_refine_ls_wR_factor_gt          0.0942
_refine_ls_wR_factor_ref         0.1001
_reflns_Friedel_coverage         0.000
_reflns_number_gt                990
_reflns_number_total             1142
_reflns_threshold_expression     'I > 2\s(I)'
_cod_data_source_file            c8cc03636e6.cif
_cod_data_source_block           ABN_240K
_cod_depositor_comments
;
The following automatic conversions were performed:

'_exptl_absorpt_correction_type' value 'Multi-scan' changed to
'multi-scan' according to
/home/data/users/saulius/crontab/automatic-downloads/rss-feeds/RSC/lib/dictionaries/cif_core.dic
dictionary named 'cif_core.dic' version 2.4.2 from 2011-04-26.

Automatic conversion script
Id: cif_fix_values 4973 2017-02-22 13:04:09Z antanas 

 Adding full bibliography for 7121738--7121749.cif.
;
_cod_database_code               7121749
_shelx_shelxl_version_number     2018/3
_shelx_space_group_comment
;
The symmetry employed for this shelxl refinement is uniquely defined
by the following loop, which should always be used as a source of
symmetry information in preference to the above space-group names.
They are only intended as comments.
;
_shelx_res_file
;
TITL 240K in P2(1)/c
    C:\Users\lukman\Desktop\CS_LUK~1\ABN_CH~1\ABN_240K\ABN_240K_CIF.res
    created by SHELXL-2018/3 at 06:49:58 on 24-Apr-2018
CELL 0.71073 7.2815 5.4951 16.0633 90.000 101.903 90.000
ZERR 4.0000 0.0006 0.0004 0.0012 0.000 0.002 0.000
LATT 1
SYMM -X, 0.5+Y, 0.5-Z
SFAC C H N
UNIT 28 24 8
BOND
DFIX 1.02 0.01 N1 H1B
DFIX 1.02 0.01 N1 H1A
ACTA 50
FMAP 2 1 53
PLAN 20 0 0
TEMP -33
L.S. 4
WGHT    0.044200    0.095000
FVAR       0.78112
C5    1    0.829125    0.603112    0.573380    11.00000    0.04881    0.04748 =
         0.05422    0.00746    0.01059   -0.00021
AFIX  43
H5    2    0.879342    0.665736    0.528382    11.00000   -1.20000
AFIX   0
C4    1    0.729353    0.385163    0.562891    11.00000    0.04295    0.04844 =
         0.05097   -0.00095    0.00559    0.00026
C1    1    0.779418    0.637867    0.716602    11.00000    0.03888    0.04554 =
         0.05488   -0.00177    0.00698    0.00251
C2    1    0.677460    0.420348    0.704998    11.00000    0.04691    0.05334 =
         0.05687    0.00178    0.01483   -0.00627
AFIX  43
H2    2    0.625030    0.358662    0.749475    11.00000   -1.20000
AFIX   0
N1    3    0.804000    0.758574    0.792481    11.00000    0.06455    0.06265 =
         0.06165   -0.01385    0.01711   -0.01031
C3    1    0.653200    0.296375    0.629625    11.00000    0.04526    0.04843 =
         0.06161   -0.00218    0.01068   -0.00908
AFIX  43
H3    2    0.584638    0.150230    0.622845    11.00000   -1.20000
AFIX   0
C7    1    0.712674    0.246992    0.486241    11.00000    0.05486    0.06030 =
         0.05660   -0.00260    0.00973   -0.00874
C6    1    0.854445    0.726804    0.649076    11.00000    0.04777    0.03923 =
         0.06293    0.00170    0.00955   -0.00371
AFIX  43
H6    2    0.922978    0.872975    0.655659    11.00000   -1.20000
AFIX   0
N2    3    0.704210    0.131573    0.425960    11.00000    0.08420    0.08342 =
         0.06442   -0.01761    0.02003   -0.02036
H1B   2    0.761507    0.681999    0.840194    11.00000    0.08198
H1A   2    0.882447    0.905815    0.801312    11.00000    0.09523
HKLF 4




REM  240K in P2(1)/c
REM wR2 = 0.1001, GooF = S = 1.083, Restrained GooF = 1.096 for all data
REM R1 = 0.0367 for 990 Fo > 4sig(Fo) and 0.0436 for all 1142 data
REM 90 parameters refined using 2 restraints

END

WGHT      0.0442      0.0950

REM Highest difference peak  0.117,  deepest hole -0.122,  1-sigma level  0.022
Q1    1   0.7625  0.7216  0.6748  11.00000  0.05    0.12
Q2    1   0.7615  0.7024  0.6008  11.00000  0.05    0.10
Q3    1   0.7202  0.7407  0.7428  11.00000  0.05    0.10
Q4    1   0.5995  0.4116  0.6555  11.00000  0.05    0.10
Q5    1   0.8820  0.6432  0.6980  11.00000  0.05    0.09
Q6    1   0.6756  0.5785  0.6991  11.00000  0.05    0.09
Q7    1   0.7535  0.2938  0.6018  11.00000  0.05    0.09
Q8    1   0.7980  0.4786  0.7180  11.00000  0.05    0.09
Q9    1   0.6372  0.3783  0.5809  11.00000  0.05    0.09
Q10   1   0.8370  0.4394  0.5831  11.00000  0.05    0.08
Q11   1   0.7252  0.5230  0.5584  11.00000  0.05    0.08
Q12   1   0.7776  0.2954  0.5429  11.00000  0.05    0.08
Q13   1   0.9301  0.6035  0.6278  11.00000  0.05    0.07
Q14   1   0.6453  0.0844  0.3610  11.00000  0.05    0.07
Q15   1   0.8807  0.6579  0.7784  11.00000  0.05    0.07
Q16   1   0.9644  0.7548  0.8194  11.00000  0.05    0.06
Q17   1   0.6595  0.3038  0.4334  11.00000  0.05    0.06
Q18   1   0.7082  0.2952  0.7756  11.00000  0.05    0.06
Q19   1   0.7604  0.7211  0.8235  11.00000  0.05    0.06
Q20   1   0.8001  0.9081  0.7838  11.00000  0.05    0.06
;
_shelx_res_checksum              16938
loop_
_space_group_symop_operation_xyz
'x, y, z'
'-x, y+1/2, -z+1/2'
'-x, -y, -z'
'x, -y-1/2, z-1/2'
loop_
_atom_site_label
_atom_site_type_symbol
_atom_site_fract_x
_atom_site_fract_y
_atom_site_fract_z
_atom_site_U_iso_or_equiv
_atom_site_adp_type
_atom_site_occupancy
_atom_site_site_symmetry_order
_atom_site_calc_flag
_atom_site_refinement_flags_posn
_atom_site_refinement_flags_adp
C5 C 0.82912(16) 0.6031(2) 0.57338(8) 0.0502(3) Uani 1 1 d . .
H5 H 0.879342 0.665736 0.528382 0.060 Uiso 1 1 calc R U
C4 C 0.72935(16) 0.3852(2) 0.56289(7) 0.0480(3) Uani 1 1 d . .
C1 C 0.77942(16) 0.6379(2) 0.71660(7) 0.0468(3) Uani 1 1 d . .
C2 C 0.67746(16) 0.4203(2) 0.70500(8) 0.0518(3) Uani 1 1 d . .
H2 H 0.625030 0.358662 0.749475 0.062 Uiso 1 1 calc R U
N1 N 0.80400(17) 0.7586(2) 0.79248(7) 0.0624(4) Uani 1 1 d D .
C3 C 0.65320(16) 0.2964(2) 0.62963(8) 0.0518(3) Uani 1 1 d . .
H3 H 0.584638 0.150230 0.622845 0.062 Uiso 1 1 calc R U
C7 C 0.71267(18) 0.2470(3) 0.48624(8) 0.0575(4) Uani 1 1 d . .
C6 C 0.85445(17) 0.7268(2) 0.64908(8) 0.0502(3) Uani 1 1 d . .
H6 H 0.922978 0.872975 0.655659 0.060 Uiso 1 1 calc R U
N2 N 0.70421(19) 0.1316(3) 0.42596(8) 0.0767(4) Uani 1 1 d . .
H1B H 0.762(2) 0.682(3) 0.8402(7) 0.082(5) Uiso 1 1 d D .
H1A H 0.882(2) 0.906(2) 0.8013(10) 0.095(5) Uiso 1 1 d D .
loop_
_atom_site_aniso_label
_atom_site_aniso_U_11
_atom_site_aniso_U_22
_atom_site_aniso_U_33
_atom_site_aniso_U_23
_atom_site_aniso_U_13
_atom_site_aniso_U_12
C5 0.0488(7) 0.0475(7) 0.0542(7) 0.0075(5) 0.0106(5) -0.0002(5)
C4 0.0430(6) 0.0484(7) 0.0510(7) -0.0010(5) 0.0056(5) 0.0003(5)
C1 0.0389(6) 0.0455(7) 0.0549(7) -0.0018(5) 0.0070(5) 0.0025(5)
C2 0.0469(7) 0.0533(7) 0.0569(7) 0.0018(6) 0.0148(5) -0.0063(6)
N1 0.0646(7) 0.0627(8) 0.0617(7) -0.0139(6) 0.0171(6) -0.0103(6)
C3 0.0453(7) 0.0484(7) 0.0616(8) -0.0022(6) 0.0107(5) -0.0091(5)
C7 0.0549(8) 0.0603(8) 0.0566(8) -0.0026(6) 0.0097(6) -0.0087(6)
C6 0.0478(7) 0.0392(6) 0.0629(8) 0.0017(5) 0.0095(5) -0.0037(5)
N2 0.0842(9) 0.0834(9) 0.0644(8) -0.0176(7) 0.0200(6) -0.0204(7)
loop_
_atom_type_symbol
_atom_type_description
_atom_type_scat_dispersion_real
_atom_type_scat_dispersion_imag
_atom_type_scat_source
C C 0.0033 0.0016 'International Tables Vol C Tables 4.2.6.8 and 6.1.1.4'
H H 0.0000 0.0000 'International Tables Vol C Tables 4.2.6.8 and 6.1.1.4'
N N 0.0061 0.0033 'International Tables Vol C Tables 4.2.6.8 and 6.1.1.4'
loop_
_geom_angle_atom_site_label_1
_geom_angle_atom_site_label_2
_geom_angle_atom_site_label_3
_geom_angle
C6 C5 C4 120.31(11)
C3 C4 C5 119.25(11)
C3 C4 C7 120.00(11)
C5 C4 C7 120.67(11)
N1 C1 C2 120.12(11)
N1 C1 C6 121.44(11)
C2 C1 C6 118.45(11)
C3 C2 C1 120.75(11)
C2 C3 C4 120.48(12)
N2 C7 C4 177.77(15)
C5 C6 C1 120.76(11)
loop_
_geom_bond_atom_site_label_1
_geom_bond_atom_site_label_2
_geom_bond_distance
C5 C6 1.3719(16)
C5 C4 1.3929(17)
C4 C3 1.3928(16)
C4 C7 1.4302(17)
C1 N1 1.3666(16)
C1 C2 1.3991(17)
C1 C6 1.3994(17)
C2 C3 1.3686(17)
C7 N2 1.1485(17)
