#------------------------------------------------------------------------------
#$Date: 2019-11-17 06:14:30 +0200 (Sun, 17 Nov 2019) $
#$Revision: 228357 $
#$URL: file:///home/coder/svn-repositories/cod/cif/7/12/17/7121738.cif $
#------------------------------------------------------------------------------
#
# This file is available in the Crystallography Open Database (COD),
# http://www.crystallography.net/
#
# All data on this site have been placed in the public domain by the
# contributors.
#
data_7121738
loop_
_publ_author_name
'Alimi, Lukman O.'
'van Heerden, Dewald P.'
'Lama, Prem'
'Smith, Vincent J.'
'Barbour, Leonard J.'
_publ_section_title
;
 Reversible thermosalience of 4-aminobenzonitrile.
;
_journal_issue                   48
_journal_name_full
'Chemical communications (Cambridge, England)'
_journal_page_first              6208
_journal_page_last               6211
_journal_paper_doi               10.1039/c8cc03636e
_journal_volume                  54
_journal_year                    2018
_chemical_formula_sum            'C7 H6 N2'
_chemical_formula_weight         118.14
_chemical_name_common            4-aminobenzonitrile
_chemical_name_systematic        4-aminobenzonitrile
_space_group_crystal_system      monoclinic
_space_group_IT_number           14
_space_group_name_Hall           '-P 2ybc'
_space_group_name_H-M_alt        'P 1 21/c 1'
_symmetry_space_group_name_Hall  '-P 2ybc'
_symmetry_space_group_name_H-M   'P 1 21/c 1'
_atom_sites_solution_hydrogens   mixed
_audit_creation_method           SHELXL-2018/3
_audit_update_record
;
2018-05-01 deposited with the CCDC.
2018-05-24 downloaded from the CCDC.
;
_cell_angle_alpha                90
_cell_angle_beta                 113.439(6)
_cell_angle_gamma                90
_cell_formula_units_Z            4
_cell_length_a                   7.3184(18)
_cell_length_b                   5.7059(15)
_cell_length_c                   15.844(4)
_cell_measurement_reflns_used    2361
_cell_measurement_temperature    100(2)
_cell_measurement_theta_max      26.01
_cell_measurement_theta_min      2.80
_cell_volume                     607.0(3)
_computing_cell_refinement       'Bruker SAINT'
_computing_data_collection       'Bruker APEX2'
_computing_data_reduction        'Bruker SAINT'
_computing_molecular_graphics    'Bruker SHELXTL'
_computing_publication_material  'Bruker SHELXTL'
_computing_structure_refinement  'SHELXL-2018/3 (Sheldrick, 2018)'
_computing_structure_solution    'SHELXT 2018/2 (Sheldrick, 2018)'
_diffrn_ambient_temperature      100(2)
_diffrn_measured_fraction_theta_full 0.989
_diffrn_measured_fraction_theta_max 0.989
_diffrn_measurement_device_type  'Bruker APEX-II CCD'
_diffrn_measurement_method       '\f and \w scans'
_diffrn_radiation_type           MoK\a
_diffrn_radiation_wavelength     0.71073
_diffrn_reflns_av_R_equivalents  0.0371
_diffrn_reflns_av_unetI/netI     0.0263
_diffrn_reflns_Laue_measured_fraction_full 0.989
_diffrn_reflns_Laue_measured_fraction_max 0.989
_diffrn_reflns_limit_h_max       8
_diffrn_reflns_limit_h_min       -8
_diffrn_reflns_limit_k_max       6
_diffrn_reflns_limit_k_min       -6
_diffrn_reflns_limit_l_max       18
_diffrn_reflns_limit_l_min       -18
_diffrn_reflns_number            6483
_diffrn_reflns_point_group_measured_fraction_full 0.989
_diffrn_reflns_point_group_measured_fraction_max 0.989
_diffrn_reflns_theta_full        25.000
_diffrn_reflns_theta_max         25.024
_diffrn_reflns_theta_min         3.034
_exptl_absorpt_coefficient_mu    0.081
_exptl_absorpt_correction_T_max  0.988
_exptl_absorpt_correction_T_min  0.956
_exptl_absorpt_correction_type   multi-scan
_exptl_absorpt_process_details   SADABS
_exptl_crystal_colour            Colourless
_exptl_crystal_density_diffrn    1.293
_exptl_crystal_description       Rectangular
_exptl_crystal_F_000             248
_exptl_crystal_size_max          0.53
_exptl_crystal_size_mid          0.34
_exptl_crystal_size_min          0.06
_exptl_transmission_factor_max   0.988
_exptl_transmission_factor_min   0.956
_refine_diff_density_max         0.200
_refine_diff_density_min         -0.218
_refine_diff_density_rms         0.054
_refine_ls_extinction_method     none
_refine_ls_goodness_of_fit_ref   1.080
_refine_ls_hydrogen_treatment    mixed
_refine_ls_matrix_type           full
_refine_ls_number_parameters     90
_refine_ls_number_reflns         1056
_refine_ls_number_restraints     2
_refine_ls_restrained_S_all      1.082
_refine_ls_R_factor_all          0.0679
_refine_ls_R_factor_gt           0.0502
_refine_ls_shift/su_max          0.000
_refine_ls_shift/su_mean         0.000
_refine_ls_structure_factor_coef Fsqd
_refine_ls_weighting_details
'w=1/[\s^2^(Fo^2^)+(0.0580P)^2^+0.3609P] where P=(Fo^2^+2Fc^2^)/3'
_refine_ls_weighting_scheme      calc
_refine_ls_wR_factor_gt          0.1205
_refine_ls_wR_factor_ref         0.1294
_reflns_Friedel_coverage         0.000
_reflns_number_gt                829
_reflns_number_total             1056
_reflns_threshold_expression     'I > 2\s(I)'
_cod_data_source_file            c8cc03636e6.cif
_cod_data_source_block           ABN_100K
_cod_depositor_comments
;
The following automatic conversions were performed:

'_exptl_absorpt_correction_type' value 'Multi-scan' changed to
'multi-scan' according to
/home/data/users/saulius/crontab/automatic-downloads/rss-feeds/RSC/lib/dictionaries/cif_core.dic
dictionary named 'cif_core.dic' version 2.4.2 from 2011-04-26.

Automatic conversion script
Id: cif_fix_values 4973 2017-02-22 13:04:09Z antanas 

 Adding full bibliography for 7121738--7121749.cif.
;
_cod_database_code               7121738
_shelx_shelxl_version_number     2018/3
_shelx_space_group_comment
;
The symmetry employed for this shelxl refinement is uniquely defined
by the following loop, which should always be used as a source of
symmetry information in preference to the above space-group names.
They are only intended as comments.
;
_shelx_res_file
;
TITL C:\frames\guest\LA_ABN~1\100K\work\100K_aa_a.res in P2(1)/c
    C:\frames\guest\LA_ABN~1\100K\work\100K_aa_a.res
    created by SHELXL-2018/3 at 21:41:47 on 24-Apr-2018
CELL 0.71073 7.3184 5.7059 15.8439 90.000 113.439 90.000
ZERR 4.0000 0.0018 0.0015 0.0042 0.000 0.006 0.000
LATT 1
SYMM -X, 0.5+Y, 0.5-Z
SFAC C H N
UNIT 28 24 8
BOND
DFIX 1.02 0.01 N1 H1A
DFIX 1.02 0.01 N1 H1B
ACTA 50
FMAP 2 1 53
PLAN 20 0 0
LIST 6 1
TEMP -173
L.S. 10
WGHT    0.058000    0.360900
FVAR       0.88701
N1    3    0.784279    0.762118    0.771833    11.00000    0.03949    0.02772 =
         0.02002   -0.00350    0.01223   -0.00405
N2    3    0.727321    0.094146    0.410348    11.00000    0.04150    0.03091 =
         0.02455   -0.00399    0.01517   -0.00490
C5    1    0.829237    0.581325    0.558447    11.00000    0.02673    0.02279 =
         0.02043    0.00367    0.00948    0.00129
AFIX  43
H5    2    0.879741    0.639761    0.515820    11.00000   -1.20000
AFIX   0
C4    1    0.736835    0.361011    0.544031    11.00000    0.02567    0.02320 =
         0.01946    0.00038    0.00701    0.00182
C3    1    0.659017    0.280736    0.606144    11.00000    0.02519    0.02253 =
         0.02420    0.00219    0.00761   -0.00113
AFIX  43
H3    2    0.594852    0.132461    0.596439    11.00000   -1.20000
AFIX   0
C2    1    0.673717    0.412398    0.680874    11.00000    0.02840    0.02538 =
         0.01994    0.00305    0.01033   -0.00113
AFIX  43
H2    2    0.618755    0.355506    0.722087    11.00000   -1.20000
AFIX   0
C1    1    0.770124    0.632177    0.696941    11.00000    0.02515    0.02432 =
         0.01932    0.00118    0.00629    0.00301
C6    1    0.847089    0.713180    0.633988    11.00000    0.02830    0.01887 =
         0.02431    0.00084    0.00864   -0.00059
AFIX  43
H6    2    0.912261    0.860827    0.643708    11.00000   -1.20000
AFIX   0
C7    1    0.729523    0.215725    0.468761    11.00000    0.02810    0.02633 =
         0.02347    0.00222    0.01100   -0.00317
H1A   2    0.875058    0.901476    0.791133    11.00000    0.06647
H1B   2    0.757398    0.684876    0.822269    11.00000    0.05245
HKLF 4




REM  C:\frames\guest\LA_ABN~1\100K\work\100K_aa_a.res in P2(1)/c
REM wR2 = 0.1294, GooF = S = 1.080, Restrained GooF = 1.082 for all data
REM R1 = 0.0502 for 829 Fo > 4sig(Fo) and 0.0679 for all 1056 data
REM 90 parameters refined using 2 restraints

END

WGHT      0.0581      0.3611

REM Highest difference peak  0.200,  deepest hole -0.218,  1-sigma level  0.054
Q1    1   0.5996  0.3486  0.5372  11.00000  0.05    0.20
Q2    1   0.6280  0.7798  0.7399  11.00000  0.05    0.20
Q3    1   0.5228  0.2459  0.5799  11.00000  0.05    0.19
Q4    1   0.8944  0.0867  0.4385  11.00000  0.05    0.19
Q5    1   0.6116  0.1355  0.4429  11.00000  0.05    0.18
Q6    1   0.8622  0.6537  0.6816  11.00000  0.05    0.18
Q7    1   0.9391  0.7408  0.7953  11.00000  0.05    0.16
Q8    1   0.8646  0.3683  0.5588  11.00000  0.05    0.16
Q9    1   0.5132  0.4445  0.6653  11.00000  0.05    0.16
Q10   1   0.7840  0.2935  0.6015  11.00000  0.05    0.16
Q11   1   0.9917  0.6895  0.6605  11.00000  0.05    0.15
Q12   1   0.5953  0.4073  0.6202  11.00000  0.05    0.14
Q13   1   0.6974  0.6878  0.6203  11.00000  0.05    0.14
Q14   1   0.5777  0.0075  0.3749  11.00000  0.05    0.14
Q15   1   0.5263  0.3811  0.7967  11.00000  0.05    0.14
Q16   1   0.5751  0.0883  0.3989  11.00000  0.05    0.13
Q17   1   0.9694  0.5839  0.5728  11.00000  0.05    0.13
Q18   1   0.4433  0.3783  0.7136  11.00000  0.05    0.13
Q19   1   0.5141  0.2107  0.3632  11.00000  0.05    0.12
Q20   1   0.9585  0.4860  0.5411  11.00000  0.05    0.12
;
_shelx_res_checksum              84164
loop_
_space_group_symop_operation_xyz
'x, y, z'
'-x, y+1/2, -z+1/2'
'-x, -y, -z'
'x, -y-1/2, z-1/2'
loop_
_atom_site_label
_atom_site_type_symbol
_atom_site_fract_x
_atom_site_fract_y
_atom_site_fract_z
_atom_site_U_iso_or_equiv
_atom_site_adp_type
_atom_site_occupancy
_atom_site_site_symmetry_order
_atom_site_calc_flag
_atom_site_refinement_flags_posn
_atom_site_refinement_flags_adp
N1 N 0.7843(3) 0.7621(3) 0.77183(11) 0.0290(5) Uani 1 1 d D .
N2 N 0.7273(3) 0.0941(3) 0.41035(12) 0.0317(5) Uani 1 1 d . .
C5 C 0.8292(3) 0.5813(4) 0.55845(13) 0.0233(5) Uani 1 1 d . .
H5 H 0.879741 0.639761 0.515820 0.028 Uiso 1 1 calc R U
C4 C 0.7368(3) 0.3610(4) 0.54403(13) 0.0234(5) Uani 1 1 d . .
C3 C 0.6590(3) 0.2807(4) 0.60614(13) 0.0247(5) Uani 1 1 d . .
H3 H 0.594852 0.132461 0.596439 0.030 Uiso 1 1 calc R U
C2 C 0.6737(3) 0.4124(4) 0.68087(13) 0.0243(5) Uani 1 1 d . .
H2 H 0.618755 0.355506 0.722087 0.029 Uiso 1 1 calc R U
C1 C 0.7701(3) 0.6322(4) 0.69694(13) 0.0237(5) Uani 1 1 d . .
C6 C 0.8471(3) 0.7132(4) 0.63399(13) 0.0244(5) Uani 1 1 d . .
H6 H 0.912261 0.860827 0.643708 0.029 Uiso 1 1 calc R U
C7 C 0.7295(3) 0.2157(4) 0.46876(14) 0.0257(5) Uani 1 1 d . .
H1A H 0.875(3) 0.901(3) 0.7911(19) 0.066(9) Uiso 1 1 d D .
H1B H 0.757(3) 0.685(4) 0.8223(12) 0.052(7) Uiso 1 1 d D .
loop_
_atom_site_aniso_label
_atom_site_aniso_U_11
_atom_site_aniso_U_22
_atom_site_aniso_U_33
_atom_site_aniso_U_23
_atom_site_aniso_U_13
_atom_site_aniso_U_12
N1 0.0395(11) 0.0277(10) 0.0200(9) -0.0035(9) 0.0122(8) -0.0040(8)
N2 0.0415(11) 0.0309(11) 0.0246(10) -0.0040(9) 0.0152(8) -0.0049(9)
C5 0.0267(11) 0.0228(11) 0.0204(10) 0.0037(9) 0.0095(8) 0.0013(8)
C4 0.0257(10) 0.0232(11) 0.0195(10) 0.0004(9) 0.0070(8) 0.0018(8)
C3 0.0252(10) 0.0225(11) 0.0242(11) 0.0022(9) 0.0076(8) -0.0011(9)
C2 0.0284(11) 0.0254(11) 0.0199(10) 0.0031(9) 0.0103(8) -0.0011(9)
C1 0.0251(11) 0.0243(11) 0.0193(10) 0.0012(9) 0.0063(8) 0.0030(8)
C6 0.0283(11) 0.0189(10) 0.0243(11) 0.0008(9) 0.0086(8) -0.0006(9)
C7 0.0281(11) 0.0263(11) 0.0235(11) 0.0022(10) 0.0110(9) -0.0032(9)
loop_
_atom_type_symbol
_atom_type_description
_atom_type_scat_dispersion_real
_atom_type_scat_dispersion_imag
_atom_type_scat_source
C C 0.0033 0.0016 'International Tables Vol C Tables 4.2.6.8 and 6.1.1.4'
H H 0.0000 0.0000 'International Tables Vol C Tables 4.2.6.8 and 6.1.1.4'
N N 0.0061 0.0033 'International Tables Vol C Tables 4.2.6.8 and 6.1.1.4'
loop_
_geom_angle_atom_site_label_1
_geom_angle_atom_site_label_2
_geom_angle_atom_site_label_3
_geom_angle
C6 C5 C4 120.32(18)
C3 C4 C5 119.00(19)
C3 C4 C7 120.35(19)
C5 C4 C7 120.60(18)
C2 C3 C4 121.0(2)
C3 C2 C1 120.32(18)
N1 C1 C6 121.6(2)
N1 C1 C2 119.87(18)
C6 C1 C2 118.50(19)
C5 C6 C1 120.8(2)
N2 C7 C4 177.9(2)
loop_
_geom_bond_atom_site_label_1
_geom_bond_atom_site_label_2
_geom_bond_distance
N1 C1 1.368(3)
N2 C7 1.152(3)
C5 C6 1.375(3)
C5 C4 1.402(3)
C4 C3 1.396(3)
C4 C7 1.436(3)
C3 C2 1.370(3)
C2 C1 1.412(3)
C1 C6 1.405(3)
