#------------------------------------------------------------------------------
#$Date: 2019-11-17 06:59:19 +0200 (Sun, 17 Nov 2019) $
#$Revision: 228534 $
#$URL: file:///home/coder/svn-repositories/cod/cif/7/12/19/7121996.cif $
#------------------------------------------------------------------------------
#
# This file is available in the Crystallography Open Database (COD),
# http://www.crystallography.net/
#
# All data on this site have been placed in the public domain by the
# contributors.
#
data_7121996
loop_
_publ_author_name
'Mishra, Manish Kumar'
'Kadambi, Sourabh B.'
'Ramamurty, Upadrasta'
'Ghosh, Soumyajit'
_publ_section_title
;
 Elastic flexibility tuning via interaction factor modulation in molecular
 crystals.
;
_journal_issue                   65
_journal_name_full
'Chemical communications (Cambridge, England)'
_journal_page_first              9047
_journal_page_last               9050
_journal_paper_doi               10.1039/c8cc04132f
_journal_volume                  54
_journal_year                    2018
_chemical_formula_sum            'C13 H8 Cl F N2 O2'
_chemical_formula_weight         278.60
_space_group_crystal_system      triclinic
_space_group_IT_number           2
_space_group_name_Hall           '-P 1'
_space_group_name_H-M_alt        'P -1'
_symmetry_space_group_name_Hall  '-P 1'
_symmetry_space_group_name_H-M   'P -1'
_atom_sites_solution_hydrogens   geom
_audit_creation_method           SHELXL-2016/6
_audit_update_record
;
2018-05-02 deposited with the CCDC.
2018-07-18 downloaded from the CCDC.
;
_cell_angle_alpha                71.50(3)
_cell_angle_beta                 89.83(5)
_cell_angle_gamma                89.58(5)
_cell_formula_units_Z            2
_cell_length_a                   3.8145(15)
_cell_length_b                   12.348(4)
_cell_length_c                   13.349(5)
_cell_measurement_reflns_used    6279
_cell_measurement_temperature    100(2)
_cell_measurement_theta_max      27.5
_cell_measurement_theta_min      1.6
_cell_volume                     596.2(4)
_computing_cell_refinement       'Bruker XSCANS'
_computing_data_collection       'Bruker XSCANS'
_computing_data_reduction        'Bruker SHELXTL'
_computing_structure_refinement  'SHELXL-2016/6 (Sheldrick, 2016)'
_computing_structure_solution    'Bruker SHELXTL'
_diffrn_ambient_temperature      100(2)
_diffrn_measured_fraction_theta_full 0.998
_diffrn_measured_fraction_theta_max 0.993
_diffrn_measurement_device_type  'Bruker P4'
_diffrn_measurement_method       '\w scans'
_diffrn_radiation_type           MoK\a
_diffrn_radiation_wavelength     0.71073
_diffrn_reflns_av_R_equivalents  0.10
_diffrn_reflns_av_unetI/netI     0.1220
_diffrn_reflns_Laue_measured_fraction_full 0.998
_diffrn_reflns_Laue_measured_fraction_max 0.993
_diffrn_reflns_limit_h_max       4
_diffrn_reflns_limit_h_min       -4
_diffrn_reflns_limit_k_max       16
_diffrn_reflns_limit_k_min       -16
_diffrn_reflns_limit_l_max       17
_diffrn_reflns_limit_l_min       -17
_diffrn_reflns_number            6279
_diffrn_reflns_point_group_measured_fraction_full 0.998
_diffrn_reflns_point_group_measured_fraction_max 0.993
_diffrn_reflns_theta_full        25.242
_diffrn_reflns_theta_max         27.528
_diffrn_reflns_theta_min         1.609
_diffrn_source                   'sealed tube'
_exptl_absorpt_coefficient_mu    0.331
_exptl_absorpt_correction_type   multi-scan
_exptl_absorpt_process_details   'North et al., 1968'
_exptl_crystal_colour            Colorless
_exptl_crystal_density_diffrn    1.552
_exptl_crystal_density_method    none
_exptl_crystal_description       Acicular
_exptl_crystal_F_000             284
_exptl_crystal_size_max          0.300
_exptl_crystal_size_mid          0.080
_exptl_crystal_size_min          0.030
_exptl_transmission_factor_max   0.990
_exptl_transmission_factor_min   0.969
_refine_diff_density_max         0.456
_refine_diff_density_min         -0.464
_refine_diff_density_rms         0.111
_refine_ls_extinction_method     none
_refine_ls_goodness_of_fit_ref   1.150
_refine_ls_hydrogen_treatment    constr
_refine_ls_matrix_type           full
_refine_ls_number_parameters     173
_refine_ls_number_reflns         2701
_refine_ls_number_restraints     0
_refine_ls_restrained_S_all      1.150
_refine_ls_R_factor_all          0.1114
_refine_ls_R_factor_gt           0.0894
_refine_ls_shift/su_max          0.000
_refine_ls_shift/su_mean         0.000
_refine_ls_structure_factor_coef Fsqd
_refine_ls_weighting_details
'w=1/[\s^2^(Fo^2^)+(0.0511P)^2^+2.2947P] where P=(Fo^2^+2Fc^2^)/3'
_refine_ls_weighting_scheme      calc
_refine_ls_wR_factor_gt          0.2444
_refine_ls_wR_factor_ref         0.2645
_reflns_Friedel_coverage         0.000
_reflns_number_gt                2015
_reflns_number_total             2701
_reflns_threshold_expression     'I > 2\s(I)'
_cod_data_source_file            c8cc04132f3.cif
_cod_data_source_block           C13H8ClFN2O2-EC3
_cod_depositor_comments
'Adding full bibliography for 7121996--7121999.cif.'
_cod_database_code               7121996
_shelx_shelxl_version_number     2016/6
_shelx_space_group_comment
;
The symmetry employed for this shelxl refinement is uniquely defined
by the following loop, which should always be used as a source of
symmetry information in preference to the above space-group names.
They are only intended as comments.
;
_shelx_estimated_absorpt_t_min   0.907
_shelx_estimated_absorpt_t_max   0.990
_shelx_res_file
;
TITL datam in P-1                New: P-1
    shelx.res
    created by SHELXL-2016/6 at 02:34:16 on 03-Dec-2017
CELL  0.71073   3.8145  12.3480  13.3490   71.500   89.830   89.580
ZERR     2.00   0.0015   0.0040   0.0050    0.030    0.050    0.050
LATT   1
SFAC  C        2.31000 20.84392  1.02000 10.20751   1.58860   0.56870 =
         0.86500  51.65125   0.21560   0.003   0.002    11.500   0.680  12.010
SFAC  H        0.49300 10.51091  0.32291 26.12573   0.14019   3.14236 =
         0.04081  57.79977   0.00304   0.000   0.000     0.624   0.350   1.000
SFAC  CL      11.46041  0.01040  7.19641  1.16620   6.25561  18.51942 =
         1.64550  47.77846  -9.55741   0.148   0.159   678.000   0.990  35.450
SFAC  F        3.53920 10.28251  2.64120  4.29440   1.51700   0.26150 =
         1.02430  26.14763   0.27760   0.017   0.010    51.500   0.640  19.000
SFAC  N       12.21261  0.00570  3.13220  9.89331   2.01250  28.99754 =
         1.16630   0.58260 -11.52901   0.006   0.003    19.600   0.680  14.010
SFAC  O        3.04850 13.27711  2.28680  5.70111   1.54630   0.32390 =
         0.86700  32.90894   0.25080   0.011   0.006    32.500   0.680  16.000
UNIT  26 16 2 2 4 4
MERG   2
TWIN
FMAP   2
PLAN   20
SIZE     0.030   0.080   0.300
ACTA
BOND   $H
CONF
L.S.   5
TEMP   100.00
WGHT    0.051100    2.294700
BASF   0.00332
FVAR       0.50222
CL1   3    0.008952    0.928413   -0.161664    11.00000    0.04463    0.02925 =
         0.02594    0.00163   -0.00043    0.00618
F     4    0.871199    0.078697    0.574449    11.00000    0.06327    0.02191 =
         0.03273    0.00204   -0.01134    0.00504
O1    6    1.118681    0.233883    0.649884    11.00000    0.05198    0.04279 =
         0.02774   -0.00403   -0.01593    0.00762
O2    6    0.833748    0.394633    0.603383    11.00000    0.05569    0.03357 =
         0.03052   -0.01535   -0.00524    0.00245
N1    5    0.920978    0.303591    0.590307    11.00000    0.03150    0.02641 =
         0.02364   -0.00432    0.00230   -0.00413
N2    5    0.428813    0.441150    0.228555    11.00000    0.03234    0.02311 =
         0.01941   -0.00482   -0.00336    0.00142
C1    1    0.787278    0.279892    0.496220    11.00000    0.02683    0.02604 =
         0.01783   -0.00535   -0.00034    0.00018
C2    1    0.672955    0.371996    0.411709    11.00000    0.02522    0.02160 =
         0.02202   -0.00621    0.00170   -0.00078
AFIX  43
H8    2    0.678661    0.445534    0.416355    11.00000   -1.20000
AFIX   0
C3    1    0.548853    0.353775    0.319321    11.00000    0.02517    0.02044 =
         0.02424   -0.00354    0.00132    0.00154
C4    1    0.538025    0.241742    0.315354    11.00000    0.03192    0.02184 =
         0.02303   -0.00634   -0.00008   -0.00171
AFIX  43
H6    2    0.455121    0.228391    0.254911    11.00000   -1.20000
AFIX   0
C5    1    0.651521    0.148922    0.402059    11.00000    0.03646    0.02180 =
         0.02796   -0.00557    0.00052   -0.00033
AFIX  43
H7    2    0.642265    0.074785    0.399028    11.00000   -1.20000
AFIX   0
C6    1    0.775367    0.169112    0.490663    11.00000    0.03616    0.02111 =
         0.02223    0.00148   -0.00247    0.00473
C7    1    0.518949    0.544331    0.212932    11.00000    0.02504    0.02668 =
         0.01527   -0.00380   -0.00162    0.00161
AFIX  43
H5    2    0.669504    0.561059    0.260610    11.00000   -1.20000
AFIX   0
C8    1    0.389384    0.638696    0.120338    11.00000    0.02380    0.02522 =
         0.02394   -0.00377    0.00325   -0.00391
C9    1    0.237644    0.615470    0.034362    11.00000    0.02704    0.02236 =
         0.02064   -0.00479    0.00072   -0.00038
AFIX  43
H2    2    0.214683    0.540129    0.035594    11.00000   -1.20000
AFIX   0
C10   1    0.120287    0.703514   -0.053151    11.00000    0.02979    0.02567 =
         0.02176   -0.00375   -0.00018    0.00022
AFIX  43
H1    2    0.021890    0.688243   -0.110863    11.00000   -1.20000
AFIX   0
C11   1    0.154915    0.815745   -0.051626    11.00000    0.03008    0.02788 =
         0.02171   -0.00117    0.00227    0.00321
C12   1    0.295689    0.840969    0.033740    11.00000    0.03732    0.02404 =
         0.02820   -0.00450    0.00258    0.00053
AFIX  43
H3    2    0.308753    0.916176    0.033657    11.00000   -1.20000
AFIX   0
C13   1    0.418322    0.751207    0.120382    11.00000    0.03192    0.02632 =
         0.02287   -0.00610    0.00054   -0.00472
AFIX  43
H4    2    0.518712    0.766678    0.177734    11.00000   -1.20000
AFIX   0
HKLF    4




REM  datam in P-1                New: P-1
REM R1 =  0.0894 for    2015 Fo > 4sig(Fo)  and  0.1114 for all    2701 data
REM    173 parameters refined using      0 restraints

END

WGHT      0.0510      2.3014

REM Highest difference peak  0.456,  deepest hole -0.464,  1-sigma level  0.111
Q1    1   0.2507  0.9560 -0.1433  11.00000  0.05    0.46
Q2    1  -0.2258  0.8988 -0.1787  11.00000  0.05    0.43
Q3    1   0.2133  0.8623  0.1591  11.00000  0.05    0.40
Q4    1   0.6681  0.7781  0.1151  11.00000  0.05    0.39
Q5    1  -0.1013  0.5454  0.0763  11.00000  0.05    0.38
Q6    1   0.4906  0.9054  0.0186  11.00000  0.05    0.35
Q7    1   0.7545 -0.0130  0.3365  11.00000  0.05    0.34
Q8    1   0.0417  0.6003 -0.0461  11.00000  0.05    0.34
Q9    1   0.5499  0.8071 -0.0145  11.00000  0.05    0.34
Q10   1   0.5745  0.8874 -0.0104  11.00000  0.05    0.33
Q11   1   0.0262  0.6286  0.0128  11.00000  0.05    0.33
Q12   1   0.6467  0.8268  0.0366  11.00000  0.05    0.33
Q13   1   1.0166  0.4802  0.5401  11.00000  0.05    0.33
Q14   1   0.3598  0.9960  0.1113  11.00000  0.05    0.32
Q15   1   0.3935  0.1218  0.5567  11.00000  0.05    0.32
Q16   1   0.4832  0.8990  0.0821  11.00000  0.05    0.32
Q17   1   0.6176  0.0411  0.5594  11.00000  0.05    0.31
Q18   1  -0.1545  0.6706 -0.1222  11.00000  0.05    0.31
Q19   1  -0.0073  0.6049 -0.0054  11.00000  0.05    0.30
Q20   1  -0.1019  0.6022 -0.1357  11.00000  0.05    0.30
;
_shelx_res_checksum              83796
loop_
_space_group_symop_operation_xyz
'x, y, z'
'-x, -y, -z'
loop_
_atom_site_label
_atom_site_type_symbol
_atom_site_fract_x
_atom_site_fract_y
_atom_site_fract_z
_atom_site_U_iso_or_equiv
_atom_site_adp_type
_atom_site_occupancy
_atom_site_site_symmetry_order
_atom_site_calc_flag
_atom_site_refinement_flags_posn
_atom_site_refinement_flags_adp
Cl1 Cl 0.0090(4) 0.92841(11) -0.16166(10) 0.0358(4) Uani 1 1 d . .
F F 0.8712(9) 0.0787(3) 0.5744(3) 0.0418(8) Uani 1 1 d . .
O1 O 1.1187(11) 0.2339(4) 0.6499(3) 0.0425(10) Uani 1 1 d . .
O2 O 0.8337(11) 0.3946(3) 0.6034(3) 0.0387(9) Uani 1 1 d . .
N1 N 0.9210(11) 0.3036(4) 0.5903(3) 0.0280(9) Uani 1 1 d . .
N2 N 0.4288(11) 0.4412(3) 0.2286(3) 0.0254(9) Uani 1 1 d . .
C1 C 0.7873(12) 0.2799(4) 0.4962(4) 0.0239(10) Uani 1 1 d . .
C2 C 0.6730(12) 0.3720(4) 0.4117(4) 0.0231(9) Uani 1 1 d . .
H8 H 0.678661 0.445534 0.416355 0.028 Uiso 1 1 calc R U
C3 C 0.5489(12) 0.3538(4) 0.3193(4) 0.0241(10) Uani 1 1 d . .
C4 C 0.5380(13) 0.2417(4) 0.3154(4) 0.0258(10) Uani 1 1 d . .
H6 H 0.455121 0.228391 0.254911 0.031 Uiso 1 1 calc R U
C5 C 0.6515(13) 0.1489(4) 0.4021(4) 0.0293(11) Uani 1 1 d . .
H7 H 0.642265 0.074785 0.399028 0.035 Uiso 1 1 calc R U
C6 C 0.7754(13) 0.1691(4) 0.4907(4) 0.0285(10) Uani 1 1 d . .
C7 C 0.5189(12) 0.5443(4) 0.2129(3) 0.0230(9) Uani 1 1 d . .
H5 H 0.669504 0.561059 0.260610 0.028 Uiso 1 1 calc R U
C8 C 0.3894(12) 0.6387(4) 0.1203(4) 0.0253(10) Uani 1 1 d . .
C9 C 0.2376(12) 0.6155(4) 0.0344(4) 0.0238(9) Uani 1 1 d . .
H2 H 0.214683 0.540129 0.035594 0.029 Uiso 1 1 calc R U
C10 C 0.1203(13) 0.7035(4) -0.0532(4) 0.0266(10) Uani 1 1 d . .
H1 H 0.021890 0.688243 -0.110863 0.032 Uiso 1 1 calc R U
C11 C 0.1549(13) 0.8157(4) -0.0516(4) 0.0282(10) Uani 1 1 d . .
C12 C 0.2957(13) 0.8410(4) 0.0337(4) 0.0308(11) Uani 1 1 d . .
H3 H 0.308753 0.916176 0.033657 0.037 Uiso 1 1 calc R U
C13 C 0.4183(13) 0.7512(4) 0.1204(4) 0.0274(10) Uani 1 1 d . .
H4 H 0.518712 0.766678 0.177734 0.033 Uiso 1 1 calc R U
loop_
_atom_site_aniso_label
_atom_site_aniso_U_11
_atom_site_aniso_U_22
_atom_site_aniso_U_33
_atom_site_aniso_U_23
_atom_site_aniso_U_13
_atom_site_aniso_U_12
Cl1 0.0446(8) 0.0292(7) 0.0259(6) 0.0016(5) -0.0004(5) 0.0062(5)
F 0.063(2) 0.0219(15) 0.0327(17) 0.0020(13) -0.0113(15) 0.0050(14)
O1 0.052(2) 0.043(2) 0.028(2) -0.0040(17) -0.0159(18) 0.0076(19)
O2 0.056(2) 0.034(2) 0.031(2) -0.0154(16) -0.0052(17) 0.0024(18)
N1 0.031(2) 0.026(2) 0.024(2) -0.0043(16) 0.0023(16) -0.0041(17)
N2 0.032(2) 0.023(2) 0.0194(19) -0.0048(15) -0.0034(16) 0.0014(16)
C1 0.027(2) 0.026(2) 0.018(2) -0.0053(18) -0.0003(17) 0.0002(18)
C2 0.025(2) 0.022(2) 0.022(2) -0.0062(18) 0.0017(17) -0.0008(17)
C3 0.025(2) 0.020(2) 0.024(2) -0.0035(18) 0.0013(18) 0.0015(17)
C4 0.032(2) 0.022(2) 0.023(2) -0.0063(18) -0.0001(18) -0.0017(18)
C5 0.036(3) 0.022(2) 0.028(2) -0.0056(19) 0.001(2) 0.000(2)
C6 0.036(3) 0.021(2) 0.022(2) 0.0015(18) -0.0025(19) 0.0047(19)
C7 0.025(2) 0.027(2) 0.015(2) -0.0038(17) -0.0016(16) 0.0016(17)
C8 0.024(2) 0.025(2) 0.024(2) -0.0038(18) 0.0033(18) -0.0039(18)
C9 0.027(2) 0.022(2) 0.021(2) -0.0048(18) 0.0007(17) -0.0004(18)
C10 0.030(2) 0.026(2) 0.022(2) -0.0038(18) -0.0002(18) 0.0002(19)
C11 0.030(2) 0.028(2) 0.022(2) -0.0012(19) 0.0023(18) 0.0032(19)
C12 0.037(3) 0.024(2) 0.028(2) -0.004(2) 0.003(2) 0.001(2)
C13 0.032(2) 0.026(2) 0.023(2) -0.0061(19) 0.0005(19) -0.0047(19)
loop_
_atom_type_symbol
_atom_type_description
_atom_type_scat_dispersion_real
_atom_type_scat_dispersion_imag
_atom_type_scat_source
C C 0.0030 0.0020 'International Tables Vol C Tables 4.2.6.8 and 6.1.1.4'
H H 0.0000 0.0000 'International Tables Vol C Tables 4.2.6.8 and 6.1.1.4'
Cl Cl 0.1480 0.1590 'International Tables Vol C Tables 4.2.6.8 and 6.1.1.4'
F F 0.0170 0.0100 'International Tables Vol C Tables 4.2.6.8 and 6.1.1.4'
N N 0.0060 0.0030 'International Tables Vol C Tables 4.2.6.8 and 6.1.1.4'
O O 0.0110 0.0060 'International Tables Vol C Tables 4.2.6.8 and 6.1.1.4'
loop_
_geom_angle_atom_site_label_1
_geom_angle_atom_site_label_2
_geom_angle_atom_site_label_3
_geom_angle
O1 N1 O2 123.5(4)
O1 N1 C1 118.7(4)
O2 N1 C1 117.8(4)
C7 N2 C3 120.1(4)
C2 C1 C6 120.5(4)
C2 C1 N1 117.9(4)
C6 C1 N1 121.6(4)
C1 C2 C3 120.0(4)
C1 C2 H8 120.0
C3 C2 H8 120.0
C4 C3 C2 118.7(4)
C4 C3 N2 116.7(4)
C2 C3 N2 124.7(4)
C3 C4 C5 120.8(4)
C3 C4 H6 119.6
C5 C4 H6 119.6
C6 C5 C4 119.4(5)
C6 C5 H7 120.3
C4 C5 H7 120.3
F C6 C5 118.5(4)
F C6 C1 120.7(4)
C5 C6 C1 120.7(4)
N2 C7 C8 121.6(4)
N2 C7 H5 119.2
C8 C7 H5 119.2
C13 C8 C9 120.1(4)
C13 C8 C7 119.3(4)
C9 C8 C7 120.7(4)
C10 C9 C8 120.9(5)
C10 C9 H2 119.5
C8 C9 H2 119.5
C9 C10 C11 118.0(4)
C9 C10 H1 121.0
C11 C10 H1 121.0
C12 C11 C10 122.3(4)
C12 C11 Cl1 119.0(4)
C10 C11 Cl1 118.7(4)
C11 C12 C13 118.9(5)
C11 C12 H3 120.6
C13 C12 H3 120.6
C8 C13 C12 119.9(5)
C8 C13 H4 120.1
C12 C13 H4 120.1
loop_
_geom_bond_atom_site_label_1
_geom_bond_atom_site_label_2
_geom_bond_distance
Cl1 C11 1.761(5)
F C6 1.355(5)
O1 N1 1.225(5)
O2 N1 1.234(6)
N1 C1 1.471(6)
N2 C7 1.274(6)
N2 C3 1.417(6)
C1 C2 1.392(6)
C1 C6 1.394(7)
C2 C3 1.406(7)
C2 H8 0.9300
C3 C4 1.402(7)
C4 C5 1.412(6)
C4 H6 0.9300
C5 C6 1.370(7)
C5 H7 0.9300
C7 C8 1.487(6)
C7 H5 0.9300
C8 C13 1.395(7)
C8 C9 1.396(7)
C9 C10 1.392(6)
C9 H2 0.9300
C10 C11 1.400(7)
C10 H1 0.9300
C11 C12 1.384(7)
C12 C13 1.403(7)
C12 H3 0.9300
C13 H4 0.9300
loop_
_geom_torsion_atom_site_label_1
_geom_torsion_atom_site_label_2
_geom_torsion_atom_site_label_3
_geom_torsion_atom_site_label_4
_geom_torsion
O1 N1 C1 C2 -157.4(5)
O2 N1 C1 C2 20.8(7)
O1 N1 C1 C6 22.3(7)
O2 N1 C1 C6 -159.5(5)
C6 C1 C2 C3 -0.9(7)
N1 C1 C2 C3 178.9(4)
C1 C2 C3 C4 1.0(7)
C1 C2 C3 N2 -179.5(4)
C7 N2 C3 C4 -160.0(5)
C7 N2 C3 C2 20.5(7)
C2 C3 C4 C5 -0.4(7)
N2 C3 C4 C5 -179.9(4)
C3 C4 C5 C6 -0.4(8)
C4 C5 C6 F 177.7(4)
C4 C5 C6 C1 0.6(8)
C2 C1 C6 F -177.0(4)
N1 C1 C6 F 3.3(7)
C2 C1 C6 C5 0.1(8)
N1 C1 C6 C5 -179.7(5)
C3 N2 C7 C8 -178.1(4)
N2 C7 C8 C13 163.5(5)
N2 C7 C8 C9 -16.0(7)
C13 C8 C9 C10 1.4(7)
C7 C8 C9 C10 -179.1(4)
C8 C9 C10 C11 -0.8(7)
C9 C10 C11 C12 -0.9(8)
C9 C10 C11 Cl1 179.9(4)
C10 C11 C12 C13 2.1(8)
Cl1 C11 C12 C13 -178.7(4)
C9 C8 C13 C12 -0.2(7)
C7 C8 C13 C12 -179.7(4)
C11 C12 C13 C8 -1.5(8)
