#------------------------------------------------------------------------------
#$Date: 2019-11-17 06:14:30 +0200 (Sun, 17 Nov 2019) $
#$Revision: 228357 $
#$URL: file:///home/coder/svn-repositories/cod/cif/7/12/17/7121746.cif $
#------------------------------------------------------------------------------
#
# This file is available in the Crystallography Open Database (COD),
# http://www.crystallography.net/
#
# All data on this site have been placed in the public domain by the
# contributors.
#
data_7121746
loop_
_publ_author_name
'Alimi, Lukman O.'
'van Heerden, Dewald P.'
'Lama, Prem'
'Smith, Vincent J.'
'Barbour, Leonard J.'
_publ_section_title
;
 Reversible thermosalience of 4-aminobenzonitrile.
;
_journal_issue                   48
_journal_name_full
'Chemical communications (Cambridge, England)'
_journal_page_first              6208
_journal_page_last               6211
_journal_paper_doi               10.1039/c8cc03636e
_journal_volume                  54
_journal_year                    2018
_chemical_formula_sum            'C7 H6 N2'
_chemical_formula_weight         118.14
_chemical_name_common            4-aminobenzonitrile
_chemical_name_systematic        4-aminobenzonitrile
_space_group_crystal_system      monoclinic
_space_group_IT_number           14
_space_group_name_Hall           '-P 2ybc'
_space_group_name_H-M_alt        'P 1 21/c 1'
_symmetry_space_group_name_Hall  '-P 2ybc'
_symmetry_space_group_name_H-M   'P 1 21/c 1'
_atom_sites_solution_hydrogens   mixed
_audit_creation_method           SHELXL-2018/3
_audit_update_record
;
2018-05-01 deposited with the CCDC.
2018-05-24 downloaded from the CCDC.
;
_cell_angle_alpha                90
_cell_angle_beta                 101.740(2)
_cell_angle_gamma                90
_cell_formula_units_Z            4
_cell_length_a                   7.2228(5)
_cell_length_b                   5.4765(4)
_cell_length_c                   16.0273(12)
_cell_measurement_reflns_used    4904
_cell_measurement_temperature    180(2)
_cell_measurement_theta_max      25.92
_cell_measurement_theta_min      2.60
_cell_volume                     620.71(8)
_computing_cell_refinement       'Bruker SAINT'
_computing_data_collection       'Bruker APEX2'
_computing_data_reduction        'Bruker SAINT'
_computing_molecular_graphics    'Bruker SHELXTL'
_computing_publication_material  'Bruker SHELXTL'
_computing_structure_refinement  'SHELXL-2018/3 (Sheldrick, 2018)'
_computing_structure_solution    'SHELXS-97 (Sheldrick 2008)'
_diffrn_ambient_temperature      180(2)
_diffrn_measured_fraction_theta_full 0.991
_diffrn_measured_fraction_theta_max 0.991
_diffrn_measurement_device_type  'Bruker APEX-II CCD'
_diffrn_measurement_method       '\f and \w scans'
_diffrn_radiation_type           MoK\a
_diffrn_radiation_wavelength     0.71073
_diffrn_reflns_av_R_equivalents  0.0283
_diffrn_reflns_av_unetI/netI     0.0144
_diffrn_reflns_Laue_measured_fraction_full 0.991
_diffrn_reflns_Laue_measured_fraction_max 0.991
_diffrn_reflns_limit_h_max       8
_diffrn_reflns_limit_h_min       -8
_diffrn_reflns_limit_k_max       6
_diffrn_reflns_limit_k_min       -6
_diffrn_reflns_limit_l_max       19
_diffrn_reflns_limit_l_min       -19
_diffrn_reflns_number            9721
_diffrn_reflns_point_group_measured_fraction_full 0.991
_diffrn_reflns_point_group_measured_fraction_max 0.991
_diffrn_reflns_theta_full        25.000
_diffrn_reflns_theta_max         25.344
_diffrn_reflns_theta_min         2.880
_exptl_absorpt_coefficient_mu    0.080
_exptl_absorpt_correction_T_max  0.988
_exptl_absorpt_correction_T_min  0.956
_exptl_absorpt_correction_type   multi-scan
_exptl_absorpt_process_details   SADABS
_exptl_crystal_colour            Colourless
_exptl_crystal_density_diffrn    1.264
_exptl_crystal_description       Rectangular
_exptl_crystal_F_000             248
_exptl_crystal_size_max          0.57
_exptl_crystal_size_mid          0.38
_exptl_crystal_size_min          0.10
_exptl_transmission_factor_max   0.988
_exptl_transmission_factor_min   0.956
_refine_diff_density_max         0.131
_refine_diff_density_min         -0.143
_refine_diff_density_rms         0.025
_refine_ls_extinction_method     none
_refine_ls_goodness_of_fit_ref   1.067
_refine_ls_hydrogen_treatment    mixed
_refine_ls_matrix_type           full
_refine_ls_number_parameters     90
_refine_ls_number_reflns         1134
_refine_ls_number_restraints     2
_refine_ls_restrained_S_all      1.082
_refine_ls_R_factor_all          0.0392
_refine_ls_R_factor_gt           0.0344
_refine_ls_shift/su_max          0.001
_refine_ls_shift/su_mean         0.000
_refine_ls_structure_factor_coef Fsqd
_refine_ls_weighting_details
'w=1/[\s^2^(Fo^2^)+(0.0431P)^2^+0.1224P] where P=(Fo^2^+2Fc^2^)/3'
_refine_ls_weighting_scheme      calc
_refine_ls_wR_factor_gt          0.0890
_refine_ls_wR_factor_ref         0.0929
_reflns_Friedel_coverage         0.000
_reflns_number_gt                1005
_reflns_number_total             1134
_reflns_threshold_expression     'I > 2\s(I)'
_cod_data_source_file            c8cc03636e6.cif
_cod_data_source_block           ABN_180K
_cod_depositor_comments
;
The following automatic conversions were performed:

'_exptl_absorpt_correction_type' value 'Multi-scan' changed to
'multi-scan' according to
/home/data/users/saulius/crontab/automatic-downloads/rss-feeds/RSC/lib/dictionaries/cif_core.dic
dictionary named 'cif_core.dic' version 2.4.2 from 2011-04-26.

Automatic conversion script
Id: cif_fix_values 4973 2017-02-22 13:04:09Z antanas 

 Adding full bibliography for 7121738--7121749.cif.
;
_cod_database_code               7121746
_shelx_shelxl_version_number     2018/3
_shelx_space_group_comment
;
The symmetry employed for this shelxl refinement is uniquely defined
by the following loop, which should always be used as a source of
symmetry information in preference to the above space-group names.
They are only intended as comments.
;
_shelx_res_file
;
TITL 180K in P2(1)/c
    C:\Users\lukman\Desktop\CS_LUK~1\ABN_CH~1\ABN_180K\ABN_180K_CIF.res
    created by SHELXL-2018/3 at 12:01:20 on 23-Apr-2018
CELL 0.71073 7.2228 5.4765 16.0273 90.000 101.740 90.000
ZERR 4.0000 0.0005 0.0004 0.0012 0.000 0.002 0.000
LATT 1
SYMM -X, 0.5+Y, 0.5-Z
SFAC C H N
UNIT 28 24 8
BOND
DFIX 1.02 0.01 N1 H1B
DFIX 1.02 0.01 N1 H1A
ACTA 50
FMAP 2 1 53
PLAN 20 0 0
TEMP -93
L.S. 4
WGHT    0.043100    0.122400
FVAR       0.71532
C5    1    0.829601    0.605330    0.573178    11.00000    0.03615    0.03513 =
         0.03934    0.00593    0.00722    0.00077
AFIX  43
H5    2    0.880260    0.668940    0.527411    11.00000   -1.20000
AFIX   0
C1    1    0.779829    0.640297    0.717123    11.00000    0.02882    0.03343 =
         0.04012   -0.00131    0.00456    0.00296
C4    1    0.729229    0.385319    0.563044    11.00000    0.03157    0.03533 =
         0.03810   -0.00099    0.00376    0.00085
N1    3    0.804730    0.761434    0.793059    11.00000    0.04827    0.04454 =
         0.04566   -0.01013    0.01293   -0.00763
C2    1    0.677051    0.421045    0.705785    11.00000    0.03457    0.03935 =
         0.04144    0.00164    0.01067   -0.00396
AFIX  43
H2    2    0.623822    0.358565    0.750964    11.00000   -1.20000
AFIX   0
C3    1    0.652713    0.296263    0.630265    11.00000    0.03330    0.03522 =
         0.04579   -0.00164    0.00763   -0.00581
AFIX  43
H3    2    0.583159    0.147858    0.623608    11.00000   -1.20000
AFIX   0
C7    1    0.712760    0.246285    0.486319    11.00000    0.03989    0.04404 =
         0.04217   -0.00086    0.00708   -0.00653
C6    1    0.855205    0.729823    0.649106    11.00000    0.03476    0.02887 =
         0.04585    0.00134    0.00619   -0.00250
AFIX  43
H6    2    0.924761    0.878229    0.655596    11.00000   -1.20000
AFIX   0
N2    3    0.704787    0.129287    0.426104    11.00000    0.06167    0.06060 =
         0.04718   -0.01270    0.01517   -0.01571
H1B   2    0.759826    0.683041    0.840174    11.00000    0.06218
H1A   2    0.880609    0.910392    0.802288    11.00000    0.06907
HKLF 4




REM  180K in P2(1)/c
REM wR2 = 0.0929, GooF = S = 1.067, Restrained GooF = 1.082 for all data
REM R1 = 0.0344 for 1005 Fo > 4sig(Fo) and 0.0392 for all 1134 data
REM 90 parameters refined using 2 restraints

END

WGHT      0.0432      0.1222

REM Highest difference peak  0.131,  deepest hole -0.143,  1-sigma level  0.025
Q1    1   0.6013  0.4146  0.6555  11.00000  0.05    0.13
Q2    1   0.8358  0.4414  0.5793  11.00000  0.05    0.12
Q3    1   0.7291  0.5224  0.5583  11.00000  0.05    0.12
Q4    1   0.7611  0.7151  0.6748  11.00000  0.05    0.12
Q5    1   0.7693  0.7163  0.5972  11.00000  0.05    0.12
Q6    1   0.8768  0.6504  0.6971  11.00000  0.05    0.12
Q7    1   0.6728  0.5703  0.7001  11.00000  0.05    0.12
Q8    1   0.7985  0.4839  0.7206  11.00000  0.05    0.11
Q9    1   0.7432  0.3081  0.6023  11.00000  0.05    0.11
Q10   1   0.9073  0.6034  0.6237  11.00000  0.05    0.11
Q11   1   0.6354  0.3806  0.5801  11.00000  0.05    0.10
Q12   1   0.7309  0.7394  0.7426  11.00000  0.05    0.10
Q13   1   0.6346  0.1220  0.3605  11.00000  0.05    0.09
Q14   1   0.7360  0.3051  0.6822  11.00000  0.05    0.09
Q15   1   0.7997  0.1443  0.4812  11.00000  0.05    0.08
Q16   1   0.7740  0.2859  0.5401  11.00000  0.05    0.08
Q17   1   0.8880  0.6603  0.7753  11.00000  0.05    0.08
Q18   1   0.7965  0.9105  0.7937  11.00000  0.05    0.07
Q19   1   0.9374  0.8172  0.8180  11.00000  0.05    0.07
Q20   1   0.6259  0.2565  0.4402  11.00000  0.05    0.07
;
_shelx_res_checksum              60495
loop_
_space_group_symop_operation_xyz
'x, y, z'
'-x, y+1/2, -z+1/2'
'-x, -y, -z'
'x, -y-1/2, z-1/2'
loop_
_atom_site_label
_atom_site_type_symbol
_atom_site_fract_x
_atom_site_fract_y
_atom_site_fract_z
_atom_site_U_iso_or_equiv
_atom_site_adp_type
_atom_site_occupancy
_atom_site_site_symmetry_order
_atom_site_calc_flag
_atom_site_refinement_flags_posn
_atom_site_refinement_flags_adp
C5 C 0.82960(15) 0.6053(2) 0.57318(7) 0.0369(3) Uani 1 1 d . .
H5 H 0.880260 0.668940 0.527411 0.044 Uiso 1 1 calc R U
C1 C 0.77983(14) 0.6403(2) 0.71712(7) 0.0345(3) Uani 1 1 d . .
C4 C 0.72923(15) 0.3853(2) 0.56304(7) 0.0355(3) Uani 1 1 d . .
N1 N 0.80473(15) 0.7614(2) 0.79306(7) 0.0457(3) Uani 1 1 d D .
C2 C 0.67705(15) 0.4210(2) 0.70578(7) 0.0380(3) Uani 1 1 d . .
H2 H 0.623822 0.358565 0.750964 0.046 Uiso 1 1 calc R U
C3 C 0.65271(15) 0.2963(2) 0.63026(7) 0.0382(3) Uani 1 1 d . .
H3 H 0.583159 0.147858 0.623608 0.046 Uiso 1 1 calc R U
C7 C 0.71276(16) 0.2463(2) 0.48632(7) 0.0422(3) Uani 1 1 d . .
C6 C 0.85521(15) 0.7298(2) 0.64911(7) 0.0368(3) Uani 1 1 d . .
H6 H 0.924761 0.878229 0.655596 0.044 Uiso 1 1 calc R U
N2 N 0.70479(16) 0.1293(2) 0.42610(7) 0.0559(4) Uani 1 1 d . .
H1B H 0.7598(19) 0.683(3) 0.8402(7) 0.062(4) Uiso 1 1 d D .
H1A H 0.8806(19) 0.910(2) 0.8023(9) 0.069(4) Uiso 1 1 d D .
loop_
_atom_site_aniso_label
_atom_site_aniso_U_11
_atom_site_aniso_U_22
_atom_site_aniso_U_33
_atom_site_aniso_U_23
_atom_site_aniso_U_13
_atom_site_aniso_U_12
C5 0.0362(6) 0.0351(6) 0.0393(6) 0.0059(5) 0.0072(5) 0.0008(5)
C1 0.0288(5) 0.0334(6) 0.0401(6) -0.0013(5) 0.0046(4) 0.0030(4)
C4 0.0316(5) 0.0353(6) 0.0381(6) -0.0010(5) 0.0038(4) 0.0009(4)
N1 0.0483(6) 0.0445(6) 0.0457(6) -0.0101(5) 0.0129(5) -0.0076(5)
C2 0.0346(6) 0.0394(6) 0.0414(6) 0.0016(5) 0.0107(5) -0.0040(5)
C3 0.0333(6) 0.0352(6) 0.0458(7) -0.0016(5) 0.0076(5) -0.0058(5)
C7 0.0399(6) 0.0440(7) 0.0422(7) -0.0009(5) 0.0071(5) -0.0065(5)
C6 0.0348(6) 0.0289(6) 0.0458(7) 0.0013(5) 0.0062(5) -0.0025(4)
N2 0.0617(7) 0.0606(8) 0.0472(7) -0.0127(5) 0.0152(5) -0.0157(6)
loop_
_atom_type_symbol
_atom_type_description
_atom_type_scat_dispersion_real
_atom_type_scat_dispersion_imag
_atom_type_scat_source
C C 0.0033 0.0016 'International Tables Vol C Tables 4.2.6.8 and 6.1.1.4'
H H 0.0000 0.0000 'International Tables Vol C Tables 4.2.6.8 and 6.1.1.4'
N N 0.0061 0.0033 'International Tables Vol C Tables 4.2.6.8 and 6.1.1.4'
loop_
_geom_angle_atom_site_label_1
_geom_angle_atom_site_label_2
_geom_angle_atom_site_label_3
_geom_angle
C6 C5 C4 120.23(10)
N1 C1 C6 121.43(10)
N1 C1 C2 120.08(10)
C6 C1 C2 118.50(10)
C3 C4 C5 119.27(10)
C3 C4 C7 120.07(10)
C5 C4 C7 120.59(10)
C3 C2 C1 120.69(10)
C2 C3 C4 120.54(10)
N2 C7 C4 177.53(13)
C5 C6 C1 120.75(10)
loop_
_geom_bond_atom_site_label_1
_geom_bond_atom_site_label_2
_geom_bond_distance
C5 C6 1.3742(15)
C5 C4 1.3985(16)
C1 N1 1.3655(14)
C1 C6 1.4024(15)
C1 C2 1.4039(16)
C4 C3 1.3951(15)
C4 C7 1.4306(15)
C2 C3 1.3698(15)
C7 N2 1.1501(15)
