#------------------------------------------------------------------------------
#$Date: 2019-01-11 01:25:07 +0200 (Fri, 11 Jan 2019) $
#$Revision: 212905 $
#$URL: file:///home/coder/svn-repositories/cod/cif/7/12/27/7122792.cif $
#------------------------------------------------------------------------------
#
# This file is available in the Crystallography Open Database (COD),
# http://www.crystallography.net/
#
# All data on this site have been placed in the public domain by the
# contributors.
#
data_7122792
loop_
_publ_author_name
'Evans, Hayden A.'
'Andrews, Jessica L.'
'Fabini, Douglas H.'
'Preefer, Molleigh B.'
'Wu, Guang'
'Cheetham, Anthony K.'
'Wudl, Fred'
'Seshadri, Ram'
_publ_section_title
;
 The capricious nature of iodine catenation in I<sub>2</sub> excess,
 perovskite-derived hybrid Pt(iv) compounds.
;
_journal_issue                   5
_journal_name_full
'Chemical communications (Cambridge, England)'
_journal_page_first              588
_journal_paper_doi               10.1039/c8cc07536k
_journal_volume                  55
_journal_year                    2018
_chemical_formula_sum            'C2 H12 I8 N6 Pt'
_chemical_formula_weight         1330.47
_space_group_crystal_system      triclinic
_space_group_IT_number           2
_space_group_name_Hall           '-P 1'
_space_group_name_H-M_alt        'P -1'
_symmetry_space_group_name_Hall  '-P 1'
_symmetry_space_group_name_H-M   'P -1'
_audit_creation_method           SHELXL-2014/7
_audit_update_record
;
2018-08-30 deposited with the CCDC.
2018-11-19 downloaded from the CCDC.
;
_cell_angle_alpha                110.556(17)
_cell_angle_beta                 102.736(19)
_cell_angle_gamma                93.865(19)
_cell_formula_units_Z            4
_cell_length_a                   12.768(9)
_cell_length_b                   13.016(9)
_cell_length_c                   14.519(10)
_cell_measurement_reflns_used    1956
_cell_measurement_temperature    108(2)
_cell_measurement_theta_max      25.80
_cell_measurement_theta_min      2.55
_cell_volume                     2176(3)
_computing_structure_refinement  'SHELXL-2014/7 (Sheldrick, 2014)'
_diffrn_ambient_temperature      108(2)
_diffrn_measured_fraction_theta_full 0.964
_diffrn_measured_fraction_theta_max 0.802
_diffrn_measurement_device_type  'Bruker APEXII'
_diffrn_radiation_type           MoK\a
_diffrn_radiation_wavelength     0.71073
_diffrn_reflns_av_R_equivalents  0.0799
_diffrn_reflns_av_unetI/netI     0.1704
_diffrn_reflns_Laue_measured_fraction_full 0.964
_diffrn_reflns_Laue_measured_fraction_max 0.802
_diffrn_reflns_limit_h_max       16
_diffrn_reflns_limit_h_min       -15
_diffrn_reflns_limit_k_max       12
_diffrn_reflns_limit_k_min       -16
_diffrn_reflns_limit_l_max       18
_diffrn_reflns_limit_l_min       -17
_diffrn_reflns_number            14341
_diffrn_reflns_point_group_measured_fraction_full 0.964
_diffrn_reflns_point_group_measured_fraction_max 0.802
_diffrn_reflns_theta_full        25.242
_diffrn_reflns_theta_max         29.541
_diffrn_reflns_theta_min         1.552
_exptl_absorpt_coefficient_mu    17.793
_exptl_absorpt_correction_T_max  0.7459
_exptl_absorpt_correction_T_min  0.4349
_exptl_absorpt_correction_type   multi-scan
_exptl_absorpt_process_details   SADABS
_exptl_crystal_colour            black
_exptl_crystal_density_diffrn    4.061
_exptl_crystal_description       block
_exptl_crystal_F_000             2272
_refine_diff_density_max         9.636
_refine_diff_density_min         -3.913
_refine_diff_density_rms         0.892
_refine_ls_extinction_method     none
_refine_ls_goodness_of_fit_ref   0.977
_refine_ls_hydrogen_treatment    undef
_refine_ls_matrix_type           full
_refine_ls_number_parameters     230
_refine_ls_number_reflns         9762
_refine_ls_number_restraints     0
_refine_ls_restrained_S_all      0.977
_refine_ls_R_factor_all          0.1456
_refine_ls_R_factor_gt           0.0817
_refine_ls_shift/su_max          0.000
_refine_ls_shift/su_mean         0.000
_refine_ls_structure_factor_coef Fsqd
_refine_ls_weighting_details
'w=1/[\s^2^(Fo^2^)+(0.1058P)^2^] where P=(Fo^2^+2Fc^2^)/3'
_refine_ls_weighting_scheme      calc
_refine_ls_wR_factor_gt          0.1936
_refine_ls_wR_factor_ref         0.2316
_reflns_Friedel_coverage         0.000
_reflns_number_gt                5690
_reflns_number_total             9762
_reflns_threshold_expression     'I > 2\s(I)'
_cod_data_source_file            c8cc07536k2.cif
_cod_data_source_block           100K-ga2pti6iodine_0m_a
_cod_database_code               7122792
_shelx_shelxl_version_number     2014/7
_shelx_space_group_comment
;
The symmetry employed for this shelxl refinement is uniquely defined
by the following loop, which should always be used as a source of
symmetry information in preference to the above space-group names.
They are only intended as comments.
;
_shelx_res_file
;

    100K-ga2pti6iodine_0m_a.res created by SHELXL-2014/7

TITL 100K-ga2pti6iodine_0m_a.res in P-1
CELL  0.71073  12.7683  13.0163  14.5187  110.556  102.736   93.865
ZERR    4.000   0.0088   0.0085   0.0100    0.017    0.019    0.019
LATT 1
SFAC C  H  N  I  Pt
UNIT 8  48  24  32  4
L.S. 10
ACTA
BOND $H
FMAP 2
PLAN 20
TEMP -165.240
WGHT    0.105800
FVAR       0.08181
PT01  5    0.500000    0.500000    1.000000    10.50000    0.00990    0.01244 =
         0.00695    0.00362   -0.00023   -0.00074
PT02  5    1.000000    1.000000    0.000000    10.50000    0.01012    0.01340 =
         0.00537    0.00289    0.00139    0.00089
PT03  5    0.273086    0.758775    0.515747    11.00000    0.00941    0.01323 =
         0.01060    0.00460    0.00266    0.00094
I004  4    0.202512    0.650219    0.314056    11.00000    0.01615    0.01611 =
         0.01059    0.00386    0.00401    0.00312
I005  4    0.612616    0.439647    0.859348    11.00000    0.01516    0.01851 =
         0.01105    0.00514    0.00431    0.00195
I006  4    0.515475    0.108234    0.008168    11.00000    0.01813    0.02422 =
         0.01429    0.01007    0.00780    0.00678
I007  4    1.072529    1.081125    0.204005    11.00000    0.01528    0.01910 =
         0.00839    0.00343    0.00133   -0.00075
I008  4    0.293323    0.294428    0.666589    11.00000    0.01395    0.01487 =
         0.01287    0.00163    0.00138   -0.00077
I009  4    0.477337    0.754613    0.501494    11.00000    0.01223    0.02244 =
         0.01831    0.00714    0.00555    0.00268
I00A  4    0.276255    0.950943    0.486682    11.00000    0.02008    0.01554 =
         0.02459    0.00971    0.01166    0.00360
I00B  4    0.273126    0.566116    0.544453    11.00000    0.01581    0.01763 =
         0.02225    0.01128    0.00318    0.00350
I00C  4    0.066201    0.757793    0.526801    11.00000    0.01106    0.02226 =
         0.01603    0.00998    0.00487    0.00336
I00D  4    0.608385    0.387175    1.101683    11.00000    0.01779    0.01598 =
         0.01722    0.00892   -0.00330    0.00023
I00E  4    0.983254    0.791656   -0.005506    11.00000    0.03129    0.01431 =
         0.01013    0.00489    0.00366    0.00203
I00F  4    0.350665    0.320273    0.894751    11.00000    0.01772    0.01578 =
         0.01033    0.00415   -0.00133   -0.00395
I00G  4    0.342842    0.869316    0.717100    11.00000    0.01543    0.02690 =
         0.00908    0.00133    0.00107   -0.00105
I00H  4    0.795159    1.006373    0.013933    11.00000    0.01050    0.03520 =
         0.01191    0.00941    0.00270    0.00335
I00I  4    0.224100    0.238387    0.455990    11.00000    0.01462    0.02022 =
         0.01164    0.00472    0.00224    0.00274
I00J  4    0.888091    0.488657    0.971612    11.00000    0.02356    0.02062 =
         0.01671    0.00613    0.00157    0.00238
N10   3    0.157603    0.085787    0.767538    11.00000    0.02719
N11   3    0.066698    0.075158    0.605081    11.00000    0.01495
N6    3    0.251725    0.356449    0.239510    11.00000    0.02333
N12   3    0.009565    0.186112    0.748035    11.00000    0.02988
N1    3    0.457561    0.876360    0.283416    11.00000    0.01935
N5    3    0.430729    0.427543    0.340121    11.00000    0.01934
C4    1    0.077352    0.115481    0.705406    11.00000    0.01405
C1    1    0.369538    0.910273    0.237524    11.00000    0.01714
C3    1    0.934074    0.405792    0.272966    11.00000    0.01086
N9    3    1.026394    0.418014    0.343361    11.00000    0.03716
N4    3    0.385761    0.248881    0.216039    11.00000    0.02944
N3    3    0.293833    0.831503    0.160636    11.00000    0.02975
N8    3    0.909337    0.495185    0.249230    11.00000    0.05176
N2    3    0.357177    1.012550    0.263429    11.00000    0.02545
C2    1    0.358138    0.348090    0.270024    11.00000    0.01250
N7    3    0.869493    0.307772    0.225694    11.00000    0.04195
HKLF 4

REM  100K-ga2pti6iodine_0m_a.res in P-1
REM R1 =  0.0817 for    5690 Fo > 4sig(Fo)  and  0.1456 for all    9762 data
REM    230 parameters refined using      0 restraints

END

WGHT      0.1058      0.0000

REM Highest difference peak  9.636,  deepest hole -3.913,  1-sigma level  0.892
Q1    1   1.0014  0.9031 -0.0006  11.00000  0.05    9.64
Q2    1   0.5000  0.0000  0.0000  10.50000  0.05    8.01
Q3    1   0.5008  0.2789  1.0016  11.00000  0.05    7.79
Q4    1   0.4989  0.1901 -0.0002  11.00000  0.05    7.78
Q5    1   0.4983  0.6126  1.0001  11.00000  0.05    7.73
Q6    1   1.0014  0.5683  0.9981  11.00000  0.05    7.69
Q7    1   0.9999  0.6676 -0.0015  11.00000  0.05    7.58
Q8    1   0.2771  0.6632  0.5200  11.00000  0.05    5.95
Q9    1   0.2737  0.8849  0.5221  11.00000  0.05    5.82
Q10   1   0.2742  1.1099  0.5138  11.00000  0.05    5.74
Q11   1   0.2756  0.4449  0.5217  11.00000  0.05    5.58
Q12   1   0.2768  0.2031  0.5191  11.00000  0.05    5.36
Q13   1   0.2736  0.2622  0.5176  11.00000  0.05    5.10
Q14   1   0.2728  0.3165  0.5205  11.00000  0.05    5.04
Q15   1   0.2071  0.7509  0.3157  11.00000  0.05    4.38
Q16   1   0.0685  0.8564  0.5269  11.00000  0.05    4.29
Q17   1   1.0772  0.9912  0.2070  11.00000  0.05    4.29
Q18   1   0.2966  0.1681  0.6688  11.00000  0.05    4.28
Q19   1   0.2674  0.3961  0.5023  11.00000  0.05    4.05
Q20   1   0.2759  1.0480  0.5157  11.00000  0.05    4.04
;
_shelx_res_checksum              62409
loop_
_space_group_symop_operation_xyz
'x, y, z'
'-x, -y, -z'
loop_
_atom_site_label
_atom_site_type_symbol
_atom_site_fract_x
_atom_site_fract_y
_atom_site_fract_z
_atom_site_U_iso_or_equiv
_atom_site_adp_type
_atom_site_occupancy
_atom_site_site_symmetry_order
_atom_site_calc_flag
_atom_site_refinement_flags_posn
_atom_site_refinement_flags_occupancy
Pt01 Pt 0.5000 0.5000 1.0000 0.0103(3) Uani 1 2 d S P
Pt02 Pt 1.0000 1.0000 0.0000 0.0100(3) Uani 1 2 d S P
Pt03 Pt 0.27309(8) 0.75877(9) 0.51575(8) 0.0111(2) Uani 1 1 d . .
I004 I 0.20251(14) 0.65022(15) 0.31406(13) 0.0145(4) Uani 1 1 d . .
I005 I 0.61262(14) 0.43965(15) 0.85935(13) 0.0149(4) Uani 1 1 d . .
I006 I 0.51547(15) 0.10823(16) 0.00817(14) 0.0173(4) Uani 1 1 d . .
I007 I 1.07253(14) 1.08113(16) 0.20400(13) 0.0152(4) Uani 1 1 d . .
I008 I 0.29332(14) 0.29443(15) 0.66659(14) 0.0154(4) Uani 1 1 d . .
I009 I 0.47734(14) 0.75461(16) 0.50149(14) 0.0175(4) Uani 1 1 d . .
I00A I 0.27625(15) 0.95094(16) 0.48668(15) 0.0184(4) Uani 1 1 d . .
I00B I 0.27313(14) 0.56612(16) 0.54445(15) 0.0178(4) Uani 1 1 d . .
I00C I 0.06620(14) 0.75779(16) 0.52680(14) 0.0154(4) Uani 1 1 d . .
I00D I 0.60839(15) 0.38718(16) 1.10168(14) 0.0177(4) Uani 1 1 d . .
I00E I 0.98325(16) 0.79166(16) -0.00551(14) 0.0189(4) Uani 1 1 d . .
I00F I 0.35066(14) 0.32027(15) 0.89475(13) 0.0160(4) Uani 1 1 d . .
I00G I 0.34284(14) 0.86932(16) 0.71710(14) 0.0192(4) Uani 1 1 d . .
I00H I 0.79516(14) 1.00637(17) 0.01393(14) 0.0191(4) Uani 1 1 d . .
I00I I 0.22410(14) 0.23839(16) 0.45599(14) 0.0161(4) Uani 1 1 d . .
I00J I 0.88809(16) 0.48866(17) 0.97161(15) 0.0212(4) Uani 1 1 d . .
N10 N 0.158(2) 0.086(2) 0.768(2) 0.027(6) Uiso 1 1 d . .
N11 N 0.0667(18) 0.0752(19) 0.6051(18) 0.015(5) Uiso 1 1 d . .
N6 N 0.252(2) 0.356(2) 0.240(2) 0.023(6) Uiso 1 1 d . .
N12 N 0.010(2) 0.186(2) 0.748(2) 0.030(6) Uiso 1 1 d . .
N1 N 0.4576(19) 0.876(2) 0.2834(19) 0.019(5) Uiso 1 1 d . .
N5 N 0.4307(19) 0.428(2) 0.3401(19) 0.019(5) Uiso 1 1 d . .
C4 C 0.077(2) 0.115(2) 0.705(2) 0.014(6) Uiso 1 1 d . .
C1 C 0.370(2) 0.910(2) 0.238(2) 0.017(6) Uiso 1 1 d . .
C3 C 0.934(2) 0.406(2) 0.273(2) 0.011(5) Uiso 1 1 d . .
N9 N 1.026(2) 0.418(2) 0.343(2) 0.037(7) Uiso 1 1 d . .
N4 N 0.386(2) 0.249(2) 0.216(2) 0.029(6) Uiso 1 1 d . .
N3 N 0.294(2) 0.832(2) 0.161(2) 0.030(6) Uiso 1 1 d . .
N8 N 0.909(3) 0.495(3) 0.249(3) 0.052(9) Uiso 1 1 d . .
N2 N 0.357(2) 1.013(2) 0.263(2) 0.025(6) Uiso 1 1 d . .
C2 C 0.358(2) 0.348(2) 0.270(2) 0.013(5) Uiso 1 1 d . .
N7 N 0.869(3) 0.308(3) 0.226(3) 0.042(8) Uiso 1 1 d . .
loop_
_atom_site_aniso_label
_atom_site_aniso_U_11
_atom_site_aniso_U_22
_atom_site_aniso_U_33
_atom_site_aniso_U_23
_atom_site_aniso_U_13
_atom_site_aniso_U_12
Pt01 0.0099(7) 0.0124(8) 0.0070(7) 0.0036(6) -0.0002(5) -0.0007(5)
Pt02 0.0101(7) 0.0134(8) 0.0054(7) 0.0029(6) 0.0014(5) 0.0009(5)
Pt03 0.0094(5) 0.0132(6) 0.0106(5) 0.0046(4) 0.0027(4) 0.0009(4)
I004 0.0162(9) 0.0161(10) 0.0106(9) 0.0039(7) 0.0040(7) 0.0031(7)
I005 0.0152(8) 0.0185(11) 0.0111(9) 0.0051(8) 0.0043(7) 0.0019(7)
I006 0.0181(9) 0.0242(11) 0.0143(9) 0.0101(8) 0.0078(7) 0.0068(7)
I007 0.0153(8) 0.0191(11) 0.0084(8) 0.0034(7) 0.0013(7) -0.0008(7)
I008 0.0139(8) 0.0149(10) 0.0129(9) 0.0016(7) 0.0014(7) -0.0008(7)
I009 0.0122(8) 0.0224(11) 0.0183(10) 0.0071(8) 0.0055(7) 0.0027(7)
I00A 0.0201(9) 0.0155(11) 0.0246(11) 0.0097(8) 0.0117(8) 0.0036(7)
I00B 0.0158(9) 0.0176(11) 0.0223(10) 0.0113(8) 0.0032(7) 0.0035(7)
I00C 0.0111(8) 0.0223(11) 0.0160(9) 0.0100(8) 0.0049(7) 0.0034(7)
I00D 0.0178(9) 0.0160(11) 0.0172(10) 0.0089(8) -0.0033(7) 0.0002(7)
I00E 0.0313(11) 0.0143(11) 0.0101(9) 0.0049(8) 0.0037(8) 0.0020(8)
I00F 0.0177(9) 0.0158(10) 0.0103(9) 0.0042(7) -0.0013(7) -0.0039(7)
I00G 0.0154(9) 0.0269(12) 0.0091(9) 0.0013(8) 0.0011(7) -0.0010(8)
I00H 0.0105(8) 0.0352(13) 0.0119(9) 0.0094(8) 0.0027(7) 0.0033(7)
I00I 0.0146(8) 0.0202(11) 0.0116(9) 0.0047(8) 0.0022(7) 0.0027(7)
I00J 0.0236(10) 0.0206(11) 0.0167(10) 0.0061(8) 0.0016(8) 0.0024(8)
loop_
_atom_type_symbol
_atom_type_description
_atom_type_scat_dispersion_real
_atom_type_scat_dispersion_imag
_atom_type_scat_source
C C 0.0033 0.0016 'International Tables Vol C Tables 4.2.6.8 and 6.1.1.4'
H H 0.0000 0.0000 'International Tables Vol C Tables 4.2.6.8 and 6.1.1.4'
N N 0.0061 0.0033 'International Tables Vol C Tables 4.2.6.8 and 6.1.1.4'
I I -0.4742 1.8119 'International Tables Vol C Tables 4.2.6.8 and 6.1.1.4'
Pt Pt -1.7033 8.3905 'International Tables Vol C Tables 4.2.6.8 and 6.1.1.4'
loop_
_geom_angle_atom_site_label_1
_geom_angle_atom_site_label_2
_geom_angle_atom_site_label_3
_geom_angle
_geom_angle_site_symmetry_1
_geom_angle_site_symmetry_3
I00F Pt01 I00F 180.0 2_667 .
I00F Pt01 I00D 89.34(8) 2_667 2_667
I00F Pt01 I00D 90.66(8) . 2_667
I00F Pt01 I00D 90.66(8) 2_667 .
I00F Pt01 I00D 89.34(8) . .
I00D Pt01 I00D 180.0 2_667 .
I00F Pt01 I005 88.95(7) 2_667 .
I00F Pt01 I005 91.05(7) . .
I00D Pt01 I005 88.83(7) 2_667 .
I00D Pt01 I005 91.17(7) . .
I00F Pt01 I005 91.05(7) 2_667 2_667
I00F Pt01 I005 88.95(7) . 2_667
I00D Pt01 I005 91.17(7) 2_667 2_667
I00D Pt01 I005 88.83(7) . 2_667
I005 Pt01 I005 180.0 . 2_667
I00H Pt02 I00H 180.0 2_775 .
I00H Pt02 I00E 90.00(6) 2_775 2_775
I00H Pt02 I00E 90.00(6) . 2_775
I00H Pt02 I00E 90.00(6) 2_775 .
I00H Pt02 I00E 90.00(6) . .
I00E Pt02 I00E 180.0 2_775 .
I00H Pt02 I007 90.39(6) 2_775 2_775
I00H Pt02 I007 89.61(6) . 2_775
I00E Pt02 I007 90.86(6) 2_775 2_775
I00E Pt02 I007 89.14(6) . 2_775
I00H Pt02 I007 89.61(6) 2_775 .
I00H Pt02 I007 90.39(6) . .
I00E Pt02 I007 89.14(6) 2_775 .
I00E Pt02 I007 90.86(6) . .
I007 Pt02 I007 180.0 2_775 .
I009 Pt03 I00G 90.72(7) . .
I009 Pt03 I004 89.50(7) . .
I00G Pt03 I004 179.36(8) . .
I009 Pt03 I00A 89.71(7) . .
I00G Pt03 I00A 90.40(8) . .
I004 Pt03 I00A 89.00(8) . .
I009 Pt03 I00C 178.59(8) . .
I00G Pt03 I00C 90.34(7) . .
I004 Pt03 I00C 89.45(7) . .
I00A Pt03 I00C 91.21(7) . .
I009 Pt03 I00B 89.38(7) . .
I00G Pt03 I00B 89.66(8) . .
I004 Pt03 I00B 90.95(8) . .
I00A Pt03 I00B 179.09(7) . .
I00C Pt03 I00B 89.71(6) . .
I00I I008 I00F 170.96(9) . .
Pt01 I00F I008 107.90(7) . .
N11 C4 N10 119(2) . .
N11 C4 N12 121(3) . .
N10 C4 N12 120(3) . .
N2 C1 N3 120(3) . .
N2 C1 N1 123(3) . .
N3 C1 N1 117(3) . .
N7 C3 N9 121(3) . .
N7 C3 N8 121(3) . .
N9 C3 N8 118(3) . .
N5 C2 N6 124(3) . .
N5 C2 N4 121(3) . .
N6 C2 N4 114(2) . .
loop_
_geom_bond_atom_site_label_1
_geom_bond_atom_site_label_2
_geom_bond_distance
_geom_bond_site_symmetry_2
Pt01 I00F 2.655(2) 2_667
Pt01 I00F 2.655(2) .
Pt01 I00D 2.673(2) 2_667
Pt01 I00D 2.673(2) .
Pt01 I005 2.679(2) .
Pt01 I005 2.679(2) 2_667
Pt02 I00H 2.672(2) 2_775
Pt02 I00H 2.672(2) .
Pt02 I00E 2.677(3) 2_775
Pt02 I00E 2.677(3) .
Pt02 I007 2.685(3) 2_775
Pt02 I007 2.685(3) .
Pt03 I009 2.664(3) .
Pt03 I00G 2.671(3) .
Pt03 I004 2.673(3) .
Pt03 I00A 2.678(3) .
Pt03 I00C 2.681(3) .
Pt03 I00B 2.683(3) .
I006 I006 2.737(4) 2_655
I008 I00I 2.796(3) .
I008 I00F 3.120(3) .
I00J I00J 2.759(4) 2_767
N10 C4 1.38(4) .
N11 C4 1.33(3) .
N6 C2 1.36(4) .
N12 C4 1.39(4) .
N1 C1 1.36(4) .
N5 C2 1.30(3) .
C1 N2 1.28(4) .
C1 N3 1.35(4) .
C3 N7 1.33(4) .
C3 N9 1.34(4) .
C3 N8 1.36(4) .
N4 C2 1.37(4) .
