#------------------------------------------------------------------------------
#$Date: 2019-01-11 01:25:07 +0200 (Fri, 11 Jan 2019) $
#$Revision: 212905 $
#$URL: file:///home/coder/svn-repositories/cod/cif/7/12/27/7122791.cif $
#------------------------------------------------------------------------------
#
# This file is available in the Crystallography Open Database (COD),
# http://www.crystallography.net/
#
# All data on this site have been placed in the public domain by the
# contributors.
#
data_7122791
loop_
_publ_author_name
'Evans, Hayden A.'
'Andrews, Jessica L.'
'Fabini, Douglas H.'
'Preefer, Molleigh B.'
'Wu, Guang'
'Cheetham, Anthony K.'
'Wudl, Fred'
'Seshadri, Ram'
_publ_section_title
;
 The capricious nature of iodine catenation in I<sub>2</sub> excess,
 perovskite-derived hybrid Pt(iv) compounds.
;
_journal_issue                   5
_journal_name_full
'Chemical communications (Cambridge, England)'
_journal_page_first              588
_journal_paper_doi               10.1039/c8cc07536k
_journal_volume                  55
_journal_year                    2018
_chemical_formula_sum            'C6 H24 I9 N3 Pt'
_chemical_formula_weight         1475.47
_space_group_crystal_system      monoclinic
_space_group_IT_number           12
_space_group_name_Hall           '-C 2y'
_space_group_name_H-M_alt        'C 1 2/m 1'
_symmetry_space_group_name_Hall  '-C 2y'
_symmetry_space_group_name_H-M   'C 1 2/m 1'
_atom_sites_solution_hydrogens   geom
_audit_creation_method           SHELXL-2014/7
_audit_update_record
;
2018-08-30 deposited with the CCDC.
2018-11-19 downloaded from the CCDC.
;
_cell_angle_alpha                90
_cell_angle_beta                 101.466(13)
_cell_angle_gamma                90
_cell_formula_units_Z            2
_cell_length_a                   16.768(9)
_cell_length_b                   7.666(4)
_cell_length_c                   10.656(6)
_cell_measurement_reflns_used    793
_cell_measurement_temperature    100(2)
_cell_measurement_theta_max      29.8
_cell_measurement_theta_min      2.9
_cell_volume                     1342.4(13)
_computing_structure_refinement  'SHELXL-2014/7 (Sheldrick, 2014)'
_diffrn_ambient_temperature      100(2)
_diffrn_measured_fraction_theta_full 0.981
_diffrn_measured_fraction_theta_max 0.945
_diffrn_measurement_device_type  'Bruker APEXII'
_diffrn_measurement_method       'omega scan'
_diffrn_radiation_type           MoK\a
_diffrn_radiation_wavelength     0.71073
_diffrn_reflns_av_R_equivalents  0.0546
_diffrn_reflns_av_unetI/netI     0.0884
_diffrn_reflns_Laue_measured_fraction_full 0.981
_diffrn_reflns_Laue_measured_fraction_max 0.945
_diffrn_reflns_limit_h_max       23
_diffrn_reflns_limit_h_min       -19
_diffrn_reflns_limit_k_max       10
_diffrn_reflns_limit_k_min       -10
_diffrn_reflns_limit_l_max       15
_diffrn_reflns_limit_l_min       -12
_diffrn_reflns_number            3470
_diffrn_reflns_point_group_measured_fraction_full 0.981
_diffrn_reflns_point_group_measured_fraction_max 0.945
_diffrn_reflns_theta_full        25.242
_diffrn_reflns_theta_max         30.743
_diffrn_reflns_theta_min         1.950
_exptl_absorpt_coefficient_mu    15.570
_exptl_absorpt_correction_T_max  0.7461
_exptl_absorpt_correction_T_min  0.5218
_exptl_absorpt_correction_type   multi-scan
_exptl_absorpt_process_details   SADABS
_exptl_crystal_colour            black
_exptl_crystal_density_diffrn    3.650
_exptl_crystal_description       block
_exptl_crystal_F_000             1272
_exptl_crystal_size_max          0.1
_exptl_crystal_size_mid          0.1
_exptl_crystal_size_min          0.05
_refine_diff_density_max         3.384
_refine_diff_density_min         -5.871
_refine_diff_density_rms         0.542
_refine_ls_extinction_method     none
_refine_ls_goodness_of_fit_ref   1.062
_refine_ls_hydrogen_treatment    constr
_refine_ls_matrix_type           full
_refine_ls_number_parameters     57
_refine_ls_number_reflns         2107
_refine_ls_number_restraints     2
_refine_ls_restrained_S_all      1.062
_refine_ls_R_factor_all          0.0980
_refine_ls_R_factor_gt           0.0634
_refine_ls_shift/su_max          0.000
_refine_ls_shift/su_mean         0.000
_refine_ls_structure_factor_coef Fsqd
_refine_ls_weighting_details
'w=1/[\s^2^(Fo^2^)+(0.0551P)^2^+62.8721P] where P=(Fo^2^+2Fc^2^)/3'
_refine_ls_weighting_scheme      calc
_refine_ls_wR_factor_gt          0.1348
_refine_ls_wR_factor_ref         0.1477
_reflns_Friedel_coverage         0.000
_reflns_number_gt                1459
_reflns_number_total             2107
_reflns_threshold_expression     'I > 2\s(I)'
_cod_data_source_file            c8cc07536k2.cif
_cod_data_source_block           DMA2PtI6_0m_a
_cod_original_cell_volume        1342.5(13)
_cod_database_code               7122791
_shelx_shelxl_version_number     2014/7
_shelx_space_group_comment
;
The symmetry employed for this shelxl refinement is uniquely defined
by the following loop, which should always be used as a source of
symmetry information in preference to the above space-group names.
They are only intended as comments.
;
_shelx_res_file
;

    DMA2PtI6_0m_a.res created by SHELXL-2014/7

TITL DMA2PtI6_0m_a.res in C2/m
CELL  0.71073  16.7678   7.6661  10.6565   90.000  101.466   90.000
ZERR    2.000   0.0093   0.0043   0.0062    0.000    0.013    0.000
LATT 7
SYMM -X, Y, -Z
SFAC C  H  N  I  Pt
UNIT 12  48  6  18  2
L.S. 20
ACTA
BOND $H
FMAP 2
PLAN 40
sadi 0.01 N4 C1 N4 C1_$1
sadi N4 C1 C4 N006
eqiv  $1   -x+1, -y, -z
TEMP -173.090
WGHT    0.055100   62.872059
FVAR       0.12842
PT01  5    1.000000    0.500000    0.500000    10.25000    0.01808    0.01614 =
         0.00877    0.00000    0.00308    0.00000
I002  4    0.500000    0.500000    0.000000    10.25000    0.02046    0.02588 =
         0.01068    0.00000    0.00423    0.00000
I003  4    0.948363    0.257538    0.641977    11.00000    0.03175    0.01974 =
         0.01487    0.00358    0.00422   -0.00434
I004  4    0.856802    0.500000    0.340424    10.50000    0.01961    0.02595 =
         0.01399    0.00000    0.00089    0.00000
I005  4    0.670157    0.500000    0.125637    10.50000    0.01956    0.05604 =
         0.01615    0.00000    0.00044    0.00000
N006  3    0.849984    1.000000    0.362712    10.50000    0.03217    0.02115 =
         0.01842    0.00000    0.01712    0.00000
AFIX  23
H00A  2    0.880177    1.095916    0.391216    10.50000   -1.20000
H00B  2    0.880177    0.904084    0.391216    10.50000   -1.20000
AFIX   0
C4    1    0.832325    1.000000    0.221597    10.50000    0.03833    0.05243 =
         0.00825    0.00000    0.00816    0.00000
C008  1    0.775186    1.000000    0.417468    10.50000    0.03621    0.04768 =
         0.04497    0.00000    0.03211    0.00000
C1    1    0.420969    0.000000   -0.010843    10.50000    0.12253    0.03698 =
         0.06872    0.00000    0.04868    0.00000
N4    3    0.504525    0.000000    0.063305    10.25000    0.06072
HKLF 4

REM  DMA2PtI6_0m_a.res in C2/m
REM R1 =  0.0634 for    1459 Fo > 4sig(Fo)  and  0.0980 for all    2107 data
REM     57 parameters refined using      2 restraints

END

WGHT      0.0701     32.8732

REM Highest difference peak  3.384,  deepest hole -5.871,  1-sigma level  0.542
Q1    1   0.4685  0.0000  0.0484  10.50000  0.05    3.38
Q2    1   0.9791  0.5428  0.4114  11.00000  0.05    3.29
Q3    1   0.9481  0.6234  0.4619  11.00000  0.05    3.10
Q4    1   0.9092  0.6258  0.3811  11.00000  0.05    2.61
Q5    1   0.9199  0.5000  0.4840  10.50000  0.05    2.27
Q6    1   0.8038  0.6189  0.3065  11.00000  0.05    2.15
Q7    1   0.9744  0.2458  0.7175  11.00000  0.05    2.14
Q8    1   0.6118  0.6213  0.1016  11.00000  0.05    2.09
Q9    1   0.9389  0.5000  0.3715  10.50000  0.05    2.07
Q10   1   0.9192  0.2507  0.5815  11.00000  0.05    2.03
Q11   1   0.5580  0.6130  0.0269  11.00000  0.05    2.01
Q12   1   0.9735  1.0000  0.5225  10.50000  0.05    1.99
Q13   1   0.6916  0.5000  0.1873  10.50000  0.05    1.88
Q14   1   0.9993  0.1331  0.6838  11.00000  0.05    1.84
Q15   1   1.0000  0.5681  0.5000  10.50000  0.05    1.80
Q16   1   0.7380  0.5000  0.2403  10.50000  0.05    1.80
Q17   1   0.8824  0.5458  0.4379  11.00000  0.05    1.73
Q18   1   0.9195  0.2212  0.6818  11.00000  0.05    1.71
Q19   1   0.7096  1.0000  0.1235  10.50000  0.05    1.70
Q20   1   0.7220  1.0000  0.1518  10.50000  0.05    1.70
Q21   1   0.8410  1.0000  0.0780  10.50000  0.05    1.69
Q22   1   0.9829  0.5000  0.3535  10.50000  0.05    1.69
Q23   1   0.8630  0.2508  0.6295  11.00000  0.05    1.67
Q24   1   0.8299  0.5328  0.2629  11.00000  0.05    1.67
Q25   1   0.9273  0.3017  0.5376  11.00000  0.05    1.61
Q26   1   0.6321  0.5000  0.1910  10.50000  0.05    1.59
Q27   1   0.5593  0.5942  0.1603  11.00000  0.05    1.57
Q28   1   0.5802  0.5000  0.2328  10.50000  0.05    1.55
Q29   1   0.6500  0.5000  0.0412  10.50000  0.05    1.54
Q30   1   0.9479  0.5699  0.5613  11.00000  0.05    1.54
Q31   1   0.3556  0.0000 -0.1618  10.50000  0.05    1.52
Q32   1   0.8397  0.3812  0.6214  11.00000  0.05    1.51
Q33   1   0.8926  0.1488  0.6054  11.00000  0.05    1.50
Q34   1   0.9898  0.3948  0.6793  11.00000  0.05    1.49
Q35   1   0.9106  0.5000  0.5980  10.50000  0.05    1.48
Q36   1   0.6526  0.5761  0.1997  11.00000  0.05    1.48
Q37   1   0.6891  0.5761  0.1007  11.00000  0.05    1.45
Q38   1   0.7692  1.0000  0.5179  10.50000  0.05    1.45
Q39   1   0.8017  0.8994  0.5252  11.00000  0.05    1.45
Q40   1   0.6461  0.5000  0.1164  10.50000  0.05    1.43
;
_shelx_res_checksum              76294
loop_
_space_group_symop_operation_xyz
'x, y, z'
'-x, y, -z'
'x+1/2, y+1/2, z'
'-x+1/2, y+1/2, -z'
'-x, -y, -z'
'x, -y, z'
'-x+1/2, -y+1/2, -z'
'x+1/2, -y+1/2, z'
loop_
_atom_site_label
_atom_site_type_symbol
_atom_site_fract_x
_atom_site_fract_y
_atom_site_fract_z
_atom_site_U_iso_or_equiv
_atom_site_adp_type
_atom_site_occupancy
_atom_site_site_symmetry_order
_atom_site_calc_flag
_atom_site_refinement_flags_posn
_atom_site_refinement_flags_adp
_atom_site_refinement_flags_occupancy
Pt01 Pt 1.0000 0.5000 0.5000 0.0143(2) Uani 1 4 d S T P
I002 I 0.5000 0.5000 0.0000 0.0189(4) Uani 1 4 d S T P
I003 I 0.94836(6) 0.25754(13) 0.64198(8) 0.0222(2) Uani 1 1 d . . .
I004 I 0.85680(8) 0.5000 0.34042(12) 0.0202(3) Uani 1 2 d S T P
I005 I 0.67016(9) 0.5000 0.12564(13) 0.0310(4) Uani 1 2 d S T P
N006 N 0.8500(11) 1.0000 0.3627(15) 0.022(4) Uani 1 2 d DS T P
H00A H 0.8802 1.0959 0.3912 0.027 Uiso 0.5 1 calc R U P
H00B H 0.8802 0.9041 0.3912 0.027 Uiso 0.5 1 calc R U P
C4 C 0.8323(15) 1.0000 0.2216(18) 0.033(6) Uani 1 2 d DS T P
C008 C 0.7752(16) 1.0000 0.417(3) 0.040(7) Uani 1 2 d S T P
C1 C 0.421(2) 0.0000 -0.011(4) 0.072(12) Uani 1 2 d DS T P
N4 N 0.5045(12) 0.0000 0.063(5) 0.061(15) Uiso 0.5 2 d DS . P
loop_
_atom_site_aniso_label
_atom_site_aniso_U_11
_atom_site_aniso_U_22
_atom_site_aniso_U_33
_atom_site_aniso_U_23
_atom_site_aniso_U_13
_atom_site_aniso_U_12
Pt01 0.0181(5) 0.0161(6) 0.0088(4) 0.000 0.0031(4) 0.000
I002 0.0205(9) 0.0259(10) 0.0107(7) 0.000 0.0042(6) 0.000
I003 0.0317(5) 0.0197(5) 0.0149(4) 0.0036(3) 0.0042(3) -0.0043(4)
I004 0.0196(6) 0.0259(8) 0.0140(5) 0.000 0.0009(5) 0.000
I005 0.0196(7) 0.0560(11) 0.0161(6) 0.000 0.0004(5) 0.000
N006 0.032(10) 0.021(10) 0.018(8) 0.000 0.017(7) 0.000
C4 0.038(13) 0.052(17) 0.008(8) 0.000 0.008(8) 0.000
C008 0.036(14) 0.048(17) 0.045(15) 0.000 0.032(12) 0.000
C1 0.12(4) 0.037(19) 0.07(2) 0.000 0.05(2) 0.000
loop_
_atom_type_symbol
_atom_type_description
_atom_type_scat_dispersion_real
_atom_type_scat_dispersion_imag
_atom_type_scat_source
C C 0.0033 0.0016 'International Tables Vol C Tables 4.2.6.8 and 6.1.1.4'
H H 0.0000 0.0000 'International Tables Vol C Tables 4.2.6.8 and 6.1.1.4'
N N 0.0061 0.0033 'International Tables Vol C Tables 4.2.6.8 and 6.1.1.4'
I I -0.4742 1.8119 'International Tables Vol C Tables 4.2.6.8 and 6.1.1.4'
Pt Pt -1.7033 8.3905 'International Tables Vol C Tables 4.2.6.8 and 6.1.1.4'
loop_
_geom_angle_atom_site_label_1
_geom_angle_atom_site_label_2
_geom_angle_atom_site_label_3
_geom_angle
_geom_angle_site_symmetry_1
_geom_angle_site_symmetry_3
I003 Pt01 I003 89.14(6) . 6_565
I003 Pt01 I003 90.86(6) . 2_756
I003 Pt01 I003 180.0 6_565 2_756
I003 Pt01 I003 180.00(3) . 5_766
I003 Pt01 I003 90.86(6) 6_565 5_766
I003 Pt01 I003 89.14(6) 2_756 5_766
I003 Pt01 I004 89.47(4) . 5_766
I003 Pt01 I004 89.47(4) 6_565 5_766
I003 Pt01 I004 90.53(4) 2_756 5_766
I003 Pt01 I004 90.53(4) 5_766 5_766
I003 Pt01 I004 90.53(4) . .
I003 Pt01 I004 90.53(4) 6_565 .
I003 Pt01 I004 89.47(4) 2_756 .
I003 Pt01 I004 89.47(4) 5_766 .
I004 Pt01 I004 180.0 5_766 .
I005 I002 I005 180.0 5_665 .
C4 N006 C008 112.8(19) . .
C4 N006 H00A 109.0 . .
C008 N006 H00A 109.0 . .
C4 N006 H00B 109.0 . .
C008 N006 H00B 109.0 . .
H00A N006 H00B 107.8 . .
N4 C1 N4 54(4) . 5_655
N4 N4 C1 63(2) 5_655 .
N4 N4 C1 63(2) 5_655 5_655
C1 N4 C1 126(4) . 5_655
loop_
_geom_bond_atom_site_label_1
_geom_bond_atom_site_label_2
_geom_bond_distance
_geom_bond_site_symmetry_2
Pt01 I003 2.6485(13) .
Pt01 I003 2.6485(13) 6_565
Pt01 I003 2.6485(13) 2_756
Pt01 I003 2.6485(13) 5_766
Pt01 I004 2.6521(18) 5_766
Pt01 I004 2.6521(17) .
I002 I005 2.901(2) 5_665
I002 I005 2.901(2) .
N006 C4 1.47(2) .
N006 C008 1.48(3) .
N006 H00A 0.9100 .
N006 H00B 0.9100 .
C1 N4 1.47(3) .
C1 N4 1.47(3) 5_655
N4 N4 1.33(10) 5_655
N4 C1 1.47(3) 5_655
