#------------------------------------------------------------------------------
#$Date: 2019-02-05 01:09:06 +0200 (Tue, 05 Feb 2019) $
#$Revision: 213480 $
#$URL: file:///home/coder/svn-repositories/cod/cif/7/12/29/7122924.cif $
#------------------------------------------------------------------------------
#
# This file is available in the Crystallography Open Database (COD),
# http://www.crystallography.net/
#
# All data on this site have been placed in the public domain by the
# contributors.
#
data_7122924
loop_
_publ_author_name
'Lestari, Monica'
'Lusi, Matteo'
_publ_section_title
;
 A mixed molecular salt of lithium and sodium breaks the Hume-Rothery
 rules for solid solutions
;
_journal_name_full               'Chemical Communications'
_journal_paper_doi               10.1039/C8CC09850F
_journal_year                    2019
_chemical_formula_sum            'C5 H5 N2 Na O5'
_chemical_formula_weight         196.10
_space_group_crystal_system      monoclinic
_space_group_IT_number           14
_space_group_name_Hall           '-P 2yn'
_space_group_name_H-M_alt        'P 1 21/n 1'
_symmetry_space_group_name_Hall  '-P 2yn'
_symmetry_space_group_name_H-M   'P 1 21/n 1'
_atom_sites_solution_hydrogens   mixed
_audit_creation_method           SHELXL-2014/7
_audit_update_record
;
2019-01-18 deposited with the CCDC.
2019-01-24 downloaded from the CCDC.
;
_cell_angle_alpha                90
_cell_angle_beta                 92.132(3)
_cell_angle_gamma                90
_cell_formula_units_Z            4
_cell_length_a                   3.5627(2)
_cell_length_b                   18.0624(7)
_cell_length_c                   10.6069(4)
_cell_measurement_reflns_used    532
_cell_measurement_temperature    297(2)
_cell_measurement_theta_max      30
_cell_measurement_theta_min      2
_cell_volume                     682.09(5)
_computing_structure_refinement  'SHELXL-2014/7 (Sheldrick, 2014)'
_diffrn_ambient_temperature      297(2)
_diffrn_measured_fraction_theta_full 0.997
_diffrn_measured_fraction_theta_max 0.989
_diffrn_measurement_device_type  'Bruker D8 Quest'
_diffrn_radiation_type           CuK\a
_diffrn_radiation_wavelength     1.54178
_diffrn_reflns_av_R_equivalents  0.1147
_diffrn_reflns_av_unetI/netI     0.0575
_diffrn_reflns_Laue_measured_fraction_full 0.997
_diffrn_reflns_Laue_measured_fraction_max 0.989
_diffrn_reflns_limit_h_max       4
_diffrn_reflns_limit_h_min       -4
_diffrn_reflns_limit_k_max       22
_diffrn_reflns_limit_k_min       -22
_diffrn_reflns_limit_l_max       13
_diffrn_reflns_limit_l_min       -12
_diffrn_reflns_number            9539
_diffrn_reflns_point_group_measured_fraction_full 0.997
_diffrn_reflns_point_group_measured_fraction_max 0.989
_diffrn_reflns_theta_full        67.679
_diffrn_reflns_theta_max         72.490
_diffrn_reflns_theta_min         4.837
_exptl_absorpt_coefficient_mu    2.028
_exptl_absorpt_correction_T_max  0.7536
_exptl_absorpt_correction_T_min  0.6023
_exptl_absorpt_correction_type   multi-scan
_exptl_absorpt_process_details   sadabs
_exptl_crystal_colour            colourless
_exptl_crystal_density_diffrn    1.910
_exptl_crystal_description       needle
_exptl_crystal_F_000             400
_exptl_crystal_size_max          0.3
_exptl_crystal_size_mid          0.1
_exptl_crystal_size_min          0.1
_refine_diff_density_max         0.313
_refine_diff_density_min         -0.359
_refine_diff_density_rms         0.084
_refine_ls_extinction_coef       0.0063(17)
_refine_ls_extinction_expression Fc^*^=kFc[1+0.001xFc^2^\l^3^/sin(2\q)]^-1/4^
_refine_ls_extinction_method     'SHELXL-2014/7 (Sheldrick 2014'
_refine_ls_goodness_of_fit_ref   1.018
_refine_ls_hydrogen_treatment    mixed
_refine_ls_matrix_type           full
_refine_ls_number_parameters     127
_refine_ls_number_reflns         1343
_refine_ls_number_restraints     2
_refine_ls_restrained_S_all      1.017
_refine_ls_R_factor_all          0.0921
_refine_ls_R_factor_gt           0.0579
_refine_ls_shift/su_max          0.000
_refine_ls_shift/su_mean         0.000
_refine_ls_structure_factor_coef Fsqd
_refine_ls_weighting_details
'w=1/[\s^2^(Fo^2^)+(0.0735P)^2^+1.1147P] where P=(Fo^2^+2Fc^2^)/3'
_refine_ls_weighting_scheme      calc
_refine_ls_wR_factor_gt          0.1387
_refine_ls_wR_factor_ref         0.1682
_reflns_Friedel_coverage         0.000
_reflns_number_gt                896
_reflns_number_total             1343
_reflns_threshold_expression     'I > 2\s(I)'
_cod_data_source_file            c8cc09850f2.cif
_cod_data_source_block           NaIOR
_cod_database_code               7122924
_shelx_shelxl_version_number     2014/7
_shelx_space_group_comment
;
The symmetry employed for this shelxl refinement is uniquely defined
by the following loop, which should always be used as a source of
symmetry information in preference to the above space-group names.
They are only intended as comments.
;
_shelx_res_file
;

    C:\Users\MATTEO~1.LUS\People\Monica\LISALT~1\NaIOR\nic175new_2_0m_a.res created by SHELXL-2014/7

REM  nic175new_2_0m_a.res in P2(1)/n
REM R1 =  0.0579 for     896 Fo > 4sig(Fo)  and  0.0921 for all    1343 data
REM    127 parameters refined using      2 restraints
REM Highest difference peak  0.313,  deepest hole -0.360,  1-sigma level  0.084
TITL nic175new_2_0m_a.res in P2(1)/n
CELL 1.54178 3.5627 18.0624 10.6069 90.000 92.132 90.000
ZERR 4.0000 0.0002 0.0007 0.0004 0.000 0.003 0.000
LATT 1
SYMM 0.5-X, 0.5+Y, 0.5-Z
SFAC C H NA N O
UNIT 20 20 4 8 20
MERG 2
FMAP 2
GRID
PLAN 5
TEMP 24
BOND $H
DFIX 0.93 O12 H12a O12 H12b
L.S. 20
ACTA
WGHT    0.073500    1.114700
EXTI    0.006276
FVAR       0.98367
N1    4    0.041687    0.710343    0.549753    11.00000    0.04299    0.02881 =
         0.02856    0.00429    0.00067    0.00421
AFIX  43
H1    2   -0.046663    0.752175    0.523748    11.00000   -1.20000
AFIX   0
NA1   3    0.706889    0.469145    0.868397    11.00000    0.03701    0.03736 =
         0.03759    0.00401   -0.00279    0.00283
C2    1    0.157679    0.660262    0.462925    11.00000    0.03288    0.03704 =
         0.02553    0.00088    0.00223   -0.00321
N3    4    0.295407    0.595341    0.512543    11.00000    0.04028    0.03424 =
         0.02479   -0.00165    0.00024    0.00346
AFIX  43
H3    2    0.369279    0.562873    0.459595    11.00000   -1.20000
AFIX   0
C4    1    0.328410    0.576393    0.639134    11.00000    0.02654    0.03037 =
         0.02974   -0.00132    0.00009   -0.00047
C5    1    0.198567    0.631931    0.725441    11.00000    0.03097    0.02780 =
         0.02560   -0.00045   -0.00051    0.00244
C6    1    0.060913    0.696407    0.676226    11.00000    0.03001    0.03007 =
         0.03067    0.00063   -0.00011   -0.00016
AFIX  43
H6    2   -0.023504    0.732445    0.731016    11.00000   -1.20000
AFIX   0
O7    5    0.144057    0.672240    0.349192    11.00000    0.05749    0.04671 =
         0.02757    0.00480   -0.00280   -0.00430
O8    5    0.474985    0.515778    0.666153    11.00000    0.05221    0.03243 =
         0.03257    0.00050   -0.00153    0.01073
C9    1    0.184481    0.620539    0.865235    11.00000    0.02614    0.03307 =
         0.02650    0.00060    0.00028    0.00205
O10   5    0.233846    0.556066    0.908477    11.00000    0.04644    0.02898 =
         0.03386    0.00337    0.00265    0.00291
O11   5    0.109319    0.676323    0.931143    11.00000    0.04461    0.03061 =
         0.03284   -0.00452    0.00401   -0.00022
O12   5    0.230876    0.380694    0.860692    11.00000    0.04832    0.04222 =
         0.03572   -0.00233   -0.00122   -0.00793
H12A  2    0.135135    0.357071    0.788592    11.00000    0.09034
H12B  2    0.122824    0.359534    0.930258    11.00000    0.07960
HKLF 4

REM  nic175new_2_0m_a.res in P2(1)/n
REM R1 =  0.0579 for     896 Fo > 4sig(Fo)  and  0.0921 for all    1343 data
REM    127 parameters refined using      2 restraints

END

WGHT      0.0737      1.1133

REM Highest difference peak  0.313,  deepest hole -0.359,  1-sigma level  0.084
Q1    1   0.1188  0.5217  0.6097  11.00000  0.05    0.31
Q2    1   0.2228  0.5974  0.3476  11.00000  0.05    0.30
Q3    1  -0.0805  0.6157  0.3346  11.00000  0.05    0.28
Q4    1   0.4405  0.6140  0.2800  11.00000  0.05    0.27
Q5    1   0.6624  0.4444  0.7386  11.00000  0.05    0.25
;
_shelx_res_checksum              99434
loop_
_space_group_symop_operation_xyz
'x, y, z'
'-x+1/2, y+1/2, -z+1/2'
'-x, -y, -z'
'x-1/2, -y-1/2, z-1/2'
loop_
_atom_site_label
_atom_site_type_symbol
_atom_site_fract_x
_atom_site_fract_y
_atom_site_fract_z
_atom_site_U_iso_or_equiv
_atom_site_adp_type
_atom_site_occupancy
_atom_site_site_symmetry_order
_atom_site_calc_flag
_atom_site_refinement_flags_posn
_atom_site_refinement_flags_adp
N1 N 0.0417(10) 0.71034(18) 0.5498(3) 0.0335(8) Uani 1 1 d . .
H1 H -0.0467 0.7522 0.5237 0.040 Uiso 1 1 calc R U
Na1 Na 0.7069(5) 0.46915(9) 0.86840(15) 0.0374(5) Uani 1 1 d . .
C2 C 0.1577(12) 0.6603(2) 0.4629(3) 0.0318(9) Uani 1 1 d . .
N3 N 0.2954(10) 0.59534(19) 0.5125(3) 0.0331(8) Uani 1 1 d . .
H3 H 0.3693 0.5629 0.4596 0.040 Uiso 1 1 calc R U
C4 C 0.3284(11) 0.5764(2) 0.6391(4) 0.0289(9) Uani 1 1 d . .
C5 C 0.1986(11) 0.6319(2) 0.7254(3) 0.0282(8) Uani 1 1 d . .
C6 C 0.0609(11) 0.6964(2) 0.6762(4) 0.0303(9) Uani 1 1 d . .
H6 H -0.0235 0.7324 0.7310 0.036 Uiso 1 1 calc R U
O7 O 0.1441(10) 0.67224(17) 0.3492(3) 0.0440(8) Uani 1 1 d . .
O8 O 0.4750(9) 0.51578(15) 0.6662(3) 0.0391(8) Uani 1 1 d . .
C9 C 0.1845(11) 0.6205(2) 0.8652(4) 0.0286(9) Uani 1 1 d . .
O10 O 0.2338(9) 0.55607(15) 0.9085(3) 0.0364(7) Uani 1 1 d . .
O11 O 0.1093(8) 0.67632(15) 0.9311(3) 0.0360(7) Uani 1 1 d . .
O12 O 0.2309(9) 0.38069(17) 0.8607(3) 0.0422(8) Uani 1 1 d D .
H12A H 0.135(19) 0.357(3) 0.789(4) 0.09(2) Uiso 1 1 d D .
H12B H 0.123(17) 0.360(3) 0.930(4) 0.08(2) Uiso 1 1 d D .
loop_
_atom_site_aniso_label
_atom_site_aniso_U_11
_atom_site_aniso_U_22
_atom_site_aniso_U_33
_atom_site_aniso_U_23
_atom_site_aniso_U_13
_atom_site_aniso_U_12
N1 0.043(2) 0.0288(17) 0.0286(18) 0.0043(13) 0.0007(15) 0.0042(15)
Na1 0.0370(10) 0.0374(9) 0.0376(10) 0.0040(7) -0.0028(7) 0.0028(7)
C2 0.033(2) 0.037(2) 0.026(2) 0.0009(16) 0.0022(17) -0.0032(17)
N3 0.040(2) 0.0342(18) 0.0248(17) -0.0017(13) 0.0002(15) 0.0035(15)
C4 0.0265(19) 0.030(2) 0.030(2) -0.0013(16) 0.0001(16) -0.0005(16)
C5 0.031(2) 0.0278(19) 0.0256(19) -0.0005(14) -0.0005(16) 0.0024(16)
C6 0.030(2) 0.030(2) 0.031(2) 0.0006(15) -0.0001(16) -0.0002(16)
O7 0.057(2) 0.0467(18) 0.0276(16) 0.0048(13) -0.0028(14) -0.0043(15)
O8 0.0522(19) 0.0324(15) 0.0326(15) 0.0005(12) -0.0015(13) 0.0107(14)
C9 0.026(2) 0.033(2) 0.0265(19) 0.0006(15) 0.0003(15) 0.0021(16)
O10 0.0464(18) 0.0290(15) 0.0339(15) 0.0034(11) 0.0027(13) 0.0029(13)
O11 0.0446(18) 0.0306(14) 0.0328(15) -0.0045(12) 0.0040(13) -0.0002(13)
O12 0.048(2) 0.0422(18) 0.0357(17) -0.0023(14) -0.0012(15) -0.0079(15)
loop_
_atom_type_symbol
_atom_type_description
_atom_type_scat_dispersion_real
_atom_type_scat_dispersion_imag
_atom_type_scat_source
C C 0.0181 0.0091 'International Tables Vol C Tables 4.2.6.8 and 6.1.1.4'
H H 0.0000 0.0000 'International Tables Vol C Tables 4.2.6.8 and 6.1.1.4'
Na Na 0.1353 0.1239 'International Tables Vol C Tables 4.2.6.8 and 6.1.1.4'
N N 0.0311 0.0180 'International Tables Vol C Tables 4.2.6.8 and 6.1.1.4'
O O 0.0492 0.0322 'International Tables Vol C Tables 4.2.6.8 and 6.1.1.4'
loop_
_geom_angle_atom_site_label_1
_geom_angle_atom_site_label_2
_geom_angle_atom_site_label_3
_geom_angle
_geom_angle_site_symmetry_1
_geom_angle_site_symmetry_3
C6 N1 C2 122.4(3) . .
C6 N1 H1 118.8 . .
C2 N1 H1 118.8 . .
O12 Na1 O10 86.48(12) . .
O12 Na1 O10 86.67(12) . 3_667
O10 Na1 O10 89.19(11) . 3_667
O12 Na1 O8 89.06(12) . .
O10 Na1 O8 72.84(11) . .
O10 Na1 O8 161.75(13) 3_667 .
O12 Na1 O12 96.07(12) . 1_655
O10 Na1 O12 171.23(13) . 1_655
O10 Na1 O12 82.60(11) 3_667 1_655
O8 Na1 O12 115.51(12) . 1_655
O12 Na1 O10 171.50(13) . 1_655
O10 Na1 O10 95.14(11) . 1_655
O10 Na1 O10 85.01(11) 3_667 1_655
O8 Na1 O10 99.40(11) . 1_655
O12 Na1 O10 81.13(11) 1_655 1_655
O12 Na1 Na1 85.19(10) . 3_667
O10 Na1 Na1 45.28(8) . 3_667
O10 Na1 Na1 43.91(8) 3_667 3_667
O8 Na1 Na1 118.05(11) . 3_667
O12 Na1 Na1 126.43(11) 1_655 3_667
O10 Na1 Na1 90.02(9) 1_655 3_667
O12 Na1 Na1 43.38(9) . 1_455
O10 Na1 Na1 43.71(8) . 1_455
O10 Na1 Na1 92.93(8) 3_667 1_455
O8 Na1 Na1 72.04(9) . 1_455
O12 Na1 Na1 139.45(8) 1_655 1_455
O10 Na1 Na1 138.86(8) 1_655 1_455
Na1 Na1 Na1 62.29(6) 3_667 1_455
O12 Na1 Na1 129.80(11) . 3_767
O10 Na1 Na1 92.98(10) . 3_767
O10 Na1 Na1 43.15(8) 3_667 3_767
O8 Na1 Na1 138.44(11) . 3_767
O12 Na1 Na1 78.92(9) 1_655 3_767
O10 Na1 Na1 41.85(7) 1_655 3_767
Na1 Na1 Na1 61.16(6) 3_667 3_767
Na1 Na1 Na1 123.45(5) 1_455 3_767
O7 C2 N1 123.0(4) . .
O7 C2 N3 122.0(4) . .
N1 C2 N3 114.9(3) . .
C2 N3 C4 126.9(3) . .
C2 N3 H3 116.6 . .
C4 N3 H3 116.6 . .
O8 C4 N3 117.4(3) . .
O8 C4 C5 127.4(4) . .
N3 C4 C5 115.1(3) . .
C6 C5 C4 118.1(4) . .
C6 C5 C9 118.2(3) . .
C4 C5 C9 123.7(3) . .
C5 C6 N1 122.7(4) . .
C5 C6 H6 118.7 . .
N1 C6 H6 118.7 . .
C4 O8 Na1 129.6(3) . .
O11 C9 O10 124.5(4) . .
O11 C9 C5 117.0(3) . .
O10 C9 C5 118.5(3) . .
C9 O10 Na1 129.9(3) . .
C9 O10 Na1 122.5(2) . 3_667
Na1 O10 Na1 90.81(11) . 3_667
C9 O10 Na1 115.4(3) . 1_455
Na1 O10 Na1 95.14(11) . 1_455
Na1 O10 Na1 94.99(11) 3_667 1_455
Na1 O12 Na1 96.07(12) . 1_455
Na1 O12 H12A 126(4) . .
Na1 O12 H12A 94(4) 1_455 .
Na1 O12 H12B 125(4) . .
Na1 O12 H12B 84(4) 1_455 .
H12A O12 H12B 108(6) . .
loop_
_geom_bond_atom_site_label_1
_geom_bond_atom_site_label_2
_geom_bond_distance
_geom_bond_site_symmetry_2
N1 C6 1.364(5) .
N1 C2 1.366(5) .
N1 H1 0.8600 .
Na1 O12 2.329(4) .
Na1 O10 2.354(3) .
Na1 O10 2.412(3) 3_667
Na1 O8 2.421(3) .
Na1 O12 2.461(4) 1_655
Na1 O10 2.472(3) 1_655
Na1 Na1 3.394(3) 3_667
Na1 Na1 3.5627(2) 1_455
Na1 Na1 3.601(3) 3_767
C2 O7 1.225(5) .
C2 N3 1.369(5) .
N3 C4 1.386(5) .
N3 H3 0.8600 .
C4 O8 1.242(5) .
C4 C5 1.446(5) .
C5 C6 1.360(5) .
C5 C9 1.500(5) .
C6 H6 0.9300 .
C9 O11 1.261(5) .
C9 O10 1.262(5) .
O10 Na1 2.412(3) 3_667
O10 Na1 2.472(3) 1_455
O12 Na1 2.461(4) 1_455
O12 H12A 0.93(2) .
O12 H12B 0.93(2) .
