#------------------------------------------------------------------------------
#$Date: 2019-02-22 01:06:46 +0200 (Fri, 22 Feb 2019) $
#$Revision: 213767 $
#$URL: file:///home/coder/svn-repositories/cod/cif/7/12/30/7123019.cif $
#------------------------------------------------------------------------------
#
# This file is available in the Crystallography Open Database (COD),
# http://www.crystallography.net/
#
# All data on this site have been placed in the public domain by the
# contributors.
#
data_7123019
loop_
_publ_author_name
'Crawford, Adam W.'
'Groeneman , Ryan'
'Unruh, Daniel K.'
'Hutchins, Kristin M.'
_publ_section_title
;
 Cooling-rate dependent single-crystal-to-single-crystal phase transition
 in an organic co-crystal
;
_journal_name_full               'Chemical Communications'
_journal_paper_doi               10.1039/C9CC00836E
_journal_year                    2019
_chemical_formula_sum            'C18 H12 Br4 N2'
_chemical_formula_weight         575.94
_space_group_IT_number           2
_symmetry_cell_setting           triclinic
_symmetry_Int_Tables_number      2
_symmetry_space_group_name_Hall  '-P 1'
_symmetry_space_group_name_H-M   'P -1'
_atom_sites_solution_hydrogens   geom
_atom_sites_solution_primary     dual
_atom_sites_solution_secondary   difmap
_audit_creation_date             2018-10-31T14:43:28-00:00
_audit_creation_method           'WinGX routine CIF_UPDATE'
_audit_update_record
;
2019-01-09 deposited with the CCDC.    2019-02-21 downloaded from the CCDC.
;
_cell_angle_alpha                102.786(3)
_cell_angle_beta                 93.568(3)
_cell_angle_gamma                94.296(3)
_cell_formula_units_Z            2
_cell_length_a                   4.0143(2)
_cell_length_b                   13.5219(9)
_cell_length_c                   17.3448(11)
_cell_measurement_reflns_used    4218
_cell_measurement_temperature    300(2)
_cell_measurement_theta_max      27.21
_cell_measurement_theta_min      2.43
_cell_volume                     912.56(10)
_computing_cell_refinement       'Bruker SAINT'
_computing_data_collection       'Bruker APEX2'
_computing_data_reduction        'Bruker SAINT'
_computing_structure_refinement  'SHELXL-2016/6 (Sheldrick, 2016)'
_computing_structure_solution    'SHELXT 2014/5 (Sheldrick, 2014)'
_diffrn_ambient_temperature      300(2)
_diffrn_measured_fraction_theta_full 0.999
_diffrn_measured_fraction_theta_max 0.988
_diffrn_measurement_device_type  'Bruker APEX-II CCD'
_diffrn_measurement_method       '\f and \w scans'
_diffrn_radiation_monochromator  graphite
_diffrn_radiation_source         'fine-focus sealed tube'
_diffrn_radiation_type           MoK\a
_diffrn_radiation_wavelength     0.71073
_diffrn_reflns_av_R_equivalents  0.034
_diffrn_reflns_av_unetI/netI     0.0371
_diffrn_reflns_Laue_measured_fraction_full 0.999
_diffrn_reflns_Laue_measured_fraction_max 0.988
_diffrn_reflns_limit_h_max       5
_diffrn_reflns_limit_h_min       -5
_diffrn_reflns_limit_k_max       17
_diffrn_reflns_limit_k_min       -17
_diffrn_reflns_limit_l_max       22
_diffrn_reflns_limit_l_min       -22
_diffrn_reflns_number            14436
_diffrn_reflns_point_group_measured_fraction_full 0.999
_diffrn_reflns_point_group_measured_fraction_max 0.988
_diffrn_reflns_theta_full        25.242
_diffrn_reflns_theta_max         27.703
_diffrn_reflns_theta_min         1.551
_exptl_absorpt_coefficient_mu    8.822
_exptl_absorpt_correction_T_max  0.8621
_exptl_absorpt_correction_T_min  0.5748
_exptl_absorpt_correction_type   multi-scan
_exptl_absorpt_process_details   SADABS
_exptl_crystal_colour            colourless
_exptl_crystal_density_diffrn    2.096
_exptl_crystal_description       rod
_exptl_crystal_F_000             548
_exptl_crystal_recrystallization_method 'Re-crystallisation from solvent'
_exptl_crystal_size_max          0.468
_exptl_crystal_size_mid          0.202
_exptl_crystal_size_min          0.177
_refine_diff_density_max         0.343
_refine_diff_density_min         -0.43
_refine_diff_density_rms         0.072
_refine_ls_extinction_method     none
_refine_ls_goodness_of_fit_ref   1.033
_refine_ls_hydrogen_treatment    constr
_refine_ls_matrix_type           full
_refine_ls_number_parameters     271
_refine_ls_number_reflns         4243
_refine_ls_number_restraints     244
_refine_ls_restrained_S_all      1.006
_refine_ls_R_factor_all          0.0601
_refine_ls_R_factor_gt           0.0304
_refine_ls_shift/su_max          0.001
_refine_ls_shift/su_mean         0
_refine_ls_structure_factor_coef Fsqd
_refine_ls_weighting_details
'w=1/[\s^2^(Fo^2^)+(0.0201P)^2^+0.1918P] where P=(Fo^2^+2Fc^2^)/3'
_refine_ls_weighting_scheme      calc
_refine_ls_wR_factor_gt          0.0553
_refine_ls_wR_factor_ref         0.0623
_reflns_Friedel_coverage         0
_reflns_number_gt                2837
_reflns_number_total             4243
_reflns_threshold_expression     'I > 2\s(I)'
_cod_data_source_file            c9cc00836e2.cif
_cod_data_source_block           TBrB_BPE_300K
_cod_database_code               7123019
_shelx_estimated_absorpt_t_min   0.104
_shelx_estimated_absorpt_t_max   0.304
_shelx_res_file
;
TITL r4119-290K_a.res in P-1
    r4119-290K_a.res
    created by SHELXL-2016/6 at 09:18:01 on 12-Oct-2018
REM Old TITL r4119-290K in P-1
REM SHELXT solution in P-1
REM R1 0.157,  Rweak 0.010,  Alpha 0.042,  Orientation as input
REM Formula found by SHELXT:  C20 Br4
CELL  0.71073   4.0143  13.5219  17.3448  102.786   93.568   94.296
ZERR  2.000   0.0002   0.0009   0.0011    0.003    0.003    0.003
LATT  1
SFAC  C H BR N
UNIT  36 24 8 4
TEMP  26.720
SIZE  0.177 0.202 0.468
L.S.  10
EQIV  $1  -x+2, -y, -z+1
EQIV  $2  -x+1, -y, -z
HTAB
HTAB  C7 N1
HTAB  C16 N2A_$1
HTAB  C16 N2B_$1
BOND  $H
ACTA
LIST  4
FMAP  2

SIMU 0.02 N2A N2B C10A C10B C11A C11B C12A C12B C13A C13B C14A C14B C15A C15B
DELU 0.01 N2A N2B C10A C10B C11A C11B C12A C12B C13A C13B C14A C14B C15A C15B

DFIX 31 C12A C15A C12B C15B
DFIX 41 C15A C15A_$2 C15B C15B_$2

PLAN  50
WGHT    0.020100    0.191800
FVAR       0.45594   0.88049   1.47985   1.29972
BR1   3   -0.281871    0.711374   -0.025515    11.00000    0.05912    0.04611 =
         0.06303    0.02399    0.00414    0.01437
BR2   3    0.034033    0.690448    0.154011    11.00000    0.07431    0.05214 =
         0.04576    0.00115    0.00091    0.00966
BR3   3    0.539596    0.214970    0.444227    11.00000    0.07370    0.04232 =
         0.06402    0.02200    0.00295    0.00578
BR4   3    0.884634    0.199270    0.623085    11.00000    0.05861    0.04637 =
         0.05097   -0.00660   -0.00622   -0.00531
N1    4    0.587559    0.469170    0.234973    11.00000    0.07835    0.06424 =
         0.03824    0.01150   -0.00636    0.00970
C1    1    0.573533    0.547290    0.295974    11.00000    0.06208    0.05820 =
         0.05091    0.02381    0.00019    0.01432
AFIX  43
H1    2    0.472585    0.603583    0.286409    11.00000   -1.20000
AFIX   0
C2    1    0.697758    0.550915    0.372382    11.00000    0.05741    0.04446 =
         0.03654    0.01036    0.00123    0.00232
AFIX  43
H2    2    0.677868    0.607740    0.412743    11.00000   -1.20000
AFIX   0
C3    1    0.853320    0.468462    0.388362    11.00000    0.04159    0.04511 =
         0.03340    0.01269    0.00129   -0.00069
C4    1    0.866021    0.387549    0.325793    11.00000    0.06830    0.05092 =
         0.04263    0.01032   -0.00055    0.01366
AFIX  43
H4    2    0.963702    0.329875    0.333463    11.00000   -1.20000
AFIX   0
C5    1    0.734545    0.391338    0.251532    11.00000    0.08667    0.05612 =
         0.04006    0.00306   -0.00010    0.01505
AFIX  43
H5    2    0.750139    0.335315    0.210154    11.00000   -1.20000
AFIX   0
C6    1    1.001273    0.465210    0.467684    11.00000    0.04990    0.04509 =
         0.04510    0.01554   -0.00241    0.00270
AFIX  43
H6    2    1.106918    0.407438    0.471685    11.00000   -1.20000
AFIX   0
C7    1    0.132802    0.491256    0.073414    11.00000    0.04071    0.04463 =
         0.03492    0.01570    0.00043    0.00199
AFIX  43
H7    2    0.222194    0.485539    0.122840    11.00000   -1.20000
AFIX   0
C8    1    0.012999    0.581389    0.064001    11.00000    0.04040    0.03875 =
         0.03641    0.00657    0.00258   -0.00005
C9    1   -0.118968    0.589710   -0.009361    11.00000    0.03452    0.03709 =
         0.04169    0.01691    0.00346    0.00279

PART  1
N2A   4    0.885425    0.022386    0.265739    21.00000    0.07112    0.06189 =
         0.03663    0.01181   -0.00165    0.01600
C10A  1    0.984504    0.098612    0.234589    21.00000    0.06681    0.06329 =
         0.03565    0.00424   -0.00109    0.01426
AFIX  43
H10A  2    1.121881    0.152267    0.266797    21.00000   -1.20000
AFIX   0
C11A  1    0.900361    0.105000    0.157985    21.00000    0.06597    0.04766 =
         0.03870    0.00566    0.00387    0.01300
AFIX  43
H11A  2    0.980064    0.161439    0.139908    21.00000   -1.20000
AFIX   0
C12A  1    0.696636    0.027124    0.107903    21.00000    0.04849    0.05392 =
         0.03034    0.01302    0.00674    0.02134
C13A  1    0.590834   -0.053879    0.140072    21.00000    0.05710    0.05433 =
         0.03430    0.00730    0.00195    0.01141
AFIX  43
H13A  2    0.453059   -0.108797    0.109613    21.00000   -1.20000
AFIX   0
C14A  1    0.692567   -0.051920    0.217785    21.00000    0.07295    0.05745 =
         0.03739    0.01848    0.00691    0.01864
AFIX  43
H14A  2    0.619427   -0.107321    0.237916    21.00000   -1.20000
AFIX   0
C15A  1    0.605346    0.031790    0.025661    21.00000    0.05123    0.04950 =
         0.03716    0.01535    0.00629    0.01254
AFIX  43
H15A  2    0.708530    0.085799    0.008196    21.00000   -1.20000
AFIX  66

PART  2
N2B   4    0.928145    0.043635    0.265174   -21.00000    0.07082    0.05890 =
         0.02648    0.01704   -0.00411    0.01579
C10B  1    1.019448    0.105964    0.214681   -21.00000    0.06648    0.05381 =
         0.02379    0.01353   -0.00045    0.01239
AFIX  43
H10B  2    1.173447    0.162490    0.233077   -21.00000   -1.20000
AFIX  65
C11B  1    0.880582    0.083809    0.136691   -21.00000    0.05943    0.05532 =
         0.02135    0.01302    0.00330    0.01115
AFIX  43
H11B  2    0.941671    0.125512    0.102908   -21.00000   -1.20000
AFIX  65
C12B  1    0.650413   -0.000675    0.109194   -21.00000    0.05131    0.05118 =
         0.02560    0.01262    0.00015    0.01728
C13B  1    0.559108   -0.063005    0.159687   -21.00000    0.04770    0.04936 =
         0.02931    0.01693    0.00926    0.01814
AFIX  43
H13B  2    0.405109   -0.119531    0.141290   -21.00000   -1.20000
AFIX  65
C14B  1    0.697971   -0.040852    0.237677   -21.00000    0.06744    0.06135 =
         0.02519    0.01985    0.00821    0.01686
AFIX  43
H14B  2    0.636881   -0.082555    0.271460   -21.00000   -1.20000
AFIX   0

C15B  1    0.479801   -0.024984    0.027398   -21.00000    0.05280    0.04788 =
         0.02550    0.01594   -0.00154    0.01677
AFIX  43
H15B  2    0.327307   -0.082531    0.014376   -21.00000   -1.20000
AFIX   0
PART  0
C16   1    0.645341   -0.006937    0.572713    11.00000    0.03701    0.04650 =
         0.02963    0.00602    0.00067    0.00898
AFIX  43
H16   2    0.744287   -0.011517    0.621576    11.00000   -1.20000
AFIX   0
C17   1    0.661290    0.084651    0.550882    11.00000    0.03504    0.03335 =
         0.03512   -0.00196    0.00266    0.00340
C18   1    0.517544    0.091984    0.477937    11.00000    0.03790    0.03449 =
         0.03449    0.01080    0.00576    0.00569
HKLF 4




REM  r4119-290K_a.res in P-1
REM R1 =  0.0304 for    2837 Fo > 4sig(Fo)  and  0.0601 for all    4243 data
REM    271 parameters refined using    244 restraints

END

WGHT      0.0201      0.1918

REM Instructions for potential hydrogen bonds
HTAB C7 N1
EQIV $6 -x+1, -y+1, -z
HTAB C11B Br1_$6
EQIV $7 x, y-1, z
HTAB C13B Br2_$7
HTAB C16 N2A_$1
HTAB C16 N2B_$1

REM Highest difference peak  0.343,  deepest hole -0.430,  1-sigma level  0.072
Q1    1   0.0128  0.7159  0.1137  11.00000  0.05    0.34
Q2    1   0.6692  0.2330  0.4840  11.00000  0.05    0.33
Q3    1   0.0466  0.6157  0.1480  11.00000  0.05    0.31
Q4    1   0.9332  0.1370  0.6123  11.00000  0.05    0.30
Q5    1   0.7019  0.1972  0.6416  11.00000  0.05    0.29
Q6    1   0.8856  0.6368  0.2631  11.00000  0.05    0.27
Q7    1   0.8274  0.2777  0.6373  11.00000  0.05    0.27
Q8    1  -0.1093  0.7190 -0.0852  11.00000  0.05    0.27
Q9    1   0.5965  0.0003  0.1436  11.00000  0.05    0.26
Q10   1   0.3815  0.2187  0.4952  11.00000  0.05    0.26
Q11   1   0.7080  0.1251  0.5717  11.00000  0.05    0.26
Q12   1   0.1601  0.5634  0.0585  11.00000  0.05    0.25
Q13   1   0.5994  0.0420  0.5705  11.00000  0.05    0.24
Q14   1  -0.2021  0.7975 -0.0221  11.00000  0.05    0.23
Q15   1   0.1938  0.2442  0.5133  11.00000  0.05    0.22
Q16   1   0.4614 -0.0746  0.1327  11.00000  0.05    0.22
Q17   1  -0.1828  0.6552  0.1347  11.00000  0.05    0.22
Q18   1   0.0165  0.6175  0.0897  11.00000  0.05    0.22
Q19   1   0.7175  0.0427  0.5545  11.00000  0.05    0.22
Q20   1   0.2781  0.6820  0.1435  11.00000  0.05    0.22
Q21   1   0.9456  0.5563  0.2201  11.00000  0.05    0.22
Q22   1  -0.0999  0.5779  0.0306  11.00000  0.05    0.22
Q23   1   0.5575  0.6863  0.2113  11.00000  0.05    0.22
Q24   1   0.4958 -0.1939  0.2822  11.00000  0.05    0.22
Q25   1   0.7709  0.2818  0.6131  11.00000  0.05    0.21
Q26   1   0.9355  0.2463  0.5893  11.00000  0.05    0.21
Q27   1   0.1069 -0.1771  0.1138  11.00000  0.05    0.21
Q28   1   0.6382  0.1383  0.3286  11.00000  0.05    0.21
Q29   1   0.7175  0.1932  0.1824  11.00000  0.05    0.21
Q30   1   0.4852  0.5837  0.4114  11.00000  0.05    0.21
Q31   1   0.1598  0.6552  0.2922  11.00000  0.05    0.21
Q32   1   1.0029 -0.0215  0.6362  11.00000  0.05    0.21
Q33   1   0.6924  0.0197  0.0792  11.00000  0.05    0.21
Q34   1   1.1458  0.3637  0.3482  11.00000  0.05    0.21
Q35   1   0.9116  0.4585  0.4179  11.00000  0.05    0.21
Q36   1   0.6632 -0.0827  0.2276  11.00000  0.05    0.21
Q37   1   1.1361  0.3160  0.2940  11.00000  0.05    0.20
Q38   1   0.9792  0.3374  0.1782  11.00000  0.05    0.20
Q39   1   0.3382 -0.2224  0.0674  11.00000  0.05    0.20
Q40   1  -0.4234  0.6389  0.0943  11.00000  0.05    0.20
Q41   1   1.0522 -0.0674  0.5832  11.00000  0.05    0.20
Q42   1   0.1033  0.7796 -0.0004  11.00000  0.05    0.20
Q43   1   1.0086  0.2833  0.1659  11.00000  0.05    0.20
Q44   1   0.8420  0.2109  0.3901  11.00000  0.05    0.20
Q45   1   0.4767  0.2145  0.1604  11.00000  0.05    0.20
Q46   1   0.5776  0.4915  0.1305  11.00000  0.05    0.20
Q47   1   1.0195  0.0716  0.5719  11.00000  0.05    0.20
Q48   1   0.6656  0.0025  0.2349  11.00000  0.05    0.20
Q49   1   0.9319  0.1422  0.3179  11.00000  0.05    0.20
Q50   1   1.5569  0.1795  0.2907  11.00000  0.05    0.20
;
_shelx_res_checksum              46051
loop_
_symmetry_equiv_pos_as_xyz
'x, y, z'
'-x, -y, -z'
loop_
_atom_site_label
_atom_site_type_symbol
_atom_site_fract_x
_atom_site_fract_y
_atom_site_fract_z
_atom_site_U_iso_or_equiv
_atom_site_adp_type
_atom_site_occupancy
_atom_site_site_symmetry_order
_atom_site_calc_flag
_atom_site_refinement_flags_posn
_atom_site_refinement_flags_adp
_atom_site_refinement_flags_occupancy
_atom_site_disorder_assembly
_atom_site_disorder_group
Br1 Br -0.28187(8) 0.71137(3) -0.02552(2) 0.05381(11) Uani 1 1 d . . . . .
Br2 Br 0.03403(9) 0.69045(3) 0.15401(2) 0.05892(11) Uani 1 1 d . . . . .
Br3 Br 0.53960(9) 0.21497(3) 0.44423(2) 0.05855(11) Uani 1 1 d . . . . .
Br4 Br 0.88463(8) 0.19927(3) 0.62308(2) 0.05572(11) Uani 1 1 d . . . . .
N1 N 0.5876(7) 0.4692(2) 0.23497(16) 0.0606(8) Uani 1 1 d . . . . .
C1 C 0.5735(8) 0.5473(3) 0.2960(2) 0.0550(9) Uani 1 1 d . . . . .
H1 H 0.472585 0.603583 0.286409 0.066 Uiso 1 1 calc R U . . .
C2 C 0.6978(7) 0.5509(2) 0.37238(18) 0.0462(8) Uani 1 1 d . . . . .
H2 H 0.677868 0.60774 0.412743 0.055 Uiso 1 1 calc R U . . .
C3 C 0.8533(7) 0.4685(2) 0.38836(17) 0.0398(7) Uani 1 1 d . . . . .
C4 C 0.8660(8) 0.3875(3) 0.32579(19) 0.0538(9) Uani 1 1 d . . . . .
H4 H 0.963702 0.329875 0.333463 0.065 Uiso 1 1 calc R U . . .
C5 C 0.7345(9) 0.3913(3) 0.2515(2) 0.0620(10) Uani 1 1 d . . . . .
H5 H 0.750139 0.335315 0.210154 0.074 Uiso 1 1 calc R U . . .
C6 C 1.0013(8) 0.4652(2) 0.46768(17) 0.0462(8) Uani 1 1 d . . . . .
H6 H 1.106918 0.407438 0.471685 0.055 Uiso 1 1 calc R U . . .
C7 C 0.1328(6) 0.4913(2) 0.07341(17) 0.0393(7) Uani 1 1 d . . . . .
H7 H 0.222194 0.485539 0.12284 0.047 Uiso 1 1 calc R U . . .
C8 C 0.0130(7) 0.5814(2) 0.06400(17) 0.0390(7) Uani 1 1 d . . . . .
C9 C -0.1190(6) 0.5897(2) -0.00936(17) 0.0365(7) Uani 1 1 d . . . . .
N2A N 0.8854(18) 0.0224(5) 0.2657(3) 0.0562(14) Uani 0.880(8) 1 d . U P A 1
C10A C 0.9845(17) 0.0986(5) 0.2346(3) 0.0561(15) Uani 0.880(8) 1 d . U P A 1
H10A H 1.121881 0.152267 0.266797 0.067 Uiso 0.880(8) 1 calc R U P A 1
C11A C 0.9004(15) 0.1050(4) 0.1580(3) 0.0510(13) Uani 0.880(8) 1 d . U P A 1
H11A H 0.980064 0.161439 0.139908 0.061 Uiso 0.880(8) 1 calc R U P A 1
C12A C 0.6966(14) 0.0271(4) 0.1079(3) 0.0427(12) Uani 0.880(8) 1 d D U P A 1
C13A C 0.5908(16) -0.0539(5) 0.1401(3) 0.0488(14) Uani 0.880(8) 1 d . U P A 1
H13A H 0.453059 -0.108797 0.109613 0.059 Uiso 0.880(8) 1 calc R U P A 1
C14A C 0.6926(18) -0.0519(5) 0.2178(3) 0.0540(13) Uani 0.880(8) 1 d . U P A 1
H14A H 0.619427 -0.107321 0.237916 0.065 Uiso 0.880(8) 1 calc R U P A 1
C15A C 0.6053(9) 0.0318(3) 0.0257(2) 0.0446(12) Uani 0.880(8) 1 d D U P A 1
H15A H 0.70853 0.085799 0.008196 0.053 Uiso 0.880(8) 1 calc R U P A 1
N2B N 0.928(13) 0.044(4) 0.2652(15) 0.051(5) Uani 0.120(8) 1 d G U P A 2
C10B C 1.019(11) 0.106(3) 0.215(2) 0.047(5) Uani 0.120(8) 1 d G U P A 2
H10B H 1.173447 0.16249 0.233077 0.057 Uiso 0.120(8) 1 calc R U P A 2
C11B C 0.881(12) 0.084(3) 0.137(2) 0.044(5) Uani 0.120(8) 1 d G U P A 2
H11B H 0.941671 0.125512 0.102908 0.053 Uiso 0.120(8) 1 calc R U P A 2
C12B C 0.650(11) -0.001(3) 0.1092(15) 0.042(4) Uani 0.120(8) 1 d DG U P A 2
C13B C 0.559(11) -0.063(3) 0.160(2) 0.040(4) Uani 0.120(8) 1 d G U P A 2
H13B H 0.405109 -0.119531 0.14129 0.048 Uiso 0.120(8) 1 calc R U P A 2
C14B C 0.698(14) -0.041(3) 0.238(2) 0.049(5) Uani 0.120(8) 1 d G U P A 2
H14B H 0.636881 -0.082555 0.27146 0.059 Uiso 0.120(8) 1 calc R U P A 2
C15B C 0.480(7) -0.025(2) 0.0274(13) 0.040(5) Uani 0.120(8) 1 d D U P A 2
H15B H 0.327307 -0.082531 0.014376 0.049 Uiso 0.120(8) 1 calc R U P A 2
C16 C 0.6453(6) -0.0069(2) 0.57271(16) 0.0379(7) Uani 1 1 d . . . . .
H16 H 0.744287 -0.011517 0.621576 0.046 Uiso 1 1 calc R U . . .
C17 C 0.6613(6) 0.0847(2) 0.55088(16) 0.0360(7) Uani 1 1 d . . . . .
C18 C 0.5175(6) 0.0920(2) 0.47794(16) 0.0349(7) Uani 1 1 d . . . . .
loop_
_atom_site_aniso_label
_atom_site_aniso_U_11
_atom_site_aniso_U_22
_atom_site_aniso_U_33
_atom_site_aniso_U_23
_atom_site_aniso_U_13
_atom_site_aniso_U_12
Br1 0.0591(2) 0.0461(2) 0.0630(2) 0.02399(18) 0.00414(16) 0.01437(16)
Br2 0.0743(2) 0.0521(2) 0.0458(2) 0.00115(17) 0.00091(17) 0.00966(18)
Br3 0.0737(2) 0.0423(2) 0.0640(2) 0.02200(18) 0.00295(18) 0.00578(17)
Br4 0.0586(2) 0.0464(2) 0.0510(2) -0.00660(16) -0.00622(16) -0.00531(16)
N1 0.078(2) 0.064(2) 0.0382(17) 0.0115(16) -0.0064(14) 0.0097(17)
C1 0.062(2) 0.058(2) 0.051(2) 0.0238(19) 0.0002(17) 0.0143(17)
C2 0.0574(19) 0.044(2) 0.0365(18) 0.0104(15) 0.0012(15) 0.0023(15)
C3 0.0416(16) 0.0451(19) 0.0334(17) 0.0127(15) 0.0013(13) -0.0007(14)
C4 0.068(2) 0.051(2) 0.043(2) 0.0103(17) -0.0006(16) 0.0137(17)
C5 0.087(3) 0.056(2) 0.040(2) 0.0031(18) -0.0001(18) 0.015(2)
C6 0.0499(17) 0.045(2) 0.045(2) 0.0155(15) -0.0024(16) 0.0027(15)
C7 0.0407(16) 0.045(2) 0.0349(18) 0.0157(15) 0.0004(13) 0.0020(14)
C8 0.0404(15) 0.0387(18) 0.0364(17) 0.0066(14) 0.0026(13) 0.0000(13)
C9 0.0345(15) 0.0371(18) 0.0417(18) 0.0169(15) 0.0035(13) 0.0028(12)
N2A 0.071(3) 0.062(4) 0.037(2) 0.0118(18) -0.0017(18) 0.016(3)
C10A 0.067(3) 0.063(3) 0.036(3) 0.004(3) -0.001(2) 0.014(2)
C11A 0.066(3) 0.048(3) 0.039(3) 0.006(2) 0.004(3) 0.013(2)
C12A 0.048(3) 0.054(3) 0.0303(19) 0.0130(19) 0.0067(17) 0.021(2)
C13A 0.057(3) 0.054(3) 0.034(3) 0.007(2) 0.002(2) 0.011(2)
C14A 0.073(3) 0.057(3) 0.037(3) 0.018(3) 0.007(3) 0.019(2)
C15A 0.051(2) 0.050(3) 0.037(2) 0.0153(19) 0.0063(17) 0.0125(18)
N2B 0.071(9) 0.059(9) 0.026(8) 0.017(7) -0.004(8) 0.016(8)
C10B 0.066(9) 0.054(8) 0.024(8) 0.014(7) 0.000(8) 0.012(7)
C11B 0.059(9) 0.055(9) 0.021(8) 0.013(7) 0.003(8) 0.011(7)
C12B 0.051(8) 0.051(8) 0.026(6) 0.013(6) 0.000(7) 0.017(7)
C13B 0.048(8) 0.049(8) 0.029(8) 0.017(7) 0.009(8) 0.018(7)
C14B 0.067(9) 0.061(9) 0.025(8) 0.020(8) 0.008(8) 0.017(8)
C15B 0.053(10) 0.048(10) 0.026(8) 0.016(8) -0.002(8) 0.017(9)
C16 0.0370(15) 0.046(2) 0.0296(17) 0.0060(14) 0.0007(13) 0.0090(13)
C17 0.0350(14) 0.0333(17) 0.0351(16) -0.0020(13) 0.0027(12) 0.0034(12)
C18 0.0379(15) 0.0345(17) 0.0345(17) 0.0108(13) 0.0058(13) 0.0057(13)
loop_
_atom_type_symbol
_atom_type_description
_atom_type_scat_dispersion_real
_atom_type_scat_dispersion_imag
_atom_type_scat_source
C C 0.0033 0.0016 'International Tables Vol C Tables 4.2.6.8 and 6.1.1.4'
H H 0 0 'International Tables Vol C Tables 4.2.6.8 and 6.1.1.4'
Br Br -0.2901 2.4595 'International Tables Vol C Tables 4.2.6.8 and 6.1.1.4'
N N 0.0061 0.0033 'International Tables Vol C Tables 4.2.6.8 and 6.1.1.4'
loop_
_geom_angle_atom_site_label_1
_geom_angle_atom_site_label_2
_geom_angle_atom_site_label_3
_geom_angle
_geom_angle_site_symmetry_1
_geom_angle_site_symmetry_3
C5 N1 C1 115.4(3) . .
N1 C1 C2 124.6(3) . .
N1 C1 H1 117.7 . .
C2 C1 H1 117.7 . .
C1 C2 C3 119.0(3) . .
C1 C2 H2 120.5 . .
C3 C2 H2 120.5 . .
C4 C3 C2 116.5(3) . .
C4 C3 C6 120.0(3) . .
C2 C3 C6 123.5(3) . .
C3 C4 C5 120.0(3) . .
C3 C4 H4 120 . .
C5 C4 H4 120 . .
N1 C5 C4 124.4(3) . .
N1 C5 H5 117.8 . .
C4 C5 H5 117.8 . .
C6 C6 C3 126.5(4) 2_766 .
C6 C6 H6 116.7 2_766 .
C3 C6 H6 116.7 . .
C9 C7 C8 119.5(3) 2_565 .
C9 C7 H7 120.2 2_565 .
C8 C7 H7 120.2 . .
C9 C8 C7 120.1(3) . .
C9 C8 Br2 121.8(2) . .
C7 C8 Br2 118.1(2) . .
C7 C9 C8 120.3(3) 2_565 .
C7 C9 Br1 117.9(2) 2_565 .
C8 C9 Br1 121.8(2) . .
C10A N2A C14A 115.3(4) . .
N2A C10A C11A 124.9(4) . .
N2A C10A H10A 117.6 . .
C11A C10A H10A 117.6 . .
C10A C11A C12A 119.7(4) . .
C10A C11A H11A 120.2 . .
C12A C11A H11A 120.2 . .
C11A C12A C13A 116.0(3) . .
C11A C12A C15A 120.7(4) . .
C13A C12A C15A 123.3(4) . .
C14A C13A C12A 119.1(4) . .
C14A C13A H13A 120.5 . .
C12A C13A H13A 120.5 . .
N2A C14A C13A 125.0(4) . .
N2A C14A H14A 117.5 . .
C13A C14A H14A 117.5 . .
C15A C15A C12A 127.0(6) 2_655 .
C15A C15A H15A 116.5 2_655 .
C12A C15A H15A 116.5 . .
C10B N2B C14B 120 . .
N2B C10B C11B 120 . .
N2B C10B H10B 120 . .
C11B C10B H10B 120 . .
C12B C11B C10B 120 . .
C12B C11B H11B 120 . .
C10B C11B H11B 120 . .
C13B C12B C11B 120 . .
C13B C12B C15B 118(3) . .
C11B C12B C15B 122(3) . .
C12B C13B C14B 120 . .
C12B C13B H13B 120 . .
C14B C13B H13B 120 . .
C13B C14B N2B 120 . .
C13B C14B H14B 120 . .
N2B C14B H14B 120 . .
C15B C15B C12B 127(4) 2_655 .
C15B C15B H15B 116.3 2_655 .
C12B C15B H15B 116.3 . .
C17 C16 C18 119.7(2) . 2_656
C17 C16 H16 120.1 . .
C18 C16 H16 120.1 2_656 .
C16 C17 C18 120.5(2) . .
C16 C17 Br4 118.0(2) . .
C18 C17 Br4 121.5(2) . .
C16 C18 C17 119.7(3) 2_656 .
C16 C18 Br3 118.0(2) 2_656 .
C17 C18 Br3 122.3(2) . .
loop_
_geom_bond_atom_site_label_1
_geom_bond_atom_site_label_2
_geom_bond_distance
_geom_bond_site_symmetry_2
Br1 C9 1.885(3) .
Br2 C8 1.888(3) .
Br3 C18 1.879(3) .
Br4 C17 1.889(3) .
N1 C5 1.321(4) .
N1 C1 1.327(4) .
C1 C2 1.376(4) .
C1 H1 0.93 .
C2 C3 1.389(4) .
C2 H2 0.93 .
C3 C4 1.366(4) .
C3 C6 1.475(4) .
C4 C5 1.374(4) .
C4 H4 0.93 .
C5 H5 0.93 .
C6 C6 1.295(6) 2_766
C6 H6 0.93 .
C7 C9 1.371(4) 2_565
C7 C8 1.382(4) .
C7 H7 0.93 .
C8 C9 1.379(4) .
N2A C10A 1.313(6) .
N2A C14A 1.317(5) .
C10A C11A 1.373(6) .
C10A H10A 0.93 .
C11A C12A 1.382(5) .
C11A H11A 0.93 .
C12A C13A 1.386(5) .
C12A C15A 1.467(5) .
C13A C14A 1.378(5) .
C13A H13A 0.93 .
C14A H14A 0.93 .
C15A C15A 1.306(7) 2_655
C15A H15A 0.93 .
N2B C10B 1.39 .
N2B C14B 1.39 .
C10B C11B 1.39 .
C10B H10B 0.93 .
C11B C12B 1.39 .
C11B H11B 0.93 .
C12B C13B 1.39 .
C12B C15B 1.49(2) .
C13B C14B 1.39 .
C13B H13B 0.93 .
C14B H14B 0.93 .
C15B C15B 1.29(3) 2_655
C15B H15B 0.93 .
C16 C17 1.371(4) .
C16 C18 1.375(4) 2_656
C16 H16 0.93 .
C17 C18 1.384(4) .
loop_
_geom_hbond_atom_site_label_D
_geom_hbond_atom_site_label_H
_geom_hbond_atom_site_label_A
_geom_hbond_distance_DH
_geom_hbond_distance_HA
_geom_hbond_distance_DA
_geom_hbond_angle_DHA
_geom_hbond_site_symmetry_A
C7 H7 N1 0.93 2.42 3.330(4) 165.3 .
C16 H16 N2A 0.93 2.42 3.332(6) 167.4 2_756
C16 H16 N2B 0.93 2.43 3.35(3) 169.4 2_756
