#------------------------------------------------------------------------------
#$Date: 2019-02-22 01:06:46 +0200 (Fri, 22 Feb 2019) $
#$Revision: 213767 $
#$URL: file:///home/coder/svn-repositories/cod/cif/7/12/30/7123025.cif $
#------------------------------------------------------------------------------
#
# This file is available in the Crystallography Open Database (COD),
# http://www.crystallography.net/
#
# All data on this site have been placed in the public domain by the
# contributors.
#
data_7123025
loop_
_publ_author_name
'Crawford, Adam W.'
'Groeneman , Ryan'
'Unruh, Daniel K.'
'Hutchins, Kristin M.'
_publ_section_title
;
 Cooling-rate dependent single-crystal-to-single-crystal phase transition
 in an organic co-crystal
;
_journal_name_full               'Chemical Communications'
_journal_paper_doi               10.1039/C9CC00836E
_journal_year                    2019
_chemical_formula_sum            'C18 H12 Br4 N2'
_chemical_formula_weight         575.94
_space_group_IT_number           2
_symmetry_cell_setting           triclinic
_symmetry_Int_Tables_number      2
_symmetry_space_group_name_Hall  '-P 1'
_symmetry_space_group_name_H-M   'P -1'
_atom_sites_solution_hydrogens   geom
_atom_sites_solution_primary     dual
_atom_sites_solution_secondary   difmap
_audit_creation_date             2018-10-31T15:21:35-00:00
_audit_creation_method           'WinGX routine CIF_UPDATE'
_audit_update_record
;
2019-01-09 deposited with the CCDC.    2019-02-21 downloaded from the CCDC.
;
_cell_angle_alpha                75.801(10)
_cell_angle_beta                 84.980(11)
_cell_angle_gamma                78.541(11)
_cell_formula_units_Z            1
_cell_length_a                   3.9240(8)
_cell_length_b                   9.667(2)
_cell_length_c                   12.375(3)
_cell_measurement_reflns_used    3186
_cell_measurement_temperature    189(2)
_cell_measurement_theta_max      27.45
_cell_measurement_theta_min      2.45
_cell_volume                     445.64(17)
_computing_cell_refinement       'Bruker SAINT'
_computing_data_collection       'Bruker APEX2'
_computing_data_reduction        'Bruker SAINT'
_computing_structure_refinement  'SHELXL-2016/6 (Sheldrick, 2016)'
_computing_structure_solution    'SHELXT 2014/5 (Sheldrick, 2014)'
_diffrn_ambient_temperature      189(2)
_diffrn_measured_fraction_theta_full 0.99
_diffrn_measured_fraction_theta_max 0.96
_diffrn_measurement_device_type  'Bruker APEX-II CCD'
_diffrn_measurement_method       '\f and \w scans'
_diffrn_radiation_monochromator  graphite
_diffrn_radiation_source         'fine-focus sealed tube'
_diffrn_radiation_type           MoK\a
_diffrn_radiation_wavelength     0.71073
_diffrn_reflns_av_R_equivalents  0.0879
_diffrn_reflns_av_unetI/netI     0.0585
_diffrn_reflns_Laue_measured_fraction_full 0.972
_diffrn_reflns_Laue_measured_fraction_max 0.96
_diffrn_reflns_limit_h_max       4
_diffrn_reflns_limit_h_min       -5
_diffrn_reflns_limit_k_max       12
_diffrn_reflns_limit_k_min       -12
_diffrn_reflns_limit_l_max       15
_diffrn_reflns_limit_l_min       -15
_diffrn_reflns_number            6392
_diffrn_reflns_point_group_measured_fraction_full 0.972
_diffrn_reflns_point_group_measured_fraction_max 0.96
_diffrn_reflns_theta_full        25.242
_diffrn_reflns_theta_max         27.552
_diffrn_reflns_theta_min         1.699
_exptl_absorpt_coefficient_mu    9.033
_exptl_absorpt_correction_T_max  0.8621
_exptl_absorpt_correction_T_min  0.5748
_exptl_absorpt_correction_type   multi-scan
_exptl_absorpt_process_details   SADABS
_exptl_crystal_colour            colourless
_exptl_crystal_density_diffrn    2.146
_exptl_crystal_description       rod
_exptl_crystal_F_000             274
_exptl_crystal_recrystallization_method 'Re-crystallisation from solvent'
_exptl_crystal_size_max          0.468
_exptl_crystal_size_mid          0.202
_exptl_crystal_size_min          0.177
_refine_diff_density_max         2.024
_refine_diff_density_min         -1.164
_refine_diff_density_rms         0.191
_refine_ls_extinction_method     none
_refine_ls_goodness_of_fit_ref   1.001
_refine_ls_hydrogen_treatment    constr
_refine_ls_matrix_type           full
_refine_ls_number_parameters     109
_refine_ls_number_reflns         1972
_refine_ls_number_restraints     0
_refine_ls_restrained_S_all      1.001
_refine_ls_R_factor_all          0.0535
_refine_ls_R_factor_gt           0.0451
_refine_ls_shift/su_max          0
_refine_ls_shift/su_mean         0
_refine_ls_structure_factor_coef Fsqd
_refine_ls_weighting_details
'w=1/[\s^2^(Fo^2^)+(0.0728P)^2^] where P=(Fo^2^+2Fc^2^)/3'
_refine_ls_weighting_scheme      calc
_refine_ls_wR_factor_gt          0.1148
_refine_ls_wR_factor_ref         0.1181
_reflns_Friedel_coverage         0
_reflns_number_gt                1587
_reflns_number_total             1972
_reflns_threshold_expression     'I > 2\s(I)'
_cod_data_source_file            c9cc00836e2.cif
_cod_data_source_block           TBrB_BPE_190K
_cod_original_cell_volume        445.65(17)
_cod_database_code               7123025
_shelx_estimated_absorpt_t_min   0.101
_shelx_estimated_absorpt_t_max   0.298
_shelx_res_file
;
TITL r4118-190K in P-1
    r4118-190k.res
    created by SHELXL-2016/6 at 16:48:23 on 11-Oct-2018
CELL  0.71073   3.9240   9.6674  12.3746   75.801   84.980   78.541
ZERR  1.00   0.0008   0.0021   0.0028    0.010    0.011    0.011
LATT  1
SFAC  C H N BR
UNIT  18 12 2 4
ACTA
LIST  4
FMAP  2
PLAN  20
SIZE  0.177 0.202 0.468
EQIV  $1  -x+1, -y+1, -z+1
HTAB  C7 N1_$1
BOND  $H
L.S.  10
TEMP  -84.22
WGHT    0.072800
FVAR       0.25462
BR1   4    0.574256    0.341465    0.441628    11.00000    0.04127    0.02494 =
         0.03217   -0.01361    0.00579   -0.01165
BR2   4    0.342076    0.189089    0.246564    11.00000    0.04070    0.03520 =
         0.01929   -0.00832   -0.00112   -0.00511
N1    3    0.085752    0.808776    0.233512    11.00000    0.04315    0.03740 =
         0.02927   -0.02029   -0.00191   -0.00911
C1    1    0.181586    0.853846    0.126863    11.00000    0.04671    0.02841 =
         0.03709   -0.01590   -0.00016   -0.00973
AFIX  43
H1    2    0.257603    0.944396    0.104308    11.00000   -1.20000
AFIX   0
C2    1    0.176783    0.776294    0.046970    11.00000    0.03788    0.03151 =
         0.02376   -0.01241    0.00375   -0.00842
AFIX  43
H2    2    0.244454    0.814318   -0.028387    11.00000   -1.20000
AFIX   0
C3    1    0.072304    0.642374    0.077659    11.00000    0.02250    0.02386 =
         0.02283   -0.01233   -0.00150   -0.00119
C4    1   -0.028102    0.595002    0.189335    11.00000    0.03759    0.02917 =
         0.02278   -0.01260   -0.00223   -0.00424
AFIX  43
H4    2   -0.105482    0.505000    0.214925    11.00000   -1.20000
AFIX   0
C5    1   -0.013183    0.681155    0.262181    11.00000    0.04116    0.04044 =
         0.02310   -0.01902    0.00303   -0.00514
AFIX  43
H5    2   -0.078597    0.646317    0.338277    11.00000   -1.20000
AFIX   0
C6    1    0.068546    0.558949   -0.006811    11.00000    0.02978    0.02923 =
         0.01806   -0.01336   -0.00055   -0.00159
AFIX  43
H6    2    0.174576    0.592946   -0.077850    11.00000   -1.20000
AFIX   0
C7    1    0.598127    0.062466    0.580078    11.00000    0.02520    0.02485 =
         0.02087   -0.01656    0.00113   -0.00334
AFIX  43
H7    2    0.666595    0.105078    0.634264    11.00000   -1.20000
AFIX   0
C8    1    0.529386    0.144224    0.473092    11.00000    0.02364    0.02073 =
         0.02753   -0.01506    0.00438   -0.00582
C9    1    0.434057    0.082086    0.392816    11.00000    0.02053    0.02504 =
         0.01628   -0.00963    0.00270   -0.00357
HKLF    4




REM  r4118-190K in P-1
REM R1 =  0.0451 for    1587 Fo > 4sig(Fo)  and  0.0535 for all    1972 data
REM    109 parameters refined using      0 restraints

END

WGHT      0.0709      0.0000

REM Highest difference peak  2.024,  deepest hole -1.164,  1-sigma level  0.191
Q1    1   0.6646  0.2565  0.4855  11.00000  0.05    2.02
Q2    1   0.2712  0.2695  0.1979  11.00000  0.05    1.94
Q3    1   0.4911  0.4254  0.3939  11.00000  0.05    1.86
Q4    1   0.4428  0.1022  0.2861  11.00000  0.05    1.83
Q5    1   0.4914  0.0023  0.5810  11.00000  0.05    0.68
Q6    1   0.5431  0.0994  0.5230  11.00000  0.05    0.56
Q7    1   0.2759  0.3444  0.4274  11.00000  0.05    0.56
Q8    1  -0.1773  0.6600 -0.1416  11.00000  0.05    0.55
Q9    1   0.1338  0.4781  0.0238  11.00000  0.05    0.49
Q10   1   0.2247  0.7003  0.0766  11.00000  0.05    0.48
Q11   1   0.1440  0.1535  0.2406  11.00000  0.05    0.47
Q12   1   0.6250  0.2057  0.2603  11.00000  0.05    0.46
Q13   1   0.7048 -0.0229  0.5870  11.00000  0.05    0.46
Q14   1   0.7283  0.2043  0.5618  11.00000  0.05    0.45
Q15   1   0.0702  0.1850  0.2366  11.00000  0.05    0.45
Q16   1   0.7677  0.1821  0.5366  11.00000  0.05    0.44
Q17   1   0.3761  0.5002  0.3346  11.00000  0.05    0.43
Q18   1   0.0096  0.3752  0.2795  11.00000  0.05    0.42
Q19   1   0.8117  0.3517  0.4536  11.00000  0.05    0.42
Q20   1   0.0356  0.7182  0.0440  11.00000  0.05    0.41
;
_shelx_res_checksum              5278
loop_
_symmetry_equiv_pos_as_xyz
'x, y, z'
'-x, -y, -z'
loop_
_atom_site_label
_atom_site_type_symbol
_atom_site_fract_x
_atom_site_fract_y
_atom_site_fract_z
_atom_site_U_iso_or_equiv
_atom_site_adp_type
_atom_site_occupancy
_atom_site_site_symmetry_order
_atom_site_calc_flag
_atom_site_refinement_flags_posn
_atom_site_refinement_flags_adp
Br1 Br 0.57426(13) 0.34147(4) 0.44163(4) 0.03122(18) Uani 1 1 d . .
Br2 Br 0.34208(13) 0.18909(5) 0.24656(3) 0.03165(18) Uani 1 1 d . .
N1 N 0.0858(12) 0.8088(4) 0.2335(3) 0.0341(9) Uani 1 1 d . .
C1 C 0.1816(14) 0.8538(5) 0.1269(4) 0.0356(12) Uani 1 1 d . .
H1 H 0.257603 0.944396 0.104308 0.043 Uiso 1 1 calc R U
C2 C 0.1768(13) 0.7763(5) 0.0470(4) 0.0300(10) Uani 1 1 d . .
H2 H 0.244454 0.814318 -0.028387 0.036 Uiso 1 1 calc R U
C3 C 0.0723(11) 0.6424(4) 0.0777(3) 0.0222(9) Uani 1 1 d . .
C4 C -0.0281(13) 0.5950(5) 0.1893(4) 0.0289(10) Uani 1 1 d . .
H4 H -0.105482 0.505 0.214925 0.035 Uiso 1 1 calc R U
C5 C -0.0132(13) 0.6812(5) 0.2622(4) 0.0334(11) Uani 1 1 d . .
H5 H -0.078597 0.646317 0.338277 0.04 Uiso 1 1 calc R U
C6 C 0.0685(12) 0.5589(4) -0.0068(4) 0.0249(9) Uani 1 1 d . .
H6 H 0.174576 0.592946 -0.07785 0.03 Uiso 1 1 calc R U
C7 C 0.5981(11) 0.0625(4) 0.5801(3) 0.0220(9) Uani 1 1 d . .
H7 H 0.666595 0.105078 0.634264 0.026 Uiso 1 1 calc R U
C8 C 0.5294(11) 0.1442(4) 0.4731(3) 0.0224(9) Uani 1 1 d . .
C9 C 0.4341(11) 0.0821(4) 0.3928(3) 0.0201(8) Uani 1 1 d . .
loop_
_atom_site_aniso_label
_atom_site_aniso_U_11
_atom_site_aniso_U_22
_atom_site_aniso_U_33
_atom_site_aniso_U_23
_atom_site_aniso_U_13
_atom_site_aniso_U_12
Br1 0.0413(3) 0.0249(3) 0.0322(3) -0.0136(2) 0.0058(2) -0.0117(2)
Br2 0.0407(3) 0.0352(3) 0.0193(3) -0.00832(19) -0.00112(19) -0.0051(2)
N1 0.043(3) 0.037(2) 0.029(2) -0.0203(18) -0.0019(18) -0.0091(18)
C1 0.047(3) 0.028(2) 0.037(3) -0.016(2) 0.000(2) -0.010(2)
C2 0.038(3) 0.032(2) 0.024(2) -0.0124(19) 0.0037(19) -0.008(2)
C3 0.022(2) 0.024(2) 0.023(2) -0.0123(17) -0.0015(16) -0.0012(17)
C4 0.038(3) 0.029(2) 0.023(2) -0.0126(18) -0.0022(19) -0.004(2)
C5 0.041(3) 0.040(3) 0.023(2) -0.019(2) 0.003(2) -0.005(2)
C6 0.030(3) 0.029(2) 0.018(2) -0.0134(17) -0.0006(16) -0.0016(18)
C7 0.025(2) 0.025(2) 0.021(2) -0.0166(17) 0.0011(17) -0.0033(17)
C8 0.024(2) 0.0207(19) 0.028(2) -0.0151(17) 0.0044(17) -0.0058(16)
C9 0.021(2) 0.025(2) 0.0163(19) -0.0096(16) 0.0027(15) -0.0036(16)
loop_
_atom_type_symbol
_atom_type_description
_atom_type_scat_dispersion_real
_atom_type_scat_dispersion_imag
_atom_type_scat_source
C C 0.0033 0.0016 'International Tables Vol C Tables 4.2.6.8 and 6.1.1.4'
H H 0 0 'International Tables Vol C Tables 4.2.6.8 and 6.1.1.4'
N N 0.0061 0.0033 'International Tables Vol C Tables 4.2.6.8 and 6.1.1.4'
Br Br -0.2901 2.4595 'International Tables Vol C Tables 4.2.6.8 and 6.1.1.4'
loop_
_geom_angle_atom_site_label_1
_geom_angle_atom_site_label_2
_geom_angle_atom_site_label_3
_geom_angle
_geom_angle_site_symmetry_1
C5 N1 C1 116.4(4) .
N1 C1 C2 123.7(4) .
N1 C1 H1 118.2 .
C2 C1 H1 118.2 .
C1 C2 C3 119.6(4) .
C1 C2 H2 120.2 .
C3 C2 H2 120.2 .
C2 C3 C4 116.8(4) .
C2 C3 C6 119.8(4) .
C4 C3 C6 123.3(4) .
C5 C4 C3 118.8(4) .
C5 C4 H4 120.6 .
C3 C4 H4 120.6 .
N1 C5 C4 124.6(4) .
N1 C5 H5 117.7 .
C4 C5 H5 117.7 .
C6 C6 C3 126.2(5) 2_565
C6 C6 H6 116.9 2_565
C3 C6 H6 116.9 .
C9 C7 C8 119.2(4) 2_656
C9 C7 H7 120.4 2_656
C8 C7 H7 120.4 .
C7 C8 C9 120.7(4) .
C7 C8 Br1 117.2(3) .
C9 C8 Br1 122.1(3) .
C7 C9 C8 120.0(4) 2_656
C7 C9 Br2 118.0(3) 2_656
C8 C9 Br2 122.0(3) .
loop_
_geom_bond_atom_site_label_1
_geom_bond_atom_site_label_2
_geom_bond_distance
_geom_bond_site_symmetry_2
Br1 C8 1.891(4) .
Br2 C9 1.877(4) .
N1 C5 1.323(6) .
N1 C1 1.330(6) .
C1 C2 1.383(6) .
C1 H1 0.95 .
C2 C3 1.390(6) .
C2 H2 0.95 .
C3 C4 1.393(6) .
C3 C6 1.471(5) .
C4 C5 1.381(6) .
C4 H4 0.95 .
C5 H5 0.95 .
C6 C6 1.323(8) 2_565
C6 H6 0.95 .
C7 C9 1.383(5) 2_656
C7 C8 1.384(6) .
C7 H7 0.95 .
C8 C9 1.391(5) .
loop_
_geom_hbond_atom_site_label_D
_geom_hbond_atom_site_label_H
_geom_hbond_atom_site_label_A
_geom_hbond_distance_DH
_geom_hbond_distance_HA
_geom_hbond_distance_DA
_geom_hbond_angle_DHA
_geom_hbond_site_symmetry_A
C7 H7 N1 0.95 2.36 3.306(5) 172 2_666
