#------------------------------------------------------------------------------
#$Date: 2019-02-22 01:06:46 +0200 (Fri, 22 Feb 2019) $
#$Revision: 213767 $
#$URL: file:///home/coder/svn-repositories/cod/cif/7/12/30/7123024.cif $
#------------------------------------------------------------------------------
#
# This file is available in the Crystallography Open Database (COD),
# http://www.crystallography.net/
#
# All data on this site have been placed in the public domain by the
# contributors.
#
data_7123024
loop_
_publ_author_name
'Crawford, Adam W.'
'Groeneman , Ryan'
'Unruh, Daniel K.'
'Hutchins, Kristin M.'
_publ_section_title
;
 Cooling-rate dependent single-crystal-to-single-crystal phase transition
 in an organic co-crystal
;
_journal_name_full               'Chemical Communications'
_journal_paper_doi               10.1039/C9CC00836E
_journal_year                    2019
_chemical_formula_sum            'C18 H12 Br4 N2'
_chemical_formula_weight         575.94
_space_group_IT_number           2
_symmetry_cell_setting           triclinic
_symmetry_Int_Tables_number      2
_symmetry_space_group_name_Hall  '-P 1'
_symmetry_space_group_name_H-M   'P -1'
_atom_sites_solution_hydrogens   geom
_atom_sites_solution_primary     dual
_atom_sites_solution_secondary   difmap
_audit_creation_date             2018-10-31T15:20:46-00:00
_audit_creation_method           'WinGX routine CIF_UPDATE'
_audit_update_record
;
2019-01-09 deposited with the CCDC.    2019-02-21 downloaded from the CCDC.
;
_cell_angle_alpha                102.810(2)
_cell_angle_beta                 93.204(2)
_cell_angle_gamma                94.321(2)
_cell_formula_units_Z            2
_cell_length_a                   3.9826(2)
_cell_length_b                   13.4966(7)
_cell_length_c                   17.2973(8)
_cell_measurement_reflns_used    4641
_cell_measurement_temperature    229(2)
_cell_measurement_theta_max      27.32
_cell_measurement_theta_min      2.42
_cell_volume                     901.52(8)
_computing_cell_refinement       'Bruker SAINT'
_computing_data_collection       'Bruker APEX2'
_computing_data_reduction        'Bruker SAINT'
_computing_structure_refinement  'SHELXL-2016/6 (Sheldrick, 2016)'
_computing_structure_solution    'SHELXT 2014/5 (Sheldrick, 2014)'
_diffrn_ambient_temperature      229(2)
_diffrn_measured_fraction_theta_full 0.999
_diffrn_measured_fraction_theta_max 0.99
_diffrn_measurement_device_type  'Bruker APEX-II CCD'
_diffrn_measurement_method       '\f and \w scans'
_diffrn_radiation_monochromator  graphite
_diffrn_radiation_source         'fine-focus sealed tube'
_diffrn_radiation_type           MoK\a
_diffrn_radiation_wavelength     0.71073
_diffrn_reflns_av_R_equivalents  0.0837
_diffrn_reflns_av_unetI/netI     0.0646
_diffrn_reflns_Laue_measured_fraction_full 0.999
_diffrn_reflns_Laue_measured_fraction_max 0.99
_diffrn_reflns_limit_h_max       5
_diffrn_reflns_limit_h_min       -5
_diffrn_reflns_limit_k_max       17
_diffrn_reflns_limit_k_min       -17
_diffrn_reflns_limit_l_max       22
_diffrn_reflns_limit_l_min       -22
_diffrn_reflns_number            14172
_diffrn_reflns_point_group_measured_fraction_full 0.999
_diffrn_reflns_point_group_measured_fraction_max 0.99
_diffrn_reflns_theta_full        25.242
_diffrn_reflns_theta_max         27.575
_diffrn_reflns_theta_min         1.554
_exptl_absorpt_coefficient_mu    8.93
_exptl_absorpt_correction_T_max  0.8621
_exptl_absorpt_correction_T_min  0.5748
_exptl_absorpt_correction_type   multi-scan
_exptl_absorpt_process_details   SADABS
_exptl_crystal_colour            colourless
_exptl_crystal_density_diffrn    2.122
_exptl_crystal_description       rod
_exptl_crystal_F_000             548
_exptl_crystal_recrystallization_method 'Re-crystallisation from solvent'
_exptl_crystal_size_max          0.468
_exptl_crystal_size_mid          0.202
_exptl_crystal_size_min          0.177
_refine_diff_density_max         1.225
_refine_diff_density_min         -1.13
_refine_diff_density_rms         0.146
_refine_ls_extinction_method     none
_refine_ls_goodness_of_fit_ref   0.934
_refine_ls_hydrogen_treatment    constr
_refine_ls_matrix_type           full
_refine_ls_number_parameters     271
_refine_ls_number_reflns         4140
_refine_ls_number_restraints     244
_refine_ls_restrained_S_all      0.908
_refine_ls_R_factor_all          0.0623
_refine_ls_R_factor_gt           0.0411
_refine_ls_shift/su_max          0.001
_refine_ls_shift/su_mean         0
_refine_ls_structure_factor_coef Fsqd
_refine_ls_weighting_details
'w=1/[\s^2^(Fo^2^)+(0.0461P)^2^] where P=(Fo^2^+2Fc^2^)/3'
_refine_ls_weighting_scheme      calc
_refine_ls_wR_factor_gt          0.0943
_refine_ls_wR_factor_ref         0.0994
_reflns_Friedel_coverage         0
_reflns_number_gt                2762
_reflns_number_total             4140
_reflns_threshold_expression     'I > 2\s(I)'
_cod_data_source_file            c9cc00836e2.cif
_cod_data_source_block           TBrB_BPE_230K
_cod_original_cell_volume        901.51(8)
_cod_database_code               7123024
_shelx_estimated_absorpt_t_min   0.103
_shelx_estimated_absorpt_t_max   0.301
_shelx_res_file
;
TITL r4118-230K in P-1
    r4118-230K.res
    created by SHELXL-2016/6 at 16:41:53 on 11-Oct-2018
CELL 0.71073   3.98260  13.49660  17.29730 102.8103  93.2044  94.3211
ZERR    2.00   0.00020   0.00070   0.00080   0.0023   0.0022   0.0022
LATT  1
SFAC  C H BR N
UNIT  36 24 8 4
TEMP  -44.11
SIZE  0.177 0.202 0.468
L.S.  10
EQIV  $1  -x+2, -y, -z+1
EQIV  $2  -x+1, -y, -z
HTAB
HTAB  C7 N1
HTAB  C16 N2A_$1
HTAB  C16 N2B_$1
BOND  $H
ACTA
LIST  4
FMAP  2

OMIT 0 0 1

SIMU 0.02 N2A N2B C10A C10B C11A C11B C12A C12B C13A C13B C14A C14B C15A C15B
DELU 0.01 N2A N2B C10A C10B C11A C11B C12A C12B C13A C13B C14A C14B C15A C15B

DFIX 31 C12A C15A C12B C15B
DFIX 41 C15A C15A_$2 C15B C15B_$2

PLAN  50
WGHT    0.046100
FVAR       0.40198   0.94775   1.48928   1.29567
BR1   3   -0.283313    0.711972   -0.025427    11.00000    0.04307    0.04024 =
         0.04445    0.02091    0.00435    0.00966
BR2   3    0.037555    0.691580    0.154194    11.00000    0.05369    0.04446 =
         0.03129    0.00347    0.00149    0.00586
BR3   3    0.542483    0.215512    0.444053    11.00000    0.05466    0.03678 =
         0.04599    0.01915    0.00386    0.00346
BR4   3    0.885947    0.199682    0.623340    11.00000    0.04272    0.03989 =
         0.03564   -0.00346   -0.00317   -0.00491
N1    4    0.590135    0.470035    0.234533    11.00000    0.05880    0.05264 =
         0.02872    0.01465    0.00184    0.01056
C1    1    0.573762    0.548145    0.296148    11.00000    0.04503    0.04452 =
         0.03923    0.01979    0.00106    0.00987
AFIX  43
H1    2    0.470902    0.605336    0.286965    11.00000   -1.20000
AFIX   0
C2    1    0.698196    0.550475    0.372630    11.00000    0.04339    0.03863 =
         0.02480    0.01238    0.00393    0.00329
AFIX  43
H2    2    0.676473    0.607351    0.414076    11.00000   -1.20000
AFIX   0
C3    1    0.855018    0.468120    0.387426    11.00000    0.03099    0.03757 =
         0.02407    0.01353    0.00354   -0.00298
C4    1    0.869999    0.386827    0.325277    11.00000    0.05231    0.03934 =
         0.03202    0.01059   -0.00067    0.00769
AFIX  43
H4    2    0.968481    0.328336    0.333117    11.00000   -1.20000
AFIX   0
C5    1    0.738284    0.391363    0.250317    11.00000    0.06663    0.04761 =
         0.02610    0.00376    0.00413    0.00988
AFIX  43
H5    2    0.755218    0.335053    0.208044    11.00000   -1.20000
AFIX   0
C6    1    1.002471    0.465082    0.467431    11.00000    0.03574    0.03329 =
         0.03062    0.01406   -0.00096    0.00252
AFIX  43
H6    2    1.110608    0.406700    0.471493    11.00000   -1.20000
AFIX   0
C7    1    0.135421    0.491316    0.073318    11.00000    0.03140    0.03876 =
         0.02258    0.01413    0.00070    0.00189
AFIX  43
H7    2    0.228161    0.485561    0.123142    11.00000   -1.20000
AFIX   0
C8    1    0.015305    0.581932    0.064374    11.00000    0.03055    0.03594 =
         0.02298    0.00639    0.00389   -0.00208
C9    1   -0.118955    0.589451   -0.009800    11.00000    0.02648    0.03377 =
         0.02983    0.01630    0.00564    0.00301

PART  1
N2A   4    0.885094    0.023703    0.266612    21.00000    0.04798    0.05818 =
         0.02387    0.01318    0.00256    0.01398
C10A  1    0.991546    0.098500    0.234392    21.00000    0.04984    0.04951 =
         0.03438    0.00546   -0.00467    0.01089
AFIX  43
H10A  2    1.134906    0.152428    0.266239    21.00000   -1.20000
AFIX   0
C11A  1    0.907346    0.103420    0.156861    21.00000    0.04315    0.04686 =
         0.03275    0.01498    0.00417    0.00923
AFIX  43
H11A  2    0.991800    0.159321    0.137351    21.00000   -1.20000
AFIX   0
C12A  1    0.699307    0.025947    0.108614    21.00000    0.04121    0.04844 =
         0.01702    0.01018    0.00714    0.01609
C13A  1    0.584103   -0.054172    0.141572    21.00000    0.03989    0.04296 =
         0.02968    0.00700    0.00162    0.01113
AFIX  43
H13A  2    0.439163   -0.108975    0.111388    21.00000   -1.20000
AFIX   0
C14A  1    0.686990   -0.051484    0.219410    21.00000    0.04858    0.04778 =
         0.02779    0.01702    0.00863    0.01534
AFIX  43
H14A  2    0.611436   -0.106879    0.240590    21.00000   -1.20000
AFIX   0
C15A  1    0.606082    0.031636    0.025333    21.00000    0.03815    0.04280 =
         0.02533    0.01471    0.00404    0.01032
AFIX  43
H15A  2    0.711034    0.086419    0.007611    21.00000   -1.20000
AFIX  66

PART  2
N2B   4    0.943085    0.030426    0.256216   -21.00000    0.04453    0.04921 =
         0.02525    0.01338    0.00191    0.01526
C10B  1    0.972399    0.116343    0.224359   -21.00000    0.04385    0.04834 =
         0.02654    0.01352    0.00011    0.01130
AFIX  43
H10B  2    1.080336    0.178009    0.255019   -21.00000   -1.20000
AFIX  65
C11B  1    0.842104    0.111074    0.147165   -21.00000    0.04360    0.04528 =
         0.02448    0.01253    0.00152    0.01268
AFIX  43
H11B  2    0.861928    0.169177    0.125621   -21.00000   -1.20000
AFIX  65
C12B  1    0.682495    0.019888    0.101827   -21.00000    0.03987    0.04513 =
         0.02353    0.01230    0.00294    0.01129
C13B  1    0.653180   -0.066030    0.133684   -21.00000    0.04124    0.04556 =
         0.02351    0.01279    0.00530    0.01410
AFIX  43
H13B  2    0.545242   -0.127696    0.103023   -21.00000   -1.20000
AFIX  65
C14B  1    0.783473   -0.060763    0.210878   -21.00000    0.04468    0.04655 =
         0.02636    0.01538    0.00385    0.01481
AFIX  43
H14B  2    0.763648   -0.118866    0.232421   -21.00000   -1.20000
AFIX   0

C15B  1    0.500850   -0.030845    0.023718   -21.00000    0.03831    0.04345 =
         0.02301    0.01415    0.00199    0.00904
AFIX  43
H15B  2    0.401297   -0.098395    0.010770   -21.00000   -1.20000
AFIX   0
PART  0
C16   1    0.645872   -0.007403    0.572546    11.00000    0.02856    0.03683 =
         0.02056    0.00671    0.00188    0.00579
AFIX  43
H16   2    0.745785   -0.012265    0.621947    11.00000   -1.20000
AFIX   0
C17   1    0.663081    0.085451    0.550962    11.00000    0.02166    0.03482 =
         0.02231    0.00012    0.00083   -0.00084
C18   1    0.516422    0.092222    0.477915    11.00000    0.02812    0.03044 =
         0.02681    0.00993    0.00703    0.00528
HKLF 4




REM  r4118-230K in P-1
REM R1 =  0.0411 for    2762 Fo > 4sig(Fo)  and  0.0623 for all    4140 data
REM    271 parameters refined using    244 restraints

END

WGHT      0.0461      0.0000

REM Instructions for potential hydrogen bonds
HTAB C7 N1
EQIV $6 -x+1, -y+1, -z
HTAB C11A Br1_$6
HTAB C11B Br1_$6
EQIV $7 x+1, y-1, z
HTAB C13B Br1_$7
HTAB C14B Br2_$7
HTAB C16 N2A_$1
HTAB C16 N2B_$1

REM Highest difference peak  1.225,  deepest hole -1.130,  1-sigma level  0.146
Q1    1   0.8935  0.1282  0.6012  11.00000  0.05    1.22
Q2    1   0.5554  0.1460  0.4202  11.00000  0.05    1.19
Q3    1  -0.3081  0.7807  0.0074  11.00000  0.05    1.18
Q4    1   0.0477  0.6194  0.1375  11.00000  0.05    1.17
Q5    1   0.8753  0.2726  0.6405  11.00000  0.05    1.15
Q6    1  -0.2725  0.6393 -0.0438  11.00000  0.05    1.13
Q7    1   0.5239  0.2868  0.4755  11.00000  0.05    1.08
Q8    1   0.0183  0.7610  0.1841  11.00000  0.05    1.07
Q9    1   0.4681 -0.0273  0.5543  11.00000  0.05    0.47
Q10   1   0.3396  0.0630  0.4666  11.00000  0.05    0.41
Q11   1   0.5431  0.3504  0.4747  11.00000  0.05    0.38
Q12   1   0.6493  0.0231  0.5507  11.00000  0.05    0.37
Q13   1   0.6103 -0.1843  0.0676  11.00000  0.05    0.37
Q14   1   0.7102  0.0926  0.1401  11.00000  0.05    0.36
Q15   1   0.1262  0.6599  0.3369  11.00000  0.05    0.36
Q16   1   0.3682  0.0769  0.4392  11.00000  0.05    0.35
Q17   1   0.5852  0.6821  0.4380  11.00000  0.05    0.35
Q18   1   0.7749  0.4584  0.2704  11.00000  0.05    0.33
Q19   1  -0.1221  0.5772  0.0198  11.00000  0.05    0.33
Q20   1   0.5219  0.0936  0.5083  11.00000  0.05    0.33
Q21   1   0.8771  0.0597  0.6290  11.00000  0.05    0.32
Q22   1   0.1495  0.5420  0.0710  11.00000  0.05    0.32
Q23   1   0.2744  0.4763  0.0379  11.00000  0.05    0.31
Q24   1   0.1335  0.5550  0.0910  11.00000  0.05    0.31
Q25   1   0.1209  0.5838  0.0359  11.00000  0.05    0.30
Q26   1  -0.2657  0.5749 -0.0473  11.00000  0.05    0.29
Q27   1  -0.0580  0.6115 -0.0298  11.00000  0.05    0.29
Q28   1  -0.0619  0.5445 -0.0329  11.00000  0.05    0.29
Q29   1   0.6132 -0.1583  0.1321  11.00000  0.05    0.29
Q30   1   0.2043  0.4868  0.0976  11.00000  0.05    0.29
Q31   1   1.0523  0.6582  0.4431  11.00000  0.05    0.29
Q32   1   0.2689  0.2247  0.4373  11.00000  0.05    0.28
Q33   1   0.4115  0.2373  0.6371  11.00000  0.05    0.28
Q34   1   0.6878 -0.1607  0.0219  11.00000  0.05    0.28
Q35   1   1.0782  0.6597  0.3792  11.00000  0.05    0.28
Q36   1  -0.2905  0.8336 -0.0267  11.00000  0.05    0.28
Q37   1   0.0329  0.5630  0.1630  11.00000  0.05    0.28
Q38   1   0.8522  0.3034  0.3202  11.00000  0.05    0.27
Q39   1  -0.3247  0.5218 -0.0013  11.00000  0.05    0.27
Q40   1   0.6673  0.4823  0.3761  11.00000  0.05    0.27
Q41   1   0.9156  0.0428  0.1291  11.00000  0.05    0.26
Q42   1   0.8907  0.4647  0.4187  11.00000  0.05    0.26
Q43   1  -0.1842  0.6831  0.1367  11.00000  0.05    0.26
Q44   1   0.6734  0.1412  0.0514  11.00000  0.05    0.26
Q45   1   1.1583  0.6043  0.3928  11.00000  0.05    0.26
Q46   1   0.0239  0.8194  0.1535  11.00000  0.05    0.25
Q47   1   0.3756  0.0282  0.0209  11.00000  0.05    0.25
Q48   1   0.1147 -0.0766  0.1291  11.00000  0.05    0.25
Q49   1   0.3440 -0.2149  0.0710  11.00000  0.05    0.25
Q50   1   0.2316  0.0624  0.0481  11.00000  0.05    0.25
;
_shelx_res_checksum              63565
loop_
_symmetry_equiv_pos_as_xyz
'x, y, z'
'-x, -y, -z'
loop_
_atom_site_label
_atom_site_type_symbol
_atom_site_fract_x
_atom_site_fract_y
_atom_site_fract_z
_atom_site_U_iso_or_equiv
_atom_site_adp_type
_atom_site_occupancy
_atom_site_site_symmetry_order
_atom_site_calc_flag
_atom_site_refinement_flags_posn
_atom_site_refinement_flags_adp
_atom_site_refinement_flags_occupancy
_atom_site_disorder_assembly
_atom_site_disorder_group
Br1 Br -0.28331(11) 0.71197(3) -0.02543(3) 0.04047(14) Uani 1 1 d . . . . .
Br2 Br 0.03756(12) 0.69158(4) 0.15419(3) 0.04394(15) Uani 1 1 d . . . . .
Br3 Br 0.54248(12) 0.21551(3) 0.44405(3) 0.04431(15) Uani 1 1 d . . . . .
Br4 Br 0.88595(11) 0.19968(3) 0.62334(3) 0.04198(14) Uani 1 1 d . . . . .
N1 N 0.5901(10) 0.4700(3) 0.2345(2) 0.0456(10) Uani 1 1 d . . . . .
C1 C 0.5738(11) 0.5481(4) 0.2961(3) 0.0411(11) Uani 1 1 d . . . . .
H1 H 0.470902 0.605336 0.286965 0.049 Uiso 1 1 calc R U . . .
C2 C 0.6982(10) 0.5505(3) 0.3726(2) 0.0348(10) Uani 1 1 d . . . . .
H2 H 0.676473 0.607351 0.414076 0.042 Uiso 1 1 calc R U . . .
C3 C 0.8550(10) 0.4681(3) 0.3874(2) 0.0301(9) Uani 1 1 d . . . . .
C4 C 0.8700(11) 0.3868(3) 0.3253(3) 0.0408(11) Uani 1 1 d . . . . .
H4 H 0.968481 0.328336 0.333117 0.049 Uiso 1 1 calc R U . . .
C5 C 0.7383(12) 0.3914(4) 0.2503(3) 0.0472(12) Uani 1 1 d . . . . .
H5 H 0.755218 0.335053 0.208044 0.057 Uiso 1 1 calc R U . . .
C6 C 1.0025(10) 0.4651(3) 0.4674(2) 0.0323(10) Uani 1 1 d . . . . .
H6 H 1.110608 0.4067 0.471493 0.039 Uiso 1 1 calc R U . . .
C7 C 0.1354(9) 0.4913(3) 0.0733(2) 0.0299(9) Uani 1 1 d . . . . .
H7 H 0.228161 0.485561 0.123142 0.036 Uiso 1 1 calc R U . . .
C8 C 0.0153(9) 0.5819(3) 0.0644(2) 0.0301(9) Uani 1 1 d . . . . .
C9 C -0.1190(9) 0.5895(3) -0.0098(2) 0.0285(9) Uani 1 1 d . . . . .
N2A N 0.8851(15) 0.0237(5) 0.2666(3) 0.0423(14) Uani 0.948(10) 1 d . U P A 1
C10A C 0.9915(19) 0.0985(5) 0.2344(4) 0.0452(16) Uani 0.948(10) 1 d . U P A 1
H10A H 1.134906 0.152428 0.266239 0.054 Uiso 0.948(10) 1 calc R U P A 1
C11A C 0.9073(17) 0.1034(5) 0.1569(4) 0.0397(15) Uani 0.948(10) 1 d . U P A 1
H11A H 0.9918 0.159321 0.137351 0.048 Uiso 0.948(10) 1 calc R U P A 1
C12A C 0.699(2) 0.0259(6) 0.1086(3) 0.0343(11) Uani 0.948(10) 1 d D U P A 1
C13A C 0.5841(15) -0.0542(5) 0.1416(4) 0.0374(15) Uani 0.948(10) 1 d . U P A 1
H13A H 0.439163 -0.108975 0.111388 0.045 Uiso 0.948(10) 1 calc R U P A 1
C14A C 0.6870(14) -0.0515(5) 0.2194(4) 0.0393(14) Uani 0.948(10) 1 d . U P A 1
H14A H 0.611436 -0.106879 0.24059 0.047 Uiso 0.948(10) 1 calc R U P A 1
C15A C 0.6061(11) 0.0316(4) 0.0253(3) 0.0339(14) Uani 0.948(10) 1 d D U P A 1
H15A H 0.711034 0.086419 0.007611 0.041 Uiso 0.948(10) 1 calc R U P A 1
N2B N 0.94(3) 0.030(10) 0.256(5) 0.038(5) Uani 0.052(10) 1 d G U P A 2
C10B C 0.97(3) 0.116(8) 0.224(6) 0.039(5) Uani 0.052(10) 1 d G U P A 2
H10B H 1.080336 0.178009 0.255019 0.046 Uiso 0.052(10) 1 calc R U P A 2
C11B C 0.84(4) 0.111(9) 0.147(7) 0.037(5) Uani 0.052(10) 1 d G U P A 2
H11B H 0.861928 0.169177 0.125621 0.044 Uiso 0.052(10) 1 calc R U P A 2
C12B C 0.68(3) 0.020(10) 0.102(5) 0.035(4) Uani 0.052(10) 1 d DG U P A 2
C13B C 0.65(3) -0.066(8) 0.134(7) 0.035(5) Uani 0.052(10) 1 d G U P A 2
H13B H 0.545242 -0.127696 0.103023 0.042 Uiso 0.052(10) 1 calc R U P A 2
C14B C 0.78(3) -0.061(8) 0.211(7) 0.037(5) Uani 0.052(10) 1 d G U P A 2
H14B H 0.763648 -0.118866 0.232421 0.045 Uiso 0.052(10) 1 calc R U P A 2
C15B C 0.50(2) -0.031(5) 0.024(4) 0.034(6) Uani 0.052(10) 1 d D U P A 2
H15B H 0.401297 -0.098395 0.01077 0.04 Uiso 0.052(10) 1 calc R U P A 2
C16 C 0.6459(9) -0.0074(3) 0.5725(2) 0.0285(9) Uani 1 1 d . . . . .
H16 H 0.745785 -0.012265 0.621947 0.034 Uiso 1 1 calc R U . . .
C17 C 0.6631(9) 0.0855(3) 0.5510(2) 0.0275(9) Uani 1 1 d . . . . .
C18 C 0.5164(9) 0.0922(3) 0.4779(2) 0.0276(9) Uani 1 1 d . . . . .
loop_
_atom_site_aniso_label
_atom_site_aniso_U_11
_atom_site_aniso_U_22
_atom_site_aniso_U_33
_atom_site_aniso_U_23
_atom_site_aniso_U_13
_atom_site_aniso_U_12
Br1 0.0431(3) 0.0402(3) 0.0445(3) 0.0209(2) 0.0044(2) 0.0097(2)
Br2 0.0537(3) 0.0445(3) 0.0313(3) 0.0035(2) 0.0015(2) 0.0059(2)
Br3 0.0547(3) 0.0368(3) 0.0460(3) 0.0192(2) 0.0039(2) 0.0035(2)
Br4 0.0427(3) 0.0399(3) 0.0356(3) -0.0035(2) -0.0032(2) -0.0049(2)
N1 0.059(3) 0.053(3) 0.029(2) 0.015(2) 0.0018(18) 0.011(2)
C1 0.045(3) 0.045(3) 0.039(3) 0.020(2) 0.001(2) 0.010(2)
C2 0.043(2) 0.039(3) 0.025(2) 0.012(2) 0.0039(19) 0.003(2)
C3 0.031(2) 0.038(2) 0.024(2) 0.0135(19) 0.0035(17) -0.0030(18)
C4 0.052(3) 0.039(3) 0.032(3) 0.011(2) -0.001(2) 0.008(2)
C5 0.067(3) 0.048(3) 0.026(3) 0.004(2) 0.004(2) 0.010(2)
C6 0.036(2) 0.033(3) 0.031(2) 0.0141(18) -0.0010(19) 0.0025(19)
C7 0.031(2) 0.039(3) 0.023(2) 0.0141(19) 0.0007(17) 0.0019(18)
C8 0.031(2) 0.036(2) 0.023(2) 0.0064(19) 0.0039(17) -0.0021(18)
C9 0.026(2) 0.034(2) 0.030(2) 0.0163(19) 0.0056(17) 0.0030(17)
N2A 0.048(3) 0.058(3) 0.024(2) 0.013(2) 0.003(2) 0.014(2)
C10A 0.050(3) 0.050(4) 0.034(3) 0.005(3) -0.005(2) 0.011(3)
C11A 0.043(4) 0.047(3) 0.033(3) 0.015(2) 0.004(2) 0.009(2)
C12A 0.041(3) 0.048(3) 0.017(2) 0.010(2) 0.0071(19) 0.016(2)
C13A 0.040(3) 0.043(3) 0.030(3) 0.007(2) 0.002(2) 0.011(2)
C14A 0.049(4) 0.048(3) 0.028(3) 0.017(2) 0.009(2) 0.015(2)
C15A 0.038(3) 0.043(3) 0.025(3) 0.015(2) 0.0040(19) 0.010(2)
N2B 0.045(10) 0.049(9) 0.025(9) 0.013(7) 0.002(9) 0.015(9)
C10B 0.044(10) 0.048(8) 0.027(8) 0.014(8) 0.000(9) 0.011(9)
C11B 0.044(10) 0.045(8) 0.024(8) 0.013(8) 0.002(9) 0.013(9)
C12B 0.040(8) 0.045(8) 0.024(7) 0.012(6) 0.003(8) 0.011(8)
C13B 0.041(10) 0.046(8) 0.024(8) 0.013(8) 0.005(9) 0.014(9)
C14B 0.045(10) 0.047(8) 0.026(8) 0.015(8) 0.004(9) 0.015(9)
C15B 0.038(12) 0.043(12) 0.023(10) 0.014(9) 0.002(10) 0.009(11)
C16 0.029(2) 0.037(2) 0.021(2) 0.0067(18) 0.0019(17) 0.0058(17)
C17 0.0217(18) 0.035(2) 0.022(2) 0.0001(18) 0.0008(16) -0.0008(16)
C18 0.028(2) 0.030(2) 0.027(2) 0.0099(18) 0.0070(17) 0.0053(17)
loop_
_atom_type_symbol
_atom_type_description
_atom_type_scat_dispersion_real
_atom_type_scat_dispersion_imag
_atom_type_scat_source
C C 0.0033 0.0016 'International Tables Vol C Tables 4.2.6.8 and 6.1.1.4'
H H 0 0 'International Tables Vol C Tables 4.2.6.8 and 6.1.1.4'
Br Br -0.2901 2.4595 'International Tables Vol C Tables 4.2.6.8 and 6.1.1.4'
N N 0.0061 0.0033 'International Tables Vol C Tables 4.2.6.8 and 6.1.1.4'
loop_
_geom_angle_atom_site_label_1
_geom_angle_atom_site_label_2
_geom_angle_atom_site_label_3
_geom_angle
_geom_angle_site_symmetry_1
C5 N1 C1 115.8(4) .
N1 C1 C2 124.1(4) .
N1 C1 H1 117.9 .
C2 C1 H1 117.9 .
C1 C2 C3 119.0(4) .
C1 C2 H2 120.5 .
C3 C2 H2 120.5 .
C4 C3 C2 117.6(4) .
C4 C3 C6 119.7(4) .
C2 C3 C6 122.7(4) .
C3 C4 C5 119.3(4) .
C3 C4 H4 120.4 .
C5 C4 H4 120.4 .
N1 C5 C4 124.1(4) .
N1 C5 H5 117.9 .
C4 C5 H5 117.9 .
C6 C6 C3 126.7(5) 2_766
C6 C6 H6 116.7 2_766
C3 C6 H6 116.7 .
C9 C7 C8 119.8(4) 2_565
C9 C7 H7 120.1 2_565
C8 C7 H7 120.1 .
C7 C8 C9 119.4(4) .
C7 C8 Br2 118.5(3) .
C9 C8 Br2 122.1(3) .
C7 C9 C8 120.8(4) 2_565
C7 C9 Br1 118.1(3) 2_565
C8 C9 Br1 121.1(3) .
C10A N2A C14A 115.9(4) .
N2A C10A C11A 124.5(5) .
N2A C10A H10A 117.8 .
C11A C10A H10A 117.8 .
C12A C11A C10A 119.4(5) .
C12A C11A H11A 120.3 .
C10A C11A H11A 120.3 .
C11A C12A C13A 117.1(4) .
C11A C12A C15A 119.4(6) .
C13A C12A C15A 123.5(6) .
C14A C13A C12A 118.5(4) .
C14A C13A H13A 120.7 .
C12A C13A H13A 120.7 .
N2A C14A C13A 124.6(5) .
N2A C14A H14A 117.7 .
C13A C14A H14A 117.7 .
C15A C15A C12A 126.4(7) 2_655
C15A C15A H15A 116.8 2_655
C12A C15A H15A 116.8 .
C10B N2B C14B 120 .
C11B C10B N2B 120.00(7) .
C11B C10B H10B 120 .
N2B C10B H10B 120 .
C10B C11B C12B 120 .
C10B C11B H11B 120 .
C12B C11B H11B 120 .
C13B C12B C11B 120 .
C13B C12B C15B 95(8) .
C11B C12B C15B 145(8) .
C12B C13B C14B 120 .
C12B C13B H13B 120 .
C14B C13B H13B 120 .
C13B C14B N2B 120 .
C13B C14B H14B 120 .
N2B C14B H14B 120 .
C15B C15B C12B 111(8) 2_655
C15B C15B H15B 124.7 2_655
C12B C15B H15B 124.7 .
C18 C16 C17 120.1(4) 2_656
C18 C16 H16 120 2_656
C17 C16 H16 120 .
C16 C17 C18 119.8(3) .
C16 C17 Br4 118.1(3) .
C18 C17 Br4 122.1(3) .
C16 C18 C17 120.1(4) 2_656
C16 C18 Br3 118.1(3) 2_656
C17 C18 Br3 121.7(3) .
loop_
_geom_bond_atom_site_label_1
_geom_bond_atom_site_label_2
_geom_bond_distance
_geom_bond_site_symmetry_2
Br1 C9 1.891(4) .
Br2 C8 1.886(4) .
Br3 C18 1.880(4) .
Br4 C17 1.883(4) .
N1 C5 1.325(6) .
N1 C1 1.331(6) .
C1 C2 1.379(6) .
C1 H1 0.94 .
C2 C3 1.380(6) .
C2 H2 0.94 .
C3 C4 1.363(6) .
C3 C6 1.483(5) .
C4 C5 1.387(6) .
C4 H4 0.94 .
C5 H5 0.94 .
C6 C6 1.301(8) 2_766
C6 H6 0.94 .
C7 C9 1.360(5) 2_565
C7 C8 1.383(5) .
C7 H7 0.94 .
C8 C9 1.390(5) .
N2A C10A 1.312(7) .
N2A C14A 1.326(6) .
C10A C11A 1.381(6) .
C10A H10A 0.94 .
C11A C12A 1.372(6) .
C11A H11A 0.94 .
C12A C13A 1.390(6) .
C12A C15A 1.487(7) .
C13A C14A 1.377(6) .
C13A H13A 0.94 .
C14A H14A 0.94 .
C15A C15A 1.299(8) 2_655
C15A H15A 0.94 .
N2B C10B 1.39 .
N2B C14B 1.39 .
C10B C11B 1.39 .
C10B H10B 0.94 .
C11B C12B 1.39 .
C11B H11B 0.94 .
C12B C13B 1.39 .
C12B C15B 1.49(3) .
C13B C14B 1.39 .
C13B H13B 0.94 .
C14B H14B 0.94 .
C15B C15B 1.29(3) 2_655
C15B H15B 0.94 .
C16 C18 1.368(5) 2_656
C16 C17 1.383(5) .
C16 H16 0.94 .
C17 C18 1.387(5) .
loop_
_geom_hbond_atom_site_label_D
_geom_hbond_atom_site_label_H
_geom_hbond_atom_site_label_A
_geom_hbond_distance_DH
_geom_hbond_distance_HA
_geom_hbond_distance_DA
_geom_hbond_angle_DHA
_geom_hbond_site_symmetry_A
C7 H7 N1 0.94 2.4 3.318(5) 166.1 .
C16 H16 N2A 0.94 2.4 3.321(6) 167.2 2_756
C16 H16 N2B 0.94 2.45 3.39(8) 174.2 2_756
