#------------------------------------------------------------------------------
#$Date: 2019-07-26 03:03:56 +0300 (Fri, 26 Jul 2019) $
#$Revision: 217258 $
#$URL: file:///home/coder/svn-repositories/cod/cif/7/12/39/7123914.cif $
#------------------------------------------------------------------------------
#
# This file is available in the Crystallography Open Database (COD),
# http://www.crystallography.net/
#
# All data on this site have been placed in the public domain by the
# contributors.
#
data_7123914
loop_
_publ_author_name
'Guo, Yuanyuan'
'McNulty, Jason A.'
'Mica, Natalie'
'Samuel, Ifor D. W.'
'Slawin, Alexandra'
'Buehl, Michael'
'Lightfoot, Philip'
_publ_section_title
;
 Structure-directing effects in (110)-layered hybrid perovskites
 containing two distinct organic moieties
;
_journal_name_full               'Chemical Communications'
_journal_paper_doi               10.1039/C9CC04964A
_journal_year                    2019
_chemical_formula_moiety         'Br4 Pb, C3 H5 N2, C H6 N3'
_chemical_formula_sum            'C4 H11 Br4 N5 Pb'
_chemical_formula_weight         656.01
_space_group_crystal_system      triclinic
_space_group_IT_number           2
_space_group_name_Hall           '-P 1'
_space_group_name_H-M_alt        'P -1'
_symmetry_space_group_name_Hall  '-P 1'
_symmetry_space_group_name_H-M   'P -1'
_atom_sites_solution_hydrogens   geom
_audit_creation_method           SHELXL-2018/3
_audit_update_record
;
2019-05-30 deposited with the CCDC.    2019-07-24 downloaded from the CCDC.
;
_cell_angle_alpha                93.474(9)
_cell_angle_beta                 92.726(9)
_cell_angle_gamma                91.258(8)
_cell_formula_units_Z            2
_cell_length_a                   6.1106(4)
_cell_length_b                   9.2753(5)
_cell_length_c                   13.0429(9)
_cell_measurement_reflns_used    851
_cell_measurement_temperature    298(2)
_cell_measurement_theta_max      27.5
_cell_measurement_theta_min      2.6
_cell_volume                     736.82(8)
_computing_structure_refinement  'SHELXL-2018/3 (Sheldrick, 2018)'
_diffrn_ambient_temperature      298(2)
_diffrn_measured_fraction_theta_full 0.994
_diffrn_measured_fraction_theta_max 0.994
_diffrn_measurement_device_type
;
Rigaku Mercury2 (2x2 bin mode)
;
_diffrn_radiation_type           MoK\a
_diffrn_radiation_wavelength     0.71075
_diffrn_reflns_av_R_equivalents  0.0831
_diffrn_reflns_av_unetI/netI     0.0920
_diffrn_reflns_Laue_measured_fraction_full 0.994
_diffrn_reflns_Laue_measured_fraction_max 0.994
_diffrn_reflns_limit_h_max       7
_diffrn_reflns_limit_h_min       -7
_diffrn_reflns_limit_k_max       11
_diffrn_reflns_limit_k_min       -11
_diffrn_reflns_limit_l_max       15
_diffrn_reflns_limit_l_min       -15
_diffrn_reflns_number            6253
_diffrn_reflns_point_group_measured_fraction_full 0.994
_diffrn_reflns_point_group_measured_fraction_max 0.994
_diffrn_reflns_theta_full        24.999
_diffrn_reflns_theta_max         24.999
_diffrn_reflns_theta_min         2.779
_diffrn_source                   'Sealed Tube'
_exptl_absorpt_coefficient_mu    22.272
_exptl_absorpt_correction_T_max  1
_exptl_absorpt_correction_T_min  0.461
_exptl_absorpt_correction_type   multi-scan
_exptl_crystal_colour            Colorless
_exptl_crystal_density_diffrn    2.957
_exptl_crystal_description       Platelet
_exptl_crystal_F_000             584
_exptl_crystal_size_max          0.191
_exptl_crystal_size_mid          0.122
_exptl_crystal_size_min          0.073
_refine_diff_density_max         2.833
_refine_diff_density_min         -3.571
_refine_diff_density_rms         0.313
_refine_ls_extinction_method     none
_refine_ls_goodness_of_fit_ref   0.926
_refine_ls_hydrogen_treatment    constr
_refine_ls_matrix_type           full
_refine_ls_number_parameters     140
_refine_ls_number_reflns         2580
_refine_ls_number_restraints     9
_refine_ls_restrained_S_all      0.931
_refine_ls_R_factor_all          0.0654
_refine_ls_R_factor_gt           0.0518
_refine_ls_shift/su_max          0.000
_refine_ls_shift/su_mean         0.000
_refine_ls_structure_factor_coef Fsqd
_refine_ls_weighting_details
'w=1/[\s^2^(Fo^2^)+(0.0589P)^2^] where P=(Fo^2^+2Fc^2^)/3'
_refine_ls_weighting_scheme      calc
_refine_ls_wR_factor_gt          0.1197
_refine_ls_wR_factor_ref         0.1224
_reflns_Friedel_coverage         0.000
_reflns_number_gt                1857
_reflns_number_total             2580
_reflns_threshold_expression     'I > 2\s(I)'
_cod_data_source_file            c9cc04964a2.cif
_cod_data_source_block           shelx_CCDC3
_cod_depositor_comments
;
The following automatic conversions were performed:

'_exptl_absorpt_correction_type' value 'Multi-scan' changed to
'multi-scan' according to
/home/data/users/saulius/crontab/automatic-downloads/rss-feeds/RSC/lib/dictionaries/cif_core.dic
dictionary named 'cif_core.dic' version 2.4.2 from 2011-04-26.

Automatic conversion script
Id: cif_fix_values 4973 2017-02-22 13:04:09Z antanas 
;
_cod_database_code               7123914
_shelx_shelxl_version_number     2018/3
_shelx_space_group_comment
;
The symmetry employed for this shelxl refinement is uniquely defined
by the following loop, which should always be used as a source of
symmetry information in preference to the above space-group names.
They are only intended as comments.
;
_shelx_res_file
;
TITL shelxt_a.res in P-1
    shelx.res
    created by SHELXL-2018/3 at 11:03:38 on 30-May-2019
REM Old TITL  RC14RTB
REM SHELXT solution in P-1: R1 0.054, Rweak 0.004, Alpha 0.031
REM <I/s>   0.000 for    0 systematic absences,  Orientation as input
REM Formula found by SHELXT:  Pb Br4 N2 C7

CELL  0.71075   6.1106   9.2753  13.0429   93.474   92.726   91.258
ZERR    2.000   0.0004   0.0005   0.0009    0.009    0.009    0.008
LATT  1
SFAC PB BR N C H
UNIT 2  8 10 8 22
L.S. 10
DFIX 1.25 .05 C1 N1 C1 N2 C1 N3 C1' N1' C1' N2' C1' N3'
DANG 2.45 N1'  N2' N1' N3' N2' N3'
EADP N1' N2' N3'
BOND
ACTA
OMIT  -3 50
OMIT 0 -1 1
OMIT 0 -3 2
LIST 4
FMAP 2
PLAN 10

WGHT    0.058900
FVAR       0.34645   0.04507   0.23595   0.85497   0.12838   0.28217   0.06258
FVAR       0.03353  -0.02329  -0.01983
PB1   1    0.489735    0.263669    0.162352    11.00000    0.02601    0.03677 =
         0.04296    0.00212    0.00710    0.00184
BR1   2    0.510388    0.492877    0.327897    11.00000    0.06057    0.05216 =
         0.05632   -0.00717    0.01176    0.00622
BR2   2    0.500000    0.000000    0.000000    10.50000    0.05071    0.05887 =
         0.04997   -0.00661    0.00393   -0.00018
BR3   2    0.986237    0.266932    0.159378    11.00000    0.02688    0.06253 =
         0.07282    0.00103    0.00535    0.00111
BR4   2    0.503704    0.053796    0.319440    11.00000    0.06547    0.05585 =
         0.05965    0.01614    0.01671    0.01551
BR5   2    0.500000    0.500000    0.000000    10.50000    0.05333    0.06263 =
         0.05014    0.01211    0.00316   -0.00155
N4    3    0.129139    0.218243    0.464449    11.00000    0.07776    0.12638 =
         0.10506   -0.04666    0.03891   -0.00578
AFIX  43
H7    5    0.241240    0.195517    0.430006    11.00000   -1.20000
AFIX   0
N5    3   -0.152654    0.321427    0.501814    11.00000    0.06525    0.15276 =
         0.10972    0.00298   -0.00633    0.05247
AFIX  43
H8    5   -0.260796    0.379197    0.500670    11.00000   -1.20000
AFIX   0
C2    4   -0.025232    0.306925    0.436000    11.00000    0.08640    0.12725 =
         0.06419    0.00904    0.00535    0.00023
AFIX  43
H9    5   -0.033193    0.351334    0.373935    11.00000   -1.20000
AFIX   0
C3    4    0.083793    0.170495    0.553667    11.00000    0.16497    0.10081 =
         0.08429    0.00841   -0.04058    0.06382
AFIX  43
H10   5    0.162825    0.106282    0.592091    11.00000   -1.20000
AFIX   0
C4    4   -0.104551    0.236140    0.577036    11.00000    0.12883    0.10937 =
         0.05152    0.02474    0.03057   -0.00930
AFIX  43
H11   5   -0.184780    0.223732    0.634826    11.00000   -1.20000
AFIX   0
PART 1
C1    4   21.000000   31.000000   41.000000    10.70000   51.00000   61.00000 =
        71.00000   81.00000   91.00000  101.00000
N1    3    0.228274    0.235960    0.812199    10.70000    0.06308    0.05145 =
         0.08816   -0.00720    0.02232   -0.00894
AFIX  93
H1    5    0.282196    0.315033    0.791688    10.70000   -1.20000
H2    5    0.297993    0.156896    0.803846    10.70000   -1.20000
AFIX   0
N2    3   -0.057904    0.350001    0.867580    10.70000    0.05627    0.04300 =
         0.09051   -0.00262    0.01294    0.02740
AFIX  93
H3    5   -0.188374    0.347303    0.889494    10.70000   -1.20000
H4    5    0.001666    0.431228    0.854349    10.70000   -1.20000
AFIX   0
N3    3   -0.040201    0.116731    0.874027    10.70000    0.06245    0.05580 =
         0.11016    0.00221    0.02864   -0.02636
AFIX  93
H5    5   -0.170599    0.113115    0.895967    10.70000   -1.20000
H6    5    0.031789    0.038688    0.865143    10.70000   -1.20000
AFIX   0
PART 2
C1'   4   21.000000   31.000000   41.000000    10.30000   51.00000   61.00000 =
        71.00000   81.00000   91.00000  101.00000
N1'   3    0.098902    0.367989    0.822490    10.30000    0.11487
AFIX  93
H1'   5    0.199070    0.376255    0.778932    10.30000   -1.20000
H2'   5    0.032806    0.443301    0.845492    10.30000   -1.20000
AFIX   0
N2'   3   -0.177583    0.220190    0.881669    10.30000    0.11487
AFIX  93
H3'   5   -0.241075    0.136216    0.876864    10.30000   -1.20000
H4'   5   -0.248280    0.294667    0.902566    10.30000   -1.20000
AFIX   0
N3'   3    0.137996    0.114127    0.823764    10.30000    0.11487
AFIX  93
H5'   5    0.239248    0.115664    0.780218    10.30000   -1.20000
H6'   5    0.096997    0.033603    0.847075    10.30000   -1.20000
PART 0
AFIX   0
HKLF 4




REM  shelxt_a.res in P-1
REM wR2 = 0.1224, GooF = S = 0.926, Restrained GooF = 0.931 for all data
REM R1 = 0.0518 for 1857 Fo > 4sig(Fo) and 0.0654 for all 2580 data
REM 140 parameters refined using 9 restraints

END

WGHT      0.0588      0.0000

REM Highest difference peak  2.833,  deepest hole -3.571,  1-sigma level  0.313
Q1    1   0.4603  0.3024  0.0962  11.00000  0.05    2.83
Q2    1   0.5142  0.2138  0.2241  11.00000  0.05    2.69
Q3    1   0.4101  0.3530  0.1813  11.00000  0.05    1.84
Q4    1   0.5708  0.1704  0.1485  11.00000  0.05    1.52
Q5    1   0.4530  0.1036  0.2596  11.00000  0.05    1.22
Q6    1   0.4650  0.5590 -0.0613  11.00000  0.05    1.13
Q7    1   1.0057  0.2113  0.2235  11.00000  0.05    1.11
Q8    1   0.5279  0.4390  0.3860  11.00000  0.05    1.10
Q9    1   0.4729  0.0438 -0.0674  11.00000  0.05    1.09
Q10   1   0.3597  0.1177  0.1579  11.00000  0.05    1.08
;
_shelx_res_checksum              24313
loop_
_space_group_symop_operation_xyz
'x, y, z'
'-x, -y, -z'
loop_
_atom_site_label
_atom_site_type_symbol
_atom_site_fract_x
_atom_site_fract_y
_atom_site_fract_z
_atom_site_U_iso_or_equiv
_atom_site_adp_type
_atom_site_occupancy
_atom_site_site_symmetry_order
_atom_site_calc_flag
_atom_site_refinement_flags_posn
_atom_site_refinement_flags_adp
_atom_site_refinement_flags_occupancy
_atom_site_disorder_assembly
_atom_site_disorder_group
Pb1 Pb 0.48974(7) 0.26367(5) 0.16235(4) 0.03507(19) Uani 1 1 d . . . . .
Br1 Br 0.5104(3) 0.49288(17) 0.32790(13) 0.0564(4) Uani 1 1 d . . . . .
Br2 Br 0.500000 0.000000 0.000000 0.0536(6) Uani 1 2 d S . P . .
Br3 Br 0.9862(2) 0.26693(17) 0.15938(14) 0.0541(4) Uani 1 1 d . . . . .
Br4 Br 0.5037(3) 0.05380(18) 0.31944(14) 0.0592(4) Uani 1 1 d . . . . .
Br5 Br 0.500000 0.500000 0.000000 0.0550(6) Uani 1 2 d S . P . .
N4 N 0.129(3) 0.218(2) 0.4644(18) 0.104(7) Uani 1 1 d . . . . .
H7 H 0.241240 0.195517 0.430006 0.125 Uiso 1 1 calc R U . . .
N5 N -0.153(3) 0.321(2) 0.5018(18) 0.109(7) Uani 1 1 d . . . . .
H8 H -0.260796 0.379197 0.500670 0.131 Uiso 1 1 calc R U . . .
C2 C -0.025(4) 0.307(3) 0.4360(18) 0.092(7) Uani 1 1 d . . . . .
H9 H -0.033193 0.351334 0.373935 0.111 Uiso 1 1 calc R U . . .
C3 C 0.084(5) 0.170(3) 0.554(2) 0.117(10) Uani 1 1 d . . . . .
H10 H 0.162825 0.106282 0.592091 0.141 Uiso 1 1 calc R U . . .
C4 C -0.105(4) 0.236(3) 0.5770(17) 0.095(7) Uani 1 1 d . . . . .
H11 H -0.184780 0.223732 0.634826 0.114 Uiso 1 1 calc R U . . .
C1 C 0.045(5) 0.236(3) 0.855(2) 0.158(16) Uani 0.7 1 d D . P A 1
N1 N 0.228(3) 0.236(2) 0.8122(17) 0.068(6) Uani 0.7 1 d D . P A 1
H1 H 0.282196 0.315033 0.791688 0.081 Uiso 0.7 1 calc R U P A 1
H2 H 0.297993 0.156896 0.803846 0.081 Uiso 0.7 1 calc R U P A 1
N2 N -0.058(3) 0.350(2) 0.8676(17) 0.063(6) Uani 0.7 1 d D . P A 1
H3 H -0.188374 0.347303 0.889494 0.075 Uiso 0.7 1 calc R U P A 1
H4 H 0.001666 0.431228 0.854349 0.075 Uiso 0.7 1 calc R U P A 1
N3 N -0.040(3) 0.117(2) 0.8740(19) 0.076(7) Uani 0.7 1 d D . P A 1
H5 H -0.170599 0.113115 0.895967 0.091 Uiso 0.7 1 calc R U P A 1
H6 H 0.031789 0.038688 0.865143 0.091 Uiso 0.7 1 calc R U P A 1
C1' C 0.045(5) 0.236(3) 0.855(2) 0.158(16) Uani 0.3 1 d D . P B 2
N1' N 0.099(10) 0.368(5) 0.822(5) 0.115(13) Uiso 0.3 1 d D . P B 2
H1' H 0.199070 0.376255 0.778932 0.138 Uiso 0.3 1 calc R U P B 2
H2' H 0.032806 0.443301 0.845492 0.138 Uiso 0.3 1 calc R U P B 2
N2' N -0.178(7) 0.220(7) 0.882(5) 0.115(13) Uiso 0.3 1 d D . P B 2
H3' H -0.241075 0.136216 0.876864 0.138 Uiso 0.3 1 calc R U P B 2
H4' H -0.248280 0.294667 0.902566 0.138 Uiso 0.3 1 calc R U P B 2
N3' N 0.138(9) 0.114(5) 0.824(5) 0.115(13) Uiso 0.3 1 d D . P B 2
H5' H 0.239248 0.115664 0.780218 0.138 Uiso 0.3 1 calc R U P B 2
H6' H 0.096997 0.033603 0.847075 0.138 Uiso 0.3 1 calc R U P B 2
loop_
_atom_site_aniso_label
_atom_site_aniso_U_11
_atom_site_aniso_U_22
_atom_site_aniso_U_33
_atom_site_aniso_U_23
_atom_site_aniso_U_13
_atom_site_aniso_U_12
Pb1 0.0260(3) 0.0368(3) 0.0430(4) 0.0021(2) 0.00710(19) 0.00184(17)
Br1 0.0606(9) 0.0522(9) 0.0563(11) -0.0072(8) 0.0118(8) 0.0062(7)
Br2 0.0507(12) 0.0589(13) 0.0500(15) -0.0066(11) 0.0039(10) -0.0002(10)
Br3 0.0269(6) 0.0625(9) 0.0728(12) 0.0010(8) 0.0053(6) 0.0011(6)
Br4 0.0655(10) 0.0558(9) 0.0596(12) 0.0161(8) 0.0167(8) 0.0155(7)
Br5 0.0533(12) 0.0626(14) 0.0501(15) 0.0121(11) 0.0032(10) -0.0016(10)
N4 0.078(12) 0.126(17) 0.105(17) -0.047(14) 0.039(11) -0.006(11)
N5 0.065(11) 0.153(19) 0.110(17) 0.003(14) -0.006(11) 0.052(11)
C2 0.086(16) 0.13(2) 0.064(16) 0.009(14) 0.005(13) 0.000(14)
C3 0.16(3) 0.101(18) 0.084(19) 0.008(15) -0.041(18) 0.064(18)
C4 0.129(19) 0.109(18) 0.052(14) 0.025(12) 0.031(13) -0.009(15)
C1 0.13(3) 0.28(6) 0.06(2) 0.03(3) -0.023(18) -0.02(3)
N1 0.063(13) 0.051(12) 0.088(17) -0.007(11) 0.022(11) -0.009(9)
N2 0.056(12) 0.043(11) 0.091(17) -0.003(10) 0.013(11) 0.027(9)
N3 0.062(13) 0.056(13) 0.11(2) 0.002(12) 0.029(12) -0.026(10)
C1' 0.13(3) 0.28(6) 0.06(2) 0.03(3) -0.023(18) -0.02(3)
loop_
_atom_type_symbol
_atom_type_description
_atom_type_scat_dispersion_real
_atom_type_scat_dispersion_imag
_atom_type_scat_source
Pb Pb -3.3944 10.1111 'International Tables Vol C Tables 4.2.6.8 and 6.1.1.4'
Br Br -0.2901 2.4595 'International Tables Vol C Tables 4.2.6.8 and 6.1.1.4'
N N 0.0061 0.0033 'International Tables Vol C Tables 4.2.6.8 and 6.1.1.4'
C C 0.0033 0.0016 'International Tables Vol C Tables 4.2.6.8 and 6.1.1.4'
H H 0.0000 0.0000 'International Tables Vol C Tables 4.2.6.8 and 6.1.1.4'
loop_
_geom_angle_atom_site_label_1
_geom_angle_atom_site_label_2
_geom_angle_atom_site_label_3
_geom_angle
_geom_angle_site_symmetry_1
_geom_angle_site_symmetry_3
Br4 Pb1 Br1 88.21(5) . .
Br4 Pb1 Br3 90.35(5) . .
Br1 Pb1 Br3 90.57(5) . .
Br4 Pb1 Br3 91.54(5) . 1_455
Br1 Pb1 Br3 89.66(5) . 1_455
Br3 Pb1 Br3 178.10(7) . 1_455
Br4 Pb1 Br2 86.92(4) . .
Br1 Pb1 Br2 174.02(4) . .
Br3 Pb1 Br2 86.00(3) . .
Br3 Pb1 Br2 93.93(3) 1_455 .
Br4 Pb1 Br5 176.44(4) . .
Br1 Pb1 Br5 89.51(4) . .
Br3 Pb1 Br5 86.95(4) . .
Br3 Pb1 Br5 91.17(4) 1_455 .
Br2 Pb1 Br5 95.193(16) . .
Pb1 Br2 Pb1 180.0 . 2_655
Pb1 Br3 Pb1 178.10(7) . 1_655
Pb1 Br5 Pb1 180.0 2_665 .
C3 N4 C2 108.9(19) . .
C2 N5 C4 110(2) . .
N5 C2 N4 110(2) . .
N4 C3 C4 104.0(18) . .
N5 C4 C3 107(2) . .
N2 C1 N3 121(3) . .
N2 C1 N1 121(3) . .
N3 C1 N1 118(3) . .
N3' C1' N1' 124(4) . .
N3' C1' N2' 115(3) . .
N1' C1' N2' 114(3) . .
loop_
_geom_bond_atom_site_label_1
_geom_bond_atom_site_label_2
_geom_bond_distance
_geom_bond_site_symmetry_2
Pb1 Br4 2.9101(18) .
Pb1 Br1 2.9332(16) .
Pb1 Br3 3.0355(14) .
Pb1 Br3 3.0759(14) 1_455
Pb1 Br2 3.1402(6) .
Pb1 Br5 3.1404(6) .
N4 C3 1.31(3) .
N4 C2 1.32(3) .
N5 C2 1.19(3) .
N5 C4 1.32(3) .
C3 C4 1.35(3) .
C1 N2 1.25(3) .
C1 N3 1.26(3) .
C1 N1 1.27(3) .
C1' N3' 1.33(4) .
C1' N1' 1.36(4) .
C1' N2' 1.43(4) .
