#------------------------------------------------------------------------------
#$Date: 2019-02-22 01:06:46 +0200 (Fri, 22 Feb 2019) $
#$Revision: 213767 $
#$URL: file:///home/coder/svn-repositories/cod/cif/7/12/30/7123023.cif $
#------------------------------------------------------------------------------
#
# This file is available in the Crystallography Open Database (COD),
# http://www.crystallography.net/
#
# All data on this site have been placed in the public domain by the
# contributors.
#
data_7123023
loop_
_publ_author_name
'Crawford, Adam W.'
'Groeneman , Ryan'
'Unruh, Daniel K.'
'Hutchins, Kristin M.'
_publ_section_title
;
 Cooling-rate dependent single-crystal-to-single-crystal phase transition
 in an organic co-crystal
;
_journal_name_full               'Chemical Communications'
_journal_paper_doi               10.1039/C9CC00836E
_journal_year                    2019
_chemical_formula_sum            'C18 H12 Br4 N2'
_chemical_formula_weight         575.94
_space_group_IT_number           2
_symmetry_cell_setting           triclinic
_symmetry_Int_Tables_number      2
_symmetry_space_group_name_Hall  '-P 1'
_symmetry_space_group_name_H-M   'P -1'
_atom_sites_solution_hydrogens   geom
_atom_sites_solution_primary     dual
_atom_sites_solution_secondary   difmap
_audit_creation_date             2018-10-31T14:43:56-00:00
_audit_creation_method           'WinGX routine CIF_UPDATE'
_audit_update_record
;
2019-01-09 deposited with the CCDC.    2019-02-21 downloaded from the CCDC.
;
_cell_angle_alpha                102.783(2)
_cell_angle_beta                 93.452(2)
_cell_angle_gamma                94.301(2)
_cell_formula_units_Z            2
_cell_length_a                   4.0022(2)
_cell_length_b                   13.5102(6)
_cell_length_c                   17.3261(8)
_cell_measurement_reflns_used    3186
_cell_measurement_temperature    269(2)
_cell_measurement_theta_max      27.45
_cell_measurement_theta_min      2.45
_cell_volume                     908.19(7)
_computing_cell_refinement       'Bruker SAINT'
_computing_data_collection       'Bruker APEX2'
_computing_data_reduction        'Bruker SAINT'
_computing_structure_refinement  'SHELXL-2016/6 (Sheldrick, 2016)'
_computing_structure_solution    'SHELXT 2014/5 (Sheldrick, 2014)'
_diffrn_ambient_temperature      269(2)
_diffrn_measured_fraction_theta_full 0.999
_diffrn_measured_fraction_theta_max 0.992
_diffrn_measurement_device_type  'Bruker APEX-II CCD'
_diffrn_measurement_method       '\f and \w scans'
_diffrn_radiation_monochromator  graphite
_diffrn_radiation_source         'fine-focus sealed tube'
_diffrn_radiation_type           MoK\a
_diffrn_radiation_wavelength     0.71073
_diffrn_reflns_av_R_equivalents  0.0337
_diffrn_reflns_av_unetI/netI     0.036
_diffrn_reflns_Laue_measured_fraction_full 0.999
_diffrn_reflns_Laue_measured_fraction_max 0.992
_diffrn_reflns_limit_h_max       5
_diffrn_reflns_limit_h_min       -5
_diffrn_reflns_limit_k_max       17
_diffrn_reflns_limit_k_min       -17
_diffrn_reflns_limit_l_max       22
_diffrn_reflns_limit_l_min       -22
_diffrn_reflns_number            14247
_diffrn_reflns_point_group_measured_fraction_full 0.999
_diffrn_reflns_point_group_measured_fraction_max 0.992
_diffrn_reflns_theta_full        25.242
_diffrn_reflns_theta_max         27.553
_diffrn_reflns_theta_min         1.552
_exptl_absorpt_coefficient_mu    8.865
_exptl_absorpt_correction_T_max  0.8621
_exptl_absorpt_correction_T_min  0.5748
_exptl_absorpt_correction_type   multi-scan
_exptl_absorpt_process_details   SADABS
_exptl_crystal_colour            colourless
_exptl_crystal_density_diffrn    2.106
_exptl_crystal_description       rod
_exptl_crystal_F_000             548
_exptl_crystal_recrystallization_method 'Re-crystallisation from solvent'
_exptl_crystal_size_max          0.468
_exptl_crystal_size_mid          0.202
_exptl_crystal_size_min          0.177
_refine_diff_density_max         0.305
_refine_diff_density_min         -0.428
_refine_diff_density_rms         0.072
_refine_ls_extinction_method     none
_refine_ls_goodness_of_fit_ref   1.028
_refine_ls_hydrogen_treatment    constr
_refine_ls_matrix_type           full
_refine_ls_number_parameters     271
_refine_ls_number_reflns         4168
_refine_ls_number_restraints     244
_refine_ls_restrained_S_all      1
_refine_ls_R_factor_all          0.0528
_refine_ls_R_factor_gt           0.0276
_refine_ls_shift/su_max          0.001
_refine_ls_shift/su_mean         0
_refine_ls_structure_factor_coef Fsqd
_refine_ls_weighting_details
'w=1/[\s^2^(Fo^2^)+(0.0199P)^2^+0.1391P] where P=(Fo^2^+2Fc^2^)/3'
_refine_ls_weighting_scheme      calc
_refine_ls_wR_factor_gt          0.0531
_refine_ls_wR_factor_ref         0.0595
_reflns_Friedel_coverage         0
_reflns_number_gt                2900
_reflns_number_total             4168
_reflns_threshold_expression     'I > 2\s(I)'
_cod_data_source_file            c9cc00836e2.cif
_cod_data_source_block           TBrB_BPE_270K
_cod_database_code               7123023
_shelx_estimated_absorpt_t_min   0.104
_shelx_estimated_absorpt_t_max   0.303
_shelx_res_file
;
TITL r4118-270K in P-1
    r4118-270K.res
    created by SHELXL-2016/6 at 16:40:50 on 11-Oct-2018
CELL  0.71073   4.00220  13.51020  17.32610 102.7825  93.4520  94.3013
ZERR  2.00   0.00020   0.00060   0.00080   0.0022   0.0021   0.0021
LATT  1
SFAC  C H BR N
UNIT  36 24 8 4
TEMP  -4.24
SIZE  0.177 0.202 0.468
L.S.  10
EQIV  $1  -x+2, -y, -z+1
EQIV  $2  -x+1, -y, -z
HTAB
HTAB  C7 N1
HTAB  C16 N2A_$1
HTAB  C16 N2B_$1
BOND  $H
ACTA
LIST  4
FMAP  2

OMIT 0 0 1

SIMU 0.02 N2A N2B C10A C10B C11A C11B C12A C12B C13A C13B C14A C14B C15A C15B
DELU 0.01 N2A N2B C10A C10B C11A C11B C12A C12B C13A C13B C14A C14B C15A C15B

DFIX 31 C12A C15A C12B C15B
DFIX 41 C15A C15A_$2 C15B C15B_$2

PLAN  50
WGHT    0.019900    0.139100
FVAR       0.14190   0.90829   1.48760   1.29243
BR1   3   -0.282414    0.711594   -0.025478    11.00000    0.05344    0.04250 =
         0.05736    0.02202    0.00384    0.01315
BR2   3    0.035286    0.690798    0.154038    11.00000    0.06710    0.04752 =
         0.04168    0.00093    0.00042    0.00879
BR3   3    0.540444    0.215168    0.444174    11.00000    0.06756    0.03821 =
         0.05845    0.01997    0.00302    0.00546
BR4   3    0.885036    0.199435    0.623154    11.00000    0.05309    0.04230 =
         0.04619   -0.00660   -0.00559   -0.00498
N1    4    0.589080    0.469530    0.234920    11.00000    0.06939    0.05978 =
         0.03458    0.00982   -0.00444    0.00991
C1    1    0.573447    0.547623    0.296244    11.00000    0.05684    0.05414 =
         0.04462    0.01808   -0.00035    0.01290
AFIX  43
H1    2    0.470613    0.603782    0.286854    11.00000   -1.20000
AFIX   0
C2    1    0.698628    0.551183    0.372560    11.00000    0.05227    0.03757 =
         0.03488    0.00656   -0.00070    0.00116
AFIX  43
H2    2    0.679735    0.608060    0.413050    11.00000   -1.20000
AFIX   0
C3    1    0.853402    0.468542    0.388068    11.00000    0.03802    0.03904 =
         0.03173    0.01301    0.00010   -0.00127
C4    1    0.867536    0.387105    0.325383    11.00000    0.06309    0.04396 =
         0.03751    0.00871   -0.00029    0.01012
AFIX  43
H4    2    0.965510    0.329430    0.333150    11.00000   -1.20000
AFIX   0
C5    1    0.736309    0.390997    0.250962    11.00000    0.07376    0.05273 =
         0.03594    0.00537    0.00080    0.01253
AFIX  43
H5    2    0.751944    0.335085    0.209399    11.00000   -1.20000
AFIX   0
C6    1    1.001262    0.464678    0.467320    11.00000    0.04487    0.03505 =
         0.04211    0.01337   -0.00212    0.00396
AFIX  43
H6    2    1.106117    0.406657    0.471272    11.00000   -1.20000
AFIX   0
C7    1    0.133087    0.491683    0.073439    11.00000    0.03757    0.04250 =
         0.03023    0.01352    0.00050    0.00272
AFIX  43
H7    2    0.223515    0.485962    0.122812    11.00000   -1.20000
AFIX   0
C8    1    0.013169    0.581731    0.064373    11.00000    0.03424    0.03696 =
         0.03312    0.00749    0.00324    0.00069
C9    1   -0.118662    0.589597   -0.009338    11.00000    0.03200    0.03164 =
         0.04235    0.01660    0.00539    0.00492

PART  1
N2A   4    0.887152    0.022172    0.265490    21.00000    0.06656    0.05651 =
         0.03385    0.01008   -0.00128    0.01913
C10A  1    0.987886    0.097926    0.234094    21.00000    0.06331    0.05199 =
         0.04125    0.00246   -0.00547    0.01184
AFIX  43
H10A  2    1.128049    0.151247    0.265990    21.00000   -1.20000
AFIX   0
C11A  1    0.901648    0.104378    0.157504    21.00000    0.05913    0.04671 =
         0.03940    0.00905    0.00477    0.01279
AFIX  43
H11A  2    0.980649    0.160785    0.139157    21.00000   -1.20000
AFIX   0
C12A  1    0.697235    0.026550    0.108220    21.00000    0.04703    0.04948 =
         0.03012    0.01241    0.00749    0.02271
C13A  1    0.589581   -0.054310    0.140192    21.00000    0.05193    0.05035 =
         0.03433    0.00558    0.00258    0.01200
AFIX  43
H13A  2    0.450461   -0.109093    0.109852    21.00000   -1.20000
AFIX   0
C14A  1    0.692932   -0.052035    0.218116    21.00000    0.06698    0.05351 =
         0.03642    0.01529    0.00837    0.01888
AFIX  43
H14A  2    0.619454   -0.107217    0.238594    21.00000   -1.20000
AFIX   0
C15A  1    0.605764    0.031629    0.025076    21.00000    0.05050    0.04226 =
         0.03695    0.01381    0.00527    0.01507
AFIX  43
H15A  2    0.710160    0.085310    0.007264    21.00000   -1.20000
AFIX  66

PART  2
N2B   4    0.906184    0.046832    0.267950   -21.00000    0.06373    0.05468 =
         0.02984    0.01626   -0.00204    0.01610
C10B  1    1.007307    0.111510    0.219840   -21.00000    0.06101    0.04574 =
         0.03297    0.01414   -0.00119    0.01459
AFIX  43
H10B  2    1.154944    0.169002    0.240818   -21.00000   -1.20000
AFIX  65
C11B  1    0.887771    0.090262    0.140375   -21.00000    0.05244    0.04647 =
         0.02831    0.01532    0.00221    0.01755
AFIX  43
H11B  2    0.955431    0.133537    0.108186   -21.00000   -1.20000
AFIX  65
C12B  1    0.667110    0.004335    0.109020   -21.00000    0.05128    0.04545 =
         0.02917    0.01187    0.00091    0.01670
C13B  1    0.565984   -0.060344    0.157129   -21.00000    0.05197    0.04951 =
         0.03146    0.01605    0.00925    0.01524
AFIX  43
H13B  2    0.418347   -0.117835    0.136150   -21.00000   -1.20000
AFIX  65
C14B  1    0.685518   -0.039098    0.236594   -21.00000    0.05832    0.05338 =
         0.02900    0.01828    0.01024    0.01965
AFIX  43
H14B  2    0.617858   -0.082373    0.268782   -21.00000   -1.20000
AFIX   0

C15B  1    0.492335   -0.025039    0.027613   -21.00000    0.05512    0.03522 =
         0.03294    0.01373   -0.00055    0.01359
AFIX  43
H15B  2    0.357165   -0.086346    0.015319   -21.00000   -1.20000
AFIX   0
PART  0
C16   1    0.645673   -0.007108    0.572905    11.00000    0.03511    0.04099 =
         0.02491    0.00654    0.00018    0.00694
AFIX  43
H16   2    0.743474   -0.011768    0.621892    11.00000   -1.20000
AFIX   0
C17   1    0.663047    0.085009    0.550698    11.00000    0.03162    0.02938 =
         0.02904   -0.00421    0.00298    0.00145
C18   1    0.517502    0.091916    0.478035    11.00000    0.03574    0.02848 =
         0.03213    0.00861    0.00385    0.00598
HKLF 4




REM  r4118-270K in P-1
REM R1 =  0.0276 for    2900 Fo > 4sig(Fo)  and  0.0528 for all    4168 data
REM    271 parameters refined using    244 restraints

END

WGHT      0.0199      0.1391

REM Instructions for potential hydrogen bonds
HTAB C7 N1
EQIV $6 -x+1, -y+1, -z
HTAB C11A Br1_$6
HTAB C11B Br1_$6
EQIV $7 x, y-1, z
HTAB C13B Br2_$7
HTAB C16 N2A_$1
HTAB C16 N2B_$1

REM Highest difference peak  0.305,  deepest hole -0.428,  1-sigma level  0.072
Q1    1   0.3688  0.1955  0.4546  11.00000  0.05    0.30
Q2    1   0.6795  0.2347  0.4826  11.00000  0.05    0.30
Q3    1   0.6192  0.1220  0.0267  11.00000  0.05    0.28
Q4    1   0.7078  0.1999  0.6441  11.00000  0.05    0.27
Q5    1   0.6629  0.2437  0.5500  11.00000  0.05    0.26
Q6    1   0.7868  0.2550  0.5940  11.00000  0.05    0.25
Q7    1   0.5703  0.1429  0.3427  11.00000  0.05    0.25
Q8    1   0.7156  0.0220  0.5462  11.00000  0.05    0.24
Q9    1   1.1949  0.3192  0.2690  11.00000  0.05    0.24
Q10   1   0.7761  0.2074  0.1612  11.00000  0.05    0.23
Q11   1   1.2639  0.2799  0.3660  11.00000  0.05    0.23
Q12   1  -0.3923  0.6278  0.1111  11.00000  0.05    0.23
Q13   1   0.0054  0.5953  0.0226  11.00000  0.05    0.23
Q14   1   0.9392  0.3762  0.1894  11.00000  0.05    0.22
Q15   1   0.8128  0.1248  0.4292  11.00000  0.05    0.22
Q16   1   1.3204  0.3204  0.3215  11.00000  0.05    0.22
Q17   1   0.5686  0.0464  0.5665  11.00000  0.05    0.22
Q18   1   1.2926  0.4012  0.4575  11.00000  0.05    0.22
Q19   1   0.7626  0.3415  0.3202  11.00000  0.05    0.22
Q20   1   0.1662  0.5451  0.0677  11.00000  0.05    0.22
Q21   1   0.8448  0.1016 -0.0128  11.00000  0.05    0.21
Q22   1   1.1649  0.3208  0.3149  11.00000  0.05    0.21
Q23   1   1.2371  0.2597  0.1550  11.00000  0.05    0.21
Q24   1   0.2859 -0.1077  0.1139  11.00000  0.05    0.21
Q25   1  -0.2917  0.4710  0.0607  11.00000  0.05    0.21
Q26   1   0.2348  0.6378  0.2445  11.00000  0.05    0.21
Q27   1   0.7175  0.4272  0.4912  11.00000  0.05    0.21
Q28   1   0.3222  0.1814  0.5416  11.00000  0.05    0.21
Q29   1   1.1288  0.1909  0.3742  11.00000  0.05    0.21
Q30   1   0.0114  0.5841 -0.0444  11.00000  0.05    0.20
Q31   1   0.2998 -0.1173  0.2876  11.00000  0.05    0.20
Q32   1   0.5966 -0.0170  0.1193  11.00000  0.05    0.20
Q33   1   0.8314  0.0580  0.1270  11.00000  0.05    0.20
Q34   1   0.2652  0.5778  0.4474  11.00000  0.05    0.20
Q35   1   0.7124  0.0214  0.0755  11.00000  0.05    0.20
Q36   1   0.8326  0.4054  0.2901  11.00000  0.05    0.20
Q37   1   0.5528  0.6937  0.4578  11.00000  0.05    0.20
Q38   1   0.2946  0.6012  0.4283  11.00000  0.05    0.20
Q39   1   0.5018  0.1480  0.4763  11.00000  0.05    0.20
Q40   1   0.6992  0.1217  0.5697  11.00000  0.05    0.20
Q41   1   0.7239 -0.0131  0.5751  11.00000  0.05    0.20
Q42   1   1.0314  0.2225  0.7284  11.00000  0.05    0.20
Q43   1   0.2888  0.5959  0.0034  11.00000  0.05    0.20
Q44   1   1.2088  0.1254  0.5911  11.00000  0.05    0.20
Q45   1  -0.1014  0.7952 -0.0583  11.00000  0.05    0.19
Q46   1   0.5027 -0.2253  0.0875  11.00000  0.05    0.19
Q47   1   0.5619  0.2379  0.4197  11.00000  0.05    0.19
Q48   1   0.5969  0.0757  0.5096  11.00000  0.05    0.19
Q49   1   0.6542  0.1985  0.3145  11.00000  0.05    0.19
Q50   1   1.0955  0.2648  0.3580  11.00000  0.05    0.19
;
_shelx_res_checksum              33529
loop_
_symmetry_equiv_pos_as_xyz
'x, y, z'
'-x, -y, -z'
loop_
_atom_site_label
_atom_site_type_symbol
_atom_site_fract_x
_atom_site_fract_y
_atom_site_fract_z
_atom_site_U_iso_or_equiv
_atom_site_adp_type
_atom_site_occupancy
_atom_site_site_symmetry_order
_atom_site_calc_flag
_atom_site_refinement_flags_posn
_atom_site_refinement_flags_adp
_atom_site_refinement_flags_occupancy
_atom_site_disorder_assembly
_atom_site_disorder_group
Br1 Br -0.28241(8) 0.71159(2) -0.02548(2) 0.04900(10) Uani 1 1 d . . . . .
Br2 Br 0.03529(8) 0.69080(3) 0.15404(2) 0.05351(10) Uani 1 1 d . . . . .
Br3 Br 0.54044(8) 0.21517(2) 0.44417(2) 0.05338(10) Uani 1 1 d . . . . .
Br4 Br 0.88504(8) 0.19943(2) 0.62315(2) 0.05067(10) Uani 1 1 d . . . . .
N1 N 0.5891(7) 0.4695(2) 0.23492(15) 0.0549(7) Uani 1 1 d . . . . .
C1 C 0.5734(8) 0.5476(3) 0.29624(18) 0.0506(8) Uani 1 1 d . . . . .
H1 H 0.470613 0.603782 0.286854 0.061 Uiso 1 1 calc R U . . .
C2 C 0.6986(7) 0.5512(2) 0.37256(17) 0.0422(7) Uani 1 1 d . . . . .
H2 H 0.679735 0.60806 0.41305 0.051 Uiso 1 1 calc R U . . .
C3 C 0.8534(6) 0.4685(2) 0.38807(16) 0.0358(7) Uani 1 1 d . . . . .
C4 C 0.8675(8) 0.3871(2) 0.32538(17) 0.0482(8) Uani 1 1 d . . . . .
H4 H 0.96551 0.32943 0.33315 0.058 Uiso 1 1 calc R U . . .
C5 C 0.7363(8) 0.3910(3) 0.25096(18) 0.0547(9) Uani 1 1 d . . . . .
H5 H 0.751944 0.335085 0.209399 0.066 Uiso 1 1 calc R U . . .
C6 C 1.0013(7) 0.4647(2) 0.46732(16) 0.0402(7) Uani 1 1 d . . . . .
H6 H 1.106117 0.406657 0.471272 0.048 Uiso 1 1 calc R U . . .
C7 C 0.1331(6) 0.4917(2) 0.07344(16) 0.0361(7) Uani 1 1 d . . . . .
H7 H 0.223515 0.485962 0.122812 0.043 Uiso 1 1 calc R U . . .
C8 C 0.0132(6) 0.5817(2) 0.06437(16) 0.0350(6) Uani 1 1 d . . . . .
C9 C -0.1187(6) 0.5896(2) -0.00934(17) 0.0338(6) Uani 1 1 d . . . . .
N2A N 0.8872(18) 0.0222(4) 0.2655(3) 0.0518(13) Uani 0.908(8) 1 d . U P A 1
C10A C 0.9879(18) 0.0979(5) 0.2341(3) 0.0535(15) Uani 0.908(8) 1 d . U P A 1
H10A H 1.128049 0.151247 0.26599 0.064 Uiso 0.908(8) 1 calc R U P A 1
C11A C 0.9016(18) 0.1044(4) 0.1575(3) 0.0481(13) Uani 0.908(8) 1 d . U P A 1
H11A H 0.980649 0.160785 0.139157 0.058 Uiso 0.908(8) 1 calc R U P A 1
C12A C 0.6972(16) 0.0265(4) 0.1082(2) 0.0405(13) Uani 0.908(8) 1 d D U P A 1
C13A C 0.5896(17) -0.0543(5) 0.1402(3) 0.0458(13) Uani 0.908(8) 1 d . U P A 1
H13A H 0.450461 -0.109093 0.109852 0.055 Uiso 0.908(8) 1 calc R U P A 1
C14A C 0.6929(19) -0.0520(4) 0.2181(3) 0.0506(13) Uani 0.908(8) 1 d . U P A 1
H14A H 0.619454 -0.107217 0.238594 0.061 Uiso 0.908(8) 1 calc R U P A 1
C15A C 0.6058(8) 0.0316(3) 0.0251(2) 0.0418(11) Uani 0.908(8) 1 d D U P A 1
H15A H 0.71016 0.08531 0.007264 0.05 Uiso 0.908(8) 1 calc R U P A 1
N2B N 0.91(2) 0.047(5) 0.268(2) 0.048(5) Uani 0.092(8) 1 d G U P A 2
C10B C 1.007(17) 0.112(4) 0.220(3) 0.045(5) Uani 0.092(8) 1 d G U P A 2
H10B H 1.154944 0.169002 0.240818 0.055 Uiso 0.092(8) 1 calc R U P A 2
C11B C 0.888(19) 0.090(4) 0.140(3) 0.041(5) Uani 0.092(8) 1 d G U P A 2
H11B H 0.955431 0.133537 0.108186 0.049 Uiso 0.092(8) 1 calc R U P A 2
C12B C 0.667(18) 0.004(5) 0.109(2) 0.041(4) Uani 0.092(8) 1 d DG U P A 2
C13B C 0.566(16) -0.060(4) 0.157(3) 0.042(5) Uani 0.092(8) 1 d G U P A 2
H13B H 0.418347 -0.117835 0.13615 0.051 Uiso 0.092(8) 1 calc R U P A 2
C14B C 0.69(2) -0.039(4) 0.237(3) 0.044(5) Uani 0.092(8) 1 d G U P A 2
H14B H 0.617858 -0.082373 0.268782 0.053 Uiso 0.092(8) 1 calc R U P A 2
C15B C 0.492(9) -0.025(3) 0.0276(16) 0.040(5) Uani 0.092(8) 1 d D U P A 2
H15B H 0.357165 -0.086346 0.015319 0.048 Uiso 0.092(8) 1 calc R U P A 2
C16 C 0.6457(6) -0.0071(2) 0.57291(15) 0.0337(6) Uani 1 1 d . . . . .
H16 H 0.743474 -0.011768 0.621892 0.04 Uiso 1 1 calc R U . . .
C17 C 0.6630(6) 0.0850(2) 0.55070(15) 0.0318(6) Uani 1 1 d . . . . .
C18 C 0.5175(6) 0.0919(2) 0.47803(15) 0.0316(6) Uani 1 1 d . . . . .
loop_
_atom_site_aniso_label
_atom_site_aniso_U_11
_atom_site_aniso_U_22
_atom_site_aniso_U_33
_atom_site_aniso_U_23
_atom_site_aniso_U_13
_atom_site_aniso_U_12
Br1 0.05344(18) 0.0425(2) 0.0574(2) 0.02202(16) 0.00384(15) 0.01315(15)
Br2 0.0671(2) 0.0475(2) 0.0417(2) 0.00093(15) 0.00042(15) 0.00879(16)
Br3 0.0676(2) 0.0382(2) 0.0585(2) 0.01997(16) 0.00302(16) 0.00546(16)
Br4 0.05309(19) 0.0423(2) 0.0462(2) -0.00660(15) -0.00559(14) -0.00498(14)
N1 0.0694(18) 0.060(2) 0.0346(15) 0.0098(14) -0.0044(13) 0.0099(15)
C1 0.0568(19) 0.054(2) 0.045(2) 0.0181(17) -0.0004(15) 0.0129(16)
C2 0.0523(17) 0.0376(18) 0.0349(17) 0.0066(14) -0.0007(14) 0.0012(14)
C3 0.0380(15) 0.0390(18) 0.0317(16) 0.0130(14) 0.0001(12) -0.0013(13)
C4 0.063(2) 0.044(2) 0.0375(18) 0.0087(15) -0.0003(15) 0.0101(15)
C5 0.074(2) 0.053(2) 0.0359(19) 0.0054(16) 0.0008(16) 0.0125(18)
C6 0.0449(15) 0.0350(18) 0.0421(18) 0.0134(13) -0.0021(14) 0.0040(14)
C7 0.0376(15) 0.0425(18) 0.0302(16) 0.0135(14) 0.0005(12) 0.0027(13)
C8 0.0342(14) 0.0370(17) 0.0331(16) 0.0075(13) 0.0032(12) 0.0007(12)
C9 0.0320(14) 0.0316(16) 0.0423(17) 0.0166(14) 0.0054(12) 0.0049(12)
N2A 0.067(2) 0.057(3) 0.0339(17) 0.0101(17) -0.0013(16) 0.019(3)
C10A 0.063(2) 0.052(3) 0.041(3) 0.002(2) -0.005(2) 0.012(2)
C11A 0.059(2) 0.047(3) 0.039(3) 0.009(2) 0.005(3) 0.013(2)
C12A 0.047(2) 0.049(3) 0.0301(18) 0.0124(17) 0.0075(15) 0.023(2)
C13A 0.052(2) 0.050(2) 0.034(3) 0.006(2) 0.003(2) 0.0120(17)
C14A 0.067(2) 0.054(3) 0.036(3) 0.015(2) 0.008(3) 0.019(2)
C15A 0.051(2) 0.042(3) 0.037(2) 0.0138(17) 0.0053(15) 0.0151(17)
N2B 0.064(9) 0.055(9) 0.030(8) 0.016(7) -0.002(8) 0.016(8)
C10B 0.061(9) 0.046(9) 0.033(8) 0.014(7) -0.001(8) 0.015(8)
C11B 0.052(9) 0.046(8) 0.028(8) 0.015(8) 0.002(8) 0.018(8)
C12B 0.051(8) 0.045(8) 0.029(7) 0.012(6) 0.001(7) 0.017(7)
C13B 0.052(9) 0.050(8) 0.031(8) 0.016(7) 0.009(8) 0.015(8)
C14B 0.058(9) 0.053(9) 0.029(8) 0.018(8) 0.010(9) 0.020(8)
C15B 0.055(11) 0.035(11) 0.033(8) 0.014(9) -0.001(9) 0.014(10)
C16 0.0351(14) 0.0410(18) 0.0249(15) 0.0065(13) 0.0002(11) 0.0069(12)
C17 0.0316(13) 0.0294(16) 0.0290(15) -0.0042(12) 0.0030(11) 0.0015(11)
C18 0.0357(14) 0.0285(15) 0.0321(15) 0.0086(12) 0.0038(12) 0.0060(12)
loop_
_atom_type_symbol
_atom_type_description
_atom_type_scat_dispersion_real
_atom_type_scat_dispersion_imag
_atom_type_scat_source
C C 0.0033 0.0016 'International Tables Vol C Tables 4.2.6.8 and 6.1.1.4'
H H 0 0 'International Tables Vol C Tables 4.2.6.8 and 6.1.1.4'
Br Br -0.2901 2.4595 'International Tables Vol C Tables 4.2.6.8 and 6.1.1.4'
N N 0.0061 0.0033 'International Tables Vol C Tables 4.2.6.8 and 6.1.1.4'
loop_
_geom_angle_atom_site_label_1
_geom_angle_atom_site_label_2
_geom_angle_atom_site_label_3
_geom_angle
_geom_angle_site_symmetry_1
C5 N1 C1 115.7(3) .
N1 C1 C2 124.6(3) .
N1 C1 H1 117.7 .
C2 C1 H1 117.7 .
C1 C2 C3 118.8(3) .
C1 C2 H2 120.6 .
C3 C2 H2 120.6 .
C4 C3 C2 117.1(2) .
C4 C3 C6 119.5(3) .
C2 C3 C6 123.5(3) .
C3 C4 C5 119.8(3) .
C3 C4 H4 120.1 .
C5 C4 H4 120.1 .
N1 C5 C4 124.0(3) .
N1 C5 H5 118 .
C4 C5 H5 118 .
C6 C6 C3 126.1(4) 2_766
C6 C6 H6 116.9 2_766
C3 C6 H6 116.9 .
C9 C7 C8 119.8(2) 2_565
C9 C7 H7 120.1 2_565
C8 C7 H7 120.1 .
C7 C8 C9 119.6(2) .
C7 C8 Br2 118.3(2) .
C9 C8 Br2 122.1(2) .
C7 C9 C8 120.6(2) 2_565
C7 C9 Br1 118.0(2) 2_565
C8 C9 Br1 121.5(2) .
C10A N2A C14A 115.6(3) .
N2A C10A C11A 124.8(4) .
N2A C10A H10A 117.6 .
C11A C10A H10A 117.6 .
C10A C11A C12A 119.3(4) .
C10A C11A H11A 120.3 .
C12A C11A H11A 120.3 .
C11A C12A C13A 116.7(3) .
C11A C12A C15A 120.0(4) .
C13A C12A C15A 123.3(4) .
C14A C13A C12A 118.6(3) .
C14A C13A H13A 120.7 .
C12A C13A H13A 120.7 .
N2A C14A C13A 124.9(4) .
N2A C14A H14A 117.5 .
C13A C14A H14A 117.5 .
C15A C15A C12A 126.1(5) 2_655
C15A C15A H15A 116.9 2_655
C12A C15A H15A 116.9 .
C10B N2B C14B 120 .
C11B C10B N2B 120 .
C11B C10B H10B 120 .
N2B C10B H10B 120 .
C10B C11B C12B 120 .
C10B C11B H11B 120 .
C12B C11B H11B 120 .
C11B C12B C13B 120 .
C11B C12B C15B 127(4) .
C13B C12B C15B 113(4) .
C14B C13B C12B 120 .
C14B C13B H13B 120 .
C12B C13B H13B 120 .
C13B C14B N2B 120 .
C13B C14B H14B 120 .
N2B C14B H14B 120 .
C15B C15B C12B 127(5) 2_655
C15B C15B H15B 116.3 2_655
C12B C15B H15B 116.3 .
C18 C16 C17 119.4(2) 2_656
C18 C16 H16 120.3 2_656
C17 C16 H16 120.3 .
C16 C17 C18 120.3(2) .
C16 C17 Br4 117.79(19) .
C18 C17 Br4 121.9(2) .
C16 C18 C17 120.3(2) 2_656
C16 C18 Br3 117.70(19) 2_656
C17 C18 Br3 122.0(2) .
loop_
_geom_bond_atom_site_label_1
_geom_bond_atom_site_label_2
_geom_bond_distance
_geom_bond_site_symmetry_2
Br1 C9 1.889(3) .
Br2 C8 1.882(3) .
Br3 C18 1.882(3) .
Br4 C17 1.886(2) .
N1 C5 1.325(4) .
N1 C1 1.330(4) .
C1 C2 1.375(4) .
C1 H1 0.93 .
C2 C3 1.385(4) .
C2 H2 0.93 .
C3 C4 1.372(4) .
C3 C6 1.475(4) .
C4 C5 1.376(4) .
C4 H4 0.93 .
C5 H5 0.93 .
C6 C6 1.311(6) 2_766
C6 H6 0.93 .
C7 C9 1.373(4) 2_565
C7 C8 1.378(4) .
C7 H7 0.93 .
C8 C9 1.381(3) .
N2A C10A 1.310(5) .
N2A C14A 1.313(5) .
C10A C11A 1.374(5) .
C10A H10A 0.93 .
C11A C12A 1.376(5) .
C11A H11A 0.93 .
C12A C13A 1.383(5) .
C12A C15A 1.483(5) .
C13A C14A 1.381(5) .
C13A H13A 0.93 .
C14A H14A 0.93 .
C15A C15A 1.295(6) 2_655
C15A H15A 0.93 .
N2B C10B 1.39 .
N2B C14B 1.39 .
C10B C11B 1.39 .
C10B H10B 0.93 .
C11B C12B 1.39 .
C11B H11B 0.93 .
C12B C13B 1.39 .
C12B C15B 1.49(2) .
C13B C14B 1.39 .
C13B H13B 0.93 .
C14B H14B 0.93 .
C15B C15B 1.29(3) 2_655
C15B H15B 0.93 .
C16 C18 1.374(3) 2_656
C16 C17 1.380(4) .
C16 H16 0.93 .
C17 C18 1.380(3) .
loop_
_geom_hbond_atom_site_label_D
_geom_hbond_atom_site_label_H
_geom_hbond_atom_site_label_A
_geom_hbond_distance_DH
_geom_hbond_distance_HA
_geom_hbond_distance_DA
_geom_hbond_angle_DHA
_geom_hbond_site_symmetry_A
C7 H7 N1 0.93 2.42 3.329(3) 165.6 .
C16 H16 N2A 0.93 2.41 3.325(5) 167.1 2_756
C16 H16 N2B 0.93 2.45 3.36(4) 166.6 2_756
