#------------------------------------------------------------------------------
#$Date: 2019-03-14 01:10:59 +0200 (Thu, 14 Mar 2019) $
#$Revision: 214111 $
#$URL: file:///home/coder/svn-repositories/cod/cif/7/12/31/7123140.cif $
#------------------------------------------------------------------------------
#
# This file is available in the Crystallography Open Database (COD),
# http://www.crystallography.net/
#
# All data on this site have been placed in the public domain by the
# contributors.
#
data_7123140
loop_
_publ_author_name
'Tsurusaki, Akihiro'
'Matsumoto, Hiroyo'
'Kamikawa, Ken'
_publ_section_title
;
 Dibenzo[b,e]phosphindolizines Synthesized by Ring-Closing Metathesis of
 Benzo[b]phospholes with Two Vinyl Tethers
;
_journal_name_full               'Chemical Communications'
_journal_paper_doi               10.1039/C9CC00463G
_journal_year                    2019
_chemical_formula_moiety         'C16 H11 P'
_chemical_formula_sum            'C16 H11 P'
_chemical_formula_weight         234.22
_chemical_name_systematic        dibenzo[b,e]phosphindolizine
_space_group_crystal_system      monoclinic
_space_group_IT_number           4
_space_group_name_Hall           'P 2yb'
_space_group_name_H-M_alt        'P 1 21 1'
_symmetry_space_group_name_Hall  'P 2yb'
_symmetry_space_group_name_H-M   'P 1 21 1'
_atom_sites_solution_hydrogens   geom
_audit_creation_method           SHELXL-2014/7
_audit_update_record
;
2018-12-19 deposited with the CCDC.    2019-03-11 downloaded from the CCDC.
;
_cell_angle_alpha                90
_cell_angle_beta                 106.916(5)
_cell_angle_gamma                90
_cell_formula_units_Z            2
_cell_length_a                   7.174(3)
_cell_length_b                   7.276(2)
_cell_length_c                   11.608(4)
_cell_measurement_reflns_used    2082
_cell_measurement_temperature    103(2)
_cell_measurement_theta_max      27.4778
_cell_measurement_theta_min      3.0008
_cell_volume                     579.7(4)
_computing_cell_refinement       'CrystalClear (Rigaku Inc., 2008)'
_computing_data_collection       'CrystalClear (Rigaku Inc., 2008)'
_computing_data_reduction        'CrystalClear (Rigaku Inc., 2008)'
_computing_molecular_graphics    '<i>ORTEP-3</i> (Farrugia, 1997)'
_computing_publication_material
'<i>SHELXL-2014/7</i> and <i>Yadokari-XG 2009</i> (Kabuto <i>et al.</i>, 2009)'
_computing_structure_refinement  'SHELXL-2014/7 (Sheldrick, 2014)'
_computing_structure_solution    'SHELXS-2013 (Sheldrick, 2014)'
_diffrn_ambient_temperature      103(2)
_diffrn_detector_area_resol_mean 28.5714
_diffrn_measured_fraction_theta_full 0.988
_diffrn_measured_fraction_theta_max 0.978
_diffrn_measurement_device_type  'Saturn724+ (4x4 bin mode)'
_diffrn_measurement_method       dtprofit.ref
_diffrn_radiation_detector       CCD
_diffrn_radiation_monochromator  Confocal
_diffrn_radiation_type           MoK\a
_diffrn_radiation_wavelength     0.71075
_diffrn_reflns_av_R_equivalents  0.0193
_diffrn_reflns_av_unetI/netI     0.0340
_diffrn_reflns_Laue_measured_fraction_full 0.988
_diffrn_reflns_Laue_measured_fraction_max 0.978
_diffrn_reflns_limit_h_max       7
_diffrn_reflns_limit_h_min       -9
_diffrn_reflns_limit_k_max       9
_diffrn_reflns_limit_k_min       -9
_diffrn_reflns_limit_l_max       11
_diffrn_reflns_limit_l_min       -15
_diffrn_reflns_number            4756
_diffrn_reflns_point_group_measured_fraction_full 0.982
_diffrn_reflns_point_group_measured_fraction_max 0.967
_diffrn_reflns_theta_full        25.242
_diffrn_reflns_theta_max         27.478
_diffrn_reflns_theta_min         3.001
_diffrn_source                   'Rotating Anode'
_exptl_absorpt_coefficient_mu    0.207
_exptl_absorpt_correction_T_max  1.0000
_exptl_absorpt_correction_T_min  0.9157
_exptl_absorpt_correction_type   multi-scan
_exptl_crystal_colour            Colorless
_exptl_crystal_density_diffrn    1.342
_exptl_crystal_description       Prism
_exptl_crystal_F_000             244
_exptl_crystal_size_max          0.120
_exptl_crystal_size_mid          0.100
_exptl_crystal_size_min          0.060
_refine_diff_density_max         0.477
_refine_diff_density_min         -0.173
_refine_diff_density_rms         0.052
_refine_ls_abs_structure_details
;
 Flack x determined using 1027 quotients [(I+)-(I-)]/[(I+)+(I-)]
 (Parsons, Flack and Wagner, Acta Cryst. B69 (2013) 249-259).
;
_refine_ls_abs_structure_Flack   0.05(3)
_refine_ls_extinction_method     none
_refine_ls_goodness_of_fit_ref   1.062
_refine_ls_hydrogen_treatment    constr
_refine_ls_matrix_type           full
_refine_ls_number_parameters     154
_refine_ls_number_reflns         2573
_refine_ls_number_restraints     1
_refine_ls_restrained_S_all      1.061
_refine_ls_R_factor_all          0.0363
_refine_ls_R_factor_gt           0.0337
_refine_ls_shift/su_max          0.000
_refine_ls_shift/su_mean         0.000
_refine_ls_structure_factor_coef Fsqd
_refine_ls_weighting_details
'w=1/[\s^2^(Fo^2^)+(0.0573P)^2^] where P=(Fo^2^+2Fc^2^)/3'
_refine_ls_weighting_scheme      calc
_refine_ls_wR_factor_gt          0.0854
_refine_ls_wR_factor_ref         0.0864
_reflns_Friedel_coverage         0.831
_reflns_Friedel_fraction_full    0.975
_reflns_Friedel_fraction_max     0.954
_reflns_number_gt                2415
_reflns_number_total             2573
_reflns_threshold_expression     'I > 2\s(I)'
_cod_data_source_file            c9cc00463g2.cif
_cod_data_source_block           compound1d
_cod_depositor_comments
;
The following automatic conversions were performed:

'_exptl_absorpt_correction_type' value 'Multi-scan' changed to
'multi-scan' according to
/home/data/users/saulius/crontab/automatic-downloads/rss-feeds/RSC/lib/dictionaries/cif_core.dic
dictionary named 'cif_core.dic' version 2.4.2 from 2011-04-26.

Automatic conversion script
Id: cif_fix_values 4973 2017-02-22 13:04:09Z antanas 
;
_cod_original_cell_volume        579.7(3)
_cod_database_code               7123140
_shelx_shelxl_version_number     2014/7
_shelx_space_group_comment
;
The symmetry employed for this shelxl refinement is uniquely defined
by the following loop, which should always be used as a source of
symmetry information in preference to the above space-group names.
They are only intended as comments.
;
_shelx_estimated_absorpt_t_min   0.976
_shelx_estimated_absorpt_t_max   0.988
_shelx_res_file
;

    P.res created by SHELXL-2014/7

TITL
REM  Yadorkari-X generated
CELL 0.71075 7.1743 7.2761 11.6080 90.0000 106.9158 90.0000
ZERR 2.0 0.0025 0.0024 0.0040 0.0000 0.0045 0.0000
LATT -1
SYMM -X, 1/2+Y, -Z
REM  SPGR P21 monoclinic
SFAC C H P
UNIT 32 22 2
SIZE 0.12 0.10 0.06
TEMP -170.0
L.S. 4
FMAP 2
PLAN -20
ACTA
CONF
LIST 4
OMIT -10.000000 55.000000

WGHT    0.057300
FVAR      16.44968
P1    3    0.649839    0.363375    0.812054    11.00000    0.01873    0.01410 =
         0.01943    0.00063    0.00580   -0.00086
C15   1    0.508030    0.368476    1.013994    11.00000    0.02597    0.01683 =
         0.02505    0.00059    0.00659   -0.00046
AFIX  43
H15   2    0.388130    0.323334    0.962926    11.00000   -1.20000
AFIX   0
C14   1    0.532872    0.389188    1.137077    11.00000    0.03672    0.02263 =
         0.02813    0.00519    0.01644    0.00309
AFIX  43
H14   2    0.428857    0.361225    1.169438    11.00000   -1.20000
AFIX   0
C6    1    0.547957    0.595721    0.630963    11.00000    0.03838    0.01440 =
         0.02113   -0.00213    0.01116    0.00058
C12   1    0.860441    0.492076    1.166101    11.00000    0.03048    0.02071 =
         0.02427   -0.00401   -0.00321    0.00314
AFIX  43
H12   2    0.980940    0.533023    1.218790    11.00000   -1.20000
AFIX   0
C11   1    0.839631    0.474973    1.042712    11.00000    0.02495    0.01345 =
         0.02451   -0.00177    0.00160    0.00178
C1    1    0.459933    0.477079    0.697105    11.00000    0.02867    0.01683 =
         0.01477   -0.00284    0.00606    0.00250
C16   1    0.657566    0.413520    0.966202    11.00000    0.02296    0.01258 =
         0.01901    0.00135    0.00187    0.00283
C5    1    0.432373    0.673840    0.524360    11.00000    0.05852    0.02021 =
         0.02160    0.00390    0.01616    0.00559
AFIX  43
H5    2    0.489896    0.751307    0.478286    11.00000   -1.20000
AFIX   0
C10   1    1.006694    0.518995    0.999793    11.00000    0.03002    0.02235 =
         0.04287   -0.00945    0.00884   -0.00492
AFIX  43
H10   2    1.128800    0.531242    1.059510    11.00000   -1.20000
AFIX   0
C9    1    1.006442    0.543800    0.886188    11.00000    0.02790    0.02288 =
         0.04888   -0.00254    0.01394   -0.00263
AFIX  43
H9    2    1.123475    0.572985    0.867559    11.00000   -1.20000
AFIX   0
C13   1    0.709430    0.450586    1.212011    11.00000    0.05104    0.02246 =
         0.01828    0.00159    0.00596    0.00665
AFIX  43
H13   2    0.726132    0.464082    1.295815    11.00000   -1.20000
AFIX   0
C2    1    0.261412    0.438843    0.655204    11.00000    0.02792    0.02565 =
         0.02575    0.00238    0.00551    0.00047
AFIX  43
H2    2    0.203647    0.355282    0.697615    11.00000   -1.20000
AFIX   0
C7    1    0.756024    0.623708    0.687201    11.00000    0.03976    0.01921 =
         0.04262   -0.00076    0.02039   -0.00199
AFIX  43
H7    2    0.834570    0.701235    0.654644    11.00000   -1.20000
AFIX   0
C4    1    0.233286    0.638833    0.485210    11.00000    0.05539    0.02548 =
         0.01886    0.00082    0.00041    0.00887
AFIX  43
H4    2    0.154993    0.693936    0.413152    11.00000   -1.20000
AFIX   0
C8    1    0.826599    0.525684    0.792638    11.00000    0.02560    0.01713 =
         0.04403   -0.00457    0.01689   -0.00245
C3    1    0.148476    0.523493    0.551160    11.00000    0.03341    0.02955 =
         0.02985   -0.00312   -0.00286    0.00414
AFIX  43
H3    2    0.011921    0.502421    0.524756    11.00000   -1.20000

AFIX   0
HKLF 4 1 1 0 0 0 1 0 0 0 1

REM
REM R1 =  0.0337 for    2415 Fo > 4sig(Fo)  and  0.0363 for all    2573 data
REM    154 parameters refined using      1 restraints

END

WGHT      0.0573      0.0000

REM Highest difference peak  0.477,  deepest hole -0.173,  1-sigma level  0.052
Q1    1   0.9033  0.5972  0.7414  11.00000  0.05    0.48
Q2    1   0.6756  0.3716  0.8953  11.00000  0.05    0.43
Q3    1   0.8741  0.5126  0.8607  11.00000  0.05    0.42
Q4    1   0.9196  0.5528  0.9468  11.00000  0.05    0.31
Q5    1   0.7535  0.6255  0.6218  11.00000  0.05    0.27
Q6    1   1.0945  0.6260  1.2576  11.00000  0.05    0.27
Q7    1   0.6344  0.6180  0.6550  11.00000  0.05    0.23
Q8    1   0.5280  0.3837  0.7574  11.00000  0.05    0.23
Q9    1   0.7424  0.4532  0.9957  11.00000  0.05    0.23
Q10   1   0.7649  0.4900  1.1711  11.00000  0.05    0.22
Q11   1   0.5239  0.3748  1.0759  11.00000  0.05    0.22
Q12   1   0.8315  0.4997  1.0990  11.00000  0.05    0.22
Q13   1   0.5860  0.3704  1.0051  11.00000  0.05    0.19
Q14   1   0.8745  0.2182  0.8622  11.00000  0.05    0.18
Q15   1   0.5114  0.6231  0.5849  11.00000  0.05    0.17
Q16   1   0.6065  0.4556  1.1850  11.00000  0.05    0.16
Q17   1   0.7541  0.4183  0.8146  11.00000  0.05    0.16
Q18   1   0.7736  0.4593  0.7878  11.00000  0.05    0.16
Q19   1   0.4117  0.4019  1.1138  11.00000  0.05    0.16
Q20   1   1.1145  0.5289  1.1049  11.00000  0.05    0.16
;
_shelx_res_checksum              80237
loop_
_space_group_symop_operation_xyz
'x, y, z'
'-x, y+1/2, -z'
loop_
_atom_site_label
_atom_site_type_symbol
_atom_site_fract_x
_atom_site_fract_y
_atom_site_fract_z
_atom_site_U_iso_or_equiv
_atom_site_adp_type
_atom_site_occupancy
_atom_site_site_symmetry_order
_atom_site_calc_flag
_atom_site_refinement_flags_posn
_atom_site_refinement_flags_adp
P1 P 0.64984(8) 0.36337(8) 0.81205(5) 0.01737(17) Uani 1 1 d . .
C15 C 0.5080(3) 0.3685(4) 1.0140(2) 0.0228(5) Uani 1 1 d . .
H15 H 0.3881 0.3233 0.9629 0.027 Uiso 1 1 calc R U
C14 C 0.5329(4) 0.3892(4) 1.1371(2) 0.0277(6) Uani 1 1 d . .
H14 H 0.4289 0.3612 1.1694 0.033 Uiso 1 1 calc R U
C6 C 0.5480(4) 0.5957(3) 0.6310(2) 0.0241(6) Uani 1 1 d . .
C12 C 0.8604(4) 0.4921(4) 1.1661(2) 0.0275(6) Uani 1 1 d . .
H12 H 0.9809 0.5330 1.2188 0.033 Uiso 1 1 calc R U
C11 C 0.8396(4) 0.4750(3) 1.0427(2) 0.0222(5) Uani 1 1 d . .
C1 C 0.4599(4) 0.4771(4) 0.6971(2) 0.0201(5) Uani 1 1 d . .
C16 C 0.6576(4) 0.4135(3) 0.9662(2) 0.0191(5) Uani 1 1 d . .
C5 C 0.4324(5) 0.6738(4) 0.5244(2) 0.0325(7) Uani 1 1 d . .
H5 H 0.4899 0.7513 0.4783 0.039 Uiso 1 1 calc R U
C10 C 1.0067(4) 0.5190(4) 0.9998(3) 0.0321(6) Uani 1 1 d . .
H10 H 1.1288 0.5312 1.0595 0.039 Uiso 1 1 calc R U
C9 C 1.0064(4) 0.5438(4) 0.8862(3) 0.0326(7) Uani 1 1 d . .
H9 H 1.1235 0.5730 0.8676 0.039 Uiso 1 1 calc R U
C13 C 0.7094(5) 0.4506(4) 1.2120(2) 0.0315(7) Uani 1 1 d . .
H13 H 0.7261 0.4641 1.2958 0.038 Uiso 1 1 calc R U
C2 C 0.2614(4) 0.4388(4) 0.6552(2) 0.0269(6) Uani 1 1 d . .
H2 H 0.2036 0.3553 0.6976 0.032 Uiso 1 1 calc R U
C7 C 0.7560(5) 0.6237(4) 0.6872(3) 0.0321(7) Uani 1 1 d . .
H7 H 0.8346 0.7012 0.6546 0.038 Uiso 1 1 calc R U
C4 C 0.2333(5) 0.6388(4) 0.4852(2) 0.0354(7) Uani 1 1 d . .
H4 H 0.1550 0.6939 0.4132 0.043 Uiso 1 1 calc R U
C8 C 0.8266(4) 0.5257(4) 0.7926(3) 0.0275(6) Uani 1 1 d . .
C3 C 0.1485(4) 0.5235(4) 0.5512(2) 0.0335(7) Uani 1 1 d . .
H3 H 0.0119 0.5024 0.5248 0.040 Uiso 1 1 calc R U
loop_
_atom_site_aniso_label
_atom_site_aniso_U_11
_atom_site_aniso_U_22
_atom_site_aniso_U_33
_atom_site_aniso_U_23
_atom_site_aniso_U_13
_atom_site_aniso_U_12
P1 0.0187(3) 0.0141(3) 0.0194(3) 0.0006(3) 0.0058(2) -0.0009(3)
C15 0.0260(12) 0.0168(11) 0.0251(11) 0.0006(13) 0.0066(9) -0.0005(13)
C14 0.0367(14) 0.0226(16) 0.0281(12) 0.0052(11) 0.0164(11) 0.0031(12)
C6 0.0384(16) 0.0144(12) 0.0211(12) -0.0021(10) 0.0112(11) 0.0006(11)
C12 0.0305(15) 0.0207(13) 0.0243(12) -0.0040(11) -0.0032(11) 0.0031(11)
C11 0.0250(13) 0.0135(11) 0.0245(12) -0.0018(10) 0.0016(10) 0.0018(9)
C1 0.0287(14) 0.0168(12) 0.0148(11) -0.0028(9) 0.0061(9) 0.0025(10)
C16 0.0230(13) 0.0126(12) 0.0190(11) 0.0013(8) 0.0019(9) 0.0028(9)
C5 0.059(2) 0.0202(14) 0.0216(13) 0.0039(11) 0.0162(13) 0.0056(13)
C10 0.0300(15) 0.0223(15) 0.0429(16) -0.0094(13) 0.0088(12) -0.0049(12)
C9 0.0279(15) 0.0229(14) 0.0489(18) -0.0025(13) 0.0139(13) -0.0026(12)
C13 0.0510(19) 0.0225(14) 0.0183(12) 0.0016(10) 0.0060(12) 0.0066(13)
C2 0.0279(15) 0.0256(13) 0.0257(13) 0.0024(11) 0.0055(11) 0.0005(11)
C7 0.0398(18) 0.0192(13) 0.0426(17) -0.0008(12) 0.0204(14) -0.0020(12)
C4 0.055(2) 0.0255(15) 0.0189(13) 0.0008(11) 0.0004(13) 0.0089(14)
C8 0.0256(14) 0.0171(13) 0.0440(15) -0.0046(12) 0.0169(12) -0.0024(11)
C3 0.0334(16) 0.0296(16) 0.0298(14) -0.0031(12) -0.0029(12) 0.0041(13)
loop_
_atom_type_symbol
_atom_type_description
_atom_type_scat_dispersion_real
_atom_type_scat_dispersion_imag
_atom_type_scat_source
C C 0.0033 0.0016 'International Tables Vol C Tables 4.2.6.8 and 6.1.1.4'
H H 0.0000 0.0000 'International Tables Vol C Tables 4.2.6.8 and 6.1.1.4'
P P 0.1023 0.0942 'International Tables Vol C Tables 4.2.6.8 and 6.1.1.4'
loop_
_geom_angle_atom_site_label_1
_geom_angle_atom_site_label_2
_geom_angle_atom_site_label_3
_geom_angle
C8 P1 C1 90.83(13)
C8 P1 C16 99.90(12)
C1 P1 C16 115.92(11)
C16 C15 C14 120.1(2)
C13 C14 C15 119.9(3)
C5 C6 C1 119.0(3)
C5 C6 C7 127.4(3)
C1 C6 C7 113.6(2)
C13 C12 C11 121.0(2)
C12 C11 C16 118.1(2)
C12 C11 C10 118.4(2)
C16 C11 C10 123.5(2)
C2 C1 C6 120.2(2)
C2 C1 P1 129.9(2)
C6 C1 P1 108.6(2)
C15 C16 C11 120.2(2)
C15 C16 P1 122.98(19)
C11 C16 P1 116.05(19)
C4 C5 C6 120.3(3)
C9 C10 C11 127.1(3)
C10 C9 C8 118.7(3)
C12 C13 C14 120.5(2)
C3 C2 C1 119.6(3)
C8 C7 C6 112.9(3)
C3 C4 C5 120.2(3)
C7 C8 C9 130.0(3)
C7 C8 P1 111.2(2)
C9 C8 P1 118.7(2)
C2 C3 C4 120.6(3)
loop_
_geom_bond_atom_site_label_1
_geom_bond_atom_site_label_2
_geom_bond_distance
P1 C8 1.794(3)
P1 C1 1.806(3)
P1 C16 1.811(3)
C15 C16 1.383(4)
C15 C14 1.396(3)
C14 C13 1.385(4)
C6 C5 1.395(4)
C6 C1 1.420(4)
C6 C7 1.459(4)
C12 C13 1.373(4)
C12 C11 1.402(4)
C11 C16 1.421(3)
C11 C10 1.461(4)
C1 C2 1.393(4)
C5 C4 1.391(5)
C10 C9 1.331(4)
C9 C8 1.430(4)
C2 C3 1.387(4)
C7 C8 1.379(4)
C4 C3 1.390(4)
loop_
_geom_torsion_atom_site_label_1
_geom_torsion_atom_site_label_2
_geom_torsion_atom_site_label_3
_geom_torsion_atom_site_label_4
_geom_torsion
C16 C15 C14 C13 -1.6(4)
C13 C12 C11 C16 0.0(4)
C13 C12 C11 C10 -179.2(3)
C5 C6 C1 C2 0.5(4)
C7 C6 C1 C2 179.3(2)
C5 C6 C1 P1 168.8(2)
C7 C6 C1 P1 -12.3(3)
C8 P1 C1 C2 -177.9(2)
C16 P1 C1 C2 -76.5(3)
C8 P1 C1 C6 15.17(18)
C16 P1 C1 C6 116.60(18)
C14 C15 C16 C11 2.2(4)
C14 C15 C16 P1 171.8(2)
C12 C11 C16 C15 -1.4(4)
C10 C11 C16 C15 177.8(3)
C12 C11 C16 P1 -171.7(2)
C10 C11 C16 P1 7.6(3)
C8 P1 C16 C15 159.1(2)
C1 P1 C16 C15 63.3(3)
C8 P1 C16 C11 -31.0(2)
C1 P1 C16 C11 -126.80(19)
C1 C6 C5 C4 1.4(4)
C7 C6 C5 C4 -177.3(3)
C12 C11 C10 C9 -166.8(3)
C16 C11 C10 C9 14.0(4)
C11 C10 C9 C8 -0.4(5)
C11 C12 C13 C14 0.5(4)
C15 C14 C13 C12 0.3(4)
C6 C1 C2 C3 -2.7(4)
P1 C1 C2 C3 -168.3(2)
C5 C6 C7 C8 -180.0(3)
C1 C6 C7 C8 1.3(3)
C6 C5 C4 C3 -1.0(4)
C6 C7 C8 C9 -165.2(3)
C6 C7 C8 P1 10.6(3)
C10 C9 C8 C7 142.8(3)
C10 C9 C8 P1 -32.7(4)
C1 P1 C8 C7 -15.0(2)
C16 P1 C8 C7 -131.5(2)
C1 P1 C8 C9 161.4(2)
C16 P1 C8 C9 44.9(2)
C1 C2 C3 C4 3.2(4)
C5 C4 C3 C2 -1.4(5)
