#------------------------------------------------------------------------------
#$Date: 2019-02-22 01:06:46 +0200 (Fri, 22 Feb 2019) $
#$Revision: 213767 $
#$URL: file:///home/coder/svn-repositories/cod/cif/7/12/30/7123022.cif $
#------------------------------------------------------------------------------
#
# This file is available in the Crystallography Open Database (COD),
# http://www.crystallography.net/
#
# All data on this site have been placed in the public domain by the
# contributors.
#
data_7123022
loop_
_publ_author_name
'Crawford, Adam W.'
'Groeneman , Ryan'
'Unruh, Daniel K.'
'Hutchins, Kristin M.'
_publ_section_title
;
 Cooling-rate dependent single-crystal-to-single-crystal phase transition
 in an organic co-crystal
;
_journal_name_full               'Chemical Communications'
_journal_paper_doi               10.1039/C9CC00836E
_journal_year                    2019
_chemical_formula_sum            'C18 H12 Br4 N2'
_chemical_formula_weight         575.94
_space_group_IT_number           2
_symmetry_cell_setting           triclinic
_symmetry_Int_Tables_number      2
_symmetry_space_group_name_Hall  '-P 1'
_symmetry_space_group_name_H-M   'P -1'
_atom_sites_solution_hydrogens   geom
_atom_sites_solution_primary     dual
_atom_sites_solution_secondary   difmap
_audit_creation_date             2018-10-31T15:21:59-00:00
_audit_creation_method           'WinGX routine CIF_UPDATE'
_audit_update_record
;
2019-01-09 deposited with the CCDC.    2019-02-21 downloaded from the CCDC.
;
_cell_angle_alpha                102.747(2)
_cell_angle_beta                 92.460(2)
_cell_angle_gamma                94.329(2)
_cell_formula_units_Z            2
_cell_length_a                   3.9431(6)
_cell_length_b                   13.4500(19)
_cell_length_c                   17.231(2)
_cell_measurement_reflns_used    3778
_cell_measurement_temperature    100(2)
_cell_measurement_theta_max      26.86
_cell_measurement_theta_min      2.43
_cell_volume                     887.1(2)
_computing_cell_refinement       'Bruker SAINT'
_computing_data_collection       'Bruker APEX2'
_computing_data_reduction        'Bruker SAINT'
_computing_structure_refinement  'SHELXL-2016/6 (Sheldrick, 2016)'
_computing_structure_solution    'SHELXT 2014/5 (Sheldrick, 2014)'
_diffrn_ambient_temperature      100(2)
_diffrn_measured_fraction_theta_full 0.997
_diffrn_measured_fraction_theta_max 0.996
_diffrn_measurement_device_type  'Bruker APEX-II CCD'
_diffrn_measurement_method       '\w scans'
_diffrn_radiation_monochromator  graphite
_diffrn_radiation_source         'fine-focus sealed tube'
_diffrn_radiation_type           MoK\a
_diffrn_radiation_wavelength     0.71073
_diffrn_reflns_av_R_equivalents  0.0496
_diffrn_reflns_av_unetI/netI     0.0615
_diffrn_reflns_Laue_measured_fraction_full 0.997
_diffrn_reflns_Laue_measured_fraction_max 0.996
_diffrn_reflns_limit_h_max       4
_diffrn_reflns_limit_h_min       -4
_diffrn_reflns_limit_k_max       16
_diffrn_reflns_limit_k_min       -16
_diffrn_reflns_limit_l_max       21
_diffrn_reflns_limit_l_min       -21
_diffrn_reflns_number            12565
_diffrn_reflns_point_group_measured_fraction_full 0.997
_diffrn_reflns_point_group_measured_fraction_max 0.996
_diffrn_reflns_theta_full        25.242
_diffrn_reflns_theta_max         26.366
_diffrn_reflns_theta_min         1.558
_exptl_absorpt_coefficient_mu    9.075
_exptl_absorpt_correction_T_max  0.7455
_exptl_absorpt_correction_T_min  0.3247
_exptl_absorpt_correction_type   multi-scan
_exptl_absorpt_process_details   SADABS
_exptl_crystal_colour            colourless
_exptl_crystal_density_diffrn    2.156
_exptl_crystal_description       chunk
_exptl_crystal_F_000             548
_exptl_crystal_recrystallization_method 'Re-crystallisation from solvent'
_exptl_crystal_size_max          0.48
_exptl_crystal_size_mid          0.375
_exptl_crystal_size_min          0.21
_refine_diff_density_max         0.613
_refine_diff_density_min         -0.857
_refine_diff_density_rms         0.152
_refine_ls_extinction_method     none
_refine_ls_goodness_of_fit_ref   1.032
_refine_ls_hydrogen_treatment    constr
_refine_ls_matrix_type           full
_refine_ls_number_parameters     271
_refine_ls_number_reflns         3590
_refine_ls_number_restraints     244
_refine_ls_restrained_S_all      0.999
_refine_ls_R_factor_all          0.0539
_refine_ls_R_factor_gt           0.036
_refine_ls_shift/su_max          0.001
_refine_ls_shift/su_mean         0
_refine_ls_structure_factor_coef Fsqd
_refine_ls_weighting_details
'w=1/[\s^2^(Fo^2^)+(0.0341P)^2^] where P=(Fo^2^+2Fc^2^)/3'
_refine_ls_weighting_scheme      calc
_refine_ls_wR_factor_gt          0.0796
_refine_ls_wR_factor_ref         0.0869
_reflns_Friedel_coverage         0
_reflns_number_gt                2714
_reflns_number_total             3590
_reflns_threshold_expression     'I > 2\s(I)'
_cod_data_source_file            c9cc00836e2.cif
_cod_data_source_block           TBrB_BPE_100K
_cod_database_code               7123022
_shelx_estimated_absorpt_t_min   0.097
_shelx_estimated_absorpt_t_max   0.252
_shelx_res_file
;
TITL hut18_70_a.res in P-1
    hut18_70_a.res
    created by SHELXL-2016/6 at 09:16:42 on 12-Oct-2018
REM Old TITL hut18_70 in P-1

REM SHELXT solution in P-1
REM R1 0.082,  Rweak 0.003,  Alpha 0.038,  Orientation as input
REM Formula found by SHELXT:  C18 Br4 N2

CELL  0.71073   3.9431  13.4500  17.2311  102.747   92.460   94.329
ZERR   2.000   0.0006   0.0019   0.0024    0.002    0.002    0.002
LATT  1
SFAC  C H BR N
UNIT  36 24 8 4
TEMP -173.15
SIZE 0.21 0.375 0.48
L.S.  100
EQIV  $1  -x+2, -y, -z+1
EQIV  $2  -x+1, -y, -z
HTAB
HTAB  C7 N1
HTAB  C16 N2A_$1
HTAB  C16 N2B_$1
BOND  $H
ACTA
LIST  4
FMAP  2

OMIT 0 0 1

SIMU 0.01 N2A N2B C10A C10B C11A C11B C12A C12B C13A C13B C14A C14B C15A C15B
DELU 0.005 N2A N2B C10A C10B C11A C11B C12A C12B C13A C13B C14A C14B C15A C15B

DFIX 31 C12A C15A C12B C15B
DFIX 41 C15A C15A_$2 C15B C15B_$2

PLAN  50
WGHT    0.034100
FVAR       0.42075   0.93453   1.48494   1.31140
BR1   3   -0.286905    0.713599   -0.024927    11.00000    0.01915    0.01642 =
         0.02098    0.00714    0.00111    0.00378
BR2   3    0.031005    0.692134    0.155256    11.00000    0.02407    0.01804 =
         0.01542   -0.00044   -0.00011    0.00252
BR3   3    0.539618    0.216016    0.442178    11.00000    0.02469    0.01510 =
         0.02200    0.00654    0.00076    0.00153
BR4   3    0.886149    0.202211    0.622289    11.00000    0.01900    0.01612 =
         0.01759   -0.00376   -0.00193   -0.00250
N1    4    0.591979    0.469831    0.233409    11.00000    0.02297    0.02025 =
         0.01747    0.00453    0.00045    0.00086
C1    1    0.571115    0.548537    0.295444    11.00000    0.02478    0.01789 =
         0.01669    0.00668    0.00114    0.00158
AFIX  43
H1    2    0.466653    0.606566    0.286152    11.00000   -1.20000
AFIX   0
C2    1    0.692870    0.550353    0.372389    11.00000    0.01620    0.01512 =
         0.01603    0.00241    0.00177    0.00048
AFIX  43
H2    2    0.667273    0.607868    0.414344    11.00000   -1.20000
AFIX   0
C3    1    0.852534    0.467634    0.387846    11.00000    0.01254    0.01803 =
         0.00938    0.00167   -0.00013    0.00000
C4    1    0.871327    0.385425    0.324197    11.00000    0.02014    0.01580 =
         0.01486    0.00245    0.00173    0.00230
AFIX  43
H4    2    0.973648    0.326285    0.331793    11.00000   -1.20000
AFIX   0
C5    1    0.739639    0.389992    0.249192    11.00000    0.02735    0.01710 =
         0.01872    0.00337    0.00422    0.00522
AFIX  43
H5    2    0.755764    0.332633    0.206441    11.00000   -1.20000
AFIX   0
C6    1    1.002332    0.463853    0.467169    11.00000    0.01406    0.01658 =
         0.01607    0.00238   -0.00300   -0.00015
AFIX  43
H6    2    1.111146    0.404406    0.471267    11.00000   -1.20000
AFIX   0
C7    1    0.133136    0.491347    0.073924    11.00000    0.01213    0.01920 =
         0.01198    0.00286   -0.00281   -0.00189
AFIX  43
H7    2    0.225052    0.485309    0.124385    11.00000   -1.20000
AFIX   0
C8    1    0.011833    0.581925    0.065047    11.00000    0.01377    0.01270 =
         0.01201    0.00031    0.00217   -0.00218
C9    1   -0.120441    0.590538   -0.009160    11.00000    0.01139    0.01609 =
         0.01707    0.00539    0.00292    0.00418

PART  1
N2A   4    0.886369    0.021611    0.267160    21.00000    0.01957    0.02073 =
         0.01447    0.00359    0.00114    0.00926
C10A  1    0.992670    0.097189    0.235348    21.00000    0.02390    0.01902 =
         0.01725    0.00166   -0.00159    0.00630
AFIX  43
H10A  2    1.137822    0.151580    0.267664    21.00000   -1.20000
AFIX   0
C11A  1    0.908491    0.103393    0.158019    21.00000    0.01951    0.01257 =
         0.01774    0.00238    0.00430    0.00497
AFIX  43
H11A  2    0.995104    0.160512    0.138596    21.00000   -1.20000
AFIX   0
C12A  1    0.695172    0.025122    0.108578    21.00000    0.01810    0.01576 =
         0.01120    0.00280    0.00083    0.00885
C13A  1    0.584075   -0.054985    0.141452    21.00000    0.01944    0.01436 =
         0.01634    0.00144    0.00179    0.00249
AFIX  43
H13A  2    0.437991   -0.110469    0.110818    21.00000   -1.20000
AFIX   0
C14A  1    0.686271   -0.054222    0.219261    21.00000    0.02453    0.01503 =
         0.01466    0.00444    0.00356    0.00810
AFIX  43
H14A  2    0.609789   -0.111118    0.240169    21.00000   -1.20000
AFIX   0
C15A  1    0.608791    0.031978    0.025347    21.00000    0.01393    0.01877 =
         0.01789    0.00750    0.00278    0.00366
AFIX  43
H15A  2    0.719624    0.087035    0.007181    21.00000   -1.20000
AFIX  66

PART  2
N2B   4    0.865521    0.041674    0.269194   -21.00000    0.02162    0.01737 =
         0.01400    0.00449    0.00123    0.00652
C10B  1    0.971269    0.107727    0.221560   -21.00000    0.02062    0.01565 =
         0.01485    0.00462    0.00162    0.00662
AFIX  43
H10B  2    1.109458    0.169069    0.244335   -21.00000   -1.20000
AFIX  65
C11B  1    0.874827    0.084029    0.140604   -21.00000    0.01976    0.01510 =
         0.01429    0.00412    0.00235    0.00594
AFIX  43
H11B  2    0.947102    0.129174    0.108049   -21.00000   -1.20000
AFIX  65
C12B  1    0.672635   -0.005722    0.107281   -21.00000    0.01793    0.01547 =
         0.01447    0.00417    0.00202    0.00573
C13B  1    0.566885   -0.071777    0.154914   -21.00000    0.02006    0.01451 =
         0.01438    0.00445    0.00276    0.00600
AFIX  43
H13B  2    0.428696   -0.133118    0.132139   -21.00000   -1.20000
AFIX  65
C14B  1    0.663325   -0.048080    0.235871   -21.00000    0.02096    0.01630 =
         0.01429    0.00431    0.00267    0.00664
AFIX  43
H14B  2    0.591049   -0.093225    0.268426   -21.00000   -1.20000
AFIX   0

C15B  1    0.477376   -0.023397    0.029065   -21.00000    0.01682    0.01617 =
         0.01507    0.00559    0.00120    0.00638
AFIX  43
H15B  2    0.295106   -0.075762    0.020107   -21.00000   -1.20000
AFIX   0
PART  0
C16   1    0.649318   -0.005978    0.573788    11.00000    0.01177    0.02033 =
         0.01162    0.00218    0.00046    0.00382
AFIX  43
H16   2    0.752076   -0.010257    0.623696    11.00000   -1.20000
AFIX   0

C17   1    0.662766    0.085964    0.550489    11.00000    0.01304    0.01350 =
         0.01171   -0.00484    0.00037   -0.00365
C18   1    0.516407    0.091771    0.476814    11.00000    0.01407    0.00919 =
         0.01412    0.00293    0.00282    0.00158
HKLF 4




REM  hut18_70_a.res in P-1
REM R1 =  0.0360 for    2714 Fo > 4sig(Fo)  and  0.0539 for all    3590 data
REM    271 parameters refined using    244 restraints

END

WGHT      0.0341      0.0000

REM Instructions for potential hydrogen bonds
HTAB C7 N1
EQIV $6 -x+1, -y+1, -z
HTAB C11A Br1_$6
HTAB C11B Br1_$6
EQIV $7 x, y-1, z
HTAB C13B Br2_$7
HTAB C16 N2A_$1
HTAB C16 N2B_$1

REM Highest difference peak  0.613,  deepest hole -0.857,  1-sigma level  0.152
Q1    1   0.7614  0.2217  0.4698  11.00000  0.05    0.61
Q2    1   0.8270  0.2778  0.6397  11.00000  0.05    0.59
Q3    1   0.2908  0.2150  0.4113  11.00000  0.05    0.54
Q4    1   0.2341  0.7024  0.0743  11.00000  0.05    0.54
Q5    1   0.6999 -0.1743  0.0682  11.00000  0.05    0.53
Q6    1   0.0954  0.6129  0.1619  11.00000  0.05    0.51
Q7    1   1.2268  0.2809  0.1542  11.00000  0.05    0.51
Q8    1   1.0006  0.1473  0.0124  11.00000  0.05    0.50
Q9    1   0.4552  0.5792  0.1013  11.00000  0.05    0.50
Q10   1  -0.2038  0.6356 -0.0152  11.00000  0.05    0.50
Q11   1  -0.1814  0.6802  0.1378  11.00000  0.05    0.49
Q12   1   0.3252  0.0587  0.4641  11.00000  0.05    0.49
Q13   1   0.3720  0.1374  0.4070  11.00000  0.05    0.49
Q14   1   0.5608  0.0560  0.5813  11.00000  0.05    0.49
Q15   1  -0.0605  0.7171  0.0069  11.00000  0.05    0.48
Q16   1   0.6490  0.1540  0.3954  11.00000  0.05    0.48
Q17   1   0.1776 -0.2205  0.1253  11.00000  0.05    0.48
Q18   1  -0.0229  0.8017  0.0400  11.00000  0.05    0.47
Q19   1   0.6050  0.2055  0.6253  11.00000  0.05    0.47
Q20   1   0.2892  0.6864  0.1757  11.00000  0.05    0.46
Q21   1   0.5751  0.0535  0.6335  11.00000  0.05    0.46
Q22   1   0.4784 -0.0255  0.5530  11.00000  0.05    0.46
Q23   1   0.6597  0.1075  0.2174  11.00000  0.05    0.46
Q24   1  -0.3341  0.7828 -0.0040  11.00000  0.05    0.46
Q25   1   1.1061  0.2046  0.6389  11.00000  0.05    0.45
Q26   1   0.6631  0.2596  0.5458  11.00000  0.05    0.45
Q27   1   0.5874  0.0012  0.1381  11.00000  0.05    0.44
Q28   1  -0.0160  0.6205 -0.0772  11.00000  0.05    0.44
Q29   1   0.5179  0.1383  0.4687  11.00000  0.05    0.44
Q30   1   0.5010  0.2036  0.5608  11.00000  0.05    0.44
Q31   1   0.8450  0.0426  0.1155  11.00000  0.05    0.44
Q32   1   1.1866  0.1680  0.1971  11.00000  0.05    0.44
Q33   1  -0.0634  0.7605  0.2255  11.00000  0.05    0.43
Q34   1   0.7037  0.2359  0.3483  11.00000  0.05    0.43
Q35   1   0.7869  0.4218  0.1458  11.00000  0.05    0.42
Q36   1   1.2248  0.3223  0.4915  11.00000  0.05    0.42
Q37   1   0.3350  0.3808  0.2784  11.00000  0.05    0.42
Q38   1   0.3180  0.1990  0.4480  11.00000  0.05    0.42
Q39   1   0.4171  0.0976  0.1068  11.00000  0.05    0.42
Q40   1   0.8235  0.4187  0.3643  11.00000  0.05    0.42
Q41   1  -0.2407  0.7172 -0.0683  11.00000  0.05    0.42
Q42   1   1.3514  0.2028  0.6204  11.00000  0.05    0.42
Q43   1   1.1727  0.2385  0.5990  11.00000  0.05    0.42
Q44   1   1.0645 -0.0259  0.1781  11.00000  0.05    0.41
Q45   1   0.7075  0.3573  0.3777  11.00000  0.05    0.41
Q46   1   0.8139  0.3595  0.4158  11.00000  0.05    0.41
Q47   1   0.4012  0.2774  0.4101  11.00000  0.05    0.41
Q48   1   0.5213  0.2348  0.3953  11.00000  0.05    0.41
Q49   1   0.4861  0.2371  0.1729  11.00000  0.05    0.40
Q50   1   0.9251  0.1306  0.6124  11.00000  0.05    0.40
;
_shelx_res_checksum              15419
loop_
_symmetry_equiv_pos_as_xyz
'x, y, z'
'-x, -y, -z'
loop_
_atom_site_label
_atom_site_type_symbol
_atom_site_fract_x
_atom_site_fract_y
_atom_site_fract_z
_atom_site_U_iso_or_equiv
_atom_site_adp_type
_atom_site_occupancy
_atom_site_site_symmetry_order
_atom_site_calc_flag
_atom_site_refinement_flags_posn
_atom_site_refinement_flags_adp
_atom_site_refinement_flags_occupancy
_atom_site_disorder_assembly
_atom_site_disorder_group
Br1 Br -0.28690(11) 0.71360(3) -0.02493(2) 0.01828(13) Uani 1 1 d . . . . .
Br2 Br 0.03100(11) 0.69213(3) 0.15526(2) 0.01983(14) Uani 1 1 d . . . . .
Br3 Br 0.53962(11) 0.21602(3) 0.44218(3) 0.02026(14) Uani 1 1 d . . . . .
Br4 Br 0.88615(11) 0.20221(3) 0.62229(2) 0.01904(14) Uani 1 1 d . . . . .
N1 N 0.5920(9) 0.4698(3) 0.2334(2) 0.0203(9) Uani 1 1 d . . . . .
C1 C 0.5711(11) 0.5485(4) 0.2954(2) 0.0194(11) Uani 1 1 d . . . . .
H1 H 0.466653 0.606566 0.286152 0.023 Uiso 1 1 calc R U . . .
C2 C 0.6929(10) 0.5504(3) 0.3724(2) 0.0160(10) Uani 1 1 d . . . . .
H2 H 0.667273 0.607868 0.414344 0.019 Uiso 1 1 calc R U . . .
C3 C 0.8525(10) 0.4676(3) 0.3878(2) 0.0136(10) Uani 1 1 d . . . . .
C4 C 0.8713(11) 0.3854(3) 0.3242(2) 0.0170(10) Uani 1 1 d . . . . .
H4 H 0.973648 0.326285 0.331793 0.02 Uiso 1 1 calc R U . . .
C5 C 0.7396(11) 0.3900(3) 0.2492(3) 0.0209(11) Uani 1 1 d . . . . .
H5 H 0.755764 0.332633 0.206441 0.025 Uiso 1 1 calc R U . . .
C6 C 1.0023(11) 0.4639(3) 0.4672(2) 0.0160(10) Uani 1 1 d . . . . .
H6 H 1.111146 0.404406 0.471267 0.019 Uiso 1 1 calc R U . . .
C7 C 0.1331(10) 0.4913(3) 0.0739(2) 0.0148(10) Uani 1 1 d . . . . .
H7 H 0.225052 0.485309 0.124385 0.018 Uiso 1 1 calc R U . . .
C8 C 0.0118(10) 0.5819(3) 0.0650(2) 0.0133(10) Uani 1 1 d . . . . .
C9 C -0.1204(10) 0.5905(3) -0.0092(2) 0.0144(10) Uani 1 1 d . . . . .
N2A N 0.886(2) 0.0216(4) 0.2672(3) 0.0179(12) Uani 0.935(10) 1 d . U P A 1
C10A C 0.9927(19) 0.0972(5) 0.2353(3) 0.0203(13) Uani 0.935(10) 1 d . U P A 1
H10A H 1.137822 0.15158 0.267664 0.024 Uiso 0.935(10) 1 calc R U P A 1
C11A C 0.9085(17) 0.1034(4) 0.1580(3) 0.0165(12) Uani 0.935(10) 1 d . U P A 1
H11A H 0.995104 0.160512 0.138596 0.02 Uiso 0.935(10) 1 calc R U P A 1
C12A C 0.6952(16) 0.0251(4) 0.1086(3) 0.0147(12) Uani 0.935(10) 1 d D U P A 1
C13A C 0.5841(17) -0.0550(5) 0.1415(3) 0.0170(12) Uani 0.935(10) 1 d . U P A 1
H13A H 0.437991 -0.110469 0.110818 0.02 Uiso 0.935(10) 1 calc R U P A 1
C14A C 0.686(2) -0.0542(5) 0.2193(3) 0.0175(12) Uani 0.935(10) 1 d . U P A 1
H14A H 0.609789 -0.111118 0.240169 0.021 Uiso 0.935(10) 1 calc R U P A 1
C15A C 0.6088(11) 0.0320(4) 0.0253(3) 0.0162(13) Uani 0.935(10) 1 d D U P A 1
H15A H 0.719624 0.087035 0.007181 0.019 Uiso 0.935(10) 1 calc R U P A 1
N2B N 0.87(3) 0.042(7) 0.269(3) 0.017(3) Uani 0.065(10) 1 d G U P A 2
C10B C 0.97(3) 0.108(5) 0.222(5) 0.017(3) Uani 0.065(10) 1 d G U P A 2
H10B H 1.109458 0.169069 0.244335 0.02 Uiso 0.065(10) 1 calc R U P A 2
C11B C 0.87(2) 0.084(6) 0.141(4) 0.016(3) Uani 0.065(10) 1 d G U P A 2
H11B H 0.947102 0.129174 0.108049 0.019 Uiso 0.065(10) 1 calc R U P A 2
C12B C 0.67(2) -0.006(6) 0.107(3) 0.016(2) Uani 0.065(10) 1 d DG U P A 2
C13B C 0.57(2) -0.072(5) 0.155(4) 0.016(3) Uani 0.065(10) 1 d G U P A 2
H13B H 0.428696 -0.133118 0.132139 0.019 Uiso 0.065(10) 1 calc R U P A 2
C14B C 0.66(3) -0.048(6) 0.236(4) 0.017(3) Uani 0.065(10) 1 d G U P A 2
H14B H 0.591049 -0.093225 0.268426 0.02 Uiso 0.065(10) 1 calc R U P A 2
C15B C 0.477(16) -0.023(5) 0.029(3) 0.015(3) Uani 0.065(10) 1 d D U P A 2
H15B H 0.295106 -0.075762 0.020107 0.019 Uiso 0.065(10) 1 calc R U P A 2
C16 C 0.6493(10) -0.0060(3) 0.5738(2) 0.0147(10) Uani 1 1 d . . . . .
H16 H 0.752076 -0.010257 0.623696 0.018 Uiso 1 1 calc R U . . .
C17 C 0.6628(10) 0.0860(3) 0.5505(2) 0.0142(10) Uani 1 1 d . . . . .
C18 C 0.5164(10) 0.0918(3) 0.4768(2) 0.0123(10) Uani 1 1 d . . . . .
loop_
_atom_site_aniso_label
_atom_site_aniso_U_11
_atom_site_aniso_U_22
_atom_site_aniso_U_33
_atom_site_aniso_U_23
_atom_site_aniso_U_13
_atom_site_aniso_U_12
Br1 0.0192(3) 0.0164(3) 0.0210(3) 0.0071(2) 0.00111(19) 0.0038(2)
Br2 0.0241(3) 0.0180(3) 0.0154(2) -0.0004(2) -0.00011(19) 0.0025(2)
Br3 0.0247(3) 0.0151(3) 0.0220(3) 0.0065(2) 0.0008(2) 0.0015(2)
Br4 0.0190(3) 0.0161(3) 0.0176(2) -0.0038(2) -0.00193(19) -0.0025(2)
N1 0.023(2) 0.020(2) 0.017(2) 0.0045(18) 0.0004(17) 0.0009(18)
C1 0.025(3) 0.018(3) 0.017(2) 0.007(2) 0.001(2) 0.002(2)
C2 0.016(3) 0.015(3) 0.016(2) 0.002(2) 0.0018(19) 0.000(2)
C3 0.013(2) 0.018(3) 0.009(2) 0.0017(19) -0.0001(18) 0.000(2)
C4 0.020(3) 0.016(3) 0.015(2) 0.002(2) 0.0017(19) 0.002(2)
C5 0.027(3) 0.017(3) 0.019(2) 0.003(2) 0.004(2) 0.005(2)
C6 0.014(2) 0.017(3) 0.016(2) 0.0024(19) -0.0030(19) 0.000(2)
C7 0.012(2) 0.019(3) 0.012(2) 0.003(2) -0.0028(18) -0.002(2)
C8 0.014(2) 0.013(3) 0.012(2) 0.0003(19) 0.0022(18) -0.0022(19)
C9 0.011(2) 0.016(3) 0.017(2) 0.005(2) 0.0029(18) 0.0042(19)
N2A 0.020(2) 0.021(3) 0.0145(19) 0.0036(17) 0.0011(16) 0.009(2)
C10A 0.024(3) 0.019(3) 0.017(3) 0.002(2) -0.002(2) 0.006(2)
C11A 0.020(3) 0.013(3) 0.018(3) 0.002(2) 0.004(2) 0.005(2)
C12A 0.018(2) 0.016(3) 0.0112(19) 0.0028(19) 0.0008(17) 0.009(2)
C13A 0.019(2) 0.014(3) 0.016(2) 0.001(2) 0.002(2) 0.002(2)
C14A 0.025(3) 0.015(2) 0.015(3) 0.004(2) 0.004(2) 0.008(2)
C15A 0.014(3) 0.019(3) 0.018(2) 0.008(2) 0.0028(19) 0.004(2)
N2B 0.022(5) 0.017(5) 0.014(4) 0.004(4) 0.001(5) 0.007(5)
C10B 0.021(5) 0.016(5) 0.015(4) 0.005(4) 0.002(5) 0.007(4)
C11B 0.020(5) 0.015(5) 0.014(4) 0.004(4) 0.002(5) 0.006(4)
C12B 0.018(4) 0.015(4) 0.014(4) 0.004(4) 0.002(4) 0.006(4)
C13B 0.020(5) 0.015(5) 0.014(4) 0.004(4) 0.003(5) 0.006(4)
C14B 0.021(5) 0.016(5) 0.014(4) 0.004(4) 0.003(5) 0.007(4)
C15B 0.017(6) 0.016(6) 0.015(5) 0.006(5) 0.001(5) 0.006(6)
C16 0.012(2) 0.020(3) 0.012(2) 0.002(2) 0.0005(18) 0.004(2)
C17 0.013(2) 0.014(3) 0.012(2) -0.0048(19) 0.0004(18) -0.0036(19)
C18 0.014(2) 0.009(2) 0.014(2) 0.0029(19) 0.0028(18) 0.0016(19)
loop_
_atom_type_symbol
_atom_type_description
_atom_type_scat_dispersion_real
_atom_type_scat_dispersion_imag
_atom_type_scat_source
C C 0.0033 0.0016 'International Tables Vol C Tables 4.2.6.8 and 6.1.1.4'
H H 0 0 'International Tables Vol C Tables 4.2.6.8 and 6.1.1.4'
Br Br -0.2901 2.4595 'International Tables Vol C Tables 4.2.6.8 and 6.1.1.4'
N N 0.0061 0.0033 'International Tables Vol C Tables 4.2.6.8 and 6.1.1.4'
loop_
_geom_angle_atom_site_label_1
_geom_angle_atom_site_label_2
_geom_angle_atom_site_label_3
_geom_angle
_geom_angle_site_symmetry_1
_geom_angle_site_symmetry_3
C5 N1 C1 116.0(4) . .
N1 C1 C2 123.9(4) . .
N1 C1 H1 118.1 . .
C2 C1 H1 118.1 . .
C1 C2 C3 119.6(4) . .
C1 C2 H2 120.2 . .
C3 C2 H2 120.2 . .
C4 C3 C2 116.9(4) . .
C4 C3 C6 119.4(4) . .
C2 C3 C6 123.7(4) . .
C3 C4 C5 119.5(4) . .
C3 C4 H4 120.2 . .
C5 C4 H4 120.2 . .
N1 C5 C4 124.1(4) . .
N1 C5 H5 118 . .
C4 C5 H5 118 . .
C6 C6 C3 125.5(5) 2_766 .
C6 C6 H6 117.2 2_766 .
C3 C6 H6 117.2 . .
C8 C7 C9 119.7(4) . 2_565
C8 C7 H7 120.2 . .
C9 C7 H7 120.2 2_565 .
C7 C8 C9 119.9(4) . .
C7 C8 Br2 118.5(3) . .
C9 C8 Br2 121.6(3) . .
C7 C9 C8 120.4(4) 2_565 .
C7 C9 Br1 117.9(3) 2_565 .
C8 C9 Br1 121.6(3) . .
C10A N2A C14A 115.9(4) . .
N2A C10A C11A 124.5(5) . .
N2A C10A H10A 117.7 . .
C11A C10A H10A 117.7 . .
C10A C11A C12A 119.5(5) . .
C10A C11A H11A 120.2 . .
C12A C11A H11A 120.2 . .
C13A C12A C11A 116.3(4) . .
C13A C12A C15A 124.6(5) . .
C11A C12A C15A 119.2(4) . .
C12A C13A C14A 119.6(5) . .
C12A C13A H13A 120.2 . .
C14A C13A H13A 120.2 . .
N2A C14A C13A 124.2(5) . .
N2A C14A H14A 117.9 . .
C13A C14A H14A 117.9 . .
C15A C15A C12A 125.3(6) 2_655 .
C15A C15A H15A 117.3 2_655 .
C12A C15A H15A 117.3 . .
C10B N2B C14B 120 . .
C11B C10B N2B 120.00(7) . .
C11B C10B H10B 120 . .
N2B C10B H10B 120 . .
C10B C11B C12B 120 . .
C10B C11B H11B 120 . .
C12B C11B H11B 120 . .
C13B C12B C11B 120 . .
C13B C12B C15B 114(5) . .
C11B C12B C15B 123(5) . .
C12B C13B C14B 120 . .
C12B C13B H13B 120 . .
C14B C13B H13B 120 . .
C13B C14B N2B 120 . .
C13B C14B H14B 120 . .
N2B C14B H14B 120 . .
C15B C15B C12B 129(7) 2_655 .
C15B C15B H15B 115.6 2_655 .
C12B C15B H15B 115.6 . .
C17 C16 C18 118.8(4) . 2_656
C17 C16 H16 120.6 . .
C18 C16 H16 120.6 2_656 .
C16 C17 C18 120.5(4) . .
C16 C17 Br4 117.5(3) . .
C18 C17 Br4 122.0(3) . .
C16 C18 C17 120.7(4) 2_656 .
C16 C18 Br3 117.8(3) 2_656 .
C17 C18 Br3 121.5(3) . .
loop_
_geom_bond_atom_site_label_1
_geom_bond_atom_site_label_2
_geom_bond_distance
_geom_bond_site_symmetry_2
Br1 C9 1.895(4) .
Br2 C8 1.891(4) .
Br3 C18 1.892(4) .
Br4 C17 1.896(4) .
N1 C5 1.333(5) .
N1 C1 1.338(5) .
C1 C2 1.385(5) .
C1 H1 0.95 .
C2 C3 1.388(6) .
C2 H2 0.95 .
C3 C4 1.384(6) .
C3 C6 1.478(5) .
C4 C5 1.388(5) .
C4 H4 0.95 .
C5 H5 0.95 .
C6 C6 1.321(8) 2_766
C6 H6 0.95 .
C7 C8 1.379(5) .
C7 C9 1.380(5) 2_565
C7 H7 0.95 .
C8 C9 1.392(5) .
N2A C10A 1.308(6) .
N2A C14A 1.340(6) .
C10A C11A 1.381(6) .
C10A H10A 0.95 .
C11A C12A 1.397(6) .
C11A H11A 0.95 .
C12A C13A 1.376(6) .
C12A C15A 1.484(6) .
C13A C14A 1.381(6) .
C13A H13A 0.95 .
C14A H14A 0.95 .
C15A C15A 1.316(9) 2_655
C15A H15A 0.95 .
N2B C10B 1.39 .
N2B C14B 1.41(13) .
C10B C11B 1.39 .
C10B H10B 0.95 .
C11B C12B 1.39 .
C11B H11B 0.95 .
C12B C13B 1.39 .
C12B C15B 1.49(3) .
C13B C14B 1.39 .
C13B H13B 0.95 .
C14B H14B 0.95 .
C15B C15B 1.31(3) 2_655
C15B H15B 0.95 .
C16 C17 1.380(5) .
C16 C18 1.383(5) 2_656
C16 H16 0.95 .
C17 C18 1.392(5) .
loop_
_geom_hbond_atom_site_label_D
_geom_hbond_atom_site_label_H
_geom_hbond_atom_site_label_A
_geom_hbond_distance_DH
_geom_hbond_distance_HA
_geom_hbond_distance_DA
_geom_hbond_angle_DHA
_geom_hbond_site_symmetry_A
C7 H7 N1 0.95 2.38 3.303(5) 164.8 .
C16 H16 N2A 0.95 2.35 3.285(6) 167.8 2_756
C16 H16 N2B 0.95 2.46 3.39(7) 164.9 2_756
