#------------------------------------------------------------------------------
#$Date: 2019-11-23 17:40:15 +0200 (Sat, 23 Nov 2019) $
#$Revision: 234256 $
#$URL: file:///home/coder/svn-repositories/cod/cif/7/12/48/7124817.cif $
#------------------------------------------------------------------------------
#
# This file is available in the Crystallography Open Database (COD),
# http://www.crystallography.net/
#
# All data on this site have been placed in the public domain by the
# contributors.
#
data_7124817
loop_
_publ_author_name
'Stephens, David E.'
'Lakey-Beitia, Johant'
'Burch, Jessica E.'
'Arman, Hadi D.'
'Larionov, Oleg V.'
_publ_section_title
;
 Mechanistic insights into the potassium tert-butoxide-mediated synthesis
 of N-heterobiaryls.
;
_journal_issue                   64
_journal_name_full
'Chemical communications (Cambridge, England)'
_journal_page_first              9945
_journal_page_last               9948
_journal_paper_doi               10.1039/c6cc04816a
_journal_volume                  52
_journal_year                    2016
_chemical_formula_moiety         'C10 H9 N O, 2(H2 O)'
_chemical_formula_sum            'C10 H13 N O3'
_chemical_formula_weight         195.21
_chemical_name_systematic        '4-Methylquinoline N-Oxide Dihydrate'
_space_group_crystal_system      triclinic
_space_group_IT_number           2
_space_group_name_Hall           '-P 1'
_space_group_name_H-M_alt        'P -1'
_atom_sites_solution_hydrogens   mixed
_atom_sites_solution_primary     direct
_audit_creation_date             2016-01-14
_audit_creation_method
;
Olex2 1.2
(compiled 2015.01.26 svn.r3150 for OlexSys, GUI svn.r4998)
;
_audit_update_record
;
2016-04-14 deposited with the CCDC.
2016-07-15 downloaded from the CCDC.
;
_cell_angle_alpha                107.219(6)
_cell_angle_beta                 111.191(11)
_cell_angle_gamma                92.478(5)
_cell_formula_units_Z            2
_cell_length_a                   6.690(4)
_cell_length_b                   8.863(5)
_cell_length_c                   9.115(6)
_cell_measurement_reflns_used    1460
_cell_measurement_temperature    98
_cell_measurement_theta_max      40.2
_cell_measurement_theta_min      2.4
_cell_volume                     474.4(5)
_computing_cell_refinement
;
CrystalClear-SM Expert 2.0 r15 (Rigaku, 2011)
;
_computing_data_collection
;
CrystalClear-SM Expert 2.0 r15 (Rigaku, 2011)
;
_computing_data_reduction
;
CrystalClear-SM Expert 2.0 r15 (Rigaku, 2011)
;
_computing_molecular_graphics    'Olex2 (Dolomanov et al., 2009)'
_computing_publication_material  'Olex2 (Dolomanov et al., 2009)'
_computing_structure_refinement  'ShelXL (Sheldrick, 2008)'
_computing_structure_solution    'ShelXT (Sheldrick, 2015)'
_diffrn_ambient_temperature      98
_diffrn_detector                 CCD
_diffrn_detector_area_resol_mean 28.5714
_diffrn_measured_fraction_theta_full 0.987
_diffrn_measured_fraction_theta_max 0.985
_diffrn_measurement_details
;
scan:
	Number of images: 182
	           Slice: -58.0000 - 33.0000
	     Image width: 0.5000
	        Exp time: 35.0000
	   Rotation axis: Omega
	           Omega: 0.0000
	           Kappa: 0.0000
	             Phi: 90.0000
	             XTD: 34.5856
	          2theta: -34.7176
scan:
	Number of images: 150
	           Slice: -68.0000 - 7.0000
	     Image width: 0.5000
	        Exp time: 35.0000
	   Rotation axis: Omega
	           Omega: 0.0000
	           Kappa: 0.0000
	             Phi: 0.0000
	             XTD: 34.5856
	          2theta: -34.7176
scan:
	Number of images: 114
	           Slice: -68.0000 - -11.0000
	     Image width: 0.5000
	        Exp time: 35.0000
	   Rotation axis: Omega
	           Omega: 0.0000
	           Kappa: 70.0000
	             Phi: 0.0000
	             XTD: 34.5856
	          2theta: -34.7176
scan:
	Number of images: 110
	           Slice: -66.0000 - -11.0000
	     Image width: 0.5000
	        Exp time: 35.0000
	   Rotation axis: Omega
	           Omega: 0.0000
	           Kappa: 70.0000
	             Phi: 180.0000
	             XTD: 34.5856
	          2theta: -34.7176
;
_diffrn_measurement_device
;
AFC12 (Right): Kappa 3 circle
;
_diffrn_measurement_device_type
;
Rigaku Saturn724 (2x2 bin mode)
;
_diffrn_measurement_method       'profile data from \w-scans'
_diffrn_measurement_specimen_support Fiber
_diffrn_orient_matrix_type       d*Trek
_diffrn_orient_matrix_UB_11      0.121914
_diffrn_orient_matrix_UB_12      -0.068341
_diffrn_orient_matrix_UB_13      0.083188
_diffrn_orient_matrix_UB_21      -0.015310
_diffrn_orient_matrix_UB_22      0.053663
_diffrn_orient_matrix_UB_23      0.106049
_diffrn_orient_matrix_UB_31      -0.038943
_diffrn_orient_matrix_UB_32      -0.083792
_diffrn_orient_matrix_UB_33      0.083985
_diffrn_radiation_monochromator  'Graphite Monochromator'
_diffrn_radiation_type           MoK\a
_diffrn_radiation_wavelength     0.71075
_diffrn_reflns_av_R_equivalents  0.0350
_diffrn_reflns_av_unetI/netI     0.0360
_diffrn_reflns_Laue_measured_fraction_full 0.987
_diffrn_reflns_Laue_measured_fraction_max 0.985
_diffrn_reflns_limit_h_max       8
_diffrn_reflns_limit_h_min       -8
_diffrn_reflns_limit_k_max       11
_diffrn_reflns_limit_k_min       -11
_diffrn_reflns_limit_l_max       11
_diffrn_reflns_limit_l_min       -10
_diffrn_reflns_number            2941
_diffrn_reflns_point_group_measured_fraction_full 0.987
_diffrn_reflns_point_group_measured_fraction_max 0.985
_diffrn_reflns_theta_full        25.242
_diffrn_reflns_theta_max         27.496
_diffrn_reflns_theta_min         2.441
_diffrn_source                   'Sealed Tube'
_diffrn_source_current           40.0
_diffrn_source_power             2.0
_diffrn_source_voltage           50.0
_exptl_absorpt_coefficient_mu    0.101
_exptl_absorpt_correction_T_max  1.000
_exptl_absorpt_correction_T_min  0.533
_exptl_absorpt_correction_type   multi-scan
_exptl_absorpt_process_details   'ABSCOR (Higashi, 1995)'
_exptl_crystal_colour            'clear colourless'
_exptl_crystal_colour_lustre     clear
_exptl_crystal_colour_primary    colourless
_exptl_crystal_density_diffrn    1.366
_exptl_crystal_description       plate
_exptl_crystal_F_000             208
_exptl_crystal_recrystallization_method
'vapor diffusion with acetonitrile and hexanes'
_exptl_crystal_size_max          0.5
_exptl_crystal_size_mid          0.23
_exptl_crystal_size_min          0.1
_refine_diff_density_max         0.393
_refine_diff_density_min         -0.346
_refine_diff_density_rms         0.051
_refine_ls_extinction_method     none
_refine_ls_goodness_of_fit_ref   0.991
_refine_ls_hydrogen_treatment    mixed
_refine_ls_matrix_type           full
_refine_ls_number_parameters     137
_refine_ls_number_reflns         2135
_refine_ls_number_restraints     0
_refine_ls_restrained_S_all      0.991
_refine_ls_R_factor_all          0.0551
_refine_ls_R_factor_gt           0.0486
_refine_ls_shift/su_max          0.000
_refine_ls_shift/su_mean         0.000
_refine_ls_structure_factor_coef Fsqd
_refine_ls_weighting_details
'w=1/[\s^2^(Fo^2^)+(0.0480P)^2^+0.3000P] where P=(Fo^2^+2Fc^2^)/3'
_refine_ls_weighting_scheme      calc
_refine_ls_wR_factor_gt          0.1138
_refine_ls_wR_factor_ref         0.1186
_reflns_Friedel_coverage         0.000
_reflns_number_gt                1817
_reflns_number_total             2135
_reflns_threshold_expression     'I > 2\s(I)'
_iucr_refine_instructions_details
;

    cd1403a.res created by SHELXL-2014/7

TITL cd1403a_a.res in P-1
REM Old TITL cd1403a in P-1 #2
REM SHELXT solution in P-1
REM R1 0.144, Rweak 0.004, Alpha 0.038, Orientation as input
REM Formula found by SHELXT: N O3 C10
CELL 0.71075 6.6901 8.8634 9.1148 107.219 111.191 92.478
ZERR 2 0.0039 0.0048 0.0057 0.006 0.011 0.005
LATT 1
SFAC N O C H
UNIT 2 6 20 26
 
L.S. 5
PLAN  5
SIZE 0.5 0.23 0.1
TEMP 98.15
BOND $H
LIST 4
fmap 2 53
ACTA
MORE -1
CONF
OMIT -3 55
REM <olex2.extras>
REM <HklSrc "%.\\cd1403a.hkl">
REM </olex2.extras>
 
WGHT    0.048000    0.300000
FVAR       1.78115
O1    2    0.541836    0.336933    0.094370    11.00000    0.02728    0.01882 =
         0.01084    0.00278    0.00396    0.00149
O3    2    0.859542   -0.132731    0.068884    11.00000    0.03708    0.03067 =
         0.02720    0.00755    0.00714   -0.00944
N1    1    0.620722    0.369619    0.259693    11.00000    0.01958    0.01540 =
         0.01322    0.00343    0.00465    0.00211
AFIX   6
O2    2    0.722156    0.103429   -0.070980    11.00000    0.04066    0.02995 =
         0.03171    0.00194    0.01110    0.01391
H2A   4    0.673907    0.180511   -0.020552    11.00000   -1.50000
H2B   4    0.837143    0.139707   -0.077595    11.00000   -1.50000
AFIX   0
 
C9    3    0.687342    0.529659    0.362689    11.00000    0.01668    0.01382 =
         0.01508    0.00346    0.00594    0.00191
C4    3    0.775632    0.565518    0.538553    11.00000    0.01661    0.01607 =
         0.01576    0.00466    0.00650    0.00200
C1    3    0.635109    0.251735    0.323807    11.00000    0.02407    0.01366 =
         0.01868    0.00376    0.00650    0.00165
AFIX  43
H1    4    0.587045    0.146048    0.252675    11.00000   -1.20000
AFIX   0
C3    3    0.794508    0.438375    0.607093    11.00000    0.01866    0.01994 =
         0.01635    0.00757    0.00683    0.00373
C8    3    0.664116    0.650576    0.289807    11.00000    0.02178    0.01948 =
         0.01607    0.00698    0.00704    0.00364
AFIX  43
H8    4    0.604552    0.624669    0.174346    11.00000   -1.20000
AFIX   0
C5    3    0.841721    0.729847    0.638758    11.00000    0.02055    0.01875 =
         0.01436    0.00270    0.00470    0.00096
AFIX  43
H5    4    0.900119    0.758016    0.754456    11.00000   -1.20000
AFIX   0
C2    3    0.721617    0.284632    0.496888    11.00000    0.02404    0.01737 =
         0.02098    0.01035    0.00874    0.00449
AFIX  43
H2    4    0.729865    0.199918    0.538232    11.00000   -1.20000
AFIX   0
C10   3    0.888856    0.471527    0.792304    11.00000    0.02594    0.02252 =
         0.01689    0.00837    0.00691    0.00434
AFIX 137
H10A  4    1.032822    0.532482    0.840129    11.00000   -1.50000
H10B  4    0.895217    0.371989    0.814231    11.00000   -1.50000
H10C  4    0.798851    0.531306    0.840968    11.00000   -1.50000
AFIX   0
C7    3    0.731016    0.807675    0.392271    11.00000    0.02798    0.01666 =
         0.02175    0.00886    0.00902    0.00389
AFIX  43
H7    4    0.716973    0.888734    0.345506    11.00000   -1.20000
AFIX   0
C6    3    0.820689    0.847771    0.567375    11.00000    0.02688    0.01503 =
         0.01973    0.00186    0.00765    0.00080
AFIX  43
H6    4    0.865880    0.954765    0.634959    11.00000   -1.20000
AFIX   0
H3A   4    0.740575   -0.205354    0.017466    11.00000   -1.50000
H3B   4    0.796984   -0.067079    0.042067    11.00000   -1.50000
HKLF 4
 
REM  cd1403a_a.res in P-1
REM R1 =  0.0486 for    1817 Fo > 4sig(Fo)  and  0.0551 for all    2135 data
REM    137 parameters refined using      0 restraints
 
END  
     
WGHT      0.0724      0.0932 

REM Highest difference peak  0.393,  deepest hole -0.346,  1-sigma level  0.051
Q1    1   0.7931  0.5002  0.5749  11.00000  0.05    0.33
Q2    1   0.6488  0.4587  0.3195  11.00000  0.05    0.30
Q3    1   0.6782  0.5906  0.3322  11.00000  0.05    0.29
Q4    1   0.7156  0.5448  0.4424  11.00000  0.05    0.28
Q5    1   0.7786  0.3627  0.5571  11.00000  0.05    0.28

REM The information below was added by Olex2.
REM
REM R1 = 0.0486 for 1817 Fo > 4sig(Fo) and 0.0551 for all 6311 data
REM n/a parameters refined using n/a restraints
REM Highest difference peak 0.39, deepest hole -0.35
REM Mean Shift 0, Max Shift 0.000.

REM +++ Tabular Listing of Refinement Information +++
REM R1_all = 0.0551
REM R1_gt = 0.0486
REM wR_ref = 0.1186
REM GOOF = 0.991
REM Shift_max = 0.000
REM Shift_mean = 0
REM Reflections_all = 6311
REM Reflections_gt = 1817
REM Parameters = n/a
REM Hole = -0.35
REM Peak = 0.39
REM Flack = n/a

;
_cod_data_source_file            c6cc04816a2.cif
_cod_data_source_block           cd1403a
_cod_database_code               7124817
_shelx_space_group_comment
;
The symmetry employed for this shelxl refinement is uniquely defined
by the following loop, which should always be used as a source of
symmetry information in preference to the above space-group names.
They are only intended as comments.
;
_shelx_estimated_absorpt_t_max   0.990
_shelx_estimated_absorpt_t_min   0.951
_olex2_refinement_description
;
1. Fixed Uiso
 At 1.2 times of:
  All C(H) groups
 At 1.5 times of:
  All C(H,H) groups, All C(H,H,H) groups, All O(H,H) groups
2.a Free rotating group:
 O2(H2A,H2B)
2.b Aromatic/amide H refined with riding coordinates:
 C1(H1), C8(H8), C5(H5), C2(H2), C7(H7), C6(H6)
2.c Idealised Me refined as rotating group:
 C10(H10A,H10B,H10C)
;
_shelx_shelxl_version_number     2014/7
_olex2_exptl_crystal_mounting_method 'nylon loop'
_olex2_submission_special_instructions 'No special instructions were received'
loop_
_space_group_symop_operation_xyz
'x, y, z'
'-x, -y, -z'
loop_
_atom_site_label
_atom_site_type_symbol
_atom_site_fract_x
_atom_site_fract_y
_atom_site_fract_z
_atom_site_U_iso_or_equiv
_atom_site_adp_type
_atom_site_occupancy
_atom_site_site_symmetry_order
_atom_site_calc_flag
_atom_site_refinement_flags_posn
O1 O 0.54184(18) 0.33693(12) 0.09437(12) 0.0206(3) Uani 1 1 d .
O3 O 0.8595(2) -0.13273(17) 0.06888(16) 0.0343(3) Uani 1 1 d .
N1 N 0.6207(2) 0.36962(14) 0.25969(15) 0.0169(3) Uani 1 1 d .
O2 O 0.7222(2) 0.10343(15) -0.07098(16) 0.0368(3) Uani 1 1 d .
H2A H 0.6739 0.1805 -0.0206 0.055 Uiso 1 1 d G
H2B H 0.8371 0.1397 -0.0776 0.055 Uiso 1 1 d G
C9 C 0.6873(2) 0.52966(16) 0.36269(17) 0.0156(3) Uani 1 1 d .
C4 C 0.7756(2) 0.56552(17) 0.53855(17) 0.0163(3) Uani 1 1 d .
C1 C 0.6351(2) 0.25173(17) 0.32381(18) 0.0198(3) Uani 1 1 d .
H1 H 0.5870 0.1460 0.2527 0.024 Uiso 1 1 calc R
C3 C 0.7945(2) 0.43837(18) 0.60709(18) 0.0180(3) Uani 1 1 d .
C8 C 0.6641(2) 0.65058(18) 0.28981(18) 0.0190(3) Uani 1 1 d .
H8 H 0.6046 0.6247 0.1743 0.023 Uiso 1 1 calc R
C5 C 0.8417(2) 0.72985(18) 0.63876(18) 0.0193(3) Uani 1 1 d .
H5 H 0.9001 0.7580 0.7545 0.023 Uiso 1 1 calc R
C2 C 0.7216(2) 0.28463(17) 0.49689(19) 0.0198(3) Uani 1 1 d .
H2 H 0.7299 0.1999 0.5382 0.024 Uiso 1 1 calc R
C10 C 0.8889(3) 0.47153(19) 0.79230(18) 0.0218(3) Uani 1 1 d .
H10A H 1.0328 0.5325 0.8401 0.033 Uiso 1 1 calc GR
H10B H 0.8952 0.3720 0.8142 0.033 Uiso 1 1 calc GR
H10C H 0.7989 0.5313 0.8410 0.033 Uiso 1 1 calc GR
C7 C 0.7310(3) 0.80768(18) 0.39227(19) 0.0218(3) Uani 1 1 d .
H7 H 0.7170 0.8887 0.3455 0.026 Uiso 1 1 calc R
C6 C 0.8207(3) 0.84777(18) 0.56738(19) 0.0220(3) Uani 1 1 d .
H6 H 0.8659 0.9548 0.6350 0.026 Uiso 1 1 calc R
H3A H 0.741(4) -0.205(3) 0.017(3) 0.033 Uiso 1 1 d R
H3B H 0.797(3) -0.067(3) 0.042(3) 0.033 Uiso 1 1 d R
loop_
_atom_site_aniso_label
_atom_site_aniso_U_11
_atom_site_aniso_U_22
_atom_site_aniso_U_33
_atom_site_aniso_U_23
_atom_site_aniso_U_13
_atom_site_aniso_U_12
O1 0.0273(6) 0.0188(5) 0.0108(5) 0.0028(4) 0.0040(4) 0.0015(4)
O3 0.0371(8) 0.0307(7) 0.0272(7) 0.0075(6) 0.0071(6) -0.0094(6)
N1 0.0196(6) 0.0154(6) 0.0132(6) 0.0034(5) 0.0046(5) 0.0021(5)
O2 0.0407(8) 0.0299(7) 0.0317(7) 0.0019(6) 0.0111(6) 0.0139(6)
C9 0.0167(7) 0.0138(6) 0.0151(7) 0.0035(5) 0.0059(5) 0.0019(5)
C4 0.0166(7) 0.0161(7) 0.0158(7) 0.0047(5) 0.0065(5) 0.0020(5)
C1 0.0241(8) 0.0137(6) 0.0187(7) 0.0038(6) 0.0065(6) 0.0017(6)
C3 0.0187(7) 0.0199(7) 0.0163(7) 0.0076(6) 0.0068(5) 0.0037(5)
C8 0.0218(7) 0.0195(7) 0.0161(7) 0.0070(6) 0.0070(6) 0.0036(6)
C5 0.0206(7) 0.0187(7) 0.0144(6) 0.0027(6) 0.0047(5) 0.0010(6)
C2 0.0240(8) 0.0174(7) 0.0210(7) 0.0104(6) 0.0087(6) 0.0045(6)
C10 0.0259(8) 0.0225(7) 0.0169(7) 0.0084(6) 0.0069(6) 0.0043(6)
C7 0.0280(8) 0.0167(7) 0.0218(7) 0.0089(6) 0.0090(6) 0.0039(6)
C6 0.0269(8) 0.0150(7) 0.0197(7) 0.0019(6) 0.0076(6) 0.0008(6)
loop_
_atom_type_symbol
_atom_type_description
_atom_type_scat_dispersion_real
_atom_type_scat_dispersion_imag
_atom_type_scat_source
N N 0.0061 0.0033 'International Tables Vol C Tables 4.2.6.8 and 6.1.1.4'
O O 0.0106 0.0060 'International Tables Vol C Tables 4.2.6.8 and 6.1.1.4'
C C 0.0033 0.0016 'International Tables Vol C Tables 4.2.6.8 and 6.1.1.4'
H H 0.0000 0.0000 'International Tables Vol C Tables 4.2.6.8 and 6.1.1.4'
loop_
_geom_angle_atom_site_label_1
_geom_angle_atom_site_label_2
_geom_angle_atom_site_label_3
_geom_angle
H3A O3 H3B 92(2)
O1 N1 C9 118.43(11)
C1 N1 O1 120.51(12)
C1 N1 C9 121.06(13)
H2A O2 H2B 109.5
N1 C9 C4 118.86(12)
N1 C9 C8 119.22(13)
C8 C9 C4 121.92(13)
C9 C4 C3 119.93(13)
C5 C4 C9 117.04(13)
C5 C4 C3 123.03(14)
N1 C1 H1 119.5
N1 C1 C2 120.93(13)
C2 C1 H1 119.5
C4 C3 C10 121.46(13)
C2 C3 C4 117.39(14)
C2 C3 C10 121.15(13)
C9 C8 H8 120.6
C7 C8 C9 118.76(14)
C7 C8 H8 120.6
C4 C5 H5 119.5
C6 C5 C4 120.97(14)
C6 C5 H5 119.5
C1 C2 H2 119.1
C3 C2 C1 121.81(13)
C3 C2 H2 119.1
C3 C10 H10A 109.5
C3 C10 H10B 109.5
C3 C10 H10C 109.5
H10A C10 H10B 109.5
H10A C10 H10C 109.5
H10B C10 H10C 109.5
C8 C7 H7 119.5
C8 C7 C6 120.90(14)
C6 C7 H7 119.5
C5 C6 C7 120.41(14)
C5 C6 H6 119.8
C7 C6 H6 119.8
loop_
_geom_bond_atom_site_label_1
_geom_bond_atom_site_label_2
_geom_bond_distance
O1 N1 1.3366(17)
O3 H3A 0.88(2)
O3 H3B 0.78(2)
N1 C9 1.3952(19)
N1 C1 1.3312(19)
O2 H2A 0.8501
O2 H2B 0.8500
C9 C4 1.420(2)
C9 C8 1.405(2)
C4 C3 1.431(2)
C4 C5 1.420(2)
C1 H1 0.9300
C1 C2 1.401(2)
C3 C2 1.372(2)
C3 C10 1.502(2)
C8 H8 0.9300
C8 C7 1.373(2)
C5 H5 0.9300
C5 C6 1.373(2)
C2 H2 0.9300
C10 H10A 0.9600
C10 H10B 0.9600
C10 H10C 0.9600
C7 H7 0.9300
C7 C6 1.410(2)
C6 H6 0.9300
loop_
_geom_torsion_atom_site_label_1
_geom_torsion_atom_site_label_2
_geom_torsion_atom_site_label_3
_geom_torsion_atom_site_label_4
_geom_torsion
O1 N1 C9 C4 -178.70(12)
O1 N1 C9 C8 1.68(19)
O1 N1 C1 C2 178.70(13)
N1 C9 C4 C3 -0.1(2)
N1 C9 C4 C5 179.89(12)
N1 C9 C8 C7 -179.73(13)
N1 C1 C2 C3 0.1(2)
C9 N1 C1 C2 -1.3(2)
C9 C4 C3 C2 -1.0(2)
C9 C4 C3 C10 179.44(13)
C9 C4 C5 C6 -0.1(2)
C9 C8 C7 C6 -0.2(2)
C4 C9 C8 C7 0.7(2)
C4 C3 C2 C1 1.0(2)
C4 C5 C6 C7 0.5(2)
C1 N1 C9 C4 1.3(2)
C1 N1 C9 C8 -178.36(13)
C3 C4 C5 C6 179.93(14)
C8 C9 C4 C3 179.49(13)
C8 C9 C4 C5 -0.5(2)
C8 C7 C6 C5 -0.3(2)
C5 C4 C3 C2 179.00(14)
C5 C4 C3 C10 -0.6(2)
C10 C3 C2 C1 -179.39(13)
