#------------------------------------------------------------------------------
#$Date: 2019-11-23 19:14:17 +0200 (Sat, 23 Nov 2019) $
#$Revision: 234599 $
#$URL: file:///home/coder/svn-repositories/cod/cif/7/12/52/7125203.cif $
#------------------------------------------------------------------------------
#
# This file is available in the Crystallography Open Database (COD),
# http://www.crystallography.net/
#
# All data on this site have been placed in the public domain by the
# contributors.
#
data_7125203
loop_
_publ_author_name
'Miyano, Tetsuya'
'Sakai, Tatsuya'
'Hisaki, Ichiro'
'Ichida, Hideki'
'Kanematsu, Yasuo'
'Tohnai, Norimitsu'
_publ_section_title
;
 Hierarchical construction of SHG-active polar crystals by using
 multi-component crystals.
;
_journal_issue                   94
_journal_name_full
'Chemical communications (Cambridge, England)'
_journal_page_first              13710
_journal_page_last               13713
_journal_paper_doi               10.1039/c6cc07544d
_journal_volume                  52
_journal_year                    2016
_chemical_absolute_configuration 'CHOOSE rm ad rmad syn or unk'
_chemical_formula_moiety         'C23 H28 Cl N5 O4 S'
_chemical_formula_sum            'C23 H28 Cl N5 O4 S'
_chemical_formula_weight         506.02
_chemical_name_systematic
'(E)-4-((4-aminophenyl)diazenyl)benzenesulfonic acid/(R)-1-(4-chlorophenyl)ethan-1-amine/N,N-dimethylformamide'
_space_group_crystal_system      triclinic
_space_group_IT_number           1
_space_group_name_Hall           'P 1'
_space_group_name_H-M_alt        'P 1'
_atom_sites_solution_hydrogens   geom
_atom_sites_solution_primary     direct
_atom_sites_solution_secondary   difmap
_audit_update_record
;
2016-09-14 deposited with the CCDC.
2016-10-25 downloaded from the CCDC.
;
_cell_angle_alpha                83.8975(16)
_cell_angle_beta                 82.0150(15)
_cell_angle_gamma                71.9997(15)
_cell_formula_units_Z            1
_cell_length_a                   5.94757(14)
_cell_length_b                   9.5911(2)
_cell_length_c                   11.4509(3)
_cell_measurement_reflns_used    2880
_cell_measurement_temperature    213
_cell_measurement_theta_max      68.13
_cell_measurement_theta_min      3.90
_cell_volume                     613.81(3)
_computing_cell_refinement       'RAPID AUTO'
_computing_data_collection       'RAPID AUTO (Rigaku, ????)'
_computing_data_reduction        'RAPID AUTO'
_computing_molecular_graphics    'CrystalStructure 4.2'
_computing_publication_material  'CrystalStructure 4.2 (Rigaku, 2015)'
_computing_structure_refinement  'SHELXL Version 2014/7 (Sheldrick, 2008)'
_computing_structure_solution    'SHELXT Version 2014/5 (Sheldrick, 2014)'
_diffrn_ambient_temperature      213
_diffrn_detector_area_resol_mean 10.000
_diffrn_measured_fraction_theta_full 0.974
_diffrn_measured_fraction_theta_max 0.972
_diffrn_measurement_device_type  'Rigaku R-AXIS RAPID'
_diffrn_measurement_method       \w
_diffrn_radiation_type           'Cu K\a'
_diffrn_radiation_wavelength     1.54187
_diffrn_reflns_av_R_equivalents  0.1089
_diffrn_reflns_Laue_measured_fraction_full 0.974
_diffrn_reflns_Laue_measured_fraction_max 0.972
_diffrn_reflns_limit_h_max       6
_diffrn_reflns_limit_h_min       -7
_diffrn_reflns_limit_k_max       11
_diffrn_reflns_limit_k_min       -11
_diffrn_reflns_limit_l_max       13
_diffrn_reflns_limit_l_min       -13
_diffrn_reflns_number            6470
_diffrn_reflns_point_group_measured_fraction_full 0.809
_diffrn_reflns_point_group_measured_fraction_max 0.806
_diffrn_reflns_theta_full        67.687
_diffrn_reflns_theta_max         68.127
_diffrn_reflns_theta_min         3.907
_diffrn_standards_number         0
_exptl_absorpt_coefficient_mu    2.506
_exptl_absorpt_correction_T_max  0.606
_exptl_absorpt_correction_T_min  0.306
_exptl_absorpt_correction_type   multi-scan
_exptl_absorpt_process_details   'ABSCOR (Rigaku, 1995)'
_exptl_crystal_colour            red
_exptl_crystal_density_diffrn    1.369
_exptl_crystal_density_method    'not measured'
_exptl_crystal_description       block
_exptl_crystal_F_000             266.00
_exptl_crystal_recrystallization_method
'Re-crystallisation from solvent: methanol/DMF'
_exptl_crystal_size_max          0.300
_exptl_crystal_size_mid          0.300
_exptl_crystal_size_min          0.200
_refine_diff_density_max         0.60
_refine_diff_density_min         -0.47
_refine_ls_abs_structure_details
;
 No quotients, so Flack parameter determined by classical intensity fit
;
_refine_ls_abs_structure_Flack   0.09(5)
_refine_ls_extinction_coef       0.010(5)
_refine_ls_extinction_method     SHELXL
_refine_ls_goodness_of_fit_ref   1.076
_refine_ls_hydrogen_treatment    constr
_refine_ls_number_parameters     312
_refine_ls_number_reflns         3604
_refine_ls_number_restraints     3
_refine_ls_R_factor_all          0.0964
_refine_ls_R_factor_gt           0.0851
_refine_ls_shift/su_max          0.000
_refine_ls_structure_factor_coef Fsqd
_refine_ls_weighting_details
'w = 1/[\s^2^(Fo^2^)+(0.1731P)^2^+0.0945P] where P=(Fo^2^+2Fc^2^)/3'
_refine_ls_weighting_scheme      calc
_refine_ls_wR_factor_gt          0.2281
_refine_ls_wR_factor_ref         0.2643
_reflns_Friedel_coverage         0.658
_reflns_Friedel_fraction_full    0.644
_reflns_Friedel_fraction_max     0.639
_reflns_number_gt                3036
_reflns_number_total             3604
_reflns_threshold_expression     F^2^>2.0\s(F^2^)
_cod_data_source_file            c6cc07544d2.cif
_cod_data_source_block           1-DMF
_cod_original_cell_volume        613.82(3)
_cod_database_code               7125203
_shelx_res_file
;

    shelxl.res created by SHELXL-2014/7

TITL 20140313p-Cl-R-PhEtAm-DMF
CELL  1.54187 5.94757 9.59114 11.45090 83.89750 82.01500 71.99970
ZERR  1 0.00014 0.00024 0.00029 0.00160 0.00150 0.00150
LATT -1
SFAC C H CL N O S
UNIT 23 28 1 5 4 1
L.S. 30
FMAP 2
PLAN 21
WPDB -2
HTAB
BOND $H
CONF
LIST 4
TEMP -60.0
ACTA
SIZE 0.300 0.300 0.200
WGHT    0.173100    0.094500
EXTI    0.009662
FVAR       0.88616
CL1   3    0.177104    0.517817    0.828533    11.00000    0.09793    0.06969 =
         0.05823    0.01518   -0.01520   -0.03718
S1    6    0.965138    0.583479    0.248031    11.00000    0.04026    0.03725 =
         0.04058    0.00102   -0.00466   -0.01395
O1    5    1.216075    0.570599    0.239417    11.00000    0.03864    0.04739 =
         0.05423    0.00506    0.00252   -0.01800
O2    5    0.898942    0.540556    0.145288    11.00000    0.07243    0.05234 =
         0.04548   -0.00247   -0.01031   -0.02355
O3    5    0.819761    0.730067    0.281328    11.00000    0.04447    0.03827 =
         0.05604    0.00444   -0.00178   -0.00978
O4    5    0.106891    1.060265    0.127262    11.00000    0.06823    0.07941 =
         0.07765    0.02615   -0.01745   -0.00253
N1    4    0.776366    0.183140    0.661304    11.00000    0.04347    0.03719 =
         0.04296   -0.00370   -0.00043   -0.01521
N2    4    0.598244    0.139811    0.664783    11.00000    0.04373    0.04249 =
         0.03683   -0.00019   -0.00438   -0.01935
N3    4    0.480345   -0.283637    1.023592    11.00000    0.04735    0.05299 =
         0.05111    0.00293   -0.00185   -0.02299
AFIX  93
H3A   2    0.576956   -0.313455    1.077791    11.00000   -1.20000
H3B   2    0.364259   -0.320955    1.023798    11.00000   -1.20000
AFIX   0
N4    4    0.317509    0.829905    0.275180    11.00000    0.05390    0.04441 =
         0.03061   -0.00383   -0.00163   -0.01360
AFIX 137
H4A   2    0.265464    0.751564    0.273266    11.00000   -1.20000
H4B   2    0.476453    0.799688    0.275885    11.00000   -1.20000
H4C   2    0.279858    0.891116    0.210855    11.00000   -1.20000
AFIX   0
N5    4   -0.228565    1.210992    0.058873    11.00000    0.06667    0.03842 =
         0.06372   -0.00150   -0.01941   -0.01389
C1    1    0.911851    0.460612    0.366530    11.00000    0.04502    0.02940 =
         0.04086   -0.00337   -0.00199   -0.00876
C2    1    1.036934    0.437522    0.464660    11.00000    0.04364    0.03055 =
         0.04017   -0.00176   -0.01117   -0.01489
AFIX  43
H2    2    1.155253    0.483237    0.466210    11.00000   -1.20000
AFIX   0
C3    1    0.984554    0.345867    0.560461    11.00000    0.03801    0.03987 =
         0.03782    0.00191   -0.00699   -0.01334
AFIX  43
H3    2    1.068677    0.329990    0.626753    11.00000   -1.20000
AFIX   0
C4    1    0.809745    0.277452    0.559605    11.00000    0.03470    0.02928 =
         0.05289   -0.00060   -0.00991   -0.00723
C5    1    0.687825    0.298985    0.458718    11.00000    0.03901    0.03361 =
         0.06444   -0.00165   -0.00932   -0.01709
AFIX  43
H5    2    0.572620    0.251135    0.456197    11.00000   -1.20000
AFIX   0
C6    1    0.737443    0.389812    0.364242    11.00000    0.03318    0.04353 =
         0.04822   -0.00643   -0.01073   -0.01116
AFIX  43
H6    2    0.654480    0.404834    0.297614    11.00000   -1.20000
AFIX   0
C7    1    0.571277    0.039803    0.763054    11.00000    0.03817    0.03406 =
         0.04411   -0.00297    0.00075   -0.00979
C8    1    0.726092   -0.009035    0.849471    11.00000    0.04253    0.04572 =
         0.04010   -0.00222   -0.00542   -0.02202
AFIX  43
H8    2    0.851813    0.031000    0.849347    11.00000   -1.20000
AFIX   0
C9    1    0.695799   -0.116064    0.935401    11.00000    0.04989    0.04558 =
         0.04605   -0.00011   -0.01309   -0.01738
AFIX  43
H9    2    0.801367   -0.148107    0.993440    11.00000   -1.20000
AFIX   0
C10   1    0.511185   -0.177324    0.937439    11.00000    0.04207    0.04063 =
         0.03625   -0.00540    0.00057   -0.01469
C11   1    0.352282   -0.124288    0.852468    11.00000    0.03433    0.04481 =
         0.05154   -0.00688   -0.00635   -0.01546
AFIX  43
H11   2    0.223480   -0.162042    0.854359    11.00000   -1.20000
AFIX   0
C12   1    0.380682   -0.017289    0.765571    11.00000    0.02845    0.04923 =
         0.04628   -0.00683   -0.01084   -0.00819
AFIX  43
H12   2    0.272798    0.016742    0.708713    11.00000   -1.20000
AFIX   0
C13   1    0.201101    0.805105    0.492689    11.00000    0.04278    0.04133 =
         0.03819   -0.01276   -0.00138   -0.01242
C14   1    0.410336    0.710802    0.531974    11.00000    0.03818    0.05147 =
         0.04421   -0.01217   -0.00076   -0.01129
AFIX  43
H14   2    0.557775    0.708392    0.488772    11.00000   -1.20000
AFIX   0
C15   1    0.402282    0.621025    0.633852    11.00000    0.04591    0.04387 =
         0.05500   -0.00405   -0.01376   -0.01339
AFIX  43
H15   2    0.543076    0.556674    0.660108    11.00000   -1.20000
AFIX   0
C16   1    0.184058    0.627105    0.696759    11.00000    0.07831    0.04723 =
         0.03253   -0.00864    0.00958   -0.02865
C17   1   -0.026254    0.719587    0.661608    11.00000    0.04668    0.05317 =
         0.05370   -0.01413    0.00153   -0.01998
AFIX  43
H17   2   -0.172732    0.723006    0.706257    11.00000   -1.20000
AFIX   0
C18   1   -0.015039    0.806726    0.559127    11.00000    0.05215    0.05095 =
         0.04327   -0.01133   -0.00468   -0.00925
AFIX  43
H18   2   -0.157107    0.869366    0.532886    11.00000   -1.20000
AFIX   0
C19   1    0.199955    0.910281    0.386431    11.00000    0.03746    0.04518 =
         0.04614   -0.01486    0.00104   -0.00605
AFIX  13
H19   2    0.032146    0.963016    0.374840    11.00000   -1.20000
AFIX   0
C20   1    0.324862    1.024654    0.397229    11.00000    0.05500    0.04833 =
         0.07084   -0.01477   -0.00094   -0.01351
AFIX 137
H20A  2    0.261162    1.073175    0.470034    11.00000   -1.20000
H20B  2    0.298666    1.096803    0.330506    11.00000   -1.20000
H20C  2    0.494157    0.976689    0.398010    11.00000   -1.20000
AFIX   0
C21   1   -0.094351    1.114464    0.110853    11.00000    0.34594    0.12880 =
         0.19946   -0.11133   -0.20113    0.11788
AFIX  43
H21   2   -0.183532    1.059120    0.157519    11.00000   -1.20000
AFIX   0
C22   1   -0.121686    1.289602   -0.028727    11.00000    0.22478    0.09814 =
         0.10746   -0.02921    0.02644   -0.08685
AFIX 137
H22A  2    0.045815    1.236521   -0.044736    11.00000   -1.20000
H22B  2   -0.138374    1.385423   -0.002249    11.00000   -1.20000
H22C  2   -0.198009    1.301651   -0.100249    11.00000   -1.20000
AFIX   0
C23   1   -0.475844    1.267238    0.059006    11.00000    0.15530    0.22868 =
         0.37931   -0.17346   -0.12978    0.08024
AFIX 137
H23A  2   -0.553235    1.242386    0.135141    11.00000   -1.20000
H23B  2   -0.525480    1.225047   -0.002598    11.00000   -1.20000
H23C  2   -0.520004    1.373220    0.044565    11.00000   -1.20000
AFIX   0
HKLF 4

REM  20140313p-Cl-R-PhEtAm-DMF
REM R1 =  0.0851 for    3036 Fo > 4sig(Fo)  and  0.0964 for all    3604 data
REM    312 parameters refined using      3 restraints

END

WGHT      0.1692      0.1265

REM Instructions for potential hydrogen bonds
EQIV $1 x, y-1, z+1
HTAB N3 O2_$1
EQIV $2 x-1, y, z
HTAB N4 S1_$2
HTAB N4 O1_$2
HTAB N4 S1
HTAB N4 O3
HTAB N4 O4
EQIV $3 x-1, y+1, z
HTAB C22 O2_$3

REM Highest difference peak  0.599,  deepest hole -0.469,  1-sigma level  0.081
Q1    1  -0.3579  1.1439  0.1575  11.00000  0.05    0.60
Q2    1   0.9952  0.5323  0.1761  11.00000  0.05    0.45
Q3    1   0.8540  0.5742  0.1855  11.00000  0.05    0.36
Q4    1   0.1765  0.5325  0.9121  11.00000  0.05    0.36
Q5    1  -0.3530  1.3303 -0.0229  11.00000  0.05    0.35
Q6    1   0.2743  0.8819  0.3364  11.00000  0.05    0.35
Q7    1   0.9594  0.6256  0.3290  11.00000  0.05    0.35
Q8    1   0.5015 -0.2350  1.1010  11.00000  0.05    0.34
Q9    1   0.0004  1.1754  0.0488  11.00000  0.05    0.33
Q10   1   0.5686 -0.1408  1.0087  11.00000  0.05    0.29
Q11   1   0.8282  0.2344  0.4860  11.00000  0.05    0.28
Q12   1   1.0396  0.4044  0.3848  11.00000  0.05    0.28
Q13   1   0.1967  0.4471  0.7591  11.00000  0.05    0.28
Q14   1   0.5026 -0.0299  0.9390  11.00000  0.05    0.28
Q15   1   1.1596  0.5890  0.4029  11.00000  0.05    0.27
Q16   1   0.7347  0.2201  0.7350  11.00000  0.05    0.27
Q17   1   0.8780  0.4222  0.2925  11.00000  0.05    0.27
Q18   1   0.3216  1.0058  0.3293  11.00000  0.05    0.26
Q19   1  -0.8280  1.4471  0.0015  11.00000  0.05    0.26
Q20   1   0.8488  0.3560  0.6260  11.00000  0.05    0.26
Q21   1   0.8976  0.5223  0.4387  11.00000  0.05    0.26
;
_shelx_res_checksum              51322
loop_
_space_group_symop_id
_space_group_symop_operation_xyz
1 +X,+Y,+Z
loop_
_atom_site_label
_atom_site_type_symbol
_atom_site_fract_x
_atom_site_fract_y
_atom_site_fract_z
_atom_site_U_iso_or_equiv
_atom_site_adp_type
_atom_site_occupancy
_atom_site_site_symmetry_order
_atom_site_calc_flag
_atom_site_refinement_flags_posn
_atom_site_refinement_flags_adp
Cl1 Cl 0.1771(6) 0.5178(3) 0.8285(3) 0.0733(10) Uani 1 1 d . .
S1 S 0.9651(3) 0.5835(2) 0.24803(18) 0.0391(6) Uani 1 1 d . .
O1 O 1.2161(13) 0.5706(8) 0.2394(6) 0.0470(16) Uani 1 1 d . .
O2 O 0.8989(15) 0.5406(8) 0.1453(6) 0.0553(19) Uani 1 1 d . .
O3 O 0.8198(12) 0.7301(7) 0.2813(6) 0.0478(16) Uani 1 1 d . .
O4 O 0.1069(18) 1.0603(11) 0.1273(8) 0.081(3) Uani 1 1 d . .
N1 N 0.7764(15) 0.1831(8) 0.6613(6) 0.0408(18) Uani 1 1 d . .
N2 N 0.5982(15) 0.1398(8) 0.6648(6) 0.0397(18) Uani 1 1 d . .
N3 N 0.4803(16) -0.2836(9) 1.0236(7) 0.0495(19) Uani 1 1 d . .
H3A H 0.5770 -0.3135 1.0778 0.059 Uiso 1 1 calc R U
H3B H 0.3643 -0.3210 1.0238 0.059 Uiso 1 1 calc R U
N4 N 0.3175(16) 0.8299(8) 0.2752(6) 0.0434(18) Uani 1 1 d . .
H4A H 0.2655 0.7516 0.2733 0.052 Uiso 1 1 calc R U
H4B H 0.4765 0.7997 0.2759 0.052 Uiso 1 1 calc R U
H4C H 0.2799 0.8911 0.2109 0.052 Uiso 1 1 calc R U
N5 N -0.2286(19) 1.2110(9) 0.0589(8) 0.056(2) Uani 1 1 d . .
C1 C 0.9119(18) 0.4606(10) 0.3665(8) 0.039(2) Uani 1 1 d . .
C2 C 1.0369(17) 0.4375(9) 0.4647(7) 0.0367(19) Uani 1 1 d . .
H2 H 1.1553 0.4832 0.4662 0.044 Uiso 1 1 calc R U
C3 C 0.9846(16) 0.3459(10) 0.5605(8) 0.038(2) Uani 1 1 d . .
H3 H 1.0687 0.3300 0.6268 0.046 Uiso 1 1 calc R U
C4 C 0.8097(17) 0.2775(9) 0.5596(9) 0.039(2) Uani 1 1 d . .
C5 C 0.6878(18) 0.2990(10) 0.4587(9) 0.044(2) Uani 1 1 d . .
H5 H 0.5726 0.2511 0.4562 0.053 Uiso 1 1 calc R U
C6 C 0.7374(17) 0.3898(10) 0.3642(8) 0.041(2) Uani 1 1 d . .
H6 H 0.6545 0.4048 0.2976 0.049 Uiso 1 1 calc R U
C7 C 0.5713(17) 0.0398(9) 0.7631(8) 0.040(2) Uani 1 1 d . .
C8 C 0.7261(17) -0.0090(10) 0.8495(7) 0.041(2) Uani 1 1 d . .
H8 H 0.8518 0.0310 0.8493 0.049 Uiso 1 1 calc R U
C9 C 0.6958(19) -0.1161(11) 0.9354(8) 0.046(2) Uani 1 1 d . .
H9 H 0.8014 -0.1481 0.9934 0.055 Uiso 1 1 calc R U
C10 C 0.5112(17) -0.1773(10) 0.9374(7) 0.039(2) Uani 1 1 d . .
C11 C 0.3523(17) -0.1243(10) 0.8525(8) 0.042(2) Uani 1 1 d . .
H11 H 0.2235 -0.1620 0.8544 0.051 Uiso 1 1 calc R U
C12 C 0.3807(16) -0.0173(10) 0.7656(8) 0.041(2) Uani 1 1 d . .
H12 H 0.2728 0.0167 0.7087 0.049 Uiso 1 1 calc R U
C13 C 0.2011(18) 0.8051(10) 0.4927(8) 0.040(2) Uani 1 1 d . .
C14 C 0.4103(18) 0.7108(11) 0.5320(8) 0.045(2) Uani 1 1 d . .
H14 H 0.5578 0.7084 0.4888 0.054 Uiso 1 1 calc R U
C15 C 0.4023(19) 0.6210(11) 0.6339(9) 0.047(2) Uani 1 1 d . .
H15 H 0.5431 0.5567 0.6601 0.057 Uiso 1 1 calc R U
C16 C 0.184(2) 0.6271(11) 0.6968(8) 0.052(3) Uani 1 1 d . .
C17 C -0.026(2) 0.7196(11) 0.6616(9) 0.050(2) Uani 1 1 d . .
H17 H -0.1727 0.7230 0.7063 0.060 Uiso 1 1 calc R U
C18 C -0.015(2) 0.8067(11) 0.5591(9) 0.050(2) Uani 1 1 d . .
H18 H -0.1571 0.8694 0.5329 0.060 Uiso 1 1 calc R U
C19 C 0.2000(18) 0.9103(11) 0.3864(8) 0.044(2) Uani 1 1 d . .
H19 H 0.0321 0.9630 0.3748 0.053 Uiso 1 1 calc R U
C20 C 0.325(2) 1.0247(12) 0.3972(11) 0.058(3) Uani 1 1 d . .
H20A H 0.2612 1.0732 0.4700 0.070 Uiso 1 1 calc R U
H20B H 0.2987 1.0968 0.3305 0.070 Uiso 1 1 calc R U
H20C H 0.4942 0.9767 0.3980 0.070 Uiso 1 1 calc R U
C21 C -0.094(7) 1.114(3) 0.111(3) 0.24(3) Uani 1 1 d . .
H21 H -0.1835 1.0591 0.1575 0.292 Uiso 1 1 calc R U
C22 C -0.122(6) 1.290(2) -0.0287(19) 0.137(10) Uani 1 1 d . .
H22A H 0.0458 1.2365 -0.0447 0.165 Uiso 1 1 calc R U
H22B H -0.1384 1.3854 -0.0022 0.165 Uiso 1 1 calc R U
H22C H -0.1980 1.3017 -0.1002 0.165 Uiso 1 1 calc R U
C23 C -0.476(6) 1.267(4) 0.059(4) 0.26(3) Uani 1 1 d . .
H23A H -0.5532 1.2424 0.1351 0.317 Uiso 1 1 calc R U
H23B H -0.5255 1.2250 -0.0026 0.317 Uiso 1 1 calc R U
H23C H -0.5200 1.3732 0.0446 0.317 Uiso 1 1 calc R U
loop_
_atom_site_aniso_label
_atom_site_aniso_U_11
_atom_site_aniso_U_22
_atom_site_aniso_U_33
_atom_site_aniso_U_23
_atom_site_aniso_U_13
_atom_site_aniso_U_12
Cl1 0.098(3) 0.0697(18) 0.0582(16) 0.0152(13) -0.0152(16) -0.0372(17)
S1 0.0403(12) 0.0373(11) 0.0406(11) 0.0010(8) -0.0047(8) -0.0139(8)
O1 0.039(4) 0.047(4) 0.054(4) 0.005(3) 0.003(3) -0.018(3)
O2 0.072(5) 0.052(4) 0.045(4) -0.002(3) -0.010(3) -0.024(4)
O3 0.044(4) 0.038(3) 0.056(4) 0.004(3) -0.002(3) -0.010(3)
O4 0.068(6) 0.079(6) 0.078(5) 0.026(5) -0.017(5) -0.003(5)
N1 0.043(5) 0.037(4) 0.043(4) -0.004(3) 0.000(3) -0.015(3)
N2 0.044(5) 0.042(4) 0.037(4) 0.000(3) -0.004(3) -0.019(4)
N3 0.047(5) 0.053(5) 0.051(4) 0.003(4) -0.002(4) -0.023(4)
N4 0.054(5) 0.044(4) 0.031(3) -0.004(3) -0.002(3) -0.014(3)
N5 0.067(7) 0.038(4) 0.064(5) -0.002(4) -0.019(5) -0.014(4)
C1 0.045(6) 0.029(4) 0.041(5) -0.003(3) -0.002(4) -0.009(4)
C2 0.044(5) 0.031(4) 0.040(4) -0.002(3) -0.011(4) -0.015(4)
C3 0.038(5) 0.040(5) 0.038(4) 0.002(4) -0.007(4) -0.013(4)
C4 0.035(5) 0.029(4) 0.053(5) -0.001(4) -0.010(4) -0.007(4)
C5 0.039(5) 0.034(4) 0.064(6) -0.002(4) -0.009(4) -0.017(4)
C6 0.033(5) 0.044(5) 0.048(5) -0.006(4) -0.011(4) -0.011(4)
C7 0.038(5) 0.034(4) 0.044(5) -0.003(3) 0.001(4) -0.010(4)
C8 0.043(5) 0.046(5) 0.040(4) -0.002(4) -0.005(4) -0.022(4)
C9 0.050(6) 0.046(5) 0.046(5) 0.000(4) -0.013(4) -0.017(4)
C10 0.042(5) 0.041(5) 0.036(4) -0.005(3) 0.001(4) -0.015(4)
C11 0.034(5) 0.045(5) 0.052(5) -0.007(4) -0.006(4) -0.015(4)
C12 0.028(5) 0.049(5) 0.046(4) -0.007(4) -0.011(4) -0.008(4)
C13 0.043(5) 0.041(5) 0.038(4) -0.013(4) -0.001(4) -0.012(4)
C14 0.038(5) 0.051(5) 0.044(5) -0.012(4) -0.001(4) -0.011(4)
C15 0.046(6) 0.044(5) 0.055(5) -0.004(4) -0.014(4) -0.013(4)
C16 0.078(8) 0.047(5) 0.033(5) -0.009(4) 0.010(5) -0.029(5)
C17 0.047(6) 0.053(6) 0.054(5) -0.014(4) 0.002(4) -0.020(5)
C18 0.052(6) 0.051(6) 0.043(5) -0.011(4) -0.005(4) -0.009(5)
C19 0.037(5) 0.045(5) 0.046(5) -0.015(4) 0.001(4) -0.006(4)
C20 0.055(7) 0.048(6) 0.071(7) -0.015(5) -0.001(5) -0.014(5)
C21 0.35(5) 0.129(19) 0.20(3) -0.11(2) -0.20(3) 0.12(3)
C22 0.22(3) 0.098(14) 0.107(14) -0.029(11) 0.026(15) -0.087(17)
C23 0.16(3) 0.23(3) 0.38(6) -0.17(4) -0.13(4) 0.08(3)
loop_
_atom_type_symbol
_atom_type_description
_atom_type_scat_dispersion_real
_atom_type_scat_dispersion_imag
_atom_type_scat_source
C C 0.0181 0.0091
;
International Tables for Crystallography
(Vol. C, Tables 4.2.6.8 and 6.1.1.4)
;
H H 0.0000 0.0000
;
International Tables for Crystallography
(Vol. C, Table 6.1.1.4)
;
Cl Cl 0.3639 0.7018
;
International Tables for Crystallography
(Vol. C, Tables 4.2.6.8 and 6.1.1.4)
;
N N 0.0311 0.0180
;
International Tables for Crystallography
(Vol. C, Tables 4.2.6.8 and 6.1.1.4)
;
O O 0.0492 0.0322
;
International Tables for Crystallography
(Vol. C, Tables 4.2.6.8 and 6.1.1.4)
;
S S 0.3331 0.5567
;
International Tables for Crystallography
(Vol. C, Tables 4.2.6.8 and 6.1.1.4)
;
loop_
_geom_angle_atom_site_label_1
_geom_angle_atom_site_label_2
_geom_angle_atom_site_label_3
_geom_angle
O2 S1 O1 113.2(5)
O2 S1 O3 113.1(4)
O1 S1 O3 110.7(4)
O2 S1 C1 107.0(4)
O1 S1 C1 106.2(4)
O3 S1 C1 106.1(4)
N2 N1 C4 114.1(7)
N1 N2 C7 114.2(7)
C10 N3 H3A 120.0
C10 N3 H3B 120.0
H3A N3 H3B 120.0
C19 N4 H4A 109.5
C19 N4 H4B 109.5
H4A N4 H4B 109.5
C19 N4 H4C 109.5
H4A N4 H4C 109.5
H4B N4 H4C 109.5
C21 N5 C22 115(3)
C21 N5 C23 137(3)
C22 N5 C23 108(3)
C2 C1 C6 120.0(9)
C2 C1 S1 119.8(8)
C6 C1 S1 120.2(7)
C3 C2 C1 119.2(9)
C3 C2 H2 120.4
C1 C2 H2 120.4
C4 C3 C2 121.1(8)
C4 C3 H3 119.5
C2 C3 H3 119.5
C3 C4 C5 119.2(9)
C3 C4 N1 116.0(7)
C5 C4 N1 124.7(8)
C6 C5 C4 120.0(9)
C6 C5 H5 120.0
C4 C5 H5 120.0
C5 C6 C1 120.4(8)
C5 C6 H6 119.8
C1 C6 H6 119.8
C8 C7 C12 119.6(8)
C8 C7 N2 124.8(8)
C12 C7 N2 115.5(8)
C9 C8 C7 120.2(9)
C9 C8 H8 119.9
C7 C8 H8 119.9
C8 C9 C10 121.0(9)
C8 C9 H9 119.5
C10 C9 H9 119.5
N3 C10 C9 121.0(8)
N3 C10 C11 120.7(9)
C9 C10 C11 118.3(8)
C12 C11 C10 121.3(9)
C12 C11 H11 119.3
C10 C11 H11 119.3
C11 C12 C7 119.4(8)
C11 C12 H12 120.3
C7 C12 H12 120.3
C14 C13 C18 118.5(9)
C14 C13 C19 122.6(9)
C18 C13 C19 118.8(9)
C15 C14 C13 120.4(10)
C15 C14 H14 119.8
C13 C14 H14 119.8
C14 C15 C16 119.0(9)
C14 C15 H15 120.5
C16 C15 H15 120.5
C17 C16 C15 122.5(10)
C17 C16 Cl1 119.0(9)
C15 C16 Cl1 118.5(9)
C18 C17 C16 117.8(10)
C18 C17 H17 121.1
C16 C17 H17 121.1
C17 C18 C13 122.0(10)
C17 C18 H18 119.0
C13 C18 H18 119.0
C13 C19 C20 113.9(9)
C13 C19 N4 111.4(7)
C20 C19 N4 107.5(9)
C13 C19 H19 107.9
C20 C19 H19 107.9
N4 C19 H19 107.9
C19 C20 H20A 109.5
C19 C20 H20B 109.5
H20A C20 H20B 109.5
C19 C20 H20C 109.5
H20A C20 H20C 109.5
H20B C20 H20C 109.5
N5 C21 O4 145(5)
N5 C21 H21 107.5
O4 C21 H21 107.5
N5 C22 H22A 109.5
N5 C22 H22B 109.5
H22A C22 H22B 109.5
N5 C22 H22C 109.5
H22A C22 H22C 109.5
H22B C22 H22C 109.5
N5 C23 H23A 109.5
N5 C23 H23B 109.5
H23A C23 H23B 109.5
N5 C23 H23C 109.5
H23A C23 H23C 109.5
H23B C23 H23C 109.5
loop_
_geom_bond_atom_site_label_1
_geom_bond_atom_site_label_2
_geom_bond_distance
Cl1 C16 1.747(10)
S1 O2 1.428(7)
S1 O1 1.449(7)
S1 O3 1.463(7)
S1 C1 1.761(10)
O4 C21 1.18(3)
N1 N2 1.246(11)
N1 C4 1.427(12)
N2 C7 1.424(11)
N3 C10 1.378(12)
N3 H3A 0.8700
N3 H3B 0.8700
N4 C19 1.528(11)
N4 H4A 0.9000
N4 H4B 0.9000
N4 H4C 0.9000
N5 C21 1.19(2)
N5 C22 1.39(2)
N5 C23 1.40(3)
C1 C2 1.394(12)
C1 C6 1.409(14)
C2 C3 1.394(12)
C2 H2 0.9400
C3 C4 1.392(13)
C3 H3 0.9400
C4 C5 1.412(13)
C5 C6 1.373(13)
C5 H5 0.9400
C6 H6 0.9400
C7 C8 1.391(13)
C7 C12 1.399(14)
C8 C9 1.380(13)
C8 H8 0.9400
C9 C10 1.393(14)
C9 H9 0.9400
C10 C11 1.397(13)
C11 C12 1.384(14)
C11 H11 0.9400
C12 H12 0.9400
C13 C14 1.394(14)
C13 C18 1.396(15)
C13 C19 1.495(14)
C14 C15 1.379(14)
C14 H14 0.9400
C15 C16 1.382(15)
C15 H15 0.9400
C16 C17 1.375(16)
C17 C18 1.373(15)
C17 H17 0.9400
C18 H18 0.9400
C19 C20 1.526(15)
C19 H19 0.9900
C20 H20A 0.9700
C20 H20B 0.9700
C20 H20C 0.9700
C21 H21 0.9400
C22 H22A 0.9700
C22 H22B 0.9700
C22 H22C 0.9700
C23 H23A 0.9700
C23 H23B 0.9700
C23 H23C 0.9700
loop_
_geom_hbond_atom_site_label_D
_geom_hbond_atom_site_label_H
_geom_hbond_atom_site_label_A
_geom_hbond_site_symmetry_A
_geom_hbond_distance_DA
_geom_hbond_distance_DH
_geom_hbond_distance_HA
_geom_hbond_angle_DHA
_geom_hbond_publ_flag
N3 H3A O2 1_546 2.975(12) 0.870 2.179 152.0 no
N4 H4A O1 1_455 2.816(12) 0.900 1.934 166.2 no
N4 H4B O3 . 2.850(11) 0.900 1.950 178.3 no
N4 H4C O4 . 2.721(11) 0.900 1.876 155.6 no
loop_
_geom_torsion_atom_site_label_1
_geom_torsion_atom_site_label_2
_geom_torsion_atom_site_label_3
_geom_torsion_atom_site_label_4
_geom_torsion
C4 N1 N2 C7 177.0(7)
O2 S1 C1 C2 155.7(7)
O1 S1 C1 C2 34.6(8)
O3 S1 C1 C2 -83.3(8)
O2 S1 C1 C6 -26.6(9)
O1 S1 C1 C6 -147.7(7)
O3 S1 C1 C6 94.5(8)
C6 C1 C2 C3 -1.0(13)
S1 C1 C2 C3 176.7(7)
C1 C2 C3 C4 -0.1(13)
C2 C3 C4 C5 1.5(13)
C2 C3 C4 N1 178.4(7)
N2 N1 C4 C3 170.8(8)
N2 N1 C4 C5 -12.5(12)
C3 C4 C5 C6 -1.8(13)
N1 C4 C5 C6 -178.5(8)
C4 C5 C6 C1 0.8(14)
C2 C1 C6 C5 0.6(14)
S1 C1 C6 C5 -177.1(7)
N1 N2 C7 C8 -0.3(12)
N1 N2 C7 C12 -176.4(8)
C12 C7 C8 C9 1.7(14)
N2 C7 C8 C9 -174.2(8)
C7 C8 C9 C10 0.1(14)
C8 C9 C10 N3 -179.7(8)
C8 C9 C10 C11 -2.1(14)
N3 C10 C11 C12 179.9(8)
C9 C10 C11 C12 2.2(14)
C10 C11 C12 C7 -0.4(14)
C8 C7 C12 C11 -1.6(14)
N2 C7 C12 C11 174.8(8)
C18 C13 C14 C15 0.3(13)
C19 C13 C14 C15 176.8(9)
C13 C14 C15 C16 -0.6(14)
C14 C15 C16 C17 0.0(15)
C14 C15 C16 Cl1 -177.7(7)
C15 C16 C17 C18 0.9(15)
Cl1 C16 C17 C18 178.5(7)
C16 C17 C18 C13 -1.1(14)
C14 C13 C18 C17 0.6(14)
C19 C13 C18 C17 -176.0(9)
C14 C13 C19 C20 -61.7(11)
C18 C13 C19 C20 114.7(10)
C14 C13 C19 N4 60.2(12)
C18 C13 C19 N4 -123.4(9)
C22 N5 C21 O4 10(4)
C23 N5 C21 O4 -173(3)
