#------------------------------------------------------------------------------
#$Date: 2019-11-23 19:05:29 +0200 (Sat, 23 Nov 2019) $
#$Revision: 234570 $
#$URL: file:///home/coder/svn-repositories/cod/cif/7/12/51/7125169.cif $
#------------------------------------------------------------------------------
#
# This file is available in the Crystallography Open Database (COD),
# http://www.crystallography.net/
#
# All data on this site have been placed in the public domain by the
# contributors.
#
data_7125169
loop_
_publ_author_name
'Tang, Baolei'
'Zhang, Houyu'
'Ye, Kaiqi'
'Zhang, Hongyu'
'Wang, Yue'
_publ_section_title
;
 Highly efficient blue solid emitters and tautomerization-induced ON/OFF
 fluorescence switching based on structurally simple
 3(5)-phenol-1H-pyrazoles.
;
_journal_issue                   89
_journal_name_full
'Chemical communications (Cambridge, England)'
_journal_page_first              13128
_journal_page_last               13131
_journal_paper_doi               10.1039/c6cc07300j
_journal_volume                  52
_journal_year                    2016
_chemical_formula_moiety         'C9 H7 F N2 O'
_chemical_formula_sum            'C9 H7 F N2 O'
_chemical_formula_weight         178.17
_space_group_IT_number           19
_space_group_name_Hall           'P 2ac 2ab'
_space_group_name_H-M_alt        'P 21 21 21'
_symmetry_cell_setting           orthorhombic
_symmetry_space_group_name_Hall  'P 2ac 2ab'
_symmetry_space_group_name_H-M   'P 21 21 21'
_atom_sites_solution_hydrogens   geom
_atom_sites_solution_primary     direct
_atom_sites_solution_secondary   difmap
_audit_creation_method           SHELXL-97
_audit_update_record
;
2016-05-14 deposited with the CCDC.
2016-10-13 downloaded from the CCDC.
;
_cell_angle_alpha                90.00
_cell_angle_beta                 90.00
_cell_angle_gamma                90.00
_cell_formula_units_Z            4
_cell_length_a                   3.7769(5)
_cell_length_b                   10.7326(13)
_cell_length_c                   19.387(3)
_cell_measurement_reflns_used    994
_cell_measurement_temperature    293(2)
_cell_measurement_theta_max      22.9009
_cell_measurement_theta_min      2.8315
_cell_volume                     785.87(19)
_computing_structure_refinement  'SHELXL-97 (Sheldrick, 1997)'
_computing_structure_solution    'SHELXS-97 (Sheldrick, 1990)'
_diffrn_ambient_temperature      293(2)
_diffrn_measured_fraction_theta_full 0.966
_diffrn_measured_fraction_theta_max 0.966
_diffrn_measurement_device_type  'Rigaku RAXIS-RAPID'
_diffrn_measurement_method       '\w scans'
_diffrn_radiation_monochromator  graphite
_diffrn_radiation_source         'fine-focus sealed tube'
_diffrn_radiation_type           MoK\a
_diffrn_radiation_wavelength     0.71073
_diffrn_reflns_av_R_equivalents  0.0491
_diffrn_reflns_av_sigmaI/netI    0.0560
_diffrn_reflns_limit_h_max       4
_diffrn_reflns_limit_h_min       -5
_diffrn_reflns_limit_k_max       13
_diffrn_reflns_limit_k_min       -11
_diffrn_reflns_limit_l_max       22
_diffrn_reflns_limit_l_min       -24
_diffrn_reflns_number            4740
_diffrn_reflns_theta_full        28.28
_diffrn_reflns_theta_max         28.28
_diffrn_reflns_theta_min         2.10
_exptl_absorpt_coefficient_mu    0.118
_exptl_crystal_colour            colorless
_exptl_crystal_density_diffrn    1.506
_exptl_crystal_density_method    'not measured'
_exptl_crystal_description       block
_exptl_crystal_F_000             368
_refine_diff_density_max         0.248
_refine_diff_density_min         -0.194
_refine_diff_density_rms         0.053
_refine_ls_abs_structure_details 'Flack H D (1983), Acta Cryst. A39, 876-881'
_refine_ls_abs_structure_Flack   -0.1(16)
_refine_ls_extinction_method     none
_refine_ls_goodness_of_fit_ref   1.080
_refine_ls_hydrogen_treatment    mixed
_refine_ls_matrix_type           full
_refine_ls_number_parameters     146
_refine_ls_number_reflns         1832
_refine_ls_number_restraints     0
_refine_ls_restrained_S_all      1.080
_refine_ls_R_factor_all          0.0724
_refine_ls_R_factor_gt           0.0535
_refine_ls_shift/su_max          0.000
_refine_ls_shift/su_mean         0.000
_refine_ls_structure_factor_coef Fsqd
_refine_ls_weighting_details
'calc w=1/[\s^2^(Fo^2^)+(0.0538P)^2^+0.0678P] where P=(Fo^2^+2Fc^2^)/3'
_refine_ls_weighting_scheme      calc
_refine_ls_wR_factor_gt          0.1112
_refine_ls_wR_factor_ref         0.1219
_reflns_number_gt                1496
_reflns_number_total             1832
_reflns_threshold_expression     >2sigma(I)
_cod_data_source_file            c6cc07300j2.cif
_cod_data_source_block           2
_cod_original_cell_volume        785.87(17)
_cod_original_sg_symbol_H-M      P212121
_cod_database_code               7125169
loop_
_symmetry_equiv_pos_as_xyz
'x, y, z'
'-x+1/2, -y, z+1/2'
'-x, y+1/2, -z+1/2'
'x+1/2, -y+1/2, -z'
loop_
_atom_site_label
_atom_site_type_symbol
_atom_site_fract_x
_atom_site_fract_y
_atom_site_fract_z
_atom_site_U_iso_or_equiv
_atom_site_adp_type
_atom_site_occupancy
_atom_site_symmetry_multiplicity
_atom_site_calc_flag
N1 N 0.2329(6) 0.28105(18) 0.81739(9) 0.0295(5) Uani 1 1 d
O1 O 0.4143(5) 0.06724(16) 0.76481(8) 0.0354(5) Uani 1 1 d
C3 C 0.2891(7) 0.0135(2) 0.82390(11) 0.0284(5) Uani 1 1 d
F1 F 0.2305(5) -0.29724(13) 0.89300(9) 0.0567(5) Uani 1 1 d
C4 C 0.1404(6) 0.0842(2) 0.87738(11) 0.0237(5) Uani 1 1 d
C8 C 0.0221(7) 0.0207(2) 0.93619(11) 0.0298(6) Uani 1 1 d
C9 C 0.0531(7) -0.1073(2) 0.94259(14) 0.0344(6) Uani 1 1 d
N2 N 0.1649(6) 0.40306(19) 0.82981(11) 0.0319(5) Uani 1 1 d
C7 C -0.0422(7) 0.3051(2) 0.91973(12) 0.0301(6) Uani 1 1 d
C2 C 0.3145(8) -0.1147(2) 0.82895(13) 0.0337(6) Uani 1 1 d
C1 C 0.1969(7) -0.1708(2) 0.88815(13) 0.0360(6) Uani 1 1 d
C5 C 0.1068(6) 0.2209(2) 0.87282(11) 0.0250(5) Uani 1 1 d
C6 C 0.0010(7) 0.4199(2) 0.89040(13) 0.0328(6) Uani 1 1 d
H6 H -0.085(6) 0.0701(19) 0.9753(11) 0.024(6) Uiso 1 1 d
H5 H -0.149(7) 0.288(2) 0.9630(12) 0.031(7) Uiso 1 1 d
H2 H 0.398(10) 0.149(3) 0.7703(17) 0.071(11) Uiso 1 1 d
H4 H -0.057(8) 0.502(2) 0.9062(12) 0.039(7) Uiso 1 1 d
H7 H -0.033(9) -0.147(2) 0.9822(14) 0.044(8) Uiso 1 1 d
H3 H 0.238(9) 0.465(2) 0.7978(13) 0.045(8) Uiso 1 1 d
H1 H 0.406(9) -0.165(2) 0.7944(15) 0.051(9) Uiso 1 1 d
loop_
_atom_site_aniso_label
_atom_site_aniso_U_11
_atom_site_aniso_U_22
_atom_site_aniso_U_33
_atom_site_aniso_U_23
_atom_site_aniso_U_13
_atom_site_aniso_U_12
N1 0.0374(12) 0.0266(11) 0.0246(11) 0.0025(8) -0.0002(9) 0.0002(9)
O1 0.0537(12) 0.0258(10) 0.0266(9) -0.0004(7) 0.0120(8) 0.0001(8)
C3 0.0320(13) 0.0310(13) 0.0223(11) 0.0014(9) 0.0002(11) -0.0028(10)
F1 0.0927(14) 0.0232(8) 0.0543(11) 0.0055(7) 0.0018(10) -0.0021(9)
C4 0.0247(11) 0.0235(12) 0.0231(11) 0.0018(8) -0.0041(9) -0.0032(9)
C8 0.0309(14) 0.0354(14) 0.0231(12) -0.0014(10) 0.0022(10) -0.0028(10)
C9 0.0421(16) 0.0351(13) 0.0259(12) 0.0085(11) 0.0004(11) -0.0089(12)
N2 0.0434(13) 0.0228(10) 0.0294(11) 0.0020(8) -0.0010(10) -0.0003(9)
C7 0.0302(14) 0.0345(14) 0.0257(12) -0.0017(10) -0.0001(10) 0.0007(11)
C2 0.0423(16) 0.0301(13) 0.0288(13) -0.0053(10) 0.0004(12) 0.0005(11)
C1 0.0488(16) 0.0249(13) 0.0342(14) 0.0038(10) -0.0036(13) -0.0028(11)
C5 0.0234(12) 0.0292(12) 0.0222(11) 0.0011(9) -0.0008(10) -0.0020(9)
C6 0.0337(13) 0.0298(13) 0.0348(13) -0.0026(11) -0.0021(11) 0.0028(11)
loop_
_atom_type_symbol
_atom_type_description
_atom_type_scat_dispersion_real
_atom_type_scat_dispersion_imag
_atom_type_scat_source
C C 0.0033 0.0016 'International Tables Vol C Tables 4.2.6.8 and 6.1.1.4'
H H 0.0000 0.0000 'International Tables Vol C Tables 4.2.6.8 and 6.1.1.4'
N N 0.0061 0.0033 'International Tables Vol C Tables 4.2.6.8 and 6.1.1.4'
O O 0.0106 0.0060 'International Tables Vol C Tables 4.2.6.8 and 6.1.1.4'
F F 0.0171 0.0103 'International Tables Vol C Tables 4.2.6.8 and 6.1.1.4'
loop_
_geom_angle_atom_site_label_1
_geom_angle_atom_site_label_2
_geom_angle_atom_site_label_3
_geom_angle
C5 N1 N2 104.82(19)
O1 C3 C2 117.1(2)
O1 C3 C4 122.0(2)
C2 C3 C4 120.9(2)
C8 C4 C3 117.8(2)
C8 C4 C5 120.4(2)
C3 C4 C5 121.88(19)
C9 C8 C4 121.9(2)
C1 C9 C8 117.3(2)
C6 N2 N1 111.90(19)
C6 C7 C5 105.3(2)
C1 C2 C3 118.3(2)
F1 C1 C2 117.7(2)
F1 C1 C9 118.6(2)
C2 C1 C9 123.7(2)
N1 C5 C7 110.6(2)
N1 C5 C4 119.8(2)
C7 C5 C4 129.6(2)
N2 C6 C7 107.4(2)
loop_
_geom_bond_atom_site_label_1
_geom_bond_atom_site_label_2
_geom_bond_distance
N1 C5 1.341(3)
N1 N2 1.356(3)
O1 C3 1.367(3)
C3 C2 1.383(3)
C3 C4 1.402(3)
F1 C1 1.366(3)
C4 C8 1.402(3)
C4 C5 1.475(3)
C8 C9 1.384(3)
C9 C1 1.369(4)
N2 C6 1.340(3)
C7 C6 1.366(4)
C7 C5 1.401(3)
C2 C1 1.370(4)
