#------------------------------------------------------------------------------
#$Date: 2019-11-23 18:46:09 +0200 (Sat, 23 Nov 2019) $
#$Revision: 234499 $
#$URL: file:///home/coder/svn-repositories/cod/cif/7/12/50/7125084.cif $
#------------------------------------------------------------------------------
#
# This file is available in the Crystallography Open Database (COD),
# http://www.crystallography.net/
#
# All data on this site have been placed in the public domain by the
# contributors.
#
data_7125084
loop_
_publ_author_name
'Pop, Flavia'
'Auban-Senzier, Pascale'
'Canadell, Enric'
'Avarvari, Narcis'
_publ_section_title
;
 Anion size control of the packing in the metallic versus semiconducting
 chiral radical cation salts (DM-EDT-TTF)<sub>2</sub>XF<sub>6</sub> (X =
 P, As, Sb).
;
_journal_issue                   84
_journal_name_full
'Chemical communications (Cambridge, England)'
_journal_page_first              12438
_journal_page_last               12441
_journal_paper_doi               10.1039/c6cc06706a
_journal_volume                  52
_journal_year                    2016
_chemical_absolute_configuration syn
_chemical_formula_moiety         '2(C10 H10 S6), As F6'
_chemical_formula_sum            'C20 H20 As F6 S12'
_chemical_formula_weight         834.00
_space_group_crystal_system      triclinic
_space_group_IT_number           1
_space_group_name_Hall           'P 1'
_space_group_name_H-M_alt        'P 1'
_atom_sites_solution_hydrogens   geom
_atom_sites_solution_primary     direct
_atom_sites_solution_secondary   difmap
_audit_creation_method           SHELXL-2013
_audit_update_record
;
2016-09-14 deposited with the CCDC.
2016-09-27 downloaded from the CCDC.
;
_cell_angle_alpha                86.780(12)
_cell_angle_beta                 77.306(9)
_cell_angle_gamma                68.018(6)
_cell_formula_units_Z            1
_cell_length_a                   6.6849(5)
_cell_length_b                   8.3964(8)
_cell_length_c                   15.203(3)
_cell_measurement_reflns_used    4108
_cell_measurement_temperature    293(2)
_cell_measurement_theta_max      26.99
_cell_measurement_theta_min      1.37
_cell_volume                     771.63(18)
_computing_cell_refinement       'Dirax (Duisenberg, 1992)'
_computing_data_collection       'Collect (Hooft, 2008)'
_computing_data_reduction        'EvalCCD (Duisenberg et al., 2000)'
_computing_molecular_graphics    'DIAMOND 3.2k (Crystal Impact GbR, 2014)'
_computing_publication_material  'WinGX publication routines (Farrugia, 1999)'
_computing_structure_refinement  'SHELXL-2013 (Sheldrick, 2013)'
_computing_structure_solution    'SHELXS-97 (Sheldrick, 2008)'
_diffrn_ambient_temperature      293(2)
_diffrn_detector_area_resol_mean 9
_diffrn_measured_fraction_theta_full 0.999
_diffrn_measured_fraction_theta_max 0.998
_diffrn_measurement_device_type  'Bruker Kappa CCD'
_diffrn_measurement_method       'phi and omega scans'
_diffrn_radiation_monochromator  graphite
_diffrn_radiation_source         'fine-focus sealed tube'
_diffrn_radiation_type           MoK\a
_diffrn_radiation_wavelength     0.71073
_diffrn_reflns_av_R_equivalents  0.0395
_diffrn_reflns_av_unetI/netI     0.0693
_diffrn_reflns_Laue_measured_fraction_full 0.999
_diffrn_reflns_Laue_measured_fraction_max 0.998
_diffrn_reflns_limit_h_max       8
_diffrn_reflns_limit_h_min       -8
_diffrn_reflns_limit_k_max       10
_diffrn_reflns_limit_k_min       -10
_diffrn_reflns_limit_l_max       18
_diffrn_reflns_limit_l_min       -19
_diffrn_reflns_number            15723
_diffrn_reflns_point_group_measured_fraction_full 0.946
_diffrn_reflns_point_group_measured_fraction_max 0.921
_diffrn_reflns_theta_full        25.242
_diffrn_reflns_theta_max         27.001
_diffrn_reflns_theta_min         2.617
_exptl_absorpt_coefficient_mu    1.964
_exptl_absorpt_correction_T_max  0.7455
_exptl_absorpt_correction_T_min  0.6442
_exptl_absorpt_correction_type   multi-scan
_exptl_absorpt_process_details   sadabs
_exptl_crystal_colour            black
_exptl_crystal_density_diffrn    1.795
_exptl_crystal_description       plate
_exptl_crystal_F_000             419
_exptl_crystal_size_max          0.38
_exptl_crystal_size_mid          0.15
_exptl_crystal_size_min          0.03
_refine_diff_density_max         0.329
_refine_diff_density_min         -0.268
_refine_diff_density_rms         0.065
_refine_ls_abs_structure_details
;
 Flack x determined using 1496 quotients [(I+)-(I-)]/[(I+)+(I-)]
 (Parsons and Flack (2004), Acta Cryst. A60, s61).
;
_refine_ls_abs_structure_Flack   0.068(16)
_refine_ls_extinction_method     none
_refine_ls_goodness_of_fit_ref   1.006
_refine_ls_hydrogen_treatment    constr
_refine_ls_matrix_type           full
_refine_ls_number_parameters     356
_refine_ls_number_reflns         6196
_refine_ls_number_restraints     3
_refine_ls_restrained_S_all      1.006
_refine_ls_R_factor_all          0.0971
_refine_ls_R_factor_gt           0.0413
_refine_ls_shift/su_max          0.000
_refine_ls_shift/su_mean         0.000
_refine_ls_structure_factor_coef Fsqd
_refine_ls_weighting_details
'w=1/[\s^2^(Fo^2^)+(0.0228P)^2^+0.3703P] where P=(Fo^2^+2Fc^2^)/3'
_refine_ls_weighting_scheme      calc
_refine_ls_wR_factor_gt          0.0690
_refine_ls_wR_factor_ref         0.0811
_reflns_Friedel_coverage         0.845
_reflns_Friedel_fraction_full    0.893
_reflns_Friedel_fraction_max     0.844
_reflns_number_gt                3843
_reflns_number_total             6196
_reflns_threshold_expression     'I > 2\s(I)'
_cod_data_source_file            c6cc06706a2.cif
_cod_data_source_block           '[(S,S)-1]2AsF6'
_cod_original_cell_volume        771.65(18)
_cod_database_code               7125084
_shelx_space_group_comment
;
The symmetry employed for this shelxl refinement is uniquely defined
by the following loop, which should always be used as a source of
symmetry information in preference to the above space-group names.
They are only intended as comments.
;
_shelxl_version_number           2013-4
_shelx_res_file
;
TITL fp115e12plate in P 1
CELL  0.71073   6.6849   8.3964  15.2034   86.780   77.306   68.018
ZERR     1.00   0.0005   0.0008   0.0030    0.012    0.009    0.006
LATT  -1
SFAC  C    H    AS   F    S
UNIT  20   20   1    6    12
MERG   2
OMIT     0  -1   0
OMIT     0  -4  -4
OMIT     0   2  14
OMIT    -1  -2   5
OMIT     0   0  -1
OMIT     0   0   1
OMIT     1   5  15
OMIT     0  -7   1
OMIT     4   2  11
FMAP   2
PLAN   10
ACTA
BOND   $H
L.S.  15
WGHT    0.022800    0.370300
FVAR       0.53807
MOLE    1
C1A   1    0.005858    0.932130    0.276428    11.00000    0.07172    0.06151 =
         0.04288    0.01073   -0.01781   -0.02101
AFIX  43
H1A   2   -0.082920    0.950335    0.234692    11.00000   -1.20000
AFIX   0
C2A   1    0.164638    1.000663    0.269088    11.00000    0.08510    0.04847 =
         0.05643    0.02063   -0.01208   -0.01836
AFIX  43
H2A   2    0.188790    1.068039    0.220300    11.00000   -1.20000
AFIX   0
C3A   1    0.194995    0.834454    0.411157    11.00000    0.05327    0.04373 =
         0.03456   -0.00319   -0.01944   -0.01015
C4A   1    0.253380    0.757918    0.487255    11.00000    0.04439    0.03949 =
         0.03463   -0.00077    0.00047   -0.02454
C5A   1    0.277702    0.595009    0.637346    11.00000    0.04552    0.04479 =
         0.01540    0.00471   -0.01660   -0.01438
C6A   1    0.425533    0.665316    0.626799    11.00000    0.04044    0.05197 =
         0.03223   -0.00802   -0.01616   -0.01512
C7A   1    0.301339    0.529824    0.815759    11.00000    0.03893    0.04947 =
         0.04372    0.00389   -0.00848   -0.01441
AFIX  13
H7A   2    0.207032    0.649405    0.833547    11.00000   -1.20000
AFIX   0
C8A   1    0.540714    0.516172    0.790312    11.00000    0.03713    0.05038 =
         0.03752    0.00293    0.00008   -0.00410
AFIX  13
H8A   2    0.633443    0.396975    0.771044    11.00000   -1.20000
AFIX   0
C9A   1    0.263382    0.414143    0.895556    11.00000    0.06770    0.11362 =
         0.05119    0.03245   -0.02068   -0.06355
AFIX 137
H9A1  2    0.375221    0.300973    0.884174    11.00000   -1.50000
H9A2  2    0.120538    0.407705    0.901910    11.00000   -1.50000
H9A3  2    0.270849    0.462014    0.950071    11.00000   -1.50000
AFIX   0
C10A  1    0.620056    0.562481    0.868063    11.00000    0.06440    0.11562 =
         0.03584    0.01832   -0.02214   -0.03296
AFIX 137
H10A  2    0.512548    0.667878    0.896975    11.00000   -1.50000
H10B  2    0.758165    0.576476    0.845440    11.00000   -1.50000
H10C  2    0.639557    0.472329    0.910871    11.00000   -1.50000
AFIX   0
S1A   5   -0.014991    0.808478    0.370375    11.00000    0.05793    0.05699 =
         0.04705   -0.00566   -0.01722   -0.02067
S2A   5    0.319256    0.962605    0.349659    11.00000    0.06711    0.04741 =
         0.04681    0.00960   -0.01841   -0.02585
S3A   5    0.124511    0.628791    0.552353    11.00000    0.05573    0.05609 =
         0.03761    0.00523   -0.01202   -0.03403
S4A   5    0.460456    0.781700    0.532068    11.00000    0.05336    0.05366 =
         0.03661    0.01037   -0.01577   -0.03037
S5A   5    0.208253    0.464779    0.725786    11.00000    0.07484    0.06292 =
         0.04588    0.01456   -0.01209   -0.04745
S6A   5    0.598920    0.653753    0.700967    11.00000    0.06023    0.07946 =
         0.04946    0.02166   -0.02684   -0.04733
MOLE    2
C1B   1    0.982527    0.066017    0.721740    11.00000    0.07798    0.06247 =
         0.05832   -0.00970   -0.05260   -0.00224
AFIX  43
H1B   2    1.068100    0.051153    0.764440    11.00000   -1.20000
AFIX   0
C2B   1    0.836221   -0.002588    0.733742    11.00000    0.09047    0.06160 =
         0.03781    0.01172   -0.04332   -0.02627
AFIX  43
H2B   2    0.814149   -0.068617    0.783425    11.00000   -1.20000
AFIX   0
C3B   1    0.809266    0.167799    0.585812    11.00000    0.03668    0.03237 =
         0.03599   -0.00120    0.00187   -0.01921
C4B   1    0.749731    0.243834    0.508774    11.00000    0.04666    0.03105 =
         0.03487   -0.00331   -0.01534   -0.00688
C5B   1    0.736171    0.404475    0.360406    11.00000    0.03566    0.03721 =
         0.05465   -0.00336    0.00051   -0.02133
C6B   1    0.575431    0.332331    0.368446    11.00000    0.04770    0.02893 =
         0.02928    0.00909    0.00217   -0.02146
C7B   1    0.605113    0.556932    0.203118    11.00000    0.04151    0.04094 =
         0.03886    0.00638   -0.00860   -0.01551
AFIX  13
H7B   2    0.468602    0.650594    0.230913    11.00000   -1.20000
AFIX   0
C8B   1    0.554358    0.400880    0.191200    11.00000    0.02993    0.04703 =
         0.03295   -0.00379   -0.00029   -0.01405
AFIX  13
H8B   2    0.692970    0.304064    0.169448    11.00000   -1.20000
AFIX   0
C9B   1    0.708964    0.616054    0.114327    11.00000    0.12165    0.11934 =
         0.05294    0.04218   -0.03164   -0.07363
AFIX 137
H9B1  2    0.836139    0.521816    0.084518    11.00000   -1.50000
H9B2  2    0.752796    0.708005    0.126066    11.00000   -1.50000
H9B3  2    0.603389    0.655593    0.076452    11.00000   -1.50000
AFIX   0
C10B  1    0.400913    0.424371    0.126273    11.00000    0.05707    0.07289 =
         0.05405    0.01728   -0.02355   -0.03739
AFIX 137
H10D  2    0.279900    0.532885    0.139177    11.00000   -1.50000
H10E  2    0.345089    0.333341    0.133504    11.00000   -1.50000
H10F  2    0.481393    0.421638    0.065368    11.00000   -1.50000
AFIX   0
S1B   5    1.023662    0.186018    0.627307    11.00000    0.04897    0.06037 =
         0.05572    0.00114   -0.02291   -0.02148
S2B   5    0.682572    0.036302    0.650962    11.00000    0.06890    0.05165 =
         0.04829    0.01469   -0.01912   -0.03088
S3B   5    0.879840    0.367375    0.445719    11.00000    0.04918    0.05317 =
         0.04201    0.00415   -0.01573   -0.02853
S4B   5    0.541367    0.214721    0.467578    11.00000    0.05066    0.04943 =
         0.03757    0.00869   -0.01298   -0.02985
S5B   5    0.809688    0.520064    0.271380    11.00000    0.06177    0.07166 =
         0.04825    0.01848   -0.02414   -0.04579
S6B   5    0.405363    0.342772    0.297194    11.00000    0.05936    0.06926 =
         0.04585    0.02381   -0.02166   -0.04041
MOLE    3
AS1   3   -0.000060    0.000125   -0.000032    11.00000    0.11272    0.04701 =
         0.04374    0.00383   -0.01896   -0.00303
F1    4    0.072457    0.128858    0.057283    11.00000    0.17456    0.12221 =
         0.11216   -0.03771    0.01757   -0.07116
F2    4   -0.094938   -0.112900   -0.058723    11.00000    0.19830    0.14761 =
         0.07813   -0.01212   -0.05977   -0.06961
F3    4    0.159959   -0.184440    0.040231    11.00000    0.14854    0.07376 =
         0.11867    0.04143   -0.03313    0.01089
F4    4   -0.170705    0.175928   -0.040038    11.00000    0.16315    0.10810 =
         0.09531    0.03127   -0.02004    0.03461
F5    4    0.204266   -0.012224   -0.089886    11.00000    0.12718    0.11617 =
         0.08112    0.01075    0.01489   -0.01865
F6    4   -0.205679    0.011442    0.093406    11.00000    0.13295    0.08048 =
         0.05722   -0.00664   -0.01267   -0.02732
HKLF    4

REM  fp115e12plate in P 1
REM R1 =  0.0413 for    3843 Fo > 4sig(Fo)  and  0.0971 for all    6196 data
REM    356 parameters refined using      3 restraints

END

WGHT      0.0228      0.3703

REM Highest difference peak  0.329,  deepest hole -0.268,  1-sigma level  0.065
Q1    1   0.0522 -0.1893 -0.0131  11.00000  0.05    0.33
Q2    1   0.1648 -0.0365  0.0462  11.00000  0.05    0.30
Q3    1   0.0762 -0.0860 -0.0701  11.00000  0.05    0.29
Q4    1  -0.1398  0.0348 -0.0519  11.00000  0.05    0.29
Q5    1   0.5346  0.0830  0.6930  11.00000  0.05    0.28
Q6    1  -0.0534  0.1945  0.0118  11.00000  0.05    0.27
Q7    1  -0.0525 -0.1308 -0.0944  11.00000  0.05    0.27
Q8    1  -0.0152  0.2220  0.0049  11.00000  0.05    0.26
Q9    1   0.0806  0.1259  0.0864  11.00000  0.05    0.26
Q10   1  -0.2068  0.0562 -0.0807  11.00000  0.05    0.26
;
_shelx_res_checksum              81704
loop_
_space_group_symop_operation_xyz
'x, y, z'
loop_
_atom_site_label
_atom_site_type_symbol
_atom_site_fract_x
_atom_site_fract_y
_atom_site_fract_z
_atom_site_U_iso_or_equiv
_atom_site_adp_type
_atom_site_occupancy
_atom_site_site_symmetry_order
_atom_site_calc_flag
_atom_site_refinement_flags_posn
_atom_site_refinement_flags_adp
C1A C 0.006(2) 0.9321(18) 0.2764(9) 0.059(4) Uani 1 1 d . .
H1A H -0.0829 0.9503 0.2347 0.071 Uiso 1 1 calc R U
C2A C 0.165(3) 1.0007(18) 0.2691(10) 0.067(5) Uani 1 1 d . .
H2A H 0.1888 1.0680 0.2203 0.080 Uiso 1 1 calc R U
C3A C 0.195(2) 0.8345(17) 0.4112(8) 0.044(4) Uani 1 1 d . .
C4A C 0.253(2) 0.7579(16) 0.4873(9) 0.038(3) Uani 1 1 d . .
C5A C 0.278(2) 0.5950(15) 0.6373(7) 0.034(3) Uani 1 1 d . .
C6A C 0.426(2) 0.6653(17) 0.6268(8) 0.040(3) Uani 1 1 d . .
C7A C 0.3013(13) 0.5298(12) 0.8158(5) 0.045(2) Uani 1 1 d . .
H7A H 0.2070 0.6494 0.8335 0.054 Uiso 1 1 calc R U
C8A C 0.5407(14) 0.5162(12) 0.7903(6) 0.047(2) Uani 1 1 d . .
H8A H 0.6334 0.3970 0.7710 0.056 Uiso 1 1 calc R U
C9A C 0.263(2) 0.414(2) 0.8956(10) 0.069(4) Uani 1 1 d . .
H9A1 H 0.3752 0.3010 0.8842 0.103 Uiso 1 1 calc R U
H9A2 H 0.1205 0.4077 0.9019 0.103 Uiso 1 1 calc R U
H9A3 H 0.2708 0.4620 0.9501 0.103 Uiso 1 1 calc R U
C10A C 0.620(2) 0.562(2) 0.8681(9) 0.071(5) Uani 1 1 d . .
H10A H 0.5125 0.6679 0.8970 0.106 Uiso 1 1 calc R U
H10B H 0.7582 0.5765 0.8454 0.106 Uiso 1 1 calc R U
H10C H 0.6396 0.4723 0.9109 0.106 Uiso 1 1 calc R U
S1A S -0.0150(5) 0.8085(4) 0.3704(2) 0.0529(11) Uani 1 1 d . .
S2A S 0.3193(6) 0.9626(4) 0.3497(2) 0.0517(11) Uani 1 1 d . .
S3A S 0.1245(5) 0.6288(4) 0.5524(2) 0.0457(9) Uani 1 1 d . .
S4A S 0.4605(5) 0.7817(4) 0.5321(2) 0.0441(9) Uani 1 1 d . .
S5A S 0.2083(6) 0.4648(5) 0.7258(2) 0.0554(10) Uani 1 1 d . .
S6A S 0.5989(5) 0.6538(5) 0.7010(2) 0.0550(11) Uani 1 1 d . .
C1B C 0.983(3) 0.066(2) 0.7217(10) 0.067(5) Uani 1 1 d . .
H1B H 1.0681 0.0512 0.7644 0.080 Uiso 1 1 calc R U
C2B C 0.836(3) -0.0026(19) 0.7337(9) 0.059(4) Uani 1 1 d . .
H2B H 0.8141 -0.0686 0.7834 0.071 Uiso 1 1 calc R U
C3B C 0.8093(19) 0.1678(15) 0.5858(8) 0.035(3) Uani 1 1 d . .
C4B C 0.750(2) 0.2438(15) 0.5088(9) 0.039(3) Uani 1 1 d . .
C5B C 0.7362(19) 0.4045(15) 0.3604(8) 0.042(4) Uani 1 1 d . .
C6B C 0.575(2) 0.3323(14) 0.3684(8) 0.035(3) Uani 1 1 d . .
C7B C 0.6051(14) 0.5569(11) 0.2031(5) 0.0406(19) Uani 1 1 d . .
H7B H 0.4686 0.6506 0.2309 0.049 Uiso 1 1 calc R U
C8B C 0.5544(14) 0.4009(11) 0.1912(5) 0.038(2) Uani 1 1 d . .
H8B H 0.6930 0.3041 0.1694 0.045 Uiso 1 1 calc R U
C9B C 0.709(3) 0.616(2) 0.1143(10) 0.089(5) Uani 1 1 d . .
H9B1 H 0.8361 0.5218 0.0845 0.133 Uiso 1 1 calc R U
H9B2 H 0.7528 0.7080 0.1261 0.133 Uiso 1 1 calc R U
H9B3 H 0.6034 0.6556 0.0765 0.133 Uiso 1 1 calc R U
C10B C 0.401(2) 0.4244(17) 0.1263(9) 0.056(4) Uani 1 1 d . .
H10D H 0.2799 0.5329 0.1392 0.084 Uiso 1 1 calc R U
H10E H 0.3451 0.3333 0.1335 0.084 Uiso 1 1 calc R U
H10F H 0.4814 0.4216 0.0654 0.084 Uiso 1 1 calc R U
S1B S 1.0237(5) 0.1860(4) 0.6273(2) 0.0527(11) Uani 1 1 d . .
S2B S 0.6826(6) 0.0363(5) 0.6510(2) 0.0532(11) Uani 1 1 d . .
S3B S 0.8798(5) 0.3674(4) 0.4457(2) 0.0444(9) Uani 1 1 d . .
S4B S 0.5414(5) 0.2147(4) 0.4676(2) 0.0423(9) Uani 1 1 d . .
S5B S 0.8097(6) 0.5201(5) 0.2714(2) 0.0530(10) Uani 1 1 d . .
S6B S 0.4054(5) 0.3428(5) 0.2972(2) 0.0524(11) Uani 1 1 d . .
As1 As -0.0001(5) 0.0001(3) -0.00003(19) 0.0755(3) Uani 1 1 d . .
F1 F 0.072(2) 0.1289(15) 0.0573(8) 0.138(4) Uani 1 1 d . .
F2 F -0.095(2) -0.1129(15) -0.0587(7) 0.134(4) Uani 1 1 d . .
F3 F 0.1600(17) -0.1844(13) 0.0402(8) 0.130(4) Uani 1 1 d . .
F4 F -0.1707(18) 0.1759(15) -0.0400(8) 0.150(5) Uani 1 1 d . .
F5 F 0.2043(17) -0.0122(14) -0.0899(7) 0.123(4) Uani 1 1 d . .
F6 F -0.2057(16) 0.0114(11) 0.0934(6) 0.095(3) Uani 1 1 d . .
loop_
_atom_site_aniso_label
_atom_site_aniso_U_11
_atom_site_aniso_U_22
_atom_site_aniso_U_33
_atom_site_aniso_U_23
_atom_site_aniso_U_13
_atom_site_aniso_U_12
C1A 0.072(9) 0.062(10) 0.043(9) 0.011(7) -0.018(7) -0.021(8)
C2A 0.085(11) 0.048(9) 0.056(9) 0.021(7) -0.012(8) -0.018(9)
C3A 0.053(8) 0.044(9) 0.035(8) -0.003(7) -0.019(7) -0.010(7)
C4A 0.044(7) 0.039(8) 0.035(8) -0.001(6) 0.000(6) -0.025(7)
C5A 0.046(7) 0.045(8) 0.015(6) 0.005(5) -0.017(5) -0.014(6)
C6A 0.040(7) 0.052(9) 0.032(7) -0.008(6) -0.016(6) -0.015(7)
C7A 0.039(5) 0.049(6) 0.044(5) 0.004(4) -0.008(4) -0.014(4)
C8A 0.037(5) 0.050(6) 0.038(5) 0.003(4) 0.000(4) -0.004(4)
C9A 0.068(7) 0.114(10) 0.051(7) 0.032(6) -0.021(6) -0.064(7)
C10A 0.064(9) 0.116(13) 0.036(8) 0.018(8) -0.022(7) -0.033(9)
S1A 0.058(2) 0.057(3) 0.047(2) -0.006(2) -0.0172(19) -0.021(2)
S2A 0.067(3) 0.047(3) 0.047(2) 0.0096(19) -0.018(2) -0.026(2)
S3A 0.056(2) 0.056(2) 0.038(2) 0.0052(17) -0.0120(17) -0.034(2)
S4A 0.053(2) 0.054(2) 0.037(2) 0.0104(17) -0.0158(16) -0.030(2)
S5A 0.075(2) 0.063(2) 0.046(2) 0.0146(18) -0.0121(17) -0.047(2)
S6A 0.060(2) 0.079(3) 0.049(2) 0.022(2) -0.0268(19) -0.047(2)
C1B 0.078(10) 0.062(11) 0.058(10) -0.010(7) -0.053(8) -0.002(8)
C2B 0.090(11) 0.062(10) 0.038(8) 0.012(7) -0.043(8) -0.026(9)
C3B 0.037(7) 0.032(8) 0.036(8) -0.001(6) 0.002(6) -0.019(6)
C4B 0.047(8) 0.031(8) 0.035(8) -0.003(6) -0.015(6) -0.007(6)
C5B 0.036(7) 0.037(8) 0.055(8) -0.003(6) 0.001(6) -0.021(6)
C6B 0.048(7) 0.029(7) 0.029(7) 0.009(5) 0.002(5) -0.021(6)
C7B 0.042(5) 0.041(5) 0.039(4) 0.006(4) -0.009(4) -0.016(4)
C8B 0.030(5) 0.047(6) 0.033(4) -0.004(4) 0.000(4) -0.014(4)
C9B 0.122(11) 0.119(12) 0.053(8) 0.042(8) -0.032(8) -0.074(10)
C10B 0.057(8) 0.073(10) 0.054(9) 0.017(7) -0.024(7) -0.037(7)
S1B 0.049(2) 0.060(3) 0.056(3) 0.001(2) -0.0229(19) -0.021(2)
S2B 0.069(2) 0.052(3) 0.048(3) 0.0147(19) -0.019(2) -0.031(2)
S3B 0.049(2) 0.053(2) 0.042(2) 0.0042(18) -0.0157(17) -0.029(2)
S4B 0.0507(19) 0.049(2) 0.038(2) 0.0087(17) -0.0130(16) -0.0299(19)
S5B 0.062(2) 0.072(3) 0.048(2) 0.0185(18) -0.0241(17) -0.046(2)
S6B 0.059(2) 0.069(3) 0.046(2) 0.024(2) -0.0217(18) -0.040(2)
As1 0.1127(6) 0.0470(4) 0.0437(4) 0.0038(3) -0.0190(4) -0.0030(4)
F1 0.175(9) 0.122(8) 0.112(8) -0.038(6) 0.018(7) -0.071(7)
F2 0.198(10) 0.148(9) 0.078(7) -0.012(6) -0.060(7) -0.070(8)
F3 0.149(9) 0.074(7) 0.119(9) 0.041(6) -0.033(7) 0.011(7)
F4 0.163(9) 0.108(9) 0.095(8) 0.031(6) -0.020(7) 0.035(8)
F5 0.127(8) 0.116(9) 0.081(7) 0.011(6) 0.015(6) -0.019(7)
F6 0.133(7) 0.080(7) 0.057(6) -0.007(5) -0.013(5) -0.027(6)
loop_
_atom_type_symbol
_atom_type_description
_atom_type_scat_dispersion_real
_atom_type_scat_dispersion_imag
_atom_type_scat_source
C C 0.0033 0.0016 'International Tables Vol C Tables 4.2.6.8 and 6.1.1.4'
H H 0.0000 0.0000 'International Tables Vol C Tables 4.2.6.8 and 6.1.1.4'
As As 0.0499 2.0058 'International Tables Vol C Tables 4.2.6.8 and 6.1.1.4'
F F 0.0171 0.0103 'International Tables Vol C Tables 4.2.6.8 and 6.1.1.4'
S S 0.1246 0.1234 'International Tables Vol C Tables 4.2.6.8 and 6.1.1.4'
loop_
_geom_angle_atom_site_label_1
_geom_angle_atom_site_label_2
_geom_angle_atom_site_label_3
_geom_angle
C2A C1A S1A 113.9(11)
C2A C1A H1A 123.0
S1A C1A H1A 123.0
C1A C2A S2A 120.1(11)
C1A C2A H2A 120.0
S2A C2A H2A 120.0
C4A C3A S2A 122.8(9)
C4A C3A S1A 121.2(11)
S2A C3A S1A 115.9(8)
C3A C4A S4A 123.2(10)
C3A C4A S3A 123.5(10)
S4A C4A S3A 113.3(8)
C6A C5A S3A 117.0(9)
C6A C5A S5A 129.1(8)
S3A C5A S5A 113.9(8)
C5A C6A S4A 118.6(9)
C5A C6A S6A 126.5(10)
S4A C6A S6A 114.9(8)
C8A C7A C9A 111.7(7)
C8A C7A S5A 113.8(6)
C9A C7A S5A 105.4(7)
C8A C7A H7A 108.6
C9A C7A H7A 108.6
S5A C7A H7A 108.6
C10A C8A C7A 113.2(8)
C10A C8A S6A 104.2(8)
C7A C8A S6A 115.0(6)
C10A C8A H8A 108.0
C7A C8A H8A 108.0
S6A C8A H8A 108.0
C7A C9A H9A1 109.5
C7A C9A H9A2 109.5
H9A1 C9A H9A2 109.5
C7A C9A H9A3 109.5
H9A1 C9A H9A3 109.5
H9A2 C9A H9A3 109.5
C8A C10A H10A 109.5
C8A C10A H10B 109.5
H10A C10A H10B 109.5
C8A C10A H10C 109.5
H10A C10A H10C 109.5
H10B C10A H10C 109.5
C1A S1A C3A 95.9(7)
C2A S2A C3A 94.1(7)
C4A S3A C5A 94.9(6)
C6A S4A C4A 96.1(6)
C5A S5A C7A 100.9(5)
C6A S6A C8A 106.0(6)
C2B C1B S1B 121.3(11)
C2B C1B H1B 119.3
S1B C1B H1B 119.3
C1B C2B S2B 115.5(12)
C1B C2B H2B 122.2
S2B C2B H2B 122.2
C4B C3B S1B 123.1(9)
C4B C3B S2B 123.3(9)
S1B C3B S2B 113.6(7)
C3B C4B S3B 122.2(9)
C3B C4B S4B 121.4(10)
S3B C4B S4B 116.4(7)
C6B C5B S5B 125.7(9)
C6B C5B S3B 117.2(9)
S5B C5B S3B 117.1(7)
C5B C6B S6B 129.4(9)
C5B C6B S4B 115.2(9)
S6B C6B S4B 115.4(7)
C8B C7B C9B 112.6(9)
C8B C7B S5B 113.4(6)
C9B C7B S5B 103.1(7)
C8B C7B H7B 109.2
C9B C7B H7B 109.2
S5B C7B H7B 109.2
C7B C8B C10B 114.0(8)
C7B C8B S6B 112.1(6)
C10B C8B S6B 103.4(7)
C7B C8B H8B 109.0
C10B C8B H8B 109.0
S6B C8B H8B 109.0
C7B C9B H9B1 109.5
C7B C9B H9B2 109.5
H9B1 C9B H9B2 109.5
C7B C9B H9B3 109.5
H9B1 C9B H9B3 109.5
H9B2 C9B H9B3 109.5
C8B C10B H10D 109.5
C8B C10B H10E 109.5
H10D C10B H10E 109.5
C8B C10B H10F 109.5
H10D C10B H10F 109.5
H10E C10B H10F 109.5
C1B S1B C3B 93.6(7)
C2B S2B C3B 95.8(7)
C4B S3B C5B 96.2(6)
C4B S4B C6B 94.9(6)
C5B S5B C7B 105.0(5)
C6B S6B C8B 101.1(5)
F4 As1 F5 90.6(6)
F4 As1 F1 88.6(6)
F5 As1 F1 91.6(5)
F4 As1 F3 176.0(8)
F5 As1 F3 91.4(5)
F1 As1 F3 94.8(6)
F4 As1 F2 86.2(6)
F5 As1 F2 90.2(6)
F1 As1 F2 174.5(8)
F3 As1 F2 90.3(6)
F4 As1 F6 90.3(5)
F5 As1 F6 178.9(7)
F1 As1 F6 87.7(5)
F3 As1 F6 87.7(5)
F2 As1 F6 90.6(5)
loop_
_geom_bond_atom_site_label_1
_geom_bond_atom_site_label_2
_geom_bond_distance
C1A C2A 1.367(18)
C1A S1A 1.730(14)
C1A H1A 0.9300
C2A S2A 1.714(15)
C2A H2A 0.9300
C3A C4A 1.353(16)
C3A S2A 1.714(15)
C3A S1A 1.741(13)
C4A S4A 1.748(12)
C4A S3A 1.761(13)
C5A C6A 1.307(16)
C5A S3A 1.767(11)
C5A S5A 1.778(12)
C6A S4A 1.717(14)
C6A S6A 1.761(12)
C7A C8A 1.523(11)
C7A C9A 1.548(16)
C7A S5A 1.808(8)
C7A H7A 0.9800
C8A C10A 1.520(15)
C8A S6A 1.805(9)
C8A H8A 0.9800
C9A H9A1 0.9600
C9A H9A2 0.9600
C9A H9A3 0.9600
C10A H10A 0.9600
C10A H10B 0.9600
C10A H10C 0.9600
C1B C2B 1.29(2)
C1B S1B 1.739(17)
C1B H1B 0.9300
C2B S2B 1.737(12)
C2B H2B 0.9300
C3B C4B 1.367(15)
C3B S1B 1.746(12)
C3B S2B 1.768(13)
C4B S3B 1.717(14)
C4B S4B 1.746(12)
C5B C6B 1.399(15)
C5B S5B 1.712(13)
C5B S3B 1.726(13)
C6B S6B 1.712(13)
C6B S4B 1.774(11)
C7B C8B 1.500(11)
C7B C9B 1.524(16)
C7B S5B 1.820(8)
C7B H7B 0.9800
C8B C10B 1.529(14)
C8B S6B 1.843(9)
C8B H8B 0.9800
C9B H9B1 0.9600
C9B H9B2 0.9600
C9B H9B3 0.9600
C10B H10D 0.9600
C10B H10E 0.9600
C10B H10F 0.9600
As1 F4 1.671(10)
As1 F5 1.683(10)
As1 F1 1.687(10)
As1 F3 1.691(9)
As1 F2 1.701(9)
As1 F6 1.725(10)
