#------------------------------------------------------------------------------
#$Date: 2019-11-23 19:01:24 +0200 (Sat, 23 Nov 2019) $
#$Revision: 234556 $
#$URL: file:///home/coder/svn-repositories/cod/cif/7/12/51/7125144.cif $
#------------------------------------------------------------------------------
#
# This file is available in the Crystallography Open Database (COD),
# http://www.crystallography.net/
#
# All data on this site have been placed in the public domain by the
# contributors.
#
data_7125144
loop_
_publ_author_name
'Lekin, Kristina'
'Ogata, Kazuma'
'Maclean, Adrian'
'Mailman, Aaron'
'Winter, Stephen M.'
'Assoud, Abdeljalil'
'Mito, Masaki'
'Tse, John S.'
'Desgreniers, Serge'
'Hirao, Naohisa'
'Dube, Paul A.'
'Oakley, Richard T.'
_publ_section_title
;
 Pushing T<sub>C</sub> to 27.5 K in a heavy atom radical ferromagnet.
;
_journal_issue                   96
_journal_name_full
'Chemical communications (Cambridge, England)'
_journal_page_first              13877
_journal_page_last               13880
_journal_paper_doi               10.1039/c6cc07142b
_journal_volume                  52
_journal_year                    2016
_chemical_formula_moiety         'C7 H5 I1 N3 Se4'
_chemical_formula_sum            'C7 H5 I N3 Se4'
_chemical_formula_weight         573.88
_chemical_melting_point_gt       400
_chemical_name_common            IBPSSEt
_chemical_name_systematic
; 
8-iodo-4-ethyl-4H-bis[1,2,3]diselenazolo[4,5-b:5',4'-e]pyridin-2-yl
;
_space_group_IT_number           113
_space_group_name_Hall           'P -4 2ab'
_space_group_name_H-M_alt        'P -4 21 m'
_symmetry_cell_setting           tetragonal
_symmetry_space_group_name_Hall  'P -4 2ab'
_symmetry_space_group_name_H-M   'P -4 21 m'
_audit_creation_date             2016-05-09T14:04
_audit_creation_method           'from EXP file using GSAS2CIF'
_audit_update_record
' 2016-05-09T14:04  Initial CIF as created by GSAS2CIF'
_cell_angle_alpha                90.0
_cell_angle_beta                 90.0
_cell_angle_gamma                90.0
_cell_formula_units_Z            4
_cell_length_a                   16.3764(7)
_cell_length_b                   16.3764
_cell_length_c                   4.1533(5)
_cell_measurement_temperature    293(2)
_cell_volume                     1113.86(14)
_computing_structure_refinement  GSAS
_diffrn_ambient_temperature      293(2)
_diffrn_measurement_device_type  'SPring-8 BL10XU'
_diffrn_radiation_polarisn_ratio 0.95
_diffrn_radiation_probe          x-ray
_diffrn_radiation_type           Synchrotron
_diffrn_radiation_wavelength     0.41358
_diffrn_source                   Synchrotron
_exptl_absorpt_correction_T_max  1.00000
_exptl_absorpt_correction_T_min  1.00000
_exptl_absorpt_process_details
;   GSAS Absorption/surface roughness correction: function number 0
 No correction is applied.
;
_exptl_crystal_colour            black
_exptl_crystal_density_diffrn    3.422
_pd_block_id                     2016-05-09T14:04|060GPA_8|KL|SPring-8
_pd_calc_method                  'Rietveld Refinement'
_pd_instr_location               ' ?'
_pd_meas_2theta_range_inc        0.01
_pd_meas_2theta_range_max        27.91
_pd_meas_2theta_range_min        0.5
_pd_phase_name
'from C:/gsas/MyWork/IBPSSEt/0.6GPa/0.6 GPa_RT.cif'
_pd_proc_2theta_range_inc        0.01
_pd_proc_2theta_range_max        27.91004
_pd_proc_2theta_range_min        0.50004
_pd_proc_info_datetime           2016-05-09T14:04:47
_pd_proc_info_excluded_regions   ' ?'
_pd_proc_ls_background_function
;   GSAS Background function number 1 with  8 terms.
 Shifted Chebyshev function of 1st kind
      1:    2904.43     2:    1372.08     3:   -137.726     4:   -12.1311    
      5:    31.9414     6:   -34.9037     7:   -44.9133     8:   -4.74785    
;
_pd_proc_ls_peak_cutoff          0.00100
_pd_proc_ls_profile_function
;
 CW Profile function number 2 with  18 terms
 Profile coefficients for Simpson's rule integration of pseudovoigt function
 C.J. Howard (1982). J. Appl. Cryst.,15,615-620.
 P. Thompson, D.E. Cox & J.B. Hastings (1987). J. Appl. Cryst.,20,79-83.
 #1(GU)   =   22.290 #2(GV)   =   -6.828 #3(GW)   =    1.732
 #4(LX)   =    1.036 #5(LY)   =   19.399 #6(trns) =   -0.619
 #7(asym) =  -0.0042 #8(shft) =  -0.0237 #9(GP)   =    0.053
 #10(stec)=   127.90 #11(ptec)=     1.53 #12(sfec)=     0.00
 #13(L11) =    0.000 #14(L22) =    0.000 #15(L33) =    0.000
 #16(L12) =    0.000 #17(L13) =    0.004 #18(L23) =   -0.002
 Peak tails are ignored  where the intensity is below 0.0010 times the peak
   Aniso. broadening axis   0.0   0.0   1.0
;
_pd_proc_ls_prof_R_factor        0.0238
_pd_proc_ls_prof_wR_expected     0.0172
_pd_proc_ls_prof_wR_factor       0.0333
_pd_spec_mounting                ' ?'
_refine_ls_goodness_of_fit_all   1.94
_refine_ls_matrix_type           full
_refine_ls_number_parameters     1
_refine_ls_number_restraints     0
_refine_ls_R_Fsqd_factor         0.13329
_refine_ls_shift/su_max          0.03
_refine_ls_shift/su_mean         0.03
_reflns_d_resolution_high        1.715
_reflns_d_resolution_low         8.188
_reflns_limit_h_max              10
_reflns_limit_h_min              0
_reflns_limit_k_max              7
_reflns_limit_k_min              0
_reflns_limit_l_max              2
_reflns_limit_l_min              0
_reflns_number_total             93
_cod_data_source_file            c6cc07142b4.cif
_cod_data_source_block           1c_0_6_GPa
_cod_depositor_comments
;
The following automatic conversions were performed:

data name '_chemical_melting_point' was changed to
'_chemical_melting_point_gt' since the value was specified as 'more
than' ('>') a certain temperature.

data item '_geom_angle_publ_flag' value 'N' was changed to 'n' in
accordance with the
/home/saulius/struct/COD-crude-data/automatic-downloads/DataCite-retrospective/RSC/depositions/lib/dictionaries/cif_core.dic
dictionary named 'cif_core.dic' version 2.4.2 last updated on
2011-04-26 (17 times).

data item '_geom_bond_publ_flag' value 'N' was changed to 'n' in
accordance with the
/home/saulius/struct/COD-crude-data/automatic-downloads/DataCite-retrospective/RSC/depositions/lib/dictionaries/cif_core.dic
dictionary named 'cif_core.dic' version 2.4.2 last updated on
2011-04-26 (12 times).

Automatic conversion script
Id: cif_fix_values 6909 2019-04-08 15:41:33Z antanas 
;
_cod_original_cell_volume        1113.86(15)
_cod_database_code               7125144
_gsas_exptl_extinct_corr_t_min   1.00000
_gsas_exptl_extinct_corr_t_max   1.00000
loop_
_symmetry_equiv_pos_site_id
_symmetry_equiv_pos_as_xyz
1 +x,+y,+z
2 +y,-x,-z
3 -x,-y,+z
4 -y,+x,-z
5 -x+1/2,+y+1/2,-z
6 +y+1/2,+x+1/2,+z
7 +x+1/2,-y+1/2,-z
8 -y+1/2,-x+1/2,+z
loop_
_atom_site_type_symbol
_atom_site_label
_atom_site_fract_x
_atom_site_fract_y
_atom_site_fract_z
_atom_site_occupancy
_atom_site_thermal_displace_type
_atom_site_U_iso_or_equiv
_atom_site_symmetry_multiplicity
I I1 -0.42249 0.92249 -0.82751 1.0 Uiso 0.1744 4
Se Se1 -0.43509 0.60095 -1.26255 1.0 Uiso 0.1744 8
Se Se2 -0.47296 0.72612 -1.02562 1.0 Uiso 0.1744 8
N N1 -0.33737 0.63737 -1.40369 1.0 Uiso 0.1744 8
N N2 -0.24429 0.74429 -1.43812 1.0 Uiso 0.1744 4
C C1 -0.31773 0.71246 -1.32931 1.0 Uiso 0.1744 8
C C2 -0.37028 0.76653 -1.14971 1.0 Uiso 0.1744 8
C C3 -0.34351 0.84351 -1.06583 1.0 Uiso 0.1744 4
C C4 -0.19304 0.69304 -1.64753 1.0 Uiso 0.1744 4
H H4A -0.22819 0.66154 -1.78335 1.0 Uiso 0.3487 8
C C5 -0.13644 0.63644 -1.47091 1.0 Uiso 0.1744 4
H H5B -0.16884 0.60159 -1.33621 1.0 Uiso 0.3487 8
H H5A -0.10412 0.60412 -1.62036 1.0 Uiso 0.3487 4
loop_
_atom_type_symbol
_atom_type_number_in_cell
_atom_type_scat_dispersion_real
_atom_type_scat_dispersion_imag
_atom_type_scat_Cromer_Mann_a1
_atom_type_scat_Cromer_Mann_a2
_atom_type_scat_Cromer_Mann_a3
_atom_type_scat_Cromer_Mann_a4
_atom_type_scat_Cromer_Mann_b1
_atom_type_scat_Cromer_Mann_b2
_atom_type_scat_Cromer_Mann_b3
_atom_type_scat_Cromer_Mann_b4
_atom_type_scat_Cromer_Mann_c
_atom_type_scat_source
I 4.0 0.000 0.000 20.1472 4.34700 18.9949 0.38140 7.51380 27.7660 2.27350
66.8776 4.07120 International_Tables_Vol_C
Se 16.0 0.000 0.000 17.0006 2.40980 5.81960 0.27260 3.97310 15.2372 4.35430
43.8163 2.84090 International_Tables_Vol_C
N 12.0 0.000 0.000 12.2126 0.00570 3.13220 9.89330 2.01250 28.9975 1.16630
0.58260 -11.529 International_Tables_Vol_C
C 28.0 0.000 0.000 2.31000 20.8439 1.02000 10.2075 1.58860 0.56870 0.86500
51.6512 0.21560 International_Tables_Vol_C
H 20.0 0.000 0.000 0.49300 10.5109 0.32291 26.1257 0.14019 3.14236 0.04081
57.7997 0.00304 International_Tables_Vol_C
loop_
_geom_angle_atom_site_label_1
_geom_angle_atom_site_label_2
_geom_angle_atom_site_label_3
_geom_angle
_geom_angle_site_symmetry_1
_geom_angle_site_symmetry_3
_geom_angle_publ_flag
Se2 Se1 N1 94.6733 1_555 1_555 n
Se1 Se2 C2 87.4962 1_555 1_555 n
Se1 N1 C1 116.8578 1_555 1_555 n
C1 N2 C4 118.2273 1_555 1_555 n
N1 C1 N2 119.3234 1_555 1_555 n
N1 C1 C2 123.5364 1_555 1_555 n
N2 C1 C2 117.0800 1_555 1_555 n
Se2 C2 C1 117.3533 1_555 1_555 n
Se2 C2 C3 122.4779 1_555 1_555 n
C1 C2 C3 120.1295 1_555 1_555 n
I1 C3 C2 119.3996 1_555 1_555 n
N2 C4 H4A 108.228 1_555 1_555 n
N2 C4 C5 114.536 1_555 1_555 n
H4A C4 C5 109.0517 1_555 1_555 n
C4 C5 H5B 108.0956 1_555 1_555 n
C4 C5 H5A 111.102 1_555 1_555 n
H5B C5 H5A 110.457 1_555 1_555 n
loop_
_geom_bond_atom_site_label_1
_geom_bond_atom_site_label_2
_geom_bond_distance
_geom_bond_site_symmetry_2
_geom_bond_publ_flag
I1 C3 2.07980 1_555 n
Se1 Se2 2.35686 1_555 n
Se1 N1 1.80564 1_555 n
Se2 C2 1.87913 1_555 n
N1 C1 1.30807 1_555 n
N2 C1 1.38651 1_555 n
N2 C4 1.47149 1_555 n
C1 C2 1.44259 1_555 n
C2 C3 1.37943 1_555 n
C4 H4A 0.95691 1_555 n
C4 C5 1.50214 1_555 n
C5 H5B 0.95929 1_555 n
loop_
_refln_index_h
_refln_index_k
_refln_index_l
_refln_observed_status
_refln_F_squared_meas
_refln_F_squared_calc
_refln_phase_calc
_refln_d_spacing
_gsas_i100_meas
2 0 0 o 8858.883 10608.414 0.00 8.18822 15.35
2 1 0 o 12554.825 13710.653 0.00 7.32377 43.61
2 2 0 o 2281.161 1392.027 180.00 5.78995 1.84
1 0 1 o 5513.426 6277.859 -90.00 4.02583 11.65
3 1 0 o 2265.632 2554.712 -180.00 5.17869 3.99
0 0 1 o 36321.13 38304.70 0.00 4.15328 18.36
1 1 1 o 7959.246 7852.556 121.53 3.90943 17.20
2 0 1 o 3038.976 3541.278 0.00 3.70404 5.34
2 1 1 o 20648.938 21178.025 52.82 3.61278 71.45
3 2 0 o 2157.500 2690.254 -180.00 4.54201 2.54
2 2 1 o 72701.20 75200.89 126.20 3.37480 100.00
3 0 1 o 1070.625 1150.474 90.00 3.30535 1.47
4 0 0 o 249.702 321.530 -180.00 4.09411 0.11
3 1 1 o 753.719 781.139 123.47 3.24001 1.92
4 1 0 o 30325.930 28389.879 0.00 3.97187 29.85
3 3 0 o 10489.279 8606.404 -180.00 3.85997 3.77
3 2 1 o 814.490 1148.220 112.44 3.06504 1.65
4 2 0 o 5479.518 5552.758 -180.00 3.66189 4.76
4 0 1 o 10405.180 12017.870 0.00 2.91567 13.54
4 1 1 o 3765.104 3792.516 3.77 2.87053 8.93
3 3 1 o 6011.289 6260.875 167.85 2.82742 4.72
4 2 1 o 24894.295 24275.582 86.64 2.74673 46.55
4 3 0 o 16056.604 14935.586 0.00 3.27529 9.19
5 1 0 o 2338.724 2272.904 0.00 3.21169 1.44
5 2 0 o 112.610 242.592 -180.00 3.04103 0.07
5 0 1 o 13254.841 13181.332 90.00 2.57181 16.76
4 3 1 o 747.799 741.386 21.20 2.57181 1.09
5 1 1 o 4853.184 6445.447 3.35 2.54067 11.32
4 4 0 o 24216.172 20113.348 0.00 2.89497 4.90
5 2 1 o 1674.903 3021.765 106.76 2.45363 3.17
5 3 0 o 140.919 167.199 0.00 2.80854 0.07
4 4 1 o 21542.422 23648.320 71.29 2.37496 13.61
6 0 0 o 47403.60 39272.01 180.00 2.72941 9.14
5 3 1 o 659.960 773.659 -14.61 2.32653 0.97
6 1 0 o 11025.801 9147.453 0.00 2.69227 4.61
0 0 2 o 1082.184 1356.238 180.00 2.07664 0.14
6 0 1 o 1287.484 1898.071 180.00 2.28095 1.46
1 0 2 o 1179.327 1186.020 -90.00 2.06014 0.61
6 1 1 o 2959.242 3226.669 -56.84 2.25915 6.32
1 1 2 o 1154.823 909.529 -140.44 2.04403 0.61
6 2 0 o 44583.82 33959.215 180.00 2.58934 19.68
5 4 0 o 7534.427 7587.087 -180.00 2.55757 2.54
2 0 2 o 5664.796 4107.697 -180.00 2.01291 3.00
6 2 1 o 5508.301 6545.726 158.91 2.19729 9.93
2 1 2 o 2605.433 1965.510 100.78 1.99788 2.81
5 4 1 o 5480.342 5410.895 -173.16 2.17778 6.60
2 2 2 o 11779.460 9210.879 172.81 1.95472 6.38
6 3 0 o 1109.737 1634.691 0.00 2.44126 0.43
3 0 2 o 7.461 5.090 90.00 1.94094 0.00
3 1 2 o 760.684 530.961 -101.94 1.92745 0.77
6 3 1 o 2348.105 2888.165 162.62 2.10461 3.38
7 1 0 o 630.266 608.395 180.00 2.31598 0.19
5 5 0 o 2953.461 2841.388 0.00 2.31598 0.38
3 2 2 o 1127.397 1224.371 -13.05 1.88861 1.14
7 0 1 o 2265.316 1568.399 90.00 2.03836 2.17
6 4 0 o 1873.389 2424.059 0.00 2.27100 0.55
7 1 1 o 55.371 36.617 172.81 2.02275 0.10
5 5 1 o 1002.920 661.383 -37.69 2.02275 0.53
4 0 2 o 9444.312 8313.657 0.00 1.85202 4.16
7 2 0 o 14332.939 11260.629 0.00 2.24948 4.66
4 1 2 o 830.411 692.286 -97.68 1.84029 0.73
6 4 1 o 569.749 428.592 -21.79 1.99258 0.66
3 3 2 o 6824.087 5698.559 -105.45 1.82878 3.18
7 2 1 o 1090.078 960.404 58.82 1.97799 1.74
4 2 2 o 2490.489 2177.133 58.02 1.80639 2.16
7 3 0 o 642.921 717.127 -180.00 2.15033 0.20
7 3 1 o 876.196 934.502 -151.57 1.90957 1.16
5 0 2 o 520.323 487.871 90.00 1.75383 0.20
4 3 2 o 2665.659 2504.698 -162.52 1.75383 2.13
6 5 0 o 514.265 641.363 0.00 2.09679 0.11
5 1 2 o 2605.838 1887.152 -6.59 1.74386 1.97
6 5 1 o 3039.699 2954.360 82.24 1.87178 2.93
5 2 2 o 204.184 162.510 148.66 1.71493 0.15
8 0 0 o 2359.838 1795.678 180.00 2.04706 0.26
8 0 1 o 2.059 1.645 0.00 1.83614 0.00
7 4 0 o 4159.691 2305.913 0.00 2.03125 1.06
8 1 0 o 4780.490 2655.027 0.00 2.03125 1.09
7 4 1 o 414.781 349.247 88.03 1.82471 0.45
8 1 1 o 7367.541 6202.087 -69.16 1.82471 11.05
8 2 0 o 996.964 783.887 180.00 1.98594 0.25
8 2 1 o 2463.519 2564.363 -95.54 1.79165 3.33
6 6 0 o 16902.189 8906.171 0.00 1.92998 1.52
6 6 1 o 114.888 101.921 -132.81 1.75024 0.05
8 3 0 o 1244.414 1103.836 -180.00 1.91672 0.30
8 3 1 o 1386.424 865.292 172.61 1.74033 1.60
7 5 0 o 212.507 333.147 180.00 1.90372 0.04
7 5 1 o 2554.296 1366.144 -149.23 1.73059 2.25
8 4 0 o 4177.312 3240.396 0.00 1.83094 0.91
9 1 0 o 2868.906 2221.798 0.00 1.80848 0.51
7 6 0 o 4460.312 3112.837 0.00 1.77628 0.70
9 2 0 o 2053.034 1435.990 0.00 1.77628 0.40
8 5 0 o 4288.513 2103.570 0.00 1.73590 0.77
9 3 0 o 4388.624 2070.582 0.00 1.72623 0.86
