#------------------------------------------------------------------------------
#$Date: 2019-11-23 19:01:24 +0200 (Sat, 23 Nov 2019) $
#$Revision: 234556 $
#$URL: file:///home/coder/svn-repositories/cod/cif/7/12/51/7125145.cif $
#------------------------------------------------------------------------------
#
# This file is available in the Crystallography Open Database (COD),
# http://www.crystallography.net/
#
# All data on this site have been placed in the public domain by the
# contributors.
#
data_7125145
loop_
_publ_author_name
'Lekin, Kristina'
'Ogata, Kazuma'
'Maclean, Adrian'
'Mailman, Aaron'
'Winter, Stephen M.'
'Assoud, Abdeljalil'
'Mito, Masaki'
'Tse, John S.'
'Desgreniers, Serge'
'Hirao, Naohisa'
'Dube, Paul A.'
'Oakley, Richard T.'
_publ_section_title
;
 Pushing T<sub>C</sub> to 27.5 K in a heavy atom radical ferromagnet.
;
_journal_issue                   96
_journal_name_full
'Chemical communications (Cambridge, England)'
_journal_page_first              13877
_journal_page_last               13880
_journal_paper_doi               10.1039/c6cc07142b
_journal_volume                  52
_journal_year                    2016
_chemical_formula_moiety         'C7 H5 I1 N3 Se4'
_chemical_formula_sum            'C7 H5 I N3 Se4'
_chemical_formula_weight         573.88
_chemical_melting_point_gt       400
_chemical_name_common            IBPSSEt
_chemical_name_systematic
; 
8-iodo-4-ethyl-4H-bis[1,2,3]diselenazolo[4,5-b:5',4'-e]pyridin-2-yl
;
_space_group_IT_number           113
_space_group_name_Hall           'P -4 2ab'
_space_group_name_H-M_alt        'P -4 21 m'
_symmetry_cell_setting           tetragonal
_symmetry_space_group_name_Hall  'P -4 2ab'
_symmetry_space_group_name_H-M   'P -4 21 m'
_audit_creation_date             2016-05-10T15:18
_audit_creation_method           'from EXP file using GSAS2CIF'
_audit_update_record
' 2016-05-10T15:18  Initial CIF as created by GSAS2CIF'
_cell_angle_alpha                90.0
_cell_angle_beta                 90.0
_cell_angle_gamma                90.0
_cell_formula_units_Z            4
_cell_length_a                   16.2024(8)
_cell_length_b                   16.2024
_cell_length_c                   4.0040(9)
_cell_measurement_temperature    293(2)
_cell_volume                     1051.1(2)
_computing_structure_refinement  GSAS
_diffrn_ambient_temperature      293(2)
_diffrn_measurement_device_type  'SPring-8 BL10XU'
_diffrn_radiation_polarisn_ratio 0.95
_diffrn_radiation_probe          x-ray
_diffrn_radiation_type           Synchrotron
_diffrn_radiation_wavelength     0.41358
_diffrn_source                   Synchrotron
_exptl_absorpt_correction_T_max  1.00000
_exptl_absorpt_correction_T_min  1.00000
_exptl_absorpt_process_details
;   GSAS Absorption/surface roughness correction: function number 0
 No correction is applied.
;
_exptl_crystal_colour            black
_exptl_crystal_density_diffrn    3.626
_pd_block_id
2016-05-10T15:18|IBPSSET_162GPA_6|Oakley|SPring-8
_pd_calc_method                  'Rietveld Refinement'
_pd_instr_location               ' ?'
_pd_phase_name
'from C:/gsas/MyWork/IBPSSEt/1.62GPa/1.62 GPa_RT.cif'
_pd_proc_info_datetime           2016-05-10T15:18:51
_pd_proc_info_excluded_regions   ' ?'
_pd_proc_ls_background_function
;   GSAS Background function number 1 with  8 terms.
 Shifted Chebyshev function of 1st kind
      1:    2632.31     2:    1281.71     3:   -112.206     4:   -35.3352    
      5:    48.4118     6:   -5.70699     7:   -35.2270     8:   -44.1711    
;
_pd_proc_ls_peak_cutoff          0.00100
_pd_proc_ls_profile_function
;
 CW Profile function number 2 with  18 terms
 Profile coefficients for Simpson's rule integration of pseudovoigt function
 C.J. Howard (1982). J. Appl. Cryst.,15,615-620.
 P. Thompson, D.E. Cox & J.B. Hastings (1987). J. Appl. Cryst.,20,79-83.
 #1(GU)   =   53.589 #2(GV)   =   16.039 #3(GW)   =    0.863
 #4(LX)   =    1.693 #5(LY)   =   23.633 #6(trns) =   -1.771
 #7(asym) =  -0.0189 #8(shft) =  -0.0695 #9(GP)   =    0.013
 #10(stec)=   206.58 #11(ptec)=     1.82 #12(sfec)=     0.00
 #13(L11) =    0.000 #14(L22) =    0.000 #15(L33) =    0.010
 #16(L12) =    0.000 #17(L13) =    0.004 #18(L23) =    0.003
 Peak tails are ignored  where the intensity is below 0.0010 times the peak
   Aniso. broadening axis   0.0   0.0   1.0
;
_pd_proc_ls_prof_R_factor        0.0288
_pd_proc_ls_prof_wR_expected     0.0179
_pd_proc_ls_prof_wR_factor       0.0386
_pd_spec_mounting                ' ?'
_refine_ls_goodness_of_fit_all   2.16
_refine_ls_matrix_type           full
_refine_ls_number_parameters     1
_refine_ls_number_restraints     0
_refine_ls_R_Fsqd_factor         0.13139
_refine_ls_shift/su_max          0.02
_refine_ls_shift/su_mean         0.02
_reflns_d_resolution_high        1.752
_reflns_d_resolution_low         8.101
_reflns_limit_h_max              11
_reflns_limit_h_min              0
_reflns_limit_k_max              8
_reflns_limit_k_min              0
_reflns_limit_l_max              2
_reflns_limit_l_min              0
_reflns_number_total             84
_cod_data_source_file            c6cc07142b4.cif
_cod_data_source_block           1c_1_6_GPa
_cod_depositor_comments
;
The following automatic conversions were performed:

data name '_chemical_melting_point' was changed to
'_chemical_melting_point_gt' since the value was specified as 'more
than' ('>') a certain temperature.

data item '_geom_angle_publ_flag' value 'N' was changed to 'n' in
accordance with the
/home/saulius/struct/COD-crude-data/automatic-downloads/DataCite-retrospective/RSC/depositions/lib/dictionaries/cif_core.dic
dictionary named 'cif_core.dic' version 2.4.2 last updated on
2011-04-26 (20 times).

data item '_geom_bond_publ_flag' value 'N' was changed to 'n' in
accordance with the
/home/saulius/struct/COD-crude-data/automatic-downloads/DataCite-retrospective/RSC/depositions/lib/dictionaries/cif_core.dic
dictionary named 'cif_core.dic' version 2.4.2 last updated on
2011-04-26 (12 times).

Automatic conversion script
Id: cif_fix_values 6909 2019-04-08 15:41:33Z antanas 
;
_cod_original_cell_volume        1051.11(25)
_cod_database_code               7125145
_gsas_exptl_extinct_corr_t_min   1.00000
_gsas_exptl_extinct_corr_t_max   1.00000
loop_
_symmetry_equiv_pos_site_id
_symmetry_equiv_pos_as_xyz
1 +x,+y,+z
2 +y,-x,-z
3 -x,-y,+z
4 -y,+x,-z
5 -x+1/2,+y+1/2,-z
6 +y+1/2,+x+1/2,+z
7 +x+1/2,-y+1/2,-z
8 -y+1/2,-x+1/2,+z
loop_
_atom_site_type_symbol
_atom_site_label
_atom_site_fract_x
_atom_site_fract_y
_atom_site_fract_z
_atom_site_occupancy
_atom_site_thermal_displace_type
_atom_site_U_iso_or_equiv
_atom_site_symmetry_multiplicity
I I1 -0.42562 -0.07439 0.17909 1.0 Uiso 0.0974 4
Se Se1 -0.43688 -0.39725 -0.27447 1.0 Uiso 0.0974 8
Se Se2 -0.47498 -0.27092 -0.02752 1.0 Uiso 0.0974 8
N N1 -0.33822 -0.36033 -0.42113 1.0 Uiso 0.0974 8
N N2 -0.24597 -0.25404 -0.45654 1.0 Uiso 0.0974 4
C C1 -0.31831 -0.28448 -0.34355 1.0 Uiso 0.0974 8
C C2 -0.37129 -0.22997 -0.15657 1.0 Uiso 0.0974 8
C C3 -0.34596 -0.15404 -0.06924 1.0 Uiso 0.0974 4
C C4 -0.19433 -0.30568 -0.67429 1.0 Uiso 0.0974 4
H H4A -0.22815 -0.3356 -0.81464 1.0 Uiso 0.1948 8
C C5 -0.13697 -0.36303 -0.49313 1.0 Uiso 0.0974 4
H H5B -0.16781 -0.39655 -0.35391 1.0 Uiso 0.1948 8
H H5A -0.10442 -0.39558 -0.64842 1.0 Uiso 0.1948 4
loop_
_atom_type_symbol
_atom_type_number_in_cell
_atom_type_scat_dispersion_real
_atom_type_scat_dispersion_imag
_atom_type_scat_Cromer_Mann_a1
_atom_type_scat_Cromer_Mann_a2
_atom_type_scat_Cromer_Mann_a3
_atom_type_scat_Cromer_Mann_a4
_atom_type_scat_Cromer_Mann_b1
_atom_type_scat_Cromer_Mann_b2
_atom_type_scat_Cromer_Mann_b3
_atom_type_scat_Cromer_Mann_b4
_atom_type_scat_Cromer_Mann_c
_atom_type_scat_source
I 4.0 0.000 0.000 20.1472 4.34700 18.9949 0.38140 7.51380 27.7660 2.27350
66.8776 4.07120 International_Tables_Vol_C
Se 16.0 0.000 0.000 17.0006 2.40980 5.81960 0.27260 3.97310 15.2372 4.35430
43.8163 2.84090 International_Tables_Vol_C
N 12.0 0.000 0.000 12.2126 0.00570 3.13220 9.89330 2.01250 28.9975 1.16630
0.58260 -11.529 International_Tables_Vol_C
C 28.0 0.000 0.000 2.31000 20.8439 1.02000 10.2075 1.58860 0.56870 0.86500
51.6512 0.21560 International_Tables_Vol_C
H 20.0 0.000 0.000 0.49300 10.5109 0.32291 26.1257 0.14019 3.14236 0.04081
57.7997 0.00304 International_Tables_Vol_C
loop_
_geom_angle_atom_site_label_1
_geom_angle_atom_site_label_2
_geom_angle_atom_site_label_3
_geom_angle
_geom_angle_site_symmetry_1
_geom_angle_site_symmetry_3
_geom_angle_publ_flag
Se2 Se1 N1 94.6275 1_555 1_555 n
Se1 Se2 C2 87.5399 1_555 1_555 n
Se1 N1 C1 116.9068 1_555 1_555 n
C1 N2 C4 119.0232 1_555 1_555 n
C1 N2 C4 119.0185 8_445 1_555 n
N1 C1 N2 118.548 1_555 1_555 n
N1 C1 C2 123.5185 1_555 1_555 n
N2 C1 C2 117.8648 1_555 1_555 n
Se2 C2 C1 117.3246 1_555 1_555 n
Se2 C2 C3 121.6738 1_555 1_555 n
C1 C2 C3 120.9630 1_555 1_555 n
I1 C3 C2 120.2310 1_555 1_555 n
N2 C4 H4A 108.805 1_555 1_555 n
N2 C4 C5 114.720 1_555 1_555 n
H4A C4 C5 109.683 1_555 1_555 n
H4A C4 C5 109.671 8_445 1_555 n
C4 C5 H5B 108.678 1_555 1_555 n
C4 C5 H5A 111.288 1_555 1_555 n
H5B C5 H5A 111.127 1_555 1_555 n
H5B C5 H5A 111.127 8_445 1_555 n
loop_
_geom_bond_atom_site_label_1
_geom_bond_atom_site_label_2
_geom_bond_distance
_geom_bond_site_symmetry_2
_geom_bond_publ_flag
I1 C3 2.07845 1_555 n
Se1 Se2 2.35550 1_555 n
Se1 N1 1.80498 1_555 n
Se2 C2 1.87875 1_555 n
N1 C1 1.30801 1_555 n
N2 C1 1.34970 1_555 n
N2 C4 1.46978 1_555 n
C1 C2 1.44131 1_555 n
C2 C3 1.34321 1_555 n
C4 H4A 0.92253 1_555 n
C4 C5 1.50110 1_555 n
C5 H5B 0.92487 1_555 n
loop_
_refln_index_h
_refln_index_k
_refln_index_l
_refln_observed_status
_refln_F_squared_meas
_refln_F_squared_calc
_refln_phase_calc
_refln_d_spacing
_gsas_i100_meas
2 0 0 o 11304.886 12193.388 0.00 8.10121 23.79
2 1 0 o 12977.500 13609.297 0.00 7.24594 39.20
1 0 1 o 6845.193 6997.392 -90.00 3.88703 11.73
1 1 1 o 10015.870 9538.532 130.40 3.77978 14.96
0 0 1 o 31966.271 33807.727 0.00 4.00396 16.88
2 0 1 o 3206.867 3528.464 0.00 3.58948 4.35
2 2 0 o 1954.679 1457.181 -180.00 5.72842 1.43
2 1 1 o 27325.129 27253.299 57.74 3.50451 69.17
3 1 0 o 2568.736 3356.068 180.00 5.12366 4.25
2 2 1 o 90880.22 92701.64 128.26 3.28177 100.00
3 0 1 o 1009.700 1061.812 90.00 3.21645 1.10
3 1 1 o 834.134 997.112 117.69 3.15489 1.68
3 2 0 o 2835.057 2778.651 -180.00 4.49374 2.91
3 2 1 o 767.931 1468.083 117.73 2.98945 1.29
4 0 0 o 4.655 6.729 0.00 4.05061 0.00
4 0 1 o 19634.977 21451.584 0.00 2.84758 14.90
4 1 0 o 33834.551 32912.906 0.00 3.92966 33.57
4 1 1 o 5045.880 4578.595 13.88 2.80459 6.90
3 3 0 o 10315.973 10701.479 -180.00 3.81895 3.36
3 3 1 o 8345.330 7856.007 173.22 2.76350 5.23
4 2 1 o 35580.91 35675.48 84.53 2.68645 38.55
4 2 0 o 5540.646 6358.455 180.00 3.62297 4.19
4 3 1 o 510.159 521.445 28.16 2.51890 0.42
5 1 1 o 6616.420 8822.821 2.44 2.48900 5.88
4 3 0 o 22277.461 20674.324 0.00 3.24048 11.24
5 1 0 o 1519.437 1903.463 0.00 3.17756 0.99
5 0 1 o 19383.275 19790.242 90.00 2.51890 9.69
5 2 1 o 2393.950 5132.609 112.04 2.40531 1.61
0 0 2 o 1565.836 2429.834 180.00 2.00198 0.21
5 2 0 o 312.992 434.268 -180.00 3.00871 0.17
4 4 1 o 37919.29 40244.60 69.92 2.32954 10.75
1 0 2 o 1198.167 1955.832 -90.00 1.98687 0.60
1 1 2 o 762.932 1259.536 -130.24 1.97210 0.36
5 3 1 o 1618.960 1717.814 -26.56 2.28282 0.80
2 0 2 o 4931.409 8837.328 -180.00 1.94352 2.12
2 1 2 o 2079.895 3624.750 102.74 1.92968 1.71
4 4 0 o 24814.416 28044.168 0.00 2.86421 4.55
6 0 1 o 1695.515 2119.583 180.00 2.23881 0.59
6 1 1 o 4155.853 5134.917 -59.48 2.21774 2.55
2 2 2 o 14004.283 18746.379 -179.97 1.88989 5.24
5 3 0 o 220.910 179.376 0.00 2.77869 0.09
6 0 0 o 56502.67 53534.52 180.00 2.70040 13.23
3 0 2 o 23.966 30.037 -90.00 1.87716 0.01
3 1 2 o 1016.220 1251.158 -96.63 1.86469 0.74
6 2 1 o 16593.627 13586.749 155.48 2.15793 7.57
6 1 0 o 15931.410 15777.692 0.00 2.66366 7.30
5 4 1 o 14330.393 9962.590 -179.19 2.13904 5.26
3 2 2 o 1999.703 2914.228 -21.26 1.82871 1.37
6 2 0 o 63901.28 56728.90 180.00 2.56183 26.47
5 4 0 o 14446.273 12236.431 180.00 2.53039 4.33
6 3 1 o 3608.085 4940.767 163.37 2.06816 1.17
4 0 2 o 16497.365 17549.529 0.00 1.79474 5.61
4 1 2 o 1845.799 1895.270 -107.03 1.78383 1.23
3 3 2 o 13105.757 13575.713 -98.81 1.77312 4.20
4 2 2 o 2846.408 3491.813 51.82 1.75225 1.81
7 0 1 o 2299.440 3312.200 90.00 2.00389 0.59
6 3 0 o 2885.490 5887.252 0.00 2.41531 0.97
5 5 1 o 1346.257 2322.477 -54.80 1.98874 0.18
7 1 1 o 3.418 5.900 -147.91 1.98874 0.00
6 4 1 o 247.955 428.774 -14.12 1.95944 0.06
7 2 1 o 930.112 1848.817 73.91 1.94526 0.33
7 1 0 o 337.135 248.838 180.00 2.29137 0.11
5 5 0 o 7087.442 5225.858 0.00 2.29137 0.83
7 3 1 o 1832.586 2209.232 -141.84 1.87874 0.45
6 4 0 o 1755.623 2577.964 0.00 2.24687 0.45
7 2 0 o 16226.807 17311.117 0.00 2.22557 5.14
6 5 1 o 4019.106 6429.421 77.29 1.84196 0.76
8 0 1 o 161.661 179.292 0.00 1.80726 0.03
7 4 1 o 1127.157 1146.159 95.76 1.79612 0.20
8 1 1 o 17418.297 17708.236 -71.40 1.79612 6.49
7 3 0 o 1223.424 668.338 180.00 2.12748 0.33
8 2 1 o 4161.255 4279.887 -96.34 1.76390 1.22
6 5 0 o 2863.329 3061.571 0.00 2.07451 0.57
8 0 0 o 1048.923 2433.172 180.00 2.02530 0.14
8 1 0 o 5597.037 6002.776 0.00 2.00966 1.46
7 4 0 o 4079.771 4371.705 0.00 2.00966 0.90
8 2 0 o 1230.298 1755.785 180.00 1.96483 0.31
6 6 0 o 9358.271 13375.341 0.00 1.90947 0.76
8 3 0 o 1076.936 1524.287 180.00 1.89635 0.24
7 5 0 o 521.499 646.723 180.00 1.88349 0.09
8 4 0 o 9304.445 9872.452 0.00 1.81149 1.76
9 1 0 o 7774.242 7094.777 0.00 1.78926 1.61
7 6 0 o 7869.193 7770.822 0.00 1.75740 1.11
9 2 0 o 2556.733 2525.576 0.00 1.75740 0.51
