#------------------------------------------------------------------------------
#$Date: 2019-11-23 19:01:24 +0200 (Sat, 23 Nov 2019) $
#$Revision: 234556 $
#$URL: file:///home/coder/svn-repositories/cod/cif/7/12/51/7125148.cif $
#------------------------------------------------------------------------------
#
# This file is available in the Crystallography Open Database (COD),
# http://www.crystallography.net/
#
# All data on this site have been placed in the public domain by the
# contributors.
#
data_7125148
loop_
_publ_author_name
'Lekin, Kristina'
'Ogata, Kazuma'
'Maclean, Adrian'
'Mailman, Aaron'
'Winter, Stephen M.'
'Assoud, Abdeljalil'
'Mito, Masaki'
'Tse, John S.'
'Desgreniers, Serge'
'Hirao, Naohisa'
'Dube, Paul A.'
'Oakley, Richard T.'
_publ_section_title
;
 Pushing T<sub>C</sub> to 27.5 K in a heavy atom radical ferromagnet.
;
_journal_issue                   96
_journal_name_full
'Chemical communications (Cambridge, England)'
_journal_page_first              13877
_journal_page_last               13880
_journal_paper_doi               10.1039/c6cc07142b
_journal_volume                  52
_journal_year                    2016
_chemical_formula_moiety         'C7 H5 I1 N3 Se4'
_chemical_formula_sum            'C7 H5 I N3 Se4'
_chemical_formula_weight         573.88
_chemical_melting_point_gt       400
_chemical_name_common            IBPSSEt
_chemical_name_systematic
; 
8-iodo-4-ethyl-4H-bis[1,2,3]diselenazolo[4,5-b:5',4'-e]pyridin-2-yl
;
_space_group_IT_number           113
_space_group_name_Hall           'P -4 2ab'
_space_group_name_H-M_alt        'P -4 21 m'
_symmetry_cell_setting           tetragonal
_symmetry_space_group_name_Hall  'P -4 2ab'
_symmetry_space_group_name_H-M   'P -4 21 m'
_audit_creation_date             2016-08-29T12:37
_audit_creation_method           'from EXP file using GSAS2CIF'
_audit_update_record
' 2016-08-29T12:37  Initial CIF as created by GSAS2CIF'
_cell_angle_alpha                90.0
_cell_angle_beta                 90.0
_cell_angle_gamma                90.0
_cell_formula_units_Z            4
_cell_length_a                   15.9908(13)
_cell_length_b                   15.9908
_cell_length_c                   3.8382(22)
_cell_measurement_temperature    293(2)
_cell_volume                     981.4(6)
_computing_structure_refinement  GSAS
_diffrn_ambient_temperature      293(2)
_diffrn_measurement_device_type  'SPring-8 BL10XU'
_diffrn_radiation_polarisn_ratio 0.95
_diffrn_radiation_probe          x-ray
_diffrn_radiation_type           Synchrotron
_diffrn_radiation_wavelength     0.41358
_diffrn_source                   Synchrotron
_exptl_absorpt_correction_T_max  1.00000
_exptl_absorpt_correction_T_min  1.00000
_exptl_absorpt_process_details
;   GSAS Absorption/surface roughness correction: function number 0
 No correction is applied.
;
_exptl_crystal_colour            black
_exptl_crystal_density_diffrn    3.883
_pd_block_id
2016-08-29T12:37|IBPSSET_402_DONE2|Oakley|SPring-8
_pd_calc_method                  'Rietveld Refinement'
_pd_instr_location               ' ?'
_pd_phase_name
'from C:/gsas/MyWork/IBPSSEt/4.02GPa_new/4.02 GPa_RT.cif'
_pd_proc_info_datetime           2016-08-29T12:37:38
_pd_proc_info_excluded_regions   ' ?'
_pd_proc_ls_background_function
;   GSAS Background function number 1 with  8 terms.
 Shifted Chebyshev function of 1st kind
      1:    2299.77     2:    1079.64     3:   -121.811     4:   -5.43094    
      5:    62.4536     6:    10.7622     7:   -12.9179     8:    8.18039    
;
_pd_proc_ls_peak_cutoff          0.00100
_pd_proc_ls_profile_function
;
 CW Profile function number 2 with  18 terms
 Profile coefficients for Simpson's rule integration of pseudovoigt function
 C.J. Howard (1982). J. Appl. Cryst.,15,615-620.
 P. Thompson, D.E. Cox & J.B. Hastings (1987). J. Appl. Cryst.,20,79-83.
 #1(GU)   =  668.096 #2(GV)   =   -1.119 #3(GW)   =    1.077
 #4(LX)   =    1.764 #5(LY)   =   41.953 #6(trns) =   -9.076
 #7(asym) =  -0.0081 #8(shft) =  -0.0921 #9(GP)   =    0.066
 #10(stec)=   223.04 #11(ptec)=    10.43 #12(sfec)=     0.00
 #13(L11) =    0.000 #14(L22) =    0.000 #15(L33) =    0.000
 #16(L12) =    0.000 #17(L13) =    0.018 #18(L23) =   -0.013
 Peak tails are ignored  where the intensity is below 0.0010 times the peak
   Aniso. broadening axis   0.0   0.0   1.0
;
_pd_proc_ls_prof_R_factor        0.0406
_pd_proc_ls_prof_wR_expected     0.0190
_pd_proc_ls_prof_wR_factor       0.0534
_pd_spec_mounting                ' ?'
_refine_ls_goodness_of_fit_all   2.82
_refine_ls_matrix_type           full
_refine_ls_number_parameters     1
_refine_ls_number_restraints     0
_refine_ls_R_Fsqd_factor         0.15558
_refine_ls_shift/su_max          0.00
_refine_ls_shift/su_mean         0.00
_reflns_d_resolution_high        1.673
_reflns_d_resolution_low         7.995
_reflns_limit_h_max              12
_reflns_limit_h_min              0
_reflns_limit_k_max              8
_reflns_limit_k_min              0
_reflns_limit_l_max              2
_reflns_limit_l_min              0
_reflns_number_total             89
_cod_data_source_file            c6cc07142b4.cif
_cod_data_source_block           1c_4_0_GPa
_cod_depositor_comments
;
The following automatic conversions were performed:

data name '_chemical_melting_point' was changed to
'_chemical_melting_point_gt' since the value was specified as 'more
than' ('>') a certain temperature.

data item '_geom_angle_publ_flag' value 'N' was changed to 'n' in
accordance with the
/home/saulius/struct/COD-crude-data/automatic-downloads/DataCite-retrospective/RSC/depositions/lib/dictionaries/cif_core.dic
dictionary named 'cif_core.dic' version 2.4.2 last updated on
2011-04-26 (17 times).

data item '_geom_bond_publ_flag' value 'N' was changed to 'n' in
accordance with the
/home/saulius/struct/COD-crude-data/automatic-downloads/DataCite-retrospective/RSC/depositions/lib/dictionaries/cif_core.dic
dictionary named 'cif_core.dic' version 2.4.2 last updated on
2011-04-26 (13 times).

Automatic conversion script
Id: cif_fix_values 6909 2019-04-08 15:41:33Z antanas 
;
_cod_original_cell_volume        981.5(6)
_cod_database_code               7125148
_gsas_exptl_extinct_corr_t_min   1.00000
_gsas_exptl_extinct_corr_t_max   1.00000
loop_
_symmetry_equiv_pos_site_id
_symmetry_equiv_pos_as_xyz
1 +x,+y,+z
2 +y,-x,-z
3 -x,-y,+z
4 -y,+x,-z
5 -x+1/2,+y+1/2,-z
6 +y+1/2,+x+1/2,+z
7 +x+1/2,-y+1/2,-z
8 -y+1/2,-x+1/2,+z
loop_
_atom_site_type_symbol
_atom_site_label
_atom_site_fract_x
_atom_site_fract_y
_atom_site_fract_z
_atom_site_occupancy
_atom_site_thermal_displace_type
_atom_site_U_iso_or_equiv
_atom_site_symmetry_multiplicity
I I1 -0.42866 -0.07135 0.21289 1.0 Uiso 0.0791 4
N N2 -0.25421 -0.2458 -0.51871 1.0 Uiso 0.0791 4
C C3 -0.35093 -0.14907 -0.07654 1.0 Uiso 0.0791 4
C C4 -0.20446 -0.29555 -0.76558 1.0 Uiso 0.0791 4
C C5 -0.14442 -0.35559 -0.59825 1.0 Uiso 0.0791 4
H H5A -0.11326 -0.38674 -0.77267 1.0 Uiso 0.1583 4
Se Se1 -0.10295 -0.05141 -0.31616 1.0 Uiso 0.0791 8
Se Se2 -0.22804 -0.01558 -0.02815 1.0 Uiso 0.0791 8
N N1 -0.14226 -0.14943 -0.48236 1.0 Uiso 0.0791 8
C C1 -0.21829 -0.17037 -0.39175 1.0 Uiso 0.0791 8
C C2 -0.27125 -0.1189 -0.17619 1.0 Uiso 0.0791 8
H H4A -0.17191 -0.25608 -0.91065 1.0 Uiso 0.1583 8
H H5B -0.10553 -0.32276 -0.45274 1.0 Uiso 0.1583 8
loop_
_atom_type_symbol
_atom_type_number_in_cell
_atom_type_scat_dispersion_real
_atom_type_scat_dispersion_imag
_atom_type_scat_Cromer_Mann_a1
_atom_type_scat_Cromer_Mann_a2
_atom_type_scat_Cromer_Mann_a3
_atom_type_scat_Cromer_Mann_a4
_atom_type_scat_Cromer_Mann_b1
_atom_type_scat_Cromer_Mann_b2
_atom_type_scat_Cromer_Mann_b3
_atom_type_scat_Cromer_Mann_b4
_atom_type_scat_Cromer_Mann_c
_atom_type_scat_source
I 4.0 0.000 0.000 20.1472 4.34700 18.9949 0.38140 7.51380 27.7660 2.27350
66.8776 4.07120 International_Tables_Vol_C
N 12.0 0.000 0.000 12.2126 0.00570 3.13220 9.89330 2.01250 28.9975 1.16630
0.58260 -11.529 International_Tables_Vol_C
C 28.0 0.000 0.000 2.31000 20.8439 1.02000 10.2075 1.58860 0.56870 0.86500
51.6512 0.21560 International_Tables_Vol_C
H 20.0 0.000 0.000 0.49300 10.5109 0.32291 26.1257 0.14019 3.14236 0.04081
57.7997 0.00304 International_Tables_Vol_C
Se 16.0 0.000 0.000 17.0006 2.40980 5.81960 0.27260 3.97310 15.2372 4.35430
43.8163 2.84090 International_Tables_Vol_C
loop_
_geom_angle_atom_site_label_1
_geom_angle_atom_site_label_2
_geom_angle_atom_site_label_3
_geom_angle
_geom_angle_site_symmetry_1
_geom_angle_site_symmetry_3
_geom_angle_publ_flag
C4 N2 C1 117.453 1_555 1_555 n
I1 C3 C2 118.611 1_555 1_555 n
N2 C4 C5 114.581 1_555 1_555 n
N2 C4 H4A 107.576 1_555 1_555 n
C5 C4 H4A 108.184 1_555 1_555 n
C4 C5 H5A 111.148 1_555 1_555 n
C4 C5 H5B 107.740 1_555 1_555 n
H5A C5 H5B 109.836 1_555 1_555 n
Se2 Se1 N1 94.664 1_555 1_555 n
Se1 Se2 C2 87.506 1_555 1_555 n
Se1 N1 C1 116.868 1_555 1_555 n
N2 C1 N1 120.093 1_555 1_555 n
N2 C1 C2 116.330 1_555 1_555 n
N1 C1 C2 123.5250 1_555 1_555 n
C3 C2 Se2 123.312 1_555 1_555 n
C3 C2 C1 119.295 1_555 1_555 n
Se2 C2 C1 117.353 1_555 1_555 n
loop_
_geom_bond_atom_site_label_1
_geom_bond_atom_site_label_2
_geom_bond_distance
_geom_bond_site_symmetry_2
_geom_bond_publ_flag
I1 C3 2.0793 1_555 n
N2 C1 1.42207 1_555 n
C4 N2 1.47092 1_555 n
C4 C5 1.50201 1_555 n
C4 H4A 0.98961 1_555 n
C5 H5A 0.97189 1_555 n
C5 H5B 0.98705 1_555 n
Se1 Se2 2.35615 1_555 n
Se1 N1 1.80524 1_555 n
Se2 C2 1.87882 1_555 n
N1 C1 1.30813 1_555 n
C1 C2 1.44192 1_555 n
C2 C3 1.41510 1_555 n
loop_
_refln_index_h
_refln_index_k
_refln_index_l
_refln_observed_status
_refln_F_squared_meas
_refln_F_squared_calc
_refln_phase_calc
_refln_d_spacing
_gsas_i100_meas
1 0 1 o 6747.085 7061.010 -90.00 3.73220 14.19
0 0 1 o 0.000 9057.122 0.00 3.83820 0.00
2 0 1 o 228.807 271.689 0.00 3.46016 0.67
1 1 1 o 7499.777 7988.173 160.82 3.63452 7.92
2 0 0 o 17548.494 18964.576 0.00 7.99542 35.58
2 1 1 o 27999.525 28378.195 73.13 3.38189 64.74
2 1 0 o 10825.711 12045.158 0.00 7.15132 33.49
3 0 1 o 915.284 938.859 90.00 3.11472 1.20
3 1 1 o 371.972 420.039 121.70 3.05727 0.78
2 2 1 o 87698.83 89812.92 135.94 3.17555 100.00
2 2 0 o 902.138 1472.078 180.00 5.65362 1.23
4 0 1 o 31619.996 33570.457 0.00 2.76869 13.38
3 2 1 o 901.694 1640.668 124.37 2.90228 2.76
4 1 1 o 3266.033 3046.549 50.63 2.72810 3.00
3 1 0 o 2490.117 2939.316 180.00 5.05675 4.75
3 2 0 o 2715.738 3567.055 180.00 4.43506 3.44
3 3 1 o 11108.750 10210.788 -159.45 2.68925 17.89
4 2 1 o 37320.38 37108.71 82.61 2.61627 55.40
5 0 1 o 26064.607 25486.117 90.00 2.45701 8.48
4 0 0 o 1401.713 3079.358 0.00 3.99771 0.71
4 1 0 o 27421.330 27908.318 0.00 3.87835 32.24
4 3 1 o 383.495 373.267 156.68 2.45701 0.58
3 3 0 o 17260.652 17230.857 180.00 3.76908 10.45
0 0 2 o 0.000 1132.515 180.00 1.91910 0.00
5 1 1 o 9940.667 11093.129 0.77 2.42851 5.89
1 0 2 o 363.664 625.172 -90.00 1.90543 0.06
1 1 2 o 870.991 1371.898 -35.74 1.89204 0.21
4 2 0 o 8860.491 7043.861 180.00 3.57566 6.86
5 2 1 o 4868.073 7543.490 109.71 2.34861 2.68
2 0 2 o 8863.924 11464.462 -180.00 1.86610 4.68
2 1 2 o 1353.590 1586.137 123.46 1.85352 1.15
4 4 1 o 46714.16 49045.12 62.95 2.27612 14.55
2 2 2 o 28049.848 24313.486 -163.65 1.81726 7.43
3 0 2 o 836.201 695.151 -90.00 1.80564 0.64
3 1 2 o 2212.187 1822.487 -105.86 1.79424 2.51
5 3 1 o 2987.182 2588.855 -19.40 2.23136 1.11
5 1 0 o 4018.415 3894.649 0.00 3.13606 3.04
4 3 0 o 29688.893 27929.119 0.00 3.19817 21.84
6 0 1 o 57.552 66.731 0.00 2.18914 0.02
3 2 2 o 5899.384 5504.551 -27.55 1.76128 2.74
6 1 1 o 1877.480 2589.129 -83.48 2.16891 1.38
4 0 2 o 14408.877 14606.594 0.00 1.73008 10.56
5 2 0 o 182.719 294.272 180.00 2.96943 0.11
4 1 2 o 5034.490 5285.648 -117.06 1.72004 5.75
6 2 1 o 20958.930 16019.112 143.32 2.11143 11.45
3 3 2 o 12127.006 13355.184 -93.18 1.71018 1.26
5 4 1 o 0.000 8475.771 175.94 2.09326 0.00
4 2 2 o 566.261 708.814 -14.91 1.69095 0.33
4 4 0 o 13795.455 20030.697 0.00 2.82681 4.70
6 3 1 o 5314.547 5459.695 168.69 2.02501 1.43
5 3 0 o 150.291 120.675 180.00 2.74241 0.07
6 0 0 o 40767.44 34610.504 -180.00 2.66514 9.20
7 0 1 o 5455.306 9641.877 90.00 1.96303 2.41
6 1 0 o 15133.527 13807.983 0.00 2.62888 7.81
7 1 1 o 143.269 286.748 144.54 1.94840 0.12
5 5 1 o 0.000 8707.214 -52.47 1.94840 0.00
6 4 1 o 0.000 992.706 35.17 1.92010 0.00
7 2 1 o 1760.336 3670.112 112.12 1.90641 1.33
6 2 0 o 76640.28 67538.09 180.00 2.52837 36.57
5 4 0 o 11136.556 8411.543 -180.00 2.49735 5.31
7 3 1 o 2817.818 3011.028 -166.74 1.84208 1.51
6 3 0 o 12286.041 17330.484 0.00 2.38377 4.23
6 5 1 o 0.000 6619.713 91.07 1.80647 0.00
5 5 0 o 2905.933 3211.968 0.00 2.26145 0.63
7 1 0 o 69.329 76.606 0.00 2.26145 0.03
8 0 1 o 2546.736 2207.463 0.00 1.77285 1.08
8 1 1 o 20925.732 19632.877 -79.91 1.76206 18.08
7 4 1 o 1776.712 1668.872 142.97 1.76206 0.49
6 4 0 o 224.027 182.986 0.00 2.21753 0.07
7 2 0 o 16873.273 18474.191 0.00 2.19651 6.32
8 2 1 o 1306.723 1295.581 -128.47 1.73081 1.12
6 6 1 o 0.000 4794.979 -160.85 1.69163 0.00
8 3 1 o 2091.368 3046.673 -163.40 1.68225 1.57
7 5 1 o 2219.308 3915.502 -127.28 1.67301 0.19
7 3 0 o 4219.924 2583.386 180.00 2.09970 1.22
6 5 0 o 10395.299 6022.101 0.00 2.04742 3.45
8 0 0 o 144.110 253.912 180.00 1.99886 0.02
8 1 0 o 5695.550 7226.946 0.00 1.98342 1.59
7 4 0 o 3885.087 4927.611 0.00 1.98342 0.91
8 2 0 o 2552.395 6013.112 180.00 1.93917 0.75
6 6 0 o 2645.963 4062.798 0.00 1.88454 0.40
8 3 0 o 9.443 14.316 0.00 1.87159 0.00
7 5 0 o 1006.629 1453.538 180.00 1.85890 0.24
9 1 0 o 12126.814 12070.195 0.00 1.76589 2.64
8 4 0 o 21763.900 14633.320 0.00 1.78783 4.22
9 2 0 o 7469.251 7103.293 0.00 1.73445 1.75
7 6 0 o 5846.835 5560.198 0.00 1.73445 1.42
8 5 0 o 3597.862 4267.723 0.00 1.69503 0.64
9 3 0 o 7338.022 10007.631 0.00 1.68558 1.56
