#------------------------------------------------------------------------------
#$Date: 2019-11-23 19:01:24 +0200 (Sat, 23 Nov 2019) $
#$Revision: 234556 $
#$URL: file:///home/coder/svn-repositories/cod/cif/7/12/51/7125152.cif $
#------------------------------------------------------------------------------
#
# This file is available in the Crystallography Open Database (COD),
# http://www.crystallography.net/
#
# All data on this site have been placed in the public domain by the
# contributors.
#
data_7125152
loop_
_publ_author_name
'Lekin, Kristina'
'Ogata, Kazuma'
'Maclean, Adrian'
'Mailman, Aaron'
'Winter, Stephen M.'
'Assoud, Abdeljalil'
'Mito, Masaki'
'Tse, John S.'
'Desgreniers, Serge'
'Hirao, Naohisa'
'Dube, Paul A.'
'Oakley, Richard T.'
_publ_section_title
;
 Pushing T<sub>C</sub> to 27.5 K in a heavy atom radical ferromagnet.
;
_journal_issue                   96
_journal_name_full
'Chemical communications (Cambridge, England)'
_journal_page_first              13877
_journal_page_last               13880
_journal_paper_doi               10.1039/c6cc07142b
_journal_volume                  52
_journal_year                    2016
_chemical_formula_moiety         'C7 H5 I1 N3 Se4'
_chemical_formula_sum            'C7 H5 I N3 Se4'
_chemical_formula_weight         573.88
_chemical_melting_point_gt       400
_chemical_name_common            IBPSSEt
_chemical_name_systematic
; 
8-iodo-4-ethyl-4H-bis[1,2,3]diselenazolo[4,5-b:5',4'-e]pyridin-2-yl
;
_space_group_IT_number           113
_space_group_name_Hall           'P -4 2ab'
_space_group_name_H-M_alt        'P -4 21 m'
_symmetry_cell_setting           tetragonal
_symmetry_space_group_name_Hall  'P -4 2ab'
_symmetry_space_group_name_H-M   'P -4 21 m'
_audit_creation_date             2016-08-30T17:59
_audit_creation_method           'from EXP file using GSAS2CIF'
_audit_update_record
' 2016-08-30T17:59  Initial CIF as created by GSAS2CIF'
_cell_angle_alpha                90.0
_cell_angle_beta                 90.0
_cell_angle_gamma                90.0
_cell_formula_units_Z            4
_cell_length_a                   15.7128(16)
_cell_length_b                   15.7128
_cell_length_c                   3.6914(26)
_cell_measurement_temperature    293(2)
_cell_volume                     911.4(6)
_computing_structure_refinement  GSAS
_diffrn_ambient_temperature      293(2)
_diffrn_measurement_device_type  'SPring-8 BL10XU'
_diffrn_radiation_polarisn_ratio 0.95
_diffrn_radiation_probe          x-ray
_diffrn_radiation_type           Synchrotron
_diffrn_radiation_wavelength     0.41358
_diffrn_source                   Synchrotron
_exptl_absorpt_correction_T_max  1.00000
_exptl_absorpt_correction_T_min  1.00000
_exptl_absorpt_process_details
;   GSAS Absorption/surface roughness correction: function number 0
 No correction is applied.
;
_exptl_crystal_colour            black
_exptl_crystal_density_diffrn    4.182
_pd_block_id
2016-08-30T17:59|IBPSSET_749GPA_DONE2|Oakley|SPring-8
_pd_calc_method                  'Rietveld Refinement'
_pd_instr_location               ' ?'
_pd_meas_2theta_range_inc        0.01
_pd_meas_2theta_range_max        24.61
_pd_meas_2theta_range_min        0.5
_pd_phase_name
'from C:/gsas/MyWork/IBPSSEt/7.49GPa/7.49 GPa_RT-DASH4.cif'
_pd_proc_2theta_range_inc        0.01
_pd_proc_2theta_range_max        24.61032
_pd_proc_2theta_range_min        0.50032
_pd_proc_info_datetime           2016-08-30T17:59:13
_pd_proc_info_excluded_regions   ' ?'
_pd_proc_ls_background_function
;   GSAS Background function number 1 with  8 terms.
 Shifted Chebyshev function of 1st kind
      1:    2455.40     2:    1165.27     3:   -95.4582     4:    7.95640    
      5:    54.5756     6:    14.1275     7:   -2.31744     8:   -1.82461    
;
_pd_proc_ls_peak_cutoff          0.00100
_pd_proc_ls_profile_function
;
 CW Profile function number 2 with  18 terms
 Profile coefficients for Simpson's rule integration of pseudovoigt function
 C.J. Howard (1982). J. Appl. Cryst.,15,615-620.
 P. Thompson, D.E. Cox & J.B. Hastings (1987). J. Appl. Cryst.,20,79-83.
 #1(GU)   =  111.106 #2(GV)   =   58.024 #3(GW)   =   -0.231
 #4(LX)   =    1.767 #5(LY)   =   43.310 #6(trns) =    9.465
 #7(asym) =  -0.0102 #8(shft) =   0.0602 #9(GP)   =    0.160
 #10(stec)=   397.75 #11(ptec)=     6.56 #12(sfec)=     0.00
 #13(L11) =    0.000 #14(L22) =    0.000 #15(L33) =    0.000
 #16(L12) =    0.000 #17(L13) =    0.025 #18(L23) =   -0.011
 Peak tails are ignored  where the intensity is below 0.0010 times the peak
   Aniso. broadening axis   0.0   0.0   1.0
;
_pd_proc_ls_prof_R_factor        0.0437
_pd_proc_ls_prof_wR_expected     0.0183
_pd_proc_ls_prof_wR_factor       0.0580
_pd_spec_mounting                ' ?'
_refine_ls_goodness_of_fit_all   3.18
_refine_ls_matrix_type           full
_refine_ls_number_parameters     1
_refine_ls_number_restraints     0
_refine_ls_R_Fsqd_factor         0.10699
_refine_ls_shift/su_max          0.00
_refine_ls_shift/su_mean         0.00
_reflns_d_resolution_high        1.634
_reflns_d_resolution_low         7.856
_reflns_limit_h_max              13
_reflns_limit_h_min              0
_reflns_limit_k_max              9
_reflns_limit_k_min              0
_reflns_limit_l_max              3
_reflns_limit_l_min              0
_reflns_number_total             89
_cod_data_source_file            c6cc07142b4.cif
_cod_data_source_block           1c_7_5_GPa
_cod_depositor_comments
;
The following automatic conversions were performed:

data name '_chemical_melting_point' was changed to
'_chemical_melting_point_gt' since the value was specified as 'more
than' ('>') a certain temperature.

data item '_geom_angle_publ_flag' value 'N' was changed to 'n' in
accordance with the
/home/saulius/struct/COD-crude-data/automatic-downloads/DataCite-retrospective/RSC/depositions/lib/dictionaries/cif_core.dic
dictionary named 'cif_core.dic' version 2.4.2 last updated on
2011-04-26 (17 times).

data item '_geom_bond_publ_flag' value 'N' was changed to 'n' in
accordance with the
/home/saulius/struct/COD-crude-data/automatic-downloads/DataCite-retrospective/RSC/depositions/lib/dictionaries/cif_core.dic
dictionary named 'cif_core.dic' version 2.4.2 last updated on
2011-04-26 (12 times).

Automatic conversion script
Id: cif_fix_values 6909 2019-04-08 15:41:33Z antanas 
;
_cod_original_cell_volume        911.4(7)
_cod_database_code               7125152
_gsas_exptl_extinct_corr_t_min   1.00000
_gsas_exptl_extinct_corr_t_max   1.00000
loop_
_symmetry_equiv_pos_site_id
_symmetry_equiv_pos_as_xyz
1 +x,+y,+z
2 +y,-x,-z
3 -x,-y,+z
4 -y,+x,-z
5 -x+1/2,+y+1/2,-z
6 +y+1/2,+x+1/2,+z
7 +x+1/2,-y+1/2,-z
8 -y+1/2,-x+1/2,+z
loop_
_atom_site_type_symbol
_atom_site_label
_atom_site_fract_x
_atom_site_fract_y
_atom_site_fract_z
_atom_site_occupancy
_atom_site_thermal_displace_type
_atom_site_U_iso_or_equiv
_atom_site_symmetry_multiplicity
I I1 -0.93084 -0.56917 0.69578 1.0 Uiso 0.1469 4
N N2 -0.74424 -0.75577 0.01591 1.0 Uiso 0.1469 4
C C3 -0.84819 -0.65181 0.43087 1.0 Uiso 0.1469 4
C C4 -0.69051 -0.80949 -0.21775 1.0 Uiso 0.1469 4
C C5 -0.63178 -0.86823 -0.01575 1.0 Uiso 0.1469 4
H H5A -0.59787 -0.90213 -0.18269 1.0 Uiso 0.2939 4
Se Se1 -0.59735 -0.55797 0.20895 1.0 Uiso 0.1469 8
Se Se2 -0.72809 -0.51834 0.4731 1.0 Uiso 0.1469 8
N N1 -0.63492 -0.66022 0.05277 1.0 Uiso 0.1469 8
C C1 -0.7132 -0.68073 0.13638 1.0 Uiso 0.1469 8
C C2 -0.76983 -0.62573 0.33635 1.0 Uiso 0.1469 8
H H4A -0.65951 -0.77491 -0.37179 1.0 Uiso 0.2939 8
H H5B -0.59722 -0.83564 0.13548 1.0 Uiso 0.2939 8
loop_
_atom_type_symbol
_atom_type_number_in_cell
_atom_type_scat_dispersion_real
_atom_type_scat_dispersion_imag
_atom_type_scat_Cromer_Mann_a1
_atom_type_scat_Cromer_Mann_a2
_atom_type_scat_Cromer_Mann_a3
_atom_type_scat_Cromer_Mann_a4
_atom_type_scat_Cromer_Mann_b1
_atom_type_scat_Cromer_Mann_b2
_atom_type_scat_Cromer_Mann_b3
_atom_type_scat_Cromer_Mann_b4
_atom_type_scat_Cromer_Mann_c
_atom_type_scat_source
I 4.0 0.000 0.000 20.1472 4.34700 18.9949 0.38140 7.51380 27.7660 2.27350
66.8776 4.07120 International_Tables_Vol_C
N 12.0 0.000 0.000 12.2126 0.00570 3.13220 9.89330 2.01250 28.9975 1.16630
0.58260 -11.529 International_Tables_Vol_C
C 28.0 0.000 0.000 2.31000 20.8439 1.02000 10.2075 1.58860 0.56870 0.86500
51.6512 0.21560 International_Tables_Vol_C
H 20.0 0.000 0.000 0.49300 10.5109 0.32291 26.1257 0.14019 3.14236 0.04081
57.7997 0.00304 International_Tables_Vol_C
Se 16.0 0.000 0.000 17.0006 2.40980 5.81960 0.27260 3.97310 15.2372 4.35430
43.8163 2.84090 International_Tables_Vol_C
loop_
_geom_angle_atom_site_label_1
_geom_angle_atom_site_label_2
_geom_angle_atom_site_label_3
_geom_angle
_geom_angle_site_symmetry_1
_geom_angle_site_symmetry_3
_geom_angle_publ_flag
C4 N2 C1 119.073 1_555 1_555 n
I1 C3 C2 120.241 1_555 1_555 n
N2 C4 C5 114.41 1_555 1_555 n
N2 C4 H4A 108.976 1_555 1_555 n
C5 C4 H4A 110.017 1_555 1_555 n
C4 C5 H5A 110.98 1_555 1_555 n
C4 C5 H5B 108.508 1_555 1_555 n
H5A C5 H5B 111.157 1_555 1_555 n
Se2 Se1 N1 94.713 1_555 1_555 n
Se1 Se2 C2 87.469 1_555 1_555 n
Se1 N1 C1 116.811 1_555 1_555 n
N2 C1 N1 118.463 1_555 1_555 n
N2 C1 C2 117.919 1_555 1_555 n
N1 C1 C2 123.5501 1_555 1_555 n
C3 C2 Se2 121.588 1_555 1_555 n
C3 C2 C1 121.001 1_555 1_555 n
Se2 C2 C1 117.372 1_555 1_555 n
loop_
_geom_bond_atom_site_label_1
_geom_bond_atom_site_label_2
_geom_bond_distance
_geom_bond_site_symmetry_2
_geom_bond_publ_flag
I1 C3 2.0806 1_555 n
N2 C4 1.4728 1_555 n
N2 C1 1.35125 1_555 n
C4 C5 1.50315 1_555 n
C4 H4A 0.92510 1_555 n
C5 H5A 0.97333 1_555 n
C5 H5B 0.93207 1_555 n
Se1 Se2 2.35767 1_555 n
Se1 N1 1.80613 1_555 n
N1 C1 1.30843 1_555 n
C1 C2 1.44343 1_555 n
C2 C3 1.34374 1_555 n
loop_
_refln_index_h
_refln_index_k
_refln_index_l
_refln_observed_status
_refln_F_squared_meas
_refln_F_squared_calc
_refln_phase_calc
_refln_d_spacing
_gsas_i100_meas
0 0 1 o 17005.352 16891.963 180.00 3.69139 2.77
2 0 1 o 1133.037 1278.945 -180.00 3.34097 2.25
1 0 1 o 6610.273 6588.475 -90.00 3.59355 12.29
1 1 1 o 6207.703 6421.117 -38.98 3.50310 4.87
2 1 1 o 20674.494 20779.885 65.35 3.26792 36.14
3 0 1 o 159.410 168.989 90.00 3.01730 0.20
2 2 1 o 64716.18 65291.75 -47.46 3.07452 100.00
3 1 1 o 593.678 664.932 -53.27 2.96316 1.59
2 0 0 o 19243.838 20260.883 0.00 7.85638 33.44
4 0 1 o 18587.754 19708.375 -180.00 2.69003 10.05
3 2 1 o 440.733 545.092 127.05 2.81671 1.93
2 1 0 o 8088.364 8989.107 -180.00 7.02696 21.92
4 1 1 o 2551.563 2471.996 34.13 2.65145 3.49
3 3 1 o 6977.674 6665.722 -2.89 2.61449 15.82
2 2 0 o 562.601 441.351 180.00 5.55530 0.40
0 0 2 o 587.883 1006.724 180.00 1.84569 0.02
3 0 2 o 101.807 96.060 90.00 1.74077 0.05
1 0 2 o 340.670 543.358 90.00 1.83309 0.09
4 2 1 o 24918.715 25013.961 -96.20 2.54498 54.39
3 1 2 o 607.100 574.213 -102.72 1.73018 0.47
1 1 2 o 187.086 273.179 -95.35 1.82074 0.06
2 0 2 o 4232.949 5020.361 -180.00 1.79678 1.97
2 1 2 o 1163.140 1257.419 -70.89 1.78514 0.86
3 1 0 o 1675.089 2894.071 180.00 4.96881 2.92
4 0 2 o 5705.188 5363.793 0.00 1.67049 2.84
2 2 2 o 10249.828 9673.875 -171.70 1.75155 2.02
5 0 1 o 12331.471 12360.200 90.00 2.39287 6.81
4 3 1 o 142.592 142.903 29.55 2.39287 0.31
4 1 2 o 910.842 871.436 60.65 1.66113 0.71
5 1 1 o 5457.970 5561.777 -177.16 2.36560 5.33
4 2 2 o 326.652 366.110 39.16 1.63396 0.14
3 2 2 o 1516.155 1426.896 154.65 1.69955 0.41
3 2 0 o 2952.508 3033.356 0.00 4.35793 2.52
5 2 1 o 2558.839 3263.991 110.69 2.28905 1.99
4 4 1 o 30130.898 31182.693 -110.14 2.21949 13.35
3 3 2 o 4875.877 4845.913 -97.52 1.65192 0.35
5 3 1 o 1211.873 1133.974 163.88 2.17649 0.54
4 0 0 o 1727.394 2133.222 0.00 3.92819 0.75
4 1 0 o 17775.096 20626.619 -180.00 3.81090 18.69
6 0 1 o 18.242 21.585 0.00 2.13589 0.02
6 1 1 o 1091.389 1457.763 -64.60 2.11643 2.15
3 3 0 o 11630.580 10893.328 180.00 3.70353 3.67
6 2 1 o 10636.203 9493.599 -36.01 2.06108 12.89
5 4 1 o 0.000 4111.481 175.57 2.04357 0.00
4 2 0 o 3678.741 3936.117 180.00 3.51348 2.49
6 3 1 o 2148.691 1971.348 166.41 1.97776 0.97
4 3 0 o 16520.957 16640.957 -180.00 3.14255 7.25
5 1 0 o 1665.119 1459.761 0.00 3.08152 1.11
7 0 1 o 2318.649 3892.919 90.00 1.91792 4.09
5 5 1 o 0.000 2248.278 137.04 1.90379 0.00
7 1 1 o 4.148 7.750 59.41 1.90379 0.01
6 4 1 o 0.000 694.592 -120.19 1.87644 0.00
7 2 1 o 677.630 1531.033 97.03 1.86320 1.52
5 2 0 o 759.718 833.602 0.00 2.91778 0.42
7 3 1 o 1021.333 1283.852 33.40 1.80097 1.28
4 4 0 o 14999.904 17622.781 0.00 2.77765 2.67
6 5 1 o 0.000 2080.589 75.49 1.76650 0.00
5 3 0 o 4.546 5.183 0.00 2.69471 0.00
8 0 1 o 578.970 531.127 180.00 1.73393 1.20
6 0 0 o 34221.938 29899.559 -180.00 2.61879 6.62
7 4 1 o 894.512 835.124 118.88 1.72347 0.44
8 1 1 o 7797.621 7278.974 -75.95 1.72347 29.91
6 1 0 o 10622.964 10060.112 -180.00 2.58316 4.79
8 2 1 o 908.102 833.662 64.04 1.69318 2.74
6 2 0 o 57554.46 45994.24 180.00 2.48440 25.16
5 4 0 o 11023.068 8990.282 0.00 2.45392 2.97
6 6 1 o 0.000 1130.432 -1.65 1.65518 0.00
8 3 1 o 740.224 772.161 -163.36 1.64607 1.50
7 5 1 o 1186.640 1461.389 46.54 1.63711 0.06
6 3 0 o 9558.124 8407.998 -180.00 2.34232 2.88
7 1 0 o 327.289 351.416 -180.00 2.22212 0.11
5 5 0 o 3990.643 4282.836 0.00 2.22212 0.45
6 4 0 o 580.658 382.651 0.00 2.17897 0.12
7 2 0 o 9940.682 7708.772 -180.00 2.15831 3.37
7 3 0 o 1264.841 1064.433 -180.00 2.06319 0.34
6 5 0 o 6905.144 2941.182 -180.00 2.01181 1.26
8 0 0 o 1310.432 1841.190 180.00 1.96409 0.14
8 1 0 o 3640.541 4218.804 -180.00 1.94893 0.88
7 4 0 o 1041.835 1207.928 -180.00 1.94893 0.19
8 2 0 o 1862.184 3951.143 -180.00 1.90545 0.49
6 6 0 o 1210.037 3601.343 0.00 1.85177 0.10
8 3 0 o 3.217 9.676 -180.00 1.83904 0.00
7 5 0 o 60.050 158.523 -180.00 1.82657 0.01
9 1 0 o 4377.317 4141.594 0.00 1.73518 0.82
8 4 0 o 6745.851 4831.348 0.00 1.75674 1.15
9 2 0 o 1825.912 1608.554 -180.00 1.70429 0.38
7 6 0 o 2589.417 2281.466 -180.00 1.70429 0.34
8 5 0 o 3623.103 2611.493 180.00 1.66555 0.47
9 3 0 o 3930.766 2851.149 0.00 1.65627 0.77
