#------------------------------------------------------------------------------
#$Date: 2020-03-05 01:33:12 +0200 (Thu, 05 Mar 2020) $
#$Revision: 248808 $
#$URL: file:///home/coder/svn-repositories/cod/cif/7/12/59/7125928.cif $
#------------------------------------------------------------------------------
#
# This file is available in the Crystallography Open Database (COD),
# http://www.crystallography.net/
#
# All data on this site have been placed in the public domain by the
# contributors.
#
data_7125928
loop_
_publ_author_name
'Wilson, Richard E.'
'Carter, Tyler J.'
'Autillo, Matthieu'
'Stegman, Samantha'
_publ_section_title
;
 Thiocyanate complexes of the lanthanides, Am and Cm.
;
_journal_issue                   17
_journal_name_full
'Chemical communications (Cambridge, England)'
_journal_page_first              2622
_journal_page_last               2625
_journal_paper_doi               10.1039/c9cc07612c
_journal_volume                  56
_journal_year                    2020
_chemical_formula_sum            'C39 H0 N11 O0 S7 Sm'
_chemical_formula_weight         997.27
_space_group_crystal_system      cubic
_space_group_IT_number           221
_space_group_name_Hall           '-P 4 2 3'
_space_group_name_H-M_alt        'P m -3 m'
_audit_creation_method           SHELXL-2014/7
_audit_update_record
;
2019-09-26 deposited with the CCDC.	2020-01-13 downloaded from the CCDC.
;
_cell_angle_alpha                90
_cell_angle_beta                 90
_cell_angle_gamma                90
_cell_formula_units_Z            1
_cell_length_a                   11.3772(6)
_cell_length_b                   11.3772(6)
_cell_length_c                   11.3772(6)
_cell_measurement_reflns_used    25736
_cell_measurement_temperature    100(2)
_cell_measurement_theta_max      33.06
_cell_measurement_theta_min      1.79
_cell_volume                     1472.67(13)
_computing_structure_refinement  'SHELXL-2014/7 (Sheldrick, 2014)'
_diffrn_ambient_temperature      100(2)
_diffrn_measured_fraction_theta_full 1.000
_diffrn_measured_fraction_theta_max 0.987
_diffrn_measurement_device_type  'BRUKER APEX II'
_diffrn_radiation_type           MoK\a
_diffrn_radiation_wavelength     0.71073
_diffrn_reflns_av_R_equivalents  0.0366
_diffrn_reflns_av_unetI/netI     0.0095
_diffrn_reflns_Laue_measured_fraction_full 1.000
_diffrn_reflns_Laue_measured_fraction_max 0.987
_diffrn_reflns_limit_h_max       16
_diffrn_reflns_limit_h_min       -16
_diffrn_reflns_limit_k_max       17
_diffrn_reflns_limit_k_min       -17
_diffrn_reflns_limit_l_max       16
_diffrn_reflns_limit_l_min       -16
_diffrn_reflns_number            25736
_diffrn_reflns_point_group_measured_fraction_full 1.000
_diffrn_reflns_point_group_measured_fraction_max 0.987
_diffrn_reflns_theta_full        25.242
_diffrn_reflns_theta_max         33.058
_diffrn_reflns_theta_min         1.790
_exptl_absorpt_coefficient_mu    1.276
_exptl_absorpt_correction_T_max  0.4352
_exptl_absorpt_correction_T_min  0.3960
_exptl_absorpt_correction_type   multi-scan
_exptl_absorpt_process_details   SADABS
_exptl_crystal_colour            colorless
_exptl_crystal_density_diffrn    1.124
_exptl_crystal_description       block
_exptl_crystal_F_000             485
_exptl_crystal_size_max          0.128
_exptl_crystal_size_mid          0.070
_exptl_crystal_size_min          0.058
_refine_diff_density_max         1.383
_refine_diff_density_min         -0.827
_refine_diff_density_rms         0.120
_refine_ls_extinction_method     none
_refine_ls_goodness_of_fit_ref   1.043
_refine_ls_hydrogen_treatment    undef
_refine_ls_matrix_type           full
_refine_ls_number_parameters     32
_refine_ls_number_reflns         615
_refine_ls_number_restraints     0
_refine_ls_restrained_S_all      1.043
_refine_ls_R_factor_all          0.0392
_refine_ls_R_factor_gt           0.0392
_refine_ls_shift/su_max          0.000
_refine_ls_shift/su_mean         0.000
_refine_ls_structure_factor_coef Fsqd
_refine_ls_weighting_details
'w=1/[\s^2^(Fo^2^)+(0.0964P)^2^+1.0000P] where P=(Fo^2^+2Fc^2^)/3'
_refine_ls_weighting_scheme      calc
_refine_ls_wR_factor_gt          0.1136
_refine_ls_wR_factor_ref         0.1136
_reflns_Friedel_coverage         0.000
_reflns_number_gt                615
_reflns_number_total             615
_reflns_threshold_expression     'I > 2\s(I)'
_cod_data_source_file            c9cc07612c2.cif
_cod_data_source_block           pm3m_CCDC4
_cod_depositor_comments
'Adding full bibliography for 7125915--7125930.cif.'
_cod_original_cell_volume        1472.7(2)
_cod_database_code               7125928
_shelx_shelxl_version_number     2014/7
_shelx_space_group_comment
;
The symmetry employed for this shelxl refinement is uniquely defined
by the following loop, which should always be used as a source of
symmetry information in preference to the above space-group names.
They are only intended as comments.
;
_shelx_res_file
;

    pm3m.res created by SHELXL-2014/7


TITL sad in Pm-3m
CELL 0.71073  11.3772  11.3772  11.3772  90.000  90.000  90.000
ZERR    1.00   0.0006   0.0006   0.0006   0.000   0.000   0.000
LATT  1
SYMM -X, -Y, Z
SYMM -X, Y, -Z
SYMM X, -Y, -Z
SYMM Z, X, Y
SYMM Z, -X, -Y
SYMM -Z, -X, Y
SYMM -Z, X, -Y
SYMM Y, Z, X
SYMM -Y, Z, -X
SYMM Y, -Z, -X
SYMM -Y, -Z, X
SYMM Y, X, -Z
SYMM -Y, -X, -Z
SYMM Y, -X, Z
SYMM -Y, X, Z
SYMM X, Z, -Y
SYMM -X, Z, Y
SYMM -X, -Z, -Y
SYMM X, -Z, Y
SYMM Z, Y, -X
SYMM Z, -Y, X
SYMM -Z, Y, X
SYMM -Z, -Y, -X
SFAC C H N O S SM
UNIT 39 0 11 0 7 1
TEMP -173.000

ACTA

L.S. 10
BOND
FMAP 2
PLAN 20

WGHT    0.096400    1.000000
FVAR       0.18026   0.86034
SM1   6    0.000000    0.000000    0.000000    10.02083    0.01734    0.01734 =
         0.01734    0.00000    0.00000    0.00000
N2    3    0.000000    0.000000    0.500000    10.06250    0.19698    0.19698 =
         0.02847    0.00000    0.00000    0.00000
C2    1    0.000000    0.099771    0.415168    10.25000    0.14260    0.26293 =
         0.06525    0.07715    0.00000    0.00000
N3    3    0.500000    0.500000    0.500000    10.02083    0.02963    0.02963 =
         0.02963    0.00000    0.00000    0.00000
C3    1    0.000000    0.219703    0.500000    10.25000    0.12352    0.18719 =
         0.21370    0.00000    0.00000    0.00000
C4    1    0.406302    0.406302    0.500000    10.08330    0.06271    0.06271 =
         0.03647    0.00000    0.00000   -0.03789
C5    1    0.274208    0.500000    0.500000    10.08330    0.02826    0.07443 =
         0.07443    0.00000    0.00000    0.00000
S1    5    0.261741    0.261741    0.261741    10.14583    0.09813    0.09813 =
         0.09813   -0.03419   -0.03419   -0.03419
C1    1    0.182277    0.182277    0.182277    10.14583    0.06417    0.06417 =
         0.06417   -0.01717   -0.01717   -0.01717
N1    3    0.124423    0.124423    0.124423    10.14583    0.07955    0.07955 =
         0.07955   -0.02507   -0.02507   -0.02507
HKLF 4

REM  sad in Pm-3m
REM R1 =  0.0392 for     615 Fo > 4sig(Fo)  and  0.0392 for all     615 data
REM     32 parameters refined using      0 restraints

END

WGHT      0.0963      0.0000

REM Highest difference peak  1.383,  deepest hole -0.827,  1-sigma level  0.120
Q1    1   0.0000  0.5000  0.5000  10.06250  0.05    1.38
Q2    1   0.0000  0.2560  0.5000  10.25000  0.05    0.80
Q3    1   0.1468  0.0508  0.1468  10.50000  0.05    0.75
Q4    1   0.0000  0.1591  0.4437  10.50000  0.05    0.66
Q5    1   0.2479  0.2479  0.2182  10.50000  0.05    0.62
Q6    1   0.4040  0.4040  0.4040  10.16667  0.05    0.38
Q7    1   0.1846  0.1846  0.1219  10.50000  0.05    0.36
Q8    1   0.0709  0.0709  0.3644  10.50000  0.05    0.33
Q9    1   0.0000  0.0436  0.4347  10.50000  0.05    0.32
Q10   1   0.0000  0.0489  0.0489  10.25000  0.05    0.31
Q11   1   0.0000  0.0000  0.0709  10.12500  0.05    0.30
Q12   1   0.2454  0.4227  0.5000  10.50000  0.05    0.23
Q13   1   0.2610  0.4520  0.4520  10.50000  0.05    0.23
Q14   1   0.0000  0.0000  0.3090  10.12500  0.05    0.22
Q15   1   0.2766  0.4319  0.5000  10.50000  0.05    0.21
Q16   1   0.2383  0.5000  0.5000  10.12500  0.05    0.20
Q17   1   0.3153  0.4709  0.5000  10.50000  0.05    0.19
Q18   1   0.0000  0.3697  0.5000  10.25000  0.05    0.19
Q19   1   0.0975  0.5000  0.5000  10.12500  0.05    0.16
Q20   1   0.1231  0.1774  0.0000  10.50000  0.05    0.14
;
_shelx_res_checksum              42604
loop_
_space_group_symop_operation_xyz
'x, y, z'
'-x, -y, z'
'-x, y, -z'
'x, -y, -z'
'z, x, y'
'z, -x, -y'
'-z, -x, y'
'-z, x, -y'
'y, z, x'
'-y, z, -x'
'y, -z, -x'
'-y, -z, x'
'y, x, -z'
'-y, -x, -z'
'y, -x, z'
'-y, x, z'
'x, z, -y'
'-x, z, y'
'-x, -z, -y'
'x, -z, y'
'z, y, -x'
'z, -y, x'
'-z, y, x'
'-z, -y, -x'
'-x, -y, -z'
'x, y, -z'
'x, -y, z'
'-x, y, z'
'-z, -x, -y'
'-z, x, y'
'z, x, -y'
'z, -x, y'
'-y, -z, -x'
'y, -z, x'
'-y, z, x'
'y, z, -x'
'-y, -x, z'
'y, x, z'
'-y, x, -z'
'y, -x, -z'
'-x, -z, y'
'x, -z, -y'
'x, z, y'
'-x, z, -y'
'-z, -y, x'
'-z, y, -x'
'z, -y, -x'
'z, y, x'
loop_
_atom_site_label
_atom_site_type_symbol
_atom_site_fract_x
_atom_site_fract_y
_atom_site_fract_z
_atom_site_U_iso_or_equiv
_atom_site_adp_type
_atom_site_occupancy
_atom_site_site_symmetry_order
_atom_site_calc_flag
_atom_site_refinement_flags_posn
_atom_site_refinement_flags_adp
_atom_site_refinement_flags_occupancy
Sm1 Sm 0.0000 0.0000 0.0000 0.01734(19) Uani 1 48 d S T P
N2 N 0.0000 0.0000 0.5000 0.141(11) Uani 1 16 d S T P
C2 C 0.0000 0.100(2) 0.4152(12) 0.157(10) Uani 0.5 2 d S T P
N3 N 0.5000 0.5000 0.5000 0.030(2) Uani 1 48 d S T P
C3 C 0.0000 0.220(2) 0.5000 0.175(8) Uani 1 4 d S T P
C4 C 0.4063(9) 0.4063(9) 0.5000 0.054(5) Uani 0.3332 4 d S T P
C5 C 0.2742(12) 0.5000 0.5000 0.059(3) Uani 0.6664 8 d S T P
S1 S 0.26174(15) 0.26174(15) 0.26174(15) 0.0981(13) Uani 0.875 6 d S T P
C1 C 0.1823(5) 0.1823(5) 0.1823(5) 0.064(3) Uani 0.875 6 d S T P
N1 N 0.1244(4) 0.1244(4) 0.1244(4) 0.080(3) Uani 0.875 6 d S T P
loop_
_atom_site_aniso_label
_atom_site_aniso_U_11
_atom_site_aniso_U_22
_atom_site_aniso_U_33
_atom_site_aniso_U_23
_atom_site_aniso_U_13
_atom_site_aniso_U_12
Sm1 0.01734(19) 0.01734(19) 0.01734(19) 0.000 0.000 0.000
N2 0.197(17) 0.197(17) 0.028(6) 0.000 0.000 0.000
C2 0.143(16) 0.26(3) 0.065(8) 0.077(13) 0.000 0.000
N3 0.030(2) 0.030(2) 0.030(2) 0.000 0.000 0.000
C3 0.124(13) 0.19(2) 0.21(2) 0.000 0.000 0.000
C4 0.063(7) 0.063(7) 0.036(7) 0.000 0.000 -0.038(9)
C5 0.028(5) 0.074(6) 0.074(6) 0.000 0.000 0.000
S1 0.0981(13) 0.0981(13) 0.0981(13) -0.0342(9) -0.0342(9) -0.0342(9)
C1 0.064(3) 0.064(3) 0.064(3) -0.017(2) -0.017(2) -0.017(2)
N1 0.080(3) 0.080(3) 0.080(3) -0.025(2) -0.025(2) -0.025(2)
loop_
_atom_type_symbol
_atom_type_description
_atom_type_scat_dispersion_real
_atom_type_scat_dispersion_imag
_atom_type_scat_source
C C 0.0033 0.0016 'International Tables Vol C Tables 4.2.6.8 and 6.1.1.4'
H H 0.0000 0.0000 'International Tables Vol C Tables 4.2.6.8 and 6.1.1.4'
N N 0.0061 0.0033 'International Tables Vol C Tables 4.2.6.8 and 6.1.1.4'
O O 0.0106 0.0060 'International Tables Vol C Tables 4.2.6.8 and 6.1.1.4'
S S 0.1246 0.1234 'International Tables Vol C Tables 4.2.6.8 and 6.1.1.4'
Sm Sm -0.1638 3.4418 'International Tables Vol C Tables 4.2.6.8 and 6.1.1.4'
loop_
_geom_angle_atom_site_label_1
_geom_angle_atom_site_label_2
_geom_angle_atom_site_label_3
_geom_angle
_geom_angle_site_symmetry_1
_geom_angle_site_symmetry_3
N1 Sm1 N1 180.0(4) . 25
N1 Sm1 N1 70.529(1) . 28
N1 Sm1 N1 109.471(1) 25 28
N1 Sm1 N1 109.5 . 2
N1 Sm1 N1 70.529(1) 25 2
N1 Sm1 N1 70.5 28 2
N1 Sm1 N1 70.5 . 26
N1 Sm1 N1 109.5 25 26
N1 Sm1 N1 109.5 28 26
N1 Sm1 N1 180.0(6) 2 26
N1 Sm1 N1 109.5 . 3
N1 Sm1 N1 70.529(1) 25 3
N1 Sm1 N1 70.5 28 3
N1 Sm1 N1 109.5 2 3
N1 Sm1 N1 70.5 26 3
N1 Sm1 N1 70.5 . 27
N1 Sm1 N1 109.5 25 27
N1 Sm1 N1 109.5 28 27
N1 Sm1 N1 70.5 2 27
N1 Sm1 N1 109.5 26 27
N1 Sm1 N1 180.0(6) 3 27
N1 Sm1 N1 109.471(1) . 4
N1 Sm1 N1 70.529(1) 25 4
N1 Sm1 N1 180.0(4) 28 4
N1 Sm1 N1 109.5 2 4
N1 Sm1 N1 70.5 26 4
N1 Sm1 N1 109.5 3 4
N1 Sm1 N1 70.5 27 4
C2 N2 C2 180.0(8) 37 13_556
C2 N2 C2 114.8(9) 37 26_556
C2 N2 C2 65.2(9) 13_556 26_556
C2 N2 C2 65.2(9) 37 2
C2 N2 C2 114.8(9) 13_556 2
C2 N2 C2 180.0 26_556 2
C2 N2 C2 99.3(17) 37 38
C2 N2 C2 80.7(17) 13_556 38
C2 N2 C2 114.8(9) 26_556 38
C2 N2 C2 65.2(9) 2 38
C2 N2 C2 114.8(9) 37 25_556
C2 N2 C2 65.2(9) 13_556 25_556
C2 N2 C2 99.3(17) 26_556 25_556
C2 N2 C2 80.7(17) 2 25_556
C2 N2 C2 114.8(9) 38 25_556
C2 N2 C2 80.7(17) 37 14_556
C2 N2 C2 99.3(17) 13_556 14_556
C2 N2 C2 65.2(9) 26_556 14_556
C2 N2 C2 114.8(9) 2 14_556
C2 N2 C2 180.0 38 14_556
C2 N2 C2 65.2(9) 25_556 14_556
C2 N2 C2 65.2(9) 37 .
C2 N2 C2 114.8(9) 13_556 .
C2 N2 C2 80.7(17) 26_556 .
C2 N2 C2 99.3(17) 2 .
C2 N2 C2 65.2(9) 38 .
C2 N2 C2 180.0 25_556 .
C2 N2 C2 114.8(9) 14_556 .
N2 C2 C2 57.4(5) . 37
N2 C2 C2 57.4(5) . 38
C2 C2 C2 90.0 37 38
N2 C2 C3 104.4(11) . .
C2 C2 C3 125.3(3) 37 .
C2 C2 C3 125.3(3) 38 .
N2 C2 C2 49.6(8) . 26_556
C2 C2 C2 90.000(2) 37 26_556
C2 C2 C2 90.000(1) 38 26_556
C3 C2 C2 54.7(6) . 26_556
C4 N3 C4 120.000(1) 33_666 .
C4 N3 C4 60.000(1) 33_666 25_666
C4 N3 C4 180.0(6) . 25_666
C4 N3 C4 180.0 33_666 9
C4 N3 C4 60.000(1) . 9
C4 N3 C4 120.0 25_666 9
C4 N3 C4 60.0 33_666 29_666
C4 N3 C4 120.0 . 29_666
C4 N3 C4 60.0 25_666 29_666
C4 N3 C4 120.0 9 29_666
C4 N3 C4 120.000(1) 33_666 5
C4 N3 C4 60.000(1) . 5
C4 N3 C4 120.000(1) 25_666 5
C4 N3 C4 60.000(1) 9 5
C4 N3 C4 180.0 29_666 5
C4 N3 C4 90.000(2) 33_666 35_655
C4 N3 C4 120.0 . 35_655
C4 N3 C4 60.000(1) 25_666 35_655
C4 N3 C4 90.000(1) 9 35_655
C4 N3 C4 120.000(1) 29_666 35_655
C4 N3 C4 60.000(1) 5 35_655
C4 N3 C4 120.000(1) 33_666 7_665
C4 N3 C4 120.000(1) . 7_665
C4 N3 C4 60.0 25_666 7_665
C4 N3 C4 60.0 9 7_665
C4 N3 C4 90.000(1) 29_666 7_665
C4 N3 C4 90.000(1) 5 7_665
C4 N3 C4 60.0 35_655 7_665
C4 N3 C4 60.0 33_666 31_556
C4 N3 C4 60.0 . 31_556
C4 N3 C4 120.000(1) 25_666 31_556
C4 N3 C4 120.000(1) 9 31_556
C4 N3 C4 90.000(1) 29_666 31_556
C4 N3 C4 90.000(2) 5 31_556
C4 N3 C4 120.000(1) 35_655 31_556
C4 N3 C4 180.0 7_665 31_556
C4 N3 C4 120.0 33_666 27_565
C4 N3 C4 90.000(2) . 27_565
C4 N3 C4 90.0 25_666 27_565
C4 N3 C4 60.0 9 27_565
C4 N3 C4 60.000(1) 29_666 27_565
C4 N3 C4 120.000(1) 5 27_565
C4 N3 C4 120.0 35_655 27_565
C4 N3 C4 60.0 7_665 27_565
C4 N3 C4 120.000(1) 31_556 27_565
C4 N3 C4 60.0 33_666 3_656
C4 N3 C4 90.0 . 3_656
C4 N3 C4 90.000(1) 25_666 3_656
C4 N3 C4 120.0 9 3_656
C4 N3 C4 120.000(1) 29_666 3_656
C4 N3 C4 60.0 5 3_656
C4 N3 C4 60.0 35_655 3_656
C4 N3 C4 120.000(1) 7_665 3_656
C4 N3 C4 60.0 31_556 3_656
C4 N3 C4 180.0 27_565 3_656
C4 N3 C4 90.000(1) 33_666 11_566
C4 N3 C4 60.000(1) . 11_566
C4 N3 C4 120.0 25_666 11_566
C4 N3 C4 90.000(2) 9 11_566
C4 N3 C4 60.000(1) 29_666 11_566
C4 N3 C4 120.000(1) 5 11_566
C4 N3 C4 180.0 35_655 11_566
C4 N3 C4 120.000(1) 7_665 11_566
C4 N3 C4 60.000(1) 31_556 11_566
C4 N3 C4 60.000(1) 27_565 11_566
C4 N3 C4 120.000(1) 3_656 11_566
C2 C3 C2 70.5(13) . 26_556
C4 C4 N3 60.000(2) 11_566 .
C4 C4 C4 60.0 11_566 31_556
N3 C4 C4 60.000(2) . 31_556
C4 C4 C4 90.000(4) 11_566 9
N3 C4 C4 60.000(2) . 9
C4 C4 C4 120.000(7) 31_556 9
C4 C4 C4 120.000(8) 11_566 5
N3 C4 C4 60.000(2) . 5
C4 C4 C4 90.000(6) 31_556 5
C4 C4 C4 60.0 9 5
C4 C4 C5 65.9(3) 11_566 .
N3 C4 C5 99.7(5) . .
C4 C4 C5 125.2(2) 31_556 .
C4 C4 C5 65.9(3) 9 .
C4 C4 C5 125.2(2) 5 .
C4 C4 C5 125.2(2) 11_566 5
N3 C4 C5 99.7(5) . 5
C4 C4 C5 65.9(3) 31_556 5
C4 C4 C5 125.2(2) 9 5
C4 C4 C5 65.9(3) 5 5
C5 C4 C5 160.7(10) . 5
C4 C5 C4 48.3(6) 27_565 11_566
C4 C5 C4 70.7(10) 27_565 .
C4 C5 C4 48.3(6) 11_566 .
C4 C5 C4 48.3(6) 27_565 9
C4 C5 C4 70.7(10) 11_566 9
C4 C5 C4 48.3(6) . 9
N1 C1 S1 180.0(11) . .
C1 N1 Sm1 180.0(10) . .
loop_
_geom_bond_atom_site_label_1
_geom_bond_atom_site_label_2
_geom_bond_distance
_geom_bond_site_symmetry_2
Sm1 N1 2.452(8) .
Sm1 N1 2.452(8) 25
Sm1 N1 2.452(8) 28
Sm1 N1 2.452(8) 2
Sm1 N1 2.452(8) 26
Sm1 N1 2.452(8) 3
Sm1 N1 2.452(8) 27
Sm1 N1 2.452(8) 4
N2 C2 1.490(18) 37
N2 C2 1.490(18) 13_556
N2 C2 1.490(18) 26_556
N2 C2 1.490(18) 2
N2 C2 1.490(18) 38
N2 C2 1.490(18) 25_556
N2 C2 1.490(18) 14_556
N2 C2 1.490(18) .
C2 C2 1.61(3) 37
C2 C2 1.61(3) 38
C2 C3 1.67(2) .
C2 C2 1.93(3) 26_556
N3 C4 1.508(15) 33_666
N3 C4 1.508(15) .
N3 C4 1.508(15) 25_666
N3 C4 1.508(15) 9
N3 C4 1.508(14) 29_666
N3 C4 1.508(14) 5
N3 C4 1.508(15) 35_655
N3 C4 1.508(14) 7_665
N3 C4 1.508(14) 31_556
N3 C4 1.508(14) 27_565
N3 C4 1.508(15) 3_656
N3 C4 1.508(15) 11_566
C3 C2 1.67(2) 26_556
C4 C4 1.508(14) 11_566
C4 C4 1.508(14) 31_556
C4 C4 1.508(14) 9
C4 C4 1.508(14) 5
C4 C5 1.843(11) .
C4 C5 1.843(11) 5
C5 C4 1.843(11) 27_565
C5 C4 1.843(11) 11_566
C5 C4 1.843(11) 9
S1 C1 1.566(10) .
C1 N1 1.140(11) .
