#------------------------------------------------------------------------------
#$Date: 2019-11-23 19:01:24 +0200 (Sat, 23 Nov 2019) $
#$Revision: 234556 $
#$URL: file:///home/coder/svn-repositories/cod/cif/7/12/51/7125151.cif $
#------------------------------------------------------------------------------
#
# This file is available in the Crystallography Open Database (COD),
# http://www.crystallography.net/
#
# All data on this site have been placed in the public domain by the
# contributors.
#
data_7125151
loop_
_publ_author_name
'Lekin, Kristina'
'Ogata, Kazuma'
'Maclean, Adrian'
'Mailman, Aaron'
'Winter, Stephen M.'
'Assoud, Abdeljalil'
'Mito, Masaki'
'Tse, John S.'
'Desgreniers, Serge'
'Hirao, Naohisa'
'Dube, Paul A.'
'Oakley, Richard T.'
_publ_section_title
;
 Pushing T<sub>C</sub> to 27.5 K in a heavy atom radical ferromagnet.
;
_journal_issue                   96
_journal_name_full
'Chemical communications (Cambridge, England)'
_journal_page_first              13877
_journal_page_last               13880
_journal_paper_doi               10.1039/c6cc07142b
_journal_volume                  52
_journal_year                    2016
_chemical_formula_moiety         'C7 H5 I1 N3 Se4'
_chemical_formula_sum            'C7 H5 I N3 Se4'
_chemical_formula_weight         573.88
_chemical_melting_point_gt       400
_chemical_name_common            IBPSSEt
_chemical_name_systematic
; 
8-iodo-4-ethyl-4H-bis[1,2,3]diselenazolo[4,5-b:5',4'-e]pyridin-2-yl
;
_space_group_IT_number           113
_space_group_name_Hall           'P -4 2ab'
_space_group_name_H-M_alt        'P -4 21 m'
_symmetry_cell_setting           tetragonal
_symmetry_space_group_name_Hall  'P -4 2ab'
_symmetry_space_group_name_H-M   'P -4 21 m'
_audit_creation_date             2016-08-29T14:00
_audit_creation_method           'from EXP file using GSAS2CIF'
_audit_update_record
' 2016-08-29T14:00  Initial CIF as created by GSAS2CIF'
_cell_angle_alpha                90.0
_cell_angle_beta                 90.0
_cell_angle_gamma                90.0
_cell_formula_units_Z            4
_cell_length_a                   15.7336(18)
_cell_length_b                   15.7336
_cell_length_c                   3.7167(27)
_cell_measurement_temperature    293(2)
_cell_volume                     920.1(7)
_computing_structure_refinement  GSAS
_diffrn_ambient_temperature      293(2)
_diffrn_measurement_device_type  'SPring-8 BL10XU'
_diffrn_radiation_polarisn_ratio 0.95
_diffrn_radiation_probe          x-ray
_diffrn_radiation_type           Synchrotron
_diffrn_radiation_wavelength     0.41358
_diffrn_source                   Synchrotron
_exptl_absorpt_correction_T_max  1.00000
_exptl_absorpt_correction_T_min  1.00000
_exptl_absorpt_process_details
;   GSAS Absorption/surface roughness correction: function number 0
 No correction is applied.
;
_exptl_crystal_colour            black
_exptl_crystal_density_diffrn    4.142
_pd_block_id
2016-08-29T14:00|IBPSSET_707GPA_DONE|Oakley|Spring-8
_pd_calc_method                  'Rietveld Refinement'
_pd_instr_location               ' ?'
_pd_phase_name
'from C:/gsas/MyWork/IBPSSEt/7.07GPa/7.07 GPa_RT.cif'
_pd_proc_info_datetime           2016-08-29T14:00:05
_pd_proc_info_excluded_regions   ' ?'
_pd_proc_ls_background_function
;   GSAS Background function number 1 with  8 terms.
 Shifted Chebyshev function of 1st kind
      1:    2291.25     2:    1012.71     3:   -151.515     4:   -61.1978    
      5:    59.3960     6:    28.1783     7:   -21.9802     8:   -5.81206    
;
_pd_proc_ls_peak_cutoff          0.00100
_pd_proc_ls_profile_function
;
 CW Profile function number 2 with  18 terms
 Profile coefficients for Simpson's rule integration of pseudovoigt function
 C.J. Howard (1982). J. Appl. Cryst.,15,615-620.
 P. Thompson, D.E. Cox & J.B. Hastings (1987). J. Appl. Cryst.,20,79-83.
 #1(GU)   =   92.245 #2(GV)   =  -30.164 #3(GW)   =    1.868
 #4(LX)   =    0.215 #5(LY)   =  101.142 #6(trns) =   -0.512
 #7(asym) =  -0.0363 #8(shft) =  -0.0142 #9(GP)   =    0.105
 #10(stec)=   272.60 #11(ptec)=     7.73 #12(sfec)=     0.00
 #13(L11) =    0.000 #14(L22) =    0.002 #15(L33) =    0.000
 #16(L12) =    0.000 #17(L13) =    0.031 #18(L23) =   -0.015
 Peak tails are ignored  where the intensity is below 0.0010 times the peak
   Aniso. broadening axis   0.0   0.0   1.0
;
_pd_proc_ls_prof_R_factor        0.0500
_pd_proc_ls_prof_wR_expected     0.0188
_pd_proc_ls_prof_wR_factor       0.0658
_pd_spec_mounting                ' ?'
_refine_ls_goodness_of_fit_all   3.50
_refine_ls_matrix_type           full
_refine_ls_number_parameters     1
_refine_ls_number_restraints     0
_refine_ls_R_Fsqd_factor         0.16206
_refine_ls_shift/su_max          0.01
_refine_ls_shift/su_mean         0.01
_reflns_d_resolution_high        1.882
_reflns_d_resolution_low         7.867
_reflns_limit_h_max              11
_reflns_limit_h_min              0
_reflns_limit_k_max              8
_reflns_limit_k_min              0
_reflns_limit_l_max              2
_reflns_limit_l_min              0
_reflns_number_total             57
_cod_data_source_file            c6cc07142b4.cif
_cod_data_source_block           1c_7_1_GPa
_cod_depositor_comments
;
The following automatic conversions were performed:

data name '_chemical_melting_point' was changed to
'_chemical_melting_point_gt' since the value was specified as 'more
than' ('>') a certain temperature.

data item '_geom_angle_publ_flag' value 'N' was changed to 'n' in
accordance with the
/home/saulius/struct/COD-crude-data/automatic-downloads/DataCite-retrospective/RSC/depositions/lib/dictionaries/cif_core.dic
dictionary named 'cif_core.dic' version 2.4.2 last updated on
2011-04-26 (17 times).

data item '_geom_bond_publ_flag' value 'N' was changed to 'n' in
accordance with the
/home/saulius/struct/COD-crude-data/automatic-downloads/DataCite-retrospective/RSC/depositions/lib/dictionaries/cif_core.dic
dictionary named 'cif_core.dic' version 2.4.2 last updated on
2011-04-26 (13 times).

Automatic conversion script
Id: cif_fix_values 6909 2019-04-08 15:41:33Z antanas 
;
_cod_database_code               7125151
_gsas_exptl_extinct_corr_t_min   1.00000
_gsas_exptl_extinct_corr_t_max   1.00000
loop_
_symmetry_equiv_pos_site_id
_symmetry_equiv_pos_as_xyz
1 +x,+y,+z
2 +y,-x,-z
3 -x,-y,+z
4 -y,+x,-z
5 -x+1/2,+y+1/2,-z
6 +y+1/2,+x+1/2,+z
7 +x+1/2,-y+1/2,-z
8 -y+1/2,-x+1/2,+z
loop_
_atom_site_type_symbol
_atom_site_label
_atom_site_fract_x
_atom_site_fract_y
_atom_site_fract_z
_atom_site_occupancy
_atom_site_thermal_displace_type
_atom_site_U_iso_or_equiv
_atom_site_symmetry_multiplicity
I I1 -0.93151 -0.56849 0.21635 1.0 Uiso 0.123 4
N N2 -0.74567 -0.75433 -0.4627 1.0 Uiso 0.123 4
C C3 -0.84916 -0.65084 -0.04848 1.0 Uiso 0.123 4
C C4 -0.6922 -0.8078 -0.69581 1.0 Uiso 0.123 4
C C5 -0.63344 -0.86657 -0.49687 1.0 Uiso 0.123 4
H H5A -0.5997 -0.90031 -0.66331 1.0 Uiso 0.2461 4
Se Se1 -0.59906 -0.55717 -0.27057 1.0 Uiso 0.123 8
Se Se2 -0.7294 -0.51779 -0.00642 1.0 Uiso 0.123 8
N N1 -0.63668 -0.65913 -0.42629 1.0 Uiso 0.123 8
C C1 -0.71476 -0.67967 -0.34264 1.0 Uiso 0.123 8
C C2 -0.77116 -0.6249 -0.14289 1.0 Uiso 0.123 8
H H4A -0.66152 -0.77333 -0.84858 1.0 Uiso 0.2461 8
H H5B -0.59899 -0.8343 -0.34687 1.0 Uiso 0.2461 8
loop_
_atom_type_symbol
_atom_type_number_in_cell
_atom_type_scat_dispersion_real
_atom_type_scat_dispersion_imag
_atom_type_scat_Cromer_Mann_a1
_atom_type_scat_Cromer_Mann_a2
_atom_type_scat_Cromer_Mann_a3
_atom_type_scat_Cromer_Mann_a4
_atom_type_scat_Cromer_Mann_b1
_atom_type_scat_Cromer_Mann_b2
_atom_type_scat_Cromer_Mann_b3
_atom_type_scat_Cromer_Mann_b4
_atom_type_scat_Cromer_Mann_c
_atom_type_scat_source
I 4.0 0.000 0.000 20.1472 4.34700 18.9949 0.38140 7.51380 27.7660 2.27350
66.8776 4.07120 International_Tables_Vol_C
N 12.0 0.000 0.000 12.2126 0.00570 3.13220 9.89330 2.01250 28.9975 1.16630
0.58260 -11.529 International_Tables_Vol_C
C 28.0 0.000 0.000 2.31000 20.8439 1.02000 10.2075 1.58860 0.56870 0.86500
51.6512 0.21560 International_Tables_Vol_C
H 20.0 0.000 0.000 0.49300 10.5109 0.32291 26.1257 0.14019 3.14236 0.04081
57.7997 0.00304 International_Tables_Vol_C
Se 16.0 0.000 0.000 17.0006 2.40980 5.81960 0.27260 3.97310 15.2372 4.35430
43.8163 2.84090 International_Tables_Vol_C
loop_
_geom_angle_atom_site_label_1
_geom_angle_atom_site_label_2
_geom_angle_atom_site_label_3
_geom_angle
_geom_angle_site_symmetry_1
_geom_angle_site_symmetry_3
_geom_angle_publ_flag
C4 N2 C1 119.142 1_555 1_555 n
I1 C3 C2 120.309 1_555 1_555 n
N2 C4 C5 114.45 1_555 1_555 n
N2 C4 H4A 109.006 1_555 1_555 n
C5 C4 H4A 110.067 1_555 1_555 n
C4 C5 H5A 111.02 1_555 1_555 n
C4 C5 H5B 108.553 1_555 1_555 n
H5A C5 H5B 111.199 1_555 1_555 n
Se2 Se1 N1 94.697 1_555 1_555 n
Se1 Se2 C2 87.479 1_555 1_555 n
Se1 N1 C1 116.832 1_555 1_555 n
N2 C1 N1 118.409 1_555 1_555 n
N2 C1 C2 117.981 1_555 1_555 n
N1 C1 C2 123.5421 1_555 1_555 n
C3 C2 Se2 121.522 1_555 1_555 n
C3 C2 C1 121.074 1_555 1_555 n
Se2 C2 C1 117.366 1_555 1_555 n
loop_
_geom_bond_atom_site_label_1
_geom_bond_atom_site_label_2
_geom_bond_distance
_geom_bond_site_symmetry_2
_geom_bond_publ_flag
I1 C3 2.0800 1_555 n
I1 C2 2.9892 1_555 n
N2 C1 1.34740 1_555 n
C4 N2 1.4718 1_555 n
C4 C5 1.50214 1_555 n
C4 H4A 0.92170 1_555 n
C5 H5B 0.92864 1_555 n
Se1 Se2 2.3565 1_555 n
Se1 N1 1.80520 1_555 n
Se2 C2 1.87855 1_555 n
N1 C1 1.30777 1_555 n
C1 C2 1.44263 1_555 n
C2 C3 1.34006 1_555 n
loop_
_refln_index_h
_refln_index_k
_refln_index_l
_refln_observed_status
_refln_F_squared_meas
_refln_F_squared_calc
_refln_phase_calc
_refln_d_spacing
_gsas_i100_meas
2 0 1 o 1127.656 1308.871 0.00 3.36052 0.86
1 0 1 o 10749.079 10541.896 90.00 3.61714 9.28
1 1 1 o 4122.900 4112.536 119.30 3.52518 2.29
0 0 1 o 21844.621 22671.682 0.00 3.71670 7.41
2 1 1 o 20365.072 20573.588 -115.10 3.28639 33.30
3 0 1 o 19.054 20.247 -90.00 3.03242 0.01
2 0 0 o 18709.063 20133.369 0.00 7.86679 35.54
2 2 1 o 76007.60 76510.84 132.29 3.09036 100.00
2 1 0 o 8010.314 9285.158 -180.00 7.03627 24.24
3 1 1 o 398.227 470.151 120.87 2.97762 0.68
4 0 1 o 20350.805 22314.979 0.00 2.70146 5.00
3 2 1 o 367.710 605.092 -87.04 2.82948 1.01
2 2 0 o 1222.280 568.031 180.00 5.56266 0.51
4 1 1 o 3383.886 3144.149 -132.08 2.66250 3.54
3 3 1 o 7944.644 7180.079 172.04 2.62518 10.37
3 1 0 o 2257.036 3262.206 180.00 4.97539 3.95
4 2 1 o 29555.168 29468.018 84.36 2.55501 52.48
5 0 1 o 14860.128 15397.133 -90.00 2.40158 5.06
3 2 0 o 3318.574 2988.571 0.00 4.36371 2.78
4 3 1 o 402.428 417.180 -89.69 2.40158 0.62
5 1 1 o 3741.015 3996.834 -3.19 2.37408 3.37
4 0 0 o 1601.904 2727.843 0.00 3.93339 0.76
5 2 1 o 3640.104 5430.316 -83.58 2.29693 3.96
4 1 0 o 19325.420 22316.838 -180.00 3.81595 19.72
3 3 0 o 13321.793 11906.180 180.00 3.70844 2.48
6 0 1 o 58.060 63.572 -180.00 2.14265 0.03
4 4 1 o 39842.34 41042.37 70.03 2.22684 13.05
4 2 0 o 4241.540 4243.170 180.00 3.51813 3.21
5 3 1 o 1259.367 1084.496 -29.88 2.18353 0.88
6 1 1 o 1915.226 2430.560 114.71 2.12306 2.19
4 3 0 o 19148.807 18958.104 -180.00 3.14672 6.94
6 2 1 o 15613.096 12595.040 145.28 2.06734 14.86
5 1 0 o 1349.390 1278.809 0.00 3.08561 0.88
5 4 1 o 0.000 3659.626 -6.28 2.04973 0.00
7 0 1 o 2808.176 3565.848 -90.00 1.92331 2.07
7 1 1 o 242.138 340.643 -156.60 1.90910 0.33
6 3 1 o 2684.765 1974.946 -9.97 1.98350 1.13
5 2 0 o 586.061 787.120 0.00 2.92165 0.34
4 4 0 o 16154.098 20027.523 0.00 2.78133 1.69
5 5 1 o 0.000 4492.019 -45.41 1.90910 0.00
6 4 1 o 0.000 923.401 59.46 1.88160 0.00
5 3 0 o 0.130 0.137 0.00 2.69829 0.00
6 0 0 o 39500.76 32744.520 -180.00 2.62226 8.35
6 1 0 o 13132.548 12072.410 -180.00 2.58658 5.87
6 2 0 o 69175.79 53857.78 -180.00 2.48770 30.34
5 4 0 o 11808.811 9983.483 0.00 2.45717 2.36
6 3 0 o 11418.497 11493.989 -180.00 2.34542 3.85
7 1 0 o 152.489 168.460 180.00 2.22506 0.05
5 5 0 o 4351.795 4793.745 0.00 2.22506 0.29
6 4 0 o 488.806 310.501 0.00 2.18185 0.10
7 2 0 o 12246.910 9393.125 -180.00 2.16117 4.06
7 3 0 o 1264.070 977.618 180.00 2.06592 0.36
6 5 0 o 11718.376 4446.846 -180.00 2.01448 1.48
8 0 0 o 1540.227 1566.447 -180.00 1.96670 0.18
7 4 0 o 1759.229 1629.322 -180.00 1.95151 0.36
8 1 0 o 5851.595 5415.262 -180.00 1.95151 1.45
8 2 0 o 3152.573 4502.220 180.00 1.90798 0.81
