#------------------------------------------------------------------------------
#$Date: 2020-03-05 01:33:12 +0200 (Thu, 05 Mar 2020) $
#$Revision: 248808 $
#$URL: file:///home/coder/svn-repositories/cod/cif/7/12/59/7125915.cif $
#------------------------------------------------------------------------------
#
# This file is available in the Crystallography Open Database (COD),
# http://www.crystallography.net/
#
# All data on this site have been placed in the public domain by the
# contributors.
#
data_7125915
loop_
_publ_author_name
'Wilson, Richard E.'
'Carter, Tyler J.'
'Autillo, Matthieu'
'Stegman, Samantha'
_publ_section_title
;
 Thiocyanate complexes of the lanthanides, Am and Cm.
;
_journal_issue                   17
_journal_name_full
'Chemical communications (Cambridge, England)'
_journal_page_first              2622
_journal_page_last               2625
_journal_paper_doi               10.1039/c9cc07612c
_journal_volume                  56
_journal_year                    2020
_chemical_formula_sum            'C39 H0 Ce N11 O0 S7'
_chemical_formula_weight         987.04
_space_group_crystal_system      cubic
_space_group_IT_number           221
_space_group_name_Hall           '-P 4 2 3'
_space_group_name_H-M_alt        'P m -3 m'
_audit_creation_method           SHELXL-2014/7
_audit_update_record
;
2019-09-26 deposited with the CCDC.	2020-01-13 downloaded from the CCDC.
;
_cell_angle_alpha                90
_cell_angle_beta                 90
_cell_angle_gamma                90
_cell_formula_units_Z            1
_cell_length_a                   11.3981(7)
_cell_length_b                   11.3981(7)
_cell_length_c                   11.3981(7)
_cell_measurement_reflns_used    21416
_cell_measurement_temperature    100.0
_cell_measurement_theta_max      30.56
_cell_measurement_theta_min      1.79
_cell_volume                     1480.80(16)
_computing_structure_refinement  'SHELXL-2014/7 (Sheldrick, 2014)'
_diffrn_ambient_temperature      100.00
_diffrn_measured_fraction_theta_full 1.000
_diffrn_measured_fraction_theta_max 0.987
_diffrn_measurement_device_type  'BRUKER APEX II'
_diffrn_radiation_type           MoK\a
_diffrn_radiation_wavelength     0.71073
_diffrn_reflns_av_R_equivalents  0.0226
_diffrn_reflns_av_unetI/netI     0.0059
_diffrn_reflns_Laue_measured_fraction_full 1.000
_diffrn_reflns_Laue_measured_fraction_max 0.987
_diffrn_reflns_limit_h_max       16
_diffrn_reflns_limit_h_min       -16
_diffrn_reflns_limit_k_max       15
_diffrn_reflns_limit_k_min       -15
_diffrn_reflns_limit_l_max       15
_diffrn_reflns_limit_l_min       -16
_diffrn_reflns_number            21416
_diffrn_reflns_point_group_measured_fraction_full 1.000
_diffrn_reflns_point_group_measured_fraction_max 0.987
_diffrn_reflns_theta_full        25.242
_diffrn_reflns_theta_max         30.563
_diffrn_reflns_theta_min         1.787
_exptl_absorpt_coefficient_mu    1.046
_exptl_absorpt_correction_T_max  0.4330
_exptl_absorpt_correction_T_min  0.3903
_exptl_absorpt_correction_type   multi-scan
_exptl_absorpt_process_details   SADABS
_exptl_crystal_colour            colorless
_exptl_crystal_density_diffrn    1.107
_exptl_crystal_description       block
_exptl_crystal_F_000             481
_exptl_crystal_size_max          0.206
_exptl_crystal_size_mid          0.152
_exptl_crystal_size_min          0.094
_refine_diff_density_max         2.183
_refine_diff_density_min         -1.901
_refine_diff_density_rms         0.141
_refine_ls_extinction_method     none
_refine_ls_goodness_of_fit_ref   1.076
_refine_ls_hydrogen_treatment    undef
_refine_ls_matrix_type           full
_refine_ls_number_parameters     27
_refine_ls_number_reflns         512
_refine_ls_number_restraints     1
_refine_ls_restrained_S_all      1.094
_refine_ls_R_factor_all          0.0560
_refine_ls_R_factor_gt           0.0560
_refine_ls_shift/su_max          0.001
_refine_ls_shift/su_mean         0.000
_refine_ls_structure_factor_coef Fsqd
_refine_ls_weighting_details
'w=1/[\s^2^(Fo^2^)+(0.1315P)^2^+1.5000P] where P=(Fo^2^+2Fc^2^)/3'
_refine_ls_weighting_scheme      calc
_refine_ls_wR_factor_gt          0.1590
_refine_ls_wR_factor_ref         0.1590
_reflns_Friedel_coverage         0.000
_reflns_number_gt                512
_reflns_number_total             512
_reflns_threshold_expression     'I > 2\s(I)'
_cod_data_source_file            c9cc07612c2.cif
_cod_data_source_block           pm3m
_cod_depositor_comments
'Adding full bibliography for 7125915--7125930.cif.'
_cod_original_cell_volume        1480.8(3)
_cod_database_code               7125915
_shelx_shelxl_version_number     2014/7
_shelx_space_group_comment
;
The symmetry employed for this shelxl refinement is uniquely defined
by the following loop, which should always be used as a source of
symmetry information in preference to the above space-group names.
They are only intended as comments.
;
_shelx_res_file
;

    pm3m.res created by SHELXL-2014/7


TITL SAD in Pm-3m
CELL 0.71073  11.3981  11.3981  11.3981  90.000  90.000  90.000
ZERR    1.00   0.0007   0.0007   0.0007   0.000   0.000   0.000
LATT  1
SYMM -X, -Y, Z
SYMM -X, Y, -Z
SYMM X, -Y, -Z
SYMM Z, X, Y
SYMM Z, -X, -Y
SYMM -Z, -X, Y
SYMM -Z, X, -Y
SYMM Y, Z, X
SYMM -Y, Z, -X
SYMM Y, -Z, -X
SYMM -Y, -Z, X
SYMM Y, X, -Z
SYMM -Y, -X, -Z
SYMM Y, -X, Z
SYMM -Y, X, Z
SYMM X, Z, -Y
SYMM -X, Z, Y
SYMM -X, -Z, -Y
SYMM X, -Z, Y
SYMM Z, Y, -X
SYMM Z, -Y, X
SYMM -Z, Y, X
SYMM -Z, -Y, -X
SFAC C H N O S CE
UNIT 39 0 11 0 7 1
TEMP 23.000

DFIX 1.55 0.01 C4 C5
ACTA
EADP C2 C3
EADP C4 C5
L.S. 8
BOND
FMAP 2
PLAN 2

WGHT    0.131500    1.500000
FVAR       0.19705   0.81369
CE1   6    0.000000    0.000000    0.000000    10.02083    0.02249    0.02249 =
         0.02249    0.00000    0.00000    0.00000
N2    3    0.000000    0.000000    0.500000    10.06250    0.20912    0.20912 =
         0.05004    0.00000    0.00000    0.00000
C2    1    0.000000    0.106254    0.415517    10.25000    0.16853    0.24678 =
         0.10511    0.08628    0.00000    0.00000
N3    3    0.500000    0.500000    0.500000    10.02083    0.03623    0.03623 =
         0.03623    0.00000    0.00000    0.00000
C3    1    0.000000    0.229448    0.500000    10.25000    0.16853    0.24678 =
         0.10511    0.08628    0.00000    0.00000
C4    1    0.406621    0.406621    0.500000    10.08330    0.10211    0.10211 =
         0.06047    0.00000    0.00000   -0.01547
C5    1    0.302616    0.500000    0.500000    10.08330    0.10211    0.10211 =
         0.06047    0.00000    0.00000   -0.01547
S1    5    0.263032    0.263032    0.263032    10.14587    0.11341    0.11341 =
         0.11341   -0.03928   -0.03928   -0.03928
C1    1    0.183790    0.183790    0.183790    10.14587    0.07467    0.07467 =
         0.07467   -0.02074   -0.02074   -0.02074
N1    3    0.126493    0.126493    0.126493    10.14587    0.09576    0.09576 =
         0.09576   -0.03022   -0.03022   -0.03022
HKLF 4

REM  SAD in Pm-3m
REM R1 =  0.0560 for     512 Fo > 4sig(Fo)  and  0.0560 for all     512 data
REM     27 parameters refined using      1 restraints

END

WGHT      0.1309      0.0593

REM Highest difference peak  2.183,  deepest hole -1.901,  1-sigma level  0.141
Q1    1   0.2650  0.5000  0.5000  10.12500  0.05    2.18
Q2    1   0.0000  0.1807  0.5596  10.50000  0.05    0.74
;
_shelx_res_checksum              30532
loop_
_space_group_symop_operation_xyz
'x, y, z'
'-x, -y, z'
'-x, y, -z'
'x, -y, -z'
'z, x, y'
'z, -x, -y'
'-z, -x, y'
'-z, x, -y'
'y, z, x'
'-y, z, -x'
'y, -z, -x'
'-y, -z, x'
'y, x, -z'
'-y, -x, -z'
'y, -x, z'
'-y, x, z'
'x, z, -y'
'-x, z, y'
'-x, -z, -y'
'x, -z, y'
'z, y, -x'
'z, -y, x'
'-z, y, x'
'-z, -y, -x'
'-x, -y, -z'
'x, y, -z'
'x, -y, z'
'-x, y, z'
'-z, -x, -y'
'-z, x, y'
'z, x, -y'
'z, -x, y'
'-y, -z, -x'
'y, -z, x'
'-y, z, x'
'y, z, -x'
'-y, -x, z'
'y, x, z'
'-y, x, -z'
'y, -x, -z'
'-x, -z, y'
'x, -z, -y'
'x, z, y'
'-x, z, -y'
'-z, -y, x'
'-z, y, -x'
'z, -y, -x'
'z, y, x'
loop_
_atom_site_label
_atom_site_type_symbol
_atom_site_fract_x
_atom_site_fract_y
_atom_site_fract_z
_atom_site_U_iso_or_equiv
_atom_site_adp_type
_atom_site_occupancy
_atom_site_site_symmetry_order
_atom_site_calc_flag
_atom_site_refinement_flags_posn
_atom_site_refinement_flags_adp
_atom_site_refinement_flags_occupancy
Ce1 Ce 0.0000 0.0000 0.0000 0.0225(3) Uani 1 48 d S T P
N2 N 0.0000 0.0000 0.5000 0.156(15) Uani 1 16 d S T P
C2 C 0.0000 0.106(3) 0.4155(17) 0.173(9) Uani 0.5 2 d S T P
N3 N 0.5000 0.5000 0.5000 0.036(4) Uani 1 48 d S T P
C3 C 0.0000 0.229(3) 0.5000 0.173(9) Uani 1 4 d S T P
C4 C 0.407(2) 0.407(2) 0.5000 0.088(6) Uani 0.3332 4 d DS T P
C5 C 0.3026(11) 0.5000 0.5000 0.088(6) Uani 0.6664 8 d DS T P
S1 S 0.2630(2) 0.2630(2) 0.2630(2) 0.113(2) Uani 0.8752 6 d S T P
C1 C 0.1838(6) 0.1838(6) 0.1838(6) 0.075(4) Uani 0.8752 6 d S T P
N1 N 0.1265(6) 0.1265(6) 0.1265(6) 0.096(5) Uani 0.8752 6 d S T P
loop_
_atom_site_aniso_label
_atom_site_aniso_U_11
_atom_site_aniso_U_22
_atom_site_aniso_U_33
_atom_site_aniso_U_23
_atom_site_aniso_U_13
_atom_site_aniso_U_12
Ce1 0.0225(3) 0.0225(3) 0.0225(3) 0.000 0.000 0.000
N2 0.21(3) 0.21(3) 0.050(12) 0.000 0.000 0.000
C2 0.169(13) 0.25(2) 0.105(12) 0.086(17) 0.000 0.000
N3 0.036(4) 0.036(4) 0.036(4) 0.000 0.000 0.000
C3 0.169(13) 0.25(2) 0.105(12) 0.086(17) 0.000 0.000
C4 0.102(12) 0.102(12) 0.060(12) 0.000 0.000 -0.02(2)
C5 0.102(12) 0.102(12) 0.060(12) 0.000 0.000 -0.02(2)
S1 0.113(2) 0.113(2) 0.113(2) -0.0393(14) -0.0393(14) -0.0393(14)
C1 0.075(4) 0.075(4) 0.075(4) -0.021(3) -0.021(3) -0.021(3)
N1 0.096(5) 0.096(5) 0.096(5) -0.030(4) -0.030(4) -0.030(4)
loop_
_atom_type_symbol
_atom_type_description
_atom_type_scat_dispersion_real
_atom_type_scat_dispersion_imag
_atom_type_scat_source
C C 0.0033 0.0016 'International Tables Vol C Tables 4.2.6.8 and 6.1.1.4'
H H 0.0000 0.0000 'International Tables Vol C Tables 4.2.6.8 and 6.1.1.4'
N N 0.0061 0.0033 'International Tables Vol C Tables 4.2.6.8 and 6.1.1.4'
O O 0.0106 0.0060 'International Tables Vol C Tables 4.2.6.8 and 6.1.1.4'
S S 0.1246 0.1234 'International Tables Vol C Tables 4.2.6.8 and 6.1.1.4'
Ce Ce -0.2486 2.6331 'International Tables Vol C Tables 4.2.6.8 and 6.1.1.4'
loop_
_geom_angle_atom_site_label_1
_geom_angle_atom_site_label_2
_geom_angle_atom_site_label_3
_geom_angle
_geom_angle_site_symmetry_1
_geom_angle_site_symmetry_3
N1 Ce1 N1 180.0(3) . 25
N1 Ce1 N1 70.5 . 26
N1 Ce1 N1 109.5 25 26
N1 Ce1 N1 109.5 . 2
N1 Ce1 N1 70.5 25 2
N1 Ce1 N1 180.0(3) 26 2
N1 Ce1 N1 70.529(1) . 28
N1 Ce1 N1 109.5 25 28
N1 Ce1 N1 109.5 26 28
N1 Ce1 N1 70.5 2 28
N1 Ce1 N1 109.5 . 3
N1 Ce1 N1 70.5 25 3
N1 Ce1 N1 70.5 26 3
N1 Ce1 N1 109.5 2 3
N1 Ce1 N1 70.5 28 3
N1 Ce1 N1 70.5 . 27
N1 Ce1 N1 109.5 25 27
N1 Ce1 N1 109.5 26 27
N1 Ce1 N1 70.5 2 27
N1 Ce1 N1 109.5 28 27
N1 Ce1 N1 180.0(3) 3 27
N1 Ce1 N1 109.5 . 4
N1 Ce1 N1 70.529(1) 25 4
N1 Ce1 N1 70.5 26 4
N1 Ce1 N1 109.5 2 4
N1 Ce1 N1 180.0 28 4
N1 Ce1 N1 109.5 3 4
N1 Ce1 N1 70.5 27 4
C2 N2 C2 180.0(12) 37 13_556
C2 N2 C2 112.8(11) 37 26_556
C2 N2 C2 67.2(11) 13_556 26_556
C2 N2 C2 67.2(11) 37 2
C2 N2 C2 112.8(11) 13_556 2
C2 N2 C2 180.0 26_556 2
C2 N2 C2 103(2) 37 38
C2 N2 C2 77(2) 13_556 38
C2 N2 C2 112.8(11) 26_556 38
C2 N2 C2 67.2(11) 2 38
C2 N2 C2 112.8(11) 37 25_556
C2 N2 C2 67.2(11) 13_556 25_556
C2 N2 C2 103(2) 26_556 25_556
C2 N2 C2 77(2) 2 25_556
C2 N2 C2 112.8(11) 38 25_556
C2 N2 C2 77(2) 37 14_556
C2 N2 C2 103(2) 13_556 14_556
C2 N2 C2 67.2(11) 26_556 14_556
C2 N2 C2 112.8(11) 2 14_556
C2 N2 C2 180.0 38 14_556
C2 N2 C2 67.2(11) 25_556 14_556
C2 N2 C2 67.2(11) 37 .
C2 N2 C2 112.8(11) 13_556 .
C2 N2 C2 77(2) 26_556 .
C2 N2 C2 103(2) 2 .
C2 N2 C2 67.2(11) 38 .
C2 N2 C2 180.0 25_556 .
C2 N2 C2 112.8(11) 14_556 .
N2 C2 C3 107.1(15) . .
N2 C2 C2 56.4(6) . 37
C3 C2 C2 125.7(5) . 37
N2 C2 C2 56.4(6) . 38
C3 C2 C2 125.7(5) . 38
C2 C2 C2 89.999(1) 37 38
N2 C2 C2 51.5(11) . 26_556
C3 C2 C2 55.6(9) . 26_556
C2 C2 C2 90.000(3) 37 26_556
C2 C2 C2 90.000(1) 38 26_556
C4 N3 C4 120.0 . 33_666
C4 N3 C4 180.0 . 25_666
C4 N3 C4 60.000(2) 33_666 25_666
C4 N3 C4 60.000(2) . 9
C4 N3 C4 180.0 33_666 9
C4 N3 C4 120.000(1) 25_666 9
C4 N3 C4 120.000(2) . 29_666
C4 N3 C4 60.000(1) 33_666 29_666
C4 N3 C4 60.000(1) 25_666 29_666
C4 N3 C4 120.000(1) 9 29_666
C4 N3 C4 60.000(2) . 5
C4 N3 C4 120.000(2) 33_666 5
C4 N3 C4 120.000(2) 25_666 5
C4 N3 C4 60.000(1) 9 5
C4 N3 C4 180.0 29_666 5
C4 N3 C4 120.000(1) . 35_655
C4 N3 C4 90.000(3) 33_666 35_655
C4 N3 C4 60.000(2) 25_666 35_655
C4 N3 C4 90.000(2) 9 35_655
C4 N3 C4 120.000(1) 29_666 35_655
C4 N3 C4 60.000(2) 5 35_655
C4 N3 C4 120.000(2) . 7_665
C4 N3 C4 120.000(2) 33_666 7_665
C4 N3 C4 60.000(1) 25_666 7_665
C4 N3 C4 60.0 9 7_665
C4 N3 C4 90.000(3) 29_666 7_665
C4 N3 C4 90.000(2) 5 7_665
C4 N3 C4 60.000(1) 35_655 7_665
C4 N3 C4 60.000(1) . 31_556
C4 N3 C4 60.000(1) 33_666 31_556
C4 N3 C4 120.000(2) 25_666 31_556
C4 N3 C4 120.000(2) 9 31_556
C4 N3 C4 90.000(2) 29_666 31_556
C4 N3 C4 90.000(3) 5 31_556
C4 N3 C4 120.000(1) 35_655 31_556
C4 N3 C4 180.0 7_665 31_556
C4 N3 C4 90.000(3) . 27_565
C4 N3 C4 120.000(2) 33_666 27_565
C4 N3 C4 90.000(1) 25_666 27_565
C4 N3 C4 60.000(2) 9 27_565
C4 N3 C4 60.000(2) 29_666 27_565
C4 N3 C4 120.000(2) 5 27_565
C4 N3 C4 120.000(1) 35_655 27_565
C4 N3 C4 60.000(2) 7_665 27_565
C4 N3 C4 120.000(2) 31_556 27_565
C4 N3 C4 90.000(1) . 3_656
C4 N3 C4 60.000(1) 33_666 3_656
C4 N3 C4 90.000(3) 25_666 3_656
C4 N3 C4 120.000(2) 9 3_656
C4 N3 C4 120.000(2) 29_666 3_656
C4 N3 C4 60.0 5 3_656
C4 N3 C4 60.000(2) 35_655 3_656
C4 N3 C4 120.000(2) 7_665 3_656
C4 N3 C4 60.0 31_556 3_656
C4 N3 C4 180.0 27_565 3_656
C4 N3 C4 60.000(2) . 11_566
C4 N3 C4 90.000(2) 33_666 11_566
C4 N3 C4 120.0 25_666 11_566
C4 N3 C4 90.000(4) 9 11_566
C4 N3 C4 60.000(2) 29_666 11_566
C4 N3 C4 120.000(2) 5 11_566
C4 N3 C4 180.0 35_655 11_566
C4 N3 C4 120.000(2) 7_665 11_566
C4 N3 C4 60.000(2) 31_556 11_566
C4 N3 C4 60.000(2) 27_565 11_566
C4 N3 C4 120.000(2) 3_656 11_566
C2 C3 C2 68.9(18) . 26_556
N3 C4 C4 60.001(4) . 11_566
N3 C4 C4 60.001(4) . 31_556
C4 C4 C4 60.001(1) 11_566 31_556
N3 C4 C4 60.001(4) . 9
C4 C4 C4 90.001(9) 11_566 9
C4 C4 C4 120.003(16) 31_556 9
N3 C4 C4 60.001(5) . 5
C4 C4 C4 120.003(18) 11_566 5
C4 C4 C4 90.002(13) 31_556 5
C4 C4 C4 60.001(1) 9 5
N3 C4 C5 93.1(12) . 5
C4 C4 C5 121.7(7) 11_566 5
C4 C4 C5 61.8(7) 31_556 5
C4 C4 C5 121.7(7) 9 5
C4 C4 C5 61.8(7) 5 5
N3 C4 C5 93.1(12) . .
C4 C4 C5 61.8(7) 11_566 .
C4 C4 C5 121.7(7) 31_556 .
C4 C4 C5 61.8(7) 9 .
C4 C4 C5 121.7(7) 5 .
C5 C4 C5 174(2) 5 .
C4 C5 C4 56.4(14) 11_566 27_565
C4 C5 C4 84(2) 11_566 9
C4 C5 C4 56.4(14) 27_565 9
C4 C5 C4 56.4(14) 11_566 .
C4 C5 C4 84(2) 27_565 .
C4 C5 C4 56.4(14) 9 .
N1 C1 S1 180.0(16) . .
C1 N1 Ce1 180.0(14) . .
loop_
_geom_bond_atom_site_label_1
_geom_bond_atom_site_label_2
_geom_bond_distance
_geom_bond_site_symmetry_2
Ce1 N1 2.497(12) .
Ce1 N1 2.497(12) 25
Ce1 N1 2.497(12) 26
Ce1 N1 2.497(12) 2
Ce1 N1 2.497(12) 28
Ce1 N1 2.497(12) 3
Ce1 N1 2.497(12) 27
Ce1 N1 2.497(12) 4
N2 C2 1.55(2) 37
N2 C2 1.55(2) 13_556
N2 C2 1.55(2) 26_556
N2 C2 1.55(2) 2
N2 C2 1.55(2) 38
N2 C2 1.55(2) 25_556
N2 C2 1.55(2) 14_556
N2 C2 1.55(2) .
C2 C3 1.70(3) .
C2 C2 1.71(5) 37
C2 C2 1.71(5) 38
C2 C2 1.93(4) 26_556
N3 C4 1.51(3) .
N3 C4 1.51(3) 33_666
N3 C4 1.51(3) 25_666
N3 C4 1.51(3) 9
N3 C4 1.51(3) 29_666
N3 C4 1.51(3) 5
N3 C4 1.51(3) 35_655
N3 C4 1.51(3) 7_665
N3 C4 1.51(3) 31_556
N3 C4 1.51(3) 27_565
N3 C4 1.51(3) 3_656
N3 C4 1.51(3) 11_566
C3 C2 1.70(3) 26_556
C4 C4 1.51(3) 11_566
C4 C4 1.51(3) 31_556
C4 C4 1.51(3) 9
C4 C4 1.51(3) 5
C4 C5 1.593(10) 5
C4 C5 1.593(10) .
C5 C4 1.593(10) 11_566
C5 C4 1.593(10) 27_565
C5 C4 1.593(10) 9
S1 C1 1.564(13) .
C1 N1 1.131(16) .
