#------------------------------------------------------------------------------
#$Date: 2019-11-23 19:01:24 +0200 (Sat, 23 Nov 2019) $
#$Revision: 234556 $
#$URL: file:///home/coder/svn-repositories/cod/cif/7/12/51/7125154.cif $
#------------------------------------------------------------------------------
#
# This file is available in the Crystallography Open Database (COD),
# http://www.crystallography.net/
#
# All data on this site have been placed in the public domain by the
# contributors.
#
data_7125154
loop_
_publ_author_name
'Lekin, Kristina'
'Ogata, Kazuma'
'Maclean, Adrian'
'Mailman, Aaron'
'Winter, Stephen M.'
'Assoud, Abdeljalil'
'Mito, Masaki'
'Tse, John S.'
'Desgreniers, Serge'
'Hirao, Naohisa'
'Dube, Paul A.'
'Oakley, Richard T.'
_publ_section_title
;
 Pushing T<sub>C</sub> to 27.5 K in a heavy atom radical ferromagnet.
;
_journal_issue                   96
_journal_name_full
'Chemical communications (Cambridge, England)'
_journal_page_first              13877
_journal_page_last               13880
_journal_paper_doi               10.1039/c6cc07142b
_journal_volume                  52
_journal_year                    2016
_chemical_formula_moiety         'C7 H5 I1 N3 Se4'
_chemical_formula_sum            'C7 H5 I N3 Se4'
_chemical_formula_weight         573.88
_chemical_melting_point_gt       400
_chemical_name_common            IBPSSEt
_chemical_name_systematic
; 
8-iodo-4-ethyl-4H-bis[1,2,3]diselenazolo[4,5-b:5',4'-e]pyridin-2-yl
;
_space_group_IT_number           113
_space_group_name_Hall           'P -4 2ab'
_space_group_name_H-M_alt        'P -4 21 m'
_symmetry_cell_setting           tetragonal
_symmetry_space_group_name_Hall  'P -4 2ab'
_symmetry_space_group_name_H-M   'P -4 21 m'
_audit_creation_date             2016-08-30T18:06
_audit_creation_method           'from EXP file using GSAS2CIF'
_audit_update_record
' 2016-08-30T18:06  Initial CIF as created by GSAS2CIF'
_cell_angle_alpha                90.0
_cell_angle_beta                 90.0
_cell_angle_gamma                90.0
_cell_formula_units_Z            4
_cell_length_a                   15.6831(15)
_cell_length_b                   15.6831
_cell_length_c                   3.6436(24)
_cell_measurement_temperature    293(2)
_cell_volume                     896.2(6)
_computing_structure_refinement  GSAS
_diffrn_ambient_temperature      293(2)
_diffrn_measurement_device_type  'SPring-8 BL10XU'
_diffrn_radiation_polarisn_ratio 0.95
_diffrn_radiation_probe          x-ray
_diffrn_radiation_type           Synchrotron
_diffrn_radiation_wavelength     0.41358
_diffrn_source                   Synchrotron
_exptl_absorpt_correction_T_max  1.00000
_exptl_absorpt_correction_T_min  1.00000
_exptl_absorpt_process_details
;   GSAS Absorption/surface roughness correction: function number 0
 No correction is applied.
;
_exptl_crystal_colour            black
_exptl_crystal_density_diffrn    4.253
_pd_block_id
2016-08-30T18:06|IBPSSET_877GPA_DONE|Oakley|SPring-8
_pd_calc_method                  'Rietveld Refinement'
_pd_instr_location               ' ?'
_pd_phase_name
'from C:/gsas/MyWork/IBPSSEt/8.77GPa/8.77 GPa_RT-DASH5.cif'
_pd_proc_info_datetime           2016-08-30T18:06:21
_pd_proc_info_excluded_regions   ' ?'
_pd_proc_ls_background_function
;   GSAS Background function number 1 with  8 terms.
 Shifted Chebyshev function of 1st kind
      1:    2190.27     2:    972.587     3:   -97.5863     4:   -46.9531    
      5:    27.6137     6:    13.0369     7:   -5.84819     8:   -11.4968    
;
_pd_proc_ls_peak_cutoff          0.00100
_pd_proc_ls_profile_function
;
 CW Profile function number 2 with  18 terms
 Profile coefficients for Simpson's rule integration of pseudovoigt function
 C.J. Howard (1982). J. Appl. Cryst.,15,615-620.
 P. Thompson, D.E. Cox & J.B. Hastings (1987). J. Appl. Cryst.,20,79-83.
 #1(GU)   =  289.751 #2(GV)   =   14.657 #3(GW)   =    1.110
 #4(LX)   =    1.781 #5(LY)   =   42.999 #6(trns) =   -1.196
 #7(asym) =  -0.0097 #8(shft) =  -0.0161 #9(GP)   =    0.134
 #10(stec)=   301.82 #11(ptec)=     9.20 #12(sfec)=     0.00
 #13(L11) =    0.000 #14(L22) =    0.001 #15(L33) =    0.031
 #16(L12) =    0.000 #17(L13) =    0.034 #18(L23) =   -0.020
 Peak tails are ignored  where the intensity is below 0.0010 times the peak
   Aniso. broadening axis   0.0   0.0   1.0
;
_pd_proc_ls_prof_R_factor        0.0432
_pd_proc_ls_prof_wR_expected     0.0192
_pd_proc_ls_prof_wR_factor       0.0593
_pd_spec_mounting                ' ?'
_refine_ls_goodness_of_fit_all   3.09
_refine_ls_matrix_type           full
_refine_ls_number_parameters     1
_refine_ls_number_restraints     0
_refine_ls_R_Fsqd_factor         0.17100
_refine_ls_shift/su_max          0.01
_refine_ls_shift/su_mean         0.01
_reflns_d_resolution_high        1.867
_reflns_d_resolution_low         7.842
_reflns_limit_h_max              11
_reflns_limit_h_min              0
_reflns_limit_k_max              8
_reflns_limit_k_min              0
_reflns_limit_l_max              2
_reflns_limit_l_min              0
_reflns_number_total             57
_cod_data_source_file            c6cc07142b4.cif
_cod_data_source_block           1c_8_8_GPa
_cod_depositor_comments
;
The following automatic conversions were performed:

data name '_chemical_melting_point' was changed to
'_chemical_melting_point_gt' since the value was specified as 'more
than' ('>') a certain temperature.

data item '_geom_angle_publ_flag' value 'N' was changed to 'n' in
accordance with the
/home/saulius/struct/COD-crude-data/automatic-downloads/DataCite-retrospective/RSC/depositions/lib/dictionaries/cif_core.dic
dictionary named 'cif_core.dic' version 2.4.2 last updated on
2011-04-26 (17 times).

data item '_geom_bond_publ_flag' value 'N' was changed to 'n' in
accordance with the
/home/saulius/struct/COD-crude-data/automatic-downloads/DataCite-retrospective/RSC/depositions/lib/dictionaries/cif_core.dic
dictionary named 'cif_core.dic' version 2.4.2 last updated on
2011-04-26 (13 times).

Automatic conversion script
Id: cif_fix_values 6909 2019-04-08 15:41:33Z antanas 
;
_cod_database_code               7125154
_gsas_exptl_extinct_corr_t_min   1.00000
_gsas_exptl_extinct_corr_t_max   1.00000
loop_
_symmetry_equiv_pos_site_id
_symmetry_equiv_pos_as_xyz
1 +x,+y,+z
2 +y,-x,-z
3 -x,-y,+z
4 -y,+x,-z
5 -x+1/2,+y+1/2,-z
6 +y+1/2,+x+1/2,+z
7 +x+1/2,-y+1/2,-z
8 -y+1/2,-x+1/2,+z
loop_
_atom_site_type_symbol
_atom_site_label
_atom_site_fract_x
_atom_site_fract_y
_atom_site_fract_z
_atom_site_occupancy
_atom_site_thermal_displace_type
_atom_site_U_iso_or_equiv
_atom_site_symmetry_multiplicity
I I1 -0.0702 0.5702 -0.21759 1.0 Uiso 0.1092 4
N N2 -0.25572 0.75572 0.48431 1.0 Uiso 0.1092 4
C C3 -0.15246 0.65246 0.05667 1.0 Uiso 0.1092 4
C C4 -0.30905 0.80905 0.72473 1.0 Uiso 0.1092 4
C C5 -0.36831 0.86831 0.52503 1.0 Uiso 0.1092 4
H H5A -0.40192 0.90192 0.69645 1.0 Uiso 0.2183 4
Se Se1 -0.05603 0.90523 0.28715 1.0 Uiso 0.1092 8
Se Se2 -0.01689 0.77481 0.01345 1.0 Uiso 0.1092 8
N N1 -0.15813 0.86725 0.44756 1.0 Uiso 0.1092 8
C C1 -0.17886 0.78901 0.36079 1.0 Uiso 0.1092 8
C C2 -0.12419 0.7327 0.15427 1.0 Uiso 0.1092 8
H H4A -0.27213 0.84172 0.88034 1.0 Uiso 0.2183 8
H H5B -0.33403 0.90519 0.37219 1.0 Uiso 0.2183 8
loop_
_atom_type_symbol
_atom_type_number_in_cell
_atom_type_scat_dispersion_real
_atom_type_scat_dispersion_imag
_atom_type_scat_Cromer_Mann_a1
_atom_type_scat_Cromer_Mann_a2
_atom_type_scat_Cromer_Mann_a3
_atom_type_scat_Cromer_Mann_a4
_atom_type_scat_Cromer_Mann_b1
_atom_type_scat_Cromer_Mann_b2
_atom_type_scat_Cromer_Mann_b3
_atom_type_scat_Cromer_Mann_b4
_atom_type_scat_Cromer_Mann_c
_atom_type_scat_source
I 4.0 0.000 0.000 20.1472 4.34700 18.9949 0.38140 7.51380 27.7660 2.27350
66.8776 4.07120 International_Tables_Vol_C
N 12.0 0.000 0.000 12.2126 0.00570 3.13220 9.89330 2.01250 28.9975 1.16630
0.58260 -11.529 International_Tables_Vol_C
C 28.0 0.000 0.000 2.31000 20.8439 1.02000 10.2075 1.58860 0.56870 0.86500
51.6512 0.21560 International_Tables_Vol_C
H 20.0 0.000 0.000 0.49300 10.5109 0.32291 26.1257 0.14019 3.14236 0.04081
57.7997 0.00304 International_Tables_Vol_C
Se 16.0 0.000 0.000 17.0006 2.40980 5.81960 0.27260 3.97310 15.2372 4.35430
43.8163 2.84090 International_Tables_Vol_C
loop_
_geom_angle_atom_site_label_1
_geom_angle_atom_site_label_2
_geom_angle_atom_site_label_3
_geom_angle
_geom_angle_site_symmetry_1
_geom_angle_site_symmetry_3
_geom_angle_publ_flag
C4 N2 C1 118.199 1_555 1_555 n
I1 C3 C2 119.327 1_555 1_555 n
N2 C4 C5 114.51 1_555 1_555 n
N2 C4 H4A 108.207 1_555 1_555 n
C5 C4 H4A 109.234 1_555 1_555 n
C4 C5 H5A 111.07 1_555 1_555 n
C4 C5 H5B 107.773 1_555 1_555 n
H5A C5 H5B 110.320 1_555 1_555 n
Se2 Se1 N1 94.683 1_555 1_555 n
Se1 Se2 C2 87.492 1_555 1_555 n
Se1 N1 C1 116.845 1_555 1_555 n
N2 C1 N1 119.346 1_555 1_555 n
N2 C1 C2 117.053 1_555 1_555 n
N1 C1 C2 123.5418 1_555 1_555 n
C3 C2 Se2 122.514 1_555 1_555 n
C3 C2 C1 120.092 1_555 1_555 n
Se2 C2 C1 117.355 1_555 1_555 n
loop_
_geom_bond_atom_site_label_1
_geom_bond_atom_site_label_2
_geom_bond_distance
_geom_bond_site_symmetry_2
_geom_bond_publ_flag
I1 C3 2.0802 1_555 n
N2 C4 1.4719 1_555 n
N2 C1 1.38858 1_555 n
C4 C5 1.50232 1_555 n
C4 H4A 0.95878 1_555 n
C5 H5A 0.97253 1_555 n
C5 H5B 0.96628 1_555 n
Se1 Se2 2.35690 1_555 n
Se1 N1 1.80566 1_555 n
Se2 C2 1.87916 1_555 n
N1 C1 1.30817 1_555 n
C1 C2 1.44266 1_555 n
C2 C3 1.38081 1_555 n
loop_
_refln_index_h
_refln_index_k
_refln_index_l
_refln_observed_status
_refln_F_squared_meas
_refln_F_squared_calc
_refln_phase_calc
_refln_d_spacing
_gsas_i100_meas
1 0 1 o 9850.034 9689.889 -90.00 3.54912 10.82
0 0 1 o 16041.890 15841.315 0.00 3.64365 7.00
2 0 1 o 551.861 615.587 0.00 3.30435 0.61
2 1 1 o 20411.600 20535.766 113.43 3.23336 41.05
1 1 1 o 3824.649 3862.384 -133.41 3.46159 2.71
3 0 1 o 37.321 38.971 90.00 2.98922 0.04
3 1 1 o 445.548 492.548 -134.62 2.93636 1.07
2 0 0 o 21477.664 23041.596 0.00 7.84157 39.00
2 2 1 o 79332.69 79599.59 -133.19 3.04504 100.00
2 1 0 o 7628.663 8903.974 -180.00 7.01372 23.32
4 0 1 o 22422.209 23890.613 0.00 2.66905 12.79
4 1 1 o 2664.600 2545.669 139.18 2.63122 4.09
3 2 1 o 503.121 605.898 83.54 2.79316 1.35
2 2 0 o 538.888 318.753 -180.00 5.54483 0.40
3 1 0 o 2019.895 2393.164 -180.00 4.95945 3.24
3 3 1 o 10338.533 9745.256 -178.52 2.59495 11.75
4 2 1 o 32019.420 32131.307 -84.87 2.52670 60.30
5 0 1 o 17347.627 17363.840 90.00 2.37715 5.09
5 1 1 o 6555.371 6720.405 -1.00 2.35030 5.72
3 2 0 o 3335.677 3865.843 0.00 4.34972 3.50
4 3 1 o 190.004 189.612 95.54 2.37715 0.27
4 0 0 o 2497.931 2451.867 0.00 3.92079 1.13
5 2 1 o 3903.384 5513.871 82.56 2.27492 4.42
4 1 0 o 20738.037 21556.967 -180.00 3.80372 19.25
4 4 1 o 44290.31 45912.33 -71.82 2.20635 12.89
3 3 0 o 11180.504 13068.064 -180.00 3.69655 3.70
5 3 1 o 1455.324 1339.150 7.16 2.16393 1.09
4 2 0 o 4364.220 4610.721 -180.00 3.50686 3.34
6 0 1 o 98.218 116.219 0.00 2.12388 0.03
6 1 1 o 1583.116 2063.706 -109.44 2.10467 1.13
6 2 1 o 15145.574 12193.055 -140.39 2.05001 12.26
5 4 1 o 5668.049 3886.208 2.79 2.03272 0.31
4 3 0 o 22508.586 19721.598 -180.00 3.13663 11.60
5 1 0 o 3466.565 3198.172 0.00 3.07572 2.07
6 3 1 o 3389.315 2944.833 11.49 1.96769 1.66
5 2 0 o 893.378 1083.417 0.00 2.91229 0.49
7 0 1 o 4024.160 6607.383 90.00 1.90852 1.43
7 1 1 o 130.582 247.928 174.83 1.89454 0.10
5 5 1 o 0.000 4340.880 32.30 1.89454 0.00
4 4 0 o 16894.658 19068.939 0.00 2.77242 3.14
6 4 1 o 0.000 1629.307 -59.80 1.86748 0.00
5 3 0 o 0.001 0.002 0.00 2.68964 0.00
6 0 0 o 42196.91 34507.398 -180.00 2.61386 8.53
6 1 0 o 11193.694 10691.742 180.00 2.57829 4.62
6 2 0 o 67407.36 57749.95 -180.00 2.47972 27.05
5 4 0 o 12680.616 10697.012 0.00 2.44930 3.88
6 3 0 o 11407.303 10501.521 -180.00 2.33791 3.88
7 1 0 o 960.211 812.204 -180.00 2.21793 0.29
5 5 0 o 6443.483 5467.215 0.00 2.21793 0.77
6 4 0 o 658.601 506.144 0.00 2.17486 0.17
7 2 0 o 15368.674 11044.764 180.00 2.15425 4.63
7 3 0 o 3481.339 3061.633 180.00 2.05930 0.95
6 5 0 o 7923.623 3253.573 -180.00 2.00802 1.60
8 0 0 o 2571.702 3495.517 -180.00 1.96039 0.29
7 4 0 o 1689.495 1891.372 -180.00 1.94526 0.38
8 1 0 o 5381.975 6020.530 -180.00 1.94526 1.24
8 2 0 o 4545.399 8257.284 180.00 1.90186 1.06
