#------------------------------------------------------------------------------
#$Date: 2019-11-23 19:01:24 +0200 (Sat, 23 Nov 2019) $
#$Revision: 234556 $
#$URL: file:///home/coder/svn-repositories/cod/cif/7/12/51/7125146.cif $
#------------------------------------------------------------------------------
#
# This file is available in the Crystallography Open Database (COD),
# http://www.crystallography.net/
#
# All data on this site have been placed in the public domain by the
# contributors.
#
data_7125146
loop_
_publ_author_name
'Lekin, Kristina'
'Ogata, Kazuma'
'Maclean, Adrian'
'Mailman, Aaron'
'Winter, Stephen M.'
'Assoud, Abdeljalil'
'Mito, Masaki'
'Tse, John S.'
'Desgreniers, Serge'
'Hirao, Naohisa'
'Dube, Paul A.'
'Oakley, Richard T.'
_publ_section_title
;
 Pushing T<sub>C</sub> to 27.5 K in a heavy atom radical ferromagnet.
;
_journal_issue                   96
_journal_name_full
'Chemical communications (Cambridge, England)'
_journal_page_first              13877
_journal_page_last               13880
_journal_paper_doi               10.1039/c6cc07142b
_journal_volume                  52
_journal_year                    2016
_chemical_formula_moiety         'C7 H5 I1 N3 Se4'
_chemical_formula_sum            'C7 H5 I N3 Se4'
_chemical_formula_weight         573.88
_chemical_melting_point_gt       400
_chemical_name_common            IBPSSEt
_chemical_name_systematic
; 
8-iodo-4-ethyl-4H-bis[1,2,3]diselenazolo[4,5-b:5',4'-e]pyridin-2-yl
;
_space_group_IT_number           113
_space_group_name_Hall           'P -4 2ab'
_space_group_name_H-M_alt        'P -4 21 m'
_symmetry_cell_setting           tetragonal
_symmetry_space_group_name_Hall  'P -4 2ab'
_symmetry_space_group_name_H-M   'P -4 21 m'
_audit_creation_date             2016-08-29T11:51
_audit_creation_method           'from EXP file using GSAS2CIF'
_audit_update_record
' 2016-08-29T11:51  Initial CIF as created by GSAS2CIF'
_cell_angle_alpha                90.0
_cell_angle_beta                 90.0
_cell_angle_gamma                90.0
_cell_formula_units_Z            4
_cell_length_a                   16.0383(14)
_cell_length_b                   16.0383
_cell_length_c                   3.8839(17)
_cell_measurement_temperature    293(2)
_cell_volume                     999.0(4)
_computing_structure_refinement  GSAS
_diffrn_ambient_temperature      293(2)
_diffrn_measurement_device_type  'SPring-8 BL10XU'
_diffrn_radiation_polarisn_ratio 0.95
_diffrn_radiation_probe          x-ray
_diffrn_radiation_type           Synchrotron
_diffrn_radiation_wavelength     0.41358
_diffrn_source                   Synchrotron
_exptl_absorpt_correction_T_max  1.00000
_exptl_absorpt_correction_T_min  1.00000
_exptl_absorpt_process_details
;   GSAS Absorption/surface roughness correction: function number 0
 No correction is applied.
;
_exptl_crystal_colour            black
_exptl_crystal_density_diffrn    3.815
_pd_block_id
2016-08-29T11:51|IBPSSET_303GPA_3_DON|Oakley|SPring-8
_pd_calc_method                  'Rietveld Refinement'
_pd_instr_location               ' ?'
_pd_meas_2theta_range_inc        0.01
_pd_meas_2theta_range_max        22.59
_pd_meas_2theta_range_min        0.5
_pd_phase_name
'from C:/gsas/MyWork/IBPSSEt/3.03GPa_new/3.03 GPa_RT.cif'
_pd_proc_2theta_range_inc        0.01
_pd_proc_2theta_range_max        22.59006
_pd_proc_2theta_range_min        0.50006
_pd_proc_info_datetime           2016-08-29T11:51:33
_pd_proc_info_excluded_regions   ' ?'
_pd_proc_ls_background_function
;   GSAS Background function number 1 with  8 terms.
 Shifted Chebyshev function of 1st kind
      1:    2317.09     2:    1044.57     3:   -117.755     4:   -72.4232    
      5:    13.1254     6:    22.0417     7:   -6.53591     8:    14.4199    
;
_pd_proc_ls_peak_cutoff          0.00100
_pd_proc_ls_profile_function
;
 CW Profile function number 2 with  18 terms
 Profile coefficients for Simpson's rule integration of pseudovoigt function
 C.J. Howard (1982). J. Appl. Cryst.,15,615-620.
 P. Thompson, D.E. Cox & J.B. Hastings (1987). J. Appl. Cryst.,20,79-83.
 #1(GU)   =  580.622 #2(GV)   =   26.331 #3(GW)   =    0.344
 #4(LX)   =    1.927 #5(LY)   =   24.539 #6(trns) =   -5.372
 #7(asym) =   0.0305 #8(shft) =  -0.1127 #9(GP)   =    0.166
 #10(stec)=   236.97 #11(ptec)=     4.97 #12(sfec)=     0.00
 #13(L11) =    0.000 #14(L22) =    0.000 #15(L33) =    0.025
 #16(L12) =    0.000 #17(L13) =    0.009 #18(L23) =   -0.006
 Peak tails are ignored  where the intensity is below 0.0010 times the peak
   Aniso. broadening axis   0.0   0.0   1.0
;
_pd_proc_ls_prof_R_factor        0.0435
_pd_proc_ls_prof_wR_expected     0.0186
_pd_proc_ls_prof_wR_factor       0.0560
_pd_spec_mounting                ' ?'
_refine_ls_goodness_of_fit_all   3.01
_refine_ls_matrix_type           full
_refine_ls_number_parameters     1
_refine_ls_number_restraints     0
_refine_ls_R_Fsqd_factor         0.11970
_refine_ls_shift/su_max          0.00
_refine_ls_shift/su_mean         0.00
_reflns_d_resolution_high        2.036
_reflns_d_resolution_low         8.019
_reflns_limit_h_max              10
_reflns_limit_h_min              0
_reflns_limit_k_max              7
_reflns_limit_k_min              0
_reflns_limit_l_max              2
_reflns_limit_l_min              0
_reflns_number_total             49
_cod_data_source_file            c6cc07142b4.cif
_cod_data_source_block           1c_3_0_GPa
_cod_depositor_comments
;
The following automatic conversions were performed:

data name '_chemical_melting_point' was changed to
'_chemical_melting_point_gt' since the value was specified as 'more
than' ('>') a certain temperature.

data item '_geom_angle_publ_flag' value 'N' was changed to 'n' in
accordance with the
/home/saulius/struct/COD-crude-data/automatic-downloads/DataCite-retrospective/RSC/depositions/lib/dictionaries/cif_core.dic
dictionary named 'cif_core.dic' version 2.4.2 last updated on
2011-04-26 (18 times).

data item '_geom_bond_publ_flag' value 'N' was changed to 'n' in
accordance with the
/home/saulius/struct/COD-crude-data/automatic-downloads/DataCite-retrospective/RSC/depositions/lib/dictionaries/cif_core.dic
dictionary named 'cif_core.dic' version 2.4.2 last updated on
2011-04-26 (11 times).

Automatic conversion script
Id: cif_fix_values 6909 2019-04-08 15:41:33Z antanas 
;
_cod_database_code               7125146
_gsas_exptl_extinct_corr_t_min   1.00000
_gsas_exptl_extinct_corr_t_max   1.00000
loop_
_symmetry_equiv_pos_site_id
_symmetry_equiv_pos_as_xyz
1 +x,+y,+z
2 +y,-x,-z
3 -x,-y,+z
4 -y,+x,-z
5 -x+1/2,+y+1/2,-z
6 +y+1/2,+x+1/2,+z
7 +x+1/2,-y+1/2,-z
8 -y+1/2,-x+1/2,+z
loop_
_atom_site_type_symbol
_atom_site_label
_atom_site_fract_x
_atom_site_fract_y
_atom_site_fract_z
_atom_site_occupancy
_atom_site_thermal_displace_type
_atom_site_U_iso_or_equiv
_atom_site_symmetry_multiplicity
I I1 0.92704 -0.42704 -0.19698 1.0 Uiso 0.0839 4
N N2 0.74737 -0.24737 0.47101 1.0 Uiso 0.0839 4
C C3 0.84728 -0.34728 0.06494 1.0 Uiso 0.0839 4
C C4 0.69583 -0.19583 0.69887 1.0 Uiso 0.0839 4
C C5 0.63732 -0.13732 0.51924 1.0 Uiso 0.0839 4
H H5A 0.60488 -0.10488 0.6813 1.0 Uiso 0.1679 4
Se Se1 0.94153 -0.10126 0.28589 1.0 Uiso 0.0839 8
Se Se2 0.9791 -0.22815 0.02426 1.0 Uiso 0.0839 8
N N1 0.84204 -0.13886 0.43759 1.0 Uiso 0.0839 8
C C1 0.82152 -0.21519 0.35447 1.0 Uiso 0.0839 8
C C2 0.87448 -0.26974 0.15785 1.0 Uiso 0.0839 8
H H4A 0.73164 -0.16499 0.84294 1.0 Uiso 0.1679 8
H H5B 0.66972 -0.10154 0.37767 1.0 Uiso 0.1679 8
loop_
_atom_type_symbol
_atom_type_number_in_cell
_atom_type_scat_dispersion_real
_atom_type_scat_dispersion_imag
_atom_type_scat_Cromer_Mann_a1
_atom_type_scat_Cromer_Mann_a2
_atom_type_scat_Cromer_Mann_a3
_atom_type_scat_Cromer_Mann_a4
_atom_type_scat_Cromer_Mann_b1
_atom_type_scat_Cromer_Mann_b2
_atom_type_scat_Cromer_Mann_b3
_atom_type_scat_Cromer_Mann_b4
_atom_type_scat_Cromer_Mann_c
_atom_type_scat_source
I 4.0 0.000 0.000 20.1472 4.34700 18.9949 0.38140 7.51380 27.7660 2.27350
66.8776 4.07120 International_Tables_Vol_C
N 12.0 0.000 0.000 12.2126 0.00570 3.13220 9.89330 2.01250 28.9975 1.16630
0.58260 -11.529 International_Tables_Vol_C
C 28.0 0.000 0.000 2.31000 20.8439 1.02000 10.2075 1.58860 0.56870 0.86500
51.6512 0.21560 International_Tables_Vol_C
H 20.0 0.000 0.000 0.49300 10.5109 0.32291 26.1257 0.14019 3.14236 0.04081
57.7997 0.00304 International_Tables_Vol_C
Se 16.0 0.000 0.000 17.0006 2.40980 5.81960 0.27260 3.97310 15.2372 4.35430
43.8163 2.84090 International_Tables_Vol_C
loop_
_geom_angle_atom_site_label_1
_geom_angle_atom_site_label_2
_geom_angle_atom_site_label_3
_geom_angle
_geom_angle_site_symmetry_1
_geom_angle_site_symmetry_3
_geom_angle_publ_flag
I1 I1 C3 150.650 3_745 1_555 n
C4 N2 C1 118.381 1_555 1_555 n
I1 C3 C2 119.5787 1_555 1_555 n
N2 C4 C5 115.142 1_555 1_555 n
N2 C4 H4A 108.107 1_555 1_555 n
C5 C4 H4A 109.228 1_555 1_555 n
C4 C5 H5A 111.724 1_555 1_555 n
C4 C5 H5B 107.769 1_555 1_555 n
H5A C5 H5B 110.227 1_555 1_555 n
Se2 Se1 N1 94.496 1_555 1_555 n
Se1 Se2 C2 87.656 1_555 1_555 n
Se1 N1 C1 117.038 1_555 1_555 n
N2 C1 N1 119.228 1_555 1_555 n
N2 C1 C2 117.238 1_555 1_555 n
N1 C1 C2 123.4720 1_555 1_555 n
C3 C2 Se2 122.367 1_555 1_555 n
C3 C2 C1 120.3395 1_555 1_555 n
Se2 C2 C1 117.255 1_555 1_555 n
loop_
_geom_bond_atom_site_label_1
_geom_bond_atom_site_label_2
_geom_bond_distance
_geom_bond_site_symmetry_2
_geom_bond_publ_flag
I1 C3 2.07548(26) 1_555 n
N2 C4 1.46621(25) 1_555 n
N2 C1 1.37315(12) 1_555 n
C4 C5 1.49931(18) 1_555 n
C4 H4A 0.94213(16) 1_555 n
Se1 Se2 2.35314(26) 1_555 n
Se1 N1 1.80469(16) 1_555 n
Se2 C2 1.87872(16) 1_555 n
N1 C1 1.30813(11) 1_555 n
C1 C2 1.43877(20) 1_555 n
C2 C3 1.36641(12) 1_555 n
loop_
_refln_index_h
_refln_index_k
_refln_index_l
_refln_observed_status
_refln_F_squared_meas
_refln_F_squared_calc
_refln_phase_calc
_refln_d_spacing
_gsas_i100_meas
2 0 0 o 14584.166 15951.490 0.00 8.01915 28.71
0 0 1 o 20733.598 23075.389 0.00 3.88391 9.61
1 0 1 o 7758.125 8093.143 -90.00 3.77481 11.39
2 1 0 o 11109.433 12281.599 -180.00 7.17254 32.07
1 1 1 o 7213.938 7431.292 -136.57 3.67441 9.50
2 0 1 o 1589.447 1893.595 0.00 3.49551 1.63
2 1 1 o 27137.264 27109.285 116.90 3.41534 59.24
2 2 0 o 2413.948 1233.676 -180.00 5.67039 1.25
2 2 1 o 92533.34 94885.20 -130.87 3.20432 100.00
3 0 1 o 785.718 842.843 90.00 3.14222 0.64
3 1 1 o 570.680 698.218 -122.21 3.08360 0.99
3 1 0 o 2822.645 2978.614 -180.00 5.07175 4.66
3 2 1 o 710.803 1397.740 66.86 2.92564 1.22
3 2 0 o 3228.294 3270.008 0.00 4.44822 2.81
4 0 1 o 26394.219 26970.584 0.00 2.78971 16.16
4 1 1 o 4114.096 3574.921 152.51 2.74844 5.08
4 2 1 o 39268.45 38477.06 -84.03 2.63483 44.87
4 1 0 o 31040.684 30242.195 -180.00 3.88986 30.47
4 0 0 o 265.723 672.074 0.00 4.00957 0.13
3 3 1 o 10501.800 9065.133 179.31 2.70895 7.01
3 3 0 o 13860.746 13106.396 180.00 3.78026 3.20
4 2 0 o 6841.740 6574.915 180.00 3.58627 4.94
5 0 1 o 22430.678 23222.303 90.00 2.47323 9.30
4 3 1 o 205.961 212.913 119.33 2.47323 0.18
5 1 1 o 7296.089 9366.890 -1.79 2.44434 5.91
5 2 1 o 3313.714 6358.534 73.02 2.36338 2.36
4 3 0 o 23575.133 23324.262 -180.00 3.20766 9.42
5 1 0 o 3018.294 2761.236 0.00 3.14537 1.92
5 3 1 o 2102.579 1886.142 21.30 2.24466 1.11
6 0 1 o 346.502 390.802 -180.00 2.20195 0.09
4 4 1 o 43407.69 48363.23 -69.39 2.28997 11.95
6 1 1 o 3108.916 4089.199 -114.55 2.18148 1.63
5 2 0 o 269.959 460.920 0.00 2.97824 0.15
6 2 1 o 21474.873 15583.921 -149.12 2.12335 9.71
4 4 0 o 23435.432 25515.266 0.00 2.83520 3.05
5 3 0 o 15.992 11.922 0.00 2.75054 0.01
6 3 1 o 6365.135 5086.452 14.26 2.03601 2.10
5 4 1 o 14737.069 8787.543 1.21 2.10499 4.72
6 0 0 o 57400.25 47309.46 -180.00 2.67305 12.57
6 1 0 o 14663.769 15464.440 180.00 2.63668 6.50
6 2 0 o 74490.66 65172.43 180.00 2.53588 30.81
5 4 0 o 15830.502 11617.826 0.00 2.50476 3.62
6 3 0 o 6348.978 10114.737 -180.00 2.39085 2.04
5 5 0 o 6195.242 5103.960 0.00 2.26816 0.52
7 1 0 o 226.844 186.820 -180.00 2.26816 0.07
6 4 0 o 1483.384 1454.170 0.00 2.22411 0.32
7 2 0 o 16497.467 18466.424 180.00 2.20303 5.20
7 3 0 o 2658.921 1660.849 180.00 2.10593 0.72
6 5 0 o 8235.284 4101.915 -180.00 2.05349 1.22
