#------------------------------------------------------------------------------
#$Date: 2019-11-23 19:01:24 +0200 (Sat, 23 Nov 2019) $
#$Revision: 234556 $
#$URL: file:///home/coder/svn-repositories/cod/cif/7/12/51/7125153.cif $
#------------------------------------------------------------------------------
#
# This file is available in the Crystallography Open Database (COD),
# http://www.crystallography.net/
#
# All data on this site have been placed in the public domain by the
# contributors.
#
data_7125153
loop_
_publ_author_name
'Lekin, Kristina'
'Ogata, Kazuma'
'Maclean, Adrian'
'Mailman, Aaron'
'Winter, Stephen M.'
'Assoud, Abdeljalil'
'Mito, Masaki'
'Tse, John S.'
'Desgreniers, Serge'
'Hirao, Naohisa'
'Dube, Paul A.'
'Oakley, Richard T.'
_publ_section_title
;
 Pushing T<sub>C</sub> to 27.5 K in a heavy atom radical ferromagnet.
;
_journal_issue                   96
_journal_name_full
'Chemical communications (Cambridge, England)'
_journal_page_first              13877
_journal_page_last               13880
_journal_paper_doi               10.1039/c6cc07142b
_journal_volume                  52
_journal_year                    2016
_chemical_formula_moiety         'C7 H5 I1 N3 Se4'
_chemical_formula_sum            'C7 H5 I N3 Se4'
_chemical_formula_weight         573.88
_chemical_melting_point_gt       400
_chemical_name_common            IBPSSEt
_chemical_name_systematic
; 
8-iodo-4-ethyl-4H-bis[1,2,3]diselenazolo[4,5-b:5',4'-e]pyridin-2-yl
;
_space_group_IT_number           113
_space_group_name_Hall           'P -4 2ab'
_space_group_name_H-M_alt        'P -4 21 m'
_symmetry_cell_setting           tetragonal
_symmetry_space_group_name_Hall  'P -4 2ab'
_symmetry_space_group_name_H-M   'P -4 21 m'
_audit_creation_date             2016-08-30T18:02
_audit_creation_method           'from EXP file using GSAS2CIF'
_audit_update_record
' 2016-08-30T18:02  Initial CIF as created by GSAS2CIF'
_cell_angle_alpha                90.0
_cell_angle_beta                 90.0
_cell_angle_gamma                90.0
_cell_formula_units_Z            4
_cell_length_a                   15.6976(15)
_cell_length_b                   15.6976
_cell_length_c                   3.6631(23)
_cell_measurement_temperature    293(2)
_cell_volume                     902.6(6)
_computing_structure_refinement  GSAS
_diffrn_ambient_temperature      293(2)
_diffrn_measurement_device_type  'SPring-8 BL10XU'
_diffrn_radiation_polarisn_ratio 0.95
_diffrn_radiation_probe          x-ray
_diffrn_radiation_type           synchrotron
_diffrn_radiation_wavelength     0.41358
_diffrn_source                   Synchrotron
_exptl_absorpt_correction_T_max  1.00000
_exptl_absorpt_correction_T_min  1.00000
_exptl_absorpt_process_details
;   GSAS Absorption/surface roughness correction: function number 0
 No correction is applied.
;
_exptl_crystal_colour            black
_exptl_crystal_density_diffrn    4.223
_pd_block_id
2016-08-30T18:02|IBPSSET_802GPA_DONE3|Oakley|SPring-8
_pd_calc_method                  'Rietveld Refinement'
_pd_instr_location               ' ?'
_pd_phase_name
'from C:/gsas/MyWork/IBPSSEt/8.02GPa/8.02 GPa_RT.cif'
_pd_proc_info_datetime           2016-08-30T18:02:22
_pd_proc_info_excluded_regions   ' ?'
_pd_proc_ls_background_function
;   GSAS Background function number 1 with  8 terms.
 Shifted Chebyshev function of 1st kind
      1:    2187.30     2:    962.127     3:   -84.8279     4:   -45.8558    
      5:    11.7673     6:    3.76972     7:   0.676479     8:    1.07582    
;
_pd_proc_ls_peak_cutoff          0.00100
_pd_proc_ls_profile_function
;
 CW Profile function number 2 with  18 terms
 Profile coefficients for Simpson's rule integration of pseudovoigt function
 C.J. Howard (1982). J. Appl. Cryst.,15,615-620.
 P. Thompson, D.E. Cox & J.B. Hastings (1987). J. Appl. Cryst.,20,79-83.
 #1(GU)   = 1153.890 #2(GV)   =  -49.766 #3(GW)   =    1.357
 #4(LX)   =    3.019 #5(LY)   =   28.742 #6(trns) =    0.872
 #7(asym) =  -0.0106 #8(shft) =   0.0030 #9(GP)   =    0.040
 #10(stec)=   417.42 #11(ptec)=     3.06 #12(sfec)=     0.00
 #13(L11) =    0.000 #14(L22) =    0.000 #15(L33) =    0.015
 #16(L12) =    0.000 #17(L13) =    0.013 #18(L23) =   -0.017
 Peak tails are ignored  where the intensity is below 0.0010 times the peak
   Aniso. broadening axis   0.0   0.0   1.0
;
_pd_proc_ls_prof_R_factor        0.0426
_pd_proc_ls_prof_wR_expected     0.0192
_pd_proc_ls_prof_wR_factor       0.0589
_pd_spec_mounting                ' ?'
_refine_ls_goodness_of_fit_all   3.07
_refine_ls_matrix_type           full
_refine_ls_number_parameters     1
_refine_ls_number_restraints     0
_refine_ls_R_Fsqd_factor         0.23704
_refine_ls_shift/su_max          0.00
_refine_ls_shift/su_mean         0.00
_reflns_d_resolution_high        1.871
_reflns_d_resolution_low         7.849
_reflns_limit_h_max              11
_reflns_limit_h_min              0
_reflns_limit_k_max              8
_reflns_limit_k_min              0
_reflns_limit_l_max              2
_reflns_limit_l_min              0
_reflns_number_total             57
_cod_data_source_file            c6cc07142b4.cif
_cod_data_source_block           1c_8_0_GPa
_cod_depositor_comments
;
The following automatic conversions were performed:

data name '_chemical_melting_point' was changed to
'_chemical_melting_point_gt' since the value was specified as 'more
than' ('>') a certain temperature.

data item '_geom_angle_publ_flag' value 'N' was changed to 'n' in
accordance with the
/home/saulius/struct/COD-crude-data/automatic-downloads/DataCite-retrospective/RSC/depositions/lib/dictionaries/cif_core.dic
dictionary named 'cif_core.dic' version 2.4.2 last updated on
2011-04-26 (17 times).

data item '_geom_bond_publ_flag' value 'N' was changed to 'n' in
accordance with the
/home/saulius/struct/COD-crude-data/automatic-downloads/DataCite-retrospective/RSC/depositions/lib/dictionaries/cif_core.dic
dictionary named 'cif_core.dic' version 2.4.2 last updated on
2011-04-26 (12 times).

Automatic conversion script
Id: cif_fix_values 6909 2019-04-08 15:41:33Z antanas 
;
_cod_database_code               7125153
_gsas_exptl_extinct_corr_t_min   1.00000
_gsas_exptl_extinct_corr_t_max   1.00000
loop_
_symmetry_equiv_pos_site_id
_symmetry_equiv_pos_as_xyz
1 +x,+y,+z
2 +y,-x,-z
3 -x,-y,+z
4 -y,+x,-z
5 -x+1/2,+y+1/2,-z
6 +y+1/2,+x+1/2,+z
7 +x+1/2,-y+1/2,-z
8 -y+1/2,-x+1/2,+z
loop_
_atom_site_type_symbol
_atom_site_label
_atom_site_fract_x
_atom_site_fract_y
_atom_site_fract_z
_atom_site_occupancy
_atom_site_thermal_displace_type
_atom_site_U_iso_or_equiv
_atom_site_symmetry_multiplicity
I I1 0.93144 -0.43144 0.78833 1.0 Uiso 0.1143 4
N N2 0.74412 -0.24412 1.4671 1.0 Uiso 0.1143 4
C C3 0.84849 -0.34849 1.05254 1.0 Uiso 0.1143 4
C C4 0.69017 -0.19017 1.70066 1.0 Uiso 0.1143 4
C C5 0.63152 -0.13152 1.49591 1.0 Uiso 0.1143 4
H H5A 0.59745 -0.09745 1.6629 1.0 Uiso 0.2285 4
Se Se1 0.9424 -0.09707 1.27363 1.0 Uiso 0.1143 8
Se Se2 0.98227 -0.22814 1.01025 1.0 Uiso 0.1143 8
N N1 0.83993 -0.13457 1.42983 1.0 Uiso 0.1143 8
C C1 0.81946 -0.21299 1.34652 1.0 Uiso 0.1143 8
C C2 0.87466 -0.26983 1.14691 1.0 Uiso 0.1143 8
H H4A 0.72482 -0.15887 1.85563 1.0 Uiso 0.2285 8
H H5B 0.66439 -0.09689 1.34379 1.0 Uiso 0.2285 8
loop_
_atom_type_symbol
_atom_type_number_in_cell
_atom_type_scat_dispersion_real
_atom_type_scat_dispersion_imag
_atom_type_scat_Cromer_Mann_a1
_atom_type_scat_Cromer_Mann_a2
_atom_type_scat_Cromer_Mann_a3
_atom_type_scat_Cromer_Mann_a4
_atom_type_scat_Cromer_Mann_b1
_atom_type_scat_Cromer_Mann_b2
_atom_type_scat_Cromer_Mann_b3
_atom_type_scat_Cromer_Mann_b4
_atom_type_scat_Cromer_Mann_c
_atom_type_scat_source
I 4.0 0.000 0.000 20.1472 4.34700 18.9949 0.38140 7.51380 27.7660 2.27350
66.8776 4.07120 International_Tables_Vol_C
N 12.0 0.000 0.000 12.2126 0.00570 3.13220 9.89330 2.01250 28.9975 1.16630
0.58260 -11.529 International_Tables_Vol_C
C 28.0 0.000 0.000 2.31000 20.8439 1.02000 10.2075 1.58860 0.56870 0.86500
51.6512 0.21560 International_Tables_Vol_C
H 20.0 0.000 0.000 0.49300 10.5109 0.32291 26.1257 0.14019 3.14236 0.04081
57.7997 0.00304 International_Tables_Vol_C
Se 16.0 0.000 0.000 17.0006 2.40980 5.81960 0.27260 3.97310 15.2372 4.35430
43.8163 2.84090 International_Tables_Vol_C
loop_
_geom_angle_atom_site_label_1
_geom_angle_atom_site_label_2
_geom_angle_atom_site_label_3
_geom_angle
_geom_angle_site_symmetry_1
_geom_angle_site_symmetry_3
_geom_angle_publ_flag
C4 N2 C1 118.988 1_555 1_555 n
I1 C3 C2 120.164 1_555 1_555 n
N2 C4 C5 114.517 1_555 1_555 n
N2 C4 H4A 108.861 1_555 1_555 n
C5 C4 H4A 109.900 1_555 1_555 n
C4 C5 H5A 111.092 1_555 1_555 n
C4 C5 H5B 108.417 1_555 1_555 n
H5A C5 H5B 111.034 1_555 1_555 n
Se2 Se1 N1 94.684 1_555 1_555 n
Se1 Se2 C2 87.494 1_555 1_555 n
Se1 N1 C1 116.843 1_555 1_555 n
N2 C1 N1 118.562 1_555 1_555 n
N2 C1 C2 117.827 1_555 1_555 n
N1 C1 C2 123.5441 1_555 1_555 n
C3 C2 Se2 121.679 1_555 1_555 n
C3 C2 C1 120.931 1_555 1_555 n
Se2 C2 C1 117.351 1_555 1_555 n
loop_
_geom_bond_atom_site_label_1
_geom_bond_atom_site_label_2
_geom_bond_distance
_geom_bond_site_symmetry_2
_geom_bond_publ_flag
I1 C3 2.08030 1_555 n
N2 C4 1.47186 1_555 n
N2 C1 1.35372 1_555 n
C4 C5 1.50258 1_555 n
C4 H4A 0.92709 1_555 n
C5 H5B 0.93394 1_555 n
Se1 Se2 2.35706 1_555 n
Se1 N1 1.80590 1_555 n
Se2 C2 1.87945 1_555 n
N1 Se1 1.80590 1_555 n
C1 C2 1.44276 1_555 n
C2 C3 1.34645 1_555 n
loop_
_refln_index_h
_refln_index_k
_refln_index_l
_refln_observed_status
_refln_F_squared_meas
_refln_F_squared_calc
_refln_phase_calc
_refln_d_spacing
_gsas_i100_meas
1 0 1 o 10377.738 10224.701 -90.00 3.56722 19.78
0 0 1 o 0.000 22700.469 0.00 3.66305 0.00
2 0 1 o 1230.399 1363.796 0.00 3.31935 4.67
1 1 1 o 0.000 4430.760 -123.31 3.47853 0.00
2 1 1 o 21173.605 20941.406 115.40 3.24754 35.08
3 0 1 o 14.292 14.554 90.00 3.00081 0.02
2 0 0 o 19773.848 21470.053 0.00 7.84879 36.01
2 1 0 o 7745.328 8844.844 -180.00 7.02017 22.47
2 2 1 o 77412.09 76977.02 -132.15 3.05719 100.00
3 1 1 o 539.996 568.183 -125.47 2.94744 1.21
4 0 1 o 21493.434 22838.945 0.00 2.67780 11.41
3 2 1 o 439.966 509.811 81.19 2.80294 1.76
2 2 0 o 546.781 407.635 180.00 5.54993 0.47
4 1 1 o 3167.629 3069.538 136.69 2.63966 2.95
3 3 1 o 8423.663 8130.472 -171.79 2.60312 17.95
3 1 0 o 1956.135 3104.155 -180.00 4.96401 3.21
4 2 1 o 30745.078 30826.928 -84.65 2.53436 51.28
5 0 1 o 15663.666 15747.829 90.00 2.38378 6.86
3 2 0 o 2919.602 3248.261 0.00 4.35372 3.01
4 3 1 o 315.486 316.710 106.59 2.38378 0.54
5 1 1 o 4761.880 4881.695 1.00 2.35676 3.68
4 0 0 o 2388.604 2716.549 0.00 3.92439 1.09
5 2 1 o 3751.024 5235.792 81.60 2.28090 3.02
4 1 0 o 19576.773 21910.830 -180.00 3.80722 19.14
6 0 1 o 24.074 30.809 -180.00 2.12900 0.00
4 4 1 o 42359.18 44241.64 -70.85 2.21192 11.40
3 3 0 o 11223.430 12174.482 -180.00 3.69995 4.27
5 3 1 o 1222.845 1144.562 21.90 2.16927 0.82
4 2 0 o 4026.941 4158.712 180.00 3.51008 2.92
6 1 1 o 1553.544 2332.244 -115.52 2.10968 0.55
6 2 1 o 14164.121 13369.495 -144.06 2.05475 11.65
5 4 1 o 4968.934 4063.045 4.91 2.03737 1.23
4 3 0 o 20238.586 18926.682 -180.00 3.13952 10.85
5 1 0 o 1785.601 1588.550 0.00 3.07855 1.12
7 0 1 o 0.000 4592.636 90.00 1.91257 0.00
7 1 1 o 0.000 277.299 154.73 1.89853 0.00
6 3 1 o 2401.916 2185.412 11.02 1.97201 2.57
5 2 0 o 981.238 1027.760 0.00 2.91497 0.53
5 5 1 o 3545.787 4331.854 40.29 1.89853 0.52
4 4 0 o 17478.098 20638.600 0.00 2.77497 3.74
6 4 1 o 737.465 1266.911 -62.01 1.87135 0.72
5 3 0 o 2.184 2.830 0.00 2.69211 0.00
6 0 0 o 39874.90 35007.793 -180.00 2.61626 8.08
6 1 0 o 12086.642 12061.495 180.00 2.58067 5.23
6 2 0 o 67028.90 57077.48 -180.00 2.48200 27.56
5 4 0 o 13111.806 11149.847 0.00 2.45155 4.31
6 3 0 o 12275.084 11348.166 -180.00 2.34006 3.96
5 5 0 o 6266.848 5700.288 0.00 2.21997 0.86
7 1 0 o 505.321 459.172 180.00 2.21997 0.16
6 4 0 o 575.611 408.730 0.00 2.17686 0.15
7 2 0 o 13310.089 9704.162 180.00 2.15623 4.19
7 3 0 o 1544.902 1473.393 180.00 2.06119 0.41
6 5 0 o 8520.674 4304.656 -180.00 2.00987 1.89
8 0 0 o 1807.932 2534.891 180.00 1.96220 0.21
8 1 0 o 6145.638 5972.648 -180.00 1.94704 1.47
7 4 0 o 1588.825 1544.586 -180.00 1.94704 0.34
8 2 0 o 5844.232 6022.389 180.00 1.90361 1.43
