#------------------------------------------------------------------------------
#$Date: 2019-11-23 19:01:24 +0200 (Sat, 23 Nov 2019) $
#$Revision: 234556 $
#$URL: file:///home/coder/svn-repositories/cod/cif/7/12/51/7125150.cif $
#------------------------------------------------------------------------------
#
# This file is available in the Crystallography Open Database (COD),
# http://www.crystallography.net/
#
# All data on this site have been placed in the public domain by the
# contributors.
#
data_7125150
loop_
_publ_author_name
'Lekin, Kristina'
'Ogata, Kazuma'
'Maclean, Adrian'
'Mailman, Aaron'
'Winter, Stephen M.'
'Assoud, Abdeljalil'
'Mito, Masaki'
'Tse, John S.'
'Desgreniers, Serge'
'Hirao, Naohisa'
'Dube, Paul A.'
'Oakley, Richard T.'
_publ_section_title
;
 Pushing T<sub>C</sub> to 27.5 K in a heavy atom radical ferromagnet.
;
_journal_issue                   96
_journal_name_full
'Chemical communications (Cambridge, England)'
_journal_page_first              13877
_journal_page_last               13880
_journal_paper_doi               10.1039/c6cc07142b
_journal_volume                  52
_journal_year                    2016
_chemical_formula_moiety         'C7 H5 I1 N3 Se4'
_chemical_formula_sum            'C7 H5 I N3 Se4'
_chemical_formula_weight         573.88
_chemical_melting_point_gt       400
_chemical_name_common            IBPSSEt
_chemical_name_systematic
; 
8-iodo-4-ethyl-4H-bis[1,2,3]diselenazolo[4,5-b:5',4'-e]pyridin-2-yl
;
_space_group_IT_number           113
_space_group_name_Hall           'P -4 2ab'
_space_group_name_H-M_alt        'P -4 21 m'
_symmetry_cell_setting           tetragonal
_symmetry_space_group_name_Hall  'P -4 2ab'
_symmetry_space_group_name_H-M   'P -4 21 m'
_audit_creation_date             2016-08-29T13:47
_audit_creation_method           'from EXP file using GSAS2CIF'
_audit_update_record
' 2016-08-29T13:47  Initial CIF as created by GSAS2CIF'
_cell_angle_alpha                90.0
_cell_angle_beta                 90.0
_cell_angle_gamma                90.0
_cell_formula_units_Z            4
_cell_length_a                   15.8651(16)
_cell_length_b                   15.8651
_cell_length_c                   3.7650(26)
_cell_measurement_temperature    293(2)
_cell_volume                     947.7(7)
_computing_structure_refinement  GSAS
_diffrn_ambient_temperature      293(2)
_diffrn_measurement_device_type  'SPring-8 BL10XU'
_diffrn_radiation_polarisn_ratio 0.95
_diffrn_radiation_probe          x-ray
_diffrn_radiation_type           Synchrotron
_diffrn_radiation_wavelength     0.41358
_diffrn_source                   Synchrotron
_exptl_absorpt_correction_T_max  1.00000
_exptl_absorpt_correction_T_min  1.00000
_exptl_absorpt_process_details
;   GSAS Absorption/surface roughness correction: function number 0
 No correction is applied.
;
_exptl_crystal_colour            black
_exptl_crystal_density_diffrn    4.022
_pd_block_id
2016-08-29T13:47|IBPSSET_552_DONE|Oakley|SPring-8
_pd_calc_method                  'Rietveld Refinement'
_pd_instr_location               ' ?'
_pd_phase_name
'from C:/gsas/MyWork/IBPSSEt/5.52GPa/5.52 GPa_RT.cif'
_pd_proc_info_datetime           2016-08-29T13:47:53
_pd_proc_info_excluded_regions   ' ?'
_pd_proc_ls_background_function
;   GSAS Background function number 1 with  8 terms.
 Shifted Chebyshev function of 1st kind
      1:    2330.43     2:    1030.80     3:   -100.708     4:   -46.4414    
      5:    19.1876     6:    14.9250     7:   -4.09177     8:    2.63987    
;
_pd_proc_ls_peak_cutoff          0.00100
_pd_proc_ls_profile_function
;
 CW Profile function number 2 with  18 terms
 Profile coefficients for Simpson's rule integration of pseudovoigt function
 C.J. Howard (1982). J. Appl. Cryst.,15,615-620.
 P. Thompson, D.E. Cox & J.B. Hastings (1987). J. Appl. Cryst.,20,79-83.
 #1(GU)   =  542.334 #2(GV)   =    7.285 #3(GW)   =    0.843
 #4(LX)   =    1.246 #5(LY)   =   64.182 #6(trns) =   -8.594
 #7(asym) =  -0.0059 #8(shft) =   0.0139 #9(GP)   =    0.308
 #10(stec)=   464.02 #11(ptec)=     1.27 #12(sfec)=     0.00
 #13(L11) =    0.000 #14(L22) =    0.000 #15(L33) =    0.000
 #16(L12) =    0.000 #17(L13) =    0.011 #18(L23) =   -0.030
 Peak tails are ignored  where the intensity is below 0.0010 times the peak
   Aniso. broadening axis   0.0   0.0   1.0
;
_pd_proc_ls_prof_R_factor        0.0456
_pd_proc_ls_prof_wR_expected     0.0186
_pd_proc_ls_prof_wR_factor       0.0593
_pd_spec_mounting                ' ?'
_refine_ls_goodness_of_fit_all   3.20
_refine_ls_matrix_type           full
_refine_ls_number_parameters     1
_refine_ls_number_restraints     0
_refine_ls_R_Fsqd_factor         0.21246
_refine_ls_shift/su_max          0.02
_refine_ls_shift/su_mean         0.02
_reflns_d_resolution_high        1.900
_reflns_d_resolution_low         7.933
_reflns_limit_h_max              12
_reflns_limit_h_min              0
_reflns_limit_k_max              8
_reflns_limit_k_min              0
_reflns_limit_l_max              2
_reflns_limit_l_min              0
_reflns_number_total             57
_cod_data_source_file            c6cc07142b4.cif
_cod_data_source_block           1c_5_5_GPa
_cod_depositor_comments
;
The following automatic conversions were performed:

data name '_chemical_melting_point' was changed to
'_chemical_melting_point_gt' since the value was specified as 'more
than' ('>') a certain temperature.

data item '_geom_angle_publ_flag' value 'N' was changed to 'n' in
accordance with the
/home/saulius/struct/COD-crude-data/automatic-downloads/DataCite-retrospective/RSC/depositions/lib/dictionaries/cif_core.dic
dictionary named 'cif_core.dic' version 2.4.2 last updated on
2011-04-26 (17 times).

data item '_geom_bond_publ_flag' value 'N' was changed to 'n' in
accordance with the
/home/saulius/struct/COD-crude-data/automatic-downloads/DataCite-retrospective/RSC/depositions/lib/dictionaries/cif_core.dic
dictionary named 'cif_core.dic' version 2.4.2 last updated on
2011-04-26 (12 times).

Automatic conversion script
Id: cif_fix_values 6909 2019-04-08 15:41:33Z antanas 
;
_cod_database_code               7125150
_gsas_exptl_extinct_corr_t_min   1.00000
_gsas_exptl_extinct_corr_t_max   1.00000
loop_
_symmetry_equiv_pos_site_id
_symmetry_equiv_pos_as_xyz
1 +x,+y,+z
2 +y,-x,-z
3 -x,-y,+z
4 -y,+x,-z
5 -x+1/2,+y+1/2,-z
6 +y+1/2,+x+1/2,+z
7 +x+1/2,-y+1/2,-z
8 -y+1/2,-x+1/2,+z
loop_
_atom_site_type_symbol
_atom_site_label
_atom_site_fract_x
_atom_site_fract_y
_atom_site_fract_z
_atom_site_occupancy
_atom_site_thermal_displace_type
_atom_site_U_iso_or_equiv
_atom_site_symmetry_multiplicity
I I1 -0.93008 0.43008 0.24559 1.0 Uiso 0.1214 4
N N2 -0.75296 0.25296 -0.48998 1.0 Uiso 0.1214 4
C C3 -0.85123 0.35123 -0.04487 1.0 Uiso 0.1214 4
C C4 -0.70239 0.20239 -0.73875 1.0 Uiso 0.1214 4
C C5 -0.64217 0.14217 -0.56437 1.0 Uiso 0.1214 4
H H5A -0.61046 0.11046 -0.74038 1.0 Uiso 0.2428 4
Se Se1 -0.60246 0.44961 -0.29178 1.0 Uiso 0.1214 8
Se Se2 -0.72891 0.48584 -0.00108 1.0 Uiso 0.1214 8
N N1 -0.64142 0.3501 -0.45667 1.0 Uiso 0.1214 8
C C1 -0.71798 0.32882 -0.36392 1.0 Uiso 0.1214 8
C C2 -0.77179 0.38103 -0.14721 1.0 Uiso 0.1214 8
H H4A -0.67044 0.24119 -0.88836 1.0 Uiso 0.2428 8
H H5B -0.60342 0.17571 -0.41719 1.0 Uiso 0.2428 8
loop_
_atom_type_symbol
_atom_type_number_in_cell
_atom_type_scat_dispersion_real
_atom_type_scat_dispersion_imag
_atom_type_scat_Cromer_Mann_a1
_atom_type_scat_Cromer_Mann_a2
_atom_type_scat_Cromer_Mann_a3
_atom_type_scat_Cromer_Mann_a4
_atom_type_scat_Cromer_Mann_b1
_atom_type_scat_Cromer_Mann_b2
_atom_type_scat_Cromer_Mann_b3
_atom_type_scat_Cromer_Mann_b4
_atom_type_scat_Cromer_Mann_c
_atom_type_scat_source
I 4.0 0.000 0.000 20.1472 4.34700 18.9949 0.38140 7.51380 27.7660 2.27350
66.8776 4.07120 International_Tables_Vol_C
N 12.0 0.000 0.000 12.2126 0.00570 3.13220 9.89330 2.01250 28.9975 1.16630
0.58260 -11.529 International_Tables_Vol_C
C 28.0 0.000 0.000 2.31000 20.8439 1.02000 10.2075 1.58860 0.56870 0.86500
51.6512 0.21560 International_Tables_Vol_C
H 20.0 0.000 0.000 0.49300 10.5109 0.32291 26.1257 0.14019 3.14236 0.04081
57.7997 0.00304 International_Tables_Vol_C
Se 16.0 0.000 0.000 17.0006 2.40980 5.81960 0.27260 3.97310 15.2372 4.35430
43.8163 2.84090 International_Tables_Vol_C
loop_
_geom_angle_atom_site_label_1
_geom_angle_atom_site_label_2
_geom_angle_atom_site_label_3
_geom_angle
_geom_angle_site_symmetry_1
_geom_angle_site_symmetry_3
_geom_angle_publ_flag
C4 N2 C1 117.766 1_555 1_555 n
I1 C3 C2 118.882 1_555 1_555 n
N2 C4 C5 114.54 1_555 1_555 n
N2 C4 H4A 107.854 1_555 1_555 n
C5 C4 H4A 108.842 1_555 1_555 n
C4 C5 H5A 111.12 1_555 1_555 n
C4 C5 H5B 107.432 1_555 1_555 n
H5A C5 H5B 109.900 1_555 1_555 n
Se2 Se1 N1 94.677 1_555 1_555 n
Se1 Se2 C2 87.499 1_555 1_555 n
Se1 N1 C1 116.856 1_555 1_555 n
N2 C1 N1 119.781 1_555 1_555 n
N2 C1 C2 116.637 1_555 1_555 n
N1 C1 C2 123.527 1_555 1_555 n
C3 C2 Se2 122.966 1_555 1_555 n
C3 C2 C1 119.637 1_555 1_555 n
Se2 C2 C1 117.357 1_555 1_555 n
loop_
_geom_bond_atom_site_label_1
_geom_bond_atom_site_label_2
_geom_bond_distance
_geom_bond_site_symmetry_2
_geom_bond_publ_flag
I1 C3 2.0798 1_555 n
N2 C4 1.4713 1_555 n
N2 C1 1.40774 1_555 n
C4 C5 1.50221 1_555 n
C4 H4A 0.97630 1_555 n
C5 H5B 0.98395 1_555 n
Se1 Se2 2.3565 1_555 n
Se1 N1 1.80552 1_555 n
Se2 C2 1.87896 1_555 n
N1 C1 1.30815 1_555 n
C1 C2 1.44245 1_555 n
C2 C3 1.40015 1_555 n
loop_
_refln_index_h
_refln_index_k
_refln_index_l
_refln_observed_status
_refln_F_squared_meas
_refln_F_squared_calc
_refln_phase_calc
_refln_d_spacing
_gsas_i100_meas
0 0 1 o 4661.117 4750.722 0.00 3.76504 3.03
2 0 1 o 7.445 8.399 180.00 3.40136 0.01
1 0 1 o 7780.327 7987.545 -90.00 3.66330 10.34
1 1 1 o 11162.534 11731.970 169.71 3.56938 8.71
2 1 1 o 37692.44 37574.06 77.70 3.32579 54.79
3 0 1 o 1220.583 1256.570 90.00 3.06713 0.89
2 0 0 o 19469.258 21002.828 0.00 7.93257 35.55
2 2 1 o 109971.59 110912.40 139.15 3.12610 100.00
3 1 1 o 254.892 275.218 123.45 3.01137 0.43
2 1 0 o 11322.354 12052.214 0.00 7.09510 27.68
4 0 1 o 49908.54 52025.66 0.00 2.73066 17.59
3 2 1 o 1416.415 1926.751 133.24 2.86074 2.47
4 1 1 o 4242.555 3955.426 63.91 2.69109 4.05
2 2 0 o 1035.079 1777.591 -180.00 5.60917 0.76
3 3 1 o 15835.917 14356.751 -147.97 2.65319 10.36
3 1 0 o 2873.094 3239.891 -180.00 5.01699 3.74
4 2 1 o 51109.52 51619.12 80.69 2.58196 56.72
5 0 1 o 43540.98 39708.86 90.00 2.42630 0.60
5 1 1 o 16138.950 16347.397 0.01 2.39841 4.20
5 2 1 o 8483.310 11874.029 113.74 2.32019 4.48
3 2 0 o 3468.885 4162.802 180.00 4.40020 3.17
4 3 1 o 1797.290 1617.609 177.50 2.42630 1.37
5 3 1 o 5926.753 5827.436 -24.28 2.20528 2.40
4 0 0 o 3082.417 6245.624 0.00 3.96628 1.41
6 0 1 o 0.000 569.068 0.00 2.16386 0.00
4 1 0 o 30502.406 30957.559 0.00 3.84786 24.33
6 1 1 o 0.000 3715.008 -98.56 2.14401 0.00
4 4 1 o 80740.44 83347.43 57.85 2.24916 13.03
3 3 0 o 30102.951 22604.588 180.00 3.73945 9.85
4 2 0 o 8608.745 8571.367 -180.00 3.54755 5.27
6 2 1 o 38128.60 29983.652 141.45 2.08759 8.56
5 4 1 o 19984.760 14312.077 174.51 2.06975 2.03
6 3 1 o 10748.507 11362.878 171.41 2.00270 2.58
4 3 0 o 37668.41 38102.11 0.00 3.17303 17.83
7 0 1 o 0.000 23469.262 90.00 1.94177 0.00
5 1 0 o 4400.107 4892.649 0.00 3.11141 2.35
7 1 1 o 0.000 889.594 147.69 1.92739 0.00
5 5 1 o 0.000 23292.760 -54.53 1.92739 0.00
6 4 1 o 1275.159 2561.256 39.99 1.89956 0.08
5 2 0 o 337.928 380.409 180.00 2.94608 0.15
4 4 0 o 19555.002 25093.275 0.00 2.80459 3.60
5 3 0 o 615.670 549.083 180.00 2.72085 0.22
6 0 0 o 49171.65 42201.07 180.00 2.64419 9.99
6 1 0 o 22349.508 19666.811 0.00 2.60821 8.52
6 2 0 o 113419.03 104806.67 180.00 2.50850 36.97
5 4 0 o 14069.353 11470.967 -180.00 2.47772 4.06
6 3 0 o 25157.559 35456.12 0.00 2.36503 6.85
7 1 0 o 916.169 1068.740 0.00 2.24367 0.26
5 5 0 o 2780.039 3251.851 0.00 2.24367 0.33
7 2 0 o 25689.699 29251.031 0.00 2.17924 6.47
6 4 0 o 2.967 2.388 180.00 2.20010 0.00
7 3 0 o 6327.555 4034.389 180.00 2.08319 1.37
6 5 0 o 21800.162 13954.002 0.00 2.03132 4.23
8 0 0 o 27.352 42.021 0.00 1.98314 0.00
8 1 0 o 10156.572 13604.923 0.00 1.96783 2.24
7 4 0 o 6934.615 9283.867 0.00 1.96783 1.29
8 2 0 o 6799.527 11631.667 -180.00 1.92393 1.36
