#------------------------------------------------------------------------------
#$Date: 2020-07-06 04:48:32 +0300 (Mon, 06 Jul 2020) $
#$Revision: 253788 $
#$URL: file:///home/coder/svn-repositories/cod/cif/7/12/66/7126615.cif $
#------------------------------------------------------------------------------
#
# This file is available in the Crystallography Open Database (COD),
# http://www.crystallography.net/
#
# All data on this site have been placed in the public domain by the
# contributors.
#
data_7126615
loop_
_publ_author_name
'Zapata, Fabiola'
'Gonz\'alez, Lidia'
'Bastida, Adolfo'
'Bautista, Delia'
'Caballero, Antonio'
_publ_section_title
;
 Formation of self-assembled supramolecular polymers by anti-electrostatic
 anion-anion and halogen bonding interactions.
;
_journal_issue                   52
_journal_name_full
'Chemical communications (Cambridge, England)'
_journal_page_first              7084
_journal_page_last               7087
_journal_paper_doi               10.1039/d0cc02831b
_journal_volume                  56
_journal_year                    2020
_chemical_formula_moiety         'C6 H9 N3 O2'
_chemical_formula_sum            'C6 H9 N3 O2'
_chemical_formula_weight         155.16
_chemical_name_common            L-Histidine
_chemical_name_systematic        L-Histidine
_space_group_crystal_system      orthorhombic
_space_group_IT_number           19
_space_group_name_Hall           'P 2ac 2ab'
_space_group_name_H-M_alt        'P 21 21 21'
_atom_sites_solution_hydrogens   geom
_audit_block_doi                 10.5517/ccdc.csd.cc21fd74
_audit_creation_method           SHELXL-2018/3
_audit_update_record
;
2019-01-09 deposited with the CCDC.	2020-05-22 downloaded from the CCDC.
;
_cell_angle_alpha                90
_cell_angle_beta                 90
_cell_angle_gamma                90
_cell_formula_units_Z            4
_cell_length_a                   5.27(5)
_cell_length_b                   7.44(5)
_cell_length_c                   18.99(8)
_cell_measurement_reflns_used    25
_cell_measurement_temperature    96(2)
_cell_measurement_theta_max      0.00
_cell_measurement_theta_min      0.00
_cell_volume                     745(9)
_computing_cell_refinement       'XDS(Kabsch, 2018)'
_computing_data_collection       'XDS(Kabsch, 2018)'
_computing_data_reduction        'XDS(Kabsch, 2018)'
_computing_structure_refinement  'SHELXL-2018/3 (Sheldrick, 2018)'
_computing_structure_solution    'SIR2014 (Burla et al., 2015)'
_diffrn_ambient_temperature      96(2)
_diffrn_measured_fraction_theta_full 0.882
_diffrn_measured_fraction_theta_max 0.882
_diffrn_measurement_device_type  JEM-2200FS
_diffrn_measurement_method       'rotation electron diffraction'
_diffrn_radiation_type           electron
_diffrn_radiation_wavelength     0.02508
_diffrn_reflns_av_unetI/netI     0.2356
_diffrn_reflns_Laue_measured_fraction_full 0.882
_diffrn_reflns_Laue_measured_fraction_max 0.882
_diffrn_reflns_limit_h_max       5
_diffrn_reflns_limit_h_min       0
_diffrn_reflns_limit_k_max       7
_diffrn_reflns_limit_k_min       0
_diffrn_reflns_limit_l_max       18
_diffrn_reflns_limit_l_min       0
_diffrn_reflns_number            417
_diffrn_reflns_point_group_measured_fraction_full 0.558
_diffrn_reflns_point_group_measured_fraction_max 0.558
_diffrn_reflns_theta_full        0.708
_diffrn_reflns_theta_max         0.708
_diffrn_reflns_theta_min         0.076
_exptl_absorpt_coefficient_mu    0.012
_exptl_absorpt_correction_T_max  0.00
_exptl_absorpt_correction_T_min  0.00
_exptl_absorpt_correction_type   psi-scan
_exptl_crystal_colour            colourless
_exptl_crystal_density_diffrn    1.384
_exptl_crystal_description       nanocrystal
_exptl_crystal_F_000             328
_refine_diff_density_max         0.647
_refine_diff_density_min         -0.844
_refine_diff_density_rms         0.224
_refine_ls_abs_structure_details
;
 All f" are zero, so absolute structure could not be determined
;
_refine_ls_extinction_method     none
_refine_ls_goodness_of_fit_ref   1.539
_refine_ls_hydrogen_treatment    mixed
_refine_ls_matrix_type           full
_refine_ls_number_parameters     50
_refine_ls_number_reflns         417
_refine_ls_number_restraints     4
_refine_ls_restrained_S_all      1.533
_refine_ls_R_factor_all          0.2041
_refine_ls_R_factor_gt           0.1981
_refine_ls_shift/su_max          0.003
_refine_ls_shift/su_mean         0.001
_refine_ls_structure_factor_coef Fsqd
_refine_ls_weighting_details
'w=1/[\s^2^(Fo^2^)+(0.2000P)^2^] where P=(Fo^2^+2Fc^2^)/3'
_refine_ls_weighting_scheme      calc
_refine_ls_wR_factor_gt          0.4176
_refine_ls_wR_factor_ref         0.4285
_reflns_Friedel_coverage         0.000
_reflns_Friedel_fraction_full    0.000
_reflns_Friedel_fraction_max     0.000
_reflns_number_gt                383
_reflns_number_total             417
_reflns_threshold_expression     'I > 2\s(I)'
_cod_data_source_file            d0cc02831b2.cif
_cod_data_source_block           l-histidine-A
_cod_depositor_comments          'Adding full bibliography for 7126615.cif.'
_cod_database_code               7126615
_shelx_shelxl_version_number     2018/3
_shelx_space_group_comment
;
The symmetry employed for this shelxl refinement is uniquely defined
by the following loop, which should always be used as a source of
symmetry information in preference to the above space-group names.
They are only intended as comments.
;
_shelx_res_file
;
REM
REM  Shelx file produced by Sir2014 on Mon Dec  3  2018 at 14:37:45
REM  Structure name: l-histidine-A_54
REM
TITL        l-histidine-A
    l-histidine-A.res
    created by SHELXL-2018/3 at 14:46:24 on 03-Dec-2018
CELL   0.02508     5.2700   7.4400  18.9900  90.0000  90.0000  90.0000
ZERR         4     0.0500   0.0500   0.0800   0.0000   0.0000   0.0000
LATT -1
SYMM 1/2-X,-Y,1/2+Z
SYMM 1/2+X,1/2-Y,-Z
SYMM -X,1/2+Y,1/2-Z
SFAC C H N O
DISP $C -0.00207  0.00000  1.71431!source kissel
DISP $H -0.00003  0.00000  0.28068!source kissel
DISP $N -0.00297  0.00000  1.98641!source kissel
DISP $O -0.00407  0.00000  2.24749!source kissel
UNIT 24 36 12 8
LIST 6 ! automatically inserted. Change 6 to 4 for CHECKCIF!!
L.S.      20
TEMP   -177
BOND    $H
DFIX 1.12  0.2  C2 H2 C5 H5 C6 H6
DFIX 1.07  0.2  N3 H3
FMAP      2
PLAN     20
ACTA
WGHT    0.200000
FVAR       5.24679
C4    1    0.312111    0.454124    0.056407    11.00000    0.01945
N2    3    0.534957    0.557167    0.053309    11.00000    0.02002
C5    1    0.554013    0.575480   -0.016758    11.00000    0.02058
AFIX  44
H5    2    0.688940    0.633117   -0.036730    11.00000   -1.20000
AFIX   0
N1    3    0.415826    0.679492    0.190511    11.00000    0.01480
AFIX 137
H1A   2    0.384187    0.783739    0.213987    11.00000   -1.50000
H1B   2    0.486885    0.704869    0.147983    11.00000   -1.50000
H1C   2    0.524429    0.610549    0.216170    11.00000   -1.50000
AFIX   0
C6    1    0.202005    0.429519   -0.003787    11.00000    0.01256
AFIX  44
H6    2    0.035170    0.369414   -0.013221    11.00000   -1.20000
AFIX   0
C2    1    0.163154    0.575908    0.179232    11.00000    0.01806
AFIX  14
H2    2    0.024454    0.661466    0.153364    11.00000   -1.20000
AFIX   0
O1    4   -0.177255    0.489888    0.260605    11.00000    0.05456
C3    1    0.218489    0.406414    0.133555    11.00000    0.02407
AFIX  23
H3A   2    0.349881    0.332942    0.157212    11.00000   -1.20000
H3B   2    0.062230    0.333012    0.130335    11.00000   -1.20000
AFIX   0
O2    4    0.220270    0.491642    0.302101    11.00000    0.03301
N3    3    0.375748    0.509061   -0.054681    11.00000    0.02927
AFIX  44
H3    2    0.359346    0.511402   -0.108326    11.00000   -1.20000
AFIX   0
C1    1    0.067093    0.519089    0.252598    11.00000    0.00560

HKLF      4




REM         l-histidine-A
REM wR2 = 0.4285, GooF = S = 1.539, Restrained GooF = 1.533 for all data
REM R1 = 0.1981 for 383 Fo > 4sig(Fo) and 0.2041 for all 417 data
REM 50 parameters refined using 4 restraints

END

WGHT      0.2000      0.0000

REM Highest difference peak  0.647,  deepest hole -0.844,  1-sigma level  0.224
Q1    1   0.2992  0.2460  0.1642  11.00000  0.05    0.65
Q2    1  -0.2357  0.3386 -0.0326  11.00000  0.05    0.56
Q3    1  -0.0913  0.1925  0.1378  11.00000  0.05    0.55
Q4    1   0.2687  0.1427  0.1583  11.00000  0.05    0.53
Q5    1   0.7054  0.2731  0.1559  11.00000  0.05    0.50
Q6    1   0.1896  0.2671  0.2224  11.00000  0.05    0.49
Q7    1   0.5945  0.7197 -0.0881  11.00000  0.05    0.48
Q8    1   0.2889  0.8106  0.1638  11.00000  0.05    0.48
Q9    1  -0.0531  0.3142  0.0762  11.00000  0.05    0.48
Q10   1   0.1330  0.2711  0.1323  11.00000  0.05    0.46
Q11   1  -0.1403  0.6667  0.1386  11.00000  0.05    0.45
Q12   1   0.6570  0.6637 -0.0189  11.00000  0.05    0.45
Q13   1  -0.2062  0.3607  0.0423  11.00000  0.05    0.43
Q14   1   0.7564  0.7284  0.1581  11.00000  0.05    0.41
Q15   1   0.2892  0.7034  0.1066  11.00000  0.05    0.41
Q16   1   0.5163  0.8001  0.1027  11.00000  0.05    0.41
Q17   1  -0.1563  0.6964  0.2176  11.00000  0.05    0.41
Q18   1   0.4352  0.7369  0.1361  11.00000  0.05    0.40
Q19   1   0.4839  0.7667  0.1217  11.00000  0.05    0.40
Q20   1   0.0889  0.7680  0.1454  11.00000  0.05    0.40
;
_shelx_res_checksum              86655
_shelx_hkl_file
;
   0   0   2 2770.08 1376.75   1
   0   0   3  135.67  143.67   1
   0   0   492561.8432333.17   1
   0   0   5  300.39  203.18   1
   0   0   6 4421.57 1523.90   1
   0   0   7  153.71  197.69   1
   0   0   827952.21 9743.22   1
   0   0   9  163.93  187.92   1
   0   0  1018833.01 6688.37   1
   0   0  11   94.60  165.91   1
   0   0  12 4908.73 1757.84   1
   0   0  13  105.22  153.74   1
   0   0  14  850.05  349.10   1
   0   0  15   49.05  139.64   1
   0   0  1626654.3410287.71   1
   0   0  17    2.84  118.84   1
   0   0  18  110.07  114.06   1
   0   1   0   43.15  103.41   1
   0   1   1 3251.18 1087.72   1
   0   1   4 7907.08 2010.77   1
   0   1   528212.84 7730.82   1
   0   1   623645.09 7532.19   1
   0   1   716331.06 4403.75   1
   0   1   8 8167.70 2242.22   1
   0   1   9 8564.74 2233.12   1
   0   1  1040911.2110908.70   1
   0   1  11 6453.75 1679.13   1
   0   1  1213813.06 3747.83   1
   0   1  13 8590.42 2583.89   1
   0   1  1421246.88 6193.83   1
   0   1  15  808.48  455.66   1
   0   1  16 2790.43 1441.14   1
   0   1  17  190.51  214.89   1
   0   1  18  260.16  232.13   1
   0   2   099999.0031760.41   1
   0   2   1 9729.79 2127.58   1
   0   2   2 7538.17 2172.59   1
   0   2   8  554.52  184.59   1
   0   2   910502.49 2376.22   1
   0   2  1013316.07 3136.29   1
   0   2  11 1623.93  531.00   1
   0   2  12 1224.63  402.70   1
   0   2  13 3244.41 1136.80   1
   0   2  14 1159.09  344.68   1
   0   2  15 7287.39 1910.09   1
   0   2  1620996.10 5762.25   1
   0   2  17  319.03  150.57   1
   0   2  18  685.02  262.78   1
   0   3   0  -31.61  153.59   1
   0   3   1 1298.38  327.73   1
   0   3   230455.3610171.51   1
   0   3   3 1340.86  463.88   1
   0   3  11 2321.59  904.12   1
   0   3  12  976.89  288.98   1
   0   3  13 1843.56  571.90   1
   0   3  14 1412.17  359.48   1
   0   3  15 6205.04 1658.14   1
   0   3  16  797.17  316.46   1
   0   3  17  328.10  201.65   1
   0   4   027580.79 8767.93   1
   0   4   1 2341.70  493.29   1
   0   4   211544.15 2408.69   1
   0   4   3  776.32  345.19   1
   0   4   412707.81 4302.56   1
   0   4   5  482.44  606.49   1
   0   4  14 2000.80 1176.92   1
   0   4  15 2116.83  878.97   1
   0   5   0  -13.81  215.30   1
   0   5   1  856.62  273.98   1
   0   5   210937.21 2572.89   1
   0   5   3  272.47  232.99   1
   0   5   4  757.86  413.66   1
   0   5   5 1992.14  793.87   1
   0   5   6 1391.68  836.15   1
   0   6   1  505.61  263.97   1
   0   6   219935.05 4378.90   1
   0   6   3  327.54  281.78   1
   0   6   4 1665.62  729.05   1
   0   6   5 1752.15  775.78   1
   0   6   611217.17 3969.65   1
   0   6   7  340.43  765.19   1
   0   7   0  108.78  349.50   1
   0   7   1  971.87  492.34   1
   0   7   2 8990.05 2189.17   1
   0   7   3 3001.33  816.75   1
   0   7   4  640.12  357.50   1
   0   7   5 1559.35  937.34   1
   1   0   1 9042.69 4539.04   1
   1   0   237886.77 9763.02   1
   1   0   312137.35 2566.35   1
   1   0   411659.23 2504.10   1
   1   0   5 4610.94  744.44   1
   1   0   6 3080.42  612.59   1
   1   0   725392.23 8129.85   1
   1   0   8 7449.64 2370.59   1
   1   0   928955.21 9216.48   1
   1   0  10 2427.29  484.26   1
   1   0  11 1963.26  408.56   1
   1   0  12 2539.72  577.79   1
   1   0  1313575.21 3034.90   1
   1   0  14 1522.61  306.10   1
   1   0  15  517.13  176.30   1
   1   0  16 1463.85  420.77   1
   1   0  17 2682.21  750.12   1
   1   0  18 7395.24 2056.16   1
   1   1   071881.3823642.54   1
   1   1   142675.80 6871.85   1
   1   1   210583.33 1610.59   1
   1   1   325432.59 4189.51   1
   1   1   410244.92 1610.88   1
   1   1   5 7543.30 1082.80   1
   1   1   614687.44 1958.47   1
   1   1   729173.69 4856.81   1
   1   1   825556.04 4371.79   1
   1   1   910638.97 1591.58   1
   1   1  10 5149.32  919.56   1
   1   1  1112999.66 2036.71   1
   1   1  12 5188.08  980.82   1
   1   1  13 6817.77 1210.85   1
   1   1  14 9626.86 2007.48   1
   1   1  15 6796.68 2502.04   1
   1   1  1617706.21 3475.26   1
   1   1  17 2881.09  660.07   1
   1   1  18  458.72  167.86   1
   1   2   052018.5210254.12   1
   1   2   162131.88 8837.69   1
   1   2   219243.02 2960.45   1
   1   2   340296.11 7218.46   1
   1   2   414473.71 3810.91   1
   1   2   5 5832.89 1583.05   1
   1   2   612287.72 2431.14   1
   1   2   711593.24 2012.37   1
   1   2   8 2396.16  404.80   1
   1   2   9 8161.15 1308.63   1
   1   2  10 1800.18  483.95   1
   1   2  1110625.29 2196.72   1
   1   2  12 9510.67 2212.27   1
   1   2  1313237.19 2322.34   1
   1   2  14 3684.01  848.40   1
   1   2  15 4725.22  783.69   1
   1   2  16 2324.93  424.61   1
   1   2  17 5395.73  986.31   1
   1   3   020123.71 4444.83   1
   1   3   114489.47 2397.63   1
   1   3   211951.09 1656.47   1
   1   3   322047.12 2984.36   1
   1   3   4 4164.99  704.09   1
   1   3   5 3495.22  595.42   1
   1   3   6 1864.22  395.60   1
   1   3   7 7313.25 1787.67   1
   1   3   817361.34 4071.78   1
   1   3   9 1288.14  311.38   1
   1   3  10  492.24  194.01   1
   1   3  1112635.73 2632.19   1
   1   3  1217043.00 4312.17   1
   1   3  1322371.44 4938.82   1
   1   3  14 1577.57  685.45   1
   1   3  15  351.30  279.59   1
   1   3  16 1735.20  669.52   1
   1   4   0  974.49  403.53   1
   1   4   117145.38 2352.89   1
   1   4   222044.96 3081.20   1
   1   4   3 9260.81 1465.25   1
   1   4   4 4276.56  639.19   1
   1   4   5 9389.91 1545.05   1
   1   4   6 1754.56  344.70   1
   1   4   7 3379.84  714.02   1
   1   4   8 3396.47  804.26   1
   1   4   9 1786.03  476.71   1
   1   4  10 1442.77  410.97   1
   1   4  11 2984.11  797.25   1
   1   4  12 1550.94  410.01   1
   1   4  13 1046.13  366.08   1
   1   4  14 4136.43 1634.44   1
   1   5   0  326.67  226.45   1
   1   5   1 1901.08  439.31   1
   1   5   2 1391.28  379.51   1
   1   5   3 7760.99 1645.20   1
   1   5   4 2476.55  590.66   1
   1   5   5 1270.91  481.74   1
   1   5   6  872.34  432.10   1
   1   5   7 2103.62  508.89   1
   1   5   8 7987.02 1791.34   1
   1   5   9 2950.83  894.34   1
   1   5  10 1501.43  842.80   1
   1   5  11 1213.23  634.41   1
   1   6   0  762.52  324.57   1
   1   6   1 1809.59  381.84   1
   1   6   2 4678.16  824.60   1
   1   6   3 2684.38  693.23   1
   1   6   4  342.15  223.10   1
   1   6   5 5267.32 1250.94   1
   1   6   6  426.46  431.44   1
   1   6   7 2597.25  962.42   1
   1   6   8 1297.23  730.79   1
   1   6   9 2160.10  668.02   1
   1   6  10  288.03   92.26   1
   1   7   0 1160.73  417.42   1
   1   7   1 1564.29  370.63   1
   1   7   2 1004.07  288.73   1
   1   7   3 2985.42  667.87   1
   1   7   4  681.70  313.31   1
   2   0   2 3631.82 1817.94   1
   2   0   3 5755.98 1284.84   1
   2   0   4 3189.38  824.87   1
   2   0   5 4355.75  811.77   1
   2   0   6 2805.08  473.97   1
   2   0   736454.85 7760.48   1
   2   0   8  817.97  222.49   1
   2   0   912227.04 2819.63   1
   2   0  10 5321.05 1123.78   1
   2   0  11 1103.46  252.26   1
   2   0  12  569.02  170.37   1
   2   0  13 6095.06 1587.32   1
   2   0  14 3019.48 1011.80   1
   2   0  15 2038.75  697.38   1
   2   0  16 4078.32 1377.64   1
   2   0  17 1042.22  419.64   1
   2   1   0 2543.14  660.42   1
   2   1   130836.65 4783.58   1
   2   1   2 6172.19 1071.14   1
   2   1   3 1873.20  292.01   1
   2   1   4 3421.22  461.19   1
   2   1   5 2976.70  391.36   1
   2   1   611665.55 1796.23   1
   2   1   7 3242.38  411.22   1
   2   1   8 3426.54  435.49   1
   2   1   9 1143.61  190.25   1
   2   1  10 3541.97  567.64   1
   2   1  11 1898.59  301.20   1
   2   1  12 1344.38  268.56   1
   2   1  13 5929.46 1094.52   1
   2   1  14 2491.04  443.90   1
   2   1  15 8617.58 1515.37   1
   2   1  16 1638.09  330.43   1
   2   1  17 1635.95  406.32   1
   2   2   014157.81 4576.54   1
   2   2   110259.84 2157.59   1
   2   2   2 5702.53 1194.75   1
   2   2   3 9769.97 1740.03   1
   2   2   4 2256.54  359.34   1
   2   2   513542.08 1604.22   1
   2   2   6 5694.67  601.13   1
   2   2   7 8161.72 1273.35   1
   2   2   8 2085.86  341.31   1
   2   2   9 5894.09  965.57   1
   2   2  10 9361.49 1318.56   1
   2   2  11 6708.08  972.13   1
   2   2  12 1497.88  243.73   1
   2   2  13 8756.37 1323.72   1
   2   2  14 2827.30  592.16   1
   2   2  1519351.08 7650.40   1
   2   2  16 6338.97 1673.09   1
   2   3   016271.69 3769.84   1
   2   3   135033.22 4941.39   1
   2   3   2 2380.66  417.68   1
   2   3   316591.10 2462.42   1
   2   3   4 4645.69  865.88   1
   2   3   5 1106.42  254.22   1
   2   3   6 1973.24  460.98   1
   2   3   710010.33 2105.51   1
   2   3   8 9055.56 1920.97   1
   2   3   9 3411.08  623.79   1
   2   3  10 2380.09  458.84   1
   2   3  11 3677.26  704.44   1
   2   3  12 2026.07  660.89   1
   2   3  13 1766.25  414.83   1
   2   3  14 3013.79  610.18   1
   2   3  15 4857.68 1384.16   1
   2   4   0 2413.29  506.05   1
   2   4   1 8489.63 1265.54   1
   2   4   212007.15 1722.97   1
   2   4   3 4802.22  697.47   1
   2   4   4 2475.56  418.71   1
   2   4   5 4972.23  830.20   1
   2   4   6 4552.00  766.76   1
   2   4   7 3971.14  900.22   1
   2   4   8 3710.38 1066.44   1
   2   4   9 1533.45  512.18   1
   2   4  10 7144.98 1588.36   1
   2   4  11 3195.80  668.56   1
   2   4  12 1221.43  293.88   1
   2   4  13 6074.73 1468.62   1
   2   5   0 9685.31 2336.40   1
   2   5   110738.32 1753.14   1
   2   5   2 5274.71  812.74   1
   2   5   3 7634.25 1213.99   1
   2   5   4 6757.52 1119.86   1
   2   5   5 3200.61  553.56   1
   2   5   6 1106.37  216.27   1
   2   5   7  549.11  132.07   1
   2   5   8 2795.22  512.68   1
   2   5   9 1558.94  357.72   1
   2   5  10  580.89  342.03   1
   2   5  11  933.82  574.80  -1
   2   6   0  443.54  181.42   1
   2   6   1 8879.92 1469.58   1
   2   6   2  608.23  225.97   1
   2   6   3  654.69  146.60   1
   2   6   4 1702.11  287.11   1
   2   6   5 5055.40  792.74   1
   2   6   6 1824.47  337.85   1
   2   6   7  181.24   69.42   1
   2   6   8 1197.24  319.85   1
   3   0   3 1837.55  923.90   1
   3   0   434330.36 8123.28   1
   3   0   5 1113.33  309.63   1
   3   0   6 2005.73  524.37   1
   3   0   7  450.84  109.81   1
   3   0   8 1409.39  261.03   1
   3   0   9  805.53  305.02   1
   3   0  10  328.61   90.73   1
   3   0  11  188.14   62.53   1
   3   0  1223007.83 4768.71   1
   3   0  13 1484.00  415.03   1
   3   0  14 2296.55  847.58   1
   3   0  1510681.88 3940.17   1
   3   1   0 6744.84 1902.31   1
   3   1   1 5806.55 1420.86   1
   3   1   211709.88 2621.89   1
   3   1   3  694.95  183.58   1
   3   1   4  882.08  204.09   1
   3   1   5 3079.99  537.97   1
   3   1   610576.53 1777.27   1
   3   1   711957.84 2013.57   1
   3   1   8 1126.16  217.51   1
   3   1   9  623.95  108.61   1
   3   1  10 7050.60 1026.84   1
   3   1  11 2643.14  367.40   1
   3   1  12 2168.17  313.21   1
   3   1  13  350.04   88.82   1
   3   1  14 7225.07 1038.01   1
   3   1  15  480.31  152.34   1
   3   2   0 4307.74  991.08   1
   3   2   113790.30 2131.90   1
   3   2   2 3730.18  771.99   1
   3   2   3 5094.32  828.00   1
   3   2   4 4021.50  632.84   1
   3   2   5  901.19  174.67   1
   3   2   6  901.15  164.81   1
   3   2   7 1113.87  155.18   1
   3   2   8 9994.28 1141.23   1
   3   2   9  530.47  116.94   1
   3   2  10 1853.24  264.37   1
   3   2  11  740.61  128.36   1
   3   2  12 5933.47  719.84   1
   3   2  13  822.07  149.98   1
   3   2  14 3101.16  504.09   1
   3   3   0 2353.22  784.16   1
   3   3   1 2387.99  531.63   1
   3   3   2 2824.63  541.86   1
   3   3   3  808.22  151.97   1
   3   3   4  800.72  157.63   1
   3   3   5  368.18  116.54   1
   3   3   615192.38 2133.97   1
   3   3   7 6054.48  853.84   1
   3   3   8 7514.14  978.35   1
   3   3   9 2162.86  378.82   1
   3   3  10 8565.08 1207.17   1
   3   3  11 1849.74  298.56   1
   3   3  12 2128.38  428.15   1
   3   3  13  341.15   96.09   1
   3   4   0 1446.19  407.94   1
   3   4   1 1010.24  186.94   1
   3   4   2 1295.36  224.37   1
   3   4   3  596.15  112.12   1
   3   4   4 4723.68  790.96   1
   3   4   5 3803.36  656.12   1
   3   4   6 1338.94  310.67   1
   3   4   7 2000.15  377.50   1
   3   4   810231.39 1961.97   1
   3   4   9 1421.65  410.19   1
   3   4  10 1403.35  428.64   1
   3   4  11  611.13  202.68   1
   3   5   0 9538.19 2294.59   1
   3   5   1 7928.11 1204.50   1
   3   5   2 2094.77  344.33   1
   3   5   3  494.85   94.83   1
   3   5   4 1452.14  247.01   1
   3   5   5 1888.43  403.45   1
   3   5   6 2899.10  642.62   1
   3   5   7 1640.50  404.22   1
   4   0   4  841.40  431.52   1
   4   0   5 2219.81  807.17   1
   4   0   6 1154.86  352.20   1
   4   0   7 2143.07  494.39   1
   4   0   8 1071.25  332.26   1
   4   0   9 2347.08  525.31   1
   4   0  10  358.29  104.98   1
   4   0  11 1802.36  406.54   1
   4   1   2 1225.20  623.72   1
   4   1   3  970.68  319.77   1
   4   1   410969.73 3786.61   1
   4   1   516612.58 3480.97   1
   4   1   6  728.87  229.31   1
   4   1   7 4448.48  787.82   1
   4   1   8 5013.44  807.41   1
   4   1   9 4740.99  753.17   1
   4   1  10  570.40  127.18   1
   4   1  11 9514.80 1334.98   1
   4   2   0  424.13  241.02   1
   4   2   1 3406.76  578.61   1
   4   2   2 1776.60  367.56   1
   4   2   3  933.28  204.25   1
   4   2   4 1753.79  331.70   1
   4   2   5 1644.56  282.50   1
   4   2   6 3695.04  596.65   1
   4   2   7 3234.21  458.02   1
   4   2   8  895.53  189.95   1
   4   2   9 2541.06  336.22   1
   4   2  10 2649.75  389.08   1
   4   3   0 4622.62 1072.20   1
   4   3   1 4507.48  750.12   1
   4   3   2 2293.41  392.33   1
   4   3   3 1910.34  375.73   1
   4   3   4 4568.57  906.91   1
   4   3   5 7031.95 1191.87   1
   4   3   6 2236.60  379.87   1
   4   3   7 2176.57  383.13   1
   4   3   8 5981.05 1009.67   1
   4   3   9 1309.76  291.40   1
   4   4   0 1019.95  325.47   1
   4   4   1  776.36  153.40   1
   4   4   2 1268.85  279.58   1
   4   4   3  673.13  165.03   1
   4   4   4  856.08  515.98   1
   4   4   5  836.66  388.48   1
   4   4   6 1115.10  382.87   1
   5   0   5 1572.35  835.62   1
   0   0   0
;
_shelx_hkl_checksum              53328
loop_
_space_group_symop_operation_xyz
'x, y, z'
'-x+1/2, -y, z+1/2'
'x+1/2, -y+1/2, -z'
'-x, y+1/2, -z+1/2'
loop_
_atom_site_label
_atom_site_type_symbol
_atom_site_fract_x
_atom_site_fract_y
_atom_site_fract_z
_atom_site_U_iso_or_equiv
_atom_site_adp_type
_atom_site_occupancy
_atom_site_site_symmetry_order
_atom_site_calc_flag
_atom_site_refinement_flags_posn
_atom_site_refinement_flags_adp
_atom_site_refinement_flags_occupancy
_atom_site_disorder_assembly
_atom_site_disorder_group
C4 C 0.300251 0.459181 0.062006 0.019(4) Uiso 1 1 d . . . . .
N2 N 0.516791 0.565984 0.055846 0.020(4) Uiso 1 1 d . . . . .
C5 C 0.553693 0.587644 -0.013214 0.021(5) Uiso 1 1 d D . . . .
H5 H 0.706712 0.664893 -0.036467 0.025 Uiso 1 1 calc DR U . . .
N1 N 0.400719 0.673231 0.190575 0.015(4) Uiso 1 1 d . . . . .
H1A H 0.357039 0.803113 0.208376 0.022 Uiso 1 1 calc R U . . .
H1B H 0.491969 0.677220 0.141318 0.022 Uiso 1 1 calc R U . . .
H1C H 0.525960 0.608113 0.224775 0.022 Uiso 1 1 calc R U . . .
C6 C 0.209979 0.418733 -0.004437 0.013(4) Uiso 1 1 d D . . . .
H6 H 0.048374 0.339896 -0.021577 0.015 Uiso 1 1 calc DR U . . .
C2 C 0.157759 0.569917 0.181930 0.018(5) Uiso 1 1 d D . . . .
H2 H 0.020549 0.661026 0.157152 0.022 Uiso 1 1 calc DR U . . .
O1 O -0.188341 0.487125 0.257473 0.055(5) Uiso 1 1 d . . . . .
C3 C 0.200635 0.406388 0.133147 0.024(5) Uiso 1 1 d . . . . .
H3A H 0.332891 0.312066 0.158775 0.029 Uiso 1 1 calc R U . . .
H3B H 0.018802 0.336446 0.127357 0.029 Uiso 1 1 calc R U . . .
O2 O 0.210170 0.492532 0.304340 0.033(4) Uiso 1 1 d . . . . .
N3 N 0.373733 0.500384 -0.051615 0.029(5) Uiso 1 1 d D . . . .
H3 H 0.356636 0.501782 -0.106684 0.035 Uiso 1 1 calc DR U . . .
C1 C 0.051587 0.513004 0.254464 0.006(4) Uiso 1 1 d . . . . .
loop_
_atom_type_symbol
_atom_type_description
_atom_type_scat_dispersion_real
_atom_type_scat_dispersion_imag
_atom_type_scat_source
C C -0.0021 0.0000 'International Tables Vol C Tables 4.2.6.8 and 6.1.1.4'
H H 0.0000 0.0000 'International Tables Vol C Tables 4.2.6.8 and 6.1.1.4'
N N -0.0030 0.0000 'International Tables Vol C Tables 4.2.6.8 and 6.1.1.4'
O O -0.0041 0.0000 'International Tables Vol C Tables 4.2.6.8 and 6.1.1.4'
loop_
_citation_id
_citation_doi
_citation_year
1 10.1038/s41467-019-11469-2 2019
loop_
_geom_angle_atom_site_label_1
_geom_angle_atom_site_label_2
_geom_angle_atom_site_label_3
_geom_angle
_geom_angle_site_symmetry_1
_geom_angle_site_symmetry_3
_geom_angle_publ_flag
C6 C4 N2 114.5(16) . . ?
C6 C4 C3 130.1(19) . . ?
N2 C4 C3 114.9(15) . . ?
C5 N2 C4 99.2(13) . . ?
N3 C5 N2 117.6(17) . . ?
N3 C5 H5 121.2 . . ?
N2 C5 H5 121.2 . . ?
C2 N1 H1A 109.5 . . ?
C2 N1 H1B 109.5 . . ?
H1A N1 H1B 109.5 . . ?
C2 N1 H1C 109.5 . . ?
H1A N1 H1C 109.5 . . ?
H1B N1 H1C 109.5 . . ?
C4 C6 N3 104.3(18) . . ?
C4 C6 H6 127.9 . . ?
N3 C6 H6 127.9 . . ?
C1 C2 C3 110.0(16) . . ?
C1 C2 N1 107.0(13) . . ?
C3 C2 N1 108.5(14) . . ?
C1 C2 H2 110.4 . . ?
C3 C2 H2 110.4 . . ?
N1 C2 H2 110.4 . . ?
C4 C3 C2 113.0(16) . . ?
C4 C3 H3A 109.0 . . ?
C2 C3 H3A 109.0 . . ?
C4 C3 H3B 109.0 . . ?
C2 C3 H3B 109.0 . . ?
H3A C3 H3B 107.8 . . ?
C5 N3 C6 104.1(17) . . ?
C5 N3 H3 127.9 . . ?
C6 N3 H3 127.9 . . ?
O1 C1 O2 121.1(16) . . ?
O1 C1 C2 118.1(13) . . ?
O2 C1 C2 120.7(15) . . ?
loop_
_geom_bond_atom_site_label_1
_geom_bond_atom_site_label_2
_geom_bond_distance
_geom_bond_site_symmetry_2
_geom_bond_publ_flag
C4 C6 1.29(3) . ?
C4 N2 1.40(3) . ?
C4 C3 1.59(3) . ?
N2 C5 1.34(2) . ?
C5 N3 1.28(3) . ?
C5 H5 0.91(14) . ?
N1 C2 1.55(3) . ?
N1 H1A 0.9100 . ?
N1 H1B 0.9100 . ?
N1 H1C 0.9100 . ?
C6 N3 1.46(3) . ?
C6 H6 1.00(14) . ?
C2 C1 1.54(3) . ?
C2 C3 1.56(3) . ?
C2 H2 1.09(14) . ?
O1 C1 1.31(3) . ?
C3 H3A 0.9900 . ?
C3 H3B 0.9900 . ?
O2 C1 1.26(2) . ?
N3 H3 1.02(15) . ?
