#------------------------------------------------------------------------------
#$Date: 2020-09-06 11:11:55 +0300 (Sun, 06 Sep 2020) $
#$Revision: 255949 $
#$URL: file:///home/coder/svn-repositories/cod/cif/7/12/67/7126769.cif $
#------------------------------------------------------------------------------
#
# This file is available in the Crystallography Open Database (COD),
# http://www.crystallography.net/
#
# All data on this site have been placed in the public domain by the
# contributors.
#
data_7126769
loop_
_publ_author_name
'Guo, Rui-Li'
'Zhu, Xue-Qing'
'Zhang, Xing-Long'
'Wang, Yong-Qiang'
_publ_section_title
;
 Synthesis of difluoromethylselenoesters from aldehydes via a radical
 process.
;
_journal_issue                   63
_journal_name_full
'Chemical communications (Cambridge, England)'
_journal_page_first              8976
_journal_page_last               8979
_journal_paper_doi               10.1039/d0cc02912b
_journal_volume                  56
_journal_year                    2020
_chemical_formula_moiety         'C8 H5 Br F2 O Se'
_chemical_formula_sum            'C8 H5 Br F2 O Se'
_chemical_formula_weight         313.99
_space_group_crystal_system      triclinic
_space_group_IT_number           2
_space_group_name_Hall           '-P 1'
_space_group_name_H-M_alt        'P -1'
_atom_sites_solution_hydrogens   geom
_atom_sites_solution_primary     dual
_audit_creation_date             2020-01-06
_audit_creation_method
;
Olex2 1.2-beta
(compiled 2018.05.29 svn.r3508 for OlexSys, GUI svn.r5506)
;
_audit_update_record
;
2020-02-22 deposited with the CCDC.	2020-06-24 downloaded from the CCDC.
;
_cell_angle_alpha                105.988(13)
_cell_angle_beta                 93.472(15)
_cell_angle_gamma                92.468(13)
_cell_formula_units_Z            2
_cell_length_a                   6.062(5)
_cell_length_b                   7.902(7)
_cell_length_c                   10.845(9)
_cell_measurement_reflns_used    899
_cell_measurement_temperature    296(2)
_cell_measurement_theta_max      24.76
_cell_measurement_theta_min      3.37
_cell_volume                     497.5(7)
_computing_cell_refinement       'SAINT v7.68A (Bruker, 2009)'
_computing_data_reduction        'SAINT v7.68A (Bruker, 2009)'
_computing_molecular_graphics    'Olex2 (Dolomanov et al., 2009)'
_computing_publication_material  'Olex2 (Dolomanov et al., 2009)'
_computing_structure_refinement  'ShelXL (Sheldrick, 2015)'
_computing_structure_solution    'ShelXT (Sheldrick, 2015)'
_diffrn_ambient_temperature      296.15
_diffrn_measured_fraction_theta_full 0.980
_diffrn_measured_fraction_theta_max 0.946
_diffrn_measurement_device_type  'Bruker APEX-II CCD'
_diffrn_measurement_method       '\f and \w scans'
_diffrn_radiation_monochromator  graphite
_diffrn_radiation_type           MoK\a
_diffrn_radiation_wavelength     0.71073
_diffrn_reflns_av_R_equivalents  0.0326
_diffrn_reflns_av_unetI/netI     0.0624
_diffrn_reflns_Laue_measured_fraction_full 0.980
_diffrn_reflns_Laue_measured_fraction_max 0.946
_diffrn_reflns_limit_h_max       7
_diffrn_reflns_limit_h_min       -7
_diffrn_reflns_limit_k_max       9
_diffrn_reflns_limit_k_min       -9
_diffrn_reflns_limit_l_max       13
_diffrn_reflns_limit_l_min       -7
_diffrn_reflns_number            2671
_diffrn_reflns_point_group_measured_fraction_full 0.980
_diffrn_reflns_point_group_measured_fraction_max 0.946
_diffrn_reflns_theta_full        25.242
_diffrn_reflns_theta_max         26.373
_diffrn_reflns_theta_min         1.959
_diffrn_standards_number         0
_exptl_absorpt_coefficient_mu    7.775
_exptl_absorpt_correction_T_max  0.7454
_exptl_absorpt_correction_T_min  0.3545
_exptl_absorpt_correction_type   multi-scan
_exptl_absorpt_process_details
'SADABS-2008/1 (Bruker,2008) was used for absorption correction. wR2(int) was 0.1412 before and 0.0385 after correction. The Ratio of minimum to maximum transmission is 0.4756. The \l/2 correction factor is 0.0015.'
_exptl_crystal_density_diffrn    2.096
_exptl_crystal_description       block
_exptl_crystal_F_000             296
_refine_diff_density_max         0.613
_refine_diff_density_min         -1.480
_refine_diff_density_rms         0.248
_refine_ls_extinction_method     none
_refine_ls_goodness_of_fit_ref   1.016
_refine_ls_hydrogen_treatment    constr
_refine_ls_matrix_type           full
_refine_ls_number_parameters     118
_refine_ls_number_reflns         1933
_refine_ls_number_restraints     1
_refine_ls_restrained_S_all      1.016
_refine_ls_R_factor_all          0.0880
_refine_ls_R_factor_gt           0.0623
_refine_ls_shift/su_max          0.000
_refine_ls_shift/su_mean         0.000
_refine_ls_structure_factor_coef Fsqd
_refine_ls_weighting_details
'w=1/[\s^2^(Fo^2^)+(0.1113P)^2^] where P=(Fo^2^+2Fc^2^)/3'
_refine_ls_weighting_scheme      calc
_refine_ls_wR_factor_gt          0.1580
_refine_ls_wR_factor_ref         0.1755
_reflns_Friedel_coverage         0.000
_reflns_number_gt                1358
_reflns_number_total             1933
_reflns_threshold_expression     'I > 2\s(I)'
_cod_data_source_file            d0cc02912b2.cif
_cod_data_source_block           aaa
_cod_depositor_comments
'Adding full bibliography for 7126769--7126770.cif.'
_cod_database_code               7126769
_shelx_shelxl_version_number     2014/7
_shelx_space_group_comment
;
The symmetry employed for this shelxl refinement is uniquely defined
by the following loop, which should always be used as a source of
symmetry information in preference to the above space-group names.
They are only intended as comments.
;
_olex2_refinement_description
;
1. Fixed Uiso
 At 1.2 times of:
  All C(H) groups, All C(H,H) groups
2. Restrained distances
 Se01-C004 \\sim Se01-C00C
 with sigma of 0.002
3. Rigid bond restraints
 C00C, C004
 with sigma for 1-2 distances of 0.01 and sigma for 1-3 distances of 0.01
4. Uiso/Uaniso restraints and constraints
Uanis(C004) = Uanis(C00C)
5. Rigid body (RIGU) restrains
 C004, C00C
 with sigma for 1-2 distances of 0.004 and sigma for 1-3 distances of 0.004
6. Others
 Fixed Sof: H00B(0.5) H00C(0.5) F0AA(0.5) F2(0.5) F3(0.5) F4(0.5)
7.a Ternary CH refined with riding coordinates:
 C00C(H00B), C00C(H00C)
7.b Aromatic/amide H refined with riding coordinates:
 C009(H009), C006(H006), C008(H008), C00A(H00A)
7.c Fitted hexagon refined as free rotating group:
 C005(C009,C006,C007,C008,C00A)
;
_shelx_res_file
;
    aaa.res created by SHELXL-2014/7

TITL aaa_a.res in P-1
REM Old TITL aaa_a.res in P-1
REM SHELXT solution in P-1
REM R1 0.243, Rweak 0.020, Alpha 0.045, Orientation as input
REM Formula found by SHELXT: C10 Br O Se
CELL 0.71073 6.0623 7.9016 10.8453 105.988 93.472 92.468
ZERR 2 0.0052 0.0068 0.0092 0.013 0.015 0.013
LATT 1
SFAC C H Br F O Se
UNIT 16 10 2 4 2 2
SADI 0.002 Se01 C004 Se01 C00C
DELU C00C C004
RIGU C004 C00C
EADP C004 C00C

L.S. 4 0 0
PLAN  20
TEMP 23
BOND $H
list 4
fmap 2 53
acta
OMIT -2 -1 10
OMIT -2 -1 9
OMIT 0 1 0
OMIT -3 -2 6
REM <olex2.extras>
REM <HklSrc "%.\\aaa.hkl">
REM </olex2.extras>

WGHT    0.111300
FVAR       0.91023
SE01  6    0.437137    0.760143    0.878424    11.00000    0.06365    0.10398 =
         0.03504    0.01727   -0.00044   -0.01772
BR02  3    0.785126    0.803801    0.259242    11.00000    0.08483    0.07244 =
         0.05379    0.02104    0.03060    0.00961
O003  5    0.082671    0.646482    0.695878    11.00000    0.04777    0.11870 =
         0.05620    0.03572   -0.00309   -0.02330
C004  1    0.273366    0.701960    0.709036    11.00000    0.05883    0.07113 =
         0.04085    0.01958    0.00734    0.00520
AFIX  66
C005  1    0.401869    0.730371    0.603152    11.00000    0.03893    0.04232 =
         0.04197    0.01130    0.00825    0.01042
C009  1    0.613286    0.813125    0.625007    11.00000    0.04622    0.06217 =
         0.03446    0.01054    0.00038   -0.00095
AFIX  43
H009  2    0.679089    0.853632    0.708371    11.00000   -1.20000
AFIX  65
C006  1    0.726352    0.835336    0.522265    11.00000    0.04207    0.05714 =
         0.05409    0.01377    0.00628   -0.00158
AFIX  43
H006  2    0.867804    0.890704    0.536888    11.00000   -1.20000
AFIX  65
C007  1    0.628002    0.774793    0.397668    11.00000    0.05990    0.04238 =
         0.04369    0.01018    0.01723    0.00766
C008  1    0.416585    0.692038    0.375811    11.00000    0.06088    0.05341 =
         0.03340    0.00334   -0.00046    0.00303
AFIX  43
H008  2    0.350783    0.651531    0.292446    11.00000   -1.20000
AFIX  65
C00A  1    0.303517    0.669826    0.478551    11.00000    0.04443    0.04803 =
         0.04299    0.00764    0.00043    0.00426
AFIX  43
H00A  2    0.162064    0.614458    0.463927    11.00000   -1.20000
AFIX   0
C00C  1    0.182376    0.703452    0.966092    11.00000    0.05883    0.07113 =
         0.04085    0.01958    0.00734    0.00520
PART 2
AFIX  13
H00B  2    0.091398    0.610049    0.902766    10.50000   -1.20000
AFIX  13
PART 0
PART 1
H00C  2    0.044642    0.672089    0.910559    10.50000   -1.20000
AFIX   0
PART 0
PART 2
F0AA  4    0.061273    0.829064    1.002516    10.50000    0.10495    0.14969 =
         0.18114    0.04412    0.07759    0.03874
PART 0
PART 1
F2    4    0.170088    0.849452    1.073297    10.50000    0.12342    0.12963 =
         0.07384   -0.00238    0.05810   -0.01428
PART 0
PART 2
F3    4    0.245332    0.637894    1.057953    10.50000    0.09666    0.24782 =
         0.08703    0.11757    0.01647    0.00711
PART 0
PART 1
F4    4    0.236408    0.581278    1.028422    10.50000    0.17606    0.08697 =
         0.11368    0.03132    0.02509   -0.03099
HKLF 4

REM  aaa_a.res in P-1
REM R1 =  0.0623 for    1358 Fo > 4sig(Fo)  and  0.0880 for all    1933 data
REM    118 parameters refined using      1 restraints

END

WGHT      0.1113      0.0000

REM Highest difference peak  0.613,  deepest hole -1.480,  1-sigma level  0.248
Q1    1  -0.1097  0.6369  0.4426  11.00000  0.05    0.61
Q2    1   0.3179  0.8573  0.8916  11.00000  0.05    0.58
Q3    1   0.2865  0.8433  1.2155  11.00000  0.05    0.56
Q4    1   0.3347  0.4942  0.2862  11.00000  0.05    0.52
Q5    1   0.2133  0.4201  0.5364  11.00000  0.05    0.51
Q6    1   0.3506  0.9952  1.0941  11.00000  0.05    0.50
Q7    1   0.5368  0.9837  0.9580  11.00000  0.05    0.50
Q8    1  -0.2336  0.5926  0.7000  11.00000  0.05    0.49
Q9    1   0.4189  0.4961  0.9434  11.00000  0.05    0.48
Q10   1   0.9445  0.7571  0.4012  11.00000  0.05    0.48
Q11   1   0.9017  0.9755  0.3437  11.00000  0.05    0.48
Q12   1   0.3285  0.4584  0.3541  11.00000  0.05    0.47
Q13   1   0.8123  1.0651  0.7072  11.00000  0.05    0.47
Q14   1   0.4823  0.4584  0.2154  11.00000  0.05    0.46
Q15   1   0.5000  1.0000  0.5000  10.50000  0.05    0.45
Q16   1   0.1637  0.9194  0.8123  11.00000  0.05    0.45
Q17   1   0.4076  0.4575  1.0430  11.00000  0.05    0.45
Q18   1   0.3238  0.4367  0.4461  11.00000  0.05    0.44
Q19   1   0.8432  0.7522  0.4061  11.00000  0.05    0.44
Q20   1   0.8550  0.6870  0.5104  11.00000  0.05    0.44
;
_shelx_res_checksum              47719
_shelx_hkl_file
;
  -1   0   0 1624.44   71.99
  -1   0   0 1786.12   82.09
  -2   0   0  866.51   37.40
  -2   0   0  871.01   43.20
  -3   0   0  490.15   22.10
  -3   0   0  485.05   26.20
  -4   0   0   45.90    7.40
  -4   0   0   49.30    4.90
  -5   0   0  297.57   20.30
  -5   0   0  318.37   16.90
   6   0   0  171.88   15.70
   7   0   0    3.70    9.10
   7  -1   0    0.20    9.00
   6  -1   0  213.68   17.00
  -6   1   0  183.38   13.90
   5  -1   0   48.10    7.80
  -5   1   0   46.50    6.00
   4  -1   0   97.89    9.00
  -4   1   0   95.59    7.90
   3  -1   0 3377.46  157.38
  -3   1   0 3134.39  138.19
   2  -1   0  646.04   32.60
  -2   1   0  652.93   28.40
   0  -1   0  112.19    6.50
  -1  -1   0   14.70    1.90
   1   1   0   15.30    1.60
  -2  -1   0 1428.16   71.29
   2   1   0 1490.55   63.99
  -3  -1   0 2255.97  108.49
   3   1   0 2188.88   96.89
  -4  -1   0   50.39    7.60
  -5  -1   0  361.96   23.00
  -6  -1   0  137.09   14.50
   7   1   0   -6.00    9.70
   7  -2   0   10.00   10.30
   6  -2   0  153.68   14.70
  -6   2   0  121.59   11.10
   5  -2   0  130.19   11.70
  -5   2   0   91.39    8.60
   4  -2   0   89.99    9.20
   3  -2   0    8.40    3.90
  -3   2   0    2.80    2.30
  -3   2   0    6.10    2.60
  -2   2   0  113.89    6.60
  -2   2   0  115.79    6.70
   1  -2   0 6932.21  370.66
  -1   2   0 8020.20  326.57
  -1   2   0 8311.57  337.07
   0  -2   0 8193.98  434.96
   0   2   0 9999.00  395.66
  -1  -2   0  272.17   14.50
   1   2   0  280.67   13.30
  -2  -2   0   -0.60    2.40
   2   2   0    3.50    2.20
  -3  -2   0  923.71   46.60
   3   2   0  902.41   40.80
  -4  -2   0    4.30    5.20
  -5  -2   0  332.37   22.50
  -6  -2   0   45.40   11.10
   7  -3   0   29.50   10.70
  -7   3   0   19.70    9.00
   6  -3   0   70.79   10.90
  -6   3   0   46.50    8.40
   5  -3   0   10.10    7.10
  -5   3   0    5.50    5.40
   4  -3   0  317.07   19.10
  -4   3   0  296.57   16.50
  -3   3   0 1683.13   72.69
  -3   3   0 1679.93   74.59
   2  -3   0   85.29    7.60
  -2   3   0  100.99    6.80
   1  -3   0  121.29    8.60
  -1   3   0  130.89    7.30
  -1   3   0  119.89    7.80
   0  -3   0 1017.70   50.39
   0   3   0 1046.90   46.30
   0   3   0 1022.40   44.30
   1   3   0   83.39    6.10
   1   3   0   93.29    5.10
  -2  -3   0 2152.38  105.79
   2   3   0 2192.38   95.89
  -3  -3   0  369.86   21.80
   3   3   0  384.46   18.70
  -4  -3   0   61.69    8.80
  -5  -3   0  398.56   25.90
  -6  -3   0   81.29   13.40
  -7   4   0   -7.90    8.50
   6  -4   0   60.89   10.70
  -6   4   0   68.69   10.00
   5  -4   0   18.20    7.30
  -5   4   0   27.00    6.70
  -4   4   0   53.09    6.60
   3  -4   0  117.89   10.90
  -3   4   0  122.19    9.00
   2  -4   0   93.69    8.80
  -2   4   0   93.69    6.70
  -2   4   0   95.69    7.70
   1  -4   0 5518.45  248.68
  -1   4   0 5042.90  226.38
  -1   4   0 4965.30  218.78
   0  -4   0  764.92   38.40
   0   4   0  752.52   33.60
   0   4   0  778.12   35.60
   1   4   0   93.19    6.00
   1   4   0   88.99    7.50
  -2  -4   0  309.17   17.20
   2   4   0  277.27   15.60
   2   4   0  280.17   13.50
  -3  -4   0  519.15   29.20
   3   4   0  530.25   25.70
  -4  -4   0   18.30    7.40
  -5  -4   0  100.09   12.50
  -6  -4   0    1.30   10.70
  -6   5   0    0.00    8.00
  -5   5   0   -0.10    5.90
  -4   5   0  271.77   16.40
   3  -5   0  210.28   14.10
  -3   5   0  222.98   12.90
  -3   5   0  182.78   13.60
   2  -5   0    9.20    4.40
  -2   5   0   15.30    5.90
  -2   5   0   11.90    3.80
   1  -5   0   28.10    5.10
  -1   5   0   21.20    3.90
  -1   5   0   24.00    6.10
   0  -5   0  797.02   39.20
   0   5   0  732.53   36.40
  -1  -5   0   68.79    7.10
   1   5   0   73.59    8.00
  -2  -5   0  547.45   29.80
   2   5   0  550.04   27.70
  -3  -5   0   -2.00    5.50
   3   5   0   -3.00    5.50
  -4  -5   0   82.19   11.30
  -5  -5   0  142.99   16.00
  -6  -5   0   26.20   12.00
  -6   6   0   29.40    9.90
  -5   6   0   -1.60    6.90
  -4   6   0    1.00    6.00
  -3   6   0   58.39    7.00
  -3   6   0   58.69    9.20
  -2   6   0  148.29   12.50
  -1   6   0  952.00   45.80
   0   6   0    7.30    6.20
  -1  -6   0   30.20    6.20
   1   6   0   29.80    7.20
  -3  -6   0  122.09   12.20
   3   6   0  109.19   11.10
  -4  -6   0   25.20    9.60
  -5  -6   0    9.30   10.50
  -5   7   0   -3.60    8.10
  -3   7   0   -3.10    8.70
  -2   7   0   10.80    7.80
  -1   7   0   81.59   11.20
   0   7   0   72.19   11.00
   1   7   0   71.49   10.40
   2   7   0    8.70    8.70
   3   7   0   15.20    8.90
  -3   8   0   -4.00   10.30
  -2   8   0   67.19   12.30
  -1   8   0   47.50   11.60
   0   8   0   34.10   10.10
   1   8   0    5.70    9.10
   2   8   0   78.99   13.10
   3   8   0   -4.50    9.00
  -2   9   0   -8.20   11.70
  -1   9   0   11.10   11.80
   0   9   0   -5.70    9.80
   1   9   0   -2.60   11.40
   2   9  -1    0.80   11.00
   1   9  -1   -8.80   10.40
   0   9  -1   27.80   11.00
  -1   9  -1   -2.60   10.30
  -2   9  -1    1.20   11.40
  -3   9  -1   13.70   11.90
   3   8  -1   77.49   11.70
   2   8  -1   21.30    9.60
   1   8  -1   -1.10    8.70
   0   8  -1   53.49   10.80
  -1   8  -1   64.29   11.70
  -2   8  -1   98.69   13.40
  -3   8  -1   82.69   12.80
  -4  -7   1    2.60    9.40
   3   7  -1    5.50    7.70
  -3  -7   1    8.90    8.10
   2   7  -1    9.00    7.70
  -2  -7   1   13.80    7.50
   1   7  -1  146.09   13.00
  -1  -7   1  135.59   12.90
   0   7  -1  154.98   13.20
  -1   7  -1    9.50    7.80
  -2   7  -1   -1.40    7.40
  -3   7  -1  127.49   13.00
  -5  -6   1   16.00   10.50
  -4  -6   1  175.68   16.70
   3   6  -1  334.47   19.60
  -3  -6   1  365.46   22.80
   2   6  -1   26.70    6.90
  -2  -6   1   15.80    6.40
   1   6  -1   29.10    7.00
   0   6  -1  672.13   34.30
   0  -6   1  725.53   37.20
  -1   6  -1    7.50    6.10
   1  -6   1    1.00    5.20
  -2   6  -1 1097.09   52.09
   2  -6   1 1120.59   56.49
  -3   6  -1   62.29    6.80
  -3   6  -1   66.69    9.20
  -4   6  -1   23.20    6.30
  -5   6  -1   11.40    7.10
  -6   6  -1   -6.10    7.90
  -6  -5   1   66.99   13.80
  -5  -5   1   24.00    9.20
  -4  -5   1   26.40    8.30
   3   5  -1   78.19    7.90
  -3  -5   1   87.09    9.80
   2   5  -1   18.20    5.30
  -2  -5   1   26.10    5.40
   1   5  -1 1143.89   52.59
  -1  -5   1 1157.58   57.89
   0   5  -1  322.27   15.60
   0  -5   1  242.38   16.40
  -1   5  -1    3.40    4.60
  -1   5  -1    5.30    2.20
   1  -5   1    6.50    4.40
  -2   5  -1  423.36   21.20
  -2   5  -1  463.95   23.50
   2  -5   1  494.65   25.90
  -3   5  -1  332.27   17.40
  -3   5  -1  343.17   18.70
  -4   5  -1    9.30    5.00
   4  -5   1   22.30    7.70
  -5   5  -1    0.10    6.00
   5  -5   1   22.50    8.10
  -6   5  -1   10.10    7.50
  -6  -4   1    9.40   10.10
  -5  -4   1   39.10    9.60
  -4  -4   1  614.54   34.50
   3   4  -1  649.54   30.00
  -3  -4   1  623.74   34.10
   2   4  -1  117.19    7.90
  -2  -4   1  122.89    9.50
   1   4  -1 1123.09   50.79
  -1  -4   1 1127.09   55.99
   0   4  -1 1720.93   76.89
   0   4  -1 1741.63   73.29
  -1   4  -1 1448.26   61.09
  -1   4  -1 1394.86   58.09
   1  -4   1 1235.98   67.59
  -2   4  -1 1919.31   82.89
  -2   4  -1 1811.22   79.69
  -3   4  -1   53.79    6.10
  -3   4  -1   49.99    5.20
   3  -4   1   70.79    8.00
  -4   4  -1    7.50    4.40
   4  -4   1    8.40    6.00
  -5   4  -1  102.29    9.60
   5  -4   1  133.99   12.50
  -6   4  -1    2.80    7.00
   6  -4   1   14.70    9.10
   7  -4   1    0.20   10.30
  -6  -3   1  140.69   15.80
  -5  -3   1   14.50    7.90
  -4  -3   1   13.20    6.20
   3   3  -1 1013.80   45.40
  -3  -3   1 1019.00   51.59
   2   3  -1  370.46   17.70
  -2  -3   1  374.26   20.30
   1   3  -1 2230.88   97.29
  -1  -3   1 2199.78  107.29
   0   3  -1  171.48    8.60
   0  -3   1  139.89    9.50
  -1   3  -1   81.59    5.90
  -1   3  -1   84.09    4.70
  -2   3  -1 2290.17   98.19
   2  -3   1 2329.67  112.69
  -3   3  -1  573.74   26.00
  -3   3  -1  543.95   26.60
   3  -3   1  606.14   30.70
  -4   3  -1   96.69    8.30
   4  -3   1  111.39   10.20
  -5   3  -1   16.70    5.20
   5  -3   1   33.20    7.50
  -6   3  -1    2.80    6.10
   6  -3   1   17.70    8.80
   7  -3   1   12.30   10.30
  -7  -2   1  -10.10    9.10
  -6  -2   1   15.00    9.10
  -5  -2   1   91.79   10.70
  -4  -2   1  953.10   49.30
   3   2  -1 1367.66   61.19
  -3  -2   1 1424.66   69.29
   2   2  -1  293.87   14.10
  -2  -2   1  318.77   16.90
   1   2  -1 2720.83  123.39
  -1  -2   1 2940.91  136.09
   0   2  -1 1598.94   70.69
   0  -2   1 1630.54   78.29
  -1   2  -1 5638.64  228.68
  -1   2  -1 5544.55  236.38
   1  -2   1 5110.09  260.67
  -2   2  -1  183.28    9.30
  -2   2  -1  200.08    9.10
   2  -2   1  159.98   11.40
  -3   2  -1  353.46   16.90
   3  -2   1  355.26   20.50
  -4   2  -1   74.99    6.20
   4  -2   1   83.59    8.90
  -5   2  -1  270.57   16.10
   5  -2   1  321.77   19.50
   6  -2   1   12.40    8.40
   7  -2   1    3.80    9.70
  -7  -1   1   43.30   11.40
  -6  -1   1  108.09   13.40
  -5  -1   1    5.90    6.00
  -5  -1   1    0.30    4.00
  -4  -1   1  763.82   40.70
  -4  -1   1  783.02   34.80
  -3  -1   1 1478.65   64.19
  -3  -1   1 1515.55   73.89
  -2  -1   1 3205.58  154.18
  -1  -1   1  140.69    7.80
   0  -1   1   15.10    2.00
  -2   1  -1 4236.48  171.88
   2  -1   1 3902.81  195.88
  -3   1  -1  150.38    8.40
   3  -1   1  149.29   11.10
  -4   1  -1   23.10    3.90
   4  -1   1   14.90    5.20
   5  -1   1  261.07   17.80
   6  -1   1    1.60    7.60
   7  -1   1   26.70   10.20
   7   0  -1    3.70    9.60
  -6   0   1    9.00    5.80
  -6   0   1   12.00    7.90
  -5   0   1  151.18   11.50
  -5   0   1  172.28   14.60
  -4   0   1 1056.79   52.49
  -4   0   1  993.40   45.20
  -3   0   1  586.04   30.50
  -3   0   1  583.34   26.30
  -2   0   1  279.97   13.20
  -2   0   1  290.47   15.30
  -1   0   1 4976.10  230.18
  -1   0   1 4650.83  203.18
   0   0   1  278.97   13.80
   1   0   1 2681.33  128.69
  -2   0  -1  607.64   31.30
  -3   0  -1  390.16   22.20
  -4   0  -1  373.76   22.20
   4   0   1  367.56   21.50
   5   0   1  398.36   23.90
   6   0   1   -7.80    6.70
   7   0   1    3.00   10.20
   7  -1  -1   78.59   13.10
  -7   1   1   43.20    9.40
   6  -1  -1   26.50    8.60
  -6   1   1   21.60    6.60
   5  -1  -1    1.90    6.00
  -5   1   1    2.00    4.60
  -4   1   1 1347.87   67.49
  -4   1   1 1339.07   59.09
  -3   1   1  278.17   16.50
  -3   1   1  279.97   14.20
  -2   1   1 1309.07   55.79
  -2   1   1 1278.07   63.29
   1  -1  -1  150.78    8.70
  -1   1   1  178.28    8.70
   0  -1  -1    6.40    0.80
   0   1   1    7.10    1.20
  -2  -1  -1 2455.05  118.89
  -3  -1  -1    9.80    4.20
  -4  -1  -1  341.47   21.50
  -5  -1  -1  233.48   17.60
  -6  -1  -1   31.00   10.00
   6   1   1   28.80    9.40
   7   1   1    5.80   10.10
   7  -2  -1    7.80   10.00
  -7   2   1   15.20    8.40
   6  -2  -1    1.10    7.30
  -6   2   1   13.10    6.80
   5  -2  -1  170.88   15.00
  -5   2   1  201.48   13.40
   4  -2  -1  400.96   22.90
  -4   2   1  414.46   20.50
  -3   2   1   92.49    7.40
  -3   2   1   72.59    5.60
   2  -2  -1 1488.95   77.59
  -2   2   1 1655.83   70.49
  -2   2   1 1651.23   69.09
   1  -2  -1 3570.04  180.98
  -1   2   1 3839.52  160.18
  -1   2   1 3928.31  165.08
   0  -2  -1  472.05   24.80
   0   2   1  538.35   22.60
   0   2   1  525.85   23.70
  -1  -2  -1   -1.60    1.50
   1   2   1    2.90    1.00
  -2  -2  -1 1587.74   77.69
  -3  -2  -1   82.59    8.30
   3   2   1  106.89    7.60
  -4  -2  -1  701.83   38.40
  -5  -2  -1  170.08   15.30
  -6  -2  -1   11.00    9.90
   7  -3  -1   40.20   11.60
  -7   3   1   23.70    9.60
   6  -3  -1   -3.60    8.30
  -6   3   1   -5.00    6.80
   5  -3  -1   59.39    9.10
  -5   3   1   61.29    8.30
  -4   3   1  815.12   37.70
   3  -3  -1    5.60    3.70
  -3   3   1   -4.30    3.50
  -3   3   1    6.40    3.70
   2  -3  -1   71.49    6.10
  -2   3   1   77.29    6.30
   1  -3  -1   52.79    4.90
  -1   3   1   44.10    4.60
  -1   3   1   49.99    5.10
   0  -3  -1    7.20    2.00
   0   3   1    8.70    2.50
   0   3   1    4.60    3.30
  -1  -3  -1 2510.35  125.69
   1   3   1 2556.64  110.49
   1   3   1 2769.22  115.39
  -2  -3  -1  708.53   36.10
   2   3   1  699.43   33.10
  -3  -3  -1   29.30    5.80
   3   3   1   34.30    5.30
  -4  -3  -1  553.84   31.30
  -5  -3  -1   49.00   10.70
  -6  -3  -1    2.10    9.40
  -6   4   1   -7.50    7.40
  -5   4   1  120.39   11.20
   4  -4  -1    9.80    5.50
  -4   4   1    8.10    5.20
   3  -4  -1   49.50    6.20
  -3   4   1   58.09    6.50
  -3   4   1   52.89    6.50
   2  -4  -1 1528.65   71.99
  -2   4   1 1436.36   64.39
  -2   4   1 1437.46   66.29
   1  -4  -1  766.42   35.10
  -1   4   1  640.84   32.80
  -1   4   1  674.23   31.70
   0  -4  -1  238.28   13.00
   0   4   1  217.98   13.80
   0   4   1  228.28   12.10
  -1  -4  -1  682.53   35.40
   1   4   1  709.33   33.60
   1   4   1  705.73   30.90
   2   4   1  918.71   40.30
   2   4   1  931.01   43.40
  -3  -4  -1   31.50    6.30
   3   4   1   43.30    6.80
  -4  -4  -1  280.37   19.30
  -5  -4  -1   12.30    9.00
  -6  -4  -1    5.40   11.60
  -6   5   1    2.50    8.30
  -5   5   1   57.49    9.20
  -4   5   1  166.88   12.60
  -3   5   1   68.99    7.60
  -3   5   1   66.99    8.40
  -2   5   1   -4.80    5.60
  -2   5   1   -2.30    4.10
  -1   5   1  272.27   15.30
  -1   5   1  269.77   16.20
   0  -5  -1   62.49    5.90
   0   5   1   66.19    8.10
   0   5   1   53.79    5.60
  -1  -5  -1  817.62   40.60
   1   5   1  770.12   38.50
  -2  -5  -1   26.40    5.90
   2   5   1   23.80    6.90
  -3  -5  -1   86.29    9.90
   3   5   1   81.09    9.50
  -4  -5  -1  200.68   17.30
  -5  -5  -1   17.60   10.90
  -6  -5  -1   -0.20   12.10
  -6   6   1    5.10    9.20
  -5   6   1   24.80    8.70
  -4   6   1   15.00    6.70
  -3   6   1   -5.10    7.30
  -3   6   1    8.00    5.80
  -2   6   1  349.17   21.60
  -2   6   1  358.56   19.30
  -1   6   1   20.20    7.50
   0   6   1   -2.70    7.20
   1   6   1  265.67   17.40
   2   6   1  106.39   11.40
  -3  -6  -1   30.70    7.80
   3   6   1   33.30    9.10
  -4  -6  -1    9.80    9.10
  -5  -6  -1    4.10   11.20
  -5   7   1   31.90    9.70
  -3   7   1   20.00    9.30
  -2   7   1   16.80    8.70
  -1   7   1   69.89   11.30
   0   7   1   88.59   11.40
   1   7   1   56.69   11.10
   2   7   1    1.80    9.20
   3   7   1   38.40   11.00
  -3   8   1   14.40   11.00
  -2   8   1   36.10   11.70
  -1   8   1   -2.60    9.50
   0   8   1    2.60    9.50
   1   8   1   36.60   11.10
   2   8   1    5.60   11.00
   3   8   1   -0.40   11.20
  -2   9   1    2.00   11.70
  -1   9   1   -6.90   11.80
   0   9   1    5.80   11.90
   1   9   1  -10.70   11.80
   2   9  -2   -0.30    9.80
   1   9  -2   45.60   11.30
   0   9  -2    0.10   10.00
  -1   9  -2    2.40   10.80
  -2   9  -2   -1.10   10.80
  -3   9  -2  -10.00   11.00
  -4  -8   2   18.50   11.10
   3   8  -2   -1.20    8.10
  -3  -8   2   -0.10    9.20
   2   8  -2   23.90    9.10
   1   8  -2    1.50    7.60
   0   8  -2    4.70    8.40
  -1   8  -2   69.89   11.20
  -2   8  -2   10.20    9.50
  -3   8  -2   72.59   12.20
  -5  -7   2    5.00   10.90
  -4  -7   2    0.90    9.00
   3   7  -2   15.10    7.60
  -3  -7   2   15.30    8.60
   2   7  -2   89.49   10.10
  -2  -7   2   99.59   11.20
   1   7  -2  244.58   16.20
  -1  -7   2  281.87   18.80
   0   7  -2   12.70    7.20
  -1   7  -2    4.00    6.60
   1  -7   2   -0.20    6.40
  -2   7  -2  117.19   11.30
  -3   7  -2   -0.10    8.10
  -5  -6   2   39.10   10.70
  -4  -6   2  107.09   12.40
   3   6  -2   -3.50    5.50
  -3  -6   2   -5.10    6.40
   2   6  -2   28.30    5.90
  -2  -6   2   31.60    7.00
   1   6  -2   76.49    7.80
  -1  -6   2   81.59    9.20
   0   6  -2   -4.00    5.20
   0  -6   2   -0.90    5.00
  -1   6  -2  454.85   23.90
  -2   6  -2    2.10    6.10
   2  -6   2    2.70    2.10
  -3   6  -2  122.29    9.80
  -3   6  -2  130.19   11.30
   3  -6   2  120.49   11.90
  -4   6  -2   52.29    6.80
   4  -6   2   66.09   10.00
  -5   6  -2   58.69    8.50
   5  -6   2   83.99   12.50
  -6  -5   2   17.40   10.30
  -5  -5   2   11.80    9.00
  -4  -5   2    4.10    6.40
   3   5  -2   -0.50    4.50
  -3  -5   2    3.70    5.60
   2   5  -2  996.60   45.20
  -2  -5   2  976.90   50.69
   1   5  -2  363.26   18.70
  -1  -5   2  382.26   21.60
   0   5  -2   -2.30    3.60
   0  -5   2    2.70    4.70
  -1   5  -2  262.97   12.40
  -1   5  -2  243.58   14.80
   1  -5   2  294.47   17.70
  -2   5  -2  400.76   19.30
  -2   5  -2  411.86   21.40
   2  -5   2  447.76   24.50
  -3   5  -2   44.20    5.10
  -3   5  -2   51.09    7.10
   3  -5   2   55.89    8.40
  -4   5  -2   15.20    4.70
   4  -5   2   20.30    8.80
  -5   5  -2   24.30    6.50
   5  -5   2   41.40   10.10
   6  -5   2    1.80    9.70
  -6  -4   2    4.60    9.20
  -5  -4   2  233.18   18.00
  -4  -4   2  275.37   18.80
   3   4  -2    3.30    3.30
  -3  -4   2    2.00    4.80
   2   4  -2   13.20    3.40
  -2  -4   2    8.40    4.20
   1   4  -2 1144.39   49.99
  -1  -4   2 1081.39   55.59
   0   4  -2  241.08   12.80
   0  -4   2  242.58   15.30
  -1   4  -2 1040.80   43.00
  -1   4  -2  996.30   45.40
   1  -4   2  965.30   51.19
  -2   4  -2  370.26   17.50
  -2   4  -2  383.56   19.10
   2  -4   2  398.56   22.60
  -3   4  -2    5.00    2.80
  -3   4  -2    6.50    2.90
   3  -4   2    6.20    5.40
  -4   4  -2  513.45   26.00
   4  -4   2  608.94   31.40
  -5   4  -2   95.49    8.70
   5  -4   2  113.89   11.70
   6  -4   2   -1.90    7.80
  -6  -3   2   10.90    9.00
  -5  -3   2   17.20    7.40
  -4  -3   2  280.97   18.40
   3   3  -2   99.49    6.30
  -3  -3   2   84.49    8.50
   2   3  -2 2982.50  136.59
  -2  -3   2 3277.07  151.28
   1   3  -2  252.17   11.80
  -1  -3   2  219.08   13.40
   0   3  -2  365.26   17.10
   0  -3   2  354.06   19.80
  -1   3  -2 1494.25   64.39
   1  -3   2 1409.16   72.19
  -2   3  -2  843.02   34.90
  -2   3  -2  769.42   36.30
   2  -3   2  792.42   41.80
  -3   3  -2  163.98    9.40
   3  -3   2  172.28   12.30
  -4   3  -2    7.50    3.60
   4  -3   2    4.80    5.90
   5  -3   2   23.30    7.50
   6  -3   2   66.59   10.50
   7  -3   2    1.90    9.60
  -7  -2   2    2.90    9.40
  -6  -2   2   50.69   10.50
  -5  -2   2  567.64   26.40
  -5  -2   2  525.25   31.10
  -4  -2   2  243.08   15.90
   3   2  -2  134.69    7.30
  -3  -2   2  130.39   10.00
  -3  -2   2  150.68    7.90
   2   2  -2 1228.28   55.69
  -2  -2   2 1299.47   54.09
  -2  -2   2 1275.87   62.29
   1   2  -2 1475.65   66.49
  -1  -2   2 1557.74   73.79
   0   2  -2 1022.80   44.30
   0  -2   2  977.90   49.60
  -1   2  -2  168.18    8.70
   1  -2   2  181.58   11.80
   2  -2   2  240.08   14.70
   3  -2   2 1108.69   56.09
   4  -2   2 1168.78   59.69
   5  -2   2   75.49   10.00
   6  -2   2    2.10    7.40
   7  -2   2   29.20   10.10
  -7  -1   2   61.19   12.00
  -6  -1   2    5.70    5.50
  -6  -1   2   -9.20    7.50
  -5  -1   2   17.50    6.50
  -5  -1   2   20.30    5.10
  -4  -1   2  774.92   41.10
  -4  -1   2  797.52   35.60
  -3  -1   2 1075.79   52.89
  -3  -1   2 1042.50   46.10
  -2  -1   2 4783.12  229.28
  -1  -1   2   60.09    4.10
  -1  -1   2   47.30    4.30
   0  -1   2  885.41   43.60
   1  -1   2 4978.50  238.88
   2  -1   2  660.53   34.10
   3  -1   2  202.58   14.00
   4  -1   2  195.28   14.90
   5  -1   2    6.60    7.10
   6  -1   2   89.89   12.30
   7  -1   2    3.40    9.90
   7   0  -2   20.30    9.90
  -7   0   2    9.20    8.80
  -7   0   2    4.80    7.30
  -6   0   2  114.49   10.60
  -6   0   2  107.89   12.90
  -5   0   2  547.15   29.90
  -5   0   2  501.65   25.90
  -4   0   2  140.39   10.00
  -4   0   2  134.39   10.80
  -3   0   2  234.18   13.80
  -3   0   2  223.08   12.20
  -2   0   2 4126.69  173.58
  -2   0   2 4060.79  196.18
  -1   0   2  372.16   19.20
  -1   0   2  391.36   17.90
   0   0   2  340.77   17.50
   0   0   2  353.86   15.30
   1   0   2   57.79    5.10
   2   0   2  363.86   19.90
   3   0   2 1797.22   88.49
   4   0   2  887.11   46.20
   5   0   2   28.20    8.10
   6   0   2   29.70    9.30
   7   0   2   40.90   12.20
   7  -1  -2   12.90   10.50
  -7   1   2   13.70    8.20
   6  -1  -2   31.50    8.90
  -6   1   2   23.30    7.30
  -5   1   2  377.16   22.90
  -5   1   2  347.47   20.00
  -4   1   2  171.88   13.20
  -4   1   2  181.28   11.70
  -3   1   2 1686.83   83.29
  -3   1   2 1646.44   74.39
  -3   1   2 1777.02   73.99
  -2   1   2  653.33   33.20
  -2   1   2  681.33   30.50
  -1   1   2   56.69    4.70
  -1   1   2   53.49    3.60
   0   1   2 2600.94  118.99
   0   1   2 3017.50  134.39
  -1  -1  -2 4839.32  231.88
  -2  -1  -2    1.80    3.10
  -3  -1  -2   11.10    5.20
  -4  -1  -2  351.16   21.90
   5   1   2   76.69   10.10
   6   1   2   52.59   10.50
   7  -2  -2    2.10   10.70
  -7   2   2    0.00    8.40
   6  -2  -2  175.28   16.40
  -6   2   2  169.58   14.50
   5  -2  -2  194.28   15.60
  -5   2   2  227.18   14.80
   4  -2  -2    0.30    1.60
  -4   2   2   -0.20    4.20
   3  -2  -2  221.08   13.40
  -3   2   2  215.98   13.30
  -3   2   2  219.98   11.70
   2  -2  -2 4128.69  204.38
  -2   2   2 4346.57  181.58
  -2   2   2 4325.47  186.38
   1  -2  -2    4.60    1.40
  -1   2   2    6.90    2.70
   0  -2  -2  460.95   22.70
   0   2   2  467.55   21.10
  -1  -2  -2  157.58    9.20
   1   2   2  145.99    8.00
  -2  -2  -2  251.87   14.90
  -3  -2  -2 1177.08   59.69
  -4  -2  -2  427.26   26.10
   6   2   2   96.29   13.80
  -7   3   2    7.30    9.70
  -6   3   2    4.60    7.70
   5  -3  -2  141.49   11.40
   4  -3  -2    1.30    5.10
  -4   3   2   11.80    5.20
   3  -3  -2  582.84   29.90
  -3   3   2  578.04   28.00
  -3   3   2  563.94   27.40
   2  -3  -2   75.59    6.00
  -2   3   2   52.99    5.50
  -2   3   2   72.99    6.60
   1  -3  -2   93.29    5.60
  -1   3   2   77.29    6.60
  -1   3   2   80.99    7.00
   0  -3  -2 3127.39  145.79
   0   3   2 3105.19  134.49
   0   3   2 2903.91  129.49
  -1  -3  -2 1594.84   75.59
   1   3   2 1514.55   66.59
  -2  -3  -2    2.10    1.50
   2   3   2   11.00    2.10
  -3  -3  -2  519.15   28.00
   3   3   2  473.65   25.40
  -4  -3  -2   91.59   11.20
  -5  -3  -2   51.49   10.50
  -6  -3  -2   13.80   10.60
  -6   4   2  111.09   12.50
  -5   4   2   -3.40    6.30
  -4   4   2   19.50    6.20
  -3   4   2  534.15   26.60
  -3   4   2  520.25   26.40
  -2   4   2  791.12   37.70
  -2   4   2  803.52   37.20
  -1   4   2  253.87   15.40
  -1   4   2  265.57   14.80
   0  -4  -2    9.00    2.60
   0   4   2   10.80    3.70
   0   4   2   19.00    5.60
  -1  -4  -2  338.17   18.50
   1   4   2  357.66   16.80
   1   4   2  320.67   18.60
  -2  -4  -2   41.90    6.10
   2   4   2   40.60    7.40
   2   4   2   47.90    4.50
  -3  -4  -2  455.95   25.90
   3   4   2  459.15   24.30
   3   4   2  436.06   21.10
  -4  -4  -2   58.29   10.20
  -5  -4  -2   31.10   10.80
  -6  -4  -2   92.29   16.00
  -6   5   2    7.10    9.20
  -5   5   2   66.69    9.70
  -4   5   2   28.10    7.10
  -3   5   2   85.09    9.50
  -3   5   2   78.59    8.70
  -2   5   2  151.78   11.20
  -2   5   2  140.49   12.00
  -1   5   2   63.89    6.90
  -1   5   2   61.89    8.00
   0   5   2 1002.90   44.90
   0   5   2  999.70   47.50
   1   5   2   33.30    7.40
  -2  -5  -2   13.60    5.60
   2   5   2   -0.20    7.30
   3   5   2  269.17   18.10
  -4  -5  -2   15.00    8.60
  -5  -5  -2    4.90   10.40
  -5   6   2   20.50    8.50
  -4   6   2   -2.40    6.60
  -3   6   2  211.78   15.30
  -3   6   2  228.28   17.30
  -2   6   2   -5.90    6.70
  -2   6   2   -7.30    5.30
  -1   6   2  102.79   11.00
   0   6   2   99.69   11.40
   1   6   2  128.49   12.90
   2   6   2   23.60    9.20
   3   6   2   55.49   10.90
  -3   7   2    0.10    9.30
  -2   7   2   49.70   10.20
  -1   7   2   53.79   10.60
   0   7   2   89.29   12.60
   1   7   2   19.40   10.00
   2   7   2    3.60   10.10
   3   7   2   43.50   12.20
  -3   8   2   18.40   11.30
  -2   8   2   24.30   11.80
  -1   8   2   -3.80   10.80
   0   8   2   77.69   13.60
   1   8   2   18.40   11.70
   2   8   2   -5.00   11.50
   2   9  -3   26.00    9.90
   1   9  -3    4.50    8.50
   0   9  -3   13.10    8.70
  -1   9  -3   -5.30    9.50
  -2   9  -3   -2.90   10.40
  -3   9  -3    6.30   10.20
  -4  -8   3    2.30   10.60
   3   8  -3   20.30    8.00
  -3  -8   3   25.60   10.50
   2   8  -3    4.00    7.30
  -2  -8   3    2.70    8.20
   1   8  -3   16.10    7.90
  -1  -8   3   16.80    8.40
   0   8  -3  115.89   10.90
   0  -8   3   51.29   10.10
  -1   8  -3   52.19    9.90
  -2   8  -3    3.80    8.00
  -3   8  -3    4.40    9.50
  -4  -7   3   -0.60    8.70
   3   7  -3   35.60    7.40
  -3  -7   3   40.00    9.80
   2   7  -3  272.37   16.90
  -2  -7   3  304.47   20.50
   1   7  -3   -0.50    6.00
  -1  -7   3    1.20    6.70
   0   7  -3   21.20    6.50
   0  -7   3   31.50    8.00
  -1   7  -3   73.99    9.30
   1  -7   3  100.59   11.20
  -2   7  -3   -3.50    6.50
   2  -7   3   -3.00    6.50
  -3   7  -3   69.59   10.10
   3  -7   3   61.59   10.10
   4  -7   3   18.00    9.00
  -5  -6   3   90.59   13.10
  -4  -6   3   11.50    8.20
   3   6  -3   45.30    6.70
  -3  -6   3   43.90    8.80
   2   6  -3   14.30    5.20
  -2  -6   3   16.60    6.00
   1   6  -3    4.80    4.50
  -1  -6   3    6.30    5.70
   0   6  -3  547.65   28.30
   0  -6   3  638.34   33.70
  -1   6  -3  126.49   10.20
   1  -6   3  150.48   13.60
  -2   6  -3    4.50    5.50
   2  -6   3   -0.30    6.50
  -3   6  -3  163.38   13.60
   3  -6   3  147.99   14.50
   4  -6   3   66.39   10.90
   5  -6   3   16.90   10.40
   6  -6   3    0.70   12.20
  -6  -5   3   29.60   10.80
  -5  -5   3   27.30    9.40
  -4  -5   3   -1.30    6.20
   3   5  -3  820.92   36.30
  -3  -5   3  736.03   41.50
   2   5  -3  550.24   26.00
  -2  -5   3  536.65   30.10
   1   5  -3   99.39    7.90
  -1  -5   3   96.99    9.40
   0   5  -3  175.88   10.90
   0  -5   3  173.78   14.10
  -1   5  -3  415.46   20.90
   1  -5   3  411.96   25.00
  -2   5  -3   47.80    6.10
   2  -5   3   51.39    8.50
  -3   5  -3  255.27   16.20
   3  -5   3  324.07   20.20
   4  -5   3   28.80    9.80
   5  -5   3   30.60   10.30
   6  -5   3   40.00   11.80
  -6  -4   3  159.08   16.30
  -5  -4   3  156.28   15.00
  -4  -4   3   29.30    7.50
   3   4  -3    4.90    3.30
  -3  -4   3    2.70    5.00
   2   4  -3  277.67   13.90
  -2  -4   3  271.87   16.60
   1   4  -3   66.79    5.90
  -1  -4   3   75.99    7.20
   0   4  -3 2494.55  107.99
   0  -4   3 2410.06  120.29
  -1   4  -3  114.19    7.80
   1  -4   3   95.49    9.90
  -2   4  -3   29.00    4.40
   2  -4   3   32.60    7.00
   3  -4   3  660.13   36.60
   4  -4   3   72.59   10.20
   5  -4   3    2.90    7.40
   6  -4   3   -3.50    8.80
  -6  -3   3   56.09   11.10
  -5  -3   3   22.50    7.60
  -4  -3   3   23.50    6.50
  -4  -3   3   34.50    4.20
   3   3  -3 2418.86  106.59
  -3  -3   3 2403.06  118.89
  -3  -3   3 2472.15  103.39
   2   3  -3  570.34   26.60
  -2  -3   3  550.74   30.30
  -2  -3   3  622.74   25.40
   1   3  -3    6.20    2.40
  -1  -3   3    3.10    2.90
   0   3  -3 1800.92   79.29
  -1   3  -3  615.74   27.60
   1  -3   3  581.84   32.50
   2  -3   3  716.03   38.60
   3  -3   3  169.58   13.80
   4  -3   3   12.70    6.60
   5  -3   3  201.48   16.40
   6  -3   3   49.20   10.30
  -7  -2   3   34.20   11.00
  -6  -2   3  271.07   16.40
  -6  -2   3  252.47   19.30
  -5  -2   3   46.90    6.00
  -5  -2   3   43.60    8.10
  -4  -2   3  119.39   10.70
  -3  -2   3  567.04   25.70
  -3  -2   3  571.74   29.90
  -2  -2   3 1676.23   80.29
  -2  -2   3 1612.24   70.29
  -1  -2   3 3548.74  152.58
  -1  -2   3 3668.83  173.58
   0  -2   3 2706.93  135.09
   0  -2   3 2862.41  117.59
   1  -2   3   95.39    9.20
   2  -2   3  549.65   29.50
   3  -2   3 1245.48   62.89
   4  -2   3  140.09   13.00
   5  -2   3   -1.40    6.90
   6  -2   3    6.70    8.60
  -7  -1   3    0.40    6.90
  -7  -1   3   12.40   10.40
  -6  -1   3    3.10    5.80
  -6  -1   3    4.50    8.00
  -5  -1   3  202.18   16.00
  -5  -1   3  225.68   14.20
  -4  -1   3  495.35   26.90
  -4  -1   3  472.15   23.30
  -3  -1   3 2283.07  109.59
  -3  -1   3 2226.28   96.69
  -2  -1   3  996.50   46.00
  -2  -1   3  857.11   40.90
  -1  -1   3  327.77   17.00
   0  -1   3 2846.22  119.59
   0  -1   3 2112.29  104.49
   1  -1   3 1108.59   55.09
   2  -1   3 1002.90   50.49
   3  -1   3    2.00    4.80
   4  -1   3   21.50    6.80
   5  -1   3  334.17   21.70
   6  -1   3   55.99   10.40
  -7   0   3   24.30    8.70
  -7   0   3   60.29   11.90
  -6   0   3  114.89   13.10
  -5   0   3   18.20    6.70
  -5   0   3    4.20    5.10
  -4   0   3   -0.10    3.80
  -4   0   3    1.00    4.30
  -3   0   3 2530.05  123.99
  -3   0   3 2595.84  110.19
  -2   0   3  885.01   44.10
  -2   0   3  912.51   40.20
  -1   0   3 6080.09  268.77
  -1   0   3 6640.64  303.77
   0   0   3  169.78    9.90
   0   0   3  172.18    8.60
   1   0   3  151.68    9.60
   2   0   3 2689.33  130.59
   3   0   3 1827.92   90.49
   4   0   3  131.69   12.10
   5   0   3   29.80    8.20
   6   0   3   26.60    9.30
   7  -1  -3   18.00   10.60
  -7   1   3   -5.30    8.10
   6  -1  -3   88.19   11.60
  -6   1   3   97.19   10.80
  -6   1   3   83.79   11.50
  -5   1   3  193.48   13.90
  -5   1   3  177.68   15.20
  -4   1   3 1279.27   65.29
  -4   1   3 1333.47   58.49
  -3   1   3  992.10   49.30
  -3   1   3  981.80   44.90
  -2   1   3   41.80    3.90
  -2   1   3   39.20    5.00
  -1   1   3 1345.17   58.39
  -1   1   3 1337.67   64.29
   0   1   3 4377.66  186.38
   0   1   3 4439.96  210.78
   1   1   3  193.48    9.20
   1   1   3  164.18   10.60
   2   1   3  387.96   21.40
   3   1   3  162.58   12.70
   4   1   3  183.28   15.00
   5   1   3  272.37   19.40
   6   1   3   48.40   10.90
  -7   2   3   23.50   10.00
   6  -2  -3   16.50    8.70
  -6   2   3    9.50    7.90
  -5   2   3   46.20    7.60
   4  -2  -3  332.47   19.10
  -4   2   3  302.37   18.20
   3  -2  -3 2024.20   96.99
  -3   2   3 2048.90   87.49
  -3   2   3 1923.21   88.19
   2  -2  -3   10.10    2.40
  -2   2   3    6.40    3.80
  -1   2   3  575.64   26.70
   0   2   3  938.21   40.30
   0   2   3  900.41   44.20
  -1  -2  -3  187.68   11.50
   1   2   3  193.68   11.40
   1   2   3  201.08   10.40
  -3  -2  -3 1256.97   63.69
  -4  -2  -3   89.29   10.60
   4   2   3   96.19   10.50
   5   2   3   77.39   11.10
   6   2   3    6.10    9.10
  -7   3   3   14.20    9.30
  -6   3   3  134.69   13.20
  -5   3   3   -4.10    6.10
  -4   3   3  688.03   33.60
  -3   3   3   72.09    8.10
  -3   3   3   62.89    6.70
  -2   3   3   33.40    5.70
  -2   3   3   25.70    5.00
  -1   3   3 2168.88   93.69
   0  -3  -3 1935.61   92.19
   0   3   3 1904.81   82.79
  -1  -3  -3  142.59    9.60
   1   3   3  155.78    9.50
  -2  -3  -3   65.89    7.30
   2   3   3   77.19    5.50
  -3  -3  -3  182.48   14.20
  -4  -3  -3  159.18   15.40
  -5  -3  -3  115.39   14.20
   5   3   3  105.29   13.70
   6   3   3   28.50   11.70
  -6   4   3   17.80    9.10
  -5   4   3   12.10    7.30
  -4   4   3  440.46   23.90
  -3   4   3  316.47   17.30
  -2   4   3  178.58   13.30
  -2   4   3  189.28   12.90
  -1   4   3   40.70    6.80
  -1   4   3   41.30    6.00
   0   4   3  384.76   21.30
   0   4   3  380.86   19.80
   1   4   3  373.06   18.10
   1   4   3  345.07   20.60
  -2  -4  -3 1301.67   66.79
   2   4   3 1318.57   62.69
   2   4   3 1408.86   58.79
   3   4   3  355.76   22.50
   3   4   3  406.96   19.80
  -4  -4  -3   70.99   10.90
  -5  -4  -3   47.40   12.00
   6   4   3  -15.50   10.60
  -6   5   3   35.30   10.20
  -5   5   3   47.20    9.20
  -4   5   3  108.59   10.90
  -3   5   3   10.30    7.00
  -3   5   3   10.50    6.40
  -2   5   3   20.60    6.20
  -2   5   3    0.30    6.50
  -1   5   3  805.82   39.60
  -1   5   3  808.62   37.80
   0   5   3  101.09    8.70
   0   5   3  103.79   10.60
   1   5   3    5.40    4.40
   1   5   3   10.30    6.90
   2   5   3  225.78   17.00
   3   5   3   25.20    8.90
  -5   6   3   -0.60    8.10
  -4   6   3  173.78   14.90
  -3   6   3   15.40    8.80
  -3   6   3   25.50    7.50
  -2   6   3   54.29    8.10
  -2   6   3   40.90    9.30
  -1   6   3  124.89   12.10
   0   6   3   57.19   10.20
   1   6   3  271.87   19.40
   2   6   3  316.37   21.40
   3   6   3    8.40    9.80
  -4   7   3    0.40    7.90
  -3   7   3   14.10   10.20
  -2   7   3   22.80    9.50
  -1   7   3  104.99   13.30
   0   7   3   19.80    9.30
   1   7   3   12.40    9.90
   2   7   3   47.00   11.90
   3   7   3   -7.60   10.90
  -3   8   3   -3.60   11.20
  -2   8   3    3.10    9.90
  -1   8   3   31.40   11.20
   0   8   3    1.50   10.90
   1   8   3   99.29   15.20
   2   8   3   15.70   11.80
   2   9  -4    2.40    7.60
  -2  -9   4   11.40   10.50
   1   9  -4   20.80    9.00
  -1  -9   4   19.10   10.20
   0   9  -4   -5.50    8.30
  -1   9  -4   11.40    9.80
  -2   9  -4   27.20   10.80
  -3   9  -4    6.90   11.00
  -4  -8   4   14.30   10.70
   3   8  -4    3.40    7.00
  -3  -8   4   -0.10    9.50
   2   8  -4   12.70    6.60
  -2  -8   4   26.20    9.60
   1   8  -4   49.80    8.60
  -1  -8   4   62.79   10.60
   0   8  -4  178.38   13.40
   0  -8   4  181.78   16.50
  -1   8  -4    4.10    7.90
   1  -8   4   -2.20    8.60
  -2   8  -4   12.50    8.00
   2  -8   4   -3.80    7.80
  -3   8  -4   29.50   10.10
   3  -8   4   24.50    9.60
  -4  -7   4   18.30    9.60
   3   7  -4  212.58   13.80
  -3  -7   4  204.68   18.00
   2   7  -4   -5.00    5.60
  -2  -7   4   -0.70    7.00
   1   7  -4   66.59    8.10
  -1  -7   4   71.89   10.20
   0   7  -4   30.60    6.80
   0  -7   4   28.20    9.00
  -1   7  -4    3.50    6.30
   1  -7   4   -6.30    6.90
  -2   7  -4  127.19   11.50
   2  -7   4  100.29   12.70
  -3   7  -4    9.30    7.90
   3  -7   4    8.80    8.30
   4  -7   4   -0.60    9.10
   5  -7   4   10.40   11.00
  -5  -6   4   17.90    9.00
  -4  -6   4   28.00    9.00
   3   6  -4   57.89    6.80
  -3  -6   4   50.69    9.30
   2   6  -4   -0.40    4.20
  -2  -6   4    4.80    6.40
   1   6  -4  797.12   36.90
  -1  -6   4  783.02   42.80
   0   6  -4  325.27   18.20
   0  -6   4  357.86   23.10
  -1   6  -4   96.49    8.70
   1  -6   4   91.49   11.40
  -2   6  -4  106.99    9.70
   2  -6   4  136.59   13.00
  -3   6  -4  131.59   11.70
   3  -6   4  161.18   14.50
   4  -6   4   14.70    9.50
   5  -6   4   24.70   11.60
   6  -6   4    3.00   12.50
  -5  -5   4    5.80    8.20
  -4  -5   4  448.16   27.20
   3   5  -4  730.83   32.90
  -3  -5   4  675.73   38.30
   2   5  -4  102.29    7.90
  -2  -5   4   95.79    9.70
   1   5  -4   19.00    4.40
  -1  -5   4   26.70    6.20
   0   5  -4  269.27   14.00
   0  -5   4  246.78   18.30
  -1   5  -4   95.19    7.90
   1  -5   4   77.99   10.30
  -2   5  -4  580.64   29.20
   2  -5   4  634.84   34.70
   3  -5   4   12.30    7.40
   4  -5   4    8.30    9.50
   5  -5   4   97.49   14.00
   6  -5   4   -3.00   10.70
  -6  -4   4   48.40   11.40
  -5  -4   4   16.40    8.10
  -4  -4   4    2.90    5.40
   3   4  -4  257.57   12.80
  -3  -4   4  208.88   15.30
   2   4  -4  449.26   21.10
  -2  -4   4  430.56   24.60
   1   4  -4 3280.67  152.98
  -1  -4   4 3726.73  170.18
   0   4  -4  157.78    9.40
   0  -4   4  153.58    7.80
   0  -4   4  150.48   12.40
  -1   4  -4   19.40    3.90
   2  -4   4 1178.98   61.09
   3  -4   4  141.49   14.00
   4  -4   4   82.89   11.10
   5  -4   4   40.90   10.10
   6  -4   4    1.40    8.90
  -6  -3   4    0.20    8.30
  -5  -3   4   89.89   10.70
  -4  -3   4 1888.21   79.99
  -4  -3   4 1820.02   92.29
  -3  -3   4  294.27   14.50
  -3  -3   4  305.37   18.30
  -2  -3   4   61.79    6.30
  -2  -3   4   53.89    4.10
  -1  -3   4  403.96   21.90
  -1  -3   4  381.36   18.00
   0  -3   4  635.54   34.70
   0  -3   4  655.53   28.20
   1  -3   4 1173.48   60.09
   2  -3   4 1186.08   61.29
   3  -3   4   14.70    6.60
   4  -3   4  230.18   16.80
   5  -3   4  186.78   15.50
   6  -3   4   12.10    8.60
  -7  -2   4   39.30   12.00
  -6  -2   4   41.20    7.10
  -6  -2   4   56.09   10.40
  -5  -2   4   11.50    4.90
  -5  -2   4   13.40    6.50
  -4  -2   4   47.90    4.90
  -3  -2   4  549.05   25.70
  -3  -2   4  560.94   29.50
  -2  -2   4 2990.90  143.19
  -2  -2   4 2932.31  126.19
  -1  -2   4 7293.77  318.97
  -1  -2   4 7830.42  362.26
   0  -2   4   25.40    5.10
   0  -2   4   17.30    2.30
   1  -2   4 2255.77  110.69
   2  -2   4 2711.83  132.69
   3  -2   4   30.90    6.80
   4  -2   4  207.58   15.50
   5  -2   4   36.40    9.10
   6  -2   4   15.40    9.30
  -7  -1   4    9.00   10.00
  -7  -1   4  -11.70    6.90
  -6  -1   4   -1.00    6.00
  -6  -1   4    4.50    7.80
  -5  -1   4  555.84   30.90
  -5  -1   4  532.55   27.10
  -4  -1   4 2019.30   87.79
  -4  -1   4 2015.70   99.19
  -3  -1   4   12.00    3.90
  -3  -1   4   10.70    3.80
  -2  -1   4  512.15   26.50
  -2  -1   4  525.95   24.60
  -1  -1   4 1888.81   91.99
  -1  -1   4 1908.31   81.69
   0  -1   4   83.99    5.60
   0  -1   4   72.19    7.30
   1  -1   4 2484.85  121.19
   2  -1   4  229.38   15.10
   3  -1   4   40.70    7.20
   4  -1   4 1024.70   53.79
   5  -1   4  197.28   16.70
   6  -1   4    6.10    9.00
  -7   0   4   76.09   11.30
  -7   0   4   68.89   12.40
  -6   0   4   41.40    8.50
  -6   0   4   47.90    9.90
  -5   0   4   48.00    7.40
  -5   0   4   38.10    7.50
  -4   0   4  637.84   30.10
  -4   0   4  592.84   32.40
  -3   0   4   30.10    4.50
  -3   0   4   28.40    5.30
  -2   0   4 6401.36  300.27
  -2   0   4 6153.48  266.27
  -1   0   4 3026.60  145.79
  -1   0   4 3054.49  129.79
   0   0   4    8.50    2.30
   1   0   4 5503.45  222.08
   1   0   4 5008.10  252.27
   2   0   4 2566.04  125.09
   3   0   4   16.30    5.70
   4   0   4  282.57   19.80
   5   0   4   -4.00    7.80
   6   0   4   21.20   10.00
  -6   1   4    3.10    7.80
  -6   1   4   -4.10    6.90
  -5   1   4  725.93   35.30
  -5   1   4  709.33   38.80
  -4   1   4  734.43   35.20
  -4   1   4  721.83   38.10
  -3   1   4   13.40    5.00
  -3   1   4   16.90    3.90
  -2   1   4  589.64   29.80
  -2   1   4  618.84   28.80
  -1   1   4 2403.76  104.19
  -1   1   4 2441.76  115.89
   0   1   4   16.20    2.80
   0   1   4   12.90    2.90
   1   1   4 1003.40   43.70
   1   1   4  998.70   49.60
   2   1   4   -1.40    4.20
   3   1   4  624.94   34.00
   4   1   4  921.41   49.30
   5   1   4  106.39   13.60
   6   1   4   18.20   10.00
  -7   2   4   54.99   11.60
  -6   2   4   20.30    8.20
  -5   2   4   65.19    9.10
  -4   2   4  615.74   31.00
  -3   2   4  621.54   31.70
  -3   2   4  666.23   33.30
  -2   2   4 2790.82  120.49
  -1   2   4   14.10    4.20
   0   2   4  906.61   43.70
   0   2   4  900.41   40.20
   1   2   4 4590.24  208.08
   1   2   4 4072.49  183.48
   2   2   4  702.83   31.80
   2   2   4  708.13   36.70
   3   2   4  203.28   15.30
   4   2   4   19.50    7.90
   5   2   4    9.30    8.40
   6   2   4   13.80   11.20
  -6   3   4   25.90    9.10
  -5   3   4  349.96   21.20
  -4   3   4   20.00    6.90
  -3   3   4    3.50    5.50
  -3   3   4   10.70    5.10
  -2   3   4  576.84   28.50
  -1   3   4  767.12   35.60
   0   3   4  109.49    9.50
   1   3   4  108.49    8.20
   1   3   4   81.89    6.70
   2   3   4    4.20    3.40
   2   3   4    9.70    5.10
   4   3   4  315.97   21.90
   5   3   4   53.09   11.40
   6   3   4    1.30   11.30
  -6   4   4   -5.20    8.10
  -5   4   4   39.20    8.80
  -4   4   4   72.09    9.50
  -3   4   4  453.05   24.70
  -2   4   4  247.98   16.00
  -2   4   4  271.17   16.60
  -1   4   4   62.19    7.30
  -1   4   4   60.39    8.10
   0   4   4  818.12   37.90
   1   4   4 1145.89   50.79
   2   4   4    3.80    4.20
   3   4   4   77.19    7.40
   4   4   4   34.10    6.20
   4   4   4   22.70    9.50
   5   4   4    9.50   10.30
  -5   5   4   47.50    9.70
  -4   5   4   20.50    8.00
  -3   5   4    0.70    6.70
  -3   5   4    8.00    7.00
  -2   5   4  399.46   22.20
  -2   5   4  401.06   23.00
  -1   5   4   68.89    9.50
  -1   5   4   75.79    8.60
   0   5   4   51.79    9.50
   0   5   4   86.79    8.50
   1   5   4   27.50    8.90
   1   5   4   19.80    5.60
   2   5   4    7.80    8.70
   3   5   4  115.19   13.50
  -5   6   4   16.30    9.10
  -4   6   4   -1.90    7.60
  -3   6   4   94.69   11.80
  -3   6   4  104.69   11.20
  -2   6   4    2.50    7.40
  -2   6   4    6.00    6.80
  -1   6   4   -4.10    5.90
  -1   6   4   -0.80    7.30
   0   6   4  179.58   15.70
   1   6   4   64.09   11.20
   2   6   4   18.20   10.20
   3   6   4   -3.40   10.10
  -4   7   4    6.00    8.50
  -3   7   4   -1.50    9.70
  -2   7   4   50.09   11.40
  -1   7   4    9.40    9.10
   0   7   4    2.50    9.00
   1   7   4    7.10   10.60
   2   7   4   -2.90    9.70
   3   7   4   -2.70   11.40
  -2   8   4    9.10   10.50
  -1   8   4   -3.20   11.10
   0   8   4   15.40   11.70
   1   8   4   -2.60   11.70
   2   9  -5   48.20    9.40
  -2  -9   5   60.29   13.00
   1   9  -5   -1.40    7.50
  -1  -9   5   15.40   10.60
   0   9  -5    2.80    8.10
   0  -9   5   16.20    9.90
  -1   9  -5   12.90    9.40
   1  -9   5    9.80    9.90
  -2   9  -5   16.50    9.30
  -3   9  -5   -4.30   10.40
   3   8  -5    6.50    6.90
  -3  -8   5   13.60   10.10
   2   8  -5   95.09   10.00
  -2  -8   5  107.19   13.90
   1   8  -5  117.69   10.50
  -1  -8   5  150.28   15.70
   0   8  -5   16.30    6.80
   0  -8   5   30.60   10.30
  -1   8  -5   62.89    9.70
   1  -8   5   47.20   10.80
  -2   8  -5   10.40    8.40
   2  -8   5   17.90    9.70
   3  -8   5   10.00    9.80
   4  -8   5   25.60   10.80
  -4  -7   5   65.09   11.70
   3   7  -5   30.10    6.70
  -3  -7   5   28.90    9.40
   2   7  -5  159.68   11.30
  -2  -7   5  142.39   15.00
   1   7  -5    9.30    5.70
  -1  -7   5    5.20    8.10
   0   7  -5    6.30    6.00
   0  -7   5    1.20    8.50
  -1   7  -5  183.38   13.70
   1  -7   5  176.58   16.90
  -2   7  -5   26.90    7.90
   2  -7   5   42.80    9.90
   3  -7   5  -12.10    8.30
   4  -7   5   10.50   10.40
   5  -7   5   -2.90   11.00
  -5  -6   5   48.80   10.80
  -4  -6   5   32.60    8.90
   3   6  -5   98.79    8.30
  -3  -6   5   79.79   11.10
   2   6  -5  826.22   37.90
  -2  -6   5  790.02   44.30
   1   6  -5  241.18   13.70
  -1  -6   5  212.88   17.60
   0   6  -5  405.66   20.10
   0  -6   5  348.37   25.40
  -1   6  -5    0.30    5.10
   1  -6   5    7.60    7.60
   2  -6   5  104.19   13.00
   3  -6   5  133.59   14.40
   4  -6   5  114.59   14.80
   5  -6   5   -2.00   10.00
  -5  -5   5  128.99   13.90
  -4  -5   5  148.89   14.20
   3   5  -5  242.48   13.50
  -3  -5   5  236.58   17.30
   2   5  -5   72.09    6.50
  -2  -5   5   71.39    8.90
   1   5  -5   26.00    4.80
  -1  -5   5   26.30    7.10
   0   5  -5  161.48   10.30
   0  -5   5  143.99   13.80
   1  -5   5  721.13   40.60
   2  -5   5   75.09   11.10
   3  -5   5   -3.50    8.00
   4  -5   5  110.99   14.80
   5  -5   5    3.10   11.00
   6  -5   5   -4.90   11.80
  -6  -4   5   12.00    9.00
  -5  -4   5  100.69   11.80
  -4  -4   5   91.69   10.30
  -3  -4   5  538.55   30.10
  -2  -4   5 2690.93  131.79
  -1  -4   5    0.70    5.20
   0  -4   5  745.43   42.50
   0  -4   5  811.02   34.30
   1  -4   5  761.52   41.50
   2  -4   5   19.10    7.70
   3  -4   5  707.53   40.00
   4  -4   5  150.88   15.90
   5  -4   5   29.80    9.70
   6  -4   5   -0.80   10.10
  -6  -3   5    9.20    8.70
  -5  -3   5  538.95   31.00
  -4  -3   5   59.99    8.20
  -3  -3   5  487.65   23.50
  -3  -3   5  522.85   27.60
  -2  -3   5  181.68   13.00
  -2  -3   5  189.08   10.90
  -1  -3   5   71.79    5.70
  -1  -3   5   52.29    7.20
   0  -3   5 1024.10   54.99
   0  -3   5 1113.89   46.40
   1  -3   5 2269.87  112.39
   2  -3   5  104.19   11.60
   3  -3   5  192.58   16.70
   4  -3   5  171.18   15.90
   5  -3   5   13.00    8.80
   6  -3   5   11.60    9.70
  -7  -2   5   23.00   10.20
  -6  -2   5   25.20    6.90
  -6  -2   5   32.40    9.60
  -5  -2   5   91.69   10.10
  -5  -2   5   79.59    8.00
  -4  -2   5  140.39   11.30
  -4  -2   5   95.09    8.20
  -3  -2   5 1291.77   64.39
  -2  -2   5 2285.77  107.69
  -2  -2   5 2132.09   95.29
  -1  -2   5  336.27   17.10
  -1  -2   5  335.47   19.00
   0  -2   5   98.19    8.90
   1  -2   5 1701.33   84.69
   2  -2   5  510.35   29.60
   3  -2   5  646.64   36.10
   4  -2   5    8.80    7.20
   5  -2   5   45.40    9.20
   6  -2   5   58.39   10.80
  -7  -1   5    1.20    9.60
  -7  -1   5    6.20    8.00
  -6  -1   5   88.79   11.50
  -6  -1   5   72.89    9.60
  -5  -1   5  663.53   36.70
  -5  -1   5  684.03   32.90
  -4  -1   5   14.40    5.10
  -4  -1   5   12.90    5.10
  -3  -1   5  100.39    8.80
  -3  -1   5  118.69    9.50
  -2  -1   5 1594.44   71.89
  -2  -1   5 1678.13   79.89
  -1  -1   5   15.90    3.60
  -1  -1   5   11.80    3.60
   0  -1   5 4111.09  202.68
   0  -1   5 4302.87  178.18
   1  -1   5 1931.91   93.89
   1  -1   5 1880.01   81.49
   2  -1   5   32.60    6.50
   3  -1   5  882.31   46.40
   4  -1   5  144.29   13.80
   5  -1   5    1.40    8.10
   6  -1   5   12.10    9.50
  -7   0   5   -5.10    9.40
  -7   0   5   -1.90    8.50
  -6   0   5   62.69    9.70
  -6   0   5   77.09   11.00
  -5   0   5   18.30    6.50
  -5   0   5   11.00    6.30
  -4   0   5   10.20    4.80
  -4   0   5    3.70    5.40
  -3   0   5 1853.01   90.39
  -3   0   5 1859.81   81.89
  -2   0   5  525.15   26.20
  -2   0   5  532.15   26.80
  -1   0   5   68.29    5.80
  -1   0   5   83.19    6.90
   0   0   5 1733.43   86.69
   0   0   5 1839.72   76.89
   1   0   5  675.63   34.30
   1   0   5  642.84   29.60
   2   0   5  315.37   19.10
   3   0   5  130.19   12.00
   4   0   5   55.49   10.00
   5   0   5   19.20    8.50
   6   0   5  132.39   15.70
  -7   1   5   -6.30    8.90
  -6   1   5  189.18   16.20
  -5   1   5  190.58   15.20
  -4   1   5   47.20    6.80
  -4   1   5   41.10    7.60
  -3   1   5  230.98   15.90
  -3   1   5  248.58   14.20
  -2   1   5 1110.09   49.90
  -2   1   5 1087.19   53.29
  -1   1   5  159.98   11.30
  -1   1   5  161.58    8.80
   0   1   5 2487.55  124.49
   0   1   5 2699.93  110.99
   1   1   5  113.69    9.00
   1   1   5  115.79    8.40
   2   1   5  395.56   18.90
   2   1   5  362.96   22.20
   3   1   5 1104.59   57.09
   4   1   5   50.79    9.20
   5   1   5    6.80    8.20
   6   1   5   14.10   10.80
  -6   2   5   44.80    9.70
  -5   2   5   11.70    7.30
  -4   2   5   15.80    6.80
  -3   2   5 1294.47   58.99
  -2   2   5   -0.30    4.70
  -1   2   5   -2.80    4.20
   0   2   5 1738.23   75.49
   1   2   5  354.16   19.90
   1   2   5  389.76   18.60
   2   2   5   71.69    6.20
   2   2   5   64.39    8.00
   3   2   5   11.70    6.90
   3   2   5    6.60    4.20
   4   2   5   58.59   10.50
   5   2   5  122.29   14.80
   6   2   5  102.99   15.70
  -6   3   5   92.09   11.90
  -5   3   5   -0.10    7.00
  -4   3   5   28.90    8.00
  -3   3   5  441.66   24.20
  -3   3   5  442.36   22.70
  -2   3   5  318.67   19.00
  -1   3   5  293.07   17.30
   0   3   5  269.97   15.70
   1   3   5    1.40    4.00
   2   3   5  548.55   26.20
   3   3   5  302.07   16.80
   4   3   5   34.90    9.90
   4   3   5   34.90    6.40
   5   3   5   40.20   11.80
  -6   4   5    3.30    8.80
  -5   4   5    9.50    8.10
  -4   4   5   58.19    9.70
  -3   4   5  172.48   13.90
  -3   4   5  141.49   11.90
  -2   4   5   34.70    7.40
  -2   4   5   60.29    8.20
  -1   4   5   68.49    8.20
   0   4   5  686.03   33.00
   1   4   5   51.89    6.50
   2   4   5    1.20    4.70
   3   4   5   93.09    8.50
   4   4   5   -1.10    5.80
  -5   5   5    6.40    8.50
  -4   5   5    7.00    8.00
  -3   5   5  188.38   15.80
  -3   5   5  209.28   16.10
  -2   5   5   10.90    6.70
  -2   5   5   22.90    8.00
  -1   5   5  137.89   12.70
  -1   5   5  150.88   12.10
   0   5   5    1.20    5.90
   0   5   5   -5.50    6.80
   1   5   5    3.60    7.90
   1   5   5    1.60    5.50
   2   5   5  106.39   13.00
   2   5   5  119.39    9.80
   3   5   5   49.90   11.70
   4   5   5   22.00   11.00
  -4   6   5   52.19   10.20
  -3   6   5   -3.60    7.70
  -3   6   5    4.90    8.40
  -2   6   5   13.80    9.20
  -2   6   5   10.40    7.40
  -1   6   5   48.10    9.70
  -1   6   5   47.50    8.50
   0   6   5   83.29   11.70
   1   6   5   11.90    9.80
   2   6   5    1.30   10.00
   3   6   5   47.70   12.30
  -3   7   5   18.40   10.60
  -2   7   5   -7.50    9.80
  -1   7   5    9.60   10.50
   0   7   5    5.80    9.80
   1   7   5   -9.30   10.50
   2   7   5   12.00   12.10
   2   9  -6    1.70    7.30
  -2  -9   6    6.80   10.90
   1   9  -6    5.80    6.90
  -1  -9   6   18.50   11.40
   0   9  -6   16.00    8.00
   0  -9   6   12.80   10.50
  -1   9  -6   23.10    9.00
   1  -9   6   16.90   11.10
  -2   9  -6  -10.00    9.30
   2  -9   6   -2.80    9.70
   3   8  -6    9.80    6.70
  -3  -8   6   -1.60    9.80
   2   8  -6    2.70    6.20
  -2  -8   6   -1.40    9.40
   1   8  -6   27.50    7.20
  -1  -8   6   50.79   11.40
   0   8  -6   20.80    7.20
   0  -8   6   13.00   10.40
  -1   8  -6   47.60    8.80
   1  -8   6   43.00   11.80
   2  -8   6   -8.20    9.40
   3  -8   6   25.10   12.00
   4  -8   6   -0.70   11.00
  -4  -7   6    6.40    8.80
   3   7  -6  138.69   11.60
  -3  -7   6  142.89   15.50
   2   7  -6    9.00    5.70
  -2  -7   6   11.80    9.00
   1   7  -6    1.50    5.00
  -1  -7   6    2.40    8.50
   0   7  -6  258.67   14.60
   0  -7   6  214.18   19.90
   1  -7   6   45.80   11.50
   2  -7   6   15.60   10.70
   3  -7   6    4.50    9.60
   4  -7   6    5.90   10.30
  -5  -6   6   21.80   10.20
  -4  -6   6   -3.70    8.00
  -3  -6   6   37.60    9.10
  -2  -6   6   81.29   10.90
  -1  -6   6  123.79   13.90
   0  -6   6   -4.20    7.70
   1  -6   6  139.49   15.10
   2  -6   6   52.29   10.80
   3  -6   6   61.69   12.20
   4  -6   6   -3.80    9.50
   5  -6   6   -7.70   10.20
  -5  -5   6   86.39   12.50
  -4  -5   6  147.19   13.70
  -3  -5   6  102.59   11.00
  -2  -5   6   66.09    9.30
  -1  -5   6  513.35   30.90
   0  -5   6  915.61   49.70
   1  -5   6   45.00    9.80
   2  -5   6   11.40    9.00
   3  -5   6   78.69   12.50
   4  -5   6   -4.50    8.50
   5  -5   6   20.40   12.40
  -6  -4   6   62.59   11.60
  -5  -4   6    2.80    7.70
  -4  -4   6   24.30    7.10
  -3  -4   6  575.44   31.80
  -2  -4   6  239.08   16.20
  -1  -4   6  322.97   21.30
   0  -4   6  305.47   15.00
   0  -4   6  281.27   20.90
   1  -4   6  118.09   12.20
   2  -4   6  483.95   29.50
   3  -4   6  171.08   16.80
   4  -4   6   -9.80    9.80
   5  -4   6   69.89   12.80
   6  -4   6   45.10   13.10
  -6  -3   6  164.78   16.30
  -5  -3   6  109.39   12.20
  -4  -3   6  333.07   21.10
  -3  -3   6    6.60    3.80
  -3  -3   6    6.20    4.70
  -2  -3   6    1.50    4.60
  -2  -3   6   10.60    4.00
  -1  -3   6 2175.58  105.79
  -1  -3   6 2102.99   92.49
   0  -3   6 1978.60   97.59
   0  -3   6 1942.71   83.99
   1  -3   6    9.90    2.10
   2  -3   6   85.19   10.80
   3  -3   6  333.27   23.30
   4  -3   6   22.80    9.60
   5  -3   6    1.50    9.10
   6  -3   6    3.90    9.60
  -6  -2   6   21.60    7.20
  -6  -2   6   28.90    9.30
  -5  -2   6   14.20    5.50
  -5  -2   6   10.60    6.90
  -4  -2   6  369.96   20.60
  -4  -2   6  388.36   22.60
  -3  -2   6  754.42   35.40
  -2  -2   6    3.70    3.90
  -1  -2   6    6.90    4.60
  -1  -2   6    5.90    1.90
   0  -2   6 1726.03   75.09
   0  -2   6 1763.42   86.59
   1  -2   6   72.19    8.40
   1  -2   6   59.99    5.00
   2  -2   6 1238.88   64.39
   3  -2   6  201.68   17.30
   4  -2   6   62.79   10.50
   5  -2   6  222.48   18.20
   6  -2   6   62.79   12.50
  -6  -1   6  287.47   18.90
  -6  -1   6  273.27   20.70
  -5  -1   6    5.70    6.10
  -5  -1   6   -5.00    6.00
  -4  -1   6  158.28   12.70
  -4  -1   6  176.48   12.80
  -3  -1   6   88.49    8.90
  -3  -1   6   86.69    8.40
  -2  -1   6   20.60    4.20
  -2  -1   6   14.80    5.10
  -1  -1   6 3162.78  134.59
  -1  -1   6 3113.09  151.58
   0  -1   6 2356.16  114.09
   0  -1   6 2323.97  100.29
   1  -1   6   26.10    3.80
   2  -1   6  774.02   41.60
   3  -1   6  290.27   20.20
   4  -1   6    2.30    7.80
   5  -1   6   -1.30    8.70
   6  -1   6   18.10    9.70
  -6   0   6   -5.90    7.00
  -5   0   6    9.10    6.90
  -5   0   6    6.20    6.40
  -4   0   6  844.72   43.10
  -4   0   6  834.22   40.90
  -3   0   6 1246.18   60.89
  -3   0   6 1215.88   56.49
  -2   0   6  105.09    9.40
  -2   0   6   91.59    7.20
  -1   0   6  908.71   45.10
  -1   0   6  917.61   41.90
   0   0   6 1185.28   60.19
   0   0   6 1259.47   53.79
   1   0   6  444.16   21.60
   1   0   6  446.16   24.90
   2   0   6  836.12   43.60
   2   0   6  827.92   37.80
   3   0   6  147.09   14.20
   4   0   6  208.38   17.90
   5   0   6  321.07   23.00
   6   0   6   12.00   10.80
  -6   1   6  160.38   14.90
  -5   1   6  115.49   12.10
  -4   1   6   -2.20    6.20
  -3   1   6  412.66   23.20
  -2   1   6  339.47   19.90
  -1   1   6 2640.14  114.29
   0   1   6  291.57   15.70
   0   1   6  288.67   15.80
   1   1   6  112.89    9.50
   1   1   6  143.39   10.80
   2   1   6 1397.56   70.69
   2   1   6 1435.06   62.19
   3   1   6  153.28   14.50
   4   1   6    1.20    8.10
   5   1   6   10.80    9.60
   6   1   6   15.00   11.50
  -6   2   6   11.60    9.10
  -5   2   6   25.20    8.60
  -4   2   6  575.54   30.70
  -3   2   6  116.89   11.10
  -2   2   6    8.70    5.80
  -1   2   6  906.31   42.30
   0   2   6  343.87   18.60
   1   2   6  183.58   12.60
   2   2   6  283.27   16.20
   3   2   6   73.99   10.00
   3   2   6   73.59    7.70
   4   2   6  247.78   20.00
   5   2   6  141.09   16.20
  -6   3   6    8.10    9.10
  -5   3   6   75.19   11.10
  -4   3   6   57.19    9.80
  -3   3   6  206.88   15.70
  -2   3   6  479.25   25.80
  -1   3   6  571.84   29.10
   0   3   6   15.40    5.50
   1   3   6  377.66   20.40
   2   3   6  756.82   35.50
   3   3   6   37.70    6.80
   4   3   6    1.00    6.10
   5   3   6    4.30    4.70
  -5   4   6   43.00   10.00
  -4   4   6  106.29   12.30
  -3   4   6   36.40    8.00
  -3   4   6   38.90    8.50
  -2   4   6   10.90    6.90
   0   4   6   37.20    7.20
   1   4   6   67.59    7.90
   2   4   6   10.20    5.80
   3   4   6   18.50    6.50
   4   4   6  114.19   11.00
  -5   5   6    3.50    9.10
  -4   5   6   50.29   10.40
  -3   5   6    2.90    7.80
  -3   5   6    8.00    8.00
  -2   5   6  136.49   13.20
  -2   5   6  149.49   13.30
  -1   5   6    4.20    6.70
  -1   5   6    5.60    8.40
   0   5   6   -3.20    6.50
   1   5   6  167.18   14.10
   2   5   6  101.49    9.70
   3   5   6   14.30   11.00
   4   5   6   16.90   11.40
  -4   6   6   10.00    9.40
  -3   6   6   22.80    9.90
  -3   6   6   35.90    9.90
  -2   6   6   39.80   10.60
  -2   6   6   31.60    8.90
  -1   6   6   97.69   13.20
  -1   6   6  107.29   11.70
   0   6   6   -3.50    8.80
   1   6   6    7.20   10.60
   2   6   6   -1.20   10.90
  -2   7   6    9.90   10.70
  -1   7   6    9.40   11.40
   0   7   6   -5.00   10.00
   1   7   6   14.60   11.10
   2   9  -7    9.70    6.90
   1   9  -7    7.40    7.50
  -1  -9   7   11.20   11.70
   0  -9   7   19.90   12.00
   1  -9   7  -14.80    9.80
   2  -9   7   -0.10   10.90
  -3  -8   7   28.10   11.60
  -2  -8   7    3.50   10.70
  -1  -8   7   40.60   12.20
   0  -8   7   -8.30   10.30
   1  -8   7   -2.30   10.80
   2  -8   7   71.99   13.80
   3  -8   7   -4.50   11.50
  -4  -7   7  134.59   16.50
  -3  -7   7    5.30    9.00
  -2  -7   7   -0.90    8.10
  -1  -7   7  167.88   17.80
   0  -7   7   35.30   11.40
   1  -7   7   21.60   11.40
   2  -7   7   -3.20   10.40
   3  -7   7    7.00   10.60
   4  -7   7   -1.90   11.50
  -4  -6   7   74.29   12.30
  -3  -6   7   65.49   10.70
  -2  -6   7   85.29   12.30
  -1  -6   7   83.59   12.40
   0  -6   7    5.40    9.80
   1  -6   7  195.98   18.40
   3  -6   7    7.10    9.60
   4  -6   7    0.40   10.20
   5  -6   7   -3.70   10.70
  -5  -5   7   97.49   13.00
  -4  -5   7  297.97   20.70
  -3  -5   7   18.60    7.30
  -2  -5   7  111.19   12.00
  -1  -5   7 1134.59   60.49
   0  -5   7   31.50    9.60
   1  -5   7  233.58   19.60
   2  -5   7   26.70    9.70
   3  -5   7   -1.20    8.80
   4  -5   7   83.39   13.70
   5  -5   7   20.00   12.00
  -6  -4   7    5.90    9.80
  -5  -4   7   22.40    8.50
  -4  -4   7  426.06   26.20
  -3  -4   7   52.09    8.20
  -2  -4   7  477.15   27.50
  -1  -4   7   11.90    7.40
   0  -4   7   11.60    3.70
   0  -4   7   13.90    8.20
   1  -4   7  902.81   40.70
   1  -4   7  936.81   49.99
   2  -4   7  387.46   25.70
   3  -4   7   40.80   11.00
   4  -4   7   26.30   11.10
   5  -4   7   21.00   11.60
  -6  -3   7   21.80    9.60
  -5  -3   7  289.97   19.80
  -4  -3   7   51.59    8.40
  -3  -3   7    7.90    5.10
  -3  -3   7   11.10    4.90
  -2  -3   7 1165.28   54.59
  -2  -3   7 1237.48   61.09
  -1  -3   7 2119.79  104.69
  -1  -3   7 2100.69   91.99
   0  -3   7   17.20    3.40
   0  -3   7   36.60    8.10
   1  -3   7   35.10    8.60
   1  -3   7   28.20    4.10
   2  -3   7  417.26   27.00
   3  -3   7   54.79   11.10
   4  -3   7  199.48   18.60
   5  -3   7   25.50   10.60
  -6  -2   7   -4.20    8.00
  -5  -2   7  132.29   12.70
  -5  -2   7  133.39   11.40
  -4  -2   7  792.12   38.60
  -4  -2   7  796.02   41.90
  -3  -2   7   11.80    5.80
  -3  -2   7   17.10    4.90
  -2  -2   7  597.54   32.70
  -2  -2   7  650.83   31.30
  -1  -2   7  414.76   23.00
  -1  -2   7  370.46   21.00
   0  -2   7  120.09   11.10
   0  -2   7  126.59    9.80
   1  -2   7 1910.01   81.49
   1  -2   7 1857.31   93.99
   2  -2   7  657.93   37.40
   3  -2   7   95.59   13.20
   4  -2   7   93.49   13.30
   5  -2   7   15.40   10.80
  -6  -1   7   10.80    7.80
  -5  -1   7  281.27   18.80
  -5  -1   7  261.87   18.90
  -4  -1   7   49.70    7.10
  -4  -1   7   52.39    9.00
  -3  -1   7   51.79    6.50
  -3  -1   7   56.89    8.50
  -2  -1   7 2332.97  101.59
  -2  -1   7 2297.47  112.39
  -1  -1   7 1314.67   65.09
  -1  -1   7 1310.57   58.79
   0  -1   7   27.90    4.70
   0  -1   7   30.10    6.00
   1  -1   7  417.36   24.90
   1  -1   7  444.16   21.70
   2  -1   7  439.06   26.30
   2  -1   7  390.26   20.50
   3  -1   7  313.77   21.50
   4  -1   7  131.59   14.60
   5  -1   7   38.80   11.50
  -6   0   7    7.90    8.80
  -5   0   7  302.67   20.90
  -4   0   7  310.17   21.00
  -3   0   7  198.98   16.10
  -2   0   7   40.60    7.40
  -2   0   7   36.90    4.60
  -1   0   7  904.01   46.30
  -1   0   7  968.80   43.30
   0   0   7  705.83   32.90
   0   0   7  700.83   36.10
   1   0   7 1667.83   83.89
   1   0   7 1729.03   74.09
   2   0   7  391.36   23.90
   2   0   7  385.36   20.30
   3   0   7  126.09   12.90
   4   0   7  229.38   19.40
   5   0   7   29.00   10.10
  -6   1   7   27.50    9.70
  -5   1   7   44.00    9.90
  -4   1   7  154.98   14.20
  -3   1   7  156.28   13.50
  -2   1   7 2062.29   91.19
  -1   1   7  339.77   19.60
   0   1   7    1.50    4.50
   1   1   7 1066.89   48.10
   2   1   7   95.49    8.70
   2   1   7   99.89   10.30
   3   1   7  162.08   15.10
   3   1   7  156.28   12.30
   4   1   7   51.69   10.50
   5   1   7   42.30   11.80
  -6   2   7   -6.10    9.00
  -5   2   7  173.08   15.80
  -4   2   7   -3.00    7.30
  -3   2   7   22.30    7.80
  -2   2   7  754.32   37.10
  -1   2   7  176.08   14.00
   0   2   7  701.43   33.50
   1   2   7  442.76   22.90
   2   2   7   75.79    8.00
   3   2   7  238.28   15.90
   4   2   7  256.77   17.00
   5   2   7   14.90    7.80
  -5   3   7   18.80    9.30
  -4   3   7   57.29   10.40
  -3   3   7  198.88   16.00
  -2   3   7  631.84   32.40
  -1   3   7    2.40    6.40
   0   3   7   67.49    8.40
   1   3   7  550.94   27.50
   2   3   7   11.70    6.10
   3   3   7    8.60    6.50
   4   3   7   -2.70    7.30
  -5   4   7   30.00   10.50
  -4   4   7   11.90    8.80
  -3   4   7   39.00    9.20
  -3   4   7   26.30    8.40
  -2   4   7  413.96   24.10
  -1   4   7   -2.60    6.30
   0   4   7  220.48   15.90
   1   4   7   28.80    7.20
   2   4   7   27.50    7.30
   3   4   7  209.08   15.90
   4   4   7   76.69   10.20
  -4   5   7  -16.50    8.80
  -3   5   7  109.79   12.70
  -3   5   7  108.09   12.40
  -2   5   7   30.30    9.80
  -2   5   7   26.80    8.90
  -1   5   7    2.00    7.40
   0   5   7   89.19   10.90
   1   5   7   88.09   10.30
   2   5   7   -1.10    6.80
  -3   6   7   45.80   10.70
  -3   6   7   55.39   11.80
  -2   6   7   50.69   10.30
  -2   6   7   51.39   11.60
  -1   6   7    7.80    8.60
  -1   6   7   19.40   10.30
   0   6   7   41.70   12.60
   1   6   7   -0.50   11.10
   0  -9   8   -4.90   12.20
   1  -9   8   -1.40   12.70
  -2  -8   8   67.09   14.80
  -1  -8   8   -3.60   10.80
   0  -8   8    4.50   10.90
   1  -8   8   53.49   13.50
   2  -8   8   15.30   12.70
   3  -8   8   -7.80   12.70
  -3  -7   8    9.90    9.40
  -2  -7   8   89.59   14.30
  -1  -7   8   42.90   12.20
   0  -7   8   56.59   13.50
   1  -7   8   35.90   12.90
   2  -7   8   11.00   11.70
   3  -7   8    6.60   12.00
  -4  -6   8   24.70   10.20
  -3  -6   8  172.38   16.20
  -2  -6   8   94.09   13.10
  -1  -6   8   66.89   13.10
   0  -6   8  128.69   15.80
   1  -6   8  456.65   30.80
   2  -6   8    5.00   11.00
   3  -6   8   -8.80   10.70
   4  -6   8   10.50   11.00
  -5  -5   8  172.18   16.80
  -4  -5   8    2.50    7.50
  -3  -5   8   23.40    8.50
  -2  -5   8  510.65   30.60
  -1  -5   8   49.50   10.30
   0  -5   8  296.57   22.90
   1  -5   8   21.90   10.10
   2  -5   8    6.50    9.00
   3  -5   8  145.69   16.80
   4  -5   8   50.39   13.50
  -5  -4   8  111.89   13.40
  -4  -4   8    5.30    7.30
  -3  -4   8  438.76   26.50
  -2  -4   8    2.70    6.20
  -1  -4   8   -0.70    7.00
   0  -4   8 2166.18  109.59
   0  -4   8 2196.48   94.39
   1  -4   8  406.26   20.10
   2  -4   8   11.30    8.90
   3  -4   8   14.60   10.50
   4  -4   8   22.90   12.10
   5  -4   8   -9.50   12.60
  -6  -3   8  178.38   17.10
  -5  -3   8  100.99   12.20
  -4  -3   8   16.90    7.10
  -3  -3   8  525.95   29.00
  -3  -3   8  579.64   31.10
  -2  -3   8 1186.08   61.39
  -2  -3   8 1227.18   55.99
  -1  -3   8   12.10    7.00
  -1  -3   8   13.30    5.60
   0  -3   8  351.06   18.30
   1  -3   8   60.79   10.00
   1  -3   8   52.29    5.90
   2  -3   8   54.09   10.90
   2  -3   8   42.30    5.90
   3  -3   8  474.15   31.20
   4  -3   8   65.29   14.60
   5  -3   8   31.30   12.10
  -6  -2   8   63.99   11.30
  -5  -2   8  205.28   16.80
  -5  -2   8  220.38   17.30
  -4  -2   8    2.90    5.70
  -4  -2   8   11.30    6.90
  -3  -2   8  281.27   19.40
  -3  -2   8  270.17   17.40
  -2  -2   8   29.90    7.40
  -2  -2   8   30.80    6.10
  -1  -2   8  775.22   37.70
  -1  -2   8  800.32   41.60
   0  -2   8 3573.74  171.58
   0  -2   8 3477.45  150.78
   1  -2   8  366.06   23.20
   1  -2   8  368.56   19.30
   2  -2   8   15.50    5.00
   2  -2   8   16.80    8.60
   3  -2   8   98.29   14.20
   4  -2   8   22.50   11.50
   5  -2   8   42.00   13.00
  -6  -1   8  187.78   16.70
  -5  -1   8    4.60    7.90
  -4  -1   8   13.00    8.10
  -3  -1   8 1415.06   63.49
  -3  -1   8 1324.87   67.69
  -2  -1   8  809.82   42.60
  -2  -1   8  887.41   41.20
  -1  -1   8  230.58   16.00
  -1  -1   8  235.88   15.10
   0  -1   8   10.10    5.50
   0  -1   8   17.40    5.20
   1  -1   8  279.37   18.80
   1  -1   8  292.67   16.50
   2  -1   8  512.75   25.40
   2  -1   8  497.75   30.20
   3  -1   8  517.85   26.30
   3  -1   8  514.95   32.40
   4  -1   8   89.19   13.20
   5  -1   8   65.29   12.90
  -6   0   8  110.29   13.70
  -5   0   8  185.48   16.70
  -4   0   8  122.19   13.90
  -3   0   8   14.70    7.70
  -2   0   8   31.50    7.70
  -1   0   8 1888.51   83.59
   0   0   8 2217.68   96.39
   1   0   8  179.28   13.80
   1   0   8  152.78   12.20
   2   0   8   87.79   11.10
   2   0   8   63.19    7.70
   3   0   8  194.48   14.30
   3   0   8  212.98   18.30
   4   0   8    1.50    9.50
   5   0   8   58.39   12.90
  -6   1   8   23.80   10.50
  -5   1   8   -0.10    8.80
  -4   1   8   97.79   12.30
  -3   1   8  882.11   43.50
  -2   1   8  160.28   13.50
  -1   1   8   51.19    8.10
   0   1   8  290.37   17.30
   1   1   8   47.50    7.00
   2   1   8  469.25   24.40
   3   1   8  167.58   13.60
   4   1   8   84.09    9.90
   5   1   8   67.99   10.10
  -5   2   8   35.90   10.90
  -4   2   8   85.49   12.10
  -3   2   8   32.90    8.80
  -2   2   8    7.10    7.00
  -1   2   8 1233.78   56.99
   0   2   8  500.65   26.00
   1   2   8    0.30    5.90
   2   2   8  149.39   12.90
   3   2   8  152.88   12.60
   4   2   8   -1.50    7.20
  -5   3   8    8.60    9.60
  -4   3   8  111.19   13.50
  -3   3   8  233.58   18.00
  -2   3   8   -9.90    6.90
  -1   3   8   -1.50    7.10
   0   3   8  236.68   16.50
   1   3   8    2.50    6.30
   2   3   8   77.99    9.50
   3   3   8   49.60    8.90
   4   3   8   53.49   10.00
  -4   4   8    8.20    9.60
  -3   4   8    3.20    8.40
  -2   4   8   37.50    9.70
  -1   4   8  183.18   15.30
   0   4   8   19.60    8.20
   1   4   8   -4.10    6.90
   2   4   8   77.99    9.80
   3   4   8   46.70    9.30
  -3   5   8   10.00    9.30
  -2   5   8   12.00    8.90
  -2   5   8   23.90   10.50
  -1   5   8   15.70    9.00
   0   5   8   58.69   10.60
   1   5   8   -4.80    7.80
   2   5   8   20.70    8.30
  -1   6   8   -2.00    9.10
  -1  -8   9   -0.50   10.80
   0  -8   9   23.10   14.50
   1  -8   9   -6.80   11.60
   2  -8   9   30.10   13.60
  -3  -7   9   45.10   12.50
  -2  -7   9    5.40   10.70
  -1  -7   9  116.59   17.00
   0  -7   9   30.20   13.80
   1  -7   9   -2.00   10.90
   2  -7   9   -2.00   12.40
   3  -7   9   19.60   12.80
  -4  -6   9  102.89   14.60
  -3  -6   9  245.98   20.00
  -2  -6   9    3.90    9.40
  -1  -6   9   50.19   12.30
   0  -6   9  244.28   23.00
   1  -6   9   63.49   14.40
   2  -6   9   87.39   14.90
   3  -6   9    0.50   10.60
   4  -6   9   -0.40   11.50
  -5  -5   9    3.40    8.80
  -4  -5   9    4.50    7.80
  -3  -5   9  180.68   17.00
  -2  -5   9   11.30    8.70
  -1  -5   9  353.06   24.80
   0  -5   9   48.50   11.10
   1  -5   9    9.10   10.70
   2  -5   9  188.68   19.00
   3  -5   9   54.49   13.80
   4  -5   9   21.50   11.90
  -5  -4   9   -4.10    8.20
  -4  -4   9  380.06   24.90
  -3  -4   9  238.78   18.10
  -2  -4   9   -0.60    6.20
  -1  -4   9  714.13   40.60
   0  -4   9  251.37   19.40
   0  -4   9  240.68   16.50
   1  -4   9  377.86   26.70
   2  -4   9   36.10    6.10
   2  -4   9   24.40   10.20
   3  -4   9   35.80   11.70
   4  -4   9    1.20   10.90
  -5  -3   9    6.50    8.30
  -4  -3   9  129.59   12.50
  -3  -3   9  312.07   20.40
  -2  -3   9   68.49    9.30
  -1  -3   9  438.36   27.00
   0  -3   9   17.70    8.00
   0  -3   9   26.60    5.90
   1  -3   9  144.79   14.10
   1  -3   9   90.19    8.40
   2  -3   9  591.74   35.80
   2  -3   9  592.54   29.20
   3  -3   9   80.59   13.90
   4  -3   9   17.30   12.70
   5  -3   9    5.20   14.20
  -5  -2   9   47.70   10.20
  -4  -2   9  531.95   30.30
  -4  -2   9  543.45   31.10
  -3  -2   9   -9.90    7.50
  -3  -2   9    5.10    5.70
  -2  -2   9   75.49    8.50
  -2  -2   9   87.49   10.70
  -1  -2   9 1450.95   73.39
  -1  -2   9 1465.35   65.99
   0  -2   9   11.60    7.10
   0  -2   9    8.80    5.20
   1  -2   9  180.08   15.80
   1  -2   9  178.18   12.80
   2  -2   9   51.79    7.30
   2  -2   9   46.30   10.30
   3  -2   9   31.20    6.30
   3  -2   9   34.50   10.70
   4  -2   9   68.69   14.70
   5  -2   9   46.30   14.10
  -5  -1   9   -0.70    8.80
  -4  -1   9  398.86   26.10
  -3  -1   9  275.67   20.90
  -2  -1   9   14.60    5.90
  -1  -1   9  162.68   12.90
   0  -1   9   19.20    6.60
   0  -1   9   11.90    5.80
   1  -1   9  420.96   25.20
   1  -1   9  428.96   22.30
   2  -1   9  654.63   37.60
   2  -1   9  677.53   32.70
   3  -1   9  101.19   14.40
   3  -1   9   88.59    9.60
   4  -1   9   57.79   13.80
   4  -1   9   41.00    8.40
   5  -1   9   -7.10   11.80
  -5   0   9  113.49   14.70
  -4   0   9  251.97   20.40
  -3   0   9   37.20    9.60
  -2   0   9  186.68   15.00
  -1   0   9  692.73   34.60
   0   0   9   -1.90    5.70
   1   0   9   18.80    6.40
   2   0   9  251.77   16.60
   3   0   9    3.50    6.60
   4   0   9   86.59   14.60
   4   0   9   96.89   10.80
   5   0   9    5.70   11.90
   5   0   9   -7.30    7.80
  -5   1   9   26.50   11.10
  -4   1   9  351.66   23.90
  -3   1   9    9.90    8.40
  -2   1   9  103.79   12.00
  -1   1   9   43.40    8.60
   0   1   9    2.70    6.40
   1   1   9  607.84   30.50
   2   1   9  260.77   17.00
   3   1   9   90.69   10.70
   4   1   9   46.60    9.40
  -5   2   9   56.49   12.40
  -4   2   9    6.50    9.00
  -3   2   9   43.70   10.30
  -2   2   9  146.99   14.00
  -1   2   9  170.88   14.40
   0   2   9   12.70    7.40
   1   2   9  152.88   12.50
   2   2   9  207.68   16.00
   3   2   9   -0.60    7.70
   4   2   9    9.10    8.90
  -4   3   9   95.79   13.50
  -3   3   9   12.10    9.10
  -2   3   9   -5.10    7.80
  -1   3   9  112.09   12.50
   0   3   9    3.50    7.80
   1   3   9  169.68   14.20
   2   3   9   35.80    8.90
   3   3   9   43.10    9.50
  -3   4   9   19.60   10.00
  -2   4   9   56.69   11.10
  -1   4   9   18.70    8.30
   0   4   9    7.70    8.70
   1   4   9  112.99   12.30
   2   4   9   48.50    9.50
  -2   5   9    9.00   11.00
  -2   5   9   12.70    9.80
  -1   5   9   27.40   10.10
   0   5   9   11.40    9.70
  -2  -7  10  140.49   17.90
  -1  -7  10   82.69   16.30
   0  -7  10    5.90   13.40
   1  -7  10   -4.30   12.90
   2  -7  10   43.70   14.70
  -3  -6  10  -10.20    9.50
  -2  -6  10    5.60    9.50
  -1  -6  10   81.09   14.30
   0  -6  10    3.20   11.70
   1  -6  10    2.90   12.10
   2  -6  10   18.40   12.70
   3  -6  10    2.30   12.50
  -4  -5  10  128.09   14.90
  -3  -5  10   16.60    9.30
  -2  -5  10  418.96   28.00
  -1  -5  10   50.29   11.40
   0  -5  10   -2.20    9.90
   1  -5  10  210.08   20.60
   2  -5  10  139.29   17.70
   3  -5  10    3.60   11.90
   3  -5  10    5.60    5.00
  -5  -4  10   90.09   12.40
  -4  -4  10  124.59   13.90
  -3  -4  10    9.60    7.10
  -2  -4  10   86.39   11.60
  -1  -4  10  347.47   24.60
   0  -4  10   12.00    9.20
   1  -4  10    5.30    5.40
   1  -4  10    0.40    9.70
   2  -4  10   -6.20    9.80
   2  -4  10    2.50    5.90
   3  -4  10   64.79    8.50
   3  -4  10   67.99   15.00
   4  -4  10  122.99   18.40
  -4  -3  10  140.19   13.60
  -3  -3  10  151.88   14.20
  -2  -3  10  414.06   25.50
  -2  -3  10  427.16   26.30
  -1  -3  10    6.90    7.60
  -1  -3  10    3.50    7.10
   0  -3  10  145.69   14.20
   0  -3  10  125.49   10.80
   1  -3  10  796.52   38.20
   1  -3  10  825.42   45.40
   2  -3  10   70.49   12.60
   2  -3  10   73.19    8.80
   3  -3  10   -0.50    6.70
   3  -3  10   -4.20   10.60
   4  -3  10    4.90   11.40
   4  -3  10    3.10    7.40
  -4  -2  10   19.20   10.50
  -3  -2  10   20.10    9.70
  -2  -2  10  619.84   32.90
  -1  -2  10  478.95   26.70
  -1  -2  10  469.55   27.90
   0  -2  10   18.10    7.70
   0  -2  10   23.10    6.60
   1  -2  10    3.00    5.80
   1  -2  10   14.50    8.40
   2  -2  10   25.00    9.80
   2  -2  10   19.50    7.00
   3  -2  10  228.18   21.30
   3  -2  10  208.58   16.20
   4  -2  10  198.88   21.20
  -5  -1  10  159.48   17.40
  -4  -1  10   87.49   13.80
  -3  -1  10  292.37   22.20
  -2  -1  10   -1.90    4.80
  -1  -1  10   -6.10    6.70
   0  -1  10  533.55   27.40
   1  -1  10  794.32   38.10
   2  -1  10   33.90    7.70
   3  -1  10   32.00    8.50
   3  -1  10   33.10   11.30
   4  -1  10   10.20   13.00
   4  -1  10   15.90    8.50
  -5   0  10   80.39   14.30
  -4   0  10    6.10    9.90
  -3   0  10   68.09   11.80
  -2   0  10  636.14   33.30
  -1   0  10  161.38   14.40
   0   0  10   12.90    7.00
   1   0  10   -3.70    6.60
   2   0  10   53.69    9.00
   3   0  10  303.07   20.10
   4   0  10   70.69   11.10
  -4   1  10   14.40   10.10
  -3   1  10  209.18   18.20
  -2   1  10   -4.40    7.80
  -1   1  10   11.00    8.20
   0   1  10  555.84   29.20
   1   1  10  346.57   20.80
   2   1  10   40.20    9.00
   3   1  10   45.50   10.00
  -4   2  10    5.60   10.10
  -3   2  10  196.98   17.70
  -2   2  10  300.17   20.80
  -1   2  10   -4.30    8.10
   0   2  10    7.90    8.10
   1   2  10    9.30    7.90
   2   2  10   42.60    9.60
   3   2  10  112.49   12.80
  -3   3  10   30.10   10.90
  -2   3  10   32.90   10.10
  -1   3  10    8.10    9.20
   0   3  10  204.18   17.20
   1   3  10   55.19   10.20
   2   3  10   27.80    9.30
  -2   4  10   43.30   11.50
  -1   4  10   -5.00    6.40
   0   4  10    2.10    9.50
   1   4  10    8.10    9.20
  -1  -7  11    9.40   12.20
   0  -7  11  -13.20   13.50
  -3  -6  11   -2.40   10.50
  -2  -6  11   66.99   13.70
  -1  -6  11    5.60   10.70
   0  -6  11  195.08   21.60
   1  -6  11   56.49   15.50
   2  -6  11   29.80   14.70
  -4  -5  11   -7.20    8.90
  -3  -5  11  298.77   23.10
  -2  -5  11   91.29   12.80
  -1  -5  11    2.10   10.40
   0  -5  11   90.69   14.80
   1  -5  11  128.49   16.70
   2  -5  11   32.10   12.80
   3  -5  11   19.30   13.60
  -4  -4  11    1.80    8.50
  -3  -4  11   34.70    9.40
  -2  -4  11  119.59   13.50
  -1  -4  11  191.88   18.70
   0  -4  11  254.07   20.10
   1  -4  11   60.39   12.50
   1  -4  11   52.89    8.20
   2  -4  11   80.19    9.70
   2  -4  11   79.49   13.80
   3  -4  11   62.09    9.80
   3  -4  11   78.89   15.40
  -2  -3  11   14.90    9.70
  -2  -3  11    2.00    7.20
  -1  -3  11   -7.40    7.80
  -1  -3  11    6.10    8.10
   0  -3  11  561.44   29.60
   0  -3  11  593.24   33.90
   1  -3  11   81.39   12.60
   1  -3  11   77.29    9.30
   2  -3  11   60.49   11.90
   2  -3  11   56.89    8.90
   3  -3  11   -1.40   11.80
   3  -3  11   -5.80    7.50
   4  -3  11   18.70    8.90
   4  -3  11   26.50   14.10
  -4  -2  11    1.80   10.90
  -3  -2  11  309.67   23.90
  -2  -2  11   62.39   10.80
  -1  -2  11  290.37   20.60
   0  -2  11  155.08   13.00
   1  -2  11   76.19    9.90
   2  -2  11  143.09   12.60
   2  -2  11  128.29   15.10
   3  -2  11  119.99   16.00
   3  -2  11  102.29   11.90
   4  -2  11   21.70   13.70
   4  -2  11   12.30    8.60
  -4  -1  11  218.48   20.70
  -3  -1  11  266.37   21.50
  -2  -1  11    2.70    6.50
  -1  -1  11  193.48   16.40
   0  -1  11  761.52   37.70
   1  -1  11   13.00    7.80
   2  -1  11    2.70    7.70
   3  -1  11    6.50    8.90
  -4   0  11   51.99   12.90
  -3   0  11  315.47   23.60
  -2   0  11   -7.70    8.10
  -1   0  11  110.69   12.80
   0   0  11    6.30    7.90
   1   0  11   33.50    9.00
   2   0  11  214.38   17.10
   3   0  11  117.09   13.20
  -4   1  11  141.69   16.60
  -3   1  11   11.50   10.20
  -2   1  11   -0.90    8.80
  -1   1  11  333.37   22.30
   0   1  11  303.37   20.50
   1   1  11    9.00    8.20
   2   1  11   15.80    9.10
   3   1  11    6.90    9.50
  -3   2  11   91.69   14.10
  -2   2  11   -4.90    8.90
  -1   2  11    8.60    9.40
   0   2  11   30.00   10.00
   1   2  11   16.20    9.30
   2   2  11  147.99   14.60
  -2   3  11    9.20   10.20
  -1   3  11  144.19   15.80
   0   3  11   35.00   11.20
  -1  -6  12  258.07   23.90
   0  -6  12   23.00   13.10
   1  -6  12   18.90   13.60
  -3  -5  12   47.50   11.60
  -2  -5  12   11.80   10.40
  -1  -5  12   25.20   11.40
   0  -5  12   54.49   13.70
   1  -5  12   52.99   14.00
   2  -5  12   64.69   15.80
  -2  -4  12  229.68   19.60
  -1  -4  12  296.67   23.10
   0  -4  12    4.60    9.90
   1  -4  12   58.69   12.90
   1  -4  12   45.90    9.20
   2  -4  12   90.09   10.90
   2  -4  12  114.19   16.70
  -1  -3  12  161.48   15.70
   0  -3  12   50.39    9.70
   1  -3  12  140.19   13.00
   1  -3  12  133.69   15.30
   2  -3  12   37.60   12.50
   2  -3  12   16.70    8.50
   3  -3  12    8.70   12.90
   3  -3  12    7.60    9.00
  -3  -2  12   11.50   11.30
  -2  -2  12  357.56   25.00
  -1  -2  12  105.19   13.20
   0  -2  12   43.60    9.90
   1  -2  12  257.57   19.30
   2  -2  12  151.28   14.10
   3  -2  12    5.80    9.20
  -3  -1  12  -11.40   10.30
  -2  -1  12   13.20    9.80
  -1  -1  12  332.27   23.00
   0  -1  12    4.20    8.60
   1  -1  12   87.59   11.50
   2  -1  12    9.50    9.00
  -3   0  12   32.30   12.00
  -2   0  12  192.98   17.80
  -1   0  12   18.20   10.30
   0   0  12  128.29   14.10
   1   0  12  287.17   20.20
   2   0  12   52.79   11.60
  -2   1  12  130.89   15.40
  -1   1  12  132.49   15.10
   0   1  12   11.40    9.90
   1   1  12    7.40    9.80
  -1  -5  13   12.30   11.10
   0  -5  13   91.59   15.70
   1  -4  13   36.40   12.60
  -1  -3  13   14.90   10.60
   0  -3  13  196.28   16.70
   1  -3  13   76.69   11.60
  -2  -2  13   84.69   14.00
  -1  -2  13    7.50    9.90
   0  -2  13   38.50   10.80
   1  -2  13   28.70    9.80
  -2  -1  13   84.19   13.50
  -1  -1  13    6.10   10.50
   0  -1  13  138.29   15.40
   1  -1  13   24.00   10.40
  -1   0  13   -9.80   10.00
   0   0   0    0.00    0.00


_computing_structure_solution     'SHELXT 2018/2 (Sheldrick, 2018)'
_computing_structure_solution     'SHELXT 2014/5 (Sheldrick, 2014)'
;
_shelx_hkl_checksum              45217
_olex2_submission_special_instructions 'No special instructions were received'
loop_
_space_group_symop_operation_xyz
'x, y, z'
'-x, -y, -z'
loop_
_atom_site_label
_atom_site_type_symbol
_atom_site_fract_x
_atom_site_fract_y
_atom_site_fract_z
_atom_site_U_iso_or_equiv
_atom_site_adp_type
_atom_site_occupancy
_atom_site_site_symmetry_order
_atom_site_calc_flag
_atom_site_refinement_flags_posn
_atom_site_refinement_flags_adp
_atom_site_refinement_flags_occupancy
_atom_site_disorder_assembly
_atom_site_disorder_group
Se01 Se 0.43714(13) 0.76014(12) 0.87842(7) 0.0688(4) Uani 1 1 d D . . . .
Br02 Br 0.78513(14) 0.80380(10) 0.25924(7) 0.0685(3) Uani 1 1 d . . . . .
O003 O 0.0827(8) 0.6465(8) 0.6959(5) 0.0731(16) Uani 1 1 d . . . . .
C004 C 0.2734(11) 0.7020(9) 0.7090(5) 0.0560(12) Uani 1 1 d D U . . .
C005 C 0.4019(6) 0.7304(5) 0.6032(3) 0.0407(13) Uani 1 1 d . . . . .
C009 C 0.6133(6) 0.8131(5) 0.6250(3) 0.0484(15) Uani 1 1 d G . . . .
H009 H 0.6791 0.8536 0.7084 0.058 Uiso 1 1 calc R . . . .
C006 C 0.7264(5) 0.8353(5) 0.5223(4) 0.0515(16) Uani 1 1 d G . . . .
H006 H 0.8678 0.8907 0.5369 0.062 Uiso 1 1 calc R . . . .
C007 C 0.6280(7) 0.7748(5) 0.3977(3) 0.0483(16) Uani 1 1 d G . . . .
C008 C 0.4166(7) 0.6920(5) 0.3758(3) 0.0512(16) Uani 1 1 d G . . . .
H008 H 0.3508 0.6515 0.2924 0.061 Uiso 1 1 calc R . . . .
C00A C 0.3035(5) 0.6698(5) 0.4786(4) 0.0462(15) Uani 1 1 d G . . . .
H00A H 0.1621 0.6145 0.4639 0.055 Uiso 1 1 calc R . . . .
C00C C 0.1824(11) 0.7035(10) 0.9661(6) 0.0560(12) Uani 1 1 d D U . . .
H00B H 0.0914 0.6100 0.9028 0.067 Uiso 0.5 1 calc R . P A 2
H00C H 0.0446 0.6721 0.9106 0.067 Uiso 0.5 1 calc R . P B 1
F0AA F 0.061(3) 0.829(3) 1.003(2) 0.142(8) Uani 0.5 1 d . . P C 2
F2 F 0.170(3) 0.849(3) 1.0733(14) 0.114(7) Uani 0.5 1 d . . P C 1
F3 F 0.245(4) 0.638(4) 1.058(2) 0.129(11) Uani 0.5 1 d . . P C 2
F4 F 0.236(7) 0.581(4) 1.028(3) 0.125(10) Uani 0.5 1 d . . P C 1
loop_
_atom_site_aniso_label
_atom_site_aniso_U_11
_atom_site_aniso_U_22
_atom_site_aniso_U_33
_atom_site_aniso_U_23
_atom_site_aniso_U_13
_atom_site_aniso_U_12
Se01 0.0636(6) 0.1040(7) 0.0350(4) 0.0173(4) -0.0004(3) -0.0177(4)
Br02 0.0848(6) 0.0724(6) 0.0538(5) 0.0210(4) 0.0306(4) 0.0096(4)
O003 0.048(3) 0.119(4) 0.056(3) 0.036(3) -0.003(2) -0.023(3)
C004 0.059(3) 0.071(3) 0.041(3) 0.020(2) 0.007(2) 0.005(2)
C005 0.039(3) 0.042(3) 0.042(3) 0.011(3) 0.008(3) 0.010(3)
C009 0.046(4) 0.062(4) 0.034(3) 0.011(3) 0.000(3) -0.001(3)
C006 0.042(4) 0.057(4) 0.054(4) 0.014(3) 0.006(3) -0.002(3)
C007 0.060(4) 0.042(3) 0.044(4) 0.010(3) 0.017(3) 0.008(3)
C008 0.061(4) 0.053(4) 0.033(3) 0.003(3) 0.000(3) 0.003(3)
C00A 0.044(4) 0.048(4) 0.043(3) 0.008(3) 0.000(3) 0.004(3)
C00C 0.059(3) 0.071(3) 0.041(3) 0.020(2) 0.007(2) 0.005(2)
F0AA 0.105(14) 0.150(16) 0.18(2) 0.044(17) 0.078(13) 0.039(12)
F2 0.123(15) 0.130(12) 0.074(10) -0.002(9) 0.058(9) -0.014(12)
F3 0.097(13) 0.25(4) 0.087(13) 0.12(2) 0.016(10) 0.007(18)
F4 0.18(2) 0.087(9) 0.114(18) 0.031(9) 0.025(14) -0.031(10)
loop_
_atom_type_symbol
_atom_type_description
_atom_type_scat_dispersion_real
_atom_type_scat_dispersion_imag
_atom_type_scat_source
C C 0.0033 0.0016 'International Tables Vol C Tables 4.2.6.8 and 6.1.1.4'
H H 0.0000 0.0000 'International Tables Vol C Tables 4.2.6.8 and 6.1.1.4'
Br Br -0.2901 2.4595 'International Tables Vol C Tables 4.2.6.8 and 6.1.1.4'
F F 0.0171 0.0103 'International Tables Vol C Tables 4.2.6.8 and 6.1.1.4'
O O 0.0106 0.0060 'International Tables Vol C Tables 4.2.6.8 and 6.1.1.4'
Se Se -0.0929 2.2259 'International Tables Vol C Tables 4.2.6.8 and 6.1.1.4'
loop_
_geom_angle_atom_site_label_1
_geom_angle_atom_site_label_2
_geom_angle_atom_site_label_3
_geom_angle
_geom_angle_site_symmetry_1
_geom_angle_site_symmetry_3
_geom_angle_publ_flag
C00C Se01 C004 94.1(3) . . ?
O003 C004 Se01 120.3(5) . . ?
O003 C004 C005 124.4(5) . . ?
C005 C004 Se01 115.2(4) . . ?
C009 C005 C004 122.4(3) . . ?
C009 C005 C00A 120.0 . . ?
C00A C005 C004 117.6(3) . . ?
C005 C009 H009 120.0 . . ?
C005 C009 C006 120.0 . . ?
C006 C009 H009 120.0 . . ?
C009 C006 H006 120.0 . . ?
C009 C006 C007 120.0 . . ?
C007 C006 H006 120.0 . . ?
C006 C007 Br02 119.4(2) . . ?
C006 C007 C008 120.0 . . ?
C008 C007 Br02 120.6(2) . . ?
C007 C008 H008 120.0 . . ?
C007 C008 C00A 120.0 . . ?
C00A C008 H008 120.0 . . ?
C005 C00A H00A 120.0 . . ?
C008 C00A C005 120.0 . . ?
C008 C00A H00A 120.0 . . ?
Se01 C00C H00B 106.5 . . ?
Se01 C00C H00C 113.9 . . ?
F0AA C00C Se01 113.7(11) . . ?
F0AA C00C H00B 106.5 . . ?
F0AA C00C F3 112.4(18) . . ?
F2 C00C Se01 105.5(8) . . ?
F2 C00C H00C 113.9 . . ?
F3 C00C Se01 110.7(12) . . ?
F3 C00C H00B 106.5 . . ?
F4 C00C Se01 109.5(17) . . ?
F4 C00C H00C 113.9 . . ?
F4 C00C F2 98.9(15) . . ?
loop_
_geom_bond_atom_site_label_1
_geom_bond_atom_site_label_2
_geom_bond_distance
_geom_bond_site_symmetry_2
_geom_bond_publ_flag
Se01 C004 1.961(5) . ?
Se01 C00C 1.960(5) . ?
Br02 C007 1.886(3) . ?
O003 C004 1.205(8) . ?
C004 C005 1.487(7) . ?
C005 C009 1.3900 . ?
C005 C00A 1.3900 . ?
C009 H009 0.9300 . ?
C009 C006 1.3900 . ?
C006 H006 0.9300 . ?
C006 C007 1.3900 . ?
C007 C008 1.3900 . ?
C008 H008 0.9300 . ?
C008 C00A 1.3900 . ?
C00A H00A 0.9300 . ?
C00C H00B 0.9800 . ?
C00C H00C 0.9800 . ?
C00C F0AA 1.25(2) . ?
C00C F2 1.403(18) . ?
C00C F3 1.29(2) . ?
C00C F4 1.36(3) . ?
