#------------------------------------------------------------------------------
#$Date: 2020-09-06 11:24:31 +0300 (Sun, 06 Sep 2020) $
#$Revision: 255986 $
#$URL: file:///home/coder/svn-repositories/cod/cif/7/12/68/7126859.cif $
#------------------------------------------------------------------------------
#
# This file is available in the Crystallography Open Database (COD),
# http://www.crystallography.net/
#
# All data on this site have been placed in the public domain by the
# contributors.
#
data_7126859
loop_
_publ_author_name
'Garc\'ia-Valdivia, Antonio A'
'Romero, Francisco J.'
'Cepeda, Javier'
'Morales, Diego P.'
'Casati, Nicola'
'Mota, Antonio J.'
'Zotti, Linda A.'
'Palacios, Juan J.'
'Choquesillo-Lazarte, Duane'
'F Salmer\'on, Jos\'e'
'Rivadeneyra, Almudena'
'Rodr\'iguez-Di\'eguez, Antonio'
_publ_section_title
;
 Rational design of an unusual 2D-MOF based on Cu(i) and
 4-hydroxypyrimidine-5-carbonitrile as linker with conductive
 capabilities: a theoretical approach based on high-pressure XRD.
;
_journal_issue                   66
_journal_name_full
'Chemical communications (Cambridge, England)'
_journal_page_first              9473
_journal_page_last               9476
_journal_paper_doi               10.1039/d0cc03564e
_journal_volume                  56
_journal_year                    2020
_chemical_formula_sum            'C5 H2 Cu N3 O'
_chemical_formula_weight         183.64
_space_group_IT_number           57
_space_group_name_Hall           '-P 2c 2b'
_space_group_name_H-M_alt        'P b c m'
_symmetry_cell_setting           orthorhombic
_symmetry_Int_Tables_number      57
_symmetry_space_group_name_Hall  '-P 2c 2b'
_symmetry_space_group_name_H-M   'P b c m'
_atom_sites_solution_hydrogens   geom
_audit_creation_date             2020-03-13T09:38:16-00:00
_audit_creation_method           'WinGX routine CIF_UPDATE'
_audit_update_record
;
2020-03-28 deposited with the CCDC.	2020-07-09 downloaded from the CCDC.
;
_cell_angle_alpha                90
_cell_angle_beta                 90
_cell_angle_gamma                90
_cell_formula_units_Z            4
_cell_length_a                   8.0286(8)
_cell_length_b                   10.776(10)
_cell_length_c                   5.8800(5)
_cell_measurement_reflns_used    455
_cell_measurement_temperature    293(2)
_cell_measurement_theta_max      16.795
_cell_measurement_theta_min      1.751
_cell_volume                     508.7(5)
_computing_cell_refinement       'CrysAlisPro 1.171.39.46 (Rigaku OD, 2018)'
_computing_data_collection       'CrysAlisPro 1.171.39.46 (Rigaku OD, 2018)'
_computing_data_reduction        'CrysAlisPro 1.171.39.46 (Rigaku OD, 2018)'
_computing_structure_refinement  'SHELXL-2018/3 (Sheldrick, 2018)'
_diffrn_ambient_environment      'collected in a Diamond Anvil Cell'
_diffrn_ambient_pressure         900000
_diffrn_ambient_temperature      293(2)
_diffrn_measured_fraction_theta_full 0.397
_diffrn_measured_fraction_theta_max 0.398
_diffrn_measurement_device_type
'dectris-CrysAlisPro-abstract goniometer imported dectris images'
_diffrn_measurement_method       '\f scans'
_diffrn_radiation_monochromator  synchrotron
_diffrn_radiation_type           synchrotron
_diffrn_radiation_wavelength     0.49276
_diffrn_reflns_av_R_equivalents  0.0406
_diffrn_reflns_av_unetI/netI     0.0505
_diffrn_reflns_Laue_measured_fraction_full 0.397
_diffrn_reflns_Laue_measured_fraction_max 0.398
_diffrn_reflns_limit_h_max       9
_diffrn_reflns_limit_h_min       -9
_diffrn_reflns_limit_k_max       4
_diffrn_reflns_limit_k_min       -4
_diffrn_reflns_limit_l_max       6
_diffrn_reflns_limit_l_min       -6
_diffrn_reflns_number            1253
_diffrn_reflns_point_group_measured_fraction_full 0.397
_diffrn_reflns_point_group_measured_fraction_max 0.398
_diffrn_reflns_theta_full        16.776
_diffrn_reflns_theta_max         16.776
_diffrn_reflns_theta_min         3.253
_diffrn_source                   synchrotron
_exptl_absorpt_coefficient_mu    4.191
_exptl_absorpt_correction_T_max  1
_exptl_absorpt_correction_T_min  0.07735
_exptl_absorpt_correction_type   multi-scan
_exptl_absorpt_process_details
;
        CrysAlisPro 1.171.39.46 (Rigaku Oxford Diffraction, 2018)
        Empirical absorption correction using spherical harmonics,
 implemented in SCALE3 ABSPACK scaling algorithm.
;
_exptl_crystal_colour            'pale yellow'
_exptl_crystal_density_diffrn    2.398
_exptl_crystal_description       prism
_exptl_crystal_F_000             360
_exptl_crystal_size_max          0.07
_exptl_crystal_size_mid          0.05
_exptl_crystal_size_min          0.02
_refine_diff_density_max         0.589
_refine_diff_density_min         -0.478
_refine_diff_density_rms         0.128
_refine_ls_extinction_method     none
_refine_ls_goodness_of_fit_ref   1.107
_refine_ls_hydrogen_treatment    constr
_refine_ls_matrix_type           full
_refine_ls_number_parameters     34
_refine_ls_number_reflns         192
_refine_ls_number_restraints     0
_refine_ls_restrained_S_all      1.107
_refine_ls_R_factor_all          0.0715
_refine_ls_R_factor_gt           0.0645
_refine_ls_shift/su_max          0
_refine_ls_shift/su_mean         0
_refine_ls_structure_factor_coef Fsqd
_refine_ls_weighting_details
'w=1/[\s^2^(Fo^2^)+(0.1512P)^2^+1.5340P] where P=(Fo^2^+2Fc^2^)/3'
_refine_ls_weighting_scheme      calc
_refine_ls_wR_factor_ref         0.2066
_reflns_number_gt                159
_reflns_number_total             192
_reflns_threshold_expression     'I > 2\s(I)'
_cod_data_source_file            d0cc03564e2.cif
_cod_data_source_block           avg112_0p9_
_cod_depositor_comments
'Adding full bibliography for 7126858--7126861.cif.'
_cod_database_code               7126859
_shelx_res_file
;
TITL AVG112_0p9_ in Pbcm
    shelx.res
    created by SHELXL-2018/3 at 16:21:03 on 10-Mar-2020
CELL  0.49276   8.0286  10.7758   5.8800   90.000   90.000   90.000
ZERR     4.00   0.0008   0.0102   0.0005    0.000    0.000    0.000
LATT   1
SYMM  - X, - Y, 1/2 + Z
SYMM  - X, 1/2 + Y, 1/2 - Z
SYMM    X, 1/2 - Y, - Z
SFAC  C    H    N    O    CU
UNIT  20 8 12 4 4
MERG   2
FMAP   2
PLAN   20
ACTA
LIST   4
L.S.  10
WGHT    0.151200    1.534000
FVAR       2.50142
C5    1    0.541586    0.356223    0.250000    10.50000    0.03617
N3    3    0.676747    0.328706    0.250000    10.50000    0.04317
O1    4    0.272605    0.190340    0.250000    10.50000    0.03831
CU1   5   -0.105175    0.236255    0.250000    10.50000    0.02305    0.04602 =
         0.05589    0.00000    0.00000   -0.00251
N1    3    0.078142    0.352243    0.250000    10.50000    0.02872
C1    1    0.054189    0.479974    0.250000    10.50000    0.03411
AFIX  43
H1    2   -0.055057    0.508668    0.250000    10.50000   -1.20000
AFIX   0
N2    3    0.169367    0.560586    0.250000    10.50000    0.03276
C2    1    0.332670    0.530807    0.250000    10.50000    0.03176
AFIX  43
H2    2    0.416612    0.590279    0.250000    10.50000   -1.20000
AFIX   0
C3    1    0.366555    0.399348    0.250000    10.50000    0.03248
C4    1    0.246703    0.307366    0.250000    10.50000    0.02854
HKLF    4




REM  AVG112_0p9_ in Pbcm
REM wR2 = 0.2066, GooF = S = 1.107, Restrained GooF = 1.107 for all data
REM R1 = 0.0645 for 159 Fo > 4sig(Fo) and 0.0715 for all 192 data
REM 34 parameters refined using 0 restraints

END

WGHT      0.1493      1.6415

REM Highest difference peak  0.589,  deepest hole -0.478,  1-sigma level  0.128
Q1    1  -0.1059  0.2231  0.1128  11.00000  0.05    0.59
Q2    1   0.1683  0.5362  0.3332  11.00000  0.05    0.52
Q3    1   0.6782  0.3554  0.1615  11.00000  0.05    0.46
Q4    1   0.0865  0.3684  0.1589  11.00000  0.05    0.45
Q5    1   0.3824  0.3889  0.2036  11.00000  0.05    0.39
Q6    1   0.0419  0.4975  0.3336  11.00000  0.05    0.34
Q7    1   0.5387  0.3575  0.1713  11.00000  0.05    0.32
Q8    1   0.2447  0.3192  0.1540  11.00000  0.05    0.28
Q9    1  -0.1019  0.5452  0.3286  11.00000  0.05    0.27
Q10   1   0.2875  0.1860  0.1613  11.00000  0.05    0.26
Q11   1   0.0433  0.2281  0.1676  11.00000  0.05    0.26
Q12   1   0.3228  0.5314  0.3409  11.00000  0.05    0.25
Q13   1   0.6117  0.5499  0.2500  10.50000  0.05    0.24
Q14   1   0.4433  0.1739  0.1608  11.00000  0.05    0.23
Q15   1   0.4645  0.6042  0.2500  10.50000  0.05    0.22
Q16   1  -0.2267  0.2500  0.0000  10.50000  0.05    0.20
Q17   1   0.4417  0.2397  0.2500  10.50000  0.05    0.20
Q18   1  -0.2318  0.2176  0.0443  11.00000  0.05    0.18
Q19   1  -0.2450  0.2190  0.2500  10.50000  0.05    0.18
Q20   1  -0.1754  0.4190  0.1926  11.00000  0.05    0.17
;
_shelx_res_checksum              27920
_shelx_hkl_file
;
  -2   0   0 661.303 30.9503   3
  -2   0   0 623.218 30.8027   2
   2   0   0 604.560 31.2473   3
   2   0   0 661.434 32.2612   2
  -2   1   0 36874.9 1510.82   3
   2  -1   0 39071.0 1511.31   2
   2   1   0 38353.8 1514.76   3
   2   1   0 38979.6 1509.28   2
  -2   1   0 39640.2 1510.27   2
   2  -1   0 38701.1 1511.52   3
  -3   0   0 110.305 17.0456   3
  -3   0   0 126.782 18.7901   2
  -3   1   0 60094.1 2372.66   2
  -3   1   0 58172.3 2372.94   3
   4   0   0 34999.2 1416.92   2
   4   0   0 35393.8 1417.37   3
   4   2   0 9842.95 404.979   3
   4   2   0 9749.84 400.999   2
  -5   0   0 49671.7 2045.17   3
   5   0   0 51405.3 2046.60   2
   5   0   0 51957.2 2047.24   3
  -5   0   0 50720.8 2045.19   2
   5   1   0 9058.56 340.664   2
   5   1   0 8209.03 338.245   3
  -5   1   0 8577.52 339.740   2
  -5   1   0 7846.84 337.832   3
   5  -1   0 8515.54 342.289   3
  -5  -1   0 7347.20 361.665   3
  -5  -1   0 7650.78 339.351   2
   5  -1   0 7593.90 340.483   2
   5  -2   0 39151.1 1563.23   3
   5   2   0 37699.4 1556.50   3
   5   2   0 39532.4 1556.51   2
  -5   2   0 37401.4 1560.33   3
  -5   2   0 39384.7 1560.36   2
   5   3   0 573.318 39.3557   2
   5   3   0 504.654 49.3818   3
  -6   0   0 10347.7 453.288   3
  -6   0   0 11609.9 453.846   2
  -6   1   0 16151.1 682.794   2
  -6  -1   0 17674.9 688.456   2
  -6   1   0 16623.7 682.632   3
  -6   2   0 19723.7 823.553   3
  -6   2   0 20591.2 826.059   2
   7   0   0 984.551 71.7091   3
   7   0   0 692.896 68.2266   2
   7   1   0 2982.02 154.066   2
   7  -1   0 3142.34 160.694   3
   7  -1   0 3275.75 160.809   2
   7  -2   0 58.1202 70.4679   3
   7   2   0 161.243 53.3178   3
   7  -2   0 117.524 63.6373   2
   7   2   0 123.024 54.7119   2
   7   3   0 17015.4 700.026   3
   7   3   0 17040.7 701.143   2
  -8   0   0 1050.03 115.813   3
   8   0   0 845.114 81.7707   3
  -8   0   0 1018.44 70.7768   2
  -8  -1   0 12681.1 338.558   2
  -8   1   0 8601.90 285.070   2
  -8   1   0 8515.95 284.997   3
   8   1   0 7485.02 283.290   3
   8   2   0 4698.81 242.712   2
   8  -2   0 4151.30 248.850   3
  -8   3   0 6583.95 356.599   2
  -8   3   0 7129.30 357.571   3
   8   3   0 8892.83 347.527   3
   8   3   0 8685.74 350.406   2
   8   4   0 1515.20 85.8957   2
   8   4   0 1487.52 83.8811   3
  -8   4   0 1360.16 101.666   3
   9   0   0 2807.21 162.620   3
  -9   0   0 5533.60 173.360   2
  -9   0   0 5241.85 252.166   3
   9   1   0 698.464 78.7619   3
   9   1   0 89.8863 71.9644   2
   9  -1   0 1015.34 111.308   3
  -9   1   0 1170.24 81.5177   2
  -9   1   0 1103.36 94.6978   3
   9  -1   0 450.691 97.6395   2
   9   2   0 7907.13 302.538   3
  -9   2   0 8732.39 309.452   2
   9   2   0 4905.92 289.997   2
  -9   2   0 6270.26 301.662   3
   9   3   0 708.745 86.6939   3
  -9   3   0 620.172 123.411   3
  -9   3   0 660.239 129.710   2
   9   3   0 618.928 84.4139   2
   0   0   1 4.38339 7.06477   3
   0   0  -1 1.13201 7.91805   2
   0   0  -1 9.99978 7.28731   3
   0   0   1 8.10567 7.50957   2
   1   0  -1 5.39064 10.5354   3
  -1   0   1 9.61919 10.9551   2
  -1   0   1 13.3195 10.4089   3
   1   0  -1-4.35159 11.0931   2
  -1  -1   1 14498.3 571.217   2
   1  -1  -1 15263.1 571.570   2
   1   1  -1 14579.9 569.603   2
  -1   1   1 14439.2 570.615   3
   1  -1  -1 14567.8 570.648   3
  -1   1   1 14599.3 570.689   2
   2   0  -1-0.68261 14.6854   2
   2   0  -1-0.62916 15.8157   3
   2   1  -1 4760.88 213.393   3
   2  -1  -1 5485.80 216.043   3
   2  -1  -1 5414.99 215.174   2
   2   1  -1 5018.20 213.015   2
   2   2  -1 3483.21 135.039   2
   2   2  -1 2215.56 145.317   3
   3   0   1-2.77370 11.3347   2
   3   0   1 6.12028 11.4603   3
   3  -1  -1 6532.40 255.392   3
  -3   1   1 5910.59 251.947   3
  -3  -1   1 5996.28 260.147   3
  -3   1   1 5310.97 253.007   2
   3  -1  -1 6441.27 255.279   2
   3   1  -1 6271.33 251.521   3
   3   1   1 5678.89 247.628   3
   3   1   1 6008.62 245.979   2
  -3  -1   1 6244.46 251.665   2
   3   1  -1 6493.43 253.211   2
   3   2  -1 3367.78 152.604   2
  -3   2   1 3590.21 155.707   3
   3   2  -1 3557.30 159.691   3
  -3   2   1 3529.45 156.928   2
   3  -2  -1 3534.09 157.372   3
   4   0   1 21.6613 19.6651   3
   4   0   1-8.32609 18.3904   2
  -4   0  -1 8.64773 15.9927   2
  -4   0  -1-2.93429 22.7871   3
  -4   0   1 15.3580 26.7801   2
  -4   0   1 6.36877 28.0331   3
  -4   1   1 1107.02 65.4886   2
  -4   1  -1 1123.93 55.6855   2
  -4  -1   1 1208.29 62.0083   2
  -4  -1   1 1011.25 71.9120   3
   4   1   1 1185.49 54.3275   3
  -4   1   1 1062.82 62.9776   3
   4   1   1 1149.19 54.2750   2
  -4   1  -1 1127.03 54.7682   3
  -4   2  -1 64.7991 28.2139   2
  -4   2   1 37.9017 36.1215   3
  -4  -2   1 52.0473 46.0399   2
  -4   2  -1 60.8449 30.9892   3
   4   2   1 53.1597 34.9016   3
  -4   2   1 68.2721 32.8241   2
   4   2   1 26.3119 14.4164   2
  -4   3   1-22.9904 42.1810   2
  -5   0   1 16.8141 33.1375   2
  -5   0  -1 24.8815 23.2722   2
   5   0  -1-1.34542 41.6824   3
  -5   0   1 21.4646 35.6324   3
   5   0  -1-1.30903 38.4870   2
  -5   0  -1-4.81677 36.3014   3
  -5   1  -1 982.516 50.2747   2
  -5   1   1 970.291 62.9925   2
  -5  -1   1 870.260 82.6590   3
   5   1  -1 1113.69 66.5161   2
   5  -1  -1 910.855 66.5331   2
   5  -1  -1 922.022 68.5030   3
  -5  -1   1 920.498 56.7589   2
  -5   1   1 806.796 59.1616   3
   5   1  -1 924.340 60.7310   3
  -5   1  -1 976.481 50.0111   3
   5  -2  -1 47.5966 50.9159   3
  -5   2  -1 33.8738 39.6826   3
  -5  -2   1-22.0039 58.0588   2
   5   2  -1 35.8085 37.0020   3
   5  -2  -1 47.8219 49.5800   2
   5   2   1 63.5414 29.7913   3
   5   2   1 60.6533 26.3591   2
  -5   2   1 48.7305 43.3133   2
  -5   2   1 42.1456 41.2757   3
  -5   2  -1 30.7518 34.2015   2
   5   2  -1 46.4471 38.3022   2
  -5   3   1 63.0920 45.0813   2
   5   3  -1 91.8552 38.2638   3
  -5   3   1 113.941 50.5442   3
   5   3  -1 65.5609 33.0458   2
   6   0   1-1.01089 39.3366   3
   6   0  -1-43.8070 45.3226   2
  -6   0   1-21.3323 39.1328   2
   6   0   1-12.3200 34.8551   2
  -6   0   1 13.3888 45.1145   3
   6   0  -1 42.4455 51.3830   3
  -6   1   1 1634.37 89.6659   3
   6   1  -1 1664.52 92.4501   3
   6  -1  -1 1494.84 99.3306   3
  -6  -1   1 1449.06 118.459   3
   6   1  -1 1679.81 93.8153   2
  -6   1   1 1509.01 89.1326   2
   6  -1  -1 1430.60 94.2590   2
  -6  -1   1 1596.16 89.2149   2
   6   2   1 25.4701 38.1869   2
   6   2  -1-1.66447 46.8119   2
  -6   2   1 18.3656 51.3230   3
   6  -2  -1 50.7369 60.8664   2
   6   2   1 33.7948 37.0772   3
   6  -2  -1 32.0721 60.2095   3
  -6   2   1 24.2166 54.0810   2
  -6  -2   1 32.9861 77.6383   2
   6   2  -1 26.7864 45.6787   3
   6   3   1 58.0590 29.7718   2
  -6   3   1 87.3078 57.0096   3
   6   3  -1 88.1112 38.8328   3
  -6  -3   1-14.3266 105.898   2
   6   3  -1 42.3900 37.9921   2
  -6   3   1 67.2693 55.9077   2
   6   3   1 64.8207 33.7407   3
  -7   0   1-32.1987 44.4099   2
  -7   0   1 92.5241 59.7821   3
   7   0  -1-26.2702 55.3183   2
   7   0   1 42.1793 53.2246   3
  -7   0  -1 21.7329 46.3762   2
   7   0  -1-1.71696 54.7911   3
   7   0   1 25.3204 46.7600   2
  -7   0  -1 75.8106 110.140   3
   7   1   1 11.2193 40.3001   2
   7   1   1 12.8510 45.3885   3
  -7   1   1 15.0966 49.1781   2
   7  -1   1 27.7111 42.2120   2
  -7  -1  -1 41.2402 62.8317   2
  -7   1  -1 14.3759 35.4531   2
  -7  -1   1 11.7940 51.4703   2
   7  -1  -1-68.0833 60.4383   2
  -7   1  -1 1.02364 39.9804   3
   7  -1   1-74.0032 48.1397   3
  -7   1   1-33.3297 50.7857   3
   7   1  -1-33.6146 58.5420   2
  -7  -1   1-30.8888 108.496   3
  -7   2   1 1632.59 102.863   2
  -7   2  -1 1392.26 88.8941   2
  -7  -2   1 1712.09 136.925   2
  -7   2   1 1502.20 101.015   3
   7   2   1 1520.69 84.9085   3
  -7   2  -1 1588.33 88.0819   3
   7   2   1 1352.44 85.9143   2
  -7   3   1 7831.36 345.002   3
  -7   3  -1 7910.41 345.895   3
  -7   3  -1 8144.70 350.566   2
   7   3   1 7892.56 332.438   3
   7   3   1 8522.70 335.418   2
  -7   4   1 23.6556 66.9184   3
  -7   4   1 29.8274 59.8027   2
   8   0   1 3.16586 62.3396   3
  -8   0  -1 19.2604 71.7483   2
  -8   0  -1-44.5928 187.431   3
   8   0  -1 33.7921 65.7935   2
   8   0   1-50.4326 62.4070   2
   8   0  -1-10.6812 68.2620   3
   8   1  -1 32.7003 63.5720   2
  -8   1  -1 44.4083 58.5242   3
  -8  -1  -1 2.10992 70.1806   2
   8  -1  -1 30.1197 79.7286   3
   8  -1   1 5.57098 53.8673   3
   8   1   1 12.8388 54.2600   3
   8   1  -1 51.5141 69.3935   3
   8   1   1 27.0068 54.3579   2
  -8   1  -1 47.0770 48.2148   2
   8  -1   1 21.3554 47.9043   2
   8  -1  -1 52.9948 71.6338   2
   8   2  -1 126.923 69.0777   3
   8   2   1 178.037 50.8591   3
   8  -2  -1 92.0098 86.0536   3
  -8   2  -1 167.462 53.9452   2
   8  -2  -1 95.7746 83.1456   2
  -8   2  -1 91.8351 50.4573   3
   8   2  -1 155.216 69.5090   2
   8   2   1 158.247 50.9136   2
   8   3   1 1136.71 80.1013   3
   8   3   1 937.420 78.1626   2
   8   3  -1 892.979 82.5271   3
   8   3  -1 912.949 82.8795   2
  -8   3  -1 999.270 106.874   3
   8   4  -1 664.931 62.7128   3
   8   4  -1 698.635 63.1025   2
  -8   4  -1 860.096 96.3147   3
   8   4   1 919.760 71.2371   2
  -8   4  -1 562.436 97.7346   2
   9   0  -1 68.4495 88.2272   3
   9   0  -1-41.0792 75.3554   2
   9   0   1 35.1217 83.4753   3
  -9   0  -1 139.318 142.644   2
   9   0   1-25.8245 82.4883   2
  -9   0   1 8.14863 56.6608   2
  -9   0  -1 38.3508 351.257   3
  -9   0   1-84.2924 115.636   3
   9   1  -1-20.3837 74.3309   2
  -9   1   1-24.1285 72.0114   2
   9   1  -1 11.6346 71.5862   3
  -9   1  -1-109.712 126.634   3
  -9  -1   1 27.5435 222.863   3
   9   1   1-8.03315 77.4851   3
   9  -1  -1-76.9678 92.0125   3
   9  -1  -1-2.87920 85.3352   2
   9   1   1 1.85534 64.7891   2
  -9   1  -1 60.1209 64.6862   2
  -9  -1   1 29.7176 87.6512   2
  -9   1   1-12.3412 75.2490   3
  -9   2  -1 5.14494 62.1065   3
  -9  -2   1-8.02107 236.710   2
  -9   2  -1 65.2229 57.8927   2
   9   2   1-1.43455 50.2233   2
   9   2  -1-7.78940 81.0339   3
   9  -2  -1 163.230 101.039   2
   9  -2  -1 121.607 107.746   3
   9   2   1 43.2178 55.4478   3
  -9   2   1-45.3734 85.4145   2
   9   2  -1 30.1297 77.5738   2
  -9   2   1-2.85104 88.4149   3
  -9   3   1-3.25525 102.200   3
   9   3   1 95.2921 53.7218   3
   9   3  -1 73.6978 79.2999   3
   9   3   1 29.6899 54.4352   2
   9   3  -1 54.4533 75.9467   2
  -9   3   1 91.5386 101.867   2
  -9   3  -1 82.7345 93.9145   2
  -9   3  -1 10.4073 92.8344   3
   0   0  -2 400694. 15729.1   2
   0   0  -2 386209. 15728.0   3
   0   0   2 388825. 15727.8   3
   0   0   2 398740. 15728.6   2
   0   1  -2 0.98770 12.4701   2
   0  -1   2 8.87437 19.0298   2
   0   1   2-4.25745 14.9996   3
   0   1   2 1.69412 15.4066   2
   0  -1  -2 1.31345 19.6829   3
   0   1  -2 5.09450 13.7929   3
   0  -1  -2 6.32445 19.0497   2
   0  -1   2-1.77005 48.5047   3
   1   0  -2 26218.3 1023.80   2
  -1   0  -2 25529.7 1017.61   2
   1   0  -2 25363.0 1022.42   3
  -1   0   2 24386.3 1021.55   3
   1   0   2 26090.8 1017.49   3
  -1   0   2 24817.7 1022.31   2
  -1   0  -2 24864.9 1017.81   3
   1   0   2 25225.9 1017.30   2
   1  -1  -2 4481.51 189.424   2
  -1   1   2 4673.80 188.998   2
  -1   1  -2 4205.61 185.299   3
   1   1  -2 4544.10 187.221   3
  -1   1  -2 4177.69 182.107   2
   1   1  -2 4491.87 186.841   2
  -1   1   2 4725.51 188.417   3
  -1  -1   2 4440.05 197.578   3
   1   1   2 4547.86 183.649   3
  -1  -1   2 4316.04 186.957   2
   1  -1  -2 4860.06 191.106   3
   1   1   2 4519.81 184.006   2
   1   2  -2 12399.9 500.007   2
   1   2  -2 11930.3 513.449   3
  -2   0   2 119.562 25.3151   2
  -2   0   2 121.398 23.9287   3
  -2   1   2 22694.5 857.696   2
  -2  -1   2 24177.8 862.201   3
  -2  -1   2 23004.3 855.088   2
   2   1   2 22221.9 848.431   2
   2   1   2 22852.1 848.224   3
  -2   1   2 21924.6 855.477   3
  -2   2   2 16.9426 28.2610   3
  -2  -2   2 11.8299 42.3883   2
  -2   2   2-1.12159 25.8662   2
  -3   0   2 254.231 34.5039   3
  -3   0   2 236.833 34.5820   2
   3   0  -2 191.472 33.6108   3
   3   0  -2 185.749 33.4549   2
  -3  -1   2 35064.4 1388.40   2
   3  -1  -2 33989.7 1390.91   2
  -3   1   2 35021.7 1389.25   3
   3  -1  -2 33352.4 1389.94   3
   3   1  -2 33990.1 1389.41   2
  -3  -1   2 34780.2 1393.27   3
   3   1  -2 33889.1 1387.95   3
  -3   1   2 35111.9 1390.38   2
   3   2  -2 4159.96 177.486   3
   3   2  -2 4221.02 177.295   2
  -3   2   2 4005.54 178.864   3
   3  -2  -2 4000.22 181.676   3
   3  -2  -2 3902.73 182.572   2
  -3   2   2 3834.78 177.227   2
  -3   3   2 34722.5 1408.18   3
   4   0  -2 18540.6 762.485   2
   4   0  -2 18366.2 760.185   3
  -4   0   2 18731.7 760.099   2
  -4   0   2 18777.3 759.156   3
   4  -1  -2 1093.18 70.7149   2
  -4   1  -2 914.055 45.3904   3
  -4  -1   2 1248.58 65.2173   2
  -4  -1   2 1339.06 76.6295   3
   4   1   2 1017.20 46.1444   2
   4   1  -2 1225.00 65.1011   3
  -4   1   2 1186.65 68.1929   2
   4  -1  -2 1105.39 70.6328   3
  -4   1  -2 1014.84 46.0852   2
  -4   1   2 1073.68 65.2252   3
   4   1  -2 1230.73 66.2289   2
   4  -2  -2 6781.03 288.486   3
  -4  -2   2 6508.58 286.171   2
   4  -2  -2 6788.75 289.762   2
  -4   2   2 6829.13 282.901   3
   4   2  -2 6563.23 281.067   3
  -4   2   2 6378.89 283.923   2
   4   2  -2 6378.98 281.377   2
  -4   3   2 9730.39 398.645   3
  -4   3   2 9099.34 399.728   2
   4   3  -2 9451.72 399.236   3
   4  -3  -2 9302.36 405.824   3
   5   0  -2 28327.0 1171.46   3
  -5   0   2 29574.0 1169.44   3
   5   0  -2 28618.2 1171.16   2
  -5   0   2 28571.0 1168.31   2
   5  -1  -2 4365.92 201.989   3
   5   1   2 4733.31 180.460   2
  -5  -1   2 4532.28 209.241   3
   5  -1  -2 4075.49 198.991   2
   5   1   2 4721.65 180.881   3
  -5   1   2 4526.94 196.576   3
   5   1  -2 4447.81 197.569   3
  -5  -1   2 4286.11 194.378   2
  -5   1  -2 4145.39 179.741   3
  -5   1   2 4181.51 197.436   2
  -5   1  -2 3986.45 179.397   2
   5   1  -2 4453.46 198.172   2
   5   2   2 21151.2 878.342   3
  -5   2  -2 20628.5 880.925   2
   5  -2  -2 21775.8 897.668   2
   5   2  -2 22554.8 890.859   3
   5  -2  -2 21938.7 897.535   3
  -5   2   2 22244.0 892.116   3
   5   2   2 21670.3 878.521   2
  -5   2  -2 23001.4 881.352   3
  -5   2   2 21805.5 893.907   2
  -5  -2   2 21586.8 895.239   2
   5   2  -2 22634.9 893.097   2
  -5   3   2 612.159 69.5196   2
  -5   3   2 669.971 70.6403   3
   5  -3  -2 655.652 81.4021   3
  -5  -3   2 494.014 108.279   2
   5  -3  -2 455.910 72.9719   2
   5   3  -2 639.013 57.0803   3
   5   3  -2 674.691 54.3671   2
   6   0  -2 5386.13 261.449   2
   6   0  -2 6219.10 267.025   3
  -6   0   2 6220.19 262.919   3
  -6   0   2 6078.22 261.820   2
   6   1  -2 9781.07 427.532   3
   6   1   2 10340.8 412.127   2
   6  -1  -2 9139.69 429.286   2
  -6   1   2 10459.7 426.735   3
  -6   1   2 10144.5 427.699   2
  -6  -1   2 9911.55 425.089   2
  -6   1  -2 9919.31 413.118   3
  -6  -1   2 8719.34 434.738   3
   6   1   2 10566.9 411.801   3
  -6   1  -2 10573.9 411.908   2
   6   1  -2 9497.38 428.557   2
   6  -1  -2 9412.70 430.412   3
   6   2   2 13124.2 459.861   2
  -6   2   2 11793.4 477.742   2
   6  -2  -2 10892.1 482.803   2
  -6  -2   2 10957.4 481.197   2
   6   2   2 12183.1 458.177   3
   6   2  -2 11044.4 472.800   3
  -6   2  -2 10310.2 458.865   3
   6   2  -2 11228.4 475.294   2
  -6   2   2 11580.0 474.767   3
   6  -2  -2 11095.6 483.019   3
  -6   2  -2 9388.07 458.654   2
  -6  -3   2 1540.33 168.941   2
   6   3  -2 2216.81 109.886   3
  -6   3  -2 1812.69 107.653   2
   6   3  -2 2191.37 113.870   2
  -6   3   2 2066.10 120.764   3
   6  -3  -2 2036.21 134.957   3
  -6   3   2 1871.04 119.402   2
  -7   0   2 827.246 71.7683   2
   7   0  -2 692.667 78.9063   3
   7   0  -2 610.831 73.1050   2
  -7   0   2 779.518 75.8545   3
   7   1  -2 1875.04 117.284   2
   7  -1  -2 1850.80 118.712   2
   7   1  -2 2079.98 118.415   3
  -7   1  -2 1976.52 93.3327   2
  -7  -1   2 1991.91 111.092   2
  -7  -1   2 1679.91 146.517   3
  -7   1   2 1987.68 114.115   2
  -7   1   2 2054.12 114.758   3
   7  -1  -2 2055.58 127.144   3
  -7   1  -2 1709.06 112.856   3
  -7   2   2 65.9449 65.1972   3
   7   2  -2 64.0349 61.6250   3
   7  -2  -2 94.7108 74.4745   2
   7  -2  -2 20.3982 80.3764   3
   7   2  -2-23.7033 63.6410   2
  -7   2   2 110.053 64.9038   2
  -7  -2   2 120.467 76.4696   2
  -7  -2   2 102.253 185.313   3
  -7   3   2 9673.04 433.920   3
   7   3   2 9374.95 413.173   2
   7   3  -2 9816.83 426.082   3
   7   3  -2 10110.5 429.239   2
   7  -3  -2 9855.86 449.917   3
  -7   3   2 9390.86 436.232   2
   7   3   2 10786.7 413.647   3
  -7   3  -2 9120.24 427.781   2
   7   4  -2 39.5746 43.4901   3
  -7   4   2 61.6787 74.5947   3
   7   4  -2 20.7537 42.4363   2
  -7   4   2-23.8985 73.5712   2
  -8   0   2 588.943 71.9461   2
   8   0  -2 455.845 83.9117   3
   8   0  -2 571.858 87.6062   2
  -8   0   2 666.566 100.532   3
   8   1  -2 5066.42 230.147   2
  -8   1   2 5577.29 229.312   2
   8  -1  -2 3759.43 224.297   2
  -8  -1   2 4155.47 265.344   3
   8   1  -2 5838.18 238.979   3
  -8   1  -2 4428.70 205.377   2
  -8   1  -2 3293.26 237.402   3
   8  -1  -2 5153.17 243.769   3
  -8   1   2 5643.47 230.411   3
  -8  -1   2 4607.14 221.529   2
   8  -2  -2 3404.56 183.860   3
  -8  -2   2 1054.61 285.515   3
   8  -2  -2 3366.40 186.490   2
  -8  -2   2 4055.36 194.558   2
  -8   2   2 4122.85 174.945   3
  -8   2  -2 2546.43 143.602   2
   8   2  -2 4101.93 174.160   3
  -8   2   2 3882.55 176.601   2
   8   2   2 3787.66 148.180   3
  -8   2  -2 2525.07 144.986   3
   8   2   2 2402.50 143.472   2
   8   2  -2 3743.85 172.501   2
  -8  -3   2 3727.06 300.802   2
   8   3   2 3098.08 140.502   2
  -8   3  -2 2550.11 151.683   3
  -8   3   2 3554.70 172.591   3
   8   3   2 3185.47 138.116   3
  -8   3  -2 2123.38 149.828   2
  -8   3   2 3811.94 177.971   2
   8  -3  -2 4426.58 207.800   3
   8   4   2 981.756 64.2894   3
  -8   4  -2 558.184 133.448   3
  -8   4  -2 644.942 138.534   2
   8   4   2 742.100 64.9528   2
   9   0  -2 1997.53 131.439   3
   9   0  -2 802.187 111.920   2
   0   0   3-7.66178 23.8420   2
   0   0  -3 1.69788 24.3660   2
   0   0   3-17.0713 24.5322   3
   0   1  -3 5.67508 22.5905   2
   0   1  -3 0.72929 23.2932   3
   0  -1  -3-11.1217 28.2267   2
   0  -1  -3-12.9826 35.1101   3
   0   2   3 930.147 58.2184   2
   0   2   3 957.918 55.6427   3
   0   2  -3 912.803 55.2613   3
   0   2  -3 960.031 52.2515   2
  -1   0  -3 7.36092 21.1622   2
  -1   0  -3-4.97067 22.9631   3
   1   0   3-10.2038 20.2167   2
   1   0  -3-37.3526 30.1432   2
   1   0  -3 14.7436 31.1310   3
   1   0   3 4.34836 22.4523   3
  -1   1  -3 3634.18 156.609   2
   1  -1  -3 3544.51 164.283   2
   1  -1   3 3249.59 172.081   2
   1   1  -3 3607.08 160.720   3
  -1   1  -3 3555.96 156.354   3
   1   1   3 3537.56 157.727   2
   1   1   3 3614.33 156.895   3
   1  -1  -3 3625.80 164.977   3
   1   1  -3 3547.68 161.861   2
   1  -2  -3 1259.06 75.7717   2
  -1   2  -3 998.376 65.7616   3
  -1   2  -3 1044.55 56.0846   2
   1   2  -3 1281.37 64.2940   3
   1   2   3 1348.84 65.5247   2
   1   2  -3 1230.94 62.4683   2
   1   2   3 1192.26 65.4536   3
   1  -2  -3 1262.95 75.9556   3
  -2   0   3 9.94806 30.1949   3
  -2   0  -3 9.76490 21.1456   2
   2   0  -3-21.1249 33.6824   3
  -2   0  -3-6.52124 25.6583   3
   2   0   3-16.0262 20.4474   2
   2   0  -3-10.4970 34.3135   2
   2   0   3 37.9255 50.9060   3
  -2   0   3-25.5907 30.6915   2
  -2  -1   3 1552.15 80.5308   2
   2  -1  -3 1346.78 84.0601   2
  -2   1   3 1390.09 80.1927   3
  -2   1  -3 1701.85 70.8696   2
  -2  -1   3 1564.95 92.9233   3
  -2   1  -3 1641.42 69.9117   3
   2   1  -3 1562.88 80.9280   3
   2   1   3 1467.23 70.0260   3
   2  -1  -3 1558.35 84.8014   3
  -2   1   3 1498.76 82.9999   2
   2   1  -3 1578.12 82.5748   2
   2   1   3 1615.06 71.3569   2
  -2   2   3 939.373 62.4932   2
   2   2   3 968.919 56.6281   2
   2  -2  -3 1037.71 71.6970   2
  -2  -2   3 992.216 71.6531   2
  -2   2  -3 815.665 71.0460   3
  -2   2  -3 893.529 49.3131   2
   2   2  -3 1064.12 58.2608   2
  -2   2   3 958.275 63.4807   3
   2   2   3 1253.80 63.3235   3
   2  -2  -3 963.085 70.2582   3
   2   2  -3 1083.01 60.4130   3
   2   3  -3 5231.51 236.163   3
   2   3  -3 5477.45 230.823   2
  -2   3   3 5435.45 236.070   3
  -3   0   3-30.9655 34.4104   3
   3   0  -3 26.7437 40.3273   3
  -3   0   3-19.0190 35.5266   2
   3   0  -3 10.4044 37.2804   2
   3  -1  -3 1868.36 95.5954   2
  -3  -1   3 2282.69 103.140   3
   3   1   3 1468.94 69.3485   3
  -3   1  -3 1729.11 70.1673   3
  -3   1   3 1819.59 89.2674   3
   3   1  -3 1844.01 88.0015   3
   3   1   3 1425.23 69.7062   2
  -3  -1   3 1917.43 89.7252   2
   3  -1  -3 1844.73 94.4978   3
  -3   1  -3 1780.63 70.5881   2
  -3   1   3 1830.54 91.2761   2
   3   1  -3 1858.31 90.1905   2
  -3   2   3 791.084 63.8106   2
   3  -2  -3 786.870 70.1382   2
  -3  -2   3 1047.44 69.2259   2
   3   2  -3 942.638 61.0297   3
  -3   2   3 819.257 64.3043   3
   3   2  -3 1110.00 63.9908   2
   3  -2  -3 928.262 74.0200   3
  -3  -2   3 551.978 123.935   3
  -3   3   3 1690.89 101.452   2
  -3  -3   3 1811.64 158.020   2
   3   3  -3 2042.08 100.128   2
   3   3  -3 2167.72 102.509   3
  -3   3   3 1765.19 101.988   3
   4   0  -3 23.9113 43.1932   2
   4   0  -3 1.61780 45.5728   3
   4  -1  -3 493.090 61.8595   2
   4  -1  -3 409.673 58.4059   3
   4   1  -3 668.333 57.4186   3
   4   1  -3 572.436 58.8880   2
   4   2  -3 39.4231 41.9039   3
   4   2  -3 85.7537 44.1337   2
   4  -2  -3 87.1567 64.0417   3
   4  -2  -3-16.3872 53.8598   2
   4  -3  -3 27.8415 64.8129   3
   4  -3  -3 29.3797 64.0434   2
   4   3  -3 13.7271 41.8682   2
   4   3  -3 29.4826 42.9825   3
   5   0  -3-1.91515 47.9628   2
   5   0  -3-57.0381 53.3179   3
  -5   0   3 15.2163 43.3810   2
  -5   0   3 11.8699 47.2212   3
  -5   1   3 307.306 52.2629   2
  -5   1   3 305.965 52.1380   3
   5   1  -3 368.599 55.9874   3
   5  -1  -3 298.978 61.6854   3
   5   1  -3 340.444 57.3820   2
  -5  -1   3 339.447 52.0313   2
   5  -1  -3 287.939 60.3930   2
  -5  -1   3 277.784 72.2980   3
   5   2  -3-12.9985 52.2121   3
  -5   2   3-1.79848 49.5002   3
  -5   2  -3-13.8648 20.9325   2
  -5   2  -3 18.2320 23.4112   3
   5   2  -3 41.0316 52.3754   2
   5  -2  -3 49.1221 62.1759   2
   5  -2  -3 48.5686 69.8539   3
  -5   2   3 47.4762 50.3181   2
  -5  -2   3-4.20485 56.9933   2
   5   2   3 14.9418 12.7126   2
  -5  -2   3 102.758 143.459   3
   5   2   3-14.8838 12.3507   3
   5   3  -3 157.156 59.2197   3
  -5   3   3 6.10807 60.1538   3
  -5  -3   3 297.600 134.615   2
   5  -3  -3 101.481 79.0027   3
  -5   3   3 36.7751 60.8261   2
   5  -3  -3 81.9911 75.3319   2
   5   3  -3 92.6559 55.1038   2
  -5   4   3 567.773 78.4814   2
  -5   4   3 752.096 80.4663   3
   6   0  -3-6.64813 59.7311   3
   6   0  -3-23.4390 52.4792   2
  -6   0   3-13.7969 51.5143   2
  -6   0   3-43.6200 57.9762   3
   6  -1  -3 677.079 77.0603   2
   6  -1  -3 556.154 79.2246   3
  -6  -1   3 813.492 70.0198   2
  -6   1   3 801.458 70.3432   3
  -6   1   3 719.505 72.1864   2
   6   1  -3 804.578 76.9757   3
   6   1  -3 469.751 73.6325   2
  -6  -1   3 703.167 95.4728   3
  -6   2   3 62.0228 60.0108   3
   6   2  -3 39.1858 58.4052   3
  -6   2   3-16.1577 60.1538   2
   6   2   3 17.4922 16.7413   3
   6  -2  -3 11.0879 77.2395   3
   6   2  -3 47.2720 63.5633   2
   6  -2  -3 56.0478 69.9394   2
  -6  -2   3-77.2275 66.2998   2
  -6   2  -3 3.35999 18.2366   2
  -6  -2   3 123.458 169.687   3
   6   2   3 4.27069 16.9353   2
  -6   2  -3-11.8162 19.7656   3
   6   3  -3 31.7277 57.0484   3
   6   3  -3-7.06611 55.5609   2
  -6   3   3 11.9370 65.4257   3
  -6   3  -3 28.3320 63.0212   3
  -6  -3   3-4.31615 113.881   2
   6  -3  -3 32.5034 86.0127   3
  -6   3  -3 1.38554 61.9765   2
  -6   3   3 15.4346 66.0559   2
   6   3   3 8.76785 26.8310   2
   6   3   3 30.6450 34.3541   3
   6  -3  -3 96.0507 80.5304   2
  -6   4   3 1301.22 112.425   2
   6   4  -3 1370.74 91.8568   3
  -6   4   3 1575.78 111.864   3
   7   0  -3 9.46134 69.0810   3
   7   0  -3 2.58588 66.0647   2
  -7   0   3 68.5175 60.7905   2
  -7   0   3-46.8428 68.2140   3
   7   1  -3 22.1054 67.3903   3
   7  -1  -3 57.6016 77.9036   3
  -7  -1   3 12.8203 56.5286   2
  -7   1   3-82.4506 60.5245   2
   7  -1  -3 57.5669 73.0594   2
  -7  -1   3 3.86263 107.499   3
   7   1  -3 2.59107 65.4736   2
  -7   1   3-17.9524 60.9108   3
  -7   2   3 599.111 74.6422   3
  -7   2   3 537.961 76.6458   2
   7   2  -3 710.666 79.3765   3
  -7  -2   3 666.097 86.8372   2
   7  -2  -3 545.362 92.9881   3
   7   2  -3 650.996 76.9025   2
   7  -2  -3 553.074 93.9239   2
  -7  -2   3 226.635 188.909   3
  -7   2  -3 147.253 33.1162   3
  -7  -3   3 3215.13 191.748   2
   7   3   3 1494.34 71.6296   3
  -7   3  -3 1569.84 82.8044   3
   7   3   3 1347.30 71.7108   2
  -7   3   3 3206.57 136.162   2
   7   4  -3 100.462 58.0572   3
   7   4  -3 4.68395 56.0379   2
  -7   4   3-37.5690 82.4389   3
  -7  -4   3 6.95411 178.945   2
  -7   4   3-100.838 91.9958   2
   7  -4  -3 98.6755 104.777   2
   8   0  -3-2.88807 80.5750   3
   8   0  -3-33.5827 81.5854   2
  -8   0   3-41.0972 62.7845   2
  -8   0   3 46.1646 98.5714   3
   8  -1  -3 79.4025 82.6942   2
   8   1  -3-28.1734 71.6788   2
   8   1  -3-41.0633 84.4317   3
   8  -1  -3 114.081 94.4101   3
  -8  -1   3 9.80886 65.7620   2
  -8   1   3 62.9139 68.6150   2
  -8  -1   3 40.1290 139.524   3
  -8   1   3 91.6794 75.2761   3
   8   2  -3 143.420 76.9424   2
  -8   2   3-42.4812 76.2047   3
   8   2  -3 10.9257 75.8833   3
   8  -2  -3 66.0638 95.4001   3
  -8  -2   3 94.8103 93.1428   2
   8  -2  -3 3.50749 92.8611   2
  -8  -2   3-102.967 225.090   3
  -8   2   3-53.3214 79.6350   2
  -8   3   3 419.680 89.0903   3
   8   3  -3 467.773 78.6754   3
   8  -3  -3 341.724 108.439   2
  -8   3   3 273.401 85.6030   2
   8   3   3 288.848 58.8039   3
  -8  -3   3 349.292 162.523   2
   8  -3  -3 406.401 120.224   3
   8   3  -3 409.441 83.2740   2
  -8   3  -3 84.3234 58.0713   2
   8   3   3 192.381 51.8718   2
  -8   3  -3 147.006 55.2577   3
   0   0  -4 75988.6 3027.93   2
   0   0   4 77410.2 3028.89   3
   0   0  -4 73964.2 3028.08   3
   0   0   4 74277.5 3027.74   2
   0   1   4 10.5268 35.6773   3
   0   1   4-10.5852 36.8464   2
   0   1  -4 11.9797 35.0580   3
   0  -1  -4 16.0128 39.0501   2
   0  -1  -4-21.5578 47.5530   3
   0   1  -4 28.6644 38.1503   2
   0  -1   4 17.6752 38.5302   2
   0  -1   4-41.7162 99.6900   3
   0   2  -4 10231.4 409.464   3
   0  -2   4 8904.61 461.344   2
   0   2  -4 10213.5 411.152   2
   0   2   4 9940.48 412.072   3
   0   2   4 9415.80 413.377   2
   0   3   4-24.8798 49.6443   3
   0   3   4 35.7623 50.4752   2
   0   3  -4 18.2346 30.9374   2
   0   3  -4 9.33587 38.3665   3
   1   0  -4 6841.95 302.346   2
  -1   0  -4 7147.96 296.703   2
  -1   0   4 7749.06 301.411   2
  -1   0   4 7509.12 301.510   3
   1   0  -4 7151.06 303.818   3
  -1   0  -4 6446.02 294.173   3
   1  -1  -4 1580.48 92.2926   2
  -1  -1  -4 1876.85 99.6917   2
  -1  -1   4 1570.08 120.676   3
  -1  -1   4 1648.20 89.7758   2
  -1   1  -4 1762.07 85.3278   3
  -1   1   4 1661.64 89.7754   3
   1   1  -4 1490.80 88.5956   3
  -1   1   4 1489.07 90.1471   2
   1  -1  -4 1632.52 94.2565   3
  -1  -1  -4 1870.35 97.1140   3
   1   1  -4 1655.49 92.8304   2
  -1   1  -4 1791.97 87.0075   2
  -1   2   4 4395.50 195.098   3
   1  -2  -4 4435.49 204.817   2
  -1  -2   4 4768.97 218.599   2
  -1   2  -4 4196.06 185.077   3
   1   2  -4 4445.87 190.692   3
   1   2  -4 4283.12 191.055   2
   1  -2  -4 4607.42 203.483   3
  -1   2  -4 4291.57 186.241   2
  -1   2   4 4270.23 196.384   2
   1   3  -4 1412.70 76.8288   3
  -1   3  -4 1276.70 72.3864   2
   1   3  -4 1250.47 75.6137   2
   2   0  -4 47.3464 43.7615   2
   2   0  -4-33.9966 49.1537   3
   2   0   4 12.1789 34.9329   2
  -2   0   4-1.41517 39.0473   2
   2   0   4-20.0678 86.1387   3
  -2   0   4-41.2644 42.4216   3
   2  -1  -4 7224.78 328.709   2
  -2  -1   4 8114.28 326.253   2
  -2  -1   4 7397.01 337.345   3
  -2   1   4 7568.33 323.830   3
   2   1  -4 7695.20 325.974   3
   2   1   4 7769.49 314.757   2
   2  -1  -4 7285.74 328.138   3
  -2   1   4 6967.41 324.407   2
   2   1  -4 7514.22 326.413   2
   2   1   4 7994.74 314.539   3
   2   2  -4 7.88150 38.6407   3
   2   2  -4 4.37153 38.3446   2
  -2   2   4-24.2170 46.2393   3
   2   2   4 15.2677 27.5577   3
   2  -2  -4 148.692 61.8996   3
  -2  -2   4 8.23431 57.1528   2
  -2   2   4 3.25673 44.0591   2
   2   2   4 3.14337 27.7725   2
   2  -2  -4-1.91652 55.0044   2
  -2  -2   4-4.86957 142.845   3
   2   3  -4 6689.73 275.521   3
   2   3  -4 6453.02 274.880   2
  -2   3   4 6847.97 284.331   3
   3   0  -4 141.100 52.2901   2
   3   0  -4 141.085 56.3648   3
  -3   0   4 138.074 45.3083   2
  -3   0   4 166.168 49.0587   3
  -3   1   4 9754.04 415.736   3
  -3   1  -4 11202.3 402.528   2
   3  -1  -4 8880.05 420.410   2
   3  -1  -4 9075.48 419.943   3
   3   1  -4 9521.97 416.616   3
   3   1   4 9879.13 403.396   3
  -3  -1   4 10841.6 432.758   3
   3   1   4 9143.92 400.813   2
  -3  -1   4 10275.5 417.027   2
  -3   1  -4 10163.4 401.419   3
  -3   1   4 9235.95 416.969   2
   3   1  -4 9318.86 418.798   2
  -3   2  -4 1229.21 63.2888   2
   3  -2  -4 1159.08 94.5136   2
  -3  -2   4 1576.53 93.3081   2
  -3   2  -4 1410.32 63.1720   3
   3   2  -4 1551.52 85.2346   3
  -3   2   4 1301.83 84.5401   3
   3   2   4 1236.11 64.2171   3
   3  -2  -4 1239.44 97.3115   3
   3   2  -4 1488.93 86.7957   2
  -3  -2   4 987.329 164.971   3
  -3   2   4 1513.61 91.8136   2
   3   2   4 1137.35 63.8579   2
  -3   3   4 8995.31 411.844   2
  -3  -3   4 8761.73 442.725   2
   3   3  -4 9823.79 406.154   3
   3   3  -4 10043.0 407.065   2
  -3   3   4 10169.3 411.593   3
   3   3   4 9738.34 398.959   3
   3  -3  -4 8770.95 417.355   3
   4   0  -4 4876.07 227.554   2
  -4   0   4 5177.59 229.523   3
  -4   0   4 4799.28 225.333   2
   4   0  -4 5115.60 231.014   3
  -4   1   4 417.152 61.0946   2
  -4   1   4 433.040 65.8236   3
   4   1  -4 394.810 62.9685   3
  -4  -1   4 439.710 63.2641   2
   4  -1  -4 426.913 72.7095   3
   4   1  -4 540.276 65.9998   2
   4  -1  -4 424.254 72.0259   2
  -4  -1   4 520.728 105.613   3
   4  -2  -4 1764.21 113.530   2
  -4   2  -4 1520.51 74.1179   3
   4   2  -4 2208.88 105.501   3
  -4   2   4 1876.73 102.145   3
  -4   2  -4 1314.79 73.8030   2
   4  -2  -4 1950.14 122.129   3
  -4   2   4 1974.60 107.909   2
   4   2  -4 2075.38 104.449   2
  -4  -2   4 1403.93 190.409   3
  -4  -2   4 2197.99 112.376   2
   4  -3  -4 2545.61 160.479   2
  -4  -3   4 2578.95 180.315   2
   4   3  -4 3068.33 144.850   3
  -4   3   4 2930.29 147.727   3
   4   3  -4 3226.68 147.469   2
   4  -3  -4 2540.84 161.602   3
  -4   3   4 2453.43 147.124   2
  -4   4   4 2396.33 134.504   3
   5   0  -4 7929.54 351.085   2
  -5   0   4 8250.07 351.099   3
  -5   0   4 7971.80 350.487   2
   5   0  -4 7944.79 352.805   3
   5   1  -4 1121.16 90.7018   2
   5  -1  -4 972.157 94.3687   2
  -5  -1   4 1465.35 118.758   3
  -5  -1   4 1269.48 87.6289   2
  -5   1   4 1275.14 87.1259   3
  -5   1   4 1165.50 89.4252   2
   5   1  -4 1173.42 89.1932   3
   5  -1  -4 1240.34 100.655   3
   5  -2  -4 5676.08 296.551   2
  -5  -2   4 5259.83 352.085   3
  -5  -2   4 6479.33 294.084   2
  -5   2   4 6377.48 289.300   3
   5   2  -4 6907.98 292.448   3
   5  -2  -4 6598.62 304.853   3
  -5   2   4 6131.35 291.379   2
   5   2  -4 7425.75 297.958   2
   5   3  -4 246.423 65.8638   3
  -5   3   4 226.819 70.2323   3
   5   3  -4 312.038 66.2410   2
   5  -3  -4 81.3212 84.0379   2
   5  -3  -4 195.428 87.1212   3
  -5  -3   4 34.4370 110.847   2
  -5   3   4 207.112 72.5600   2
  -5   4   4 2128.25 150.065   2
   5  -4  -4 2374.57 176.465   2
   5   4  -4 3474.66 149.312   3
   5   4  -4 3735.14 154.930   2
  -5   4   4 2794.88 152.976   3
   5  -4  -4 2691.74 184.596   3
  -6   0   4 2151.83 124.507   3
  -6   0   4 1865.15 117.007   2
   6   0  -4 1805.97 121.859   3
  -6  -1   4 2987.19 188.451   3
  -6  -1   4 3431.75 163.763   2
  -6   1   4 3247.32 161.756   3
   6  -2  -4 3432.81 203.973   2
   6   2  -4 4307.74 199.007   3
   6  -2  -4 3574.66 209.303   3
   6   2  -4 4003.97 200.048   2
   6   3  -4 666.992 76.4939   3
  -6   3   4 573.448 80.3532   3
  -6   3  -4 91.8177 25.9292   3
   6   3  -4 622.061 80.7606   2
  -6   3   4 455.617 81.0639   2
   6  -3  -4 348.023 92.7834   2
   6  -3  -4 505.128 104.078   3
  -6  -3   4 613.847 136.734   2
  -6   4   4 481.583 89.9984   3
  -6  -4   4 283.296 185.883   2
   6  -4  -4 734.327 132.425   3
  -6   4   4 494.455 91.5556   2
   6   4  -4 1025.30 87.2449   3
   6   4  -4 1066.34 88.4422   2
   6  -4  -4 559.748 122.260   2
   7   0  -4 406.016 82.8160   3
   7   0  -4 321.127 83.8152   2
  -7   0   4 325.949 71.6554   2
  -7   0   4 267.018 89.3140   3
   7  -1  -4 352.051 88.9863   2
   7   1  -4 412.942 81.8656   2
   7   1  -4 515.048 93.2149   3
   7  -1  -4 409.214 97.1214   3
  -7  -1   4 572.781 77.3047   2
  -7   1   4 470.966 75.5803   2
  -7  -1   4 647.813 138.794   3
  -7   1   4 550.723 81.9213   3
  -7   2   4 49.0119 69.5386   3
   7   2  -4 114.404 77.0789   3
   7  -2  -4 122.814 97.1381   3
  -7  -2   4 201.231 86.5875   2
   7  -2  -4 72.7526 89.1655   2
   7   2  -4-6.45576 74.2713   2
  -7  -2   4 90.6213 212.752   3
  -7   2   4 157.905 76.2570   2
   7  -3  -4 2661.41 196.439   2
  -7   3   4 3141.92 178.814   3
   7   3  -4 3594.70 182.908   3
   7  -3  -4 2821.52 201.876   3
   7   3  -4 3978.47 191.770   2
   7   4  -4-16.9910 70.0599   3
  -7   4   4-82.1212 84.7843   3
   7   4  -4-41.3223 75.3554   2
   7  -4  -4 118.901 118.222   2
  -7  -4   4-56.3156 194.845   2
  -7   4   4-11.7585 93.6186   2
   7  -4  -4 37.1418 128.498   3
   7   4   4-4.04255 13.3462   2
   7   4   4-4.97102 14.2300   3
   0   0  -5-14.5774 50.8650   3
   0   0  -5 4.63289 51.1179   2
   0   0   5 1.33053 49.1556   2
   0   0   5 9.16695 71.6955   3
   0   1   5 24.8716 49.9424   3
   0   1  -5 56.3570 52.5457   3
   0  -1  -5 8.62198 60.9946   3
   0  -1  -5-5.01788 56.7244   2
   0  -1   5 80.7879 72.3207   2
   0   1  -5-32.3497 53.9239   2
   0   1   5 53.5754 47.6528   2
   0   2   5 207.999 46.7491   3
   0   2  -5 179.893 45.5044   3
   0   2   5 215.515 47.6343   2
   0   2  -5 270.149 49.1844   2
   0  -2  -5 206.245 83.0841   2
   0  -2   5 147.268 213.284   2
   0  -2  -5 240.742 90.1627   3
   0   3  -5-30.2934 36.6757   3
   0   3   5 19.1126 48.8120   3
   0   3   5-18.3036 50.4705   2
   0   3  -5 27.0822 39.7934   2
   1   0  -5 45.4737 57.0671   3
  -1   0  -5-36.1994 50.5462   3
   1   0  -5 1.72542 55.8481   2
   1   0   5 12.8066 48.0506   2
  -1   0   5 3.15467 53.6810   2
  -1   0  -5 49.3810 48.4277   2
   1   0   5 112.892 100.100   3
  -1   0   5 33.2374 71.4952   3
   1   1  -5 745.736 73.2870   2
  -1   1  -5 891.724 66.3856   2
   1  -1  -5 589.247 72.6590   2
  -1  -1  -5 859.129 91.1927   2
  -1  -1  -5 709.984 86.8106   3
   1  -1   5 1154.89 157.682   2
   1   1   5 771.659 62.2040   3
  -1  -1   5 674.917 68.8456   2
  -1   1   5 738.184 65.9033   3
   1   1   5 811.285 61.1121   2
  -1   1   5 714.783 65.9797   2
   1   1  -5 673.350 69.9760   3
  -1   1  -5 854.008 66.3116   3
   1  -1  -5 679.086 78.9889   3
  -1  -1   5 491.059 139.482   3
   1   2   5 200.722 44.9786   3
  -1   2   5 219.428 51.4794   3
  -1   2  -5 283.960 44.8274   3
   1   2  -5 244.993 48.2270   3
   1   2   5 241.934 46.0430   2
   1  -2  -5 233.793 72.6282   2
  -1   2   5 221.187 53.3048   2
  -1   2  -5 265.372 46.1418   2
   1   2  -5 277.183 50.9519   2
   1  -2  -5 204.989 70.9166   3
  -1  -2   5 334.924 104.061   2
  -1   3  -5 40.1251 32.8229   3
   1   3  -5 34.5740 44.1940   2
   1   3  -5 37.9482 41.9709   3
  -1   3   5 75.3196 56.4428   3
   1   3   5 62.6907 42.0629   3
  -1   3   5 9.97164 57.7459   2
   1   3   5 32.5789 40.2191   2
  -1   3  -5 23.0243 31.8607   2
  -1   4   5 218.817 92.7974   2
  -1   4   5 334.414 98.2995   3
   2   0  -5-33.0451 57.2166   3
  -2   0  -5-28.0670 56.2770   2
   2   0  -5-66.3467 55.8527   2
  -2   0  -5 12.0231 60.5156   3
   2   0   5-41.6425 59.5485   2
  -2   0   5-14.4754 49.3766   2
   2   0   5 30.8682 150.473   3
  -2   0   5-20.5259 56.6375   3
  -2   1   5 186.025 54.2604   3
   2   1  -5 279.467 58.7524   3
  -2   1  -5 323.093 43.2439   2
  -2   1  -5 302.638 45.6204   3
   2  -1  -5 276.064 70.0844   3
  -2  -1   5 343.039 60.3057   2
   2   1   5 304.853 42.0664   2
   2   1  -5 273.429 59.1938   2
  -2  -1   5 230.643 109.673   3
  -2   1   5 222.889 53.2504   2
   2   1   5 342.409 46.5353   3
   2  -1  -5 282.998 66.9773   2
   2   2   5 207.856 41.7222   3
  -2   2   5 167.156 53.0095   3
   2   2   5 206.428 43.9641   2
  -2   2  -5 220.540 45.0283   3
   2   2  -5 183.273 47.0227   3
  -2   2   5 177.072 55.1873   2
  -2   2  -5 198.240 47.8319   2
   2   2  -5 168.143 49.3781   2
   2  -2  -5 168.402 72.6151   3
  -2  -2   5 166.668 80.7357   2
  -2  -2   5 195.710 208.792   3
   2  -2  -5 210.071 73.5955   2
  -2  -3   5 714.301 190.646   2
  -2   3  -5 738.771 50.7025   3
   2   3  -5 1124.59 71.9916   3
   2  -3  -5 848.740 100.125   2
  -2   3  -5 812.978 51.6028   2
  -2   3   5 1096.96 86.0440   3
   2   3   5 867.625 56.4902   3
   2   3  -5 1030.43 69.9650   2
   2  -3  -5 1021.10 109.510   3
  -2   3   5 1135.29 87.4451   2
  -2   4   5 166.031 81.0027   3
   2   4  -5 162.068 48.5675   2
  -2   4   5 118.625 77.6594   2
   3   0  -5-2.03255 61.5324   3
   3   0  -5 15.1214 60.6393   2
  -3   0   5-62.0292 55.5610   2
  -3   0   5-49.4692 63.9247   3
  -3   1   5 329.695 60.5225   3
  -3   1  -5 533.295 51.3766   2
   3   1  -5 430.356 66.1433   3
  -3   1  -5 549.107 53.5949   3
   3  -1  -5 397.173 76.9933   3
   3   1   5 383.850 37.8386   2
  -3  -1   5 336.943 62.7725   2
   3  -1  -5 398.058 75.3274   2
   3   1  -5 350.585 63.4520   2
   3   1   5 341.461 73.6481   3
  -3   1   5 312.493 59.0600   2
  -3  -1   5 288.402 111.411   3
   3   2   5 197.283 39.6864   3
  -3   2   5 176.995 60.4583   3
   3   2  -5 142.166 58.2150   3
  -3   2  -5 195.426 42.6747   3
  -3   2   5 76.2031 60.1676   2
   3  -2  -5 99.2855 76.1781   3
   3   2  -5 188.217 59.7904   2
  -3  -2   5 178.594 77.4849   2
  -3   2  -5 168.936 42.6063   2
   3  -2  -5 121.810 69.5176   2
  -3  -2   5-12.9837 187.915   3
   3   2   5 158.357 39.3333   2
  -3   3  -5 190.360 28.5871   3
   3   3  -5 281.832 57.2119   3
   3  -3  -5 141.903 78.9036   2
  -3   3   5 379.091 69.4399   3
   3   3  -5 302.387 57.4519   2
   3   3   5 224.610 34.5332   3
  -3  -3   5 370.657 149.797   2
  -3   3   5 333.018 74.0055   2
   3  -3  -5 74.0841 86.6894   3
   3   3   5 170.656 34.4349   2
  -3   3  -5 167.418 29.5970   2
   3   4  -5 17.0323 51.2089   3
  -3   4   5-10.2199 68.3699   3
  -3   4   5 25.4986 67.2263   2
   3   4  -5 33.9748 47.9390   2
   4   0  -5 62.9187 67.6571   3
   4   0  -5 33.4176 63.1776   2
   4   1  -5 94.5968 64.1908   3
   4  -1  -5 145.567 79.4380   3
   4  -1  -5 106.092 73.1688   2
   4   1  -5 263.878 66.8878   2
  -4   2  -5 5.15709 32.7778   2
   4   2  -5 17.9386 59.9206   3
  -4   2  -5-9.04225 33.1427   3
   4  -2  -5-2.84260 85.1964   3
   4  -2  -5 112.824 79.4241   2
   4   2  -5 43.3906 60.2794   2
   4   2   5-1.30807 22.4010   2
   4   2   5-50.3110 28.4467   3
  -4   3  -5 20.1425 28.5484   3
   4   3  -5-55.2910 63.4362   3
   4   3   5 15.5630 37.7302   3
   4   3  -5 17.0781 63.1805   2
   4   3   5-48.8967 40.6179   2
   4  -3  -5 21.7326 88.5377   3
   4  -3  -5-15.8135 85.5703   2
  -4   3  -5 13.9534 29.7418   2
   4   4  -5 113.712 55.8239   2
   4   4  -5 117.089 55.8693   3
   4  -4  -5 3.80247 109.358   3
   4  -4  -5-79.3188 95.7534   2
   5   0  -5-72.6004 69.3360   3
   5   0  -5 2.74123 67.8226   2
  -5   0   5 2.39833 61.8942   2
  -5   0   5-11.1888 76.9441   3
   5   1  -5 53.8965 66.6510   2
   5   1  -5 74.0651 70.2366   3
   5  -1  -5 29.3752 82.2757   3
  -5  -1   5 62.7982 62.0523   2
  -5   1   5 28.1837 60.0384   2
   5  -1  -5 126.537 76.2349   2
  -5  -1   5 13.1545 119.797   3
  -5   1   5 18.9780 64.3826   3
  -5   2   5 106.913 64.2087   2
  -5   2   5-21.4617 65.4562   3
   5   2  -5 7.70544 67.9785   3
   5  -2  -5 46.9815 97.2630   3
   5  -2  -5 119.828 88.8234   2
  -5  -2   5 116.059 79.1677   2
   5   2  -5-11.3964 71.5919   2
  -5  -2   5 124.575 202.827   3
  -5   3   5-64.9754 70.7295   3
  -5   3  -5 60.6717 36.5500   3
   5   3  -5 38.7763 67.3244   3
  -5   3   5-28.6989 70.3994   2
  -5   3  -5 32.8772 36.2797   2
   5   3  -5-73.7306 73.3370   2
   5  -3  -5-44.7575 102.099   3
  -5  -3   5-31.7511 146.195   2
   5  -3  -5 42.0680 96.3094   2
   5   4  -5 188.891 61.8795   3
   5   4  -5 147.819 62.2014   2
  -5   4   5 204.201 73.6809   3
  -5  -4   5 137.748 191.452   2
   5  -4  -5 54.6132 120.779   3
  -5   4   5 60.9963 72.7215   2
   5  -4  -5 163.585 109.698   2
  -6   0   5 21.7823 69.7666   2
  -6   0   5 15.8683 85.4258   3
  -6  -1   5 228.232 70.8288   2
  -6   1   5 256.619 70.7890   2
  -6  -1   5 315.398 135.975   3
  -6   1   5 312.561 75.7515   3
  -6   2   5-26.3621 70.9132   3
  -6  -2   5 6.96391 86.9403   2
  -6   2   5 5.86055 73.7736   2
  -6   3   5 49.8787 75.7959   3
  -6   3   5 9.86289 77.2433   2
  -6  -3   5 202.115 144.852   2
   0   0  -6 13228.0 564.276   2
   0   0   6 12801.4 582.603   3
   0   0   6 13957.7 561.645   2
   0   0  -6 13404.2 565.404   3
   0   1  -6 1.89620 58.0730   2
   0   1  -6 25.5683 64.0281   3
   0  -1  -6-24.5141 70.2790   3
   0  -1   6 5.56467 85.4686   2
   0   1   6-42.4104 53.8736   2
   0  -1  -6 39.4622 70.2164   2
   0  -1   6 153.992 218.253   3
   0   1   6-28.6869 59.2202   3
   0  -2  -6 1695.40 137.723   2
   0   2   6 1444.14 96.4266   3
   0   2  -6 1861.74 102.284   3
   0   2   6 1571.92 99.9812   2
   0  -2  -6 2049.37 150.026   3
   0   2  -6 1794.76 104.869   2
   0   3  -6 27.4039 43.6651   3
   0   3   6 4.38615 46.9156   3
   0   3  -6 16.6289 44.1530   2
   0   3   6 3.23779 47.6481   2
   0   4  -6 845.285 68.4373   3
   0   4  -6 703.120 67.4616   2
  -1   0  -6 1031.78 83.6890   2
  -1   0   6 1014.78 85.5669   2
  -1   0   6 990.413 113.377   3
  -1   1  -6 248.868 62.0118   3
  -1   1  -6 239.465 62.2985   2
  -1  -1  -6 270.451 97.9016   3
  -1  -1  -6 288.377 96.8195   2
  -1  -1   6 167.775 70.2187   2
  -1   1   6 201.282 57.8462   2
  -1  -1   6 74.4749 179.959   3
  -1   1   6 248.545 60.3538   3
  -1  -2   6 751.400 162.982   2
  -1   2   6 666.673 66.9317   3
  -1   2  -6 863.582 71.9686   3
  -1   2   6 621.273 70.5582   2
  -1   2  -6 768.332 75.0017   2
   1   3   6 185.231 44.2451   3
  -1   3   6 155.954 57.7891   3
  -1   3  -6 203.765 42.7854   3
   1   3   6 173.258 44.9206   2
  -1   3   6 162.766 59.8813   2
  -1   3  -6 163.460 44.9425   2
  -1   4  -6 946.712 59.6109   3
   1   4   6 863.752 65.9445   3
  -1   4  -6 725.873 58.2873   2
   2   0  -6-26.3455 72.3467   3
   2   0   6-14.2507 84.6251   2
  -2   0   6-2.07672 57.7968   2
   2   0  -6-15.2610 69.7873   2
  -2   0   6 31.4504 85.9167   3
   2   1  -6 1375.87 101.979   2
   2  -1  -6 1197.65 106.749   2
   2   1   6 1163.65 104.743   3
  -2  -1   6 1421.62 101.608   2
   2   1   6 1394.03 77.8188   2
  -2   1   6 1220.43 93.0011   3
  -2   1   6 1145.25 89.3695   2
   2   1  -6 1453.22 105.493   3
   2  -1  -6 1201.99 122.070   3
  -2  -1   6 1052.42 178.332   3
  -2   2   6 16.8711 53.9546   3
   2  -2  -6-20.1090 84.1769   2
   2   2  -6 23.2573 57.6292   3
   2  -2  -6 10.6063 84.9259   3
  -2  -2   6 105.651 119.982   2
   2   2  -6-30.6203 58.8331   2
   2   2   6-32.3677 54.3939   2
   2   2   6-43.5941 56.9324   3
  -2   2   6-27.0646 58.6439   2
  -2  -3   6 785.851 244.716   2
   2  -3  -6 981.843 123.144   3
   2   3   6 971.832 66.9025   3
  -2   3   6 970.348 90.7674   3
   2   3  -6 1057.47 79.4442   3
   2   3   6 957.087 68.5515   2
  -2   3   6 1056.31 94.6387   2
   2   3  -6 989.599 80.7789   2
   2  -3  -6 566.848 110.011   2
   2   4  -6 33.5965 63.3902   3
   2   4  -6 2.48779 64.7434   2
  -2   4   6 53.8777 96.2528   3
   2   4   6-23.1131 32.9551   3
  -2   4   6-61.4987 97.4349   2
   2   4   6 44.3648 33.2892   2
   3   0  -6 7.78576 77.2167   3
   3   0  -6 30.3023 74.5417   2
  -3   0   6 42.3390 62.9653   2
  -3   0   6 27.5578 94.2066   3
  -3   1  -6 2481.32 128.929   2
   3   1   6 1416.89 85.3887   2
  -3  -1   6 1776.54 114.065   2
  -3   1   6 1560.72 107.633   3
  -3   1   6 1510.89 102.839   2
  -3   1  -6 2868.71 136.008   3
   3   1   6 230.321 125.721   3
  -3  -1   6 1785.12 188.244   3
   3   2  -6 342.140 69.1354   3
  -3   2  -6 331.856 58.7758   2
  -3   2  -6 333.208 58.2723   3
   3  -2  -6 285.099 94.9282   3
   3   2   6 328.174 48.0054   2
   3   2  -6 324.738 70.6594   2
   3   2   6 217.571 58.0368   3
   3  -2  -6 342.741 96.1073   2
   3  -3  -6 1582.43 146.719   2
  -3  -3   6 2442.43 245.552   2
   3   3   6 1861.00 109.319   3
  -3   3   6 2064.35 131.783   3
   3   3  -6 1941.77 119.146   3
  -3   3  -6 2115.64 106.086   3
   3   3   6 1967.75 110.024   2
  -3   3   6 1981.68 134.668   2
   3  -3  -6 1677.14 154.009   3
   3   3  -6 2379.96 130.363   2
  -3   3  -6 1670.21 105.557   2
  -3   4  -6 30.2255 22.8315   3
   3   4  -6 44.3103 65.3547   3
  -3   4   6 160.071 92.4501   3
   3   4   6 33.2785 30.0878   3
   3   4  -6 104.981 70.8939   2
  -3   4   6 69.5432 99.3507   2
   3   4   6 23.9119 31.4056   2
  -3   4  -6 4.61152 22.7179   2
   4   0  -6 797.071 100.816   3
  -4   0   6 1044.98 118.139   3
  -4   0   6 1066.53 94.2138   2
   4   0  -6 761.869 99.4748   2
   4  -1  -6 158.041 88.2146   2
   4   1  -6 13.0566 66.4872   2
   4   1  -6 65.1037 76.7826   3
   4  -1  -6 52.6675 92.5454   3
  -4  -1   6 104.312 74.4941   2
  -4   1   6 59.4104 61.4532   2
  -4  -1   6 66.1557 148.802   3
  -4   1   6 92.3861 70.1838   3
  -4   2   6 358.636 74.5537   3
   4   2  -6 344.128 72.9633   3
  -4   2  -6 485.328 94.6734   3
   4  -2  -6 497.541 110.003   3
   4   2   6 58.6546 22.7524   2
  -4  -2   6 439.708 105.206   2
   4  -2  -6 333.225 102.444   2
   4   2  -6 144.796 70.8858   2
   4   2   6 44.1066 52.6321   3
  -4  -2   6 291.746 252.410   3
  -4   2   6 205.505 72.0552   2
  -4   2  -6 425.784 80.0975   2
  -4   3   6 453.020 86.0869   3
  -4   3   6 456.469 86.7517   2
   4   3  -6 569.523 79.0985   3
  -4   3  -6 460.785 71.9672   3
  -4  -3   6 679.682 199.918   2
   4  -3  -6 334.250 115.433   3
   4   3  -6 629.190 81.1662   2
   4   3   6 621.964 60.6136   2
  -4   3  -6 338.337 71.1615   2
   4  -3  -6 458.442 106.902   2
   4   3   6 351.269 59.0539   3
   0   0   0    0.00    0.00   0

TITL AVG112_0p9_ in Pbcm
REM Pbcm (#57, found as Pmca in bca setting)
CELL 0.49276   8.028554  10.775822   5.879959  90.0000  90.0000  90.0000
ZERR    4.00   0.000815   0.010195   0.000494   0.0000   0.0000   0.0000
LATT  1
SYMM -x,-y, z+1/2
SYMM -x, y+1/2,-z+1/2
SYMM  x,-y+1/2,-z
SFAC C H N O Cu
UNIT 20.00 8.00 12.00 4.00 4.00
TREF
HKLF 4
END
;
_shelx_hkl_checksum              53453
loop_
_symmetry_equiv_pos_as_xyz
'x, y, z'
'-x, -y, z+1/2'
'-x, y+1/2, -z+1/2'
'x, -y+1/2, -z'
'-x, -y, -z'
'x, y, -z-1/2'
'x, -y-1/2, z-1/2'
'-x, y-1/2, z'
loop_
_atom_site_label
_atom_site_fract_x
_atom_site_fract_y
_atom_site_fract_z
_atom_site_U_iso_or_equiv
_atom_site_adp_type
_atom_site_calc_flag
_atom_site_occupancy
_atom_site_disorder_assembly
_atom_site_disorder_group
_atom_site_type_symbol
C5 0.5416(17) 0.356(4) 0.25 0.036(4) Uiso d 1 . . C
N3 0.6767(16) 0.329(4) 0.25 0.043(4) Uiso d 1 . . N
O1 0.2726(15) 0.190(3) 0.25 0.038(3) Uiso d 1 . . O
Cu1 -0.1052(2) 0.2363(5) 0.25 0.042(4) Uani d 1 . . Cu
N1 0.0781(14) 0.352(5) 0.25 0.029(3) Uiso d 1 . . N
C1 0.054(2) 0.480(5) 0.25 0.034(4) Uiso d 1 . . C
H1 -0.055057 0.508668 0.25 0.041 Uiso calc 1 . . H
N2 0.1694(14) 0.561(4) 0.25 0.033(3) Uiso d 1 . . N
C2 0.3327(18) 0.531(4) 0.25 0.032(4) Uiso d 1 . . C
H2 0.416612 0.590279 0.25 0.038 Uiso calc 1 . . H
C3 0.3666(18) 0.399(5) 0.25 0.032(3) Uiso d 1 . . C
C4 0.2467(18) 0.307(4) 0.25 0.029(4) Uiso d 1 . . C
loop_
_atom_site_aniso_label
_atom_site_aniso_U_11
_atom_site_aniso_U_22
_atom_site_aniso_U_33
_atom_site_aniso_U_12
_atom_site_aniso_U_13
_atom_site_aniso_U_23
Cu1 0.0231(16) 0.046(12) 0.0559(16) -0.0025(13) 0 0
loop_
_atom_type_symbol
_atom_type_description
_atom_type_scat_dispersion_real
_atom_type_scat_dispersion_imag
_atom_type_scat_source
C C 0.0033 0.0016 'International Tables Vol C Tables 4.2.6.8 and 6.1.1.4'
H H 0 0 'International Tables Vol C Tables 4.2.6.8 and 6.1.1.4'
N N 0.0061 0.0033 'International Tables Vol C Tables 4.2.6.8 and 6.1.1.4'
O O 0.0106 0.006 'International Tables Vol C Tables 4.2.6.8 and 6.1.1.4'
Cu Cu 0.3201 1.2651 'International Tables Vol C Tables 4.2.6.8 and 6.1.1.4'
loop_
_geom_angle_atom_site_label_1
_geom_angle_atom_site_label_2
_geom_angle_atom_site_label_3
_geom_angle
_geom_angle_site_symmetry_1
_geom_angle_site_symmetry_3
_geom_angle_publ_flag
N3 C5 C3 177(5) . . ?
C5 N3 Cu1 166(3) . 1_655 ?
N1 Cu1 N2 145.6(13) . 3_545 ?
N1 Cu1 N3 110.0(17) . 1_455 ?
N2 Cu1 N3 104.4(12) 3_545 1_455 ?
N1 Cu1 Cu1 86.28(16) . 7_566 ?
N2 Cu1 Cu1 95.55(19) 3_545 7_566 ?
N3 Cu1 Cu1 87.16(14) 1_455 7_566 ?
N1 Cu1 Cu1 86.28(16) . 7_565 ?
N2 Cu1 Cu1 95.55(19) 3_545 7_565 ?
N3 Cu1 Cu1 87.16(14) 1_455 7_565 ?
Cu1 Cu1 Cu1 168.5(4) 7_566 7_565 ?
C1 N1 C4 118(3) . . ?
C1 N1 Cu1 122.4(14) . . ?
C4 N1 Cu1 120(4) . . ?
N2 C1 N1 125(3) . . ?
C1 N2 C2 123(4) . . ?
C1 N2 Cu1 118(2) . 3 ?
C2 N2 Cu1 119(3) . 3 ?
N2 C2 C3 115(3) . . ?
C4 C3 C5 116(4) . . ?
C4 C3 C2 125(2) . . ?
C5 C3 C2 119(3) . . ?
O1 C4 C3 126(2) . . ?
O1 C4 N1 119(3) . . ?
C3 C4 N1 114(4) . . ?
loop_
_geom_bond_atom_site_label_1
_geom_bond_atom_site_label_2
_geom_bond_site_symmetry_2
_geom_bond_distance
_geom_bond_publ_flag
C5 N3 . 1.12(2) ?
C5 C3 . 1.48(3) ?
N3 Cu1 1_655 2.01(2) ?
O1 C4 . 1.28(5) ?
Cu1 N1 . 1.93(3) ?
Cu1 N2 3_545 1.96(4) ?
Cu1 Cu1 7_566 2.9549(11) ?
Cu1 Cu1 7_565 2.9549(11) ?
N1 C1 . 1.39(5) ?
N1 C4 . 1.44(3) ?
C1 N2 . 1.27(5) ?
N2 C2 . 1.35(2) ?
C2 C3 . 1.44(6) ?
C3 C4 . 1.38(5) ?
