#------------------------------------------------------------------------------
#$Date: 2020-08-06 16:00:44 +0300 (Thu, 06 Aug 2020) $
#$Revision: 254897 $
#$URL: file:///home/coder/svn-repositories/cod/cif/7/12/67/7126743.cif $
#------------------------------------------------------------------------------
#
# This file is available in the Crystallography Open Database (COD),
# http://www.crystallography.net/
#
# All data on this site have been placed in the public domain by the
# contributors.
#
data_7126743
loop_
_publ_author_name
'Ward, Jas S.'
'Fiorini, Giorgia'
'Frontera, Antonio'
'Rissanen, Kari'
_publ_section_title
;
 Asymmetric [N-I-N]<sup>+</sup> halonium complexes.
;
_journal_issue                   60
_journal_name_full
'Chemical communications (Cambridge, England)'
_journal_page_first              8428
_journal_page_last               8431
_journal_paper_doi               10.1039/d0cc02758h
_journal_volume                  56
_journal_year                    2020
_chemical_formula_moiety         'C12 H14 Ag N2, F6 P'
_chemical_formula_sum            'C12 H14 Ag F6 N2 P'
_chemical_formula_weight         439.09
_space_group_crystal_system      triclinic
_space_group_IT_number           2
_space_group_name_Hall           '-P 1'
_space_group_name_H-M_alt        'P -1'
_atom_sites_solution_hydrogens   geom
_atom_sites_solution_primary     dual
_audit_creation_date             2020-01-23
_audit_creation_method
;
Olex2 1.2
(compiled 2018.05.29 svn.r3508 for OlexSys, GUI svn.r5506)
;
_audit_update_record
;
2020-04-15 deposited with the CCDC.	2020-06-19 downloaded from the CCDC.
;
_cell_angle_alpha                72.296(5)
_cell_angle_beta                 71.948(7)
_cell_angle_gamma                73.418(7)
_cell_formula_units_Z            2
_cell_length_a                   8.4968(8)
_cell_length_b                   9.1809(11)
_cell_length_c                   10.9655(14)
_cell_measurement_reflns_used    2380
_cell_measurement_temperature    170
_cell_measurement_theta_max      30.999
_cell_measurement_theta_min      0.407
_cell_volume                     757.33(16)
_computing_cell_refinement       'DENZO/SCALEPACK (Otwinowski & Minor, 1997)'
_computing_data_collection       'COLLECT (Nonius, 2001).'
_computing_data_reduction        'DENZO/SCALEPACK (Otwinowski & Minor, 1997)'
_computing_molecular_graphics    'Olex2 (Dolomanov et al., 2009)'
_computing_publication_material  'Olex2 (Dolomanov et al., 2009)'
_computing_structure_refinement  'ShelXL (Sheldrick, 2015)'
_computing_structure_solution    'ShelXT (Sheldrick, 2015)'
_diffrn_ambient_temperature      170
_diffrn_measured_fraction_theta_full 0.988
_diffrn_measured_fraction_theta_max 0.989
_diffrn_measurement_device_type  'Bruker APEX-II CCD'
_diffrn_measurement_method       '\w scans'
_diffrn_radiation_monochromator  graphite
_diffrn_radiation_type           MoK\a
_diffrn_radiation_wavelength     0.71073
_diffrn_reflns_av_R_equivalents  0.0483
_diffrn_reflns_av_unetI/netI     0.0826
_diffrn_reflns_Laue_measured_fraction_full 0.988
_diffrn_reflns_Laue_measured_fraction_max 0.989
_diffrn_reflns_limit_h_max       10
_diffrn_reflns_limit_h_min       -10
_diffrn_reflns_limit_k_max       11
_diffrn_reflns_limit_k_min       -11
_diffrn_reflns_limit_l_max       14
_diffrn_reflns_limit_l_min       -12
_diffrn_reflns_number            6348
_diffrn_reflns_point_group_measured_fraction_full 0.988
_diffrn_reflns_point_group_measured_fraction_max 0.989
_diffrn_reflns_theta_full        25.242
_diffrn_reflns_theta_max         27.099
_diffrn_reflns_theta_min         2.579
_diffrn_standards_number         0
_exptl_absorpt_coefficient_mu    1.496
_exptl_absorpt_correction_T_max  0.7462
_exptl_absorpt_correction_T_min  0.4758
_exptl_absorpt_correction_type   multi-scan
_exptl_absorpt_process_details
'SADABS-2012/1 (Bruker,2012) was used for absorption correction. wR2(int) was 0.0868 before and 0.0644 after correction. The Ratio of minimum to maximum transmission is 0.6376. The \l/2 correction factor is 0.0015.'
_exptl_crystal_colour            colourless
_exptl_crystal_colour_primary    colourless
_exptl_crystal_density_diffrn    1.926
_exptl_crystal_description       plate
_exptl_crystal_F_000             432
_exptl_crystal_size_max          0.21
_exptl_crystal_size_mid          0.12
_exptl_crystal_size_min          0.03
_refine_diff_density_max         0.736
_refine_diff_density_min         -0.584
_refine_diff_density_rms         0.114
_refine_ls_extinction_method     none
_refine_ls_goodness_of_fit_ref   1.035
_refine_ls_hydrogen_treatment    constr
_refine_ls_matrix_type           full
_refine_ls_number_parameters     234
_refine_ls_number_reflns         3300
_refine_ls_number_restraints     72
_refine_ls_restrained_S_all      1.041
_refine_ls_R_factor_all          0.0968
_refine_ls_R_factor_gt           0.0627
_refine_ls_shift/su_max          0.000
_refine_ls_shift/su_mean         0.000
_refine_ls_structure_factor_coef Fsqd
_refine_ls_weighting_details
'w=1/[\s^2^(Fo^2^)+(0.0652P)^2^+1.8802P] where P=(Fo^2^+2Fc^2^)/3'
_refine_ls_weighting_scheme      calc
_refine_ls_wR_factor_gt          0.1463
_refine_ls_wR_factor_ref         0.1631
_reflns_Friedel_coverage         0.000
_reflns_number_gt                2295
_reflns_number_total             3300
_reflns_threshold_expression     'I > 2\s(I)'
_cod_data_source_file            d0cc02758h2.cif
_cod_data_source_block           1e
_cod_depositor_comments
'Adding full bibliography for 7126741--7126748.cif.'
_cod_database_code               7126743
_shelxl_version_number           2014/6
_shelx_space_group_comment
;
The symmetry employed for this shelxl refinement is uniquely defined
by the following loop, which should always be used as a source of
symmetry information in preference to the above space-group names.
They are only intended as comments.
;
_shelx_estimated_absorpt_t_max   0.956
_shelx_estimated_absorpt_t_min   0.744
_olex2_refinement_description
;
1. Fixed Uiso
 At 1.2 times of:
  All C(H) groups, All C(H,H) groups
 At 1.5 times of:
  All C(H,H,H) groups
2. Uiso/Uaniso restraints and constraints
F63 \\sim P61 \\sim F65 \\sim F66 \\sim F67 \\sim F62 \\sim F64: within 1.7A
with sigma of 0.02 and sigma for terminal atoms of 0.04
P51 \\sim F55 \\sim F56 \\sim F54 \\sim F53 \\sim F52 \\sim F57: within 1.7A
with sigma of 0.02 and sigma for terminal atoms of 0.04
3. Others
 Sof(P51)=Sof(F52)=Sof(F53)=Sof(F54)=Sof(F55)=Sof(F56)=Sof(F57)=1-FVAR(1)
 Sof(P61)=Sof(F62)=Sof(F63)=Sof(F64)=Sof(F65)=Sof(F66)=Sof(F67)=FVAR(1)
4.a Free rotating group:
 P51(F52,F53,F54,F55,F56,F57), P61(F62,F63,F64,F65,F66,F67)
4.b Secondary CH2 refined with riding coordinates:
 C17(H17A,H17B)
4.c Aromatic/amide H refined with riding coordinates:
 C2(H2), C3(H3), C4(H4), C5(H5), C6(H6), C12(H12), C13(H13), C15(H15), C16(H16)
4.d Idealised Me refined as rotating group:
 C18(H18A,H18B,H18C)
;
_shelx_res_file
;
TITL ohs085-r1_a.res in P-1
REM Old TITL ohs085-r1_a.res in P-1
REM SHELXT solution in P-1
REM R1 0.195, Rweak 0.033, Alpha 0.073, Orientation as input
REM Formula found by SHELXT: C18 Ag N2 P
CELL 0.71073 8.4968 9.1809 10.9655 72.296 71.948 73.418
ZERR 2 0.0008 0.0011 0.0014 0.005 0.007 0.007
LATT 1
SFAC C H Ag F N P
UNIT 24 28 2 12 4 2
SIMU 0.02 0.04 1.7 F63 P61 F65 F66 F67 F62 F64
SIMU 0.02 0.04 1.7 P51 F55 F56 F54 F53 F52 F57

L.S. 4 0 0
PLAN  20
SIZE 0.03 0.12 0.21
TEMP -103.15
FREE F57 Ag1
BOND $H
list 4
fmap 2 53
ACTA
SHEL 25 0.78
REM <olex2.extras>
REM <HklSrc "%.\\OHS085-R1.hkl">
REM </olex2.extras>

WGHT    0.065200    1.880200
FVAR       0.99826   0.49813
AG1   3    0.637747    0.607461    0.393233    11.00000    0.06180    0.05595 =
         0.04880   -0.02517   -0.00016   -0.01101
PART 1
AFIX   6
P51   6    0.862942    0.227121    0.688838   -21.00000    0.06903    0.07329 =
         0.06910   -0.03687   -0.02670    0.01085
F52   4    0.962690    0.360223    0.676396   -21.00000    0.11907    0.10893 =
         0.14881   -0.00551   -0.06863   -0.05287
F53   4    1.015962    0.160172    0.574247   -21.00000    0.11878    0.09080 =
         0.10201   -0.03785    0.03773   -0.00794
F54   4    0.958423    0.108673    0.800727   -21.00000    0.09367    0.10158 =
         0.08176   -0.03188   -0.04756    0.01057
F55   4    0.763233    0.094059    0.701239   -21.00000    0.13464    0.09283 =
         0.10770   -0.00499   -0.05774   -0.05311
F56   4    0.709971    0.294111    0.803418   -21.00000    0.08514    0.12419 =
         0.11816   -0.07072   -0.00578    0.01860
F57   4    0.767490    0.345599    0.576938   -21.00000    0.14662    0.05935 =
         0.06762   -0.01220   -0.06990    0.00375
AFIX   6

PART 0
PART 2
P61   6    0.859423    0.234533    0.683989    21.00000    0.02961    0.04740 =
         0.03203   -0.01032   -0.01195   -0.00330
F62   4    1.045751    0.257824    0.675291    21.00000    0.05996    0.13064 =
         0.13721   -0.01748   -0.01578   -0.03113
F63   4    0.853204    0.367512    0.546958    21.00000    0.14986    0.11442 =
         0.04865   -0.02072   -0.01576    0.04201
F64   4    0.771629    0.368742    0.767368    21.00000    0.11012    0.08376 =
         0.04837   -0.03544   -0.02099    0.01299
F65   4    0.673114    0.211271    0.692706    21.00000    0.08676    0.17662 =
         0.17813   -0.06075   -0.06530   -0.00879
F66   4    0.865691    0.101593    0.821039    21.00000    0.07847    0.08608 =
         0.08973    0.01274   -0.02418   -0.00319
F67   4    0.947266    0.100323    0.600629    21.00000    0.15643    0.08287 =
         0.09221   -0.04979   -0.03582    0.01565
AFIX   0

PART 0
N1    5    0.743269    0.486826    0.238502    11.00000    0.04289    0.05384 =
         0.04898   -0.02343    0.00087   -0.01170
N11   5    0.561455    0.731818    0.541499    11.00000    0.04605    0.05103 =
         0.03886   -0.01870   -0.00340   -0.01044
C2    1    0.672888    0.519380    0.137623    11.00000    0.05086    0.05277 =
         0.05431   -0.01461   -0.01430   -0.00794
AFIX  43
H2    2    0.571738    0.597271    0.135227    11.00000   -1.20000
AFIX   0
C3    1    0.742783    0.443357    0.037507    11.00000    0.06351    0.06501 =
         0.05549   -0.02301   -0.01149   -0.01596
AFIX  43
H3    2    0.690950    0.470084   -0.033902    11.00000   -1.20000
AFIX   0
C4    1    0.887181    0.328838    0.039644    11.00000    0.05633    0.07291 =
         0.05838   -0.03208   -0.00175   -0.01863
AFIX  43
H4    2    0.935751    0.275066   -0.029275    11.00000   -1.20000
AFIX   0
C5    1    0.959959    0.293569    0.143216    11.00000    0.04532    0.06142 =
         0.06584   -0.03403   -0.00596   -0.00499
AFIX  43
H5    2    1.059615    0.214348    0.148449    11.00000   -1.20000
AFIX   0
C6    1    0.884166    0.376593    0.239829    11.00000    0.05698    0.06060 =
         0.05158   -0.01964   -0.01295   -0.01222
AFIX  43
H6    2    0.935412    0.353744    0.311050    11.00000   -1.20000
AFIX   0
C12   1    0.411460    0.830997    0.570940    11.00000    0.04757    0.04731 =
         0.05995   -0.01984   -0.01113   -0.01005
AFIX  43
H12   2    0.333665    0.851076    0.518538    11.00000   -1.20000
AFIX   0
C13   1    0.365226    0.904286    0.672198    11.00000    0.04619    0.04735 =
         0.06166   -0.02426   -0.00415   -0.00638
AFIX  43
H13   2    0.257570    0.972561    0.689194    11.00000   -1.20000
AFIX   0
C14   1    0.476194    0.878305    0.749549    11.00000    0.06123    0.07460 =
         0.07485   -0.04167   -0.00751   -0.01854
C15   1    0.630273    0.778022    0.718993    11.00000    0.05884    0.08962 =
         0.07848   -0.04123   -0.02370   -0.00662
AFIX  43
H15   2    0.710010    0.756404    0.770043    11.00000   -1.20000
AFIX   0
C16   1    0.668839    0.709977    0.616517    11.00000    0.04450    0.06482 =
         0.05628   -0.02502   -0.00981   -0.00589
AFIX  43
H16   2    0.777172    0.643550    0.596762    11.00000   -1.20000
AFIX   0
C17   1    0.437003    0.939631    0.874378    11.00000    0.09430    0.12739 =
         0.09038   -0.06643   -0.01443   -0.01223
AFIX  23
H17A  2    0.421728    0.851223    0.952682    11.00000   -1.20000
H17B  2    0.536434    0.976909    0.872342    11.00000   -1.20000
AFIX   0
C18   1    0.289565    1.064253    0.890546    11.00000    0.13075    0.09847 =
         0.09098   -0.05103   -0.03262    0.01185
AFIX 137
H18A  2    0.296378    1.147609    0.809369    11.00000   -1.50000
H18B  2    0.284560    1.106123    0.964215    11.00000   -1.50000
H18C  2    0.187510    1.023760    0.909045    11.00000   -1.50000
AFIX   0
HKLF 4

REM  ohs085-r1_a.res in P-1
REM R1 =  0.0627 for    2295 Fo > 4sig(Fo)  and  0.0968 for all    3300 data
REM    234 parameters refined using     72 restraints

END

WGHT      0.0652      1.8802

REM Highest difference peak  0.736,  deepest hole -0.584,  1-sigma level  0.114
Q1    1   0.8528  0.0961  0.6615  11.00000  0.05    0.74
Q2    1   0.7530  0.3183  0.7720  11.00000  0.05    0.71
Q3    1   0.8964  0.3385  0.7391  11.00000  0.05    0.70
Q4    1   0.8994  0.1369  0.7956  11.00000  0.05    0.63
Q5    1   0.9757  0.2974  0.6780  11.00000  0.05    0.62
Q6    1   0.9353  0.3928  0.5822  11.00000  0.05    0.57
Q7    1   0.6810  0.3256  0.6768  11.00000  0.05    0.56
Q8    1   0.7452  0.2106  0.8016  11.00000  0.05    0.53
Q9    1   0.9983  0.2535  0.5771  11.00000  0.05    0.51
Q10   1   0.9470  0.1582  0.5717  11.00000  0.05    0.50
Q11   1   0.6484  0.6597  0.4631  11.00000  0.05    0.50
Q12   1   1.0038  0.2141  0.7146  11.00000  0.05    0.46
Q13   1   0.9742  0.1396  0.5963  11.00000  0.05    0.43
Q14   1   0.7334  0.2770  0.5980  11.00000  0.05    0.43
Q15   1   0.6661  0.1854  0.7912  11.00000  0.05    0.43
Q16   1   0.4187  1.0592  0.8046  11.00000  0.05    0.40
Q17   1   0.9985  0.1234  0.6188  11.00000  0.05    0.39
Q18   1   0.7029  0.7829  0.4360  11.00000  0.05    0.39
Q19   1   0.7320  0.1569  0.6770  11.00000  0.05    0.38
Q20   1   0.5914  0.5609  0.3049  11.00000  0.05    0.38
;
_shelx_res_checksum              50254
_olex2_submission_special_instructions 'No special instructions were received'
loop_
_space_group_symop_operation_xyz
'x, y, z'
'-x, -y, -z'
loop_
_atom_site_label
_atom_site_type_symbol
_atom_site_fract_x
_atom_site_fract_y
_atom_site_fract_z
_atom_site_U_iso_or_equiv
_atom_site_adp_type
_atom_site_occupancy
_atom_site_site_symmetry_order
_atom_site_calc_flag
_atom_site_refinement_flags_posn
_atom_site_refinement_flags_adp
_atom_site_refinement_flags_occupancy
_atom_site_disorder_assembly
_atom_site_disorder_group
Ag1 Ag 0.63775(7) 0.60746(6) 0.39323(5) 0.0560(2) Uani 1 1 d . . . . .
P51 P 0.8629(6) 0.2271(6) 0.6888(6) 0.069(4) Uani 0.502(16) 1 d . U P A 1
F52 F 0.9627(17) 0.3602(12) 0.6764(10) 0.117(6) Uani 0.502(16) 1 d G U P A 1
F53 F 1.0160(10) 0.1602(15) 0.5742(9) 0.119(6) Uani 0.502(16) 1 d G U P A 1
F54 F 0.9584(14) 0.1087(9) 0.8007(9) 0.091(4) Uani 0.502(16) 1 d G U P A 1
F55 F 0.7632(17) 0.0941(13) 0.7012(9) 0.103(5) Uani 0.502(16) 1 d G U P A 1
F56 F 0.7100(9) 0.2941(16) 0.8034(10) 0.113(6) Uani 0.502(16) 1 d G U P A 1
F57 F 0.7675(15) 0.3456(10) 0.5769(10) 0.087(4) Uani 0.502(16) 1 d G U P A 1
P61 P 0.8594(5) 0.2345(5) 0.6840(5) 0.036(3) Uani 0.498(16) 1 d . U P A 2
F62 F 1.0458(8) 0.2578(18) 0.6753(10) 0.112(5) Uani 0.498(16) 1 d G U P A 2
F63 F 0.8532(16) 0.3675(9) 0.5470(6) 0.121(7) Uani 0.498(16) 1 d G U P A 2
F64 F 0.7716(15) 0.3687(9) 0.7674(8) 0.083(4) Uani 0.498(16) 1 d G U P A 2
F65 F 0.6731(9) 0.2113(19) 0.6927(10) 0.139(7) Uani 0.498(16) 1 d G U P A 2
F66 F 0.8657(15) 0.1016(8) 0.8210(7) 0.095(4) Uani 0.498(16) 1 d G U P A 2
F67 F 0.9473(16) 0.1003(9) 0.6006(9) 0.111(6) Uani 0.498(16) 1 d G U P A 2
N1 N 0.7433(6) 0.4868(7) 0.2385(6) 0.0485(13) Uani 1 1 d . . . . .
N11 N 0.5615(6) 0.7318(6) 0.5415(5) 0.0450(12) Uani 1 1 d . . . . .
C2 C 0.6729(9) 0.5194(8) 0.1376(7) 0.0525(16) Uani 1 1 d . . . . .
H2 H 0.5717 0.5973 0.1352 0.063 Uiso 1 1 calc R . . . .
C3 C 0.7428(9) 0.4434(9) 0.0375(8) 0.0595(19) Uani 1 1 d . . . . .
H3 H 0.6910 0.4701 -0.0339 0.071 Uiso 1 1 calc R . . . .
C4 C 0.8872(9) 0.3288(9) 0.0396(8) 0.060(2) Uani 1 1 d . . . . .
H4 H 0.9358 0.2751 -0.0293 0.073 Uiso 1 1 calc R . . . .
C5 C 0.9600(9) 0.2936(9) 0.1432(8) 0.0563(18) Uani 1 1 d . . . . .
H5 H 1.0596 0.2143 0.1484 0.068 Uiso 1 1 calc R . . . .
C6 C 0.8842(9) 0.3766(9) 0.2398(7) 0.0550(17) Uani 1 1 d . . . . .
H6 H 0.9354 0.3537 0.3110 0.066 Uiso 1 1 calc R . . . .
C12 C 0.4115(8) 0.8310(8) 0.5709(7) 0.0504(16) Uani 1 1 d . . . . .
H12 H 0.3337 0.8511 0.5185 0.060 Uiso 1 1 calc R . . . .
C13 C 0.3652(8) 0.9043(8) 0.6722(7) 0.0520(17) Uani 1 1 d . . . . .
H13 H 0.2576 0.9726 0.6892 0.062 Uiso 1 1 calc R . . . .
C14 C 0.4762(10) 0.8783(10) 0.7495(9) 0.066(2) Uani 1 1 d . . . . .
C15 C 0.6303(10) 0.7780(11) 0.7190(9) 0.071(2) Uani 1 1 d . . . . .
H15 H 0.7100 0.7564 0.7700 0.085 Uiso 1 1 calc R . . . .
C16 C 0.6688(8) 0.7100(9) 0.6165(7) 0.0545(17) Uani 1 1 d . . . . .
H16 H 0.7772 0.6435 0.5968 0.065 Uiso 1 1 calc R . . . .
C17 C 0.4370(13) 0.9396(14) 0.8744(11) 0.099(3) Uani 1 1 d . . . . .
H17A H 0.4217 0.8512 0.9527 0.119 Uiso 1 1 calc R . . . .
H17B H 0.5364 0.9769 0.8723 0.119 Uiso 1 1 calc R . . . .
C18 C 0.2896(15) 1.0643(13) 0.8905(12) 0.107(4) Uani 1 1 d . . . . .
H18A H 0.2964 1.1476 0.8094 0.160 Uiso 1 1 calc GR . . . .
H18B H 0.2846 1.1061 0.9642 0.160 Uiso 1 1 calc GR . . . .
H18C H 0.1875 1.0238 0.9090 0.160 Uiso 1 1 calc GR . . . .
loop_
_atom_site_aniso_label
_atom_site_aniso_U_11
_atom_site_aniso_U_22
_atom_site_aniso_U_33
_atom_site_aniso_U_23
_atom_site_aniso_U_13
_atom_site_aniso_U_12
Ag1 0.0618(4) 0.0559(4) 0.0488(4) -0.0252(3) -0.0002(2) -0.0110(2)
P51 0.069(7) 0.073(7) 0.069(8) -0.037(6) -0.027(6) 0.011(5)
F52 0.119(12) 0.109(11) 0.149(12) -0.006(9) -0.069(10) -0.053(9)
F53 0.119(10) 0.091(10) 0.102(10) -0.038(8) 0.038(8) -0.008(8)
F54 0.094(10) 0.102(8) 0.082(8) -0.032(7) -0.048(7) 0.011(7)
F55 0.135(12) 0.093(9) 0.108(10) -0.005(7) -0.058(9) -0.053(8)
F56 0.085(8) 0.124(13) 0.118(11) -0.071(10) -0.006(7) 0.019(8)
F57 0.147(12) 0.059(6) 0.068(8) -0.012(6) -0.070(8) 0.004(7)
P61 0.030(4) 0.047(5) 0.032(4) -0.010(4) -0.012(3) -0.003(3)
F62 0.060(7) 0.131(13) 0.137(12) -0.017(10) -0.016(7) -0.031(7)
F63 0.150(13) 0.114(11) 0.049(7) -0.021(7) -0.016(8) 0.042(9)
F64 0.110(10) 0.084(8) 0.048(6) -0.035(6) -0.021(6) 0.013(7)
F65 0.087(9) 0.177(17) 0.178(15) -0.061(14) -0.065(9) -0.009(10)
F66 0.078(9) 0.086(8) 0.090(9) 0.013(6) -0.024(7) -0.003(6)
F67 0.156(14) 0.083(9) 0.092(10) -0.050(8) -0.036(9) 0.016(9)
N1 0.043(3) 0.054(3) 0.049(3) -0.023(3) 0.001(2) -0.012(2)
N11 0.046(3) 0.051(3) 0.039(3) -0.019(2) -0.003(2) -0.010(2)
C2 0.051(4) 0.053(4) 0.054(4) -0.015(3) -0.014(3) -0.008(3)
C3 0.064(4) 0.065(5) 0.055(5) -0.023(4) -0.011(4) -0.016(4)
C4 0.056(4) 0.073(5) 0.058(5) -0.032(4) -0.002(3) -0.019(4)
C5 0.045(3) 0.061(4) 0.066(5) -0.034(4) -0.006(3) -0.005(3)
C6 0.057(4) 0.061(4) 0.052(4) -0.020(4) -0.013(3) -0.012(3)
C12 0.048(3) 0.047(4) 0.060(4) -0.020(3) -0.011(3) -0.010(3)
C13 0.046(3) 0.047(4) 0.062(5) -0.024(3) -0.004(3) -0.006(3)
C14 0.061(4) 0.075(5) 0.075(6) -0.042(5) -0.008(4) -0.019(4)
C15 0.059(4) 0.090(6) 0.078(6) -0.041(5) -0.024(4) -0.007(4)
C16 0.044(4) 0.065(4) 0.056(4) -0.025(4) -0.010(3) -0.006(3)
C17 0.094(7) 0.127(9) 0.090(8) -0.066(7) -0.014(6) -0.012(6)
C18 0.131(9) 0.098(8) 0.091(8) -0.051(7) -0.033(7) 0.012(7)
loop_
_atom_type_symbol
_atom_type_description
_atom_type_scat_dispersion_real
_atom_type_scat_dispersion_imag
_atom_type_scat_source
C C 0.0033 0.0016 'International Tables Vol C Tables 4.2.6.8 and 6.1.1.4'
H H 0.0000 0.0000 'International Tables Vol C Tables 4.2.6.8 and 6.1.1.4'
Ag Ag -0.8971 1.1015 'International Tables Vol C Tables 4.2.6.8 and 6.1.1.4'
F F 0.0171 0.0103 'International Tables Vol C Tables 4.2.6.8 and 6.1.1.4'
N N 0.0061 0.0033 'International Tables Vol C Tables 4.2.6.8 and 6.1.1.4'
P P 0.1023 0.0942 'International Tables Vol C Tables 4.2.6.8 and 6.1.1.4'
loop_
_geom_angle_atom_site_label_1
_geom_angle_atom_site_label_2
_geom_angle_atom_site_label_3
_geom_angle
_geom_angle_site_symmetry_1
_geom_angle_site_symmetry_3
_geom_angle_publ_flag
N1 Ag1 Ag1 102.43(14) . 2_666 ?
N11 Ag1 Ag1 82.99(14) . 2_666 ?
N11 Ag1 N1 173.39(19) . . ?
F53 P51 F52 90.0 . . ?
F54 P51 F52 90.0 . . ?
F54 P51 F53 90.0 . . ?
F54 P51 F57 180.0 . . ?
F55 P51 F52 180.0 . . ?
F55 P51 F53 90.0 . . ?
F55 P51 F54 90.0 . . ?
F55 P51 F56 90.0 . . ?
F55 P51 F57 90.0 . . ?
F56 P51 F52 90.0 . . ?
F56 P51 F53 180.0 . . ?
F56 P51 F54 90.0 . . ?
F56 P51 F57 90.0 . . ?
F57 P51 F52 90.0 . . ?
F57 P51 F53 90.0 . . ?
F63 P61 F62 90.0 . . ?
F63 P61 F64 90.0 . . ?
F63 P61 F66 180.0 . . ?
F63 P61 F67 90.0 . . ?
F64 P61 F62 90.0 . . ?
F65 P61 F62 180.0 . . ?
F65 P61 F63 90.0 . . ?
F65 P61 F64 90.0 . . ?
F65 P61 F66 90.0 . . ?
F65 P61 F67 90.0 . . ?
F66 P61 F62 90.0 . . ?
F66 P61 F64 90.0 . . ?
F66 P61 F67 90.0 . . ?
F67 P61 F62 90.0 . . ?
F67 P61 F64 180.0 . . ?
C2 N1 Ag1 121.9(5) . . ?
C6 N1 Ag1 120.2(5) . . ?
C6 N1 C2 118.0(6) . . ?
C12 N11 Ag1 125.9(5) . . ?
C16 N11 Ag1 118.1(4) . . ?
C16 N11 C12 116.0(6) . . ?
N1 C2 H2 119.2 . . ?
N1 C2 C3 121.6(7) . . ?
C3 C2 H2 119.2 . . ?
C2 C3 H3 119.8 . . ?
C2 C3 C4 120.4(7) . . ?
C4 C3 H3 119.8 . . ?
C3 C4 H4 120.7 . . ?
C5 C4 C3 118.6(7) . . ?
C5 C4 H4 120.7 . . ?
C4 C5 H5 121.0 . . ?
C4 C5 C6 118.0(7) . . ?
C6 C5 H5 121.0 . . ?
N1 C6 C5 123.5(7) . . ?
N1 C6 H6 118.3 . . ?
C5 C6 H6 118.3 . . ?
N11 C12 H12 118.2 . . ?
N11 C12 C13 123.6(7) . . ?
C13 C12 H12 118.2 . . ?
C12 C13 H13 120.2 . . ?
C12 C13 C14 119.6(6) . . ?
C14 C13 H13 120.2 . . ?
C13 C14 C17 125.7(7) . . ?
C15 C14 C13 117.0(7) . . ?
C15 C14 C17 117.0(8) . . ?
C14 C15 H15 119.8 . . ?
C16 C15 C14 120.5(8) . . ?
C16 C15 H15 119.8 . . ?
N11 C16 C15 123.3(6) . . ?
N11 C16 H16 118.3 . . ?
C15 C16 H16 118.3 . . ?
C14 C17 H17A 108.4 . . ?
C14 C17 H17B 108.4 . . ?
H17A C17 H17B 107.5 . . ?
C18 C17 C14 115.3(9) . . ?
C18 C17 H17A 108.4 . . ?
C18 C17 H17B 108.4 . . ?
C17 C18 H18A 109.5 . . ?
C17 C18 H18B 109.5 . . ?
C17 C18 H18C 109.5 . . ?
H18A C18 H18B 109.5 . . ?
H18A C18 H18C 109.5 . . ?
H18B C18 H18C 109.5 . . ?
loop_
_geom_bond_atom_site_label_1
_geom_bond_atom_site_label_2
_geom_bond_distance
_geom_bond_site_symmetry_2
_geom_bond_publ_flag
Ag1 Ag1 3.3593(11) 2_666 ?
Ag1 N1 2.131(5) . ?
Ag1 N11 2.102(5) . ?
P51 F52 1.6274 . ?
P51 F53 1.6273 . ?
P51 F54 1.6273 . ?
P51 F55 1.6269 . ?
P51 F56 1.6272 . ?
P51 F57 1.6273 . ?
P61 F62 1.6274 . ?
P61 F63 1.6272 . ?
P61 F64 1.6274 . ?
P61 F65 1.6271 . ?
P61 F66 1.6272 . ?
P61 F67 1.6273 . ?
N1 C2 1.333(9) . ?
N1 C6 1.330(9) . ?
N11 C12 1.349(8) . ?
N11 C16 1.345(9) . ?
C2 H2 0.9500 . ?
C2 C3 1.368(10) . ?
C3 H3 0.9500 . ?
C3 C4 1.370(11) . ?
C4 H4 0.9500 . ?
C4 C5 1.369(11) . ?
C5 H5 0.9500 . ?
C5 C6 1.381(10) . ?
C6 H6 0.9500 . ?
C12 H12 0.9500 . ?
C12 C13 1.369(10) . ?
C13 H13 0.9500 . ?
C13 C14 1.382(11) . ?
C14 C15 1.379(11) . ?
C14 C17 1.543(11) . ?
C15 H15 0.9500 . ?
C15 C16 1.357(10) . ?
C16 H16 0.9500 . ?
C17 H17A 0.9900 . ?
C17 H17B 0.9900 . ?
C17 C18 1.441(14) . ?
C18 H18A 0.9800 . ?
C18 H18B 0.9800 . ?
C18 H18C 0.9800 . ?
