#------------------------------------------------------------------------------
#$Date: 2020-09-06 11:24:31 +0300 (Sun, 06 Sep 2020) $
#$Revision: 255986 $
#$URL: file:///home/coder/svn-repositories/cod/cif/7/12/68/7126861.cif $
#------------------------------------------------------------------------------
#
# This file is available in the Crystallography Open Database (COD),
# http://www.crystallography.net/
#
# All data on this site have been placed in the public domain by the
# contributors.
#
data_7126861
loop_
_publ_author_name
'Garc\'ia-Valdivia, Antonio A'
'Romero, Francisco J.'
'Cepeda, Javier'
'Morales, Diego P.'
'Casati, Nicola'
'Mota, Antonio J.'
'Zotti, Linda A.'
'Palacios, Juan J.'
'Choquesillo-Lazarte, Duane'
'F Salmer\'on, Jos\'e'
'Rivadeneyra, Almudena'
'Rodr\'iguez-Di\'eguez, Antonio'
_publ_section_title
;
 Rational design of an unusual 2D-MOF based on Cu(i) and
 4-hydroxypyrimidine-5-carbonitrile as linker with conductive
 capabilities: a theoretical approach based on high-pressure XRD.
;
_journal_issue                   66
_journal_name_full
'Chemical communications (Cambridge, England)'
_journal_page_first              9473
_journal_page_last               9476
_journal_paper_doi               10.1039/d0cc03564e
_journal_volume                  56
_journal_year                    2020
_chemical_formula_sum            'C5 H2 Cu N3 O'
_chemical_formula_weight         183.64
_space_group_IT_number           57
_space_group_name_Hall           '-P 2c 2b'
_space_group_name_H-M_alt        'P b c m'
_symmetry_cell_setting           orthorhombic
_symmetry_Int_Tables_number      57
_symmetry_space_group_name_Hall  '-P 2c 2b'
_symmetry_space_group_name_H-M   'P b c m'
_atom_sites_solution_hydrogens   geom
_audit_creation_date             2020-03-13T10:18:38-00:00
_audit_creation_method           'WinGX routine CIF_UPDATE'
_audit_update_record
;
2020-03-28 deposited with the CCDC.	2020-07-09 downloaded from the CCDC.
;
_cell_angle_alpha                90
_cell_angle_beta                 90
_cell_angle_gamma                90
_cell_formula_units_Z            4
_cell_length_a                   7.9478(16)
_cell_length_b                   10.61(2)
_cell_length_c                   5.5058(12)
_cell_measurement_reflns_used    257
_cell_measurement_temperature    293(2)
_cell_measurement_theta_max      16.672
_cell_measurement_theta_min      3.389
_cell_volume                     464.3(9)
_computing_cell_refinement       'CrysAlisPro 1.171.39.46 (Rigaku OD, 2018)'
_computing_data_collection       'CrysAlisPro 1.171.39.46 (Rigaku OD, 2018)'
_computing_data_reduction        'CrysAlisPro 1.171.39.46 (Rigaku OD, 2018)'
_computing_structure_refinement  'SHELXL-2018/3 (Sheldrick, 2018)'
_diffrn_ambient_environment      'collected in a Diamond Anvil Cell'
_diffrn_ambient_pressure         4200000
_diffrn_ambient_temperature      293(2)
_diffrn_measured_fraction_theta_full 0.364
_diffrn_measured_fraction_theta_max 0.364
_diffrn_measurement_device_type
'dectris-CrysAlisPro-abstract goniometer imported dectris images'
_diffrn_measurement_method       '\f scans'
_diffrn_radiation_monochromator  synchrotron
_diffrn_radiation_type           synchrotron
_diffrn_radiation_wavelength     0.49276
_diffrn_reflns_av_R_equivalents  0.1022
_diffrn_reflns_av_unetI/netI     0.1187
_diffrn_reflns_Laue_measured_fraction_full 0.364
_diffrn_reflns_Laue_measured_fraction_max 0.364
_diffrn_reflns_limit_h_max       9
_diffrn_reflns_limit_h_min       -9
_diffrn_reflns_limit_k_max       3
_diffrn_reflns_limit_k_min       -4
_diffrn_reflns_limit_l_max       6
_diffrn_reflns_limit_l_min       -6
_diffrn_reflns_number            1114
_diffrn_reflns_point_group_measured_fraction_full 0.364
_diffrn_reflns_point_group_measured_fraction_max 0.364
_diffrn_reflns_theta_full        16.733
_diffrn_reflns_theta_max         16.733
_diffrn_reflns_theta_min         3.393
_diffrn_source                   synchrotron
_exptl_absorpt_coefficient_mu    4.592
_exptl_absorpt_correction_type   none
_exptl_crystal_colour            orange
_exptl_crystal_density_diffrn    2.627
_exptl_crystal_description       prism
_exptl_crystal_F_000             360
_exptl_crystal_size_max          0.07
_exptl_crystal_size_mid          0.05
_exptl_crystal_size_min          0.02
_refine_diff_density_max         0.362
_refine_diff_density_min         -0.308
_refine_diff_density_rms         0.087
_refine_ls_extinction_method     none
_refine_ls_goodness_of_fit_ref   1.103
_refine_ls_hydrogen_treatment    constr
_refine_ls_matrix_type           full
_refine_ls_number_parameters     34
_refine_ls_number_reflns         160
_refine_ls_number_restraints     0
_refine_ls_restrained_S_all      1.103
_refine_ls_R_factor_all          0.058
_refine_ls_R_factor_gt           0.0443
_refine_ls_shift/su_max          0
_refine_ls_shift/su_mean         0
_refine_ls_structure_factor_coef Fsqd
_refine_ls_weighting_details
'w=1/[\s^2^(Fo^2^)+(0.0755P)^2^] where P=(Fo^2^+2Fc^2^)/3'
_refine_ls_weighting_scheme      calc
_refine_ls_wR_factor_ref         0.1222
_reflns_number_gt                121
_reflns_number_total             160
_reflns_threshold_expression     'I > 2\s(I)'
_cod_data_source_file            d0cc03564e2.cif
_cod_data_source_block           avg112_4p2_
_cod_depositor_comments
'Adding full bibliography for 7126858--7126861.cif.'
_cod_database_code               7126861
_shelx_res_file
;
TITL AVG112_4p2_ in Pbcm
    shelx.res
    created by SHELXL-2018/3 at 08:40:58 on 12-Mar-2020
CELL  0.49276   7.9478  10.6108   5.5058   90.000   90.000   90.000
ZERR     4.00   0.0016   0.0209   0.0012    0.000    0.000    0.000
LATT   1
SYMM  - X, - Y, 1/2 + Z
SYMM  - X, 1/2 + Y, 1/2 - Z
SYMM    X, 1/2 - Y, - Z
SFAC  C    H    N    O    CU
UNIT  20 8 12 4 4
MERG   2
FMAP   2
PLAN   20
ACTA
LIST   5
L.S.  10
WGHT    0.075500
FVAR       2.08662
C5    1    0.549619    0.366785    0.250000    10.50000    0.03019
N3    3    0.687553    0.332198    0.250000    10.50000    0.04093
O1    4    0.283105    0.186654    0.250000    10.50000    0.03142
CU1   5   -0.099644    0.232229    0.250000    10.50000    0.02454    0.03296 =
         0.04653    0.00000    0.00000   -0.00271
N1    3    0.085442    0.349989    0.250000    10.50000    0.03272
C1    1    0.058334    0.470038    0.250000    10.50000    0.03407
AFIX  43
H1    2   -0.053631    0.495504    0.250000    10.50000   -1.20000
AFIX   0
N2    3    0.172393    0.560436    0.250000    10.50000    0.03628
C2    1    0.338177    0.526899    0.250000    10.50000    0.03019
AFIX  43
H2    2    0.422582    0.587602    0.250000    10.50000   -1.20000
AFIX   0
C3    1    0.377543    0.396955    0.250000    10.50000    0.02542
C4    1    0.254074    0.303065    0.250000    10.50000    0.02326
HKLF    4




REM  AVG112_4p2_ in Pbcm
REM wR2 = 0.1222, GooF = S = 1.103, Restrained GooF = 1.103 for all data
REM R1 = 0.0443 for 121 Fo > 4sig(Fo) and 0.0580 for all 160 data
REM 34 parameters refined using 0 restraints

END

WGHT      0.0755      0.0000

REM Highest difference peak  0.362,  deepest hole -0.308,  1-sigma level  0.087
Q1    1   0.1629  0.5660  0.3266  11.00000  0.05    0.36
Q2    1   0.0977  0.3841  0.1868  11.00000  0.05    0.33
Q3    1   0.3679  0.4139  0.1796  11.00000  0.05    0.26
Q4    1  -0.1013  0.2218  0.1259  11.00000  0.05    0.25
Q5    1   0.6909  0.3714  0.1697  11.00000  0.05    0.24
Q6    1   0.0461  0.4980  0.3352  11.00000  0.05    0.21
Q7    1  -0.1026  0.5859  0.2500  10.50000  0.05    0.20
Q8    1   0.1441  0.2507  0.2500  10.50000  0.05    0.18
Q9    1   0.4157  0.6322  0.2500  10.50000  0.05    0.16
Q10   1   0.3639  0.1043  0.2500  10.50000  0.05    0.15
Q11   1  -0.1653  0.3999  0.1719  11.00000  0.05    0.15
Q12   1   0.0784  0.6174  0.0085  11.00000  0.05    0.15
Q13   1   0.4405  0.5552  0.3202  11.00000  0.05    0.15
Q14   1   0.6191  0.5070  0.3765  11.00000  0.05    0.14
Q15   1   0.5158  0.6433  0.3626  11.00000  0.05    0.14
Q16   1   0.2600  0.3322  0.1581  11.00000  0.05    0.14
Q17   1   0.5391  0.3554  0.1647  11.00000  0.05    0.13
Q18   1   0.2780  0.2831  0.1498  11.00000  0.05    0.13
Q19   1   0.5146  0.2664  0.2500  10.50000  0.05    0.12
Q20   1  -0.2573  0.2010  0.2500  10.50000  0.05    0.12
;
_shelx_res_checksum              28893
_shelx_hkl_file
;
   4   0   0 23553.9 2281.17   1
   4  -1   0 2517.59 230.136   2
   4  -1   0 2062.61 229.231   1
  -4  -1   0 2336.12 228.946   1
  -4  -1   0 2486.03 229.682   2
   5  -1   0 1197.05 116.000   2
  -5  -1   0 1050.20 112.593   1
   5  -1   0 966.474 113.357   1
  -5  -1   0 1176.57 114.780   2
   5  -2   0 23542.0 2680.20   1
  -5  -2   0 28842.6 2680.33   1
  -5  -2   0 31510.4 2680.56   2
  -6  -1   0 4267.48 483.362   1
   6  -1   0 5748.98 484.746   2
   6  -1   0 5172.33 483.971   1
   6  -2   0 15495.8 1357.89   2
  -6  -2   0 13456.0 1357.17   1
   6  -2   0 12738.5 1357.35   1
  -6  -2   0 14760.8 1357.62   2
   7  -2   0-18.9068 60.7027   1
  -7  -2   0-64.8608 53.6399   1
  -7  -2   0-6.50533 63.2679   2
   7  -3   0 10394.4 888.753   2
   7  -3   0 8134.35 887.860   1
   8  -2   0 1019.95 115.802   2
   8  -2   0 897.060 110.766   1
   8  -3   0 5054.43 496.874   2
  -8  -4   0 243.976 68.2864   1
  -8  -4   0-5.54373 75.9134   2
   9  -3   0 835.805 100.535   1
   9  -3   0 1028.71 107.883   2
   0   0   1 10.4332 21.8903   2
   0   0   1-3.79186 19.2612   1
   0  -1   1 3.77541 23.9989   2
   0  -1   1 14.5533 21.0767   1
   0   1   1 32.3285 20.6268   1
  -1   0  -1 22.0812 18.3621   1
   1   0   1-20.9679 18.7588   1
   1   0  -1 9.71609 22.9192   1
   1   0   1 13.1154 20.8879   2
  -1   0  -1 13.8586 20.9260   2
   1   0  -1 18.2970 26.0614   2
   1   1  -1 10214.0 939.717   1
   1  -1   1 9767.39 939.232   1
   1  -1  -1 9837.24 939.774   2
   1  -1   1 10916.9 939.408   2
   1  -1  -1 8577.58 939.529   1
   1   1  -1 11708.7 940.010   2
  -1  -1  -1 8122.19 939.038   1
   2   0  -1-31.3482 29.3081   1
  -2   0   1 1.33591 33.4868   2
   2   0  -1 10.0079 34.0038   2
  -2   0   1-22.7032 29.5695   1
  -2  -1   1 5681.99 476.247   2
   2  -1  -1 5150.56 476.175   2
  -2  -1   1 4832.21 475.733   1
   2   1  -1 5697.35 476.348   2
  -2   1   1 5133.29 476.153   2
  -2   1   1 4093.41 475.576   1
   2   1  -1 5065.29 475.827   1
   2  -1  -1 3992.48 475.566   1
  -3   0   1 18.9583 38.7354   1
  -3   0   1 34.8913 44.2485   2
   3   0  -1 0.75727 39.5113   1
   3   0  -1 14.3914 44.6880   2
  -3  -1   1 6549.44 562.510   2
   3   1  -1 6820.24 562.852   2
   3  -1  -1 5807.00 562.488   2
   3   1  -1 5810.93 562.062   1
   3  -1  -1 4931.69 561.859   1
  -3   1   1 5026.84 561.734   1
  -3  -1   1 5933.04 561.920   1
  -3  -2   1 1636.94 177.637   1
  -3  -2   1 1925.29 179.345   2
   4   0  -1 10.0677 49.3661   1
  -4   0   1 46.2232 55.2708   2
   4   0  -1-8.39102 56.9176   2
  -4   0   1-41.1741 47.6058   1
   4   1  -1 457.444 70.9705   1
  -4  -1   1 434.615 68.4043   1
  -4  -1   1 560.395 74.4258   2
   4  -1  -1 430.370 70.2703   1
   4  -1  -1 500.124 75.9146   2
   4   1  -1 610.828 77.0025   2
  -5   0   1-30.0142 57.6097   1
  -5   0   1 68.2209 66.3927   2
  -5  -2   1 137.366 63.9887   1
  -5  -2   1 209.333 73.2708   2
  -5  -3   1 156.454 70.1537   2
  -5  -3   1 73.4466 63.0483   1
  -6   0   1-18.2672 65.8522   1
  -6  -1   1 1111.81 138.832   2
  -6  -1   1 1075.75 133.525   1
   6  -1  -1 1109.03 134.670   1
   6  -1  -1 1488.75 140.409   2
   6  -2  -1 161.241 72.6367   1
  -6  -2   1 23.4442 80.0283   2
  -6  -2   1 53.2175 69.9622   1
  -6  -3   1 145.724 72.7380   1
  -6  -3   1 15.5498 82.5323   2
   6  -3  -1 115.274 72.0935   1
   6  -3  -1 53.2785 80.0372   2
   7   0  -1-5.93205 86.0945   2
   7   0  -1 30.6490 74.4334   1
  -7  -1   1 46.4161 73.1214   1
  -7  -1   1 64.6164 84.6614   2
   7  -1  -1 212.643 87.2748   2
   7  -1  -1 127.433 75.4297   1
  -7  -2   1 132.267 86.2270   2
  -7  -2   1-27.0728 74.1295   1
   7  -2  -1 66.0478 76.9635   1
   7  -2  -1 175.652 89.6027   2
   7  -3  -1 4894.90 523.371   1
   7  -3  -1 5966.63 525.705   2
  -7  -3   1 4695.81 522.975   1
  -7  -3   1 6043.38 525.406   2
  -8  -1   1 111.694 76.6937   1
   8  -1  -1 46.2018 92.7068   2
   8  -1  -1 117.104 80.1037   1
   8  -2  -1-37.9111 81.3747   1
  -8  -2   1-6.45090 91.0631   2
  -8  -2   1-10.7386 78.7372   1
   8  -2  -1-52.3684 94.3605   2
   8  -3  -1 1037.85 118.273   2
  -8  -3   1 803.141 114.914   2
   8  -3   1 446.315 76.9919   1
   8  -3  -1 941.461 107.212   1
  -8  -3   1 615.645 104.618   1
  -8  -4   1 152.047 86.9793   1
  -8  -4   1 129.621 97.9084   2
  -9  -2   1-55.6203 80.8834   1
  -9  -2   1-7.21876 93.2913   2
   0   0   2 270018. 24363.6   2
   0   0  -2 229720. 24363.4   1
   0   0   2 233198. 24363.3   1
   0   0  -2 280812. 24363.7   2
   0   1  -2 46.6906 41.7413   1
   0   1  -2 53.6758 48.1146   2
   0  -1  -2 41.7112 40.4691   1
   0  -1  -2 33.7916 46.2706   2
   0   2  -2 26416.5 2376.75   1
   0  -2   2 23971.6 2376.64   1
   0  -2   2 26909.0 2376.98   2
   0   2  -2 27508.2 2377.10   2
   0  -2  -2 23282.5 2376.47   2
   0  -2  -2 20711.0 2376.11   1
   1   0   2 18133.8 1619.00   2
  -1   0  -2 16914.1 1618.68   1
  -1   0   2 14546.5 1619.03   1
   1   0   2 15081.3 1618.54   1
  -1   0   2 17922.0 1619.64   2
  -1   0  -2 18162.2 1618.97   2
  -1  -1   2 2543.24 297.764   1
   1  -1   2 3252.22 298.018   2
  -1   1  -2 3581.29 298.329   2
  -1   1  -2 3267.35 297.288   1
  -1  -1  -2 2863.58 296.735   1
  -1  -1   2 2930.90 299.027   2
   1  -1   2 2774.19 296.957   1
   1   1   2 2700.69 296.813   1
  -1   1   2 2548.53 297.904   1
   1   1  -2 3641.47 299.700   2
  -1  -1  -2 3346.63 297.866   2
   1   1  -2 3193.56 298.253   1
   1   1   2 3084.45 297.833   2
  -1   1   2 2868.37 299.061   2
  -1  -2   2 10843.3 1073.59   1
  -1  -2  -2 10882.4 1072.91   2
  -1  -2  -2 9365.44 1072.44   1
  -1  -2   2 12263.9 1074.15   2
   1   2  -2 11501.9 1073.76   1
   1   2  -2 12793.7 1074.48   2
  -2   0  -2 29.6783 40.3049   1
  -2   0   2-8.14529 50.4320   1
   2   0  -2 10.4540 51.5364   1
   2   0  -2 11.6210 58.4461   2
   2   0   2-6.68317 41.0952   1
   2   0   2-58.7118 47.4906   2
  -2   0  -2 22.2748 45.5450   2
  -2   0   2 62.8644 57.8931   2
   2  -1  -2 14858.4 1650.17   1
  -2  -1  -2 15308.9 1649.05   1
  -2   1   2 16726.9 1650.61   2
  -2   1  -2 20100.7 1649.79   2
  -2  -1   2 18812.6 1650.84   2
   2  -1  -2 18821.1 1650.85   2
   2   1   2 14426.2 1649.03   1
   2   1  -2 20347.5 1651.15   2
  -2   1  -2 18084.5 1649.38   1
  -2  -1   2 15868.1 1650.25   1
   2  -1   2 16975.7 1649.31   1
   2   1  -2 17255.0 1650.50   1
  -2  -1  -2 17980.8 1649.47   2
  -2   1   2 14064.5 1650.02   1
   2  -1   2 18352.8 1649.61   2
   2  -2   2-2.73008 44.4685   1
  -2  -2   2 35.7422 62.9844   2
  -2  -2   2 28.0661 54.6428   1
   2   2  -2-150.222 63.4249   1
   2   2  -2-175.815 73.8549   2
   2  -2   2 71.0017 50.6343   2
   2  -2  -2 110.441 61.8784   2
  -2  -2  -2 45.6779 46.7557   2
  -2  -2  -2-40.2384 43.2410   1
   2  -2  -2 3.85065 55.5382   1
  -3   0  -2 20.5761 40.8421   1
   3   0   2 33.6906 41.7677   1
  -3   0   2 49.1068 58.6002   1
   3   0   2 84.3084 48.3519   2
  -3   0   2 49.1268 67.2844   2
  -3   0  -2-3.74473 47.1234   2
  -3  -1  -2 21295.7 2207.65   1
  -3  -1   2 20964.8 2209.21   1
  -3  -1  -2 24622.3 2207.95   2
   3  -1   2 22511.4 2207.80   1
  -3   1   2 23317.3 2209.75   2
  -3  -1   2 24188.8 2209.79   2
   3  -1   2 25628.4 2208.11   2
  -3   1   2 19154.6 2209.10   1
   3  -2   2 1175.58 110.375   2
  -3  -2  -2 943.020 108.610   2
  -3  -2   2 971.657 116.350   1
  -3  -2  -2 823.451 106.227   1
   3  -2   2 982.641 107.586   1
  -3  -2   2 1197.13 122.118   2
  -3  -3   2 22777.0 2369.04   1
  -3  -3   2 26405.9 2369.69   2
   4   0  -2 12121.6 1226.58   1
   4   0  -2 13209.0 1227.32   2
  -4  -1  -2 1338.59 142.193   1
   4   1  -2 1326.15 155.729   1
   4  -1   2 1316.92 143.070   1
   4  -1  -2 1466.97 159.365   2
  -4  -1  -2 1457.26 144.425   2
   4  -1   2 1529.16 145.329   2
   4   1  -2 1567.12 161.317   2
   4  -1  -2 1253.57 154.289   1
   4  -2   2 3334.90 314.797   1
   4   2  -2 3716.35 325.129   2
   4   2  -2 3564.79 322.030   1
   4  -2   2 3860.50 316.000   2
  -4  -2   2 3457.83 323.376   2
   4  -2  -2 3411.04 323.498   2
  -4  -2  -2 2938.13 315.212   2
  -4  -2  -2 2584.49 313.992   1
   4  -2  -2 2842.88 320.539   1
  -4  -2   2 3086.73 320.345   1
  -4  -3   2 8062.30 828.930   1
  -4  -3   2 9036.17 830.298   2
   5   0  -2 24886.9 2153.06   2
   5   0  -2 22717.0 2152.31   1
  -5   0   2 18750.2 2151.85   1
  -5   0   2 23311.3 2152.80   2
  -5  -1   2 548.863 92.2161   1
   5   1  -2 615.328 106.745   2
  -5  -1   2 641.401 102.336   2
   5  -1   2 359.551 61.6689   1
   5  -1   2 413.383 66.0242   2
  -5   1   2 617.301 94.1739   1
   5   1  -2 515.856 96.5281   1
  -5   1   2 431.458 104.425   2
   5  -1  -2 765.195 104.370   2
   5  -1  -2 515.844 93.1638   1
   5  -2   2 18473.5 1501.28   2
   5  -2  -2 15455.4 1504.06   1
  -5  -2   2 15473.0 1503.93   1
  -5  -2  -2 14739.0 1500.75   2
  -5  -2  -2 12856.7 1500.39   1
   5   2  -2 17217.9 1504.64   1
   5  -2   2 14677.4 1500.87   1
  -5  -2   2 18981.3 1505.25   2
   5  -2  -2 18213.2 1505.24   2
   5  -3  -2-67.4257 80.5850   1
  -5  -3   2-59.8246 93.6713   2
  -5  -3   2 21.0011 83.1877   1
   5  -3  -2 54.2769 91.5249   2
   6   0  -2 7108.88 731.157   1
  -6   0   2 7308.80 732.931   2
   6   0  -2 8076.53 733.440   2
   6  -1  -2 3410.69 361.201   1
   6   1  -2 3774.35 366.817   2
   6   1  -2 3500.50 362.202   1
   6  -1  -2 3892.05 365.193   2
  -6  -1   2 3461.91 364.493   2
   6  -2  -2 9265.08 594.350   1
  -6  -2  -2 6161.43 585.396   2
   6  -2  -2 9872.47 596.856   2
   6  -3  -2 532.081 105.630   1
   6  -3  -2 516.741 116.780   2
  -7   0   2 613.266 115.869   1
   7   0  -2 757.266 119.959   1
  -7   0   2 741.275 129.606   2
   7   0  -2 742.265 132.751   2
   7   1  -2 1239.11 153.101   2
   7  -1  -2 1224.92 150.498   2
   7  -1  -2 1028.46 140.416   1
  -7  -1   2 939.973 148.175   2
   7   1  -2 995.070 141.464   1
  -7  -1   2 828.961 137.824   1
   7  -2  -2 103.436 111.804   2
  -7  -2   2 42.9478 93.0821   1
   7  -2  -2 48.4892 96.4305   1
  -7  -2   2-87.5423 108.448   2
   7  -3  -2 6034.66 635.405   1
   7  -3  -2 6990.88 638.365   2
  -7  -4   2 533.955 124.495   2
  -7  -4   2 585.808 114.404   1
   8   0  -2 87.2796 121.613   2
   8   0  -2-67.3591 102.703   1
  -8   0   2-79.8305 98.7647   1
   8  -1  -2 3855.03 385.410   1
  -8  -1   2 3425.08 384.074   1
   8  -1  -2 4271.36 390.215   2
   8  -2  -2 1008.21 137.967   2
  -8  -2   2 615.414 134.275   2
   8  -2  -2 850.607 124.414   1
   8  -3  -2 3317.27 327.223   2
   8  -3  -2 2935.84 320.722   1
   0   0   3 14.6807 64.6101   1
   0   0  -3-60.0616 65.9832   1
   0   0   3-70.4987 74.2075   2
   0   0  -3 1.46588 76.4449   2
   0  -1   3-31.3785 74.9918   2
   0  -1  -3-8.94627 75.6765   2
   0  -1  -3 104.295 66.5574   1
   0   1  -3 55.1432 67.9879   1
   0  -1   3 13.4424 65.3856   1
   0   1   3-29.8794 77.5238   2
   0   1   3 4.47928 67.5296   1
   0   1  -3-49.2124 79.4074   2
   0  -2   3 425.161 89.4842   2
   0   2  -3 398.991 85.4987   1
   0  -2  -3 489.471 81.6941   1
   0   2  -3 555.817 95.2717   2
   0   2   3 406.204 92.4453   2
   0  -2  -3 391.224 89.2614   2
   0   2   3 416.886 82.9183   1
   0  -2   3 322.975 81.5853   1
   0  -3   3-37.1150 70.9935   1
   0  -3   3 18.5709 79.9198   2
   1   0   3-8.09768 64.4182   1
   1   0  -3-36.3344 79.8546   2
   1   0   3 37.8165 73.4770   2
  -1   0   3 23.7508 79.5362   2
  -1   0  -3-16.1678 63.8208   1
  -1   0  -3-39.0902 72.4351   2
   1   0  -3-25.2608 69.6021   1
  -1   0   3-14.2419 69.1482   1
  -1   1   3 2023.92 221.083   1
  -1  -1   3 2287.63 224.480   2
  -1  -1   3 1928.19 220.990   1
  -1   1  -3 2194.63 223.515   2
   1   1  -3 2268.51 222.141   1
  -1   1  -3 2189.33 220.059   1
  -1  -1  -3 2055.49 218.970   1
   1  -1   3 2026.45 219.562   1
   1  -1  -3 2543.76 224.701   2
   1  -1   3 2125.60 222.765   2
   1   1   3 1836.54 219.323   1
   1  -1  -3 2048.12 221.325   1
  -1   1   3 2285.85 225.529   2
   1   1   3 1938.59 222.457   2
   1   1  -3 2429.75 226.416   2
  -1  -1  -3 2288.99 221.915   2
   1  -2   3 891.953 123.791   2
   1  -2  -3 919.913 120.247   1
   1   2   3 720.964 118.204   1
  -1   2  -3 853.303 119.358   1
  -1   2   3 979.223 121.624   1
  -1   2   3 1269.07 130.560   2
   1  -2  -3 1178.83 126.756   2
   1   2  -3 1121.82 123.128   1
  -1   2  -3 1176.72 126.653   2
   1  -2   3 804.092 117.764   1
  -1  -2   3 995.467 121.138   1
  -1  -2  -3 895.578 122.182   2
  -1  -2   3 900.557 126.209   2
  -1  -2  -3 780.277 116.320   1
   1   2  -3 1299.92 131.504   2
   1  -3   3 322.525 75.6867   1
  -1  -3   3 289.943 80.6894   1
   1  -3  -3 274.181 85.4600   2
   1   3  -3 342.781 88.0851   1
   1  -3  -3 302.656 75.4283   1
  -1  -3   3 191.655 90.1050   2
   1  -3   3 273.617 83.9012   2
   2   0   3 2.45304 65.2643   1
  -2   0  -3 15.9317 72.6584   2
  -2   0   3-66.0363 86.2797   2
   2   0  -3-129.982 76.2805   1
   2   0   3 69.9665 75.3055   2
  -2   0  -3-26.9403 63.9445   1
   2   0  -3 25.3353 87.3313   2
  -2   0   3-32.1534 76.1243   1
   2   1  -3 1414.22 145.966   2
   2   1   3 1025.00 130.497   1
  -2   1   3 994.412 136.688   1
   2   1   3 1177.63 136.244   2
  -2  -1  -3 1062.07 129.696   1
  -2  -1  -3 1183.22 134.193   2
   2  -1   3 1170.20 135.165   2
   2  -1   3 987.138 130.172   1
   2  -1  -3 1046.74 136.971   1
  -2   1   3 1287.11 144.784   2
  -2  -1   3 1165.77 142.504   2
  -2   1  -3 1262.31 136.502   2
  -2   1  -3 1072.16 130.903   1
  -2  -1   3 1084.53 136.401   1
   2   1  -3 1375.76 138.918   1
   2  -1  -3 1210.17 142.723   2
  -2  -2  -3 483.205 80.8064   1
  -2   2  -3 317.315 82.5436   1
  -2  -2   3 443.460 100.562   2
   2   2  -3 386.996 94.1925   1
   2   2  -3 685.567 106.862   2
  -2  -2  -3 401.339 88.4019   2
   2  -2  -3 537.098 100.185   2
   2  -2   3 410.413 82.4780   1
  -2   2   3 404.310 105.539   2
  -2  -2   3 343.485 90.5158   1
  -2   2   3 520.268 92.7688   1
   2  -2   3 397.153 90.5434   2
   2  -2  -3 604.531 89.9309   1
   2   3  -3 5089.04 480.145   1
   2  -3  -3 4125.77 477.162   1
   2  -3   3 4626.62 475.660   1
   2   3  -3 5465.26 483.142   2
   2  -3   3 4838.79 477.153   2
  -2  -3   3 5301.42 480.854   2
  -2  -3   3 4430.27 478.162   1
   2  -3  -3 5319.69 479.829   2
   3   0  -3 48.3890 96.1055   2
   3   0   3 36.1813 65.3601   1
  -3   0  -3-17.5333 74.0873   2
  -3   0  -3-29.5622 64.6483   1
   3   0   3-88.8735 75.7187   2
   3   0  -3-12.5388 83.9184   1
  -3   1   3 1333.12 174.675   1
   3   1   3 1468.72 165.252   1
   3   1  -3 1614.42 175.217   1
   3  -1  -3 1276.90 173.031   1
  -3   1  -3 1530.92 165.699   1
  -3   1  -3 1669.35 170.047   2
   3  -1   3 1338.63 165.015   1
  -3  -1  -3 1660.08 168.817   2
   3  -1  -3 1651.88 180.557   2
  -3  -1  -3 1261.77 163.965   1
  -3   1   3 1772.91 181.698   2
   3   1   3 1871.20 170.358   2
   3  -1   3 1577.84 169.543   2
   3   1  -3 2046.38 182.887   2
  -3  -2   3 439.625 105.872   2
   3   2  -3 466.441 112.518   2
   3   2  -3 211.573 96.8528   1
  -3  -2  -3 391.942 84.9471   2
   3  -2  -3 431.753 104.036   2
  -3   2   3 421.586 110.449   2
  -3  -2  -3 295.315 74.9425   1
   3  -2  -3 295.854 92.0076   1
  -3   2   3 275.930 96.4510   1
  -3  -2   3 384.867 92.2891   1
   3  -3  -3 1586.71 189.374   1
  -3  -3  -3 1326.05 179.852   1
   3   3  -3 1953.67 195.358   1
   3   3  -3 2057.68 202.872   2
   3  -3   3 1522.76 182.280   1
  -3  -3   3 1901.30 197.952   2
  -3  -3   3 1923.44 191.342   1
  -3  -3  -3 1499.84 183.157   2
   3  -3  -3 1852.90 195.728   2
   3  -3   3 2143.96 186.832   2
   4   0  -3 58.4679 106.223   2
  -4   0   3-85.0920 91.9280   1
  -4   0   3 45.4043 105.573   2
   4   0   3 0.95421 74.4486   2
   4   0  -3-16.9665 92.8165   1
   4   0   3-23.8376 64.1491   1
   4  -1  -3 324.815 95.0755   1
   4  -1   3 231.114 69.9486   1
  -4  -1   3 242.462 108.816   2
   4   1  -3 359.515 99.1244   1
   4  -1   3 193.522 78.6954   2
   4  -1  -3 246.528 109.158   2
  -4   1   3 187.863 110.043   2
  -4  -1   3 230.848 94.0617   1
  -4   1   3 258.680 96.6808   1
   4   1  -3 192.232 113.607   2
  -4  -2   3 139.611 92.0208   1
   4  -2   3-27.2248 79.0043   2
   4   2  -3-39.2090 99.0980   1
   4   2  -3 217.766 115.633   2
   4  -2  -3 65.2671 107.632   2
  -4   2   3-113.027 96.1240   1
  -4  -2   3 222.381 107.337   2
   4  -2  -3-21.7466 92.1932   1
   4  -2   3 111.047 68.2035   1
  -4   2   3 126.961 112.299   2
  -4  -3   3-43.3980 109.750   2
   4  -3   3-54.2138 70.1742   1
   4  -3  -3-43.7250 94.4070   1
   4  -3   3 2.46427 79.5999   2
   4   3  -3-142.017 105.222   1
  -4  -3   3 200.280 95.9245   1
   4  -3  -3-37.4957 108.357   2
   5   0  -3-37.3981 116.776   2
  -5   0   3-5.92347 115.183   2
   5   0  -3-49.1864 102.759   1
  -5   0   3 86.8387 99.5333   1
   5  -1  -3 27.9060 118.406   2
  -5  -1  -3 208.933 65.6187   1
   5  -1   3 329.812 76.9576   2
   5   1  -3 45.5905 108.255   1
  -5  -1   3 250.718 117.078   2
   5   1  -3 226.130 123.038   2
   5  -1  -3 169.368 102.682   1
  -5   1   3 399.912 120.146   2
   5  -1   3 129.873 66.6605   1
  -5   1   3 177.895 104.366   1
  -5  -1   3 55.6834 100.882   1
  -5  -1  -3 324.138 75.5337   2
  -5   2   3 167.158 115.375   1
   5   2  -3 427.756 116.134   1
  -5  -2   3 59.2580 102.032   1
   5  -2   3 27.2588 79.0342   2
  -5  -2   3 159.522 117.467   2
   5  -2  -3-102.858 103.186   1
   5  -2  -3 90.5449 118.252   2
   5  -2   3 35.7260 69.3041   1
   5   2  -3 609.484 135.246   2
  -5  -3   3 211.733 120.673   2
   5  -3   3 53.6140 73.2991   1
   5  -3  -3 131.735 117.908   2
  -5  -3   3 55.5483 102.465   1
  -5  -3  -3 57.5956 70.6533   1
   5  -3  -3 25.9119 102.653   1
   5  -3   3 7.65673 83.3877   2
  -5  -3  -3-86.0697 80.9033   2
  -5  -4   3 739.378 141.797   2
  -5  -4   3 858.716 130.935   1
   6   0  -3 158.656 126.838   2
   6   0  -3-38.6312 109.399   1
  -6   0   3-79.5893 124.212   2
  -6   0   3-95.8752 107.269   1
  -6  -1   3 893.257 125.430   1
   6   1  -3 499.295 127.354   1
  -6  -1   3 513.546 138.632   2
  -6   1   3 799.452 143.344   2
   6  -1  -3 487.824 124.205   1
  -6   1   3 549.320 126.911   1
   6  -1  -3 609.455 139.647   2
   6   1  -3 532.330 144.584   2
   6  -2   3-73.6442 75.7746   2
   6  -2  -3 222.716 125.913   2
  -6  -2   3 8.42304 124.782   2
   6  -2   3 116.248 64.7795   1
  -6  -2  -3 45.5171 62.8662   1
  -6  -2   3 23.1462 107.966   1
   6  -2  -3-2.12103 108.902   1
   6   2  -3-35.6719 134.140   2
   6   2  -3-58.7107 114.601   1
  -6  -2  -3 39.2551 72.7381   2
  -6  -3   3 76.7713 128.619   2
   6  -3   3-24.2197 82.6004   2
   6  -3  -3-11.0970 126.163   2
   6  -3   3-46.5971 72.1481   1
   6  -3  -3-46.5951 108.977   1
  -6  -3   3-87.6567 109.895   1
  -6  -4   3 1234.71 170.908   2
  -6  -4   3 1022.80 156.718   1
  -7   0   3 41.7049 114.862   1
   7   0  -3 130.923 118.173   1
  -7   0   3-175.193 133.075   2
   7   0  -3 155.921 136.776   2
   7  -1  -3 88.3417 135.387   2
   7   1  -3 12.5361 120.235   1
  -7  -1   3-58.6891 112.972   1
  -7  -1   3 195.080 132.839   2
   7  -1  -3 73.5985 117.208   1
   7   1  -3 41.8008 138.588   2
  -7   1   3 50.6536 136.116   2
  -7   1   3 154.062 116.049   1
   7   2  -3 115.322 122.865   1
   7  -2  -3 34.6170 134.745   2
  -7  -2   3 120.142 132.247   2
  -7  -2   3 120.027 113.940   1
   7  -2  -3-10.8181 116.925   1
  -7  -3  -3 1274.37 181.503   1
  -7  -3  -3 1646.81 185.083   2
   7  -3   3 1594.45 183.705   1
   7  -3   3 1804.50 187.368   2
   7  -3  -3 2844.76 222.981   2
  -7  -3   3 2287.76 221.359   2
   7  -3  -3 2792.35 212.316   1
  -7  -3   3 2167.61 211.021   1
  -7  -4   3 222.575 136.095   2
  -7  -4   3 56.1761 116.002   1
   8   0  -3-23.0698 143.666   2
   8   0  -3 150.947 125.953   1
  -8   0   3 103.145 140.726   2
  -8   0   3-105.186 121.084   1
   8  -1  -3 6.36460 142.538   2
   8   1  -3 63.1736 126.167   1
   8  -1  -3-33.9369 122.276   1
  -8  -1   3 310.863 139.216   2
  -8  -1   3 166.930 121.001   1
   8   1  -3 105.347 146.767   2
   8  -2  -3-34.8687 141.721   2
  -8  -2   3-114.297 120.704   1
  -8  -2   3-30.2148 139.925   2
   8  -2  -3 50.1169 124.157   1
   0   0  -4 50241.7 4712.58   1
   0   0   4 42872.7 4712.03   1
   0   0  -4 53922.3 4713.11   2
   0   0   4 48655.9 4712.76   2
   0   1  -4 36.5561 111.948   2
   0  -1  -4-12.1723 91.9998   1
   0  -1  -4 101.517 107.015   2
   0  -1   4 14.2554 108.313   2
   0   1   4 58.9984 95.6720   1
   0   1  -4 115.681 97.0500   1
   0  -1   4 85.4729 93.3235   1
   0   1   4 99.7673 109.848   2
   0   2   4 6484.57 693.928   1
   0   2   4 7520.89 697.195   2
   0  -2   4 6187.02 693.788   1
   0   2  -4 7140.23 695.055   1
   0   2  -4 8138.80 698.231   2
   0  -2   4 7320.51 696.686   2
   0  -2  -4 7706.95 696.341   2
   0  -2  -4 6598.24 693.634   1
   0  -3   4-19.8031 110.996   2
   0  -3  -4 155.514 95.0388   1
   0  -3  -4 94.2589 108.194   2
   0  -3   4-37.3805 97.1359   1
   0   3  -4-2.19246 107.629   1
   0   3  -4 68.0000 120.908   2
   1   0  -4 4753.18 459.147   1
  -1   0  -4 5014.39 459.821   2
   1   0  -4 4969.23 462.478   2
  -1   0  -4 4488.16 456.726   1
   1   0   4 4709.02 460.231   2
  -1   0   4 4874.49 462.046   2
  -1   0   4 3968.99 458.298   1
   1   0   4 4184.46 456.931   1
   1   1  -4 1036.74 148.002   2
   1  -1  -4 1008.72 131.434   1
   1   1   4 713.288 129.493   1
  -1  -1  -4 1109.73 136.976   2
   1  -1  -4 888.201 142.799   2
   1  -1   4 1079.76 138.925   2
  -1  -1   4 901.158 144.125   2
  -1   1  -4 858.468 128.524   1
   1   1  -4 1012.29 135.674   1
   1  -1   4 742.764 127.402   1
  -1   1   4 763.116 144.383   2
   1   1   4 1004.42 139.982   2
  -1  -1   4 761.990 132.325   1
  -1  -1  -4 874.143 126.533   1
  -1   1   4 662.900 132.237   1
  -1   1  -4 881.821 140.008   2
  -1   2   4 3058.46 352.553   1
   1   2   4 2891.02 349.856   1
   1  -2  -4 3996.53 357.157   2
   1   2  -4 3912.59 359.347   2
  -1  -2  -4 3728.26 353.501   2
  -1   2  -4 3330.68 351.044   1
  -1   2  -4 4020.63 356.447   2
   1   2  -4 3489.36 354.135   1
   1  -2   4 3649.30 354.588   2
  -1  -2   4 3459.96 356.617   2
   1  -2   4 2956.50 349.696   1
  -1  -2   4 2838.94 351.728   1
  -1   2   4 3763.20 359.158   2
   1   2   4 3808.79 355.350   2
  -1  -2  -4 3473.32 349.691   1
   1  -2  -4 3489.15 352.074   1
   1  -3   4 635.387 130.937   2
   1  -3  -4 723.950 122.587   1
  -1  -3  -4 683.969 117.030   1
   1   3  -4 586.144 132.014   1
  -1  -3   4 483.713 134.968   2
   1  -3  -4 910.405 135.190   2
  -1  -3  -4 746.454 126.782   2
   1  -3   4 806.697 121.518   1
  -1  -3   4 718.047 125.520   1
   1   3  -4 846.051 147.641   2
  -2   0  -4 20.7845 108.301   2
   2   0  -4-20.3829 118.148   2
  -2   0   4 77.1877 103.105   1
   2   0   4 22.5507 97.0696   1
  -2   0   4 45.4351 117.004   2
   2   0   4 41.6598 110.126   2
  -2   0  -4 27.6904 95.5522   1
   2   0  -4-65.6353 103.425   1
  -2   1   4 4101.04 508.261   1
   2   1   4 4696.81 505.888   1
  -2  -1  -4 6157.74 508.957   2
  -2  -1   4 4489.89 508.172   1
  -2   1  -4 5617.33 509.505   2
  -2   1  -4 5136.16 506.427   1
   2   1  -4 5940.23 514.351   2
   2   1  -4 5039.63 509.490   1
   2  -1  -4 5729.46 512.456   2
   2  -1   4 5455.51 508.669   2
  -2  -1   4 5232.63 512.268   2
  -2  -1  -4 4633.14 505.274   1
  -2   1   4 5446.77 512.946   2
   2   1   4 5506.07 509.456   2
   2  -1  -4 4818.57 508.516   1
   2  -1   4 4556.34 505.435   1
  -2  -2   4 105.593 104.093   1
  -2   2   4 77.6556 107.347   1
  -2   2  -4 3.64271 97.3816   1
   2  -2   4 94.9829 105.441   2
  -2  -2   4-35.2153 118.858   2
  -2  -2  -4 188.528 106.025   2
   2   2  -4 264.272 109.241   1
   2  -2  -4 124.391 118.939   2
  -2  -2  -4 18.1072 91.4983   1
   2  -2  -4 84.4524 103.341   1
   2  -2   4 38.3396 91.9802   1
  -2   2   4 101.261 126.609   2
   2   2   4 216.031 96.1263   1
  -2   2  -4-136.659 111.654   2
   2   2  -4-2.34040 126.916   2
   2   3  -4 4520.77 428.315   1
   2   3  -4 5098.15 434.245   2
   2  -3   4 4284.14 424.739   2
  -2  -3   4 4621.86 430.083   2
   2  -3   4 3562.76 420.989   1
  -2  -3  -4 4239.71 423.578   2
   2  -3  -4 4535.22 428.866   2
   2  -3  -4 4232.04 424.348   1
  -2  -3  -4 3609.84 420.078   1
   3   0  -4 61.9169 126.632   2
  -3   0   4 21.4931 108.284   1
  -3   0  -4 158.162 92.8357   1
  -3   0   4-23.8905 125.974   2
   3   0   4-120.538 108.417   2
   3   0   4-45.9555 93.8061   1
   3   0  -4-40.4589 111.015   1
  -3   0  -4-12.6614 106.282   2
  -3   1   4 5709.86 638.668   1
   3   1   4 5460.20 634.155   1
  -3   1  -4 6539.00 634.882   1
  -3   1  -4 7589.20 637.453   2
   3   1  -4 7601.70 644.085   2
   3   1  -4 6836.98 639.818   1
  -3  -1  -4 7132.64 636.927   2
   3  -1   4 6804.42 636.619   2
  -3  -1   4 7380.14 642.481   2
  -3  -1  -4 5845.38 633.982   1
  -3   1   4 7126.71 643.041   2
   3  -1  -4 6312.33 638.961   1
   3   1   4 6318.59 636.662   2
   3  -1   4 5760.36 634.042   1
  -3  -1   4 5982.86 638.461   1
   3  -2   4 317.632 111.392   2
  -3  -2  -4 343.863 96.5563   1
  -3  -2   4 533.830 116.926   1
  -3  -2  -4 372.507 108.530   2
  -3  -2   4 531.662 131.098   2
  -3   2   4 261.948 121.588   1
   3   2  -4 247.605 123.227   1
   3  -2  -4 344.905 132.392   2
   3  -2  -4 290.594 116.366   1
  -3   2   4 499.385 140.678   2
   3   2  -4 144.711 140.652   2
   3  -2   4 433.422 97.6007   1
   3  -3   4 6039.17 648.537   1
  -3  -3  -4 5801.97 647.463   1
   3  -3   4 7050.58 650.973   2
  -3  -3   4 7739.12 657.416   2
  -3  -3  -4 7263.59 650.326   2
  -3  -3   4 6440.48 652.855   1
  -3  -4   4 308.812 134.309   2
  -3  -4   4 456.038 120.447   1
   4   0   4 3059.95 353.020   1
  -4   0  -4 3938.13 356.942   2
  -4   0  -4 3425.21 353.105   1
   4   0  -4 3284.15 363.484   1
  -4   0   4 3989.09 369.992   2
   4   0   4 3691.27 357.072   2
  -4   0   4 3407.90 362.984   1
  -4  -1  -4 720.204 114.184   2
  -4   1  -4 410.079 102.430   1
   4  -1  -4 311.246 146.665   2
  -4   1   4 604.331 130.028   1
   4  -1   4 470.609 115.317   2
  -4  -1   4 630.512 143.214   2
   4   1  -4 637.849 132.448   1
  -4  -1  -4 473.339 101.215   1
  -4   1   4 612.084 147.606   2
   4  -1   4 380.363 102.567   1
  -4  -1   4 456.880 126.912   1
   4  -1  -4 697.340 129.995   1
  -4   1  -4 610.449 116.177   2
   4   1  -4 625.592 151.157   2
   4  -2   4 889.895 137.210   1
  -4  -2  -4 1062.11 144.388   2
   4  -2   4 1058.04 147.359   2
   4  -2  -4 1045.42 159.595   1
   4   2  -4 1172.15 163.784   1
   4  -2  -4 1025.45 171.721   2
  -4  -2   4 1064.41 170.572   2
  -4  -2   4 945.708 157.285   1
  -4   2   4 1256.14 179.604   2
  -4   2   4 1095.58 161.919   1
  -4  -2  -4 1006.95 135.105   1
   4   2  -4 1085.86 179.497   2
   4  -3   4 2392.20 234.919   2
  -4  -3  -4 2438.43 232.709   2
   4  -3   4 1933.25 228.577   1
  -4  -3  -4 1859.29 225.814   1
  -4  -4   4 1301.37 183.698   2
  -4  -4   4 1144.79 171.914   1
  -5   0   4 6309.20 646.248   1
  -5   0  -4 5666.60 637.332   1
  -5   0  -4 7177.41 639.886   2
   5   0  -4 6611.60 646.788   1
  -5   0   4 7564.40 651.412   2
  -5  -1   4 20.8141 124.964   1
   5  -1  -4 106.694 144.355   2
  -5  -1  -4 225.677 86.3456   1
   5   1  -4 310.978 130.506   1
  -5  -1   4 312.416 145.984   2
  -5   1   4 125.392 147.742   2
  -5   1   4 20.8875 128.664   1
   5  -1  -4 150.894 125.810   1
  -5  -1  -4 213.324 100.781   2
   5   1  -4 44.0838 150.278   2
  -5   2   4 4739.99 521.642   1
  -5  -2  -4 5351.69 512.550   2
  -5  -2   4 6243.59 526.180   2
  -5  -2  -4 4413.98 509.668   1
  -5   2   4 6276.79 529.228   2
  -5  -2   4 5298.90 520.501   1
   5   3  -4-62.7147 140.500   1
  -5  -3   4-101.290 126.584   1
  -5  -3  -4 151.398 87.9723   1
  -5  -3  -4-75.8202 101.750   2
  -5  -3   4-16.4402 145.880   2
   5  -3  -4-35.8239 144.446   2
   5  -3  -4 308.557 126.806   1
   5   3  -4-30.0128 157.644   2
  -5  -4   4 2703.52 286.003   2
  -5  -4   4 2321.20 275.780   1
  -6   0   4 2967.59 299.355   2
  -6   0   4 2324.30 287.101   1
  -6  -1  -4 950.042 129.654   1
  -6  -1   4 1195.39 166.421   1
  -6  -1   4 1469.35 185.357   2
   6  -1   4 829.220 138.944   2
  -6   1   4 1472.61 189.535   2
   6  -1   4 805.109 130.542   1
  -6  -1  -4 1119.71 138.705   2
  -6   1   4 1262.38 170.363   1
  -6   2   4 2563.39 291.961   1
   6   2  -4 3263.64 294.598   1
   6   2  -4 3455.13 306.361   2
  -6  -2  -4 2899.26 272.639   2
  -6  -2  -4 2385.25 267.736   1
   6  -2   4 2351.98 273.086   2
  -6  -2   4 4052.93 300.964   2
   6  -2   4 1999.09 268.588   1
  -6  -2   4 2446.74 289.182   1
  -6  -3  -4 223.293 99.1833   2
   6   3  -4 240.043 146.952   1
   6  -3   4 241.978 104.800   2
  -6  -3   4-101.008 152.939   2
  -6  -3   4 451.313 135.480   1
  -6  -3  -4 59.0784 85.8913   1
   6  -3   4 175.445 91.3166   1
   6  -4   4 356.148 113.045   2
  -6  -4   4 815.306 160.781   2
  -6  -4  -4 709.378 108.736   2
  -6  -4  -4 419.055 98.5487   1
   6  -4   4 317.384 102.430   1
  -6  -4   4 510.757 142.882   1
  -7   0   4 282.250 142.466   1
   7   0  -4 275.627 146.196   1
  -7   0   4 358.432 163.347   2
   7   0  -4 108.146 167.162   2
   7  -1  -4 128.177 163.381   2
  -7   1   4 265.516 143.531   1
   7   1  -4 273.937 147.868   1
  -7  -1   4 384.332 163.081   2
   7  -1  -4 471.593 143.505   1
  -7  -1   4 220.644 140.850   1
  -7   1   4 183.434 165.444   2
   7   1  -4 488.517 170.339   2
   7  -2  -4-69.5809 159.027   2
  -7  -2  -4-1.75052 74.6974   1
   7   2  -4 19.2913 147.361   1
   7  -2   4-36.8616 91.0120   2
  -7  -2   4-22.1598 157.692   2
   7  -2  -4 242.046 140.720   1
  -7  -2  -4-21.0612 85.3732   2
   7   2  -4 110.322 168.864   2
   7  -2   4-112.478 78.5973   1
  -7  -2   4-33.2136 136.316   1
   0   0  -5 18.2527 140.556   2
   0   0   5-75.8233 121.102   1
   0   0   5-68.0181 140.049   2
   0   0  -5 109.426 121.640   1
   0  -1  -5 15.7547 138.180   2
   0   1   5-63.1908 123.713   1
   0   1  -5-76.1136 125.082   1
   0  -1   5-23.7177 138.494   2
   0   1   5-7.90320 142.677   2
   0  -1  -5-83.9576 120.187   1
   0  -1   5-84.2846 121.002   1
   0   1  -5 228.519 144.706   2
   0  -2  -5 26.7898 121.954   1
   0  -2  -5 144.755 139.672   2
   0   2  -5-37.5352 129.491   1
   0  -2   5-212.653 144.949   2
   0  -2   5 115.697 125.312   1
   0   2   5 177.393 126.575   1
   0   2   5 102.236 149.462   2
   0   2  -5 85.8319 152.773   2
   0   3  -5-421.534 141.780   1
   0  -3   5-130.915 153.131   2
   0  -3  -5 171.920 142.731   2
   0  -3  -5 113.566 124.562   1
   0   3  -5-241.448 162.007   2
   0  -3   5-8.34951 132.713   1
   0  -4   5 8.74391 142.149   2
   0  -4   5 177.702 125.730   1
  -1   0  -5-97.7772 135.291   2
   1   0  -5-96.7108 144.507   2
  -1   0  -5 31.7589 116.149   1
  -1   0   5 219.096 147.281   2
   1   0   5 88.2930 136.823   2
  -1   0   5-105.303 123.697   1
   1   0   5-186.260 119.739   1
   1   0  -5 146.331 125.698   1
   1   1  -5 436.633 156.345   2
  -1  -1  -5 696.639 143.575   2
  -1   1   5 468.786 136.058   1
   1  -1  -5 461.910 151.171   2
  -1   1  -5 512.262 129.029   1
   1   1   5 683.585 130.750   1
   1  -1   5 484.581 145.036   2
  -1  -1   5 438.247 150.841   2
   1   1  -5 466.988 135.852   1
  -1   1   5 377.021 152.396   2
   1   1   5 251.891 144.847   2
  -1  -1  -5 622.369 125.847   1
   1  -1  -5 461.525 133.187   1
   1  -1   5 311.383 127.510   1
  -1  -1   5 270.623 132.511   1
  -1   1  -5 152.813 146.832   2
  -1  -2  -5 555.515 120.250   1
  -1   2   5 210.676 132.303   1
   1  -2  -5 289.324 126.718   1
  -1   2  -5 309.919 126.510   1
  -1  -2  -5 296.843 133.165   2
   1  -2  -5 87.9868 144.553   2
   1   2  -5 289.144 135.862   1
   1  -2   5 156.842 136.736   2
  -1  -2   5 130.944 146.055   2
   1  -2   5 111.250 120.831   1
  -1  -2   5 31.2973 126.971   1
  -1   2   5 430.285 156.500   2
   1   2   5 118.645 145.242   2
   1   2   5 156.385 126.006   1
  -1   2  -5 247.113 145.705   2
   1   2  -5-2.83622 157.339   2
  -1  -3   5-167.416 127.553   1
  -1   3  -5 130.653 129.670   1
   1  -3   5 215.105 138.639   2
   1   3  -5 52.6751 139.771   1
  -1  -3   5-129.343 146.032   2
  -1  -3  -5 65.1639 134.517   2
   1  -3  -5-114.324 145.477   2
  -1  -3  -5-15.6209 116.696   1
   1  -3  -5-190.404 128.333   1
  -1   3  -5 235.327 147.100   2
   1   3  -5 29.2804 160.527   2
   1  -3   5 2.62220 119.735   1
  -1   3   5-67.6228 135.729   1
   1  -4   5 423.978 142.155   2
  -1  -4   5 159.578 148.366   2
   1  -4   5 90.7902 122.467   1
  -1  -4   5 223.826 129.466   1
  -2   0  -5 109.186 134.453   2
   2   0  -5 87.3461 150.026   2
  -2   0  -5 95.4779 116.003   1
  -2   0   5-78.9069 154.316   2
   2   0   5 187.084 135.898   2
  -2   0   5-105.157 130.256   1
   2   0  -5-46.5487 130.484   1
   2   0   5 127.683 115.145   1
  -2  -1  -5 240.538 135.981   2
   2  -1  -5 208.106 152.712   2
  -2   1   5 170.553 135.059   1
  -2   1  -5 362.507 122.295   1
   2  -1   5 287.809 135.099   2
  -2  -1   5 393.860 150.462   2
  -2   1   5 444.383 157.437   2
   2   1   5 314.597 121.814   1
   2   1   5 229.771 139.155   2
  -2  -1  -5 251.806 119.216   1
   2  -1  -5 193.353 131.909   1
   2  -1   5 128.868 116.865   1
  -2  -1   5 85.1949 133.014   1
  -2   1  -5 298.424 139.527   2
  -2   2   5 71.9499 136.583   1
   2  -2  -5-191.094 131.777   1
  -2  -2  -5 241.390 133.212   2
  -2   2  -5-37.6306 123.293   1
   2  -2  -5 176.313 147.962   2
   2  -2   5 92.0679 135.077   2
  -2  -2   5 323.343 151.240   2
   2  -2   5 155.694 118.249   1
  -2  -2   5 457.820 131.104   1
  -2   2   5 171.026 158.560   2
   2   2   5 284.218 122.413   1
   2   2   5 239.802 140.516   2
  -2   2  -5 371.814 143.710   2
  -2  -2  -5-37.4701 116.906   1
  -2  -3   5 743.120 163.341   1
   2  -3   5 724.113 167.083   2
  -2  -3   5 999.652 178.737   2
  -2  -3  -5 1316.13 166.110   2
   2  -3  -5 1269.87 179.696   2
  -2  -3  -5 1110.35 151.359   1
   2  -3  -5 1056.23 162.513   1
  -2   3   5 1014.41 173.992   1
   2  -3   5 586.381 151.705   1
   2  -4   5 30.9994 138.427   2
  -2  -4  -5 255.556 130.151   2
   2  -4   5 524.158 123.679   1
  -2  -4  -5 280.778 114.670   1
   3   0  -5-3.04924 158.476   2
  -3   0   5 3.06181 158.826   2
   3   0   5 14.7169 130.748   2
   3   0  -5-167.631 139.768   1
  -3   0   5 107.112 137.011   1
   3   0   5 84.0374 112.075   1
   3   1  -5 481.281 167.987   2
  -3  -1   5 430.599 141.958   1
   3  -1   5 106.147 117.618   1
   3  -1  -5 242.573 161.043   2
  -3   1   5 289.599 146.270   1
   3   1  -5 290.996 147.275   1
   3  -1   5 416.417 134.223   2
  -3  -1   5 443.249 159.540   2
  -3   1   5 416.231 166.237   2
   3   1   5 311.282 137.510   2
   3  -1  -5 328.301 140.826   1
   3   1   5 315.316 120.736   1
   3  -2  -5 84.4016 135.626   1
   3  -2  -5 15.6376 155.108   2
  -3   2   5 37.6658 143.980   1
   3   2  -5 239.905 144.405   1
   3  -2   5 155.030 129.511   2
  -3  -2   5-125.243 155.732   2
   3  -2   5-80.7352 114.499   1
  -3  -2   5-3.12846 134.861   1
  -3   2   5-100.522 166.743   2
   3   2  -5 346.023 167.768   2
   3  -3   5 189.031 137.138   2
   3  -3   5 434.801 119.394   1
   3  -4   5 45.7135 132.812   2
  -3  -4   5 40.1682 155.917   2
  -3  -4  -5-75.8905 125.783   2
  -3  -4  -5 16.5748 108.944   1
   3  -4  -5 73.7230 129.838   1
   3  -4   5 45.6847 116.040   1
  -3  -4   5-46.8275 136.256   1
   4   0   5 206.424 112.190   1
  -4   0  -5 169.694 112.458   1
   4   0   5-91.8282 128.825   2
  -4   0  -5-135.470 129.406   2
  -4  -1  -5 171.070 127.121   2
  -4   1  -5 169.834 113.436   1
   4  -1   5-21.2814 111.352   1
   4   1   5 130.906 112.828   1
   4  -1   5 114.231 128.491   2
  -4  -1  -5 48.0099 109.886   1
  -4   1  -5 218.198 131.180   2
  -4  -2  -5 110.471 126.513   2
   4  -2   5 87.8063 130.652   2
  -4  -2   5-214.796 161.516   2
  -4   2   5-147.011 149.965   1
   4  -2   5 15.9547 110.805   1
  -4   2   5-274.544 175.730   2
  -4  -2   5 42.2723 140.636   1
  -4  -2  -5 226.612 109.136   1
  -4  -3  -5 32.8870 110.300   1
   4  -3   5-73.1182 114.042   1
  -4  -3  -5 111.139 126.391   2
   4  -3   5-50.1661 132.046   2
  -4  -3   5-160.283 142.465   1
  -4  -3   5-153.715 163.376   2
   4  -4   5 199.560 132.489   2
  -4  -4   5 433.327 168.348   2
  -4  -4  -5 148.003 126.409   2
  -4  -4  -5 289.038 111.506   1
   4  -4   5 137.432 116.670   1
  -4  -4   5 148.906 144.791   1
   5   0  -5-85.3555 175.914   2
   5   0  -5 91.8560 152.818   1
  -5   0   5 72.5485 173.020   2
   5   0   5 85.4475 127.256   2
   5   0   5-68.2935 110.466   1
  -5   0   5 13.1849 149.490   1
   5  -1  -5 188.383 172.945   2
   5   1  -5 418.282 156.479   1
  -5  -1   5 9.92779 150.016   1
  -5  -1   5-19.8653 171.767   2
   5  -1   5 31.1951 128.979   2
   5  -1   5 114.328 111.087   1
   5  -1  -5-102.414 153.012   1
   5   1  -5-313.160 180.557   2
   5  -2  -5 117.714 170.773   2
   5   2  -5 130.337 158.275   1
   5  -2   5 234.970 127.854   2
  -5  -2   5-157.955 172.026   2
   5  -2   5 39.4486 110.238   1
  -5  -2   5 53.7256 149.832   1
   5  -2  -5-164.688 147.940   1
   5   2  -5-46.8274 182.999   2
   5  -3  -5 13.8190 148.986   1
   5   3  -5 34.2640 163.997   1
   5  -3   5-100.084 111.172   1
   5  -3  -5 6.91435 169.181   2
   5  -3   5 192.653 128.606   2
  -5  -3   5 3.44492 171.356   2
  -5  -3   5 158.359 150.151   1
   5   3  -5 219.435 187.342   2
   5  -4   5 370.937 132.662   2
  -5  -4   5 181.688 151.702   1
  -5  -4   5 82.0362 172.723   2
   5  -4  -5 516.458 166.785   2
   5  -4  -5 157.735 146.304   1
   5  -4   5 163.261 115.402   1
   0   0   6 7423.90 848.471   1
   0   0  -6 10376.9 856.454   2
   0   0  -6 8331.08 850.057   1
   0   0   6 8640.30 854.746   2
   0  -1   6 62.9231 150.886   1
   0   1  -6 128.590 153.260   1
   0  -1   6-172.317 174.299   2
   0   1   6-155.542 154.332   1
   0   1   6 49.6863 175.418   2
   0   1  -6 72.6033 179.534   2
   0   2  -6 1092.86 197.735   1
   0  -2   6 1131.93 209.232   2
   0   2   6 1076.92 217.970   2
   0  -2   6 1188.24 191.154   1
   0   2   6 988.628 196.349   1
   0   2  -6 1549.56 219.749   2
   0   3  -6-75.7434 162.874   1
   0  -3   6 110.714 171.146   2
   0  -3   6-79.5099 150.850   1
   0   3  -6-20.6681 187.736   2
   0  -4   6 516.157 162.424   1
   0  -4   6 484.318 182.795   2
   1   0  -6 601.275 190.629   2
   1   0  -6 628.497 167.449   1
  -1   0   6 345.520 191.471   2
  -1   0   6 673.162 166.710   1
   1  -1  -6 199.164 177.873   2
  -1  -1   6 143.767 154.603   1
   1   1  -6 13.9637 162.087   1
  -1   1   6 178.831 160.838   1
  -1  -1   6 207.013 177.028   2
   1  -1   6-373.233 169.479   2
  -1   1   6 136.879 183.753   2
   1  -1  -6 366.545 155.761   1
   1   1  -6 248.006 183.167   2
  -1  -2  -6 751.819 176.649   2
   1  -2  -6 709.758 185.810   2
  -1   2  -6 582.807 164.370   1
   1   2  -6 514.113 174.818   1
   1   2   6 586.976 165.461   1
   1  -2   6 661.586 176.225   2
  -1  -2   6 513.160 185.640   2
  -1   2   6 352.653 169.414   1
  -1   2   6 673.748 197.372   2
   1   2   6 483.249 186.212   2
   1  -2   6 521.852 154.211   1
  -1  -2   6 320.525 162.922   1
  -1  -2  -6 773.186 155.732   1
   1  -2  -6 617.073 163.089   1
  -1   2  -6 192.311 188.307   2
   1   2  -6 397.351 197.178   2
  -1  -3  -6 235.645 143.271   1
  -1   3  -6 119.882 159.811   1
   1  -3  -6 269.201 154.036   1
   1   3  -6 330.904 168.657   1
  -1  -3  -6-3.23166 164.681   2
  -1   3   6-58.4655 166.829   1
   1  -3  -6 182.042 175.087   2
   1  -3   6-42.3107 167.471   2
  -1  -3   6 149.892 177.272   2
   1  -3   6 162.658 146.536   1
  -1  -3   6-58.4413 155.966   1
  -1   3  -6-12.9661 181.955   2
   1   3  -6 309.285 195.039   2
   1  -4   6 729.623 174.527   1
  -1  -4   6 869.705 181.860   1
   1  -4   6 773.908 192.609   2
  -1  -4   6 756.996 201.061   2
  -1  -4  -6 921.672 186.362   2
   1  -4  -6 1096.85 193.125   2
  -1  -4  -6 974.223 171.182   1
   1  -4  -6 1167.45 175.127   1
   2   0  -6 172.009 188.884   2
  -2   0  -6-8.59848 140.961   1
   2   0  -6 164.538 163.778   1
  -2   0   6 356.599 188.388   2
   2   0   6-66.2223 165.298   2
  -2   0   6 426.185 164.517   1
   2   0   6 40.2876 141.979   1
  -2   0  -6 197.954 166.787   2
  -2  -1  -6 1138.85 183.294   2
   2  -1  -6 636.599 200.911   2
  -2   1  -6 1108.39 169.494   1
  -2  -1   6 730.729 181.295   1
   2  -1   6 686.650 164.246   1
  -2  -1   6 823.738 203.381   2
   2  -1   6 948.092 181.951   2
  -2   1   6 786.829 186.928   1
  -2  -1  -6 642.440 164.054   1
  -2   1   6 669.051 205.549   2
   2   1   6 784.148 187.377   2
   2  -1  -6 930.123 182.815   1
   2   1   6 717.141 168.077   1
  -2   1  -6 765.572 187.630   2
  -2  -2  -6 375.244 161.726   2
   2  -2  -6 97.1464 182.009   2
  -2  -2   6 97.4531 182.459   2
  -2   2   6 247.536 167.312   1
  -2   2   6 105.121 194.821   2
   2   2   6-97.1308 171.200   2
  -2  -2  -6 272.391 140.752   1
  -2  -2   6-194.785 159.779   1
   2   2   6 29.3987 148.326   1
   2  -2  -6 70.9434 158.350   1
   2  -3  -6 1022.08 177.569   1
   2  -3  -6 770.013 197.364   2
   2  -3   6 307.280 181.841   2
  -2  -3   6 1002.39 202.288   2
   2  -3   6 586.702 164.872   1
  -2  -3   6 687.000 179.511   1
  -2   3   6 1242.34 191.791   1
   3   0  -6-164.739 204.053   2
   3   0   6-241.812 139.845   1
  -3   0  -6 84.7553 137.539   1
   3   0  -6-61.2622 175.962   1
   3   0   6-138.285 160.512   2
  -3   0  -6 63.5994 161.891   2
  -3  -1  -6 1776.16 202.015   2
   3  -1  -6 1425.46 232.019   2
  -3   1  -6 1006.01 186.136   1
   3   1  -6 1818.23 216.646   1
   3  -1   6 988.127 182.807   1
  -3  -1  -6 1207.96 184.307   1
   3  -1   6 1181.66 201.153   2
   3  -1  -6 947.170 211.180   1
   3   1   6 828.413 201.938   2
  -3   1  -6 1602.04 206.185   2
   3   1  -6 1142.73 235.672   2
   3   1   6 1068.22 186.251   1
  -3  -2  -6 5.41878 158.226   2
  -3   2  -6 73.5020 145.367   1
   3  -2  -6 66.4848 191.722   2
   3   2  -6 288.477 176.442   1
   3  -2   6 166.702 160.766   2
  -3  -2  -6 278.794 139.520   1
   3  -2  -6-308.763 167.128   1
   3  -2   6 125.666 138.413   1
  -3   2  -6 430.270 169.044   2
   3   2  -6 347.175 203.434   2
   0   0   0    0.00    0.00   0

TITL AVG112_4p2_ in Pbcm
REM Pbcm (#57, found as Pmca in bca setting)
CELL 0.49276   7.947765  10.610793   5.505833  90.0000  90.0000  90.0000
ZERR    4.00   0.001576   0.020941   0.001236   0.0000   0.0000   0.0000
LATT  1
SYMM -x,-y, z+1/2
SYMM -x, y+1/2,-z+1/2
SYMM  x,-y+1/2,-z
SFAC C H N O Cu
UNIT 20.00 8.00 12.00 4.00 4.00
TREF
HKLF 4
END
;
_shelx_hkl_checksum              92009
loop_
_symmetry_equiv_pos_as_xyz
'x, y, z'
'-x, -y, z+1/2'
'-x, y+1/2, -z+1/2'
'x, -y+1/2, -z'
'-x, -y, -z'
'x, y, -z-1/2'
'x, -y-1/2, z-1/2'
'-x, y-1/2, z'
loop_
_atom_site_label
_atom_site_fract_x
_atom_site_fract_y
_atom_site_fract_z
_atom_site_U_iso_or_equiv
_atom_site_adp_type
_atom_site_calc_flag
_atom_site_occupancy
_atom_site_disorder_assembly
_atom_site_disorder_group
_atom_site_type_symbol
C5 0.5496(17) 0.367(3) 0.25 0.030(3) Uiso d 1 . . C
N3 0.6876(16) 0.332(3) 0.25 0.041(3) Uiso d 1 . . N
O1 0.2831(12) 0.187(3) 0.25 0.031(3) Uiso d 1 . . O
Cu1 -0.09964(18) 0.2322(4) 0.25 0.035(3) Uani d 1 . . Cu
N1 0.0854(16) 0.350(4) 0.25 0.033(3) Uiso d 1 . . N
C1 0.058(2) 0.470(5) 0.25 0.034(4) Uiso d 1 . . C
H1 -0.053631 0.495504 0.25 0.041 Uiso calc 1 . . H
N2 0.1724(15) 0.560(3) 0.25 0.036(3) Uiso d 1 . . N
C2 0.3382(17) 0.527(3) 0.25 0.030(3) Uiso d 1 . . C
H2 0.422582 0.587602 0.25 0.036 Uiso calc 1 . . H
C3 0.3775(16) 0.397(3) 0.25 0.025(3) Uiso d 1 . . C
C4 0.2541(16) 0.303(4) 0.25 0.023(3) Uiso d 1 . . C
loop_
_atom_site_aniso_label
_atom_site_aniso_U_11
_atom_site_aniso_U_22
_atom_site_aniso_U_33
_atom_site_aniso_U_12
_atom_site_aniso_U_13
_atom_site_aniso_U_23
Cu1 0.0245(12) 0.033(9) 0.0465(11) -0.0027(15) 0 0
loop_
_atom_type_symbol
_atom_type_description
_atom_type_scat_dispersion_real
_atom_type_scat_dispersion_imag
_atom_type_scat_source
C C 0.0033 0.0016 'International Tables Vol C Tables 4.2.6.8 and 6.1.1.4'
H H 0 0 'International Tables Vol C Tables 4.2.6.8 and 6.1.1.4'
N N 0.0061 0.0033 'International Tables Vol C Tables 4.2.6.8 and 6.1.1.4'
O O 0.0106 0.006 'International Tables Vol C Tables 4.2.6.8 and 6.1.1.4'
Cu Cu 0.3201 1.2651 'International Tables Vol C Tables 4.2.6.8 and 6.1.1.4'
loop_
_geom_angle_atom_site_label_1
_geom_angle_atom_site_label_2
_geom_angle_atom_site_label_3
_geom_angle
_geom_angle_site_symmetry_1
_geom_angle_site_symmetry_3
_geom_angle_publ_flag
N3 C5 C3 175(4) . . ?
C5 N3 Cu1 166(3) . 1_655 ?
N2 Cu1 N1 147.9(11) 3_545 . ?
N2 Cu1 N3 104.5(9) 3_545 1_455 ?
N1 Cu1 N3 107.6(14) . 1_455 ?
N2 Cu1 Cu1 97.43(17) 3_545 7_566 ?
N1 Cu1 Cu1 84.96(15) . 7_566 ?
N3 Cu1 Cu1 85.86(14) 1_455 7_566 ?
N2 Cu1 Cu1 97.43(17) 3_545 7_565 ?
N1 Cu1 Cu1 84.96(15) . 7_565 ?
N3 Cu1 Cu1 85.86(14) 1_455 7_565 ?
Cu1 Cu1 Cu1 164.4(4) 7_566 7_565 ?
C1 N1 C4 120(3) . . ?
C1 N1 Cu1 120.7(14) . . ?
C4 N1 Cu1 119(3) . . ?
N1 C1 N2 127(2) . . ?
C1 N2 C2 118(3) . . ?
C1 N2 Cu1 119.0(19) . 3 ?
C2 N2 Cu1 123(2) . 3 ?
N2 C2 C3 118(3) . . ?
C4 C3 C5 121(3) . . ?
C4 C3 C2 122.6(18) . . ?
C5 C3 C2 116(2) . . ?
O1 C4 C3 124.9(17) . . ?
O1 C4 N1 121(3) . . ?
C3 C4 N1 114(3) . . ?
loop_
_geom_bond_atom_site_label_1
_geom_bond_atom_site_label_2
_geom_bond_site_symmetry_2
_geom_bond_distance
_geom_bond_publ_flag
C5 N3 . 1.16(2) ?
C5 C3 . 1.40(2) ?
N3 Cu1 1_655 1.996(19) ?
O1 C4 . 1.26(5) ?
Cu1 N2 3_545 1.91(3) ?
Cu1 N1 . 1.93(3) ?
Cu1 Cu1 7_566 2.7786(13) ?
Cu1 Cu1 7_565 2.7786(13) ?
N1 C1 . 1.29(5) ?
N1 C4 . 1.43(3) ?
C1 N2 . 1.32(4) ?
N2 C2 . 1.36(2) ?
C2 C3 . 1.41(4) ?
C3 C4 . 1.40(4) ?
