#------------------------------------------------------------------------------
#$Date: 2020-09-06 11:24:31 +0300 (Sun, 06 Sep 2020) $
#$Revision: 255986 $
#$URL: file:///home/coder/svn-repositories/cod/cif/7/12/68/7126860.cif $
#------------------------------------------------------------------------------
#
# This file is available in the Crystallography Open Database (COD),
# http://www.crystallography.net/
#
# All data on this site have been placed in the public domain by the
# contributors.
#
data_7126860
loop_
_publ_author_name
'Garc\'ia-Valdivia, Antonio A'
'Romero, Francisco J.'
'Cepeda, Javier'
'Morales, Diego P.'
'Casati, Nicola'
'Mota, Antonio J.'
'Zotti, Linda A.'
'Palacios, Juan J.'
'Choquesillo-Lazarte, Duane'
'F Salmer\'on, Jos\'e'
'Rivadeneyra, Almudena'
'Rodr\'iguez-Di\'eguez, Antonio'
_publ_section_title
;
 Rational design of an unusual 2D-MOF based on Cu(i) and
 4-hydroxypyrimidine-5-carbonitrile as linker with conductive
 capabilities: a theoretical approach based on high-pressure XRD.
;
_journal_issue                   66
_journal_name_full
'Chemical communications (Cambridge, England)'
_journal_page_first              9473
_journal_page_last               9476
_journal_paper_doi               10.1039/d0cc03564e
_journal_volume                  56
_journal_year                    2020
_chemical_formula_sum            'C5 H2 Cu N3 O'
_chemical_formula_weight         183.64
_space_group_IT_number           57
_space_group_name_Hall           '-P 2c 2b'
_space_group_name_H-M_alt        'P b c m'
_symmetry_cell_setting           orthorhombic
_symmetry_Int_Tables_number      57
_symmetry_space_group_name_Hall  '-P 2c 2b'
_symmetry_space_group_name_H-M   'P b c m'
_atom_sites_solution_hydrogens   geom
_audit_creation_date             2020-03-12T08:42:22-00:00
_audit_creation_method           'WinGX routine CIF_UPDATE'
_audit_update_record
;
2020-03-28 deposited with the CCDC.	2020-07-09 downloaded from the CCDC.
;
_cell_angle_alpha                90
_cell_angle_beta                 90
_cell_angle_gamma                90
_cell_formula_units_Z            4
_cell_length_a                   7.9702(8)
_cell_length_b                   10.714(9)
_cell_length_c                   5.6247(4)
_cell_measurement_reflns_used    563
_cell_measurement_temperature    293(2)
_cell_measurement_theta_max      17.901
_cell_measurement_theta_min      1.766
_cell_volume                     480.3(4)
_computing_cell_refinement       'CrysAlisPro 1.171.39.46 (Rigaku OD, 2018)'
_computing_data_collection       'CrysAlisPro 1.171.39.46 (Rigaku OD, 2018)'
_computing_data_reduction        'CrysAlisPro 1.171.39.46 (Rigaku OD, 2018)'
_computing_structure_refinement  'SHELXL-2018/3 (Sheldrick, 2018)'
_diffrn_ambient_environment      'collected in a Diamond Anvil Cell'
_diffrn_ambient_pressure         2750000
_diffrn_ambient_temperature      293(2)
_diffrn_measured_fraction_theta_full 0.413
_diffrn_measured_fraction_theta_max 0.399
_diffrn_measurement_device_type
'dectris-CrysAlisPro-abstract goniometer imported dectris images'
_diffrn_measurement_method       '\f scans'
_diffrn_radiation_monochromator  synchrotron
_diffrn_radiation_type           synchrotron
_diffrn_radiation_wavelength     0.49276
_diffrn_reflns_av_R_equivalents  0.0562
_diffrn_reflns_av_unetI/netI     0.0434
_diffrn_reflns_Laue_measured_fraction_full 0.413
_diffrn_reflns_Laue_measured_fraction_max 0.399
_diffrn_reflns_limit_h_max       9
_diffrn_reflns_limit_h_min       -9
_diffrn_reflns_limit_k_max       4
_diffrn_reflns_limit_k_min       -4
_diffrn_reflns_limit_l_max       7
_diffrn_reflns_limit_l_min       -7
_diffrn_reflns_number            1533
_diffrn_reflns_point_group_measured_fraction_full 0.413
_diffrn_reflns_point_group_measured_fraction_max 0.399
_diffrn_reflns_theta_full        17.197
_diffrn_reflns_theta_max         17.851
_diffrn_reflns_theta_min         1.771
_diffrn_source                   synchrotron
_exptl_absorpt_coefficient_mu    4.439
_exptl_absorpt_correction_T_max  1
_exptl_absorpt_correction_T_min  0.12418
_exptl_absorpt_correction_type   multi-scan
_exptl_absorpt_process_details
;
        CrysAlisPro 1.171.39.46 (Rigaku Oxford Diffraction, 2018)
        Empirical absorption correction using spherical harmonics,
 implemented in SCALE3 ABSPACK scaling algorithm.
;
_exptl_crystal_colour            yellow
_exptl_crystal_density_diffrn    2.539
_exptl_crystal_description       prism
_exptl_crystal_F_000             360
_exptl_crystal_size_max          0.07
_exptl_crystal_size_mid          0.05
_exptl_crystal_size_min          0.02
_refine_diff_density_max         0.974
_refine_diff_density_min         -0.814
_refine_diff_density_rms         0.143
_refine_ls_extinction_method     none
_refine_ls_goodness_of_fit_ref   1.167
_refine_ls_hydrogen_treatment    constr
_refine_ls_matrix_type           full
_refine_ls_number_parameters     34
_refine_ls_number_reflns         213
_refine_ls_number_restraints     0
_refine_ls_restrained_S_all      1.167
_refine_ls_R_factor_all          0.0719
_refine_ls_R_factor_gt           0.0672
_refine_ls_shift/su_max          0.003
_refine_ls_shift/su_mean         0.001
_refine_ls_structure_factor_coef Fsqd
_refine_ls_weighting_details
'w=1/[\s^2^(Fo^2^)+(0.1528P)^2^+0.5310P] where P=(Fo^2^+2Fc^2^)/3'
_refine_ls_weighting_scheme      calc
_refine_ls_wR_factor_ref         0.2069
_reflns_number_gt                179
_reflns_number_total             213
_reflns_threshold_expression     'I > 2\s(I)'
_cod_data_source_file            d0cc03564e2.cif
_cod_data_source_block           avg112_2p75_
_cod_depositor_comments
'Adding full bibliography for 7126858--7126861.cif.'
_cod_database_code               7126860
_shelx_res_file
;
TITL AVG112_2p75_ in Pbcm
    shelx.res
    created by SHELXL-2018/3 at 16:17:10 on 10-Mar-2020
CELL  0.49276   7.9702  10.7143   5.6247   90.000   90.000   90.000
ZERR     4.00   0.0008   0.0093   0.0004    0.000    0.000    0.000
LATT   1
SYMM  - X, - Y, 1/2 + Z
SYMM  - X, 1/2 + Y, 1/2 - Z
SYMM    X, 1/2 - Y, - Z
SFAC  C    H    N    O    CU
UNIT  20 8 12 4 4
MERG   2
FMAP   2
PLAN   20
ACTA
LIST   4
L.S.  10
WGHT    0.152800    0.531000
FVAR       2.41132
C5    1    0.545926    0.362757    0.250000    10.50000    0.02746
N3    3    0.682454    0.331193    0.250000    10.50000    0.03655
O1    4    0.279875    0.190846    0.250000    10.50000    0.03258
CU1   5   -0.101574    0.233969    0.250000    10.50000    0.02046    0.05713 =
         0.04059    0.00000    0.00000   -0.00132
N1    3    0.084392    0.347152    0.250000    10.50000    0.02380
C1    1    0.055110    0.468565    0.250000    10.50000    0.02654
AFIX  43
H1    2   -0.056797    0.493149    0.250000    10.50000   -1.20000
AFIX   0
N2    3    0.170952    0.560730    0.250000    10.50000    0.03027
C2    1    0.331393    0.525429    0.250000    10.50000    0.02429
AFIX  43
H2    2    0.415805    0.585356    0.250000    10.50000   -1.20000
AFIX   0
C3    1    0.372534    0.400844    0.250000    10.50000    0.02468
C4    1    0.250747    0.301925    0.250000    10.50000    0.02468
HKLF    4




REM  AVG112_2p75_ in Pbcm
REM wR2 = 0.2069, GooF = S = 1.167, Restrained GooF = 1.167 for all data
REM R1 = 0.0672 for 179 Fo > 4sig(Fo) and 0.0719 for all 213 data
REM 34 parameters refined using 0 restraints

END

WGHT      0.1631      0.0000

REM Highest difference peak  0.974,  deepest hole -0.814,  1-sigma level  0.143
Q1    1  -0.1029  0.2404  0.0899  11.00000  0.05    0.97
Q2    1   0.0133  0.2322  0.2500  10.50000  0.05    0.59
Q3    1  -0.2188  0.2307  0.2500  10.50000  0.05    0.53
Q4    1   0.0738  0.3089  0.1129  11.00000  0.05    0.42
Q5    1   0.1898  0.5487  0.3582  11.00000  0.05    0.37
Q6    1   0.1772  0.4684  0.2500  10.50000  0.05    0.28
Q7    1   0.3456  0.2586  0.2500  10.50000  0.05    0.26
Q8    1   0.7411  0.2611  0.0945  11.00000  0.05    0.26
Q9    1   0.6844  0.3460  0.1378  11.00000  0.05    0.26
Q10   1   0.4096  0.1189  0.2500  10.50000  0.05    0.25
Q11   1  -0.2208  0.5507  0.2500  10.50000  0.05    0.23
Q12   1   0.0157  0.4942  0.0837  11.00000  0.05    0.23
Q13   1   0.2746  0.1888  0.0911  11.00000  0.05    0.22
Q14   1   0.3339  0.5539  0.3774  11.00000  0.05    0.22
Q15   1   0.6558  0.4117  0.0955  11.00000  0.05    0.21
Q16   1   0.3264  0.5241  0.4185  11.00000  0.05    0.21
Q17   1  -0.2064  0.4812  0.0830  11.00000  0.05    0.20
Q18   1   0.2341  0.3497  0.2500  10.50000  0.05    0.20
Q19   1   0.3805  0.3966  0.1036  11.00000  0.05    0.18
Q20   1   0.6156  0.2500  0.0000  10.50000  0.05    0.18
;
_shelx_res_checksum              41580
_shelx_hkl_file
;
   1   0   0 39153.4 1147.34   2
   1   0   0 38966.9 1147.45   1
  -2   0   0 294.592 15.9419   1
   2   0   0 253.844 15.3981   2
  -2   0   0 277.431 15.3311   2
   2   0   0 262.111 16.0242   1
   2   1   0 38177.3 1128.22   2
  -2  -1   0 36539.9 1128.63   1
  -2   1   0 38992.9 1124.47   2
   2   1   0 37426.6 1123.29   1
  -2   1   0 38884.5 1124.61   1
   3   0   0 72.4261 15.2724   2
  -3   0   0 55.9188 14.2773   1
   3   0   0 54.9991 14.5256   1
  -3   0   0 64.3559 13.9552   2
   3  -1   0 52455.4 1538.56   1
   3  -1   0 52146.6 1540.73   2
   3   1   0 50958.9 1537.18   1
  -3  -1   0 51339.6 1555.46   2
  -3   1   0 53325.3 1538.81   1
  -3   1   0 53034.1 1538.28   2
  -3  -1   0 52700.9 1541.17   1
   3   1   0 50907.0 1537.85   2
  -4   0   0 29460.0 897.461   2
   4   0   0 30491.1 897.991   2
  -4   0   0 30529.0 897.802   1
   4   0   0 30181.4 898.433   1
  -4  -1   0 2594.14 97.2003   1
  -4   1   0 2684.81 98.0986   1
  -4   1   0 2626.07 95.3550   2
   4   1   0 2619.95 95.5334   1
  -4  -1   0 2739.17 116.745   2
   4  -1   0 2677.48 99.1810   1
   4   1   0 2669.88 95.4435   2
   4  -1   0 2699.74 98.9005   2
  -4   2   0 9223.15 295.669   2
   5   0   0 50090.3 1495.99   1
   5   0   0 50588.4 1494.51   2
  -5  -1   0 3692.69 132.453   1
  -5   1   0 3693.04 128.134   2
  -5  -1   0 4041.35 156.828   2
   5  -1   0 3772.50 134.858   2
   5   1   0 3570.69 128.168   1
   5  -1   0 3889.90 135.336   1
  -5   1   0 3520.62 127.698   1
   5   1   0 3345.15 126.432   2
  -5   2   0 40413.7 1199.04   1
   5   2   0 38188.7 1192.14   1
   5   2   0 40256.2 1193.38   2
  -5   2   0 41728.6 1199.79   2
  -5   3   0 159.345 47.8157   2
   5   3   0 170.536 42.6539   2
  -5   3   0 150.747 51.0468   1
   5   3   0 161.382 34.1844   1
   6   0   0 15440.3 470.534   1
   6   0   0 14277.4 466.265   2
  -6   0   0 15376.9 465.415   2
  -6   0   0 14620.8 462.759   1
   6   1   0 11917.3 393.687   1
  -6  -1   0 12161.4 399.387   1
  -6  -1   0 12845.0 430.623   2
   6   1   0 12907.4 395.621   2
  -6   1   0 12747.6 398.031   1
  -6   1   0 12767.7 396.990   2
   6   2   0 22679.0 708.193   1
  -6   2   0 22940.7 712.823   2
   6   2   0 23830.3 711.282   2
  -6   2   0 23421.3 717.155   1
  -6   3   0 1757.47 100.103   2
   6   3   0 2139.00 91.6198   2
   6   3   0 1987.20 89.9387   1
  -6   3   0 1735.30 103.457   1
  -7   0   0 2056.99 104.098   1
  -7   0   0 1923.91 109.104   2
  -7   1   0 4065.06 157.841   1
   7   1   0 3590.78 151.174   2
  -7  -1   0 4289.57 223.367   2
  -7   1   0 3984.34 156.334   2
   7   2   0 28.7412 48.5173   2
  -7   2   0-9.44779 54.7385   2
  -7   2   0-28.3443 57.7363   1
   7   2   0 4.58485 55.3301   1
   7   3   0 18725.7 503.000   2
   7   3   0 17351.2 500.287   1
  -7   3   0 13380.1 506.031   2
  -7   3   0 12382.5 503.307   1
  -8   0   0 60.7405 93.0121   2
  -8   0   0 153.708 70.7268   1
  -8  -1   0 12907.3 422.708   1
  -8   1   0 12178.3 407.065   1
  -8   1   0 12279.3 408.082   2
  -8   2   0 3703.23 178.713   1
  -8   2   0 4117.51 181.199   2
  -8   3   0 5326.92 238.415   1
  -8   3   0 5630.29 234.797   2
  -8   4   0 501.226 132.669   1
  -8   4   0 406.501 122.100   2
  -9   0   0 4257.39 156.962   1
  -9   0   0 4710.41 225.639   2
   9   1   0 1036.15 119.255   1
   9  -1   0 809.100 102.717   1
  -9  -1   0 1327.18 289.600   2
  -9  -1   0 2935.11 162.036   1
   9   1   0 2037.34 128.595   2
  -9   1   0 2012.22 137.515   1
   9  -1   0 535.078 104.960   2
  -9   1   0 2096.20 146.919   2
  -9   2   0 4138.62 204.304   1
   9   2   0 4581.18 184.475   1
  -9   2   0 4344.05 205.795   2
   9   3   0 1298.88 111.395   1
  -9   3   0 938.624 156.775   1
  -9   4   0 1125.78 227.014   1
  -9   4   0 371.423 187.011   2
   9   4   0 3395.28 151.019   2
   9   4   0 3535.72 152.865   1
   0   0   1 4.68308 6.91188   2
   0   0  -1 5.07051 6.00256   2
   0   0  -1 3.35256 7.14391   1
   0   0   1 2.93299 7.09808   1
   0   1  -1-1.10653 8.55363   1
   0  -1  -1-7.26677 7.90177   1
   0   1  -1 3.18209 17.7581   2
   0   1   1-1.35561 8.25516   2
   0   1   1-2.51757 8.15053   1
   0  -1  -1-2.83186 8.83224   2
  -1   0  -1 2.58383 4.09941   2
   1   0   1 1.27804 3.89288   1
   1   0  -1 6.80660 9.47228   1
   1   0   1 2.78916 3.86275   2
   1   0  -1 0.71580 8.08264   2
  -1   0  -1 2.80631 4.04952   1
   1  -1  -1 13550.8 417.525   2
   1  -1  -1 14062.3 418.552   1
   1   1  -1 13985.1 417.223   1
   1   1  -1 13804.1 419.155   2
   2   0  -1-4.59252 11.8819   2
  -2   0   1-2.58599 12.1721   2
  -2   0   1-10.6972 13.3922   1
   2   0  -1-0.55961 13.8641   1
  -2  -1   1 5493.92 169.624   1
  -2  -1   1 5541.63 174.536   2
   2  -1  -1 6030.16 174.640   1
  -2   1   1 5185.97 168.191   2
  -2   1   1 4966.86 168.275   1
   2   1  -1 4946.58 167.875   1
   2   1  -1 4853.18 167.758   2
   2  -1  -1 5536.10 172.284   2
  -2   2   1 2903.55 103.278   1
   2   2  -1 2869.55 99.0117   1
   2   2  -1 2811.66 109.627   2
  -2   2   1 2801.45 101.217   2
  -3   0  -1 8.37909 8.00413   1
  -3   0   1-0.64817 19.0321   2
   3   0   1 2.61043 8.24031   1
   3   0   1 7.30478 8.61951   2
  -3   0  -1 2.59456 12.6712   2
  -3   0   1-0.66466 19.1490   1
   3   0  -1-2.72240 17.9312   2
   3   0  -1-3.37176 18.4095   1
   3   1  -1 6183.55 203.769   1
   3   1   1 6291.15 193.359   1
   3   1  -1 6363.69 203.754   2
   3   1   1 5994.41 196.346   2
   3  -1  -1 6682.95 208.958   2
   3   2  -1 2779.88 99.6332   1
   3   2  -1 2670.57 101.754   2
  -3   2   1 2940.97 106.053   1
  -3   2   1 2824.67 103.842   2
  -3  -2   1 2622.95 106.024   1
  -4   0   1 13.8987 24.7468   1
   4   0   1-6.55469 16.7337   2
  -4   0  -1 9.57813 20.0374   2
   4   0  -1 16.6035 26.4179   1
  -4   0  -1-3.69343 14.7576   1
   4   0  -1-14.7139 26.1775   2
   4   0   1 0.38558 16.9150   1
  -4   0   1 1.58425 22.3949   2
   4  -1  -1 860.139 58.1220   1
  -4  -1   1 752.623 52.5702   2
  -4   1   1 783.369 49.5181   1
   4  -1  -1 747.541 52.2369   2
  -4   1   1 690.286 45.9227   2
  -4   1  -1 831.241 36.4329   2
  -4  -1   1 871.505 50.9543   1
   4   1  -1 714.386 44.5121   1
   4   1  -1 621.443 43.5413   2
   4   1   1 767.696 35.0678   2
   4   1   1 765.342 35.1644   1
  -4   1  -1 895.635 37.5294   1
   4  -2  -1 56.4442 27.9524   1
   4  -2  -1 15.6459 28.5789   2
   4   2  -1 67.9099 25.6411   2
  -4  -2   1 68.9432 73.1082   2
  -4   2   1 55.6578 29.2717   2
  -4  -2   1 71.5643 37.4507   1
   4   2  -1 67.7061 25.9154   1
  -4   2   1 62.9857 30.7237   1
  -4   3   1 27.9362 36.0375   1
  -4   3   1 23.2720 33.7063   2
   5   0  -1 9.06915 32.5260   2
  -5   0  -1-14.8862 34.1222   2
  -5   0   1-9.88404 32.5241   1
   5   0   1-7.64620 26.6819   1
  -5   0  -1-1.64561 24.2002   1
   5   0  -1 8.15785 35.1041   1
   5   0   1 7.83384 25.4015   2
  -5   0   1 7.91442 30.6996   2
   5  -1  -1 919.939 65.0106   2
   5   1  -1 984.985 61.2609   1
  -5  -1   1 862.044 68.1394   2
  -5   1  -1 881.917 43.9841   1
  -5   1   1 842.480 55.1803   2
  -5   1   1 834.252 55.5305   1
   5   1  -1 901.422 55.2984   2
  -5   1  -1 956.480 44.5527   2
   5  -1  -1 953.921 69.8486   1
   5   1   1 1005.49 47.5479   2
  -5  -1   1 964.416 59.2635   1
   5   1   1 1038.89 49.2171   1
  -5   2   1 112.084 40.5882   2
   5  -2  -1 38.2291 40.7645   2
  -5   2   1 131.597 41.1758   1
  -5   2  -1 174.869 36.0600   2
   5  -2  -1 71.0959 40.3378   1
  -5  -2   1 88.3626 95.5963   2
   5   2   1 118.171 25.5464   1
   5   2  -1 97.5967 33.9234   2
  -5  -2   1 74.0632 47.3335   1
   5   2   1 114.557 27.0795   2
   5   2  -1 140.820 36.7932   1
  -5   2  -1 151.299 39.2673   1
   5   3  -1 102.526 33.4287   1
   5   3  -1 116.268 35.7962   2
  -5   3   1 123.269 46.4820   1
  -5   3   1 119.501 43.2983   2
   6   0  -1 8.05943 44.0531   1
  -6   0  -1 21.3860 33.4965   1
   6   0   1 43.0167 37.0503   1
   6   0  -1-1.25445 39.2536   2
   6   0   1 17.3024 36.5450   2
  -6   0   1 11.2280 41.7135   2
  -6   0   1 4.74853 41.3950   1
  -6   0  -1 3.88009 54.1386   2
   6   1  -1 1620.42 88.2517   2
  -6   1  -1 1728.16 75.7517   1
   6   1   1 2181.35 79.1137   2
  -6  -1   1 2001.04 94.7318   1
   6  -1  -1 1513.53 99.4702   1
  -6   1   1 1906.19 96.8063   1
   6   1  -1 1724.06 94.5682   1
   6  -1  -1 1632.49 98.0569   2
  -6  -1   1 1982.59 112.723   2
   6   1   1 2004.03 79.2290   1
  -6   1   1 1930.38 94.6065   2
  -6   1  -1 1710.10 75.0512   2
   6   2  -1 63.9783 43.3049   2
  -6   2  -1 69.2984 43.1332   2
  -6   2   1 73.8060 49.6145   2
   6   2  -1 63.9593 42.9643   1
  -6   2  -1 94.9263 49.6998   1
  -6  -2   1 32.2656 123.506   2
   6  -2  -1 47.6124 51.0159   1
  -6   2   1 61.3051 56.3625   1
   6  -2  -1 8.05311 52.3489   2
  -6  -2   1 105.283 57.4187   1
   6   3  -1 70.6226 40.6223   2
  -6   3   1 67.7480 54.0396   2
   6   3   1 72.2079 37.6740   2
   6   3   1 90.2408 37.7009   1
  -6   3  -1 161.509 77.0399   1
   6   3  -1 59.7959 43.4935   1
  -6   3  -1 73.8828 68.1185   2
  -6   3   1 108.854 55.5275   1
   7   0  -1 14.2937 59.5821   2
   7   0   1 10.3295 46.1409   2
  -7   0   1 1.69629 55.5541   2
   7   0  -1 27.3594 61.3412   1
  -7   0   1 6.29893 52.4441   1
   7   0   1 9.59026 44.6035   1
   7  -1  -1 48.7249 61.1039   2
  -7   1   1 84.3959 56.6040   2
  -7   1   1 71.8811 60.0554   1
  -7  -1   1 5.15628 60.5259   1
   7   1  -1 13.2386 52.1906   2
  -7  -1   1 65.0712 88.3947   2
  -7   1  -1 68.4435 40.3562   1
  -7   1  -1 60.2212 39.9213   2
   7   1  -1 31.7067 53.4106   1
   7   1   1 131.057 48.1074   2
   7   1   1 38.5093 46.6568   1
   7  -1  -1 37.4246 62.8304   1
   7  -2  -1 307.793 62.5133   1
  -7   2  -1 599.881 63.3157   2
  -7   2  -1 586.939 64.3517   1
  -7   2   1 458.794 70.6367   2
   7  -2  -1 317.160 69.1531   2
   7   2  -1 611.821 64.8702   2
  -7  -2   1 645.260 86.5468   1
  -7  -2   1 676.561 189.601   2
  -7   2   1 622.687 74.8039   1
   7   2  -1 658.134 73.7577   1
  -7   3   1 5992.13 270.771   2
   7   3  -1 9025.30 274.157   2
  -7   3  -1 7565.60 283.975   2
  -7   3   1 6279.64 279.079   1
   7   3  -1 9113.63 277.232   1
  -7   3  -1 7621.38 284.740   1
   7   4  -1 63.1978 49.1467   1
  -7   4   1 2.30882 68.8319   1
  -7   4   1 74.7766 65.4104   2
   7   4  -1 39.0803 45.8884   2
  -8   0   1 58.1073 78.6249   1
   8   0   1-23.1854 48.1786   1
  -8   0   1 27.3527 86.4935   2
   8   0   1-9.58008 56.7813   2
   8   1  -1 29.2086 64.3623   2
   8   1  -1 54.6959 66.0604   1
   8  -1  -1 70.6471 77.1945   2
   8   1   1 138.865 61.0795   2
  -8   1   1 128.045 73.9705   2
  -8   1   1 167.906 74.7455   1
   8   1   1 147.108 68.1045   1
  -8  -1   1 114.643 122.452   2
  -8  -1   1 158.131 75.2365   1
   8  -1  -1 28.8921 79.2841   1
   8   2   1 87.8215 56.5665   1
   8  -2  -1 37.8964 79.3196   2
  -8  -2   1 43.2434 230.184   2
  -8   2   1 95.1421 90.4394   1
  -8  -2   1 66.7774 96.0997   1
   8   2  -1 75.4000 64.4108   2
   8   2  -1 78.6207 66.4557   1
  -8   2   1 53.4384 82.7363   2
   8  -2  -1 56.2323 72.1213   1
   8   2   1 64.7377 55.1897   2
   8   3  -1 1471.41 95.7550   1
  -8   3   1 1208.33 124.122   1
   8   3  -1 1599.50 97.2887   2
  -8   3   1 1159.72 116.964   2
   8   3   1 1633.48 90.0487   2
   8   3   1 1374.74 88.5832   1
  -8   4  -1 365.137 166.250   2
  -8   4   1 432.870 111.717   2
  -8   4  -1 330.546 168.790   1
   8   4   1 661.630 74.7840   1
   8   4  -1 571.779 77.8730   2
   8   4   1 827.034 74.0789   2
  -8   4   1 559.748 118.266   1
   8   4  -1 622.224 80.7052   1
  -9   0   1-42.1621 96.7018   1
  -9   0  -1 16.0995 90.3027   1
   9   0   1 4.88576 64.9959   2
   9   0  -1-24.7830 91.6445   2
  -9   0   1 14.7938 121.288   2
  -9   0  -1 69.0897 209.718   2
   9   0   1-1.45663 60.5881   1
   9   0  -1 19.9808 90.8327   1
   9  -1  -1 44.5301 90.7158   2
   9   1  -1 4.92962 79.2285   2
  -9   1  -1 60.1699 75.5785   1
  -9  -1   1 65.3358 112.083   1
   9  -1  -1 72.1590 88.3921   1
  -9  -1   1 48.2892 206.123   2
   9   1  -1 66.4872 82.6615   1
  -9   1  -1 34.9555 107.512   2
  -9   1   1-14.1182 93.6675   2
  -9   1   1 7.97652 86.8434   1
   9   1   1 1.65846 67.4569   2
   9   1   1 14.0837 71.4471   1
   9   2   1-43.8799 65.3938   2
   9  -2  -1 11.7212 97.4589   2
  -9  -2   1-34.9550 135.504   1
  -9  -2   1-87.2357 306.661   2
  -9   2  -1-52.2691 75.3173   1
  -9   2  -1 46.1961 75.9333   2
  -9   2   1 9.61631 107.870   1
   9   2  -1 66.4272 77.5372   1
  -9   2   1 6.26568 104.608   2
   9   2   1 1.69231 67.3221   1
   9   2  -1-34.6722 78.0677   2
   9  -2  -1-54.7159 88.6939   1
   9   3  -1 48.4437 85.5327   1
  -9   3   1 3.98087 126.780   2
  -9   3  -1 8.90804 114.252   2
   9   3   1 50.9940 70.6105   1
   9   3  -1 60.8928 75.7137   2
  -9   3  -1 45.6038 119.776   1
   9   3   1 79.7293 69.4827   2
  -9   3   1 51.7101 127.225   1
   9   4   1 1.77618 64.3050   1
   9   4  -1-4.53344 71.5569   1
  -9   4  -1 157.540 234.910   1
  -9   4   1-42.3762 125.789   2
  -9   4   1-22.5372 139.021   1
   9   4  -1 9.11735 66.1273   2
   9   4   1 7.12422 65.0540   2
  -9   4  -1 5.62808 202.735   2
   0   0  -2 339480. 9624.67   2
   0   0   2 317364. 9624.16   1
   0   0   2 326822. 9624.25   2
   0   0  -2 329892. 9624.27   1
   0  -1  -2-4.93781 16.7503   2
   0  -1   2 1.77393 17.0654   1
   0  -1  -2-1.23876 18.0471   1
   0   1   2 3.69427 14.7009   2
   0   1  -2 7.11062 14.2673   1
   0   1   2 1.60314 15.6106   1
   0  -1   2 4.51273 25.0222   2
   0   1  -2 2.12025 13.8913   2
   0   2  -2 35906.8 1039.10   2
   0   2  -2 35219.3 1025.51   1
   0   2   2 32543.1 1026.55   1
  -1   0  -2 22061.7 666.396   2
   1   0   2 22726.2 666.558   1
  -1   0  -2 22409.6 666.030   1
  -1   0   2 22779.7 674.418   2
  -1   0   2 21734.1 674.337   1
   1   0   2 22726.1 666.212   2
   1  -1   2 4027.32 133.070   1
  -1   1   2 4034.82 135.676   2
   1  -1  -2 3972.87 137.340   2
  -1  -1   2 4183.11 138.446   1
  -1   1  -2 4051.75 127.873   2
   1   1  -2 4037.59 134.433   1
  -1  -1   2 3892.20 139.582   2
   1   1  -2 4119.95 133.964   2
  -1   1  -2 4101.73 127.355   1
   1   1   2 3855.27 127.959   2
  -1  -1  -2 4030.86 129.854   1
  -1   1   2 3970.02 135.349   1
   1   1   2 4213.45 129.927   1
  -1  -1  -2 4216.48 132.495   2
   1   2  -2 16049.2 452.864   2
   1   2  -2 14946.2 444.869   1
  -2   0  -2 25.9315 12.5744   2
   2   0   2 26.6711 15.5596   2
   2   0   2 28.2606 11.5333   1
  -2   0   2 28.6537 21.5056   1
   2   0  -2 5.34510 19.2463   1
  -2   0   2 40.0879 21.6711   2
  -2   0  -2 32.3022 14.1774   1
   2   0  -2 33.1115 19.4308   2
   2   1   2 23701.1 703.263   2
   2   1  -2 22446.0 713.999   2
   2   1  -2 21793.8 713.723   1
  -2   1  -2 26168.1 703.742   1
  -2   1   2 23093.7 714.597   2
   2  -1  -2 23084.5 718.241   2
  -2  -1   2 23897.5 718.599   2
  -2  -1   2 23034.6 715.514   1
  -2   1   2 24101.2 717.516   1
   2   1   2 23249.6 703.363   1
  -2   1  -2 23861.5 704.578   2
   2  -1  -2 23817.3 719.046   1
  -2   2   2 21.4772 24.9779   2
   2  -2  -2-0.97049 25.7860   2
  -2  -2   2 6.02988 59.0183   2
  -2   2   2-7.44828 26.5412   1
   2   2  -2 25.6462 20.0056   2
   2  -2  -2 23.4444 25.0499   1
   2   2  -2 18.5901 19.3531   1
  -2  -2   2 13.6454 32.2978   1
  -3   0   2 9.07291 23.5993   2
  -3   0   2-23.2397 24.7215   1
   3   0  -2 8.28139 26.1095   1
   3   0  -2 12.0678 25.4405   2
   3   1  -2 28791.2 882.207   2
  -3   1   2 31053.4 887.873   1
  -3  -1   2 29753.3 882.768   1
   3  -1  -2 30293.8 886.713   2
  -3   1   2 29144.6 883.322   2
  -3   1  -2 29337.6 866.419   2
   3   1  -2 29022.9 881.881   1
  -3   1  -2 29405.4 864.053   1
  -3  -1   2 29357.0 884.383   2
   3   1   2 28566.1 865.139   1
   3  -1  -2 30744.1 887.233   1
   3   2  -2 1731.34 79.4757   2
   3   2  -2 2058.78 81.7835   1
  -3  -2   2 1933.90 85.8066   1
  -3   2   2 1969.61 82.9174   2
  -3   2   2 1871.46 81.8149   1
  -3  -2   2 2004.98 111.273   2
   3   3  -2 32841.0 983.250   1
   3   3  -2 32273.7 987.221   2
  -4   0   2 15936.8 493.937   1
   4   0  -2 16169.6 495.262   1
   4   0  -2 15578.2 494.900   2
  -4   0   2 16144.4 494.006   2
   4   1  -2 1524.49 72.5547   2
   4   1  -2 1458.09 73.6059   1
  -4  -1   2 1835.58 79.2897   1
  -4  -1   2 1611.22 76.9101   2
  -4   1   2 1457.01 73.2418   2
  -4   1   2 1409.51 73.4360   1
   4  -1  -2 1487.70 80.6043   2
   4  -1  -2 1802.54 84.5908   1
   4  -2  -2 4936.49 182.103   2
   4   2  -2 5000.81 176.899   1
  -4   2   2 5006.49 179.984   1
   4  -2  -2 5137.78 185.052   1
  -4  -2   2 5337.83 203.968   2
   4   2  -2 4900.48 175.306   2
  -4   2   2 4814.59 179.410   2
  -4  -2   2 5491.75 181.260   1
   4   3  -2 9117.41 288.670   1
   4   3  -2 8614.58 289.582   2
  -5   0   2 29577.6 835.126   1
   5   0  -2 25231.5 831.217   1
   5   0  -2 25541.4 830.606   2
  -5   0   2 29545.6 835.113   2
   5   1  -2 1810.89 77.6973   2
  -5  -1   2 2024.81 84.5726   2
  -5   1   2 1721.17 78.4590   1
   5  -1  -2 1859.37 83.1649   2
  -5   1   2 1749.86 78.3791   2
   5   1  -2 1937.27 81.4673   1
   5  -1  -2 1964.80 87.8245   1
  -5  -1   2 2173.00 81.5403   1
   5  -2  -2 19936.0 673.352   2
   5   2   2 22678.0 649.357   1
  -5  -2   2 21122.1 697.823   2
  -5   2  -2 22151.1 657.533   2
  -5  -2   2 22987.1 674.151   1
  -5   2  -2 20723.1 658.649   1
   5   2  -2 22318.7 672.456   1
  -5   2   2 22258.7 679.227   1
   5   2   2 21202.3 649.953   2
   5  -2  -2 20807.5 677.268   1
   5   2  -2 20938.9 670.466   2
  -5   2   2 23073.4 678.714   2
   5  -3  -2 101.803 50.1257   2
  -5  -3   2 59.2455 60.6540   1
  -5   3   2 92.9317 42.1358   2
   5  -3  -2 57.8450 43.4314   1
  -5  -3   2-54.6720 150.344   2
  -5   3   2 84.0833 44.0118   1
   5   3  -2 84.8222 37.8348   2
   5   3  -2 142.603 40.3071   1
  -6   0   2 8170.53 264.960   2
  -6   0   2 8688.81 266.426   1
   6   0  -2 6920.40 259.664   2
   6   0  -2 6754.07 258.941   1
   6   1   2 7044.65 187.122   1
   6   1  -2 6378.65 221.949   2
  -6  -1   2 7323.52 230.352   1
  -6   1   2 7024.79 225.818   2
   6   1  -2 6340.12 220.713   1
  -6  -1   2 7043.68 237.099   2
  -6   1   2 6512.17 224.761   1
   6  -1  -2 6109.70 228.102   2
   6   1   2 7248.91 189.143   2
   6  -1  -2 7234.80 240.320   1
  -6   2   2 12123.2 361.679   2
   6  -2  -2 11607.1 366.620   1
  -6   2  -2 7785.94 327.292   2
   6   2   2 12377.5 329.181   2
   6  -2  -2 11759.1 367.723   2
   6   2  -2 12081.5 355.304   2
   6   2  -2 11809.4 354.726   1
  -6   2   2 12687.4 366.148   1
  -6   2  -2 7668.31 327.776   1
  -6  -2   2 13909.2 371.816   1
   6   2   2 11501.6 327.579   1
  -6  -2   2 14024.0 424.725   2
  -6   3  -2 1202.98 117.004   1
   6  -3  -2 852.086 78.2947   1
   6   3  -2 1235.89 78.2538   2
  -6   3   2 1052.39 84.5312   2
   6   3  -2 1196.31 77.4959   1
  -6   3  -2 864.101 103.472   2
   6  -3  -2 919.826 84.9424   2
  -6  -3   2 648.332 193.465   2
  -6  -3   2 884.600 94.4735   1
   6   4  -2 2682.80 122.187   1
   6   4  -2 2757.55 123.273   2
  -7   0   2 926.529 79.2431   1
   7   0  -2 970.908 82.2352   2
  -7   0   2 993.856 82.0533   2
   7   0  -2 1007.75 85.5491   1
  -7  -1   2 2375.91 135.121   2
  -7  -1   2 2214.44 115.865   1
  -7   1   2 2191.30 113.520   2
   7   1  -2 1729.21 106.058   2
   7  -1  -2 1881.43 124.522   1
  -7   1   2 2098.54 115.085   1
   7  -1  -2 1737.03 113.633   2
   7   1  -2 1733.73 106.133   1
  -7  -2   2 29.9273 67.4832   1
   7  -2  -2-10.9404 68.1059   2
   7  -2  -2-10.1349 66.8795   1
   7   2   2 10.2912 34.0075   1
   7   2  -2-13.8786 57.7199   2
   7   2  -2 20.6878 59.8626   1
  -7  -2   2 57.9010 116.840   2
  -7   2   2 2.14658 63.1885   2
  -7   2   2 29.9316 65.9410   1
   7   2   2 4.42369 32.1672   2
  -7   3   2 8730.89 322.519   1
   7  -3  -2 7046.74 304.123   1
  -7  -3   2 8885.83 333.997   1
   7   3   2 9346.54 279.604   2
   7   3   2 8289.34 278.942   1
  -7   3   2 8225.73 310.322   2
   7   3  -2 10149.3 306.827   1
   7  -3  -2 7589.36 313.732   2
   7   3  -2 9745.59 306.645   2
   7   4  -2 356.892 59.4018   2
  -7   4   2 249.581 74.5013   1
   7   4  -2 354.068 60.9816   1
  -7   4   2 208.547 73.3187   2
   8   0  -2 26.9926 81.5255   2
   8   0  -2 67.8267 87.7116   1
  -8   0   2 80.3501 80.6101   2
  -8   0   2 58.2998 77.1677   1
   8  -1  -2 5558.33 245.216   1
  -8  -1   2 7091.21 285.745   2
  -8  -1   2 8151.51 262.052   1
  -8   1   2 6731.18 252.290   2
  -8   1   2 6824.47 251.689   1
   8   1  -2 5523.57 235.008   1
   8  -1  -2 5402.84 244.946   2
   8   1  -2 5455.09 233.832   2
  -8  -2   2 2845.93 157.264   1
   8  -2  -2 1978.42 128.936   1
  -8   2  -2 1203.84 77.7683   2
  -8   2   2 2438.43 134.165   2
   8   2  -2 2176.67 117.042   2
   8  -2  -2 1642.95 123.666   2
  -8   2  -2 740.172 70.0552   1
   8   2  -2 2348.53 119.096   1
  -8   2   2 2191.87 135.580   1
  -8   3   2 3531.57 190.595   2
   8   3  -2 4984.01 184.220   2
   8  -3  -2 3284.41 191.398   2
  -8  -3   2 2818.48 373.984   2
  -8   3   2 3423.90 189.950   1
   8   3  -2 5078.96 188.823   1
  -8  -3   2 5153.52 235.935   1
   8   4   2 394.937 60.0194   2
   8   4  -2 710.073 79.9640   2
   8   4  -2 575.623 76.5729   1
  -8   4   2 354.512 103.003   1
  -8   4  -2 367.637 221.930   1
   8   4   2 323.744 61.8563   1
  -8   4   2 395.649 100.398   2
  -8   4  -2 140.894 216.153   2
   9   0  -2 1672.39 148.880   1
  -9   0   2 3025.09 187.091   2
  -9   0   2 2896.76 170.681   1
   9   0  -2 1063.43 131.511   2
   9  -1  -2 1255.14 130.709   1
  -9  -1   2 2003.85 206.612   2
  -9   1   2 1406.03 129.845   2
  -9  -1   2 1962.56 141.259   1
  -9   1   2 1541.36 131.003   1
   9   1  -2 1296.79 116.457   2
   9  -1  -2 959.181 121.231   2
   9   1  -2 1003.93 114.165   1
  -9  -2   2 4378.89 333.382   2
   9   2   2 2643.22 120.978   1
  -9  -2   2 5212.41 223.078   1
  -9   2   2 3647.30 192.758   2
   9   2   2 3148.47 122.986   2
  -9   2   2 3274.41 194.428   1
  -9  -3   2 744.125 177.473   1
   9   3  -2 871.550 100.976   2
   9   3   2 530.035 60.5488   2
   9   3  -2 881.709 105.663   1
  -9   3   2 637.457 131.129   2
   9   3   2 662.711 64.9893   1
  -9   3   2 679.339 142.811   1
   9   4  -2 2071.83 119.267   2
   9   4   2 1385.02 91.9587   2
  -9   4   2 1217.87 143.649   2
  -9   4   2 1060.92 149.394   1
   9   4   2 1516.42 100.759   1
   9   4  -2 2453.35 131.380   1
   0   0   3 8.58477 25.2439   1
   0   0  -3-12.8220 23.2269   1
   0   0   3-4.61432 24.0275   2
   0   0  -3-0.78443 23.1884   2
   0  -1  -3 6.60598 27.9900   2
   0   1   3-1.83970 29.6911   1
   0  -1   3 13.2753 29.3572   1
   0  -1   3 25.8747 35.5716   2
   0  -1  -3 2.04937 30.0617   1
   0   1  -3-3.22492 23.6730   2
   0   1   3 4.94174 26.3229   2
   0   1  -3-0.80054 25.1793   1
   0  -2   3 838.722 60.0316   1
   0   2   3 616.907 46.5591   2
   0   2  -3 773.960 46.2431   1
   0   2  -3 757.949 45.9990   2
   0  -2   3 624.469 112.001   2
   0   2   3 721.516 50.1540   1
   0   3   3-1.12416 28.4436   2
   0   3   3 36.1868 31.4611   1
  -1   0  -3-0.62754 20.2416   2
  -1   0   3-0.92273 27.7511   1
   1   0   3-0.67275 24.8668   1
   1   0  -3 8.88788 26.2731   1
   1   0   3-7.75034 23.6647   2
  -1   0   3 0.89734 26.2362   2
   1   0  -3-7.29492 25.5435   2
  -1   0  -3-9.75957 22.0223   1
  -1  -1   3 3737.82 129.505   1
   1   1  -3 3029.27 121.829   2
   1  -1  -3 3193.51 128.628   2
  -1   1   3 3268.86 123.773   2
   1   1   3 3432.17 119.492   2
  -1  -1   3 3596.24 130.535   2
   1   1  -3 3148.43 121.727   1
  -1   1   3 3568.37 128.716   1
   1   1   3 3535.22 123.928   1
   1  -1   3 3730.82 125.748   1
   1  -1  -3 3505.15 131.472   1
   1   2   3 1314.09 63.3341   2
   1  -2  -3 1356.46 68.6376   1
  -1  -2   3 1611.88 107.656   2
  -1  -2   3 1724.28 81.6428   1
  -1   2   3 1128.91 65.1982   1
  -1   2  -3 1417.90 60.2206   1
   1   2  -3 1262.60 63.9990   1
  -1   2  -3 1596.70 65.5316   2
   1  -2  -3 1326.88 70.4380   2
   1   2  -3 1286.86 63.6575   2
  -1   2   3 1259.76 65.4520   2
   1   2   3 1192.01 63.6961   1
   1   3  -3 544.907 45.5100   1
   1   3  -3 490.396 49.2853   2
  -1   3   3 399.409 44.3935   2
  -1   3   3 437.091 49.1781   1
   2   0   3 13.1435 24.2591   1
  -2   0  -3-6.94169 25.1752   2
  -2   0  -3 20.9421 27.3578   1
   2   0   3 14.1124 26.8934   2
   2   0  -3 4.09328 28.3177   1
  -2   0   3 7.32908 30.3503   1
  -2   0   3-1.01754 28.5580   2
   2   0  -3 23.1059 29.0356   2
  -2   1   3 1535.85 76.2484   2
   2   1  -3 1445.49 70.8880   2
  -2  -1   3 1388.16 77.7583   2
  -2   1  -3 1668.97 62.9238   2
  -2  -1   3 1608.57 75.9383   1
   2  -1  -3 1525.40 78.4073   2
  -2   1  -3 1724.73 63.0706   1
   2   1   3 1835.59 66.4291   1
  -2   1   3 1516.13 75.8792   1
   2   1   3 1794.13 65.1347   2
   2   1  -3 1448.69 71.4390   1
   2  -1  -3 1583.20 79.3481   1
   2  -2  -3 696.559 58.3123   1
  -2  -2   3 721.319 77.9177   2
  -2   2  -3 989.758 50.4738   2
  -2  -2   3 780.407 55.2557   1
   2   2  -3 725.176 48.2386   2
  -2   2  -3 1081.03 49.2236   1
  -2   2   3 670.288 54.0229   2
   2   2  -3 692.992 49.1324   1
   2   2   3 826.007 48.1856   2
  -2   2   3 703.318 54.8269   1
   2   2   3 790.957 49.6903   1
   2  -2  -3 607.144 55.0838   2
  -2  -3   3 6618.82 224.990   1
   2   3  -3 5963.01 203.825   2
   2   3  -3 6158.41 202.995   1
   3   0  -3-9.23309 31.2899   1
  -3   0  -3-19.8441 26.9047   2
   3   0   3-4.02243 26.7048   1
  -3   0  -3 4.83528 23.2261   1
   3   0   3 24.6843 60.4981   2
  -3   0   3 11.4529 34.9146   1
  -3   0   3 5.63206 32.8489   2
   3   0  -3 32.4477 30.8511   2
  -3  -1   3 2088.08 96.9868   2
   3   1   3 2303.24 78.8330   2
  -3   1   3 1902.94 93.3242   2
  -3  -1   3 2106.73 95.3367   1
   3   1  -3 1701.18 89.4192   2
  -3   1  -3 2758.68 80.0916   2
  -3   1  -3 2562.38 80.2179   1
   3   1   3 2301.65 79.1227   1
   3  -1  -3 1970.43 98.0447   2
  -3   1   3 1922.35 93.9728   1
   3   1  -3 1874.51 92.4681   1
   3  -1  -3 1901.35 97.9740   1
   3  -2  -3 607.969 58.4116   1
  -3   2   3 554.978 53.8512   2
  -3   2  -3 793.496 45.2031   2
  -3  -2   3 750.168 59.5749   1
  -3   2  -3 904.472 44.3147   1
   3   2  -3 684.531 52.4326   2
   3   2   3 757.675 46.5455   2
   3   2  -3 599.260 52.0101   1
   3  -2  -3 504.556 56.4941   2
  -3  -2   3 640.387 75.3740   2
  -3   2   3 556.912 56.4618   1
   3   2   3 784.755 46.1198   1
   3  -3  -3 1675.51 90.0379   1
   3   3  -3 1979.84 89.8176   2
  -3   3   3 2034.75 93.2199   2
   3  -3  -3 1617.27 92.0970   2
   3   3  -3 2018.31 90.4676   1
  -3   3   3 1947.28 93.2838   1
   4   0  -3-18.6029 38.0452   1
   4   0  -3 9.68909 38.6652   2
  -4   1  -3 416.206 24.7932   1
   4   1  -3 416.800 51.9914   2
   4  -1  -3 347.404 52.8893   1
   4  -1  -3 408.724 53.2422   2
  -4   1  -3 425.603 24.8268   2
   4   1  -3 449.348 55.0831   1
   4   2   3 22.2270 24.0717   2
   4  -2  -3 53.9728 45.4759   1
   4  -2  -3 28.5393 44.5225   2
   4   2   3 56.8018 25.2399   1
  -4   2  -3 81.5173 24.9436   1
  -4   2  -3 53.9442 26.5056   2
   4   2  -3 66.3890 37.4486   2
   4   2  -3 41.5438 38.1667   1
   4  -3  -3-32.4538 41.1459   2
   4   3  -3-1.40592 37.6589   1
   4   3  -3 16.5819 35.1974   2
   4  -3  -3 35.7158 38.1927   1
   5   0  -3-10.3948 40.8583   2
   5   0  -3-1.50393 43.2159   1
  -5   0   3-59.2407 45.1672   1
  -5   0   3 1.52258 42.0945   2
   5  -1  -3 212.608 57.0074   2
   5  -1  -3 340.291 61.9216   1
   5   1  -3 376.433 51.6354   2
  -5  -1   3 381.609 60.0468   1
  -5  -1   3 325.549 61.0928   2
   5   1  -3 265.948 52.9169   1
  -5   1   3 293.918 53.5676   2
  -5   1   3 329.938 57.1062   1
   5  -2  -3 10.9030 54.9202   2
   5   2  -3 95.4964 45.1346   1
   5  -2  -3-3.63673 56.7726   1
  -5   2   3 1.65258 53.0840   1
  -5  -2   3 53.2511 57.4370   1
  -5   2  -3 19.2508 12.0911   1
  -5  -2   3-13.0630 82.9011   2
  -5   2  -3 18.7842 12.4866   2
   5   2  -3 76.3941 44.5803   2
  -5   2   3 95.3490 50.1393   2
   5  -3  -3 38.6076 51.1731   2
  -5  -3   3 22.5691 62.8997   1
  -5   3   3 64.2238 52.5694   1
  -5  -3   3 14.8379 135.552   2
   5  -3  -3 24.8865 44.9407   1
   5   3  -3 6.52744 42.2288   2
   5   3  -3 48.4630 44.4545   1
  -5   3   3 59.2819 51.3529   2
   5   4  -3 951.356 65.7387   2
   5   4  -3 985.441 68.5192   1
  -5   4   3 783.713 67.5890   2
   6   0  -3 22.4170 48.1238   2
   6   0  -3-16.6353 52.9685   1
  -6   0   3 20.3196 49.6344   1
  -6   0   3-26.7298 48.5509   2
   6   1  -3 751.747 71.6005   2
  -6  -1   3 829.079 88.2284   2
  -6   1   3 579.082 70.6058   2
  -6   1   3 645.999 72.8739   1
   6  -1  -3 662.846 79.4318   2
   6   1  -3 735.002 70.8562   1
  -6  -1   3 841.813 81.8153   1
   6  -1  -3 799.757 89.3019   1
  -6   2   3 51.4315 57.1182   1
   6  -2  -3 111.969 62.4746   2
  -6  -2   3 32.1001 57.6231   1
   6   2  -3 1.99752 54.8122   1
   6  -2  -3 28.5258 64.3873   1
  -6  -2   3 58.0041 96.0590   2
  -6   2   3 69.7720 57.5927   2
   6   2  -3 25.0137 47.4347   2
   6  -3  -3 21.1302 61.1437   2
  -6  -3   3 32.8332 70.3628   1
  -6   3   3 95.6392 67.5949   1
  -6  -3   3-5.64825 165.000   2
   6   3  -3-13.2905 49.7055   2
   6  -3  -3-26.8028 53.3491   1
  -6   3   3 15.2135 61.1648   2
   6   3  -3 16.9522 52.2216   1
   6   4  -3 1545.03 89.7867   2
  -6   4   3 1158.55 93.5268   2
   6   4  -3 1527.92 92.2449   1
  -6   4   3 1194.55 94.7379   1
   7   0  -3-64.5390 63.0596   2
  -7   0   3 31.3862 57.4512   1
   7   0  -3-15.6385 65.0387   1
  -7   0   3 50.1689 59.7435   2
   7  -1  -3 60.7676 71.8611   2
  -7  -1   3 37.4048 64.7781   1
   7  -1  -3 13.1406 77.6965   1
  -7   1   3 6.46964 63.1152   1
  -7  -1   3 81.3660 82.8363   2
  -7   1   3 48.6316 59.2396   2
   7   1  -3 33.1808 61.9242   1
   7   1  -3 32.4398 59.2793   2
   7  -2  -3 179.852 72.8529   2
  -7  -2   3 313.753 74.3944   1
   7  -2  -3 239.055 81.0967   1
   7   2  -3 290.977 73.9969   1
  -7  -2   3 271.281 113.774   2
  -7   2   3 202.917 71.1651   2
  -7   2   3 331.623 77.6461   1
   7   2  -3 284.639 63.9378   2
   7  -3  -3 2667.61 121.733   1
  -7  -3   3 4452.24 163.826   1
  -7   3   3 3798.68 138.521   2
   7   3  -3 4267.49 129.403   2
   7  -3  -3 3016.23 137.839   2
  -7   3   3 3670.43 137.706   1
   7   3  -3 4276.76 135.928   1
  -7   4   3-102.493 79.6646   1
   7   4  -3-63.6656 57.5954   2
   7   4  -3 71.8404 59.0800   1
  -7   4   3 32.7186 71.0911   2
   8   0  -3-24.6824 77.6770   2
  -8   0   3 36.4887 77.8138   1
   8   0  -3 58.8181 84.8463   1
  -8   0   3-67.4090 81.6973   2
   8   1  -3 4.85675 67.4004   2
   8  -1  -3 34.1864 79.8137   2
   8   1  -3-12.1893 71.0446   1
  -8   1   3 84.6995 78.8636   2
  -8  -1   3 138.635 85.5201   1
  -8   1   3 115.625 81.5560   1
  -8  -1   3-7.65681 111.076   2
   8  -1  -3 5.91074 88.0992   1
   8  -2  -3 112.575 85.6139   2
  -8  -2   3 40.8572 91.2478   1
   8   2  -3-2.46688 69.2978   1
  -8  -2   3-137.025 165.025   2
   8  -2  -3 2.86923 82.3711   1
  -8   2   3 101.323 81.0152   1
  -8   2   3 13.6097 74.9610   2
   8   2  -3-48.2245 68.4704   2
   8  -3  -3 474.208 99.6580   2
   8  -3  -3 409.406 89.2497   1
   8   3  -3 613.809 91.2333   1
  -8  -3   3 407.236 261.358   2
   8   3  -3 648.270 88.0009   2
  -8  -3   3 522.839 115.706   1
  -8   3   3 431.933 95.1523   2
  -8   3   3 385.395 98.9575   1
   8   4  -3 272.313 69.3277   1
  -8   4   3 181.108 87.7072   1
   8   4   3 131.543 42.0241   2
   8   4   3 119.042 44.9740   1
   8   4  -3 301.239 66.9502   2
  -8   4   3 119.592 81.0171   2
   0   0   4 79060.8 2306.44   2
   0   0   4 77747.2 2304.68   1
   0   0  -4 77214.5 2301.94   2
   0   0  -4 76830.7 2301.38   1
   0  -1  -4 1.32860 42.8547   2
   0   1  -4-1.23016 38.9483   1
   0  -1   4 6.47718 45.1964   1
   0  -1   4 8.61459 59.6396   2
   0  -1  -4-41.8640 50.5160   1
   0   1   4 14.8752 39.6457   2
   0   1  -4-25.8637 36.2876   2
   0   1   4-8.59009 39.0229   1
   0  -2  -4 10717.2 380.004   1
   0  -2   4 13701.2 397.128   1
   0   2  -4 12840.7 381.916   2
   0   2   4 11654.3 381.095   2
   0   2  -4 12637.8 382.626   1
   0  -2  -4 10471.2 384.082   2
   0   2   4 11386.9 384.172   1
   0  -2   4 12458.2 461.038   2
   0   3   4-8.01659 41.5869   2
   0   3   4-14.7534 42.1848   1
   0   3  -4-3.88982 38.8378   1
   0   3  -4 14.8774 37.1743   2
  -1   0   4 6601.39 238.631   2
  -1   0   4 7012.28 240.551   1
   1   0  -4 6539.47 234.861   2
  -1   0  -4 7767.05 234.660   2
   1   0  -4 6484.67 235.435   1
  -1   0  -4 7975.94 239.005   1
  -1  -1  -4 1873.72 92.6605   1
  -1  -1   4 1750.30 95.7502   2
  -1  -1   4 1915.79 92.9900   1
  -1   1   4 1412.12 83.4206   2
   1   1  -4 1583.83 82.9141   2
  -1   1  -4 1827.25 80.9501   2
   1  -1  -4 1463.51 86.3465   2
  -1  -1  -4 1867.41 88.2320   2
  -1   1   4 1499.29 84.9178   1
   1   1  -4 1505.68 84.9187   1
  -1   1  -4 1723.42 80.5296   1
   1  -1  -4 1613.67 92.4634   1
   1  -2  -4 4832.82 199.965   1
  -1  -2   4 5620.46 241.145   2
  -1   2  -4 6286.51 193.241   2
   1   2  -4 5514.36 196.457   2
  -1   2   4 5336.64 201.263   2
  -1   2  -4 5971.67 194.353   1
   1   2  -4 5746.89 199.592   1
   1  -2  -4 4555.39 198.412   2
  -1   2   4 5106.53 200.036   1
  -1  -2   4 5864.71 204.990   1
  -1   3  -4 1443.04 74.1491   2
   1   3  -4 1325.35 74.8711   2
  -1   3  -4 1479.53 73.4702   1
   1   3  -4 1319.14 76.0536   1
  -1  -3   4 1237.78 103.094   1
   2   0  -4 31.7252 36.8873   2
  -2   0  -4 22.8174 42.2214   2
   2   0   4 44.2873 44.8769   1
  -2   0  -4 51.3442 49.8001   1
   2   0   4 35.2122 47.4839   2
   2   0  -4-15.4491 38.2863   1
  -2  -1  -4 10122.3 302.683   1
   2  -1   4 9387.75 380.727   2
   2  -1   4 11371.9 316.915   1
   2   1   4 9523.11 295.839   2
   2   1  -4 7800.48 302.409   2
  -2   1  -4 9792.29 294.511   2
   2   1   4 9183.74 295.813   1
   2  -1  -4 7589.57 306.358   2
  -2  -1  -4 10486.6 311.386   2
   2   1  -4 7678.46 303.279   1
  -2   1  -4 9843.21 295.024   1
   2  -1  -4 7844.89 307.388   1
   2  -2  -4 43.9638 46.8098   2
   2  -2  -4 46.6520 49.7524   1
   2   2   4 18.5580 43.8796   1
  -2   2  -4 23.4057 35.3788   2
   2   2  -4 4.37833 37.2276   2
  -2   2  -4 51.3843 36.6914   1
   2   2   4 27.5609 38.9409   2
   2   2  -4 46.3855 39.2315   1
  -2   3  -4 8427.66 233.219   2
   2   3  -4 6752.03 233.234   2
  -2   3  -4 8635.64 232.135   1
   2   3  -4 6833.20 234.406   1
   2   3   4 6104.19 228.809   2
   2  -3  -4 4372.82 229.116   2
   2   3   4 6132.17 230.147   1
   3   0  -4 38.1252 39.7526   2
  -3   0  -4 110.330 53.0074   2
  -3   0  -4 74.1111 54.2580   1
   3   0   4 39.4118 51.7427   1
   3   0   4 12.7821 87.2981   2
  -3   0   4 1.48926 44.6211   1
  -3   0   4 44.8827 43.5300   2
   3   0  -4-10.0228 42.4802   1
  -3  -1   4 10566.5 376.904   2
   3   1   4 12104.3 355.814   2
  -3   1   4 8852.78 365.791   2
  -3  -1   4 10933.0 374.473   1
   3   1   4 12891.6 357.252   1
   3   1  -4 9460.26 364.800   2
  -3   1  -4 13806.9 355.872   2
   3  -1  -4 9379.07 372.147   2
  -3   1   4 10117.9 372.137   1
   3   1  -4 9395.91 367.853   1
  -3   1  -4 14222.6 356.889   1
   3  -1  -4 9775.26 374.301   1
   3  -2  -4 843.549 73.0156   1
  -3  -2   4 1032.87 77.0469   1
   3   2  -4 731.448 60.8044   2
  -3   2   4 794.607 64.5939   2
   3   2   4 950.792 56.1070   2
   3  -2  -4 769.036 71.9960   2
   3   2  -4 811.274 63.8768   1
  -3   2   4 863.555 68.0917   1
   3   2   4 1091.44 62.1286   1
  -3  -2   4 1039.79 101.951   2
  -3  -3   4 10524.9 472.729   2
  -3  -3   4 12245.9 385.349   1
  -3   3  -4 12718.9 353.910   2
   3   3  -4 10442.0 363.993   2
  -3   3  -4 11896.2 350.404   1
  -3   3   4 10131.0 364.677   2
   3   3   4 10627.6 351.795   2
   3   3  -4 10413.8 364.930   1
  -3   3   4 10005.7 365.234   1
   3   3   4 10370.1 352.931   1
  -3   4   4 172.209 49.4480   2
  -3   4   4 209.086 51.5626   1
   3   4  -4 283.268 48.4856   1
   3   4  -4 286.664 47.3403   2
  -4   0   4 4928.73 187.065   2
   4   0  -4 4655.71 183.913   2
   4   0  -4 4565.12 183.494   1
  -4   1  -4 1464.95 78.8338   1
  -4  -1   4 560.292 70.4743   2
  -4   1   4 417.256 59.3278   2
  -4  -1   4 666.679 68.9974   1
   4   1  -4 552.631 63.2785   2
  -4   1   4 441.317 63.8647   1
   4  -1  -4 578.044 73.2905   2
  -4   1  -4 1451.86 74.2425   2
   4   1  -4 642.028 65.0491   1
  -4  -2   4 2088.57 104.214   1
  -4   2   4 1636.20 92.5489   2
  -4   2  -4 1839.23 68.9196   2
  -4  -2   4 1928.81 128.043   2
   4   2  -4 1599.62 88.1389   2
  -4   2   4 1583.57 92.8179   1
  -4   2  -4 1697.23 69.6853   1
   4   2  -4 1658.51 92.3930   1
  -4  -3   4 3167.50 213.742   2
  -4  -3   4 3951.96 153.482   1
  -4   3  -4 2859.17 108.007   2
   4   3  -4 3237.29 134.691   2
  -4   3  -4 2540.47 105.174   1
  -4   3   4 2998.41 134.288   2
   4   3   4 2578.64 109.622   2
   4   3  -4 3395.23 138.467   1
  -4   3   4 2801.72 138.644   1
   4   3   4 2712.81 111.666   1
  -4  -4   4 2213.53 150.114   1
   4   4  -4 2181.86 103.856   2
   4   4  -4 2220.95 106.525   1
   5   0  -4 7490.16 269.265   2
   5   0  -4 7708.13 271.075   1
   5   1  -4 550.357 65.7443   2
   5  -1  -4 563.294 76.0193   2
   5   1  -4 500.067 64.5233   1
   5  -1  -4 533.415 77.6600   1
   5  -2  -4 6419.28 211.474   1
   5   2  -4 7214.44 202.220   2
  -5   2  -4 5471.13 157.316   2
   5  -2  -4 6413.44 210.862   2
   5   2  -4 7666.08 213.945   1
  -5   2  -4 5507.22 158.066   1
   5   3  -4 40.1174 51.1728   1
   5  -3  -4 52.0136 57.6115   1
   5  -3  -4-4.42098 61.9232   2
  -5   3  -4 10.6920 30.7213   1
   5   3   4 42.8645 35.6544   1
  -5   3  -4 1.23397 31.2403   2
   5   3  -4 42.8396 51.3584   2
   5   3   4 1.32801 34.6397   2
   6   0  -4 2129.16 118.095   2
   6   0  -4 2430.88 127.166   1
  -6  -1   4 2502.63 142.095   2
  -6   1   4 2308.11 123.038   2
  -6   1   4 2417.92 126.878   1
   6   1  -4 2094.42 121.850   2
   6  -1  -4 2153.38 130.507   2
   6   1  -4 2045.81 119.788   1
   6  -1  -4 2564.19 145.944   1
   6  -2  -4 3459.54 186.237   1
  -6  -2   4 5113.04 229.077   2
  -6  -2   4 5252.93 198.065   1
  -6   2   4 4426.75 189.169   2
   6   2  -4 4509.32 184.922   2
  -6   2   4 4524.89 192.971   1
   6  -2  -4 3825.43 189.682   2
   6   2  -4 4403.37 190.057   1
  -6   3   4 220.280 63.5465   1
   6  -3  -4 226.837 73.2779   2
   6  -3  -4 275.746 70.1085   1
   6   3  -4 336.341 66.1523   1
  -6  -3   4 353.992 84.3695   1
  -6  -3   4 173.305 156.472   2
   6   3   4 38.2221 14.9769   1
   6   3   4 42.2944 13.4026   2
  -6   3  -4 63.0521 19.3573   2
  -6   3   4 315.979 67.3392   2
   6   3  -4 349.111 61.1226   2
  -6   3  -4 26.2543 20.5080   1
   6  -4  -4 602.277 89.8522   1
  -6  -4   4 943.661 131.728   1
   6   4  -4 1000.38 85.1429   2
  -6   4   4 793.229 88.5783   2
   6   4  -4 1002.10 84.2672   1
   6  -4  -4 614.845 98.1881   2
  -6   4   4 804.014 93.5382   1
   7   0  -4 408.956 84.4178   2
   7   0  -4 371.910 84.2422   1
  -7   0   4 373.452 78.7239   1
  -7   0   4 400.471 78.6185   2
   7   1  -4 457.753 77.0409   1
   7   1  -4 422.048 74.6665   2
   7  -1  -4 409.862 86.9452   2
  -7  -1   4 609.282 91.5052   1
  -7   1   4 515.156 82.6882   1
   7  -1  -4 491.353 96.5026   1
  -7  -1   4 606.723 110.978   2
  -7   1   4 419.683 77.1926   2
   7  -2  -4 46.6041 76.0761   2
  -7  -2   4 41.1408 73.4239   1
   7  -2  -4-14.5074 80.8227   1
   7   2  -4-4.93329 66.9408   1
  -7  -2   4 48.2693 122.922   2
  -7   2   4-33.8410 68.5828   2
  -7   2   4 58.7731 73.8540   1
   7   2  -4 2.48913 64.5351   2
  -7  -3   4 3422.34 180.904   1
  -7   3   4 2934.81 159.263   2
   7   3  -4 3286.48 155.578   2
  -7   3   4 2660.14 156.187   1
   7   3  -4 3595.23 168.460   1
   7   4  -4 41.3129 57.0017   1
  -7  -4   4 107.651 125.146   1
   7  -4  -4 39.3417 84.4619   2
  -7   4   4 37.6099 71.7433   1
  -7  -4   4 201.675 252.213   2
   7  -4  -4 67.3646 77.0864   1
   7   4  -4 78.3296 58.4237   2
  -7   4   4 96.4918 66.1256   2
   7   4   4 17.6359 17.7791   2
   8   0  -4 3.36745 87.8739   2
  -8   0   4 31.7555 91.6479   1
   8   0  -4-27.1110 90.0315   1
  -8   0   4 60.2372 99.8116   2
   8  -1  -4 2033.95 155.262   1
  -8  -1   4 3022.79 194.275   2
  -8   1   4 2419.88 146.517   2
  -8  -1   4 2731.45 155.970   1
  -8   1   4 2554.04 148.893   1
   8   1  -4 1936.27 131.086   2
   8  -1  -4 1809.88 144.423   2
   8   1  -4 1884.68 134.723   1
   8  -2  -4 890.331 118.930   1
  -8  -2   4 1121.51 123.360   1
  -8   2   4 775.183 103.562   2
  -8   2   4 761.073 107.230   1
   8  -2  -4 808.814 114.698   2
  -8  -2   4 1253.38 192.160   2
   8   2  -4 797.212 94.6263   1
   8   2  -4 748.577 95.6979   2
   0   0  -5-9.15958 49.6541   2
   0   0  -5 20.6928 52.2360   1
   0   0   5-30.8604 50.5681   1
   0   0   5 31.4683 53.6841   2
   0  -1  -5 32.3563 57.9000   2
   0  -1   5-36.8923 64.1629   1
   0  -1   5 24.0462 87.4417   2
   0   1  -5 40.3120 49.4928   1
   0   1   5-15.0512 54.3952   1
   0   1   5-6.51666 55.4580   2
   0  -1  -5-13.1267 64.1159   1
   0   1  -5 9.18348 45.8835   2
   0   2   5 210.045 56.9211   1
   0  -2  -5 208.738 67.8771   2
   0   2  -5 281.928 55.3515   1
   0  -2   5 357.467 82.4819   1
   0  -2  -5 156.880 59.7931   1
   0  -2   5 201.148 159.918   2
   0   2   5 127.818 54.2892   2
   0   2  -5 236.582 51.1444   2
   0   3   5 59.2199 62.9976   1
   0   3  -5-13.9178 53.6576   2
   0   3  -5-39.5738 57.7762   1
   0   3   5 14.4312 59.6380   2
   0   4  -5 110.464 53.5396   1
   0   4  -5 56.3114 49.0111   2
   0   4   5 90.5644 59.0033   1
   0   4   5 75.2313 55.4674   2
   1   0  -5-16.7014 44.9577   2
   1   0  -5 1.63259 50.5470   1
   1   0   5 1.77197 61.3378   1
  -1   0   5 41.3638 57.1684   1
   1   0   5 35.9141 68.9815   2
  -1   0   5 8.75121 53.8997   2
   1  -1  -5 1024.76 88.5147   1
   1  -1   5 1448.18 156.792   2
  -1  -1   5 1182.08 103.557   2
   1   1   5 993.691 76.3621   2
  -1   1   5 992.505 78.1127   2
  -1  -1   5 1189.26 88.6402   1
   1   1  -5 882.009 73.2313   2
   1   1   5 957.505 78.1183   1
  -1   1   5 798.379 76.6497   1
   1  -1  -5 904.834 80.4547   2
   1   1  -5 922.844 73.3863   1
  -1   2   5 309.496 60.9395   1
   1  -2  -5 312.463 68.1102   2
   1  -2   5 695.096 115.655   1
   1   2  -5 350.592 57.9671   1
  -1  -2   5 526.565 92.1858   1
   1  -2   5 469.355 241.727   2
  -1  -2   5 393.966 145.797   2
   1  -2  -5 426.699 71.1868   1
   1   2   5 431.711 64.9101   2
  -1   2   5 363.039 61.1268   2
   1   2  -5 302.241 52.4441   2
   1   2   5 450.635 62.6137   1
   1  -3  -5 43.3285 65.2264   2
  -1  -3   5 109.670 97.7435   1
  -1   3   5 56.4316 62.8779   1
   1  -3  -5 40.6909 59.1833   1
   1   3   5 35.5768 62.2545   1
  -1  -3   5 67.2655 230.167   2
   1   3  -5 35.1033 52.0174   2
   1   3  -5 43.9438 55.7871   1
  -1   3   5 128.246 62.0128   2
   1   3   5 29.0890 57.4921   2
   1   4   5 294.075 60.2839   2
   1   4  -5 455.228 59.6502   2
   1   4  -5 397.451 62.2932   1
  -1   4   5 249.706 64.8797   1
   1   4   5 328.693 61.6673   1
  -1   4   5 202.449 63.5272   2
  -2   0  -5 39.5950 62.2915   2
   2   0   5-13.3057 64.6504   1
  -2   0   5 12.1210 52.8290   1
   2   0   5 43.5256 84.1611   2
  -2   0  -5-15.0111 71.0788   1
  -2   0   5-20.1318 52.7727   2
  -2  -1  -5 444.296 81.6413   2
   2  -1   5 669.755 95.3834   1
  -2  -1  -5 466.342 76.5973   1
  -2  -1   5 468.934 73.6435   1
  -2   1  -5 523.381 58.2282   2
   2   1   5 454.782 64.7056   1
   2  -1   5 216.485 195.373   2
  -2  -1   5 291.596 78.3418   2
   2   1   5 392.925 64.8372   2
  -2   1   5 339.564 61.5675   1
  -2   1   5 388.180 61.7402   2
  -2   1  -5 463.814 59.9818   1
  -2   2   5 221.521 58.8908   1
  -2  -2   5 248.000 68.2961   1
  -2   2  -5 219.316 55.3996   1
  -2  -2   5 181.224 103.754   2
   2   2   5 295.240 61.1482   2
  -2   2   5 152.130 55.7667   2
  -2   2  -5 258.235 53.7317   2
   2   2   5 237.029 62.0355   1
  -2  -3   5 1591.70 121.021   1
  -2   3  -5 2046.18 98.3861   2
  -2   3   5 1578.63 106.477   2
   2   3   5 1743.02 100.380   2
  -2   3  -5 2004.79 99.8463   1
  -2  -3   5 1376.87 209.489   2
  -2   3   5 1497.74 108.216   1
   2   3   5 1823.70 107.180   1
   2   4   5 257.224 63.2208   2
  -2   4   5 214.390 63.8706   1
  -2   4   5 283.507 64.2780   2
   2   4   5 291.770 63.0754   1
   3   0  -5 7.08812 45.0362   2
  -3   0  -5 23.7362 87.6072   2
   3   0  -5 11.4208 50.8311   1
   3   0   5 54.9935 87.9048   1
  -3   0   5 14.7215 54.8965   1
  -3   0  -5 81.2816 84.0935   1
   3   0   5-98.1890 146.511   2
  -3   0   5-5.83079 56.8272   2
   3  -1  -5 396.558 70.6329   2
   3   1   5 879.262 84.3042   2
  -3   1   5 586.354 69.6073   2
  -3  -1   5 608.996 79.7415   1
   3   1   5 839.273 78.6618   1
   3   1  -5 478.191 62.8439   2
  -3   1  -5 1073.88 79.5745   2
   3  -1  -5 538.259 85.2993   1
  -3  -1   5 505.685 84.8113   2
  -3   1   5 547.399 70.3792   1
   3   1  -5 524.836 67.3870   1
  -3   1  -5 961.901 79.2170   1
   3  -2  -5 105.340 62.1362   2
   3  -2  -5 160.944 70.6073   1
  -3  -2   5 189.051 70.3825   1
   3   2  -5 178.553 63.5005   1
  -3   2  -5 252.690 56.5588   1
  -3  -2   5 233.842 114.768   2
   3   2   5 217.627 59.3339   1
   3   2   5 187.520 54.8065   2
  -3   2   5 166.720 59.6878   2
   3   2  -5 197.724 58.9167   2
  -3   2  -5 171.641 49.1026   2
  -3   2   5 115.664 60.8734   1
   3   3  -5 464.072 67.2914   1
   3  -3  -5 191.989 67.5075   2
  -3  -3   5 663.321 90.7203   1
  -3   3   5 522.659 77.1916   1
   3   3   5 548.214 70.9238   1
   3   3   5 546.184 63.9659   2
   3  -3  -5 222.170 63.9076   1
  -3   3  -5 534.489 60.0550   1
  -3  -3   5 783.633 175.612   2
  -3   3  -5 391.113 56.4097   2
   3   3  -5 361.620 61.5787   2
  -3   3   5 478.016 68.2646   2
   3  -4  -5 2.42169 65.7864   2
  -3   4   5 37.0834 58.7872   1
   3  -4  -5-12.9744 59.3216   1
   3   4  -5-2.12943 49.4488   2
   3   4  -5 15.2806 53.4985   1
   3   4   5 16.4684 52.1404   1
  -3   4   5 26.4304 56.9189   2
   3   4   5 36.9702 52.0886   2
  -4   0   5-23.8403 57.0348   1
  -4   0   5 52.4234 57.3576   2
  -4   1  -5 692.541 112.408   2
   4   1   5 233.353 70.7108   1
  -4  -1   5 164.198 67.5168   1
   4   1   5 107.748 118.689   2
  -4  -1   5 281.467 81.7622   2
  -4   1   5 134.073 61.1722   1
  -4   1   5 154.241 58.9383   2
  -4   1  -5 764.365 123.938   1
   4  -2  -5 2.31474 63.1346   2
   4  -2  -5 32.4783 64.3223   1
  -4  -2   5 32.8431 67.9471   1
   4   2  -5 28.2947 59.8624   1
   4   2   5 32.8088 51.3971   1
  -4  -2   5 64.3705 102.576   2
   4   2   5 46.3046 49.3725   2
  -4   2   5 49.4684 59.4334   2
  -4   2  -5 31.1666 49.3177   1
  -4   2   5 37.1511 64.9279   1
   4   2  -5-6.76007 57.4032   2
  -4   2  -5 32.8286 47.4451   2
  -4   3  -5 11.9684 41.0980   1
   4   3   5-39.0314 48.4175   1
   4  -3  -5-14.5735 59.7678   1
   4   3  -5-6.11563 52.5639   1
  -4   3   5-11.0148 56.8660   1
   4  -3  -5 23.8636 64.1800   2
  -4  -3   5-21.6696 78.3107   1
  -4  -3   5 76.0202 160.261   2
  -4   3  -5 15.0259 39.2379   2
   4   3   5-15.6924 45.1220   2
   4   3  -5 77.6779 54.8098   2
  -4   3   5 6.26621 50.0544   2
  -4  -4   5 253.123 110.192   1
   4  -4  -5 79.4340 74.7338   2
   4  -4  -5 160.055 70.7747   1
  -4   4   5 117.337 72.0603   1
  -4   4  -5 128.377 47.0121   1
  -4   4  -5 138.822 45.2031   2
   4   4   5 236.115 54.4265   1
   4   4  -5 227.743 61.7762   2
   4   4  -5 211.572 67.2488   1
  -4   4   5 34.1847 63.7413   2
   4   4   5 166.626 55.2900   2
  -5   0   5 41.9328 60.0305   1
  -5   0   5-22.4132 63.9437   2
  -5  -1   5 179.390 77.5438   1
  -5   1   5 94.6671 68.8756   1
  -5  -1   5 236.375 84.9857   2
  -5   1   5 70.1462 63.9143   2
  -5   2  -5 74.7875 124.026   2
  -5  -2   5 81.2765 72.8005   1
  -5   2  -5 27.9996 144.100   1
  -5  -2   5 3.86924 107.383   2
  -5   2   5 18.9743 63.5472   2
  -5   2   5 77.7057 70.2810   1
  -5   3   5 30.7322 63.8358   1
  -5  -3   5 121.887 82.1221   1
  -5   3  -5 6.06437 50.1682   1
  -5  -3   5 181.570 177.496   2
  -5   3   5-45.8055 64.9689   2
  -5   3  -5-19.3323 43.2003   2
  -5  -4   5 384.909 109.959   1
  -5   4   5 195.129 76.6168   1
  -5  -4   5 45.6444 241.789   2
  -5   4  -5 60.8107 42.1911   1
  -5   4  -5 97.8713 40.3463   2
  -5   4   5 99.3281 63.9728   2
   6   0  -5 57.6017 70.1047   2
   6   0  -5-16.8391 71.0037   1
   6   1  -5 244.460 70.3218   2
   6   1  -5 280.608 72.5385   1
   6  -1  -5 201.624 81.6187   2
   6  -1  -5 390.556 95.6125   1
   6  -2  -5 16.7556 75.7918   2
   6  -2  -5 88.7556 82.2612   1
   6   2  -5 28.1030 68.5789   1
   6   2  -5 15.7381 66.7439   2
   6  -3  -5-17.6277 69.1542   1
   6  -3  -5-17.3369 75.0813   2
   6   3  -5-34.5917 73.9245   1
   6   3  -5-49.6179 67.4771   2
   6   4  -5 445.262 73.9562   1
   6  -4  -5 267.226 86.2763   1
   6  -4  -5 351.808 93.1048   2
  -6   4  -5 49.7570 36.1970   2
   6   4   5 95.9460 35.7640   2
   6   4  -5 404.899 69.9056   2
  -6   4  -5 30.8232 37.5026   1
   6   4   5 78.9713 36.8283   1
   0   0   6 21125.9 670.413   2
   0   0   6 18783.1 652.318   1
   0   0  -6 19531.9 650.677   2
   0   0  -6 21047.5 657.357   1
   0   1  -6-15.4247 60.4641   2
   0   1  -6 68.0088 64.9241   1
   0  -1  -6-16.7664 78.8689   2
   0  -1  -6 28.8937 79.9757   1
   0  -1   6-18.2295 88.2571   1
   0   1   6-24.6171 72.0326   1
   0  -1   6 13.4363 144.869   2
   0   1   6 2.34508 71.5467   2
   0  -2  -6 2193.23 126.513   1
   0  -2   6 2916.98 320.448   2
   0  -2   6 2922.22 176.946   1
   0   2   6 1851.65 128.704   2
   0   2  -6 2780.11 129.686   2
   0   2   6 2066.74 135.522   1
   0  -2  -6 1684.45 132.458   2
   0   2  -6 2812.70 130.116   1
   0   3   6 15.8946 70.7823   1
   0   3  -6-29.0231 64.5260   1
   0   3   6 23.2165 70.4974   2
   0   3  -6-1.96278 59.1735   2
   0   4  -6 1234.82 103.430   2
   0   4  -6 1409.84 106.715   1
  -1   0  -6 2312.19 137.306   1
   1   0   6 1904.33 155.383   2
  -1   0   6 1536.93 130.651   2
   1   0   6 2584.59 143.557   1
  -1   0   6 1779.98 127.147   1
   1   0  -6 1488.19 112.881   2
  -1   0  -6 1496.17 118.322   2
   1   0  -6 1684.83 118.883   1
   1   1  -6 286.556 65.2523   2
   1   1  -6 237.569 67.9038   1
  -1   1  -6 301.122 66.4459   2
   1  -1  -6 223.824 78.9519   2
  -1  -1  -6 333.215 92.5178   2
  -1   1  -6 283.209 70.4824   1
   1  -1   6 519.826 126.746   1
  -1  -1   6 331.462 88.2308   1
   1   1   6 241.956 73.7542   1
  -1   1   6 257.750 77.9060   1
   1  -1   6 294.122 214.186   2
  -1  -1   6 300.005 116.906   2
   1   1   6 205.295 73.7835   2
  -1   1   6 246.061 76.4358   2
  -1  -1  -6 233.828 95.8653   1
   1  -1  -6 255.956 83.5076   1
   1  -2  -6 1212.53 105.375   1
  -1  -2  -6 1148.54 122.124   1
  -1  -2  -6 853.223 126.870   2
   1  -2   6 1638.76 183.917   1
  -1  -2   6 1646.06 147.910   1
   1   2   6 1218.66 102.727   2
  -1   2   6 1063.48 102.131   2
   1   2  -6 1176.67 98.7339   2
  -1   2  -6 1447.11 95.0986   2
   1   2   6 1053.06 103.243   1
  -1   2   6 835.215 100.611   1
   1  -2  -6 1180.42 107.142   2
   1  -2   6 609.008 359.654   2
  -1  -2   6 1233.25 215.693   2
   1   2  -6 1194.46 97.4590   1
  -1   2  -6 1516.17 96.5083   1
   1   3   6 212.556 76.6123   1
  -1   3   6 240.335 79.7175   1
   1  -3  -6 293.066 96.1984   2
  -1  -3   6 342.602 145.153   1
   1   3  -6 329.420 72.0335   1
  -1   3  -6 316.590 76.4945   1
  -1  -3   6 102.924 343.766   2
   1  -3  -6 187.327 83.3132   1
   1   3   6 266.052 77.4639   2
  -1   3   6 310.748 79.9047   2
   1   3  -6 301.348 68.4687   2
  -1   3  -6 311.574 69.0370   2
  -1   4  -6 1844.18 115.481   2
  -1   4  -6 2120.88 120.973   1
   1   4  -6 1894.92 122.666   1
   2   0  -6 74.2557 68.3372   2
  -2   0  -6 80.7843 92.9636   1
  -2   0  -6-32.5335 90.7548   2
   2   0   6 10.1207 93.2726   1
   2   0  -6 7.36588 73.9028   1
  -2   0   6-72.6583 76.7927   1
   2   0   6 74.1981 158.192   2
  -2   0   6-47.3253 78.3673   2
  -2  -1  -6 2034.99 146.499   1
   2  -1   6 2939.73 198.105   1
  -2  -1   6 2083.38 163.773   2
   2   1   6 2058.69 144.907   2
  -2   1   6 1588.59 121.286   2
  -2  -1   6 2188.52 135.734   1
   2   1   6 2046.54 136.775   1
  -2   1   6 1522.70 119.967   1
  -2   1  -6 2265.79 126.550   2
  -2  -1  -6 2320.80 162.414   2
   2  -1   6 1706.34 384.317   2
  -2   1  -6 2490.38 133.112   1
   2  -2  -6-48.2164 77.4247   2
   2   2  -6-16.2095 67.8206   1
   2  -2  -6 17.7420 78.5934   1
   2   2   6-24.0705 73.8265   1
   2   2   6 18.1920 72.4027   2
  -2   2  -6-6.95218 66.1074   1
   2   2  -6-34.9933 69.8224   2
  -2   2  -6-21.6808 65.2301   2
   2  -3  -6 903.446 101.129   1
  -2  -3   6 2188.98 158.938   1
   2   3   6 1259.39 108.676   2
   2   3  -6 1645.44 107.082   2
  -2   3  -6 1734.20 98.9294   2
   2   3   6 1388.21 111.029   1
   2  -3  -6 1005.68 108.404   2
  -2   3   6 1501.77 112.230   1
  -2  -3   6 1435.85 308.466   2
   2   3  -6 1735.52 120.045   1
  -2   3  -6 1552.98 105.016   1
  -2   4   6 16.8330 76.7375   1
   2   4   6-30.9786 76.9177   1
  -2   4  -6 55.4260 60.4406   2
   2   4  -6-5.02252 61.4677   2
  -2   4   6-40.2244 68.3608   2
   2   4   6 4.16879 68.0310   2
   2   4  -6 32.0529 67.1768   1
   3   0  -6 53.6315 70.8103   2
  -3   0  -6 47.4343 162.782   2
   3   0   6-9.39314 136.364   1
   3   0  -6 65.4143 75.3221   1
  -3   0   6 47.6197 69.1602   1
   3   0   6 146.153 306.008   2
  -3   0   6-19.0282 78.7318   2
  -3   0  -6-19.4087 146.103   1
  -3   1  -6 4478.11 191.344   1
   3  -1  -6 2321.49 152.571   1
   3   1   6 2750.58 185.617   2
  -3  -1   6 2729.20 177.917   2
  -3   1   6 2197.75 136.920   2
   3   1   6 3299.03 158.412   1
  -3  -1   6 2507.67 149.709   1
  -3   1   6 2517.60 139.977   1
   3   1  -6 2021.99 131.440   2
  -3   1  -6 4339.25 175.085   2
   3  -1  -6 2153.34 142.361   2
   3   1  -6 2400.98 138.326   1
  -3   2  -6 330.506 70.1572   2
  -3   2  -6 192.190 70.4566   1
   3  -2  -6 139.317 78.3629   2
  -3  -2   6 348.497 93.7861   1
   3  -2  -6 265.067 84.9660   1
   3   2   6 285.835 78.4755   1
   3   2  -6 254.756 75.0958   1
  -3  -2   6 397.372 158.769   2
   3   2   6 236.283 74.8478   2
  -3   2   6 215.640 70.7661   2
  -3   2   6 175.808 74.0817   1
   3   2  -6 271.585 73.2069   2
   3  -3  -6 1862.64 130.498   1
  -3  -3   6 2591.45 301.260   2
  -3  -3   6 3329.12 183.376   1
   3   3   6 2543.91 133.848   2
  -3   3   6 2363.84 146.569   2
   3   3  -6 3061.85 145.474   2
  -3   3  -6 2564.06 122.543   2
   3   3   6 2783.68 140.380   1
   3  -3  -6 1993.61 138.572   2
  -3   3   6 2253.76 147.189   1
   3   3  -6 3252.57 156.176   1
  -3   3  -6 2350.37 129.013   1
   3   4  -6 7.43210 68.8150   1
  -3   4   6 23.6068 69.3967   1
   3  -4  -6 8.88828 83.4579   2
   3   4   6-6.21947 76.4270   1
   3  -4  -6-21.1739 76.1187   1
  -3   4  -6 35.2602 53.6647   2
   3   4  -6 101.815 65.5637   2
   3   4   6 50.0855 66.0290   2
  -3   4   6-64.7131 65.6447   2
  -3   4  -6 34.5506 56.3256   1
  -4   0   6 1442.52 114.255   2
  -4   0   6 1241.55 108.891   1
   4   0  -6 1313.74 111.187   2
   4   0  -6 1241.29 113.162   1
   4   1  -6 82.4370 66.7153   2
   4   1  -6 93.0439 69.3245   1
   4  -1  -6 133.594 78.3415   2
  -4   1  -6 324.872 210.312   2
   4   1   6 126.214 116.379   1
  -4  -1   6 114.787 81.3560   1
  -4   1   6 101.222 76.7879   1
   4   1   6 280.639 227.289   2
  -4   1  -6 146.852 200.003   1
  -4  -1   6 96.6088 99.9830   2
  -4   1   6 100.394 74.7178   2
   4  -1  -6 80.1318 89.3147   1
  -4   2  -6 294.093 104.658   2
   4  -2  -6 240.486 86.1091   2
  -4  -2   6 454.407 92.2877   1
   4  -2  -6 204.697 87.8520   1
   4   2   6 284.326 88.0912   1
  -4   2  -6 439.040 110.386   1
  -4  -2   6 504.142 144.354   2
   4   2  -6 308.921 79.3626   1
   4   2   6 353.122 96.6508   2
  -4   2   6 178.261 83.7767   1
  -4   2   6 281.052 81.2517   2
   4   2  -6 308.867 75.5500   2
   4  -3  -6 374.384 93.8889   2
  -4  -3   6 1051.88 130.415   1
   4   3   6 590.310 72.8690   2
  -4   3   6 785.934 98.8970   2
   4   3  -6 717.418 98.7422   1
   4  -3  -6 554.749 93.2006   1
  -4   3   6 762.255 99.7061   1
  -4   3  -6 580.124 74.7283   1
  -4  -3   6 715.284 225.705   2
   4   3   6 614.083 77.1733   1
   4   3  -6 622.313 91.7753   2
  -4   3  -6 464.876 73.9285   2
   4   4   6 246.535 64.5559   1
  -4   4  -6 135.367 59.8001   1
  -4   4   6 321.685 76.9356   1
   4   4  -6 425.595 85.4348   1
  -4  -4   6 707.204 158.539   1
   4  -4  -6 287.111 94.3494   2
  -4  -4   6 184.235 285.343   2
   4  -4  -6 388.604 87.9246   1
   4   4   6 364.612 64.5117   2
  -4   4  -6 123.244 52.2351   2
  -4   4   6 339.072 74.5928   2
   4   4  -6 537.834 82.6401   2
  -5   0   6 2439.15 151.490   2
  -5   0   6 2399.53 146.242   1
   5   0  -6 2298.82 147.352   2
   5   0  -6 2317.06 150.067   1
   5   1  -6 138.483 72.3985   2
   5  -1  -6 148.452 86.3243   2
   5   1  -6 207.678 76.8656   1
  -5  -1   6 239.096 87.7724   1
  -5   1   6 112.112 76.8042   1
  -5  -1   6 170.447 112.139   2
  -5   1   6 138.017 78.2667   2
   5  -1  -6-73.7453 94.6812   1
   0   0   7-24.0208 114.358   1
   0   0   7 4.97609 153.595   2
   0   0  -7-34.0664 98.2687   1
   0  -1   7-8.11884 127.964   1
   0   1   7-49.8138 95.2135   1
   0  -1   7-158.639 256.331   2
   0   1   7 3.38447 102.855   2
   0   0   0    0.00    0.00   0

TITL AVG112_2p75_ in Pbcm
REM Pbcm (#57, found as Pmca in bca setting)
CELL 0.49276   7.970242  10.714307   5.624674  90.0000  90.0000  90.0000
ZERR    4.00   0.000759   0.009280   0.000411   0.0000   0.0000   0.0000
LATT  1
SYMM -x,-y, z+1/2
SYMM -x, y+1/2,-z+1/2
SYMM  x,-y+1/2,-z
SFAC C H N O Cu
UNIT 20.00 8.00 12.00 4.00 4.00
TREF
HKLF 4
END
;
_shelx_hkl_checksum              59607
loop_
_symmetry_equiv_pos_as_xyz
'x, y, z'
'-x, -y, z+1/2'
'-x, y+1/2, -z+1/2'
'x, -y+1/2, -z'
'-x, -y, -z'
'x, y, -z-1/2'
'x, -y-1/2, z-1/2'
'-x, y-1/2, z'
loop_
_atom_site_label
_atom_site_fract_x
_atom_site_fract_y
_atom_site_fract_z
_atom_site_U_iso_or_equiv
_atom_site_adp_type
_atom_site_calc_flag
_atom_site_occupancy
_atom_site_disorder_assembly
_atom_site_disorder_group
_atom_site_type_symbol
C5 0.5459(12) 0.363(3) 0.25 0.027(3) Uiso d 1 . . C
N3 0.6825(13) 0.331(3) 0.25 0.037(3) Uiso d 1 . . N
O1 0.2799(13) 0.191(3) 0.25 0.033(3) Uiso d 1 . . O
Cu1 -0.10157(17) 0.2340(4) 0.25 0.039(3) Uani d 1 . . Cu
N1 0.0844(11) 0.347(3) 0.25 0.024(2) Uiso d 1 . . N
C1 0.0551(16) 0.469(4) 0.25 0.027(3) Uiso d 1 . . C
H1 -0.056797 0.493149 0.25 0.032 Uiso calc 1 . . H
N2 0.1710(12) 0.561(3) 0.25 0.030(3) Uiso d 1 . . N
C2 0.3314(14) 0.525(3) 0.25 0.024(3) Uiso d 1 . . C
H2 0.415805 0.585356 0.25 0.029 Uiso calc 1 . . H
C3 0.3725(14) 0.401(3) 0.25 0.025(2) Uiso d 1 . . C
C4 0.2507(16) 0.302(4) 0.25 0.025(3) Uiso d 1 . . C
loop_
_atom_site_aniso_label
_atom_site_aniso_U_11
_atom_site_aniso_U_22
_atom_site_aniso_U_33
_atom_site_aniso_U_12
_atom_site_aniso_U_13
_atom_site_aniso_U_23
Cu1 0.0205(13) 0.057(10) 0.0406(13) -0.0013(10) 0 0
loop_
_atom_type_symbol
_atom_type_description
_atom_type_scat_dispersion_real
_atom_type_scat_dispersion_imag
_atom_type_scat_source
C C 0.0033 0.0016 'International Tables Vol C Tables 4.2.6.8 and 6.1.1.4'
H H 0 0 'International Tables Vol C Tables 4.2.6.8 and 6.1.1.4'
N N 0.0061 0.0033 'International Tables Vol C Tables 4.2.6.8 and 6.1.1.4'
O O 0.0106 0.006 'International Tables Vol C Tables 4.2.6.8 and 6.1.1.4'
Cu Cu 0.3201 1.2651 'International Tables Vol C Tables 4.2.6.8 and 6.1.1.4'
loop_
_geom_angle_atom_site_label_1
_geom_angle_atom_site_label_2
_geom_angle_atom_site_label_3
_geom_angle
_geom_angle_site_symmetry_1
_geom_angle_site_symmetry_3
_geom_angle_publ_flag
N3 C5 C3 179(3) . . ?
C5 N3 Cu1 166(3) . 1_655 ?
N1 Cu1 N2 145.9(10) . 3_545 ?
N1 Cu1 N3 109.5(14) . 1_455 ?
N2 Cu1 N3 104.6(9) 3_545 1_455 ?
N1 Cu1 Cu1 85.60(13) . 7_566 ?
N2 Cu1 Cu1 96.67(16) 3_545 7_566 ?
N3 Cu1 Cu1 86.40(13) 1_455 7_566 ?
N1 Cu1 Cu1 85.60(13) . 7_565 ?
N2 Cu1 Cu1 96.67(16) 3_545 7_565 ?
N3 Cu1 Cu1 86.40(13) 1_455 7_565 ?
Cu1 Cu1 Cu1 166.1(3) 7_566 7_565 ?
C1 N1 C4 120(2) . . ?
C1 N1 Cu1 119.1(12) . . ?
C4 N1 Cu1 121(3) . . ?
N2 C1 N1 126.8(17) . . ?
C2 N2 C1 117(3) . . ?
C2 N2 Cu1 123(2) . 3 ?
C1 N2 Cu1 120.3(14) . 3 ?
N2 C2 C3 120(2) . . ?
C2 C3 C4 123.7(15) . . ?
C2 C3 C5 120(2) . . ?
C4 C3 C5 116(3) . . ?
O1 C4 N1 121(3) . . ?
O1 C4 C3 126.5(14) . . ?
N1 C4 C3 112(3) . . ?
loop_
_geom_bond_atom_site_label_1
_geom_bond_atom_site_label_2
_geom_bond_site_symmetry_2
_geom_bond_distance
_geom_bond_publ_flag
C5 N3 . 1.139(19) ?
C5 C3 . 1.44(2) ?
N3 Cu1 1_655 2.012(19) ?
O1 C4 . 1.21(4) ?
Cu1 N1 . 1.92(2) ?
Cu1 N2 3_545 1.94(3) ?
Cu1 Cu1 7_566 2.8333(10) ?
Cu1 Cu1 7_565 2.8333(10) ?
N1 C1 . 1.32(4) ?
N1 C4 . 1.41(2) ?
C1 N2 . 1.35(4) ?
N2 C2 . 1.334(18) ?
C2 C3 . 1.37(4) ?
C3 C4 . 1.44(4) ?
