#------------------------------------------------------------------------------
#$Date: 2020-09-06 11:24:31 +0300 (Sun, 06 Sep 2020) $
#$Revision: 255986 $
#$URL: file:///home/coder/svn-repositories/cod/cif/7/12/68/7126858.cif $
#------------------------------------------------------------------------------
#
# This file is available in the Crystallography Open Database (COD),
# http://www.crystallography.net/
#
# All data on this site have been placed in the public domain by the
# contributors.
#
data_7126858
loop_
_publ_author_name
'Garc\'ia-Valdivia, Antonio A'
'Romero, Francisco J.'
'Cepeda, Javier'
'Morales, Diego P.'
'Casati, Nicola'
'Mota, Antonio J.'
'Zotti, Linda A.'
'Palacios, Juan J.'
'Choquesillo-Lazarte, Duane'
'F Salmer\'on, Jos\'e'
'Rivadeneyra, Almudena'
'Rodr\'iguez-Di\'eguez, Antonio'
_publ_section_title
;
 Rational design of an unusual 2D-MOF based on Cu(i) and
 4-hydroxypyrimidine-5-carbonitrile as linker with conductive
 capabilities: a theoretical approach based on high-pressure XRD.
;
_journal_issue                   66
_journal_name_full
'Chemical communications (Cambridge, England)'
_journal_page_first              9473
_journal_page_last               9476
_journal_paper_doi               10.1039/d0cc03564e
_journal_volume                  56
_journal_year                    2020
_chemical_formula_moiety         'C5 H2 Cu N3 O'
_chemical_formula_sum            'C5 H2 Cu N3 O'
_chemical_formula_weight         183.64
_space_group_crystal_system      orthorhombic
_space_group_IT_number           57
_space_group_name_Hall           '-P 2c 2b'
_space_group_name_H-M_alt        'P b c m'
_atom_sites_solution_hydrogens   geom
_audit_creation_date             2019-08-04
_audit_creation_method
;
Olex2 1.2
(compiled 2018.05.29 svn.r3508 for OlexSys, GUI svn.r5506)
;
_audit_update_record
;
2020-03-01 deposited with the CCDC.	2020-07-09 downloaded from the CCDC.
;
_cell_angle_alpha                90
_cell_angle_beta                 90
_cell_angle_gamma                90
_cell_formula_units_Z            4
_cell_length_a                   8.056(3)
_cell_length_b                   10.787(3)
_cell_length_c                   6.0093(18)
_cell_measurement_reflns_used    718
_cell_measurement_temperature    100(2)
_cell_measurement_theta_max      23.317
_cell_measurement_theta_min      2.528
_cell_volume                     522.2(3)
_computing_cell_refinement       'SAINT v8.37A (Bruker, 2015)'
_computing_data_collection       'Bruker Apex3, 2016'
_computing_data_reduction        'SAINT v8.37A (Bruker, 2015)'
_computing_molecular_graphics    'Olex2 (Dolomanov et al., 2009)'
_computing_publication_material  'Olex2 (Dolomanov et al., 2009)'
_computing_structure_refinement  'XL (Sheldrick, 2008)'
_computing_structure_solution    'XT (Sheldrick, 2015)'
_diffrn_ambient_temperature      100(2)
_diffrn_measured_fraction_theta_full 1.000
_diffrn_measured_fraction_theta_max 1.000
_diffrn_measurement_device_type  'Bruker D8 Venture'
_diffrn_measurement_method       '\f and \w scans'
_diffrn_radiation_type           MoK\a
_diffrn_radiation_wavelength     0.71073
_diffrn_reflns_av_R_equivalents  0.0736
_diffrn_reflns_av_unetI/netI     0.0540
_diffrn_reflns_Laue_measured_fraction_full 1.000
_diffrn_reflns_Laue_measured_fraction_max 1.000
_diffrn_reflns_limit_h_max       8
_diffrn_reflns_limit_h_min       -7
_diffrn_reflns_limit_k_max       12
_diffrn_reflns_limit_k_min       -11
_diffrn_reflns_limit_l_max       6
_diffrn_reflns_limit_l_min       -6
_diffrn_reflns_number            2123
_diffrn_reflns_point_group_measured_fraction_full 1.000
_diffrn_reflns_point_group_measured_fraction_max 1.000
_diffrn_reflns_theta_full        23.307
_diffrn_reflns_theta_max         23.307
_diffrn_reflns_theta_min         2.528
_diffrn_source                   'high brilliance microfocus sealed tube'
_diffrn_standards_number         0
_exptl_absorpt_coefficient_mu    4.082
_exptl_absorpt_correction_T_max  0.7449
_exptl_absorpt_correction_T_min  0.5610
_exptl_absorpt_correction_type   multi-scan
_exptl_absorpt_process_details
'SADABS-2014/5 (Bruker,2014/5) was used for absorption correction. wR2(int) was 0.0696 before and 0.0563 after correction. The Ratio of minimum to maximum transmission is 0.7531. The \l/2 correction factor is 0.00150.'
_exptl_crystal_colour            'dark green'
_exptl_crystal_colour_modifier   dark
_exptl_crystal_colour_primary    green
_exptl_crystal_density_diffrn    2.336
_exptl_crystal_description       block
_exptl_crystal_F_000             360
_exptl_crystal_size_max          0.12
_exptl_crystal_size_mid          0.1
_exptl_crystal_size_min          0.1
_refine_diff_density_max         0.472
_refine_diff_density_min         -0.497
_refine_diff_density_rms         0.123
_refine_ls_extinction_method     none
_refine_ls_goodness_of_fit_ref   1.129
_refine_ls_hydrogen_treatment    constr
_refine_ls_matrix_type           full
_refine_ls_number_parameters     61
_refine_ls_number_reflns         418
_refine_ls_number_restraints     78
_refine_ls_restrained_S_all      1.030
_refine_ls_R_factor_all          0.0467
_refine_ls_R_factor_gt           0.0303
_refine_ls_shift/su_max          0.000
_refine_ls_shift/su_mean         0.000
_refine_ls_structure_factor_coef Fsqd
_refine_ls_weighting_details
'w=1/[\s^2^(Fo^2^)+(0.0238P)^2^+0.3366P] where P=(Fo^2^+2Fc^2^)/3'
_refine_ls_weighting_scheme      calc
_refine_ls_wR_factor_gt          0.0618
_refine_ls_wR_factor_ref         0.0658
_reflns_Friedel_coverage         0.000
_reflns_number_gt                346
_reflns_number_total             418
_reflns_threshold_expression     'I > 2\s(I)'
_iucr_refine_instructions_details
;
TITL AGV112 in Pbcm
    agv112.res
    created by SHELXL-2018/3 at 23:14:53 on 04-Aug-2019
CELL 0.71073 8.0564 10.7871 6.0093 90 90 90
ZERR 4 0.0027 0.0029 0.0018 0 0 0
LATT 1
SYMM -X,-Y,0.5+Z
SYMM -X,0.5+Y,0.5-Z
SYMM +X,0.5-Y,-Z
SFAC C H Cu N O
UNIT 20 8 4 12 4
RIGU 0.001 0.001
ISOR 0.001 0.02 C4 C2

L.S. 20
PLAN  8
SIZE 0.12 0.1 0.1
TEMP -173(2)
BOND $H
list 4
fmap 2
acta
MERG 2
REM <olex2.extras>
REM <HklSrc "%.\\cylindrical.hkl">
REM </olex2.extras>

WGHT    0.023800    0.336600
FVAR       0.12298
CU1   3   -0.109061    0.237865    0.250000    10.50000    0.00848    0.00808 =
         0.02455    0.00000    0.00000   -0.00090
C1    1    0.052933    0.473255    0.250000    10.50000    0.00767    0.01104 =
         0.01724    0.00000    0.00000    0.00033
AFIX  43
H1    2   -0.059314    0.500239    0.250000    10.50000   -1.20000
AFIX   0
C2    1    0.328367    0.522595    0.250000    10.50000    0.00944    0.00997 =
         0.00949    0.00000    0.00000   -0.00032
AFIX  43
H2    2    0.415325    0.582078    0.250000    10.50000   -1.20000
AFIX   0
C3    1    0.367418    0.398849    0.250000    10.50000    0.01191    0.01066 =
         0.01302    0.00000    0.00000    0.00058
C4    1    0.239203    0.305066    0.250000    10.50000    0.01089    0.01051 =
         0.00982    0.00000    0.00000    0.00032
C5    1    0.537425    0.361341    0.250000    10.50000    0.01277    0.00450 =
         0.01426    0.00000    0.00000   -0.00118
N1    4    0.077196    0.351120    0.250000    10.50000    0.01060    0.01064 =
         0.01617    0.00000    0.00000    0.00013
N2    4    0.168314    0.562103    0.250000    10.50000    0.00887    0.01104 =
         0.01713    0.00000    0.00000   -0.00069
N3    4    0.671896    0.326873    0.250000    10.50000    0.01439    0.00728 =
         0.03044    0.00000    0.00000    0.00133
O1    5    0.267146    0.192282    0.250000    10.50000    0.01190    0.01058 =
         0.02511    0.00000    0.00000    0.00005
HKLF 4




REM  AGV112 in Pbcm
REM wR2 = 0.065765, GooF = S = 1.12916, Restrained GooF = 1.02972 for all data
REM R1 = 0.030322 for 346 Fo > 4sig(Fo) and 0.046721 for all 418 data
REM 61 parameters refined using 78 restraints

END  
     
WGHT      0.0238      0.3366 

REM Highest difference peak  0.472,  deepest hole -0.497,  1-sigma level  0.123
Q1    1   0.3222  0.3508  0.2500  10.50000  0.05    0.47
Q2    1   0.1740  0.3260  0.2500  10.50000  0.05    0.43
Q3    1   0.6911  0.4113  0.2500  10.50000  0.05    0.42
Q4    1  -0.0383  0.2835  0.4569  11.00000  0.05    0.40
Q5    1  -0.1335  0.4444  0.2500  10.50000  0.05    0.40
Q6    1   0.7445  0.2817  0.2500  10.50000  0.05    0.40
Q7    1   0.4637  0.3522  0.2500  10.50000  0.05    0.38
Q8    1   0.5261  0.5003  0.4119  11.00000  0.05    0.37

  REM The information below was added by Olex2.
  REM
  REM R1 = 0.030322 for 346 Fo > 4sig(Fo) and 0.046721 for all 2291 data
  REM n/a parameters refined using n/a restraints
  REM Highest difference peak 0.47, deepest hole -0.50
  REM Mean Shift 0, Max Shift 0.000.

  REM +++ Tabular Listing of Refinement Information +++
  REM R1_all = 0.046721
  REM R1_gt = 0.030322
  REM wR_ref = 0.065765
  REM GOOF = 1.12916
  REM Shift_max = 0.000
  REM Shift_mean = 0
  REM Reflections_all = 2291
  REM Reflections_gt = 346
  REM Parameters = n/a
  REM Hole = -0.50
  REM Peak = 0.47
  REM Flack = n/a

  
;
_cod_data_source_file            d0cc03564e2.cif
_cod_data_source_block           Compound1
_cod_depositor_comments
'Adding full bibliography for 7126858--7126861.cif.'
_cod_database_code               7126858
_shelx_shelxl_version_number     2018/3
_shelx_space_group_comment
;
The symmetry employed for this shelxl refinement is uniquely defined
by the following loop, which should always be used as a source of
symmetry information in preference to the above space-group names.
They are only intended as comments.
;
_shelx_estimated_absorpt_t_max   0.686
_shelx_estimated_absorpt_t_min   0.640
_olex2_refinement_description
;
1. Fixed Uiso
 At 1.2 times of:
  All C(H) groups
2. Uiso/Uaniso restraints and constraints
Uanis(C4) \\sim Ueq, Uanis(C2) \\sim Ueq: with sigma of 0.001 and sigma for
terminal atoms of 0.02
3. Rigid body (RIGU) restrains
 All non-hydrogen atoms
 with sigma for 1-2 distances of 0.001 and sigma for 1-3 distances of 0.001
4.a Aromatic/amide H refined with riding coordinates:
 C1(H1), C2(H2)
;
_olex2_submission_special_instructions 'No special instructions were received'
loop_
_space_group_symop_operation_xyz
'x, y, z'
'-x, -y, z+1/2'
'-x, y+1/2, -z+1/2'
'x, -y+1/2, -z'
'-x, -y, -z'
'x, y, -z-1/2'
'x, -y-1/2, z-1/2'
'-x, y-1/2, z'
loop_
_atom_site_label
_atom_site_type_symbol
_atom_site_fract_x
_atom_site_fract_y
_atom_site_fract_z
_atom_site_U_iso_or_equiv
_atom_site_adp_type
_atom_site_occupancy
_atom_site_site_symmetry_order
_atom_site_calc_flag
_atom_site_refinement_flags_posn
_atom_site_refinement_flags_adp
_atom_site_refinement_flags_occupancy
_atom_site_disorder_assembly
_atom_site_disorder_group
Cu1 Cu -0.10906(10) 0.23787(6) 0.250000 0.0137(3) Uani 1 2 d S TU P . .
C1 C 0.0529(9) 0.4733(5) 0.250000 0.0120(14) Uani 1 2 d S TU P . .
H1 H -0.059314 0.500239 0.250000 0.014 Uiso 1 2 calc RS T P . .
C2 C 0.3284(9) 0.5226(5) 0.250000 0.0096(11) Uani 1 2 d S TU P . .
H2 H 0.415325 0.582078 0.250000 0.012 Uiso 1 2 calc RS T P . .
C3 C 0.3674(9) 0.3988(5) 0.250000 0.0119(12) Uani 1 2 d S TU P . .
C4 C 0.2392(9) 0.3051(5) 0.250000 0.0104(10) Uani 1 2 d S TU P . .
C5 C 0.5374(10) 0.3613(5) 0.250000 0.0105(14) Uani 1 2 d S TU P . .
N1 N 0.0772(7) 0.3511(4) 0.250000 0.0125(12) Uani 1 2 d S TU P . .
N2 N 0.1683(7) 0.5621(4) 0.250000 0.0123(12) Uani 1 2 d S TU P . .
N3 N 0.6719(8) 0.3269(5) 0.250000 0.0174(14) Uani 1 2 d S TU P . .
O1 O 0.2671(6) 0.1923(3) 0.250000 0.0159(12) Uani 1 2 d S TU P . .
loop_
_atom_site_aniso_label
_atom_site_aniso_U_11
_atom_site_aniso_U_22
_atom_site_aniso_U_33
_atom_site_aniso_U_23
_atom_site_aniso_U_13
_atom_site_aniso_U_12
Cu1 0.0085(5) 0.0081(4) 0.0246(5) 0.000 0.000 -0.0009(4)
C1 0.008(2) 0.0110(16) 0.017(4) 0.000 0.000 0.0003(13)
C2 0.0094(13) 0.0100(12) 0.0095(15) 0.000 0.000 -0.0003(9)
C3 0.0119(17) 0.0107(14) 0.013(3) 0.000 0.000 0.0006(12)
C4 0.0109(13) 0.0105(11) 0.0098(15) 0.000 0.000 0.0003(8)
C5 0.0128(18) 0.005(3) 0.014(4) 0.000 0.000 -0.0012(16)
N1 0.0106(18) 0.0106(15) 0.016(3) 0.000 0.000 0.0001(14)
N2 0.0089(18) 0.0110(18) 0.017(3) 0.000 0.000 -0.0007(13)
N3 0.014(2) 0.007(3) 0.030(4) 0.000 0.000 0.0013(18)
O1 0.012(3) 0.0106(13) 0.025(3) 0.000 0.000 0.0001(13)
loop_
_atom_type_symbol
_atom_type_description
_atom_type_scat_dispersion_real
_atom_type_scat_dispersion_imag
_atom_type_scat_source
C C 0.0033 0.0016 'International Tables Vol C Tables 4.2.6.8 and 6.1.1.4'
H H 0.0000 0.0000 'International Tables Vol C Tables 4.2.6.8 and 6.1.1.4'
Cu Cu 0.3201 1.2651 'International Tables Vol C Tables 4.2.6.8 and 6.1.1.4'
N N 0.0061 0.0033 'International Tables Vol C Tables 4.2.6.8 and 6.1.1.4'
O O 0.0106 0.0060 'International Tables Vol C Tables 4.2.6.8 and 6.1.1.4'
loop_
_geom_angle_atom_site_label_1
_geom_angle_atom_site_label_2
_geom_angle_atom_site_label_3
_geom_angle
_geom_angle_site_symmetry_1
_geom_angle_site_symmetry_3
_geom_angle_publ_flag
Cu1 Cu1 Cu1 170.04(5) 7_566 7_565 ?
N1 Cu1 Cu1 86.86(2) . 7_566 ?
N1 Cu1 Cu1 86.86(2) . 7_565 ?
N1 Cu1 N2 143.3(2) . 3_545 ?
N1 Cu1 N3 112.3(2) . 1_455 ?
N2 Cu1 Cu1 94.83(2) 3_545 7_565 ?
N2 Cu1 Cu1 94.83(3) 3_545 7_566 ?
N2 Cu1 N3 104.4(2) 3_545 1_455 ?
N3 Cu1 Cu1 87.622(18) 1_455 7_566 ?
N3 Cu1 Cu1 87.622(18) 1_455 7_565 ?
N1 C1 H1 116.3 . . ?
N1 C1 N2 127.4(6) . . ?
N2 C1 H1 116.3 . . ?
C3 C2 H2 119.2 . . ?
N2 C2 H2 119.2 . . ?
N2 C2 C3 121.6(6) . . ?
C2 C3 C4 121.1(7) . . ?
C2 C3 C5 119.7(6) . . ?
C5 C3 C4 119.1(5) . . ?
N1 C4 C3 114.8(5) . . ?
O1 C4 C3 123.9(7) . . ?
O1 C4 N1 121.3(6) . . ?
N3 C5 C3 177.5(7) . . ?
C1 N1 Cu1 120.7(5) . . ?
C1 N1 C4 119.3(6) . . ?
C4 N1 Cu1 120.0(4) . . ?
C1 N2 Cu1 121.7(4) . 3 ?
C1 N2 C2 115.8(5) . . ?
C2 N2 Cu1 122.4(4) . 3 ?
C5 N3 Cu1 170.4(5) . 1_655 ?
loop_
_geom_bond_atom_site_label_1
_geom_bond_atom_site_label_2
_geom_bond_distance
_geom_bond_site_symmetry_2
_geom_bond_publ_flag
Cu1 Cu1 3.0160(9) 7_565 ?
Cu1 Cu1 3.0160(9) 7_566 ?
Cu1 N1 1.935(5) . ?
Cu1 N2 1.955(5) 3_545 ?
Cu1 N3 2.009(6) 1_455 ?
C1 H1 0.9500 . ?
C1 N1 1.332(8) . ?
C1 N2 1.335(8) . ?
C2 H2 0.9500 . ?
C2 C3 1.371(8) . ?
C2 N2 1.358(8) . ?
C3 C4 1.446(9) . ?
C3 C5 1.428(10) . ?
C4 N1 1.397(9) . ?
C4 O1 1.237(7) . ?
C5 N3 1.145(9) . ?
loop_
_refln_index_h
_refln_index_k
_refln_index_l
_refln_F_squared_meas
_refln_F_squared_sigma
_refln_scale_group_code
1 0 0 93.0006 6.95257 0
-1 0 0 87.2867 7.00252 0
2 0 0 4.75963 6.70539 0
-2 0 0 4.06115 7.51363 0
3 0 0 4.17929 0.79605 0
4 0 0 90.3389 3.40976 0
5 0 0 123.529 4.5072 0
6 0 0 21.5064 2.00949 0
7 0 0 -12.0675 31.6383 0
8 0 0 9.68034 2.0847 0
0 0 1 -1.56792 0.26964 0
0 0 -1 -1.51798 0.26964 0
-1 0 1 0.16971 0.31946 0
1 0 1 -0.27953 0.40931 0
1 0 -1 0.14975 0.30948 0
-1 0 -1 0.38934 0.33943 0
2 0 1 -0.24921 0.44858 0
-2 0 -1 -0.00997 0.34889 0
2 0 -1 0.14952 0.39873 0
3 0 1 -0.2187 0.55668 0
-3 0 -1 -0.41751 0.41751 0
3 0 -1 0.46722 0.41751 0
4 0 1 -0.25746 0.74267 0
-4 0 -1 0.4456 0.58423 0
4 0 -1 0.62384 0.4654 0
5 0 1 1.12321 0.85719 0
5 0 -1 0.41381 0.66999 0
6 0 1 2.01727 1.21428 0
6 0 -1 1.03801 0.72465 0
7 0 1 -0.66111 1.47777 0
7 0 -1 0.46666 1.04027 0
8 0 1 2.7672 1.88979 0
8 0 -1 -0.28925 1.66803 0
8 0 -1 -0.74242 1.35949 0
0 0 2 996.067 27.9696 0
0 0 -2 992.919 27.9895 0
-1 0 2 71.4183 2.51865 0
1 0 2 70.8309 2.62816 0
-1 0 -2 71.5975 2.58834 0
1 0 -2 72.0255 2.51865 0
2 0 2 1.66969 0.71558 0
-2 0 2 0.95411 0.53668 0
-2 0 -2 0.6957 0.46712 0
2 0 -2 0.83484 0.42736 0
3 0 2 3.31029 0.97128 0
-3 0 -2 3.59771 0.73342 0
3 0 -2 3.62745 0.70369 0
4 0 2 66.3731 2.98151 0
4 0 -2 67.2024 2.70508 0
-4 0 -2 64.7145 2.78406 0
5 0 2 92.8192 3.95874 0
-5 0 -2 91.8369 3.68369 0
5 0 -2 96.1886 3.66405 0
6 0 2 20.0538 2.34319 0
-6 0 -2 18.1207 1.9429 0
6 0 -2 18.4429 1.8355 0
7 0 2 -1.18257 1.47336 0
7 0 -2 1.62845 1.14379 0
8 0 2 5.268 2.10528 0
8 0 -2 5.22955 1.5381 0
0 0 3 0.38653 0.64422 0
0 0 -3 -0.73342 0.46582 0
-1 0 3 -0.04953 0.59434 0
1 0 3 -0.48538 0.62405 0
-1 0 -3 0.3467 0.49528 0
1 0 -3 0.10896 0.41604 0
2 0 3 -0.3659 0.67246 0
-2 0 3 0.44501 0.67246 0
2 0 -3 -0.26701 0.50435 0
-2 0 -3 -0.41534 0.56368 0
-3 0 3 0.27613 0.68045 0
3 0 3 -1.00589 0.77907 0
-3 0 -3 -0.30571 0.56211 0
3 0 -3 0.15779 0.53253 0
4 0 3 0.44205 1.06091 0
-4 0 -3 0.13753 0.70727 0
4 0 -3 1.45384 0.74657 0
5 0 3 0.62555 1.24133 0
5 0 -3 0.85036 0.91878 0
-5 0 -3 -0.13684 0.86991 0
6 0 3 -1.00062 1.41835 0
-6 0 -3 1.13663 1.31149 0
6 0 -3 0.67032 1.13663 0
7 0 3 -1.48535 1.80364 0
-7 0 -3 0.00965 1.39854 0
8 0 3 0.19131 2.27663 0
8 0 -3 0.45915 1.74095 0
0 0 4 344.489 10.5506 0
0 0 -4 345.286 10.5998 0
-1 0 4 32.3522 2.02632 0
1 0 4 31.4965 2.17387 0
1 0 -4 31.5456 1.83942 0
-1 0 -4 31.6735 1.89844 0
2 0 4 -0.12766 0.84453 0
-2 0 4 -0.05892 0.87399 0
-2 0 -4 0.1473 0.69722 0
2 0 -4 -0.22586 0.70705 0
-3 0 4 2.10545 0.99887 0
3 0 4 2.97701 1.087 0
3 0 -4 3.1337 0.87156 0
-3 0 -4 1.21431 0.83239 0
4 0 4 29.1083 2.65331 0
4 0 -4 33.2444 2.2241 0
-4 0 -4 26.5331 2.2241 0
5 0 4 45.4446 3.30012 0
5 0 -4 45.532 2.83422 0
-5 0 -4 46.6579 3.18365 0
6 0 4 5.26745 1.8137 0
-6 0 -4 6.03924 1.60146 0
7 0 4 5.79493 2.22219 0
-7 0 -4 1.78158 1.72411 0
7 0 -4 -0.49808 1.70496 0
0 0 5 0.77055 1.23874 0
0 0 -5 1.45332 0.89735 0
-1 0 5 -0.04874 1.16006 0
1 0 5 0.89686 1.16006 0
1 0 -5 -1.35503 0.91635 0
-1 0 -5 0.10723 0.99434 0
-3 0 5 0.81524 1.34904 0
3 0 5 -0.27175 1.42668 0
-3 0 -5 -0.47556 1.15493 0
3 0 -5 0.42703 1.13552 0
5 0 5 0.40403 1.86624 0
5 0 -5 1.53917 1.52955 0
-5 0 -5 -0.39441 1.64499 0
0 0 6 97.3735 6.80158 0
0 0 -6 120.267 4.90099 0
-1 0 6 10.9054 2.19844 0
1 0 6 6.18071 2.02488 0
1 0 -6 12.265 1.94774 0
-1 0 -6 8.79377 1.67776 0
2 0 6 0.42356 1.89639 0
-2 0 6 -0.90488 1.90601 0
-2 0 -6 -2.77238 1.4247 0
2 0 -6 0.68347 1.33806 0
-3 0 6 -0.2496 2.03516 0
3 0 6 0.48959 2.01596 0
-3 0 -6 0.48959 1.51677 0
3 0 -6 0.41279 1.51677 0
8 -1 0 19.4801 2.51823 0
8 -1 0 22.0563 3.23222 0
7 -1 0 14.5641 2.11116 0
6 -1 0 65.244 3.24358 0
5 -1 0 35.8098 2.21839 0
4 -1 0 2.64571 1.58544 0
3 -1 0 145.832 4.74501 0
2 -1 0 118.984 14.3543 0
-2 1 0 96.051 13.4665 0
1 -1 0 21.8627 0.90887 0
-1 -1 0 30.9414 4.39452 0
1 1 0 32.5893 4.814 0
2 1 0 94.8739 3.0125 0
3 1 0 155.441 4.89422 0
4 1 0 4.69688 0.91163 0
5 1 0 34.2224 2.05078 0
6 1 0 57.8357 2.9594 0
7 1 0 14.496 2.03333 0
8 1 0 22.5001 3.21292 0
8 -1 1 1.35908 1.87957 0
8 -1 -1 1.82174 1.64824 0
8 -1 -1 -0.16386 1.30124 0
7 -1 1 1.75917 1.51619 0
7 -1 -1 -1.73973 1.36068 0
7 -1 -1 0.00972 1.04967 0
6 -1 1 5.12972 1.35096 0
6 -1 -1 5.78562 1.14538 0
5 -1 1 3.60498 1.14256 0
5 -1 -1 3.84137 0.84707 0
4 -1 1 3.08853 0.82163 0
-4 1 -1 4.39521 0.83153 0
4 -1 -1 2.78166 0.66324 0
3 -1 1 14.3401 1.28196 0
-3 1 -1 15.3736 1.17265 0
3 -1 -1 16.7152 1.15277 0
-2 1 1 12.337 0.99653 0
2 -1 1 13.7321 1.06628 0
-2 1 -1 11.8886 0.92677 0
2 -1 -1 11.6992 0.92677 0
1 -1 1 37.8779 1.47719 0
-1 1 1 38.1973 1.51711 0
1 -1 -1 37.1094 1.47719 0
-1 1 -1 35.9516 1.44725 0
0 1 1 -0.37942 0.37942 0
0 -1 1 -0.13979 0.23963 0
0 1 -1 -0.2596 0.21966 0
0 -1 -1 -0.39939 0.29954 0
1 1 1 37.838 1.53708 0
-1 -1 -1 40.2334 1.49715 0
1 1 -1 38.8561 1.28755 0
2 1 1 12.7555 1.04635 0
-2 -1 -1 12.8054 0.87694 0
3 1 1 15.1947 1.24221 0
-3 -1 -1 13.2768 0.99377 0
4 1 1 2.90045 0.98991 0
-4 -1 -1 4.35562 0.75233 0
5 1 1 1.37895 0.86677 0
6 1 1 5.42341 1.29222 0
7 1 1 2.13822 1.8272 0
7 1 -1 0.01944 1.28293 0
8 1 1 -0.54941 1.71571 0
8 1 -1 3.09407 1.59041 0
8 1 -1 -0.48194 1.23377 0
8 -1 2 24.1985 3.05604 0
8 -1 -2 19.1051 2.69085 0
7 -1 2 13.1593 2.30626 0
7 -1 -2 13.6922 2.49038 0
6 -1 2 54.0524 3.58202 0
-6 1 -2 50.8901 2.93784 0
6 -1 -2 46.6737 2.7524 0
5 -1 2 26.9661 2.21935 0
5 -1 -2 24.7074 1.81672 0
-5 1 -2 27.2901 1.92475 0
4 -1 2 2.42789 0.86851 0
4 -1 -2 4.3327 0.92773 0
-4 1 -2 2.6845 0.77969 0
-3 1 2 105.054 3.71549 0
3 -1 2 104.054 4.12172 0
-3 1 -2 108.849 3.83439 0
3 -1 -2 107.105 3.75513 0
-2 1 2 72.8871 2.69253 0
2 -1 2 70.9497 2.73227 0
2 -1 -2 70.1449 2.66272 0
-2 1 -2 72.1519 2.70247 0
1 -1 2 15.575 1.13454 0
-1 1 2 16.4309 1.2042 0
-1 1 -2 16.8787 1.07482 0
1 -1 -2 17.7047 1.10468 0
0 1 2 0.52775 0.5178 0
0 -1 2 0.15932 0.41822 0
0 1 -2 0.01992 0.33856 0
0 -1 -2 0.29873 0.37839 0
-1 -1 2 17.1972 0.99521 0
1 1 2 17.5256 1.26391 0
-1 -1 -2 19.1279 1.14449 0
1 1 -2 16.7991 0.9554 0
2 1 2 72.0724 2.82169 0
-2 -1 -2 71.4166 2.73227 0
2 1 -2 74.8245 2.53356 0
3 1 2 114.17 4.2208 0
3 1 -2 110.91 3.7254 0
-3 -1 -2 112.337 3.93347 0
4 1 2 2.08246 0.85864 0
4 1 -2 1.97389 0.51321 0
-4 -1 -2 1.58899 0.63165 0
5 1 2 27.9579 2.19971 0
5 1 -2 25.8368 1.73816 0
-5 -1 -2 28.3409 1.84618 0
6 1 2 48.0987 3.07449 0
6 1 -2 49.8457 2.54743 0
-6 -1 -2 48.411 2.6548 0
7 1 -2 13.3725 1.68609 0
8 1 2 14.1942 2.3545 0
8 1 -2 19.8354 2.33528 0
7 -1 3 4.57037 1.967 0
-7 1 -3 -0.44354 1.55238 0
6 -1 3 0.90319 1.58302 0
6 -1 -3 2.78727 1.27224 0
5 -1 3 1.07483 1.23117 0
5 -1 -3 1.23117 0.94781 0
-5 1 -3 0.09771 0.99666 0
4 -1 3 3.33887 1.09004 0
-4 1 3 2.79876 0.9722 0
-4 1 -3 1.04094 0.84454 0
4 -1 -3 1.31591 0.76598 0
-3 1 3 4.63352 0.94642 0
3 -1 3 4.70253 0.99572 0
-3 1 -3 4.16031 0.86755 0
3 -1 -3 6.74326 1.0943 0
-2 1 3 7.4343 1.51256 0
2 -1 3 6.24798 1.03803 0
2 -1 -3 5.07154 0.83043 0
-2 1 -3 7.06852 1.02815 0
1 -1 3 12.6357 1.28733 0
-1 1 3 13.8141 1.32694 0
-1 1 -3 12.1702 1.13879 0
1 -1 -3 11.5266 1.12889 0
0 -1 3 -0.28733 0.55485 0
0 1 3 -0.32697 0.72329 0
0 1 -3 -0.16844 0.42605 0
0 -1 -3 -0.07926 0.47559 0
-1 -1 3 14.6756 1.18831 0
1 1 3 12.3287 1.31704 0
-1 -1 -3 11.0017 1.1487 0
1 1 -3 12.7248 1.01996 0
-2 -1 3 4.8837 0.76123 0
2 1 3 3.67761 0.86008 0
2 1 -3 4.41906 0.69202 0
-2 -1 -3 6.40615 0.95895 0
3 1 3 6.91085 1.2619 0
3 1 -3 6.5658 0.89713 0
-3 -1 -3 6.12217 0.976 0
4 1 3 2.43541 1.20788 0
4 1 -3 1.33555 0.71688 0
-4 -1 -3 1.63997 0.75616 0
5 1 3 1.90538 1.28003 0
-5 -1 -3 2.72616 1.03575 0
6 1 3 2.44736 1.62186 0
-6 -1 -3 4.70049 1.3208 0
6 1 -3 1.97149 1.10714 0
7 1 3 0.38569 1.7838 0
-7 -1 -3 2.13091 1.40775 0
7 1 -3 0.53032 1.36918 0
7 -1 4 7.06669 2.5375 0
7 -1 -4 4.83561 2.04915 0
-7 1 -4 3.89721 1.85764 0
6 -1 4 27.4189 3.29837 0
6 -1 -4 26.7053 2.78722 0
-6 1 -4 24.8825 2.79687 0
5 -1 4 9.81968 1.74658 0
-5 1 -4 15.8939 2.1056 0
5 -1 -4 15.9618 2.26086 0
-4 1 4 3.31561 1.28724 0
4 -1 4 2.09663 1.34575 0
4 -1 -4 1.41401 1.17021 0
-4 1 -4 0.71188 0.94592 0
-3 1 4 48.5866 2.69219 0
3 -1 4 50.711 2.80966 0
-3 1 -4 49.3013 2.61387 0
3 -1 -4 45.542 2.54534 0
2 -1 4 38.6005 2.3659 0
-2 1 4 35.891 2.31682 0
2 -1 -4 35.7634 2.13029 0
-2 1 -4 36.6077 2.16956 0
-1 1 4 10.6004 1.42585 0
1 -1 4 7.09974 1.11118 0
-1 1 -4 9.48927 1.18001 0
1 -1 -4 8.17159 1.24885 0
0 1 4 0.74776 0.90518 0
0 -1 4 -0.10823 0.81663 0
0 1 -4 -0.16726 0.56082 0
0 -1 -4 -0.04919 0.64937 0
1 1 4 7.27674 1.19968 0
-1 -1 4 11.5445 1.41602 0
1 1 -4 10.1186 1.25868 0
-1 -1 -4 10.3546 1.34718 0
-2 -1 4 34.0356 1.98304 0
2 1 4 35.6063 2.38554 0
2 1 -4 36.0088 1.97322 0
-2 -1 -4 36.7647 2.12048 0
3 1 4 53.2955 2.91735 0
-3 -1 4 50.2215 2.3887 0
3 1 -4 47.1279 2.43765 0
-3 -1 -4 50.1726 2.65303 0
-4 -1 -4 2.01862 1.10195 0
4 1 -4 1.33599 0.83865 0
5 1 4 10.072 1.8048 0
5 1 -4 12.1291 1.82421 0
6 1 4 33.601 3.38517 0
6 1 -4 25.6637 2.58469 0
-6 -1 -4 25.519 2.76793 0
7 1 4 5.97509 2.44174 0
7 1 -4 5.39099 1.70443 0
-7 -1 -4 3.54292 1.87679 0
5 -1 5 0.86552 1.91375 0
-5 1 -5 1.97145 1.50985 0
5 -1 -5 1.48099 1.44253 0
4 -1 5 2.29055 1.57536 0
-4 1 5 1.54636 1.64301 0
-4 1 -5 -0.28994 1.33374 0
4 -1 -5 3.18938 1.5367 0
-3 1 5 3.29878 1.59118 0
3 -1 -5 1.48445 1.23219 0
-3 1 -5 -1.00904 1.2613 0
-2 1 5 0.3989 1.42047 0
2 -1 5 0.95346 1.36209 0
-2 1 -5 2.70472 1.17724 0
2 -1 -5 -0.87563 1.07994 0
1 -1 5 5.46718 1.46181 0
-1 1 5 6.2858 1.51054 0
1 -1 -5 4.5901 1.23767 0
-1 1 -5 4.52188 1.21818 0
0 1 5 0.89708 1.33586 0
0 -1 5 -0.39003 1.1116 0
0 -1 -5 0.33153 0.94583 0
0 1 -5 -0.39003 0.88733 0
1 1 5 2.39737 1.27665 0
-1 -1 5 4.10282 1.33512 0
1 1 -5 5.321 1.19869 0
-1 -1 -5 4.60959 1.13047 0
-2 -1 5 2.07232 1.30372 0
2 1 5 1.18696 2.33501 0
-2 -1 -5 4.80624 1.32317 0
2 1 -5 1.31344 1.01184 0
-3 -1 5 2.04718 1.30011 0
3 1 5 4.16229 1.6882 0
-3 -1 -5 0.12613 1.18368 0
3 1 -5 1.43594 1.15457 0
4 1 5 2.96709 1.74932 0
4 1 -5 0.10631 1.13078 0
-4 -1 -5 1.2081 1.29508 0
5 1 5 0.58663 1.99069 0
-5 -1 -5 2.24073 1.42329 0
3 -1 6 12.1208 2.34164 0
3 -1 -6 8.60839 1.833 0
-3 1 -6 15.854 2.21688 0
2 -1 6 13.2899 2.32886 0
-2 1 6 11.0765 4.39788 0
-2 1 -6 11.9234 1.81882 0
2 -1 -6 17.8417 2.47321 0
-1 1 6 5.03173 2.02426 0
1 -1 6 3.23881 2.19777 0
1 -1 -6 1.9375 1.50373 0
-1 1 -6 3.30629 1.50373 0
0 1 6 -1.07056 1.86142 0
0 -1 6 3.11522 1.80355 0
0 -1 -6 2.53654 1.46599 0
0 1 -6 -0.43401 1.26345 0
1 1 6 3.76898 2.01462 0
-1 -1 6 1.38806 1.7158 0
1 1 -6 3.07495 1.33023 0
-1 -1 -6 3.89429 1.52301 0
2 1 6 9.63299 2.16526 0
-2 -1 6 12.7221 2.10752 0
-2 -1 -6 19.9204 2.57906 0
2 1 -6 15.5417 2.3866 0
3 1 6 11.0652 2.30325 0
-3 -1 6 14.1362 2.16889 0
-3 -1 -6 18.973 2.72551 0
3 1 -6 18.234 2.64874 0
8 -2 0 24.6482 2.57374 0
8 -2 0 25.3229 3.40274 0
7 -2 0 2.09949 1.58433 0
7 -2 0 2.51744 1.68153 0
6 -2 0 47.3064 2.63357 0
6 -2 0 48.7455 2.89791 0
5 -2 0 88.7418 3.53627 0
5 -2 0 86.1413 3.63478 0
4 -2 0 29.4816 1.90076 0
4 -2 0 34.0851 1.77207 0
3 -2 0 24.8758 1.59014 0
3 -2 0 27.6188 1.451 0
2 -2 0 1.71414 0.50826 0
2 -2 0 1.41517 0.65775 0
-1 2 0 59.1304 2.06617 0
1 -2 0 62.015 2.04621 0
0 -2 0 156.369 4.51332 0
0 2 0 161.551 4.56325 0
1 2 0 61.5659 1.82661 0
2 2 0 1.66431 0.41857 0
3 2 0 28.2151 1.39137 0
4 2 0 34.8275 1.76217 0
5 2 0 90.6527 3.50672 0
6 2 0 47.4239 2.6042 0
7 2 0 2.6438 1.40938 0
8 2 0 32.3598 3.27743 0
8 -2 1 0.97262 2.14747 0
8 -2 -1 -0.32742 1.36745 0
8 -2 -1 2.33044 1.82006 0
7 -2 1 6.1174 1.64102 0
7 -2 -1 6.47668 1.84493 0
7 -2 -1 10.5938 2.4858 0
6 -2 1 -0.0489 1.21278 0
6 -2 -1 0.95849 0.98783 0
5 -2 1 0.86596 0.91517 0
5 -2 -1 0.0492 0.63963 0
4 -2 1 -0.21758 0.70218 0
-4 2 -1 -0.0989 0.61318 0
4 -2 -1 0.10879 0.52417 0
3 -2 1 12.49 1.24106 0
-3 2 1 11.656 1.24106 0
3 -2 -1 12.4602 1.07228 0
-3 2 -1 10.5838 1.05242 0
-2 2 1 12.5844 1.12503 0
2 -2 1 10.4837 1.03543 0
2 -2 -1 13.1818 1.00556 0
-2 2 -1 13.2913 0.9956 0
1 -2 1 9.73324 0.79781 0
-1 2 1 10.2418 0.97731 0
1 -2 -1 9.095 0.79781 0
-1 2 -1 9.40415 0.73797 0
0 2 1 20.3254 1.10757 0
0 2 -1 20.7245 0.79825 0
0 -2 -1 22.0915 1.0477 0
1 2 1 11.5084 0.88756 0
-1 -2 -1 10.7903 0.74794 0
2 2 1 14.0978 1.05534 0
-2 -2 -1 12.226 0.79648 0
3 2 1 12.1822 1.16163 0
-3 -2 -1 10.4547 0.87371 0
-4 -2 -1 0.16813 0.44505 0
5 2 1 1.46623 0.8758 0
6 2 1 -0.30319 0.98783 0
7 2 -1 5.5445 1.46623 0
8 2 1 3.92901 1.92599 0
8 2 -1 1.08818 1.55042 0
8 -2 2 24.4642 3.71571 0
8 -2 -2 23.504 3.18764 0
7 -2 2 1.01653 1.73294 0
7 -2 -2 2.1105 1.29728 0
6 -2 -2 33.2517 2.42805 0
-6 2 -2 37.2009 2.65233 0
5 -2 2 70.7074 3.36515 0
-5 2 -2 72.6009 3.20818 0
5 -2 -2 67.7347 3.14931 0
4 -2 2 27.0468 1.98192 0
-4 2 -2 26.6129 1.77485 0
4 -2 -2 28.3187 1.77485 0
3 -2 2 21.7674 1.75208 0
-3 2 -2 20.1638 1.39573 0
3 -2 -2 19.5303 1.38583 0
2 -2 2 0.51617 0.5658 0
-2 2 2 0.71469 0.65514 0
-2 2 -2 0.78418 0.51617 0
2 -2 -2 -0.16875 0.45661 0
-1 2 2 44.017 1.99851 0
1 -2 2 44.2059 1.79966 0
1 -2 -2 45.1902 1.90903 0
-1 2 -2 44.544 1.79966 0
0 2 2 115.888 3.82017 0
0 -2 2 113.481 3.45208 0
0 2 -2 106.169 3.50182 0
0 -2 -2 113.272 3.75053 0
1 2 2 43.3707 1.97863 0
-1 -2 -2 43.5696 1.86926 0
1 2 -2 45.3792 1.61074 0
2 2 2 0.72462 0.67499 0
-2 -2 -2 0.81396 0.45661 0
2 2 -2 0.73455 0.32757 0
3 2 2 18.095 1.50461 0
3 2 -2 20.8072 1.09876 0
-3 -2 -2 20.7577 1.31654 0
4 2 2 26.5044 1.91289 0
4 2 -2 28.5061 1.4396 0
-4 -2 -2 28.1117 1.61709 0
5 2 2 72.5126 3.3161 0
5 2 -2 72.7481 2.86479 0
-5 -2 -2 67.9996 2.94328 0
6 2 2 36.4696 2.72059 0
6 2 -2 36.4306 2.14527 0
-6 -2 -2 40.2725 2.34029 0
7 2 2 3.83376 2.12019 0
7 2 -2 1.87816 1.20047 0
8 2 2 27.7574 3.73491 0
7 -2 3 8.85294 2.41794 0
-7 2 -3 7.88962 1.88811 0
7 -2 -3 4.31569 1.62802 0
6 -2 3 0.61127 1.54274 0
6 -2 -3 -0.26197 1.67858 0
5 -2 3 1.25931 1.37646 0
5 -2 -3 -0.32215 0.99574 0
-5 2 -3 1.41551 1.06407 0
4 -2 3 0.60828 1.03015 0
-4 2 3 0.30414 0.93204 0
-4 2 -3 -0.69658 0.78487 0
3 -2 3 4.7868 1.07358 0
-3 2 3 5.69294 1.14253 0
3 -2 -3 2.89572 0.8372 0
-3 2 -3 4.25493 0.92584 0
-2 2 3 5.47177 1.01731 0
2 -2 -3 4.12852 0.79015 0
-2 2 -3 4.23716 0.76052 0
-1 2 3 4.71912 0.96955 0
1 -2 3 3.39342 0.72221 0
1 -2 -3 4.27392 0.84093 0
-1 2 -3 4.8972 0.79147 0
0 2 3 6.17688 0.97998 0
0 -2 3 5.88981 0.80181 0
0 -2 -3 5.28598 0.78201 0
0 2 -3 3.85065 0.60383 0
1 2 3 5.58974 1.04869 0
-1 -2 3 3.49235 0.5936 0
-1 -2 -3 4.452 0.79147 0
1 2 -3 4.0167 0.60349 0
2 2 3 4.5631 0.90867 0
2 2 -3 2.82478 0.56298 0
-2 -2 -3 5.06682 0.8099 0
3 2 3 3.58517 1.04403 0
3 2 -3 4.16629 0.7584 0
-3 -2 -3 2.52144 0.72885 0
4 2 3 0.15698 1.13807 0
-4 -2 -3 0.0883 0.66714 0
4 2 -3 -0.12754 0.61809 0
5 2 3 0.65406 1.22027 0
-5 -2 -3 -0.24405 0.90788 0
5 2 -3 -0.62478 0.69311 0
6 2 3 0.11643 1.4069 0
-6 -2 -3 -0.66949 1.11582 0
6 2 -3 -0.05822 0.95087 0
7 2 3 6.18454 2.00371 0
7 2 -3 3.03447 1.33902 0
-7 -2 -3 4.26752 1.50278 0
7 -2 4 -0.3157 2.29599 0
7 -2 -4 0.62183 1.9516 0
-7 2 -4 1.45413 1.722 0
6 -2 4 16.8235 2.44741 0
6 -2 -4 17.4595 2.59194 0
-6 2 -4 13.9136 1.92709 0
-5 2 4 34.2595 3.0343 0
5 -2 4 35.8881 3.16033 0
-5 2 -4 36.2565 2.65623 0
-4 2 4 13.1624 1.73421 0
4 -2 4 10.2104 1.51012 0
4 -2 -4 13.5619 1.84138 0
-4 2 -4 15.0428 1.9388 0
-3 2 4 10.436 1.516 0
3 -2 4 10.1817 1.54535 0
3 -2 -4 13.4484 1.70184 0
-3 2 -4 12.5779 1.65293 0
-2 2 4 -0.47078 1.06906 0
2 -2 4 -0.09808 0.89252 0
2 -2 -4 -0.73559 0.80425 0
-2 2 -4 1.2456 0.82386 0
-1 2 4 22.4976 2.04345 0
1 -2 4 22.3109 1.77819 0
-1 2 -4 22.4878 1.60136 0
1 -2 -4 21.8001 1.71925 0
0 2 4 48.0675 2.71301 0
0 -2 4 51.8421 2.30999 0
0 -2 -4 52.3631 2.53608 0
0 2 -4 48.3034 2.30016 0
-1 -2 4 20.7587 1.52276 0
1 2 4 22.5565 2.0631 0
1 2 -4 23.1264 1.52276 0
-1 -2 -4 21.2106 1.68978 0
2 2 4 -0.28443 0.88271 0
-2 -2 4 0.32366 0.71598 0
2 2 -4 0.46097 0.6277 0
-2 -2 -4 -0.51001 0.69636 0
3 2 4 12.4117 1.92679 0
3 2 -4 11.9813 1.35951 0
4 2 4 13.6593 2.49414 0
-4 -2 -4 14.2731 1.86086 0
4 2 -4 12.6168 1.51012 0
5 2 4 34.6667 3.1991 0
5 2 -4 37.7494 2.3557 0
6 2 4 26.0928 3.3146 0
-6 -2 -4 21.728 2.62085 0
6 2 -4 19.8394 2.35105 0
7 2 4 2.72649 2.22903 0
7 2 -4 -1.4063 1.56893 0
-7 -2 -4 0.79403 1.74113 0
-5 2 5 -1.71022 2.42121 0
5 -2 5 0.85511 2.02728 0
5 -2 -5 0.15373 1.59492 0
-5 2 -5 -0.58609 1.49884 0
4 -2 5 -2.17256 1.50631 0
-4 2 5 -0.25105 1.84427 0
-4 2 -5 -0.42486 1.29388 0
4 -2 -5 -1.11042 1.27457 0
3 -2 5 1.79326 1.50246 0
-3 2 5 3.30542 1.83204 0
3 -2 -5 1.68664 1.76418 0
-3 2 -5 -0.4362 1.34737 0
-2 2 5 3.12018 1.59411 0
2 -2 5 -0.23328 1.32195 0
2 -2 -5 0.94286 1.04978 0
-2 2 -5 3.36319 1.16642 0
1 -2 5 1.37283 1.19758 0
-1 2 5 2.1128 1.42151 0
1 -2 -5 0.43814 1.09047 0
-1 2 -5 1.30468 1.01258 0
0 2 5 1.93862 1.49049 0
0 -2 5 1.49049 1.12031 0
0 2 -5 1.40282 0.93521 0
0 -2 -5 2.04577 1.13005 0
1 2 5 1.43125 1.56756 0
1 2 -5 2.19069 0.91522 0
-1 -2 -5 2.2491 1.03206 0
2 2 5 2.67305 1.66215 0
-2 -2 5 1.81768 1.04978 0
2 2 -5 -0.38881 0.93314 0
3 2 5 -1.54124 1.50246 0
-3 -2 -5 -0.7173 1.10504 0
3 2 -5 0.31988 1.02749 0
4 2 5 0.28002 1.70908 0
4 2 -5 -1.39044 1.05249 0
-4 -2 -5 -0.82075 1.20698 0
5 2 5 3.33397 1.86395 0
5 2 -5 0 1.33551 0
-5 -2 -5 0.23059 1.4412 0
-3 2 6 7.843 2.46412 0
3 -2 6 5.53229 2.19566 0
-3 2 -6 4.93783 1.78337 0
3 -2 -6 2.71341 1.73543 0
-2 2 6 -0.1346 2.04789 0
-2 2 -6 1.76907 1.3268 0
2 -2 -6 -0.15383 1.49986 0
1 -2 6 5.75899 1.87793 0
-1 2 6 12.2499 2.46539 0
-1 2 -6 9.45707 1.61791 0
1 -2 -6 9.6882 1.70458 0
0 2 6 19.6858 2.6691 0
0 -2 6 16.3808 2.17768 0
0 2 -6 22.6536 2.41857 0
0 -2 -6 18.2405 2.47639 0
-1 -2 6 8.01251 1.82978 0
1 2 6 6.95317 2.36908 0
1 2 -6 7.93547 1.76237 0
2 2 6 1.08644 2.03827 0
-2 -2 6 -2.40362 2.13442 0
2 2 -6 -1.11528 1.37487 0
-2 -2 -6 1.91328 1.55755 0
3 2 6 6.05963 2.50247 0
3 2 -6 4.44884 1.39985 0
-3 -2 -6 1.58202 1.68749 0
8 -3 0 16.6988 2.47354 0
8 -3 0 20.3947 2.47354 0
7 -3 0 49.9605 2.99879 0
7 -3 0 47.7575 3.31905 0
6 -3 0 17.9666 1.78884 0
6 -3 0 15.6108 2.11142 0
5 -3 0 8.11392 1.21955 0
5 -3 0 5.83219 1.17037 0
4 -3 0 42.2264 2.05597 0
4 -3 0 40.6153 2.224 0
3 -3 0 157.696 5.19966 0
2 -3 0 90.8089 3.22398 0
-2 3 0 94.62 3.25384 0
2 -3 0 95.4359 3.17423 0
1 -3 0 19.3761 0.95684 0
-1 3 0 18.1601 1.07645 0
1 -3 0 17.6418 1.05651 0
0 -3 0 -0.24932 0.25929 0
0 3 0 -0.02992 0.30915 0
0 -3 0 0.06981 0.18948 0
1 3 0 18.8378 0.74753 0
2 3 0 100.809 3.06478 0
3 3 0 169.048 5.15004 0
4 3 0 40.4571 1.85828 0
5 3 0 8.9499 1.17037 0
6 3 0 20.3126 1.97456 0
7 3 0 45.933 2.97938 0
8 3 0 23.0799 3.03177 0
8 -3 1 2.56724 2.2884 0
8 -3 1 2.07687 1.5288 0
8 -3 -1 2.29801 1.99033 0
8 -3 -1 2.51916 1.59611 0
7 -3 1 15.7644 2.17172 0
7 -3 1 16.4624 2.19111 0
7 -3 -1 14.4749 2.18141 0
7 -3 -1 20.0787 2.50135 0
6 -3 1 -0.13671 1.29879 0
6 -3 -1 0.83005 0.86911 0
4 -3 1 1.38244 0.85909 0
4 -3 -1 -0.32586 0.53323 0
3 -3 1 12.8771 1.31844 0
-3 3 -1 13.4917 1.21931 0
3 -3 -1 13.1547 1.17966 0
-2 3 1 43.5401 2.00801 0
2 -3 1 42.3671 1.87878 0
2 -3 1 45.558 1.79926 0
-2 3 -1 44.6733 1.87878 0
2 -3 -1 43.4804 1.89867 0
1 -3 1 9.35977 0.64722 0
-1 3 1 9.51909 1.02559 0
1 -3 1 8.80217 0.75675 0
1 -3 -1 9.1905 0.82645 0
-1 3 -1 10.0169 0.75675 0
0 3 1 -0.67746 0.44832 0
0 3 -1 -0.00996 0.18929 0
0 3 -1 0.23911 0.24907 0
0 -3 -1 0.18929 0.30884 0
1 3 1 10.0169 0.89615 0
-1 -3 -1 10.8633 0.72688 0
2 3 1 46.9199 1.89867 0
-2 -3 -1 46.4726 1.72967 0
3 3 1 11.8759 1.14992 0
-3 -3 -1 13.3331 0.84261 0
4 3 1 18.0705 17.1818 0
-4 -3 -1 -13.6565 18.4556 0
5 3 1 1.44431 0.86462 0
6 3 1 1.9433 1.14254 0
6 3 -1 -0.81052 0.9863 0
7 3 -1 21.184 2.30745 0
8 3 1 3.29799 1.80764 0
8 3 -1 2.90377 1.67303 0
8 -3 2 19.0869 3.04853 0
8 -3 -2 21.0138 2.78969 0
7 -3 2 38.5298 3.59586 0
7 -3 -2 33.4163 2.89022 0
6 -3 2 15.9575 3.02794 0
6 -3 -2 18.7226 2.16142 0
5 -3 2 3.35016 1.21468 0
-5 3 -2 6.38685 1.30284 0
5 -3 -2 5.06442 1.19509 0
-4 3 2 29.6039 2.12652 0
4 -3 2 29.8992 2.07729 0
4 -3 -2 28.2846 1.87055 0
-4 3 -2 30.8049 1.88039 0
3 -3 2 110.665 4.29929 0
-3 3 2 111.999 4.09174 0
3 -3 -2 111.011 4.04232 0
-3 3 -2 112.187 4.01267 0
2 -3 2 70.6849 2.69578 0
-2 3 2 63.3508 3.94456 0
-2 3 -2 70.784 2.67596 0
2 -3 -2 75.8088 2.81471 0
-1 3 2 15.4968 1.33028 0
1 -3 2 14.8118 1.00267 0
-1 3 -2 15.4372 0.98282 0
1 -3 -2 14.1665 1.14166 0
0 -3 2 0.09933 0.23839 0
0 3 2 -0.04966 0.55625 0
0 3 -2 -0.47678 0.25826 0
0 -3 -2 0.39732 0.39732 0
1 3 2 15.9336 1.3005 0
-1 -3 -2 14.7721 1.04238 0
1 3 -2 13.8488 0.69492 0
2 3 2 77.573 3.06248 0
-2 -3 -2 74.7583 2.82462 0
2 3 -2 78.465 2.41827 0
3 3 2 112.938 4.14115 0
-3 -3 -2 115.814 3.9929 0
3 3 -2 118.987 3.6371 0
4 3 2 28.8261 1.93946 0
-4 -3 -2 31.9371 1.70318 0
5 3 2 5.48564 1.18529 0
-5 -3 -2 6.99419 1.00897 0
6 3 2 16.6683 2.24905 0
-6 -3 -2 17.0869 1.71356 0
6 3 -2 13.7377 1.48963 0
7 3 2 43.4016 3.33487 0
7 3 -2 41.333 2.50357 0
8 3 2 16.6615 2.63631 0
8 3 -2 20.0551 2.60755 0
7 -3 3 14.745 2.60659 0
7 -3 -3 9.16635 1.91406 0
-7 3 -3 17.5632 2.65468 0
6 -3 3 -1.05597 1.53067 0
-6 3 -3 0.84284 1.32723 0
6 -3 -3 0.59095 1.22066 0
5 -3 3 0.07798 1.29635 0
-5 3 3 0.3119 1.43281 0
5 -3 -3 -1.75446 1.10141 0
-5 3 -3 0.14621 1.10141 0
4 -3 3 0.46041 1.03836 0
-4 3 3 -1.39101 0.97959 0
-4 3 -3 0.7151 0.91102 0
4 -3 -3 0.09796 0.85224 0
3 -3 3 5.84145 1.15059 0
-3 3 3 5.86112 1.11125 0
-3 3 -3 5.04489 0.8654 0
3 -3 -3 6.06763 0.98341 0
-2 3 3 19.4272 1.76521 0
2 -3 3 18.2142 1.47923 0
-2 3 -3 18.3819 1.37075 0
2 -3 -3 18.9834 1.47923 0
1 -3 3 2.2917 0.66183 0
-1 3 3 2.86462 0.93841 0
-1 3 -3 2.49913 0.57292 0
1 -3 -3 2.2917 0.71122 0
0 -3 3 -0.1186 0.42499 0
0 3 3 -0.09883 0.67208 0
0 -3 -3 0.01977 0.58313 0
0 3 -3 -0.50406 0.38546 0
1 3 3 0.70134 0.77048 0
-1 -3 -3 2.42999 0.71122 0
1 3 -3 2.22255 0.47414 0
2 3 3 21.2516 1.74549 0
-2 -3 -3 21.0543 1.43978 0
2 3 -3 20.1175 1.12421 0
3 3 3 3.71729 0.99324 0
3 3 -3 6.29382 0.8359 0
-3 -3 -3 4.7302 0.96374 0
4 3 3 2.55672 1.16571 0
4 3 -3 0.04898 0.54857 0
-4 -3 -3 0.91102 0.72489 0
5 3 3 -0.18519 1.50104 0
-5 -3 -3 -0.40937 0.91622 0
5 3 -3 0.35089 0.72128 0
6 3 3 1.55973 1.43379 0
-6 -3 -3 -1.12378 1.08503 0
6 3 -3 0.21313 0.85252 0
7 3 3 14.6296 2.28918 0
-7 -3 -3 11.9461 3.24141 0
7 3 -3 15.755 2.193 0
6 -3 4 7.19624 2.02033 0
6 -3 -4 8.62971 1.98185 0
-6 3 -4 5.59921 1.74133 0
5 -3 4 5.40105 1.67452 0
-5 3 4 5.21714 3.5523 0
5 -3 -4 3.54262 1.31638 0
-5 3 -4 0.19359 1.44222 0
-4 3 4 17.8017 2.21791 0
4 -3 4 10.4378 1.57588 0
4 -3 -4 14.3094 1.93581 0
-4 3 -4 14.5915 1.98445 0
3 -3 4 55.9663 2.94919 0
-3 3 4 49.1011 3.1738 0
3 -3 -4 56.5522 2.91989 0
-3 3 -4 54.6968 2.84177 0
2 -3 4 35.4789 2.23273 0
-2 3 4 34.813 2.60486 0
2 -3 -4 39.347 2.409 0
-2 3 -4 36.6149 2.10543 0
1 -3 4 10.3093 1.34384 0
-1 3 4 12.8008 1.90295 0
1 -3 -4 7.72952 1.24575 0
-1 3 -4 9.62266 1.23594 0
0 -3 4 0.00981 0.68702 0
0 3 4 -0.61831 0.98145 0
0 -3 -4 -0.10796 0.71646 0
0 3 -4 -0.48091 0.57905 0
1 3 4 6.60148 1.20651 0
-1 -3 4 8.00417 1.02014 0
1 3 -4 8.78889 1.0888 0
-1 -3 -4 6.36606 1.01033 0
2 3 4 40.7866 2.63423 0
2 3 -4 36.0469 1.8704 0
-2 -3 -4 36.3505 2.24253 0
3 3 4 55.644 3.15427 0
3 3 -4 52.2651 2.37302 0
-3 -3 -4 52.0991 2.77341 0
4 3 4 13.2491 1.94554 0
4 3 -4 15.2238 1.45915 0
-4 -3 -4 12.2861 1.61479 0
5 3 4 1.9165 1.59708 0
5 3 -4 2.22624 0.90017 0
6 3 4 7.02306 2.10692 0
-6 -3 -4 5.224 1.61627 0
6 3 -4 4.27156 1.2603 0
-5 3 5 -1.52532 2.12969 0
5 -3 5 1.91864 2.07213 0
-5 3 -5 -1.12241 1.65003 0
5 -3 -5 -0.566 1.79393 0
4 -3 5 0.8002 1.65825 0
-4 3 5 -1.91855 1.84143 0
-4 3 -5 0.50133 1.32081 0
4 -3 -5 0.44349 1.53291 0
-3 3 5 2.21634 1.94535 0
3 -3 5 3.21321 1.60661 0
3 -3 -5 -0.7162 1.20012 0
-3 3 -5 2.02278 1.33561 0
-2 3 5 7.59916 2.50394 0
2 -3 5 7.44388 1.60136 0
-2 3 -5 6.68687 1.29079 0
2 -3 -5 8.07472 2.2419 0
1 -3 5 -0.06805 1.11795 0
-1 3 -5 0.06805 0.92353 0
1 -3 -5 2.16786 1.5943 0
0 -3 5 1.58546 2.05234 0
0 3 5 -2.59704 1.93562 0
0 -3 -5 0.35989 1.57573 0
0 3 -5 -0.10699 0.88513 0
1 3 5 2.0026 1.60402 0
-1 -3 5 0.2722 0.97213 0
1 3 -5 1.27349 0.84576 0
2 3 5 4.03736 1.73723 0
-2 -3 -5 4.18294 1.3005 0
2 3 -5 6.70628 1.15492 0
3 3 5 3.52292 1.75178 0
3 3 -5 2.40991 1.01623 0
-3 -3 -5 0.25164 1.15172 0
5 3 5 1.52532 1.8419 0
-5 -3 -5 -0.23024 1.58288 0
5 3 -5 2.21603 1.2759 0
3 -3 6 16.7629 2.66138 0
-3 3 6 14.829 2.80498 0
3 -3 -6 21.4633 2.69967 0
-3 3 -6 25.6756 2.99644 0
-2 3 6 8.45735 2.45753 0
2 -3 6 12.8252 2.26553 0
2 -3 -6 10.4541 2.03514 0
-2 3 -6 9.9933 1.71835 0
-1 3 6 4.95204 2.04812 0
1 -3 6 0.83656 1.70196 0
-1 3 -6 2.39429 1.44234 0
1 -3 -6 0.40386 1.68273 0
0 -3 6 0.02886 1.60669 0
0 3 6 0.10583 2.03963 0
0 3 -6 1.62593 1.37579 0
0 -3 -6 1.57783 1.5201 0
-1 -3 6 0.88464 1.72119 0
1 3 6 2.37506 2.05774 0
-1 -3 -6 2.10582 1.38465 0
2 3 6 14.7452 2.66872 0
-2 -3 -6 11.3373 2.12154 0
3 3 6 17.7106 2.80498 0
-3 -3 -6 13.3739 2.01039 0
3 3 -6 18.5148 2.81455 0
8 -4 0 12.1106 2.08406 0
8 -4 0 8.40346 2.13208 0
7 -4 0 1.11365 1.56879 0
7 -4 0 1.33637 1.06523 0
6 -4 0 12.9142 1.81423 0
6 -4 0 15.06 2.497 0
5 -4 0 51.5317 2.74783 0
5 -4 0 45.7122 2.48286 0
4 -4 0 43.2 2.14027 0
4 -4 0 43.6241 2.3474 0
3 -4 0 10.2679 1.06936 0
2 -4 0 -0.11915 0.3773 0
-2 4 0 0.64539 0.53617 0
2 -4 0 0.08936 0.59574 0
-1 4 0 121.038 3.83899 0
1 -4 0 114.494 3.74948 0
1 -4 0 120.113 3.7097 0
0 -4 0 79.2605 2.37831 0
0 4 0 77.6683 2.56738 0
0 -4 0 79.5391 2.39821 0
1 4 0 115.548 3.44117 0
2 4 0 0.27801 0.29787 0
3 4 0 13.0106 0.92084 0
4 4 0 48.3287 2.03178 0
5 4 0 54.3384 2.90485 0
6 4 0 14.7967 1.84349 0
7 4 0 1.91741 1.32669 0
8 4 0 8.97009 1.96881 0
8 -4 1 3.6267 2.42739 0
8 -4 1 10.007 2.01483 0
8 -4 -1 7.75231 2.12037 0
8 -4 -1 5.72788 1.97645 0
7 -4 1 -0.37729 1.59625 0
7 -4 1 -2.06061 1.06417 0
7 -4 -1 0.98677 1.40277 0
7 -4 -1 0.65785 1.5382 0
6 -4 1 13.4177 1.72472 0
6 -4 -1 8.66258 1.29598 0
6 -4 -1 8.78925 2.16321 0
5 -4 1 5.31371 1.32352 0
5 -4 1 6.11763 1.07843 0
5 -4 -1 3.76469 0.97059 0
4 -4 1 1.44841 0.60104 0
4 -4 1 1.78342 0.92619 0
4 -4 -1 0.00985 0.66016 0
3 -4 1 0.19783 0.73198 0
3 -4 1 0.2374 0.41545 0
-3 4 1 0.16816 0.72209 0
3 -4 -1 -0.20772 0.53415 0
-3 4 -1 0.73198 0.7023 0
2 -4 1 2.45995 0.52571 0
-2 4 1 3.89822 0.84313 0
2 -4 1 3.33283 0.76377 0
-2 4 -1 3.06501 0.63482 0
2 -4 -1 4.41402 0.73402 0
-1 4 1 5.19636 0.75511 0
1 -4 1 6.77613 0.71537 0
1 -4 1 8.13732 0.5862 0
-1 4 -1 5.7925 0.67563 0
1 -4 -1 5.99121 0.76505 0
0 4 1 1.4713 0.53682 0
0 -4 -1 0.65612 0.35788 0
0 4 -1 1.05377 0.25847 0
0 4 -1 0.88477 0.34794 0
1 4 1 5.57391 0.84453 0
-1 -4 -1 6.11044 0.56633 0
2 4 1 3.46178 0.65466 0
-2 -4 -1 3.16421 0.48604 0
3 4 1 0.08902 0.58361 0
-3 -4 -1 -0.28686 0.27697 0
4 4 1 0.89664 1.12326 0
5 4 1 4.67645 0.97059 0
6 4 1 13.6419 1.9196 0
6 4 -1 9.57853 1.40316 0
7 4 -1 2.67976 1.20928 0
8 4 1 8.26081 2.11078 0
8 4 -1 5.15221 1.79416 0
8 -4 2 9.49902 2.8411 0
8 -4 2 7.49017 1.73144 0
8 -4 -2 11.087 2.26714 0
7 -4 2 1.18639 1.87122 0
7 -4 -2 0.70412 1.64937 0
6 -4 2 12.9891 2.19561 0
5 -4 2 38.8832 2.73688 0
-5 4 -2 39.0982 2.54139 0
5 -4 -2 38.1501 2.42409 0
4 -4 2 34.3924 2.25943 0
-4 4 2 37.3493 2.34784 0
4 -4 -2 33.5181 2.07278 0
-4 4 -2 33.7637 2.0826 0
-3 4 2 8.9448 1.24261 0
3 -4 2 6.68641 1.00592 0
3 -4 -2 5.49311 0.83827 0
-3 4 -2 8.27419 1.08482 0
2 -4 2 -0.26702 0.53403 0
-2 4 2 1.33508 0.71204 0
-2 4 -2 0.08901 0.47469 0
2 -4 -2 -0.59337 0.5637 0
-1 4 2 82.1006 3.17981 0
1 -4 2 77.7618 2.62508 0
1 -4 2 80.9317 2.58546 0
1 -4 -2 81.952 3.03122 0
-1 4 -2 77.1873 2.77367 0
0 4 2 61.6692 2.99326 0
0 4 -2 56.8324 2.00212 0
0 -4 -2 57.9722 2.30937 0
1 4 2 83.854 3.52652 0
1 4 -2 79.5449 2.4963 0
-1 -4 -2 85.2507 3.00151 0
2 4 2 -0.27691 0.61315 0
-2 -4 -2 -0.49447 0.40547 0
3 4 2 9.26039 1.31164 0
-3 -4 -2 9.28011 0.89744 0
4 4 2 38.5281 2.22996 0
-4 -4 -2 38.0468 1.82719 0
5 4 2 39.5967 2.51206 0
-5 -4 -2 42.0013 2.03311 0
6 4 2 9.44307 1.95273 0
7 4 2 2.00625 1.62043 0
8 4 2 9.02073 2.10452 0
8 4 -2 10.2452 2.00886 0
8 4 -2 9.01116 1.42533 0
7 -4 3 0.52787 2.21707 0
7 -4 -3 1.28609 1.94834 0
6 -4 3 4.20509 1.81737 0
6 -4 -3 8.04283 1.78837 0
-6 4 -3 4.45643 1.6917 0
5 -4 3 4.71708 1.58533 0
-5 4 -3 3.90983 1.35191 0
5 -4 -3 2.66491 1.26437 0
4 -4 3 2.40456 1.15341 0
-4 4 3 -0.15639 1.04589 0
4 -4 -3 -0.37144 0.91882 0
-4 4 -3 1.11431 0.90904 0
-3 4 3 1.28547 1.19715 0
3 -4 3 -0.95183 0.75558 0
3 -4 -3 0.35326 0.82427 0
-3 4 -3 0.21588 0.75558 0
2 -4 3 1.15129 0.68881 0
-2 4 3 2.40098 1.01353 0
-2 4 -3 1.10209 0.64945 0
2 -4 -3 2.89299 0.82657 0
1 -4 3 4.08061 0.70967 0
-1 4 3 3.41037 1.05465 0
-1 4 -3 3.75534 0.6801 0
1 -4 -3 3.51879 0.81809 0
0 4 3 -0.04931 0.69034 0
0 4 -3 -0.32545 0.35503 0
1 4 3 4.2186 1.07436 0
1 4 -3 3.45965 0.5224 0
-1 -4 -3 2.58242 0.66039 0
2 4 3 2.67651 1.02337 0
-2 -4 -3 2.01722 0.61993 0
2 4 -3 2.16482 0.45264 0
3 4 3 -0.157 0.97146 0
3 4 -3 -0.47101 0.41213 0
-3 -4 -3 -0.59858 0.59858 0
4 4 3 0.47896 1.05566 0
-4 -4 -3 -0.39099 0.68422 0
4 4 -3 1.68124 0.53761 0
5 4 3 2.34395 2.17861 0
5 4 -3 3.26791 0.7878 0
-5 -4 -3 2.38285 1.07958 0
6 4 3 5.22011 1.5467 0
-6 -4 -3 4.01175 1.15036 0
7 4 3 1.12293 1.82357 0
7 4 -3 0.46069 1.13253 0
-7 -4 -3 0.19195 1.37247 0
6 -4 4 8.63034 2.36158 0
6 -4 -4 4.65597 1.91039 0
-6 4 -4 7.67995 2.01599 0
-5 4 4 17.8101 2.37597 0
5 -4 4 19.6645 3.05206 0
-5 4 -4 22.1371 2.39529 0
5 -4 -4 18.5152 2.61743 0
4 -4 4 18.4329 2.50431 0
-4 4 4 18.8212 2.31989 0
4 -4 -4 18.5785 2.86346 0
-4 4 -4 17.5787 2.11605 0
3 -4 4 6.04152 1.30575 0
-3 4 4 5.642 1.59808 0
3 -4 -4 3.9075 1.16933 0
-3 4 -4 4.20958 1.11086 0
2 -4 4 0.43972 0.89898 0
-2 4 4 0.5472 1.29961 0
-2 4 -4 -0.15634 0.77195 0
2 -4 -4 0.2736 0.91852 0
1 -4 4 34.2964 1.87925 0
-1 4 4 39.4349 2.68185 0
-1 4 -4 35.8722 2.01628 0
1 -4 -4 36.5769 2.28055 0
0 4 4 31.2501 2.43851 0
0 -4 4 29.8007 1.46898 0
0 -4 -4 30.7801 2.10554 0
0 4 -4 29.5657 1.7334 0
1 4 4 37.8102 2.68185 0
-1 -4 -4 36.8118 2.28055 0
1 4 -4 38.2702 1.82053 0
2 4 4 0.73286 1.26052 0
2 4 -4 0.26383 0.58629 0
-2 -4 -4 0.15634 0.78172 0
-3 -4 -4 1.98786 0.98418 0
3 4 -4 4.44344 0.77955 0
4 4 4 17.7535 2.34901 0
4 4 -4 20.4519 1.55306 0
-4 -4 -4 21.7914 2.10634 0
5 4 4 20.3213 3.02308 0
5 4 -4 17.3755 1.74817 0
6 4 4 9.60954 2.26559 0
-6 -4 -4 5.73116 1.67999 0
6 4 -4 4.84797 1.24799 0
-5 4 5 0.47863 2.29742 0
5 -4 5 0.84239 2.06768 0
5 -4 -5 3.93434 1.74221 0
-5 4 -5 -0.5935 1.63691 0
-4 4 5 -0.25012 1.98176 0
4 -4 5 2.03948 1.94328 0
4 -4 -5 -1.74126 1.54885 0
-4 4 -5 1.1448 1.46227 0
-3 4 5 0.32835 1.77698 0
3 -4 5 1.84458 1.5452 0
-3 4 -5 1.21684 1.33273 0
-2 4 5 0.13558 1.61727 0
2 -4 5 1.43327 1.36548 0
2 -4 -5 0.26147 1.2299 0
-2 4 -5 -0.31958 1.16211 0
-1 4 5 1.73636 1.62965 0
-1 4 -5 1.54235 1.06704 0
1 -4 -5 0.0194 1.23194 0
0 -4 5 -0.05823 0.95116 0
0 4 5 1.98967 1.65967 0
0 4 -5 -0.22323 0.86381 0
0 -4 -5 -1.73732 1.03851 0
1 4 5 0.1164 1.35805 0
1 4 -5 -0.1261 0.82453 0
2 4 5 -2.47916 1.73348 0
2 4 -5 0.30989 0.81347 0
-2 -4 -5 0.94905 1.20084 0
3 4 5 -0.56013 1.84458 0
3 4 -5 -0.19315 0.84986 0
-3 -4 -5 -0.26075 1.25547 0
4 4 5 1.20253 1.78936 0
-4 -4 -5 1.64506 1.33721 0
4 4 -5 2.20303 1.01974 0
5 4 5 4.46083 2.01982 0
5 4 -5 0.62222 1.187 0
-5 -4 -5 1.45504 1.53162 0
2 -4 6 1.43686 1.90624 0
-2 4 6 -1.72423 2.48098 0
-2 4 -6 0.52685 1.48476 0
2 -4 -6 -1.12075 1.79129 0
1 -4 6 14.5171 2.05331 0
-1 4 6 11.6099 2.40833 0
1 -4 -6 14.4883 2.35076 0
-1 4 -6 15.6973 2.34116 0
0 4 6 12.7491 2.75526 0
0 -4 6 9.34101 1.81444 0
0 -4 -6 13.4595 2.04485 0
0 4 -6 18.9316 2.56326 0
1 4 6 12.9819 2.51387 0
1 4 -6 12.2143 2.72496 0
-1 -4 -6 8.52989 1.79425 0
2 4 6 1.62844 2.12656 0
-2 -4 -6 2.11698 1.82003 0
2 4 -6 2.01161 1.59971 0
8 -5 0 8.81122 2.43266 0
8 -5 0 9.76897 2.05914 0
7 -5 0 42.9641 3.37996 0
7 -5 0 36.5904 2.9647 0
6 -5 0 21.7783 2.14962 0
6 -5 0 26.7389 2.60678 0
5 -5 0 8.59241 1.46795 0
5 -5 0 11.0879 1.46795 0
4 -5 0 9.75679 1.42614 0
4 -5 0 8.66505 1.25894 0
3 -5 0 49.6755 2.36973 0
-3 5 0 48.7177 2.43885 0
3 -5 0 51.3442 2.24137 0
2 -5 0 149.164 4.82198 0
-2 5 0 154.115 5.02 0
2 -5 0 147.343 4.88138 0
-1 5 0 73.1843 2.74726 0
1 -5 0 75.8125 2.53899 0
1 -5 0 74.9993 2.59849 0
0 5 0 0.00992 0.43663 0
0 -5 0 0.10916 0.26793 0
0 -5 0 0.13893 0.17862 0
1 5 0 73.2636 2.3803 0
2 5 0 150.551 4.49523 0
3 5 0 54.958 2.02415 0
4 5 0 10.6321 1.10157 0
5 5 0 11.2249 1.75176 0
6 5 0 27.5851 2.14962 0
7 5 0 43.5242 2.88745 0
8 5 0 8.33235 1.89633 0
8 -5 1 2.14322 2.25803 0
8 -5 1 2.66946 2.0284 0
8 -5 -1 3.59755 1.9997 0
7 -5 1 0.3666 1.22522 0
7 -5 1 2.78811 2.13208 0
7 -5 -1 2.2575 1.4857 0
7 -5 -1 2.69163 1.669 0
6 -5 1 2.83739 1.03973 0
6 -5 1 -0.58303 1.43813 0
6 -5 -1 0.91341 1.44785 0
5 -5 1 -0.38129 1.03632 0
5 -5 1 0.43017 0.87989 0
5 -5 -1 2.12152 1.03632 0
4 -5 1 0.36355 0.94326 0
-4 5 1 0.91378 0.92361 0
4 -5 1 1.34611 0.73692 0
4 -5 -1 0.56989 0.79588 0
3 -5 1 12.4977 1.1245 0
-3 5 1 10.4953 1.49933 0
3 -5 -1 10.3276 1.21327 0
2 -5 1 27.0137 1.53318 0
-2 5 1 29.7338 1.82993 0
2 -5 1 29.2887 1.36503 0
-2 5 -1 27.3599 1.57275 0
2 -5 -1 27.8446 1.54307 0
1 -5 1 -0.04954 0.3666 0
1 -5 1 0 0.26752 0
-1 5 1 0.05945 0.54494 0
-1 5 -1 0.47558 0.46568 0
1 -5 -1 0.52512 0.40623 0
0 5 1 0.11896 0.53533 0
0 5 -1 0.34697 0.34697 0
0 -5 -1 -0.13879 0.27758 0
0 5 -1 -0.16853 0.27758 0
1 5 1 -0.06936 0.45577 0
-1 -5 -1 -0.3666 0.26752 0
2 5 1 29.7239 1.48372 0
-2 -5 -1 28.6754 1.14741 0
3 5 1 11.9453 1.1245 0
-3 -5 -1 11.7776 0.69048 0
4 5 1 0.37337 0.68779 0
5 5 1 0.65503 0.85056 0
5 5 -1 -0.15643 0.70391 0
6 5 1 2.42927 1.22435 0
6 5 -1 4.40184 1.03973 0
7 5 -1 3.67567 1.33134 0
8 5 1 4.32471 1.81791 0
8 5 -1 5.87472 1.86575 0
7 -5 2 35.5509 3.68398 0
7 -5 2 30.3279 2.78944 0
7 -5 -2 31.7322 3.12609 0
6 -5 2 20.655 3.00331 0
6 -5 -2 20.7422 2.43172 0
5 -5 2 11.19 1.87149 0
5 -5 2 8.03182 1.25741 0
5 -5 -2 8.25601 1.52059 0
4 -5 2 7.67042 1.35187 0
-4 5 2 8.17982 1.52821 0
4 -5 2 7.31776 1.0384 0
-4 5 -2 10.1097 1.41065 0
4 -5 -2 4.94708 1.05799 0
-3 5 2 38.0986 2.40944 0
3 -5 2 40.6457 2.26192 0
3 -5 2 38.2854 1.89805 0
-3 5 -2 38.4625 2.06523 0
3 -5 -2 38.3936 2.13407 0
2 -5 2 111.557 3.58972 0
-2 5 2 107.672 4.10253 0
2 -5 2 106.863 3.64889 0
2 -5 -2 107.8 3.93488 0
-2 5 -2 103.757 3.75737 0
-1 5 2 53.017 2.49922 0
1 -5 2 51.318 1.78798 0
1 -5 2 53.3924 1.74847 0
-1 5 -2 54.2222 2.08433 0
1 -5 -2 52.3947 2.30165 0
0 5 2 0.09884 0.66222 0
0 5 -2 -0.62268 0.29651 0
0 -5 -2 -0.85989 0.44477 0
1 5 2 52.4639 2.3708 0
1 5 -2 50.4981 1.62993 0
-1 -5 -2 53.0664 2.15348 0
2 5 2 113.845 4.07295 0
-2 -5 -2 112.76 3.84612 0
3 5 2 40.213 2.15374 0
-3 -5 -2 39.8983 1.80954 0
4 5 2 7.7194 1.17554 0
-4 -5 -2 7.2002 0.98942 0
5 5 2 9.00656 1.4816 0
-5 -5 -2 8.32424 0.97474 0
6 5 2 18.5333 35.2066 0
-6 -5 -2 16.1791 47.6074 0
7 5 2 36.0703 3.32809 0
7 -5 3 1.65582 1.60796 0
7 -5 3 -2.63208 2.31623 0
7 -5 -3 -3.90506 1.63668 0
6 -5 3 4.8104 2.06298 0
-6 5 -3 3.34511 1.70629 0
5 -5 3 1.71671 1.56153 0
-5 5 3 0.68862 1.66821 0
-5 5 -3 -0.26187 1.63912 0
5 -5 -3 0.32976 1.26086 0
4 -5 3 2.0957 1.18919 0
-4 5 3 -2.19317 2.74878 0
-4 5 -3 0.3899 0.9455 0
4 -5 -3 0.79929 1.00399 0
-3 5 3 5.52874 1.28189 0
3 -5 3 5.4896 1.09596 0
-3 5 -3 6.99655 1.17425 0
3 -5 -3 4.05115 0.95897 0
-2 5 3 14.9054 1.97234 0
2 -5 3 14.2675 1.04995 0
2 -5 3 17.9865 1.45227 0
-2 5 -3 14.7974 1.38358 0
2 -5 -3 13.4825 1.50133 0
1 -5 3 1.01239 0.31453 0
1 -5 3 0.22607 0.47179 0
-1 5 3 -0.18675 0.85513 0
-1 5 -3 -0.08846 0.50128 0
1 -5 -3 0.44231 0.69786 0
0 5 3 -0.2852 0.86544 0
0 5 -3 0.09835 0.42288 0
0 -5 -3 -0.16719 0.61957 0
1 5 3 0.35385 0.95342 0
-1 -5 -3 0.58974 0.64872 0
1 5 -3 0.55043 0.36367 0
2 5 3 12.933 1.76627 0
-2 -5 -3 14.9348 1.35414 0
2 5 -3 14.5031 0.84388 0
3 5 3 6.20394 1.12532 0
3 5 -3 6.25286 0.69476 0
-3 -5 -3 9.36462 1.22317 0
4 5 3 1.20868 1.08196 0
-4 -5 -3 1.04297 0.74081 0
4 5 -3 0.07798 0.50687 0
5 5 3 -0.44615 1.32875 0
5 5 -3 1.52273 0.63043 0
-5 -5 -3 0 0.8729 0
6 5 3 2.5257 1.62917 0
6 5 -3 1.33997 0.85797 0
-6 -5 -3 1.03149 1.07969 0
7 5 3 -0.65084 1.95253 0
7 5 -3 -0.201 1.13897 0
6 -5 4 10.7222 2.56568 0
-6 5 -4 10.2723 1.92426 0
6 -5 -4 7.71618 2.06786 0
5 -5 4 2.69687 1.9456 0
-5 5 4 2.91839 1.88781 0
-5 5 -4 3.37108 1.38696 0
5 -5 -4 5.962 1.76259 0
-4 5 4 3.41693 1.69395 0
4 -5 4 1.64555 1.4326 0
4 -5 -4 4.90761 1.41324 0
-3 5 4 19.0751 2.85689 0
3 -5 4 20.1537 2.14752 0
-3 5 -4 18.4726 1.95318 0
2 -5 4 48.2829 3.48845 0
-2 5 -4 48.9553 2.49454 0
2 -5 -4 49.423 2.79661 0
-1 5 4 27.144 2.49869 0
1 -5 4 25.6897 1.52264 0
-1 5 -4 22.8494 1.65929 0
1 -5 -4 23.4936 1.97163 0
0 5 4 -0.23438 1.17191 0
0 5 -4 1.46489 0.63479 0
0 -5 -4 0.57619 0.86917 0
1 5 4 25.5335 2.55726 0
1 5 -4 23.3081 1.38599 0
-1 -5 -4 22.3516 1.88378 0
-2 -5 -4 50.3974 2.7284 0
2 5 -4 48.0978 2.03656 0
3 5 4 18.424 2.5265 0
3 5 -4 19.4249 1.28268 0
-3 -5 -4 20.4063 2.06979 0
4 5 4 2.72968 1.51971 0
4 5 -4 4.38491 0.80341 0
-4 -5 -4 3.16526 1.20028 0
5 5 4 2.92803 1.84928 0
5 5 -4 4.00677 0.9439 0
6 5 4 11.7753 2.46994 0
6 5 -4 9.74574 1.33071 0
4 -5 5 4.47062 2.72458 0
-4 5 5 -1.90913 2.2449 0
-4 5 -5 -0.71952 1.38148 0
4 -5 -5 -2.28328 1.57335 0
3 -5 5 0.43338 1.57944 0
-3 5 5 -0.79935 1.92615 0
-3 5 -5 2.21507 1.23273 0
3 -5 -5 5.26801 1.75279 0
2 -5 5 6.64427 1.45826 0
-2 5 5 3.37042 1.91216 0
-2 5 -5 5.16669 1.23614 0
2 -5 -5 4.65485 1.60312 0
1 -5 5 -0.18379 1.01571 0
-1 5 5 1.14146 1.63481 0
-1 5 -5 -0.74485 1.04473 0
1 -5 -5 0.59008 1.35428 0
0 5 5 0.81302 1.57764 0
0 -5 -5 -0.72591 1.25824 0
0 5 -5 0.96788 0.88077 0
1 5 5 -0.46432 1.72187 0
1 5 -5 -0.68681 0.78355 0
-1 -5 -5 3.25026 1.31558 0
2 5 5 6.56701 2.19222 0
2 5 -5 6.13243 0.95608 0
-2 -5 -5 5.48538 1.48723 0
3 5 5 2.18617 2.0995 0
-3 -5 -5 1.89725 1.53129 0
3 5 -5 3.60189 0.86677 0
4 5 5 0.21106 2.04344 0
-4 -5 -5 2.82052 1.51579 0
4 5 -5 0.34537 0.94977 0
1 -5 6 6.45869 1.74145 0
-1 5 6 9.23354 2.55477 0
1 -5 -6 2.43038 1.75102 0
-1 5 -6 8.76468 1.66491 0
0 5 6 -0.66058 2.27854 0
0 5 -6 -0.16275 1.59881 0
0 -5 -6 0.33508 1.56051 0
1 5 6 5.93243 2.50693 0
1 5 -6 12.5059 1.9998 0
-1 -5 -6 11.4917 2.04764 0
7 -6 0 0.68333 1.67463 0
7 -6 0 1.83825 1.65539 0
6 -6 0 5.51575 2.06477 0
6 -6 0 3.84842 1.50253 0
5 -6 0 14.0151 2.11641 0
5 -6 0 10.7089 1.39469 0
4 -6 0 62.8794 2.90137 0
4 -6 0 68.143 3.10721 0
3 -6 0 36.8516 2.09596 0
3 -6 0 40.8369 1.98772 0
-3 6 0 35.5133 2.16485 0
2 -6 0 6.21662 0.94729 0
2 -6 0 5.45681 0.80915 0
-2 6 0 5.51601 0.92756 0
-1 6 0 40.7721 1.95706 0
1 -6 0 42.4029 1.621 0
1 -6 0 39.5563 1.70996 0
0 6 0 18.3453 1.17687 0
1 6 0 41.286 1.64077 0
2 6 0 6.35476 0.671 0
3 6 0 39.4887 1.65315 0
4 6 0 73.2401 2.72494 0
5 6 0 11.85 1.81407 0
6 6 0 6.33003 1.23111 0
7 6 0 1.48215 1.34741 0
7 -6 1 2.51908 1.4326 0
7 -6 1 -0.48074 1.82681 0
7 -6 -1 1.48068 1.5576 0
7 -6 -1 0.7788 1.90373 0
6 -6 1 2.04335 1.75283 0
6 -6 -1 0.74568 1.34609 0
6 -6 -1 1.56883 1.42357 0
5 -6 1 15.5114 1.77329 0
5 -6 1 16.4078 2.32866 0
5 -6 -1 16.7488 1.92918 0
5 -6 -1 18.0836 2.15328 0
-4 6 1 15.6479 2.05635 0
4 -6 1 14.6882 1.44924 0
4 -6 1 11.1337 1.47861 0
4 -6 -1 14.9037 1.67446 0
-3 6 1 4.37451 1.08134 0
3 -6 1 4.97416 1.101 0
3 -6 1 3.92231 0.82575 0
3 -6 -1 4.06977 0.81592 0
2 -6 1 0.02957 0.40417 0
2 -6 1 0.21687 0.56189 0
-2 6 1 0.4436 0.70976 0
2 -6 -1 0.24644 0.54218 0
1 -6 1 3.30787 0.43447 0
-1 6 1 3.44611 0.81956 0
1 -6 1 2.75492 0.40484 0
-1 6 -1 2.58705 0.62208 0
1 -6 -1 3.17951 0.58258 0
0 6 1 71.1638 2.77621 0
0 6 -1 70.2845 2.45018 0
0 6 -1 73.2089 2.43042 0
0 -6 -1 68.0517 2.46994 0
1 6 1 3.00177 0.73069 0
1 6 -1 3.35725 0.37522 0
-1 -6 -1 2.6858 0.37522 0
1 6 -1 2.35995 0.3456 0
2 6 1 -0.27602 0.49289 0
-2 -6 -1 -0.21687 0.21687 0
3 6 1 5.84906 0.94371 0
4 6 1 14.747 1.43945 0
5 6 1 17.0411 1.78303 0
5 6 -1 16.6514 1.38355 0
6 6 1 -0.74568 1.0362 0
6 6 -1 0.63915 0.94904 0
7 6 1 0.05769 1.67297 0
7 6 -1 0.30767 1.298 0
7 -6 2 0.57517 1.48587 0
7 -6 2 0.86276 1.99394 0
7 -6 -2 -0.10545 1.55297 0
6 -6 2 2.76141 1.77657 0
6 -6 2 3.09934 1.23588 0
6 -6 -2 0.84001 1.33243 0
5 -6 2 9.23825 1.56399 0
-5 6 2 7.23711 1.76799 0
5 -6 2 9.85996 1.67085 0
-4 6 2 49.8492 3.16317 0
4 -6 2 52.7292 2.54811 0
4 -6 2 58.2453 2.94839 0
4 -6 -2 50.806 2.80194 0
-4 6 -2 53.9886 2.96791 0
-3 6 2 26.7957 2.31301 0
3 -6 2 29.2753 1.63675 0
3 -6 2 31.1375 2.43062 0
3 -6 -2 26.4624 1.91118 0
-3 6 -2 27.0995 1.85237 0
2 -6 2 3.14503 0.73712 0
-2 6 2 3.26297 1.01231 0
2 -6 2 3.14503 0.55038 0
-2 6 -2 4.63892 0.8354 0
2 -6 -2 3.27279 0.73712 0
-1 6 2 29.1106 2.00831 0
1 -6 -2 30.2821 1.70312 0
-1 6 -2 28.6184 1.45701 0
0 6 2 14.8047 1.52677 0
0 -6 -2 19.7003 1.27067 0
0 6 -2 15.0904 0.90621 0
1 6 2 30.4692 1.89017 0
1 6 -2 30.5775 1.07307 0
-1 -6 -2 31.1485 1.58499 0
2 6 2 1.97547 0.7666 0
-2 -6 -2 4.34407 0.66832 0
3 6 2 28.8637 1.90138 0
-3 -6 -2 29.1479 1.44073 0
4 6 2 53.1588 2.75313 0
-4 -6 -2 54.9454 2.17712 0
5 6 2 8.91768 1.43771 0
6 6 2 4.70212 1.6414 0
7 6 2 4.00706 1.71594 0
7 6 -2 1.93642 1.33249 0
6 -6 3 -0.31705 1.13368 0
6 -6 3 0.77821 1.99836 0
-6 6 -3 0.40351 2.02718 0
6 -6 -3 -1.17211 1.71013 0
5 -6 3 8.40945 1.29525 0
5 -6 3 7.0562 1.76888 0
-5 6 3 13.3198 2.23285 0
-5 6 -3 7.27852 1.72055 0
5 -6 -3 7.55884 1.57556 0
4 -6 3 13.5029 1.76801 0
4 -6 3 6.80974 1.03943 0
-4 6 3 9.65603 1.65143 0
-4 6 -3 8.72346 1.46686 0
3 -6 3 1.3848 0.92645 0
3 -6 3 2.18447 0.6924 0
3 -6 -3 3.07191 1.05323 0
-3 6 -3 2.93538 0.95571 0
2 -6 3 0.67477 0.66499 0
-2 6 3 -0.81168 1.25174 0
2 -6 3 -0.35205 0.45962 0
2 -6 -3 -1.06593 0.72366 0
-2 6 -3 -0.55741 0.63565 0
-1 6 3 2.24318 1.16567 0
-1 6 -3 1.23424 0.62691 0
1 -6 -3 1.78279 0.8718 0
0 6 3 36.7439 2.48945 0
0 -6 -3 35.9402 2.0288 0
0 6 -3 36.342 1.63676 0
1 6 3 1.73381 0.98935 0
-1 -6 -3 0.35264 0.62691 0
1 6 -3 1.78279 0.41141 0
2 6 3 0.16625 0.99748 0
2 6 -3 0.12713 0.32271 0
-2 -6 -3 0.41073 0.66499 0
3 6 3 2.97439 1.12149 0
-3 -6 -3 1.48232 0.68265 0
3 6 -3 2.0967 0.41934 0
4 6 -3 11.6863 0.91315 0
-4 -6 -3 9.7046 1.36 0
5 6 3 7.71349 1.5369 0
-5 -6 -3 10.5456 1.23725 0
5 6 -3 10.4296 1.13093 0
6 6 3 -1.7966 1.49877 0
6 6 -3 -0.67252 0.82624 0
-6 -6 -3 -0.97996 1.08565 0
-5 6 4 8.38002 2.44777 0
5 -6 4 3.86844 2.01581 0
5 -6 -4 3.16771 1.82383 0
-5 6 -4 6.82497 1.86223 0
-4 6 4 27.4455 3.49218 0
4 -6 4 26.5194 2.09338 0
4 -6 4 33.7642 2.78796 0
-4 6 -4 23.0465 2.37314 0
4 -6 -4 22.6317 2.54679 0
3 -6 4 12.1345 1.31707 0
3 -6 4 9.03548 1.4817 0
-3 6 4 11.321 1.93687 0
-3 6 -4 14.9042 1.82065 0
3 -6 -4 15.4659 2.1015 0
2 -6 4 1.34986 0.92256 0
-2 6 4 1.35957 1.39841 0
2 -6 4 1.83541 0.60209 0
-2 6 -4 1.50523 0.92256 0
-1 6 4 22.0325 2.60693 0
1 -6 -4 15.5151 1.91629 0
-1 6 -4 16.4781 1.52719 0
0 6 4 9.23638 1.83949 0
0 6 -4 9.30451 1.17766 0
0 -6 -4 7.39689 1.37232 0
1 6 4 16.517 2.3832 0
1 6 -4 14.2408 1.18674 0
-1 -6 -4 13.8031 1.8482 0
2 6 4 1.71888 1.31101 0
-2 -6 -4 1.77715 0.91285 0
2 6 -4 1.44697 0.57296 0
3 6 4 14.052 2.01434 0
3 6 -4 11.9892 1.09433 0
-3 -6 -4 18.1484 1.92718 0
4 6 4 29.9151 3.04843 0
-4 -6 -4 31.1209 2.29597 0
4 6 -4 27.4069 1.54351 0
5 6 4 6.01864 1.88143 0
5 6 -4 4.60757 0.94071 0
3 -6 5 0.21116 1.5645 0
-3 6 5 -1.15178 2.16919 0
3 -6 -5 1.96763 1.75647 0
-3 6 -5 0.57589 1.44933 0
2 -6 5 0.69298 1.21271 0
-2 6 5 0.60635 1.97306 0
-2 6 -5 -1.71319 1.24159 0
2 -6 -5 -2.99328 1.42445 0
-1 6 5 1.98597 1.94741 0
1 -6 -5 0.28922 1.47502 0
-1 6 -5 1.41718 1.08939 0
0 6 5 10.4562 2.17034 0
0 6 -5 14.4014 1.63982 0
0 -6 -5 11.0253 1.64946 0
1 6 5 2.99824 1.86064 0
1 6 -5 2.19807 0.89658 0
-1 -6 -5 0.24102 1.20508 0
2 6 5 -1.38596 1.84794 0
-2 -6 -5 0.13475 1.31858 0
2 6 -5 0.29836 0.87585 0
3 6 5 0.55669 2.15959 0
3 6 -5 2.0924 0.89263 0
-3 -6 -5 1.97723 1.37254 0
7 -7 0 32.9852 3.80561 0
6 -7 0 15.1872 2.07581 0
6 -7 0 16.7127 2.32684 0
5 -7 0 5.48836 1.44737 0
5 -7 0 3.42901 1.12681 0
4 -7 0 6.19921 1.35699 0
4 -7 0 5.4182 1.06412 0
3 -7 0 24.5504 1.61709 0
-3 7 0 23.639 2.05812 0
3 -7 0 29.1273 1.96991 0
2 -7 0 100.136 3.44958 0
-2 7 0 98.318 3.72476 0
2 -7 0 91.6842 3.45941 0
1 -7 0 20.358 1.02381 0
-1 7 0 20.1808 2.25435 0
1 -7 0 19.9347 1.18132 0
0 7 0 0.23639 0.56144 0
1 7 0 19.0291 1.19116 0
2 7 0 97.2468 3.20389 0
3 7 0 26.2165 1.35248 0
4 7 0 5.1839 0.82981 0
5 7 0 7.402 1.09767 0
6 7 0 21.1443 1.91168 0
7 7 0 32.7839 2.57862 0
7 -7 1 4.31898 1.68545 0
7 -7 1 6.71309 2.35581 0
7 -7 -1 4.66373 2.09724 0
7 -7 -1 -0.39263 1.6663 0
6 -7 1 8.9509 2.11233 0
6 -7 1 6.39488 1.62042 0
6 -7 -1 5.81615 1.74581 0
6 -7 -1 8.76764 1.7651 0
5 -7 1 4.50277 1.6109 0
5 -7 1 1.38771 0.98983 0
5 -7 -1 3.07625 1.68854 0
5 -7 -1 0.48521 1.17421 0
4 -7 1 1.69699 1.12157 0
-4 7 1 4.05716 1.45317 0
4 -7 1 4.0279 0.95577 0
4 -7 -1 4.42777 1.09231 0
4 -7 -1 2.46746 1.35564 0
3 -7 1 9.48727 1.1651 0
3 -7 1 10.4076 1.55673 0
-3 7 1 13.2861 1.73297 0
3 -7 -1 8.80191 1.30217 0
2 -7 1 14.678 0.97199 0
-2 7 1 12.2235 1.67888 0
2 -7 1 11.7326 1.24689 0
2 -7 -1 13.3329 1.26653 0
-1 7 1 9.15588 1.34732 0
-1 7 -1 8.96903 1.1703 0
1 -7 -1 8.56581 0.93427 0
0 7 1 0.61992 0.66912 0
0 7 -1 0.77736 0.52152 0
0 -7 -1 -0.16728 0.36408 0
1 7 -1 9.11654 0.77692 0
-1 -7 -1 10.1492 0.63924 0
2 7 1 38.958 18.7034 0
-2 -7 -1 1.57089 21.099 0
3 7 1 9.8789 1.26301 0
3 7 -1 10.2999 0.64619 0
4 7 1 2.73078 0.91676 0
4 7 -1 3.28669 0.64368 0
5 7 1 3.93022 1.08688 0
5 7 -1 3.45471 0.83457 0
6 7 1 7.63913 1.50468 0
6 7 -1 7.92849 1.20567 0
7 7 1 3.01658 1.54181 0
7 7 -1 3.05489 1.32155 0
6 -7 2 16.6465 2.40417 0
6 -7 2 14.6847 2.27916 0
-5 7 2 4.73123 1.97376 0
5 -7 2 5.16662 1.16104 0
5 -7 2 8.35947 1.94474 0
5 -7 -2 5.64071 1.53838 0
4 -7 2 4.40482 0.99181 0
4 -7 2 5.01741 1.39048 0
-4 7 2 2.23644 1.50717 0
4 -7 -2 3.62693 1.05988 0
3 -7 2 20.4601 1.45446 0
-3 7 2 20.0697 2.333 0
-3 7 -2 20.1477 1.84492 0
3 -7 -2 18.7323 1.80588 0
-2 7 2 77.0562 3.5337 0
2 -7 2 74.9908 2.55484 0
2 -7 2 73.317 2.64294 0
-2 7 -2 75.4607 3.07364 0
2 -7 -2 73.2093 3.15194 0
-1 7 2 13.8937 1.84334 0
-1 7 -2 16.4331 1.1864 0
1 -7 -2 16.041 1.3727 0
0 7 2 -0.00981 0.76521 0
0 -7 -2 1.01047 0.55919 0
0 7 -2 0.36299 0.40223 0
1 7 2 14.0701 1.59821 0
1 7 -2 14.6781 0.72557 0
-1 -7 -2 16.041 1.13738 0
2 7 2 74.7657 3.21068 0
-2 -7 -2 78.6029 2.79955 0
3 7 2 21.4558 1.79612 0
-3 -7 -2 20.4113 1.17138 0
4 7 2 4.14228 1.08905 0
-4 -7 -2 3.93809 0.60287 0
5 7 2 5.45688 1.35454 0
6 7 2 15.8387 2.42341 0
6 -7 3 3.09084 2.2966 0
6 -7 3 3.83724 1.37796 0
6 -7 -3 1.56934 1.82771 0
5 -7 3 -0.86646 1.63665 0
-5 7 3 3.51399 2.02175 0
5 -7 3 1.95436 1.08789 0
-5 7 -3 1.91585 1.60777 0
5 -7 -3 0.64504 1.42485 0
4 -7 3 4.15074 0.94819 0
4 -7 3 2.04151 1.38358 0
-4 7 3 0.95786 1.64482 0
-4 7 -3 1.66417 1.44163 0
4 -7 -3 3.42509 1.17072 0
-3 7 3 3.8172 1.52494 0
3 -7 3 5.98319 1.93288 0
3 -7 -3 4.69136 1.14613 0
-3 7 -3 4.30284 1.07814 0
2 -7 3 7.8309 0.78893 0
-2 7 3 6.21408 2.30836 0
2 -7 3 8.28868 1.09087 0
2 -7 -3 11.0353 1.61683 0
-2 7 -3 9.02892 1.31489 0
-1 7 3 4.361 1.5122 0
1 -7 -3 2.42928 0.87805 0
0 7 3 -1.19091 0.97616 0
0 7 -3 0 0.51736 0
0 -7 -3 -0.01952 0.71259 0
1 7 3 6.47809 1.43416 0
1 7 -3 4.32198 0.51708 0
-1 -7 -3 6.01955 1.12196 0
2 7 3 9.0484 1.54865 0
-2 -7 -3 7.62637 1.01295 0
2 7 -3 7.00301 0.61362 0
3 7 3 6.32314 1.96202 0
-3 -7 -3 5.75979 0.86445 0
3 7 -3 5.07017 0.57307 0
4 7 3 3.94756 1.43196 0
4 7 -3 2.25437 0.49345 0
-4 -7 -3 2.68976 0.81273 0
5 7 3 1.80995 1.45373 0
5 7 -3 1.54038 0.61615 0
-5 -7 -3 0.8087 0.92423 0
6 7 3 3.48318 1.72245 0
6 7 -3 4.90899 0.94735 0
4 -7 4 1.99854 1.66225 0
-4 7 4 0.45159 2.09463 0
4 -7 4 0.58611 1.00888 0
-4 7 -4 3.43019 1.41243 0
4 -7 -4 1.00888 1.52773 0
-3 7 4 8.76783 2.0738 0
3 -7 4 8.11193 1.04172 0
-3 7 -4 12.8576 1.74585 0
3 -7 -4 8.54598 1.65904 0
2 -7 4 40.817 1.55724 0
-2 7 4 39.5112 3.46267 0
2 -7 4 43.68 1.88609 0
-2 7 -4 44.3087 2.46643 0
2 -7 -4 37.8766 2.83398 0
-1 7 4 7.26626 2.05393 0
-1 7 -4 6.52026 1.07541 0
0 7 4 -0.86274 1.40559 0
0 -7 -4 -0.9306 1.06631 0
0 7 -4 0.07755 0.63979 0
1 7 4 8.15759 1.68577 0
1 7 -4 7.4794 0.9107 0
-1 -7 -4 5.08638 1.19167 0
2 7 4 41.2909 3.30792 0
2 7 -4 41.6005 1.74101 0
-2 -7 -4 39.105 2.50512 0
3 7 4 8.97038 1.94841 0
3 7 -4 11.594 1.03208 0
-3 -7 -4 12.8961 1.99663 0
4 7 4 1.45086 1.8352 0
4 7 -4 1.72951 0.63415 0
-4 -7 -4 2.89212 1.153 0
-2 7 5 7.25681 2.54995 0
2 -7 -5 1.20787 1.78305 0
-1 7 5 -1.07544 1.93963 0
1 -7 -5 0.21125 1.75719 0
-1 7 -5 2.84223 1.10425 0
0 7 5 1.87345 2.10403 0
1 7 5 2.03565 2.16048 0
-1 -7 -5 0.57613 1.55555 0
2 7 5 2.67457 2.19526 0
2 7 -5 1.90767 0.88194 0
-2 -7 -5 5.72301 1.59132 0
6 -8 0 6.64082 1.96053 0
6 -8 0 3.46937 1.50884 0
5 -8 0 23.8245 2.32056 0
4 -8 0 30.0751 2.19612 0
4 -8 0 39.1802 2.67226 0
3 -8 0 8.00896 1.09257 0
3 -8 0 8.70157 1.35596 0
-3 8 0 7.93092 1.53155 0
2 -8 0 25.248 1.70211 0
2 -8 0 24.4458 1.45755 0
-2 8 0 22.9589 1.94667 0
1 -8 0 20.6358 0.99945 0
-1 8 0 21.6842 1.69515 0
1 -8 0 20.5084 1.20522 0
0 -8 0 1.82355 21.7453 0
1 8 0 21.7038 1.42079 0
2 8 0 26.9501 1.46734 0
3 8 0 7.5212 1.01453 0
4 8 0 37.985 1.88516 0
5 8 0 28.4753 1.86612 0
6 8 0 5.56445 1.22053 0
6 -8 1 9.08247 1.88178 0
6 -8 1 8.48722 2.1218 0
6 -8 -1 5.37652 1.62256 0
6 -8 -1 7.16229 1.84338 0
5 -8 1 15.1073 2.12507 0
5 -8 1 24.4866 2.89782 0
5 -8 -1 18.575 2.75293 0
5 -8 -1 16.6915 2.5694 0
-4 8 1 7.77583 1.82504 0
4 -8 1 6.0867 1.07755 0
4 -8 1 6.89243 1.47556 0
4 -8 -1 3.66949 1.42702 0
4 -8 -1 3.63066 1.10667 0
-3 8 1 5.25277 1.44232 0
3 -8 1 3.24522 0.74065 0
3 -8 1 4.38543 1.14021 0
3 -8 -1 5.7303 1.10123 0
3 -8 -1 3.18675 1.20843 0
-2 8 1 8.63888 1.46587 0
2 -8 1 7.35868 1.15315 0
2 -8 1 7.03619 0.79157 0
2 -8 -1 9.14705 1.22156 0
-1 8 1 25.6075 1.93818 0
-1 8 -1 24.3937 1.66409 0
1 -8 -1 23.3365 1.41937 0
0 8 1 38.7949 2.15473 0
0 -8 -1 38.8733 1.58666 0
0 8 -1 40.4306 1.90008 0
1 8 1 24.8831 1.7424 0
1 8 -1 25.5585 1.3117 0
2 8 1 10.525 1.20202 0
2 8 -1 7.47595 0.74271 0
3 8 1 5.16506 0.95505 0
3 8 -1 5.88622 0.59447 0
4 8 1 7.25161 1.15521 0
4 8 -1 7.09629 0.92223 0
5 8 1 20.6905 2.00916 0
5 8 -1 22.1683 1.50687 0
6 8 1 9.51451 1.63216 0
6 8 -1 7.89196 1.25772 0
6 -8 2 5.31271 2.36439 0
6 -8 2 2.31653 1.34971 0
6 -8 -2 2.27824 1.60817 0
5 -8 2 16.4396 2.19579 0
-5 8 2 21.669 3.33221 0
5 -8 -2 21.3031 2.52324 0
4 -8 2 29.7911 2.06156 0
4 -8 2 30.546 2.5455 0
-4 8 2 28.6877 2.93265 0
3 -8 2 7.18035 0.96191 0
-3 8 2 3.48815 1.34085 0
3 -8 2 4.77071 1.32142 0
3 -8 -2 1.74893 1.04936 0
-2 8 2 23.3352 2.36762 0
2 -8 2 20.3732 1.18868 0
2 -8 2 19.0189 0.87689 0
-2 8 -2 20.5291 1.69533 0
2 -8 -2 18.444 1.77328 0
-1 8 2 15.0199 1.99094 0
1 -8 -2 16.0154 1.44441 0
-1 8 -2 14.5222 1.33705 0
0 8 2 14.7939 1.8651 0
0 8 -2 14.872 1.07414 0
0 -8 -2 17.157 1.32803 0
1 8 2 17.5964 1.75671 0
-1 -8 -2 13.2729 1.16138 0
1 8 -2 16.64 0.88812 0
1 8 -2 16.6009 1.12234 0
2 8 2 19.8471 1.93891 0
-2 -8 -2 21.1234 1.15945 0
3 8 2 5.16907 1.14652 0
-3 -8 -2 5.04276 0.61213 0
4 8 2 29.9266 2.33257 0
5 8 2 -5.74951 41.9031 0
-5 -8 -2 17.3737 58.1308 0
6 8 2 6.51883 1.57945 0
-5 8 3 12.5538 2.60659 0
5 -8 3 16.0804 1.83995 0
5 -8 -3 16.6841 2.35743 0
4 -8 3 5.75919 1.04012 0
4 -8 3 3.06258 1.43498 0
-4 8 3 4.05454 1.94541 0
4 -8 -3 3.98713 1.42535 0
-4 8 -3 5.76882 1.73353 0
3 -8 3 3.43217 0.82179 0
3 -8 3 3.38383 1.06349 0
-3 8 3 2.7264 1.68224 0
3 -8 -3 3.6642 1.79826 0
-3 8 -3 4.51499 1.24718 0
-2 8 3 6.09807 1.86141 0
2 -8 -3 5.45821 1.27003 0
-2 8 -3 5.21584 1.04705 0
-1 8 3 16.6446 2.43746 0
-1 8 -3 16.7515 1.36925 0
1 -8 -3 15.4987 1.88393 0
0 8 -3 22.7363 1.33114 0
0 -8 -3 23.1541 1.85583 0
-1 -8 -3 16.4019 1.62174 0
1 8 -3 17.237 0.99052 0
-2 -8 -3 5.86539 1.06644 0
2 8 -3 5.89448 0.61078 0
3 8 3 2.03996 1.52756 0
-3 -8 -3 4.03159 0.82179 0
4 8 3 6.29851 1.70464 0
-4 -8 -3 2.89885 0.83788 0
5 8 3 7.85811 1.80162 0
5 8 -3 11.5668 1.10205 0
-5 -8 -3 13.7709 1.57162 0
4 -8 4 11.8213 1.85545 0
4 -8 4 13.9159 1.98935 0
-4 8 4 13.935 2.76405 0
-4 8 -4 16.5843 2.0563 0
3 -8 4 2.76513 1.10413 0
-3 8 4 2.44829 2.27547 0
3 -8 4 0.66248 0.79689 0
3 -8 -4 -0.40325 1.49778 0
-2 8 4 13.5076 2.41654 0
-2 8 -4 9.25218 1.33824 0
2 -8 -4 9.42548 1.74261 0
-1 8 4 7.44487 1.86122 0
1 -8 -4 4.94718 1.39832 0
-1 8 -4 10.039 1.47547 0
0 8 4 8.98317 2.08417 0
0 8 -4 8.50073 1.23507 0
1 8 4 6.62517 1.77443 0
1 8 -4 8.0042 1.0608 0
-1 -8 -4 7.83062 1.30189 0
2 8 4 11.3991 2.10846 0
-2 -8 -4 7.41329 1.29973 0
2 8 -4 10.6386 1.2516 0
3 8 4 0.77769 1.75701 0
-3 -8 -4 2.04504 1.20014 0
3 8 -4 2.05464 0.58567 0
4 8 4 12.2613 2.22845 0
-4 -8 -4 14.9106 2.08499 0
4 8 -4 17.6555 1.19552 0
5 -9 0 1.04842 1.87561 0
5 -9 0 -0.57711 1.68324 0
4 -9 0 0.36733 1.4693 0
4 -9 0 1.4403 1.03431 0
3 -9 0 5.65741 1.29063 0
3 -9 0 3.4255 0.82484 0
-3 9 0 4.13389 1.73701 0
2 -9 0 6.68513 1.08986 0
-2 9 0 7.70687 1.37206 0
2 -9 0 8.54373 0.95363 0
1 -9 0 24.9623 1.18915 0
1 -9 0 27.3796 1.03319 0
-1 9 0 30.1283 2.06639 0
0 9 0 -0.95575 0.7607 0
2 9 0 8.31019 1.03148 0
3 9 0 5.03636 0.88306 0
4 9 0 0.93764 0.83131 0
5 9 0 0.2597 0.83681 0
5 -9 1 2.80582 1.94101 0
5 -9 1 2.01788 1.2876 0
5 -9 -1 3.49766 1.38369 0
5 -9 -1 3.70906 1.68157 0
4 -9 1 5.5044 1.16848 0
4 -9 1 5.9293 1.49681 0
-4 9 1 9.80169 1.94102 0
4 -9 -1 8.66218 1.53544 0
4 -9 -1 8.76841 1.77686 0
-3 9 1 11.3326 1.75467 0
3 -9 1 11.0612 1.31843 0
3 -9 -1 9.63614 1.5317 0
3 -9 -1 10.3147 1.31843 0
2 -9 1 2.11922 0.4569 0
-2 9 1 2.2456 1.13738 0
2 -9 1 2.42058 0.70965 0
2 -9 -1 2.0609 0.76797 0
-2 9 -1 1.6526 1.01101 0
2 -9 -1 2.20671 1.12766 0
-1 9 1 13.2721 1.90853 0
1 -9 -1 11.4609 1.08085 0
-1 9 -1 11.5972 1.34376 0
1 -9 -1 11.4706 1.55798 0
0 9 1 -0.85737 0.82814 0
0 -9 -1 -0.26305 0.60405 0
0 -9 -1 -0.48714 0.38971 0
1 9 1 9.31868 1.30481 0
1 9 -1 10.01 1.18796 0
2 9 1 3.06218 0.92351 0
2 9 -1 3.49963 0.6416 0
3 9 1 13.2036 1.58017 0
3 9 -1 11.798 0.95004 0
4 9 1 10.13 1.35196 0
4 9 -1 7.73512 0.985 0
5 9 1 2.28693 1.09542 0
5 9 -1 3.6418 0.83598 0
-5 9 2 -2.99868 1.91609 0
5 -9 2 0.23951 1.30294 0
5 -9 2 1.36042 1.83945 0
5 -9 -2 -3.12323 1.48497 0
4 -9 2 0.45252 1.30942 0
-4 9 2 1.43459 1.67529 0
4 -9 2 2.28186 1.01095 0
4 -9 -2 -0.87616 1.15537 0
3 -9 2 3.77918 0.74424 0
3 -9 2 1.89442 1.01487 0
-3 9 2 3.18959 1.65279 0
3 -9 -2 2.15539 1.17918 0
-2 9 2 5.05933 1.66706 0
2 -9 -2 6.81362 1.25999 0
1 -9 -2 22.0282 1.71837 0
0 9 2 -0.36912 1.02965 0
0 -9 -2 -0.30112 0.66053 0
1 9 2 25.5232 2.22321 0
-1 -9 -2 24.7271 1.41742 0
1 9 -2 23.2417 1.40771 0
2 9 2 5.88317 1.28906 0
-2 -9 -2 6.05763 0.78507 0
2 9 -2 5.16595 0.80445 0
3 9 2 2.629 1.15985 0
4 9 2 1.53087 1.93525 0
5 9 2 1.16881 1.26462 0
5 9 -2 0.12455 0.67063 0
4 -9 3 4.93397 1.56162 0
4 -9 3 3.51605 1.1305 0
-4 9 3 5.76747 2.19394 0
4 -9 -3 6.25608 1.84904 0
-3 9 3 7.24202 2.27936 0
3 -9 3 6.33797 0.96176 0
3 -9 3 7.7229 1.0964 0
-3 9 -3 9.18477 1.60613 0
3 -9 -3 9.80991 1.81772 0
-2 9 3 -0.57865 1.58164 0
-2 9 -3 1.35982 1.03192 0
2 -9 -3 0.86797 1.14765 0
-1 9 3 8.48161 1.75815 0
1 -9 -3 5.61255 1.2365 0
-1 9 -3 9.46695 1.36208 0
0 9 3 0.45428 1.39183 0
0 9 -3 -0.59926 0.66692 0
0 -9 -3 0.55093 0.96655 0
1 9 3 7.84404 1.72917 0
1 9 -3 6.53026 0.89839 0
-1 -9 -3 5.0909 1.02398 0
2 9 3 1.61057 1.29232 0
-2 -9 -3 0.59794 0.87762 0
2 9 -3 2.49783 0.44363 0
3 9 3 8.97318 1.79848 0
-3 -9 -3 8.34804 1.27914 0
4 9 3 6.40937 1.79156 0
-4 -9 -3 5.41299 0.91015 0
-2 9 4 2.37521 2.40394 0
-2 9 -4 3.55323 1.1876 0
2 -9 -4 4.7983 1.67605 0
-1 9 4 11.2433 2.20646 0
-1 9 -4 14.6585 1.66923 0
1 -9 -4 12.9509 1.91866 0
0 9 4 0.11518 1.82373 0
0 -9 -4 1.9965 1.39179 0
0 9 -4 -0.23997 0.77748 0
1 9 4 14.4187 2.38873 0
-1 -9 -4 20.1267 2.62856 0
1 9 -4 15.8289 1.33347 0
2 9 4 -0.28732 1.64732 0
2 9 -4 3.75436 0.71831 0
-2 -9 -4 5.85182 1.41746 0
4 -10 0 18.7011 2.12381 0
4 -10 0 22.795 2.80613 0
3 -10 0 16.6222 2.22851 0
-3 10 0 14.0174 2.00662 0
3 -10 0 12.9852 1.42779 0
2 -10 0 8.97741 1.16087 0
-2 10 0 7.42958 1.48979 0
2 -10 0 9.07415 1.04479 0
-1 10 0 21.318 2.04459 0
0 10 0 19.7301 1.90999 0
1 10 0 22.413 1.80234 0
2 10 0 9.71263 1.44142 0
3 10 0 14.6638 1.45673 0
4 10 0 19.1528 1.58565 0
4 -10 1 19.9978 1.9777 0
-4 10 1 23.6364 2.87055 0
4 -10 1 19.6522 2.78414 0
4 -10 -1 17.5593 2.16011 0
3 -10 1 -0.36623 0.73246 0
-3 10 1 0.12529 1.41674 0
3 -10 1 0.3084 1.14688 0
3 -10 -1 0.13493 1.07942 0
3 -10 -1 0.95413 1.38782 0
-2 10 1 -0.48322 1.34334 0
2 -10 -1 0.73449 0.82147 0
2 -10 -1 1.0824 1.20804 0
-1 10 1 4.86923 1.42302 0
1 -10 -1 5.49845 1.0842 0
1 -10 -1 5.55654 0.76475 0
-1 10 -1 5.09188 1.11324 0
0 10 1 16.3592 2.06306 0
0 10 -1 14.4705 1.59815 0
1 10 1 5.42101 1.17133 0
2 10 1 1.0824 0.96643 0
2 10 -1 0.44456 0.60885 0
3 10 1 0.20239 0.92522 0
3 10 -1 0.64572 0.59754 0
4 10 1 18.6154 1.9393 0
4 10 -1 18.9226 1.34407 0
4 -10 2 16.1576 1.86654 0
-4 10 2 12.2043 2.1537 0
4 -10 2 15.3822 2.0867 0
4 -10 -2 17.9284 2.76631 0
4 -10 -2 16.3777 2.02927 0
3 -10 2 11.8191 1.47979 0
-3 10 2 12.953 2.21968 0
3 -10 2 8.7442 1.00895 0
3 -10 -2 12.7704 1.73923 0
-2 10 2 6.8798 1.74404 0
2 -10 -2 10.1848 1.37789 0
-1 10 2 18.1642 2.54801 0
1 -10 -2 18.7626 1.66972 0
0 10 2 16.4457 2.12452 0
0 -10 -2 17.2182 1.40025 0
1 10 -2 15.7513 1.38017 0
-1 -10 -2 18.2028 1.13888 0
2 10 -2 8.23841 0.85757 0
4 10 2 17.3349 2.43129 0
-2 10 3 0.9492 1.96552 0
-2 10 -3 -2.34904 1.22725 0
2 -10 -3 -0.51775 2.20522 0
-1 10 3 2.37214 1.80551 0
-1 10 -3 3.76468 0.99879 0
1 -10 -3 2.42976 1.22928 0
0 10 3 8.8884 2.04674 0
0 10 -3 9.04215 1.11465 0
1 10 3 1.43096 1.48859 0
-1 -10 -3 3.563 0.98919 0
1 10 -3 3.12123 0.68187 0
2 10 3 1.46695 1.54365 0
2 10 -3 0.00959 0.54651 0
-2 -10 -3 0.54651 0.8725 0
3 -11 0 3.78611 1.14062 0
-3 11 0 2.41544 1.62946 0
3 -11 0 5.05134 1.53361 0
-2 11 0 11.8799 1.76852 0
2 -11 0 11.505 1.38406 0
2 -11 0 15.1286 0.93232 0
-1 11 0 15.789 2.25283 0
0 11 0 0.32751 1.05961 0
1 11 0 19.6015 1.97363 0
2 11 0 12.1298 1.72046 0
3 11 0 6.50827 1.11187 0
3 -11 1 10.3608 1.37889 0
-3 11 1 9.47026 1.95342 0
3 -11 1 6.96146 1.06289 0
3 -11 -1 3.55255 1.23525 0
3 -11 -1 7.03806 1.84809 0
-2 11 1 18.6183 2.80379 0
2 -11 -1 20.1642 1.77637 0
2 -11 -1 17.9078 2.45812 0
-1 11 1 14.7058 1.99091 0
1 -11 -1 9.66601 1.45231 0
-1 11 -1 13.4747 1.71199 0
1 -11 -1 10.4643 1.00988 0
0 11 1 -0.06736 1.68406 0
0 11 -1 -0.24058 0.96232 0
1 11 1 12.9265 1.73122 0
1 11 -1 12.0609 1.57734 0
2 11 1 24.4947 2.25647 0
3 11 -1 8.64676 1.29271 0
-2 11 2 10.4926 1.98172 0
2 -11 -2 10.349 1.47432 0
2 -11 -2 11.2585 2.11575 0
-1 11 2 20.013 2.57954 0
1 -11 -2 14.643 1.69732 0
0 11 2 -2.65772 1.34325 0
0 -11 -2 0.03838 0.75798 0
1 11 2 10.3949 1.73567 0
2 11 2 16.5239 2.4221 0
2 11 -2 13.9678 1.33072 0
0 12 0 7.91973 2.61122 0
