#------------------------------------------------------------------------------
#$Date: 2021-03-05 03:20:24 +0200 (Fri, 05 Mar 2021) $
#$Revision: 262491 $
#$URL: file:///home/coder/svn-repositories/cod/cif/7/12/77/7127784.cif $
#------------------------------------------------------------------------------
#
# This file is available in the Crystallography Open Database (COD),
# http://www.crystallography.net/
#
# All data on this site have been placed in the public domain by the
# contributors.
#
data_7127784
loop_
_publ_author_name
'Li, Heng'
'Lv, Fan'
'Guo, Xing'
'Wu, Qinghua'
'Wu, Hao'
'Tang, Bing'
'Yu, Changjiang'
'Wang, Hua'
'Jiao, Lijuan'
'Hao, Erhong'
_publ_section_title
;
 Direct C-H alkoxylation of BODIPY dyes via cation radical accelerated
 oxidative nucleophilic hydrogen substitution: a new route to building
 blocks for functionalized BODIPYs.
;
_journal_issue                   13
_journal_name_full
'Chemical communications (Cambridge, England)'
_journal_page_first              1647
_journal_page_last               1650
_journal_paper_doi               10.1039/d0cc07961h
_journal_volume                  57
_journal_year                    2021
_chemical_formula_moiety         'C16 H11 B Cl2 F2 N2 O'
_chemical_formula_sum            'C16 H11 B Cl2 F2 N2 O'
_chemical_formula_weight         366.98
_space_group_crystal_system      triclinic
_space_group_IT_number           2
_space_group_name_Hall           '-P 1'
_space_group_name_H-M_alt        'P -1'
_atom_sites_solution_hydrogens   geom
_atom_sites_solution_primary     dual
_audit_creation_date             2020-09-08
_audit_creation_method
;
Olex2 1.3
(compiled 2020.07.16 svn.r6f6c53a7 for OlexSys, GUI svn.r6139)
;
_audit_update_record
;
2020-11-10 deposited with the CCDC.	2021-01-07 downloaded from the CCDC.
;
_cell_angle_alpha                114.913(2)
_cell_angle_beta                 91.931(3)
_cell_angle_gamma                96.868(3)
_cell_formula_units_Z            2
_cell_length_a                   6.5368(3)
_cell_length_b                   10.9882(6)
_cell_length_c                   12.5935(7)
_cell_measurement_reflns_used    9919
_cell_measurement_temperature    298.15
_cell_measurement_theta_max      27.49
_cell_measurement_theta_min      3.15
_cell_volume                     810.95(8)
_computing_cell_refinement       'SAINT v8.37A (Bruker, 2015)'
_computing_data_reduction        'SAINT v8.37A (Bruker, 2015)'
_computing_molecular_graphics    'Olex2 1.3 (Dolomanov et al., 2009)'
_computing_publication_material  'Olex2 1.3 (Dolomanov et al., 2009)'
_computing_structure_refinement  'SHELXL 2018/3 (Sheldrick, 2015)'
_computing_structure_solution    'SHELXT  (Sheldrick, 2015)'
_diffrn_ambient_temperature      298.15
_diffrn_measured_fraction_theta_full 0.960
_diffrn_measured_fraction_theta_max 0.895
_diffrn_measurement_device_type  'Bruker APEX-II CCD'
_diffrn_measurement_method       '\f and \w scans'
_diffrn_radiation_type           MoK\a
_diffrn_radiation_wavelength     0.71073
_diffrn_reflns_av_R_equivalents  0.0523
_diffrn_reflns_av_unetI/netI     0.0439
_diffrn_reflns_Laue_measured_fraction_full 0.960
_diffrn_reflns_Laue_measured_fraction_max 0.895
_diffrn_reflns_limit_h_max       8
_diffrn_reflns_limit_h_min       -8
_diffrn_reflns_limit_k_max       14
_diffrn_reflns_limit_k_min       -14
_diffrn_reflns_limit_l_max       16
_diffrn_reflns_limit_l_min       -16
_diffrn_reflns_number            22138
_diffrn_reflns_point_group_measured_fraction_full 0.960
_diffrn_reflns_point_group_measured_fraction_max 0.895
_diffrn_reflns_theta_full        25.242
_diffrn_reflns_theta_max         27.535
_diffrn_reflns_theta_min         3.153
_diffrn_source_current           30.0
_diffrn_source_power             1.5
_diffrn_source_voltage           50.0
_diffrn_standards_number         0
_exptl_absorpt_coefficient_mu    0.426
_exptl_absorpt_correction_T_max  0.7455
_exptl_absorpt_correction_T_min  0.6449
_exptl_absorpt_correction_type   multi-scan
_exptl_absorpt_process_details
;
SADABS-2014/5 (Bruker,2014/5) was used for absorption correction.
wR2(int) was 0.1365 before and 0.0653 after correction.
The Ratio of minimum to maximum transmission is 0.8651.
The \l/2 correction factor is Not present.
;
_exptl_crystal_colour            'clear whiteish red'
_exptl_crystal_colour_lustre     clear
_exptl_crystal_colour_modifier   whiteish
_exptl_crystal_colour_primary    red
_exptl_crystal_density_diffrn    1.503
_exptl_crystal_description       needle
_exptl_crystal_F_000             372
_exptl_crystal_size_max          0.22
_exptl_crystal_size_mid          0.21
_exptl_crystal_size_min          0.2
_refine_diff_density_max         0.587
_refine_diff_density_min         -0.329
_refine_diff_density_rms         0.066
_refine_ls_extinction_method     none
_refine_ls_goodness_of_fit_ref   1.260
_refine_ls_hydrogen_treatment    constr
_refine_ls_matrix_type           full
_refine_ls_number_parameters     218
_refine_ls_number_reflns         3362
_refine_ls_number_restraints     0
_refine_ls_restrained_S_all      1.260
_refine_ls_R_factor_all          0.1326
_refine_ls_R_factor_gt           0.1057
_refine_ls_shift/su_max          0.000
_refine_ls_shift/su_mean         0.000
_refine_ls_structure_factor_coef Fsqd
_refine_ls_weighting_details
'w=1/[\s^2^(Fo^2^)+(0.0127P)^2^+2.7081P] where P=(Fo^2^+2Fc^2^)/3'
_refine_ls_weighting_scheme      calc
_refine_ls_wR_factor_gt          0.1693
_refine_ls_wR_factor_ref         0.1792
_reflns_Friedel_coverage         0.000
_reflns_number_gt                2498
_reflns_number_total             3362
_reflns_threshold_expression     'I > 2\s(I)'
_cod_data_source_file            d0cc07961h2.cif
_cod_data_source_block           mo_20200714c_0m
_cod_depositor_comments
'Adding full bibliography for 7127784--7127786.cif.'
_cod_original_cell_volume        810.95(7)
_cod_database_code               7127784
_shelx_shelxl_version_number     2018/3
_shelx_space_group_comment
;
The symmetry employed for this shelxl refinement is uniquely defined
by the following loop, which should always be used as a source of
symmetry information in preference to the above space-group names.
They are only intended as comments.
;
_shelx_estimated_absorpt_t_max   0.920
_shelx_estimated_absorpt_t_min   0.912
_olex2_refinement_description
;
1. Fixed Uiso
 At 1.2 times of:
  All C(H) groups
 At 1.5 times of:
  All C(H,H,H) groups
2.a Aromatic/amide H refined with riding coordinates:
 C1(H1), C2(H2), C6(H6), C9(H9), C10(H10), C11(H11), C13(H13), C14(H14)
2.b Idealised Me refined as rotating group:
 C16(H16A,H16B,H16C)
;
_smtbx_masks_void_probe_radius   1.2
_smtbx_masks_void_truncation_radius 1.2
_shelx_res_file
;
TITL mo_20200714c_0m_a.res in P-1
    mo_20200714c_0m.res
    created by SHELXL-2018/3 at 10:47:57 on 08-Sep-2020
REM Old TITL mo_20200714c_0m_a.res in P-1
REM SHELXT solution in P-1: R1 0.198, Rweak 0.140, Alpha 0.078
REM <I/s> 0.000 for 0 systematic absences, Orientation as input
REM Formula found by SHELXT: C16 B N4 F Cl2
CELL 0.71073 6.5368 10.9882 12.5935 114.913 91.931 96.868
ZERR 2 0.0003 0.0006 0.0007 0.002 0.003 0.003
LATT 1
SFAC C H B Cl F N O
UNIT 32 22 2 4 4 4 2

L.S. 10
PLAN  5
SIZE 0.2 0.21 0.22
TEMP -0.15
CONF
list 4
MORE -1
BOND $H
ABIN
fmap 2
acta
OMIT 6 -9 10
OMIT 6 -10 8
OMIT 2 0 14
OMIT 1 6 10
REM <olex2.extras>
REM <HklSrc "%.\\mo_20200714c_0m.hkl">
REM </olex2.extras>

WGHT    0.012700    2.708100
FVAR       0.88018
B1    3    0.695414    0.931402    0.729770    11.00000    0.04886    0.03481 =
         0.05625    0.02833    0.01735    0.01140
C1    1    0.626396    0.337872    0.850534    11.00000    0.07208    0.03498 =
         0.07959    0.03808    0.01737    0.01401
AFIX  43
H1    2    0.624747    0.261093    0.864434    11.00000   -1.20000
AFIX   0
C2    1    0.529690    0.325773    0.748055    11.00000    0.06579    0.03591 =
         0.06661    0.02105    0.01465    0.00247
AFIX  43
H2    2    0.460096    0.242464    0.693714    11.00000   -1.20000
AFIX   0
C3    1    0.537044    0.440391    0.726271    11.00000    0.05093    0.03673 =
         0.04882    0.01953    0.01573    0.01053
C4    1    0.641215    0.565493    0.805864    11.00000    0.03678    0.03160 =
         0.04911    0.02353    0.01503    0.00902
C5    1    0.734170    0.572376    0.910471    11.00000    0.03936    0.03474 =
         0.04776    0.02379    0.01178    0.01092
C6    1    0.725426    0.459389    0.933175    11.00000    0.05643    0.04748 =
         0.06604    0.03939    0.01047    0.01322
AFIX  43
H6    2    0.786069    0.466059    1.003657    11.00000   -1.20000
AFIX   0
C7    1    0.657452    0.686166    0.779694    11.00000    0.03627    0.02902 =
         0.03634    0.01848    0.00240    0.00508
C8    1    0.516667    0.778571    0.821913    11.00000    0.03933    0.03239 =
         0.03725    0.01827    0.00799    0.00539
C9    1    0.349347    0.782075    0.888681    11.00000    0.04466    0.04608 =
         0.04168    0.02289    0.01273    0.00490
AFIX  43
H9    2    0.306256    0.719653    0.918273    11.00000   -1.20000
AFIX   0
C10   1    0.259943    0.893950    0.902820    11.00000    0.04390    0.04791 =
         0.05300    0.01809    0.02139    0.01769
AFIX  43
H10   2    0.145773    0.921711    0.943873    11.00000   -1.20000
AFIX   0
C11   1    0.372075    0.957911    0.844275    11.00000    0.04746    0.03412 =
         0.05528    0.01567    0.01502    0.01487
AFIX  43
H11   2    0.344113    1.036494    0.839357    11.00000   -1.20000
AFIX   0
C12   1    0.809644    0.703916    0.712784    11.00000    0.04046    0.02537 =
         0.03729    0.01576    0.00916    0.00770
C13   1    0.964013    0.625446    0.659376    11.00000    0.05085    0.03478 =
         0.04704    0.01791    0.01144    0.01047
AFIX  43
H13   2    0.988867    0.546783    0.665182    11.00000   -1.20000
AFIX   0
C14   1    1.070987    0.684032    0.597723    11.00000    0.04732    0.04327 =
         0.04345    0.01641    0.01730    0.01329
AFIX  43
H14   2    1.181195    0.653742    0.553794    11.00000   -1.20000
AFIX   0
C15   1    0.980433    0.799626    0.614218    11.00000    0.04694    0.04018 =
         0.04159    0.02151    0.01086    0.00586
C16   1    1.164833    0.858977    0.481281    11.00000    0.08253    0.11252 =
         0.09313    0.07244    0.05124    0.02836
AFIX 137
H16A  2    1.105021    0.778836    0.413267    11.00000   -1.50000
H16B  2    1.292581    0.843769    0.510156    11.00000   -1.50000
H16C  2    1.190975    0.933565    0.460373    11.00000   -1.50000
AFIX   0
CL1   4    0.863766    0.724826    1.015165    11.00000    0.05623    0.04379 =
         0.05191    0.02242   -0.00030    0.00314
CL2   4    0.416694    0.424930    0.596341    11.00000    0.08658    0.05211 =
         0.05490    0.01601   -0.01063   -0.00366
F1    5    0.605584    0.950634    0.639547    11.00000    0.07730    0.12808 =
         0.10781    0.10000    0.03727    0.04748
F2    5    0.820083    1.048651    0.804748    11.00000    0.07761    0.02950 =
         0.11068    0.01242    0.03690   -0.00276
N1    6    0.825853    0.813759    0.682810    11.00000    0.04102    0.03156 =
         0.03800    0.01902    0.01262    0.00517
N2    6    0.527731    0.889048    0.795552    11.00000    0.04337    0.02999 =
         0.04336    0.01906    0.01102    0.00815
O1    7    1.022840    0.890309    0.571908    11.00000    0.06687    0.06285 =
         0.07543    0.04870    0.03649    0.01966
HKLF 4




REM  mo_20200714c_0m_a.res in P-1
REM wR2 = 0.1792, GooF = S = 1.260, Restrained GooF = 1.260 for all data
REM R1 = 0.1057 for 2498 Fo > 4sig(Fo) and 0.1326 for all 3362 data
REM 218 parameters refined using 0 restraints

END

WGHT      0.0127      2.7080

REM Highest difference peak  0.587,  deepest hole -0.329,  1-sigma level  0.066
Q1    1   0.9016  0.6263  0.9426  11.00000  0.05    0.59
Q2    1   0.3628  0.4399  0.5408  11.00000  0.05    0.38
Q3    1   0.7595  1.0127  0.7268  11.00000  0.05    0.33
Q4    1   0.5099  0.8586  0.5977  11.00000  0.05    0.31
Q5    1   0.5563  0.7241  0.7771  11.00000  0.05    0.26
;
_shelx_res_checksum              83479
_shelx_fab_file
;
-8 -3 2 -0.7187 -0.0102
-8 -3 3 -0.2670 -0.0017
-8 -2 2 0.6910 0.0007
-8 -2 3 -0.7205 -0.0095
-8 -2 4 -0.5292 0.0016
-8 -2 5 0.4694 0.0021
-8 -1 1 -0.9364 -0.0024
-8 -1 3 0.7110 0.0017
-8 -1 4 -0.0331 -0.0097
-8 -1 5 -0.2304 0.0026
-8 0 3 -0.4779 0.0125
-8 1 3 1.0136 -0.0071
-8 2 5 1.0626 0.0014
-8 3 4 -1.1207 -0.0017
-8 4 3 0.6705 0.0016
-8 5 2 -0.0831 -0.0004
-7 -6 1 0.0792 0.0106
-7 -6 2 -0.1468 0.0020
-7 -6 3 0.0389 -0.0095
-7 -6 4 0.1038 -0.0040
-7 -6 5 -0.1749 0.0035
-7 -6 6 0.0302 0.0028
-7 -6 7 0.2948 0.0024
-7 -5 1 0.2360 -0.0038
-7 -5 2 0.1126 0.0147
-7 -5 3 -0.1011 0.0072
-7 -5 4 0.0527 -0.0075
-7 -5 5 -0.0682 -0.0060
-7 -5 6 -0.2559 -0.0014
-7 -5 7 0.1504 0.0018
-7 -5 8 0.2798 0.0062
-7 -4 1 -0.3541 -0.0178
-7 -4 2 -0.0461 -0.0117
-7 -4 3 0.1935 0.0114
-7 -4 4 0.1566 0.0096
-7 -4 5 0.0487 -0.0016
-7 -4 6 -0.1248 -0.0028
-7 -4 7 -0.1140 -0.0054
-7 -4 8 0.0607 -0.0037
-7 -3 1 0.4375 0.0157
-7 -3 2 -0.4399 -0.0143
-7 -3 3 -0.4797 -0.0140
-7 -3 4 0.2374 0.0065
-7 -3 5 0.3193 0.0056
-7 -3 6 -0.1621 0.0010
-7 -3 7 -0.1370 0.0038
-7 -2 1 0.3238 0.0155
-7 -2 2 0.9188 0.0194
-7 -2 3 -0.1699 -0.0109
-7 -2 4 -0.6630 -0.0120
-7 -1 1 -0.9300 -0.0244
-7 -1 2 -0.3022 0.0117
-7 -1 4 0.2482 -0.0067
-7 -1 7 0.1633 -0.0033
-7 0 1 0.5425 -0.0084
-7 0 2 0.0323 -0.0252
-7 0 3 -0.3694 0.0048
-7 0 7 0.6260 0.0010
-7 0 9 -0.5023 -0.0004
-7 1 1 -0.5595 0.0252
-7 1 2 -0.1663 -0.0021
-7 1 3 0.6888 -0.0179
-7 1 9 0.0411 -0.0057
-7 2 1 0.8516 0.0012
-7 2 2 -0.3122 0.0193
-7 2 3 -1.3886 0.0008
-7 2 5 1.3479 -0.0005
-7 2 6 0.2968 0.0010
-7 2 7 -0.8108 -0.0018
-7 2 8 -0.0778 0.0036
-7 3 1 -0.4750 -0.0203
-7 3 2 1.3708 -0.0019
-7 3 4 -1.1233 0.0023
-7 3 5 -0.6375 -0.0062
-7 3 6 0.5795 0.0007
-7 3 7 0.1251 -0.0002
-7 4 1 -0.7820 0.0041
-7 4 2 -1.1111 -0.0181
-7 4 3 0.4500 -0.0060
-7 4 4 0.6499 0.0111
-7 4 5 -0.1336 0.0028
-7 4 6 -0.0460 -0.0036
-7 4 7 -0.0295 0.0017
-7 5 1 0.6391 0.0184
-7 5 2 0.1389 0.0110
-7 5 3 -0.1655 -0.0130
-7 5 4 -0.2570 -0.0083
-7 5 5 -0.1703 0.0057
-7 5 6 0.2051 0.0012
-7 6 1 -0.1351 -0.0142
-7 6 2 -0.5738 0.0106
-7 6 3 0.3318 0.0127
-7 6 4 0.5061 -0.0047
-7 6 5 -0.3524 -0.0044
-7 7 1 0.9872 -0.0059
-7 7 2 -0.0462 -0.0130
-7 7 3 -0.8011 0.0017
-7 8 1 -0.1658 0.0095
-7 8 2 0.8067 0.0004
-6 -8 1 -0.0999 -0.0070
-6 -8 2 -0.1982 -0.0105
-6 -8 3 -0.0493 0.0058
-6 -8 4 0.1654 0.0088
-6 -8 5 0.1827 -0.0021
-6 -8 6 -0.0012 -0.0024
-6 -8 7 -0.2379 -0.0011
-6 -8 8 -0.0977 -0.0045
-6 -8 9 0.2428 0.0017
-6 -7 1 0.1555 0.0127
-6 -7 2 -0.0091 -0.0079
-6 -7 3 -0.0415 -0.0131
-6 -7 4 -0.0776 0.0041
-6 -7 5 -0.1098 0.0074
-6 -7 6 0.1468 0.0005
-6 -7 7 0.1644 0.0009
-6 -7 8 -0.2611 -0.0020
-6 -7 9 -0.0838 -0.0060
-6 -7 10 0.3138 0.0010
-6 -6 1 0.0869 0.0102
-6 -6 2 -0.0230 0.0170
-6 -6 3 -0.0340 -0.0065
-6 -6 4 0.0638 -0.0130
-6 -6 5 -0.0722 0.0009
-6 -6 6 -0.0755 0.0037
-6 -6 7 0.2575 0.0020
-6 -6 8 0.0611 0.0042
-6 -6 9 -0.3260 -0.0013
-6 -6 10 0.0217 -0.0066
-6 -6 11 0.1789 -0.0008
-6 -5 1 0.0326 -0.0214
-6 -5 2 0.0980 0.0086
-6 -5 3 0.0192 0.0200
-6 -5 4 0.0886 -0.0025
-6 -5 5 -0.0088 -0.0104
-6 -5 6 -0.3012 -0.0013
-6 -5 7 -0.0428 -0.0006
-6 -5 8 0.3184 0.0013
-6 -5 9 -0.0046 0.0065
-6 -5 10 -0.1316 0.0015
-6 -5 11 0.1338 -0.0057
-6 -4 1 -0.1778 -0.0084
-6 -4 2 -0.1290 -0.0280
-6 -4 3 -0.0269 0.0022
-6 -4 4 0.0538 0.0192
-6 -4 5 0.2186 0.0017
-6 -4 6 0.0512 -0.0055
-6 -4 7 -0.1952 -0.0016
-6 -4 8 -0.0037 -0.0046
-6 -4 9 -0.0131 -0.0017
-6 -4 10 -0.1255 0.0060
-6 -4 11 0.1515 0.0045
-6 -3 1 0.3825 0.0340
-6 -3 2 -0.0580 0.0010
-6 -3 3 -0.2567 -0.0280
-6 -3 4 -0.0545 -0.0044
-6 -3 5 0.0957 0.0132
-6 -3 6 0.0192 0.0032
-6 -3 7 -0.1197 0.0008
-6 -3 8 0.1773 0.0010
-6 -3 9 0.2558 -0.0057
-6 -3 10 -0.3299 -0.0039
-6 -3 11 -0.2862 0.0018
-6 -2 1 -0.0980 -0.0058
-6 -2 2 0.5026 0.0340
-6 -2 3 0.1255 0.0091
-6 -2 4 -0.3061 -0.0206
-6 -2 5 -0.0544 -0.0065
-6 -2 6 0.2775 0.0043
-6 -2 7 -0.1676 0.0006
-6 -2 8 -0.4175 0.0044
-6 -2 9 0.3344 0.0030
-6 -2 10 0.5110 -0.0037
-6 -2 11 -0.2539 -0.0020
-6 -1 1 -0.4138 -0.0356
-6 -1 2 -0.3758 -0.0142
-6 -1 3 0.2139 0.0257
-6 -1 4 0.2394 0.0108
-6 -1 5 -0.1846 -0.0099
-6 -1 6 0.0750 -0.0032
-6 -1 7 0.3742 -0.0017
-6 -1 8 -0.2745 -0.0021
-6 -1 9 -0.5117 0.0051
-6 -1 10 0.1412 0.0027
-6 -1 11 0.4231 -0.0031
-6 0 1 0.3868 0.0176
-6 0 2 0.1347 -0.0278
-6 0 3 -0.1829 -0.0153
-6 0 4 -0.0836 0.0148
-6 0 5 -0.2133 0.0072
-6 0 6 -0.2154 -0.0021
-6 0 7 0.4224 0.0005
-6 0 8 0.3651 -0.0048
-6 0 9 -0.2655 -0.0041
-6 0 10 -0.1999 0.0050
-6 0 11 -0.0214 0.0035
-6 1 1 -0.2722 0.0271
-6 1 2 -0.1597 0.0185
-6 1 3 0.0865 -0.0183
-6 1 4 0.5708 -0.0120
-6 1 5 0.2957 0.0064
-6 1 6 -0.7259 0.0026
-6 1 7 -0.3724 0.0021
-6 1 8 0.5616 0.0047
-6 1 9 0.1020 -0.0042
-6 2 1 0.4066 -0.0203
-6 2 2 0.3279 0.0200
-6 2 3 -0.7483 0.0172
-6 2 4 -0.7078 -0.0103
-6 2 5 0.8360 -0.0075
-6 2 6 0.5843 0.0022
-6 2 7 -0.7127 -0.0026
-6 2 8 -0.1679 0.0010
-6 3 1 -0.8269 -0.0198
-6 3 2 0.4871 -0.0223
-6 3 3 1.1191 0.0126
-6 3 4 -0.5392 0.0146
-6 3 5 -0.7677 -0.0062
-6 3 7 0.2377 0.0024
-6 4 1 0.0280 0.0261
-6 4 2 -1.0858 -0.0119
-6 4 3 -0.0096 -0.0224
-6 4 4 0.6411 0.0069
-6 4 6 -0.2226 -0.0034
-6 4 7 0.3025 -0.0010
-6 4 8 0.1073 0.0001
-6 4 9 -0.2065 -0.0041
-6 5 1 0.4620 0.0080
-6 5 2 0.3043 0.0275
-6 5 3 -0.0748 -0.0031
-6 5 4 -0.1383 -0.0185
-6 5 6 0.0799 0.0055
-6 5 7 -0.2103 -0.0003
-6 5 8 -0.1070 0.0036
-6 6 1 0.1328 -0.0271
-6 6 2 -0.5849 -0.0025
-6 6 4 0.4273 0.0032
-6 6 5 -0.4055 -0.0082
-6 6 6 0.0519 0.0003
-6 6 7 0.5260 -0.0006
-6 7 1 0.6333 0.0057
-6 7 2 0.3450 -0.0173
-6 7 3 -0.7449 -0.0054
-6 7 4 0.3352 0.0094
-6 7 5 0.3554 0.0003
-6 7 6 -0.6363 -0.0044
-6 10 1 0.3812 -0.0071
-5 -10 3 0.0799 0.0022
-5 -10 4 -0.1546 -0.0082
-5 -10 5 -0.1908 -0.0028
-5 -10 6 0.1305 0.0028
-5 -10 7 0.1866 0.0006
-5 -10 8 0.0021 0.0039
-5 -9 1 -0.1384 -0.0136
-5 -9 2 -0.0610 -0.0019
-5 -9 3 0.1567 0.0136
-5 -9 4 0.2353 0.0032
-5 -9 5 -0.0855 -0.0078
-5 -9 6 -0.2533 -0.0023
-5 -9 7 -0.0579 -0.0009
-5 -9 8 0.1226 -0.0003
-5 -9 9 0.1560 0.0070
-5 -9 10 -0.0070 0.0023
-5 -9 11 -0.1215 -0.0070
-5 -8 1 0.0323 0.0017
-5 -8 2 -0.1171 -0.0199
-5 -8 3 -0.1818 -0.0036
-5 -8 4 -0.0163 0.0144
-5 -8 5 0.1606 0.0042
-5 -8 6 0.1641 -0.0037
-5 -8 7 -0.0677 -0.0021
-5 -8 8 -0.2560 -0.0056
-5 -8 9 0.0889 -0.0013
-5 -8 10 0.2480 0.0078
-5 -8 11 -0.1989 0.0026
-5 -8 12 -0.1645 -0.0039
-5 -7 1 0.0672 0.0246
-5 -7 2 0.0572 0.0053
-5 -7 3 0.0215 -0.0212
-5 -7 4 0.0104 -0.0068
-5 -7 5 -0.0906 0.0093
-5 -7 6 -0.0656 0.0044
-5 -7 7 0.2021 0.0031
-5 -7 8 -0.0381 0.0008
-5 -7 9 -0.3096 -0.0083
-5 -7 10 0.1922 -0.0042
-5 -7 11 0.2939 0.0057
-5 -7 12 -0.2259 0.0033
-5 -6 1 0.0373 -0.0076
-5 -6 2 0.0563 0.0265
-5 -6 3 -0.0274 0.0101
-5 -6 4 -0.0946 -0.0160
-5 -6 5 -0.0005 -0.0072
-5 -6 6 -0.0207 0.0021
-5 -6 7 0.0922 -0.0002
-5 -6 8 0.2067 0.0061
-5 -6 9 -0.1518 0.0062
-5 -6 10 -0.2405 -0.0059
-5 -6 11 0.1198 -0.0071
-5 -6 12 0.1110 0.0015
-5 -6 13 -0.0572 0.0045
-5 -5 1 -0.0933 -0.0303
-5 -5 2 -0.0694 -0.0149
-5 -5 3 0.1242 0.0232
-5 -5 4 0.1886 0.0128
-5 -5 5 0.0083 -0.0098
-5 -5 6 -0.2394 -0.0039
-5 -5 7 -0.1614 -0.0007
-5 -5 8 0.1785 -0.0053
-5 -5 9 0.1287 0.0036
-5 -5 10 -0.0387 0.0092
-5 -5 11 0.0211 -0.0004
-5 -5 12 -0.0772 -0.0071
-5 -5 13 -0.1116 -0.0041
-5 -4 1 0.0891 0.0210
-5 -4 2 -0.0583 -0.0283
-5 -4 3 -0.1794 -0.0219
-5 -4 4 -0.1187 0.0165
-5 -4 5 0.1923 0.0129
-5 -4 6 0.2090 -0.0045
-5 -4 7 -0.1234 -0.0005
-5 -4 8 -0.0578 -0.0012
-5 -4 9 -0.0331 -0.0074
-5 -4 10 -0.1886 -0.0004
-5 -4 11 0.1949 0.0073
-5 -4 12 0.3282 0.0049
-5 -4 13 -0.2055 -0.0018
-5 -3 1 0.1221 0.0289
-5 -3 2 0.0336 0.0316
-5 -3 3 0.0465 -0.0190
-5 -3 4 0.0144 -0.0239
-5 -3 5 -0.1286 0.0066
-5 -3 6 -0.0196 0.0089
-5 -3 7 -0.0433 0.0011
-5 -3 8 0.0841 0.0034
-5 -3 9 0.3521 -0.0008
-5 -3 10 -0.1681 -0.0062
-5 -3 11 -0.5691 -0.0033
-5 -3 12 0.0815 0.0015
-5 -3 13 0.5410 0.0052
-5 -2 1 -0.0320 -0.0377
-5 -2 2 0.1481 0.0179
-5 -2 3 -0.0646 0.0326
-5 -2 4 -0.0616 -0.0065
-5 -2 5 0.0508 -0.0165
-5 -2 6 0.1628 -0.0018
-5 -2 7 -0.0557 0.0007
-5 -2 8 -0.4208 0.0029
-5 -2 9 0.0281 0.0054
-5 -2 10 0.5861 0.0002
-5 -2 11 0.1986 -0.0027
-5 -2 12 -0.4692 -0.0025
-5 -2 13 -0.4642 -0.0018
-5 -1 1 -0.1816 -0.0156
-5 -1 2 -0.0609 -0.0375
-5 -1 3 0.1158 0.0066
-5 -1 4 0.0584 0.0229
-5 -1 5 -0.1841 0.0010
-5 -1 6 -0.0116 -0.0052
-5 -1 7 0.3698 -0.0034
-5 -1 8 0.0285 -0.0047
-5 -1 9 -0.3899 0.0021
-5 -1 10 -0.2400 0.0054
-5 -1 11 0.1209 0.0001
-5 0 1 0.1584 0.0393
-5 0 2 -0.0086 -0.0073
-5 0 3 -0.1538 -0.0294
-5 0 4 0.1165 0.0010
-5 0 5 0.0332 0.0121
-5 0 6 -0.3046 0.0023
-5 0 7 0.0730 0.0019
-5 0 8 0.2463 -0.0024
-5 0 9 -0.0458 -0.0077
-5 0 10 0.0599 0.0006
-5 0 11 -0.0161 0.0061
-5 0 12 -0.2705 0.0012
-5 1 1 -0.1162 0.0070
-5 1 2 0.1807 0.0359
-5 1 3 -0.0771 -0.0013
-5 1 4 -0.0117 -0.0215
-5 1 5 0.3193 -0.0019
-5 1 6 -0.2221 0.0044
-5 1 7 -0.2731 0.0015
-5 1 8 0.3788 0.0069
-5 1 9 0.0662 0.0008
-5 1 10 -0.3944 -0.0085
-5 1 11 -0.0101 -0.0018
-5 1 12 0.3155 0.0035
-5 2 1 -0.1561 -0.0403
-5 2 2 0.1380 -0.0018
-5 2 3 0.0169 0.0307
-5 2 4 -0.4300 0.0044
-5 2 5 0.3008 -0.0133
-5 2 6 0.3916 -0.0017
-5 2 7 -0.5737 -0.0016
-5 2 8 -0.2615 -0.0022
-5 2 9 0.5514 0.0072
-5 2 10 0.2823 0.0025
-5 2 11 -0.3255 -0.0047
-5 3 1 -0.3042 0.0074
-5 3 2 -0.1515 -0.0360
-5 3 3 0.5652 -0.0101
-5 3 4 -0.1936 0.0219
-5 3 5 -0.5197 0.0054
-5 3 6 0.5762 -0.0065
-5 3 7 0.4206 0.0007
-5 3 8 -0.5541 -0.0030
-5 3 9 -0.4098 -0.0018
-5 3 10 0.2651 0.0053
-5 4 1 0.4264 0.0356
-5 4 2 -0.4755 0.0168
-5 4 3 -0.1146 -0.0265
-5 4 4 0.4638 -0.0122
-5 4 5 -0.2958 0.0130
-5 4 6 -0.5157 0.0043
-5 4 7 0.3205 -0.0011
-5 4 8 0.5699 0.0002
-5 4 9 -0.1273 -0.0055
-5 4 10 -0.5220 0.0005
-5 5 1 0.0249 -0.0213
-5 5 2 0.2285 0.0255
-5 5 3 -0.0370 0.0189
-5 5 4 -0.0760 -0.0149
-5 5 5 0.3032 -0.0099
-5 5 6 0.2276 0.0032
-5 5 7 -0.6087 0.0009
-5 5 8 -0.3551 0.0041
-5 5 9 0.7418 0.0028
-5 6 1 0.2486 -0.0204
-5 6 2 -0.3641 -0.0217
-5 6 4 0.2274 0.0130
-5 6 5 -0.6533 -0.0046
-5 6 6 0.1956 -0.0016
-5 6 7 0.9538 0.0005
-5 6 8 -0.6240 -0.0046
-5 7 1 0.1007 0.0196
-5 7 2 0.2295 -0.0104
-5 7 3 -0.5637 -0.0135
-5 7 6 -1.0025 -0.0067
-5 7 7 0.1360 0.0008
-5 8 1 -0.1376 0.0101
-5 8 2 0.5247 0.0141
-5 8 3 0.0074 -0.0093
-5 9 1 -0.6683 -0.0163
-5 9 2 -0.4471 0.0082
-5 9 3 0.2750 0.0167
-5 10 1 0.9579 -0.0019
-4 -11 2 -0.0698 0.0068
-4 -11 3 -0.1234 -0.0033
-4 -11 4 0.0085 -0.0087
-4 -11 7 0.1993 -0.0001
-4 -11 8 -0.0205 0.0026
-4 -11 9 -0.1637 -0.0008
-4 -11 10 -0.0690 -0.0068
-4 -10 1 0.0796 -0.0103
-4 -10 2 0.2306 0.0065
-4 -10 3 -0.0153 0.0128
-4 -10 4 -0.0003 -0.0043
-4 -10 5 -0.0671 -0.0090
-4 -10 6 -0.1402 0.0007
-4 -10 7 0.0522 0.0013
-4 -10 8 0.1236 0.0024
-4 -10 9 0.0417 0.0054
-4 -10 10 -0.0652 -0.0037
-4 -10 11 -0.1384 -0.0074
-4 -10 12 0.0483 0.0027
-4 -9 1 -0.3086 -0.0109
-4 -9 2 -0.0576 -0.0152
-4 -9 3 0.0452 0.0092
-4 -9 4 0.1196 0.0129
-4 -9 5 0.1404 -0.0036
-4 -9 6 -0.0753 -0.0057
-4 -9 7 -0.1629 -0.0025
-4 -9 8 -0.0077 -0.0027
-4 -9 9 0.1521 0.0052
-4 -9 10 0.0487 0.0072
-4 -9 11 -0.1745 -0.0031
-4 -9 12 -0.0517 -0.0048
-4 -9 13 0.1780 -0.0006
-4 -8 1 0.1050 0.0183
-4 -8 2 0.0221 -0.0159
-4 -8 3 -0.0873 -0.0184
-4 -8 4 -0.1464 0.0088
-4 -8 5 -0.0195 0.0117
-4 -8 6 0.1439 0.0009
-4 -8 7 0.1088 -0.0011
-4 -8 8 -0.2171 -0.0064
-4 -8 9 -0.1064 -0.0066
-4 -8 10 0.3630 0.0047
-4 -8 11 0.0394 0.0061
-4 -8 12 -0.4194 0.0001
-4 -8 13 0.0528 0.0004
-4 -7 1 -0.0951 0.0200
-4 -7 2 -0.0188 0.0260
-4 -7 3 0.0555 -0.0131
-4 -7 4 0.0696 -0.0198
-4 -7 5 0.0475 0.0017
-4 -7 6 -0.1372 0.0062
-4 -7 7 0.0709 0.0058
-4 -7 8 0.1791 0.0064
-4 -7 9 -0.3346 -0.0053
-4 -7 10 -0.1452 -0.0094
-4 -7 11 0.4846 0.0003
-4 -7 12 0.0312 0.0034
-4 -7 13 -0.4784 0.0025
-4 -7 14 0.0687 0.0031
-4 -6 1 0.0758 -0.0332
-4 -6 2 0.0434 0.0141
-4 -6 3 0.0649 0.0297
-4 -6 4 -0.1717 -0.0038
-4 -6 5 -0.0771 -0.0144
-4 -6 6 0.0674 -0.0035
-4 -6 7 -0.0397 -0.0032
-4 -6 8 0.1652 0.0031
-4 -6 9 0.1273 0.0116
-4 -6 10 -0.3104 0.0016
-4 -6 11 -0.1173 -0.0082
-4 -6 12 0.3313 -0.0047
-4 -6 13 0.0878 0.0003
-4 -6 14 -0.2291 0.0039
-4 -5 1 -0.0351 -0.0113
-4 -5 2 -0.1996 -0.0397
-4 -5 3 0.0452 0.0026
-4 -5 4 0.2506 0.0261
-4 -5 5 0.0443 0.0031
-4 -5 6 -0.1278 -0.0055
-4 -5 7 -0.1296 -0.0016
-4 -5 8 0.0073 -0.0087
-4 -5 9 0.1190 -0.0039
-4 -5 10 0.0921 0.0099
-4 -5 11 -0.0235 0.0075
-4 -5 12 -0.1903 -0.0027
-4 -5 13 -0.1652 -0.0066
-4 -5 14 0.1307 -0.0044
-4 -4 1 0.1637 0.0467
-4 -4 2 0.0871 0.0030
-4 -4 3 -0.1193 -0.0377
-4 -4 4 -0.1770 -0.0078
-4 -4 5 0.0357 0.0169
-4 -4 6 0.1832 0.0051
-4 -4 7 -0.0298 0.0019
-4 -4 8 -0.0415 0.0021
-4 -4 9 -0.0259 -0.0085
-4 -4 10 -0.2374 -0.0077
-4 -4 11 0.1039 0.0037
-4 -4 12 0.5594 0.0077
-4 -4 13 0.0774 0.0042
-4 -4 14 -0.6614 -0.0033
-4 -3 1 -0.0094 -0.0102
-4 -3 2 -0.0870 0.0442
-4 -3 3 0.0473 0.0152
-4 -3 4 0.1747 -0.0258
-4 -3 5 -0.0941 -0.0122
-4 -3 6 -0.0841 0.0045
-4 -3 7 -0.0102 0.0035
-4 -3 8 0.0196 0.0068
-4 -3 9 0.3206 0.0046
-4 -3 10 0.0757 -0.0049
-4 -3 11 -0.5992 -0.0068
-4 -3 12 -0.4533 -0.0025
-4 -3 13 0.4847 0.0034
-4 -3 14 0.8377 0.0068
-4 -2 1 0.1015 -0.0449
-4 -2 2 0.1771 -0.0201
-4 -2 3 -0.2019 0.0313
-4 -2 4 -0.1046 0.0180
-4 -2 5 0.1322 -0.0097
-4 -2 6 0.1161 -0.0089
-4 -2 7 -0.0474 -0.0054
-4 -2 8 -0.2904 -0.0009
-4 -2 9 -0.1288 0.0072
-4 -2 10 0.3022 0.0050
-4 -2 11 0.5238 -0.0011
-4 -2 12 0.1185 -0.0035
-4 -2 13 -0.7882 -0.0042
-4 -2 14 -0.6057 0.0007
-4 -1 1 -0.2402 0.0212
-4 -1 2 0.0537 -0.0360
-4 -1 3 0.1958 -0.0213
-4 -1 4 0.0002 0.0166
-4 -1 5 -0.2038 0.0126
-4 -1 6 -0.0137 0.0015
-4 -1 7 0.2671 -0.0018
-4 -1 8 0.0459 -0.0082
-4 -1 9 -0.0567 -0.0040
-4 -1 10 -0.1655 0.0055
-4 -1 12 0.1746 -0.0001
-4 -1 13 0.8326 -0.0025
-4 0 1 0.1157 0.0400
-4 0 2 -0.0877 0.0249
-4 0 3 -0.2279 -0.0254
-4 0 4 0.1305 -0.0178
-4 0 5 0.1873 0.0066
-4 0 6 -0.2078 0.0057
-4 0 7 0.0091 0.0054
-4 0 8 0.0404 0.0033
-4 0 9 -0.2151 -0.0082
-4 0 11 0.3468 0.0046
-4 0 12 -0.3337 0.0049
-4 0 13 -0.3592 0.0005
-4 1 1 -0.1751 -0.0301
-4 1 2 0.3500 0.0321
-4 1 3 0.1171 0.0269
-4 1 4 -0.2799 -0.0155
-4 1 5 0.0428 -0.0138
-4 1 6 -0.0663 0.0008
-4 1 7 -0.0798 0.0000
-4 1 8 0.3757 0.0068
-4 1 9 0.0948 0.0077
-4 1 10 -0.3484 -0.0066
-4 1 11 -0.2671 -0.0073
-4 1 12 0.0776 0.0024
-4 1 13 0.4453 0.0023
-4 2 1 -0.2204 -0.0328
-4 2 2 -0.2987 -0.0377
-4 2 3 0.1541 0.0200
-4 2 4 0.0495 0.0258
-4 2 5 0.2472 -0.0063
-4 2 6 0.1447 -0.0078
-4 2 7 -0.4966 -0.0027
-4 2 8 -0.2862 -0.0052
-4 2 9 0.1972 0.0053
-4 2 10 0.4102 0.0077
-4 2 11 0.3054 -0.0039
-4 2 12 -0.4430 -0.0026
-4 3 1 0.1944 0.0451
-4 3 2 -0.0457 -0.0175
-4 3 3 0.0740 -0.0369
-4 3 4 -0.3433 0.0073
-4 3 5 -0.3479 0.0181
-4 3 6 0.5649 -0.0001
-4 3 7 0.4612 -0.0013
-4 3 8 -0.2112 -0.0036
-4 3 9 -0.3902 -0.0053
-4 3 10 -0.2690 0.0049
-4 3 11 0.2807 0.0025
-4 3 12 0.3240 -0.0042
-4 4 1 0.1888 0.0107
-4 4 2 -0.1021 0.0421
-4 4 3 0.1345 -0.0041
-4 4 4 0.4267 -0.0263
-4 4 5 -0.3009 -0.0004
-4 4 6 -0.6192 0.0084
-4 4 7 0.0533 0.0037
-4 4 8 0.5776 0.0026
-4 4 9 0.1826 -0.0056
-4 4 10 -0.4947 -0.0038
-4 4 11 -0.1148 0.0057
-4 5 1 -0.1982 -0.0404
-4 5 2 0.0114 -0.0002
-4 5 3 -0.0678 0.0298
-4 5 4 -0.1076 0.0028
-4 5 5 0.3535 -0.0129
-4 5 6 0.4636 -0.0041
-4 5 7 -0.6017 -0.0014
-4 5 8 -0.5966 0.0037
-4 5 9 0.8242 0.0062
-4 6 2 -0.2964 -0.0292
-4 6 3 0.1436 -0.0049
-4 6 4 0.2882 0.0151
-4 6 5 -0.7929 0.0031
-4 6 6 0.0682 -0.0007
-4 6 7 1.1712 0.0011
-4 6 8 -0.6296 -0.0052
-4 6 9 -1.0956 -0.0024
-4 7 1 0.1081 0.0261
-4 7 2 0.0382 0.0059
-4 7 3 -0.6477 -0.0170
-4 7 4 0.5112 -0.0018
-4 7 5 0.5497 0.0066
-4 7 6 -1.1425 -0.0049
-4 7 7 0.0104 -0.0018
-4 7 8 1.4297 0.0061
-4 8 1 0.0904 -0.0061
-4 8 2 0.5326 0.0195
-4 8 3 0.0180 0.0030
-4 8 4 -0.5287 -0.0147
-4 8 5 0.5057 0.0026
-4 8 6 0.2609 0.0112
-4 8 7 -1.0620 -0.0034
-4 9 1 -0.3948 -0.0212
-4 9 3 -0.0895 0.0199
-4 9 6 0.4601 -0.0037
-4 10 3 -0.0741 -0.0138
-4 11 1 -1.1023 0.0088
-3 -12 3 0.0158 -0.0082
-3 -12 4 0.0086 -0.0051
-3 -12 5 -0.0977 0.0068
-3 -12 6 0.2498 0.0044
-3 -12 7 0.1916 -0.0003
-3 -12 8 -0.3347 0.0017
-3 -12 9 -0.2281 -0.0044
-3 -12 10 0.1415 -0.0069
-3 -11 1 0.2436 -0.0034
-3 -11 2 -0.0747 0.0145
-3 -11 3 -0.1244 0.0069
-3 -11 4 0.2092 -0.0126
-3 -11 5 -0.1749 -0.0073
-3 -11 6 -0.2969 0.0051
-3 -11 7 0.2861 0.0029
-3 -11 8 0.2532 0.0025
-3 -11 9 -0.1026 0.0022
-3 -11 10 -0.0701 -0.0069
-3 -11 11 -0.0785 -0.0042
-3 -11 12 -0.0572 0.0071
-3 -10 1 0.0014 -0.0187
-3 -10 2 0.3603 -0.0070
-3 -10 3 -0.1455 0.0173
-3 -10 4 -0.0001 0.0082
-3 -10 5 0.2424 -0.0094
-3 -10 6 -0.2015 -0.0064
-3 -10 7 -0.1763 -0.0007
-3 -10 8 0.1199 0.0021
-3 -10 9 -0.0228 0.0083
-3 -10 10 -0.0238 0.0026
-3 -10 11 0.0916 -0.0095
-3 -10 12 0.0280 -0.0050
-3 -10 13 0.0913 0.0042
-3 -9 1 -0.4341 0.0038
-3 -9 2 -0.0791 -0.0230
-3 -9 3 0.0594 -0.0057
-3 -9 4 -0.1082 0.0159
-3 -9 5 0.1579 0.0071
-3 -9 6 0.1285 -0.0033
-3 -9 7 -0.1532 -0.0050
-3 -9 8 -0.0102 -0.0077
-3 -9 9 0.1719 -0.0003
-3 -9 10 0.0076 0.0102
-3 -9 11 -0.2065 0.0050
-3 -9 12 -0.1726 -0.0036
-3 -9 13 0.1272 -0.0048
-3 -9 14 0.2463 -0.0048
-3 -8 1 0.1692 0.0305
-3 -8 2 0.0553 0.0040
-3 -8 3 0.0519 -0.0256
-3 -8 4 -0.1125 -0.0079
-3 -8 5 -0.1097 0.0108
-3 -8 6 0.0574 0.0076
-3 -8 7 0.1010 0.0047
-3 -8 8 -0.1475 -0.0024
-3 -8 9 -0.2058 -0.0110
-3 -8 10 0.2720 -0.0036
-3 -8 11 0.3192 0.0054
-3 -8 12 -0.2813 0.0049
-3 -8 13 -0.2348 0.0048
-3 -8 14 0.3414 -0.0009
-3 -7 1 -0.1403 -0.0067
-3 -7 2 -0.0987 0.0352
-3 -7 3 0.0479 0.0119
-3 -7 4 0.0017 -0.0206
-3 -7 5 0.0834 -0.0116
-3 -7 6 -0.0238 0.0011
-3 -7 7 -0.0195 0.0049
-3 -7 8 0.2519 0.0108
-3 -7 9 -0.1356 0.0035
-3 -7 10 -0.3923 -0.0088
-3 -7 11 0.2906 -0.0067
-3 -7 12 0.2852 -0.0016
-3 -7 13 -0.5078 0.0027
-3 -7 14 -0.1352 0.0084
-3 -7 15 0.6525 0.0030
-3 -6 1 0.1382 -0.0410
-3 -6 2 -0.0297 -0.0195
-3 -6 3 0.1387 0.0301
-3 -6 4 -0.0466 0.0192
-3 -6 5 -0.1528 -0.0098
-3 -6 6 0.0621 -0.0099
-3 -6 7 -0.0962 -0.0072
-3 -6 8 -0.0123 -0.0029
-3 -6 9 0.2628 0.0103
-3 -6 10 -0.1518 0.0097
-3 -6 11 -0.2814 -0.0019
-3 -6 12 0.3700 -0.0065
-3 -6 13 0.2882 -0.0065
-3 -6 14 -0.3626 -0.0012
-3 -6 15 -0.1719 0.0074
-3 -5 1 0.0530 0.0293
-3 -5 2 -0.1296 -0.0363
-3 -5 3 -0.0875 -0.0315
-3 -5 4 0.1345 0.0178
-3 -5 5 0.0323 0.0203
-3 -5 6 -0.0076 0.0017
-3 -5 7 0.0154 -0.0022
-3 -5 8 -0.0501 -0.0094
-3 -5 9 0.0368 -0.0103
-3 -5 10 0.1399 0.0041
-3 -5 11 -0.0351 0.0101
-3 -5 12 -0.2092 0.0044
-3 -5 13 -0.2046 -0.0016
-3 -5 14 -0.0975 -0.0073
-3 -5 15 0.4460 -0.0058
-3 -4 1 0.0240 0.0361
-3 -4 2 0.0410 0.0444
-3 -4 3 0.0493 -0.0208
-3 -4 4 -0.0032 -0.0335
-3 -4 5 -0.0585 0.0014
-3 -4 6 0.0279 0.0117
-3 -4 7 -0.0299 0.0090
-3 -4 8 -0.0386 0.0067
-3 -4 9 0.0074 -0.0064
-3 -4 10 -0.1808 -0.0116
-3 -4 11 -0.0853 -0.0019
-3 -4 12 0.4970 0.0045
-3 -4 13 0.6506 0.0065
-3 -4 14 -0.4285 0.0046
-3 -4 15 -1.2621 -0.0051
-3 -3 1 0.1248 -0.0512
-3 -3 2 -0.0970 0.0197
-3 -3 3 -0.1600 0.0431
-3 -3 4 0.1299 -0.0028
-3 -3 5 0.0037 -0.0212
-3 -3 6 -0.0578 -0.0093
-3 -3 7 0.0504 -0.0012
-3 -3 8 0.0214 0.0094
-3 -3 9 0.1924 0.0111
-3 -3 10 0.2216 -0.0015
-3 -3 11 -0.2817 -0.0071
-3 -3 12 -0.8434 -0.0049
-3 -3 13 -0.2631 -0.0019
-3 -3 14 1.2382 0.0057
-3 -2 1 0.0218 -0.0198
-3 -2 2 0.2045 -0.0479
-3 -2 3 -0.1202 0.0070
-3 -2 4 -0.0720 0.0297
-3 -2 5 0.1521 0.0069
-3 -2 6 0.0581 -0.0054
-3 -2 7 -0.1419 -0.0109
-3 -2 8 -0.2182 -0.0096
-3 -2 9 -0.0435 0.0052
-3 -2 10 -0.0132 0.0095
-3 -2 11 0.3412 0.0020
-3 -2 12 0.8535 -0.0017
-3 -2 14 -1.4770 -0.0042
-3 -2 15 -0.1700 0.0052
-3 -1 1 -0.1219 0.0523
-3 -1 2 0.1065 -0.0133
-3 -1 3 0.0965 -0.0408
-3 -1 4 -0.0823 -0.0016
-3 -1 5 -0.1932 0.0154
-3 -1 6 0.0709 0.0093
-3 -1 7 0.3209 0.0057
-3 -1 8 -0.1213 -0.0071
-3 -1 9 -0.0149 -0.0115
-3 -1 10 0.3109 0.0013
-3 -1 11 -0.6626 0.0065
-3 -1 12 -0.6786 0.0034
-3 -1 13 0.9504 0.0004
-3 -1 14 0.9366 -0.0056
-3 0 1 -0.0722 0.0151
-3 0 2 -0.0209 0.0543
-3 0 3 -0.1310 -0.0011
-3 0 4 0.1007 -0.0301
-3 0 5 0.1958 -0.0069
-3 0 6 -0.2406 0.0033
-3 0 7 0.0539 0.0066
-3 0 8 0.1460 0.0107
-3 0 9 -0.4748 -0.0028
-3 0 10 0.0676 -0.0113
-3 0 11 0.7333 -0.0011
-3 0 12 -0.0094 0.0051
-3 0 13 -0.6144 0.0039
-3 1 1 -0.1746 -0.0635
-3 1 2 0.2399 -0.0027
-3 1 3 0.2217 0.0454
-3 1 4 -0.2806 0.0085
-3 1 5 -0.0620 -0.0172
-3 1 6 -0.0512 -0.0067
-3 1 7 -0.0861 -0.0042
-3 1 8 0.3355 0.0028
-3 1 9 0.1676 0.0127
-3 1 10 -0.1299 0.0005
-3 1 11 -0.2658 -0.0100
-3 1 12 -0.3609 -0.0025
-3 2 1 -0.0845 0.0111
-3 2 2 -0.3907 -0.0547
-3 2 3 0.0395 -0.0156
-3 2 4 0.1653 0.0308
-3 2 5 0.3065 0.0112
-3 2 6 0.0894 -0.0063
-3 2 7 -0.3810 -0.0045
-3 2 8 -0.0854 -0.0087
-3 2 9 -0.1684 -0.0002
-3 2 10 -0.1225 0.0111
-3 2 11 0.8010 0.0017
-3 2 12 0.2391 -0.0051
-3 3 1 0.1943 0.0543
-3 3 2 0.1253 0.0245
-3 3 3 0.0906 -0.0373
-3 3 4 -0.4310 -0.0190
-3 3 5 -0.3797 0.0150
-3 3 6 0.4591 0.0094
-3 3 7 0.2131 0.0025
-3 3 8 0.0001 -0.0021
-3 3 9 0.2594 -0.0091
-3 3 10 -0.4202 -0.0003
-3 3 11 -0.4416 0.0058
-3 4 1 0.0312 -0.0289
-3 4 2 -0.2022 0.0361
-3 4 3 0.1884 0.0243
-3 4 4 0.5117 -0.0189
-3 4 5 -0.1965 -0.0142
-3 4 6 -0.4324 0.0022
-3 4 7 -0.0203 0.0053
-3 4 8 0.1425 0.0073
-3 4 9 0.1039 -0.0010
-3 4 10 -0.1402 -0.0067
-3 5 1 -0.1065 -0.0323
-3 5 2 -0.0552 -0.0249
-3 5 3 -0.1175 0.0212
-3 5 4 -0.1103 0.0171
-3 5 5 0.1914 -0.0058
-3 5 6 0.3959 -0.0071
-3 5 7 -0.3702 -0.0056
-3 5 8 -0.4726 -0.0002
-3 5 9 0.7861 0.0075
-3 6 1 0.2963 0.0251
-3 6 2 -0.3062 -0.0235
-3 6 3 -0.0073 -0.0207
-3 6 4 0.3873 0.0098
-3 6 5 -0.5431 0.0092
-3 6 6 -0.0192 0.0019
-3 6 7 1.0202 0.0024
-3 6 8 -0.6803 -0.0049
-3 6 9 -1.1322 -0.0051
-3 6 10 0.9393 0.0036
-3 7 1 0.2731 0.0221
-3 7 2 0.2480 0.0269
-3 7 3 -0.6375 -0.0114
-3 7 4 0.2073 -0.0141
-3 7 5 0.4809 0.0033
-3 7 6 -0.9994 -0.0009
-3 7 7 0.0261 -0.0015
-3 7 8 1.4954 0.0064
-3 7 9 -0.2194 0.0001
-3 8 1 -0.1211 -0.0310
-3 8 2 0.4262 0.0087
-3 8 3 0.1424 0.0205
-3 8 4 -0.3493 -0.0064
-3 8 6 0.3067 0.0073
-3 9 1 -0.1414 -0.0043
-3 9 2 -0.1357 -0.0245
-3 10 1 -0.0588 0.0249
-2 -13 5 -0.2177 0.0080
-2 -13 6 0.1442 0.0005
-2 -13 7 0.0968 -0.0032
-2 -13 8 -0.3376 -0.0047
-2 -12 1 -0.0523 0.0092
-2 -12 2 -0.0773 0.0083
-2 -12 3 0.0729 -0.0097
-2 -12 4 0.2022 -0.0136
-2 -12 5 -0.2169 0.0031
-2 -12 6 -0.0700 0.0091
-2 -12 7 0.4178 0.0020
-2 -12 8 0.0216 0.0012
-2 -12 9 -0.4031 -0.0016
-2 -12 10 -0.1643 -0.0080
-2 -12 11 0.0818 0.0000
-2 -12 12 0.2061 0.0080
-2 -11 1 0.1641 -0.0141
-2 -11 2 -0.0915 0.0132
-2 -11 3 -0.2876 0.0184
-2 -11 4 0.2356 -0.0060
-2 -11 5 0.0735 -0.0151
-2 -11 6 -0.4258 -0.0014
-2 -11 7 0.0574 0.0060
-2 -11 8 0.3039 0.0050
-2 -11 9 0.0056 0.0036
-2 -11 10 0.1165 -0.0055
-2 -11 11 -0.0025 -0.0095
-2 -11 12 -0.3331 0.0033
-2 -10 1 -0.1152 -0.0169
-2 -10 2 0.4308 -0.0196
-2 -10 3 -0.0811 0.0114
-2 -10 4 -0.1075 0.0179
-2 -10 5 0.3682 -0.0012
-2 -10 6 -0.1263 -0.0105
-2 -10 7 -0.2793 -0.0075
-2 -10 8 0.1902 -0.0007
-2 -10 9 -0.1088 0.0099
-2 -10 10 -0.2486 0.0103
-2 -10 11 0.2328 -0.0048
-2 -10 12 0.1604 -0.0113
-2 -10 13 0.0629 -0.0032
-2 -10 14 0.1852 0.0032
-2 -9 1 -0.3451 0.0209
-2 -9 2 -0.1679 -0.0211
-2 -9 3 0.0563 -0.0219
-2 -9 4 -0.2521 0.0088
-2 -9 5 0.1106 0.0154
-2 -9 6 0.2689 0.0055
-2 -9 7 -0.2030 -0.0024
-2 -9 8 -0.0294 -0.0116
-2 -9 9 0.3049 -0.0095
-2 -9 10 0.0074 0.0065
-2 -9 11 -0.1495 0.0114
-2 -9 12 -0.1826 0.0034
-2 -9 13 -0.2630 -0.0031
-2 -9 14 0.1983 -0.0083
-2 -9 15 0.3778 -0.0062
-2 -8 1 0.2036 0.0284
-2 -8 2 0.0864 0.0312
-2 -8 3 0.1462 -0.0162
-2 -8 4 -0.0690 -0.0245
-2 -8 5 -0.1295 -0.0009
-2 -8 6 0.0841 0.0084
-2 -8 7 0.0463 0.0107
-2 -8 8 -0.1610 0.0070
-2 -8 9 -0.1713 -0.0085
-2 -8 10 0.0444 -0.0119
-2 -8 11 0.2488 -0.0009
-2 -8 12 0.1566 0.0050
-2 -8 13 -0.0946 0.0080
-2 -8 14 0.0051 0.0053
-2 -8 15 -0.0154 -0.0067
-2 -7 1 -0.1367 -0.0412
-2 -7 2 -0.1105 0.0175
-2 -7 3 0.0977 0.0360
-2 -7 4 -0.0752 -0.0026
-2 -7 5 -0.0771 -0.0183
-2 -7 6 0.0783 -0.0082
-2 -7 7 0.0358 -0.0016
-2 -7 8 0.1606 0.0092
-2 -7 9 0.0794 0.0124
-2 -7 10 -0.2484 -0.0014
-2 -7 11 -0.0188 -0.0092
-2 -7 12 0.1654 -0.0071
-2 -7 13 -0.3676 -0.0020
-2 -7 14 -0.2187 0.0078
-2 -7 15 0.7099 0.0093
-2 -6 1 0.1151 -0.0142
-2 -6 2 -0.1534 -0.0465
-2 -6 3 0.1188 0.0034
-2 -6 4 0.1786 0.0320
-2 -6 5 -0.1010 0.0068
-2 -6 6 -0.0054 -0.0090
-2 -6 7 -0.0794 -0.0098
-2 -6 8 -0.1565 -0.0096
-2 -6 9 0.1478 0.0031
-2 -6 10 -0.0064 0.0128
-2 -6 11 -0.2420 0.0062
-2 -6 12 0.3433 -0.0025
-2 -6 13 0.4108 -0.0081
-2 -6 14 -0.4080 -0.0081
-2 -6 15 -0.2498 0.0019
-2 -6 16 0.1905 0.0095
-2 -5 1 0.0933 0.0550
-2 -5 2 -0.0008 -0.0007
-2 -5 3 -0.1026 -0.0468
-2 -5 4 -0.0234 -0.0099
-2 -5 5 -0.0905 0.0228
-2 -5 6 0.0175 0.0138
-2 -5 7 0.1680 0.0029
-2 -5 8 0.0203 -0.0070
-2 -5 9 -0.0025 -0.0140
-2 -5 10 0.1383 -0.0037
-2 -5 11 -0.0824 0.0073
-2 -5 12 -0.2053 0.0072
-2 -5 13 -0.0420 0.0049
-2 -5 14 -0.3514 -0.0018
-2 -5 15 0.0153 -0.0102
-2 -5 16 1.1259 -0.0048
-2 -4 1 -0.0012 -0.0050
-2 -4 2 -0.1783 0.0574
-2 -4 3 0.0268 0.0159
-2 -4 4 0.2623 -0.0344
-2 -4 5 0.0450 -0.0201
-2 -4 6 -0.1005 0.0041
-2 -4 7 -0.0963 0.0129
-2 -4 8 -0.0707 0.0141
-2 -4 9 -0.0119 -0.0005
-2 -4 10 -0.0584 -0.0122
-2 -4 11 -0.1557 -0.0058
-2 -4 12 0.0939 0.0001
-2 -4 13 0.9067 0.0026
-2 -4 14 0.4823 0.0088
-2 -4 15 -1.5159 0.0038
-2 -3 1 0.2764 -0.0609
-2 -3 2 0.1248 -0.0181
-2 -3 3 -0.2610 0.0428
-2 -3 4 -0.0382 0.0221
-2 -3 5 -0.0171 -0.0119
-2 -3 6 -0.0587 -0.0166
-2 -3 7 0.1072 -0.0122
-2 -3 8 0.1022 0.0043
-2 -3 9 0.1080 0.0163
-2 -3 10 0.1864 0.0044
-2 -3 11 0.1198 -0.0056
-2 -3 12 -0.6839 -0.0041
-2 -3 13 -1.1330 -0.0060
-2 -3 14 0.7143 -0.0009
-2 -3 15 1.8967 0.0102
-2 -2 1 -0.0467 0.0144
-2 -2 2 0.0680 -0.0543
-2 -2 3 -0.1847 -0.0198
-2 -2 4 0.0441 0.0262
-2 -2 5 0.3209 0.0179
-2 -2 6 0.0722 0.0046
-2 -2 7 -0.2484 -0.0071
-2 -2 8 -0.3081 -0.0175
-2 -2 9 0.0457 -0.0030
-2 -2 10 -0.0552 0.0109
-2 -2 11 -0.1030 0.0050
-2 -2 12 1.0129 0.0018
-2 -2 13 0.6579 -0.0020
-2 -2 14 -1.4763 -0.0097
-2 -1 1 -0.0491 0.0698
-2 -1 2 0.4933 0.0223
-2 -1 3 0.1024 -0.0467
-2 -1 4 -0.3684 -0.0232
-2 -1 5 -0.3033 0.0098
-2 -1 6 0.1017 0.0113
-2 -1 7 0.5028 0.0136
-2 -1 8 -0.0741 0.0015
-2 -1 9 -0.2752 -0.0149
-2 -1 10 0.5524 -0.0058
-2 -1 11 -0.1912 0.0043
-2 -1 12 -1.2378 0.0040
-2 -1 14 1.4547 -0.0019
-2 -1 15 0.1550 -0.0105
-2 0 1 -0.5168 -0.0350
-2 0 2 -0.2262 0.0623
-2 0 3 0.1163 0.0367
-2 0 4 0.2125 -0.0252
-2 0 5 0.2338 -0.0200
-2 0 6 -0.3131 -0.0045
-2 0 7 -0.1058 0.0012
-2 0 8 0.3405 0.0145
-2 0 9 -0.3857 0.0068
-2 0 10 -0.3357 -0.0102
-2 0 11 0.6717 -0.0063
-2 0 12 0.4585 0.0006
-2 0 14 -0.5360 0.0067
-2 1 1 0.0920 -0.0623
-2 1 2 0.1187 -0.0527
-2 1 3 0.1715 0.0337
-2 1 4 -0.2993 0.0332
-2 1 5 -0.1042 -0.0063
-2 1 6 0.0534 -0.0088
-2 1 7 -0.0879 -0.0086
-2 1 8 0.1961 -0.0054
-2 1 9 0.1195 0.0117
-2 1 10 0.0377 0.0086
-2 1 11 0.0175 -0.0066
-2 1 12 -0.4918 -0.0062
-2 2 1 -0.0988 0.0611
-2 2 2 -0.3669 -0.0324
-2 2 3 0.0682 -0.0462
-2 2 4 0.1745 0.0126
-2 2 5 0.2243 0.0210
-2 2 6 0.0561 0.0020
-2 2 7 -0.3177 -0.0013
-2 2 8 0.2013 -0.0095
-2 2 9 -0.0579 -0.0080
-2 2 10 -0.7718 0.0088
-2 2 11 0.4582 0.0082
-2 2 12 0.9666 -0.0026
-2 2 13 -0.4185 -0.0039
-2 3 1 0.1819 0.0252
-2 3 2 -0.0104 0.0517
-2 3 3 0.1318 -0.0119
-2 3 4 -0.2232 -0.0310
-2 3 5 -0.3589 0.0004
-2 3 6 0.3491 0.0097
-2 3 7 -0.0636 0.0074
-2 3 8 -0.2542 0.0041
-2 3 9 0.7594 -0.0085
-2 3 10 0.1636 -0.0077
-2 3 11 -0.8796 0.0037
-2 3 12 -0.1521 0.0035
-2 4 1 0.2273 -0.0474
-2 4 2 -0.2233 0.0105
-2 4 3 -0.0786 0.0332
-2 4 4 0.4363 -0.0021
-2 4 5 -0.0659 -0.0150
-2 4 6 -0.1908 -0.0053
-2 4 7 0.2049 -0.0001
-2 4 8 -0.1123 0.0076
-2 4 9 -0.3405 0.0063
-2 4 10 -0.0487 -0.0043
-2 5 1 -0.0641 -0.0145
-2 5 2 0.0880 -0.0333
-2 5 3 -0.0809 0.0081
-2 5 4 -0.0822 0.0201
-2 5 5 0.0669 0.0010
-2 5 6 0.1341 -0.0042
-2 5 7 -0.3031 -0.0057
-2 5 8 -0.2032 -0.0057
-2 5 9 0.8532 0.0044
-2 5 10 0.2633 0.0043
-2 6 1 0.3082 0.0401
-2 6 2 -0.1804 -0.0125
-2 6 3 -0.1916 -0.0316
-2 6 4 0.2409 0.0014
-2 6 5 -0.2272 0.0121
-2 6 6 0.1435 0.0038
-2 6 7 0.8124 0.0043
-2 6 8 -0.8297 -0.0024
-2 6 10 1.0851 0.0021
-2 7 1 0.0738 0.0047
-2 7 2 0.4524 0.0444
-2 7 3 -0.2829 0.0055
-2 7 4 -0.0096 -0.0217
-2 7 5 0.1276 -0.0052
-2 7 6 -0.8623 -0.0002
-2 7 8 1.4365 0.0084
-2 7 9 -0.3560 0.0013
-2 8 1 -0.2945 -0.0454
-2 8 2 0.0939 -0.0190
-2 8 3 0.1574 0.0256
-2 8 4 -0.0183 0.0103
-2 8 6 0.0847 0.0020
-2 9 1 -0.0005 0.0261
-2 9 2 0.0424 -0.0221
-2 9 3 -0.3618 -0.0142
-2 9 5 0.1963 -0.0004
-2 9 7 0.3476 0.0051
-2 10 1 -0.3701 0.0178
-2 10 2 0.5357 0.0145
-2 11 1 -0.3425 -0.0137
-2 11 2 -0.7522 0.0156
-2 12 2 -0.2336 -0.0098
-1 -13 2 0.1100 -0.0092
-1 -13 3 0.4627 -0.0091
-1 -13 4 0.0979 0.0037
-1 -13 5 -0.7158 0.0106
-1 -13 11 0.5351 0.0085
-1 -12 1 -0.2181 0.0113
-1 -12 2 -0.3112 0.0169
-1 -12 3 -0.1991 -0.0037
-1 -12 4 0.5617 -0.0173
-1 -12 5 0.2860 -0.0054
-1 -12 6 -0.4689 0.0079
-1 -12 7 -0.0450 0.0062
-1 -12 10 -0.3328 -0.0066
-1 -12 11 -0.1670 -0.0029
-1 -12 12 0.1260 0.0080
-1 -12 13 0.2954 0.0041
-1 -11 1 0.2534 -0.0212
-1 -11 2 0.1878 0.0049
-1 -11 3 -0.3554 0.0204
-1 -11 4 -0.2435 0.0043
-1 -11 5 0.1552 -0.0128
-1 -11 6 -0.0780 -0.0096
-1 -11 7 -0.0187 0.0028
-1 -11 8 0.1199 0.0086
-1 -11 9 -0.0723 0.0068
-1 -11 10 0.1891 -0.0024
-1 -11 11 0.2444 -0.0122
-1 -11 12 -0.3002 -0.0059
-1 -11 13 -0.2343 0.0081
-1 -11 14 0.0287 0.0097
-1 -10 1 -0.2879 -0.0120
-1 -10 2 0.2303 -0.0242
-1 -10 3 0.1528 0.0039
-1 -10 4 0.0050 0.0186
-1 -10 5 0.3213 0.0076
-1 -10 6 -0.1168 -0.0063
-1 -10 7 -0.3696 -0.0127
-1 -10 8 0.2549 -0.0080
-1 -10 9 0.0284 0.0063
-1 -10 10 -0.4141 0.0147
-1 -10 11 0.1384 0.0057
-1 -10 12 0.1652 -0.0077
-1 -10 13 -0.0506 -0.0113
-1 -10 14 0.4950 -0.0067
-1 -10 15 0.0318 0.0053
-1 -9 1 -0.0522 0.0363
-1 -9 2 -0.1141 -0.0125
-1 -9 3 -0.0299 -0.0327
-1 -9 4 -0.4041 -0.0036
-1 -9 5 0.0038 0.0151
-1 -9 6 0.4183 0.0131
-1 -9 7 -0.1462 0.0060
-1 -9 8 -0.1377 -0.0085
-1 -9 9 0.3219 -0.0159
-1 -9 10 -0.0287 -0.0030
-1 -9 11 -0.0392 0.0089
-1 -9 12 0.1907 0.0086
-1 -9 13 -0.5564 0.0061
-1 -9 14 -0.4405 -0.0035
-1 -9 15 0.6981 -0.0137
-1 -8 1 0.0383 0.0081
-1 -8 2 0.0478 0.0502
-1 -8 3 0.2747 0.0076
-1 -8 4 0.0429 -0.0283
-1 -8 5 -0.1625 -0.0152
-1 -8 6 0.0970 0.0008
-1 -8 7 0.0166 0.0099
-1 -8 8 -0.2211 0.0150
-1 -8 9 0.0184 0.0007
-1 -8 10 0.0050 -0.0129
-1 -8 11 -0.2439 -0.0067
-1 -8 12 0.2564 -0.0001
-1 -8 13 0.5256 0.0040
-1 -8 14 -0.0835 0.0100
-1 -7 1 -0.0736 -0.0570
-1 -7 2 -0.1180 -0.0195
-1 -7 3 0.1355 0.0380
-1 -7 4 -0.0614 0.0212
-1 -7 5 -0.2787 -0.0108
-1 -7 6 0.0633 -0.0128
-1 -7 7 0.2171 -0.0097
-1 -7 8 0.0159 0.0009
-1 -7 9 0.0026 0.0153
-1 -7 10 0.1188 0.0076
-1 -7 11 0.0325 -0.0064
-1 -7 12 -0.1768 -0.0080
-1 -7 13 -0.3775 -0.0057
-1 -7 14 -0.1603 0.0005
-1 -7 16 0.4842 0.0071
-1 -6 1 0.0653 0.0285
-1 -6 2 -0.3073 -0.0415
-1 -6 3 0.0089 -0.0284
-1 -6 4 0.3736 0.0217
-1 -6 5 0.0494 0.0199
-1 -6 6 -0.1086 0.0004
-1 -6 7 -0.0533 -0.0064
-1 -6 8 -0.1090 -0.0134
-1 -6 9 -0.0295 -0.0068
-1 -6 10 -0.0550 0.0100
-1 -6 11 -0.1545 0.0112
-1 -6 12 0.3241 0.0024
-1 -6 13 0.4927 -0.0040
-1 -6 14 -0.3693 -0.0083
-1 -6 15 -0.3585 -0.0063
-1 -6 16 0.3418 0.0035
-1 -5 1 0.2179 0.0435
-1 -5 2 0.0706 0.0343
-1 -5 3 -0.1129 -0.0312
-1 -5 4 -0.0719 -0.0305
-1 -5 5 -0.1687 0.0083
-1 -5 6 -0.0720 0.0169
-1 -5 7 0.1990 0.0110
-1 -5 8 0.1333 0.0012
-1 -5 9 0.0064 -0.0132
-1 -5 10 0.1407 -0.0110
-1 -5 11 -0.0756 0.0022
-1 -5 12 -0.2914 0.0060
-1 -5 13 0.1526 0.0063
-1 -5 15 -0.6199 -0.0050
-1 -5 16 0.8976 -0.0114
-1 -4 1 0.1396 -0.0380
-1 -4 2 -0.1955 0.0384
-1 -4 3 -0.1925 0.0387
-1 -4 4 0.3020 -0.0150
-1 -4 5 0.2635 -0.0262
-1 -4 6 -0.0753 -0.0094
-1 -4 7 -0.1868 0.0054
-1 -4 8 -0.0924 0.0174
-1 -4 9 -0.0285 0.0094
-1 -4 10 -0.0189 -0.0086
-1 -4 11 -0.0495 -0.0084
-1 -4 12 -0.2502 -0.0024
-1 -4 13 0.5073 -0.0026
-1 -4 14 1.2445 0.0056
-1 -4 15 -0.7373 0.0112
-1 -4 16 -1.9525 -0.0030
-1 -3 1 0.1249 -0.0465
-1 -3 2 0.3471 -0.0415
-1 -3 3 -0.1245 0.0267
-1 -3 4 -0.1240 0.0316
-1 -3 5 -0.1027 0.0017
-1 -3 6 -0.1008 -0.0105
-1 -3 7 0.0967 -0.0179
-1 -3 8 0.1137 -0.0081
-1 -3 9 0.1120 0.0143
-1 -3 10 0.1133 0.0113
-1 -3 11 0.2846 -0.0021
-1 -3 12 -0.1585 -0.0016
-1 -3 13 -1.3503 -0.0058
-1 -3 14 -0.2997 -0.0088
-1 -3 15 1.8783 0.0067
-1 -2 1 0.0545 0.0455
-1 -2 2 0.0491 -0.0469
-1 -2 3 -0.4211 -0.0416
-1 -2 4 -0.0692 0.0157
-1 -2 5 0.5061 0.0205
-1 -2 6 0.2196 0.0111
-1 -2 7 -0.1892 0.0040
-1 -2 8 -0.3776 -0.0164
-1 -2 9 -0.0795 -0.0134
-1 -2 10 0.0408 0.0066
-1 -2 11 -0.2851 0.0061
-1 -2 12 0.5794 0.0041
-1 -2 13 1.0998 0.0052
-1 -2 14 -0.6449 -0.0092
-1 -2 15 -1.4797 -0.0104
-1 -1 1 -0.4802 0.0634
-1 -1 3 0.5675 -0.0321
-1 -1 4 -0.5190 -0.0410
-1 -1 5 -0.5508 -0.0017
-1 -1 6 -0.0373 0.0061
-1 -1 7 0.5050 0.0147
-1 -1 8 0.2140 0.0135
-1 -1 9 -0.3519 -0.0099
-1 -1 10 0.2773 -0.0110
-1 -1 11 0.2867 0.0001
-1 -1 12 -0.8786 -0.0002
-1 -1 13 -0.5306 0.0076
-1 -1 14 0.9279 0.0077
-1 -1 15 0.7658 -0.0107
-1 0 1 -0.5795 -0.0894
-1 0 2 -0.8054 0.0326
-1 0 3 0.1168 0.0657
-1 0 4 0.3992 -0.0025
-1 0 5 0.3272 -0.0215
-1 0 6 -0.1984 -0.0104
-1 0 7 -0.2865 -0.0092
-1 0 8 0.2528 0.0094
-1 0 9 -0.0800 0.0148
-1 0 10 -0.4199 -0.0038
-1 0 11 0.1887 -0.0067
-1 0 12 0.5482 -0.0030
-1 0 13 0.0381 -0.0024
-1 0 14 -0.5070 0.0082
-1 1 1 0.4328 -0.0177
-1 1 2 0.1739 -0.0803
-1 1 3 0.1322 -0.0011
-1 1 4 -0.2703 0.0378
-1 1 5 -0.2111 0.0069
-1 1 6 0.0421 -0.0021
-1 1 7 -0.0190 -0.0061
-1 1 8 0.1571 -0.0130
-1 1 9 0.0297 0.0045
-1 1 10 0.0270 0.0123
-1 1 11 0.2483 -0.0007
-1 1 12 -0.2967 -0.0048
-1 1 13 -0.3856 -0.0041
-1 1 14 0.1883 -0.0019
-1 2 1 -0.0872 0.0781
-1 2 2 -0.4514 0.0077
-1 2 3 0.0154 -0.0487
-1 2 4 0.2394 -0.0080
-1 2 5 0.2023 0.0165
-1 2 6 0.0774 0.0058
-1 2 7 -0.3480 0.0049
-1 2 8 0.1757 -0.0047
-1 2 9 0.2806 -0.0132
-1 2 10 -0.7635 0.0019
-1 2 11 -0.1909 0.0102
-1 2 12 0.8576 0.0021
-1 2 13 0.2075 -0.0026
-1 3 1 0.3571 -0.0106
-1 3 2 -0.0320 0.0498
-1 3 3 -0.0270 0.0111
-1 3 4 -0.0505 -0.0254
-1 3 5 -0.2585 -0.0086
-1 3 6 0.2507 0.0031
-1 3 7 -0.0516 0.0060
-1 3 8 -0.4908 0.0104
-1 3 9 0.5527 -0.0020
-1 3 10 0.6301 -0.0115
-1 3 11 -0.5128 -0.0020
-1 3 12 -0.5021 0.0041
-1 3 13 0.0601 0.0029
-1 4 1 0.2890 -0.0444
-1 4 2 0.0344 -0.0079
-1 4 3 -0.2445 0.0282
-1 4 4 0.1679 0.0072
-1 4 5 0.0161 -0.0089
-1 4 6 -0.0444 -0.0056
-1 4 7 0.3137 -0.0062
-1 4 8 -0.0270 0.0016
-1 4 9 -0.4760 0.0100
-1 4 10 -0.2545 0.0019
-1 4 12 0.4766 -0.0014
-1 5 1 -0.2136 -0.0015
-1 5 2 0.1746 -0.0356
-1 5 3 0.0722 -0.0014
-1 5 4 -0.0437 0.0196
-1 5 5 -0.0277 0.0036
-1 5 6 -0.0041 -0.0012
-1 5 7 -0.2895 -0.0011
-1 5 8 -0.1506 -0.0079
-1 5 9 0.8310 -0.0018
-1 6 1 0.1715 0.0515
-1 6 2 -0.0640 0.0049
-1 6 3 -0.1733 -0.0365
-1 6 4 0.0840 -0.0092
-1 6 5 -0.1375 0.0116
-1 6 6 0.2617 0.0037
-1 6 7 0.7497 0.0052
-1 6 8 -0.8410 0.0028
-1 6 9 -1.0957 -0.0076
-1 7 1 -0.1435 -0.0250
-1 7 2 0.2896 0.0455
-1 7 3 -0.0154 0.0265
-1 7 4 0.0805 -0.0176
-1 7 5 -0.1328 -0.0112
-1 7 6 -0.9011 -0.0023
-1 7 7 0.4434 -0.0038
-1 8 1 -0.1713 -0.0343
-1 8 2 -0.0777 -0.0431
-1 8 3 -0.0182 0.0130
-1 8 4 0.2169 0.0193
-1 8 5 0.6816 0.0000
-1 9 1 0.0472 0.0436
-1 9 2 0.1347 -0.0043
-1 9 3 -0.4767 -0.0221
-1 9 4 -0.5908 0.0025
-1 10 1 -0.3113 0.0022
-1 10 2 0.5329 0.0209
-1 10 3 0.8205 -0.0057
-1 11 1 -0.2875 -0.0204
-1 11 2 -0.9154 0.0065
-1 11 3 0.5237 0.0138
-1 11 4 0.8467 -0.0073
-1 12 2 -0.1510 -0.0144
0 -14 7 0.4226 -0.0064
0 -13 1 -0.3290 0.0099
0 -13 2 -0.1124 -0.0072
0 -13 3 0.7044 -0.0161
0 -13 9 -0.4354 -0.0080
0 -13 11 0.4229 0.0041
0 -13 12 0.1701 0.0062
0 -12 1 -0.0017 0.0042
0 -12 2 -0.3560 0.0208
0 -12 4 0.2659 -0.0127
0 -12 5 1.0024 -0.0106
0 -12 6 -0.0635 0.0012
0 -12 7 -0.5896 0.0068
0 -12 8 0.0620 0.0046
0 -12 9 0.2701 -0.0004
0 -12 10 -0.1049 -0.0063
0 -12 11 -0.2459 -0.0050
0 -12 12 -0.0349 0.0067
0 -12 13 0.1776 0.0092
0 -11 1 0.1242 -0.0220
0 -11 2 0.6100 -0.0018
0 -11 3 0.1634 0.0152
0 -11 4 -0.6710 0.0082
0 -11 5 -0.3165 -0.0046
0 -11 6 0.1722 -0.0110
0 -11 7 0.1935 -0.0048
0 -11 8 0.0633 0.0071
0 -11 9 -0.1421 0.0108
0 -11 10 0.0711 0.0038
0 -11 11 0.2724 -0.0094
0 -11 12 -0.1429 -0.0140
0 -11 13 -0.1818 -0.0019
0 -11 14 0.0757 0.0123
0 -10 1 -0.3535 -0.0079
0 -10 2 -0.2712 -0.0268
0 -10 3 0.1957 -0.0008
0 -10 4 0.2970 0.0154
0 -10 5 0.2950 0.0107
0 -10 6 -0.0565 0.0020
0 -10 7 -0.3646 -0.0100
0 -10 8 0.0691 -0.0141
0 -10 9 0.0943 -0.0024
0 -10 10 -0.2857 0.0112
0 -10 11 0.1419 0.0131
0 -10 12 0.1297 0.0046
0 -10 13 -0.3865 -0.0087
0 -10 14 0.4306 -0.0180
0 -10 15 0.6596 -0.0065
0 -9 1 0.1681 0.0484
0 -9 2 0.0924 0.0034
0 -9 3 -0.0074 -0.0349
0 -9 4 -0.4212 -0.0153
0 -9 5 -0.2361 0.0075
0 -9 6 0.2878 0.0128
0 -9 7 0.0728 0.0131
0 -9 8 -0.0144 0.0009
0 -9 9 0.2585 -0.0138
0 -9 10 -0.2235 -0.0101
0 -9 11 -0.1933 -0.0003
0 -9 12 0.6643 0.0043
0 -9 13 -0.1868 0.0128
0 -9 14 -1.1121 0.0099
0 -8 1 -0.1212 -0.0236
0 -8 2 -0.1992 0.0477
0 -8 3 0.2125 0.0312
0 -8 4 0.2415 -0.0166
0 -8 5 0.0055 -0.0205
0 -8 6 0.0842 -0.0084
0 -8 7 -0.1085 0.0016
0 -8 8 -0.3771 0.0151
0 -8 9 0.1836 0.0096
0 -8 10 0.3534 -0.0072
0 -8 11 -0.5742 -0.0067
0 -8 12 -0.2558 -0.0036
0 -8 13 0.9223 -0.0049
0 -8 14 0.3002 0.0064
0 -8 15 -0.6375 0.0135
0 -7 1 0.1182 -0.0410
0 -7 2 -0.0094 -0.0478
0 -7 3 0.1024 0.0174
0 -7 4 -0.0710 0.0309
0 -7 5 -0.4171 0.0027
0 -7 6 -0.0311 -0.0076
0 -7 7 0.4420 -0.0122
0 -7 8 0.0484 -0.0090
0 -7 9 -0.3241 0.0105
0 -7 10 0.2052 0.0129
0 -7 11 0.3942 -0.0014
0 -7 12 -0.2788 -0.0048
0 -7 13 -0.5124 -0.0047
0 -7 14 -0.0965 -0.0066
0 -7 15 0.4116 0.0004
0 -7 16 0.4407 0.0100
0 -6 1 0.0434 0.0517
0 -6 2 -0.4054 -0.0140
0 -6 3 -0.1450 -0.0390
0 -6 4 0.4703 0.0024
0 -6 5 0.2590 0.0183
0 -6 6 -0.2037 0.0078
0 -6 7 -0.1502 0.0025
0 -6 8 0.0490 -0.0104
0 -6 9 -0.0307 -0.0148
0 -6 10 -0.1747 0.0026
0 -6 11 -0.1385 0.0117
0 -6 12 0.2291 0.0054
0 -6 13 0.4902 0.0011
0 -6 14 -0.1621 -0.0027
0 -6 16 0.2936 -0.0062
0 -5 1 0.3823 0.0155
0 -5 2 0.2113 0.0436
0 -5 3 -0.1932 -0.0074
0 -5 4 -0.1409 -0.0306
0 -5 5 -0.1051 -0.0057
0 -5 6 -0.1020 0.0082
0 -5 7 0.0896 0.0123
0 -5 8 0.1918 0.0115
0 -5 9 0.0432 -0.0057
0 -5 10 0.0811 -0.0146
0 -5 11 0.0368 -0.0039
0 -5 12 -0.3290 0.0031
0 -5 13 0.0735 0.0037
0 -5 14 0.1797 0.0078
0 -4 1 0.0855 -0.0474
0 -4 2 0.0448 0.0154
0 -4 3 -0.2382 0.0406
0 -4 4 0.0794 0.0019
0 -4 5 0.3287 -0.0180
0 -4 6 0.1107 -0.0139
0 -4 7 -0.2376 -0.0073
0 -4 8 -0.1711 0.0105
0 -4 9 0.0542 0.0170
0 -4 10 -0.0369 0.0000
0 -4 11 0.0271 -0.0082
0 -4 12 -0.2014 -0.0035
0 -4 13 -0.1030 -0.0052
0 -4 14 1.1079 -0.0009
0 -4 16 -1.6656 0.0057
0 -3 1 -0.1995 -0.0280
0 -3 2 0.2805 -0.0525
0 -3 3 0.0894 0.0098
0 -3 4 -0.0459 0.0309
0 -3 5 -0.1912 0.0087
0 -3 6 -0.1258 0.0001
0 -3 7 0.1491 -0.0120
0 -3 8 0.0091 -0.0181
0 -3 9 0.0375 0.0033
0 -3 10 0.1340 0.0139
0 -3 11 0.2024 0.0030
0 -3 12 0.1939 0.0013
0 -3 13 -0.8405 -0.0019
0 -3 14 -0.8450 -0.0124
0 -3 15 1.0481 -0.0020
0 -2 1 0.1687 0.0735
0 -2 2 0.2223 -0.0230
0 -2 3 -0.4792 -0.0562
0 -2 4 -0.3227 -0.0008
0 -2 5 0.4613 0.0172
0 -2 6 0.2705 0.0108
0 -2 7 -0.0252 0.0140
0 -2 8 -0.1826 -0.0051
0 -2 9 -0.2547 -0.0183
0 -2 10 -0.0300 -0.0019
0 -2 11 -0.1079 0.0040
0 -2 12 0.1905 0.0029
0 -2 13 0.6838 0.0105
0 -2 14 -0.0036 -0.0011
0 -2 15 -0.7411 -0.0156
0 -1 2 0.4994 0.0886
0 -1 3 1.0418 0.0038
0 -1 4 -0.2479 -0.0423
0 -1 5 -0.6327 -0.0129
0 -1 6 -0.1916 -0.0035
0 -1 7 0.2159 0.0059
0 -1 8 0.3359 0.0200
0 -1 9 -0.0434 0.0014
0 -1 10 -0.0848 -0.0108
0 -1 11 0.1447 -0.0024
0 -1 12 -0.0643 -0.0047
0 -1 13 -0.3749 0.0020
0 -1 14 -0.1220 0.0139
0 -1 15 0.4771 -0.0022
0 0 2 -1.1188 -0.0207
0 0 3 -0.2411 0.0621
0 0 4 0.4240 0.0205
0 0 5 0.3353 -0.0105
0 0 6 -0.0116 -0.0062
0 0 7 -0.1878 -0.0157
0 0 8 0.0120 -0.0029
0 0 9 0.0374 0.0158
0 0 10 -0.0730 0.0031
0 0 11 -0.2168 -0.0041
0 0 12 -0.0032 -0.0019
0 0 13 0.4910 -0.0075
0 0 14 0.0388 0.0022
0 1 1 0.4565 0.0372
0 1 2 0.3115 -0.0672
0 1 3 0.1262 -0.0290
0 1 4 -0.1258 0.0248
0 1 5 -0.1583 0.0088
0 1 6 -0.1036 0.0037
0 1 7 -0.1107 0.0032
0 1 8 0.1750 -0.0140
0 1 9 0.0218 -0.0045
0 1 10 0.0055 0.0111
0 1 11 0.3741 0.0031
0 1 12 -0.1634 -0.0014
0 1 13 -0.4149 -0.0021
0 1 14 0.0505 -0.0062
0 2 0 0.1568 -0.0391
0 2 1 0.0885 0.0613
0 2 2 -0.4036 0.0332
0 2 3 -0.1754 -0.0350
0 2 4 0.1114 -0.0156
0 2 5 0.1828 0.0100
0 2 6 0.2717 0.0023
0 2 7 -0.1854 0.0072
0 2 8 -0.0864 0.0034
0 2 9 0.2088 -0.0131
0 2 10 -0.3733 -0.0051
0 2 11 -0.2205 0.0079
0 2 12 0.3395 0.0039
0 2 13 0.1586 0.0004
0 3 0 -0.3260 -0.0532
0 3 1 0.3054 -0.0310
0 3 2 0.1702 0.0386
0 3 3 -0.0541 0.0216
0 3 4 0.0081 -0.0181
0 3 5 -0.2020 -0.0097
0 3 6 0.0095 -0.0012
0 3 7 0.0245 -0.0000
0 3 8 -0.2065 0.0114
0 3 9 0.2410 0.0061
0 3 10 0.2857 -0.0095
0 3 12 -0.1084 0.0019
0 4 0 -0.2438 0.0234
0 4 1 0.0636 -0.0397
0 4 2 0.1648 -0.0204
0 4 3 -0.1462 0.0235
0 4 4 -0.0543 0.0122
0 4 5 0.0374 -0.0050
0 4 6 0.1353 -0.0023
0 4 7 0.1520 -0.0072
0 4 8 -0.1121 -0.0058
0 4 9 -0.1343 0.0078
0 4 11 -0.0288 -0.0017
0 5 0 -0.1568 0.0451
0 5 1 -0.2649 0.0172
0 5 2 0.0673 -0.0351
0 5 3 0.1684 -0.0144
0 5 4 0.0727 0.0165
0 5 5 -0.1673 0.0062
0 5 6 -0.0749 -0.0000
0 5 7 -0.0555 0.0038
0 5 8 -0.1958 -0.0052
0 5 9 0.4861 -0.0067
0 6 0 0.1347 -0.0246
0 6 1 0.0342 0.0480
0 6 3 -0.1299 -0.0281
0 6 4 0.1066 -0.0188
0 6 5 -0.0763 0.0068
0 6 6 0.1338 0.0016
0 6 7 0.6598 0.0029
0 6 8 -0.6084 0.0075
0 6 9 -0.9801 -0.0035
0 7 0 0.0134 -0.0451
0 7 1 -0.0179 -0.0513
0 7 2 0.1205 0.0252
0 7 3 -0.0927 0.0370
0 7 4 0.1533 -0.0060
0 7 5 -0.0688 -0.0097
0 7 6 -0.9428 -0.0014
0 7 7 0.3785 -0.0081
0 8 0 -0.0345 0.0615
0 8 1 -0.1584 -0.0066
0 8 2 0.0481 -0.0461
0 8 3 -0.1051 -0.0025
0 8 4 0.1156 0.0159
0 8 5 0.9187 0.0006
0 8 6 -0.1715 0.0057
0 9 0 0.2322 -0.0090
0 9 1 0.0730 0.0393
0 9 2 0.1624 0.0089
0 9 3 -0.3398 -0.0183
0 10 0 -0.1179 -0.0274
0 10 1 -0.3407 -0.0073
0 10 2 0.3922 0.0195
0 10 3 1.1558 0.0005
0 10 5 -1.0816 0.0040
0 11 0 0.2977 0.0034
0 11 1 -0.1781 -0.0205
0 11 2 -1.1512 -0.0037
0 11 3 0.0739 0.0132
0 12 0 0.1092 0.0178
0 12 1 0.6981 0.0082
1 -14 4 -0.6107 0.0107
1 -14 6 0.3004 -0.0004
1 -14 7 0.5095 -0.0040
1 -13 1 -0.4044 0.0157
1 -13 2 -0.3717 0.0035
1 -13 3 0.3830 -0.0150
1 -13 4 0.7926 -0.0106
1 -13 5 -0.0086 0.0034
1 -13 6 -0.6920 0.0065
1 -13 7 -0.2730 0.0057
1 -13 8 0.2830 0.0035
1 -13 11 0.0393 0.0007
1 -12 0 0.1681 -0.0201
1 -12 1 0.1876 -0.0076
1 -12 2 0.0816 0.0167
1 -12 3 -0.7804 0.0121
1 -12 4 -0.4449 -0.0050
1 -12 5 0.6424 -0.0094
1 -12 6 0.5096 -0.0040
1 -12 7 -0.1562 0.0031
1 -12 8 -0.2401 0.0060
1 -12 9 -0.0236 0.0021
1 -12 10 0.0305 -0.0055
1 -12 11 -0.0842 -0.0075
1 -12 12 -0.0596 0.0032
1 -12 13 0.1031 0.0114
1 -11 0 0.2049 0.0063
1 -11 1 -0.2778 -0.0197
1 -11 2 0.4369 -0.0071
1 -11 3 0.7283 0.0108
1 -11 4 -0.3672 0.0077
1 -11 5 -0.6195 0.0008
1 -11 6 -0.0078 -0.0066
1 -11 7 0.1871 -0.0093
1 -11 8 0.0847 0.0005
1 -11 9 -0.0181 0.0105
1 -11 10 0.0607 0.0099
1 -11 11 0.1680 -0.0018
1 -11 12 -0.1339 -0.0145
1 -11 13 -0.1984 -0.0121
1 -11 14 0.1927 0.0044
1 -10 0 0.1380 0.0307
1 -10 1 -0.1072 0.0030
1 -10 2 -0.6345 -0.0275
1 -10 3 0.0098 -0.0082
1 -10 4 0.4630 0.0108
1 -10 5 0.1471 0.0096
1 -10 6 -0.0141 0.0077
1 -10 7 -0.0158 -0.0014
1 -10 8 -0.0551 -0.0132
1 -10 9 -0.1463 -0.0104
1 -10 10 -0.2112 0.0020
1 -10 11 0.2166 0.0116
1 -10 12 0.3041 0.0137
1 -10 13 -0.4539 0.0028
1 -10 15 0.7863 -0.0192
1 -9 0 0.0290 -0.0133
1 -9 1 0.2329 0.0458
1 -9 2 0.1524 0.0231
1 -9 3 -0.0503 -0.0245
1 -9 4 -0.1123 -0.0209
1 -9 5 -0.1648 -0.0019
1 -9 6 -0.1907 0.0054
1 -9 7 -0.0060 0.0128
1 -9 8 0.2998 0.0097
1 -9 9 0.3476 -0.0053
1 -9 10 -0.2764 -0.0100
1 -9 11 -0.4920 -0.0067
1 -9 12 0.5627 -0.0045
1 -9 13 0.4339 0.0093
1 -9 14 -0.9910 0.0196
1 -9 15 -0.3032 -0.0006
1 -8 0 0.1311 -0.0457
1 -8 1 0.0299 -0.0477
1 -8 2 -0.2759 0.0245
1 -8 3 -0.1205 0.0388
1 -8 4 0.1194 0.0000
1 -8 5 0.3233 -0.0142
1 -8 6 0.2898 -0.0106
1 -8 7 -0.2335 -0.0073
1 -8 8 -0.5582 0.0075
1 -8 9 0.0939 0.0128
1 -8 10 0.6306 -0.0003
1 -8 11 -0.3241 -0.0033
1 -8 12 -0.6912 -0.0026
1 -8 13 0.6523 -0.0104
1 -8 14 0.6500 -0.0023
1 -8 15 -0.5727 0.0154
1 -8 16 -0.3736 0.0103
1 -7 0 -0.2752 0.0603
1 -7 1 0.1817 -0.0092
1 -7 2 0.2493 -0.0499
1 -7 3 0.1784 -0.0045
1 -7 4 -0.1341 0.0239
1 -7 5 -0.5312 0.0086
1 -7 6 -0.1468 0.0007
1 -7 7 0.5296 -0.0066
1 -7 8 0.2519 -0.0141
1 -7 9 -0.4604 0.0015
1 -7 10 -0.0419 0.0127
1 -7 11 0.5528 0.0032
1 -7 12 -0.1051 -0.0004
1 -7 13 -0.5161 -0.0009
1 -7 14 -0.0282 -0.0093
1 -7 15 0.2194 -0.0079
1 -6 0 0.1394 -0.0037
1 -6 1 -0.0193 0.0479
1 -6 2 -0.4093 0.0075
1 -6 3 -0.2526 -0.0317
1 -6 4 0.4321 -0.0076
1 -6 5 0.4479 0.0104
1 -6 6 -0.1751 0.0067
1 -6 7 -0.3306 0.0091
1 -6 8 0.0993 -0.0014
1 -6 9 0.0996 -0.0161
1 -6 10 -0.2089 -0.0061
1 -6 11 -0.1140 0.0069
1 -6 12 0.1037 0.0056
1 -6 13 0.2910 0.0054
1 -6 14 0.0939 0.0042
1 -6 15 -0.3073 -0.0063
1 -6 16 0.0342 -0.0118
1 -5 0 -0.3061 -0.0426
1 -5 1 0.3499 -0.0027
1 -5 2 0.3993 0.0391
1 -5 3 -0.1590 0.0062
1 -5 4 -0.3055 -0.0230
1 -5 5 -0.0817 -0.0097
1 -5 6 0.0350 -0.0008
1 -5 7 -0.0193 0.0050
1 -5 8 0.1223 0.0155
1 -5 9 0.1360 0.0053
1 -5 10 -0.0246 -0.0109
1 -5 11 0.0905 -0.0079
1 -5 12 -0.1582 -0.0017
1 -5 13 -0.1961 -0.0009
1 -5 14 0.2921 0.0063
1 -5 15 -0.2529 0.0097
1 -5 16 -0.3475 -0.0025
1 -4 0 -0.2414 -0.0060
1 -4 1 -0.1775 -0.0500
1 -4 2 0.1232 -0.0023
1 -4 3 -0.0180 0.0367
1 -4 4 -0.0434 0.0111
1 -4 5 0.1364 -0.0086
1 -4 6 0.2662 -0.0090
1 -4 7 -0.1216 -0.0138
1 -4 8 -0.3408 -0.0025
1 -4 9 0.1064 0.0152
1 -4 10 0.0353 0.0085
1 -4 11 -0.0560 -0.0033
1 -4 12 0.0772 -0.0027
1 -4 13 -0.2559 -0.0057
1 -4 14 0.3404 -0.0066
1 -4 15 0.6735 0.0066
1 -3 0 -0.0175 0.0648
1 -3 1 -0.2742 -0.0015
1 -3 2 0.0351 -0.0565
1 -3 3 0.1250 -0.0104
1 -3 4 0.1192 0.0252
1 -3 5 -0.2342 0.0113
1 -3 6 -0.2195 0.0070
1 -3 7 0.3178 0.0001
1 -3 8 0.0167 -0.0179
1 -3 9 -0.1731 -0.0092
1 -3 10 0.1713 0.0086
1 -3 11 0.0907 0.0061
1 -3 12 0.1093 0.0041
1 -3 13 -0.2263 0.0032
1 -3 14 -0.5807 -0.0096
1 -3 15 0.3050 -0.0092
1 -2 0 0.1203 -0.0026
1 -2 1 0.1364 0.0815
1 -2 2 0.3299 0.0173
1 -2 3 -0.3057 -0.0504
1 -2 4 -0.3795 -0.0190
1 -2 5 0.3426 0.0076
1 -2 6 0.1052 0.0046
1 -2 7 -0.0610 0.0158
1 -2 8 0.1453 0.0091
1 -2 9 -0.1875 -0.0130
1 -2 10 -0.2460 -0.0087
1 -2 11 0.0901 -0.0003
1 -2 12 0.2454 -0.0004
1 -2 13 0.0520 0.0096
1 -2 15 0.0909 -0.0113
1 -1 0 0.0449 -0.0972
1 -1 1 -0.9730 -0.0379
1 -1 2 -0.0984 0.0710
1 -1 3 0.9412 0.0373
1 -1 4 0.0767 -0.0233
1 -1 5 -0.4295 -0.0143
1 -1 6 -0.1061 -0.0095
1 -1 7 -0.0568 -0.0076
1 -1 8 0.0911 0.0150
1 -1 9 0.2864 0.0112
1 -1 10 -0.0679 -0.0057
1 -1 11 -0.4306 -0.0028
1 -1 12 0.2562 -0.0050
1 -1 13 0.5818 -0.0045
1 0 0 1.0330 0.0598
1 0 1 0.6858 -0.0722
1 0 2 -0.7638 -0.0571
1 0 3 -0.5016 0.0319
1 0 4 0.2593 0.0260
1 0 5 0.2119 -0.0002
1 0 6 -0.0106 0.0041
1 0 7 0.0550 -0.0113
1 0 8 -0.0515 -0.0133
1 0 9 -0.1218 0.0097
1 0 10 0.3728 0.0075
1 0 11 -0.0894 -0.0021
1 0 12 -0.8538 0.0004
1 0 13 0.3301 -0.0066
1 1 0 -0.6601 0.0582
1 1 1 0.1539 0.0642
1 1 2 0.3190 -0.0342
1 1 3 0.0964 -0.0355
1 1 4 -0.0553 0.0122
1 1 5 0.0822 0.0043
1 1 6 -0.0636 0.0015
1 1 7 -0.2986 0.0106
1 1 8 0.0803 -0.0085
1 1 9 -0.0445 -0.0111
1 1 10 -0.0398 0.0072
1 1 11 0.6350 0.0052
1 1 12 -0.0318 0.0000
1 2 0 0.0886 -0.0573
1 2 1 0.2158 0.0360
1 2 2 -0.1584 0.0423
1 2 3 -0.1655 -0.0224
1 2 4 -0.1206 -0.0180
1 2 5 -0.0794 0.0078
1 2 6 0.3488 -0.0008
1 2 7 0.1999 0.0046
1 2 8 -0.0425 0.0102
1 2 9 -0.1286 -0.0085
1 2 10 -0.4202 -0.0098
1 2 11 0.1251 0.0042
1 2 12 0.3698 0.0029
1 3 0 -0.4027 -0.0383
1 3 1 -0.0023 -0.0462
1 3 2 0.1879 0.0268
1 3 3 0.0618 0.0307
1 3 4 0.1413 -0.0113
1 3 5 -0.0698 -0.0105
1 3 6 -0.2527 -0.0023
1 3 7 -0.2375 -0.0057
1 3 8 0.1696 0.0073
1 3 9 0.5324 0.0113
1 3 10 -0.2328 -0.0045
1 4 0 -0.0051 0.0460
1 4 1 -0.0501 -0.0278
1 4 2 0.0365 -0.0369
1 4 3 -0.0416 0.0131
1 4 4 -0.1178 0.0183
1 4 5 -0.0284 -0.0003
1 4 6 0.3871 0.0003
1 4 7 0.1027 -0.0047
1 4 8 -0.5589 -0.0099
1 4 9 0.0688 0.0028
1 4 10 0.4144 0.0073
1 5 0 -0.0499 0.0294
1 5 1 -0.0827 0.0413
1 5 2 -0.0179 -0.0179
1 5 3 0.0545 -0.0272
1 5 4 0.2162 0.0052
1 5 5 -0.2108 0.0075
1 5 6 -0.2519 0.0012
1 5 7 0.2597 0.0065
1 5 8 -0.0499 -0.0007
1 5 9 -0.0209 -0.0074
1 5 10 0.2432 -0.0005
1 6 0 0.0843 -0.0502
1 6 1 -0.0455 0.0187
1 6 2 -0.0286 0.0419
1 6 3 -0.1619 -0.0059
1 6 4 0.0986 -0.0197
1 6 5 0.0902 0.0002
1 6 6 -0.0447 -0.0013
1 6 7 0.4275 -0.0014
1 6 9 -0.7695 0.0015
1 6 10 0.6674 -0.0037
1 7 0 0.0596 -0.0075
1 7 1 0.1451 -0.0540
1 7 2 0.2001 -0.0035
1 7 3 -0.1865 0.0306
1 7 4 0.0062 0.0033
1 7 5 0.1326 -0.0049
1 7 6 -0.7724 0.0033
1 7 7 0.0464 -0.0075
1 7 8 1.2807 -0.0044
1 8 0 -0.1443 0.0512
1 8 1 -0.4106 0.0163
1 8 2 0.1227 -0.0326
1 8 3 0.0820 -0.0089
1 8 4 -0.1735 0.0105
1 8 5 0.7956 -0.0037
1 9 0 0.4610 -0.0194
1 9 1 0.1608 0.0274
1 9 2 0.0015 0.0115
1 9 3 0.0273 -0.0147
1 9 4 -0.7928 0.0012
1 10 0 -0.3050 -0.0230
1 10 1 -0.2959 -0.0110
1 10 2 -0.0201 0.0169
1 10 3 0.9150 0.0042
1 10 5 -0.8216 0.0016
1 11 0 0.3937 0.0109
1 11 1 0.2018 -0.0149
1 11 2 -0.8486 -0.0091
1 12 0 -0.2007 0.0079
1 12 1 0.4953 0.0098
2 -13 2 -0.0909 0.0107
2 -13 3 0.1855 -0.0060
2 -13 4 -0.1771 -0.0121
2 -13 6 0.7246 0.0032
2 -13 7 0.0896 0.0042
2 -13 9 -0.2152 0.0008
2 -13 10 0.6238 -0.0042
2 -12 1 -0.1899 -0.0153
2 -12 2 -0.0226 0.0080
2 -12 3 0.0979 0.0140
2 -12 4 0.0794 0.0011
2 -12 5 -0.3372 -0.0064
2 -12 6 -0.3332 -0.0049
2 -12 7 0.4955 -0.0001
2 -12 8 0.4503 0.0040
2 -12 9 -0.2988 0.0037
2 -12 11 0.0036 -0.0077
2 -12 12 -0.0977 -0.0010
2 -12 13 0.0993 0.0088
2 -11 0 0.4465 0.0168
2 -11 1 -0.0803 -0.0127
2 -11 2 -0.0306 -0.0142
2 -11 3 0.2848 0.0049
2 -11 4 -0.0970 0.0087
2 -11 5 -0.1014 0.0039
2 -11 6 0.0868 -0.0022
2 -11 7 -0.1187 -0.0084
2 -11 8 -0.1202 -0.0052
2 -11 9 0.0400 0.0051
2 -11 10 0.0891 0.0113
2 -11 11 0.2039 0.0052
2 -11 12 0.0253 -0.0086
2 -11 13 -0.3141 -0.0136
2 -11 14 -0.0365 -0.0042
2 -10 0 0.0586 0.0214
2 -10 1 0.0830 0.0191
2 -10 2 -0.5902 -0.0160
2 -10 3 0.0215 -0.0159
2 -10 4 0.6131 0.0017
2 -10 5 -0.1363 0.0064
2 -10 6 -0.3472 0.0088
2 -10 7 0.2789 0.0058
2 -10 8 0.1851 -0.0060
2 -10 9 -0.2013 -0.0121
2 -10 10 -0.1785 -0.0059
2 -10 11 -0.0162 0.0053
2 -10 12 0.2099 0.0133
2 -10 13 0.0078 0.0101
2 -10 14 -0.2245 -0.0074
2 -9 0 -0.0128 -0.0326
2 -9 1 0.3962 0.0216
2 -9 2 0.1653 0.0320
2 -9 3 -0.4903 -0.0047
2 -9 5 0.4326 -0.0076
2 -9 6 -0.2858 -0.0026
2 -9 7 -0.3627 0.0059
2 -9 8 0.3351 0.0118
2 -9 9 0.2514 0.0032
2 -9 10 -0.1472 -0.0059
2 -9 11 -0.1971 -0.0077
2 -9 12 0.1468 -0.0082
2 -9 13 0.2995 0.0020
2 -9 14 -0.3842 0.0173
2 -9 15 -0.3742 0.0084
2 -8 0 -0.0594 -0.0121
2 -8 1 0.0952 -0.0475
2 -8 2 0.0666 -0.0026
2 -8 3 -0.1058 0.0289
2 -8 4 -0.3216 0.0097
2 -8 5 0.2717 -0.0047
2 -8 6 0.5457 -0.0058
2 -8 7 -0.2433 -0.0099
2 -8 8 -0.4629 -0.0015
2 -8 9 0.1012 0.0103
2 -8 10 0.3391 0.0050
2 -8 11 -0.1286 -0.0004
2 -8 12 -0.4384 -0.0014
2 -8 13 0.2876 -0.0102
2 -8 14 0.5171 -0.0075
2 -8 15 -0.3596 0.0110
2 -7 0 -0.4563 0.0494
2 -7 1 -0.0239 0.0146
2 -7 2 0.3143 -0.0350
2 -7 3 0.3655 -0.0143
2 -7 4 -0.0858 0.0138
2 -7 5 -0.5978 0.0070
2 -7 6 -0.1649 0.0038
2 -7 7 0.4449 0.0010
2 -7 8 0.2310 -0.0122
2 -7 9 -0.3082 -0.0068
2 -7 10 -0.1001 0.0076
2 -7 11 0.3990 0.0063
2 -7 12 -0.0290 0.0042
2 -7 13 -0.3847 0.0031
2 -7 14 0.0778 -0.0090
2 -7 15 0.1475 -0.0128
2 -6 0 0.2035 -0.0191
2 -6 1 -0.1160 0.0359
2 -6 2 -0.3994 0.0170
2 -6 3 -0.2602 -0.0235
2 -6 4 0.3358 -0.0110
2 -6 5 0.4899 0.0059
2 -6 6 -0.0635 0.0027
2 -6 7 -0.3998 0.0092
2 -6 8 0.0497 0.0073
2 -6 9 0.1950 -0.0100
2 -6 10 -0.2108 -0.0108
2 -6 11 -0.0820 -0.0010
2 -6 12 0.0997 0.0016
2 -6 13 0.0260 0.0074
2 -6 14 0.1619 0.0108
2 -6 15 0.0182 -0.0017
2 -5 0 -0.2370 -0.0395
2 -5 1 0.1934 -0.0171
2 -5 2 0.4076 0.0346
2 -5 3 0.0206 0.0171
2 -5 4 -0.3763 -0.0162
2 -5 5 -0.2296 -0.0103
2 -5 6 0.2017 -0.0047
2 -5 7 0.0269 -0.0035
2 -5 8 -0.0864 0.0110
2 -5 9 0.2044 0.0121
2 -5 10 0.0092 -0.0022
2 -5 11 0.0049 -0.0056
2 -5 12 0.0793 -0.0051
2 -5 13 -0.3093 -0.0071
2 -5 14 -0.0280 0.0021
2 -4 0 -0.0244 0.0189
2 -4 1 -0.2230 -0.0470
2 -4 2 -0.0707 -0.0245
2 -4 3 0.0774 0.0273
2 -4 4 0.1269 0.0191
2 -4 5 -0.0498 -0.0008
2 -4 6 0.1706 -0.0021
2 -4 7 0.1364 -0.0116
2 -4 8 -0.3912 -0.0120
2 -4 9 -0.0360 0.0061
2 -4 10 0.1484 0.0102
2 -4 11 -0.1864 0.0025
2 -4 12 0.1979 0.0016
2 -4 13 0.1081 -0.0034
2 -3 0 0.0473 0.0578
2 -3 1 -0.1237 0.0349
2 -3 2 0.0041 -0.0404
2 -3 3 -0.0011 -0.0305
2 -3 4 0.1731 0.0104
2 -3 5 -0.1548 0.0102
2 -3 6 -0.3948 0.0090
2 -3 7 0.3619 0.0103
2 -3 8 0.2360 -0.0084
2 -3 9 -0.2996 -0.0144
2 -3 10 0.1348 -0.0004
2 -3 11 0.0949 0.0040
2 -3 12 -0.1935 0.0048
2 -3 13 -0.0421 0.0066
2 -3 14 -0.0336 -0.0037
2 -2 0 0.1412 -0.0495
2 -2 1 0.0051 0.0506
2 -2 2 0.2137 0.0488
2 -2 3 -0.1527 -0.0209
2 -2 4 -0.2535 -0.0249
2 -2 5 0.3844 -0.0035
2 -2 6 -0.0017 -0.0043
2 -2 7 -0.3198 0.0083
2 -2 8 0.2338 0.0160
2 -2 9 0.0529 -0.0016
2 -2 10 -0.3476 -0.0086
2 -2 11 0.0823 -0.0038
2 -2 12 0.5007 -0.0031
2 -2 13 -0.1070 0.0051
2 -1 0 0.2185 -0.0486
2 -1 1 -0.4524 -0.0691
2 -1 2 -0.2642 0.0235
2 -1 3 0.5108 0.0437
2 -1 4 0.0502 -0.0004
2 -1 5 -0.2588 -0.0062
2 -1 6 0.1290 -0.0063
2 -1 7 -0.0137 -0.0146
2 -1 8 -0.2013 0.0031
2 -1 9 0.2844 0.0128
2 -1 10 0.2353 0.0005
2 -1 11 -0.7646 -0.0022
2 -1 12 -0.1811 -0.0033
2 -1 13 1.2837 -0.0056
2 0 0 0.3184 0.0780
2 0 1 0.5851 -0.0173
2 0 2 -0.2634 -0.0571
2 0 3 -0.3667 0.0021
2 0 4 0.1429 0.0184
2 0 5 0.1075 0.0019
2 0 6 -0.1649 0.0088
2 0 7 0.1138 -0.0016
2 0 8 0.0725 -0.0151
2 0 9 -0.3508 0.0017
2 0 10 0.5154 0.0091
2 0 11 0.5263 0.0003
2 0 12 -1.2494 -0.0000
2 0 14 1.3364 -0.0066
2 1 0 -0.3655 0.0121
2 1 1 -0.0417 0.0611
2 1 2 0.1776 -0.0052
2 1 3 0.0556 -0.0316
2 1 4 -0.1475 0.0040
2 1 5 0.1817 0.0036
2 1 6 0.1749 -0.0020
2 1 7 -0.2860 0.0116
2 1 8 0.0231 -0.0011
2 1 9 -0.1799 -0.0139
2 1 10 -0.3753 0.0010
2 1 11 0.8346 0.0066
2 1 12 0.4637 0.0010
2 2 0 -0.0544 -0.0610
2 2 1 0.1535 0.0094
2 2 2 -0.0184 0.0458
2 2 3 0.0496 -0.0063
2 2 4 -0.0777 -0.0208
2 2 5 -0.3472 0.0024
2 2 6 0.0897 -0.0019
2 2 7 0.3056 0.0007
2 2 8 0.2905 0.0135
2 2 9 -0.0001 -0.0005
2 2 10 -0.7611 -0.0110
2 2 11 -0.0527 -0.0000
2 3 0 -0.1669 -0.0099
2 3 1 -0.1111 -0.0568
2 3 2 0.0043 0.0023
2 3 3 0.0090 0.0352
2 3 4 0.2177 0.0024
2 3 5 0.1637 -0.0087
2 3 6 -0.1579 -0.0027
2 3 7 -0.5696 -0.0091
2 3 8 -0.0429 0.0001
2 3 9 0.9747 0.0117
2 3 10 -0.0374 0.0006
2 3 12 0.2932 0.0016
2 4 0 0.0669 0.0597
2 4 1 0.0341 0.0046
2 4 2 -0.0526 -0.0423
2 4 3 -0.0370 -0.0085
2 4 4 -0.0728 0.0167
2 4 5 -0.1860 0.0059
2 4 6 0.4423 0.0034
2 4 7 0.3827 -0.0006
2 4 8 -0.8407 -0.0099
2 4 9 -0.2390 -0.0016
2 4 11 0.0050 -0.0006
2 5 0 -0.0940 -0.0100
2 5 1 0.0824 0.0450
2 5 2 0.0795 0.0133
2 5 3 -0.1386 -0.0238
2 5 4 0.2163 -0.0093
2 5 5 -0.0665 0.0031
2 5 6 -0.4214 0.0017
2 5 7 0.3613 0.0070
2 5 8 0.2453 0.0027
2 5 9 -0.3712 -0.0057
2 5 10 -0.0096 -0.0008
2 6 0 0.0217 -0.0456
2 6 1 -0.1698 -0.0195
2 6 2 0.0717 0.0301
2 6 3 -0.0949 0.0150
2 6 4 -0.0228 -0.0099
2 6 5 0.1888 -0.0036
2 6 6 -0.1278 -0.0031
2 6 7 0.1404 -0.0045
2 6 8 0.0817 0.0054
2 7 0 0.0230 0.0268
2 7 1 0.0987 -0.0312
2 7 2 0.2624 -0.0221
2 7 3 -0.0875 0.0144
2 7 4 -0.1740 0.0066
2 7 5 0.2390 -0.0021
2 7 6 -0.3772 0.0058
2 7 7 -0.2956 -0.0027
2 8 0 0.0323 0.0261
2 8 1 -0.5478 0.0253
2 8 2 -0.0525 -0.0160
2 8 3 0.3446 -0.0098
2 8 4 -0.2652 0.0080
2 8 5 0.2621 -0.0042
2 8 7 -0.6530 0.0077
2 9 0 0.4742 -0.0222
2 9 1 0.3486 0.0166
2 9 2 -0.2748 0.0124
2 9 3 0.1274 -0.0121
2 9 4 -0.1411 -0.0011
2 9 5 -0.5541 0.0067
2 10 0 -0.3724 -0.0167
2 10 1 -0.0058 -0.0142
2 10 2 -0.1232 0.0118
2 10 3 0.1715 0.0065
2 10 4 0.4489 -0.0065
2 11 0 0.1221 0.0136
2 11 1 0.2447 -0.0069
2 11 2 -0.1616 -0.0075
2 12 0 -0.2258 0.0011
3 -13 3 1.0026 0.0013
3 -13 4 -0.8919 -0.0073
3 -12 2 -1.2210 -0.0006
3 -12 3 -0.0098 0.0120
3 -12 4 1.8469 0.0058
3 -12 5 0.2820 -0.0037
3 -12 6 -1.9718 -0.0049
3 -12 7 -0.3266 -0.0010
3 -12 8 1.3398 0.0017
3 -12 10 -0.3741 0.0002
3 -12 12 -0.2730 -0.0023
3 -11 1 0.7597 0.0012
3 -11 2 0.5761 -0.0169
3 -11 3 -0.5385 -0.0058
3 -11 4 -1.0358 0.0072
3 -11 5 0.2978 0.0075
3 -11 6 0.8783 0.0011
3 -11 7 -0.0863 -0.0053
3 -11 8 -0.3307 -0.0061
3 -11 9 -0.0338 -0.0006
3 -11 10 -0.2062 0.0074
3 -11 11 0.0329 0.0072
3 -11 12 0.4550 -0.0030
3 -11 13 -0.0098 -0.0083
3 -10 0 -0.1866 -0.0020
3 -10 1 -0.3035 0.0226
3 -10 2 -0.6309 0.0053
3 -10 3 0.2855 -0.0127
3 -10 4 1.0206 -0.0085
3 -10 5 -0.0734 0.0004
3 -10 6 -0.7825 0.0066
3 -10 7 -0.0483 0.0077
3 -10 8 0.1611 0.0011
3 -10 9 0.0761 -0.0077
3 -10 10 0.4262 -0.0087
3 -10 11 -0.1006 0.0004
3 -10 12 -0.6228 0.0087
3 -10 13 0.1079 0.0081
3 -10 14 0.4181 -0.0006
3 -9 0 -0.0266 -0.0287
3 -9 1 0.6450 -0.0079
3 -9 2 0.5541 0.0209
3 -9 3 -0.8142 0.0111
3 -9 4 -0.7098 -0.0056
3 -9 5 0.6252 -0.0078
3 -9 6 0.2470 -0.0060
3 -9 7 -0.1721 -0.0006
3 -9 8 0.3689 0.0077
3 -9 9 -0.3558 0.0074
3 -9 10 -0.6558 -0.0014
3 -9 11 0.5984 -0.0072
3 -9 12 0.5760 -0.0070
3 -9 13 -0.4071 0.0000
3 -9 14 -0.3806 0.0100
3 -8 0 -0.2531 0.0152
3 -8 1 -0.3260 -0.0268
3 -8 2 0.1006 -0.0177
3 -8 3 0.4652 0.0123
3 -8 4 -0.2474 0.0114
3 -8 5 -0.0738 0.0011
3 -8 6 0.3978 -0.0013
3 -8 7 -0.4849 -0.0070
3 -8 8 -0.2541 -0.0065
3 -8 9 0.7984 0.0048
3 -8 10 0.0590 0.0082
3 -8 11 -0.7406 0.0030
3 -8 12 -0.0888 -0.0021
3 -8 14 0.2027 -0.0076
3 -7 0 -0.2768 0.0271
3 -7 1 -0.0479 0.0249
3 -7 2 0.1051 -0.0176
3 -7 3 0.3037 -0.0176
3 -7 4 0.0387 0.0060
3 -7 5 -0.5697 0.0061
3 -7 6 -0.0055 0.0038
3 -7 7 0.5109 0.0049
3 -7 8 -0.1435 -0.0065
3 -7 9 -0.3905 -0.0109
3 -7 10 0.2000 -0.0002
3 -7 11 0.3813 0.0059
3 -7 12 -0.1461 0.0079
3 -6 0 0.2901 -0.0293
3 -6 1 -0.1239 0.0224
3 -6 2 -0.4052 0.0257
3 -6 3 -0.2693 -0.0134
3 -6 4 0.2899 -0.0153
3 -6 5 0.4496 0.0007
3 -6 6 -0.0420 0.0004
3 -6 7 -0.3742 0.0062
3 -6 8 0.0540 0.0115
3 -6 9 0.2795 -0.0011
3 -6 10 -0.2095 -0.0092
3 -6 11 -0.1631 -0.0064
3 -6 12 0.1323 -0.0047
3 -6 13 -0.0767 0.0041
3 -6 15 0.2618 0.0045
3 -5 0 -0.1090 -0.0271
3 -5 1 0.1808 -0.0356
3 -5 2 0.3125 0.0191
3 -5 3 0.1441 0.0281
3 -5 4 -0.2836 -0.0035
3 -5 5 -0.4265 -0.0095
3 -5 6 0.2268 -0.0064
3 -5 7 0.2495 -0.0089
3 -5 8 -0.2922 0.0028
3 -5 9 0.0519 0.0118
3 -5 10 0.1898 0.0044
3 -5 11 -0.0209 0.0002
3 -5 12 0.1797 -0.0029
3 -5 13 -0.1708 -0.0106
3 -4 0 -0.0057 0.0463
3 -4 1 -0.0515 -0.0211
3 -4 2 -0.1653 -0.0417
3 -4 3 -0.1230 0.0041
3 -4 4 0.3098 0.0203
3 -4 5 0.0374 0.0074
3 -4 6 -0.1065 0.0045
3 -4 7 0.2706 -0.0047
3 -4 8 -0.1525 -0.0140
3 -4 9 -0.2214 -0.0031
3 -4 10 0.1302 0.0058
3 -4 11 -0.2360 0.0039
3 -4 12 0.0366 0.0054
3 -4 13 0.4660 0.0013
3 -4 14 -0.0646 -0.0085
3 -3 0 -0.0867 0.0183
3 -3 1 -0.1576 0.0542
3 -3 2 0.1971 -0.0028
3 -3 3 0.0088 -0.0327
3 -3 4 0.0424 -0.0083
3 -3 5 -0.0220 0.0030
3 -3 6 -0.4554 0.0059
3 -3 7 0.1456 0.0138
3 -3 8 0.4048 0.0028
3 -3 9 -0.2074 -0.0105
3 -3 10 0.0797 -0.0058
3 -3 11 0.1998 -0.0008
3 -3 12 -0.3437 0.0025
3 -3 13 -0.2220 0.0070
3 -2 0 0.3193 -0.0630
3 -2 1 -0.0324 -0.0018
3 -2 2 -0.0333 0.0462
3 -2 3 -0.1384 0.0110
3 -2 4 -0.1689 -0.0143
3 -2 5 0.4548 -0.0076
3 -2 6 0.1350 -0.0093
3 -2 7 -0.4410 -0.0020
3 -2 8 0.0473 0.0124
3 -2 9 0.1486 0.0063
3 -2 10 -0.2749 -0.0034
3 -2 11 -0.0303 -0.0042
3 -2 12 0.5458 -0.0043
3 -2 13 0.1522 0.0017
3 -1 0 -0.0067 0.0096
3 -1 1 -0.0896 -0.0556
3 -1 2 -0.0283 -0.0169
3 -1 3 0.3030 0.0265
3 -1 4 -0.1092 0.0112
3 -1 5 -0.3061 0.0012
3 -1 6 0.1592 -0.0000
3 -1 7 0.1767 -0.0114
3 -1 8 -0.1798 -0.0051
3 -1 9 0.0761 0.0079
3 -1 10 0.4126 0.0041
3 -1 11 -0.5443 -0.0011
3 -1 12 -0.7343 -0.0030
3 -1 13 1.0397 -0.0038
3 0 0 0.1040 0.0567
3 0 1 0.1625 0.0222
3 0 2 -0.1541 -0.0359
3 0 3 -0.1481 -0.0151
3 0 4 0.1421 0.0096
3 0 5 0.1576 0.0028
3 0 6 -0.1954 0.0067
3 0 7 -0.0431 0.0036
3 0 8 0.1656 -0.0111
3 0 9 -0.4381 -0.0046
3 0 10 0.2235 0.0076
3 0 11 1.0451 0.0045
3 0 12 -0.7886 -0.0003
3 0 13 -1.1925 -0.0028
3 1 0 -0.0749 -0.0223
3 1 1 0.0426 0.0431
3 1 2 0.0715 0.0180
3 1 3 0.0704 -0.0227
3 1 4 -0.2205 -0.0073
3 1 5 0.0089 0.0026
3 1 6 0.2720 -0.0009
3 1 7 -0.1287 0.0101
3 1 8 0.1572 0.0054
3 1 9 -0.0565 -0.0115
3 1 10 -0.8306 -0.0067
3 1 11 0.4765 0.0044
3 1 12 1.0434 0.0032
3 2 0 -0.1256 -0.0494
3 2 1 0.0497 -0.0225
3 2 2 -0.0856 0.0351
3 2 3 0.1000 0.0159
3 2 4 0.1512 -0.0132
3 2 5 -0.2471 -0.0055
3 2 6 -0.1128 -0.0052
3 2 7 -0.0285 -0.0042
3 2 8 0.2374 0.0113
3 2 9 0.5357 0.0079
3 2 10 -0.5474 -0.0065
3 2 11 -0.6516 -0.0036
3 2 12 0.7108 0.0005
3 3 0 -0.0212 0.0298
3 3 1 0.0298 -0.0412
3 3 2 -0.0110 -0.0274
3 3 3 -0.1145 0.0199
3 3 4 0.0568 0.0149
3 3 5 0.1577 -0.0000
3 3 6 0.1977 -0.0003
3 3 7 -0.3507 -0.0086
3 3 8 -0.5542 -0.0068
3 3 9 0.7139 0.0068
3 3 10 0.5566 0.0036
3 3 11 -0.9132 -0.0024
3 4 0 -0.0410 0.0383
3 4 1 0.0297 0.0372
3 4 2 -0.0372 -0.0206
3 4 3 -0.0249 -0.0242
3 4 4 0.0789 0.0032
3 4 5 -0.2752 0.0067
3 4 6 0.1175 0.0057
3 4 7 0.6164 0.0040
3 4 8 -0.5463 -0.0063
3 4 9 -0.6268 -0.0037
3 5 0 -0.1011 -0.0417
3 5 1 0.0788 0.0174
3 5 2 0.2001 0.0317
3 5 3 -0.2153 -0.0043
3 5 4 0.0687 -0.0137
3 5 5 0.1254 -0.0035
3 5 6 -0.4048 -0.0005
3 5 7 0.2318 0.0054
3 5 9 -0.4291 -0.0040
3 6 0 0.0471 -0.0122
3 6 1 -0.2563 -0.0363
3 6 2 0.0727 0.0032
3 6 3 0.0498 0.0200
3 6 4 -0.0891 0.0022
3 6 5 0.1742 -0.0029
3 6 6 -0.1467 -0.0033
3 6 7 -0.1373 -0.0052
3 7 0 0.0347 0.0362
3 7 1 0.0102 -0.0009
3 7 2 0.1659 -0.0234
3 7 3 0.0507 -0.0010
3 7 4 -0.2362 0.0062
3 7 5 0.1798 -0.0001
3 7 6 0.0562 0.0042
3 8 0 0.2061 0.0006
3 8 1 -0.3753 0.0231
3 8 2 -0.2755 -0.0011
3 8 3 0.3814 -0.0097
3 8 4 -0.0475 0.0034
3 8 5 -0.1898 -0.0007
3 8 6 0.3390 -0.0032
3 9 0 0.2513 -0.0211
3 9 1 0.5058 0.0036
3 9 2 -0.3077 0.0125
3 9 3 -0.1560 -0.0046
3 9 4 0.2547 -0.0036
3 10 0 -0.4472 -0.0046
3 10 1 0.1280 -0.0129
3 10 2 0.2011 0.0033
3 11 0 -0.0572 0.0091
4 -13 4 0.1089 -0.0020
4 -13 5 -3.1392 -0.0050
4 -13 6 -0.5383 -0.0022
4 -13 7 3.1709 0.0007
4 -13 8 0.7324 0.0002
4 -12 3 -1.8596 0.0066
4 -12 4 2.2628 0.0082
4 -12 6 -1.8495 -0.0041
4 -12 8 0.9231 0.0002
4 -11 1 0.7232 0.0136
4 -11 2 2.0844 -0.0087
4 -11 3 0.0702 -0.0132
4 -11 4 -2.3503 -0.0005
4 -11 6 1.4271 0.0041
4 -11 8 -0.1538 -0.0034
4 -11 9 0.1894 -0.0026
4 -11 12 0.4918 -0.0010
4 -10 0 0.1717 -0.0197
4 -10 1 -0.8401 0.0078
4 -10 2 -1.2116 0.0170
4 -10 3 0.2442 0.0007
4 -10 4 1.3877 -0.0104
4 -10 5 0.4552 -0.0056
4 -10 6 -0.5523 0.0027
4 -10 7 -0.4654 0.0051
4 -10 8 -0.6128 0.0035
4 -10 9 -0.1958 -0.0018
4 -10 10 1.3158 -0.0065
4 -10 11 0.8001 -0.0019
4 -10 12 -1.2761 0.0052
4 -9 0 -0.1082 -0.0065
4 -9 1 0.6029 -0.0195
4 -9 2 1.0359 0.0006
4 -9 3 -0.2580 0.0134
4 -9 4 -1.2759 0.0047
4 -9 5 -0.2579 -0.0049
4 -9 6 0.3161 -0.0056
4 -9 7 0.5654 -0.0026
4 -9 8 1.1687 0.0025
4 -9 9 -0.6182 0.0065
4 -9 10 -2.0474 0.0025
4 -9 11 0.5142 -0.0058
4 -9 12 1.8369 -0.0065
4 -8 0 0.0636 0.0225
4 -8 1 -0.5301 -0.0029
4 -8 2 -0.6560 -0.0187
4 -8 3 0.5650 -0.0024
4 -8 4 0.5419 0.0095
4 -8 5 0.1190 0.0051
4 -8 6 0.1155 0.0002
4 -8 7 -1.1276 -0.0042
4 -8 8 -0.6605 -0.0068
4 -8 9 1.7291 -0.0009
4 -8 10 0.7601 0.0073
4 -8 11 -1.5439 0.0072
4 -8 12 -0.5169 -0.0009
4 -7 0 -0.2627 0.0041
4 -7 1 0.3003 0.0261
4 -7 2 0.1624 0.0003
4 -7 3 -0.0487 -0.0174
4 -7 4 -0.0286 -0.0042
4 -7 5 -0.5273 0.0048
4 -7 6 0.1344 0.0054
4 -7 7 0.9064 0.0065
4 -7 8 -0.3301 -0.0007
4 -7 9 -0.9329 -0.0096
4 -7 10 0.3200 -0.0068
4 -7 11 0.6676 0.0017
4 -7 12 -0.1832 0.0079
4 -7 13 -0.2798 0.0084
4 -7 14 0.1550 -0.0004
4 -6 0 0.2819 -0.0341
4 -6 1 -0.0437 -0.0004
4 -6 2 -0.2947 0.0279
4 -6 3 -0.3611 0.0050
4 -6 4 0.1755 -0.0132
4 -6 5 0.4843 -0.0072
4 -6 6 -0.0374 -0.0035
4 -6 7 -0.4143 0.0023
4 -6 8 0.0498 0.0109
4 -6 9 0.3939 0.0060
4 -6 10 -0.0843 -0.0041
4 -6 11 -0.2644 -0.0065
4 -6 12 0.0132 -0.0070
4 -6 14 0.0255 0.0095
4 -5 0 -0.2657 0.0040
4 -5 1 0.1402 -0.0387
4 -5 2 0.3723 -0.0097
4 -5 3 0.2584 0.0233
4 -5 4 -0.1568 0.0120
4 -5 5 -0.5614 -0.0018
4 -5 6 0.0739 -0.0053
4 -5 7 0.5075 -0.0108
4 -5 8 -0.2624 -0.0049
4 -5 9 -0.2923 0.0073
4 -5 10 0.2247 0.0066
4 -5 11 0.1192 0.0028
4 -5 12 0.1940 0.0015
4 -5 13 0.0321 -0.0069
4 -5 14 -0.4523 -0.0081
4 -4 0 -0.0226 0.0455
4 -4 1 -0.0762 0.0181
4 -4 2 -0.1098 -0.0315
4 -4 3 -0.3082 -0.0196
4 -4 4 0.2563 0.0077
4 -4 5 0.2752 0.0101
4 -4 6 -0.2714 0.0093
4 -4 7 0.1321 0.0035
4 -4 8 0.1769 -0.0098
4 -4 9 -0.1933 -0.0083
4 -4 10 0.0066 0.0011
4 -4 11 -0.2058 0.0024
4 -4 12 -0.2068 0.0047
4 -4 13 0.4228 0.0043
4 -3 0 0.0067 -0.0271
4 -3 1 -0.3085 0.0354
4 -3 2 0.2232 0.0282
4 -3 3 0.2046 -0.0131
4 -3 4 -0.0565 -0.0163
4 -3 5 0.0240 -0.0058
4 -3 6 -0.3337 -0.0008
4 -3 7 -0.1213 0.0100
4 -3 8 0.3225 0.0093
4 -3 9 -0.0529 -0.0033
4 -3 10 0.0528 -0.0060
4 -3 11 0.2990 -0.0035
4 -3 12 -0.2077 -0.0005
4 -3 13 -0.3533 0.0053
4 -2 0 0.4102 -0.0345
4 -2 1 0.1101 -0.0358
4 -2 2 -0.1966 0.0175
4 -2 3 -0.2018 0.0239
4 -2 4 -0.1743 0.0006
4 -2 5 0.3621 -0.0047
4 -2 6 0.3044 -0.0079
4 -2 7 -0.2562 -0.0074
4 -2 8 -0.0861 0.0046
4 -2 9 0.0376 0.0071
4 -2 10 -0.1951 0.0011
4 -2 11 -0.0901 -0.0022
4 -2 12 0.3201 -0.0042
4 -2 13 0.3309 -0.0001
4 -1 0 -0.2207 0.0403
4 -1 1 -0.0384 -0.0201
4 -1 2 0.1309 -0.0320
4 -1 3 0.3005 0.0049
4 -1 4 -0.0692 0.0129
4 -1 5 -0.3120 0.0047
4 -1 6 -0.0565 0.0024
4 -1 7 0.1322 -0.0059
4 -1 8 0.0535 -0.0065
4 -1 9 0.0011 0.0030
4 -1 10 0.2953 0.0049
4 -1 11 -0.0935 0.0008
4 -1 12 -0.7429 -0.0031
4 0 0 0.1806 0.0209
4 0 1 0.0017 0.0385
4 0 2 -0.1920 -0.0097
4 0 3 -0.1031 -0.0225
4 0 4 0.0390 -0.0007
4 0 5 0.2264 0.0052
4 0 6 0.0368 0.0062
4 0 7 -0.1648 0.0048
4 0 8 0.1050 -0.0065
4 0 9 -0.3099 -0.0081
4 0 10 -0.2095 0.0023
4 0 11 0.9254 0.0071
4 0 12 0.0241 0.0023
4 1 0 -0.0415 -0.0426
4 1 1 0.1092 0.0134
4 1 2 0.0066 0.0326
4 1 3 0.1500 -0.0029
4 1 4 -0.0950 -0.0149
4 1 5 -0.1979 -0.0054
4 1 6 0.1231 -0.0009
4 1 7 -0.0862 0.0077
4 1 8 0.2369 0.0099
4 1 9 0.3531 -0.0033
4 1 10 -0.8084 -0.0098
4 1 11 -0.2458 -0.0020
4 2 0 -0.0977 -0.0142
4 2 1 0.0821 -0.0419
4 2 2 -0.1103 0.0038
4 2 3 -0.0844 0.0254
4 2 4 0.1612 0.0053
4 2 5 0.0189 -0.0052
4 2 6 0.0802 -0.0075
4 2 7 -0.2289 -0.0085
4 2 8 -0.3176 0.0029
4 2 9 0.6311 0.0099
4 2 10 0.1984 0.0017
4 2 11 -0.7703 -0.0032
4 3 0 -0.0940 0.0475
4 3 1 0.0381 -0.0004
4 3 2 0.1134 -0.0339
4 3 3 -0.0026 -0.0073
4 3 4 -0.0674 0.0121
4 3 5 -0.1868 0.0078
4 3 6 0.2300 0.0046
4 3 7 0.2914 -0.0029
4 3 8 -0.5319 -0.0082
4 3 9 -0.0541 -0.0005
4 3 10 0.6385 0.0027
4 4 0 -0.0119 -0.0057
4 4 1 -0.0413 0.0380
4 4 2 -0.0970 0.0110
4 4 3 -0.0592 -0.0182
4 4 4 0.2839 -0.0091
4 4 5 -0.0925 0.0007
4 4 6 -0.3079 0.0036
4 4 7 0.4024 0.0060
4 4 9 -0.5663 -0.0034
4 5 0 -0.0400 -0.0375
4 5 1 0.0561 -0.0154
4 5 2 0.2090 0.0229
4 5 3 -0.2072 0.0118
4 5 4 -0.0936 -0.0064
4 5 5 0.2314 -0.0052
4 5 6 -0.2229 -0.0034
4 5 7 0.0411 0.0016
4 6 0 0.0549 0.0192
4 6 1 -0.1806 -0.0247
4 6 2 0.0532 -0.0157
4 6 3 0.0997 0.0110
4 6 4 -0.1078 0.0075
4 6 5 0.1461 0.0000
4 6 6 -0.0724 -0.0014
4 7 0 0.0035 0.0225
4 7 1 -0.0604 0.0179
4 7 2 0.0437 -0.0129
4 7 3 0.1420 -0.0095
4 7 4 -0.1792 0.0033
4 7 5 -0.0001 0.0018
4 7 6 0.2588 0.0024
4 8 0 0.2234 -0.0159
4 8 1 -0.0910 0.0128
4 8 2 -0.3174 0.0097
4 8 3 0.1526 -0.0055
4 8 4 0.1729 -0.0027
4 9 0 -0.0068 -0.0120
4 9 1 0.4097 -0.0080
4 9 2 -0.0354 0.0060
4 9 3 -0.2962 0.0031
4 10 0 -0.3555 0.0053
4 10 1 -0.0472 -0.0045
5 -12 3 -3.1730 0.0002
5 -12 4 0.1777 0.0055
5 -12 5 3.6760 0.0045
5 -12 6 0.3704 -0.0005
5 -12 7 -2.4320 -0.0017
5 -11 0 -1.5576 0.0056
5 -11 2 2.3925 0.0028
5 -11 3 1.9349 -0.0093
5 -11 4 -2.0631 -0.0071
5 -11 5 -2.0176 0.0021
5 -11 6 0.8306 0.0042
5 -11 10 -0.2314 -0.0009
5 -10 0 1.0571 -0.0177
5 -10 2 -1.8008 0.0112
5 -10 3 -0.3312 0.0099
5 -10 4 1.2243 -0.0036
5 -10 5 0.7905 -0.0067
5 -10 8 -1.2110 0.0017
5 -10 9 -1.2713 0.0013
5 -9 0 -0.1485 0.0102
5 -9 1 0.2998 -0.0123
5 -9 2 0.8575 -0.0111
5 -9 3 0.6334 0.0061
5 -9 4 -0.6665 0.0091
5 -9 5 -1.1252 -0.0009
5 -9 6 -0.6515 -0.0047
5 -9 7 0.6207 -0.0020
5 -9 9 0.3679 0.0027
5 -9 11 -0.9188 -0.0015
5 -9 12 2.2915 -0.0056
5 -8 0 0.3541 0.0152
5 -8 1 0.1737 0.0120
5 -8 2 -1.1790 -0.0109
5 -8 3 -0.3992 -0.0118
5 -8 4 0.9195 0.0035
5 -8 5 0.9025 0.0083
5 -8 6 0.3713 0.0027
5 -8 7 -1.4527 -0.0024
5 -8 8 -1.6600 -0.0048
5 -8 10 1.9997 0.0019
5 -8 12 -1.3373 0.0030
5 -7 0 -0.7282 -0.0149
5 -7 1 0.3523 0.0168
5 -7 2 0.6753 0.0161
5 -7 3 -0.1928 -0.0075
5 -7 4 -0.2966 -0.0124
5 -7 5 -0.5050 -0.0024
5 -7 6 0.0270 0.0047
5 -7 7 1.1837 0.0070
5 -7 8 0.0534 0.0039
5 -7 9 -1.3183 -0.0037
5 -7 10 -0.0584 -0.0080
5 -7 11 0.8479 -0.0032
5 -7 12 -0.0422 0.0039
5 -6 0 0.2449 -0.0212
5 -6 1 -0.0223 -0.0226
5 -6 2 -0.0069 0.0120
5 -6 3 -0.3344 0.0182
5 -6 4 -0.1591 0.0003
5 -6 5 0.4338 -0.0083
5 -6 6 0.1434 -0.0078
5 -6 7 -0.4078 -0.0031
5 -6 8 -0.0832 0.0059
5 -6 9 0.3779 0.0084
5 -6 10 0.1220 0.0010
5 -6 11 -0.1613 -0.0039
5 -6 12 -0.1375 -0.0038
5 -5 0 -0.4986 0.0302
5 -5 1 -0.2797 -0.0144
5 -5 2 0.3773 -0.0265
5 -5 3 0.5338 0.0017
5 -5 4 0.0470 0.0146
5 -5 5 -0.6005 0.0077
5 -5 6 -0.1959 0.0006
5 -5 7 0.5712 -0.0074
5 -5 8 0.0216 -0.0093
5 -5 9 -0.4821 0.0013
5 -5 10 -0.0129 0.0065
5 -5 11 0.2074 0.0020
5 -5 12 0.2345 0.0011
5 -4 0 0.4331 0.0126
5 -4 1 -0.1569 0.0350
5 -4 2 -0.2453 -0.0014
5 -4 3 -0.3274 -0.0225
5 -4 4 0.1151 -0.0079
5 -4 5 0.3724 0.0039
5 -4 6 -0.2233 0.0081
5 -4 7 -0.0829 0.0090
5 -4 8 0.3078 -0.0022
5 -4 9 0.0031 -0.0095
5 -4 10 -0.0558 -0.0022
5 -4 11 -0.1399 0.0024
5 -4 12 -0.3008 0.0024
5 -3 0 0.0984 -0.0402
5 -3 1 -0.1294 -0.0014
5 -3 2 0.0679 0.0299
5 -3 3 0.2417 0.0088
5 -3 4 0.0203 -0.0104
5 -3 5 0.0664 -0.0085
5 -3 6 -0.1815 -0.0059
5 -3 7 -0.2614 0.0025
5 -3 8 0.1162 0.0100
5 -3 9 0.0151 0.0026
5 -3 10 0.0197 -0.0043
5 -3 11 0.2832 -0.0039
5 -3 12 0.0350 -0.0018
5 -2 0 0.2050 0.0048
5 -2 1 0.1932 -0.0354
5 -2 2 -0.1312 -0.0101
5 -2 3 -0.2258 0.0183
5 -2 4 -0.2358 0.0093
5 -2 5 0.1626 -0.0003
5 -2 6 0.3191 -0.0040
5 -2 7 0.0032 -0.0077
5 -2 8 -0.0156 -0.0008
5 -2 9 -0.0592 0.0052
5 -2 10 -0.1831 0.0028
5 -2 11 -0.0836 -0.0001
5 -2 12 0.0567 -0.0030
5 -1 0 -0.2122 0.0386
5 -1 1 -0.0261 0.0116
5 -1 2 0.1200 -0.0267
5 -1 3 0.2329 -0.0115
5 -1 4 0.0486 0.0087
5 -1 5 -0.1140 0.0073
5 -1 6 -0.1831 0.0037
5 -1 7 -0.1529 -0.0027
5 -1 8 0.1404 -0.0064
5 -1 9 0.1228 -0.0004
5 -1 10 0.0842 0.0040
5 -1 11 0.1332 0.0025
5 0 0 0.0957 -0.0134
5 0 1 -0.0816 0.0339
5 0 2 -0.0905 0.0151
5 0 3 -0.0018 -0.0176
5 0 4 -0.1647 -0.0118
5 0 5 0.0706 0.0016
5 0 6 0.3218 0.0066
5 0 7 -0.0673 0.0068
5 0 8 -0.0506 -0.0010
5 0 9 -0.0921 -0.0077
5 0 10 -0.3518 -0.0037
5 0 11 0.3392 0.0045
5 1 0 0.1042 -0.0382
5 1 1 0.1225 -0.0200
5 1 2 -0.1926 0.0250
5 1 3 0.1278 0.0177
5 1 4 0.1811 -0.0074
5 1 5 -0.2143 -0.0108
5 1 6 -0.0702 -0.0051
5 1 7 -0.1258 0.0018
5 1 8 0.0704 0.0085
5 1 9 0.5523 0.0053
5 1 10 -0.2642 -0.0049
5 2 0 -0.2018 0.0253
5 2 1 0.1959 -0.0286
5 2 2 0.0956 -0.0245
5 2 3 -0.2107 0.0117
5 2 4 -0.0646 0.0161
5 2 5 0.0541 0.0025
5 2 6 0.3358 -0.0040
5 2 7 0.0318 -0.0071
5 2 8 -0.6456 -0.0050
5 2 9 0.1042 0.0036
5 3 0 -0.0960 0.0267
5 3 1 -0.1709 0.0299
5 3 2 0.0428 -0.0127
5 3 3 0.2116 -0.0209
5 3 4 0.1134 -0.0008
5 3 5 -0.4174 0.0070
5 3 6 -0.1808 0.0059
5 3 7 0.5834 0.0030
5 3 8 0.0345 -0.0032
5 4 0 0.1181 -0.0318
5 4 1 0.0734 0.0113
5 4 2 -0.1639 0.0238
5 4 3 -0.2427 -0.0004
5 4 4 0.3271 -0.0095
5 4 5 0.2701 -0.0046
5 4 6 -0.4037 -0.0011
5 4 7 -0.0702 0.0038
5 5 0 -0.0792 -0.0095
5 5 1 0.0744 -0.0254
5 5 2 0.2238 0.0022
5 5 3 -0.1869 0.0123
5 5 4 -0.2317 0.0022
5 5 5 0.2272 -0.0009
5 5 6 0.0036 -0.0033
5 6 0 -0.0434 0.0261
5 6 1 -0.1133 -0.0033
5 6 2 0.1332 -0.0161
5 6 3 0.1300 0.0003
5 6 4 -0.1641 0.0045
5 6 5 0.0624 0.0013
5 7 0 0.0161 0.0027
5 7 1 -0.1641 0.0187
5 7 2 -0.0878 -0.0009
5 7 3 0.1833 -0.0089
5 7 4 -0.0194 -0.0001
5 8 0 0.1766 -0.0177
5 8 1 0.1103 -0.0000
5 8 2 -0.1628 0.0108
5 9 0 -0.0965 0.0007
6 -11 3 2.7402 -0.0003
6 -11 4 -0.2369 -0.0056
6 -11 5 -2.2324 -0.0036
6 -11 6 -0.2926 0.0008
6 -10 8 -0.7083 -0.0003
6 -9 2 0.1867 -0.0105
6 -9 3 0.6761 -0.0018
6 -9 4 0.4300 0.0071
6 -9 10 -1.8936 0.0017
6 -8 1 0.9471 0.0153
6 -8 2 -0.5218 0.0003
6 -8 3 -1.2881 -0.0121
6 -8 4 0.2782 -0.0054
6 -8 5 1.2529 0.0051
6 -8 8 -2.0636 -0.0013
6 -8 9 0.4421 -0.0036
6 -8 10 2.2703 -0.0037
6 -7 0 -0.9443 -0.0218
6 -7 1 -0.2395 -0.0004
6 -7 2 0.9815 0.0178
6 -7 3 0.0714 0.0072
6 -7 4 -0.4950 -0.0078
6 -7 5 -0.3871 -0.0085
6 -7 6 -0.1182 -0.0015
6 -7 7 0.8859 0.0034
6 -6 0 0.2616 0.0032
6 -6 1 -0.1102 -0.0234
6 -6 2 0.2367 -0.0094
6 -6 3 0.0278 0.0119
6 -6 4 -0.4447 0.0105
6 -6 5 0.0421 -0.0002
6 -6 6 0.3145 -0.0053
6 -6 7 -0.1563 -0.0056
6 -6 8 -0.1831 -0.0016
6 -6 9 0.1683 0.0048
6 -5 0 -0.3007 0.0266
6 -5 1 -0.7829 0.0129
6 -5 2 -0.0448 -0.0167
6 -5 3 0.6999 -0.0136
6 -5 4 0.3974 0.0039
6 -5 5 -0.4344 0.0081
6 -5 6 -0.4073 0.0049
6 -5 7 0.3517 -0.0001
6 -5 8 0.2575 -0.0071
6 -4 0 1.0300 -0.0171
6 -4 1 0.2217 0.0200
6 -4 2 -0.4765 0.0180
6 -4 3 -0.3891 -0.0081
6 -4 4 0.0726 -0.0119
6 -4 5 0.2872 -0.0028
6 -4 6 -0.1477 0.0020
6 -4 7 -0.1554 0.0079
6 -4 8 0.2505 0.0047
6 -3 0 -0.3791 -0.0210
6 -3 1 0.2042 -0.0221
6 -3 2 0.1494 0.0119
6 -3 3 0.0082 0.0162
6 -3 4 0.0462 -0.0008
6 -3 5 0.2431 -0.0051
6 -3 6 -0.0295 -0.0063
6 -3 7 -0.3198 -0.0040
6 -3 8 -0.0577 0.0066
6 -3 10 -0.0127 -0.0023
6 -2 0 0.0705 0.0251
6 -2 1 -0.0311 -0.0154
6 -2 2 0.0248 -0.0212
6 -2 3 -0.0754 0.0055
6 -2 4 -0.3296 0.0104
6 -2 5 -0.0696 0.0034
6 -2 6 0.2546 0.0002
6 -2 7 0.1491 -0.0062
6 -2 8 0.0921 -0.0048
6 -2 10 -0.1585 0.0036
6 -1 0 -0.1381 0.0179
6 -1 1 0.0412 0.0271
6 -1 2 0.1005 -0.0097
6 -1 3 0.1579 -0.0178
6 -1 4 0.0711 -0.0007
6 -1 5 0.0537 0.0057
6 -1 6 -0.0927 0.0063
6 -1 7 -0.3337 0.0021
6 -1 8 0.0060 -0.0054
6 -1 9 0.2187 -0.0038
6 0 0 0.0826 -0.0327
6 0 1 -0.3183 0.0114
6 0 2 -0.1363 0.0258
6 0 3 0.2210 -0.0011
6 0 4 -0.1503 -0.0123
6 0 5 -0.2137 -0.0060
6 0 6 0.3591 0.0007
6 0 7 0.1508 0.0064
6 0 8 -0.1512 0.0050
6 0 9 0.0097 -0.0027
6 1 0 0.3553 -0.0098
6 1 1 0.4292 -0.0324
6 1 2 -0.3616 0.0012
6 1 3 -0.1528 0.0194
6 1 4 0.3585 0.0052
6 1 5 -0.0517 -0.0051
6 1 6 -0.1736 -0.0055
6 1 7 -0.0891 -0.0043
6 1 8 -0.0956 0.0013
6 2 0 -0.5860 0.0356
6 2 1 0.1149 0.0011
6 2 2 0.4145 -0.0255
6 2 3 -0.1091 -0.0062
6 2 4 -0.2356 0.0107
6 2 5 -0.0718 0.0057
6 2 6 0.2821 0.0010
6 2 7 0.3033 -0.0007
6 3 0 0.1559 -0.0051
6 3 1 -0.3146 0.0281
6 3 2 -0.2206 0.0094
6 3 3 0.2172 -0.0146
6 3 4 0.3551 -0.0082
6 3 5 -0.2565 0.0017
6 3 6 -0.4767 0.0026
6 4 0 0.0752 -0.0261
6 4 1 0.3032 -0.0122
6 4 2 -0.0427 0.0148
6 4 3 -0.4183 0.0103
6 4 4 0.1200 -0.0022
6 4 5 0.4635 -0.0044
6 5 0 -0.1979 0.0123
6 5 1 -0.0194 -0.0136
6 5 2 0.2981 -0.0098
6 5 3 -0.0736 0.0026
6 5 4 -0.3210 0.0038
6 6 0 -0.0605 0.0132
6 6 1 -0.1870 0.0083
6 6 2 0.1334 -0.0053
6 6 3 0.2222 -0.0028
6 7 0 0.1491 -0.0076
6 7 1 -0.1567 0.0079
7 -9 1 0.3875 0.0020
7 -9 2 -0.0783 -0.0044
7 -9 3 0.0271 -0.0054
7 -9 4 0.6346 0.0009
7 -9 5 0.0719 0.0057
7 -9 6 -1.0128 0.0025
7 -8 0 -0.7392 -0.0025
7 -8 1 0.7103 0.0092
7 -8 2 0.4479 0.0074
7 -8 6 0.8108 0.0033
7 -7 0 -0.4100 -0.0134
7 -7 2 0.6788 0.0053
7 -7 3 0.3300 0.0107
7 -7 6 0.0581 -0.0058
7 -6 0 0.2247 0.0153
7 -6 1 -0.2025 -0.0069
7 -6 2 0.1847 -0.0138
7 -6 3 0.4785 -0.0022
7 -6 4 -0.2786 0.0060
7 -6 6 0.1537 0.0020
7 -5 0 0.2254 0.0064
7 -5 1 -0.7461 0.0176
7 -5 2 -0.5834 0.0007
7 -5 3 0.4023 -0.0106
7 -5 4 0.6005 -0.0038
7 -5 6 -0.3611 0.0022
7 -4 0 0.9232 -0.0202
7 -4 1 0.8181 -0.0009
7 -4 2 -0.3487 0.0154
7 -4 3 -0.4988 0.0040
7 -4 4 0.0732 -0.0064
7 -3 0 -1.0437 0.0014
7 -3 1 0.0702 -0.0189
7 -3 2 0.4547 -0.0041
7 -3 3 -0.1371 0.0109
7 -3 4 -0.1575 0.0044
7 -3 5 0.3907 -0.0003
7 -2 0 0.4130 0.0221
7 -2 1 -0.3044 0.0036
7 -2 2 -0.0072 -0.0163
7 -2 3 0.2129 -0.0049
7 -2 4 -0.3226 0.0049
7 -2 5 -0.3288 0.0043
7 -2 6 0.1615 0.0050
7 -2 7 0.2205 -0.0019
7 -2 8 0.1201 -0.0074
7 -1 0 -0.1794 -0.0048
7 -1 1 0.0555 0.0224
7 -1 2 0.0322 0.0070
7 -1 3 0.1802 -0.0106
7 -1 4 0.1427 -0.0068
7 -1 5 0.0534 -0.0020
7 -1 6 -0.0254 0.0038
7 -1 7 -0.2745 0.0072
7 0 0 0.3917 -0.0259
7 0 1 -0.3100 -0.0109
7 0 2 -0.4332 0.0151
7 0 3 0.1730 0.0097
7 0 4 0.0833 -0.0013
7 0 5 -0.2690 -0.0050
7 0 6 0.1777 -0.0063
7 0 7 0.2490 -0.0003
7 1 0 0.1192 0.0144
7 1 1 0.8592 -0.0174
7 1 2 -0.1064 -0.0122
7 1 3 -0.4557 0.0054
7 1 4 0.2461 0.0060
7 1 5 0.1173 0.0027
7 1 6 -0.1903 0.0007
7 2 0 -0.8641 0.0176
7 2 1 -0.2852 0.0148
7 2 2 0.5468 -0.0095
7 2 3 0.1118 -0.0092
7 2 4 -0.2464 0.0018
7 2 5 -0.0980 0.0018
7 3 0 0.4950 -0.0173
7 3 1 -0.2340 0.0106
7 3 2 -0.3996 0.0140
7 3 3 0.0665 -0.0032
7 3 4 0.3560 -0.0064
7 4 0 -0.1204 -0.0077
7 4 1 0.3775 -0.0166
7 4 2 0.1794 0.0008
7 4 3 -0.3836 0.0088
7 5 0 -0.1951 0.0147
7 5 1 -0.2316 0.0017
8 -6 1 -0.2036 0.0037
8 -5 2 -0.6146 0.0059
8 -5 3 -0.0568 -0.0020
8 -4 2 0.0423 0.0050
8 -4 3 -0.4125 0.0060
8 -3 2 0.4817 -0.0083
8 -3 3 -0.0145 0.0020
8 -3 4 -0.3547 0.0038
8 -2 2 -0.1850 -0.0043
8 -2 3 0.3768 -0.0060
8 -2 4 -0.1293 -0.0021
8 -1 2 -0.1497 0.0097
8 -1 3 0.1311 0.0009
8 -1 4 0.3189 -0.0022
8 0 2 -0.4718 -0.0006
8 0 3 -0.2023 0.0046
8 1 0 -0.5485 0.0141
8 1 2 0.3857 -0.0065
8 2 0 -0.5656 0.0005
0 0 0 0.0 0.0
;
_shelx_fab_checksum              47821
_olex2_submission_special_instructions 'No special instructions were received'
loop_
_space_group_symop_operation_xyz
'x, y, z'
'-x, -y, -z'
loop_
_atom_site_label
_atom_site_type_symbol
_atom_site_fract_x
_atom_site_fract_y
_atom_site_fract_z
_atom_site_U_iso_or_equiv
_atom_site_adp_type
_atom_site_occupancy
_atom_site_site_symmetry_order
_atom_site_calc_flag
_atom_site_refinement_flags_posn
_atom_site_refinement_flags_adp
_atom_site_refinement_flags_occupancy
_atom_site_disorder_assembly
_atom_site_disorder_group
Cl1 Cl 0.8638(2) 0.72483(13) 1.01516(12) 0.0505(4) Uani 1 1 d . . . . .
Cl2 Cl 0.4167(3) 0.42493(16) 0.59634(14) 0.0686(5) Uani 1 1 d . . . . .
F1 F 0.6056(6) 0.9506(5) 0.6395(4) 0.0836(13) Uani 1 1 d . . . . .
F2 F 0.8201(6) 1.0487(3) 0.8047(4) 0.0790(12) Uani 1 1 d . . . . .
O1 O 1.0228(6) 0.8903(4) 0.5719(4) 0.0601(11) Uani 1 1 d . . . . .
N1 N 0.8259(6) 0.8138(4) 0.6828(3) 0.0352(9) Uani 1 1 d . . . . .
N2 N 0.5277(6) 0.8890(4) 0.7956(3) 0.0373(9) Uani 1 1 d . . . . .
C1 C 0.6264(10) 0.3379(5) 0.8505(6) 0.0567(16) Uani 1 1 d . . . . .
H1 H 0.624747 0.261093 0.864434 0.068 Uiso 1 1 calc R U . . .
C2 C 0.5297(10) 0.3258(6) 0.7481(6) 0.0567(15) Uani 1 1 d . . . . .
H2 H 0.460096 0.242464 0.693714 0.068 Uiso 1 1 calc R U . . .
C3 C 0.5370(8) 0.4404(5) 0.7263(5) 0.0444(12) Uani 1 1 d . . . . .
C4 C 0.6412(7) 0.5655(5) 0.8059(4) 0.0364(11) Uani 1 1 d . . . . .
C5 C 0.7342(7) 0.5724(5) 0.9105(4) 0.0378(11) Uani 1 1 d . . . . .
C6 C 0.7254(9) 0.4594(5) 0.9332(5) 0.0508(14) Uani 1 1 d . . . . .
H6 H 0.786069 0.466059 1.003657 0.061 Uiso 1 1 calc R U . . .
C7 C 0.6575(7) 0.6862(4) 0.7797(4) 0.0323(10) Uani 1 1 d . . . . .
C8 C 0.5167(7) 0.7786(5) 0.8219(4) 0.0350(10) Uani 1 1 d . . . . .
C9 C 0.3493(8) 0.7821(5) 0.8887(4) 0.0427(12) Uani 1 1 d . . . . .
H9 H 0.306256 0.719653 0.918273 0.051 Uiso 1 1 calc R U . . .
C10 C 0.2599(8) 0.8939(5) 0.9028(5) 0.0481(13) Uani 1 1 d . . . . .
H10 H 0.145773 0.921711 0.943873 0.058 Uiso 1 1 calc R U . . .
C11 C 0.3721(8) 0.9579(5) 0.8443(5) 0.0458(13) Uani 1 1 d . . . . .
H11 H 0.344113 1.036494 0.839357 0.055 Uiso 1 1 calc R U . . .
C12 C 0.8096(7) 0.7039(4) 0.7128(4) 0.0332(10) Uani 1 1 d . . . . .
C13 C 0.9640(8) 0.6254(5) 0.6594(4) 0.0435(12) Uani 1 1 d . . . . .
H13 H 0.988867 0.546783 0.665182 0.052 Uiso 1 1 calc R U . . .
C14 C 1.0710(8) 0.6840(5) 0.5977(4) 0.0445(12) Uani 1 1 d . . . . .
H14 H 1.181195 0.653742 0.553794 0.053 Uiso 1 1 calc R U . . .
C15 C 0.9804(8) 0.7996(5) 0.6142(4) 0.0414(12) Uani 1 1 d . . . . .
C16 C 1.1648(11) 0.8590(8) 0.4813(7) 0.084(2) Uani 1 1 d . . . . .
H16A H 1.105021 0.778836 0.413267 0.126 Uiso 1 1 calc R U . . .
H16B H 1.292581 0.843769 0.510156 0.126 Uiso 1 1 calc R U . . .
H16C H 1.190975 0.933565 0.460373 0.126 Uiso 1 1 calc R U . . .
B1 B 0.6954(10) 0.9314(6) 0.7298(6) 0.0428(14) Uani 1 1 d . . . . .
loop_
_atom_site_aniso_label
_atom_site_aniso_U_11
_atom_site_aniso_U_22
_atom_site_aniso_U_33
_atom_site_aniso_U_23
_atom_site_aniso_U_13
_atom_site_aniso_U_12
Cl1 0.0562(8) 0.0438(7) 0.0519(8) 0.0224(6) -0.0003(6) 0.0031(6)
Cl2 0.0866(12) 0.0521(9) 0.0549(9) 0.0160(7) -0.0106(8) -0.0037(8)
F1 0.077(3) 0.128(3) 0.108(3) 0.100(3) 0.037(2) 0.047(2)
F2 0.078(2) 0.0295(16) 0.111(3) 0.0124(18) 0.037(2) -0.0028(16)
O1 0.067(3) 0.063(3) 0.075(3) 0.049(2) 0.036(2) 0.020(2)
N1 0.041(2) 0.032(2) 0.038(2) 0.0190(17) 0.0126(18) 0.0052(17)
N2 0.043(2) 0.030(2) 0.043(2) 0.0191(18) 0.0110(19) 0.0082(17)
C1 0.072(4) 0.035(3) 0.080(4) 0.038(3) 0.017(3) 0.014(3)
C2 0.066(4) 0.036(3) 0.067(4) 0.021(3) 0.015(3) 0.002(3)
C3 0.051(3) 0.037(3) 0.049(3) 0.020(2) 0.016(2) 0.011(2)
C4 0.037(3) 0.032(2) 0.049(3) 0.024(2) 0.015(2) 0.0090(19)
C5 0.039(3) 0.035(2) 0.048(3) 0.024(2) 0.012(2) 0.011(2)
C6 0.056(3) 0.047(3) 0.066(4) 0.039(3) 0.010(3) 0.013(3)
C7 0.036(3) 0.029(2) 0.036(2) 0.018(2) 0.0024(19) 0.0051(19)
C8 0.039(3) 0.032(2) 0.037(3) 0.018(2) 0.008(2) 0.005(2)
C9 0.045(3) 0.046(3) 0.042(3) 0.023(2) 0.013(2) 0.005(2)
C10 0.044(3) 0.048(3) 0.053(3) 0.018(3) 0.021(3) 0.018(2)
C11 0.047(3) 0.034(3) 0.055(3) 0.016(2) 0.015(3) 0.015(2)
C12 0.040(3) 0.025(2) 0.037(2) 0.016(2) 0.009(2) 0.0077(19)
C13 0.051(3) 0.035(3) 0.047(3) 0.018(2) 0.011(2) 0.010(2)
C14 0.047(3) 0.043(3) 0.043(3) 0.016(2) 0.017(2) 0.013(2)
C15 0.047(3) 0.040(3) 0.042(3) 0.022(2) 0.011(2) 0.006(2)
C16 0.083(5) 0.113(6) 0.093(5) 0.072(5) 0.051(4) 0.028(4)
B1 0.049(3) 0.035(3) 0.056(4) 0.028(3) 0.017(3) 0.011(3)
loop_
_atom_type_symbol
_atom_type_description
_atom_type_scat_dispersion_real
_atom_type_scat_dispersion_imag
_atom_type_scat_source
C C 0.0033 0.0016 'International Tables Vol C Tables 4.2.6.8 and 6.1.1.4'
H H 0.0000 0.0000 'International Tables Vol C Tables 4.2.6.8 and 6.1.1.4'
B B 0.0013 0.0007 'International Tables Vol C Tables 4.2.6.8 and 6.1.1.4'
Cl Cl 0.1484 0.1585 'International Tables Vol C Tables 4.2.6.8 and 6.1.1.4'
F F 0.0171 0.0103 'International Tables Vol C Tables 4.2.6.8 and 6.1.1.4'
N N 0.0061 0.0033 'International Tables Vol C Tables 4.2.6.8 and 6.1.1.4'
O O 0.0106 0.0060 'International Tables Vol C Tables 4.2.6.8 and 6.1.1.4'
loop_
_geom_angle_atom_site_label_1
_geom_angle_atom_site_label_2
_geom_angle_atom_site_label_3
_geom_angle
_geom_angle_site_symmetry_1
_geom_angle_site_symmetry_3
_geom_angle_publ_flag
C15 O1 C16 116.4(5) . . ?
C12 N1 B1 125.0(4) . . ?
C15 N1 C12 106.6(4) . . ?
C15 N1 B1 128.4(4) . . ?
C8 N2 B1 126.3(4) . . ?
C11 N2 C8 107.5(4) . . ?
C11 N2 B1 126.0(4) . . ?
C2 C1 H1 119.1 . . ?
C6 C1 H1 119.1 . . ?
C6 C1 C2 121.9(5) . . ?
C1 C2 H2 120.6 . . ?
C1 C2 C3 118.9(5) . . ?
C3 C2 H2 120.6 . . ?
C2 C3 Cl2 118.9(4) . . ?
C4 C3 Cl2 119.6(4) . . ?
C4 C3 C2 121.5(5) . . ?
C3 C4 C5 117.1(4) . . ?
C3 C4 C7 121.3(5) . . ?
C5 C4 C7 121.5(4) . . ?
C4 C5 Cl1 120.1(3) . . ?
C6 C5 Cl1 118.3(4) . . ?
C6 C5 C4 121.6(5) . . ?
C1 C6 C5 118.9(5) . . ?
C1 C6 H6 120.5 . . ?
C5 C6 H6 120.5 . . ?
C8 C7 C4 119.9(4) . . ?
C12 C7 C4 119.1(4) . . ?
C12 C7 C8 121.0(4) . . ?
N2 C8 C7 120.2(4) . . ?
N2 C8 C9 107.9(4) . . ?
C9 C8 C7 131.9(4) . . ?
C8 C9 H9 126.1 . . ?
C10 C9 C8 107.8(4) . . ?
C10 C9 H9 126.1 . . ?
C9 C10 H10 126.5 . . ?
C9 C10 C11 107.0(4) . . ?
C11 C10 H10 126.5 . . ?
N2 C11 C10 109.8(4) . . ?
N2 C11 H11 125.1 . . ?
C10 C11 H11 125.1 . . ?
N1 C12 C13 107.5(4) . . ?
C7 C12 N1 120.9(4) . . ?
C7 C12 C13 131.6(4) . . ?
C12 C13 H13 125.7 . . ?
C14 C13 C12 108.6(4) . . ?
C14 C13 H13 125.7 . . ?
C13 C14 H14 127.1 . . ?
C13 C14 C15 105.8(4) . . ?
C15 C14 H14 127.1 . . ?
O1 C15 N1 117.9(4) . . ?
O1 C15 C14 130.5(5) . . ?
N1 C15 C14 111.6(4) . . ?
O1 C16 H16A 109.5 . . ?
O1 C16 H16B 109.5 . . ?
O1 C16 H16C 109.5 . . ?
H16A C16 H16B 109.5 . . ?
H16A C16 H16C 109.5 . . ?
H16B C16 H16C 109.5 . . ?
F1 B1 F2 109.5(5) . . ?
F1 B1 N1 111.0(5) . . ?
F1 B1 N2 110.1(5) . . ?
F2 B1 N1 109.5(5) . . ?
F2 B1 N2 110.7(5) . . ?
N2 B1 N1 106.0(4) . . ?
loop_
_geom_bond_atom_site_label_1
_geom_bond_atom_site_label_2
_geom_bond_distance
_geom_bond_site_symmetry_2
_geom_bond_publ_flag
C1 H1 0.9300 . ?
C1 C2 1.365(8) . ?
C1 C6 1.365(8) . ?
C2 H2 0.9300 . ?
C2 C3 1.393(7) . ?
C3 Cl2 1.724(6) . ?
C3 C4 1.388(7) . ?
C4 C5 1.401(7) . ?
C4 C7 1.488(6) . ?
C5 Cl1 1.728(5) . ?
C5 C6 1.382(6) . ?
C6 H6 0.9300 . ?
C7 C8 1.401(7) . ?
C7 C12 1.373(6) . ?
C8 N2 1.382(6) . ?
C8 C9 1.396(6) . ?
C9 H9 0.9300 . ?
C9 C10 1.371(7) . ?
C10 H10 0.9300 . ?
C10 C11 1.387(7) . ?
C11 N2 1.349(6) . ?
C11 H11 0.9300 . ?
C12 N1 1.402(5) . ?
C12 C13 1.407(7) . ?
C13 H13 0.9300 . ?
C13 C14 1.362(7) . ?
C14 H14 0.9300 . ?
C14 C15 1.405(7) . ?
C15 O1 1.321(6) . ?
C15 N1 1.332(6) . ?
C16 O1 1.449(7) . ?
C16 H16A 0.9600 . ?
C16 H16B 0.9600 . ?
C16 H16C 0.9600 . ?
B1 F1 1.367(7) . ?
B1 F2 1.374(7) . ?
B1 N1 1.550(7) . ?
B1 N2 1.539(7) . ?
loop_
_geom_torsion_atom_site_label_1
_geom_torsion_atom_site_label_2
_geom_torsion_atom_site_label_3
_geom_torsion_atom_site_label_4
_geom_torsion
_geom_torsion_site_symmetry_1
_geom_torsion_site_symmetry_2
_geom_torsion_site_symmetry_3
_geom_torsion_site_symmetry_4
_geom_torsion_publ_flag
Cl1 C5 C6 C1 -179.0(4) . . . . ?
Cl2 C3 C4 C5 179.3(4) . . . . ?
Cl2 C3 C4 C7 -2.1(7) . . . . ?
F1 B1 N1 C12 -128.8(5) . . . . ?
F1 B1 N1 C15 55.8(7) . . . . ?
F1 B1 N2 C8 128.9(5) . . . . ?
F1 B1 N2 C11 -55.5(7) . . . . ?
F2 B1 N1 C12 110.2(5) . . . . ?
F2 B1 N1 C15 -65.2(7) . . . . ?
F2 B1 N2 C8 -109.9(5) . . . . ?
F2 B1 N2 C11 65.7(7) . . . . ?
O1 C15 N1 C12 178.4(5) . . . . ?
O1 C15 N1 B1 -5.5(8) . . . . ?
N1 C12 C13 C14 -0.5(6) . . . . ?
N1 C15 O1 C16 -169.1(5) . . . . ?
N1 B1 N2 C8 8.8(7) . . . . ?
N1 B1 N2 C11 -175.6(5) . . . . ?
N2 C8 C9 C10 -0.1(6) . . . . ?
N2 B1 N1 C12 -9.2(7) . . . . ?
N2 B1 N1 C15 175.4(5) . . . . ?
C1 C2 C3 Cl2 179.5(5) . . . . ?
C1 C2 C3 C4 0.4(9) . . . . ?
C2 C1 C6 C5 -2.3(9) . . . . ?
C2 C3 C4 C5 -1.6(7) . . . . ?
C2 C3 C4 C7 177.0(5) . . . . ?
C3 C4 C5 Cl1 -179.1(4) . . . . ?
C3 C4 C5 C6 0.9(7) . . . . ?
C3 C4 C7 C8 96.0(6) . . . . ?
C3 C4 C7 C12 -83.2(6) . . . . ?
C4 C5 C6 C1 1.1(8) . . . . ?
C4 C7 C8 N2 -178.4(4) . . . . ?
C4 C7 C8 C9 -0.3(8) . . . . ?
C4 C7 C12 N1 177.8(4) . . . . ?
C4 C7 C12 C13 0.4(8) . . . . ?
C5 C4 C7 C8 -85.5(6) . . . . ?
C5 C4 C7 C12 95.3(6) . . . . ?
C6 C1 C2 C3 1.6(9) . . . . ?
C7 C4 C5 Cl1 2.3(6) . . . . ?
C7 C4 C5 C6 -177.7(5) . . . . ?
C7 C8 N2 C11 178.4(4) . . . . ?
C7 C8 N2 B1 -5.3(7) . . . . ?
C7 C8 C9 C10 -178.4(5) . . . . ?
C7 C12 N1 C15 -177.3(4) . . . . ?
C7 C12 N1 B1 6.5(7) . . . . ?
C7 C12 C13 C14 177.2(5) . . . . ?
C8 C7 C12 N1 -1.3(7) . . . . ?
C8 C7 C12 C13 -178.7(5) . . . . ?
C8 C9 C10 C11 0.3(6) . . . . ?
C9 C8 N2 C11 -0.1(6) . . . . ?
C9 C8 N2 B1 176.1(5) . . . . ?
C9 C10 C11 N2 -0.4(6) . . . . ?
C10 C11 N2 C8 0.3(6) . . . . ?
C10 C11 N2 B1 -176.0(5) . . . . ?
C12 C7 C8 N2 0.7(7) . . . . ?
C12 C7 C8 C9 178.8(5) . . . . ?
C12 C13 C14 C15 0.1(6) . . . . ?
C13 C12 N1 C15 0.6(5) . . . . ?
C13 C12 N1 B1 -175.6(5) . . . . ?
C13 C14 C15 O1 -178.5(6) . . . . ?
C13 C14 C15 N1 0.3(6) . . . . ?
C14 C15 O1 C16 9.7(9) . . . . ?
C14 C15 N1 C12 -0.6(6) . . . . ?
C14 C15 N1 B1 175.5(5) . . . . ?
loop_
_smtbx_masks_void_nr
_smtbx_masks_void_average_x
_smtbx_masks_void_average_y
_smtbx_masks_void_average_z
_smtbx_masks_void_volume
_smtbx_masks_void_count_electrons
_smtbx_masks_void_content
1 0.091 0.329 0.761 21.6 0.8 ?
2 -0.091 0.671 0.239 21.6 0.7 ?
