#------------------------------------------------------------------------------
#$Date: 2020-08-04 15:33:06 +0300 (Tue, 04 Aug 2020) $
#$Revision: 254788 $
#$URL: file:///home/coder/svn-repositories/cod/cif/7/12/70/7127002.cif $
#------------------------------------------------------------------------------
#
# This file is available in the Crystallography Open Database (COD),
# http://www.crystallography.net/
#
# All data on this site have been placed in the public domain by the
# contributors.
#
data_7127002
loop_
_publ_author_name
'Zhang, Dong'
'Fang, Zheng'
'Cai, Jinlin'
'Liu, Chengkou'
'He, Wei'
'Duan, Jindian'
'Qin, Ning'
'Yang, Zhao'
'Guo, Kai'
_publ_section_title
;
 The copper(ii)-catalyzed and oxidant-promoted regioselective C-2
 difluoromethylation of indoles and pyrroles.
;
_journal_issue                   58
_journal_name_full
'Chemical communications (Cambridge, England)'
_journal_page_first              8119
_journal_page_last               8122
_journal_paper_doi               10.1039/d0cc03345f
_journal_volume                  56
_journal_year                    2020
_chemical_formula_sum            'C15 H11 F2 N3 O2'
_chemical_formula_weight         303.27
_space_group_crystal_system      triclinic
_space_group_IT_number           2
_space_group_name_Hall           '-P 1'
_space_group_name_H-M_alt        'P -1'
_atom_sites_solution_hydrogens   geom
_audit_creation_method           SHELXL-2014/7
_audit_update_record
;
2020-02-10 deposited with the CCDC.	2020-06-05 downloaded from the CCDC.
;
_cell_angle_alpha                99.54(3)
_cell_angle_beta                 107.52(3)
_cell_angle_gamma                109.15(3)
_cell_formula_units_Z            2
_cell_length_a                   7.7930(16)
_cell_length_b                   9.7180(19)
_cell_length_c                   10.297(2)
_cell_measurement_reflns_used    25
_cell_measurement_temperature    293(2)
_cell_measurement_theta_max      14
_cell_measurement_theta_min      9
_cell_volume                     671.5(4)
_computing_structure_refinement  'SHELXL-2014/7 (Sheldrick, 2014)'
_diffrn_ambient_temperature      293(2)
_diffrn_measured_fraction_theta_full 1.000
_diffrn_measured_fraction_theta_max 0.996
_diffrn_measurement_device_type  'Nonius CAD4'
_diffrn_measurement_method       \w/2\q
_diffrn_radiation_type           MoK\a
_diffrn_radiation_wavelength     0.71073
_diffrn_reflns_av_R_equivalents  0.0206
_diffrn_reflns_av_unetI/netI     0.0252
_diffrn_reflns_Laue_measured_fraction_full 1.000
_diffrn_reflns_Laue_measured_fraction_max 0.996
_diffrn_reflns_limit_h_max       9
_diffrn_reflns_limit_h_min       0
_diffrn_reflns_limit_k_max       11
_diffrn_reflns_limit_k_min       -11
_diffrn_reflns_limit_l_max       11
_diffrn_reflns_limit_l_min       -12
_diffrn_reflns_number            2667
_diffrn_reflns_point_group_measured_fraction_full 1.000
_diffrn_reflns_point_group_measured_fraction_max 0.996
_diffrn_reflns_theta_full        25.242
_diffrn_reflns_theta_max         25.391
_diffrn_reflns_theta_min         2.170
_exptl_absorpt_coefficient_mu    0.121
_exptl_absorpt_correction_type   none
_exptl_crystal_density_diffrn    1.500
_exptl_crystal_F_000             312
_exptl_crystal_size_max          0.300
_exptl_crystal_size_mid          0.200
_exptl_crystal_size_min          0.100
_refine_diff_density_max         0.218
_refine_diff_density_min         -0.365
_refine_diff_density_rms         0.077
_refine_ls_extinction_method     none
_refine_ls_goodness_of_fit_ref   1.009
_refine_ls_hydrogen_treatment    constr
_refine_ls_matrix_type           full
_refine_ls_number_parameters     199
_refine_ls_number_reflns         2474
_refine_ls_number_restraints     0
_refine_ls_restrained_S_all      1.009
_refine_ls_R_factor_all          0.0754
_refine_ls_R_factor_gt           0.0571
_refine_ls_shift/su_max          0.000
_refine_ls_shift/su_mean         0.000
_refine_ls_structure_factor_coef Fsqd
_refine_ls_weighting_details
'w=1/[\s^2^(Fo^2^)+(0.1000P)^2^+0.1300P] where P=(Fo^2^+2Fc^2^)/3'
_refine_ls_weighting_scheme      calc
_refine_ls_wR_factor_gt          0.1400
_refine_ls_wR_factor_ref         0.1569
_reflns_Friedel_coverage         0.000
_reflns_number_gt                1868
_reflns_number_total             2474
_reflns_threshold_expression     'I > 2\s(I)'
_cod_data_source_file            d0cc03345f2.cif
_cod_data_source_block           X
_cod_original_cell_volume        671.5(3)
_cod_database_code               7127002
_shelx_shelxl_version_number     2014/7
_shelx_space_group_comment
;
The symmetry employed for this shelxl refinement is uniquely defined
by the following loop, which should always be used as a source of
symmetry information in preference to the above space-group names.
They are only intended as comments.
;
_shelx_estimated_absorpt_t_min   0.965
_shelx_estimated_absorpt_t_max   0.988
_shelx_res_file
;

    X.res created by SHELXL-2014/7


TITL X in P-1
CELL 0.71073   7.7930   9.7180  10.2970  99.540 107.520 109.150
ZERR    2.00   0.0016   0.0019   0.0021   0.030   0.030   0.030
LATT  1
SFAC C H N O F
UNIT 30 22 6 4 4

ACTA

L.S. 100
BOND $H
CONF
SIZE .3 .2 .1
FMAP 2
PLAN 8

WGHT    0.100000    0.130000
FVAR       1.12571
N1    3    0.480843    0.769408    0.321708    11.00000    0.04944    0.03922 =
         0.03783    0.01521    0.01837    0.00974
F1    5    0.668046    0.864135    0.087808    11.00000    0.09279    0.08846 =
         0.06158    0.02947    0.05036    0.02960
O1    4    0.876065    1.207445    0.338467    11.00000    0.07306    0.06905 =
         0.06162    0.03627    0.02451    0.00130
C1    1    0.545248    0.796293    0.469527    11.00000    0.04969    0.04116 =
         0.03897    0.01672    0.01963    0.01638
F2    5    0.371722    0.842890    0.060518    11.00000    0.06818    0.07065 =
         0.04736    0.02337    0.00689    0.01480
O2    4    0.991842    1.225573    0.569612    11.00000    0.05250    0.04484 =
         0.05471    0.01671    0.01502    0.00329
N2    3    0.186659    0.557110    0.247334    11.00000    0.05009    0.05103 =
         0.04996    0.01437    0.02172    0.00871
C2    1    0.479930    0.702418    0.547691    11.00000    0.06227    0.04714 =
         0.04860    0.02391    0.02520    0.01409
AFIX  43
H2B   2    0.376290    0.607165    0.503455    11.00000   -1.20000
AFIX   0
N3    3    0.397636    0.574338    0.120054    11.00000    0.05067    0.04960 =
         0.04686    0.01234    0.02060    0.01292
C3    1    0.574749    0.756145    0.692873    11.00000    0.07340    0.06241 =
         0.05146    0.03384    0.03005    0.02340
AFIX  43
H3B   2    0.533490    0.696238    0.748240    11.00000   -1.20000
AFIX   0
C4    1    0.730287    0.897166    0.759397    11.00000    0.07452    0.06373 =
         0.03906    0.02219    0.01849    0.02162
AFIX  43
H4A   2    0.791448    0.929460    0.858206    11.00000   -1.20000
AFIX   0
C5    1    0.796160    0.990272    0.682853    11.00000    0.05741    0.05111 =
         0.04285    0.01641    0.01709    0.01635
AFIX  43
H5A   2    0.900595    1.084929    0.728661    11.00000   -1.20000
AFIX   0
C6    1    0.702827    0.939760    0.534314    11.00000    0.04557    0.04031 =
         0.03915    0.01568    0.01888    0.01533
C7    1    0.729469    1.001946    0.420625    11.00000    0.04231    0.04059 =
         0.04315    0.01704    0.01912    0.01328
C8    1    0.595862    0.896272    0.294894    11.00000    0.04638    0.04094 =
         0.04214    0.01886    0.02211    0.01257
C9    1    0.869973    1.153552    0.434459    11.00000    0.04562    0.04647 =
         0.05233    0.02069    0.02353    0.01332
C10   1    1.135491    1.376205    0.597159    11.00000    0.05163    0.04801 =
         0.07892    0.01838    0.01755   -0.00037
AFIX  33
H10A  2    1.215198    1.417519    0.697161    11.00000   -1.50000
H10B  2    1.217280    1.371050    0.544580    11.00000   -1.50000
H10C  2    1.069787    1.440493    0.568105    11.00000   -1.50000
AFIX   0
C11   1    0.563208    0.918380    0.150471    11.00000    0.06169    0.05251 =
         0.04028    0.01918    0.02183    0.01332
AFIX  13
H11A  2    0.603400    1.027392    0.159709    11.00000   -1.20000
AFIX   0
C12   1    0.346116    0.625872    0.222276    11.00000    0.04593    0.04164 =
         0.03860    0.01584    0.01522    0.01459
C13   1    0.066928    0.419243    0.156982    11.00000    0.05106    0.05044 =
         0.05558    0.01897    0.01746    0.00448
AFIX  43
H13A  2   -0.045346    0.364533    0.170959    11.00000   -1.20000
AFIX   0
C14   1    0.101972    0.354821    0.044749    11.00000    0.05673    0.04566 =
         0.05058    0.01120    0.01022    0.01075
AFIX  43
H14A  2    0.015389    0.259206   -0.018267    11.00000   -1.20000
AFIX   0
C15   1    0.269020    0.436907    0.029571    11.00000    0.06115    0.05254 =
         0.04568    0.00781    0.01708    0.01906
AFIX  43
H15A  2    0.295664    0.396334   -0.046716    11.00000   -1.20000

AFIX   0
HKLF 4

REM  X in P-1
REM R1 =  0.0571 for    1868 Fo > 4sig(Fo)  and  0.0754 for all    2474 data
REM    199 parameters refined using      0 restraints

END

WGHT      0.0969      0.0654

REM Highest difference peak  0.218,  deepest hole -0.365,  1-sigma level  0.077
Q1    1   0.4589  0.6069  0.7833  11.00000  0.05    0.22
Q2    1   1.1661  1.3938  0.5044  11.00000  0.05    0.20
Q3    1   0.5010  0.7225  0.7954  11.00000  0.05    0.19
Q4    1   0.3952  0.6619  0.7970  11.00000  0.05    0.18
Q5    1   0.9259  1.1823  0.1952  11.00000  0.05    0.18
Q6    1   0.0994  0.2988 -0.1897  11.00000  0.05    0.18
Q7    1   0.2388  0.6227  0.5000  11.00000  0.05    0.18
Q8    1   1.3566  1.5554  0.8372  11.00000  0.05    0.17
;
_shelx_res_checksum              94233
_shelx_hkl_file
;
   4  -1 -12    7.35    2.36
   4   0 -12    0.11    1.98
   3   0 -12   -3.36    1.87
   2   0 -12    9.16    2.14
   1   1 -12   44.05    3.24
   2   1 -12    0.54    1.97
   3   1 -12   16.74    2.20
   4   1 -12   22.32    2.61
   5   1 -12    3.57    1.90
   4   2 -12   22.29    2.52
   3   2 -12    6.27    2.03
   2   2 -12    1.81    1.63
   1   2 -12    7.46    2.02
   1   3 -12    2.84    1.76
   2   3 -12    0.11    1.93
   3   3 -12    0.32    1.94
   4   3 -12    0.66    1.79
   3   4 -12    1.54    1.77
   2   4 -12   -1.31    1.65
   1   4 -12    0.44    1.81
   1   7 -11   11.22    2.31
   0   6 -11    2.57    1.72
   1   6 -11   17.47    2.52
   2   6 -11  174.20    5.24
   3   6 -11    0.33    1.83
   4   5 -11    6.28    2.03
   3   5 -11    5.17    2.17
   2   5 -11   25.92    2.60
   1   5 -11   50.01    2.93
   0   5 -11    2.99    1.89
   0   4 -11    0.40    1.56
   1   4 -11   27.31    2.69
   2   4 -11    3.21    1.57
   3   4 -11    7.91    2.18
   4   4 -11   84.59    3.83
   5   4 -11    1.53    1.77
   5   3 -11    6.10    2.25
   4   3 -11    0.40    1.76
   3   3 -11   42.56    2.73
   2   3 -11    3.61    1.51
   1   3 -11    0.48    1.72
   0   3 -11   16.26    2.20
   0   2 -11   -1.01    1.88
   1   2 -11    4.43    1.71
   2   2 -11   -2.82    1.76
   3   2 -11    8.30    1.98
   4   2 -11   19.20    2.20
   5   2 -11   10.72    2.20
   6   2 -11    2.08    2.26
   6   1 -11    2.90    1.97
   5   1 -11    4.32    2.05
   4   1 -11    9.71    1.87
   3   1 -11   42.42    2.78
   2   1 -11   83.09    3.50
   1   1 -11   -3.33    1.83
   0   1 -11    0.00    1.58
   0   0 -11   33.39    3.37
   1   0 -11    4.94    1.83
   2   0 -11    1.94    1.49
   3   0 -11   -1.24    1.80
   4   0 -11    3.48    1.85
   5   0 -11   17.77    2.21
   6   0 -11    1.70    1.78
   6  -1 -11   -2.14    1.88
   5  -1 -11   48.64    3.11
   4  -1 -11   15.73    2.23
   3  -1 -11    1.77    1.74
   2  -1 -11   -0.50    1.64
   1  -1 -11    6.63    1.83
   1  -2 -11    7.44    1.98
   2  -2 -11    9.42    1.90
   3  -2 -11    5.66    1.94
   4  -2 -11    8.82    1.97
   5  -2 -11    0.52    1.91
   6  -2 -11   19.19    2.29
   5  -3 -11    2.50    1.97
   4  -3 -11    3.23    1.79
   3  -3 -11    0.22    1.85
   3  -5 -10    0.44    1.63
   4  -5 -10    7.98    2.01
   5  -5 -10    2.74    2.12
   6  -4 -10    2.13    1.72
   5  -4 -10    1.96    1.62
   4  -4 -10    5.70    2.01
   3  -4 -10   -1.13    1.70
   2  -4 -10   -1.60    1.82
   1  -3 -10   -1.67    1.78
   2  -3 -10    5.05    1.72
   3  -3 -10    2.11    1.46
   4  -3 -10   59.65    3.08
   5  -3 -10   32.88    2.50
   6  -3 -10   14.17    2.32
   7  -3 -10   -1.09    1.91
   7  -2 -10   23.52    2.36
   6  -2 -10   39.13    2.90
   5  -2 -10   97.57    3.88
   4  -2 -10   56.53    3.03
   3  -2 -10    2.63    1.61
   2  -2 -10    2.88    1.53
   1  -2 -10   30.61    2.68
   0  -2 -10   19.34    2.32
   0  -1 -10   -1.38    1.81
   1  -1 -10    2.39    1.47
   2  -1 -10   12.59    1.85
   3  -1 -10   14.20    2.09
   4  -1 -10    0.79    1.59
   5  -1 -10    0.64    1.67
   6  -1 -10   43.91    2.92
   7  -1 -10    6.65    1.91
   7   0 -10    7.74    2.24
   6   0 -10    4.65    1.91
   5   0 -10   36.62    2.69
   4   0 -10   50.50    2.79
   3   0 -10   42.78    2.53
   2   0 -10   55.50    2.87
   1   0 -10   -2.73    1.56
   0   0 -10   40.40    2.98
   0   1 -10    2.71    1.67
   1   1 -10   31.73    2.33
   2   1 -10    0.42    1.39
   3   1 -10   40.26    2.42
   4   1 -10   28.35    2.26
   5   1 -10   24.04    2.38
   6   1 -10    0.30    1.76
   7   1 -10    2.16    1.86
   7   2 -10    5.13    1.93
   6   2 -10    4.85    2.08
   5   2 -10   -1.67    1.75
   4   2 -10  211.30    5.04
   3   2 -10   30.05    2.36
   2   2 -10   38.24    2.59
   1   2 -10   14.15    1.92
   0   2 -10   63.86    2.95
   0   3 -10   12.84    1.88
   1   3 -10   44.68    2.56
   2   3 -10   -0.75    1.64
   3   3 -10   17.44    1.84
   4   3 -10   21.69    2.21
   5   3 -10    3.08    1.74
   6   3 -10    1.26    1.88
   6   4 -10   22.83    2.70
   5   4 -10   11.73    2.19
   4   4 -10    7.98    1.94
   3   4 -10    3.82    1.57
   2   4 -10   53.63    2.95
   1   4 -10   11.34    1.95
   0   4 -10   -0.80    1.52
   0   5 -10   24.95    2.91
   1   5 -10    2.79    1.53
   2   5 -10  100.29    3.75
   3   5 -10    1.41    1.50
   4   5 -10   23.68    2.52
   5   5 -10    1.50    2.66
   4   6 -10   15.13    2.03
   3   6 -10   27.26    2.58
   2   6 -10    5.87    1.93
   1   6 -10   12.42    2.27
   0   6 -10   18.59    2.22
   0   7 -10   14.19    2.33
   1   7 -10    1.01    1.75
   2   7 -10   -0.10    1.80
   3   7 -10    1.19    1.63
   1   8 -10    5.22    1.96
   0   8 -10   81.78    3.82
   1   9  -9    3.09    1.63
   0   9  -9    5.84    2.36
   0   8  -9    0.99    1.75
   1   8  -9   27.96    2.47
   2   8  -9    2.82    1.54
   3   8  -9    3.86    1.81
   4   7  -9   -1.19    2.04
   3   7  -9    6.85    1.99
   2   7  -9    1.81    1.67
   1   7  -9    3.14    1.48
   0   7  -9   22.15    2.23
   0   6  -9   11.16    1.91
   1   6  -9  135.73    3.95
   2   6  -9    3.16    1.36
   3   6  -9    0.09    1.62
   4   6  -9   -1.99    1.77
   5   6  -9    7.84    2.15
   5   5  -9    2.52    1.75
   4   5  -9    4.60    1.79
   3   5  -9    3.59    1.44
   2   5  -9   -2.94    1.56
   1   5  -9    1.04    1.47
   0   5  -9    3.50    1.41
   0   4  -9  117.46    3.70
   1   4  -9  167.49    4.16
   2   4  -9   -0.31    1.40
   3   4  -9  220.41    4.83
   4   4  -9    1.46    1.51
   5   4  -9   11.08    2.08
   6   4  -9    3.13    1.73
   7   3  -9   19.19    2.52
   6   3  -9   11.99    2.36
   5   3  -9    9.29    1.73
   4   3  -9    1.87    1.59
   3   3  -9  361.66    5.98
   2   3  -9  103.78    3.37
   1   3  -9  143.16    3.83
   0   3  -9   22.22    1.95
   0   2  -9   -0.54    1.41
   1   2  -9    9.79    1.68
   2   2  -9  206.79    4.29
   3   2  -9  176.00    4.24
   4   2  -9  115.01    3.79
   5   2  -9  201.79    4.85
   6   2  -9   40.44    2.64
   7   2  -9    0.53    1.89
   7   1  -9    6.17    1.87
   6   1  -9   10.67    1.94
   5   1  -9  165.71    4.41
   4   1  -9  147.26    3.95
   3   1  -9   41.51    2.41
   2   1  -9   34.20    2.07
   1   1  -9  223.40    4.63
   0   1  -9   42.62    2.39
   0   0  -9   44.75    3.16
   1   0  -9   85.19    3.15
   2   0  -9   -2.42    1.49
   3   0  -9  127.91    3.75
   4   0  -9  290.33    5.17
   5   0  -9   78.17    3.17
   6   0  -9   41.26    2.59
   7   0  -9    7.69    2.01
   8   0  -9   51.08    3.40
   8  -1  -9    3.49    1.82
   7  -1  -9    2.25    1.74
   6  -1  -9   14.34    2.00
   5  -1  -9   13.08    1.76
   4  -1  -9  144.35    4.05
   3  -1  -9  353.69    6.02
   2  -1  -9  120.68    3.64
   1  -1  -9    7.66    1.55
   0  -1  -9   17.02    2.14
   0  -2  -9   15.19    2.15
   1  -2  -9  159.93    4.48
   2  -2  -9   93.53    3.46
   3  -2  -9    5.71    1.51
   4  -2  -9    4.18    1.72
   5  -2  -9   25.32    2.29
   6  -2  -9   55.40    2.99
   7  -2  -9    3.73    1.84
   8  -2  -9   -0.33    1.90
   8  -3  -9    0.33    1.88
   7  -3  -9   19.02    2.19
   6  -3  -9    5.55    1.90
   5  -3  -9  110.84    3.89
   4  -3  -9   18.05    1.96
   3  -3  -9   29.59    2.10
   2  -3  -9   14.76    1.92
   1  -3  -9   23.92    2.40
   0  -3  -9    3.86    1.74
   0  -4  -9   -1.08    1.91
   1  -4  -9    1.40    1.51
   2  -4  -9   47.76    2.82
   3  -4  -9   25.34    2.32
   4  -4  -9   33.96    2.45
   5  -4  -9    0.09    1.56
   6  -4  -9    0.29    1.55
   7  -4  -9   13.77    2.14
   7  -5  -9    3.80    2.17
   6  -5  -9    3.08    1.77
   5  -5  -9   18.90    2.40
   4  -5  -9    7.73    1.83
   3  -5  -9    9.42    2.02
   2  -5  -9   18.64    2.33
   1  -5  -9    4.26    2.10
   3  -6  -9   -1.74    1.69
   4  -6  -9    2.02    1.73
   5  -6  -9    2.99    1.69
   6  -6  -9   20.38    2.32
   3  -7  -8    5.28    2.01
   4  -7  -8    3.59    2.16
   5  -7  -8    2.43    1.75
   6  -7  -8    3.15    1.78
   7  -6  -8    9.14    2.30
   6  -6  -8    4.52    1.83
   5  -6  -8    5.13    1.95
   4  -6  -8    0.96    1.65
   3  -6  -8   31.62    2.51
   2  -6  -8    5.56    1.74
   1  -6  -8    5.91    1.92
   0  -5  -8    0.84    1.61
   1  -5  -8   13.67    2.06
   2  -5  -8   -1.74    1.66
   3  -5  -8   36.06    2.42
   4  -5  -8   32.19    2.44
   5  -5  -8   32.15    2.49
   6  -5  -8   -1.59    1.64
   7  -5  -8    0.90    1.62
   8  -5  -8    3.06    2.15
   8  -4  -8   -0.95    2.34
   7  -4  -8    4.12    1.59
   6  -4  -8   -3.35    1.64
   5  -4  -8    3.49    1.51
   4  -4  -8  132.82    4.05
   3  -4  -8   20.18    1.92
   2  -4  -8    8.12    1.60
   1  -4  -8   11.05    1.81
   0  -4  -8    9.13    1.83
   0  -3  -8    1.04    1.37
   1  -3  -8  205.63    4.95
   2  -3  -8  120.68    3.63
   3  -3  -8    1.26    1.54
   4  -3  -8   28.93    2.14
   5  -3  -8   19.76    1.89
   6  -3  -8    5.23    1.45
   7  -3  -8    2.87    1.67
   8  -3  -8    4.03    1.71
   8  -2  -8   -2.87    1.84
   7  -2  -8   -2.19    1.70
   6  -2  -8   -0.49    1.57
   5  -2  -8   -1.58    1.38
   4  -2  -8    2.69    1.23
   3  -2  -8    1.66    1.27
   2  -2  -8  115.32    3.40
   1  -2  -8    0.22    1.34
   0  -2  -8  217.92    4.96
   0  -1  -8  145.37    3.86
   1  -1  -8   11.10    1.64
   2  -1  -8   32.64    2.11
   3  -1  -8    0.92    1.13
   4  -1  -8   39.89    2.11
   5  -1  -8  200.26    4.14
   6  -1  -8    8.03    1.76
   7  -1  -8   59.33    3.07
   8  -1  -8   11.66    2.08
   8   0  -8   57.42    3.62
   7   0  -8    2.77    1.77
   6   0  -8   11.03    1.83
   5   0  -8   10.19    1.70
   4   0  -8   14.21    2.15
   3   0  -8   21.47    1.68
   2   0  -8    2.78    1.27
   1   0  -8    2.54    1.16
   0   0  -8  188.43    4.40
   0   1  -8  115.47    3.29
   1   1  -8   86.39    2.77
   2   1  -8    3.10    1.23
   3   1  -8   56.35    2.36
   4   1  -8   20.17    1.75
   5   1  -8  412.29    6.06
   6   1  -8   55.16    2.79
   7   1  -8    5.05    1.99
   8   1  -8   25.71    2.67
   7   2  -8   -1.20    1.78
   6   2  -8  189.98    4.76
   5   2  -8    1.09    1.55
   4   2  -8   33.93    2.12
   3   2  -8  179.12    3.62
   2   2  -8  235.74    4.15
   1   2  -8  674.16    6.87
   0   2  -8   13.36    1.59
   0   3  -8   21.94    1.77
   1   3  -8    2.38    1.26
   2   3  -8   63.82    2.38
   3   3  -8  238.85    4.36
   4   3  -8  317.42    5.20
   5   3  -8    3.86    1.65
   6   3  -8  109.32    3.83
   7   3  -8    6.43    2.02
   6   4  -8   -0.99    1.76
   5   4  -8    5.01    1.63
   4   4  -8  326.35    5.41
   3   4  -8   95.15    3.05
   2   4  -8    8.98    1.54
   1   4  -8  171.49    3.85
   0   4  -8  386.09    5.50
   0   5  -8   98.04    3.11
   1   5  -8   21.33    1.75
   2   5  -8   28.40    2.09
   3   5  -8   17.19    1.83
   4   5  -8   95.59    3.46
   5   5  -8   16.47    2.04
   6   5  -8   10.06    2.22
   5   6  -8    6.65    1.91
   4   6  -8   26.89    2.30
   3   6  -8    3.52    1.56
   2   6  -8   66.43    2.83
   1   6  -8   52.15    2.54
   0   6  -8   62.76    2.72
   0   7  -8   -0.34    1.62
   1   7  -8   17.05    2.02
   2   7  -8    7.08    1.70
   3   7  -8   37.56    2.60
   4   7  -8   18.45    2.35
   3   8  -8    0.10    1.80
   2   8  -8    9.01    1.80
   1   8  -8    1.12    1.49
   0   8  -8   14.57    2.51
   0   9  -8   10.80    1.94
   1   9  -8    1.66    1.60
   2   9  -8   -0.98    1.87
   0  10  -7    4.99    2.06
   1  10  -7   11.89    2.05
   2   9  -7    8.74    1.80
   1   9  -7   19.36    2.00
   0   9  -7   32.25    2.53
   0   8  -7   30.36    2.43
   1   8  -7    3.86    1.89
   2   8  -7   12.43    1.79
   3   8  -7   26.57    2.29
   4   8  -7   24.56    2.59
   5   7  -7   21.21    2.51
   4   7  -7    3.27    1.82
   3   7  -7   11.93    1.75
   2   7  -7   80.95    3.10
   1   7  -7   42.60    2.50
   0   7  -7   58.72    2.95
   0   6  -7  119.08    3.33
   1   6  -7  164.77    3.92
   2   6  -7  210.35    4.52
   3   6  -7   18.59    1.72
   4   6  -7   44.27    2.80
   5   6  -7   17.10    2.25
   6   5  -7    4.45    1.85
   5   5  -7   55.43    2.87
   4   5  -7   34.24    2.33
   3   5  -7   12.78    1.76
   2   5  -7  263.05    4.47
   1   5  -7   47.53    2.25
   0   5  -7   19.37    1.74
   0   4  -7   71.94    2.44
   1   4  -7   83.51    2.58
   2   4  -7    6.79    1.32
   3   4  -7   64.68    2.54
   4   4  -7  108.14    3.33
   5   4  -7   -1.00    1.50
   6   4  -7   71.30    3.29
   7   4  -7    5.79    2.04
   7   3  -7   34.25    2.70
   6   3  -7    2.38    1.61
   5   3  -7   78.60    2.96
   4   3  -7    3.18    1.22
   3   3  -7    5.18    1.29
   2   3  -7   94.77    2.69
   1   3  -7    3.83    1.05
   0   3  -7  494.35    5.45
   0   2  -7  122.96    2.79
   1   2  -7   60.10    2.10
   2   2  -7   -1.30    0.99
   3   2  -7   80.08    2.48
   4   2  -7  103.72    3.04
   5   2  -7   85.14    3.08
   6   2  -7   54.81    2.73
   7   2  -7   11.74    2.06
   8   2  -7   14.48    2.43
   8   1  -7    0.00    1.96
   7   1  -7  116.97    3.95
   6   1  -7    0.08    1.56
   5   1  -7   31.76    2.03
   4   1  -7   57.52    2.32
   3   1  -7  237.45    3.83
   2   1  -7   94.29    2.68
   1   1  -7  139.15    2.90
   0   1  -7   90.16    2.64
   0   0  -7   52.08    2.75
   1   0  -7  102.81    2.73
   2   0  -7  137.94    2.94
   3   0  -7  191.78    3.44
   4   0  -7  515.05    5.85
   5   0  -7   44.21    2.16
   6   0  -7   91.48    3.21
   7   0  -7   70.07    3.53
   8   0  -7   -2.02    1.91
   8  -1  -7    1.08    1.79
   7  -1  -7   20.02    2.25
   6  -1  -7   37.40    2.28
   5  -1  -7    0.13    1.30
   4  -1  -7   30.48    1.84
   3  -1  -7   18.79    1.47
   2  -1  -7   41.15    1.95
   1  -1  -7    1.40    1.00
   0  -1  -7   21.28    1.51
   0  -2  -7  283.27    4.90
   1  -2  -7   52.62    2.28
   2  -2  -7    6.73    1.14
   3  -2  -7   30.36    1.74
   4  -2  -7   95.42    2.91
   5  -2  -7   65.87    2.53
   6  -2  -7  132.55    3.78
   7  -2  -7   15.26    2.00
   8  -2  -7    7.51    1.97
   9  -3  -7    3.79    1.79
   8  -3  -7   -0.10    1.71
   7  -3  -7    0.00    1.50
   6  -3  -7   12.91    1.76
   5  -3  -7   33.07    2.03
   4  -3  -7   31.66    1.95
   3  -3  -7   26.21    1.81
   2  -3  -7   20.32    1.60
   1  -3  -7    1.66    1.26
   0  -3  -7   33.15    2.32
   0  -4  -7   32.44    2.32
   1  -4  -7    7.45    1.54
   2  -4  -7  199.74    4.45
   3  -4  -7   96.93    3.14
   4  -4  -7   73.95    2.77
   5  -4  -7   80.98    2.98
   6  -4  -7    1.46    1.28
   7  -4  -7    3.12    1.45
   8  -4  -7   12.27    2.21
   8  -5  -7    4.95    2.02
   7  -5  -7   -1.77    1.94
   6  -5  -7    2.32    1.37
   5  -5  -7   -1.05    1.49
   4  -5  -7    4.22    1.54
   3  -5  -7   -0.86    1.37
   2  -5  -7   63.63    2.90
   1  -5  -7   61.07    3.00
   0  -5  -7    1.21    1.68
   0  -6  -7    6.98    1.77
   1  -6  -7    0.77    1.73
   2  -6  -7    2.98    1.56
   3  -6  -7   38.93    2.41
   4  -6  -7   40.58    2.53
   5  -6  -7   76.35    3.27
   6  -6  -7   36.53    2.52
   7  -6  -7    1.29    1.68
   8  -6  -7    2.91    1.72
   7  -7  -7   -1.69    1.96
   6  -7  -7    1.00    1.46
   5  -7  -7    1.84    1.41
   4  -7  -7    0.00    1.54
   3  -7  -7   25.30    2.42
   2  -7  -7    0.81    1.58
   1  -7  -7    1.08    1.55
   3  -8  -7    4.57    1.69
   4  -8  -7   15.67    2.15
   5  -8  -7    2.35    1.65
   6  -8  -7   -1.64    1.64
   4  -9  -6    4.16    1.90
   5  -9  -6    4.06    1.74
   7  -8  -6   13.23    2.20
   6  -8  -6    2.34    1.56
   5  -8  -6   -0.20    1.40
   4  -8  -6   17.88    2.11
   3  -8  -6   24.83    2.20
   2  -8  -6   12.20    2.10
   1  -8  -6    2.53    1.74
   0  -7  -6    2.84    1.62
   1  -7  -6   41.98    2.82
   2  -7  -6    4.75    1.64
   3  -7  -6   19.55    2.18
   4  -7  -6   11.60    1.59
   5  -7  -6    7.37    1.55
   6  -7  -6   19.89    2.18
   7  -7  -6   -0.50    1.58
   8  -7  -6    4.66    1.78
   8  -6  -6    3.38    1.84
   7  -6  -6    1.11    1.61
   6  -6  -6   -0.09    1.74
   5  -6  -6   23.34    1.99
   4  -6  -6   15.06    1.68
   3  -6  -6   71.22    2.92
   2  -6  -6  234.63    5.14
   1  -6  -6   18.88    1.99
   0  -6  -6   13.54    2.06
   0  -5  -6    2.65    1.46
   1  -5  -6   29.16    2.18
   2  -5  -6    0.21    1.32
   3  -5  -6  148.78    3.75
   4  -5  -6   46.38    2.27
   5  -5  -6   28.14    1.97
   6  -5  -6   -0.08    1.48
   7  -5  -6   -0.70    1.56
   8  -5  -6   35.03    2.52
   9  -5  -6    0.33    1.79
   9  -4  -6    1.20    1.80
   8  -4  -6    0.09    1.88
   7  -4  -6    1.84    1.34
   6  -4  -6    3.36    1.31
   5  -4  -6   25.88    1.72
   4  -4  -6    0.32    1.10
   3  -4  -6   57.36    2.24
   2  -4  -6    1.14    1.13
   1  -4  -6  462.96    6.10
   0  -4  -6  171.37    4.07
   0  -3  -6    3.97    1.64
   1  -3  -6   53.01    2.22
   2  -3  -6    3.83    1.13
   3  -3  -6  178.52    3.42
   4  -3  -6   11.43    1.31
   5  -3  -6    5.87    1.22
   6  -3  -6  206.69    4.26
   7  -3  -6    6.68    1.92
   8  -3  -6   25.39    2.39
   9  -3  -6   10.92    2.10
   9  -2  -6    4.25    1.95
   8  -2  -6   23.71    2.43
   7  -2  -6   20.09    1.95
   6  -2  -6   13.21    1.66
   5  -2  -6   62.03    2.40
   4  -2  -6  187.18    3.39
   3  -2  -6  385.60    4.61
   2  -2  -6    5.35    0.97
   1  -2  -6   -1.28    0.94
   0  -2  -6    2.28    1.06
   0  -1  -6   14.41    1.23
   1  -1  -6   36.37    1.65
   2  -1  -6  244.60    3.51
   3  -1  -6   17.51    1.30
   4  -1  -6  469.51    5.15
   5  -1  -6  112.92    3.04
   6  -1  -6  184.10    4.15
   7  -1  -6   51.05    2.77
   8  -1  -6    0.67    1.85
   9  -1  -6    1.78    1.98
   8   0  -6   49.37    2.94
   7   0  -6    7.87    1.86
   6   0  -6  136.16    3.98
   5   0  -6    9.35    1.39
   4   0  -6   13.34    1.38
   3   0  -6  228.52    3.56
   2   0  -6   97.27    2.26
   1   0  -6   16.51    1.27
   0   0  -6   96.96    3.39
   0   1  -6   -1.27    0.83
   1   1  -6    9.11    1.00
   2   1  -6   48.81    1.79
   3   1  -6   94.83    2.54
   4   1  -6    0.33    0.97
   5   1  -6   41.83    2.19
   6   1  -6    9.07    1.64
   7   1  -6    6.29    1.96
   8   1  -6    5.03    1.80
   8   2  -6    5.20    1.93
   7   2  -6    0.46    1.50
   6   2  -6   38.68    2.38
   5   2  -6   64.36    2.64
   4   2  -6  173.02    3.52
   3   2  -6    1.99    0.88
   2   2  -6  147.41    2.86
   1   2  -6   38.19    1.61
   0   2  -6   13.25    1.11
   0   3  -6  114.21    3.11
   1   3  -6  747.97    6.07
   2   3  -6   47.67    1.87
   3   3  -6    7.39    1.35
   4   3  -6   -0.25    1.24
   5   3  -6  183.70    3.89
   6   3  -6   14.36    2.26
   7   3  -6    2.88    1.91
   7   4  -6    2.57    1.88
   6   4  -6   17.36    2.09
   5   4  -6    0.88    1.60
   4   4  -6  294.00    4.73
   3   4  -6  187.63    3.56
   2   4  -6    6.77    1.11
   1   4  -6  138.68    2.84
   0   4  -6  109.17    2.76
   0   5  -6  181.66    3.38
   1   5  -6  228.41    3.78
   2   5  -6    9.79    1.37
   3   5  -6   73.08    2.66
   4   5  -6    2.84    1.35
   5   5  -6   33.30    2.40
   6   5  -6    3.44    1.75
   6   6  -6   -1.67    2.32
   5   6  -6   -0.29    1.81
   4   6  -6    9.44    1.80
   3   6  -6   10.39    1.77
   2   6  -6  247.30    4.38
   1   6  -6  311.14    4.68
   0   6  -6  114.13    3.27
   0   7  -6  251.40    4.50
   1   7  -6   66.47    2.77
   2   7  -6    2.51    1.35
   3   7  -6   11.63    1.87
   4   7  -6   23.55    2.31
   5   7  -6    5.85    2.02
   4   8  -6   27.15    2.45
   3   8  -6   17.88    2.27
   2   8  -6   69.20    3.19
   1   8  -6    4.41    1.63
   0   8  -6  358.89    5.63
   0   9  -6   15.94    2.25
   1   9  -6    4.33    1.83
   2   9  -6   -1.31    1.65
   3   9  -6   26.50    2.70
   1  10  -6    1.38    1.88
   0  10  -6   61.52    3.24
   0  10  -5   13.91    2.48
   1  10  -5   61.53    3.21
   3   9  -5    2.92    1.99
   2   9  -5   12.71    1.97
   1   9  -5  162.15    4.51
   0   9  -5   28.05    2.14
   0   8  -5    1.82    1.34
   1   8  -5    1.92    1.54
   2   8  -5   10.54    1.83
   3   8  -5   -1.81    1.66
   4   8  -5    2.35    1.86
   5   7  -5   35.37    2.70
   4   7  -5   -0.66    1.65
   3   7  -5   81.20    3.21
   2   7  -5   20.99    1.78
   1   7  -5   53.08    2.36
   0   7  -5    5.09    1.43
   0   6  -5   13.06    1.48
   1   6  -5  295.82    4.41
   2   6  -5   74.94    2.74
   3   6  -5   27.62    1.92
   4   6  -5    1.26    1.37
   5   6  -5    4.91    1.77
   6   6  -5    2.55    1.97
   6   5  -5    3.11    1.70
   5   5  -5   61.87    3.61
   4   5  -5    5.72    1.48
   3   5  -5  412.47    5.34
   2   5  -5    7.63    1.22
   1   5  -5  766.04    6.47
   0   5  -5   43.21    2.16
   0   4  -5  883.96    6.39
   1   4  -5    2.21    0.90
   2   4  -5   87.49    2.46
   3   4  -5  355.35    4.60
   4   4  -5   18.52    1.83
   5   4  -5   10.77    1.67
   6   4  -5    5.55    1.80
   7   4  -5    3.30    1.81
   7   3  -5  130.28    4.40
   6   3  -5   64.57    2.87
   5   3  -5   90.11    3.07
   4   3  -5    3.98    1.14
   3   3  -5  281.17    3.88
   2   3  -5   19.87    1.32
   1   3  -5  358.53    3.90
   0   3  -5  943.64    6.27
   0   2  -5   15.28    1.07
   1   2  -5  100.10    2.09
   2   2  -5  678.77    5.28
   3   2  -5   51.96    1.88
   4   2  -5   -0.27    1.02
   5   2  -5   47.23    2.27
   6   2  -5  105.23    3.37
   7   2  -5   23.86    2.45
   8   2  -5    2.15    1.92
   8   1  -5   22.59    2.24
   7   1  -5   18.88    2.06
   6   1  -5   35.45    2.25
   5   1  -5   25.66    1.64
   4   1  -5  484.11    5.04
   3   1  -5   12.71    1.16
   2   1  -5  728.86    5.32
   1   1  -5   63.08    1.81
   0   1  -5 1052.60    6.41
   0   0  -5  434.47    4.32
   1   0  -5 2774.61   44.85
   2   0  -5   50.44    1.67
   3   0  -5    5.06    0.78
   4   0  -5  277.01    3.81
   5   0  -5  170.80    3.55
   6   0  -5    9.33    1.45
   7   0  -5    2.44    1.48
   8   0  -5   39.66    2.69
   9  -1  -5    3.73    1.86
   8  -1  -5    9.50    1.81
   7  -1  -5    5.82    1.52
   6  -1  -5    6.35    1.57
   5  -1  -5  341.79    4.55
   4  -1  -5    2.23    0.77
   3  -1  -5  554.66    4.89
   2  -1  -5   46.93    1.67
   1  -1  -5   11.53    1.00
   0  -1  -5   52.63    1.83
   0  -2  -5   81.97    2.32
   1  -2  -5  975.15    6.72
   2  -2  -5   95.01    2.29
   3  -2  -5  190.02    3.07
   4  -2  -5  108.60    2.68
   5  -2  -5    0.67    0.99
   6  -2  -5   55.37    2.31
   7  -2  -5   47.93    2.60
   8  -2  -5   -1.92    1.79
   9  -2  -5    0.43    1.81
   9  -3  -5    2.65    1.91
   8  -3  -5   -0.82    1.61
   7  -3  -5  171.65    4.29
   6  -3  -5    7.50    1.32
   5  -3  -5    1.05    0.97
   4  -3  -5   99.06    2.60
   3  -3  -5  131.09    2.72
   2  -3  -5   25.12    1.43
   1  -3  -5  328.85    4.28
   0  -3  -5    7.76    1.16
   0  -4  -5  312.28    4.82
   1  -4  -5  129.08    3.07
   2  -4  -5   22.78    1.50
   3  -4  -5  253.74    3.90
   4  -4  -5    1.31    0.93
   5  -4  -5    2.05    1.08
   6  -4  -5   15.07    1.60
   7  -4  -5   22.88    2.07
   8  -4  -5   12.13    2.10
   9  -4  -5    6.59    2.12
   9  -5  -5    9.62    2.05
   8  -5  -5    2.65    1.56
   7  -5  -5    7.15    1.78
   6  -5  -5    9.11    1.50
   5  -5  -5   75.51    2.91
   4  -5  -5    7.72    1.26
   3  -5  -5    1.17    1.04
   2  -5  -5   -0.19    0.99
   1  -5  -5  256.31    4.58
   0  -5  -5    1.32    1.32
   0  -6  -5   32.07    2.25
   1  -6  -5   99.16    3.43
   2  -6  -5   46.15    2.36
   3  -6  -5   71.60    2.70
   4  -6  -5   -0.07    1.05
   5  -6  -5   34.84    2.07
   6  -6  -5   -1.44    1.33
   7  -6  -5    3.08    1.61
   8  -6  -5    2.86    1.84
   9  -6  -5   -0.44    1.95
   8  -7  -5    0.31    1.75
   7  -7  -5    6.23    1.53
   6  -7  -5    0.00    1.49
   5  -7  -5    9.95    1.43
   4  -7  -5    0.40    1.32
   3  -7  -5   62.58    2.70
   2  -7  -5   45.25    2.69
   1  -7  -5   49.31    2.80
   0  -7  -5   -1.24    1.60
   0  -8  -5    3.80    1.70
   1  -8  -5   11.73    1.96
   2  -8  -5   17.47    2.12
   3  -8  -5   97.14    3.72
   4  -8  -5    8.29    1.53
   5  -8  -5    6.05    1.38
   6  -8  -5    2.30    1.46
   7  -8  -5    6.02    1.71
   8  -8  -5   -2.66    1.70
   7  -9  -5   -0.89    1.86
   6  -9  -5    0.95    1.60
   5  -9  -5   -0.20    1.46
   4  -9  -5    5.08    1.77
   3  -9  -5   20.36    2.25
   2  -9  -5    4.73    1.56
   6 -10  -4   -0.33    1.58
   5 -10  -4    0.86    1.57
   4 -10  -4    4.73    1.90
   3 -10  -4    3.38    1.99
   1  -9  -4    3.05    1.41
   2  -9  -4   -1.99    1.59
   3  -9  -4   42.02    2.76
   4  -9  -4    2.56    1.60
   5  -9  -4   14.94    2.21
   6  -9  -4    7.52    1.50
   7  -9  -4    8.52    2.04
   8  -8  -4   10.84    2.03
   7  -8  -4    1.66    1.35
   6  -8  -4   -0.63    1.40
   5  -8  -4    0.77    1.44
   4  -8  -4   63.67    2.88
   3  -8  -4    2.35    1.64
   2  -8  -4   85.55    3.38
   1  -8  -4    4.69    1.76
   0  -8  -4   14.23    1.96
   0  -7  -4    0.43    1.53
   1  -7  -4   78.55    3.23
   2  -7  -4    2.71    1.29
   3  -7  -4   64.73    2.58
   4  -7  -4   22.40    1.67
   5  -7  -4    1.23    1.17
   6  -7  -4    2.97    1.54
   7  -7  -4    0.27    1.51
   8  -7  -4    6.15    1.96
   9  -6  -4   10.26    2.05
   8  -6  -4    3.92    1.53
   7  -6  -4   -1.18    1.50
   6  -6  -4   14.05    1.66
   5  -6  -4   -1.31    1.27
   4  -6  -4   18.45    1.61
   3  -6  -4    0.25    0.94
   2  -6  -4  134.45    3.43
   1  -6  -4   32.80    1.90
   0  -6  -4  136.80    3.90
   0  -5  -4  137.62    3.49
   1  -5  -4  108.26    2.94
   2  -5  -4  231.04    3.88
   3  -5  -4   87.11    2.56
   4  -5  -4   34.93    1.76
   5  -5  -4   43.31    2.09
   6  -5  -4   -1.75    1.28
   7  -5  -4   51.18    2.66
   8  -5  -4    0.64    1.56
   9  -5  -4    5.00    1.87
   9  -4  -4   10.60    2.12
   8  -4  -4   11.24    2.19
   7  -4  -4  124.59    3.75
   6  -4  -4   27.26    1.87
   5  -4  -4    6.63    1.16
   4  -4  -4  110.60    2.80
   3  -4  -4  254.05    3.61
   2  -4  -4   31.63    1.53
   1  -4  -4   82.28    2.36
   0  -4  -4   -1.67    1.45
   0  -3  -4  194.81    3.18
   1  -3  -4  165.94    2.77
   2  -3  -4   25.96    1.30
   3  -3  -4   86.59    2.17
   4  -3  -4   38.25    1.69
   5  -3  -4   76.49    2.37
   6  -3  -4   -0.25    1.14
   7  -3  -4   20.60    2.04
   8  -3  -4   10.35    2.11
   9  -3  -4   -1.37    1.84
   9  -2  -4   -0.75    1.79
   8  -2  -4   31.24    2.36
   7  -2  -4    0.23    1.26
   6  -2  -4   93.54    2.91
   5  -2  -4   96.42    2.62
   4  -2  -4  131.12    2.62
   3  -2  -4   39.87    1.56
   2  -2  -4   52.50    1.72
   1  -2  -4  248.46    3.08
   0  -2  -4  709.47    5.43
   0  -1  -4    2.60    0.79
   1  -1  -4  551.30    4.24
   2  -1  -4   72.66    1.62
   3  -1  -4  129.60    2.27
   4  -1  -4  289.93    3.65
   5  -1  -4    4.14    1.10
   6  -1  -4    6.57    1.34
   7  -1  -4   48.26    2.49
   8  -1  -4    4.99    1.91
   9  -1  -4   17.10    2.40
   8   0  -4   22.30    2.42
   7   0  -4    8.42    1.58
   6   0  -4   29.41    1.97
   5   0  -4  109.86    2.74
   4   0  -4  138.71    2.78
   3   0  -4   81.74    1.83
   2   0  -4  260.62    2.95
   1   0  -4   59.06    1.42
   0   0  -4    9.70    1.28
   0   1  -4  208.47    2.58
   1   1  -4 1063.93    5.62
   2   1  -4  377.85    3.51
   3   1  -4   -0.64    0.83
   4   1  -4   27.53    1.51
   5   1  -4    5.07    1.18
   6   1  -4   -0.49    1.29
   7   1  -4  131.33    3.97
   8   1  -4   11.15    2.14
   8   2  -4    0.43    1.86
   7   2  -4   23.61    2.26
   6   2  -4   54.72    2.57
   5   2  -4   -0.13    1.06
   4   2  -4  577.78    5.56
   3   2  -4  953.77    6.38
   2   2  -4   94.22    1.97
   1   2  -4  524.02    4.09
   0   2  -4 1028.27   25.20
   0   3  -4  360.20    3.57
   1   3  -4    7.40    0.88
   2   3  -4  999.72    6.37
   3   3  -4   23.00    1.38
   4   3  -4    5.03    1.11
   5   3  -4   89.51    3.03
   6   3  -4   20.40    2.05
   7   3  -4    5.21    1.81
   7   4  -4    5.36    1.97
   6   4  -4    5.63    1.76
   5   4  -4   97.84    3.22
   4   4  -4  324.18    4.80
   3   4  -4    1.36    0.90
   2   4  -4  615.26    5.44
   1   4  -4   29.71    1.41
   0   4  -4  105.60    2.26
   0   5  -4    9.01    1.05
   1   5  -4   18.29    1.32
   2   5  -4    6.12    1.20
   3   5  -4    6.72    1.34
   4   5  -4  100.01    3.14
   5   5  -4  129.35    3.99
   6   5  -4   11.56    2.00
   6   6  -4    5.91    2.04
   5   6  -4   -0.29    1.64
   4   6  -4   13.96    1.91
   3   6  -4    4.55    1.53
   2   6  -4  339.25    4.82
   1   6  -4  106.63    2.90
   0   6  -4  570.46    5.65
   0   7  -4   38.06    2.02
   1   7  -4  132.34    3.45
   2   7  -4    0.22    1.29
   3   7  -4  266.36    5.27
   4   7  -4    4.05    1.68
   5   7  -4    2.37    1.58
   4   8  -4    0.75    2.24
   3   8  -4    3.41    1.68
   2   8  -4   55.45    2.76
   1   8  -4    2.26    1.49
   0   8  -4  237.14    4.65
   0   9  -4    1.27    1.47
   1   9  -4   52.84    2.87
   2   9  -4   24.05    2.21
   3   9  -4   44.59    3.00
   2  10  -4    2.90    1.92
   1  10  -4    9.17    1.92
   0  10  -4    5.33    1.65
   0  11  -4   22.46    2.50
   0  11  -3    0.11    1.61
   0  10  -3   19.29    2.26
   1  10  -3    0.93    1.65
   3   9  -3    1.75    1.75
   2   9  -3    4.81    1.84
   1   9  -3   52.10    2.85
   0   9  -3   41.16    2.89
   0   8  -3   97.89    3.18
   1   8  -3  116.53    3.55
   2   8  -3  120.74    3.88
   3   8  -3    5.74    1.77
   4   8  -3   23.69    2.45
   5   7  -3    2.30    1.81
   4   7  -3   16.11    1.96
   3   7  -3   83.63    3.21
   2   7  -3  343.16    5.28
   1   7  -3    2.25    1.22
   0   7  -3   22.28    1.65
   0   6  -3    8.02    1.19
   1   6  -3    0.34    0.90
   2   6  -3   87.93    2.78
   3   6  -3  285.08    4.84
   4   6  -3  111.34    3.73
   5   6  -3   -2.73    1.70
   6   5  -3    6.23    1.84
   5   5  -3   10.06    1.93
   4   5  -3   56.78    2.61
   3   5  -3   38.37    1.94
   2   5  -3  208.71    3.46
   1   5  -3  152.44    2.79
   0   5  -3  284.98    3.58
   0   4  -3 1075.88   27.56
   1   4  -3  206.04    2.90
   2   4  -3   86.29    2.26
   3   4  -3   76.75    2.38
   4   4  -3   55.88    2.27
   5   4  -3   44.93    2.38
   6   4  -3    0.83    1.45
   7   4  -3   -2.29    1.76
   7   3  -3   26.13    2.44
   6   3  -3    3.17    1.65
   5   3  -3  138.22    3.59
   4   3  -3  160.01    3.18
   3   3  -3    9.05    1.34
   2   3  -3  240.77    3.11
   1   3  -3  340.51    3.37
   0   3  -3   46.88    1.91
   0   2  -3 2878.32   35.05
   1   2  -3 1747.19   28.09
   2   2  -3  797.75    5.05
   3   2  -3   -0.04    0.73
   4   2  -3    3.15    0.84
   5   2  -3   30.96    1.83
   6   2  -3  166.60    4.12
   7   2  -3   26.37    2.44
   8   2  -3   -2.52    2.00
   8   1  -3    9.86    2.18
   7   1  -3    3.67    1.75
   6   1  -3    2.11    1.25
   5   1  -3   40.57    1.90
   4   1  -3  396.10    4.30
   3   1  -3  350.74    3.57
   2   1  -3  318.71    3.01
   1   1  -3    6.87    0.66
   0   1  -3  279.68    2.56
   0   0  -3   56.58    1.78
   1   0  -3  812.55    4.26
   2   0  -3  563.48    3.83
   3   0  -3   37.03    1.71
   4   0  -3    2.54    0.79
   5   0  -3   11.05    1.28
   6   0  -3   87.41    2.90
   7   0  -3   41.19    2.72
   8   0  -3   43.48    2.75
   9  -1  -3    3.66    2.09
   8  -1  -3    2.23    1.75
   7  -1  -3    9.08    1.67
   6  -1  -3  153.65    3.60
   5  -1  -3   84.80    2.49
   4  -1  -3  310.58    3.60
   3  -1  -3  758.89    4.94
   2  -1  -3  169.70    2.17
   1  -1  -3  328.83    2.85
   0  -1  -3  733.46    4.49
   0  -2  -3   95.96    1.89
   1  -2  -3 1302.71   27.04
   2  -2  -3  439.03    3.63
   3  -2  -3  707.67    4.92
   4  -2  -3  153.68    2.59
   5  -2  -3   25.78    1.54
   6  -2  -3   88.47    2.72
   7  -2  -3   71.61    2.72
   8  -2  -3    1.53    1.66
   9  -2  -3    6.12    1.77
   9  -3  -3    1.27    1.92
   8  -3  -3    4.45    1.69
   7  -3  -3    5.36    1.60
   6  -3  -3   69.08    2.49
   5  -3  -3  107.27    2.68
   4  -3  -3   33.68    1.60
   3  -3  -3   30.19    1.68
   2  -3  -3   52.28    1.55
   1  -3  -3    3.70    0.76
   0  -3  -3  213.46    3.19
   0  -4  -3    0.82    0.72
   1  -4  -3   84.56    2.22
   2  -4  -3    1.16    0.52
   3  -4  -3  154.39    2.64
   4  -4  -3  206.10    3.26
   5  -4  -3  148.69    3.03
   6  -4  -3    1.92    1.06
   7  -4  -3   13.44    1.63
   8  -4  -3   68.05    3.23
   9  -4  -3   14.06    2.35
   9  -5  -3    5.19    1.96
   8  -5  -3   25.28    2.37
   7  -5  -3   -1.72    1.38
   6  -5  -3   36.91    2.06
   5  -5  -3    2.19    0.99
   4  -5  -3    4.62    1.11
   3  -5  -3  194.97    3.25
   2  -5  -3    0.30    0.79
   1  -5  -3    8.66    1.07
   0  -5  -3    2.19    0.94
   0  -6  -3   39.96    2.13
   1  -6  -3   11.96    1.30
   2  -6  -3   77.49    2.44
   3  -6  -3   67.28    2.36
   4  -6  -3    8.62    1.29
   5  -6  -3    6.06    1.32
   6  -6  -3   59.47    3.14
   7  -6  -3    4.69    1.62
   8  -6  -3   29.29    2.55
   9  -6  -3    0.43    1.94
   8  -7  -3   16.31    2.37
   7  -7  -3    2.63    1.50
   6  -7  -3    1.34    1.47
   5  -7  -3   47.95    2.38
   4  -7  -3    0.76    1.19
   3  -7  -3   69.44    2.54
   2  -7  -3   39.72    2.11
   1  -7  -3  128.82    3.57
   0  -7  -3   17.75    1.91
   0  -8  -3   27.98    2.26
   1  -8  -3  132.41    3.93
   2  -8  -3   39.26    2.45
   3  -8  -3   -1.64    1.32
   4  -8  -3  228.28    4.62
   5  -8  -3   33.15    2.17
   6  -8  -3   14.17    1.78
   7  -8  -3   -1.04    1.54
   8  -8  -3   30.87    2.61
   7  -9  -3    0.21    1.60
   6  -9  -3    2.12    1.41
   5  -9  -3    7.14    1.68
   4  -9  -3    4.74    1.56
   3  -9  -3   47.48    2.67
   2  -9  -3    2.87    1.54
   1  -9  -3    0.10    1.56
   0  -9  -3   13.92    2.40
   2 -10  -3    7.44    1.89
   3 -10  -3   19.00    2.38
   4 -10  -3   25.82    2.40
   5 -10  -3   -1.03    1.54
   6 -10  -3   17.08    2.43
   3 -11  -2    2.45    1.54
   4 -11  -2   13.78    2.11
   5 -11  -2   24.41    2.70
   7 -10  -2   -1.22    1.65
   6 -10  -2    3.32    1.71
   5 -10  -2   26.46    2.50
   4 -10  -2    5.83    1.66
   3 -10  -2   23.99    2.33
   2 -10  -2    5.82    1.49
   1 -10  -2    0.63    1.72
   0  -9  -2   13.52    2.05
   1  -9  -2   14.75    1.94
   2  -9  -2   10.96    1.88
   3  -9  -2   39.88    2.42
   4  -9  -2   33.74    2.31
   5  -9  -2    0.18    1.39
   6  -9  -2   -0.75    1.46
   7  -9  -2    6.77    1.97
   8  -9  -2    1.89    1.84
   8  -8  -2   43.36    3.20
   7  -8  -2   10.61    1.95
   6  -8  -2    4.05    1.53
   5  -8  -2    6.65    1.44
   4  -8  -2    1.64    1.11
   3  -8  -2   59.31    2.61
   2  -8  -2   -0.37    1.09
   1  -8  -2    9.69    1.46
   0  -8  -2    7.07    1.68
   0  -7  -2   60.72    2.59
   1  -7  -2    2.28    1.03
   2  -7  -2   60.05    2.36
   3  -7  -2   13.57    1.55
   4  -7  -2   22.16    1.73
   5  -7  -2   48.10    2.29
   6  -7  -2   -0.69    1.44
   7  -7  -2   10.98    2.06
   8  -7  -2  131.25    4.41
   9  -6  -2   10.01    2.05
   8  -6  -2    9.49    1.90
   7  -6  -2    0.16    1.61
   6  -6  -2  415.49    5.86
   5  -6  -2    7.34    1.36
   4  -6  -2   51.06    2.09
   3  -6  -2   45.68    1.92
   2  -6  -2  133.11    3.03
   1  -6  -2    9.19    1.20
   0  -6  -2   10.18    1.21
   0  -5  -2    2.01    0.86
   1  -5  -2  338.25    4.04
   2  -5  -2    1.16    0.74
   3  -5  -2   12.48    1.09
   4  -5  -2    3.61    1.21
   5  -5  -2   22.28    1.62
   6  -5  -2  401.26    5.50
   7  -5  -2   62.70    2.82
   8  -5  -2   10.94    1.97
   9  -5  -2    1.39    1.78
   9  -4  -2    2.76    1.85
   8  -4  -2    4.13    1.67
   7  -4  -2    0.23    1.47
   6  -4  -2   -1.07    1.04
   5  -4  -2   75.88    2.38
   4  -4  -2 2675.11   48.38
   3  -4  -2    0.47    0.66
   2  -4  -2   28.68    1.33
   1  -4  -2  257.58    3.18
   0  -4  -2   15.10    1.15
   0  -3  -2   22.99    1.12
   1  -3  -2   34.24    1.23
   2  -3  -2    7.85    0.73
   3  -3  -2  357.04    3.55
   4  -3  -2  854.13    5.97
   5  -3  -2   19.48    1.37
   6  -3  -2    2.59    1.02
   7  -3  -2   64.30    2.76
   8  -3  -2    0.00    1.53
   9  -3  -2    5.36    1.79
   9  -2  -2   -0.33    2.00
   8  -2  -2    4.58    1.64
   7  -2  -2   69.99    2.82
   6  -2  -2   28.11    1.76
   5  -2  -2  102.55    2.62
   4  -2  -2   34.55    1.55
   3  -2  -2    4.00    0.75
   2  -2  -2 1164.08   23.40
   1  -2  -2  682.02    3.99
   0  -2  -2  398.89    3.27
   0  -1  -2  513.02    3.28
   1  -1  -2 1537.61   22.21
   2  -1  -2   18.40    0.81
   3  -1  -2    4.30    0.75
   4  -1  -2  458.14    4.30
   5  -1  -2   26.53    1.60
   6  -1  -2    0.19    1.18
   7  -1  -2   -0.62    1.38
   8  -1  -2   22.44    2.27
   8   0  -2   38.41    2.82
   7   0  -2   18.13    1.84
   6   0  -2   -0.87    1.18
   5   0  -2  355.83    4.49
   4   0  -2   46.31    1.69
   3   0  -2 1927.46   33.65
   2   0  -2  854.15   19.00
   1   0  -2 1206.36   18.68
   0   0  -2  264.48    2.13
   0   1  -2  266.08    2.19
   1   1  -2   11.46    0.65
   2   1  -2    1.71    0.84
   3   1  -2    2.76    0.67
   4   1  -2  132.11    2.57
   5   1  -2    2.70    1.18
   6   1  -2  101.49    3.25
   7   1  -2   48.51    2.74
   8   1  -2    6.74    2.06
   7   2  -2   12.53    1.98
   6   2  -2    1.56    1.43
   5   2  -2    3.10    1.08
   4   2  -2  214.85    3.46
   3   2  -2   38.63    1.44
   2   2  -2  229.15    2.69
   1   2  -2    2.08    0.84
   0   2  -2 3049.56   31.76
   0   3  -2  257.25    2.70
   1   3  -2  342.69    3.25
   2   3  -2  232.27    2.98
   3   3  -2  507.11    4.92
   4   3  -2    0.46    0.95
   5   3  -2   17.20    1.61
   6   3  -2   86.85    3.46
   7   3  -2    2.97    1.62
   6   4  -2   27.22    2.35
   5   4  -2   88.94    3.27
   4   4  -2  132.22    3.49
   3   4  -2    4.32    1.03
   2   4  -2  168.17    2.95
   1   4  -2    0.67    0.75
   0   4  -2   12.13    1.03
   0   5  -2  240.23    3.24
   1   5  -2   29.16    1.43
   2   5  -2   17.65    1.42
   3   5  -2  568.43    6.23
   4   5  -2  111.30    3.39
   5   5  -2    0.27    1.45
   6   5  -2    4.30    1.72
   5   6  -2   -1.10    1.68
   4   6  -2   12.52    1.95
   3   6  -2  110.06    3.42
   2   6  -2  147.97    3.45
   1   6  -2  249.98    3.87
   0   6  -2  856.02    6.67
   0   7  -2   19.40    1.46
   1   7  -2  214.70    4.23
   2   7  -2   62.44    2.68
   3   7  -2   27.79    2.27
   4   7  -2    0.98    1.56
   4   8  -2    3.88    1.92
   3   8  -2    2.64    1.73
   2   8  -2    6.15    1.50
   1   8  -2  206.94    4.55
   0   8  -2  215.54    4.20
   0   9  -2   24.00    2.17
   1   9  -2    1.82    1.59
   2   9  -2    5.50    1.77
   3   9  -2    1.23    1.83
   1  10  -2   -0.94    1.82
   0  10  -2    0.78    1.49
   0  10  -1   14.91    2.09
   1  10  -1   -1.18    1.73
   2   9  -1    3.71    1.60
   1   9  -1    0.65    1.33
   0   9  -1    6.51    1.58
   0   8  -1    1.46    1.37
   1   8  -1    9.45    1.50
   2   8  -1    9.47    1.89
   3   8  -1    1.62    1.65
   4   7  -1   12.86    2.26
   3   7  -1   58.06    2.88
   2   7  -1   24.91    1.97
   1   7  -1    0.89    1.18
   0   7  -1  350.48    4.79
   0   6  -1    4.19    1.05
   1   6  -1    9.59    1.25
   2   6  -1   24.24    1.89
   3   6  -1    2.13    1.38
   4   6  -1   55.54    2.79
   5   6  -1    3.95    1.62
   6   5  -1    0.33    1.76
   5   5  -1    2.68    1.63
   4   5  -1   66.05    2.78
   3   5  -1  303.62    4.82
   2   5  -1  248.96    3.86
   1   5  -1   19.54    1.26
   0   5  -1  143.57    2.55
   0   4  -1  946.46    5.59
   1   4  -1   97.73    2.01
   2   4  -1    0.73    0.81
   3   4  -1  237.80    3.78
   4   4  -1    0.07    1.32
   5   4  -1   11.84    1.84
   6   4  -1    2.16    1.63
   7   3  -1    2.02    1.67
   6   3  -1    1.25    1.65
   5   3  -1  230.75    4.62
   4   3  -1  238.27    3.94
   3   3  -1    0.33    0.74
   2   3  -1 1000.48    6.16
   1   3  -1 2371.79   36.69
   0   3  -1 1735.57   28.50
   0   2  -1 1375.99   20.45
   1   2  -1  733.80   17.75
   2   2  -1  579.94    4.21
   3   2  -1  740.43    5.55
   4   2  -1   33.42    1.71
   5   2  -1    8.55    1.31
   6   2  -1   88.86    3.31
   7   2  -1    7.14    1.89
   8   1  -1    2.95    1.62
   7   1  -1    0.45    1.68
   6   1  -1    3.71    1.39
   5   1  -1    3.99    1.12
   4   1  -1  260.31    3.59
   3   1  -1 1050.53    6.07
   2   1  -1   43.90    1.17
   1   1  -1  261.71    2.01
   0   1  -1 2219.61   20.07
   0   0  -1  659.58    9.51
   1   0  -1  108.32    1.25
   2   0  -1  712.78   16.66
   3   0  -1  637.85    4.45
   4   0  -1  553.20    4.88
   5   0  -1   98.21    2.73
   6   0  -1    8.35    1.60
   7   0  -1   11.63    1.93
   8   0  -1   21.27    2.42
   8  -1  -1    3.81    1.75
   7  -1  -1   23.13    2.09
   6  -1  -1   42.30    2.17
   5  -1  -1  237.29    3.71
   4  -1  -1   24.12    1.30
   3  -1  -1  161.79    2.24
   2  -1  -1 3333.91   32.98
   1  -1  -1 2067.96   21.34
   0  -1  -1  311.77    2.07
   0  -2  -1  719.75    3.86
   1  -2  -1    4.20    0.48
   2  -2  -115000.13   55.58
   3  -2  -1  109.90    1.89
   4  -2  -1   36.56    1.48
   5  -2  -1  193.74    3.25
   6  -2  -1   -1.77    1.16
   7  -2  -1    4.51    1.31
   8  -2  -1    1.04    1.58
   9  -3  -1   11.55    2.04
   8  -3  -1   28.87    2.33
   7  -3  -1   24.77    2.05
   6  -3  -1   25.41    1.81
   5  -3  -1  106.44    2.62
   4  -3  -1  495.90    4.54
   3  -3  -1  397.29    3.67
   2  -3  -1  640.46    4.19
   1  -3  -1  187.70    2.26
   0  -3  -1   87.73    1.64
   0  -4  -1 2247.11   40.27
   1  -4  -1  284.14    3.15
   2  -4  -1  201.58    2.62
   3  -4  -1   93.65    2.11
   4  -4  -1 1784.80    8.92
   5  -4  -1   -0.16    1.05
   6  -4  -1    8.66    1.51
   7  -4  -1   38.18    2.30
   8  -4  -1    5.13    1.67
   9  -4  -1    0.44    1.80
   9  -5  -1    4.03    1.87
   8  -5  -1    0.65    1.56
   7  -5  -1    1.33    1.34
   6  -5  -1  107.13    3.21
   5  -5  -1   38.70    1.96
   4  -5  -1   64.07    2.08
   3  -5  -1   -0.26    0.68
   2  -5  -1   67.66    1.91
   1  -5  -1    3.39    0.81
   0  -5  -1  131.88    2.71
   0  -6  -1    3.75    0.98
   1  -6  -1  352.03    4.48
   2  -6  -1  212.26    3.36
   3  -6  -1  191.90    3.28
   4  -6  -1   -1.98    0.85
   5  -6  -1   82.27    2.59
   6  -6  -1  297.00    4.86
   7  -6  -1   47.14    2.71
   8  -6  -1    0.86    1.59
   9  -6  -1    2.10    1.74
   8  -7  -1    1.48    1.82
   7  -7  -1    2.51    1.81
   6  -7  -1    7.24    1.51
   5  -7  -1    7.59    1.30
   4  -7  -1   46.62    2.07
   3  -7  -1  216.76    3.73
   2  -7  -1   61.16    2.34
   1  -7  -1    5.38    1.15
   0  -7  -1   23.94    1.68
   0  -8  -1   40.65    2.27
   1  -8  -1   11.78    1.43
   2  -8  -1   28.38    1.77
   3  -8  -1   20.11    1.64
   4  -8  -1   31.45    2.00
   5  -8  -1   13.83    1.58
   6  -8  -1    3.25    1.30
   7  -8  -1    4.72    1.56
   8  -8  -1   27.00    2.53
   8  -9  -1    2.33    1.71
   7  -9  -1    2.11    1.40
   6  -9  -1    2.02    1.32
   5  -9  -1   53.90    2.71
   4  -9  -1   16.04    1.58
   3  -9  -1    0.16    1.38
   2  -9  -1   -0.91    1.31
   1  -9  -1   22.96    2.11
   0  -9  -1    1.02    1.38
   0 -10  -1   19.44    2.24
   1 -10  -1    0.30    1.62
   2 -10  -1   16.95    2.07
   3 -10  -1   33.30    2.33
   4 -10  -1   43.52    2.74
   5 -10  -1    1.06    1.49
   6 -10  -1    1.73    1.63
   7 -10  -1    5.79    1.91
   5 -11  -1   24.74    2.54
   4 -11  -1   -1.39    1.86
   3 -11  -1    6.21    1.73
   2 -11  -1    2.97    1.76
   1 -11   0    2.00    1.46
   2 -11   0   18.39    2.30
   3 -11   0    1.14    1.57
   4 -11   0   31.90    2.59
   5 -11   0   -1.82    1.66
   7 -10   0   -1.75    1.68
   6 -10   0    1.92    1.55
   5 -10   0   -0.95    1.64
   4 -10   0   47.10    2.80
   3 -10   0   12.99    2.00
   2 -10   0    0.74    1.36
   1 -10   0    6.75    1.68
   0 -10   0    1.34    2.02
   0  -9   0   70.00    3.26
   1  -9   0    0.33    1.23
   2  -9   0   22.15    1.90
   3  -9   0    6.78    1.42
   4  -9   0   34.19    2.25
   5  -9   0    2.29    1.45
   6  -9   0    5.50    1.75
   7  -9   0   -1.31    1.52
   8  -8   0    5.92    1.78
   7  -8   0    9.54    1.67
   6  -8   0   17.54    1.87
   5  -8   0    0.68    1.31
   4  -8   0    4.24    1.40
   3  -8   0   17.09    1.54
   2  -8   0   35.13    2.00
   1  -8   0    8.69    1.42
   0  -8   0    2.81    2.05
   0  -7   0   14.41    2.39
   1  -7   0  104.05    2.93
   2  -7   0  185.76    3.42
   3  -7   0   16.25    1.40
   4  -7   0    4.03    1.18
   5  -7   0   22.73    1.76
   6  -7   0    6.15    1.43
   7  -7   0    1.93    1.48
   8  -7   0    0.71    1.85
   8  -6   0    5.06    1.83
   7  -6   0    3.17    1.63
   6  -6   0    2.65    1.58
   5  -6   0   10.60    1.27
   4  -6   0  361.76    4.56
   3  -6   0    2.00    1.06
   2  -6   0    8.69    1.01
   1  -6   0   41.87    1.77
   0  -6   0  165.70    4.67
   0  -5   0  892.82    6.61
   1  -5   0  457.88    4.33
   2  -5   0  141.25    2.47
   3  -5   0   14.68    1.14
   4  -5   0    8.85    1.07
   5  -5   0   22.07    2.50
   6  -5   0   -1.76    1.22
   7  -5   0    4.51    1.57
   8  -5   0    8.11    1.74
   8  -4   0    1.90    2.03
   7  -4   0    1.74    1.49
   6  -4   0   16.34    1.56
   5  -4   0   37.74    1.83
   4  -4   0  527.51    5.10
   3  -4   0   59.45    1.74
   2  -4   0  241.88    2.85
   1  -4   0 1028.78    5.70
   0  -4   0  253.39    3.85
   0  -3   0  542.89    4.03
   1  -3   0 1320.83   24.50
   2  -3   0   -0.64    0.77
   3  -3   0  249.62    4.01
   4  -3   0  800.39    5.84
   5  -3   0   15.80    1.33
   6  -3   0  153.68    3.60
   7  -3   0    3.18    1.61
   8  -3   0    0.29    1.62
   8  -2   0   10.91    2.12
   7  -2   0   30.44    2.30
   6  -2   0   32.27    1.96
   5  -2   0   76.37    2.37
   4  -2   0   58.66    1.90
   3  -2   0    3.94    0.71
   2  -2   019000.03   60.50
   1  -2   0  518.02   12.83
   0  -2   0  110.96    1.73
   0  -1   0  716.57   10.51
   1  -1   0  742.25   13.37
   2  -1   0  753.01   16.85
   3  -1   0   12.88    0.91
   4  -1   0   73.60    2.03
   5  -1   0  107.03    2.83
   6  -1   0   35.30    2.01
   7  -1   0   20.51    2.08
   8  -1   0    0.00    1.92
   8   0   0    4.94    2.12
   7   0   0   17.28    2.04
   6   0   0    1.16    1.37
   5   0   0    8.75    1.61
   4   0   0   91.32    2.32
   3   0   0    3.38    0.82
   2   0   0   33.71    1.13
   1   0   0 1249.38   15.48
   0   1   0  708.64   10.36
   1   1   0 1392.49   20.30
   2   1   0    8.91    0.72
   3   1   0  301.38    3.47
   4   1   0   11.76    1.18
   5   1   0   98.83    2.90
   6   1   0    9.70    1.64
   7   1   0   24.86    2.32
   7   2   0   11.82    2.18
   6   2   0   81.88    3.26
   5   2   0    3.13    1.16
   4   2   0   62.92    2.29
   3   2   0  287.02    3.62
   2   2   0    6.18    0.99
   1   2   0   15.65    0.88
   0   2   0   99.03    1.78
   0   3   0  531.15    3.97
   1   3   0  296.09    3.14
   2   3   0  363.83    3.88
   3   3   0   24.54    1.62
   4   3   0    5.12    1.25
   5   3   0   93.75    3.32
   6   3   0   19.65    2.33
   6   4   0    3.31    1.65
   5   4   0   58.96    2.88
   4   4   0  514.48    6.57
   3   4   0  245.64    3.98
   2   4   0  143.66    2.90
   1   4   0  474.33    4.43
   0   4   0  257.68    3.80
   0   5   0  879.53    6.60
   1   5   0   90.80    2.46
   2   5   0   99.00    2.79
   3   5   0    1.04    1.36
   4   5   0   21.95    2.02
   5   5   0   -3.70    3.05
   5   6   0    3.38    2.07
   4   6   0    0.94    1.62
   3   6   0    7.45    1.67
   2   6   0  188.71    4.10
   1   6   0   18.56    1.57
   0   6   0  158.74    4.68
   0   7   0    9.48    2.41
   1   7   0    7.75    1.39
   2   7   0   54.62    2.65
   3   7   0   24.45    2.26
   4   7   0    8.18    1.78
   3   8   0   19.43    2.52
   2   8   0   28.57    2.61
   1   8   0   18.77    1.93
   0   8   0    4.02    1.95
   0   9   0   68.67    3.23
   1   9   0    3.20    1.39
   2   9   0   -0.75    1.74
   1  10   0    5.24    1.87
   0  10   0   -0.62    1.87
   0  10   1   20.09    2.16
   1   9   1    1.63    1.63
   0   9   1   -0.84    1.50
   0   8   1   42.33    2.34
   1   8   1    2.91    1.47
   2   8   1    3.55    1.51
   3   8   1   -0.56    1.89
   3   7   1    1.08    1.60
   2   7   1   37.20    2.50
   1   7   1    5.44    1.44
   0   7   1   20.14    1.58
   0   6   1    3.35    1.00
   1   6   1   43.15    2.05
   2   6   1   24.58    1.86
   3   6   1    5.72    1.66
   4   6   1   10.14    1.79
   5   5   1    1.65    1.55
   4   5   1   18.86    2.07
   3   5   1   78.23    2.92
   2   5   1  206.31    3.85
   1   5   1   10.76    1.12
   0   5   1  127.69    2.68
   0   4   1 2210.19   39.88
   1   4   1  475.44    4.63
   2   4   1   94.08    2.59
   3   4   1  342.88    4.92
   4   4   1   40.06    2.32
   5   4   1   13.87    2.23
   6   4   1   11.84    2.06
   6   3   1    0.50    1.56
   5   3   1   24.04    2.11
   4   3   1  270.50    4.57
   3   3   1  144.45    3.20
   2   3   1  114.53    2.53
   1   3   1    3.09    0.66
   0   3   1   79.52    1.58
   0   2   1  685.21    3.77
   1   2   1 1111.00   24.08
   2   2   1  425.38    4.01
   3   2   1    3.30    1.02
   4   2   1  107.42    2.96
   5   2   1  113.92    3.50
   6   2   1    5.27    1.86
   7   2   1    0.44    1.62
   7   1   1   18.59    2.28
   6   1   1  158.80    4.37
   5   1   1   50.49    2.30
   4   1   1  177.86    3.28
   3   1   1  517.62    4.72
   2   1   1  346.50    3.30
   1   1   1  730.12    3.93
   0   1   1  291.62    2.00
   0   0   1  624.21    9.34
   1   0   1 1434.54   20.44
   2   0   1   86.82    1.56
   3   0   1 1119.59    6.46
   4   0   1  245.18    3.61
   5   0   1    3.19    1.09
   6   0   1  170.84    4.22
   7   0   1   81.30    3.58
   8  -1   1    3.02    1.86
   7  -1   1    1.34    1.69
   6  -1   1    9.95    1.63
   5  -1   1   -0.94    1.11
   4  -1   1    6.78    1.08
   3  -1   1   39.67    1.44
   2  -1   1  308.63    2.74
   1  -1   1 1503.09   19.90
   0  -1   1 2251.45   20.55
   0  -2   1 1423.15   19.96
   1  -2   1  118.21    1.49
   2  -2   1  120.56    1.39
   3  -2   1  144.92    2.28
   4  -2   1    0.04    0.83
   5  -2   1   -0.51    1.00
   6  -2   1    0.56    1.31
   7  -2   1    7.30    1.55
   8  -2   1   17.80    2.31
   8  -3   1    3.83    1.72
   7  -3   1    1.51    1.35
   6  -3   1    4.82    1.28
   5  -3   1    2.34    1.02
   4  -3   1  418.88    4.39
   3  -3   1  438.04    3.96
   2  -3   1  548.78    3.92
   1  -3   1 1628.10   25.59
   0  -3   1 1867.64   28.10
   0  -4   1  924.98    5.53
   1  -4   1   62.47    1.53
   2  -4   1  805.56    5.17
   3  -4   1   29.01    1.32
   4  -4   1    6.12    1.03
   5  -4   1   15.37    1.42
   6  -4   1   60.21    2.47
   7  -4   1    6.90    1.56
   8  -4   1    7.65    1.87
   8  -5   1   -1.19    1.79
   7  -5   1   39.00    2.41
   6  -5   1   27.94    1.79
   5  -5   1    1.66    1.03
   4  -5   1   57.15    2.04
   3  -5   1   10.21    1.04
   2  -5   1   24.39    1.25
   1  -5   1  497.52    4.45
   0  -5   1  154.02    2.65
   0  -6   1    4.19    1.07
   1  -6   1    1.96    0.79
   2  -6   1   43.79    1.75
   3  -6   1  134.71    2.94
   4  -6   1   67.85    2.32
   5  -6   1   70.38    2.51
   6  -6   1   21.02    1.88
   7  -6   1   19.88    2.08
   8  -6   1   -1.31    1.69
   8  -7   1   -0.52    1.75
   7  -7   1    1.99    1.48
   6  -7   1   -0.79    1.34
   5  -7   1    0.77    1.18
   4  -7   1    6.70    1.19
   3  -7   1   43.82    2.07
   2  -7   1   32.21    1.71
   1  -7   1  163.42    3.25
   0  -7   1  362.56    4.88
   0  -8   1    3.80    1.34
   1  -8   1   19.01    1.67
   2  -8   1  153.58    3.58
   3  -8   1   33.95    2.10
   4  -8   1    8.79    1.43
   5  -8   1    8.67    1.51
   6  -8   1    5.19    1.53
   7  -8   1    5.84    1.64
   8  -8   1    2.28    1.77
   7  -9   1    3.07    1.84
   6  -9   1   26.33    2.30
   5  -9   1    4.61    1.60
   4  -9   1    1.45    1.34
   3  -9   1    1.64    1.33
   2  -9   1   62.28    2.69
   1  -9   1    4.51    1.55
   0  -9   1    5.74    1.73
   0 -10   1   16.60    2.13
   1 -10   1   73.87    3.24
   2 -10   1   21.68    2.18
   3 -10   1   11.36    1.74
   4 -10   1    6.65    1.80
   5 -10   1    2.29    1.48
   6 -10   1    3.87    1.70
   7 -10   1    1.88    1.87
   5 -11   1   -0.11    1.82
   4 -11   1   11.45    1.92
   3 -11   1    1.64    1.66
   2 -11   1    8.21    1.91
   1 -11   1    2.05    1.72
   1 -11   2   27.15    2.52
   2 -11   2    6.68    2.03
   3 -11   2   15.58    2.09
   4 -11   2   21.08    2.40
   5 -11   2    3.33    1.82
   6 -10   2   12.54    2.05
   5 -10   2   -0.10    1.69
   4 -10   2   14.31    2.14
   3 -10   2    5.90    1.71
   2 -10   2  113.28    3.91
   1 -10   2   37.70    2.57
   0 -10   2    0.00    1.67
   0  -9   2   24.00    2.06
   1  -9   2    2.78    1.36
   2  -9   2   44.15    2.42
   3  -9   2   14.55    1.60
   4  -9   2   13.02    1.73
   5  -9   2   25.76    2.07
   6  -9   2    2.28    1.65
   7  -9   2    9.60    1.97
   7  -8   2   -0.20    1.62
   6  -8   2    2.46    1.62
   5  -8   2   14.21    1.75
   4  -8   2   16.21    1.69
   3  -8   2   27.11    1.89
   2  -8   2   91.52    2.94
   1  -8   2  174.93    3.66
   0  -8   2  229.03    4.30
   0  -7   2   16.31    1.65
   1  -7   2  184.67    3.43
   2  -7   2   11.88    1.33
   3  -7   2    2.50    1.03
   4  -7   2   24.43    1.73
   5  -7   2   12.49    1.52
   6  -7   2    4.35    1.52
   7  -7   2   -0.85    1.81
   8  -7   2    4.56    1.88
   8  -6   2    1.48    1.79
   7  -6   2   -4.27    1.71
   6  -6   2   -1.24    1.47
   5  -6   2    4.08    1.22
   4  -6   2   14.51    1.28
   3  -6   2   11.25    1.13
   2  -6   2  117.57    2.58
   1  -6   2   46.90    1.85
   0  -6   2  885.99    6.77
   0  -5   2  239.90    3.23
   1  -5   2   77.92    2.01
   2  -5   2    1.15    0.75
   3  -5   2    0.09    0.84
   4  -5   2    6.09    1.14
   5  -5   2    2.02    1.09
   6  -5   2    2.62    1.30
   7  -5   2   25.04    2.32
   8  -5   2   10.27    2.17
   8  -4   2    6.83    1.85
   7  -4   2    2.21    1.53
   6  -4   2   12.37    1.61
   5  -4   2    9.50    1.36
   4  -4   2   11.02    1.26
   3  -4   2 1299.70    7.41
   2  -4   2   30.79    1.36
   1  -4   2    0.99    0.61
   0  -4   2    8.83    1.07
   0  -3   2  254.51    2.72
   1  -3   2 2556.72   34.05
   2  -3   2    3.09    0.87
   3  -3   2  635.53    5.03
   4  -3   2    3.64    0.89
   5  -3   2  343.04    4.72
   6  -3   2   19.50    1.82
   7  -3   2    3.31    1.78
   8  -3   2    0.75    1.70
   8  -2   2    2.97    2.16
   7  -2   2   31.04    2.55
   6  -2   2   48.96    2.39
   5  -2   2    5.77    1.23
   4  -2   2  109.75    2.55
   3  -2   2    2.82    0.78
   2  -2   2  167.71    2.30
   1  -2   2 3377.16   35.73
   0  -2   2 2894.18   31.07
   0  -1   2  256.39    2.17
   1  -1   2 2605.57   30.10
   2  -1   2  400.74    3.45
   3  -1   2  101.42    2.13
   4  -1   2  283.03    3.92
   5  -1   2   -0.70    1.15
   6  -1   2   10.66    1.69
   7  -1   2   11.59    1.98
   7   0   2   92.42    3.92
   6   0   2    2.85    1.85
   5   0   2   11.19    1.55
   4   0   2    0.27    1.00
   3   0   2    1.90    0.90
   2   0   2  195.95    2.71
   1   0   2  731.90    4.07
   0   0   2  254.04    2.09
   0   1   2  518.51    3.30
   1   1   2  145.13    2.16
   2   1   2  972.74    5.98
   3   1   2  454.83    4.75
   4   1   2  329.90    4.63
   5   1   2    5.77    1.60
   6   1   2   52.21    3.09
   7   1   2    2.81    1.86
   6   2   2    0.00    1.77
   5   2   2  369.47    6.00
   4   2   2  137.49    3.53
   3   2   2   34.37    1.79
   2   2   2   51.35    1.81
   1   2   2 1056.55    5.94
   0   2   2  383.33    3.24
   0   3   2   22.22    1.12
   1   3   2  376.55    3.98
   2   3   2   16.79    1.29
   3   3   2   65.94    2.46
   4   3   2   -1.56    1.36
   5   3   2   -0.99    1.51
   6   3   2    2.35    1.79
   5   4   2    0.40    1.63
   4   4   2   22.13    2.06
   3   4   2  135.05    3.55
   2   4   2  101.60    2.88
   1   4   2  160.28    2.98
   0   4   2   12.70    1.13
   0   5   2    2.21    0.85
   1   5   2  264.85    4.07
   2   5   2    3.22    1.25
   3   5   2    1.45    1.42
   4   5   2    1.42    1.68
   5   5   2    6.63    2.01
   4   6   2   10.64    2.08
   3   6   2   48.52    2.73
   2   6   2    1.75    1.43
   1   6   2   84.89    2.88
   0   6   2    8.02    1.23
   0   7   2   54.88    2.53
   1   7   2   56.65    2.72
   2   7   2   22.29    2.11
   3   7   2    2.20    1.57
   2   8   2    8.83    1.91
   1   8   2   30.74    2.49
   0   8   2    7.16    1.67
   0   9   2   15.39    1.81
   1   9   2    2.49    1.71
   0   9   3   15.72    2.19
   0   8   3   26.42    2.29
   1   8   3   -1.21    1.68
   2   7   3    0.59    1.63
   1   7   3    8.81    1.62
   0   7   3   15.61    1.83
   0   6   3   39.14    2.11
   1   6   3  132.89    3.74
   2   6   3   -0.78    1.52
   3   6   3    7.07    1.69
   4   5   3    0.62    1.57
   3   5   3    1.85    1.72
   2   5   3   85.32    2.99
   1   5   3   60.65    2.48
   0   5   3    1.32    1.03
   0   4   3    1.21    0.63
   1   4   3   30.52    1.67
   2   4   3  257.05    4.45
   3   4   3  160.43    4.14
   4   4   3   -0.91    1.46
   5   4   3    5.17    1.85
   5   3   3    3.22    1.66
   4   3   3    4.50    1.63
   3   3   3   44.09    2.26
   2   3   3  134.77    3.17
   1   3   3   37.51    1.64
   0   3   3  206.23    3.18
   0   2   3   92.94    1.86
   1   2   3  400.85    4.06
   2   2   3  196.23    3.22
   3   2   3   44.45    1.97
   4   2   3   66.62    2.88
   5   2   3   -0.53    1.84
   6   2   3    3.17    1.87
   6   1   3   16.03    2.31
   5   1   3  281.99    5.34
   4   1   3    0.67    1.22
   3   1   3  130.25    2.91
   2   1   3  175.92    2.86
   1   1   3   37.27    1.34
   0   1   3  740.82    4.53
   0   0   3   52.18    1.73
   1   0   3 1139.02   25.68
   2   0   3   11.30    1.02
   3   0   3  422.08    4.78
   4   0   3   56.51    2.27
   5   0   3    0.08    1.32
   6   0   3   41.69    2.65
   7   0   3    3.71    2.05
   7  -1   3  108.36    4.35
   6  -1   3   -2.84    1.67
   5  -1   3   25.05    1.80
   4  -1   3    8.36    1.13
   3  -1   3  668.59    5.63
   2  -1   3   17.23    1.11
   1  -1   3  267.83    2.76
   0  -1   3  269.57    2.50
   0  -2   3 2924.92   35.34
   1  -2   3    5.67    0.77
   2  -2   3  426.82    3.91
   3  -2   3  869.34    6.23
   4  -2   3   41.04    1.90
   5  -2   3   12.26    1.69
   6  -2   3   37.42    2.52
   7  -2   3    9.41    2.04
   7  -3   3    3.94    1.85
   6  -3   3   14.12    1.90
   5  -3   3    9.87    1.45
   4  -3   3    0.54    1.01
   3  -3   3   -0.66    1.10
   2  -3   3  196.29    2.75
   1  -3   3 1536.41   30.55
   0  -3   3    5.98    1.79
   0  -4   3 1257.19    6.73
   1  -4   3  685.63    5.00
   2  -4   3  485.62    4.46
   3  -4   3  590.76    5.32
   4  -4   3  126.41    2.98
   5  -4   3   58.91    2.45
   6  -4   3   16.79    1.95
   7  -4   3   10.05    1.94
   8  -5   3    4.23    1.73
   7  -5   3   10.43    2.10
   6  -5   3   49.63    2.52
   5  -5   3   48.85    2.27
   4  -5   3    9.97    1.26
   3  -5   3  205.88    3.38
   2  -5   3  856.96    6.25
   1  -5   3   48.78    1.73
   0  -5   3  289.76    3.63
   0  -6   3    9.05    1.19
   1  -6   3    4.84    0.91
   2  -6   3  168.05    3.09
   3  -6   3  131.97    3.11
   4  -6   3    3.80    1.23
   5  -6   3   22.43    1.74
   6  -6   3   -1.16    1.53
   7  -6   3   28.92    2.68
   7  -7   3   33.01    2.78
   6  -7   3    5.46    1.65
   5  -7   3   14.94    1.68
   4  -7   3  165.47    3.85
   3  -7   3   49.77    2.14
   2  -7   3   12.78    1.39
   1  -7   3    9.34    1.36
   0  -7   3   20.77    1.73
   0  -8   3  108.64    3.36
   1  -8   3   88.44    2.88
   2  -8   3    9.56    1.39
   3  -8   3   93.46    3.06
   4  -8   3   80.96    2.97
   5  -8   3    1.48    1.36
   6  -8   3   28.07    2.38
   7  -8   3   12.88    2.15
   7  -9   3    1.98    2.23
   6  -9   3    7.31    1.77
   5  -9   3    2.88    1.42
   4  -9   3    4.02    1.30
   3  -9   3   28.30    2.17
   2  -9   3    0.31    1.26
   1  -9   3   31.37    2.27
   0  -9   3   40.77    2.93
   0 -10   3   21.23    2.24
   1 -10   3   56.73    2.92
   2 -10   3  125.94    4.06
   3 -10   3   47.61    2.81
   4 -10   3    4.12    1.74
   5 -10   3   24.39    2.38
   6 -10   3    7.92    1.80
   5 -11   3    8.65    2.16
   4 -11   3    0.21    1.79
   3 -11   3    0.62    1.63
   2 -11   3    1.85    1.75
   1 -11   3    4.86    1.79
   0 -11   3   -2.88    1.81
   0 -11   4   16.28    2.61
   1 -11   4    0.21    1.77
   2 -11   4    5.01    2.00
   3 -11   4   16.76    2.11
   4 -11   4   42.51    3.08
   6 -10   4   -0.78    1.85
   5 -10   4    2.99    1.45
   4 -10   4    1.74    1.48
   3 -10   4   96.75    3.85
   2 -10   4   -0.55    1.61
   1 -10   4    8.95    1.77
   0 -10   4    0.68    1.84
   0  -9   4    3.21    1.62
   1  -9   4    5.05    1.62
   2  -9   4   23.38    2.15
   3  -9   4   16.26    1.81
   4  -9   4   -2.10    1.56
   5  -9   4    1.60    1.48
   6  -9   4   -2.07    1.77
   7  -8   4    2.31    1.95
   6  -8   4   -2.92    1.65
   5  -8   4    3.49    1.38
   4  -8   4    3.18    1.79
   3  -8   4    0.81    1.28
   2  -8   4   70.53    2.74
   1  -8   4  146.42    3.78
   0  -8   4  243.30    4.76
   0  -7   4   35.81    1.89
   1  -7   4   20.01    1.66
   2  -7   4    1.00    1.00
   3  -7   4    7.63    1.45
   4  -7   4   29.81    1.95
   5  -7   4    4.56    1.59
   6  -7   4    3.79    1.68
   7  -7   4    1.90    1.96
   7  -6   4   13.01    2.20
   6  -6   4    7.75    1.97
   5  -6   4   48.24    2.60
   4  -6   4  294.68    4.73
   3  -6   4    0.42    1.10
   2  -6   4  396.22    4.87
   1  -6   4  150.99    2.99
   0  -6   4  596.33    5.76
   0  -5   4   10.86    1.10
   1  -5   4  205.56    3.22
   2  -5   4   11.65    1.23
   3  -5   4  152.05    3.06
   4  -5   4   15.36    1.60
   5  -5   4   26.18    1.90
   6  -5   4    2.00    1.49
   7  -5   4    4.49    1.76
   7  -4   4    9.73    2.20
   6  -4   4    0.09    1.63
   5  -4   4   38.97    2.19
   4  -4   4    1.91    1.15
   3  -4   4   21.22    1.56
   2  -4   4  975.88    6.77
   1  -4   4  129.43    2.45
   0  -4   4  110.89    2.31
   0  -3   4  370.39    3.64
   1  -3   4  475.22    4.26
   2  -3   4  609.85    5.16
   3  -3   4  132.56    2.82
   4  -3   4   10.26    1.29
   5  -3   4   74.52    2.91
   6  -3   4   14.92    1.93
   7  -3   4   51.17    3.06
   7  -2   4    6.45    2.37
   6  -2   4    1.99    1.67
   5  -2   4   -0.75    1.32
   4  -2   4  122.85    3.14
   3  -2   4   -0.20    0.94
   2  -2   4    2.08    0.89
   1  -2   4  884.97    5.62
   0  -2   4 1074.53   25.90
   0  -1   4  217.45    2.62
   1  -1   4  744.72    5.18
   2  -1   4  148.14    2.61
   3  -1   4   23.55    1.55
   4  -1   4    2.98    1.12
   5  -1   4   21.07    2.08
   6  -1   4   69.45    3.40
   6   0   4   25.96    2.45
   5   0   4   20.28    2.05
   4   0   4  248.14    5.01
   3   0   4   37.71    1.90
   2   0   4   83.50    2.33
   1   0   4  419.85    4.03
   0   0   4   13.47    1.17
   0   1   4    4.60    0.89
   1   1   4  732.63    5.61
   2   1   4    9.19    1.12
   3   1   4    1.11    1.35
   4   1   4    3.52    1.23
   5   1   4   33.75    2.34
   6   1   4    4.70    1.84
   5   2   4    2.73    1.41
   4   2   4   82.48    3.27
   3   2   4  171.56    3.98
   2   2   4  925.48    7.57
   1   2   4   64.69    2.06
   0   2   4  701.95    5.42
   0   3   4  193.10    3.22
   1   3   4    6.81    1.23
   2   3   4    7.31    1.21
   3   3   4  246.63    5.03
   4   3   4   29.96    2.20
   5   3   4    3.84    1.69
   4   4   4    3.61    1.90
   3   4   4   31.45    2.40
   2   4   4   39.45    2.29
   1   4   4   29.00    1.74
   0   4   4    0.33    1.37
   0   5   4  136.95    3.40
   1   5   4  112.01    3.45
   2   5   4   56.37    3.02
   3   5   4   -1.06    1.57
   3   6   4    1.63    1.73
   2   6   4   -0.57    1.55
   1   6   4   60.60    2.89
   0   6   4  138.12    3.82
   0   7   4    1.13    1.54
   1   7   4    7.21    1.69
   2   7   4    2.70    1.65
   1   8   4    4.49    1.49
   0   8   4   12.15    2.09
   0   8   5    0.00    1.74
   1   7   5    0.53    1.55
   0   7   5   -2.77    1.62
   0   6   5   29.23    2.32
   1   6   5    1.95    1.49
   2   6   5    0.42    1.75
   3   5   5    0.21    1.74
   2   5   5   -0.47    1.51
   1   5   5  155.49    4.28
   0   5   5    0.00    1.31
   0   4   5  327.77    4.95
   1   4   5   56.38    2.65
   2   4   5   89.18    3.41
   3   4   5   27.22    2.37
   4   4   5    1.22    1.66
   4   3   5   14.14    2.03
   3   3   5   28.26    2.24
   2   3   5   -0.59    1.44
   1   3   5   10.05    1.50
   0   3   5    8.71    1.21
   0   2   5   82.60    2.36
   1   2   5   24.57    1.61
   2   2   5   69.24    2.58
   3   2   5   17.63    1.73
   4   2   5    2.84    1.56
   5   2   5    9.56    2.21
   5   1   5    9.74    1.92
   4   1   5    9.84    1.88
   3   1   5    3.89    1.31
   2   1   5   34.85    1.91
   1   1   5  210.08    3.40
   0   1   5   53.87    1.82
   0   0   5  418.96    4.29
   1   0   5  129.45    2.75
   2   0   5   14.82    1.38
   3   0   5   26.41    1.77
   4   0   5   -0.47    1.63
   5   0   5   -2.78    2.38
   6   0   5    2.85    1.57
   6  -1   5    7.68    2.36
   5  -1   5   58.28    2.86
   4  -1   5   26.69    1.91
   3  -1   5  347.88    4.87
   2  -1   5  425.19    4.80
   1  -1   5   79.34    2.13
   0  -1   5 1032.43    6.35
   0  -2   5   15.01    1.05
   1  -2   5  404.83    4.25
   2  -2   5   22.88    1.50
   3  -2   5   74.37    2.56
   4  -2   5  137.46    3.67
   5  -2   5   88.72    3.43
   6  -2   5   20.78    2.52
   6  -3   5   -1.93    1.72
   5  -3   5    1.72    1.32
   4  -3   5   37.81    2.12
   3  -3   5   60.99    2.35
   2  -3   5    2.40    0.85
   1  -3   5   18.09    1.19
   0  -3   5  983.83    6.41
   0  -4   5  886.12    6.39
   1  -4   5   -0.14    0.91
   2  -4   5    7.10    1.20
   3  -4   5  104.46    2.78
   4  -4   5   -1.73    1.20
   5  -4   5   16.61    1.82
   6  -4   5    4.37    1.81
   7  -4   5    6.23    2.03
   7  -5   5    2.76    1.72
   6  -5   5   -0.95    1.69
   5  -5   5   12.19    1.86
   4  -5   5    0.21    1.14
   3  -5   5  269.98    4.29
   2  -5   5  219.01    3.68
   1  -5   5  207.44    3.43
   0  -5   5   46.78    2.17
   0  -6   5   15.43    1.43
   1  -6   5    9.78    1.25
   2  -6   5   37.17    1.87
   3  -6   5   47.51    2.34
   4  -6   5   48.37    2.59
   5  -6   5    3.79    1.49
   6  -6   5   57.48    3.19
   7  -6   5    1.67    1.86
   6  -7   5    1.99    1.76
   5  -7   5   50.76    2.71
   4  -7   5   74.73    2.97
   3  -7   5   41.31    2.26
   2  -7   5   -1.21    1.25
   1  -7   5  146.68    3.55
   0  -7   5    8.60    1.36
   0  -8   5    2.80    1.42
   1  -8   5  132.94    3.68
   2  -8   5    9.25    1.49
   3  -8   5    4.65    1.38
   4  -8   5    5.17    1.66
   5  -8   5   -0.84    1.75
   6  -8   5    3.85    2.21
   6  -9   5    1.32    1.94
   5  -9   5    7.40    1.92
   4  -9   5    3.70    1.75
   3  -9   5    3.75    1.48
   2  -9   5   59.59    2.91
   1  -9   5   50.43    2.79
   0  -9   5   30.58    2.15
   0 -10   5    9.87    2.61
   1 -10   5    3.06    1.79
   2 -10   5   48.89    2.96
   3 -10   5    8.24    2.05
   4 -10   5    6.18    1.65
   5 -10   5    1.41    1.78
   3 -11   5    5.62    2.05
   2 -11   5    3.96    1.82
   1 -11   5   22.10    2.61
   2 -11   6    4.22    2.11
   4 -10   6    4.60    1.97
   3 -10   6    0.72    1.81
   2 -10   6   90.87    3.68
   1 -10   6   -3.88    1.88
   0 -10   6   65.33    3.28
   0  -9   6   11.45    2.20
   1  -9   6   -0.53    1.76
   2  -9   6   22.17    2.24
   3  -9   6   19.30    2.41
   4  -9   6    6.41    1.75
   5  -9   6   63.41    3.40
   5  -8   6   40.20    3.03
   4  -8   6    9.97    1.89
   3  -8   6    5.35    1.63
   2  -8   6   12.50    1.72
   1  -8   6    6.32    1.67
   0  -8   6  354.15    5.79
   0  -7   6  258.47    4.71
   1  -7   6  216.55    4.19
   2  -7   6    2.05    1.20
   3  -7   6   13.86    1.85
   4  -7   6    3.78    1.70
   5  -7   6    2.11    1.86
   6  -7   6   -0.97    1.91
   6  -6   6   18.85    2.39
   5  -6   6   27.61    2.35
   4  -6   6   40.49    2.53
   3  -6   6  352.14    5.65
   2  -6   6    0.94    1.19
   1  -6   6   16.33    1.52
   0  -6   6  113.81    3.28
   0  -5   6  192.45    3.61
   1  -5   6   22.45    1.70
   2  -5   6    8.72    1.31
   3  -5   6    2.30    1.28
   4  -5   6   30.14    2.21
   5  -5   6   14.20    2.16
   6  -5   6    7.09    1.97
   6  -4   6    0.00    1.64
   5  -4   6   -0.72    1.60
   4  -4   6  181.15    4.33
   3  -4   6   13.04    1.49
   2  -4   6  111.21    2.96
   1  -4   6   27.77    1.55
   0  -4   6  114.80    2.67
   0  -3   6  118.81    3.17
   1  -3   6   12.33    1.18
   2  -3   6    4.14    1.15
   3  -3   6   35.23    2.18
   4  -3   6   67.21    2.91
   5  -3   6   46.59    2.71
   6  -3   6    3.30    1.94
   6  -2   6   -2.74    1.99
   5  -2   6    1.03    1.72
   4  -2   6   -1.68    1.65
   3  -2   6  139.02    3.53
   2  -2   6   46.82    2.15
   1  -2   6    3.14    1.06
   0  -2   6   14.10    1.07
   0  -1   6   -0.19    0.75
   1  -1   6   17.84    1.31
   2  -1   6   73.79    2.52
   3  -1   6  216.93    4.42
   4  -1   6    8.33    1.89
   5  -1   6   15.45    1.97
   5   0   6    0.83    1.85
   4   0   6    3.17    1.66
   3   0   6  134.20    3.76
   2   0   6  241.29    4.17
   1   0   6  125.79    3.01
   0   0   6   98.68    3.36
   0   1   6   12.83    1.26
   1   1   6   11.39    1.33
   2   1   6   43.02    2.21
   3   1   6  198.70    4.71
   4   1   6    1.51    1.44
   5   1   6    2.09    1.81
   4   2   6   -2.65    1.69
   3   2   6   12.30    1.92
   2   2   6   12.28    1.55
   1   2   6  186.29    4.01
   0   2   6    3.73    1.02
   0   3   6    4.69    1.58
   1   3   6   33.85    2.12
   2   3   6   29.38    2.30
   3   3   6    0.10    2.19
   4   3   6    0.11    1.64
   3   4   6   -1.91    1.78
   2   4   6    4.00    1.71
   1   4   6    1.23    1.34
   0   4   6  171.77    4.15
   0   5   6    5.13    1.27
   1   5   6    1.20    1.32
   2   5   6    0.73    1.63
   1   6   6    1.14    1.58
   0   6   6   18.03    1.94
   0   7   6    2.00    1.64
   0   6   7    2.29    1.82
   1   5   7    4.53    1.77
   0   5   7    7.00    1.64
   0   4   7   34.64    2.43
   1   4   7    3.43    1.42
   2   4   7    4.28    1.55
   3   3   7    3.35    1.63
   2   3   7   16.78    2.06
   1   3   7   55.73    2.76
   0   3   7   33.02    2.17
   0   2   7  303.27    5.01
   1   2   7   35.30    2.21
   2   2   7    1.13    1.47
   3   2   7    3.27    1.71
   4   1   7   27.00    2.55
   3   1   7    3.95    1.58
   2   1   7   91.99    3.32
   1   1   7  188.57    4.14
   0   1   7   20.47    1.54
   0   0   7   49.15    2.75
   1   0   7    0.59    1.00
   2   0   7   27.01    2.16
   3   0   7    1.20    1.42
   4   0   7    0.69    1.58
   5  -1   7    2.51    1.77
   4  -1   7    4.80    1.62
   3  -1   7   21.48    2.05
   2  -1   7   11.68    1.67
   1  -1   7   28.06    1.89
   0  -1   7   97.68    2.65
   0  -2   7  121.22    2.76
   1  -2   7   30.11    1.83
   2  -2   7  275.51    4.69
   3  -2   7   94.56    3.28
   4  -2   7   60.50    3.00
   5  -2   7    5.76    1.69
   5  -3   7    1.02    1.74
   4  -3   7    9.35    1.85
   3  -3   7   15.44    1.70
   2  -3   7  287.44    4.67
   1  -3   7  150.36    3.40
   0  -3   7  484.87    5.39
   0  -4   7   67.45    2.39
   1  -4   7  241.96    4.13
   2  -4   7   17.36    1.73
   3  -4   7  155.00    4.03
   4  -4   7   19.68    2.19
   5  -4   7   16.14    2.18
   5  -5   7    6.82    1.69
   4  -5   7   19.32    2.10
   3  -5   7   81.12    3.11
   2  -5   7   15.77    1.83
   1  -5   7   10.51    1.55
   0  -5   7   18.43    1.65
   0  -6   7  126.58    3.39
   1  -6   7  145.88    3.73
   2  -6   7  139.96    3.75
   3  -6   7    2.20    1.51
   4  -6   7    2.71    1.80
   5  -6   7   22.88    2.50
   5  -7   7   39.23    3.03
   4  -7   7   21.95    2.31
   3  -7   7   54.08    2.92
   2  -7   7    6.27    1.67
   1  -7   7    0.77    1.39
   0  -7   7   53.62    2.92
   0  -8   7   32.25    2.46
   1  -8   7   62.69    2.91
   2  -8   7    1.57    1.47
   3  -8   7  111.38    3.80
   4  -8   7  186.43    5.14
   5  -8   7   -1.53    1.95
   4  -9   7   -0.74    2.06
   3  -9   7   19.02    2.22
   2  -9   7   24.75    2.25
   1  -9   7    3.57    1.63
   0  -9   7   33.88    2.42
   0 -10   7    6.79    1.89
   1 -10   7    3.55    1.59
   2 -10   7    4.63    1.95
   3 -10   7   21.03    2.66
   1 -10   8    4.65    1.84
   0  -9   8    7.87    2.13
   1  -9   8   25.78    2.43
   2  -9   8   12.25    1.97
   3  -9   8   -1.51    1.80
   4  -8   8    3.69    2.56
   3  -8   8   47.59    3.00
   2  -8   8    3.05    1.55
   1  -8   8   55.29    2.98
   0  -8   8   19.51    2.46
   0  -7   8   -0.67    1.50
   1  -7   8   -1.36    1.55
   2  -7   8   32.24    2.41
   3  -7   8   14.64    2.19
   4  -7   8    1.97    1.76
   4  -6   8   12.86    2.12
   3  -6   8   11.37    2.11
   2  -6   8  251.45    5.29
   1  -6   8   96.21    3.39
   0  -6   8   66.85    2.90
   0  -5   8  100.93    3.22
   1  -5   8  118.60    3.63
   2  -5   8   31.14    2.15
   3  -5   8   89.18    3.53
   4  -5   8    4.74    1.82
   5  -5   8   -1.78    1.89
   4  -4   8   72.06    3.52
   3  -4   8   17.36    2.03
   2  -4   8   -0.79    1.44
   1  -4   8   98.76    3.22
   0  -4   8  375.66    5.48
   0  -3   8   18.30    1.70
   1  -3   8  132.07    3.54
   2  -3   8    1.02    1.53
   3  -3   8    3.68    1.68
   4  -3   8    5.57    1.71
   4  -2   8    2.86    1.67
   3  -2   8    3.13    1.27
   2  -2   8   27.97    2.11
   1  -2   8   97.04    3.11
   0  -2   8   15.86    1.55
   0  -1   8  113.49    3.27
   1  -1   8   22.18    1.83
   2  -1   8    4.18    1.49
   3  -1   8    0.56    1.46
   4  -1   8   11.78    2.05
   3   0   8    0.59    1.71
   2   0   8   89.44    3.39
   1   0   8   10.42    1.59
   0   0   8  194.81    4.37
   0   1   8  150.29    3.89
   1   1   8   47.29    2.60
   2   1   8    2.02    1.52
   3   1   8    3.12    1.76
   2   2   8    3.75    1.88
   1   2   8   11.86    1.91
   0   2   8  225.54    4.89
   0   3   8   -0.87    1.50
   1   3   8   -1.72    1.54
   2   3   8    4.49    1.55
   1   4   8   18.34    2.33
   0   4   8   11.89    1.88
   0   5   8    1.57    1.72
   0   4   9    1.94    1.88
   1   3   9    0.43    1.74
   0   3   9    4.05    1.53
   0   2   9   17.57    2.19
   1   2   9   38.16    2.79
   2   1   9    7.82    2.32
   1   1   9   45.20    2.77
   0   1   9   18.14    2.10
   0   0   9   43.95    3.13
   1   0   9   70.51    3.17
   2   0   9    4.23    1.74
   3   0   9    6.08    1.98
   3  -1   9    1.90    1.63
   2  -1   9    8.27    1.87
   1  -1   9   39.54    2.42
   0  -1   9   40.83    2.40
   0  -2   9    0.23    1.36
   1  -2   9   11.64    1.79
   2  -2   9   81.35    3.33
   3  -2   9   33.98    2.77
   3  -3   9    0.80    1.88
   2  -3   9   12.98    1.80
   1  -3   9   82.67    3.16
   0  -3   9   23.99    1.92
   0  -4   9  118.96    3.68
   1  -4   9   32.14    2.14
   2  -4   9   41.97    2.66
   3  -4   9    0.40    1.70
   4  -4   9   -0.44    1.88
   4  -5   9    2.54    1.91
   3  -5   9    0.10    1.67
   2  -5   9    6.28    2.00
   1  -5   9   21.40    1.97
   0  -5   9    3.01    1.60
   0  -6   9    9.28    1.89
   1  -6   9   66.51    3.12
   2  -6   9   -0.94    1.70
   3  -6   9   39.12    2.75
   3  -7   9    5.68    1.93
   2  -7   9    4.03    1.61
   1  -7   9    8.36    1.94
   0  -7   9   21.60    2.20
   0  -8   9   -0.99    1.78
   1  -8   9    4.63    1.68
   2  -8   9   -0.52    1.90
   3  -8   9    4.52    2.00
   2  -9   9    8.14    1.94
   1  -9   9    4.78    2.07
   0  -9   9    5.63    2.41
   1  -8  10    4.63    2.09
   0  -8  10   82.10    3.68
   0  -7  10   15.81    2.25
   1  -7  10    1.35    1.77
   2  -7  10   -0.55    1.85
   2  -6  10    0.32    1.77
   1  -6  10   22.63    2.36
   0  -6  10   15.71    2.02
   0  -5  10   20.00    3.01
   1  -5  10   19.09    2.04
   2  -5  10    0.51    1.79
   3  -4  10    4.01    1.93
   2  -4  10    2.13    1.75
   1  -4  10   -2.16    1.68
   0  -4  10   -0.80    1.55
   0  -3  10    7.83    1.85
   1  -3  10    2.72    1.54
   2  -3  10    7.14    2.17
   2  -2  10    6.23    1.83
   1  -2  10    3.80    1.46
   0  -2  10   66.17    3.18
   0  -1  10    6.49    1.73
   1  -1  10   51.87    3.12
   2  -1  10   27.11    2.56
   1   0  10   16.15    2.26
   0   0  10   36.86    3.08
   0   1  10    0.89    1.57
   1   1  10   10.82    2.11
   0   2  10   14.33    2.39
   0   0  11   40.58    3.35
   1  -1  11    0.56    1.96
   0  -1  11   -3.10    1.74
   0  -2  11    1.92    1.63
   1  -2  11    4.33    1.85
   1  -3  11   16.44    2.26
   0  -3  11   11.34    2.14
   0  -4  11   -0.71    1.71
   1  -4  11   14.51    2.02
   1  -5  11    2.59    1.85
   0  -5  11    4.23    1.86
   0  -6  11    0.86    1.80
   1  -6  11    2.77    2.07
   0   0   0    0.00    0.00
;
_shelx_hkl_checksum              71666
loop_
_space_group_symop_operation_xyz
'x, y, z'
'-x, -y, -z'
loop_
_atom_site_label
_atom_site_type_symbol
_atom_site_fract_x
_atom_site_fract_y
_atom_site_fract_z
_atom_site_U_iso_or_equiv
_atom_site_adp_type
_atom_site_occupancy
_atom_site_site_symmetry_order
_atom_site_calc_flag
_atom_site_refinement_flags_posn
_atom_site_refinement_flags_adp
_atom_site_refinement_flags_occupancy
_atom_site_disorder_assembly
_atom_site_disorder_group
N1 N 0.4808(3) 0.7694(2) 0.32171(19) 0.0435(5) Uani 1 1 d . . . . .
F1 F 0.6680(3) 0.8641(2) 0.08781(17) 0.0766(5) Uani 1 1 d . . . . .
O1 O 0.8761(3) 1.2074(2) 0.3385(2) 0.0735(6) Uani 1 1 d . . . . .
C1 C 0.5452(3) 0.7963(2) 0.4695(2) 0.0424(5) Uani 1 1 d . . . . .
F2 F 0.3717(2) 0.84289(18) 0.06052(15) 0.0687(5) Uani 1 1 d . . . . .
O2 O 0.9918(2) 1.22557(18) 0.56961(18) 0.0563(5) Uani 1 1 d . . . . .
N2 N 0.1867(3) 0.5571(2) 0.2473(2) 0.0530(5) Uani 1 1 d . . . . .
C2 C 0.4799(4) 0.7024(3) 0.5477(3) 0.0525(6) Uani 1 1 d . . . . .
H2B H 0.3763 0.6072 0.5035 0.063 Uiso 1 1 calc R U . . .
N3 N 0.3976(3) 0.5743(2) 0.1201(2) 0.0508(5) Uani 1 1 d . . . . .
C3 C 0.5747(4) 0.7561(3) 0.6929(3) 0.0596(7) Uani 1 1 d . . . . .
H3B H 0.5335 0.6962 0.7482 0.072 Uiso 1 1 calc R U . . .
C4 C 0.7303(4) 0.8972(3) 0.7594(3) 0.0607(7) Uani 1 1 d . . . . .
H4A H 0.7914 0.9295 0.8582 0.073 Uiso 1 1 calc R U . . .
C5 C 0.7962(4) 0.9903(3) 0.6829(2) 0.0521(6) Uani 1 1 d . . . . .
H5A H 0.9006 1.0849 0.7287 0.063 Uiso 1 1 calc R U . . .
C6 C 0.7028(3) 0.9398(2) 0.5343(2) 0.0410(5) Uani 1 1 d . . . . .
C7 C 0.7295(3) 1.0019(2) 0.4206(2) 0.0416(5) Uani 1 1 d . . . . .
C8 C 0.5959(3) 0.8963(2) 0.2949(2) 0.0423(5) Uani 1 1 d . . . . .
C9 C 0.8700(3) 1.1536(3) 0.4345(3) 0.0475(6) Uani 1 1 d . . . . .
C10 C 1.1355(4) 1.3762(3) 0.5972(3) 0.0671(8) Uani 1 1 d . . . . .
H10A H 1.2152 1.4175 0.6972 0.101 Uiso 1 1 calc R U . . .
H10B H 1.2173 1.3711 0.5446 0.101 Uiso 1 1 calc R U . . .
H10C H 1.0698 1.4405 0.5681 0.101 Uiso 1 1 calc R U . . .
C11 C 0.5632(4) 0.9184(3) 0.1505(2) 0.0528(6) Uani 1 1 d . . . . .
H11A H 0.6034 1.0274 0.1597 0.063 Uiso 1 1 calc R U . . .
C12 C 0.3461(3) 0.6259(2) 0.2223(2) 0.0426(5) Uani 1 1 d . . . . .
C13 C 0.0669(4) 0.4192(3) 0.1570(3) 0.0570(7) Uani 1 1 d . . . . .
H13A H -0.0453 0.3645 0.1710 0.068 Uiso 1 1 calc R U . . .
C14 C 0.1020(4) 0.3548(3) 0.0447(3) 0.0567(6) Uani 1 1 d . . . . .
H14A H 0.0154 0.2592 -0.0183 0.068 Uiso 1 1 calc R U . . .
C15 C 0.2690(4) 0.4369(3) 0.0296(3) 0.0559(6) Uani 1 1 d . . . . .
H15A H 0.2957 0.3963 -0.0467 0.067 Uiso 1 1 calc R U . . .
loop_
_atom_site_aniso_label
_atom_site_aniso_U_11
_atom_site_aniso_U_22
_atom_site_aniso_U_33
_atom_site_aniso_U_23
_atom_site_aniso_U_13
_atom_site_aniso_U_12
N1 0.0494(11) 0.0392(10) 0.0378(10) 0.0152(8) 0.0184(8) 0.0097(8)
F1 0.0928(12) 0.0885(12) 0.0616(10) 0.0295(9) 0.0504(9) 0.0296(10)
O1 0.0731(13) 0.0691(12) 0.0616(11) 0.0363(10) 0.0245(10) 0.0013(10)
C1 0.0497(13) 0.0412(12) 0.0390(12) 0.0167(9) 0.0196(10) 0.0164(10)
F2 0.0682(10) 0.0706(10) 0.0474(8) 0.0234(7) 0.0069(7) 0.0148(8)
O2 0.0525(10) 0.0448(9) 0.0547(10) 0.0167(8) 0.0150(8) 0.0033(8)
N2 0.0501(12) 0.0510(11) 0.0500(12) 0.0144(9) 0.0217(10) 0.0087(9)
C2 0.0623(15) 0.0471(13) 0.0486(13) 0.0239(11) 0.0252(12) 0.0141(12)
N3 0.0507(12) 0.0496(11) 0.0469(11) 0.0123(9) 0.0206(9) 0.0129(9)
C3 0.0734(18) 0.0624(15) 0.0515(14) 0.0338(12) 0.0301(13) 0.0234(14)
C4 0.0745(18) 0.0637(16) 0.0391(13) 0.0222(12) 0.0185(13) 0.0216(14)
C5 0.0574(15) 0.0511(13) 0.0429(13) 0.0164(11) 0.0171(11) 0.0164(12)
C6 0.0456(12) 0.0403(11) 0.0391(11) 0.0157(9) 0.0189(10) 0.0153(10)
C7 0.0423(12) 0.0406(11) 0.0432(12) 0.0170(9) 0.0191(10) 0.0133(10)
C8 0.0464(12) 0.0409(11) 0.0421(12) 0.0189(10) 0.0221(10) 0.0126(10)
C9 0.0456(13) 0.0465(13) 0.0523(14) 0.0207(11) 0.0235(11) 0.0133(11)
C10 0.0516(15) 0.0480(14) 0.0789(19) 0.0184(13) 0.0176(14) -0.0004(12)
C11 0.0617(16) 0.0525(13) 0.0403(13) 0.0192(11) 0.0218(12) 0.0133(12)
C12 0.0459(12) 0.0416(11) 0.0386(11) 0.0158(9) 0.0152(10) 0.0146(10)
C13 0.0511(14) 0.0504(14) 0.0556(15) 0.0190(12) 0.0175(12) 0.0045(12)
C14 0.0567(15) 0.0457(13) 0.0506(14) 0.0112(11) 0.0102(12) 0.0107(12)
C15 0.0612(16) 0.0525(14) 0.0457(13) 0.0078(11) 0.0171(12) 0.0191(12)
loop_
_atom_type_symbol
_atom_type_description
_atom_type_scat_dispersion_real
_atom_type_scat_dispersion_imag
_atom_type_scat_source
C C 0.0033 0.0016 'International Tables Vol C Tables 4.2.6.8 and 6.1.1.4'
H H 0.0000 0.0000 'International Tables Vol C Tables 4.2.6.8 and 6.1.1.4'
N N 0.0061 0.0033 'International Tables Vol C Tables 4.2.6.8 and 6.1.1.4'
O O 0.0106 0.0060 'International Tables Vol C Tables 4.2.6.8 and 6.1.1.4'
F F 0.0171 0.0103 'International Tables Vol C Tables 4.2.6.8 and 6.1.1.4'
loop_
_geom_angle_atom_site_label_1
_geom_angle_atom_site_label_2
_geom_angle_atom_site_label_3
_geom_angle
_geom_angle_site_symmetry_1
_geom_angle_site_symmetry_3
_geom_angle_publ_flag
C8 N1 C1 107.82(18) . . ?
C8 N1 C12 127.74(18) . . ?
C1 N1 C12 123.55(18) . . ?
C2 C1 N1 129.4(2) . . ?
C2 C1 C6 122.3(2) . . ?
N1 C1 C6 108.30(18) . . ?
C9 O2 C10 116.3(2) . . ?
C12 N2 C13 114.8(2) . . ?
C3 C2 C1 117.1(2) . . ?
C3 C2 H2B 121.5 . . ?
C1 C2 H2B 121.5 . . ?
C12 N3 C15 114.9(2) . . ?
C2 C3 C4 121.8(2) . . ?
C2 C3 H3B 119.1 . . ?
C4 C3 H3B 119.1 . . ?
C5 C4 C3 121.5(2) . . ?
C5 C4 H4A 119.3 . . ?
C3 C4 H4A 119.3 . . ?
C4 C5 C6 118.5(2) . . ?
C4 C5 H5A 120.7 . . ?
C6 C5 H5A 120.7 . . ?
C5 C6 C1 118.9(2) . . ?
C5 C6 C7 134.7(2) . . ?
C1 C6 C7 106.44(19) . . ?
C8 C7 C6 107.75(19) . . ?
C8 C7 C9 125.1(2) . . ?
C6 C7 C9 127.2(2) . . ?
C7 C8 N1 109.65(18) . . ?
C7 C8 C11 125.5(2) . . ?
N1 C8 C11 124.6(2) . . ?
O1 C9 O2 123.5(2) . . ?
O1 C9 C7 125.5(2) . . ?
O2 C9 C7 111.0(2) . . ?
O2 C10 H10A 109.5 . . ?
O2 C10 H10B 109.5 . . ?
H10A C10 H10B 109.5 . . ?
O2 C10 H10C 109.5 . . ?
H10A C10 H10C 109.5 . . ?
H10B C10 H10C 109.5 . . ?
F2 C11 F1 106.3(2) . . ?
F2 C11 C8 111.9(2) . . ?
F1 C11 C8 111.5(2) . . ?
F2 C11 H11A 109.0 . . ?
F1 C11 H11A 109.0 . . ?
C8 C11 H11A 109.0 . . ?
N3 C12 N2 127.9(2) . . ?
N3 C12 N1 116.3(2) . . ?
N2 C12 N1 115.7(2) . . ?
N2 C13 C14 122.8(2) . . ?
N2 C13 H13A 118.6 . . ?
C14 C13 H13A 118.6 . . ?
C15 C14 C13 116.8(2) . . ?
C15 C14 H14A 121.6 . . ?
C13 C14 H14A 121.6 . . ?
N3 C15 C14 122.8(2) . . ?
N3 C15 H15A 118.6 . . ?
C14 C15 H15A 118.6 . . ?
loop_
_geom_bond_atom_site_label_1
_geom_bond_atom_site_label_2
_geom_bond_distance
_geom_bond_site_symmetry_2
_geom_bond_publ_flag
N1 C8 1.392(3) . ?
N1 C1 1.400(3) . ?
N1 C12 1.419(3) . ?
F1 C11 1.360(3) . ?
O1 C9 1.199(3) . ?
C1 C2 1.387(3) . ?
C1 C6 1.404(3) . ?
F2 C11 1.359(3) . ?
O2 C9 1.332(3) . ?
O2 C10 1.440(3) . ?
N2 C12 1.328(3) . ?
N2 C13 1.332(3) . ?
C2 C3 1.370(4) . ?
C2 H2B 0.9300 . ?
N3 C12 1.316(3) . ?
N3 C15 1.343(3) . ?
C3 C4 1.384(4) . ?
C3 H3B 0.9300 . ?
C4 C5 1.371(3) . ?
C4 H4A 0.9300 . ?
C5 C6 1.399(3) . ?
C5 H5A 0.9300 . ?
C6 C7 1.441(3) . ?
C7 C8 1.364(3) . ?
C7 C9 1.472(3) . ?
C8 C11 1.495(3) . ?
C10 H10A 0.9600 . ?
C10 H10B 0.9600 . ?
C10 H10C 0.9600 . ?
C11 H11A 0.9800 . ?
C13 C14 1.365(4) . ?
C13 H13A 0.9300 . ?
C14 C15 1.356(4) . ?
C14 H14A 0.9300 . ?
C15 H15A 0.9300 . ?
loop_
_geom_torsion_atom_site_label_1
_geom_torsion_atom_site_label_2
_geom_torsion_atom_site_label_3
_geom_torsion_atom_site_label_4
_geom_torsion
_geom_torsion_site_symmetry_1
_geom_torsion_site_symmetry_2
_geom_torsion_site_symmetry_3
_geom_torsion_site_symmetry_4
_geom_torsion_publ_flag
C8 N1 C1 C2 -178.3(2) . . . . ?
C12 N1 C1 C2 -8.3(4) . . . . ?
C8 N1 C1 C6 -0.8(2) . . . . ?
C12 N1 C1 C6 169.1(2) . . . . ?
N1 C1 C2 C3 177.8(2) . . . . ?
C6 C1 C2 C3 0.7(4) . . . . ?
C1 C2 C3 C4 -0.6(4) . . . . ?
C2 C3 C4 C5 0.4(4) . . . . ?
C3 C4 C5 C6 -0.2(4) . . . . ?
C4 C5 C6 C1 0.2(4) . . . . ?
C4 C5 C6 C7 -179.4(2) . . . . ?
C2 C1 C6 C5 -0.5(3) . . . . ?
N1 C1 C6 C5 -178.2(2) . . . . ?
C2 C1 C6 C7 179.2(2) . . . . ?
N1 C1 C6 C7 1.5(2) . . . . ?
C5 C6 C7 C8 178.0(3) . . . . ?
C1 C6 C7 C8 -1.7(2) . . . . ?
C5 C6 C7 C9 -3.8(4) . . . . ?
C1 C6 C7 C9 176.6(2) . . . . ?
C6 C7 C8 N1 1.2(3) . . . . ?
C9 C7 C8 N1 -177.1(2) . . . . ?
C6 C7 C8 C11 175.5(2) . . . . ?
C9 C7 C8 C11 -2.8(4) . . . . ?
C1 N1 C8 C7 -0.3(3) . . . . ?
C12 N1 C8 C7 -169.7(2) . . . . ?
C1 N1 C8 C11 -174.7(2) . . . . ?
C12 N1 C8 C11 15.9(4) . . . . ?
C10 O2 C9 O1 0.3(4) . . . . ?
C10 O2 C9 C7 -179.4(2) . . . . ?
C8 C7 C9 O1 5.4(4) . . . . ?
C6 C7 C9 O1 -172.5(2) . . . . ?
C8 C7 C9 O2 -174.8(2) . . . . ?
C6 C7 C9 O2 7.2(3) . . . . ?
C7 C8 C11 F2 -146.3(2) . . . . ?
N1 C8 C11 F2 27.2(3) . . . . ?
C7 C8 C11 F1 94.9(3) . . . . ?
N1 C8 C11 F1 -91.6(3) . . . . ?
C15 N3 C12 N2 1.6(4) . . . . ?
C15 N3 C12 N1 178.7(2) . . . . ?
C13 N2 C12 N3 0.2(4) . . . . ?
C13 N2 C12 N1 -176.8(2) . . . . ?
C8 N1 C12 N3 37.9(3) . . . . ?
C1 N1 C12 N3 -130.0(2) . . . . ?
C8 N1 C12 N2 -144.8(2) . . . . ?
C1 N1 C12 N2 47.4(3) . . . . ?
C12 N2 C13 C14 -1.7(4) . . . . ?
N2 C13 C14 C15 1.2(4) . . . . ?
C12 N3 C15 C14 -2.2(3) . . . . ?
C13 C14 C15 N3 0.8(4) . . . . ?
