#------------------------------------------------------------------------------
#$Date: 2021-10-06 16:50:14 +0300 (Wed, 06 Oct 2021) $
#$Revision: 269627 $
#$URL: file:///home/coder/svn-repositories/cod/cif/7/12/89/7128945.cif $
#------------------------------------------------------------------------------
#
# This file is available in the Crystallography Open Database (COD),
# http://www.crystallography.net/
#
# All data on this site have been placed in the public domain by the
# contributors.
#
data_7128945
loop_
_publ_author_name
'Dong, Jiaqi'
'Zhang, Lutao'
'Tan, Dehui'
'Wu, Jianfeng'
'Wang, Nan'
'Mellerup, Soren K.'
'Wang, Suning'
'Yang, Deng-Tao'
_publ_section_title
;
 Formation of an air-stable diborane <i>via</i> a stepwise BH<sub>3</sub>
 addition of pyrido[1,2-<i>a</i>]isoindole with H<sub>2</sub> evolution.
;
_journal_issue                   77
_journal_name_full
'Chemical communications (Cambridge, England)'
_journal_page_first              9882
_journal_page_last               9885
_journal_paper_doi               10.1039/d1cc04228a
_journal_volume                  57
_journal_year                    2021
_chemical_formula_moiety         'C12 H13 B2 N'
_chemical_formula_sum            'C12 H13 B2 N'
_chemical_formula_weight         192.85
_space_group_crystal_system      triclinic
_space_group_IT_number           2
_space_group_name_Hall           '-P 1'
_space_group_name_H-M_alt        'P -1'
_atom_sites_solution_hydrogens   mixed
_audit_creation_date             2020-11-09
_audit_creation_method
;
Olex2 1.3
(compiled 2020.07.31 svn.rc2a77460 for OlexSys, GUI svn.r6145)
;
_audit_update_record
;
2021-08-03 deposited with the CCDC.	2021-09-02 downloaded from the CCDC.
;
_cell_angle_alpha                69.122(5)
_cell_angle_beta                 89.652(6)
_cell_angle_gamma                83.064(6)
_cell_formula_units_Z            2
_cell_length_a                   6.995(5)
_cell_length_b                   8.942(6)
_cell_length_c                   9.230(6)
_cell_measurement_reflns_used    558
_cell_measurement_temperature    180(2)
_cell_measurement_theta_max      25.50
_cell_measurement_theta_min      2.73
_cell_volume                     535.1(6)
_computing_cell_refinement       'Bruker SAINT'
_computing_data_collection       'Bruker APEX2'
_computing_data_reduction        'Bruker SAINT'
_computing_molecular_graphics    'Olex2 1.3 (Dolomanov et al., 2009)'
_computing_publication_material  'Olex2 1.3 (Dolomanov et al., 2009)'
_computing_structure_refinement  'SHELXL 2013/4 (Sheldrick, 2015)'
_computing_structure_solution    'SHELXS-97 (Sheldrick, 1990)'
_diffrn_ambient_temperature      179.98
_diffrn_measured_fraction_theta_full 0.814
_diffrn_measured_fraction_theta_max 0.836
_diffrn_measurement_device_type  'Bruker APEX-II CCD'
_diffrn_measurement_method       '\f and \w scans'
_diffrn_radiation_type           MoK\a
_diffrn_radiation_wavelength     0.71073
_diffrn_reflns_av_R_equivalents  0.0333
_diffrn_reflns_av_unetI/netI     0.0594
_diffrn_reflns_Laue_measured_fraction_full 0.814
_diffrn_reflns_Laue_measured_fraction_max 0.836
_diffrn_reflns_limit_h_max       7
_diffrn_reflns_limit_h_min       -8
_diffrn_reflns_limit_k_max       10
_diffrn_reflns_limit_k_min       -10
_diffrn_reflns_limit_l_max       10
_diffrn_reflns_limit_l_min       -10
_diffrn_reflns_number            2289
_diffrn_reflns_point_group_measured_fraction_full 0.814
_diffrn_reflns_point_group_measured_fraction_max 0.836
_diffrn_reflns_theta_full        25.242
_diffrn_reflns_theta_max         24.992
_diffrn_reflns_theta_min         2.732
_diffrn_source_current           30.0
_diffrn_source_power             1.5
_diffrn_source_voltage           50.0
_diffrn_standards_number         0
_exptl_absorpt_coefficient_mu    0.067
_exptl_absorpt_correction_T_max  0.997
_exptl_absorpt_correction_T_min  0.995
_exptl_absorpt_correction_type   multi-scan
_exptl_crystal_colour            'clear whiteish white'
_exptl_crystal_colour_lustre     clear
_exptl_crystal_colour_modifier   whiteish
_exptl_crystal_colour_primary    white
_exptl_crystal_density_diffrn    1.197
_exptl_crystal_density_method    'not measured'
_exptl_crystal_description       needle
_exptl_crystal_F_000             204
_exptl_crystal_size_max          0.2
_exptl_crystal_size_mid          0.06
_exptl_crystal_size_min          0.05
_refine_diff_density_max         0.118
_refine_diff_density_min         -0.192
_refine_diff_density_rms         0.037
_refine_ls_extinction_method     none
_refine_ls_goodness_of_fit_ref   1.075
_refine_ls_hydrogen_treatment    mixed
_refine_ls_matrix_type           full
_refine_ls_number_parameters     151
_refine_ls_number_reflns         1574
_refine_ls_number_restraints     0
_refine_ls_restrained_S_all      1.075
_refine_ls_R_factor_all          0.0964
_refine_ls_R_factor_gt           0.0562
_refine_ls_shift/su_max          0.000
_refine_ls_shift/su_mean         0.000
_refine_ls_structure_factor_coef Fsqd
_refine_ls_weighting_details
'w=1/[\s^2^(Fo^2^)+(0.0581P)^2^+0.1377P] where P=(Fo^2^+2Fc^2^)/3'
_refine_ls_weighting_scheme      calc
_refine_ls_wR_factor_gt          0.1147
_refine_ls_wR_factor_ref         0.1351
_reflns_Friedel_coverage         0.000
_reflns_number_gt                1080
_reflns_number_total             1574
_reflns_threshold_expression     'I > 2\s(I)'
_iucr_refine_instructions_details
;
TITL dy9b in P-1
CELL 0.71073 6.9951 8.9423 9.2305 69.1218 89.6516 83.0638
ZERR 2 0.0045 0.0057 0.0059 0.0054 0.0063 0.0062
LATT 1
SFAC C H B N
UNIT 24 26 4 2
 
L.S. 50
PLAN  5
SIZE 0.05 0.06 0.2
TEMP -93.17
CONF
BOND
MORE -1
BOND $H
fmap 2
acta
OMIT -4 50
REM <olex2.extras>
REM <HklSrc "%.\\dy9b.hkl">
REM </olex2.extras>
 
WGHT    0.058100    0.137700
FVAR       0.32425
N1    4    0.284178    0.842074    1.008885    11.00000    0.02288    0.03336 =
         0.04057   -0.01539    0.00159   -0.00477
C1    1    0.280077    0.857672    0.846201    11.00000    0.03037    0.03655 =
         0.02973   -0.01632    0.00169   -0.00327
C2    1    0.242709    1.031808    0.765512    11.00000    0.01705    0.03426 =
         0.03310   -0.01538    0.00118   -0.00547
C3    1    0.226154    1.121667    0.607676    11.00000    0.03049    0.04044 =
         0.04136   -0.02198    0.00010   -0.00469
AFIX  43
H3    2    0.238220    1.069462    0.534072    11.00000   -1.20000
AFIX   0
C4    1    0.192050    1.287295    0.559086    11.00000    0.03330    0.04172 =
         0.03949   -0.00916   -0.00264   -0.00483
AFIX  43
H4    2    0.180731    1.348988    0.451108    11.00000   -1.20000
AFIX   0
C5    1    0.173685    1.366778    0.665593    11.00000    0.03074    0.03547 =
         0.05064   -0.01492   -0.00357   -0.00161
AFIX  43
H5    2    0.150126    1.481234    0.629327    11.00000   -1.20000
AFIX   0
C6    1    0.189646    1.279658    0.822723    11.00000    0.02548    0.04000 =
         0.04379   -0.02347   -0.00056   -0.00264
AFIX  43
H6    2    0.176861    1.332697    0.895639    11.00000   -1.20000
AFIX   0
C7    1    0.225154    1.111098    0.872488    11.00000    0.01815    0.03464 =
         0.03742   -0.01722    0.00164   -0.00448
C8    1    0.251249    0.989992    1.025657    11.00000    0.01623    0.03591 =
         0.03814   -0.01923    0.00221   -0.00512
C9    1    0.248813    0.997901    1.173693    11.00000    0.02395    0.04401 =
         0.04227   -0.02179    0.00204   -0.00703
AFIX  43
H9    2    0.224334    1.099217    1.186469    11.00000   -1.20000
AFIX   0
C10   1    0.282102    0.857981    1.300963    11.00000    0.03187    0.05829 =
         0.04003   -0.02280    0.00270   -0.01013
AFIX  43
H10   2    0.281186    0.861966    1.402449    11.00000   -1.20000
AFIX   0
C11   1    0.317336    0.709686    1.280601    11.00000    0.03286    0.04735 =
         0.03771   -0.00784    0.00041   -0.00973
AFIX  43
H11   2    0.341305    0.612941    1.368644    11.00000   -1.20000
AFIX   0
C12   1    0.317609    0.702616    1.134489    11.00000    0.03164    0.03543 =
         0.03984   -0.01193    0.00083   -0.00565
AFIX  43
H12   2    0.340861    0.601556    1.121072    11.00000   -1.20000
AFIX   0
B1    3    0.170905    0.730073    0.797841    11.00000    0.03756    0.04423 =
         0.05824   -0.02958    0.00154   -0.00600
B2    3    0.439631    0.743370    0.790536    11.00000    0.03736    0.04242 =
         0.05393   -0.02810    0.00552   -0.00794
H1A   2    0.321156    0.649558    0.766673    11.00000   10.05000
H1B   2    0.085573    0.784003    0.684062    11.00000   10.05000
H1C   2    0.107166    0.637096    0.901817    11.00000   10.05000
H2A   2    0.540971    0.658068    0.891207    11.00000   10.05000
H2B   2    0.499675    0.807008    0.674026    11.00000   10.05000
HKLF 4
 
REM  dy9b in P-1
REM R1 =  0.0562 for    1080 Fo > 4sig(Fo)  and  0.0964 for all    1574 data
REM    151 parameters refined using      0 restraints
 
END  
     
WGHT      0.0581      0.1378 

REM Highest difference peak  0.118,  deepest hole -0.192,  1-sigma level  0.037
Q1    1   0.1492  1.2703  0.9365  11.00000  0.05    0.12
Q2    1   0.3978  0.8849  0.7783  11.00000  0.05    0.12
Q3    1   0.2992  0.8469  1.4814  11.00000  0.05    0.12
Q4    1   0.2183  1.3743  0.4209  11.00000  0.05    0.12
Q5    1   0.6262  0.7182  0.8021  11.00000  0.05    0.11

  REM The information below was added by Olex2.
  REM
  REM R1 = 0.0562 for 1080 Fo > 4sig(Fo) and 0.0964 for all 2653 data
  REM 151 parameters refined using n/a restraints
  REM Highest difference peak 0.12, deepest hole -0.19
  REM Mean Shift 0, Max Shift 0.000.

  REM +++ Tabular Listing of Refinement Information +++
  REM R1_all = 0.0964
  REM R1_gt = 0.0562
  REM wR_ref = 0.1351
  REM GOOF = 1.075
  REM Shift_max = 0.000
  REM Shift_mean = 0
  REM Reflections_all = 2653
  REM Reflections_gt = 1080
  REM Parameters = 151
  REM Hole = -0.19
  REM Peak = 0.12
  REM Flack = n/a

  
;
_cod_data_source_file            d1cc04228a2.cif
_cod_data_source_block           dy9b
_cod_depositor_comments          'Adding full bibliography for 7128945.cif.'
_cod_database_code               7128945
_shelxl_version_number           2013-4
_shelx_space_group_comment
;
The symmetry employed for this shelxl refinement is uniquely defined
by the following loop, which should always be used as a source of
symmetry information in preference to the above space-group names.
They are only intended as comments.
;
_shelx_estimated_absorpt_t_max   0.997
_shelx_estimated_absorpt_t_min   0.987
_olex2_refinement_description
;
1. Fixed Uiso
 At 1.2 times of:
  All C(H) groups
2. Others
 Fixed Uiso: H1A(0.05) H1B(0.05) H1C(0.05) H2A(0.05) H2B(0.05)
3.a Aromatic/amide H refined with riding coordinates:
 C3(H3), C4(H4), C5(H5), C6(H6), C9(H9), C10(H10), C11(H11), C12(H12)
;
_olex2_submission_special_instructions 'No special instructions were received'
loop_
_space_group_symop_operation_xyz
'x, y, z'
'-x, -y, -z'
loop_
_atom_site_label
_atom_site_type_symbol
_atom_site_fract_x
_atom_site_fract_y
_atom_site_fract_z
_atom_site_U_iso_or_equiv
_atom_site_adp_type
_atom_site_occupancy
_atom_site_site_symmetry_order
_atom_site_calc_flag
_atom_site_refinement_flags_posn
_atom_site_refinement_flags_adp
_atom_site_refinement_flags_occupancy
_atom_site_disorder_assembly
_atom_site_disorder_group
N1 N 0.2842(3) 0.8421(3) 1.0089(3) 0.0316(6) Uani 1 1 d . . . . .
C1 C 0.2801(4) 0.8577(3) 0.8462(3) 0.0311(7) Uani 1 1 d . . . . .
C2 C 0.2427(3) 1.0318(3) 0.7655(3) 0.0270(6) Uani 1 1 d . . . . .
C3 C 0.2262(4) 1.1217(3) 0.6077(3) 0.0354(7) Uani 1 1 d . . . . .
H3 H 0.2382 1.0695 0.5341 0.042 Uiso 1 1 calc R U . . .
C4 C 0.1920(4) 1.2873(3) 0.5591(3) 0.0396(7) Uani 1 1 d . . . . .
H4 H 0.1807 1.3490 0.4511 0.048 Uiso 1 1 calc R U . . .
C5 C 0.1737(4) 1.3668(3) 0.6656(3) 0.0393(7) Uani 1 1 d . . . . .
H5 H 0.1501 1.4812 0.6293 0.047 Uiso 1 1 calc R U . . .
C6 C 0.1896(3) 1.2797(3) 0.8227(3) 0.0342(7) Uani 1 1 d . . . . .
H6 H 0.1769 1.3327 0.8956 0.041 Uiso 1 1 calc R U . . .
C7 C 0.2252(3) 1.1111(3) 0.8725(3) 0.0288(6) Uani 1 1 d . . . . .
C8 C 0.2512(3) 0.9900(3) 1.0257(3) 0.0283(6) Uani 1 1 d . . . . .
C9 C 0.2488(4) 0.9979(3) 1.1737(3) 0.0348(7) Uani 1 1 d . . . . .
H9 H 0.2243 1.0992 1.1865 0.042 Uiso 1 1 calc R U . . .
C10 C 0.2821(4) 0.8580(4) 1.3010(3) 0.0416(8) Uani 1 1 d . . . . .
H10 H 0.2812 0.8620 1.4024 0.050 Uiso 1 1 calc R U . . .
C11 C 0.3173(4) 0.7097(4) 1.2806(3) 0.0409(7) Uani 1 1 d . . . . .
H11 H 0.3413 0.6129 1.3686 0.049 Uiso 1 1 calc R U . . .
C12 C 0.3176(4) 0.7026(3) 1.1345(3) 0.0359(7) Uani 1 1 d . . . . .
H12 H 0.3409 0.6016 1.1211 0.043 Uiso 1 1 calc R U . . .
B1 B 0.1709(5) 0.7301(5) 0.7978(5) 0.0435(9) Uani 1 1 d . . . . .
B2 B 0.4396(5) 0.7434(4) 0.7905(5) 0.0414(9) Uani 1 1 d . . . . .
H1A H 0.321(4) 0.650(3) 0.767(3) 0.050 Uiso 1 1 d . U . . .
H1B H 0.086(4) 0.784(3) 0.684(3) 0.050 Uiso 1 1 d . U . . .
H1C H 0.107(4) 0.637(3) 0.902(3) 0.050 Uiso 1 1 d . U . . .
H2A H 0.541(4) 0.658(3) 0.891(3) 0.050 Uiso 1 1 d . U . . .
H2B H 0.500(4) 0.807(3) 0.674(3) 0.050 Uiso 1 1 d . U . . .
loop_
_atom_site_aniso_label
_atom_site_aniso_U_11
_atom_site_aniso_U_22
_atom_site_aniso_U_33
_atom_site_aniso_U_23
_atom_site_aniso_U_13
_atom_site_aniso_U_12
N1 0.0229(13) 0.0334(15) 0.0406(15) -0.0154(11) 0.0016(9) -0.0048(9)
C1 0.0304(16) 0.0366(18) 0.0297(17) -0.0163(12) 0.0017(11) -0.0033(11)
C2 0.0170(14) 0.0343(16) 0.0331(17) -0.0154(13) 0.0012(10) -0.0055(10)
C3 0.0305(17) 0.0404(19) 0.041(2) -0.0220(15) 0.0001(12) -0.0047(12)
C4 0.0333(18) 0.042(2) 0.0395(19) -0.0092(14) -0.0026(12) -0.0048(12)
C5 0.0307(17) 0.0355(18) 0.051(2) -0.0149(15) -0.0036(13) -0.0016(12)
C6 0.0255(16) 0.0400(18) 0.044(2) -0.0235(14) -0.0006(12) -0.0026(11)
C7 0.0181(14) 0.0346(18) 0.0374(17) -0.0172(13) 0.0016(11) -0.0045(11)
C8 0.0162(14) 0.0359(17) 0.0381(18) -0.0192(13) 0.0022(10) -0.0051(10)
C9 0.0240(16) 0.0440(19) 0.0423(19) -0.0218(15) 0.0020(12) -0.0070(12)
C10 0.0319(18) 0.058(2) 0.040(2) -0.0228(17) 0.0027(13) -0.0101(13)
C11 0.0329(18) 0.047(2) 0.0377(19) -0.0078(14) 0.0004(12) -0.0097(13)
C12 0.0316(17) 0.0354(18) 0.0398(19) -0.0119(14) 0.0008(12) -0.0057(12)
B1 0.038(2) 0.044(2) 0.058(3) -0.0296(19) 0.0015(17) -0.0060(15)
B2 0.037(2) 0.042(2) 0.054(2) -0.0281(18) 0.0055(16) -0.0079(15)
loop_
_atom_type_symbol
_atom_type_description
_atom_type_scat_dispersion_real
_atom_type_scat_dispersion_imag
_atom_type_scat_source
C C 0.0033 0.0016 'International Tables Vol C Tables 4.2.6.8 and 6.1.1.4'
H H 0.0000 0.0000 'International Tables Vol C Tables 4.2.6.8 and 6.1.1.4'
B B 0.0013 0.0007 'International Tables Vol C Tables 4.2.6.8 and 6.1.1.4'
N N 0.0061 0.0033 'International Tables Vol C Tables 4.2.6.8 and 6.1.1.4'
loop_
_diffrn_refln_index_h
_diffrn_refln_index_k
_diffrn_refln_index_l
_diffrn_refln_intensity_net
_diffrn_refln_intensity_u
-1 0 0 0.9 0.09
-2 0 0 1000 5.22
-3 0 0 7.74 0.24
-6 0 0 1.44 0.28
-8 1 0 0.75 0.38
-7 1 0 0.16 0.31
-6 1 0 0.49 0.27
-5 1 0 1.43 0.24
-4 1 0 0.15 0.15
-3 1 0 0.96 0.17
-3 1 0 1 0.15
-2 1 0 0.5 0.11
-2 1 0 0.43 0.12
1 -1 0 31.54 0.34
-1 1 0 31.58 0.34
-1 -1 0 11.86 0.2
1 1 0 12.24 0.21
-8 2 0 0.92 0.42
7 -2 0 2.78 0.41
-7 2 0 3.05 0.43
6 -2 0 3.37 0.39
-6 2 0 3.33 0.38
5 -2 0 0.39 0.22
-5 2 0 0.23 0.23
4 -2 0 8.63 0.36
-4 2 0 7.8 0.35
3 -2 0 3.42 0.26
-3 2 0 3.22 0.24
2 -2 0 2.72 0.19
-2 2 0 2.8 0.19
1 -2 0 1.07 0.13
-1 2 0 1.02 0.12
1 2 0 22.61 0.34
-2 -2 0 0.15 0.09
2 2 0 0.06 0.11
-3 -2 0 0.08 0.13
-4 -2 0 21.74 0.49
8 -3 0 0.87 0.4
-8 3 0 1.66 0.47
7 -3 0 0.87 0.36
-7 3 0 1.03 0.37
6 -3 0 1.1 0.3
-6 3 0 1.84 0.36
5 -3 0 8.23 0.44
-5 3 0 7.39 0.46
4 -3 0 3.61 0.32
-4 3 0 3.6 0.32
3 -3 0 9.75 0.36
-3 3 0 9.61 0.35
2 -3 0 7.17 0.3
-2 3 0 7.45 0.29
1 -3 0 31.68 0.48
-1 3 0 31.4 0.45
1 3 0 9.14 0.26
-2 -3 0 7.3 0.26
2 3 0 7.33 0.28
-3 -3 0 7.59 0.31
3 3 0 7.7 0.33
-4 -3 0 0.66 0.19
7 -4 0 0.36 0.38
-7 4 0 0.45 0.39
6 -4 0 0.19 0.32
-6 4 0 0.26 0.32
5 -4 0 5.92 0.47
-5 4 0 6.92 0.48
4 -4 0 5.54 0.4
-4 4 0 5.09 0.37
3 -4 0 16.36 0.49
-3 4 0 15.69 0.44
2 -4 0 15.48 0.44
-2 4 0 15.28 0.41
1 -4 0 16.81 0.43
-1 4 0 16.7 0.37
1 4 0 24.27 0.45
-2 -4 0 0.85 0.16
2 4 0 1.37 0.19
-3 -4 0 3.12 0.27
-4 -4 0 3.44 0.31
4 4 0 2.9 0.29
-5 -4 0 0.38 0.25
-6 -4 0 0.34 0.29
7 -5 0 -0.14 0.41
-7 5 0 -0.11 0.38
6 -5 0 7.19 0.61
-6 5 0 7.1 0.6
5 -5 0 0.42 0.3
-5 5 0 0.36 0.3
4 -5 0 11.26 0.55
-4 5 0 11.24 0.5
3 -5 0 3.91 0.38
-3 5 0 4.13 0.34
2 -5 0 -0.02 0.21
-2 5 0 0.28 0.18
-1 5 0 3.53 0.26
2 5 0 13.9 0.41
-3 -5 0 14.58 0.45
3 5 0 14.09 0.46
-4 -5 0 5.11 0.39
-5 -5 0 5 0.45
-6 -5 0 1.01 0.35
-7 -5 0 3.02 0.46
6 -6 0 8.56 0.73
-6 6 0 9.11 0.69
5 -6 0 4.74 0.55
-5 6 0 5.16 0.5
4 -6 0 17.05 0.72
-4 6 0 17.75 0.63
3 -6 0 2.19 0.37
-3 6 0 2.93 0.33
2 -6 0 26.55 0.7
-2 6 0 26 0.6
-1 6 0 1.87 0.24
2 6 0 0.84 0.22
3 6 0 6.03 0.38
4 6 0 0.45 0.26
-5 -6 0 2.17 0.37
-6 -6 0 1.88 0.42
-7 -6 0 0.22 0.38
5 -7 0 0.02 0.45
-5 7 0 1.09 0.39
4 -7 0 3.23 0.53
-4 7 0 3.58 0.44
-3 7 0 5.85 0.47
2 -7 0 21.26 0.75
-2 7 0 22.01 0.61
3 7 0 0.86 0.29
-4 -7 0 12.56 0.6
4 7 0 12.32 0.58
5 7 0 0.68 0.34
-6 -7 0 0.37 0.42
-7 -7 0 0.41 0.44
4 -8 0 -0.12 0.43
-4 8 0 0.46 0.38
3 -8 0 -0.17 0.43
-3 8 0 0.02 0.32
2 8 0 12.2 0.58
3 8 0 7.35 0.55
4 8 0 14.86 0.75
5 8 0 2.37 0.48
-6 -8 0 9.7 0.75
6 8 0 11.12 0.78
3 -9 0 -0.34 0.46
-3 9 0 0.77 0.4
3 10 0 0.15 0.4
4 9 -1 2 0.51
3 9 -1 0.14 0.37
2 9 -1 1.23 0.4
2 -9 1 0.49 0.47
3 -9 1 1.5 0.55
-6 -8 1 0.72 0.46
5 8 -1 2.39 0.54
4 8 -1 2.3 0.47
3 8 -1 3.82 0.49
2 8 -1 0.51 0.31
1 -8 1 0.34 0.37
2 -8 1 0.65 0.4
-3 8 -1 0.26 0.33
3 -8 1 0.34 0.42
-4 8 -1 -0.33 0.39
4 -8 1 -0.07 0.46
6 7 -1 1.48 0.49
-6 -7 1 2.02 0.46
5 7 -1 -0.13 0.4
-5 -7 1 0.08 0.37
4 7 -1 11.14 0.64
-4 -7 1 11.36 0.6
3 7 -1 1.07 0.32
2 7 -1 9.63 0.5
-2 7 -1 -0.25 0.25
2 -7 1 -0.12 0.35
-3 7 -1 1.46 0.33
3 -7 1 0.59 0.38
-4 7 -1 0.2 0.36
4 -7 1 0.72 0.45
-5 7 -1 0.11 0.38
5 -7 1 -0.28 0.49
-7 -6 1 0.06 0.41
6 6 -1 0.1 0.35
-6 -6 1 -0.32 0.34
5 6 -1 0.5 0.33
4 6 -1 0.09 0.27
-4 -6 1 -0.27 0.26
3 6 -1 4.23 0.4
2 6 -1 6.07 0.39
1 -6 1 1.71 0.32
-2 6 -1 8.29 0.42
2 -6 1 8.43 0.52
-3 6 -1 2.91 0.35
3 -6 1 3.48 0.44
-4 6 -1 6.53 0.5
4 -6 1 6.18 0.58
-5 6 -1 2.34 0.44
5 -6 1 2.03 0.5
-6 6 -1 0.52 0.39
6 -6 1 -0.21 0.47
-8 -5 1 0.25 0.46
-7 -5 1 -0.52 0.36
-6 -5 1 1.23 0.36
-5 -5 1 4.04 0.4
3 5 -1 2.35 0.28
-3 -5 1 2.35 0.27
2 5 -1 2.05 0.25
1 5 -1 0.06 0.15
1 -5 1 0.36 0.22
-2 5 -1 6.54 0.34
2 -5 1 6.89 0.43
-3 5 -1 1.35 0.26
3 -5 1 1.77 0.35
-4 5 -1 10.84 0.52
4 -5 1 10.55 0.59
-5 5 -1 -0.02 0.3
5 -5 1 0.24 0.34
-6 5 -1 3.82 0.5
6 -5 1 3.56 0.53
-7 -4 1 -0.05 0.36
-5 -4 1 0.18 0.23
4 4 -1 0.31 0.18
-4 -4 1 0.17 0.2
3 4 -1 11.01 0.38
-3 -4 1 10.57 0.39
2 4 -1 8.24 0.33
1 4 -1 4.33 0.26
1 -4 1 1.86 0.24
-2 4 -1 2.41 0.23
2 -4 1 2.61 0.29
-3 4 -1 0 0.17
3 -4 1 -0.23 0.21
-4 4 -1 0.75 0.26
4 -4 1 0.67 0.27
-5 4 -1 1.31 0.32
5 -4 1 1.3 0.32
-6 4 -1 1.92 0.4
6 -4 1 2.04 0.41
-7 4 -1 0.11 0.4
-7 -3 1 3.04 0.43
-5 -3 1 0.06 0.21
-4 -3 1 6.16 0.34
3 3 -1 2.74 0.24
-3 -3 1 2.64 0.25
2 3 -1 4.39 0.24
-2 -3 1 4.35 0.23
1 3 -1 0.21 0.12
0 -3 1 7.25 0.27
-1 3 -1 1.48 0.15
1 -3 1 1.82 0.2
-2 3 -1 9.92 0.32
2 -3 1 9.96 0.37
-3 3 -1 10.18 0.37
3 -3 1 11.04 0.41
-4 3 -1 9.13 0.43
4 -3 1 9.33 0.43
-5 3 -1 3.75 0.39
5 -3 1 3.17 0.38
-6 3 -1 2.1 0.38
6 -3 1 1.49 0.36
-7 3 -1 -0.06 0.34
-6 -2 1 0.22 0.26
-5 -2 1 4.48 0.35
-4 -2 1 10.57 0.37
-3 -2 1 2.34 0.21
2 2 -1 -0.03 0.1
1 2 -1 12.26 0.28
-1 -2 1 12.27 0.28
0 -2 1 4.5 0.2
-1 2 -1 1.92 0.15
1 -2 1 1.8 0.17
-2 2 -1 7.88 0.27
2 -2 1 7.22 0.27
-3 2 -1 0.19 0.14
3 -2 1 -0.1 0.15
-4 2 -1 3.97 0.32
4 -2 1 3.95 0.32
-5 2 -1 1.7 0.3
-6 2 -1 1.43 0.35
6 -2 1 1.6 0.33
-7 2 -1 0.05 0.33
-8 2 -1 1.25 0.43
-3 -1 1 8.54 0.28
-2 -1 1 29.41 0.41
-1 -1 1 40.84 0.43
0 1 -1 3.37 0.15
0 -1 1 3.01 0.16
-1 1 -1 62.02 0.55
1 -1 1 64.06 0.58
-2 1 -1 2.3 0.16
2 -1 1 2.25 0.17
-3 1 -1 0.05 0.11
-4 1 -1 3.36 0.28
-5 1 -1 0.12 0.2
-6 1 -1 1.54 0.33
-7 1 -1 -0.13 0.31
-8 1 -1 -0.2 0.37
-3 0 1 18.06 0.36
-2 0 1 255.51 1.61
-1 0 1 113.4 0.75
-1 0 -1 20.41 0.25
-2 0 -1 20.13 0.31
-3 0 -1 7.82 0.26
-4 0 -1 23.51 0.47
-5 0 -1 2.02 0.26
-6 0 -1 0.03 0.23
-7 0 -1 3.06 0.41
-6 1 1 0.15 0.26
-5 1 1 1.07 0.24
-5 1 1 1.17 0.24
-4 1 1 9.39 0.35
-4 1 1 9.29 0.33
-3 1 1 23.6 0.43
-3 1 1 23.11 0.4
-2 1 1 197 1.3
-2 1 1 192.37 1.35
-1 1 1 45.89 0.41
-1 1 1 46.12 0.43
0 -1 -1 310.11 1.78
0 1 1 301.29 1.67
-1 -1 -1 131.24 0.88
1 1 1 129.82 0.83
-4 -1 -1 25.7 0.47
-5 -1 -1 1.79 0.24
-8 2 1 3.28 0.51
-7 2 1 0.5 0.33
-6 2 1 3.51 0.38
-5 2 1 0.45 0.21
-5 2 1 0.33 0.22
-4 2 1 3.58 0.28
-4 2 1 3.42 0.28
-3 2 1 2.17 0.21
-3 2 1 2.09 0.22
-2 2 1 11.1 0.28
-2 2 1 11.25 0.28
-1 2 1 5.71 0.19
0 2 1 1.66 0.12
-1 -2 -1 0.13 0.08
-1 -2 -1 0.06 0.09
-2 -2 -1 126.85 1.04
8 -3 -1 0.79 0.41
-8 3 1 0.65 0.42
7 -3 -1 0.41 0.32
-7 3 1 0.77 0.35
6 -3 -1 6.39 0.48
-6 3 1 6.41 0.51
5 -3 -1 5.11 0.42
-5 3 1 5.35 0.41
4 -3 -1 14.44 0.45
-4 3 1 14.44 0.44
3 -3 -1 10.37 0.36
-3 3 1 10.85 0.36
2 -3 -1 17.08 0.38
-2 3 1 17.21 0.38
-1 3 1 0.03 0.11
0 3 1 26.62 0.36
-1 -3 -1 0.51 0.11
1 3 1 0.56 0.13
-2 -3 -1 13.72 0.33
2 3 1 13.45 0.35
-4 -3 -1 -0.17 0.16
7 -4 -1 2.94 0.45
-7 4 1 3.12 0.47
6 -4 -1 -0.06 0.3
-6 4 1 0.17 0.32
5 -4 -1 2.88 0.36
-5 4 1 3.37 0.38
4 -4 -1 11.69 0.47
-4 4 1 12.21 0.46
3 -4 -1 12.44 0.42
-3 4 1 12.11 0.4
2 -4 -1 33.97 0.58
-2 4 1 33.57 0.57
-1 4 1 3.24 0.23
0 4 1 59.22 0.62
-2 -4 -1 20.62 0.44
2 4 1 20.54 0.46
-3 -4 -1 5.58 0.3
3 4 1 5.39 0.32
-4 -4 -1 0.13 0.19
4 4 1 0.05 0.19
-5 -4 -1 -0.3 0.22
7 -5 -1 1.14 0.45
-7 5 1 0.48 0.42
6 -5 -1 0.68 0.38
-6 5 1 0.84 0.35
5 -5 -1 0.81 0.32
-5 5 1 0.45 0.32
4 -5 -1 0.25 0.25
-4 5 1 0.1 0.23
3 -5 -1 1.99 0.28
-3 5 1 1.23 0.24
-2 5 1 0.71 0.2
-1 5 1 13.87 0.37
-2 -5 -1 28.71 0.56
2 5 1 28.45 0.58
-3 -5 -1 16.74 0.48
3 5 1 17.24 0.49
-4 -5 -1 21.24 0.58
-5 -5 -1 4.84 0.42
5 5 1 4.45 0.43
-6 -5 -1 6.35 0.55
6 5 1 6.21 0.55
-7 -5 -1 -0.44 0.32
6 -6 -1 2.14 0.5
-6 6 1 2.68 0.45
5 -6 -1 0.32 0.36
-5 6 1 0.51 0.33
4 -6 -1 0.36 0.33
-4 6 1 0.23 0.27
3 -6 -1 0.32 0.27
-3 6 1 0.05 0.25
-2 6 1 2.49 0.29
-1 6 1 7.25 0.34
-3 -6 -1 0.99 0.25
3 6 1 1.07 0.24
-4 -6 -1 5.44 0.41
4 6 1 5.26 0.43
-5 -6 -1 2.61 0.39
5 6 1 2.72 0.4
-6 -6 -1 2.1 0.44
6 6 1 2.26 0.44
-7 -6 -1 -0.08 0.39
7 6 1 1.28 0.47
5 -7 -1 2.3 0.51
-5 7 1 1.93 0.42
4 -7 -1 2.13 0.47
-4 7 1 3.08 0.43
3 -7 -1 1.85 0.42
-3 7 1 2.22 0.35
2 -7 -1 6.13 0.51
-2 7 1 6.24 0.42
-3 -7 -1 0.38 0.26
3 7 1 0.14 0.24
-4 -7 -1 -0.2 0.26
4 7 1 0.45 0.3
5 7 1 0.83 0.37
-6 -7 -1 0.72 0.42
6 7 1 0.4 0.41
-7 -7 -1 1.48 0.51
7 7 1 1.59 0.51
5 -8 -1 -0.22 0.48
-5 8 1 0.76 0.42
4 -8 -1 1.01 0.47
-4 8 1 1.26 0.4
-3 8 1 1.6 0.35
-2 8 1 1 0.31
5 8 1 0.41 0.39
-6 -8 -1 1.73 0.5
6 8 1 2.1 0.52
4 -9 -1 -0.4 0.5
-4 9 1 -0.35 0.4
-3 9 1 0.05 0.36
-2 9 1 -0.31 0.32
-4 -9 -1 4.1 0.5
-5 -9 -1 2.59 0.52
1 9 -2 0.65 0.38
1 -9 2 0.73 0.52
2 -9 2 1.91 0.54
4 8 -2 0.36 0.39
3 8 -2 0.52 0.36
2 8 -2 0.59 0.34
0 -8 2 0.06 0.4
1 -8 2 0.13 0.38
2 -8 2 0.72 0.43
-3 8 -2 1.26 0.38
3 -8 2 1.82 0.51
-6 -7 2 0.03 0.39
5 7 -2 4.99 0.58
4 7 -2 0.71 0.35
3 7 -2 1.24 0.35
0 -7 2 1.32 0.38
1 -7 2 -0.31 0.33
2 -7 2 0.68 0.37
-3 7 -2 0.14 0.3
3 -7 2 -0.02 0.39
-4 7 -2 0.27 0.35
4 -7 2 -0.5 0.42
-5 7 -2 1.08 0.42
-7 -6 2 -0.5 0.41
-6 -6 2 0.39 0.37
5 6 -2 1.61 0.4
3 6 -2 4.87 0.42
2 6 -2 0.18 0.22
1 6 -2 11.69 0.48
0 -6 2 1.14 0.32
1 -6 2 12.55 0.57
2 -6 2 0.35 0.31
-3 6 -2 0.88 0.29
3 -6 2 0.43 0.34
-4 6 -2 0.44 0.3
4 -6 2 -0.24 0.4
-5 6 -2 0.52 0.37
5 -6 2 -0.27 0.42
-7 -5 2 1.63 0.44
5 5 -2 1.59 0.33
3 5 -2 1.12 0.24
1 5 -2 0.05 0.17
0 5 -2 0.92 0.22
0 -5 2 1.18 0.27
1 -5 2 3.45 0.35
-2 5 -2 -0.37 0.2
2 -5 2 0.03 0.27
-3 5 -2 7.86 0.44
3 -5 2 7.67 0.53
-4 5 -2 -0.37 0.26
4 -5 2 -0.1 0.33
-5 5 -2 3.29 0.43
5 -5 2 3.05 0.49
-6 5 -2 -0.63 0.36
6 -5 2 0 0.45
-8 -4 2 -0.13 0.4
-7 -4 2 6.45 0.58
-6 -4 2 -0.07 0.3
-5 -4 2 7.82 0.46
-4 -4 2 0.31 0.21
2 4 -2 2.48 0.25
1 4 -2 2.77 0.25
-1 -4 2 2.97 0.29
0 -4 2 11.98 0.42
1 -4 2 0.32 0.19
-2 4 -2 4.35 0.3
2 -4 2 4.16 0.35
-3 4 -2 1.16 0.24
3 -4 2 1.17 0.28
-4 4 -2 3.95 0.38
4 -4 2 3.65 0.4
-5 4 -2 3.1 0.4
5 -4 2 3.02 0.46
-6 4 -2 -0.5 0.34
6 -4 2 -0.26 0.4
-7 4 -2 2.4 0.49
-7 -3 2 0.63 0.36
-6 -3 2 0.49 0.3
-5 -3 2 0.42 0.24
-4 -3 2 0.17 0.17
3 3 -2 7.63 0.33
-3 -3 2 7.99 0.33
1 3 -2 69.31 0.81
-1 -3 2 69.38 0.82
0 3 -2 2.12 0.2
0 -3 2 2.59 0.23
1 -3 2 38.42 0.62
-2 3 -2 4.07 0.26
2 -3 2 3.85 0.3
-3 3 -2 5.68 0.32
3 -3 2 5.61 0.38
-4 3 -2 0.23 0.21
4 -3 2 -0.06 0.22
-5 3 -2 1.06 0.32
5 -3 2 1.06 0.32
-6 3 -2 0.75 0.33
-7 3 -2 -0.45 0.36
-6 -2 2 0.32 0.27
-5 -2 2 0.13 0.21
-4 -2 2 -0.05 0.16
-3 -2 2 1.62 0.2
-2 -2 2 5.73 0.27
-1 -2 2 3.19 0.22
0 2 -2 17.97 0.36
0 -2 2 17.66 0.38
-1 2 -2 48.07 0.61
1 -2 2 47.63 0.61
-2 2 -2 1 0.16
2 -2 2 0.97 0.18
-3 2 -2 21.76 0.48
3 -2 2 22.32 0.51
-4 2 -2 0.17 0.19
-5 2 -2 8.56 0.47
-6 2 -2 0.78 0.32
-7 2 -2 2.26 0.42
-8 2 -2 0.39 0.47
-4 -1 2 -0.1 0.16
-4 -1 2 0.15 0.15
-3 -1 2 3.18 0.23
-3 -1 2 3.08 0.21
-2 -1 2 -0.04 0.1
-2 -1 2 0.06 0.1
-1 -1 2 28.02 0.4
0 1 -2 24.27 0.38
0 -1 2 24.87 0.38
1 -1 2 19.28 0.33
-2 1 -2 10.57 0.28
-3 1 -2 0.19 0.12
-4 1 -2 0.12 0.16
-5 1 -2 1.94 0.28
-6 1 -2 0.06 0.28
-7 1 -2 7.32 0.57
-8 1 -2 0.2 0.41
-7 0 2 0.43 0.32
-5 0 2 0.69 0.23
-4 0 2 -0.12 0.15
3 0 -2 0.07 0.13
-3 0 2 0.16 0.13
2 0 -2 8.85 0.26
-2 0 2 8.98 0.23
-1 0 2 3.87 0.16
-1 0 -2 2.23 0.15
-2 0 -2 0.68 0.11
-3 0 -2 0.48 0.13
-4 0 -2 0.48 0.15
-5 0 -2 0.36 0.2
-6 0 -2 1.91 0.35
-7 0 -2 0.13 0.33
-8 0 -2 1.74 0.45
-8 1 2 0.47 0.36
-6 1 2 1.42 0.32
-5 1 2 0.14 0.21
-4 1 2 4.25 0.29
-3 1 2 6.89 0.27
2 -1 -2 0.95 0.15
-2 1 2 0.9 0.13
1 -1 -2 6.26 0.2
-1 1 2 6.05 0.17
-1 1 2 6.3 0.18
0 1 2 32.22 0.38
-1 -1 -2 9.26 0.22
1 1 2 8.89 0.21
-2 -1 -2 12.75 0.3
2 1 2 12.86 0.29
-3 -1 -2 1.09 0.16
-4 -1 -2 1.04 0.19
-5 -1 -2 1.84 0.25
-6 -1 -2 1.35 0.3
-7 -1 -2 1.74 0.38
-7 2 2 0.64 0.33
-6 2 2 3.48 0.38
-6 2 2 3.32 0.39
-5 2 2 5.3 0.37
-5 2 2 5.65 0.37
-4 2 2 23.29 0.52
-4 2 2 23.15 0.5
-3 2 2 14.16 0.36
-3 2 2 14.23 0.37
-2 2 2 43.21 0.54
-2 2 2 42.65 0.53
1 -2 -2 2.41 0.19
-1 2 2 2.07 0.16
0 -2 -2 7.48 0.23
0 2 2 7.47 0.21
1 2 2 3.36 0.17
-2 -2 -2 1.99 0.17
2 2 2 1.93 0.16
-3 -2 -2 10.57 0.32
3 2 2 10.56 0.3
4 2 2 0.04 0.14
6 2 2 2.95 0.37
8 -3 -2 1.11 0.41
-8 3 2 1.3 0.44
-7 3 2 1.74 0.4
-6 3 2 2.19 0.35
-5 3 2 2.8 0.34
-5 3 2 3.93 0.35
-4 3 2 3.56 0.31
-4 3 2 3.25 0.3
-3 3 2 20.56 0.46
-3 3 2 20.34 0.45
-2 3 2 7.19 0.28
-2 3 2 7.82 0.28
-1 3 2 2.57 0.18
0 -3 -2 41.58 0.55
0 3 2 42.21 0.49
-1 -3 -2 2.15 0.18
1 3 2 2.16 0.18
-2 -3 -2 46.74 0.62
-2 -3 -2 47.72 0.62
-3 -3 -2 3.5 0.27
-4 -3 -2 8.38 0.37
7 -4 -2 0.33 0.35
-7 4 2 0.15 0.36
6 -4 -2 1.06 0.34
-6 4 2 2.39 0.38
5 -4 -2 -0.11 0.24
-5 4 2 0.11 0.25
4 -4 -2 14.63 0.48
-4 4 2 14.15 0.48
3 -4 -2 0.16 0.19
-3 4 2 0.25 0.18
-2 4 2 22.59 0.46
-1 4 2 18.09 0.39
0 4 2 2.1 0.19
-1 -4 -2 11.92 0.35
1 4 2 11.78 0.3
-2 -4 -2 1.39 0.2
2 4 2 1.39 0.2
-3 -4 -2 22.43 0.49
-4 -4 -2 11.65 0.42
7 -5 -2 2.35 0.48
-7 5 2 2.86 0.48
6 -5 -2 -0.1 0.34
-6 5 2 0.53 0.35
5 -5 -2 1.69 0.34
-5 5 2 1.29 0.33
4 -5 -2 0.65 0.26
-4 5 2 0.25 0.24
3 -5 -2 3.03 0.31
-3 5 2 2.85 0.3
-2 5 2 6.24 0.32
-1 5 2 3.35 0.27
0 5 2 25.89 0.47
-2 -5 -2 27.35 0.57
-3 -5 -2 2.96 0.28
3 5 2 2.81 0.3
-4 -5 -2 8.57 0.42
4 5 2 8.28 0.43
-5 -5 -2 3.03 0.36
5 5 2 3.31 0.39
6 -6 -2 0.15 0.42
-6 6 2 0.7 0.37
5 -6 -2 0.28 0.35
-5 6 2 -0.03 0.3
4 -6 -2 0.37 0.32
-4 6 2 -0.32 0.26
3 -6 -2 2.15 0.34
-3 6 2 1.89 0.3
-2 6 2 0.23 0.2
-1 6 2 7.23 0.36
0 6 2 6.59 0.31
-2 -6 -2 2.85 0.29
-3 -6 -2 1.79 0.27
3 6 2 2.39 0.31
-4 -6 -2 7.18 0.45
4 6 2 6.57 0.47
5 6 2 -0.06 0.3
-6 -6 -2 3.16 0.46
-7 -6 -2 1.22 0.47
7 6 2 1.61 0.49
6 -7 -2 0.22 0.48
-6 7 2 0.12 0.4
5 -7 -2 0.36 0.42
-5 7 2 0.92 0.37
4 -7 -2 0.67 0.39
-4 7 2 0.99 0.34
-3 7 2 0.65 0.3
-2 7 2 0.39 0.27
-1 7 2 4.37 0.36
0 7 2 0.42 0.22
-3 -7 -2 0.96 0.29
-4 -7 -2 0.16 0.28
-5 -7 -2 1.12 0.35
5 7 2 1.11 0.37
-6 -7 -2 1.17 0.42
6 7 2 2.5 0.49
-7 -7 -2 0.13 0.45
7 7 2 -0.48 0.46
5 -8 -2 0.54 0.52
-5 8 2 0.54 0.42
4 -8 -2 0.15 0.47
-4 8 2 0.45 0.37
-3 8 2 1.74 0.38
-2 8 2 0.66 0.31
-1 8 2 -0.04 0.24
-3 -8 -2 0.25 0.3
4 8 2 0.88 0.36
5 8 2 1.29 0.42
-6 -8 -2 -0.14 0.43
4 -9 -2 0.04 0.48
-4 9 2 0.95 0.41
-3 9 2 0.34 0.37
-2 9 2 0.45 0.32
-1 9 2 -0.02 0.29
-3 -9 -2 2 0.41
-4 -9 -2 0.22 0.37
4 9 2 0.7 0.37
-5 -9 -2 0.05 0.39
5 9 2 0.08 0.43
-2 10 2 0.57 0.4
-4 -10 -2 1.38 0.44
2 9 -3 1.28 0.47
0 -9 3 1.21 0.53
4 8 -3 -0.72 0.4
3 8 -3 0.75 0.4
2 8 -3 0.56 0.38
1 8 -3 0.76 0.37
1 -8 3 -0.32 0.42
2 -8 3 0.84 0.49
-6 -7 3 3.25 0.56
5 7 -3 0.57 0.42
3 7 -3 1.11 0.37
2 7 -3 0.11 0.32
1 7 -3 0.63 0.31
0 7 -3 0.24 0.3
0 -7 3 0.05 0.36
1 -7 3 -0.22 0.37
2 -7 3 0.1 0.39
3 -7 3 -0.07 0.41
-4 7 -3 1.14 0.42
4 -7 3 0.87 0.52
-6 -6 3 0.54 0.39
4 6 -3 5.44 0.5
3 6 -3 6.28 0.49
2 6 -3 8.55 0.51
-2 -6 3 7.82 0.49
1 6 -3 0.11 0.25
-1 -6 3 0.56 0.3
0 -6 3 10.28 0.58
1 -6 3 0.81 0.35
2 -6 3 0.73 0.34
-3 6 -3 0.91 0.32
3 -6 3 0.81 0.41
-4 6 -3 -0.2 0.32
4 -6 3 -0.34 0.41
-5 6 -3 0.27 0.4
5 -6 3 -0.31 0.46
-7 -5 3 1.59 0.46
-6 -5 3 3.25 0.46
4 5 -3 -0.33 0.24
3 5 -3 9.86 0.47
-3 -5 3 9.02 0.51
2 5 -3 1.18 0.27
1 5 -3 11.24 0.47
-1 -5 3 11.27 0.51
0 -5 3 5.56 0.46
1 -5 3 5.44 0.44
2 -5 3 11.41 0.56
-3 5 -3 2.23 0.32
3 -5 3 1.24 0.36
-4 5 -3 3.38 0.41
4 -5 3 2.98 0.46
-5 5 -3 0 0.35
5 -5 3 -0.08 0.4
-6 5 -3 1.31 0.44
6 -5 3 0.51 0.48
-6 -4 3 0.08 0.31
-5 -4 3 0.31 0.28
-4 -4 3 4.31 0.39
3 4 -3 0.15 0.19
2 4 -3 11.13 0.42
-2 -4 3 11.61 0.44
1 4 -3 5.3 0.34
-1 -4 3 5.28 0.36
0 4 -3 12.9 0.44
0 -4 3 13.13 0.48
1 -4 3 10.52 0.45
-2 4 -3 0.56 0.2
2 -4 3 0.27 0.23
-3 4 -3 14.26 0.5
3 -4 3 15.1 0.59
-4 4 -3 4.95 0.42
4 -4 3 3.59 0.44
-5 4 -3 7.64 0.54
-6 4 -3 4.2 0.51
-6 -3 3 0.15 0.3
-5 -3 3 10.88 0.5
-4 -3 3 1.35 0.24
-4 -3 3 1.01 0.24
-3 -3 3 12.81 0.43
2 3 -3 0.67 0.18
-2 -3 3 1.03 0.2
1 3 -3 11.47 0.39
-1 -3 3 11.85 0.39
0 3 -3 5.48 0.31
0 -3 3 5.67 0.33
-1 3 -3 5.05 0.31
1 -3 3 5.2 0.33
-2 3 -3 12.3 0.37
2 -3 3 12.84 0.45
-3 3 -3 0.58 0.21
3 -3 3 0.51 0.25
-4 3 -3 2.02 0.3
4 -3 3 1.81 0.33
-5 3 -3 3.26 0.39
-6 3 -3 0.41 0.34
-7 3 -3 3.9 0.52
7 2 -3 0.38 0.36
-4 -2 3 0.46 0.19
-4 -2 3 0.6 0.2
-3 -2 3 27.73 0.53
-2 -2 3 0.43 0.17
1 2 -3 34.13 0.56
-1 -2 3 35.03 0.57
0 2 -3 2.25 0.22
0 -2 3 2.79 0.25
-1 2 -3 30.9 0.54
1 -2 3 30.96 0.55
-2 2 -3 -0.08 0.12
2 -2 3 0.14 0.19
-3 2 -3 5.11 0.3
-4 2 -3 4.19 0.33
-5 2 -3 0.49 0.25
-6 2 -3 2.13 0.38
-7 2 -3 0.89 0.43
7 1 -3 0.12 0.32
-7 -1 3 -0.1 0.33
-6 -1 3 0.14 0.25
5 1 -3 3.62 0.35
-4 -1 3 0.01 0.17
-3 -1 3 2.15 0.21
-2 -1 3 11.39 0.33
-1 -1 3 0.17 0.13
0 1 -3 26.25 0.45
0 -1 3 26.4 0.45
-1 1 -3 10.8 0.31
-1 1 -3 10.93 0.27
-2 1 -3 2.39 0.2
-3 1 -3 35 0.58
-4 1 -3 0.99 0.21
-5 1 -3 12.87 0.51
-6 1 -3 -0.27 0.29
-7 1 -3 3.62 0.48
-8 1 -3 -0.05 0.45
-7 0 3 0.98 0.36
6 0 -3 0.96 0.31
-6 0 3 0.86 0.31
-5 0 3 3.74 0.33
4 0 -3 0.17 0.16
-4 0 3 -0.08 0.17
3 0 -3 21.45 0.46
-3 0 3 21.48 0.44
-2 0 3 0.56 0.12
-1 0 3 5.46 0.21
-1 0 -3 3.23 0.19
1 0 3 3.14 0.19
-2 0 -3 11.43 0.31
-2 0 -3 11.58 0.31
-3 0 -3 0.38 0.15
-3 0 -3 0.4 0.13
-4 0 -3 0.51 0.18
-5 0 -3 6.22 0.41
-6 0 -3 0.85 0.31
-7 0 -3 2.39 0.42
-8 1 3 0.43 0.38
-7 1 3 0.85 0.35
-6 1 3 0.16 0.29
5 -1 -3 0.16 0.23
-5 1 3 0.36 0.23
4 -1 -3 -0.11 0.17
-4 1 3 -0.05 0.16
3 -1 -3 2.76 0.26
-3 1 3 2.54 0.22
2 -1 -3 1.06 0.17
-2 1 3 0.52 0.12
0 1 3 19.36 0.33
-1 -1 -3 6.29 0.21
1 1 3 5.98 0.22
-2 -1 -3 1.56 0.17
2 1 3 1.73 0.18
3 1 3 15.64 0.4
8 1 3 0.93 0.48
-8 2 3 1.88 0.46
-7 2 3 3.5 0.46
-6 2 3 2.53 0.37
-5 2 3 8.15 0.42
-4 2 3 -0.1 0.16
-4 2 3 -0.14 0.16
-3 2 3 22.09 0.47
2 -2 -3 0.67 0.15
-2 2 3 0.92 0.14
1 -2 -3 1.7 0.18
-1 2 3 1.43 0.15
0 2 3 20.37 0.37
1 2 3 13.44 0.3
-2 -2 -3 0.82 0.15
2 2 3 0.84 0.14
-3 -2 -3 9.37 0.33
3 2 3 9.33 0.33
-4 -2 -3 0.65 0.17
4 2 3 0.44 0.18
5 2 3 5.14 0.4
6 2 3 0.58 0.29
-7 3 3 2.72 0.46
-7 3 3 2.92 0.42
-6 3 3 0.16 0.29
-6 3 3 0.29 0.3
-5 3 3 1.82 0.3
-5 3 3 1.29 0.3
-4 3 3 1.89 0.26
-4 3 3 1.87 0.25
-3 3 3 4.62 0.27
-3 3 3 4.35 0.27
-2 3 3 8.25 0.3
1 -3 -3 24.53 0.49
-1 3 3 23.94 0.43
0 -3 -3 35.32 0.55
0 3 3 35.57 0.49
1 3 3 13.07 0.35
-2 -3 -3 0.24 0.12
2 3 3 0.49 0.14
-3 -3 -3 11.71 0.37
3 3 3 11.36 0.33
-4 -3 -3 0.01 0.16
4 3 3 0.07 0.17
-5 -3 -3 0.26 0.23
-7 4 3 1.19 0.4
-6 4 3 2.14 0.38
-5 4 3 2.68 0.36
-5 4 3 1.46 0.33
-4 4 3 -0.1 0.21
-4 4 3 -0.05 0.2
-3 4 3 0.56 0.2
-3 4 3 0.37 0.19
-2 4 3 1.19 0.2
-1 4 3 20.96 0.44
0 -4 -3 20.53 0.47
0 4 3 20.33 0.41
-1 -4 -3 17.88 0.45
1 4 3 17.97 0.4
-2 -4 -3 7.98 0.33
2 4 3 7.63 0.33
-3 -4 -3 10.22 0.39
-4 -4 -3 0.42 0.21
-5 -4 -3 7.04 0.46
-6 -4 -3 0.45 0.33
7 -5 -3 0.06 0.43
-7 5 3 0.55 0.4
6 -5 -3 0.93 0.37
-6 5 3 0.92 0.36
5 -5 -3 5.06 0.46
-5 5 3 5.13 0.47
4 -5 -3 -0.33 0.23
-4 5 3 -0.27 0.24
-3 5 3 14.19 0.46
-2 5 3 3.97 0.31
-1 5 3 11.38 0.36
0 5 3 21.03 0.46
-1 -5 -3 13.18 0.42
1 5 3 13.43 0.37
-2 -5 -3 0.35 0.18
6 -6 -3 2.77 0.46
-6 6 3 3.04 0.45
5 -6 -3 2.49 0.41
-5 6 3 1.36 0.38
4 -6 -3 3.75 0.41
-4 6 3 3.09 0.41
-3 6 3 0.82 0.26
-2 6 3 4.52 0.37
-1 6 3 0.32 0.2
0 6 3 0.13 0.18
-1 -6 -3 7.73 0.39
1 6 3 7.13 0.34
-2 -6 -3 0.98 0.24
-3 -6 -3 10.63 0.48
3 6 3 10.8 0.46
-4 -6 -3 0.16 0.25
4 6 3 0.21 0.25
5 6 3 1.94 0.37
6 6 3 0.15 0.38
7 6 3 2.32 0.54
6 -7 -3 0.17 0.46
-6 7 3 -0.26 0.38
5 -7 -3 5.72 0.59
-5 7 3 5.77 0.56
-4 7 3 0.61 0.33
-3 7 3 11.16 0.54
-2 7 3 3.89 0.38
-1 7 3 5.5 0.4
0 7 3 19.86 0.53
1 7 3 1.61 0.26
-2 -7 -3 4.08 0.4
-3 -7 -3 5.32 0.45
3 7 3 5.54 0.44
-4 -7 -3 0.87 0.31
4 7 3 0.87 0.33
-5 -7 -3 4.33 0.48
5 7 3 3.68 0.49
6 7 3 0.24 0.45
-5 8 3 0.15 0.41
4 -8 -3 2.03 0.46
-4 8 3 2.92 0.45
-3 8 3 1.89 0.4
-2 8 3 0.21 0.27
-1 8 3 0.92 0.32
0 8 3 -0.13 0.24
-2 -8 -3 0.87 0.32
-3 -8 -3 8.08 0.56
-4 -8 -3 0.63 0.37
4 8 3 1.32 0.36
-5 -8 -3 1.07 0.39
5 8 3 1.12 0.42
-6 -8 -3 2.13 0.49
6 8 3 4.37 0.62
-4 9 3 1 0.44
-3 9 3 1.07 0.38
-2 9 3 1.22 0.37
-1 9 3 0.19 0.29
0 9 3 -0.35 0.26
-2 -9 -3 0.79 0.35
-3 -9 -3 4.34 0.5
-4 -9 -3 0.54 0.39
4 9 3 0.82 0.37
-5 -9 -3 3.72 0.53
5 9 3 3.72 0.55
-3 10 3 0.19 0.4
-2 10 3 0.39 0.37
-1 10 3 1.24 0.39
-4 -10 -3 2.09 0.5
3 8 -4 0.19 0.46
-2 -8 4 0.86 0.41
-1 -8 4 0.38 0.41
0 -8 4 -0.54 0.43
1 -8 4 0.62 0.51
5 7 -4 -0.32 0.45
3 7 -4 0.9 0.43
-2 -7 4 0.37 0.35
1 7 -4 1.8 0.4
-1 -7 4 1.67 0.41
0 7 -4 0.76 0.35
0 -7 4 0.44 0.4
1 -7 4 0.51 0.45
2 -7 4 0.3 0.44
3 -7 4 0.03 0.46
-6 -6 4 3.87 0.54
4 6 -4 9.1 0.64
3 6 -4 6.23 0.56
-3 -6 4 6.19 0.54
2 6 -4 2.11 0.39
-2 -6 4 1.67 0.37
1 6 -4 3.54 0.4
-1 -6 4 3.64 0.43
0 -6 4 0.66 0.37
1 -6 4 0.34 0.37
2 -6 4 -0.54 0.35
-3 6 -4 0.69 0.31
3 -6 4 0.58 0.42
-4 6 -4 0.16 0.34
4 -6 4 0.28 0.44
-6 -5 4 2.86 0.48
-5 -5 4 0.57 0.31
-4 -5 4 9.43 0.55
3 5 -4 5.68 0.48
-2 -5 4 20.98 0.66
1 5 -4 7.54 0.46
-1 -5 4 7.09 0.5
0 5 -4 8.14 0.46
0 -5 4 7.71 0.56
1 -5 4 11.92 0.61
2 -5 4 3.26 0.43
-3 5 -4 3.42 0.36
3 -5 4 3.68 0.47
-4 5 -4 0.09 0.28
4 -5 4 0.15 0.38
-5 5 -4 0.32 0.36
5 -5 4 -0.27 0.42
-5 -4 4 0.05 0.28
-4 -4 4 0.81 0.29
-3 -4 4 -0.63 0.23
2 4 -4 1.91 0.3
-2 -4 4 1.57 0.3
1 4 -4 0.73 0.22
-1 -4 4 0.14 0.25
0 4 -4 16.62 0.52
0 -4 4 15.56 0.57
1 -4 4 0.37 0.27
-2 4 -4 21.12 0.59
2 -4 4 21.62 0.66
-3 4 -4 7.43 0.43
3 -4 4 6.76 0.51
-4 4 -4 20.99 0.65
-5 4 -4 6.03 0.52
-6 4 -4 2.96 0.49
6 -4 4 2.94 0.56
7 3 -4 -0.38 0.36
-5 -3 4 0.17 0.26
-4 -3 4 -0.02 0.22
-3 -3 4 0.01 0.22
-2 -3 4 1.71 0.25
-1 -3 4 0.93 0.23
0 3 -4 -0.01 0.16
0 -3 4 0.09 0.22
-1 3 -4 0.17 0.18
1 -3 4 -0.56 0.2
2 -3 4 0.68 0.25
-3 3 -4 0.31 0.22
-4 3 -4 5.08 0.43
4 -3 4 5.33 0.46
-5 3 -4 -0.03 0.32
-6 3 -4 8.33 0.63
7 2 -4 8.72 0.58
-7 -2 4 7.18 0.55
6 2 -4 -0.19 0.3
5 2 -4 5.56 0.42
-5 -2 4 5.19 0.41
-4 -2 4 4.73 0.34
-3 -2 4 5.33 0.33
-2 -2 4 1.9 0.25
1 2 -4 0.26 0.15
-1 -2 4 0.28 0.17
0 2 -4 -0.08 0.15
0 -2 4 0.05 0.18
-1 2 -4 4.22 0.28
1 -2 4 4.17 0.33
-2 2 -4 0.49 0.17
-2 2 -4 0.93 0.18
-3 2 -4 -0.04 0.19
-4 2 -4 4.29 0.39
-5 2 -4 0.04 0.29
-6 2 -4 0.35 0.36
-7 2 -4 0.91 0.42
7 1 -4 1.3 0.39
-6 -1 4 0.25 0.28
5 1 -4 5.49 0.41
-5 -1 4 5.69 0.41
4 1 -4 1.01 0.23
-4 -1 4 0.56 0.21
3 1 -4 15.34 0.44
-3 -1 4 15.63 0.42
-2 -1 4 0.27 0.16
-1 -1 4 52.7 0.7
0 -1 4 0.18 0.16
-1 1 -4 15.82 0.39
1 -1 4 15.83 0.37
-2 1 -4 1.54 0.2
-2 1 -4 1.67 0.21
-3 1 -4 1.44 0.23
-4 1 -4 2.25 0.29
-5 1 -4 0.15 0.27
-6 1 -4 0.13 0.31
-7 1 -4 1.11 0.41
-8 0 4 -0.03 0.4
-7 0 4 3.98 0.51
6 0 -4 2.06 0.38
-6 0 4 2.26 0.36
5 0 -4 0.52 0.26
-5 0 4 -0.03 0.22
4 0 -4 0.05 0.18
-4 0 4 0.08 0.17
3 0 -4 1.98 0.25
-3 0 4 2.13 0.22
-2 0 4 -0.03 0.12
-1 0 -4 71 0.79
1 0 4 70.97 0.76
-2 0 -4 2.35 0.22
2 0 4 1.94 0.22
-3 0 -4 21.73 0.5
-5 0 -4 5.89 0.46
8 0 4 -0.33 0.47
-8 1 4 0.25 0.41
-7 1 4 5.52 0.53
-6 1 4 0.61 0.33
5 -1 -4 8.17 0.5
-5 1 4 8.57 0.43
4 -1 -4 5.09 0.37
-4 1 4 5.62 0.32
3 -1 -4 6.61 0.34
-3 1 4 6.64 0.31
2 -1 -4 8.29 0.32
-2 1 4 8.27 0.27
0 1 4 27.5 0.44
-1 -1 -4 0.99 0.15
1 1 4 0.83 0.14
-2 -1 -4 1.1 0.17
2 1 4 1.25 0.19
-3 -1 -4 6.16 0.32
3 1 4 6.15 0.32
-4 -1 -4 3.67 0.33
4 1 4 4.12 0.34
-5 -1 -4 5.39 0.42
5 1 4 5.84 0.44
6 1 4 0.39 0.33
7 1 4 8.72 0.64
8 1 4 -0.22 0.44
-8 2 4 0.95 0.45
-7 2 4 0.44 0.36
-6 2 4 3.26 0.4
-5 2 4 4.25 0.38
-4 2 4 15.46 0.47
3 -2 -4 21.92 0.51
-3 2 4 22.26 0.46
2 -2 -4 11.09 0.36
-2 2 4 10.81 0.32
-1 2 4 72.08 0.74
0 2 4 4.08 0.26
1 2 4 65.46 0.73
-2 -2 -4 9.22 0.32
2 2 4 9.37 0.32
-3 -2 -4 1.86 0.22
3 2 4 2.12 0.23
-4 -2 -4 0.34 0.19
4 2 4 1.04 0.24
-5 -2 -4 -0.03 0.22
5 2 4 0.26 0.25
6 2 4 0.55 0.31
7 2 4 1.84 0.43
8 2 4 0.22 0.45
-7 3 4 0.23 0.38
-6 3 4 0.77 0.32
-6 3 4 0.93 0.31
-5 3 4 0.36 0.25
-5 3 4 0.12 0.24
-4 3 4 0.85 0.22
-4 3 4 1.53 0.24
-3 3 4 1.21 0.22
-3 3 4 1.02 0.2
2 -3 -4 15.49 0.45
-2 3 4 16.09 0.39
1 -3 -4 0.17 0.17
-1 3 4 0.65 0.16
0 -3 -4 11.27 0.39
0 3 4 12.12 0.36
1 3 4 27.04 0.52
-2 -3 -4 16.16 0.4
2 3 4 16.31 0.4
-3 -3 -4 25.08 0.52
3 3 4 25.35 0.51
-4 -3 -4 11.1 0.42
4 3 4 11.26 0.42
-5 -3 -4 8.02 0.45
5 3 4 8.29 0.44
6 3 4 2.51 0.38
7 3 4 5.72 0.54
-7 4 4 1.08 0.43
-7 4 4 0.45 0.37
-6 4 4 0.51 0.33
-6 4 4 0.38 0.32
-5 4 4 0.38 0.26
-5 4 4 -0.05 0.26
-4 4 4 1.26 0.25
-4 4 4 1.32 0.27
-3 4 4 0.35 0.21
-3 4 4 0.66 0.19
2 -4 -4 0.21 0.21
-2 4 4 0.73 0.18
1 -4 -4 3.85 0.33
-1 4 4 3.86 0.26
0 -4 -4 15.03 0.44
0 4 4 14.69 0.38
1 4 4 6.22 0.32
2 4 4 10.65 0.39
3 4 4 5.77 0.32
-4 -4 -4 12.34 0.48
4 4 4 12.35 0.44
-5 -4 -4 6.1 0.47
5 4 4 6.29 0.41
6 4 4 2.68 0.36
-7 -4 -4 5.13 0.56
7 4 4 6.07 0.55
7 -5 -4 3.47 0.52
-7 5 4 3.6 0.51
-6 5 4 2.85 0.42
-5 5 4 2.85 0.37
-4 5 4 8.62 0.46
-4 5 4 8.35 0.46
-3 5 4 1.74 0.28
-2 5 4 2.22 0.26
-1 5 4 4.48 0.3
0 -5 -4 0.92 0.22
0 5 4 1.16 0.2
-1 -5 -4 0.68 0.22
1 5 4 0.55 0.17
-2 -5 -4 1.34 0.24
2 5 4 1.19 0.23
-3 -5 -4 0.39 0.23
3 5 4 0.6 0.24
-4 -5 -4 0.44 0.23
-5 -5 -4 0.4 0.3
-6 -5 -4 1.53 0.41
-7 -5 -4 1.15 0.43
6 -6 -4 0.56 0.38
-6 6 4 -0.29 0.33
5 -6 -4 8.63 0.58
-5 6 4 10.09 0.57
-4 6 4 2.67 0.38
-3 6 4 12.95 0.53
-2 6 4 6.93 0.41
1 -6 -4 6.69 0.43
-1 6 4 6.5 0.36
0 -6 -4 2.22 0.3
0 6 4 2.14 0.27
-1 -6 -4 0.11 0.21
1 6 4 0.25 0.18
-2 -6 -4 4.35 0.38
2 6 4 4.88 0.34
-3 -6 -4 0.71 0.25
-4 -6 -4 -0.34 0.24
-5 -6 -4 -0.37 0.3
6 -7 -4 1.35 0.45
-6 7 4 -0.05 0.39
-5 7 4 0.14 0.35
4 -7 -4 5.89 0.51
-4 7 4 5.92 0.51
-3 7 4 3.67 0.39
-2 7 4 2.06 0.34
-1 7 4 35.56 0.73
0 7 4 -0.01 0.22
-1 -7 -4 29.87 0.74
1 7 4 30.45 0.65
-2 -7 -4 6.08 0.46
2 7 4 5.77 0.38
-3 -7 -4 9.31 0.53
-4 -7 -4 9.99 0.57
4 7 4 9.79 0.55
-5 -7 -4 0.97 0.37
5 7 4 1.6 0.4
-6 -7 -4 1.76 0.44
6 7 4 1.77 0.5
7 7 4 0.34 0.52
-5 8 4 0.52 0.44
-4 8 4 0.88 0.39
-3 8 4 1.54 0.36
-2 8 4 1 0.34
-1 8 4 -0.05 0.25
0 8 4 0.66 0.26
-1 -8 -4 5.93 0.52
1 8 4 5.04 0.43
-2 -8 -4 3.27 0.41
-3 -8 -4 7.16 0.55
-4 -8 -4 0.51 0.36
-5 -8 -4 11.43 0.71
5 8 4 12.08 0.72
6 8 4 -0.23 0.49
-4 9 4 0.47 0.41
-3 9 4 0.03 0.36
-2 9 4 -0.01 0.3
-1 9 4 4.89 0.49
0 9 4 -0.2 0.28
1 9 4 3.95 0.39
-3 -9 -4 1.3 0.4
-4 -9 -4 3.34 0.51
-5 -9 -4 0.95 0.45
5 9 4 0.99 0.44
-3 10 4 0.31 0.41
-2 10 4 1.37 0.41
-1 10 4 0.59 0.34
0 10 4 2.15 0.41
-2 -10 -4 0.03 0.37
-3 -10 -4 -0.25 0.38
-4 -10 -4 0.55 0.44
-1 11 4 0.26 0.37
-4 -7 5 0.77 0.42
3 7 -5 0.78 0.46
-3 -7 5 2.07 0.47
2 7 -5 0.32 0.43
-2 -7 5 1.19 0.39
-1 -7 5 0.72 0.38
0 -7 5 0.41 0.4
-1 7 -5 -0.32 0.37
1 -7 5 0.26 0.47
-5 -6 5 1.28 0.39
-4 -6 5 1.25 0.39
-3 -6 5 0.31 0.36
2 6 -5 0.83 0.37
-2 -6 5 1.25 0.37
1 6 -5 2.19 0.43
-1 -6 5 1.65 0.38
0 6 -5 -0.3 0.33
0 -6 5 0.19 0.36
1 -6 5 0.32 0.42
2 -6 5 0.27 0.43
3 -6 5 0.12 0.44
-5 -5 5 4.68 0.48
-4 -5 5 -0.11 0.32
3 5 -5 10.64 0.64
-3 -5 5 10.73 0.61
-2 -5 5 0.51 0.31
1 5 -5 2.21 0.38
-1 -5 5 1.78 0.36
0 5 -5 -0.05 0.3
0 -5 5 -0.39 0.29
-1 5 -5 0.19 0.28
1 -5 5 0.03 0.33
2 -5 5 -0.01 0.35
-3 5 -5 0.56 0.31
3 -5 5 1.24 0.42
-4 5 -5 0.5 0.37
4 -5 5 0.65 0.46
-4 -4 5 -0.27 0.28
-3 -4 5 0.64 0.3
2 4 -5 -0.31 0.27
-2 -4 5 0.54 0.29
1 4 -5 10.68 0.53
-1 -4 5 10.47 0.53
0 4 -5 3.52 0.4
0 -4 5 4.02 0.42
-1 4 -5 9.17 0.49
1 -4 5 8.42 0.55
2 -4 5 -0.08 0.31
-3 4 -5 7.96 0.48
-4 4 -5 0.16 0.3
-5 4 -5 0.85 0.39
7 3 -5 0.5 0.39
-7 -3 5 0.76 0.41
-6 -3 5 0.42 0.34
5 3 -5 -0.13 0.29
-5 -3 5 0.44 0.3
-4 -3 5 0.7 0.28
-3 -3 5 -0.02 0.25
-2 -3 5 0.57 0.25
1 3 -5 0.31 0.23
-1 -3 5 0.82 0.27
0 3 -5 0.22 0.23
0 -3 5 0.29 0.25
-1 3 -5 5.29 0.38
1 -3 5 4.81 0.41
-2 3 -5 1.03 0.25
-2 3 -5 1.35 0.26
-3 3 -5 7.77 0.45
-4 3 -5 0.92 0.32
-5 3 -5 9.01 0.59
-6 3 -5 1.19 0.43
7 2 -5 -0.01 0.38
6 2 -5 2.72 0.42
-6 -2 5 1.59 0.37
5 2 -5 0.53 0.3
-5 -2 5 1.17 0.3
-4 -2 5 2.85 0.33
-3 -2 5 3.94 0.34
-2 -2 5 0.79 0.23
1 2 -5 0.13 0.18
-1 -2 5 0.19 0.18
0 2 -5 2.15 0.27
0 -2 5 2.62 0.28
-1 2 -5 0.13 0.17
1 -2 5 -0.13 0.22
-2 2 -5 0.79 0.22
2 -2 5 0.85 0.27
-3 2 -5 0.45 0.24
-4 2 -5 0.3 0.27
-5 2 -5 0.01 0.32
-6 2 -5 0.22 0.38
7 1 -5 0.79 0.44
-7 -1 5 0.45 0.35
6 1 -5 2.22 0.42
-6 -1 5 1.36 0.38
5 1 -5 2 0.36
-5 -1 5 2.06 0.34
4 1 -5 0.35 0.24
-4 -1 5 0.33 0.22
-3 -1 5 0.07 0.18
-2 -1 5 9.28 0.39
-1 -1 5 0.22 0.18
-1 1 -5 0.48 0.17
-2 1 -5 1.75 0.23
2 -1 5 1.57 0.26
-3 1 -5 1.83 0.27
7 0 -5 0.06 0.42
-7 0 5 0.16 0.37
6 0 -5 2.65 0.46
-6 0 5 4.3 0.43
5 0 -5 3.37 0.41
-5 0 5 3.54 0.37
4 0 -5 4.46 0.4
-4 0 5 4.43 0.36
-3 0 5 11.62 0.39
-2 0 5 2.9 0.25
-1 0 5 5.61 0.3
-1 0 -5 1.65 0.22
1 0 5 2.18 0.22
-2 0 -5 12.76 0.41
2 0 5 13.18 0.41
-3 0 -5 1.47 0.24
3 0 5 1.14 0.25
-4 0 -5 4.88 0.39
4 0 5 5.01 0.41
5 0 5 3.05 0.42
6 0 5 0.69 0.38
7 0 5 -0.46 0.4
-7 1 5 0.7 0.39
6 -1 -5 2.2 0.43
-6 1 5 1.56 0.37
5 -1 -5 2.53 0.37
-5 1 5 3.05 0.35
4 -1 -5 24.08 0.64
-4 1 5 24.23 0.6
3 -1 -5 0.36 0.2
-3 1 5 -0.04 0.17
2 -1 -5 20.19 0.48
-2 1 5 20.47 0.43
1 1 5 3.44 0.25
-2 -1 -5 3.7 0.27
2 1 5 3.89 0.3
-3 -1 -5 7.56 0.36
3 1 5 7.2 0.36
-4 -1 -5 0.07 0.22
4 1 5 0.19 0.23
-5 -1 -5 1.18 0.3
5 1 5 0.97 0.32
6 1 5 2.87 0.46
7 1 5 -0.15 0.4
-7 2 5 1.43 0.44
6 -2 -5 0.32 0.29
-6 2 5 0.28 0.32
5 -2 -5 8.63 0.47
-5 2 5 7.05 0.48
4 -2 -5 0.58 0.22
-4 2 5 0.09 0.21
3 -2 -5 19.75 0.54
-3 2 5 20.64 0.5
2 -2 -5 6.96 0.34
-1 2 5 4.79 0.27
0 2 5 19.11 0.46
1 2 5 0.34 0.15
2 2 5 22.76 0.49
-3 -2 -5 3.59 0.31
3 2 5 2.77 0.29
-4 -2 -5 9.79 0.44
4 2 5 9.13 0.44
5 2 5 5.44 0.46
6 2 5 0.81 0.37
7 2 5 0.01 0.41
8 2 5 1.46 0.51
-7 3 5 0.27 0.39
-6 3 5 2.87 0.42
-5 3 5 0.13 0.27
4 -3 -5 0.12 0.24
-4 3 5 -0.06 0.22
3 -3 -5 7.72 0.4
-3 3 5 7.59 0.34
-3 3 5 8.13 0.36
2 -3 -5 0.17 0.19
-2 3 5 0.34 0.18
1 -3 -5 19.91 0.53
-1 3 5 19 0.44
0 3 5 0.57 0.19
1 3 5 18.22 0.48
-2 -3 -5 3.25 0.26
2 3 5 3.96 0.29
-3 -3 -5 11.76 0.43
3 3 5 11.94 0.42
-4 -3 -5 14.96 0.51
4 3 5 15.48 0.5
5 3 5 0.37 0.27
6 3 5 3.73 0.45
-7 -3 -5 -0.06 0.39
7 3 5 -0.01 0.36
8 3 5 0.22 0.44
7 -4 -5 0.43 0.44
-7 4 5 0.99 0.4
-6 4 5 2.23 0.39
-6 4 5 1.67 0.39
-5 4 5 0.2 0.29
-5 4 5 0.68 0.29
4 -4 -5 7.53 0.51
-4 4 5 6.94 0.42
3 -4 -5 3.67 0.4
-3 4 5 3.96 0.34
2 -4 -5 8.53 0.44
-2 4 5 8.34 0.37
1 -4 -5 2.42 0.3
-1 4 5 3 0.26
0 -4 -5 13.09 0.47
0 4 5 13.58 0.4
-1 -4 -5 11.18 0.41
1 4 5 11.31 0.42
2 4 5 -0.09 0.18
-3 -4 -5 20.76 0.52
3 4 5 20.45 0.52
4 4 5 0.98 0.26
-5 -4 -5 11.48 0.56
5 4 5 11.85 0.53
6 4 5 0.77 0.32
7 4 5 1.07 0.38
-7 5 5 0.24 0.4
-6 5 5 1.52 0.41
-6 5 5 1.65 0.41
-5 5 5 2.27 0.4
-5 5 5 2.44 0.37
-4 5 5 6.87 0.44
-4 5 5 6.1 0.44
-3 5 5 1.49 0.28
-2 5 5 5.6 0.36
1 -5 -5 -0.06 0.23
-1 5 5 -0.11 0.18
0 -5 -5 3.68 0.34
0 5 5 3.59 0.28
-1 -5 -5 0.08 0.21
1 5 5 -0.17 0.17
-2 -5 -5 9.71 0.42
2 5 5 9.12 0.44
3 5 5 2.38 0.32
-4 -5 -5 0.49 0.27
4 5 5 0.77 0.28
-5 -5 -5 1.85 0.36
5 5 5 0.86 0.3
-6 -5 -5 0.78 0.37
6 5 5 0.92 0.34
-7 -5 -5 1.89 0.52
6 -6 -5 7.2 0.59
-6 6 5 6.48 0.6
-5 6 5 -0.33 0.32
-4 6 5 5.66 0.46
-3 6 5 5.66 0.44
2 -6 -5 6.08 0.5
-2 6 5 5.67 0.39
1 -6 -5 1.38 0.3
-1 6 5 1.94 0.29
0 -6 -5 1.02 0.26
0 6 5 0.68 0.22
-1 -6 -5 2.51 0.35
1 6 5 2.65 0.28
-2 -6 -5 6.66 0.43
2 6 5 7.02 0.42
3 6 5 -0.79 0.25
-4 -6 -5 7.51 0.53
4 6 5 7.85 0.54
6 -7 -5 3.33 0.54
-6 7 5 1.66 0.51
-5 7 5 5.14 0.52
-4 7 5 4.44 0.46
-3 7 5 6.45 0.5
-2 7 5 14.26 0.57
-1 7 5 1.57 0.31
0 -7 -5 27.02 0.76
0 7 5 26.78 0.68
-1 -7 -5 0.44 0.27
1 7 5 0.45 0.23
-2 -7 -5 7.35 0.51
2 7 5 8.32 0.44
-3 -7 -5 12.72 0.61
3 7 5 12.25 0.54
6 7 5 0.59 0.47
7 7 5 0.09 0.58
-5 8 5 -0.04 0.38
-4 8 5 2.23 0.44
-3 8 5 2.74 0.41
-2 8 5 3.2 0.42
-1 8 5 2.18 0.34
0 8 5 14.56 0.57
-1 -8 -5 5.96 0.52
1 8 5 6.15 0.47
-2 -8 -5 8.33 0.58
2 8 5 8.39 0.47
-3 -8 -5 1.21 0.37
3 8 5 2.26 0.32
-5 -8 -5 0.94 0.41
6 8 5 4.46 0.65
-4 9 5 1.2 0.49
-3 9 5 0.75 0.39
-2 9 5 0.2 0.35
-1 9 5 0.68 0.35
0 -9 -5 -0.05 0.33
0 9 5 -0.1 0.27
-1 -9 -5 -0.03 0.35
1 9 5 0.17 0.31
2 9 5 2.35 0.37
-4 -9 -5 2.08 0.47
-5 -9 -5 5.59 0.62
-2 10 5 0.77 0.38
-1 10 5 1.02 0.38
0 10 5 0.11 0.34
1 10 5 0.49 0.32
-2 -10 -5 1.39 0.46
-4 -10 -5 1.71 0.52
-1 11 5 1.44 0.46
0 11 5 0.48 0.42
-4 -6 6 0.06 0.37
3 6 -6 -0.25 0.42
-3 -6 6 0.35 0.4
2 6 -6 -0.34 0.4
-2 -6 6 0.49 0.35
1 6 -6 0.07 0.4
-1 -6 6 0.56 0.4
0 6 -6 0.28 0.4
0 -6 6 0.47 0.42
1 -6 6 -0.36 0.41
-2 6 -6 0.06 0.35
2 -6 6 -0.12 0.47
-5 -5 6 0.22 0.36
-4 -5 6 0.24 0.35
3 5 -6 -0.52 0.37
-3 -5 6 0.55 0.36
-2 -5 6 0.25 0.33
1 5 -6 -0.52 0.33
-1 -5 6 -0.13 0.31
0 5 -6 1.6 0.4
0 -5 6 0.97 0.4
-1 5 -6 -0.44 0.31
1 -5 6 -0.31 0.37
-2 5 -6 0.58 0.33
2 -5 6 0.16 0.44
3 -5 6 -0.36 0.42
-4 5 -6 0.33 0.4
6 4 -6 2.24 0.43
-6 -4 6 1.59 0.4
-5 -4 6 1.44 0.37
-4 -4 6 0.69 0.34
-3 -4 6 0.17 0.31
-2 -4 6 0.17 0.3
1 4 -6 0.45 0.34
-1 -4 6 1.02 0.33
0 4 -6 0.64 0.31
0 -4 6 0.27 0.31
-1 4 -6 0.29 0.29
1 -4 6 -0.04 0.34
-2 4 -6 0.6 0.29
2 -4 6 -0.03 0.35
-4 4 -6 0.11 0.35
-5 4 -6 0.51 0.43
-6 -3 6 0.24 0.36
-5 -3 6 7.51 0.53
-4 -3 6 0.49 0.29
-3 -3 6 4.55 0.44
2 3 -6 1.42 0.35
-2 -3 6 1.28 0.34
-1 -3 6 1.16 0.31
0 3 -6 5.11 0.43
0 -3 6 5.35 0.45
-1 3 -6 0.51 0.28
1 -3 6 0 0.3
-2 3 -6 0.71 0.27
-3 3 -6 0.9 0.28
-7 -2 6 -0.39 0.41
6 2 -6 4.49 0.54
-6 -2 6 4.63 0.51
-5 -2 6 0.99 0.32
-4 -2 6 0.61 0.28
-3 -2 6 5.63 0.44
-2 -2 6 -0.1 0.26
-1 -2 6 23.14 0.62
0 2 -6 1.36 0.28
0 -2 6 1.69 0.3
-1 2 -6 17.31 0.55
1 -2 6 16.69 0.58
-2 2 -6 3.61 0.37
2 -2 6 3.52 0.35
-3 2 -6 2.6 0.34
3 -2 6 1.74 0.37
7 1 -6 -0.28 0.47
-7 -1 6 -0.15 0.38
6 1 -6 0.6 0.42
-6 -1 6 1.03 0.4
5 1 -6 -0.24 0.32
-5 -1 6 -0.02 0.3
4 1 -6 5.51 0.49
-4 -1 6 4.55 0.4
-3 -1 6 0.11 0.21
-2 -1 6 11.63 0.47
-1 -1 6 2.04 0.28
0 1 -6 16.67 0.52
-2 1 -6 1.37 0.25
2 -1 6 1.09 0.28
-3 1 -6 10.18 0.51
3 -1 6 10.61 0.49
-4 1 -6 0.11 0.28
4 -1 6 0.34 0.31
5 -1 6 5.7 0.53
6 -1 6 0.97 0.43
-7 0 6 0 0.4
6 0 -6 0.35 0.41
-6 0 6 0.52 0.34
-5 0 6 -0.24 0.29
-4 0 6 0.19 0.25
-3 0 6 0.32 0.2
1 0 6 2.09 0.24
-2 0 -6 16.44 0.51
2 0 6 16.03 0.49
-3 0 -6 1.36 0.27
3 0 6 0.96 0.27
4 0 6 2.81 0.39
-5 0 -6 2.92 0.43
5 0 6 2.79 0.44
6 0 6 1.03 0.42
7 -1 -6 0.22 0.42
-7 1 6 0.46 0.43
-6 1 6 0 0.32
5 -1 -6 3.41 0.43
-5 1 6 3.61 0.41
4 -1 -6 0.58 0.28
-4 1 6 0.54 0.25
3 -1 -6 3.08 0.3
-3 1 6 3.3 0.3
0 1 6 4.22 0.31
1 1 6 0.47 0.2
2 1 6 0.59 0.21
-3 -1 -6 0.16 0.21
3 1 6 0.33 0.22
-4 -1 -6 6.05 0.46
4 1 6 6.43 0.45
-5 -1 -6 -0.13 0.3
5 1 6 0.09 0.32
6 1 6 5.29 0.56
7 1 6 0.23 0.45
7 -2 -6 0.99 0.44
-7 2 6 1.45 0.48
6 -2 -6 0.55 0.36
-6 2 6 -0.38 0.35
-5 2 6 1.19 0.32
4 -2 -6 -0.26 0.25
-4 2 6 -0.19 0.22
3 -2 -6 7.15 0.42
-3 2 6 7.36 0.39
2 -2 -6 3.83 0.33
0 2 6 0.45 0.23
1 2 6 0.84 0.22
2 2 6 0.08 0.2
-3 -2 -6 0.84 0.24
3 2 6 1.38 0.26
-4 -2 -6 0.19 0.26
4 2 6 -0.04 0.24
-5 -2 -6 -0.18 0.29
5 2 6 0.35 0.31
-6 -2 -6 -0.17 0.33
6 2 6 0.34 0.36
7 2 6 0.72 0.45
-7 3 6 0.39 0.4
6 -3 -6 1.12 0.41
-6 3 6 0.81 0.37
5 -3 -6 1.48 0.36
-5 3 6 1.49 0.35
4 -3 -6 3.23 0.38
-4 3 6 2.57 0.33
3 -3 -6 0.24 0.24
-3 3 6 0.47 0.2
2 -3 -6 1.5 0.27
-2 3 6 1.29 0.22
-1 3 6 3.74 0.29
0 3 6 5.47 0.35
1 3 6 4.62 0.35
2 3 6 4.27 0.32
-3 -3 -6 7.9 0.41
3 3 6 7.41 0.41
-4 -3 -6 0.17 0.25
4 3 6 0.28 0.23
-5 -3 -6 4.37 0.43
5 3 6 3.35 0.4
-6 -3 -6 0.86 0.34
6 3 6 -0.06 0.35
7 3 6 -0.5 0.41
7 -4 -6 2.23 0.55
6 -4 -6 2.67 0.52
-6 4 6 2.67 0.43
5 -4 -6 2.67 0.44
-5 4 6 2.51 0.37
-5 4 6 2.52 0.35
4 -4 -6 2.58 0.41
-4 4 6 3.15 0.36
3 -4 -6 5.84 0.5
-3 4 6 6.29 0.37
2 -4 -6 2.26 0.34
-2 4 6 2.46 0.3
-1 4 6 0.59 0.2
0 4 6 8.74 0.4
1 4 6 0.46 0.24
2 4 6 2.84 0.32
-3 -4 -6 0.31 0.2
3 4 6 -0.37 0.21
-4 -4 -6 0.42 0.24
4 4 6 0.44 0.27
-5 -4 -6 1.68 0.34
5 4 6 1.25 0.34
-6 -4 -6 1.67 0.41
6 4 6 1.97 0.41
7 4 6 1.88 0.45
-6 5 6 7.08 0.59
-6 5 6 8.21 0.6
-5 5 6 -0.17 0.3
4 -5 -6 11.81 0.69
-4 5 6 12.83 0.56
3 -5 -6 0.7 0.36
-3 5 6 1.58 0.3
2 -5 -6 13.67 0.62
-2 5 6 13.88 0.5
1 -5 -6 12.56 0.58
-1 5 6 13.1 0.46
0 -5 -6 0.44 0.24
0 5 6 0.07 0.18
-1 -5 -6 6.17 0.43
1 5 6 5.92 0.38
2 5 6 0.76 0.28
3 5 6 4.66 0.43
-4 -5 -6 1.36 0.34
4 5 6 1.13 0.32
-5 -5 -6 0.14 0.32
5 5 6 0.38 0.31
6 5 6 0.86 0.37
7 5 6 0.87 0.43
-6 6 6 2.52 0.46
-5 6 6 0.86 0.36
-4 6 6 1.62 0.36
-3 6 6 0.77 0.31
2 -6 -6 13.72 0.69
-2 6 6 13.46 0.53
1 -6 -6 0.88 0.31
-1 6 6 1.11 0.3
0 -6 -6 28.61 0.77
0 6 6 28.06 0.65
-1 -6 -6 7.31 0.51
1 6 6 7.5 0.42
2 6 6 16.47 0.59
3 6 6 2.82 0.42
-4 -6 -6 7.37 0.53
4 6 6 6.89 0.56
5 6 6 2.32 0.42
-6 -6 -6 0.03 0.39
6 6 6 0.15 0.38
-7 -6 -6 0.28 0.48
-5 7 6 0.32 0.36
-4 7 6 3.13 0.43
-3 7 6 0.18 0.31
-2 7 6 4.59 0.44
1 -7 -6 6.35 0.56
-1 7 6 6.69 0.49
0 -7 -6 14.14 0.65
0 7 6 14.93 0.57
-1 -7 -6 2.15 0.41
1 7 6 3.3 0.36
2 7 6 9.68 0.5
3 7 6 0.01 0.29
4 7 6 7.2 0.59
-5 -7 -6 0.81 0.4
5 7 6 0.56 0.41
-4 8 6 2.95 0.45
-3 8 6 -0.09 0.34
-2 8 6 2.22 0.4
1 -8 -6 1.29 0.41
-1 8 6 1.61 0.35
0 -8 -6 1.14 0.39
0 8 6 0.97 0.35
-1 -8 -6 4.28 0.48
1 8 6 4.22 0.42
2 8 6 4.28 0.41
3 8 6 1.27 0.34
4 8 6 2.5 0.42
-3 9 6 1.47 0.43
-2 9 6 0.31 0.36
-1 9 6 0.1 0.32
0 9 6 0.5 0.33
-1 -9 -6 0.41 0.36
1 9 6 -0.35 0.32
-2 -9 -6 3.95 0.54
2 9 6 4.58 0.45
-3 -9 -6 0.39 0.42
3 9 6 0.34 0.31
5 9 6 0.6 0.46
-2 10 6 0.16 0.41
-1 10 6 0.62 0.41
0 10 6 1.34 0.38
-1 -10 -6 0.58 0.45
1 10 6 0.84 0.37
-2 -10 -6 0.13 0.43
2 10 6 0.53 0.38
-3 -10 -6 2.46 0.54
-4 -10 -6 1.12 0.5
0 11 6 0.38 0.41
-1 -11 -6 0.2 0.46
1 11 6 0.1 0.37
-3 -5 7 0.39 0.4
2 5 -7 0.58 0.43
-2 -5 7 1.85 0.44
1 5 -7 -0.07 0.42
-1 -5 7 0.49 0.36
0 5 -7 0.7 0.43
0 -5 7 1.59 0.42
-1 5 -7 0.5 0.38
1 -5 7 -0.15 0.39
-2 5 -7 1.4 0.41
2 -5 7 1.06 0.49
-5 -4 7 0.72 0.38
-4 -4 7 0.78 0.37
-3 -4 7 0.4 0.37
-2 -4 7 0.01 0.37
1 4 -7 0.27 0.37
-1 -4 7 0.63 0.32
0 -4 7 0.84 0.35
-1 4 -7 0.36 0.35
1 -4 7 0.78 0.36
-2 4 -7 1.33 0.39
4 -4 7 0.65 0.52
-5 -3 7 6.1 0.56
-4 -3 7 1.34 0.36
-3 -3 7 0.9 0.34
-2 -3 7 0.19 0.33
1 3 -7 0.37 0.34
-1 -3 7 0.24 0.3
0 3 -7 -0.62 0.3
0 -3 7 0.1 0.29
-1 3 -7 0.13 0.3
1 -3 7 -0.33 0.3
-2 3 -7 0.25 0.34
3 -3 7 -0.23 0.31
4 -3 7 0.31 0.38
-6 -2 7 1.79 0.45
-5 -2 7 12.9 0.64
-4 -2 7 0.66 0.3
-3 -2 7 24.59 0.71
-2 -2 7 0.3 0.29
-1 -2 7 16.7 0.6
0 2 -7 0.24 0.29
-1 2 -7 7.41 0.49
-2 2 -7 -0.04 0.29
-3 2 -7 0.83 0.32
3 -2 7 -0.13 0.31
4 -2 7 0.06 0.34
5 -2 7 0.28 0.39
6 1 -7 4.87 0.61
-6 -1 7 3.95 0.56
5 1 -7 -0.19 0.4
-5 -1 7 1.09 0.38
-4 -1 7 10.65 0.54
-3 -1 7 10.36 0.5
-2 -1 7 5.27 0.44
-1 1 -7 23.81 0.68
-2 1 -7 0.39 0.25
2 -1 7 0.05 0.26
-3 1 -7 18.17 0.67
3 -1 7 18.26 0.63
-4 1 -7 1.19 0.36
4 -1 7 1.02 0.36
5 -1 7 2.89 0.45
6 0 -7 0.36 0.43
-6 0 7 0.2 0.39
5 0 -7 1.37 0.41
-5 0 7 0.47 0.35
-4 0 7 5.41 0.46
-3 0 7 0.54 0.25
-1 0 -7 4.53 0.39
1 0 7 4.72 0.37
-2 0 -7 8.76 0.49
2 0 7 9.3 0.46
-3 0 -7 20.63 0.68
3 0 7 21.05 0.64
4 0 7 0.87 0.34
-5 0 -7 18.85 0.77
5 0 7 18.58 0.75
-6 0 -7 -0.52 0.42
6 0 7 -0.02 0.41
6 -1 -7 4.38 0.51
-6 1 7 4.63 0.49
5 -1 -7 3.87 0.46
-5 1 7 3.78 0.46
4 -1 -7 11.51 0.56
-4 1 7 10.56 0.54
3 -1 -7 2.8 0.37
-3 1 7 3.79 0.35
1 1 7 3.02 0.31
-2 -1 -7 15.35 0.55
2 1 7 15.47 0.52
-3 -1 -7 0.77 0.29
3 1 7 0.74 0.3
-4 -1 -7 21.7 0.73
4 1 7 22.64 0.7
-5 -1 -7 2.63 0.45
5 1 7 3.41 0.47
-6 -1 -7 4.42 0.55
6 1 7 4.25 0.56
6 -2 -7 1.21 0.48
-6 2 7 1.69 0.44
5 -2 -7 0.24 0.37
-5 2 7 -0.12 0.28
4 -2 -7 9.14 0.56
-4 2 7 8.1 0.5
3 -2 -7 1.46 0.31
-3 2 7 0.48 0.26
2 -2 -7 19.5 0.62
0 2 7 11.37 0.49
1 2 7 11.29 0.46
2 2 7 3.89 0.38
3 2 7 2 0.33
-4 -2 -7 0.91 0.35
4 2 7 1.73 0.35
-5 -2 -7 0.92 0.36
5 2 7 -0.22 0.34
-6 -2 -7 4.05 0.52
6 2 7 4.27 0.54
6 -3 -7 1.35 0.44
-6 3 7 2.18 0.44
5 -3 -7 0.41 0.35
-5 3 7 -0.59 0.3
4 -3 -7 0.51 0.32
3 -3 -7 -0.01 0.29
2 -3 -7 3.12 0.4
-2 3 7 3.42 0.31
-1 3 7 4.52 0.37
0 3 7 8.73 0.46
1 3 7 1.6 0.31
2 3 7 18.7 0.57
3 3 7 2.32 0.34
-4 -3 -7 20.57 0.68
4 3 7 19.97 0.67
-5 -3 -7 3.19 0.46
5 3 7 3.32 0.44
-6 -3 -7 2.31 0.45
6 3 7 2.42 0.47
7 3 7 2.88 0.54
6 -4 -7 1.05 0.47
-6 4 7 0.84 0.39
5 -4 -7 4.69 0.57
4 -4 -7 2.67 0.46
3 -4 -7 2.57 0.44
-3 4 7 2.27 0.32
2 -4 -7 2.91 0.43
-2 4 7 3.6 0.35
-1 4 7 1.93 0.29
0 4 7 5.63 0.41
1 4 7 0.68 0.3
2 4 7 1.37 0.31
-3 -4 -7 -0.18 0.25
3 4 7 -0.55 0.24
-4 -4 -7 2.68 0.39
4 4 7 1.93 0.35
-5 -4 -7 0.09 0.3
5 4 7 -0.32 0.32
-6 -4 -7 3.75 0.49
6 4 7 3.75 0.53
7 4 7 0.7 0.45
6 -5 -7 3.97 0.64
-5 5 7 2.35 0.38
4 -5 -7 0.56 0.44
-4 5 7 0.4 0.3
3 -5 -7 4.94 0.54
-3 5 7 6.15 0.43
-2 5 7 0.72 0.27
1 -5 -7 19.29 0.73
-1 5 7 19.2 0.57
0 -5 -7 5.19 0.46
0 5 7 4.1 0.37
1 5 7 12.24 0.53
2 5 7 2.88 0.4
3 5 7 -0.5 0.28
4 5 7 -0.35 0.31
-5 -5 -7 -0.95 0.3
5 5 7 0.36 0.36
-6 -5 -7 -0.22 0.39
6 5 7 0.07 0.36
7 5 7 1.05 0.46
6 -6 -7 2.72 0.66
-6 6 7 2.52 0.48
-5 6 7 0.25 0.35
4 -6 -7 10.16 0.75
-4 6 7 10.04 0.58
3 -6 -7 0.53 0.44
-3 6 7 1.43 0.33
2 -6 -7 12.11 0.71
-2 6 7 11.93 0.55
1 -6 -7 2.15 0.4
-1 6 7 1.11 0.3
0 -6 -7 10.24 0.61
0 6 7 10.64 0.49
-1 -6 -7 9.7 0.57
1 6 7 9.18 0.48
2 6 7 0.28 0.3
3 6 7 5.27 0.51
4 6 7 3.34 0.51
-5 -6 -7 1.9 0.44
5 6 7 2.79 0.49
-6 -6 -7 2.32 0.47
6 6 7 2.31 0.53
-5 7 7 0 0.36
-4 7 7 4.86 0.52
3 -7 -7 -0.05 0.45
-3 7 7 0.03 0.32
2 -7 -7 7.85 0.68
-2 7 7 7.06 0.52
1 -7 -7 2.15 0.44
-1 7 7 2.52 0.41
0 -7 -7 15.24 0.7
0 7 7 14.72 0.58
1 7 7 0.75 0.29
2 7 7 12.58 0.59
3 7 7 3.15 0.48
4 7 7 1.47 0.47
-5 -7 -7 2.71 0.52
5 7 7 3.26 0.54
-6 -7 -7 -0.14 0.45
6 7 7 -0.42 0.48
-4 8 7 0.1 0.39
3 -8 -7 0.32 0.45
-3 8 7 0.78 0.38
2 -8 -7 0.42 0.43
-2 8 7 0.11 0.31
1 -8 -7 0.29 0.4
-1 8 7 0.26 0.32
0 -8 -7 -0.48 0.37
0 8 7 -0.2 0.32
-1 -8 -7 0.72 0.39
1 8 7 0.84 0.33
-2 -8 -7 8.63 0.62
2 8 7 8.43 0.53
-3 -8 -7 0.39 0.37
3 8 7 0.38 0.34
4 8 7 11 0.68
5 8 7 -0.39 0.41
-3 9 7 0.11 0.44
2 -9 -7 1.26 0.48
-2 9 7 -0.05 0.38
1 -9 -7 2.97 0.52
-1 9 7 3.1 0.46
0 -9 -7 0.35 0.42
0 9 7 -0.13 0.34
-1 -9 -7 1.51 0.47
1 9 7 2.44 0.42
2 9 7 0.38 0.32
-3 -9 -7 0.5 0.44
3 9 7 1.5 0.36
4 9 7 3.07 0.44
-1 10 7 1.02 0.41
0 -10 -7 0.38 0.43
0 10 7 0.26 0.37
1 10 7 0.62 0.4
-2 -10 -7 1.34 0.53
2 10 7 1.04 0.39
-3 -10 -7 -0.09 0.49
3 10 7 1.37 0.38
-3 -4 8 0.42 0.4
-2 -4 8 0.06 0.39
1 4 -8 1.83 0.48
-1 -4 8 2.79 0.45
0 4 -8 2.7 0.45
0 -4 8 1.97 0.44
-1 4 -8 2.31 0.49
1 -4 8 1.96 0.43
-2 4 -8 0.68 0.47
-4 -3 8 0.1 0.37
-3 -3 8 0.37 0.37
-2 -3 8 -0.4 0.35
-1 -3 8 1.18 0.37
0 3 -8 0.57 0.34
0 -3 8 0.11 0.33
1 -3 8 2.3 0.39
-2 3 -8 0.25 0.39
-3 3 -8 1.79 0.42
-5 -2 8 1.67 0.41
-4 -2 8 0.11 0.31
-3 -2 8 0.82 0.33
-2 -2 8 0.3 0.3
0 -2 8 0.62 0.3
-1 2 -8 1.35 0.37
-2 2 -8 0.9 0.35
-3 2 -8 0.62 0.38
-4 2 -8 0.06 0.4
4 -2 8 0.08 0.37
-5 -1 8 1.6 0.43
-4 -1 8 1.42 0.36
-3 -1 8 4.36 0.43
-2 -1 8 0.03 0.28
2 -1 8 -0.32 0.26
-3 1 -8 0.13 0.35
3 -1 8 -0.08 0.3
4 -1 8 -0.22 0.37
-5 1 -8 0.31 0.41
5 -1 8 1.24 0.44
6 0 -8 2.09 0.49
-6 0 8 1.5 0.51
-5 0 8 0.57 0.38
-4 0 8 0.96 0.32
-3 0 8 1.07 0.29
-2 0 8 1.88 0.33
2 0 8 0.77 0.28
-3 0 -8 5.68 0.52
3 0 8 6.11 0.52
-4 0 -8 0.83 0.38
4 0 8 0.84 0.37
-5 0 -8 1.73 0.46
5 0 8 1.77 0.44
6 -1 -8 0.6 0.45
-6 1 8 -0.07 0.38
5 -1 -8 6.3 0.62
-5 1 8 5.84 0.54
4 -1 -8 0.17 0.37
-4 1 8 0.3 0.31
2 1 8 1.87 0.36
-3 -1 -8 0.01 0.32
3 1 8 0.8 0.31
-4 -1 -8 0.9 0.38
4 1 8 0.62 0.36
5 1 8 0.81 0.44
6 -2 -8 2.03 0.51
-6 2 8 1.4 0.43
-5 2 8 10.72 0.6
4 -2 -8 1.02 0.38
0 2 8 3.8 0.43
1 2 8 1.73 0.34
2 2 8 5.8 0.47
-3 -2 -8 0.55 0.33
3 2 8 -0.29 0.3
-4 -2 -8 1.58 0.43
4 2 8 2.95 0.44
5 2 8 0.73 0.39
-6 -2 -8 1.78 0.49
6 2 8 1.38 0.52
6 -3 -8 0.13 0.46
-6 3 8 -0.06 0.41
5 -3 -8 0.25 0.43
0 3 8 10.79 0.55
1 3 8 24.82 0.72
2 3 8 1.12 0.33
3 3 8 23.93 0.72
-4 -3 -8 0.46 0.34
4 3 8 0.36 0.34
5 3 8 6.87 0.6
-6 -3 -8 2.31 0.49
6 3 8 2.67 0.51
-6 4 8 -0.16 0.4
5 -4 -8 1.34 0.51
-5 4 8 1.26 0.37
4 -4 -8 0.93 0.48
3 -4 -8 -0.02 0.41
2 -4 -8 -0.23 0.35
-2 4 8 -0.32 0.24
-1 4 8 2.55 0.34
0 4 8 1.81 0.35
1 4 8 6.82 0.54
2 4 8 2.73 0.43
3 4 8 12.29 0.62
4 4 8 1.48 0.39
5 4 8 15.6 0.74
-6 -4 -8 1.09 0.43
6 4 8 1.41 0.47
5 -5 -8 3.27 0.65
4 -5 -8 2.24 0.55
-4 5 8 2.13 0.37
-3 5 8 5.6 0.47
2 -5 -8 1.2 0.44
-2 5 8 1.6 0.35
-1 5 8 2.88 0.37
0 5 8 0.65 0.3
1 5 8 1.58 0.38
2 5 8 -0.18 0.34
3 5 8 -0.51 0.35
4 5 8 0.21 0.37
-5 -5 -8 1.17 0.4
5 5 8 1.46 0.45
-6 -5 -8 -0.1 0.43
6 5 8 1.84 0.49
5 -6 -8 -0.39 0.52
-5 6 8 0.37 0.36
4 -6 -8 -0.06 0.51
-4 6 8 0.81 0.36
3 -6 -8 0.68 0.52
-3 6 8 1.77 0.35
2 -6 -8 -0.01 0.45
-2 6 8 1.75 0.37
-1 6 8 1.43 0.34
0 -6 -8 0.91 0.39
0 6 8 1.85 0.34
1 6 8 1.96 0.4
2 6 8 1.35 0.39
3 6 8 4.48 0.54
4 6 8 1.28 0.48
-5 -6 -8 0.47 0.43
5 6 8 0.61 0.45
-6 -6 -8 -0.02 0.49
6 6 8 -0.23 0.45
4 -7 -8 0.2 0.54
-4 7 8 0.15 0.4
3 -7 -8 2.69 0.62
-3 7 8 3.44 0.46
2 -7 -8 -0.36 0.46
-2 7 8 -0.06 0.32
1 -7 -8 0.85 0.42
-1 7 8 0.34 0.33
0 7 8 1.53 0.33
1 7 8 0.35 0.3
2 7 8 0.57 0.35
3 7 8 3 0.5
4 7 8 0.62 0.47
5 7 8 2.34 0.57
4 -8 -8 0.12 0.6
-4 8 8 0.01 0.42
3 -8 -8 -0.58 0.45
-3 8 8 0.29 0.38
-2 8 8 -0.31 0.34
1 -8 -8 -0.03 0.46
-1 8 8 0.74 0.38
0 -8 -8 0.74 0.44
0 8 8 -0.64 0.31
-1 -8 -8 1.28 0.45
1 8 8 1.45 0.37
2 8 8 1.23 0.38
3 8 8 2.15 0.45
4 8 8 0.32 0.42
5 8 8 -0.38 0.48
2 -9 -8 0.91 0.53
-2 9 8 0.16 0.4
-1 9 8 1.5 0.41
0 9 8 0.84 0.41
-1 -9 -8 0.7 0.47
1 9 8 0.99 0.39
2 9 8 0.33 0.35
-3 -9 -8 2.34 0.53
3 9 8 2.33 0.41
4 9 8 1.08 0.41
1 -10 -8 2.88 0.63
0 -10 -8 0.35 0.51
0 10 8 0.58 0.43
-1 -10 -8 4.03 0.61
1 10 8 3.29 0.54
-2 -10 -8 0.28 0.52
2 10 8 0.83 0.4
3 10 8 4.04 0.51
-2 -3 9 0.76 0.41
-1 -3 9 0.65 0.39
-1 3 -9 -0.24 0.43
1 -3 9 0.71 0.39
-3 -2 9 0.61 0.38
-2 -2 9 0.13 0.35
0 -2 9 0.25 0.32
-1 2 -9 -0.64 0.36
-2 2 -9 1.37 0.4
-4 -1 9 -0.03 0.37
-3 -1 9 1.51 0.37
0 1 -9 0.23 0.37
-3 1 -9 -0.24 0.42
3 -1 9 0.75 0.37
4 -1 9 -0.13 0.41
5 0 -9 0.38 0.47
-5 0 9 0.21 0.39
-4 0 9 0.61 0.34
-1 0 -9 0.13 0.32
2 0 9 0.32 0.32
3 0 9 2.32 0.4
-4 0 -9 0.63 0.44
4 0 9 1.12 0.41
-5 1 9 0.51 0.42
4 -1 -9 -0.14 0.39
1 1 9 0.23 0.32
2 1 9 -0.01 0.3
-3 -1 -9 -0.14 0.37
3 1 9 0.52 0.34
-4 -1 -9 -0.21 0.39
4 1 9 0.74 0.36
5 1 9 0.39 0.45
5 -2 -9 0.86 0.47
-5 2 9 0.92 0.38
1 2 9 3.92 0.46
-2 -2 -9 0.6 0.36
2 2 9 0.14 0.34
3 2 9 -0.16 0.32
-4 -2 -9 -0.4 0.4
4 2 9 0.49 0.39
-5 -2 -9 0.15 0.44
5 2 9 1 0.44
-5 3 9 2.65 0.44
4 -3 -9 -0.24 0.45
0 3 9 -0.16 0.32
1 3 9 1.06 0.42
2 3 9 1.23 0.39
3 3 9 0.36 0.36
4 3 9 0.83 0.4
-5 -3 -9 -0.44 0.43
5 3 9 0.34 0.44
5 -4 -9 -0.29 0.55
4 -4 -9 -0.56 0.49
3 -4 -9 1.1 0.52
-1 4 9 3.85 0.41
0 4 9 1.52 0.37
1 4 9 9.85 0.63
2 4 9 -0.47 0.37
3 4 9 2.89 0.47
4 4 9 0.48 0.41
5 4 9 -0.12 0.42
4 -5 -9 2.03 0.62
3 -5 -9 0.91 0.54
2 -5 -9 2.38 0.56
-2 5 9 2.37 0.38
-1 5 9 1.03 0.31
0 5 9 3.78 0.43
1 5 9 0.34 0.36
2 5 9 0.21 0.39
3 5 9 1.47 0.49
4 5 9 -0.46 0.42
-5 -5 -9 2.75 0.48
5 5 9 1.99 0.55
4 -6 -9 -0.25 0.56
-4 6 9 0 0.37
3 -6 -9 0.47 0.56
-3 6 9 -0.22 0.32
2 -6 -9 0.27 0.51
-2 6 9 -0.19 0.32
-1 6 9 0.87 0.3
0 6 9 0.62 0.31
1 6 9 0.02 0.34
2 6 9 2.4 0.48
3 6 9 0.18 0.46
4 6 9 1.42 0.54
5 6 9 1.17 0.55
-4 7 9 2.02 0.47
3 -7 -9 0.03 0.59
-3 7 9 0.59 0.38
2 -7 -9 0.66 0.55
-2 7 9 0.42 0.37
-1 7 9 0.53 0.35
0 -7 -9 1.11 0.45
0 7 9 1.49 0.38
1 7 9 0.94 0.38
2 7 9 -0.26 0.37
3 7 9 0.15 0.46
4 7 9 1.87 0.58
3 -8 -9 -0.57 0.58
-3 8 9 0.45 0.4
-2 8 9 0.94 0.41
-1 8 9 1.22 0.44
0 -8 -9 0.76 0.5
0 8 9 1.27 0.42
1 8 9 0.38 0.35
-2 -8 -9 1.19 0.44
2 8 9 0.6 0.38
3 8 9 0.1 0.44
4 8 9 -0.09 0.47
1 -9 -9 -0.18 0.53
-1 9 9 0 0.43
0 -9 -9 1.11 0.56
0 9 9 0.95 0.45
-1 -9 -9 0.17 0.5
1 9 9 0.25 0.37
2 9 9 1.85 0.44
-3 -9 -9 0.8 0.51
3 9 9 0.89 0.43
-3 -1 10 0.17 0.36
-1 1 -10 1.07 0.4
-2 0 -10 -0.71 0.39
3 0 10 -0.08 0.39
-2 -1 -10 0.49 0.44
2 1 10 -0.07 0.38
3 1 10 0.19 0.38
4 -2 -10 0.39 0.5
1 2 10 -0.98 0.38
2 2 10 1.29 0.42
3 2 10 0.28 0.4
4 2 10 1.13 0.45
0 3 10 0.2 0.37
1 3 10 -0.46 0.4
2 3 10 -0.37 0.42
3 3 10 0.92 0.43
4 3 10 0.79 0.47
-1 4 10 1.04 0.32
0 4 10 -0.59 0.35
1 4 10 -0.53 0.4
2 4 10 -0.28 0.43
3 4 10 0.65 0.44
-4 -4 -10 0.4 0.45
4 4 10 0.61 0.46
-2 5 10 0.56 0.34
-1 5 10 1.22 0.36
0 5 10 0.99 0.36
1 5 10 0.73 0.4
3 5 10 -0.19 0.45
-4 -5 -10 0.3 0.43
4 5 10 -0.12 0.49
3 -6 -10 0.3 0.61
-3 6 10 0.21 0.38
2 -6 -10 1.02 0.58
-2 6 10 1.6 0.42
-1 6 10 1.16 0.37
0 6 10 1.33 0.37
1 6 10 0 0.38
2 6 10 0.2 0.44
3 6 10 0.52 0.51
4 6 10 -0.99 0.53
-3 7 10 0.3 0.4
-2 7 10 0.8 0.43
1 -7 -10 0.37 0.51
-1 7 10 0.29 0.36
0 7 10 2.77 0.45
1 7 10 0.8 0.38
2 7 10 1.28 0.46
3 7 10 -0.37 0.48
1 -8 -10 3.8 0.68
-1 8 10 3.36 0.55
0 8 10 1.58 0.42
1 8 10 2.01 0.46
2 8 10 0.78 0.44
2 2 11 0.15 0.47
1 3 11 0.71 0.48
2 3 11 1 0.55
0 4 11 0.8 0.41
1 4 11 -0.06 0.43
2 4 11 0.27 0.51
-1 5 11 1.93 0.41
0 5 11 2.28 0.45
1 5 11 0.72 0.46
2 5 11 -0.29 0.49
-2 6 11 0.39 0.44
-1 6 11 1.02 0.4
0 6 11 1.86 0.42
1 6 11 1.39 0.46
2 6 11 0.92 0.49
-1 7 11 0.89 0.45
0 7 11 1.48 0.42
loop_
_geom_angle_atom_site_label_1
_geom_angle_atom_site_label_2
_geom_angle_atom_site_label_3
_geom_angle
_geom_angle_site_symmetry_1
_geom_angle_site_symmetry_3
_geom_angle_publ_flag
C8 N1 C1 111.9(2) . . ?
C12 N1 C1 126.8(2) . . ?
C12 N1 C8 121.3(2) . . ?
N1 C1 B1 118.1(2) . . ?
N1 C1 B2 118.5(2) . . ?
C2 C1 N1 102.7(2) . . ?
C2 C1 B1 122.9(2) . . ?
C2 C1 B2 122.6(2) . . ?
B2 C1 B1 71.2(2) . . ?
C3 C2 C1 130.0(2) . . ?
C3 C2 C7 119.6(2) . . ?
C7 C2 C1 110.4(2) . . ?
C2 C3 H3 120.4 . . ?
C4 C3 C2 119.2(2) . . ?
C4 C3 H3 120.4 . . ?
C3 C4 H4 119.3 . . ?
C3 C4 C5 121.4(3) . . ?
C5 C4 H4 119.3 . . ?
C4 C5 H5 119.9 . . ?
C6 C5 C4 120.3(3) . . ?
C6 C5 H5 119.9 . . ?
C5 C6 H6 120.8 . . ?
C5 C6 C7 118.5(2) . . ?
C7 C6 H6 120.8 . . ?
C2 C7 C8 107.7(2) . . ?
C6 C7 C2 121.1(2) . . ?
C6 C7 C8 131.2(2) . . ?
N1 C8 C7 107.4(2) . . ?
N1 C8 C9 119.7(2) . . ?
C9 C8 C7 133.0(2) . . ?
C8 C9 H9 120.3 . . ?
C10 C9 C8 119.4(3) . . ?
C10 C9 H9 120.3 . . ?
C9 C10 H10 120.1 . . ?
C9 C10 C11 119.7(3) . . ?
C11 C10 H10 120.1 . . ?
C10 C11 H11 119.7 . . ?
C12 C11 C10 120.6(3) . . ?
C12 C11 H11 119.7 . . ?
N1 C12 C11 119.3(3) . . ?
N1 C12 H12 120.4 . . ?
C11 C12 H12 120.4 . . ?
C1 B1 B2 54.27(17) . . ?
C1 B1 H1A 98.2(13) . . ?
C1 B1 H1B 114.7(14) . . ?
C1 B1 H1C 113.1(14) . . ?
B2 B1 H1A 44.0(12) . . ?
B2 B1 H1B 116.7(15) . . ?
B2 B1 H1C 121.0(14) . . ?
H1A B1 H1B 103.7(18) . . ?
H1A B1 H1C 104.3(19) . . ?
H1B B1 H1C 119(2) . . ?
C1 B2 B1 54.51(17) . . ?
C1 B2 H1A 97.2(12) . . ?
C1 B2 H2A 112.3(13) . . ?
C1 B2 H2B 113.9(13) . . ?
B1 B2 H1A 42.8(11) . . ?
B1 B2 H2A 119.8(15) . . ?
B1 B2 H2B 117.6(14) . . ?
H1A B2 H2A 104.2(18) . . ?
H1A B2 H2B 105.8(18) . . ?
H2A B2 H2B 120(2) . . ?
loop_
_geom_bond_atom_site_label_1
_geom_bond_atom_site_label_2
_geom_bond_distance
_geom_bond_site_symmetry_2
_geom_bond_publ_flag
N1 C1 1.458(3) . ?
N1 C8 1.378(3) . ?
N1 C12 1.362(3) . ?
C1 C2 1.458(4) . ?
C1 B1 1.632(4) . ?
C1 B2 1.627(4) . ?
C2 C3 1.388(4) . ?
C2 C7 1.403(3) . ?
C3 H3 0.9500 . ?
C3 C4 1.376(4) . ?
C4 H4 0.9500 . ?
C4 C5 1.401(4) . ?
C5 H5 0.9500 . ?
C5 C6 1.378(4) . ?
C6 H6 0.9500 . ?
C6 C7 1.401(4) . ?
C7 C8 1.438(4) . ?
C8 C9 1.393(4) . ?
C9 H9 0.9500 . ?
C9 C10 1.373(4) . ?
C10 H10 0.9500 . ?
C10 C11 1.397(4) . ?
C11 H11 0.9500 . ?
C11 C12 1.372(4) . ?
C12 H12 0.9500 . ?
B1 B2 1.897(5) . ?
B1 H1A 1.29(3) . ?
B1 H1B 1.13(3) . ?
B1 H1C 1.15(3) . ?
B2 H1A 1.32(3) . ?
B2 H2A 1.15(3) . ?
B2 H2B 1.13(3) . ?
loop_
_geom_torsion_atom_site_label_1
_geom_torsion_atom_site_label_2
_geom_torsion_atom_site_label_3
_geom_torsion_atom_site_label_4
_geom_torsion
_geom_torsion_site_symmetry_1
_geom_torsion_site_symmetry_2
_geom_torsion_site_symmetry_3
_geom_torsion_site_symmetry_4
_geom_torsion_publ_flag
N1 C1 C2 C3 178.8(2) . . . . ?
N1 C1 C2 C7 -0.4(2) . . . . ?
N1 C1 B1 B2 -112.9(3) . . . . ?
N1 C1 B2 B1 112.4(3) . . . . ?
N1 C8 C9 C10 0.9(3) . . . . ?
C1 N1 C8 C7 -0.4(3) . . . . ?
C1 N1 C8 C9 179.6(2) . . . . ?
C1 N1 C12 C11 179.6(2) . . . . ?
C1 C2 C3 C4 -179.3(2) . . . . ?
C1 C2 C7 C6 179.7(2) . . . . ?
C1 C2 C7 C8 0.1(3) . . . . ?
C2 C1 B1 B2 117.2(3) . . . . ?
C2 C1 B2 B1 -117.6(3) . . . . ?
C2 C3 C4 C5 0.0(4) . . . . ?
C2 C7 C8 N1 0.2(2) . . . . ?
C2 C7 C8 C9 -179.9(2) . . . . ?
C3 C2 C7 C6 0.5(3) . . . . ?
C3 C2 C7 C8 -179.1(2) . . . . ?
C3 C4 C5 C6 0.0(4) . . . . ?
C4 C5 C6 C7 0.2(4) . . . . ?
C5 C6 C7 C2 -0.5(3) . . . . ?
C5 C6 C7 C8 179.0(2) . . . . ?
C6 C7 C8 N1 -179.4(2) . . . . ?
C6 C7 C8 C9 0.6(4) . . . . ?
C7 C2 C3 C4 -0.2(3) . . . . ?
C7 C8 C9 C10 -179.0(2) . . . . ?
C8 N1 C1 C2 0.5(2) . . . . ?
C8 N1 C1 B1 -138.2(2) . . . . ?
C8 N1 C1 B2 139.0(3) . . . . ?
C8 N1 C12 C11 0.4(3) . . . . ?
C8 C9 C10 C11 -0.2(4) . . . . ?
C9 C10 C11 C12 -0.5(4) . . . . ?
C10 C11 C12 N1 0.4(4) . . . . ?
C12 N1 C1 C2 -178.8(2) . . . . ?
C12 N1 C1 B1 42.5(3) . . . . ?
C12 N1 C1 B2 -40.3(4) . . . . ?
C12 N1 C8 C7 178.9(2) . . . . ?
C12 N1 C8 C9 -1.0(3) . . . . ?
B1 C1 C2 C3 -45.2(4) . . . . ?
B1 C1 C2 C7 135.7(3) . . . . ?
B2 C1 C2 C3 42.4(4) . . . . ?
B2 C1 C2 C7 -136.7(3) . . . . ?
