#------------------------------------------------------------------------------
#$Date: 2021-11-03 00:57:54 +0200 (Wed, 03 Nov 2021) $
#$Revision: 270213 $
#$URL: file:///home/coder/svn-repositories/cod/cif/7/12/91/7129184.cif $
#------------------------------------------------------------------------------
#
# This file is available in the Crystallography Open Database (COD),
# http://www.crystallography.net/
#
# All data on this site have been placed in the public domain by the
# contributors.
#
data_7129184
loop_
_publ_author_name
'Dong, Jinhuan'
'Feng, Wanzhong'
'Wang, Lei'
'Li, Mei'
'Chen, Zhe'
'Xu, Xianxiu'
_publ_section_title
;
 Cu/Base Co-catalyzed [3 + 3] Cycloaddition for the Synthesis of Highly
 Functionalized 4-Fluoropyridines
;
_journal_name_full               'Chemical Communications'
_journal_paper_doi               10.1039/D1CC05412K
_journal_year                    2021
_chemical_formula_moiety         'C14 H11 Cl F N O2'
_chemical_formula_sum            'C14 H11 Cl F N O2'
_chemical_formula_weight         279.69
_space_group_crystal_system      triclinic
_space_group_IT_number           2
_space_group_name_Hall           '-P 1'
_space_group_name_H-M_alt        'P -1'
_atom_sites_solution_hydrogens   geom
_atom_sites_solution_primary     direct
_atom_sites_solution_secondary   difmap
_audit_creation_date             2019-12-23
_audit_creation_method
;
  Olex2 1.2
  (compiled Apr 23 2013 17:54:37, GUI svn.r4466)
;
_audit_update_record
;
2021-04-11 deposited with the CCDC.	2021-11-01 downloaded from the CCDC.
;
_cell_angle_alpha                103.627(7)
_cell_angle_beta                 97.874(8)
_cell_angle_gamma                98.131(7)
_cell_formula_units_Z            2
_cell_length_a                   7.3135(7)
_cell_length_b                   7.6484(6)
_cell_length_c                   12.3996(11)
_cell_measurement_reflns_used    1601
_cell_measurement_temperature    293(2)
_cell_measurement_theta_max      70.8190
_cell_measurement_theta_min      6.2200
_cell_volume                     656.75(11)
_computing_cell_refinement       'CrysAlisPro 1.171.40.53 (Rigaku OD, 2019)'
_computing_data_collection       'CrysAlisPro 1.171.40.53 (Rigaku OD, 2019)'
_computing_data_reduction        'CrysAlisPro 1.171.40.53 (Rigaku OD, 2019)'
_computing_molecular_graphics
;
O. V. Dolomanov, L. J. Bourhis, R. J. Gildea, J. A. K. Howard and H. Puschmann,
OLEX2: a complete structure solution, refinement and analysis program.
J. Appl. Cryst. (2009). 42, 339-341.
;
_computing_publication_material
;
O. V. Dolomanov, L. J. Bourhis, R. J. Gildea, J. A. K. Howard and H. Puschmann,
OLEX2: a complete structure solution, refinement and analysis program.
J. Appl. Cryst. (2009). 42, 339-341.
;
_computing_structure_refinement
;
XL, G.M. Sheldrick, Acta Cryst.
(2008). A64, 112-122
;
_computing_structure_solution
;
XS, G.M. Sheldrick, Acta Cryst.
(2008). A64, 112-122
;
_diffrn_ambient_temperature      293(2)
_diffrn_detector                 'CCD plate'
_diffrn_detector_area_resol_mean 16.0793
_diffrn_detector_type            Eos
_diffrn_measured_fraction_theta_full 0.9868
_diffrn_measured_fraction_theta_max 0.9697
_diffrn_measurement_details
;
List of Runs (angles in degrees, time in seconds):

  # Type    Start    End  Width  t~exp~   \w     \q     \k     \f   Frames
#--------------------------------------------------------------------------
  1  \w    -70.00 -44.00   1.00    1.00    --    0.00 -37.00-150.00   26
  2  \w    -23.00  24.00   1.00    1.00    --    0.00 -37.00-150.00   47
  3  \w      5.00  58.00   1.00    1.00    --    0.00  57.00   0.00   53
  4  \w    -13.00  64.00   1.00    1.00    --   54.00 -57.00-180.00   77
  5  \w     23.00 102.00   1.00    1.00    --   54.00-125.00-180.00   79
  6  \w     72.00  98.00   1.00    1.00    --   54.00  57.00 120.00   26
  7  \w     75.00 100.00   1.00    1.00    --   54.00  57.00-150.00   25
  8  \w    -11.00  79.00   1.00    1.00    --   54.00 -77.00 -60.00   90
  9  \w     76.00 121.00   1.00    1.00    --   54.00  57.00 -30.00   45
 10  \w     28.00 121.00   1.00    1.00    --   54.00  37.00  90.00   93
 11  \w     41.00 129.00   1.00    1.00    --  108.00 -50.00 120.00   88
 12  \w     36.00 109.00   1.00    1.00    --  108.00-111.00 -30.00   73
 13  \w     85.00 151.00   1.00    1.00    --  108.00  37.00-120.00   66
 14  \w     39.00  74.00   1.00    1.00    --  108.00 -91.00 150.00   35
 15  \w    138.00 169.00   1.00    1.00    --  108.00  63.00 -90.00   31
 16  \w     86.00 121.00   1.00    1.00    --  108.00  63.00 -90.00   35
 17  \w     54.00 120.00   1.00    1.00    --  108.00 -77.00 -30.00   66
 18  \w     63.00 133.00   1.00    1.00    --  108.00 -37.00 -30.00   70
 19  \w     36.00 133.00   1.00    1.00    --  108.00 -37.00 -90.00   97
 20  \w     52.00 112.00   1.00    1.00    --  108.00-111.00 120.00   60
 21  \w    142.00 177.00   1.00    1.00    --  108.00  25.00  90.00   35
 22  \w    101.00 127.00   1.00    1.00    --  108.00 111.00 -30.00   26
 23  \w     82.00 143.00   1.00    1.00    --  108.00 -91.00 150.00   61
 24  \w    115.00 171.00   1.00    1.00    --  108.00  37.00 -30.00   56
;
_diffrn_measurement_device       'four-circle diffractometer'
_diffrn_measurement_device_type  'SuperNova, Dual, Cu at home/near, Eos'
_diffrn_measurement_method       '\w scans'
_diffrn_orient_matrix_type
'CrysAlisPro convention (1999,Acta A55,543-557)'
_diffrn_orient_matrix_UB_11      0.2082058000
_diffrn_orient_matrix_UB_12      -0.0189862000
_diffrn_orient_matrix_UB_13      0.0171620000
_diffrn_orient_matrix_UB_21      -0.0206459000
_diffrn_orient_matrix_UB_22      -0.0561415000
_diffrn_orient_matrix_UB_23      0.1097753000
_diffrn_orient_matrix_UB_31      -0.0544686000
_diffrn_orient_matrix_UB_32      -0.2022092000
_diffrn_orient_matrix_UB_33      -0.0672836000
_diffrn_radiation_monochromator  mirror
_diffrn_radiation_probe          x-ray
_diffrn_radiation_type           'Cu K\a'
_diffrn_radiation_wavelength     1.54184
_diffrn_reflns_av_R_equivalents  0.0210
_diffrn_reflns_av_unetI/netI     0.0267
_diffrn_reflns_limit_h_max       8
_diffrn_reflns_limit_h_min       -8
_diffrn_reflns_limit_k_max       6
_diffrn_reflns_limit_k_min       -9
_diffrn_reflns_limit_l_max       14
_diffrn_reflns_limit_l_min       -14
_diffrn_reflns_number            3825
_diffrn_reflns_theta_full        67.00
_diffrn_reflns_theta_max         67.01
_diffrn_reflns_theta_min         3.73
_diffrn_source                   'micro-focus sealed X-ray tube'
_diffrn_source_type              'SuperNova (Cu) X-ray Source'
_exptl_absorpt_coefficient_mu    2.675
_exptl_absorpt_correction_T_max  1.00000
_exptl_absorpt_correction_T_min  0.33243
_exptl_absorpt_correction_type   multi-scan
_exptl_absorpt_process_details
;
CrysAlisPro 1.171.40.53 (Rigaku Oxford Diffraction, 2019)
Empirical absorption correction using spherical harmonics,
 implemented in SCALE3 ABSPACK scaling algorithm.
;
_exptl_crystal_colour            'clear dark colourless'
_exptl_crystal_density_diffrn    1.414
_exptl_crystal_density_method    'not measured'
_exptl_crystal_description       block
_exptl_crystal_F_000             288
_exptl_crystal_size_max          0.22
_exptl_crystal_size_mid          0.16
_exptl_crystal_size_min          0.13
_refine_diff_density_max         0.221
_refine_diff_density_min         -0.214
_refine_diff_density_rms         0.052
_refine_ls_extinction_coef       0.033(3)
_refine_ls_extinction_expression Fc^*^=kFc[1+0.001xFc^2^\l^3^/sin(2\q)]^-1/4^
_refine_ls_extinction_method     SHELXL
_refine_ls_goodness_of_fit_ref   1.052
_refine_ls_hydrogen_treatment    mixed
_refine_ls_matrix_type           full
_refine_ls_number_parameters     174
_refine_ls_number_reflns         2312
_refine_ls_number_restraints     0
_refine_ls_restrained_S_all      1.052
_refine_ls_R_factor_all          0.0603
_refine_ls_R_factor_gt           0.0507
_refine_ls_shift/su_max          0.001
_refine_ls_shift/su_mean         0.000
_refine_ls_structure_factor_coef Fsqd
_refine_ls_weighting_details
'calc w=1/[\s^2^(Fo^2^)+(0.0814P)^2^+0.1469P] where P=(Fo^2^+2Fc^2^)/3'
_refine_ls_weighting_scheme      calc
_refine_ls_wR_factor_gt          0.1399
_refine_ls_wR_factor_ref         0.1547
_reflns_number_gt                1864
_reflns_number_total             2312
_reflns_threshold_expression     >2sigma(I)
_cod_data_source_file            d1cc05412k2.cif
_cod_data_source_block           exp_3690
_cod_original_cell_volume        656.75(10)
_cod_database_code               7129184
_chemical_oxdiff_formula         'C1 H1 N1 O1 Cl1'
_reflns_odcompleteness_completeness 98.68
_reflns_odcompleteness_iscentric 1
_reflns_odcompleteness_theta     66.97
_olex2_refinement_description
;
1. Fixed Uiso
 At 1.2 times of:
  All C(H) groups, All C(H,H) groups
 At 1.5 times of:
  All C(H,H,H) groups
2.a Secondary CH2 refined with riding coordinates:
 C13(H13A,H13B)
2.b Aromatic/amide H refined with riding coordinates:
 C1(H1), C2(H2), C4(H4), C5(H5), C9(H9), C11(H11)
2.c Idealised Me refined as rotating group:
 C14(H14A,H14B,H14C)
;
_oxdiff_exptl_absorpt_empirical_details
;
Empirical correction (ABSPACK) includes:
- Absorption correction using spherical harmonics
- Frame scaling
;
_oxdiff_exptl_absorpt_empirical_full_max 2.670
_oxdiff_exptl_absorpt_empirical_full_min 0.675
_shelx_res_file
;
TITL exp_3690 in P-1
CELL 1.54178 7.3135 7.6484 12.3996 103.627 97.874 98.131
ZERR 2 0.0007 0.0006 0.0011 0.007 0.008 0.007
LATT 1
 
SFAC C H N O Cl F
UNIT 28 22 2 4 2 2
 
L.S. 4
PLAN  20
BOND $H
conf
fmap 2
acta
SHEL 999 0.837
OMIT 6 -2 6
OMIT -5 -3 8
REM <HKL>D:/data/20191204/3690-xuxianxiu/olex2_exp_3690/exp_3690.hkl</HKL>
 
WGHT    0.081400    0.146900
EXTI    0.032518
FVAR       0.37312
C1    1    0.414178    0.398680    0.758939    11.00000    0.05920    0.06449 =
         0.06034    0.01178    0.01546    0.01667
AFIX  43
H1    2    0.514729    0.340884    0.774127    11.00000   -1.20000
AFIX   0
C2    1    0.412847    0.493899    0.677596    11.00000    0.07277    0.07130 =
         0.06032    0.01469    0.02394    0.01417
AFIX  43
H2    2    0.512383    0.501994    0.638631    11.00000   -1.20000
AFIX   0
C3    1    0.262198    0.577086    0.654610    11.00000    0.08114    0.05128 =
         0.04849    0.00861    0.01379    0.00928
C4    1    0.117157    0.573489    0.713863    11.00000    0.07198    0.05664 =
         0.06655    0.01670    0.01486    0.02131
AFIX  43
H4    2    0.018255    0.633378    0.698801    11.00000   -1.20000
AFIX   0
C5    1    0.120459    0.479433    0.796268    11.00000    0.06495    0.05277 =
         0.06264    0.01294    0.01990    0.01524
AFIX  43
H5    2    0.023247    0.477371    0.837340    11.00000   -1.20000
AFIX   0
C6    1    0.266644    0.387618    0.819008    11.00000    0.05850    0.04142 =
         0.04916    0.00081    0.00833    0.00738
C7    1    0.261673    0.280199    0.903500    11.00000    0.05336    0.04493 =
         0.05152    0.00520    0.00718    0.00865
C8    1    0.285335    0.100299    0.882265    11.00000    0.06334    0.04577 =
         0.05516   -0.00008    0.01496    0.01142
C9    1    0.271887    0.000801    0.959800    11.00000    0.06092    0.04034 =
         0.06817    0.00781    0.01199    0.01244
AFIX  43
H9    2    0.285897   -0.121128    0.943201    11.00000   -1.20000
AFIX   0
C10   1    0.236720    0.087791    1.063790    11.00000    0.04803    0.04330 =
         0.05996    0.00825    0.00565    0.00782
C11   1    0.225977    0.352241    1.011199    11.00000    0.07638    0.04134 =
         0.05502    0.00722    0.01427    0.01763
AFIX  43
H11   2    0.209692    0.473481    1.029251    11.00000   -1.20000
AFIX   0
C12   1    0.225988   -0.019249    1.149866    11.00000    0.05931    0.04924 =
         0.06552    0.01339    0.00586    0.00799
C13   1    0.204776   -0.014688    1.339393    11.00000    0.17710    0.06181 =
         0.07190    0.02866    0.02367    0.01296
AFIX  23
H13A  2    0.090491   -0.104501    1.324842    11.00000   -1.20000
H13B  2    0.310615   -0.077911    1.342450    11.00000   -1.20000
AFIX   0
C14   1    0.217181    0.116061    1.443899    11.00000    0.14659    0.09548 =
         0.07884    0.03592    0.02582    0.01950
AFIX 137
H14A  2    0.323358    0.211596    1.454187    11.00000   -1.50000
H14B  2    0.231826    0.057542    1.504268    11.00000   -1.50000
H14C  2    0.104740    0.167383    1.443847    11.00000   -1.50000
AFIX   0
CL1   5    0.254971    0.685252    0.545393    11.00000    0.12841    0.09130 =
         0.07056    0.03751    0.03272    0.03351
N1    3    0.213254    0.262307    1.090255    11.00000    0.07377    0.04585 =
         0.05424    0.00927    0.01392    0.01527
O1    4    0.237698   -0.178572    1.130291    11.00000    0.10554    0.04906 =
         0.08394    0.02042    0.01871    0.01958
O2    4    0.204563    0.078443    1.248683    11.00000    0.12070    0.05422 =
         0.06123    0.02057    0.02184    0.01962
F1    6    0.317986    0.017021    0.779511    11.00000    0.12718    0.05514 =
         0.06737    0.00126    0.04093    0.02399
HKLF 4
 
REM  exp_3690 in P-1
REM R1 =  0.0507 for   1864 Fo > 4sig(Fo)  and  0.0603 for all   2312 data
REM    174 parameters refined using      0 restraints
 
END  
     
WGHT      0.0814      0.1469 
REM Highest difference peak  0.221,  deepest hole -0.214,  1-sigma level  0.052
Q1    1   0.3512  0.0431  1.4229  11.00000  0.05    0.22
Q2    1   0.1366  0.7213  0.5592  11.00000  0.05    0.20
Q3    1   0.3515  0.2235  0.9174  11.00000  0.05    0.20
Q4    1   0.1756 -0.1437  1.3176  11.00000  0.05    0.19
Q5    1   0.0012  0.0182  1.3571  11.00000  0.05    0.18
Q6    1   0.0687  0.0281  1.4015  11.00000  0.05    0.18
Q7    1   0.4829  0.3675  0.7714  11.00000  0.05    0.17
Q8    1   0.4482 -0.1318  1.1114  11.00000  0.05    0.16
Q9    1   0.3278  0.4021  0.8021  11.00000  0.05    0.16
Q10   1   0.1143  0.1199  1.2240  11.00000  0.05    0.16
Q11   1   0.2138  0.4492  0.8182  11.00000  0.05    0.15
Q12   1   0.0908  0.0311  1.3463  11.00000  0.05    0.14
Q13   1   0.3443  0.5628  0.6763  11.00000  0.05    0.14
Q14   1   0.4349  0.2063  0.7403  11.00000  0.05    0.14
Q15   1   0.4376  0.6773  0.5017  11.00000  0.05    0.14
Q16   1   0.1591  0.0428  1.5107  11.00000  0.05    0.14
Q17   1   0.2944  0.1899  1.0872  11.00000  0.05    0.13
Q18   1   0.0429 -0.2562  0.8982  11.00000  0.05    0.13
Q19   1   0.0436  0.1991  1.1393  11.00000  0.05    0.13
Q20   1   0.0287  0.1681  1.3196  11.00000  0.05    0.12

REM The information below was added by Olex2.
REM
REM R1 = 0.0507 for 1864 Fo > 4sig(Fo) and 0.0603 for all 3954 data
REM n/a parameters refined using n/a restraints
REM Highest difference peak 0.22, deepest hole -0.21
REM Mean Shift 0, Max Shift 0.

REM +++ Tabular Listing of Refinement Information +++
REM R1_all = 0.0603
REM R1_gt = 0.0507
REM wR_ref = 0.1547
REM GOOF = 1.052
REM Shift_max = 0
REM Shift_mean = 0
REM Reflections_all = 3954
REM Reflections_gt = 1864
REM Parameters = n/a
REM Hole = 0.22
REM Peak = -0.21
REM Flack = n/a

;
loop_
_space_group_symop_id
_space_group_symop_operation_xyz
1 'x, y, z'
2 '-x, -y, -z'
loop_
_atom_site_label
_atom_site_type_symbol
_atom_site_fract_x
_atom_site_fract_y
_atom_site_fract_z
_atom_site_U_iso_or_equiv
_atom_site_adp_type
_atom_site_occupancy
_atom_site_symmetry_multiplicity
_atom_site_calc_flag
_atom_site_refinement_flags
_atom_site_disorder_assembly
_atom_site_disorder_group
C1 C 0.4142(3) 0.3987(3) 0.7589(2) 0.0611(6) Uani 1 1 d . . .
H1 H 0.5147 0.3409 0.7741 0.073 Uiso 1 1 calc R . .
C2 C 0.4128(4) 0.4939(4) 0.6776(2) 0.0672(7) Uani 1 1 d . . .
H2 H 0.5124 0.5020 0.6386 0.081 Uiso 1 1 calc R . .
C3 C 0.2622(4) 0.5771(3) 0.65461(19) 0.0611(6) Uani 1 1 d . . .
C4 C 0.1172(4) 0.5735(3) 0.7139(2) 0.0637(6) Uani 1 1 d . . .
H4 H 0.0183 0.6334 0.6988 0.076 Uiso 1 1 calc R . .
C5 C 0.1205(3) 0.4794(3) 0.7963(2) 0.0592(6) Uani 1 1 d . . .
H5 H 0.0232 0.4774 0.8373 0.071 Uiso 1 1 calc R . .
C6 C 0.2666(3) 0.3876(3) 0.81901(18) 0.0519(5) Uani 1 1 d . . .
C7 C 0.2617(3) 0.2802(3) 0.90350(19) 0.0514(5) Uani 1 1 d . . .
C8 C 0.2853(3) 0.1003(3) 0.88227(19) 0.0564(6) Uani 1 1 d . . .
C9 C 0.2719(3) 0.0008(3) 0.9598(2) 0.0572(6) Uani 1 1 d . . .
H9 H 0.2859 -0.1211 0.9432 0.069 Uiso 1 1 calc R . .
C10 C 0.2367(3) 0.0878(3) 1.06379(19) 0.0517(5) Uani 1 1 d . . .
C11 C 0.2260(4) 0.3522(3) 1.01120(19) 0.0575(6) Uani 1 1 d . . .
H11 H 0.2097 0.4735 1.0293 0.069 Uiso 1 1 calc R . .
C12 C 0.2260(3) -0.0192(3) 1.1499(2) 0.0590(6) Uani 1 1 d . . .
C13 C 0.2048(7) -0.0147(4) 1.3394(3) 0.1024(12) Uani 1 1 d . . .
H13A H 0.0905 -0.1045 1.3248 0.123 Uiso 1 1 calc R . .
H13B H 0.3106 -0.0779 1.3425 0.123 Uiso 1 1 calc R . .
C14 C 0.2172(6) 0.1161(5) 1.4439(3) 0.1044(12) Uani 1 1 d . . .
H14A H 0.3234 0.2116 1.4542 0.157 Uiso 1 1 calc R . .
H14B H 0.2318 0.0575 1.5043 0.157 Uiso 1 1 calc R . .
H14C H 0.1047 0.1674 1.4438 0.157 Uiso 1 1 calc R . .
Cl1 Cl 0.25497(13) 0.68525(11) 0.54539(6) 0.0911(4) Uani 1 1 d . . .
N1 N 0.2133(3) 0.2623(2) 1.09026(16) 0.0579(5) Uani 1 1 d . . .
O1 O 0.2377(3) -0.1786(2) 1.13029(17) 0.0782(6) Uani 1 1 d . . .
O2 O 0.2046(3) 0.0784(2) 1.24868(15) 0.0768(6) Uani 1 1 d . . .
F1 F 0.3180(3) 0.01702(19) 0.77951(13) 0.0827(5) Uani 1 1 d . . .
loop_
_atom_site_aniso_label
_atom_site_aniso_U_11
_atom_site_aniso_U_22
_atom_site_aniso_U_33
_atom_site_aniso_U_23
_atom_site_aniso_U_13
_atom_site_aniso_U_12
C1 0.0592(14) 0.0645(14) 0.0603(13) 0.0118(11) 0.0155(11) 0.0167(11)
C2 0.0728(16) 0.0713(15) 0.0603(14) 0.0147(12) 0.0239(12) 0.0142(12)
C3 0.0811(17) 0.0513(12) 0.0485(12) 0.0086(10) 0.0138(11) 0.0093(11)
C4 0.0720(16) 0.0566(13) 0.0665(14) 0.0167(11) 0.0149(12) 0.0213(11)
C5 0.0649(14) 0.0528(12) 0.0626(13) 0.0129(10) 0.0199(11) 0.0152(10)
C6 0.0585(13) 0.0414(10) 0.0492(11) 0.0008(9) 0.0083(10) 0.0074(9)
C7 0.0534(12) 0.0449(11) 0.0515(11) 0.0052(9) 0.0072(9) 0.0087(9)
C8 0.0633(14) 0.0458(11) 0.0552(12) -0.0001(9) 0.0150(10) 0.0114(10)
C9 0.0609(14) 0.0403(10) 0.0682(14) 0.0078(10) 0.0120(11) 0.0124(9)
C10 0.0480(11) 0.0433(11) 0.0600(12) 0.0083(9) 0.0056(9) 0.0078(8)
C11 0.0764(15) 0.0413(10) 0.0550(12) 0.0072(9) 0.0143(11) 0.0176(10)
C12 0.0593(13) 0.0492(12) 0.0655(14) 0.0134(10) 0.0059(11) 0.0080(10)
C13 0.177(4) 0.0618(16) 0.0719(19) 0.0287(14) 0.024(2) 0.013(2)
C14 0.147(3) 0.095(2) 0.079(2) 0.0359(18) 0.026(2) 0.020(2)
Cl1 0.1284(8) 0.0913(6) 0.0706(5) 0.0375(4) 0.0327(4) 0.0335(5)
N1 0.0738(13) 0.0459(9) 0.0542(10) 0.0093(8) 0.0139(9) 0.0153(8)
O1 0.1055(15) 0.0491(9) 0.0839(12) 0.0204(8) 0.0187(11) 0.0196(9)
O2 0.1207(16) 0.0542(9) 0.0612(10) 0.0206(8) 0.0218(10) 0.0196(10)
F1 0.1272(14) 0.0551(8) 0.0674(9) 0.0013(7) 0.0409(9) 0.0240(8)
loop_
_atom_type_symbol
_atom_type_description
_atom_type_scat_dispersion_real
_atom_type_scat_dispersion_imag
_atom_type_scat_source
C C 0.0181 0.0091 'International Tables Vol C Tables 4.2.6.8 and 6.1.1.4'
H H 0.0000 0.0000 'International Tables Vol C Tables 4.2.6.8 and 6.1.1.4'
N N 0.0311 0.0180 'International Tables Vol C Tables 4.2.6.8 and 6.1.1.4'
O O 0.0492 0.0322 'International Tables Vol C Tables 4.2.6.8 and 6.1.1.4'
Cl Cl 0.3639 0.7018 'International Tables Vol C Tables 4.2.6.8 and 6.1.1.4'
F F 0.0727 0.0534 'International Tables Vol C Tables 4.2.6.8 and 6.1.1.4'
loop_
_geom_angle_atom_site_label_1
_geom_angle_atom_site_label_2
_geom_angle_atom_site_label_3
_geom_angle
_geom_angle_site_symmetry_1
_geom_angle_site_symmetry_3
_geom_angle_publ_flag
C2 C1 H1 119.5 . . ?
C2 C1 C6 120.9(2) . . ?
C6 C1 H1 119.5 . . ?
C1 C2 H2 120.4 . . ?
C1 C2 C3 119.2(2) . . ?
C3 C2 H2 120.4 . . ?
C2 C3 Cl1 118.8(2) . . ?
C4 C3 C2 121.6(2) . . ?
C4 C3 Cl1 119.6(2) . . ?
C3 C4 H4 120.6 . . ?
C3 C4 C5 118.9(2) . . ?
C5 C4 H4 120.6 . . ?
C4 C5 H5 119.4 . . ?
C4 C5 C6 121.2(2) . . ?
C6 C5 H5 119.4 . . ?
C1 C6 C7 121.8(2) . . ?
C5 C6 C1 118.1(2) . . ?
C5 C6 C7 120.1(2) . . ?
C8 C7 C6 123.5(2) . . ?
C8 C7 C11 114.4(2) . . ?
C11 C7 C6 122.12(19) . . ?
C9 C8 C7 122.6(2) . . ?
F1 C8 C7 118.9(2) . . ?
F1 C8 C9 118.45(19) . . ?
C8 C9 H9 121.2 . . ?
C8 C9 C10 117.56(19) . . ?
C10 C9 H9 121.2 . . ?
C9 C10 C12 117.80(19) . . ?
N1 C10 C9 122.9(2) . . ?
N1 C10 C12 119.3(2) . . ?
C7 C11 H11 117.2 . . ?
N1 C11 C7 125.5(2) . . ?
N1 C11 H11 117.2 . . ?
O1 C12 C10 122.8(2) . . ?
O1 C12 O2 123.8(2) . . ?
O2 C12 C10 113.42(19) . . ?
H13A C13 H13B 108.2 . . ?
C14 C13 H13A 109.8 . . ?
C14 C13 H13B 109.8 . . ?
C14 C13 O2 109.4(2) . . ?
O2 C13 H13A 109.8 . . ?
O2 C13 H13B 109.8 . . ?
C13 C14 H14A 109.5 . . ?
C13 C14 H14B 109.5 . . ?
C13 C14 H14C 109.5 . . ?
H14A C14 H14B 109.5 . . ?
H14A C14 H14C 109.5 . . ?
H14B C14 H14C 109.5 . . ?
C11 N1 C10 116.98(19) . . ?
C12 O2 C13 116.5(2) . . ?
loop_
_geom_bond_atom_site_label_1
_geom_bond_atom_site_label_2
_geom_bond_distance
_geom_bond_site_symmetry_2
_geom_bond_publ_flag
C1 H1 0.9300 . ?
C1 C2 1.376(4) . ?
C1 C6 1.396(3) . ?
C2 H2 0.9300 . ?
C2 C3 1.378(4) . ?
C3 C4 1.371(4) . ?
C3 Cl1 1.744(2) . ?
C4 H4 0.9300 . ?
C4 C5 1.381(3) . ?
C5 H5 0.9300 . ?
C5 C6 1.392(3) . ?
C6 C7 1.477(3) . ?
C7 C8 1.379(3) . ?
C7 C11 1.394(3) . ?
C8 C9 1.365(3) . ?
C8 F1 1.353(3) . ?
C9 H9 0.9300 . ?
C9 C10 1.381(3) . ?
C10 C12 1.494(3) . ?
C10 N1 1.339(3) . ?
C11 H11 0.9300 . ?
C11 N1 1.329(3) . ?
C12 O1 1.203(3) . ?
C12 O2 1.319(3) . ?
C13 H13A 0.9700 . ?
C13 H13B 0.9700 . ?
C13 C14 1.421(4) . ?
C13 O2 1.466(3) . ?
C14 H14A 0.9600 . ?
C14 H14B 0.9600 . ?
C14 H14C 0.9600 . ?
loop_
_geom_torsion_atom_site_label_1
_geom_torsion_atom_site_label_2
_geom_torsion_atom_site_label_3
_geom_torsion_atom_site_label_4
_geom_torsion
_geom_torsion_site_symmetry_1
_geom_torsion_site_symmetry_2
_geom_torsion_site_symmetry_3
_geom_torsion_site_symmetry_4
_geom_torsion_publ_flag
C1 C2 C3 C4 2.6(4) . . . . ?
C1 C2 C3 Cl1 -176.05(18) . . . . ?
C1 C6 C7 C8 -51.2(3) . . . . ?
C1 C6 C7 C11 131.0(2) . . . . ?
C2 C1 C6 C5 -1.6(3) . . . . ?
C2 C1 C6 C7 177.6(2) . . . . ?
C2 C3 C4 C5 -1.9(4) . . . . ?
C3 C4 C5 C6 -0.6(4) . . . . ?
C4 C5 C6 C1 2.3(3) . . . . ?
C4 C5 C6 C7 -176.8(2) . . . . ?
C5 C6 C7 C8 127.9(2) . . . . ?
C5 C6 C7 C11 -49.9(3) . . . . ?
C6 C1 C2 C3 -0.8(4) . . . . ?
C6 C7 C8 C9 -177.0(2) . . . . ?
C6 C7 C8 F1 1.1(3) . . . . ?
C6 C7 C11 N1 177.7(2) . . . . ?
C7 C8 C9 C10 -1.3(4) . . . . ?
C7 C11 N1 C10 0.0(4) . . . . ?
C8 C7 C11 N1 -0.3(4) . . . . ?
C8 C9 C10 C12 -178.7(2) . . . . ?
C8 C9 C10 N1 0.9(3) . . . . ?
C9 C10 C12 O1 -3.6(4) . . . . ?
C9 C10 C12 O2 175.7(2) . . . . ?
C9 C10 N1 C11 -0.3(3) . . . . ?
C10 C12 O2 C13 -176.3(3) . . . . ?
C11 C7 C8 C9 1.0(3) . . . . ?
C11 C7 C8 F1 179.1(2) . . . . ?
C12 C10 N1 C11 179.3(2) . . . . ?
C14 C13 O2 C12 168.8(3) . . . . ?
Cl1 C3 C4 C5 176.78(18) . . . . ?
N1 C10 C12 O1 176.7(2) . . . . ?
N1 C10 C12 O2 -3.9(3) . . . . ?
O1 C12 O2 C13 3.0(4) . . . . ?
F1 C8 C9 C10 -179.4(2) . . . . ?
loop_
_refln_index_h
_refln_index_k
_refln_index_l
_refln_F_squared_meas
_refln_F_squared_sigma
0 0 1 64.66 0.39
0 0 2 20.93 0.32
0 0 3 61.44 0.7
0 0 -4 10.15 0.3
0 0 -4 9.76 0.33
0 0 4 10.03 0.27
0 0 -4 9.42 0.33
0 0 -5 15.98 0.5
0 0 -5 15.56 0.42
0 0 5 16.25 0.39
0 0 -6 7.18 0.38
0 0 -6 6.58 0.3
0 0 -7 1.83 0.21
0 0 -7 1.56 0.16
0 0 -8 3.82 0.34
0 0 -8 3.82 0.28
0 0 -9 58.53 1.2
0 0 -10 9.46 0.62
0 0 -10 9.8 0.63
0 0 -11 2.43 0.31
0 0 -11 2.3 0.31
0 0 -12 0.18 0.09
0 0 -12 0.13 0.08
0 0 -13 0.27 0.09
0 0 14 0.44 0.1
0 -1 14 2.61 0.25
0 1 -12 0.24 0.12
0 1 -12 0.23 0.1
0 1 -11 18 0.89
0 1 -11 17.85 0.87
0 1 -10 17.31 0.66
0 1 -10 16.12 0.82
0 -1 10 16.93 0.74
0 1 -10 15.47 0.8
0 1 -9 0.41 0.1
0 1 -8 0.64 0.13
0 1 -8 0.82 0.13
0 1 -7 21.46 0.67
0 1 -7 20.74 0.61
0 1 -6 94.82 1.27
0 1 -6 94.5 1.22
0 1 -5 174.82 1.5
0 1 -5 172.51 1.49
0 1 -4 23.36 0.46
0 1 -4 22.64 0.47
0 1 -4 23.74 0.5
0 1 -3 13.46 0.3
0 1 -2 114.55 0.68
0 -1 1 72.17 0.4
0 1 0 31.56 0.27
0 1 0 31.13 0.2
0 1 1 109 0.6
0 -1 -1 109.79 0.64
0 -1 -2 246.08 1.29
0 1 2 249.83 1.19
0 -1 -3 137.65 1.2
0 -1 -3 138.27 1.08
0 1 3 136.16 1.11
0 -1 -3 138.29 1.16
0 -1 -4 2.29 0.17
0 -1 -4 2.07 0.17
0 -1 -4 2.03 0.15
0 -1 -4 2.1 0.16
0 -1 -5 154.33 1.46
0 -1 -5 151.36 1.68
0 -1 -6 6.81 0.34
0 -1 -6 6.25 0.39
0 -1 -7 39.84 0.9
0 -1 -7 37.01 1.03
0 -1 -8 23.18 0.74
0 -1 -8 21.31 0.86
0 -1 -9 1.59 0.25
0 -1 -9 1.48 0.24
0 -1 -10 0.33 0.13
0 -1 -10 0.62 0.17
0 -1 -11 3.2 0.35
0 -1 -11 3.21 0.36
0 -1 -12 0.78 0.16
0 -1 -12 0.74 0.15
0 -1 -13 0.21 0.07
0 -2 14 0.18 0.07
0 -2 13 -0.01 0.03
0 -2 13 -0.13 0.07
0 2 -12 -0.14 0.12
0 -2 12 0 0.06
0 -2 11 44.04 1.26
0 2 -11 44.74 1.43
0 2 -10 5.72 0.51
0 2 -10 5.43 0.4
0 -2 10 5.77 0.44
0 2 -9 17.23 0.67
0 2 -8 2.05 0.22
0 2 -7 75.36 1.26
0 2 -6 214.47 1.94
0 2 -5 176.45 1.63
0 2 -4 12.52 0.39
0 2 -4 11.65 0.32
0 2 -3 0.07 0.02
0 -2 3 0.06 0.02
0 2 -3 0.04 0.03
0 -2 2 220.9 0.8
0 2 -2 223.49 1.31
0 2 -2 222.6 0.87
0 -2 1 1.76 0.11
0 -2 0 194.05 1.19
0 2 0 192.52 0.56
0 -2 -1 6.29 0.24
0 2 1 5.18 0.14
0 -2 -2 381.44 1.98
0 -2 -2 384.25 1.96
0 -2 -2 382.12 1.99
0 2 2 380.03 1.59
0 -2 -3 176.5 1.44
0 -2 -3 176.35 1.45
0 -2 -4 38.29 0.83
0 -2 -4 38.09 0.73
0 -2 -4 40.17 0.75
0 -2 -5 1.72 0.17
0 -2 -5 1.77 0.18
0 -2 -5 1.5 0.18
0 -2 -6 5.74 0.34
0 -2 -6 4.91 0.37
0 -2 -7 2.62 0.29
0 -2 -8 1.08 0.2
0 -2 -9 1.43 0.25
0 -2 -10 0.14 0.09
0 -2 -11 1.34 0.23
0 -2 -12 0.17 0.08
0 2 13 1.71 0.17
0 -2 -13 1.88 0.19
0 -3 14 1.48 0.17
0 -3 14 1.55 0.17
0 -3 13 2.12 0.25
0 -3 13 2.05 0.24
0 -3 12 0.16 0.09
0 -3 12 0.03 0.05
0 -3 11 1.47 0.23
0 -3 11 1.29 0.21
0 -3 10 10.7 0.6
0 3 -10 10.51 0.58
0 3 -10 11.18 0.75
0 -3 10 10.65 0.62
0 3 -9 12.46 0.61
0 3 -8 1.39 0.2
0 3 -7 5.55 0.37
0 3 -6 0.13 0.07
0 3 -5 47.74 0.93
0 -3 4 235.39 1.68
0 3 -4 227.82 1.86
0 -3 3 7.66 0.29
0 3 -3 8 0.32
0 3 -2 0.13 0.04
0 -3 2 0.08 0.03
0 3 -1 1.63 0.12
0 -3 1 1.68 0.14
0 -3 1 1.63 0.14
0 3 0 126.83 0.99
0 -3 0 130.08 1.23
0 3 0 126.23 0.89
0 -3 0 127.29 1.23
0 3 1 0.19 0.04
0 -3 -1 0.09 0.05
0 -3 -1 0.13 0.04
0 3 2 73 1.03
0 -3 -2 70.86 1.05
0 -3 -2 72.4 0.98
0 -3 -2 70.92 1.02
0 -3 -3 0.5 0.1
0 -3 -3 0.66 0.11
0 -3 -3 0.54 0.1
0 -3 -4 0 0.05
0 -3 -4 0.04 0.04
0 -3 -4 0.04 0.05
0 -3 -5 2.48 0.25
0 -3 -5 2.26 0.25
0 -3 -5 2.65 0.25
0 -3 -6 0.76 0.16
0 -3 -7 0.11 0.07
0 -3 -7 0 0.06
0 -3 -8 2.88 0.33
0 -3 -8 2.84 0.34
0 -3 -9 0.23 0.12
0 -3 -10 0.44 0.15
0 -3 -11 2.1 0.26
0 -3 -12 -0.03 0.05
0 -4 14 1.09 0.14
0 -4 13 0.15 0.07
0 -4 12 -0.03 0.04
0 -4 11 3.33 0.35
0 -4 11 3.56 0.3
0 -4 10 0.5 0.14
0 -4 10 0.51 0.12
0 4 -10 0.38 0.11
0 4 -9 12.86 0.64
0 -4 9 12.76 0.66
0 -4 9 12.25 0.59
0 4 -8 11.59 0.59
0 4 -7 5.75 0.39
0 4 -6 6.35 0.39
0 4 -5 51.19 1.03
0 4 -4 90.68 1.3
0 -4 3 18.34 0.53
0 4 -3 18.62 0.55
0 -4 2 0.09 0.04
0 4 -2 0.07 0.04
0 -4 1 19.56 0.55
0 -4 0 6.93 0.35
0 -4 0 6.7 0.33
0 -4 -1 0.02 0.05
0 -4 -1 0.1 0.05
0 -4 -2 8.03 0.42
0 -4 -2 7.22 0.37
0 -4 -3 4.19 0.3
0 -4 -3 3.93 0.31
0 -4 -4 5.12 0.37
0 -4 -5 26.99 0.9
0 -4 -6 0.43 0.13
0 -4 -6 0.52 0.16
0 -4 -6 0.6 0.13
0 -4 -7 12.46 0.72
0 -4 -7 12.08 0.68
0 -4 -8 1.04 0.19
0 -4 -8 0.95 0.2
0 -4 -9 0.1 0.09
0 -4 -10 0.67 0.15
0 -4 -11 0.09 0.05
0 -5 13 0.84 0.14
0 -5 12 0.98 0.14
0 -5 12 0.96 0.17
0 -5 11 10.3 0.58
0 -5 11 10.58 0.53
0 -5 10 0.05 0.06
0 -5 10 0.05 0.05
0 -5 9 8.8 0.56
0 -5 9 8.66 0.52
0 5 -9 8.53 0.54
0 5 -8 14.96 0.69
0 -5 8 15.11 0.6
0 -5 8 15.17 0.72
0 -5 8 15.01 0.68
0 -5 7 16.28 0.69
0 5 -7 15.44 0.68
0 5 -6 17.72 0.7
0 5 -5 3.48 0.3
0 5 -4 8.45 0.44
0 -5 3 1.15 0.15
0 -5 2 20.99 0.66
0 -5 1 14.14 0.57
0 -5 0 0.39 0.1
0 -5 -1 2.23 0.24
0 -5 -1 1.55 0.19
0 -5 -2 29.95 0.91
0 -5 -3 0.79 0.17
0 -5 -3 0.97 0.18
0 -5 -3 0.54 0.1
0 -5 -4 4.19 0.38
0 -5 -4 4.33 0.39
0 -5 -4 3.64 0.37
0 -5 -4 3.46 0.3
0 -5 -5 10.37 0.63
0 -5 -5 9.93 0.52
0 -5 -5 10.66 0.64
0 -5 -6 9.12 0.6
0 -5 -6 8.28 0.47
0 -5 -6 8.34 0.57
0 -5 -7 0.8 0.17
0 -5 -7 0.67 0.17
0 -5 -8 0.13 0.06
0 -5 -8 0.16 0.08
0 -5 -9 0.31 0.1
0 -6 13 2.29 0.16
0 -6 12 3.4 0.25
0 -6 11 0.44 0.1
0 -6 11 0.47 0.11
0 -6 10 0.36 0.11
0 -6 10 0.4 0.12
0 -6 9 1.4 0.21
0 -6 9 1.37 0.21
0 -6 8 0.05 0.05
0 -6 8 0.02 0.04
0 -6 8 0.05 0.05
0 6 -7 0.15 0.07
0 -6 7 0.07 0.06
0 -6 7 0.19 0.09
0 6 -6 31.65 1.01
0 -6 6 32.83 0.98
0 -6 6 30.35 0.97
0 -6 5 1.73 0.23
0 -6 5 1.8 0.24
0 -6 4 10.11 0.54
0 -6 4 9.97 0.53
0 -6 3 5.2 0.38
0 -6 2 5.98 0.44
0 -6 2 5.66 0.39
0 -6 2 6.25 0.41
0 -6 1 10.93 0.57
0 -6 1 10.54 0.58
0 -6 1 9.66 0.49
0 -6 1 9.94 0.52
0 -6 0 1.48 0.19
0 -6 0 1.63 0.23
0 -6 0 1.6 0.23
0 -6 0 1.44 0.2
0 -6 -1 2.61 0.29
0 -6 -1 2.49 0.26
0 -6 -1 2.25 0.28
0 -6 -2 0.82 0.15
0 -6 -2 0.89 0.18
0 -6 -2 1.07 0.19
0 -6 -3 0.3 0.11
0 -6 -3 0.31 0.1
0 -6 -4 0.64 0.17
0 -6 -4 0.63 0.14
0 -6 -5 5.87 0.46
0 -6 -5 6.01 0.39
0 -6 -6 4.03 0.35
0 -6 -6 3.48 0.33
0 -6 -7 2.39 0.24
0 -6 -7 2.24 0.24
0 -6 -8 0.12 0.05
0 -7 12 -0.01 0.02
0 -7 11 1.3 0.15
0 -7 10 1.85 0.2
0 -7 9 1.34 0.18
0 -7 8 1.34 0.18
0 -7 8 1.29 0.19
0 -7 7 0.85 0.16
0 -7 7 0.7 0.15
0 -7 6 1.63 0.22
0 -7 6 1.77 0.22
0 -7 5 0.08 0.07
0 -7 5 0.09 0.07
0 -7 4 9.35 0.52
0 -7 3 -0.06 0.07
0 -7 3 -0.03 0.06
0 -7 2 1.8 0.22
0 -7 2 1.71 0.22
0 -7 1 3.82 0.37
0 -7 1 3.89 0.33
0 -7 1 3.51 0.31
0 -7 0 2.82 0.28
0 -7 0 2.6 0.3
0 -7 0 2.58 0.26
0 -7 -1 0.7 0.16
0 -7 -1 0.52 0.12
0 -7 -2 0.72 0.14
0 -7 -2 0.59 0.16
0 -7 -3 0.01 0.05
0 -7 -3 0.04 0.04
0 -7 -4 -0.01 0.04
0 -7 -4 -0.01 0.05
0 -7 -5 1.04 0.16
0 -7 -6 0.04 0.03
0 -8 10 1.06 0.12
0 -8 9 1.14 0.14
0 -8 8 0.24 0.07
0 -8 7 1.41 0.18
0 -8 7 1.28 0.17
0 -8 7 1.32 0.16
0 -8 6 0.2 0.08
0 -8 6 0.15 0.06
0 -8 5 -0.03 0.06
0 -8 5 -0.01 0.05
0 -8 4 0.05 0.05
0 -8 4 -0.01 0.05
0 -8 3 0.17 0.07
0 -8 3 0.33 0.09
0 -8 2 1.74 0.2
0 -8 2 1.62 0.2
0 -8 1 0.17 0.07
0 -8 1 0.19 0.07
0 -8 0 0.71 0.13
0 -8 -1 5.68 0.33
0 -8 -2 0.47 0.09
0 -8 -3 0.01 0.02
0 -9 6 0.04 0.03
0 -9 5 0.1 0.04
0 -9 5 0.14 0.05
0 -9 4 1.13 0.12
0 -9 4 1.31 0.14
0 -9 3 2.45 0.19
0 -9 3 2.26 0.17
0 -9 2 2.52 0.18
0 -9 2 2.53 0.18
1 -9 1 0.77 0.11
1 -9 2 0.19 0.06
1 -9 3 1.02 0.13
1 -9 4 0.7 0.11
1 -9 5 0.45 0.09
1 -9 6 -0.01 0.02
1 -8 -3 0.17 0.07
1 -8 -2 2.5 0.26
1 -8 -1 2.55 0.24
1 -8 0 4.39 0.34
1 -8 1 0.55 0.13
1 -8 2 7.32 0.45
1 -8 2 6.85 0.39
1 -8 3 10.69 0.55
1 -8 3 10.25 0.48
1 -8 4 0.06 0.06
1 -8 4 0.04 0.03
1 -8 5 0.17 0.08
1 -8 5 0.04 0.03
1 -8 6 1.59 0.18
1 -8 6 1.89 0.21
1 -8 6 1.73 0.2
1 -8 7 6.02 0.37
1 -8 7 6.26 0.35
1 -8 8 0.09 0.05
1 -8 9 0.08 0.04
1 -8 10 2.62 0.19
1 -7 -6 0.13 0.06
1 -7 -5 1.72 0.22
1 -7 -4 0.02 0.05
1 -7 -3 5.33 0.44
1 -7 -2 0.66 0.14
1 -7 -2 0.72 0.17
1 -7 -1 3.08 0.34
1 -7 -1 3.25 0.28
1 -7 -1 3.12 0.31
1 -7 0 18.83 0.83
1 -7 0 18.02 0.67
1 -7 0 17.96 0.74
1 -7 1 0.18 0.09
1 -7 1 0.12 0.06
1 -7 1 0.16 0.08
1 -7 2 4.29 0.33
1 -7 2 4.71 0.38
1 -7 3 12.71 0.62
1 -7 3 11.33 0.53
1 -7 4 7.25 0.47
1 -7 4 6.89 0.45
1 -7 5 16.09 0.69
1 -7 5 15.69 0.69
1 -7 6 4.71 0.36
1 -7 6 4.69 0.38
1 -7 7 0.63 0.13
1 -7 7 0.53 0.13
1 -7 8 0.06 0.05
1 -7 8 0.08 0.07
1 -7 9 0.19 0.07
1 -7 10 4.12 0.3
1 -7 11 1.13 0.14
1 -7 12 0.72 0.09
1 -6 -8 0.77 0.13
1 -6 -7 0.03 0.04
1 -6 -6 1.66 0.25
1 -6 -5 3.46 0.38
1 -6 -4 13.96 0.76
1 -6 -3 0.39 0.13
1 -6 -2 -0.16 0.08
1 -6 -2 -0.1 0.1
1 -6 -2 0.03 0.05
1 -6 -2 -0.01 0.03
1 -6 -1 6.08 0.47
1 -6 -1 5.71 0.37
1 -6 -1 5.21 0.4
1 -6 -1 6.4 0.44
1 -6 0 0.12 0.06
1 -6 0 0.07 0.05
1 -6 0 0.01 0.03
1 -6 0 0.09 0.05
1 -6 1 0.65 0.14
1 -6 1 0.75 0.16
1 -6 1 0.68 0.12
1 -6 2 0 0.03
1 -6 2 0.14 0.07
1 -6 3 3.4 0.31
1 -6 3 4.13 0.34
1 -6 4 1.22 0.19
-1 6 -4 1.47 0.23
1 -6 5 124.64 1.94
1 -6 5 124.61 1.9
1 -6 6 10.03 0.57
1 -6 6 10.34 0.54
-1 6 -6 10.52 0.62
1 -6 7 1.3 0.18
-1 6 -7 1.37 0.22
1 -6 7 1.42 0.22
1 -6 7 1.33 0.21
1 -6 8 6.95 0.48
1 -6 8 7.42 0.42
1 -6 8 6.27 0.45
1 -6 9 0.13 0.07
1 -6 9 0.14 0.08
1 -6 10 3.23 0.3
1 -6 10 3.12 0.31
1 -6 11 0.52 0.13
1 -6 11 0.51 0.11
1 -6 12 1.01 0.13
1 -6 12 0.93 0.14
1 -5 -10 1.02 0.14
1 -5 -10 0.88 0.11
1 -5 -9 0.55 0.12
1 -5 -9 0.37 0.11
1 -5 -8 0.89 0.18
1 -5 -8 0.87 0.18
1 -5 -7 0.09 0.07
1 -5 -7 0.06 0.06
1 -5 -6 39.84 1.3
1 -5 -5 43.48 1.35
1 -5 -4 14.44 0.69
1 -5 -4 15.24 0.78
1 -5 -3 8.57 0.52
1 -5 -3 10.16 0.55
1 -5 -2 0.99 0.17
1 -5 -2 1.04 0.18
1 -5 -1 3.25 0.27
1 -5 -1 3.02 0.28
1 -5 0 8.21 0.4
1 -5 0 7.27 0.43
1 -5 1 4.81 0.29
-1 5 -2 2 0.22
-1 5 -3 68.87 1.34
-1 5 -4 3.15 0.29
-1 5 -5 0.18 0.08
-1 5 -6 11.86 0.6
1 -5 7 5.35 0.42
-1 5 -7 6.21 0.45
1 -5 7 6.65 0.45
-1 5 -8 1.68 0.24
1 -5 8 1.78 0.25
1 -5 8 1.73 0.24
1 -5 8 1.72 0.25
-1 5 -9 -0.06 0.05
1 -5 9 0.08 0.07
1 -5 9 0.05 0.06
1 -5 9 0.01 0.04
1 -5 10 0.53 0.13
1 -5 10 0.54 0.15
1 -5 11 0.56 0.15
1 -5 11 0.42 0.1
1 -5 12 1.27 0.2
1 -5 13 1.16 0.16
1 -5 14 0.85 0.11
1 -4 -11 0.51 0.11
1 -4 -11 0.49 0.09
1 -4 -10 0.34 0.11
1 -4 -10 0.31 0.1
1 -4 -9 0.03 0.07
1 -4 -9 -0.13 0.08
1 -4 -8 14 0.75
1 -4 -8 14.27 0.76
1 -4 -7 2.78 0.34
1 -4 -7 2.73 0.33
1 -4 -6 35.92 1.13
1 -4 -6 34.62 1.19
1 -4 -6 35.63 1.12
1 -4 -5 41.51 1.18
1 -4 -4 1.59 0.21
1 -4 -4 1.65 0.21
1 -4 -3 5.19 0.37
1 -4 -3 5.14 0.34
1 -4 -2 24.29 0.75
1 -4 -2 24.25 0.68
1 -4 -1 70.78 1.17
1 -4 -1 75.98 1.11
1 -4 0 32.7 0.77
-1 4 0 31.53 0.73
1 -4 0 33.64 0.7
1 -4 1 114.54 1.42
1 -4 1 117.66 1.23
-1 4 -1 116.27 1.41
-1 4 -2 10.39 0.43
-1 4 -3 0.05 0.04
-1 4 -4 20.72 0.65
-1 4 -5 18.3 0.66
-1 4 -6 1.26 0.18
-1 4 -7 4.79 0.37
-1 4 -8 19.26 0.77
1 -4 9 1.07 0.18
1 -4 9 1.04 0.19
-1 4 -9 0.82 0.16
1 -4 9 0.85 0.17
1 -4 10 14.05 0.62
-1 4 -10 13.26 0.66
1 -4 10 13.36 0.7
1 -4 11 0.67 0.17
1 -4 12 2.15 0.27
1 -4 13 3.52 0.3
1 -4 14 1.28 0.15
1 -3 -12 0.01 0.04
1 -3 -11 0.5 0.12
1 -3 -11 0.58 0.15
1 -3 -10 2.29 0.31
1 -3 -10 2.17 0.28
1 -3 -9 1.14 0.22
1 -3 -9 1.1 0.21
1 -3 -8 2.66 0.33
1 -3 -8 2.45 0.32
1 -3 -7 3.79 0.37
1 -3 -7 3.39 0.36
1 -3 -7 3.51 0.35
1 -3 -6 5.18 0.39
1 -3 -5 53.35 1.16
1 -3 -4 89.52 1.35
1 -3 -4 92.15 1.47
1 -3 -3 9.64 0.4
1 -3 -3 10.39 0.46
1 -3 -2 0.44 0.09
1 -3 -2 0.21 0.06
1 -3 -1 79.17 0.94
1 -3 -1 79.91 1.08
-1 3 1 82.89 0.99
-1 3 1 82.38 0.8
-1 3 0 33.21 0.55
1 -3 0 31.79 0.56
1 -3 0 33.06 0.65
-1 3 -1 37.74 0.52
1 -3 1 39.02 0.58
1 -3 1 37.99 0.56
1 -3 1 39.12 0.69
1 -3 2 6.96 0.25
1 -3 2 6.41 0.21
-1 3 -2 6.09 0.28
-1 3 -3 0.07 0.04
1 -3 3 0.06 0.03
-1 3 -4 8.99 0.38
-1 3 -4 9.67 0.35
-1 3 -5 202.03 2.02
-1 3 -6 28.08 0.81
-1 3 -7 13.61 0.6
-1 3 -8 4.71 0.36
-1 3 -9 9.52 0.66
-1 3 -9 10.91 0.58
1 -3 9 10.64 0.6
-1 3 -10 6.76 0.46
-1 3 -10 5.72 0.53
1 -3 10 6.43 0.49
-1 3 -11 0.02 0.05
1 -3 11 0.1 0.07
1 -3 12 -0.01 0.04
1 -3 12 0.05 0.03
1 -3 13 0.57 0.13
1 -3 13 0.57 0.12
1 -3 14 0 0.02
-1 2 13 0.1 0.04
1 -2 -13 -0.01 0.04
1 -2 -12 1.99 0.22
1 -2 -12 2.1 0.27
1 -2 -11 0.3 0.12
1 -2 -11 0.26 0.1
1 -2 -10 20.77 0.87
1 -2 -10 19.82 0.91
1 -2 -9 4.26 0.4
1 -2 -9 4.27 0.42
1 -2 -9 4.23 0.37
1 -2 -8 0.25 0.08
1 -2 -7 1.76 0.21
1 -2 -6 110.21 1.55
1 -2 -5 1.85 0.19
1 -2 -4 7.46 0.34
1 -2 -3 0.01 0.03
-1 2 3 0.01 0.01
1 -2 -3 0.07 0.04
1 -2 -2 23.33 0.52
-1 2 2 24.69 0.53
-1 2 2 23.77 0.46
-1 2 1 232.54 1.47
1 -2 -1 234.6 1.3
1 -2 0 50.15 0.53
1 -2 0 50.87 0.6
-1 2 0 51.7 0.61
-1 2 -1 123.88 0.91
1 -2 1 129.2 0.93
1 -2 2 120.27 0.96
-1 2 -2 122.94 0.98
-1 2 -3 27.83 0.56
-1 2 -4 56.54 0.72
1 -2 4 61.37 0.93
-1 2 -4 55.78 0.88
-1 2 -4 60.2 0.87
-1 2 -5 41.25 0.84
-1 2 -5 40.91 0.72
-1 2 -6 0.4 0.1
-1 2 -6 0.5 0.1
-1 2 -7 1.2 0.16
-1 2 -7 1.36 0.17
-1 2 -8 7.73 0.43
-1 2 -9 1.07 0.17
1 -2 10 2.77 0.32
-1 2 -10 3.08 0.37
-1 2 -11 11.48 0.71
1 -2 11 12.14 0.67
-1 2 -12 2.9 0.35
1 -2 12 3.35 0.33
1 -2 13 0.04 0.04
1 -2 13 0.05 0.04
1 -2 14 0.35 0.08
-1 1 14 1.63 0.16
-1 1 13 0.03 0.04
1 -1 -13 0.01 0.05
1 -1 -12 14.6 0.75
1 -1 -12 14.71 0.64
1 -1 -11 8.6 0.54
1 -1 -11 8.69 0.61
1 -1 -10 0.14 0.1
1 -1 -10 0.09 0.06
1 -1 -9 0.11 0.05
1 -1 -9 0.21 0.1
1 -1 -8 1.02 0.16
1 -1 -7 0.69 0.12
1 -1 -6 84.11 1.25
1 -1 -5 41.32 0.78
1 -1 -4 18.15 0.46
-1 1 4 18.3 0.48
-1 1 3 83.51 0.92
1 -1 -3 81.64 0.87
-1 1 2 115.02 0.96
1 -1 -1 403.31 1.61
1 -1 0 45.59 0.49
-1 1 -1 1.47 0.1
1 -1 2 39.33 0.58
-1 1 -3 15.79 0.36
1 -1 3 15.72 0.4
-1 1 -3 15.66 0.37
-1 1 -4 6.3 0.29
-1 1 -4 5.88 0.26
-1 1 -4 5.31 0.24
1 -1 4 5.68 0.27
1 -1 4 5.57 0.25
1 -1 5 10.07 0.36
-1 1 -5 11.23 0.41
-1 1 -5 11.42 0.4
1 -1 6 0.56 0.1
-1 1 -6 0.58 0.11
-1 1 -6 0.68 0.11
-1 1 -7 70.22 1.12
-1 1 -7 74.04 1.34
-1 1 -8 13.14 0.62
-1 1 -9 0.6 0.15
-1 1 -10 11.13 0.68
1 -1 10 11.7 0.63
-1 1 -11 5.28 0.48
1 -1 11 5.85 0.44
-1 1 -12 9.61 0.62
-1 1 -13 -0.06 0.07
1 -1 14 0 0.04
-1 0 14 0.22 0.07
1 0 -13 0.21 0.08
-1 0 13 0.22 0.09
1 0 -12 2.73 0.34
1 0 -11 1.11 0.23
1 0 -11 1.17 0.22
1 0 -10 0.4 0.14
1 0 -10 0.31 0.12
1 0 -10 0.43 0.12
1 0 -9 0.36 0.1
1 0 -8 28.03 0.78
1 0 -7 16.17 0.56
1 0 -6 0.1 0.05
1 0 -5 48.78 0.78
1 0 -5 45.63 0.63
-1 0 4 72.14 0.89
1 0 -4 72.72 0.73
1 0 -4 72.52 0.83
-1 0 3 11.52 0.31
1 0 -3 11.74 0.27
-1 0 2 51.51 0.58
1 0 -1 48.17 0.45
1 0 0 0.57 0.05
1 0 1 79.36 0.7
1 0 2 17.09 0.36
-1 0 -3 18.7 0.44
1 0 3 18.11 0.42
-1 0 -3 17.99 0.44
1 0 4 66.58 0.92
-1 0 -4 68.69 0.97
-1 0 -4 68.44 0.76
1 0 5 13.45 0.44
-1 0 -5 14.12 0.51
-1 0 -6 0.78 0.14
1 0 6 0.68 0.11
1 0 7 41.66 0.86
-1 0 -7 49.17 1.19
-1 0 -8 28.26 0.98
-1 0 -9 4.61 0.4
-1 0 -9 4.77 0.43
-1 0 -9 4.53 0.42
-1 0 -10 0.3 0.11
-1 0 -10 0.39 0.12
-1 0 -10 0.31 0.11
-1 0 -11 9.18 0.57
-1 0 -11 7.86 0.57
-1 0 -12 0.67 0.14
-1 0 -12 0.43 0.13
-1 0 -13 0.5 0.12
1 0 14 0.18 0.05
-1 -1 15 0.06 0.04
-1 -1 14 0.43 0.12
-1 -1 13 1.48 0.23
1 1 -12 0.67 0.18
1 1 -11 17.18 0.72
1 1 -11 15.2 0.82
1 1 -11 14.51 0.84
1 1 -10 57.46 1.66
1 1 -10 60.28 1.33
1 1 -10 59.95 1.57
1 1 -9 8.63 0.48
1 1 -8 13.91 0.56
1 1 -7 44.49 0.91
1 1 -6 0.97 0.11
1 1 -6 0.8 0.12
1 1 -5 10.55 0.36
1 1 -4 17.41 0.41
-1 -1 4 14.46 0.37
-1 -1 3 0.07 0.02
-1 -1 2 25.03 0.29
-1 -1 2 23.45 0.34
1 1 -1 6.94 0.12
-1 -1 0 20.78 0.27
1 1 1 1000 2.33
-1 -1 -2 46.56 0.69
-1 -1 -2 44.24 0.56
1 1 2 45.58 0.59
-1 -1 -2 45.41 0.6
-1 -1 -3 3.18 0.14
-1 -1 -3 3.03 0.18
1 1 3 3.01 0.18
-1 -1 -3 3.03 0.2
-1 -1 -3 2.74 0.15
-1 -1 -4 0.98 0.1
-1 -1 -4 0.82 0.12
-1 -1 -4 0.79 0.09
-1 -1 -5 3.28 0.27
-1 -1 -5 3.17 0.2
-1 -1 -6 75.05 1.44
-1 -1 -7 2.18 0.27
-1 -1 -8 0.54 0.14
-1 -1 -9 0.21 0.11
-1 -1 -9 0.2 0.1
-1 -1 -9 0.27 0.11
-1 -1 -10 4.91 0.45
-1 -1 -10 5.38 0.45
-1 -1 -11 2.45 0.29
-1 -1 -11 2.34 0.3
-1 -1 -12 0.82 0.16
-1 -1 -12 0.83 0.15
-1 -1 -13 0.05 0.04
-1 -2 15 1.19 0.13
-1 -2 14 1.2 0.17
-1 -2 13 1.27 0.18
-1 -2 13 1.01 0.18
-1 -2 12 3.63 0.37
-1 -2 12 3.37 0.32
-1 -2 11 7.43 0.52
1 2 -11 7.84 0.5
-1 -2 11 8.42 0.53
-1 -2 10 5.4 0.43
1 2 -10 5.06 0.39
1 2 -9 1.72 0.22
1 2 -8 2.15 0.23
1 2 -8 2.2 0.2
1 2 -7 13.04 0.51
1 2 -6 0.36 0.08
1 2 -5 48.47 0.81
1 2 -4 94.38 1.03
-1 -2 3 45.78 0.3
1 2 -3 45.05 0.64
-1 -2 3 44.54 0.52
-1 -2 2 113.4 0.6
1 2 -2 115.26 0.89
-1 -2 1 31.61 0.57
-1 -2 0 64.67 0.8
-1 -2 0 65.34 0.33
-1 -2 0 64.84 0.7
-1 -2 -1 317.81 1.79
-1 -2 -1 319.29 1.85
-1 -2 -1 320.88 1.42
-1 -2 -1 317.64 1.26
-1 -2 -2 4.66 0.2
-1 -2 -2 4.1 0.22
-1 -2 -2 4.01 0.23
1 2 2 4.48 0.19
-1 -2 -2 4.29 0.18
1 2 3 51.07 0.76
-1 -2 -3 51.06 0.82
-1 -2 -3 53.12 0.95
-1 -2 -4 1.97 0.21
-1 -2 -4 2.12 0.18
-1 -2 -5 9.95 0.51
-1 -2 -5 8.94 0.39
-1 -2 -6 61.75 1.41
-1 -2 -7 0.2 0.1
-1 -2 -8 1.39 0.23
-1 -2 -8 1.36 0.24
-1 -2 -8 1.29 0.22
-1 -2 -9 6.26 0.49
-1 -2 -9 6.63 0.5
-1 -2 -10 10.76 0.63
-1 -2 -10 9.98 0.6
-1 -2 -11 2.43 0.28
-1 -2 -12 0.24 0.08
-1 -3 14 0.11 0.06
-1 -3 13 1.16 0.18
-1 -3 13 1.05 0.18
-1 -3 12 2.01 0.26
-1 -3 12 2.1 0.26
-1 -3 11 0.42 0.13
-1 -3 11 0.37 0.12
-1 -3 10 8.33 0.55
-1 -3 10 8.73 0.56
-1 -3 10 8.44 0.48
1 3 -10 7.97 0.51
1 3 -9 4.86 0.37
1 3 -8 11.16 0.53
1 3 -7 16.6 0.6
1 3 -6 62.04 1.08
1 3 -5 215.75 1.85
1 3 -4 4.77 0.25
1 3 -3 4.81 0.23
-1 -3 3 5.26 0.28
-1 -3 2 0.23 0.06
1 3 -2 0.23 0.05
-1 -3 1 0.75 0.11
-1 -3 0 68.39 1.02
-1 -3 0 69.94 0.85
-1 -3 -1 4.28 0.26
-1 -3 -2 21.96 0.62
-1 -3 -2 22.12 0.62
-1 -3 -3 172.48 1.94
-1 -3 -3 172.91 1.81
-1 -3 -4 118.35 1.79
-1 -3 -4 115.04 1.53
-1 -3 -5 2.56 0.29
-1 -3 -5 2.8 0.26
-1 -3 -6 2.73 0.32
-1 -3 -7 1.61 0.25
-1 -3 -7 1.36 0.24
-1 -3 -8 2.72 0.33
-1 -3 -9 0.13 0.09
-1 -3 -10 0.26 0.11
-1 -3 -11 0.59 0.13
-1 -4 14 2.02 0.18
-1 -4 13 3.94 0.31
-1 -4 13 4.27 0.33
-1 -4 12 1.82 0.2
-1 -4 12 2.04 0.25
-1 -4 12 1.79 0.24
-1 -4 11 3.28 0.33
-1 -4 11 3.27 0.34
-1 -4 11 3.07 0.29
-1 -4 10 11.9 0.58
1 4 -10 12.9 0.65
-1 -4 10 13.28 0.68
-1 -4 10 13.15 0.68
-1 -4 9 0.81 0.18
-1 -4 9 0.9 0.16
1 4 -9 0.82 0.16
1 4 -8 24 0.81
1 4 -7 0.11 0.07
1 4 -6 0.05 0.04
-1 -4 5 5.92 0.36
1 4 -5 6.31 0.34
-1 -4 4 0.72 0.13
1 4 -4 0.84 0.12
-1 -4 3 13.54 0.51
1 4 -3 13.45 0.42
-1 -4 2 28.86 0.74
-1 -4 1 39.34 0.88
-1 -4 0 28.54 0.76
-1 -4 -1 35.01 0.89
-1 -4 -2 0.61 0.12
-1 -4 -3 28.14 0.85
-1 -4 -4 3.95 0.33
-1 -4 -5 38.92 0.99
-1 -4 -5 41.25 1.11
-1 -4 -6 7.42 0.54
-1 -4 -6 6.55 0.42
-1 -4 -7 1.19 0.22
-1 -4 -8 0.97 0.2
-1 -4 -9 0.04 0.07
-1 -4 -10 0.05 0.05
-1 -5 13 1.72 0.17
-1 -5 12 0.9 0.17
-1 -5 12 0.84 0.14
-1 -5 11 0.65 0.14
-1 -5 11 0.72 0.15
-1 -5 10 0.68 0.16
-1 -5 10 0.56 0.13
-1 -5 9 0.05 0.05
-1 -5 9 0.14 0.07
1 5 -9 0.09 0.06
1 5 -8 4.18 0.35
-1 -5 8 4.59 0.35
-1 -5 8 4.08 0.35
-1 -5 8 4.04 0.37
1 5 -7 14.05 0.61
-1 -5 7 15.05 0.66
-1 -5 7 15.48 0.69
-1 -5 7 14.96 0.63
1 5 -6 1.81 0.21
-1 -5 4 12.91 0.57
-1 -5 3 99.6 1.59
-1 -5 2 0.57 0.12
-1 -5 1 5.25 0.37
-1 -5 0 14.07 0.63
-1 -5 -1 1.6 0.22
-1 -5 -2 0.31 0.09
-1 -5 -2 0.41 0.11
-1 -5 -2 0.45 0.12
-1 -5 -2 0.68 0.15
-1 -5 -3 0.25 0.09
-1 -5 -3 0.19 0.07
-1 -5 -3 0.36 0.13
-1 -5 -3 0.43 0.12
-1 -5 -4 0.35 0.11
-1 -5 -4 0.29 0.1
-1 -5 -4 0.45 0.12
-1 -5 -5 4.06 0.4
-1 -5 -5 3.8 0.35
-1 -5 -5 4.4 0.35
-1 -5 -6 51.59 1.17
-1 -5 -6 54.65 1.45
-1 -5 -7 7.16 0.51
-1 -5 -8 0.18 0.09
-1 -5 -9 0.29 0.09
-1 -6 13 0.11 0.04
-1 -6 12 0.9 0.13
-1 -6 11 0.33 0.09
-1 -6 10 3.04 0.29
-1 -6 9 0.09 0.06
-1 -6 8 6.84 0.45
-1 -6 8 7.25 0.45
-1 -6 7 2.62 0.28
-1 -6 7 2.61 0.27
-1 -6 6 0.16 0.07
-1 -6 6 0.16 0.07
-1 -6 5 59.11 1.3
-1 -6 5 60.02 1.3
-1 -6 4 16.1 0.67
-1 -6 3 5.03 0.4
-1 -6 3 5.08 0.38
-1 -6 2 2.09 0.26
-1 -6 2 1.99 0.23
-1 -6 2 1.8 0.22
-1 -6 1 7.43 0.49
-1 -6 1 7.72 0.5
-1 -6 1 8.12 0.47
-1 -6 1 6.95 0.43
-1 -6 0 0.38 0.12
-1 -6 0 0.52 0.14
-1 -6 0 0.38 0.11
-1 -6 -1 1.38 0.21
-1 -6 -1 1.55 0.21
-1 -6 -1 1.5 0.23
-1 -6 -2 0.01 0.07
-1 -6 -2 0 0.03
-1 -6 -3 0 0.06
-1 -6 -3 0.01 0.06
-1 -6 -4 4.84 0.41
-1 -6 -4 4.46 0.37
-1 -6 -4 4.81 0.36
-1 -6 -5 2.56 0.26
-1 -6 -5 2.83 0.3
-1 -6 -5 3.02 0.28
-1 -6 -6 0.09 0.07
-1 -6 -7 0.04 0.05
-1 -7 12 0.68 0.09
-1 -7 11 1.74 0.17
-1 -7 10 3.16 0.25
-1 -7 9 -0.02 0.04
-1 -7 8 0.26 0.09
-1 -7 7 5.19 0.36
-1 -7 7 5.38 0.38
-1 -7 6 0.73 0.14
-1 -7 6 0.71 0.15
-1 -7 5 35.98 0.98
-1 -7 4 9.25 0.51
-1 -7 4 9.9 0.52
-1 -7 3 2.57 0.26
-1 -7 3 2.72 0.28
-1 -7 2 0.47 0.12
-1 -7 2 0.47 0.13
-1 -7 1 3.08 0.29
-1 -7 1 3.48 0.3
-1 -7 0 11.8 0.57
-1 -7 -1 4.54 0.34
-1 -7 -2 1.76 0.21
-1 -7 -2 1.91 0.24
-1 -7 -3 0.87 0.15
-1 -7 -3 0.83 0.15
-1 -7 -4 0.66 0.12
-1 -8 10 2.41 0.17
-1 -8 10 2.89 0.2
-1 -8 9 0.03 0.04
-1 -8 9 0.01 0.02
-1 -8 8 0.64 0.1
-1 -8 8 0.77 0.13
-1 -8 7 2.21 0.22
-1 -8 6 0.02 0.04
-1 -8 6 0.1 0.06
-1 -8 5 0.67 0.13
-1 -8 5 0.53 0.11
-1 -8 4 0.87 0.14
-1 -8 4 1.01 0.16
-1 -8 3 1.1 0.15
-1 -8 3 1.1 0.17
-1 -8 2 0.56 0.12
-1 -8 2 0.66 0.11
-1 -8 1 0.03 0.06
-1 -8 0 0.69 0.12
-1 -8 -1 0.33 0.08
-1 -8 -2 2.52 0.19
-1 -9 5 1.4 0.13
-1 -9 4 0.31 0.07
-1 -9 3 0.05 0.03
2 -9 0 0.06 0.03
2 -9 1 2.34 0.19
2 -9 2 2.09 0.19
2 -9 3 2.01 0.19
2 -9 4 0.91 0.12
2 -9 5 0.05 0.03
2 -9 6 0.48 0.08
2 -8 -4 0.25 0.07
2 -8 -3 -0.02 0.04
2 -8 -2 -0.02 0.04
2 -8 -2 0 0.04
2 -8 -1 4.75 0.36
2 -8 -1 4.41 0.33
2 -8 0 2.48 0.26
2 -8 1 2.41 0.27
2 -8 2 5.13 0.39
2 -8 3 0 0.06
2 -8 4 3.83 0.32
2 -8 5 1.14 0.17
2 -8 5 1 0.16
2 -8 6 0.02 0.04
2 -8 6 0.01 0.04
2 -8 7 0.88 0.14
2 -8 7 0.8 0.12
2 -8 8 0.07 0.04
2 -8 9 1.33 0.15
2 -8 10 1.74 0.15
2 -7 -7 2.85 0.21
2 -7 -6 0.13 0.06
2 -7 -5 0.85 0.16
2 -7 -4 0.18 0.09
2 -7 -4 0.35 0.1
2 -7 -3 0.11 0.06
2 -7 -3 0.16 0.07
2 -7 -2 0.22 0.09
2 -7 -2 0.23 0.1
2 -7 -1 0.12 0.07
2 -7 -1 0.2 0.09
2 -7 0 3.26 0.33
2 -7 0 3.03 0.32
2 -7 1 2.34 0.27
2 -7 1 2.1 0.27
2 -7 2 -0.04 0.06
2 -7 3 0.8 0.16
2 -7 4 27.94 0.92
2 -7 4 27.28 0.94
2 -7 5 0.34 0.11
2 -7 5 0.47 0.11
2 -7 6 0.17 0.08
2 -7 6 0.25 0.08
2 -7 7 1.71 0.22
2 -7 7 1.65 0.23
2 -7 7 1.73 0.19
2 -7 8 6.05 0.41
2 -7 8 6.71 0.45
2 -7 9 0.7 0.14
2 -7 10 1.64 0.18
2 -7 11 1.02 0.12
2 -6 -8 0.42 0.1
2 -6 -7 1.17 0.2
2 -6 -6 0.67 0.17
2 -6 -5 8.74 0.6
2 -6 -4 0.14 0.06
2 -6 -4 0.15 0.09
2 -6 -3 0.96 0.2
2 -6 -3 0.92 0.19
2 -6 -3 1.1 0.19
2 -6 -2 1.46 0.23
2 -6 -2 1.83 0.25
2 -6 -2 1.91 0.27
2 -6 -1 1.36 0.23
2 -6 -1 1.17 0.21
2 -6 -1 1.21 0.2
2 -6 0 6.75 0.47
2 -6 0 6.81 0.46
2 -6 1 5.73 0.41
2 -6 1 5.23 0.4
2 -6 2 0.05 0.04
2 -6 2 0.03 0.03
-2 6 -2 -0.01 0.05
2 -6 3 16.95 0.7
-2 6 -3 18.13 0.84
2 -6 4 29.94 0.93
-2 6 -4 31.19 1.11
2 -6 5 1.92 0.25
2 -6 5 2.58 0.27
-2 6 -5 2.66 0.33
2 -6 6 4.88 0.41
2 -6 6 5.6 0.38
-2 6 -6 5.17 0.44
2 -6 7 0.16 0.09
2 -6 7 0.28 0.1
2 -6 8 1.4 0.22
2 -6 8 1.56 0.23
2 -6 9 0.86 0.18
2 -6 9 1.1 0.19
2 -6 10 0.74 0.15
2 -6 10 0.51 0.12
2 -6 11 0.69 0.14
2 -6 11 0.68 0.11
2 -6 12 2.9 0.23
2 -5 -10 0.02 0.02
2 -5 -9 0.09 0.06
2 -5 -8 0.28 0.1
2 -5 -7 0.44 0.14
2 -5 -6 2.53 0.33
2 -5 -5 13.35 0.75
2 -5 -5 12.56 0.7
2 -5 -4 -0.01 0.05
2 -5 -4 0.11 0.08
2 -5 -3 13.66 0.68
2 -5 -3 13.31 0.71
2 -5 -2 42.9 1.16
2 -5 -1 0.41 0.11
2 -5 0 0.4 0.1
-2 5 0 0.25 0.09
2 -5 1 16.56 0.65
-2 5 -1 14.77 0.66
-2 5 -2 1.4 0.2
-2 5 -3 0.42 0.12
-2 5 -4 4.68 0.37
-2 5 -5 0.3 0.11
2 -5 6 88.35 1.72
-2 5 -6 91.7 1.71
2 -5 7 1.59 0.24
-2 5 -7 1.63 0.23
2 -5 8 0.05 0.07
2 -5 8 0.13 0.07
2 -5 8 0.06 0.06
-2 5 -8 -0.04 0.05
2 -5 9 3.86 0.34
2 -5 9 3.69 0.37
2 -5 9 4.05 0.39
2 -5 10 1.3 0.19
2 -5 10 1.49 0.23
2 -5 11 6.72 0.47
2 -5 12 0.03 0.04
2 -5 13 0.75 0.12
2 -4 -11 0.38 0.1
2 -4 -11 0.43 0.1
2 -4 -10 0.32 0.1
2 -4 -10 0.5 0.13
2 -4 -9 0.36 0.12
2 -4 -9 0.33 0.13
2 -4 -8 0.07 0.06
2 -4 -8 0 0.07
2 -4 -7 23.58 1
2 -4 -7 23.56 0.97
2 -4 -6 1.13 0.21
2 -4 -6 1.35 0.24
2 -4 -5 9.96 0.59
2 -4 -4 0.61 0.14
2 -4 -3 19.07 0.73
2 -4 -2 0.06 0.04
2 -4 -1 0.04 0.04
2 -4 -1 -0.01 0.04
2 -4 0 3.09 0.25
2 -4 0 3.53 0.21
2 -4 1 25.94 0.69
-2 4 -2 0.24 0.08
-2 4 -3 6.93 0.38
-2 4 -4 14.32 0.57
-2 4 -5 25.95 0.8
-2 4 -6 21.34 0.76
-2 4 -7 0.14 0.06
2 -4 8 1.31 0.22
-2 4 -8 1.04 0.18
2 -4 8 1.21 0.19
2 -4 8 1.09 0.2
2 -4 9 2.34 0.29
-2 4 -9 2.32 0.27
2 -4 9 2.26 0.29
2 -4 10 0.09 0.08
2 -4 11 0.92 0.19
2 -4 12 0.11 0.07
2 -4 13 0.2 0.07
2 -3 -12 -0.05 0.04
2 -3 -12 -0.02 0.04
2 -3 -11 2.24 0.28
2 -3 -11 2.21 0.26
2 -3 -10 0.59 0.16
2 -3 -10 0.68 0.17
2 -3 -9 0.41 0.14
2 -3 -9 0.33 0.12
2 -3 -8 0.46 0.14
2 -3 -8 0.5 0.14
2 -3 -8 0.61 0.16
2 -3 -7 1.26 0.22
2 -3 -7 1.22 0.21
2 -3 -7 1.05 0.19
2 -3 -6 19.26 0.78
2 -3 -5 11.28 0.56
2 -3 -4 12.07 0.56
2 -3 -3 19.09 0.67
2 -3 -2 0.12 0.05
2 -3 -1 43.32 0.83
-2 3 0 223.71 1.48
2 -3 0 216.98 1.76
2 -3 1 27.26 0.6
-2 3 -1 26.93 0.59
2 -3 2 4.98 0.26
-2 3 -3 19.77 0.56
-2 3 -4 26.14 0.68
-2 3 -5 19.3 0.63
-2 3 -6 45.71 1.05
-2 3 -7 1.75 0.22
-2 3 -8 11.52 0.58
2 -3 9 9.75 0.58
2 -3 9 9.15 0.57
-2 3 -9 9.1 0.52
-2 3 -9 8.1 0.59
2 -3 10 -0.03 0.07
-2 3 -10 0.03 0.06
-2 3 -11 0.39 0.13
2 -3 11 0.34 0.12
-2 3 -12 0.27 0.1
2 -3 12 0.28 0.11
2 -3 13 1.02 0.16
2 -3 14 0.6 0.09
2 -2 -13 2.08 0.19
2 -2 -12 1 0.19
2 -2 -12 0.89 0.16
2 -2 -11 0.4 0.14
2 -2 -11 0.53 0.14
2 -2 -10 0.01 0.06
2 -2 -10 0.03 0.05
2 -2 -9 0.78 0.18
2 -2 -9 0.81 0.19
2 -2 -9 0.85 0.17
2 -2 -8 0.03 0.06
2 -2 -8 0.04 0.05
2 -2 -7 7.43 0.46
2 -2 -6 1.83 0.21
2 -2 -5 17.69 0.6
2 -2 -4 10.87 0.43
2 -2 -3 108.52 1.24
2 -2 -2 9.09 0.33
-2 2 1 20.13 0.5
2 -2 -1 21.42 0.5
-2 2 0 14.6 0.41
-2 2 0 13.67 0.35
2 -2 0 14.2 0.38
2 -2 0 14.64 0.33
2 -2 0 13.96 0.4
2 -2 1 35.61 0.65
-2 2 -1 36.64 0.65
2 -2 1 35.39 0.57
-2 2 -1 34.85 0.56
2 -2 2 18.24 0.48
2 -2 2 18.21 0.47
-2 2 -2 17.62 0.46
-2 2 -2 17.93 0.42
-2 2 -3 15.16 0.38
2 -2 3 15.74 0.48
-2 2 -3 14.19 0.43
-2 2 -4 4.5 0.26
-2 2 -4 4.98 0.25
2 -2 4 4.86 0.28
2 -2 5 54.36 1.03
-2 2 -5 55.92 1
-2 2 -5 55.7 0.92
2 -2 6 113.05 1.58
-2 2 -6 113.42 1.51
-2 2 -7 8.64 0.45
-2 2 -7 8.25 0.45
2 -2 9 9.08 0.57
-2 2 -9 8.52 0.6
-2 2 -10 1.27 0.24
2 -2 10 1.39 0.23
-2 2 -11 19.03 0.88
2 -2 11 19.47 0.84
2 -2 12 0.82 0.17
-2 2 -12 0.68 0.16
2 -2 13 0.08 0.04
-2 2 -13 0.08 0.04
-2 1 13 2.14 0.23
2 -1 -13 1.93 0.21
2 -1 -12 0.87 0.2
-2 1 12 0.77 0.16
2 -1 -12 0.76 0.16
2 -1 -11 11.52 0.72
2 -1 -10 0.35 0.13
2 -1 -10 0.46 0.13
2 -1 -9 2.85 0.34
2 -1 -9 2.9 0.3
2 -1 -8 37.9 1.04
2 -1 -7 17 0.65
2 -1 -6 18.1 0.62
2 -1 -5 261.91 2.12
2 -1 -4 38.25 0.71
-2 1 3 5.9 0.28
-2 1 3 5.65 0.28
2 -1 -3 5.91 0.25
2 -1 -2 28.06 0.48
2 -1 -1 5.79 0.19
2 -1 -1 5.64 0.24
-2 1 0 208.16 1.33
2 -1 0 206.87 1.4
2 -1 1 232.29 1.55
-2 1 -1 231.94 1.49
-2 1 -2 230.05 1.66
-2 1 -2 229.88 1.61
-2 1 -3 0.85 0.1
-2 1 -3 0.87 0.1
-2 1 -4 20.52 0.56
-2 1 -4 20.32 0.5
-2 1 -5 96.04 1.2
2 -1 5 93.38 1.35
2 -1 6 6.23 0.37
-2 1 -6 7.04 0.4
2 -1 7 8.15 0.44
-2 1 -7 8.73 0.49
-2 1 -8 0.7 0.15
2 -1 8 0.53 0.12
-2 1 -9 0.21 0.1
-2 1 -9 0.32 0.11
2 -1 9 0.27 0.1
2 -1 10 3.79 0.37
-2 1 -10 3.42 0.37
-2 1 -10 3.85 0.38
-2 1 -11 10.89 0.66
2 -1 11 10.57 0.59
2 -1 12 0.06 0.05
-2 1 -12 0.04 0.06
-2 1 -13 1 0.16
2 0 -14 1.09 0.14
-2 0 14 1.43 0.17
-2 0 13 0.33 0.1
2 0 -13 0.33 0.1
2 0 -12 0.05 0.08
-2 0 12 0.03 0.06
2 0 -11 18.94 0.94
-2 0 11 18.95 0.85
2 0 -10 38.13 1.33
2 0 -10 40.35 1.15
2 0 -9 14.37 0.66
2 0 -8 6.13 0.4
2 0 -7 2.34 0.22
2 0 -6 9.88 0.41
2 0 -6 9.12 0.37
2 0 -5 31.59 0.65
-2 0 4 16.34 0.47
2 0 -4 15.19 0.43
-2 0 3 115.25 1.08
2 0 -3 111.41 1.07
-2 0 2 78.55 0.82
2 0 -2 79.78 0.67
2 0 -1 2.33 0.13
2 0 -1 2.47 0.13
2 0 0 869.73 2.72
-2 0 -1 323.16 1.8
-2 0 -2 151.97 1.36
-2 0 -3 35.9 0.73
-2 0 -4 1.36 0.16
-2 0 -5 0.95 0.15
-2 0 -6 0.5 0.12
2 0 6 0.31 0.09
-2 0 -7 0.44 0.13
2 0 7 0.47 0.11
-2 0 -8 7.58 0.53
2 0 8 7.4 0.44
-2 0 -8 8.07 0.55
2 0 9 18.4 0.78
-2 0 -9 18.82 0.86
-2 0 -10 0.37 0.12
-2 0 -11 0.38 0.12
-2 0 -12 0.35 0.12
-2 0 -13 0.76 0.13
-2 -1 15 0.48 0.08
2 1 -14 3.89 0.28
-2 -1 14 3.85 0.3
2 1 -13 0.4 0.15
-2 -1 13 0.93 0.18
-2 -1 12 0.22 0.1
2 1 -11 34.75 1.09
-2 -1 11 31.88 1.1
2 1 -10 9.91 0.55
2 1 -10 9.04 0.69
-2 -1 10 10.17 0.61
2 1 -9 6.74 0.42
2 1 -8 3.19 0.29
2 1 -8 2.9 0.24
2 1 -7 14.23 0.5
2 1 -7 14.56 0.55
2 1 -6 55.11 0.98
2 1 -6 59.83 0.96
-2 -1 5 73.42 1.01
2 1 -5 74.5 1.01
-2 -1 4 0.69 0.08
2 1 -4 0.48 0.08
2 1 -4 0.51 0.08
-2 -1 4 0.39 0.07
-2 -1 3 41.42 0.62
-2 -1 3 41.68 0.55
2 1 -2 224.92 1.29
2 1 -2 223.71 1.19
-2 -1 2 227.99 1.38
-2 -1 1 0.03 0.02
2 1 -1 0.03 0.02
2 1 -1 0.04 0.02
-2 -1 0 163.14 1.16
2 1 0 158.93 0.93
-2 -1 0 162.02 1.31
-2 -1 -1 160.64 1.2
-2 -1 -1 157.18 1.4
-2 -1 -2 83.12 1.11
-2 -1 -2 81.83 0.86
-2 -1 -3 31.49 0.55
-2 -1 -3 32.7 0.77
-2 -1 -4 0.04 0.03
-2 -1 -4 0.04 0.04
-2 -1 -5 51.41 1.17
-2 -1 -6 3.56 0.34
-2 -1 -7 14.43 0.74
-2 -1 -8 4.62 0.39
-2 -1 -8 4.21 0.4
-2 -1 -8 4.89 0.46
-2 -1 -9 1.28 0.22
-2 -1 -9 1.36 0.24
-2 -1 -10 0.42 0.13
-2 -1 -10 0.5 0.15
-2 -1 -11 0.15 0.07
-2 -1 -11 0.02 0.05
-2 -1 -12 -0.07 0.04
-2 -1 -12 -0.07 0.05
-2 -2 15 0 0.02
2 2 -14 0.09 0.08
-2 -2 14 0.02 0.04
-2 -2 13 0.91 0.17
-2 -2 12 4.25 0.39
-2 -2 12 4.02 0.34
-2 -2 11 10.79 0.64
-2 -2 11 11.3 0.59
2 2 -10 42.88 1.18
-2 -2 10 44.54 1.28
-2 -2 10 43.91 1.18
2 2 -9 80.32 1.51
2 2 -8 29.38 0.85
2 2 -8 30.59 0.8
2 2 -7 24.37 0.69
2 2 -7 23.08 0.7
2 2 -6 11.83 0.45
2 2 -5 52.16 0.87
2 2 -4 67.7 0.9
2 2 -3 7.78 0.28
-2 -2 3 7.13 0.26
2 2 -2 54.7 0.65
-2 -2 2 51.14 0.68
-2 -2 1 23.1 0.57
-2 -2 1 20.98 0.47
-2 -2 0 5.43 0.27
-2 -2 0 5.72 0.27
-2 -2 -1 26.34 0.6
-2 -2 -1 25.53 0.62
-2 -2 -2 111.49 1.22
-2 -2 -2 108.09 1.39
-2 -2 -3 21.93 0.69
-2 -2 -3 18.21 0.53
-2 -2 -4 14.49 0.62
-2 -2 -4 13.56 0.46
-2 -2 -5 1.39 0.21
-2 -2 -5 1.31 0.15
-2 -2 -6 2.39 0.3
-2 -2 -7 0.07 0.06
-2 -2 -7 0.21 0.09
-2 -2 -7 0.27 0.1
-2 -2 -8 1.47 0.23
-2 -2 -8 1.32 0.23
-2 -2 -8 1.37 0.25
-2 -2 -9 0.76 0.17
-2 -2 -9 0.65 0.16
-2 -2 -10 0.45 0.13
-2 -2 -10 0.41 0.12
-2 -2 -11 1.61 0.2
-2 -2 -11 1.32 0.18
-2 -3 14 1.92 0.2
2 3 -14 0.52 0.16
-2 -3 13 3.78 0.33
-2 -3 12 0.91 0.18
-2 -3 12 1.06 0.18
-2 -3 11 0.05 0.05
-2 -3 11 -0.04 0.05
-2 -3 11 -0.1 0.06
-2 -3 10 4.98 0.43
-2 -3 10 4.86 0.38
2 3 -10 4.78 0.39
-2 -3 10 4.74 0.41
-2 -3 9 16.82 0.68
2 3 -9 16.45 0.69
-2 -3 9 17.13 0.77
2 3 -9 16.81 0.64
-2 -3 9 18.02 0.78
2 3 -8 2.61 0.26
2 3 -7 7.44 0.4
2 3 -6 2.45 0.22
2 3 -5 21.58 0.58
2 3 -4 119.49 1.26
-2 -3 3 0.79 0.13
2 3 -3 0.8 0.09
-2 -3 2 0.33 0.08
-2 -3 1 17.32 0.55
-2 -3 0 51.68 0.97
-2 -3 -1 1.72 0.18
-2 -3 -1 1.57 0.17
-2 -3 -2 57.26 1.06
-2 -3 -2 54.54 1.09
-2 -3 -3 0.91 0.16
-2 -3 -3 0.99 0.14
-2 -3 -4 3.84 0.35
-2 -3 -4 3.62 0.29
-2 -3 -5 3.56 0.36
-2 -3 -5 4.04 0.31
-2 -3 -6 3.63 0.31
-2 -3 -6 2.76 0.34
-2 -3 -7 0.04 0.07
-2 -3 -8 1.97 0.27
-2 -3 -9 -0.04 0.06
-2 -3 -10 0.36 0.1
-2 -3 -11 1.93 0.19
-2 -4 13 0.24 0.07
-2 -4 13 0.27 0.08
-2 -4 12 1.03 0.16
-2 -4 12 1.13 0.18
-2 -4 11 0.23 0.1
-2 -4 11 0.19 0.1
-2 -4 11 0.19 0.08
-2 -4 10 3.06 0.3
-2 -4 10 2.86 0.32
-2 -4 10 2.89 0.32
-2 -4 9 3.02 0.29
2 4 -9 2.71 0.29
-2 -4 9 3.19 0.33
2 4 -9 3.03 0.3
-2 -4 9 2.91 0.32
-2 -4 8 1.12 0.19
-2 -4 8 1.17 0.18
2 4 -8 1.08 0.17
-2 -4 8 1.29 0.21
-2 -4 7 0.28 0.1
2 4 -7 0.2 0.06
-2 -4 6 41.17 1.09
2 4 -6 40.69 0.91
2 4 -5 18.56 0.57
-2 -4 5 19.27 0.71
-2 -4 4 19.91 0.7
-2 -4 3 10.37 0.49
-2 -4 2 0.12 0.06
-2 -4 1 3.14 0.27
-2 -4 0 2.85 0.26
-2 -4 -1 0.53 0.12
-2 -4 -2 3.46 0.31
-2 -4 -3 0 0.05
-2 -4 -4 14.82 0.62
-2 -4 -4 13.24 0.69
-2 -4 -4 13.25 0.61
-2 -4 -5 23.54 0.8
-2 -4 -5 21.04 0.78
-2 -4 -6 1.68 0.22
-2 -4 -6 1.78 0.27
-2 -4 -7 0.61 0.16
-2 -4 -8 0.12 0.09
-2 -4 -9 0.65 0.14
-2 -4 -10 0.19 0.06
2 5 -14 0.07 0.07
-2 -5 13 1.2 0.14
-2 -5 12 1.65 0.19
-2 -5 11 8.65 0.47
-2 -5 10 0.17 0.07
-2 -5 9 6.69 0.44
-2 -5 8 3.84 0.34
2 5 -8 3.89 0.33
-2 -5 7 14.13 0.65
-2 -5 6 6.58 0.44
-2 -5 6 7.6 0.46
-2 -5 6 7.11 0.43
-2 -5 5 1.8 0.24
-2 -5 4 2.23 0.25
-2 -5 3 2.54 0.27
-2 -5 2 10.65 0.55
-2 -5 1 3.19 0.3
-2 -5 0 0.28 0.08
-2 -5 0 0.33 0.11
-2 -5 0 0.42 0.12
-2 -5 -1 2.52 0.28
-2 -5 -1 2.11 0.24
-2 -5 -1 2.45 0.25
-2 -5 -1 2.37 0.28
-2 -5 -2 4.75 0.36
-2 -5 -2 4.73 0.41
-2 -5 -2 4.97 0.4
-2 -5 -3 0.7 0.15
-2 -5 -3 0.6 0.15
-2 -5 -3 0.48 0.12
-2 -5 -4 11.51 0.57
-2 -5 -5 6.02 0.48
-2 -5 -5 5.49 0.39
-2 -5 -6 11.78 0.65
-2 -5 -7 0.03 0.06
-2 -5 -8 0.14 0.07
-2 -6 13 3.23 0.2
-2 -6 12 2.23 0.2
-2 -6 11 0.15 0.06
-2 -6 10 0.65 0.13
-2 -6 9 0.07 0.05
-2 -6 8 0.35 0.1
-2 -6 7 0.4 0.11
-2 -6 6 11.75 0.58
-2 -6 6 11.09 0.55
-2 -6 5 1.17 0.2
-2 -6 5 1.21 0.19
-2 -6 4 4.62 0.39
-2 -6 4 5.37 0.39
-2 -6 3 0.15 0.08
-2 -6 3 0.09 0.06
-2 -6 3 0.19 0.07
-2 -6 2 10.31 0.59
-2 -6 2 10.23 0.52
-2 -6 2 9.57 0.55
-2 -6 1 4.34 0.38
-2 -6 1 4.45 0.35
-2 -6 1 4.29 0.37
-2 -6 0 0.68 0.15
-2 -6 0 0.66 0.14
-2 -6 -1 0.73 0.14
-2 -6 -1 0.97 0.19
-2 -6 -2 0.32 0.1
-2 -6 -2 0.21 0.1
-2 -6 -3 0.05 0.07
-2 -6 -4 -0.05 0.07
-2 -6 -4 0.04 0.08
-2 -6 -5 0.11 0.07
-2 -6 -5 -0.05 0.05
-2 -6 -6 0.67 0.13
-2 -7 11 1.11 0.13
-2 -7 10 1.05 0.14
-2 -7 9 0.58 0.11
-2 -7 8 0.14 0.06
-2 -7 7 0.26 0.08
-2 -7 6 1.04 0.17
-2 -7 5 0.14 0.08
-2 -7 5 0.2 0.09
-2 -7 4 2.42 0.24
-2 -7 4 2.51 0.26
-2 -7 3 0.36 0.1
-2 -7 3 0.34 0.09
-2 -7 2 2.25 0.25
-2 -7 1 1.27 0.19
-2 -7 0 1.4 0.19
-2 -7 -1 0.29 0.1
-2 -7 -2 0.32 0.09
-2 -7 -2 0.5 0.11
-2 -7 -3 -0.03 0.05
-2 -7 -3 0 0.04
-2 -7 -4 0.22 0.07
-2 -7 -4 0.17 0.06
-2 -8 9 0.46 0.08
-2 -8 8 0.15 0.06
-2 -8 7 0.93 0.14
-2 -8 6 0.29 0.08
-2 -8 5 0.17 0.07
-2 -8 4 1.58 0.19
-2 -8 3 -0.04 0.07
-2 -8 2 0.03 0.04
-2 -8 1 0.24 0.07
-2 -8 0 0.37 0.09
-2 -8 -1 4.52 0.25
3 -9 1 0.54 0.09
3 -9 2 1.03 0.12
3 -9 3 0.5 0.09
3 -9 4 0 0.02
3 -8 -4 0.26 0.07
3 -8 -3 0.28 0.08
3 -8 -3 0.19 0.06
3 -8 -2 1.26 0.16
3 -8 -2 1.16 0.16
3 -8 -1 0.86 0.15
3 -8 0 1.4 0.2
3 -8 1 0.27 0.09
3 -8 2 4.03 0.33
3 -8 3 3.8 0.31
3 -8 4 -0.11 0.06
3 -8 4 0.02 0.03
3 -8 5 0.04 0.04
3 -8 5 0.07 0.04
3 -8 6 1.11 0.17
3 -8 6 1.43 0.14
3 -8 7 2.75 0.24
3 -8 8 -0.02 0.04
3 -8 9 0.42 0.08
3 -7 -6 2.33 0.22
3 -7 -5 2.47 0.25
3 -7 -5 2.31 0.21
3 -7 -4 0.26 0.1
3 -7 -4 0.19 0.07
3 -7 -3 4.89 0.39
3 -7 -3 4.52 0.37
3 -7 -2 -0.05 0.05
3 -7 -2 0.03 0.05
3 -7 -1 1.32 0.2
3 -7 -1 1.33 0.21
3 -7 0 23.86 0.8
3 -7 0 22.93 0.89
3 -7 1 0.88 0.18
3 -7 2 2.62 0.29
3 -7 3 6.64 0.44
3 -7 4 1.21 0.2
3 -7 4 1.6 0.21
3 -7 5 2.83 0.3
3 -7 5 2.69 0.25
3 -7 6 4.79 0.4
3 -7 6 5.14 0.41
3 -7 7 0.38 0.11
3 -7 7 0.34 0.09
3 -7 8 0.05 0.06
3 -7 8 0.07 0.05
3 -7 9 0.35 0.09
3 -7 10 2.03 0.18
3 -6 -8 0.19 0.07
3 -6 -7 0.2 0.09
3 -6 -6 1.37 0.22
3 -6 -6 1.4 0.19
3 -6 -5 6.71 0.5
3 -6 -5 6.91 0.46
3 -6 -4 1.02 0.2
3 -6 -4 0.98 0.18
3 -6 -3 1.58 0.24
3 -6 -3 1.3 0.22
3 -6 -2 2.86 0.33
3 -6 -2 2.86 0.32
3 -6 -2 2.64 0.3
3 -6 -1 2.88 0.3
3 -6 -1 2.42 0.29
3 -6 -1 2.17 0.28
3 -6 0 0.75 0.16
3 -6 1 2.5 0.29
-3 6 -1 2.2 0.28
3 -6 2 -0.03 0.04
3 -6 2 0.08 0.06
-3 6 -2 0.09 0.07
3 -6 3 2.16 0.27
3 -6 3 2.43 0.27
-3 6 -3 2.3 0.3
3 -6 4 0.32 0.1
3 -6 4 0.46 0.12
-3 6 -4 0.45 0.13
3 -6 5 73.86 1.63
-3 6 -5 75.16 1.7
3 -6 6 17.34 0.79
3 -6 7 0.58 0.15
3 -6 8 2.49 0.28
3 -6 8 2.34 0.28
3 -6 9 0.92 0.17
3 -6 9 0.67 0.13
3 -6 10 1.59 0.18
3 -6 10 1.74 0.21
3 -6 11 0.41 0.09
3 -5 -10 0.15 0.06
3 -5 -9 1.12 0.17
3 -5 -8 0.54 0.14
3 -5 -7 0.57 0.16
3 -5 -6 33.17 1.16
3 -5 -5 32.07 1.13
3 -5 -5 33.71 1.16
3 -5 -4 20.63 0.9
3 -5 -4 21.45 0.92
3 -5 -3 1.93 0.26
3 -5 -3 1.53 0.23
3 -5 -2 2.1 0.26
3 -5 -1 3.84 0.33
3 -5 0 0.07 0.03
-3 5 0 0.08 0.05
3 -5 1 1.37 0.19
-3 5 -1 1.16 0.19
-3 5 -2 6.51 0.45
-3 5 -3 15.37 0.69
-3 5 -4 0.57 0.13
3 -5 5 13.81 0.68
-3 5 -5 13.57 0.65
3 -5 6 7.87 0.52
-3 5 -6 6.95 0.47
3 -5 7 2.33 0.29
-3 5 -7 2.09 0.26
3 -5 8 0.51 0.14
3 -5 8 0.46 0.14
3 -5 8 0.53 0.12
3 -5 9 3.75 0.36
3 -5 9 3.75 0.32
3 -5 9 3.41 0.35
3 -5 10 0.13 0.07
3 -5 11 0.09 0.07
3 -5 12 0.56 0.11
3 -4 -11 0.04 0.04
3 -4 -10 0.03 0.05
3 -4 -9 1.22 0.22
3 -4 -8 4.16 0.41
3 -4 -7 0.32 0.13
3 -4 -6 5.3 0.46
3 -4 -6 4.97 0.46
3 -4 -5 60.41 1.49
3 -4 -5 53.09 1.41
3 -4 -4 39.63 1.15
3 -4 -3 2.94 0.29
3 -4 -2 13.14 0.58
3 -4 -1 40.77 0.95
3 -4 0 10.01 0.45
3 -4 1 55.99 1.04
-3 4 -2 0.48 0.11
-3 4 -3 0.62 0.13
-3 4 -4 16.9 0.65
-3 4 -5 12.4 0.57
-3 4 -6 2.53 0.27
3 -4 7 25.08 0.94
3 -4 7 27.71 0.97
-3 4 -7 25.92 0.88
3 -4 8 5.27 0.45
3 -4 8 5.64 0.44
-3 4 -8 4.89 0.39
3 -4 9 2.65 0.3
3 -4 9 2.75 0.33
3 -4 10 4.08 0.39
3 -4 11 1.23 0.2
3 -4 12 1.87 0.22
3 -4 13 0.85 0.12
3 -3 -12 0.09 0.05
3 -3 -11 -0.03 0.05
3 -3 -11 0.01 0.04
3 -3 -10 1.01 0.2
3 -3 -10 1.33 0.23
3 -3 -9 4.05 0.39
3 -3 -9 4.16 0.41
3 -3 -8 2.12 0.3
3 -3 -8 1.73 0.25
3 -3 -8 1.81 0.27
3 -3 -7 3.03 0.34
3 -3 -7 2.7 0.33
3 -3 -6 15.17 0.72
3 -3 -5 53.12 1.3
3 -3 -4 28.22 0.91
3 -3 -3 0.17 0.07
3 -3 -2 11.39 0.47
-3 3 1 70.27 1.08
3 -3 -1 67.77 1.08
3 -3 0 0.21 0.07
-3 3 0 -0.01 0.04
3 -3 1 52.45 0.86
-3 3 -1 54.52 0.9
3 -3 2 8.97 0.4
-3 3 -2 9.24 0.37
3 -3 3 1.77 0.19
-3 3 -3 2.59 0.22
3 -3 4 9.08 0.46
-3 3 -4 8.65 0.42
-3 3 -5 20.13 0.66
-3 3 -6 3.41 0.3
-3 3 -7 38.64 1.04
3 -3 8 1.92 0.27
3 -3 8 2.54 0.29
-3 3 -9 0.06 0.07
3 -3 9 0.22 0.07
3 -3 9 0.2 0.1
-3 3 -10 0.41 0.14
3 -3 10 0.45 0.13
-3 3 -11 1.13 0.19
3 -3 11 1.19 0.2
3 -3 12 0.06 0.05
-3 3 -12 0.03 0.03
3 -3 13 0.37 0.08
3 -2 -13 0.16 0.06
3 -2 -12 0.12 0.06
3 -2 -11 0.01 0.05
3 -2 -11 0.22 0.1
3 -2 -10 22.95 0.97
3 -2 -10 23.36 0.96
3 -2 -9 0.13 0.07
3 -2 -9 0.11 0.08
3 -2 -8 0.51 0.13
3 -2 -8 0.65 0.16
3 -2 -7 9.38 0.54
3 -2 -6 42.9 1.08
3 -2 -5 4.43 0.31
3 -2 -4 1.16 0.15
3 -2 -3 0.69 0.11
3 -2 -2 6.03 0.3
-3 2 1 55.79 0.92
3 -2 -1 57.54 0.85
3 -2 0 15.89 0.42
3 -2 0 16.41 0.45
-3 2 0 15.53 0.48
3 -2 1 163.83 1.28
3 -2 1 158.81 1.6
-3 2 -1 160.2 1.54
3 -2 2 12.54 0.49
-3 2 -2 12.23 0.44
3 -2 3 0.2 0.08
-3 2 -3 0.09 0.05
-3 2 -3 0.13 0.05
-3 2 -4 17.64 0.55
3 -2 4 19.19 0.66
-3 2 -4 17.7 0.56
-3 2 -5 3.46 0.26
3 -2 5 3.7 0.31
-3 2 -5 3.57 0.26
-3 2 -6 0.22 0.07
3 -2 6 0.22 0.09
3 -2 7 13.51 0.64
-3 2 -7 13.67 0.61
3 -2 8 0.45 0.13
-3 2 -8 0.71 0.17
3 -2 9 3.38 0.35
-3 2 -9 3.32 0.37
3 -2 10 4.76 0.42
-3 2 -10 4.71 0.43
-3 2 -11 -0.01 0.05
3 -2 11 0.14 0.08
-3 2 -12 0.02 0.04
3 -2 12 0.05 0.05
3 -2 13 0 0.02
-3 2 -13 0.06 0.04
3 -1 -14 0.36 0.08
3 -1 -13 1.66 0.2
-3 1 13 1.41 0.17
3 -1 -12 9.71 0.56
-3 1 12 9.67 0.51
3 -1 -11 1.41 0.25
-3 1 11 1.62 0.23
3 -1 -10 0.28 0.12
-3 1 10 0.2 0.09
3 -1 -9 1.1 0.22
3 -1 -9 1.33 0.21
3 -1 -9 1.56 0.32
-3 1 9 1.41 0.21
3 -1 -8 0.01 0.04
3 -1 -7 7.75 0.46
3 -1 -6 13.26 0.55
3 -1 -5 60.57 1.06
3 -1 -4 86.89 1.13
3 -1 -3 81.23 0.97
3 -1 -2 6.03 0.24
-3 1 1 15.87 0.48
3 -1 -1 20.28 0.44
3 -1 0 1.25 0.09
-3 1 0 1.12 0.13
-3 1 -1 77.88 1.1
-3 1 -2 6.12 0.32
-3 1 -3 0.23 0.06
-3 1 -3 0.28 0.08
-3 1 -4 2.17 0.21
3 -1 5 0.3 0.1
-3 1 -5 0.47 0.11
-3 1 -6 0.32 0.09
3 -1 6 0.33 0.11
3 -1 7 6.24 0.42
-3 1 -7 8.64 0.53
3 -1 8 0.17 0.09
-3 1 -8 0.2 0.09
-3 1 -8 0.4 0.13
3 -1 8 0.19 0.08
3 -1 9 5.81 0.46
-3 1 -9 6.04 0.49
-3 1 -9 6.29 0.49
3 -1 10 4.67 0.4
-3 1 -10 4.98 0.44
-3 1 -11 5.9 0.45
3 -1 11 6.13 0.42
-3 1 -12 3.44 0.31
3 -1 12 3.82 0.28
-3 1 -13 0.04 0.04
-3 0 14 0.06 0.04
3 0 -14 -0.04 0.04
-3 0 13 0.45 0.11
3 0 -12 0.42 0.15
-3 0 12 0.7 0.15
3 0 -11 -0.09 0.1
-3 0 11 -0.06 0.06
3 0 -10 1.16 0.29
3 0 -10 0.87 0.18
-3 0 10 0.87 0.18
3 0 -9 3.32 0.38
3 0 -9 3.66 0.35
-3 0 9 3.36 0.35
3 0 -8 18.82 0.75
3 0 -7 6.78 0.41
3 0 -6 0.34 0.09
3 0 -5 15.93 0.5
3 0 -4 47.47 0.77
3 0 -3 25.89 0.5
-3 0 2 13.92 0.43
3 0 -2 15.3 0.32
3 0 -2 14.24 0.42
3 0 -1 44.73 0.75
-3 0 1 44.44 0.79
3 0 0 11.83 0.4
-3 0 0 11.57 0.42
-3 0 -1 33.52 0.74
-3 0 -1 33.78 0.54
-3 0 -2 13.94 0.49
-3 0 -3 40.33 0.9
-3 0 -4 12.1 0.53
-3 0 -5 0.35 0.1
-3 0 -6 0.6 0.14
3 0 6 0.74 0.16
-3 0 -7 8.62 0.55
3 0 7 8.59 0.51
-3 0 -7 9.9 0.6
-3 0 -8 2.35 0.3
3 0 8 2.3 0.26
-3 0 -8 2.54 0.32
3 0 9 0 0.05
-3 0 -9 0 0.06
-3 0 -10 0.38 0.12
3 0 10 0.29 0.11
-3 0 -11 1.18 0.2
-3 0 -12 2.34 0.24
3 1 -14 0.21 0.09
-3 -1 14 0.24 0.07
3 1 -13 0.39 0.15
-3 -1 13 0.98 0.17
-3 -1 12 0.27 0.11
3 1 -12 0.24 0.13
-3 -1 11 4.36 0.41
3 1 -11 4.88 0.61
3 1 -10 89.29 1.75
-3 -1 10 88.34 1.85
3 1 -9 4.67 0.38
-3 -1 9 5.24 0.44
3 1 -8 5.86 0.39
3 1 -8 6.6 0.4
3 1 -7 13.07 0.55
3 1 -6 0.01 0.03
3 1 -5 4.8 0.3
3 1 -4 19.63 0.55
-3 -1 3 11.13 0.4
3 1 -3 13.29 0.43
3 1 -2 13.09 0.37
-3 -1 2 13.83 0.45
3 1 -1 72.29 0.87
-3 -1 1 73.22 1.05
3 1 0 5.8 0.26
-3 -1 0 6.58 0.3
-3 -1 0 6.39 0.3
-3 -1 0 6.17 0.32
-3 -1 -1 145.68 1.32
-3 -1 -1 146.56 1.62
-3 -1 -2 1.92 0.15
-3 -1 -2 2.16 0.21
-3 -1 -3 40.47 0.97
-3 -1 -4 0.62 0.14
-3 -1 -5 -0.02 0.04
-3 -1 -6 10.35 0.62
-3 -1 -7 1.76 0.23
-3 -1 -7 1.48 0.24
3 1 7 1.55 0.22
-3 -1 -7 1.51 0.25
-3 -1 -8 0.77 0.15
-3 -1 -8 0.7 0.17
-3 -1 -9 0.01 0.05
-3 -1 -10 1.42 0.23
-3 -1 -11 0.54 0.12
-3 -1 -12 0.09 0.05
3 2 -14 0.4 0.13
-3 -2 14 1.23 0.16
3 2 -13 1.31 0.28
-3 -2 13 2.35 0.26
-3 -2 12 0.77 0.17
-3 -2 11 1.31 0.22
-3 -2 11 1.03 0.21
3 2 -10 11.53 0.59
-3 -2 10 10.06 0.62
-3 -2 10 12.19 0.68
3 2 -9 11.65 0.57
-3 -2 9 12.67 0.68
3 2 -8 6.85 0.42
3 2 -7 29.08 0.82
3 2 -6 2.65 0.23
3 2 -6 2.59 0.23
3 2 -5 23.66 0.65
3 2 -4 45.79 0.87
-3 -2 3 0.1 0.04
3 2 -3 0.29 0.07
3 2 -2 30.93 0.63
-3 -2 2 29.07 0.67
-3 -2 1 79.82 1.21
3 2 -1 78.05 0.94
-3 -2 0 16.84 0.53
-3 -2 0 15.65 0.54
-3 -2 -1 2.6 0.21
-3 -2 -1 2.49 0.23
-3 -2 -2 0.16 0.06
-3 -2 -2 0.18 0.06
-3 -2 -3 1.58 0.16
-3 -2 -3 2.18 0.24
-3 -2 -4 0.11 0.08
-3 -2 -5 1.39 0.23
-3 -2 -6 18.28 0.83
-3 -2 -6 20.41 0.9
-3 -2 -7 3.24 0.36
-3 -2 -7 3.53 0.35
-3 -2 -7 3.46 0.39
-3 -2 -8 1.77 0.25
-3 -2 -8 1.75 0.27
-3 -2 -9 1.62 0.24
-3 -2 -9 1.54 0.22
-3 -2 -10 1.93 0.22
-3 -2 -10 1.47 0.2
-3 -2 -11 0.68 0.11
3 3 -14 0.01 0.05
3 3 -13 0.09 0.1
-3 -3 13 0.11 0.05
-3 -3 12 4.72 0.35
-3 -3 12 4.95 0.4
-3 -3 11 1.1 0.18
-3 -3 11 1.16 0.21
-3 -3 10 0.58 0.13
-3 -3 10 0.64 0.16
3 3 -10 0.75 0.15
-3 -3 9 1.78 0.23
-3 -3 9 2.05 0.28
3 3 -9 1.86 0.23
-3 -3 8 30.01 0.89
3 3 -8 30.24 0.91
-3 -3 8 32.7 1.05
3 3 -8 31.92 0.92
3 3 -7 34.03 0.91
3 3 -7 35.38 0.92
3 3 -6 14.62 0.55
3 3 -6 15.15 0.58
3 3 -5 18.07 0.58
-3 -3 3 2.45 0.25
-3 -3 2 0.09 0.05
3 3 -2 0.08 0.05
-3 -3 1 1.52 0.18
-3 -3 0 15.23 0.58
-3 -3 -1 1.09 0.16
-3 -3 -1 1.15 0.17
-3 -3 -2 0.15 0.07
-3 -3 -2 0.18 0.08
-3 -3 -3 26.78 0.79
-3 -3 -3 24.83 0.87
-3 -3 -4 8.24 0.51
-3 -3 -4 8.84 0.56
-3 -3 -4 9.62 0.55
-3 -3 -5 0.66 0.14
-3 -3 -5 0.32 0.11
-3 -3 -5 0.49 0.14
-3 -3 -6 0.14 0.08
-3 -3 -7 0.61 0.16
-3 -3 -7 0.51 0.14
-3 -3 -8 0 0.05
-3 -3 -8 -0.08 0.06
-3 -3 -9 -0.03 0.06
-3 -3 -10 0.06 0.04
3 4 -14 0.43 0.12
3 4 -13 0.48 0.17
-3 -4 13 1.58 0.17
-3 -4 12 1.8 0.2
-3 -4 11 5.13 0.37
-3 -4 10 0.28 0.1
-3 -4 9 2.29 0.26
3 4 -9 2.44 0.27
-3 -4 8 26.36 1
-3 -4 8 26.51 0.87
3 4 -8 26.47 0.85
3 4 -8 27.38 0.87
-3 -4 7 5.91 0.47
-3 -4 7 5.31 0.38
3 4 -7 5.8 0.38
3 4 -7 6.17 0.41
-3 -4 6 4.57 0.4
-3 -4 5 23.19 0.86
-3 -4 4 4.05 0.35
-3 -4 3 4.03 0.33
-3 -4 2 9.77 0.51
-3 -4 1 1.37 0.2
-3 -4 0 7.89 0.46
-3 -4 -1 35.06 1.05
-3 -4 -1 33.99 0.97
-3 -4 -2 0.35 0.12
-3 -4 -2 0.21 0.08
-3 -4 -2 0.35 0.11
-3 -4 -3 1.96 0.23
-3 -4 -3 1.88 0.26
-3 -4 -3 1.77 0.22
-3 -4 -4 0.21 0.1
-3 -4 -4 0.03 0.04
-3 -4 -4 0.1 0.08
-3 -4 -5 6.07 0.42
-3 -4 -6 2.39 0.3
-3 -4 -7 1.11 0.19
-3 -4 -8 0 0.05
-3 -4 -9 0.05 0.04
3 5 -13 0.38 0.12
-3 -5 13 1.17 0.13
3 5 -12 0.17 0.11
-3 -5 12 0.24 0.07
-3 -5 11 0.03 0.04
-3 -5 10 -0.04 0.05
-3 -5 9 1.76 0.23
-3 -5 8 0.31 0.1
-3 -5 7 0.86 0.17
-3 -5 7 0.73 0.15
3 5 -7 0.75 0.14
-3 -5 7 1.08 0.25
-3 -5 6 0.82 0.17
-3 -5 6 0.86 0.16
-3 -5 6 1.12 0.24
-3 -5 5 2.45 0.29
-3 -5 5 2.86 0.38
-3 -5 4 9.21 0.55
-3 -5 4 9.44 0.48
-3 -5 3 6.16 0.45
-3 -5 3 6.2 0.38
-3 -5 2 1.58 0.22
-3 -5 2 1.61 0.19
-3 -5 1 0.08 0.05
-3 -5 1 0.15 0.08
-3 -5 1 0.03 0.05
-3 -5 0 3.03 0.31
-3 -5 0 3.17 0.28
-3 -5 0 2.8 0.32
-3 -5 -1 1.23 0.2
-3 -5 -1 1.1 0.17
-3 -5 -1 1.02 0.2
-3 -5 -2 0.44 0.12
-3 -5 -2 0.39 0.13
-3 -5 -3 0.05 0.08
-3 -5 -3 0.08 0.08
-3 -5 -4 0.3 0.1
-3 -5 -5 0.14 0.1
-3 -5 -5 0.1 0.09
-3 -5 -6 16.67 0.69
-3 -5 -7 7.92 0.41
-3 -6 12 0.49 0.09
-3 -6 11 0.05 0.04
-3 -6 10 2.8 0.25
-3 -6 9 0.17 0.06
-3 -6 8 1.57 0.2
-3 -6 7 0.73 0.14
-3 -6 5 33.82 0.93
-3 -6 4 14.81 0.62
-3 -6 4 14.32 0.69
-3 -6 3 1.65 0.2
-3 -6 3 1.9 0.26
-3 -6 2 0.17 0.07
-3 -6 2 0.25 0.09
-3 -6 1 2.12 0.24
-3 -6 1 1.83 0.25
-3 -6 0 -0.07 0.06
-3 -6 0 0.04 0.05
-3 -6 -1 0.07 0.06
-3 -6 -1 0.06 0.07
-3 -6 -2 0.04 0.06
-3 -6 -3 0.19 0.08
-3 -6 -4 0.55 0.12
-3 -6 -4 0.68 0.12
-3 -6 -5 0.56 0.11
-3 -7 10 0.92 0.1
-3 -7 10 0.65 0.09
-3 -7 9 -0.02 0.03
-3 -7 9 0.03 0.03
-3 -7 8 0.08 0.04
-3 -7 7 0.24 0.07
-3 -7 6 -0.06 0.07
-3 -7 5 6.31 0.38
-3 -7 4 9.84 0.48
-3 -7 3 9.29 0.46
-3 -7 3 8.71 0.47
-3 -7 2 -0.01 0.04
-3 -7 2 0.01 0.04
-3 -7 1 0.85 0.14
-3 -7 1 0.98 0.16
-3 -7 0 3.51 0.26
-3 -7 -1 2.54 0.22
-3 -7 -2 1.02 0.14
-3 -7 -2 1.08 0.13
-3 -8 6 0.09 0.04
-3 -8 5 0.03 0.03
-3 -8 4 1.02 0.13
-3 -8 3 0.3 0.07
-3 -8 2 0.04 0.03
-3 -8 1 0 0.03
4 -8 -3 0.1 0.04
4 -8 -2 -0.03 0.05
4 -8 -1 3.21 0.26
4 -8 0 0.2 0.07
4 -8 1 0.22 0.08
4 -8 2 0.07 0.04
4 -8 3 1.25 0.17
4 -8 3 1.35 0.16
4 -8 4 0.14 0.06
4 -8 4 0.1 0.04
4 -8 5 0 0.02
4 -8 5 0.05 0.04
4 -8 6 0.67 0.11
4 -8 6 0.9 0.14
4 -8 7 -0.02 0.02
4 -8 7 0.01 0.02
4 -8 8 0.13 0.04
4 -7 -6 0.34 0.07
4 -7 -5 0.13 0.05
4 -7 -5 0.12 0.05
4 -7 -4 0.12 0.06
4 -7 -4 0.1 0.06
4 -7 -3 0.27 0.09
4 -7 -2 -0.02 0.06
4 -7 -1 0.37 0.12
4 -7 0 3.6 0.34
4 -7 1 0.47 0.12
4 -7 2 1.28 0.21
4 -7 2 1.02 0.17
4 -7 3 0.01 0.04
4 -7 3 0.08 0.04
4 -7 4 4.87 0.4
4 -7 5 -0.03 0.06
4 -7 6 0.56 0.13
4 -7 7 0.34 0.1
4 -7 7 0.43 0.11
4 -7 8 1.88 0.2
4 -7 8 2.04 0.21
4 -7 9 0.14 0.05
4 -6 -8 0.33 0.08
4 -6 -7 5.31 0.36
4 -6 -7 3.92 0.27
4 -6 -6 0.26 0.1
4 -6 -6 0.15 0.07
4 -6 -5 0.08 0.06
4 -6 -5 0.01 0.05
4 -6 -4 0.26 0.09
4 -6 -2 0.47 0.14
4 -6 -1 0.06 0.06
4 -6 -1 -0.02 0.06
4 -6 0 2.39 0.3
4 -6 0 2.47 0.28
4 -6 1 4.66 0.41
4 -6 1 4.64 0.37
-4 6 -1 4.4 0.4
4 -6 2 1.37 0.22
4 -6 2 1.4 0.2
-4 6 -2 1.15 0.21
4 -6 3 5.24 0.43
4 -6 3 5.09 0.36
4 -6 4 2.76 0.31
4 -6 5 0.1 0.08
4 -6 6 5.24 0.42
4 -6 7 1.59 0.23
4 -6 8 0.29 0.08
4 -6 8 0.26 0.08
4 -6 9 0.23 0.08
4 -6 9 0.27 0.07
4 -5 -10 0.03 0.03
4 -5 -9 0.24 0.08
4 -5 -8 0.15 0.08
4 -5 -7 1.23 0.21
4 -5 -6 1.44 0.24
4 -5 -5 30.34 1.06
4 -5 -4 0.27 0.1
4 -5 -4 0.27 0.1
4 -5 -4 0.34 0.13
4 -5 -3 3.12 0.32
4 -5 -3 2.72 0.32
4 -5 -2 5.92 0.43
4 -5 -2 5.65 0.46
4 -5 -1 0.08 0.05
4 -5 -1 0.09 0.07
4 -5 0 1.8 0.22
4 -5 0 1.58 0.24
4 -5 1 6 0.45
4 -5 1 5.5 0.38
-4 5 -1 5.77 0.44
4 -5 2 0.64 0.15
-4 5 -2 0.86 0.17
4 -5 3 0.15 0.08
-4 5 -3 0.24 0.1
4 -5 4 0.38 0.12
-4 5 -4 0.32 0.1
4 -5 5 0.01 0.05
-4 5 -5 0 0.04
4 -5 6 42.15 1.21
4 -5 7 1.33 0.22
4 -5 8 0.07 0.05
4 -5 8 0.11 0.08
4 -5 9 1.05 0.17
4 -5 9 1.28 0.2
4 -5 10 0.43 0.11
4 -5 11 1.74 0.18
4 -4 -11 0.64 0.11
4 -4 -10 0 0.04
4 -4 -9 0.29 0.09
4 -4 -8 1.75 0.26
4 -4 -7 0.64 0.17
4 -4 -7 0.56 0.15
4 -4 -6 0.53 0.15
4 -4 -6 0.66 0.17
4 -4 -6 0.41 0.14
4 -4 -5 35.59 1.13
4 -4 -5 38.36 1.21
4 -4 -5 34.53 1.15
4 -4 -4 0.29 0.11
4 -4 -4 0.2 0.09
4 -4 -3 -0.03 0.06
4 -4 -2 2.31 0.24
4 -4 -1 4.15 0.31
4 -4 0 3.34 0.27
4 -4 1 9.43 0.44
-4 4 -2 0.71 0.14
-4 4 -3 4.36 0.35
-4 4 -4 8.14 0.48
4 -4 5 4.61 0.38
-4 4 -5 4.14 0.35
4 -4 6 4.83 0.41
4 -4 6 5.44 0.43
-4 4 -6 5.25 0.4
4 -4 7 0.51 0.14
4 -4 7 0.49 0.14
-4 4 -7 0.52 0.13
4 -4 8 0.23 0.1
4 -4 8 0.3 0.1
4 -4 9 0.12 0.08
4 -4 9 0.14 0.07
4 -4 10 1 0.17
4 -4 11 0.24 0.08
4 -4 12 0.03 0.02
4 -3 -12 0.08 0.05
4 -3 -11 3.96 0.33
4 -3 -10 0.33 0.11
4 -3 -10 0.43 0.12
4 -3 -9 0.77 0.18
4 -3 -8 0.39 0.14
4 -3 -7 0.43 0.15
4 -3 -7 0.13 0.06
4 -3 -6 4.13 0.39
4 -3 -6 4.61 0.43
4 -3 -5 0.98 0.18
4 -3 -4 5.7 0.41
4 -3 -3 2.27 0.24
-4 3 3 2.36 0.25
-4 3 2 12.89 0.56
4 -3 -2 12.28 0.51
4 -3 -1 7.88 0.37
-4 3 1 10.15 0.5
4 -3 0 35.15 0.76
-4 3 0 38.49 0.95
-4 3 -1 16.53 0.61
4 -3 2 11.75 0.5
-4 3 -2 13.5 0.55
4 -3 3 5.56 0.38
-4 3 -3 5.44 0.36
4 -3 4 3.55 0.32
-4 3 -4 3.56 0.3
4 -3 5 1.17 0.19
-4 3 -5 1.31 0.18
4 -3 6 23.83 0.86
4 -3 7 0.43 0.14
4 -3 7 0.48 0.12
4 -3 8 10.67 0.62
4 -3 8 12.59 0.63
4 -3 9 1.2 0.21
4 -3 10 1.71 0.23
-4 3 -11 0.18 0.07
4 -3 11 0.16 0.07
4 -3 12 0.58 0.1
4 -2 -13 0.01 0.02
4 -2 -12 0.95 0.16
4 -2 -11 2.2 0.28
4 -2 -10 0.06 0.06
4 -2 -9 0.1 0.08
4 -2 -8 0.19 0.12
4 -2 -8 0.22 0.1
4 -2 -7 0.39 0.16
4 -2 -7 0.36 0.11
4 -2 -6 8.1 0.49
4 -2 -5 0.07 0.05
4 -2 -4 2.37 0.23
4 -2 -3 87.75 1.36
-4 2 3 75.86 1.34
-4 2 2 3.73 0.29
4 -2 -2 4.11 0.26
-4 2 1 1.57 0.19
-4 2 0 7.01 0.39
4 -2 1 15.48 0.58
-4 2 -1 15.2 0.58
4 -2 2 3.38 0.3
-4 2 -2 3.42 0.28
-4 2 -3 1.92 0.2
4 -2 3 1.91 0.23
-4 2 -3 1.67 0.18
-4 2 -4 0.79 0.13
4 -2 4 0.74 0.15
-4 2 -4 0.8 0.13
4 -2 5 3.79 0.34
-4 2 -5 3.65 0.31
4 -2 6 25.24 0.9
-4 2 -6 26.29 0.85
-4 2 -7 0.33 0.12
4 -2 7 0.23 0.1
4 -2 8 10.7 0.62
-4 2 -8 12.07 0.68
4 -2 9 2.75 0.31
-4 2 -9 2.6 0.31
4 -2 10 3.38 0.33
-4 2 -10 4.23 0.37
-4 2 -11 3.23 0.3
4 -2 11 2.73 0.26
-4 2 -12 -0.04 0.03
4 -2 12 0.05 0.04
4 -1 -13 0.16 0.07
4 -1 -12 -0.01 0.05
4 -1 -11 1.42 0.29
4 -1 -10 1.85 0.34
4 -1 -9 23.77 1.25
4 -1 -9 18.25 0.82
4 -1 -8 24.11 1.24
4 -1 -8 18.84 0.8
4 -1 -7 2.01 0.25
4 -1 -6 0.37 0.1
4 -1 -5 93.8 1.4
4 -1 -4 0.44 0.09
-4 1 3 1.88 0.21
4 -1 -3 2.37 0.19
-4 1 2 0.27 0.08
-4 1 1 2.86 0.24
-4 1 0 6.38 0.37
-4 1 -1 88.31 1.39
-4 1 -2 30.9 0.83
-4 1 -3 1.36 0.18
-4 1 -4 4.06 0.32
-4 1 -5 13.12 0.61
4 -1 5 13.76 0.66
-4 1 -6 0.04 0.06
-4 1 -6 0.08 0.04
4 -1 6 -0.02 0.04
-4 1 -6 0.01 0.04
-4 1 -7 3.27 0.36
4 -1 7 2.62 0.29
-4 1 -7 2.96 0.32
4 -1 8 2.61 0.3
-4 1 -8 3 0.34
4 -1 9 0.26 0.09
-4 1 -9 0.29 0.11
4 -1 10 0.31 0.11
-4 1 -10 0.22 0.09
-4 1 -11 5.96 0.4
4 -1 11 5.6 0.35
-4 1 -12 2.03 0.19
4 0 -14 1.19 0.14
4 0 -13 0.48 0.14
4 0 -13 0.85 0.15
-4 0 13 0.83 0.13
4 0 -12 1.31 0.25
-4 0 12 1.23 0.18
4 0 -11 4.59 0.53
-4 0 11 4.2 0.37
4 0 -10 15.19 1.02
-4 0 10 13.95 0.69
4 0 -9 3.15 0.46
4 0 -9 2.5 0.29
-4 0 9 2.54 0.3
4 0 -8 1.96 0.35
4 0 -8 1.41 0.21
-4 0 8 1.33 0.21
4 0 -7 4.37 0.34
4 0 -6 0.18 0.07
4 0 -5 22.09 0.62
-4 0 4 11.08 0.48
-4 0 3 39.59 0.89
-4 0 2 10.8 0.46
-4 0 1 6.37 0.36
-4 0 0 164.78 1.91
-4 0 -1 98.24 1.53
-4 0 -2 136.03 1.82
-4 0 -3 0.57 0.13
-4 0 -4 8.76 0.51
-4 0 -5 0.57 0.14
-4 0 -6 0.07 0.09
-4 0 -6 0 0.07
4 0 6 0.1 0.07
-4 0 -7 0.06 0.07
-4 0 -7 0.1 0.07
4 0 7 0 0.03
-4 0 -8 0.3 0.12
4 0 9 0.71 0.14
-4 0 -9 0.94 0.19
4 0 10 1.45 0.19
-4 0 -10 1.34 0.21
-4 0 -11 1.03 0.16
4 1 -14 1.16 0.15
4 1 -14 0.52 0.13
4 1 -13 0.03 0.06
-4 -1 13 0.09 0.06
4 1 -12 1.88 0.33
-4 -1 12 2.01 0.25
4 1 -11 1.94 0.36
-4 -1 11 2.26 0.28
4 1 -10 11.68 0.9
-4 -1 10 10.96 0.64
4 1 -9 0.29 0.19
4 1 -9 0.21 0.09
-4 -1 9 0.15 0.09
4 1 -8 1.08 0.26
4 1 -8 0.94 0.17
-4 -1 8 1.28 0.25
-4 -1 8 0.82 0.16
4 1 -7 18.97 0.66
-4 -1 6 15.57 0.63
-4 -1 5 2.79 0.25
4 1 -5 3.54 0.29
-4 -1 4 0.59 0.11
4 1 -4 0.84 0.14
-4 -1 3 25.87 0.74
-4 -1 2 55.18 1.08
-4 -1 1 5.97 0.36
-4 -1 0 39.67 0.81
-4 -1 0 39.19 0.95
-4 -1 -1 63.64 1.25
-4 -1 -2 11.11 0.55
-4 -1 -3 0.41 0.12
-4 -1 -4 6.2 0.46
-4 -1 -5 9.38 0.57
-4 -1 -5 9.93 0.61
-4 -1 -6 4.49 0.42
4 1 6 4.5 0.39
-4 -1 -6 4.57 0.43
-4 -1 -7 2.66 0.33
4 1 8 0.03 0.04
-4 -1 -8 0.03 0.06
-4 -1 -9 0.1 0.06
-4 -1 -10 0.05 0.05
-4 -1 -11 0.3 0.07
4 2 -14 0.01 0.03
4 2 -13 -0.06 0.07
4 2 -12 1.47 0.29
-4 -2 12 1.93 0.25
4 2 -11 2.8 0.43
-4 -2 11 2.84 0.32
-4 -2 10 18.07 0.81
4 2 -10 18.75 1.16
-4 -2 10 17.93 0.83
4 2 -9 69.88 1.38
-4 -2 9 69.74 1.56
-4 -2 9 70.55 1.63
-4 -2 8 2.18 0.26
4 2 -8 2.02 0.25
-4 -2 8 2.29 0.28
4 2 -7 3.69 0.32
4 2 -6 1.7 0.21
4 2 -5 4.2 0.31
4 2 -4 13.53 0.53
4 2 -3 4.94 0.31
-4 -2 2 0.44 0.1
-4 -2 2 0.54 0.12
4 2 -2 0.72 0.12
-4 -2 1 3.96 0.29
-4 -2 0 17.71 0.6
-4 -2 0 16.58 0.66
-4 -2 -1 3.35 0.26
-4 -2 -1 3.56 0.31
-4 -2 -2 0.02 0.05
-4 -2 -3 0.87 0.17
-4 -2 -4 3.37 0.33
-4 -2 -4 3.4 0.31
-4 -2 -4 2.53 0.3
-4 -2 -5 0.57 0.15
-4 -2 -5 0.51 0.15
-4 -2 -6 0.6 0.15
-4 -2 -6 0.68 0.16
-4 -2 -7 0.1 0.07
-4 -2 -7 0.05 0.06
-4 -2 -8 0.77 0.14
-4 -2 -8 0.57 0.14
-4 -2 -9 0.02 0.03
-4 -2 -10 -0.04 0.03
4 3 -14 0.47 0.12
4 3 -13 0.42 0.14
4 3 -12 0.16 0.11
4 3 -11 -0.02 0.1
-4 -3 11 0.18 0.08
4 3 -10 3.1 0.44
-4 -3 10 3.47 0.32
4 3 -9 3.48 0.47
-4 -3 9 2.94 0.3
-4 -3 8 3.79 0.33
4 3 -8 4.08 0.35
-4 -3 7 3.3 0.3
4 3 -7 3.88 0.33
-4 -3 6 2.1 0.23
4 3 -6 2.5 0.25
4 3 -5 3.54 0.29
-4 -3 4 38.67 1.13
4 3 -4 33.97 0.86
-4 -3 3 3.8 0.34
4 3 -3 3.53 0.27
-4 -3 2 0.09 0.07
-4 -3 1 6.76 0.42
-4 -3 0 21.68 0.74
-4 -3 -1 0.45 0.1
-4 -3 -1 0.55 0.13
-4 -3 -2 0.55 0.13
-4 -3 -2 0.55 0.14
-4 -3 -2 0.61 0.14
-4 -3 -3 0.1 0.07
-4 -3 -3 0.05 0.05
-4 -3 -3 0.12 0.08
-4 -3 -4 1.83 0.25
-4 -3 -4 2.4 0.25
-4 -3 -4 2.58 0.29
-4 -3 -4 1.66 0.25
-4 -3 -5 0.02 0.05
-4 -3 -6 -0.01 0.05
-4 -3 -6 -0.1 0.07
-4 -3 -7 0.87 0.15
-4 -3 -7 0.49 0.12
-4 -3 -8 0.01 0.04
-4 -3 -8 0.06 0.05
4 4 -13 0.01 0.04
4 4 -12 0.35 0.16
4 4 -11 0.05 0.09
-4 -4 11 0.22 0.09
4 4 -10 1.7 0.3
-4 -4 10 2.32 0.25
4 4 -9 0.04 0.08
-4 -4 9 0.07 0.06
-4 -4 8 3.73 0.33
-4 -4 7 7.16 0.45
4 4 -7 7.44 0.46
-4 -4 6 29.45 1.09
-4 -4 6 26.04 0.85
4 4 -6 27.46 0.85
-4 -4 6 29.99 1.28
-4 -4 5 0.63 0.16
4 4 -5 0.65 0.13
-4 -4 5 0.47 0.18
-4 -4 4 0.77 0.16
4 4 -4 0.77 0.14
-4 -4 4 0.53 0.18
-4 -4 3 3.61 0.34
-4 -4 3 3.33 0.41
-4 -4 2 0.17 0.09
-4 -4 2 -0.05 0.1
-4 -4 1 0.33 0.1
-4 -4 1 0.26 0.12
-4 -4 0 0.87 0.16
-4 -4 0 0.82 0.17
-4 -4 -1 0.6 0.14
-4 -4 -1 0.71 0.15
-4 -4 -1 0.65 0.16
-4 -4 -2 2.37 0.27
-4 -4 -2 2.82 0.32
-4 -4 -3 0.05 0.05
-4 -4 -3 -0.01 0.04
-4 -4 -3 0.04 0.05
-4 -4 -4 0.09 0.07
-4 -4 -4 0.12 0.07
-4 -4 -5 2.35 0.27
-4 -4 -6 0.01 0.05
-4 -4 -7 0.45 0.1
4 5 -12 0.23 0.09
-4 -5 12 0.9 0.16
-4 -5 11 2.49 0.23
-4 -5 11 2.44 0.3
-4 -5 10 0.12 0.06
-4 -5 10 0.07 0.07
-4 -5 9 1.96 0.23
-4 -5 9 1.56 0.28
-4 -5 8 0.35 0.11
-4 -5 8 0.14 0.09
-4 -5 7 7.75 0.47
-4 -5 7 6.34 0.6
-4 -5 6 6.58 0.62
-4 -5 5 1.45 0.29
-4 -5 4 1.18 0.26
-4 -5 3 0.03 0.12
-4 -5 2 0.11 0.08
-4 -5 1 0.69 0.13
-4 -5 1 0.65 0.16
-4 -5 0 0.03 0.04
-4 -5 0 0.04 0.06
-4 -5 -1 0.13 0.07
-4 -5 -1 0.11 0.07
-4 -5 -2 3.57 0.28
-4 -5 -2 3.29 0.34
-4 -5 -3 0.01 0.05
-4 -5 -5 0.04 0.05
-4 -5 -6 1.13 0.14
-4 -6 10 0.35 0.08
-4 -6 9 0.4 0.09
-4 -6 8 1.3 0.16
-4 -6 5 0.04 0.07
-4 -6 4 11.3 0.49
-4 -6 4 11.16 0.61
-4 -6 3 0.04 0.05
-4 -6 3 0.04 0.06
-4 -6 2 0.53 0.11
-4 -6 2 0.59 0.15
-4 -6 1 0.26 0.07
-4 -6 1 0.13 0.07
-4 -6 0 0.35 0.09
-4 -6 0 0.35 0.11
-4 -6 -1 0.08 0.05
-4 -6 -1 0.11 0.08
-4 -6 -2 0.39 0.08
-4 -6 -3 -0.05 0.07
-4 -6 -4 0.14 0.06
-4 -7 6 0.46 0.1
-4 -7 5 0.1 0.04
-4 -7 5 0.21 0.07
-4 -7 4 5.47 0.29
-4 -7 4 4.87 0.32
-4 -7 3 0.59 0.1
-4 -7 3 0.6 0.12
-4 -7 2 0.14 0.05
-4 -7 2 0.08 0.06
-4 -7 1 0.23 0.06
-4 -7 1 0.25 0.07
-4 -7 0 0.04 0.03
5 -8 -2 0.3 0.07
5 -8 -1 0.04 0.03
5 -8 0 0.05 0.03
5 -8 1 2.31 0.18
5 -8 2 0.16 0.06
5 -8 2 0.23 0.06
5 -8 3 -0.05 0.03
5 -8 3 -0.03 0.02
5 -8 4 0.33 0.08
5 -8 4 0.39 0.09
5 -8 5 1.44 0.14
5 -8 5 1.42 0.15
5 -7 -5 1.08 0.13
5 -7 -4 1.15 0.15
5 -7 -3 0.75 0.13
5 -7 -2 0.29 0.09
5 -7 -1 0.05 0.05
5 -7 -1 0.13 0.08
5 -7 0 14.6 0.63
5 -7 0 14.55 0.58
5 -7 1 0.74 0.15
5 -7 1 0.79 0.13
5 -7 2 0.23 0.09
5 -7 2 0.31 0.08
5 -7 3 -0.04 0.03
5 -7 4 0.27 0.09
5 -7 5 3.04 0.27
5 -7 6 3.51 0.28
5 -7 7 0.04 0.04
5 -7 7 0.01 0.02
5 -7 8 -0.02 0.03
5 -7 8 -0.01 0.02
5 -6 -7 0.06 0.03
5 -6 -6 4.12 0.3
5 -6 -5 2.35 0.25
5 -6 -4 0.78 0.15
5 -6 -3 0.14 0.07
5 -6 -2 4.19 0.38
5 -6 -2 3.67 0.34
5 -6 -1 0.03 0.04
5 -6 -1 0.02 0.04
5 -6 0 0 0.04
5 -6 0 0.06 0.06
5 -6 1 6.15 0.46
5 -6 1 6.09 0.39
5 -6 2 1.97 0.26
5 -6 3 0.24 0.09
5 -6 4 0.18 0.08
5 -6 5 7.96 0.49
5 -6 6 4.48 0.36
5 -6 7 7.4 0.43
5 -6 8 0 0.03
5 -6 8 0 0.03
5 -5 -9 0.7 0.1
5 -5 -8 1.47 0.18
5 -5 -7 1.5 0.2
5 -5 -7 1.36 0.2
5 -5 -6 16.91 0.77
5 -5 -5 8.94 0.59
5 -5 -4 5.63 0.47
5 -5 -3 1.59 0.25
5 -5 -2 0.07 0.06
5 -5 -1 0.04 0.04
5 -5 -1 0.09 0.08
5 -5 0 -0.09 0.07
-5 5 0 -0.04 0.04
5 -5 1 0.07 0.08
-5 5 -1 0.05 0.05
5 -5 2 4.54 0.39
-5 5 -2 4.77 0.42
5 -5 3 6.9 0.48
5 -5 4 0.01 0.07
5 -5 5 0.33 0.11
5 -5 6 4.23 0.36
5 -5 7 0.06 0.05
5 -5 8 0.06 0.05
5 -5 9 0.11 0.05
5 -5 9 0.06 0.05
5 -5 10 0.18 0.05
5 -4 -10 0.14 0.06
5 -4 -9 1.09 0.17
5 -4 -9 0.92 0.16
5 -4 -8 0.08 0.05
5 -4 -8 -0.03 0.08
5 -4 -7 0.85 0.17
5 -4 -7 0.82 0.19
5 -4 -6 2.78 0.34
5 -4 -5 25 1.01
5 -4 -4 80.24 1.61
5 -4 -4 76.44 1.74
5 -4 -3 0 0.03
5 -4 -3 0.01 0.05
5 -4 -2 0 0.04
5 -4 -2 0.02 0.05
5 -4 -1 4.31 0.38
5 -4 0 0.08 0.05
5 -4 1 15.19 0.7
5 -4 2 -0.12 0.07
-5 4 -2 0.03 0.05
5 -4 3 3.8 0.35
-5 4 -3 3.62 0.35
5 -4 4 1.05 0.19
-5 4 -4 0.95 0.18
5 -4 5 0.1 0.08
-5 4 -5 0.02 0.05
5 -4 6 0.03 0.06
5 -4 7 2.14 0.26
5 -4 7 2.11 0.26
5 -4 8 0.5 0.12
5 -4 8 0.42 0.12
5 -4 9 0.03 0.04
5 -4 10 0.82 0.13
5 -4 11 -0.02 0.02
5 -3 -11 0.01 0.03
5 -3 -11 0.09 0.05
5 -3 -10 0.04 0.04
5 -3 -10 -0.07 0.05
5 -3 -9 3.47 0.34
5 -3 -9 3.13 0.34
5 -3 -8 0.93 0.19
5 -3 -8 0.82 0.19
5 -3 -7 0.02 0.04
5 -3 -7 -0.04 0.1
-5 3 6 1.66 0.24
5 -3 -6 1.68 0.25
5 -3 -6 1.4 0.23
-5 3 5 3.11 0.32
5 -3 -5 3.7 0.35
5 -3 -5 3.61 0.37
-5 3 4 19.41 0.79
5 -3 -4 20.58 0.77
5 -3 -4 18.7 0.81
5 -3 -3 9.51 0.56
-5 3 3 9.36 0.55
-5 3 2 0.65 0.15
-5 3 1 0.06 0.05
-5 3 0 1.46 0.22
-5 3 -1 3.24 0.32
-5 3 -2 0.88 0.16
-5 3 -3 1.75 0.23
5 -3 3 1.92 0.24
5 -3 3 1.97 0.24
-5 3 -3 1.81 0.23
-5 3 -4 1.78 0.23
5 -3 4 1.81 0.23
5 -3 4 1.79 0.24
-5 3 -5 5.75 0.41
5 -3 5 6.59 0.45
5 -3 5 6.66 0.47
5 -3 6 0.21 0.1
5 -3 7 4.09 0.37
5 -3 8 0.14 0.08
5 -3 9 -0.03 0.05
5 -3 10 0.07 0.05
5 -3 11 0.22 0.06
5 -2 -12 0.08 0.05
5 -2 -12 0.08 0.05
5 -2 -11 0.9 0.16
5 -2 -11 0.86 0.16
5 -2 -10 14.87 0.7
5 -2 -9 0.46 0.15
5 -2 -8 4.36 0.41
5 -2 -8 4.46 0.56
-5 2 7 4.25 0.4
5 -2 -7 4.7 0.59
5 -2 -7 4.9 0.43
-5 2 6 0.15 0.08
5 -2 -6 0.01 0.1
-5 2 5 5.17 0.41
5 -2 -5 6.42 0.65
-5 2 4 12.85 0.64
-5 2 3 3.13 0.31
-5 2 2 11.75 0.6
-5 2 1 35.25 1.04
-5 2 0 0.82 0.15
-5 2 -1 16.46 0.71
5 -2 2 0.6 0.14
-5 2 -2 0.65 0.14
5 -2 3 0.22 0.09
-5 2 -3 0.24 0.09
-5 2 -4 3.89 0.34
-5 2 -4 3.56 0.33
5 -2 4 3.85 0.35
-5 2 -5 0.73 0.16
5 -2 5 1.22 0.2
-5 2 -5 1 0.18
-5 2 -6 0.08 0.06
5 -2 6 -0.07 0.06
-5 2 -7 1.86 0.26
-5 2 -7 -0.03 0.07
-5 2 -8 -0.01 0.05
-5 2 -8 0.05 0.05
5 -2 8 0.14 0.08
5 -2 9 0.96 0.17
-5 2 -9 1.28 0.19
5 -2 10 0.83 0.14
-5 2 -10 0.89 0.15
5 -2 11 0.22 0.06
5 -1 -13 1.33 0.15
5 -1 -13 1.17 0.14
5 -1 -12 -0.03 0.04
5 -1 -11 0.04 0.07
5 -1 -11 0.1 0.07
5 -1 -10 1.39 0.3
5 -1 -9 2.01 0.37
5 -1 -8 1.74 0.34
5 -1 -8 1.46 0.22
-5 1 8 1.37 0.24
-5 1 7 1.19 0.22
5 -1 -7 1.39 0.31
-5 1 6 3.29 0.34
5 -1 -6 2.8 0.42
-5 1 5 1.82 0.25
-5 1 4 11.19 0.59
-5 1 3 0.23 0.09
-5 1 2 14.44 0.65
-5 1 1 22.92 0.82
-5 1 0 0.66 0.15
-5 1 -1 1.25 0.2
-5 1 -2 -0.01 0.05
-5 1 -3 0.31 0.11
-5 1 -4 0.59 0.14
-5 1 -4 0.72 0.16
5 -1 4 0.52 0.13
-5 1 -4 0.7 0.15
-5 1 -5 0.34 0.12
-5 1 -5 0.43 0.13
5 -1 5 0.39 0.12
-5 1 -5 0.42 0.13
-5 1 -6 -0.02 0.07
-5 1 -6 0.05 0.07
-5 1 -7 0.03 0.07
-5 1 -7 1.67 0.26
5 -1 8 -0.01 0.05
-5 1 -8 0.04 0.07
5 -1 9 2.55 0.26
-5 1 -9 3.02 0.31
5 -1 10 0.64 0.12
-5 1 -10 0.63 0.13
5 0 -13 0.14 0.05
5 0 -12 0.93 0.21
5 0 -11 0.06 0.08
5 0 -10 0.37 0.18
5 0 -9 0.53 0.2
-5 0 8 7.58 0.54
5 0 -8 11.37 0.85
-5 0 7 1.3 0.22
5 0 -7 1.91 0.36
-5 0 6 2.69 0.3
5 0 -6 3.25 0.48
-5 0 5 6.14 0.44
-5 0 4 0.76 0.15
-5 0 3 0.23 0.09
-5 0 2 9.78 0.52
-5 0 1 0.4 0.11
-5 0 0 0.86 0.17
-5 0 -1 0.06 0.07
-5 0 -2 2.74 0.3
-5 0 -3 3.86 0.35
-5 0 -3 4.22 0.38
-5 0 -3 4.3 0.36
-5 0 -4 0.09 0.06
-5 0 -4 0.16 0.09
-5 0 -4 0.02 0.04
-5 0 -5 -0.05 0.05
-5 0 -5 0.24 0.11
5 0 5 0.01 0.04
-5 0 -5 0.22 0.1
-5 0 -6 -0.02 0.06
-5 0 -6 0.69 0.16
-5 0 -7 0.67 0.17
5 0 8 0.16 0.07
-5 0 -8 0.07 0.07
5 0 9 0.06 0.04
-5 0 -9 0.06 0.05
5 0 10 0.36 0.08
-5 0 -10 0.38 0.09
5 1 -13 0.31 0.11
5 1 -12 1.52 0.28
5 1 -11 0.22 0.13
5 1 -10 9.5 0.76
5 1 -9 0.07 0.14
5 1 -8 17.12 1.02
5 1 -7 1.5 0.31
-5 -1 7 2.92 0.32
5 1 -6 0.67 0.2
-5 -1 6 0.47 0.13
-5 -1 5 0.12 0.06
-5 -1 4 0.92 0.17
-5 -1 3 0.02 0.05
-5 -1 2 2.89 0.29
-5 -1 1 1 0.18
-5 -1 0 0.01 0.05
-5 -1 -1 38.86 1.11
-5 -1 -2 4.92 0.38
-5 -1 -2 5.44 0.43
-5 -1 -2 5.57 0.41
-5 -1 -3 9.87 0.55
-5 -1 -3 11.17 0.63
-5 -1 -3 12.01 0.63
-5 -1 -4 0.02 0.06
-5 -1 -4 -0.03 0.05
-5 -1 -4 0.02 0.06
-5 -1 -4 0.01 0.06
-5 -1 -5 0.27 0.13
-5 -1 -6 1.02 0.2
-5 -1 -7 0.1 0.08
5 1 8 0.34 0.09
-5 -1 -8 0.25 0.1
-5 -1 -9 -0.03 0.04
5 2 -13 0.39 0.12
5 2 -12 2.05 0.3
5 2 -11 0.81 0.21
5 2 -10 0 0.06
5 2 -9 -0.02 0.07
5 2 -8 0.07 0.15
5 2 -7 0.55 0.18
5 2 -6 0.11 0.1
-5 -2 5 13.44 0.81
-5 -2 4 5.92 0.53
-5 -2 3 0.5 0.13
-5 -2 2 5.07 0.37
-5 -2 1 9.71 0.49
-5 -2 1 8.88 0.54
-5 -2 1 8.43 0.65
-5 -2 0 0.64 0.15
-5 -2 0 0.88 0.16
-5 -2 -1 2.46 0.29
-5 -2 -1 3 0.29
-5 -2 -2 2.3 0.29
-5 -2 -2 2.28 0.27
-5 -2 -2 2.87 0.29
-5 -2 -3 0.03 0.05
-5 -2 -3 0.07 0.05
-5 -2 -3 0.08 0.06
-5 -2 -4 0.04 0.06
-5 -2 -5 1.42 0.24
-5 -2 -6 2.52 0.3
-5 -2 -7 2.42 0.27
-5 -2 -8 0.86 0.14
5 3 -13 -0.09 0.06
-5 -3 13 0.02 0.04
5 3 -12 -0.01 0.05
5 3 -11 0 0.07
5 3 -10 2.81 0.39
5 3 -9 0.07 0.08
5 3 -8 1.53 0.3
-5 -3 6 4.65 0.44
-5 -3 6 3.45 0.44
-5 -3 5 2.34 0.31
-5 -3 5 1.72 0.3
-5 -3 4 2.72 0.31
-5 -3 4 2.27 0.35
-5 -3 3 1.45 0.21
-5 -3 3 1 0.24
-5 -3 2 0.1 0.06
-5 -3 2 -0.02 0.1
-5 -3 1 0.2 0.08
-5 -3 1 0.13 0.11
-5 -3 0 1.12 0.19
-5 -3 -1 0.37 0.12
-5 -3 -1 0.42 0.13
-5 -3 -2 0.13 0.08
-5 -3 -2 0.21 0.1
-5 -3 -3 0.79 0.17
-5 -3 -3 0.76 0.17
-5 -3 -4 0.17 0.1
-5 -3 -5 0.33 0.1
-5 -3 -5 0.27 0.1
-5 -3 -6 -0.02 0.04
-5 -3 -6 0.09 0.06
-5 -3 -7 0.04 0.04
5 4 -12 0.16 0.07
-5 -4 12 0.05 0.05
5 4 -11 0.27 0.1
-5 -4 11 0.38 0.13
-5 -4 10 0.13 0.09
-5 -4 9 -0.04 0.09
-5 -4 8 2.6 0.38
-5 -4 7 0.11 0.1
-5 -4 6 0.49 0.17
-5 -4 5 1.41 0.28
-5 -4 4 1.61 0.3
-5 -4 3 2.93 0.4
-5 -4 2 -0.12 0.1
-5 -4 1 0.07 0.05
-5 -4 0 0.34 0.1
-5 -4 0 0.42 0.13
-5 -4 -1 9.38 0.53
-5 -4 -1 9.87 0.56
-5 -4 -2 1.08 0.19
-5 -4 -2 1.33 0.21
-5 -4 -3 0 0.04
-5 -4 -3 -0.04 0.06
-5 -4 -4 0.01 0.04
-5 -4 -5 0.07 0.05
-5 -4 -5 0 0.02
-5 -5 11 0.06 0.05
-5 -5 10 0.16 0.09
-5 -5 9 0.21 0.13
-5 -5 8 0.02 0.08
-5 -5 7 0.63 0.19
-5 -5 6 0.35 0.16
-5 -5 5 0.82 0.22
-5 -5 4 0.43 0.16
-5 -5 3 0.01 0.06
-5 -5 2 0.09 0.09
-5 -5 1 0.05 0.04
-5 -5 1 0.05 0.06
-5 -5 0 -0.02 0.04
-5 -5 0 -0.03 0.06
-5 -5 -1 -0.01 0.03
-5 -5 -1 0.01 0.04
-5 -5 -4 -0.02 0.03
-5 -6 9 0.04 0.06
-5 -6 8 0.18 0.1
-5 -6 8 0.57 0.11
-5 -6 7 0.59 0.12
-5 -6 6 1.6 0.21
-5 -6 5 8.21 0.47
-5 -6 4 6.4 0.42
-5 -6 3 0.58 0.13
-5 -6 2 -0.05 0.07
-5 -6 1 0.09 0.05
-5 -6 0 0.01 0.03
6 -7 -3 0 0.03
6 -7 -2 0.13 0.05
6 -7 -2 0 0.02
6 -7 -1 0.09 0.05
6 -7 -1 0.22 0.06
6 -7 0 0.73 0.12
6 -7 0 0.79 0.11
6 -7 1 0.48 0.1
6 -7 2 0.31 0.09
6 -7 3 -0.01 0.04
6 -7 4 0.57 0.1
6 -7 5 0.04 0.03
6 -7 6 0.89 0.11
6 -6 -6 0.02 0.02
6 -6 -5 0.04 0.04
6 -6 -5 0.04 0.04
6 -6 -4 -0.06 0.05
6 -6 -4 0.03 0.04
6 -6 -3 -0.04 0.06
6 -6 -3 0.04 0.04
6 -6 -2 0.61 0.13
6 -6 -2 0.5 0.1
6 -6 -1 -0.06 0.06
6 -6 -1 0.01 0.03
6 -6 0 0.26 0.09
6 -6 1 2.9 0.29
6 -6 2 0.79 0.15
6 -6 3 0.38 0.11
6 -6 4 0.1 0.05
6 -6 5 0.23 0.08
6 -6 6 3.48 0.26
6 -6 7 1.76 0.17
6 -6 7 1.56 0.14
6 -5 -7 -0.01 0.03
6 -5 -6 0.11 0.07
6 -5 -5 9.22 0.56
6 -5 -4 0.03 0.07
6 -5 -3 1.37 0.23
6 -5 -2 0.25 0.1
6 -5 -1 0.12 0.09
6 -5 0 0.25 0.09
6 -5 1 0.89 0.17
6 -5 2 0.88 0.18
6 -5 3 1.01 0.18
6 -5 4 0.35 0.1
6 -5 5 0.35 0.1
-6 5 -6 0.4 0.17
6 -5 6 3.7 0.3
6 -5 7 1.34 0.17
6 -5 8 3.31 0.22
6 -4 -9 -0.02 0.03
6 -4 -8 0.82 0.16
6 -4 -7 0.04 0.07
6 -4 -6 -0.03 0.08
6 -4 -5 16.27 0.8
6 -4 -4 0.48 0.15
6 -4 -3 0.33 0.12
6 -4 -2 1.09 0.21
6 -4 -1 2.19 0.28
6 -4 0 0.76 0.17
6 -4 1 0.55 0.14
6 -4 2 0.63 0.15
6 -4 3 2.63 0.29
6 -4 4 5.23 0.4
6 -4 5 -0.05 0.05
-6 4 -6 0.07 0.09
6 -4 6 0.43 0.11
6 -4 7 1.15 0.16
6 -4 8 0.27 0.07
6 -4 9 0.01 0.02
6 -3 -10 0.05 0.04
6 -3 -9 0.03 0.06
6 -3 -8 0.02 0.05
6 -3 -7 -0.05 0.07
6 -3 -6 0.23 0.1
6 -3 -5 -0.02 0.06
6 -3 -4 8.67 0.58
-6 3 3 16.94 0.77
6 -3 -3 17.44 0.81
-6 3 3 18.06 0.82
6 -3 -2 4.41 0.4
-6 3 2 4.34 0.39
-6 3 2 4.87 0.43
-6 3 1 0.17 0.09
6 -3 -1 0.32 0.1
-6 3 0 1.08 0.19
6 -3 0 1.33 0.22
-6 3 -1 0.59 0.14
6 -3 1 0.6 0.15
-6 3 -2 7.24 0.5
6 -3 2 7.31 0.49
-6 3 -3 0.03 0.06
6 -3 3 0.1 0.07
-6 3 -4 1.73 0.24
-6 3 -5 0.17 0.09
6 -3 6 0.32 0.1
6 -3 7 0.31 0.09
6 -3 8 -0.01 0.03
6 -3 9 0.03 0.03
6 -2 -11 0.37 0.09
6 -2 -10 0.01 0.04
6 -2 -9 0.03 0.05
6 -2 -8 0.03 0.05
6 -2 -7 1.1 0.21
6 -2 -6 1.05 0.21
6 -2 -5 1.9 0.27
-6 2 5 1.71 0.26
-6 2 4 0.47 0.14
6 -2 -4 0.49 0.14
-6 2 3 27.55 1.01
6 -2 -3 29.29 1.05
-6 2 3 30.91 1.09
-6 2 2 4.64 0.42
6 -2 -2 4.77 0.42
-6 2 2 5 0.44
-6 2 1 1.39 0.23
6 -2 -1 1.59 0.23
-6 2 1 1.63 0.25
-6 2 0 0.41 0.14
-6 2 0 0.36 0.12
-6 2 -1 7.02 0.51
-6 2 -1 8.19 0.54
-6 2 -2 0.36 0.12
-6 2 -2 0.51 0.14
-6 2 -3 0.06 0.06
6 -2 3 -0.1 0.06
-6 2 -3 0.07 0.05
-6 2 -4 0.09 0.07
-6 2 -5 0.05 0.06
-6 2 -6 0.35 0.15
-6 2 -7 0.06 0.06
6 -2 7 0.83 0.16
6 -2 8 0.76 0.14
6 -2 9 0.09 0.05
6 -1 -12 0 0.02
6 -1 -11 0.08 0.04
6 -1 -11 0.05 0.05
6 -1 -10 0.23 0.09
6 -1 -8 1.08 0.26
6 -1 -7 0.1 0.12
6 -1 -6 0.99 0.2
6 -1 -5 6.34 0.48
-6 1 5 6.49 0.51
6 -1 -4 7.67 0.52
-6 1 4 7.92 0.56
-6 1 3 11.6 0.66
-6 1 2 4.22 0.39
-6 1 2 4.19 0.39
-6 1 1 4.51 0.4
-6 1 1 4.54 0.41
-6 1 0 5.97 0.47
-6 1 0 6.76 0.51
-6 1 -1 1.84 0.26
-6 1 -1 2.08 0.28
-6 1 -2 0.21 0.09
6 -1 2 0.29 0.11
-6 1 -2 0.35 0.12
-6 1 -3 0.34 0.12
6 -1 3 0.35 0.11
-6 1 -3 0.37 0.12
-6 1 -4 1.23 0.22
-6 1 -4 1.87 0.26
-6 1 -5 0.62 0.15
-6 1 -5 0.73 0.17
-6 1 -6 -0.05 0.07
-6 1 -6 0.2 0.09
-6 1 -7 1.02 0.18
6 -1 8 0.08 0.04
-6 1 -8 0.02 0.04
6 -1 9 0.06 0.04
-6 1 -9 0.08 0.04
6 0 -12 0.49 0.09
6 0 -11 0.26 0.11
6 0 -11 0.32 0.08
6 0 -10 1.44 0.32
6 0 -9 0.51 0.19
6 0 -8 -0.05 0.08
6 0 -7 0.15 0.13
-6 0 6 0.29 0.12
6 0 -6 0 0.07
6 0 -5 8.14 0.75
-6 0 5 6.48 0.5
-6 0 4 0.69 0.16
-6 0 3 2.59 0.31
-6 0 3 3.07 0.34
-6 0 2 2.04 0.26
-6 0 2 2.73 0.32
-6 0 1 8.14 0.52
-6 0 1 9.22 0.58
-6 0 0 30.88 1.02
-6 0 0 34.33 1.1
-6 0 -1 19.97 0.83
-6 0 -1 21.79 0.89
-6 0 -1 22.66 0.84
-6 0 -2 8.82 0.56
-6 0 -2 9.82 0.6
-6 0 -2 10.08 0.58
-6 0 -3 0.69 0.17
-6 0 -3 0.22 0.13
-6 0 -3 0.67 0.16
-6 0 -4 -0.02 0.05
-6 0 -4 0.01 0.05
-6 0 -5 -0.07 0.07
-6 0 -5 0.07 0.06
-6 0 -6 -0.15 0.08
-6 0 -7 0.02 0.05
6 0 8 0.23 0.07
-6 0 -8 0.2 0.07
6 1 -12 0.17 0.08
6 1 -12 0.38 0.08
6 1 -12 0.37 0.08
-6 -1 12 0.42 0.11
6 1 -11 0.64 0.17
-6 -1 11 0.67 0.15
6 1 -10 2.99 0.38
6 1 -9 5.13 0.52
6 1 -8 0.68 0.21
6 1 -7 10.33 0.77
-6 -1 7 7.55 0.63
6 1 -6 0.99 0.26
-6 -1 6 0.83 0.22
-6 -1 5 0.2 0.09
-6 -1 5 0.38 0.13
-6 -1 4 0.88 0.18
-6 -1 4 0.79 0.16
-6 -1 4 1.01 0.23
-6 -1 3 0.31 0.11
-6 -1 3 0.37 0.11
-6 -1 3 0.34 0.14
-6 -1 2 0.02 0.03
-6 -1 2 0.05 0.08
-6 -1 1 0.02 0.04
-6 -1 1 0.17 0.08
-6 -1 0 0.57 0.14
-6 -1 0 0.43 0.12
-6 -1 -1 3.67 0.34
-6 -1 -1 3.96 0.38
-6 -1 -1 4.32 0.38
-6 -1 -2 13 0.64
-6 -1 -2 16.5 0.75
-6 -1 -3 1.12 0.19
-6 -1 -3 1.51 0.24
-6 -1 -4 0.08 0.04
-6 -1 -4 0.11 0.08
-6 -1 -5 0.6 0.15
-6 -1 -6 1 0.19
6 1 7 0.39 0.09
-6 -1 -7 0.59 0.13
-6 -1 -8 0.01 0.03
6 2 -12 0.27 0.09
-6 -2 12 0.37 0.1
6 2 -11 2.26 0.29
-6 -2 11 2.14 0.28
6 2 -10 1.44 0.27
-6 -2 10 1.32 0.25
6 2 -9 3.26 0.47
-6 -2 9 8.65 0.67
6 2 -8 3.05 0.38
-6 -2 8 2.07 0.34
6 2 -7 1.58 0.31
-6 -2 7 4.59 0.5
-6 -2 6 1.25 0.2
-6 -2 6 0.83 0.21
-6 -2 5 0.76 0.22
-6 -2 4 0.93 0.23
-6 -2 3 0.98 0.23
-6 -2 3 1.2 0.21
-6 -2 2 0.03 0.09
-6 -2 0 0.05 0.06
-6 -2 -1 0.32 0.11
-6 -2 -2 1.81 0.25
-6 -2 -3 0.06 0.09
-6 -2 -4 -0.01 0.04
-6 -2 -5 -0.01 0.06
-6 -2 -6 -0.07 0.05
-6 -2 -7 -0.1 0.05
6 3 -11 0.8 0.16
-6 -3 11 1.68 0.24
6 3 -10 1.18 0.21
-6 -3 10 1.59 0.27
-6 -3 9 1.18 0.25
-6 -3 8 0.33 0.14
-6 -3 7 -0.02 0.07
-6 -3 6 0.08 0.1
-6 -3 5 -0.05 0.09
-6 -3 4 2.92 0.4
-6 -3 3 0.53 0.18
-6 -3 2 0.61 0.14
-6 -3 1 0.18 0.08
-6 -3 0 0.34 0.12
-6 -3 0 0.53 0.13
-6 -3 -1 0.01 0.06
-6 -3 -1 0.05 0.04
-6 -3 -2 0.92 0.17
-6 -3 -2 1 0.16
-6 -3 -3 -0.02 0.06
-6 -3 -4 -0.03 0.04
-6 -3 -5 -0.02 0.03
-6 -4 11 0.05 0.04
-6 -4 10 -0.03 0.05
-6 -4 9 0.27 0.12
-6 -4 8 0.05 0.07
-6 -4 7 0.35 0.14
-6 -4 6 0.29 0.14
-6 -4 5 0.21 0.13
-6 -4 4 0.23 0.14
-6 -4 3 0.07 0.06
-6 -4 2 0.09 0.05
-6 -4 1 0.1 0.06
-6 -4 1 0.07 0.05
-6 -4 0 0.01 0.04
-6 -4 0 0.01 0.04
-6 -4 -1 0.05 0.05
-6 -4 -1 0.07 0.05
-6 -4 -2 0.18 0.07
-6 -4 -3 0.03 0.03
-6 -5 9 0.81 0.15
-6 -5 8 0.04 0.04
-6 -5 7 0.17 0.1
-6 -5 6 -0.04 0.07
-6 -5 5 0.17 0.07
-6 -5 4 0.05 0.05
-6 -5 3 -0.01 0.03
-6 -5 3 0.05 0.06
-6 -5 2 0.19 0.07
-6 -5 2 0.24 0.08
-6 -5 1 0 0.03
-6 -5 1 0.04 0.04
-6 -5 0 0.07 0.04
-6 -5 0 -0.03 0.04
7 -6 -3 0.02 0.03
7 -6 -3 0.07 0.04
7 -6 -2 0.19 0.07
7 -6 -1 0.08 0.05
7 -6 0 0.05 0.06
7 -6 1 1.77 0.19
7 -6 2 0.82 0.13
7 -6 3 0.09 0.05
7 -6 4 -0.07 0.04
7 -5 -6 0.11 0.05
7 -5 -5 1.31 0.18
7 -5 -4 6.46 0.4
7 -5 -3 1.39 0.19
7 -5 -3 1.33 0.15
7 -5 -2 -0.02 0.07
7 -5 -1 -0.25 0.09
7 -5 0 -0.01 0.05
7 -5 1 0.03 0.05
7 -5 2 0.66 0.13
7 -5 3 1.02 0.16
7 -5 4 0.04 0.04
7 -5 5 0.05 0.03
7 -4 -8 0.64 0.11
7 -4 -7 0.19 0.07
7 -4 -6 0.04 0.04
7 -4 -5 2.41 0.27
7 -4 -4 15.39 0.7
7 -4 -3 2.72 0.3
7 -4 -2 2.39 0.28
7 -4 -1 0.82 0.16
7 -4 0 0.01 0.04
7 -4 1 0.82 0.16
7 -4 2 0.03 0.04
7 -4 3 1.61 0.2
7 -3 -9 0.59 0.11
-7 3 8 0.18 0.07
7 -3 -8 0.26 0.08
-7 3 7 0.02 0.04
7 -3 -7 0.11 0.07
-7 3 6 2.4 0.26
7 -3 -6 2.52 0.28
-7 3 5 0.26 0.09
7 -3 -5 0.4 0.13
-7 3 4 1.02 0.18
7 -3 -4 1.54 0.24
-7 3 3 1.61 0.23
7 -3 -3 1.97 0.26
-7 3 2 0.32 0.11
7 -3 -2 0.51 0.14
-7 3 1 -0.02 0.04
7 -3 -1 0 0.05
-7 3 0 0.23 0.09
7 -3 0 0.35 0.11
-7 3 -1 0.63 0.15
7 -3 1 0.69 0.14
-7 3 -2 0.12 0.08
-7 3 -3 0.01 0.03
-7 3 -4 0.19 0.08
7 -3 5 2.31 0.22
7 -3 6 0.05 0.03
7 -3 7 0.05 0.03
7 -2 -10 1.36 0.15
-7 2 9 0.27 0.08
7 -2 -9 0.27 0.09
-7 2 8 0.71 0.14
7 -2 -8 0.76 0.15
-7 2 7 0.13 0.07
7 -2 -7 -0.01 0.06
-7 2 6 -0.05 0.05
7 -2 -6 -0.04 0.05
-7 2 5 0.17 0.08
7 -2 -5 0.03 0.05
-7 2 4 1.53 0.23
7 -2 -4 1.66 0.25
-7 2 3 0.03 0.05
7 -2 -3 0.04 0.05
-7 2 2 3.43 0.35
-7 2 1 2.47 0.3
-7 2 0 1.12 0.2
-7 2 -1 1.21 0.22
-7 2 -2 0.02 0.07
-7 2 -3 0.09 0.07
-7 2 -4 0.3 0.1
7 -2 6 0.05 0.03
-7 2 -6 -0.02 0.04
7 -2 7 0 0.02
7 -1 -10 0.07 0.03
7 -1 -9 0.2 0.07
7 -1 -8 1.21 0.18
7 -1 -7 -0.02 0.04
-7 1 6 0.04 0.07
7 -1 -6 0.1 0.07
-7 1 5 -0.07 0.08
7 -1 -5 -0.02 0.04
-7 1 4 0.9 0.19
-7 1 3 1.38 0.22
-7 1 2 7.66 0.54
-7 1 1 4.24 0.4
-7 1 0 2.35 0.3
-7 1 -1 0.2 0.11
-7 1 -2 0.58 0.15
-7 1 -3 0.03 0.05
-7 1 -3 0.12 0.1
-7 1 -4 0.07 0.06
-7 1 -5 0.01 0.04
7 -1 6 0.01 0.03
7 -1 7 1.06 0.13
7 0 -10 0.11 0.04
7 0 -9 0.22 0.07
-7 0 7 0.24 0.11
-7 0 6 0.09 0.07
-7 0 5 0.35 0.12
-7 0 4 -0.02 0.05
-7 0 3 -0.12 0.08
-7 0 2 2.52 0.3
-7 0 1 0.81 0.17
-7 0 0 0.34 0.12
-7 0 0 0.34 0.1
-7 0 -1 1.93 0.26
-7 0 -1 2.46 0.27
-7 0 -2 0.14 0.08
-7 0 -2 0.05 0.06
-7 0 -3 0.06 0.05
-7 0 -3 0.09 0.07
-7 0 -3 0.11 0.07
-7 0 -4 0.11 0.06
-7 0 -5 0.03 0.04
-7 0 -6 -0.04 0.04
-7 -1 10 0.8 0.13
-7 -1 9 0.07 0.04
-7 -1 8 3.17 0.31
-7 -1 7 0.04 0.05
-7 -1 7 0.04 0.05
-7 -1 6 0.31 0.11
-7 -1 6 0.35 0.13
-7 -1 5 0.04 0.05
-7 -1 5 0.08 0.07
-7 -1 4 0.07 0.04
-7 -1 4 0.06 0.08
-7 -1 3 0.2 0.08
-7 -1 2 0.06 0.06
-7 -1 1 1.06 0.18
-7 -1 1 1.24 0.19
-7 -1 0 0.97 0.17
-7 -1 0 1.15 0.19
-7 -1 -1 9.52 0.5
-7 -1 -1 12.26 0.61
-7 -1 -2 4.01 0.31
-7 -1 -2 5.48 0.41
-7 -1 -3 0.45 0.12
-7 -1 -4 0.06 0.05
-7 -1 -5 0.04 0.04
-7 -2 10 0.01 0.07
-7 -2 9 0.08 0.07
-7 -2 8 -0.06 0.07
-7 -2 7 -0.01 0.07
-7 -2 6 0.52 0.17
-7 -2 5 1 0.23
-7 -2 4 0.01 0.07
-7 -2 1 -0.02 0.06
-7 -2 0 0.37 0.12
-7 -2 -1 0.49 0.13
-7 -2 -2 0.48 0.12
-7 -2 -3 3.41 0.29
-7 -2 -4 0.25 0.08
-7 -3 9 0.08 0.07
-7 -3 8 0.15 0.09
-7 -3 7 0.06 0.05
-7 -3 6 0.89 0.19
-7 -3 5 0.18 0.11
-7 -3 4 1.05 0.16
-7 -3 3 0.42 0.1
-7 -3 2 0.11 0.05
-7 -3 2 0.18 0.06
-7 -3 1 0.04 0.04
-7 -3 0 -0.01 0.04
-7 -3 -1 0.5 0.11
-7 -3 -2 0.18 0.07
-7 -3 -3 0.68 0.11
-7 -4 7 0.01 0.03
-7 -4 6 0.13 0.05
-7 -4 5 0 0.03
-7 -4 4 0.05 0.04
-7 -4 4 -0.01 0.04
-7 -4 3 1.86 0.19
-7 -4 3 2.1 0.19
-7 -4 2 0.27 0.07
-7 -4 2 0.33 0.08
-7 -4 1 -0.02 0.04
-7 -4 1 -0.04 0.03
-7 -4 0 0.03 0.03
8 -5 -2 0.07 0.04
8 -5 -1 0.03 0.02
8 -5 0 -0.02 0.02
-8 5 -2 0.14 0.08
8 -4 -5 0.06 0.03
8 -4 -4 0.59 0.1
8 -4 -3 1.84 0.19
8 -4 -2 0 0.03
8 -4 -1 0.12 0.05
8 -4 0 0.24 0.07
-8 4 -2 -0.12 0.09
-8 3 6 -0.04 0.03
8 -3 -6 0.03 0.03
-8 3 5 1.38 0.16
8 -3 -5 1.76 0.19
-8 3 4 1.42 0.17
8 -3 -4 1.71 0.19
-8 3 3 1.16 0.16
8 -3 -3 1.32 0.17
-8 3 2 0.22 0.08
8 -3 -2 0.23 0.07
-8 3 1 0.66 0.12
-8 3 0 0.55 0.11
-8 3 -1 0.62 0.12
-8 3 -1 0.04 0.09
-8 3 -2 0.65 0.11
-8 2 7 0.04 0.03
8 -2 -7 0.05 0.03
-8 2 6 0.04 0.04
8 -2 -6 -0.03 0.03
-8 2 5 0.7 0.13
-8 2 4 0.65 0.13
-8 2 3 0.12 0.06
-8 2 2 0.07 0.05
-8 2 1 0.11 0.06
-8 2 1 -0.15 0.12
-8 2 0 0.03 0.03
-8 2 -1 0.3 0.09
-8 2 -2 0.61 0.12
-8 2 -2 0 0.05
-8 2 -3 0.24 0.07
8 -2 4 0.02 0.02
-8 2 -4 -0.05 0.05
-8 1 8 0.05 0.03
-8 1 7 -0.04 0.04
-8 1 6 0.12 0.06
-8 1 5 1.4 0.2
-8 1 4 0.43 0.11
-8 1 3 0.6 0.14
-8 1 2 0.02 0.06
-8 1 1 0.2 0.09
-8 1 0 0.16 0.07
-8 1 -1 0.04 0.03
-8 1 -2 0 0.03
-8 1 -2 0 0.04
-8 0 8 0.11 0.05
-8 0 7 0.07 0.05
-8 0 6 0.2 0.08
-8 0 5 -0.02 0.04
-8 0 4 0.62 0.13
-8 0 3 1.33 0.19
-8 0 2 0.61 0.13
-8 0 1 1.1 0.17
-8 0 0 1.83 0.21
-8 0 -1 2.58 0.23
-8 0 -2 1.02 0.14
-8 -1 7 0 0.02
-8 -1 6 -0.05 0.04
-8 -1 5 0 0.03
-8 -1 4 0.03 0.03
-8 -1 3 0.03 0.04
-8 -1 3 0.06 0.04
-8 -1 2 -0.03 0.04
-8 -1 2 -0.04 0.03
-8 -1 1 -0.02 0.03
-8 -1 1 0.04 0.04
-8 -1 0 0.17 0.06
-8 -1 0 0.29 0.08
-8 -1 -1 0.15 0.05
-8 -1 -1 0.12 0.05
-8 -1 -2 2.94 0.22
-8 -2 6 -0.04 0.03
-8 -2 5 0.19 0.06
-8 -2 4 0.04 0.04
-8 -2 3 0.11 0.05
-8 -2 2 0.02 0.03
-8 -2 1 0.02 0.03
-8 -2 0 0.1 0.05
