#------------------------------------------------------------------------------
#$Date: 2022-03-11 01:02:18 +0200 (Fri, 11 Mar 2022) $
#$Revision: 273620 $
#$URL: file:///home/coder/svn-repositories/cod/cif/7/12/98/7129812.cif $
#------------------------------------------------------------------------------
#
# This file is available in the Crystallography Open Database (COD),
# http://www.crystallography.net/
#
# All data on this site have been placed in the public domain by the
# contributors.
#
data_7129812
loop_
_publ_author_name
'Shlian, Daniel G.'
'Amemiya, Erika'
'Parkin, Gerard'
_publ_section_title
;
 Synthesis of bis(2-pyridylthio)methyl zinc hydride and catalytic
 hydrosilylation and hydroboration of CO2
;
_journal_name_full               'Chemical Communications'
_journal_paper_doi               10.1039/D1CC06963B
_journal_year                    2022
_chemical_formula_sum            'C12 H9 N3 O S2 Zn'
_chemical_formula_weight         340.71
_space_group_crystal_system      monoclinic
_space_group_IT_number           11
_space_group_name_Hall           '-P 2yb'
_space_group_name_H-M_alt        'P 1 21/m 1'
_atom_sites_solution_hydrogens   mixed
_audit_creation_method           SHELXL-2014/7
_audit_update_record
;
2021-12-07 deposited with the CCDC.	2022-02-04 downloaded from the CCDC.
;
_cell_angle_alpha                90
_cell_angle_beta                 101.799(2)
_cell_angle_gamma                90
_cell_formula_units_Z            2
_cell_length_a                   7.4884(12)
_cell_length_b                   11.9978(19)
_cell_length_c                   7.5106(12)
_cell_measurement_reflns_used    5227
_cell_measurement_temperature    179(2)
_cell_measurement_theta_max      30.42
_cell_measurement_theta_min      2.77
_cell_volume                     660.53(18)
_computing_cell_refinement       'Bruker SAINT'
_computing_data_collection       'Bruker APEX2'
_computing_data_reduction        'Bruker SAINT'
_computing_molecular_graphics    'Bruker SHELXTL'
_computing_publication_material  'Bruker SHELXTL'
_computing_structure_refinement  'SHELXL-2014/7 (Sheldrick, 2014)'
_computing_structure_solution    'SHELXS-97 (Sheldrick 2008)'
_diffrn_ambient_temperature      179(2)
_diffrn_measured_fraction_theta_full 1.000
_diffrn_measured_fraction_theta_max 0.998
_diffrn_measurement_device_type  'Bruker APEX-II CCD'
_diffrn_measurement_method       '\f and \w scans'
_diffrn_radiation_type           MoK\a
_diffrn_radiation_wavelength     0.71073
_diffrn_reflns_av_R_equivalents  0.0610
_diffrn_reflns_av_unetI/netI     0.0476
_diffrn_reflns_Laue_measured_fraction_full 1.000
_diffrn_reflns_Laue_measured_fraction_max 0.998
_diffrn_reflns_limit_h_max       10
_diffrn_reflns_limit_h_min       -10
_diffrn_reflns_limit_k_max       17
_diffrn_reflns_limit_k_min       -17
_diffrn_reflns_limit_l_max       10
_diffrn_reflns_limit_l_min       -10
_diffrn_reflns_number            10775
_diffrn_reflns_point_group_measured_fraction_full 1.000
_diffrn_reflns_point_group_measured_fraction_max 0.998
_diffrn_reflns_theta_full        25.000
_diffrn_reflns_theta_max         30.629
_diffrn_reflns_theta_min         2.771
_exptl_absorpt_coefficient_mu    2.168
_exptl_absorpt_correction_T_max  0.7461
_exptl_absorpt_correction_T_min  0.6015
_exptl_absorpt_correction_type   empirical
_exptl_absorpt_process_details   sadabs
_exptl_crystal_colour            colorless
_exptl_crystal_density_diffrn    1.713
_exptl_crystal_description       plate
_exptl_crystal_F_000             344
_exptl_crystal_size_max          0.170
_exptl_crystal_size_mid          0.130
_exptl_crystal_size_min          0.030
_refine_diff_density_max         0.608
_refine_diff_density_min         -0.353
_refine_diff_density_rms         0.083
_refine_ls_extinction_method     none
_refine_ls_goodness_of_fit_ref   1.038
_refine_ls_hydrogen_treatment    mixed
_refine_ls_matrix_type           full
_refine_ls_number_parameters     97
_refine_ls_number_reflns         2116
_refine_ls_number_restraints     0
_refine_ls_restrained_S_all      1.038
_refine_ls_R_factor_all          0.0424
_refine_ls_R_factor_gt           0.0317
_refine_ls_shift/su_max          0.001
_refine_ls_shift/su_mean         0.000
_refine_ls_structure_factor_coef Fsqd
_refine_ls_weighting_details
'w=1/[\s^2^(Fo^2^)+(0.0336P)^2^+0.1174P] where P=(Fo^2^+2Fc^2^)/3'
_refine_ls_weighting_scheme      calc
_refine_ls_wR_factor_gt          0.0758
_refine_ls_wR_factor_ref         0.0824
_reflns_Friedel_coverage         0.000
_reflns_number_gt                1733
_reflns_number_total             2116
_reflns_threshold_expression     'I > 2\s(I)'
_cod_data_source_file            d1cc06963b2.cif
_cod_data_source_block           bzncos10
_cod_original_sg_symbol_H-M      'P 21/m'
_cod_database_code               7129812
_shelx_shelxl_version_number     2014/7
_shelx_space_group_comment
; 
The symmetry employed for this shelxl refinement is uniquely defined 
by the following loop, which should always be used as a source of 
symmetry information in preference to the above space-group names. 
They are only intended as comments. 
;
_shelx_estimated_absorpt_t_min   0.709
_shelx_estimated_absorpt_t_max   0.938
_shelx_res_file
; 
  
    bzncos10.res created by SHELXL-2014/7 
  
  
TITL BptmZnNCO in P2(1)/m 
CELL 0.71073   7.48840  11.99780   7.51060  90.0000 101.7988  90.0000 
ZERR    2.00   0.00120   0.00190   0.00120   0.0000   0.0022   0.0000 
LATT  1 
SYMM -X, 0.5+Y, -Z 
SFAC C H N O S ZN 
UNIT 24 18 6 2 4 2 
TEMP -93.570 
SIZE 0.17 0.13 0.03 
ACTA 50 
WPDB -1 
CONF 
REM dgs15_299, dgs.2.257 
REM benzene evap 
  
L.S. 20 
BOND 
FMAP 2 
PLAN 20 
  
REM EXTI    0.000000 
WGHT    0.033600    0.117400 
FVAR       0.24756 
ZN    6    0.527883    0.750000    0.389136    10.50000    0.02100    0.02303 = 
         0.02523    0.00000    0.00846    0.00000 
S     5    0.308654    0.625091    0.634945    11.00000    0.03320    0.02778 = 
         0.02174    0.00211    0.00928   -0.00362 
O     4    0.999159    0.750000    0.155503    10.50000    0.02862    0.05651 = 
         0.05677    0.00000    0.02123    0.00000 
N1    3    0.371902    0.613711    0.295421    11.00000    0.01984    0.02135 = 
         0.02298    0.00002    0.00371    0.00225 
N2    3    0.744279    0.750000    0.293491    10.50000    0.03188    0.04013 = 
         0.04834    0.00000    0.02089    0.00000 
C1    1    0.440232    0.750000    0.627555    10.50000    0.02355    0.02450 = 
         0.01949    0.00000    0.00225    0.00000 
H1    2    0.542648    0.750000    0.742459    10.50000    0.02787 
C2    1    0.869931    0.750000    0.226711    10.50000    0.02600    0.02042 = 
         0.02989    0.00000    0.00403    0.00000 
C11   1    0.287928    0.566216    0.416634    11.00000    0.01922    0.02078 = 
         0.02504    0.00155    0.00337    0.00364 
C12   1    0.181083    0.470435    0.374838    11.00000    0.02401    0.02275 = 
         0.03525    0.00259    0.00651   -0.00047 
AFIX  43 
H12A  2    0.125786    0.435998    0.463866    11.00000   -1.20000 
AFIX   0 
C13   1    0.157716    0.426978    0.201098    11.00000    0.02546    0.02475 = 
         0.04016   -0.00442    0.00161    0.00010 
AFIX  43 
H13A  2    0.084126    0.362688    0.168962    11.00000   -1.20000 
AFIX   0 
C14   1    0.242127    0.477542    0.073463    11.00000    0.03068    0.03309 = 
         0.02878   -0.00801    0.00079    0.00540 
AFIX  43 
H14B  2    0.226430    0.449383   -0.046959    11.00000   -1.20000 
AFIX   0 
C15   1    0.349123    0.569672    0.127158    11.00000    0.02634    0.02874 = 
         0.02529   -0.00029    0.00579    0.00431 
AFIX  43 
H15A  2    0.409646    0.603762    0.041801    11.00000   -1.20000 
  
AFIX   0 
HKLF 4 
  
REM  BptmZnNCO in P2(1)/m 
REM R1 =  0.0317 for    1733 Fo > 4sig(Fo)  and  0.0424 for all    2116 data 
REM     97 parameters refined using      0 restraints 
  
END 
  
WGHT      0.0336      0.1172 
  
REM Highest difference peak  0.608,  deepest hole -0.353,  1-sigma level  0.083 
Q1    1   0.5349  0.7500  0.5074  10.50000  0.05    0.61 
Q2    1   0.4120  0.7500  0.4858  10.50000  0.05    0.51 
Q3    1   0.3084  0.5971  0.5166  11.00000  0.05    0.47 
Q4    1   0.6316  0.7500  0.2857  10.50000  0.05    0.44 
Q5    1   0.3424  0.6126  0.2167  11.00000  0.05    0.40 
Q6    1   0.2144  0.4520  0.1400  11.00000  0.05    0.39 
Q7    1   0.9900  0.7500  0.2766  10.50000  0.05    0.35 
Q8    1   0.4766  0.7500  0.7128  10.50000  0.05    0.34 
Q9    1   0.6611  0.7500  0.5762  10.50000  0.05    0.32 
Q10   1   0.1461  0.4545  0.2767  11.00000  0.05    0.30 
Q11   1   0.5059  0.7649  0.2735  11.00000  0.05    0.30 
Q12   1   0.1439  0.2500  0.2513  10.50000  0.05    0.29 
Q13   1   0.2228  0.6012  0.4855  11.00000  0.05    0.29 
Q14   1   0.1768  0.7500  0.5269  10.50000  0.05    0.29 
Q15   1   0.9054  0.7500  0.1084  10.50000  0.05    0.27 
Q16   1   0.9807  0.8068  0.2011  11.00000  0.05    0.27 
Q17   1   0.2230  0.4642  0.0261  11.00000  0.05    0.26 
Q18   1   0.6654  0.7500  0.1611  10.50000  0.05    0.26 
Q19   1   0.1712  0.4415 -0.1934  11.00000  0.05    0.26 
Q20   1   0.4488  0.6166  0.3250  11.00000  0.05    0.26 
;
_shelx_res_checksum              26066
loop_
_space_group_symop_operation_xyz
'x, y, z'
'-x, y+1/2, -z'
'-x, -y, -z'
'x, -y-1/2, z'
loop_
_atom_site_label
_atom_site_type_symbol
_atom_site_fract_x
_atom_site_fract_y
_atom_site_fract_z
_atom_site_U_iso_or_equiv
_atom_site_adp_type
_atom_site_occupancy
_atom_site_site_symmetry_order
_atom_site_calc_flag
_atom_site_refinement_flags_posn
_atom_site_refinement_flags_adp
_atom_site_refinement_flags_occupancy
_atom_site_disorder_assembly
_atom_site_disorder_group
Zn Zn 0.52788(4) 0.7500 0.38914(4) 0.02256(11) Uani 1 2 d S T P . .
S S 0.30865(7) 0.62509(4) 0.63494(6) 0.02705(13) Uani 1 1 d . . . . .
O O 0.9992(3) 0.7500 0.1555(4) 0.0455(6) Uani 1 2 d S T P . .
N1 N 0.3719(2) 0.61371(13) 0.2954(2) 0.0215(3) Uani 1 1 d . . . . .
N2 N 0.7443(4) 0.7500 0.2935(4) 0.0383(6) Uani 1 2 d S T P . .
C1 C 0.4402(4) 0.7500 0.6276(3) 0.0228(5) Uani 1 2 d S T P . .
H1 H 0.543(4) 0.7500 0.742(4) 0.028(8) Uiso 1 2 d S . P . .
C2 C 0.8699(4) 0.7500 0.2267(4) 0.0257(5) Uani 1 2 d S T P . .
C11 C 0.2879(3) 0.56622(15) 0.4166(2) 0.0218(4) Uani 1 1 d . . . . .
C12 C 0.1811(3) 0.47043(17) 0.3748(3) 0.0273(4) Uani 1 1 d . . . . .
H12A H 0.1258 0.4360 0.4639 0.033 Uiso 1 1 calc R U . . .
C13 C 0.1577(3) 0.42698(17) 0.2011(3) 0.0308(4) Uani 1 1 d . . . . .
H13A H 0.0841 0.3627 0.1690 0.037 Uiso 1 1 calc R U . . .
C14 C 0.2421(3) 0.47754(18) 0.0735(3) 0.0316(5) Uani 1 1 d . . . . .
H14B H 0.2264 0.4494 -0.0470 0.038 Uiso 1 1 calc R U . . .
C15 C 0.3491(3) 0.56967(17) 0.1272(3) 0.0267(4) Uani 1 1 d . . . . .
H15A H 0.4096 0.6038 0.0418 0.032 Uiso 1 1 calc R U . . .
loop_
_atom_site_aniso_label
_atom_site_aniso_U_11
_atom_site_aniso_U_22
_atom_site_aniso_U_33
_atom_site_aniso_U_23
_atom_site_aniso_U_13
_atom_site_aniso_U_12
Zn 0.02100(17) 0.02303(18) 0.02523(17) 0.000 0.00846(12) 0.000
S 0.0332(3) 0.0278(3) 0.0217(2) 0.00211(17) 0.00928(19) -0.00362(19)
O 0.0286(12) 0.0565(16) 0.0568(15) 0.000 0.0212(11) 0.000
N1 0.0198(7) 0.0213(8) 0.0230(7) 0.0000(6) 0.0037(6) 0.0022(6)
N2 0.0319(14) 0.0401(16) 0.0483(16) 0.000 0.0209(12) 0.000
C1 0.0236(13) 0.0245(13) 0.0195(11) 0.000 0.0023(10) 0.000
C2 0.0260(14) 0.0204(13) 0.0299(13) 0.000 0.0040(11) 0.000
C11 0.0192(9) 0.0208(9) 0.0250(8) 0.0015(7) 0.0034(7) 0.0036(7)
C12 0.0240(10) 0.0227(9) 0.0352(10) 0.0026(8) 0.0065(8) -0.0005(7)
C13 0.0255(10) 0.0247(10) 0.0402(11) -0.0044(8) 0.0016(8) 0.0001(8)
C14 0.0307(11) 0.0331(11) 0.0288(10) -0.0080(8) 0.0008(8) 0.0054(9)
C15 0.0263(10) 0.0287(10) 0.0253(9) -0.0003(8) 0.0058(8) 0.0043(8)
loop_
_atom_type_symbol
_atom_type_description
_atom_type_scat_dispersion_real
_atom_type_scat_dispersion_imag
_atom_type_scat_source
C C 0.0033 0.0016 'International Tables Vol C Tables 4.2.6.8 and 6.1.1.4'
H H 0.0000 0.0000 'International Tables Vol C Tables 4.2.6.8 and 6.1.1.4'
N N 0.0061 0.0033 'International Tables Vol C Tables 4.2.6.8 and 6.1.1.4'
O O 0.0106 0.0060 'International Tables Vol C Tables 4.2.6.8 and 6.1.1.4'
S S 0.1246 0.1234 'International Tables Vol C Tables 4.2.6.8 and 6.1.1.4'
Zn Zn 0.2839 1.4301 'International Tables Vol C Tables 4.2.6.8 and 6.1.1.4'
loop_
_geom_angle_atom_site_label_1
_geom_angle_atom_site_label_2
_geom_angle_atom_site_label_3
_geom_angle
_geom_angle_site_symmetry_1
_geom_angle_site_symmetry_3
_geom_angle_publ_flag
N2 Zn C1 141.95(12) . . ?
N2 Zn N1 109.89(7) . . ?
C1 Zn N1 92.21(6) . . ?
N2 Zn N1 109.89(7) . 4_575 ?
C1 Zn N1 92.21(6) . 4_575 ?
N1 Zn N1 105.91(9) . 4_575 ?
C11 S C1 104.45(10) . . ?
C11 N1 C15 119.01(17) . . ?
C11 N1 Zn 114.91(12) . . ?
C15 N1 Zn 126.08(13) . . ?
C2 N2 Zn 176.5(3) . . ?
S C1 S 112.67(15) 4_575 . ?
S C1 Zn 107.76(9) 4_575 . ?
S C1 Zn 107.76(9) . . ?
N2 C2 O 179.3(3) . . ?
N1 C11 C12 121.67(17) . . ?
N1 C11 S 119.93(14) . . ?
C12 C11 S 118.39(15) . . ?
C13 C12 C11 118.54(19) . . ?
C12 C13 C14 119.9(2) . . ?
C15 C14 C13 117.89(19) . . ?
N1 C15 C14 122.95(19) . . ?
loop_
_geom_bond_atom_site_label_1
_geom_bond_atom_site_label_2
_geom_bond_distance
_geom_bond_site_symmetry_2
_geom_bond_publ_flag
Zn N2 1.902(3) . ?
Zn C1 2.029(3) . ?
Zn N1 2.0487(16) . ?
Zn N1 2.0488(16) 4_575 ?
S C11 1.7628(19) . ?
S C1 1.8006(16) . ?
O C2 1.198(3) . ?
N1 C11 1.335(2) . ?
N1 C15 1.348(2) . ?
N2 C2 1.153(4) . ?
C1 S 1.8006(16) 4_575 ?
C11 C12 1.399(3) . ?
C12 C13 1.383(3) . ?
C13 C14 1.391(3) . ?
C14 C15 1.376(3) . ?
loop_
_geom_torsion_atom_site_label_1
_geom_torsion_atom_site_label_2
_geom_torsion_atom_site_label_3
_geom_torsion_atom_site_label_4
_geom_torsion
_geom_torsion_site_symmetry_1
_geom_torsion_site_symmetry_2
_geom_torsion_site_symmetry_3
_geom_torsion_site_symmetry_4
_geom_torsion_publ_flag
C11 S C1 S 111.08(13) . . . 4_575 ?
C11 S C1 Zn -7.66(13) . . . . ?
C15 N1 C11 C12 1.7(3) . . . . ?
Zn N1 C11 C12 -178.01(14) . . . . ?
C15 N1 C11 S -177.69(14) . . . . ?
Zn N1 C11 S 2.60(19) . . . . ?
C1 S C11 N1 3.51(18) . . . . ?
C1 S C11 C12 -175.90(16) . . . . ?
N1 C11 C12 C13 -2.3(3) . . . . ?
S C11 C12 C13 177.08(15) . . . . ?
C11 C12 C13 C14 1.0(3) . . . . ?
C12 C13 C14 C15 0.8(3) . . . . ?
C11 N1 C15 C14 0.2(3) . . . . ?
Zn N1 C15 C14 179.90(15) . . . . ?
C13 C14 C15 N1 -1.4(3) . . . . ?
