#------------------------------------------------------------------------------
#$Date: 2016-03-26 15:36:15 +0200 (Sat, 26 Mar 2016) $
#$Revision: 180307 $
#$URL: svn://www.crystallography.net/cod/cif/7/15/21/7152116.cif $
#------------------------------------------------------------------------------
#
# This file is available in the Crystallography Open Database (COD),
# http://www.crystallography.net/
#
# All data on this site have been placed in the public domain by the
# contributors.
#
data_7152116
loop_
_publ_author_name
'Karban, Jind\<rich'
'C\'isa\<rov\'a, Ivana'
'Stra\<s\'ak, Tom\'a\<s'
'\<S\<tastn\'a, Lucie \<Cervenkov\'a'
'S\'ykora, Jan'
_publ_section_title
;
 Skeletal rearrangements resulting from reactions of 1,6:2,3- and
 1,6:3,4-dianhydro-\b-D-hexopyranoses with diethylaminosulphur
 trifluoride.
;
_journal_issue                   2
_journal_name_full               'Organic &amp; biomolecular chemistry'
_journal_page_first              394
_journal_page_last               403
_journal_paper_doi               10.1039/c1ob06336g
_journal_volume                  10
_journal_year                    2012
_chemical_absolute_configuration unk
_chemical_formula_moiety         'C6 H8 O4'
_chemical_formula_sum            'C6 H8 O4'
_chemical_formula_weight         144.13
_space_group_IT_number           4
_symmetry_cell_setting           monoclinic
_symmetry_space_group_name_Hall  'P 2yb'
_symmetry_space_group_name_H-M   'P 1 21 1'
_atom_sites_solution_hydrogens   geom
_atom_sites_solution_primary     direct
_audit_creation_date             11-06-27
_audit_creation_method           CRYSTALS_ver_12.82
_cell_angle_alpha                90
_cell_angle_beta                 90.128(2)
_cell_angle_gamma                90
_cell_formula_units_Z            4
_cell_length_a                   5.0789(2)
_cell_length_b                   11.0036(5)
_cell_length_c                   10.9164(5)
_cell_measurement_reflns_used    8256
_cell_measurement_temperature    150
_cell_measurement_theta_max      27
_cell_measurement_theta_min      2
_cell_volume                     610.07(5)
_computing_cell_refinement       'DENZO/SCALEPACK (Otwinowski & Minor, 1997)'
_computing_data_collection       'COLLECT. Nonius (1997-2001).'
_computing_data_reduction        'DENZO/SCALEPACK (Otwinowski & Minor, 1997)'
_computing_molecular_graphics    'CAMERON (Watkin et al., 1996)'
_computing_publication_material  'CRYSTALS (Betteridge et al., 2003)'
_computing_structure_refinement  'CRYSTALS (Betteridge et al., 2003)'
_computing_structure_solution    'SHELXS 86 (Sheldrick, 1986)'
_diffrn_ambient_temperature      150
_diffrn_measured_fraction_theta_full 0.995
_diffrn_measured_fraction_theta_max 0.995
_diffrn_measurement_device_type  'Nonius Kappa CCD'
_diffrn_measurement_method       '\f & \w scans'
_diffrn_radiation_monochromator  graphite
_diffrn_radiation_type           'Mo K\a'
_diffrn_radiation_wavelength     0.71073
_diffrn_reflns_av_R_equivalents  0.014
_diffrn_reflns_limit_h_max       6
_diffrn_reflns_limit_h_min       -6
_diffrn_reflns_limit_k_max       14
_diffrn_reflns_limit_k_min       -14
_diffrn_reflns_limit_l_max       14
_diffrn_reflns_limit_l_min       -14
_diffrn_reflns_number            8294
_diffrn_reflns_theta_full        27.557
_diffrn_reflns_theta_max         27.557
_diffrn_reflns_theta_min         1.866
_diffrn_standards_number         0
_exptl_absorpt_coefficient_mu    0.134
_exptl_absorpt_correction_T_max  0.96
_exptl_absorpt_correction_T_min  0.94
_exptl_absorpt_correction_type   multi-scan
_exptl_absorpt_process_details   'SADABS (Siemens, 1996)'
_exptl_crystal_colour            colourless
_exptl_crystal_density_diffrn    1.569
_exptl_crystal_description       plate
_exptl_crystal_F_000             304
_exptl_crystal_size_max          0.44
_exptl_crystal_size_mid          0.41
_exptl_crystal_size_min          0.27
_refine_diff_density_max         0.18
_refine_diff_density_min         -0.13
_refine_ls_extinction_method     None
_refine_ls_goodness_of_fit_ref   1.1423
_refine_ls_hydrogen_treatment    mixed
_refine_ls_matrix_type           full
_refine_ls_number_parameters     245
_refine_ls_number_reflns         1346
_refine_ls_number_restraints     1
_refine_ls_R_factor_all          0.0235
_refine_ls_R_factor_gt           0.0214
_refine_ls_shift/su_max          0.000293
_refine_ls_structure_factor_coef F
_refine_ls_weighting_details
;
Method, part 1, Chebychev polynomial, (Watkin, 1994, Prince, 1982)
[weight] = 1.0/[A~0~*T~0~(x)+A~1~*T~1~(x) ... +A~n-1~]*T~n-1~(x)]
where A~i~ are the Chebychev coefficients listed below and x= Fcalc/Fmax
Method = Robust Weighting (Prince, 1982)
W = [weight] * [1-(deltaF/6*sigmaF)^2^]^2^
A~i~ are:
0.158 0.123 0.493E-01
;
_refine_ls_weighting_scheme      calc
_refine_ls_wR_factor_all         0.0283
_refine_ls_wR_factor_gt          0.0252
_refine_ls_wR_factor_ref         0.0252
_reflns_limit_h_max              6
_reflns_limit_h_min              -6
_reflns_limit_k_max              14
_reflns_limit_k_min              0
_reflns_limit_l_max              14
_reflns_limit_l_min              0
_reflns_number_gt                1346
_reflns_number_total             1484
_reflns_threshold_expression     I>1.96u(I)
_oxford_diffrn_Wilson_B_factor   0.00
_oxford_diffrn_Wilson_scale      0.00
_oxford_refine_ls_scale          0.4493(8)
_oxford_structure_analysis_title 'e338_f2_sykora_0ma in P2(1)'
_cod_data_source_file            c1ob06336g.txt
_cod_data_source_block           CRYSTALS_cif3
_cod_depositor_comments
;
The following automatic conversions were performed:

'_symmetry_cell_setting' value 'Monoclinic' changed to 'monoclinic'
according to /home/saulius/struct/CIF-dictionaries/cif_core.dic
dictionary named 'cif_core.dic' version 2.4.1 from 2010-06-29.

Automatic conversion script
Id: cif_fix_values 1715 2011-07-08 13:25:40Z adriana 
;
_cod_original_sg_symbol_H-M      'P 1 21 1 '
_cod_database_code               7152116
loop_
_symmetry_equiv_pos_as_xyz
x,y,z
-x,y+1/2,-z
loop_
_atom_site_label
_atom_site_type_symbol
_atom_site_fract_x
_atom_site_fract_y
_atom_site_fract_z
_atom_site_U_iso_or_equiv
_atom_site_occupancy
_atom_site_adp_type
O1 O 0.0217(2) 0.97620(12) -0.01307(10) 0.0190 1.0000 Uani
O2 O 0.4101(2) 1.01605(12) 0.08164(10) 0.0240 1.0000 Uani
O3 O 0.3234(2) 0.84328(13) -0.20083(9) 0.0218 1.0000 Uani
O4 O 0.3525(3) 0.75253(14) 0.12451(11) 0.0298 1.0000 Uani
O11 O 0.4974(2) 0.45112(12) 0.50492(10) 0.0190 1.0000 Uani
O12 O 0.1146(2) 0.50440(14) 0.59663(10) 0.0257 1.0000 Uani
O13 O 0.1767(2) 0.33807(12) 0.31023(10) 0.0186 1.0000 Uani
O14 O 0.1217(3) 0.66783(12) 0.37798(12) 0.0275 1.0000 Uani
C1 C 0.2961(3) 0.98256(15) -0.03263(14) 0.0181 1.0000 Uani
C2 C 0.3995(3) 0.85906(15) -0.07582(13) 0.0169 1.0000 Uani
C3 C 0.2792(3) 0.75641(15) -0.00341(15) 0.0226 1.0000 Uani
C4 C 0.0851(3) 0.78599(16) 0.09199(15) 0.0231 1.0000 Uani
C5 C 0.0117(3) 0.91851(16) 0.10669(13) 0.0188 1.0000 Uani
C6 C 0.2173(3) 0.99130(18) 0.17569(14) 0.0229 1.0000 Uani
C11 C 0.2268(3) 0.42290(16) 0.51031(13) 0.0182 1.0000 Uani
C12 C 0.0994(3) 0.43989(16) 0.38432(13) 0.0170 1.0000 Uani
C13 C 0.1935(3) 0.55459(16) 0.32213(15) 0.0208 1.0000 Uani
C14 C 0.3947(3) 0.62876(15) 0.38365(15) 0.0222 1.0000 Uani
C15 C 0.4917(3) 0.58299(16) 0.50707(16) 0.0207 1.0000 Uani
C16 C 0.2933(3) 0.60523(17) 0.60916(15) 0.0230 1.0000 Uani
H11 H 0.333(4) 1.046(2) -0.0917(19) 0.020(5) 1.0000 Uiso
H21 H 0.585(4) 0.861(2) -0.0702(18) 0.019(5) 1.0000 Uiso
H31 H 0.279(4) 0.679(2) -0.041(2) 0.025(5) 1.0000 Uiso
H41 H -0.041(5) 0.726(2) 0.115(2) 0.034(6) 1.0000 Uiso
H51 H -0.169(4) 0.927(2) 0.138(2) 0.027(5) 1.0000 Uiso
H61 H 0.153(4) 1.067(2) 0.205(2) 0.024(5) 1.0000 Uiso
H62 H 0.307(4) 0.944(2) 0.242(2) 0.027(5) 1.0000 Uiso
H111 H 0.204(4) 0.338(2) 0.536(2) 0.026(5) 1.0000 Uiso
H121 H -0.085(4) 0.441(2) 0.3937(19) 0.023(5) 1.0000 Uiso
H131 H 0.193(4) 0.552(2) 0.235(2) 0.024(5) 1.0000 Uiso
H141 H 0.513(4) 0.676(2) 0.336(2) 0.028(5) 1.0000 Uiso
H151 H 0.666(4) 0.612(2) 0.528(2) 0.026(5) 1.0000 Uiso
H161 H 0.372(4) 0.601(2) 0.690(2) 0.022(5) 1.0000 Uiso
H162 H 0.199(4) 0.683(2) 0.599(2) 0.024(5) 1.0000 Uiso
H1 H 0.461(5) 0.841(2) -0.243(2) 0.029(5) 1.0000 Uiso
H2 H 0.054(5) 0.325(2) 0.265(2) 0.037(6) 1.0000 Uiso
loop_
_atom_site_aniso_label
_atom_site_aniso_U_11
_atom_site_aniso_U_22
_atom_site_aniso_U_33
_atom_site_aniso_U_23
_atom_site_aniso_U_13
_atom_site_aniso_U_12
O1 0.0171(5) 0.0211(5) 0.0187(5) 0.0030(4) 0.0006(4) 0.0052(4)
O2 0.0205(5) 0.0307(6) 0.0209(5) -0.0090(5) 0.0052(4) -0.0096(5)
O3 0.0166(5) 0.0360(6) 0.0129(5) -0.0044(5) 0.0003(4) 0.0009(5)
O4 0.0341(6) 0.0333(7) 0.0220(6) 0.0104(5) -0.0020(5) 0.0111(5)
O11 0.0156(4) 0.0197(5) 0.0216(5) -0.0003(4) -0.0014(4) 0.0029(4)
O12 0.0220(5) 0.0375(7) 0.0178(5) -0.0087(5) 0.0056(4) -0.0015(5)
O13 0.0171(5) 0.0206(5) 0.0182(5) -0.0054(4) 0.0009(4) -0.0011(4)
O14 0.0330(7) 0.0212(6) 0.0281(6) -0.0029(5) -0.0087(5) 0.0092(5)
C1 0.0195(6) 0.0177(7) 0.0171(6) 0.0010(6) 0.0022(5) -0.0027(5)
C2 0.0134(6) 0.0236(8) 0.0137(6) -0.0024(5) -0.0005(5) 0.0023(5)
C3 0.0296(8) 0.0167(7) 0.0213(7) 0.0016(6) -0.0019(6) 0.0048(6)
C4 0.0246(7) 0.0220(8) 0.0226(8) 0.0051(6) 0.0012(6) -0.0054(6)
C5 0.0153(6) 0.0250(8) 0.0162(7) 0.0004(6) 0.0028(5) -0.0004(5)
C6 0.0210(7) 0.0288(8) 0.0191(6) -0.0069(6) 0.0051(6) -0.0033(6)
C11 0.0191(6) 0.0209(7) 0.0145(6) -0.0002(5) 0.0033(5) -0.0013(6)
C12 0.0132(6) 0.0210(7) 0.0169(6) -0.0040(6) 0.0013(5) 0.0009(5)
C13 0.0244(7) 0.0207(7) 0.0171(7) -0.0002(6) -0.0017(6) 0.0042(6)
C14 0.0254(7) 0.0184(7) 0.0227(8) 0.0019(6) 0.0012(6) -0.0009(6)
C15 0.0175(6) 0.0208(7) 0.0239(7) -0.0027(6) -0.0027(5) 0.0008(6)
C16 0.0235(7) 0.0267(8) 0.0186(7) -0.0067(6) -0.0037(6) 0.0046(6)
loop_
_atom_type_symbol
_atom_type_scat_dispersion_real
_atom_type_scat_dispersion_imag
_atom_type_scat_Cromer_Mann_a1
_atom_type_scat_Cromer_Mann_b1
_atom_type_scat_Cromer_Mann_a2
_atom_type_scat_Cromer_Mann_b2
_atom_type_scat_Cromer_Mann_a3
_atom_type_scat_Cromer_Mann_b3
_atom_type_scat_Cromer_Mann_a4
_atom_type_scat_Cromer_Mann_b4
_atom_type_scat_Cromer_Mann_c
_atom_type_scat_source
C 0.0033 0.0016 2.3100 20.8439 1.0200 10.2075 1.5886 0.5687 0.8650 51.6512
0.2156 'International Tables Vol C 4.2.6.8 and 6.1.1.4'
H 0.0000 0.0000 0.4930 10.5109 0.3229 26.1257 0.1402 3.1424 0.0408 57.7998
0.0030 'International Tables Vol C 4.2.6.8 and 6.1.1.4'
O 0.0106 0.0060 3.0485 13.2771 2.2868 5.7011 1.5463 0.3239 0.8670 32.9089
0.2508 'International Tables Vol C 4.2.6.8 and 6.1.1.4'
loop_
_geom_angle_atom_site_label_1
_geom_angle_atom_site_label_2
_geom_angle_atom_site_label_3
_geom_angle
_geom_angle_publ_flag
C1 O1 C5 101.19(11) yes
C1 O2 C6 107.38(11) yes
C2 O3 H1 107.4(16) no
C3 O4 C4 61.12(10) yes
C11 O11 C15 101.52(11) yes
C11 O12 C16 107.21(12) yes
C12 O13 H2 105.5(19) no
C13 O14 C14 61.15(10) yes
O2 C1 O1 106.27(12) yes
O2 C1 C2 111.14(12) yes
O1 C1 C2 109.98(12) yes
O2 C1 H11 108.5(12) no
O1 C1 H11 109.2(12) no
C2 C1 H11 111.6(13) no
C1 C2 O3 108.05(12) yes
C1 C2 C3 111.32(12) yes
O3 C2 C3 107.51(13) yes
C1 C2 H21 107.6(13) no
O3 C2 H21 109.4(12) no
C3 C2 H21 112.9(13) no
C2 C3 O4 115.14(14) yes
C2 C3 C4 118.54(14) yes
O4 C3 C4 59.63(11) yes
C2 C3 H31 116.7(13) no
O4 C3 H31 112.9(13) no
C4 C3 H31 120.3(13) no
C3 C4 O4 59.25(10) yes
C3 C4 C5 116.96(13) yes
O4 C4 C5 116.69(14) yes
C3 C4 H41 119.1(15) no
O4 C4 H41 113.0(15) no
C5 C4 H41 118.1(15) no
C4 C5 O1 108.43(12) yes
C4 C5 C6 113.10(14) yes
O1 C5 C6 100.99(12) yes
C4 C5 H51 111.3(14) no
O1 C5 H51 107.4(13) no
C6 C5 H51 114.8(13) no
C5 C6 O2 102.33(12) yes
C5 C6 H61 113.2(13) no
O2 C6 H61 108.0(14) no
C5 C6 H62 113.6(13) no
O2 C6 H62 107.6(12) no
H61 C6 H62 111.4(19) no
O12 C11 O11 106.31(12) yes
O12 C11 C12 110.47(13) yes
O11 C11 C12 110.22(12) yes
O12 C11 H111 111.3(13) no
O11 C11 H111 109.7(12) no
C12 C11 H111 108.9(13) no
C11 C12 O13 107.17(12) yes
C11 C12 C13 111.86(12) yes
O13 C12 C13 108.13(11) yes
C11 C12 H121 108.8(13) no
O13 C12 H121 109.9(14) no
C13 C12 H121 111.0(14) no
C12 C13 O14 116.97(13) yes
C12 C13 C14 118.62(14) yes
O14 C13 C14 60.04(10) yes
C12 C13 H131 114.9(14) no
O14 C13 H131 116.8(14) no
C14 C13 H131 118.5(13) no
C13 C14 O14 58.81(10) yes
C13 C14 C15 116.42(14) yes
O14 C14 C15 116.32(13) yes
C13 C14 H141 119.8(14) no
O14 C14 H141 114.9(14) no
C15 C14 H141 117.3(14) no
C14 C15 O11 108.88(13) yes
C14 C15 C16 112.44(13) yes
O11 C15 C16 100.71(13) yes
C14 C15 H151 113.3(13) no
O11 C15 H151 108.2(14) no
C16 C15 H151 112.3(13) no
C15 C16 O12 102.97(13) yes
C15 C16 H161 112.7(12) no
O12 C16 H161 107.9(13) no
C15 C16 H162 112.0(13) no
O12 C16 H162 110.6(13) no
H161 C16 H162 110.3(18) no
loop_
_geom_bond_atom_site_label_1
_geom_bond_atom_site_label_2
_geom_bond_distance
_geom_bond_publ_flag
O1 C1 1.4119(17) yes
O1 C5 1.4543(17) yes
O2 C1 1.4226(18) yes
O2 C6 1.4463(18) yes
O3 C2 1.4280(16) yes
O3 H1 0.84(2) no
O4 C3 1.445(2) yes
O4 C4 1.451(2) yes
O11 C11 1.4108(18) yes
O11 C15 1.4515(19) yes
O12 C11 1.4208(19) yes
O12 C16 1.440(2) yes
O13 C12 1.4370(18) yes
O13 H2 0.81(3) no
O14 C13 1.4347(19) yes
O14 C14 1.453(2) yes
C1 C2 1.532(2) yes
C1 H11 0.97(2) no
C2 C3 1.509(2) yes
C2 H21 0.95(2) no
C3 C4 1.472(2) yes
C3 H31 0.95(2) no
C4 C5 1.514(2) yes
C4 H41 0.95(3) no
C5 C6 1.515(2) yes
C5 H51 0.98(2) no
C6 H61 0.95(2) no
C6 H62 1.00(2) no
C11 C12 1.530(2) yes
C11 H111 0.99(3) no
C12 C13 1.511(2) yes
C12 H121 0.94(2) no
C13 C14 1.469(2) yes
C13 H131 0.95(2) no
C14 C15 1.519(2) yes
C14 H141 0.95(2) no
C15 C16 1.524(2) yes
C15 H151 0.97(2) no
C16 H161 0.97(2) no
C16 H162 0.99(2) no
