#------------------------------------------------------------------------------
#$Date: 2016-03-26 15:38:22 +0200 (Sat, 26 Mar 2016) $
#$Revision: 180309 $
#$URL: svn://www.crystallography.net/cod/cif/7/15/23/7152394.cif $
#------------------------------------------------------------------------------
#
# This file is available in the Crystallography Open Database (COD),
# http://www.crystallography.net/
#
# All data on this site have been placed in the public domain by the
# contributors.
#
data_7152394
loop_
_publ_author_name
'Chevallier, Floris'
'Blin, Thomas'
'Nagaradja, Elisabeth'
'Lassagne, Fr\'ed\'eric'
'Roisnel, Thierry'
'Halauko, Yury S.'
'Matulis, Vadim E.'
'Ivashkevich, Oleg A.'
'Mongin, Florence'
_publ_section_title
;
 Deproto-metallation and computed CH acidity of 2-aryl-1,2,3-triazoles.
;
_journal_issue                   25
_journal_name_full               'Organic &amp; biomolecular chemistry'
_journal_page_first              4878
_journal_page_last               4885
_journal_paper_doi               10.1039/c2ob25554e
_journal_volume                  10
_journal_year                    2012
_chemical_absolute_configuration ad
_chemical_compound_source        'synthesis as described'
_chemical_formula_moiety         'C8 H6 I N3'
_chemical_formula_sum            'C8 H6 I N3'
_chemical_formula_weight         271.06
_chemical_name_systematic
;
?
;
_space_group_IT_number           33
_symmetry_cell_setting           orthorhombic
_symmetry_Int_Tables_number      33
_symmetry_space_group_name_Hall  'P -2n -2ac'
_symmetry_space_group_name_H-M   'P c 21 n'
_atom_sites_solution_hydrogens   geom
_atom_sites_solution_primary     direct
_atom_sites_solution_secondary   difmap
_audit_conform_dict_location     ftp://ftp.iucr.org/pub/cif_core.dic
_audit_conform_dict_name         cif_core.dic
_audit_conform_dict_version      2.3
_audit_creation_date             2011-09-21T08:45:39-00:00
_audit_creation_method           'WinGX routine CIF_UPDATE'
_cell_angle_alpha                90
_cell_angle_beta                 90
_cell_angle_gamma                90
_cell_formula_units_Z            4
_cell_length_a                   4.3176(3)
_cell_length_b                   13.3505(10)
_cell_length_c                   15.2661(12)
_cell_measurement_reflns_used    5825
_cell_measurement_temperature    150(2)
_cell_measurement_theta_max      27.46
_cell_measurement_theta_min      2.67
_cell_measurement_wavelength     0.71073
_cell_volume                     879.97(11)
_computing_cell_refinement       'Bruker APEX2 (Bruker, 2006)'
_computing_data_collection       'Bruker APEX2 (Bruker, 2006)'
_computing_data_reduction        'Bruker APEX2 (Bruker, 2006)'
_computing_molecular_graphics    'Ortep-3 for Windows (Farrugia, 1997)'
_computing_publication_material
;
WinGX publication routines (Farrugia, 1999),
CRYSCAL (T. Roisnel, local program)
;
_computing_structure_refinement  'SHELXL-97 (Sheldrick, 1997)'
_computing_structure_solution    'SIR97 (Altomare et al., 1999)'
_diffrn_ambient_temperature      150(2)
_diffrn_detector                 'CCD plate'
_diffrn_measured_fraction_theta_full 0.997
_diffrn_measured_fraction_theta_max 0.997
_diffrn_measurement_device_type  'APEXII, Bruker-AXS'
_diffrn_measurement_method       'CCD rotation images, thin slices'
_diffrn_radiation_monochromator  graphite
_diffrn_radiation_probe          x-ray
_diffrn_radiation_type           MoK\a
_diffrn_radiation_wavelength     0.71073
_diffrn_reflns_av_R_equivalents  0.0345
_diffrn_reflns_av_unetI/netI     0.0235
_diffrn_reflns_limit_h_max       5
_diffrn_reflns_limit_h_min       -5
_diffrn_reflns_limit_k_max       16
_diffrn_reflns_limit_k_min       -17
_diffrn_reflns_limit_l_max       19
_diffrn_reflns_limit_l_min       -19
_diffrn_reflns_number            12103
_diffrn_reflns_theta_full        27.47
_diffrn_reflns_theta_max         27.47
_diffrn_reflns_theta_min         4.06
_exptl_absorpt_coefficient_mu    3.584
_exptl_absorpt_correction_T_max  0.898
_exptl_absorpt_correction_T_min  0.773
_exptl_absorpt_correction_type   multi-scan
_exptl_absorpt_process_details
;
[Sheldrick, G.M. (2002). SADABS Bruker AXS Inc., Madison, Wisconsin, USA]
;
_exptl_crystal_colour            colourless
_exptl_crystal_density_diffrn    2.046
_exptl_crystal_density_method    'not measured'
_exptl_crystal_description       stick
_exptl_crystal_F_000             512
_exptl_crystal_size_max          0.33
_exptl_crystal_size_mid          0.04
_exptl_crystal_size_min          0.03
_refine_diff_density_max         0.539
_refine_diff_density_min         -0.768
_refine_diff_density_rms         0.072
_refine_ls_abs_structure_details 'Flack H D (1983), Acta Cryst. A39, 876-881'
_refine_ls_abs_structure_Flack   0.00(3)
_refine_ls_extinction_method     none
_refine_ls_goodness_of_fit_ref   1.064
_refine_ls_hydrogen_treatment    constr
_refine_ls_matrix_type           full
_refine_ls_number_parameters     109
_refine_ls_number_reflns         1992
_refine_ls_number_restraints     1
_refine_ls_restrained_S_all      1.064
_refine_ls_R_factor_all          0.0228
_refine_ls_R_factor_gt           0.0183
_refine_ls_shift/su_max          0
_refine_ls_shift/su_mean         0
_refine_ls_structure_factor_coef Fsqd
_refine_ls_weighting_details
'calc w=1/[\s^2^(Fo^2^)+(0.0157P)^2^+0.3755P] where P=(Fo^2^+2Fc^2^)/3'
_refine_ls_weighting_scheme      calc
_refine_ls_wR_factor_gt          0.0398
_refine_ls_wR_factor_ref         0.0419
_reflns_number_gt                1792
_reflns_number_total             1992
_reflns_threshold_expression     >2sigma(I)
_cod_data_source_file            c2ob25554e.txt
_cod_data_source_block           job_F_150K_2a
_cod_database_code               7152394
loop_
_symmetry_equiv_pos_as_xyz
'x, y, z'
'-x, y+1/2, -z'
'-x+1/2, y, z+1/2'
'x+1/2, y+1/2, -z+1/2'
loop_
_atom_site_label
_atom_site_type_symbol
_atom_site_fract_x
_atom_site_fract_y
_atom_site_fract_z
_atom_site_U_iso_or_equiv
_atom_site_adp_type
_atom_site_occupancy
_atom_site_symmetry_multiplicity
_atom_site_calc_flag
_atom_site_refinement_flags
C1 C 0.1490(7) 0.5171(2) 0.46062(19) 0.0200(6) Uani 1 1 d .
C2 C 0.0869(8) 0.4175(3) 0.4832(2) 0.0240(6) Uani 1 1 d .
H2 H -0.0423 0.396 0.53 0.029 Uiso 1 1 calc R
N3 N 0.2387(6) 0.35817(18) 0.42845(17) 0.0227(5) Uani 1 1 d .
N4 N 0.3850(6) 0.42086(19) 0.37510(17) 0.0186(5) Uani 1 1 d .
N5 N 0.3396(5) 0.51903(17) 0.39220(16) 0.0204(5) Uani 1 1 d .
C6 C 0.5773(8) 0.3888(2) 0.3044(2) 0.0199(7) Uani 1 1 d .
C7 C 0.5998(7) 0.2866(2) 0.2869(2) 0.0261(7) Uani 1 1 d .
H7 H 0.4934 0.2392 0.3222 0.031 Uiso 1 1 calc R
C8 C 0.7805(7) 0.2556(3) 0.2170(2) 0.0296(7) Uani 1 1 d .
H8 H 0.7975 0.1862 0.2043 0.036 Uiso 1 1 calc R
C9 C 0.9355(8) 0.3238(3) 0.1658(2) 0.0345(8) Uani 1 1 d .
H9 H 1.0577 0.3015 0.1179 0.041 Uiso 1 1 calc R
C10 C 0.9133(9) 0.4259(3) 0.1842(2) 0.0323(8) Uani 1 1 d .
H10 H 1.0218 0.4731 0.1491 0.039 Uiso 1 1 calc R
C11 C 0.7327(6) 0.4586(2) 0.25377(19) 0.0239(6) Uani 1 1 d .
H11 H 0.7159 0.528 0.2665 0.029 Uiso 1 1 calc R
I1 I -0.01365(3) 0.64652(5) 0.519095(10) 0.02283(6) Uani 1 1 d .
loop_
_atom_site_aniso_label
_atom_site_aniso_U_11
_atom_site_aniso_U_22
_atom_site_aniso_U_33
_atom_site_aniso_U_23
_atom_site_aniso_U_13
_atom_site_aniso_U_12
C1 0.0221(14) 0.0142(14) 0.0236(16) -0.0026(12) -0.0026(12) 0.0020(12)
C2 0.0294(15) 0.0192(16) 0.0233(17) 0.0022(13) 0.0048(12) -0.0009(13)
N3 0.0286(14) 0.0155(12) 0.0240(14) 0.0017(11) 0.0032(11) -0.0009(11)
N4 0.0204(12) 0.0130(11) 0.0225(14) -0.0029(11) -0.0001(11) 0.0026(11)
N5 0.0253(13) 0.0100(11) 0.0259(14) -0.0005(10) -0.0011(11) 0.0007(10)
C6 0.0219(15) 0.0207(18) 0.0171(16) -0.0041(12) -0.0038(14) 0.0038(12)
C7 0.0295(15) 0.0193(15) 0.0294(17) -0.0032(15) -0.0041(14) 0.0039(14)
C8 0.0350(17) 0.0264(17) 0.0276(18) -0.0103(14) -0.0055(14) 0.0118(14)
C9 0.0309(18) 0.044(2) 0.028(2) -0.0104(18) -0.0023(15) 0.0150(17)
C10 0.0273(16) 0.044(2) 0.0253(19) 0.0056(17) 0.0009(15) 0.0019(18)
C11 0.0237(14) 0.0236(17) 0.0244(16) -0.0011(14) -0.0008(13) 0.0026(13)
I1 0.02532(9) 0.01543(9) 0.02774(10) -0.00407(17) 0.00295(7) 0.00157(14)
loop_
_atom_type_symbol
_atom_type_description
_atom_type_scat_dispersion_real
_atom_type_scat_dispersion_imag
_atom_type_scat_source
C C 0.0033 0.0016 'International Tables Vol C Tables 4.2.6.8 and 6.1.1.4'
H H 0 0 'International Tables Vol C Tables 4.2.6.8 and 6.1.1.4'
N N 0.0061 0.0033 'International Tables Vol C Tables 4.2.6.8 and 6.1.1.4'
I I -0.4742 1.8119 'International Tables Vol C Tables 4.2.6.8 and 6.1.1.4'
loop_
_geom_angle_atom_site_label_1
_geom_angle_atom_site_label_2
_geom_angle_atom_site_label_3
_geom_angle
N5 C1 C2 109.3(3)
N5 C1 I1 122.2(2)
C2 C1 I1 128.5(2)
N3 C2 C1 108.5(3)
N3 C2 H2 125.8
C1 C2 H2 125.8
C2 N3 N4 104.2(2)
N3 N4 N5 115.1(2)
N3 N4 C6 123.5(2)
N5 N4 C6 121.4(3)
C1 N5 N4 102.9(2)
C11 C6 C7 121.2(3)
C11 C6 N4 120.2(3)
C7 C6 N4 118.6(3)
C8 C7 C6 118.6(3)
C8 C7 H7 120.7
C6 C7 H7 120.7
C9 C8 C7 120.9(3)
C9 C8 H8 119.5
C7 C8 H8 119.5
C8 C9 C10 120.0(3)
C8 C9 H9 120
C10 C9 H9 120
C11 C10 C9 120.0(4)
C11 C10 H10 120
C9 C10 H10 120
C6 C11 C10 119.3(3)
C6 C11 H11 120.4
C10 C11 H11 120.4
loop_
_geom_bond_atom_site_label_1
_geom_bond_atom_site_label_2
_geom_bond_distance
C1 N5 1.330(4)
C1 C2 1.400(4)
C1 I1 2.068(3)
C2 N3 1.325(4)
C2 H2 0.95
N3 N4 1.328(4)
N4 N5 1.351(3)
N4 C6 1.427(4)
C6 C11 1.383(4)
C6 C7 1.394(4)
C7 C8 1.385(4)
C7 H7 0.95
C8 C9 1.374(5)
C8 H8 0.95
C9 C10 1.394(6)
C9 H9 0.95
C10 C11 1.388(4)
C10 H10 0.95
C11 H11 0.95
loop_
_geom_torsion_atom_site_label_1
_geom_torsion_atom_site_label_2
_geom_torsion_atom_site_label_3
_geom_torsion_atom_site_label_4
_geom_torsion
N5 C1 C2 N3 -0.2(4)
I1 C1 C2 N3 180.0(2)
C1 C2 N3 N4 -0.1(3)
C2 N3 N4 N5 0.5(3)
C2 N3 N4 C6 -179.5(3)
C2 C1 N5 N4 0.5(3)
I1 C1 N5 N4 -179.7(2)
N3 N4 N5 C1 -0.6(3)
C6 N4 N5 C1 179.4(3)
N3 N4 C6 C11 -177.3(3)
N5 N4 C6 C11 2.7(4)
N3 N4 C6 C7 3.8(4)
N5 N4 C6 C7 -176.2(3)
C11 C6 C7 C8 -0.4(5)
N4 C6 C7 C8 178.5(3)
C6 C7 C8 C9 0.1(5)
C7 C8 C9 C10 0.3(5)
C8 C9 C10 C11 -0.5(5)
C7 C6 C11 C10 0.2(5)
N4 C6 C11 C10 -178.7(3)
C9 C10 C11 C6 0.3(5)
