#------------------------------------------------------------------------------
#$Date: 2016-02-16 03:10:39 +0200 (Tue, 16 Feb 2016) $
#$Revision: 176453 $
#$URL: svn://www.crystallography.net/cod/cif/7/15/21/7152122.cif $
#------------------------------------------------------------------------------
#
# This file is available in the Crystallography Open Database (COD),
# http://www.crystallography.net/
#
# All data on this site have been placed in the public domain by the
# contributors.
#
data_7152122
loop_
_publ_author_name
'Karban, Jind\<rich'
'C\'isa\<rov\'a, Ivana'
'Stra\<s\'ak, Tom\'a\<s'
'\<S\<tastn\'a, Lucie \<Cervenkov\'a'
'S\'ykora, Jan'
_publ_section_title
;
 Skeletal rearrangements resulting from reactions of 1,6:2,3- and
 1,6:3,4-dianhydro-\b-D-hexopyranoses with diethylaminosulphur
 trifluoride.
;
_journal_issue                   2
_journal_name_full               'Organic &amp; biomolecular chemistry'
_journal_page_first              394
_journal_page_last               403
_journal_paper_doi               10.1039/c1ob06336g
_journal_volume                  10
_journal_year                    2012
_chemical_absolute_configuration unk
_chemical_formula_moiety         'C6 H7 F1 O3'
_chemical_formula_sum            'C6 H7 F O3'
_chemical_formula_weight         146.12
_space_group_IT_number           4
_symmetry_cell_setting           monoclinic
_symmetry_space_group_name_Hall  'P 2yb'
_symmetry_space_group_name_H-M   'P 1 21 1'
_atom_sites_solution_hydrogens   geom
_atom_sites_solution_primary     direct
_audit_creation_date             11-06-29
_audit_creation_method           CRYSTALS_ver_12.82
_cell_angle_alpha                90
_cell_angle_beta                 94.9760(16)
_cell_angle_gamma                90
_cell_formula_units_Z            4
_cell_length_a                   7.6980(2)
_cell_length_b                   8.7730(2)
_cell_length_c                   8.8850(3)
_cell_measurement_reflns_used    1434
_cell_measurement_temperature    150
_cell_measurement_theta_max      27
_cell_measurement_theta_min      2
_cell_volume                     597.78(3)
_computing_cell_refinement       'DENZO/SCALEPACK (Otwinowski & Minor, 1997)'
_computing_data_collection       'COLLECT. Nonius (1997-2001).'
_computing_data_reduction        'DENZO/SCALEPACK (Otwinowski & Minor, 1997)'
_computing_molecular_graphics    'CAMERON (Watkin et al., 1996)'
_computing_publication_material  'CRYSTALS (Betteridge et al., 2003)'
_computing_structure_refinement  'CRYSTALS (Betteridge et al., 2003)'
_computing_structure_solution    'SHELXS 86 (Sheldrick, 1986)'
_diffrn_ambient_temperature      150
_diffrn_measured_fraction_theta_full 1.000
_diffrn_measured_fraction_theta_max 1.000
_diffrn_measurement_device_type  'Nonius Kappa CCD'
_diffrn_measurement_method       '\f & \w scans'
_diffrn_radiation_monochromator  graphite
_diffrn_radiation_type           'Mo K\a'
_diffrn_radiation_wavelength     0.71073
_diffrn_reflns_av_R_equivalents  0.006
_diffrn_reflns_limit_h_max       9
_diffrn_reflns_limit_h_min       -9
_diffrn_reflns_limit_k_max       11
_diffrn_reflns_limit_k_min       -11
_diffrn_reflns_limit_l_max       11
_diffrn_reflns_limit_l_min       -11
_diffrn_reflns_number            2731
_diffrn_reflns_theta_full        27.470
_diffrn_reflns_theta_max         27.470
_diffrn_reflns_theta_min         2.301
_diffrn_standards_number         0
_exptl_absorpt_coefficient_mu    0.149
_exptl_absorpt_correction_T_max  0.96
_exptl_absorpt_correction_T_min  0.96
_exptl_absorpt_correction_type   numerical
_exptl_absorpt_process_details
;
Analytical Absorption (De Meulenaer & Tompa, 1965)
;
_exptl_crystal_colour            colourless
_exptl_crystal_density_diffrn    1.623
_exptl_crystal_description       prism
_exptl_crystal_F_000             304
_exptl_crystal_size_max          0.40
_exptl_crystal_size_mid          0.25
_exptl_crystal_size_min          0.25
_refine_diff_density_max         0.14
_refine_diff_density_min         -0.20
_refine_ls_extinction_method     None
_refine_ls_goodness_of_fit_ref   1.0295
_refine_ls_hydrogen_treatment    mixed
_refine_ls_matrix_type           full
_refine_ls_number_parameters     237
_refine_ls_number_reflns         1284
_refine_ls_number_restraints     1
_refine_ls_R_factor_all          0.0325
_refine_ls_R_factor_gt           0.0273
_refine_ls_shift/su_max          0.000255
_refine_ls_structure_factor_coef F
_refine_ls_weighting_details
;
Method, part 1, Chebychev polynomial, (Watkin, 1994, Prince, 1982)
[weight] = 1.0/[A~0~*T~0~(x)+A~1~*T~1~(x) ... +A~n-1~]*T~n-1~(x)]
where A~i~ are the Chebychev coefficients listed below and x= Fcalc/Fmax
Method = Robust Weighting (Prince, 1982)
W = [weight] * [1-(deltaF/6*sigmaF)^2^]^2^
A~i~ are:
0.422 0.234 0.165
;
_refine_ls_weighting_scheme      calc
_refine_ls_wR_factor_all         0.0366
_refine_ls_wR_factor_gt          0.0308
_refine_ls_wR_factor_ref         0.0308
_reflns_limit_h_max              9
_reflns_limit_h_min              -9
_reflns_limit_k_max              11
_reflns_limit_k_min              0
_reflns_limit_l_max              11
_reflns_limit_l_min              0
_reflns_number_gt                1284
_reflns_number_total             1455
_reflns_threshold_expression     I>1.96u(I)
_oxford_diffrn_Wilson_B_factor   0.00
_oxford_diffrn_Wilson_scale      0.00
_oxford_refine_ls_scale          0.9842(19)
_cod_data_source_file            c1ob06336g.txt
_cod_data_source_block           CRYSTALS_cif9
_cod_depositor_comments
;
The following automatic conversions were performed:

'_symmetry_cell_setting' value 'Monoclinic' changed to 'monoclinic'
according to /home/saulius/struct/CIF-dictionaries/cif_core.dic
dictionary named 'cif_core.dic' version 2.4.1 from 2010-06-29.

Automatic conversion script
Id: cif_fix_values 1715 2011-07-08 13:25:40Z adriana 
;
_cod_original_sg_symbol_H-M      'P 1 21 1 '
_cod_original_formula_sum        'C6 H7 F1 O3'
_cod_database_code               7152122
loop_
_symmetry_equiv_pos_as_xyz
x,y,z
-x,y+1/2,-z
loop_
_atom_site_label
_atom_site_type_symbol
_atom_site_fract_x
_atom_site_fract_y
_atom_site_fract_z
_atom_site_U_iso_or_equiv
_atom_site_occupancy
_atom_site_adp_type
F1 F 0.96211(19) -0.33362(18) -0.05732(13) 0.0363 1.0000 Uani
F11 F 0.39624(19) 0.1582(2) 0.51636(14) 0.0401 1.0000 Uani
O1 O 1.18693(18) -0.25776(19) 0.19526(16) 0.0259 1.0000 Uani
O2 O 0.90666(18) -0.4605(2) 0.15597(17) 0.0268 1.0000 Uani
O3 O 1.0944(2) -0.1474(2) 0.44267(18) 0.0344 1.0000 Uani
O11 O 0.65990(18) 0.0707(2) 0.34027(17) 0.0284 1.0000 Uani
O12 O 0.3917(2) 0.2812(2) 0.29080(18) 0.0307 1.0000 Uani
O13 O 0.6173(2) -0.0459(2) 0.07629(19) 0.0331 1.0000 Uani
C1 C 0.9008(3) -0.3188(3) 0.0868(2) 0.0263 1.0000 Uani
C2 C 1.0117(3) -0.2006(3) 0.1739(2) 0.0247 1.0000 Uani
C3 C 0.9543(3) -0.1927(3) 0.3324(2) 0.0275 1.0000 Uani
C4 C 1.0584(3) -0.3076(3) 0.4165(2) 0.0268 1.0000 Uani
C5 C 1.1718(3) -0.3777(3) 0.3045(2) 0.0237 1.0000 Uani
C6 C 1.0777(3) -0.5089(2) 0.2226(2) 0.0258 1.0000 Uani
C11 C 0.3649(3) 0.1429(3) 0.3587(2) 0.0282 1.0000 Uani
C12 C 0.4841(3) 0.0174(3) 0.3098(2) 0.0257 1.0000 Uani
C13 C 0.4613(3) 0.0070(3) 0.1388(2) 0.0257 1.0000 Uani
C14 C 0.5849(3) 0.1159(3) 0.0859(3) 0.0272 1.0000 Uani
C15 C 0.6739(3) 0.1874(3) 0.2272(2) 0.0276 1.0000 Uani
C16 C 0.5718(3) 0.3236(3) 0.2751(3) 0.0298 1.0000 Uani
H11 H 0.774(3) -0.286(3) 0.072(3) 0.029(6) 1.0000 Uiso
H21 H 1.011(3) -0.103(3) 0.121(3) 0.030(7) 1.0000 Uiso
H31 H 0.837(4) -0.166(4) 0.353(3) 0.036(7) 1.0000 Uiso
H41 H 1.018(4) -0.371(4) 0.500(3) 0.032(6) 1.0000 Uiso
H51 H 1.287(3) -0.409(3) 0.347(3) 0.028(6) 1.0000 Uiso
H61 H 1.146(3) -0.544(3) 0.141(3) 0.030(7) 1.0000 Uiso
H62 H 1.053(3) -0.591(3) 0.294(3) 0.032(7) 1.0000 Uiso
H111 H 0.241(3) 0.114(3) 0.337(3) 0.026(6) 1.0000 Uiso
H121 H 0.467(3) -0.081(4) 0.362(3) 0.034(7) 1.0000 Uiso
H131 H 0.349(4) -0.022(3) 0.088(3) 0.036(7) 1.0000 Uiso
H141 H 0.569(3) 0.174(4) -0.009(3) 0.035(7) 1.0000 Uiso
H151 H 0.798(3) 0.216(3) 0.222(3) 0.033(7) 1.0000 Uiso
H161 H 0.627(4) 0.362(4) 0.373(3) 0.037(7) 1.0000 Uiso
H162 H 0.566(4) 0.409(4) 0.198(3) 0.044(8) 1.0000 Uiso
loop_
_atom_site_aniso_label
_atom_site_aniso_U_11
_atom_site_aniso_U_22
_atom_site_aniso_U_33
_atom_site_aniso_U_23
_atom_site_aniso_U_13
_atom_site_aniso_U_12
F1 0.0528(8) 0.0308(7) 0.0246(6) -0.0005(6) -0.0011(5) 0.0057(6)
F11 0.0513(8) 0.0422(9) 0.0286(6) -0.0020(7) 0.0138(6) 0.0026(7)
O1 0.0233(7) 0.0248(8) 0.0300(7) 0.0039(6) 0.0049(5) -0.0029(6)
O2 0.0236(7) 0.0209(7) 0.0350(7) 0.0012(6) -0.0029(5) -0.0019(6)
O3 0.0393(9) 0.0289(9) 0.0334(8) -0.0090(7) -0.0056(6) 0.0033(7)
O11 0.0254(7) 0.0282(8) 0.0307(8) 0.0015(6) -0.0030(6) 0.0052(6)
O12 0.0282(7) 0.0249(8) 0.0400(8) 0.0036(7) 0.0081(6) 0.0085(6)
O13 0.0347(8) 0.0273(8) 0.0386(9) -0.0070(7) 0.0098(7) 0.0053(7)
C1 0.0278(10) 0.0227(10) 0.0277(9) 0.0001(9) -0.0019(7) 0.0051(8)
C2 0.0278(10) 0.0168(10) 0.0291(10) 0.0024(8) -0.0007(8) 0.0009(8)
C3 0.0253(9) 0.0258(11) 0.0311(10) -0.0063(9) 0.0009(8) 0.0031(8)
C4 0.0294(9) 0.0253(11) 0.0258(9) -0.0016(8) 0.0028(8) 0.0009(9)
C5 0.0238(9) 0.0215(9) 0.0259(9) 0.0013(8) 0.0024(7) 0.0022(8)
C6 0.0271(10) 0.0200(10) 0.0297(10) 0.0011(9) -0.0015(8) 0.0031(8)
C11 0.0266(10) 0.0294(11) 0.0296(10) 0.0003(9) 0.0083(8) 0.0014(9)
C12 0.0277(10) 0.0221(10) 0.0274(9) 0.0025(9) 0.0029(7) 0.0001(8)
C13 0.0249(9) 0.0258(10) 0.0264(9) -0.0004(9) 0.0012(7) 0.0026(8)
C14 0.0290(10) 0.0260(11) 0.0271(10) -0.0016(8) 0.0056(8) 0.0015(9)
C15 0.0235(9) 0.0283(11) 0.0311(10) -0.0016(9) 0.0038(8) -0.0013(8)
C16 0.0318(11) 0.0226(10) 0.0352(11) -0.0012(10) 0.0046(9) -0.0024(9)
loop_
_atom_type_symbol
_atom_type_scat_dispersion_real
_atom_type_scat_dispersion_imag
_atom_type_scat_Cromer_Mann_a1
_atom_type_scat_Cromer_Mann_b1
_atom_type_scat_Cromer_Mann_a2
_atom_type_scat_Cromer_Mann_b2
_atom_type_scat_Cromer_Mann_a3
_atom_type_scat_Cromer_Mann_b3
_atom_type_scat_Cromer_Mann_a4
_atom_type_scat_Cromer_Mann_b4
_atom_type_scat_Cromer_Mann_c
_atom_type_scat_source
C 0.0033 0.0016 2.3100 20.8439 1.0200 10.2075 1.5886 0.5687 0.8650 51.6512
0.2156 'International Tables Vol C 4.2.6.8 and 6.1.1.4'
H 0.0000 0.0000 0.4930 10.5109 0.3229 26.1257 0.1402 3.1424 0.0408 57.7998
0.0030 'International Tables Vol C 4.2.6.8 and 6.1.1.4'
O 0.0106 0.0060 3.0485 13.2771 2.2868 5.7011 1.5463 0.3239 0.8670 32.9089
0.2508 'International Tables Vol C 4.2.6.8 and 6.1.1.4'
F 0.0171 0.0103 3.5392 10.2825 2.6412 4.2944 1.5170 0.2615 1.0243 26.1476
0.2776 'International Tables Vol C 4.2.6.8 and 6.1.1.4'
loop_
_geom_angle_atom_site_label_1
_geom_angle_atom_site_label_2
_geom_angle_atom_site_label_3
_geom_angle
_geom_angle_publ_flag
C2 O1 C5 102.32(15) yes
C1 O2 C6 115.75(16) yes
C3 O3 C4 60.25(14) yes
C12 O11 C15 103.04(15) yes
C11 O12 C16 116.57(17) yes
C13 O13 C14 60.48(14) yes
F1 C1 O2 108.64(17) yes
F1 C1 C2 108.04(17) yes
O2 C1 C2 113.11(16) yes
F1 C1 H11 107.7(13) no
O2 C1 H11 107.7(16) no
C2 C1 H11 111.5(16) no
C1 C2 O1 108.07(17) yes
C1 C2 C3 108.09(17) yes
O1 C2 C3 103.88(16) yes
C1 C2 H21 112.0(16) no
O1 C2 H21 109.5(16) no
C3 C2 H21 114.9(15) no
C2 C3 O3 112.44(18) yes
C2 C3 C4 104.69(18) yes
O3 C3 C4 59.85(13) yes
C2 C3 H31 122.8(15) no
O3 C3 H31 117.3(16) no
C4 C3 H31 123.5(17) no
C3 C4 O3 59.90(14) yes
C3 C4 C5 105.58(18) yes
O3 C4 C5 112.86(19) yes
C3 C4 H41 125.1(17) no
O3 C4 H41 119.5(17) no
C5 C4 H41 119.7(17) no
C4 C5 O1 103.34(17) yes
C4 C5 C6 110.32(17) yes
O1 C5 C6 107.15(16) yes
C4 C5 H51 114.6(15) no
O1 C5 H51 110.3(15) no
C6 C5 H51 110.7(16) no
C5 C6 O2 110.59(16) yes
C5 C6 H61 109.1(17) no
O2 C6 H61 108.3(15) no
C5 C6 H62 110.7(16) no
O2 C6 H62 104.9(15) no
H61 C6 H62 113(2) no
F11 C11 O12 109.40(19) yes
F11 C11 C12 107.35(17) yes
O12 C11 C12 113.26(17) yes
F11 C11 H111 107.3(14) no
O12 C11 H111 108.4(16) no
C12 C11 H111 111.0(16) no
C11 C12 O11 107.02(18) yes
C11 C12 C13 108.03(18) yes
O11 C12 C13 103.54(16) yes
C11 C12 H121 112.8(15) no
O11 C12 H121 110.6(15) no
C13 C12 H121 114.2(16) no
C12 C13 O13 112.15(17) yes
C12 C13 C14 105.22(18) yes
O13 C13 C14 59.83(14) yes
C12 C13 H131 120.3(16) no
O13 C13 H131 118.1(16) no
C14 C13 H131 126.7(17) no
C13 C14 O13 59.69(14) yes
C13 C14 C15 105.40(18) yes
O13 C14 C15 112.82(19) yes
C13 C14 H141 125.4(16) no
O13 C14 H141 117.9(18) no
C15 C14 H141 120.7(18) no
C14 C15 O11 103.15(17) yes
C14 C15 C16 110.62(18) yes
O11 C15 C16 106.97(16) yes
C14 C15 H151 115.6(15) no
O11 C15 H151 110.2(15) no
C16 C15 H151 109.9(16) no
C15 C16 O12 110.40(18) yes
C15 C16 H161 108.6(17) no
O12 C16 H161 109.9(16) no
C15 C16 H162 112.7(17) no
O12 C16 H162 105.5(17) no
H161 C16 H162 110(2) no
loop_
_geom_bond_atom_site_label_1
_geom_bond_atom_site_label_2
_geom_bond_distance
_geom_bond_publ_flag
F1 C1 1.409(2) yes
F11 C11 1.407(3) yes
O1 C2 1.436(2) yes
O1 C5 1.443(2) yes
O2 C1 1.386(3) yes
O2 C6 1.459(2) yes
O3 C3 1.448(3) yes
O3 C4 1.447(3) yes
O11 C12 1.435(3) yes
O11 C15 1.445(3) yes
O12 C11 1.379(3) yes
O12 C16 1.454(3) yes
O13 C13 1.443(3) yes
O13 C14 1.445(3) yes
C1 C2 1.513(3) yes
C1 H11 1.01(2) no
C2 C3 1.514(3) yes
C2 H21 0.98(3) no
C3 C4 1.453(3) yes
C3 H31 0.96(3) no
C4 C5 1.510(3) yes
C4 H41 1.00(3) no
C5 C6 1.512(3) yes
C5 H51 0.97(3) no
C6 H61 0.98(3) no
C6 H62 0.99(3) no
C11 C12 1.521(3) yes
C11 H111 0.99(2) no
C12 C13 1.516(3) yes
C12 H121 0.99(3) no
C13 C14 1.454(3) yes
C13 H131 0.97(3) no
C14 C15 1.514(3) yes
C14 H141 0.98(3) no
C15 C16 1.512(3) yes
C15 H151 0.99(3) no
C16 H161 1.00(3) no
C16 H162 1.02(3) no
