#------------------------------------------------------------------------------
#$Date: 2016-02-16 03:10:39 +0200 (Tue, 16 Feb 2016) $
#$Revision: 176453 $
#$URL: svn://www.crystallography.net/cod/cif/7/15/21/7152131.cif $
#------------------------------------------------------------------------------
#
# This file is available in the Crystallography Open Database (COD),
# http://www.crystallography.net/
#
# All data on this site have been placed in the public domain by the
# contributors.
#
data_7152131
loop_
_publ_author_name
'Karban, Jind\<rich'
'C\'isa\<rov\'a, Ivana'
'Stra\<s\'ak, Tom\'a\<s'
'\<S\<tastn\'a, Lucie \<Cervenkov\'a'
'S\'ykora, Jan'
_publ_section_title
;
 Skeletal rearrangements resulting from reactions of 1,6:2,3- and
 1,6:3,4-dianhydro-\b-D-hexopyranoses with diethylaminosulphur
 trifluoride.
;
_journal_issue                   2
_journal_name_full               'Organic &amp; biomolecular chemistry'
_journal_page_first              394
_journal_page_last               403
_journal_paper_doi               10.1039/c1ob06336g
_journal_volume                  10
_journal_year                    2012
_chemical_absolute_configuration unk
_chemical_formula_moiety         'C6 H7 F1 O3'
_chemical_formula_sum            'C6 H7 F O3'
_chemical_formula_weight         146.12
_space_group_IT_number           19
_symmetry_cell_setting           orthorhombic
_symmetry_space_group_name_Hall  'P 2ac 2ab'
_symmetry_space_group_name_H-M   'P 21 21 21'
_atom_sites_solution_hydrogens   geom
_atom_sites_solution_primary     direct
_audit_creation_date             11-06-27
_audit_creation_method           CRYSTALS_ver_12.82
_cell_angle_alpha                90
_cell_angle_beta                 90
_cell_angle_gamma                90
_cell_formula_units_Z            4
_cell_length_a                   6.7058(5)
_cell_length_b                   8.1556(5)
_cell_length_c                   10.7504(7)
_cell_measurement_reflns_used    5042
_cell_measurement_temperature    150
_cell_measurement_theta_max      27
_cell_measurement_theta_min      3
_cell_volume                     587.94(7)
_computing_cell_refinement       'DENZO/SCALEPACK (Otwinowski & Minor, 1997)'
_computing_data_collection       'COLLECT. Nonius (1997-2001).'
_computing_data_reduction        'DENZO/SCALEPACK (Otwinowski & Minor, 1997)'
_computing_molecular_graphics    'CAMERON (Watkin et al., 1996)'
_computing_publication_material  'CRYSTALS (Betteridge et al., 2003)'
_computing_structure_refinement  'CRYSTALS (Betteridge et al., 2003)'
_computing_structure_solution    'SHELXS 86 (Sheldrick, 1986)'
_diffrn_ambient_temperature      150
_diffrn_measured_fraction_theta_full 0.996
_diffrn_measured_fraction_theta_max 0.996
_diffrn_measurement_device_type  'Nonius Kappa CCD'
_diffrn_measurement_method       '\f & \w scans'
_diffrn_radiation_monochromator  graphite
_diffrn_radiation_type           'Mo K\a'
_diffrn_radiation_wavelength     0.71073
_diffrn_reflns_av_R_equivalents  0.016
_diffrn_reflns_limit_h_max       7
_diffrn_reflns_limit_h_min       -8
_diffrn_reflns_limit_k_max       7
_diffrn_reflns_limit_k_min       -10
_diffrn_reflns_limit_l_max       14
_diffrn_reflns_limit_l_min       -13
_diffrn_reflns_number            5178
_diffrn_reflns_theta_full        27.971
_diffrn_reflns_theta_max         27.971
_diffrn_reflns_theta_min         3.135
_diffrn_standards_number         0
_exptl_absorpt_coefficient_mu    0.151
_exptl_absorpt_correction_T_max  0.98
_exptl_absorpt_correction_T_min  0.91
_exptl_absorpt_correction_type   multi-scan
_exptl_absorpt_process_details   'SADABS (Siemens, 1996)'
_exptl_crystal_colour            colourless
_exptl_crystal_density_diffrn    1.651
_exptl_crystal_description       plate
_exptl_crystal_F_000             304
_exptl_crystal_size_max          0.62
_exptl_crystal_size_mid          0.27
_exptl_crystal_size_min          0.14
_refine_diff_density_max         0.19
_refine_diff_density_min         -0.15
_refine_ls_extinction_method     None
_refine_ls_goodness_of_fit_ref   1.0307
_refine_ls_hydrogen_treatment    mixed
_refine_ls_matrix_type           full
_refine_ls_number_parameters     119
_refine_ls_number_reflns         691
_refine_ls_number_restraints     0
_refine_ls_R_factor_all          0.0327
_refine_ls_R_factor_gt           0.0261
_refine_ls_shift/su_max          0.000094
_refine_ls_structure_factor_coef F
_refine_ls_weighting_details
;
Method, part 1, Chebychev polynomial, (Watkin, 1994, Prince, 1982)
[weight] = 1.0/[A~0~*T~0~(x)+A~1~*T~1~(x) ... +A~n-1~]*T~n-1~(x)]
where A~i~ are the Chebychev coefficients listed below and x= Fcalc/Fmax
Method = Robust Weighting (Prince, 1982)
W = [weight] * [1-(deltaF/6*sigmaF)^2^]^2^
A~i~ are:
0.197 0.133 0.623E-01
;
_refine_ls_weighting_scheme      calc
_refine_ls_wR_factor_all         0.0399
_refine_ls_wR_factor_gt          0.0308
_refine_ls_wR_factor_ref         0.0308
_reflns_limit_h_max              8
_reflns_limit_h_min              0
_reflns_limit_k_max              10
_reflns_limit_k_min              0
_reflns_limit_l_max              14
_reflns_limit_l_min              0
_reflns_number_gt                691
_reflns_number_total             844
_reflns_threshold_expression     I>1.96u(I)
_oxford_diffrn_Wilson_B_factor   0.00
_oxford_diffrn_Wilson_scale      0.00
_oxford_refine_ls_scale          0.4577(12)
_oxford_structure_analysis_title 'e350_f2_sykora_0m in P2(1)2(1)2(1)'
_cod_data_source_file            c1ob06336g.txt
_cod_data_source_block           CRYSTALS_cif18
_cod_depositor_comments
;
The following automatic conversions were performed:

'_symmetry_cell_setting' value 'Orthorhombic' changed to
'orthorhombic' according to
/home/saulius/struct/CIF-dictionaries/cif_core.dic dictionary named
'cif_core.dic' version 2.4.1 from 2010-06-29.

Automatic conversion script
Id: cif_fix_values 1715 2011-07-08 13:25:40Z adriana 
;
_cod_original_sg_symbol_H-M      'P 21 21 21 '
_cod_original_formula_sum        'C6 H7 F1 O3'
_cod_database_code               7152131
loop_
_symmetry_equiv_pos_as_xyz
x,y,z
x+1/2,-y+1/2,-z
-x,y+1/2,-z+1/2
-x+1/2,-y,z+1/2
loop_
_atom_site_label
_atom_site_type_symbol
_atom_site_fract_x
_atom_site_fract_y
_atom_site_fract_z
_atom_site_U_iso_or_equiv
_atom_site_occupancy
_atom_site_adp_type
F1 F 0.3588(2) -0.08610(16) -0.07259(12) 0.0380 1.0000 Uani
O1 O 0.6070(2) 0.09542(17) -0.05138(11) 0.0262 1.0000 Uani
O2 O 0.4865(2) 0.17672(16) 0.14191(13) 0.0286 1.0000 Uani
O3 O 0.9200(2) -0.03656(19) 0.05970(15) 0.0342 1.0000 Uani
C1 C 0.6518(3) 0.1791(2) 0.06076(17) 0.0231 1.0000 Uani
C2 C 0.8245(3) 0.0954(3) 0.12650(17) 0.0265 1.0000 Uani
C3 C 0.7718(3) -0.0751(2) 0.15300(16) 0.0240 1.0000 Uani
C4 C 0.5636(3) -0.1103(2) 0.10598(15) 0.0195 1.0000 Uani
C5 C 0.5556(3) -0.0688(2) -0.03092(16) 0.0227 1.0000 Uani
C6 C 0.4292(3) 0.0102(2) 0.1749(2) 0.0275 1.0000 Uani
H11 H 0.676(3) 0.293(3) 0.0411(19) 0.026(6) 1.0000 Uiso
H21 H 0.908(4) 0.165(3) 0.179(2) 0.036(6) 1.0000 Uiso
H31 H 0.819(4) -0.133(3) 0.226(2) 0.037(6) 1.0000 Uiso
H41 H 0.520(3) -0.227(3) 0.118(2) 0.026(6) 1.0000 Uiso
H51 H 0.637(4) -0.139(3) -0.085(2) 0.024(5) 1.0000 Uiso
H61 H 0.289(4) -0.001(3) 0.155(2) 0.030(6) 1.0000 Uiso
H62 H 0.446(3) -0.004(3) 0.265(3) 0.033(6) 1.0000 Uiso
loop_
_atom_site_aniso_label
_atom_site_aniso_U_11
_atom_site_aniso_U_22
_atom_site_aniso_U_33
_atom_site_aniso_U_23
_atom_site_aniso_U_13
_atom_site_aniso_U_12
F1 0.0363(6) 0.0306(6) 0.0470(7) -0.0036(6) -0.0238(6) -0.0020(5)
O1 0.0391(8) 0.0231(6) 0.0165(5) 0.0024(5) -0.0036(5) -0.0042(6)
O2 0.0337(7) 0.0187(6) 0.0333(7) -0.0025(5) 0.0080(6) 0.0035(5)
O3 0.0205(6) 0.0395(8) 0.0426(8) -0.0049(7) 0.0033(6) 0.0011(6)
C1 0.0309(9) 0.0183(7) 0.0200(7) 0.0001(7) 0.0006(7) -0.0046(7)
C2 0.0257(8) 0.0282(9) 0.0255(8) -0.0035(8) -0.0040(7) -0.0050(7)
C3 0.0254(8) 0.0257(8) 0.0211(7) -0.0008(7) -0.0045(7) 0.0017(8)
C4 0.0230(8) 0.0158(7) 0.0197(7) 0.0009(6) 0.0010(6) 0.0004(7)
C5 0.0264(9) 0.0208(8) 0.0211(8) -0.0025(7) -0.0065(7) 0.0025(7)
C6 0.0291(10) 0.0229(8) 0.0307(9) -0.0001(7) 0.0109(9) 0.0001(8)
loop_
_atom_type_symbol
_atom_type_scat_dispersion_real
_atom_type_scat_dispersion_imag
_atom_type_scat_Cromer_Mann_a1
_atom_type_scat_Cromer_Mann_b1
_atom_type_scat_Cromer_Mann_a2
_atom_type_scat_Cromer_Mann_b2
_atom_type_scat_Cromer_Mann_a3
_atom_type_scat_Cromer_Mann_b3
_atom_type_scat_Cromer_Mann_a4
_atom_type_scat_Cromer_Mann_b4
_atom_type_scat_Cromer_Mann_c
_atom_type_scat_source
C 0.0033 0.0016 2.3100 20.8439 1.0200 10.2075 1.5886 0.5687 0.8650 51.6512
0.2156 'International Tables Vol C 4.2.6.8 and 6.1.1.4'
H 0.0000 0.0000 0.4930 10.5109 0.3229 26.1257 0.1402 3.1424 0.0408 57.7998
0.0030 'International Tables Vol C 4.2.6.8 and 6.1.1.4'
O 0.0106 0.0060 3.0485 13.2771 2.2868 5.7011 1.5463 0.3239 0.8670 32.9089
0.2508 'International Tables Vol C 4.2.6.8 and 6.1.1.4'
F 0.0171 0.0103 3.5392 10.2825 2.6412 4.2944 1.5170 0.2615 1.0243 26.1476
0.2776 'International Tables Vol C 4.2.6.8 and 6.1.1.4'
loop_
_geom_angle_atom_site_label_1
_geom_angle_atom_site_label_2
_geom_angle_atom_site_label_3
_geom_angle
_geom_angle_publ_flag
C1 O1 C5 112.26(12) yes
C1 O2 C6 111.77(14) yes
C2 O3 C3 60.80(12) yes
O1 C1 O2 110.68(15) yes
O1 C1 C2 109.95(15) yes
O2 C1 C2 107.78(14) yes
O1 C1 H11 108.2(12) no
O2 C1 H11 106.3(13) no
C2 C1 H11 114.0(13) no
C1 C2 O3 116.21(14) yes
C1 C2 C3 109.46(15) yes
O3 C2 C3 59.70(13) yes
C1 C2 H21 116.2(15) no
O3 C2 H21 118.0(15) no
C3 C2 H21 125.6(15) no
C2 C3 O3 59.50(12) yes
C2 C3 C4 109.81(15) yes
O3 C3 C4 116.34(14) yes
C2 C3 H31 122.8(15) no
O3 C3 H31 116.3(15) no
C4 C3 H31 118.6(15) no
C3 C4 C5 108.40(14) yes
C3 C4 C6 105.11(15) yes
C5 C4 C6 107.88(15) yes
C3 C4 H41 114.1(13) no
C5 C4 H41 109.4(12) no
C6 C4 H41 111.8(13) no
C4 C5 F1 108.79(15) yes
C4 C5 O1 111.04(14) yes
F1 C5 O1 106.15(14) yes
C4 C5 H51 115.2(13) no
F1 C5 H51 106.0(14) no
O1 C5 H51 109.2(13) no
C4 C6 O2 109.09(15) yes
C4 C6 H61 113.9(15) no
O2 C6 H61 107.0(16) no
C4 C6 H62 109.6(14) no
O2 C6 H62 108.6(14) no
H61 C6 H62 108.4(19) no
loop_
_geom_bond_atom_site_label_1
_geom_bond_atom_site_label_2
_geom_bond_distance
_geom_bond_publ_flag
F1 C5 1.401(2) yes
O1 C1 1.417(2) yes
O1 C5 1.400(2) yes
O2 C1 1.411(2) yes
O2 C6 1.455(2) yes
O3 C2 1.444(2) yes
O3 C3 1.447(2) yes
C1 C2 1.519(3) yes
C1 H11 0.97(2) no
C2 C3 1.463(3) yes
C2 H21 0.97(3) no
C3 C4 1.512(2) yes
C3 H31 0.97(3) no
C4 C5 1.511(2) yes
C4 C6 1.526(2) yes
C4 H41 1.00(2) no
C5 H51 0.98(2) no
C6 H61 0.97(2) no
C6 H62 0.98(3) no
