#------------------------------------------------------------------------------
#$Date: 2016-03-26 15:38:22 +0200 (Sat, 26 Mar 2016) $
#$Revision: 180309 $
#$URL: svn://www.crystallography.net/cod/cif/7/15/23/7152393.cif $
#------------------------------------------------------------------------------
#
# This file is available in the Crystallography Open Database (COD),
# http://www.crystallography.net/
#
# All data on this site have been placed in the public domain by the
# contributors.
#
data_7152393
loop_
_publ_author_name
'Chevallier, Floris'
'Blin, Thomas'
'Nagaradja, Elisabeth'
'Lassagne, Fr\'ed\'eric'
'Roisnel, Thierry'
'Halauko, Yury S.'
'Matulis, Vadim E.'
'Ivashkevich, Oleg A.'
'Mongin, Florence'
_publ_section_title
;
 Deproto-metallation and computed CH acidity of 2-aryl-1,2,3-triazoles.
;
_journal_issue                   25
_journal_name_full               'Organic &amp; biomolecular chemistry'
_journal_page_first              4878
_journal_page_last               4885
_journal_paper_doi               10.1039/c2ob25554e
_journal_volume                  10
_journal_year                    2012
_chemical_absolute_configuration ad
_chemical_compound_source        'synthesis as described'
_chemical_formula_moiety         'C8 H4 Cl I2 N3'
_chemical_formula_sum            'C8 H4 Cl I2 N3'
_chemical_formula_weight         431.39
_chemical_name_systematic
;
?
;
_space_group_IT_number           33
_symmetry_cell_setting           orthorhombic
_symmetry_Int_Tables_number      33
_symmetry_space_group_name_Hall  'P -2n 2a'
_symmetry_space_group_name_H-M   'P 21 c n'
_atom_sites_solution_hydrogens   geom
_atom_sites_solution_primary     direct
_atom_sites_solution_secondary   difmap
_audit_conform_dict_location     ftp://ftp.iucr.org/pub/cif_core.dic
_audit_conform_dict_name         cif_core.dic
_audit_conform_dict_version      2.3
_audit_creation_date             2011-09-01T14:20:39-00:00
_audit_creation_method           'WinGX routine CIF_UPDATE'
_cell_angle_alpha                90
_cell_angle_beta                 90
_cell_angle_gamma                90
_cell_formula_units_Z            4
_cell_length_a                   7.8011(19)
_cell_length_b                   9.106(2)
_cell_length_c                   15.558(4)
_cell_measurement_reflns_used    9872
_cell_measurement_temperature    150(2)
_cell_measurement_theta_max      27.5
_cell_measurement_theta_min      2.59
_cell_measurement_wavelength     0.71073
_cell_volume                     1105.2(5)
_computing_cell_refinement       'Bruker APEX2 (Bruker, 2006)'
_computing_data_collection       'Bruker APEX2 (Bruker, 2006)'
_computing_data_reduction        'Bruker APEX2 (Bruker, 2006)'
_computing_molecular_graphics    'Ortep-3 for Windows (Farrugia, 1997)'
_computing_publication_material
;
WinGX publication routines (Farrugia, 1999),
CRYSCAL (T. Roisnel, local program)
;
_computing_structure_refinement  'SHELXL-97 (Sheldrick, 1997)'
_computing_structure_solution    'SIR97 (Altomare et al., 1999)'
_diffrn_ambient_temperature      150(2)
_diffrn_detector                 'CCD plate'
_diffrn_measured_fraction_theta_full 0.997
_diffrn_measured_fraction_theta_max 0.997
_diffrn_measurement_device_type  'APEXII, Bruker-AXS'
_diffrn_measurement_method       'CCD rotation images, thin slices'
_diffrn_radiation_monochromator  graphite
_diffrn_radiation_probe          x-ray
_diffrn_radiation_type           MoK\a
_diffrn_radiation_wavelength     0.71073
_diffrn_reflns_av_R_equivalents  0.0403
_diffrn_reflns_av_unetI/netI     0.0252
_diffrn_reflns_limit_h_max       10
_diffrn_reflns_limit_h_min       -10
_diffrn_reflns_limit_k_max       11
_diffrn_reflns_limit_k_min       -11
_diffrn_reflns_limit_l_max       19
_diffrn_reflns_limit_l_min       -20
_diffrn_reflns_number            16947
_diffrn_reflns_theta_full        27.47
_diffrn_reflns_theta_max         27.47
_diffrn_reflns_theta_min         3.44
_exptl_absorpt_coefficient_mu    5.896
_exptl_absorpt_correction_T_max  0.367
_exptl_absorpt_correction_T_min  0.228
_exptl_absorpt_correction_type   multi-scan
_exptl_absorpt_process_details
;
[Sheldrick, G.M. (2002). SADABS Bruker AXS Inc., Madison, Wisconsin, USA]
;
_exptl_crystal_colour            colourless
_exptl_crystal_density_diffrn    2.593
_exptl_crystal_density_method    'not measured'
_exptl_crystal_description       block
_exptl_crystal_F_000             784
_exptl_crystal_size_max          0.48
_exptl_crystal_size_mid          0.28
_exptl_crystal_size_min          0.17
_refine_diff_density_max         0.352
_refine_diff_density_min         -0.496
_refine_diff_density_rms         0.086
_refine_ls_abs_structure_details 'Flack H D (1983), Acta Cryst. A39, 876-881'
_refine_ls_abs_structure_Flack   0.01(2)
_refine_ls_extinction_method     none
_refine_ls_goodness_of_fit_ref   1.048
_refine_ls_hydrogen_treatment    constr
_refine_ls_matrix_type           full
_refine_ls_number_parameters     127
_refine_ls_number_reflns         2515
_refine_ls_number_restraints     1
_refine_ls_restrained_S_all      1.047
_refine_ls_R_factor_all          0.0182
_refine_ls_R_factor_gt           0.0178
_refine_ls_shift/su_max          0.03
_refine_ls_shift/su_mean         0.004
_refine_ls_structure_factor_coef Fsqd
_refine_ls_weighting_details
'calc w=1/[\s^2^(Fo^2^)+(0.0094P)^2^+1.5192P] where P=(Fo^2^+2Fc^2^)/3'
_refine_ls_weighting_scheme      calc
_refine_ls_wR_factor_gt          0.0386
_refine_ls_wR_factor_ref         0.0388
_reflns_number_gt                2480
_reflns_number_total             2515
_reflns_threshold_expression     >2sigma(I)
_cod_data_source_file            c2ob25554e.txt
_cod_data_source_block           job_e
_cod_database_code               7152393
loop_
_symmetry_equiv_pos_as_xyz
'x, y, z'
'x+1/2, -y, -z'
'x, -y+1/2, z+1/2'
'x+1/2, y+1/2, -z+1/2'
loop_
_atom_site_label
_atom_site_type_symbol
_atom_site_fract_x
_atom_site_fract_y
_atom_site_fract_z
_atom_site_U_iso_or_equiv
_atom_site_adp_type
_atom_site_occupancy
_atom_site_symmetry_multiplicity
_atom_site_calc_flag
_atom_site_refinement_flags
I1 I 0.66107(3) 1.04033(2) 0.574113(16) 0.02221(6) Uani 1 1 d .
I2 I 0.41614(3) 0.44871(2) 0.683937(14) 0.01914(6) Uani 1 1 d .
C1 C 0.4574(4) 0.9294(4) 0.6275(2) 0.0163(7) Uani 1 1 d .
C2 C 0.3619(5) 0.9687(4) 0.6995(2) 0.0194(8) Uani 1 1 d .
H2 H 0.3828 1.0515 0.7351 0.023 Uiso 1 1 calc R
N3 N 0.2354(4) 0.8706(3) 0.7105(2) 0.0212(7) Uani 1 1 d .
N4 N 0.2616(4) 0.7748(3) 0.64648(19) 0.0171(6) Uani 1 1 d .
N5 N 0.3928(4) 0.8061(3) 0.59386(19) 0.0185(6) Uani 1 1 d .
C6 C 0.1380(4) 0.6637(4) 0.6265(2) 0.0150(7) Uani 1 1 d .
C7 C 0.1812(5) 0.5157(4) 0.6334(2) 0.0150(6) Uani 1 1 d .
C8 C 0.0541(5) 0.4135(4) 0.6089(2) 0.0170(7) Uani 1 1 d .
C9 C -0.1068(6) 0.4580(4) 0.5812(2) 0.0218(8) Uani 1 1 d .
H9 H -0.1897 0.3869 0.5648 0.026 Uiso 1 1 calc R
C10 C -0.1467(5) 0.6066(4) 0.5774(2) 0.0212(8) Uani 1 1 d .
H10 H -0.2579 0.6358 0.5594 0.025 Uiso 1 1 calc R
C11 C -0.0304(4) 0.7102(3) 0.5988(2) 0.0130(7) Uani 1 1 d .
H11 H -0.0586 0.8115 0.5956 0.016 Uiso 1 1 calc R
Cl1 Cl 0.09237(13) 0.22765(10) 0.61767(7) 0.0296(2) Uani 1 1 d .
loop_
_atom_site_aniso_label
_atom_site_aniso_U_11
_atom_site_aniso_U_22
_atom_site_aniso_U_33
_atom_site_aniso_U_23
_atom_site_aniso_U_13
_atom_site_aniso_U_12
I1 0.01658(11) 0.01878(10) 0.03126(13) 0.00441(9) 0.00294(11) -0.00371(10)
I2 0.01460(10) 0.01924(10) 0.02357(12) 0.00112(8) -0.00250(10) 0.00138(11)
C1 0.0159(19) 0.0137(15) 0.0194(18) 0.0060(13) -0.0013(13) 0.0000(12)
C2 0.0213(19) 0.0156(16) 0.0212(19) -0.0005(14) 0.0046(15) -0.0001(13)
N3 0.0219(15) 0.0222(16) 0.0197(16) -0.0033(13) 0.0049(13) -0.0046(13)
N4 0.0187(15) 0.0144(14) 0.0181(15) 0.0008(12) 0.0047(12) -0.0009(11)
N5 0.0155(15) 0.0200(14) 0.0201(14) 0.0016(11) 0.0043(13) -0.0001(12)
C6 0.0119(18) 0.0181(15) 0.0151(16) 0.0004(12) 0.0013(14) -0.0029(13)
C7 0.0115(16) 0.0192(15) 0.0144(15) 0.0026(12) 0.0048(14) -0.0005(14)
C8 0.0185(18) 0.0155(15) 0.0171(18) 0.0006(14) 0.0005(14) -0.0008(14)
C9 0.022(2) 0.0251(19) 0.0182(17) -0.0008(13) -0.0035(17) -0.0053(16)
C10 0.0166(17) 0.030(2) 0.0169(19) 0.0065(15) -0.0036(14) 0.0036(15)
C11 0.0185(17) 0.0094(15) 0.0110(16) 0.0044(12) 0.0068(13) -0.0017(12)
Cl1 0.0287(5) 0.0154(4) 0.0446(6) -0.0006(4) -0.0077(5) -0.0030(3)
loop_
_atom_type_symbol
_atom_type_description
_atom_type_scat_dispersion_real
_atom_type_scat_dispersion_imag
_atom_type_scat_source
C C 0.0033 0.0016 'International Tables Vol C Tables 4.2.6.8 and 6.1.1.4'
H H 0 0 'International Tables Vol C Tables 4.2.6.8 and 6.1.1.4'
N N 0.0061 0.0033 'International Tables Vol C Tables 4.2.6.8 and 6.1.1.4'
Cl Cl 0.1484 0.1585 'International Tables Vol C Tables 4.2.6.8 and 6.1.1.4'
I I -0.4742 1.8119 'International Tables Vol C Tables 4.2.6.8 and 6.1.1.4'
loop_
_geom_angle_atom_site_label_1
_geom_angle_atom_site_label_2
_geom_angle_atom_site_label_3
_geom_angle
N5 C1 C2 109.2(3)
N5 C1 I1 123.0(3)
C2 C1 I1 127.7(3)
N3 C2 C1 109.0(3)
N3 C2 H2 125.5
C1 C2 H2 125.5
N4 N3 C2 103.1(3)
N5 N4 N3 115.6(3)
N5 N4 C6 122.1(3)
N3 N4 C6 121.3(3)
C1 N5 N4 103.1(3)
C7 C6 N4 120.2(3)
C7 C6 C11 121.8(3)
N4 C6 C11 118.0(3)
C6 C7 C8 116.6(3)
C6 C7 I2 121.6(3)
C8 C7 I2 121.7(2)
C9 C8 C7 121.7(3)
C9 C8 Cl1 117.9(3)
C7 C8 Cl1 120.3(3)
C10 C9 C8 120.0(3)
C10 C9 H9 120
C8 C9 H9 120
C11 C10 C9 121.3(3)
C11 C10 H10 119.4
C9 C10 H10 119.4
C10 C11 C6 118.6(3)
C10 C11 H11 120.7
C6 C11 H11 120.7
loop_
_geom_bond_atom_site_label_1
_geom_bond_atom_site_label_2
_geom_bond_distance
I1 C1 2.058(3)
I2 C7 2.086(4)
C1 N5 1.338(4)
C1 C2 1.392(5)
C2 N3 1.341(5)
C2 H2 0.95
N3 N4 1.340(4)
N4 N5 1.341(4)
N4 C6 1.432(4)
C6 C7 1.393(4)
C6 C11 1.446(5)
C7 C8 1.412(5)
C8 C9 1.388(6)
C8 Cl1 1.724(4)
C9 C10 1.390(5)
C9 H9 0.95
C10 C11 1.351(5)
C10 H10 0.95
C11 H11 0.95
loop_
_geom_torsion_atom_site_label_1
_geom_torsion_atom_site_label_2
_geom_torsion_atom_site_label_3
_geom_torsion_atom_site_label_4
_geom_torsion
N5 C1 C2 N3 -0.7(4)
I1 C1 C2 N3 177.0(3)
C1 C2 N3 N4 1.4(4)
C2 N3 N4 N5 -1.7(4)
C2 N3 N4 C6 -170.1(3)
C2 C1 N5 N4 -0.3(4)
I1 C1 N5 N4 -178.1(2)
N3 N4 N5 C1 1.2(4)
C6 N4 N5 C1 169.6(3)
N5 N4 C6 C7 74.1(4)
N3 N4 C6 C7 -118.2(4)
N5 N4 C6 C11 -105.4(4)
N3 N4 C6 C11 62.3(4)
N4 C6 C7 C8 -177.4(3)
C11 C6 C7 C8 2.1(5)
N4 C6 C7 I2 6.2(4)
C11 C6 C7 I2 -174.4(2)
C6 C7 C8 C9 -1.3(5)
I2 C7 C8 C9 175.2(3)
C6 C7 C8 Cl1 -178.2(2)
I2 C7 C8 Cl1 -1.8(4)
C7 C8 C9 C10 -0.4(5)
Cl1 C8 C9 C10 176.7(3)
C8 C9 C10 C11 1.3(6)
C9 C10 C11 C6 -0.4(5)
C7 C6 C11 C10 -1.3(5)
N4 C6 C11 C10 178.2(3)
