#------------------------------------------------------------------------------
#$Date: 2016-02-16 03:10:39 +0200 (Tue, 16 Feb 2016) $
#$Revision: 176453 $
#$URL: svn://www.crystallography.net/cod/cif/7/15/21/7152124.cif $
#------------------------------------------------------------------------------
#
# This file is available in the Crystallography Open Database (COD),
# http://www.crystallography.net/
#
# All data on this site have been placed in the public domain by the
# contributors.
#
data_7152124
loop_
_publ_author_name
'Karban, Jind\<rich'
'C\'isa\<rov\'a, Ivana'
'Stra\<s\'ak, Tom\'a\<s'
'\<S\<tastn\'a, Lucie \<Cervenkov\'a'
'S\'ykora, Jan'
_publ_section_title
;
 Skeletal rearrangements resulting from reactions of 1,6:2,3- and
 1,6:3,4-dianhydro-\b-D-hexopyranoses with diethylaminosulphur
 trifluoride.
;
_journal_issue                   2
_journal_name_full               'Organic &amp; biomolecular chemistry'
_journal_page_first              394
_journal_page_last               403
_journal_paper_doi               10.1039/c1ob06336g
_journal_volume                  10
_journal_year                    2012
_chemical_absolute_configuration unk
_chemical_formula_moiety         'C6 H7 F1 O3'
_chemical_formula_sum            'C6 H7 F O3'
_chemical_formula_weight         146.12
_space_group_IT_number           19
_symmetry_cell_setting           orthorhombic
_symmetry_space_group_name_Hall  'P 2ac 2ab'
_symmetry_space_group_name_H-M   'P 21 21 21'
_atom_sites_solution_hydrogens   geom
_atom_sites_solution_primary     direct
_audit_creation_date             11-06-29
_audit_creation_method           CRYSTALS_ver_12.82
_cell_angle_alpha                90
_cell_angle_beta                 90
_cell_angle_gamma                90
_cell_formula_units_Z            4
_cell_length_a                   6.3628(2)
_cell_length_b                   9.2072(3)
_cell_length_c                   10.1628(3)
_cell_measurement_reflns_used    839
_cell_measurement_temperature    150
_cell_measurement_theta_max      27
_cell_measurement_theta_min      3
_cell_volume                     595.37(3)
_computing_cell_refinement       'DENZO/SCALEPACK (Otwinowski & Minor, 1997)'
_computing_data_collection       'COLLECT. Nonius (1997-2001).'
_computing_data_reduction        'DENZO/SCALEPACK (Otwinowski & Minor, 1997)'
_computing_molecular_graphics    'CAMERON (Watkin et al., 1996)'
_computing_publication_material  'CRYSTALS (Betteridge et al., 2003)'
_computing_structure_refinement  'CRYSTALS (Betteridge et al., 2003)'
_computing_structure_solution    'SHELXS 86 (Sheldrick, 1986)'
_diffrn_ambient_temperature      150
_diffrn_measured_fraction_theta_full 0.999
_diffrn_measured_fraction_theta_max 0.999
_diffrn_measurement_device_type  'Nonius Kappa CCD'
_diffrn_measurement_method       '\f & \w scans'
_diffrn_radiation_monochromator  graphite
_diffrn_radiation_type           'Mo K\a'
_diffrn_radiation_wavelength     0.71073
_diffrn_reflns_av_R_equivalents  0.006
_diffrn_reflns_limit_h_max       8
_diffrn_reflns_limit_h_min       -8
_diffrn_reflns_limit_k_max       11
_diffrn_reflns_limit_k_min       -11
_diffrn_reflns_limit_l_max       13
_diffrn_reflns_limit_l_min       -13
_diffrn_reflns_number            1374
_diffrn_reflns_theta_full        27.507
_diffrn_reflns_theta_max         27.507
_diffrn_reflns_theta_min         2.985
_diffrn_standards_number         0
_exptl_absorpt_coefficient_mu    0.149
_exptl_absorpt_correction_T_max  0.96
_exptl_absorpt_correction_T_min  0.96
_exptl_absorpt_correction_type   numerical
_exptl_absorpt_process_details
;
Analytical Absorption (De Meulenaer & Tompa, 1965)
;
_exptl_crystal_colour            colourless
_exptl_crystal_density_diffrn    1.630
_exptl_crystal_description       prism
_exptl_crystal_F_000             304
_exptl_crystal_size_max          0.50
_exptl_crystal_size_mid          0.30
_exptl_crystal_size_min          0.25
_refine_diff_density_max         0.14
_refine_diff_density_min         -0.21
_refine_ls_extinction_method     None
_refine_ls_goodness_of_fit_ref   1.1757
_refine_ls_hydrogen_treatment    mixed
_refine_ls_matrix_type           full
_refine_ls_number_parameters     119
_refine_ls_number_reflns         722
_refine_ls_number_restraints     0
_refine_ls_R_factor_all          0.0347
_refine_ls_R_factor_gt           0.0295
_refine_ls_shift/su_max          0.000085
_refine_ls_structure_factor_coef F
_refine_ls_weighting_details
;
Method, part 1, Chebychev polynomial, (Watkin, 1994, Prince, 1982)
[weight] = 1.0/[A~0~*T~0~(x)+A~1~*T~1~(x) ... +A~n-1~]*T~n-1~(x)]
where A~i~ are the Chebychev coefficients listed below and x= Fcalc/Fmax
Method = Robust Weighting (Prince, 1982)
W = [weight] * [1-(deltaF/6*sigmaF)^2^]^2^
A~i~ are:
0.447 0.418 0.224
;
_refine_ls_weighting_scheme      calc
_refine_ls_wR_factor_all         0.0384
_refine_ls_wR_factor_gt          0.0341
_refine_ls_wR_factor_ref         0.0341
_reflns_limit_h_max              8
_reflns_limit_h_min              0
_reflns_limit_k_max              11
_reflns_limit_k_min              0
_reflns_limit_l_max              13
_reflns_limit_l_min              0
_reflns_number_gt                722
_reflns_number_total             824
_reflns_threshold_expression     I>1.96u(I)
_oxford_diffrn_Wilson_B_factor   0.00
_oxford_diffrn_Wilson_scale      0.00
_oxford_refine_ls_scale          0.800(2)
_cod_data_source_file            c1ob06336g.txt
_cod_data_source_block           CRYSTALS_cif11
_cod_depositor_comments
;
The following automatic conversions were performed:

'_symmetry_cell_setting' value 'Orthorhombic' changed to
'orthorhombic' according to
/home/saulius/struct/CIF-dictionaries/cif_core.dic dictionary named
'cif_core.dic' version 2.4.1 from 2010-06-29.

Automatic conversion script
Id: cif_fix_values 1715 2011-07-08 13:25:40Z adriana 
;
_cod_original_sg_symbol_H-M      'P 21 21 21 '
_cod_original_formula_sum        'C6 H7 F1 O3'
_cod_database_code               7152124
loop_
_symmetry_equiv_pos_as_xyz
x,y,z
x+1/2,-y+1/2,-z
-x,y+1/2,-z+1/2
-x+1/2,-y,z+1/2
loop_
_atom_site_label
_atom_site_type_symbol
_atom_site_fract_x
_atom_site_fract_y
_atom_site_fract_z
_atom_site_U_iso_or_equiv
_atom_site_occupancy
_atom_site_adp_type
F1 F 0.04768(18) -0.27825(15) -0.15222(11) 0.0403 1.0000 Uani
O1 O -0.2614(2) -0.16863(13) -0.19630(13) 0.0285 1.0000 Uani
O2 O -0.2596(2) -0.47527(12) -0.20130(12) 0.0258 1.0000 Uani
O3 O -0.3869(2) -0.21423(14) -0.44019(12) 0.0315 1.0000 Uani
C1 C -0.0964(3) -0.2465(2) -0.25246(18) 0.0281 1.0000 Uani
C2 C -0.1722(3) -0.39100(19) -0.30727(16) 0.0240 1.0000 Uani
C3 C -0.3475(3) -0.36508(18) -0.40473(17) 0.0258 1.0000 Uani
C4 C -0.5144(3) -0.2819(2) -0.34098(17) 0.0274 1.0000 Uani
C5 C -0.4547(3) -0.24848(17) -0.19831(18) 0.0243 1.0000 Uani
C6 C -0.4220(3) -0.3947(2) -0.13200(17) 0.0272 1.0000 Uani
H11 H -0.018(4) -0.186(2) -0.318(2) 0.030(5) 1.0000 Uiso
H21 H -0.057(3) -0.443(3) -0.338(2) 0.030(6) 1.0000 Uiso
H31 H -0.373(3) -0.435(2) -0.472(2) 0.027(5) 1.0000 Uiso
H41 H -0.665(4) -0.297(3) -0.356(2) 0.036(6) 1.0000 Uiso
H51 H -0.565(3) -0.189(2) -0.152(2) 0.028(5) 1.0000 Uiso
H61 H -0.547(3) -0.452(3) -0.136(2) 0.028(5) 1.0000 Uiso
H62 H -0.377(4) -0.382(3) -0.039(3) 0.038(6) 1.0000 Uiso
loop_
_atom_site_aniso_label
_atom_site_aniso_U_11
_atom_site_aniso_U_22
_atom_site_aniso_U_33
_atom_site_aniso_U_23
_atom_site_aniso_U_13
_atom_site_aniso_U_12
F1 0.0279(6) 0.0573(8) 0.0356(6) -0.0088(6) -0.0079(5) -0.0029(6)
O1 0.0289(6) 0.0235(5) 0.0329(6) -0.0072(5) 0.0054(6) -0.0032(5)
O2 0.0300(6) 0.0221(5) 0.0252(5) 0.0022(5) 0.0019(6) 0.0040(5)
O3 0.0385(7) 0.0301(6) 0.0260(6) 0.0068(5) 0.0046(6) 0.0078(6)
C1 0.0239(8) 0.0323(9) 0.0280(7) -0.0041(7) 0.0007(7) -0.0026(7)
C2 0.0246(8) 0.0247(7) 0.0228(7) -0.0018(7) 0.0020(7) 0.0024(6)
C3 0.0304(8) 0.0261(8) 0.0210(7) -0.0009(6) -0.0016(7) 0.0019(7)
C4 0.0259(8) 0.0310(9) 0.0253(8) 0.0024(7) 0.0003(6) 0.0037(7)
C5 0.0240(7) 0.0226(8) 0.0263(7) -0.0008(7) 0.0037(7) 0.0023(6)
C6 0.0315(9) 0.0244(8) 0.0259(7) 0.0022(7) 0.0045(8) 0.0025(7)
loop_
_atom_type_symbol
_atom_type_scat_dispersion_real
_atom_type_scat_dispersion_imag
_atom_type_scat_Cromer_Mann_a1
_atom_type_scat_Cromer_Mann_b1
_atom_type_scat_Cromer_Mann_a2
_atom_type_scat_Cromer_Mann_b2
_atom_type_scat_Cromer_Mann_a3
_atom_type_scat_Cromer_Mann_b3
_atom_type_scat_Cromer_Mann_a4
_atom_type_scat_Cromer_Mann_b4
_atom_type_scat_Cromer_Mann_c
_atom_type_scat_source
C 0.0033 0.0016 2.3100 20.8439 1.0200 10.2075 1.5886 0.5687 0.8650 51.6512
0.2156 'International Tables Vol C 4.2.6.8 and 6.1.1.4'
H 0.0000 0.0000 0.4930 10.5109 0.3229 26.1257 0.1402 3.1424 0.0408 57.7998
0.0030 'International Tables Vol C 4.2.6.8 and 6.1.1.4'
O 0.0106 0.0060 3.0485 13.2771 2.2868 5.7011 1.5463 0.3239 0.8670 32.9089
0.2508 'International Tables Vol C 4.2.6.8 and 6.1.1.4'
F 0.0171 0.0103 3.5392 10.2825 2.6412 4.2944 1.5170 0.2615 1.0243 26.1476
0.2776 'International Tables Vol C 4.2.6.8 and 6.1.1.4'
loop_
_geom_angle_atom_site_label_1
_geom_angle_atom_site_label_2
_geom_angle_atom_site_label_3
_geom_angle
_geom_angle_publ_flag
C1 O1 C5 112.15(12) yes
C2 O2 C6 111.22(12) yes
C3 O3 C4 60.64(12) yes
F1 C1 O1 107.61(14) yes
F1 C1 C2 106.92(15) yes
O1 C1 C2 111.13(14) yes
F1 C1 H11 105.8(13) no
O1 C1 H11 111.2(13) no
C2 C1 H11 113.8(13) no
C1 C2 O2 108.68(14) yes
C1 C2 C3 109.65(14) yes
O2 C2 C3 106.91(13) yes
C1 C2 H21 108.8(14) no
O2 C2 H21 106.4(14) no
C3 C2 H21 116.1(14) no
C2 C3 O3 116.10(14) yes
C2 C3 C4 109.18(15) yes
O3 C3 C4 58.99(11) yes
C2 C3 H31 119.4(13) no
O3 C3 H31 115.7(13) no
C4 C3 H31 123.3(14) no
C3 C4 O3 60.37(11) yes
C3 C4 C5 110.21(15) yes
O3 C4 C5 115.96(16) yes
C3 C4 H41 124.5(15) no
O3 C4 H41 120.0(15) no
C5 C4 H41 115.0(15) no
C4 C5 O1 109.25(14) yes
C4 C5 C6 106.01(14) yes
O1 C5 C6 109.32(14) yes
C4 C5 H51 112.2(12) no
O1 C5 H51 108.2(12) no
C6 C5 H51 111.8(13) no
C5 C6 O2 109.54(14) yes
C5 C6 H61 111.1(14) no
O2 C6 H61 106.7(13) no
C5 C6 H62 110.7(14) no
O2 C6 H62 108.4(14) no
H61 C6 H62 110(2) no
loop_
_geom_bond_atom_site_label_1
_geom_bond_atom_site_label_2
_geom_bond_distance
_geom_bond_publ_flag
F1 C1 1.401(2) yes
O1 C1 1.394(2) yes
O1 C5 1.433(2) yes
O2 C2 1.439(2) yes
O2 C6 1.454(2) yes
O3 C3 1.457(2) yes
O3 C4 1.436(2) yes
C1 C2 1.521(2) yes
C1 H11 1.00(2) no
C2 C3 1.510(2) yes
C2 H21 0.93(2) no
C3 C4 1.461(2) yes
C3 H31 0.95(2) no
C4 C5 1.530(3) yes
C4 H41 0.98(2) no
C5 C6 1.520(2) yes
C5 H51 1.00(2) no
C6 H61 0.95(2) no
C6 H62 0.99(3) no
