#------------------------------------------------------------------------------
#$Date: 2016-03-26 15:39:52 +0200 (Sat, 26 Mar 2016) $
#$Revision: 180310 $
#$URL: svn://www.crystallography.net/cod/cif/7/15/24/7152492.cif $
#------------------------------------------------------------------------------
#
# This file is available in the Crystallography Open Database (COD),
# http://www.crystallography.net/
#
# All data on this site have been placed in the public domain by the
# contributors.
#
data_7152492
loop_
_publ_author_name
'Hashimoto, Yoshimitsu'
'Takada, Akiomi'
'Takikawa, Hiroshi'
'Suzuki, Keisuke'
_publ_section_title
;
 Synthesis of isoxazoles en route to semi-aromatized polyketides:
 dehydrogenation of benzonitrile oxide-para-quinone acetal cycloadducts.
;
_journal_issue                   30
_journal_name_full               'Organic &amp; biomolecular chemistry'
_journal_page_first              6003
_journal_page_last               6009
_journal_paper_doi               10.1039/c2ob25423a
_journal_volume                  10
_journal_year                    2012
_chemical_formula_moiety         'C13 H15 N O5'
_chemical_formula_sum            'C13 H15 N O5'
_chemical_formula_weight         265.26
_chemical_name_systematic
;
?
;
_space_group_IT_number           2
_symmetry_cell_setting           triclinic
_symmetry_space_group_name_Hall  '-P 1'
_symmetry_space_group_name_H-M   'P -1'
_atom_sites_solution_hydrogens   geom
_atom_sites_solution_primary     direct
_atom_sites_solution_secondary   difmap
_audit_creation_method           SHELXL-97
_cell_angle_alpha                108.968(5)
_cell_angle_beta                 103.816(6)
_cell_angle_gamma                94.519(6)
_cell_formula_units_Z            2
_cell_length_a                   8.4243(18)
_cell_length_b                   8.6769(16)
_cell_length_c                   9.1730(17)
_cell_measurement_reflns_used    6003
_cell_measurement_temperature    169(2)
_cell_measurement_theta_max      27.47
_cell_measurement_theta_min      3.25
_cell_volume                     606.8(2)
_computing_cell_refinement       'PROCESS-AUTO (Rigaku, 1998)'
_computing_data_collection       'PROCESS-AUTO (Rigaku, 1998)'
_computing_data_reduction        'PROCESS-AUTO (Rigaku, 1998)'
_computing_molecular_graphics    'ORTEP-3 (Farrugia, 2008)'
_computing_publication_material  'SHELXL-97 (Sheldrick, 1997)'
_computing_structure_refinement  'SHELXL-97 (Sheldrick, 1997)'
_computing_structure_solution    'SIR-2004 (Burla, 2005)'
_diffrn_ambient_temperature      169(2)
_diffrn_measured_fraction_theta_full 0.989
_diffrn_measured_fraction_theta_max 0.989
_diffrn_measurement_device_type  'Rigaku R-AXIS RAPID IP Area Detector System'
_diffrn_measurement_method       '\w scans'
_diffrn_radiation_monochromator  graphite
_diffrn_radiation_source         'rotating anode X-ray tube'
_diffrn_radiation_type           MoK\a
_diffrn_radiation_wavelength     0.71075
_diffrn_reflns_av_R_equivalents  0.0279
_diffrn_reflns_av_sigmaI/netI    0.0307
_diffrn_reflns_limit_h_max       10
_diffrn_reflns_limit_h_min       -10
_diffrn_reflns_limit_k_max       11
_diffrn_reflns_limit_k_min       -11
_diffrn_reflns_limit_l_max       11
_diffrn_reflns_limit_l_min       -11
_diffrn_reflns_number            6003
_diffrn_reflns_theta_full        27.47
_diffrn_reflns_theta_max         27.47
_diffrn_reflns_theta_min         3.25
_diffrn_standards_number         3
_exptl_absorpt_coefficient_mu    0.112
_exptl_absorpt_correction_T_max  0.9779
_exptl_absorpt_correction_T_min  0.9459
_exptl_absorpt_correction_type   multi-scan
_exptl_absorpt_process_details   'absorption was corrected by ABSCOR'
_exptl_crystal_colour            colorless
_exptl_crystal_density_diffrn    1.452
_exptl_crystal_density_method    'not measured'
_exptl_crystal_description       block
_exptl_crystal_F_000             280
_exptl_crystal_size_max          0.50
_exptl_crystal_size_mid          0.30
_exptl_crystal_size_min          0.20
_refine_diff_density_max         0.235
_refine_diff_density_min         -0.335
_refine_diff_density_rms         0.077
_refine_ls_extinction_method     none
_refine_ls_goodness_of_fit_ref   1.057
_refine_ls_hydrogen_treatment    constr
_refine_ls_matrix_type           full
_refine_ls_number_parameters     172
_refine_ls_number_reflns         2747
_refine_ls_number_restraints     0
_refine_ls_restrained_S_all      1.057
_refine_ls_R_factor_all          0.0467
_refine_ls_R_factor_gt           0.0406
_refine_ls_shift/su_max          0.000
_refine_ls_shift/su_mean         0.000
_refine_ls_structure_factor_coef Fsqd
_refine_ls_weighting_details
'calc w=1/[\s^2^(Fo^2^)+(0.0669P)^2^+0.0774P] where P=(Fo^2^+2Fc^2^)/3'
_refine_ls_weighting_scheme      calc
_refine_ls_wR_factor_gt          0.1068
_refine_ls_wR_factor_ref         0.1100
_reflns_number_gt                2312
_reflns_number_total             2747
_reflns_threshold_expression     >2sigma(I)
_cod_data_source_file            c2ob25423a.txt
_cod_data_source_block           shelxl_2a
_cod_database_code               7152492
loop_
_symmetry_equiv_pos_as_xyz
'x, y, z'
'-x, -y, -z'
loop_
_atom_site_label
_atom_site_type_symbol
_atom_site_fract_x
_atom_site_fract_y
_atom_site_fract_z
_atom_site_U_iso_or_equiv
_atom_site_adp_type
_atom_site_occupancy
_atom_site_symmetry_multiplicity
_atom_site_calc_flag
_atom_site_refinement_flags
O1 O 0.21767(11) 0.47909(10) 0.80480(9) 0.0261(2) Uani 1 1 d .
O2 O 0.47281(13) 0.07639(13) 0.68033(13) 0.0427(3) Uani 1 1 d .
O3 O 0.19262(10) 0.18386(9) 0.21324(10) 0.0246(2) Uani 1 1 d .
O4 O 0.35792(10) 0.38830(9) 0.17587(9) 0.0249(2) Uani 1 1 d .
O5 O 0.11045(11) 0.83170(10) 0.50253(10) 0.0268(2) Uani 1 1 d .
N1 N 0.40652(12) 0.18183(12) 0.63553(12) 0.0262(2) Uani 1 1 d .
C1 C 0.21714(13) 0.52257(13) 0.67471(13) 0.0205(2) Uani 1 1 d .
C2 C 0.27910(13) 0.41315(13) 0.55833(13) 0.0197(2) Uani 1 1 d .
C3 C 0.27965(13) 0.44429(13) 0.41848(12) 0.0193(2) Uani 1 1 d .
C4 C 0.22792(13) 0.58588(13) 0.39727(13) 0.0207(2) Uani 1 1 d .
H4 H 0.2330 0.6093 0.3041 0.025 Uiso 1 1 calc R
C5 C 0.16857(13) 0.69311(13) 0.51416(13) 0.0206(2) Uani 1 1 d .
C6 C 0.16147(13) 0.66121(13) 0.65243(13) 0.0216(2) Uani 1 1 d .
H6 H 0.1189 0.7340 0.7303 0.026 Uiso 1 1 calc R
C7 C 0.34407(14) 0.27652(14) 0.59073(13) 0.0236(2) Uani 1 1 d .
C8 C 0.32777(13) 0.31736(13) 0.28623(12) 0.0199(2) Uani 1 1 d .
H8 H 0.4296 0.2782 0.3330 0.024 Uiso 1 1 calc R
C9 C 0.23099(15) 0.05354(14) 0.08879(14) 0.0278(3) Uani 1 1 d .
H9A H 0.1356 -0.0386 0.0372 0.033 Uiso 1 1 calc R
H9B H 0.3280 0.0107 0.1363 0.033 Uiso 1 1 calc R
C10 C 0.26877(16) 0.11876(15) -0.03582(14) 0.0290(3) Uani 1 1 d .
H10A H 0.3058 0.0325 -0.1153 0.035 Uiso 1 1 calc R
H10B H 0.1677 0.1487 -0.0933 0.035 Uiso 1 1 calc R
C11 C 0.40392(16) 0.26960(14) 0.04791(14) 0.0276(3) Uani 1 1 d .
H11A H 0.5091 0.2363 0.0924 0.033 Uiso 1 1 calc R
H11B H 0.4215 0.3205 -0.0304 0.033 Uiso 1 1 calc R
C12 C 0.16613(16) 0.58999(15) 0.93175(14) 0.0285(3) Uani 1 1 d .
H12A H 0.0514 0.6029 0.8903 0.034 Uiso 1 1 calc R
H12B H 0.2386 0.6979 0.9740 0.034 Uiso 1 1 calc R
H12C H 0.1731 0.5451 1.0178 0.034 Uiso 1 1 calc R
C13 C 0.11895(16) 0.87260(14) 0.36513(15) 0.0290(3) Uani 1 1 d .
H13A H 0.2346 0.8873 0.3624 0.035 Uiso 1 1 calc R
H13B H 0.0755 0.9754 0.3716 0.035 Uiso 1 1 calc R
H13C H 0.0526 0.7831 0.2673 0.035 Uiso 1 1 calc R
loop_
_atom_site_aniso_label
_atom_site_aniso_U_11
_atom_site_aniso_U_22
_atom_site_aniso_U_33
_atom_site_aniso_U_23
_atom_site_aniso_U_13
_atom_site_aniso_U_12
O1 0.0378(5) 0.0261(4) 0.0188(4) 0.0099(3) 0.0126(3) 0.0081(3)
O2 0.0484(6) 0.0515(6) 0.0497(6) 0.0363(5) 0.0204(5) 0.0301(5)
O3 0.0252(4) 0.0196(4) 0.0270(4) 0.0034(3) 0.0106(3) 0.0032(3)
O4 0.0345(5) 0.0229(4) 0.0200(4) 0.0071(3) 0.0132(3) 0.0054(3)
O5 0.0336(5) 0.0250(4) 0.0288(4) 0.0131(3) 0.0140(4) 0.0134(3)
N1 0.0293(5) 0.0315(5) 0.0238(5) 0.0140(4) 0.0109(4) 0.0112(4)
C1 0.0208(5) 0.0226(5) 0.0173(5) 0.0069(4) 0.0048(4) 0.0010(4)
C2 0.0197(5) 0.0198(5) 0.0185(5) 0.0062(4) 0.0042(4) 0.0034(4)
C3 0.0171(5) 0.0216(5) 0.0178(5) 0.0056(4) 0.0045(4) 0.0030(4)
C4 0.0214(5) 0.0234(5) 0.0180(5) 0.0083(4) 0.0054(4) 0.0042(4)
C5 0.0191(5) 0.0197(5) 0.0228(5) 0.0078(4) 0.0051(4) 0.0038(4)
C6 0.0226(5) 0.0214(5) 0.0197(5) 0.0044(4) 0.0078(4) 0.0037(4)
C7 0.0263(6) 0.0251(6) 0.0201(5) 0.0085(4) 0.0069(4) 0.0051(4)
C8 0.0195(5) 0.0225(5) 0.0178(5) 0.0074(4) 0.0048(4) 0.0048(4)
C9 0.0295(6) 0.0205(6) 0.0286(6) 0.0019(5) 0.0086(5) 0.0057(4)
C10 0.0311(6) 0.0311(6) 0.0193(5) 0.0024(5) 0.0048(5) 0.0103(5)
C11 0.0344(6) 0.0297(6) 0.0204(5) 0.0062(5) 0.0134(5) 0.0081(5)
C12 0.0341(6) 0.0333(6) 0.0212(5) 0.0091(5) 0.0139(5) 0.0074(5)
C13 0.0361(7) 0.0263(6) 0.0300(6) 0.0148(5) 0.0104(5) 0.0119(5)
loop_
_atom_type_symbol
_atom_type_description
_atom_type_scat_dispersion_real
_atom_type_scat_dispersion_imag
_atom_type_scat_source
C C 0.0033 0.0016 'International Tables Vol C Tables 4.2.6.8 and 6.1.1.4'
H H 0.0000 0.0000 'International Tables Vol C Tables 4.2.6.8 and 6.1.1.4'
N N 0.0061 0.0033 'International Tables Vol C Tables 4.2.6.8 and 6.1.1.4'
O O 0.0106 0.0060 'International Tables Vol C Tables 4.2.6.8 and 6.1.1.4'
loop_
_geom_angle_atom_site_label_1
_geom_angle_atom_site_label_2
_geom_angle_atom_site_label_3
_geom_angle
C1 O1 C12 117.59(9)
C8 O3 C9 110.00(8)
C8 O4 C11 110.67(8)
C5 O5 C13 117.29(8)
C7 N1 O2 178.44(12)
O1 C1 C6 124.68(10)
O1 C1 C2 114.79(9)
C6 C1 C2 120.53(10)
C3 C2 C1 119.24(10)
C3 C2 C7 122.18(10)
C1 C2 C7 118.54(9)
C4 C3 C2 120.46(9)
C4 C3 C8 120.36(9)
C2 C3 C8 119.08(9)
C3 C4 C5 119.36(10)
C3 C4 H4 120.3
C5 C4 H4 120.3
O5 C5 C4 123.92(10)
O5 C5 C6 115.00(9)
C4 C5 C6 121.07(10)
C1 C6 C5 119.26(10)
C1 C6 H6 120.4
C5 C6 H6 120.4
N1 C7 C2 171.24(12)
O4 C8 O3 111.44(9)
O4 C8 C3 109.47(8)
O3 C8 C3 106.34(8)
O4 C8 H8 109.8
O3 C8 H8 109.8
C3 C8 H8 109.8
O3 C9 C10 109.98(9)
O3 C9 H9A 109.7
C10 C9 H9A 109.7
O3 C9 H9B 109.7
C10 C9 H9B 109.7
H9A C9 H9B 108.2
C11 C10 C9 108.79(9)
C11 C10 H10A 109.9
C9 C10 H10A 109.9
C11 C10 H10B 109.9
C9 C10 H10B 109.9
H10A C10 H10B 108.3
O4 C11 C10 110.11(9)
O4 C11 H11A 109.6
C10 C11 H11A 109.6
O4 C11 H11B 109.6
C10 C11 H11B 109.6
H11A C11 H11B 108.2
O1 C12 H12A 109.5
O1 C12 H12B 109.5
H12A C12 H12B 109.5
O1 C12 H12C 109.5
H12A C12 H12C 109.5
H12B C12 H12C 109.5
O5 C13 H13A 109.5
O5 C13 H13B 109.5
H13A C13 H13B 109.5
O5 C13 H13C 109.5
H13A C13 H13C 109.5
H13B C13 H13C 109.5
loop_
_geom_bond_atom_site_label_1
_geom_bond_atom_site_label_2
_geom_bond_distance
O1 C1 1.3626(13)
O1 C12 1.4315(13)
O2 N1 1.2381(13)
O3 C8 1.4178(13)
O3 C9 1.4426(13)
O4 C8 1.4041(13)
O4 C11 1.4433(13)
O5 C5 1.3596(13)
O5 C13 1.4316(14)
N1 C7 1.1424(15)
C1 C6 1.3827(15)
C1 C2 1.4138(14)
C2 C3 1.3953(15)
C2 C7 1.4308(15)
C3 C4 1.3915(14)
C3 C8 1.5118(14)
C4 C5 1.3950(15)
C4 H4 0.9500
C5 C6 1.3967(16)
C6 H6 0.9500
C8 H8 1.0000
C9 C10 1.5146(18)
C9 H9A 0.9900
C9 H9B 0.9900
C10 C11 1.5143(17)
C10 H10A 0.9900
C10 H10B 0.9900
C11 H11A 0.9900
C11 H11B 0.9900
C12 H12A 0.9800
C12 H12B 0.9800
C12 H12C 0.9800
C13 H13A 0.9800
C13 H13B 0.9800
C13 H13C 0.9800
loop_
_geom_torsion_atom_site_label_1
_geom_torsion_atom_site_label_2
_geom_torsion_atom_site_label_3
_geom_torsion_atom_site_label_4
_geom_torsion
C12 O1 C1 C6 -3.90(16)
C12 O1 C1 C2 176.22(9)
O1 C1 C2 C3 178.28(9)
C6 C1 C2 C3 -1.60(16)
O1 C1 C2 C7 -3.63(15)
C6 C1 C2 C7 176.48(10)
C1 C2 C3 C4 3.31(16)
C7 C2 C3 C4 -174.70(10)
C1 C2 C3 C8 -173.20(9)
C7 C2 C3 C8 8.79(16)
C2 C3 C4 C5 -2.76(16)
C8 C3 C4 C5 173.70(9)
C13 O5 C5 C4 -3.14(16)
C13 O5 C5 C6 178.38(10)
C3 C4 C5 O5 -177.91(10)
C3 C4 C5 C6 0.48(16)
O1 C1 C6 C5 179.50(10)
C2 C1 C6 C5 -0.63(16)
O5 C5 C6 C1 179.73(9)
C4 C5 C6 C1 1.20(17)
O2 N1 C7 C2 -171(4)
C3 C2 C7 N1 131.6(7)
C1 C2 C7 N1 -46.4(8)
C11 O4 C8 O3 -62.55(11)
C11 O4 C8 C3 -179.90(8)
C9 O3 C8 O4 62.95(11)
C9 O3 C8 C3 -177.82(8)
C4 C3 C8 O4 17.28(13)
C2 C3 C8 O4 -166.21(9)
C4 C3 C8 O3 -103.24(11)
C2 C3 C8 O3 73.27(12)
C8 O3 C9 C10 -58.50(12)
O3 C9 C10 C11 54.01(12)
C8 O4 C11 C10 57.65(12)
C9 C10 C11 O4 -53.31(12)
