#------------------------------------------------------------------------------
#$Date: 2016-02-16 03:10:39 +0200 (Tue, 16 Feb 2016) $
#$Revision: 176453 $
#$URL: svn://www.crystallography.net/cod/cif/7/15/21/7152128.cif $
#------------------------------------------------------------------------------
#
# This file is available in the Crystallography Open Database (COD),
# http://www.crystallography.net/
#
# All data on this site have been placed in the public domain by the
# contributors.
#
data_7152128
loop_
_publ_author_name
'Karban, Jind\<rich'
'C\'isa\<rov\'a, Ivana'
'Stra\<s\'ak, Tom\'a\<s'
'\<S\<tastn\'a, Lucie \<Cervenkov\'a'
'S\'ykora, Jan'
_publ_section_title
;
 Skeletal rearrangements resulting from reactions of 1,6:2,3- and
 1,6:3,4-dianhydro-\b-D-hexopyranoses with diethylaminosulphur
 trifluoride.
;
_journal_issue                   2
_journal_name_full               'Organic &amp; biomolecular chemistry'
_journal_page_first              394
_journal_page_last               403
_journal_paper_doi               10.1039/c1ob06336g
_journal_volume                  10
_journal_year                    2012
_chemical_absolute_configuration unk
_chemical_formula_moiety         'C6 H7 F1 O3'
_chemical_formula_sum            'C6 H7 F O3'
_chemical_formula_weight         146.12
_space_group_IT_number           19
_symmetry_cell_setting           orthorhombic
_symmetry_space_group_name_Hall  'P 2ac 2ab'
_symmetry_space_group_name_H-M   'P 21 21 21'
_atom_sites_solution_hydrogens   geom
_atom_sites_solution_primary     direct
_audit_creation_date             11-06-29
_audit_creation_method           CRYSTALS_ver_12.82
_cell_angle_alpha                90
_cell_angle_beta                 90
_cell_angle_gamma                90
_cell_formula_units_Z            4
_cell_length_a                   6.3457(2)
_cell_length_b                   7.8536(4)
_cell_length_c                   12.1288(5)
_cell_measurement_reflns_used    828
_cell_measurement_temperature    293
_cell_measurement_theta_max      27
_cell_measurement_theta_min      3
_cell_volume                     604.46(4)
_computing_cell_refinement       'DENZO/SCALEPACK (Otwinowski & Minor, 1997)'
_computing_data_collection       'COLLECT. Nonius (1997-2001).'
_computing_data_reduction        'DENZO/SCALEPACK (Otwinowski & Minor, 1997)'
_computing_molecular_graphics    'CAMERON (Watkin et al., 1996)'
_computing_publication_material  'CRYSTALS (Betteridge et al., 2003)'
_computing_structure_refinement  'CRYSTALS (Betteridge et al., 2003)'
_computing_structure_solution    'SHELXS 86 (Sheldrick, 1986)'
_diffrn_ambient_temperature      293
_diffrn_measured_fraction_theta_full 1.000
_diffrn_measured_fraction_theta_max 1.000
_diffrn_measurement_device_type  'Nonius Kappa CCD'
_diffrn_measurement_method       '\f & \w scans'
_diffrn_radiation_monochromator  graphite
_diffrn_radiation_type           'Mo K\a'
_diffrn_radiation_wavelength     0.71073
_diffrn_reflns_av_R_equivalents  0.007
_diffrn_reflns_limit_h_max       8
_diffrn_reflns_limit_h_min       -8
_diffrn_reflns_limit_k_max       10
_diffrn_reflns_limit_k_min       -10
_diffrn_reflns_limit_l_max       15
_diffrn_reflns_limit_l_min       -15
_diffrn_reflns_number            1379
_diffrn_reflns_theta_full        27.456
_diffrn_reflns_theta_max         27.456
_diffrn_reflns_theta_min         3.090
_diffrn_standards_number         0
_exptl_absorpt_coefficient_mu    0.147
_exptl_absorpt_correction_T_max  0.96
_exptl_absorpt_correction_T_min  0.96
_exptl_absorpt_correction_type   numerical
_exptl_absorpt_process_details
;
Analytical Absorption (De Meulenaer & Tompa, 1965)
;
_exptl_crystal_colour            colourless
_exptl_crystal_density_diffrn    1.606
_exptl_crystal_description       prism
_exptl_crystal_F_000             304
_exptl_crystal_size_max          0.27
_exptl_crystal_size_mid          0.25
_exptl_crystal_size_min          0.25
_refine_diff_density_max         0.13
_refine_diff_density_min         -0.17
_refine_ls_extinction_method     None
_refine_ls_goodness_of_fit_ref   1.1513
_refine_ls_hydrogen_treatment    mixed
_refine_ls_matrix_type           full
_refine_ls_number_parameters     119
_refine_ls_number_reflns         745
_refine_ls_number_restraints     0
_refine_ls_R_factor_all          0.0317
_refine_ls_R_factor_gt           0.0281
_refine_ls_shift/su_max          0.000140
_refine_ls_structure_factor_coef F
_refine_ls_weighting_details
;
Method, part 1, Chebychev polynomial, (Watkin, 1994, Prince, 1982)
[weight] = 1.0/[A~0~*T~0~(x)+A~1~*T~1~(x) ... +A~n-1~]*T~n-1~(x)]
where A~i~ are the Chebychev coefficients listed below and x= Fcalc/Fmax
Method = Robust Weighting (Prince, 1982)
W = [weight] * [1-(deltaF/6*sigmaF)^2^]^2^
A~i~ are:
0.285 0.114 0.446E-01
;
_refine_ls_weighting_scheme      calc
_refine_ls_wR_factor_all         0.0351
_refine_ls_wR_factor_gt          0.0295
_refine_ls_wR_factor_ref         0.0295
_reflns_limit_h_max              8
_reflns_limit_h_min              0
_reflns_limit_k_max              10
_reflns_limit_k_min              0
_reflns_limit_l_max              15
_reflns_limit_l_min              0
_reflns_number_gt                745
_reflns_number_total             828
_reflns_threshold_expression     I>1.96u(I)
_oxford_diffrn_Wilson_B_factor   0.00
_oxford_diffrn_Wilson_scale      0.00
_oxford_refine_ls_scale          0.935(2)
_cod_data_source_file            c1ob06336g.txt
_cod_data_source_block           CRYSTALS_cif15
_cod_depositor_comments
;
The following automatic conversions were performed:

'_symmetry_cell_setting' value 'Orthorhombic' changed to
'orthorhombic' according to
/home/saulius/struct/CIF-dictionaries/cif_core.dic dictionary named
'cif_core.dic' version 2.4.1 from 2010-06-29.

Automatic conversion script
Id: cif_fix_values 1715 2011-07-08 13:25:40Z adriana 
;
_cod_original_sg_symbol_H-M      'P 21 21 21 '
_cod_original_formula_sum        'C6 H7 F1 O3'
_cod_database_code               7152128
loop_
_symmetry_equiv_pos_as_xyz
x,y,z
x+1/2,-y+1/2,-z
-x,y+1/2,-z+1/2
-x+1/2,-y,z+1/2
loop_
_atom_site_label
_atom_site_type_symbol
_atom_site_fract_x
_atom_site_fract_y
_atom_site_fract_z
_atom_site_U_iso_or_equiv
_atom_site_occupancy
_atom_site_adp_type
F1 F 1.0274(2) -0.11470(18) 0.05543(11) 0.0396 1.0000 Uani
O1 O 0.7151(2) 0.25926(16) 0.10827(10) 0.0262 1.0000 Uani
O2 O 0.47723(19) 0.05938(18) 0.15603(11) 0.0285 1.0000 Uani
O3 O 0.8010(2) -0.07725(16) 0.26786(10) 0.0261 1.0000 Uani
C1 C 0.6124(3) 0.1849(3) 0.20093(14) 0.0258 1.0000 Uani
C2 C 0.7773(3) 0.1051(2) 0.27656(14) 0.0243 1.0000 Uani
C3 C 0.9649(3) 0.0312(2) 0.22475(16) 0.0259 1.0000 Uani
C4 C 0.9797(3) 0.0450(2) 0.10186(16) 0.0265 1.0000 Uani
C5 C 0.7776(3) 0.1100(2) 0.04819(15) 0.0241 1.0000 Uani
C6 C 0.5848(3) -0.0052(3) 0.05984(16) 0.0277 1.0000 Uani
H11 H 0.522(4) 0.272(3) 0.2423(19) 0.038(6) 1.0000 Uiso
H21 H 0.775(3) 0.148(2) 0.3521(15) 0.019(5) 1.0000 Uiso
H31 H 1.095(3) 0.030(3) 0.2639(18) 0.029(6) 1.0000 Uiso
H41 H 1.103(4) 0.121(3) 0.0841(17) 0.029(6) 1.0000 Uiso
H51 H 0.810(3) 0.144(3) -0.0300(16) 0.023(5) 1.0000 Uiso
H61 H 0.629(4) -0.129(3) 0.0712(19) 0.038(7) 1.0000 Uiso
H62 H 0.488(4) 0.012(3) -0.0032(19) 0.043(7) 1.0000 Uiso
loop_
_atom_site_aniso_label
_atom_site_aniso_U_11
_atom_site_aniso_U_22
_atom_site_aniso_U_33
_atom_site_aniso_U_23
_atom_site_aniso_U_13
_atom_site_aniso_U_12
F1 0.0431(7) 0.0359(6) 0.0399(6) -0.0010(5) 0.0072(6) 0.0175(6)
O1 0.0312(7) 0.0215(6) 0.0260(6) 0.0027(5) 0.0001(6) 0.0052(6)
O2 0.0190(6) 0.0383(8) 0.0282(6) -0.0046(6) 0.0010(5) -0.0021(6)
O3 0.0263(6) 0.0241(6) 0.0279(6) 0.0054(6) 0.0008(6) -0.0032(6)
C1 0.0244(8) 0.0286(9) 0.0242(8) -0.0038(7) 0.0002(7) 0.0000(9)
C2 0.0268(8) 0.0245(9) 0.0215(7) 0.0003(7) -0.0004(8) -0.0017(8)
C3 0.0198(8) 0.0291(9) 0.0287(9) 0.0075(8) -0.0032(7) -0.0033(8)
C4 0.0236(8) 0.0251(9) 0.0307(9) 0.0046(8) 0.0042(8) 0.0021(8)
C5 0.0270(8) 0.0234(9) 0.0218(8) 0.0019(7) 0.0007(7) 0.0034(8)
C6 0.0247(8) 0.0340(11) 0.0243(8) -0.0059(8) -0.0033(7) 0.0006(9)
loop_
_atom_type_symbol
_atom_type_scat_dispersion_real
_atom_type_scat_dispersion_imag
_atom_type_scat_Cromer_Mann_a1
_atom_type_scat_Cromer_Mann_b1
_atom_type_scat_Cromer_Mann_a2
_atom_type_scat_Cromer_Mann_b2
_atom_type_scat_Cromer_Mann_a3
_atom_type_scat_Cromer_Mann_b3
_atom_type_scat_Cromer_Mann_a4
_atom_type_scat_Cromer_Mann_b4
_atom_type_scat_Cromer_Mann_c
_atom_type_scat_source
C 0.0033 0.0016 2.3100 20.8439 1.0200 10.2075 1.5886 0.5687 0.8650 51.6512
0.2156 'International Tables Vol C 4.2.6.8 and 6.1.1.4'
H 0.0000 0.0000 0.4930 10.5109 0.3229 26.1257 0.1402 3.1424 0.0408 57.7998
0.0030 'International Tables Vol C 4.2.6.8 and 6.1.1.4'
O 0.0106 0.0060 3.0485 13.2771 2.2868 5.7011 1.5463 0.3239 0.8670 32.9089
0.2508 'International Tables Vol C 4.2.6.8 and 6.1.1.4'
F 0.0171 0.0103 3.5392 10.2825 2.6412 4.2944 1.5170 0.2615 1.0243 26.1476
0.2776 'International Tables Vol C 4.2.6.8 and 6.1.1.4'
loop_
_geom_angle_atom_site_label_1
_geom_angle_atom_site_label_2
_geom_angle_atom_site_label_3
_geom_angle
_geom_angle_publ_flag
C1 O1 C5 101.07(13) yes
C1 O2 C6 105.60(13) yes
C2 O3 C3 61.05(12) yes
O1 C1 O2 105.02(14) yes
O1 C1 C2 109.22(15) yes
O2 C1 C2 111.13(16) yes
O1 C1 H11 111.7(13) no
O2 C1 H11 108.3(14) no
C2 C1 H11 111.3(13) no
C1 C2 O3 115.80(16) yes
C1 C2 C3 117.49(15) yes
O3 C2 C3 59.43(12) yes
C1 C2 H21 114.4(12) no
O3 C2 H21 114.5(11) no
C3 C2 H21 123.3(12) no
C2 C3 O3 59.52(11) yes
C2 C3 C4 116.67(16) yes
O3 C3 C4 116.65(16) yes
C2 C3 H31 119.8(13) no
O3 C3 H31 115.9(13) no
C4 C3 H31 116.2(13) no
C3 C4 F1 110.31(16) yes
C3 C4 C5 113.35(16) yes
F1 C4 C5 107.95(17) yes
C3 C4 H41 107.7(12) no
F1 C4 H41 106.0(13) no
C5 C4 H41 111.3(12) no
C4 C5 O1 106.76(15) yes
C4 C5 C6 115.83(16) yes
O1 C5 C6 102.42(15) yes
C4 C5 H51 108.5(12) no
O1 C5 H51 108.7(11) no
C6 C5 H51 114.0(12) no
C5 C6 O2 104.21(15) yes
C5 C6 H61 110.9(14) no
O2 C6 H61 110.8(14) no
C5 C6 H62 110.2(14) no
O2 C6 H62 106.6(14) no
H61 C6 H62 114(2) no
loop_
_geom_bond_atom_site_label_1
_geom_bond_atom_site_label_2
_geom_bond_distance
_geom_bond_publ_flag
F1 C4 1.408(2) yes
O1 C1 1.424(2) yes
O1 C5 1.436(2) yes
O2 C1 1.416(2) yes
O2 C6 1.443(2) yes
O3 C2 1.444(2) yes
O3 C3 1.443(2) yes
C1 C2 1.526(3) yes
C1 H11 1.02(2) no
C2 C3 1.466(3) yes
C2 H21 0.978(19) no
C3 C4 1.497(3) yes
C3 H31 0.96(2) no
C4 C5 1.526(3) yes
C4 H41 1.01(2) no
C5 C6 1.528(3) yes
C5 H51 1.01(2) no
C6 H61 1.02(3) no
C6 H62 0.99(2) no
