#------------------------------------------------------------------------------
#$Date: 2016-03-26 15:46:54 +0200 (Sat, 26 Mar 2016) $
#$Revision: 180315 $
#$URL: svn://www.crystallography.net/cod/cif/7/15/29/7152910.cif $
#------------------------------------------------------------------------------
#
# This file is available in the Crystallography Open Database (COD),
# http://www.crystallography.net/
#
# All data on this site have been placed in the public domain by the
# contributors.
#
data_7152910
loop_
_publ_author_name
'Harris, Benjamin'
'Savage, G. Paul'
'White, Jonathan M.'
_publ_section_title
;
 Hyperconjugation involving strained carbon-carbon bonds. Application of
 the variable oxygen probe to ester and ether derivatives of
 cubylmethanol.
;
_journal_issue                   19
_journal_name_full               'Organic &amp; biomolecular chemistry'
_journal_page_first              3151
_journal_page_last               3158
_journal_paper_doi               10.1039/c3ob40288f
_journal_volume                  11
_journal_year                    2013
_chemical_formula_sum            'C17 H15 N O5'
_chemical_formula_weight         313.30
_chemical_name_systematic
;
?
;
_space_group_IT_number           2
_symmetry_cell_setting           triclinic
_symmetry_space_group_name_Hall  '-P 1'
_symmetry_space_group_name_H-M   'P -1'
_atom_sites_solution_hydrogens   geom
_atom_sites_solution_primary     direct
_atom_sites_solution_secondary   difmap
_audit_creation_method           SHELXL-97
_cell_angle_alpha                68.415(11)
_cell_angle_beta                 78.650(10)
_cell_angle_gamma                80.137(12)
_cell_formula_units_Z            2
_cell_length_a                   6.9852(10)
_cell_length_b                   10.5113(15)
_cell_length_c                   10.8498(11)
_cell_measurement_reflns_used    764
_cell_measurement_temperature    130.0
_cell_measurement_theta_max      29.0809
_cell_measurement_theta_min      3.8536
_cell_volume                     721.99(17)
_computing_cell_refinement
;
CrysAlisPro, Oxford Diffraction Ltd.,
Version 1.171.34.39 (release 18-08-2010 CrysAlis171 .NET)
(compiled Aug 18 2010,17:42:00)
;
_computing_data_collection
;
CrysAlisPro, Oxford Diffraction Ltd.,
Version 1.171.34.39 (release 18-08-2010 CrysAlis171 .NET)
(compiled Aug 18 2010,17:42:00)
;
_computing_data_reduction
;
CrysAlisPro, Oxford Diffraction Ltd.,
Version 1.171.34.39 (release 18-08-2010 CrysAlis171 .NET)
(compiled Aug 18 2010,17:42:00)
;
_computing_structure_refinement  'SHELXL-97 (Sheldrick, 1997)'
_diffrn_ambient_temperature      130.0
_diffrn_measured_fraction_theta_full 0.999
_diffrn_measured_fraction_theta_max 0.860
_diffrn_measurement_device_type  'SuperNova, Dual, Cu at zero, Atlas'
_diffrn_measurement_method       '\w scans'
_diffrn_radiation_monochromator  mirror
_diffrn_radiation_source         'SuperNova (Mo) X-ray Source'
_diffrn_radiation_type           'Mo K\a'
_diffrn_radiation_wavelength     0.7107
_diffrn_reflns_av_R_equivalents  0.0196
_diffrn_reflns_av_sigmaI/netI    0.0314
_diffrn_reflns_limit_h_max       9
_diffrn_reflns_limit_h_min       -9
_diffrn_reflns_limit_k_max       13
_diffrn_reflns_limit_k_min       -12
_diffrn_reflns_limit_l_max       14
_diffrn_reflns_limit_l_min       -10
_diffrn_reflns_number            5867
_diffrn_reflns_theta_full        25.00
_diffrn_reflns_theta_max         29.23
_diffrn_reflns_theta_min         2.99
_exptl_absorpt_coefficient_mu    0.107
_exptl_absorpt_correction_T_max  1.00000
_exptl_absorpt_correction_T_min  0.79007
_exptl_absorpt_correction_type   multi-scan
_exptl_absorpt_process_details
;
CrysAlisPro, Oxford Diffraction Ltd.,
Version 1.171.34.39 (release 18-08-2010 CrysAlis171 .NET)
(compiled Aug 18 2010,17:42:00)
Empirical absorption correction using spherical harmonics,
implemented in SCALE3 ABSPACK scaling algorithm.
;
_exptl_crystal_colour            colourless
_exptl_crystal_density_diffrn    1.441
_exptl_crystal_density_method    'not measured'
_exptl_crystal_description       block
_exptl_crystal_F_000             328
_exptl_crystal_size_max          0.3343
_exptl_crystal_size_mid          0.2581
_exptl_crystal_size_min          0.1692
_refine_diff_density_max         0.353
_refine_diff_density_min         -0.278
_refine_diff_density_rms         0.047
_refine_ls_extinction_coef       0.007(2)
_refine_ls_extinction_expression Fc^*^=kFc[1+0.001xFc^2^\l^3^/sin(2\q)]^-1/4^
_refine_ls_extinction_method     SHELXL
_refine_ls_goodness_of_fit_ref   1.071
_refine_ls_hydrogen_treatment    mixed
_refine_ls_matrix_type           full
_refine_ls_number_parameters     209
_refine_ls_number_reflns         3374
_refine_ls_number_restraints     0
_refine_ls_restrained_S_all      1.071
_refine_ls_R_factor_all          0.0519
_refine_ls_R_factor_gt           0.0425
_refine_ls_shift/su_max          0.000
_refine_ls_shift/su_mean         0.000
_refine_ls_structure_factor_coef Fsqd
_refine_ls_weighting_details
'calc w=1/[\s^2^(Fo^2^)+(0.0502P)^2^+0.2474P] where P=(Fo^2^+2Fc^2^)/3'
_refine_ls_weighting_scheme      calc
_refine_ls_wR_factor_gt          0.1080
_refine_ls_wR_factor_ref         0.1167
_reflns_number_gt                2808
_reflns_number_total             3374
_reflns_threshold_expression     >2sigma(I)
_cod_data_source_file            c3ob40288f.txt
_cod_data_source_block           shelxl11b
_cod_original_cell_volume        721.99(16)
_cod_database_code               7152910
loop_
_symmetry_equiv_pos_as_xyz
'x, y, z'
'-x, -y, -z'
loop_
_atom_site_label
_atom_site_type_symbol
_atom_site_fract_x
_atom_site_fract_y
_atom_site_fract_z
_atom_site_U_iso_or_equiv
_atom_site_adp_type
_atom_site_occupancy
_atom_site_symmetry_multiplicity
_atom_site_calc_flag
_atom_site_refinement_flags
C1 C 0.2341(2) 0.72803(14) 0.37789(14) 0.0193(3) Uani 1 1 d .
C2 C 0.1946(2) 0.87867(14) 0.37971(14) 0.0201(3) Uani 1 1 d .
H2 H 0.1738 0.9618 0.3019 0.024 Uiso 1 1 calc R
C3 C 0.0438(2) 0.83035(14) 0.51007(14) 0.0195(3) Uani 1 1 d .
H3 H -0.0860 0.8789 0.5271 0.023 Uiso 1 1 calc R
C4 C 0.2147(2) 0.79794(14) 0.59713(13) 0.0185(3) Uani 1 1 d .
C5 C 0.3637(2) 0.84699(14) 0.46570(14) 0.0209(3) Uani 1 1 d .
H5 H 0.4652 0.9073 0.4501 0.025 Uiso 1 1 calc R
C6 C 0.4031(2) 0.69586(14) 0.46419(14) 0.0210(3) Uani 1 1 d .
H6 H 0.5328 0.6473 0.4473 0.025 Uiso 1 1 calc R
C7 C 0.2518(2) 0.64746(14) 0.59489(14) 0.0207(3) Uani 1 1 d .
H7 H 0.2723 0.5640 0.6725 0.025 Uiso 1 1 calc R
C8 C 0.0829(2) 0.67981(14) 0.50876(14) 0.0202(3) Uani 1 1 d .
H8 H -0.0186 0.6197 0.5239 0.024 Uiso 1 1 calc R
C9 C 0.2442(2) 0.68968(14) 0.25724(14) 0.0210(3) Uani 1 1 d .
H9A H 0.1179 0.7131 0.2255 0.025 Uiso 1 1 calc R
H9B H 0.3416 0.7375 0.1857 0.025 Uiso 1 1 calc R
C10 C 0.1918(2) 0.83609(14) 0.71847(14) 0.0187(3) Uani 1 1 d .
C11 C 0.29508(19) 0.47750(14) 0.21349(14) 0.0184(3) Uani 1 1 d .
C12 C 0.3437(2) 0.33487(15) 0.26322(14) 0.0210(3) Uani 1 1 d .
H12 H 0.3792 0.2926 0.3485 0.025 Uiso 1 1 calc R
C13 C 0.3392(2) 0.25680(15) 0.18603(15) 0.0215(3) Uani 1 1 d .
H13 H 0.3703 0.1618 0.2186 0.026 Uiso 1 1 calc R
C14 C 0.2876(2) 0.32256(15) 0.05902(14) 0.0205(3) Uani 1 1 d .
C15 C 0.2421(2) 0.46344(15) 0.00715(14) 0.0206(3) Uani 1 1 d .
H15 H 0.2091 0.5052 -0.0788 0.025 Uiso 1 1 calc R
C16 C 0.2462(2) 0.54202(14) 0.08501(14) 0.0196(3) Uani 1 1 d .
H16 H 0.2165 0.6371 0.0515 0.024 Uiso 1 1 calc R
C17 C 0.2326(3) 1.00676(17) 0.80216(17) 0.0315(4) Uani 1 1 d .
H17A H 0.2858 1.0932 0.7727 0.047 Uiso 1 1 calc R
H17B H 0.2990 0.9411 0.8730 0.047 Uiso 1 1 calc R
H17C H 0.0950 1.0189 0.8344 0.047 Uiso 1 1 calc R
N1 N 0.27304(18) 0.23980(13) -0.02039(13) 0.0258(3) Uani 1 1 d .
O1 O 0.29838(15) 0.54352(10) 0.29936(10) 0.0226(2) Uani 1 1 d .
O2 O 0.3073(2) 0.11398(12) 0.02861(13) 0.0397(3) Uani 1 1 d .
O3 O 0.22708(18) 0.29888(12) -0.13338(11) 0.0353(3) Uani 1 1 d .
O4 O 0.11639(16) 0.76969(11) 0.82820(10) 0.0265(3) Uani 1 1 d .
O5 O 0.26000(16) 0.95701(10) 0.69104(10) 0.0245(2) Uani 1 1 d .
loop_
_atom_site_aniso_label
_atom_site_aniso_U_11
_atom_site_aniso_U_22
_atom_site_aniso_U_33
_atom_site_aniso_U_23
_atom_site_aniso_U_13
_atom_site_aniso_U_12
C1 0.0242(7) 0.0186(7) 0.0183(7) -0.0092(5) -0.0036(6) -0.0040(5)
C2 0.0276(7) 0.0179(7) 0.0167(6) -0.0070(5) -0.0041(6) -0.0039(5)
C3 0.0226(7) 0.0188(7) 0.0190(7) -0.0081(5) -0.0045(6) -0.0021(5)
C4 0.0230(7) 0.0171(6) 0.0173(6) -0.0074(5) -0.0049(5) -0.0019(5)
C5 0.0249(7) 0.0226(7) 0.0199(7) -0.0110(6) -0.0028(6) -0.0069(5)
C6 0.0229(7) 0.0233(7) 0.0208(7) -0.0124(6) -0.0050(6) -0.0002(5)
C7 0.0277(7) 0.0171(6) 0.0190(7) -0.0078(5) -0.0051(6) -0.0013(5)
C8 0.0250(7) 0.0187(7) 0.0203(7) -0.0097(5) -0.0029(6) -0.0053(5)
C9 0.0268(7) 0.0190(7) 0.0194(7) -0.0087(5) -0.0047(6) -0.0024(5)
C10 0.0197(7) 0.0183(6) 0.0197(7) -0.0078(5) -0.0064(5) 0.0005(5)
C11 0.0175(6) 0.0226(7) 0.0191(7) -0.0118(5) -0.0024(5) -0.0030(5)
C12 0.0212(7) 0.0229(7) 0.0203(7) -0.0085(6) -0.0060(6) -0.0007(5)
C13 0.0201(7) 0.0207(7) 0.0258(7) -0.0113(6) -0.0028(6) -0.0012(5)
C14 0.0188(7) 0.0254(7) 0.0226(7) -0.0150(6) -0.0007(6) -0.0041(5)
C15 0.0198(7) 0.0265(7) 0.0181(6) -0.0107(6) -0.0026(5) -0.0030(5)
C16 0.0208(7) 0.0203(7) 0.0196(7) -0.0085(5) -0.0032(5) -0.0031(5)
C17 0.0405(9) 0.0324(9) 0.0321(8) -0.0235(7) -0.0058(7) -0.0030(7)
N1 0.0269(7) 0.0294(7) 0.0281(7) -0.0186(6) -0.0046(5) -0.0014(5)
O1 0.0327(6) 0.0193(5) 0.0207(5) -0.0111(4) -0.0095(4) 0.0001(4)
O2 0.0597(8) 0.0271(6) 0.0419(7) -0.0225(5) -0.0152(6) 0.0032(5)
O3 0.0496(7) 0.0376(7) 0.0286(6) -0.0208(5) -0.0125(5) -0.0018(5)
O4 0.0320(6) 0.0291(6) 0.0195(5) -0.0091(4) -0.0016(4) -0.0069(4)
O5 0.0352(6) 0.0213(5) 0.0221(5) -0.0123(4) -0.0042(4) -0.0057(4)
loop_
_atom_type_symbol
_atom_type_description
_atom_type_scat_dispersion_real
_atom_type_scat_dispersion_imag
_atom_type_scat_source
C C 0.0033 0.0016 'International Tables Vol C Tables 4.2.6.8 and 6.1.1.4'
H H 0.0000 0.0000 'International Tables Vol C Tables 4.2.6.8 and 6.1.1.4'
N N 0.0061 0.0033 'International Tables Vol C Tables 4.2.6.8 and 6.1.1.4'
O O 0.0106 0.0060 'International Tables Vol C Tables 4.2.6.8 and 6.1.1.4'
loop_
_geom_angle_atom_site_label_1
_geom_angle_atom_site_label_2
_geom_angle_atom_site_label_3
_geom_angle
C9 C1 C6 125.61(12)
C9 C1 C8 124.93(12)
C6 C1 C8 90.07(10)
C9 C1 C2 124.98(12)
C6 C1 C2 90.24(10)
C8 C1 C2 90.08(10)
C3 C2 C5 90.25(10)
C3 C2 C1 89.82(10)
C5 C2 C1 89.90(10)
C2 C3 C8 90.37(10)
C2 C3 C4 89.81(10)
C8 C3 C4 89.72(10)
C10 C4 C5 127.94(11)
C10 C4 C7 125.43(12)
C5 C4 C7 90.53(10)
C10 C4 C3 122.50(11)
C5 C4 C3 89.57(10)
C7 C4 C3 89.59(10)
C4 C5 C2 90.37(10)
C4 C5 C6 89.56(10)
C2 C5 C6 90.11(10)
C1 C6 C7 89.85(10)
C1 C6 C5 89.75(10)
C7 C6 C5 90.30(10)
C8 C7 C6 90.17(10)
C8 C7 C4 90.30(10)
C6 C7 C4 89.60(10)
C7 C8 C3 90.39(10)
C7 C8 C1 89.91(10)
C3 C8 C1 89.74(10)
O1 C9 C1 105.82(11)
O4 C10 O5 123.32(13)
O4 C10 C4 124.74(13)
O5 C10 C4 111.91(12)
O1 C11 C16 124.43(13)
O1 C11 C12 115.17(12)
C16 C11 C12 120.40(13)
C13 C12 C11 120.12(13)
C12 C13 C14 118.69(13)
C15 C14 C13 122.14(13)
C15 C14 N1 118.93(13)
C13 C14 N1 118.89(13)
C14 C15 C16 119.16(13)
C15 C16 C11 119.48(13)
O2 N1 O3 122.98(13)
O2 N1 C14 118.42(13)
O3 N1 C14 118.60(12)
C11 O1 C9 118.55(11)
C10 O5 C17 115.76(11)
loop_
_geom_bond_atom_site_label_1
_geom_bond_atom_site_label_2
_geom_bond_distance
C1 C9 1.4910(18)
C1 C6 1.5651(19)
C1 C8 1.5658(19)
C1 C2 1.5668(19)
C2 C3 1.5608(19)
C2 C5 1.565(2)
C3 C8 1.5639(19)
C3 C4 1.5816(19)
C4 C10 1.4842(18)
C4 C5 1.5627(19)
C4 C7 1.5669(18)
C5 C6 1.5706(19)
C6 C7 1.565(2)
C7 C8 1.563(2)
C9 O1 1.4369(17)
C10 O4 1.2040(17)
C10 O5 1.3433(17)
C11 O1 1.3564(16)
C11 C16 1.3900(19)
C11 C12 1.3988(19)
C12 C13 1.379(2)
C13 C14 1.384(2)
C14 C15 1.381(2)
C14 N1 1.4578(17)
C15 C16 1.3886(19)
C17 O5 1.4500(17)
N1 O2 1.2301(17)
N1 O3 1.2321(17)
loop_
_geom_torsion_atom_site_label_1
_geom_torsion_atom_site_label_2
_geom_torsion_atom_site_label_3
_geom_torsion_atom_site_label_4
_geom_torsion
C9 C1 C2 C3 134.35(14)
C6 C1 C2 C3 -90.12(10)
C8 C1 C2 C3 -0.06(10)
C9 C1 C2 C5 -135.40(14)
C6 C1 C2 C5 0.13(10)
C8 C1 C2 C5 90.19(10)
C5 C2 C3 C8 -89.84(10)
C1 C2 C3 C8 0.06(10)
C5 C2 C3 C4 -0.12(10)
C1 C2 C3 C4 89.78(10)
C2 C3 C4 C10 136.52(13)
C8 C3 C4 C10 -133.11(13)
C2 C3 C4 C5 0.12(10)
C8 C3 C4 C5 90.49(10)
C2 C3 C4 C7 -90.41(10)
C8 C3 C4 C7 -0.04(10)
C10 C4 C5 C2 -132.60(14)
C7 C4 C5 C2 89.47(10)
C3 C4 C5 C2 -0.12(10)
C10 C4 C5 C6 137.29(14)
C7 C4 C5 C6 -0.64(10)
C3 C4 C5 C6 -90.23(10)
C3 C2 C5 C4 0.12(10)
C1 C2 C5 C4 -89.69(10)
C3 C2 C5 C6 89.69(10)
C1 C2 C5 C6 -0.13(10)
C9 C1 C6 C7 -134.75(13)
C8 C1 C6 C7 0.09(10)
C2 C1 C6 C7 90.17(10)
C9 C1 C6 C5 134.96(13)
C8 C1 C6 C5 -90.20(10)
C2 C1 C6 C5 -0.13(10)
C4 C5 C6 C1 90.49(10)
C2 C5 C6 C1 0.13(10)
C4 C5 C6 C7 0.64(10)
C2 C5 C6 C7 -89.72(10)
C1 C6 C7 C8 -0.09(10)
C5 C6 C7 C8 89.65(10)
C1 C6 C7 C4 -90.39(10)
C5 C6 C7 C4 -0.64(10)
C10 C4 C7 C8 130.91(13)
C5 C4 C7 C8 -89.52(10)
C3 C4 C7 C8 0.04(10)
C10 C4 C7 C6 -138.92(13)
C5 C4 C7 C6 0.65(10)
C3 C4 C7 C6 90.21(10)
C6 C7 C8 C3 -89.65(10)
C4 C7 C8 C3 -0.04(10)
C6 C7 C8 C1 0.09(10)
C4 C7 C8 C1 89.70(10)
C2 C3 C8 C7 89.86(10)
C4 C3 C8 C7 0.04(10)
C2 C3 C8 C1 -0.06(10)
C4 C3 C8 C1 -89.87(10)
C9 C1 C8 C7 135.22(13)
C6 C1 C8 C7 -0.09(10)
C2 C1 C8 C7 -90.33(10)
C9 C1 C8 C3 -134.39(14)
C6 C1 C8 C3 90.30(10)
C2 C1 C8 C3 0.06(10)
C6 C1 C9 O1 55.04(17)
C8 C1 C9 O1 -65.09(16)
C2 C1 C9 O1 175.53(12)
C5 C4 C10 O4 -158.43(14)
C7 C4 C10 O4 -33.7(2)
C3 C4 C10 O4 82.55(18)
C5 C4 C10 O5 23.54(19)
C7 C4 C10 O5 148.23(13)
C3 C4 C10 O5 -95.48(15)
O1 C11 C12 C13 178.00(12)
C16 C11 C12 C13 -1.5(2)
C11 C12 C13 C14 0.5(2)
C12 C13 C14 C15 0.5(2)
C12 C13 C14 N1 -176.97(12)
C13 C14 C15 C16 -0.7(2)
N1 C14 C15 C16 176.84(12)
C14 C15 C16 C11 -0.3(2)
O1 C11 C16 C15 -178.09(12)
C12 C11 C16 C15 1.3(2)
C15 C14 N1 O2 -177.52(13)
C13 C14 N1 O2 0.1(2)
C15 C14 N1 O3 2.5(2)
C13 C14 N1 O3 -179.96(13)
C16 C11 O1 C9 1.3(2)
C12 C11 O1 C9 -178.11(12)
C1 C9 O1 C11 172.03(11)
O4 C10 O5 C17 -1.7(2)
C4 C10 O5 C17 176.33(12)
