#------------------------------------------------------------------------------
#$Date: 2016-02-16 03:10:39 +0200 (Tue, 16 Feb 2016) $
#$Revision: 176453 $
#$URL: svn://www.crystallography.net/cod/cif/7/15/21/7152125.cif $
#------------------------------------------------------------------------------
#
# This file is available in the Crystallography Open Database (COD),
# http://www.crystallography.net/
#
# All data on this site have been placed in the public domain by the
# contributors.
#
data_7152125
loop_
_publ_author_name
'Karban, Jind\<rich'
'C\'isa\<rov\'a, Ivana'
'Stra\<s\'ak, Tom\'a\<s'
'\<S\<tastn\'a, Lucie \<Cervenkov\'a'
'S\'ykora, Jan'
_publ_section_title
;
 Skeletal rearrangements resulting from reactions of 1,6:2,3- and
 1,6:3,4-dianhydro-\b-D-hexopyranoses with diethylaminosulphur
 trifluoride.
;
_journal_issue                   2
_journal_name_full               'Organic &amp; biomolecular chemistry'
_journal_page_first              394
_journal_page_last               403
_journal_paper_doi               10.1039/c1ob06336g
_journal_volume                  10
_journal_year                    2012
_chemical_absolute_configuration unk
_chemical_formula_moiety         'C6 H7 F1 O3'
_chemical_formula_sum            'C6 H7 F O3'
_chemical_formula_weight         146.12
_space_group_IT_number           19
_symmetry_cell_setting           orthorhombic
_symmetry_space_group_name_Hall  'P 2ac 2ab'
_symmetry_space_group_name_H-M   'P 21 21 21'
_atom_sites_solution_hydrogens   geom
_atom_sites_solution_primary     direct
_audit_creation_date             11-06-29
_audit_creation_method           CRYSTALS_ver_12.82
_cell_angle_alpha                90
_cell_angle_beta                 90
_cell_angle_gamma                90
_cell_formula_units_Z            4
_cell_length_a                   5.7591(3)
_cell_length_b                   6.2197(3)
_cell_length_c                   16.2984(8)
_cell_measurement_reflns_used    2931
_cell_measurement_temperature    150
_cell_measurement_theta_max      27
_cell_measurement_theta_min      2
_cell_volume                     583.81(5)
_computing_cell_refinement       'DENZO/SCALEPACK (Otwinowski & Minor, 1997)'
_computing_data_collection       'COLLECT. Nonius (1997-2001).'
_computing_data_reduction        'DENZO/SCALEPACK (Otwinowski & Minor, 1997)'
_computing_molecular_graphics    'CAMERON (Watkin et al., 1996)'
_computing_publication_material  'CRYSTALS (Betteridge et al., 2003)'
_computing_structure_refinement  'CRYSTALS (Betteridge et al., 2003)'
_computing_structure_solution    'SHELXS 86 (Sheldrick, 1986)'
_diffrn_ambient_temperature      150
_diffrn_measured_fraction_theta_full 0.995
_diffrn_measured_fraction_theta_max 0.910
_diffrn_measurement_device_type  'Nonius Kappa CCD'
_diffrn_measurement_method       '\f & \w scans'
_diffrn_radiation_monochromator  graphite
_diffrn_radiation_type           'Mo K\a'
_diffrn_radiation_wavelength     0.71073
_diffrn_reflns_av_R_equivalents  0.022
_diffrn_reflns_limit_h_max       7
_diffrn_reflns_limit_h_min       -7
_diffrn_reflns_limit_k_max       5
_diffrn_reflns_limit_k_min       -8
_diffrn_reflns_limit_l_max       22
_diffrn_reflns_limit_l_min       -19
_diffrn_reflns_number            6767
_diffrn_reflns_theta_full        27.575
_diffrn_reflns_theta_max         30.302
_diffrn_reflns_theta_min         2.499
_diffrn_standards_number         0
_exptl_absorpt_coefficient_mu    0.152
_exptl_absorpt_correction_T_max  0.98
_exptl_absorpt_correction_T_min  0.93
_exptl_absorpt_correction_type   multi-scan
_exptl_absorpt_process_details   'SADABS (Siemens, 1996)'
_exptl_crystal_colour            colourless
_exptl_crystal_density_diffrn    1.662
_exptl_crystal_description       prism
_exptl_crystal_F_000             304
_exptl_crystal_size_max          0.25
_exptl_crystal_size_mid          0.18
_exptl_crystal_size_min          0.15
_refine_diff_density_max         0.27
_refine_diff_density_min         -0.20
_refine_ls_extinction_method     None
_refine_ls_goodness_of_fit_ref   1.1361
_refine_ls_hydrogen_treatment    mixed
_refine_ls_matrix_type           full
_refine_ls_number_parameters     119
_refine_ls_number_reflns         771
_refine_ls_number_restraints     0
_refine_ls_R_factor_all          0.0373
_refine_ls_R_factor_gt           0.0271
_refine_ls_shift/su_max          0.000363
_refine_ls_structure_factor_coef F
_refine_ls_weighting_details
;
Method, part 1, Chebychev polynomial, (Watkin, 1994, Prince, 1982)
[weight] = 1.0/[A~0~*T~0~(x)+A~1~*T~1~(x) ... +A~n-1~]*T~n-1~(x)]
where A~i~ are the Chebychev coefficients listed below and x= Fcalc/Fmax
Method = Robust Weighting (Prince, 1982)
W = [weight] * [1-(deltaF/6*sigmaF)^2^]^2^
A~i~ are:
0.219 0.170 0.101
;
_refine_ls_weighting_scheme      calc
_refine_ls_wR_factor_all         0.0413
_refine_ls_wR_factor_gt          0.0308
_refine_ls_wR_factor_ref         0.0308
_reflns_limit_h_max              7
_reflns_limit_h_min              0
_reflns_limit_k_max              8
_reflns_limit_k_min              0
_reflns_limit_l_max              22
_reflns_limit_l_min              0
_reflns_number_gt                771
_reflns_number_total             947
_reflns_threshold_expression     I>1.96u(I)
_oxford_diffrn_Wilson_B_factor   0.00
_oxford_diffrn_Wilson_scale      0.00
_oxford_refine_ls_scale          0.3703(9)
_oxford_structure_analysis_title 'e343_2f_sykora_0m in P2(1)2(1)2(1)'
_cod_data_source_file            c1ob06336g.txt
_cod_data_source_block           CRYSTALS_cif12
_cod_depositor_comments
;
The following automatic conversions were performed:

'_symmetry_cell_setting' value 'Orthorhombic' changed to
'orthorhombic' according to
/home/saulius/struct/CIF-dictionaries/cif_core.dic dictionary named
'cif_core.dic' version 2.4.1 from 2010-06-29.

Automatic conversion script
Id: cif_fix_values 1715 2011-07-08 13:25:40Z adriana 
;
_cod_original_sg_symbol_H-M      'P 21 21 21 '
_cod_original_formula_sum        'C6 H7 F1 O3'
_cod_database_code               7152125
loop_
_symmetry_equiv_pos_as_xyz
x,y,z
x+1/2,-y+1/2,-z
-x,y+1/2,-z+1/2
-x+1/2,-y,z+1/2
loop_
_atom_site_label
_atom_site_type_symbol
_atom_site_fract_x
_atom_site_fract_y
_atom_site_fract_z
_atom_site_U_iso_or_equiv
_atom_site_occupancy
_atom_site_adp_type
F1 F 0.0507(2) 1.26172(18) 0.81512(7) 0.0262 1.0000 Uani
O1 O 0.1031(2) 1.0600(2) 0.92871(7) 0.0170 1.0000 Uani
O2 O 0.4921(2) 1.1115(2) 0.82442(7) 0.0170 1.0000 Uani
O3 O 0.5757(2) 0.7263(2) 0.88514(8) 0.0205 1.0000 Uani
C1 C 0.0853(3) 1.0509(3) 0.84320(11) 0.0166 1.0000 Uani
C2 C 0.3103(3) 0.9665(3) 0.80529(10) 0.0140 1.0000 Uani
C3 C 0.3529(3) 0.7481(3) 0.84550(10) 0.0170 1.0000 Uani
C4 C 0.3731(3) 0.7742(3) 0.93440(10) 0.0171 1.0000 Uani
C5 C 0.3375(3) 1.0092(3) 0.95646(10) 0.0147 1.0000 Uani
C6 C 0.5074(3) 1.1513(3) 0.91152(10) 0.0161 1.0000 Uani
H11 H -0.055(4) 0.974(3) 0.8277(13) 0.015(5) 1.0000 Uiso
H21 H 0.303(4) 0.956(3) 0.7475(13) 0.009(5) 1.0000 Uiso
H31 H 0.294(4) 0.622(4) 0.8218(15) 0.022(6) 1.0000 Uiso
H41 H 0.338(4) 0.663(4) 0.9720(15) 0.022(6) 1.0000 Uiso
H51 H 0.340(4) 1.038(3) 1.0137(13) 0.016(5) 1.0000 Uiso
H61 H 0.468(4) 1.302(3) 0.9224(13) 0.011(5) 1.0000 Uiso
H62 H 0.661(4) 1.119(4) 0.9286(13) 0.013(5) 1.0000 Uiso
loop_
_atom_site_aniso_label
_atom_site_aniso_U_11
_atom_site_aniso_U_22
_atom_site_aniso_U_33
_atom_site_aniso_U_23
_atom_site_aniso_U_13
_atom_site_aniso_U_12
F1 0.0283(6) 0.0217(5) 0.0288(5) 0.0073(5) -0.0060(5) 0.0070(5)
O1 0.0132(6) 0.0234(6) 0.0144(6) -0.0018(5) 0.0007(4) 0.0045(5)
O2 0.0166(6) 0.0198(6) 0.0145(5) 0.0013(5) 0.0005(5) -0.0055(5)
O3 0.0186(6) 0.0203(6) 0.0228(6) -0.0012(5) 0.0018(5) 0.0066(5)
C1 0.0153(8) 0.0163(7) 0.0183(8) 0.0009(6) -0.0020(6) 0.0006(7)
C2 0.0149(8) 0.0173(8) 0.0096(7) -0.0002(6) 0.0000(6) -0.0032(6)
C3 0.0179(8) 0.0139(7) 0.0192(7) -0.0024(6) 0.0014(6) -0.0011(7)
C4 0.0171(8) 0.0168(7) 0.0173(7) 0.0031(6) 0.0016(6) 0.0021(7)
C5 0.0138(7) 0.0175(8) 0.0128(7) -0.0022(6) -0.0014(6) 0.0034(6)
C6 0.0158(7) 0.0165(7) 0.0160(8) -0.0030(6) -0.0032(7) 0.0002(7)
loop_
_atom_type_symbol
_atom_type_scat_dispersion_real
_atom_type_scat_dispersion_imag
_atom_type_scat_Cromer_Mann_a1
_atom_type_scat_Cromer_Mann_b1
_atom_type_scat_Cromer_Mann_a2
_atom_type_scat_Cromer_Mann_b2
_atom_type_scat_Cromer_Mann_a3
_atom_type_scat_Cromer_Mann_b3
_atom_type_scat_Cromer_Mann_a4
_atom_type_scat_Cromer_Mann_b4
_atom_type_scat_Cromer_Mann_c
_atom_type_scat_source
C 0.0033 0.0016 2.3100 20.8439 1.0200 10.2075 1.5886 0.5687 0.8650 51.6512
0.2156 'International Tables Vol C 4.2.6.8 and 6.1.1.4'
H 0.0000 0.0000 0.4930 10.5109 0.3229 26.1257 0.1402 3.1424 0.0408 57.7998
0.0030 'International Tables Vol C 4.2.6.8 and 6.1.1.4'
O 0.0106 0.0060 3.0485 13.2771 2.2868 5.7011 1.5463 0.3239 0.8670 32.9089
0.2508 'International Tables Vol C 4.2.6.8 and 6.1.1.4'
F 0.0171 0.0103 3.5392 10.2825 2.6412 4.2944 1.5170 0.2615 1.0243 26.1476
0.2776 'International Tables Vol C 4.2.6.8 and 6.1.1.4'
loop_
_geom_angle_atom_site_label_1
_geom_angle_atom_site_label_2
_geom_angle_atom_site_label_3
_geom_angle
_geom_angle_publ_flag
C1 O1 C5 111.58(13) yes
C2 O2 C6 111.75(13) yes
C3 O3 C4 60.82(11) yes
F1 C1 O1 107.29(13) yes
F1 C1 C2 108.04(14) yes
O1 C1 C2 110.80(14) yes
F1 C1 H11 104.9(12) no
O1 C1 H11 109.9(13) no
C2 C1 H11 115.5(13) no
C1 C2 O2 108.61(13) yes
C1 C2 C3 105.55(14) yes
O2 C2 C3 110.65(14) yes
C1 C2 H21 112.8(13) no
O2 C2 H21 107.2(12) no
C3 C2 H21 112.0(12) no
C2 C3 O3 114.73(15) yes
C2 C3 C4 109.81(14) yes
O3 C3 C4 59.74(11) yes
C2 C3 H31 120.7(14) no
O3 C3 H31 115.2(14) no
C4 C3 H31 122.0(15) no
C3 C4 O3 59.45(11) yes
C3 C4 C5 109.30(15) yes
O3 C4 C5 115.99(14) yes
C3 C4 H41 122.9(14) no
O3 C4 H41 112.4(15) no
C5 C4 H41 121.4(14) no
C4 C5 O1 105.08(14) yes
C4 C5 C6 111.17(14) yes
O1 C5 C6 108.84(13) yes
C4 C5 H51 114.5(13) no
O1 C5 H51 106.1(14) no
C6 C5 H51 110.8(14) no
C5 C6 O2 109.72(14) yes
C5 C6 H61 108.7(13) no
O2 C6 H61 109.1(12) no
C5 C6 H62 109.7(13) no
O2 C6 H62 107.9(13) no
H61 C6 H62 111.6(19) no
loop_
_geom_bond_atom_site_label_1
_geom_bond_atom_site_label_2
_geom_bond_distance
_geom_bond_publ_flag
F1 C1 1.403(2) yes
O1 C1 1.399(2) yes
O1 C5 1.458(2) yes
O2 C2 1.417(2) yes
O2 C6 1.444(2) yes
O3 C3 1.443(2) yes
O3 C4 1.447(2) yes
C1 C2 1.528(2) yes
C1 H11 0.97(2) no
C2 C3 1.528(3) yes
C2 H21 0.94(2) no
C3 C4 1.463(2) yes
C3 H31 0.94(2) no
C4 C5 1.520(2) yes
C4 H41 0.95(2) no
C5 C6 1.509(3) yes
C5 H51 0.95(2) no
C6 H61 0.98(2) no
C6 H62 0.95(2) no
