#------------------------------------------------------------------------------
#$Date: 2016-03-26 15:36:15 +0200 (Sat, 26 Mar 2016) $
#$Revision: 180307 $
#$URL: svn://www.crystallography.net/cod/cif/7/15/21/7152121.cif $
#------------------------------------------------------------------------------
#
# This file is available in the Crystallography Open Database (COD),
# http://www.crystallography.net/
#
# All data on this site have been placed in the public domain by the
# contributors.
#
data_7152121
loop_
_publ_author_name
'Karban, Jind\<rich'
'C\'isa\<rov\'a, Ivana'
'Stra\<s\'ak, Tom\'a\<s'
'\<S\<tastn\'a, Lucie \<Cervenkov\'a'
'S\'ykora, Jan'
_publ_section_title
;
 Skeletal rearrangements resulting from reactions of 1,6:2,3- and
 1,6:3,4-dianhydro-\b-D-hexopyranoses with diethylaminosulphur
 trifluoride.
;
_journal_issue                   2
_journal_name_full               'Organic &amp; biomolecular chemistry'
_journal_page_first              394
_journal_page_last               403
_journal_paper_doi               10.1039/c1ob06336g
_journal_volume                  10
_journal_year                    2012
_chemical_absolute_configuration unk
_chemical_formula_moiety         'C6 H8 O4'
_chemical_formula_sum            'C6 H8 O4'
_chemical_formula_weight         144.13
_space_group_IT_number           4
_symmetry_cell_setting           monoclinic
_symmetry_space_group_name_Hall  'P 2yb'
_symmetry_space_group_name_H-M   'P 1 21 1'
_atom_sites_solution_hydrogens   geom
_atom_sites_solution_primary     direct
_audit_creation_date             11-06-27
_audit_creation_method           CRYSTALS_ver_12.82
_cell_angle_alpha                90
_cell_angle_beta                 93.064(2)
_cell_angle_gamma                90
_cell_formula_units_Z            2
_cell_length_a                   6.1357(4)
_cell_length_b                   5.1847(3)
_cell_length_c                   9.4064(6)
_cell_measurement_reflns_used    3483
_cell_measurement_temperature    150
_cell_measurement_theta_max      27
_cell_measurement_theta_min      2
_cell_volume                     298.81(3)
_computing_cell_refinement       'DENZO/SCALEPACK (Otwinowski & Minor, 1997)'
_computing_data_collection       'COLLECT. Nonius (1997-2001).'
_computing_data_reduction        'DENZO/SCALEPACK (Otwinowski & Minor, 1997)'
_computing_molecular_graphics    'CAMERON (Watkin et al., 1996)'
_computing_publication_material  'CRYSTALS (Betteridge et al., 2003)'
_computing_structure_refinement  'CRYSTALS (Betteridge et al., 2003)'
_computing_structure_solution    'SHELXS 86 (Sheldrick, 1986)'
_diffrn_ambient_temperature      150
_diffrn_measured_fraction_theta_full 1.000
_diffrn_measured_fraction_theta_max 1.000
_diffrn_measurement_device_type  'Nonius Kappa CCD'
_diffrn_measurement_method       '\f & \w scans'
_diffrn_radiation_monochromator  graphite
_diffrn_radiation_type           'Mo K\a'
_diffrn_radiation_wavelength     0.71073
_diffrn_reflns_av_R_equivalents  0.018
_diffrn_reflns_limit_h_max       8
_diffrn_reflns_limit_h_min       -7
_diffrn_reflns_limit_k_max       6
_diffrn_reflns_limit_k_min       -6
_diffrn_reflns_limit_l_max       12
_diffrn_reflns_limit_l_min       -12
_diffrn_reflns_number            3601
_diffrn_reflns_theta_full        28.070
_diffrn_reflns_theta_max         28.070
_diffrn_reflns_theta_min         2.168
_diffrn_standards_number         0
_exptl_absorpt_coefficient_mu    0.137
_exptl_absorpt_correction_T_max  0.97
_exptl_absorpt_correction_T_min  0.91
_exptl_absorpt_correction_type   multi-scan
_exptl_absorpt_process_details   'SADABS (Siemens, 1996)'
_exptl_crystal_colour            colourless
_exptl_crystal_density_diffrn    1.602
_exptl_crystal_description       prism
_exptl_crystal_F_000             152
_exptl_crystal_size_max          0.36
_exptl_crystal_size_mid          0.21
_exptl_crystal_size_min          0.19
_refine_diff_density_max         0.25
_refine_diff_density_min         -0.14
_refine_ls_extinction_method     None
_refine_ls_goodness_of_fit_ref   1.1586
_refine_ls_hydrogen_treatment    mixed
_refine_ls_matrix_type           full
_refine_ls_number_parameters     123
_refine_ls_number_reflns         739
_refine_ls_number_restraints     1
_refine_ls_R_factor_all          0.0264
_refine_ls_R_factor_gt           0.0242
_refine_ls_shift/su_max          0.000139
_refine_ls_structure_factor_coef F
_refine_ls_weighting_details
;
Method, part 1, Chebychev polynomial, (Watkin, 1994, Prince, 1982)
[weight] = 1.0/[A~0~*T~0~(x)+A~1~*T~1~(x) ... +A~n-1~]*T~n-1~(x)]
where A~i~ are the Chebychev coefficients listed below and x= Fcalc/Fmax
Method = Robust Weighting (Prince, 1982)
W = [weight] * [1-(deltaF/6*sigmaF)^2^]^2^
A~i~ are:
0.172 0.934E-01 0.426E-01
;
_refine_ls_weighting_scheme      calc
_refine_ls_wR_factor_all         0.0313
_refine_ls_wR_factor_gt          0.0275
_refine_ls_wR_factor_ref         0.0275
_reflns_limit_h_max              8
_reflns_limit_h_min              -8
_reflns_limit_k_max              6
_reflns_limit_k_min              0
_reflns_limit_l_max              12
_reflns_limit_l_min              0
_reflns_number_gt                739
_reflns_number_total             804
_reflns_threshold_expression     I>1.96u(I)
_oxford_diffrn_Wilson_B_factor   0.00
_oxford_diffrn_Wilson_scale      0.00
_oxford_refine_ls_scale          0.8239(19)
_oxford_structure_analysis_title 'e298c_sykora_0m in P2(1)'
_cod_data_source_file            c1ob06336g.txt
_cod_data_source_block           CRYSTALS_cif8
_cod_depositor_comments
;
The following automatic conversions were performed:

'_symmetry_cell_setting' value 'Monoclinic' changed to 'monoclinic'
according to /home/saulius/struct/CIF-dictionaries/cif_core.dic
dictionary named 'cif_core.dic' version 2.4.1 from 2010-06-29.

Automatic conversion script
Id: cif_fix_values 1715 2011-07-08 13:25:40Z adriana 
;
_cod_original_sg_symbol_H-M      'P 1 21 1 '
_cod_database_code               7152121
loop_
_symmetry_equiv_pos_as_xyz
x,y,z
-x,y+1/2,-z
loop_
_atom_site_label
_atom_site_type_symbol
_atom_site_fract_x
_atom_site_fract_y
_atom_site_fract_z
_atom_site_U_iso_or_equiv
_atom_site_occupancy
_atom_site_adp_type
O1 O 0.68458(19) -0.0091(3) 0.32739(13) 0.0239 1.0000 Uani
O2 O 0.74001(17) 0.3942(3) 0.41549(12) 0.0207 1.0000 Uani
O3 O 0.38899(19) 0.5879(3) 0.24317(13) 0.0217 1.0000 Uani
O4 O 0.8036(2) 0.4686(3) 0.10508(13) 0.0277 1.0000 Uani
C1 C 0.5765(3) 0.2233(4) 0.35910(16) 0.0191 1.0000 Uani
C2 C 0.4645(2) 0.3333(4) 0.22164(16) 0.0186 1.0000 Uani
C3 C 0.6079(3) 0.3130(4) 0.09674(15) 0.0237 1.0000 Uani
C4 C 0.8220(3) 0.1899(4) 0.1177(2) 0.0276 1.0000 Uani
C5 C 0.8805(3) 0.0869(4) 0.26557(19) 0.0249 1.0000 Uani
C6 C 0.9473(2) 0.2997(4) 0.37117(19) 0.0246 1.0000 Uani
H11 H 0.471(3) 0.197(4) 0.4325(19) 0.018(5) 1.0000 Uiso
H21 H 0.331(3) 0.231(5) 0.195(2) 0.025(5) 1.0000 Uiso
H31 H 0.542(3) 0.305(5) 0.004(2) 0.024(5) 1.0000 Uiso
H41 H 0.880(3) 0.117(5) 0.037(2) 0.026(5) 1.0000 Uiso
H51 H 0.977(3) -0.054(5) 0.268(2) 0.025(5) 1.0000 Uiso
H61 H 1.034(3) 0.234(4) 0.454(2) 0.021(5) 1.0000 Uiso
H62 H 1.023(3) 0.443(5) 0.327(2) 0.025(5) 1.0000 Uiso
H1 H 0.496(4) 0.674(5) 0.273(2) 0.033(6) 1.0000 Uiso
loop_
_atom_site_aniso_label
_atom_site_aniso_U_11
_atom_site_aniso_U_22
_atom_site_aniso_U_33
_atom_site_aniso_U_23
_atom_site_aniso_U_13
_atom_site_aniso_U_12
O1 0.0246(5) 0.0129(5) 0.0348(6) 0.0012(5) 0.0064(4) -0.0013(5)
O2 0.0209(5) 0.0184(6) 0.0229(5) -0.0036(4) 0.0002(4) -0.0010(4)
O3 0.0196(5) 0.0180(5) 0.0273(6) -0.0028(5) 0.0000(4) 0.0012(5)
O4 0.0317(6) 0.0235(6) 0.0291(6) 0.0023(5) 0.0126(5) -0.0028(6)
C1 0.0208(6) 0.0153(7) 0.0217(7) -0.0003(6) 0.0048(5) -0.0022(6)
C2 0.0174(6) 0.0161(8) 0.0224(6) -0.0024(6) 0.0023(5) -0.0022(6)
C3 0.0324(8) 0.0207(7) 0.0182(6) -0.0031(7) 0.0039(5) -0.0020(8)
C4 0.0297(9) 0.0238(8) 0.0308(9) -0.0064(7) 0.0149(7) -0.0005(8)
C5 0.0191(7) 0.0160(7) 0.0401(10) -0.0009(7) 0.0062(6) 0.0025(7)
C6 0.0180(6) 0.0199(8) 0.0354(8) 0.0016(7) -0.0016(6) 0.0010(7)
loop_
_atom_type_symbol
_atom_type_scat_dispersion_real
_atom_type_scat_dispersion_imag
_atom_type_scat_Cromer_Mann_a1
_atom_type_scat_Cromer_Mann_b1
_atom_type_scat_Cromer_Mann_a2
_atom_type_scat_Cromer_Mann_b2
_atom_type_scat_Cromer_Mann_a3
_atom_type_scat_Cromer_Mann_b3
_atom_type_scat_Cromer_Mann_a4
_atom_type_scat_Cromer_Mann_b4
_atom_type_scat_Cromer_Mann_c
_atom_type_scat_source
C 0.0033 0.0016 2.3100 20.8439 1.0200 10.2075 1.5886 0.5687 0.8650 51.6512
0.2156 'International Tables Vol C 4.2.6.8 and 6.1.1.4'
H 0.0000 0.0000 0.4930 10.5109 0.3229 26.1257 0.1402 3.1424 0.0408 57.7998
0.0030 'International Tables Vol C 4.2.6.8 and 6.1.1.4'
O 0.0106 0.0060 3.0485 13.2771 2.2868 5.7011 1.5463 0.3239 0.8670 32.9089
0.2508 'International Tables Vol C 4.2.6.8 and 6.1.1.4'
loop_
_geom_angle_atom_site_label_1
_geom_angle_atom_site_label_2
_geom_angle_atom_site_label_3
_geom_angle
_geom_angle_publ_flag
C1 O1 C5 101.53(12) yes
C1 O2 C6 107.22(12) yes
C2 O3 H1 107.1(18) no
C3 O4 C4 60.67(12) yes
O2 C1 O1 106.28(12) yes
O2 C1 C2 110.91(13) yes
O1 C1 C2 109.35(12) yes
O2 C1 H11 107.7(12) no
O1 C1 H11 111.2(13) no
C2 C1 H11 111.3(11) no
C1 C2 O3 111.07(13) yes
C1 C2 C3 112.04(12) yes
O3 C2 C3 112.67(14) yes
C1 C2 H21 109.5(13) no
O3 C2 H21 105.2(13) no
C3 C2 H21 106.0(12) no
C2 C3 O4 115.84(13) yes
C2 C3 C4 118.83(14) yes
O4 C3 C4 59.96(11) yes
C2 C3 H31 118.9(12) no
O4 C3 H31 113.0(13) no
C4 C3 H31 116.2(13) no
C3 C4 O4 59.38(13) yes
C3 C4 C5 116.34(13) yes
O4 C4 C5 116.01(16) yes
C3 C4 H41 116.3(13) no
O4 C4 H41 111.6(16) no
C5 C4 H41 121.4(14) no
C4 C5 O1 109.14(13) yes
C4 C5 C6 112.65(16) yes
O1 C5 C6 100.76(13) yes
C4 C5 H51 114.6(12) no
O1 C5 H51 105.0(14) no
C6 C5 H51 113.4(13) no
C5 C6 O2 102.88(12) yes
C5 C6 H61 112.4(13) no
O2 C6 H61 109.6(11) no
C5 C6 H62 112.9(12) no
O2 C6 H62 108.1(13) no
H61 C6 H62 110.5(16) no
loop_
_geom_bond_atom_site_label_1
_geom_bond_atom_site_label_2
_geom_bond_distance
_geom_bond_publ_flag
O1 C1 1.415(2) yes
O1 C5 1.4513(19) yes
O2 C1 1.4197(19) yes
O2 C6 1.4452(19) yes
O3 C2 1.4167(19) yes
O3 H1 0.83(3) no
O4 C3 1.446(2) yes
O4 C4 1.454(2) yes
C1 C2 1.541(2) yes
C1 H11 0.980(18) no
C2 C3 1.508(2) yes
C2 H21 1.00(2) no
C3 C4 1.464(3) yes
C3 H31 0.94(2) no
C4 C5 1.515(3) yes
C4 H41 0.93(2) no
C5 C6 1.526(2) yes
C5 H51 0.94(3) no
C6 H61 0.98(2) no
C6 H62 0.98(2) no
