#------------------------------------------------------------------------------
#$Date: 2016-03-26 15:36:15 +0200 (Sat, 26 Mar 2016) $
#$Revision: 180307 $
#$URL: svn://www.crystallography.net/cod/cif/7/15/21/7152119.cif $
#------------------------------------------------------------------------------
#
# This file is available in the Crystallography Open Database (COD),
# http://www.crystallography.net/
#
# All data on this site have been placed in the public domain by the
# contributors.
#
data_7152119
loop_
_publ_author_name
'Karban, Jind\<rich'
'C\'isa\<rov\'a, Ivana'
'Stra\<s\'ak, Tom\'a\<s'
'\<S\<tastn\'a, Lucie \<Cervenkov\'a'
'S\'ykora, Jan'
_publ_section_title
;
 Skeletal rearrangements resulting from reactions of 1,6:2,3- and
 1,6:3,4-dianhydro-\b-D-hexopyranoses with diethylaminosulphur
 trifluoride.
;
_journal_issue                   2
_journal_name_full               'Organic &amp; biomolecular chemistry'
_journal_page_first              394
_journal_page_last               403
_journal_paper_doi               10.1039/c1ob06336g
_journal_volume                  10
_journal_year                    2012
_chemical_absolute_configuration unk
_chemical_formula_moiety         'C6 H8 O4'
_chemical_formula_sum            'C6 H8 O4'
_chemical_formula_weight         144.13
_space_group_IT_number           19
_symmetry_cell_setting           orthorhombic
_symmetry_space_group_name_Hall  'P 2ac 2ab'
_symmetry_space_group_name_H-M   'P 21 21 21'
_atom_sites_solution_hydrogens   geom
_atom_sites_solution_primary     direct
_audit_creation_date             11-06-27
_audit_creation_method           CRYSTALS_ver_12.82
_cell_angle_alpha                90
_cell_angle_beta                 90
_cell_angle_gamma                90
_cell_formula_units_Z            4
_cell_length_a                   6.1219(3)
_cell_length_b                   8.5353(6)
_cell_length_c                   11.8539(8)
_cell_measurement_reflns_used    5397
_cell_measurement_temperature    150
_cell_measurement_theta_max      28
_cell_measurement_theta_min      3
_cell_volume                     619.39(7)
_computing_cell_refinement       'DENZO/SCALEPACK (Otwinowski & Minor, 1997)'
_computing_data_collection       'COLLECT. Nonius (1997-2001).'
_computing_data_reduction        'DENZO/SCALEPACK (Otwinowski & Minor, 1997)'
_computing_molecular_graphics    'CAMERON (Watkin et al., 1996)'
_computing_publication_material  'CRYSTALS (Betteridge et al., 2003)'
_computing_structure_refinement  'CRYSTALS (Betteridge et al., 2003)'
_computing_structure_solution    'SHELXS 86 (Sheldrick, 1986)'
_diffrn_ambient_temperature      150
_diffrn_measured_fraction_theta_full 1.000
_diffrn_measured_fraction_theta_max 1.000
_diffrn_measurement_device_type  'Nonius Kappa CCD'
_diffrn_measurement_method       '\f & \w scans'
_diffrn_radiation_monochromator  graphite
_diffrn_radiation_type           'Mo K\a'
_diffrn_radiation_wavelength     0.71073
_diffrn_reflns_av_R_equivalents  0.024
_diffrn_reflns_limit_h_max       5
_diffrn_reflns_limit_h_min       -7
_diffrn_reflns_limit_k_max       11
_diffrn_reflns_limit_k_min       -11
_diffrn_reflns_limit_l_max       15
_diffrn_reflns_limit_l_min       -15
_diffrn_reflns_number            5459
_diffrn_reflns_theta_full        27.514
_diffrn_reflns_theta_max         27.514
_diffrn_reflns_theta_min         2.941
_diffrn_standards_number         0
_exptl_absorpt_coefficient_mu    0.132
_exptl_absorpt_correction_T_max  0.97
_exptl_absorpt_correction_T_min  0.96
_exptl_absorpt_correction_type   numerical
_exptl_absorpt_process_details
;
Analytical Absorption (De Meulenaer & Tompa, 1965)
;
_exptl_crystal_colour            colourless
_exptl_crystal_density_diffrn    1.545
_exptl_crystal_description       bar
_exptl_crystal_F_000             304
_exptl_crystal_size_max          0.60
_exptl_crystal_size_mid          0.34
_exptl_crystal_size_min          0.21
_refine_diff_density_max         0.18
_refine_diff_density_min         -0.19
_refine_ls_extinction_method     None
_refine_ls_goodness_of_fit_ref   0.9937
_refine_ls_hydrogen_treatment    mixed
_refine_ls_matrix_type           full
_refine_ls_number_parameters     123
_refine_ls_number_reflns         696
_refine_ls_number_restraints     0
_refine_ls_R_factor_all          0.0309
_refine_ls_R_factor_gt           0.0255
_refine_ls_shift/su_max          0.000198
_refine_ls_structure_factor_coef F
_refine_ls_weighting_details
;
Method, part 1, Chebychev polynomial, (Watkin, 1994, Prince, 1982)
[weight] = 1.0/[A~0~*T~0~(x)+A~1~*T~1~(x) ... +A~n-1~]*T~n-1~(x)]
where A~i~ are the Chebychev coefficients listed below and x= Fcalc/Fmax
Method = Robust Weighting (Prince, 1982)
W = [weight] * [1-(deltaF/6*sigmaF)^2^]^2^
A~i~ are:
0.222 0.207 0.764E-01
;
_refine_ls_weighting_scheme      calc
_refine_ls_wR_factor_all         0.0388
_refine_ls_wR_factor_gt          0.0295
_refine_ls_wR_factor_ref         0.0295
_reflns_limit_h_max              7
_reflns_limit_h_min              0
_reflns_limit_k_max              11
_reflns_limit_k_min              0
_reflns_limit_l_max              15
_reflns_limit_l_min              0
_reflns_number_gt                696
_reflns_number_total             852
_reflns_threshold_expression     I>1.96u(I)
_oxford_diffrn_Wilson_B_factor   0.00
_oxford_diffrn_Wilson_scale      0.00
_oxford_refine_ls_scale          0.3722(10)
_oxford_structure_analysis_title 'e290b_sykora_0m in P2(1)2(1)2(1)'
_cod_data_source_file            c1ob06336g.txt
_cod_data_source_block           CRYSTALS_cif6
_cod_depositor_comments
;
The following automatic conversions were performed:

'_symmetry_cell_setting' value 'Orthorhombic' changed to
'orthorhombic' according to
/home/saulius/struct/CIF-dictionaries/cif_core.dic dictionary named
'cif_core.dic' version 2.4.1 from 2010-06-29.

Automatic conversion script
Id: cif_fix_values 1715 2011-07-08 13:25:40Z adriana 
;
_cod_original_sg_symbol_H-M      'P 21 21 21 '
_cod_database_code               7152119
loop_
_symmetry_equiv_pos_as_xyz
x,y,z
x+1/2,-y+1/2,-z
-x,y+1/2,-z+1/2
-x+1/2,-y,z+1/2
loop_
_atom_site_label
_atom_site_type_symbol
_atom_site_fract_x
_atom_site_fract_y
_atom_site_fract_z
_atom_site_U_iso_or_equiv
_atom_site_occupancy
_atom_site_adp_type
O1 O 1.06737(19) 0.33796(13) 0.60473(9) 0.0209 1.0000 Uani
O2 O 1.15724(19) 0.59572(14) 0.60010(10) 0.0225 1.0000 Uani
O3 O 0.9805(2) 0.40112(17) 0.85875(9) 0.0252 1.0000 Uani
O4 O 0.65291(19) 0.34596(17) 0.68700(10) 0.0267 1.0000 Uani
C1 C 1.1333(3) 0.4637(2) 0.67422(14) 0.0196 1.0000 Uani
C2 C 0.9634(3) 0.5023(2) 0.76397(12) 0.0197 1.0000 Uani
C3 C 0.7362(3) 0.5009(2) 0.71408(15) 0.0227 1.0000 Uani
C4 C 0.7080(3) 0.4524(2) 0.59629(14) 0.0232 1.0000 Uani
C5 C 0.9121(3) 0.4118(2) 0.53085(13) 0.0205 1.0000 Uani
C6 C 1.0331(3) 0.5614(2) 0.49860(13) 0.0223 1.0000 Uani
H11 H 1.275(3) 0.440(2) 0.7112(18) 0.020(5) 1.0000 Uiso
H21 H 0.992(4) 0.615(2) 0.7901(17) 0.022(5) 1.0000 Uiso
H31 H 0.635(4) 0.568(3) 0.7500(19) 0.035(6) 1.0000 Uiso
H41 H 0.588(4) 0.496(3) 0.5531(18) 0.026(5) 1.0000 Uiso
H51 H 0.878(3) 0.342(3) 0.4718(18) 0.030(6) 1.0000 Uiso
H61 H 1.128(3) 0.545(3) 0.434(2) 0.028(6) 1.0000 Uiso
H62 H 0.938(4) 0.655(2) 0.4807(18) 0.023(5) 1.0000 Uiso
H1 H 0.930(4) 0.316(3) 0.8444(19) 0.031(6) 1.0000 Uiso
loop_
_atom_site_aniso_label
_atom_site_aniso_U_11
_atom_site_aniso_U_22
_atom_site_aniso_U_33
_atom_site_aniso_U_23
_atom_site_aniso_U_13
_atom_site_aniso_U_12
O1 0.0228(5) 0.0207(5) 0.0193(5) -0.0023(5) 0.0025(5) 0.0039(5)
O2 0.0217(5) 0.0267(5) 0.0190(5) 0.0007(5) 0.0002(5) -0.0079(5)
O3 0.0326(6) 0.0291(6) 0.0141(5) 0.0012(5) -0.0039(5) -0.0038(6)
O4 0.0193(5) 0.0367(7) 0.0241(6) 0.0082(6) -0.0016(5) -0.0071(6)
C1 0.0138(6) 0.0256(9) 0.0195(7) 0.0003(6) 0.0003(6) -0.0003(6)
C2 0.0232(8) 0.0209(6) 0.0149(6) -0.0019(6) 0.0012(6) -0.0017(7)
C3 0.0185(7) 0.0286(8) 0.0209(7) 0.0044(7) 0.0062(6) 0.0056(7)
C4 0.0159(7) 0.0318(8) 0.0218(7) 0.0080(8) -0.0036(7) -0.0033(7)
C5 0.0235(7) 0.0235(8) 0.0145(6) -0.0013(6) -0.0011(6) -0.0044(7)
C6 0.0228(8) 0.0287(8) 0.0154(6) 0.0000(6) 0.0008(6) -0.0051(7)
loop_
_atom_type_symbol
_atom_type_scat_dispersion_real
_atom_type_scat_dispersion_imag
_atom_type_scat_Cromer_Mann_a1
_atom_type_scat_Cromer_Mann_b1
_atom_type_scat_Cromer_Mann_a2
_atom_type_scat_Cromer_Mann_b2
_atom_type_scat_Cromer_Mann_a3
_atom_type_scat_Cromer_Mann_b3
_atom_type_scat_Cromer_Mann_a4
_atom_type_scat_Cromer_Mann_b4
_atom_type_scat_Cromer_Mann_c
_atom_type_scat_source
C 0.0033 0.0016 2.3100 20.8439 1.0200 10.2075 1.5886 0.5687 0.8650 51.6512
0.2156 'International Tables Vol C 4.2.6.8 and 6.1.1.4'
H 0.0000 0.0000 0.4930 10.5109 0.3229 26.1257 0.1402 3.1424 0.0408 57.7998
0.0030 'International Tables Vol C 4.2.6.8 and 6.1.1.4'
O 0.0106 0.0060 3.0485 13.2771 2.2868 5.7011 1.5463 0.3239 0.8670 32.9089
0.2508 'International Tables Vol C 4.2.6.8 and 6.1.1.4'
loop_
_geom_angle_atom_site_label_1
_geom_angle_atom_site_label_2
_geom_angle_atom_site_label_3
_geom_angle
_geom_angle_publ_flag
C1 O1 C5 102.21(12) yes
C1 O2 C6 107.16(12) yes
C2 O3 H1 110.5(17) no
C3 O4 C4 60.74(11) yes
O2 C1 O1 105.58(12) yes
O2 C1 C2 109.09(14) yes
O1 C1 C2 112.12(13) yes
O2 C1 H11 110.1(12) no
O1 C1 H11 110.5(12) no
C2 C1 H11 109.4(12) no
C1 C2 O3 111.74(14) yes
C1 C2 C3 110.69(13) yes
O3 C2 C3 111.87(13) yes
C1 C2 H21 107.3(12) no
O3 C2 H21 108.5(11) no
C3 C2 H21 106.4(12) no
C2 C3 O4 114.61(14) yes
C2 C3 C4 118.88(14) yes
O4 C3 C4 59.43(11) yes
C2 C3 H31 114.9(15) no
O4 C3 H31 115.0(16) no
C4 C3 H31 121.6(15) no
C3 C4 O4 59.82(12) yes
C3 C4 C5 117.16(14) yes
O4 C4 C5 115.48(14) yes
C3 C4 H41 119.1(13) no
O4 C4 H41 117.1(13) no
C5 C4 H41 116.2(13) no
C4 C5 O1 109.54(12) yes
C4 C5 C6 109.76(14) yes
O1 C5 C6 101.44(12) yes
C4 C5 H51 110.2(13) no
O1 C5 H51 108.6(13) no
C6 C5 H51 116.8(14) no
C5 C6 O2 102.43(13) yes
C5 C6 H61 111.4(14) no
O2 C6 H61 111.9(13) no
C5 C6 H62 115.7(12) no
O2 C6 H62 108.4(12) no
H61 C6 H62 107.0(17) no
loop_
_geom_bond_atom_site_label_1
_geom_bond_atom_site_label_2
_geom_bond_distance
_geom_bond_publ_flag
O1 C1 1.412(2) yes
O1 C5 1.438(2) yes
O2 C1 1.437(2) yes
O2 C6 1.4528(19) yes
O3 C2 1.4207(19) yes
O3 H1 0.80(3) no
O4 C3 1.453(2) yes
O4 C4 1.447(2) yes
C1 C2 1.524(2) yes
C1 H11 0.99(2) no
C2 C3 1.511(2) yes
C2 H21 1.03(2) no
C3 C4 1.467(2) yes
C3 H31 0.94(3) no
C4 C5 1.511(2) yes
C4 H41 0.97(2) no
C5 C6 1.525(2) yes
C5 H51 0.94(2) no
C6 H61 0.97(2) no
C6 H62 1.01(2) no
