#------------------------------------------------------------------------------
#$Date: 2016-03-26 15:36:15 +0200 (Sat, 26 Mar 2016) $
#$Revision: 180307 $
#$URL: svn://www.crystallography.net/cod/cif/7/15/21/7152114.cif $
#------------------------------------------------------------------------------
#
# This file is available in the Crystallography Open Database (COD),
# http://www.crystallography.net/
#
# All data on this site have been placed in the public domain by the
# contributors.
#
data_7152114
loop_
_publ_author_name
'Karban, Jind\<rich'
'C\'isa\<rov\'a, Ivana'
'Stra\<s\'ak, Tom\'a\<s'
'\<S\<tastn\'a, Lucie \<Cervenkov\'a'
'S\'ykora, Jan'
_publ_section_title
;
 Skeletal rearrangements resulting from reactions of 1,6:2,3- and
 1,6:3,4-dianhydro-\b-D-hexopyranoses with diethylaminosulphur
 trifluoride.
;
_journal_issue                   2
_journal_name_full               'Organic &amp; biomolecular chemistry'
_journal_page_first              394
_journal_page_last               403
_journal_paper_doi               10.1039/c1ob06336g
_journal_volume                  10
_journal_year                    2012
_chemical_absolute_configuration unk
_chemical_formula_moiety         'C6 H8 O4'
_chemical_formula_sum            'C6 H8 O4'
_chemical_formula_weight         144.13
_space_group_IT_number           19
_symmetry_cell_setting           orthorhombic
_symmetry_space_group_name_Hall  'P 2ac 2ab'
_symmetry_space_group_name_H-M   'P 21 21 21'
_atom_sites_solution_hydrogens   geom
_atom_sites_solution_primary     direct
_audit_creation_date             11-06-27
_audit_creation_method           CRYSTALS_ver_12.82
_cell_angle_alpha                90
_cell_angle_beta                 90
_cell_angle_gamma                90
_cell_formula_units_Z            4
_cell_length_a                   6.2773(3)
_cell_length_b                   9.4898(6)
_cell_length_c                   10.1036(6)
_cell_measurement_reflns_used    5095
_cell_measurement_temperature    150
_cell_measurement_theta_max      28
_cell_measurement_theta_min      3
_cell_volume                     601.87(6)
_computing_cell_refinement       'DENZO/SCALEPACK (Otwinowski & Minor, 1997)'
_computing_data_collection       'COLLECT. Nonius (1997-2001).'
_computing_data_reduction        'DENZO/SCALEPACK (Otwinowski & Minor, 1997)'
_computing_molecular_graphics    'CAMERON (Watkin et al., 1996)'
_computing_publication_material  'CRYSTALS (Betteridge et al., 2003)'
_computing_structure_refinement  'CRYSTALS (Betteridge et al., 2003)'
_computing_structure_solution    'SHELXS 86 (Sheldrick, 1986)'
_diffrn_ambient_temperature      150
_diffrn_measured_fraction_theta_full 0.998
_diffrn_measured_fraction_theta_max 0.998
_diffrn_measurement_device_type  'Nonius Kappa CCD'
_diffrn_measurement_method       '\f & \w scans'
_diffrn_radiation_monochromator  graphite
_diffrn_radiation_type           'Mo K\a'
_diffrn_radiation_wavelength     0.71073
_diffrn_reflns_av_R_equivalents  0.026
_diffrn_reflns_limit_h_max       8
_diffrn_reflns_limit_h_min       -7
_diffrn_reflns_limit_k_max       11
_diffrn_reflns_limit_k_min       -12
_diffrn_reflns_limit_l_max       11
_diffrn_reflns_limit_l_min       -13
_diffrn_reflns_number            5152
_diffrn_reflns_theta_full        27.528
_diffrn_reflns_theta_max         27.528
_diffrn_reflns_theta_min         2.945
_diffrn_standards_number         0
_exptl_absorpt_coefficient_mu    0.136
_exptl_absorpt_correction_T_max  0.96
_exptl_absorpt_correction_T_min  0.92
_exptl_absorpt_correction_type   multi-scan
_exptl_absorpt_process_details   'SADABS (Siemens, 1996)'
_exptl_crystal_colour            colourless
_exptl_crystal_density_diffrn    1.590
_exptl_crystal_description       prism
_exptl_crystal_F_000             304
_exptl_crystal_size_max          0.59
_exptl_crystal_size_mid          0.41
_exptl_crystal_size_min          0.28
_refine_diff_density_max         0.17
_refine_diff_density_min         -0.18
_refine_ls_extinction_method     None
_refine_ls_goodness_of_fit_ref   1.0409
_refine_ls_hydrogen_treatment    mixed
_refine_ls_matrix_type           full
_refine_ls_number_parameters     123
_refine_ls_number_reflns         743
_refine_ls_number_restraints     0
_refine_ls_R_factor_all          0.0292
_refine_ls_R_factor_gt           0.0264
_refine_ls_shift/su_max          0.000271
_refine_ls_structure_factor_coef F
_refine_ls_weighting_details
;
Method, part 1, Chebychev polynomial, (Watkin, 1994, Prince, 1982)
[weight] = 1.0/[A~0~*T~0~(x)+A~1~*T~1~(x) ... +A~n-1~]*T~n-1~(x)]
where A~i~ are the Chebychev coefficients listed below and x= Fcalc/Fmax
Method = Robust Weighting (Prince, 1982)
W = [weight] * [1-(deltaF/6*sigmaF)^2^]^2^
A~i~ are:
0.266 0.250 0.119
;
_refine_ls_weighting_scheme      calc
_refine_ls_wR_factor_all         0.0332
_refine_ls_wR_factor_gt          0.0301
_refine_ls_wR_factor_ref         0.0301
_reflns_limit_h_max              8
_reflns_limit_h_min              0
_reflns_limit_k_max              12
_reflns_limit_k_min              0
_reflns_limit_l_max              13
_reflns_limit_l_min              0
_reflns_number_gt                743
_reflns_number_total             829
_reflns_threshold_expression     I>1.96u(I)
_oxford_diffrn_Wilson_B_factor   0.00
_oxford_diffrn_Wilson_scale      0.00
_oxford_refine_ls_scale          0.4906(14)
_oxford_structure_analysis_title 'e372_sykora_0m in P2(1)2(1)2(1)'
_cod_data_source_file            c1ob06336g.txt
_cod_data_source_block           CRYSTALS_cif1
_cod_depositor_comments
;
The following automatic conversions were performed:

'_symmetry_cell_setting' value 'Orthorhombic' changed to
'orthorhombic' according to
/home/saulius/struct/CIF-dictionaries/cif_core.dic dictionary named
'cif_core.dic' version 2.4.1 from 2010-06-29.

Automatic conversion script
Id: cif_fix_values 1715 2011-07-08 13:25:40Z adriana 
;
_cod_original_sg_symbol_H-M      'P 21 21 21 '
_cod_database_code               7152114
loop_
_symmetry_equiv_pos_as_xyz
x,y,z
x+1/2,-y+1/2,-z
-x,y+1/2,-z+1/2
-x+1/2,-y,z+1/2
loop_
_atom_site_label
_atom_site_type_symbol
_atom_site_fract_x
_atom_site_fract_y
_atom_site_fract_z
_atom_site_U_iso_or_equiv
_atom_site_occupancy
_atom_site_adp_type
O1 O 0.06061(17) 0.94540(12) 0.21629(9) 0.0209 1.0000 Uani
O2 O -0.10759(16) 0.78967(11) 0.34686(11) 0.0216 1.0000 Uani
O3 O -0.0664(2) 0.99372(13) 0.53107(11) 0.0308 1.0000 Uani
O4 O 0.37791(18) 1.13465(12) 0.32885(11) 0.0261 1.0000 Uani
C1 C -0.1260(2) 0.92699(16) 0.29253(15) 0.0192 1.0000 Uani
C2 C -0.1365(2) 1.03849(16) 0.40164(16) 0.0239 1.0000 Uani
C3 C 0.0665(3) 1.08803(15) 0.45630(14) 0.0234 1.0000 Uani
C4 C 0.2694(2) 1.02694(16) 0.40080(14) 0.0192 1.0000 Uani
C5 C 0.2216(2) 0.90175(17) 0.30926(15) 0.0205 1.0000 Uani
C6 C 0.1175(3) 0.77377(17) 0.37582(17) 0.0257 1.0000 Uani
H11 H -0.243(3) 0.932(2) 0.2342(19) 0.024(5) 1.0000 Uiso
H21 H -0.252(4) 1.100(3) 0.400(2) 0.038(6) 1.0000 Uiso
H31 H 0.079(4) 1.187(2) 0.492(2) 0.036(6) 1.0000 Uiso
H41 H 0.362(3) 0.9961(19) 0.4725(18) 0.021(4) 1.0000 Uiso
H51 H 0.346(4) 0.876(2) 0.256(2) 0.030(5) 1.0000 Uiso
H61 H 0.142(4) 0.771(2) 0.470(2) 0.038(6) 1.0000 Uiso
H62 H 0.166(4) 0.690(2) 0.343(2) 0.029(5) 1.0000 Uiso
H1 H 0.301(4) 1.159(3) 0.267(3) 0.042(7) 1.0000 Uiso
loop_
_atom_site_aniso_label
_atom_site_aniso_U_11
_atom_site_aniso_U_22
_atom_site_aniso_U_33
_atom_site_aniso_U_23
_atom_site_aniso_U_13
_atom_site_aniso_U_12
O1 0.0202(5) 0.0299(5) 0.0125(4) 0.0005(4) -0.0019(4) -0.0030(4)
O2 0.0233(5) 0.0198(5) 0.0217(5) 0.0031(4) -0.0045(4) -0.0036(4)
O3 0.0357(6) 0.0373(6) 0.0193(5) -0.0054(5) 0.0105(5) -0.0063(6)
O4 0.0190(5) 0.0313(6) 0.0280(6) 0.0060(4) -0.0060(5) -0.0076(5)
C1 0.0154(6) 0.0223(6) 0.0200(6) 0.0031(6) -0.0039(5) -0.0017(5)
C2 0.0181(6) 0.0236(7) 0.0300(7) -0.0007(6) 0.0059(6) 0.0037(6)
C3 0.0265(7) 0.0219(6) 0.0219(6) -0.0058(5) 0.0030(6) -0.0021(6)
C4 0.0169(6) 0.0223(7) 0.0185(6) 0.0005(6) -0.0043(5) -0.0009(6)
C5 0.0159(6) 0.0253(7) 0.0203(6) -0.0054(6) -0.0016(6) 0.0042(6)
C6 0.0291(8) 0.0177(6) 0.0303(8) -0.0009(6) -0.0108(7) 0.0027(6)
loop_
_atom_type_symbol
_atom_type_scat_dispersion_real
_atom_type_scat_dispersion_imag
_atom_type_scat_Cromer_Mann_a1
_atom_type_scat_Cromer_Mann_b1
_atom_type_scat_Cromer_Mann_a2
_atom_type_scat_Cromer_Mann_b2
_atom_type_scat_Cromer_Mann_a3
_atom_type_scat_Cromer_Mann_b3
_atom_type_scat_Cromer_Mann_a4
_atom_type_scat_Cromer_Mann_b4
_atom_type_scat_Cromer_Mann_c
_atom_type_scat_source
C 0.0033 0.0016 2.3100 20.8439 1.0200 10.2075 1.5886 0.5687 0.8650 51.6512
0.2156 'International Tables Vol C 4.2.6.8 and 6.1.1.4'
H 0.0000 0.0000 0.4930 10.5109 0.3229 26.1257 0.1402 3.1424 0.0408 57.7998
0.0030 'International Tables Vol C 4.2.6.8 and 6.1.1.4'
O 0.0106 0.0060 3.0485 13.2771 2.2868 5.7011 1.5463 0.3239 0.8670 32.9089
0.2508 'International Tables Vol C 4.2.6.8 and 6.1.1.4'
loop_
_geom_angle_atom_site_label_1
_geom_angle_atom_site_label_2
_geom_angle_atom_site_label_3
_geom_angle
_geom_angle_publ_flag
C1 O1 C5 100.99(10) yes
C1 O2 C6 104.64(11) yes
C2 O3 C3 61.17(10) yes
C4 O4 H1 108.1(18) no
O2 C1 O1 104.90(12) yes
O2 C1 C2 111.11(12) yes
O1 C1 C2 110.08(12) yes
O2 C1 H11 110.8(13) no
O1 C1 H11 107.3(12) no
C2 C1 H11 112.3(13) no
C1 C2 O3 115.86(13) yes
C1 C2 C3 117.11(13) yes
O3 C2 C3 59.22(10) yes
C1 C2 H21 117.1(14) no
O3 C2 H21 115.9(14) no
C3 C2 H21 118.9(14) no
C2 C3 O3 59.61(10) yes
C2 C3 C4 118.09(11) yes
O3 C3 C4 116.51(12) yes
C2 C3 H31 120.1(14) no
O3 C3 H31 115.8(12) no
C4 C3 H31 115.1(14) no
C3 C4 O4 108.49(12) yes
C3 C4 C5 110.88(11) yes
O4 C4 C5 109.92(12) yes
C3 C4 H41 110.2(11) no
O4 C4 H41 108.0(11) no
C5 C4 H41 109.4(11) no
C4 C5 O1 107.91(12) yes
C4 C5 C6 115.58(12) yes
O1 C5 C6 102.39(12) yes
C4 C5 H51 111.4(13) no
O1 C5 H51 105.8(13) no
C6 C5 H51 112.8(13) no
C5 C6 O2 104.13(12) yes
C5 C6 H61 113.0(14) no
O2 C6 H61 110.8(14) no
C5 C6 H62 112.7(14) no
O2 C6 H62 110.0(14) no
H61 C6 H62 106(2) no
loop_
_geom_bond_atom_site_label_1
_geom_bond_atom_site_label_2
_geom_bond_distance
_geom_bond_publ_flag
O1 C1 1.4126(18) yes
O1 C5 1.4407(18) yes
O2 C1 1.4187(17) yes
O2 C6 1.4510(19) yes
O3 C2 1.444(2) yes
O3 C3 1.4380(19) yes
O4 C4 1.4272(18) yes
O4 H1 0.83(3) no
C1 C2 1.529(2) yes
C1 H11 0.94(2) no
C2 C3 1.466(2) yes
C2 H21 0.93(2) no
C3 C4 1.508(2) yes
C3 H31 1.01(2) no
C4 C5 1.535(2) yes
C4 H41 0.975(19) no
C5 C6 1.534(2) yes
C5 H51 0.98(2) no
C6 H61 0.97(3) no
C6 H62 0.91(2) no
