#------------------------------------------------------------------------------
#$Date: 2016-02-16 03:10:39 +0200 (Tue, 16 Feb 2016) $
#$Revision: 176453 $
#$URL: svn://www.crystallography.net/cod/cif/7/15/21/7152130.cif $
#------------------------------------------------------------------------------
#
# This file is available in the Crystallography Open Database (COD),
# http://www.crystallography.net/
#
# All data on this site have been placed in the public domain by the
# contributors.
#
data_7152130
loop_
_publ_author_name
'Karban, Jind\<rich'
'C\'isa\<rov\'a, Ivana'
'Stra\<s\'ak, Tom\'a\<s'
'\<S\<tastn\'a, Lucie \<Cervenkov\'a'
'S\'ykora, Jan'
_publ_section_title
;
 Skeletal rearrangements resulting from reactions of 1,6:2,3- and
 1,6:3,4-dianhydro-\b-D-hexopyranoses with diethylaminosulphur
 trifluoride.
;
_journal_issue                   2
_journal_name_full               'Organic &amp; biomolecular chemistry'
_journal_page_first              394
_journal_page_last               403
_journal_paper_doi               10.1039/c1ob06336g
_journal_volume                  10
_journal_year                    2012
_chemical_absolute_configuration unk
_chemical_formula_moiety         'C6 H7 F1 O3'
_chemical_formula_sum            'C6 H7 F O3'
_chemical_formula_weight         146.12
_space_group_IT_number           1
_symmetry_cell_setting           triclinic
_symmetry_space_group_name_Hall  'P 1'
_symmetry_space_group_name_H-M   'P 1'
_atom_sites_solution_hydrogens   geom
_atom_sites_solution_primary     direct
_audit_creation_date             11-06-29
_audit_creation_method           CRYSTALS_ver_12.82
_cell_angle_alpha                68.403(2)
_cell_angle_beta                 67.501(2)
_cell_angle_gamma                80.743(3)
_cell_formula_units_Z            1
_cell_length_a                   5.1716(2)
_cell_length_b                   5.2806(2)
_cell_length_c                   6.0820(3)
_cell_measurement_reflns_used    639
_cell_measurement_temperature    150
_cell_measurement_theta_max      27
_cell_measurement_theta_min      4
_cell_volume                     142.640(11)
_computing_cell_refinement       'DENZO/SCALEPACK (Otwinowski & Minor, 1997)'
_computing_data_collection       'COLLECT. Nonius (1997-2001).'
_computing_data_reduction        'DENZO/SCALEPACK (Otwinowski & Minor, 1997)'
_computing_molecular_graphics    'CAMERON (Watkin et al., 1996)'
_computing_publication_material  'CRYSTALS (Betteridge et al., 2003)'
_computing_structure_refinement  'CRYSTALS (Betteridge et al., 2003)'
_computing_structure_solution    'SHELXS 86 (Sheldrick, 1986)'
_diffrn_ambient_temperature      150
_diffrn_measured_fraction_theta_full 1.000
_diffrn_measured_fraction_theta_max 1.000
_diffrn_measurement_device_type  'Nonius Kappa CCD'
_diffrn_measurement_method       '\f & \w scans'
_diffrn_radiation_monochromator  graphite
_diffrn_radiation_type           'Mo K\a'
_diffrn_radiation_wavelength     0.71073
_diffrn_reflns_av_R_equivalents  0.009
_diffrn_reflns_limit_h_max       6
_diffrn_reflns_limit_h_min       -6
_diffrn_reflns_limit_k_max       6
_diffrn_reflns_limit_k_min       -6
_diffrn_reflns_limit_l_max       7
_diffrn_reflns_limit_l_min       -7
_diffrn_reflns_number            1283
_diffrn_reflns_theta_full        27.445
_diffrn_reflns_theta_max         27.445
_diffrn_reflns_theta_min         3.850
_diffrn_standards_number         0
_exptl_absorpt_coefficient_mu    0.156
_exptl_absorpt_correction_T_max  0.96
_exptl_absorpt_correction_T_min  0.95
_exptl_absorpt_correction_type   numerical
_exptl_absorpt_process_details
;
Analytical Absorption (De Meulenaer & Tompa, 1965)
;
_exptl_crystal_colour            colourless
_exptl_crystal_density_diffrn    1.701
_exptl_crystal_description       desk
_exptl_crystal_F_000             76
_exptl_crystal_size_max          0.65
_exptl_crystal_size_mid          0.30
_exptl_crystal_size_min          0.25
_refine_diff_density_max         0.17
_refine_diff_density_min         -0.21
_refine_ls_extinction_method     None
_refine_ls_goodness_of_fit_ref   1.1790
_refine_ls_hydrogen_treatment    mixed
_refine_ls_matrix_type           full
_refine_ls_number_parameters     118
_refine_ls_number_reflns         629
_refine_ls_number_restraints     3
_refine_ls_R_factor_all          0.0270
_refine_ls_R_factor_gt           0.0261
_refine_ls_shift/su_max          0.000048
_refine_ls_structure_factor_coef F
_refine_ls_weighting_details
;
Method, part 1, Chebychev polynomial, (Watkin, 1994, Prince, 1982)
[weight] = 1.0/[A~0~*T~0~(x)+A~1~*T~1~(x) ... +A~n-1~]*T~n-1~(x)]
where A~i~ are the Chebychev coefficients listed below and x= Fcalc/Fmax
Method = Robust Weighting (Prince, 1982)
W = [weight] * [1-(deltaF/6*sigmaF)^2^]^2^
A~i~ are:
0.542 0.212 0.270
;
_refine_ls_weighting_scheme      calc
_refine_ls_wR_factor_all         0.0281
_refine_ls_wR_factor_gt          0.0274
_refine_ls_wR_factor_ref         0.0274
_reflns_limit_h_max              6
_reflns_limit_h_min              -6
_reflns_limit_k_max              6
_reflns_limit_k_min              -5
_reflns_limit_l_max              7
_reflns_limit_l_min              0
_reflns_number_gt                629
_reflns_number_total             647
_reflns_threshold_expression     I>1.96u(I)
_oxford_diffrn_Wilson_B_factor   0.00
_oxford_diffrn_Wilson_scale      0.00
_oxford_refine_ls_scale          3.298
_cod_data_source_file            c1ob06336g.txt
_cod_data_source_block           CRYSTALS_cif17
_cod_depositor_comments
;
The following automatic conversions were performed:

'_symmetry_cell_setting' value 'Triclinic' changed to 'triclinic'
according to /home/saulius/struct/CIF-dictionaries/cif_core.dic
dictionary named 'cif_core.dic' version 2.4.1 from 2010-06-29.

Automatic conversion script
Id: cif_fix_values 1715 2011-07-08 13:25:40Z adriana 
;
_cod_original_sg_symbol_H-M      'P 1 '
_cod_original_formula_sum        'C6 H7 F1 O3'
_cod_database_code               7152130
loop_
_symmetry_equiv_pos_as_xyz
x,y,z
loop_
_atom_site_label
_atom_site_type_symbol
_atom_site_fract_x
_atom_site_fract_y
_atom_site_fract_z
_atom_site_U_iso_or_equiv
_atom_site_occupancy
_atom_site_adp_type
F1 F -0.0173(3) -0.1577(3) 0.5326(3) 0.0245 1.0000 Uani
O1 O 0.2150(3) 0.0240(3) 0.0409(3) 0.0207 1.0000 Uani
O2 O 0.6254(3) 0.2391(3) -0.1671(3) 0.0235 1.0000 Uani
O3 O 0.4293(3) 0.3569(3) 0.2432(3) 0.0216 1.0000 Uani
C1 C 0.4879(4) 0.0156(4) 0.0466(4) 0.0201 1.0000 Uani
C2 C 0.4603(4) 0.0618(4) 0.2930(4) 0.0201 1.0000 Uani
C3 C 0.1534(4) 0.0537(4) 0.4699(3) 0.0204 1.0000 Uani
C4 C 0.1366(4) 0.3336(4) 0.2704(3) 0.0203 1.0000 Uani
C5 C 0.1453(4) 0.3063(4) 0.0239(4) 0.0192 1.0000 Uani
C6 C 0.4047(4) 0.4432(4) -0.1985(3) 0.0218 1.0000 Uani
H11 H 0.578(5) -0.156(6) 0.031(5) 0.026(6) 1.0000 Uiso
H21 H 0.616(5) -0.024(5) 0.359(4) 0.022(6) 1.0000 Uiso
H31 H 0.142(4) 0.078(4) 0.624(4) 0.010(4) 1.0000 Uiso
H41 H 0.013(5) 0.487(5) 0.317(4) 0.020(5) 1.0000 Uiso
H51 H -0.029(6) 0.343(5) -0.001(5) 0.030(7) 1.0000 Uiso
H61 H 0.451(5) 0.611(5) -0.197(5) 0.027(6) 1.0000 Uiso
H62 H 0.383(6) 0.474(6) -0.361(5) 0.032(6) 1.0000 Uiso
loop_
_atom_site_aniso_label
_atom_site_aniso_U_11
_atom_site_aniso_U_22
_atom_site_aniso_U_33
_atom_site_aniso_U_23
_atom_site_aniso_U_13
_atom_site_aniso_U_12
F1 0.0211(5) 0.0227(5) 0.0249(5) -0.0021(4) -0.0060(4) -0.0073(4)
O1 0.0251(6) 0.0187(6) 0.0222(6) -0.0082(5) -0.0100(5) -0.0033(5)
O2 0.0225(6) 0.0235(6) 0.0178(6) -0.0045(5) -0.0023(5) -0.0006(5)
O3 0.0233(6) 0.0211(6) 0.0227(6) -0.0074(5) -0.0087(5) -0.0050(5)
C1 0.0204(8) 0.0175(7) 0.0194(7) -0.0052(6) -0.0046(6) -0.0008(6)
C2 0.0195(8) 0.0206(8) 0.0189(7) -0.0026(6) -0.0079(6) -0.0037(6)
C3 0.0192(8) 0.0221(8) 0.0190(8) -0.0058(6) -0.0052(6) -0.0049(6)
C4 0.0177(7) 0.0215(8) 0.0208(7) -0.0084(6) -0.0042(6) -0.0011(6)
C5 0.0192(8) 0.0175(7) 0.0213(8) -0.0050(6) -0.0090(6) -0.0002(6)
C6 0.0255(8) 0.0212(8) 0.0182(8) -0.0052(6) -0.0080(7) -0.0021(6)
loop_
_atom_type_symbol
_atom_type_scat_dispersion_real
_atom_type_scat_dispersion_imag
_atom_type_scat_Cromer_Mann_a1
_atom_type_scat_Cromer_Mann_b1
_atom_type_scat_Cromer_Mann_a2
_atom_type_scat_Cromer_Mann_b2
_atom_type_scat_Cromer_Mann_a3
_atom_type_scat_Cromer_Mann_b3
_atom_type_scat_Cromer_Mann_a4
_atom_type_scat_Cromer_Mann_b4
_atom_type_scat_Cromer_Mann_c
_atom_type_scat_source
C 0.0033 0.0016 2.3100 20.8439 1.0200 10.2075 1.5886 0.5687 0.8650 51.6512
0.2156 'International Tables Vol C 4.2.6.8 and 6.1.1.4'
H 0.0000 0.0000 0.4930 10.5109 0.3229 26.1257 0.1402 3.1424 0.0408 57.7998
0.0030 'International Tables Vol C 4.2.6.8 and 6.1.1.4'
O 0.0106 0.0060 3.0485 13.2771 2.2868 5.7011 1.5463 0.3239 0.8670 32.9089
0.2508 'International Tables Vol C 4.2.6.8 and 6.1.1.4'
F 0.0171 0.0103 3.5392 10.2825 2.6412 4.2944 1.5170 0.2615 1.0243 26.1476
0.2776 'International Tables Vol C 4.2.6.8 and 6.1.1.4'
loop_
_geom_angle_atom_site_label_1
_geom_angle_atom_site_label_2
_geom_angle_atom_site_label_3
_geom_angle
_geom_angle_publ_flag
C1 O1 C5 97.75(12) yes
C1 O2 C6 104.89(13) yes
C2 O3 C4 87.33(12) yes
O2 C1 O1 104.73(14) yes
O2 C1 C2 109.77(15) yes
O1 C1 C2 108.04(13) yes
O2 C1 H11 111.1(15) no
O1 C1 H11 108.3(15) no
C2 C1 H11 114.4(15) no
C1 C2 O3 106.91(13) yes
C1 C2 C3 111.38(14) yes
O3 C2 C3 84.77(12) yes
C1 C2 H21 114.5(14) no
O3 C2 H21 113.0(14) no
C3 C2 H21 121.8(14) no
C2 C3 F1 121.37(15) yes
C2 C3 C4 82.68(12) yes
F1 C3 C4 121.81(15) yes
C2 C3 H31 109.8(12) no
F1 C3 H31 108.8(12) no
C4 C3 H31 110.0(12) no
C3 C4 O3 84.13(12) yes
C3 C4 C5 112.03(14) yes
O3 C4 C5 107.01(13) yes
C3 C4 H41 122.3(13) no
O3 C4 H41 112.1(14) no
C5 C4 H41 114.4(13) no
C4 C5 O1 107.43(13) yes
C4 C5 C6 110.73(14) yes
O1 C5 C6 99.75(13) yes
C4 C5 H51 113.9(17) no
O1 C5 H51 105.6(16) no
C6 C5 H51 117.8(16) no
C5 C6 O2 102.62(13) yes
C5 C6 H61 114.5(16) no
O2 C6 H61 110.0(16) no
C5 C6 H62 110.5(17) no
O2 C6 H62 109.5(16) no
H61 C6 H62 110(2) no
loop_
_geom_bond_atom_site_label_1
_geom_bond_atom_site_label_2
_geom_bond_distance
_geom_bond_publ_flag
F1 C3 1.385(2) yes
O1 C1 1.418(2) yes
O1 C5 1.451(2) yes
O2 C1 1.422(2) yes
O2 C6 1.456(2) yes
O3 C2 1.468(2) yes
O3 C4 1.479(2) yes
C1 C2 1.555(3) yes
C1 H11 0.97(3) no
C2 C3 1.536(2) yes
C2 H21 1.00(2) no
C3 C4 1.544(3) yes
C3 H31 0.97(2) no
C4 C5 1.541(2) yes
C4 H41 1.00(2) no
C5 C6 1.535(2) yes
C5 H51 0.95(3) no
C6 H61 0.96(3) no
C6 H62 0.99(3) no
