#------------------------------------------------------------------------------
#$Date: 2016-02-16 03:10:39 +0200 (Tue, 16 Feb 2016) $
#$Revision: 176453 $
#$URL: svn://www.crystallography.net/cod/cif/7/15/21/7152129.cif $
#------------------------------------------------------------------------------
#
# This file is available in the Crystallography Open Database (COD),
# http://www.crystallography.net/
#
# All data on this site have been placed in the public domain by the
# contributors.
#
data_7152129
loop_
_publ_author_name
'Karban, Jind\<rich'
'C\'isa\<rov\'a, Ivana'
'Stra\<s\'ak, Tom\'a\<s'
'\<S\<tastn\'a, Lucie \<Cervenkov\'a'
'S\'ykora, Jan'
_publ_section_title
;
 Skeletal rearrangements resulting from reactions of 1,6:2,3- and
 1,6:3,4-dianhydro-\b-D-hexopyranoses with diethylaminosulphur
 trifluoride.
;
_journal_issue                   2
_journal_name_full               'Organic &amp; biomolecular chemistry'
_journal_page_first              394
_journal_page_last               403
_journal_paper_doi               10.1039/c1ob06336g
_journal_volume                  10
_journal_year                    2012
_chemical_absolute_configuration unk
_chemical_formula_moiety         'C6 H7 F1 O3'
_chemical_formula_sum            'C6 H7 F O3'
_chemical_formula_weight         146.12
_space_group_IT_number           19
_symmetry_cell_setting           orthorhombic
_symmetry_space_group_name_Hall  'P 2ac 2ab'
_symmetry_space_group_name_H-M   'P 21 21 21'
_atom_sites_solution_hydrogens   geom
_atom_sites_solution_primary     direct
_audit_creation_date             11-06-29
_audit_creation_method           CRYSTALS_ver_12.82
_cell_angle_alpha                90
_cell_angle_beta                 90
_cell_angle_gamma                90
_cell_formula_units_Z            4
_cell_length_a                   7.2178(10)
_cell_length_b                   8.7675(13)
_cell_length_c                   9.500(2)
_cell_measurement_reflns_used    243
_cell_measurement_temperature    150
_cell_measurement_theta_max      29
_cell_measurement_theta_min      3
_cell_volume                     601.18(18)
_computing_cell_refinement       'DENZO/SCALEPACK (Otwinowski & Minor, 1997)'
_computing_data_collection       'COLLECT. Nonius (1997-2001).'
_computing_data_reduction        'DENZO/SCALEPACK (Otwinowski & Minor, 1997)'
_computing_molecular_graphics    'CAMERON (Watkin et al., 1996)'
_computing_publication_material  'CRYSTALS (Betteridge et al., 2003)'
_computing_structure_refinement  'CRYSTALS (Betteridge et al., 2003)'
_computing_structure_solution    'SHELXS 86 (Sheldrick, 1986)'
_diffrn_ambient_temperature      150
_diffrn_measured_fraction_theta_full 0.999
_diffrn_measured_fraction_theta_max 0.901
_diffrn_measurement_device_type  'Nonius Kappa CCD'
_diffrn_measurement_method       '\f & \w scans'
_diffrn_radiation_monochromator  graphite
_diffrn_radiation_type           'Mo K\a'
_diffrn_radiation_wavelength     0.71073
_diffrn_reflns_av_R_equivalents  0.019
_diffrn_reflns_limit_h_max       10
_diffrn_reflns_limit_h_min       -9
_diffrn_reflns_limit_k_max       12
_diffrn_reflns_limit_k_min       -12
_diffrn_reflns_limit_l_max       11
_diffrn_reflns_limit_l_min       -13
_diffrn_reflns_number            5468
_diffrn_reflns_theta_full        26.473
_diffrn_reflns_theta_max         30.082
_diffrn_reflns_theta_min         3.162
_diffrn_standards_number         0
_exptl_absorpt_coefficient_mu    0.148
_exptl_absorpt_correction_T_max  0.98
_exptl_absorpt_correction_T_min  0.91
_exptl_absorpt_correction_type   multi-scan
_exptl_absorpt_process_details   'SADABS (Siemens, 1996)'
_exptl_crystal_colour            colourless
_exptl_crystal_density_diffrn    1.614
_exptl_crystal_description       bar
_exptl_crystal_F_000             304
_exptl_crystal_size_max          0.61
_exptl_crystal_size_mid          0.21
_exptl_crystal_size_min          0.13
_refine_diff_density_max         0.20
_refine_diff_density_min         -0.20
_refine_ls_extinction_method     None
_refine_ls_goodness_of_fit_ref   1.0651
_refine_ls_hydrogen_treatment    mixed
_refine_ls_matrix_type           full
_refine_ls_number_parameters     119
_refine_ls_number_reflns         767
_refine_ls_number_restraints     0
_refine_ls_R_factor_all          0.0377
_refine_ls_R_factor_gt           0.0295
_refine_ls_shift/su_max          0.000218
_refine_ls_structure_factor_coef F
_refine_ls_weighting_details
;
Method, part 1, Chebychev polynomial, (Watkin, 1994, Prince, 1982)
[weight] = 1.0/[A~0~*T~0~(x)+A~1~*T~1~(x) ... +A~n-1~]*T~n-1~(x)]
where A~i~ are the Chebychev coefficients listed below and x= Fcalc/Fmax
Method = Robust Weighting (Prince, 1982)
W = [weight] * [1-(deltaF/6*sigmaF)^2^]^2^
A~i~ are:
0.250 0.214 0.103
;
_refine_ls_weighting_scheme      calc
_refine_ls_wR_factor_all         0.0475
_refine_ls_wR_factor_gt          0.0334
_refine_ls_wR_factor_ref         0.0334
_reflns_limit_h_max              10
_reflns_limit_h_min              0
_reflns_limit_k_max              12
_reflns_limit_k_min              0
_reflns_limit_l_max              13
_reflns_limit_l_min              0
_reflns_number_gt                767
_reflns_number_total             939
_reflns_threshold_expression     I>1.96u(I)
_oxford_diffrn_Wilson_B_factor   0.00
_oxford_diffrn_Wilson_scale      0.00
_oxford_refine_ls_scale          0.3889(11)
_oxford_structure_analysis_title 'e340_f1_sykora_0m in P2(1)2(1)2(1)'
_cod_data_source_file            c1ob06336g.txt
_cod_data_source_block           CRYSTALS_cif16
_cod_depositor_comments
;
The following automatic conversions were performed:

'_symmetry_cell_setting' value 'Orthorhombic' changed to
'orthorhombic' according to
/home/saulius/struct/CIF-dictionaries/cif_core.dic dictionary named
'cif_core.dic' version 2.4.1 from 2010-06-29.

Automatic conversion script
Id: cif_fix_values 1715 2011-07-08 13:25:40Z adriana 
;
_cod_original_cell_volume        601.20(19)
_cod_original_sg_symbol_H-M      'P 21 21 21 '
_cod_original_formula_sum        'C6 H7 F1 O3'
_cod_database_code               7152129
loop_
_symmetry_equiv_pos_as_xyz
x,y,z
x+1/2,-y+1/2,-z
-x,y+1/2,-z+1/2
-x+1/2,-y,z+1/2
loop_
_atom_site_label
_atom_site_type_symbol
_atom_site_fract_x
_atom_site_fract_y
_atom_site_fract_z
_atom_site_U_iso_or_equiv
_atom_site_occupancy
_atom_site_adp_type
F1 F 0.59453(15) 0.55200(16) 0.37879(17) 0.0341 1.0000 Uani
O1 O 0.14896(18) 0.56444(16) 0.54855(14) 0.0201 1.0000 Uani
O2 O 0.05271(18) 0.60494(15) 0.32584(15) 0.0203 1.0000 Uani
O3 O 0.2537(2) 0.26811(14) 0.48915(15) 0.0215 1.0000 Uani
C1 C 0.0543(3) 0.4945(2) 0.43570(19) 0.0170 1.0000 Uani
C2 C 0.1600(3) 0.3570(2) 0.3821(2) 0.0171 1.0000 Uani
C3 C 0.3618(3) 0.3631(2) 0.3956(2) 0.0195 1.0000 Uani
C4 C 0.4489(3) 0.5006(2) 0.4649(2) 0.0215 1.0000 Uani
C5 C 0.3080(3) 0.6290(2) 0.4792(2) 0.0191 1.0000 Uani
C6 C 0.2304(3) 0.68076(19) 0.3363(2) 0.0192 1.0000 Uani
H11 H -0.070(4) 0.471(3) 0.461(3) 0.028(6) 1.0000 Uiso
H21 H 0.105(3) 0.305(3) 0.310(3) 0.021(6) 1.0000 Uiso
H31 H 0.439(4) 0.309(3) 0.330(3) 0.029(6) 1.0000 Uiso
H41 H 0.497(4) 0.473(3) 0.557(3) 0.040(8) 1.0000 Uiso
H51 H 0.349(3) 0.707(3) 0.532(3) 0.024(6) 1.0000 Uiso
H61 H 0.205(3) 0.790(3) 0.334(3) 0.026(6) 1.0000 Uiso
H62 H 0.307(3) 0.651(3) 0.261(3) 0.017(5) 1.0000 Uiso
loop_
_atom_site_aniso_label
_atom_site_aniso_U_11
_atom_site_aniso_U_22
_atom_site_aniso_U_33
_atom_site_aniso_U_23
_atom_site_aniso_U_13
_atom_site_aniso_U_12
F1 0.0138(5) 0.0343(6) 0.0541(8) 0.0100(7) 0.0057(5) -0.0028(5)
O1 0.0241(6) 0.0191(6) 0.0170(6) -0.0016(5) 0.0039(5) -0.0020(5)
O2 0.0164(5) 0.0196(6) 0.0250(6) 0.0073(5) -0.0030(6) 0.0004(5)
O3 0.0218(6) 0.0163(5) 0.0265(7) 0.0067(5) -0.0022(6) 0.0007(5)
C1 0.0146(7) 0.0172(7) 0.0193(8) 0.0042(7) -0.0005(7) -0.0003(6)
C2 0.0207(8) 0.0139(7) 0.0168(7) 0.0002(7) -0.0031(7) -0.0015(7)
C3 0.0185(7) 0.0171(8) 0.0230(8) 0.0027(8) 0.0012(7) 0.0038(7)
C4 0.0142(7) 0.0223(8) 0.0279(9) 0.0046(8) -0.0026(8) -0.0022(7)
C5 0.0196(8) 0.0165(7) 0.0213(8) -0.0018(7) -0.0025(7) -0.0026(6)
C6 0.0183(7) 0.0162(7) 0.0232(8) 0.0048(6) -0.0001(8) -0.0011(7)
loop_
_atom_type_symbol
_atom_type_scat_dispersion_real
_atom_type_scat_dispersion_imag
_atom_type_scat_Cromer_Mann_a1
_atom_type_scat_Cromer_Mann_b1
_atom_type_scat_Cromer_Mann_a2
_atom_type_scat_Cromer_Mann_b2
_atom_type_scat_Cromer_Mann_a3
_atom_type_scat_Cromer_Mann_b3
_atom_type_scat_Cromer_Mann_a4
_atom_type_scat_Cromer_Mann_b4
_atom_type_scat_Cromer_Mann_c
_atom_type_scat_source
C 0.0033 0.0016 2.3100 20.8439 1.0200 10.2075 1.5886 0.5687 0.8650 51.6512
0.2156 'International Tables Vol C 4.2.6.8 and 6.1.1.4'
H 0.0000 0.0000 0.4930 10.5109 0.3229 26.1257 0.1402 3.1424 0.0408 57.7998
0.0030 'International Tables Vol C 4.2.6.8 and 6.1.1.4'
O 0.0106 0.0060 3.0485 13.2771 2.2868 5.7011 1.5463 0.3239 0.8670 32.9089
0.2508 'International Tables Vol C 4.2.6.8 and 6.1.1.4'
F 0.0171 0.0103 3.5392 10.2825 2.6412 4.2944 1.5170 0.2615 1.0243 26.1476
0.2776 'International Tables Vol C 4.2.6.8 and 6.1.1.4'
loop_
_geom_angle_atom_site_label_1
_geom_angle_atom_site_label_2
_geom_angle_atom_site_label_3
_geom_angle
_geom_angle_publ_flag
C1 O1 C5 102.08(13) yes
C1 O2 C6 104.76(14) yes
C2 O3 C3 60.70(11) yes
O2 C1 O1 105.37(14) yes
O2 C1 C2 107.39(15) yes
O1 C1 C2 110.96(15) yes
O2 C1 H11 108.9(16) no
O1 C1 H11 110.9(16) no
C2 C1 H11 113.0(16) no
C1 C2 O3 115.28(16) yes
C1 C2 C3 116.28(17) yes
O3 C2 C3 59.57(12) yes
C1 C2 H21 115.7(15) no
O3 C2 H21 117.4(16) no
C3 C2 H21 120.8(15) no
C2 C3 O3 59.74(12) yes
C2 C3 C4 118.82(17) yes
O3 C3 C4 114.62(17) yes
C2 C3 H31 120.4(17) no
O3 C3 H31 115.4(15) no
C4 C3 H31 115.6(16) no
C3 C4 F1 108.28(17) yes
C3 C4 C5 110.52(16) yes
F1 C4 C5 108.33(15) yes
C3 C4 H41 109.9(18) no
F1 C4 H41 109.7(18) no
C5 C4 H41 110.1(18) no
C4 C5 O1 106.45(14) yes
C4 C5 C6 112.48(16) yes
O1 C5 C6 103.29(14) yes
C4 C5 H51 113.0(16) no
O1 C5 H51 107.8(17) no
C6 C5 H51 113.0(16) no
C5 C6 O2 104.33(14) yes
C5 C6 H61 112.0(16) no
O2 C6 H61 106.6(14) no
C5 C6 H62 112.4(14) no
O2 C6 H62 109.8(14) no
H61 C6 H62 111(2) no
loop_
_geom_bond_atom_site_label_1
_geom_bond_atom_site_label_2
_geom_bond_distance
_geom_bond_publ_flag
F1 C4 1.406(2) yes
O1 C1 1.411(2) yes
O1 C5 1.439(2) yes
O2 C1 1.424(2) yes
O2 C6 1.448(2) yes
O3 C2 1.449(2) yes
O3 C3 1.447(2) yes
C1 C2 1.514(3) yes
C1 H11 0.95(3) no
C2 C3 1.463(2) yes
C2 H21 0.92(3) no
C3 C4 1.510(3) yes
C3 H31 0.96(3) no
C4 C5 1.523(3) yes
C4 H41 0.97(3) no
C5 C6 1.538(3) yes
C5 H51 0.90(3) no
C6 H61 0.98(3) no
C6 H62 0.94(2) no
