#------------------------------------------------------------------------------
#$Date: 2016-02-16 03:10:39 +0200 (Tue, 16 Feb 2016) $
#$Revision: 176453 $
#$URL: svn://www.crystallography.net/cod/cif/7/15/21/7152126.cif $
#------------------------------------------------------------------------------
#
# This file is available in the Crystallography Open Database (COD),
# http://www.crystallography.net/
#
# All data on this site have been placed in the public domain by the
# contributors.
#
data_7152126
loop_
_publ_author_name
'Karban, Jind\<rich'
'C\'isa\<rov\'a, Ivana'
'Stra\<s\'ak, Tom\'a\<s'
'\<S\<tastn\'a, Lucie \<Cervenkov\'a'
'S\'ykora, Jan'
_publ_section_title
;
 Skeletal rearrangements resulting from reactions of 1,6:2,3- and
 1,6:3,4-dianhydro-\b-D-hexopyranoses with diethylaminosulphur
 trifluoride.
;
_journal_issue                   2
_journal_name_full               'Organic &amp; biomolecular chemistry'
_journal_page_first              394
_journal_page_last               403
_journal_paper_doi               10.1039/c1ob06336g
_journal_volume                  10
_journal_year                    2012
_chemical_absolute_configuration unk
_chemical_formula_moiety         'C6 H7 F1 O3'
_chemical_formula_sum            'C6 H7 F O3'
_chemical_formula_weight         146.12
_space_group_IT_number           4
_symmetry_cell_setting           monoclinic
_symmetry_space_group_name_Hall  'P 2yb'
_symmetry_space_group_name_H-M   'P 1 21 1'
_atom_sites_solution_hydrogens   geom
_atom_sites_solution_primary     direct
_audit_creation_date             11-06-29
_audit_creation_method           CRYSTALS_ver_12.82
_cell_angle_alpha                90
_cell_angle_beta                 94.628(2)
_cell_angle_gamma                90
_cell_formula_units_Z            2
_cell_length_a                   6.1181(3)
_cell_length_b                   7.1297(3)
_cell_length_c                   6.9272(4)
_cell_measurement_reflns_used    3722
_cell_measurement_temperature    150
_cell_measurement_theta_max      30
_cell_measurement_theta_min      3
_cell_volume                     301.18(3)
_computing_cell_refinement       'DENZO/SCALEPACK (Otwinowski & Minor, 1997)'
_computing_data_collection       'COLLECT. Nonius (1997-2001).'
_computing_data_reduction        'DENZO/SCALEPACK (Otwinowski & Minor, 1997)'
_computing_molecular_graphics    'CAMERON (Watkin et al., 1996)'
_computing_publication_material  'CRYSTALS (Betteridge et al., 2003)'
_computing_structure_refinement  'CRYSTALS (Betteridge et al., 2003)'
_computing_structure_solution    'SHELXS 86 (Sheldrick, 1986)'
_diffrn_ambient_temperature      150
_diffrn_measured_fraction_theta_full 0.997
_diffrn_measured_fraction_theta_max 0.914
_diffrn_measurement_device_type  'Nonius Kappa CCD'
_diffrn_measurement_method       '\f & \w scans'
_diffrn_radiation_monochromator  graphite
_diffrn_radiation_type           'Mo K\a'
_diffrn_radiation_wavelength     0.71073
_diffrn_reflns_av_R_equivalents  0.022
_diffrn_reflns_limit_h_max       7
_diffrn_reflns_limit_h_min       -7
_diffrn_reflns_limit_k_max       9
_diffrn_reflns_limit_k_min       -9
_diffrn_reflns_limit_l_max       8
_diffrn_reflns_limit_l_min       -9
_diffrn_reflns_number            4728
_diffrn_reflns_theta_full        27.051
_diffrn_reflns_theta_max         29.727
_diffrn_reflns_theta_min         2.950
_diffrn_standards_number         0
_exptl_absorpt_coefficient_mu    0.148
_exptl_absorpt_correction_T_max  0.95
_exptl_absorpt_correction_T_min  0.84
_exptl_absorpt_correction_type   multi-scan
_exptl_absorpt_process_details   'SADABS (Siemens, 1996)'
_exptl_crystal_colour            colourless
_exptl_crystal_density_diffrn    1.611
_exptl_crystal_description       prism
_exptl_crystal_F_000             152
_exptl_crystal_size_max          0.66
_exptl_crystal_size_mid          0.38
_exptl_crystal_size_min          0.36
_refine_diff_density_max         0.24
_refine_diff_density_min         -0.14
_refine_ls_extinction_method     None
_refine_ls_goodness_of_fit_ref   1.1481
_refine_ls_hydrogen_treatment    mixed
_refine_ls_matrix_type           full
_refine_ls_number_parameters     119
_refine_ls_number_reflns         749
_refine_ls_number_restraints     1
_refine_ls_R_factor_all          0.0266
_refine_ls_R_factor_gt           0.0235
_refine_ls_shift/su_max          0.000181
_refine_ls_structure_factor_coef F
_refine_ls_weighting_details
;
Method, part 1, Chebychev polynomial, (Watkin, 1994, Prince, 1982)
[weight] = 1.0/[A~0~*T~0~(x)+A~1~*T~1~(x) ... +A~n-1~]*T~n-1~(x)]
where A~i~ are the Chebychev coefficients listed below and x= Fcalc/Fmax
Method = Robust Weighting (Prince, 1982)
W = [weight] * [1-(deltaF/6*sigmaF)^2^]^2^
A~i~ are:
0.171 0.115 0.530E-01
;
_refine_ls_weighting_scheme      calc
_refine_ls_wR_factor_all         0.0318
_refine_ls_wR_factor_gt          0.0277
_refine_ls_wR_factor_ref         0.0277
_reflns_limit_h_max              7
_reflns_limit_h_min              -7
_reflns_limit_k_max              9
_reflns_limit_k_min              0
_reflns_limit_l_max              9
_reflns_limit_l_min              0
_reflns_number_gt                749
_reflns_number_total             846
_reflns_threshold_expression     I>1.96u(I)
_oxford_diffrn_Wilson_B_factor   0.00
_oxford_diffrn_Wilson_scale      0.00
_oxford_refine_ls_scale          0.7237(17)
_oxford_structure_analysis_title 'e343_1f_sykora_0m in P2(1)'
_cod_data_source_file            c1ob06336g.txt
_cod_data_source_block           CRYSTALS_cif13
_cod_depositor_comments
;
The following automatic conversions were performed:

'_symmetry_cell_setting' value 'Monoclinic' changed to 'monoclinic'
according to /home/saulius/struct/CIF-dictionaries/cif_core.dic
dictionary named 'cif_core.dic' version 2.4.1 from 2010-06-29.

Automatic conversion script
Id: cif_fix_values 1715 2011-07-08 13:25:40Z adriana 
;
_cod_original_sg_symbol_H-M      'P 1 21 1 '
_cod_original_formula_sum        'C6 H7 F1 O3'
_cod_database_code               7152126
loop_
_symmetry_equiv_pos_as_xyz
x,y,z
-x,y+1/2,-z
loop_
_atom_site_label
_atom_site_type_symbol
_atom_site_fract_x
_atom_site_fract_y
_atom_site_fract_z
_atom_site_U_iso_or_equiv
_atom_site_occupancy
_atom_site_adp_type
F1 F 0.19528(18) 0.42450(17) 0.69543(16) 0.0320 1.0000 Uani
O1 O 0.39970(19) 0.2025(2) 0.85677(17) 0.0244 1.0000 Uani
O2 O 0.28123(18) -0.0589(2) 0.57660(16) 0.0233 1.0000 Uani
O3 O -0.06368(18) -0.0866(2) 0.78653(17) 0.0262 1.0000 Uani
C1 C 0.3157(3) 0.2598(2) 0.6741(2) 0.0216 1.0000 Uani
C2 C 0.1613(2) 0.1118(2) 0.5811(2) 0.0188 1.0000 Uani
C3 C -0.0262(2) 0.0972(2) 0.7107(2) 0.0219 1.0000 Uani
C4 C 0.0588(3) 0.0484(3) 0.9077(2) 0.0237 1.0000 Uani
C5 C 0.3051(3) 0.0255(2) 0.9140(2) 0.0212 1.0000 Uani
C6 C 0.3655(2) -0.1188(2) 0.7683(2) 0.0231 1.0000 Uani
H11 H 0.439(4) 0.294(4) 0.595(3) 0.028(5) 1.0000 Uiso
H21 H 0.117(4) 0.143(4) 0.454(3) 0.029(6) 1.0000 Uiso
H31 H -0.151(4) 0.168(4) 0.684(4) 0.033(6) 1.0000 Uiso
H41 H -0.012(4) 0.090(4) 1.014(4) 0.031(6) 1.0000 Uiso
H51 H 0.369(4) 0.005(4) 1.037(3) 0.029(6) 1.0000 Uiso
H61 H 0.532(4) -0.123(4) 0.767(3) 0.030(6) 1.0000 Uiso
H62 H 0.303(4) -0.239(3) 0.804(3) 0.027(5) 1.0000 Uiso
loop_
_atom_site_aniso_label
_atom_site_aniso_U_11
_atom_site_aniso_U_22
_atom_site_aniso_U_33
_atom_site_aniso_U_23
_atom_site_aniso_U_13
_atom_site_aniso_U_12
F1 0.0435(5) 0.0144(5) 0.0366(5) 0.0007(4) -0.0053(4) 0.0008(4)
O1 0.0265(5) 0.0192(6) 0.0259(6) 0.0008(4) -0.0078(4) -0.0069(4)
O2 0.0275(5) 0.0209(6) 0.0220(5) -0.0049(5) 0.0048(4) 0.0031(4)
O3 0.0218(5) 0.0223(6) 0.0350(6) 0.0022(5) 0.0048(4) -0.0065(5)
C1 0.0243(7) 0.0173(7) 0.0232(7) 0.0018(6) 0.0017(6) -0.0042(6)
C2 0.0219(7) 0.0172(7) 0.0169(6) 0.0002(5) -0.0010(5) -0.0012(5)
C3 0.0163(7) 0.0182(7) 0.0308(8) 0.0005(6) 0.0002(5) 0.0009(6)
C4 0.0282(8) 0.0206(7) 0.0237(8) -0.0010(6) 0.0100(6) -0.0008(6)
C5 0.0264(7) 0.0176(7) 0.0184(7) 0.0028(5) -0.0054(5) -0.0025(5)
C6 0.0188(7) 0.0186(8) 0.0313(8) 0.0009(6) -0.0010(6) 0.0029(5)
loop_
_atom_type_symbol
_atom_type_scat_dispersion_real
_atom_type_scat_dispersion_imag
_atom_type_scat_Cromer_Mann_a1
_atom_type_scat_Cromer_Mann_b1
_atom_type_scat_Cromer_Mann_a2
_atom_type_scat_Cromer_Mann_b2
_atom_type_scat_Cromer_Mann_a3
_atom_type_scat_Cromer_Mann_b3
_atom_type_scat_Cromer_Mann_a4
_atom_type_scat_Cromer_Mann_b4
_atom_type_scat_Cromer_Mann_c
_atom_type_scat_source
C 0.0033 0.0016 2.3100 20.8439 1.0200 10.2075 1.5886 0.5687 0.8650 51.6512
0.2156 'International Tables Vol C 4.2.6.8 and 6.1.1.4'
H 0.0000 0.0000 0.4930 10.5109 0.3229 26.1257 0.1402 3.1424 0.0408 57.7998
0.0030 'International Tables Vol C 4.2.6.8 and 6.1.1.4'
O 0.0106 0.0060 3.0485 13.2771 2.2868 5.7011 1.5463 0.3239 0.8670 32.9089
0.2508 'International Tables Vol C 4.2.6.8 and 6.1.1.4'
F 0.0171 0.0103 3.5392 10.2825 2.6412 4.2944 1.5170 0.2615 1.0243 26.1476
0.2776 'International Tables Vol C 4.2.6.8 and 6.1.1.4'
loop_
_geom_angle_atom_site_label_1
_geom_angle_atom_site_label_2
_geom_angle_atom_site_label_3
_geom_angle
_geom_angle_publ_flag
C1 O1 C5 112.15(11) yes
C2 O2 C6 112.22(11) yes
C3 O3 C4 60.98(11) yes
F1 C1 O1 108.04(13) yes
F1 C1 C2 108.18(12) yes
O1 C1 C2 110.64(13) yes
F1 C1 H11 106.4(15) no
O1 C1 H11 109.5(13) no
C2 C1 H11 113.9(14) no
C1 C2 O2 107.35(12) yes
C1 C2 C3 105.66(12) yes
O2 C2 C3 111.77(12) yes
C1 C2 H21 111.1(15) no
O2 C2 H21 107.1(15) no
C3 C2 H21 113.8(13) no
C2 C3 O3 115.42(12) yes
C2 C3 C4 109.86(13) yes
O3 C3 C4 59.80(11) yes
C2 C3 H31 119.8(15) no
O3 C3 H31 114.9(15) no
C4 C3 H31 123.0(15) no
C3 C4 O3 59.22(10) yes
C3 C4 C5 109.33(13) yes
O3 C4 C5 114.42(13) yes
C3 C4 H41 120.4(15) no
O3 C4 H41 114.8(16) no
C5 C4 H41 122.5(15) no
C4 C5 O1 108.41(13) yes
C4 C5 C6 110.57(13) yes
O1 C5 C6 106.53(13) yes
C4 C5 H51 112.9(13) no
O1 C5 H51 104.1(15) no
C6 C5 H51 113.8(15) no
C5 C6 O2 108.89(12) yes
C5 C6 H61 108.8(14) no
O2 C6 H61 106.5(13) no
C5 C6 H62 108.0(14) no
O2 C6 H62 111.7(14) no
H61 C6 H62 113(2) no
loop_
_geom_bond_atom_site_label_1
_geom_bond_atom_site_label_2
_geom_bond_distance
_geom_bond_publ_flag
F1 C1 1.4003(19) yes
O1 C1 1.3886(19) yes
O1 C5 1.4566(19) yes
O2 C2 1.4225(19) yes
O2 C6 1.449(2) yes
O3 C3 1.437(2) yes
O3 C4 1.446(2) yes
C1 C2 1.524(2) yes
C1 H11 1.00(2) no
C2 C3 1.516(2) yes
C2 H21 0.93(2) no
C3 C4 1.463(2) yes
C3 H31 0.92(3) no
C4 C5 1.513(2) yes
C4 H41 0.93(3) no
C5 C6 1.508(2) yes
C5 H51 0.92(2) no
C6 H61 1.02(2) no
C6 H62 0.98(2) no
