#------------------------------------------------------------------------------
#$Date: 2016-03-26 15:55:56 +0200 (Sat, 26 Mar 2016) $
#$Revision: 180323 $
#$URL: svn://www.crystallography.net/cod/cif/7/15/37/7153745.cif $
#------------------------------------------------------------------------------
#
# This file is available in the Crystallography Open Database (COD),
# http://www.crystallography.net/
#
# All data on this site have been placed in the public domain by the
# contributors.
#
data_7153745
loop_
_publ_author_name
'Zhong, Sabilla'
'Nieger, Martin'
'Bihlmeier, Angela'
'Shi, Min'
'Br\"ase, Stefan'
_publ_section_title
;
 Asymmetric organocatalytic synthesis of
 4,6-bis(1H-indole-3-yl)-piperidine-2 carboxylates.
;
_journal_issue                   20
_journal_name_full               'Organic &amp; biomolecular chemistry'
_journal_page_first              3265
_journal_page_last               3270
_journal_paper_doi               10.1039/c4ob00234b
_journal_volume                  12
_journal_year                    2014
_chemical_absolute_configuration ad
_chemical_formula_moiety         'C30 H29 N3 O2'
_chemical_formula_sum            'C30 H29 N3 O2'
_chemical_formula_weight         463.56
_chemical_name_systematic
;
 ethyl-4,6-di(1H-indol-3-yl)-1-phenylpiperidin-2-carboxylate
;
_space_group_crystal_system      triclinic
_space_group_IT_number           1
_space_group_name_Hall           'P 1'
_space_group_name_H-M_alt        'P 1'
_symmetry_space_group_name_Hall  'P 1'
_symmetry_space_group_name_H-M   'P 1'
_atom_sites_solution_hydrogens   difmap
_atom_sites_solution_primary     direct
_atom_sites_solution_secondary   difmap
_audit_creation_method           SHELXL-2013
_audit_update_record
;
2013-12-17 # Formatted by publCIF

;
_cell_angle_alpha                62.398(9)
_cell_angle_beta                 77.124(8)
_cell_angle_gamma                81.985(8)
_cell_formula_units_Z            1
_cell_length_a                   7.9687(8)
_cell_length_b                   9.4665(9)
_cell_length_c                   9.6211(9)
_cell_measurement_reflns_used    8138
_cell_measurement_temperature    120(2)
_cell_measurement_theta_max      76.26
_cell_measurement_theta_min      5.26
_cell_volume                     626.45(12)
_computing_cell_refinement
;
CrysAlisPro, Agilent Technologies,
Version 1.171.36.32 (release 02-08-2013 CrysAlis171 .NET)
(compiled Aug  2 2013,16:46:58)
;
_computing_data_collection
;
CrysAlisPro, Agilent Technologies,
Version 1.171.36.32 (release 02-08-2013 CrysAlis171 .NET)
(compiled Aug  2 2013,16:46:58)
;
_computing_data_reduction
;
CrysAlisPro, Agilent Technologies,
Version 1.171.36.32 (release 02-08-2013 CrysAlis171 .NET)
(compiled Aug  2 2013,16:46:58)
;
_computing_molecular_graphics    'SHELXTL-Plus (Sheldrick, 2008)'
_computing_publication_material  publCif
_computing_structure_refinement
;
SHELXL-2013 (Sheldrick, 2013)
;
_computing_structure_solution    'SHELXS-97 (Sheldrick, 2008)'
_diffrn_ambient_temperature      120(2)
_diffrn_detector_area_resol_mean 10.3953
_diffrn_measured_fraction_theta_full 0.999
_diffrn_measured_fraction_theta_max 0.975
_diffrn_measurement_device_type  'SuperNova, Dual, Cu at zero, Atlas'
_diffrn_measurement_method       '\w scans, 2\%'
_diffrn_radiation_type           CuK\a
_diffrn_radiation_wavelength     1.54178
_diffrn_reflns_av_R_equivalents  0.0190
_diffrn_reflns_av_unetI/netI     0.0232
_diffrn_reflns_Laue_measured_fraction_full 0.999
_diffrn_reflns_Laue_measured_fraction_max 0.975
_diffrn_reflns_limit_h_max       9
_diffrn_reflns_limit_h_min       -9
_diffrn_reflns_limit_k_max       11
_diffrn_reflns_limit_k_min       -11
_diffrn_reflns_limit_l_max       12
_diffrn_reflns_limit_l_min       -12
_diffrn_reflns_number            9604
_diffrn_reflns_point_group_measured_fraction_full 0.948
_diffrn_reflns_point_group_measured_fraction_max 0.909
_diffrn_reflns_theta_full        67.679
_diffrn_reflns_theta_max         76.554
_diffrn_reflns_theta_min         5.274
_diffrn_source
;
SuperNova (Cu) X-ray Source
;
_exptl_absorpt_coefficient_mu    0.613
_exptl_absorpt_correction_T_max  0.957
_exptl_absorpt_correction_T_min  0.903
_exptl_absorpt_correction_type   analytical
_exptl_absorpt_process_details
;
CrysAlisPro, Agilent Technologies,
Version 1.171.36.32 (release 02-08-2013 CrysAlis171 .NET)
(compiled Aug  2 2013,16:46:58)
Analytical numeric absorption correction using a multifaceted crystal
            model based on expressions derived by R.C. Clark & J.S. Reid.
(Clark, R. C. & Reid, J. S. (1995). Acta Cryst. A51, 887-897)
;
_exptl_crystal_colour            colourless
_exptl_crystal_density_diffrn    1.229
_exptl_crystal_description       plates
_exptl_crystal_F_000             246
_exptl_crystal_size_max          0.270
_exptl_crystal_size_mid          0.120
_exptl_crystal_size_min          0.080
_refine_diff_density_max         0.186
_refine_diff_density_min         -0.132
_refine_diff_density_rms         0.028
_refine_ls_abs_structure_details
;
 Flack x determined using 2171 quotients [(I+)-(I-)]/[(I+)+(I-)]
 (Parsons and Flack (2004), Acta Cryst. A60, s61).
 Hooft's y parameter 0.02(5) (Hooft, Straver, Spek (2008), 
 J. Appl. Cryst. 46, 96-103).
;
_refine_ls_abs_structure_Flack   0.01(6)
_refine_ls_extinction_coef       0.0140(12)
_refine_ls_extinction_expression Fc^*^=kFc[1+0.001xFc^2^\l^3^/sin(2\q)]^-1/4^
_refine_ls_extinction_method     SHELXL
_refine_ls_goodness_of_fit_ref   1.053
_refine_ls_hydrogen_treatment    mixed
_refine_ls_matrix_type           full
_refine_ls_number_parameters     323
_refine_ls_number_reflns         4786
_refine_ls_number_restraints     5
_refine_ls_restrained_S_all      1.053
_refine_ls_R_factor_all          0.0263
_refine_ls_R_factor_gt           0.0260
_refine_ls_shift/su_max          0.000
_refine_ls_shift/su_mean         0.000
_refine_ls_structure_factor_coef Fsqd
_refine_ls_weighting_details
;
 w=1/[\s^2^(Fo^2^)+(0.0316P)^2^+0.1014P]
 where P=(Fo^2^+2Fc^2^)/3
;
_refine_ls_weighting_scheme      calc
_refine_ls_wR_factor_gt          0.0664
_refine_ls_wR_factor_ref         0.0666
_reflns_Friedel_coverage         0.864
_reflns_Friedel_fraction_full    0.896
_reflns_Friedel_fraction_max     0.843
_reflns_number_gt                4736
_reflns_number_total             4786
_reflns_threshold_expression     'I > 2\s(I)'
_cod_data_source_file            c4ob00234b2.cif
_cod_data_source_block           cu_sb632
_cod_depositor_comments          'Adding full bibliography for 7153745.cif.'
_cod_database_code               7153745
#BEGIN Tags that were not found in dictionaries:
_publcif_datablock.id            {1919ea22-7769-44af-93c9-dd92095895e6}
_shelx_space_group_comment
;
The symmetry employed for this shelxl refinement is uniquely defined
by the following loop, which should always be used as a source of
symmetry information in preference to the above space-group names.
They are only intended as comments.
;
_shelx_estimated_absorpt_t_min   0.852
_shelx_estimated_absorpt_t_max   0.953
_shelxl_version_number           2013-2
_shelx_res_file
;
TITL sb632_hy in P1 - analyticl absorption correction 0.903/0.957
CELL 1.54178 7.9687   9.4665   9.6211  62.398  77.124  81.985
ZERR 1.00000 0.0008   0.0009   0.0009   0.009   0.008   0.008
LATT -1
SFAC C H N O
UNIT 30 29 3 2

OMIT    -3  -6 -12
OMIT     2  -2  -5
OMIT    -3 -10 -10
OMIT     4  -4   7
OMIT     3  -1  10

L.S. 12
BOND
BOND $H
CONF
ACTA

SIZE 0.08 0.12 0.27
rem colourless blocks
TEMP -153

FMAP 2
PLAN 20

DFIX 0.88 N1' H1' N1" H1"

HTAB

rem HTAB C6 O21
EQIV $1 x, y, z+1
HTAB N1' O21_$1
EQIV $2 x, y-1, z
HTAB N1" N1'_$2

WGHT    0.031600    0.101400
EXTI    0.013952
FVAR      17.46912
N1    3    0.478947    0.377240    0.527237    11.00000    0.02011    0.01725 =
         0.02237   -0.01055   -0.00436   -0.00010
C2    1    0.504224    0.548046    0.465469    11.00000    0.02092    0.01859 =
         0.02141   -0.01065   -0.00379    0.00015
AFIX  13
H2    2    0.390416    0.606253    0.446753    11.00000   -1.20000
AFIX   0
C3    1    0.566362    0.581631    0.585768    11.00000    0.02392    0.01818 =
         0.02038   -0.01051   -0.00336    0.00006
AFIX  23
H3A   2    0.479439    0.548492    0.685165    11.00000   -1.20000
H3B   2    0.581885    0.697400    0.541758    11.00000   -1.20000
AFIX   0
C4    1    0.737960    0.489174    0.622166    11.00000    0.02333    0.01896 =
         0.01781   -0.01014   -0.00318   -0.00217
AFIX  13
H4    2    0.820249    0.520670    0.518582    11.00000   -1.20000
AFIX   0
C5    1    0.706627    0.312411    0.689639    11.00000    0.02262    0.01826 =
         0.02309   -0.00996   -0.00549   -0.00004
AFIX  23
H5A   2    0.627948    0.278399    0.793930    11.00000   -1.20000
H5B   2    0.817438    0.251230    0.708778    11.00000   -1.20000
AFIX   0
C6    1    0.629069    0.269643    0.581601    11.00000    0.01948    0.01883 =
         0.02135   -0.01052   -0.00289   -0.00055
AFIX  13
H6    2    0.718636    0.280272    0.486528    11.00000   -1.20000
AFIX   0
C11   1    0.387054    0.345677    0.433287    11.00000    0.02110    0.01836 =
         0.02114   -0.00866   -0.00250   -0.00403
C12   1    0.460289    0.266282    0.341671    11.00000    0.02198    0.02695 =
         0.02825   -0.01621   -0.00343   -0.00112
AFIX  43
H12   2    0.576456    0.226420    0.342550    11.00000   -1.20000
AFIX   0
C13   1    0.364035    0.245152    0.248952    11.00000    0.03131    0.03200 =
         0.03195   -0.02086   -0.00483   -0.00289
AFIX  43
H13   2    0.414982    0.190351    0.187466    11.00000   -1.20000
AFIX   0
C14   1    0.194634    0.303199    0.245344    11.00000    0.03200    0.03133 =
         0.03622   -0.01816   -0.01263   -0.00371
AFIX  43
H14   2    0.130380    0.290486    0.180010    11.00000   -1.20000
AFIX   0
C15   1    0.119927    0.380020    0.338089    11.00000    0.02259    0.03020 =
         0.04070   -0.01752   -0.00889    0.00032
AFIX  43
H15   2    0.003754    0.419780    0.336745    11.00000   -1.20000
AFIX   0
C16   1    0.214510    0.398973    0.432921    11.00000    0.02208    0.02395 =
         0.03072   -0.01514   -0.00299   -0.00074
AFIX  43
H16   2    0.161133    0.448886    0.498475    11.00000   -1.20000
AFIX   0
C21   1    0.632244    0.616700    0.307056    11.00000    0.01997    0.02114 =
         0.01986   -0.00985   -0.00796   -0.00071
O21   4    0.715016    0.540086    0.241446    11.00000    0.02751    0.02713 =
         0.02052   -0.01267   -0.00217   -0.00135
O22   4    0.646019    0.772124    0.254473    11.00000    0.02855    0.02173 =
         0.02352   -0.00881   -0.00244   -0.00447
C22   1    0.773866    0.851734    0.112006    11.00000    0.02599    0.02890 =
         0.02061   -0.00583   -0.00353   -0.00756
AFIX  23
H22A  2    0.741855    0.851278    0.018528    11.00000   -1.20000
H22B  2    0.888637    0.797271    0.126331    11.00000   -1.20000
AFIX   0
C23   1    0.776432    1.019578    0.088736    11.00000    0.03689    0.02506 =
         0.03645   -0.00336   -0.00506   -0.00658
AFIX  33
H23A  2    0.860242    1.079033   -0.006890    11.00000   -1.50000
H23B  2    0.809042    1.017967    0.181855    11.00000   -1.50000
H23C  2    0.661686    1.071331    0.076049    11.00000   -1.50000
AFIX   0
N1'   3    0.876770    0.541914    0.939401    11.00000    0.03242    0.02977 =
         0.01833   -0.01339   -0.00622    0.00003
H1'   2    0.855982    0.539005    1.032860    11.00000   -1.20000
C2'   1    0.779564    0.469169    0.890666    11.00000    0.02847    0.02120 =
         0.02139   -0.01006   -0.00423   -0.00092
AFIX  43
H2'   2    0.698931    0.389632    0.959785    11.00000   -1.20000
AFIX   0
C3'   1    0.816360    0.528464    0.727864    11.00000    0.02249    0.01819 =
         0.01910   -0.00966   -0.00411    0.00135
C3A'  1    0.942252    0.646517    0.672442    11.00000    0.01861    0.02187 =
         0.02233   -0.01380   -0.00440    0.00185
C4'   1    1.026145    0.751119    0.520173    11.00000    0.02416    0.02573 =
         0.02199   -0.01397   -0.00164   -0.00158
AFIX  43
H4'   2    1.004840    0.749793    0.427494    11.00000   -1.20000
AFIX   0
C5'   1    1.139773    0.855630    0.507362    11.00000    0.02813    0.03318 =
         0.03149   -0.01695    0.00239   -0.00843
AFIX  43
H5'   2    1.198289    0.925370    0.404943    11.00000   -1.20000
AFIX   0
C6'   1    1.170661    0.860810    0.643710    11.00000    0.02674    0.04235 =
         0.04329   -0.02755   -0.00123   -0.01036
AFIX  43
H6'   2    1.248654    0.934681    0.631634    11.00000   -1.20000
AFIX   0
C7'   1    1.089085    0.759973    0.794516    11.00000    0.02755    0.04376 =
         0.03449   -0.02651   -0.00836   -0.00259
AFIX  43
H7'   2    1.109291    0.763502    0.886492    11.00000   -1.20000
AFIX   0
C7A'  1    0.976380    0.653100    0.807245    11.00000    0.02244    0.02831 =
         0.02353   -0.01529   -0.00634    0.00283
N1"   3    0.597488   -0.167826    0.772635    11.00000    0.02527    0.01728 =
         0.02686   -0.01237   -0.00323    0.00050
H1"   2    0.634334   -0.266353    0.786190    11.00000   -1.20000
C2"   1    0.662010   -0.026527    0.652647    11.00000    0.02327    0.02217 =
         0.02251   -0.01212   -0.00225   -0.00076
AFIX  43
H2"   2    0.752057   -0.017392    0.565896    11.00000   -1.20000
AFIX   0
C3"   1    0.578476    0.098955    0.675636    11.00000    0.02006    0.02038 =
         0.02236   -0.01194   -0.00571   -0.00010
C3A"  1    0.452954    0.031464    0.820572    11.00000    0.01911    0.02104 =
         0.02236   -0.01180   -0.00622   -0.00094
C4"   1    0.331200    0.094655    0.909592    11.00000    0.02322    0.02680 =
         0.02915   -0.01652   -0.00577    0.00132
AFIX  43
H4"   2    0.313662    0.206741    0.872383    11.00000   -1.20000
AFIX   0
C5"   1    0.237335   -0.009747    1.052609    11.00000    0.02175    0.03913 =
         0.02976   -0.02117   -0.00127   -0.00021
AFIX  43
H5"   2    0.155432    0.031808    1.114084    11.00000   -1.20000
AFIX   0
C6"   1    0.260569   -0.175698    1.108753    11.00000    0.02411    0.03661 =
         0.02135   -0.01054   -0.00317   -0.00757
AFIX  43
H6"   2    0.195473   -0.243968    1.208296    11.00000   -1.20000
AFIX   0
C7"   1    0.375891   -0.241935    1.022567    11.00000    0.02516    0.02401 =
         0.02478   -0.00860   -0.00930   -0.00470
AFIX  43
H7"   2    0.389877   -0.354173    1.059439    11.00000   -1.20000
AFIX   0
C7A"  1    0.471089   -0.136342    0.878635    11.00000    0.01990    0.02168 =
         0.02417   -0.01217   -0.00792   -0.00025
HKLF 4

REM  sb632_hy in P1 - analyticl absorption correction 0.903/0.957
REM R1 =  0.0260 for    4736 Fo > 4sig(Fo)  and  0.0263 for all    4786 data
REM    323 parameters refined using      5 restraints

END

WGHT      0.0316      0.1014

REM Instructions for potential hydrogen bonds
HTAB C6 O21
HTAB N1' O21_$1
HTAB N1" N1'_$2

REM Highest difference peak  0.186,  deepest hole -0.132,  1-sigma level  0.028
Q1    1   0.4998  0.0789  0.7402  11.00000  0.05    0.19
Q2    1   0.4469 -0.0478  0.8419  11.00000  0.05    0.18
Q3    1   0.5746  0.5751  0.3937  11.00000  0.05    0.17
Q4    1   0.6559  0.5415  0.6041  11.00000  0.05    0.16
Q5    1   0.6577  0.2959  0.6362  11.00000  0.05    0.14
Q6    1   0.9602  0.6662  0.7417  11.00000  0.05    0.14
Q7    1   0.5073  0.4612  0.5009  11.00000  0.05    0.14
Q8    1   0.8130  0.4844  0.8063  11.00000  0.05    0.14
Q9    1   0.7161  0.3997  0.6570  11.00000  0.05    0.14
Q10   1   0.7759  0.5107  0.6802  11.00000  0.05    0.13
Q11   1   0.4371 -0.1845  0.9500  11.00000  0.05    0.13
Q12   1   0.5482  0.5615  0.5264  11.00000  0.05    0.12
Q13   1   0.9221  0.5395  0.6933  11.00000  0.05    0.12
Q14   1   0.7887  0.9481  0.0897  11.00000  0.05    0.12
Q15   1   0.2909  0.3304  0.4538  11.00000  0.05    0.12
Q16   1   0.3672  0.0606  0.8364  11.00000  0.05    0.12
Q17   1   0.4295  0.3148  0.3715  11.00000  0.05    0.12
Q18   1   0.4401  0.0644  0.8836  11.00000  0.05    0.12
Q19   1   0.5467  0.3252  0.5657  11.00000  0.05    0.12
Q20   1   0.2852 -0.2031  1.0380  11.00000  0.05    0.12
;
_shelx_res_checksum              20858
#END Tags that were not found in dictionaries
loop_
_space_group_symop_operation_xyz
'x, y, z'
loop_
_atom_site_label
_atom_site_type_symbol
_atom_site_fract_x
_atom_site_fract_y
_atom_site_fract_z
_atom_site_U_iso_or_equiv
_atom_site_adp_type
_atom_site_occupancy
_atom_site_site_symmetry_order
_atom_site_calc_flag
_atom_site_refinement_flags_posn
_atom_site_refinement_flags_adp
N1 N 0.47895(18) 0.37724(16) 0.52724(16) 0.0192(3) Uani 1 1 d . .
C2 C 0.5042(2) 0.54805(19) 0.46547(19) 0.0197(3) Uani 1 1 d . .
H2 H 0.3904 0.6063 0.4468 0.024 Uiso 1 1 calc R U
C3 C 0.5664(2) 0.58163(19) 0.58577(19) 0.0203(3) Uani 1 1 d . .
H3A H 0.4794 0.5485 0.6852 0.024 Uiso 1 1 calc R U
H3B H 0.5819 0.6974 0.5418 0.024 Uiso 1 1 calc R U
C4 C 0.7380(2) 0.48917(19) 0.62217(18) 0.0192(3) Uani 1 1 d . .
H4 H 0.8202 0.5207 0.5186 0.023 Uiso 1 1 calc R U
C5 C 0.7066(2) 0.3124(2) 0.6896(2) 0.0209(3) Uani 1 1 d . .
H5A H 0.6279 0.2784 0.7939 0.025 Uiso 1 1 calc R U
H5B H 0.8174 0.2512 0.7088 0.025 Uiso 1 1 calc R U
C6 C 0.6291(2) 0.26964(19) 0.58160(19) 0.0194(3) Uani 1 1 d . .
H6 H 0.7186 0.2803 0.4865 0.023 Uiso 1 1 calc R U
C11 C 0.3871(2) 0.34568(19) 0.43329(19) 0.0202(3) Uani 1 1 d . .
C12 C 0.4603(2) 0.2663(2) 0.3417(2) 0.0244(4) Uani 1 1 d . .
H12 H 0.5765 0.2264 0.3425 0.029 Uiso 1 1 calc R U
C13 C 0.3640(3) 0.2452(2) 0.2490(2) 0.0291(4) Uani 1 1 d . .
H13 H 0.4150 0.1904 0.1875 0.035 Uiso 1 1 calc R U
C14 C 0.1946(3) 0.3032(2) 0.2453(2) 0.0306(4) Uani 1 1 d . .
H14 H 0.1304 0.2905 0.1800 0.037 Uiso 1 1 calc R U
C15 C 0.1199(2) 0.3800(2) 0.3381(2) 0.0301(4) Uani 1 1 d . .
H15 H 0.0038 0.4198 0.3367 0.036 Uiso 1 1 calc R U
C16 C 0.2145(2) 0.3990(2) 0.4329(2) 0.0248(4) Uani 1 1 d . .
H16 H 0.1611 0.4489 0.4985 0.030 Uiso 1 1 calc R U
C21 C 0.6322(2) 0.6167(2) 0.30706(19) 0.0193(3) Uani 1 1 d . .
O21 O 0.71502(16) 0.54009(15) 0.24145(14) 0.0246(3) Uani 1 1 d . .
O22 O 0.64602(16) 0.77212(14) 0.25447(14) 0.0252(3) Uani 1 1 d . .
C22 C 0.7739(2) 0.8517(2) 0.1120(2) 0.0267(4) Uani 1 1 d . .
H22A H 0.7419 0.8513 0.0185 0.032 Uiso 1 1 calc R U
H22B H 0.8886 0.7973 0.1263 0.032 Uiso 1 1 calc R U
C23 C 0.7764(3) 1.0196(2) 0.0887(3) 0.0367(5) Uani 1 1 d . .
H23A H 0.8602 1.0790 -0.0069 0.055 Uiso 1 1 calc R U
H23B H 0.8090 1.0180 0.1819 0.055 Uiso 1 1 calc R U
H23C H 0.6617 1.0713 0.0760 0.055 Uiso 1 1 calc R U
N1' N 0.8768(2) 0.54191(19) 0.93940(17) 0.0256(3) Uani 1 1 d D .
H1' H 0.856(3) 0.539(3) 1.033(2) 0.031 Uiso 1 1 d D U
C2' C 0.7796(2) 0.4692(2) 0.8907(2) 0.0235(4) Uani 1 1 d . .
H2' H 0.6989 0.3896 0.9598 0.028 Uiso 1 1 calc R U
C3' C 0.8164(2) 0.52846(19) 0.72786(19) 0.0196(3) Uani 1 1 d . .
C3A' C 0.9423(2) 0.6465(2) 0.67244(19) 0.0195(3) Uani 1 1 d . .
C4' C 1.0261(2) 0.7511(2) 0.5202(2) 0.0230(3) Uani 1 1 d . .
H4' H 1.0048 0.7498 0.4275 0.028 Uiso 1 1 calc R U
C5' C 1.1398(3) 0.8556(2) 0.5074(2) 0.0305(4) Uani 1 1 d . .
H5' H 1.1983 0.9254 0.4049 0.037 Uiso 1 1 calc R U
C6' C 1.1707(3) 0.8608(3) 0.6437(3) 0.0340(4) Uani 1 1 d . .
H6' H 1.2487 0.9347 0.6316 0.041 Uiso 1 1 calc R U
C7' C 1.0891(3) 0.7600(3) 0.7945(2) 0.0311(4) Uani 1 1 d . .
H7' H 1.1093 0.7635 0.8865 0.037 Uiso 1 1 calc R U
C7A' C 0.9764(2) 0.6531(2) 0.8072(2) 0.0233(4) Uani 1 1 d . .
N1" N 0.59749(19) -0.16783(17) 0.77263(17) 0.0225(3) Uani 1 1 d D .
H1" H 0.634(3) -0.266(2) 0.786(3) 0.027 Uiso 1 1 d D U
C2" C 0.6620(2) -0.0265(2) 0.6526(2) 0.0222(3) Uani 1 1 d . .
H2" H 0.7521 -0.0174 0.5659 0.027 Uiso 1 1 calc R U
C3" C 0.5785(2) 0.0990(2) 0.67564(19) 0.0197(3) Uani 1 1 d . .
C3A" C 0.4530(2) 0.03146(19) 0.82057(19) 0.0196(3) Uani 1 1 d . .
C4" C 0.3312(2) 0.0947(2) 0.9096(2) 0.0249(4) Uani 1 1 d . .
H4" H 0.3137 0.2067 0.8724 0.030 Uiso 1 1 calc R U
C5" C 0.2373(2) -0.0097(2) 1.0526(2) 0.0286(4) Uani 1 1 d . .
H5" H 0.1554 0.0318 1.1141 0.034 Uiso 1 1 calc R U
C6" C 0.2606(2) -0.1757(2) 1.1088(2) 0.0278(4) Uani 1 1 d . .
H6" H 0.1955 -0.2440 1.2083 0.033 Uiso 1 1 calc R U
C7" C 0.3759(2) -0.2419(2) 1.0226(2) 0.0243(4) Uani 1 1 d . .
H7" H 0.3899 -0.3542 1.0594 0.029 Uiso 1 1 calc R U
C7A" C 0.4711(2) -0.1363(2) 0.8786(2) 0.0205(3) Uani 1 1 d . .
loop_
_atom_site_aniso_label
_atom_site_aniso_U_11
_atom_site_aniso_U_22
_atom_site_aniso_U_33
_atom_site_aniso_U_23
_atom_site_aniso_U_13
_atom_site_aniso_U_12
N1 0.0201(7) 0.0173(6) 0.0224(7) -0.0105(5) -0.0044(5) -0.0001(5)
C2 0.0209(8) 0.0186(8) 0.0214(8) -0.0107(6) -0.0038(6) 0.0001(6)
C3 0.0239(8) 0.0182(7) 0.0204(7) -0.0105(6) -0.0034(6) 0.0001(6)
C4 0.0233(8) 0.0190(7) 0.0178(7) -0.0101(6) -0.0032(6) -0.0022(6)
C5 0.0226(8) 0.0183(7) 0.0231(8) -0.0100(6) -0.0055(6) 0.0000(6)
C6 0.0195(8) 0.0188(8) 0.0213(7) -0.0105(6) -0.0029(6) -0.0005(6)
C11 0.0211(8) 0.0184(7) 0.0211(8) -0.0087(6) -0.0025(6) -0.0040(6)
C12 0.0220(8) 0.0270(8) 0.0282(8) -0.0162(7) -0.0034(7) -0.0011(7)
C13 0.0313(10) 0.0320(9) 0.0319(9) -0.0209(8) -0.0048(8) -0.0029(8)
C14 0.0320(10) 0.0313(9) 0.0362(10) -0.0182(8) -0.0126(8) -0.0037(8)
C15 0.0226(9) 0.0302(9) 0.0407(10) -0.0175(8) -0.0089(8) 0.0003(7)
C16 0.0221(8) 0.0240(8) 0.0307(9) -0.0151(7) -0.0030(7) -0.0007(6)
C21 0.0200(7) 0.0211(8) 0.0199(7) -0.0098(6) -0.0080(6) -0.0007(6)
O21 0.0275(6) 0.0271(6) 0.0205(6) -0.0127(5) -0.0022(5) -0.0013(5)
O22 0.0285(6) 0.0217(6) 0.0235(6) -0.0088(5) -0.0024(5) -0.0045(5)
C22 0.0260(9) 0.0289(9) 0.0206(8) -0.0058(7) -0.0035(7) -0.0076(7)
C23 0.0369(11) 0.0251(9) 0.0365(10) -0.0034(8) -0.0051(8) -0.0066(8)
N1' 0.0324(8) 0.0298(8) 0.0183(7) -0.0134(6) -0.0062(6) 0.0000(6)
C2' 0.0285(9) 0.0212(8) 0.0214(8) -0.0101(6) -0.0042(7) -0.0009(7)
C3' 0.0225(8) 0.0182(7) 0.0191(7) -0.0097(6) -0.0041(6) 0.0013(6)
C3A' 0.0186(8) 0.0219(8) 0.0223(8) -0.0138(6) -0.0044(6) 0.0019(6)
C4' 0.0242(9) 0.0257(8) 0.0220(8) -0.0140(7) -0.0016(6) -0.0016(7)
C5' 0.0281(9) 0.0332(10) 0.0315(9) -0.0170(8) 0.0024(7) -0.0084(8)
C6' 0.0267(10) 0.0424(11) 0.0433(11) -0.0276(9) -0.0012(8) -0.0104(8)
C7' 0.0275(9) 0.0438(11) 0.0345(10) -0.0265(9) -0.0084(7) -0.0026(8)
C7A' 0.0224(8) 0.0283(9) 0.0235(8) -0.0153(7) -0.0063(6) 0.0028(7)
N1" 0.0253(7) 0.0173(7) 0.0269(7) -0.0124(6) -0.0032(6) 0.0005(6)
C2" 0.0233(8) 0.0222(8) 0.0225(8) -0.0121(6) -0.0022(6) -0.0008(6)
C3" 0.0201(8) 0.0204(8) 0.0224(8) -0.0119(6) -0.0057(6) -0.0001(6)
C3A" 0.0191(8) 0.0210(8) 0.0224(8) -0.0118(6) -0.0062(6) -0.0009(6)
C4" 0.0232(9) 0.0268(8) 0.0291(9) -0.0165(7) -0.0058(7) 0.0013(7)
C5" 0.0218(9) 0.0391(10) 0.0298(9) -0.0212(8) -0.0013(7) -0.0002(7)
C6" 0.0241(9) 0.0366(10) 0.0214(8) -0.0105(7) -0.0032(7) -0.0076(7)
C7" 0.0252(9) 0.0240(8) 0.0248(8) -0.0086(7) -0.0093(7) -0.0047(7)
C7A" 0.0199(8) 0.0217(8) 0.0242(8) -0.0122(7) -0.0079(6) -0.0002(6)
loop_
_atom_type_symbol
_atom_type_description
_atom_type_scat_dispersion_real
_atom_type_scat_dispersion_imag
_atom_type_scat_source
C C 0.0181 0.0091 'International Tables Vol C Tables 4.2.6.8 and 6.1.1.4'
H H 0.0000 0.0000 'International Tables Vol C Tables 4.2.6.8 and 6.1.1.4'
N N 0.0311 0.0180 'International Tables Vol C Tables 4.2.6.8 and 6.1.1.4'
O O 0.0492 0.0322 'International Tables Vol C Tables 4.2.6.8 and 6.1.1.4'
loop_
_geom_angle_atom_site_label_1
_geom_angle_atom_site_label_2
_geom_angle_atom_site_label_3
_geom_angle
C11 N1 C2 112.54(13)
C11 N1 C6 117.04(13)
C2 N1 C6 115.61(13)
N1 C2 C3 111.28(13)
N1 C2 C21 113.13(13)
C3 C2 C21 108.49(14)
N1 C2 H2 107.9
C3 C2 H2 107.9
C21 C2 H2 107.9
C2 C3 C4 109.41(12)
C2 C3 H3A 109.8
C4 C3 H3A 109.8
C2 C3 H3B 109.8
C4 C3 H3B 109.8
H3A C3 H3B 108.2
C3' C4 C5 113.67(13)
C3' C4 C3 112.59(13)
C5 C4 C3 107.56(13)
C3' C4 H4 107.6
C5 C4 H4 107.6
C3 C4 H4 107.6
C4 C5 C6 114.36(13)
C4 C5 H5A 108.7
C6 C5 H5A 108.7
C4 C5 H5B 108.7
C6 C5 H5B 108.7
H5A C5 H5B 107.6
N1 C6 C3" 111.11(13)
N1 C6 C5 110.75(13)
C3" C6 C5 107.67(13)
N1 C6 H6 109.1
C3" C6 H6 109.1
C5 C6 H6 109.1
C12 C11 C16 118.46(16)
C12 C11 N1 123.77(15)
C16 C11 N1 117.77(14)
C13 C12 C11 120.33(16)
C13 C12 H12 119.8
C11 C12 H12 119.8
C14 C13 C12 120.72(17)
C14 C13 H13 119.6
C12 C13 H13 119.6
C13 C14 C15 119.32(18)
C13 C14 H14 120.3
C15 C14 H14 120.3
C14 C15 C16 120.17(17)
C14 C15 H15 119.9
C16 C15 H15 119.9
C15 C16 C11 120.94(16)
C15 C16 H16 119.5
C11 C16 H16 119.5
O21 C21 O22 124.11(16)
O21 C21 C2 125.31(15)
O22 C21 C2 110.51(13)
C21 O22 C22 116.92(13)
O22 C22 C23 106.18(15)
O22 C22 H22A 110.5
C23 C22 H22A 110.5
O22 C22 H22B 110.5
C23 C22 H22B 110.5
H22A C22 H22B 108.7
C22 C23 H23A 109.5
C22 C23 H23B 109.5
H23A C23 H23B 109.5
C22 C23 H23C 109.5
H23A C23 H23C 109.5
H23B C23 H23C 109.5
C7A' N1' C2' 109.03(14)
C7A' N1' H1' 124.2(16)
C2' N1' H1' 124.4(16)
C3' C2' N1' 110.07(16)
C3' C2' H2' 125.0
N1' C2' H2' 125.0
C2' C3' C3A' 106.10(15)
C2' C3' C4 128.86(16)
C3A' C3' C4 124.96(14)
C4' C3A' C7A' 118.76(16)
C4' C3A' C3' 133.54(16)
C7A' C3A' C3' 107.67(14)
C5' C4' C3A' 119.03(17)
C5' C4' H4' 120.5
C3A' C4' H4' 120.5
C4' C5' C6' 121.15(18)
C4' C5' H5' 119.4
C6' C5' H5' 119.4
C7' C6' C5' 120.93(18)
C7' C6' H6' 119.5
C5' C6' H6' 119.5
C6' C7' C7A' 117.80(17)
C6' C7' H7' 121.1
C7A' C7' H7' 121.1
N1' C7A' C7' 130.54(17)
N1' C7A' C3A' 107.11(15)
C7' C7A' C3A' 122.33(17)
C2" N1" C7A" 109.04(14)
C2" N1" H1" 127.1(15)
C7A" N1" H1" 123.8(14)
C3" C2" N1" 110.34(15)
C3" C2" H2" 124.8
N1" C2" H2" 124.8
C2" C3" C3A" 106.36(15)
C2" C3" C6 125.49(15)
C3A" C3" C6 127.49(14)
C4" C3A" C7A" 118.63(15)
C4" C3A" C3" 134.66(16)
C7A" C3A" C3" 106.68(14)
C5" C4" C3A" 118.66(16)
C5" C4" H4" 120.7
C3A" C4" H4" 120.7
C4" C5" C6" 121.43(16)
C4" C5" H5" 119.3
C6" C5" H5" 119.3
C7" C6" C5" 121.50(17)
C7" C6" H6" 119.3
C5" C6" H6" 119.3
C6" C7" C7A" 116.96(16)
C6" C7" H7" 121.5
C7A" C7" H7" 121.5
N1" C7A" C7" 129.62(15)
N1" C7A" C3A" 107.55(14)
C7" C7A" C3A" 122.79(15)
loop_
_geom_bond_atom_site_label_1
_geom_bond_atom_site_label_2
_geom_bond_distance
N1 C11 1.431(2)
N1 C2 1.468(2)
N1 C6 1.479(2)
C2 C3 1.525(2)
C2 C21 1.536(2)
C2 H2 1.0000
C3 C4 1.534(2)
C3 H3A 0.9900
C3 H3B 0.9900
C4 C3' 1.504(2)
C4 C5 1.524(2)
C4 H4 1.0000
C5 C6 1.540(2)
C5 H5A 0.9900
C5 H5B 0.9900
C6 C3" 1.502(2)
C6 H6 1.0000
C11 C12 1.395(2)
C11 C16 1.397(2)
C12 C13 1.392(3)
C12 H12 0.9500
C13 C14 1.386(3)
C13 H13 0.9500
C14 C15 1.387(3)
C14 H14 0.9500
C15 C16 1.389(3)
C15 H15 0.9500
C16 H16 0.9500
C21 O21 1.210(2)
C21 O22 1.328(2)
O22 C22 1.456(2)
C22 C23 1.501(3)
C22 H22A 0.9900
C22 H22B 0.9900
C23 H23A 0.9800
C23 H23B 0.9800
C23 H23C 0.9800
N1' C7A' 1.378(2)
N1' C2' 1.380(2)
N1' H1' 0.865(19)
C2' C3' 1.371(2)
C2' H2' 0.9500
C3' C3A' 1.436(3)
C3A' C4' 1.406(2)
C3A' C7A' 1.413(2)
C4' C5' 1.379(3)
C4' H4' 0.9500
C5' C6' 1.411(3)
C5' H5' 0.9500
C6' C7' 1.381(3)
C6' H6' 0.9500
C7' C7A' 1.391(3)
C7' H7' 0.9500
N1" C2" 1.372(2)
N1" C7A" 1.372(2)
N1" H1" 0.895(19)
C2" C3" 1.364(2)
C2" H2" 0.9500
C3" C3A" 1.444(2)
C3A" C4" 1.405(2)
C3A" C7A" 1.416(2)
C4" C5" 1.385(3)
C4" H4" 0.9500
C5" C6" 1.404(3)
C5" H5" 0.9500
C6" C7" 1.381(3)
C6" H6" 0.9500
C7" C7A" 1.397(2)
C7" H7" 0.9500
loop_
_geom_hbond_atom_site_label_D
_geom_hbond_atom_site_label_H
_geom_hbond_atom_site_label_A
_geom_hbond_distance_DH
_geom_hbond_distance_HA
_geom_hbond_distance_DA
_geom_hbond_angle_DHA
_geom_hbond_site_symmetry_A
N1' H1' O21 0.865(19) 2.07(2) 2.8977(19) 159(2) 1_556
N1" H1" N1' 0.895(19) 2.65(2) 3.298(2) 130.3(19) 1_545
loop_
_geom_torsion_atom_site_label_1
_geom_torsion_atom_site_label_2
_geom_torsion_atom_site_label_3
_geom_torsion_atom_site_label_4
_geom_torsion
C11 N1 C2 C3 167.62(13)
C6 N1 C2 C3 -54.25(17)
C11 N1 C2 C21 -69.94(17)
C6 N1 C2 C21 68.19(18)
N1 C2 C3 C4 59.73(17)
C21 C2 C3 C4 -65.36(16)
C2 C3 C4 C3' 174.44(13)
C2 C3 C4 C5 -59.56(16)
C3' C4 C5 C6 -179.06(13)
C3 C4 C5 C6 55.59(17)
C11 N1 C6 C3" -56.77(18)
C2 N1 C6 C3" 167.03(14)
C11 N1 C6 C5 -176.38(14)
C2 N1 C6 C5 47.41(17)
C4 C5 C6 N1 -48.86(18)
C4 C5 C6 C3" -170.52(13)
C2 N1 C11 C12 112.34(17)
C6 N1 C11 C12 -25.1(2)
C2 N1 C11 C16 -67.12(19)
C6 N1 C11 C16 155.39(15)
C16 C11 C12 C13 1.8(3)
N1 C11 C12 C13 -177.70(16)
C11 C12 C13 C14 0.4(3)
C12 C13 C14 C15 -1.4(3)
C13 C14 C15 C16 0.3(3)
C14 C15 C16 C11 1.9(3)
C12 C11 C16 C15 -2.9(3)
N1 C11 C16 C15 176.60(16)
N1 C2 C21 O21 -4.7(2)
C3 C2 C21 O21 119.27(18)
N1 C2 C21 O22 178.08(14)
C3 C2 C21 O22 -57.93(16)
O21 C21 O22 C22 -2.3(2)
C2 C21 O22 C22 174.95(14)
C21 O22 C22 C23 -174.09(16)
C7A' N1' C2' C3' 1.3(2)
N1' C2' C3' C3A' -0.79(19)
N1' C2' C3' C4 -177.65(15)
C5 C4 C3' C2' -40.7(2)
C3 C4 C3' C2' 82.0(2)
C5 C4 C3' C3A' 143.04(15)
C3 C4 C3' C3A' -94.34(18)
C2' C3' C3A' C4' -177.79(18)
C4 C3' C3A' C4' -0.8(3)
C2' C3' C3A' C7A' 0.02(18)
C4 C3' C3A' C7A' 177.03(15)
C7A' C3A' C4' C5' 0.5(2)
C3' C3A' C4' C5' 178.13(18)
C3A' C4' C5' C6' -1.0(3)
C4' C5' C6' C7' 0.7(3)
C5' C6' C7' C7A' 0.3(3)
C2' N1' C7A' C7' 177.12(18)
C2' N1' C7A' C3A' -1.24(19)
C6' C7' C7A' N1' -178.93(18)
C6' C7' C7A' C3A' -0.8(3)
C4' C3A' C7A' N1' 178.94(15)
C3' C3A' C7A' N1' 0.74(18)
C4' C3A' C7A' C7' 0.4(3)
C3' C3A' C7A' C7' -177.78(16)
C7A" N1" C2" C3" -1.0(2)
N1" C2" C3" C3A" 0.1(2)
N1" C2" C3" C6 171.40(15)
N1 C6 C3" C2" 131.29(17)
C5 C6 C3" C2" -107.27(19)
N1 C6 C3" C3A" -59.3(2)
C5 C6 C3" C3A" 62.1(2)
C2" C3" C3A" C4" 178.4(2)
C6 C3" C3A" C4" 7.4(3)
C2" C3" C3A" C7A" 0.73(18)
C6 C3" C3A" C7A" -170.28(16)
C7A" C3A" C4" C5" 1.8(3)
C3" C3A" C4" C5" -175.69(18)
C3A" C4" C5" C6" -0.5(3)
C4" C5" C6" C7" -1.1(3)
C5" C6" C7" C7A" 1.4(3)
C2" N1" C7A" C7" -176.28(17)
C2" N1" C7A" C3A" 1.46(19)
C6" C7" C7A" N1" 177.40(18)
C6" C7" C7A" C3A" 0.0(2)
C4" C3A" C7A" N1" -179.46(16)
C3" C3A" C7A" N1" -1.34(18)
C4" C3A" C7A" C7" -1.5(2)
C3" C3A" C7A" C7" 176.59(16)
