#------------------------------------------------------------------------------
#$Date: 2016-03-26 15:47:55 +0200 (Sat, 26 Mar 2016) $
#$Revision: 180316 $
#$URL: svn://www.crystallography.net/cod/cif/7/15/30/7153060.cif $
#------------------------------------------------------------------------------
#
# This file is available in the Crystallography Open Database (COD),
# http://www.crystallography.net/
#
# All data on this site have been placed in the public domain by the
# contributors.
#
data_7153060
loop_
_publ_author_name
'Hardman, Andrea M.'
'So, Sonia S.'
'Mattson, Anita E.'
_publ_section_title
;
 Urea-catalyzed construction of oxazinanes.
;
_journal_issue                   35
_journal_name_full               'Organic &amp; biomolecular chemistry'
_journal_page_first              5793
_journal_page_last               5797
_journal_paper_doi               10.1039/c3ob41517a
_journal_volume                  11
_journal_year                    2013
_chemical_absolute_configuration unk
_chemical_compound_source        'synthesis as described'
_chemical_formula_moiety         'C22 H20 N2 O3'
_chemical_formula_sum            'C22 H20 N2 O3'
_chemical_formula_weight         360.4
_chemical_name_common            'Mattson 1932'
_chemical_name_systematic
;
 ?
;
_space_group_IT_number           1
_symmetry_cell_setting           triclinic
_symmetry_Int_Tables_number      1
_symmetry_space_group_name_Hall  'P 1'
_symmetry_space_group_name_H-M   'P 1'
_atom_sites_solution_hydrogens   geom
_atom_sites_solution_primary     direct
_atom_sites_solution_secondary   difmap
_audit_conform_dict_location     ftp://ftp.iucr.org/pub/cif_core.dic
_audit_conform_dict_name         cif_core.dic
_audit_conform_dict_version      2.4
_audit_creation_date             2013-02-18T11:33:30-00:00
_audit_creation_method           'WinGX routine CIF_UPDATE'
_cell_angle_alpha                65.624(1)
_cell_angle_beta                 71.772(2)
_cell_angle_gamma                81.292(2)
_cell_formula_units_Z            1
_cell_length_a                   7.3566(2)
_cell_length_b                   8.0059(2)
_cell_length_c                   9.0060(2)
_cell_measurement_reflns_used    2089
_cell_measurement_temperature    150(2)
_cell_measurement_theta_max      27.485
_cell_measurement_theta_min      1.018
_cell_measurement_wavelength     0.71073
_cell_volume                     458.74(2)
_computing_cell_refinement       'HKL Scalepack (Otwinowski & Minor 1997)'
_computing_data_collection       'Collect (Bruker AXS BV, 1997-2004)'
_computing_data_reduction
'HKL Denzo and Scalepack (Otwinowski & Minor 1997)'
_computing_molecular_graphics    'Ortep-3 for Windows (Farrugia, 1997)'
_computing_publication_material  'WinGX publication routines (Farrugia, 1999)'
_computing_structure_refinement  'SHELXL-97 (Sheldrick, 2008)'
_computing_structure_solution    'SHELXS-97 (Sheldrick, 2008)'
_diffrn_ambient_temperature      150(2)
_diffrn_detector                 'CCD plate'
_diffrn_detector_area_resol_mean 9
_diffrn_measured_fraction_theta_full 0.997
_diffrn_measured_fraction_theta_max 0.997
_diffrn_measurement_device       '95mm CCD camera on \k-goniostat'
_diffrn_measurement_device_type  'Nonius KappaCCD'
_diffrn_measurement_method       'phi and omega scans'
_diffrn_orient_matrix_type       'by Bruker AXS Collect from scalepack cell'
_diffrn_orient_matrix_UB_11      -0.13809E-1
_diffrn_orient_matrix_UB_12      0.133704
_diffrn_orient_matrix_UB_13      -0.219933E-1
_diffrn_orient_matrix_UB_21      -0.138126
_diffrn_orient_matrix_UB_22      -0.162905E-1
_diffrn_orient_matrix_UB_23      0.657133E-1
_diffrn_orient_matrix_UB_31      0.350096E-1
_diffrn_orient_matrix_UB_32      -0.259942E-1
_diffrn_orient_matrix_UB_33      0.106317
_diffrn_radiation_monochromator  graphite
_diffrn_radiation_probe          x-ray
_diffrn_radiation_type           MoK\a
_diffrn_radiation_wavelength     0.71073
_diffrn_reflns_av_R_equivalents  0.027
_diffrn_reflns_limit_h_max       9
_diffrn_reflns_limit_h_min       -9
_diffrn_reflns_limit_k_max       10
_diffrn_reflns_limit_k_min       -10
_diffrn_reflns_limit_l_max       11
_diffrn_reflns_limit_l_min       -11
_diffrn_reflns_number            14559
_diffrn_reflns_theta_full        27.45
_diffrn_reflns_theta_max         27.45
_diffrn_reflns_theta_min         2.58
_diffrn_source                   'Enraf Nonius FR590'
_exptl_absorpt_coefficient_mu    0.088
_exptl_absorpt_correction_T_max  0.989
_exptl_absorpt_correction_T_min  0.877
_exptl_absorpt_correction_type   multi-scan
_exptl_absorpt_process_details   'HKL Scalepack (Otwinowski & Minor, 1997)'
_exptl_crystal_colour            colourless
_exptl_crystal_density_diffrn    1.305
_exptl_crystal_density_method    'not measured'
_exptl_crystal_description       plate
_exptl_crystal_F_000             190
_exptl_crystal_size_max          0.38
_exptl_crystal_size_mid          0.31
_exptl_crystal_size_min          0.12
_refine_diff_density_max         0.128
_refine_diff_density_min         -0.203
_refine_diff_density_rms         0.036
_refine_ls_extinction_method     none
_refine_ls_goodness_of_fit_ref   1.056
_refine_ls_hydrogen_treatment    constr
_refine_ls_matrix_type           full
_refine_ls_number_parameters     244
_refine_ls_number_reflns         4070
_refine_ls_number_restraints     3
_refine_ls_restrained_S_all      1.056
_refine_ls_R_factor_all          0.0428
_refine_ls_R_factor_gt           0.0367
_refine_ls_shift/su_max          0.001
_refine_ls_shift/su_mean         0
_refine_ls_structure_factor_coef Fsqd
_refine_ls_weighting_details
'w=1/[\s^2^(Fo^2^)+(0.0426P)^2^+0.0690P] where P=(Fo^2^+2Fc^2^)/3'
_refine_ls_weighting_scheme      calc
_refine_ls_wR_factor_gt          0.0824
_refine_ls_wR_factor_ref         0.0863
_reflns_number_gt                3724
_reflns_number_total             4070
_reflns_threshold_expression     >2\s(I)
_cod_data_source_file            c3ob41517a.txt
_cod_data_source_block           Mattson1932
_cod_original_sg_symbol_H-M      ' P 1'
_cod_database_code               7153060
loop_
_symmetry_equiv_pos_as_xyz
'x, y, z'
loop_
_atom_site_label
_atom_site_type_symbol
_atom_site_fract_x
_atom_site_fract_y
_atom_site_fract_z
_atom_site_U_iso_or_equiv
_atom_site_adp_type
_atom_site_occupancy
_atom_site_symmetry_multiplicity
_atom_site_calc_flag
_atom_site_refinement_flags
C1 C 0.0611(2) 0.28199(19) 0.22883(18) 0.0237(3) Uani 1 1 d .
H1 H 0.027 0.2835 0.3448 0.028 Uiso 1 1 calc R
C2 C -0.1096(2) 0.3505(2) 0.15468(19) 0.0264(3) Uani 1 1 d .
H2A H -0.1579 0.469 0.1644 0.032 Uiso 1 1 calc R
H2B H -0.0668 0.3722 0.0326 0.032 Uiso 1 1 calc R
C3 C -0.2709(2) 0.2151(2) 0.24420(19) 0.0257(3) Uani 1 1 d .
H3 H -0.3627 0.2519 0.1737 0.031 Uiso 1 1 calc R
C4 C -0.1985(2) 0.0173(2) 0.26760(18) 0.0242(3) Uani 1 1 d .
H4 H -0.3056 -0.0665 0.3488 0.029 Uiso 1 1 calc R
C5 C 0.2380(2) 0.3917(2) 0.11746(18) 0.0247(3) Uani 1 1 d .
C6 C 0.3402(2) 0.3723(2) -0.03386(19) 0.0297(3) Uani 1 1 d .
H6 H 0.2976 0.2902 -0.0671 0.036 Uiso 1 1 calc R
C7 C 0.5037(2) 0.4722(2) -0.1361(2) 0.0325(4) Uani 1 1 d .
H7 H 0.5738 0.4566 -0.238 0.039 Uiso 1 1 calc R
C8 C 0.5650(2) 0.5942(2) -0.0905(2) 0.0329(4) Uani 1 1 d .
H8 H 0.6763 0.6633 -0.1613 0.039 Uiso 1 1 calc R
C9 C 0.4636(2) 0.6152(2) 0.0589(2) 0.0335(4) Uani 1 1 d .
H9 H 0.5051 0.6993 0.0906 0.04 Uiso 1 1 calc R
C10 C 0.3011(2) 0.5135(2) 0.1627(2) 0.0286(3) Uani 1 1 d .
H10 H 0.2329 0.5276 0.2656 0.034 Uiso 1 1 calc R
C11 C -0.1473(2) -0.00869(19) 0.09966(18) 0.0251(3) Uani 1 1 d .
C12 C -0.2917(2) 0.0229(2) 0.0202(2) 0.0322(4) Uani 1 1 d .
H12 H -0.4174 0.0559 0.0724 0.039 Uiso 1 1 calc R
C13 C -0.2533(3) 0.0064(2) -0.1344(2) 0.0390(4) Uani 1 1 d .
H13 H -0.3516 0.0315 -0.189 0.047 Uiso 1 1 calc R
C14 C -0.0725(3) -0.0463(2) -0.2085(2) 0.0427(5) Uani 1 1 d .
H14 H -0.0461 -0.0571 -0.3145 0.051 Uiso 1 1 calc R
C15 C 0.0704(3) -0.0836(3) -0.1287(2) 0.0400(4) Uani 1 1 d .
H15 H 0.1942 -0.1225 -0.1789 0.048 Uiso 1 1 calc R
C16 C 0.0337(2) -0.0644(2) 0.0247(2) 0.0323(4) Uani 1 1 d .
H16 H 0.1328 -0.0895 0.0785 0.039 Uiso 1 1 calc R
C17 C 0.0236(2) -0.1998(2) 0.42650(18) 0.0243(3) Uani 1 1 d .
C18 C -0.0903(2) -0.3514(2) 0.4866(2) 0.0287(3) Uani 1 1 d .
H18 H -0.2118 -0.3358 0.4657 0.034 Uiso 1 1 calc R
C19 C -0.0257(2) -0.5254(2) 0.5773(2) 0.0339(4) Uani 1 1 d .
H19 H -0.1052 -0.6275 0.6201 0.041 Uiso 1 1 calc R
C20 C 0.1518(3) -0.5518(2) 0.6059(2) 0.0378(4) Uani 1 1 d .
H20 H 0.1951 -0.6711 0.6676 0.045 Uiso 1 1 calc R
C21 C 0.2660(3) -0.4022(3) 0.5433(2) 0.0400(4) Uani 1 1 d .
H21 H 0.3895 -0.4197 0.5607 0.048 Uiso 1 1 calc R
C22 C 0.2034(2) -0.2268(2) 0.4556(2) 0.0323(4) Uani 1 1 d .
H22 H 0.2828 -0.1251 0.4154 0.039 Uiso 1 1 calc R
N1 N -0.04666(16) -0.01879(16) 0.35074(15) 0.0230(3) Uani 1 1 d .
N2 N -0.37960(19) 0.2145(2) 0.41927(18) 0.0331(3) Uani 1 1 d .
O1 O 0.11236(14) 0.09751(13) 0.23739(12) 0.0248(2) Uani 1 1 d .
O2 O -0.5011(2) 0.0982(2) 0.50943(18) 0.0542(4) Uani 1 1 d .
O3 O -0.34535(17) 0.33071(19) 0.46079(17) 0.0425(3) Uani 1 1 d .
loop_
_atom_site_aniso_label
_atom_site_aniso_U_11
_atom_site_aniso_U_22
_atom_site_aniso_U_33
_atom_site_aniso_U_23
_atom_site_aniso_U_13
_atom_site_aniso_U_12
C1 0.0232(7) 0.0228(7) 0.0258(7) -0.0112(6) -0.0055(6) 0.0000(6)
C2 0.0242(7) 0.0248(7) 0.0300(8) -0.0110(6) -0.0075(6) 0.0010(6)
C3 0.0224(7) 0.0275(7) 0.0269(7) -0.0121(6) -0.0057(6) 0.0027(6)
C4 0.0215(7) 0.0241(7) 0.0251(7) -0.0086(6) -0.0051(6) -0.0009(6)
C5 0.0244(7) 0.0232(7) 0.0238(7) -0.0064(6) -0.0077(6) 0.0016(6)
C6 0.0299(8) 0.0343(8) 0.0259(8) -0.0121(7) -0.0074(6) -0.0036(7)
C7 0.0285(8) 0.0394(9) 0.0238(8) -0.0088(7) -0.0038(6) -0.0024(7)
C8 0.0267(8) 0.0294(8) 0.0341(9) -0.0048(7) -0.0064(6) -0.0039(6)
C9 0.0322(8) 0.0277(8) 0.0406(9) -0.0128(7) -0.0090(7) -0.0046(7)
C10 0.0275(8) 0.0261(7) 0.0311(8) -0.0123(6) -0.0054(6) -0.0001(6)
C11 0.0312(7) 0.0200(7) 0.0237(7) -0.0078(6) -0.0069(6) -0.0033(6)
C12 0.0357(9) 0.0274(8) 0.0362(9) -0.0110(7) -0.0147(7) -0.0022(6)
C13 0.0577(11) 0.0300(8) 0.0352(9) -0.0085(7) -0.0228(8) -0.0084(8)
C14 0.0703(13) 0.0334(9) 0.0287(8) -0.0151(7) -0.0118(9) -0.0088(9)
C15 0.0489(10) 0.0379(9) 0.0326(9) -0.0192(8) -0.0023(8) -0.0020(8)
C16 0.0348(9) 0.0319(8) 0.0303(8) -0.0136(7) -0.0076(7) 0.0005(7)
C17 0.0264(7) 0.0246(7) 0.0206(7) -0.0096(6) -0.0050(6) 0.0026(6)
C18 0.0263(8) 0.0273(8) 0.0269(7) -0.0088(6) -0.0025(6) -0.0007(6)
C19 0.0403(10) 0.0254(8) 0.0279(8) -0.0090(6) -0.0003(7) -0.0017(7)
C20 0.0511(11) 0.0271(9) 0.0319(9) -0.0069(7) -0.0173(8) 0.0078(8)
C21 0.0409(10) 0.0379(9) 0.0445(10) -0.0136(8) -0.0242(8) 0.0089(8)
C22 0.0356(9) 0.0289(8) 0.0364(9) -0.0127(7) -0.0166(7) 0.0018(7)
N1 0.0200(6) 0.0208(6) 0.0245(6) -0.0063(5) -0.0041(5) -0.0019(5)
N2 0.0244(7) 0.0391(8) 0.0361(8) -0.0190(7) -0.0054(6) 0.0052(6)
O1 0.0212(5) 0.0214(5) 0.0280(5) -0.0078(4) -0.0039(4) -0.0011(4)
O2 0.0464(8) 0.0519(9) 0.0510(8) -0.0251(7) 0.0177(7) -0.0156(7)
O3 0.0344(7) 0.0542(8) 0.0499(7) -0.0357(7) -0.0069(6) 0.0027(6)
loop_
_atom_type_symbol
_atom_type_description
_atom_type_scat_dispersion_real
_atom_type_scat_dispersion_imag
_atom_type_scat_source
C C 0.0033 0.0016 'International Tables Vol C Tables 4.2.6.8 and 6.1.1.4'
H H 0 0 'International Tables Vol C Tables 4.2.6.8 and 6.1.1.4'
N N 0.0061 0.0033 'International Tables Vol C Tables 4.2.6.8 and 6.1.1.4'
O O 0.0106 0.006 'International Tables Vol C Tables 4.2.6.8 and 6.1.1.4'
loop_
_geom_angle_atom_site_label_1
_geom_angle_atom_site_label_2
_geom_angle_atom_site_label_3
_geom_angle
O1 C1 C5 105.23(11)
O1 C1 C2 108.70(11)
C5 C1 C2 112.67(12)
O1 C1 H1 110
C5 C1 H1 110
C2 C1 H1 110
C3 C2 C1 112.20(12)
C3 C2 H2A 109.2
C1 C2 H2A 109.2
C3 C2 H2B 109.2
C1 C2 H2B 109.2
H2A C2 H2B 107.9
C2 C3 N2 111.89(12)
C2 C3 C4 112.29(12)
N2 C3 C4 107.71(12)
C2 C3 H3 108.3
N2 C3 H3 108.3
C4 C3 H3 108.3
N1 C4 C11 117.27(12)
N1 C4 C3 105.49(11)
C11 C4 C3 111.01(12)
N1 C4 H4 107.6
C11 C4 H4 107.6
C3 C4 H4 107.6
C10 C5 C6 118.96(14)
C10 C5 C1 120.84(13)
C6 C5 C1 120.20(13)
C7 C6 C5 120.35(15)
C7 C6 H6 119.8
C5 C6 H6 119.8
C8 C7 C6 120.32(15)
C8 C7 H7 119.8
C6 C7 H7 119.8
C7 C8 C9 119.68(15)
C7 C8 H8 120.2
C9 C8 H8 120.2
C8 C9 C10 120.09(15)
C8 C9 H9 120
C10 C9 H9 120
C5 C10 C9 120.59(15)
C5 C10 H10 119.7
C9 C10 H10 119.7
C16 C11 C12 118.75(14)
C16 C11 C4 123.44(13)
C12 C11 C4 117.81(13)
C13 C12 C11 120.60(16)
C13 C12 H12 119.7
C11 C12 H12 119.7
C14 C13 C12 119.98(17)
C14 C13 H13 120
C12 C13 H13 120
C13 C14 C15 120.05(16)
C13 C14 H14 120
C15 C14 H14 120
C14 C15 C16 120.23(17)
C14 C15 H15 119.9
C16 C15 H15 119.9
C15 C16 C11 120.33(16)
C15 C16 H16 119.8
C11 C16 H16 119.8
C22 C17 C18 118.97(14)
C22 C17 N1 119.52(13)
C18 C17 N1 121.25(13)
C19 C18 C17 119.94(14)
C19 C18 H18 120
C17 C18 H18 120
C20 C19 C18 121.02(15)
C20 C19 H19 119.5
C18 C19 H19 119.5
C19 C20 C21 118.97(15)
C19 C20 H20 120.5
C21 C20 H20 120.5
C20 C21 C22 121.16(17)
C20 C21 H21 119.4
C22 C21 H21 119.4
C21 C22 C17 119.91(15)
C21 C22 H22 120
C17 C22 H22 120
C17 N1 O1 109.07(10)
C17 N1 C4 121.03(12)
O1 N1 C4 109.59(10)
O3 N2 O2 123.41(14)
O3 N2 C3 119.13(13)
O2 N2 C3 117.43(13)
N1 O1 C1 108.53(9)
loop_
_geom_bond_atom_site_label_1
_geom_bond_atom_site_label_2
_geom_bond_distance
C1 O1 1.4440(17)
C1 C5 1.508(2)
C1 C2 1.529(2)
C1 H1 1
C2 C3 1.517(2)
C2 H2A 0.99
C2 H2B 0.99
C3 N2 1.527(2)
C3 C4 1.542(2)
C3 H3 1
C4 N1 1.4627(19)
C4 C11 1.534(2)
C4 H4 1
C5 C10 1.384(2)
C5 C6 1.395(2)
C6 C7 1.387(2)
C6 H6 0.95
C7 C8 1.381(2)
C7 H7 0.95
C8 C9 1.385(2)
C8 H8 0.95
C9 C10 1.390(2)
C9 H9 0.95
C10 H10 0.95
C11 C16 1.391(2)
C11 C12 1.396(2)
C12 C13 1.390(2)
C12 H12 0.95
C13 C14 1.378(3)
C13 H13 0.95
C14 C15 1.383(3)
C14 H14 0.95
C15 C16 1.391(2)
C15 H15 0.95
C16 H16 0.95
C17 C22 1.396(2)
C17 C18 1.397(2)
C17 N1 1.4180(18)
C18 C19 1.391(2)
C18 H18 0.95
C19 C20 1.378(3)
C19 H19 0.95
C20 C21 1.382(3)
C20 H20 0.95
C21 C22 1.387(2)
C21 H21 0.95
C22 H22 0.95
N1 O1 1.4407(15)
N2 O3 1.2187(18)
N2 O2 1.2247(19)
loop_
_geom_torsion_atom_site_label_1
_geom_torsion_atom_site_label_2
_geom_torsion_atom_site_label_3
_geom_torsion_atom_site_label_4
_geom_torsion
O1 C1 C2 C3 50.39(15)
C5 C1 C2 C3 166.62(12)
C1 C2 C3 N2 74.40(15)
C1 C2 C3 C4 -46.87(17)
C2 C3 C4 N1 52.95(15)
N2 C3 C4 N1 -70.68(14)
C2 C3 C4 C11 -75.06(15)
N2 C3 C4 C11 161.31(12)
O1 C1 C5 C10 -134.99(13)
C2 C1 C5 C10 106.73(15)
O1 C1 C5 C6 45.35(16)
C2 C1 C5 C6 -72.94(17)
C10 C5 C6 C7 0.7(2)
C1 C5 C6 C7 -179.61(15)
C5 C6 C7 C8 -1.1(2)
C6 C7 C8 C9 0.6(2)
C7 C8 C9 C10 0.2(2)
C6 C5 C10 C9 0.1(2)
C1 C5 C10 C9 -179.53(14)
C8 C9 C10 C5 -0.6(2)
N1 C4 C11 C16 0.2(2)
C3 C4 C11 C16 121.48(15)
N1 C4 C11 C12 179.14(13)
C3 C4 C11 C12 -59.54(17)
C16 C11 C12 C13 -2.7(2)
C4 C11 C12 C13 178.31(14)
C11 C12 C13 C14 1.7(2)
C12 C13 C14 C15 0.3(3)
C13 C14 C15 C16 -1.4(3)
C14 C15 C16 C11 0.4(3)
C12 C11 C16 C15 1.6(2)
C4 C11 C16 C15 -179.44(15)
C22 C17 C18 C19 1.4(2)
N1 C17 C18 C19 -172.77(13)
C17 C18 C19 C20 -1.5(2)
C18 C19 C20 C21 0.2(2)
C19 C20 C21 C22 1.2(3)
C20 C21 C22 C17 -1.2(3)
C18 C17 C22 C21 -0.1(2)
N1 C17 C22 C21 174.19(14)
C22 C17 N1 O1 31.11(17)
C18 C17 N1 O1 -154.73(13)
C22 C17 N1 C4 159.58(13)
C18 C17 N1 C4 -26.3(2)
C11 C4 N1 C17 -70.21(17)
C3 C4 N1 C17 165.64(12)
C11 C4 N1 O1 58.03(15)
C3 C4 N1 O1 -66.12(13)
C2 C3 N2 O3 8.43(19)
C4 C3 N2 O3 132.31(14)
C2 C3 N2 O2 -173.27(14)
C4 C3 N2 O2 -49.39(18)
C17 N1 O1 C1 -151.21(11)
C4 N1 O1 C1 74.19(13)
C5 C1 O1 N1 176.52(10)
C2 C1 O1 N1 -62.56(13)
