#------------------------------------------------------------------------------
#$Date: 2016-03-26 15:50:19 +0200 (Sat, 26 Mar 2016) $
#$Revision: 180318 $
#$URL: svn://www.crystallography.net/cod/cif/7/15/32/7153256.cif $
#------------------------------------------------------------------------------
#
# This file is available in the Crystallography Open Database (COD),
# http://www.crystallography.net/
#
# All data on this site have been placed in the public domain by the
# contributors.
#
data_7153256
loop_
_publ_author_name
'Petrova, Tetyana'
'Tarabara, Igor'
'Palchikov, Vitaliy'
'Kasyan, Liliya'
'Kosenkov, Dmytro'
'Okovytyy, Sergiy'
'Gorb, Leonid'
'Shishkina, Svetlana'
'Shishkin, Oleg'
'Leszczynski, Jerzy'
_publ_section_title
;
 Ethanolysis of N-substituted norbornane epoxyimides: discovery of diverse
 pathways depending on substituent's character.
;
_journal_issue                   9
_journal_name_full               'Organic &amp; biomolecular chemistry'
_journal_page_first              2142
_journal_page_last               2157
_journal_paper_doi               10.1039/b917850c
_journal_volume                  8
_journal_year                    2010
_chemical_formula_moiety         'C15 H14 N2 O6'
_chemical_formula_sum            'C15 H14 N2 O6'
_chemical_formula_weight         318.28
_chemical_name_systematic
;
?
;
_space_group_IT_number           2
_symmetry_cell_setting           triclinic
_symmetry_space_group_name_Hall  '-P 1'
_symmetry_space_group_name_H-M   'P -1'
_atom_sites_solution_hydrogens   difmap
_atom_sites_solution_primary     direct
_atom_sites_solution_secondary   difmap
_audit_creation_method           SHELXL-97
_cell_angle_alpha                73.995(18)
_cell_angle_beta                 80.033(14)
_cell_angle_gamma                73.38(2)
_cell_formula_units_Z            2
_cell_length_a                   7.2192(13)
_cell_length_b                   9.064(2)
_cell_length_c                   11.0633(16)
_cell_measurement_reflns_used    3284
_cell_measurement_temperature    100(2)
_cell_measurement_theta_max      32
_cell_measurement_theta_min      3
_cell_volume                     663.3(2)
_computing_cell_refinement
;
CrysAlis RED, Oxford Diffraction Ltd.,
Version 1.171.27p5 beta (release 01-04-2005 CrysAlis171 .NET)
(compiled Apr 1 2005,17:53:34)
;
_computing_data_collection
;
CrysAlis CCD, Oxford Diffraction Ltd.,
Version 1.171.27p5 beta (release 01-04-2005 CrysAlis171 .NET)
(compiled Apr 1 2005,17:53:34)
;
_computing_data_reduction
;
CrysAlis RED, Oxford Diffraction Ltd.,
Version 1.171.27p5 beta (release 01-04-2005 CrysAlis171 .NET)
(compiled Apr 1 2005,17:53:34)
;
_computing_molecular_graphics    'XP (Siemens, 1998)'
_computing_publication_material  'SHELXTL (Sheldrick, 1998)'
_computing_structure_refinement  'SHELXTL (Sheldrick, 1998)'
_computing_structure_solution    'SHELXTL (Sheldrick, 1998)'
_diffrn_ambient_temperature      100(2)
_diffrn_detector_area_resol_mean 16.1827
_diffrn_measured_fraction_theta_full 0.971
_diffrn_measured_fraction_theta_max 0.971
_diffrn_measurement_device_type  Xcalibur"3
_diffrn_measurement_method       \w-scans
_diffrn_radiation_monochromator  graphite
_diffrn_radiation_source         'Enhance (Mo) X-ray Source'
_diffrn_radiation_type           MoK\a
_diffrn_radiation_wavelength     0.71073
_diffrn_reflns_av_R_equivalents  0.0161
_diffrn_reflns_av_sigmaI/netI    0.0217
_diffrn_reflns_limit_h_max       8
_diffrn_reflns_limit_h_min       -9
_diffrn_reflns_limit_k_max       8
_diffrn_reflns_limit_k_min       -11
_diffrn_reflns_limit_l_max       14
_diffrn_reflns_limit_l_min       -14
_diffrn_reflns_number            4797
_diffrn_reflns_theta_full        27.50
_diffrn_reflns_theta_max         27.50
_diffrn_reflns_theta_min         2.70
_diffrn_standards_interval_count 50
_diffrn_standards_number         2
_exptl_absorpt_coefficient_mu    0.125
_exptl_absorpt_correction_type   none
_exptl_crystal_colour            colourless
_exptl_crystal_density_diffrn    1.594
_exptl_crystal_density_method    'not measured'
_exptl_crystal_description       block
_exptl_crystal_F_000             332
_exptl_crystal_size_max          0.20
_exptl_crystal_size_mid          0.10
_exptl_crystal_size_min          0.10
_refine_diff_density_max         0.365
_refine_diff_density_min         -0.232
_refine_diff_density_rms         0.048
_refine_ls_extinction_method     none
_refine_ls_goodness_of_fit_ref   1.076
_refine_ls_hydrogen_treatment    refall
_refine_ls_matrix_type           full
_refine_ls_number_parameters     264
_refine_ls_number_reflns         2960
_refine_ls_number_restraints     0
_refine_ls_restrained_S_all      1.076
_refine_ls_R_factor_all          0.0406
_refine_ls_R_factor_gt           0.0337
_refine_ls_shift/su_max          0.000
_refine_ls_shift/su_mean         0.000
_refine_ls_structure_factor_coef Fsqd
_refine_ls_weighting_details
'calc w=1/[\s^2^(Fo^2^)+(0.0580P)^2^+0.0903P] where P=(Fo^2^+2Fc^2^)/3'
_refine_ls_weighting_scheme      calc
_refine_ls_wR_factor_gt          0.0904
_refine_ls_wR_factor_ref         0.0929
_reflns_number_gt                2473
_reflns_number_total             2960
_reflns_threshold_expression     >2sigma(I)
_cod_data_source_file            b917850c.txt
_cod_data_source_block           KAS36
_cod_original_sg_symbol_H-M      P-1
_cod_database_code               7153256
loop_
_symmetry_equiv_pos_as_xyz
'x, y, z'
'-x, -y, -z'
loop_
_atom_site_label
_atom_site_type_symbol
_atom_site_fract_x
_atom_site_fract_y
_atom_site_fract_z
_atom_site_U_iso_or_equiv
_atom_site_adp_type
_atom_site_occupancy
_atom_site_symmetry_multiplicity
_atom_site_calc_flag
N1 N 0.34016(14) 0.16369(12) 0.35544(9) 0.0123(2) Uani 1 1 d
N2 N -0.20001(16) 0.25881(13) 0.67829(10) 0.0181(2) Uani 1 1 d
O1 O 0.07556(12) 0.12872(10) 0.28468(8) 0.0160(2) Uani 1 1 d
O2 O 0.72450(13) 0.36597(11) 0.22457(8) 0.0169(2) Uani 1 1 d
H2O H 0.828(3) 0.286(3) 0.240(2) 0.047(6) Uiso 1 1 d
O3 O 0.18293(13) 0.45125(10) 0.08681(8) 0.0170(2) Uani 1 1 d
O4 O 0.12991(14) 0.31271(11) -0.03603(9) 0.0208(2) Uani 1 1 d
H4O H 0.027(3) 0.390(3) -0.0458(18) 0.039(5) Uiso 1 1 d
O5 O -0.29897(13) 0.21543(12) 0.62252(9) 0.0222(2) Uani 1 1 d
O6 O -0.24954(17) 0.28351(15) 0.78376(10) 0.0350(3) Uani 1 1 d
C1 C 0.54419(17) 0.15667(14) 0.30645(11) 0.0128(2) Uani 1 1 d
H1 H 0.625(2) 0.1291(18) 0.3773(14) 0.017(4) Uiso 1 1 d
C2 C 0.56792(17) 0.31097(14) 0.20624(11) 0.0132(2) Uani 1 1 d
H2 H 0.452(2) 0.3952(16) 0.2145(12) 0.007(3) Uiso 1 1 d
C3 C 0.60113(17) 0.25902(14) 0.08149(11) 0.0137(2) Uani 1 1 d
H3 H 0.646(2) 0.3324(19) 0.0121(14) 0.016(4) Uiso 1 1 d
C4 C 0.42212(17) 0.21433(14) 0.05746(11) 0.0132(2) Uani 1 1 d
H4 H 0.454(2) 0.1734(18) -0.0172(14) 0.012(3) Uiso 1 1 d
C5 C 0.40091(17) 0.07095(14) 0.17330(11) 0.0126(2) Uani 1 1 d
H5 H 0.371(2) -0.0153(18) 0.1488(14) 0.015(3) Uiso 1 1 d
C6 C 0.59659(17) 0.03091(14) 0.22842(11) 0.0138(2) Uani 1 1 d
H6 H 0.635(2) -0.0756(18) 0.2760(14) 0.014(3) Uiso 1 1 d
C7 C 0.73637(18) 0.09239(15) 0.11822(12) 0.0158(2) Uani 1 1 d
H7B H 0.764(2) 0.0344(17) 0.0493(13) 0.012(3) Uiso 1 1 d
H7A H 0.859(2) 0.0932(19) 0.1450(14) 0.018(4) Uiso 1 1 d
C8 C 0.23440(17) 0.33975(14) 0.03751(11) 0.0141(2) Uani 1 1 d
C9 C 0.24881(17) 0.12198(14) 0.27621(11) 0.0124(2) Uani 1 1 d
C10 C 0.24729(17) 0.23650(14) 0.45433(11) 0.0126(2) Uani 1 1 d
C11 C 0.06998(17) 0.21112(14) 0.51712(11) 0.0136(2) Uani 1 1 d
H11 H 0.008(2) 0.1459(18) 0.4941(14) 0.014(3) Uiso 1 1 d
C12 C -0.01137(17) 0.28371(14) 0.61483(11) 0.0149(2) Uani 1 1 d
C13 C 0.07230(19) 0.37857(15) 0.65474(11) 0.0162(3) Uani 1 1 d
H13 H 0.010(2) 0.427(2) 0.7214(16) 0.025(4) Uiso 1 1 d
C14 C 0.24885(19) 0.40215(15) 0.59111(11) 0.0163(3) Uani 1 1 d
H14 H 0.309(2) 0.4677(19) 0.6161(15) 0.021(4) Uiso 1 1 d
C15 C 0.33545(18) 0.33298(14) 0.49163(11) 0.0145(2) Uani 1 1 d
H15 H 0.462(2) 0.3488(18) 0.4468(14) 0.019(4) Uiso 1 1 d
loop_
_atom_site_aniso_label
_atom_site_aniso_U_11
_atom_site_aniso_U_22
_atom_site_aniso_U_33
_atom_site_aniso_U_23
_atom_site_aniso_U_13
_atom_site_aniso_U_12
N1 0.0107(5) 0.0150(5) 0.0122(5) -0.0049(4) -0.0008(4) -0.0034(4)
N2 0.0173(5) 0.0163(5) 0.0176(5) -0.0037(4) 0.0024(4) -0.0025(4)
O1 0.0117(4) 0.0206(5) 0.0178(4) -0.0070(3) -0.0020(3) -0.0045(3)
O2 0.0135(4) 0.0188(5) 0.0219(5) -0.0073(3) -0.0031(3) -0.0062(4)
O3 0.0169(4) 0.0168(4) 0.0183(4) -0.0069(3) -0.0056(3) -0.0009(3)
O4 0.0199(5) 0.0190(5) 0.0255(5) -0.0095(4) -0.0120(4) 0.0014(4)
O5 0.0153(4) 0.0279(5) 0.0214(5) -0.0016(4) -0.0023(4) -0.0063(4)
O6 0.0394(6) 0.0464(7) 0.0262(5) -0.0214(5) 0.0175(5) -0.0217(5)
C1 0.0100(5) 0.0160(6) 0.0126(5) -0.0047(4) -0.0017(4) -0.0022(4)
C2 0.0113(5) 0.0148(6) 0.0151(6) -0.0056(4) -0.0021(4) -0.0034(4)
C3 0.0122(5) 0.0160(6) 0.0134(6) -0.0043(4) -0.0007(4) -0.0040(5)
C4 0.0140(5) 0.0148(6) 0.0119(5) -0.0052(4) -0.0019(4) -0.0032(4)
C5 0.0122(5) 0.0125(5) 0.0139(5) -0.0050(4) -0.0025(4) -0.0020(4)
C6 0.0128(5) 0.0132(6) 0.0153(6) -0.0047(4) -0.0036(4) -0.0007(4)
C7 0.0115(5) 0.0183(6) 0.0181(6) -0.0078(5) -0.0009(4) -0.0018(5)
C8 0.0148(6) 0.0154(6) 0.0116(5) -0.0006(4) -0.0025(4) -0.0050(5)
C9 0.0139(5) 0.0112(5) 0.0119(5) -0.0016(4) -0.0023(4) -0.0032(4)
C10 0.0139(5) 0.0126(5) 0.0102(5) -0.0019(4) -0.0030(4) -0.0016(4)
C11 0.0145(6) 0.0128(5) 0.0135(5) -0.0023(4) -0.0030(4) -0.0032(4)
C12 0.0144(6) 0.0140(6) 0.0130(5) -0.0010(4) -0.0006(4) -0.0012(5)
C13 0.0208(6) 0.0146(6) 0.0112(5) -0.0041(4) -0.0018(5) -0.0005(5)
C14 0.0198(6) 0.0156(6) 0.0156(6) -0.0050(4) -0.0053(5) -0.0046(5)
C15 0.0142(5) 0.0151(6) 0.0146(6) -0.0028(4) -0.0032(4) -0.0040(4)
loop_
_atom_type_symbol
_atom_type_description
_atom_type_scat_dispersion_real
_atom_type_scat_dispersion_imag
_atom_type_scat_source
C C 0.0033 0.0016 'International Tables Vol C Tables 4.2.6.8 and 6.1.1.4'
H H 0.0000 0.0000 'International Tables Vol C Tables 4.2.6.8 and 6.1.1.4'
N N 0.0061 0.0033 'International Tables Vol C Tables 4.2.6.8 and 6.1.1.4'
O O 0.0106 0.0060 'International Tables Vol C Tables 4.2.6.8 and 6.1.1.4'
loop_
_geom_angle_atom_site_label_1
_geom_angle_atom_site_label_2
_geom_angle_atom_site_label_3
_geom_angle
C9 N1 C10 125.46(10)
C9 N1 C1 110.68(9)
C10 N1 C1 122.50(9)
O5 N2 O6 123.71(11)
O5 N2 C12 118.24(10)
O6 N2 C12 118.05(11)
C2 O2 H2O 110.0(14)
C8 O4 H4O 107.8(13)
N1 C1 C6 103.83(9)
N1 C1 C2 112.12(9)
C6 C1 C2 103.48(9)
N1 C1 H1 110.3(9)
C6 C1 H1 113.6(9)
C2 C1 H1 113.1(9)
O2 C2 C3 112.56(10)
O2 C2 C1 112.74(9)
C3 C2 C1 102.29(9)
O2 C2 H2 106.0(8)
C3 C2 H2 114.5(8)
C1 C2 H2 108.9(8)
C7 C3 C2 101.12(9)
C7 C3 C4 99.31(10)
C2 C3 C4 111.78(10)
C7 C3 H3 117.4(10)
C2 C3 H3 112.8(9)
C4 C3 H3 113.2(9)
C8 C4 C3 119.40(10)
C8 C4 C5 112.66(10)
C3 C4 C5 103.18(9)
C8 C4 H4 105.5(9)
C3 C4 H4 108.5(9)
C5 C4 H4 107.0(9)
C9 C5 C6 104.85(9)
C9 C5 C4 112.10(10)
C6 C5 C4 101.34(9)
C9 C5 H5 109.2(9)
C6 C5 H5 116.3(9)
C4 C5 H5 112.7(9)
C7 C6 C1 103.52(10)
C7 C6 C5 105.35(9)
C1 C6 C5 98.58(9)
C7 C6 H6 118.6(9)
C1 C6 H6 114.8(9)
C5 C6 H6 113.6(9)
C6 C7 C3 94.82(9)
C6 C7 H7B 113.2(8)
C3 C7 H7B 112.6(8)
C6 C7 H7A 113.0(9)
C3 C7 H7A 112.7(9)
H7B C7 H7A 109.8(13)
O3 C8 O4 123.78(11)
O3 C8 C4 123.76(11)
O4 C8 C4 112.43(11)
O1 C9 N1 126.61(11)
O1 C9 C5 126.17(11)
N1 C9 C5 107.19(10)
C11 C10 C15 119.70(11)
C11 C10 N1 120.78(10)
C15 C10 N1 119.51(11)
C12 C11 C10 117.80(11)
C12 C11 H11 121.0(9)
C10 C11 H11 121.2(9)
C11 C12 C13 124.03(11)
C11 C12 N2 117.24(11)
C13 C12 N2 118.73(11)
C12 C13 C14 117.26(11)
C12 C13 H13 120.9(10)
C14 C13 H13 121.8(10)
C15 C14 C13 120.85(11)
C15 C14 H14 120.0(10)
C13 C14 H14 119.1(10)
C14 C15 C10 120.35(11)
C14 C15 H15 120.9(9)
C10 C15 H15 118.8(9)
loop_
_geom_bond_atom_site_label_1
_geom_bond_atom_site_label_2
_geom_bond_distance
N1 C9 1.3681(15)
N1 C10 1.4047(15)
N1 C1 1.4684(15)
N2 O5 1.2217(15)
N2 O6 1.2221(15)
N2 C12 1.4683(16)
O1 C9 1.2230(15)
O2 C2 1.4230(14)
O2 H2O 0.88(2)
O3 C8 1.2149(16)
O4 C8 1.3112(14)
O4 H4O 0.86(2)
C1 C6 1.5397(17)
C1 C2 1.5590(17)
C1 H1 0.993(15)
C2 C3 1.5374(17)
C2 H2 0.970(14)
C3 C7 1.5345(17)
C3 C4 1.5435(16)
C3 H3 0.945(16)
C4 C8 1.5038(17)
C4 C5 1.5756(17)
C4 H4 0.963(15)
C5 C9 1.5109(17)
C5 C6 1.5434(16)
C5 H5 0.981(15)
C6 C7 1.5285(18)
C6 H6 0.950(15)
C7 H7B 1.003(14)
C7 H7A 0.982(15)
C10 C11 1.3952(17)
C10 C15 1.3958(17)
C11 C12 1.3776(17)
C11 H11 0.941(15)
C12 C13 1.3776(18)
C13 C14 1.3885(18)
C13 H13 0.944(17)
C14 C15 1.3832(18)
C14 H14 0.949(16)
C15 H15 0.993(16)
loop_
_geom_hbond_atom_site_label_D
_geom_hbond_atom_site_label_H
_geom_hbond_atom_site_label_A
_geom_hbond_distance_DH
_geom_hbond_distance_HA
_geom_hbond_distance_DA
_geom_hbond_angle_DHA
_geom_hbond_site_symmetry_A
O2 H2O O1 0.88(2) 1.99(2) 2.8578(15) 171(2) 1_655
O4 H4O O3 0.86(2) 1.79(2) 2.6469(15) 172.6(19) 2_565
loop_
_geom_torsion_atom_site_label_1
_geom_torsion_atom_site_label_2
_geom_torsion_atom_site_label_3
_geom_torsion_atom_site_label_4
_geom_torsion
C9 N1 C1 C6 -27.55(12)
C10 N1 C1 C6 165.11(10)
C9 N1 C1 C2 83.49(12)
C10 N1 C1 C2 -83.84(13)
N1 C1 C2 O2 135.63(10)
C6 C1 C2 O2 -113.10(10)
N1 C1 C2 C3 -103.23(10)
C6 C1 C2 C3 8.04(11)
O2 C2 C3 C7 80.38(11)
C1 C2 C3 C7 -40.88(11)
O2 C2 C3 C4 -174.78(9)
C1 C2 C3 C4 63.96(11)
C7 C3 C4 C8 170.51(10)
C2 C3 C4 C8 64.49(14)
C7 C3 C4 C5 44.63(11)
C2 C3 C4 C5 -61.38(12)
C8 C4 C5 C9 -31.34(13)
C3 C4 C5 C9 98.75(11)
C8 C4 C5 C6 -142.66(10)
C3 C4 C5 C6 -12.56(11)
N1 C1 C6 C7 144.97(9)
C2 C1 C6 C7 27.73(11)
N1 C1 C6 C5 36.82(11)
C2 C1 C6 C5 -80.43(10)
C9 C5 C6 C7 -141.01(10)
C4 C5 C6 C7 -24.26(11)
C9 C5 C6 C1 -34.35(11)
C4 C5 C6 C1 82.40(10)
C1 C6 C7 C3 -51.75(10)
C5 C6 C7 C3 51.27(11)
C2 C3 C7 C6 56.83(10)
C4 C3 C7 C6 -57.72(10)
C3 C4 C8 O3 -31.67(17)
C5 C4 C8 O3 89.58(14)
C3 C4 C8 O4 150.23(11)
C5 C4 C8 O4 -88.52(12)
C10 N1 C9 O1 -6.53(19)
C1 N1 C9 O1 -173.41(11)
C10 N1 C9 C5 171.62(10)
C1 N1 C9 C5 4.74(12)
C6 C5 C9 O1 -161.91(11)
C4 C5 C9 O1 89.00(14)
C6 C5 C9 N1 19.93(12)
C4 C5 C9 N1 -89.16(11)
C9 N1 C10 C11 28.93(17)
C1 N1 C10 C11 -165.65(11)
C9 N1 C10 C15 -152.27(11)
C1 N1 C10 C15 13.14(16)
C15 C10 C11 C12 -0.02(17)
N1 C10 C11 C12 178.77(10)
C10 C11 C12 C13 -0.50(18)
C10 C11 C12 N2 178.70(10)
O5 N2 C12 C11 -19.98(16)
O6 N2 C12 C11 160.39(12)
O5 N2 C12 C13 159.27(11)
O6 N2 C12 C13 -20.36(17)
C11 C12 C13 C14 0.42(18)
N2 C12 C13 C14 -178.77(10)
C12 C13 C14 C15 0.19(18)
C13 C14 C15 C10 -0.69(18)
C11 C10 C15 C14 0.61(17)
N1 C10 C15 C14 -178.21(11)
