#------------------------------------------------------------------------------
#$Date: 2016-03-26 16:03:23 +0200 (Sat, 26 Mar 2016) $
#$Revision: 180329 $
#$URL: svn://www.crystallography.net/cod/cif/7/15/43/7154325.cif $
#------------------------------------------------------------------------------
#
# This file is available in the Crystallography Open Database (COD),
# http://www.crystallography.net/
#
# All data on this site have been placed in the public domain by the
# contributors.
#
data_7154325
loop_
_publ_author_name
'Huang, Hu'
'Pan, Hongjie'
'Cai, Yudong'
'Liu, Mao'
'Tian, Hua'
'Shi, Yian'
_publ_section_title
;
 Enantioselective 6-endo bromoaminocyclization of 2,4-dienyl
 N-tosylcarbamates catalyzed by a chiral phosphine oxide-Sc(OTf)3 complex.
 A dramatic additive effect.
;
_journal_issue                   12
_journal_name_full               'Organic &amp; biomolecular chemistry'
_journal_page_first              3566
_journal_page_last               3570
_journal_paper_doi               10.1039/c5ob00001g
_journal_volume                  13
_journal_year                    2015
_chemical_absolute_configuration ad
_chemical_formula_moiety         'C13 H19 N O3 S, H2 O'
_chemical_formula_sum            'C13 H21 N O4 S'
_chemical_formula_weight         287.37
_chemical_name_systematic
;
 ?
;
_space_group_crystal_system      monoclinic
_space_group_IT_number           4
_space_group_name_Hall           'P 2yb'
_space_group_name_H-M_alt        'P 1 21 1'
_symmetry_space_group_name_Hall  'P 2yb'
_symmetry_space_group_name_H-M   'P 1 21 1'
_atom_sites_solution_hydrogens   mixed
_audit_block_doi                 10.5517/cc13vg2h
_audit_creation_date             2014-05-04
_audit_creation_method
;
Olex2 1.2
(compiled 2013.12.10 svn.r2850 for OlexSys, GUI svn.r4736)
;
_audit_update_record
;
2014-12-09 deposited with the CCDC.
2015-02-02 downloaded from the CCDC.
;
_cell_angle_alpha                90
_cell_angle_beta                 111.23(3)
_cell_angle_gamma                90
_cell_formula_units_Z            2
_cell_length_a                   10.036(2)
_cell_length_b                   7.3432(15)
_cell_length_c                   10.826(2)
_cell_measurement_reflns_used    2772
_cell_measurement_temperature    173.1500
_cell_measurement_theta_max      27.4846
_cell_measurement_theta_min      2.0182
_cell_volume                     743.7(3)
_computing_cell_refinement       'CrystalClear (Rigaku Inc., 2007)'
_computing_data_collection       'CrystalClear (Rigaku Inc., 2007)'
_computing_data_reduction        'CrystalClear (Rigaku Inc., 2007)'
_computing_molecular_graphics    'Olex2 (Dolomanov et al., 2009)'
_computing_publication_material  'Olex2 (Dolomanov et al., 2009)'
_computing_structure_refinement  'SHELXL (Sheldrick, 2013)'
_computing_structure_solution
;
'SHELXS (Sheldrick, 2013)'
;
_diffrn_ambient_temperature      173.1500
_diffrn_detector_area_resol_mean 28.5714
_diffrn_measured_fraction_theta_full 0.996
_diffrn_measured_fraction_theta_max 0.992
_diffrn_measurement_device
;
Saturn724 (2x2 bin mode)
;
_diffrn_measurement_device_details
;
AFC10: Fixed Chi 2 circle
;
_diffrn_measurement_device_type  'Saturn724+ CCD'
_diffrn_measurement_method       '\w scans at fixed \c = 45\%'
_diffrn_orient_matrix_type       d*Trek
_diffrn_orient_matrix_UB_11      -0.1005
_diffrn_orient_matrix_UB_12      -0.0034
_diffrn_orient_matrix_UB_13      0.0363
_diffrn_orient_matrix_UB_21      -0.0084
_diffrn_orient_matrix_UB_22      -0.1312
_diffrn_orient_matrix_UB_23      -0.0356
_diffrn_orient_matrix_UB_31      -0.0028
_diffrn_orient_matrix_UB_32      -0.0258
_diffrn_orient_matrix_UB_33      0.0956
_diffrn_radiation_detector       CCD
_diffrn_radiation_monochromator  'Graphite Monochromator'
_diffrn_radiation_type           MoK\a
_diffrn_radiation_wavelength     0.71073
_diffrn_reflns_av_R_equivalents  0.0219
_diffrn_reflns_av_unetI/netI     0.0220
_diffrn_reflns_Laue_measured_fraction_full 0.996
_diffrn_reflns_Laue_measured_fraction_max 0.992
_diffrn_reflns_limit_h_max       12
_diffrn_reflns_limit_h_min       -12
_diffrn_reflns_limit_k_max       9
_diffrn_reflns_limit_k_min       -9
_diffrn_reflns_limit_l_max       14
_diffrn_reflns_limit_l_min       -14
_diffrn_reflns_number            8617
_diffrn_reflns_point_group_measured_fraction_full 0.975
_diffrn_reflns_point_group_measured_fraction_max 0.963
_diffrn_reflns_theta_full        26.000
_diffrn_reflns_theta_max         27.494
_diffrn_reflns_theta_min         3.431
_diffrn_source                   'Sealed Tube'
_diffrn_source_current           30.0000
_diffrn_source_power             1.5000
_diffrn_source_voltage           50.0000
_exptl_absorpt_coefficient_mu    0.227
_exptl_absorpt_correction_T_max  1.0000
_exptl_absorpt_correction_T_min  0.8898
_exptl_absorpt_correction_type   multi-scan
_exptl_absorpt_process_details   'CrystalClear (Rigaku Inc., 2007)'
_exptl_crystal_colour            Colorless
_exptl_crystal_density_diffrn    1.283
_exptl_crystal_description       Plate
_exptl_crystal_F_000             308
_exptl_crystal_size_max          0.613
_exptl_crystal_size_mid          0.59
_exptl_crystal_size_min          0.128
_refine_diff_density_max         0.214
_refine_diff_density_min         -0.248
_refine_diff_density_rms         0.034
_refine_ls_abs_structure_details
;
 Flack x determined using 1391 quotients [(I+)-(I-)]/[(I+)+(I-)]
 (Parsons and Flack (2004), Acta Cryst. A60, s61).
;
_refine_ls_abs_structure_Flack   -0.02(2)
_refine_ls_extinction_method     none
_refine_ls_goodness_of_fit_ref   1.076
_refine_ls_hydrogen_treatment    mixed
_refine_ls_matrix_type           full
_refine_ls_number_parameters     183
_refine_ls_number_reflns         3285
_refine_ls_number_restraints     1
_refine_ls_restrained_S_all      1.076
_refine_ls_R_factor_all          0.0278
_refine_ls_R_factor_gt           0.0274
_refine_ls_shift/su_max          0.000
_refine_ls_shift/su_mean         0.000
_refine_ls_structure_factor_coef Fsqd
_refine_ls_weighting_details
'w=1/[\s^2^(Fo^2^)+(0.0336P)^2^+0.1168P] where P=(Fo^2^+2Fc^2^)/3'
_refine_ls_weighting_scheme      calc
_refine_ls_wR_factor_gt          0.0668
_refine_ls_wR_factor_ref         0.0671
_reflns_Friedel_coverage         0.800
_reflns_Friedel_fraction_full    0.949
_reflns_Friedel_fraction_max     0.929
_reflns_number_gt                3235
_reflns_number_total             3285
_reflns_threshold_expression     'I > 2\s(I)'
_cod_data_source_file            c5ob00001g2.cif
_cod_data_source_block           sa3352
_cod_depositor_comments
'Adding full bibliography for 7154320--7154328.cif.'
_cod_original_cell_volume        743.6(3)
_cod_database_code               7154325
#BEGIN Tags that were not found in dictionaries:
_shelxl_version_number           2013-4
_shelx_space_group_comment
;
The symmetry employed for this shelxl refinement is uniquely defined
by the following loop, which should always be used as a source of
symmetry information in preference to the above space-group names.
They are only intended as comments.
;
_diffrn_number_total             1833
_olex2_refinement_description
;
1. Fixed Uiso
 At 1.2 times of:
  All C(H) groups, All C(H,H) groups, All N(H) groups
 At 1.5 times of:
  All C(H,H,H) groups, All O(H) groups
2.a Riding coordinates:
 N1(H1)
2.b Ternary CH refined with riding coordinates:
 C8(H8)
2.c Secondary CH2 refined with riding coordinates:
 C12(H12A,H12B), C13(H13A,H13B)
2.d Aromatic/amide H refined with riding coordinates:
 C3(H3A), C4(H4), C6(H6), C7(H7), C9(H9), C10(H10)
2.e Idealised Me refined as rotating group:
 C1(H1A,H1B,H1C), C11(H11A,H11B,H11C)
2.f Idealised tetrahedral OH refined as rotating group:
 O3(H3)
;
_shelx_res_file
;
TITL sa3352 in P2(1)
CELL 0.71073 10.0357 7.3432 10.826 90 111.234 90
ZERR 2 0.002 0.0015 0.0022 0 0.03 0
LATT -1
SYMM -X,0.5+Y,-Z

SFAC C H N O S
UNIT 26 42 2 8 2
EQIV $1 1-X,0.5+Y,1-Z
EQIV $2 -X,-0.5+Y,-Z

L.S. 4
PLAN  20
HTAB O3 O4
HTAB N1 O2_$1
HTAB O4 S1
HTAB O4 O1
HTAB O4 O3_$2
BOND
MORE -1
htab
fmap 2
acta 52
CONF
OMIT 1 0 0
OMIT 0 0 1
OMIT -1 0 1
OMIT -3 0 2
REM <HKL>D:/D/SXRD/sa(3300-3399)/sa3352/sa3352.hkl</HKL>

WGHT    0.033600    0.116800
FVAR      12.07914
S1    5    0.482898    0.397611    0.344781    11.00000    0.01856    0.02173 =
         0.02877    0.00402    0.00552    0.00006
O1    4    0.419714    0.286416    0.228766    11.00000    0.02517    0.02505 =
         0.04251   -0.00599    0.00313   -0.00125
O2    4    0.464548    0.347116    0.466000    11.00000    0.02528    0.04037 =
         0.03870    0.01881    0.01177    0.00349
O3    4    0.081423    0.627738    0.057447    11.00000    0.03120    0.02796 =
         0.04165   -0.00012   -0.00326    0.00035
AFIX 147
H3    2    0.097587    0.525781    0.090430    11.00000   -1.50000
AFIX   0
N1    3    0.414389    0.598606    0.310747    11.00000    0.02206    0.02197 =
         0.02031    0.00024    0.00565    0.00217
AFIX   3
H1    2    0.453089    0.670336    0.376907    11.00000   -1.20000
AFIX   0
C1    1    1.119751    0.456154    0.465360    11.00000    0.02405    0.03064 =
         0.04753   -0.00116    0.01344   -0.00100
AFIX 137
H1A   2    1.142433    0.412292    0.391771    11.00000   -1.50000
H1B   2    1.170882    0.385981    0.542907    11.00000   -1.50000
H1C   2    1.146834    0.581867    0.481138    11.00000   -1.50000
AFIX   0
C2    1    0.961142    0.437798    0.434334    11.00000    0.02228    0.02059 =
         0.03664    0.00450    0.00994    0.00208
C3    1    0.870066    0.370104    0.312525    11.00000    0.02827    0.03262 =
         0.03105    0.00140    0.01255    0.00443
AFIX  43
H3A   2    0.907718    0.335185    0.249271    11.00000   -1.20000
AFIX   0
C4    1    0.723559    0.354022    0.284208    11.00000    0.02620    0.02916 =
         0.02699   -0.00138    0.00577    0.00285
AFIX  43
H4    2    0.663745    0.308278    0.202924    11.00000   -1.20000
AFIX   0
C5    1    0.668379    0.406947    0.378509    11.00000    0.01861    0.02129 =
         0.02838    0.00334    0.00626    0.00248
C6    1    0.756942    0.475501    0.500624    11.00000    0.02602    0.02617 =
         0.02749   -0.00062    0.00981   -0.00031
AFIX  43
H6    2    0.718824    0.512275    0.563143    11.00000   -1.20000
AFIX   0
C7    1    0.902273    0.488179    0.527704    11.00000    0.02594    0.02666 =
         0.02931   -0.00138    0.00537   -0.00211
AFIX  43
H7    2    0.961934    0.531224    0.609940    11.00000   -1.20000
AFIX   0
C8    1    0.400116    0.693226    0.185298    11.00000    0.02452    0.02405 =
         0.02043    0.00178    0.00574    0.00144
AFIX  13
H8    2    0.371735    0.603741    0.113248    11.00000   -1.20000
AFIX   0
C9    1    0.537904    0.780125    0.191527    11.00000    0.02840    0.03166 =
         0.02746    0.00452    0.00949   -0.00105
AFIX  43
H9    2    0.575976    0.870045    0.255076    11.00000   -1.20000
AFIX   0
C10   1    0.609240    0.739182    0.114142    11.00000    0.03088    0.04440 =
         0.03332    0.01092    0.01334    0.00609
AFIX  43
H10   2    0.569316    0.653668    0.047586    11.00000   -1.20000
AFIX   0
C11   1    0.750423    0.821065    0.126061    11.00000    0.03749    0.06670 =
         0.05440    0.02419    0.02605    0.00667
AFIX 137
H11A  2    0.777174    0.911350    0.194865    11.00000   -1.50000
H11B  2    0.742470    0.876858    0.043491    11.00000   -1.50000
H11C  2    0.821917    0.727355    0.147449    11.00000   -1.50000
AFIX   0
C12   1    0.280570    0.834630    0.157728    11.00000    0.02891    0.02116 =
         0.03035    0.00350    0.00699    0.00377
AFIX  23
H12A  2    0.313002    0.930242    0.223724    11.00000   -1.20000
H12B  2    0.264158    0.889385    0.071921    11.00000   -1.20000
AFIX   0
C13   1    0.139731    0.761660    0.158504    11.00000    0.02380    0.02535 =
         0.03600    0.00182    0.00557    0.00602
AFIX  23
H13A  2    0.154303    0.708035    0.244306    11.00000   -1.20000
H13B  2    0.072404    0.861287    0.144679    11.00000   -1.20000
AFIX   0
O4    4    0.113473    0.282612    0.157354    11.00000    0.02850    0.03535 =
         0.03480   -0.00676    0.00704   -0.00075
H4A   2    0.201370    0.260159    0.173975    11.00000    0.05042
H4B   2    0.056402    0.216343    0.086717    11.00000    0.06023
HKLF 4

REM  sa3352 in P2(1)
REM R1 =  0.0274 for    3235 Fo > 4sig(Fo)  and  0.0278 for all    3285 data
REM    183 parameters refined using      1 restraints

END

WGHT      0.0336      0.1168

REM Instructions for potential hydrogen bonds
HTAB O3 O4
HTAB N1 O2_$1
HTAB O4 S1
HTAB O4 O1
HTAB O4 O3_$2

REM Highest difference peak  0.214,  deepest hole -0.248,  1-sigma level  0.034
Q1    1   0.5819  0.3981  0.3655  11.00000  0.05    0.21
Q2    1   0.7963  0.3851  0.3033  11.00000  0.05    0.15
Q3    1   0.3410  0.7571  0.1741  11.00000  0.05    0.14
Q4    1   0.4368  0.1971  0.4804  11.00000  0.05    0.13
Q5    1   0.3988  0.6409  0.3553  11.00000  0.05    0.12
Q6    1   0.4074  0.6447  0.2541  11.00000  0.05    0.12
Q7    1  -0.0365  0.5622 -0.0146  11.00000  0.05    0.11
Q8    1   0.9375  0.4211  0.4966  11.00000  0.05    0.11
Q9    1   0.6960  0.4163  0.3250  11.00000  0.05    0.11
Q10   1   0.9104  0.4141  0.3785  11.00000  0.05    0.11
Q11   1   0.7156  0.4049  0.4592  11.00000  0.05    0.11
Q12   1   0.3372  0.1792  0.2402  11.00000  0.05    0.11
Q13   1   0.6712  0.7949  0.1184  11.00000  0.05    0.11
Q14   1   0.3587  0.2815  0.4814  11.00000  0.05    0.11
Q15   1   0.3927  0.6270  0.4408  11.00000  0.05    0.10
Q16   1   0.2080  0.8129  0.1545  11.00000  0.05    0.10
Q17   1   0.5406  0.1476  0.4629  11.00000  0.05    0.10
Q18   1   0.4340  0.5062  0.3202  11.00000  0.05    0.10
Q19   1   0.9639  0.6014  0.7325  11.00000  0.05    0.10
Q20   1   0.6095  0.7369  0.1826  11.00000  0.05    0.10
;
_shelx_res_checksum              82455
#END Tags that were not found in dictionaries
loop_
_space_group_symop_operation_xyz
'x, y, z'
'-x, y+1/2, -z'
loop_
_atom_site_label
_atom_site_type_symbol
_atom_site_fract_x
_atom_site_fract_y
_atom_site_fract_z
_atom_site_U_iso_or_equiv
_atom_site_adp_type
_atom_site_occupancy
_atom_site_site_symmetry_order
_atom_site_calc_flag
_atom_site_refinement_flags_posn
S1 S 0.48290(5) 0.39761(6) 0.34478(4) 0.02387(12) Uani 1 1 d .
O1 O 0.41971(15) 0.2864(2) 0.22877(15) 0.0334(3) Uani 1 1 d .
O2 O 0.46455(15) 0.3471(2) 0.46600(15) 0.0347(4) Uani 1 1 d .
O3 O 0.08142(17) 0.6277(2) 0.05745(16) 0.0382(4) Uani 1 1 d .
H3 H 0.0976 0.5258 0.0904 0.057 Uiso 1 1 calc GR
N1 N 0.41439(17) 0.5986(2) 0.31075(15) 0.0220(3) Uani 1 1 d .
H1 H 0.4531 0.6703 0.3769 0.026 Uiso 1 1 d R
C1 C 1.1198(2) 0.4562(3) 0.4654(2) 0.0339(5) Uani 1 1 d .
H1A H 1.1424 0.4123 0.3918 0.051 Uiso 1 1 calc GR
H1B H 1.1709 0.3860 0.5429 0.051 Uiso 1 1 calc GR
H1C H 1.1468 0.5819 0.4811 0.051 Uiso 1 1 calc GR
C2 C 0.9611(2) 0.4378(3) 0.4343(2) 0.0267(4) Uani 1 1 d .
C3 C 0.8701(2) 0.3701(3) 0.3125(2) 0.0301(4) Uani 1 1 d .
H3A H 0.9077 0.3352 0.2493 0.036 Uiso 1 1 calc R
C4 C 0.7236(2) 0.3540(3) 0.2842(2) 0.0285(4) Uani 1 1 d .
H4 H 0.6637 0.3083 0.2029 0.034 Uiso 1 1 calc R
C5 C 0.66838(18) 0.4069(3) 0.37851(18) 0.0234(3) Uani 1 1 d .
C6 C 0.7569(2) 0.4755(3) 0.50062(19) 0.0265(4) Uani 1 1 d .
H6 H 0.7188 0.5123 0.5631 0.032 Uiso 1 1 calc R
C7 C 0.9023(2) 0.4882(3) 0.5277(2) 0.0286(4) Uani 1 1 d .
H7 H 0.9619 0.5312 0.6099 0.034 Uiso 1 1 calc R
C8 C 0.4001(2) 0.6932(3) 0.18530(18) 0.0237(4) Uani 1 1 d .
H8 H 0.3717 0.6037 0.1132 0.028 Uiso 1 1 calc R
C9 C 0.5379(2) 0.7801(3) 0.1915(2) 0.0293(4) Uani 1 1 d .
H9 H 0.5760 0.8700 0.2551 0.035 Uiso 1 1 calc R
C10 C 0.6092(2) 0.7392(3) 0.1141(2) 0.0357(5) Uani 1 1 d .
H10 H 0.5693 0.6537 0.0476 0.043 Uiso 1 1 calc R
C11 C 0.7504(3) 0.8211(4) 0.1261(3) 0.0502(7) Uani 1 1 d .
H11A H 0.7772 0.9114 0.1949 0.075 Uiso 1 1 calc GR
H11B H 0.7425 0.8769 0.0435 0.075 Uiso 1 1 calc GR
H11C H 0.8219 0.7274 0.1474 0.075 Uiso 1 1 calc GR
C12 C 0.2806(2) 0.8346(3) 0.1577(2) 0.0278(4) Uani 1 1 d .
H12A H 0.3130 0.9302 0.2237 0.033 Uiso 1 1 calc R
H12B H 0.2642 0.8894 0.0719 0.033 Uiso 1 1 calc R
C13 C 0.1397(2) 0.7617(3) 0.1585(2) 0.0298(4) Uani 1 1 d .
H13A H 0.1543 0.7080 0.2443 0.036 Uiso 1 1 calc R
H13B H 0.0724 0.8613 0.1447 0.036 Uiso 1 1 calc R
O4 O 0.11347(18) 0.2826(2) 0.15735(16) 0.0341(3) Uani 1 1 d .
H4A H 0.201(4) 0.260(5) 0.174(3) 0.050(8) Uiso 1 1 d .
H4B H 0.056(4) 0.216(5) 0.087(3) 0.060(9) Uiso 1 1 d .
loop_
_atom_site_aniso_label
_atom_site_aniso_U_11
_atom_site_aniso_U_22
_atom_site_aniso_U_33
_atom_site_aniso_U_23
_atom_site_aniso_U_13
_atom_site_aniso_U_12
S1 0.0186(2) 0.0217(2) 0.0288(2) 0.00402(18) 0.00552(16) 0.00006(18)
O1 0.0252(7) 0.0251(7) 0.0425(8) -0.0060(6) 0.0031(6) -0.0013(6)
O2 0.0253(7) 0.0404(9) 0.0387(8) 0.0188(7) 0.0118(6) 0.0035(6)
O3 0.0312(9) 0.0280(8) 0.0416(9) -0.0001(7) -0.0033(7) 0.0003(7)
N1 0.0221(8) 0.0220(7) 0.0203(7) 0.0002(6) 0.0056(6) 0.0022(6)
C1 0.0240(10) 0.0306(10) 0.0475(12) -0.0012(9) 0.0134(9) -0.0010(9)
C2 0.0223(9) 0.0206(9) 0.0366(10) 0.0045(7) 0.0099(8) 0.0021(7)
C3 0.0283(10) 0.0326(12) 0.0311(9) 0.0014(8) 0.0125(8) 0.0044(9)
C4 0.0262(10) 0.0292(10) 0.0270(9) -0.0014(7) 0.0058(8) 0.0028(8)
C5 0.0186(8) 0.0213(8) 0.0284(8) 0.0033(8) 0.0063(7) 0.0025(8)
C6 0.0260(10) 0.0262(9) 0.0275(10) -0.0006(8) 0.0098(8) -0.0003(8)
C7 0.0259(10) 0.0267(10) 0.0293(10) -0.0014(8) 0.0054(8) -0.0021(8)
C8 0.0245(10) 0.0241(9) 0.0204(8) 0.0018(7) 0.0057(7) 0.0014(8)
C9 0.0284(10) 0.0317(10) 0.0275(9) 0.0045(8) 0.0095(8) -0.0010(9)
C10 0.0309(11) 0.0444(13) 0.0333(10) 0.0109(10) 0.0133(9) 0.0061(10)
C11 0.0375(13) 0.0667(18) 0.0544(14) 0.0242(14) 0.0261(11) 0.0067(13)
C12 0.0289(10) 0.0212(8) 0.0303(9) 0.0035(8) 0.0070(8) 0.0038(8)
C13 0.0238(10) 0.0254(10) 0.0360(11) 0.0018(8) 0.0056(8) 0.0060(8)
O4 0.0285(8) 0.0353(8) 0.0348(8) -0.0068(7) 0.0070(7) -0.0008(7)
loop_
_atom_type_symbol
_atom_type_description
_atom_type_scat_dispersion_real
_atom_type_scat_dispersion_imag
_atom_type_scat_source
C C 0.0033 0.0016 'International Tables Vol C Tables 4.2.6.8 and 6.1.1.4'
H H 0.0000 0.0000 'International Tables Vol C Tables 4.2.6.8 and 6.1.1.4'
N N 0.0061 0.0033 'International Tables Vol C Tables 4.2.6.8 and 6.1.1.4'
O O 0.0106 0.0060 'International Tables Vol C Tables 4.2.6.8 and 6.1.1.4'
S S 0.1246 0.1234 'International Tables Vol C Tables 4.2.6.8 and 6.1.1.4'
loop_
_geom_angle_atom_site_label_1
_geom_angle_atom_site_label_2
_geom_angle_atom_site_label_3
_geom_angle
O1 S1 N1 107.65(9)
O1 S1 C5 107.53(9)
O2 S1 O1 119.25(10)
O2 S1 N1 105.03(9)
O2 S1 C5 107.18(9)
N1 S1 C5 110.01(9)
C8 N1 S1 121.91(12)
C3 C2 C1 121.27(19)
C7 C2 C1 120.34(19)
C7 C2 C3 118.39(18)
C4 C3 C2 121.03(18)
C5 C4 C3 119.12(18)
C4 C5 S1 120.76(15)
C4 C5 C6 120.94(17)
C6 C5 S1 118.25(14)
C7 C6 C5 119.15(18)
C6 C7 C2 121.35(19)
N1 C8 C9 112.04(15)
N1 C8 C12 107.73(15)
C9 C8 C12 111.35(17)
C10 C9 C8 125.3(2)
C9 C10 C11 124.5(2)
C13 C12 C8 115.19(17)
O3 C13 C12 111.31(18)
loop_
_geom_bond_atom_site_label_1
_geom_bond_atom_site_label_2
_geom_bond_distance
S1 O1 1.4385(15)
S1 O2 1.4383(15)
S1 N1 1.6135(16)
S1 C5 1.7637(18)
O3 C13 1.429(3)
N1 C8 1.486(2)
C1 C2 1.509(3)
C2 C3 1.396(3)
C2 C7 1.393(3)
C3 C4 1.394(3)
C4 C5 1.382(3)
C5 C6 1.393(3)
C6 C7 1.383(3)
C8 C9 1.502(3)
C8 C12 1.532(3)
C9 C10 1.319(3)
C10 C11 1.501(3)
C12 C13 1.514(3)
loop_
_geom_hbond_atom_site_label_D
_geom_hbond_atom_site_label_H
_geom_hbond_atom_site_label_A
_geom_hbond_distance_DH
_geom_hbond_distance_HA
_geom_hbond_distance_DA
_geom_hbond_angle_DHA
_geom_hbond_site_symmetry_A
O3 H3 O4 0.82 1.91 2.728(2) 173.7 .
N1 H1 O2 0.86 2.06 2.919(2) 177.1 2_656
O4 H4A S1 0.85(3) 2.94(3) 3.623(2) 139(3) .
O4 H4A O1 0.85(3) 2.06(3) 2.885(2) 163(3) .
O4 H4B O3 0.91(4) 1.79(4) 2.689(2) 167(3) 2_545
loop_
_geom_torsion_atom_site_label_1
_geom_torsion_atom_site_label_2
_geom_torsion_atom_site_label_3
_geom_torsion_atom_site_label_4
_geom_torsion
S1 N1 C8 C9 -80.55(19)
S1 N1 C8 C12 156.65(14)
S1 C5 C6 C7 -178.41(15)
O1 S1 N1 C8 -46.28(16)
O1 S1 C5 C4 15.2(2)
O1 S1 C5 C6 -167.25(16)
O2 S1 N1 C8 -174.34(14)
O2 S1 C5 C4 144.52(17)
O2 S1 C5 C6 -37.89(19)
N1 S1 C5 C4 -101.81(18)
N1 S1 C5 C6 75.79(18)
N1 C8 C9 C10 118.6(2)
N1 C8 C12 C13 -53.0(2)
C1 C2 C3 C4 -179.78(19)
C1 C2 C7 C6 178.87(19)
C2 C3 C4 C5 0.3(3)
C3 C2 C7 C6 -1.3(3)
C3 C4 C5 S1 177.47(16)
C3 C4 C5 C6 -0.1(3)
C4 C5 C6 C7 -0.8(3)
C5 S1 N1 C8 70.62(16)
C5 C6 C7 C2 1.5(3)
C7 C2 C3 C4 0.4(3)
C8 C9 C10 C11 -176.9(2)
C8 C12 C13 O3 -61.9(2)
C9 C8 C12 C13 -176.20(16)
C12 C8 C9 C10 -120.6(2)
