#------------------------------------------------------------------------------
#$Date: 2016-03-26 16:03:23 +0200 (Sat, 26 Mar 2016) $
#$Revision: 180329 $
#$URL: svn://www.crystallography.net/cod/cif/7/15/43/7154320.cif $
#------------------------------------------------------------------------------
#
# This file is available in the Crystallography Open Database (COD),
# http://www.crystallography.net/
#
# All data on this site have been placed in the public domain by the
# contributors.
#
data_7154320
loop_
_publ_author_name
'Huang, Hu'
'Pan, Hongjie'
'Cai, Yudong'
'Liu, Mao'
'Tian, Hua'
'Shi, Yian'
_publ_section_title
;
 Enantioselective 6-endo bromoaminocyclization of 2,4-dienyl
 N-tosylcarbamates catalyzed by a chiral phosphine oxide-Sc(OTf)3 complex.
 A dramatic additive effect.
;
_journal_issue                   12
_journal_name_full               'Organic &amp; biomolecular chemistry'
_journal_page_first              3566
_journal_page_last               3570
_journal_paper_doi               10.1039/c5ob00001g
_journal_volume                  13
_journal_year                    2015
_chemical_absolute_configuration ad
_chemical_formula_moiety         'C14 H16 Br N O4 S'
_chemical_formula_sum            'C14 H16 Br N O4 S'
_chemical_formula_weight         374.25
_chemical_name_systematic
;
 ?
;
_space_group_crystal_system      monoclinic
_space_group_IT_number           4
_space_group_name_Hall           'P 2yb'
_space_group_name_H-M_alt        'P 1 21 1'
_symmetry_space_group_name_Hall  'P 2yb'
_symmetry_space_group_name_H-M   'P 1 21 1'
_atom_sites_solution_hydrogens   geom
_audit_block_doi                 10.5517/cc13vfx9
_audit_creation_date             2014-05-12
_audit_creation_method
;
Olex2 1.2
(compiled 2013.12.10 svn.r2850 for OlexSys, GUI svn.r4736)
;
_audit_update_record
;
2014-12-09 deposited with the CCDC.
2015-02-02 downloaded from the CCDC.
;
_cell_angle_alpha                90
_cell_angle_beta                 95.154(5)
_cell_angle_gamma                90
_cell_formula_units_Z            2
_cell_length_a                   8.0644(6)
_cell_length_b                   11.5331(10)
_cell_length_c                   8.2552(8)
_cell_measurement_reflns_used    2821
_cell_measurement_temperature    173.1500
_cell_measurement_theta_max      27.4713
_cell_measurement_theta_min      2.5359
_cell_volume                     764.69(11)
_computing_cell_refinement       'CrystalClear (Rigaku Inc., 2007)'
_computing_data_collection       'CrystalClear (Rigaku Inc., 2007)'
_computing_data_reduction        'CrystalClear (Rigaku Inc., 2007)'
_computing_molecular_graphics    'Olex2 (Dolomanov et al., 2009)'
_computing_publication_material  'Olex2 (Dolomanov et al., 2009)'
_computing_structure_refinement  'SHELXL (Sheldrick, 2013)'
_computing_structure_solution
;
'SHELXS (Sheldrick, 2013)'
;
_diffrn_ambient_temperature      173.1500
_diffrn_detector_area_resol_mean 28.5714
_diffrn_measured_fraction_theta_full 0.998
_diffrn_measured_fraction_theta_max 0.997
_diffrn_measurement_device
;
Saturn724 (2x2 bin mode)
;
_diffrn_measurement_device_details
;
AFC10: Fixed Chi 2 circle
;
_diffrn_measurement_device_type  'Saturn724+ CCD'
_diffrn_measurement_method       '\w scans at fixed \c = 45\%'
_diffrn_orient_matrix_type       d*Trek
_diffrn_orient_matrix_UB_11      -0.0079
_diffrn_orient_matrix_UB_12      -0.1240
_diffrn_orient_matrix_UB_13      0.0072
_diffrn_orient_matrix_UB_21      -0.0180
_diffrn_orient_matrix_UB_22      0.0060
_diffrn_orient_matrix_UB_23      0.0846
_diffrn_orient_matrix_UB_31      -0.1189
_diffrn_orient_matrix_UB_32      -0.0049
_diffrn_orient_matrix_UB_33      -0.0250
_diffrn_radiation_detector       CCD
_diffrn_radiation_monochromator  'Graphite Monochromator'
_diffrn_radiation_type           MoK\a
_diffrn_radiation_wavelength     0.71073
_diffrn_reflns_av_R_equivalents  0.0310
_diffrn_reflns_av_unetI/netI     0.0300
_diffrn_reflns_Laue_measured_fraction_full 0.998
_diffrn_reflns_Laue_measured_fraction_max 0.997
_diffrn_reflns_limit_h_max       10
_diffrn_reflns_limit_h_min       -10
_diffrn_reflns_limit_k_max       14
_diffrn_reflns_limit_k_min       -14
_diffrn_reflns_limit_l_max       10
_diffrn_reflns_limit_l_min       -10
_diffrn_reflns_number            8525
_diffrn_reflns_point_group_measured_fraction_full 0.946
_diffrn_reflns_point_group_measured_fraction_max 0.933
_diffrn_reflns_theta_full        26.000
_diffrn_reflns_theta_max         27.471
_diffrn_reflns_theta_min         3.043
_diffrn_source                   'Sealed Tube'
_diffrn_source_current           30.0000
_diffrn_source_power             1.5000
_diffrn_source_voltage           50.0000
_exptl_absorpt_coefficient_mu    2.838
_exptl_absorpt_correction_T_max  1.0000
_exptl_absorpt_correction_T_min  0.4353
_exptl_absorpt_correction_type   multi-scan
_exptl_absorpt_process_details   'CrystalClear (Rigaku Inc., 2007)'
_exptl_crystal_colour            Colorless
_exptl_crystal_density_diffrn    1.625
_exptl_crystal_description       block
_exptl_crystal_F_000             380
_exptl_crystal_size_max          0.56
_exptl_crystal_size_mid          0.36
_exptl_crystal_size_min          0.29
_refine_diff_density_max         0.263
_refine_diff_density_min         -0.644
_refine_diff_density_rms         0.088
_refine_ls_abs_structure_details
;
 Flack x determined using 1392 quotients [(I+)-(I-)]/[(I+)+(I-)]
 (Parsons and Flack (2004), Acta Cryst. A60, s61).
;
_refine_ls_abs_structure_Flack   0.007(5)
_refine_ls_extinction_method     none
_refine_ls_goodness_of_fit_ref   1.166
_refine_ls_hydrogen_treatment    mixed
_refine_ls_matrix_type           full
_refine_ls_number_parameters     192
_refine_ls_number_reflns         3285
_refine_ls_number_restraints     1
_refine_ls_restrained_S_all      1.166
_refine_ls_R_factor_all          0.0264
_refine_ls_R_factor_gt           0.0260
_refine_ls_shift/su_max          0.001
_refine_ls_shift/su_mean         0.000
_refine_ls_structure_factor_coef Fsqd
_refine_ls_weighting_details
'w=1/[\s^2^(Fo^2^)+(0.0330P)^2^+0.1197P] where P=(Fo^2^+2Fc^2^)/3'
_refine_ls_weighting_scheme      calc
_refine_ls_wR_factor_gt          0.0656
_refine_ls_wR_factor_ref         0.0659
_reflns_Friedel_coverage         0.782
_reflns_Friedel_fraction_full    0.888
_reflns_Friedel_fraction_max     0.862
_reflns_number_gt                3249
_reflns_number_total             3285
_reflns_threshold_expression     'I > 2\s(I)'
_cod_data_source_file            c5ob00001g2.cif
_cod_data_source_block           sa3368
_cod_depositor_comments
'Adding full bibliography for 7154320--7154328.cif.'
_cod_database_code               7154320
#BEGIN Tags that were not found in dictionaries:
_shelxl_version_number           2013-4
_shelx_space_group_comment
;
The symmetry employed for this shelxl refinement is uniquely defined
by the following loop, which should always be used as a source of
symmetry information in preference to the above space-group names.
They are only intended as comments.
;
_diffrn_number_total             1851
_olex2_refinement_description
;
1. Fixed Uiso
 At 1.2 times of:
  All C(H) groups, All C(H,H) groups
 At 1.5 times of:
  All C(H,H,H) groups
2.a Ternary CH refined with riding coordinates:
 C1(H1), C2(H2)
2.b Secondary CH2 refined with riding coordinates:
 C3(H3A,H3B)
2.c Aromatic/amide H refined with riding coordinates:
 C5(H5), C6(H6), C9(H9), C10(H10), C12(H12), C13(H13)
2.d Idealised Me refined as rotating group:
 C7(H7A,H7B,H7C), C14(H14A,H14B,H14C)
;
_shelx_res_file
;
TITL sa3368 in P2(1)
CELL 0.71073 8.0644 11.5331 8.2552 90 95.154 90
ZERR 2 0.0006 0.001 0.0008 0 0.005 0
LATT -1
SYMM -X,0.5+Y,-Z

SFAC C H Br N O S
UNIT 28 32 2 2 8 2

L.S. 4
PLAN  20
BOND
fmap 2
MORE -1
ACTA 52
CONF
OMIT 0 0 1
REM <HKL>D:/D/SXRD/sa(3300-3399)/sa3368/sa3368.hkl</HKL>

WGHT    0.033000    0.119700
FVAR      10.03255
BR1   3    0.309671    0.663310    0.665839    11.00000    0.03212    0.02948 =
         0.03464    0.00177    0.01667   -0.00195
S1    6    0.500618    0.701501    0.186567    11.00000    0.01776    0.01798 =
         0.01501    0.00270    0.00085   -0.00383
O1    5    0.664530    0.551476    0.589291    11.00000    0.03519    0.02466 =
         0.01495    0.00223    0.00107    0.01077
O2    5    0.619408    0.491045    0.337120    11.00000    0.02436    0.01859 =
         0.02187   -0.00357    0.00371    0.00238
O3    5    0.631512    0.666858    0.090530    11.00000    0.02131    0.03572 =
         0.01825   -0.00243    0.00646   -0.00702
O4    5    0.443997    0.819107    0.179088    11.00000    0.02842    0.01869 =
         0.02669    0.00861   -0.00597   -0.00307
N1    4    0.565251    0.680854    0.385342    11.00000    0.01832    0.01461 =
         0.01380    0.00029    0.00010    0.00090
C1    1    0.558041    0.779923    0.499080    11.00000    0.02085    0.01607 =
         0.01745   -0.00261    0.00321   -0.00004
AFIX  13
H1    2    0.461436    0.827942    0.463071    11.00000   -1.20000
AFIX   0
C2    1    0.533029    0.730886    0.666372    11.00000    0.02675    0.02408 =
         0.01644   -0.00532    0.00256   -0.00032
AFIX  13
H2    2    0.544192    0.793825    0.746364    11.00000   -1.20000
AFIX   0
C3    1    0.662314    0.640352    0.712586    11.00000    0.03775    0.03507 =
         0.01241   -0.00195   -0.00102    0.00916
AFIX  23
H3A   2    0.771003    0.676782    0.727936    11.00000   -1.20000
H3B   2    0.639403    0.605074    0.814885    11.00000   -1.20000
AFIX   0
C4    1    0.617572    0.570913    0.431816    11.00000    0.01559    0.01865 =
         0.01798    0.00119    0.00192    0.00069
C5    1    0.711858    0.854478    0.506100    11.00000    0.02433    0.01809 =
         0.02356   -0.00617    0.00182   -0.00400
AFIX  43
H5    2    0.712901    0.919869    0.572104    11.00000   -1.20000
AFIX   0
C6    1    0.845727    0.836316    0.427790    11.00000    0.02181    0.02643 =
         0.03203   -0.00854    0.00378   -0.00430
AFIX  43
H6    2    0.847887    0.769607    0.364721    11.00000   -1.20000
AFIX   0
C7    1    0.993735    0.914777    0.432910    11.00000    0.02513    0.03736 =
         0.04707   -0.01214    0.00839   -0.00913
AFIX 137
H7A   2    1.008977    0.941067    0.324911    11.00000   -1.50000
H7B   2    1.091094    0.873337    0.476082    11.00000   -1.50000
H7C   2    0.976151    0.980296    0.501024    11.00000   -1.50000
AFIX   0
C8    1    0.329108    0.608761    0.148704    11.00000    0.01748    0.01768 =
         0.01586    0.00145   -0.00030   -0.00220
C9    1    0.343465    0.506106    0.062849    11.00000    0.02140    0.02269 =
         0.01712   -0.00189    0.00245   -0.00025
AFIX  43
H9    2    0.444696    0.484577    0.026059    11.00000   -1.20000
AFIX   0
C10   1    0.204102    0.436510    0.033158    11.00000    0.02394    0.02381 =
         0.02296   -0.00606    0.00205   -0.00249
AFIX  43
H10   2    0.212500    0.367594   -0.024026    11.00000   -1.20000
AFIX   0
C11   1    0.051172    0.467797    0.087418    11.00000    0.02106    0.02621 =
         0.02227   -0.00463    0.00201   -0.00664
C12   1    0.040432    0.571838    0.171841    11.00000    0.01671    0.02886 =
         0.02845   -0.00361    0.00391   -0.00093
AFIX  43
H12   2   -0.061129    0.594133    0.207169    11.00000   -1.20000
AFIX   0
C13   1    0.178146    0.642576    0.204057    11.00000    0.01938    0.01773 =
         0.02498   -0.00114    0.00186    0.00323
AFIX  43
H13   2    0.170085    0.711384    0.261565    11.00000   -1.20000
AFIX   0
C14   1   -0.100668    0.392258    0.055437    11.00000    0.02945    0.04222 =
         0.04612   -0.01256    0.00650   -0.01531
AFIX 137
H14A  2   -0.147931    0.403712   -0.054318    11.00000   -1.50000
H14B  2   -0.181222    0.412542    0.129472    11.00000   -1.50000
H14C  2   -0.069600    0.312390    0.070780    11.00000   -1.50000
AFIX   0
HKLF 4

REM  sa3368 in P2(1)
REM R1 =  0.0260 for    3249 Fo > 4sig(Fo)  and  0.0264 for all    3285 data
REM    192 parameters refined using      1 restraints

END

WGHT      0.0330      0.1197

REM Highest difference peak  0.263,  deepest hole -0.644,  1-sigma level  0.088
Q1    1   0.6681  1.0051  0.6337  11.00000  0.05    0.26
Q2    1  -0.1531  0.1666  0.1128  11.00000  0.05    0.24
Q3    1   0.1698  0.5885  0.8452  11.00000  0.05    0.22
Q4    1   0.4318  0.6441  0.4490  11.00000  0.05    0.22
Q5    1   0.3858  0.8420  0.4397  11.00000  0.05    0.22
Q6    1   0.6252  1.0346  0.5250  11.00000  0.05    0.21
Q7    1   0.5154  0.4144 -0.0551  11.00000  0.05    0.21
Q8    1   0.4942  0.5822  0.8873  11.00000  0.05    0.21
Q9    1   0.6507  0.9216  0.6434  11.00000  0.05    0.21
Q10   1   0.5624  0.4085  0.3770  11.00000  0.05    0.20
Q11   1   0.4629  0.6527 -0.0681  11.00000  0.05    0.20
Q12   1   0.4620  0.4853 -0.1031  11.00000  0.05    0.20
Q13   1   0.6834  0.7976  0.3360  11.00000  0.05    0.20
Q14   1   0.4935  0.4448  0.0919  11.00000  0.05    0.20
Q15   1   0.8877  1.0120  0.1785  11.00000  0.05    0.20
Q16   1   0.3406  0.7898  0.3454  11.00000  0.05    0.19
Q17   1   0.3527  0.7800  0.4744  11.00000  0.05    0.19
Q18   1   1.0040  0.7631  0.3237  11.00000  0.05    0.19
Q19   1   0.3500  0.7329 -0.0608  11.00000  0.05    0.19
Q20   1   0.3330  0.7076  0.4065  11.00000  0.05    0.19
;
_shelx_res_checksum              90667
#END Tags that were not found in dictionaries
loop_
_space_group_symop_operation_xyz
'x, y, z'
'-x, y+1/2, -z'
loop_
_atom_site_label
_atom_site_type_symbol
_atom_site_fract_x
_atom_site_fract_y
_atom_site_fract_z
_atom_site_U_iso_or_equiv
_atom_site_adp_type
_atom_site_occupancy
_atom_site_site_symmetry_order
_atom_site_calc_flag
_atom_site_refinement_flags_posn
Br1 Br 0.30967(4) 0.66331(3) 0.66584(4) 0.03125(11) Uani 1 1 d .
S1 S 0.50062(9) 0.70150(6) 0.18657(9) 0.01695(16) Uani 1 1 d .
O1 O 0.6645(3) 0.5515(2) 0.5893(3) 0.0250(5) Uani 1 1 d .
O2 O 0.6194(3) 0.49105(19) 0.3371(3) 0.0215(5) Uani 1 1 d .
O3 O 0.6315(2) 0.6669(3) 0.0905(2) 0.0248(5) Uani 1 1 d .
O4 O 0.4440(3) 0.8191(2) 0.1791(3) 0.0251(5) Uani 1 1 d .
N1 N 0.5653(3) 0.6809(2) 0.3853(3) 0.0157(5) Uani 1 1 d .
C1 C 0.5580(4) 0.7799(3) 0.4991(4) 0.0180(6) Uani 1 1 d .
H1 H 0.4614 0.8279 0.4631 0.022 Uiso 1 1 calc R
C2 C 0.5330(4) 0.7309(3) 0.6664(4) 0.0224(6) Uani 1 1 d .
H2 H 0.5442 0.7938 0.7464 0.027 Uiso 1 1 calc R
C3 C 0.6623(5) 0.6404(3) 0.7126(4) 0.0286(8) Uani 1 1 d .
H3A H 0.7710 0.6768 0.7279 0.034 Uiso 1 1 calc R
H3B H 0.6394 0.6051 0.8149 0.034 Uiso 1 1 calc R
C4 C 0.6176(4) 0.5709(3) 0.4318(4) 0.0174(6) Uani 1 1 d .
C5 C 0.7119(4) 0.8545(3) 0.5061(4) 0.0220(7) Uani 1 1 d .
H5 H 0.7129 0.9199 0.5721 0.026 Uiso 1 1 calc R
C6 C 0.8457(4) 0.8363(3) 0.4278(5) 0.0267(7) Uani 1 1 d .
H6 H 0.8479 0.7696 0.3647 0.032 Uiso 1 1 calc R
C7 C 0.9937(5) 0.9148(4) 0.4329(6) 0.0362(9) Uani 1 1 d .
H7A H 1.0090 0.9411 0.3249 0.054 Uiso 1 1 calc GR
H7B H 1.0911 0.8733 0.4761 0.054 Uiso 1 1 calc GR
H7C H 0.9762 0.9803 0.5010 0.054 Uiso 1 1 calc GR
C8 C 0.3291(4) 0.6088(3) 0.1487(4) 0.0171(6) Uani 1 1 d .
C9 C 0.3435(4) 0.5061(3) 0.0628(4) 0.0204(6) Uani 1 1 d .
H9 H 0.4447 0.4846 0.0261 0.024 Uiso 1 1 calc R
C10 C 0.2041(4) 0.4365(3) 0.0332(4) 0.0236(7) Uani 1 1 d .
H10 H 0.2125 0.3676 -0.0240 0.028 Uiso 1 1 calc R
C11 C 0.0512(4) 0.4678(3) 0.0874(4) 0.0232(7) Uani 1 1 d .
C12 C 0.0404(4) 0.5718(3) 0.1718(4) 0.0246(7) Uani 1 1 d .
H12 H -0.0611 0.5941 0.2072 0.029 Uiso 1 1 calc R
C13 C 0.1781(4) 0.6426(3) 0.2041(4) 0.0207(7) Uani 1 1 d .
H13 H 0.1701 0.7114 0.2616 0.025 Uiso 1 1 calc R
C14 C -0.1007(5) 0.3923(4) 0.0554(6) 0.0391(10) Uani 1 1 d .
H14A H -0.1479 0.4037 -0.0543 0.059 Uiso 1 1 calc GR
H14B H -0.1812 0.4125 0.1295 0.059 Uiso 1 1 calc GR
H14C H -0.0696 0.3124 0.0708 0.059 Uiso 1 1 calc GR
loop_
_atom_site_aniso_label
_atom_site_aniso_U_11
_atom_site_aniso_U_22
_atom_site_aniso_U_33
_atom_site_aniso_U_23
_atom_site_aniso_U_13
_atom_site_aniso_U_12
Br1 0.03212(18) 0.02948(18) 0.03464(19) 0.00177(15) 0.01667(13) -0.00195(14)
S1 0.0178(3) 0.0180(3) 0.0150(3) 0.0027(3) 0.0008(3) -0.0038(2)
O1 0.0352(13) 0.0247(12) 0.0150(11) 0.0022(9) 0.0011(9) 0.0108(10)
O2 0.0244(11) 0.0186(12) 0.0219(12) -0.0036(9) 0.0037(9) 0.0024(9)
O3 0.0213(9) 0.0357(12) 0.0182(10) -0.0024(12) 0.0065(8) -0.0070(12)
O4 0.0284(12) 0.0187(12) 0.0267(12) 0.0086(10) -0.0060(10) -0.0031(9)
N1 0.0183(11) 0.0146(14) 0.0138(11) 0.0003(9) 0.0001(8) 0.0009(9)
C1 0.0209(15) 0.0161(15) 0.0174(14) -0.0026(12) 0.0032(12) 0.0000(11)
C2 0.0268(15) 0.0241(17) 0.0164(15) -0.0053(13) 0.0026(12) -0.0003(13)
C3 0.0377(18) 0.035(2) 0.0124(14) -0.0020(14) -0.0010(12) 0.0092(15)
C4 0.0156(13) 0.0186(15) 0.0180(15) 0.0012(12) 0.0019(11) 0.0007(11)
C5 0.0243(15) 0.0181(16) 0.0236(16) -0.0062(13) 0.0018(12) -0.0040(12)
C6 0.0218(15) 0.0264(18) 0.0320(19) -0.0085(15) 0.0038(13) -0.0043(13)
C7 0.0251(17) 0.037(2) 0.047(2) -0.012(2) 0.0084(17) -0.0091(15)
C8 0.0175(13) 0.0177(15) 0.0159(14) 0.0014(11) -0.0003(11) -0.0022(11)
C9 0.0214(14) 0.0227(16) 0.0171(14) -0.0019(13) 0.0024(11) -0.0002(12)
C10 0.0239(16) 0.0238(16) 0.0230(17) -0.0061(13) 0.0021(13) -0.0025(12)
C11 0.0211(15) 0.0262(17) 0.0223(16) -0.0046(14) 0.0020(12) -0.0066(12)
C12 0.0167(14) 0.0289(18) 0.0285(17) -0.0036(15) 0.0039(13) -0.0009(12)
C13 0.0194(13) 0.0177(18) 0.0250(16) -0.0011(12) 0.0019(11) 0.0032(11)
C14 0.0295(18) 0.042(2) 0.046(2) -0.013(2) 0.0065(17) -0.0153(17)
loop_
_atom_type_symbol
_atom_type_description
_atom_type_scat_dispersion_real
_atom_type_scat_dispersion_imag
_atom_type_scat_source
C C 0.0033 0.0016 'International Tables Vol C Tables 4.2.6.8 and 6.1.1.4'
H H 0.0000 0.0000 'International Tables Vol C Tables 4.2.6.8 and 6.1.1.4'
Br Br -0.2901 2.4595 'International Tables Vol C Tables 4.2.6.8 and 6.1.1.4'
N N 0.0061 0.0033 'International Tables Vol C Tables 4.2.6.8 and 6.1.1.4'
O O 0.0106 0.0060 'International Tables Vol C Tables 4.2.6.8 and 6.1.1.4'
S S 0.1246 0.1234 'International Tables Vol C Tables 4.2.6.8 and 6.1.1.4'
loop_
_geom_angle_atom_site_label_1
_geom_angle_atom_site_label_2
_geom_angle_atom_site_label_3
_geom_angle
O3 S1 N1 108.61(13)
O3 S1 C8 109.86(16)
O4 S1 O3 119.25(16)
O4 S1 N1 104.15(14)
O4 S1 C8 109.08(15)
N1 S1 C8 104.84(14)
C4 O1 C3 123.0(3)
C1 N1 S1 118.6(2)
C4 N1 S1 117.3(2)
C4 N1 C1 124.1(3)
N1 C1 C2 107.7(2)
N1 C1 C5 112.7(3)
C5 C1 C2 110.7(3)
C1 C2 Br1 110.0(2)
C3 C2 Br1 109.9(3)
C3 C2 C1 110.1(3)
O1 C3 C2 111.5(3)
O1 C4 N1 118.4(3)
O2 C4 O1 118.8(3)
O2 C4 N1 122.8(3)
C6 C5 C1 126.6(3)
C5 C6 C7 125.0(3)
C9 C8 S1 120.6(2)
C9 C8 C13 121.4(3)
C13 C8 S1 118.0(3)
C10 C9 C8 118.7(3)
C9 C10 C11 121.3(3)
C10 C11 C14 121.4(3)
C12 C11 C10 118.6(3)
C12 C11 C14 119.9(3)
C13 C12 C11 121.2(3)
C12 C13 C8 118.8(3)
loop_
_geom_bond_atom_site_label_1
_geom_bond_atom_site_label_2
_geom_bond_distance
Br1 C2 1.962(3)
S1 O3 1.433(2)
S1 O4 1.431(3)
S1 N1 1.693(3)
S1 C8 1.754(3)
O1 C3 1.446(4)
O1 C4 1.340(4)
O2 C4 1.209(4)
N1 C1 1.483(4)
N1 C4 1.380(4)
C1 C2 1.522(5)
C1 C5 1.506(4)
C2 C3 1.500(5)
C5 C6 1.324(5)
C6 C7 1.495(5)
C8 C9 1.390(5)
C8 C13 1.394(4)
C9 C10 1.385(5)
C10 C11 1.397(5)
C11 C12 1.394(5)
C11 C14 1.507(5)
C12 C13 1.384(4)
loop_
_geom_torsion_atom_site_label_1
_geom_torsion_atom_site_label_2
_geom_torsion_atom_site_label_3
_geom_torsion_atom_site_label_4
_geom_torsion
Br1 C2 C3 O1 67.2(3)
S1 N1 C1 C2 151.0(2)
S1 N1 C1 C5 -86.7(3)
S1 N1 C4 O1 -178.0(2)
S1 N1 C4 O2 0.4(4)
S1 C8 C9 C10 -178.8(3)
S1 C8 C13 C12 178.5(2)
O3 S1 N1 C1 125.7(2)
O3 S1 N1 C4 -56.0(3)
O3 S1 C8 C9 11.8(3)
O3 S1 C8 C13 -166.8(3)
O4 S1 N1 C1 -2.4(3)
O4 S1 N1 C4 175.9(2)
O4 S1 C8 C9 144.2(3)
O4 S1 C8 C13 -34.4(3)
N1 S1 C8 C9 -104.7(3)
N1 S1 C8 C13 76.7(3)
N1 C1 C2 Br1 -68.8(3)
N1 C1 C2 C3 52.4(3)
N1 C1 C5 C6 -2.5(5)
C1 N1 C4 O1 0.2(4)
C1 N1 C4 O2 178.6(3)
C1 C2 C3 O1 -54.1(4)
C1 C5 C6 C7 177.6(4)
C2 C1 C5 C6 118.1(4)
C3 O1 C4 O2 -178.2(3)
C3 O1 C4 N1 0.2(5)
C4 O1 C3 C2 27.6(5)
C4 N1 C1 C2 -27.2(4)
C4 N1 C1 C5 95.1(3)
C5 C1 C2 Br1 167.6(2)
C5 C1 C2 C3 -71.1(4)
C8 S1 N1 C1 -117.0(2)
C8 S1 N1 C4 61.4(2)
C8 C9 C10 C11 0.1(5)
C9 C8 C13 C12 -0.1(5)
C9 C10 C11 C12 0.5(5)
C9 C10 C11 C14 -180.0(4)
C10 C11 C12 C13 -0.9(5)
C11 C12 C13 C8 0.8(5)
C13 C8 C9 C10 -0.3(5)
C14 C11 C12 C13 179.5(3)
