#------------------------------------------------------------------------------
#$Date: 2015-12-09 17:43:41 +0200 (Wed, 09 Dec 2015) $
#$Revision: 171343 $
#$URL: svn://www.crystallography.net/cod/cif/7/15/46/7154683.cif $
#------------------------------------------------------------------------------
#
# This file is available in the Crystallography Open Database (COD),
# http://www.crystallography.net/
#
# All data on this site have been placed in the public domain by the
# contributors.
#
data_7154683
loop_
_publ_author_name
'Thomann, A.'
'Zapp, J.'
'Hutter, M.'
'Empting, M.'
'Hartmann, R. W.'
_publ_section_title
;
 Steering the azido-tetrazole equilibrium of 4-azidopyrimidines via
 substituent variation - implications for drug design and azide-alkyne
 cycloadditions.
;
_journal_issue                   43
_journal_name_full               'Organic &amp; biomolecular chemistry'
_journal_page_first              10620
_journal_page_last               10630
_journal_paper_doi               10.1039/c5ob01006c
_journal_volume                  13
_journal_year                    2015
_chemical_formula_moiety         'C5 H6 N6'
_chemical_formula_sum            'C5 H6 N6'
_chemical_formula_weight         150.16
_space_group_crystal_system      monoclinic
_space_group_IT_number           14
_space_group_name_Hall           '-P 2yn'
_space_group_name_H-M_alt        'P 1 21/n 1'
_symmetry_space_group_name_Hall  '-P 2yn'
_symmetry_space_group_name_H-M   'P 1 21/n 1'
_atom_sites_solution_hydrogens   difmap
_audit_creation_method           SHELXL-2014/6
_audit_update_record
;
2015-05-18 deposited with the CCDC.
2015-08-27 downloaded from the CCDC.
;
_cell_angle_alpha                90
_cell_angle_beta                 93.0963(19)
_cell_angle_gamma                90
_cell_formula_units_Z            4
_cell_length_a                   3.9589(3)
_cell_length_b                   10.9827(8)
_cell_length_c                   15.3508(12)
_cell_measurement_reflns_used    2464
_cell_measurement_temperature    132(2)
_cell_measurement_theta_max      33.51
_cell_measurement_theta_min      3.24
_cell_volume                     666.47(9)
_computing_cell_refinement       'Bruker SAINT'
_computing_data_collection       'Bruker APEX2'
_computing_data_reduction        'Bruker SAINT'
_computing_molecular_graphics    'Bruker SHELXTL'
_computing_publication_material  'Bruker SHELXTL'
_computing_structure_refinement  'SHELXL-2014/6 (Sheldrick, 2014)'
_computing_structure_solution    'SHELXS-97 (Sheldrick 2008)'
_diffrn_ambient_temperature      132(2)
_diffrn_measured_fraction_theta_full 1.000
_diffrn_measured_fraction_theta_max 1.000
_diffrn_measurement_device_type  'Bruker APEX-II CCD'
_diffrn_measurement_method       '\f and \w scans'
_diffrn_radiation_type           MoK\a
_diffrn_radiation_wavelength     0.71073
_diffrn_reflns_av_R_equivalents  0.0241
_diffrn_reflns_av_unetI/netI     0.0144
_diffrn_reflns_laue_measured_fraction_full 1.000
_diffrn_reflns_laue_measured_fraction_max 1.000
_diffrn_reflns_limit_h_max       6
_diffrn_reflns_limit_h_min       -6
_diffrn_reflns_limit_k_max       17
_diffrn_reflns_limit_k_min       -17
_diffrn_reflns_limit_l_max       23
_diffrn_reflns_limit_l_min       -23
_diffrn_reflns_number            19929
_diffrn_reflns_point_group_measured_fraction_full 1.000
_diffrn_reflns_point_group_measured_fraction_max 1.000
_diffrn_reflns_theta_full        25.242
_diffrn_reflns_theta_max         33.689
_diffrn_reflns_theta_min         2.281
_exptl_absorpt_coefficient_mu    0.107
_exptl_absorpt_correction_T_max  0.7466
_exptl_absorpt_correction_T_min  0.7153
_exptl_absorpt_correction_type   multi-scan
_exptl_absorpt_process_details   'SADABS, BrukerAXS 2010'
_exptl_crystal_colour            colourless
_exptl_crystal_density_diffrn    1.496
_exptl_crystal_description       block
_exptl_crystal_F_000             312
_exptl_crystal_size_max          0.681
_exptl_crystal_size_mid          0.194
_exptl_crystal_size_min          0.038
_refine_diff_density_max         0.452
_refine_diff_density_min         -0.184
_refine_diff_density_rms         0.052
_refine_ls_extinction_method     none
_refine_ls_goodness_of_fit_ref   1.056
_refine_ls_hydrogen_treatment    refall
_refine_ls_matrix_type           full
_refine_ls_number_parameters     124
_refine_ls_number_reflns         2657
_refine_ls_number_restraints     0
_refine_ls_restrained_S_all      1.056
_refine_ls_R_factor_all          0.0435
_refine_ls_R_factor_gt           0.0358
_refine_ls_shift/su_max          0.001
_refine_ls_shift/su_mean         0.000
_refine_ls_structure_factor_coef Fsqd
_refine_ls_weighting_details
'w=1/[\s^2^(Fo^2^)+(0.0747P)^2^+0.0639P] where P=(Fo^2^+2Fc^2^)/3'
_refine_ls_weighting_scheme      calc
_refine_ls_wR_factor_gt          0.1078
_refine_ls_wR_factor_ref         0.1149
_reflns_Friedel_coverage         0.000
_reflns_number_gt                2242
_reflns_number_total             2657
_reflns_threshold_expression     'I > 2\s(I)'
_cod_data_source_file            c5ob01006c2.cif
_cod_data_source_block           sh3502
_cod_depositor_comments
'Adding full bibliography for 7154682--7154684.cif.'
_cod_database_code               7154683
_shelx_space_group_comment
; 
The symmetry employed for this shelxl refinement is uniquely defined 
by the following loop, which should always be used as a source of 
symmetry information in preference to the above space-group names. 
They are only intended as comments. 
;
_shelx_estimated_absorpt_t_min   0.930
_shelx_estimated_absorpt_t_max   0.996
_shelxl_version_number           2014/6
_shelx_res_file
; 
TITL sh3502 in P2(1)/n 
CELL 0.71073   3.95890  10.98270  15.35080  90.0000  93.0963  90.0000 
ZERR    4.00   0.00030   0.00080   0.00120   0.0000   0.0019   0.0000 
LATT 1 
SYMM 0.5-X, 0.5+Y, 0.5-Z 
SFAC C  H  N 
UNIT 20  24  24 
L.S. 4 
BOND $H 
FMAP 2 
PLAN -5 
ACTA 
SIZE 0.038 0.194 0.681 
TEMP -140.600 
WGHT    0.074700    0.063900 
FVAR       0.85540 
N1    3    0.762492    0.080169    0.924391    11.00000    0.02206    0.01761 = 
         0.01741    0.00020    0.00575   -0.00089 
N2    3    1.051520    0.099540    0.797119    11.00000    0.01954    0.01567 = 
         0.01497    0.00075    0.00461    0.00106 
N3    3    1.228966    0.157169    0.735093    11.00000    0.02786    0.01978 = 
         0.02003    0.00282    0.01008    0.00146 
N4    3    1.282008    0.073903    0.677302    11.00000    0.03180    0.02224 = 
         0.02048    0.00208    0.01010    0.00433 
N5    3    1.149102   -0.035318    0.698010    11.00000    0.02863    0.02054 = 
         0.01798   -0.00071    0.00620    0.00353 
N6    3    0.999360    0.266644    0.887972    11.00000    0.03243    0.01494 = 
         0.02137   -0.00177    0.01049   -0.00200 
C1    1    0.933288    0.149755    0.872704    11.00000    0.01895    0.01584 = 
         0.01562   -0.00007    0.00346    0.00083 
C2    1    1.004533   -0.019132    0.773822    11.00000    0.01963    0.01634 = 
         0.01686   -0.00117    0.00195    0.00186 
C3    1    0.828247   -0.094912    0.829750    11.00000    0.02451    0.01677 = 
         0.02118   -0.00100    0.00405   -0.00269 
C4    1    0.715575   -0.039693    0.902545    11.00000    0.02217    0.01868 = 
         0.01980    0.00140    0.00480   -0.00263 
C5    1    0.892791    0.326820    0.966096    11.00000    0.03901    0.02088 = 
         0.02449   -0.00606    0.01065   -0.00103 
H1    2    0.788986   -0.178329    0.817684    11.00000    0.02857 
H2    2    0.589352   -0.085884    0.943805    11.00000    0.02734 
H3    2    1.113626    0.310022    0.850772    11.00000    0.03840 
H4    2    0.988706    0.296070    1.016087    11.00000    0.08079 
H5    2    0.658981    0.314947    0.971868    11.00000    0.07626 
H6    2    0.947386    0.404699    0.964266    11.00000    0.08612 
HKLF 4 
  
REM  sh3502 in P2(1)/n 
REM R1 =  0.0358 for    2242 Fo > 4sig(Fo)  and  0.0435 for all    2657 data 
REM    124 parameters refined using      0 restraints 
  
END 
  
WGHT      0.0747      0.0639 
  
REM Highest difference peak  0.452,  deepest hole -0.184,  1-sigma level  0.052 
Q1    1   0.7657 -0.0628  0.8595  11.00000  0.05    0.45 
Q2    1   0.9144 -0.0599  0.7993  11.00000  0.05    0.42 
Q3    1   1.0872 -0.0302  0.7379  11.00000  0.05    0.40 
Q4    1   0.8783  0.1084  0.8994  11.00000  0.05    0.40 
Q5    1   0.9535  0.2102  0.8786  11.00000  0.05    0.36 
;
_shelx_res_checksum              62235
loop_
_space_group_symop_operation_xyz
'x, y, z'
'-x+1/2, y+1/2, -z+1/2'
'-x, -y, -z'
'x-1/2, -y-1/2, z-1/2'
loop_
_atom_site_label
_atom_site_type_symbol
_atom_site_fract_x
_atom_site_fract_y
_atom_site_fract_z
_atom_site_U_iso_or_equiv
_atom_site_adp_type
_atom_site_occupancy
_atom_site_site_symmetry_order
_atom_site_calc_flag
N1 N 0.76249(16) 0.08017(6) 0.92439(4) 0.01886(13) Uani 1 1 d
N2 N 1.05152(15) 0.09954(6) 0.79712(4) 0.01660(13) Uani 1 1 d
N3 N 1.22897(17) 0.15717(6) 0.73509(4) 0.02224(14) Uani 1 1 d
N4 N 1.28201(19) 0.07390(6) 0.67730(4) 0.02453(15) Uani 1 1 d
N5 N 1.14910(18) -0.03532(6) 0.69801(4) 0.02220(14) Uani 1 1 d
N6 N 0.99936(19) 0.26664(6) 0.88797(4) 0.02259(15) Uani 1 1 d
C1 C 0.93329(17) 0.14975(6) 0.87270(4) 0.01671(13) Uani 1 1 d
C2 C 1.00453(18) -0.01913(6) 0.77382(4) 0.01757(14) Uani 1 1 d
C3 C 0.82825(19) -0.09491(7) 0.82975(5) 0.02072(15) Uani 1 1 d
C4 C 0.71557(19) -0.03969(7) 0.90254(5) 0.02008(15) Uani 1 1 d
C5 C 0.8928(3) 0.32682(8) 0.96610(6) 0.02780(18) Uani 1 1 d
H1 H 0.789(3) -0.1783(11) 0.8177(8) 0.029(3) Uiso 1 1 d
H2 H 0.589(3) -0.0859(11) 0.9438(8) 0.027(3) Uiso 1 1 d
H3 H 1.114(3) 0.3100(13) 0.8508(9) 0.038(3) Uiso 1 1 d
H4 H 0.989(5) 0.296(2) 1.0161(13) 0.081(6) Uiso 1 1 d
H5 H 0.659(5) 0.3149(18) 0.9719(13) 0.076(6) Uiso 1 1 d
H6 H 0.947(5) 0.405(2) 0.9643(14) 0.086(6) Uiso 1 1 d
loop_
_atom_site_aniso_label
_atom_site_aniso_U_11
_atom_site_aniso_U_22
_atom_site_aniso_U_33
_atom_site_aniso_U_23
_atom_site_aniso_U_13
_atom_site_aniso_U_12
N1 0.0221(3) 0.0176(3) 0.0174(3) 0.00020(19) 0.0057(2) -0.0009(2)
N2 0.0195(3) 0.0157(2) 0.0150(2) 0.00075(18) 0.00461(19) 0.00106(19)
N3 0.0279(3) 0.0198(3) 0.0200(3) 0.0028(2) 0.0101(2) 0.0015(2)
N4 0.0318(3) 0.0222(3) 0.0205(3) 0.0021(2) 0.0101(2) 0.0043(2)
N5 0.0286(3) 0.0205(3) 0.0180(3) -0.0007(2) 0.0062(2) 0.0035(2)
N6 0.0324(3) 0.0149(3) 0.0214(3) -0.0018(2) 0.0105(2) -0.0020(2)
C1 0.0189(3) 0.0158(3) 0.0156(3) -0.0001(2) 0.0035(2) 0.0008(2)
C2 0.0196(3) 0.0163(3) 0.0169(3) -0.0012(2) 0.0020(2) 0.0019(2)
C3 0.0245(3) 0.0168(3) 0.0212(3) -0.0010(2) 0.0040(2) -0.0027(2)
C4 0.0222(3) 0.0187(3) 0.0198(3) 0.0014(2) 0.0048(2) -0.0026(2)
C5 0.0390(4) 0.0209(3) 0.0245(4) -0.0061(3) 0.0106(3) -0.0010(3)
loop_
_atom_type_symbol
_atom_type_description
_atom_type_scat_dispersion_real
_atom_type_scat_dispersion_imag
_atom_type_scat_source
C C 0.0033 0.0016 'International Tables Vol C Tables 4.2.6.8 and 6.1.1.4'
H H 0.0000 0.0000 'International Tables Vol C Tables 4.2.6.8 and 6.1.1.4'
N N 0.0061 0.0033 'International Tables Vol C Tables 4.2.6.8 and 6.1.1.4'
loop_
_geom_angle_atom_site_label_1
_geom_angle_atom_site_label_2
_geom_angle_atom_site_label_3
_geom_angle
C1 N1 C4 118.59(6)
C2 N2 N3 109.14(6)
C2 N2 C1 123.52(6)
N3 N2 C1 127.34(6)
N4 N3 N2 104.92(6)
N3 N4 N5 112.58(6)
C2 N5 N4 106.06(6)
C1 N6 C5 121.49(7)
C1 N6 H3 120.5(9)
C5 N6 H3 118.0(9)
N1 C1 N6 123.92(6)
N1 C1 N2 118.75(6)
N6 C1 N2 117.33(6)
N5 C2 N2 107.29(6)
N5 C2 C3 134.61(7)
N2 C2 C3 118.10(6)
C4 C3 C2 115.51(6)
C4 C3 H1 122.2(7)
C2 C3 H1 122.3(7)
C3 C4 N1 125.52(6)
C3 C4 H2 120.2(7)
N1 C4 H2 114.2(7)
N6 C5 H4 113.8(13)
N6 C5 H5 110.2(12)
H4 C5 H5 103.8(17)
N6 C5 H6 109.4(14)
H4 C5 H6 107(2)
H5 C5 H6 112.3(18)
loop_
_geom_bond_atom_site_label_1
_geom_bond_atom_site_label_2
_geom_bond_distance
N1 C1 1.3148(9)
N1 C4 1.3686(9)
N2 C2 1.3616(9)
N2 N3 1.3685(8)
N2 C1 1.3886(9)
N3 N4 1.2991(9)
N4 N5 1.3546(10)
N5 C2 1.3362(9)
N6 C1 1.3285(9)
N6 C5 1.4518(10)
N6 H3 0.886(15)
C2 C3 1.4077(10)
C3 C4 1.3672(10)
C3 H1 0.946(12)
C4 H2 0.971(13)
C5 H4 0.90(2)
C5 H5 0.94(2)
C5 H6 0.88(2)
