#------------------------------------------------------------------------------
#$Date: 2015-12-09 17:38:21 +0200 (Wed, 09 Dec 2015) $
#$Revision: 171330 $
#$URL: svn://www.crystallography.net/cod/cif/7/15/47/7154784.cif $
#------------------------------------------------------------------------------
#
# This file is available in the Crystallography Open Database (COD),
# http://www.crystallography.net/
#
# All data on this site have been placed in the public domain by the
# contributors.
#
data_7154784
loop_
_publ_author_name
'Goh, Yi Ling'
'Adsool, Vikrant A.'
_publ_section_title
;
 Radical fluorination powered expedient synthesis of
 3-fluorobicyclo[1.1.1]pentan-1-amine.
;
_journal_issue                   48
_journal_name_full               'Organic &amp; biomolecular chemistry'
_journal_page_first              11597
_journal_page_last               11601
_journal_paper_doi               10.1039/c5ob02066b
_journal_volume                  13
_journal_year                    2015
_chemical_formula_sum            'C6 H7 F O2'
_chemical_formula_weight         130.12
_chemical_melting_point          397.15
_chemical_name_systematic
'3-fluorobicyclo[1.1.1]pentane-1-carboxylic acid'
_space_group_crystal_system      triclinic
_space_group_IT_number           2
_space_group_name_Hall           '-P 1'
_space_group_name_H-M_alt        'P -1'
_symmetry_space_group_name_Hall  '-P 1'
_symmetry_space_group_name_H-M   'P -1'
_atom_sites_solution_hydrogens   mixed
_audit_update_record
;
2015-07-10 deposited with the CCDC.
2015-10-30 downloaded from the CCDC.
;
_cell_angle_alpha                84.283(8)
_cell_angle_beta                 78.772(9)
_cell_angle_gamma                68.545(7)
_cell_formula_units_Z            2
_cell_length_a                   5.3910(6)
_cell_length_b                   5.4434(6)
_cell_length_c                   11.1433(12)
_cell_measurement_reflns_used    1048
_cell_measurement_temperature    103.(2)
_cell_measurement_theta_max      27.0315
_cell_measurement_theta_min      5.0672
_cell_volume                     298.37(6)
_computing_cell_refinement       'SAINT V8.34A (Bruker AXS Inc., 2013)'
_computing_data_collection       'APEX2 (Bruker AXS Inc., 2014)'
_computing_data_reduction        'SAINT V8.34A (Bruker AXS Inc., 2013)'
_computing_molecular_graphics    'XP (Bruker AXS Inc., 2014)'
_computing_publication_material  'APEX2 (Bruker AXS Inc., 2014)'
_computing_structure_refinement  'SHELXL-2014/6 (Sheldrick, 2014)'
_diffrn_ambient_temperature      103.(2)
_diffrn_detector_area_resol_mean 8.3333
_diffrn_measured_fraction_theta_full 0.985
_diffrn_measured_fraction_theta_max 0.985
_diffrn_measurement_device_type  'CCD area detector'
_diffrn_measurement_method       'phi and omega scans'
_diffrn_radiation_monochromator  graphite
_diffrn_radiation_type           MoK\a
_diffrn_radiation_wavelength     0.71073
_diffrn_reflns_av_R_equivalents  0.0714
_diffrn_reflns_av_unetI/netI     0.0852
_diffrn_reflns_limit_h_max       7
_diffrn_reflns_limit_h_min       -7
_diffrn_reflns_limit_k_max       7
_diffrn_reflns_limit_k_min       -7
_diffrn_reflns_limit_l_max       16
_diffrn_reflns_limit_l_min       -16
_diffrn_reflns_number            5361
_diffrn_reflns_theta_full        31.20
_diffrn_reflns_theta_max         31.20
_diffrn_reflns_theta_min         5.07
_diffrn_source                   'fine-focus sealed tube'
_exptl_absorpt_coefficient_mu    0.127
_exptl_absorpt_correction_T_max  0.97
_exptl_absorpt_correction_T_min  0.64
_exptl_absorpt_correction_type   multi-scan
_exptl_absorpt_process_details   'SADABS V2014/4 (Bruker AXS Inc.)'
_exptl_crystal_colour            colourless
_exptl_crystal_density_diffrn    1.448
_exptl_crystal_density_method    'not measured'
_exptl_crystal_description       block
_exptl_crystal_F_000             136
_exptl_crystal_recrystallization_method
'Re-crystallisation from solvent: Pentane'
_exptl_crystal_size_max          0.420
_exptl_crystal_size_mid          0.410
_exptl_crystal_size_min          0.260
_refine_diff_density_max         0.449
_refine_diff_density_min         -0.282
_refine_ls_extinction_method     none
_refine_ls_goodness_of_fit_ref   1.041
_refine_ls_hydrogen_treatment    constr
_refine_ls_matrix_type           full
_refine_ls_number_parameters     82
_refine_ls_number_reflns         1889
_refine_ls_number_restraints     0
_refine_ls_restrained_S_all      1.041
_refine_ls_R_factor_all          0.0884
_refine_ls_R_factor_gt           0.0567
_refine_ls_shift/su_max          0.000
_refine_ls_shift/su_mean         0.000
_refine_ls_structure_factor_coef Fsqd
_refine_ls_weighting_details
'w=1/[\s^2^(Fo^2^)+(0.0633P)^2^+0.0197P] where P=(Fo^2^+2Fc^2^)/3'
_refine_ls_weighting_scheme      calc
_refine_ls_wR_factor_gt          0.1333
_refine_ls_wR_factor_ref         0.1499
_reflns_number_gt                1303
_reflns_number_total             1889
_reflns_threshold_expression     'I > 2\s(I)'
_cod_data_source_file            c5ob02066b2.cif
_cod_data_source_block           I
_cod_depositor_comments
'Adding full bibliography for 7154784--7154786.cif.'
_cod_database_code               7154784
_shelx_res_file
;
TITL ices2 in P-1
CELL 0.71073   5.39100   5.44340  11.14330  84.2826  78.7716  68.5445
ZERR    2.00   0.00060   0.00060   0.00120   0.0083   0.0085   0.0070
LATT 1
SFAC C  H  O  F
UNIT 12  14  4  2
L.S. 8
ACTA
BOND
FMAP 2
PLAN 5
SIZE 0.26 0.41 0.42
TEMP -170
WGHT    0.063300    0.019700
FVAR       0.48534
MOLE 1
C1    1    0.754772    0.302930    0.367779    11.00000    0.01742    0.01410 =
         0.01312    0.00264   -0.00291   -0.00567
C2    1    0.961170    0.138037    0.271221    11.00000    0.01728    0.01539 =
         0.01526    0.00000   -0.00208   -0.00682
C3    1    1.208195   -0.108541    0.300607    11.00000    0.02013    0.01924 =
         0.01955    0.00104   -0.00266   -0.00491
AFIX  23
H3A   2    1.347752   -0.072550    0.334485    11.00000   -1.20000
H3B   2    1.166664   -0.263292    0.340240    11.00000   -1.20000
AFIX   0
C4    1    1.161352    0.219512    0.169559    11.00000    0.02486    0.01987 =
         0.02050    0.00036    0.00365   -0.00919
AFIX  23
H4A   2    1.082847    0.332947    0.101269    11.00000   -1.20000
H4B   2    1.298193    0.271378    0.197491    11.00000   -1.20000
AFIX   0
C5    1    0.922015   -0.029218    0.176625    11.00000    0.02030    0.02522 =
         0.01911   -0.00600   -0.00155   -0.00802
AFIX  23
H5A   2    0.864858   -0.179313    0.210059    11.00000   -1.20000
H5B   2    0.829350    0.069782    0.108802    11.00000   -1.20000
AFIX   0
C6    1    1.225647   -0.078214    0.161463    11.00000    0.02029    0.01790 =
         0.01968   -0.00400    0.00315   -0.00536
F1    4    1.424591   -0.241919    0.078893    11.00000    0.02524    0.02601 =
         0.02883   -0.01028    0.00768   -0.00522
O1    3    0.805675    0.487074    0.407005    11.00000    0.03560    0.02270 =
         0.02060   -0.00743    0.00445   -0.01515
AFIX   3
H1O   2    0.694660    0.565617    0.468456    11.00000   -1.50000
AFIX   0
O2    3    0.546854    0.245649    0.408846    11.00000    0.02103    0.03415 =
         0.02314   -0.00426    0.00324   -0.01559
HKLF 4

REM  ices2 in P-1
REM R1 =  0.0567 for    1303 Fo > 4sig(Fo)  and  0.0884 for all    1889 data
REM     82 parameters refined using      0 restraints

END

WGHT      0.0628      0.0207

REM Highest difference peak  0.449,  deepest hole -0.282,  1-sigma level  0.066
Q1    1   1.2292 -0.1150  0.2338  11.00000  0.05    0.45
Q2    1   0.4750  0.3038  0.4765  11.00000  0.05    0.34
Q3    1   0.9404  0.1109  0.2019  11.00000  0.05    0.34
Q4    1   0.9273  0.0160  0.2414  11.00000  0.05    0.31
Q5    1   0.8755  0.2154  0.3176  11.00000  0.05    0.31
;
_shelx_res_checksum              10153
loop_
_space_group_symop_operation_xyz
'x, y, z'
'-x, -y, -z'
loop_
_atom_site_type_symbol
_atom_site_label
_atom_site_fract_x
_atom_site_fract_y
_atom_site_fract_z
_atom_site_U_iso_or_equiv
_atom_site_adp_type
_atom_site_calc_flag
_atom_site_refinement_flags_adp
_atom_site_refinement_flags_posn
_atom_site_occupancy
C C1 0.7548(3) 0.3029(3) 0.36778(14) 0.0150(3) Uani d . . 1
C C2 0.9612(3) 0.1380(3) 0.27122(14) 0.0158(3) Uani d . . 1
C C3 1.2082(3) -0.1085(3) 0.30061(15) 0.0205(4) Uani d . . 1
H H3A 1.3478 -0.0726 0.3345 0.025 Uiso calc U R 1
H H3B 1.1667 -0.2633 0.3402 0.025 Uiso calc U R 1
C C4 1.1614(4) 0.2195(3) 0.16956(16) 0.0225(4) Uani d . . 1
H H4A 1.0828 0.3329 0.1013 0.027 Uiso calc U R 1
H H4B 1.2982 0.2714 0.1975 0.027 Uiso calc U R 1
C C5 0.9220(3) -0.0292(3) 0.17662(16) 0.0214(4) Uani d . . 1
H H5A 0.8649 -0.1793 0.2101 0.026 Uiso calc U R 1
H H5B 0.8294 0.0698 0.1088 0.026 Uiso calc U R 1
C C6 1.2256(3) -0.0782(3) 0.16146(15) 0.0204(4) Uani d . . 1
F F1 1.4246(2) -0.24192(19) 0.07889(10) 0.0289(3) Uani d . . 1
O O1 0.8057(3) 0.4871(2) 0.40701(11) 0.0258(3) Uani d . . 1
H H1O 0.6947 0.5656 0.4685 0.039 Uiso d U R 1
O O2 0.5469(2) 0.2456(2) 0.40885(11) 0.0252(3) Uani d . . 1
loop_
_atom_site_aniso_label
_atom_site_aniso_U_11
_atom_site_aniso_U_22
_atom_site_aniso_U_33
_atom_site_aniso_U_12
_atom_site_aniso_U_13
_atom_site_aniso_U_23
C1 0.0174(8) 0.0141(6) 0.0131(7) -0.0057(6) -0.0029(6) 0.0026(5)
C2 0.0173(8) 0.0154(7) 0.0153(7) -0.0068(6) -0.0021(6) 0.0000(5)
C3 0.0201(9) 0.0192(7) 0.0195(8) -0.0049(6) -0.0027(7) 0.0010(6)
C4 0.0249(9) 0.0199(7) 0.0205(8) -0.0092(6) 0.0036(7) 0.0004(6)
C5 0.0203(9) 0.0252(8) 0.0191(8) -0.0080(7) -0.0016(7) -0.0060(6)
C6 0.0203(9) 0.0179(7) 0.0197(8) -0.0054(6) 0.0032(7) -0.0040(6)
F1 0.0252(6) 0.0260(5) 0.0288(6) -0.0052(4) 0.0077(5) -0.0103(4)
O1 0.0356(8) 0.0227(6) 0.0206(6) -0.0151(5) 0.0045(5) -0.0074(5)
O2 0.0210(7) 0.0342(7) 0.0231(7) -0.0156(5) 0.0032(5) -0.0043(5)
loop_
_atom_type_symbol
_atom_type_description
_atom_type_scat_dispersion_real
_atom_type_scat_dispersion_imag
_atom_type_scat_source
C C 0.0033 0.0016 'International Tables Vol C Tables 4.2.6.8 and 6.1.1.4'
H H 0.0000 0.0000 'International Tables Vol C Tables 4.2.6.8 and 6.1.1.4'
O O 0.0106 0.0060 'International Tables Vol C Tables 4.2.6.8 and 6.1.1.4'
F F 0.0171 0.0103 'International Tables Vol C Tables 4.2.6.8 and 6.1.1.4'
loop_
_geom_angle_atom_site_label_1
_geom_angle_atom_site_label_2
_geom_angle_atom_site_label_3
_geom_angle
O2 C1 O1 124.32(14)
O2 C1 C2 118.51(14)
O1 C1 C2 117.11(14)
C1 C2 C5 128.26(15)
C1 C2 C4 128.34(13)
C5 C2 C4 88.81(12)
C1 C2 C3 122.76(13)
C5 C2 C3 88.11(12)
C4 C2 C3 87.69(12)
C1 C2 C6 175.97(13)
C5 C2 C6 53.64(10)
C4 C2 C6 53.57(9)
C3 C2 C6 53.21(9)
C6 C3 C2 71.71(11)
C6 C4 C2 71.90(11)
C6 C5 C2 72.03(11)
F1 C6 C3 124.84(14)
F1 C6 C4 125.68(14)
C3 C6 C4 89.69(12)
F1 C6 C5 125.53(14)
C3 C6 C5 89.93(13)
C4 C6 C5 89.99(13)
F1 C6 C2 179.79(16)
C3 C6 C2 55.08(9)
C4 C6 C2 54.53(9)
C5 C6 C2 54.33(9)
loop_
_geom_bond_atom_site_label_1
_geom_bond_atom_site_label_2
_geom_bond_distance
C1 O2 1.2611(19)
C1 O1 1.2674(19)
C1 C2 1.482(2)
C2 C5 1.550(2)
C2 C4 1.555(2)
C2 C3 1.567(2)
C2 C6 1.815(2)
C3 C6 1.531(2)
C4 C6 1.536(2)
C5 C6 1.537(2)
C6 F1 1.3678(18)
