#------------------------------------------------------------------------------
#$Date: 2015-12-14 00:04:37 +0200 (Mon, 14 Dec 2015) $
#$Revision: 171492 $
#$URL: svn://www.crystallography.net/cod/cif/7/15/44/7154430.cif $
#------------------------------------------------------------------------------
#
# This file is available in the Crystallography Open Database (COD),
# http://www.crystallography.net/
#
# All data on this site have been placed in the public domain by the
# contributors.
#
data_7154430
loop_
_publ_author_name
'Khajuria, Rajni'
'Kannaboina, Prakash'
'Kapoor, Kamal K.'
'Gupta, Annah'
'Raina, Gaurav'
'Jassal, Amanpreet Kaur'
'Rana, Love Karan'
'Hundal, Maninder S.'
'Das, Parthasarathi'
_publ_section_title
;
 Divergent synthesis of 4,6-diarylated pyridin-2(1H)-ones from chalcones:
 novel access to 2,4,6-triaryl pyridines.
;
_journal_issue                   21
_journal_name_full               'Organic &amp; biomolecular chemistry'
_journal_page_first              5944
_journal_page_last               5954
_journal_paper_doi               10.1039/c5ob00545k
_journal_volume                  13
_journal_year                    2015
_chemical_formula_moiety         'C17 H12 Cl N O'
_chemical_formula_sum            'C17 H12 Cl N O'
_chemical_formula_weight         281.73
_space_group_IT_number           2
_symmetry_cell_setting           triclinic
_symmetry_space_group_name_Hall  '-P 1'
_symmetry_space_group_name_H-M   'P -1'
_atom_sites_solution_hydrogens   geom
_atom_sites_solution_primary     direct
_atom_sites_solution_secondary   difmap
_audit_creation_method           SHELXL-97
_audit_update_record
;
2014-07-11 deposited with the CCDC.
2015-04-14 downloaded from the CCDC.
;
_cell_angle_alpha                91.207(4)
_cell_angle_beta                 97.280(3)
_cell_angle_gamma                90.918(3)
_cell_formula_units_Z            2
_cell_length_a                   7.1491(6)
_cell_length_b                   9.2336(9)
_cell_length_c                   10.4719(9)
_cell_measurement_reflns_used    3754
_cell_measurement_temperature    296(2)
_cell_measurement_theta_max      25.28
_cell_measurement_theta_min      2.92
_cell_volume                     685.42(11)
_computing_cell_refinement       'Bruker SAINT'
_computing_data_collection       'Bruker APEX2'
_computing_data_reduction        'Bruker SAINT'
_computing_molecular_graphics    'Bruker SHELXTL'
_computing_publication_material  'Bruker SHELXTL'
_computing_structure_refinement  'SHELXL-97 (Sheldrick, 1997)'
_computing_structure_solution    'Sir-92 (Altomare et al., 1993)'
_diffrn_ambient_temperature      296(2)
_diffrn_measured_fraction_theta_full 0.983
_diffrn_measured_fraction_theta_max 0.983
_diffrn_measurement_device_type  'Bruker APEX-II CCD'
_diffrn_measurement_method       '\f and \w scans'
_diffrn_radiation_monochromator  graphite
_diffrn_radiation_source         'fine-focus sealed tube'
_diffrn_radiation_type           MoK\a
_diffrn_radiation_wavelength     0.71073
_diffrn_reflns_av_R_equivalents  0.0252
_diffrn_reflns_av_sigmaI/netI    0.0272
_diffrn_reflns_limit_h_max       8
_diffrn_reflns_limit_h_min       -4
_diffrn_reflns_limit_k_max       11
_diffrn_reflns_limit_k_min       -11
_diffrn_reflns_limit_l_max       12
_diffrn_reflns_limit_l_min       -12
_diffrn_reflns_number            9560
_diffrn_reflns_theta_full        25.87
_diffrn_reflns_theta_max         25.87
_diffrn_reflns_theta_min         1.96
_exptl_absorpt_coefficient_mu    0.272
_exptl_absorpt_correction_T_max  0.7453
_exptl_absorpt_correction_T_min  0.7017
_exptl_absorpt_correction_type   multi-scan
_exptl_absorpt_process_details
'SADABS-2008/1 - Bruker AXS area detector scaling and absorption correction'
_exptl_crystal_colour            colorless
_exptl_crystal_density_diffrn    1.365
_exptl_crystal_density_method    'not measured'
_exptl_crystal_description       prism
_exptl_crystal_F_000             292
_exptl_crystal_size_max          0.11
_exptl_crystal_size_mid          0.08
_exptl_crystal_size_min          0.05
_refine_diff_density_max         0.183
_refine_diff_density_min         -0.196
_refine_diff_density_rms         0.038
_refine_ls_extinction_method     none
_refine_ls_goodness_of_fit_ref   1.073
_refine_ls_hydrogen_treatment    mixed
_refine_ls_matrix_type           full
_refine_ls_number_parameters     184
_refine_ls_number_reflns         2614
_refine_ls_number_restraints     1
_refine_ls_restrained_S_all      1.073
_refine_ls_R_factor_all          0.0546
_refine_ls_R_factor_gt           0.0387
_refine_ls_shift/su_max          0.000
_refine_ls_shift/su_mean         0.000
_refine_ls_structure_factor_coef Fsqd
_refine_ls_weighting_details
'calc w=1/[\s^2^(Fo^2^)+(0.0536P)^2^+0.1274P] where P=(Fo^2^+2Fc^2^)/3'
_refine_ls_weighting_scheme      calc
_refine_ls_wR_factor_gt          0.0991
_refine_ls_wR_factor_ref         0.1106
_reflns_number_gt                2013
_reflns_number_total             2614
_reflns_threshold_expression     >2sigma(I)
_cod_data_source_file            c5ob00545k2.cif
_cod_data_source_block           shelxl
_cod_depositor_comments
;
The following automatic conversions were performed:

'_symmetry_cell_setting' value 'Triclinic' changed to 'triclinic'
according to
/usr/data/users/saulius/crontab/automatic-downloads/rss-feeds/RSC/lib/dictionaries/cif_core.dic
dictionary named 'cif_core.dic' version 2.4.2 from 2011-04-26.

Automatic conversion script
Id: cif_fix_values 3271 2015-04-21 07:52:19Z andrius 

 Adding full bibliography for 7154430--7154435.cif.
;
_cod_database_code               7154430
loop_
_symmetry_equiv_pos_as_xyz
'x, y, z'
'-x, -y, -z'
loop_
_atom_site_label
_atom_site_type_symbol
_atom_site_fract_x
_atom_site_fract_y
_atom_site_fract_z
_atom_site_U_iso_or_equiv
_atom_site_adp_type
_atom_site_occupancy
_atom_site_symmetry_multiplicity
_atom_site_calc_flag
_atom_site_refinement_flags
C1 C 0.2902(2) 0.68985(18) 0.36687(16) 0.0393(4) Uani 1 1 d .
C2 C 0.2861(3) 0.6210(2) 0.24701(17) 0.0471(5) Uani 1 1 d .
H2 H 0.3935 0.6231 0.2054 0.057 Uiso 1 1 calc R
C3 C 0.1258(3) 0.5497(2) 0.18886(18) 0.0514(5) Uani 1 1 d .
H3 H 0.1247 0.5043 0.1086 0.062 Uiso 1 1 calc R
C4 C -0.0328(3) 0.54660(19) 0.25112(18) 0.0454(4) Uani 1 1 d .
C5 C -0.0334(3) 0.6128(2) 0.36994(18) 0.0484(5) Uani 1 1 d .
H5 H -0.1414 0.6100 0.4110 0.058 Uiso 1 1 calc R
C6 C 0.1286(3) 0.6835(2) 0.42751(18) 0.0468(4) Uani 1 1 d .
H6 H 0.1292 0.7276 0.5082 0.056 Uiso 1 1 calc R
C7 C 0.5099(3) 0.76116(19) 0.56456(16) 0.0424(4) Uani 1 1 d .
H7 H 0.4333 0.7085 0.6130 0.051 Uiso 1 1 calc R
C8 C 0.4623(2) 0.76716(18) 0.42950(16) 0.0387(4) Uani 1 1 d .
C9 C 0.5761(3) 0.84514(19) 0.36032(16) 0.0413(4) Uani 1 1 d .
H9 H 0.5440 0.8508 0.2717 0.050 Uiso 1 1 calc R
C10 C 0.7426(3) 0.91821(19) 0.41949(16) 0.0407(4) Uani 1 1 d .
C11 C 0.6665(3) 0.83163(18) 0.62433(15) 0.0379(4) Uani 1 1 d .
C12 C 0.7190(3) 0.83309(18) 0.76572(15) 0.0412(4) Uani 1 1 d .
C13 C 0.9049(3) 0.8315(2) 0.82172(17) 0.0477(5) Uani 1 1 d .
H13 H 1.0020 0.8321 0.7704 0.057 Uiso 1 1 calc R
C14 C 0.9460(3) 0.8290(2) 0.95451(18) 0.0571(5) Uani 1 1 d .
H14 H 1.0711 0.8269 0.9918 0.069 Uiso 1 1 calc R
C15 C 0.8050(4) 0.8296(2) 1.03163(19) 0.0645(6) Uani 1 1 d .
H15 H 0.8341 0.8278 1.1207 0.077 Uiso 1 1 calc R
C16 C 0.6199(4) 0.8328(2) 0.97643(19) 0.0655(6) Uani 1 1 d .
H16 H 0.5238 0.8337 1.0286 0.079 Uiso 1 1 calc R
C17 C 0.5758(3) 0.8346(2) 0.84436(17) 0.0543(5) Uani 1 1 d .
H17 H 0.4504 0.8367 0.8078 0.065 Uiso 1 1 calc R
N1 N 0.7798(2) 0.90537(15) 0.55089(13) 0.0388(4) Uani 1 1 d D
H1 H 0.880(2) 0.946(2) 0.5874(17) 0.047 Uiso 1 1 d D
O1 O 0.85187(18) 0.99115(15) 0.36061(11) 0.0525(4) Uani 1 1 d .
Cl1 Cl -0.23781(7) 0.45999(6) 0.17798(5) 0.0662(2) Uani 1 1 d .
loop_
_atom_site_aniso_label
_atom_site_aniso_U_11
_atom_site_aniso_U_22
_atom_site_aniso_U_33
_atom_site_aniso_U_23
_atom_site_aniso_U_13
_atom_site_aniso_U_12
C1 0.0340(10) 0.0429(9) 0.0410(9) 0.0040(7) 0.0051(7) -0.0053(8)
C2 0.0393(11) 0.0573(11) 0.0456(10) -0.0032(8) 0.0101(8) -0.0096(9)
C3 0.0478(12) 0.0581(12) 0.0472(10) -0.0064(9) 0.0042(9) -0.0105(9)
C4 0.0366(10) 0.0418(10) 0.0562(11) 0.0044(8) -0.0001(8) -0.0082(8)
C5 0.0346(10) 0.0530(11) 0.0590(11) 0.0034(9) 0.0121(8) -0.0046(8)
C6 0.0424(11) 0.0524(11) 0.0464(10) -0.0034(8) 0.0100(8) -0.0071(9)
C7 0.0409(10) 0.0466(10) 0.0406(9) 0.0040(7) 0.0093(8) -0.0108(8)
C8 0.0349(10) 0.0410(9) 0.0407(9) -0.0005(7) 0.0069(7) -0.0030(7)
C9 0.0384(10) 0.0512(10) 0.0336(9) 0.0015(7) 0.0034(7) -0.0078(8)
C10 0.0398(10) 0.0457(10) 0.0376(9) 0.0017(7) 0.0089(8) -0.0058(8)
C11 0.0392(10) 0.0384(9) 0.0372(9) 0.0010(7) 0.0099(7) -0.0041(7)
C12 0.0484(11) 0.0382(9) 0.0371(9) 0.0016(7) 0.0069(8) -0.0096(8)
C13 0.0517(12) 0.0478(10) 0.0434(10) 0.0046(8) 0.0059(8) -0.0085(9)
C14 0.0650(15) 0.0545(12) 0.0486(11) 0.0065(9) -0.0051(10) -0.0103(10)
C15 0.0928(19) 0.0639(13) 0.0355(10) 0.0053(9) 0.0035(11) -0.0118(12)
C16 0.0761(17) 0.0807(15) 0.0429(11) 0.0031(10) 0.0208(11) -0.0092(12)
C17 0.0536(13) 0.0671(13) 0.0430(10) 0.0010(9) 0.0108(9) -0.0099(10)
N1 0.0356(9) 0.0445(8) 0.0362(8) -0.0005(6) 0.0054(6) -0.0105(7)
O1 0.0468(8) 0.0712(9) 0.0398(7) 0.0070(6) 0.0084(6) -0.0234(7)
Cl1 0.0427(3) 0.0692(4) 0.0831(4) -0.0067(3) -0.0020(3) -0.0176(3)
loop_
_atom_type_symbol
_atom_type_description
_atom_type_scat_dispersion_real
_atom_type_scat_dispersion_imag
_atom_type_scat_source
C C 0.0033 0.0016 'International Tables Vol C Tables 4.2.6.8 and 6.1.1.4'
H H 0.0000 0.0000 'International Tables Vol C Tables 4.2.6.8 and 6.1.1.4'
N N 0.0061 0.0033 'International Tables Vol C Tables 4.2.6.8 and 6.1.1.4'
O O 0.0106 0.0060 'International Tables Vol C Tables 4.2.6.8 and 6.1.1.4'
Cl Cl 0.1484 0.1585 'International Tables Vol C Tables 4.2.6.8 and 6.1.1.4'
loop_
_geom_angle_atom_site_label_1
_geom_angle_atom_site_label_2
_geom_angle_atom_site_label_3
_geom_angle
C6 C1 C2 118.17(17)
C6 C1 C8 120.47(16)
C2 C1 C8 121.35(16)
C3 C2 C1 121.23(18)
C3 C2 H2 119.4
C1 C2 H2 119.4
C4 C3 C2 119.12(17)
C4 C3 H3 120.4
C2 C3 H3 120.4
C5 C4 C3 121.21(17)
C5 C4 Cl1 118.98(15)
C3 C4 Cl1 119.81(15)
C4 C5 C6 119.11(17)
C4 C5 H5 120.4
C6 C5 H5 120.4
C5 C6 C1 121.14(17)
C5 C6 H6 119.4
C1 C6 H6 119.4
C11 C7 C8 120.66(16)
C11 C7 H7 119.7
C8 C7 H7 119.7
C9 C8 C7 118.77(15)
C9 C8 C1 121.70(15)
C7 C8 C1 119.53(15)
C8 C9 C10 122.03(15)
C8 C9 H9 119.0
C10 C9 H9 119.0
O1 C10 N1 119.90(15)
O1 C10 C9 124.63(15)
N1 C10 C9 115.47(15)
C7 C11 N1 118.71(15)
C7 C11 C12 122.82(15)
N1 C11 C12 118.47(15)
C13 C12 C17 119.22(16)
C13 C12 C11 122.15(16)
C17 C12 C11 118.62(17)
C12 C13 C14 119.78(19)
C12 C13 H13 120.1
C14 C13 H13 120.1
C15 C14 C13 120.9(2)
C15 C14 H14 119.6
C13 C14 H14 119.6
C14 C15 C16 119.55(19)
C14 C15 H15 120.2
C16 C15 H15 120.2
C15 C16 C17 120.5(2)
C15 C16 H16 119.8
C17 C16 H16 119.8
C16 C17 C12 120.1(2)
C16 C17 H17 120.0
C12 C17 H17 120.0
C11 N1 C10 124.33(15)
C11 N1 H1 119.0(13)
C10 N1 H1 116.7(13)
loop_
_geom_bond_atom_site_label_1
_geom_bond_atom_site_label_2
_geom_bond_distance
C1 C6 1.388(3)
C1 C2 1.392(2)
C1 C8 1.484(2)
C2 C3 1.378(3)
C2 H2 0.9300
C3 C4 1.378(3)
C3 H3 0.9300
C4 C5 1.375(3)
C4 Cl1 1.7396(18)
C5 C6 1.383(3)
C5 H5 0.9300
C6 H6 0.9300
C7 C11 1.360(2)
C7 C8 1.415(2)
C7 H7 0.9300
C8 C9 1.363(2)
C9 C10 1.423(2)
C9 H9 0.9300
C10 O1 1.252(2)
C10 N1 1.376(2)
C11 N1 1.369(2)
C11 C12 1.480(2)
C12 C13 1.384(3)
C12 C17 1.393(3)
C13 C14 1.385(3)
C13 H13 0.9300
C14 C15 1.369(3)
C14 H14 0.9300
C15 C16 1.377(3)
C15 H15 0.9300
C16 C17 1.379(3)
C16 H16 0.9300
C17 H17 0.9300
N1 H1 0.847(15)
loop_
_geom_torsion_atom_site_label_1
_geom_torsion_atom_site_label_2
_geom_torsion_atom_site_label_3
_geom_torsion_atom_site_label_4
_geom_torsion
C6 C1 C2 C3 0.8(3)
C8 C1 C2 C3 -179.76(17)
C1 C2 C3 C4 -0.2(3)
C2 C3 C4 C5 -0.2(3)
C2 C3 C4 Cl1 178.84(15)
C3 C4 C5 C6 0.0(3)
Cl1 C4 C5 C6 -179.08(14)
C4 C5 C6 C1 0.6(3)
C2 C1 C6 C5 -1.0(3)
C8 C1 C6 C5 179.52(16)
C11 C7 C8 C9 -0.1(3)
C11 C7 C8 C1 -179.70(17)
C6 C1 C8 C9 -142.86(19)
C2 C1 C8 C9 37.7(3)
C6 C1 C8 C7 36.7(2)
C2 C1 C8 C7 -142.76(18)
C7 C8 C9 C10 1.2(3)
C1 C8 C9 C10 -179.27(16)
C8 C9 C10 O1 180.00(18)
C8 C9 C10 N1 -0.4(3)
C8 C7 C11 N1 -1.7(3)
C8 C7 C11 C12 177.80(16)
C7 C11 C12 C13 144.69(19)
N1 C11 C12 C13 -35.8(2)
C7 C11 C12 C17 -34.6(3)
N1 C11 C12 C17 144.86(17)
C17 C12 C13 C14 1.1(3)
C11 C12 C13 C14 -178.24(16)
C12 C13 C14 C15 -0.7(3)
C13 C14 C15 C16 0.0(3)
C14 C15 C16 C17 0.4(3)
C15 C16 C17 C12 0.0(3)
C13 C12 C17 C16 -0.7(3)
C11 C12 C17 C16 178.59(18)
C7 C11 N1 C10 2.6(3)
C12 C11 N1 C10 -176.90(16)
O1 C10 N1 C11 178.09(17)
C9 C10 N1 C11 -1.6(3)
