#------------------------------------------------------------------------------
#$Date: 2016-03-26 16:03:23 +0200 (Sat, 26 Mar 2016) $
#$Revision: 180329 $
#$URL: svn://www.crystallography.net/cod/cif/7/15/43/7154314.cif $
#------------------------------------------------------------------------------
#
# This file is available in the Crystallography Open Database (COD),
# http://www.crystallography.net/
#
# All data on this site have been placed in the public domain by the
# contributors.
#
data_7154314
loop_
_publ_author_name
'Mykhailiuk, Pavel K.'
_publ_section_title
;
 Three-component synthesis of fluorinated pyrazoles from
 fluoroalkylamines, NaNO2 and electron-deficient alkynes.
;
_journal_issue                   11
_journal_name_full               'Organic &amp; biomolecular chemistry'
_journal_page_first              3438
_journal_page_last               3445
_journal_paper_doi               10.1039/c4ob02670e
_journal_volume                  13
_journal_year                    2015
_chemical_formula_sum            'C4 H5 F2 N O2'
_chemical_formula_weight         137.09
_chemical_name_systematic
; 
 ? 
;
_space_group_IT_number           14
_symmetry_space_group_name_Hall  '-P 2ybc'
_symmetry_space_group_name_H-M   'P 1 21/c 1'
_atom_sites_solution_hydrogens   geom
_atom_sites_solution_primary     direct
_atom_sites_solution_secondary   difmap
_audit_block_doi                 10.5517/cc13s5sv
_audit_creation_method           SHELXL-97
_audit_update_record
;
2014-11-26 deposited with the CCDC.
2015-01-23 downloaded from the CCDC.
;
_cell_angle_alpha                90.00
_cell_angle_beta                 96.537(7)
_cell_angle_gamma                90.00
_cell_formula_units_Z            4
_cell_length_a                   9.2697(8)
_cell_length_b                   5.3382(5)
_cell_length_c                   10.8156(8)
_cell_measurement_temperature    293(2)
_cell_volume                     531.71(8)
_computing_structure_refinement  'SHELXL-97 (Sheldrick, 1997)'
_computing_structure_solution    'SHELXS-97 (Sheldrick, 1990)'
_diffrn_ambient_temperature      293(2)
_diffrn_measured_fraction_theta_full 0.994
_diffrn_measured_fraction_theta_max 0.994
_diffrn_radiation_monochromator  graphite
_diffrn_radiation_source         'fine-focus sealed tube'
_diffrn_radiation_type           MoK\a
_diffrn_radiation_wavelength     0.71073
_diffrn_reflns_av_R_equivalents  0.0489
_diffrn_reflns_av_sigmaI/netI    0.0390
_diffrn_reflns_limit_h_max       13
_diffrn_reflns_limit_h_min       -12
_diffrn_reflns_limit_k_max       7
_diffrn_reflns_limit_k_min       -7
_diffrn_reflns_limit_l_max       13
_diffrn_reflns_limit_l_min       -15
_diffrn_reflns_number            4460
_diffrn_reflns_theta_full        29.99
_diffrn_reflns_theta_max         29.99
_diffrn_reflns_theta_min         3.79
_exptl_absorpt_coefficient_mu    0.178
_exptl_absorpt_correction_T_max  0.9912
_exptl_absorpt_correction_T_min  0.9653
_exptl_crystal_density_diffrn    1.713
_exptl_crystal_density_method    'not measured'
_exptl_crystal_F_000             280
_exptl_crystal_size_max          0.20
_exptl_crystal_size_mid          0.20
_exptl_crystal_size_min          0.05
_refine_diff_density_max         0.288
_refine_diff_density_min         -0.216
_refine_diff_density_rms         0.056
_refine_ls_extinction_coef       0.018(12)
_refine_ls_extinction_expression Fc^*^=kFc[1+0.001xFc^2^\l^3^/sin(2\q)]^-1/4^
_refine_ls_extinction_method     SHELXL
_refine_ls_goodness_of_fit_ref   1.011
_refine_ls_hydrogen_treatment    mixed
_refine_ls_matrix_type           full
_refine_ls_number_parameters     103
_refine_ls_number_reflns         1538
_refine_ls_number_restraints     0
_refine_ls_restrained_S_all      1.011
_refine_ls_R_factor_all          0.0680
_refine_ls_R_factor_gt           0.0496
_refine_ls_shift/su_max          0.000
_refine_ls_shift/su_mean         0.000
_refine_ls_structure_factor_coef Fsqd
_refine_ls_weighting_details
'calc w=1/[\s^2^(Fo^2^)+(0.0871P)^2^+0.0000P] where P=(Fo^2^+2Fc^2^)/3'
_refine_ls_weighting_scheme      calc
_refine_ls_wR_factor_gt          0.1336
_refine_ls_wR_factor_ref         0.1524
_reflns_number_gt                1080
_reflns_number_total             1538
_reflns_threshold_expression     >2sigma(I)
_cod_data_source_file            c4ob02670e2.cif
_cod_data_source_block           tolm226
_cod_depositor_comments
'Adding full bibliography for 7154310--7154316.cif.'
_cod_database_code               7154314
loop_
_symmetry_equiv_pos_as_xyz
'x, y, z'
'-x, y+1/2, -z+1/2'
'-x, -y, -z'
'x, -y-1/2, z-1/2'
loop_
_atom_site_label
_atom_site_type_symbol
_atom_site_fract_x
_atom_site_fract_y
_atom_site_fract_z
_atom_site_U_iso_or_equiv
_atom_site_adp_type
_atom_site_occupancy
_atom_site_symmetry_multiplicity
_atom_site_calc_flag
F1 F 0.60317(14) 0.7725(2) 0.88335(9) 0.0656(4) Uani 1 1 d
F2 F 0.54581(10) 0.3770(2) 0.88021(10) 0.0652(4) Uani 1 1 d
O1 O 0.78748(12) 0.26062(19) 0.75560(9) 0.0451(3) Uani 1 1 d
O2 O 0.94401(14) -0.0125(2) 0.84498(11) 0.0538(4) Uani 1 1 d
N1 N 0.86002(16) 0.2865(2) 0.96633(11) 0.0447(4) Uani 1 1 d
H1N H 0.912(2) 0.216(4) 1.0238(19) 0.067(6) Uiso 1 1 d
C1 C 0.86923(16) 0.1707(3) 0.85768(13) 0.0393(3) Uani 1 1 d
C2 C 0.72514(19) 0.5045(3) 0.75899(13) 0.0444(4) Uani 1 1 d
H2B H 0.803(2) 0.629(3) 0.7545(17) 0.057(5) Uiso 1 1 d
H2A H 0.655(2) 0.501(3) 0.6861(18) 0.051(4) Uiso 1 1 d
C3 C 0.65896(16) 0.5385(3) 0.87798(13) 0.0424(4) Uani 1 1 d
C4 C 0.76819(18) 0.4963(3) 0.98938(13) 0.0441(4) Uani 1 1 d
H4B H 0.717(2) 0.461(3) 1.0608(18) 0.057(5) Uiso 1 1 d
H4A H 0.822(2) 0.658(4) 1.0044(17) 0.056(5) Uiso 1 1 d
loop_
_atom_site_aniso_label
_atom_site_aniso_U_11
_atom_site_aniso_U_22
_atom_site_aniso_U_33
_atom_site_aniso_U_23
_atom_site_aniso_U_13
_atom_site_aniso_U_12
F1 0.0743(8) 0.0605(7) 0.0614(7) 0.0016(4) 0.0056(5) 0.0308(6)
F2 0.0441(6) 0.0859(9) 0.0673(7) -0.0096(5) 0.0139(4) -0.0137(5)
O1 0.0508(7) 0.0467(6) 0.0374(5) -0.0048(4) 0.0042(4) 0.0043(5)
O2 0.0549(7) 0.0458(6) 0.0609(8) -0.0059(5) 0.0071(5) 0.0120(5)
N1 0.0471(8) 0.0465(7) 0.0387(7) -0.0015(5) -0.0030(5) 0.0094(6)
C1 0.0382(7) 0.0369(7) 0.0429(7) -0.0008(5) 0.0047(5) -0.0002(5)
C2 0.0495(9) 0.0463(8) 0.0371(7) 0.0034(5) 0.0034(6) 0.0062(7)
C3 0.0402(8) 0.0438(8) 0.0433(8) 0.0000(5) 0.0052(5) 0.0059(6)
C4 0.0495(9) 0.0455(8) 0.0371(7) -0.0034(5) 0.0038(6) 0.0085(6)
loop_
_atom_type_symbol
_atom_type_description
_atom_type_scat_dispersion_real
_atom_type_scat_dispersion_imag
_atom_type_scat_source
C C 0.0033 0.0016 'International Tables Vol C Tables 4.2.6.8 and 6.1.1.4'
H H 0.0000 0.0000 'International Tables Vol C Tables 4.2.6.8 and 6.1.1.4'
N N 0.0061 0.0033 'International Tables Vol C Tables 4.2.6.8 and 6.1.1.4'
O O 0.0106 0.0060 'International Tables Vol C Tables 4.2.6.8 and 6.1.1.4'
F F 0.0171 0.0103 'International Tables Vol C Tables 4.2.6.8 and 6.1.1.4'
loop_
_geom_angle_atom_site_label_1
_geom_angle_atom_site_label_2
_geom_angle_atom_site_label_3
_geom_angle
C1 O1 C2 119.56(10)
C1 N1 C4 127.34(12)
O2 C1 N1 124.38(14)
O2 C1 O1 117.81(12)
N1 C1 O1 117.80(12)
O1 C2 C3 109.84(12)
F1 C3 F2 106.54(12)
F1 C3 C2 110.12(12)
F2 C3 C2 109.29(13)
F1 C3 C4 109.25(12)
F2 C3 C4 110.01(13)
C2 C3 C4 111.51(13)
N1 C4 C3 109.55(12)
loop_
_geom_bond_atom_site_label_1
_geom_bond_atom_site_label_2
_geom_bond_distance
F1 C3 1.3558(17)
F2 C3 1.3600(18)
O1 C1 1.3539(18)
O1 C2 1.4264(18)
O2 C1 1.2155(17)
N1 C1 1.3391(18)
N1 C4 1.446(2)
C2 C3 1.498(2)
C3 C4 1.500(2)
loop_
_geom_hbond_atom_site_label_D
_geom_hbond_atom_site_label_H
_geom_hbond_atom_site_label_A
_geom_hbond_distance_DH
_geom_hbond_distance_HA
_geom_hbond_distance_DA
_geom_hbond_angle_DHA
_geom_hbond_site_symmetry_A
N1 H1N O2 0.83(2) 2.13(2) 2.9598(18) 173.2(19) 3_757
loop_
_geom_torsion_atom_site_label_1
_geom_torsion_atom_site_label_2
_geom_torsion_atom_site_label_3
_geom_torsion_atom_site_label_4
_geom_torsion
C4 N1 C1 O2 -176.58(16)
C4 N1 C1 O1 2.0(2)
C2 O1 C1 O2 -165.52(14)
C2 O1 C1 N1 15.8(2)
C1 O1 C2 C3 -44.96(19)
O1 C2 C3 F1 178.26(12)
O1 C2 C3 F2 -65.04(16)
O1 C2 C3 C4 56.80(18)
C1 N1 C4 C3 11.5(2)
F1 C3 C4 N1 -161.97(13)
F2 C3 C4 N1 81.41(16)
C2 C3 C4 N1 -40.02(19)
