#------------------------------------------------------------------------------
#$Date: 2016-03-26 16:03:23 +0200 (Sat, 26 Mar 2016) $
#$Revision: 180329 $
#$URL: svn://www.crystallography.net/cod/cif/7/15/43/7154398.cif $
#------------------------------------------------------------------------------
#
# This file is available in the Crystallography Open Database (COD),
# http://www.crystallography.net/
#
# All data on this site have been placed in the public domain by the
# contributors.
#
data_7154398
loop_
_publ_author_name
'Hsu, Che-Sheng'
'Chou, Ho-Hsuan'
'Fang, Jim-Min'
_publ_section_title
;
 A short synthesis of (+-)-antroquinonol in an unusual scaffold of
 4-hydroxy-2-cyclohexenone.
;
_journal_issue                   19
_journal_name_full               'Organic &amp; biomolecular chemistry'
_journal_page_first              5510
_journal_page_last               5519
_journal_paper_doi               10.1039/c5ob00411j
_journal_volume                  13
_journal_year                    2015
_chemical_formula_sum            'C16 H20 O4'
_chemical_formula_weight         276.32
_chemical_name_systematic
; 
 ? 
;
_space_group_IT_number           2
_symmetry_cell_setting           triclinic
_symmetry_space_group_name_Hall  '-P 1'
_symmetry_space_group_name_H-M   'P -1'
_atom_sites_solution_hydrogens   geom
_atom_sites_solution_primary     direct
_atom_sites_solution_secondary   difmap
_audit_creation_method           SHELXL-97
_audit_update_record
;
2014-11-27 deposited with the CCDC.
2015-04-02 downloaded from the CCDC.
;
_cell_angle_alpha                88.055(6)
_cell_angle_beta                 85.254(5)
_cell_angle_gamma                81.792(5)
_cell_formula_units_Z            2
_cell_length_a                   5.8502(3)
_cell_length_b                   10.6878(8)
_cell_length_c                   11.8197(8)
_cell_measurement_reflns_used    1777
_cell_measurement_temperature    295(2)
_cell_measurement_theta_max      74.0940
_cell_measurement_theta_min      4.1810
_cell_volume                     728.77(8)
_computing_cell_refinement
; 
CrysAlisPro, Agilent Technologies, 
Version 1.171.36.28 (release 01-02-2013 CrysAlis171 .NET) 
(compiled Feb  1 2013,16:14:44) 
Empirical absorption correction using spherical harmonics, 
 implemented in SCALE3 ABSPACK scaling algorithm. 
;
_computing_data_collection
; 
CrysAlisPro, Agilent Technologies, 
Version 1.171.36.28 (release 01-02-2013 CrysAlis171 .NET) 
(compiled Feb  1 2013,16:14:44) 
Empirical absorption correction using spherical harmonics, 
 implemented in SCALE3 ABSPACK scaling algorithm. 
;
_computing_data_reduction
; 
CrysAlisPro, Agilent Technologies, 
Version 1.171.36.28 (release 01-02-2013 CrysAlis171 .NET) 
(compiled Feb  1 2013,16:14:44) 
Empirical absorption correction using spherical harmonics, 
 implemented in SCALE3 ABSPACK scaling algorithm. 
;
_computing_molecular_graphics    SHELXTL
_computing_publication_material  SHELXTL
_computing_structure_refinement  'SHELXL-97 (Sheldrick, 1997)'
_computing_structure_solution    'SHELXS-97 (Sheldrick, 1990)'
_diffrn_ambient_temperature      295(2)
_diffrn_measured_fraction_theta_full 0.995
_diffrn_measured_fraction_theta_max 0.995
_diffrn_measurement_device_type  'Oxford Diffraction Gemini A'
_diffrn_measurement_method       CCD
_diffrn_radiation_monochromator  graphite
_diffrn_radiation_source         'fine-focus sealed tube'
_diffrn_radiation_type           CuK\a
_diffrn_radiation_wavelength     1.54178
_diffrn_reflns_av_R_equivalents  0.0190
_diffrn_reflns_av_sigmaI/netI    0.0294
_diffrn_reflns_limit_h_max       6
_diffrn_reflns_limit_h_min       -4
_diffrn_reflns_limit_k_max       12
_diffrn_reflns_limit_k_min       -12
_diffrn_reflns_limit_l_max       11
_diffrn_reflns_limit_l_min       -14
_diffrn_reflns_number            4363
_diffrn_reflns_theta_full        67.98
_diffrn_reflns_theta_max         67.98
_diffrn_reflns_theta_min         3.75
_exptl_absorpt_coefficient_mu    0.732
_exptl_absorpt_correction_T_max  1.00000
_exptl_absorpt_correction_T_min  0.90623
_exptl_absorpt_correction_type   multi-scan
_exptl_absorpt_process_details
; 
CrysAlisPro, Agilent Technologies, 
Version 1.171.36.28 (release 01-02-2013 CrysAlis171 .NET) 
(compiled Feb  1 2013,16:14:44) 
Empirical absorption correction using spherical harmonics, 
 implemented in SCALE3 ABSPACK scaling algorithm. 
;
_exptl_crystal_density_diffrn    1.259
_exptl_crystal_density_method    'not measured'
_exptl_crystal_F_000             296
_exptl_crystal_size_max          0.25
_exptl_crystal_size_mid          0.20
_exptl_crystal_size_min          0.15
_refine_diff_density_max         0.714
_refine_diff_density_min         -0.185
_refine_diff_density_rms         0.046
_refine_ls_extinction_method     none
_refine_ls_goodness_of_fit_ref   1.040
_refine_ls_hydrogen_treatment    mixed
_refine_ls_matrix_type           full
_refine_ls_number_parameters     181
_refine_ls_number_reflns         2644
_refine_ls_number_restraints     0
_refine_ls_restrained_S_all      1.040
_refine_ls_R_factor_all          0.0687
_refine_ls_R_factor_gt           0.0568
_refine_ls_shift/su_max          0.016
_refine_ls_shift/su_mean         0.002
_refine_ls_structure_factor_coef Fsqd
_refine_ls_weighting_details
'calc w=1/[\s^2^(Fo^2^)+(0.0959P)^2^+0.2171P] where P=(Fo^2^+2Fc^2^)/3'
_refine_ls_weighting_scheme      calc
_refine_ls_wR_factor_gt          0.1625
_refine_ls_wR_factor_ref         0.1770
_reflns_number_gt                2109
_reflns_number_total             2644
_reflns_threshold_expression     >2sigma(I)
_cod_data_source_file            c5ob00411j2.cif
_cod_data_source_block           ic16471
_cod_depositor_comments
;
The following automatic conversions were performed:

'_symmetry_cell_setting' value 'Triclinic' changed to 'triclinic'
according to
/usr/data/users/saulius/crontab/automatic-downloads/rss-feeds/RSC/lib/dictionaries/cif_core.dic
dictionary named 'cif_core.dic' version 2.4.2 from 2011-04-26.

Automatic conversion script
Id: cif_fix_values 3143 2015-03-26 13:38:13Z robertas 

 Adding full bibliography for 7154396--7154401.cif.
;
_cod_original_sg_symbol_H-M      P-1
_cod_database_code               7154398
loop_
_symmetry_equiv_pos_as_xyz
'x, y, z'
'-x, -y, -z'
loop_
_atom_site_label
_atom_site_type_symbol
_atom_site_fract_x
_atom_site_fract_y
_atom_site_fract_z
_atom_site_U_iso_or_equiv
_atom_site_adp_type
_atom_site_occupancy
_atom_site_symmetry_multiplicity
_atom_site_calc_flag
_atom_site_refinement_flags
O1 O -0.0076(3) 0.40180(16) 1.17143(14) 0.0571(5) Uani 1 1 d .
H1A H -0.1076 0.4443 1.1363 0.086 Uiso 1 1 calc R
O2 O 0.2954(3) 0.43393(17) 0.95649(13) 0.0589(5) Uani 1 1 d .
O3 O 0.6539(3) 0.24708(18) 0.96949(14) 0.0649(5) Uani 1 1 d .
O4 O 0.7329(3) 0.14822(16) 1.19889(14) 0.0604(5) Uani 1 1 d .
C1 C 0.2017(3) 0.4557(2) 1.15541(17) 0.0423(5) Uani 1 1 d .
H1B H 0.1632 0.5466 1.1401 0.051 Uiso 1 1 calc R
C2 C 0.3413(4) 0.3958(2) 1.05187(18) 0.0444(5) Uani 1 1 d .
C3 C 0.5235(4) 0.2909(2) 1.06764(18) 0.0480(5) Uani 1 1 d .
C4 C 0.5725(4) 0.2457(2) 1.17200(18) 0.0453(5) Uani 1 1 d .
C5 C 0.4463(4) 0.2992(2) 1.28003(17) 0.0443(5) Uani 1 1 d .
H5A H 0.5639 0.3013 1.3341 0.053 Uiso 1 1 calc R
C6 C 0.3344(4) 0.43676(19) 1.26143(17) 0.0424(5) Uani 1 1 d .
H6A H 0.4618 0.4873 1.2494 0.051 Uiso 1 1 calc R
C7 C 0.1867(4) 0.4879(2) 1.36841(19) 0.0535(6) Uani 1 1 d .
H7A H 0.0434 0.4514 1.3746 0.064 Uiso 1 1 calc R
H7B H 0.2694 0.4599 1.4346 0.064 Uiso 1 1 calc R
C8 C 0.1286(4) 0.6298(2) 1.36970(17) 0.0482(5) Uani 1 1 d .
C9 C 0.2734(4) 0.7032(3) 1.4164(2) 0.0616(7) Uani 1 1 d .
H9A H 0.4094 0.6642 1.4453 0.074 Uiso 1 1 calc R
C10 C 0.2188(5) 0.8334(3) 1.4205(2) 0.0674(7) Uani 1 1 d .
H10A H 0.3177 0.8808 1.4524 0.081 Uiso 1 1 calc R
C11 C 0.0211(5) 0.8927(2) 1.3781(2) 0.0641(7) Uani 1 1 d .
H11A H -0.0155 0.9802 1.3812 0.077 Uiso 1 1 calc R
C12 C -0.1236(5) 0.8224(3) 1.3308(2) 0.0645(7) Uani 1 1 d .
H12A H -0.2579 0.8627 1.3010 0.077 Uiso 1 1 calc R
C13 C -0.0716(4) 0.6918(2) 1.3268(2) 0.0570(6) Uani 1 1 d .
H13A H -0.1720 0.6453 1.2951 0.068 Uiso 1 1 calc R
C14 C 0.5374(7) 0.1809(3) 0.8972(3) 0.0926(11) Uani 1 1 d .
H14A H 0.6392 0.1546 0.8318 0.139 Uiso 1 1 calc R
H14B H 0.4036 0.2350 0.8734 0.139 Uiso 1 1 calc R
H14C H 0.4898 0.1079 0.9369 0.139 Uiso 1 1 calc R
C15 C 0.8997(5) 0.0884(3) 1.1163(2) 0.0722(8) Uani 1 1 d .
H15A H 0.9972 0.0212 1.1520 0.108 Uiso 1 1 calc R
H15B H 0.9926 0.1491 1.0827 0.108 Uiso 1 1 calc R
H15C H 0.8220 0.0545 1.0584 0.108 Uiso 1 1 calc R
C16 C 0.2804(5) 0.2095(2) 1.3318(2) 0.0624(7) Uani 1 1 d .
H16A H 0.3644 0.1263 1.3409 0.094 Uiso 1 1 calc R
H16B H 0.1592 0.2064 1.2824 0.094 Uiso 1 1 calc R
H16C H 0.2140 0.2397 1.4045 0.094 Uiso 1 1 calc R
loop_
_atom_site_aniso_label
_atom_site_aniso_U_11
_atom_site_aniso_U_22
_atom_site_aniso_U_33
_atom_site_aniso_U_23
_atom_site_aniso_U_13
_atom_site_aniso_U_12
O1 0.0378(8) 0.0712(11) 0.0616(10) 0.0177(8) -0.0067(7) -0.0083(7)
O2 0.0579(10) 0.0742(11) 0.0407(9) 0.0072(7) -0.0102(7) 0.0057(8)
O3 0.0630(11) 0.0799(12) 0.0467(9) -0.0048(8) 0.0004(8) 0.0056(9)
O4 0.0649(10) 0.0602(10) 0.0478(9) 0.0016(7) -0.0042(7) 0.0190(8)
C1 0.0391(10) 0.0441(11) 0.0419(11) 0.0053(8) -0.0005(8) -0.0024(8)
C2 0.0413(11) 0.0532(12) 0.0384(11) 0.0045(9) -0.0062(8) -0.0056(9)
C3 0.0476(12) 0.0568(13) 0.0368(11) -0.0058(9) -0.0022(9) 0.0023(9)
C4 0.0453(11) 0.0448(11) 0.0439(11) -0.0004(9) -0.0057(9) 0.0012(9)
C5 0.0453(11) 0.0503(12) 0.0351(10) 0.0027(8) -0.0044(8) 0.0007(9)
C6 0.0425(11) 0.0455(11) 0.0376(10) 0.0005(8) 0.0002(8) -0.0030(8)
C7 0.0592(13) 0.0569(13) 0.0398(11) 0.0007(9) 0.0057(10) 0.0017(10)
C8 0.0508(12) 0.0565(13) 0.0340(10) -0.0046(9) 0.0040(8) 0.0006(9)
C9 0.0544(14) 0.0801(17) 0.0486(13) -0.0121(12) -0.0061(10) -0.0006(12)
C10 0.0765(18) 0.0703(17) 0.0583(15) -0.0208(12) -0.0019(13) -0.0177(13)
C11 0.0831(19) 0.0545(14) 0.0512(13) -0.0105(11) 0.0069(12) -0.0025(12)
C12 0.0655(16) 0.0629(15) 0.0602(15) -0.0067(12) -0.0058(12) 0.0096(12)
C13 0.0533(13) 0.0593(14) 0.0579(14) -0.0091(11) -0.0065(10) -0.0035(10)
C14 0.117(3) 0.096(2) 0.0596(17) -0.0296(16) -0.0206(17) 0.016(2)
C15 0.0731(17) 0.0709(17) 0.0617(16) -0.0057(13) -0.0019(13) 0.0260(14)
C16 0.0696(16) 0.0541(14) 0.0587(14) 0.0140(11) 0.0071(12) -0.0028(11)
loop_
_atom_type_symbol
_atom_type_description
_atom_type_scat_dispersion_real
_atom_type_scat_dispersion_imag
_atom_type_scat_source
C C 0.0181 0.0091 'International Tables Vol C Tables 4.2.6.8 and 6.1.1.4'
H H 0.0000 0.0000 'International Tables Vol C Tables 4.2.6.8 and 6.1.1.4'
O O 0.0492 0.0322 'International Tables Vol C Tables 4.2.6.8 and 6.1.1.4'
loop_
_geom_angle_atom_site_label_1
_geom_angle_atom_site_label_2
_geom_angle_atom_site_label_3
_geom_angle
C3 O3 C14 115.0(2)
C4 O4 C15 122.13(19)
O1 C1 C6 110.74(17)
O1 C1 C2 107.82(18)
C6 C1 C2 112.29(16)
O2 C2 C3 120.7(2)
O2 C2 C1 120.01(19)
C3 C2 C1 119.27(18)
C4 C3 O3 122.5(2)
C4 C3 C2 121.46(19)
O3 C3 C2 115.82(18)
O4 C4 C3 127.7(2)
O4 C4 C5 108.81(17)
C3 C4 C5 123.44(19)
C4 C5 C16 110.23(19)
C4 C5 C6 111.19(16)
C16 C5 C6 115.04(18)
C1 C6 C5 113.09(17)
C1 C6 C7 112.43(17)
C5 C6 C7 111.42(17)
C8 C7 C6 114.35(18)
C13 C8 C9 117.6(2)
C13 C8 C7 121.6(2)
C9 C8 C7 120.7(2)
C10 C9 C8 121.2(2)
C11 C10 C9 120.4(3)
C10 C11 C12 119.5(3)
C11 C12 C13 120.7(3)
C8 C13 C12 120.6(2)
loop_
_geom_bond_atom_site_label_1
_geom_bond_atom_site_label_2
_geom_bond_distance
O1 C1 1.422(3)
O2 C2 1.223(3)
O3 C3 1.391(3)
O3 C14 1.403(4)
O4 C4 1.347(3)
O4 C15 1.422(3)
C1 C6 1.521(3)
C1 C2 1.521(3)
C2 C3 1.451(3)
C3 C4 1.347(3)
C4 C5 1.508(3)
C5 C16 1.538(3)
C5 C6 1.538(3)
C6 C7 1.541(3)
C7 C8 1.507(3)
C8 C13 1.386(3)
C8 C9 1.391(4)
C9 C10 1.384(4)
C10 C11 1.362(4)
C11 C12 1.372(4)
C12 C13 1.388(4)
