#------------------------------------------------------------------------------
#$Date: 2017-04-05 13:05:06 +0300 (Wed, 05 Apr 2017) $
#$Revision: 195165 $
#$URL: file:///home/coder/svn-repositories/cod/cif/7/15/54/7155496.cif $
#------------------------------------------------------------------------------
#
# This file is available in the Crystallography Open Database (COD),
# http://www.crystallography.net/
#
# All data on this site have been placed in the public domain by the
# contributors.
#
data_7155496
loop_
_publ_author_name
'Gopalaiah, Kovuru'
'Saini, Anupama'
'Chandrudu, Sankala Naga'
'Rao, Devarapalli Chenna'
'Yadav, Harsh'
'Kumar, Binay'
_publ_section_title
;
 Copper-catalyzed aerobic oxidative coupling of o-phenylenediamines with
 2-aryl/heteroarylethylamines: direct access to construct quinoxalines.
;
_journal_issue                   10
_journal_name_full               'Organic &amp; biomolecular chemistry'
_journal_page_first              2259
_journal_page_last               2268
_journal_paper_doi               10.1039/c7ob00122c
_journal_volume                  15
_journal_year                    2017
_chemical_formula_moiety         'C14 H9 Cl N2'
_chemical_formula_sum            'C14 H9 Cl N2'
_chemical_formula_weight         240.68
_space_group_crystal_system      monoclinic
_space_group_IT_number           4
_space_group_name_Hall           'P 2yb'
_space_group_name_H-M_alt        'P 1 21 1'
_symmetry_space_group_name_Hall  'P 2yb'
_symmetry_space_group_name_H-M   'P 1 21 1'
_atom_sites_solution_hydrogens   geom
_atom_sites_solution_primary     direct
_audit_creation_date             2016-08-01
_audit_creation_method
;
Olex2 1.2
(compiled 2016.02.19 svn.r3266 for OlexSys, GUI svn.r5155)
;
_audit_update_record
;
2017-02-17 deposited with the CCDC.
2017-02-17 downloaded from the CCDC.
;
_cell_angle_alpha                90
_cell_angle_beta                 103.477(13)
_cell_angle_gamma                90
_cell_formula_units_Z            2
_cell_length_a                   9.5475(13)
_cell_length_b                   4.7592(5)
_cell_length_c                   12.4973(18)
_cell_measurement_reflns_used    1851
_cell_measurement_temperature    293(2)
_cell_measurement_theta_max      26.5690
_cell_measurement_theta_min      4.3090
_cell_volume                     552.22(13)
_computing_molecular_graphics    'Olex2 (Dolomanov et al., 2009)'
_computing_publication_material  'Olex2 (Dolomanov et al., 2009)'
_computing_structure_refinement  'ShelXL (Sheldrick, 2015)'
_computing_structure_solution    'ShelXT (Sheldrick, 2015)'
_diffrn_ambient_temperature      293(2)
_diffrn_measured_fraction_theta_full 0.997
_diffrn_measured_fraction_theta_max 0.915
_diffrn_measurement_device_type  'Xcalibur, Sapphire3'
_diffrn_radiation_type           MoK\a
_diffrn_radiation_wavelength     0.71073
_diffrn_reflns_av_R_equivalents  0.0362
_diffrn_reflns_av_unetI/netI     0.0468
_diffrn_reflns_Laue_measured_fraction_full 0.997
_diffrn_reflns_Laue_measured_fraction_max 0.915
_diffrn_reflns_limit_h_max       12
_diffrn_reflns_limit_h_min       -12
_diffrn_reflns_limit_k_max       6
_diffrn_reflns_limit_k_min       -6
_diffrn_reflns_limit_l_max       16
_diffrn_reflns_limit_l_min       -17
_diffrn_reflns_number            7467
_diffrn_reflns_point_group_measured_fraction_full 0.998
_diffrn_reflns_point_group_measured_fraction_max 0.868
_diffrn_reflns_theta_full        25.242
_diffrn_reflns_theta_max         29.382
_diffrn_reflns_theta_min         3.056
_diffrn_source                   'Enhance (Mo) X-ray Source'
_exptl_absorpt_coefficient_mu    0.320
_exptl_absorpt_correction_T_max  1.00000
_exptl_absorpt_correction_T_min  0.45484
_exptl_absorpt_correction_type   multi-scan
_exptl_absorpt_process_details
;
CrysAlisPro, Agilent Technologies,
Version 1.171.36.32 (release 02-08-2013 CrysAlis171 .NET)
(compiled Aug  2 2013,16:46:58)
Empirical absorption correction using spherical harmonics,
 implemented in SCALE3 ABSPACK scaling algorithm.
;
_exptl_crystal_density_diffrn    1.447
_exptl_crystal_description       Block
_exptl_crystal_F_000             248
_exptl_crystal_size_max          0.5
_exptl_crystal_size_mid          0.5
_exptl_crystal_size_min          0.5
_refine_diff_density_max         0.169
_refine_diff_density_min         -0.212
_refine_diff_density_rms         0.044
_refine_ls_abs_structure_details
;
 Flack x determined using 691 quotients [(I+)-(I-)]/[(I+)+(I-)]
 (Parsons, Flack and Wagner, Acta Cryst. B69 (2013) 249-259).
;
_refine_ls_abs_structure_Flack   0.15(5)
_refine_ls_extinction_method     none
_refine_ls_goodness_of_fit_ref   1.010
_refine_ls_hydrogen_treatment    constr
_refine_ls_matrix_type           full
_refine_ls_number_parameters     154
_refine_ls_number_reflns         2654
_refine_ls_number_restraints     1
_refine_ls_restrained_S_all      1.010
_refine_ls_R_factor_all          0.0629
_refine_ls_R_factor_gt           0.0454
_refine_ls_shift/su_max          0.000
_refine_ls_shift/su_mean         0.000
_refine_ls_structure_factor_coef Fsqd
_refine_ls_weighting_details
'w=1/[\s^2^(Fo^2^)+(0.0500P)^2^] where P=(Fo^2^+2Fc^2^)/3'
_refine_ls_weighting_scheme      calc
_refine_ls_wR_factor_gt          0.0953
_refine_ls_wR_factor_ref         0.1085
_reflns_Friedel_coverage         0.705
_reflns_Friedel_fraction_full    1.000
_reflns_Friedel_fraction_max     0.810
_reflns_number_gt                2104
_reflns_number_total             2654
_reflns_threshold_expression     'I > 2\s(I)'
_cod_data_source_file            c7ob00122c2.cif
_cod_data_source_block           6Chloro2phenylquinoxaline
_cod_depositor_comments
'Adding full bibliography for 7155495--7155499.cif.'
_cod_original_cell_volume        552.23(13)
_cod_database_code               7155496
_publcif_datablock.id            {39397030-960b-41f4-8b02-6294d4687151}
_shelx_space_group_comment
;
The symmetry employed for this shelxl refinement is uniquely defined
by the following loop, which should always be used as a source of
symmetry information in preference to the above space-group names.
They are only intended as comments.
;
_shelx_res_file
;
    pg-189a-1.res created by SHELXL-2014/7

TITL pg-189a-1_a.res in P2(1)
REM Old TITL PG-189A-1 in P21/m #11
REM SHELXT solution in P2(1)
REM R1 0.122, Rweak 0.031, Alpha 0.003, Orientation as input
REM Flack x = 0.252 ( 0.047 ) from Parsons' quotients
REM Formula found by SHELXT: C14 N2 Cl
CELL 0.71073 9.547524 4.759208 12.497321 90 103.4766 90
ZERR 2 0.001267 0.000546 0.001808 0 0.0131 0
LATT -1
SYMM -X,0.5+Y,-Z
SFAC C H N O Cl
UNIT 28 18 6 4 1

L.S. 4 0 0
PLAN  20
BOND $H
LIST 6
fmap 2 53
ACTA
REM <olex2.extras>
REM <HklSrc "%.\\PG-189A-1.hkl">
REM </olex2.extras>

WGHT    0.050000
FVAR       1.17544
CL1   5    0.904247    1.289990    0.392448    11.00000    0.04436    0.04389 =
         0.07849   -0.00089    0.00840   -0.00876
N1    3    0.447169    0.438163    0.306731    11.00000    0.03343    0.03413 =
         0.02914    0.00145    0.00778    0.00223
N2    3    0.581584    0.596854    0.137786    11.00000    0.04282    0.05072 =
         0.03104    0.00259    0.01081   -0.00077
C9    1    0.621638    0.716216    0.240161    11.00000    0.03132    0.03410 =
         0.03170    0.00445    0.00797    0.00552
C14   1    0.553649    0.635231    0.324162    11.00000    0.03339    0.03195 =
         0.03000    0.00450    0.00925    0.00361
C7    1    0.409167    0.324686    0.208602    11.00000    0.03222    0.03354 =
         0.02946    0.00411    0.00589    0.00508
C10   1    0.730678    0.921344    0.261376    11.00000    0.03535    0.04175 =
         0.04150    0.01004    0.01337    0.00261
AFIX  43
H10   2    0.775591    0.976622    0.206275    11.00000   -1.20000
AFIX   0
C6    1    0.293371    0.111148    0.187770    11.00000    0.03234    0.03195 =
         0.03653    0.00164    0.00664    0.00629
C11   1    0.769657    1.037807    0.363221    11.00000    0.02927    0.03138 =
         0.04948    0.00372    0.00441    0.00233
C12   1    0.702983    0.959509    0.447715    11.00000    0.04209    0.04193 =
         0.03757   -0.00474    0.00722   -0.00075
AFIX  43
H12   2    0.731273    1.042034    0.516848    11.00000   -1.20000
AFIX   0
C1    1    0.224255    0.044117    0.271535    11.00000    0.03995    0.04713 =
         0.04116   -0.00262    0.00976   -0.00197
AFIX  43
H1    2    0.251571    0.134547    0.339168    11.00000   -1.20000
AFIX   0
C5    1    0.248307   -0.026286    0.087758    11.00000    0.04870    0.04396 =
         0.03666   -0.00270    0.00770    0.00093
AFIX  43
H5    2    0.292081    0.015292    0.030517    11.00000   -1.20000
AFIX   0
C8    1    0.479058    0.409763    0.124055    11.00000    0.04274    0.04824 =
         0.03014   -0.00236    0.00769   -0.00212
AFIX  43
H8    2    0.449502    0.326467    0.055158    11.00000   -1.20000
AFIX   0
C13   1    0.597625    0.763899    0.428163    11.00000    0.04118    0.04428 =
         0.03392    0.00061    0.01227   -0.00203
AFIX  43
H13   2    0.553389    0.713295    0.484212    11.00000   -1.20000
AFIX   0
C2    1    0.116486   -0.153659    0.255215    11.00000    0.04120    0.04986 =
         0.05873    0.00615    0.01456   -0.00180
AFIX  43
H2    2    0.072271   -0.196803    0.312063    11.00000   -1.20000
AFIX   0
C4    1    0.139796   -0.223281    0.071899    11.00000    0.05123    0.04673 =
         0.04868   -0.00783   -0.00112   -0.00270
AFIX  43
H4    2    0.111058   -0.313108    0.004238    11.00000   -1.20000
AFIX   0
C3    1    0.073426   -0.288313    0.155656    11.00000    0.03951    0.04358 =
         0.06337    0.00035    0.00043   -0.00504
AFIX  43
H3    2    0.000340   -0.421807    0.144893    11.00000   -1.20000
AFIX   0
HKLF 4

REM  pg-189a-1_a.res in P2(1)
REM R1 =  0.0454 for    2104 Fo > 4sig(Fo)  and  0.0629 for all    2654 data
REM    154 parameters refined using      1 restraints

END

WGHT      0.0456      0.0000

REM Highest difference peak  0.169,  deepest hole -0.212,  1-sigma level  0.044
Q1    1   0.7653  1.3788  0.5601  11.00000  0.05    0.17
Q2    1   1.0351  1.3067  0.3816  11.00000  0.05    0.16
Q3    1   0.7616  0.9248  0.2540  11.00000  0.05    0.15
Q4    1   0.9353  1.1391  0.3389  11.00000  0.05    0.14
Q5    1   0.8980  1.4449  0.2560  11.00000  0.05    0.13
Q6    1   0.7082  0.5887  0.4537  11.00000  0.05    0.13
Q7    1   0.8415  0.7542  0.4811  11.00000  0.05    0.13
Q8    1   0.2430  0.0910  0.4437  11.00000  0.05    0.13
Q9    1   0.4205  0.3132  0.3663  11.00000  0.05    0.13
Q10   1   0.1834  0.3017  0.3150  11.00000  0.05    0.13
Q11   1   0.6458  0.3219  0.0772  11.00000  0.05    0.12
Q12   1   0.9263  1.1307  0.4818  11.00000  0.05    0.12
Q13   1   0.8395  0.6564  0.5036  11.00000  0.05    0.12
Q14   1   0.7191  0.9967  0.4703  11.00000  0.05    0.12
Q15   1   0.5537  1.0219  0.2828  11.00000  0.05    0.12
Q16   1   0.4189 -0.2353  0.0196  11.00000  0.05    0.12
Q17   1   0.6005  0.7076  0.2166  11.00000  0.05    0.12
Q18   1  -0.1215 -0.3191  0.0556  11.00000  0.05    0.12
Q19   1   0.0822 -0.3971  0.2949  11.00000  0.05    0.12
Q20   1  -0.1478 -0.2998  0.1388  11.00000  0.05    0.12
;
_shelx_res_checksum              43567
loop_
_space_group_symop_operation_xyz
'x, y, z'
'-x, y+1/2, -z'
loop_
_atom_site_label
_atom_site_type_symbol
_atom_site_fract_x
_atom_site_fract_y
_atom_site_fract_z
_atom_site_U_iso_or_equiv
_atom_site_adp_type
_atom_site_occupancy
_atom_site_site_symmetry_order
_atom_site_calc_flag
_atom_site_refinement_flags_posn
Cl1 Cl 0.90425(8) 1.2900(3) 0.39245(7) 0.0566(3) Uani 1 1 d .
N1 N 0.4472(2) 0.4382(5) 0.30673(18) 0.0322(6) Uani 1 1 d .
N2 N 0.5816(3) 0.5969(6) 0.13779(19) 0.0412(7) Uani 1 1 d .
C9 C 0.6216(3) 0.7162(6) 0.2402(2) 0.0323(7) Uani 1 1 d .
C14 C 0.5536(3) 0.6352(7) 0.3242(2) 0.0315(6) Uani 1 1 d .
C7 C 0.4092(3) 0.3247(7) 0.2086(2) 0.0320(7) Uani 1 1 d .
C10 C 0.7307(3) 0.9213(7) 0.2614(2) 0.0388(7) Uani 1 1 d .
H10 H 0.7756 0.9766 0.2063 0.047 Uiso 1 1 calc R
C6 C 0.2934(3) 0.1111(6) 0.1878(2) 0.0338(6) Uani 1 1 d .
C11 C 0.7697(3) 1.0378(6) 0.3632(3) 0.0375(7) Uani 1 1 d .
C12 C 0.7030(3) 0.9595(7) 0.4477(2) 0.0409(7) Uani 1 1 d .
H12 H 0.7313 1.0420 0.5168 0.049 Uiso 1 1 calc R
C1 C 0.2243(3) 0.0441(7) 0.2715(3) 0.0427(8) Uani 1 1 d .
H1 H 0.2516 0.1345 0.3392 0.051 Uiso 1 1 calc R
C5 C 0.2483(3) -0.0263(7) 0.0878(2) 0.0435(8) Uani 1 1 d .
H5 H 0.2921 0.0153 0.0305 0.052 Uiso 1 1 calc R
C8 C 0.4791(3) 0.4098(7) 0.1241(2) 0.0405(8) Uani 1 1 d .
H8 H 0.4495 0.3265 0.0552 0.049 Uiso 1 1 calc R
C13 C 0.5976(3) 0.7639(8) 0.4282(2) 0.0392(8) Uani 1 1 d .
H13 H 0.5534 0.7133 0.4842 0.047 Uiso 1 1 calc R
C2 C 0.1165(3) -0.1537(8) 0.2552(3) 0.0494(9) Uani 1 1 d .
H2 H 0.0723 -0.1968 0.3121 0.059 Uiso 1 1 calc R
C4 C 0.1398(3) -0.2233(10) 0.0719(3) 0.0510(8) Uani 1 1 d .
H4 H 0.1111 -0.3131 0.0042 0.061 Uiso 1 1 calc R
C3 C 0.0734(3) -0.2883(7) 0.1557(3) 0.0507(10) Uani 1 1 d .
H3 H 0.0003 -0.4218 0.1449 0.061 Uiso 1 1 calc R
loop_
_atom_site_aniso_label
_atom_site_aniso_U_11
_atom_site_aniso_U_22
_atom_site_aniso_U_33
_atom_site_aniso_U_23
_atom_site_aniso_U_13
_atom_site_aniso_U_12
Cl1 0.0444(4) 0.0439(5) 0.0785(6) -0.0009(5) 0.0084(4) -0.0088(4)
N1 0.0334(12) 0.0341(14) 0.0291(13) 0.0015(11) 0.0078(9) 0.0022(11)
N2 0.0428(14) 0.0507(18) 0.0310(13) 0.0026(13) 0.0108(10) -0.0008(14)
C9 0.0313(14) 0.0341(19) 0.0317(15) 0.0044(12) 0.0080(11) 0.0055(12)
C14 0.0334(14) 0.0319(16) 0.0300(15) 0.0045(13) 0.0092(11) 0.0036(13)
C7 0.0322(13) 0.0335(19) 0.0295(14) 0.0041(14) 0.0059(10) 0.0051(14)
C10 0.0353(15) 0.0417(18) 0.0415(17) 0.0100(15) 0.0134(13) 0.0026(15)
C6 0.0323(14) 0.0319(16) 0.0365(15) 0.0016(14) 0.0066(11) 0.0063(13)
C11 0.0293(14) 0.0314(17) 0.0495(19) 0.0037(14) 0.0044(13) 0.0023(13)
C12 0.0421(17) 0.0419(19) 0.0376(17) -0.0047(15) 0.0072(13) -0.0007(15)
C1 0.0399(17) 0.047(2) 0.0412(17) -0.0026(15) 0.0098(13) -0.0020(15)
C5 0.0487(19) 0.044(2) 0.0367(17) -0.0027(16) 0.0077(14) 0.0009(17)
C8 0.0427(16) 0.048(2) 0.0301(16) -0.0024(14) 0.0077(12) -0.0021(16)
C13 0.0412(15) 0.044(2) 0.0339(15) 0.0006(16) 0.0123(12) -0.0020(17)
C2 0.0412(17) 0.050(2) 0.059(2) 0.0062(18) 0.0146(15) -0.0018(17)
C4 0.0512(18) 0.047(2) 0.0487(19) -0.0078(18) -0.0011(15) -0.003(2)
C3 0.0395(17) 0.044(2) 0.063(2) 0.0004(17) 0.0004(15) -0.0050(15)
loop_
_atom_type_symbol
_atom_type_description
_atom_type_scat_dispersion_real
_atom_type_scat_dispersion_imag
_atom_type_scat_source
C C 0.0033 0.0016 'International Tables Vol C Tables 4.2.6.8 and 6.1.1.4'
H H 0.0000 0.0000 'International Tables Vol C Tables 4.2.6.8 and 6.1.1.4'
N N 0.0061 0.0033 'International Tables Vol C Tables 4.2.6.8 and 6.1.1.4'
O O 0.0106 0.0060 'International Tables Vol C Tables 4.2.6.8 and 6.1.1.4'
Cl Cl 0.1484 0.1585 'International Tables Vol C Tables 4.2.6.8 and 6.1.1.4'
loop_
_geom_angle_atom_site_label_1
_geom_angle_atom_site_label_2
_geom_angle_atom_site_label_3
_geom_angle
C7 N1 C14 117.8(2)
C8 N2 C9 116.3(2)
N2 C9 C14 120.3(3)
N2 C9 C10 119.8(2)
C10 C9 C14 119.9(3)
N1 C14 C9 121.6(3)
N1 C14 C13 119.8(2)
C13 C14 C9 118.5(3)
N1 C7 C6 118.7(2)
N1 C7 C8 119.9(3)
C8 C7 C6 121.4(3)
C9 C10 H10 120.4
C11 C10 C9 119.3(3)
C11 C10 H10 120.4
C1 C6 C7 119.3(3)
C5 C6 C7 123.0(3)
C5 C6 C1 117.7(3)
C10 C11 Cl1 120.5(2)
C10 C11 C12 121.5(3)
C12 C11 Cl1 118.0(2)
C11 C12 H12 120.1
C13 C12 C11 119.7(3)
C13 C12 H12 120.1
C6 C1 H1 119.6
C2 C1 C6 120.9(3)
C2 C1 H1 119.6
C6 C5 H5 119.5
C4 C5 C6 121.0(3)
C4 C5 H5 119.5
N2 C8 C7 124.0(3)
N2 C8 H8 118.0
C7 C8 H8 118.0
C14 C13 H13 119.5
C12 C13 C14 121.0(3)
C12 C13 H13 119.5
C1 C2 H2 119.7
C1 C2 C3 120.6(3)
C3 C2 H2 119.7
C5 C4 H4 119.8
C5 C4 C3 120.5(3)
C3 C4 H4 119.8
C2 C3 C4 119.3(3)
C2 C3 H3 120.4
C4 C3 H3 120.4
loop_
_geom_bond_atom_site_label_1
_geom_bond_atom_site_label_2
_geom_bond_distance
Cl1 C11 1.734(3)
N1 C14 1.363(4)
N1 C7 1.311(3)
N2 C9 1.370(3)
N2 C8 1.305(4)
C9 C14 1.411(4)
C9 C10 1.407(4)
C14 C13 1.409(4)
C7 C6 1.479(4)
C7 C8 1.433(4)
C10 H10 0.9300
C10 C11 1.358(4)
C6 C1 1.398(4)
C6 C5 1.387(4)
C11 C12 1.404(4)
C12 H12 0.9300
C12 C13 1.350(5)
C1 H1 0.9300
C1 C2 1.374(4)
C5 H5 0.9300
C5 C4 1.377(5)
C8 H8 0.9300
C13 H13 0.9300
C2 H2 0.9300
C2 C3 1.375(5)
C4 H4 0.9300
C4 C3 1.379(5)
C3 H3 0.9300
