#------------------------------------------------------------------------------
#$Date: 2017-02-04 16:14:36 +0200 (Sat, 04 Feb 2017) $
#$Revision: 191746 $
#$URL: file:///home/coder/svn-repositories/cod/cif/7/15/53/7155325.cif $
#------------------------------------------------------------------------------
#
# This file is available in the Crystallography Open Database (COD),
# http://www.crystallography.net/
#
# All data on this site have been placed in the public domain by the
# contributors.
#
data_7155325
loop_
_publ_author_name
'Vayer, Marie'
'Fang, Weizhen'
'Guillot, R\'egis'
'Bezzenine-Lafoll\'ee, Sophie'
'Bour, Christophe'
'Gandon, Vincent'
_publ_section_title
;
 Acid-catalysed intramolecular addition of \b-ketoesters to 1,3-dienes.
;
_journal_issue                   3
_journal_name_full               'Organic &amp; biomolecular chemistry'
_journal_page_first              584
_journal_page_last               588
_journal_paper_doi               10.1039/c6ob02122k
_journal_volume                  15
_journal_year                    2017
_chemical_formula_moiety         'C12 H18 O3'
_chemical_formula_sum            'C12 H18 O3'
_chemical_formula_weight         210.26
_space_group_crystal_system      triclinic
_space_group_IT_number           2
_space_group_name_Hall           '-P 1'
_space_group_name_H-M_alt        'P -1'
_symmetry_cell_setting           triclinic
_symmetry_Int_Tables_number      2
_symmetry_space_group_name_Hall  '-P 1'
_symmetry_space_group_name_H-M   'P -1'
_atom_sites_solution_hydrogens   geom
_audit_block_doi                 10.5517/cc12lvvc
_audit_creation_method           SHELXL-2014/7
_audit_update_record
;
2016-06-03 deposited with the CCDC.
2016-10-18 downloaded from the CCDC.
;
_cell_angle_alpha                77.266(2)
_cell_angle_beta                 86.338(2)
_cell_angle_gamma                88.215(2)
_cell_formula_units_Z            2
_cell_length_a                   7.3024(6)
_cell_length_b                   8.6519(8)
_cell_length_c                   8.9513(6)
_cell_measurement_reflns_used    1461
_cell_measurement_temperature    100(1)
_cell_measurement_theta_max      29.85
_cell_measurement_theta_min      2.41
_cell_volume                     550.42(8)
_computing_cell_refinement       'Bruker SAINT'
_computing_data_collection       'Bruker APEX2'
_computing_data_reduction        'Bruker SAINT'
_computing_structure_refinement  'SHELXL-2014/7 (Sheldrick, 2014)'
_computing_structure_solution    'SHELXS-97 (Sheldrick, 2008)'
_diffrn_ambient_temperature      100(1)
_diffrn_measured_fraction_theta_full 0.910
_diffrn_measured_fraction_theta_max 0.713
_diffrn_measurement_device_type  'Bruker APEX-II CCD'
_diffrn_measurement_method       '\f and \w scans'
_diffrn_radiation_monochromator  graphite
_diffrn_radiation_probe          x-ray
_diffrn_radiation_type           MoK\a
_diffrn_radiation_wavelength     0.71073
_diffrn_reflns_av_R_equivalents  0.0237
_diffrn_reflns_av_unetI/netI     0.0362
_diffrn_reflns_limit_h_max       9
_diffrn_reflns_limit_h_min       -9
_diffrn_reflns_limit_k_max       11
_diffrn_reflns_limit_k_min       -11
_diffrn_reflns_limit_l_max       11
_diffrn_reflns_limit_l_min       -8
_diffrn_reflns_number            5638
_diffrn_reflns_theta_full        25.000
_diffrn_reflns_theta_max         30.490
_diffrn_reflns_theta_min         2.337
_diffrn_source                   'fine-focus sealed tube'
_diffrn_source_type              'kappa X8 APEX II Bruker ICMMO'
_exptl_absorpt_coefficient_mu    0.090
_exptl_absorpt_correction_T_max  0.9981
_exptl_absorpt_correction_T_min  0.9912
_exptl_absorpt_correction_type   multi-scan
_exptl_absorpt_process_details   SADABS
_exptl_crystal_colour            colorless
_exptl_crystal_density_diffrn    1.269
_exptl_crystal_description       plate
_exptl_crystal_F_000             228
_exptl_crystal_size_max          0.110
_exptl_crystal_size_mid          0.060
_exptl_crystal_size_min          0.010
_refine_diff_density_max         0.314
_refine_diff_density_min         -0.213
_refine_diff_density_rms         0.044
_refine_ls_extinction_method     none
_refine_ls_goodness_of_fit_ref   1.010
_refine_ls_hydrogen_treatment    constr
_refine_ls_matrix_type           full
_refine_ls_number_parameters     140
_refine_ls_number_reflns         2395
_refine_ls_number_restraints     0
_refine_ls_restrained_S_all      1.010
_refine_ls_R_factor_all          0.0661
_refine_ls_R_factor_gt           0.0429
_refine_ls_shift/su_max          0.000
_refine_ls_shift/su_mean         0.000
_refine_ls_structure_factor_coef Fsqd
_refine_ls_weighting_details
'w=1/[\s^2^(Fo^2^)+(0.0550P)^2^+0.1099P] where P=(Fo^2^+2Fc^2^)/3'
_refine_ls_weighting_scheme      calc
_refine_ls_wR_factor_gt          0.1016
_refine_ls_wR_factor_ref         0.1137
_reflns_Friedel_coverage         0.000
_reflns_number_gt                1751
_reflns_number_total             2395
_reflns_threshold_expression     'I > 2\s(I)'
_cod_data_source_file            c6ob02122k2.cif
_cod_data_source_block           1979GuillotICMMO
_cod_depositor_comments
'Adding full bibliography for 7155325--7155326.cif.'
_cod_database_code               7155325
_shelx_space_group_comment
;
The symmetry employed for this shelxl refinement is uniquely defined
by the following loop, which should always be used as a source of
symmetry information in preference to the above space-group names.
They are only intended as comments.
;
_shelx_estimated_absorpt_t_min   0.990
_shelx_estimated_absorpt_t_max   0.999
_shelx_res_file
;

    shelx.res created by SHELXL-2014/7

TITL 1979expFangGandonLCM_0m in P-1
CELL  0.71073   7.3024   8.6519   8.9513   77.266   86.338   88.215
ZERR     2.00   0.0006   0.0008   0.0006    0.002    0.002    0.002
LATT   1
SFAC  C    H    O
UNIT  24 36 6
MERG   2
FMAP   2
PLAN   20
SIZE     0.010   0.060   0.110
ACTA    50.00
BOND
WPDB  -2
L.S.   4
TEMP    20.00
WGHT    0.055000    0.109900
FVAR       0.30312
MOLE    1
C1    1    0.679058    0.838653    0.627325    11.00000    0.03108    0.02133 =
         0.02877   -0.00925   -0.00280   -0.00561
AFIX 137
H1A   2    0.744912    0.852098    0.529143    11.00000   -1.50000
H1B   2    0.554535    0.875232    0.613459    11.00000   -1.50000
H1C   2    0.680276    0.728526    0.677645    11.00000   -1.50000
AFIX   0
C2    1    0.769430    0.933194    0.724420    11.00000    0.02070    0.01532 =
         0.02332   -0.00500   -0.00081   -0.00030
AFIX  13
H2    2    0.697061    0.923032    0.822025    11.00000   -1.20000
AFIX   0
C3    1    0.790670    1.107095    0.652211    11.00000    0.02013    0.01578 =
         0.02171   -0.00302   -0.00223   -0.00002
AFIX  23
H3A   2    0.670923    1.156131    0.631895    11.00000   -1.20000
H3B   2    0.862426    1.119493    0.555446    11.00000   -1.20000
AFIX   0
C4    1    0.885772    1.187340    0.759648    11.00000    0.01877    0.01158 =
         0.01953   -0.00306   -0.00116    0.00039
AFIX  13
H4    2    0.808943    1.174593    0.855265    11.00000   -1.20000
AFIX   0
C5    1    1.068059    1.102779    0.797364    11.00000    0.01958    0.01218 =
         0.01544   -0.00321   -0.00114    0.00161
C6    1    1.088016    0.934570    0.796304    11.00000    0.02301    0.01281 =
         0.01765   -0.00295    0.00075   -0.00002
C7    1    0.913982    1.363470    0.697611    11.00000    0.02277    0.01158 =
         0.03139   -0.00120   -0.00559    0.00164
AFIX  23
H7A   2    0.795992    1.418470    0.690785    11.00000   -1.20000
H7B   2    0.973341    1.380828    0.595364    11.00000   -1.20000
AFIX   0
C8    1    1.031744    1.429100    0.802160    11.00000    0.02408    0.01169 =
         0.03209   -0.00630   -0.00190    0.00126
AFIX  23
H8A   2    0.973490    1.407804    0.904901    11.00000   -1.20000
H8B   2    1.038768    1.543156    0.766276    11.00000   -1.20000
AFIX   0
C9    1    1.226782    1.357702    0.808539    11.00000    0.02105    0.01164 =
         0.02138   -0.00306   -0.00253   -0.00119
C10   1    1.219558    1.180025    0.821816    11.00000    0.01943    0.01509 =
         0.01491   -0.00230   -0.00117    0.00177
C11   1    1.318447    1.394890    0.944708    11.00000    0.03177    0.01859 =
         0.03059   -0.00670   -0.00820   -0.00190
AFIX 137
H11A  2    1.248962    1.349588    1.037936    11.00000   -1.50000
H11B  2    1.323268    1.507661    0.933404    11.00000   -1.50000
H11C  2    1.440787    1.350819    0.948464    11.00000   -1.50000
AFIX   0
C12   1    1.342763    1.428817    0.660973    11.00000    0.02784    0.01780 =
         0.02616   -0.00240    0.00186   -0.00481
AFIX 137
H12A  2    1.463591    1.381662    0.666299    11.00000   -1.50000
H12B  2    1.351219    1.541215    0.650729    11.00000   -1.50000
H12C  2    1.285775    1.407901    0.573909    11.00000   -1.50000
AFIX   0
O1    3    0.950028    0.856873    0.755175    11.00000    0.02256    0.01276 =
         0.03011   -0.00714   -0.00390    0.00039
O2    3    1.230508    0.856054    0.827224    11.00000    0.02444    0.01416 =
         0.03379   -0.00530   -0.00342    0.00416
O3    3    1.380913    1.106118    0.854372    11.00000    0.01965    0.01564 =
         0.03320   -0.00399   -0.00478    0.00204
AFIX 147
H3    2    1.372805    1.012055    0.853310    11.00000   -1.50000
AFIX   0
HKLF    4

REM  1979expFangGandonLCM_0m in P-1
REM R1 =  0.0429 for    1751 Fo > 4sig(Fo)  and  0.0661 for all    2395 data
REM    140 parameters refined using      0 restraints

END

WGHT      0.0550      0.1099

REM Highest difference peak  0.314,  deepest hole -0.213,  1-sigma level  0.044
Q1    1   1.0758  1.0250  0.7950  11.00000  0.05    0.31
Q2    1   0.8918  1.2777  0.7275  11.00000  0.05    0.26
Q3    1   0.7803  1.0273  0.6921  11.00000  0.05    0.24
Q4    1   1.2128  1.2780  0.8160  11.00000  0.05    0.22
Q5    1   1.1314  1.3898  0.8130  11.00000  0.05    0.21
Q6    1   0.7240  0.8950  0.6665  11.00000  0.05    0.19
Q7    1   1.1360  1.1286  0.8379  11.00000  0.05    0.19
Q8    1   1.3046  0.9212  0.8418  11.00000  0.05    0.18
Q9    1   0.8520  1.1412  0.6956  11.00000  0.05    0.17
Q10   1   0.9784  1.1379  0.7743  11.00000  0.05    0.16
Q11   1   0.8138  1.1565  0.5350  11.00000  0.05    0.14
Q12   1   1.2477  0.7625  0.8062  11.00000  0.05    0.14
Q13   1   0.9828  0.8446  0.6653  11.00000  0.05    0.13
Q14   1   0.7935  1.4270  0.6179  11.00000  0.05    0.13
Q15   1   1.0067  0.9037  0.7658  11.00000  0.05    0.12
Q16   1   0.7376  0.6800  0.6770  11.00000  0.05    0.12
Q17   1   1.5033  1.2814  0.5550  11.00000  0.05    0.12
Q18   1   0.7277  0.7166  0.6028  11.00000  0.05    0.12
Q19   1   1.1328  1.0834  0.6410  11.00000  0.05    0.12
Q20   1   1.3688  1.3628  0.5930  11.00000  0.05    0.12
;
_shelx_res_checksum              30297
loop_
_space_group_symop_operation_xyz
'x, y, z'
'-x, -y, -z'
loop_
_atom_site_label
_atom_site_type_symbol
_atom_site_fract_x
_atom_site_fract_y
_atom_site_fract_z
_atom_site_U_iso_or_equiv
_atom_site_adp_type
_atom_site_occupancy
_atom_site_site_symmetry_order
_atom_site_calc_flag
_atom_site_refinement_flags_posn
_atom_site_refinement_flags_adp
C1 C 0.6791(2) 0.83865(18) 0.6273(2) 0.0263(4) Uani 1 1 d . .
H1A H 0.7449 0.8521 0.5291 0.039 Uiso 1 1 calc R U
H1B H 0.5545 0.8752 0.6135 0.039 Uiso 1 1 calc R U
H1C H 0.6803 0.7285 0.6776 0.039 Uiso 1 1 calc R U
C2 C 0.7694(2) 0.93319(16) 0.72442(18) 0.0197(4) Uani 1 1 d . .
H2 H 0.6971 0.9230 0.8220 0.024 Uiso 1 1 calc R U
C3 C 0.7907(2) 1.10710(16) 0.65221(18) 0.0193(3) Uani 1 1 d . .
H3A H 0.6709 1.1561 0.6319 0.023 Uiso 1 1 calc R U
H3B H 0.8624 1.1195 0.5554 0.023 Uiso 1 1 calc R U
C4 C 0.8858(2) 1.18734(15) 0.75965(18) 0.0167(3) Uani 1 1 d . .
H4 H 0.8089 1.1746 0.8553 0.020 Uiso 1 1 calc R U
C5 C 1.0681(2) 1.10278(15) 0.79736(17) 0.0157(3) Uani 1 1 d . .
C6 C 1.0880(2) 0.93457(16) 0.79630(18) 0.0180(3) Uani 1 1 d . .
C7 C 0.9140(2) 1.36347(16) 0.6976(2) 0.0223(4) Uani 1 1 d . .
H7A H 0.7960 1.4185 0.6908 0.027 Uiso 1 1 calc R U
H7B H 0.9733 1.3808 0.5954 0.027 Uiso 1 1 calc R U
C8 C 1.0317(2) 1.42910(16) 0.8022(2) 0.0224(4) Uani 1 1 d . .
H8A H 0.9735 1.4078 0.9049 0.027 Uiso 1 1 calc R U
H8B H 1.0388 1.5432 0.7663 0.027 Uiso 1 1 calc R U
C9 C 1.2268(2) 1.35770(15) 0.80854(18) 0.0180(3) Uani 1 1 d . .
C10 C 1.2196(2) 1.18002(16) 0.82182(17) 0.0167(3) Uani 1 1 d . .
C11 C 1.3184(2) 1.39489(18) 0.9447(2) 0.0265(4) Uani 1 1 d . .
H11A H 1.2490 1.3496 1.0379 0.040 Uiso 1 1 calc R U
H11B H 1.3233 1.5077 0.9334 0.040 Uiso 1 1 calc R U
H11C H 1.4408 1.3508 0.9485 0.040 Uiso 1 1 calc R U
C12 C 1.3428(2) 1.42882(17) 0.66097(19) 0.0244(4) Uani 1 1 d . .
H12A H 1.4636 1.3817 0.6663 0.037 Uiso 1 1 calc R U
H12B H 1.3512 1.5412 0.6507 0.037 Uiso 1 1 calc R U
H12C H 1.2858 1.4079 0.5739 0.037 Uiso 1 1 calc R U
O1 O 0.95003(15) 0.85687(11) 0.75517(13) 0.0213(3) Uani 1 1 d . .
O2 O 1.23051(15) 0.85605(11) 0.82722(13) 0.0241(3) Uani 1 1 d . .
O3 O 1.38091(14) 1.10612(11) 0.85437(13) 0.0229(3) Uani 1 1 d . .
H3 H 1.3728 1.0121 0.8533 0.034 Uiso 1 1 calc R U
loop_
_atom_site_aniso_label
_atom_site_aniso_U_11
_atom_site_aniso_U_22
_atom_site_aniso_U_33
_atom_site_aniso_U_23
_atom_site_aniso_U_13
_atom_site_aniso_U_12
C1 0.0311(9) 0.0213(7) 0.0288(10) -0.0093(6) -0.0028(7) -0.0056(6)
C2 0.0207(8) 0.0153(7) 0.0233(9) -0.0050(5) -0.0008(6) -0.0003(5)
C3 0.0201(8) 0.0158(6) 0.0217(9) -0.0030(5) -0.0022(6) 0.0000(5)
C4 0.0188(7) 0.0116(6) 0.0195(8) -0.0031(5) -0.0012(6) 0.0004(5)
C5 0.0196(7) 0.0122(6) 0.0154(8) -0.0032(5) -0.0011(6) 0.0016(5)
C6 0.0230(8) 0.0128(6) 0.0176(9) -0.0030(5) 0.0007(6) 0.0000(5)
C7 0.0228(8) 0.0116(6) 0.0314(10) -0.0012(6) -0.0056(7) 0.0016(5)
C8 0.0241(8) 0.0117(6) 0.0321(10) -0.0063(6) -0.0019(7) 0.0013(5)
C9 0.0210(8) 0.0116(6) 0.0214(9) -0.0031(5) -0.0025(6) -0.0012(5)
C10 0.0194(7) 0.0151(6) 0.0149(8) -0.0023(5) -0.0012(6) 0.0018(5)
C11 0.0318(9) 0.0186(7) 0.0306(11) -0.0067(6) -0.0082(7) -0.0019(6)
C12 0.0278(9) 0.0178(7) 0.0262(10) -0.0024(6) 0.0019(7) -0.0048(6)
O1 0.0226(6) 0.0128(5) 0.0301(7) -0.0071(4) -0.0039(5) 0.0004(4)
O2 0.0244(6) 0.0142(5) 0.0338(7) -0.0053(4) -0.0034(5) 0.0042(4)
O3 0.0197(6) 0.0156(5) 0.0332(7) -0.0040(4) -0.0048(5) 0.0020(4)
loop_
_atom_type_symbol
_atom_type_description
_atom_type_scat_dispersion_real
_atom_type_scat_dispersion_imag
_atom_type_scat_source
C C 0.0033 0.0016 'International Tables Vol C Tables 4.2.6.8 and 6.1.1.4'
H H 0.0000 0.0000 'International Tables Vol C Tables 4.2.6.8 and 6.1.1.4'
O O 0.0106 0.0060 'International Tables Vol C Tables 4.2.6.8 and 6.1.1.4'
loop_
_geom_angle_atom_site_label_1
_geom_angle_atom_site_label_2
_geom_angle_atom_site_label_3
_geom_angle
O1 C2 C3 110.42(11)
O1 C2 C1 105.61(12)
C3 C2 C1 114.89(13)
C2 C3 C4 109.59(12)
C3 C4 C7 113.84(12)
C3 C4 C5 108.93(12)
C7 C4 C5 110.54(12)
C10 C5 C6 117.87(13)
C10 C5 C4 122.62(12)
C6 C5 C4 119.35(13)
O2 C6 O1 115.79(12)
O2 C6 C5 123.69(14)
O1 C6 C5 120.49(13)
C4 C7 C8 110.15(12)
C7 C8 C9 112.84(13)
C10 C9 C11 110.77(12)
C10 C9 C8 109.81(11)
C11 C9 C8 109.39(13)
C10 C9 C12 107.80(12)
C11 C9 C12 108.43(13)
C8 C9 C12 110.63(12)
O3 C10 C5 122.85(12)
O3 C10 C9 112.92(12)
C5 C10 C9 124.18(13)
C6 O1 C2 121.42(11)
loop_
_geom_bond_atom_site_label_1
_geom_bond_atom_site_label_2
_geom_bond_distance
C1 C2 1.510(2)
C2 O1 1.4707(17)
C2 C3 1.5095(18)
C3 C4 1.516(2)
C4 C7 1.5182(18)
C4 C5 1.520(2)
C5 C10 1.364(2)
C5 C6 1.4601(19)
C6 O2 1.2372(17)
C6 O1 1.3422(18)
C7 C8 1.518(2)
C8 C9 1.534(2)
C9 C10 1.5178(18)
C9 C11 1.526(2)
C9 C12 1.540(2)
C10 O3 1.3405(17)
