#------------------------------------------------------------------------------
#$Date: 2016-05-06 05:15:04 +0300 (Fri, 06 May 2016) $
#$Revision: 182788 $
#$URL: svn://www.crystallography.net/cod/cif/7/15/50/7155051.cif $
#------------------------------------------------------------------------------
#
# This file is available in the Crystallography Open Database (COD),
# http://www.crystallography.net/
#
# All data on this site have been placed in the public domain by the
# contributors.
#
data_7155051
loop_
_publ_author_name
'Naumovich, Yana A.'
'Buckland, Victoria Emily'
'Sen'ko, Dmitry A.'
'Nelyubina, Yulia V.'
'Khoroshutina, Yulia A.'
'Sukhorukov, Alexey Yu'
'Ioffe, Sema L.'
_publ_section_title
;
 Metal-assisted addition of a nitrate anion to bis(oxy)enamines. A general
 approach to the synthesis of \a-nitroxy-oxime derivatives from
 nitronates.
;
_journal_issue                   16
_journal_name_full               'Organic &amp; biomolecular chemistry'
_journal_page_first              3963
_journal_page_last               3974
_journal_paper_doi               10.1039/c6ob00388e
_journal_volume                  14
_journal_year                    2016
_chemical_formula_moiety         'C14 H18 N2 O6'
_chemical_formula_sum            'C14 H18 N2 O6'
_chemical_formula_weight         310.30
_space_group_crystal_system      triclinic
_space_group_IT_number           2
_space_group_name_Hall           '-P 1'
_space_group_name_H-M_alt        'P -1'
_symmetry_space_group_name_Hall  '-P 1'
_symmetry_space_group_name_H-M   'P -1'
_atom_sites_solution_hydrogens   geom
_audit_creation_method           SHELXL-2014/6
_audit_update_record
;
2015-08-17 deposited with the CCDC.
2016-03-29 downloaded from the CCDC.
;
_cell_angle_alpha                112.826(2)
_cell_angle_beta                 90.743(2)
_cell_angle_gamma                102.195(2)
_cell_formula_units_Z            2
_cell_length_a                   5.1957(4)
_cell_length_b                   12.0390(9)
_cell_length_c                   12.8927(10)
_cell_measurement_reflns_used    2054
_cell_measurement_temperature    120(2)
_cell_measurement_theta_max      30
_cell_measurement_theta_min      3
_cell_volume                     722.48(10)
_computing_cell_refinement       'APEX2 (Bruker, 2005)'
_computing_data_collection       'APEX2 (Bruker, 2005)'
_computing_data_reduction        'APEX2 (Bruker, 2005)'
_computing_molecular_graphics    'SHELXL-2014/6 (Sheldrick, 2014)'
_computing_publication_material  'SHELXL-2014/6 (Sheldrick, 2014)'
_computing_structure_refinement  'SHELXL-2014/6 (Sheldrick, 2014)'
_computing_structure_solution    'APEX2 (Bruker, 2005)'
_diffrn_ambient_temperature      120(2)
_diffrn_measured_fraction_theta_full 0.999
_diffrn_measured_fraction_theta_max 0.998
_diffrn_measurement_device_type  'Bruker SMART APEX2 CCD area detector'
_diffrn_measurement_method       'phi and omega scans'
_diffrn_radiation_type           MoK\a
_diffrn_radiation_wavelength     0.71073
_diffrn_reflns_av_R_equivalents  0.0253
_diffrn_reflns_av_unetI/netI     0.0390
_diffrn_reflns_Laue_measured_fraction_full 0.999
_diffrn_reflns_Laue_measured_fraction_max 0.998
_diffrn_reflns_limit_h_max       7
_diffrn_reflns_limit_h_min       -7
_diffrn_reflns_limit_k_max       16
_diffrn_reflns_limit_k_min       -16
_diffrn_reflns_limit_l_max       17
_diffrn_reflns_limit_l_min       -17
_diffrn_reflns_number            8717
_diffrn_reflns_point_group_measured_fraction_full 0.999
_diffrn_reflns_point_group_measured_fraction_max 0.998
_diffrn_reflns_theta_full        25.242
_diffrn_reflns_theta_max         28.989
_diffrn_reflns_theta_min         1.723
_exptl_absorpt_coefficient_mu    0.113
_exptl_absorpt_correction_type   none
_exptl_crystal_colour            colorless
_exptl_crystal_density_diffrn    1.426
_exptl_crystal_description       prism
_exptl_crystal_F_000             328
_exptl_crystal_size_max          0.350
_exptl_crystal_size_mid          0.150
_exptl_crystal_size_min          0.150
_refine_diff_density_max         0.368
_refine_diff_density_min         -0.235
_refine_diff_density_rms         0.052
_refine_ls_extinction_method     none
_refine_ls_goodness_of_fit_ref   1.009
_refine_ls_hydrogen_treatment    constr
_refine_ls_matrix_type           full
_refine_ls_number_parameters     199
_refine_ls_number_reflns         3824
_refine_ls_number_restraints     0
_refine_ls_restrained_S_all      1.009
_refine_ls_R_factor_all          0.0609
_refine_ls_R_factor_gt           0.0442
_refine_ls_shift/su_max          0.000
_refine_ls_shift/su_mean         0.000
_refine_ls_structure_factor_coef Fsqd
_refine_ls_weighting_details
'w=1/[\s^2^(Fo^2^)+(0.1000P)^2^] where P=(Fo^2^+2Fc^2^)/3'
_refine_ls_weighting_scheme      calc
_refine_ls_wR_factor_gt          0.1313
_refine_ls_wR_factor_ref         0.1493
_reflns_Friedel_coverage         0.000
_reflns_number_gt                3020
_reflns_number_total             3824
_reflns_threshold_expression     'I > 2\s(I)'
_cod_data_source_file            c6ob00388e2.cif
_cod_data_source_block           NY41
_cod_depositor_comments          'Adding full bibliography for 7155051.cif.'
_cod_database_code               7155051
_shelx_space_group_comment
;
The symmetry employed for this shelxl refinement is uniquely defined
by the following loop, which should always be used as a source of
symmetry information in preference to the above space-group names.
They are only intended as comments.
;
_shelx_estimated_absorpt_t_min   0.962
_shelx_estimated_absorpt_t_max   0.983
_shelxl_version_number           2014/6
_shelx_res_file
;
TITL a in P-1
CELL 0.71073   5.1957  12.0390  12.8927 112.826  90.743 102.195
ZERR    2.00   0.0004   0.0009   0.0010   0.002   0.002   0.002
LATT  1
SFAC C H N O
UNIT 28 36 4 12
TEMP -153.000
size 0.15 0.15 0.35
L.S. 4
BOND $h
htab
conf
FMAP 2
PLAN 20
omit -4 58
acta
WGHT    0.100000
FVAR       0.30659
N1    3    0.387817    0.823702    0.270757    11.00000    0.01747    0.01305 =
         0.01471    0.00572    0.00064    0.00246
N2    3    0.222402    0.568015    0.215567    11.00000    0.02148    0.01456 =
         0.02668    0.00805    0.00234    0.00307
O1    4    0.594861    0.932660    0.307741    11.00000    0.01557    0.01396 =
         0.01768    0.00602   -0.00362    0.00236
O2    4    0.342202    1.081515    0.339524    11.00000    0.01833    0.01802 =
         0.00947    0.00297    0.00030    0.00730
O3    4    0.010829    0.627113    0.234157    11.00000    0.02143    0.01909 =
         0.02297    0.01185    0.00740    0.00622
O4    4    0.316715    0.546606    0.126860    11.00000    0.03136    0.02490 =
         0.02714    0.00745    0.01135    0.00967
O5    4    0.278419    0.542624    0.293101    11.00000    0.03482    0.02471 =
         0.03431    0.01841   -0.00090    0.00522
O6    4    0.122685    0.651146   -0.354900    11.00000    0.02203    0.01892 =
         0.00988    0.00276    0.00174    0.00731
C1    1    0.214860    0.805084    0.190864    11.00000    0.01465    0.01401 =
         0.01064    0.00426    0.00304    0.00440
C2    1    0.544245    1.032908    0.281683    11.00000    0.01604    0.01339 =
         0.01273    0.00551    0.00088    0.00328
AFIX  13
H2A   2    0.709863    1.100209    0.302315    11.00000   -1.20000
AFIX   0
C3    1    0.461474    0.986402    0.157019    11.00000    0.01572    0.01445 =
         0.01093    0.00513    0.00127    0.00336
AFIX  23
H3A   2    0.602783    0.952703    0.113338    11.00000   -1.20000
H3B   2    0.433421    1.055679    0.138409    11.00000   -1.20000
AFIX   0
C4    1    0.204125    0.884625    0.124787    11.00000    0.01241    0.01408 =
         0.00972    0.00451    0.00115    0.00384
AFIX  13
H4A   2    0.052661    0.925212    0.147066    11.00000   -1.20000
AFIX   0
C5    1    0.406771    1.142985    0.460650    11.00000    0.02613    0.02172 =
         0.00919    0.00394   -0.00016    0.00926
AFIX  23
H5A   2    0.561844    1.213875    0.479494    11.00000   -1.20000
H5B   2    0.450942    1.084635    0.491105    11.00000   -1.20000
AFIX   0
C6    1    0.170128    1.187917    0.511674    11.00000    0.03229    0.03438 =
         0.01548    0.00609    0.00553    0.01672
AFIX  33
H6A   2    0.209713    1.230048    0.594076    11.00000   -1.50000
H6B   2    0.128506    1.245875    0.481308    11.00000   -1.50000
H6C   2    0.018001    1.117098    0.492878    11.00000   -1.50000
AFIX   0
C7    1   -0.007630    0.690826    0.161182    11.00000    0.01797    0.01759 =
         0.01931    0.01022    0.00039    0.00039
AFIX  23
H7A   2   -0.179056    0.715186    0.166818    11.00000   -1.20000
H7B   2   -0.003852    0.633634    0.081867    11.00000   -1.20000
AFIX   0
C8    1    0.164165    0.809979   -0.002632    11.00000    0.01222    0.01201 =
         0.01119    0.00414    0.00104    0.00167
C9    1   -0.007290    0.833749   -0.071854    11.00000    0.01088    0.01285 =
         0.01397    0.00421    0.00176    0.00360
AFIX  43
H9A   2   -0.117905    0.888748   -0.037954    11.00000   -1.20000
AFIX   0
C10   1   -0.019306    0.778969   -0.188506    11.00000    0.01293    0.01503 =
         0.01428    0.00682   -0.00033    0.00322
AFIX  43
H10A  2   -0.135718    0.797074   -0.233967    11.00000   -1.20000
AFIX   0
C11   1    0.140503    0.696818   -0.239336    11.00000    0.01461    0.01172 =
         0.01076    0.00339    0.00112    0.00049
C12   1    0.305683    0.668123   -0.172247    11.00000    0.01563    0.01335 =
         0.01445    0.00458    0.00281    0.00502
AFIX  43
H12A  2    0.409890    0.610047   -0.206259    11.00000   -1.20000
AFIX   0
C13   1    0.316612    0.725236   -0.055120    11.00000    0.01512    0.01597 =
         0.01440    0.00667    0.00017    0.00417
AFIX  43
H13A  2    0.430803    0.706071   -0.009660    11.00000   -1.20000
AFIX   0
C14   1    0.292558    0.570957   -0.409114    11.00000    0.02571    0.02227 =
         0.01406    0.00121    0.00424    0.00906
AFIX  33
H14A  2    0.262459    0.544227   -0.491289    11.00000   -1.50000
H14B  2    0.477725    0.615571   -0.383003    11.00000   -1.50000
H14C  2    0.253705    0.498212   -0.390138    11.00000   -1.50000

AFIX   0
HKLF 4

REM  a in P-1
REM R1 =  0.0442 for    3020 Fo > 4sig(Fo)  and  0.0609 for all    3824 data
REM    199 parameters refined using      0 restraints

END

WGHT      0.0491      0.1960

REM Instructions for potential hydrogen bonds
EQIV $1 -x+1, -y+1, -z
HTAB C12 O5_$1

REM Highest difference peak  0.368,  deepest hole -0.235,  1-sigma level  0.052
Q1    1   0.1867  0.8468  0.0580  11.00000  0.05    0.37
Q2    1   0.0765  0.7419 -0.2147  11.00000  0.05    0.35
Q3    1   0.2193  0.8448  0.1561  11.00000  0.05    0.33
Q4    1   0.4896  1.0051  0.2205  11.00000  0.05    0.32
Q5    1   0.3206  0.9420  0.1525  11.00000  0.05    0.32
Q6    1   0.0413  0.7978 -0.0370  11.00000  0.05    0.31
Q7    1   0.2460  0.7081 -0.2022  11.00000  0.05    0.30
Q8    1   0.1193  0.7474  0.1742  11.00000  0.05    0.30
Q9    1   0.1004  0.8458 -0.0284  11.00000  0.05    0.29
Q10   1   0.2612  0.7805 -0.0254  11.00000  0.05    0.26
Q11   1   0.0387  0.8273 -0.1285  11.00000  0.05    0.25
Q12   1   0.3519  0.7920  0.2068  11.00000  0.05    0.25
Q13   1   0.2994  0.6915 -0.1121  11.00000  0.05    0.24
Q14   1   0.1448  0.6768 -0.2922  11.00000  0.05    0.23
Q15   1   0.5699  0.9802  0.2986  11.00000  0.05    0.23
Q16   1   0.2755  0.8358  0.2440  11.00000  0.05    0.22
Q17   1  -0.0617  0.7787 -0.1323  11.00000  0.05    0.21
Q18   1   0.3938  1.1173  0.3992  11.00000  0.05    0.21
Q19   1  -0.0974  0.6567  0.0905  11.00000  0.05    0.20
Q20   1   0.6843  0.9618  0.3638  11.00000  0.05    0.19
;
_shelx_res_checksum              12171
loop_
_space_group_symop_operation_xyz
'x, y, z'
'-x, -y, -z'
loop_
_atom_site_label
_atom_site_type_symbol
_atom_site_fract_x
_atom_site_fract_y
_atom_site_fract_z
_atom_site_U_iso_or_equiv
_atom_site_adp_type
_atom_site_occupancy
_atom_site_site_symmetry_order
_atom_site_calc_flag
_atom_site_refinement_flags_posn
_atom_site_refinement_flags_adp
N1 N 0.3878(2) 0.82370(11) 0.27076(10) 0.0152(3) Uani 1 1 d . .
N2 N 0.2224(3) 0.56801(12) 0.21557(12) 0.0212(3) Uani 1 1 d . .
O1 O 0.59486(19) 0.93266(9) 0.30774(9) 0.0161(2) Uani 1 1 d . .
O2 O 0.3422(2) 1.08151(10) 0.33952(8) 0.0156(2) Uani 1 1 d . .
O3 O 0.0108(2) 0.62711(10) 0.23416(9) 0.0198(3) Uani 1 1 d . .
O4 O 0.3167(2) 0.54661(11) 0.12686(10) 0.0282(3) Uani 1 1 d . .
O5 O 0.2784(2) 0.54262(11) 0.29310(11) 0.0295(3) Uani 1 1 d . .
O6 O 0.1227(2) 0.65115(10) -0.35490(9) 0.0175(2) Uani 1 1 d . .
C1 C 0.2149(3) 0.80508(13) 0.19086(12) 0.0131(3) Uani 1 1 d . .
C2 C 0.5442(3) 1.03291(13) 0.28168(12) 0.0140(3) Uani 1 1 d . .
H2A H 0.7099 1.1002 0.3023 0.017 Uiso 1 1 calc R U
C3 C 0.4615(3) 0.98640(13) 0.15702(12) 0.0137(3) Uani 1 1 d . .
H3A H 0.6028 0.9527 0.1133 0.016 Uiso 1 1 calc R U
H3B H 0.4334 1.0557 0.1384 0.016 Uiso 1 1 calc R U
C4 C 0.2041(3) 0.88462(13) 0.12479(12) 0.0120(3) Uani 1 1 d . .
H4A H 0.0527 0.9252 0.1471 0.014 Uiso 1 1 calc R U
C5 C 0.4068(3) 1.14299(15) 0.46065(12) 0.0191(3) Uani 1 1 d . .
H5A H 0.5618 1.2139 0.4795 0.023 Uiso 1 1 calc R U
H5B H 0.4509 1.0846 0.4911 0.023 Uiso 1 1 calc R U
C6 C 0.1701(3) 1.18792(17) 0.51167(14) 0.0271(4) Uani 1 1 d . .
H6A H 0.2097 1.2300 0.5941 0.041 Uiso 1 1 calc R U
H6B H 0.1285 1.2459 0.4813 0.041 Uiso 1 1 calc R U
H6C H 0.0180 1.1171 0.4929 0.041 Uiso 1 1 calc R U
C7 C -0.0076(3) 0.69083(14) 0.16118(13) 0.0180(3) Uani 1 1 d . .
H7A H -0.1791 0.7152 0.1668 0.022 Uiso 1 1 calc R U
H7B H -0.0039 0.6336 0.0819 0.022 Uiso 1 1 calc R U
C8 C 0.1642(3) 0.80998(13) -0.00263(12) 0.0122(3) Uani 1 1 d . .
C9 C -0.0073(3) 0.83375(13) -0.07185(12) 0.0128(3) Uani 1 1 d . .
H9A H -0.1179 0.8887 -0.0380 0.015 Uiso 1 1 calc R U
C10 C -0.0193(3) 0.77897(13) -0.18851(12) 0.0138(3) Uani 1 1 d . .
H10A H -0.1357 0.7971 -0.2340 0.017 Uiso 1 1 calc R U
C11 C 0.1405(3) 0.69682(13) -0.23934(12) 0.0131(3) Uani 1 1 d . .
C12 C 0.3057(3) 0.66812(13) -0.17225(12) 0.0145(3) Uani 1 1 d . .
H12A H 0.4099 0.6100 -0.2063 0.017 Uiso 1 1 calc R U
C13 C 0.3166(3) 0.72524(13) -0.05512(12) 0.0149(3) Uani 1 1 d . .
H13A H 0.4308 0.7061 -0.0097 0.018 Uiso 1 1 calc R U
C14 C 0.2926(3) 0.57096(15) -0.40911(13) 0.0220(3) Uani 1 1 d . .
H14A H 0.2625 0.5442 -0.4913 0.033 Uiso 1 1 calc R U
H14B H 0.4777 0.6156 -0.3830 0.033 Uiso 1 1 calc R U
H14C H 0.2537 0.4982 -0.3901 0.033 Uiso 1 1 calc R U
loop_
_atom_site_aniso_label
_atom_site_aniso_U_11
_atom_site_aniso_U_22
_atom_site_aniso_U_33
_atom_site_aniso_U_23
_atom_site_aniso_U_13
_atom_site_aniso_U_12
N1 0.0175(6) 0.0130(6) 0.0147(6) 0.0057(5) 0.0006(5) 0.0025(5)
N2 0.0215(7) 0.0146(6) 0.0267(7) 0.0080(5) 0.0023(5) 0.0031(5)
O1 0.0156(5) 0.0140(5) 0.0177(5) 0.0060(4) -0.0036(4) 0.0024(4)
O2 0.0183(5) 0.0180(5) 0.0095(5) 0.0030(4) 0.0003(4) 0.0073(4)
O3 0.0214(6) 0.0191(5) 0.0230(6) 0.0118(5) 0.0074(4) 0.0062(4)
O4 0.0314(7) 0.0249(6) 0.0271(7) 0.0075(5) 0.0114(5) 0.0097(5)
O5 0.0348(7) 0.0247(6) 0.0343(7) 0.0184(6) -0.0009(5) 0.0052(5)
O6 0.0220(5) 0.0189(5) 0.0099(5) 0.0028(4) 0.0017(4) 0.0073(4)
C1 0.0147(6) 0.0140(7) 0.0106(6) 0.0043(5) 0.0030(5) 0.0044(5)
C2 0.0160(7) 0.0134(6) 0.0127(7) 0.0055(5) 0.0009(5) 0.0033(5)
C3 0.0157(7) 0.0144(7) 0.0109(6) 0.0051(5) 0.0013(5) 0.0034(5)
C4 0.0124(6) 0.0141(6) 0.0097(6) 0.0045(5) 0.0012(5) 0.0038(5)
C5 0.0261(8) 0.0217(8) 0.0092(7) 0.0039(6) -0.0002(6) 0.0093(6)
C6 0.0323(9) 0.0344(10) 0.0155(8) 0.0061(7) 0.0055(7) 0.0167(8)
C7 0.0180(7) 0.0176(7) 0.0193(7) 0.0102(6) 0.0004(6) 0.0004(6)
C8 0.0122(6) 0.0120(6) 0.0112(6) 0.0041(5) 0.0010(5) 0.0017(5)
C9 0.0109(6) 0.0128(6) 0.0140(7) 0.0042(5) 0.0018(5) 0.0036(5)
C10 0.0129(6) 0.0150(7) 0.0143(7) 0.0068(5) -0.0003(5) 0.0032(5)
C11 0.0146(6) 0.0117(6) 0.0108(6) 0.0034(5) 0.0011(5) 0.0005(5)
C12 0.0156(7) 0.0133(7) 0.0145(7) 0.0046(5) 0.0028(5) 0.0050(5)
C13 0.0151(7) 0.0160(7) 0.0144(7) 0.0067(6) 0.0002(5) 0.0042(5)
C14 0.0257(8) 0.0223(8) 0.0141(7) 0.0012(6) 0.0042(6) 0.0091(7)
loop_
_atom_type_symbol
_atom_type_description
_atom_type_scat_dispersion_real
_atom_type_scat_dispersion_imag
_atom_type_scat_source
C C 0.0033 0.0016 'International Tables Vol C Tables 4.2.6.8 and 6.1.1.4'
H H 0.0000 0.0000 'International Tables Vol C Tables 4.2.6.8 and 6.1.1.4'
N N 0.0061 0.0033 'International Tables Vol C Tables 4.2.6.8 and 6.1.1.4'
O O 0.0106 0.0060 'International Tables Vol C Tables 4.2.6.8 and 6.1.1.4'
loop_
_geom_angle_atom_site_label_1
_geom_angle_atom_site_label_2
_geom_angle_atom_site_label_3
_geom_angle
C1 N1 O1 118.59(11)
O5 N2 O4 129.00(15)
O5 N2 O3 112.50(13)
O4 N2 O3 118.46(13)
N1 O1 C2 115.85(10)
C2 O2 C5 113.98(11)
N2 O3 C7 113.08(11)
C11 O6 C14 116.80(11)
N1 C1 C7 115.24(13)
N1 C1 C4 127.91(13)
C7 C1 C4 116.84(12)
O2 C2 O1 112.10(11)
O2 C2 C3 107.68(11)
O1 C2 C3 109.58(11)
O2 C2 H2A 109.1
O1 C2 H2A 109.1
C3 C2 H2A 109.1
C2 C3 C4 109.59(11)
C2 C3 H3A 109.8
C4 C3 H3A 109.8
C2 C3 H3B 109.8
C4 C3 H3B 109.8
H3A C3 H3B 108.2
C1 C4 C8 112.73(11)
C1 C4 C3 108.89(11)
C8 C4 C3 109.97(11)
C1 C4 H4A 108.4
C8 C4 H4A 108.4
C3 C4 H4A 108.4
O2 C5 C6 108.10(12)
O2 C5 H5A 110.1
C6 C5 H5A 110.1
O2 C5 H5B 110.1
C6 C5 H5B 110.1
H5A C5 H5B 108.4
C5 C6 H6A 109.5
C5 C6 H6B 109.5
H6A C6 H6B 109.5
C5 C6 H6C 109.5
H6A C6 H6C 109.5
H6B C6 H6C 109.5
O3 C7 C1 112.37(12)
O3 C7 H7A 109.1
C1 C7 H7A 109.1
O3 C7 H7B 109.1
C1 C7 H7B 109.1
H7A C7 H7B 107.9
C13 C8 C9 117.80(13)
C13 C8 C4 121.16(12)
C9 C8 C4 120.71(12)
C10 C9 C8 121.46(13)
C10 C9 H9A 119.3
C8 C9 H9A 119.3
C9 C10 C11 119.76(13)
C9 C10 H10A 120.1
C11 C10 H10A 120.1
O6 C11 C12 124.63(13)
O6 C11 C10 115.53(12)
C12 C11 C10 119.83(13)
C13 C12 C11 119.41(13)
C13 C12 H12A 120.3
C11 C12 H12A 120.3
C12 C13 C8 121.67(13)
C12 C13 H13A 119.2
C8 C13 H13A 119.2
O6 C14 H14A 109.5
O6 C14 H14B 109.5
H14A C14 H14B 109.5
O6 C14 H14C 109.5
H14A C14 H14C 109.5
H14B C14 H14C 109.5
loop_
_geom_bond_atom_site_label_1
_geom_bond_atom_site_label_2
_geom_bond_distance
N1 C1 1.2769(18)
N1 O1 1.4179(15)
N2 O5 1.2019(17)
N2 O4 1.2057(18)
N2 O3 1.4061(17)
O1 C2 1.4439(17)
O2 C2 1.3935(17)
O2 C5 1.4435(17)
O3 C7 1.4392(18)
O6 C11 1.3675(16)
O6 C14 1.4325(18)
C1 C7 1.511(2)
C1 C4 1.5166(19)
C2 C3 1.5046(19)
C2 H2A 1.0000
C3 C4 1.5363(19)
C3 H3A 0.9900
C3 H3B 0.9900
C4 C8 1.5219(18)
C4 H4A 1.0000
C5 C6 1.504(2)
C5 H5A 0.9900
C5 H5B 0.9900
C6 H6A 0.9800
C6 H6B 0.9800
C6 H6C 0.9800
C7 H7A 0.9900
C7 H7B 0.9900
C8 C13 1.395(2)
C8 C9 1.3990(19)
C9 C10 1.3825(19)
C9 H9A 0.9500
C10 C11 1.3983(19)
C10 H10A 0.9500
C11 C12 1.3935(19)
C12 C13 1.3900(19)
C12 H12A 0.9500
C13 H13A 0.9500
C14 H14A 0.9800
C14 H14B 0.9800
C14 H14C 0.9800
loop_
_geom_torsion_atom_site_label_1
_geom_torsion_atom_site_label_2
_geom_torsion_atom_site_label_3
_geom_torsion_atom_site_label_4
_geom_torsion
C1 N1 O1 C2 21.16(17)
O5 N2 O3 C7 162.34(12)
O4 N2 O3 C7 -19.65(18)
O1 N1 C1 C7 -176.58(11)
O1 N1 C1 C4 2.1(2)
C5 O2 C2 O1 66.25(15)
C5 O2 C2 C3 -173.15(11)
N1 O1 C2 O2 66.24(14)
N1 O1 C2 C3 -53.25(15)
O2 C2 C3 C4 -60.57(14)
O1 C2 C3 C4 61.61(14)
N1 C1 C4 C8 130.29(15)
C7 C1 C4 C8 -51.03(16)
N1 C1 C4 C3 8.0(2)
C7 C1 C4 C3 -173.35(12)
C2 C3 C4 C1 -38.52(15)
C2 C3 C4 C8 -162.49(11)
C2 O2 C5 C6 -178.77(12)
N2 O3 C7 C1 -70.50(15)
N1 C1 C7 O3 3.14(19)
C4 C1 C7 O3 -175.71(11)
C1 C4 C8 C13 -48.00(17)
C3 C4 C8 C13 73.72(16)
C1 C4 C8 C9 138.73(13)
C3 C4 C8 C9 -99.56(15)
C13 C8 C9 C10 -2.4(2)
C4 C8 C9 C10 171.14(12)
C8 C9 C10 C11 0.7(2)
C14 O6 C11 C12 -1.8(2)
C14 O6 C11 C10 177.38(12)
C9 C10 C11 O6 -177.49(12)
C9 C10 C11 C12 1.7(2)
O6 C11 C12 C13 176.77(12)
C10 C11 C12 C13 -2.3(2)
C11 C12 C13 C8 0.6(2)
C9 C8 C13 C12 1.7(2)
C4 C8 C13 C12 -171.78(13)
