#------------------------------------------------------------------------------
#$Date: 2017-10-05 01:19:35 +0300 (Thu, 05 Oct 2017) $
#$Revision: 201687 $
#$URL: file:///home/coder/svn-repositories/cod/cif/7/15/59/7155913.cif $
#------------------------------------------------------------------------------
#
# This file is available in the Crystallography Open Database (COD),
# http://www.crystallography.net/
#
# All data on this site have been placed in the public domain by the
# contributors.
#
data_7155913
loop_
_publ_author_name
'Przydacz, Artur'
'Kowalczyk, Rafa\/l'
'Albrecht, Lukasz'
_publ_section_title
;
 Br\/onsted-base-catalyzed Remote Cascade Reactivity of 2,4-Dienones -
 Asymmetric Synthesis of Tetrahydrothiophenes
;
_journal_name_full               'Org. Biomol. Chem.'
_journal_paper_doi               10.1039/C7OB02397A
_journal_year                    2017
_chemical_absolute_configuration ad
_chemical_formula_moiety         'C23 H22 O4 S'
_chemical_formula_sum            'C23 H22 O4 S'
_chemical_formula_weight         394.46
_chemical_name_systematic
'Phenyl 4-hydroxy-3-(3-oxocyclohex-1-en-1-yl)-4-phenyltetrahydrothiophene-2-carboxylate'
_space_group_crystal_system      triclinic
_space_group_IT_number           1
_space_group_name_Hall           'P 1'
_space_group_name_H-M_alt        'P 1'
_symmetry_space_group_name_Hall  'P 1'
_symmetry_space_group_name_H-M   'P 1'
_atom_sites_solution_hydrogens   geom
_audit_creation_method           SHELXL-2014/7
_audit_update_record
;
2017-05-10 deposited with the CCDC.
2017-10-04 downloaded from the CCDC.
;
_cell_angle_alpha                84.0710(10)
_cell_angle_beta                 82.0360(10)
_cell_angle_gamma                83.6930(10)
_cell_formula_units_Z            1
_cell_length_a                   5.6715(2)
_cell_length_b                   8.7531(2)
_cell_length_c                   10.1807(2)
_cell_measurement_reflns_used    382
_cell_measurement_temperature    100(2)
_cell_measurement_theta_max      74.4559
_cell_measurement_theta_min      8.7879
_cell_volume                     495.50(2)
_computing_cell_refinement       'APEX3 v2016.9-0 (Bruker AXS)'
_computing_data_collection       'APEX3 v2016.9-0 (Bruker AXS)'
_computing_data_reduction        'SAINT V8.37A (Bruker AXS Inc., 2015)'
_computing_molecular_graphics    'shelXle (C.B. Huebschle, rev 807)'
_computing_structure_refinement  'SHELXL-2014/7 (Sheldrick, 2014)'
_computing_structure_solution    'XT, VERSION 2014/5'
_diffrn_ambient_temperature      100(2)
_diffrn_measured_fraction_theta_full 0.981
_diffrn_measured_fraction_theta_max 0.858
_diffrn_measurement_device_type  'Bruker SMART APEX2'
_diffrn_radiation_type           CuK\a
_diffrn_radiation_wavelength     1.54178
_diffrn_reflns_av_R_equivalents  0.0150
_diffrn_reflns_av_unetI/netI     0.0215
_diffrn_reflns_Laue_measured_fraction_full 0.981
_diffrn_reflns_Laue_measured_fraction_max 0.858
_diffrn_reflns_limit_h_max       7
_diffrn_reflns_limit_h_min       -6
_diffrn_reflns_limit_k_max       10
_diffrn_reflns_limit_k_min       -11
_diffrn_reflns_limit_l_max       12
_diffrn_reflns_limit_l_min       -12
_diffrn_reflns_number            5975
_diffrn_reflns_point_group_measured_fraction_full 0.851
_diffrn_reflns_point_group_measured_fraction_max 0.732
_diffrn_reflns_theta_full        68.000
_diffrn_reflns_theta_max         84.600
_diffrn_reflns_theta_min         4.403
_diffrn_source                   'sealed X-ray microsource'
_exptl_absorpt_coefficient_mu    1.669
_exptl_absorpt_correction_T_max  0.7536
_exptl_absorpt_correction_T_min  0.5878
_exptl_absorpt_correction_type   multi-scan
_exptl_absorpt_process_details   'SADABS V2014/5 (Bruker AXS Inc.)'
_exptl_crystal_colour            'clear colourless'
_exptl_crystal_density_diffrn    1.322
_exptl_crystal_density_method    'not measured'
_exptl_crystal_description       needle
_exptl_crystal_F_000             208
_exptl_crystal_size_max          0.680
_exptl_crystal_size_mid          0.058
_exptl_crystal_size_min          0.053
_refine_diff_density_max         0.223
_refine_diff_density_min         -0.184
_refine_diff_density_rms         0.044
_refine_ls_abs_structure_details
;
 Flack x determined using 1299 quotients [(I+)-(I-)]/[(I+)+(I-)]
 (Parsons, Flack and Wagner, Acta Cryst. B69 (2013) 249-259).
;
_refine_ls_abs_structure_Flack   -0.004(9)
_refine_ls_extinction_method     none
_refine_ls_goodness_of_fit_ref   1.120
_refine_ls_hydrogen_treatment    mixed
_refine_ls_matrix_type           full
_refine_ls_number_parameters     265
_refine_ls_number_reflns         3276
_refine_ls_number_restraints     3
_refine_ls_restrained_S_all      1.119
_refine_ls_R_factor_all          0.0379
_refine_ls_R_factor_gt           0.0364
_refine_ls_shift/su_max          0.009
_refine_ls_shift/su_mean         0.000
_refine_ls_structure_factor_coef Fsqd
_refine_ls_weighting_details
'w=1/[\s^2^(Fo^2^)+(0.0241P)^2^+0.2735P] where P=(Fo^2^+2Fc^2^)/3'
_refine_ls_weighting_scheme      calc
_refine_ls_wR_factor_gt          0.0893
_refine_ls_wR_factor_ref         0.0917
_reflns_Friedel_coverage         0.704
_reflns_Friedel_fraction_full    0.721
_reflns_Friedel_fraction_max     0.605
_reflns_number_gt                3241
_reflns_number_total             3276
_reflns_threshold_expression     'I > 2\s(I)'
_cod_data_source_file            c7ob02397a2.cif
_cod_data_source_block           la_ap_320a_a
_cod_database_code               7155913
_shelx_shelxl_version_number     2014/7
_shelx_space_group_comment
;
The symmetry employed for this shelxl refinement is uniquely defined
by the following loop, which should always be used as a source of
symmetry information in preference to the above space-group names.
They are only intended as comments.
;
_d_diffrn_detector_area_resol_mean 8.3333
_shelx_res_file
;

    la_ap_320a_a.res created by SHELXL-2014/7


TITL la_ap_320a_a.res in P1
REM Old TITL la_ap_320a in P1

REM SHELXT solution in P1
REM R1 0.126,  Rweak 0.111,  Alpha 0.000,  Orientation as input
REM Flack x =  0.080 ( 0.013 ) from Parsons' quotients
REM Formula found by SHELXT:  C23 O4 S

CELL  1.54178   5.6715   8.7531  10.1807   84.071   82.036   83.693
ZERR    1.000   0.0001   0.0002   0.0002    0.001    0.001    0.001
LATT -1
SFAC C H O S
UNIT 23 22 4 1
TEMP -173
L.S. 3
BOND $H
LIST 6
FMAP 2
PLAN 5
ACTA 136
OMIT -1  -9   2
OMIT -1  -9  -1
OMIT  0   8  -3
OMIT -3   5  -1
OMIT -5  -8   2
OMIT -5  -8   1
OMIT  1   9  -2
OMIT -4 -10  -1
OMIT  1   9  -3
OMIT -1  -9  -2
OMIT -2 -11  -1
OMIT  0   9  -5
OMIT  0  -8   1
OMIT -1   7  -3
OMIT -2 -10   0
WGHT    0.024100    0.273500
FVAR       1.92303   0.64789
Part 0
S1    4    0.624766    0.816051    0.294601    11.00000    0.07004    0.05101 =
         0.03406   -0.00002   -0.01202   -0.01173
O1    3    0.909373    0.703898    0.540993    11.00000    0.03377    0.05956 =
         0.04402   -0.01477   -0.00737   -0.00394
AFIX 148
H1    2    0.959320    0.692755    0.464397    11.00000   -1.50000
AFIX   0
C1    1    0.589163    0.879518    0.460791    11.00000    0.05862    0.04330 =
         0.03510   -0.00530   -0.00904   -0.00454
AFIX  23
H1A   2    0.694548    0.961579    0.464329    11.00000   -1.20000
H1B   2    0.421448    0.920644    0.487073    11.00000   -1.20000
AFIX   0
C2    1    0.658332    0.736963    0.554285    11.00000    0.03252    0.03796 =
         0.03454   -0.00663   -0.00924   -0.00162
O2    3    0.472528    0.437622    0.220542    11.00000    0.04027    0.06039 =
         0.06161   -0.02983   -0.01007   -0.00073
C3    1    0.535439    0.605308    0.506011    11.00000    0.03170    0.03422 =
         0.03373   -0.00664   -0.00849   -0.00043
AFIX  13
H3    2    0.358816    0.631028    0.526563    11.00000   -1.20000
AFIX   0
O3    3    0.187999    0.601220    0.314007    11.00000    0.03568    0.09790 =
         0.07309   -0.05233   -0.01392    0.00759
C4    1    0.594193    0.613780    0.352756    11.00000    0.03379    0.04608 =
         0.03510   -0.00911   -0.00858   -0.00003
AFIX  13
H4    2    0.747880    0.549781    0.327512    11.00000   -1.20000
AFIX   0
O4    3    1.029132    0.122051    0.565721    11.00000    0.08703    0.06293 =
         0.12694    0.00572   -0.02222    0.02804
C5    1    0.392795    0.554220    0.295125    11.00000    0.03730    0.05160 =
         0.03162   -0.01199   -0.00509   -0.00313
C6    1    0.297756    0.358181    0.176832    11.00000    0.04320    0.05179 =
         0.05316   -0.02310   -0.00699   -0.00409
C8    1    0.095379    0.133225    0.192485    11.00000    0.08653    0.05680 =
         0.09667   -0.01880   -0.00730   -0.01999
AFIX  43
H8    2    0.069833    0.032282    0.232074    11.00000   -1.20000
AFIX   0
C7    1    0.263543    0.214454    0.236480    11.00000    0.07623    0.05565 =
         0.07920   -0.00896   -0.02276   -0.00516
AFIX  43
H7    2    0.351801    0.170547    0.306239    11.00000   -1.20000
AFIX   0
C9    1   -0.031020    0.196618    0.094424    11.00000    0.06155    0.08344 =
         0.09426   -0.04311   -0.00524   -0.02333
AFIX  43
H9    2   -0.146445    0.140665    0.066213    11.00000   -1.20000
AFIX   0
C10   1    0.005737    0.340697    0.035383    11.00000    0.08347    0.09268 =
         0.07680   -0.02105   -0.03492   -0.02251
AFIX  43
H10   2   -0.083919    0.384309   -0.033872    11.00000   -1.20000
AFIX   0
C11   1    0.172802    0.423714    0.075745    11.00000    0.07864    0.06182 =
         0.06105   -0.01106   -0.02205   -0.01957
AFIX  43
H11   2    0.200267    0.523675    0.034430    11.00000   -1.20000
AFIX   0
C12   1    0.572841    0.762306    0.699547    11.00000    0.03934    0.02601 =
         0.03671   -0.00405   -0.01020   -0.00438
C13   1    0.342434    0.826220    0.738890    11.00000    0.04171    0.04459 =
         0.03882   -0.00721   -0.01171   -0.00023
AFIX  43
H13   2    0.234532    0.852138    0.674715    11.00000   -1.20000
AFIX   0
C14   1    0.267708    0.852729    0.870613    11.00000    0.04779    0.04989 =
         0.04638   -0.01015   -0.00217    0.00159
AFIX  43
H14   2    0.110552    0.898995    0.895656    11.00000   -1.20000
AFIX   0
C15   1    0.419673    0.812472    0.965458    11.00000    0.06374    0.06458 =
         0.03270   -0.00932   -0.00541   -0.00989
AFIX  43
H15   2    0.369059    0.831764    1.055657    11.00000   -1.20000
AFIX   0
C16   1    0.646450    0.743749    0.927969    11.00000    0.05997    0.06433 =
         0.03876   -0.00045   -0.02136   -0.00448
AFIX  43
H16   2    0.750716    0.712944    0.993356    11.00000   -1.20000
AFIX   0
C17   1    0.723532    0.719252    0.796455    11.00000    0.04206    0.04574 =
         0.04161   -0.00126   -0.01293    0.00005
AFIX  43
H17   2    0.880696    0.672634    0.772025    11.00000   -1.20000
AFIX   0
C18   1    0.594980    0.448378    0.576193    11.00000    0.04423    0.03875 =
         0.03733   -0.00617   -0.01249   -0.00889
C19   1    0.788823    0.355198    0.536991    11.00000    0.05006    0.04922 =
         0.05614    0.00193   -0.00881    0.00018
AFIX  43
H19   2    0.889336    0.387486    0.458742    11.00000   -1.20000
AFIX   0
C20   1    0.855259    0.205111    0.608458    11.00000    0.06548    0.04181 =
         0.07784   -0.00230   -0.02806    0.00065
C21   1    0.704044    0.164235    0.733886    11.00000    0.12002    0.04775 =
         0.08461    0.01323   -0.02494   -0.01154
Part 1
AFIX  23
H21A  2    0.769126    0.203432    0.807903    21.00000   -1.20000
H21B  2    0.712376    0.050398    0.750035    21.00000   -1.20000
AFIX  23
Part 2
H21C  2    0.616613    0.076558    0.720033   -21.00000   -1.20000
H21D  2    0.810952    0.126682    0.801862   -21.00000   -1.20000
AFIX   0
REM #####
PART 0
C23   1    0.422591    0.402491    0.695418    11.00000    0.07925    0.05136 =
         0.05765   -0.00183    0.00895   -0.01463
Part 1
AFIX  23
H23A  2    0.257221    0.434167    0.675742    21.00000   -1.20000
H23B  2    0.449314    0.457736    0.771345    21.00000   -1.20000
AFIX  23
Part 2
H23C  2    0.282443    0.364579    0.665556   -21.00000   -1.20000
H23D  2    0.365281    0.494014    0.744730   -21.00000   -1.20000
AFIX   0
REM #####
PART 1
C22A  1    0.449631    0.226544    0.735345    21.00000    0.10419    0.02905 =
         0.07256    0.01034    0.00194   -0.02036
AFIX  23
H22A  2    0.363545    0.205208    0.825734    21.00000   -1.20000
H22B  2    0.375216    0.173168    0.672866    21.00000   -1.20000
AFIX   0
PART 2
C22B  1    0.536563    0.278409    0.786934   -21.00000    0.10954    0.08703 =
         0.05330   -0.00275    0.00392   -0.01549
AFIX  23
H22C  2    0.615178    0.330400    0.848527   -21.00000   -1.20000
H22D  2    0.405927    0.225612    0.841603   -21.00000   -1.20000
PART 0
REM #####
AFIX   0
HKLF 4

REM  la_ap_320a_a.res in P1
REM R1 =  0.0364 for    3241 Fo > 4sig(Fo)  and  0.0379 for all    3276 data
REM    265 parameters refined using      3 restraints

END

WGHT      0.0226      0.2561

REM Highest difference peak  0.223,  deepest hole -0.184,  1-sigma level  0.044
Q1    1   0.5906  0.8936  0.2193  11.00000  0.05    0.22
Q2    1   0.5967  0.8565  0.3832  11.00000  0.05    0.20
Q3    1   0.5430  0.5241  0.5333  11.00000  0.05    0.19
Q4    1   0.6594  0.4054  0.5188  11.00000  0.05    0.19
Q5    1   0.5857  0.6966  0.5256  11.00000  0.05    0.18
;
_shelx_res_checksum              9493
loop_
_space_group_symop_operation_xyz
'x, y, z'
loop_
_atom_site_label
_atom_site_type_symbol
_atom_site_fract_x
_atom_site_fract_y
_atom_site_fract_z
_atom_site_U_iso_or_equiv
_atom_site_adp_type
_atom_site_occupancy
_atom_site_site_symmetry_order
_atom_site_calc_flag
_atom_site_refinement_flags_posn
_atom_site_refinement_flags_adp
_atom_site_refinement_flags_occupancy
_atom_site_disorder_assembly
_atom_site_disorder_group
S1 S 0.62477(15) 0.81605(11) 0.29460(9) 0.0510(3) Uani 1 1 d . . . . .
O1 O 0.9094(4) 0.7039(3) 0.5410(3) 0.0449(6) Uani 1 1 d . . . . .
H1 H 0.959(3) 0.693(6) 0.464(5) 0.067 Uiso 1 1 calc R U . . .
C1 C 0.5892(7) 0.8795(5) 0.4608(3) 0.0453(9) Uani 1 1 d . . . . .
H1A H 0.6945 0.9616 0.4643 0.054 Uiso 1 1 calc R U . . .
H1B H 0.4214 0.9206 0.4871 0.054 Uiso 1 1 calc R U . . .
C2 C 0.6583(6) 0.7370(4) 0.5543(3) 0.0344(7) Uani 1 1 d . . . . .
O2 O 0.4725(4) 0.4376(3) 0.2205(3) 0.0523(7) Uani 1 1 d . . . . .
C3 C 0.5354(6) 0.6053(4) 0.5060(3) 0.0328(7) Uani 1 1 d . . . . .
H3 H 0.3588 0.6310 0.5266 0.039 Uiso 1 1 calc R U . . .
O3 O 0.1880(5) 0.6012(4) 0.3140(3) 0.0661(10) Uani 1 1 d . . . . .
C4 C 0.5942(6) 0.6138(4) 0.3528(3) 0.0378(8) Uani 1 1 d . . . . .
H4 H 0.7479 0.5498 0.3275 0.045 Uiso 1 1 calc R U . . .
O4 O 1.0291(7) 0.1221(5) 0.5657(5) 0.0951(13) Uani 1 1 d . . . . .
C5 C 0.3928(6) 0.5542(5) 0.2951(3) 0.0396(8) Uani 1 1 d . . . . .
C6 C 0.2978(7) 0.3582(5) 0.1768(4) 0.0480(10) Uani 1 1 d . . . . .
C8 C 0.0954(11) 0.1332(7) 0.1925(6) 0.0786(15) Uani 1 1 d . . . . .
H8 H 0.0698 0.0323 0.2321 0.094 Uiso 1 1 calc R U . . .
C7 C 0.2635(10) 0.2145(6) 0.2365(6) 0.0690(13) Uani 1 1 d . . . . .
H7 H 0.3518 0.1705 0.3062 0.083 Uiso 1 1 calc R U . . .
C9 C -0.0310(9) 0.1966(7) 0.0944(6) 0.0765(16) Uani 1 1 d . . . . .
H9 H -0.1464 0.1407 0.0662 0.092 Uiso 1 1 calc R U . . .
C10 C 0.0057(10) 0.3407(7) 0.0354(6) 0.0800(16) Uani 1 1 d . . . . .
H10 H -0.0839 0.3843 -0.0339 0.096 Uiso 1 1 calc R U . . .
C11 C 0.1728(10) 0.4237(6) 0.0757(5) 0.0646(12) Uani 1 1 d . . . . .
H11 H 0.2003 0.5237 0.0344 0.077 Uiso 1 1 calc R U . . .
C12 C 0.5728(6) 0.7623(4) 0.6995(3) 0.0333(7) Uani 1 1 d . . . . .
C13 C 0.3424(6) 0.8262(4) 0.7389(4) 0.0411(8) Uani 1 1 d . . . . .
H13 H 0.2345 0.8521 0.6747 0.049 Uiso 1 1 calc R U . . .
C14 C 0.2677(7) 0.8527(5) 0.8706(4) 0.0484(9) Uani 1 1 d . . . . .
H14 H 0.1106 0.8990 0.8957 0.058 Uiso 1 1 calc R U . . .
C15 C 0.4197(8) 0.8125(5) 0.9655(4) 0.0531(10) Uani 1 1 d . . . . .
H15 H 0.3691 0.8318 1.0557 0.064 Uiso 1 1 calc R U . . .
C16 C 0.6465(8) 0.7437(5) 0.9280(4) 0.0533(10) Uani 1 1 d . . . . .
H16 H 0.7507 0.7129 0.9934 0.064 Uiso 1 1 calc R U . . .
C17 C 0.7235(6) 0.7193(5) 0.7965(4) 0.0429(8) Uani 1 1 d . . . . .
H17 H 0.8807 0.6726 0.7720 0.052 Uiso 1 1 calc R U . . .
C18 C 0.5950(6) 0.4484(4) 0.5762(3) 0.0389(8) Uani 1 1 d . . . . .
C19 C 0.7888(7) 0.3552(5) 0.5370(4) 0.0525(10) Uani 1 1 d . . . . .
H19 H 0.8893 0.3875 0.4587 0.063 Uiso 1 1 calc R U . . .
C20 C 0.8553(8) 0.2051(5) 0.6085(5) 0.0606(11) Uani 1 1 d . . . . .
C21 C 0.7040(12) 0.1642(6) 0.7339(6) 0.0841(17) Uani 1 1 d . . . . .
H21A H 0.7691 0.2034 0.8079 0.101 Uiso 0.65(2) 1 calc R U P A 1
H21B H 0.7124 0.0504 0.7500 0.101 Uiso 0.65(2) 1 calc R U P A 1
H21C H 0.6166 0.0766 0.7200 0.101 Uiso 0.35(2) 1 calc R U P A 2
H21D H 0.8110 0.1267 0.8019 0.101 Uiso 0.35(2) 1 calc R U P A 2
C23 C 0.4226(9) 0.4025(6) 0.6954(5) 0.0640(12) Uani 1 1 d . . . . .
H23A H 0.2572 0.4342 0.6757 0.077 Uiso 0.65(2) 1 calc R U P A 1
H23B H 0.4493 0.4577 0.7713 0.077 Uiso 0.65(2) 1 calc R U P A 1
H23C H 0.2824 0.3646 0.6656 0.077 Uiso 0.35(2) 1 calc R U P A 2
H23D H 0.3653 0.4940 0.7447 0.077 Uiso 0.35(2) 1 calc R U P A 2
C22A C 0.450(2) 0.2265(10) 0.7353(13) 0.070(4) Uani 0.65(2) 1 d . . P A 1
H22A H 0.3635 0.2052 0.8257 0.084 Uiso 0.65(2) 1 calc R U P A 1
H22B H 0.3752 0.1732 0.6729 0.084 Uiso 0.65(2) 1 calc R U P A 1
C22B C 0.537(5) 0.278(3) 0.7869(18) 0.084(8) Uani 0.35(2) 1 d . . P A 2
H22C H 0.6152 0.3304 0.8485 0.101 Uiso 0.35(2) 1 calc R U P A 2
H22D H 0.4059 0.2256 0.8416 0.101 Uiso 0.35(2) 1 calc R U P A 2
loop_
_atom_site_aniso_label
_atom_site_aniso_U_11
_atom_site_aniso_U_22
_atom_site_aniso_U_33
_atom_site_aniso_U_23
_atom_site_aniso_U_13
_atom_site_aniso_U_12
S1 0.0700(6) 0.0510(6) 0.0341(4) 0.0000(4) -0.0120(4) -0.0117(5)
O1 0.0338(12) 0.0596(19) 0.0440(13) -0.0148(13) -0.0074(10) -0.0039(11)
C1 0.059(2) 0.043(2) 0.0351(17) -0.0053(15) -0.0090(16) -0.0045(18)
C2 0.0325(16) 0.038(2) 0.0345(16) -0.0066(14) -0.0092(13) -0.0016(14)
O2 0.0403(14) 0.060(2) 0.0616(16) -0.0298(14) -0.0101(12) -0.0007(13)
C3 0.0317(15) 0.0342(19) 0.0337(15) -0.0066(13) -0.0085(12) -0.0004(13)
O3 0.0357(15) 0.098(3) 0.0731(19) -0.0523(18) -0.0139(13) 0.0076(15)
C4 0.0338(17) 0.046(2) 0.0351(17) -0.0091(15) -0.0086(13) 0.0000(15)
O4 0.087(3) 0.063(3) 0.127(3) 0.006(2) -0.022(2) 0.028(2)
C5 0.0373(19) 0.052(2) 0.0316(16) -0.0120(15) -0.0051(13) -0.0031(16)
C6 0.043(2) 0.052(3) 0.053(2) -0.0231(19) -0.0070(17) -0.0041(18)
C8 0.087(4) 0.057(3) 0.097(4) -0.019(3) -0.007(3) -0.020(3)
C7 0.076(3) 0.056(3) 0.079(3) -0.009(2) -0.023(3) -0.005(2)
C9 0.062(3) 0.083(4) 0.094(4) -0.043(3) -0.005(3) -0.023(3)
C10 0.083(4) 0.093(5) 0.077(3) -0.021(3) -0.035(3) -0.023(3)
C11 0.079(3) 0.062(3) 0.061(3) -0.011(2) -0.022(2) -0.020(2)
C12 0.0393(17) 0.0260(18) 0.0367(16) -0.0041(13) -0.0102(13) -0.0044(13)
C13 0.0417(19) 0.045(2) 0.0388(17) -0.0072(15) -0.0117(14) -0.0002(16)
C14 0.048(2) 0.050(3) 0.046(2) -0.0101(17) -0.0022(16) 0.0016(18)
C15 0.064(3) 0.065(3) 0.0327(18) -0.0093(18) -0.0054(17) -0.010(2)
C16 0.060(2) 0.064(3) 0.0388(18) -0.0004(19) -0.0214(17) -0.004(2)
C17 0.0421(19) 0.046(2) 0.0416(18) -0.0013(16) -0.0129(15) 0.0001(16)
C18 0.0442(19) 0.039(2) 0.0373(17) -0.0062(15) -0.0125(14) -0.0089(16)
C19 0.050(2) 0.049(3) 0.056(2) 0.0019(19) -0.0088(18) 0.0002(18)
C20 0.065(3) 0.042(3) 0.078(3) -0.002(2) -0.028(2) 0.001(2)
C21 0.120(5) 0.048(3) 0.085(4) 0.013(3) -0.025(3) -0.012(3)
C23 0.079(3) 0.051(3) 0.058(3) -0.002(2) 0.009(2) -0.015(2)
C22A 0.104(7) 0.029(4) 0.073(6) 0.010(4) 0.002(5) -0.020(4)
C22B 0.110(16) 0.087(16) 0.053(9) -0.003(9) 0.004(9) -0.015(12)
loop_
_atom_type_symbol
_atom_type_description
_atom_type_scat_dispersion_real
_atom_type_scat_dispersion_imag
_atom_type_scat_source
C C 0.0181 0.0091 'International Tables Vol C Tables 4.2.6.8 and 6.1.1.4'
H H 0.0000 0.0000 'International Tables Vol C Tables 4.2.6.8 and 6.1.1.4'
O O 0.0492 0.0322 'International Tables Vol C Tables 4.2.6.8 and 6.1.1.4'
S S 0.3331 0.5567 'International Tables Vol C Tables 4.2.6.8 and 6.1.1.4'
loop_
_geom_angle_atom_site_label_1
_geom_angle_atom_site_label_2
_geom_angle_atom_site_label_3
_geom_angle
C1 S1 C4 94.34(17)
C2 O1 H1 109.5
C2 C1 S1 106.5(3)
C2 C1 H1A 110.4
S1 C1 H1A 110.4
C2 C1 H1B 110.4
S1 C1 H1B 110.4
H1A C1 H1B 108.6
O1 C2 C12 107.6(3)
O1 C2 C1 110.3(3)
C12 C2 C1 111.7(3)
O1 C2 C3 111.3(3)
C12 C2 C3 112.2(3)
C1 C2 C3 103.8(3)
C5 O2 C6 116.8(3)
C18 C3 C4 114.5(3)
C18 C3 C2 113.8(3)
C4 C3 C2 107.1(3)
C18 C3 H3 107.0
C4 C3 H3 107.0
C2 C3 H3 107.0
C5 C4 C3 109.1(3)
C5 C4 S1 111.2(3)
C3 C4 S1 107.0(2)
C5 C4 H4 109.8
C3 C4 H4 109.8
S1 C4 H4 109.8
O3 C5 O2 122.8(3)
O3 C5 C4 125.5(3)
O2 C5 C4 111.7(3)
C7 C6 C11 121.9(4)
C7 C6 O2 117.6(4)
C11 C6 O2 120.5(4)
C9 C8 C7 120.6(6)
C9 C8 H8 119.7
C7 C8 H8 119.7
C6 C7 C8 118.3(5)
C6 C7 H7 120.9
C8 C7 H7 120.9
C8 C9 C10 120.4(5)
C8 C9 H9 119.8
C10 C9 H9 119.8
C9 C10 C11 120.4(5)
C9 C10 H10 119.8
C11 C10 H10 119.8
C6 C11 C10 118.4(5)
C6 C11 H11 120.8
C10 C11 H11 120.8
C13 C12 C17 118.4(3)
C13 C12 C2 121.1(3)
C17 C12 C2 120.6(3)
C14 C13 C12 120.8(3)
C14 C13 H13 119.6
C12 C13 H13 119.6
C15 C14 C13 120.4(4)
C15 C14 H14 119.8
C13 C14 H14 119.8
C14 C15 C16 119.2(4)
C14 C15 H15 120.4
C16 C15 H15 120.4
C15 C16 C17 120.7(4)
C15 C16 H16 119.6
C17 C16 H16 119.6
C16 C17 C12 120.5(4)
C16 C17 H17 119.8
C12 C17 H17 119.8
C19 C18 C23 121.3(4)
C19 C18 C3 123.0(3)
C23 C18 C3 115.7(3)
C18 C19 C20 123.5(4)
C18 C19 H19 118.2
C20 C19 H19 118.2
O4 C20 C21 122.6(5)
O4 C20 C19 120.9(5)
C21 C20 C19 116.5(4)
C22B C21 C20 118.1(9)
C20 C21 C22A 113.8(6)
C20 C21 H21A 108.8
C22A C21 H21A 108.8
C20 C21 H21B 108.8
C22A C21 H21B 108.8
H21A C21 H21B 107.7
C22B C21 H21C 107.8
C20 C21 H21C 107.8
C22B C21 H21D 107.8
C20 C21 H21D 107.8
H21C C21 H21D 107.1
C18 C23 C22B 111.6(8)
C18 C23 C22A 112.3(5)
C18 C23 H23A 109.1
C22A C23 H23A 109.1
C18 C23 H23B 109.1
C22A C23 H23B 109.1
H23A C23 H23B 107.9
C18 C23 H23C 109.3
C22B C23 H23C 109.3
C18 C23 H23D 109.3
C22B C23 H23D 109.3
H23C C23 H23D 108.0
C21 C22A C23 112.0(7)
C21 C22A H22A 109.2
C23 C22A H22A 109.2
C21 C22A H22B 109.2
C23 C22A H22B 109.2
H22A C22A H22B 107.9
C21 C22B C23 119.9(13)
C21 C22B H22C 107.3
C23 C22B H22C 107.3
C21 C22B H22D 107.3
C23 C22B H22D 107.3
H22C C22B H22D 106.9
loop_
_geom_bond_atom_site_label_1
_geom_bond_atom_site_label_2
_geom_bond_distance
S1 C1 1.813(4)
S1 C4 1.827(4)
O1 C2 1.412(4)
O1 H1 0.80(5)
C1 C2 1.539(5)
C1 H1A 0.9900
C1 H1B 0.9900
C2 C12 1.522(4)
C2 C3 1.563(5)
O2 C5 1.336(4)
O2 C6 1.415(5)
C3 C18 1.508(5)
C3 C4 1.545(4)
C3 H3 1.0000
O3 C5 1.185(4)
C4 C5 1.517(5)
C4 H4 1.0000
O4 C20 1.216(6)
C6 C7 1.361(7)
C6 C11 1.372(6)
C8 C9 1.347(9)
C8 C7 1.396(7)
C8 H8 0.9500
C7 H7 0.9500
C9 C10 1.364(8)
C9 H9 0.9500
C10 C11 1.384(7)
C10 H10 0.9500
C11 H11 0.9500
C12 C13 1.386(5)
C12 C17 1.390(5)
C13 C14 1.385(5)
C13 H13 0.9500
C14 C15 1.376(6)
C14 H14 0.9500
C15 C16 1.380(6)
C15 H15 0.9500
C16 C17 1.381(5)
C16 H16 0.9500
C17 H17 0.9500
C18 C19 1.335(6)
C18 C23 1.499(5)
C19 C20 1.472(6)
C19 H19 0.9500
C20 C21 1.471(8)
C21 C22B 1.40(2)
C21 C22A 1.484(13)
C21 H21A 0.9900
C21 H21B 0.9900
C21 H21C 0.9900
C21 H21D 0.9900
C23 C22B 1.51(2)
C23 C22A 1.548(9)
C23 H23A 0.9900
C23 H23B 0.9900
C23 H23C 0.9900
C23 H23D 0.9900
C22A H22A 0.9900
C22A H22B 0.9900
C22B H22C 0.9900
C22B H22D 0.9900
