#------------------------------------------------------------------------------
#$Date: 2016-09-10 02:48:18 +0300 (Sat, 10 Sep 2016) $
#$Revision: 186476 $
#$URL: file:///home/coder/svn-repositories/cod/cif/7/15/52/7155208.cif $
#------------------------------------------------------------------------------
#
# This file is available in the Crystallography Open Database (COD),
# http://www.crystallography.net/
#
# All data on this site have been placed in the public domain by the
# contributors.
#
data_7155208
loop_
_publ_author_name
'Close, Adam J.'
'Jones, Rhiannon N.'
'Ocasio, Cory A.'
'Kemmitt, Paul'
'Roe, S. Mark'
'Spencer, John'
_publ_section_title
;
 Elaboration of tetra-orthogonally-substituted aromatic scaffolds towards
 novel EGFR-kinase inhibitors.
;
_journal_issue                   35
_journal_name_full               'Organic &amp; biomolecular chemistry'
_journal_page_first              8246
_journal_page_last               8252
_journal_paper_doi               10.1039/c6ob01394e
_journal_volume                  14
_journal_year                    2016
_chemical_absolute_configuration ad
_chemical_compound_source        'synthesis as described'
_chemical_formula_moiety         'C7 H3 Br1 F1 N1 O3'
_chemical_formula_sum            'C7 H3 Br F N O3'
_chemical_formula_weight         248.01
_chemical_name_systematic        5-bromo-4-fluoro-2-nitrobenzaldehyde
_space_group_IT_number           4
_symmetry_cell_setting           monoclinic
_symmetry_Int_Tables_number      4
_symmetry_space_group_name_Hall  'P 2yb'
_symmetry_space_group_name_H-M   'P 1 21 1'
_atom_sites_solution_hydrogens   geom
_atom_sites_solution_primary     direct
_atom_sites_solution_secondary   difmap
_audit_conform_dict_location     ftp://ftp.iucr.org/pub/cif_core.dic
_audit_conform_dict_name         cif_core.dic
_audit_conform_dict_version      2.4
_audit_creation_date             2013-06-25T17:12:35-00:00
_audit_creation_method           'WinGX routine CIF_UPDATE'
_audit_update_record
;
2016-06-13 deposited with the CCDC.
2016-07-19 downloaded from the CCDC.
;
_cell_angle_alpha                90
_cell_angle_beta                 95.211(2)
_cell_angle_gamma                90
_cell_formula_units_Z            2
_cell_length_a                   4.9191(2)
_cell_length_b                   6.2146(2)
_cell_length_c                   13.1151(6)
_cell_measurement_reflns_used    525
_cell_measurement_temperature    173(2)
_cell_measurement_theta_max      27.485
_cell_measurement_theta_min      0.998
_cell_measurement_wavelength     0.71073
_cell_volume                     399.27(3)
_computing_cell_refinement       'HKL Scalepack (Otwinowski & Minor 1997)'
_computing_data_collection       'Collect (Bruker AXS BV, 1997-2004)'
_computing_data_reduction
'HKL Denzo and Scalepack (Otwinowski & Minor 1997)'
_computing_molecular_graphics    'Ortep-3 for Windows (Farrugia, 1997)'
_computing_publication_material  'WinGX publication routines (Farrugia, 1999)'
_computing_structure_refinement  'SHELXL-97 (Sheldrick, 1997)'
_computing_structure_solution    'SHELXS-97 (Sheldrick, 1990)'
_diffrn_ambient_temperature      173(2)
_diffrn_detector                 'CCD plate'
_diffrn_detector_area_resol_mean 9
_diffrn_measured_fraction_theta_full 0.9901
_diffrn_measured_fraction_theta_max 0.6144
_diffrn_measurement_device       '95mm CCD camera on \k-goniostat'
_diffrn_measurement_device_type  KappaCCD
_diffrn_measurement_method       'CCD rotation images, thick slices'
_diffrn_orient_matrix_type       'by Bruker AXS Collect from scalepack cell'
_diffrn_orient_matrix_UB_11      0.2987E-3
_diffrn_orient_matrix_UB_12      0.104744
_diffrn_orient_matrix_UB_13      0.578922E-1
_diffrn_orient_matrix_UB_21      0.204132
_diffrn_orient_matrix_UB_22      0
_diffrn_orient_matrix_UB_23      0.68065E-2
_diffrn_orient_matrix_UB_31      -0.2561E-3
_diffrn_orient_matrix_UB_32      0.122153
_diffrn_orient_matrix_UB_33      -0.496415E-1
_diffrn_radiation_monochromator  graphite
_diffrn_radiation_probe          x-ray
_diffrn_radiation_type           MoK\a
_diffrn_radiation_wavelength     0.71073
_diffrn_reflns_av_R_equivalents  0.0564
_diffrn_reflns_av_unetI/netI     0.0432
_diffrn_reflns_limit_h_max       6
_diffrn_reflns_limit_h_min       -6
_diffrn_reflns_limit_k_max       7
_diffrn_reflns_limit_k_min       -7
_diffrn_reflns_limit_l_max       16
_diffrn_reflns_limit_l_min       -16
_diffrn_reflns_number            5492
_diffrn_reflns_theta_full        27.08
_diffrn_reflns_theta_max         27.08
_diffrn_reflns_theta_min         3.63
_diffrn_source                   'Enraf Nonius FR590'
_exptl_absorpt_coefficient_mu    5.135
_exptl_absorpt_correction_T_max  0.3427
_exptl_absorpt_correction_T_min  0.2795
_exptl_absorpt_correction_type   multi-scan
_exptl_absorpt_process_details
;
        [c.f. r.h. blessing, acta cryst. (1995), a51, 33-38]
;
_exptl_crystal_colour            colourless
_exptl_crystal_density_diffrn    2.063
_exptl_crystal_density_method    'not measured'
_exptl_crystal_description       prism
_exptl_crystal_F_000             240
_exptl_crystal_size_max          0.4
_exptl_crystal_size_mid          0.25
_exptl_crystal_size_min          0.1
_refine_diff_density_max         2.042
_refine_diff_density_min         -1.353
_refine_diff_density_rms         0.264
_refine_ls_abs_structure_details 'Flack H D (1983), Acta Cryst. A39, 876-881'
_refine_ls_abs_structure_Flack   0.10(2)
_refine_ls_extinction_method     none
_refine_ls_goodness_of_fit_ref   1.088
_refine_ls_hydrogen_treatment    constr
_refine_ls_matrix_type           full
_refine_ls_number_parameters     119
_refine_ls_number_reflns         1734
_refine_ls_number_restraints     1
_refine_ls_restrained_S_all      1.088
_refine_ls_R_factor_all          0.0709
_refine_ls_R_factor_gt           0.0658
_refine_ls_shift/su_max          0
_refine_ls_shift/su_mean         0
_refine_ls_structure_factor_coef Fsqd
_refine_ls_weighting_details
'calc w=1/[\s^2^(Fo^2^)+(0.1205P)^2^+0.0000P] where P=(Fo^2^+2Fc^2^)/3'
_refine_ls_weighting_scheme      calc
_refine_ls_wR_factor_gt          0.1519
_refine_ls_wR_factor_ref         0.1575
_reflns_number_gt                1587
_reflns_number_total             1734
_reflns_threshold_expression     >2sigma(I)
_cod_data_source_file            c6ob01394e3.cif
_cod_data_source_block           import
_cod_depositor_comments
'Adding full bibliography for 7155208--7155210.cif.'
_cod_original_sg_symbol_H-M      'P 21'
_cod_database_code               7155208
loop_
_space_group_symop_id
_space_group_symop_operation_xyz
1 'x, y, z'
2 '-x, y+1/2, -z'
loop_
_atom_site_label
_atom_site_type_symbol
_atom_site_fract_x
_atom_site_fract_y
_atom_site_fract_z
_atom_site_U_iso_or_equiv
_atom_site_adp_type
_atom_site_occupancy
_atom_site_symmetry_multiplicity
_atom_site_calc_flag
_atom_site_refinement_flags
C1 C 0.1119(12) 0.1307(9) 0.1488(4) 0.0236(12) Uani 1 1 d .
C2 C -0.0781(11) 0.2478(12) 0.1990(4) 0.0244(10) Uani 1 1 d .
H2 H -0.1392 0.383 0.172 0.029 Uiso 1 1 calc R
C3 C -0.1800(11) 0.1708(9) 0.2875(4) 0.0206(11) Uani 1 1 d .
C4 C -0.0888(11) -0.0332(9) 0.3234(4) 0.0196(11) Uani 1 1 d .
C5 C 0.0987(12) -0.1529(10) 0.2748(5) 0.0238(11) Uani 1 1 d .
H5 H 0.159 -0.2895 0.3003 0.029 Uiso 1 1 calc R
C6 C 0.1947(12) -0.0670(10) 0.1883(5) 0.0253(12) Uani 1 1 d .
C7 C -0.3608(13) 0.3179(11) 0.3411(5) 0.0273(13) Uani 1 1 d .
H7 H -0.3922 0.2916 0.4104 0.033 Uiso 1 1 calc R
Br1 Br 0.26101(11) 0.24058(16) 0.03341(4) 0.0375(3) Uani 1 1 d .
F1 F 0.3812(9) -0.1796(8) 0.1403(3) 0.0417(10) Uani 1 1 d .
N1 N -0.1909(10) -0.1296(9) 0.4131(4) 0.0255(10) Uani 1 1 d .
O1 O -0.0515(9) -0.2672(10) 0.4608(3) 0.0376(10) Uani 1 1 d .
O2 O -0.4182(9) -0.0730(8) 0.4362(4) 0.0387(11) Uani 1 1 d .
O3 O -0.4664(11) 0.4695(9) 0.2966(4) 0.0480(15) Uani 1 1 d .
loop_
_atom_site_aniso_label
_atom_site_aniso_U_11
_atom_site_aniso_U_22
_atom_site_aniso_U_33
_atom_site_aniso_U_23
_atom_site_aniso_U_13
_atom_site_aniso_U_12
C1 0.023(3) 0.023(3) 0.025(3) 0.003(2) 0.008(2) -0.005(2)
C2 0.026(2) 0.019(2) 0.028(2) -0.005(3) 0.0009(19) 0.001(3)
C3 0.018(2) 0.018(2) 0.026(3) -0.0016(19) 0.002(2) 0.0053(19)
C4 0.017(3) 0.018(2) 0.023(3) 0.001(2) 0.003(2) -0.001(2)
C5 0.021(3) 0.021(3) 0.029(3) -0.003(2) 0.001(2) 0.007(2)
C6 0.018(3) 0.030(3) 0.029(3) -0.004(2) 0.003(2) 0.008(2)
C7 0.026(3) 0.022(3) 0.034(3) -0.004(2) 0.006(3) 0.004(2)
Br1 0.0381(4) 0.0440(4) 0.0320(4) 0.0083(3) 0.0126(2) -0.0023(3)
F1 0.041(2) 0.043(2) 0.043(2) 0.0002(18) 0.0178(18) 0.0191(18)
N1 0.021(2) 0.026(2) 0.030(2) 0.000(2) 0.0040(18) -0.004(2)
O1 0.039(2) 0.038(2) 0.035(2) 0.019(3) -0.0014(17) 0.001(3)
O2 0.029(2) 0.044(3) 0.045(3) 0.002(2) 0.016(2) 0.004(2)
O3 0.056(4) 0.041(3) 0.048(3) 0.003(2) 0.007(2) 0.035(3)
loop_
_atom_type_symbol
_atom_type_description
_atom_type_scat_dispersion_real
_atom_type_scat_dispersion_imag
_atom_type_scat_source
C C 0.0033 0.0016 'International Tables Vol C Tables 4.2.6.8 and 6.1.1.4'
H H 0 0 'International Tables Vol C Tables 4.2.6.8 and 6.1.1.4'
Br Br -0.2901 2.4595 'International Tables Vol C Tables 4.2.6.8 and 6.1.1.4'
F F 0.0171 0.0103 'International Tables Vol C Tables 4.2.6.8 and 6.1.1.4'
N N 0.0061 0.0033 'International Tables Vol C Tables 4.2.6.8 and 6.1.1.4'
O O 0.0106 0.006 'International Tables Vol C Tables 4.2.6.8 and 6.1.1.4'
loop_
_geom_angle_atom_site_label_1
_geom_angle_atom_site_label_2
_geom_angle_atom_site_label_3
_geom_angle
C2 C1 Br1 121.3(5)
C6 C1 C2 118.4(6)
C6 C1 Br1 120.3(5)
C1 C2 H2 119.3
C3 C2 C1 121.4(6)
C3 C2 H2 119.3
C2 C3 C4 117.4(5)
C2 C3 C7 117.2(6)
C4 C3 C7 125.3(6)
C3 C4 N1 121.3(5)
C5 C4 C3 122.2(5)
C5 C4 N1 116.5(5)
C4 C5 H5 121.2
C6 C5 C4 117.7(6)
C6 C5 H5 121.2
C5 C6 C1 122.9(5)
F1 C6 C1 118.4(6)
F1 C6 C5 118.7(5)
C3 C7 H7 120
O3 C7 C3 120.1(6)
O3 C7 H7 120
O1 N1 C4 118.8(5)
O1 N1 O2 123.2(5)
O2 N1 C4 118.0(5)
loop_
_geom_bond_atom_site_label_1
_geom_bond_atom_site_label_2
_geom_bond_distance
C1 C2 1.395(8)
C1 C6 1.380(8)
C1 Br1 1.870(6)
C2 H2 0.95
C2 C3 1.391(8)
C3 C4 1.411(8)
C3 C7 1.495(8)
C4 C5 1.385(8)
C4 N1 1.449(8)
C5 H5 0.95
C5 C6 1.375(9)
C6 F1 1.354(7)
C7 H7 0.95
C7 O3 1.201(9)
N1 O1 1.231(7)
N1 O2 1.236(7)
