#------------------------------------------------------------------------------
#$Date: 2017-03-05 07:28:15 +0200 (Sun, 05 Mar 2017) $
#$Revision: 193881 $
#$URL: file:///home/coder/svn-repositories/cod/cif/7/15/54/7155475.cif $
#------------------------------------------------------------------------------
#
# This file is available in the Crystallography Open Database (COD),
# http://www.crystallography.net/
#
# All data on this site have been placed in the public domain by the
# contributors.
#
data_7155475
loop_
_publ_author_name
'Koto, Yuma'
'Shibahara, Fumitoshi'
'Murai, Toshiaki'
_publ_section_title
;
 Imidazo[1,5-a]pyridin-3-ylidenes as \p-accepting carbene ligands:
 substituent effects on properties of N-heterocyclic carbenes.
;
_journal_issue                   8
_journal_name_full               'Organic &amp; biomolecular chemistry'
_journal_page_first              1810
_journal_page_last               1820
_journal_paper_doi               10.1039/c6ob02827f
_journal_volume                  15
_journal_year                    2017
_chemical_formula_moiety         'C19 H11 Cl F3 N2 O2 Rh'
_chemical_formula_sum            'C19 H11 Cl F3 N2 O2 Rh'
_chemical_formula_weight         494.66
_chemical_name_systematic
; 
 ? 
;
_space_group_IT_number           2
_symmetry_cell_setting           triclinic
_symmetry_Int_Tables_number      2
_symmetry_space_group_name_Hall  '-P 1'
_symmetry_space_group_name_H-M   'P -1'
_atom_sites_solution_hydrogens   geom
_atom_sites_solution_primary     direct
_atom_sites_solution_secondary   difmap
_audit_creation_method           SHELXL-97
_audit_update_record
;
2016-11-07 deposited with the CCDC.
2017-01-25 downloaded from the CCDC.
;
_cell_angle_alpha                76.479(14)
_cell_angle_beta                 80.476(18)
_cell_angle_gamma                81.147(16)
_cell_formula_units_Z            2
_cell_length_a                   7.168(4)
_cell_length_b                   9.002(5)
_cell_length_c                   15.020(8)
_cell_measurement_reflns_used    3071
_cell_measurement_temperature    123(2)
_cell_measurement_theta_max      30.9
_cell_measurement_theta_min      2.3
_cell_volume                     922.6(9)
_computing_structure_refinement  'SHELXL-97 (Sheldrick, 1997)'
_computing_structure_solution    'SHELXS-97 (Sheldrick, 1990)'
_diffrn_ambient_temperature      123(2)
_diffrn_detector_area_resol_mean 14.63
_diffrn_measured_fraction_theta_full 0.983
_diffrn_measured_fraction_theta_max 0.983
_diffrn_measurement_device_type  'Rigaku/MSC Mercury CCD'
_diffrn_measurement_method       \w
_diffrn_radiation_monochromator  graphite
_diffrn_radiation_source         'fine-focus sealed tube'
_diffrn_radiation_type           MoK\a
_diffrn_radiation_wavelength     0.71075
_diffrn_reflns_av_R_equivalents  0.0396
_diffrn_reflns_av_sigmaI/netI    0.0758
_diffrn_reflns_limit_h_max       9
_diffrn_reflns_limit_h_min       -9
_diffrn_reflns_limit_k_max       11
_diffrn_reflns_limit_k_min       -7
_diffrn_reflns_limit_l_max       19
_diffrn_reflns_limit_l_min       -18
_diffrn_reflns_number            7286
_diffrn_reflns_theta_full        27.50
_diffrn_reflns_theta_max         27.50
_diffrn_reflns_theta_min         1.41
_exptl_absorpt_coefficient_mu    1.117
_exptl_absorpt_correction_T_max  1.000
_exptl_absorpt_correction_T_min  0.727
_exptl_absorpt_correction_type   multi-scan
_exptl_absorpt_process_details   '(Jacobson, 1998)'
_exptl_crystal_colour            Yellow
_exptl_crystal_density_diffrn    1.781
_exptl_crystal_density_method    'not measured'
_exptl_crystal_description       Block
_exptl_crystal_F_000             488
_exptl_crystal_size_max          0.29
_exptl_crystal_size_mid          0.23
_exptl_crystal_size_min          0.20
_refine_diff_density_max         1.171
_refine_diff_density_min         -0.931
_refine_diff_density_rms         0.115
_refine_ls_extinction_method     none
_refine_ls_goodness_of_fit_ref   1.010
_refine_ls_hydrogen_treatment    constr
_refine_ls_matrix_type           full
_refine_ls_number_parameters     254
_refine_ls_number_reflns         4171
_refine_ls_number_restraints     0
_refine_ls_restrained_S_all      1.010
_refine_ls_R_factor_all          0.0556
_refine_ls_R_factor_gt           0.0446
_refine_ls_shift/su_max          0.001
_refine_ls_shift/su_mean         0.000
_refine_ls_structure_factor_coef Fsqd
_refine_ls_weighting_details
'calc w=1/[\s^2^(Fo^2^)+(0.0452P)^2^+0.0000P] where P=(Fo^2^+2Fc^2^)/3'
_refine_ls_weighting_scheme      calc
_refine_ls_wR_factor_gt          0.1025
_refine_ls_wR_factor_ref         0.1097
_reflns_number_gt                3383
_reflns_number_total             4171
_reflns_threshold_expression     >2sigma(I)
_cod_data_source_file            c6ob02827f2.cif
_cod_data_source_block           ykro
_cod_depositor_comments
'Adding full bibliography for 7155472--7155477.cif.'
_cod_original_cell_volume        922.6(8)
_cod_original_sg_symbol_H-M      'P -1          '
_cod_database_code               7155475
loop_
_symmetry_equiv_pos_as_xyz
'x, y, z'
'-x, -y, -z'
loop_
_atom_site_label
_atom_site_type_symbol
_atom_site_fract_x
_atom_site_fract_y
_atom_site_fract_z
_atom_site_U_iso_or_equiv
_atom_site_adp_type
_atom_site_occupancy
_atom_site_symmetry_multiplicity
_atom_site_calc_flag
_atom_site_refinement_flags
Rh1 Rh 0.58101(4) 0.88980(4) 0.72658(2) 0.02723(12) Uani 1 1 d .
Cl1 Cl 0.78709(15) 0.88792(12) 0.83479(7) 0.0344(2) Uani 1 1 d .
F1 F -0.4516(4) 0.6751(4) 1.4890(2) 0.0686(10) Uani 1 1 d .
F2 F -0.1828(4) 0.7164(4) 1.51618(19) 0.0631(9) Uani 1 1 d .
F3 F -0.2520(5) 0.4866(4) 1.54397(19) 0.0617(9) Uani 1 1 d .
O1 O 0.3022(5) 0.8983(4) 0.6003(2) 0.0511(9) Uani 1 1 d .
O2 O 0.8252(5) 1.1018(4) 0.5839(2) 0.0542(10) Uani 1 1 d .
N1 N 0.4598(4) 0.5762(3) 0.8265(2) 0.0222(7) Uani 1 1 d .
N2 N 0.3220(4) 0.7454(3) 0.9017(2) 0.0226(7) Uani 1 1 d .
C1 C 0.4129(6) 0.8951(5) 0.6466(3) 0.0348(10) Uani 1 1 d .
C2 C 0.7315(7) 1.0263(5) 0.6361(3) 0.0365(10) Uani 1 1 d .
C3 C 0.4375(5) 0.7320(4) 0.8236(3) 0.0227(8) Uani 1 1 d .
C4 C 0.2744(5) 0.6055(4) 0.9550(3) 0.0249(8) Uani 1 1 d .
C5 C 0.3640(5) 0.4952(4) 0.9074(3) 0.0223(8) Uani 1 1 d .
C6 C 0.3798(5) 0.3330(4) 0.9238(3) 0.0272(9) Uani 1 1 d .
H6 H 0.3197 0.2757 0.9797 0.033 Uiso 1 1 calc R
C7 C 0.4810(6) 0.2612(5) 0.8593(3) 0.0323(10) Uani 1 1 d .
H7 H 0.4952 0.1520 0.8704 0.039 Uiso 1 1 calc R
C8 C 0.5669(5) 0.3462(5) 0.7749(3) 0.0300(9) Uani 1 1 d .
H8 H 0.6303 0.2935 0.7285 0.036 Uiso 1 1 calc R
C9 C 0.5604(5) 0.5014(5) 0.7589(3) 0.0267(9) Uani 1 1 d .
H9 H 0.6229 0.5574 0.7032 0.032 Uiso 1 1 calc R
C10 C 0.2500(6) 0.8935(4) 0.9273(3) 0.0318(9) Uani 1 1 d .
H10 H 0.2916 0.9775 0.8769 0.048 Uiso 1 1 calc R
H10A H 0.3000 0.8979 0.9834 0.048 Uiso 1 1 calc R
H10B H 0.1105 0.9041 0.9387 0.048 Uiso 1 1 calc R
C11 C 0.1626(5) 0.5912(5) 1.0430(3) 0.0257(8) Uani 1 1 d .
C12 C 0.0754(5) 0.5886(5) 1.1169(3) 0.0275(9) Uani 1 1 d .
C13 C -0.0186(5) 0.5917(5) 1.2087(3) 0.0249(8) Uani 1 1 d .
C14 C -0.0474(5) 0.7340(5) 1.2359(3) 0.0306(9) Uani 1 1 d .
H14 H -0.0116 0.8244 1.1934 0.037 Uiso 1 1 calc R
C15 C -0.1276(6) 0.7401(5) 1.3244(3) 0.0328(10) Uani 1 1 d .
H15 H -0.1469 0.8356 1.3434 0.039 Uiso 1 1 calc R
C16 C -0.1811(5) 0.6089(5) 1.3869(3) 0.0308(9) Uani 1 1 d .
C17 C -0.1530(5) 0.4691(5) 1.3604(3) 0.0316(9) Uani 1 1 d .
H17 H -0.1887 0.3791 1.4033 0.038 Uiso 1 1 calc R
C18 C -0.0724(5) 0.4608(5) 1.2710(3) 0.0278(9) Uani 1 1 d .
H18 H -0.0540 0.3651 1.2524 0.033 Uiso 1 1 calc R
C19 C -0.2658(6) 0.6198(6) 1.4834(3) 0.0428(12) Uani 1 1 d .
loop_
_atom_site_aniso_label
_atom_site_aniso_U_11
_atom_site_aniso_U_22
_atom_site_aniso_U_33
_atom_site_aniso_U_23
_atom_site_aniso_U_13
_atom_site_aniso_U_12
Rh1 0.0319(2) 0.02340(18) 0.02520(19) -0.00491(13) -0.00186(14) -0.00222(13)
Cl1 0.0361(6) 0.0325(6) 0.0352(6) -0.0042(4) -0.0077(5) -0.0077(4)
F1 0.0368(16) 0.113(3) 0.055(2) -0.040(2) 0.0101(14) 0.0108(17)
F2 0.068(2) 0.090(3) 0.0441(18) -0.0438(19) 0.0029(15) -0.0163(18)
F3 0.079(2) 0.076(2) 0.0262(15) -0.0119(15) 0.0064(15) -0.0098(18)
O1 0.064(2) 0.042(2) 0.054(2) -0.0162(17) -0.029(2) 0.0055(17)
O2 0.064(2) 0.064(2) 0.036(2) 0.0019(18) -0.0003(17) -0.036(2)
N1 0.0217(15) 0.0209(16) 0.0240(17) -0.0076(13) -0.0021(13) 0.0011(13)
N2 0.0248(16) 0.0203(16) 0.0209(16) -0.0041(13) 0.0003(13) -0.0008(13)
C1 0.046(3) 0.019(2) 0.035(2) -0.0041(18) -0.003(2) 0.0029(18)
C2 0.045(3) 0.034(3) 0.033(2) -0.012(2) -0.009(2) -0.003(2)
C3 0.0206(18) 0.024(2) 0.025(2) -0.0085(16) -0.0031(15) -0.0014(15)
C4 0.0249(19) 0.024(2) 0.026(2) -0.0071(16) -0.0048(16) -0.0011(16)
C5 0.0181(17) 0.026(2) 0.0229(19) -0.0052(15) -0.0049(15) -0.0024(15)
C6 0.0226(19) 0.026(2) 0.034(2) -0.0003(17) -0.0118(17) -0.0062(16)
C7 0.028(2) 0.022(2) 0.050(3) -0.0093(19) -0.011(2) -0.0026(17)
C8 0.0247(19) 0.031(2) 0.038(2) -0.0181(19) -0.0052(18) 0.0039(17)
C9 0.0227(18) 0.032(2) 0.027(2) -0.0135(18) -0.0013(16) -0.0009(16)
C10 0.033(2) 0.025(2) 0.038(2) -0.0128(18) 0.0004(19) 0.0012(17)
C11 0.0207(18) 0.030(2) 0.028(2) -0.0100(17) -0.0048(16) -0.0009(16)
C12 0.0253(19) 0.027(2) 0.031(2) -0.0071(17) -0.0064(18) -0.0021(16)
C13 0.0150(17) 0.034(2) 0.026(2) -0.0104(17) -0.0039(15) 0.0023(16)
C14 0.027(2) 0.028(2) 0.037(2) -0.0076(18) -0.0073(18) -0.0011(17)
C15 0.028(2) 0.033(2) 0.040(3) -0.017(2) -0.0049(19) 0.0018(18)
C16 0.0216(19) 0.042(3) 0.030(2) -0.013(2) -0.0026(17) -0.0008(18)
C17 0.030(2) 0.035(2) 0.029(2) -0.0064(18) -0.0021(18) -0.0045(18)
C18 0.027(2) 0.025(2) 0.033(2) -0.0110(18) -0.0050(17) 0.0007(16)
C19 0.036(2) 0.058(3) 0.038(3) -0.021(3) 0.000(2) -0.006(2)
loop_
_atom_type_symbol
_atom_type_description
_atom_type_scat_dispersion_real
_atom_type_scat_dispersion_imag
_atom_type_scat_source
C C 0.0033 0.0016 'International Tables Vol C Tables 4.2.6.8 and 6.1.1.4'
H H 0.0000 0.0000 'International Tables Vol C Tables 4.2.6.8 and 6.1.1.4'
N N 0.0061 0.0033 'International Tables Vol C Tables 4.2.6.8 and 6.1.1.4'
O O 0.0106 0.0060 'International Tables Vol C Tables 4.2.6.8 and 6.1.1.4'
F F 0.0171 0.0103 'International Tables Vol C Tables 4.2.6.8 and 6.1.1.4'
Cl Cl 0.1484 0.1585 'International Tables Vol C Tables 4.2.6.8 and 6.1.1.4'
Rh Rh -1.1178 0.9187 'International Tables Vol C Tables 4.2.6.8 and 6.1.1.4'
loop_
_geom_angle_atom_site_label_1
_geom_angle_atom_site_label_2
_geom_angle_atom_site_label_3
_geom_angle
C1 Rh1 C2 92.17(19)
C1 Rh1 C3 89.90(17)
C2 Rh1 C3 175.76(16)
C1 Rh1 Cl1 177.32(14)
C2 Rh1 Cl1 89.11(12)
C3 Rh1 Cl1 88.98(10)
C3 N1 C9 126.9(4)
C3 N1 C5 111.9(3)
C9 N1 C5 121.3(3)
C3 N2 C4 113.0(3)
C3 N2 C10 123.5(3)
C4 N2 C10 123.4(3)
O1 C1 Rh1 176.9(4)
O2 C2 Rh1 177.3(4)
N2 C3 N1 103.5(3)
N2 C3 Rh1 131.2(3)
N1 C3 Rh1 125.0(3)
C5 C4 N2 106.4(3)
C5 C4 C11 130.7(4)
N2 C4 C11 122.8(3)
C4 C5 N1 105.2(3)
C4 C5 C6 135.4(4)
N1 C5 C6 119.4(4)
C7 C6 C5 119.0(4)
C6 C7 C8 120.8(4)
C9 C8 C7 121.4(4)
C8 C9 N1 118.0(4)
C12 C11 C4 175.0(4)
C11 C12 C13 175.2(4)
C18 C13 C14 120.1(4)
C18 C13 C12 122.6(4)
C14 C13 C12 117.3(4)
C15 C14 C13 119.0(4)
C14 C15 C16 120.9(4)
C17 C16 C15 120.1(4)
C17 C16 C19 120.5(4)
C15 C16 C19 119.3(4)
C16 C17 C18 119.7(4)
C13 C18 C17 120.1(4)
F3 C19 F2 105.9(4)
F3 C19 F1 106.8(4)
F2 C19 F1 105.3(4)
F3 C19 C16 113.8(4)
F2 C19 C16 112.4(4)
F1 C19 C16 112.1(4)
loop_
_geom_bond_atom_site_label_1
_geom_bond_atom_site_label_2
_geom_bond_distance
Rh1 C1 1.826(4)
Rh1 C2 1.913(5)
Rh1 C3 2.046(4)
Rh1 Cl1 2.3660(13)
F1 C19 1.345(5)
F2 C19 1.344(5)
F3 C19 1.326(6)
O1 C1 1.131(5)
O2 C2 1.116(6)
N1 C3 1.378(5)
N1 C9 1.389(5)
N1 C5 1.394(5)
N2 C3 1.338(5)
N2 C4 1.383(5)
N2 C10 1.467(5)
C4 C5 1.376(5)
C4 C11 1.417(5)
C5 C6 1.413(5)
C6 C7 1.342(6)
C7 C8 1.416(6)
C8 C9 1.356(5)
C11 C12 1.177(6)
C12 C13 1.436(5)
C13 C18 1.384(6)
C13 C14 1.409(5)
C14 C15 1.369(6)
C15 C16 1.388(6)
C16 C17 1.383(6)
C16 C19 1.495(6)
C17 C18 1.386(5)
loop_
_geom_torsion_atom_site_label_1
_geom_torsion_atom_site_label_2
_geom_torsion_atom_site_label_3
_geom_torsion_atom_site_label_4
_geom_torsion
C2 Rh1 C1 O1 -142(7)
C3 Rh1 C1 O1 42(7)
Cl1 Rh1 C1 O1 -24(9)
C1 Rh1 C2 O2 -128(8)
C3 Rh1 C2 O2 -9(9)
Cl1 Rh1 C2 O2 55(8)
C4 N2 C3 N1 1.7(4)
C10 N2 C3 N1 -177.2(3)
C4 N2 C3 Rh1 -171.4(2)
C10 N2 C3 Rh1 9.8(5)
C9 N1 C3 N2 176.8(3)
C5 N1 C3 N2 -2.2(4)
C9 N1 C3 Rh1 -9.6(5)
C5 N1 C3 Rh1 171.5(2)
C1 Rh1 C3 N2 -106.6(3)
C2 Rh1 C3 N2 134.2(18)
Cl1 Rh1 C3 N2 70.9(3)
C1 Rh1 C3 N1 81.6(3)
C2 Rh1 C3 N1 -38(2)
Cl1 Rh1 C3 N1 -100.8(3)
C3 N2 C4 C5 -0.6(4)
C10 N2 C4 C5 178.2(3)
C3 N2 C4 C11 176.3(3)
C10 N2 C4 C11 -4.9(5)
N2 C4 C5 N1 -0.7(3)
C11 C4 C5 N1 -177.3(3)
N2 C4 C5 C6 177.5(3)
C11 C4 C5 C6 1.0(6)
C3 N1 C5 C4 1.8(4)
C9 N1 C5 C4 -177.2(3)
C3 N1 C5 C6 -176.8(3)
C9 N1 C5 C6 4.2(4)
C4 C5 C6 C7 179.3(4)
N1 C5 C6 C7 -2.6(5)
C5 C6 C7 C8 -1.6(5)
C6 C7 C8 C9 4.4(5)
C7 C8 C9 N1 -2.7(5)
C3 N1 C9 C8 179.6(3)
C5 N1 C9 C8 -1.6(5)
C5 C4 C11 C12 145(4)
N2 C4 C11 C12 -31(5)
C4 C11 C12 C13 -26(9)
C11 C12 C13 C18 -126(5)
C11 C12 C13 C14 51(5)
C18 C13 C14 C15 0.4(5)
C12 C13 C14 C15 -176.7(3)
C13 C14 C15 C16 -0.3(5)
C14 C15 C16 C17 0.3(6)
C14 C15 C16 C19 179.2(4)
C15 C16 C17 C18 -0.4(6)
C19 C16 C17 C18 -179.3(4)
C14 C13 C18 C17 -0.6(5)
C12 C13 C18 C17 176.3(3)
C16 C17 C18 C13 0.6(5)
C17 C16 C19 F3 20.4(5)
C15 C16 C19 F3 -158.4(4)
C17 C16 C19 F2 140.8(4)
C15 C16 C19 F2 -38.1(5)
C17 C16 C19 F1 -100.9(5)
C15 C16 C19 F1 80.2(5)
