#------------------------------------------------------------------------------
#$Date: 2017-02-04 16:14:36 +0200 (Sat, 04 Feb 2017) $
#$Revision: 191746 $
#$URL: file:///home/coder/svn-repositories/cod/cif/7/15/53/7155326.cif $
#------------------------------------------------------------------------------
#
# This file is available in the Crystallography Open Database (COD),
# http://www.crystallography.net/
#
# All data on this site have been placed in the public domain by the
# contributors.
#
data_7155326
loop_
_publ_author_name
'Vayer, Marie'
'Fang, Weizhen'
'Guillot, R\'egis'
'Bezzenine-Lafoll\'ee, Sophie'
'Bour, Christophe'
'Gandon, Vincent'
_publ_section_title
;
 Acid-catalysed intramolecular addition of \b-ketoesters to 1,3-dienes.
;
_journal_issue                   3
_journal_name_full               'Organic &amp; biomolecular chemistry'
_journal_page_first              584
_journal_page_last               588
_journal_paper_doi               10.1039/c6ob02122k
_journal_volume                  15
_journal_year                    2017
_chemical_formula_moiety         'C14 H22 O3'
_chemical_formula_sum            'C14 H22 O3'
_chemical_formula_weight         238.31
_space_group_crystal_system      triclinic
_space_group_IT_number           2
_space_group_name_Hall           '-P 1'
_space_group_name_H-M_alt        'P -1'
_symmetry_space_group_name_Hall  '-P 1'
_symmetry_space_group_name_H-M   'P -1'
_atom_sites_solution_hydrogens   geom
_audit_creation_method           SHELXL-2014/7
_audit_update_record
;
2016-08-02 deposited with the CCDC.
2016-10-18 downloaded from the CCDC.
;
_cell_angle_alpha                93.901(11)
_cell_angle_beta                 95.455(10)
_cell_angle_gamma                106.130(10)
_cell_formula_units_Z            2
_cell_length_a                   5.704(2)
_cell_length_b                   6.297(3)
_cell_length_c                   18.887(9)
_cell_measurement_reflns_used    1244
_cell_measurement_temperature    100(1)
_cell_measurement_theta_max      30.06
_cell_measurement_theta_min      3.38
_cell_volume                     645.6(5)
_computing_structure_refinement  'SHELXL-2014/7 (Sheldrick, 2014)'
_diffrn_ambient_temperature      100(1)
_diffrn_measured_fraction_theta_full 0.970
_diffrn_measured_fraction_theta_max 0.915
_diffrn_measurement_device_type  'Bruker APEX-II CCD'
_diffrn_measurement_method       '\f and \w scans'
_diffrn_radiation_type           MoK\a
_diffrn_radiation_wavelength     0.71073
_diffrn_reflns_av_R_equivalents  0.0750
_diffrn_reflns_av_unetI/netI     0.1037
_diffrn_reflns_Laue_measured_fraction_full 0.970
_diffrn_reflns_Laue_measured_fraction_max 0.915
_diffrn_reflns_limit_h_max       8
_diffrn_reflns_limit_h_min       -6
_diffrn_reflns_limit_k_max       8
_diffrn_reflns_limit_k_min       -8
_diffrn_reflns_limit_l_max       26
_diffrn_reflns_limit_l_min       -25
_diffrn_reflns_number            9528
_diffrn_reflns_point_group_measured_fraction_full 0.970
_diffrn_reflns_point_group_measured_fraction_max 0.915
_diffrn_reflns_theta_full        25.000
_diffrn_reflns_theta_max         30.517
_diffrn_reflns_theta_min         2.177
_diffrn_source_type              'kappa X8 APEX II Bruker ICMMO'
_exptl_absorpt_coefficient_mu    0.084
_exptl_absorpt_correction_T_max  0.9983
_exptl_absorpt_correction_T_min  0.9825
_exptl_absorpt_correction_type   multi-scan
_exptl_absorpt_process_details   SADABS
_exptl_crystal_colour            colorless
_exptl_crystal_density_diffrn    1.226
_exptl_crystal_description       needle
_exptl_crystal_F_000             260
_exptl_crystal_size_max          0.210
_exptl_crystal_size_mid          0.060
_exptl_crystal_size_min          0.020
_refine_diff_density_max         0.585
_refine_diff_density_min         -0.393
_refine_diff_density_rms         0.098
_refine_ls_extinction_method     none
_refine_ls_goodness_of_fit_ref   0.989
_refine_ls_hydrogen_treatment    constr
_refine_ls_matrix_type           full
_refine_ls_number_parameters     159
_refine_ls_number_reflns         3599
_refine_ls_number_restraints     0
_refine_ls_restrained_S_all      0.989
_refine_ls_R_factor_all          0.1448
_refine_ls_R_factor_gt           0.0788
_refine_ls_shift/su_max          0.000
_refine_ls_shift/su_mean         0.000
_refine_ls_structure_factor_coef Fsqd
_refine_ls_weighting_details
'w=1/[\s^2^(Fo^2^)+(0.1279P)^2^] where P=(Fo^2^+2Fc^2^)/3'
_refine_ls_weighting_scheme      calc
_refine_ls_wR_factor_gt          0.1943
_refine_ls_wR_factor_ref         0.2402
_reflns_Friedel_coverage         0.000
_reflns_number_gt                1969
_reflns_number_total             3599
_reflns_threshold_expression     'I > 2\s(I)'
_cod_data_source_file            c6ob02122k2.cif
_cod_data_source_block           17
_cod_depositor_comments
'Adding full bibliography for 7155325--7155326.cif.'
_cod_database_code               7155326
_shelx_space_group_comment
;
The symmetry employed for this shelxl refinement is uniquely defined
by the following loop, which should always be used as a source of
symmetry information in preference to the above space-group names.
They are only intended as comments.
;
_shelx_estimated_absorpt_t_min   0.983
_shelx_estimated_absorpt_t_max   0.998
_shelx_res_file
;

    shelx.res created by SHELXL-2014/7

TITL 2099_0m in P-1
CELL  0.71073   5.7042   6.2971  18.8873   93.901   95.455  106.130
ZERR     2.00   0.0023   0.0029   0.0088    0.011    0.010    0.010
LATT   1
SFAC  C    H    O
UNIT  28 44 6
MERG   2
OMIT     0   0   1
FMAP   2
PLAN   20
SIZE     0.020   0.060   0.210
ACTA    50.00
BOND
WPDB  -2
L.S.  40
TEMP    20.00
WGHT    0.127900
FVAR       0.35738
MOLE    1
C1    1    0.549732    1.278301    0.364171    11.00000    0.01707    0.02127 =
         0.02186   -0.00010    0.00237    0.00475
C2    1    0.702042    1.214140    0.308775    11.00000    0.01504    0.02207 =
         0.02165    0.00437    0.00327    0.00303
AFIX  23
H2A   2    0.761348    1.092272    0.323918    11.00000   -1.20000
H2B   2    0.843587    1.339339    0.305338    11.00000   -1.20000
AFIX   0
C3    1    0.550676    1.144911    0.235646    11.00000    0.01493    0.01904 =
         0.02005    0.00536    0.00463    0.00514
AFIX  13
H3    2    0.499977    1.272603    0.220199    11.00000   -1.20000
AFIX   0
C4    1    0.688901    1.069995    0.178369    11.00000    0.01436    0.02230 =
         0.02402    0.00154    0.00561    0.00385
AFIX  23
H4A   2    0.749960    0.949135    0.193565    11.00000   -1.20000
H4B   2    0.828142    1.191972    0.170597    11.00000   -1.20000
AFIX   0
C5    1    0.514139    0.993084    0.109286    11.00000    0.02250    0.02612 =
         0.01826    0.00501    0.00761    0.01152
AFIX  23
H5A   2    0.605084    0.957119    0.071589    11.00000   -1.20000
H5B   2    0.450648    1.114059    0.095572    11.00000   -1.20000
AFIX   0
C6    1    0.297238    0.789241    0.116080    11.00000    0.01857    0.02436 =
         0.01748    0.00153    0.00159    0.00874
C7    1    0.210331    0.801576    0.188850    11.00000    0.01255    0.01933 =
         0.02137    0.00494    0.00198    0.00765
C8    1    0.322339    0.961476    0.243444    11.00000    0.01332    0.01735 =
         0.01923    0.00533    0.00394    0.00729
C9    1    0.224547    0.943586    0.311905    11.00000    0.01639    0.01796 =
         0.02144    0.00437    0.00335    0.00736
C10   1    0.082386    0.779343    0.058972    11.00000    0.02556    0.03662 =
         0.01984    0.00295   -0.00068    0.01330
AFIX 137
H10A  2   -0.051055    0.649683    0.062418    11.00000   -1.50000
H10B  2    0.135575    0.772393    0.012370    11.00000   -1.50000
H10C  2    0.028558    0.909776    0.066488    11.00000   -1.50000
AFIX   0
C11   1    0.373810    0.574160    0.105758    11.00000    0.02290    0.02640 =
         0.02439   -0.00046    0.00414    0.00977
AFIX 137
H11A  2    0.515321    0.583684    0.139029    11.00000   -1.50000
H11B  2    0.412970    0.554994    0.057855    11.00000   -1.50000
H11C  2    0.240867    0.449740    0.113956    11.00000   -1.50000
AFIX   0
C12   1    0.452560    1.473760    0.347126    11.00000    0.02453    0.02664 =
         0.02608    0.00480    0.00469    0.00959
AFIX 137
H12A  2    0.344938    1.435670    0.303038    11.00000   -1.50000
H12B  2    0.587823    1.600869    0.342649    11.00000   -1.50000
H12C  2    0.363738    1.507805    0.384958    11.00000   -1.50000
AFIX   0
C13   1    0.685999    1.322664    0.439574    11.00000    0.02490    0.02953 =
         0.02224    0.00153    0.00247    0.00750
AFIX  23
H13A  2    0.573380    1.345131    0.472773    11.00000   -1.20000
H13B  2    0.818049    1.459840    0.442413    11.00000   -1.20000
AFIX   0
C14   1    0.795159    1.139492    0.463905    11.00000    0.02868    0.03885 =
         0.02426    0.00705    0.00206    0.01387
AFIX 137
H14A  2    0.675608    0.997450    0.451642    11.00000   -1.50000
H14B  2    0.839787    1.162710    0.514734    11.00000   -1.50000
H14C  2    0.938497    1.143513    0.440587    11.00000   -1.50000
AFIX   0
O1    3    0.011223    0.633916    0.195459    11.00000    0.01911    0.02394 =
         0.02184    0.00093    0.00344    0.00265
AFIX 147
H1    2   -0.035122    0.651866    0.234629    11.00000   -1.50000
AFIX   0
O2    3    0.037680    0.794262    0.321229    11.00000    0.01867    0.02563 =
         0.02217    0.00496    0.00759    0.00420
O3    3    0.332906    1.085725    0.368472    11.00000    0.01792    0.02471 =
         0.01724   -0.00011    0.00416    0.00315
HKLF    4

REM  2099_0m in P-1
REM R1 =  0.0788 for    1969 Fo > 4sig(Fo)  and  0.1448 for all    3599 data
REM    159 parameters refined using      0 restraints

END

WGHT      0.1280      0.0000

REM Highest difference peak  0.585,  deepest hole -0.393,  1-sigma level  0.098
Q1    1   0.1274  0.8186  0.2940  11.00000  0.05    0.59
Q2    1   0.2737  0.9588  0.2780  11.00000  0.05    0.57
Q3    1   0.4335  1.0368  0.2280  11.00000  0.05    0.57
Q4    1   0.4281  1.0824  0.2573  11.00000  0.05    0.55
Q5    1   0.4075  0.9252  0.1278  11.00000  0.05    0.53
Q6    1   0.2688  0.8090  0.1538  11.00000  0.05    0.52
Q7    1   0.1157  0.6781  0.1726  11.00000  0.05    0.50
Q8    1   0.2490  0.8782  0.2210  11.00000  0.05    0.46
Q9    1   0.3525  0.9185  0.1897  11.00000  0.05    0.44
Q10   1  -0.1121  0.6532  0.3154  11.00000  0.05    0.43
Q11   1  -0.1237  0.4956  0.1849  11.00000  0.05    0.42
Q12   1   0.2720  0.9842  0.3288  11.00000  0.05    0.42
Q13   1  -0.0034  0.5348  0.1581  11.00000  0.05    0.42
Q14   1   0.4426  1.1645  0.3503  11.00000  0.05    0.42
Q15   1  -0.0028  0.6894  0.2823  11.00000  0.05    0.41
Q16   1   0.5901  1.2190  0.3336  11.00000  0.05    0.40
Q17   1   0.6216  1.2929  0.3303  11.00000  0.05    0.39
Q18   1   0.1154  0.8934  0.3403  11.00000  0.05    0.39
Q19   1   0.5993  1.0711  0.2056  11.00000  0.05    0.38
Q20   1   0.7831  1.4015  0.3239  11.00000  0.05    0.37
;
_shelx_res_checksum              92534
loop_
_space_group_symop_operation_xyz
'x, y, z'
'-x, -y, -z'
loop_
_atom_site_label
_atom_site_type_symbol
_atom_site_fract_x
_atom_site_fract_y
_atom_site_fract_z
_atom_site_U_iso_or_equiv
_atom_site_adp_type
_atom_site_occupancy
_atom_site_site_symmetry_order
_atom_site_calc_flag
_atom_site_refinement_flags_posn
_atom_site_refinement_flags_adp
C1 C 0.5497(4) 1.2783(4) 0.36417(13) 0.0203(5) Uani 1 1 d . .
C2 C 0.7020(4) 1.2141(4) 0.30877(13) 0.0199(5) Uani 1 1 d . .
H2A H 0.7613 1.0923 0.3239 0.024 Uiso 1 1 calc R U
H2B H 0.8436 1.3393 0.3053 0.024 Uiso 1 1 calc R U
C3 C 0.5507(4) 1.1449(4) 0.23565(13) 0.0176(5) Uani 1 1 d . .
H3 H 0.5000 1.2726 0.2202 0.021 Uiso 1 1 calc R U
C4 C 0.6889(4) 1.0700(4) 0.17837(13) 0.0203(5) Uani 1 1 d . .
H4A H 0.7500 0.9491 0.1936 0.024 Uiso 1 1 calc R U
H4B H 0.8281 1.1920 0.1706 0.024 Uiso 1 1 calc R U
C5 C 0.5141(4) 0.9931(4) 0.10929(13) 0.0209(5) Uani 1 1 d . .
H5A H 0.6051 0.9571 0.0716 0.025 Uiso 1 1 calc R U
H5B H 0.4506 1.1141 0.0956 0.025 Uiso 1 1 calc R U
C6 C 0.2972(4) 0.7892(4) 0.11608(13) 0.0197(5) Uani 1 1 d . .
C7 C 0.2103(4) 0.8016(4) 0.18885(13) 0.0170(5) Uani 1 1 d . .
C8 C 0.3223(4) 0.9615(4) 0.24344(12) 0.0157(5) Uani 1 1 d . .
C9 C 0.2245(4) 0.9436(4) 0.31190(13) 0.0179(5) Uani 1 1 d . .
C10 C 0.0824(5) 0.7793(5) 0.05897(14) 0.0267(6) Uani 1 1 d . .
H10A H -0.0511 0.6497 0.0624 0.040 Uiso 1 1 calc R U
H10B H 0.1356 0.7724 0.0124 0.040 Uiso 1 1 calc R U
H10C H 0.0286 0.9098 0.0665 0.040 Uiso 1 1 calc R U
C11 C 0.3738(5) 0.5742(4) 0.10576(14) 0.0241(6) Uani 1 1 d . .
H11A H 0.5153 0.5837 0.1390 0.036 Uiso 1 1 calc R U
H11B H 0.4130 0.5550 0.0579 0.036 Uiso 1 1 calc R U
H11C H 0.2409 0.4497 0.1140 0.036 Uiso 1 1 calc R U
C12 C 0.4526(5) 1.4738(4) 0.34713(14) 0.0251(6) Uani 1 1 d . .
H12A H 0.3449 1.4357 0.3030 0.038 Uiso 1 1 calc R U
H12B H 0.5878 1.6009 0.3426 0.038 Uiso 1 1 calc R U
H12C H 0.3637 1.5078 0.3850 0.038 Uiso 1 1 calc R U
C13 C 0.6860(5) 1.3227(5) 0.43957(14) 0.0257(6) Uani 1 1 d . .
H13A H 0.5734 1.3451 0.4728 0.031 Uiso 1 1 calc R U
H13B H 0.8180 1.4598 0.4424 0.031 Uiso 1 1 calc R U
C14 C 0.7952(5) 1.1395(5) 0.46390(15) 0.0296(6) Uani 1 1 d . .
H14A H 0.6756 0.9974 0.4516 0.044 Uiso 1 1 calc R U
H14B H 0.8398 1.1627 0.5147 0.044 Uiso 1 1 calc R U
H14C H 0.9385 1.1435 0.4406 0.044 Uiso 1 1 calc R U
O1 O 0.0112(3) 0.6339(3) 0.19546(9) 0.0223(4) Uani 1 1 d . .
H1 H -0.0351 0.6519 0.2346 0.034 Uiso 1 1 calc R U
O2 O 0.0377(3) 0.7943(3) 0.32123(9) 0.0221(4) Uani 1 1 d . .
O3 O 0.3329(3) 1.0857(3) 0.36847(9) 0.0205(4) Uani 1 1 d . .
loop_
_atom_site_aniso_label
_atom_site_aniso_U_11
_atom_site_aniso_U_22
_atom_site_aniso_U_33
_atom_site_aniso_U_23
_atom_site_aniso_U_13
_atom_site_aniso_U_12
C1 0.0171(11) 0.0213(13) 0.0219(13) -0.0001(10) 0.0024(9) 0.0048(10)
C2 0.0150(11) 0.0221(13) 0.0217(12) 0.0044(10) 0.0033(9) 0.0030(9)
C3 0.0149(11) 0.0190(12) 0.0201(12) 0.0054(10) 0.0046(9) 0.0051(9)
C4 0.0144(11) 0.0223(13) 0.0240(13) 0.0015(10) 0.0056(9) 0.0038(10)
C5 0.0225(12) 0.0261(14) 0.0183(12) 0.0050(10) 0.0076(9) 0.0115(10)
C6 0.0186(11) 0.0244(13) 0.0175(12) 0.0015(10) 0.0016(9) 0.0087(10)
C7 0.0126(10) 0.0193(12) 0.0214(12) 0.0049(10) 0.0020(9) 0.0077(9)
C8 0.0133(10) 0.0174(12) 0.0192(12) 0.0053(9) 0.0039(9) 0.0073(9)
C9 0.0164(11) 0.0180(12) 0.0214(12) 0.0044(10) 0.0033(9) 0.0074(9)
C10 0.0256(13) 0.0366(16) 0.0198(13) 0.0029(12) -0.0007(10) 0.0133(12)
C11 0.0229(12) 0.0264(14) 0.0244(13) -0.0005(11) 0.0041(10) 0.0098(11)
C12 0.0245(13) 0.0266(14) 0.0261(14) 0.0048(11) 0.0047(10) 0.0096(11)
C13 0.0249(13) 0.0295(15) 0.0222(13) 0.0015(11) 0.0025(10) 0.0075(11)
C14 0.0287(14) 0.0389(17) 0.0243(14) 0.0071(12) 0.0021(11) 0.0139(13)
O1 0.0191(9) 0.0239(10) 0.0218(9) 0.0009(8) 0.0034(7) 0.0026(7)
O2 0.0187(8) 0.0256(10) 0.0222(9) 0.0050(8) 0.0076(7) 0.0042(7)
O3 0.0179(8) 0.0247(10) 0.0172(9) -0.0001(7) 0.0042(6) 0.0031(7)
loop_
_atom_type_symbol
_atom_type_description
_atom_type_scat_dispersion_real
_atom_type_scat_dispersion_imag
_atom_type_scat_source
C C 0.0033 0.0016 'International Tables Vol C Tables 4.2.6.8 and 6.1.1.4'
H H 0.0000 0.0000 'International Tables Vol C Tables 4.2.6.8 and 6.1.1.4'
O O 0.0106 0.0060 'International Tables Vol C Tables 4.2.6.8 and 6.1.1.4'
loop_
_geom_angle_atom_site_label_1
_geom_angle_atom_site_label_2
_geom_angle_atom_site_label_3
_geom_angle
O3 C1 C2 108.80(19)
O3 C1 C12 107.05(18)
C2 C1 C12 114.2(2)
O3 C1 C13 104.03(19)
C2 C1 C13 112.5(2)
C12 C1 C13 109.7(2)
C1 C2 C3 111.15(19)
C8 C3 C4 110.0(2)
C8 C3 C2 108.42(19)
C4 C3 C2 113.9(2)
C3 C4 C5 108.78(19)
C4 C5 C6 112.9(2)
C7 C6 C5 110.9(2)
C7 C6 C10 108.6(2)
C5 C6 C10 109.6(2)
C7 C6 C11 108.2(2)
C5 C6 C11 110.51(19)
C10 C6 C11 109.0(2)
O1 C7 C8 122.6(2)
O1 C7 C6 112.8(2)
C8 C7 C6 124.6(2)
C7 C8 C9 118.1(2)
C7 C8 C3 121.8(2)
C9 C8 C3 120.0(2)
O2 C9 O3 116.2(2)
O2 C9 C8 122.5(2)
O3 C9 C8 121.3(2)
C1 C13 C14 115.4(2)
C9 O3 C1 121.95(19)
loop_
_geom_bond_atom_site_label_1
_geom_bond_atom_site_label_2
_geom_bond_distance
C1 O3 1.485(3)
C1 C2 1.524(3)
C1 C12 1.525(4)
C1 C13 1.525(4)
C2 C3 1.525(3)
C3 C8 1.509(3)
C3 C4 1.521(3)
C4 C5 1.526(3)
C5 C6 1.538(3)
C6 C7 1.509(3)
C6 C10 1.538(3)
C6 C11 1.540(4)
C7 O1 1.341(3)
C7 C8 1.364(3)
C8 C9 1.455(3)
C9 O2 1.246(3)
C9 O3 1.327(3)
C13 C14 1.532(4)
