#------------------------------------------------------------------------------
#$Date: 2017-04-05 13:05:06 +0300 (Wed, 05 Apr 2017) $
#$Revision: 195165 $
#$URL: file:///home/coder/svn-repositories/cod/cif/7/15/54/7155499.cif $
#------------------------------------------------------------------------------
#
# This file is available in the Crystallography Open Database (COD),
# http://www.crystallography.net/
#
# All data on this site have been placed in the public domain by the
# contributors.
#
data_7155499
loop_
_publ_author_name
'Gopalaiah, Kovuru'
'Saini, Anupama'
'Chandrudu, Sankala Naga'
'Rao, Devarapalli Chenna'
'Yadav, Harsh'
'Kumar, Binay'
_publ_section_title
;
 Copper-catalyzed aerobic oxidative coupling of o-phenylenediamines with
 2-aryl/heteroarylethylamines: direct access to construct quinoxalines.
;
_journal_issue                   10
_journal_name_full               'Organic &amp; biomolecular chemistry'
_journal_page_first              2259
_journal_page_last               2268
_journal_paper_doi               10.1039/c7ob00122c
_journal_volume                  15
_journal_year                    2017
_chemical_formula_moiety         'C14 H9 N3 O2'
_chemical_formula_sum            'C14 H9 N3 O2'
_chemical_formula_weight         251.24
_space_group_crystal_system      triclinic
_space_group_IT_number           2
_space_group_name_Hall           '-P 1'
_space_group_name_H-M_alt        'P -1'
_symmetry_space_group_name_Hall  '-P 1'
_symmetry_space_group_name_H-M   'P -1'
_atom_sites_solution_hydrogens   geom
_atom_sites_solution_primary     direct
_audit_creation_date             2016-12-26
_audit_creation_method
;
Olex2 1.2
(compiled 2016.11.30 svn.r3356 for OlexSys, GUI svn.r5269)
;
_audit_update_record
;
2017-02-17 deposited with the CCDC.
2017-02-17 downloaded from the CCDC.
;
_cell_angle_alpha                78.536(11)
_cell_angle_beta                 83.012(9)
_cell_angle_gamma                81.083(10)
_cell_formula_units_Z            2
_cell_length_a                   3.9286(4)
_cell_length_b                   11.3555(15)
_cell_length_c                   13.3245(15)
_cell_measurement_reflns_used    903
_cell_measurement_temperature    298(2)
_cell_measurement_theta_max      24.1260
_cell_measurement_theta_min      3.3150
_cell_volume                     572.98(12)
_computing_molecular_graphics    'Olex2 (Dolomanov et al., 2009)'
_computing_publication_material  'Olex2 (Dolomanov et al., 2009)'
_computing_structure_refinement  'ShelXL (Sheldrick, 2015)'
_computing_structure_solution    'ShelXS (Sheldrick, 2008)'
_diffrn_ambient_temperature      298.15
_diffrn_measured_fraction_theta_full 0.998
_diffrn_measured_fraction_theta_max 0.860
_diffrn_measurement_device_type  'Xcalibur, Sapphire3'
_diffrn_radiation_type           MoK\a
_diffrn_radiation_wavelength     0.71073
_diffrn_reflns_av_R_equivalents  0.0397
_diffrn_reflns_av_unetI/netI     0.0746
_diffrn_reflns_Laue_measured_fraction_full 0.998
_diffrn_reflns_Laue_measured_fraction_max 0.860
_diffrn_reflns_limit_h_max       5
_diffrn_reflns_limit_h_min       -4
_diffrn_reflns_limit_k_max       15
_diffrn_reflns_limit_k_min       -14
_diffrn_reflns_limit_l_max       18
_diffrn_reflns_limit_l_min       -18
_diffrn_reflns_number            7787
_diffrn_reflns_point_group_measured_fraction_full 0.998
_diffrn_reflns_point_group_measured_fraction_max 0.860
_diffrn_reflns_theta_full        25.242
_diffrn_reflns_theta_max         29.263
_diffrn_reflns_theta_min         3.333
_diffrn_source                   'Enhance (Mo) X-ray Source'
_exptl_absorpt_coefficient_mu    0.101
_exptl_absorpt_correction_T_max  1.00000
_exptl_absorpt_correction_T_min  0.83707
_exptl_absorpt_correction_type   multi-scan
_exptl_absorpt_process_details
;
CrysAlisPro, Agilent Technologies,
Version 1.171.36.32 (release 02-08-2013 CrysAlis171 .NET)
(compiled Aug  2 2013,16:46:58)
Empirical absorption correction using spherical harmonics,
 implemented in SCALE3 ABSPACK scaling algorithm.
;
_exptl_crystal_density_diffrn    1.456
_exptl_crystal_description       Block
_exptl_crystal_F_000             260
_exptl_crystal_size_max          0.06
_exptl_crystal_size_mid          0.02
_exptl_crystal_size_min          0.02
_refine_diff_density_max         0.201
_refine_diff_density_min         -0.264
_refine_diff_density_rms         0.064
_refine_ls_extinction_method     none
_refine_ls_goodness_of_fit_ref   1.026
_refine_ls_hydrogen_treatment    constr
_refine_ls_matrix_type           full
_refine_ls_number_parameters     172
_refine_ls_number_reflns         2701
_refine_ls_number_restraints     0
_refine_ls_restrained_S_all      1.026
_refine_ls_R_factor_all          0.1494
_refine_ls_R_factor_gt           0.0664
_refine_ls_shift/su_max          0.000
_refine_ls_shift/su_mean         0.000
_refine_ls_structure_factor_coef Fsqd
_refine_ls_weighting_details
'w=1/[\s^2^(Fo^2^)+(0.0540P)^2^] where P=(Fo^2^+2Fc^2^)/3'
_refine_ls_weighting_scheme      calc
_refine_ls_wR_factor_gt          0.1224
_refine_ls_wR_factor_ref         0.1694
_reflns_Friedel_coverage         0.000
_reflns_number_gt                1298
_reflns_number_total             2701
_reflns_threshold_expression     'I > 2\s(I)'
_cod_data_source_file            c7ob00122c2.cif
_cod_data_source_block           6-Nitro-2-phenylquinoxaline
_cod_depositor_comments
'Adding full bibliography for 7155495--7155499.cif.'
_cod_database_code               7155499
_publcif_datablock.id            {dd483c66-0c6d-4134-a69b-bc00623d9949}
_shelx_space_group_comment
;
The symmetry employed for this shelxl refinement is uniquely defined
by the following loop, which should always be used as a source of
symmetry information in preference to the above space-group names.
They are only intended as comments.
;
_shelx_estimated_absorpt_t_max   0.998
_shelx_estimated_absorpt_t_min   0.994
_shelx_res_file
;
TITL 4. 189A in P-1 #2
    4.189a.res
    created by SHELXL-2016/6 at 16:41:17 on 26-Dec-2016
REM reset to P-1 #2
CELL 0.71073 3.9286 11.3555 13.3245 78.536 83.012 81.083
ZERR 2 0.0004 0.0015 0.0015 0.011 0.009 0.01
LATT 1
SFAC C H N O
UNIT 28 18 6 4

L.S. 4
PLAN  20
SIZE 0.02 0.02 0.06
TEMP 25
BOND
fmap 2
ACTA
REM <olex2.extras>
REM <HklSrc "%.\\4.%20%20189A.hkl">
REM </olex2.extras>

WGHT    0.054000
FVAR       8.10143
N2    3    0.300328    0.186938    0.893289    11.00000    0.03838    0.03834 =
         0.04072   -0.00919    0.00016   -0.00032
C13   1   -0.269595    0.235830    1.167171    11.00000    0.03611    0.04018 =
         0.04134   -0.01260    0.00131   -0.00469
C14   1   -0.282401    0.331877    1.087389    11.00000    0.04005    0.03528 =
         0.04752   -0.01545   -0.00272    0.00061
AFIX  43
H14   2   -0.414983    0.405484    1.094779    11.00000   -1.20000
AFIX   0
C10   1    0.110274    0.203943    0.983592    11.00000    0.03439    0.02957 =
         0.04078   -0.00874   -0.00446    0.00071
C9    1   -0.089940    0.316806    0.993592    11.00000    0.03803    0.03267 =
         0.04038   -0.00841   -0.00579   -0.00195
C6    1    0.489515    0.263403    0.716788    11.00000    0.03744    0.03935 =
         0.03746   -0.00653   -0.00374   -0.00316
C11   1    0.113706    0.107688    1.068839    11.00000    0.04062    0.03334 =
         0.04492   -0.00660    0.00055    0.00324
AFIX  43
H11   2    0.245027    0.033350    1.063254    11.00000   -1.20000
AFIX   0
N1    3   -0.099473    0.412368    0.912309    11.00000    0.05238    0.03672 =
         0.04335   -0.00882   -0.00161    0.00351
N3    3   -0.476737    0.249340    1.265087    11.00000    0.05474    0.05398 =
         0.04307   -0.01567    0.00478    0.00005
C7    1    0.291445    0.280162    0.815941    11.00000    0.03661    0.03539 =
         0.03980   -0.00577   -0.00259   -0.00410
C8    1    0.085494    0.392724    0.827706    11.00000    0.05307    0.03566 =
         0.04347   -0.00476   -0.00502    0.00229
AFIX  43
H8    2    0.083261    0.456026    0.771401    11.00000   -1.20000
AFIX   0
O2    4   -0.507366    0.158006    1.329275    11.00000    0.10844    0.05991 =
         0.05517   -0.00412    0.02817   -0.00721
C12   1   -0.074819    0.123119    1.159511    11.00000    0.04587    0.03767 =
         0.04416   -0.00403   -0.00158   -0.00152
AFIX  43
H12   2   -0.073932    0.059514    1.215562    11.00000   -1.20000
AFIX   0
C1    1    0.582084    0.361228    0.642896    11.00000    0.05645    0.04966 =
         0.04600   -0.00542   -0.00356   -0.00638
AFIX  43
H1    2    0.519276    0.439850    0.655202    11.00000   -1.20000
AFIX   0
C5    1    0.584161    0.147795    0.694789    11.00000    0.05178    0.04462 =
         0.04900   -0.00853    0.00444   -0.00346
AFIX  43
H5    2    0.523028    0.081376    0.742974    11.00000   -1.20000
AFIX   0
O1    4   -0.612558    0.350307    1.277170    11.00000    0.10997    0.06119 =
         0.06305   -0.01690    0.02138    0.02116
C2    1    0.767870    0.341552    0.550952    11.00000    0.05880    0.06806 =
         0.04639    0.00151    0.00176   -0.01542
AFIX  43
H2    2    0.829920    0.407332    0.502159    11.00000   -1.20000
AFIX   0
C4    1    0.767176    0.129364    0.602858    11.00000    0.06307    0.05797 =
         0.05569   -0.01765    0.00807    0.00377
AFIX  43
H4    2    0.827158    0.051150    0.589372    11.00000   -1.20000
AFIX   0
C3    1    0.860957    0.226748    0.531115    11.00000    0.05642    0.08184 =
         0.04248   -0.01462    0.00896   -0.00534
AFIX  43
H3    2    0.987035    0.214536    0.469438    11.00000   -1.20000
AFIX   0
HKLF 4




REM  4. 189A in P-1 #2
REM R1 =  0.0664 for    1298 Fo > 4sig(Fo)  and  0.1494 for all    2701 data
REM    172 parameters refined using      0 restraints

END

WGHT      0.0544      0.0000

REM Highest difference peak  0.201,  deepest hole -0.264,  1-sigma level  0.064
Q1    1   0.1142  0.4969  0.7470  11.00000  0.05    0.20
Q2    1  -0.1913  0.3579  1.2784  11.00000  0.05    0.19
Q3    1   0.6092  0.0646  0.5427  11.00000  0.05    0.18
Q4    1  -0.0677  0.1633  1.3469  11.00000  0.05    0.17
Q5    1   0.7589  0.4439  0.6753  11.00000  0.05    0.17
Q6    1  -0.3925  0.3543  1.3768  11.00000  0.05    0.17
Q7    1   0.2130  0.0460  0.8000  11.00000  0.05    0.16
Q8    1  -0.1599  0.2333  0.8509  11.00000  0.05    0.16
Q9    1   0.5163 -0.0377  0.8187  11.00000  0.05    0.16
Q10   1   0.7088  0.1827  0.9019  11.00000  0.05    0.16
Q11   1   0.1079  0.2305  1.1844  11.00000  0.05    0.16
Q12   1  -0.6604  0.3597  1.0039  11.00000  0.05    0.16
Q13   1   1.3286  0.1815  0.5230  11.00000  0.05    0.15
Q14   1  -0.1510  0.5053  0.9262  11.00000  0.05    0.15
Q15   1   0.5459  0.5757  0.5837  11.00000  0.05    0.15
Q16   1   0.1556  0.1269  0.7303  11.00000  0.05    0.15
Q17   1   0.5711  0.1409  0.9443  11.00000  0.05    0.15
Q18   1   0.4738  0.4426  0.7790  11.00000  0.05    0.14
Q19   1   0.5467  0.0922  0.5532  11.00000  0.05    0.14
Q20   1  -0.2080  0.3232  0.8034  11.00000  0.05    0.14
;
_shelx_res_checksum              74589
loop_
_space_group_symop_operation_xyz
'x, y, z'
'-x, -y, -z'
loop_
_atom_site_label
_atom_site_type_symbol
_atom_site_fract_x
_atom_site_fract_y
_atom_site_fract_z
_atom_site_U_iso_or_equiv
_atom_site_adp_type
_atom_site_occupancy
_atom_site_site_symmetry_order
_atom_site_calc_flag
_atom_site_refinement_flags_posn
N2 N 0.3003(4) 0.18694(17) 0.89329(15) 0.0397(5) Uani 1 1 d .
C13 C -0.2696(5) 0.2358(2) 1.16717(18) 0.0390(6) Uani 1 1 d .
C14 C -0.2824(6) 0.3319(2) 1.08739(18) 0.0406(6) Uani 1 1 d .
H14 H -0.414983 0.405484 1.094779 0.049 Uiso 1 1 calc R
C10 C 0.1103(5) 0.2039(2) 0.98359(18) 0.0351(6) Uani 1 1 d .
C9 C -0.0899(5) 0.3168(2) 0.99359(18) 0.0369(6) Uani 1 1 d .
C6 C 0.4895(6) 0.2634(2) 0.71679(18) 0.0384(6) Uani 1 1 d .
C11 C 0.1137(5) 0.1077(2) 1.06884(18) 0.0410(6) Uani 1 1 d .
H11 H 0.245027 0.033350 1.063254 0.049 Uiso 1 1 calc R
N1 N -0.0995(5) 0.41237(18) 0.91231(15) 0.0452(6) Uani 1 1 d .
N3 N -0.4767(5) 0.2493(2) 1.26509(17) 0.0512(6) Uani 1 1 d .
C7 C 0.2914(5) 0.2802(2) 0.81594(18) 0.0376(6) Uani 1 1 d .
C8 C 0.0855(6) 0.3927(2) 0.82771(19) 0.0453(6) Uani 1 1 d .
H8 H 0.083261 0.456026 0.771401 0.054 Uiso 1 1 calc R
O2 O -0.5074(5) 0.15801(19) 1.32927(15) 0.0789(7) Uani 1 1 d .
C12 C -0.0748(6) 0.1231(2) 1.15951(19) 0.0437(6) Uani 1 1 d .
H12 H -0.073932 0.059514 1.215562 0.052 Uiso 1 1 calc R
C1 C 0.5821(6) 0.3612(2) 0.64290(19) 0.0514(7) Uani 1 1 d .
H1 H 0.519276 0.439850 0.655202 0.062 Uiso 1 1 calc R
C5 C 0.5842(6) 0.1478(2) 0.6948(2) 0.0496(7) Uani 1 1 d .
H5 H 0.523028 0.081376 0.742974 0.059 Uiso 1 1 calc R
O1 O -0.6126(5) 0.35031(19) 1.27717(15) 0.0833(7) Uani 1 1 d .
C2 C 0.7679(6) 0.3416(3) 0.5510(2) 0.0592(8) Uani 1 1 d .
H2 H 0.829920 0.407332 0.502159 0.071 Uiso 1 1 calc R
C4 C 0.7672(7) 0.1294(3) 0.6029(2) 0.0603(8) Uani 1 1 d .
H4 H 0.827158 0.051150 0.589372 0.072 Uiso 1 1 calc R
C3 C 0.8610(7) 0.2267(3) 0.5311(2) 0.0614(8) Uani 1 1 d .
H3 H 0.987035 0.214536 0.469438 0.074 Uiso 1 1 calc R
loop_
_atom_site_aniso_label
_atom_site_aniso_U_11
_atom_site_aniso_U_22
_atom_site_aniso_U_33
_atom_site_aniso_U_23
_atom_site_aniso_U_13
_atom_site_aniso_U_12
N2 0.0384(11) 0.0383(13) 0.0407(12) -0.0092(10) 0.0002(9) -0.0003(9)
C13 0.0361(13) 0.0402(16) 0.0413(15) -0.0126(12) 0.0013(11) -0.0047(11)
C14 0.0401(13) 0.0353(15) 0.0475(16) -0.0155(12) -0.0027(12) 0.0006(10)
C10 0.0344(12) 0.0296(14) 0.0408(14) -0.0087(11) -0.0045(11) 0.0007(10)
C9 0.0380(13) 0.0327(15) 0.0404(15) -0.0084(11) -0.0058(11) -0.0019(10)
C6 0.0374(13) 0.0394(16) 0.0375(14) -0.0065(11) -0.0037(11) -0.0032(10)
C11 0.0406(13) 0.0333(15) 0.0449(15) -0.0066(12) 0.0005(11) 0.0032(10)
N1 0.0524(13) 0.0367(13) 0.0434(13) -0.0088(10) -0.0016(10) 0.0035(10)
N3 0.0547(14) 0.0540(17) 0.0431(14) -0.0157(12) 0.0048(11) 0.0001(11)
C7 0.0366(13) 0.0354(15) 0.0398(14) -0.0058(11) -0.0026(11) -0.0041(10)
C8 0.0531(15) 0.0357(16) 0.0435(15) -0.0048(12) -0.0050(13) 0.0023(11)
O2 0.1084(17) 0.0599(15) 0.0552(13) -0.0041(11) 0.0282(12) -0.0072(12)
C12 0.0459(14) 0.0377(16) 0.0442(15) -0.0040(12) -0.0016(12) -0.0015(11)
C1 0.0564(16) 0.0497(18) 0.0460(17) -0.0054(14) -0.0036(13) -0.0064(13)
C5 0.0518(15) 0.0446(17) 0.0490(17) -0.0085(13) 0.0044(13) -0.0035(12)
O1 0.1100(17) 0.0612(16) 0.0631(14) -0.0169(11) 0.0214(12) 0.0212(12)
C2 0.0588(17) 0.068(2) 0.0464(18) 0.0015(15) 0.0018(14) -0.0154(15)
C4 0.0631(17) 0.058(2) 0.0557(19) -0.0177(15) 0.0081(15) 0.0038(14)
C3 0.0564(17) 0.082(2) 0.0425(17) -0.0146(16) 0.0090(13) -0.0053(15)
loop_
_atom_type_symbol
_atom_type_description
_atom_type_scat_dispersion_real
_atom_type_scat_dispersion_imag
_atom_type_scat_source
C C 0.0033 0.0016 'International Tables Vol C Tables 4.2.6.8 and 6.1.1.4'
H H 0.0000 0.0000 'International Tables Vol C Tables 4.2.6.8 and 6.1.1.4'
N N 0.0061 0.0033 'International Tables Vol C Tables 4.2.6.8 and 6.1.1.4'
O O 0.0106 0.0060 'International Tables Vol C Tables 4.2.6.8 and 6.1.1.4'
loop_
_geom_angle_atom_site_label_1
_geom_angle_atom_site_label_2
_geom_angle_atom_site_label_3
_geom_angle
C7 N2 C10 117.4(2)
C14 C13 N3 118.9(2)
C14 C13 C12 122.9(2)
C12 C13 N3 118.2(2)
C13 C14 C9 118.3(2)
N2 C10 C9 121.3(2)
N2 C10 C11 119.6(2)
C11 C10 C9 119.1(2)
C14 C9 C10 120.1(2)
N1 C9 C14 119.2(2)
N1 C9 C10 120.7(2)
C1 C6 C7 121.9(2)
C5 C6 C7 120.0(2)
C5 C6 C1 118.1(2)
C12 C11 C10 120.3(2)
C8 N1 C9 116.2(2)
O2 N3 C13 117.8(2)
O2 N3 O1 123.5(2)
O1 N3 C13 118.8(2)
N2 C7 C6 118.4(2)
N2 C7 C8 120.3(2)
C8 C7 C6 121.3(2)
N1 C8 C7 124.2(2)
C11 C12 C13 119.3(2)
C2 C1 C6 120.1(3)
C4 C5 C6 121.3(2)
C3 C2 C1 120.9(3)
C3 C4 C5 120.0(3)
C2 C3 C4 119.7(3)
loop_
_geom_bond_atom_site_label_1
_geom_bond_atom_site_label_2
_geom_bond_distance
N2 C10 1.368(3)
N2 C7 1.322(3)
C13 C14 1.363(3)
C13 N3 1.473(3)
C13 C12 1.401(3)
C14 C9 1.406(3)
C10 C9 1.417(3)
C10 C11 1.411(3)
C9 N1 1.372(3)
C6 C7 1.480(3)
C6 C1 1.392(3)
C6 C5 1.387(3)
C11 C12 1.366(3)
N1 C8 1.303(3)
N3 O2 1.218(3)
N3 O1 1.220(3)
C7 C8 1.429(3)
C1 C2 1.387(3)
C5 C4 1.379(3)
C2 C3 1.367(4)
C4 C3 1.376(4)
