#------------------------------------------------------------------------------
#$Date: 2017-06-01 07:31:36 +0300 (Thu, 01 Jun 2017) $
#$Revision: 197128 $
#$URL: file:///home/coder/svn-repositories/cod/cif/7/15/56/7155664.cif $
#------------------------------------------------------------------------------
#
# This file is available in the Crystallography Open Database (COD),
# http://www.crystallography.net/
#
# All data on this site have been placed in the public domain by the
# contributors.
#
data_7155664
loop_
_publ_author_name
'Wan, Wen'
'Li, jialiang'
'Ma, Bin Guo'
'Chen, Yunrong'
'Jiang, Haizhen'
'Deng, Hongmei'
'Hao, Jian'
_publ_section_title
;
 Ag(I)-catalyzed Oxidative Decarboxylation of Difluoroacetates with
 Activated Alkenes to Form Difluorooxindoles
;
_journal_name_full               'Org. Biomol. Chem.'
_journal_paper_doi               10.1039/C7OB00955K
_journal_year                    2017
_chemical_formula_moiety         'C16 H19 F2 N O'
_chemical_formula_sum            'C16 H19 F2 N O'
_chemical_formula_weight         279.32
_chemical_name_systematic
(E)-2,2-difluoro-1-(piperidin-1-yl)-4-(p-tolyl)but-3-en-1-one
_space_group_crystal_system      triclinic
_space_group_IT_number           2
_space_group_name_Hall           '-P 1'
_space_group_name_H-M_alt        'P -1'
_symmetry_space_group_name_Hall  '-P 1'
_symmetry_space_group_name_H-M   'P -1'
_atom_sites_solution_hydrogens   geom
_audit_block_doi                 10.5517/ccdc.csd.cc1k0gbc
_audit_creation_date             2015-10-09
_audit_creation_method
;
Olex2 1.2
(compiled 2015.09.30 svn.r3233 for OlexSys, GUI svn.r5103)
;
_audit_update_record
;
2015-10-09 deposited with the CCDC.
2017-05-31 downloaded from the CCDC.
;
_cell_angle_alpha                73.54(3)
_cell_angle_beta                 85.59(3)
_cell_angle_gamma                81.51(3)
_cell_formula_units_Z            2
_cell_length_a                   5.7679(19)
_cell_length_b                   9.859(3)
_cell_length_c                   13.531(4)
_cell_measurement_reflns_used    760
_cell_measurement_temperature    295.35(10)
_cell_measurement_theta_max      20.6190
_cell_measurement_theta_min      3.9220
_cell_volume                     729.3(4)
_computing_cell_refinement
;
CrysAlisPro, Agilent Technologies,
Version 1.171.37.33 (release 27-03-2014 CrysAlis171 .NET)
(compiled Mar 27 2014,17:12:48)
;
_computing_data_collection
;
CrysAlisPro, Agilent Technologies,
Version 1.171.37.33 (release 27-03-2014 CrysAlis171 .NET)
(compiled Mar 27 2014,17:12:48)
;
_computing_data_reduction
;
CrysAlisPro, Agilent Technologies,
Version 1.171.37.33 (release 27-03-2014 CrysAlis171 .NET)
(compiled Mar 27 2014,17:12:48)
;
_computing_molecular_graphics    'Olex2 (Dolomanov et al., 2009)'
_computing_publication_material  'Olex2 (Dolomanov et al., 2009)'
_computing_structure_refinement  'ShelXL (Sheldrick, 2015)'
_computing_structure_solution    'ShelXS (Sheldrick, 2008)'
_diffrn_ambient_environment      air
_diffrn_ambient_temperature      295.35(10)
_diffrn_detector                 'CCD plate'
_diffrn_detector_area_resol_mean 16.0733
_diffrn_detector_type            Eos
_diffrn_measured_fraction_theta_full 0.996
_diffrn_measured_fraction_theta_max 0.995
_diffrn_measurement_details
;
#__ type_ start__ end____ width___ exp.time_
  1 omega   30.00   88.00   2.0000    2.0000
omega____ theta____ kappa____ phi______ frames
    -       20.5854   77.0000  -60.0000 29

#__ type_ start__ end____ width___ exp.time_
  2 omega   38.00   88.00   2.0000    2.0000
omega____ theta____ kappa____ phi______ frames
    -       20.5854   57.0000 -180.0000 25

#__ type_ start__ end____ width___ exp.time_
  3 omega  -20.00   16.00   2.0000    2.0000
omega____ theta____ kappa____ phi______ frames
    -      -17.1479  -99.0000  -30.0000 18

#__ type_ start__ end____ width___ exp.time_
  4 omega  -16.00   48.00   2.0000    2.0000
omega____ theta____ kappa____ phi______ frames
    -       20.5854  -99.0000  -90.0000 32

#__ type_ start__ end____ width___ exp.time_
  5 omega  -48.00   32.00   2.0000    2.0000
omega____ theta____ kappa____ phi______ frames
    -       20.5854  -57.0000   30.0000 40

#__ type_ start__ end____ width___ exp.time_
  6 omega  -20.00   62.00   2.0000    2.0000
omega____ theta____ kappa____ phi______ frames
    -       20.5854  -99.0000  120.0000 41
;
_diffrn_measurement_device       'four-circle diffractometer'
_diffrn_measurement_device_type  'SuperNova, Dual, Cu at zero, Eos'
_diffrn_measurement_method       '\w scans'
_diffrn_orient_matrix_UB_11      -0.0867691000
_diffrn_orient_matrix_UB_12      -0.0442619000
_diffrn_orient_matrix_UB_13      0.0005426000
_diffrn_orient_matrix_UB_21      0.0820079000
_diffrn_orient_matrix_UB_22      -0.0613672000
_diffrn_orient_matrix_UB_23      0.0193604000
_diffrn_orient_matrix_UB_31      -0.0350222000
_diffrn_orient_matrix_UB_32      0.0013776000
_diffrn_orient_matrix_UB_33      0.0511525000
_diffrn_radiation_monochromator  mirror
_diffrn_radiation_probe          x-ray
_diffrn_radiation_type           MoK\a
_diffrn_radiation_wavelength     0.71073
_diffrn_reflns_av_R_equivalents  0.0366
_diffrn_reflns_av_unetI/netI     0.0846
_diffrn_reflns_Laue_measured_fraction_full 0.996
_diffrn_reflns_Laue_measured_fraction_max 0.995
_diffrn_reflns_limit_h_max       7
_diffrn_reflns_limit_h_min       -7
_diffrn_reflns_limit_k_max       12
_diffrn_reflns_limit_k_min       -12
_diffrn_reflns_limit_l_max       16
_diffrn_reflns_limit_l_min       -16
_diffrn_reflns_number            4855
_diffrn_reflns_point_group_measured_fraction_full 0.996
_diffrn_reflns_point_group_measured_fraction_max 0.995
_diffrn_reflns_theta_full        25.500
_diffrn_reflns_theta_max         26.020
_diffrn_reflns_theta_min         3.291
_diffrn_source                   'SuperNova (Mo) X-ray Source'
_exptl_absorpt_coefficient_mu    0.096
_exptl_absorpt_correction_T_max  1.00000
_exptl_absorpt_correction_T_min  0.33041
_exptl_absorpt_correction_type   multi-scan
_exptl_absorpt_process_details
;
CrysAlisPro, Agilent Technologies,
Version 1.171.37.33 (release 27-03-2014 CrysAlis171 .NET)
(compiled Mar 27 2014,17:12:48)
Empirical absorption correction using spherical harmonics,
 implemented in SCALE3 ABSPACK scaling algorithm.
;
_exptl_crystal_colour            'clear light colourless'
_exptl_crystal_colour_lustre     clear
_exptl_crystal_colour_modifier   light
_exptl_crystal_colour_primary    colourless
_exptl_crystal_density_diffrn    1.272
_exptl_crystal_description       block
_exptl_crystal_F_000             296
_exptl_crystal_size_max          0.33
_exptl_crystal_size_mid          0.28
_exptl_crystal_size_min          0.24
_refine_diff_density_max         0.188
_refine_diff_density_min         -0.212
_refine_diff_density_rms         0.050
_refine_ls_extinction_method     none
_refine_ls_goodness_of_fit_ref   1.056
_refine_ls_hydrogen_treatment    constr
_refine_ls_matrix_type           full
_refine_ls_number_parameters     182
_refine_ls_number_reflns         2848
_refine_ls_number_restraints     0
_refine_ls_restrained_S_all      1.056
_refine_ls_R_factor_all          0.1435
_refine_ls_R_factor_gt           0.0660
_refine_ls_shift/su_max          0.000
_refine_ls_shift/su_mean         0.000
_refine_ls_structure_factor_coef Fsqd
_refine_ls_weighting_details
'w=1/[\s^2^(Fo^2^)+(0.0630P)^2^+0.0648P] where P=(Fo^2^+2Fc^2^)/3'
_refine_ls_weighting_scheme      calc
_refine_ls_wR_factor_gt          0.1400
_refine_ls_wR_factor_ref         0.1998
_reflns_Friedel_coverage         0.000
_reflns_number_gt                1326
_reflns_number_total             2848
_reflns_threshold_expression     'I > 2\s(I)'
_cod_data_source_file            c7ob00955k2.cif
_cod_data_source_block           wangchao0506
_cod_original_cell_volume        729.4(4)
_cod_database_code               7155664
_shelx_space_group_comment
;
The symmetry employed for this shelxl refinement is uniquely defined
by the following loop, which should always be used as a source of
symmetry information in preference to the above space-group names.
They are only intended as comments.
;
_reflns_odcompleteness_completeness 99.57
_reflns_odcompleteness_iscentric 1
_reflns_odcompleteness_theta     26.32
_olex2_refinement_description
;
1. Fixed Uiso
 At 1.2 times of:
  All C(H) groups, All C(H,H) groups
 At 1.5 times of:
  All C(H,H,H) groups
2.a Secondary CH2 refined with riding coordinates:
 C11(H11A,H11B), C12(H12A,H12B), C13(H13A,H13B), C14(H14A,H14B), C15(H15A,H15B)
2.b Aromatic/amide H refined with riding coordinates:
 C1(H1), C2(H2), C4(H4), C5(H5), C7(H7), C8(H8)
2.c Idealised Me refined as rotating group:
 C16(H16A,H16B,H16C)
;
_shelx_res_file
;
    wangchao0506.res created by SHELXL-2014/7

TITL wangchao0506 in P-1 #2
REM reset to P-1 #2
CELL 0.71073 5.767933 9.859162 13.531213 73.5412 85.5945 81.5054
ZERR 2 0.001856 0.003185 0.003992 0.0271 0.0251 0.0267
LATT 1
SFAC C H F N O
UNIT 32 38 4 2 2

L.S. 20
PLAN  20
BOND
MORE -1
BOND $H
CONF
fmap 2
acta 51.0
SHEL 999 0.81
REM <olex2.extras>
REM <HklSrc "%.\\wangchao0506.hkl">
REM </olex2.extras>

WGHT    0.063000    0.064800
FVAR      12.16234
F1    3    0.109404    0.707255    0.751418    11.00000    0.09164    0.09262 =
         0.06675   -0.01877   -0.01524   -0.03736
F2    3   -0.169396    0.844052    0.660776    11.00000    0.10424    0.05074 =
         0.08280   -0.01670    0.00246   -0.00646
O1    5    0.271096    0.608206    0.601764    11.00000    0.04938    0.08738 =
         0.06946   -0.00354    0.00036   -0.00788
N1    4   -0.044034    0.702724    0.503899    11.00000    0.05651    0.05377 =
         0.04656   -0.00540    0.00199   -0.01270
C1    1   -0.532664    0.374554    0.851336    11.00000    0.05734    0.06494 =
         0.04201   -0.01075    0.00288   -0.01066
AFIX  43
H1    2   -0.571449    0.418560    0.783189    11.00000   -1.20000
AFIX   0
C2    1   -0.662794    0.272668    0.911899    11.00000    0.05701    0.06735 =
         0.05607   -0.01454    0.00042   -0.01364
AFIX  43
H2    2   -0.789034    0.249988    0.883701    11.00000   -1.20000
AFIX   0
C3    1   -0.610649    0.203406    1.013316    11.00000    0.06088    0.04990 =
         0.05578   -0.01186    0.01139    0.00082
C4    1   -0.426560    0.241566    1.053244    11.00000    0.07447    0.07220 =
         0.04324   -0.00303    0.00181    0.00096
AFIX  43
H4    2   -0.390588    0.198762    1.121861    11.00000   -1.20000
AFIX   0
C5    1   -0.293807    0.342443    0.993273    11.00000    0.06115    0.07069 =
         0.05399   -0.00944   -0.00631   -0.00841
AFIX  43
H5    2   -0.167600    0.364135    1.022116    11.00000   -1.20000
AFIX   0
C6    1   -0.342938    0.412203    0.891569    11.00000    0.04943    0.04959 =
         0.05174   -0.01312    0.00562   -0.00277
C7    1   -0.195158    0.516873    0.832748    11.00000    0.05953    0.05960 =
         0.04988   -0.00933    0.00010   -0.00947
AFIX  43
H7    2   -0.060990    0.522243    0.864686    11.00000   -1.20000
AFIX   0
C8    1   -0.227095    0.604746    0.740287    11.00000    0.05495    0.06352 =
         0.05017   -0.01605    0.00327   -0.01046
AFIX  43
H8    2   -0.361688    0.604556    0.706660    11.00000   -1.20000
AFIX   0
C9    1   -0.057465    0.705072    0.686493    11.00000    0.05954    0.05281 =
         0.05560   -0.01028   -0.00756   -0.01007
C10   1    0.070350    0.670590    0.590879    11.00000    0.05236    0.04469 =
         0.05594   -0.00635    0.00586   -0.01587
C11   1    0.080394    0.674146    0.411736    11.00000    0.08209    0.05385 =
         0.05753   -0.01495    0.00928   -0.01188
AFIX  23
H11A  2    0.001775    0.608998    0.388398    11.00000   -1.20000
H11B  2    0.239300    0.629499    0.428381    11.00000   -1.20000
AFIX   0
C12   1    0.086444    0.812292    0.326647    11.00000    0.09709    0.06097 =
         0.05348   -0.00814    0.01625   -0.01867
AFIX  23
H12A  2    0.184622    0.871361    0.346458    11.00000   -1.20000
H12B  2    0.155608    0.791041    0.264199    11.00000   -1.20000
AFIX   0
C13   1   -0.155899    0.893708    0.305210    11.00000    0.10126    0.07436 =
         0.05516    0.00439   -0.00902   -0.01858
AFIX  23
H13A  2   -0.143378    0.986044    0.256461    11.00000   -1.20000
H13B  2   -0.246178    0.841857    0.274286    11.00000   -1.20000
AFIX   0
C14   1   -0.281423    0.914495    0.402499    11.00000    0.06234    0.06848 =
         0.06769    0.00101   -0.00900   -0.00361
AFIX  23
H14A  2   -0.441280    0.958774    0.387664    11.00000   -1.20000
H14B  2   -0.203568    0.977654    0.428282    11.00000   -1.20000
AFIX   0
C15   1   -0.283810    0.772835    0.483972    11.00000    0.05138    0.07839 =
         0.05679   -0.00827   -0.00304   -0.01779
AFIX  23
H15A  2   -0.359439    0.788408    0.547104    11.00000   -1.20000
H15B  2   -0.372441    0.712221    0.460585    11.00000   -1.20000
AFIX   0
C16   1   -0.751042    0.089615    1.078594    11.00000    0.09149    0.06330 =
         0.07867   -0.00136    0.02530   -0.01325
AFIX 137
H16A  2   -0.912684    0.114135    1.060648    11.00000   -1.50000
H16B  2   -0.738394    0.083136    1.150161    11.00000   -1.50000
H16C  2   -0.691080   -0.000590    1.066370    11.00000   -1.50000
AFIX   0
HKLF 4

REM  wangchao0506 in P-1 #2
REM R1 =  0.0660 for    1326 Fo > 4sig(Fo)  and  0.1435 for all    2848 data
REM    182 parameters refined using      0 restraints

END

WGHT      0.0630      0.0648

REM Highest difference peak  0.188,  deepest hole -0.212,  1-sigma level  0.050
Q1    1  -0.8925  0.1667  1.1244  11.00000  0.05    0.19
Q2    1  -0.4630  0.2417  0.7967  11.00000  0.05    0.16
Q3    1  -0.2662  0.0138  1.1261  11.00000  0.05    0.16
Q4    1  -0.7635  0.3947  0.9591  11.00000  0.05    0.15
Q5    1  -0.1968  0.4524  1.0244  11.00000  0.05    0.15
Q6    1  -0.3480  0.7192  0.3359  11.00000  0.05    0.14
Q7    1  -0.8703  0.0582  1.0184  11.00000  0.05    0.14
Q8    1  -1.1652  0.1057  1.0377  11.00000  0.05    0.14
Q9    1  -0.0406  0.9458  0.6028  11.00000  0.05    0.14
Q10   1   0.3525  0.6429  0.7227  11.00000  0.05    0.14
Q11   1   0.1118  0.3983  0.9421  11.00000  0.05    0.14
Q12   1  -0.5712  1.0389  0.4547  11.00000  0.05    0.14
Q13   1   0.1129  0.3154  1.0349  11.00000  0.05    0.14
Q14   1   0.2452  0.7767  0.6994  11.00000  0.05    0.14
Q15   1   0.2073  0.4517  0.8683  11.00000  0.05    0.13
Q16   1  -0.4955  0.0154  1.0812  11.00000  0.05    0.13
Q17   1  -0.6271  0.6572  0.6983  11.00000  0.05    0.13
Q18   1  -0.4150  0.6262  0.3496  11.00000  0.05    0.13
Q19   1  -0.3485  0.7569  0.7000  11.00000  0.05    0.13
Q20   1  -0.1372  0.9750  0.6789  11.00000  0.05    0.13
;
_shelx_res_checksum              53281
_shelx_shelxl_version_number     2014/7
_olex2_date_sample_data_collection 2015-05-08
_olex2_submission_special_instructions 'No special instructions were received'
loop_
_space_group_symop_operation_xyz
'x, y, z'
'-x, -y, -z'
loop_
_atom_site_label
_atom_site_type_symbol
_atom_site_fract_x
_atom_site_fract_y
_atom_site_fract_z
_atom_site_U_iso_or_equiv
_atom_site_adp_type
_atom_site_occupancy
_atom_site_site_symmetry_order
_atom_site_calc_flag
_atom_site_refinement_flags_posn
F1 F 0.1094(4) 0.7073(3) 0.75142(17) 0.0810(7) Uani 1 1 d .
F2 F -0.1694(4) 0.8441(2) 0.66078(17) 0.0803(7) Uani 1 1 d .
O1 O 0.2711(4) 0.6082(3) 0.6018(2) 0.0727(8) Uani 1 1 d .
N1 N -0.0440(5) 0.7027(3) 0.5039(2) 0.0537(8) Uani 1 1 d .
C1 C -0.5327(6) 0.3746(4) 0.8513(3) 0.0556(9) Uani 1 1 d .
H1 H -0.5714 0.4186 0.7832 0.067 Uiso 1 1 calc R
C2 C -0.6628(6) 0.2727(4) 0.9119(3) 0.0602(10) Uani 1 1 d .
H2 H -0.7890 0.2500 0.8837 0.072 Uiso 1 1 calc R
C3 C -0.6106(6) 0.2034(4) 1.0133(3) 0.0577(10) Uani 1 1 d .
C4 C -0.4266(7) 0.2416(4) 1.0532(3) 0.0673(11) Uani 1 1 d .
H4 H -0.3906 0.1988 1.1219 0.081 Uiso 1 1 calc R
C5 C -0.2938(6) 0.3424(4) 0.9933(3) 0.0634(10) Uani 1 1 d .
H5 H -0.1676 0.3641 1.0221 0.076 Uiso 1 1 calc R
C6 C -0.3429(6) 0.4122(4) 0.8916(3) 0.0512(9) Uani 1 1 d .
C7 C -0.1952(6) 0.5169(4) 0.8327(3) 0.0575(9) Uani 1 1 d .
H7 H -0.0610 0.5222 0.8647 0.069 Uiso 1 1 calc R
C8 C -0.2271(6) 0.6047(4) 0.7403(3) 0.0561(9) Uani 1 1 d .
H8 H -0.3617 0.6046 0.7067 0.067 Uiso 1 1 calc R
C9 C -0.0575(6) 0.7051(4) 0.6865(3) 0.0564(9) Uani 1 1 d .
C10 C 0.0703(6) 0.6706(4) 0.5909(3) 0.0520(9) Uani 1 1 d .
C11 C 0.0804(7) 0.6741(4) 0.4117(3) 0.0649(10) Uani 1 1 d .
H11A H 0.0018 0.6090 0.3884 0.078 Uiso 1 1 calc R
H11B H 0.2393 0.6295 0.4284 0.078 Uiso 1 1 calc R
C12 C 0.0864(7) 0.8123(4) 0.3266(3) 0.0723(12) Uani 1 1 d .
H12A H 0.1846 0.8714 0.3465 0.087 Uiso 1 1 calc R
H12B H 0.1556 0.7910 0.2642 0.087 Uiso 1 1 calc R
C13 C -0.1559(8) 0.8937(5) 0.3052(3) 0.0805(13) Uani 1 1 d .
H13A H -0.1434 0.9860 0.2565 0.097 Uiso 1 1 calc R
H13B H -0.2462 0.8419 0.2743 0.097 Uiso 1 1 calc R
C14 C -0.2814(6) 0.9145(4) 0.4025(3) 0.0704(11) Uani 1 1 d .
H14A H -0.4413 0.9588 0.3877 0.085 Uiso 1 1 calc R
H14B H -0.2036 0.9777 0.4283 0.085 Uiso 1 1 calc R
C15 C -0.2838(6) 0.7728(4) 0.4840(3) 0.0633(11) Uani 1 1 d .
H15A H -0.3594 0.7884 0.5471 0.076 Uiso 1 1 calc R
H15B H -0.3724 0.7122 0.4606 0.076 Uiso 1 1 calc R
C16 C -0.7510(7) 0.0896(4) 1.0786(3) 0.0828(13) Uani 1 1 d .
H16A H -0.9127 0.1141 1.0606 0.124 Uiso 1 1 calc GR
H16B H -0.7384 0.0831 1.1502 0.124 Uiso 1 1 calc GR
H16C H -0.6911 -0.0006 1.0664 0.124 Uiso 1 1 calc GR
loop_
_atom_site_aniso_label
_atom_site_aniso_U_11
_atom_site_aniso_U_22
_atom_site_aniso_U_33
_atom_site_aniso_U_23
_atom_site_aniso_U_13
_atom_site_aniso_U_12
F1 0.0916(16) 0.0926(18) 0.0668(15) -0.0188(12) -0.0152(12) -0.0374(13)
F2 0.1042(17) 0.0507(14) 0.0828(16) -0.0167(11) 0.0025(13) -0.0065(12)
O1 0.0494(15) 0.087(2) 0.0695(18) -0.0035(14) 0.0004(13) -0.0079(14)
N1 0.0565(18) 0.0538(18) 0.0466(18) -0.0054(13) 0.0020(14) -0.0127(14)
C1 0.057(2) 0.065(2) 0.042(2) -0.0108(17) 0.0029(16) -0.0107(18)
C2 0.057(2) 0.067(3) 0.056(2) -0.0145(19) 0.0004(17) -0.0136(18)
C3 0.061(2) 0.050(2) 0.056(2) -0.0119(17) 0.0114(18) 0.0008(18)
C4 0.074(3) 0.072(3) 0.043(2) -0.0030(19) 0.0018(19) 0.001(2)
C5 0.061(2) 0.071(3) 0.054(2) -0.0094(19) -0.0063(18) -0.008(2)
C6 0.049(2) 0.050(2) 0.052(2) -0.0131(17) 0.0056(16) -0.0028(16)
C7 0.060(2) 0.060(2) 0.050(2) -0.0093(18) 0.0001(17) -0.0095(18)
C8 0.055(2) 0.064(2) 0.050(2) -0.0161(18) 0.0033(17) -0.0105(18)
C9 0.060(2) 0.053(2) 0.056(2) -0.0103(18) -0.0076(18) -0.0101(18)
C10 0.052(2) 0.045(2) 0.056(2) -0.0063(16) 0.0059(18) -0.0159(17)
C11 0.082(3) 0.054(2) 0.058(2) -0.0150(18) 0.009(2) -0.012(2)
C12 0.097(3) 0.061(3) 0.053(2) -0.0081(19) 0.016(2) -0.019(2)
C13 0.101(3) 0.074(3) 0.055(3) 0.004(2) -0.009(2) -0.019(3)
C14 0.062(2) 0.068(3) 0.068(3) 0.001(2) -0.0090(19) -0.004(2)
C15 0.051(2) 0.078(3) 0.057(2) -0.008(2) -0.0030(17) -0.0178(19)
C16 0.091(3) 0.063(3) 0.079(3) -0.001(2) 0.025(2) -0.013(2)
loop_
_atom_type_symbol
_atom_type_description
_atom_type_scat_dispersion_real
_atom_type_scat_dispersion_imag
_atom_type_scat_source
C C 0.0033 0.0016 'International Tables Vol C Tables 4.2.6.8 and 6.1.1.4'
H H 0.0000 0.0000 'International Tables Vol C Tables 4.2.6.8 and 6.1.1.4'
F F 0.0171 0.0103 'International Tables Vol C Tables 4.2.6.8 and 6.1.1.4'
N N 0.0061 0.0033 'International Tables Vol C Tables 4.2.6.8 and 6.1.1.4'
O O 0.0106 0.0060 'International Tables Vol C Tables 4.2.6.8 and 6.1.1.4'
loop_
_citation_id
_citation_doi
_citation_year
1 10.1021/acs.joc.6b00031 2016
loop_
_geom_angle_atom_site_label_1
_geom_angle_atom_site_label_2
_geom_angle_atom_site_label_3
_geom_angle
C10 N1 C11 119.0(3)
C10 N1 C15 128.2(3)
C15 N1 C11 112.7(3)
C2 C1 H1 119.7
C2 C1 C6 120.6(3)
C6 C1 H1 119.7
C1 C2 H2 119.1
C1 C2 C3 121.8(3)
C3 C2 H2 119.1
C2 C3 C16 121.5(4)
C4 C3 C2 117.6(3)
C4 C3 C16 120.8(4)
C3 C4 H4 119.4
C3 C4 C5 121.1(4)
C5 C4 H4 119.4
C4 C5 H5 119.0
C4 C5 C6 122.0(3)
C6 C5 H5 119.0
C1 C6 C7 124.1(3)
C5 C6 C1 116.9(3)
C5 C6 C7 119.0(3)
C6 C7 H7 115.9
C8 C7 C6 128.2(4)
C8 C7 H7 115.9
C7 C8 H8 118.4
C7 C8 C9 123.1(3)
C9 C8 H8 118.4
F1 C9 F2 103.4(3)
F1 C9 C8 110.8(3)
F1 C9 C10 107.2(3)
F2 C9 C8 110.1(3)
F2 C9 C10 110.2(3)
C8 C9 C10 114.6(3)
O1 C10 N1 124.0(3)
O1 C10 C9 116.9(3)
N1 C10 C9 119.1(3)
N1 C11 H11A 109.6
N1 C11 H11B 109.6
N1 C11 C12 110.1(3)
H11A C11 H11B 108.2
C12 C11 H11A 109.6
C12 C11 H11B 109.6
C11 C12 H12A 109.3
C11 C12 H12B 109.3
H12A C12 H12B 107.9
C13 C12 C11 111.8(3)
C13 C12 H12A 109.3
C13 C12 H12B 109.3
C12 C13 H13A 109.4
C12 C13 H13B 109.4
H13A C13 H13B 108.0
C14 C13 C12 111.3(3)
C14 C13 H13A 109.4
C14 C13 H13B 109.4
C13 C14 H14A 109.5
C13 C14 H14B 109.5
C13 C14 C15 110.7(3)
H14A C14 H14B 108.1
C15 C14 H14A 109.5
C15 C14 H14B 109.5
N1 C15 C14 109.9(3)
N1 C15 H15A 109.7
N1 C15 H15B 109.7
C14 C15 H15A 109.7
C14 C15 H15B 109.7
H15A C15 H15B 108.2
C3 C16 H16A 109.5
C3 C16 H16B 109.5
C3 C16 H16C 109.5
H16A C16 H16B 109.5
H16A C16 H16C 109.5
H16B C16 H16C 109.5
loop_
_geom_bond_atom_site_label_1
_geom_bond_atom_site_label_2
_geom_bond_distance
F1 C9 1.358(4)
F2 C9 1.385(4)
O1 C10 1.227(4)
N1 C10 1.329(4)
N1 C11 1.467(4)
N1 C15 1.460(4)
C1 H1 0.9300
C1 C2 1.380(4)
C1 C6 1.399(4)
C2 H2 0.9300
C2 C3 1.383(5)
C3 C4 1.372(5)
C3 C16 1.514(5)
C4 H4 0.9300
C4 C5 1.381(5)
C5 H5 0.9300
C5 C6 1.383(5)
C6 C7 1.454(4)
C7 H7 0.9300
C7 C8 1.313(5)
C8 H8 0.9300
C8 C9 1.495(5)
C9 C10 1.537(5)
C11 H11A 0.9700
C11 H11B 0.9700
C11 C12 1.517(5)
C12 H12A 0.9700
C12 H12B 0.9700
C12 C13 1.510(5)
C13 H13A 0.9700
C13 H13B 0.9700
C13 C14 1.504(5)
C14 H14A 0.9700
C14 H14B 0.9700
C14 C15 1.516(5)
C15 H15A 0.9700
C15 H15B 0.9700
C16 H16A 0.9600
C16 H16B 0.9600
C16 H16C 0.9600
loop_
_geom_torsion_atom_site_label_1
_geom_torsion_atom_site_label_2
_geom_torsion_atom_site_label_3
_geom_torsion_atom_site_label_4
_geom_torsion
F1 C9 C10 O1 23.0(4)
F1 C9 C10 N1 -160.3(3)
F2 C9 C10 O1 134.9(3)
F2 C9 C10 N1 -48.4(4)
N1 C11 C12 C13 -53.5(5)
C1 C2 C3 C4 1.4(5)
C1 C2 C3 C16 -178.7(3)
C1 C6 C7 C8 9.3(6)
C2 C1 C6 C5 0.3(5)
C2 C1 C6 C7 179.1(3)
C2 C3 C4 C5 -1.9(5)
C3 C4 C5 C6 1.7(6)
C4 C5 C6 C1 -0.8(5)
C4 C5 C6 C7 -179.7(3)
C5 C6 C7 C8 -171.8(4)
C6 C1 C2 C3 -0.6(5)
C6 C7 C8 C9 -178.1(3)
C7 C8 C9 F1 -9.1(5)
C7 C8 C9 F2 -122.9(4)
C7 C8 C9 C10 112.3(4)
C8 C9 C10 O1 -100.4(4)
C8 C9 C10 N1 76.3(4)
C10 N1 C11 C12 -118.7(4)
C10 N1 C15 C14 116.4(4)
C11 N1 C10 O1 -5.6(5)
C11 N1 C10 C9 178.0(3)
C11 N1 C15 C14 -60.1(4)
C11 C12 C13 C14 52.4(5)
C12 C13 C14 C15 -53.7(4)
C13 C14 C15 N1 57.0(4)
C15 N1 C10 O1 178.2(3)
C15 N1 C10 C9 1.8(5)
C15 N1 C11 C12 58.1(4)
C16 C3 C4 C5 178.2(3)
