#------------------------------------------------------------------------------
#$Date: 2019-11-17 15:21:50 +0200 (Sun, 17 Nov 2019) $
#$Revision: 230834 $
#$URL: file:///home/coder/svn-repositories/cod/cif/7/15/61/7156151.cif $
#------------------------------------------------------------------------------
#
# This file is available in the Crystallography Open Database (COD),
# http://www.crystallography.net/
#
# All data on this site have been placed in the public domain by the
# contributors.
#
data_7156151
loop_
_publ_author_name
'Ivanov, Konstantin L.'
'Bezzubov, Stanislav I.'
'Melnikov, Mikhail Ya'
'Budynina, Ekaterina M.'
_publ_section_title
;
 Donor-acceptor cyclopropanes as ortho-quinone methide equivalents in
 formal (4 + 2)-cycloaddition to alkenes.
;
_journal_issue                   21
_journal_name_full               'Organic &amp; biomolecular chemistry'
_journal_page_first              3897
_journal_page_last               3909
_journal_paper_doi               10.1039/c8ob00377g
_journal_volume                  16
_journal_year                    2018
_chemical_formula_moiety         'C13 H13 Br O5'
_chemical_formula_sum            'C13 H13 Br O5'
_chemical_formula_weight         329.14
_chemical_melting_point_gt       385
_chemical_melting_point_lt       386
_chemical_name_systematic
;
Dimethyl 2-(5-bromo-2-hydroxyphenyl)cyclopropane-1,1-dicarboxylate
;
_space_group_crystal_system      triclinic
_space_group_IT_number           2
_space_group_name_Hall           '-P 1'
_space_group_name_H-M_alt        'P -1'
_symmetry_space_group_name_Hall  '-P 1'
_symmetry_space_group_name_H-M   'P -1'
_atom_sites_solution_hydrogens   mixed
_audit_creation_method           SHELXL-2014/7
_audit_update_record
;
2018-01-22 deposited with the CCDC.
2018-03-13 downloaded from the CCDC.
;
_cell_angle_alpha                97.917(2)
_cell_angle_beta                 100.060(2)
_cell_angle_gamma                92.556(2)
_cell_formula_units_Z            2
_cell_length_a                   8.4387(11)
_cell_length_b                   8.5555(11)
_cell_length_c                   9.4816(12)
_cell_measurement_reflns_used    4196
_cell_measurement_temperature    150(2)
_cell_measurement_theta_max      30.352
_cell_measurement_theta_min      2.206
_cell_volume                     665.94(15)
_computing_cell_refinement       'SAINT (Bruker, 2008)'
_computing_data_collection       '<i>APEX2</i> (Bruker, 2008)'
_computing_data_reduction        'SAINT (Bruker, 2008)'
_computing_molecular_graphics    'SHELXTL (Sheldrick, 2008)'
_computing_publication_material  'SHELXTL (Sheldrick, 2008)'
_computing_structure_refinement  'SHELXL-2014/7 (Sheldrick, 2014)'
_computing_structure_solution    'SHELXTL (Sheldrick, 2008)'
_diffrn_ambient_temperature      150(2)
_diffrn_measured_fraction_theta_full 1.000
_diffrn_measured_fraction_theta_max 0.993
_diffrn_measurement_device_type  'Bruker SMART APEX II'
_diffrn_measurement_method       \w
_diffrn_radiation_type           MoK\a
_diffrn_radiation_wavelength     0.71073
_diffrn_reflns_av_R_equivalents  0.0202
_diffrn_reflns_av_unetI/netI     0.0277
_diffrn_reflns_Laue_measured_fraction_full 1.000
_diffrn_reflns_Laue_measured_fraction_max 0.993
_diffrn_reflns_limit_h_max       11
_diffrn_reflns_limit_h_min       -11
_diffrn_reflns_limit_k_max       12
_diffrn_reflns_limit_k_min       -11
_diffrn_reflns_limit_l_max       13
_diffrn_reflns_limit_l_min       -13
_diffrn_reflns_number            7912
_diffrn_reflns_point_group_measured_fraction_full 1.000
_diffrn_reflns_point_group_measured_fraction_max 0.993
_diffrn_reflns_theta_full        25.242
_diffrn_reflns_theta_max         29.999
_diffrn_reflns_theta_min         2.206
_diffrn_source                   'fine-focus sealed tube'
_exptl_absorpt_coefficient_mu    3.099
_exptl_absorpt_correction_type   multi-scan
_exptl_absorpt_process_details   'SADABS (Bruker, 2008)'
_exptl_crystal_colour            COLORLESS
_exptl_crystal_density_diffrn    1.641
_exptl_crystal_description       NUGGET
_exptl_crystal_F_000             332
_exptl_crystal_recrystallization_method
'Re-crystallisation from solvent: dichloromethane'
_exptl_crystal_size_max          0.550
_exptl_crystal_size_mid          0.400
_exptl_crystal_size_min          0.350
_exptl_transmission_factor_max   0.410
_exptl_transmission_factor_min   0.280
_refine_diff_density_max         0.852
_refine_diff_density_min         -0.819
_refine_diff_density_rms         0.065
_refine_ls_extinction_method     none
_refine_ls_goodness_of_fit_ref   1.042
_refine_ls_hydrogen_treatment    mixed
_refine_ls_matrix_type           full
_refine_ls_number_parameters     178
_refine_ls_number_reflns         3855
_refine_ls_number_restraints     0
_refine_ls_restrained_S_all      1.042
_refine_ls_R_factor_all          0.0337
_refine_ls_R_factor_gt           0.0273
_refine_ls_shift/su_max          0.000
_refine_ls_shift/su_mean         0.000
_refine_ls_structure_factor_coef Fsqd
_refine_ls_weighting_details
'w=1/[\s^2^(Fo^2^)+(0.0302P)^2^+0.3079P] where P=(Fo^2^+2Fc^2^)/3'
_refine_ls_weighting_scheme      calc
_refine_ls_wR_factor_gt          0.0643
_refine_ls_wR_factor_ref         0.0670
_reflns_Friedel_coverage         0.000
_reflns_number_gt                3412
_reflns_number_total             3855
_reflns_threshold_expression     'I > 2\s(I)'
_cod_data_source_file            c8ob00377g2.cif
_cod_data_source_block           1c
_cod_depositor_comments
'Adding full bibliography for 7156149--7156154.cif.'
_cod_database_code               7156151
_shelx_shelxl_version_number     2014/7
_shelx_space_group_comment
;
The symmetry employed for this shelxl refinement is uniquely defined
by the following loop, which should always be used as a source of
symmetry information in preference to the above space-group names.
They are only intended as comments.
;
_shelx_estimated_absorpt_t_min   0.280
_shelx_estimated_absorpt_t_max   0.410
_shelx_res_file
;

    z.res created by SHELXL-2014/7


TITL z_a.res in P-1
REM Old TITL z in P-1

REM SHELXT solution in P-1
REM R1 0.115,  Rweak 0.010,  Alpha 0.030,  Orientation as input
REM Formula found by SHELXT:  C13 O5 Br

CELL  0.71073   8.4387   8.5555   9.4816   97.917  100.060   92.556
ZERR    2.000   0.0011   0.0011   0.0012    0.002    0.002    0.002
LATT  1
SFAC C H O BR
UNIT 26 26 10 2
TEMP -123
SIZE .55 .40 .35

L.S. 12
BOND $H
FMAP 2
ACTA
PLAN 5
OMIT -2 60

EQIV $1 1-X,1-Y,2-Z
HTAB O5 O3_$1

WGHT    0.030200    0.307900
FVAR       0.22689
BR1   4    0.235481    0.116224    0.340552    11.00000    0.02979    0.02776 =
         0.02738   -0.00788   -0.00155    0.00635
O1    3    0.178868    0.851455    1.013658    11.00000    0.05344    0.02460 =
         0.02309    0.00140    0.01635   -0.00237
O2    3    0.285675    0.973117    0.854586    11.00000    0.04373    0.01706 =
         0.02207    0.00031    0.01036   -0.00483
O3    3    0.187166    0.511895    0.939888    11.00000    0.02377    0.02404 =
         0.01904    0.00813   -0.00186   -0.00048
O4    3    0.019185    0.476061    0.726243    11.00000    0.01957    0.02290 =
         0.01771    0.00526   -0.00010   -0.00437
O5    3    0.560716    0.569304    0.865389    11.00000    0.02796    0.02625 =
         0.02101    0.00120   -0.00808    0.00393
H1    2    0.621895    0.529397    0.914541    11.00000    0.04709
C1    1    0.194858    0.707034    0.782663    11.00000    0.01813    0.01850 =
         0.01369    0.00404    0.00146    0.00158
C2    1    0.322199    0.681257    0.682392    11.00000    0.01828    0.01881 =
         0.01452    0.00382    0.00209    0.00064
AFIX  13
H2A   2    0.411894    0.765933    0.699415    11.00000   -1.20000
AFIX   0
C3    1    0.159541    0.729985    0.623870    11.00000    0.02249    0.02090 =
         0.01510    0.00642    0.00149    0.00401
AFIX  23
H3A   2    0.084521    0.650196    0.555868    11.00000   -1.20000
H3B   2    0.151811    0.839633    0.602243    11.00000   -1.20000
AFIX   0
C4    1    0.217461    0.848078    0.897042    11.00000    0.02192    0.01757 =
         0.01767    0.00313    0.00160    0.00192
C5    1    0.311199    1.115521    0.960396    11.00000    0.05606    0.01771 =
         0.02733   -0.00297    0.01003   -0.00509
AFIX 137
H5A   2    0.358198    1.201764    0.919322    11.00000   -1.50000
H5B   2    0.384904    1.096381    1.047341    11.00000   -1.50000
H5C   2    0.207751    1.144684    0.986053    11.00000   -1.50000
AFIX   0
C6    1    0.134028    0.557956    0.827241    11.00000    0.01504    0.01913 =
         0.01621    0.00176    0.00253    0.00183
C7    1   -0.027538    0.319350    0.754431    11.00000    0.03616    0.02622 =
         0.02303    0.00592    0.00168   -0.01377
AFIX 137
H7A   2   -0.125237    0.276316    0.685548    11.00000   -1.50000
H7B   2   -0.048809    0.326420    0.853388    11.00000   -1.50000
H7C   2    0.059930    0.249661    0.743361    11.00000   -1.50000
AFIX   0
C8    1    0.370051    0.516368    0.649224    11.00000    0.01599    0.01967 =
         0.01587    0.00425    0.00362    0.00180
C9    1    0.491421    0.463176    0.748836    11.00000    0.01799    0.02330 =
         0.01599    0.00291    0.00168    0.00081
C10   1    0.533744    0.307338    0.727887    11.00000    0.02245    0.02856 =
         0.02032    0.00501    0.00126    0.00970
AFIX  43
H10A  2    0.615994    0.272030    0.795680    11.00000   -1.20000
AFIX   0
C11   1    0.455428    0.203590    0.607628    11.00000    0.02658    0.02450 =
         0.02353    0.00179    0.00476    0.00986
AFIX  43
H11A  2    0.481937    0.096464    0.593988    11.00000   -1.20000
AFIX   0
C12   1    0.338568    0.257440    0.507902    11.00000    0.01981    0.02343 =
         0.01839   -0.00132    0.00342    0.00234
C13   1    0.295482    0.412468    0.527041    11.00000    0.01597    0.02327 =
         0.01657    0.00369    0.00310    0.00271
AFIX  43
H13A  2    0.215467    0.447621    0.457123    11.00000   -1.20000

AFIX   0
HKLF 4

REM  z_a.res in P-1
REM R1 =  0.0273 for    3412 Fo > 4sig(Fo)  and  0.0337 for all    3855 data
REM    178 parameters refined using      0 restraints

END

WGHT      0.0302      0.3079

REM Highest difference peak  0.852,  deepest hole -0.819,  1-sigma level  0.065
Q1    1   0.2246  0.0966  0.4132  11.00000  0.05    0.85
Q2    1   0.2060  0.2003  0.3325  11.00000  0.05    0.54
Q3    1   0.3495  0.6015  0.6702  11.00000  0.05    0.44
Q4    1   0.2741  0.0214  0.3441  11.00000  0.05    0.43
Q5    1   0.3268  0.4550  0.5960  11.00000  0.05    0.37
;
_shelx_res_checksum              63788
loop_
_space_group_symop_operation_xyz
'x, y, z'
'-x, -y, -z'
loop_
_atom_site_label
_atom_site_type_symbol
_atom_site_fract_x
_atom_site_fract_y
_atom_site_fract_z
_atom_site_U_iso_or_equiv
_atom_site_adp_type
_atom_site_occupancy
_atom_site_site_symmetry_order
_atom_site_calc_flag
_atom_site_refinement_flags_posn
_atom_site_refinement_flags_adp
Br1 Br 0.23548(2) 0.11622(2) 0.34055(2) 0.03014(6) Uani 1 1 d . .
O1 O 0.17887(18) 0.85146(15) 1.01366(13) 0.0329(3) Uani 1 1 d . .
O2 O 0.28567(16) 0.97312(14) 0.85459(13) 0.0276(3) Uani 1 1 d . .
O3 O 0.18717(14) 0.51190(14) 0.93989(12) 0.0226(2) Uani 1 1 d . .
O4 O 0.01918(13) 0.47606(13) 0.72624(12) 0.0205(2) Uani 1 1 d . .
O5 O 0.56072(16) 0.56930(15) 0.86539(13) 0.0268(3) Uani 1 1 d . .
H1 H 0.622(3) 0.529(3) 0.915(3) 0.047(7) Uiso 1 1 d . .
C1 C 0.19486(18) 0.70703(17) 0.78266(15) 0.0168(3) Uani 1 1 d . .
C2 C 0.32220(18) 0.68126(18) 0.68239(15) 0.0172(3) Uani 1 1 d . .
H2A H 0.4119 0.7659 0.6994 0.021 Uiso 1 1 calc R U
C3 C 0.15954(19) 0.72999(19) 0.62387(16) 0.0193(3) Uani 1 1 d . .
H3A H 0.0845 0.6502 0.5559 0.023 Uiso 1 1 calc R U
H3B H 0.1518 0.8396 0.6022 0.023 Uiso 1 1 calc R U
C4 C 0.21746(19) 0.84808(18) 0.89704(16) 0.0192(3) Uani 1 1 d . .
C5 C 0.3112(3) 1.1155(2) 0.9604(2) 0.0342(4) Uani 1 1 d . .
H5A H 0.3582 1.2018 0.9193 0.051 Uiso 1 1 calc R U
H5B H 0.3849 1.0964 1.0473 0.051 Uiso 1 1 calc R U
H5C H 0.2078 1.1447 0.9861 0.051 Uiso 1 1 calc R U
C6 C 0.13403(17) 0.55796(18) 0.82724(15) 0.0169(3) Uani 1 1 d . .
C7 C -0.0275(2) 0.3194(2) 0.75443(19) 0.0292(4) Uani 1 1 d . .
H7A H -0.1252 0.2763 0.6855 0.044 Uiso 1 1 calc R U
H7B H -0.0488 0.3264 0.8534 0.044 Uiso 1 1 calc R U
H7C H 0.0599 0.2497 0.7434 0.044 Uiso 1 1 calc R U
C8 C 0.37005(17) 0.51637(18) 0.64922(15) 0.0169(3) Uani 1 1 d . .
C9 C 0.49142(18) 0.46318(19) 0.74884(16) 0.0193(3) Uani 1 1 d . .
C10 C 0.5337(2) 0.3073(2) 0.72789(17) 0.0237(3) Uani 1 1 d . .
H10A H 0.6160 0.2720 0.7957 0.028 Uiso 1 1 calc R U
C11 C 0.4554(2) 0.2036(2) 0.60763(18) 0.0248(3) Uani 1 1 d . .
H11A H 0.4819 0.0965 0.5940 0.030 Uiso 1 1 calc R U
C12 C 0.33857(19) 0.25744(19) 0.50790(16) 0.0209(3) Uani 1 1 d . .
C13 C 0.29548(18) 0.41247(18) 0.52704(16) 0.0185(3) Uani 1 1 d . .
H13A H 0.2155 0.4476 0.4571 0.022 Uiso 1 1 calc R U
loop_
_atom_site_aniso_label
_atom_site_aniso_U_11
_atom_site_aniso_U_22
_atom_site_aniso_U_33
_atom_site_aniso_U_23
_atom_site_aniso_U_13
_atom_site_aniso_U_12
Br1 0.02979(10) 0.02776(10) 0.02738(9) -0.00788(6) -0.00155(6) 0.00635(6)
O1 0.0534(8) 0.0246(6) 0.0231(6) 0.0014(5) 0.0164(6) -0.0024(6)
O2 0.0437(7) 0.0171(5) 0.0221(5) 0.0003(4) 0.0104(5) -0.0048(5)
O3 0.0238(6) 0.0240(6) 0.0190(5) 0.0081(4) -0.0019(4) -0.0005(4)
O4 0.0196(5) 0.0229(5) 0.0177(5) 0.0053(4) -0.0001(4) -0.0044(4)
O5 0.0280(6) 0.0263(6) 0.0210(5) 0.0012(5) -0.0081(5) 0.0039(5)
C1 0.0181(6) 0.0185(7) 0.0137(6) 0.0040(5) 0.0015(5) 0.0016(5)
C2 0.0183(7) 0.0188(7) 0.0145(6) 0.0038(5) 0.0021(5) 0.0006(5)
C3 0.0225(7) 0.0209(7) 0.0151(6) 0.0064(5) 0.0015(5) 0.0040(6)
C4 0.0219(7) 0.0176(7) 0.0177(6) 0.0031(5) 0.0016(5) 0.0019(5)
C5 0.0561(12) 0.0177(8) 0.0273(8) -0.0030(6) 0.0100(8) -0.0051(8)
C6 0.0150(6) 0.0191(7) 0.0162(6) 0.0018(5) 0.0025(5) 0.0018(5)
C7 0.0362(9) 0.0262(8) 0.0230(8) 0.0059(6) 0.0017(7) -0.0138(7)
C8 0.0160(6) 0.0197(7) 0.0159(6) 0.0042(5) 0.0036(5) 0.0018(5)
C9 0.0180(7) 0.0233(7) 0.0160(6) 0.0029(5) 0.0017(5) 0.0008(5)
C10 0.0224(7) 0.0286(8) 0.0203(7) 0.0050(6) 0.0013(6) 0.0097(6)
C11 0.0266(8) 0.0245(8) 0.0235(7) 0.0018(6) 0.0048(6) 0.0099(6)
C12 0.0198(7) 0.0234(7) 0.0184(7) -0.0013(5) 0.0034(5) 0.0023(6)
C13 0.0160(6) 0.0233(7) 0.0166(6) 0.0037(5) 0.0031(5) 0.0027(5)
loop_
_atom_type_symbol
_atom_type_description
_atom_type_scat_dispersion_real
_atom_type_scat_dispersion_imag
_atom_type_scat_source
C C 0.0033 0.0016 'International Tables Vol C Tables 4.2.6.8 and 6.1.1.4'
H H 0.0000 0.0000 'International Tables Vol C Tables 4.2.6.8 and 6.1.1.4'
O O 0.0106 0.0060 'International Tables Vol C Tables 4.2.6.8 and 6.1.1.4'
Br Br -0.2901 2.4595 'International Tables Vol C Tables 4.2.6.8 and 6.1.1.4'
loop_
_geom_angle_atom_site_label_1
_geom_angle_atom_site_label_2
_geom_angle_atom_site_label_3
_geom_angle
C4 O2 C5 114.93(13)
C6 O4 C7 115.15(12)
C9 O5 H1 109(2)
C4 C1 C6 114.90(12)
C4 C1 C3 119.31(13)
C6 C1 C3 119.88(12)
C4 C1 C2 119.14(13)
C6 C1 C2 113.66(12)
C3 C1 C2 57.72(9)
C3 C2 C8 122.35(13)
C3 C2 C1 60.01(9)
C8 C2 C1 116.79(12)
C3 C2 H2A 115.4
C8 C2 H2A 115.4
C1 C2 H2A 115.4
C2 C3 C1 62.27(9)
C2 C3 H3A 117.5
C1 C3 H3A 117.5
C2 C3 H3B 117.5
C1 C3 H3B 117.5
H3A C3 H3B 114.6
O1 C4 O2 123.32(14)
O1 C4 C1 124.96(14)
O2 C4 C1 111.72(13)
O2 C5 H5A 109.5
O2 C5 H5B 109.5
H5A C5 H5B 109.5
O2 C5 H5C 109.5
H5A C5 H5C 109.5
H5B C5 H5C 109.5
O3 C6 O4 122.98(14)
O3 C6 C1 124.11(13)
O4 C6 C1 112.83(12)
O4 C7 H7A 109.5
O4 C7 H7B 109.5
H7A C7 H7B 109.5
O4 C7 H7C 109.5
H7A C7 H7C 109.5
H7B C7 H7C 109.5
C13 C8 C9 119.15(14)
C13 C8 C2 122.76(13)
C9 C8 C2 118.05(13)
O5 C9 C10 122.77(14)
O5 C9 C8 116.76(14)
C10 C9 C8 120.46(14)
C11 C10 C9 119.86(14)
C11 C10 H10A 120.1
C9 C10 H10A 120.1
C12 C11 C10 119.51(15)
C12 C11 H11A 120.2
C10 C11 H11A 120.2
C11 C12 C13 121.28(15)
C11 C12 Br1 119.37(12)
C13 C12 Br1 119.35(11)
C12 C13 C8 119.71(14)
C12 C13 H13A 120.1
C8 C13 H13A 120.1
loop_
_geom_bond_atom_site_label_1
_geom_bond_atom_site_label_2
_geom_bond_distance
Br1 C12 1.9053(16)
O1 C4 1.2030(19)
O2 C4 1.3351(19)
O2 C5 1.450(2)
O3 C6 1.2089(18)
O4 C6 1.3332(18)
O4 C7 1.454(2)
O5 C9 1.3558(19)
O5 H1 0.76(3)
C1 C4 1.488(2)
C1 C6 1.495(2)
C1 C3 1.5245(19)
C1 C2 1.558(2)
C2 C3 1.488(2)
C2 C8 1.492(2)
C2 H2A 1.0000
C3 H3A 0.9900
C3 H3B 0.9900
C5 H5A 0.9800
C5 H5B 0.9800
C5 H5C 0.9800
C7 H7A 0.9800
C7 H7B 0.9800
C7 H7C 0.9800
C8 C13 1.393(2)
C8 C9 1.404(2)
C9 C10 1.392(2)
C10 C11 1.389(2)
C10 H10A 0.9500
C11 C12 1.383(2)
C11 H11A 0.9500
C12 C13 1.387(2)
C13 H13A 0.9500
loop_
_geom_hbond_atom_site_label_D
_geom_hbond_atom_site_label_H
_geom_hbond_atom_site_label_A
_geom_hbond_distance_DH
_geom_hbond_distance_HA
_geom_hbond_distance_DA
_geom_hbond_angle_DHA
_geom_hbond_site_symmetry_A
O5 H1 O3 0.76(3) 2.01(3) 2.7442(16) 163(3) 2_667
