#------------------------------------------------------------------------------
#$Date: 2019-11-17 15:17:59 +0200 (Sun, 17 Nov 2019) $
#$Revision: 230808 $
#$URL: file:///home/coder/svn-repositories/cod/cif/7/15/63/7156315.cif $
#------------------------------------------------------------------------------
#
# This file is available in the Crystallography Open Database (COD),
# http://www.crystallography.net/
#
# All data on this site have been placed in the public domain by the
# contributors.
#
data_7156315
loop_
_publ_author_name
'Wen, Ke'
'Wu, Zhengxing'
'Chen, Buyun'
'Chen, Jianzhong'
'Zhang, Wanbin'
_publ_section_title
;
 Pd(ii)-Catalyzed aerobic 1,2-difunctionalization of conjugated dienes:
 efficient synthesis of morpholines and 2-morpholones.
;
_journal_issue                   31
_journal_name_full               'Organic &amp; biomolecular chemistry'
_journal_page_first              5618
_journal_page_last               5625
_journal_paper_doi               10.1039/c8ob01291a
_journal_volume                  16
_journal_year                    2018
_chemical_absolute_configuration ad
_chemical_formula_moiety         'C13 H15 N O4 S'
_chemical_formula_sum            'C13 H15 N O4 S'
_chemical_formula_weight         281.32
_space_group_crystal_system      monoclinic
_space_group_IT_number           4
_space_group_name_Hall           'P 2yb'
_space_group_name_H-M_alt        'P 1 21 1'
_symmetry_space_group_name_Hall  'P 2yb'
_symmetry_space_group_name_H-M   'P 1 21 1'
_atom_sites_solution_hydrogens   geom
_audit_creation_method           SHELXL-2014/7
_audit_update_record
;
2018-04-11 deposited with the CCDC.
2018-07-05 downloaded from the CCDC.
;
_cell_angle_alpha                90
_cell_angle_beta                 104.012(5)
_cell_angle_gamma                90
_cell_formula_units_Z            2
_cell_length_a                   10.8106(10)
_cell_length_b                   5.4540(5)
_cell_length_c                   11.7245(10)
_cell_measurement_reflns_used    4924
_cell_measurement_temperature    223(2)
_cell_measurement_theta_max      67.58
_cell_measurement_theta_min      3.89
_cell_volume                     670.72(11)
_computing_structure_refinement  'SHELXL-2014/7 (Sheldrick, 2014)'
_diffrn_ambient_temperature      223(2)
_diffrn_measured_fraction_theta_full 0.955
_diffrn_measured_fraction_theta_max 0.953
_diffrn_measurement_device_type  'Bruker APEX-II CCD'
_diffrn_measurement_method       '\f and \w scans'
_diffrn_radiation_type           CuK\a
_diffrn_radiation_wavelength     1.54178
_diffrn_reflns_av_R_equivalents  0.0740
_diffrn_reflns_av_unetI/netI     0.0560
_diffrn_reflns_Laue_measured_fraction_full 0.955
_diffrn_reflns_Laue_measured_fraction_max 0.953
_diffrn_reflns_limit_h_max       13
_diffrn_reflns_limit_h_min       -13
_diffrn_reflns_limit_k_max       6
_diffrn_reflns_limit_k_min       -6
_diffrn_reflns_limit_l_max       14
_diffrn_reflns_limit_l_min       -13
_diffrn_reflns_number            9166
_diffrn_reflns_point_group_measured_fraction_full 0.950
_diffrn_reflns_point_group_measured_fraction_max 0.948
_diffrn_reflns_theta_full        67.679
_diffrn_reflns_theta_max         68.403
_diffrn_reflns_theta_min         3.886
_exptl_absorpt_coefficient_mu    2.248
_exptl_crystal_colour            colorless
_exptl_crystal_density_diffrn    1.393
_exptl_crystal_description       blcok
_exptl_crystal_F_000             296
_exptl_crystal_size_max          0.180
_exptl_crystal_size_mid          0.160
_exptl_crystal_size_min          0.120
_exptl_transmission_factor_max   0.7531
_exptl_transmission_factor_min   0.6146
_refine_diff_density_max         0.376
_refine_diff_density_min         -0.247
_refine_diff_density_rms         0.056
_refine_ls_abs_structure_details
;
 Refined as an inversion twin.
;
_refine_ls_abs_structure_Flack   0.20(5)
_refine_ls_extinction_method     none
_refine_ls_goodness_of_fit_ref   1.100
_refine_ls_hydrogen_treatment    constr
_refine_ls_matrix_type           full
_refine_ls_number_parameters     174
_refine_ls_number_reflns         2305
_refine_ls_number_restraints     1
_refine_ls_restrained_S_all      1.099
_refine_ls_R_factor_all          0.0693
_refine_ls_R_factor_gt           0.0544
_refine_ls_shift/su_max          0.003
_refine_ls_shift/su_mean         0.000
_refine_ls_structure_factor_coef Fsqd
_refine_ls_weighting_details
'w=1/[\s^2^(Fo^2^)+(0.0790P)^2^+0.2079P] where P=(Fo^2^+2Fc^2^)/3'
_refine_ls_weighting_scheme      calc
_refine_ls_wR_factor_gt          0.1414
_refine_ls_wR_factor_ref         0.1550
_reflns_Friedel_coverage         0.786
_reflns_Friedel_fraction_full    0.944
_reflns_Friedel_fraction_max     0.942
_reflns_number_gt                1882
_reflns_number_total             2305
_reflns_threshold_expression     'I > 2\s(I)'
_cod_data_source_file            c8ob01291a2.cif
_cod_data_source_block           b_a
_cod_depositor_comments
'Adding full bibliography for 7156313--7156318.cif.'
_cod_database_code               7156315
_shelx_shelxl_version_number     2014/7
_shelx_space_group_comment
;
The symmetry employed for this shelxl refinement is uniquely defined
by the following loop, which should always be used as a source of
symmetry information in preference to the above space-group names.
They are only intended as comments.
;
_shelx_estimated_absorpt_t_min   0.688
_shelx_estimated_absorpt_t_max   0.774
_shelx_res_file
;

    b_a.res created by SHELXL-2014/7


TITL b_a.res in P2(1)
REM Old TITL b in P2(1)
REM SHELXT solution in P2(1)
REM R1 0.129,  Rweak 0.032,  Alpha 0.006,  Orientation as input
REM Flack x =  0.232 ( 0.017 ) from Parsons' quotients
REM Formula found by SHELXT:  C11 N2 O5 S
CELL  1.54178  10.8106   5.4540  11.7245   90.000  104.012   90.000
ZERR    2.000   0.0010   0.0005   0.0010    0.000    0.005    0.000
LATT -1
SYMM -X, 1/2+Y, -Z
SFAC C H N O S
UNIT 26 30 2 8 2
TEMP -50.150
L.S. 10
twin
acta
size 0.18 0.16 0.12
conf
BOND $H
LIST 6
FMAP 2
PLAN 20
WGHT    0.079000    0.207900
BASF   0.19866
FVAR       1.11765
S1    5    0.431609    0.738800    0.698245    11.00000    0.06204    0.04455 =
         0.04390    0.00091    0.02036   -0.00355
C1    1    0.556796    0.553237    0.774286    11.00000    0.04833    0.05282 =
         0.04209   -0.00329    0.01577   -0.01276
N1    3    0.306616    0.564568    0.658468    11.00000    0.05215    0.04506 =
         0.04455   -0.00152    0.01679    0.00025
O1    4    0.460358    0.821830    0.591955    11.00000    0.07090    0.05061 =
         0.04754    0.01091    0.01934   -0.00671
O2    4    0.401793    0.911320    0.778934    11.00000    0.08915    0.04633 =
         0.06170   -0.01186    0.03212    0.00505
C2    1    0.614706    0.394282    0.713408    11.00000    0.05107    0.07636 =
         0.03393   -0.00504    0.01180    0.00189
AFIX  43
H2    2    0.588926    0.387841    0.630926    11.00000   -1.20000
AFIX   0
O4    4    0.110254    0.180200    0.794210    11.00000    0.07874    0.09324 =
         0.07226    0.01341    0.03828   -0.01629
C4    1    0.754091    0.251983    0.894306    11.00000    0.04943    0.06838 =
         0.05100    0.01296    0.01634   -0.00206
O3    4    0.116104    0.200593    0.609839    11.00000    0.06176    0.10480 =
         0.05911    0.00175    0.02446   -0.02142
C3    1    0.711285    0.243079    0.773536    11.00000    0.05107    0.08244 =
         0.05066   -0.00390    0.01628    0.00752
AFIX  43
H3    2    0.748813    0.131177    0.731012    11.00000   -1.20000
AFIX   0
C8    1    0.300398    0.393313    0.562689    11.00000    0.05727    0.06448 =
         0.04774   -0.00063    0.01913    0.00078
AFIX  23
H8A   2    0.351905    0.247815    0.590991    11.00000   -1.20000
H8B   2    0.333720    0.469991    0.500662    11.00000   -1.20000
AFIX   0
C7    1    0.860860    0.092747    0.957658    11.00000    0.05814    0.11425 =
         0.06189    0.02721    0.00828    0.00529
AFIX 137
H7A   2    0.827041   -0.040517    0.995785    11.00000   -1.50000
H7B   2    0.919608    0.188956    1.016376    11.00000   -1.50000
H7C   2    0.905392    0.026209    0.902029    11.00000   -1.50000
AFIX   0
C6    1    0.596145    0.562722    0.895567    11.00000    0.08583    0.06449 =
         0.03826   -0.00497    0.01692    0.00145
AFIX  43
H6    2    0.555419    0.668809    0.938099    11.00000   -1.20000
AFIX   0
C5    1    0.694185    0.417741    0.953260    11.00000    0.07940    0.07497 =
         0.03575    0.00339    0.00357   -0.00720
AFIX  43
H5    2    0.722119    0.430293    1.035452    11.00000   -1.20000
AFIX   0
C9    1    0.163529    0.321875    0.515412    11.00000    0.06057    0.06259 =
         0.05888   -0.00297    0.02066   -0.00431
AFIX  13
H9    2    0.112091    0.470481    0.488646    11.00000   -1.20000
AFIX   0
C10   1    0.142471    0.142164    0.419375    11.00000    0.06609    0.07599 =
         0.06085   -0.00868    0.01012   -0.00888
AFIX  43
H10   2    0.176909   -0.015760    0.436114    11.00000   -1.20000
AFIX   0
C11   1    0.078435    0.189371    0.311714    11.00000    0.05960    0.08515 =
         0.06671   -0.00438    0.00759   -0.00573
AFIX  93
H11A  2    0.042916    0.345710    0.292420    11.00000   -1.20000
H11B  2    0.067999    0.066910    0.253747    11.00000   -1.20000
AFIX   0
C12   1    0.157473    0.267455    0.721836    11.00000    0.05384    0.08206 =
         0.05645   -0.00098    0.02212   -0.01020
C13   1    0.260849    0.456733    0.755939    11.00000    0.05992    0.06722 =
         0.04824   -0.00270    0.02536   -0.00594
AFIX  23
H13A  2    0.229319    0.589549    0.797620    11.00000   -1.20000
H13B  2    0.333578    0.381531    0.811284    11.00000   -1.20000
AFIX   0
HKLF 4

REM  b_a.res in P2(1)
REM R1 =  0.0544 for    1882 Fo > 4sig(Fo)  and  0.0693 for all    2305 data
REM    174 parameters refined using      1 restraints

END

WGHT      0.0740      0.2367

REM Highest difference peak  0.376,  deepest hole -0.247,  1-sigma level  0.056
Q1    1   0.3447  0.2423  0.5616  11.00000  0.05    0.38
Q2    1   0.4911  0.7361  0.7552  11.00000  0.05    0.35
Q3    1   0.0846  0.3304  0.3905  11.00000  0.05    0.24
Q4    1   0.1047  0.3092  0.4204  11.00000  0.05    0.24
Q5    1   0.3803  0.6809  0.7435  11.00000  0.05    0.23
Q6    1   0.2224  0.1817  0.5218  11.00000  0.05    0.22
Q7    1   0.4590  0.8455  0.6633  11.00000  0.05    0.22
Q8    1   0.9546  0.1664  0.9391  11.00000  0.05    0.21
Q9    1   0.7900  0.2406  0.7280  11.00000  0.05    0.21
Q10   1   0.9143 -0.0427  1.1091  11.00000  0.05    0.21
Q11   1   0.5281  0.7402  0.6789  11.00000  0.05    0.21
Q12   1   0.3860  0.5111  0.6599  11.00000  0.05    0.21
Q13   1   0.4802  0.5374  0.7628  11.00000  0.05    0.20
Q14   1   0.5521  0.7534  0.5859  11.00000  0.05    0.20
Q15   1   0.1656  0.0467  0.5968  11.00000  0.05    0.20
Q16   1   0.3133  0.4126  0.6282  11.00000  0.05    0.20
Q17   1   0.4588  0.6382  0.6667  11.00000  0.05    0.19
Q18   1  -0.0110  0.2330  0.3163  11.00000  0.05    0.19
Q19   1   0.2545  0.7398  0.6044  11.00000  0.05    0.19
Q20   1   0.6855  0.5966  0.9406  11.00000  0.05    0.18
;
_shelx_res_checksum              62615
loop_
_space_group_symop_operation_xyz
'x, y, z'
'-x, y+1/2, -z'
loop_
_atom_site_label
_atom_site_type_symbol
_atom_site_fract_x
_atom_site_fract_y
_atom_site_fract_z
_atom_site_U_iso_or_equiv
_atom_site_adp_type
_atom_site_occupancy
_atom_site_site_symmetry_order
_atom_site_calc_flag
_atom_site_refinement_flags_posn
_atom_site_refinement_flags_adp
S1 S 0.43161(13) 0.7388(3) 0.69824(12) 0.0489(4) Uani 1 1 d . .
C1 C 0.5568(6) 0.5532(12) 0.7743(5) 0.0469(14) Uani 1 1 d . .
N1 N 0.3066(5) 0.5646(10) 0.6585(4) 0.0464(12) Uani 1 1 d . .
O1 O 0.4604(4) 0.8218(8) 0.5920(4) 0.0555(11) Uani 1 1 d . .
O2 O 0.4018(5) 0.9113(9) 0.7789(4) 0.0633(12) Uani 1 1 d . .
C2 C 0.6147(6) 0.3943(14) 0.7134(5) 0.0535(16) Uani 1 1 d . .
H2 H 0.5889 0.3878 0.6309 0.064 Uiso 1 1 calc R U
O4 O 0.1103(5) 0.1802(11) 0.7942(4) 0.0780(17) Uani 1 1 d . .
C4 C 0.7541(5) 0.2520(17) 0.8943(5) 0.0556(15) Uani 1 1 d . .
O3 O 0.1161(4) 0.2006(13) 0.6098(4) 0.0735(16) Uani 1 1 d . .
C3 C 0.7113(5) 0.2431(19) 0.7735(5) 0.0607(16) Uani 1 1 d . .
H3 H 0.7488 0.1312 0.7310 0.073 Uiso 1 1 calc R U
C8 C 0.3004(6) 0.3933(14) 0.5627(5) 0.0554(17) Uani 1 1 d . .
H8A H 0.3519 0.2478 0.5910 0.066 Uiso 1 1 calc R U
H8B H 0.3337 0.4700 0.5007 0.066 Uiso 1 1 calc R U
C7 C 0.8609(7) 0.093(2) 0.9577(7) 0.079(3) Uani 1 1 d . .
H7A H 0.8270 -0.0405 0.9958 0.119 Uiso 1 1 calc R U
H7B H 0.9196 0.1890 1.0164 0.119 Uiso 1 1 calc R U
H7C H 0.9054 0.0262 0.9020 0.119 Uiso 1 1 calc R U
C6 C 0.5961(7) 0.5627(15) 0.8956(5) 0.0625(19) Uani 1 1 d . .
H6 H 0.5554 0.6688 0.9381 0.075 Uiso 1 1 calc R U
C5 C 0.6942(7) 0.4177(17) 0.9533(6) 0.0652(19) Uani 1 1 d . .
H5 H 0.7221 0.4303 1.0355 0.078 Uiso 1 1 calc R U
C9 C 0.1635(6) 0.3219(15) 0.5154(6) 0.0596(17) Uani 1 1 d . .
H9 H 0.1121 0.4705 0.4886 0.072 Uiso 1 1 calc R U
C10 C 0.1425(7) 0.1422(17) 0.4194(6) 0.069(2) Uani 1 1 d . .
H10 H 0.1769 -0.0158 0.4361 0.082 Uiso 1 1 calc R U
C11 C 0.0784(6) 0.1894(18) 0.3117(6) 0.072(2) Uani 1 1 d . .
H11A H 0.0429 0.3457 0.2924 0.086 Uiso 1 1 calc R U
H11B H 0.0680 0.0669 0.2537 0.086 Uiso 1 1 calc R U
C12 C 0.1575(6) 0.2675(17) 0.7218(6) 0.0626(19) Uani 1 1 d . .
C13 C 0.2608(6) 0.4567(14) 0.7559(6) 0.0564(17) Uani 1 1 d . .
H13A H 0.2293 0.5895 0.7976 0.068 Uiso 1 1 calc R U
H13B H 0.3336 0.3815 0.8113 0.068 Uiso 1 1 calc R U
loop_
_atom_site_aniso_label
_atom_site_aniso_U_11
_atom_site_aniso_U_22
_atom_site_aniso_U_33
_atom_site_aniso_U_23
_atom_site_aniso_U_13
_atom_site_aniso_U_12
S1 0.0620(8) 0.0445(7) 0.0439(7) 0.0009(8) 0.0204(6) -0.0035(8)
C1 0.048(3) 0.053(4) 0.042(3) -0.003(3) 0.016(2) -0.013(3)
N1 0.052(3) 0.045(3) 0.045(3) -0.002(2) 0.017(2) 0.000(2)
O1 0.071(3) 0.051(2) 0.048(2) 0.011(2) 0.0193(19) -0.007(2)
O2 0.089(3) 0.046(2) 0.062(3) -0.012(2) 0.032(2) 0.005(2)
C2 0.051(3) 0.076(5) 0.034(3) -0.005(3) 0.012(2) 0.002(3)
O4 0.079(3) 0.093(5) 0.072(3) 0.013(3) 0.038(3) -0.016(3)
C4 0.049(3) 0.068(4) 0.051(3) 0.013(4) 0.016(3) -0.002(4)
O3 0.062(2) 0.105(5) 0.059(3) 0.002(3) 0.024(2) -0.021(3)
C3 0.051(3) 0.082(5) 0.051(3) -0.004(5) 0.016(3) 0.008(5)
C8 0.057(3) 0.064(4) 0.048(3) -0.001(3) 0.019(3) 0.001(3)
C7 0.058(4) 0.114(7) 0.062(4) 0.027(5) 0.008(3) 0.005(4)
C6 0.086(5) 0.064(4) 0.038(3) -0.005(3) 0.017(3) 0.001(4)
C5 0.079(4) 0.075(5) 0.036(3) 0.003(4) 0.004(3) -0.007(4)
C9 0.061(4) 0.063(4) 0.059(4) -0.003(3) 0.021(3) -0.004(3)
C10 0.066(4) 0.076(5) 0.061(4) -0.009(4) 0.010(3) -0.009(4)
C11 0.060(4) 0.085(7) 0.067(4) -0.004(4) 0.008(3) -0.006(4)
C12 0.054(3) 0.082(5) 0.056(4) -0.001(4) 0.022(3) -0.010(4)
C13 0.060(4) 0.067(4) 0.048(3) -0.003(3) 0.025(3) -0.006(3)
loop_
_atom_type_symbol
_atom_type_description
_atom_type_scat_dispersion_real
_atom_type_scat_dispersion_imag
_atom_type_scat_source
C C 0.0181 0.0091 'International Tables Vol C Tables 4.2.6.8 and 6.1.1.4'
H H 0.0000 0.0000 'International Tables Vol C Tables 4.2.6.8 and 6.1.1.4'
N N 0.0311 0.0180 'International Tables Vol C Tables 4.2.6.8 and 6.1.1.4'
O O 0.0492 0.0322 'International Tables Vol C Tables 4.2.6.8 and 6.1.1.4'
S S 0.3331 0.5567 'International Tables Vol C Tables 4.2.6.8 and 6.1.1.4'
loop_
_geom_angle_atom_site_label_1
_geom_angle_atom_site_label_2
_geom_angle_atom_site_label_3
_geom_angle
O2 S1 O1 120.1(3)
O2 S1 N1 105.7(3)
O1 S1 N1 106.0(3)
O2 S1 C1 108.3(3)
O1 S1 C1 108.8(3)
N1 S1 C1 107.1(3)
C2 C1 C6 119.7(7)
C2 C1 S1 119.7(5)
C6 C1 S1 120.6(5)
C8 N1 C13 112.5(5)
C8 N1 S1 118.6(4)
C13 N1 S1 115.0(4)
C1 C2 C3 119.8(6)
C1 C2 H2 120.1
C3 C2 H2 120.1
C3 C4 C5 116.9(7)
C3 C4 C7 121.2(7)
C5 C4 C7 121.9(6)
C12 O3 C9 121.3(6)
C4 C3 C2 121.8(7)
C4 C3 H3 119.1
C2 C3 H3 119.1
N1 C8 C9 108.1(5)
N1 C8 H8A 110.1
C9 C8 H8A 110.1
N1 C8 H8B 110.1
C9 C8 H8B 110.1
H8A C8 H8B 108.4
C4 C7 H7A 109.5
C4 C7 H7B 109.5
H7A C7 H7B 109.5
C4 C7 H7C 109.5
H7A C7 H7C 109.5
H7B C7 H7C 109.5
C5 C6 C1 119.8(7)
C5 C6 H6 120.1
C1 C6 H6 120.1
C6 C5 C4 122.0(6)
C6 C5 H5 119.0
C4 C5 H5 119.0
C10 C9 O3 104.9(6)
C10 C9 C8 114.4(6)
O3 C9 C8 109.2(5)
C10 C9 H9 109.4
O3 C9 H9 109.4
C8 C9 H9 109.4
C11 C10 C9 123.7(8)
C11 C10 H10 118.1
C9 C10 H10 118.1
C10 C11 H11A 120.0
C10 C11 H11B 120.0
H11A C11 H11B 120.0
O4 C12 O3 119.6(7)
O4 C12 C13 120.3(6)
O3 C12 C13 120.1(6)
N1 C13 C12 115.8(5)
N1 C13 H13A 108.3
C12 C13 H13A 108.3
N1 C13 H13B 108.3
C12 C13 H13B 108.3
H13A C13 H13B 107.4
loop_
_geom_bond_atom_site_label_1
_geom_bond_atom_site_label_2
_geom_bond_distance
S1 O2 1.425(4)
S1 O1 1.429(4)
S1 N1 1.625(5)
S1 C1 1.751(7)
C1 C2 1.367(9)
C1 C6 1.383(8)
N1 C8 1.450(8)
N1 C13 1.473(7)
C2 C3 1.382(10)
C2 H2 0.9400
O4 C12 1.190(8)
C4 C3 1.380(8)
C4 C5 1.390(11)
C4 C7 1.491(11)
O3 C12 1.331(8)
O3 C9 1.484(8)
C3 H3 0.9400
C8 C9 1.500(9)
C8 H8A 0.9800
C8 H8B 0.9800
C7 H7A 0.9700
C7 H7B 0.9700
C7 H7C 0.9700
C6 C5 1.363(11)
C6 H6 0.9400
C5 H5 0.9400
C9 C10 1.468(10)
C9 H9 0.9900
C10 C11 1.310(10)
C10 H10 0.9400
C11 H11A 0.9400
C11 H11B 0.9400
C12 C13 1.503(10)
C13 H13A 0.9800
C13 H13B 0.9800
loop_
_geom_torsion_atom_site_label_1
_geom_torsion_atom_site_label_2
_geom_torsion_atom_site_label_3
_geom_torsion_atom_site_label_4
_geom_torsion
O2 S1 C1 C2 -171.2(5)
O1 S1 C1 C2 -39.1(6)
N1 S1 C1 C2 75.2(5)
O2 S1 C1 C6 9.9(6)
O1 S1 C1 C6 142.1(6)
N1 S1 C1 C6 -103.7(6)
O2 S1 N1 C8 170.8(5)
O1 S1 N1 C8 42.3(5)
C1 S1 N1 C8 -73.8(5)
O2 S1 N1 C13 -51.9(5)
O1 S1 N1 C13 179.6(4)
C1 S1 N1 C13 63.5(5)
C6 C1 C2 C3 0.5(10)
S1 C1 C2 C3 -178.3(6)
C5 C4 C3 C2 1.0(12)
C7 C4 C3 C2 -178.2(7)
C1 C2 C3 C4 -1.8(12)
C13 N1 C8 C9 61.3(7)
S1 N1 C8 C9 -160.4(5)
C2 C1 C6 C5 1.5(11)
S1 C1 C6 C5 -179.7(6)
C1 C6 C5 C4 -2.3(12)
C3 C4 C5 C6 1.1(11)
C7 C4 C5 C6 -179.7(8)
C12 O3 C9 C10 156.7(7)
C12 O3 C9 C8 33.7(9)
N1 C8 C9 C10 -178.3(6)
N1 C8 C9 O3 -61.2(7)
O3 C9 C10 C11 125.5(7)
C8 C9 C10 C11 -115.0(8)
C9 O3 C12 O4 174.1(7)
C9 O3 C12 C13 -4.4(11)
C8 N1 C13 C12 -31.7(8)
S1 N1 C13 C12 -171.6(5)
O4 C12 C13 N1 -176.1(7)
O3 C12 C13 N1 2.4(10)
