#------------------------------------------------------------------------------
#$Date: 2019-11-17 15:23:03 +0200 (Sun, 17 Nov 2019) $
#$Revision: 230843 $
#$URL: file:///home/coder/svn-repositories/cod/cif/7/15/63/7156383.cif $
#------------------------------------------------------------------------------
#
# This file is available in the Crystallography Open Database (COD),
# http://www.crystallography.net/
#
# All data on this site have been placed in the public domain by the
# contributors.
#
data_7156383
loop_
_publ_author_name
'Mai, Wen-Peng'
'Wang, Fei'
'Zhang, Xiao-Feng'
'Wang, Shi-Min'
'Duan, Qun-Peng'
'Lu, Kui'
_publ_section_title
;
 Nickel-catalysed radical tandem cyclisation/arylation: practical
 synthesis of 4-benzyl-3,3-difluoro-\g-lactams.
;
_journal_issue                   35
_journal_name_full               'Organic &amp; biomolecular chemistry'
_journal_page_first              6491
_journal_page_last               6498
_journal_paper_doi               10.1039/c8ob01389f
_journal_volume                  16
_journal_year                    2018
_chemical_formula_moiety         'C19 H15 F2 N O2'
_chemical_formula_sum            'C19 H15 F2 N O2'
_chemical_formula_weight         327.32
_space_group_crystal_system      triclinic
_space_group_IT_number           2
_space_group_name_Hall           '-P 1'
_space_group_name_H-M_alt        'P -1'
_symmetry_space_group_name_Hall  '-P 1'
_symmetry_space_group_name_H-M   'P -1'
_atom_sites_solution_hydrogens   geom
_atom_sites_solution_primary     direct
_audit_creation_date             2018-01-26
_audit_creation_method
;
Olex2 1.2
(compiled 2017.08.10 svn.r3458 for OlexSys, GUI svn.r5381)
;
_audit_update_record
;
2018-01-26 deposited with the CCDC.
2018-08-20 downloaded from the CCDC.
;
_cell_angle_alpha                75.270(17)
_cell_angle_beta                 68.659(18)
_cell_angle_gamma                61.422(19)
_cell_formula_units_Z            2
_cell_length_a                   9.5617(18)
_cell_length_b                   9.7384(18)
_cell_length_c                   10.228(2)
_cell_measurement_reflns_used    1872
_cell_measurement_temperature    293(2)
_cell_measurement_theta_max      69.0940
_cell_measurement_theta_min      4.6460
_cell_volume                     775.3(3)
_computing_cell_refinement
;
CrysAlisPro, Agilent Technologies,
Version 1.171.37.35 (release 13-08-2014 CrysAlis171 .NET)
(compiled Aug 13 2014,18:06:01)
;
_computing_data_collection
;
CrysAlisPro, Agilent Technologies,
Version 1.171.37.35 (release 13-08-2014 CrysAlis171 .NET)
(compiled Aug 13 2014,18:06:01)
;
_computing_data_reduction
;
CrysAlisPro, Agilent Technologies,
Version 1.171.37.35 (release 13-08-2014 CrysAlis171 .NET)
(compiled Aug 13 2014,18:06:01)
;
_computing_molecular_graphics    'Olex2 (Dolomanov et al., 2009)'
_computing_publication_material  'Olex2 (Dolomanov et al., 2009)'
_computing_structure_refinement  'ShelXL (Sheldrick, 2015)'
_computing_structure_solution    'ShelXS (Sheldrick, 2008)'
_diffrn_ambient_temperature      293(2)
_diffrn_detector                 'CCD plate'
_diffrn_detector_area_resol_mean 16.2312
_diffrn_detector_type            Eos
_diffrn_measured_fraction_theta_full 0.994
_diffrn_measured_fraction_theta_max 0.994
_diffrn_measurement_details
;
#__ type_ start__ end____ width___ exp.time_
  1 omega -108.00  -32.00   1.0000    1.0000
omega____ theta____ kappa____ phi______ frames
    -      -33.5000  178.0000 -120.0000 76

#__ type_ start__ end____ width___ exp.time_
  2 omega -102.00  -15.00   1.0000    1.0000
omega____ theta____ kappa____ phi______ frames
    -      -33.5000  -57.0000  120.0000 87

#__ type_ start__ end____ width___ exp.time_
  3 omega  -34.00   59.00   1.0000    1.0000
omega____ theta____ kappa____ phi______ frames
    -       36.4734  -37.0000  -60.0000 93

#__ type_ start__ end____ width___ exp.time_
  4 omega  -34.00   59.00   1.0000    1.0000
omega____ theta____ kappa____ phi______ frames
    -       36.4734  -37.0000  150.0000 93

#__ type_ start__ end____ width___ exp.time_
  5 omega   -4.00   77.00   1.0000    1.0000
omega____ theta____ kappa____ phi______ frames
    -       36.4734  -99.0000  120.0000 81

#__ type_ start__ end____ width___ exp.time_
  6 omega  -35.00  108.00   1.0000    1.0000
omega____ theta____ kappa____ phi______ frames
    -       36.4734    0.0000  -60.0000 143

#__ type_ start__ end____ width___ exp.time_
  7 omega    9.00  106.00   1.0000    1.0000
omega____ theta____ kappa____ phi______ frames
    -       36.4734   77.0000 -120.0000 97

#__ type_ start__ end____ width___ exp.time_
  8 omega   24.00   50.00   1.0000    1.0000
omega____ theta____ kappa____ phi______ frames
    -       36.4734   57.0000   60.0000 26

#__ type_ start__ end____ width___ exp.time_
  9 omega   11.00   68.00   1.0000    1.0000
omega____ theta____ kappa____ phi______ frames
    -       36.4734   77.0000   90.0000 57

#__ type_ start__ end____ width___ exp.time_
 10 omega    2.00   73.00   1.0000    1.0000
omega____ theta____ kappa____ phi______ frames
    -       36.4734  -99.0000  -30.0000 71

#__ type_ start__ end____ width___ exp.time_
 11 omega   38.00   87.00   1.0000    2.0000
omega____ theta____ kappa____ phi______ frames
    -      108.0000  -30.0000  -90.0000 49

#__ type_ start__ end____ width___ exp.time_
 12 omega   71.00  136.00   1.0000    2.0000
omega____ theta____ kappa____ phi______ frames
    -      108.0000  -77.0000  150.0000 65

#__ type_ start__ end____ width___ exp.time_
 13 omega  127.00  166.00   1.0000    2.0000
omega____ theta____ kappa____ phi______ frames
    -      108.0000   61.0000  -90.0000 39

#__ type_ start__ end____ width___ exp.time_
 14 omega   94.00  122.00   1.0000    2.0000
omega____ theta____ kappa____ phi______ frames
    -      108.0000   61.0000  -90.0000 28

#__ type_ start__ end____ width___ exp.time_
 15 omega   39.00   67.00   1.0000    2.0000
omega____ theta____ kappa____ phi______ frames
    -      108.0000  -77.0000  150.0000 28

#__ type_ start__ end____ width___ exp.time_
 16 omega   39.00   98.00   1.0000    2.0000
omega____ theta____ kappa____ phi______ frames
    -      108.0000  -15.0000   90.0000 59

#__ type_ start__ end____ width___ exp.time_
 17 omega  108.00  134.00   1.0000    2.0000
omega____ theta____ kappa____ phi______ frames
    -      108.0000  111.0000   60.0000 26

#__ type_ start__ end____ width___ exp.time_
 18 omega   44.00   90.00   1.0000    2.0000
omega____ theta____ kappa____ phi______ frames
    -      108.0000  -30.0000  150.0000 46

#__ type_ start__ end____ width___ exp.time_
 19 omega   37.00   74.00   1.0000    2.0000
omega____ theta____ kappa____ phi______ frames
    -      108.0000  -30.0000   30.0000 37

#__ type_ start__ end____ width___ exp.time_
 20 omega  140.00  172.00   1.0000    2.0000
omega____ theta____ kappa____ phi______ frames
    -      108.0000  111.0000   60.0000 32

#__ type_ start__ end____ width___ exp.time_
 21 omega   37.00  111.00   1.0000    2.0000
omega____ theta____ kappa____ phi______ frames
    -      108.0000 -111.0000   90.0000 74

#__ type_ start__ end____ width___ exp.time_
 22 omega   38.00   91.00   1.0000    2.0000
omega____ theta____ kappa____ phi______ frames
    -      108.0000  -30.0000  -30.0000 53

#__ type_ start__ end____ width___ exp.time_
 23 omega   42.00   72.00   1.0000    2.0000
omega____ theta____ kappa____ phi______ frames
    -      108.0000  -94.0000  120.0000 30

#__ type_ start__ end____ width___ exp.time_
 24 omega   79.00  107.00   1.0000    2.0000
omega____ theta____ kappa____ phi______ frames
    -      108.0000  -94.0000  120.0000 28

#__ type_ start__ end____ width___ exp.time_
 25 omega   38.00   70.00   1.0000    2.0000
omega____ theta____ kappa____ phi______ frames
    -      108.0000  -30.0000 -120.0000 32

#__ type_ start__ end____ width___ exp.time_
 26 omega   37.00   62.00   1.0000    2.0000
omega____ theta____ kappa____ phi______ frames
    -      108.0000  -30.0000   90.0000 25

#__ type_ start__ end____ width___ exp.time_
 27 omega  103.00  129.00   1.0000    2.0000
omega____ theta____ kappa____ phi______ frames
    -      108.0000  111.0000  -60.0000 26

#__ type_ start__ end____ width___ exp.time_
 28 omega   82.00  109.00   1.0000    2.0000
omega____ theta____ kappa____ phi______ frames
    -      108.0000 -111.0000  -90.0000 27

#__ type_ start__ end____ width___ exp.time_
 29 omega   40.00   76.00   1.0000    2.0000
omega____ theta____ kappa____ phi______ frames
    -      108.0000  -45.0000  -30.0000 36

#__ type_ start__ end____ width___ exp.time_
 30 omega  135.00  161.00   1.0000    2.0000
omega____ theta____ kappa____ phi______ frames
    -      108.0000  111.0000  -60.0000 26

#__ type_ start__ end____ width___ exp.time_
 31 omega  103.00  153.00   1.0000    2.0000
omega____ theta____ kappa____ phi______ frames
    -      108.0000  -15.0000   90.0000 50

#__ type_ start__ end____ width___ exp.time_
 32 omega   59.00   85.00   1.0000    2.0000
omega____ theta____ kappa____ phi______ frames
    -      108.0000  -45.0000  -90.0000 26

#__ type_ start__ end____ width___ exp.time_
 33 omega   53.00  104.00   1.0000    2.0000
omega____ theta____ kappa____ phi______ frames
    -      108.0000  -94.0000  -30.0000 51
;
_diffrn_measurement_device       'four-circle diffractometer'
_diffrn_measurement_device_type  'Xcalibur, Eos, Gemini'
_diffrn_measurement_method       '\w scans'
_diffrn_orient_matrix_UB_11      -0.1137469000
_diffrn_orient_matrix_UB_12      -0.0624506000
_diffrn_orient_matrix_UB_13      0.1223131000
_diffrn_orient_matrix_UB_21      0.0879934000
_diffrn_orient_matrix_UB_22      -0.1573409000
_diffrn_orient_matrix_UB_23      -0.0648814000
_diffrn_orient_matrix_UB_31      0.1263434000
_diffrn_orient_matrix_UB_32      -0.0641097000
_diffrn_orient_matrix_UB_33      0.0850677000
_diffrn_radiation_monochromator  graphite
_diffrn_radiation_probe          x-ray
_diffrn_radiation_type           CuK\a
_diffrn_radiation_wavelength     1.54184
_diffrn_reflns_av_R_equivalents  0.0232
_diffrn_reflns_av_unetI/netI     0.0342
_diffrn_reflns_Laue_measured_fraction_full 0.994
_diffrn_reflns_Laue_measured_fraction_max 0.994
_diffrn_reflns_limit_h_max       11
_diffrn_reflns_limit_h_min       -7
_diffrn_reflns_limit_k_max       11
_diffrn_reflns_limit_k_min       -11
_diffrn_reflns_limit_l_max       12
_diffrn_reflns_limit_l_min       -10
_diffrn_reflns_number            5510
_diffrn_reflns_point_group_measured_fraction_full 0.994
_diffrn_reflns_point_group_measured_fraction_max 0.994
_diffrn_reflns_theta_full        67.065
_diffrn_reflns_theta_max         67.065
_diffrn_reflns_theta_min         4.664
_diffrn_source                   'Enhance (Cu) X-ray Source'
_exptl_absorpt_coefficient_mu    0.902
_exptl_absorpt_correction_T_max  1.00000
_exptl_absorpt_correction_T_min  0.85987
_exptl_absorpt_correction_type   multi-scan
_exptl_absorpt_process_details
;
CrysAlisPro, Agilent Technologies,
Version 1.171.37.35 (release 13-08-2014 CrysAlis171 .NET)
(compiled Aug 13 2014,18:06:01)
Empirical absorption correction using spherical harmonics,
 implemented in SCALE3 ABSPACK scaling algorithm.
;
_exptl_crystal_colour            colourless
_exptl_crystal_colour_primary    colourless
_exptl_crystal_density_diffrn    1.402
_exptl_crystal_description       block
_exptl_crystal_F_000             340
_exptl_crystal_size_max          0.2
_exptl_crystal_size_mid          0.16
_exptl_crystal_size_min          0.14
_refine_diff_density_max         0.328
_refine_diff_density_min         -0.296
_refine_diff_density_rms         0.048
_refine_ls_extinction_method     none
_refine_ls_goodness_of_fit_ref   1.093
_refine_ls_hydrogen_treatment    constr
_refine_ls_matrix_type           full
_refine_ls_number_parameters     217
_refine_ls_number_reflns         2767
_refine_ls_number_restraints     0
_refine_ls_restrained_S_all      1.093
_refine_ls_R_factor_all          0.0719
_refine_ls_R_factor_gt           0.0582
_refine_ls_shift/su_max          0.000
_refine_ls_shift/su_mean         0.000
_refine_ls_structure_factor_coef Fsqd
_refine_ls_weighting_details
'w=1/[\s^2^(Fo^2^)+(0.0968P)^2^+0.0916P] where P=(Fo^2^+2Fc^2^)/3'
_refine_ls_weighting_scheme      calc
_refine_ls_wR_factor_gt          0.1635
_refine_ls_wR_factor_ref         0.1824
_reflns_Friedel_coverage         0.000
_reflns_number_gt                2082
_reflns_number_total             2767
_reflns_threshold_expression     'I > 2\s(I)'
_iucr_refine_instructions_details
;

    20180137.res created by SHELXL-2014/7

TITL 20180137 in P-1 #2
REM reset to P-1 #2
CELL 1.54184 9.56173 9.738395 10.227509 75.2695 68.6588 61.4216
ZERR 2 0.001837 0.001776 0.002029 0.0166 0.0181 0.0194
LATT 1
SFAC C H F N O
UNIT 38 30 4 2 4
 
L.S. 7
PLAN  20
SIZE 0.14 0.16 0.2
MPLA C6 C7 C8 C9 C10 C11 C12 C13
MPLA C14 C15 C16 C17 C18 C19
BOND $h
conf
fmap 2
acta
REM <olex2.extras>
REM <HklSrc "%.\\20180137.hkl">
REM </olex2.extras>
 
WGHT    0.096800    0.091600
FVAR      11.73527
C1    1    0.221269    1.182538    0.074395    11.00000    0.05666    0.04700 =
         0.06152   -0.00707   -0.02012   -0.02107
C2    1    0.279934    1.065858    0.195405    11.00000    0.05450    0.05775 =
         0.05386   -0.00878   -0.01887   -0.02428
C3    1    0.241752    0.930375    0.205530    11.00000    0.07180    0.05777 =
         0.05797    0.00157   -0.02780   -0.03240
AFIX  13
H3    2    0.132395    0.951117    0.273858    11.00000   -1.20000
AFIX   0
C4    1    0.225141    0.944296    0.059150    11.00000    0.07859    0.05354 =
         0.06040    0.00353   -0.03250   -0.03620
AFIX  23
H4A   2    0.327913    0.874027   -0.000747    11.00000   -1.20000
H4B   2    0.136327    0.918755    0.065513    11.00000   -1.20000
AFIX   0
C5    1    0.362246    0.768897    0.247365    11.00000    0.09709    0.05748 =
         0.07190    0.00165   -0.04031   -0.03142
AFIX  23
H5A   2    0.324398    0.693618    0.244616    11.00000   -1.20000
H5B   2    0.469211    0.745341    0.176934    11.00000   -1.20000
AFIX   0
C6    1    0.386944    0.744193    0.387303    11.00000    0.08342    0.05132 =
         0.06248    0.00800   -0.03315   -0.03012
C7    1    0.507320    0.740070    0.426480    11.00000    0.07541    0.06488 =
         0.06177    0.00689   -0.02405   -0.03616
AFIX  43
H7    2    0.597767    0.759260    0.367385    11.00000   -1.20000
AFIX   0
C8    1    0.472638    0.700902    0.575486    11.00000    0.06214    0.04744 =
         0.06438    0.00416   -0.02525   -0.02240
C9    1    0.326210    0.683903    0.617343    11.00000    0.06615    0.04966 =
         0.06645    0.00294   -0.02823   -0.02467
C10   1    0.253250    0.642742    0.755384    11.00000    0.07475    0.07591 =
         0.07624    0.00258   -0.01427   -0.03797
AFIX  43
H10   2    0.154315    0.632946    0.781461    11.00000   -1.20000
AFIX   0
C11   1    0.333998    0.616887    0.852605    11.00000    0.09887    0.06537 =
         0.06471    0.00710   -0.02190   -0.03086
AFIX  43
H11   2    0.289710    0.587174    0.946481    11.00000   -1.20000
AFIX   0
C12   1    0.479237    0.634125    0.813716    11.00000    0.09766    0.05642 =
         0.07003    0.00256   -0.04680   -0.01828
AFIX  43
H12   2    0.529808    0.617241    0.882293    11.00000   -1.20000
AFIX   0
C13   1    0.551198    0.675717    0.675855    11.00000    0.07157    0.06111 =
         0.07913    0.00317   -0.03727   -0.02506
AFIX  43
H13   2    0.649404    0.686649    0.650586    11.00000   -1.20000
AFIX   0
C14   1    0.140827    1.171247   -0.123829    11.00000    0.05167    0.05348 =
         0.05323   -0.00031   -0.02024   -0.02511
C15   1    0.189889    1.070275   -0.222695    11.00000    0.06759    0.05509 =
         0.06124   -0.00393   -0.02638   -0.02491
AFIX  43
H15   2    0.254481    0.963324   -0.206527    11.00000   -1.20000
AFIX   0
C16   1    0.142082    1.129776   -0.345355    11.00000    0.08466    0.07613 =
         0.05811   -0.00252   -0.03081   -0.03809
AFIX  43
H16   2    0.174817    1.062319   -0.411672    11.00000   -1.20000
AFIX   0
C17   1    0.046713    1.287557   -0.370140    11.00000    0.08053    0.08201 =
         0.06205    0.00737   -0.03678   -0.03438
AFIX  43
H17   2    0.014908    1.326798   -0.452801    11.00000   -1.20000
AFIX   0
C18   1   -0.001558    1.387347   -0.271880    11.00000    0.07558    0.06026 =
         0.07806    0.00803   -0.03936   -0.01843
AFIX  43
H18   2   -0.066641    1.494127   -0.288284    11.00000   -1.20000
AFIX   0
C19   1    0.046008    1.330010   -0.148880    11.00000    0.06505    0.05708 =
         0.06292   -0.00353   -0.02570   -0.02099
AFIX  43
H19   2    0.014216    1.398148   -0.083478    11.00000   -1.20000
AFIX   0
F1    3    0.444851    1.023052    0.166345    11.00000    0.06705    0.08564 =
         0.09588    0.01501   -0.03956   -0.04138
F2    3    0.208012    1.136722    0.315425    11.00000    0.11975    0.08086 =
         0.05919   -0.01613   -0.02528   -0.04296
N1    4    0.187249    1.108420    0.003041    11.00000    0.05781    0.04714 =
         0.05264   -0.00164   -0.02287   -0.02315
O1    5    0.212925    1.314386    0.049595    11.00000    0.11399    0.05231 =
         0.09135    0.00383   -0.05476   -0.03982
O2    5    0.270079    0.712385    0.502995    11.00000    0.07506    0.06726 =
         0.07690    0.00539   -0.03563   -0.03560
HKLF 4
 
REM  20180137 in P-1 #2
REM R1 =  0.0582 for    2082 Fo > 4sig(Fo)  and  0.0719 for all    2767 data
REM    217 parameters refined using      0 restraints
 
END  
     
WGHT      0.0968      0.0916 

REM Highest difference peak  0.328,  deepest hole -0.296,  1-sigma level  0.048
Q1    1   0.0983  1.1126  0.3310  11.00000  0.05    0.33
Q2    1   0.2293  0.8249  0.3057  11.00000  0.05    0.21
Q3    1   0.3726  1.0893  0.2600  11.00000  0.05    0.18
Q4    1   0.3791  0.8698  0.1855  11.00000  0.05    0.15
Q5    1   0.0079  1.1817  0.1254  11.00000  0.05    0.14
Q6    1   0.2169  0.8814  0.0194  11.00000  0.05    0.14
Q7    1   0.2359  1.1198  0.1443  11.00000  0.05    0.14
Q8    1   0.4117  0.8034  0.4352  11.00000  0.05    0.13
Q9    1   0.0546  1.3798  0.1803  11.00000  0.05    0.13
Q10   1   0.6702  0.8786  0.3612  11.00000  0.05    0.13
Q11   1   0.3736  0.7519  0.5973  11.00000  0.05    0.13
Q12   1   0.0946  1.2604  0.3048  11.00000  0.05    0.13
Q13   1   0.1319  1.3417 -0.6011  11.00000  0.05    0.12
Q14   1   0.4566  0.5351  0.3914  11.00000  0.05    0.12
Q15   1   0.1669  1.1346  0.0319  11.00000  0.05    0.12
Q16   1   0.5000  0.5000  0.5000  10.50000  0.05    0.12
Q17   1   0.4401  0.6157  0.5975  11.00000  0.05    0.12
Q18   1   0.3127  0.9407 -0.4348  11.00000  0.05    0.12
Q19   1   0.3953  0.8759 -0.0441  11.00000  0.05    0.12
Q20   1   0.2766  0.8017  0.4409  11.00000  0.05    0.12

  REM The information below was added by Olex2.
  REM
  REM R1 = 0.0582 for 2082 Fo > 4sig(Fo) and 0.0719 for all 5510 data
  REM n/a parameters refined using n/a restraints
  REM Highest difference peak 0.33, deepest hole -0.30
  REM Mean Shift 0, Max Shift 0.000.

  REM +++ Tabular Listing of Refinement Information +++
  REM R1_all = 0.0719
  REM R1_gt = 0.0582
  REM wR_ref = 0.1824
  REM GOOF = 1.093
  REM Shift_max = 0.000
  REM Shift_mean = 0
  REM Reflections_all = 5510
  REM Reflections_gt = 2082
  REM Parameters = n/a
  REM Hole = -0.30
  REM Peak = 0.33
  REM Flack = n/a

  
;
_cod_data_source_file            c8ob01389f2.cif
_cod_data_source_block           20180137
_cod_depositor_comments          'Adding full bibliography for 7156383.cif.'
_cod_original_cell_volume        775.2(3)
_cod_database_code               7156383
_shelx_shelxl_version_number     2014/7
_chemical_oxdiff_formula         C40H30O5F2
_shelx_space_group_comment
;
The symmetry employed for this shelxl refinement is uniquely defined
by the following loop, which should always be used as a source of
symmetry information in preference to the above space-group names.
They are only intended as comments.
;
_shelx_estimated_absorpt_t_max   0.884
_shelx_estimated_absorpt_t_min   0.840
_reflns_odcompleteness_completeness 99.43
_reflns_odcompleteness_iscentric 1
_reflns_odcompleteness_theta     66.97
_olex2_refinement_description
;
1. Fixed Uiso
 At 1.2 times of:
  All C(H) groups, All C(H,H) groups
2.a Ternary CH refined with riding coordinates:
 C3(H3)
2.b Secondary CH2 refined with riding coordinates:
 C4(H4A,H4B), C5(H5A,H5B)
2.c Aromatic/amide H refined with riding coordinates:
 C7(H7), C10(H10), C11(H11), C12(H12), C13(H13), C15(H15), C16(H16), C17(H17),
 C18(H18), C19(H19)
;
_olex2_submission_special_instructions 'No special instructions were received'
loop_
_space_group_symop_operation_xyz
'x, y, z'
'-x, -y, -z'
loop_
_atom_site_label
_atom_site_type_symbol
_atom_site_fract_x
_atom_site_fract_y
_atom_site_fract_z
_atom_site_U_iso_or_equiv
_atom_site_adp_type
_atom_site_occupancy
_atom_site_site_symmetry_order
_atom_site_calc_flag
_atom_site_refinement_flags_posn
C1 C 0.2213(3) 1.1825(3) 0.0744(3) 0.0542(6) Uani 1 1 d .
C2 C 0.2799(3) 1.0659(3) 0.1954(3) 0.0535(6) Uani 1 1 d .
C3 C 0.2418(3) 0.9304(3) 0.2055(3) 0.0591(6) Uani 1 1 d .
H3 H 0.1324 0.9511 0.2739 0.071 Uiso 1 1 calc R
C4 C 0.2251(4) 0.9443(3) 0.0592(3) 0.0587(6) Uani 1 1 d .
H4A H 0.3279 0.8740 -0.0007 0.070 Uiso 1 1 calc R
H4B H 0.1363 0.9188 0.0655 0.070 Uiso 1 1 calc R
C5 C 0.3622(4) 0.7689(3) 0.2474(3) 0.0729(8) Uani 1 1 d .
H5A H 0.3244 0.6936 0.2446 0.087 Uiso 1 1 calc R
H5B H 0.4692 0.7453 0.1769 0.087 Uiso 1 1 calc R
C6 C 0.3869(4) 0.7442(3) 0.3873(3) 0.0642(7) Uani 1 1 d .
C7 C 0.5073(4) 0.7401(3) 0.4265(3) 0.0660(7) Uani 1 1 d .
H7 H 0.5978 0.7593 0.3674 0.079 Uiso 1 1 calc R
C8 C 0.4726(3) 0.7009(3) 0.5755(3) 0.0582(6) Uani 1 1 d .
C9 C 0.3262(3) 0.6839(3) 0.6173(3) 0.0597(6) Uani 1 1 d .
C10 C 0.2533(4) 0.6427(4) 0.7554(3) 0.0775(8) Uani 1 1 d .
H10 H 0.1543 0.6329 0.7815 0.093 Uiso 1 1 calc R
C11 C 0.3340(5) 0.6169(4) 0.8526(3) 0.0815(9) Uani 1 1 d .
H11 H 0.2897 0.5872 0.9465 0.098 Uiso 1 1 calc R
C12 C 0.4792(4) 0.6341(3) 0.8137(3) 0.0758(9) Uani 1 1 d .
H12 H 0.5298 0.6172 0.8823 0.091 Uiso 1 1 calc R
C13 C 0.5512(4) 0.6757(3) 0.6759(3) 0.0693(7) Uani 1 1 d .
H13 H 0.6494 0.6866 0.6506 0.083 Uiso 1 1 calc R
C14 C 0.1408(3) 1.1712(3) -0.1238(3) 0.0511(5) Uani 1 1 d .
C15 C 0.1899(3) 1.0703(3) -0.2227(3) 0.0598(6) Uani 1 1 d .
H15 H 0.2545 0.9633 -0.2065 0.072 Uiso 1 1 calc R
C16 C 0.1421(4) 1.1298(3) -0.3454(3) 0.0690(7) Uani 1 1 d .
H16 H 0.1748 1.0623 -0.4117 0.083 Uiso 1 1 calc R
C17 C 0.0467(4) 1.2876(4) -0.3701(3) 0.0730(8) Uani 1 1 d .
H17 H 0.0149 1.3268 -0.4528 0.088 Uiso 1 1 calc R
C18 C -0.0016(4) 1.3873(3) -0.2719(3) 0.0736(8) Uani 1 1 d .
H18 H -0.0666 1.4941 -0.2883 0.088 Uiso 1 1 calc R
C19 C 0.0460(3) 1.3300(3) -0.1489(3) 0.0621(6) Uani 1 1 d .
H19 H 0.0142 1.3981 -0.0835 0.075 Uiso 1 1 calc R
F1 F 0.4449(2) 1.0231(2) 0.1663(2) 0.0790(5) Uani 1 1 d .
F2 F 0.2080(3) 1.1367(2) 0.31543(18) 0.0847(6) Uani 1 1 d .
N1 N 0.1872(2) 1.1084(2) 0.0030(2) 0.0507(5) Uani 1 1 d .
O1 O 0.2129(3) 1.3144(2) 0.0496(2) 0.0784(6) Uani 1 1 d .
O2 O 0.2701(2) 0.7124(2) 0.5030(2) 0.0691(5) Uani 1 1 d .
loop_
_atom_site_aniso_label
_atom_site_aniso_U_11
_atom_site_aniso_U_22
_atom_site_aniso_U_33
_atom_site_aniso_U_23
_atom_site_aniso_U_13
_atom_site_aniso_U_12
C1 0.0567(13) 0.0470(12) 0.0615(15) -0.0071(10) -0.0201(11) -0.0211(10)
C2 0.0545(13) 0.0577(13) 0.0539(14) -0.0088(11) -0.0189(11) -0.0243(11)
C3 0.0718(16) 0.0578(14) 0.0580(15) 0.0016(11) -0.0278(12) -0.0324(12)
C4 0.0786(17) 0.0535(13) 0.0604(15) 0.0035(11) -0.0325(13) -0.0362(12)
C5 0.097(2) 0.0575(15) 0.0719(19) 0.0017(13) -0.0403(16) -0.0314(15)
C6 0.0834(18) 0.0513(13) 0.0625(16) 0.0080(11) -0.0331(14) -0.0301(13)
C7 0.0754(17) 0.0649(15) 0.0618(17) 0.0069(12) -0.0241(13) -0.0362(14)
C8 0.0621(14) 0.0474(12) 0.0644(16) 0.0042(11) -0.0253(12) -0.0224(11)
C9 0.0661(15) 0.0497(13) 0.0665(16) 0.0029(11) -0.0282(13) -0.0247(11)
C10 0.0748(19) 0.0759(19) 0.076(2) 0.0026(15) -0.0143(15) -0.0380(16)
C11 0.099(2) 0.0654(17) 0.0647(19) 0.0071(14) -0.0219(17) -0.0309(16)
C12 0.098(2) 0.0564(15) 0.0700(19) 0.0026(13) -0.0468(17) -0.0183(15)
C13 0.0716(17) 0.0611(15) 0.079(2) 0.0032(13) -0.0373(15) -0.0251(13)
C14 0.0517(13) 0.0535(12) 0.0532(14) -0.0003(10) -0.0202(10) -0.0251(10)
C15 0.0676(16) 0.0551(13) 0.0612(16) -0.0039(11) -0.0264(13) -0.0249(12)
C16 0.085(2) 0.0761(18) 0.0581(16) -0.0025(13) -0.0308(15) -0.0381(15)
C17 0.0805(19) 0.0820(19) 0.0620(17) 0.0074(14) -0.0368(15) -0.0344(16)
C18 0.0756(18) 0.0603(15) 0.078(2) 0.0080(14) -0.0394(15) -0.0184(14)
C19 0.0650(15) 0.0571(14) 0.0629(16) -0.0035(12) -0.0257(13) -0.0210(12)
F1 0.0671(10) 0.0856(11) 0.0959(13) 0.0150(9) -0.0396(9) -0.0414(9)
F2 0.1198(15) 0.0809(11) 0.0592(10) -0.0161(8) -0.0253(10) -0.0430(10)
N1 0.0578(11) 0.0471(10) 0.0526(11) -0.0016(8) -0.0229(9) -0.0232(9)
O1 0.1140(17) 0.0523(10) 0.0914(15) 0.0038(9) -0.0548(13) -0.0398(11)
O2 0.0751(12) 0.0673(11) 0.0769(13) 0.0054(9) -0.0356(10) -0.0356(10)
loop_
_atom_type_symbol
_atom_type_description
_atom_type_scat_dispersion_real
_atom_type_scat_dispersion_imag
_atom_type_scat_source
C C 0.0181 0.0091 'International Tables Vol C Tables 4.2.6.8 and 6.1.1.4'
H H 0.0000 0.0000 'International Tables Vol C Tables 4.2.6.8 and 6.1.1.4'
F F 0.0727 0.0534 'International Tables Vol C Tables 4.2.6.8 and 6.1.1.4'
N N 0.0311 0.0180 'International Tables Vol C Tables 4.2.6.8 and 6.1.1.4'
O O 0.0492 0.0322 'International Tables Vol C Tables 4.2.6.8 and 6.1.1.4'
loop_
_geom_angle_atom_site_label_1
_geom_angle_atom_site_label_2
_geom_angle_atom_site_label_3
_geom_angle
N1 C1 C2 106.79(19)
O1 C1 C2 124.3(2)
O1 C1 N1 128.9(2)
C3 C2 C1 107.29(19)
F1 C2 C1 107.6(2)
F1 C2 C3 112.9(2)
F2 C2 C1 110.3(2)
F2 C2 C3 113.4(2)
F2 C2 F1 105.3(2)
C2 C3 H3 107.9
C2 C3 C4 102.6(2)
C2 C3 C5 117.6(2)
C4 C3 H3 107.9
C5 C3 H3 107.9
C5 C3 C4 112.5(2)
C3 C4 H4A 110.7
C3 C4 H4B 110.7
H4A C4 H4B 108.8
N1 C4 C3 105.31(19)
N1 C4 H4A 110.7
N1 C4 H4B 110.7
C3 C5 H5A 108.2
C3 C5 H5B 108.2
H5A C5 H5B 107.3
C6 C5 C3 116.5(2)
C6 C5 H5A 108.2
C6 C5 H5B 108.2
C7 C6 C5 131.9(3)
C7 C6 O2 110.9(2)
O2 C6 C5 117.1(2)
C6 C7 H7 126.2
C6 C7 C8 107.7(3)
C8 C7 H7 126.2
C9 C8 C7 105.5(2)
C9 C8 C13 119.3(3)
C13 C8 C7 135.2(3)
C10 C9 C8 123.0(3)
O2 C9 C8 110.1(2)
O2 C9 C10 126.9(3)
C9 C10 H10 121.6
C11 C10 C9 116.8(3)
C11 C10 H10 121.6
C10 C11 H11 119.3
C10 C11 C12 121.4(3)
C12 C11 H11 119.3
C11 C12 H12 119.2
C13 C12 C11 121.6(3)
C13 C12 H12 119.2
C8 C13 H13 121.0
C12 C13 C8 118.0(3)
C12 C13 H13 121.0
C15 C14 N1 119.1(2)
C19 C14 C15 119.9(2)
C19 C14 N1 121.0(2)
C14 C15 H15 120.2
C16 C15 C14 119.6(2)
C16 C15 H15 120.2
C15 C16 H16 119.7
C17 C16 C15 120.6(3)
C17 C16 H16 119.7
C16 C17 H17 120.2
C16 C17 C18 119.6(3)
C18 C17 H17 120.2
C17 C18 H18 119.7
C17 C18 C19 120.6(3)
C19 C18 H18 119.7
C14 C19 C18 119.7(3)
C14 C19 H19 120.2
C18 C19 H19 120.2
C1 N1 C4 112.83(19)
C1 N1 C14 125.2(2)
C14 N1 C4 121.49(18)
C9 O2 C6 105.8(2)
loop_
_geom_bond_atom_site_label_1
_geom_bond_atom_site_label_2
_geom_bond_distance
C1 C2 1.522(3)
C1 N1 1.351(3)
C1 O1 1.213(3)
C2 C3 1.500(3)
C2 F1 1.357(3)
C2 F2 1.348(3)
C3 H3 0.9800
C3 C4 1.528(3)
C3 C5 1.506(4)
C4 H4A 0.9700
C4 H4B 0.9700
C4 N1 1.465(3)
C5 H5A 0.9700
C5 H5B 0.9700
C5 C6 1.476(4)
C6 C7 1.331(4)
C6 O2 1.388(3)
C7 H7 0.9300
C7 C8 1.427(4)
C8 C9 1.386(4)
C8 C13 1.391(4)
C9 C10 1.380(4)
C9 O2 1.372(3)
C10 H10 0.9300
C10 C11 1.376(4)
C11 H11 0.9300
C11 C12 1.379(5)
C12 H12 0.9300
C12 C13 1.377(4)
C13 H13 0.9300
C14 C15 1.389(3)
C14 C19 1.380(3)
C14 N1 1.418(3)
C15 H15 0.9300
C15 C16 1.383(3)
C16 H16 0.9300
C16 C17 1.373(4)
C17 H17 0.9300
C17 C18 1.377(4)
C18 H18 0.9300
C18 C19 1.385(4)
C19 H19 0.9300
loop_
_geom_torsion_atom_site_label_1
_geom_torsion_atom_site_label_2
_geom_torsion_atom_site_label_3
_geom_torsion_atom_site_label_4
_geom_torsion
C1 C2 C3 C4 20.8(3)
C1 C2 C3 C5 144.9(2)
C2 C1 N1 C4 -3.0(3)
C2 C1 N1 C14 -175.0(2)
C2 C3 C4 N1 -22.1(3)
C2 C3 C5 C6 60.9(4)
C3 C4 N1 C1 16.3(3)
C3 C4 N1 C14 -171.3(2)
C3 C5 C6 C7 -101.2(4)
C3 C5 C6 O2 82.0(3)
C4 C3 C5 C6 179.8(2)
C5 C3 C4 N1 -149.5(2)
C5 C6 C7 C8 -176.0(3)
C5 C6 O2 C9 176.0(2)
C6 C7 C8 C9 -0.2(3)
C6 C7 C8 C13 178.2(3)
C7 C6 O2 C9 -1.5(3)
C7 C8 C9 C10 178.7(3)
C7 C8 C9 O2 -0.8(3)
C7 C8 C13 C12 -178.1(3)
C8 C9 C10 C11 -0.6(4)
C8 C9 O2 C6 1.4(3)
C9 C8 C13 C12 0.2(4)
C9 C10 C11 C12 1.1(5)
C10 C9 O2 C6 -178.1(3)
C10 C11 C12 C13 -0.9(5)
C11 C12 C13 C8 0.3(4)
C13 C8 C9 C10 0.0(4)
C13 C8 C9 O2 -179.5(2)
C14 C15 C16 C17 0.0(4)
C15 C14 C19 C18 0.9(4)
C15 C14 N1 C1 147.0(2)
C15 C14 N1 C4 -24.4(3)
C15 C16 C17 C18 0.1(5)
C16 C17 C18 C19 0.3(5)
C17 C18 C19 C14 -0.8(5)
C19 C14 C15 C16 -0.5(4)
C19 C14 N1 C1 -34.0(4)
C19 C14 N1 C4 154.6(2)
F1 C2 C3 C4 -97.6(2)
F1 C2 C3 C5 26.5(3)
F2 C2 C3 C4 142.8(2)
F2 C2 C3 C5 -93.1(3)
N1 C1 C2 C3 -12.0(3)
N1 C1 C2 F1 109.8(2)
N1 C1 C2 F2 -135.9(2)
N1 C14 C15 C16 178.5(2)
N1 C14 C19 C18 -178.1(2)
O1 C1 C2 C3 169.6(3)
O1 C1 C2 F1 -68.6(3)
O1 C1 C2 F2 45.7(3)
O1 C1 N1 C4 175.3(3)
O1 C1 N1 C14 3.3(4)
O2 C6 C7 C8 1.1(3)
O2 C9 C10 C11 178.8(3)
