#------------------------------------------------------------------------------
#$Date: 2019-11-17 14:44:49 +0200 (Sun, 17 Nov 2019) $
#$Revision: 230590 $
#$URL: file:///home/coder/svn-repositories/cod/cif/7/15/61/7156107.cif $
#------------------------------------------------------------------------------
#
# This file is available in the Crystallography Open Database (COD),
# http://www.crystallography.net/
#
# All data on this site have been placed in the public domain by the
# contributors.
#
data_7156107
loop_
_publ_author_name
'Jardim, Guilherme A. M.'
'Oliveira, Willian X. C.'
'de Freitas, Rossimiriam P.'
'Menna-Barreto, Rubem F S'
'Silva, Thaissa L.'
'Goulart, Marilia O. F.'
'da Silva J\'unior, Eufr\^anio N'
_publ_section_title
;
 Direct sequential C-H iodination/organoyl-thiolation for the benzenoid
 A-ring modification of quinonoid deactivated systems: a new protocol for
 potent trypanocidal quinones.
;
_journal_issue                   10
_journal_name_full               'Organic &amp; biomolecular chemistry'
_journal_page_first              1686
_journal_page_last               1691
_journal_paper_doi               10.1039/c8ob00196k
_journal_volume                  16
_journal_year                    2018
_chemical_formula_sum            'C11 H5 F3 O3 S'
_chemical_formula_weight         274.21
_space_group_crystal_system      triclinic
_space_group_IT_number           2
_space_group_name_Hall           '-P 1'
_space_group_name_H-M_alt        'P -1'
_symmetry_space_group_name_Hall  '-P 1'
_symmetry_space_group_name_H-M   'P -1'
_atom_sites_solution_hydrogens   geom
_audit_creation_method           SHELXL-2017/1
_audit_update_record
;
2017-11-21 deposited with the CCDC.
2018-02-08 downloaded from the CCDC.
;
_cell_angle_alpha                68.147(6)
_cell_angle_beta                 84.221(5)
_cell_angle_gamma                72.377(5)
_cell_formula_units_Z            2
_cell_length_a                   8.0423(4)
_cell_length_b                   8.0926(5)
_cell_length_c                   9.4378(6)
_cell_measurement_reflns_used    3092
_cell_measurement_temperature    120(2)
_cell_measurement_theta_max      27.0440
_cell_measurement_theta_min      2.2970
_cell_volume                     543.30(6)
_computing_cell_refinement       'CrysAlisPro 1.171.38.41 (Rigaku OD, 2015)'
_computing_data_collection       'CrysAlisPro 1.171.38.41 (Rigaku OD, 2015)'
_computing_data_reduction        'CrysAlisPro 1.171.38.41 (Rigaku OD, 2015)'
_computing_structure_refinement  'SHELXL-2017/1 (Sheldrick, 2017)'
_computing_structure_solution    'SuperFlip (Palatinus & Chapius, 2007)'
_diffrn_ambient_temperature      120(2)
_diffrn_detector_area_resol_mean 10.4186
_diffrn_measured_fraction_theta_full 1.000
_diffrn_measured_fraction_theta_max 1.000
_diffrn_measurement_device_type  'Xcalibur, Atlas, Gemini ultra'
_diffrn_measurement_method       '\w scans'
_diffrn_radiation_type           MoK\a
_diffrn_radiation_wavelength     0.71073
_diffrn_reflns_av_R_equivalents  0.0273
_diffrn_reflns_av_unetI/netI     0.0240
_diffrn_reflns_Laue_measured_fraction_full 1.000
_diffrn_reflns_Laue_measured_fraction_max 1.000
_diffrn_reflns_limit_h_max       10
_diffrn_reflns_limit_h_min       -10
_diffrn_reflns_limit_k_max       10
_diffrn_reflns_limit_k_min       -10
_diffrn_reflns_limit_l_max       11
_diffrn_reflns_limit_l_min       -11
_diffrn_reflns_number            8889
_diffrn_reflns_point_group_measured_fraction_full 1.000
_diffrn_reflns_point_group_measured_fraction_max 1.000
_diffrn_reflns_theta_full        25.242
_diffrn_reflns_theta_max         26.372
_diffrn_reflns_theta_min         2.325
_diffrn_source                   'fine-focus sealed X-ray tube'
_exptl_absorpt_coefficient_mu    0.336
_exptl_absorpt_correction_T_max  0.967
_exptl_absorpt_correction_T_min  0.893
_exptl_absorpt_correction_type   analytical
_exptl_absorpt_process_details
;
CrysAlisPro 1.171.38.41 (Rigaku Oxford Diffraction, 2015)
Analytical numeric absorption correction using a multifaceted crystal
                        model based on expressions derived by R.C. Clark & J.S. Reid.
(Clark, R. C. & Reid, J. S. (1995). Acta Cryst. A51, 887-897)
Empirical absorption correction using spherical harmonics,
 implemented in SCALE3 ABSPACK scaling algorithm.
;
_exptl_crystal_colour            yellow
_exptl_crystal_density_diffrn    1.676
_exptl_crystal_description       block
_exptl_crystal_F_000             276
_exptl_crystal_size_max          0.481
_exptl_crystal_size_mid          0.220
_exptl_crystal_size_min          0.104
_refine_diff_density_max         0.293
_refine_diff_density_min         -0.261
_refine_diff_density_rms         0.040
_refine_ls_extinction_method     none
_refine_ls_goodness_of_fit_ref   1.040
_refine_ls_hydrogen_treatment    constr
_refine_ls_matrix_type           full
_refine_ls_number_parameters     191
_refine_ls_number_reflns         2210
_refine_ls_number_restraints     0
_refine_ls_restrained_S_all      1.040
_refine_ls_R_factor_all          0.0503
_refine_ls_R_factor_gt           0.0392
_refine_ls_shift/su_max          0.001
_refine_ls_shift/su_mean         0.000
_refine_ls_structure_factor_coef Fsqd
_refine_ls_weighting_details
'w=1/[\s^2^(Fo^2^)+(0.0475P)^2^+0.1880P] where P=(Fo^2^+2Fc^2^)/3'
_refine_ls_weighting_scheme      calc
_refine_ls_wR_factor_gt          0.0973
_refine_ls_wR_factor_ref         0.1055
_reflns_Friedel_coverage         0.000
_reflns_number_gt                1820
_reflns_number_total             2210
_reflns_threshold_expression     'I > 2\s(I)'
_cod_data_source_file            c8ob00196k2.cif
_cod_data_source_block           shelx_CCDC3
_cod_depositor_comments
'Adding full bibliography for 7156104--7156114.cif.'
_cod_database_code               7156107
_shelx_shelxl_version_number     2017/1
_shelx_space_group_comment
;
The symmetry employed for this shelxl refinement is uniquely defined
by the following loop, which should always be used as a source of
symmetry information in preference to the above space-group names.
They are only intended as comments.
;
_shelx_res_file
;
TITL GJ_SO in P-1
    shelx.res
    created by SHELXL-2017/1 at 17:26:15 on 20-Nov-2017
CELL  0.71073   8.0423   8.0926   9.4378   68.147   84.221   72.377
ZERR     2.00   0.0004   0.0005   0.0006    0.006    0.005    0.005
LATT   1
SFAC  C    H    O    F    S
UNIT  22 10 6 6 2
acta
list 4
temp -153
MERG   2
shel 50 0.8
FMAP   2
PLAN   20
L.S.  10
WGHT    0.047500    0.188000
FVAR       8.35843   0.39326
C1    1    1.220172    0.462470    0.099370    11.00000    0.04924    0.06317 =
         0.05184   -0.01718   -0.00271    0.00225
C2    1    1.273759    0.632030    0.061832    11.00000    0.05180    0.07008 =
         0.06827   -0.01178    0.01722   -0.01413
AFIX  43
H201  2    1.373351    0.644656    0.000117    11.00000   -1.20000
AFIX   0
C3    1    1.188510    0.767377    0.110770    11.00000    0.05281    0.05656 =
         0.06418   -0.00491    0.00522   -0.02379
AFIX  43
H200  2    1.228433    0.874271    0.082977    11.00000   -1.20000
AFIX   0
C4    1    1.034378    0.757769    0.206533    11.00000    0.04686    0.04297 =
         0.05099   -0.01125    0.00008   -0.01744
C4A   1    0.977722    0.587236    0.252956    11.00000    0.03728    0.03661 =
         0.04535   -0.01181   -0.00427   -0.01074
C5    1    0.837317    0.565985    0.350455    11.00000    0.04117    0.03863 =
         0.05014   -0.01547   -0.00127   -0.01384
C6    1    0.784087    0.406393    0.392660    11.00000    0.05166    0.04964 =
         0.07278   -0.01708    0.00501   -0.02587
AFIX  43
H100  2    0.688582    0.391948    0.459402    11.00000   -1.20000
AFIX   0
C7    1    0.872109    0.268405    0.336147    11.00000    0.07169    0.04348 =
         0.09331   -0.02537   -0.00461   -0.02645
AFIX  43
H11   2    0.834564    0.160193    0.362620    11.00000   -1.20000
AFIX   0
C8    1    1.012363    0.285905    0.242735    11.00000    0.06140    0.04476 =
         0.07742   -0.02974   -0.00740   -0.00828
AFIX  43
H101  2    1.073424    0.188503    0.207355    11.00000   -1.20000
AFIX   0
C8A   1    1.065589    0.445288    0.199594    11.00000    0.04438    0.04434 =
         0.05012   -0.01738   -0.00708   -0.00544
C9    1    0.573515    0.896832    0.291012    11.00000    0.05148    0.05952 =
         0.06297   -0.02216   -0.00209   -0.00860
O1    3    1.297812    0.341931    0.050029    11.00000    0.07731    0.08212 =
         0.08211   -0.04077    0.01260    0.00681
O2    3    0.952277    0.886922    0.244960    11.00000    0.07736    0.04831 =
         0.09073   -0.03253    0.02133   -0.02991
O3    3    0.623096    0.631753    0.565397    11.00000    0.06227    0.07638 =
         0.05207   -0.01892    0.01474   -0.02555
S1    5    0.733129    0.725073    0.447833    11.00000    0.04576    0.05210 =
         0.04941   -0.02110    0.00275   -0.01561
PART    1
F1    4    0.461933    0.797992    0.283611    21.00000    0.08186    0.12482 =
         0.11470    0.00609   -0.04425   -0.04322
F3    4    0.482176    1.026080    0.332897    21.00000    0.14923    0.13779 =
         0.12335   -0.08442   -0.04868    0.08970
F5    4    0.623916    0.942791    0.159614    21.00000    0.07682    0.10595 =
         0.06006    0.01683    0.01480   -0.01847
PART    2
F2    4    0.419527    0.884636    0.325101   -21.00000    0.04206    0.10326 =
         0.09907   -0.00948   -0.00454   -0.01824
F4    4    0.573915    1.067567    0.283346   -21.00000    0.09037    0.04457 =
         0.13560   -0.03558   -0.02494   -0.00201
F6    4    0.612434    0.899586    0.154437   -21.00000    0.10085    0.09081 =
         0.06353   -0.03485   -0.02329    0.01367
HKLF    4
 
 
 
 
REM  GJ_SO in P-1
REM R1 =  0.0392 for    1820 Fo > 4sig(Fo)  and  0.0503 for all    2210 data
REM    191 parameters refined using      0 restraints
 
END
 
WGHT      0.0461      0.1920
 
REM Highest difference peak  0.293,  deepest hole -0.261,  1-sigma level  0.040
Q1    1   0.6509  0.8181  0.3663  11.00000  0.05    0.29
Q2    1   0.8110  0.7980  0.4602  11.00000  0.05    0.26
Q3    1   1.2095  0.2797  0.0766  11.00000  0.05    0.23
Q4    1   1.1349  0.8050 -0.0195  11.00000  0.05    0.23
Q5    1   0.7893  0.5072  0.3482  11.00000  0.05    0.21
Q6    1   0.9885  0.6727  0.2164  11.00000  0.05    0.21
Q7    1   1.0341  0.3862  0.2243  11.00000  0.05    0.19
Q8    1   0.9142  0.5724  0.3004  11.00000  0.05    0.16
Q9    1   1.2276  0.5616  0.0589  11.00000  0.05    0.16
Q10   1   0.9837  0.5481  0.1944  11.00000  0.05    0.15
Q11   1   1.0465  0.5032  0.2653  11.00000  0.05    0.15
Q12   1   0.5305  0.6589  0.5039  11.00000  0.05    0.14
Q13   1   1.0342  0.8390  0.3189  11.00000  0.05    0.14
Q14   1   0.6766  0.6918  0.5727  11.00000  0.05    0.14
Q15   1   0.8650  0.3094  0.4091  11.00000  0.05    0.14
Q16   1   1.2769  0.6591  0.1660  11.00000  0.05    0.13
Q17   1   0.7968  0.6277  0.3810  11.00000  0.05    0.13
Q18   1   1.1261  0.4436  0.1760  11.00000  0.05    0.13
Q19   1   1.3348  0.3070  0.0266  11.00000  0.05    0.13
Q20   1   1.0997  0.7521  0.1400  11.00000  0.05    0.12
;
_shelx_res_checksum              46274
loop_
_space_group_symop_operation_xyz
'x, y, z'
'-x, -y, -z'
loop_
_atom_site_label
_atom_site_type_symbol
_atom_site_fract_x
_atom_site_fract_y
_atom_site_fract_z
_atom_site_U_iso_or_equiv
_atom_site_adp_type
_atom_site_occupancy
_atom_site_site_symmetry_order
_atom_site_calc_flag
_atom_site_refinement_flags_posn
_atom_site_refinement_flags_adp
_atom_site_refinement_flags_occupancy
_atom_site_disorder_assembly
_atom_site_disorder_group
C1 C 1.2202(3) 0.4625(3) 0.0994(3) 0.0599(6) Uani 1 1 d . . . . .
C2 C 1.2738(3) 0.6320(4) 0.0618(3) 0.0694(7) Uani 1 1 d . . . . .
H201 H 1.373351 0.644656 0.000117 0.083 Uiso 1 1 calc R U . . .
C3 C 1.1885(3) 0.7674(3) 0.1108(3) 0.0613(6) Uani 1 1 d . . . . .
H200 H 1.228433 0.874271 0.082977 0.074 Uiso 1 1 calc R U . . .
C4 C 1.0344(3) 0.7578(3) 0.2065(2) 0.0475(5) Uani 1 1 d . . . . .
C4A C 0.9777(2) 0.5872(2) 0.2530(2) 0.0402(4) Uani 1 1 d . . . . .
C5 C 0.8373(2) 0.5660(3) 0.3505(2) 0.0428(4) Uani 1 1 d . . . . .
C6 C 0.7841(3) 0.4064(3) 0.3927(3) 0.0571(6) Uani 1 1 d . . . . .
H100 H 0.688582 0.391948 0.459402 0.069 Uiso 1 1 calc R U . . .
C7 C 0.8721(3) 0.2684(3) 0.3361(3) 0.0665(7) Uani 1 1 d . . . . .
H11 H 0.834564 0.160193 0.362620 0.080 Uiso 1 1 calc R U . . .
C8 C 1.0124(3) 0.2859(3) 0.2427(3) 0.0599(6) Uani 1 1 d . . . . .
H101 H 1.073424 0.188503 0.207355 0.072 Uiso 1 1 calc R U . . .
C8A C 1.0656(3) 0.4453(3) 0.1996(2) 0.0473(5) Uani 1 1 d . . . . .
C9 C 0.5735(3) 0.8968(3) 0.2910(3) 0.0595(6) Uani 1 1 d . . . . .
O1 O 1.2978(2) 0.3419(3) 0.0500(2) 0.0851(6) Uani 1 1 d . . . . .
O2 O 0.9523(2) 0.8869(2) 0.2450(2) 0.0686(5) Uani 1 1 d . . . . .
O3 O 0.6231(2) 0.6318(2) 0.56540(18) 0.0646(4) Uani 1 1 d . . . . .
S1 S 0.73313(7) 0.72507(7) 0.44783(6) 0.04803(18) Uani 1 1 d . . . . .
F1 F 0.4619(19) 0.798(2) 0.2836(16) 0.115(5) Uani 0.39(2) 1 d . . P A 1
F3 F 0.482(3) 1.026(3) 0.3329(15) 0.153(9) Uani 0.39(2) 1 d . . P A 1
F5 F 0.624(2) 0.943(3) 0.1596(15) 0.098(5) Uani 0.39(2) 1 d . . P A 1
F2 F 0.4195(5) 0.8846(12) 0.3251(7) 0.090(2) Uani 0.61(2) 1 d . . P A 2
F4 F 0.5739(10) 1.0676(6) 0.2833(9) 0.091(2) Uani 0.61(2) 1 d . . P A 2
F6 F 0.6124(15) 0.8996(15) 0.1544(10) 0.091(3) Uani 0.61(2) 1 d . . P A 2
loop_
_atom_site_aniso_label
_atom_site_aniso_U_11
_atom_site_aniso_U_22
_atom_site_aniso_U_33
_atom_site_aniso_U_23
_atom_site_aniso_U_13
_atom_site_aniso_U_12
C1 0.0492(12) 0.0632(14) 0.0518(12) -0.0172(11) -0.0027(10) 0.0023(11)
C2 0.0518(13) 0.0701(16) 0.0683(15) -0.0118(13) 0.0172(12) -0.0141(12)
C3 0.0528(13) 0.0566(13) 0.0642(14) -0.0049(11) 0.0052(11) -0.0238(11)
C4 0.0469(11) 0.0430(11) 0.0510(11) -0.0112(9) 0.0001(9) -0.0174(9)
C4A 0.0373(9) 0.0366(9) 0.0453(10) -0.0118(8) -0.0043(8) -0.0107(8)
C5 0.0412(10) 0.0386(10) 0.0501(11) -0.0155(8) -0.0013(9) -0.0138(8)
C6 0.0517(12) 0.0496(12) 0.0728(15) -0.0171(11) 0.0050(11) -0.0259(10)
C7 0.0717(16) 0.0435(12) 0.0933(19) -0.0254(12) -0.0046(14) -0.0264(11)
C8 0.0614(14) 0.0448(12) 0.0774(16) -0.0297(11) -0.0074(12) -0.0083(10)
C8A 0.0444(11) 0.0443(11) 0.0501(11) -0.0174(9) -0.0071(9) -0.0054(9)
C9 0.0515(13) 0.0595(14) 0.0630(15) -0.0222(12) -0.0021(12) -0.0086(11)
O1 0.0773(12) 0.0821(13) 0.0821(13) -0.0408(10) 0.0126(10) 0.0068(10)
O2 0.0774(11) 0.0483(9) 0.0907(12) -0.0325(9) 0.0213(9) -0.0299(8)
O3 0.0623(10) 0.0764(11) 0.0521(9) -0.0189(8) 0.0147(8) -0.0256(8)
S1 0.0458(3) 0.0521(3) 0.0494(3) -0.0211(2) 0.0027(2) -0.0156(2)
F1 0.082(6) 0.125(8) 0.115(6) 0.006(5) -0.044(5) -0.043(6)
F3 0.149(13) 0.138(10) 0.123(7) -0.084(7) -0.049(8) 0.090(10)
F5 0.077(4) 0.106(8) 0.060(6) 0.017(5) 0.015(4) -0.018(5)
F2 0.0421(17) 0.103(4) 0.099(3) -0.009(3) -0.0045(18) -0.018(2)
F4 0.090(3) 0.0446(19) 0.136(4) -0.0356(18) -0.025(3) -0.0020(18)
F6 0.101(4) 0.091(4) 0.064(4) -0.035(3) -0.023(3) 0.014(3)
loop_
_atom_type_symbol
_atom_type_description
_atom_type_scat_dispersion_real
_atom_type_scat_dispersion_imag
_atom_type_scat_source
C C 0.0033 0.0016 'International Tables Vol C Tables 4.2.6.8 and 6.1.1.4'
H H 0.0000 0.0000 'International Tables Vol C Tables 4.2.6.8 and 6.1.1.4'
O O 0.0106 0.0060 'International Tables Vol C Tables 4.2.6.8 and 6.1.1.4'
F F 0.0171 0.0103 'International Tables Vol C Tables 4.2.6.8 and 6.1.1.4'
S S 0.1246 0.1234 'International Tables Vol C Tables 4.2.6.8 and 6.1.1.4'
loop_
_geom_angle_atom_site_label_1
_geom_angle_atom_site_label_2
_geom_angle_atom_site_label_3
_geom_angle
O1 C1 C2 121.3(2)
O1 C1 C8A 121.4(2)
C2 C1 C8A 117.4(2)
C3 C2 C1 122.4(2)
C2 C3 C4 122.0(2)
O2 C4 C3 121.33(19)
O2 C4 C4A 120.47(19)
C3 C4 C4A 118.19(19)
C8A C4A C5 119.18(17)
C8A C4A C4 119.99(18)
C5 C4A C4 120.82(17)
C6 C5 C4A 120.54(19)
C6 C5 S1 115.99(16)
C4A C5 S1 123.00(14)
C7 C6 C5 119.1(2)
C8 C7 C6 120.9(2)
C7 C8 C8A 120.2(2)
C8 C8A C4A 120.0(2)
C8 C8A C1 120.0(2)
C4A C8A C1 120.02(19)
F5 C9 F3 116.1(10)
F2 C9 F6 111.5(6)
F2 C9 F4 107.0(3)
F6 C9 F4 103.6(5)
F5 C9 F1 100.3(8)
F3 C9 F1 106.2(7)
F5 C9 S1 119.0(8)
F3 C9 S1 109.4(4)
F2 C9 S1 111.0(3)
F6 C9 S1 117.0(5)
F4 C9 S1 105.9(3)
F1 C9 S1 103.8(4)
O3 S1 C5 105.97(9)
O3 S1 C9 103.70(11)
C5 S1 C9 97.15(10)
loop_
_geom_bond_atom_site_label_1
_geom_bond_atom_site_label_2
_geom_bond_distance
C1 O1 1.212(3)
C1 C2 1.470(4)
C1 C8A 1.493(3)
C2 C3 1.320(3)
C3 C4 1.463(3)
C4 O2 1.215(3)
C4 C4A 1.481(3)
C4A C8A 1.393(3)
C4A C5 1.394(3)
C5 C6 1.388(3)
C5 S1 1.810(2)
C6 C7 1.386(3)
C7 C8 1.369(3)
C8 C8A 1.386(3)
C9 F5 1.220(12)
C9 F3 1.255(7)
C9 F2 1.272(5)
C9 F6 1.289(9)
C9 F4 1.357(5)
C9 F1 1.392(10)
C9 S1 1.882(2)
O3 S1 1.4723(16)
