#------------------------------------------------------------------------------
#$Date: 2019-11-17 15:16:04 +0200 (Sun, 17 Nov 2019) $
#$Revision: 230795 $
#$URL: file:///home/coder/svn-repositories/cod/cif/7/15/60/7156080.cif $
#------------------------------------------------------------------------------
#
# This file is available in the Crystallography Open Database (COD),
# http://www.crystallography.net/
#
# All data on this site have been placed in the public domain by the
# contributors.
#
data_7156080
loop_
_publ_author_name
'Ahn, Yeong-Chan'
'Fischer, Conrad'
'van Belkum, Marco J.'
'Vederas, John C.'
_publ_section_title
;
 PLP-independent racemization: mechanistic and mutational studies of
 O-ureidoserine racemase (DcsC).
;
_journal_issue                   7
_journal_name_full               'Organic &amp; biomolecular chemistry'
_journal_page_first              1126
_journal_page_last               1133
_journal_paper_doi               10.1039/c7ob03013d
_journal_volume                  16
_journal_year                    2018
_chemical_absolute_configuration syn
_chemical_formula_sum            'C13 H16 N2 O5'
_chemical_formula_weight         280.28
_chemical_name_systematic
'(1R)-1-phenylethyl (2S)-2-{[(carbamoylamino)oxy]methyl}oxirane-2-carboxylate'
_space_group_crystal_system      monoclinic
_space_group_IT_number           4
_space_group_name_Hall           'P 2yb'
_space_group_name_H-M_alt        'P 1 21 1'
_symmetry_space_group_name_Hall  'P 2yb'
_symmetry_space_group_name_H-M   'P 1 21 1'
_atom_sites_solution_hydrogens   mixed
_audit_creation_method           SHELXL-2014/7
_audit_update_record
;
2017-11-30 deposited with the CCDC.
2018-01-16 downloaded from the CCDC.
;
_cell_angle_alpha                90
_cell_angle_beta                 90.8223(8)
_cell_angle_gamma                90
_cell_formula_units_Z            2
_cell_length_a                   5.92380(10)
_cell_length_b                   7.17870(10)
_cell_length_c                   16.1585(3)
_cell_measurement_reflns_used    9857
_cell_measurement_temperature    173(2)
_cell_measurement_theta_max      73.54
_cell_measurement_theta_min      2.73
_cell_volume                     687.07(2)
_computing_cell_refinement       'Bruker SAINT'
_computing_data_collection       'Bruker APEX2'
_computing_data_reduction        'Bruker SAINT'
_computing_molecular_graphics    'Bruker SHELXTL'
_computing_publication_material  'Bruker SHELXTL'
_computing_structure_refinement  'SHELXL-2014/7 (Sheldrick, 2014)'
_computing_structure_solution    'SHELXT-2014/5 (Sheldrick 2015)'
_diffrn_ambient_temperature      173(2)
_diffrn_measured_fraction_theta_full 1.000
_diffrn_measured_fraction_theta_max 0.999
_diffrn_measurement_device_type  'Bruker APEX-II CCD'
_diffrn_measurement_method       '\f and \w scans'
_diffrn_radiation_type           CuK\a
_diffrn_radiation_wavelength     1.54178
_diffrn_reflns_av_R_equivalents  0.0174
_diffrn_reflns_av_unetI/netI     0.0289
_diffrn_reflns_Laue_measured_fraction_full 1.000
_diffrn_reflns_Laue_measured_fraction_max 0.999
_diffrn_reflns_limit_h_max       7
_diffrn_reflns_limit_h_min       -7
_diffrn_reflns_limit_k_max       8
_diffrn_reflns_limit_k_min       -8
_diffrn_reflns_limit_l_max       20
_diffrn_reflns_limit_l_min       -20
_diffrn_reflns_number            4927
_diffrn_reflns_point_group_measured_fraction_full 0.990
_diffrn_reflns_point_group_measured_fraction_max 0.987
_diffrn_reflns_theta_full        67.679
_diffrn_reflns_theta_max         73.950
_diffrn_reflns_theta_min         2.735
_exptl_absorpt_coefficient_mu    0.886
_exptl_absorpt_correction_T_max  1.0000
_exptl_absorpt_correction_T_min  0.7597
_exptl_absorpt_correction_type   numerical
_exptl_absorpt_process_details   'SADABS 2016/2 (Krause et al., 2015)'
_exptl_crystal_colour            colourless
_exptl_crystal_density_diffrn    1.355
_exptl_crystal_description       plate
_exptl_crystal_F_000             296
_exptl_crystal_recrystallization_method
'Re-crystallisation from solvent: Benzene/EtOAc (2:1)'
_exptl_crystal_size_max          0.248
_exptl_crystal_size_mid          0.131
_exptl_crystal_size_min          0.032
_refine_diff_density_max         0.171
_refine_diff_density_min         -0.137
_refine_diff_density_rms         0.029
_refine_ls_abs_structure_details
; 
 Flack x determined using 1179 quotients [(I+)-(I-)]/[(I+)+(I-)] 
 (Parsons, Flack and Wagner, Acta Cryst. B69 (2013) 249-259). 
;
_refine_ls_abs_structure_Flack   0.08(7)
_refine_ls_extinction_coef       0.0037(11)
_refine_ls_extinction_expression Fc^*^=kFc[1+0.001xFc^2^\l^3^/sin(2\q)]^-1/4^
_refine_ls_extinction_method     'SHELXL-2014/7 (Sheldrick 2014'
_refine_ls_goodness_of_fit_ref   1.025
_refine_ls_hydrogen_treatment    mixed
_refine_ls_matrix_type           full
_refine_ls_number_parameters     194
_refine_ls_number_reflns         2754
_refine_ls_number_restraints     1
_refine_ls_restrained_S_all      1.025
_refine_ls_R_factor_all          0.0276
_refine_ls_R_factor_gt           0.0268
_refine_ls_shift/su_max          0.000
_refine_ls_shift/su_mean         0.000
_refine_ls_structure_factor_coef Fsqd
_refine_ls_weighting_details
'w=1/[\s^2^(Fo^2^)+(0.0429P)^2^+0.0614P] where P=(Fo^2^+2Fc^2^)/3'
_refine_ls_weighting_scheme      calc
_refine_ls_wR_factor_gt          0.0722
_refine_ls_wR_factor_ref         0.0729
_reflns_Friedel_coverage         0.824
_reflns_Friedel_fraction_full    0.979
_reflns_Friedel_fraction_max     0.974
_reflns_number_gt                2674
_reflns_number_total             2754
_reflns_threshold_expression     'I > 2\s(I)'
_cod_data_source_file            c7ob03013d2.cif
_cod_data_source_block           jcv1705
_cod_depositor_comments
'Adding full bibliography for 7156079--7156080.cif.'
_cod_database_code               7156080
_shelx_shelxl_version_number     2014/7
_shelx_space_group_comment
; 
The symmetry employed for this shelxl refinement is uniquely defined 
by the following loop, which should always be used as a source of 
symmetry information in preference to the above space-group names. 
They are only intended as comments. 
;
_shelx_estimated_absorpt_t_min   0.810
_shelx_estimated_absorpt_t_max   0.972
_shelx_res_file
; 
  
    jcv1705.res created by SHELXL-2014/7 
  
  
TITL jcv1705 in P2(1) 
CELL 1.54178   5.92380   7.17870  16.15850  90.0000  90.8223  90.0000 
ZERR    2.00   0.00010   0.00010   0.00030   0.0000   0.0008   0.0000 
LATT -1 
SYMM -X, 0.5+Y, -Z 
SFAC C H N O 
UNIT 26 32 4 10 
TEMP -100.000 
SIZE 0.032 0.131 0.248 
  
L.S. 4 
ACTA 
CONF 
  
EQIV $1 -x+2, y+1/2, -z 
HTAB N1 O5_$1 
HTAB N2 O2 
EQIV $2 -x+2, y-1/2, -z 
HTAB N2 O5_$2 
  
WGHT    0.042900    0.061400 
EXTI    0.003666 
FVAR       0.29971 
O1    4    0.314079    0.824964    0.261920    11.00000    0.04527    0.03391 = 
         0.02617   -0.00230    0.00469    0.00061 
O2    4    0.351300    0.362620    0.179208    11.00000    0.05833    0.03520 = 
         0.03437   -0.00498    0.02262   -0.00536 
O3    4    0.206846    0.466497    0.299192    11.00000    0.05070    0.02781 = 
         0.02652    0.00181    0.01737   -0.00047 
O4    4    0.651982    0.685456    0.133334    11.00000    0.03356    0.03639 = 
         0.02425   -0.00210    0.01192   -0.00231 
O5    4    1.004735    0.512747   -0.018962    11.00000    0.04174    0.03103 = 
         0.03208   -0.00084    0.01756   -0.00113 
N1    3    0.761737    0.680264    0.055784    11.00000    0.04592    0.03017 = 
         0.03313   -0.00093    0.02388   -0.00297 
H1N   2    0.846259    0.787472    0.044879    11.00000    0.04077 
N2    3    0.790155    0.362467    0.075953    11.00000    0.04211    0.02959 = 
         0.02932    0.00081    0.01461    0.00103 
H2NA  2    0.681368    0.372077    0.107287    11.00000    0.04638 
H2NB  2    0.855885    0.257383    0.060731    11.00000    0.05297 
C1    1    0.103252    0.808882    0.218235    11.00000    0.03864    0.04178 = 
         0.02898    0.00134    0.00825    0.00634 
AFIX  23 
H1A   2    0.061218    0.909353    0.178976    11.00000   -1.20000 
H1B   2   -0.024807    0.751425    0.247538    11.00000   -1.20000 
AFIX   0 
C2    1    0.295825    0.688678    0.197212    11.00000    0.03175    0.03251 = 
         0.02106    0.00118    0.00626   -0.00003 
C3    1    0.290560    0.487004    0.223796    11.00000    0.03050    0.03325 = 
         0.02345   -0.00010    0.00783   -0.00292 
C4    1    0.418844    0.729118    0.118793    11.00000    0.03658    0.03837 = 
         0.02365    0.00445    0.00857   -0.00051 
AFIX  23 
H4A   2    0.357073    0.652250    0.072918    11.00000   -1.20000 
H4B   2    0.401817    0.862082    0.103690    11.00000   -1.20000 
AFIX   0 
C5    1    0.860705    0.514066    0.036675    11.00000    0.03250    0.03078 = 
         0.02276   -0.00321    0.00504   -0.00261 
C6    1    0.149912    0.273588    0.324563    11.00000    0.04372    0.02676 = 
         0.02901    0.00149    0.01289   -0.00035 
AFIX  13 
H6    2    0.251437    0.184337    0.295555    11.00000   -1.20000 
AFIX   0 
C7    1   -0.090847    0.239068    0.296827    11.00000    0.05138    0.04659 = 
         0.02925    0.00459    0.00248   -0.00628 
AFIX  33 
H7A   2   -0.135536    0.112558    0.312436    11.00000   -1.20000 
H7B   2   -0.190440    0.329348    0.323448    11.00000   -1.20000 
H7C   2   -0.102890    0.252884    0.236588    11.00000   -1.20000 
AFIX   0 
C8    1    0.194629    0.261777    0.416639    11.00000    0.03060    0.02418 = 
         0.03095    0.00272    0.00840   -0.00194 
C9    1    0.397592    0.186165    0.445513    11.00000    0.03012    0.03108 = 
         0.04785    0.00606    0.01466    0.00209 
AFIX  43 
H9    2    0.503720    0.139827    0.407093    11.00000   -1.20000 
AFIX   0 
C10   1    0.446567    0.177699    0.529418    11.00000    0.02979    0.03598 = 
         0.05543    0.01469   -0.00083    0.00033 
AFIX  43 
H10   2    0.587060    0.128478    0.548216    11.00000   -1.20000 
AFIX   0 
C11   1    0.290551    0.241070    0.586069    11.00000    0.04421    0.03371 = 
         0.03473    0.00466   -0.00208   -0.00695 
AFIX  43 
H11   2    0.323834    0.235743    0.643708    11.00000   -1.20000 
AFIX   0 
C12   1    0.086149    0.312092    0.558137    11.00000    0.03881    0.03173 = 
         0.03116   -0.00233    0.00604    0.00105 
AFIX  43 
H12   2   -0.022395    0.353036    0.596842    11.00000   -1.20000 
AFIX   0 
C13   1    0.038607    0.323922    0.473901    11.00000    0.02917    0.02741 = 
         0.03143   -0.00010    0.00552    0.00328 
AFIX  43 
H13   2   -0.101229    0.374733    0.455292    11.00000   -1.20000 
  
AFIX   0 
HKLF 4 
  
REM  jcv1705 in P2(1) 
REM R1 =  0.0268 for    2674 Fo > 4sig(Fo)  and  0.0276 for all    2754 data 
REM    194 parameters refined using      1 restraints 
  
END 
  
WGHT      0.0429      0.0613 
  
REM Highest difference peak  0.171,  deepest hole -0.137,  1-sigma level  0.029 
Q1    1   0.1610  0.2584  0.3763  11.00000  0.05    0.17 
Q2    1   0.3527  0.7089  0.1617  11.00000  0.05    0.15 
Q3    1   0.1272  0.4771  0.2593  11.00000  0.05    0.14 
Q4    1   0.8930  0.6194  0.0822  11.00000  0.05    0.13 
Q5    1   0.7329  0.6719  0.1758  11.00000  0.05    0.12 
Q6    1   0.4046  0.1469  0.4859  11.00000  0.05    0.11 
Q7    1   0.0508  0.3029  0.5195  11.00000  0.05    0.11 
Q8    1   0.4273  0.2185  0.4897  11.00000  0.05    0.11 
Q9    1   0.2842  0.1937  0.4361  11.00000  0.05    0.11 
Q10   1   1.0448  0.5234  0.0303  11.00000  0.05    0.11 
Q11   1   0.4254  0.4135  0.2178  11.00000  0.05    0.11 
Q12   1   0.1077  0.2837  0.4407  11.00000  0.05    0.11 
Q13   1   0.8766  0.5165 -0.0215  11.00000  0.05    0.11 
Q14   1   0.6652  0.6696 -0.0020  11.00000  0.05    0.10 
Q15   1   0.2397  0.3919  0.1797  11.00000  0.05    0.10 
Q16   1   0.2679  0.5974  0.2043  11.00000  0.05    0.10 
Q17   1   0.3487  0.2076  0.5572  11.00000  0.05    0.10 
Q18   1   0.0495  0.2353  0.3013  11.00000  0.05    0.10 
Q19   1   0.3461  0.3662  0.1236  11.00000  0.05    0.09 
Q20   1   0.3498  0.2762  0.2165  11.00000  0.05    0.09 
;
_shelx_res_checksum              65531
loop_
_space_group_symop_operation_xyz
'x, y, z'
'-x, y+1/2, -z'
loop_
_atom_site_label
_atom_site_type_symbol
_atom_site_fract_x
_atom_site_fract_y
_atom_site_fract_z
_atom_site_U_iso_or_equiv
_atom_site_adp_type
_atom_site_occupancy
_atom_site_site_symmetry_order
_atom_site_calc_flag
_atom_site_refinement_flags_posn
_atom_site_refinement_flags_adp
O1 O 0.3141(2) 0.8250(2) 0.26192(8) 0.0351(3) Uani 1 1 d . .
O2 O 0.3513(3) 0.3626(2) 0.17921(8) 0.0424(4) Uani 1 1 d . .
O3 O 0.2068(2) 0.46650(18) 0.29919(8) 0.0349(3) Uani 1 1 d . .
O4 O 0.6520(2) 0.68546(19) 0.13333(7) 0.0313(3) Uani 1 1 d . .
O5 O 1.0047(2) 0.51275(19) -0.01896(8) 0.0348(3) Uani 1 1 d . .
N1 N 0.7617(3) 0.6803(2) 0.05578(10) 0.0362(4) Uani 1 1 d . .
H1N H 0.846(4) 0.787(4) 0.0449(16) 0.041(6) Uiso 1 1 d . .
N2 N 0.7902(3) 0.3625(2) 0.07595(10) 0.0335(3) Uani 1 1 d . .
H2NA H 0.681(5) 0.372(4) 0.1073(16) 0.046(7) Uiso 1 1 d . .
H2NB H 0.856(5) 0.257(5) 0.0607(18) 0.053(8) Uiso 1 1 d . .
C1 C 0.1033(3) 0.8089(3) 0.21824(11) 0.0364(4) Uani 1 1 d . .
H1A H 0.0612 0.9094 0.1790 0.044 Uiso 1 1 calc R U
H1B H -0.0248 0.7514 0.2475 0.044 Uiso 1 1 calc R U
C2 C 0.2958(3) 0.6887(3) 0.19721(9) 0.0284(4) Uani 1 1 d . .
C3 C 0.2906(3) 0.4870(3) 0.22380(10) 0.0290(4) Uani 1 1 d . .
C4 C 0.4188(3) 0.7291(3) 0.11879(11) 0.0328(4) Uani 1 1 d . .
H4A H 0.3571 0.6522 0.0729 0.039 Uiso 1 1 calc R U
H4B H 0.4018 0.8621 0.1037 0.039 Uiso 1 1 calc R U
C5 C 0.8607(3) 0.5141(3) 0.03668(10) 0.0286(3) Uani 1 1 d . .
C6 C 0.1499(3) 0.2736(3) 0.32456(11) 0.0330(4) Uani 1 1 d . .
H6 H 0.2514 0.1843 0.2956 0.040 Uiso 1 1 calc R U
C7 C -0.0908(4) 0.2391(3) 0.29683(12) 0.0424(5) Uani 1 1 d . .
H7A H -0.1355 0.1126 0.3124 0.051 Uiso 1 1 calc R U
H7B H -0.1904 0.3293 0.3234 0.051 Uiso 1 1 calc R U
H7C H -0.1029 0.2529 0.2366 0.051 Uiso 1 1 calc R U
C8 C 0.1946(3) 0.2618(2) 0.41664(11) 0.0285(4) Uani 1 1 d . .
C9 C 0.3976(3) 0.1862(3) 0.44551(13) 0.0362(4) Uani 1 1 d . .
H9 H 0.5037 0.1398 0.4071 0.043 Uiso 1 1 calc R U
C10 C 0.4466(3) 0.1777(3) 0.52942(14) 0.0404(4) Uani 1 1 d . .
H10 H 0.5871 0.1285 0.5482 0.048 Uiso 1 1 calc R U
C11 C 0.2906(4) 0.2411(3) 0.58607(12) 0.0376(4) Uani 1 1 d . .
H11 H 0.3238 0.2357 0.6437 0.045 Uiso 1 1 calc R U
C12 C 0.0861(3) 0.3121(3) 0.55814(11) 0.0338(4) Uani 1 1 d . .
H12 H -0.0224 0.3530 0.5968 0.041 Uiso 1 1 calc R U
C13 C 0.0386(3) 0.3239(2) 0.47390(11) 0.0293(4) Uani 1 1 d . .
H13 H -0.1012 0.3747 0.4553 0.035 Uiso 1 1 calc R U
loop_
_atom_site_aniso_label
_atom_site_aniso_U_11
_atom_site_aniso_U_22
_atom_site_aniso_U_33
_atom_site_aniso_U_23
_atom_site_aniso_U_13
_atom_site_aniso_U_12
O1 0.0453(7) 0.0339(7) 0.0262(6) -0.0023(5) 0.0047(5) 0.0006(6)
O2 0.0583(9) 0.0352(7) 0.0344(6) -0.0050(6) 0.0226(6) -0.0054(6)
O3 0.0507(8) 0.0278(7) 0.0265(6) 0.0018(5) 0.0174(5) -0.0005(6)
O4 0.0336(6) 0.0364(7) 0.0243(6) -0.0021(5) 0.0119(5) -0.0023(5)
O5 0.0417(7) 0.0310(6) 0.0321(6) -0.0008(5) 0.0176(5) -0.0011(6)
N1 0.0459(9) 0.0302(8) 0.0331(8) -0.0009(7) 0.0239(7) -0.0030(7)
N2 0.0421(9) 0.0296(8) 0.0293(7) 0.0008(6) 0.0146(6) 0.0010(7)
C1 0.0386(10) 0.0418(10) 0.0290(8) 0.0013(8) 0.0083(7) 0.0063(8)
C2 0.0318(8) 0.0325(9) 0.0211(7) 0.0012(7) 0.0063(6) 0.0000(7)
C3 0.0305(8) 0.0333(10) 0.0235(7) -0.0001(7) 0.0078(6) -0.0029(7)
C4 0.0366(9) 0.0384(10) 0.0237(7) 0.0045(7) 0.0086(7) -0.0005(7)
C5 0.0325(8) 0.0308(8) 0.0228(7) -0.0032(7) 0.0050(6) -0.0026(7)
C6 0.0437(10) 0.0268(9) 0.0290(8) 0.0015(6) 0.0129(7) -0.0004(7)
C7 0.0514(12) 0.0466(12) 0.0293(8) 0.0046(8) 0.0025(8) -0.0063(9)
C8 0.0306(8) 0.0242(8) 0.0309(8) 0.0027(6) 0.0084(7) -0.0019(6)
C9 0.0301(8) 0.0311(9) 0.0478(10) 0.0061(8) 0.0147(7) 0.0021(7)
C10 0.0298(8) 0.0360(10) 0.0554(11) 0.0147(10) -0.0008(8) 0.0003(8)
C11 0.0442(10) 0.0337(10) 0.0347(9) 0.0047(7) -0.0021(8) -0.0070(8)
C12 0.0388(9) 0.0317(9) 0.0312(8) -0.0023(7) 0.0060(7) 0.0011(7)
C13 0.0292(8) 0.0274(8) 0.0314(8) -0.0001(7) 0.0055(7) 0.0033(7)
loop_
_atom_type_symbol
_atom_type_description
_atom_type_scat_dispersion_real
_atom_type_scat_dispersion_imag
_atom_type_scat_source
C C 0.0181 0.0091 'International Tables Vol C Tables 4.2.6.8 and 6.1.1.4'
H H 0.0000 0.0000 'International Tables Vol C Tables 4.2.6.8 and 6.1.1.4'
N N 0.0311 0.0180 'International Tables Vol C Tables 4.2.6.8 and 6.1.1.4'
O O 0.0492 0.0322 'International Tables Vol C Tables 4.2.6.8 and 6.1.1.4'
loop_
_geom_angle_atom_site_label_1
_geom_angle_atom_site_label_2
_geom_angle_atom_site_label_3
_geom_angle
C1 O1 C2 61.92(11)
C3 O3 C6 116.45(13)
N1 O4 C4 108.27(13)
C5 N1 O4 115.18(15)
O1 C1 C2 59.19(11)
O1 C2 C1 58.89(12)
O1 C2 C4 116.83(16)
C1 C2 C4 117.95(16)
O1 C2 C3 116.61(13)
C1 C2 C3 118.45(15)
C4 C2 C3 115.99(15)
O2 C3 O3 125.72(17)
O2 C3 C2 122.17(15)
O3 C3 C2 112.09(14)
O4 C4 C2 107.35(14)
O5 C5 N2 124.06(17)
O5 C5 N1 117.98(17)
N2 C5 N1 117.89(15)
O3 C6 C7 106.78(16)
O3 C6 C8 106.69(14)
C7 C6 C8 115.79(15)
C13 C8 C9 118.73(17)
C13 C8 C6 121.92(16)
C9 C8 C6 119.35(16)
C10 C9 C8 120.86(17)
C9 C10 C11 120.00(18)
C12 C11 C10 119.60(18)
C11 C12 C13 120.43(17)
C12 C13 C8 120.34(17)
loop_
_geom_bond_atom_site_label_1
_geom_bond_atom_site_label_2
_geom_bond_distance
O1 C1 1.430(2)
O1 C2 1.435(2)
O2 C3 1.206(2)
O3 C3 1.330(2)
O3 C6 1.484(2)
O4 N1 1.4205(17)
O4 C4 1.432(2)
O5 C5 1.248(2)
N1 C5 1.367(3)
N2 C5 1.330(2)
C1 C2 1.474(2)
C2 C4 1.499(2)
C2 C3 1.511(3)
C6 C7 1.509(3)
C6 C8 1.510(2)
C8 C13 1.391(2)
C8 C9 1.393(3)
C9 C10 1.384(3)
C10 C11 1.387(3)
C11 C12 1.384(3)
C12 C13 1.389(2)
loop_
_geom_hbond_atom_site_label_D
_geom_hbond_atom_site_label_H
_geom_hbond_atom_site_label_A
_geom_hbond_distance_DH
_geom_hbond_distance_HA
_geom_hbond_distance_DA
_geom_hbond_angle_DHA
_geom_hbond_site_symmetry_A
N1 H1N O5 0.94(3) 1.89(3) 2.826(2) 175(2) 2_755
N2 H2NA O2 0.83(3) 2.29(3) 3.109(2) 170(3) .
N2 H2NB O5 0.89(3) 2.06(3) 2.943(2) 176(3) 2_745
loop_
_geom_torsion_atom_site_label_1
_geom_torsion_atom_site_label_2
_geom_torsion_atom_site_label_3
_geom_torsion_atom_site_label_4
_geom_torsion
C4 O4 N1 C5 -120.52(17)
C1 O1 C2 C4 107.95(18)
C1 O1 C2 C3 -108.66(17)
O1 C1 C2 C4 -106.06(18)
O1 C1 C2 C3 105.55(17)
C6 O3 C3 O2 -10.4(3)
C6 O3 C3 C2 167.79(15)
O1 C2 C3 O2 -154.31(18)
C1 C2 C3 O2 138.38(19)
C4 C2 C3 O2 -10.6(3)
O1 C2 C3 O3 27.4(2)
C1 C2 C3 O3 -39.9(2)
C4 C2 C3 O3 171.15(15)
N1 O4 C4 C2 166.48(15)
O1 C2 C4 O4 78.67(19)
C1 C2 C4 O4 145.90(16)
C3 C2 C4 O4 -64.9(2)
O4 N1 C5 O5 -162.48(15)
O4 N1 C5 N2 20.5(2)
C3 O3 C6 C7 -88.72(18)
C3 O3 C6 C8 146.90(15)
O3 C6 C8 C13 82.1(2)
C7 C6 C8 C13 -36.5(3)
O3 C6 C8 C9 -98.04(19)
C7 C6 C8 C9 143.31(19)
C13 C8 C9 C10 -1.9(3)
C6 C8 C9 C10 178.29(18)
C8 C9 C10 C11 1.5(3)
C9 C10 C11 C12 0.2(3)
C10 C11 C12 C13 -1.4(3)
C11 C12 C13 C8 1.0(3)
C9 C8 C13 C12 0.6(3)
C6 C8 C13 C12 -179.54(17)
