#------------------------------------------------------------------------------
#$Date: 2019-11-17 15:25:54 +0200 (Sun, 17 Nov 2019) $
#$Revision: 230866 $
#$URL: file:///home/coder/svn-repositories/cod/cif/7/15/60/7156087.cif $
#------------------------------------------------------------------------------
#
# This file is available in the Crystallography Open Database (COD),
# http://www.crystallography.net/
#
# All data on this site have been placed in the public domain by the
# contributors.
#
data_7156087
loop_
_publ_author_name
'Zhang, Yingchao'
'Wen, Chunxia'
'Li, Jizhen'
_publ_section_title
;
 C5-Regioselective C-H fluorination of 8-aminoquinoline amides and
 sulfonamides with Selectfluor under metal-free conditions.
;
_journal_issue                   11
_journal_name_full               'Organic &amp; biomolecular chemistry'
_journal_page_first              1912
_journal_page_last               1920
_journal_paper_doi               10.1039/c7ob03059b
_journal_volume                  16
_journal_year                    2018
_chemical_formula_sum            'C16 H10 Cl F N2 O'
_chemical_formula_weight         300.71
_space_group_crystal_system      triclinic
_space_group_IT_number           2
_space_group_name_Hall           '-P 1'
_space_group_name_H-M_alt        'P -1'
_symmetry_space_group_name_Hall  '-P 1'
_symmetry_space_group_name_H-M   'P -1'
_atom_sites_solution_hydrogens   geom
_audit_creation_method           SHELXL-2014/7
_audit_update_record
;
2017-11-16 deposited with the CCDC.
2018-01-29 downloaded from the CCDC.
;
_cell_angle_alpha                115.042(4)
_cell_angle_beta                 92.445(5)
_cell_angle_gamma                108.132(4)
_cell_formula_units_Z            2
_cell_length_a                   7.6576(13)
_cell_length_b                   10.1949(14)
_cell_length_c                   10.3237(15)
_cell_measurement_reflns_used    1106
_cell_measurement_temperature    296(2)
_cell_measurement_theta_max      24.23
_cell_measurement_theta_min      2.37
_cell_volume                     679.55(18)
_computing_structure_refinement  'SHELXL-2014/7 (Sheldrick, 2014)'
_diffrn_ambient_temperature      296(2)
_diffrn_measured_fraction_theta_full 0.984
_diffrn_measured_fraction_theta_max 0.984
_diffrn_measurement_device_type  CCD
_diffrn_radiation_type           MoK\a
_diffrn_radiation_wavelength     0.71073
_diffrn_reflns_av_R_equivalents  0.0231
_diffrn_reflns_av_unetI/netI     0.0361
_diffrn_reflns_Laue_measured_fraction_full 0.984
_diffrn_reflns_Laue_measured_fraction_max 0.984
_diffrn_reflns_limit_h_max       9
_diffrn_reflns_limit_h_min       -7
_diffrn_reflns_limit_k_max       9
_diffrn_reflns_limit_k_min       -12
_diffrn_reflns_limit_l_max       12
_diffrn_reflns_limit_l_min       -12
_diffrn_reflns_number            4318
_diffrn_reflns_point_group_measured_fraction_full 0.984
_diffrn_reflns_point_group_measured_fraction_max 0.984
_diffrn_reflns_theta_full        24.939
_diffrn_reflns_theta_max         24.939
_diffrn_reflns_theta_min         2.224
_exptl_absorpt_coefficient_mu    0.292
_exptl_absorpt_correction_type   multi-scan
_exptl_absorpt_process_details   sadabs
_exptl_crystal_colour            colorless
_exptl_crystal_density_diffrn    1.470
_exptl_crystal_description       block
_exptl_crystal_F_000             308
_exptl_crystal_size_max          0.220
_exptl_crystal_size_mid          0.200
_exptl_crystal_size_min          0.180
_exptl_transmission_factor_max   0.864
_exptl_transmission_factor_min   0.864
_refine_diff_density_max         0.175
_refine_diff_density_min         -0.264
_refine_diff_density_rms         0.062
_refine_ls_extinction_method     none
_refine_ls_goodness_of_fit_ref   1.044
_refine_ls_hydrogen_treatment    constr
_refine_ls_matrix_type           full
_refine_ls_number_parameters     190
_refine_ls_number_reflns         2337
_refine_ls_number_restraints     0
_refine_ls_restrained_S_all      1.044
_refine_ls_R_factor_all          0.0645
_refine_ls_R_factor_gt           0.0461
_refine_ls_shift/su_max          0.000
_refine_ls_shift/su_mean         0.000
_refine_ls_structure_factor_coef Fsqd
_refine_ls_weighting_details
'w=1/[\s^2^(Fo^2^)+(0.0703P)^2^+0.0442P] where P=(Fo^2^+2Fc^2^)/3'
_refine_ls_weighting_scheme      calc
_refine_ls_wR_factor_gt          0.1166
_refine_ls_wR_factor_ref         0.1329
_reflns_Friedel_coverage         0.000
_reflns_number_gt                1695
_reflns_number_total             2337
_reflns_threshold_expression     'I > 2\s(I)'
_cod_data_source_file            c7ob03059b2.cif
_cod_data_source_block           1_a
_cod_depositor_comments          'Adding full bibliography for 7156087.cif.'
_cod_database_code               7156087
_shelx_shelxl_version_number     2014/7
_shelx_space_group_comment
;
The symmetry employed for this shelxl refinement is uniquely defined
by the following loop, which should always be used as a source of
symmetry information in preference to the above space-group names.
They are only intended as comments.
;
_shelx_estimated_absorpt_t_min   0.939
_shelx_estimated_absorpt_t_max   0.949
_shelx_res_file
;

    1_a.res created by SHELXL-2014/7

TITL 1_a.res in P-1
CELL  0.71073   7.6576  10.1949  10.3237  115.042   92.445  108.132
ZERR    2.000   0.0013   0.0014   0.0015    0.004    0.005    0.004
LATT 1
SFAC C  H  N  O  F  Cl
UNIT 32 20 4 2 2 2
L.S. 20
ACTA
BOND $H
size 0.22 0.2 0.18
conf
FMAP 2
PLAN 20
LIST 6
TEMP 23.000
WGHT    0.070300    0.044200
FVAR       0.72835
C1    1    0.139436    0.377865    0.310031    11.00000    0.05483    0.05087 =
         0.06815    0.03771    0.01140    0.01659
AFIX  43
H1    2    0.130499    0.434467    0.260863    11.00000   -1.20000
AFIX   0
C2    1   -0.010279    0.325855    0.368321    11.00000    0.04848    0.06514 =
         0.07225    0.03740    0.00963    0.01554
AFIX  43
H2    2   -0.118688    0.346683    0.358618    11.00000   -1.20000
AFIX   0
C3    1    0.004793    0.242371    0.441196    11.00000    0.05456    0.05806 =
         0.05140    0.02835    0.00682    0.00616
C4    1    0.163592    0.208689    0.453565    11.00000    0.07503    0.05741 =
         0.05994    0.03797    0.00928    0.01736
AFIX  43
H4    2    0.171254    0.150992    0.501836    11.00000   -1.20000
AFIX   0
C5    1    0.310464    0.260727    0.394274    11.00000    0.06128    0.05009 =
         0.06543    0.03292    0.00939    0.02121
AFIX  43
H5    2    0.417109    0.237094    0.402131    11.00000   -1.20000
AFIX   0
C6    1    0.302523    0.348325    0.322538    11.00000    0.05219    0.03629 =
         0.05323    0.02230    0.00776    0.01434
C7    1    0.469514    0.403499    0.264242    11.00000    0.04888    0.04155 =
         0.05993    0.02534    0.00709    0.01750
C8    1    0.622214    0.600083    0.182153    11.00000    0.04086    0.03928 =
         0.05059    0.02192    0.00779    0.01194
C9    1    0.777670    0.565485    0.146583    11.00000    0.04772    0.05014 =
         0.06578    0.02759    0.01336    0.02158
AFIX  43
H9    2    0.793302    0.480943    0.152013    11.00000   -1.20000
AFIX   0
C10   1    0.914573    0.657274    0.101675    11.00000    0.04830    0.06281 =
         0.06974    0.02859    0.02028    0.02340
AFIX  43
H10   2    1.021317    0.634551    0.078997    11.00000   -1.20000
AFIX   0
C11   1    0.889733    0.777911    0.091858    11.00000    0.04923    0.05804 =
         0.05607    0.03002    0.01894    0.01283
C12   1    0.733455    0.819756    0.125770    11.00000    0.04949    0.04400 =
         0.04065    0.01977    0.00889    0.01026
C13   1    0.597606    0.729444    0.173382    11.00000    0.04185    0.03920 =
         0.04106    0.01791    0.00633    0.01067
C14   1    0.423018    0.882743    0.206616    11.00000    0.05526    0.05093 =
         0.06961    0.03307    0.01264    0.02465
AFIX  43
H14   2    0.319066    0.906963    0.235734    11.00000   -1.20000
AFIX   0
C15   1    0.547466    0.976502    0.158120    11.00000    0.07099    0.05315 =
         0.06880    0.03755    0.01124    0.02558
AFIX  43
H15   2    0.524771    1.059149    0.153741    11.00000   -1.20000
AFIX   0
C16   1    0.702891    0.945014    0.117248    11.00000    0.06498    0.05051 =
         0.05594    0.03317    0.01183    0.01358
AFIX  43
H16   2    0.787342    1.005646    0.084229    11.00000   -1.20000
AFIX   0
CL1   6   -0.178824    0.182290    0.520721    11.00000    0.07458    0.11328 =
         0.07992    0.06081    0.02317    0.00989
F1    5    1.022742    0.866543    0.048593    11.00000    0.06718    0.09371 =
         0.10114    0.06357    0.04077    0.02078
N1    3    0.479053    0.520606    0.231774    11.00000    0.04157    0.04614 =
         0.06986    0.03500    0.01399    0.02019
AFIX  43
H1A   2    0.384775    0.550283    0.243060    11.00000   -1.20000
AFIX   0
N2    3    0.443508    0.762121    0.213747    11.00000    0.04597    0.04645 =
         0.06448    0.03059    0.01508    0.02047
O1    4    0.590402    0.346104    0.247889    11.00000    0.06280    0.06815 =
         0.11535    0.06099    0.03154    0.03814
HKLF 4

REM  1_a.res in P-1
REM R1 =  0.0461 for    1695 Fo > 4sig(Fo)  and  0.0645 for all    2337 data
REM    190 parameters refined using      0 restraints

END

WGHT      0.0701      0.0440

REM Highest difference peak  0.175,  deepest hole -0.264,  1-sigma level  0.062
Q1    1   0.0761  0.0992  0.2259  11.00000  0.05    0.17
Q2    1   1.1461  1.0140  0.2392  11.00000  0.05    0.17
Q3    1   0.2183  0.1669  0.6648  11.00000  0.05    0.17
Q4    1   0.6987  0.8716 -0.1127  11.00000  0.05    0.16
Q5    1   0.1415  0.3767  0.1864  11.00000  0.05    0.16
Q6    1   0.7491  0.9147  0.3400  11.00000  0.05    0.15
Q7    1   0.4567  0.2213  0.0791  11.00000  0.05    0.15
Q8    1   0.5616  0.3148  0.0338  11.00000  0.05    0.15
Q9    1   0.2175  0.2299  0.5966  11.00000  0.05    0.15
Q10   1   0.1684  0.1761  0.1644  11.00000  0.05    0.15
Q11   1   0.2444  0.1170  0.2266  11.00000  0.05    0.15
Q12   1   0.6127  0.3047  0.5041  11.00000  0.05    0.15
Q13   1   0.3632  0.2493  0.6247  11.00000  0.05    0.15
Q14   1   0.6506  0.8596  0.3420  11.00000  0.05    0.15
Q15   1   0.5221  0.2963  0.4574  11.00000  0.05    0.15
Q16   1   0.3418  0.3173  0.5866  11.00000  0.05    0.14
Q17   1   0.5844  0.7239 -0.0196  11.00000  0.05    0.14
Q18   1   1.0314  0.8033  0.2904  11.00000  0.05    0.14
Q19   1   0.6746  0.4954  0.4058  11.00000  0.05    0.14
Q20   1   0.3800  0.1767  0.6038  11.00000  0.05    0.14
;
_shelx_res_checksum              67385
loop_
_space_group_symop_operation_xyz
'x, y, z'
'-x, -y, -z'
loop_
_atom_site_label
_atom_site_type_symbol
_atom_site_fract_x
_atom_site_fract_y
_atom_site_fract_z
_atom_site_U_iso_or_equiv
_atom_site_adp_type
_atom_site_occupancy
_atom_site_site_symmetry_order
_atom_site_calc_flag
_atom_site_refinement_flags_posn
_atom_site_refinement_flags_adp
C1 C 0.1394(4) 0.3779(3) 0.3100(3) 0.0548(6) Uani 1 1 d . .
H1 H 0.1305 0.4345 0.2609 0.066 Uiso 1 1 calc R U
C2 C -0.0103(4) 0.3259(3) 0.3683(3) 0.0612(7) Uani 1 1 d . .
H2 H -0.1187 0.3467 0.3586 0.073 Uiso 1 1 calc R U
C3 C 0.0048(4) 0.2424(3) 0.4412(3) 0.0574(7) Uani 1 1 d . .
C4 C 0.1636(4) 0.2087(3) 0.4536(3) 0.0619(7) Uani 1 1 d . .
H4 H 0.1713 0.1510 0.5018 0.074 Uiso 1 1 calc R U
C5 C 0.3105(4) 0.2607(3) 0.3943(3) 0.0564(6) Uani 1 1 d . .
H5 H 0.4171 0.2371 0.4021 0.068 Uiso 1 1 calc R U
C6 C 0.3025(3) 0.3483(2) 0.3225(2) 0.0472(6) Uani 1 1 d . .
C7 C 0.4695(3) 0.4035(2) 0.2642(2) 0.0492(6) Uani 1 1 d . .
C8 C 0.6222(3) 0.6001(2) 0.1822(2) 0.0438(5) Uani 1 1 d . .
C9 C 0.7777(3) 0.5655(3) 0.1466(3) 0.0531(6) Uani 1 1 d . .
H9 H 0.7933 0.4809 0.1520 0.064 Uiso 1 1 calc R U
C10 C 0.9146(4) 0.6573(3) 0.1017(3) 0.0599(6) Uani 1 1 d . .
H10 H 1.0213 0.6346 0.0790 0.072 Uiso 1 1 calc R U
C11 C 0.8897(4) 0.7779(3) 0.0919(3) 0.0545(6) Uani 1 1 d . .
C12 C 0.7335(3) 0.8198(2) 0.1258(2) 0.0464(6) Uani 1 1 d . .
C13 C 0.5976(3) 0.7294(2) 0.1734(2) 0.0421(5) Uani 1 1 d . .
C14 C 0.4230(4) 0.8827(3) 0.2066(3) 0.0552(6) Uani 1 1 d . .
H14 H 0.3191 0.9070 0.2357 0.066 Uiso 1 1 calc R U
C15 C 0.5475(4) 0.9765(3) 0.1581(3) 0.0600(7) Uani 1 1 d . .
H15 H 0.5248 1.0591 0.1537 0.072 Uiso 1 1 calc R U
C16 C 0.7029(4) 0.9450(3) 0.1172(2) 0.0558(7) Uani 1 1 d . .
H16 H 0.7873 1.0056 0.0842 0.067 Uiso 1 1 calc R U
Cl1 Cl -0.17882(12) 0.18229(10) 0.52072(8) 0.0892(3) Uani 1 1 d . .
F1 F 1.0227(2) 0.86654(18) 0.04859(18) 0.0817(5) Uani 1 1 d . .
N1 N 0.4791(3) 0.52061(19) 0.2318(2) 0.0482(5) Uani 1 1 d . .
H1A H 0.3848 0.5503 0.2431 0.058 Uiso 1 1 calc R U
N2 N 0.4435(3) 0.7621(2) 0.2137(2) 0.0493(5) Uani 1 1 d . .
O1 O 0.5904(3) 0.34610(19) 0.2479(2) 0.0708(6) Uani 1 1 d . .
loop_
_atom_site_aniso_label
_atom_site_aniso_U_11
_atom_site_aniso_U_22
_atom_site_aniso_U_33
_atom_site_aniso_U_23
_atom_site_aniso_U_13
_atom_site_aniso_U_12
C1 0.0548(16) 0.0509(13) 0.0682(15) 0.0377(12) 0.0114(12) 0.0166(12)
C2 0.0485(16) 0.0651(15) 0.0723(17) 0.0374(14) 0.0096(13) 0.0155(13)
C3 0.0546(17) 0.0581(14) 0.0514(14) 0.0284(12) 0.0068(12) 0.0062(12)
C4 0.075(2) 0.0574(15) 0.0599(15) 0.0380(13) 0.0093(14) 0.0174(13)
C5 0.0613(17) 0.0501(13) 0.0654(15) 0.0329(12) 0.0094(13) 0.0212(12)
C6 0.0522(15) 0.0363(11) 0.0532(13) 0.0223(10) 0.0078(11) 0.0143(10)
C7 0.0489(15) 0.0416(12) 0.0599(14) 0.0253(11) 0.0071(11) 0.0175(11)
C8 0.0409(14) 0.0393(11) 0.0506(13) 0.0219(10) 0.0078(10) 0.0119(10)
C9 0.0477(15) 0.0501(13) 0.0658(15) 0.0276(12) 0.0134(12) 0.0216(11)
C10 0.0483(16) 0.0628(15) 0.0697(16) 0.0286(13) 0.0203(13) 0.0234(12)
C11 0.0492(16) 0.0580(14) 0.0561(14) 0.0300(12) 0.0189(12) 0.0128(12)
C12 0.0495(15) 0.0440(12) 0.0407(12) 0.0198(10) 0.0089(10) 0.0103(11)
C13 0.0419(14) 0.0392(11) 0.0411(12) 0.0179(9) 0.0063(10) 0.0107(10)
C14 0.0553(16) 0.0509(13) 0.0696(16) 0.0331(12) 0.0126(12) 0.0246(12)
C15 0.0710(19) 0.0531(14) 0.0688(16) 0.0375(13) 0.0112(14) 0.0256(13)
C16 0.0650(18) 0.0505(14) 0.0559(14) 0.0332(12) 0.0118(13) 0.0136(12)
Cl1 0.0746(6) 0.1133(7) 0.0799(5) 0.0608(5) 0.0232(4) 0.0099(5)
F1 0.0672(11) 0.0937(11) 0.1011(12) 0.0636(10) 0.0408(9) 0.0208(9)
N1 0.0416(12) 0.0461(10) 0.0699(12) 0.0350(9) 0.0140(9) 0.0202(9)
N2 0.0460(12) 0.0464(10) 0.0645(12) 0.0306(9) 0.0151(10) 0.0205(9)
O1 0.0628(13) 0.0682(12) 0.1154(15) 0.0610(11) 0.0315(11) 0.0381(10)
loop_
_atom_type_symbol
_atom_type_description
_atom_type_scat_dispersion_real
_atom_type_scat_dispersion_imag
_atom_type_scat_source
C C 0.0033 0.0016 'International Tables Vol C Tables 4.2.6.8 and 6.1.1.4'
H H 0.0000 0.0000 'International Tables Vol C Tables 4.2.6.8 and 6.1.1.4'
N N 0.0061 0.0033 'International Tables Vol C Tables 4.2.6.8 and 6.1.1.4'
O O 0.0106 0.0060 'International Tables Vol C Tables 4.2.6.8 and 6.1.1.4'
F F 0.0171 0.0103 'International Tables Vol C Tables 4.2.6.8 and 6.1.1.4'
Cl Cl 0.1484 0.1585 'International Tables Vol C Tables 4.2.6.8 and 6.1.1.4'
loop_
_geom_angle_atom_site_label_1
_geom_angle_atom_site_label_2
_geom_angle_atom_site_label_3
_geom_angle
C2 C1 C6 122.0(2)
C2 C1 H1 119.0
C6 C1 H1 119.0
C3 C2 C1 118.4(2)
C3 C2 H2 120.8
C1 C2 H2 120.8
C4 C3 C2 121.0(2)
C4 C3 Cl1 120.00(19)
C2 C3 Cl1 118.9(2)
C5 C4 C3 119.6(2)
C5 C4 H4 120.2
C3 C4 H4 120.2
C4 C5 C6 121.1(2)
C4 C5 H5 119.4
C6 C5 H5 119.4
C1 C6 C5 117.7(2)
C1 C6 C7 124.49(19)
C5 C6 C7 117.8(2)
O1 C7 N1 122.5(2)
O1 C7 C6 121.49(19)
N1 C7 C6 116.0(2)
C9 C8 N1 125.79(19)
C9 C8 C13 119.9(2)
N1 C8 C13 114.28(19)
C8 C9 C10 120.3(2)
C8 C9 H9 119.8
C10 C9 H9 119.8
C11 C10 C9 119.5(2)
C11 C10 H10 120.2
C9 C10 H10 120.2
C10 C11 F1 119.3(2)
C10 C11 C12 123.3(2)
F1 C11 C12 117.4(2)
C11 C12 C16 124.9(2)
C11 C12 C13 117.25(19)
C16 C12 C13 117.8(2)
N2 C13 C12 122.45(19)
N2 C13 C8 117.88(18)
C12 C13 C8 119.7(2)
N2 C14 C15 124.2(2)
N2 C14 H14 117.9
C15 C14 H14 117.9
C16 C15 C14 119.0(2)
C16 C15 H15 120.5
C14 C15 H15 120.5
C15 C16 C12 119.1(2)
C15 C16 H16 120.5
C12 C16 H16 120.5
C7 N1 C8 128.64(19)
C7 N1 H1A 115.7
C8 N1 H1A 115.7
C14 N2 C13 117.41(19)
loop_
_geom_bond_atom_site_label_1
_geom_bond_atom_site_label_2
_geom_bond_distance
C1 C2 1.381(3)
C1 C6 1.386(3)
C1 H1 0.9300
C2 C3 1.378(3)
C2 H2 0.9300
C3 C4 1.377(4)
C3 Cl1 1.736(3)
C4 C5 1.372(4)
C4 H4 0.9300
C5 C6 1.393(3)
C5 H5 0.9300
C6 C7 1.489(3)
C7 O1 1.223(3)
C7 N1 1.353(3)
C8 C9 1.366(3)
C8 N1 1.403(3)
C8 C13 1.427(3)
C9 C10 1.410(3)
C9 H9 0.9300
C10 C11 1.345(3)
C10 H10 0.9300
C11 F1 1.364(3)
C11 C12 1.401(3)
C12 C16 1.404(3)
C12 C13 1.415(3)
C13 N2 1.359(3)
C14 N2 1.318(3)
C14 C15 1.397(3)
C14 H14 0.9300
C15 C16 1.365(4)
C15 H15 0.9300
C16 H16 0.9300
N1 H1A 0.8600
loop_
_geom_torsion_atom_site_label_1
_geom_torsion_atom_site_label_2
_geom_torsion_atom_site_label_3
_geom_torsion_atom_site_label_4
_geom_torsion
C6 C1 C2 C3 0.1(4)
C1 C2 C3 C4 -1.2(4)
C1 C2 C3 Cl1 177.70(18)
C2 C3 C4 C5 0.9(4)
Cl1 C3 C4 C5 -177.99(18)
C3 C4 C5 C6 0.5(4)
C2 C1 C6 C5 1.2(3)
C2 C1 C6 C7 -178.9(2)
C4 C5 C6 C1 -1.5(3)
C4 C5 C6 C7 178.6(2)
C1 C6 C7 O1 -162.9(2)
C5 C6 C7 O1 17.0(3)
C1 C6 C7 N1 17.5(3)
C5 C6 C7 N1 -162.6(2)
N1 C8 C9 C10 -178.2(2)
C13 C8 C9 C10 0.2(3)
C8 C9 C10 C11 -1.0(4)
C9 C10 C11 F1 179.9(2)
C9 C10 C11 C12 0.7(4)
C10 C11 C12 C16 179.8(2)
F1 C11 C12 C16 0.6(3)
C10 C11 C12 C13 0.4(3)
F1 C11 C12 C13 -178.78(19)
C11 C12 C13 N2 177.8(2)
C16 C12 C13 N2 -1.6(3)
C11 C12 C13 C8 -1.2(3)
C16 C12 C13 C8 179.34(19)
C9 C8 C13 N2 -178.18(19)
N1 C8 C13 N2 0.5(3)
C9 C8 C13 C12 0.9(3)
N1 C8 C13 C12 179.55(18)
N2 C14 C15 C16 -1.2(4)
C14 C15 C16 C12 -0.3(4)
C11 C12 C16 C15 -177.8(2)
C13 C12 C16 C15 1.5(3)
O1 C7 N1 C8 -2.8(4)
C6 C7 N1 C8 176.79(19)
C9 C8 N1 C7 5.0(4)
C13 C8 N1 C7 -173.5(2)
C15 C14 N2 C13 1.1(3)
C12 C13 N2 C14 0.3(3)
C8 C13 N2 C14 179.35(19)
