#------------------------------------------------------------------------------
#$Date: 2019-11-08 03:28:09 +0200 (Fri, 08 Nov 2019) $
#$Revision: 225071 $
#$URL: file:///home/coder/svn-repositories/cod/cif/7/15/71/7157121.cif $
#------------------------------------------------------------------------------
#
# This file is available in the Crystallography Open Database (COD),
# http://www.crystallography.net/
#
# All data on this site have been placed in the public domain by the
# contributors.
#
data_7157121
loop_
_publ_author_name
'Ansari, Monish Arbaz'
'Yadav, Dhananjay'
'Soni, Sonam'
'Singh, Maya Shankar'
_publ_section_title
;
 Phosphonium ylide catalysis: a divergent diastereoselective approach to
 synthesize cyclic ketene acetals [thia(zolidines/zinanes)] from
 \b-ketothioamides and dihaloalkanes.
;
_journal_issue                   41
_journal_name_full               'Organic &amp; biomolecular chemistry'
_journal_page_first              9151
_journal_page_last               9162
_journal_paper_doi               10.1039/c9ob01948k
_journal_volume                  17
_journal_year                    2019
_chemical_formula_moiety         'C18 H15 N O3 S'
_chemical_formula_sum            'C18 H15 N O3 S'
_chemical_formula_weight         325.37
_space_group_crystal_system      triclinic
_space_group_IT_number           2
_space_group_name_Hall           '-P 1'
_space_group_name_H-M_alt        'P -1'
_symmetry_space_group_name_Hall  '-P 1'
_symmetry_space_group_name_H-M   'P -1'
_atom_sites_solution_hydrogens   geom
_audit_creation_method           SHELXL-2014/7
_audit_update_record
;
2019-05-08 deposited with the CCDC.    2019-09-30 downloaded from the CCDC.
;
_cell_angle_alpha                86.670(2)
_cell_angle_beta                 77.284(2)
_cell_angle_gamma                65.193(2)
_cell_formula_units_Z            2
_cell_length_a                   8.5498(6)
_cell_length_b                   9.8965(8)
_cell_length_c                   10.4980(8)
_cell_measurement_reflns_used    9992
_cell_measurement_temperature    298(2)
_cell_measurement_theta_max      27.69
_cell_measurement_theta_min      2.69
_cell_volume                     785.94(10)
_computing_cell_refinement       'Bruker SAINT'
_computing_data_collection       'Bruker APEX2'
_computing_data_reduction        'Bruker SAINT'
_computing_molecular_graphics    'Bruker SHELXTL'
_computing_publication_material  'Bruker SHELXTL'
_computing_structure_refinement  'SHELXL-2014 (Sheldrick 2014)'
_computing_structure_solution    'SHELXS-97 (Sheldrick 2008)'
_diffrn_ambient_temperature      298(2)
_diffrn_measured_fraction_theta_full 0.993
_diffrn_measured_fraction_theta_max 0.851
_diffrn_measurement_device_type  'Bruker APEX-II CCD'
_diffrn_measurement_method       '\f and \w scans'
_diffrn_radiation_type           MoK\a
_diffrn_radiation_wavelength     0.71073
_diffrn_reflns_av_R_equivalents  0.0211
_diffrn_reflns_av_unetI/netI     0.0173
_diffrn_reflns_Laue_measured_fraction_full 0.993
_diffrn_reflns_Laue_measured_fraction_max 0.851
_diffrn_reflns_limit_h_max       10
_diffrn_reflns_limit_h_min       -11
_diffrn_reflns_limit_k_max       12
_diffrn_reflns_limit_k_min       -12
_diffrn_reflns_limit_l_max       13
_diffrn_reflns_limit_l_min       -13
_diffrn_reflns_number            19125
_diffrn_reflns_point_group_measured_fraction_full 0.993
_diffrn_reflns_point_group_measured_fraction_max 0.851
_diffrn_reflns_theta_full        25.242
_diffrn_reflns_theta_max         28.197
_diffrn_reflns_theta_min         2.688
_exptl_absorpt_coefficient_mu    0.220
_exptl_absorpt_correction_T_max  0.936
_exptl_absorpt_correction_T_min  0.936
_exptl_absorpt_correction_type   multi-scan
_exptl_crystal_density_diffrn    1.375
_exptl_crystal_description       block
_exptl_crystal_F_000             340
_exptl_crystal_size_max          0.300
_exptl_crystal_size_mid          0.300
_exptl_crystal_size_min          0.300
_refine_diff_density_max         0.202
_refine_diff_density_min         -0.171
_refine_diff_density_rms         0.038
_refine_ls_extinction_coef       0.026(4)
_refine_ls_extinction_expression Fc^*^=kFc[1+0.001xFc^2^\l^3^/sin(2\q)]^-1/4^
_refine_ls_extinction_method     'SHELXL-2014/7 (Sheldrick 2014'
_refine_ls_goodness_of_fit_ref   1.052
_refine_ls_hydrogen_treatment    constr
_refine_ls_matrix_type           full
_refine_ls_number_parameters     209
_refine_ls_number_reflns         3289
_refine_ls_number_restraints     0
_refine_ls_restrained_S_all      1.052
_refine_ls_R_factor_all          0.0549
_refine_ls_R_factor_gt           0.0418
_refine_ls_shift/su_max          0.000
_refine_ls_shift/su_mean         0.000
_refine_ls_structure_factor_coef Fsqd
_refine_ls_weighting_details
'w=1/[\s^2^(Fo^2^)+(0.0508P)^2^+0.2203P] where P=(Fo^2^+2Fc^2^)/3'
_refine_ls_weighting_scheme      calc
_refine_ls_wR_factor_gt          0.1048
_refine_ls_wR_factor_ref         0.1136
_reflns_Friedel_coverage         0.000
_reflns_number_gt                2638
_reflns_number_total             3289
_reflns_threshold_expression     'I > 2\s(I)'
_cod_data_source_file            c9ob01948k2.cif
_cod_data_source_block           BB_a
_cod_depositor_comments
;
The following automatic conversions were performed:

'_exptl_absorpt_correction_type' value 'MULTI-SCAN' changed to
'multi-scan' according to
/home/data/users/saulius/crontab/automatic-downloads/rss-feeds/RSC/lib/dictionaries/cif_core.dic
dictionary named 'cif_core.dic' version 2.4.2 from 2011-04-26.

Automatic conversion script
Id: cif_fix_values 4973 2017-02-22 13:04:09Z antanas 

 Adding full bibliography for 7157121--7157122.cif.
;
_cod_database_code               7157121
_shelx_shelxl_version_number     2014/7
_shelx_space_group_comment
;
The symmetry employed for this shelxl refinement is uniquely defined
by the following loop, which should always be used as a source of
symmetry information in preference to the above space-group names.
They are only intended as comments.
;
_shelx_estimated_absorpt_t_min   0.937
_shelx_estimated_absorpt_t_max   0.937
_shelx_res_file
;

    BB_a.res created by SHELXL-2014/7

TITL BB_a.res in P-1
CELL  0.71073   8.5498   9.8965  10.4980   86.670   77.284   65.193
ZERR    2.000   0.0006   0.0008   0.0008    0.002    0.002    0.002
LATT 1
SFAC C  H  N  O  S
UNIT 36  30  2  6  2
L.S. 10
ACTA
BOND $H
FMAP 2
PLAN 20
HTAB C13 O2_$2
HTAB C7 O1_$1
SIZE 0.3 0.3 0.3
HTAB
CONF
EQIV $1 -x+1, -y+1, -z
HTAB C7 O1_$1
EQIV $2 -x+1, -y, -z+1
HTAB C13 O2_$2
TEMP 0
WGHT    0.050800    0.220300
EXTI    0.026461
FVAR       0.73925
C1    1    0.240619    0.939972    0.064653    11.00000    0.05215    0.04619 =
         0.06866    0.01612   -0.01833   -0.02168
AFIX  43
H1    2    0.264534    0.905927   -0.021250    11.00000   -1.20000
AFIX   0
C2    1    0.091049    1.067101    0.111740    11.00000    0.05341    0.04448 =
         0.10517    0.01715   -0.02833   -0.01772
AFIX  43
H2    2    0.015478    1.119009    0.056816    11.00000   -1.20000
AFIX   0
C3    1    0.053164    1.117111    0.237427    11.00000    0.05285    0.03931 =
         0.12527   -0.00627   -0.01595   -0.01308
AFIX  43
H3    2   -0.049370    1.201398    0.269036    11.00000   -1.20000
AFIX   0
C4    1    0.166826    1.042734    0.317535    11.00000    0.07731    0.06528 =
         0.08785   -0.02398   -0.00715   -0.02545
AFIX  43
H4    2    0.141758    1.077655    0.403291    11.00000   -1.20000
AFIX   0
C5    1    0.319221    0.915546    0.271532    11.00000    0.05985    0.06107 =
         0.06939   -0.00045   -0.02079   -0.01714
AFIX  43
H5    2    0.396576    0.866145    0.325918    11.00000   -1.20000
AFIX   0
C6    1    0.354886    0.863247    0.145218    11.00000    0.04037    0.03847 =
         0.06043    0.00927   -0.01050   -0.01703
C7    1    0.608106    0.730992   -0.038058    11.00000    0.06468    0.05838 =
         0.06026    0.01218    0.00464   -0.02484
AFIX  23
H6    2    0.627178    0.821085   -0.053180    11.00000   -1.20000
H7    2    0.543087    0.723858   -0.100405    11.00000   -1.20000
AFIX   0
C8    1    0.779945    0.598077   -0.052737    11.00000    0.05393    0.06592 =
         0.08787    0.01500    0.01580   -0.01994
AFIX  23
H9    2    0.867475    0.623784   -0.028468    11.00000   -1.20000
H8    2    0.822491    0.559419   -0.142501    11.00000   -1.20000
AFIX   0
C9    1    0.546568    0.596820    0.147285    11.00000    0.03640    0.04275 =
         0.05365    0.00867   -0.00765   -0.01122
C10   1    0.445565    0.566886    0.254809    11.00000    0.03883    0.04493 =
         0.05442    0.01034   -0.00176   -0.00746
AFIX  43
H10   2    0.342485    0.644454    0.297448    11.00000   -1.20000
AFIX   0
C11   1    0.491737    0.421312    0.304488    11.00000    0.03977    0.04648 =
         0.04989    0.00853   -0.00781   -0.01356
C12   1    0.372407    0.399161    0.423807    11.00000    0.04485    0.04465 =
         0.04590    0.00673   -0.00952   -0.01963
C13   1    0.394250    0.253935    0.452546    11.00000    0.05792    0.04144 =
         0.05720    0.00810   -0.00095   -0.01077
AFIX  43
H11   2    0.478537    0.173353    0.398776    11.00000   -1.20000
AFIX   0
C14   1    0.287899    0.234266    0.562036    11.00000    0.06468    0.04594 =
         0.05535    0.01386   -0.01163   -0.02669
C15   1    0.157398    0.143873    0.729077    11.00000    0.13636    0.07992 =
         0.08244    0.01679    0.02125   -0.05640
AFIX  23
H13   2    0.068760    0.107019    0.728668    11.00000   -1.20000
H12   2    0.214717    0.099791    0.800720    11.00000   -1.20000
AFIX   0
C16   1    0.165159    0.349123    0.643310    11.00000    0.07684    0.06372 =
         0.05132    0.00063    0.00713   -0.04204
C17   1    0.141314    0.491911    0.618369    11.00000    0.12477    0.05764 =
         0.07794   -0.01912    0.04576   -0.04538
AFIX  43
H14   2    0.057228    0.571031    0.673793    11.00000   -1.20000
AFIX   0
C18   1    0.247617    0.514639    0.506833    11.00000    0.09340    0.04693 =
         0.06627   -0.00579    0.01752   -0.03746
AFIX  43
H15   2    0.234024    0.611338    0.487528    11.00000   -1.20000
AFIX   0
N1    3    0.510374    0.733955    0.094965    11.00000    0.04244    0.04412 =
         0.05439    0.01168   -0.00339   -0.01244
O1    4    0.624919    0.311508    0.250736    11.00000    0.04855    0.04846 =
         0.07027    0.01173    0.00432   -0.00652
O2    4    0.282957    0.102691    0.609975    11.00000    0.11465    0.05143 =
         0.08308    0.01836    0.01167   -0.03454
O3    4    0.077738    0.297422    0.746626    11.00000    0.11930    0.07716 =
         0.07416    0.00196    0.02813   -0.05774
S1    5    0.739347    0.460916    0.055307    11.00000    0.04220    0.04741 =
         0.07253    0.00754    0.00731   -0.00964
HKLF 4

REM  BB_a.res in P-1
REM R1 =  0.0418 for    2638 Fo > 4sig(Fo)  and  0.0549 for all    3289 data
REM    209 parameters refined using      0 restraints

END

WGHT      0.0525      0.2142

REM Instructions for potential hydrogen bonds
HTAB C7 O1_$1
HTAB C13 O2_$2

REM Highest difference peak  0.202,  deepest hole -0.171,  1-sigma level  0.038
Q1    1   0.1322  0.0741  0.7819  11.00000  0.05    0.20
Q2    1   0.8845  0.5766 -0.1070  11.00000  0.05    0.18
Q3    1   0.4119  0.4069  0.3685  11.00000  0.05    0.18
Q4    1   0.2108  0.4189  0.6444  11.00000  0.05    0.18
Q5    1   0.4518  0.4958  0.2687  11.00000  0.05    0.17
Q6    1   0.3461  0.4432  0.4894  11.00000  0.05    0.17
Q7    1   0.2043  0.4987  0.4636  11.00000  0.05    0.16
Q8    1   0.3551  0.3401  0.4170  11.00000  0.05    0.16
Q9    1   0.2627  0.2977  0.6215  11.00000  0.05    0.16
Q10   1   0.5187  0.6747  0.1134  11.00000  0.05    0.15
Q11   1   0.4236  0.8002  0.1218  11.00000  0.05    0.15
Q12   1   0.4803  0.5612  0.1723  11.00000  0.05    0.15
Q13   1   0.4073  0.3426  0.4486  11.00000  0.05    0.15
Q14   1   0.1599  0.6391  0.4603  11.00000  0.05    0.15
Q15   1   0.6210  0.5472  0.1000  11.00000  0.05    0.15
Q16   1  -0.0241  0.5928  0.6418  11.00000  0.05    0.15
Q17   1   0.6030  0.8027 -0.0952  11.00000  0.05    0.14
Q18   1   0.6766  0.7488  0.0175  11.00000  0.05    0.14
Q19   1   0.1889  0.2963  0.5787  11.00000  0.05    0.14
Q20   1   0.3175  0.1344  0.6705  11.00000  0.05    0.13
;
_shelx_res_checksum              92537
loop_
_space_group_symop_operation_xyz
'x, y, z'
'-x, -y, -z'
loop_
_atom_site_label
_atom_site_type_symbol
_atom_site_fract_x
_atom_site_fract_y
_atom_site_fract_z
_atom_site_U_iso_or_equiv
_atom_site_adp_type
_atom_site_occupancy
_atom_site_site_symmetry_order
_atom_site_calc_flag
_atom_site_refinement_flags_posn
_atom_site_refinement_flags_adp
C1 C 0.2406(2) 0.93997(18) 0.06465(19) 0.0550(4) Uani 1 1 d . .
H1 H 0.2645 0.9059 -0.0213 0.066 Uiso 1 1 calc R U
C2 C 0.0910(3) 1.0671(2) 0.1117(2) 0.0674(5) Uani 1 1 d . .
H2 H 0.0155 1.1190 0.0568 0.081 Uiso 1 1 calc R U
C3 C 0.0532(3) 1.1171(2) 0.2374(3) 0.0748(6) Uani 1 1 d . .
H3 H -0.0494 1.2014 0.2690 0.090 Uiso 1 1 calc R U
C4 C 0.1668(3) 1.0427(2) 0.3175(2) 0.0790(6) Uani 1 1 d . .
H4 H 0.1418 1.0777 0.4033 0.095 Uiso 1 1 calc R U
C5 C 0.3192(3) 0.9155(2) 0.2715(2) 0.0650(5) Uani 1 1 d . .
H5 H 0.3966 0.8661 0.3259 0.078 Uiso 1 1 calc R U
C6 C 0.3549(2) 0.86325(17) 0.14522(17) 0.0466(4) Uani 1 1 d . .
C7 C 0.6081(3) 0.7310(2) -0.03806(19) 0.0649(5) Uani 1 1 d . .
H6 H 0.6272 0.8211 -0.0532 0.078 Uiso 1 1 calc R U
H7 H 0.5431 0.7239 -0.1004 0.078 Uiso 1 1 calc R U
C8 C 0.7799(3) 0.5981(2) -0.0527(2) 0.0768(6) Uani 1 1 d . .
H9 H 0.8675 0.6238 -0.0285 0.092 Uiso 1 1 calc R U
H8 H 0.8225 0.5594 -0.1425 0.092 Uiso 1 1 calc R U
C9 C 0.5466(2) 0.59682(17) 0.14729(16) 0.0468(4) Uani 1 1 d . .
C10 C 0.4456(2) 0.56689(18) 0.25481(17) 0.0513(4) Uani 1 1 d . .
H10 H 0.3425 0.6445 0.2974 0.062 Uiso 1 1 calc R U
C11 C 0.4917(2) 0.42131(18) 0.30449(16) 0.0475(4) Uani 1 1 d . .
C12 C 0.3724(2) 0.39916(17) 0.42381(15) 0.0451(4) Uani 1 1 d . .
C13 C 0.3942(2) 0.25393(19) 0.45255(18) 0.0579(5) Uani 1 1 d . .
H11 H 0.4785 0.1734 0.3988 0.069 Uiso 1 1 calc R U
C14 C 0.2879(2) 0.23427(19) 0.56204(17) 0.0548(4) Uani 1 1 d . .
C15 C 0.1574(4) 0.1439(3) 0.7291(3) 0.1039(9) Uani 1 1 d . .
H13 H 0.0688 0.1070 0.7287 0.125 Uiso 1 1 calc R U
H12 H 0.2147 0.0998 0.8007 0.125 Uiso 1 1 calc R U
C16 C 0.1652(3) 0.3491(2) 0.64331(18) 0.0630(5) Uani 1 1 d . .
C17 C 0.1413(4) 0.4919(2) 0.6184(2) 0.0948(9) Uani 1 1 d . .
H14 H 0.0572 0.5710 0.6738 0.114 Uiso 1 1 calc R U
C18 C 0.2476(3) 0.5146(2) 0.50683(19) 0.0716(6) Uani 1 1 d . .
H15 H 0.2340 0.6113 0.4875 0.086 Uiso 1 1 calc R U
N1 N 0.51037(17) 0.73395(15) 0.09496(14) 0.0506(3) Uani 1 1 d . .
O1 O 0.62492(16) 0.31151(13) 0.25074(13) 0.0639(4) Uani 1 1 d . .
O2 O 0.2830(2) 0.10269(15) 0.60998(16) 0.0894(5) Uani 1 1 d . .
O3 O 0.0777(2) 0.29742(18) 0.74663(15) 0.0927(5) Uani 1 1 d . .
S1 S 0.73935(6) 0.46092(5) 0.05531(5) 0.06078(18) Uani 1 1 d . .
loop_
_atom_site_aniso_label
_atom_site_aniso_U_11
_atom_site_aniso_U_22
_atom_site_aniso_U_33
_atom_site_aniso_U_23
_atom_site_aniso_U_13
_atom_site_aniso_U_12
C1 0.0521(10) 0.0462(9) 0.0687(11) 0.0161(8) -0.0183(8) -0.0217(8)
C2 0.0534(11) 0.0445(10) 0.1052(17) 0.0171(10) -0.0283(11) -0.0177(8)
C3 0.0528(11) 0.0393(10) 0.125(2) -0.0063(11) -0.0160(12) -0.0131(8)
C4 0.0773(14) 0.0653(13) 0.0879(15) -0.0240(11) -0.0072(12) -0.0255(11)
C5 0.0599(11) 0.0611(11) 0.0694(12) -0.0005(9) -0.0208(9) -0.0171(9)
C6 0.0404(8) 0.0385(8) 0.0604(10) 0.0093(7) -0.0105(7) -0.0170(7)
C7 0.0647(11) 0.0584(11) 0.0603(11) 0.0122(9) 0.0046(9) -0.0248(9)
C8 0.0539(11) 0.0659(12) 0.0879(15) 0.0150(11) 0.0158(10) -0.0199(10)
C9 0.0364(8) 0.0428(8) 0.0536(9) 0.0087(7) -0.0077(7) -0.0112(7)
C10 0.0388(8) 0.0449(9) 0.0544(9) 0.0103(7) -0.0018(7) -0.0075(7)
C11 0.0398(8) 0.0465(9) 0.0499(9) 0.0085(7) -0.0078(7) -0.0136(7)
C12 0.0449(8) 0.0447(8) 0.0459(8) 0.0067(7) -0.0095(7) -0.0196(7)
C13 0.0579(10) 0.0414(9) 0.0572(10) 0.0081(7) -0.0010(8) -0.0108(8)
C14 0.0647(11) 0.0459(9) 0.0554(10) 0.0139(8) -0.0116(8) -0.0267(8)
C15 0.136(2) 0.0799(17) 0.0824(16) 0.0168(13) 0.0212(16) -0.0564(17)
C16 0.0768(13) 0.0637(11) 0.0513(10) 0.0006(8) 0.0071(9) -0.0420(10)
C17 0.125(2) 0.0576(12) 0.0779(14) -0.0191(10) 0.0458(14) -0.0454(13)
C18 0.0934(15) 0.0469(10) 0.0663(12) -0.0058(9) 0.0175(11) -0.0375(10)
N1 0.0424(7) 0.0441(7) 0.0544(8) 0.0117(6) -0.0034(6) -0.0124(6)
O1 0.0486(7) 0.0485(7) 0.0703(8) 0.0117(6) 0.0043(6) -0.0065(6)
O2 0.1147(13) 0.0514(8) 0.0831(10) 0.0184(7) 0.0117(9) -0.0345(8)
O3 0.1193(13) 0.0772(10) 0.0742(10) 0.0020(8) 0.0281(9) -0.0577(10)
S1 0.0422(3) 0.0474(3) 0.0725(3) 0.0075(2) 0.0073(2) -0.00964(19)
loop_
_atom_type_symbol
_atom_type_description
_atom_type_scat_dispersion_real
_atom_type_scat_dispersion_imag
_atom_type_scat_source
C C 0.0033 0.0016 'International Tables Vol C Tables 4.2.6.8 and 6.1.1.4'
H H 0.0000 0.0000 'International Tables Vol C Tables 4.2.6.8 and 6.1.1.4'
N N 0.0061 0.0033 'International Tables Vol C Tables 4.2.6.8 and 6.1.1.4'
O O 0.0106 0.0060 'International Tables Vol C Tables 4.2.6.8 and 6.1.1.4'
S S 0.1246 0.1234 'International Tables Vol C Tables 4.2.6.8 and 6.1.1.4'
loop_
_geom_angle_atom_site_label_1
_geom_angle_atom_site_label_2
_geom_angle_atom_site_label_3
_geom_angle
C2 C1 C6 120.01(19)
C2 C1 H1 120.0
C6 C1 H1 120.0
C3 C2 C1 120.68(19)
C3 C2 H2 119.7
C1 C2 H2 119.7
C2 C3 C4 119.69(19)
C2 C3 H3 120.2
C4 C3 H3 120.2
C3 C4 C5 120.5(2)
C3 C4 H4 119.7
C5 C4 H4 119.7
C6 C5 C4 119.61(19)
C6 C5 H5 120.2
C4 C5 H5 120.2
C5 C6 C1 119.48(16)
C5 C6 N1 120.95(15)
C1 C6 N1 119.55(16)
N1 C7 C8 106.88(15)
N1 C7 H6 110.3
C8 C7 H6 110.3
N1 C7 H7 110.3
C8 C7 H7 110.3
H6 C7 H7 108.6
C7 C8 S1 106.34(12)
C7 C8 H9 110.5
S1 C8 H9 110.5
C7 C8 H8 110.5
S1 C8 H8 110.5
H9 C8 H8 108.7
C10 C9 N1 125.47(15)
C10 C9 S1 123.46(12)
N1 C9 S1 111.05(11)
C9 C10 C11 122.52(15)
C9 C10 H10 118.7
C11 C10 H10 118.7
O1 C11 C10 122.38(15)
O1 C11 C12 118.88(14)
C10 C11 C12 118.72(14)
C18 C12 C13 119.20(15)
C18 C12 C11 122.94(15)
C13 C12 C11 117.83(15)
C14 C13 C12 117.59(16)
C14 C13 H11 121.2
C12 C13 H11 121.2
C16 C14 C13 122.69(16)
C16 C14 O2 108.95(16)
C13 C14 O2 128.36(17)
O3 C15 O2 109.91(17)
O3 C15 H13 109.7
O2 C15 H13 109.7
O3 C15 H12 109.7
O2 C15 H12 109.7
H13 C15 H12 108.2
C14 C16 C17 121.13(17)
C14 C16 O3 110.45(16)
C17 C16 O3 128.43(18)
C16 C17 C18 117.16(18)
C16 C17 H14 121.4
C18 C17 H14 121.4
C12 C18 C17 122.23(17)
C12 C18 H15 118.9
C17 C18 H15 118.9
C9 N1 C6 122.97(13)
C9 N1 C7 114.70(14)
C6 N1 C7 119.47(13)
C14 O2 C15 105.19(16)
C16 O3 C15 105.26(16)
C9 S1 C8 92.02(8)
loop_
_geom_bond_atom_site_label_1
_geom_bond_atom_site_label_2
_geom_bond_distance
C1 C2 1.381(3)
C1 C6 1.383(2)
C1 H1 0.9300
C2 C3 1.358(3)
C2 H2 0.9300
C3 C4 1.372(3)
C3 H3 0.9300
C4 C5 1.390(3)
C4 H4 0.9300
C5 C6 1.374(3)
C5 H5 0.9300
C6 N1 1.423(2)
C7 N1 1.456(2)
C7 C8 1.488(3)
C7 H6 0.9700
C7 H7 0.9700
C8 S1 1.815(2)
C8 H9 0.9700
C8 H8 0.9700
C9 C10 1.362(2)
C9 N1 1.369(2)
C9 S1 1.7459(16)
C10 C11 1.425(2)
C10 H10 0.9300
C11 O1 1.2434(19)
C11 C12 1.500(2)
C12 C18 1.374(2)
C12 C13 1.393(2)
C13 C14 1.360(2)
C13 H11 0.9300
C14 C16 1.356(3)
C14 O2 1.382(2)
C15 O3 1.384(3)
C15 O2 1.408(3)
C15 H13 0.9700
C15 H12 0.9700
C16 C17 1.359(3)
C16 O3 1.377(2)
C17 C18 1.386(3)
C17 H14 0.9300
C18 H15 0.9300
loop_
_geom_hbond_atom_site_label_D
_geom_hbond_atom_site_label_H
_geom_hbond_atom_site_label_A
_geom_hbond_distance_DH
_geom_hbond_distance_HA
_geom_hbond_distance_DA
_geom_hbond_angle_DHA
_geom_hbond_site_symmetry_A
C13 H11 O2 0.93 2.63 3.435(2) 145.7 2_656
C7 H7 O1 0.97 2.48 3.450(3) 175.5 2_665
C7 H7 O1 0.97 2.48 3.450(3) 175.5 2_665
C13 H11 O2 0.93 2.63 3.435(2) 145.7 2_656
loop_
_geom_torsion_atom_site_label_1
_geom_torsion_atom_site_label_2
_geom_torsion_atom_site_label_3
_geom_torsion_atom_site_label_4
_geom_torsion
C6 C1 C2 C3 -0.9(3)
C1 C2 C3 C4 1.6(3)
C2 C3 C4 C5 -0.8(3)
C3 C4 C5 C6 -0.7(3)
C4 C5 C6 C1 1.5(3)
C4 C5 C6 N1 179.56(17)
C2 C1 C6 C5 -0.7(3)
C2 C1 C6 N1 -178.81(15)
N1 C7 C8 S1 30.1(2)
N1 C9 C10 C11 -179.64(16)
S1 C9 C10 C11 2.0(3)
C9 C10 C11 O1 -1.9(3)
C9 C10 C11 C12 179.84(16)
O1 C11 C12 C18 164.42(18)
C10 C11 C12 C18 -17.3(3)
O1 C11 C12 C13 -13.6(2)
C10 C11 C12 C13 164.67(16)
C18 C12 C13 C14 0.7(3)
C11 C12 C13 C14 178.86(16)
C12 C13 C14 C16 -0.8(3)
C12 C13 C14 O2 179.22(18)
C13 C14 C16 C17 0.5(4)
O2 C14 C16 C17 -179.6(2)
C13 C14 C16 O3 -179.45(19)
O2 C14 C16 O3 0.5(2)
C14 C16 C17 C18 -0.1(4)
O3 C16 C17 C18 179.8(2)
C13 C12 C18 C17 -0.4(3)
C11 C12 C18 C17 -178.4(2)
C16 C17 C18 C12 0.0(4)
C10 C9 N1 C6 -2.8(3)
S1 C9 N1 C6 175.75(13)
C10 C9 N1 C7 -163.50(18)
S1 C9 N1 C7 15.04(19)
C5 C6 N1 C9 60.6(2)
C1 C6 N1 C9 -121.34(18)
C5 C6 N1 C7 -139.56(19)
C1 C6 N1 C7 38.5(2)
C8 C7 N1 C9 -30.1(2)
C8 C7 N1 C6 168.44(16)
C16 C14 O2 C15 -3.4(3)
C13 C14 O2 C15 176.6(2)
O3 C15 O2 C14 5.1(3)
C14 C16 O3 C15 2.6(3)
C17 C16 O3 C15 -177.3(3)
O2 C15 O3 C16 -4.8(3)
C10 C9 S1 C8 -177.90(17)
N1 C9 S1 C8 3.52(15)
C7 C8 S1 C9 -19.81(17)
