#------------------------------------------------------------------------------
#$Date: 2020-11-06 15:10:41 +0200 (Fri, 06 Nov 2020) $
#$Revision: 258963 $
#$URL: file:///home/coder/svn-repositories/cod/cif/7/15/77/7157717.cif $
#------------------------------------------------------------------------------
#
# This file is available in the Crystallography Open Database (COD),
# http://www.crystallography.net/
#
# All data on this site have been placed in the public domain by the
# contributors.
#
data_7157717
loop_
_publ_author_name
'Bian, Zi-Long'
'Lv, Xin-Xin'
'Li, Ya-Lan'
'Sun, Wen-Wu'
'Liu, Ji-Kai'
'Wu, Bin'
_publ_section_title
;
 Acid-promoted synthesis and photophysical properties of substituted
 acridine derivatives.
;
_journal_issue                   40
_journal_name_full               'Organic &amp; biomolecular chemistry'
_journal_page_first              8141
_journal_page_last               8146
_journal_paper_doi               10.1039/d0ob01824d
_journal_volume                  18
_journal_year                    2020
_chemical_formula_sum            'C15 H11 N O2'
_chemical_formula_weight         237.25
_space_group_crystal_system      monoclinic
_space_group_IT_number           4
_space_group_name_Hall           'P 2yb'
_space_group_name_H-M_alt        'P 1 21 1'
_atom_sites_solution_hydrogens   geom
_audit_update_record
;
2019-10-21 deposited with the CCDC.	2020-09-24 downloaded from the CCDC.
;
_cell_angle_alpha                90
_cell_angle_beta                 90.2540(10)
_cell_angle_gamma                90
_cell_formula_units_Z            2
_cell_length_a                   3.94040(10)
_cell_length_b                   16.0925(3)
_cell_length_c                   9.1575(2)
_cell_measurement_reflns_used    6552
_cell_measurement_temperature    273.(2)
_cell_measurement_theta_max      74.4861
_cell_measurement_theta_min      7.3276
_cell_volume                     580.68(2)
_computing_cell_refinement       'SAINT V8.38A (Bruker AXS Inc., 2017)'
_computing_data_reduction        'SAINT V8.38A (Bruker AXS Inc., 2017)'
_computing_molecular_graphics    'shelXle (C.B. Huebschle, rev 833)'
_computing_structure_refinement  'SHELXL-2016/6 (Sheldrick, 2016)'
_computing_structure_solution    'SHELXT 2014/5 (Sheldrick, 2014)'
_diffrn_ambient_temperature      273.(2)
_diffrn_detector_area_resol_mean 7.3910
_diffrn_measured_fraction_theta_full 0.985
_diffrn_measured_fraction_theta_max 0.985
_diffrn_radiation_wavelength     1.54178
_diffrn_reflns_av_R_equivalents  0.0259
_diffrn_reflns_av_unetI/netI     0.0269
_diffrn_reflns_limit_h_max       4
_diffrn_reflns_limit_h_min       -4
_diffrn_reflns_limit_k_max       20
_diffrn_reflns_limit_k_min       -20
_diffrn_reflns_limit_l_max       9
_diffrn_reflns_limit_l_min       -11
_diffrn_reflns_number            7654
_diffrn_reflns_theta_full        74.48
_diffrn_reflns_theta_max         74.48
_diffrn_reflns_theta_min         7.33
_exptl_absorpt_coefficient_mu    0.736
_exptl_absorpt_correction_T_max  0.89
_exptl_absorpt_correction_T_min  0.79
_exptl_absorpt_correction_type   multi-scan
_exptl_absorpt_process_details
;
SADABS-2016/2 - Bruker AXS area detector scaling and absorption correction
;
_exptl_crystal_colour            Colourless
_exptl_crystal_density_diffrn    1.357
_exptl_crystal_density_method    'not measured'
_exptl_crystal_description       Block
_exptl_crystal_F_000             248
_exptl_crystal_size_max          0.250
_exptl_crystal_size_mid          0.220
_exptl_crystal_size_min          0.170
_refine_diff_density_max         0.107
_refine_diff_density_min         -0.099
_refine_ls_abs_structure_details
;

Flack x determined using 1053 quotients [(I+)-(I-)]/[(I+)+(I-)]
(Parsons, Flack and Wagner, Acta Cryst. B69 (2013) 249-259).
;
_refine_ls_abs_structure_Flack   0.02(8)
_refine_ls_extinction_method     none
_refine_ls_goodness_of_fit_ref   1.070
_refine_ls_hydrogen_treatment    mixed
_refine_ls_matrix_type           full
_refine_ls_number_parameters     164
_refine_ls_number_reflns         2313
_refine_ls_number_restraints     1
_refine_ls_restrained_S_all      1.070
_refine_ls_R_factor_all          0.0298
_refine_ls_R_factor_gt           0.0292
_refine_ls_shift/su_max          0.000
_refine_ls_shift/su_mean         0.000
_refine_ls_structure_factor_coef Fsqd
_refine_ls_weighting_details
'w=1/[\s^2^(Fo^2^)+(0.0472P)^2^+0.0302P] where P=(Fo^2^+2Fc^2^)/3'
_refine_ls_weighting_scheme      calc
_refine_ls_wR_factor_gt          0.0810
_refine_ls_wR_factor_ref         0.0817
_reflns_number_gt                2261
_reflns_number_total             2313
_reflns_threshold_expression     'I > 2\s(I)'
_cod_data_source_file            d0ob01824d2.cif
_cod_data_source_block           wb01
_cod_depositor_comments
;
The following automatic conversions were performed:

data item '_exptl_absorpt_correction_type' value 'Multi-Scan' was
changed to 'multi-scan' in accordance with the
/home/data/users/saulius/crontab/automatic-downloads/rss-feeds/RSC/lib/dictionaries/cif_core.dic
dictionary named 'cif_core.dic' version 2.4.2 last updated on
2011-04-26.

Automatic conversion script
Id: cif_fix_values 7556 2019-12-06 15:28:31Z antanas 

 Adding full bibliography for 7157717--7157718.cif.
;
_cod_database_code               7157717
_shelx_res_file
;

TITL wb01_0m_a.res in P2(1)
    wb01_0m.res
    created by SHELXL-2016/6 at 15:50:33 on 30-May-2018
CELL 1.54178 3.9404 16.0925 9.1575 90.000 90.254 90.000
ZERR 2.00 0.0001 0.0003 0.0002 0.000 0.001 0.000
LATT -1
SYMM -x, y+1/2, -z
SFAC C H N O
UNIT 30 22 2 4
LIST 6 ! automatically inserted. Change 6 to 4 for CHECKCIF!!
TEMP 0.000
SIZE 0.170 0.220 0.250
ACTA
L.S. 4
FMAP 2
PLAN -3 0 0.00
HTAB
BOND $H
CONF
WGHT    0.047200    0.030200
FVAR       2.92763
O1    4    0.217448    0.642930    0.321120    11.00000    0.06919    0.03699 =
         0.05087    0.00270    0.00737    0.00721
C1    1    0.403813    0.505542    0.519203    11.00000    0.04143    0.04060 =
         0.04082   -0.00370    0.00216    0.00509
O2    4    0.546130    0.574241    0.164799    11.00000    0.08614    0.04944 =
         0.05203    0.00168    0.02353    0.00170
C2    1    0.567435    0.574924    0.587804    11.00000    0.05203    0.04442 =
         0.04844   -0.00353   -0.00042   -0.00131
AFIX  43
H2    2    0.623080    0.621510    0.532789    11.00000   -1.20000
AFIX   0
C10   1   -0.071778    0.349007    0.115186    11.00000    0.05716    0.05223 =
         0.05233   -0.01157   -0.00814    0.00192
AFIX  43
H10   2   -0.131549    0.343761    0.017260    11.00000   -1.20000
AFIX   0
C11   1    0.075308    0.420444    0.162819    11.00000    0.05254    0.04513 =
         0.04424   -0.00280   -0.00153    0.00343
AFIX  43
H11   2    0.113818    0.463635    0.097483    11.00000   -1.20000
AFIX   0
C12   1    0.171189    0.429684    0.312476    11.00000    0.04100    0.03597 =
         0.04439   -0.00252    0.00180    0.00466
C13   1    0.317606    0.502412    0.370804    11.00000    0.04221    0.03692 =
         0.04105   -0.00214    0.00392    0.00377
C14   1    0.378580    0.575421    0.273010    11.00000    0.05087    0.03842 =
         0.04097   -0.00337    0.00014   -0.00062
C15   1    0.255100    0.716676    0.233042    11.00000    0.09427    0.04056 =
         0.07597    0.01148    0.01500    0.00657
AFIX 137
H15A  2    0.491336    0.730543    0.225540    11.00000   -1.50000
H15B  2    0.135233    0.761896    0.277699    11.00000   -1.50000
H15C  2    0.163781    0.706652    0.137288    11.00000   -1.50000
AFIX   0
N1    3    0.183795    0.364984    0.553442    11.00000    0.05410    0.04076 =
         0.04665    0.00412    0.00319    0.00143
C4    1    0.561204    0.503206    0.819560    11.00000    0.05786    0.06835 =
         0.03927   -0.00544   -0.00375    0.01055
AFIX  43
H4    2    0.612072    0.503554    0.918825    11.00000   -1.20000
AFIX   0
C3    1    0.641654    0.573016    0.732664    11.00000    0.05465    0.05664 =
         0.05201   -0.01265   -0.00547    0.00111
AFIX  43
H3    2    0.747595    0.618571    0.775611    11.00000   -1.20000
AFIX   0
C9    1   -0.135291    0.282613    0.212039    11.00000    0.05844    0.04404 =
         0.06938   -0.01285   -0.00510   -0.00360
AFIX  43
H9    2   -0.236360    0.234225    0.177323    11.00000   -1.20000
AFIX   0
C5    1    0.410846    0.436013    0.759140    11.00000    0.05848    0.05706 =
         0.04054    0.00443    0.00226    0.00773
AFIX  43
H5    2    0.359060    0.390450    0.817406    11.00000   -1.20000
AFIX   0
C6    1    0.330063    0.433964    0.606574    11.00000    0.04536    0.04403 =
         0.04112    0.00016    0.00287    0.00592
C7    1    0.107211    0.362348    0.410577    11.00000    0.04229    0.03807 =
         0.04882   -0.00032    0.00201    0.00371
C8    1   -0.050300    0.288787    0.355057    11.00000    0.05729    0.03766 =
         0.06345    0.00090    0.00213   -0.00323
AFIX  43
H8    2   -0.094881    0.244711    0.417791    11.00000   -1.20000
REM #####
AFIX   0
HKLF 4 1 1 0 0 0 1 0 0 0 1




REM  wb01_0m_a.res in P2(1)
REM R1 =  0.0292 for    2261 Fo > 4sig(Fo)  and  0.0298 for all    2313 data
REM    164 parameters refined using      1 restraints

END

WGHT      0.0472      0.0302

REM Instructions for potential hydrogen bonds
EQIV $1 -x, y+1/2, -z+1
HTAB C15 N1_$1

REM Highest difference peak  0.107,  deepest hole -0.099,  1-sigma level  0.023
Q1    1   0.2856  0.4626  0.3382  11.00000  0.05    0.11
Q2    1   0.0497  0.3198  0.3748  11.00000  0.05    0.10
Q3    1   0.3513  0.5354  0.3257  11.00000  0.05    0.09
;
_shelx_res_checksum              42160
loop_
_space_group_symop_operation_xyz
'x, y, z'
'-x, y+1/2, -z'
loop_
_atom_site_type_symbol
_atom_site_label
_atom_site_fract_x
_atom_site_fract_y
_atom_site_fract_z
_atom_site_U_iso_or_equiv
_atom_site_adp_type
_atom_site_calc_flag
_atom_site_refinement_flags_adp
_atom_site_refinement_flags_occupancy
_atom_site_refinement_flags_posn
_atom_site_occupancy
_atom_site_disorder_assembly
_atom_site_disorder_group
O O1 0.2174(4) 0.64293(8) 0.32112(13) 0.0523(3) Uani d . . . 1 . .
C C1 0.4038(4) 0.50554(10) 0.51920(18) 0.0409(4) Uani d . . . 1 . .
O O2 0.5461(4) 0.57424(10) 0.16480(15) 0.0625(4) Uani d . . . 1 . .
C C2 0.5674(5) 0.57492(12) 0.5878(2) 0.0483(4) Uani d . . . 1 . .
H H2 0.62308 0.62151 0.532789 0.058 Uiso calc U . R 1 . .
C C10 -0.0718(5) 0.34901(12) 0.1152(2) 0.0539(5) Uani d . . . 1 . .
H H10 -0.131549 0.343761 0.01726 0.065 Uiso calc U . R 1 . .
C C11 0.0753(5) 0.42044(12) 0.16282(19) 0.0473(4) Uani d . . . 1 . .
H H11 0.113818 0.463635 0.097483 0.057 Uiso calc U . R 1 . .
C C12 0.1712(4) 0.42968(10) 0.31248(18) 0.0404(3) Uani d . . . 1 . .
C C13 0.3176(4) 0.50241(10) 0.37080(18) 0.0400(3) Uani d . . . 1 . .
C C14 0.3786(4) 0.57542(11) 0.27301(17) 0.0434(4) Uani d . . . 1 . .
C C15 0.2551(8) 0.71668(14) 0.2330(3) 0.0702(6) Uani d . . . 1 . .
H H15A 0.491336 0.730543 0.22554 0.105 Uiso calc U . R 1 . .
H H15B 0.135233 0.761896 0.277699 0.105 Uiso calc U . R 1 . .
H H15C 0.163781 0.706652 0.137288 0.105 Uiso calc U . R 1 . .
N N1 0.1838(4) 0.36498(9) 0.55344(17) 0.0472(4) Uani d . . . 1 . .
C C4 0.5612(5) 0.50321(15) 0.81956(19) 0.0552(5) Uani d . . . 1 . .
H H4 0.612072 0.503554 0.918825 0.066 Uiso calc U . R 1 . .
C C3 0.6417(5) 0.57302(14) 0.7327(2) 0.0544(4) Uani d . . . 1 . .
H H3 0.747595 0.618571 0.775611 0.065 Uiso calc U . R 1 . .
C C9 -0.1353(5) 0.28261(13) 0.2120(2) 0.0573(5) Uani d . . . 1 . .
H H9 -0.23636 0.234225 0.177323 0.069 Uiso calc U . R 1 . .
C C5 0.4108(5) 0.43601(13) 0.75914(19) 0.0520(4) Uani d . . . 1 . .
H H5 0.35906 0.39045 0.817406 0.062 Uiso calc U . R 1 . .
C C6 0.3301(5) 0.43396(11) 0.60657(18) 0.0435(4) Uani d . . . 1 . .
C C7 0.1072(4) 0.36235(11) 0.4106(2) 0.0431(4) Uani d . . . 1 . .
C C8 -0.0503(5) 0.28879(12) 0.3551(2) 0.0528(4) Uani d . . . 1 . .
H H8 -0.094881 0.244711 0.417791 0.063 Uiso calc U . R 1 . .
loop_
_atom_site_aniso_label
_atom_site_aniso_U_11
_atom_site_aniso_U_22
_atom_site_aniso_U_33
_atom_site_aniso_U_12
_atom_site_aniso_U_13
_atom_site_aniso_U_23
O1 0.0692(8) 0.0370(6) 0.0509(6) 0.0072(6) 0.0074(6) 0.0027(5)
C1 0.0414(8) 0.0406(8) 0.0408(8) 0.0051(7) 0.0022(6) -0.0037(7)
O2 0.0861(10) 0.0494(7) 0.0520(7) 0.0017(7) 0.0235(6) 0.0017(6)
C2 0.0520(10) 0.0444(9) 0.0484(9) -0.0013(8) -0.0004(7) -0.0035(8)
C10 0.0572(11) 0.0522(11) 0.0523(10) 0.0019(9) -0.0081(8) -0.0116(8)
C11 0.0525(10) 0.0451(9) 0.0442(9) 0.0034(8) -0.0015(7) -0.0028(7)
C12 0.0410(8) 0.0360(8) 0.0444(8) 0.0047(6) 0.0018(6) -0.0025(6)
C13 0.0422(8) 0.0369(7) 0.0411(8) 0.0038(7) 0.0039(6) -0.0021(6)
C14 0.0509(9) 0.0384(8) 0.0410(8) -0.0006(7) 0.0001(6) -0.0034(7)
C15 0.0943(17) 0.0406(10) 0.0760(14) 0.0066(11) 0.0150(12) 0.0115(10)
N1 0.0541(8) 0.0408(8) 0.0467(8) 0.0014(7) 0.0032(6) 0.0041(6)
C4 0.0579(10) 0.0683(12) 0.0393(8) 0.0105(10) -0.0037(7) -0.0054(8)
C3 0.0546(10) 0.0566(11) 0.0520(9) 0.0011(9) -0.0055(8) -0.0127(9)
C9 0.0584(11) 0.0440(10) 0.0694(12) -0.0036(8) -0.0051(9) -0.0129(9)
C5 0.0585(11) 0.0571(11) 0.0405(8) 0.0077(9) 0.0023(7) 0.0044(8)
C6 0.0454(9) 0.0440(9) 0.0411(8) 0.0059(7) 0.0029(6) 0.0002(7)
C7 0.0423(9) 0.0381(8) 0.0488(9) 0.0037(7) 0.0020(6) -0.0003(7)
C8 0.0573(11) 0.0377(9) 0.0634(11) -0.0032(8) 0.0021(8) 0.0009(8)
loop_
_atom_type_symbol
_atom_type_description
_atom_type_scat_dispersion_real
_atom_type_scat_dispersion_imag
_atom_type_scat_source
C C 0.0181 0.0091 'International Tables Vol C Tables 4.2.6.8 and 6.1.1.4'
H H 0.0000 0.0000 'International Tables Vol C Tables 4.2.6.8 and 6.1.1.4'
N N 0.0311 0.0180 'International Tables Vol C Tables 4.2.6.8 and 6.1.1.4'
O O 0.0492 0.0322 'International Tables Vol C Tables 4.2.6.8 and 6.1.1.4'
loop_
_geom_angle_atom_site_label_1
_geom_angle_atom_site_label_2
_geom_angle_atom_site_label_3
_geom_angle_site_symmetry_1
_geom_angle_site_symmetry_3
_geom_angle
_geom_angle_publ_flag
C14 O1 C15 . . 115.78(15) ?
C13 C1 C2 . . 124.07(16) ?
C13 C1 C6 . . 117.65(15) ?
C2 C1 C6 . . 118.26(15) ?
C3 C2 C1 . . 120.36(18) ?
C3 C2 H2 . . 119.8 ?
C1 C2 H2 . . 119.8 ?
C11 C10 C9 . . 121.02(17) ?
C11 C10 H10 . . 119.5 ?
C9 C10 H10 . . 119.5 ?
C10 C11 C12 . . 120.47(17) ?
C10 C11 H11 . . 119.8 ?
C12 C11 H11 . . 119.8 ?
C13 C12 C11 . . 123.82(15) ?
C13 C12 C7 . . 117.65(14) ?
C11 C12 C7 . . 118.51(16) ?
C1 C13 C12 . . 119.67(15) ?
C1 C13 C14 . . 120.89(15) ?
C12 C13 C14 . . 119.44(14) ?
O2 C14 O1 . . 123.58(17) ?
O2 C14 C13 . . 125.10(16) ?
O1 C14 C13 . . 111.32(13) ?
O1 C15 H15A . . 109.5 ?
O1 C15 H15B . . 109.5 ?
H15A C15 H15B . . 109.5 ?
O1 C15 H15C . . 109.5 ?
H15A C15 H15C . . 109.5 ?
H15B C15 H15C . . 109.5 ?
C6 N1 C7 . . 118.31(14) ?
C5 C4 C3 . . 120.32(16) ?
C5 C4 H4 . . 119.8 ?
C3 C4 H4 . . 119.8 ?
C2 C3 C4 . . 121.35(19) ?
C2 C3 H3 . . 119.3 ?
C4 C3 H3 . . 119.3 ?
C8 C9 C10 . . 120.56(17) ?
C8 C9 H9 . . 119.7 ?
C10 C9 H9 . . 119.7 ?
C4 C5 C6 . . 120.89(18) ?
C4 C5 H5 . . 119.6 ?
C6 C5 H5 . . 119.6 ?
N1 C6 C5 . . 117.80(16) ?
N1 C6 C1 . . 123.41(15) ?
C5 C6 C1 . . 118.78(16) ?
N1 C7 C8 . . 117.93(16) ?
N1 C7 C12 . . 123.28(16) ?
C8 C7 C12 . . 118.78(17) ?
C9 C8 C7 . . 120.67(18) ?
C9 C8 H8 . . 119.7 ?
C7 C8 H8 . . 119.7 ?
loop_
_geom_bond_atom_site_label_1
_geom_bond_atom_site_label_2
_geom_bond_site_symmetry_2
_geom_bond_distance
_geom_bond_publ_flag
O1 C14 . 1.334(2) ?
O1 C15 . 1.443(2) ?
C1 C13 . 1.400(2) ?
C1 C2 . 1.433(2) ?
C1 C6 . 1.433(2) ?
O2 C14 . 1.193(2) ?
C2 C3 . 1.357(3) ?
C2 H2 . 0.93 ?
C10 C11 . 1.359(3) ?
C10 C9 . 1.412(3) ?
C10 H10 . 0.93 ?
C11 C12 . 1.428(2) ?
C11 H11 . 0.93 ?
C12 C13 . 1.409(2) ?
C12 C7 . 1.431(2) ?
C13 C14 . 1.497(2) ?
C15 H15A . 0.96 ?
C15 H15B . 0.96 ?
C15 H15C . 0.96 ?
N1 C6 . 1.341(2) ?
N1 C7 . 1.342(2) ?
C4 C5 . 1.350(3) ?
C4 C3 . 1.414(3) ?
C4 H4 . 0.93 ?
C3 H3 . 0.93 ?
C9 C8 . 1.354(3) ?
C9 H9 . 0.93 ?
C5 C6 . 1.432(2) ?
C5 H5 . 0.93 ?
C7 C8 . 1.429(3) ?
C8 H8 . 0.93 ?
loop_
_geom_torsion_atom_site_label_1
_geom_torsion_atom_site_label_2
_geom_torsion_atom_site_label_3
_geom_torsion_atom_site_label_4
_geom_torsion_site_symmetry_1
_geom_torsion_site_symmetry_2
_geom_torsion_site_symmetry_3
_geom_torsion_site_symmetry_4
_geom_torsion
_geom_torsion_publ_flag
C13 C1 C2 C3 . . . . 179.85(16) ?
C6 C1 C2 C3 . . . . -1.6(3) ?
C9 C10 C11 C12 . . . . 0.4(3) ?
C10 C11 C12 C13 . . . . -178.50(17) ?
C10 C11 C12 C7 . . . . -0.3(3) ?
C2 C1 C13 C12 . . . . 177.08(16) ?
C6 C1 C13 C12 . . . . -1.5(2) ?
C2 C1 C13 C14 . . . . -3.0(2) ?
C6 C1 C13 C14 . . . . 178.49(15) ?
C11 C12 C13 C1 . . . . -179.89(15) ?
C7 C12 C13 C1 . . . . 1.9(2) ?
C11 C12 C13 C14 . . . . 0.2(2) ?
C7 C12 C13 C14 . . . . -178.03(13) ?
C15 O1 C14 O2 . . . . 0.3(3) ?
C15 O1 C14 C13 . . . . -179.01(17) ?
C1 C13 C14 O2 . . . . 122.63(19) ?
C12 C13 C14 O2 . . . . -57.4(2) ?
C1 C13 C14 O1 . . . . -58.1(2) ?
C12 C13 C14 O1 . . . . 121.86(16) ?
C1 C2 C3 C4 . . . . 0.1(3) ?
C5 C4 C3 C2 . . . . 0.8(3) ?
C11 C10 C9 C8 . . . . 0.0(3) ?
C3 C4 C5 C6 . . . . 0.0(3) ?
C7 N1 C6 C5 . . . . -179.95(16) ?
C7 N1 C6 C1 . . . . 1.1(3) ?
C4 C5 C6 N1 . . . . 179.39(18) ?
C4 C5 C6 C1 . . . . -1.6(3) ?
C13 C1 C6 N1 . . . . -0.1(2) ?
C2 C1 C6 N1 . . . . -178.68(16) ?
C13 C1 C6 C5 . . . . -179.05(16) ?
C2 C1 C6 C5 . . . . 2.3(2) ?
C6 N1 C7 C8 . . . . -179.66(17) ?
C6 N1 C7 C12 . . . . -0.5(2) ?
C13 C12 C7 N1 . . . . -0.9(2) ?
C11 C12 C7 N1 . . . . -179.23(16) ?
C13 C12 C7 C8 . . . . 178.18(15) ?
C11 C12 C7 C8 . . . . -0.1(2) ?
C10 C9 C8 C7 . . . . -0.4(3) ?
N1 C7 C8 C9 . . . . 179.63(17) ?
C12 C7 C8 C9 . . . . 0.5(3) ?
