#------------------------------------------------------------------------------
#$Date: 2019-11-08 03:35:33 +0200 (Fri, 08 Nov 2019) $
#$Revision: 225114 $
#$URL: file:///home/coder/svn-repositories/cod/cif/7/15/70/7157076.cif $
#------------------------------------------------------------------------------
#
# This file is available in the Crystallography Open Database (COD),
# http://www.crystallography.net/
#
# All data on this site have been placed in the public domain by the
# contributors.
#
data_7157076
loop_
_publ_author_name
'Gupta, Vijay'
'Sahu, Debashish'
'Jain, Shailja'
'Vanka, Kumar'
'Singh, Ravi P.'
_publ_section_title
;
 Diastereoselective multi-component tandem condensation: synthesis of
 2-amino-4-(2-furanone)-4H-chromene-3-carbonitriles.
;
_journal_issue                   39
_journal_name_full               'Organic &amp; biomolecular chemistry'
_journal_page_first              8853
_journal_page_last               8857
_journal_paper_doi               10.1039/c9ob01345h
_journal_volume                  17
_journal_year                    2019
_chemical_formula_moiety         'C15 H12 N2 O3, C H Cl3'
_chemical_formula_sum            'C16 H13 Cl3 N2 O3'
_chemical_formula_weight         387.63
_space_group_crystal_system      triclinic
_space_group_IT_number           2
_space_group_name_Hall           '-P 1'
_space_group_name_H-M_alt        'P -1'
_symmetry_space_group_name_Hall  '-P 1'
_symmetry_space_group_name_H-M   'P -1'
_atom_sites_solution_hydrogens   geom
_atom_sites_solution_primary     iterative
_audit_creation_date             2018-01-31
_audit_creation_method
;
Olex2 1.2
(compiled 2017.03.28 svn.r3405 for OlexSys, GUI svn.r5337)
;
_audit_update_record
;
2019-01-07 deposited with the CCDC.    2019-09-13 downloaded from the CCDC.
;
_cell_angle_alpha                86.9640(12)
_cell_angle_beta                 71.0335(12)
_cell_angle_gamma                70.4039(12)
_cell_formula_units_Z            2
_cell_length_a                   8.0552(4)
_cell_length_b                   10.2825(5)
_cell_length_c                   11.7512(6)
_cell_measurement_reflns_used    6425
_cell_measurement_temperature    298(2)
_cell_measurement_theta_max      28.28
_cell_measurement_theta_min      2.71
_cell_volume                     865.45(8)
_computing_cell_refinement       'SAINT v8.37A (Bruker, 2015)'
_computing_data_reduction        'SAINT v8.37A (Bruker, 2015)'
_computing_molecular_graphics    'Olex2 (Dolomanov et al., 2009)'
_computing_publication_material  'Olex2 (Dolomanov et al., 2009)'
_computing_structure_refinement  'ShelXL (Sheldrick, 2015)'
_computing_structure_solution
;
Superflip (Palatinus & Chapuis, 2007;Palatinus & van der Lee, 2008;
Palatinus et al., 2012)
;
_diffrn_ambient_temperature      297.99
_diffrn_measured_fraction_theta_full 0.993
_diffrn_measured_fraction_theta_max 0.993
_diffrn_measurement_device_type  'Bruker APEX-II CCD'
_diffrn_measurement_method       '\f and \w scans'
_diffrn_radiation_type           MoK\a
_diffrn_radiation_wavelength     0.71073
_diffrn_reflns_av_R_equivalents  0.0268
_diffrn_reflns_av_unetI/netI     0.0280
_diffrn_reflns_Laue_measured_fraction_full 0.993
_diffrn_reflns_Laue_measured_fraction_max 0.993
_diffrn_reflns_limit_h_max       10
_diffrn_reflns_limit_h_min       -10
_diffrn_reflns_limit_k_max       13
_diffrn_reflns_limit_k_min       -13
_diffrn_reflns_limit_l_max       15
_diffrn_reflns_limit_l_min       -15
_diffrn_reflns_number            12828
_diffrn_reflns_point_group_measured_fraction_full 0.993
_diffrn_reflns_point_group_measured_fraction_max 0.993
_diffrn_reflns_theta_full        25.242
_diffrn_reflns_theta_max         28.366
_diffrn_reflns_theta_min         1.836
_diffrn_standards_number         0
_exptl_absorpt_coefficient_mu    0.546
_exptl_absorpt_correction_T_max  0.7457
_exptl_absorpt_correction_T_min  0.6809
_exptl_absorpt_correction_type   multi-scan
_exptl_absorpt_process_details
;
SADABS-2016/2 (Bruker,2016/2) was used for absorption correction.
wR2(int) was 0.1076 before and 0.0380 after correction.
The Ratio of minimum to maximum transmission is 0.9131.
The \l/2 correction factor is Not present.
;
_exptl_crystal_colour            brown
_exptl_crystal_density_diffrn    1.487
_exptl_crystal_density_meas      1.487
_exptl_crystal_density_method    'not measured'
_exptl_crystal_description       block
_exptl_crystal_F_000             396
_exptl_crystal_size_max          0.218
_exptl_crystal_size_mid          0.138
_exptl_crystal_size_min          0.110
_exptl_transmission_factor_max   0.942
_exptl_transmission_factor_min   0.914
_refine_diff_density_max         0.346
_refine_diff_density_min         -0.555
_refine_diff_density_rms         0.052
_refine_ls_extinction_method     none
_refine_ls_goodness_of_fit_ref   1.044
_refine_ls_hydrogen_treatment    constr
_refine_ls_matrix_type           full
_refine_ls_number_parameters     218
_refine_ls_number_reflns         4327
_refine_ls_number_restraints     0
_refine_ls_restrained_S_all      1.044
_refine_ls_R_factor_all          0.0627
_refine_ls_R_factor_gt           0.0455
_refine_ls_shift/su_max          0.000
_refine_ls_shift/su_mean         0.000
_refine_ls_structure_factor_coef Fsqd
_refine_ls_weighting_details
'w=1/[\s^2^(Fo^2^)+(0.0590P)^2^+0.3510P] where P=(Fo^2^+2Fc^2^)/3'
_refine_ls_weighting_scheme      calc
_refine_ls_wR_factor_gt          0.1173
_refine_ls_wR_factor_ref         0.1292
_reflns_Friedel_coverage         0.000
_reflns_number_gt                3254
_reflns_number_total             4327
_reflns_threshold_expression     'I > 2\s(I)'
_cod_data_source_file            c9ob01345h2.cif
_cod_data_source_block           vijay05_0m
_cod_depositor_comments
'Adding full bibliography for 7157076--7157078.cif.'
_cod_database_code               7157076
_shelxl_version_number           2013-4
_shelx_space_group_comment
;
The symmetry employed for this shelxl refinement is uniquely defined
by the following loop, which should always be used as a source of
symmetry information in preference to the above space-group names.
They are only intended as comments.
;
_olex2_refinement_description
;
1. Fixed Uiso
 At 1.2 times of:
  All C(H) groups, All N(H,H) groups
 At 1.5 times of:
  All C(H,H,H) groups
2.a Ternary CH refined with riding coordinates:
 C8(H8), C38(H38)
2.b Aromatic/amide H refined with riding coordinates:
 C24(H24), C25(H25), C27(H27), C29(H29), C31(H31), C36(H36)
2.c X=CH2 refined with riding coordinates:
 N5(H5A,H5B)
2.d Idealised Me refined as rotating group:
 C34(H34A,H34B,H34C)
;
_shelx_res_file
;
TITL vijay05_0m in P1
CELL 0.71073 8.0552 10.2825 11.7512 86.964 71.0335 70.4039
ZERR 17 0.0004 0.0005 0.0006 0.0012 0.0012 0.0012
LATT 1
SFAC C H N O Cl
UNIT 38 0 4 6 1

L.S. 4 0 0
PLAN  20
TEMP 24.84
fmap 2 53
ACTA
REM <olex2.extras>
REM <HklSrc "%.\\vijay05_0m.hkl">
REM </olex2.extras>

WGHT    0.059000    0.351000
FVAR       0.46385
CL1A  5    0.518568    1.086927    0.718609    11.00000    0.05951    0.04748 =
         0.10347    0.01296   -0.01859   -0.01757
CL0A  5    0.510558    0.811991    0.701933    11.00000    0.08976    0.06290 =
         0.07408   -0.01174   -0.00420   -0.03734
CL5   5    0.327317    0.972134    0.929472    11.00000    0.07938    0.08055 =
         0.07372   -0.01282    0.00591   -0.03066
O2AA  4    0.091634    0.345184    0.200218    11.00000    0.03820    0.02845 =
         0.04098    0.00235    0.00191   -0.00982
O3    4    0.117273    0.799020    0.237595    11.00000    0.03909    0.03008 =
         0.04962   -0.00490    0.00022   -0.01952
O1    4    0.061726    1.026506    0.242165    11.00000    0.06700    0.03439 =
         0.09857   -0.00219   -0.00914   -0.02426
N3    3   -0.474171    0.650542    0.460233    11.00000    0.03679    0.04433 =
         0.05445   -0.00274    0.00239   -0.01860
N5    3   -0.145606    0.313980    0.344916    11.00000    0.04784    0.02951 =
         0.04473    0.00089    0.00283   -0.01748
AFIX  93
H5A   2   -0.085935    0.227298    0.325793    11.00000   -1.20000
H5B   2   -0.251133    0.340175    0.401958    11.00000   -1.20000
AFIX   0
C8    1   -0.049350    0.642757    0.235337    11.00000    0.02800    0.02618 =
         0.03558    0.00179   -0.00579   -0.01134
AFIX  13
H8    2   -0.141511    0.721139    0.214135    11.00000   -1.20000
AFIX   0
C9    1   -0.328727    0.604181    0.391103    11.00000    0.03375    0.02997 =
         0.03746    0.00189   -0.00725   -0.01629
C12   1   -0.149007    0.548000    0.305498    11.00000    0.02896    0.02939 =
         0.03290    0.00057   -0.00482   -0.01374
C13   1   -0.074393    0.407915    0.286031    11.00000    0.03258    0.03073 =
         0.03283    0.00082   -0.00624   -0.01332
C15   1    0.094178    0.566747    0.119532    11.00000    0.03020    0.03554 =
         0.03151    0.00112   -0.00743   -0.01534
C17   1    0.039767    0.701110    0.311104    11.00000    0.03433    0.03356 =
         0.03798   -0.00222   -0.00275   -0.01859
C20   1    0.159833    0.424809    0.108390    11.00000    0.03199    0.03545 =
         0.03214    0.00128   -0.00546   -0.01472
C22   1    0.025369    0.928354    0.289847    11.00000    0.04333    0.03423 =
         0.06865   -0.01111   -0.00813   -0.01691
C24   1   -0.103689    0.790895    0.418333    11.00000    0.04343    0.05780 =
         0.04289   -0.01397    0.00252   -0.02695
AFIX  43
H24   2   -0.176851    0.759572    0.484973    11.00000   -1.20000
AFIX   0
C25   1    0.370863    0.419741   -0.088333    11.00000    0.04563    0.06197 =
         0.03455   -0.00839    0.00087   -0.02499
AFIX  43
H25   2    0.465100    0.371041   -0.156792    11.00000   -1.20000
AFIX   0
C27   1    0.296545    0.349399    0.006574    11.00000    0.04134    0.04236 =
         0.04049   -0.00647   -0.00339   -0.01457
AFIX  43
H27   2    0.337385    0.253230    0.002324    11.00000   -1.20000
AFIX   0
C29   1    0.167745    0.635228    0.020457    11.00000    0.04509    0.04302 =
         0.03624    0.00712   -0.00976   -0.02278
AFIX  43
H29   2    0.123415    0.731371    0.023269    11.00000   -1.20000
AFIX   0
C31   1   -0.111690    0.920279    0.405034    11.00000    0.05004    0.04894 =
         0.06579   -0.02696    0.00246   -0.01893
AFIX  43
H31   2   -0.191439    0.994521    0.459883    11.00000   -1.20000
AFIX   0
C34   1    0.194413    0.590021    0.342976    11.00000    0.04704    0.05235 =
         0.05185    0.00401   -0.02148   -0.02339
AFIX 137
H34A  2    0.284265    0.537340    0.270912    11.00000   -1.50000
H34B  2    0.142757    0.529860    0.397311    11.00000   -1.50000
H34C  2    0.254100    0.632546    0.380878    11.00000   -1.50000
AFIX   0
C36   1    0.305744    0.562055   -0.081914    11.00000    0.05215    0.06507 =
         0.03238    0.00576   -0.00497   -0.03356
AFIX  43
H36   2    0.354712    0.609282   -0.146684    11.00000   -1.20000
AFIX   0

C38   1    0.516817    0.936514    0.795382    11.00000    0.05044    0.04501 =
         0.06364    0.00164   -0.01350   -0.01321
AFIX  13
H38   2    0.632092    0.899585    0.815616    11.00000   -1.20000
AFIX   0
HKLF 4

REM  vijay05_0m in P1
REM R1 =  0.0455 for    3254 Fo > 4sig(Fo)  and  0.0627 for all    4295 data
REM    218 parameters refined using      0 restraints

END

WGHT      0.0592      0.3533

REM Highest difference peak  0.346,  deepest hole -0.555,  1-sigma level  0.052
Q1    1   0.3935  0.8381  0.7437  11.00000  0.05    0.35
Q2    1   0.2259  0.9832  0.8965  11.00000  0.05    0.34
Q3    1  -0.1100  0.4872  0.2929  11.00000  0.05    0.28
Q4    1  -0.0972  0.5850  0.2845  11.00000  0.05    0.27
Q5    1  -0.1311  0.4856  0.2831  11.00000  0.05    0.27
Q6    1  -0.0401  0.7546  0.3645  11.00000  0.05    0.21
Q7    1  -0.0068  0.6772  0.2656  11.00000  0.05    0.20
Q8    1  -0.2173  0.5653  0.3389  11.00000  0.05    0.19
Q9    1   0.2548  0.3855  0.0668  11.00000  0.05    0.19
Q10   1  -0.1202  0.2429  0.2859  11.00000  0.05    0.19
Q11   1  -0.1293  0.7050  0.5017  11.00000  0.05    0.18
Q12   1  -0.1644  0.8643  0.3988  11.00000  0.05    0.18
Q13   1   0.5611  1.0413  0.7807  11.00000  0.05    0.18
Q14   1  -0.0452  0.9234  0.3471  11.00000  0.05    0.18
Q15   1   0.4606  1.0393  0.6820  11.00000  0.05    0.18
Q16   1  -0.1709  0.5578  0.2769  11.00000  0.05    0.17
Q17   1   0.2205  0.6020 -0.0425  11.00000  0.05    0.17
Q18   1   0.0351  1.0202  0.3160  11.00000  0.05    0.16
Q19   1  -0.1519  0.9865  0.5425  11.00000  0.05    0.15
Q20   1   0.5830  0.9393  0.6364  11.00000  0.05    0.15
;
_shelx_res_checksum              23175
_olex2_submission_special_instructions 'No special instructions were received'
loop_
_space_group_symop_operation_xyz
'x, y, z'
'-x, -y, -z'
loop_
_atom_site_label
_atom_site_type_symbol
_atom_site_fract_x
_atom_site_fract_y
_atom_site_fract_z
_atom_site_U_iso_or_equiv
_atom_site_adp_type
_atom_site_occupancy
_atom_site_site_symmetry_order
_atom_site_calc_flag
_atom_site_refinement_flags_posn
Cl1A Cl 0.51857(9) 1.08693(6) 0.71861(7) 0.0727(2) Uani 1 1 d .
Cl0A Cl 0.51056(11) 0.81199(7) 0.70193(6) 0.0777(2) Uani 1 1 d .
Cl5 Cl 0.32732(11) 0.97213(8) 0.92947(7) 0.0842(2) Uani 1 1 d .
O2AA O 0.09163(17) 0.34518(12) 0.20022(11) 0.0401(3) Uani 1 1 d .
O3 O 0.11727(17) 0.79902(12) 0.23759(12) 0.0410(3) Uani 1 1 d .
O1 O 0.0617(2) 1.02651(15) 0.24216(18) 0.0691(5) Uani 1 1 d .
N3 N -0.4742(2) 0.65054(17) 0.46023(16) 0.0481(4) Uani 1 1 d .
N5 N -0.1456(2) 0.31398(16) 0.34492(14) 0.0441(4) Uani 1 1 d .
H5A H -0.0859 0.2273 0.3258 0.053 Uiso 1 1 calc R
H5B H -0.2511 0.3402 0.4020 0.053 Uiso 1 1 calc R
C8 C -0.0494(2) 0.64276(16) 0.23534(14) 0.0305(3) Uani 1 1 d .
H8 H -0.1415 0.7211 0.2141 0.037 Uiso 1 1 calc R
C9 C -0.3287(2) 0.60418(17) 0.39110(15) 0.0334(3) Uani 1 1 d .
C12 C -0.1490(2) 0.54800(16) 0.30550(14) 0.0307(3) Uani 1 1 d .
C13 C -0.0744(2) 0.40791(17) 0.28603(15) 0.0324(3) Uani 1 1 d .
C15 C 0.0942(2) 0.56675(17) 0.11953(14) 0.0319(3) Uani 1 1 d .
C17 C 0.0398(2) 0.70111(17) 0.31110(15) 0.0355(4) Uani 1 1 d .
C20 C 0.1598(2) 0.42481(18) 0.10839(15) 0.0336(3) Uani 1 1 d .
C22 C 0.0254(3) 0.9284(2) 0.2898(2) 0.0498(5) Uani 1 1 d .
C24 C -0.1037(3) 0.7909(2) 0.41833(18) 0.0490(5) Uani 1 1 d .
H24 H -0.1769 0.7596 0.4850 0.059 Uiso 1 1 calc R
C25 C 0.3709(3) 0.4197(2) -0.08833(17) 0.0487(5) Uani 1 1 d .
H25 H 0.4651 0.3710 -0.1568 0.058 Uiso 1 1 calc R
C27 C 0.2965(3) 0.3494(2) 0.00657(17) 0.0435(4) Uani 1 1 d .
H27 H 0.3374 0.2532 0.0023 0.052 Uiso 1 1 calc R
C29 C 0.1677(3) 0.6352(2) 0.02046(16) 0.0404(4) Uani 1 1 d .
H29 H 0.1234 0.7314 0.0233 0.049 Uiso 1 1 calc R
C31 C -0.1117(3) 0.9203(2) 0.4050(2) 0.0586(6) Uani 1 1 d .
H31 H -0.1914 0.9945 0.4599 0.070 Uiso 1 1 calc R
C34 C 0.1944(3) 0.5900(2) 0.34298(19) 0.0473(5) Uani 1 1 d .
H34A H 0.2843 0.5373 0.2709 0.071 Uiso 1 1 calc GR
H34B H 0.1428 0.5299 0.3973 0.071 Uiso 1 1 calc GR
H34C H 0.2541 0.6325 0.3809 0.071 Uiso 1 1 calc GR
C36 C 0.3057(3) 0.5621(2) -0.08191(17) 0.0486(5) Uani 1 1 d .
H36 H 0.3547 0.6093 -0.1467 0.058 Uiso 1 1 calc R
C38 C 0.5168(3) 0.9365(2) 0.7954(2) 0.0550(5) Uani 1 1 d .
H38 H 0.6321 0.8996 0.8156 0.066 Uiso 1 1 calc R
loop_
_atom_site_aniso_label
_atom_site_aniso_U_11
_atom_site_aniso_U_22
_atom_site_aniso_U_33
_atom_site_aniso_U_23
_atom_site_aniso_U_13
_atom_site_aniso_U_12
Cl1A 0.0595(4) 0.0475(3) 0.1035(5) 0.0130(3) -0.0186(3) -0.0176(3)
Cl0A 0.0898(5) 0.0629(4) 0.0741(4) -0.0117(3) -0.0042(3) -0.0373(3)
Cl5 0.0794(5) 0.0805(5) 0.0737(4) -0.0128(4) 0.0059(3) -0.0307(4)
O2AA 0.0382(6) 0.0284(6) 0.0410(7) 0.0023(5) 0.0019(5) -0.0098(5)
O3 0.0391(6) 0.0301(6) 0.0496(7) -0.0049(5) 0.0002(5) -0.0195(5)
O1 0.0670(10) 0.0344(8) 0.0986(13) -0.0022(8) -0.0091(9) -0.0243(7)
N3 0.0368(8) 0.0443(9) 0.0544(10) -0.0027(7) 0.0024(7) -0.0186(7)
N5 0.0478(9) 0.0295(7) 0.0447(8) 0.0009(6) 0.0028(7) -0.0175(6)
C8 0.0280(7) 0.0262(7) 0.0356(8) 0.0018(6) -0.0058(6) -0.0113(6)
C9 0.0337(8) 0.0300(8) 0.0375(8) 0.0019(6) -0.0072(7) -0.0163(7)
C12 0.0290(7) 0.0294(8) 0.0329(8) 0.0006(6) -0.0048(6) -0.0137(6)
C13 0.0326(8) 0.0307(8) 0.0328(8) 0.0008(6) -0.0062(6) -0.0133(6)
C15 0.0302(8) 0.0355(8) 0.0315(8) 0.0011(6) -0.0074(6) -0.0153(6)
C17 0.0343(8) 0.0336(8) 0.0380(8) -0.0022(7) -0.0027(7) -0.0186(7)
C20 0.0320(8) 0.0355(8) 0.0321(8) 0.0013(6) -0.0055(6) -0.0147(7)
C22 0.0433(10) 0.0342(9) 0.0687(13) -0.0111(9) -0.0081(9) -0.0169(8)
C24 0.0434(10) 0.0578(12) 0.0429(10) -0.0140(9) 0.0025(8) -0.0269(9)
C25 0.0456(10) 0.0620(13) 0.0346(9) -0.0084(8) 0.0009(8) -0.0250(9)
C27 0.0413(10) 0.0424(10) 0.0405(9) -0.0065(8) -0.0034(8) -0.0146(8)
C29 0.0451(10) 0.0430(10) 0.0362(9) 0.0071(7) -0.0098(8) -0.0228(8)
C31 0.0500(11) 0.0489(12) 0.0658(13) -0.0270(10) 0.0025(10) -0.0189(9)
C34 0.0470(11) 0.0523(11) 0.0519(11) 0.0040(9) -0.0215(9) -0.0234(9)
C36 0.0522(11) 0.0651(13) 0.0324(9) 0.0058(8) -0.0050(8) -0.0336(10)
C38 0.0504(11) 0.0450(11) 0.0636(13) 0.0016(10) -0.0135(10) -0.0132(9)
loop_
_atom_type_symbol
_atom_type_description
_atom_type_scat_dispersion_real
_atom_type_scat_dispersion_imag
_atom_type_scat_source
C C 0.0033 0.0016 'International Tables Vol C Tables 4.2.6.8 and 6.1.1.4'
H H 0.0000 0.0000 'International Tables Vol C Tables 4.2.6.8 and 6.1.1.4'
N N 0.0061 0.0033 'International Tables Vol C Tables 4.2.6.8 and 6.1.1.4'
O O 0.0106 0.0060 'International Tables Vol C Tables 4.2.6.8 and 6.1.1.4'
Cl Cl 0.1484 0.1585 'International Tables Vol C Tables 4.2.6.8 and 6.1.1.4'
loop_
_geom_angle_atom_site_label_1
_geom_angle_atom_site_label_2
_geom_angle_atom_site_label_3
_geom_angle
C13 O2AA C20 117.90(13)
C22 O3 C17 110.16(14)
C12 C8 C15 109.31(13)
C12 C8 C17 112.01(13)
C15 C8 C17 111.66(13)
N3 C9 C12 179.54(19)
C9 C12 C8 120.06(14)
C13 C12 C8 122.11(14)
C13 C12 C9 117.77(14)
O2AA C13 C12 121.95(15)
N5 C13 O2AA 110.53(14)
N5 C13 C12 127.52(16)
C20 C15 C8 120.52(14)
C20 C15 C29 116.92(16)
C29 C15 C8 122.56(15)
O3 C17 C8 106.62(13)
O3 C17 C24 102.50(14)
O3 C17 C34 108.88(14)
C24 C17 C8 112.16(14)
C24 C17 C34 112.89(17)
C34 C17 C8 113.01(14)
C15 C20 O2AA 121.99(14)
C15 C20 C27 123.18(16)
C27 C20 O2AA 114.83(15)
O3 C22 C31 108.09(17)
O1 C22 O3 121.4(2)
O1 C22 C31 130.5(2)
C31 C24 C17 110.37(18)
C36 C25 C27 120.02(18)
C25 C27 C20 118.60(18)
C36 C29 C15 120.91(18)
C24 C31 C22 108.77(17)
C25 C36 C29 120.31(18)
Cl1A C38 Cl0A 109.83(14)
Cl1A C38 Cl5 111.02(12)
Cl5 C38 Cl0A 110.62(13)
loop_
_geom_bond_atom_site_label_1
_geom_bond_atom_site_label_2
_geom_bond_distance
Cl1A C38 1.751(2)
Cl0A C38 1.754(2)
Cl5 C38 1.752(2)
O2AA C13 1.3547(19)
O2AA C20 1.400(2)
O3 C17 1.459(2)
O3 C22 1.351(2)
O1 C22 1.204(3)
N3 C9 1.143(2)
N5 C13 1.336(2)
C8 C12 1.511(2)
C8 C15 1.511(2)
C8 C17 1.559(2)
C9 C12 1.413(2)
C12 C13 1.361(2)
C15 C20 1.373(2)
C15 C29 1.395(2)
C17 C24 1.496(2)
C17 C34 1.517(3)
C20 C27 1.384(2)
C22 C31 1.462(3)
C24 C31 1.314(3)
C25 C27 1.377(3)
C25 C36 1.376(3)
C29 C36 1.384(3)
