#------------------------------------------------------------------------------
#$Date: 2021-01-07 09:06:33 +0200 (Thu, 07 Jan 2021) $
#$Revision: 260815 $
#$URL: file:///home/coder/svn-repositories/cod/cif/7/15/77/7157750.cif $
#------------------------------------------------------------------------------
#
# This file is available in the Crystallography Open Database (COD),
# http://www.crystallography.net/
#
# All data on this site have been placed in the public domain by the
# contributors.
#
data_7157750
loop_
_publ_author_name
'Zhang, Yanhua'
'Lin, Yun'
'Hou, Qianqian'
'Liu, Xi'
'Pricl, Sabrina'
'Peng, Ling'
'Xia, Yi'
_publ_section_title
;
 Novel aryltriazole acyclic C-azanucleosides as anticancer candidates.
;
_journal_issue                   47
_journal_name_full               'Organic &amp; biomolecular chemistry'
_journal_page_first              9689
_journal_page_last               9699
_journal_paper_doi               10.1039/d0ob02164d
_journal_volume                  18
_journal_year                    2020
_chemical_absolute_configuration ad
_chemical_formula_moiety         'C11 H13 Cl N4 O'
_chemical_formula_sum            'C11 H13 Cl N4 O'
_chemical_formula_weight         252.70
_space_group_crystal_system      triclinic
_space_group_IT_number           1
_space_group_name_Hall           'P 1'
_space_group_name_H-M_alt        'P 1'
_atom_sites_solution_hydrogens   mixed
_atom_sites_solution_primary     dual
_audit_creation_date             2019-03-25
_audit_creation_method
;
Olex2 1.2-alpha
(compiled 2018.07.26 svn.r3523 for OlexSys, GUI svn.r5532)
;
_audit_update_record
;
2019-03-27 deposited with the CCDC.	2020-11-17 downloaded from the CCDC.
;
_cell_angle_alpha                97.735(11)
_cell_angle_beta                 94.192(11)
_cell_angle_gamma                92.200(11)
_cell_formula_units_Z            1
_cell_length_a                   4.4944(6)
_cell_length_b                   5.4263(7)
_cell_length_c                   12.2978(16)
_cell_measurement_reflns_used    528
_cell_measurement_temperature    293(2)
_cell_measurement_theta_max      22.6840
_cell_measurement_theta_min      3.9180
_cell_volume                     296.04(7)
_computing_molecular_graphics    'Olex2 (Dolomanov et al., 2009)'
_computing_publication_material  'Olex2 (Dolomanov et al., 2009)'
_computing_structure_refinement  'ShelXL (Sheldrick, 2015)'
_computing_structure_solution    'ShelXT (Sheldrick, 2015)'
_diffrn_ambient_temperature      293(2)
_diffrn_detector_area_resol_mean 16.0892
_diffrn_measured_fraction_theta_full 0.998
_diffrn_measured_fraction_theta_max 0.852
_diffrn_measurement_device_type  'SuperNova, Single source at offset/far, Eos'
_diffrn_measurement_method       '\w scans'
_diffrn_radiation_type           MoK\a
_diffrn_radiation_wavelength     0.71073
_diffrn_reflns_av_R_equivalents  0.0157
_diffrn_reflns_av_unetI/netI     0.0381
_diffrn_reflns_Laue_measured_fraction_full 0.998
_diffrn_reflns_Laue_measured_fraction_max 0.852
_diffrn_reflns_limit_h_max       5
_diffrn_reflns_limit_h_min       -6
_diffrn_reflns_limit_k_max       7
_diffrn_reflns_limit_k_min       -6
_diffrn_reflns_limit_l_max       12
_diffrn_reflns_limit_l_min       -15
_diffrn_reflns_number            2050
_diffrn_reflns_point_group_measured_fraction_full 0.611
_diffrn_reflns_point_group_measured_fraction_max 0.511
_diffrn_reflns_theta_full        26.000
_diffrn_reflns_theta_max         28.948
_diffrn_reflns_theta_min         3.794
_diffrn_source                   'micro-focus sealed X-ray tube'
_exptl_absorpt_coefficient_mu    0.312
_exptl_absorpt_correction_T_max  1.00000
_exptl_absorpt_correction_T_min  0.31624
_exptl_absorpt_correction_type   multi-scan
_exptl_absorpt_process_details
;
CrysAlisPro 1.171.39.46e (Rigaku Oxford Diffraction, 2018)
Empirical absorption correction using spherical harmonics,
 implemented in SCALE3 ABSPACK scaling algorithm.
;
_exptl_crystal_colour            colorless
_exptl_crystal_density_diffrn    1.417
_exptl_crystal_description       block
_exptl_crystal_F_000             132
_exptl_crystal_size_max          0.28
_exptl_crystal_size_mid          0.27
_exptl_crystal_size_min          0.24
_refine_diff_density_max         0.188
_refine_diff_density_min         -0.202
_refine_diff_density_rms         0.044
_refine_ls_abs_structure_details
;
 Flack x determined using 213 quotients [(I+)-(I-)]/[(I+)+(I-)]
 (Parsons, Flack and Wagner, Acta Cryst. B69 (2013) 249-259).
;
_refine_ls_abs_structure_Flack   0.10(8)
_refine_ls_extinction_method     none
_refine_ls_goodness_of_fit_ref   1.045
_refine_ls_hydrogen_treatment    mixed
_refine_ls_matrix_type           full
_refine_ls_number_parameters     158
_refine_ls_number_reflns         1604
_refine_ls_number_restraints     3
_refine_ls_restrained_S_all      1.044
_refine_ls_R_factor_all          0.0636
_refine_ls_R_factor_gt           0.0426
_refine_ls_shift/su_max          0.000
_refine_ls_shift/su_mean         0.000
_refine_ls_structure_factor_coef Fsqd
_refine_ls_weighting_details
'w=1/[\s^2^(Fo^2^)+(0.0529P)^2^+0.0062P] where P=(Fo^2^+2Fc^2^)/3'
_refine_ls_weighting_scheme      calc
_refine_ls_wR_factor_gt          0.0975
_refine_ls_wR_factor_ref         0.1135
_reflns_Friedel_coverage         0.200
_reflns_Friedel_fraction_full    0.224
_reflns_Friedel_fraction_max     0.170
_reflns_number_gt                1203
_reflns_number_total             1604
_reflns_threshold_expression     'I > 2\s(I)'
_iucr_refine_instructions_details
;

    20190325-xiayi-zyh-716.res created by SHELXL-2014/7

TITL 20190325-xiayi-zyh-716_a.res in P1
REM Old TITL 20190325-Xia Yi-ZYH-716 in P1 #1
REM SHELXT solution in P1
REM R1 0.158, Rweak 0.067, Alpha 0.000, Orientation as input
REM Flack x = 0.126 ( 0.066 ) from Parsons' quotients
REM Formula found by SHELXT: C13 N3 Cl
CELL 0.71073 4.494369 5.426276 12.297844 97.7346 94.1922 92.2001
ZERR 1 0.000639 0.000743 0.001628 0.0111 0.0112 0.0113
LATT -1
SFAC C H Cl N O
UNIT 11 13 1 4 1
 
L.S. 30
PLAN  20
BOND $H
LIST 6
MORE -1
CONF
fmap 2
acta 52
REM <olex2.extras>
REM <HklSrc "%.\\20190325-Xia%20Yi-ZYH-716.hkl">
REM </olex2.extras>
 
WGHT    0.052900    0.006200
FVAR       1.64469
CL1   3   -0.400369    0.833452    0.097509    11.00000    0.08697    0.08045 =
         0.06814    0.01646   -0.01441    0.00724
N2    4    0.350991    0.563385    0.473731    11.00000    0.04896    0.03461 =
         0.04877    0.00500    0.00417    0.00684
O1    5    1.400508    0.098513    0.812832    11.00000    0.04912    0.03938 =
         0.09936   -0.00474    0.00941    0.00276
AFIX 147
H1    2    1.540812    0.189128    0.800538    11.00000   -1.50000
AFIX   0
N1    4    0.903414    0.395892    0.775042    11.00000    0.04579    0.03855 =
         0.04425    0.00121    0.00041    0.00734
H1A   2    0.990819    0.318498    0.725169    11.00000   -1.20000
N3    4    0.471054    0.338766    0.468165    11.00000    0.07433    0.04469 =
         0.06319   -0.00572   -0.01022    0.01852
C6    1    0.159478    0.624515    0.384592    11.00000    0.04529    0.04038 =
         0.04272    0.00207    0.00896   -0.00338
N4    4    0.642426    0.337708    0.559445    11.00000    0.07916    0.04198 =
         0.06235   -0.00314   -0.00878    0.01265
C5    1    0.452936    0.705600    0.569001    11.00000    0.05695    0.03428 =
         0.05020    0.00021    0.00706    0.00561
AFIX  43
H5    2    0.407015    0.868947    0.592350    11.00000   -1.20000
AFIX   0
C3    1    0.817074    0.622070    0.730347    11.00000    0.04817    0.03330 =
         0.04983    0.00127    0.00522    0.00431
AFIX  23
H3A   2    0.995332    0.720107    0.720086    11.00000   -1.20000
H3B   2    0.703063    0.721298    0.782553    11.00000   -1.20000
AFIX   0
C4    1    0.635572    0.562260    0.623672    11.00000    0.04707    0.03370 =
         0.05473    0.00357    0.00955    0.00371
C10   1   -0.036931    0.533563    0.196089    11.00000    0.07577    0.05439 =
         0.04783    0.00257    0.00774    0.00160
AFIX  43
H10   2   -0.052873    0.431180    0.128701    11.00000   -1.20000
AFIX   0
C9    1   -0.190853    0.748612    0.210246    11.00000    0.04969    0.05291 =
         0.05197    0.01096    0.00155   -0.00089
C2    1    1.114430    0.453147    0.872102    11.00000    0.04863    0.04537 =
         0.05092   -0.00167    0.00357    0.00374
AFIX  23
H2A   2    1.011766    0.529566    0.933754    11.00000   -1.20000
H2B   2    1.270312    0.570392    0.857739    11.00000   -1.20000
AFIX   0
C11   1    0.142247    0.472557    0.284184    11.00000    0.06658    0.04996 =
         0.04814    0.00303    0.00598    0.01056
AFIX  43
H11   2    0.250832    0.329657    0.275865    11.00000   -1.20000
AFIX   0
C7    1   -0.004269    0.834458    0.397916    11.00000    0.05024    0.04085 =
         0.05365    0.00368    0.00289    0.00515
AFIX  43
H7    2    0.002792    0.934108    0.465868    11.00000   -1.20000
AFIX   0
C8    1   -0.177908    0.894845    0.309768    11.00000    0.05044    0.04375 =
         0.06202    0.00548    0.00593    0.00569
AFIX  43
H8    2   -0.287826    1.037000    0.318054    11.00000   -1.20000
AFIX   0
C1    1    1.251932    0.217746    0.900641    11.00000    0.05909    0.04597 =
         0.06517    0.01037   -0.00833    0.00272
AFIX  23
H1B   2    1.392567    0.258462    0.964834    11.00000   -1.20000
H1C   2    1.096452    0.104962    0.918962    11.00000   -1.20000
AFIX   0
HKLF 4
 
REM  20190325-xiayi-zyh-716_a.res in P1
REM R1 =  0.0426 for    1203 Fo > 4sig(Fo)  and  0.0636 for all    1604 data
REM    158 parameters refined using      3 restraints
 
END  
     
WGHT      0.0529      0.0062 

REM Highest difference peak  0.188,  deepest hole -0.202,  1-sigma level  0.044
Q1    1   1.1997  0.3687  0.9175  11.00000  0.05    0.18
Q2    1  -0.0863  0.5493  0.0718  11.00000  0.05    0.17
Q3    1   0.3496  0.3530  0.2811  11.00000  0.05    0.17
Q4    1   0.9607  0.8137  0.7516  11.00000  0.05    0.17
Q5    1   0.1416  0.0693  0.1972  11.00000  0.05    0.15
Q6    1  -0.0603  0.8999  0.2514  11.00000  0.05    0.15
Q7    1   1.4009  0.7651  0.8963  11.00000  0.05    0.15
Q8    1   0.0921  0.4518  0.1310  11.00000  0.05    0.15
Q9    1  -0.4619  0.6280  0.2552  11.00000  0.05    0.15
Q10   1  -0.3217  0.7283 -0.0081  11.00000  0.05    0.15
Q11   1   0.6468  0.7187  0.8072  11.00000  0.05    0.14
Q12   1   0.2415  0.6035  0.4328  11.00000  0.05    0.14
Q13   1  -0.1625  1.1101  0.2165  11.00000  0.05    0.14
Q14   1   1.3136 -0.1405  0.9612  11.00000  0.05    0.14
Q15   1   0.2531  0.6817  0.2758  11.00000  0.05    0.14
Q16   1   0.5142  0.2520  0.3726  11.00000  0.05    0.14
Q17   1   0.7539  0.5745  0.9035  11.00000  0.05    0.13
Q18   1   1.0984 -0.0615  0.8245  11.00000  0.05    0.13
Q19   1   1.2491  0.7925  0.7808  11.00000  0.05    0.13
Q20   1   0.3041  0.4588  0.0972  11.00000  0.05    0.13

  REM The information below was added by Olex2.
  REM
  REM R1 = 0.0426 for 1203 Fo > 4sig(Fo) and 0.0636 for all 2050 data
  REM n/a parameters refined using n/a restraints
  REM Highest difference peak 0.19, deepest hole -0.20
  REM Mean Shift 0, Max Shift 0.000.

  REM +++ Tabular Listing of Refinement Information +++
  REM R1_all = 0.0636
  REM R1_gt = 0.0426
  REM wR_ref = 0.1135
  REM GOOF = 1.045
  REM Shift_max = 0.000
  REM Shift_mean = 0
  REM Reflections_all = 2050
  REM Reflections_gt = 1203
  REM Parameters = n/a
  REM Hole = -0.20
  REM Peak = 0.19
  REM Flack = 0.10(8)

  
;
_cod_data_source_file            d0ob02164d2.cif
_cod_data_source_block           20190325-xiayi-zyh-716
_cod_depositor_comments          'Adding full bibliography for 7157750.cif.'
_cod_database_code               7157750
_shelx_shelxl_version_number     2014/7
_shelx_space_group_comment
;
The symmetry employed for this shelxl refinement is uniquely defined
by the following loop, which should always be used as a source of
symmetry information in preference to the above space-group names.
They are only intended as comments.
;
_olex2_refinement_description
;
1. Fixed Uiso
 At 1.2 times of:
  All C(H) groups, All C(H,H) groups, All N(H) groups
 At 1.5 times of:
  All O(H) groups
2.a Secondary CH2 refined with riding coordinates:
 C3(H3A,H3B), C2(H2A,H2B), C1(H1B,H1C)
2.b Aromatic/amide H refined with riding coordinates:
 C5(H5), C10(H10), C11(H11), C7(H7), C8(H8)
2.c Idealised tetrahedral OH refined as rotating group:
 O1(H1)
;
_olex2_submission_special_instructions 'No special instructions were received'
loop_
_space_group_symop_operation_xyz
'x, y, z'
loop_
_atom_site_label
_atom_site_type_symbol
_atom_site_fract_x
_atom_site_fract_y
_atom_site_fract_z
_atom_site_U_iso_or_equiv
_atom_site_adp_type
_atom_site_occupancy
_atom_site_site_symmetry_order
_atom_site_calc_flag
_atom_site_refinement_flags_posn
_atom_site_refinement_flags_adp
_atom_site_refinement_flags_occupancy
_atom_site_disorder_assembly
_atom_site_disorder_group
Cl1 Cl -0.4004(3) 0.8335(2) 0.09751(13) 0.0789(5) Uani 1 1 d . . . . .
N2 N 0.3510(8) 0.5634(7) 0.4737(3) 0.0440(9) Uani 1 1 d . . . . .
O1 O 1.4005(7) 0.0985(6) 0.8128(3) 0.0637(10) Uani 1 1 d . . . . .
H1 H 1.5408 0.1891 0.8005 0.096 Uiso 1 1 calc GR . . . .
N1 N 0.9034(8) 0.3959(7) 0.7750(3) 0.0433(9) Uani 1 1 d . . . . .
H1A H 0.991(11) 0.318(10) 0.725(4) 0.052 Uiso 1 1 d R . . . .
N3 N 0.4711(10) 0.3388(8) 0.4682(4) 0.0623(12) Uani 1 1 d . . . . .
C6 C 0.1595(9) 0.6245(8) 0.3846(4) 0.0430(11) Uani 1 1 d . . . . .
N4 N 0.6424(10) 0.3377(8) 0.5594(4) 0.0626(12) Uani 1 1 d . . . . .
C5 C 0.4529(10) 0.7056(8) 0.5690(4) 0.0474(11) Uani 1 1 d . . . . .
H5 H 0.4070 0.8689 0.5924 0.057 Uiso 1 1 calc R . . . .
C3 C 0.8171(10) 0.6221(8) 0.7303(4) 0.0441(10) Uani 1 1 d . . . . .
H3A H 0.9953 0.7201 0.7201 0.053 Uiso 1 1 calc R . . . .
H3B H 0.7031 0.7213 0.7826 0.053 Uiso 1 1 calc R . . . .
C4 C 0.6356(9) 0.5623(8) 0.6237(4) 0.0451(11) Uani 1 1 d . . . . .
C10 C -0.0369(11) 0.5336(9) 0.1961(4) 0.0596(14) Uani 1 1 d . . . . .
H10 H -0.0529 0.4312 0.1287 0.072 Uiso 1 1 calc R . . . .
C9 C -0.1909(10) 0.7486(9) 0.2102(4) 0.0514(12) Uani 1 1 d . . . . .
C2 C 1.1144(10) 0.4531(8) 0.8721(4) 0.0490(11) Uani 1 1 d . . . . .
H2A H 1.0118 0.5296 0.9338 0.059 Uiso 1 1 calc R . . . .
H2B H 1.2703 0.5704 0.8577 0.059 Uiso 1 1 calc R . . . .
C11 C 0.1422(11) 0.4726(9) 0.2842(4) 0.0550(13) Uani 1 1 d . . . . .
H11 H 0.2508 0.3297 0.2759 0.066 Uiso 1 1 calc R . . . .
C7 C -0.0043(10) 0.8345(9) 0.3979(4) 0.0485(11) Uani 1 1 d . . . . .
H7 H 0.0028 0.9341 0.4659 0.058 Uiso 1 1 calc R . . . .
C8 C -0.1779(10) 0.8948(9) 0.3098(4) 0.0521(12) Uani 1 1 d . . . . .
H8 H -0.2878 1.0370 0.3181 0.062 Uiso 1 1 calc R . . . .
C1 C 1.2519(11) 0.2177(9) 0.9006(4) 0.0571(13) Uani 1 1 d . . . . .
H1B H 1.3926 0.2585 0.9648 0.069 Uiso 1 1 calc R . . . .
H1C H 1.0965 0.1050 0.9190 0.069 Uiso 1 1 calc R . . . .
loop_
_atom_site_aniso_label
_atom_site_aniso_U_11
_atom_site_aniso_U_22
_atom_site_aniso_U_33
_atom_site_aniso_U_23
_atom_site_aniso_U_13
_atom_site_aniso_U_12
Cl1 0.0870(10) 0.0804(10) 0.0681(10) 0.0165(8) -0.0144(7) 0.0072(8)
N2 0.049(2) 0.035(2) 0.049(2) 0.0050(18) 0.0042(18) 0.0068(18)
O1 0.049(2) 0.0394(19) 0.099(3) -0.0047(19) 0.0094(19) 0.0028(15)
N1 0.046(2) 0.039(2) 0.044(2) 0.0012(17) 0.0004(16) 0.0073(17)
N3 0.074(3) 0.045(2) 0.063(3) -0.006(2) -0.010(2) 0.019(2)
C6 0.045(3) 0.040(2) 0.043(3) 0.002(2) 0.009(2) -0.003(2)
N4 0.079(3) 0.042(2) 0.062(3) -0.003(2) -0.009(2) 0.013(2)
C5 0.057(3) 0.034(2) 0.050(3) 0.000(2) 0.007(2) 0.006(2)
C3 0.048(2) 0.033(2) 0.050(3) 0.0013(19) 0.005(2) 0.004(2)
C4 0.047(2) 0.034(2) 0.055(3) 0.004(2) 0.010(2) 0.004(2)
C10 0.076(3) 0.054(3) 0.048(3) 0.003(2) 0.008(3) 0.002(3)
C9 0.050(3) 0.053(3) 0.052(3) 0.011(2) 0.002(2) -0.001(2)
C2 0.049(2) 0.045(3) 0.051(3) -0.002(2) 0.004(2) 0.004(2)
C11 0.067(3) 0.050(3) 0.048(3) 0.003(2) 0.006(3) 0.011(3)
C7 0.050(3) 0.041(3) 0.054(3) 0.004(2) 0.003(2) 0.005(2)
C8 0.050(3) 0.044(3) 0.062(3) 0.005(2) 0.006(2) 0.006(2)
C1 0.059(3) 0.046(3) 0.065(3) 0.010(2) -0.008(3) 0.003(2)
loop_
_atom_type_symbol
_atom_type_description
_atom_type_scat_dispersion_real
_atom_type_scat_dispersion_imag
_atom_type_scat_source
C C 0.0033 0.0016 'International Tables Vol C Tables 4.2.6.8 and 6.1.1.4'
H H 0.0000 0.0000 'International Tables Vol C Tables 4.2.6.8 and 6.1.1.4'
Cl Cl 0.1484 0.1585 'International Tables Vol C Tables 4.2.6.8 and 6.1.1.4'
N N 0.0061 0.0033 'International Tables Vol C Tables 4.2.6.8 and 6.1.1.4'
O O 0.0106 0.0060 'International Tables Vol C Tables 4.2.6.8 and 6.1.1.4'
loop_
_geom_angle_atom_site_label_1
_geom_angle_atom_site_label_2
_geom_angle_atom_site_label_3
_geom_angle
_geom_angle_site_symmetry_1
_geom_angle_site_symmetry_3
_geom_angle_publ_flag
N3 N2 C6 120.6(4) . . ?
N3 N2 C5 109.7(4) . . ?
C5 N2 C6 129.7(4) . . ?
C1 O1 H1 109.5 . . ?
C3 N1 H1A 104(4) . . ?
C2 N1 H1A 108(3) . . ?
C2 N1 C3 111.5(4) . . ?
N4 N3 N2 107.3(4) . . ?
C11 C6 N2 119.4(4) . . ?
C7 C6 N2 120.3(4) . . ?
C7 C6 C11 120.3(4) . . ?
N3 N4 C4 109.4(4) . . ?
N2 C5 H5 126.9 . . ?
N2 C5 C4 106.2(4) . . ?
C4 C5 H5 126.9 . . ?
N1 C3 H3A 109.3 . . ?
N1 C3 H3B 109.3 . . ?
N1 C3 C4 111.5(4) . . ?
H3A C3 H3B 108.0 . . ?
C4 C3 H3A 109.3 . . ?
C4 C3 H3B 109.3 . . ?
N4 C4 C3 122.1(4) . . ?
C5 C4 N4 107.5(4) . . ?
C5 C4 C3 130.3(4) . . ?
C9 C10 H10 120.6 . . ?
C9 C10 C11 118.7(5) . . ?
C11 C10 H10 120.6 . . ?
C10 C9 Cl1 118.7(4) . . ?
C8 C9 Cl1 120.3(4) . . ?
C8 C9 C10 121.1(4) . . ?
N1 C2 H2A 109.6 . . ?
N1 C2 H2B 109.6 . . ?
N1 C2 C1 110.1(4) . . ?
H2A C2 H2B 108.2 . . ?
C1 C2 H2A 109.6 . . ?
C1 C2 H2B 109.6 . . ?
C6 C11 C10 120.0(4) . . ?
C6 C11 H11 120.0 . . ?
C10 C11 H11 120.0 . . ?
C6 C7 H7 120.4 . . ?
C8 C7 C6 119.2(5) . . ?
C8 C7 H7 120.4 . . ?
C9 C8 C7 120.6(4) . . ?
C9 C8 H8 119.7 . . ?
C7 C8 H8 119.7 . . ?
O1 C1 C2 111.6(4) . . ?
O1 C1 H1B 109.3 . . ?
O1 C1 H1C 109.3 . . ?
C2 C1 H1B 109.3 . . ?
C2 C1 H1C 109.3 . . ?
H1B C1 H1C 108.0 . . ?
loop_
_geom_bond_atom_site_label_1
_geom_bond_atom_site_label_2
_geom_bond_distance
_geom_bond_site_symmetry_2
_geom_bond_publ_flag
Cl1 C9 1.742(5) . ?
N2 N3 1.347(5) . ?
N2 C6 1.426(5) . ?
N2 C5 1.352(6) . ?
O1 H1 0.8200 . ?
O1 C1 1.408(6) . ?
N1 H1A 0.83(5) . ?
N1 C3 1.465(5) . ?
N1 C2 1.460(5) . ?
N3 N4 1.315(6) . ?
C6 C11 1.385(6) . ?
C6 C7 1.378(6) . ?
N4 C4 1.363(6) . ?
C5 H5 0.9300 . ?
C5 C4 1.356(6) . ?
C3 H3A 0.9700 . ?
C3 H3B 0.9700 . ?
C3 C4 1.483(6) . ?
C10 H10 0.9300 . ?
C10 C9 1.377(6) . ?
C10 C11 1.386(7) . ?
C9 C8 1.362(7) . ?
C2 H2A 0.9700 . ?
C2 H2B 0.9700 . ?
C2 C1 1.512(6) . ?
C11 H11 0.9300 . ?
C7 H7 0.9300 . ?
C7 C8 1.372(7) . ?
C8 H8 0.9300 . ?
C1 H1B 0.9700 . ?
C1 H1C 0.9700 . ?
loop_
_geom_torsion_atom_site_label_1
_geom_torsion_atom_site_label_2
_geom_torsion_atom_site_label_3
_geom_torsion_atom_site_label_4
_geom_torsion
_geom_torsion_site_symmetry_1
_geom_torsion_site_symmetry_2
_geom_torsion_site_symmetry_3
_geom_torsion_site_symmetry_4
_geom_torsion_publ_flag
Cl1 C9 C8 C7 -177.5(4) . . . . ?
N2 N3 N4 C4 -0.5(6) . . . . ?
N2 C6 C11 C10 -178.3(4) . . . . ?
N2 C6 C7 C8 177.4(4) . . . . ?
N2 C5 C4 N4 0.7(5) . . . . ?
N2 C5 C4 C3 177.7(4) . . . . ?
N1 C3 C4 N4 -21.6(6) . . . . ?
N1 C3 C4 C5 161.8(4) . . . . ?
N1 C2 C1 O1 58.5(5) . . . . ?
N3 N2 C6 C11 -12.4(6) . . . . ?
N3 N2 C6 C7 168.4(5) . . . . ?
N3 N2 C5 C4 -1.1(5) . . . . ?
N3 N4 C4 C5 -0.1(6) . . . . ?
N3 N4 C4 C3 -177.4(4) . . . . ?
C6 N2 N3 N4 178.2(3) . . . . ?
C6 N2 C5 C4 -177.9(4) . . . . ?
C6 C7 C8 C9 0.5(7) . . . . ?
C5 N2 N3 N4 1.0(6) . . . . ?
C5 N2 C6 C11 164.2(5) . . . . ?
C5 N2 C6 C7 -15.1(6) . . . . ?
C3 N1 C2 C1 -167.2(4) . . . . ?
C10 C9 C8 C7 1.7(7) . . . . ?
C9 C10 C11 C6 1.2(7) . . . . ?
C2 N1 C3 C4 172.4(3) . . . . ?
C11 C6 C7 C8 -1.8(7) . . . . ?
C11 C10 C9 Cl1 176.7(4) . . . . ?
C11 C10 C9 C8 -2.5(7) . . . . ?
C7 C6 C11 C10 1.0(7) . . . . ?
