#------------------------------------------------------------------------------
#$Date: 2022-05-11 03:35:36 +0300 (Wed, 11 May 2022) $
#$Revision: 275316 $
#$URL: file:///home/coder/svn-repositories/cod/cif/7/15/86/7158691.cif $
#------------------------------------------------------------------------------
#
# This file is available in the Crystallography Open Database (COD),
# http://www.crystallography.net/
#
# All data on this site have been placed in the public domain by the
# contributors.
#
data_7158691
loop_
_publ_author_name
'Zhaojiang, Shi'
'Li, Nan'
'Wang, Wei-Zhen'
'Lu, Hao-Kuan'
'Yuan, Yaofeng'
'Li, Zhen'
'Ye, Ke-Yin'
_publ_section_title
;
 Electrochemical 5-exo-dig aza-cyclization of 2-alkynylbenzamides toward
 3-hydroxyisoindolinone derivatives
;
_journal_name_full               'Organic &amp; Biomolecular Chemistry'
_journal_paper_doi               10.1039/D2OB00637E
_journal_year                    2022
_chemical_formula_moiety         'C15 H9 Br O2'
_chemical_formula_sum            'C15 H9 Br O2'
_chemical_formula_weight         301.13
_space_group_crystal_system      triclinic
_space_group_IT_number           2
_space_group_name_Hall           '-P 1'
_space_group_name_H-M_alt        'P -1'
_atom_sites_solution_hydrogens   geom
_atom_sites_solution_primary     dual
_audit_creation_date             2021-10-01
_audit_creation_method
;
Olex2 1.3
(compiled 2020.11.12 svn.r5f609507 for OlexSys, GUI svn.r6226)
;
_audit_update_record
;
2021-10-13 deposited with the CCDC.	2022-05-09 downloaded from the CCDC.
;
_cell_angle_alpha                104.92(6)
_cell_angle_beta                 94.22(7)
_cell_angle_gamma                111.29(6)
_cell_formula_units_Z            2
_cell_length_a                   7.106(10)
_cell_length_b                   7.215(11)
_cell_length_c                   13.194(19)
_cell_measurement_reflns_used    4887
_cell_measurement_temperature    296.15
_cell_measurement_theta_max      24.683
_cell_measurement_theta_min      3.099
_cell_volume                     598.5(16)
_computing_cell_refinement       'SAINT V8.38A (Bruker, 2018)'
_computing_data_reduction        'SAINT V8.38A (Bruker, 2018)'
_computing_molecular_graphics    'Olex2 1.3 (Dolomanov et al., 2009)'
_computing_publication_material  'Olex2 1.3 (Dolomanov et al., 2009)'
_computing_structure_refinement  'SHELXL 2018/3 (Sheldrick, 2015)'
_computing_structure_solution    'SHELXT 2018/2 (Sheldrick, 2018)'
_diffrn_ambient_temperature      296.15
_diffrn_measured_fraction_theta_full 0.992
_diffrn_measured_fraction_theta_max 0.992
_diffrn_measurement_device_type  'CCD area detector'
_diffrn_measurement_method       'phi and omega scans'
_diffrn_radiation_monochromator  graphite
_diffrn_radiation_type           MoK\a
_diffrn_radiation_wavelength     0.71073
_diffrn_reflns_av_R_equivalents  0.0749
_diffrn_reflns_av_unetI/netI     0.0472
_diffrn_reflns_Laue_measured_fraction_full 0.992
_diffrn_reflns_Laue_measured_fraction_max 0.992
_diffrn_reflns_limit_h_max       8
_diffrn_reflns_limit_h_min       -8
_diffrn_reflns_limit_k_max       8
_diffrn_reflns_limit_k_min       -8
_diffrn_reflns_limit_l_max       15
_diffrn_reflns_limit_l_min       -15
_diffrn_reflns_number            12879
_diffrn_reflns_point_group_measured_fraction_full 0.992
_diffrn_reflns_point_group_measured_fraction_max 0.992
_diffrn_reflns_theta_full        25.109
_diffrn_reflns_theta_max         25.109
_diffrn_reflns_theta_min         3.100
_diffrn_source_current           1.4
_diffrn_source_power             0.07
_diffrn_source_voltage           50.0
_exptl_absorpt_coefficient_mu    3.423
_exptl_absorpt_correction_T_max  0.7452
_exptl_absorpt_correction_T_min  0.4856
_exptl_absorpt_correction_type   multi-scan
_exptl_absorpt_process_details
;
SADABS-2016/2 (Bruker,2016/2) was used for absorption correction.
wR2(int) was 0.1361 before and 0.0726 after correction.
The Ratio of minimum to maximum transmission is 0.6516.
The \l/2 correction factor is Not present.
;
_exptl_crystal_colour            'clear light white'
_exptl_crystal_colour_lustre     clear
_exptl_crystal_colour_modifier   light
_exptl_crystal_colour_primary    white
_exptl_crystal_density_diffrn    1.671
_exptl_crystal_description       plate
_exptl_crystal_F_000             300
_exptl_crystal_size_max          0.2
_exptl_crystal_size_mid          0.1
_exptl_crystal_size_min          0.1
_refine_diff_density_max         0.740
_refine_diff_density_min         -0.843
_refine_diff_density_rms         0.099
_refine_ls_extinction_method     none
_refine_ls_goodness_of_fit_ref   1.082
_refine_ls_hydrogen_treatment    constr
_refine_ls_matrix_type           full
_refine_ls_number_parameters     163
_refine_ls_number_reflns         2123
_refine_ls_number_restraints     0
_refine_ls_restrained_S_all      1.082
_refine_ls_R_factor_all          0.0572
_refine_ls_R_factor_gt           0.0423
_refine_ls_shift/su_max          0.001
_refine_ls_shift/su_mean         0.000
_refine_ls_structure_factor_coef Fsqd
_refine_ls_weighting_details
'w=1/[\s^2^(Fo^2^)+(0.0589P)^2^+0.1058P] where P=(Fo^2^+2Fc^2^)/3'
_refine_ls_weighting_scheme      calc
_refine_ls_wR_factor_gt          0.0973
_refine_ls_wR_factor_ref         0.1036
_reflns_Friedel_coverage         0.000
_reflns_number_gt                1749
_reflns_number_total             2123
_reflns_threshold_expression     'I > 2\s(I)'
_cod_data_source_file            d2ob00637e2.cif
_cod_data_source_block           ln22u2_0m
_cod_original_cell_volume        598.4(16)
_cod_database_code               7158691
_shelx_shelxl_version_number     2018/3
_shelx_space_group_comment
;
The symmetry employed for this shelxl refinement is uniquely defined
by the following loop, which should always be used as a source of
symmetry information in preference to the above space-group names.
They are only intended as comments.
;
_shelx_estimated_absorpt_t_max   0.726
_shelx_estimated_absorpt_t_min   0.548
_olex2_refinement_description
;
1. Fixed Uiso
 At 1.2 times of:
  All C(H) groups
2.a Aromatic/amide H refined with riding coordinates:
 C8(H008), C12(H009), C15(H00B), C14(H00C), C11(H00D), C6(H00E), C3(H00G),
 C5(H00H), C4(H00I)
;
_shelx_res_file
;
TITL ln22u2_0m_a.res in P-1
    ln22u2_0m.res
    created by SHELXL-2018/3 at 20:18:46 on 01-Oct-2021
REM Old TITL Integration of ln22u2
REM SHELXT solution in P-1: R1 0.159, Rweak 0.027, Alpha 0.053
REM <I/s> 0.000 for 0 systematic absences, Orientation as input
REM Formula found by SHELXT: C15 Br O2
CELL 0.71073 7.106 7.2146 13.194 104.925 94.221 111.291
ZERR 2 0.0102 0.0113 0.0194 0.057 0.067 0.056
LATT 1
SFAC C H Br O
UNIT 30 18 2 4

L.S. 4 0 0
PLAN  1
SIZE 0.1 0.1 0.2
TEMP 23
CONF
BOND
list 4
fmap 2 53
MORE -1
BOND $H
ACTA
REM <olex2.extras>
REM <HklSrc "%.\\ln22u2_0m.hkl">
REM </olex2.extras>

WGHT    0.058900    0.105800
FVAR       0.52035
BR1   3    0.682759    0.355004    0.939407    11.00000    0.05566    0.05798 =
         0.02332    0.00547   -0.00581    0.02947
O2    4    0.242594    0.455811    0.493666    11.00000    0.03245    0.02083 =
         0.02785    0.00702    0.00514    0.01076
O1    4    0.134846    0.639053    0.412049    11.00000    0.04051    0.02497 =
         0.04681    0.01288    0.00711    0.01685
C9    1    0.254826    0.270882    0.499239    11.00000    0.02465    0.01869 =
         0.02843    0.00595    0.00688    0.00730
C10   1    0.353149    0.290634    0.605546    11.00000    0.02446    0.02839 =
         0.02645    0.00925    0.00859    0.01000
C7    1    0.085141    0.104504    0.315131    11.00000    0.02529    0.02662 =
         0.02887    0.01176    0.00816    0.01144
C2    1    0.059460    0.286272    0.311490    11.00000    0.02642    0.02744 =
         0.02919    0.01010    0.00838    0.01229
C8    1    0.181641    0.101229    0.413510    11.00000    0.02882    0.02468 =
         0.02912    0.01164    0.00693    0.01374
AFIX  43
H008  2    0.193542   -0.020839    0.417785    11.00000   -1.20000
AFIX   0
C12   1    0.510504    0.495557    0.788578    11.00000    0.03447    0.03271 =
         0.02899    0.00190    0.00433    0.01064
AFIX  43
H009  2    0.549618    0.619403    0.844112    11.00000   -1.20000
AFIX   0
C13   1    0.547286    0.329098    0.804259    11.00000    0.03063    0.04119 =
         0.02523    0.00976    0.00310    0.01595
C15   1    0.389762    0.123445    0.624305    11.00000    0.02986    0.02781 =
         0.02808    0.00615    0.00473    0.01201
AFIX  43
H00B  2    0.348523   -0.001683    0.569439    11.00000   -1.20000
AFIX   0
C14   1    0.486059    0.141795    0.722949    11.00000    0.03420    0.03484 =
         0.02746    0.01085    0.00626    0.01587
AFIX  43
H00C  2    0.509789    0.029977    0.734942    11.00000   -1.20000
AFIX   0
C11   1    0.414155    0.475248    0.688563    11.00000    0.02908    0.03110 =
         0.02594    0.00730    0.00463    0.01169
AFIX  43
H00D  2    0.390149    0.587281    0.677065    11.00000   -1.20000
AFIX   0
C6    1    0.012032   -0.067288    0.222762    11.00000    0.03721    0.02711 =
         0.02560    0.00612    0.00480    0.01384
AFIX  43
H00E  2    0.027766   -0.189341    0.223692    11.00000   -1.20000
AFIX   0
C1    1    0.143019    0.472311    0.404972    11.00000    0.02459    0.03004 =
         0.03202    0.01376    0.00878    0.01237
C3    1   -0.037381    0.294340    0.218316    11.00000    0.03373    0.03712 =
         0.03776    0.02082    0.00875    0.01740
AFIX  43
H00G  2   -0.054104    0.415625    0.216715    11.00000   -1.20000
AFIX   0
C5    1   -0.082469   -0.058468    0.130873    11.00000    0.04092    0.03979 =
         0.02342    0.00346   -0.00049    0.01536
AFIX  43
H00H  2   -0.129303   -0.173975    0.069991    11.00000   -1.20000
AFIX   0
C4    1   -0.108920    0.122235    0.127967    11.00000    0.04011    0.05122 =
         0.02873    0.01653    0.00171    0.01733
AFIX  43
H00I  2   -0.174339    0.127112    0.065602    11.00000   -1.20000
AFIX   0
HKLF 4




REM  ln22u2_0m_a.res in P-1
REM wR2 = 0.1036, GooF = S = 1.082, Restrained GooF = 1.082 for all data
REM R1 = 0.0423 for 1749 Fo > 4sig(Fo) and 0.0572 for all 2123 data
REM 163 parameters refined using 0 restraints

END

WGHT      0.0589      0.1058

REM Highest difference peak  0.740,  deepest hole -0.843,  1-sigma level  0.099
Q1    1   0.6323  0.2019  0.9389  11.00000  0.05    0.74
;
_shelx_res_checksum              74101
_olex2_submission_special_instructions 'No special instructions were received'
loop_
_space_group_symop_operation_xyz
'x, y, z'
'-x, -y, -z'
loop_
_atom_site_label
_atom_site_type_symbol
_atom_site_fract_x
_atom_site_fract_y
_atom_site_fract_z
_atom_site_U_iso_or_equiv
_atom_site_adp_type
_atom_site_occupancy
_atom_site_site_symmetry_order
_atom_site_calc_flag
_atom_site_refinement_flags_posn
_atom_site_refinement_flags_adp
_atom_site_refinement_flags_occupancy
_atom_site_disorder_assembly
_atom_site_disorder_group
Br1 Br 0.68276(6) 0.35500(6) 0.93941(3) 0.0457(2) Uani 1 1 d . . . . .
O2 O 0.2426(3) 0.4558(3) 0.49367(19) 0.0271(5) Uani 1 1 d . . . . .
O1 O 0.1348(4) 0.6391(4) 0.4120(2) 0.0359(6) Uani 1 1 d . . . . .
C9 C 0.2548(5) 0.2709(5) 0.4992(3) 0.0245(7) Uani 1 1 d . . . . .
C10 C 0.3531(5) 0.2906(5) 0.6055(3) 0.0262(8) Uani 1 1 d . . . . .
C7 C 0.0851(5) 0.1045(5) 0.3151(3) 0.0257(8) Uani 1 1 d . . . . .
C2 C 0.0595(5) 0.2863(5) 0.3115(3) 0.0267(8) Uani 1 1 d . . . . .
C8 C 0.1816(5) 0.1012(5) 0.4135(3) 0.0258(7) Uani 1 1 d . . . . .
H008 H 0.193542 -0.020839 0.417785 0.031 Uiso 1 1 calc R U . . .
C12 C 0.5105(5) 0.4956(6) 0.7886(3) 0.0345(9) Uani 1 1 d . . . . .
H009 H 0.549618 0.619403 0.844112 0.041 Uiso 1 1 calc R U . . .
C13 C 0.5473(5) 0.3291(6) 0.8043(3) 0.0320(8) Uani 1 1 d . . . . .
C15 C 0.3898(5) 0.1234(5) 0.6243(3) 0.0289(8) Uani 1 1 d . . . . .
H00B H 0.348523 -0.001683 0.569439 0.035 Uiso 1 1 calc R U . . .
C14 C 0.4861(5) 0.1418(6) 0.7229(3) 0.0312(8) Uani 1 1 d . . . . .
H00C H 0.509789 0.029977 0.734942 0.037 Uiso 1 1 calc R U . . .
C11 C 0.4142(5) 0.4752(6) 0.6886(3) 0.0291(8) Uani 1 1 d . . . . .
H00D H 0.390149 0.587281 0.677065 0.035 Uiso 1 1 calc R U . . .
C6 C 0.0120(5) -0.0673(5) 0.2228(3) 0.0301(8) Uani 1 1 d . . . . .
H00E H 0.027766 -0.189341 0.223692 0.036 Uiso 1 1 calc R U . . .
C1 C 0.1430(5) 0.4723(6) 0.4050(3) 0.0274(8) Uani 1 1 d . . . . .
C3 C -0.0374(5) 0.2943(6) 0.2183(3) 0.0332(9) Uani 1 1 d . . . . .
H00G H -0.054104 0.415625 0.216715 0.040 Uiso 1 1 calc R U . . .
C5 C -0.0825(5) -0.0585(6) 0.1309(3) 0.0365(9) Uani 1 1 d . . . . .
H00H H -0.129303 -0.173975 0.069991 0.044 Uiso 1 1 calc R U . . .
C4 C -0.1089(5) 0.1222(6) 0.1280(3) 0.0396(9) Uani 1 1 d . . . . .
H00I H -0.174339 0.127112 0.065602 0.048 Uiso 1 1 calc R U . . .
loop_
_atom_site_aniso_label
_atom_site_aniso_U_11
_atom_site_aniso_U_22
_atom_site_aniso_U_33
_atom_site_aniso_U_23
_atom_site_aniso_U_13
_atom_site_aniso_U_12
Br1 0.0557(3) 0.0580(3) 0.0233(3) 0.00547(19) -0.00581(17) 0.0295(2)
O2 0.0325(12) 0.0208(13) 0.0278(14) 0.0070(10) 0.0051(10) 0.0108(10)
O1 0.0405(14) 0.0250(14) 0.0468(17) 0.0129(12) 0.0071(12) 0.0168(11)
C9 0.0247(17) 0.0187(18) 0.028(2) 0.0060(15) 0.0069(14) 0.0073(14)
C10 0.0245(17) 0.0284(19) 0.0265(19) 0.0093(15) 0.0086(14) 0.0100(14)
C7 0.0253(17) 0.027(2) 0.029(2) 0.0118(15) 0.0082(14) 0.0114(14)
C2 0.0264(17) 0.027(2) 0.029(2) 0.0101(15) 0.0084(14) 0.0123(14)
C8 0.0288(17) 0.0247(19) 0.029(2) 0.0116(15) 0.0069(14) 0.0137(14)
C12 0.0345(19) 0.033(2) 0.029(2) 0.0019(16) 0.0043(16) 0.0106(16)
C13 0.0306(18) 0.041(2) 0.0252(19) 0.0098(16) 0.0031(15) 0.0160(16)
C15 0.0299(18) 0.028(2) 0.028(2) 0.0062(15) 0.0047(15) 0.0120(15)
C14 0.0342(19) 0.035(2) 0.027(2) 0.0108(16) 0.0063(15) 0.0159(16)
C11 0.0291(18) 0.031(2) 0.026(2) 0.0073(16) 0.0046(15) 0.0117(15)
C6 0.0372(19) 0.027(2) 0.026(2) 0.0061(15) 0.0048(15) 0.0138(15)
C1 0.0246(17) 0.030(2) 0.032(2) 0.0138(16) 0.0088(14) 0.0124(15)
C3 0.0337(19) 0.037(2) 0.038(2) 0.0208(18) 0.0087(16) 0.0174(16)
C5 0.041(2) 0.040(2) 0.023(2) 0.0035(16) -0.0005(16) 0.0154(17)
C4 0.040(2) 0.051(3) 0.029(2) 0.0165(19) 0.0017(17) 0.0173(19)
loop_
_atom_type_symbol
_atom_type_description
_atom_type_scat_dispersion_real
_atom_type_scat_dispersion_imag
_atom_type_scat_source
C C 0.0033 0.0016 'International Tables Vol C Tables 4.2.6.8 and 6.1.1.4'
H H 0.0000 0.0000 'International Tables Vol C Tables 4.2.6.8 and 6.1.1.4'
Br Br -0.2901 2.4595 'International Tables Vol C Tables 4.2.6.8 and 6.1.1.4'
O O 0.0106 0.0060 'International Tables Vol C Tables 4.2.6.8 and 6.1.1.4'
loop_
_geom_angle_atom_site_label_1
_geom_angle_atom_site_label_2
_geom_angle_atom_site_label_3
_geom_angle
_geom_angle_site_symmetry_1
_geom_angle_site_symmetry_3
_geom_angle_publ_flag
C1 O2 C9 123.2(3) . . ?
O2 C9 C10 112.3(3) . . ?
C8 C9 O2 120.3(3) . . ?
C8 C9 C10 127.4(3) . . ?
C15 C10 C9 120.3(3) . . ?
C11 C10 C9 120.9(3) . . ?
C11 C10 C15 118.7(3) . . ?
C2 C7 C8 118.8(3) . . ?
C6 C7 C2 118.3(3) . . ?
C6 C7 C8 122.9(3) . . ?
C7 C2 C1 119.8(3) . . ?
C3 C2 C7 120.6(3) . . ?
C3 C2 C1 119.5(3) . . ?
C9 C8 C7 121.0(3) . . ?
C9 C8 H008 119.5 . . ?
C7 C8 H008 119.5 . . ?
C13 C12 H009 120.5 . . ?
C13 C12 C11 118.9(3) . . ?
C11 C12 H009 120.5 . . ?
C12 C13 Br1 119.6(3) . . ?
C12 C13 C14 121.3(4) . . ?
C14 C13 Br1 119.1(3) . . ?
C10 C15 H00B 119.6 . . ?
C14 C15 C10 120.8(3) . . ?
C14 C15 H00B 119.6 . . ?
C13 C14 H00C 120.4 . . ?
C15 C14 C13 119.2(3) . . ?
C15 C14 H00C 120.4 . . ?
C10 C11 C12 121.0(4) . . ?
C10 C11 H00D 119.5 . . ?
C12 C11 H00D 119.5 . . ?
C7 C6 H00E 119.5 . . ?
C5 C6 C7 120.9(3) . . ?
C5 C6 H00E 119.5 . . ?
O2 C1 C2 116.6(3) . . ?
O1 C1 O2 116.7(3) . . ?
O1 C1 C2 126.6(3) . . ?
C2 C3 H00G 120.0 . . ?
C4 C3 C2 120.1(4) . . ?
C4 C3 H00G 120.0 . . ?
C6 C5 H00H 119.8 . . ?
C6 C5 C4 120.5(3) . . ?
C4 C5 H00H 119.8 . . ?
C3 C4 C5 119.6(4) . . ?
C3 C4 H00I 120.2 . . ?
C5 C4 H00I 120.2 . . ?
loop_
_geom_bond_atom_site_label_1
_geom_bond_atom_site_label_2
_geom_bond_distance
_geom_bond_site_symmetry_2
_geom_bond_publ_flag
Br1 C13 1.894(5) . ?
O2 C9 1.388(4) . ?
O2 C1 1.377(5) . ?
O1 C1 1.205(4) . ?
C9 C10 1.468(5) . ?
C9 C8 1.336(5) . ?
C10 C15 1.399(5) . ?
C10 C11 1.386(5) . ?
C7 C2 1.400(5) . ?
C7 C8 1.433(5) . ?
C7 C6 1.397(5) . ?
C2 C1 1.462(6) . ?
C2 C3 1.389(5) . ?
C8 H008 0.9300 . ?
C12 H009 0.9300 . ?
C12 C13 1.379(6) . ?
C12 C11 1.388(5) . ?
C13 C14 1.387(6) . ?
C15 H00B 0.9300 . ?
C15 C14 1.376(5) . ?
C14 H00C 0.9300 . ?
C11 H00D 0.9300 . ?
C6 H00E 0.9300 . ?
C6 C5 1.370(5) . ?
C3 H00G 0.9300 . ?
C3 C4 1.382(6) . ?
C5 H00H 0.9300 . ?
C5 C4 1.393(6) . ?
C4 H00I 0.9300 . ?
loop_
_geom_torsion_atom_site_label_1
_geom_torsion_atom_site_label_2
_geom_torsion_atom_site_label_3
_geom_torsion_atom_site_label_4
_geom_torsion
_geom_torsion_site_symmetry_1
_geom_torsion_site_symmetry_2
_geom_torsion_site_symmetry_3
_geom_torsion_site_symmetry_4
_geom_torsion_publ_flag
Br1 C13 C14 C15 -179.2(2) . . . . ?
O2 C9 C10 C15 -176.2(3) . . . . ?
O2 C9 C10 C11 2.8(4) . . . . ?
O2 C9 C8 C7 -1.5(5) . . . . ?
C9 O2 C1 O1 176.5(3) . . . . ?
C9 O2 C1 C2 -4.0(4) . . . . ?
C9 C10 C15 C14 178.5(3) . . . . ?
C9 C10 C11 C12 -178.8(3) . . . . ?
C10 C9 C8 C7 178.6(3) . . . . ?
C10 C15 C14 C13 -0.1(5) . . . . ?
C7 C2 C1 O2 -0.7(4) . . . . ?
C7 C2 C1 O1 178.7(3) . . . . ?
C7 C2 C3 C4 -0.2(5) . . . . ?
C7 C6 C5 C4 -0.5(5) . . . . ?
C2 C7 C8 C9 -3.1(5) . . . . ?
C2 C7 C6 C5 0.0(5) . . . . ?
C2 C3 C4 C5 -0.3(5) . . . . ?
C8 C9 C10 C15 3.7(5) . . . . ?
C8 C9 C10 C11 -177.3(3) . . . . ?
C8 C7 C2 C1 4.1(4) . . . . ?
C8 C7 C2 C3 -178.6(3) . . . . ?
C8 C7 C6 C5 178.9(3) . . . . ?
C12 C13 C14 C15 1.1(5) . . . . ?
C13 C12 C11 C10 0.7(5) . . . . ?
C15 C10 C11 C12 0.2(5) . . . . ?
C11 C10 C15 C14 -0.5(5) . . . . ?
C11 C12 C13 Br1 178.9(2) . . . . ?
C11 C12 C13 C14 -1.4(5) . . . . ?
C6 C7 C2 C1 -177.0(3) . . . . ?
C6 C7 C2 C3 0.3(5) . . . . ?
C6 C7 C8 C9 178.1(3) . . . . ?
C6 C5 C4 C3 0.6(5) . . . . ?
C1 O2 C9 C10 -174.9(3) . . . . ?
C1 O2 C9 C8 5.2(4) . . . . ?
C1 C2 C3 C4 177.1(3) . . . . ?
C3 C2 C1 O2 -178.1(3) . . . . ?
C3 C2 C1 O1 1.4(5) . . . . ?
