#------------------------------------------------------------------------------
#$Date: 2021-09-06 15:23:49 +0300 (Mon, 06 Sep 2021) $
#$Revision: 268916 $
#$URL: file:///home/coder/svn-repositories/cod/cif/7/15/81/7158131.cif $
#------------------------------------------------------------------------------
#
# This file is available in the Crystallography Open Database (COD),
# http://www.crystallography.net/
#
# All data on this site have been placed in the public domain by the
# contributors.
#
data_7158131
loop_
_publ_author_name
'Shelar, Santosh V.'
'Argade, Narshinha P.'
_publ_section_title
;
 Facile synthesis of indolizinoindolone, indolylepoxypyrrolooxazole,
 indolylpyrrolooxazolone and isoindolopyrazinoindolone heterocycles from
 indole and imide derivatives.
;
_journal_issue                   27
_journal_name_full               'Organic &amp; biomolecular chemistry'
_journal_page_first              6160
_journal_page_last               6169
_journal_paper_doi               10.1039/d1ob00754h
_journal_volume                  19
_journal_year                    2021
_chemical_formula_moiety         'C18 H14 N2 O2'
_chemical_formula_sum            'C18 H14 N2 O2'
_chemical_formula_weight         290.31
_space_group_crystal_system      triclinic
_space_group_IT_number           2
_space_group_name_Hall           '-P 1'
_space_group_name_H-M_alt        'P -1'
_atom_sites_solution_hydrogens   mixed
_audit_creation_date             2021-02-08
_audit_creation_method
;
Olex2 1.2
(compiled 2018.05.29 svn.r3508 for OlexSys, GUI svn.r5506)
;
_audit_update_record
;
2021-03-17 deposited with the CCDC.	2021-06-21 downloaded from the CCDC.
;
_cell_angle_alpha                99.055(4)
_cell_angle_beta                 105.174(4)
_cell_angle_gamma                103.419(4)
_cell_formula_units_Z            2
_cell_length_a                   7.2558(7)
_cell_length_b                   9.8044(10)
_cell_length_c                   10.5031(10)
_cell_measurement_reflns_used    9992
_cell_measurement_temperature    100(2)
_cell_measurement_theta_max      35.67
_cell_measurement_theta_min      2.20
_cell_volume                     682.24(12)
_computing_cell_refinement       'SAINT V8.40A (?, 2016)'
_computing_data_reduction        'SAINT V8.40A (?, 2016)'
_computing_molecular_graphics    'Olex2 (Dolomanov et al., 2009)'
_computing_publication_material  'Olex2 (Dolomanov et al., 2009)'
_computing_structure_refinement  'XL (Sheldrick, 2008)'
_computing_structure_solution    'SHELXT 2014/5 (Sheldrick, 2014)'
_diffrn_ambient_temperature      100.0
_diffrn_measured_fraction_theta_full 0.994
_diffrn_measured_fraction_theta_max 0.993
_diffrn_measurement_device_type  'Bruker D8 VENTURE Kappa Duo PHOTON II CPAD'
_diffrn_measurement_method       '\f and \w scans'
_diffrn_radiation_type           MoK\a
_diffrn_radiation_wavelength     0.71073
_diffrn_reflns_av_R_equivalents  0.0647
_diffrn_reflns_av_unetI/netI     0.0477
_diffrn_reflns_Laue_measured_fraction_full 0.994
_diffrn_reflns_Laue_measured_fraction_max 0.993
_diffrn_reflns_limit_h_max       9
_diffrn_reflns_limit_h_min       -9
_diffrn_reflns_limit_k_max       12
_diffrn_reflns_limit_k_min       -12
_diffrn_reflns_limit_l_max       13
_diffrn_reflns_limit_l_min       -13
_diffrn_reflns_number            13705
_diffrn_reflns_point_group_measured_fraction_full 0.994
_diffrn_reflns_point_group_measured_fraction_max 0.993
_diffrn_reflns_theta_full        25.242
_diffrn_reflns_theta_max         26.496
_diffrn_reflns_theta_min         2.196
_diffrn_standards_number         0
_exptl_absorpt_coefficient_mu    0.094
_exptl_absorpt_correction_T_max  0.7470
_exptl_absorpt_correction_T_min  0.6098
_exptl_absorpt_correction_type   multi-scan
_exptl_absorpt_process_details
'SADABS-2016/2 (Bruker,2016/2) was used for absorption correction. wR2(int) was 0.1347 before and 0.0804 after correction. The Ratio of minimum to maximum transmission is 0.8163. The \l/2 correction factor is Not present.'
_exptl_crystal_colour            colourless
_exptl_crystal_colour_primary    colourless
_exptl_crystal_density_diffrn    1.413
_exptl_crystal_description       block
_exptl_crystal_F_000             304
_exptl_crystal_size_max          0.12
_exptl_crystal_size_mid          0.12
_exptl_crystal_size_min          0.08
_refine_diff_density_max         0.347
_refine_diff_density_min         -0.387
_refine_diff_density_rms         0.113
_refine_ls_extinction_method     none
_refine_ls_goodness_of_fit_ref   1.105
_refine_ls_hydrogen_treatment    mixed
_refine_ls_matrix_type           full
_refine_ls_number_parameters     203
_refine_ls_number_reflns         2806
_refine_ls_number_restraints     0
_refine_ls_restrained_S_all      1.105
_refine_ls_R_factor_all          0.0549
_refine_ls_R_factor_gt           0.0466
_refine_ls_shift/su_max          0.000
_refine_ls_shift/su_mean         0.000
_refine_ls_structure_factor_coef Fsqd
_refine_ls_weighting_details
'w=1/[\s^2^(Fo^2^)+(0.0656P)^2^+0.3229P] where P=(Fo^2^+2Fc^2^)/3'
_refine_ls_weighting_scheme      calc
_refine_ls_wR_factor_gt          0.1259
_refine_ls_wR_factor_ref         0.1310
_reflns_Friedel_coverage         0.000
_reflns_number_gt                2473
_reflns_number_total             2806
_reflns_threshold_expression     'I > 2\s(I)'
_cod_data_source_file            d1ob00754h2.cif
_cod_data_source_block           38
_cod_depositor_comments
'Adding full bibliography for 7158131--7158132.cif.'
_cod_database_code               7158131
_shelx_shelxl_version_number     2014/7
_shelx_space_group_comment
;
The symmetry employed for this shelxl refinement is uniquely defined
by the following loop, which should always be used as a source of
symmetry information in preference to the above space-group names.
They are only intended as comments.
;
_shelx_estimated_absorpt_t_max   0.993
_shelx_estimated_absorpt_t_min   0.989
_olex2_refinement_description
;
1. Fixed Uiso
 At 1.2 times of:
  All C(H) groups, All C(H,H) groups
2.a Secondary CH2 refined with riding coordinates:
 C14(H14A,H14B), C15(H15A,H15B)
2.b Aromatic/amide H refined with riding coordinates:
 C1(H1A), C2(H2), C7(H7), C8(H8), C9(H9), C10(H10), C11(H11), C13(H13), C18(H18)
;
_shelx_res_file
;
    mo_rgd_5_0m_a.res created by SHELXL-2014/7

TITL mo_rgd_5_0m_a.res in P-1
CELL 0.71073 7.2558 9.8044 10.5031 99.055 105.174 103.419
ZERR 2 0.0007 0.001 0.001 0.004 0.004 0.004
LATT 1
SFAC C H N O
UNIT 36 28 4 4

L.S. 4
PLAN  -4 0 0
SIZE 0.08 0.12 0.12
TEMP -173.15
HTAB
BOND $H
CONF
fmap 2
acta
OMIT -3 53
REM <olex2.extras>
REM <HklSrc "%.\\mo_rgd_5_0m_a.hkl">
REM </olex2.extras>

WGHT    0.065600    0.322900
FVAR       0.93031
O1    4    0.617703    0.728163    0.437362    11.00000    0.01510    0.01653 =
         0.01988    0.00024    0.00367    0.00447
O2    4    0.253853    1.028170    0.351646    11.00000    0.02073    0.01384 =
         0.01797    0.00320    0.00572    0.00537
N1    3    0.311542    0.591294    0.130454    11.00000    0.01801    0.01256 =
         0.01581    0.00345    0.00644    0.00354
N2    3    0.384906    0.837476    0.319001    11.00000    0.01878    0.01204 =
         0.01751    0.00465    0.00858    0.00398
C1    1    0.158205    0.263359   -0.146468    11.00000    0.01734    0.02458 =
         0.01850   -0.00100    0.00485    0.00578
AFIX  43
H1A   2    0.125248    0.229971   -0.241824    11.00000   -1.20000
AFIX   0
C2    1    0.211164    0.409878   -0.091052    11.00000    0.02021    0.02081 =
         0.01907    0.00529    0.00598    0.00626
AFIX  43
H2    2    0.217572    0.477708   -0.146307    11.00000   -1.20000
AFIX   0
C3    1    0.254889    0.454314    0.049357    11.00000    0.01321    0.01382 =
         0.01954    0.00244    0.00547    0.00341
C4    1    0.335528    0.579136    0.263174    11.00000    0.01345    0.01638 =
         0.01618    0.00409    0.00645    0.00503
C5    1    0.411945    0.712893    0.375878    11.00000    0.01490    0.01240 =
         0.01796    0.00471    0.00556    0.00386
C6    1    0.298983    0.720359    0.478699    11.00000    0.01348    0.01507 =
         0.01469    0.00252    0.00354    0.00198
C7    1    0.259311    0.627587    0.561636    11.00000    0.01953    0.01655 =
         0.01870    0.00496    0.00563    0.00557
AFIX  43
H7    2    0.299921    0.542020    0.557604    11.00000   -1.20000
AFIX   0
C8    1    0.157375    0.665105    0.651160    11.00000    0.02495    0.02106 =
         0.01965    0.00914    0.00952    0.00482
AFIX  43
H8    2    0.124904    0.602167    0.707222    11.00000   -1.20000
AFIX   0
C9    1    0.101919    0.792224    0.660615    11.00000    0.01991    0.02330 =
         0.01772    0.00385    0.00902    0.00560
AFIX  43
H9    2    0.035221    0.815659    0.724011    11.00000   -1.20000
AFIX   0
C10   1    0.152081    0.162837   -0.064842    11.00000    0.01738    0.01441 =
         0.02698   -0.00154    0.00821    0.00176
AFIX  43
H10   2    0.115471    0.062943   -0.105995    11.00000   -1.20000
AFIX   0
C11   1    0.198516    0.206808    0.074720    11.00000    0.01814    0.01465 =
         0.02458    0.00402    0.01039    0.00363
AFIX  43
H11   2    0.196602    0.138312    0.129416    11.00000   -1.20000
AFIX   0
C12   1    0.248556    0.355080    0.133668    11.00000    0.01216    0.01569 =
         0.01957    0.00373    0.00618    0.00352
C13   1    0.300116    0.437825    0.269324    11.00000    0.01660    0.01552 =
         0.01839    0.00548    0.00726    0.00507
AFIX  43
H13   2    0.308177    0.401364    0.348605    11.00000   -1.20000
AFIX   0
C14   1    0.316786    0.723161    0.081414    11.00000    0.02136    0.01380 =
         0.01798    0.00602    0.00800    0.00577
AFIX  23
H14A  2    0.179312    0.729215    0.044852    11.00000   -1.20000
H14B  2    0.377764    0.721474    0.007382    11.00000   -1.20000
AFIX   0
C15   1    0.438019    0.854483    0.197460    11.00000    0.02048    0.01391 =
         0.01989    0.00631    0.01133    0.00409
AFIX  23
H15A  2    0.582052    0.865035    0.214889    11.00000   -1.20000
H15B  2    0.411222    0.942654    0.172010    11.00000   -1.20000
AFIX   0
C16   1    0.290506    0.918164    0.380631    11.00000    0.01231    0.01171 =
         0.01554    0.00063    0.00265    0.00079
C17   1    0.239854    0.845548    0.486180    11.00000    0.01368    0.01434 =
         0.01499    0.00244    0.00340    0.00193
C18   1    0.143502    0.885002    0.577935    11.00000    0.01691    0.01678 =
         0.01748    0.00225    0.00539    0.00516
AFIX  43
H18   2    0.107284    0.972346    0.583974    11.00000   -1.20000
AFIX   0
H1    2    0.665872    0.806959    0.508588    11.00000    0.04725
HKLF 4

REM  mo_rgd_5_0m_a.res in P-1
REM R1 =  0.0466 for    2473 Fo > 4sig(Fo)  and  0.0549 for all    2806 data
REM    203 parameters refined using      0 restraints

END

WGHT      0.0656      0.3229

REM Instructions for potential hydrogen bonds
EQIV $1 -x+1, -y+2, -z+1
HTAB O1 O2_$1

REM Highest difference peak  0.347,  deepest hole -0.387,  1-sigma level  0.113
Q1    1   0.1067  0.7132  0.6355  11.00000  0.05    0.35
Q2    1   0.1683  0.7376  0.6571  11.00000  0.05    0.35
Q3    1   0.3817  0.5107  0.2815  11.00000  0.05    0.32
Q4    1   0.2592  0.3823  0.2070  11.00000  0.05    0.31
;
_shelx_res_checksum              12130
_olex2_submission_special_instructions 'No special instructions were received'
loop_
_space_group_symop_operation_xyz
'x, y, z'
'-x, -y, -z'
loop_
_atom_site_label
_atom_site_type_symbol
_atom_site_fract_x
_atom_site_fract_y
_atom_site_fract_z
_atom_site_U_iso_or_equiv
_atom_site_adp_type
_atom_site_occupancy
_atom_site_site_symmetry_order
_atom_site_calc_flag
_atom_site_refinement_flags_posn
_atom_site_refinement_flags_adp
_atom_site_refinement_flags_occupancy
_atom_site_disorder_assembly
_atom_site_disorder_group
O1 O 0.61770(16) 0.72816(12) 0.43736(11) 0.0180(3) Uani 1 1 d . . . . .
O2 O 0.25385(16) 1.02817(11) 0.35165(11) 0.0176(3) Uani 1 1 d . . . . .
N1 N 0.31154(19) 0.59129(13) 0.13045(13) 0.0154(3) Uani 1 1 d . . . . .
N2 N 0.3849(2) 0.83748(13) 0.31900(13) 0.0154(3) Uani 1 1 d . . . . .
C1 C 0.1582(2) 0.26336(18) -0.14647(16) 0.0210(4) Uani 1 1 d . . . . .
H1A H 0.1252 0.2300 -0.2418 0.025 Uiso 1 1 calc R . . . .
C2 C 0.2112(2) 0.40988(17) -0.09105(16) 0.0199(3) Uani 1 1 d . . . . .
H2 H 0.2176 0.4777 -0.1463 0.024 Uiso 1 1 calc R . . . .
C3 C 0.2549(2) 0.45431(16) 0.04936(15) 0.0157(3) Uani 1 1 d . . . . .
C4 C 0.3355(2) 0.57914(16) 0.26317(15) 0.0148(3) Uani 1 1 d . . . . .
C5 C 0.4119(2) 0.71289(15) 0.37588(15) 0.0149(3) Uani 1 1 d . . . . .
C6 C 0.2990(2) 0.72036(16) 0.47870(15) 0.0151(3) Uani 1 1 d . . . . .
C7 C 0.2593(2) 0.62759(17) 0.56164(15) 0.0181(3) Uani 1 1 d . . . . .
H7 H 0.2999 0.5420 0.5576 0.022 Uiso 1 1 calc R . . . .
C8 C 0.1574(3) 0.66511(17) 0.65116(16) 0.0212(4) Uani 1 1 d . . . . .
H8 H 0.1249 0.6022 0.7072 0.025 Uiso 1 1 calc R . . . .
C9 C 0.1019(2) 0.79222(18) 0.66062(16) 0.0199(3) Uani 1 1 d . . . . .
H9 H 0.0352 0.8157 0.7240 0.024 Uiso 1 1 calc R . . . .
C10 C 0.1521(2) 0.16284(17) -0.06484(17) 0.0206(4) Uani 1 1 d . . . . .
H10 H 0.1155 0.0629 -0.1060 0.025 Uiso 1 1 calc R . . . .
C11 C 0.1985(2) 0.20681(17) 0.07472(16) 0.0186(3) Uani 1 1 d . . . . .
H11 H 0.1966 0.1383 0.1294 0.022 Uiso 1 1 calc R . . . .
C12 C 0.2486(2) 0.35508(16) 0.13367(15) 0.0157(3) Uani 1 1 d . . . . .
C13 C 0.3001(2) 0.43783(16) 0.26932(15) 0.0162(3) Uani 1 1 d . . . . .
H13 H 0.3082 0.4014 0.3486 0.019 Uiso 1 1 calc R . . . .
C14 C 0.3168(2) 0.72316(16) 0.08141(15) 0.0169(3) Uani 1 1 d . . . . .
H14A H 0.1793 0.7292 0.0449 0.020 Uiso 1 1 calc R . . . .
H14B H 0.3778 0.7215 0.0074 0.020 Uiso 1 1 calc R . . . .
C15 C 0.4380(2) 0.85448(16) 0.19746(15) 0.0169(3) Uani 1 1 d . . . . .
H15A H 0.5821 0.8650 0.2149 0.020 Uiso 1 1 calc R . . . .
H15B H 0.4112 0.9427 0.1720 0.020 Uiso 1 1 calc R . . . .
C16 C 0.2905(2) 0.91816(15) 0.38063(14) 0.0143(3) Uani 1 1 d . . . . .
C17 C 0.2399(2) 0.84555(16) 0.48618(15) 0.0150(3) Uani 1 1 d . . . . .
C18 C 0.1435(2) 0.88500(16) 0.57793(15) 0.0172(3) Uani 1 1 d . . . . .
H18 H 0.1073 0.9723 0.5840 0.021 Uiso 1 1 calc R . . . .
H1 H 0.666(4) 0.807(3) 0.509(3) 0.047(7) Uiso 1 1 d . . . . .
loop_
_atom_site_aniso_label
_atom_site_aniso_U_11
_atom_site_aniso_U_22
_atom_site_aniso_U_33
_atom_site_aniso_U_23
_atom_site_aniso_U_13
_atom_site_aniso_U_12
O1 0.0151(6) 0.0165(6) 0.0199(6) 0.0002(4) 0.0037(4) 0.0045(4)
O2 0.0207(6) 0.0138(5) 0.0180(5) 0.0032(4) 0.0057(4) 0.0054(4)
N1 0.0180(6) 0.0126(6) 0.0158(6) 0.0035(5) 0.0064(5) 0.0035(5)
N2 0.0188(6) 0.0120(6) 0.0175(6) 0.0047(5) 0.0086(5) 0.0040(5)
C1 0.0173(8) 0.0246(8) 0.0185(7) -0.0010(6) 0.0048(6) 0.0058(6)
C2 0.0202(8) 0.0208(8) 0.0191(7) 0.0053(6) 0.0060(6) 0.0063(6)
C3 0.0132(7) 0.0138(7) 0.0195(7) 0.0024(6) 0.0055(6) 0.0034(6)
C4 0.0135(7) 0.0164(7) 0.0162(7) 0.0041(6) 0.0065(6) 0.0050(6)
C5 0.0149(7) 0.0124(7) 0.0180(7) 0.0047(6) 0.0056(6) 0.0039(6)
C6 0.0135(7) 0.0151(7) 0.0147(7) 0.0025(5) 0.0035(6) 0.0020(6)
C7 0.0195(8) 0.0166(7) 0.0187(7) 0.0050(6) 0.0056(6) 0.0056(6)
C8 0.0249(8) 0.0211(8) 0.0196(8) 0.0091(6) 0.0095(7) 0.0048(6)
C9 0.0199(8) 0.0233(8) 0.0177(7) 0.0039(6) 0.0090(6) 0.0056(6)
C10 0.0174(8) 0.0144(7) 0.0270(8) -0.0015(6) 0.0082(7) 0.0018(6)
C11 0.0181(8) 0.0146(7) 0.0246(8) 0.0040(6) 0.0104(6) 0.0036(6)
C12 0.0122(7) 0.0157(7) 0.0196(7) 0.0037(6) 0.0062(6) 0.0035(6)
C13 0.0166(7) 0.0155(7) 0.0184(7) 0.0055(6) 0.0073(6) 0.0051(6)
C14 0.0214(8) 0.0138(7) 0.0180(7) 0.0060(6) 0.0080(6) 0.0058(6)
C15 0.0205(8) 0.0139(7) 0.0199(7) 0.0063(6) 0.0113(6) 0.0041(6)
C16 0.0123(7) 0.0117(7) 0.0155(7) 0.0006(5) 0.0026(6) 0.0008(5)
C17 0.0137(7) 0.0143(7) 0.0150(7) 0.0024(5) 0.0034(6) 0.0019(6)
C18 0.0169(7) 0.0168(7) 0.0175(7) 0.0022(6) 0.0054(6) 0.0052(6)
loop_
_atom_type_symbol
_atom_type_description
_atom_type_scat_dispersion_real
_atom_type_scat_dispersion_imag
_atom_type_scat_source
C C 0.0033 0.0016 'International Tables Vol C Tables 4.2.6.8 and 6.1.1.4'
H H 0.0000 0.0000 'International Tables Vol C Tables 4.2.6.8 and 6.1.1.4'
N N 0.0061 0.0033 'International Tables Vol C Tables 4.2.6.8 and 6.1.1.4'
O O 0.0106 0.0060 'International Tables Vol C Tables 4.2.6.8 and 6.1.1.4'
loop_
_geom_angle_atom_site_label_1
_geom_angle_atom_site_label_2
_geom_angle_atom_site_label_3
_geom_angle
_geom_angle_site_symmetry_1
_geom_angle_site_symmetry_3
_geom_angle_publ_flag
C5 O1 H1 107.6(16) . . ?
C3 N1 C4 107.94(12) . . ?
C3 N1 C14 125.20(12) . . ?
C4 N1 C14 126.33(12) . . ?
C15 N2 C5 119.32(12) . . ?
C16 N2 C5 114.28(12) . . ?
C16 N2 C15 126.01(12) . . ?
C2 C1 H1A 119.3 . . ?
C2 C1 C10 121.45(15) . . ?
C10 C1 H1A 119.3 . . ?
C1 C2 H2 121.3 . . ?
C1 C2 C3 117.46(14) . . ?
C3 C2 H2 121.3 . . ?
N1 C3 C2 129.75(14) . . ?
N1 C3 C12 108.09(13) . . ?
C2 C3 C12 122.15(14) . . ?
N1 C4 C5 119.65(13) . . ?
C13 C4 N1 110.27(13) . . ?
C13 C4 C5 129.76(14) . . ?
O1 C5 N2 111.12(12) . . ?
O1 C5 C4 106.20(12) . . ?
O1 C5 C6 112.50(12) . . ?
N2 C5 C4 109.31(12) . . ?
N2 C5 C6 101.15(12) . . ?
C4 C5 C6 116.54(12) . . ?
C7 C6 C5 129.94(14) . . ?
C7 C6 C17 120.76(15) . . ?
C17 C6 C5 109.25(13) . . ?
C6 C7 H7 121.3 . . ?
C6 C7 C8 117.32(15) . . ?
C8 C7 H7 121.3 . . ?
C7 C8 H8 119.1 . . ?
C9 C8 C7 121.85(15) . . ?
C9 C8 H8 119.1 . . ?
C8 C9 H9 119.8 . . ?
C18 C9 C8 120.44(15) . . ?
C18 C9 H9 119.8 . . ?
C1 C10 H10 119.4 . . ?
C11 C10 C1 121.19(14) . . ?
C11 C10 H10 119.4 . . ?
C10 C11 H11 120.7 . . ?
C10 C11 C12 118.62(14) . . ?
C12 C11 H11 120.7 . . ?
C3 C12 C13 106.76(13) . . ?
C11 C12 C3 119.11(14) . . ?
C11 C12 C13 134.13(14) . . ?
C4 C13 C12 106.91(13) . . ?
C4 C13 H13 126.5 . . ?
C12 C13 H13 126.5 . . ?
N1 C14 H14A 109.7 . . ?
N1 C14 H14B 109.7 . . ?
N1 C14 C15 109.83(12) . . ?
H14A C14 H14B 108.2 . . ?
C15 C14 H14A 109.7 . . ?
C15 C14 H14B 109.7 . . ?
N2 C15 C14 109.89(12) . . ?
N2 C15 H15A 109.7 . . ?
N2 C15 H15B 109.7 . . ?
C14 C15 H15A 109.7 . . ?
C14 C15 H15B 109.7 . . ?
H15A C15 H15B 108.2 . . ?
O2 C16 N2 125.78(14) . . ?
O2 C16 C17 128.20(14) . . ?
N2 C16 C17 106.01(12) . . ?
C6 C17 C16 108.89(13) . . ?
C18 C17 C6 121.93(14) . . ?
C18 C17 C16 129.14(14) . . ?
C9 C18 H18 121.2 . . ?
C17 C18 C9 117.66(14) . . ?
C17 C18 H18 121.2 . . ?
loop_
_geom_bond_atom_site_label_1
_geom_bond_atom_site_label_2
_geom_bond_distance
_geom_bond_site_symmetry_2
_geom_bond_publ_flag
O1 C5 1.4246(18) . ?
O1 H1 0.91(3) . ?
O2 C16 1.2332(18) . ?
N1 C3 1.3779(19) . ?
N1 C4 1.3866(19) . ?
N1 C14 1.4613(18) . ?
N2 C5 1.4720(18) . ?
N2 C15 1.4494(18) . ?
N2 C16 1.355(2) . ?
C1 H1A 0.9500 . ?
C1 C2 1.383(2) . ?
C1 C10 1.405(2) . ?
C2 H2 0.9500 . ?
C2 C3 1.398(2) . ?
C3 C12 1.416(2) . ?
C4 C5 1.503(2) . ?
C4 C13 1.364(2) . ?
C5 C6 1.520(2) . ?
C6 C7 1.389(2) . ?
C6 C17 1.389(2) . ?
C7 H7 0.9500 . ?
C7 C8 1.396(2) . ?
C8 H8 0.9500 . ?
C8 C9 1.393(2) . ?
C9 H9 0.9500 . ?
C9 C18 1.390(2) . ?
C10 H10 0.9500 . ?
C10 C11 1.387(2) . ?
C11 H11 0.9500 . ?
C11 C12 1.408(2) . ?
C12 C13 1.430(2) . ?
C13 H13 0.9500 . ?
C14 H14A 0.9900 . ?
C14 H14B 0.9900 . ?
C14 C15 1.528(2) . ?
C15 H15A 0.9900 . ?
C15 H15B 0.9900 . ?
C16 C17 1.487(2) . ?
C17 C18 1.389(2) . ?
C18 H18 0.9500 . ?
loop_
_geom_torsion_atom_site_label_1
_geom_torsion_atom_site_label_2
_geom_torsion_atom_site_label_3
_geom_torsion_atom_site_label_4
_geom_torsion
_geom_torsion_site_symmetry_1
_geom_torsion_site_symmetry_2
_geom_torsion_site_symmetry_3
_geom_torsion_site_symmetry_4
_geom_torsion_publ_flag
O1 C5 C6 C7 -65.2(2) . . . . ?
O1 C5 C6 C17 112.19(14) . . . . ?
O2 C16 C17 C6 176.54(14) . . . . ?
O2 C16 C17 C18 -1.3(3) . . . . ?
N1 C3 C12 C11 -178.56(13) . . . . ?
N1 C3 C12 C13 1.11(17) . . . . ?
N1 C4 C5 O1 -100.83(15) . . . . ?
N1 C4 C5 N2 19.13(19) . . . . ?
N1 C4 C5 C6 132.97(14) . . . . ?
N1 C4 C13 C12 -0.71(18) . . . . ?
N1 C14 C15 N2 -43.76(17) . . . . ?
N2 C5 C6 C7 176.17(15) . . . . ?
N2 C5 C6 C17 -6.45(15) . . . . ?
N2 C16 C17 C6 -2.62(16) . . . . ?
N2 C16 C17 C18 179.59(15) . . . . ?
C1 C2 C3 N1 179.77(15) . . . . ?
C1 C2 C3 C12 0.8(2) . . . . ?
C1 C10 C11 C12 1.3(2) . . . . ?
C2 C1 C10 C11 0.2(3) . . . . ?
C2 C3 C12 C11 0.6(2) . . . . ?
C2 C3 C12 C13 -179.70(14) . . . . ?
C3 N1 C4 C5 175.53(13) . . . . ?
C3 N1 C4 C13 1.42(18) . . . . ?
C3 N1 C14 C15 -164.84(14) . . . . ?
C3 C12 C13 C4 -0.25(17) . . . . ?
C4 N1 C3 C2 179.35(16) . . . . ?
C4 N1 C3 C12 -1.54(17) . . . . ?
C4 N1 C14 C15 24.5(2) . . . . ?
C4 C5 C6 C7 57.8(2) . . . . ?
C4 C5 C6 C17 -124.82(14) . . . . ?
C5 N2 C15 C14 59.25(17) . . . . ?
C5 N2 C16 O2 179.00(13) . . . . ?
C5 N2 C16 C17 -1.82(16) . . . . ?
C5 C4 C13 C12 -174.05(15) . . . . ?
C5 C6 C7 C8 177.51(14) . . . . ?
C5 C6 C17 C16 5.82(16) . . . . ?
C5 C6 C17 C18 -176.19(13) . . . . ?
C6 C7 C8 C9 -1.8(2) . . . . ?
C6 C17 C18 C9 -1.9(2) . . . . ?
C7 C6 C17 C16 -176.52(13) . . . . ?
C7 C6 C17 C18 1.5(2) . . . . ?
C7 C8 C9 C18 1.4(2) . . . . ?
C8 C9 C18 C17 0.5(2) . . . . ?
C10 C1 C2 C3 -1.2(2) . . . . ?
C10 C11 C12 C3 -1.6(2) . . . . ?
C10 C11 C12 C13 178.81(16) . . . . ?
C11 C12 C13 C4 179.35(17) . . . . ?
C13 C4 C5 O1 72.0(2) . . . . ?
C13 C4 C5 N2 -168.06(15) . . . . ?
C13 C4 C5 C6 -54.2(2) . . . . ?
C14 N1 C3 C2 7.3(3) . . . . ?
C14 N1 C3 C12 -173.60(14) . . . . ?
C14 N1 C4 C5 -12.5(2) . . . . ?
C14 N1 C4 C13 173.36(14) . . . . ?
C15 N2 C5 O1 72.11(16) . . . . ?
C15 N2 C5 C4 -44.79(17) . . . . ?
C15 N2 C5 C6 -168.27(12) . . . . ?
C15 N2 C16 O2 -8.2(2) . . . . ?
C15 N2 C16 C17 170.95(13) . . . . ?
C16 N2 C5 O1 -114.60(14) . . . . ?
C16 N2 C5 C4 128.51(13) . . . . ?
C16 N2 C5 C6 5.03(16) . . . . ?
C16 N2 C15 C14 -113.19(16) . . . . ?
C16 C17 C18 C9 175.66(14) . . . . ?
C17 C6 C7 C8 0.4(2) . . . . ?
