#------------------------------------------------------------------------------
#$Date: 2016-03-26 16:23:36 +0200 (Sat, 26 Mar 2016) $
#$Revision: 180336 $
#$URL: svn://www.crystallography.net/cod/cif/7/20/05/7200573.cif $
#------------------------------------------------------------------------------
#
# This file is available in the Crystallography Open Database (COD),
# http://www.crystallography.net/
#
# All data on this site have been placed in the public domain by the
# contributors.
#
data_7200573
loop_
_publ_author_name
'Seliger, Janez'
'\<Zagar, Veselko'
'Gotoh, Kazuma'
'Ishida, Hiroyuki'
'Konnai, Akiko'
'Amino, Daiki'
'Asaji, Tetsuo'
_publ_section_title
;
 Hydrogen bonding in 1,2-diazine--chloranilic acid
 (2&#x2009;:&#x2009;1) studied by a 14N nuclear quadrupole coupling
 tensor and multi-temperature X-ray diffraction
;
_journal_issue                   13
_journal_name_full               'Physical Chemistry Chemical Physics'
_journal_page_first              2281
_journal_page_last               2286
_journal_paper_doi               10.1039/b818318j
_journal_volume                  11
_journal_year                    2009
_chemical_formula_moiety         'C14 H10 Cl2 N4 O4'
_chemical_formula_sum            'C14 H10 Cl2 N4 O4'
_chemical_formula_weight         369.16
_chemical_name_systematic
;
?
;
_space_group_IT_number           14
_symmetry_cell_setting           monoclinic
_symmetry_Int_Tables_number      14
_symmetry_space_group_name_Hall  '-P 2ybc'
_symmetry_space_group_name_H-M   'P 1 21/c 1'
_atom_sites_solution_hydrogens   geom
_atom_sites_solution_primary     direct
_atom_sites_solution_secondary   difmap
_cell_angle_alpha                90.00
_cell_angle_beta                 99.334(2)
_cell_angle_gamma                90.00
_cell_formula_units_Z            2
_cell_length_a                   3.7657(3)
_cell_length_b                   20.2197(15)
_cell_length_c                   9.6515(7)
_cell_measurement_reflns_used    14000
_cell_measurement_temperature    220(1)
_cell_measurement_theta_max      29.9
_cell_measurement_theta_min      3.7
_cell_volume                     725.15(9)
_computing_cell_refinement       PROCESS-AUTO
_computing_data_collection       'PROCESS-AUTO (Rigaku/MSC, 2004)'
_computing_data_reduction        'CrystalStructure (Rigaku/MSC, 2004)'
_computing_molecular_graphics    'ORTEP-3 (Farrugia, 1997)'
_computing_publication_material  'CrystalStructure and PLATON (Spek, 2003)'
_computing_structure_refinement  'SHELXL-97 (Sheldrick, 2008)'
_computing_structure_solution    'SHELXS-97 (Sheldrick, 2008)'
_diffrn_ambient_temperature      220(1)
_diffrn_detector_area_resol_mean 10.00
_diffrn_measured_fraction_theta_full 0.995
_diffrn_measured_fraction_theta_max 0.995
_diffrn_measurement_device_type  'Rigaku RAXIS-RAPID'
_diffrn_measurement_method       \w
_diffrn_radiation_monochromator  graphite
_diffrn_radiation_source         'fine-focus sealed tube'
_diffrn_radiation_type           MoK\a
_diffrn_radiation_wavelength     0.71075
_diffrn_reflns_av_R_equivalents  0.0236
_diffrn_reflns_av_sigmaI/netI    0.0126
_diffrn_reflns_limit_h_max       5
_diffrn_reflns_limit_h_min       -5
_diffrn_reflns_limit_k_max       28
_diffrn_reflns_limit_k_min       -28
_diffrn_reflns_limit_l_max       13
_diffrn_reflns_limit_l_min       -13
_diffrn_reflns_number            16510
_diffrn_reflns_theta_full        29.95
_diffrn_reflns_theta_max         29.95
_diffrn_reflns_theta_min         3.70
_exptl_absorpt_coefficient_mu    0.478
_exptl_absorpt_correction_T_max  0.976
_exptl_absorpt_correction_T_min  0.906
_exptl_absorpt_correction_type   numerical
_exptl_absorpt_process_details
;
Higashi, T. (1999). Program for Absorption Correction.
Rigaku Corporation, Tokyo, Japan.
;
_exptl_crystal_colour            brown
_exptl_crystal_density_diffrn    1.691
_exptl_crystal_density_method    'not measured'
_exptl_crystal_description       platelet
_exptl_crystal_F_000             376
_exptl_crystal_size_max          0.32
_exptl_crystal_size_mid          0.16
_exptl_crystal_size_min          0.05
_refine_diff_density_max         0.430
_refine_diff_density_min         -0.196
_refine_diff_density_rms         0.053
_refine_ls_extinction_method     none
_refine_ls_goodness_of_fit_ref   1.084
_refine_ls_hydrogen_treatment    mixed
_refine_ls_matrix_type           full
_refine_ls_number_parameters     116
_refine_ls_number_reflns         2110
_refine_ls_number_restraints     0
_refine_ls_restrained_S_all      1.084
_refine_ls_R_factor_all          0.0344
_refine_ls_R_factor_gt           0.0298
_refine_ls_shift/su_max          0.000
_refine_ls_shift/su_mean         0.000
_refine_ls_structure_factor_coef Fsqd
_refine_ls_weighting_details
'calc w=1/[\s^2^(Fo^2^)+(0.0481P)^2^+0.1175P] where P=(Fo^2^+2Fc^2^)/3'
_refine_ls_weighting_scheme      calc
_refine_ls_wR_factor_gt          0.0805
_refine_ls_wR_factor_ref         0.0831
_reflns_number_gt                1843
_reflns_number_total             2110
_reflns_threshold_expression     >2sigma(I)
_cod_data_source_file            b818318j.txt
_cod_data_source_block           220K
_cod_original_cell_volume        725.16(9)
_cod_database_code               7200573
loop_
_symmetry_equiv_pos_as_xyz
'x, y, z'
'-x, y+1/2, -z+1/2'
'-x, -y, -z'
'x, -y-1/2, z-1/2'
loop_
_atom_site_label
_atom_site_type_symbol
_atom_site_fract_x
_atom_site_fract_y
_atom_site_fract_z
_atom_site_U_iso_or_equiv
_atom_site_adp_type
_atom_site_occupancy
_atom_site_symmetry_multiplicity
_atom_site_calc_flag
_atom_site_refinement_flags
_atom_site_disorder_assembly
_atom_site_disorder_group
Cl1 Cl 0.57591(7) 0.497326(12) 0.18810(3) 0.02869(10) Uani 1 1 d . . .
O1 O 0.7237(3) 0.61198(4) 0.38085(9) 0.0374(2) Uani 1 1 d . . .
O2 O 0.8982(3) 0.38280(4) 0.35893(9) 0.0322(2) Uani 1 1 d . . .
H2 H 0.985(10) 0.354(2) 0.402(4) 0.039 Uiso 0.41(2) 1 d P . .
N1 N 1.0423(3) 0.26569(5) 0.45756(10) 0.0265(2) Uani 1 1 d . . .
H1 H 1.011(7) 0.3077(14) 0.438(3) 0.032 Uiso 0.59(2) 1 d P . .
N2 N 0.8617(3) 0.22744(4) 0.35642(10) 0.0284(2) Uani 1 1 d . . .
C1 C 0.8490(3) 0.55935(5) 0.43080(10) 0.0240(2) Uani 1 1 d . . .
C2 C 0.8077(3) 0.49747(5) 0.35856(11) 0.0227(2) Uani 1 1 d . . .
C3 C 0.9394(3) 0.43907(5) 0.41970(10) 0.0236(2) Uani 1 1 d . . .
C4 C 0.8759(3) 0.16283(5) 0.37854(12) 0.0286(2) Uani 1 1 d . . .
H4 H 0.7532 0.1349 0.3088 0.034 Uiso 1 1 calc R . .
C5 C 1.0640(3) 0.13388(6) 0.50039(12) 0.0292(2) Uani 1 1 d . . .
H5 H 1.0638 0.0878 0.5128 0.035 Uiso 1 1 calc R . .
C6 C 1.2483(3) 0.17417(6) 0.60096(12) 0.0286(2) Uani 1 1 d . . .
H6 H 1.3811 0.1570 0.6840 0.034 Uiso 1 1 calc R . .
C7 C 1.2301(3) 0.24200(5) 0.57448(11) 0.0277(2) Uani 1 1 d . . .
H7 H 1.3536 0.2713 0.6410 0.033 Uiso 1 1 calc R . .
loop_
_atom_site_aniso_label
_atom_site_aniso_U_11
_atom_site_aniso_U_22
_atom_site_aniso_U_33
_atom_site_aniso_U_23
_atom_site_aniso_U_13
_atom_site_aniso_U_12
Cl1 0.03519(17) 0.02760(15) 0.01923(15) -0.00001(8) -0.00773(10) 0.00076(9)
O1 0.0524(5) 0.0230(4) 0.0297(4) 0.0001(3) -0.0141(4) 0.0073(4)
O2 0.0465(5) 0.0216(4) 0.0235(4) -0.0025(3) -0.0094(3) 0.0042(3)
N1 0.0315(5) 0.0232(4) 0.0225(4) -0.0023(3) -0.0026(4) 0.0009(3)
N2 0.0327(5) 0.0276(4) 0.0214(4) -0.0009(3) -0.0055(4) 0.0002(4)
C1 0.0270(5) 0.0229(5) 0.0200(5) 0.0011(3) -0.0027(4) 0.0012(4)
C2 0.0260(5) 0.0234(5) 0.0163(4) 0.0000(3) -0.0034(4) 0.0007(4)
C3 0.0257(5) 0.0242(5) 0.0193(4) 0.0000(4) -0.0014(4) 0.0013(4)
C4 0.0310(5) 0.0261(5) 0.0265(5) -0.0033(4) -0.0022(4) -0.0019(4)
C5 0.0328(5) 0.0231(5) 0.0306(6) 0.0026(4) 0.0017(4) 0.0011(4)
C6 0.0309(5) 0.0303(5) 0.0229(5) 0.0038(4) -0.0012(4) 0.0038(4)
C7 0.0307(5) 0.0283(5) 0.0219(5) -0.0030(4) -0.0026(4) 0.0011(4)
loop_
_atom_type_symbol
_atom_type_description
_atom_type_scat_dispersion_real
_atom_type_scat_dispersion_imag
_atom_type_scat_source
C C 0.0033 0.0016 'International Tables Vol C Tables 4.2.6.8 and 6.1.1.4'
H H 0.0000 0.0000 'International Tables Vol C Tables 4.2.6.8 and 6.1.1.4'
O O 0.0106 0.0060 'International Tables Vol C Tables 4.2.6.8 and 6.1.1.4'
N N 0.0061 0.0033 'International Tables Vol C Tables 4.2.6.8 and 6.1.1.4'
Cl Cl 0.1484 0.1585 'International Tables Vol C Tables 4.2.6.8 and 6.1.1.4'
loop_
_geom_angle_atom_site_label_1
_geom_angle_atom_site_label_2
_geom_angle_atom_site_label_3
_geom_angle
_geom_angle_site_symmetry_1
_geom_angle_site_symmetry_3
_geom_angle_publ_flag
C3 O2 H2 115(3) . . ?
C7 N1 N2 123.42(10) . . ?
C7 N1 H1 125.0(17) . . ?
N2 N1 H1 111.5(17) . . ?
C4 N2 N1 116.71(9) . . ?
O1 C1 C2 124.18(10) . . ?
O1 C1 C3 117.33(9) . 3_766 ?
C2 C1 C3 118.49(8) . 3_766 ?
C3 C2 C1 122.63(10) . . ?
C3 C2 Cl1 119.79(8) . . ?
C1 C2 Cl1 117.58(7) . . ?
O2 C3 C2 123.96(10) . . ?
O2 C3 C1 117.19(9) . 3_766 ?
C2 C3 C1 118.85(9) . 3_766 ?
N2 C4 C5 123.38(10) . . ?
N2 C4 H4 118.3 . . ?
C5 C4 H4 118.3 . . ?
C6 C5 C4 118.50(10) . . ?
C6 C5 H5 120.7 . . ?
C4 C5 H5 120.7 . . ?
C5 C6 C7 116.85(10) . . ?
C5 C6 H6 121.6 . . ?
C7 C6 H6 121.6 . . ?
N1 C7 C6 121.12(10) . . ?
N1 C7 H7 119.4 . . ?
C6 C7 H7 119.4 . . ?
loop_
_geom_bond_atom_site_label_1
_geom_bond_atom_site_label_2
_geom_bond_distance
_geom_bond_site_symmetry_2
_geom_bond_publ_flag
Cl1 C2 1.7328(11) . ?
O1 C1 1.2303(13) . ?
O2 C3 1.2779(12) . ?
O2 H2 0.75(4) . ?
N1 C7 1.3207(13) . ?
N1 N2 1.3411(12) . ?
N1 H1 0.87(3) . ?
N2 C4 1.3234(14) . ?
C1 C2 1.4286(14) . ?
C1 C3 1.5313(15) 3_766 ?
C2 C3 1.3760(14) . ?
C3 C1 1.5313(15) 3_766 ?
C4 C5 1.3991(15) . ?
C4 H4 0.9400 . ?
C5 C6 1.3670(16) . ?
C5 H5 0.9400 . ?
C6 C7 1.3947(15) . ?
C6 H6 0.9400 . ?
C7 H7 0.9400 . ?
loop_
_geom_torsion_atom_site_label_1
_geom_torsion_atom_site_label_2
_geom_torsion_atom_site_label_3
_geom_torsion_atom_site_label_4
_geom_torsion
_geom_torsion_site_symmetry_1
_geom_torsion_site_symmetry_2
_geom_torsion_site_symmetry_3
_geom_torsion_site_symmetry_4
_geom_torsion_publ_flag
C7 N1 N2 C4 0.46(17) . . . . ?
O1 C1 C2 C3 -177.36(11) . . . . ?
C3 C1 C2 C3 2.33(18) 3_766 . . . ?
O1 C1 C2 Cl1 1.74(16) . . . . ?
C3 C1 C2 Cl1 -178.57(8) 3_766 . . . ?
C1 C2 C3 O2 178.08(11) . . . . ?
Cl1 C2 C3 O2 -1.00(16) . . . . ?
C1 C2 C3 C1 -2.34(18) . . . 3_766 ?
Cl1 C2 C3 C1 178.59(8) . . . 3_766 ?
N1 N2 C4 C5 0.56(17) . . . . ?
N2 C4 C5 C6 -1.19(18) . . . . ?
C4 C5 C6 C7 0.80(17) . . . . ?
N2 N1 C7 C6 -0.82(17) . . . . ?
C5 C6 C7 N1 0.14(17) . . . . ?
