#------------------------------------------------------------------------------
#$Date: 2017-10-14 22:27:35 +0300 (Sat, 14 Oct 2017) $
#$Revision: 202017 $
#$URL: file:///home/coder/svn-repositories/cod/cif/7/20/16/7201659.cif $
#------------------------------------------------------------------------------
#
# This file is available in the Crystallography Open Database (COD),
# http://www.crystallography.net/
#
# All data on this site have been placed in the public domain by the
# contributors.
#
data_7201659
loop_
_publ_author_name
'Wood, Peter A.'
'Forgan, Ross S.'
'Lennie, Alistair R.'
'Parsons, Simon'
'Pidcock, Elna'
'Tasker, Peter A.'
'Warren, John E.'
_publ_section_title
;
 The effect of pressure and substituents on the size of
 pseudo-macrocyclic cavities in salicylaldoxime ligands
;
_journal_issue                   2
_journal_name_full               CrystEngComm
_journal_page_first              239
_journal_paper_doi               10.1039/b712397c
_journal_volume                  10
_journal_year                    2008
_chemical_formula_moiety         'C7 H6 Cl1 N1 O2'
_chemical_formula_sum            'C7 H6 Cl N O2'
_chemical_formula_weight         171.58
_chemical_name_common            3-chlorosalicylaldoxime
_chemical_name_systematic        3-chlorosalicylaldoxime
_space_group_IT_number           14
_symmetry_cell_setting           monoclinic
_symmetry_space_group_name_Hall  '-P 2ybc'
_symmetry_space_group_name_H-M   'P 1 21/c 1'
_atom_sites_solution_hydrogens   geom
_atom_sites_solution_primary     direct
_audit_creation_date             06-07-19
_audit_creation_method           CRYSTALS_ver_12.84
_cell_angle_alpha                90
_cell_angle_beta                 93.115(13)
_cell_angle_gamma                90
_cell_formula_units_Z            4
_cell_length_a                   12.748(2)
_cell_length_b                   3.5954(3)
_cell_length_c                   13.6496(15)
_cell_measurement_reflns_used    1536
_cell_measurement_temperature    298
_cell_measurement_theta_max      25
_cell_measurement_theta_min      3
_cell_volume                     624.69(13)
_computing_cell_refinement       'SAINT (Siemens ,1995)'
_computing_data_collection       'SMART (Siemens, 1993)'
_computing_data_reduction        'SAINT (Siemens ,1995)'
_computing_molecular_graphics    'CAMERON (Watkin et al., 1996)'
_computing_publication_material  'CRYSTALS (Betteridge et al., 2003)'
_computing_structure_refinement  'CRYSTALS (Betteridge et al., 2003)'
_computing_structure_solution    'Model taken from ambient pressure structure'
_diffrn_ambient_pressure         2400000
_diffrn_ambient_temperature      298
_diffrn_measured_fraction_theta_full 0.354
_diffrn_measured_fraction_theta_max 0.320
_diffrn_measurement_device_type  'Bruker SMART Apex CCD'
_diffrn_measurement_method       \w
_diffrn_radiation_monochromator  graphite
_diffrn_radiation_type           'Mo K\a'
_diffrn_radiation_wavelength     0.71073
_diffrn_reflns_av_R_equivalents  0.060
_diffrn_reflns_limit_h_max       6
_diffrn_reflns_limit_h_min       -6
_diffrn_reflns_limit_k_max       4
_diffrn_reflns_limit_k_min       -4
_diffrn_reflns_limit_l_max       16
_diffrn_reflns_limit_l_min       -16
_diffrn_reflns_number            3218
_diffrn_reflns_theta_full        25.094
_diffrn_reflns_theta_max         26.415
_diffrn_reflns_theta_min         2.989
_diffrn_standards_number         0
_exptl_absorpt_coefficient_mu    0.542
_exptl_absorpt_correction_T_max  0.95
_exptl_absorpt_correction_T_min  0.47
_exptl_absorpt_correction_type   multi-scan
_exptl_absorpt_process_details   'SADABS version 2006/1'
_exptl_crystal_colour            colourless
_exptl_crystal_density_diffrn    1.824
_exptl_crystal_description       block
_exptl_crystal_F_000             352
_exptl_crystal_recrystallization_method
'Recrystallisation by pressure from methanol/ethanol solution'
_exptl_crystal_size_max          0.18
_exptl_crystal_size_mid          0.15
_exptl_crystal_size_min          0.10
_refine_diff_density_max         0.25
_refine_diff_density_min         -0.22
_refine_ls_extinction_method     None
_refine_ls_goodness_of_fit_ref   1.0280
_refine_ls_hydrogen_treatment    mixed
_refine_ls_matrix_type           full
_refine_ls_number_parameters     106
_refine_ls_number_reflns         415
_refine_ls_number_restraints     120
_refine_ls_R_factor_all          0.0592
_refine_ls_R_factor_gt           0.0463
_refine_ls_shift/su_max          0.000472
_refine_ls_structure_factor_coef Fsqd
_refine_ls_weighting_details
;
Method= Modified Sheldrick
w=1/[\s^2^(F^2^) + ( 0.06P)^2^ + 0.75P]
,where P=(max(Fo^2^,0) + 2Fc^2^)/3
;
_refine_ls_weighting_scheme      calc
_refine_ls_wR_factor_all         0.1213
_refine_ls_wR_factor_gt          0.1141
_refine_ls_wR_factor_ref         0.1213
_reflns_limit_h_max              6
_reflns_limit_h_min              -4
_reflns_limit_k_max              4
_reflns_limit_k_min              0
_reflns_limit_l_max              16
_reflns_limit_l_min              0
_reflns_number_gt                341
_reflns_number_total             415
_reflns_threshold_expression     I>2.0\s(I)
_oxford_diffrn_Wilson_B_factor   0.00
_oxford_diffrn_Wilson_scale      0.00
_oxford_refine_ls_scale          3.36(14)
_cod_data_source_file            B712397C.txt
_cod_data_source_block           Cl24kbar
_cod_depositor_comments
;
The following automatic conversions were performed:
'_symmetry_cell_setting' value 'Monoclinic' changed to 'monoclinic'
according to '/home/saulius/struct/CIF-dictionaries/cif_core.dic'
dictionary named 'cif_core.dic' version 2.4.1 from 2010-06-29.

Automatic conversion script
Id: cif_fix_enum 1527 2010-12-29 10:47:43Z saulius 
;
_cod_original_cell_volume        624.71(15)
_cod_original_sg_symbol_H-M      'P 21/c'
_cod_original_formula_sum        'C7 H6 Cl1 N1 O2'
_cod_database_code               7201659
loop_
_symmetry_equiv_pos_as_xyz
x,y,z
-x,-y,-z
-x,y+1/2,-z+1/2
x,-y+1/2,z+1/2
loop_
_atom_site_label
_atom_site_type_symbol
_atom_site_fract_x
_atom_site_fract_y
_atom_site_fract_z
_atom_site_U_iso_or_equiv
_atom_site_occupancy
_atom_site_adp_type
_atom_site_refinement_flags_posn
_atom_site_refinement_flags_adp
_atom_site_refinement_flags_occupancy
_atom_site_disorder_assembly
_atom_site_disorder_group
_atom_site_attached_hydrogens
O1 O -0.0681(7) -0.4622(10) 0.8551(3) 0.0407 1.0000 Uani D U . . . .
N2 N 0.0270(10) -0.3016(12) 0.8891(4) 0.0343 1.0000 Uani D U . . . .
C3 C 0.0999(11) -0.3451(14) 0.8302(4) 0.0307 1.0000 Uani D U . . . .
C4 C 0.2024(8) -0.1947(11) 0.8531(4) 0.0303 1.0000 Uani D U . . . .
C5 C 0.2273(8) -0.0233(12) 0.9452(4) 0.0286 1.0000 Uani D U . . . .
O5 O 0.1555(7) 0.0098(10) 1.0132(3) 0.0399 1.0000 Uani D U . . . .
C6 C 0.3258(7) 0.1111(12) 0.9648(4) 0.0307 1.0000 Uani D U . . . .
Cl6 Cl 0.3538(3) 0.3086(3) 1.07917(9) 0.0386 1.0000 Uani D U . . . .
C7 C 0.4016(8) 0.0828(13) 0.8993(4) 0.0328 1.0000 Uani D U . . . .
C8 C 0.3772(8) -0.0849(12) 0.8077(4) 0.0321 1.0000 Uani D U . . . .
C9 C 0.2788(10) -0.2175(12) 0.7865(4) 0.0319 1.0000 Uani D U . . . .
H1 H -0.115(2) -0.358(16) 0.890(4) 0.0599 1.0000 Uiso D . . . . .
H3 H 0.0873 -0.4808 0.7715 0.0363 1.0000 Uiso R . . . . .
H5 H 0.101(3) -0.076(18) 0.987(2) 0.0601 1.0000 Uiso D . . . . .
H7 H 0.4697 0.1747 0.9165 0.0386 1.0000 Uiso R . . . . .
H8 H 0.4282 -0.1036 0.7625 0.0379 1.0000 Uiso R . . . . .
H9 H 0.2630 -0.3310 0.7258 0.0381 1.0000 Uiso R . . . . .
loop_
_atom_site_aniso_label
_atom_site_aniso_U_11
_atom_site_aniso_U_22
_atom_site_aniso_U_33
_atom_site_aniso_U_23
_atom_site_aniso_U_13
_atom_site_aniso_U_12
O1 0.043(11) 0.043(2) 0.036(3) -0.0083(16) -0.002(4) -0.005(3)
N2 0.046(11) 0.033(2) 0.023(3) 0.005(2) -0.004(4) -0.009(4)
C3 0.045(11) 0.028(2) 0.018(3) 0.008(3) -0.006(5) -0.007(5)
C4 0.050(11) 0.022(2) 0.018(2) 0.007(2) 0.000(4) -0.015(4)
C5 0.042(10) 0.022(2) 0.020(2) 0.004(2) -0.005(4) 0.001(4)
O5 0.049(11) 0.045(2) 0.025(2) -0.0023(18) 0.001(4) -0.007(3)
C6 0.046(10) 0.023(2) 0.022(2) 0.004(2) -0.006(4) -0.003(4)
Cl6 0.053(6) 0.0325(6) 0.0282(9) -0.0024(5) -0.0112(19) -0.0018(9)
C7 0.039(11) 0.030(2) 0.029(2) 0.009(2) -0.007(4) 0.000(4)
C8 0.035(11) 0.030(2) 0.030(2) 0.0026(19) -0.002(4) 0.011(4)
C9 0.047(11) 0.026(2) 0.022(3) 0.002(2) -0.001(4) -0.003(4)
loop_
_atom_type_symbol
_atom_type_scat_dispersion_real
_atom_type_scat_dispersion_imag
_atom_type_scat_Cromer_Mann_a1
_atom_type_scat_Cromer_Mann_b1
_atom_type_scat_Cromer_Mann_a2
_atom_type_scat_Cromer_Mann_b2
_atom_type_scat_Cromer_Mann_a3
_atom_type_scat_Cromer_Mann_b3
_atom_type_scat_Cromer_Mann_a4
_atom_type_scat_Cromer_Mann_b4
_atom_type_scat_Cromer_Mann_c
_atom_type_scat_source
C 0.0033 0.0016 2.3100 20.8439 1.0200 10.2075 1.5886 0.5687 0.8650 51.6512
0.2156 'International Tables Vol C 4.2.6.8 and 6.1.1.4'
H 0.0000 0.0000 0.4930 10.5109 0.3229 26.1257 0.1402 3.1424 0.0408 57.7998
0.0030 'International Tables Vol C 4.2.6.8 and 6.1.1.4'
N 0.0061 0.0033 12.2126 0.0057 3.1322 9.8933 2.0125 28.9975 1.1663 0.5826
-11.5290 'International Tables Vol C 4.2.6.8 and 6.1.1.4'
O 0.0106 0.0060 3.0485 13.2771 2.2868 5.7011 1.5463 0.3239 0.8670 32.9089
0.2508 'International Tables Vol C 4.2.6.8 and 6.1.1.4'
Cl 0.1484 0.1585 11.4604 0.0104 7.1964 1.1662 6.2556 18.5194 1.6455 47.7784
-9.5574 'International Tables Vol C 4.2.6.8 and 6.1.1.4'
loop_
_geom_angle_atom_site_label_1
_geom_angle_site_symmetry_1
_geom_angle_atom_site_label_2
_geom_angle_site_symmetry_2
_geom_angle_atom_site_label_3
_geom_angle_site_symmetry_3
_geom_angle
_geom_angle_publ_flag
N2 . O1 . H1 . 105.0(9) no
O1 . N2 . C3 . 113.0(5) yes
N2 . C3 . C4 . 120.3(5) yes
N2 . C3 . H3 . 120.2 no
C4 . C3 . H3 . 119.5 no
C3 . C4 . C5 . 121.0(5) yes
C3 . C4 . C9 . 120.3(4) yes
C5 . C4 . C9 . 118.7(5) yes
C4 . C5 . O5 . 121.5(5) yes
C4 . C5 . C6 . 119.3(5) yes
O5 . C5 . C6 . 119.3(4) yes
C5 . O5 . H5 . 105.0(9) no
C5 . C6 . Cl6 . 117.7(5) yes
C5 . C6 . C7 . 121.9(4) yes
Cl6 . C6 . C7 . 120.3(5) yes
C6 . C7 . C8 . 119.1(6) yes
C6 . C7 . H7 . 119.2 no
C8 . C7 . H7 . 121.6 no
C7 . C8 . C9 . 119.7(6) yes
C7 . C8 . H8 . 119.7 no
C9 . C8 . H8 . 120.6 no
C4 . C9 . C8 . 121.3(4) yes
C4 . C9 . H9 . 119.1 no
C8 . C9 . H9 . 119.6 no
loop_
_geom_bond_atom_site_label_1
_geom_bond_site_symmetry_1
_geom_bond_atom_site_label_2
_geom_bond_site_symmetry_2
_geom_bond_distance
_geom_bond_publ_flag
O1 . N2 . 1.398(12) yes
O1 . H1 . 0.87(4) no
N2 . C3 . 1.271(17) yes
C3 . C4 . 1.432(14) yes
C3 . H3 . 0.945 no
C4 . C5 . 1.420(7) yes
C4 . C9 . 1.371(13) yes
C5 . O5 . 1.344(10) yes
C5 . C6 . 1.358(11) yes
O5 . H5 . 0.82(4) no
C6 . Cl6 . 1.735(5) yes
C6 . C7 . 1.355(11) yes
C7 . C8 . 1.408(7) yes
C7 . H7 . 0.946 no
C8 . C9 . 1.358(13) yes
C8 . H8 . 0.921 no
C9 . H9 . 0.935 no
loop_
_cod_related_entry_id
_cod_related_entry_database
_cod_related_entry_code
1 ChemSpider 21195658
