#------------------------------------------------------------------------------
#$Date: 2016-03-26 16:35:21 +0200 (Sat, 26 Mar 2016) $
#$Revision: 180344 $
#$URL: svn://www.crystallography.net/cod/cif/7/20/13/7201305.cif $
#------------------------------------------------------------------------------
#
# This file is available in the Crystallography Open Database (COD),
# http://www.crystallography.net/
#
# All data on this site have been placed in the public domain by the
# contributors.
#
data_7201305
loop_
_publ_author_name
'Fabelo, Oscar'
'Pas\'an, Jorge'
'Ca\~nadillas-Delgado, Laura'
'Delgado, Fernando S.'
'Yuste, Consuelo'
'Lloret, Francesc'
'Julve, Miguel'
'Ruiz-P\'erez, Catalina'
_publ_section_title
;
 Novel cobalt(II) coordination polymers based on
 1,2,4,5-benzenetetracarboxylic acid and extended bis-monodentate
 ligands
;
_journal_issue                   10
_journal_name_full               CrystEngComm
_journal_page_first              2169
_journal_paper_doi               10.1039/b907895a
_journal_volume                  11
_journal_year                    2009
_chemical_formula_sum            'C34 H28 Co N4 O10'
_chemical_formula_weight         711.54
_space_group_IT_number           2
_symmetry_cell_setting           triclinic
_symmetry_Int_Tables_number      2
_symmetry_space_group_name_Hall  '-P 1'
_symmetry_space_group_name_H-M   'P -1'
_atom_sites_solution_hydrogens   geom
_atom_sites_solution_primary     direct
_atom_sites_solution_secondary   difmap
_audit_creation_method           SHELXL-97
_cell_angle_alpha                93.025(6)
_cell_angle_beta                 113.334(5)
_cell_angle_gamma                106.250(4)
_cell_formula_units_Z            1
_cell_length_a                   9.0734(4)
_cell_length_b                   9.5955(7)
_cell_length_c                   10.1366(7)
_cell_measurement_temperature    293(2)
_cell_volume                     764.46(9)
_computing_data_collection       'Collect (Bruker AXS BV, 1997-2004)'
_computing_data_reduction        'EvalCCD (Duisenberg & Schreurs 1990-2000)'
_computing_molecular_graphics    'Ortep-3 for Windows (Farrugia, 1997)'
_computing_publication_material  'WinGX publication routines (Farrugia, 1999)'
_computing_structure_refinement  'SHELXL-97 (Sheldrick, 1997)'
_computing_structure_solution    'SHELXL-97 (Sheldrick, 1997)'
_diffrn_ambient_temperature      293(2)
_diffrn_detector                 'CCD plate'
_diffrn_detector_area_resol_mean 9
_diffrn_measured_fraction_theta_full 0.986
_diffrn_measured_fraction_theta_max 0.986
_diffrn_measurement_device       '95mm CCD camera on \k-goniostat'
_diffrn_measurement_device_type  KappaCCD
_diffrn_measurement_method       'CCD rotation images, thick slices'
_diffrn_radiation_monochromator  'horizonally mounted graphite crystal'
_diffrn_radiation_probe          x-ray
_diffrn_radiation_source         'fine-focus sealed tube'
_diffrn_radiation_type           Mok\a
_diffrn_radiation_wavelength     0.71073
_diffrn_reflns_av_R_equivalents  0.0307
_diffrn_reflns_av_sigmaI/netI    0.0636
_diffrn_reflns_limit_h_max       10
_diffrn_reflns_limit_h_min       -11
_diffrn_reflns_limit_k_max       12
_diffrn_reflns_limit_k_min       -12
_diffrn_reflns_limit_l_max       13
_diffrn_reflns_limit_l_min       -12
_diffrn_reflns_number            6600
_diffrn_reflns_theta_full        27.50
_diffrn_reflns_theta_max         27.50
_diffrn_reflns_theta_min         5.05
_diffrn_source                   'Enraf Nonius FR590'
_exptl_absorpt_coefficient_mu    0.631
_exptl_absorpt_correction_type   none
_exptl_crystal_colour            orange-pink
_exptl_crystal_density_diffrn    1.546
_exptl_crystal_density_method    'not measured'
_exptl_crystal_description       Prismatic
_exptl_crystal_F_000             367
_exptl_crystal_size_max          0.44
_exptl_crystal_size_mid          0.14
_exptl_crystal_size_min          0.08
_refine_diff_density_max         0.525
_refine_diff_density_min         -0.411
_refine_diff_density_rms         0.066
_refine_ls_extinction_method     none
_refine_ls_goodness_of_fit_ref   1.028
_refine_ls_hydrogen_treatment    mixed
_refine_ls_matrix_type           full
_refine_ls_number_parameters     239
_refine_ls_number_reflns         3479
_refine_ls_number_restraints     0
_refine_ls_restrained_S_all      1.028
_refine_ls_R_factor_all          0.0677
_refine_ls_R_factor_gt           0.0427
_refine_ls_shift/su_max          0.000
_refine_ls_shift/su_mean         0.000
_refine_ls_structure_factor_coef Fsqd
_refine_ls_weighting_details
'calc w=1/[\s^2^(Fo^2^)+(0.0314P)^2^+0.3629P] where P=(Fo^2^+2Fc^2^)/3'
_refine_ls_weighting_scheme      calc
_refine_ls_wR_factor_gt          0.0823
_refine_ls_wR_factor_ref         0.0891
_reflns_number_gt                2686
_reflns_number_total             3479
_reflns_threshold_expression     >2sigma(I)
_cod_data_source_file            b907895a.txt
_cod_data_source_block           Compound-2
_cod_original_cell_volume        764.46(8)
_cod_database_code               7201305
loop_
_symmetry_equiv_pos_as_xyz
'x, y, z'
'-x, -y, -z'
loop_
_atom_site_label
_atom_site_type_symbol
_atom_site_fract_x
_atom_site_fract_y
_atom_site_fract_z
_atom_site_U_iso_or_equiv
_atom_site_adp_type
_atom_site_occupancy
_atom_site_symmetry_multiplicity
_atom_site_calc_flag
_atom_site_refinement_flags
_atom_site_disorder_assembly
_atom_site_disorder_group
Co1 Co 0.0000 0.0000 0.0000 0.01536(13) Uani 1 2 d S . .
C1 C 0.4849(3) 0.3606(2) -0.0637(2) 0.0181(4) Uani 1 1 d . . .
C2 C 0.3435(3) 0.3855(2) -0.0570(2) 0.0165(4) Uani 1 1 d . . .
C3 C 0.3603(3) 0.5251(2) 0.0049(2) 0.0201(5) Uani 1 1 d . . .
C4 C 0.4803(3) 0.2151(2) -0.1327(3) 0.0228(5) Uani 1 1 d . . .
C5 C 0.1766(3) 0.2648(2) -0.0988(2) 0.0171(4) Uani 1 1 d . . .
C6 C 0.0342(3) 0.1149(2) 0.3000(3) 0.0285(5) Uani 1 1 d . . .
C7 C 0.0432(3) 0.2073(2) 0.4138(3) 0.0299(5) Uani 1 1 d . . .
C8 C 0.0278(3) 0.3457(2) 0.3934(2) 0.0240(5) Uani 1 1 d . . .
C9 C 0.0132(3) 0.3856(2) 0.2611(3) 0.0286(5) Uani 1 1 d . . .
C10 C 0.0098(3) 0.2878(2) 0.1552(3) 0.0269(5) Uani 1 1 d . . .
C11 C 0.0232(3) 0.4402(2) 0.5095(3) 0.0294(5) Uani 1 1 d . . .
C12 C 0.6612(4) 0.1241(3) 0.4899(3) 0.0385(6) Uani 1 1 d . . .
C13 C 0.6301(4) 0.2377(3) 0.5494(3) 0.0418(7) Uani 1 1 d . . .
C14 C 0.5589(3) 0.3282(2) 0.4627(3) 0.0311(6) Uani 1 1 d . . .
C15 C 0.5228(4) 0.2986(3) 0.3163(3) 0.0455(7) Uani 1 1 d . . .
C16 C 0.5576(4) 0.1819(3) 0.2640(3) 0.0424(7) Uani 1 1 d . . .
C17 C 0.5251(4) 0.4487(3) 0.5304(3) 0.0405(6) Uani 1 1 d . . .
N1 N 0.0176(2) 0.15246(18) 0.1716(2) 0.0221(4) Uani 1 1 d . . .
N2 N 0.6258(3) 0.0967(2) 0.3494(2) 0.0285(5) Uani 1 1 d . . .
O1 O 0.6054(2) 0.1765(2) -0.0795(2) 0.0528(6) Uani 1 1 d . . .
O2 O 0.3445(2) 0.14278(18) -0.24509(19) 0.0328(4) Uani 1 1 d . . .
O3 O 0.18625(18) 0.15926(14) -0.03143(16) 0.0223(3) Uani 1 1 d . . .
O4 O 0.0439(2) 0.28233(16) -0.18692(19) 0.0320(4) Uani 1 1 d . . .
O1W O 0.1902(2) -0.06512(17) 0.15993(18) 0.0236(4) Uani 1 1 d . . .
H1WA H 0.254(4) -0.088(3) 0.135(3) 0.035(8) Uiso 1 1 d . . .
H1WB H 0.125(4) -0.141(3) 0.175(3) 0.058(9) Uiso 1 1 d . . .
H2A H 0.355(6) 0.067(6) -0.278(6) 0.028(13) Uiso 0.50 1 d P . .
H2B H 0.635(5) 0.023(6) 0.319(5) 0.013(11) Uiso 0.50 1 d P . .
H3 H 0.2654 0.5426 0.0070 0.024 Uiso 1 1 calc R . .
H6 H 0.0400 0.0211 0.3137 0.034 Uiso 1 1 calc R . .
H7 H 0.0594 0.1776 0.5030 0.036 Uiso 1 1 calc R . .
H9 H 0.0056 0.4782 0.2437 0.034 Uiso 1 1 calc R . .
H10 H 0.0017 0.3174 0.0673 0.032 Uiso 1 1 calc R . .
H11 H 0.0546 0.4148 0.6016 0.035 Uiso 1 1 calc R . .
H12 H 0.7090 0.0638 0.5503 0.046 Uiso 1 1 calc R . .
H13 H 0.6571 0.2537 0.6488 0.050 Uiso 1 1 calc R . .
H15 H 0.4752 0.3571 0.2533 0.055 Uiso 1 1 calc R . .
H16 H 0.5320 0.1627 0.1651 0.051 Uiso 1 1 calc R . .
H17 H 0.5421 0.4504 0.6272 0.049 Uiso 1 1 calc R . .
loop_
_atom_site_aniso_label
_atom_site_aniso_U_11
_atom_site_aniso_U_22
_atom_site_aniso_U_33
_atom_site_aniso_U_23
_atom_site_aniso_U_13
_atom_site_aniso_U_12
Co1 0.0199(2) 0.0111(2) 0.0177(2) 0.00164(15) 0.01047(19) 0.00549(16)
C1 0.0241(11) 0.0142(10) 0.0207(11) 0.0037(8) 0.0125(10) 0.0088(8)
C2 0.0205(11) 0.0147(10) 0.0174(11) 0.0048(8) 0.0105(9) 0.0066(8)
C3 0.0216(11) 0.0189(10) 0.0265(12) 0.0046(9) 0.0150(10) 0.0093(8)
C4 0.0262(12) 0.0150(10) 0.0320(14) 0.0017(9) 0.0177(11) 0.0066(9)
C5 0.0228(11) 0.0133(9) 0.0191(11) 0.0022(8) 0.0129(10) 0.0060(8)
C6 0.0436(15) 0.0202(11) 0.0304(14) 0.0060(10) 0.0203(12) 0.0164(10)
C7 0.0479(15) 0.0282(12) 0.0233(13) 0.0089(10) 0.0202(12) 0.0186(11)
C8 0.0310(13) 0.0216(11) 0.0211(12) -0.0003(9) 0.0128(10) 0.0096(9)
C9 0.0471(15) 0.0186(11) 0.0282(13) 0.0050(9) 0.0206(12) 0.0158(10)
C10 0.0422(14) 0.0222(11) 0.0219(12) 0.0037(9) 0.0167(11) 0.0145(10)
C11 0.0433(15) 0.0271(12) 0.0223(12) 0.0008(10) 0.0176(12) 0.0134(11)
C12 0.0544(17) 0.0355(14) 0.0308(15) 0.0045(11) 0.0154(13) 0.0267(12)
C13 0.0637(19) 0.0431(15) 0.0301(15) 0.0055(12) 0.0218(14) 0.0319(14)
C14 0.0339(14) 0.0242(12) 0.0337(14) -0.0020(10) 0.0126(12) 0.0117(10)
C15 0.066(2) 0.0351(14) 0.0366(16) 0.0085(12) 0.0124(15) 0.0319(14)
C16 0.0644(19) 0.0362(14) 0.0265(14) 0.0021(11) 0.0152(14) 0.0233(13)
C17 0.0493(17) 0.0370(15) 0.0380(16) 0.0030(11) 0.0167(14) 0.0220(12)
N1 0.0305(11) 0.0172(9) 0.0228(10) 0.0018(7) 0.0146(9) 0.0097(8)
N2 0.0330(12) 0.0210(10) 0.0312(12) -0.0034(9) 0.0126(10) 0.0112(9)
O1 0.0334(10) 0.0407(10) 0.0718(15) -0.0200(10) 0.0064(10) 0.0234(9)
O2 0.0347(10) 0.0246(9) 0.0341(10) -0.0094(7) 0.0091(8) 0.0136(8)
O3 0.0218(8) 0.0167(7) 0.0296(9) 0.0084(6) 0.0122(7) 0.0056(6)
O4 0.0215(9) 0.0280(8) 0.0405(10) 0.0176(7) 0.0080(8) 0.0053(7)
O1W 0.0227(9) 0.0231(8) 0.0291(9) 0.0067(7) 0.0133(8) 0.0099(7)
loop_
_atom_type_symbol
_atom_type_description
_atom_type_scat_dispersion_real
_atom_type_scat_dispersion_imag
_atom_type_scat_source
C C 0.0033 0.0016 'International Tables Vol C Tables 4.2.6.8 and 6.1.1.4'
H H 0.0000 0.0000 'International Tables Vol C Tables 4.2.6.8 and 6.1.1.4'
N N 0.0061 0.0033 'International Tables Vol C Tables 4.2.6.8 and 6.1.1.4'
O O 0.0106 0.0060 'International Tables Vol C Tables 4.2.6.8 and 6.1.1.4'
Co Co 0.3494 0.9721 'International Tables Vol C Tables 4.2.6.8 and 6.1.1.4'
loop_
_geom_angle_atom_site_label_1
_geom_angle_atom_site_label_2
_geom_angle_atom_site_label_3
_geom_angle
_geom_angle_site_symmetry_1
_geom_angle_site_symmetry_3
_geom_angle_publ_flag
C1 C2 C5 123.42(16) . . ?
C2 C1 C4 123.58(18) . . ?
C2 C3 C1 121.84(19) . 2_665 ?
C3 C1 C2 119.18(17) 2_665 . ?
C3 C1 C4 117.24(18) 2_665 . ?
C3 C2 C1 118.97(18) . . ?
C3 C2 C5 117.29(17) . . ?
C5 O3 Co1 130.48(14) . . ?
C6 C7 C8 119.1(2) . . ?
C6 N1 C10 116.85(17) . . ?
C6 N1 Co1 120.90(13) . . ?
C7 C8 C11 119.5(2) . . ?
C9 C8 C11 123.1(2) . . ?
C9 C8 C7 117.36(19) . . ?
C10 C9 C8 119.6(2) . . ?
C10 N1 Co1 122.24(15) . . ?
C11 C11 C8 123.8(3) 2_566 . ?
C12 C13 C14 120.1(2) . . ?
C13 C14 C15 116.9(2) . . ?
C13 C14 C17 118.6(2) . . ?
C15 C14 C17 124.5(2) . . ?
C16 C15 C14 119.8(3) . . ?
C16 N2 C12 118.7(2) . . ?
C17 C17 C14 126.8(3) 2_666 . ?
N1 C10 C9 123.5(2) . . ?
N1 C6 C7 123.6(2) . . ?
N1 Co1 N1 180.00(9) 2 . ?
N2 C12 C13 122.4(3) . . ?
N2 C16 C15 122.2(2) . . ?
O1 C4 C1 118.61(19) . . ?
O1 C4 O2 124.89(19) . . ?
O2 C4 C1 116.5(2) . . ?
O3 C5 C2 114.82(19) . . ?
O3 Co1 N1 89.13(6) . 2 ?
O3 Co1 N1 89.13(6) 2 . ?
O3 Co1 N1 90.87(6) . . ?
O3 Co1 N1 90.87(6) 2 2 ?
O3 Co1 O1W 89.93(6) . 2 ?
O3 Co1 O1W 89.93(6) 2 . ?
O3 Co1 O1W 90.07(6) . . ?
O3 Co1 O1W 90.07(6) 2 2 ?
O3 Co1 O3 180.00(9) 2 . ?
O4 C5 C2 118.58(18) . . ?
O4 C5 O3 126.40(19) . . ?
O1W Co1 N1 88.19(7) . . ?
O1W Co1 N1 88.19(7) 2 2 ?
O1W Co1 N1 91.81(7) . 2 ?
O1W Co1 N1 91.81(7) 2 . ?
O1W Co1 O1W 180.00(11) . 2 ?
loop_
_geom_bond_atom_site_label_1
_geom_bond_atom_site_label_2
_geom_bond_distance
_geom_bond_site_symmetry_2
_geom_bond_publ_flag
Co1 N1 2.1377(16) . ?
Co1 N1 2.1377(16) 2 ?
Co1 O1W 2.1195(16) . ?
Co1 O1W 2.1195(16) 2 ?
Co1 O3 2.0797(13) . ?
Co1 O3 2.0797(13) 2 ?
C1 C3 1.392(3) 2_665 ?
C1 C4 1.510(3) . ?
C2 C1 1.394(3) . ?
C2 C5 1.507(3) . ?
C3 C1 1.392(3) 2_665 ?
C3 C2 1.391(3) . ?
C4 O1 1.221(3) . ?
C4 O2 1.275(3) . ?
C5 O3 1.255(2) . ?
C5 O4 1.247(3) . ?
C6 C7 1.379(3) . ?
C7 C8 1.391(3) . ?
C8 C11 1.469(3) . ?
C8 C9 1.380(3) . ?
C10 C9 1.374(3) . ?
C11 C11 1.326(4) 2_566 ?
C12 C13 1.367(3) . ?
C14 C13 1.375(4) . ?
C14 C15 1.381(4) . ?
C14 C17 1.477(3) . ?
C15 C16 1.380(3) . ?
C17 C17 1.285(5) 2_666 ?
N1 C10 1.336(3) . ?
N1 C6 1.331(3) . ?
N2 C12 1.324(3) . ?
N2 C16 1.317(3) . ?
