#------------------------------------------------------------------------------
#$Date: 2017-10-14 22:27:35 +0300 (Sat, 14 Oct 2017) $
#$Revision: 202017 $
#$URL: file:///home/coder/svn-repositories/cod/cif/7/20/16/7201651.cif $
#------------------------------------------------------------------------------
#
# This file is available in the Crystallography Open Database (COD),
# http://www.crystallography.net/
#
# All data on this site have been placed in the public domain by the
# contributors.
#
data_7201651
loop_
_publ_author_name
'Wood, Peter A.'
'Forgan, Ross S.'
'Lennie, Alistair R.'
'Parsons, Simon'
'Pidcock, Elna'
'Tasker, Peter A.'
'Warren, John E.'
_publ_section_title
;
 The effect of pressure and substituents on the size of
 pseudo-macrocyclic cavities in salicylaldoxime ligands
;
_journal_issue                   2
_journal_name_full               CrystEngComm
_journal_page_first              239
_journal_paper_doi               10.1039/b712397c
_journal_volume                  10
_journal_year                    2008
_chemical_formula_moiety         'C8 H9 N1 O2'
_chemical_formula_sum            'C8 H9 N O2'
_chemical_formula_weight         151.16
_chemical_name_common            3-Methylsalicylaldoxime
_chemical_name_systematic        3-Methylsalicylaldoxime
_space_group_IT_number           14
_symmetry_cell_setting           monoclinic
_symmetry_space_group_name_Hall  '-P 2ybc'
_symmetry_space_group_name_H-M   'P 1 21/c 1'
_atom_sites_solution_hydrogens   geom
_atom_sites_solution_primary     direct
_audit_creation_date             05-11-28
_audit_creation_method           CRYSTALS_ver_12.82
_cell_angle_alpha                90
_cell_angle_beta                 92.45(2)
_cell_angle_gamma                90
_cell_formula_units_Z            4
_cell_length_a                   12.750(4)
_cell_length_b                   3.4482(6)
_cell_length_c                   13.2910(18)
_cell_measurement_reflns_used    783
_cell_measurement_temperature    298
_cell_measurement_theta_max      24
_cell_measurement_theta_min      2
_cell_volume                     583.8(2)
_computing_cell_refinement       'SAINT (Siemens ,1995)'
_computing_data_collection       'SMART (Siemens, 1993)'
_computing_data_reduction        'SAINT (Siemens ,1995)'
_computing_molecular_graphics    'CAMERON (Watkin et al., 1996)'
_computing_publication_material  'CRYSTALS (Betteridge et al., 2003)'
_computing_structure_refinement  'CRYSTALS (Betteridge et al., 2003)'
_computing_structure_solution    'Model taken from ambient pressure structure'
_diffrn_ambient_pressure         5600000
_diffrn_ambient_temperature      298
_diffrn_measured_fraction_theta_full 0.420
_diffrn_measured_fraction_theta_max 0.347
_diffrn_measurement_device_type  'Bruker-Nonius ApexII CCD'
_diffrn_measurement_method       \w
_diffrn_radiation_monochromator  graphite
_diffrn_radiation_type           Synchrotron
_diffrn_radiation_wavelength     0.45770
_diffrn_reflns_av_R_equivalents  0.242
_diffrn_reflns_limit_h_max       6
_diffrn_reflns_limit_h_min       -6
_diffrn_reflns_limit_k_max       6
_diffrn_reflns_limit_k_min       -6
_diffrn_reflns_limit_l_max       24
_diffrn_reflns_limit_l_min       -24
_diffrn_reflns_number            7902
_diffrn_reflns_theta_full        18.473
_diffrn_reflns_theta_max         24.631
_diffrn_reflns_theta_min         2.188
_diffrn_standards_number         0
_exptl_absorpt_coefficient_mu    0.125
_exptl_absorpt_correction_T_max  0.98
_exptl_absorpt_correction_T_min  0.76
_exptl_absorpt_correction_type   multi-scan
_exptl_absorpt_process_details   'SADABS version 2004/1'
_exptl_crystal_colour            yellow
_exptl_crystal_density_diffrn    1.720
_exptl_crystal_description       block
_exptl_crystal_F_000             320
_exptl_crystal_recrystallization_method
'Recrystallisation by evaporation of hexane solution'
_exptl_crystal_size_max          0.22
_exptl_crystal_size_mid          0.18
_exptl_crystal_size_min          0.14
_refine_diff_density_max         0.18
_refine_diff_density_min         -0.22
_refine_ls_extinction_method     None
_refine_ls_goodness_of_fit_ref   1.0230
_refine_ls_hydrogen_treatment    mixed
_refine_ls_matrix_type           full
_refine_ls_number_parameters     106
_refine_ls_number_reflns         1267
_refine_ls_number_restraints     2
_refine_ls_R_factor_all          0.1285
_refine_ls_R_factor_gt           0.0589
_refine_ls_shift/su_max          0.000193
_refine_ls_structure_factor_coef Fsqd
_refine_ls_weighting_details
;
w=1/[\s^2^(F^2^) + ( 0.08P)^2^ + 0.07P]
where P=(max(Fo^2^,0) + 2Fc^2^)/3
;
_refine_ls_weighting_scheme      calc
_refine_ls_wR_factor_all         0.1739
_refine_ls_wR_factor_gt          0.1374
_refine_ls_wR_factor_ref         0.1739
_reflns_limit_h_max              6
_reflns_limit_h_min              -6
_reflns_limit_k_max              6
_reflns_limit_k_min              0
_reflns_limit_l_max              24
_reflns_limit_l_min              0
_reflns_number_gt                623
_reflns_number_total             1281
_reflns_threshold_expression     I>2.00u(I)
_oxford_diffrn_Wilson_B_factor   0.00
_oxford_diffrn_Wilson_scale      0.00
_oxford_refine_ls_scale          4.15(18)
_cod_data_source_file            B712397C.txt
_cod_data_source_block           Me56kbar
_cod_depositor_comments
;
The following automatic conversions were performed:
'_symmetry_cell_setting' value 'Monoclinic' changed to 'monoclinic'
according to '/home/saulius/struct/CIF-dictionaries/cif_core.dic'
dictionary named 'cif_core.dic' version 2.4.1 from 2010-06-29.

Automatic conversion script
Id: cif_fix_enum 1527 2010-12-29 10:47:43Z saulius 
;
_cod_original_sg_symbol_H-M      'P 21/c'
_cod_original_formula_sum        'C8 H9 N1 O2'
_cod_database_code               7201651
loop_
_symmetry_equiv_pos_as_xyz
x,y,z
-x,-y,-z
-x,y+1/2,-z+1/2
x,-y+1/2,z+1/2
loop_
_atom_site_label
_atom_site_type_symbol
_atom_site_fract_x
_atom_site_fract_y
_atom_site_fract_z
_atom_site_U_iso_or_equiv
_atom_site_occupancy
_atom_site_adp_type
_atom_site_refinement_flags_posn
_atom_site_refinement_flags_adp
_atom_site_refinement_flags_occupancy
_atom_site_disorder_assembly
_atom_site_disorder_group
_atom_site_attached_hydrogens
O1 O 0.5720(4) 0.0205(6) 0.63691(12) 0.0227 1.0000 Uani D . . . . .
N2 N 0.4770(5) 0.1902(6) 0.60896(13) 0.0210 1.0000 Uani . . . . . .
C3 C 0.4061(5) 0.1338(6) 0.67442(15) 0.0229 1.0000 Uani . . . . . .
C4 C 0.3041(5) 0.2915(6) 0.65913(14) 0.0188 1.0000 Uani . . . . . .
C5 C 0.2694(5) 0.4712(6) 0.56814(14) 0.0196 1.0000 Uani . . . . . .
O5 O 0.3368(4) 0.5087(5) 0.49140(11) 0.0224 1.0000 Uani D . . . . .
C6 C 0.1689(5) 0.6071(7) 0.55153(15) 0.0251 1.0000 Uani . . . . . .
C61 C 0.1376(5) 0.7884(6) 0.45204(14) 0.0308 1.0000 Uani . . . . . .
C7 C 0.0977(5) 0.5704(7) 0.62822(15) 0.0287 1.0000 Uani . . . . . .
C8 C 0.1297(6) 0.4004(8) 0.72047(16) 0.0216 1.0000 Uani . . . . . .
C9 C 0.2299(5) 0.2653(7) 0.73493(15) 0.0165 1.0000 Uani . . . . . .
H1 H 0.621(5) 0.148(11) 0.597(3) 0.0363 1.0000 Uiso D . . . . .
H3 H 0.4224 -0.0092 0.7332 0.0275 1.0000 Uiso R . . . . .
H5 H 0.395(4) 0.398(11) 0.507(3) 0.0313 1.0000 Uiso D . . . . .
H611 H 0.0736 0.9353 0.4567 0.0444 1.0000 Uiso R . . . . .
H612 H 0.1921 0.9698 0.4337 0.0436 1.0000 Uiso R . . . . .
H613 H 0.1290 0.5958 0.4003 0.0434 1.0000 Uiso R . . . . .
H7 H 0.0284 0.6629 0.6185 0.0368 1.0000 Uiso R . . . . .
H8 H 0.0820 0.3817 0.7705 0.0248 1.0000 Uiso R . . . . .
H9 H 0.2510 0.1507 0.7981 0.0196 1.0000 Uiso R . . . . .
loop_
_atom_site_aniso_label
_atom_site_aniso_U_11
_atom_site_aniso_U_22
_atom_site_aniso_U_33
_atom_site_aniso_U_23
_atom_site_aniso_U_13
_atom_site_aniso_U_12
O1 0.013(8) 0.0307(9) 0.0242(7) 0.0054(6) 0.0018(12) 0.0088(14)
N2 0.021(8) 0.0247(9) 0.0173(7) 0.0007(6) 0.0006(12) 0.0035(15)
C3 0.035(9) 0.0178(9) 0.0161(7) -0.0001(6) -0.0002(13) -0.0027(16)
C4 0.024(9) 0.0172(9) 0.0154(7) -0.0004(6) -0.0003(13) -0.0006(15)
C5 0.027(9) 0.0172(10) 0.0142(7) 0.0003(6) -0.0006(13) 0.0008(16)
O5 0.019(8) 0.0308(10) 0.0175(6) 0.0039(6) 0.0060(11) 0.0050(13)
C6 0.043(9) 0.0165(9) 0.0153(7) -0.0021(7) 0.0015(13) -0.0004(16)
C61 0.058(9) 0.0192(9) 0.0148(7) 0.0002(6) -0.0003(13) 0.0008(15)
C7 0.045(10) 0.0233(10) 0.0174(8) -0.0023(7) 0.0024(14) 0.0036(16)
C8 0.022(10) 0.0262(12) 0.0173(8) -0.0015(8) 0.0055(14) -0.004(2)
C9 0.011(10) 0.0232(11) 0.0153(8) 0.0010(7) 0.0020(13) -0.0001(17)
loop_
_atom_type_symbol
_atom_type_scat_dispersion_real
_atom_type_scat_dispersion_imag
_atom_type_scat_Cromer_Mann_a1
_atom_type_scat_Cromer_Mann_b1
_atom_type_scat_Cromer_Mann_a2
_atom_type_scat_Cromer_Mann_b2
_atom_type_scat_Cromer_Mann_a3
_atom_type_scat_Cromer_Mann_b3
_atom_type_scat_Cromer_Mann_a4
_atom_type_scat_Cromer_Mann_b4
_atom_type_scat_Cromer_Mann_c
_atom_type_scat_source
C 0.0000 0.0000 2.3100 20.8439 1.0200 10.2075 1.5886 0.5687 0.8650 51.6512
0.2156 'International Tables Vol C 4.2.6.8 and 6.1.1.4'
H 0.0000 0.0000 0.4930 10.5109 0.3229 26.1257 0.1402 3.1424 0.0408 57.7998
0.0030 'International Tables Vol C 4.2.6.8 and 6.1.1.4'
N 0.0010 0.0010 12.2126 0.0057 3.1322 9.8933 2.0125 28.9975 1.1663 0.5826
-11.5290 'International Tables Vol C 4.2.6.8 and 6.1.1.4'
O 0.0030 0.0020 3.0485 13.2771 2.2868 5.7011 1.5463 0.3239 0.8670 32.9089
0.2508 'International Tables Vol C 4.2.6.8 and 6.1.1.4'
loop_
_geom_angle_atom_site_label_1
_geom_angle_site_symmetry_1
_geom_angle_atom_site_label_2
_geom_angle_site_symmetry_2
_geom_angle_atom_site_label_3
_geom_angle_site_symmetry_3
_geom_angle
_geom_angle_publ_flag
N2 . O1 . H1 . 104(4) no
O1 . N2 . C3 . 112.6(3) yes
N2 . C3 . C4 . 120.6(3) yes
N2 . C3 . H3 . 120.1 no
C4 . C3 . H3 . 119.3 no
C3 . C4 . C5 . 122.9(4) yes
C3 . C4 . C9 . 120.8(3) yes
C5 . C4 . C9 . 116.3(5) yes
C4 . C5 . O5 . 119.7(5) yes
C4 . C5 . C6 . 122.9(4) yes
O5 . C5 . C6 . 117.4(3) yes
C5 . O5 . H5 . 111(3) no
C5 . C6 . C61 . 119.7(4) yes
C5 . C6 . C7 . 118.8(3) yes
C61 . C6 . C7 . 121.5(5) yes
C6 . C61 . H611 . 110.9 no
C6 . C61 . H612 . 108.8 no
H611 . C61 . H612 . 107.0 no
C6 . C61 . H613 . 111.2 no
H611 . C61 . H613 . 109.8 no
H612 . C61 . H613 . 109.0 no
C6 . C7 . C8 . 120.0(5) yes
C6 . C7 . H7 . 120.2 no
C8 . C7 . H7 . 119.7 no
C7 . C8 . C9 . 120.0(5) yes
C7 . C8 . H8 . 118.9 no
C9 . C8 . H8 . 121.0 no
C4 . C9 . C8 . 121.9(3) yes
C4 . C9 . H9 . 118.7 no
C8 . C9 . H9 . 119.4 no
loop_
_geom_bond_atom_site_label_1
_geom_bond_site_symmetry_1
_geom_bond_atom_site_label_2
_geom_bond_site_symmetry_2
_geom_bond_distance
_geom_bond_publ_flag
O1 . N2 . 1.381(7) yes
O1 . H1 . 0.95(4) no
N2 . C3 . 1.296(6) yes
C3 . C4 . 1.416(9) yes
C3 . H3 . 0.940 no
C4 . C5 . 1.413(4) yes
C4 . C9 . 1.414(6) yes
C5 . O5 . 1.368(5) yes
C5 . C6 . 1.373(9) yes
O5 . H5 . 0.86(4) no
C6 . C61 . 1.501(4) yes
C6 . C7 . 1.400(6) yes
C61 . H611 . 0.964 no
C61 . H612 . 0.974 no
C61 . H613 . 0.959 no
C7 . C8 . 1.404(4) yes
C7 . H7 . 0.943 no
C8 . C9 . 1.366(10) yes
C8 . H8 . 0.921 no
C9 . H9 . 0.956 no
loop_
_cod_related_entry_id
_cod_related_entry_database
_cod_related_entry_code
1 ChemSpider 13440483
