#------------------------------------------------------------------------------
#$Date: 2016-03-26 16:36:20 +0200 (Sat, 26 Mar 2016) $
#$Revision: 180345 $
#$URL: svn://www.crystallography.net/cod/cif/7/20/14/7201404.cif $
#------------------------------------------------------------------------------
#
# This file is available in the Crystallography Open Database (COD),
# http://www.crystallography.net/
#
# All data on this site have been placed in the public domain by the
# contributors.
#
data_7201404
loop_
_publ_author_name
'Gajda, Roman'
'Katrusiak, Andrzej'
'Crassous, Jeanne'
_publ_section_title
;
 Pressure-controlled aggregation in carboxylic acids. A case study on
 the polymorphism of bromochlorofluoroacetic acid
;
_journal_issue                   12
_journal_name_full               CrystEngComm
_journal_page_first              2668
_journal_paper_doi               10.1039/b910409g
_journal_volume                  11
_journal_year                    2009
_chemical_formula_moiety         'C2 H Br Cl F O2'
_chemical_formula_sum            'C2 H Br Cl F O2'
_chemical_formula_weight         191.39
_chemical_name_common            'bromochlorofluorocarboxylic acid'
_chemical_name_systematic
;
bromochlorofluorocarboxylic acid
;
_space_group_IT_number           14
_symmetry_cell_setting           monoclinic
_symmetry_space_group_name_Hall  '-P 2ybc'
_symmetry_space_group_name_H-M   'P 1 21/c 1'
_atom_sites_solution_hydrogens   geom
_atom_sites_solution_primary     direct
_atom_sites_solution_secondary   difmap
_audit_creation_method           SHELXL-97
_cell_angle_alpha                90.00
_cell_angle_beta                 95.553(14)
_cell_angle_gamma                90.00
_cell_formula_units_Z            4
_cell_length_a                   7.898(2)
_cell_length_b                   7.840(3)
_cell_length_c                   8.043(2)
_cell_measurement_reflns_used    1261
_cell_measurement_temperature    293(2)
_cell_measurement_theta_max      25.0
_cell_measurement_theta_min      3.64
_cell_volume                     495.7(3)
_computing_cell_refinement       'CrysAlis (Oxford Diffraction, 2004)'
_computing_data_collection       'CrysAlis (Oxford Diffraction, 2004)'
_computing_data_reduction        'CrysAlis (Oxford Diffraction, 2004)'
_computing_molecular_graphics    'X-seed 2.0'
_computing_publication_material  'X-seed 2.0'
_computing_structure_refinement  'SHELXL-97 (Sheldrick, 1997)'
_computing_structure_solution    'SHELXS-97 (Sheldrick, 1990)'
_diffrn_ambient_pressure         800000
_diffrn_ambient_temperature      293(2)
_diffrn_measured_fraction_theta_full 0.366
_diffrn_measured_fraction_theta_max 0.366
_diffrn_measurement_device_type  'Kuma KM4CCD \k geometry'
_diffrn_measurement_method       '\w scans'
_diffrn_radiation_monochromator  graphite
_diffrn_radiation_source         'fine-focus sealed tube'
_diffrn_radiation_type           MoK\a
_diffrn_radiation_wavelength     0.71073
_diffrn_reflns_av_R_equivalents  0.0508
_diffrn_reflns_av_sigmaI/netI    0.0220
_diffrn_reflns_limit_h_max       7
_diffrn_reflns_limit_h_min       -7
_diffrn_reflns_limit_k_max       7
_diffrn_reflns_limit_k_min       -7
_diffrn_reflns_limit_l_max       9
_diffrn_reflns_limit_l_min       -9
_diffrn_reflns_number            2252
_diffrn_reflns_theta_full        25.00
_diffrn_reflns_theta_max         25.00
_diffrn_reflns_theta_min         3.64
_exptl_absorpt_coefficient_mu    8.731
_exptl_absorpt_correction_T_max  0.488
_exptl_absorpt_correction_T_min  0.33
_exptl_absorpt_correction_type   analytical
_exptl_absorpt_process_details
;
Katrusiak, A. (2003). REDSHADE - Program for correcting
reflections intensities for DAC absorption, gasket shadowing
and sample crystal absorption. Adam Mickiewicz University, Pozna\'n.

Katrusiak, A. (2004). Z. Kristallogr. 219, 461-467
;
_exptl_crystal_colour            colourless
_exptl_crystal_density_diffrn    2.565
_exptl_crystal_density_method    'not measured'
_exptl_crystal_description       disc
_exptl_crystal_F_000             360
_exptl_crystal_size_max          0.470
_exptl_crystal_size_mid          0.460
_exptl_crystal_size_min          0.085
_refine_diff_density_max         0.564
_refine_diff_density_min         -0.475
_refine_diff_density_rms         0.125
_refine_ls_extinction_method     none
_refine_ls_goodness_of_fit_ref   1.203
_refine_ls_hydrogen_treatment    constr
_refine_ls_matrix_type           full
_refine_ls_number_parameters     55
_refine_ls_number_reflns         320
_refine_ls_number_restraints     0
_refine_ls_restrained_S_all      1.203
_refine_ls_R_factor_all          0.0589
_refine_ls_R_factor_gt           0.0575
_refine_ls_shift/su_max          0.000
_refine_ls_shift/su_mean         0.000
_refine_ls_structure_factor_coef Fsqd
_refine_ls_weighting_details
'calc w=1/[\s^2^(Fo^2^)+(0.0959P)^2^+4.4939P] where P=(Fo^2^+2Fc^2^)/3'
_refine_ls_weighting_scheme      calc
_refine_ls_wR_factor_gt          0.1732
_refine_ls_wR_factor_ref         0.1751
_reflns_number_gt                308
_reflns_number_total             320
_reflns_threshold_expression     >2sigma(I)
_cod_data_source_file            b910409g.txt
_cod_data_source_block           bromochlorofluorocarboxylic_acid_3
_cod_depositor_comments
;
The following automatic conversions were performed:
'_symmetry_cell_setting' value 'Monoclinic' changed to 'monoclinic'
according to '/home/saulius/struct/CIF-dictionaries/cif_core.dic'
dictionary named 'cif_core.dic' version 2.4.1 from 2010-06-29.

Automatic conversion script
Id: cif_fix_enum 1527 2010-12-29 10:47:43Z saulius 
;
_cod_original_cell_volume        495.6(2)
_cod_original_sg_symbol_H-M      'P 21/c'
_cod_database_code               7201404
loop_
_symmetry_equiv_pos_as_xyz
'x, y, z'
'-x, y+1/2, -z+1/2'
'-x, -y, -z'
'x, -y-1/2, z-1/2'
loop_
_atom_site_label
_atom_site_type_symbol
_atom_site_fract_x
_atom_site_fract_y
_atom_site_fract_z
_atom_site_U_iso_or_equiv
_atom_site_adp_type
_atom_site_occupancy
_atom_site_symmetry_multiplicity
_atom_site_calc_flag
_atom_site_refinement_flags
_atom_site_disorder_assembly
_atom_site_disorder_group
Br1 Br 0.4764(4) 0.1409(4) -0.1938(3) 0.0499(13) Uani 0.451(9) 1 d P . .
Br2 Br 0.2447(3) -0.0256(3) -0.4786(2) 0.0462(11) Uani 0.549(9) 1 d P . .
Cl1 Cl 0.4764(4) 0.1409(4) -0.1938(3) 0.0499(13) Uani 0.549(9) 1 d P . .
Cl2 Cl 0.2447(3) -0.0256(3) -0.4786(2) 0.0462(11) Uani 0.451(9) 1 d P . .
F1 F 0.2103(14) 0.2788(14) -0.3476(11) 0.058(3) Uani 1 1 d . . .
C1 C 0.138(2) 0.057(2) -0.1712(17) 0.031(4) Uiso 1 1 d . . .
C2 C 0.2589(19) 0.1204(18) -0.2967(15) 0.027(3) Uiso 1 1 d . . .
O1 O 0.1882(15) -0.0742(14) -0.0870(12) 0.039(3) Uani 1 1 d . . .
O2 O 0.0064(16) 0.1356(16) -0.1606(12) 0.040(3) Uani 1 1 d . . .
H1 H 0.1234 -0.0926 -0.0153 0.058 Uiso 1 1 calc R . .
loop_
_atom_site_aniso_label
_atom_site_aniso_U_11
_atom_site_aniso_U_22
_atom_site_aniso_U_33
_atom_site_aniso_U_23
_atom_site_aniso_U_13
_atom_site_aniso_U_12
Br1 0.026(4) 0.076(4) 0.0472(18) -0.0016(12) -0.002(2) -0.0111(10)
Br2 0.048(4) 0.058(3) 0.0324(15) -0.0090(9) 0.0065(19) -0.0008(8)
Cl1 0.026(4) 0.076(4) 0.0472(18) -0.0016(12) -0.002(2) -0.0111(10)
Cl2 0.048(4) 0.058(3) 0.0324(15) -0.0090(9) 0.0065(19) -0.0008(8)
F1 0.098(14) 0.017(12) 0.065(6) 0.022(5) 0.037(8) 0.008(4)
O1 0.046(15) 0.030(15) 0.043(6) 0.007(5) 0.018(8) 0.006(4)
O2 0.030(16) 0.055(15) 0.033(6) 0.005(5) 0.003(8) 0.007(5)
loop_
_atom_type_symbol
_atom_type_description
_atom_type_scat_dispersion_real
_atom_type_scat_dispersion_imag
_atom_type_scat_source
C C 0.0033 0.0016 'International Tables Vol C Tables 4.2.6.8 and 6.1.1.4'
H H 0.0000 0.0000 'International Tables Vol C Tables 4.2.6.8 and 6.1.1.4'
O O 0.0106 0.0060 'International Tables Vol C Tables 4.2.6.8 and 6.1.1.4'
F F 0.0171 0.0103 'International Tables Vol C Tables 4.2.6.8 and 6.1.1.4'
Cl Cl 0.1484 0.1585 'International Tables Vol C Tables 4.2.6.8 and 6.1.1.4'
Br Br -0.2901 2.4595 'International Tables Vol C Tables 4.2.6.8 and 6.1.1.4'
loop_
_geom_angle_atom_site_label_1
_geom_angle_atom_site_label_2
_geom_angle_atom_site_label_3
_geom_angle
_geom_angle_site_symmetry_1
_geom_angle_site_symmetry_3
_geom_angle_publ_flag
O2 C1 O1 126.4(12) . . ?
O2 C1 C2 118.1(13) . . ?
O1 C1 C2 115.5(12) . . ?
F1 C2 C1 108.7(10) . . ?
F1 C2 Br1 106.3(9) . . ?
C1 C2 Br1 110.2(10) . . ?
F1 C2 Cl1 106.3(9) . . ?
C1 C2 Cl1 110.2(10) . . ?
Br1 C2 Cl1 0.0(2) . . ?
F1 C2 Br2 109.5(9) . . ?
C1 C2 Br2 109.0(10) . . ?
Br1 C2 Br2 113.1(7) . . ?
Cl1 C2 Br2 113.1(7) . . ?
F1 C2 Cl2 109.5(9) . . ?
C1 C2 Cl2 109.0(10) . . ?
Br1 C2 Cl2 113.1(7) . . ?
Cl1 C2 Cl2 113.1(7) . . ?
Br2 C2 Cl2 0.00(15) . . ?
loop_
_geom_bond_atom_site_label_1
_geom_bond_atom_site_label_2
_geom_bond_distance
_geom_bond_site_symmetry_2
_geom_bond_publ_flag
Br1 C2 1.840(16) . ?
Br2 C2 1.853(13) . ?
Cl1 C2 1.840(16) . ?
Cl2 C2 1.853(13) . ?
F1 C2 1.352(17) . ?
C1 O2 1.220(18) . ?
C1 O1 1.273(17) . ?
C1 C2 1.536(19) . ?
loop_
_geom_torsion_atom_site_label_1
_geom_torsion_atom_site_label_2
_geom_torsion_atom_site_label_3
_geom_torsion_atom_site_label_4
_geom_torsion
_geom_torsion_site_symmetry_1
_geom_torsion_site_symmetry_2
_geom_torsion_site_symmetry_3
_geom_torsion_site_symmetry_4
_geom_torsion_publ_flag
O2 C1 C2 F1 13(2) . . . . ?
O1 C1 C2 F1 -166.1(14) . . . . ?
O2 C1 C2 Br1 129.6(16) . . . . ?
O1 C1 C2 Br1 -50.0(17) . . . . ?
O2 C1 C2 Cl1 129.6(16) . . . . ?
O1 C1 C2 Cl1 -50.0(17) . . . . ?
O2 C1 C2 Br2 -105.8(17) . . . . ?
O1 C1 C2 Br2 74.6(16) . . . . ?
O2 C1 C2 Cl2 -105.8(17) . . . . ?
O1 C1 C2 Cl2 74.6(16) . . . . ?
loop_
_refln_index_h
_refln_index_k
_refln_index_l
_refln_F_squared_calc
_refln_F_squared_meas
_refln_F_squared_sigma
_refln_observed_status
1 1 0 1132.67 1099.01 12.58 o
2 1 0 104.60 104.29 1.73 o
1 2 0 480.82 491.97 7.06 o
2 2 0 6094.58 5849.88 84.40 o
3 2 0 12.46 8.02 1.25 o
2 3 0 439.57 447.92 10.23 o
3 3 0 1961.29 1888.14 24.58 o
4 3 0 161.98 141.72 5.86 o
5 3 0 28.40 20.07 4.08 o
2 4 0 8049.89 5908.32 351.86 o
3 4 0 191.34 175.42 3.60 o
4 4 0 92.25 85.88 3.56 o
5 4 0 560.51 609.84 7.90 o
3 5 0 240.17 213.28 13.84 o
4 5 0 228.20 246.22 6.96 o
5 5 0 1551.40 1761.39 28.93 o
6 5 0 90.38 87.43 4.04 o
4 6 0 501.08 345.28 24.82 o
5 6 0 47.75 35.52 4.82 o
6 6 0 52.92 46.58 3.84 o
7 6 0 3.18 3.20 2.93 o
6 7 0 18.05 9.16 3.73 o
-3 1 1 622.57 582.46 22.20 o
-2 1 1 7344.37 7662.19 63.87 o
-1 1 1 2408.66 2466.38 11.91 o
0 1 1 1074.58 1208.54 14.29 o
1 1 1 3113.75 3210.87 42.50 o
-4 2 1 1967.02 1974.18 18.88 o
-3 2 1 1040.41 1004.98 10.65 o
-2 2 1 4827.04 4806.24 46.32 o
1 2 1 4250.72 3990.45 42.13 o
2 2 1 7613.80 7853.17 81.97 o
3 2 1 639.44 604.91 5.12 o
-5 3 1 464.70 408.41 6.89 o
-4 3 1 4661.04 5050.84 32.81 o
-3 3 1 1322.21 1252.24 17.80 o
-2 3 1 56.68 51.20 2.52 o
1 3 1 230.65 174.43 14.20 o
2 3 1 2772.85 2891.96 29.09 o
3 3 1 164.74 186.34 2.65 o
4 3 1 1656.93 1644.09 20.66 o
-6 4 1 13.19 13.11 2.58 o
-5 4 1 212.76 235.58 4.56 o
-4 4 1 25.57 27.94 2.12 o
-3 4 1 230.56 206.29 3.72 o
2 4 1 211.86 217.69 4.92 o
3 4 1 639.86 661.81 6.94 o
4 4 1 568.35 601.34 6.02 o
5 4 1 92.94 60.68 7.70 o
-6 5 1 39.06 47.60 4.95 o
-5 5 1 0.18 3.39 1.53 o
-4 5 1 749.49 869.39 23.18 o
3 5 1 191.85 195.19 5.23 o
4 5 1 173.65 206.99 4.87 o
5 5 1 25.10 13.72 2.50 o
6 5 1 46.44 30.66 4.78 o
-7 6 1 39.87 30.89 4.36 o
-6 6 1 1.22 3.23 2.32 o
-5 6 1 260.02 232.55 40.01 o
4 6 1 796.42 878.88 21.65 o
5 6 1 57.56 59.11 6.04 o
6 6 1 73.69 75.06 10.73 o
-6 7 1 124.65 80.85 32.22 o
5 7 1 51.49 27.04 5.48 o
6 7 1 0.95 3.95 2.65 o
-2 0 2 16646.69 16312.18 283.03 o
-1 0 2 4866.41 4955.90 42.34 o
0 0 2 56.84 80.16 2.32 o
-3 1 2 21.82 37.66 2.20 o
-2 1 2 5905.58 5911.46 61.92 o
-1 1 2 5606.60 5686.55 48.62 o
0 1 2 532.25 552.54 6.27 o
1 1 2 274.29 261.35 18.44 o
-4 2 2 4649.61 4849.33 47.77 o
-3 2 2 206.56 238.48 3.21 o
-2 2 2 7755.21 7812.29 69.99 o
0 2 2 8039.61 8664.18 42.08 o
1 2 2 101.38 94.30 1.21 o
2 2 2 1152.03 1142.67 10.25 o
-5 3 2 721.13 662.16 11.03 o
-4 3 2 947.74 929.97 11.81 o
-3 3 2 61.40 47.79 2.57 o
-2 3 2 49.84 38.44 6.95 o
1 3 2 1467.15 1569.72 12.34 o
2 3 2 374.23 380.63 3.60 o
3 3 2 833.46 918.00 14.04 o
4 3 2 62.83 40.80 8.07 o
-6 4 2 145.11 147.33 4.81 o
-5 4 2 12.83 10.01 2.29 o
-4 4 2 1294.31 1408.97 17.10 o
-3 4 2 401.22 364.41 20.31 o
1 4 2 2215.95 1775.41 58.08 o
2 4 2 89.21 92.45 2.36 o
3 4 2 327.42 326.38 5.11 o
4 4 2 4836.13 5333.90 67.58 o
-7 5 2 624.47 601.04 66.41 o
-6 5 2 905.75 1125.98 11.42 o
-5 5 2 4.93 5.31 2.19 o
-4 5 2 330.45 250.66 24.43 o
2 5 2 104.73 91.03 6.15 o
3 5 2 216.83 231.77 3.96 o
4 5 2 117.15 117.46 3.27 o
5 5 2 5.83 4.44 2.01 o
-7 6 2 18.84 13.46 4.01 o
-6 6 2 55.40 46.18 6.17 o
-5 6 2 23.14 291.46 12.21 o
3 6 2 127.12 95.08 4.81 o
4 6 2 11.38 8.33 3.67 o
5 6 2 112.22 117.67 6.04 o
6 6 2 222.43 217.01 17.24 o
5 7 2 119.44 118.97 12.33 o
-4 1 3 3605.47 3631.61 52.78 o
-3 1 3 4073.76 4105.00 57.65 o
-2 1 3 4.45 9.73 0.63 o
-1 1 3 566.20 715.99 39.32 o
0 1 3 15754.85 15782.23 412.24 o
1 1 3 2044.69 1904.73 105.53 o
-5 2 3 5.11 5.44 1.54 o
-4 2 3 24.43 21.84 1.58 o
-3 2 3 44.41 48.91 1.60 o
-2 2 3 27.86 28.89 4.17 o
-1 2 3 859.43 964.79 8.84 o
0 2 3 3464.93 3903.19 25.29 o
1 2 3 253.68 306.72 4.42 o
2 2 3 12.16 11.83 1.45 o
-6 3 3 2158.82 2036.89 120.36 o
-5 3 3 1084.15 1138.20 20.00 o
-4 3 3 160.49 176.69 3.80 o
-3 3 3 24.39 19.67 1.55 o
0 3 3 6.10 6.74 1.60 o
1 3 3 1.40 6.93 0.82 o
2 3 3 5806.12 5541.98 162.57 o
3 3 3 704.48 726.28 20.60 o
-6 4 3 36.22 27.23 2.61 o
-5 4 3 412.79 475.01 5.51 o
-4 4 3 340.84 231.29 17.66 o
1 4 3 1844.60 1925.60 24.66 o
2 4 3 913.71 1029.65 8.21 o
3 4 3 459.65 490.13 5.85 o
4 4 3 29.57 24.43 3.13 o
-7 5 3 51.45 41.92 4.42 o
-6 5 3 617.43 689.86 8.94 o
-5 5 3 331.20 276.10 19.37 o
2 5 3 1286.19 1341.99 90.38 o
3 5 3 46.39 51.26 3.02 o
4 5 3 95.21 101.10 3.93 o
5 5 3 0.22 3.19 2.16 o
-6 6 3 6.37 5.05 2.84 o
3 6 3 4.42 5.76 2.33 o
4 6 3 15.10 13.08 4.03 o
5 6 3 595.46 720.44 20.61 o
4 7 3 98.11 113.18 8.92 o
5 7 3 2.28 3.61 2.58 o
-3 0 4 195.05 189.00 4.19 o
-2 0 4 3071.55 3184.80 40.78 o
-1 0 4 116.06 120.43 3.04 o
0 0 4 1080.18 669.62 7.31 o
-4 1 4 203.87 205.24 3.07 o
-3 1 4 1330.86 1272.47 47.46 o
-2 1 4 4761.62 5033.39 31.84 o
-1 1 4 185.70 163.70 11.93 o
0 1 4 1268.71 1334.25 14.98 o
1 1 4 1702.30 1124.17 31.42 o
-5 2 4 352.94 422.66 6.93 o
-4 2 4 1671.03 1862.43 19.98 o
-3 2 4 988.20 1027.34 18.48 o
-2 2 4 1671.83 1458.84 83.45 o
-1 2 4 1272.08 1362.26 12.50 o
0 2 4 2632.10 2433.68 152.26 o
1 2 4 593.21 565.84 5.93 o
2 2 4 2861.87 2234.31 72.85 o
-6 3 4 477.02 437.81 7.60 o
-5 3 4 39.75 32.63 2.78 o
-4 3 4 89.96 82.85 4.87 o
-3 3 4 957.17 830.25 54.41 o
-1 3 4 3.76 4.04 1.67 o
0 3 4 674.14 798.72 7.64 o
1 3 4 74.01 237.20 61.21 o
2 3 4 947.85 987.95 17.42 o
3 3 4 273.15 227.08 14.24 o
-7 4 4 383.39 374.79 49.13 o
-6 4 4 0.95 4.90 1.82 o
-5 4 4 20.78 15.98 2.45 o
-4 4 4 896.50 813.85 64.23 o
0 4 4 439.17 398.46 11.18 o
1 4 4 29.73 27.85 2.42 o
2 4 4 716.40 869.12 6.27 o
3 4 4 998.14 1030.77 12.48 o
-7 5 4 0.46 6.34 2.95 o
-6 5 4 9.79 11.63 2.92 o
-5 5 4 456.01 224.84 111.31 o
1 5 4 6.81 4.28 2.10 o
2 5 4 352.43 379.03 25.71 o
3 5 4 645.85 777.77 8.30 o
4 5 4 553.21 563.57 25.84 o
3 6 4 51.50 44.82 5.15 o
4 6 4 292.94 360.65 10.69 o
5 6 4 66.69 33.07 8.40 o
4 7 4 61.95 56.82 7.27 o
-5 1 5 1748.96 1740.07 46.25 o
-4 1 5 192.15 202.08 3.73 o
-3 1 5 554.42 607.01 5.47 o
-2 1 5 5313.08 5881.34 55.51 o
-1 1 5 3299.56 3637.40 36.03 o
0 1 5 399.82 380.68 4.97 o
-6 2 5 257.77 239.84 12.91 o
-5 2 5 194.12 236.85 4.73 o
-4 2 5 1677.63 1747.74 17.61 o
-3 2 5 92.26 74.65 7.41 o
-2 2 5 42.35 51.46 2.71 o
-1 2 5 188.39 187.86 2.82 o
0 2 5 945.66 925.62 7.81 o
1 2 5 523.63 507.80 21.78 o
-6 3 5 6.67 5.68 2.87 o
-5 3 5 136.17 112.52 5.34 o
-4 3 5 1677.19 1814.53 9.87 o
-1 3 5 57.26 61.18 3.13 o
0 3 5 3363.06 3853.71 58.44 o
1 3 5 1697.19 1880.38 8.64 o
2 3 5 30.81 25.31 2.72 o
-7 4 5 47.90 53.13 8.67 o
-6 4 5 244.59 251.73 10.97 o
-5 4 5 46.12 10.49 3.90 o
0 4 5 613.42 708.54 13.46 o
1 4 5 466.83 519.53 5.11 o
2 4 5 136.81 128.89 7.71 o
3 4 5 550.57 525.03 32.98 o
-6 5 5 1.82 2.05 2.46 o
1 5 5 333.27 334.60 18.14 o
2 5 5 16.01 24.71 2.89 o
3 5 5 25.47 23.78 2.97 o
4 5 5 239.19 224.35 58.28 o
2 6 5 79.37 51.72 9.67 o
3 6 5 371.53 347.86 14.90 o
4 6 5 16.15 7.69 3.28 o
-4 0 6 3014.27 3379.81 58.62 o
-3 0 6 2853.30 3250.24 30.11 o
-2 0 6 0.89 3.32 1.30 o
-1 0 6 594.81 459.06 21.41 o
-5 1 6 8.71 9.63 2.56 o
-4 1 6 9.82 15.97 2.26 o
-3 1 6 410.96 391.37 16.08 o
-2 1 6 255.11 252.51 13.24 o
-1 1 6 100.74 110.87 3.78 o
0 1 6 733.99 576.63 14.51 o
-6 2 6 198.27 207.73 13.13 o
-5 2 6 322.51 361.84 5.45 o
-4 2 6 15.16 21.74 2.90 o
-3 2 6 442.14 413.19 12.50 o
-2 2 6 393.54 417.75 9.01 o
-1 2 6 1156.48 1271.52 8.36 o
0 2 6 287.12 350.08 4.46 o
1 2 6 708.73 513.43 21.02 o
-6 3 6 23.67 2.62 6.31 o
-5 3 6 217.00 234.70 9.48 o
-4 3 6 70.48 41.48 7.58 o
-1 3 6 176.97 207.05 5.41 o
0 3 6 301.58 315.11 7.24 o
1 3 6 54.79 52.88 3.05 o
2 3 6 3.92 1.42 3.39 o
-6 4 6 513.15 521.29 68.43 o
0 4 6 51.06 59.43 4.50 o
1 4 6 2.94 4.90 1.70 o
2 4 6 722.22 883.81 8.92 o
1 5 6 378.02 471.89 11.27 o
2 5 6 1213.54 1401.32 19.89 o
3 5 6 25.68 22.06 4.33 o
2 6 6 85.48 61.40 9.04 o
3 6 6 20.28 25.09 5.96 o
-5 1 7 536.21 573.35 15.74 o
-4 1 7 198.06 206.52 7.12 o
-3 1 7 1078.24 1164.39 21.44 o
-2 1 7 177.84 165.24 4.26 o
-1 1 7 368.96 398.21 13.82 o
-6 2 7 615.62 676.06 17.04 o
-5 2 7 82.59 92.05 4.43 o
-4 2 7 80.95 73.20 8.60 o
-3 2 7 749.85 743.12 32.22 o
-2 2 7 1165.98 1412.72 17.43 o
-1 2 7 1.91 3.87 1.47 o
0 2 7 332.30 281.86 22.68 o
-6 3 7 17.32 19.60 5.57 o
-5 3 7 253.70 169.62 11.05 o
-2 3 7 393.76 437.78 15.30 o
-1 3 7 1178.54 1489.89 17.84 o
0 3 7 162.41 159.74 5.21 o
1 3 7 10.45 9.47 2.83 o
-1 4 7 267.38 227.00 12.16 o
0 4 7 116.35 106.31 6.64 o
1 4 7 3.56 6.42 2.15 o
2 4 7 11.76 4.08 4.28 o
0 5 7 65.37 67.28 11.52 o
1 5 7 23.57 36.91 5.26 o
2 5 7 118.20 124.04 7.11 o
-5 0 8 954.95 867.23 22.51 o
-4 0 8 222.04 226.25 7.06 o
-3 0 8 94.67 105.19 10.68 o
-2 0 8 649.55 389.49 22.48 o
-5 1 8 26.85 25.14 4.47 o
-4 1 8 60.61 37.30 3.36 o
-3 1 8 8.19 9.65 2.64 o
-2 1 8 1.69 99.92 25.42 o
-1 1 8 15.30 7.53 3.20 o
-5 2 8 189.02 163.55 16.98 o
-3 2 8 396.16 465.15 14.32 o
-2 2 8 55.72 66.13 4.13 o
-1 2 8 198.87 210.47 5.87 o
-2 3 8 327.41 269.09 20.23 o
-1 3 8 0.27 4.49 2.44 o
0 3 8 415.84 361.57 22.00 o
-1 4 8 43.43 26.99 5.31 o
0 4 8 567.76 696.92 8.56 o
1 4 8 576.61 594.12 16.38 o
0 5 8 164.99 120.85 13.12 o
-3 1 9 388.99 431.34 48.05 o
-2 1 9 31.63 14.91 3.15 o
-3 2 9 98.86 156.83 15.49 o
-2 2 9 21.64 37.25 4.30 o
-1 2 9 87.91 28.77 6.76 o
-1 3 9 266.71 312.02 13.47 o
