#------------------------------------------------------------------------------
#$Date: 2017-10-14 22:27:35 +0300 (Sat, 14 Oct 2017) $
#$Revision: 202017 $
#$URL: file:///home/coder/svn-repositories/cod/cif/7/20/16/7201661.cif $
#------------------------------------------------------------------------------
#
# This file is available in the Crystallography Open Database (COD),
# http://www.crystallography.net/
#
# All data on this site have been placed in the public domain by the
# contributors.
#
data_7201661
loop_
_publ_author_name
'Wood, Peter A.'
'Forgan, Ross S.'
'Lennie, Alistair R.'
'Parsons, Simon'
'Pidcock, Elna'
'Tasker, Peter A.'
'Warren, John E.'
_publ_section_title
;
 The effect of pressure and substituents on the size of
 pseudo-macrocyclic cavities in salicylaldoxime ligands
;
_journal_issue                   2
_journal_name_full               CrystEngComm
_journal_page_first              239
_journal_paper_doi               10.1039/b712397c
_journal_volume                  10
_journal_year                    2008
_chemical_formula_moiety         'C7 H6 Cl1 N1 O2'
_chemical_formula_sum            'C7 H6 Cl N O2'
_chemical_formula_weight         171.58
_chemical_name_common            3-chlorosalicylaldoxime
_chemical_name_systematic        3-chlorosalicylaldoxime
_space_group_IT_number           14
_symmetry_cell_setting           monoclinic
_symmetry_space_group_name_Hall  '-P 2ybc'
_symmetry_space_group_name_H-M   'P 1 21/c 1'
_atom_sites_solution_hydrogens   geom
_atom_sites_solution_primary     direct
_audit_creation_date             06-07-19
_audit_creation_method           CRYSTALS_ver_12.84
_cell_angle_alpha                90
_cell_angle_beta                 94.44(4)
_cell_angle_gamma                90
_cell_formula_units_Z            4
_cell_length_a                   12.544(6)
_cell_length_b                   3.4424(8)
_cell_length_c                   13.365(5)
_cell_measurement_reflns_used    838
_cell_measurement_temperature    298
_cell_measurement_theta_max      25
_cell_measurement_theta_min      3
_cell_volume                     575.4(4)
_computing_cell_refinement       'SAINT (Siemens ,1995)'
_computing_data_collection       'SMART (Siemens, 1993)'
_computing_data_reduction        'SAINT (Siemens ,1995)'
_computing_molecular_graphics    'CAMERON (Watkin et al., 1996)'
_computing_publication_material  'CRYSTALS (Betteridge et al., 2003)'
_computing_structure_refinement  'CRYSTALS (Betteridge et al., 2003)'
_computing_structure_solution    'Model taken from ambient pressure structure'
_diffrn_ambient_pressure         5000000
_diffrn_ambient_temperature      298
_diffrn_measured_fraction_theta_full 0.323
_diffrn_measured_fraction_theta_max 0.314
_diffrn_measurement_device_type  'Bruker SMART Apex CCD'
_diffrn_measurement_method       \w
_diffrn_radiation_monochromator  graphite
_diffrn_radiation_type           'Mo K\a'
_diffrn_radiation_wavelength     0.71073
_diffrn_reflns_av_R_equivalents  0.098
_diffrn_reflns_limit_h_max       6
_diffrn_reflns_limit_h_min       -6
_diffrn_reflns_limit_k_max       4
_diffrn_reflns_limit_k_min       -4
_diffrn_reflns_limit_l_max       15
_diffrn_reflns_limit_l_min       -15
_diffrn_reflns_number            3081
_diffrn_reflns_theta_full        25.112
_diffrn_reflns_theta_max         25.889
_diffrn_reflns_theta_min         3.057
_diffrn_standards_number         0
_exptl_absorpt_coefficient_mu    0.589
_exptl_absorpt_correction_T_max  0.94
_exptl_absorpt_correction_T_min  0.27
_exptl_absorpt_correction_type   multi-scan
_exptl_absorpt_process_details   'SADABS version 2006/1'
_exptl_crystal_colour            colourless
_exptl_crystal_density_diffrn    1.981
_exptl_crystal_description       block
_exptl_crystal_F_000             352
_exptl_crystal_recrystallization_method
'Recrystallisation by pressure from methanol/ethanol solution'
_exptl_crystal_size_max          0.18
_exptl_crystal_size_mid          0.15
_exptl_crystal_size_min          0.10
_refine_diff_density_max         0.33
_refine_diff_density_min         -0.33
_refine_ls_extinction_method     None
_refine_ls_goodness_of_fit_ref   0.9958
_refine_ls_hydrogen_treatment    mixed
_refine_ls_matrix_type           full
_refine_ls_number_parameters     106
_refine_ls_number_reflns         344
_refine_ls_number_restraints     120
_refine_ls_R_factor_all          0.0775
_refine_ls_R_factor_gt           0.0450
_refine_ls_shift/su_max          0.000073
_refine_ls_structure_factor_coef Fsqd
_refine_ls_weighting_details
;
Method= Modified Sheldrick
w=1/[\s^2^(F^2^) + ( 0.06P)^2^ + 0.71P]
,where P=(max(Fo^2^,0) + 2Fc^2^)/3
;
_refine_ls_weighting_scheme      calc
_refine_ls_wR_factor_all         0.1234
_refine_ls_wR_factor_gt          0.1039
_refine_ls_wR_factor_ref         0.1234
_reflns_limit_h_max              6
_reflns_limit_h_min              -3
_reflns_limit_k_max              4
_reflns_limit_k_min              0
_reflns_limit_l_max              15
_reflns_limit_l_min              0
_reflns_number_gt                231
_reflns_number_total             351
_reflns_threshold_expression     I>2.0\s(I)
_oxford_diffrn_Wilson_B_factor   0.00
_oxford_diffrn_Wilson_scale      0.00
_oxford_refine_ls_scale          3.34(15)
_cod_data_source_file            B712397C.txt
_cod_data_source_block           Cl50kbar
_cod_depositor_comments
;
The following automatic conversions were performed:
'_symmetry_cell_setting' value 'Monoclinic' changed to 'monoclinic'
according to '/home/saulius/struct/CIF-dictionaries/cif_core.dic'
dictionary named 'cif_core.dic' version 2.4.1 from 2010-06-29.

Automatic conversion script
Id: cif_fix_enum 1527 2010-12-29 10:47:43Z saulius 
;
_cod_original_sg_symbol_H-M      'P 21/c'
_cod_original_formula_sum        'C7 H6 Cl1 N1 O2'
_cod_database_code               7201661
loop_
_symmetry_equiv_pos_as_xyz
x,y,z
-x,-y,-z
-x,y+1/2,-z+1/2
x,-y+1/2,z+1/2
loop_
_atom_site_label
_atom_site_type_symbol
_atom_site_fract_x
_atom_site_fract_y
_atom_site_fract_z
_atom_site_U_iso_or_equiv
_atom_site_occupancy
_atom_site_adp_type
_atom_site_refinement_flags_posn
_atom_site_refinement_flags_adp
_atom_site_refinement_flags_occupancy
_atom_site_disorder_assembly
_atom_site_disorder_group
_atom_site_attached_hydrogens
O1 O -0.0739(9) -0.4809(14) 0.8546(5) 0.0288 1.0000 Uani D U . . . .
N2 N 0.0239(13) -0.312(2) 0.8884(6) 0.0281 1.0000 Uani D U . . . .
C3 C 0.0982(14) -0.366(2) 0.8302(6) 0.0218 1.0000 Uani D U . . . .
C4 C 0.2014(10) -0.2002(18) 0.8530(5) 0.0216 1.0000 Uani D U . . . .
C5 C 0.2283(10) -0.0273(18) 0.9468(6) 0.0233 1.0000 Uani D U . . . .
O5 O 0.1571(10) 0.0097(15) 1.0150(5) 0.0318 1.0000 Uani D U . . . .
C6 C 0.3282(9) 0.115(2) 0.9687(5) 0.0274 1.0000 Uani D U . . . .
Cl6 Cl 0.3559(4) 0.3188(4) 1.08550(16) 0.0318 1.0000 Uani D U . . . .
C7 C 0.4066(11) 0.0811(18) 0.9032(6) 0.0250 1.0000 Uani D U . . . .
C8 C 0.3805(11) -0.0942(16) 0.8087(5) 0.0220 1.0000 Uani D U . . . .
C9 C 0.2791(14) -0.2365(19) 0.7859(6) 0.0223 1.0000 Uani D U . . . .
H1 H -0.119(3) -0.38(2) 0.891(5) 0.0441 1.0000 Uiso D . . . . .
H3 H 0.0848 -0.5099 0.7705 0.0272 1.0000 Uiso R . . . . .
H5 H 0.097(3) -0.03(2) 0.983(2) 0.0481 1.0000 Uiso D . . . . .
H7 H 0.4757 0.1703 0.9206 0.0298 1.0000 Uiso R . . . . .
H8 H 0.4320 -0.1134 0.7629 0.0269 1.0000 Uiso R . . . . .
H9 H 0.2620 -0.3565 0.7242 0.0270 1.0000 Uiso R . . . . .
loop_
_atom_site_aniso_label
_atom_site_aniso_U_11
_atom_site_aniso_U_22
_atom_site_aniso_U_33
_atom_site_aniso_U_23
_atom_site_aniso_U_13
_atom_site_aniso_U_12
O1 0.031(14) 0.030(3) 0.025(4) -0.007(2) 0.001(7) -0.005(4)
N2 0.030(14) 0.030(3) 0.023(6) 0.003(4) -0.003(6) -0.005(7)
C3 0.035(15) 0.013(3) 0.017(6) 0.010(4) -0.001(6) -0.007(6)
C4 0.033(15) 0.019(3) 0.013(4) 0.005(3) 0.001(5) -0.006(6)
C5 0.034(12) 0.018(3) 0.017(4) 0.000(3) -0.003(5) 0.005(6)
O5 0.045(13) 0.033(2) 0.018(4) -0.005(3) 0.004(5) -0.005(5)
C6 0.041(13) 0.025(3) 0.016(4) 0.003(4) -0.003(5) -0.005(7)
Cl6 0.050(9) 0.0243(7) 0.0199(13) -0.0007(8) -0.008(3) -0.0009(13)
C7 0.033(14) 0.016(3) 0.025(4) 0.002(3) -0.004(4) 0.001(6)
C8 0.025(15) 0.019(3) 0.021(3) 0.004(3) -0.003(5) 0.009(5)
C9 0.029(15) 0.019(3) 0.018(4) 0.000(3) -0.001(6) 0.003(6)
loop_
_atom_type_symbol
_atom_type_scat_dispersion_real
_atom_type_scat_dispersion_imag
_atom_type_scat_Cromer_Mann_a1
_atom_type_scat_Cromer_Mann_b1
_atom_type_scat_Cromer_Mann_a2
_atom_type_scat_Cromer_Mann_b2
_atom_type_scat_Cromer_Mann_a3
_atom_type_scat_Cromer_Mann_b3
_atom_type_scat_Cromer_Mann_a4
_atom_type_scat_Cromer_Mann_b4
_atom_type_scat_Cromer_Mann_c
_atom_type_scat_source
C 0.0033 0.0016 2.3100 20.8439 1.0200 10.2075 1.5886 0.5687 0.8650 51.6512
0.2156 'International Tables Vol C 4.2.6.8 and 6.1.1.4'
H 0.0000 0.0000 0.4930 10.5109 0.3229 26.1257 0.1402 3.1424 0.0408 57.7998
0.0030 'International Tables Vol C 4.2.6.8 and 6.1.1.4'
N 0.0061 0.0033 12.2126 0.0057 3.1322 9.8933 2.0125 28.9975 1.1663 0.5826
-11.5290 'International Tables Vol C 4.2.6.8 and 6.1.1.4'
O 0.0106 0.0060 3.0485 13.2771 2.2868 5.7011 1.5463 0.3239 0.8670 32.9089
0.2508 'International Tables Vol C 4.2.6.8 and 6.1.1.4'
Cl 0.1484 0.1585 11.4604 0.0104 7.1964 1.1662 6.2556 18.5194 1.6455 47.7784
-9.5574 'International Tables Vol C 4.2.6.8 and 6.1.1.4'
loop_
_geom_angle_atom_site_label_1
_geom_angle_site_symmetry_1
_geom_angle_atom_site_label_2
_geom_angle_site_symmetry_2
_geom_angle_atom_site_label_3
_geom_angle_site_symmetry_3
_geom_angle
_geom_angle_publ_flag
N2 . O1 . H1 . 104.9(8) no
O1 . N2 . C3 . 114.0(6) yes
N2 . C3 . C4 . 120.5(6) yes
N2 . C3 . H3 . 120.2 no
C4 . C3 . H3 . 119.3 no
C3 . C4 . C5 . 120.7(5) yes
C3 . C4 . C9 . 120.0(5) yes
C5 . C4 . C9 . 119.1(5) yes
C4 . C5 . O5 . 121.7(5) yes
C4 . C5 . C6 . 120.0(5) yes
O5 . C5 . C6 . 118.3(5) yes
C5 . O5 . H5 . 104.9(8) no
C5 . C6 . Cl6 . 117.5(5) yes
C5 . C6 . C7 . 121.9(4) yes
Cl6 . C6 . C7 . 120.5(6) yes
C6 . C7 . C8 . 118.5(6) yes
C6 . C7 . H7 . 120.8 no
C8 . C7 . H7 . 120.6 no
C7 . C8 . C9 . 119.8(6) yes
C7 . C8 . H8 . 119.7 no
C9 . C8 . H8 . 120.6 no
C4 . C9 . C8 . 120.7(5) yes
C4 . C9 . H9 . 119.3 no
C8 . C9 . H9 . 120.0 no
loop_
_geom_bond_atom_site_label_1
_geom_bond_site_symmetry_1
_geom_bond_atom_site_label_2
_geom_bond_site_symmetry_2
_geom_bond_distance
_geom_bond_publ_flag
O1 . N2 . 1.400(15) yes
O1 . H1 . 0.85(4) no
N2 . C3 . 1.27(2) yes
C3 . C4 . 1.426(16) yes
C3 . H3 . 0.943 no
C4 . C5 . 1.404(8) yes
C4 . C9 . 1.380(17) yes
C5 . O5 . 1.331(14) yes
C5 . C6 . 1.356(12) yes
O5 . H5 . 0.84(4) no
C6 . Cl6 . 1.722(7) yes
C6 . C7 . 1.372(14) yes
C7 . C8 . 1.415(9) yes
C7 . H7 . 0.932 no
C8 . C9 . 1.375(15) yes
C8 . H8 . 0.926 no
C9 . H9 . 0.933 no
loop_
_cod_related_entry_id
_cod_related_entry_database
_cod_related_entry_code
1 ChemSpider 21195658
