#------------------------------------------------------------------------------
#$Date: 2016-03-26 16:36:20 +0200 (Sat, 26 Mar 2016) $
#$Revision: 180345 $
#$URL: svn://www.crystallography.net/cod/cif/7/20/14/7201405.cif $
#------------------------------------------------------------------------------
#
# This file is available in the Crystallography Open Database (COD),
# http://www.crystallography.net/
#
# All data on this site have been placed in the public domain by the
# contributors.
#
data_7201405
loop_
_publ_author_name
'Gajda, Roman'
'Katrusiak, Andrzej'
'Crassous, Jeanne'
_publ_section_title
;
 Pressure-controlled aggregation in carboxylic acids. A case study on
 the polymorphism of bromochlorofluoroacetic acid
;
_journal_issue                   12
_journal_name_full               CrystEngComm
_journal_page_first              2668
_journal_paper_doi               10.1039/b910409g
_journal_volume                  11
_journal_year                    2009
_chemical_formula_moiety         'C2 H Br Cl F O2'
_chemical_formula_sum            'C2 H Br Cl F O2'
_chemical_formula_weight         191.39
_chemical_name_common            'bromochlorofluorocarboxylic acid'
_chemical_name_systematic
;
bromochlorofluorocarboxylic acid
;
_space_group_IT_number           14
_symmetry_cell_setting           monoclinic
_symmetry_space_group_name_Hall  '-P 2ybc'
_symmetry_space_group_name_H-M   'P 1 21/c 1'
_atom_sites_solution_hydrogens   geom
_atom_sites_solution_primary     direct
_atom_sites_solution_secondary   difmap
_audit_creation_method           SHELXL-97
_cell_angle_alpha                90.00
_cell_angle_beta                 95.74(2)
_cell_angle_gamma                90.00
_cell_formula_units_Z            4
_cell_length_a                   7.730(3)
_cell_length_b                   7.685(3)
_cell_length_c                   7.997(2)
_cell_measurement_reflns_used    1979
_cell_measurement_temperature    293(2)
_cell_measurement_theta_max      24.98
_cell_measurement_theta_min      3.69
_cell_volume                     472.7(3)
_computing_cell_refinement       'CrysAlis (Oxford Diffraction, 2004)'
_computing_data_collection       'CrysAlis (Oxford Diffraction, 2004)'
_computing_data_reduction        'CrysAlis (Oxford Diffraction, 2004)'
_computing_molecular_graphics    'X-seed 2.0'
_computing_publication_material  'X-seed 2.0'
_computing_structure_refinement  'SHELXL-97 (Sheldrick, 1997)'
_computing_structure_solution    'SHELXS-97 (Sheldrick, 1990)'
_diffrn_ambient_pressure         1370000
_diffrn_ambient_temperature      293(2)
_diffrn_measured_fraction_theta_full 0.335
_diffrn_measured_fraction_theta_max 0.335
_diffrn_measurement_device_type  'Kuma KM4CCD \k geometry'
_diffrn_measurement_method       '\w scans'
_diffrn_radiation_monochromator  graphite
_diffrn_radiation_source         'fine-focus sealed tube'
_diffrn_radiation_type           MoK\a
_diffrn_radiation_wavelength     0.71073
_diffrn_reflns_av_R_equivalents  0.0609
_diffrn_reflns_av_sigmaI/netI    0.0253
_diffrn_reflns_limit_h_max       7
_diffrn_reflns_limit_h_min       -7
_diffrn_reflns_limit_k_max       7
_diffrn_reflns_limit_k_min       -7
_diffrn_reflns_limit_l_max       9
_diffrn_reflns_limit_l_min       -9
_diffrn_reflns_number            1961
_diffrn_reflns_theta_full        24.98
_diffrn_reflns_theta_max         24.98
_diffrn_reflns_theta_min         3.69
_exptl_absorpt_coefficient_mu    9.154
_exptl_absorpt_correction_T_max  0.486
_exptl_absorpt_correction_T_min  0.333
_exptl_absorpt_correction_type   analytical
_exptl_absorpt_process_details
;
Katrusiak, A. (2003). REDSHADE - Program for correcting
reflections intensities for DAC absorption, gasket shadowing
and sample crystal absorption. Adam Mickiewicz University, Pozna\'n.

Katrusiak, A. (2004). Z. Kristallogr. 219, 461-467
;
_exptl_crystal_colour            colourless
_exptl_crystal_density_diffrn    2.689
_exptl_crystal_density_method    'not measured'
_exptl_crystal_description       disc
_exptl_crystal_F_000             360
_exptl_crystal_size_max          0.460
_exptl_crystal_size_mid          0.450
_exptl_crystal_size_min          0.085
_refine_diff_density_max         0.401
_refine_diff_density_min         -0.410
_refine_diff_density_rms         0.101
_refine_ls_extinction_method     none
_refine_ls_goodness_of_fit_ref   1.173
_refine_ls_hydrogen_treatment    constr
_refine_ls_matrix_type           full
_refine_ls_number_parameters     55
_refine_ls_number_reflns         277
_refine_ls_number_restraints     0
_refine_ls_restrained_S_all      1.173
_refine_ls_R_factor_all          0.0467
_refine_ls_R_factor_gt           0.0443
_refine_ls_shift/su_max          0.000
_refine_ls_shift/su_mean         0.000
_refine_ls_structure_factor_coef Fsqd
_refine_ls_weighting_details
'calc w=1/[\s^2^(Fo^2^)+(0.0616P)^2^+3.4947P] where P=(Fo^2^+2Fc^2^)/3'
_refine_ls_weighting_scheme      calc
_refine_ls_wR_factor_gt          0.1173
_refine_ls_wR_factor_ref         0.1201
_reflns_number_gt                259
_reflns_number_total             277
_reflns_threshold_expression     >2sigma(I)
_cod_data_source_file            b910409g.txt
_cod_data_source_block           bromochlorofluorocarboxylic_acid_4
_cod_depositor_comments
;
The following automatic conversions were performed:
'_symmetry_cell_setting' value 'Monoclinic' changed to 'monoclinic'
according to '/home/saulius/struct/CIF-dictionaries/cif_core.dic'
dictionary named 'cif_core.dic' version 2.4.1 from 2010-06-29.

Automatic conversion script
Id: cif_fix_enum 1527 2010-12-29 10:47:43Z saulius 
;
_cod_original_sg_symbol_H-M      'P 21/c'
_cod_database_code               7201405
loop_
_symmetry_equiv_pos_as_xyz
'x, y, z'
'-x, y+1/2, -z+1/2'
'-x, -y, -z'
'x, -y-1/2, z-1/2'
loop_
_atom_site_label
_atom_site_type_symbol
_atom_site_fract_x
_atom_site_fract_y
_atom_site_fract_z
_atom_site_U_iso_or_equiv
_atom_site_adp_type
_atom_site_occupancy
_atom_site_symmetry_multiplicity
_atom_site_calc_flag
_atom_site_refinement_flags
_atom_site_disorder_assembly
_atom_site_disorder_group
Br1 Br 0.4833(3) 0.1425(3) -0.1935(2) 0.0363(9) Uani 0.458(8) 1 d P . .
Br2 Br 0.2454(2) -0.0206(2) -0.4835(2) 0.0363(8) Uani 0.542(8) 1 d P . .
Cl1 Cl 0.4833(3) 0.1425(3) -0.1935(2) 0.0363(9) Uani 0.542(8) 1 d P . .
Cl2 Cl 0.2454(2) -0.0206(2) -0.4835(2) 0.0363(8) Uani 0.458(8) 1 d P . .
F1 F 0.2084(10) 0.2856(11) -0.3491(8) 0.038(2) Uani 1 1 d . . .
C1 C 0.1358(17) 0.0576(17) -0.1724(15) 0.021(3) Uiso 1 1 d . . .
C2 C 0.2597(16) 0.1220(17) -0.2957(14) 0.027(3) Uiso 1 1 d . . .
O1 O 0.1906(12) -0.0754(13) -0.0893(10) 0.034(3) Uani 1 1 d . . .
O2 O 0.0002(12) 0.1393(12) -0.1635(10) 0.034(2) Uani 1 1 d . . .
H1 H 0.1263 -0.0957 -0.0161 0.050 Uiso 1 1 calc R . .
loop_
_atom_site_aniso_label
_atom_site_aniso_U_11
_atom_site_aniso_U_22
_atom_site_aniso_U_33
_atom_site_aniso_U_23
_atom_site_aniso_U_13
_atom_site_aniso_U_12
Br1 0.029(3) 0.047(3) 0.0322(18) -0.0024(8) 0.002(2) -0.0057(7)
Br2 0.040(3) 0.046(3) 0.0234(16) -0.0049(7) 0.0046(19) -0.0009(7)
Cl1 0.029(3) 0.047(3) 0.0322(18) -0.0024(8) 0.002(2) -0.0057(7)
Cl2 0.040(3) 0.046(3) 0.0234(16) -0.0049(7) 0.0046(19) -0.0009(7)
F1 0.052(11) 0.033(11) 0.030(6) 0.003(3) 0.010(7) 0.006(3)
O1 0.039(12) 0.039(12) 0.024(6) 0.013(4) 0.013(8) 0.008(4)
O2 0.028(12) 0.050(13) 0.025(7) -0.001(4) 0.002(8) 0.003(4)
loop_
_atom_type_symbol
_atom_type_description
_atom_type_scat_dispersion_real
_atom_type_scat_dispersion_imag
_atom_type_scat_source
C C 0.0033 0.0016 'International Tables Vol C Tables 4.2.6.8 and 6.1.1.4'
H H 0.0000 0.0000 'International Tables Vol C Tables 4.2.6.8 and 6.1.1.4'
O O 0.0106 0.0060 'International Tables Vol C Tables 4.2.6.8 and 6.1.1.4'
F F 0.0171 0.0103 'International Tables Vol C Tables 4.2.6.8 and 6.1.1.4'
Cl Cl 0.1484 0.1585 'International Tables Vol C Tables 4.2.6.8 and 6.1.1.4'
Br Br -0.2901 2.4595 'International Tables Vol C Tables 4.2.6.8 and 6.1.1.4'
loop_
_geom_angle_atom_site_label_1
_geom_angle_atom_site_label_2
_geom_angle_atom_site_label_3
_geom_angle
_geom_angle_site_symmetry_1
_geom_angle_site_symmetry_3
_geom_angle_publ_flag
O2 C1 O1 128.5(9) . . ?
O2 C1 C2 117.8(10) . . ?
O1 C1 C2 113.7(10) . . ?
F1 C2 C1 108.5(9) . . ?
F1 C2 Br1 106.8(8) . . ?
C1 C2 Br1 111.3(9) . . ?
F1 C2 Cl1 106.8(8) . . ?
C1 C2 Cl1 111.3(9) . . ?
Br1 C2 Cl1 0.00(19) . . ?
F1 C2 Br2 107.3(8) . . ?
C1 C2 Br2 110.0(10) . . ?
Br1 C2 Br2 112.7(6) . . ?
Cl1 C2 Br2 112.7(6) . . ?
F1 C2 Cl2 107.3(8) . . ?
C1 C2 Cl2 110.0(10) . . ?
Br1 C2 Cl2 112.7(6) . . ?
Cl1 C2 Cl2 112.7(6) . . ?
Br2 C2 Cl2 0.00(11) . . ?
loop_
_geom_bond_atom_site_label_1
_geom_bond_atom_site_label_2
_geom_bond_distance
_geom_bond_site_symmetry_2
_geom_bond_publ_flag
Br1 C2 1.844(14) . ?
Br2 C2 1.854(13) . ?
Cl1 C2 1.844(14) . ?
Cl2 C2 1.854(13) . ?
F1 C2 1.374(14) . ?
C1 O2 1.230(14) . ?
C1 O1 1.269(14) . ?
C1 C2 1.524(15) . ?
loop_
_geom_torsion_atom_site_label_1
_geom_torsion_atom_site_label_2
_geom_torsion_atom_site_label_3
_geom_torsion_atom_site_label_4
_geom_torsion
_geom_torsion_site_symmetry_1
_geom_torsion_site_symmetry_2
_geom_torsion_site_symmetry_3
_geom_torsion_site_symmetry_4
_geom_torsion_publ_flag
O2 C1 C2 F1 12.7(18) . . . . ?
O1 C1 C2 F1 -166.3(13) . . . . ?
O2 C1 C2 Br1 129.8(13) . . . . ?
O1 C1 C2 Br1 -49.1(17) . . . . ?
O2 C1 C2 Cl1 129.8(13) . . . . ?
O1 C1 C2 Cl1 -49.1(17) . . . . ?
O2 C1 C2 Br2 -104.5(14) . . . . ?
O1 C1 C2 Br2 76.6(15) . . . . ?
O2 C1 C2 Cl2 -104.5(14) . . . . ?
O1 C1 C2 Cl2 76.6(15) . . . . ?
loop_
_refln_index_h
_refln_index_k
_refln_index_l
_refln_F_squared_calc
_refln_F_squared_meas
_refln_F_squared_sigma
_refln_observed_status
1 1 0 1043.83 993.20 18.61 o
2 1 0 23.95 28.40 1.19 o
1 2 0 500.00 488.52 13.18 o
2 2 0 6958.62 6369.83 108.11 o
3 2 0 0.44 5.78 1.48 o
4 2 0 720.02 627.57 22.35 o
2 3 0 322.14 343.35 5.18 o
3 3 0 1492.98 1414.96 28.79 o
4 3 0 203.52 193.49 3.81 o
5 3 0 56.21 47.78 3.82 o
3 4 0 405.75 386.69 14.73 o
4 4 0 93.52 118.21 3.82 o
5 4 0 836.73 902.21 22.10 o
6 4 0 2114.85 2028.68 74.56 o
4 5 0 191.85 171.63 19.57 o
5 5 0 1341.83 1431.28 25.51 o
6 5 0 66.86 74.26 6.18 o
5 6 0 95.12 70.80 16.56 o
6 6 0 33.19 43.09 6.54 o
-3 1 1 563.37 535.61 14.15 o
-2 1 1 7022.14 6640.69 109.06 o
-1 1 1 1887.91 1939.56 42.36 o
0 1 1 1080.81 1098.72 22.53 o
1 1 1 2434.88 2211.21 58.69 o
-5 2 1 389.06 391.87 11.36 o
-4 2 1 2426.97 2363.87 36.34 o
-3 2 1 1246.41 1101.60 23.49 o
-2 2 1 5602.56 5389.88 69.05 o
1 2 1 4078.39 3781.93 101.07 o
2 2 1 7847.58 7993.01 200.20 o
3 2 1 671.38 740.24 18.26 o
-6 3 1 9.31 -1.30 5.99 o
-5 3 1 265.14 284.15 8.25 o
-4 3 1 4967.63 4967.05 113.82 o
-3 3 1 1149.12 1044.89 29.56 o
1 3 1 330.44 249.08 36.20 o
2 3 1 3037.31 2944.30 52.04 o
3 3 1 11.86 21.49 1.84 o
4 3 1 2784.13 2828.83 37.73 o
-6 4 1 130.85 123.60 6.51 o
-5 4 1 339.02 356.37 12.53 o
-4 4 1 83.91 69.30 3.62 o
-3 4 1 70.21 41.26 4.35 o
2 4 1 439.31 378.34 9.11 o
3 4 1 467.83 432.48 31.50 o
4 4 1 919.40 849.34 30.51 o
5 4 1 10.71 5.61 1.81 o
-7 5 1 20.47 13.98 4.62 o
-6 5 1 166.13 192.91 9.33 o
-5 5 1 0.05 2.76 1.68 o
3 5 1 175.57 177.11 10.39 o
4 5 1 291.22 319.40 6.77 o
5 5 1 8.07 8.41 2.54 o
6 5 1 101.60 80.39 9.13 o
-6 6 1 22.66 11.81 3.33 o
4 6 1 989.19 872.55 156.57 o
5 6 1 27.26 34.45 5.34 o
6 6 1 149.32 207.27 7.84 o
-3 0 2 196.35 206.44 5.17 o
-2 0 2 18515.20 18055.39 265.19 o
-1 0 2 4502.91 4511.68 105.28 o
-4 1 2 1869.41 1835.53 37.82 o
-3 1 2 42.12 48.32 1.39 o
-2 1 2 6211.37 6385.13 54.03 o
-1 1 2 5227.92 5516.44 63.08 o
0 1 2 476.63 566.39 9.89 o
1 1 2 106.35 111.17 8.92 o
-5 2 2 527.07 501.35 16.98 o
-4 2 2 5849.77 5732.31 102.59 o
-3 2 2 204.63 158.57 4.26 o
-2 2 2 7764.91 7059.94 452.96 o
0 2 2 9044.95 9568.88 84.95 o
1 2 2 171.27 148.70 2.20 o
2 2 2 1234.51 1142.85 19.71 o
-6 3 2 217.15 196.58 14.96 o
-5 3 2 629.13 638.41 15.15 o
-4 3 2 631.47 729.26 16.19 o
-3 3 2 24.32 24.76 1.64 o
1 3 2 1034.64 1049.24 20.65 o
2 3 2 509.85 553.39 10.00 o
3 3 2 840.77 758.25 32.42 o
4 3 2 69.91 47.57 5.36 o
-7 4 2 10.30 17.38 5.70 o
-6 4 2 125.21 118.53 5.34 o
-5 4 2 12.00 12.75 2.12 o
-4 4 2 2188.87 1934.77 114.71 o
1 4 2 2247.19 2057.76 69.72 o
2 4 2 135.65 172.47 3.64 o
3 4 2 371.31 385.57 4.37 o
4 4 2 6042.73 6679.58 174.51 o
5 4 2 655.51 471.13 79.60 o
-7 5 2 832.31 991.77 32.28 o
-6 5 2 1035.38 1096.03 46.67 o
-5 5 2 3.63 9.37 3.39 o
2 5 2 260.28 216.63 8.38 o
3 5 2 76.92 70.67 6.43 o
4 5 2 332.96 310.72 5.71 o
5 5 2 11.99 14.00 3.15 o
4 6 2 17.28 26.38 4.36 o
5 6 2 165.69 170.06 8.28 o
6 6 2 524.53 647.73 18.37 o
-5 1 3 18.80 24.59 3.84 o
-4 1 3 4313.32 4445.69 72.62 o
-3 1 3 3792.51 3818.73 57.49 o
-2 1 3 24.03 18.52 1.52 o
-1 1 3 283.11 346.81 6.37 o
0 1 3 17794.38 18394.50 333.97 o
-6 2 3 53.87 37.67 4.06 o
-5 2 3 85.15 80.85 3.71 o
-4 2 3 71.78 68.34 2.70 o
-3 2 3 10.96 15.02 1.77 o
-1 2 3 844.98 890.18 19.08 o
0 2 3 3697.16 3938.51 54.15 o
1 2 3 298.69 341.42 6.28 o
2 2 3 10.50 3.32 0.75 o
-7 3 3 122.95 88.10 12.90 o
-6 3 3 3066.12 3728.14 176.87 o
-5 3 3 1231.26 1282.67 12.85 o
-4 3 3 197.47 181.27 8.26 o
0 3 3 21.34 23.79 1.85 o
1 3 3 14.52 -6.33 5.43 o
2 3 3 7557.48 7545.84 136.31 o
3 3 3 1187.80 1055.89 32.89 o
-7 4 3 5.00 3.78 3.24 o
-6 4 3 83.38 72.51 5.44 o
-5 4 3 323.64 298.45 17.87 o
1 4 3 1819.93 1824.48 79.16 o
2 4 3 714.03 691.05 19.23 o
3 4 3 426.86 471.00 16.75 o
4 4 3 143.71 101.77 7.69 o
-7 5 3 90.75 74.41 10.47 o
-6 5 3 822.92 410.64 15.05 o
2 5 3 1704.45 1963.39 82.11 o
3 5 3 38.96 33.37 3.90 o
4 5 3 224.60 234.49 7.00 o
5 5 3 3.17 6.80 5.06 o
3 6 3 3.98 7.78 2.70 o
4 6 3 27.74 33.24 6.41 o
5 6 3 709.75 819.50 20.87 o
-4 0 4 1274.69 1278.29 22.69 o
-3 0 4 271.38 275.13 4.31 o
-2 0 4 3075.85 3089.02 67.19 o
-1 0 4 427.98 411.74 9.72 o
-5 1 4 383.56 359.71 9.57 o
-4 1 4 417.02 422.24 10.76 o
-3 1 4 1639.73 1707.97 18.91 o
-2 1 4 5225.27 5354.53 131.05 o
-1 1 4 284.46 349.53 6.85 o
0 1 4 1775.56 1601.27 64.37 o
-6 2 4 599.72 606.82 12.57 o
-5 2 4 347.83 366.76 7.41 o
-4 2 4 2003.60 2096.73 60.42 o
-3 2 4 675.50 612.20 11.08 o
-2 2 4 2236.31 2393.29 28.76 o
-1 2 4 1111.27 1195.41 15.79 o
0 2 4 3328.59 3463.56 39.77 o
1 2 4 459.35 443.58 8.72 o
-7 3 4 322.13 395.08 11.11 o
-6 3 4 366.96 390.30 9.26 o
-5 3 4 21.98 17.94 2.88 o
-4 3 4 206.56 202.08 26.16 o
-1 3 4 20.90 24.76 2.10 o
0 3 4 1106.70 1171.95 11.22 o
1 3 4 61.40 55.79 2.31 o
2 3 4 797.64 918.37 10.19 o
-7 4 4 336.31 359.69 11.82 o
-6 4 4 49.41 37.30 14.89 o
0 4 4 833.61 945.10 7.14 o
1 4 4 22.75 22.89 3.26 o
2 4 4 1098.84 1166.95 21.74 o
3 4 4 812.63 773.31 38.47 o
1 5 4 29.70 20.51 4.22 o
2 5 4 873.64 914.82 25.24 o
3 5 4 944.88 1048.05 21.80 o
4 5 4 889.53 807.01 38.93 o
2 6 4 262.80 201.67 9.62 o
3 6 4 33.70 26.74 3.81 o
4 6 4 506.48 562.98 12.83 o
4 7 4 29.43 34.26 15.51 o
-6 1 5 999.35 1083.18 23.23 o
-5 1 5 2152.34 2121.57 31.23 o
-4 1 5 302.58 324.29 5.65 o
-3 1 5 298.15 265.56 6.01 o
-2 1 5 7377.19 7655.27 89.86 o
-1 1 5 3247.46 3265.55 58.09 o
-7 2 5 146.45 100.18 18.89 o
-6 2 5 315.13 307.79 7.42 o
-5 2 5 220.89 189.19 12.68 o
-4 2 5 1392.07 1522.24 34.28 o
-3 2 5 49.87 55.86 6.59 o
-2 2 5 141.43 145.68 4.12 o
-1 2 5 239.06 245.07 3.77 o
0 2 5 700.18 753.73 11.56 o
-7 3 5 523.85 579.15 19.28 o
-6 3 5 3.07 5.47 3.38 o
-5 3 5 9.90 3.69 2.92 o
-2 3 5 3.89 6.33 1.99 o
-1 3 5 309.07 324.90 4.82 o
0 3 5 4969.24 5385.34 79.92 o
1 3 5 1802.41 1613.12 115.02 o
-7 4 5 76.95 54.13 18.88 o
-1 4 5 271.63 262.69 17.08 o
0 4 5 486.78 540.03 13.24 o
1 4 5 704.71 713.84 9.49 o
2 4 5 109.35 121.24 5.56 o
1 5 5 499.63 532.67 12.38 o
2 5 5 133.19 128.70 5.32 o
3 5 5 47.04 30.20 4.16 o
2 6 5 61.68 78.16 11.83 o
3 6 5 333.29 327.79 12.58 o
4 6 5 2.41 5.60 7.20 o
-5 0 6 15.75 19.56 3.53 o
-4 0 6 4220.92 4725.37 63.71 o
-3 0 6 2784.19 2921.88 139.15 o
-2 0 6 42.15 31.44 7.93 o
-6 1 6 130.93 121.73 9.27 o
-5 1 6 74.67 69.34 4.87 o
-4 1 6 38.56 34.75 2.51 o
-3 1 6 754.57 762.68 11.31 o
-2 1 6 527.43 541.31 11.77 o
-1 1 6 138.14 94.30 12.65 o
-7 2 6 12.77 12.03 6.92 o
-6 2 6 411.03 392.18 29.27 o
-5 2 6 269.84 217.71 26.85 o
-3 2 6 349.61 390.11 6.78 o
-2 2 6 737.67 872.38 12.01 o
-1 2 6 1059.81 1187.76 25.79 o
0 2 6 447.09 408.93 20.34 o
-7 3 6 10.23 7.38 6.48 o
-6 3 6 5.47 7.89 7.72 o
-2 3 6 123.35 135.94 5.24 o
-1 3 6 267.21 255.70 5.58 o
0 3 6 272.70 308.84 5.53 o
1 3 6 43.95 23.61 5.12 o
-1 4 6 417.99 436.45 9.77 o
0 4 6 109.72 129.95 5.07 o
1 4 6 3.69 8.28 2.87 o
2 4 6 1394.78 1235.07 101.84 o
0 5 6 4.28 5.28 3.62 o
1 5 6 665.16 815.48 16.01 o
2 5 6 1563.21 1657.44 17.04 o
2 6 6 117.31 23.35 9.51 o
3 6 6 22.35 14.20 6.34 o
-6 1 7 341.35 399.81 8.99 o
-5 1 7 377.39 321.17 15.26 o
-4 1 7 634.11 699.72 10.19 o
-3 1 7 1112.16 1125.83 34.44 o
-2 1 7 379.43 262.84 13.45 o
-6 2 7 915.05 725.77 103.34 o
-4 2 7 223.75 226.82 9.06 o
-3 2 7 1403.85 1379.53 20.61 o
-2 2 7 1435.41 1507.54 25.29 o
-1 2 7 3.39 2.48 1.67 o
-3 3 7 131.43 122.86 13.45 o
-2 3 7 1091.76 1215.35 11.55 o
-1 3 7 1564.52 1704.57 20.59 o
0 3 7 356.08 320.78 14.20 o
-2 4 7 3.19 3.74 3.68 o
-1 4 7 423.44 419.32 10.54 o
0 4 7 109.89 82.49 4.70 o
1 4 7 0.49 4.91 3.48 o
0 5 7 125.86 151.89 15.41 o
1 5 7 69.12 57.64 8.71 o
-5 0 8 1546.05 1569.91 48.92 o
-5 1 8 22.62 21.87 5.84 o
-4 1 8 29.68 30.68 6.16 o
-3 1 8 36.71 16.28 3.31 o
-4 2 8 490.71 560.94 15.47 o
-3 2 8 449.61 433.52 33.96 o
-2 2 8 179.24 143.16 11.71 o
-3 3 8 3.14 5.02 4.59 o
-2 3 8 378.08 359.79 9.45 o
-1 3 8 3.21 2.19 3.68 o
-2 4 8 0.84 6.34 5.33 o
-1 4 8 8.53 11.47 4.28 o
0 4 8 1192.29 1040.33 38.96 o
-3 2 9 200.96 92.62 15.11 o
