#------------------------------------------------------------------------------
#$Date: 2017-10-14 22:27:35 +0300 (Sat, 14 Oct 2017) $
#$Revision: 202017 $
#$URL: file:///home/coder/svn-repositories/cod/cif/7/20/16/7201658.cif $
#------------------------------------------------------------------------------
#
# This file is available in the Crystallography Open Database (COD),
# http://www.crystallography.net/
#
# All data on this site have been placed in the public domain by the
# contributors.
#
data_7201658
loop_
_publ_author_name
'Wood, Peter A.'
'Forgan, Ross S.'
'Lennie, Alistair R.'
'Parsons, Simon'
'Pidcock, Elna'
'Tasker, Peter A.'
'Warren, John E.'
_publ_section_title
;
 The effect of pressure and substituents on the size of
 pseudo-macrocyclic cavities in salicylaldoxime ligands
;
_journal_issue                   2
_journal_name_full               CrystEngComm
_journal_page_first              239
_journal_paper_doi               10.1039/b712397c
_journal_volume                  10
_journal_year                    2008
_chemical_formula_moiety         'C7 H6 Cl1 N1 O2'
_chemical_formula_sum            'C7 H6 Cl N O2'
_chemical_formula_weight         171.58
_chemical_name_common            3-chlorosalicylaldoxime
_chemical_name_systematic        3-chlorosalicylaldoxime
_space_group_IT_number           14
_symmetry_cell_setting           monoclinic
_symmetry_space_group_name_Hall  '-P 2ybc'
_symmetry_space_group_name_H-M   'P 1 21/c 1'
_atom_sites_solution_hydrogens   geom
_atom_sites_solution_primary     direct
_audit_creation_date             06-07-19
_audit_creation_method           CRYSTALS_ver_12.84
_cell_angle_alpha                90
_cell_angle_beta                 92.603(13)
_cell_angle_gamma                90
_cell_formula_units_Z            4
_cell_length_a                   12.843(3)
_cell_length_b                   3.6613(3)
_cell_length_c                   13.7921(16)
_cell_measurement_reflns_used    1569
_cell_measurement_temperature    298
_cell_measurement_theta_max      25
_cell_measurement_theta_min      3
_cell_volume                     647.86(18)
_computing_cell_refinement       'SAINT (Siemens ,1995)'
_computing_data_collection       'SMART (Siemens, 1993)'
_computing_data_reduction        'SAINT (Siemens ,1995)'
_computing_molecular_graphics    'CAMERON (Watkin et al., 1996)'
_computing_publication_material  'CRYSTALS (Betteridge et al., 2003)'
_computing_structure_refinement  'CRYSTALS (Betteridge et al., 2003)'
_computing_structure_solution    'Model taken from ambient pressure structure'
_diffrn_ambient_pressure         1600000
_diffrn_ambient_temperature      298
_diffrn_measured_fraction_theta_full 0.357
_diffrn_measured_fraction_theta_max 0.333
_diffrn_measurement_device_type  'Bruker SMART Apex CCD'
_diffrn_measurement_method       \w
_diffrn_radiation_monochromator  graphite
_diffrn_radiation_type           'Mo K\a'
_diffrn_radiation_wavelength     0.71073
_diffrn_reflns_av_R_equivalents  0.064
_diffrn_reflns_limit_h_max       7
_diffrn_reflns_limit_h_min       -7
_diffrn_reflns_limit_k_max       4
_diffrn_reflns_limit_k_min       -4
_diffrn_reflns_limit_l_max       16
_diffrn_reflns_limit_l_min       -16
_diffrn_reflns_number            3158
_diffrn_reflns_theta_full        25.237
_diffrn_reflns_theta_max         26.288
_diffrn_reflns_theta_min         2.957
_diffrn_standards_number         0
_exptl_absorpt_coefficient_mu    0.523
_exptl_absorpt_correction_T_max  0.95
_exptl_absorpt_correction_T_min  0.43
_exptl_absorpt_correction_type   multi-scan
_exptl_absorpt_process_details   'SADABS version 2006/1'
_exptl_crystal_colour            colourless
_exptl_crystal_density_diffrn    1.759
_exptl_crystal_description       block
_exptl_crystal_F_000             352
_exptl_crystal_recrystallization_method
'Recrystallisation by pressure from methanol/ethanol solution'
_exptl_crystal_size_max          0.18
_exptl_crystal_size_mid          0.15
_exptl_crystal_size_min          0.10
_refine_diff_density_max         0.26
_refine_diff_density_min         -0.22
_refine_ls_extinction_method     None
_refine_ls_goodness_of_fit_ref   1.0232
_refine_ls_hydrogen_treatment    mixed
_refine_ls_matrix_type           full
_refine_ls_number_parameters     106
_refine_ls_number_reflns         440
_refine_ls_number_restraints     120
_refine_ls_R_factor_all          0.0746
_refine_ls_R_factor_gt           0.0578
_refine_ls_shift/su_max          0.000218
_refine_ls_structure_factor_coef Fsqd
_refine_ls_weighting_details
;
Method= Modified Sheldrick
w=1/[\s^2^(F^2^) + ( 0.08P)^2^ + 1.62P]
,where P=(max(Fo^2^,0) + 2Fc^2^)/3
;
_refine_ls_weighting_scheme      calc
_refine_ls_wR_factor_all         0.1577
_refine_ls_wR_factor_gt          0.1476
_refine_ls_wR_factor_ref         0.1577
_reflns_limit_h_max              7
_reflns_limit_h_min              -4
_reflns_limit_k_max              4
_reflns_limit_k_min              0
_reflns_limit_l_max              16
_reflns_limit_l_min              0
_reflns_number_gt                348
_reflns_number_total             440
_reflns_threshold_expression     I>2.0\s(I)
_oxford_diffrn_Wilson_B_factor   0.00
_oxford_diffrn_Wilson_scale      0.00
_oxford_refine_ls_scale          3.33(17)
_cod_data_source_file            B712397C.txt
_cod_data_source_block           Cl16kbar
_cod_depositor_comments
;
The following automatic conversions were performed:
'_symmetry_cell_setting' value 'Monoclinic' changed to 'monoclinic'
according to '/home/saulius/struct/CIF-dictionaries/cif_core.dic'
dictionary named 'cif_core.dic' version 2.4.1 from 2010-06-29.

Automatic conversion script
Id: cif_fix_enum 1527 2010-12-29 10:47:43Z saulius 
;
_cod_original_cell_volume        647.88(16)
_cod_original_sg_symbol_H-M      'P 21/c'
_cod_original_formula_sum        'C7 H6 Cl1 N1 O2'
_cod_database_code               7201658
loop_
_symmetry_equiv_pos_as_xyz
x,y,z
-x,-y,-z
-x,y+1/2,-z+1/2
x,-y+1/2,z+1/2
loop_
_atom_site_label
_atom_site_type_symbol
_atom_site_fract_x
_atom_site_fract_y
_atom_site_fract_z
_atom_site_U_iso_or_equiv
_atom_site_occupancy
_atom_site_adp_type
_atom_site_refinement_flags_posn
_atom_site_refinement_flags_adp
_atom_site_refinement_flags_occupancy
_atom_site_disorder_assembly
_atom_site_disorder_group
_atom_site_attached_hydrogens
O1 O -0.0671(8) -0.4508(13) 0.8552(4) 0.0458 1.0000 Uani D U . . . .
N2 N 0.0284(11) -0.2956(16) 0.8882(5) 0.0382 1.0000 Uani D U . . . .
C3 C 0.1007(12) -0.3392(19) 0.8307(6) 0.0352 1.0000 Uani D U . . . .
C4 C 0.2028(9) -0.1912(15) 0.8537(5) 0.0334 1.0000 Uani D U . . . .
C5 C 0.2264(9) -0.0234(15) 0.9436(5) 0.0301 1.0000 Uani D U . . . .
O5 O 0.1555(9) 0.0088(12) 1.0119(4) 0.0394 1.0000 Uani D U . . . .
C6 C 0.3256(8) 0.1104(16) 0.9632(5) 0.0302 1.0000 Uani D U . . . .
Cl6 Cl 0.3521(3) 0.3046(4) 1.07660(13) 0.0384 1.0000 Uani D U . . . .
C7 C 0.4010(10) 0.0856(17) 0.8980(6) 0.0350 1.0000 Uani D U . . . .
C8 C 0.3770(10) -0.0809(17) 0.8073(5) 0.0405 1.0000 Uani D U . . . .
C9 C 0.2800(12) -0.2144(16) 0.7870(5) 0.0372 1.0000 Uani D U . . . .
H1 H -0.111(3) -0.38(2) 0.895(5) 0.0678 1.0000 Uiso D . . . . .
H3 H 0.0883 -0.4662 0.7726 0.0408 1.0000 Uiso R . . . . .
H5 H 0.103(4) -0.11(2) 0.990(3) 0.0590 1.0000 Uiso D . . . . .
H7 H 0.4680 0.1767 0.9135 0.0418 1.0000 Uiso R . . . . .
H8 H 0.4277 -0.1007 0.7622 0.0480 1.0000 Uiso R . . . . .
H9 H 0.2647 -0.3262 0.7270 0.0440 1.0000 Uiso R . . . . .
loop_
_atom_site_aniso_label
_atom_site_aniso_U_11
_atom_site_aniso_U_22
_atom_site_aniso_U_33
_atom_site_aniso_U_23
_atom_site_aniso_U_13
_atom_site_aniso_U_12
O1 0.052(12) 0.046(3) 0.039(3) -0.009(2) -0.008(5) -0.012(4)
N2 0.043(13) 0.034(3) 0.036(5) 0.000(3) -0.011(6) -0.001(5)
C3 0.050(13) 0.029(3) 0.026(5) 0.002(3) -0.011(5) -0.003(6)
C4 0.050(13) 0.023(2) 0.027(3) 0.002(3) -0.002(5) -0.006(5)
C5 0.036(11) 0.030(3) 0.024(3) 0.005(3) -0.006(5) 0.001(5)
O5 0.039(12) 0.047(3) 0.031(3) -0.005(2) 0.000(5) -0.012(4)
C6 0.035(11) 0.030(3) 0.025(3) 0.006(3) -0.006(4) 0.003(5)
Cl6 0.046(7) 0.0352(8) 0.0326(12) -0.0025(6) -0.009(2) -0.0014(12)
C7 0.037(12) 0.033(3) 0.034(3) 0.008(3) 0.000(4) 0.002(5)
C8 0.051(13) 0.040(3) 0.030(3) 0.007(3) 0.006(5) 0.000(5)
C9 0.057(13) 0.028(3) 0.027(4) 0.004(3) 0.002(5) -0.002(5)
loop_
_atom_type_symbol
_atom_type_scat_dispersion_real
_atom_type_scat_dispersion_imag
_atom_type_scat_Cromer_Mann_a1
_atom_type_scat_Cromer_Mann_b1
_atom_type_scat_Cromer_Mann_a2
_atom_type_scat_Cromer_Mann_b2
_atom_type_scat_Cromer_Mann_a3
_atom_type_scat_Cromer_Mann_b3
_atom_type_scat_Cromer_Mann_a4
_atom_type_scat_Cromer_Mann_b4
_atom_type_scat_Cromer_Mann_c
_atom_type_scat_source
C 0.0033 0.0016 2.3100 20.8439 1.0200 10.2075 1.5886 0.5687 0.8650 51.6512
0.2156 'International Tables Vol C 4.2.6.8 and 6.1.1.4'
H 0.0000 0.0000 0.4930 10.5109 0.3229 26.1257 0.1402 3.1424 0.0408 57.7998
0.0030 'International Tables Vol C 4.2.6.8 and 6.1.1.4'
N 0.0061 0.0033 12.2126 0.0057 3.1322 9.8933 2.0125 28.9975 1.1663 0.5826
-11.5290 'International Tables Vol C 4.2.6.8 and 6.1.1.4'
O 0.0106 0.0060 3.0485 13.2771 2.2868 5.7011 1.5463 0.3239 0.8670 32.9089
0.2508 'International Tables Vol C 4.2.6.8 and 6.1.1.4'
Cl 0.1484 0.1585 11.4604 0.0104 7.1964 1.1662 6.2556 18.5194 1.6455 47.7784
-9.5574 'International Tables Vol C 4.2.6.8 and 6.1.1.4'
loop_
_geom_angle_atom_site_label_1
_geom_angle_site_symmetry_1
_geom_angle_atom_site_label_2
_geom_angle_site_symmetry_2
_geom_angle_atom_site_label_3
_geom_angle_site_symmetry_3
_geom_angle
_geom_angle_publ_flag
N2 . O1 . H1 . 105.0(9) no
O1 . N2 . C3 . 113.7(5) yes
N2 . C3 . C4 . 120.2(5) yes
N2 . C3 . H3 . 120.1 no
C4 . C3 . H3 . 119.7 no
C3 . C4 . C5 . 121.1(5) yes
C3 . C4 . C9 . 120.2(5) yes
C5 . C4 . C9 . 118.7(5) yes
C4 . C5 . O5 . 122.1(5) yes
C4 . C5 . C6 . 119.2(5) yes
O5 . C5 . C6 . 118.7(4) yes
C5 . O5 . H5 . 105.0(9) no
C5 . C6 . Cl6 . 117.6(5) yes
C5 . C6 . C7 . 121.8(4) yes
Cl6 . C6 . C7 . 120.6(5) yes
C6 . C7 . C8 . 118.9(6) yes
C6 . C7 . H7 . 120.1 no
C8 . C7 . H7 . 121.0 no
C7 . C8 . C9 . 120.0(6) yes
C7 . C8 . H8 . 119.8 no
C9 . C8 . H8 . 120.2 no
C4 . C9 . C8 . 121.3(5) yes
C4 . C9 . H9 . 119.0 no
C8 . C9 . H9 . 119.6 no
loop_
_geom_bond_atom_site_label_1
_geom_bond_site_symmetry_1
_geom_bond_atom_site_label_2
_geom_bond_site_symmetry_2
_geom_bond_distance
_geom_bond_publ_flag
O1 . N2 . 1.407(14) yes
O1 . H1 . 0.85(4) no
N2 . C3 . 1.259(19) yes
C3 . C4 . 1.440(15) yes
C3 . H3 . 0.933 no
C4 . C5 . 1.405(8) yes
C4 . C9 . 1.385(15) yes
C5 . O5 . 1.343(12) yes
C5 . C6 . 1.381(12) yes
O5 . H5 . 0.85(4) no
C6 . Cl6 . 1.737(6) yes
C6 . C7 . 1.354(13) yes
C7 . C8 . 1.413(9) yes
C7 . H7 . 0.939 no
C8 . C9 . 1.355(15) yes
C8 . H8 . 0.924 no
C9 . H9 . 0.936 no
loop_
_cod_related_entry_id
_cod_related_entry_database
_cod_related_entry_code
1 ChemSpider 21195658
