#------------------------------------------------------------------------------
#$Date: 2016-03-26 16:50:14 +0200 (Sat, 26 Mar 2016) $
#$Revision: 180358 $
#$URL: svn://www.crystallography.net/cod/cif/7/20/27/7202778.cif $
#------------------------------------------------------------------------------
#
# This file is available in the Crystallography Open Database (COD),
# http://www.crystallography.net/
#
# All data on this site have been placed in the public domain by the
# contributors.
#
data_7202778
loop_
_publ_author_name
'Hu, Chunhua'
'Kalf, Irmgard'
'Englert, Ulli'
_publ_section_title
;
 Pyridine complexes of mercury(ii)halides: Implications of a soft metal
 center for crystal engineering.
;
_journal_issue                   7
_journal_name_full               CrystEngComm
_journal_page_first              603
_journal_paper_doi               10.1039/b701907f
_journal_volume                  9
_journal_year                    2007
_chemical_formula_sum            'C10 H6 Br4 Cl2 Hg N2'
_chemical_formula_weight         745.30
_chemical_name_common            'Compound 2'
_chemical_name_systematic
;
?
;
_space_group_IT_number           117
_symmetry_cell_setting           tetragonal
_symmetry_space_group_name_Hall  'P -4 -2ab'
_symmetry_space_group_name_H-M   'P -4 b 2'
_atom_sites_solution_hydrogens   geom
_atom_sites_solution_primary     direct
_atom_sites_solution_secondary   difmap
_cell_angle_alpha                90.00
_cell_angle_beta                 90.00
_cell_angle_gamma                90.00
_cell_formula_units_Z            2
_cell_length_a                   14.147(2)
_cell_length_b                   14.147(2)
_cell_length_c                   3.8871(8)
_cell_measurement_reflns_used    5838
_cell_measurement_temperature    293(2)
_cell_measurement_theta_max      26.03
_cell_measurement_theta_min      2.04
_cell_volume                     778.0(2)
_computing_cell_refinement       'SMART (Bruker, 2001)'
_computing_data_collection       'SMART (Bruker, 2001)'
_computing_data_reduction        'SAINT+ (Bruker, 1999)'
_computing_molecular_graphics    'PLATON (Spek, 2003)'
_computing_publication_material  'SHELXTL (Sheldrick, 1998)'
_computing_structure_refinement  'SHELXTL (Sheldrick, 1998)'
_computing_structure_solution    'SHELXTL (Sheldrick, 1998)'
_diffrn_ambient_temperature      293(2)
_diffrn_measured_fraction_theta_full 0.998
_diffrn_measured_fraction_theta_max 0.998
_diffrn_measurement_device_type  'Bruker SMART APEX CCD diffractometer'
_diffrn_measurement_method       'omega scans'
_diffrn_radiation_monochromator  graphite
_diffrn_radiation_source         'fine-focus sealed tube'
_diffrn_radiation_type           MoK\a
_diffrn_radiation_wavelength     0.71073
_diffrn_reflns_av_R_equivalents  0.0610
_diffrn_reflns_av_sigmaI/netI    0.0331
_diffrn_reflns_limit_h_max       17
_diffrn_reflns_limit_h_min       -17
_diffrn_reflns_limit_k_max       17
_diffrn_reflns_limit_k_min       -17
_diffrn_reflns_limit_l_max       4
_diffrn_reflns_limit_l_min       -4
_diffrn_reflns_number            5838
_diffrn_reflns_theta_full        26.03
_diffrn_reflns_theta_max         26.03
_diffrn_reflns_theta_min         2.04
_diffrn_standards_decay_%        0
_exptl_absorpt_coefficient_mu    20.492
_exptl_absorpt_correction_T_max  0.441
_exptl_absorpt_correction_T_min  0.197
_exptl_absorpt_correction_type   multi-scan
_exptl_absorpt_process_details   SADABS
_exptl_crystal_colour            colorles
_exptl_crystal_density_diffrn    3.181
_exptl_crystal_density_method    'not measured'
_exptl_crystal_description       needle
_exptl_crystal_F_000             668
_exptl_crystal_size_max          0.32
_exptl_crystal_size_mid          0.04
_exptl_crystal_size_min          0.04
_refine_diff_density_max         0.886
_refine_diff_density_min         -0.951
_refine_diff_density_rms         0.144
_refine_ls_abs_structure_details 'Flack H D (1983), Acta Cryst. A39, 876-881'
_refine_ls_abs_structure_Flack   -0.04(2)
_refine_ls_extinction_method     none
_refine_ls_goodness_of_fit_ref   0.990
_refine_ls_hydrogen_treatment    constr
_refine_ls_matrix_type           full
_refine_ls_number_parameters     46
_refine_ls_number_reflns         775
_refine_ls_number_restraints     0
_refine_ls_restrained_S_all      0.990
_refine_ls_R_factor_all          0.0268
_refine_ls_R_factor_gt           0.0233
_refine_ls_shift/su_max          0.000
_refine_ls_shift/su_mean         0.000
_refine_ls_structure_factor_coef Fsqd
_refine_ls_weighting_details
'calc w=1/[\s^2^(Fo^2^)+(0.0270P)^2^+0.0000P] where P=(Fo^2^+2Fc^2^)/3'
_refine_ls_weighting_scheme      calc
_refine_ls_wR_factor_gt          0.0507
_refine_ls_wR_factor_ref         0.0516
_reflns_number_gt                704
_reflns_number_total             775
_reflns_threshold_expression     >2sigma(I)
_cod_data_source_file            b701907f.txt
_cod_data_source_block           hc122
_cod_original_sg_symbol_H-M      P-4b2
_cod_database_code               7202778
loop_
_symmetry_equiv_pos_as_xyz
'x, y, z'
'-x, -y, z'
'y, -x, -z'
'-y, x, -z'
'x+1/2, -y+1/2, z'
'-x+1/2, y+1/2, z'
'y+1/2, x+1/2, -z'
'-y+1/2, -x+1/2, -z'
loop_
_atom_site_label
_atom_site_type_symbol
_atom_site_fract_x
_atom_site_fract_y
_atom_site_fract_z
_atom_site_U_iso_or_equiv
_atom_site_adp_type
_atom_site_occupancy
_atom_site_symmetry_multiplicity
_atom_site_calc_flag
_atom_site_refinement_flags
_atom_site_disorder_assembly
_atom_site_disorder_group
Hg Hg 0.5000 0.0000 0.5000 0.02728(14) Uani 1 4 d S . .
Cl Cl 0.40845(10) 0.09155(10) 1.0000 0.0332(5) Uani 1 2 d S . .
Br Br 0.63585(5) 0.39759(5) 0.7837(2) 0.0397(2) Uani 1 1 d . . .
N N 0.6195(3) 0.1195(3) 0.5000 0.0309(18) Uani 1 2 d S . .
C1 C 0.6006(4) 0.2063(5) 0.6154(18) 0.0319(18) Uani 1 1 d . . .
H1 H 0.5371 0.2205 0.7022 0.041 Uiso 1 1 calc R . .
C2 C 0.6676(5) 0.2761(5) 0.6157(16) 0.0275(16) Uani 1 1 d . . .
C3 C 0.7581(4) 0.2581(4) 0.5000 0.032(2) Uani 1 2 d S . .
H3 H 0.8070 0.3070 0.5000 0.042 Uiso 1 2 calc SR . .
loop_
_atom_site_aniso_label
_atom_site_aniso_U_11
_atom_site_aniso_U_22
_atom_site_aniso_U_33
_atom_site_aniso_U_23
_atom_site_aniso_U_13
_atom_site_aniso_U_12
Hg 0.02661(17) 0.02661(17) 0.0286(2) 0.000 0.000 -0.0073(2)
Cl 0.0309(7) 0.0309(7) 0.0379(13) 0.0034(11) 0.0034(11) 0.0063(9)
Br 0.0436(4) 0.0279(4) 0.0475(4) -0.0065(4) 0.0044(4) -0.0022(3)
N 0.026(2) 0.026(2) 0.040(5) 0.005(4) -0.005(4) 0.001(3)
C1 0.020(3) 0.033(4) 0.043(5) -0.001(3) 0.004(3) 0.002(3)
C2 0.037(4) 0.020(3) 0.025(4) -0.002(3) -0.004(3) 0.004(3)
C3 0.035(3) 0.035(3) 0.027(4) 0.005(4) -0.005(4) -0.004(4)
loop_
_atom_type_symbol
_atom_type_description
_atom_type_scat_dispersion_real
_atom_type_scat_dispersion_imag
_atom_type_scat_source
C C 0.0033 0.0016 'International Tables Vol C Tables 4.2.6.8 and 6.1.1.4'
H H 0.0000 0.0000 'International Tables Vol C Tables 4.2.6.8 and 6.1.1.4'
N N 0.0061 0.0033 'International Tables Vol C Tables 4.2.6.8 and 6.1.1.4'
Cl Cl 0.1484 0.1585 'International Tables Vol C Tables 4.2.6.8 and 6.1.1.4'
Br Br -0.2901 2.4595 'International Tables Vol C Tables 4.2.6.8 and 6.1.1.4'
Hg Hg -2.3894 9.2266 'International Tables Vol C Tables 4.2.6.8 and 6.1.1.4'
loop_
_geom_angle_atom_site_label_1
_geom_angle_atom_site_label_2
_geom_angle_atom_site_label_3
_geom_angle
_geom_angle_site_symmetry_1
_geom_angle_site_symmetry_3
_geom_angle_publ_flag
N Hg N 180.0(3) 2_655 . ?
N Hg Cl 90.0 2_655 2_655 ?
N Hg Cl 90.0 . 2_655 ?
N Hg Cl 90.0 2_655 2_654 ?
N Hg Cl 90.0 . 2_654 ?
Cl Hg Cl 93.39(7) 2_655 2_654 ?
N Hg Cl 90.0 2_655 . ?
N Hg Cl 90.0 . . ?
Cl Hg Cl 86.61(7) 2_655 . ?
Cl Hg Cl 180.00(6) 2_654 . ?
N Hg Cl 90.0 2_655 1_554 ?
N Hg Cl 90.0 . 1_554 ?
Cl Hg Cl 180.0 2_655 1_554 ?
Cl Hg Cl 86.61(7) 2_654 1_554 ?
Cl Hg Cl 93.39(7) . 1_554 ?
Hg Cl Hg 93.39(7) . 1_556 ?
C1 N C1 118.7(8) . 7_546 ?
C1 N Hg 120.6(4) . . ?
C1 N Hg 120.6(4) 7_546 . ?
N C1 C2 121.7(6) . . ?
N C1 H1 119.1 . . ?
C2 C1 H1 119.1 . . ?
C1 C2 C3 120.6(6) . . ?
C1 C2 Br 119.4(5) . . ?
C3 C2 Br 120.0(5) . . ?
C2 C3 C2 116.7(8) 7_546 . ?
C2 C3 H3 121.7 7_546 . ?
C2 C3 H3 121.7 . . ?
loop_
_geom_bond_atom_site_label_1
_geom_bond_atom_site_label_2
_geom_bond_distance
_geom_bond_site_symmetry_2
_geom_bond_publ_flag
Hg N 2.390(7) 2_655 ?
Hg N 2.390(7) . ?
Hg Cl 2.6707(15) 2_655 ?
Hg Cl 2.6707(15) 2_654 ?
Hg Cl 2.6707(15) . ?
Hg Cl 2.6707(15) 1_554 ?
Cl Hg 2.6707(15) 1_556 ?
Br C2 1.893(6) . ?
N C1 1.334(7) . ?
N C1 1.334(7) 7_546 ?
C1 C2 1.369(9) . ?
C1 H1 0.9800 . ?
C2 C3 1.380(8) . ?
C3 C2 1.380(8) 7_546 ?
C3 H3 0.9800 . ?
