#------------------------------------------------------------------------------
#$Date: 2016-03-26 16:55:42 +0200 (Sat, 26 Mar 2016) $
#$Revision: 180363 $
#$URL: svn://www.crystallography.net/cod/cif/7/20/32/7203263.cif $
#------------------------------------------------------------------------------
#
# This file is available in the Crystallography Open Database (COD),
# http://www.crystallography.net/
#
# All data on this site have been placed in the public domain by the
# contributors.
#
data_7203263
loop_
_publ_author_name
'Takahashi, Satoshi'
'Jukurogi, Tatsuya'
'Katagiri, Toshimasa'
'Uneyama, Kenji'
_publ_section_title
;
 Isomorphic supramolecular structures via one-dimensional hydrogen
 bonding motifs in crystals of chiral difluorolactates,
 trichlorolactates and trifluorolactates
;
_journal_issue                   4
_journal_name_full               CrystEngComm
_journal_page_first              320
_journal_paper_doi               10.1039/b600325g
_journal_volume                  8
_journal_year                    2006
_chemical_absolute_configuration syn
_chemical_formula_moiety         'C12 H18 F4 O6'
_chemical_formula_sum            'C12 H18 F4 O6'
_chemical_formula_weight         334.26
_chemical_melting_point          356
_chemical_name_common            Hexamethylene-(R,R)-bis(3,3-difluorolactate)
_chemical_optical_rotation       '[\a]^25^~D~= -5.72 (c= 0.81, acetone)'
_space_group_IT_number           18
_symmetry_cell_setting           orthorhombic
_symmetry_Int_Tables_number      18
_symmetry_space_group_name_Hall  'P 2 2ab'
_symmetry_space_group_name_H-M   'P 21 21 2'
_atom_sites_solution_hydrogens   geom
_atom_sites_solution_primary     direct
_atom_sites_solution_secondary   difmap
_audit_creation_method           SHELXL-97
_audit_update_record
;
2005-12-8 CheckCIF
;
_cell_angle_alpha                90.00
_cell_angle_beta                 90.00
_cell_angle_gamma                90.00
_cell_formula_units_Z            2
_cell_length_a                   18.8223(6)
_cell_length_b                   5.14670(10)
_cell_length_c                   7.7739(3)
_cell_measurement_reflns_used    7965
_cell_measurement_temperature    120(1)
_cell_measurement_theta_max      54.9
_cell_measurement_theta_min      2.2
_cell_volume                     753.08(4)
_computing_cell_refinement       'PAPID-AUTO (Rigaku)'
_computing_data_collection       'RAPID-AUTO (Rigaku)'
_computing_data_reduction        'teXsan Ver. 1.11 (MSC)'
_computing_molecular_graphics    'Mercury Ver. 1.4 (Bruno et al., 2002)'
_computing_publication_material  'WinGX Ver. 1.7 (Farrugia, 1999)'
_computing_structure_refinement  'SHELXL-97 (Sheldrick, 1997)'
_computing_structure_solution    'SIR97 (Altomare et al., 1999)'
_diffrn_ambient_temperature      120(1)
_diffrn_detector_area_resol_mean 10
_diffrn_measured_fraction_theta_full 0.995
_diffrn_measured_fraction_theta_max 0.995
_diffrn_measurement_device_type  'Rigaku R-AXIS IV imaging plate'
_diffrn_measurement_method       \w
_diffrn_radiation_monochromator  graphite
_diffrn_radiation_source         'Rigaku rotating anode'
_diffrn_radiation_type           MoK\a
_diffrn_radiation_wavelength     0.71069
_diffrn_reflns_av_R_equivalents  0.055
_diffrn_reflns_av_sigmaI/netI    0.0842
_diffrn_reflns_limit_h_max       24
_diffrn_reflns_limit_h_min       0
_diffrn_reflns_limit_k_max       6
_diffrn_reflns_limit_k_min       0
_diffrn_reflns_limit_l_max       10
_diffrn_reflns_limit_l_min       0
_diffrn_reflns_number            5840
_diffrn_reflns_theta_full        27.47
_diffrn_reflns_theta_max         27.47
_diffrn_reflns_theta_min         3.40
_exptl_absorpt_coefficient_mu    0.146
_exptl_absorpt_correction_T_max  0.992
_exptl_absorpt_correction_T_min  0.694
_exptl_absorpt_correction_type   multi-scan
_exptl_absorpt_process_details
; '(HIGASHI, T. (1995). Abscor - Empirical Absorption Correction
based on Fourier Series Approximation. Rigaku Corporation, Tokyo, Japan.)'
;
_exptl_crystal_colour            colourless
_exptl_crystal_density_diffrn    1.474
_exptl_crystal_density_method    'not measured'
_exptl_crystal_description       needle
_exptl_crystal_F_000             348
_exptl_crystal_size_max          0.60
_exptl_crystal_size_mid          0.07
_exptl_crystal_size_min          0.05
_refine_diff_density_max         0.264
_refine_diff_density_min         -0.204
_refine_diff_density_rms         0.060
_refine_ls_abs_structure_details
; The absolute configuration was assigned to agree with
that of its precursor (R)-difluorolactic acid at the chiral centre C2.
This compound has no atom heavier than Si and analyzed by
Mo radiation so that Flack parameter is not listed.
Freidel pairs were merged before refinement.
;
_refine_ls_extinction_method     none
_refine_ls_goodness_of_fit_ref   1.216
_refine_ls_hydrogen_treatment    mixed
_refine_ls_matrix_type           full
_refine_ls_number_parameters     103
_refine_ls_number_reflns         1043
_refine_ls_number_restraints     0
_refine_ls_restrained_S_all      1.216
_refine_ls_R_factor_all          0.0554
_refine_ls_R_factor_gt           0.0473
_refine_ls_shift/su_max          0.000
_refine_ls_shift/su_mean         0.000
_refine_ls_structure_factor_coef Fsqd
_refine_ls_weighting_details
'calc w=1/[\s^2^(Fo^2^)+(0.0417P)^2^+0.0446P] where P=(Fo^2^+2Fc^2^)/3'
_refine_ls_weighting_scheme      calc
_refine_ls_wR_factor_gt          0.0969
_refine_ls_wR_factor_ref         0.0994
_reflns_number_gt                945
_reflns_number_total             1043
_reflns_threshold_expression     >2sigma(I)
_cod_data_source_file            b600325g.txt
_cod_data_source_block           (R,R)-5a
_cod_database_code               7203263
loop_
_symmetry_equiv_pos_as_xyz
'x, y, z'
'-x, -y, z'
'x+1/2, -y+1/2, -z'
'-x+1/2, y+1/2, -z'
loop_
_atom_site_label
_atom_site_type_symbol
_atom_site_fract_x
_atom_site_fract_y
_atom_site_fract_z
_atom_site_U_iso_or_equiv
_atom_site_adp_type
_atom_site_occupancy
_atom_site_symmetry_multiplicity
_atom_site_calc_flag
_atom_site_refinement_flags
_atom_site_disorder_assembly
_atom_site_disorder_group
F1 F 0.57004(9) 0.8242(4) 0.5692(3) 0.0399(5) Uani 1 1 d . . .
F2 F 0.58875(9) 1.2054(4) 0.4575(2) 0.0429(5) Uani 1 1 d . . .
O1 O 0.71446(10) 0.9496(3) 0.5068(2) 0.0241(4) Uani 1 1 d . . .
O2 O 0.72274(9) 0.6709(3) 0.7972(2) 0.0239(4) Uani 1 1 d . . .
O3 O 0.64581(9) 0.9389(3) 0.9325(2) 0.0171(4) Uani 1 1 d . . .
C1 C 0.59675(14) 1.0635(6) 0.6034(4) 0.0257(6) Uani 1 1 d . . .
C2 C 0.67523(12) 1.0437(5) 0.6482(3) 0.0172(5) Uani 1 1 d . . .
H3 H 0.6930 1.2160 0.6801 0.021 Uiso 1 1 calc R . .
C3 C 0.68480(12) 0.8601(5) 0.7985(3) 0.0161(5) Uani 1 1 d . . .
C4 C 0.65133(14) 0.7868(5) 1.0920(3) 0.0209(5) Uani 1 1 d . . .
H4A H 0.6392 0.8964 1.1891 0.025 Uiso 1 1 calc R . .
H4B H 0.7000 0.7289 1.1068 0.025 Uiso 1 1 calc R . .
C5 C 0.60271(13) 0.5538(5) 1.0892(4) 0.0217(5) Uani 1 1 d . . .
H5A H 0.6120 0.4493 1.1905 0.026 Uiso 1 1 calc R . .
H5B H 0.6141 0.4490 0.9892 0.026 Uiso 1 1 calc R . .
C6 C 0.52361(13) 0.6202(4) 1.0845(4) 0.0200(5) Uani 1 1 d . . .
H6A H 0.5120 0.7264 1.1837 0.024 Uiso 1 1 calc R . .
H6B H 0.5138 0.7218 0.9821 0.024 Uiso 1 1 calc R . .
H2 H 0.5662(15) 1.149(6) 0.696(4) 0.020 Uiso 1 1 d . . .
H1 H 0.7321 1.0704 0.4496 0.039 Uiso 1 1 d . . .
loop_
_atom_site_aniso_label
_atom_site_aniso_U_11
_atom_site_aniso_U_22
_atom_site_aniso_U_33
_atom_site_aniso_U_23
_atom_site_aniso_U_13
_atom_site_aniso_U_12
F1 0.0263(8) 0.0501(10) 0.0435(10) -0.0042(11) -0.0069(8) -0.0118(9)
F2 0.0395(10) 0.0654(13) 0.0238(9) 0.0194(10) 0.0021(8) 0.0157(11)
O1 0.0266(9) 0.0213(8) 0.0244(9) 0.0029(8) 0.0131(8) 0.0005(9)
O2 0.0226(8) 0.0218(8) 0.0272(10) 0.0014(8) 0.0015(9) 0.0088(9)
O3 0.0205(8) 0.0159(7) 0.0150(8) 0.0001(8) 0.0022(7) 0.0003(7)
C1 0.0247(13) 0.0324(14) 0.0199(13) 0.0065(12) -0.0010(12) 0.0048(14)
C2 0.0172(11) 0.0159(11) 0.0185(12) 0.0002(10) 0.0058(10) 0.0015(11)
C3 0.0112(9) 0.0187(10) 0.0185(11) -0.0020(11) -0.0009(10) -0.0017(10)
C4 0.0261(12) 0.0230(11) 0.0136(11) 0.0001(11) -0.0026(11) -0.0011(11)
C5 0.0300(12) 0.0174(10) 0.0178(12) 0.0067(11) 0.0010(12) -0.0010(12)
C6 0.0252(11) 0.0145(10) 0.0203(11) -0.0014(10) 0.0012(10) -0.0029(11)
loop_
_atom_type_symbol
_atom_type_description
_atom_type_scat_dispersion_real
_atom_type_scat_dispersion_imag
_atom_type_scat_source
C C 0.0033 0.0016 'International Tables Vol C Tables 4.2.6.8 and 6.1.1.4'
H H 0.0000 0.0000 'International Tables Vol C Tables 4.2.6.8 and 6.1.1.4'
F F 0.0171 0.0103 'International Tables Vol C Tables 4.2.6.8 and 6.1.1.4'
O O 0.0106 0.0060 'International Tables Vol C Tables 4.2.6.8 and 6.1.1.4'
loop_
_geom_angle_atom_site_label_1
_geom_angle_atom_site_label_2
_geom_angle_atom_site_label_3
_geom_angle
_geom_angle_site_symmetry_1
_geom_angle_site_symmetry_3
_geom_angle_publ_flag
C2 O1 H1 112.0 . . ?
C3 O3 C4 117.17(18) . . ?
F1 C1 F2 106.5(2) . . ?
F1 C1 C2 110.1(2) . . ?
F2 C1 C2 109.6(2) . . ?
F1 C1 H2 108.7(16) . . ?
F2 C1 H2 107.0(16) . . ?
C2 C1 H2 114.6(16) . . ?
O1 C2 C3 108.98(19) . . ?
O1 C2 C1 110.7(2) . . ?
C3 C2 C1 109.5(2) . . ?
O1 C2 H3 109.2 . . ?
C3 C2 H3 109.2 . . ?
C1 C2 H3 109.2 . . ?
O2 C3 O3 125.1(2) . . ?
O2 C3 C2 124.6(2) . . ?
O3 C3 C2 110.29(19) . . ?
O3 C4 C5 111.6(2) . . ?
O3 C4 H4A 109.3 . . ?
C5 C4 H4A 109.3 . . ?
O3 C4 H4B 109.3 . . ?
C5 C4 H4B 109.3 . . ?
H4A C4 H4B 108.0 . . ?
C4 C5 C6 114.4(2) . . ?
C4 C5 H5A 108.6 . . ?
C6 C5 H5A 108.6 . . ?
C4 C5 H5B 108.6 . . ?
C6 C5 H5B 108.6 . . ?
H5A C5 H5B 107.6 . . ?
C6 C6 C5 112.8(2) 2_665 . ?
C6 C6 H6A 109.0 2_665 . ?
C5 C6 H6A 109.0 . . ?
C6 C6 H6B 109.0 2_665 . ?
C5 C6 H6B 109.0 . . ?
H6A C6 H6B 107.8 . . ?
loop_
_geom_bond_atom_site_label_1
_geom_bond_atom_site_label_2
_geom_bond_distance
_geom_bond_site_symmetry_2
_geom_bond_publ_flag
F1 C1 1.357(3) . ?
F2 C1 1.357(3) . ?
O1 C2 1.410(3) . ?
O1 H1 0.830 . ?
O2 C3 1.207(3) . ?
O3 C3 1.337(3) . ?
O3 C4 1.470(3) . ?
C1 C2 1.521(3) . ?
C1 H2 1.02(3) . ?
C2 C3 1.513(4) . ?
C2 H3 0.9800 . ?
C4 C5 1.508(3) . ?
C4 H4A 0.9700 . ?
C4 H4B 0.9700 . ?
C5 C6 1.528(3) . ?
C5 H5A 0.9700 . ?
C5 H5B 0.9700 . ?
C6 C6 1.523(4) 2_665 ?
C6 H6A 0.9700 . ?
C6 H6B 0.9700 . ?
loop_
_geom_torsion_atom_site_label_1
_geom_torsion_atom_site_label_2
_geom_torsion_atom_site_label_3
_geom_torsion_atom_site_label_4
_geom_torsion
_geom_torsion_site_symmetry_1
_geom_torsion_site_symmetry_2
_geom_torsion_site_symmetry_3
_geom_torsion_site_symmetry_4
_geom_torsion_publ_flag
F1 C1 C2 O1 63.5(3) . . . . ?
F2 C1 C2 O1 -53.3(3) . . . . ?
F1 C1 C2 C3 -56.7(3) . . . . ?
F2 C1 C2 C3 -173.5(2) . . . . ?
C4 O3 C3 O2 1.8(3) . . . . ?
C4 O3 C3 C2 -177.64(18) . . . . ?
O1 C2 C3 O2 3.0(3) . . . . ?
C1 C2 C3 O2 124.3(2) . . . . ?
O1 C2 C3 O3 -177.47(18) . . . . ?
C1 C2 C3 O3 -56.3(3) . . . . ?
C3 O3 C4 C5 -83.9(2) . . . . ?
O3 C4 C5 C6 -64.8(3) . . . . ?
C4 C5 C6 C6 -179.16(16) . . . 2_665 ?
