#------------------------------------------------------------------------------
#$Date: 2016-02-16 03:10:39 +0200 (Tue, 16 Feb 2016) $
#$Revision: 176453 $
#$URL: svn://www.crystallography.net/cod/cif/7/20/31/7203129.cif $
#------------------------------------------------------------------------------
#
# This file is available in the Crystallography Open Database (COD),
# http://www.crystallography.net/
#
# All data on this site have been placed in the public domain by the
# contributors.
#
data_7203129
loop_
_publ_author_name
'Takahashi, Satoshi'
'Katagiri, Toshimasa'
'Uneyama, Kenji'
_publ_section_title
;
 Nanoporous organic layered crystals of double-headed
 bis(trifluorolactate)s. Hydrogen-bonded systematic crystal structures
 controlled by the symmetries of molecular components
;
_journal_issue                   2
_journal_name_full               CrystEngComm
_journal_page_first              132
_journal_paper_doi               10.1039/b512051a
_journal_volume                  8
_journal_year                    2006
_chemical_absolute_configuration syn
_chemical_formula_moiety         'C12 H16 F6 O6 '
_chemical_formula_sum            'C12 H16 F6 O6'
_chemical_formula_weight         370.25
_chemical_melting_point          387
_chemical_name_common
'(S,S)-(-)-hexamethylene bis(3,3,3-trifluorolactate)'
_chemical_optical_rotation       '[\a]^25^~D~= -5.80 (c = 1.1, acetone)'
_space_group_IT_number           18
_symmetry_cell_setting           orthorhombic
_symmetry_Int_Tables_number      18
_symmetry_space_group_name_Hall  'P 2 2ab'
_symmetry_space_group_name_H-M   'P 21 21 2'
_atom_sites_solution_hydrogens   geom
_atom_sites_solution_primary     direct
_atom_sites_solution_secondary   difmap
_audit_creation_method           SHELXL-97
_cell_angle_alpha                90.00
_cell_angle_beta                 90.00
_cell_angle_gamma                90.00
_cell_formula_units_Z            2
_cell_length_a                   19.7519(12)
_cell_length_b                   5.0738(2)
_cell_length_c                   7.8915(5)
_cell_measurement_reflns_used    5322
_cell_measurement_temperature    120(1)
_cell_measurement_theta_max      27.5
_cell_measurement_theta_min      4.0
_cell_volume                     790.86(8)
_computing_cell_refinement       'PAPID-AUTO (Rigaku)'
_computing_data_collection       'RAPID-AUTO (Rigaku)'
_computing_data_reduction        'teXsan Ver. 1.11 (MSC)'
_computing_molecular_graphics    'Mercury Ver. 1.3 (Bruno et al., 2002)'
_computing_publication_material  'WinGX Ver. 1.7 (Farrugia, 1999)'
_computing_structure_refinement  'SHELXL-97 (Sheldrick, 1997)'
_computing_structure_solution    'SIR97 (Altomare et al., 1999)'
_diffrn_ambient_temperature      120(2)
_diffrn_detector_area_resol_mean 10.00
_diffrn_measured_fraction_theta_full 0.942
_diffrn_measured_fraction_theta_max 0.942
_diffrn_measurement_device_type  'Rigaku RAXIS-IV Imaging Plate'
_diffrn_measurement_method       \w
_diffrn_radiation_monochromator  graphite
_diffrn_radiation_source         'Rigaku rotating anode'
_diffrn_radiation_type           MoK\a
_diffrn_radiation_wavelength     0.71069
_diffrn_reflns_av_R_equivalents  0.029
_diffrn_reflns_limit_h_max       25
_diffrn_reflns_limit_h_min       -25
_diffrn_reflns_limit_k_max       6
_diffrn_reflns_limit_k_min       -6
_diffrn_reflns_limit_l_max       10
_diffrn_reflns_limit_l_min       -9
_diffrn_reflns_number            5550
_diffrn_reflns_theta_full        27.47
_diffrn_reflns_theta_max         27.47
_diffrn_reflns_theta_min         3.30
_exptl_absorpt_coefficient_mu    0.165
_exptl_absorpt_correction_T_max  0.984
_exptl_absorpt_correction_T_min  0.749
_exptl_absorpt_correction_type   multi-scan
_exptl_absorpt_process_details   '(Higashi, 1995)'
_exptl_crystal_colour            colorless
_exptl_crystal_density_diffrn    1.555
_exptl_crystal_density_method    'not measured'
_exptl_crystal_description       needle
_exptl_crystal_F_000             380
_exptl_crystal_size_max          0.500
_exptl_crystal_size_mid          0.150
_exptl_crystal_size_min          0.100
_refine_diff_density_max         0.225
_refine_diff_density_min         -0.190
_refine_diff_density_rms         0.043
_refine_ls_abs_structure_details
; The absolute configuration was assigned to agree with
that of its precursor (S)-trifluorolactic acid at the chiral centre C2.
This compound has no atom heavier than Si and analyzed by
Mo radiation so that Flack parameter is not listed.
Friedel pairs were merged before refinement.
;
_refine_ls_extinction_method     none
_refine_ls_goodness_of_fit_ref   1.075
_refine_ls_hydrogen_treatment    mixed
_refine_ls_matrix_type           full
_refine_ls_number_parameters     109
_refine_ls_number_reflns         1040
_refine_ls_number_restraints     0
_refine_ls_restrained_S_all      1.075
_refine_ls_R_factor_all          0.0353
_refine_ls_R_factor_gt           0.0343
_refine_ls_shift/su_max          0.000
_refine_ls_shift/su_mean         0.000
_refine_ls_structure_factor_coef Fsqd
_refine_ls_weighting_details
'calc w=1/[\s^2^(Fo^2^)+(0.0532P)^2^+0.2184P] where P=(Fo^2^+2Fc^2^)/3'
_refine_ls_weighting_scheme      calc
_refine_ls_wR_factor_gt          0.0923
_refine_ls_wR_factor_ref         0.0931
_reflns_number_gt                1015
_reflns_number_total             1040
_reflns_threshold_expression     >2sigma(I)
_cod_data_source_file            b512051a.txt
_cod_data_source_block           3c
_cod_original_sg_symbol_H-M      'P 21 21 2 '
_cod_original_formula_sum        'C12 H16 F6 O6 '
_cod_database_code               7203129
loop_
_symmetry_equiv_pos_as_xyz
'x, y, z'
'-x, -y, z'
'x+1/2, -y+1/2, -z'
'-x+1/2, y+1/2, -z'
loop_
_atom_site_label
_atom_site_type_symbol
_atom_site_fract_x
_atom_site_fract_y
_atom_site_fract_z
_atom_site_U_iso_or_equiv
_atom_site_adp_type
_atom_site_occupancy
_atom_site_symmetry_multiplicity
_atom_site_calc_flag
_atom_site_refinement_flags
_atom_site_disorder_assembly
_atom_site_disorder_group
F1 F 0.89718(8) 1.0820(4) -0.04990(18) 0.0495(4) Uani 1 1 d . . .
F2 F 0.93015(6) 1.0760(3) 0.20839(17) 0.0423(4) Uani 1 1 d . . .
F3 F 0.92198(7) 0.7143(3) 0.0671(2) 0.0510(4) Uani 1 1 d . . .
O1 O 0.78102(8) 0.8224(3) 0.01507(19) 0.0311(4) Uani 1 1 d . . .
O2 O 0.78433(7) 0.5194(3) 0.28767(18) 0.0269(3) Uani 1 1 d . . .
O3 O 0.84313(6) 0.8239(3) 0.43544(16) 0.0225(3) Uani 1 1 d . . .
C1 C 0.89290(11) 0.9475(4) 0.0940(3) 0.0300(4) Uani 1 1 d . . .
C2 C 0.81947(9) 0.9199(4) 0.1504(2) 0.0220(4) Uani 1 1 d . . .
H2 H 0.8019 1.0925 0.1848 0.026 Uiso 1 1 calc R . .
C3 C 0.81355(8) 0.7267(4) 0.2983(2) 0.0201(4) Uani 1 1 d . . .
C4 C 0.84296(9) 0.6566(5) 0.5871(2) 0.0268(4) Uani 1 1 d . . .
H4A H 0.8008 0.5588 0.5923 0.032 Uiso 1 1 calc R . .
H4B H 0.8459 0.7665 0.6874 0.032 Uiso 1 1 calc R . .
C5 C 0.90176(9) 0.4659(4) 0.5847(3) 0.0256(4) Uani 1 1 d . . .
H5A H 0.8981 0.3556 0.4847 0.031 Uiso 1 1 calc R . .
H5B H 0.8986 0.3521 0.6831 0.031 Uiso 1 1 calc R . .
C6 C 0.97098(9) 0.5985(4) 0.5845(3) 0.0246(4) Uani 1 1 d . . .
H6A H 0.9747 0.7100 0.4851 0.030 Uiso 1 1 calc R . .
H6B H 0.9748 0.7102 0.6838 0.030 Uiso 1 1 calc R . .
H1 H 0.7670 0.9321 -0.0500 0.047 Uiso 1 1 d . . .
loop_
_atom_site_aniso_label
_atom_site_aniso_U_11
_atom_site_aniso_U_22
_atom_site_aniso_U_33
_atom_site_aniso_U_23
_atom_site_aniso_U_13
_atom_site_aniso_U_12
F1 0.0573(8) 0.0622(10) 0.0290(7) 0.0155(7) -0.0019(6) -0.0178(9)
F2 0.0306(6) 0.0651(10) 0.0311(6) 0.0023(7) -0.0035(5) -0.0190(7)
F3 0.0439(7) 0.0502(9) 0.0589(10) 0.0012(9) 0.0204(7) 0.0141(7)
O1 0.0412(7) 0.0204(6) 0.0316(8) 0.0020(6) -0.0203(6) -0.0017(6)
O2 0.0292(6) 0.0216(6) 0.0298(7) -0.0008(6) -0.0027(6) -0.0043(6)
O3 0.0250(6) 0.0233(6) 0.0193(6) -0.0015(6) -0.0020(5) 0.0005(5)
C1 0.0321(9) 0.0345(11) 0.0234(9) 0.0043(9) -0.0007(7) -0.0025(9)
C2 0.0248(8) 0.0177(8) 0.0235(9) -0.0008(8) -0.0073(7) 0.0006(7)
C3 0.0166(7) 0.0212(8) 0.0224(8) -0.0029(7) -0.0004(6) 0.0023(6)
C4 0.0261(8) 0.0354(11) 0.0189(8) 0.0031(9) 0.0022(7) -0.0011(8)
C5 0.0273(9) 0.0273(9) 0.0223(8) 0.0045(8) 0.0010(7) -0.0020(8)
C6 0.0261(8) 0.0247(9) 0.0231(9) -0.0002(8) 0.0011(7) -0.0001(8)
loop_
_atom_type_symbol
_atom_type_description
_atom_type_scat_dispersion_real
_atom_type_scat_dispersion_imag
_atom_type_scat_source
C C 0.0033 0.0016 'International Tables Vol C Tables 4.2.6.8 and 6.1.1.4'
H H 0 0 'International Tables Vol C Tables 4.2.6.8 and 6.1.1.4'
F F 0.0171 0.0103 'International Tables Vol C Tables 4.2.6.8 and 6.1.1.4'
O O 0.0106 0.006 'International Tables Vol C Tables 4.2.6.8 and 6.1.1.4'
loop_
_geom_angle_atom_site_label_1
_geom_angle_atom_site_label_2
_geom_angle_atom_site_label_3
_geom_angle
_geom_angle_site_symmetry_1
_geom_angle_site_symmetry_3
_geom_angle_publ_flag
C2 O1 H1 115.00 . . no
C3 O3 C4 116.74(15) . . no
F1 C1 F3 107.03(18) . . no
F1 C1 F2 107.00(17) . . no
F3 C1 F2 107.67(19) . . no
F1 C1 C2 110.99(17) . . no
F3 C1 C2 112.04(18) . . no
F2 C1 C2 111.84(17) . . no
O1 C2 C1 109.00(16) . . no
O1 C2 C3 108.32(15) . . no
C1 C2 C3 110.80(15) . . no
O1 C2 H2 109.6 . . no
C1 C2 H2 109.6 . . no
C3 C2 H2 109.6 . . no
O2 C3 O3 126.42(18) . . no
O2 C3 C2 122.99(17) . . no
O3 C3 C2 110.57(15) . . no
O3 C4 C5 110.99(14) . . no
O3 C4 H4A 109.4 . . no
C5 C4 H4A 109.4 . . no
O3 C4 H4B 109.4 . . no
C5 C4 H4B 109.4 . . no
H4A C4 H4B 108.0 . . no
C4 C5 C6 114.01(17) . . no
C4 C5 H5A 108.7 . . no
C6 C5 H5A 108.7 . . no
C4 C5 H5B 108.7 . . no
C6 C5 H5B 108.7 . . no
H5A C5 H5B 107.6 . . no
C6 C6 C5 112.7(2) 2_765 . no
C6 C6 H6A 109.0 2_765 . no
C5 C6 H6A 109.0 . . no
C6 C6 H6B 109.0 2_765 . no
C5 C6 H6B 109.0 . . no
H6A C6 H6B 107.8 . . no
loop_
_geom_bond_atom_site_label_1
_geom_bond_atom_site_label_2
_geom_bond_distance
_geom_bond_site_symmetry_2
_geom_bond_publ_flag
F1 C1 1.327(2) . no
F2 C1 1.335(3) . no
F3 C1 1.332(3) . no
O1 C2 1.401(2) . no
O1 H1 0.8100 . no
O2 C3 1.203(2) . no
O3 C3 1.325(2) . no
O3 C4 1.467(2) . no
C1 C2 1.524(3) . no
C2 C3 1.528(3) . no
C2 H2 0.9800 . no
C4 C5 1.512(3) . no
C4 H4A 0.9700 . no
C4 H4B 0.9700 . no
C5 C6 1.524(3) . no
C5 H5A 0.9700 . no
C5 H5B 0.9700 . no
C6 C6 1.521(4) 2_765 no
C6 H6A 0.9700 . no
C6 H6B 0.9700 . no
loop_
_geom_torsion_atom_site_label_1
_geom_torsion_atom_site_label_2
_geom_torsion_atom_site_label_3
_geom_torsion_atom_site_label_4
_geom_torsion
_geom_torsion_site_symmetry_1
_geom_torsion_site_symmetry_2
_geom_torsion_site_symmetry_3
_geom_torsion_site_symmetry_4
_geom_torsion_publ_flag
F1 C1 C2 O1 51.2(2) . . . . no
F3 C1 C2 O1 -68.4(2) . . . . no
F2 C1 C2 O1 170.63(16) . . . . no
F1 C1 C2 C3 170.32(16) . . . . no
F3 C1 C2 C3 50.7(2) . . . . no
F2 C1 C2 C3 -70.3(2) . . . . no
C4 O3 C3 O2 3.1(3) . . . . no
C4 O3 C3 C2 -178.52(13) . . . . no
O1 C2 C3 O2 5.1(2) . . . . no
C1 C2 C3 O2 -114.37(19) . . . . no
O1 C2 C3 O3 -173.34(14) . . . . no
C1 C2 C3 O3 67.1(2) . . . . no
C3 O3 C4 C5 85.1(2) . . . . no
O3 C4 C5 C6 61.7(2) . . . . no
C4 C5 C6 C6 179.22(12) . . . 2_765 no
