#------------------------------------------------------------------------------
#$Date: 2017-10-14 22:27:35 +0300 (Sat, 14 Oct 2017) $
#$Revision: 202017 $
#$URL: file:///home/coder/svn-repositories/cod/cif/7/20/48/7204880.cif $
#------------------------------------------------------------------------------
#
# This file is available in the Crystallography Open Database (COD),
# http://www.crystallography.net/
#
# All data on this site have been placed in the public domain by the
# contributors.
#
data_7204880
loop_
_publ_author_name
'Dai, Chaoyang'
'Yuan, Zheng'
'Collings, Jonathan C.'
'Fasina, Tolulope M.'
'Thomas, Rhodri Ll.'
'Roscoe, Karl P.'
'Stimson, Lorna M.'
'Yufit, Dmitry S.'
'Batsanov, Andrei S.'
'Howard, Judith A. K.'
'Marder, Todd B.'
_publ_section_title
;
 Crystal engineering with p-substituted 4-ethynylbenzenes using the
 C?H?O supramolecular synthon
;
_journal_issue                   32
_journal_name_full               CrystEngComm
_journal_page_first              184
_journal_paper_doi               10.1039/b404502e
_journal_volume                  6
_journal_year                    2004
_chemical_absolute_configuration inapplicable
_chemical_formula_moiety         'C9 H4 F4 O'
_chemical_formula_sum            'C9 H4 F4 O'
_chemical_formula_weight         204.12
_chemical_melting_point          329.5(5)
_chemical_name_common            4-ethynyl-2,3,5,6-tetrafluoroanisole
_chemical_name_systematic
;
4-ethynyl-2,3,5,6-tetrafluoroanisole
;
_space_group_IT_number           1
_symmetry_cell_setting           triclinic
_symmetry_space_group_name_Hall  'P 1'
_symmetry_space_group_name_H-M   'P 1'
_atom_sites_solution_hydrogens   difmap
_atom_sites_solution_primary     direct
_atom_sites_solution_secondary   difmap
_audit_creation_method           SHELXL-97
_cell_angle_alpha                104.97(1)
_cell_angle_beta                 92.28(3)
_cell_angle_gamma                91.73(1)
_cell_formula_units_Z            1
_cell_length_a                   4.0302(6)
_cell_length_b                   6.240(1)
_cell_length_c                   8.220(1)
_cell_measurement_reflns_used    249
_cell_measurement_temperature    120(2)
_cell_measurement_theta_max      23
_cell_measurement_theta_min      10
_cell_volume                     199.37(5)
_computing_cell_refinement       'SMART version 5.054 (Bruker, 1998)'
_computing_data_collection       'SMART version 5.054 (Bruker, 1998)'
_computing_data_reduction        'SAINT version 6.01 (Bruker, 1999)'
_computing_molecular_graphics    'SHELXTL version 5.10 (Bruker, 1997)'
_computing_publication_material  'SHELXTL version 5.10 (Bruker, 1997)'
_computing_structure_refinement  'SHELXL-97 (Sheldrick, 1997)'
_computing_structure_solution    'SHELXS-97 (Sheldrick, 1990)'
_diffrn_ambient_temperature      120(2)
_diffrn_detector_area_resol_mean 8
_diffrn_measured_fraction_theta_full 0.987
_diffrn_measured_fraction_theta_max 0.987
_diffrn_measurement_device_type  'SMART 1K CCD area detector'
_diffrn_measurement_method       '\w scans'
_diffrn_radiation_monochromator  graphite
_diffrn_radiation_source         'fine-focus sealed tube'
_diffrn_radiation_type           MoK\a
_diffrn_radiation_wavelength     0.71073
_diffrn_reflns_av_R_equivalents  0.0341
_diffrn_reflns_av_sigmaI/netI    0.0307
_diffrn_reflns_limit_h_max       5
_diffrn_reflns_limit_h_min       -5
_diffrn_reflns_limit_k_max       7
_diffrn_reflns_limit_k_min       -8
_diffrn_reflns_limit_l_max       10
_diffrn_reflns_limit_l_min       -8
_diffrn_reflns_number            1438
_diffrn_reflns_theta_full        27.47
_diffrn_reflns_theta_max         27.47
_diffrn_reflns_theta_min         2.57
_exptl_absorpt_coefficient_mu    0.173
_exptl_absorpt_correction_type   none
_exptl_crystal_colour            'light brown'
_exptl_crystal_density_diffrn    1.700
_exptl_crystal_density_meas      ?
_exptl_crystal_density_method    .
_exptl_crystal_description       block
_exptl_crystal_F_000             102
_exptl_crystal_size_max          0.20
_exptl_crystal_size_mid          0.15
_exptl_crystal_size_min          0.10
_refine_diff_density_max         0.284
_refine_diff_density_min         -0.208
_refine_diff_density_rms         0.047
_refine_ls_abs_structure_details
'undeterminable, Friedel pairs merged, all \Df" set to 0'
_refine_ls_extinction_method     none
_refine_ls_goodness_of_fit_ref   1.255
_refine_ls_hydrogen_treatment    refall
_refine_ls_matrix_type           full
_refine_ls_number_parameters     144
_refine_ls_number_reflns         897
_refine_ls_number_restraints     3
_refine_ls_restrained_S_all      1.252
_refine_ls_R_factor_all          0.0367
_refine_ls_R_factor_gt           0.0340
_refine_ls_shift/su_max          0.021
_refine_ls_shift/su_mean         0.002
_refine_ls_structure_factor_coef Fsqd
_refine_ls_weighting_details
'calc w=1/[\s^2^(Fo^2^)+(0.0570P)^2^+0.0497P] where P=(Fo^2^+2Fc^2^)/3'
_refine_ls_weighting_scheme      calc
_refine_ls_wR_factor_gt          0.1080
_refine_ls_wR_factor_ref         0.1101
_reflns_Friedel_coverage         0.80
_reflns_number_gt                835
_reflns_number_total             897
_reflns_threshold_expression     I>2\s(I)
_cod_data_source_file            b404502e.txt
_cod_data_source_block           (4)
_cod_depositor_comments
;
The following automatic conversions were performed:
'_symmetry_cell_setting' value 'Triclinic' changed to 'triclinic'
according to '/home/adriana/struct/CIF-dictionaries/cif_core.dic'
dictionary named 'cif_core.dic' version 2.4.1 from 2010-06-29.

Automatic conversion script
Id: cif_fix_enum 1555 2011-01-17 13:19:09Z saulius 

The following automatic conversions were performed:

'_chemical_melting_point' value '329--330' was changed to '329.5(5)'
- the average value was taken and precision was estimated.

Automatic conversion script
Id: cif_fix_values 1569 2011-02-09 13:29:24Z adriana 
;
_cod_original_sg_symbol_H-M      P1
_cod_database_code               7204880
loop_
_symmetry_equiv_pos_as_xyz
'x, y, z'
loop_
_atom_site_label
_atom_site_type_symbol
_atom_site_fract_x
_atom_site_fract_y
_atom_site_fract_z
_atom_site_U_iso_or_equiv
_atom_site_adp_type
_atom_site_occupancy
_atom_site_symmetry_multiplicity
_atom_site_calc_flag
_atom_site_refinement_flags
_atom_site_disorder_assembly
_atom_site_disorder_group
F2 F 0.0812(6) 0.6961(4) 0.3631(3) 0.0294(6) Uani 1 1 d . . .
F3 F 0.3024(6) 0.9191(4) 0.6759(3) 0.0280(6) Uani 1 1 d . . .
F5 F 0.8600(6) 0.2860(4) 0.7362(3) 0.0288(6) Uani 1 1 d . . .
F6 F 0.6504(6) 0.0659(4) 0.4209(3) 0.0282(6) Uani 1 1 d . . .
O O 0.2429(7) 0.2563(4) 0.2292(3) 0.0270(7) Uani 1 1 d . . .
C1 C 0.3610(10) 0.3758(6) 0.3846(5) 0.0205(8) Uani 1 1 d . . .
C2 C 0.2788(10) 0.5957(7) 0.4533(5) 0.0222(8) Uani 1 1 d . . .
C3 C 0.3916(10) 0.7106(6) 0.6150(5) 0.0208(8) Uani 1 1 d . . .
C4 C 0.5881(10) 0.6098(6) 0.7157(4) 0.0200(8) Uani 1 1 d . . .
C5 C 0.6671(9) 0.3899(6) 0.6456(4) 0.0200(8) Uani 1 1 d . . .
C6 C 0.5593(10) 0.2765(6) 0.4836(5) 0.0202(8) Uani 1 1 d . . .
C7 C 0.3705(9) 0.3281(6) 0.0885(4) 0.0289(7) Uani 1 1 d . . .
H71 H 0.624(13) 0.329(8) 0.096(6) 0.039(13) Uiso 1 1 d . . .
H72 H 0.316(17) 0.474(12) 0.095(8) 0.068(19) Uiso 1 1 d . . .
H73 H 0.261(16) 0.204(11) -0.019(9) 0.064(17) Uiso 1 1 d . . .
C8 C 0.7130(10) 0.7287(6) 0.8817(5) 0.0229(8) Uani 1 1 d . . .
C9 C 0.8235(10) 0.8272(6) 1.0177(5) 0.0304(7) Uani 1 1 d . . .
H9 H 0.913(16) 0.928(11) 1.132(8) 0.067(19) Uiso 1 1 d . . .
loop_
_atom_site_aniso_label
_atom_site_aniso_U_11
_atom_site_aniso_U_22
_atom_site_aniso_U_33
_atom_site_aniso_U_23
_atom_site_aniso_U_13
_atom_site_aniso_U_12
F2 0.0327(14) 0.0309(13) 0.0250(11) 0.0081(10) -0.0057(10) 0.0085(10)
F3 0.0352(14) 0.0203(12) 0.0269(11) 0.0026(9) 0.0042(10) 0.0062(9)
F5 0.0313(13) 0.0294(13) 0.0262(11) 0.0085(9) -0.0069(9) 0.0078(10)
F6 0.0424(15) 0.0161(11) 0.0232(11) -0.0009(9) 0.0037(10) 0.0066(9)
O 0.0340(17) 0.0279(17) 0.0166(12) 0.0029(11) -0.0026(11) -0.0081(13)
C1 0.022(2) 0.021(2) 0.0163(16) 0.0030(14) 0.0011(14) -0.0028(14)
C2 0.020(2) 0.026(2) 0.0212(18) 0.0080(16) -0.0017(15) 0.0006(14)
C3 0.022(2) 0.0170(18) 0.0222(18) 0.0034(14) 0.0028(15) 0.0023(14)
C4 0.0204(19) 0.0215(19) 0.0161(16) 0.0020(14) 0.0002(14) -0.0033(13)
C5 0.021(2) 0.021(2) 0.0183(17) 0.0061(15) -0.0004(15) 0.0015(14)
C6 0.022(2) 0.018(2) 0.0185(16) 0.0010(13) 0.0034(14) -0.0011(14)
C7 0.0354(19) 0.0320(18) 0.0187(15) 0.0059(13) 0.0002(13) 0.0018(14)
C8 0.029(2) 0.0197(18) 0.0181(17) 0.0018(15) -0.0013(15) -0.0019(15)
C9 0.0392(19) 0.0270(16) 0.0224(16) 0.0029(13) -0.0042(13) -0.0025(14)
loop_
_atom_type_symbol
_atom_type_description
_atom_type_scat_dispersion_real
_atom_type_scat_dispersion_imag
_atom_type_scat_source
C C 0.0033 0.0000 'International Tables Vol C Tables 4.2.6.8 and 6.1.1.4'
H H 0.0000 0.0000 'International Tables Vol C Tables 4.2.6.8 and 6.1.1.4'
O O 0.0106 0.0000 'International Tables Vol C Tables 4.2.6.8 and 6.1.1.4'
F F 0.0171 0.0000 'International Tables Vol C Tables 4.2.6.8 and 6.1.1.4'
loop_
_geom_angle_atom_site_label_1
_geom_angle_atom_site_label_2
_geom_angle_atom_site_label_3
_geom_angle
_geom_angle_site_symmetry_1
_geom_angle_site_symmetry_3
_geom_angle_publ_flag
C1 O C7 115.4(3) . . ?
O C1 C6 119.9(3) . . ?
O C1 C2 122.4(4) . . ?
C6 C1 C2 117.7(3) . . ?
F2 C2 C3 119.3(4) . . ?
F2 C2 C1 119.5(4) . . ?
C3 C2 C1 121.1(4) . . ?
F3 C3 C2 118.9(4) . . ?
F3 C3 C4 119.8(3) . . ?
C2 C3 C4 121.2(3) . . ?
C5 C4 C3 116.9(3) . . ?
C5 C4 C8 121.3(4) . . ?
C3 C4 C8 121.7(4) . . ?
F5 C5 C6 118.7(4) . . ?
F5 C5 C4 119.4(3) . . ?
C6 C5 C4 121.9(3) . . ?
F6 C6 C5 119.3(4) . . ?
F6 C6 C1 119.6(3) . . ?
C5 C6 C1 121.1(3) . . ?
O C7 H71 109(3) . . ?
O C7 H72 111(4) . . ?
H71 C7 H72 106(5) . . ?
O C7 H73 102(4) . . ?
H71 C7 H73 113(5) . . ?
H72 C7 H73 116(6) . . ?
C9 C8 C4 178.5(4) . . ?
C8 C9 H9 174(4) . . ?
loop_
_geom_bond_atom_site_label_1
_geom_bond_atom_site_label_2
_geom_bond_distance
_geom_bond_site_symmetry_2
_geom_bond_publ_flag
F2 C2 1.341(5) . ?
F3 C3 1.333(5) . ?
F5 C5 1.347(5) . ?
F6 C6 1.350(5) . ?
O C1 1.361(5) . ?
O C7 1.451(4) . ?
C1 C6 1.387(5) . ?
C1 C2 1.398(6) . ?
C2 C3 1.388(5) . ?
C3 C4 1.399(5) . ?
C4 C5 1.396(6) . ?
C4 C8 1.437(5) . ?
C5 C6 1.382(5) . ?
C7 H71 1.02(5) . ?
C7 H72 0.93(7) . ?
C7 H73 1.08(7) . ?
C8 C9 1.190(5) . ?
C9 H9 1.03(7) . ?
loop_
_geom_hbond_atom_site_label_D
_geom_hbond_atom_site_label_H
_geom_hbond_atom_site_label_A
_geom_hbond_distance_DH
_geom_hbond_distance_HA
_geom_hbond_distance_DA
_geom_hbond_angle_DHA
_geom_hbond_site_symmetry_A
C9 H9 O 1.03(7) 2.35(7) 3.184(4) 138(5) 1_666
loop_
_geom_torsion_atom_site_label_1
_geom_torsion_atom_site_label_2
_geom_torsion_atom_site_label_3
_geom_torsion_atom_site_label_4
_geom_torsion
_geom_torsion_site_symmetry_1
_geom_torsion_site_symmetry_2
_geom_torsion_site_symmetry_3
_geom_torsion_site_symmetry_4
_geom_torsion_publ_flag
C3 C4 O C9 129(5) . . . . ?
loop_
_cod_related_entry_id
_cod_related_entry_database
_cod_related_entry_code
1 ChemSpider 9053521
