#------------------------------------------------------------------------------
#$Date: 2016-03-26 17:16:47 +0200 (Sat, 26 Mar 2016) $
#$Revision: 180385 $
#$URL: svn://www.crystallography.net/cod/cif/7/20/54/7205403.cif $
#------------------------------------------------------------------------------
#
# This file is available in the Crystallography Open Database (COD),
# http://www.crystallography.net/
#
# All data on this site have been placed in the public domain by the
# contributors.
#
data_7205403
loop_
_publ_author_name
'Bujak, Maciej'
'Podsiad\/lo, Marcin'
'Katrusiak, Andrzej'
_publ_section_title
;
 Crystalline gas of 1,1,1-trichloroethane
;
_journal_issue                   2
_journal_name_full               CrystEngComm
_journal_page_first              396
_journal_paper_doi               10.1039/c0ce00493f
_journal_volume                  13
_journal_year                    2011
_chemical_formula_moiety         'C2 H3 Cl3'
_chemical_formula_sum            'C2 H3 Cl3'
_chemical_formula_weight         133.39
_chemical_melting_point          242.8
_chemical_name_common            1,1,1-trichloroethane
_chemical_name_systematic
;
1,1,1-trichloroethane
;
_space_group_IT_number           62
_symmetry_cell_setting           orthorhombic
_symmetry_space_group_name_Hall  '-P 2ac 2n'
_symmetry_space_group_name_H-M   'P n m a'
_atom_sites_solution_hydrogens   geom
_atom_sites_solution_primary     direct
_atom_sites_solution_secondary   difmap
_audit_creation_method           SHELXL-97
_cell_angle_alpha                90.00
_cell_angle_beta                 90.00
_cell_angle_gamma                90.00
_cell_formula_units_Z            4
_cell_length_a                   10.914(2)
_cell_length_b                   7.414(6)
_cell_length_c                   5.5350(10)
_cell_measurement_pressure       2150000
_cell_measurement_reflns_used    1734
_cell_measurement_temperature    295(2)
_cell_measurement_theta_max      28.02
_cell_measurement_theta_min      3.68
_cell_volume                     447.9(4)
_computing_cell_refinement       'CrysAlisRED (Oxford Diffraction Ltd, 2009)'
_computing_data_collection       'CrysAlisCCD (Oxford Diffraction Ltd, 2009)'
_computing_data_reduction
'CrysAlisRED (Oxford Diffraction Ltd, 2009); REDSHABS (Katrusiak, A., 2003)'
_computing_molecular_graphics    'Mercury (Macrae at al., 2008)'
_computing_publication_material  'SHELXL--97 (Sheldrick, 2008)'
_computing_structure_refinement  'SHELXL--97 (Sheldrick, 2008)'
_computing_structure_solution    'SHELXS--97 (Sheldrick, 2008)'
_diffrn_ambient_environment      'diamond-anvil cell'
_diffrn_ambient_pressure         2150000
_diffrn_ambient_temperature      295(2)
_diffrn_measured_fraction_theta_full 0.462
_diffrn_measured_fraction_theta_max 0.462
_diffrn_measurement_device_type  'KM-4 CCD'
_diffrn_measurement_method       '\f- and \w-scans'
_diffrn_radiation_monochromator  graphite
_diffrn_radiation_source         'fine-focus sealed tube'
_diffrn_radiation_type           MoK\a
_diffrn_radiation_wavelength     0.71073
_diffrn_reflns_av_R_equivalents  0.0993
_diffrn_reflns_av_sigmaI/netI    0.0363
_diffrn_reflns_limit_h_max       12
_diffrn_reflns_limit_h_min       -12
_diffrn_reflns_limit_k_max       4
_diffrn_reflns_limit_k_min       -4
_diffrn_reflns_limit_l_max       6
_diffrn_reflns_limit_l_min       -6
_diffrn_reflns_number            1996
_diffrn_reflns_theta_full        25.09
_diffrn_reflns_theta_max         25.09
_diffrn_reflns_theta_min         4.13
_diffrn_standards_decay_%        0
_diffrn_standards_interval_count 0
_diffrn_standards_number         0
_exptl_absorpt_coefficient_mu    1.839
_exptl_absorpt_correction_T_max  0.645
_exptl_absorpt_correction_T_min  0.237
_exptl_absorpt_correction_type   numerical
_exptl_absorpt_process_details
;
Correction for absorption of the diamond-anvil cell and the sample
were made using program REDSHABS (Katrusiak, A. (2003) REDSHABS. Adam
Mickiewicz University Pozna\'n; Katrusiak, A. (2004) Z. Kristallogr.
219, 461-467).
;
_exptl_crystal_colour            colourless
_exptl_crystal_density_diffrn    1.978
_exptl_crystal_density_method    'not measured'
_exptl_crystal_description       prism
_exptl_crystal_F_000             264
_exptl_crystal_size_max          0.35
_exptl_crystal_size_mid          0.24
_exptl_crystal_size_min          0.22
_refine_diff_density_max         0.375
_refine_diff_density_min         -0.381
_refine_diff_density_rms         0.093
_refine_ls_extinction_coef       0.002(7)
_refine_ls_extinction_expression Fc^*^=kFc[1+0.001xFc^2^\l^3^/sin(2\q)]^-1/4^
_refine_ls_extinction_method     SHELXL
_refine_ls_goodness_of_fit_ref   1.136
_refine_ls_hydrogen_treatment    mixed
_refine_ls_matrix_type           full
_refine_ls_number_parameters     34
_refine_ls_number_reflns         199
_refine_ls_number_restraints     17
_refine_ls_restrained_S_all      1.087
_refine_ls_R_factor_all          0.0595
_refine_ls_R_factor_gt           0.0576
_refine_ls_shift/su_max          0.000
_refine_ls_shift/su_mean         0.000
_refine_ls_structure_factor_coef Fsqd
_refine_ls_weighting_details
'calc w=1/[\s^2^(Fo^2^)+(0.0650P)^2^+1.6750P] where P=(Fo^2^+2Fc^2^)/3'
_refine_ls_weighting_scheme      calc
_refine_ls_wR_factor_gt          0.1222
_refine_ls_wR_factor_ref         0.1248
_reflns_number_gt                193
_reflns_number_total             199
_reflns_threshold_expression     I>2\s(I)
_cod_data_source_file            C0CE00493F.TXT
_cod_data_source_block           111TCE_2.15GPa
_cod_database_code               7205403
loop_
_symmetry_equiv_pos_as_xyz
'x, y, z'
'-x+1/2, -y, z+1/2'
'-x, y+1/2, -z'
'x+1/2, -y+1/2, -z+1/2'
'-x, -y, -z'
'x-1/2, y, -z-1/2'
'x, -y-1/2, z'
'-x-1/2, y-1/2, z-1/2'
loop_
_atom_site_label
_atom_site_type_symbol
_atom_site_fract_x
_atom_site_fract_y
_atom_site_fract_z
_atom_site_U_iso_or_equiv
_atom_site_adp_type
_atom_site_occupancy
_atom_site_symmetry_multiplicity
_atom_site_calc_flag
_atom_site_refinement_flags
_atom_site_disorder_assembly
_atom_site_disorder_group
Cl1 Cl 0.65125(14) 0.0557(5) 0.1910(2) 0.0331(16) Uani 1 1 d . . .
Cl2 Cl 0.6150(2) 0.2500 0.6347(3) 0.0354(19) Uani 1 2 d S . .
C1 C 0.5833(7) 0.2500 0.3196(13) 0.024(3) Uani 1 2 d SU . .
C2 C 0.4460(8) 0.2500 0.2782(16) 0.030(4) Uani 1 2 d SDU . .
H1 H 0.437(7) 0.2500 0.106(3) 0.044 Uiso 1 2 d SD . .
H2 H 0.410(4) 0.1441(14) 0.346(6) 0.044 Uiso 1 1 d D . .
loop_
_atom_site_aniso_label
_atom_site_aniso_U_11
_atom_site_aniso_U_22
_atom_site_aniso_U_33
_atom_site_aniso_U_23
_atom_site_aniso_U_13
_atom_site_aniso_U_12
Cl1 0.0348(14) 0.032(5) 0.0325(10) -0.0076(12) 0.0015(6) 0.0073(9)
Cl2 0.0489(18) 0.039(6) 0.0188(11) 0.000 -0.0037(9) 0.000
C1 0.018(4) 0.030(11) 0.023(3) 0.000 0.002(3) 0.000
C2 0.025(5) 0.028(11) 0.036(4) 0.000 -0.006(3) 0.000
loop_
_atom_type_symbol
_atom_type_description
_atom_type_scat_dispersion_real
_atom_type_scat_dispersion_imag
_atom_type_scat_source
C C 0.0033 0.0016 'International Tables Vol C Tables 4.2.6.8 and 6.1.1.4'
H H 0.0000 0.0000 'International Tables Vol C Tables 4.2.6.8 and 6.1.1.4'
Cl Cl 0.1484 0.1585 'International Tables Vol C Tables 4.2.6.8 and 6.1.1.4'
loop_
_geom_angle_atom_site_label_1
_geom_angle_atom_site_label_2
_geom_angle_atom_site_label_3
_geom_angle
_geom_angle_site_symmetry_1
_geom_angle_site_symmetry_3
_geom_angle_publ_flag
C2 C1 Cl1 110.7(4) . . ?
Cl1 C1 Cl1 109.0(4) 7_565 . ?
C2 C1 Cl2 109.9(6) . . ?
Cl1 C1 Cl2 108.2(3) . . ?
C1 C2 H1 105(5) . . ?
C1 C2 H2 111(3) . . ?
H1 C2 H2 110(2) . . ?
loop_
_geom_bond_atom_site_label_1
_geom_bond_atom_site_label_2
_geom_bond_distance
_geom_bond_site_symmetry_2
_geom_bond_publ_flag
Cl1 C1 1.769(5) . ?
Cl2 C1 1.778(7) . ?
C1 C2 1.517(11) . ?
C2 H1 0.96(2) . ?
C2 H2 0.96(1) . ?
