#------------------------------------------------------------------------------
#$Date: 2017-10-14 22:27:35 +0300 (Sat, 14 Oct 2017) $
#$Revision: 202017 $
#$URL: file:///home/coder/svn-repositories/cod/cif/7/20/52/7205236.cif $
#------------------------------------------------------------------------------
#
# This file is available in the Crystallography Open Database (COD),
# http://www.crystallography.net/
#
# All data on this site have been placed in the public domain by the
# contributors.
#
data_7205236
loop_
_publ_author_name
'Fujihisa, Hiroshi'
'Honda, Kazumasa'
'Obata, Shigeaki'
'Yamawaki, Hiroshi'
'Takeya, Satoshi'
'Gotoh, Yoshito'
'Matsunaga, Takehiro'
_publ_section_title
;
 Crystal structure of anhydrous 5-aminotetrazole and its high-pressure
 behavior
;
_journal_issue                   1
_journal_name_full               CrystEngComm
_journal_page_first              99
_journal_paper_doi               10.1039/c0ce00278j
_journal_volume                  13
_journal_year                    2011
_chemical_formula_iupac          'C H3 N5'
_chemical_formula_moiety         'C H3 N5'
_chemical_formula_sum            'C H3 N5'
_chemical_formula_weight         85.07
_chemical_name_systematic        5-amino-1H-tetrazole
_space_group_IT_number           19
_symmetry_cell_setting           orthorhombic
_symmetry_Int_Tables_number      19
_symmetry_space_group_name_Hall  'P 2ac 2ab'
_symmetry_space_group_name_H-M   'P 21 21 21'
_audit_creation_date             2010-08-17
_audit_creation_method           'Materials Studio'
_audit_update_record
;
2010-08-19 # Formatted by publCIF
;
_cell_angle_alpha                90.0000
_cell_angle_beta                 90.0000
_cell_angle_gamma                90.0000
_cell_formula_units_Z            4
_cell_length_a                   4.9624
_cell_length_b                   3.2575
_cell_length_c                   17.5375
_cell_measurement_reflns_used    28
_cell_measurement_temperature    298
_cell_measurement_theta_max      40.0
_cell_measurement_theta_min      3.0
_cell_volume                     283.494
_diffrn_ambient_temperature      298
_diffrn_measurement_device_type  Rigaku
_diffrn_radiation_monochromator  graphite
_diffrn_radiation_source         'fine-focus rotating anode'
_diffrn_radiation_type           'Mo K\a'
_diffrn_radiation_wavelength     0.71070
_exptl_absorpt_correction_type   none
_exptl_crystal_colour            white
_exptl_crystal_description       powder
_exptl_crystal_F_000             176
_refine_ls_number_parameters     6
_refine_ls_wR_factor_ref         0.017
_cod_data_source_file            C0CE00278J.TXT
_cod_data_source_block           5-ATZ_4.8GPa
_cod_original_cell_volume        283.5
_cod_database_code               7205236
loop_
_symmetry_equiv_pos_as_xyz
x,y,z
-x+1/2,-y,z+1/2
-x,y+1/2,-z+1/2
x+1/2,-y+1/2,-z
loop_
_atom_site_label
_atom_site_type_symbol
_atom_site_fract_x
_atom_site_fract_y
_atom_site_fract_z
_atom_site_U_iso_or_equiv
_atom_site_adp_type
_atom_site_occupancy
N4 N 0.36232 0.63445 0.34347 0.05070 Uiso 1.00
N3 N 0.26590 0.47314 0.41012 0.05070 Uiso 1.00
N2 N 0.46349 0.39181 0.45746 0.05070 Uiso 1.00
N1 N 0.69466 0.50313 0.42116 0.05070 Uiso 1.00
C5 C 0.63338 0.65353 0.35141 0.05070 Uiso 1.00
N6 N 0.80902 0.79405 0.30016 0.05070 Uiso 1.00
H7 H 0.88553 0.44223 0.44430 0.05070 Uiso 1.00
H9 H 0.74117 0.91802 0.24887 0.05070 Uiso 1.00
H8 H 1.01327 0.80394 0.31257 0.05070 Uiso 1.00
loop_
_geom_bond_atom_site_label_1
_geom_bond_atom_site_label_2
_geom_bond_distance
_geom_bond_site_symmetry_2
N4 N3 1.368 .
N4 C5 1.354 .
N3 N2 1.312 .
N2 N1 1.361 .
N1 C5 1.352 .
N1 H7 1.049 .
C5 N6 1.333 .
N6 H9 1.042 .
N6 H8 1.037 .
loop_
_cod_related_entry_id
_cod_related_entry_database
_cod_related_entry_code
1 ChemSpider 19274
