#------------------------------------------------------------------------------
#$Date: 2016-03-26 17:29:18 +0200 (Sat, 26 Mar 2016) $
#$Revision: 180396 $
#$URL: svn://www.crystallography.net/cod/cif/7/20/65/7206540.cif $
#------------------------------------------------------------------------------
#
# This file is available in the Crystallography Open Database (COD),
# http://www.crystallography.net/
#
# All data on this site have been placed in the public domain by the
# contributors.
#
data_7206540
loop_
_publ_author_name
'Funnell, Nicholas P.'
'Marshall, William G.'
'Parsons, Simon'
_publ_section_title
;
 Alanine at 13.6 GPa and its pressure-induced amorphisation at 15 GPa
;
_journal_issue                   19
_journal_name_full               CrystEngComm
_journal_page_first              5841
_journal_paper_doi               10.1039/c1ce05487b
_journal_volume                  13
_journal_year                    2011
_chemical_absolute_configuration rm
_chemical_compound_source        'see text'
_chemical_formula_moiety         'C3 D7 N O2'
_chemical_formula_sum            'C3 D7 N O2'
_chemical_formula_weight         96.11
_chemical_name_systematic
;
L-alanine-d7
;
_space_group_IT_number           19
_symmetry_cell_setting           orthorhombic
_symmetry_Int_Tables_number      19
_symmetry_space_group_name_Hall  'P 2ac 2ab'
_symmetry_space_group_name_H-M   'P 21 21 21'
_cell_angle_alpha                90
_cell_angle_beta                 90
_cell_angle_gamma                90
_cell_formula_units_Z            4
_cell_length_a                   5.13617(71)
_cell_length_b                   11.1258(19)
_cell_length_c                   5.41457(76)
_cell_measurement_pressure       13.60(2)
_cell_measurement_temperature    340
_cell_volume                     309.41(8)
_diffrn_ambient_temperature      340
_diffrn_detector                 'ZnS scintillator'
_diffrn_detector_type            custom
_diffrn_measurement_device_type  'HiPr/PEARL, ISIS'
_diffrn_radiation_probe          neutron
_diffrn_radiation_type           Neutron
_diffrn_source                   'Pulsed neutron source'
_exptl_absorpt_correction_type   empirical
_exptl_absorpt_process_details
;
Calculated using custom ISIS software.
;
_exptl_crystal_density_diffrn    2.063
_pd_char_colour                  Colourless
_pd_char_particle_morphology     Block
_pd_instr_dist_spec/detc         600
_pd_instr_dist_src/spec          12600
_pd_instr_location               'ISIS, Rutherford Appleton Laboratory'
_pd_meas_2theta_fixed            90
_pd_meas_scan_method             Time-of-flight
_pd_proc_info_data_reduction
;
Custom ISIS software
;
_pd_proc_info_excluded_regions
;
?

;
_pd_proc_ls_background_function  'Chebychev polynomial'
_pd_proc_ls_pref_orient_corr
;
Modelling of preferred orientation was found to be unnecessary.
;
_pd_proc_ls_profile_function
;
Voigt function convoluted with a back-to-back double exponential.
;
_pd_proc_ls_prof_R_factor        5.343
_pd_proc_ls_prof_wR_factor       4.922
_pd_spec_mounting                'TiZr Capsule'
_pd_spec_mount_mode              transmission
_refine_ls_extinction_method     none
_refine_ls_goodness_of_fit_all   1.266
_refine_ls_hydrogen_treatment    refxyz
_refine_ls_matrix_type           sparse
_refine_ls_number_parameters     66
_refine_ls_number_restraints     0
_refine_ls_shift/su_max          <0.001
_refine_ls_weighting_scheme      sigma
_cod_data_source_file            c1ce05487b.txt
_cod_data_source_block           alanine_13_60_GPa
_cod_depositor_comments
;
The following automatic conversions were performed:

'_symmetry_cell_setting' value 'Orthorhombic' changed to
'orthorhombic' according to
/home/saulius/struct/CIF-dictionaries/cif_core.dic dictionary named
'cif_core.dic' version 2.4.1 from 2010-06-29.

Automatic conversion script
Id: cif_fix_values 1715 2011-07-08 13:25:40Z adriana 
;
_cod_original_cell_volume        309.411(80)
_cod_original_sg_symbol_H-M      P212121
_cod_database_code               7206540
#BEGIN Tags that were not found in dictionaries:
_pd_proc_ls_prof_r_expected      3.888
#END Tags that were not found in dictionaries
loop_
_symmetry_equiv_pos_site_id
_symmetry_equiv_pos_as_xyz
1 x,y,z
2 1/2-x,-y,1/2+z
3 1/2+x,1/2-y,-z
4 -x,1/2+y,1/2-z
loop_
_atom_site_label
_atom_site_type_symbol
_atom_site_symmetry_multiplicity
_atom_site_fract_x
_atom_site_fract_y
_atom_site_fract_z
_atom_site_occupancy
_atom_site_B_iso_or_equiv
N1 N 0 0.6537916 0.1379916 0.09267515 1 1.13(20)
O1 O 0 0.7531725 0.1016853 0.5534029 1 1.13(20)
O2 O 0 0.3842419 0.1868974 0.6602988 1 1.13(20)
C1 C 0 0.545998 0.1471266 0.5267844 1 1.13(20)
C2 C 0 0.4519415 0.1606481 0.2591086 1 1.13(20)
C3 C 0 0.2245156 0.08203456 0.1970383 1 1.13(20)
H1 D 0 0.714473 0.04772084 0.1076598 1 1.23(22)
H2 D 0 0.5898181 0.1540175 -0.08946949 1 1.23(22)
H3 D 0 0.8132999 0.1947022 0.1310286 1 1.23(22)
H4 D 0 0.3949726 0.2549606 0.2362207 1 1.23(22)
H5 D 0 0.07560337 0.09218419 0.3406063 1 1.23(22)
H6 D 0 0.1455441 0.1094728 0.01756829 1 1.23(22)
H7 D 0 0.2901121 -0.01165053 0.188648 1 1.23(22)
loop_
_geom_angle_atom_site_label_1
_geom_angle_atom_site_label_2
_geom_angle_atom_site_label_3
_geom_angle
_geom_angle_publ_flag
C2 N1 H2 110.00 yes
C2 N1 H3 110.00 yes
H1 N1 H2 109.00 yes
H1 N1 H3 109.00 yes
H2 N1 H3 109.00 yes
C2 N1 H1 110.00 yes
O1 C1 C2 116.01 yes
O1 C1 O2 135.43 yes
O2 C1 C2 108.56 yes
C1 C2 C3 113.59 no
N1 C2 C1 110.97 yes
N1 C2 C3 109.20 yes
N1 C2 H4 107.00 yes
C1 C2 H4 107.00 yes
C3 C2 H4 109.00 yes
C2 C3 H5 109.00 yes
C2 C3 H6 109.00 yes
C2 C3 H7 109.00 yes
H5 C3 H6 110.00 yes
H5 C3 H7 110.00 yes
H6 C3 H7 110.00 yes
loop_
_geom_bond_atom_site_label_1
_geom_bond_atom_site_label_2
_geom_bond_distance
_geom_bond_publ_flag
O1 C1 1.1869 yes
O2 C1 1.1869 yes
N1 C2 1.3966 yes
N1 H2 1.0500 yes
N1 H3 1.0500 yes
N1 H1 1.0500 yes
C1 C2 1.5351 no
C2 C3 1.4975 no
C2 H4 1.1000 yes
C3 H5 1.1000 yes
C3 H6 1.1000 yes
C3 H7 1.1000 yes
loop_
_geom_torsion_atom_site_label_1
_geom_torsion_atom_site_label_2
_geom_torsion_atom_site_label_3
_geom_torsion_atom_site_label_4
_geom_torsion
_geom_torsion_publ_flag
O1 C1 C2 N1 -11.94 no
O1 C1 C2 C3 111.54 no
O2 C1 C2 N1 168.06 no
O2 C1 C2 C3 -68.46 no
