#------------------------------------------------------------------------------
#$Date: 2016-03-26 17:31:29 +0200 (Sat, 26 Mar 2016) $
#$Revision: 180398 $
#$URL: svn://www.crystallography.net/cod/cif/7/20/67/7206749.cif $
#------------------------------------------------------------------------------
#
# This file is available in the Crystallography Open Database (COD),
# http://www.crystallography.net/
#
# All data on this site have been placed in the public domain by the
# contributors.
#
data_7206749
loop_
_publ_author_name
'Wang, Yong-Tao'
'Tang, Gui-Mei'
'He, Chao'
'Yan, Shi-Chen'
'Hao, Qi-Chao'
'Chen, Long'
'Long, Xi-Fa'
'Li, Tian-Duo'
'Ng, Seik Weng'
_publ_section_title
;
 Nonlinear optical and ferroelectric materials based on
 1-benzyl-2-phenyl-1H-benzimidazole salts
;
_journal_issue                   21
_journal_name_full               CrystEngComm
_journal_page_first              6365
_journal_paper_doi               10.1039/c1ce05860f
_journal_volume                  13
_journal_year                    2011
_chemical_formula_sum            'C20 H17 Cl N2 O4'
_chemical_formula_weight         384.81
_chemical_name_systematic
;
?
;
_space_group_IT_number           1
_symmetry_cell_setting           triclinic
_symmetry_space_group_name_Hall  'P 1'
_symmetry_space_group_name_H-M   'P 1'
_atom_sites_solution_hydrogens   geom
_atom_sites_solution_primary     direct
_atom_sites_solution_secondary   difmap
_audit_creation_method           SHELXL-97
_cell_angle_alpha                70.550(3)
_cell_angle_beta                 81.022(4)
_cell_angle_gamma                85.818(3)
_cell_formula_units_Z            1
_cell_length_a                   5.7108(17)
_cell_length_b                   9.011(3)
_cell_length_c                   9.451(3)
_cell_measurement_reflns_used    2060
_cell_measurement_temperature    296(2)
_cell_measurement_theta_max      25.98
_cell_measurement_theta_min      2.31
_cell_volume                     452.9(2)
_computing_cell_refinement       'Bruker SMART'
_computing_data_collection       'Bruker SMART'
_computing_data_reduction        'Bruker SAINT'
_computing_molecular_graphics    'Bruker SHELXTL'
_computing_publication_material  'Bruker SHELXTL'
_computing_structure_refinement  'SHELXL-97 (Sheldrick, 1997)'
_computing_structure_solution    'SHELXS-97 (Sheldrick, 1990)'
_diffrn_ambient_temperature      296(2)
_diffrn_measured_fraction_theta_full 0.979
_diffrn_measured_fraction_theta_max 0.979
_diffrn_measurement_device_type  'CCD area detector'
_diffrn_measurement_method       'phi and omega scans'
_diffrn_radiation_monochromator  graphite
_diffrn_radiation_source         'fine-focus sealed tube'
_diffrn_radiation_type           MoK\a
_diffrn_radiation_wavelength     0.71073
_diffrn_reflns_av_R_equivalents  0.0156
_diffrn_reflns_av_sigmaI/netI    0.0321
_diffrn_reflns_limit_h_max       7
_diffrn_reflns_limit_h_min       -7
_diffrn_reflns_limit_k_max       11
_diffrn_reflns_limit_k_min       -11
_diffrn_reflns_limit_l_max       12
_diffrn_reflns_limit_l_min       -12
_diffrn_reflns_number            3954
_diffrn_reflns_theta_full        27.57
_diffrn_reflns_theta_max         27.57
_diffrn_reflns_theta_min         2.31
_exptl_absorpt_coefficient_mu    0.240
_exptl_absorpt_correction_T_max  0.9764
_exptl_absorpt_correction_T_min  0.9314
_exptl_absorpt_correction_type   none
_exptl_crystal_colour            colourless
_exptl_crystal_density_diffrn    1.411
_exptl_crystal_density_meas      ?
_exptl_crystal_density_method    'not measured'
_exptl_crystal_description       needle
_exptl_crystal_F_000             200
_exptl_crystal_size_max          0.30
_exptl_crystal_size_mid          0.10
_exptl_crystal_size_min          0.10
_refine_diff_density_max         0.198
_refine_diff_density_min         -0.141
_refine_diff_density_rms         0.034
_refine_ls_abs_structure_details 'Flack H D (1983), Acta Cryst. A39, 876-881'
_refine_ls_abs_structure_Flack   0.03(5)
_refine_ls_extinction_method     none
_refine_ls_goodness_of_fit_ref   1.059
_refine_ls_hydrogen_treatment    mixed
_refine_ls_matrix_type           full
_refine_ls_number_parameters     248
_refine_ls_number_reflns         3193
_refine_ls_number_restraints     3
_refine_ls_restrained_S_all      1.059
_refine_ls_R_factor_all          0.0386
_refine_ls_R_factor_gt           0.0333
_refine_ls_shift/su_max          0.000
_refine_ls_shift/su_mean         0.000
_refine_ls_structure_factor_coef Fsqd
_refine_ls_weighting_details
'calc w=1/[\s^2^(Fo^2^)+(0.0480P)^2^+0.0298P] where P=(Fo^2^+2Fc^2^)/3'
_refine_ls_weighting_scheme      calc
_refine_ls_wR_factor_gt          0.0871
_refine_ls_wR_factor_ref         0.0908
_reflns_number_gt                2846
_reflns_number_total             3193
_reflns_threshold_expression     >2sigma(I)
_cod_data_source_file            c1ce05860f.txt
_cod_data_source_block           compound_1
_cod_depositor_comments
;
The following automatic conversions were performed:

'_symmetry_cell_setting' value 'Triclinic' changed to 'triclinic'
according to /home/saulius/struct/CIF-dictionaries/cif_core.dic
dictionary named 'cif_core.dic' version 2.4.1 from 2010-06-29.

Automatic conversion script
Id: cif_fix_values 1715 2011-07-08 13:25:40Z adriana 

The following automatic conversions were performed:

'_exptl_crystal_density_meas' value 'not measured' was changed to '?'
- the value is perceived as not measured.

Automatic conversion script
Id: cif_fix_values 3008 2015-01-20 13:52:24Z robertas 
;
_cod_original_sg_symbol_H-M      P1
_cod_database_code               7206749
loop_
_symmetry_equiv_pos_as_xyz
'x, y, z'
loop_
_atom_site_label
_atom_site_type_symbol
_atom_site_fract_x
_atom_site_fract_y
_atom_site_fract_z
_atom_site_U_iso_or_equiv
_atom_site_adp_type
_atom_site_occupancy
_atom_site_symmetry_multiplicity
_atom_site_calc_flag
_atom_site_refinement_flags
Cl1 Cl 0.61437(8) 0.53212(6) 0.79825(6) 0.05288(17) Uani 1 1 d .
O1 O 0.7010(4) 0.4193(3) 0.7270(3) 0.0737(6) Uani 1 1 d .
O2 O 0.3683(4) 0.5083(3) 0.8538(3) 0.0943(8) Uani 1 1 d .
O3 O 0.7358(4) 0.5081(2) 0.9276(2) 0.0737(6) Uani 1 1 d .
O4 O 0.6507(5) 0.6889(3) 0.6989(3) 0.0910(8) Uani 1 1 d .
N1 N 0.7725(4) 0.7891(2) -0.0125(2) 0.0445(4) Uani 1 1 d .
N2 N 0.7051(3) 0.9922(2) 0.0649(2) 0.0419(4) Uani 1 1 d .
C1 C 0.9061(4) 1.0254(3) -0.0442(3) 0.0433(5) Uani 1 1 d .
C2 C 1.0583(5) 1.1523(3) -0.0976(3) 0.0531(6) Uani 1 1 d .
H2A H 1.0305 1.2398 -0.0655 0.064 Uiso 1 1 calc R
C3 C 1.2511(5) 1.1410(3) -0.2001(3) 0.0596(7) Uani 1 1 d .
H3A H 1.3558 1.2239 -0.2394 0.072 Uiso 1 1 calc R
C4 C 1.2957(5) 1.0096(4) -0.2476(3) 0.0586(7) Uani 1 1 d .
H4A H 1.4318 1.0059 -0.3148 0.070 Uiso 1 1 calc R
C5 C 1.1440(5) 0.8850(3) -0.1977(3) 0.0524(6) Uani 1 1 d .
H5A H 1.1708 0.7989 -0.2319 0.063 Uiso 1 1 calc R
C6 C 0.9481(4) 0.8953(3) -0.0931(3) 0.0431(5) Uani 1 1 d .
C7 C 0.6318(4) 0.8472(3) 0.0838(3) 0.0425(5) Uani 1 1 d .
C8 C 0.4370(4) 0.7625(3) 0.1933(3) 0.0439(5) Uani 1 1 d .
C9 C 0.2955(4) 0.6681(3) 0.1537(3) 0.0494(6) Uani 1 1 d .
H9A H 0.3223 0.6614 0.0563 0.059 Uiso 1 1 calc R
C10 C 0.1156(5) 0.5842(3) 0.2575(3) 0.0584(7) Uani 1 1 d .
H10A H 0.0182 0.5239 0.2291 0.070 Uiso 1 1 calc R
C11 C 0.0796(6) 0.5895(4) 0.4029(4) 0.0663(8) Uani 1 1 d .
H11A H -0.0423 0.5330 0.4729 0.080 Uiso 1 1 calc R
C12 C 0.2257(6) 0.6792(4) 0.4451(3) 0.0666(8) Uani 1 1 d .
H12A H 0.2019 0.6818 0.5438 0.080 Uiso 1 1 calc R
C13 C 0.4036(5) 0.7635(3) 0.3431(3) 0.0567(7) Uani 1 1 d .
H13A H 0.5026 0.8217 0.3729 0.068 Uiso 1 1 calc R
C14 C 0.5753(5) 1.1103(3) 0.1257(3) 0.0497(6) Uani 1 1 d .
H14A H 0.4129 1.0773 0.1626 0.060 Uiso 1 1 calc R
H14B H 0.5715 1.2096 0.0438 0.060 Uiso 1 1 calc R
C15 C 0.6801(4) 1.1365(3) 0.2521(3) 0.0433(5) Uani 1 1 d .
C16 C 0.5763(5) 1.2542(3) 0.3073(3) 0.0527(6) Uani 1 1 d .
H16A H 0.4504 1.3145 0.2642 0.063 Uiso 1 1 calc R
C17 C 0.6580(6) 1.2827(4) 0.4255(4) 0.0610(7) Uani 1 1 d .
H17A H 0.5865 1.3612 0.4623 0.073 Uiso 1 1 calc R
C18 C 0.8445(6) 1.1952(4) 0.4886(3) 0.0626(8) Uani 1 1 d .
H18A H 0.9005 1.2147 0.5679 0.075 Uiso 1 1 calc R
C19 C 0.9487(6) 1.0790(4) 0.4349(3) 0.0643(7) Uani 1 1 d .
H19A H 1.0752 1.0197 0.4781 0.077 Uiso 1 1 calc R
C20 C 0.8664(5) 1.0493(3) 0.3160(3) 0.0573(7) Uani 1 1 d .
H20A H 0.9379 0.9702 0.2800 0.069 Uiso 1 1 calc R
H1 H 0.740(4) 0.697(3) -0.031(3) 0.047(7) Uiso 1 1 d .
loop_
_atom_site_aniso_label
_atom_site_aniso_U_11
_atom_site_aniso_U_22
_atom_site_aniso_U_33
_atom_site_aniso_U_23
_atom_site_aniso_U_13
_atom_site_aniso_U_12
Cl1 0.0643(4) 0.0443(3) 0.0537(3) -0.0220(3) -0.0046(3) -0.0041(3)
O1 0.0886(15) 0.0695(14) 0.0759(14) -0.0448(12) -0.0024(12) -0.0009(11)
O2 0.0607(14) 0.111(2) 0.126(2) -0.0635(19) 0.0068(13) -0.0120(12)
O3 0.1047(17) 0.0542(12) 0.0747(14) -0.0300(11) -0.0336(12) 0.0076(11)
O4 0.133(2) 0.0494(12) 0.0793(15) -0.0061(11) -0.0120(15) -0.0100(12)
N1 0.0534(12) 0.0406(11) 0.0437(10) -0.0179(9) -0.0092(9) -0.0029(9)
N2 0.0440(10) 0.0420(11) 0.0439(10) -0.0182(9) -0.0097(8) -0.0002(8)
C1 0.0465(13) 0.0422(13) 0.0438(12) -0.0146(10) -0.0119(10) -0.0039(10)
C2 0.0596(15) 0.0454(14) 0.0584(16) -0.0169(12) -0.0177(13) -0.0060(11)
C3 0.0598(17) 0.0587(18) 0.0564(15) -0.0115(13) -0.0051(13) -0.0184(13)
C4 0.0507(15) 0.0705(19) 0.0487(14) -0.0140(13) 0.0014(12) -0.0084(12)
C5 0.0580(15) 0.0554(15) 0.0449(13) -0.0193(12) -0.0045(11) 0.0002(12)
C6 0.0462(12) 0.0433(13) 0.0410(12) -0.0132(10) -0.0093(10) -0.0050(10)
C7 0.0472(13) 0.0425(13) 0.0420(12) -0.0174(11) -0.0109(10) -0.0008(10)
C8 0.0453(13) 0.0423(13) 0.0439(12) -0.0135(11) -0.0079(10) 0.0011(10)
C9 0.0488(14) 0.0537(15) 0.0468(13) -0.0171(12) -0.0064(11) -0.0053(11)
C10 0.0571(15) 0.0511(16) 0.0660(16) -0.0156(13) -0.0091(13) -0.0102(12)
C11 0.0622(17) 0.0659(19) 0.0629(18) -0.0171(15) 0.0115(14) -0.0138(14)
C12 0.078(2) 0.0690(19) 0.0501(14) -0.0216(14) 0.0079(14) -0.0086(15)
C13 0.0657(17) 0.0598(17) 0.0501(13) -0.0254(13) -0.0055(12) -0.0076(13)
C14 0.0561(14) 0.0437(13) 0.0549(14) -0.0223(12) -0.0131(12) 0.0050(11)
C15 0.0456(13) 0.0416(13) 0.0445(11) -0.0166(10) -0.0045(10) -0.0042(9)
C16 0.0583(15) 0.0456(14) 0.0574(15) -0.0220(12) -0.0062(12) 0.0007(11)
C17 0.0742(18) 0.0553(17) 0.0617(16) -0.0342(15) 0.0034(14) -0.0092(14)
C18 0.080(2) 0.0664(18) 0.0501(15) -0.0272(14) -0.0077(14) -0.0212(15)
C19 0.0721(18) 0.071(2) 0.0572(16) -0.0261(15) -0.0194(14) -0.0023(14)
C20 0.0615(16) 0.0591(17) 0.0609(15) -0.0305(14) -0.0165(13) 0.0062(13)
loop_
_atom_type_symbol
_atom_type_description
_atom_type_scat_dispersion_real
_atom_type_scat_dispersion_imag
_atom_type_scat_source
C C 0.0033 0.0016 'International Tables Vol C Tables 4.2.6.8 and 6.1.1.4'
H H 0.0000 0.0000 'International Tables Vol C Tables 4.2.6.8 and 6.1.1.4'
N N 0.0061 0.0033 'International Tables Vol C Tables 4.2.6.8 and 6.1.1.4'
O O 0.0106 0.0060 'International Tables Vol C Tables 4.2.6.8 and 6.1.1.4'
Cl Cl 0.1484 0.1585 'International Tables Vol C Tables 4.2.6.8 and 6.1.1.4'
loop_
_geom_angle_atom_site_label_1
_geom_angle_atom_site_label_2
_geom_angle_atom_site_label_3
_geom_angle
O1 Cl1 O4 112.11(14)
O1 Cl1 O2 109.52(14)
O4 Cl1 O2 110.16(18)
O1 Cl1 O3 108.89(14)
O4 Cl1 O3 108.78(15)
O2 Cl1 O3 107.24(15)
C7 N1 C6 109.65(18)
C7 N1 H1 123.2(15)
C6 N1 H1 126.5(16)
C7 N2 C1 108.89(18)
C7 N2 C14 126.6(2)
C1 N2 C14 123.59(19)
C6 C1 N2 106.27(18)
C6 C1 C2 121.6(2)
N2 C1 C2 132.0(2)
C3 C2 C1 116.2(2)
C3 C2 H2A 121.9
C1 C2 H2A 121.9
C2 C3 C4 122.3(2)
C2 C3 H3A 118.8
C4 C3 H3A 118.8
C5 C4 C3 121.8(2)
C5 C4 H4A 119.1
C3 C4 H4A 119.1
C4 C5 C6 116.2(2)
C4 C5 H5A 121.9
C6 C5 H5A 121.9
N1 C6 C1 106.59(18)
N1 C6 C5 131.5(2)
C1 C6 C5 121.8(2)
N1 C7 N2 108.5(2)
N1 C7 C8 124.4(2)
N2 C7 C8 127.0(2)
C9 C8 C13 119.0(2)
C9 C8 C7 120.0(2)
C13 C8 C7 120.8(2)
C10 C9 C8 120.4(2)
C10 C9 H9A 119.8
C8 C9 H9A 119.8
C11 C10 C9 120.2(3)
C11 C10 H10A 119.9
C9 C10 H10A 119.9
C10 C11 C12 119.8(3)
C10 C11 H11A 120.1
C12 C11 H11A 120.1
C13 C12 C11 120.6(3)
C13 C12 H12A 119.7
C11 C12 H12A 119.7
C12 C13 C8 119.9(2)
C12 C13 H13A 120.0
C8 C13 H13A 120.0
N2 C14 C15 114.2(2)
N2 C14 H14A 108.7
C15 C14 H14A 108.7
N2 C14 H14B 108.7
C15 C14 H14B 108.7
H14A C14 H14B 107.6
C20 C15 C16 119.1(2)
C20 C15 C14 123.7(2)
C16 C15 C14 117.2(2)
C17 C16 C15 120.7(3)
C17 C16 H16A 119.7
C15 C16 H16A 119.7
C18 C17 C16 119.9(2)
C18 C17 H17A 120.1
C16 C17 H17A 120.1
C17 C18 C19 120.0(2)
C17 C18 H18A 120.0
C19 C18 H18A 120.0
C18 C19 C20 120.4(3)
C18 C19 H19A 119.8
C20 C19 H19A 119.8
C15 C20 C19 119.9(2)
C15 C20 H20A 120.0
C19 C20 H20A 120.0
loop_
_geom_bond_atom_site_label_1
_geom_bond_atom_site_label_2
_geom_bond_distance
Cl1 O1 1.4180(18)
Cl1 O4 1.421(2)
Cl1 O2 1.426(2)
Cl1 O3 1.445(2)
N1 C7 1.333(3)
N1 C6 1.385(3)
N1 H1 0.94(3)
N2 C7 1.347(3)
N2 C1 1.395(3)
N2 C14 1.473(3)
C1 C6 1.389(3)
C1 C2 1.393(4)
C2 C3 1.370(4)
C2 H2A 0.9300
C3 C4 1.394(4)
C3 H3A 0.9300
C4 C5 1.377(4)
C4 H4A 0.9300
C5 C6 1.392(3)
C5 H5A 0.9300
C7 C8 1.459(3)
C8 C9 1.387(3)
C8 C13 1.402(3)
C9 C10 1.376(4)
C9 H9A 0.9300
C10 C11 1.373(4)
C10 H10A 0.9300
C11 C12 1.387(4)
C11 H11A 0.9300
C12 C13 1.363(4)
C12 H12A 0.9300
C13 H13A 0.9300
C14 C15 1.508(3)
C14 H14A 0.9700
C14 H14B 0.9700
C15 C20 1.370(4)
C15 C16 1.389(3)
C16 C17 1.379(4)
C16 H16A 0.9300
C17 C18 1.369(5)
C17 H17A 0.9300
C18 C19 1.370(4)
C18 H18A 0.9300
C19 C20 1.392(4)
C19 H19A 0.9300
C20 H20A 0.9300
