#------------------------------------------------------------------------------
#$Date: 2016-03-26 17:31:29 +0200 (Sat, 26 Mar 2016) $
#$Revision: 180398 $
#$URL: svn://www.crystallography.net/cod/cif/7/20/67/7206740.cif $
#------------------------------------------------------------------------------
#
# This file is available in the Crystallography Open Database (COD),
# http://www.crystallography.net/
#
# All data on this site have been placed in the public domain by the
# contributors.
#
data_7206740
loop_
_publ_author_name
'Marelli, Elena'
'Casati, Nicola'
'Gozzo, Fabia'
'Macchi, Piero'
'Simoncic, Petra'
'Sironi, Angelo'
_publ_section_title
;
 High pressure modification of organic NLO materials: large conformational
 re-arrangement of 4-aminobenzophenone
;
_journal_issue                   22
_journal_name_full               CrystEngComm
_journal_page_first              6845
_journal_paper_doi               10.1039/c1ce05742a
_journal_volume                  13
_journal_year                    2011
_chemical_formula_moiety         'C13 H11 N O'
_chemical_formula_sum            'C13 H11 N O'
_chemical_formula_weight         197.23
_chemical_name_common            4-amino-benzophenone
_chemical_name_systematic
;
?
;
_space_group_IT_number           4
_symmetry_space_group_name_Hall  'P 2yb'
_symmetry_space_group_name_H-M   'P 1 21 1'
_atom_sites_solution_hydrogens   geom
_atom_sites_solution_primary     direct
_atom_sites_solution_secondary   difmap
_audit_creation_method           SHELXL-97
_cell_angle_alpha                90.00
_cell_angle_beta                 92.72(3)
_cell_angle_gamma                90.00
_cell_formula_units_Z            2
_cell_length_a                   9.0721(17)
_cell_length_b                   3.4383(6)
_cell_length_c                   12.285(5)
_cell_measurement_temperature    295(2)
_cell_volume                     382.77(18)
_computing_structure_refinement  'SHELXL-97 (Sheldrick, 1997)'
_diffrn_ambient_pressure         6200000
_diffrn_ambient_temperature      295(2)
_diffrn_measured_fraction_theta_full 0.389
_diffrn_measured_fraction_theta_max 0.389
_diffrn_radiation_monochromator  graphite
_diffrn_radiation_source         'fine-focus sealed tube'
_diffrn_radiation_type           MoK\a
_diffrn_radiation_wavelength     0.71073
_diffrn_reflns_av_R_equivalents  0.0490
_diffrn_reflns_av_sigmaI/netI    0.0630
_diffrn_reflns_limit_h_max       10
_diffrn_reflns_limit_h_min       -10
_diffrn_reflns_limit_k_max       3
_diffrn_reflns_limit_k_min       -3
_diffrn_reflns_limit_l_max       6
_diffrn_reflns_limit_l_min       -6
_diffrn_reflns_number            1126
_diffrn_reflns_theta_full        23.24
_diffrn_reflns_theta_max         23.24
_diffrn_reflns_theta_min         4.50
_exptl_absorpt_coefficient_mu    0.109
_exptl_absorpt_correction_T_max  1
_exptl_absorpt_correction_T_min  0.8
_exptl_absorpt_correction_type   empirical
_exptl_absorpt_process_details
;
DAC absorption corrected with Absorb 6.0 (gaussian)
(R.J. Angel, J. Appl. Cryst. 2004, 37(3), 486)
Crystal absorption corrected with SADABS (empirical)
Area-Detector Absorption Correction,
(Siemens Industrial Automation, Inc.: Madison, WI, 1996)
;
_exptl_crystal_colour            colourless
_exptl_crystal_density_diffrn    1.711
_exptl_crystal_density_method    'not measured'
_exptl_crystal_description       prism
_exptl_crystal_F_000             208
_exptl_crystal_preparation       'mounted in a diamond-anvil cell '
_exptl_crystal_size_max          0.2
_exptl_crystal_size_mid          0.09
_exptl_crystal_size_min          0.06
_refine_diff_density_max         0.144
_refine_diff_density_min         -0.163
_refine_diff_density_rms         0.041
_refine_ls_extinction_method     none
_refine_ls_goodness_of_fit_ref   1.078
_refine_ls_hydrogen_treatment    constr
_refine_ls_matrix_type           full
_refine_ls_number_parameters     37
_refine_ls_number_reflns         447
_refine_ls_number_restraints     1
_refine_ls_restrained_S_all      1.076
_refine_ls_R_factor_all          0.0729
_refine_ls_R_factor_gt           0.0494
_refine_ls_shift/su_max          0.000
_refine_ls_shift/su_mean         0.000
_refine_ls_structure_factor_coef Fsqd
_refine_ls_weighting_details
'calc w=1/[\s^2^(Fo^2^)+(0.0623P)^2^+0.0655P] where P=(Fo^2^+2Fc^2^)/3'
_refine_ls_weighting_scheme      calc
_refine_ls_wR_factor_gt          0.1133
_refine_ls_wR_factor_ref         0.1258
_reflns_number_gt                332
_reflns_number_total             447
_reflns_threshold_expression     >2sigma(I)
_cod_data_source_file            c1ce05742a.txt
_cod_data_source_block           4abp34
_cod_original_sg_symbol_H-M      'P 21'
_cod_database_code               7206740
loop_
_symmetry_equiv_pos_as_xyz
'x, y, z'
'-x, y+1/2, -z'
loop_
_atom_site_label
_atom_site_type_symbol
_atom_site_fract_x
_atom_site_fract_y
_atom_site_fract_z
_atom_site_U_iso_or_equiv
_atom_site_adp_type
_atom_site_occupancy
_atom_site_symmetry_multiplicity
_atom_site_calc_flag
_atom_site_refinement_flags
C1 C 0.4024(7) 0.2075(17) 0.2951(12) 0.031(2) Uiso 1 1 d .
N1 N 1.0084(5) 0.3822(15) 0.3897(10) 0.0362(18) Uiso 1 1 d .
H1A H 1.0749 0.3057 0.3469 0.054 Uiso 1 1 calc R
H1B H 1.0337 0.4979 0.4498 0.054 Uiso 1 1 calc R
O1 O 0.3209(5) 0.3301(13) 0.3656(8) 0.0335(14) Uiso 1 1 d .
C11 C 0.3276(4) 0.0504(10) 0.1931(7) 0.026(2) Uiso 1 1 d G
C12 C 0.1944(5) -0.1353(12) 0.2095(6) 0.029(2) Uiso 1 1 d G
H12 H 0.1619 -0.1645 0.2797 0.034 Uiso 1 1 calc R
C13 C 0.1097(4) -0.2773(13) 0.1210(7) 0.0236(19) Uiso 1 1 d G
H13 H 0.0206 -0.4015 0.1319 0.028 Uiso 1 1 calc R
C14 C 0.1583(5) -0.2336(13) 0.0160(7) 0.027(2) Uiso 1 1 d G
H14 H 0.1017 -0.3285 -0.0432 0.033 Uiso 1 1 calc R
C15 C 0.2916(5) -0.0479(13) -0.0003(7) 0.033(2) Uiso 1 1 d G
H15 H 0.3240 -0.0186 -0.0705 0.040 Uiso 1 1 calc R
C16 C 0.3762(3) 0.0941(11) 0.0882(7) 0.028(2) Uiso 1 1 d G
H16 H 0.4654 0.2183 0.0773 0.033 Uiso 1 1 calc R
C21 C 0.5615(3) 0.2353(11) 0.3123(6) 0.0225(19) Uiso 1 1 d G
C22 C 0.6635(5) 0.0922(12) 0.2415(6) 0.033(2) Uiso 1 1 d G
H22 H 0.6313 -0.0317 0.1774 0.040 Uiso 1 1 calc R
C23 C 0.8138(4) 0.1343(15) 0.2664(6) 0.0292(19) Uiso 1 1 d G
H23 H 0.8820 0.0386 0.2190 0.035 Uiso 1 1 calc R
C24 C 0.8620(3) 0.3195(16) 0.3622(6) 0.0286(19) Uiso 1 1 d G
C25 C 0.7600(5) 0.4626(15) 0.4330(6) 0.031(2) Uiso 1 1 d G
H25 H 0.7922 0.5864 0.4971 0.037 Uiso 1 1 calc R
C26 C 0.6098(4) 0.4205(13) 0.4081(6) 0.028(2) Uiso 1 1 d G
H26 H 0.5415 0.5162 0.4555 0.034 Uiso 1 1 calc R
loop_
_atom_type_symbol
_atom_type_description
_atom_type_scat_dispersion_real
_atom_type_scat_dispersion_imag
_atom_type_scat_source
C C 0.0033 0.0016 'International Tables Vol C Tables 4.2.6.8 and 6.1.1.4'
H H 0.0000 0.0000 'International Tables Vol C Tables 4.2.6.8 and 6.1.1.4'
N N 0.0061 0.0033 'International Tables Vol C Tables 4.2.6.8 and 6.1.1.4'
O O 0.0106 0.0060 'International Tables Vol C Tables 4.2.6.8 and 6.1.1.4'
loop_
_geom_angle_atom_site_label_1
_geom_angle_atom_site_label_2
_geom_angle_atom_site_label_3
_geom_angle
O1 C1 C21 119.9(10)
O1 C1 C11 116.5(6)
C21 C1 C11 123.6(8)
C12 C11 C16 120.0
C12 C11 C1 114.0(5)
C16 C11 C1 125.9(5)
C11 C12 C13 120.0
C14 C13 C12 120.0
C13 C14 C15 120.0
C16 C15 C14 120.0
C15 C16 C11 120.0
C22 C21 C26 120.0
C22 C21 C1 124.9(6)
C26 C21 C1 115.1(6)
C23 C22 C21 120.0
C22 C23 C24 120.0
N1 C24 C23 122.8(6)
N1 C24 C25 117.1(6)
C23 C24 C25 120.0
C26 C25 C24 120.0
C25 C26 C21 120.0
loop_
_geom_bond_atom_site_label_1
_geom_bond_atom_site_label_2
_geom_bond_distance
C1 O1 1.240(12)
C1 C21 1.452(7)
C1 C11 1.497(13)
N1 C24 1.372(7)
C11 C12 1.3900
C11 C16 1.3900
C12 C13 1.3900
C13 C14 1.3900
C14 C15 1.3900
C15 C16 1.3900
C21 C22 1.3900
C21 C26 1.3900
C22 C23 1.3900
C23 C24 1.3900
C24 C25 1.3900
C25 C26 1.3900
