#------------------------------------------------------------------------------
#$Date: 2016-03-26 17:31:29 +0200 (Sat, 26 Mar 2016) $
#$Revision: 180398 $
#$URL: svn://www.crystallography.net/cod/cif/7/20/67/7206736.cif $
#------------------------------------------------------------------------------
#
# This file is available in the Crystallography Open Database (COD),
# http://www.crystallography.net/
#
# All data on this site have been placed in the public domain by the
# contributors.
#
data_7206736
loop_
_publ_author_name
'Marelli, Elena'
'Casati, Nicola'
'Gozzo, Fabia'
'Macchi, Piero'
'Simoncic, Petra'
'Sironi, Angelo'
_publ_section_title
;
 High pressure modification of organic NLO materials: large conformational
 re-arrangement of 4-aminobenzophenone
;
_journal_issue                   22
_journal_name_full               CrystEngComm
_journal_page_first              6845
_journal_paper_doi               10.1039/c1ce05742a
_journal_volume                  13
_journal_year                    2011
_chemical_formula_moiety         'C13 H11 N O'
_chemical_formula_sum            'C13 H11 N O'
_chemical_formula_weight         197.23
_chemical_name_common            4-amino-benzophenone
_chemical_name_systematic
;
?
;
_space_group_IT_number           4
_symmetry_space_group_name_Hall  'P 2yb'
_symmetry_space_group_name_H-M   'P 1 21 1'
_atom_sites_solution_hydrogens   geom
_atom_sites_solution_primary     direct
_atom_sites_solution_secondary   difmap
_audit_creation_method           SHELXL-97
_cell_angle_alpha                90.00
_cell_angle_beta                 98.20(3)
_cell_angle_gamma                90.00
_cell_formula_units_Z            2
_cell_length_a                   8.1397(14)
_cell_length_b                   5.2541(9)
_cell_length_c                   11.853(4)
_cell_measurement_temperature    295(2)
_cell_volume                     501.7(2)
_computing_structure_refinement  'SHELXL-97 (Sheldrick, 1997)'
_diffrn_ambient_pressure         600000
_diffrn_ambient_temperature      295(2)
_diffrn_measured_fraction_theta_full 0.316
_diffrn_measured_fraction_theta_max 0.316
_diffrn_radiation_monochromator  graphite
_diffrn_radiation_source         'fine-focus sealed tube'
_diffrn_radiation_type           MoK\a
_diffrn_radiation_wavelength     0.71073
_diffrn_reflns_av_R_equivalents  0.1185
_diffrn_reflns_av_sigmaI/netI    0.1597
_diffrn_reflns_limit_h_max       9
_diffrn_reflns_limit_h_min       -9
_diffrn_reflns_limit_k_max       5
_diffrn_reflns_limit_k_min       -5
_diffrn_reflns_limit_l_max       5
_diffrn_reflns_limit_l_min       -5
_diffrn_reflns_number            1185
_diffrn_reflns_theta_full        23.23
_diffrn_reflns_theta_max         23.23
_diffrn_reflns_theta_min         4.63
_exptl_absorpt_coefficient_mu    0.083
_exptl_absorpt_correction_T_max  1
_exptl_absorpt_correction_T_min  0.8
_exptl_absorpt_correction_type   empirical
_exptl_absorpt_process_details
;
DAC absorption corrected with Absorb 6.0 (gaussian)
(R.J. Angel, J. Appl. Cryst. 2004, 37(3), 486)
Crystal absorption corrected with SADABS (empirical)
Area-Detector Absorption Correction,
(Siemens Industrial Automation, Inc.: Madison, WI, 1996)
;
_exptl_crystal_colour            colourless
_exptl_crystal_density_diffrn    1.305
_exptl_crystal_density_method    'not measured'
_exptl_crystal_description       prism
_exptl_crystal_F_000             208
_exptl_crystal_preparation       'mounted in a diamond-anvil cell '
_exptl_crystal_size_max          0.18
_exptl_crystal_size_mid          0.12
_exptl_crystal_size_min          0.05
_refine_diff_density_max         0.193
_refine_diff_density_min         -0.209
_refine_diff_density_rms         0.055
_refine_ls_extinction_method     none
_refine_ls_goodness_of_fit_ref   1.092
_refine_ls_hydrogen_treatment    constr
_refine_ls_matrix_type           full
_refine_ls_number_parameters     37
_refine_ls_number_reflns         453
_refine_ls_number_restraints     1
_refine_ls_restrained_S_all      1.090
_refine_ls_R_factor_all          0.2030
_refine_ls_R_factor_gt           0.1185
_refine_ls_shift/su_max          0.000
_refine_ls_shift/su_mean         0.000
_refine_ls_structure_factor_coef Fsqd
_refine_ls_weighting_details
'calc w=1/[\s^2^(Fo^2^)+(0.1548P)^2^+1.1496P] where P=(Fo^2^+2Fc^2^)/3'
_refine_ls_weighting_scheme      calc
_refine_ls_wR_factor_gt          0.2773
_refine_ls_wR_factor_ref         0.3446
_reflns_number_gt                228
_reflns_number_total             453
_reflns_threshold_expression     >2sigma(I)
_cod_data_source_file            c1ce05742a.txt
_cod_data_source_block           4abp11
_cod_original_sg_symbol_H-M      'P 21'
_cod_database_code               7206736
loop_
_symmetry_equiv_pos_as_xyz
'x, y, z'
'-x, y+1/2, -z'
loop_
_atom_site_label
_atom_site_type_symbol
_atom_site_fract_x
_atom_site_fract_y
_atom_site_fract_z
_atom_site_U_iso_or_equiv
_atom_site_adp_type
_atom_site_occupancy
_atom_site_symmetry_multiplicity
_atom_site_calc_flag
_atom_site_refinement_flags
C1 C 0.304(3) 0.199(4) 0.260(5) 0.051(6) Uiso 1 1 d .
N1 N 0.9542(18) 0.562(4) 0.429(4) 0.062(7) Uiso 1 1 d .
H1A H 1.0384 0.4805 0.4110 0.074 Uiso 1 1 calc R
H1B H 0.9689 0.6956 0.4711 0.074 Uiso 1 1 calc R
O1 O 0.1888(16) 0.255(2) 0.328(3) 0.056(5) Uiso 1 1 d .
C11 C 0.2671(16) 0.024(2) 0.174(2) 0.042(6) Uiso 1 1 d G
C12 C 0.1647(15) -0.186(3) 0.181(2) 0.032(5) Uiso 1 1 d G
H12 H 0.1202 -0.2175 0.2476 0.038 Uiso 1 1 calc R
C13 C 0.1289(14) -0.348(3) 0.088(2) 0.046(6) Uiso 1 1 d G
H13 H 0.0604 -0.4886 0.0927 0.055 Uiso 1 1 calc R
C14 C 0.196(2) -0.301(4) -0.012(2) 0.086(10) Uiso 1 1 d G
H14 H 0.1715 -0.4100 -0.0736 0.103 Uiso 1 1 calc R
C15 C 0.2979(19) -0.092(4) -0.018(2) 0.070(8) Uiso 1 1 d G
H15 H 0.3425 -0.0604 -0.0850 0.085 Uiso 1 1 calc R
C16 C 0.3337(14) 0.071(3) 0.074(2) 0.065(7) Uiso 1 1 d G
H16 H 0.4022 0.2108 0.0699 0.078 Uiso 1 1 calc R
C21 C 0.4753(10) 0.293(3) 0.314(3) 0.067(8) Uiso 1 1 d G
C22 C 0.6133(14) 0.167(2) 0.284(3) 0.033(6) Uiso 1 1 d G
H22 H 0.5996 0.0221 0.2388 0.040 Uiso 1 1 calc R
C23 C 0.7718(11) 0.258(3) 0.322(3) 0.035(5) Uiso 1 1 d G
H23 H 0.8641 0.1744 0.3025 0.042 Uiso 1 1 calc R
C24 C 0.7922(11) 0.475(3) 0.390(3) 0.030(6) Uiso 1 1 d G
C25 C 0.6542(15) 0.601(3) 0.419(2) 0.053(7) Uiso 1 1 d G
H25 H 0.6679 0.7461 0.4648 0.064 Uiso 1 1 calc R
C26 C 0.4957(12) 0.510(3) 0.381(3) 0.039(5) Uiso 1 1 d G
H26 H 0.4034 0.5938 0.4010 0.047 Uiso 1 1 calc R
loop_
_atom_type_symbol
_atom_type_description
_atom_type_scat_dispersion_real
_atom_type_scat_dispersion_imag
_atom_type_scat_source
C C 0.0033 0.0016 'International Tables Vol C Tables 4.2.6.8 and 6.1.1.4'
H H 0.0000 0.0000 'International Tables Vol C Tables 4.2.6.8 and 6.1.1.4'
N N 0.0061 0.0033 'International Tables Vol C Tables 4.2.6.8 and 6.1.1.4'
O O 0.0106 0.0060 'International Tables Vol C Tables 4.2.6.8 and 6.1.1.4'
loop_
_geom_angle_atom_site_label_1
_geom_angle_atom_site_label_2
_geom_angle_atom_site_label_3
_geom_angle
O1 C1 C11 119.3(17)
O1 C1 C21 110(3)
C11 C1 C21 128(2)
C1 C11 C12 123.9(18)
C1 C11 C16 116.0(18)
C12 C11 C16 120.0
C11 C12 C13 120.0
C14 C13 C12 120.0
C13 C14 C15 120.0
C16 C15 C14 120.0
C15 C16 C11 120.0
C22 C21 C26 120.0
C22 C21 C1 117.6(15)
C26 C21 C1 122.1(14)
C21 C22 C23 120.0
C24 C23 C22 120.0
C23 C24 C25 120.0
C23 C24 N1 118.9(13)
C25 C24 N1 121.1(13)
C26 C25 C24 120.0
C25 C26 C21 120.0
loop_
_geom_bond_atom_site_label_1
_geom_bond_atom_site_label_2
_geom_bond_distance
C1 O1 1.36(4)
C1 C11 1.37(5)
C1 C21 1.53(3)
N1 C24 1.41(2)
C11 C12 1.3900
C11 C16 1.3900
C12 C13 1.3900
C13 C14 1.3900
C14 C15 1.3900
C15 C16 1.3900
C21 C22 1.3900
C21 C26 1.3900
C22 C23 1.3900
C23 C24 1.3900
C24 C25 1.3900
C25 C26 1.3900
