#------------------------------------------------------------------------------
#$Date: 2016-03-26 17:29:18 +0200 (Sat, 26 Mar 2016) $
#$Revision: 180396 $
#$URL: svn://www.crystallography.net/cod/cif/7/20/65/7206519.cif $
#------------------------------------------------------------------------------
#
# This file is available in the Crystallography Open Database (COD),
# http://www.crystallography.net/
#
# All data on this site have been placed in the public domain by the
# contributors.
#
data_7206519
loop_
_publ_author_name
'Lemmerer, Andreas'
'Esterhuysen, Catharine'
_publ_section_title
;
 OHphenol&#x22EF;OHalcohol hydrogen-bonding as the preferred
 hydrogen-bonded interaction in the crystal structures of three isomers
 of methylolphenol: analysis of hydrogen-bonding interactions in phenol
 and alcohol containing molecules
;
_journal_issue                   19
_journal_name_full               CrystEngComm
_journal_page_first              5773
_journal_paper_doi               10.1039/c1ce05442b
_journal_volume                  13
_journal_year                    2011
_chemical_absolute_configuration unk
_chemical_formula_moiety         'C7 H8 O2'
_chemical_formula_sum            'C7 H8 O2'
_chemical_formula_weight         124.13
_chemical_name_systematic
;
4-hydroxybenzylalcohol
;
_space_group_IT_number           33
_symmetry_cell_setting           orthorhombic
_symmetry_space_group_name_Hall  'P 2c -2n'
_symmetry_space_group_name_H-M   'P n a 21'
_atom_sites_solution_hydrogens   geom
_atom_sites_solution_primary     direct
_atom_sites_solution_secondary   difmap
_audit_conform_dict_location     ftp://ftp.iucr.org/pub/cif_core.dic
_audit_conform_dict_name         cif_core.dic
_audit_conform_dict_version      2.3
_audit_creation_date             2009-03-24T16:32:09-00:00
_audit_creation_method           'WinGX routine CIF_UPDATE'
_cell_angle_alpha                90
_cell_angle_beta                 90
_cell_angle_gamma                90
_cell_formula_units_Z            4
_cell_length_a                   9.448(7)
_cell_length_b                   10.894(8)
_cell_length_c                   5.873(4)
_cell_measurement_reflns_used    1057
_cell_measurement_temperature    293(2)
_cell_measurement_theta_max      24.15
_cell_measurement_theta_min      3.74
_cell_volume                     604.5(8)
_computing_cell_refinement       'Bruker SAINT+, Bruker (1999)'
_computing_data_collection       'Bruker SMART, Bruker (1998)'
_computing_data_reduction        'Bruker SAINT+'
_computing_molecular_graphics
;
Ortep-3 for Windows (Farrugia, 1997) and DIAMOND (Brandenburg, 1999)
;
_computing_publication_material
;
WinGX publication routines (Farrugia, 1999) and PLATON (Spek, 2003)
;
_computing_structure_refinement  'SHELXL-97 (Sheldrick, 2008)'
_computing_structure_solution    'SHELXS-97 (Sheldrick, 2008)'
_diffrn_ambient_temperature      293(2)
_diffrn_measured_fraction_theta_full 0.975
_diffrn_measured_fraction_theta_max 0.975
_diffrn_measurement_device_type  'Bruker SMART 1K CCD area detector'
_diffrn_measurement_method       '\w scans'
_diffrn_radiation_monochromator  graphite
_diffrn_radiation_type           MoK\a
_diffrn_radiation_wavelength     0.71073
_diffrn_reflns_av_R_equivalents  0.0461
_diffrn_reflns_av_unetI/netI     0.037
_diffrn_reflns_limit_h_max       12
_diffrn_reflns_limit_h_min       -12
_diffrn_reflns_limit_k_max       14
_diffrn_reflns_limit_k_min       -14
_diffrn_reflns_limit_l_max       7
_diffrn_reflns_limit_l_min       -7
_diffrn_reflns_number            4228
_diffrn_reflns_theta_full        27.99
_diffrn_reflns_theta_max         27.99
_diffrn_reflns_theta_min         2.85
_diffrn_standards_number         0
_exptl_absorpt_coefficient_mu    0.1
_exptl_absorpt_correction_type   none
_exptl_crystal_colour            colourless
_exptl_crystal_density_diffrn    1.364
_exptl_crystal_density_meas      0
_exptl_crystal_density_method    'not measured'
_exptl_crystal_description       needle
_exptl_crystal_F_000             264
_exptl_crystal_size_max          0.43
_exptl_crystal_size_mid          0.2
_exptl_crystal_size_min          0.15
_refine_diff_density_max         0.22
_refine_diff_density_min         -0.184
_refine_diff_density_rms         0.052
_refine_ls_abs_structure_details 'Flack H D (1983), Acta Cryst. A39, 876-881'
_refine_ls_abs_structure_Flack   10(10)
_refine_ls_extinction_method     none
_refine_ls_goodness_of_fit_ref   1.048
_refine_ls_hydrogen_treatment    mixed
_refine_ls_matrix_type           full
_refine_ls_number_parameters     88
_refine_ls_number_reflns         780
_refine_ls_number_restraints     1
_refine_ls_restrained_S_all      1.047
_refine_ls_R_factor_all          0.062
_refine_ls_R_factor_gt           0.0443
_refine_ls_shift/su_max          0
_refine_ls_shift/su_mean         0
_refine_ls_structure_factor_coef Fsqd
_refine_ls_weighting_details
'calc w=1/[\s^2^(Fo^2^)+(0.0906P)^2^] where P=(Fo^2^+2Fc^2^)/3'
_refine_ls_weighting_scheme      calc
_refine_ls_wR_factor_gt          0.118
_refine_ls_wR_factor_ref         0.13
_reflns_number_gt                616
_reflns_number_total             780
_reflns_threshold_expression     >2sigma(I)
_cod_data_source_file            c1ce05442b.txt
_cod_data_source_block           3
_cod_depositor_comments
;
The following automatic conversions were performed:

'_symmetry_cell_setting' value 'Orthorhombic' changed to
'orthorhombic' according to
/home/saulius/struct/CIF-dictionaries/cif_core.dic dictionary named
'cif_core.dic' version 2.4.1 from 2010-06-29.

Automatic conversion script
Id: cif_fix_values 1715 2011-07-08 13:25:40Z adriana 
;
_cod_original_sg_symbol_H-M      Pna2(1)
_cod_database_code               7206519
loop_
_symmetry_equiv_pos_as_xyz
'x, y, z'
'-x, -y, z+1/2'
'-x+1/2, y+1/2, z+1/2'
'x+1/2, -y+1/2, z'
loop_
_atom_site_label
_atom_site_type_symbol
_atom_site_fract_x
_atom_site_fract_y
_atom_site_fract_z
_atom_site_U_iso_or_equiv
_atom_site_adp_type
_atom_site_occupancy
_atom_site_symmetry_multiplicity
_atom_site_calc_flag
_atom_site_refinement_flags
C1 C 0.4477(3) 0.1783(2) 0.5818(5) 0.0327(6) Uani 1 1 d .
C2 C 0.4195(3) 0.2294(3) 0.3724(5) 0.0380(7) Uani 1 1 d .
H2A H 0.4669 0.3005 0.3289 0.046 Uiso 1 1 calc R
C3 C 0.3234(3) 0.1778(3) 0.2271(6) 0.0380(7) Uani 1 1 d .
H3 H 0.3058 0.2137 0.0862 0.046 Uiso 1 1 calc R
C4 C 0.2528(3) 0.0726(2) 0.2899(5) 0.0319(6) Uani 1 1 d .
C5 C 0.2783(3) 0.0209(2) 0.4983(5) 0.0332(6) Uani 1 1 d .
H5 H 0.2295 -0.0494 0.5425 0.04 Uiso 1 1 calc R
C6 C 0.3757(3) 0.0727(2) 0.6415(5) 0.0343(6) Uani 1 1 d .
H6 H 0.3937 0.0362 0.7817 0.041 Uiso 1 1 calc R
C7 C 0.5514(3) 0.2363(2) 0.7399(6) 0.0403(7) Uani 1 1 d .
H7A H 0.5696 0.182 0.8674 0.048 Uiso 1 1 calc R
H7B H 0.6401 0.2507 0.6611 0.048 Uiso 1 1 calc R
O1 O 0.4962(2) 0.34847(18) 0.8194(4) 0.0426(6) Uani 1 1 d .
H1 H 0.560(4) 0.389(3) 0.869(10) 0.064 Uiso 1 1 d .
O2 O 0.1593(2) 0.02516(19) 0.1383(4) 0.0439(6) Uani 1 1 d .
H2 H 0.115(4) -0.034(3) 0.170(9) 0.066 Uiso 1 1 d .
loop_
_atom_site_aniso_label
_atom_site_aniso_U_11
_atom_site_aniso_U_22
_atom_site_aniso_U_33
_atom_site_aniso_U_23
_atom_site_aniso_U_13
_atom_site_aniso_U_12
C1 0.0335(12) 0.0314(13) 0.0330(15) -0.0031(11) -0.0017(12) 0.0057(11)
C2 0.0415(14) 0.0355(14) 0.0371(16) 0.0033(11) 0.0007(14) -0.0084(12)
C3 0.0471(15) 0.0368(14) 0.0300(14) 0.0056(12) -0.0016(14) -0.0025(12)
C4 0.0359(13) 0.0291(12) 0.0307(15) -0.0015(11) -0.0011(12) 0.0006(9)
C5 0.0395(14) 0.0276(12) 0.0326(16) 0.0021(10) 0.0015(13) -0.0014(11)
C6 0.0419(15) 0.0308(12) 0.0301(15) 0.0020(12) -0.0003(13) 0.0062(11)
C7 0.0382(14) 0.0351(13) 0.0475(19) -0.0015(14) -0.0100(15) 0.0055(12)
O1 0.0462(11) 0.0368(10) 0.0447(14) -0.0074(10) -0.0135(10) 0.0057(8)
O2 0.0549(12) 0.0408(12) 0.0359(12) 0.0047(10) -0.0098(11) -0.0140(9)
loop_
_atom_type_symbol
_atom_type_description
_atom_type_scat_dispersion_real
_atom_type_scat_dispersion_imag
_atom_type_scat_source
C C 0.0033 0 'International Tables Vol C Tables 4.2.6.8 and 6.1.1.4'
H H 0 0 'International Tables Vol C Tables 4.2.6.8 and 6.1.1.4'
O O 0.0106 0 'International Tables Vol C Tables 4.2.6.8 and 6.1.1.4'
loop_
_geom_angle_atom_site_label_1
_geom_angle_atom_site_label_2
_geom_angle_atom_site_label_3
_geom_angle
C2 C1 C6 117.9(3)
C2 C1 C7 120.8(3)
C6 C1 C7 121.2(3)
C3 C2 C1 121.4(3)
C3 C2 H2A 119.3
C1 C2 H2A 119.3
C2 C3 C4 119.8(3)
C2 C3 H3 120.1
C4 C3 H3 120.1
O2 C4 C5 123.0(2)
O2 C4 C3 117.2(3)
C5 C4 C3 119.8(3)
C6 C5 C4 119.9(3)
C6 C5 H5 120.1
C4 C5 H5 120.1
C5 C6 C1 121.2(3)
C5 C6 H6 119.4
C1 C6 H6 119.4
O1 C7 C1 109.4(2)
O1 C7 H7A 109.8
C1 C7 H7A 109.8
O1 C7 H7B 109.8
C1 C7 H7B 109.8
H7A C7 H7B 108.3
C7 O1 H1 109(3)
C4 O2 H2 120(4)
loop_
_geom_bond_atom_site_label_1
_geom_bond_atom_site_label_2
_geom_bond_distance
C1 C2 1.376(4)
C1 C6 1.382(4)
C1 C7 1.490(4)
C2 C3 1.367(4)
C2 H2A 0.93
C3 C4 1.376(4)
C3 H3 0.93
C4 O2 1.356(3)
C4 C5 1.370(4)
C5 C6 1.369(4)
C5 H5 0.93
C6 H6 0.93
C7 O1 1.408(4)
C7 H7A 0.97
C7 H7B 0.97
O1 H1 0.80(4)
O2 H2 0.79(3)
loop_
_geom_hbond_atom_site_label_D
_geom_hbond_atom_site_label_H
_geom_hbond_atom_site_label_A
_geom_hbond_distance_DH
_geom_hbond_distance_HA
_geom_hbond_distance_DA
_geom_hbond_angle_DHA
_geom_hbond_site_symmetry_A
O1 H1 O2 0.80(4) 2.06(5) 2.789(3) 151(5) 4_556
O2 H2 O1 0.79(3) 1.87(4) 2.645(3) 164(5) 3_544
loop_
_geom_torsion_atom_site_label_1
_geom_torsion_atom_site_label_2
_geom_torsion_atom_site_label_3
_geom_torsion_atom_site_label_4
_geom_torsion
C6 C1 C2 C3 0.0(4)
C7 C1 C2 C3 -179.2(3)
C1 C2 C3 C4 0.0(5)
C2 C3 C4 O2 -179.6(3)
C2 C3 C4 C5 0.6(4)
O2 C4 C5 C6 179.0(3)
C3 C4 C5 C6 -1.2(4)
C4 C5 C6 C1 1.2(4)
C2 C1 C6 C5 -0.6(4)
C7 C1 C6 C5 178.6(3)
C2 C1 C7 O1 68.6(4)
C6 C1 C7 O1 -110.6(3)
