#------------------------------------------------------------------------------
#$Date: 2016-03-26 17:31:29 +0200 (Sat, 26 Mar 2016) $
#$Revision: 180398 $
#$URL: svn://www.crystallography.net/cod/cif/7/20/67/7206738.cif $
#------------------------------------------------------------------------------
#
# This file is available in the Crystallography Open Database (COD),
# http://www.crystallography.net/
#
# All data on this site have been placed in the public domain by the
# contributors.
#
data_7206738
loop_
_publ_author_name
'Marelli, Elena'
'Casati, Nicola'
'Gozzo, Fabia'
'Macchi, Piero'
'Simoncic, Petra'
'Sironi, Angelo'
_publ_section_title
;
 High pressure modification of organic NLO materials: large conformational
 re-arrangement of 4-aminobenzophenone
;
_journal_issue                   22
_journal_name_full               CrystEngComm
_journal_page_first              6845
_journal_paper_doi               10.1039/c1ce05742a
_journal_volume                  13
_journal_year                    2011
_chemical_formula_moiety         'C13 H11 N O'
_chemical_formula_sum            'C13 H11 N O'
_chemical_formula_weight         197.23
_chemical_name_common            4-amino-benzophenone
_chemical_name_systematic
;
?
;
_space_group_IT_number           4
_symmetry_space_group_name_Hall  'P 2yb'
_symmetry_space_group_name_H-M   'P 1 21 1'
_atom_sites_solution_hydrogens   geom
_atom_sites_solution_primary     direct
_atom_sites_solution_secondary   difmap
_audit_creation_method           SHELXL-97
_cell_angle_alpha                90.00
_cell_angle_beta                 92.304(10)
_cell_angle_gamma                90.00
_cell_formula_units_Z            2
_cell_length_a                   9.0470(5)
_cell_length_b                   3.6626(2)
_cell_length_c                   12.7481(15)
_cell_measurement_temperature    295(2)
_cell_volume                     422.07(6)
_computing_structure_refinement  'SHELXL-97 (Sheldrick, 1997)'
_diffrn_ambient_pressure         2000000
_diffrn_ambient_temperature      295(2)
_diffrn_measured_fraction_theta_full 0.361
_diffrn_measured_fraction_theta_max 0.361
_diffrn_radiation_monochromator  graphite
_diffrn_radiation_source         'fine-focus sealed tube'
_diffrn_radiation_type           MoK\a
_diffrn_radiation_wavelength     0.71073
_diffrn_reflns_av_R_equivalents  0.0564
_diffrn_reflns_av_sigmaI/netI    0.0878
_diffrn_reflns_limit_h_max       10
_diffrn_reflns_limit_h_min       -10
_diffrn_reflns_limit_k_max       4
_diffrn_reflns_limit_k_min       -4
_diffrn_reflns_limit_l_max       7
_diffrn_reflns_limit_l_min       -7
_diffrn_reflns_number            1313
_diffrn_reflns_theta_full        25.36
_diffrn_reflns_theta_max         25.36
_diffrn_reflns_theta_min         4.51
_exptl_absorpt_coefficient_mu    0.099
_exptl_absorpt_correction_T_max  1
_exptl_absorpt_correction_T_min  0.8
_exptl_absorpt_correction_type   empirical
_exptl_absorpt_process_details
;
DAC absorption corrected with Absorb 6.0 (gaussian)
(R.J. Angel, J. Appl. Cryst. 2004, 37(3), 486)
Crystal absorption corrected with SADABS (empirical)
Area-Detector Absorption Correction,
(Siemens Industrial Automation, Inc.: Madison, WI, 1996)
;
_exptl_crystal_colour            colourless
_exptl_crystal_density_diffrn    1.552
_exptl_crystal_density_method    'not measured'
_exptl_crystal_description       prism
_exptl_crystal_F_000             208
_exptl_crystal_preparation       'mounted in a diamond-anvil cell '
_exptl_crystal_size_max          0.2
_exptl_crystal_size_mid          0.09
_exptl_crystal_size_min          0.06
_refine_diff_density_max         0.168
_refine_diff_density_min         -0.189
_refine_diff_density_rms         0.047
_refine_ls_extinction_method     none
_refine_ls_goodness_of_fit_ref   1.048
_refine_ls_hydrogen_treatment    constr
_refine_ls_matrix_type           full
_refine_ls_number_parameters     37
_refine_ls_number_reflns         575
_refine_ls_number_restraints     1
_refine_ls_restrained_S_all      1.047
_refine_ls_R_factor_all          0.1058
_refine_ls_R_factor_gt           0.0620
_refine_ls_shift/su_max          0.000
_refine_ls_shift/su_mean         0.000
_refine_ls_structure_factor_coef Fsqd
_refine_ls_weighting_details
'calc w=1/[\s^2^(Fo^2^)+(0.0764P)^2^+0.0173P] where P=(Fo^2^+2Fc^2^)/3'
_refine_ls_weighting_scheme      calc
_refine_ls_wR_factor_gt          0.1389
_refine_ls_wR_factor_ref         0.1595
_reflns_number_gt                362
_reflns_number_total             575
_reflns_threshold_expression     >2sigma(I)
_cod_data_source_file            c1ce05742a.txt
_cod_data_source_block           4abp32
_cod_original_sg_symbol_H-M      'P 21'
_cod_database_code               7206738
loop_
_symmetry_equiv_pos_as_xyz
'x, y, z'
'-x, y+1/2, -z'
loop_
_atom_site_label
_atom_site_type_symbol
_atom_site_fract_x
_atom_site_fract_y
_atom_site_fract_z
_atom_site_U_iso_or_equiv
_atom_site_adp_type
_atom_site_occupancy
_atom_site_symmetry_multiplicity
_atom_site_calc_flag
_atom_site_refinement_flags
C1 C 0.3953(8) 0.2009(19) 0.2888(12) 0.041(3) Uiso 1 1 d .
N1 N 1.0006(6) 0.3826(16) 0.3923(10) 0.046(2) Uiso 1 1 d .
H1A H 1.0684 0.2969 0.3538 0.068 Uiso 1 1 calc R
H1B H 1.0246 0.4977 0.4493 0.068 Uiso 1 1 calc R
O1 O 0.3101(5) 0.2991(16) 0.3592(8) 0.0487(18) Uiso 1 1 d .
C11 C 0.3232(5) 0.0484(11) 0.1922(6) 0.031(2) Uiso 1 1 d G
C12 C 0.1917(5) -0.1398(12) 0.2048(6) 0.031(2) Uiso 1 1 d G
H12 H 0.1570 -0.1763 0.2717 0.038 Uiso 1 1 calc R
C13 C 0.1120(4) -0.2733(14) 0.1176(7) 0.028(2) Uiso 1 1 d G
H13 H 0.0240 -0.3992 0.1261 0.034 Uiso 1 1 calc R
C14 C 0.1639(5) -0.2187(15) 0.0176(6) 0.038(2) Uiso 1 1 d G
H14 H 0.1106 -0.3081 -0.0408 0.045 Uiso 1 1 calc R
C15 C 0.2954(6) -0.0305(14) 0.0049(6) 0.043(3) Uiso 1 1 d G
H15 H 0.3300 0.0060 -0.0620 0.051 Uiso 1 1 calc R
C16 C 0.3750(4) 0.1030(12) 0.0922(7) 0.034(2) Uiso 1 1 d G
H16 H 0.4630 0.2289 0.0837 0.040 Uiso 1 1 calc R
C21 C 0.5547(3) 0.2499(11) 0.3091(6) 0.028(2) Uiso 1 1 d G
C22 C 0.6608(5) 0.1084(12) 0.2445(6) 0.037(2) Uiso 1 1 d G
H22 H 0.6317 -0.0149 0.1833 0.045 Uiso 1 1 calc R
C23 C 0.8102(4) 0.1511(15) 0.2713(6) 0.033(2) Uiso 1 1 d G
H23 H 0.8812 0.0564 0.2280 0.039 Uiso 1 1 calc R
C24 C 0.8536(4) 0.3354(17) 0.3627(6) 0.035(2) Uiso 1 1 d G
C25 C 0.7476(5) 0.4769(16) 0.4274(5) 0.038(2) Uiso 1 1 d G
H25 H 0.7766 0.6002 0.4886 0.046 Uiso 1 1 calc R
C26 C 0.5981(5) 0.4342(12) 0.4006(6) 0.038(2) Uiso 1 1 d G
H26 H 0.5272 0.5289 0.4438 0.045 Uiso 1 1 calc R
loop_
_atom_type_symbol
_atom_type_description
_atom_type_scat_dispersion_real
_atom_type_scat_dispersion_imag
_atom_type_scat_source
C C 0.0033 0.0016 'International Tables Vol C Tables 4.2.6.8 and 6.1.1.4'
H H 0.0000 0.0000 'International Tables Vol C Tables 4.2.6.8 and 6.1.1.4'
N N 0.0061 0.0033 'International Tables Vol C Tables 4.2.6.8 and 6.1.1.4'
O O 0.0106 0.0060 'International Tables Vol C Tables 4.2.6.8 and 6.1.1.4'
loop_
_geom_angle_atom_site_label_1
_geom_angle_atom_site_label_2
_geom_angle_atom_site_label_3
_geom_angle
O1 C1 C21 117.7(10)
O1 C1 C11 116.1(7)
C21 C1 C11 126.2(9)
C12 C11 C16 120.0
C12 C11 C1 116.2(5)
C16 C11 C1 123.7(5)
C13 C12 C11 120.0
C12 C13 C14 120.0
C15 C14 C13 120.0
C14 C15 C16 120.0
C15 C16 C11 120.0
C22 C21 C26 120.0
C22 C21 C1 123.2(6)
C26 C21 C1 116.8(6)
C23 C22 C21 120.0
C24 C23 C22 120.0
N1 C24 C23 121.8(6)
N1 C24 C25 118.2(6)
C23 C24 C25 120.0
C26 C25 C24 120.0
C25 C26 C21 120.0
loop_
_geom_bond_atom_site_label_1
_geom_bond_atom_site_label_2
_geom_bond_distance
C1 O1 1.259(12)
C1 C21 1.466(8)
C1 C11 1.480(14)
N1 C24 1.379(7)
C11 C12 1.3900
C11 C16 1.3900
C12 C13 1.3900
C13 C14 1.3900
C14 C15 1.3900
C15 C16 1.3900
C21 C22 1.3900
C21 C26 1.3900
C22 C23 1.3900
C23 C24 1.3900
C24 C25 1.3900
C25 C26 1.3900
