#------------------------------------------------------------------------------
#$Date: 2016-03-26 17:59:05 +0200 (Sat, 26 Mar 2016) $
#$Revision: 180406 $
#$URL: svn://www.crystallography.net/cod/cif/7/20/75/7207547.cif $
#------------------------------------------------------------------------------
#
# This file is available in the Crystallography Open Database (COD),
# http://www.crystallography.net/
#
# All data on this site have been placed in the public domain by the
# contributors.
#
data_7207547
loop_
_publ_author_name
'Ellena, Javier'
'Paparidis, Nikolas'
'Martins, Felipe Terra'
_publ_section_title
;
 Toward supramolecular architectures of the anti-HIV drug lamivudine:
 understanding the effect of the inclusion of water in a hydrochloride
 form
;
_journal_issue                   7
_journal_name_full               CrystEngComm
_journal_page_first              2373
_journal_paper_doi               10.1039/c2ce06303d
_journal_volume                  14
_journal_year                    2012
_chemical_absolute_configuration '2R 5S'
_chemical_compound_source        'Polymorph Screening'
_chemical_formula_moiety         'C8 H12 N3 O3 S, Cl'
_chemical_formula_sum            'C8 H12 Cl N3 O3 S'
_chemical_formula_weight         265.72
_chemical_name_common
;
4-amino-1-((2R,5S)-2-(hydroxymethyl)-1,3-oxathiolan-5-yl) -
(1H)-pyrimidin-2-one hydrochloride
;
_chemical_name_systematic
;
4-amino-1-[(2R,5S)-2-(hydroxymethyl)-1,3-oxathiolan-5-yl]
-(1H)-pyrimidin-2-one hydrochloride
;
_space_group_IT_number           4
_symmetry_cell_setting           monoclinic
_symmetry_Int_Tables_number      4
_symmetry_space_group_name_Hall  'P 2yb'
_symmetry_space_group_name_H-M   'P 1 21 1'
_atom_sites_solution_hydrogens   geom
_atom_sites_solution_primary     direct
_atom_sites_solution_secondary   difmap
_audit_creation_date             2008-07-31T17:12:02-00:00
_audit_creation_method           'WinGX routine CIF_UPDATE'
_cell_angle_alpha                90.00
_cell_angle_beta                 104.273(2)
_cell_angle_gamma                90.00
_cell_formula_units_Z            2
_cell_length_a                   5.7060(2)
_cell_length_b                   11.9670(5)
_cell_length_c                   8.3401(4)
_cell_measurement_reflns_used    4201
_cell_measurement_temperature    298(2)
_cell_measurement_theta_max      26.733
_cell_measurement_theta_min      2.91
_cell_volume                     551.91(4)
_computing_cell_refinement       'HKL Scalepack (Otwinowski & Minor 1997)'
_computing_data_collection       'Collect (Bruker AXS BV, 1997-2004)'
_computing_data_reduction
'HKL Denzo and Scalepack (Otwinowski & Minor 1997)'
_computing_structure_refinement  'SHELXL-97 (Sheldrick, 1997)'
_diffrn_ambient_temperature      298(2)
_diffrn_measured_fraction_theta_full 0.99
_diffrn_measured_fraction_theta_max 0.99
_diffrn_measurement_device       '95mm CCD camera on \k-goniostat'
_diffrn_measurement_device_type  KappaCCD
_diffrn_measurement_method       'CCD rotation images, thick slices'
_diffrn_radiation_probe          x-ray
_diffrn_radiation_type           MoK\a
_diffrn_radiation_wavelength     0.71073
_diffrn_reflns_av_R_equivalents  0.0646
_diffrn_reflns_av_sigmaI/netI    0.0552
_diffrn_reflns_limit_h_max       7
_diffrn_reflns_limit_h_min       -6
_diffrn_reflns_limit_k_max       15
_diffrn_reflns_limit_k_min       -14
_diffrn_reflns_limit_l_max       10
_diffrn_reflns_limit_l_min       -10
_diffrn_reflns_number            6374
_diffrn_reflns_theta_full        26.63
_diffrn_reflns_theta_max         26.63
_diffrn_reflns_theta_min         3.04
_exptl_absorpt_coefficient_mu    0.531
_exptl_absorpt_correction_T_max  0.974
_exptl_absorpt_correction_T_min  0.866
_exptl_absorpt_correction_type   gaussian
_exptl_absorpt_process_details
;
P. Coppens, L. Leiserowitz, D Rabinovich, Acta Cryst.
(1965), 18, 1035-1038
;
_exptl_crystal_colour            colourless
_exptl_crystal_density_diffrn    1.599
_exptl_crystal_density_method    'not measured'
_exptl_crystal_description       prism
_exptl_crystal_F_000             276
_exptl_crystal_size_max          0.432
_exptl_crystal_size_mid          0.098
_exptl_crystal_size_min          0.050
_refine_diff_density_max         0.293
_refine_diff_density_min         -0.234
_refine_diff_density_rms         0.051
_refine_ls_abs_structure_details 'Flack H D (1983), Acta Cryst. A39, 876-881'
_refine_ls_abs_structure_Flack   0.09(7)
_refine_ls_extinction_method     none
_refine_ls_goodness_of_fit_ref   1.030
_refine_ls_hydrogen_treatment    mixed
_refine_ls_matrix_type           full
_refine_ls_number_parameters     157
_refine_ls_number_reflns         2284
_refine_ls_number_restraints     1
_refine_ls_restrained_S_all      1.029
_refine_ls_R_factor_all          0.0438
_refine_ls_R_factor_gt           0.0365
_refine_ls_shift/su_max          0.006
_refine_ls_shift/su_mean         0.000
_refine_ls_structure_factor_coef Fsqd
_refine_ls_weighting_details
'calc w=1/[\s^2^(Fo^2^)+(0.0497P)^2^+0.0870P] where P=(Fo^2^+2Fc^2^)/3'
_refine_ls_weighting_scheme      calc
_refine_ls_wR_factor_gt          0.0896
_refine_ls_wR_factor_ref         0.0943
_reflns_number_gt                2064
_reflns_number_total             2284
_reflns_threshold_expression     >2sigma(I)
_cod_data_source_file            c2ce06303d.txt
_cod_data_source_block           LamHCl_RT
_cod_original_sg_symbol_H-M      P21
_cod_database_code               7207547
loop_
_symmetry_equiv_pos_as_xyz
'x, y, z'
'-x, y+1/2, -z'
loop_
_atom_site_label
_atom_site_type_symbol
_atom_site_fract_x
_atom_site_fract_y
_atom_site_fract_z
_atom_site_U_iso_or_equiv
_atom_site_adp_type
_atom_site_occupancy
_atom_site_symmetry_multiplicity
_atom_site_calc_flag
_atom_site_refinement_flags
S3' S 0.55638(12) 0.01587(7) 0.36247(8) 0.0488(2) Uani 1 1 d .
Cl1 Cl 0.02131(13) 0.18155(6) 0.12771(9) 0.0483(2) Uani 1 1 d .
C4 C 0.3188(4) -0.0361(2) 0.9365(3) 0.0318(5) Uani 1 1 d .
O2 O 0.4820(4) 0.22765(16) 0.8132(3) 0.0415(4) Uani 1 1 d .
N3 N 0.3478(4) 0.07580(19) 0.9261(3) 0.0324(5) Uani 1 1 d .
O1' O 0.9234(3) 0.03692(16) 0.6186(2) 0.0374(4) Uani 1 1 d .
C2 C 0.4816(5) 0.1263(2) 0.8315(3) 0.0313(5) Uani 1 1 d .
N1 N 0.6105(4) 0.05617(17) 0.7551(3) 0.0328(5) Uani 1 1 d .
C5 C 0.4570(5) -0.1057(2) 0.8582(3) 0.0366(6) Uani 1 1 d .
H5 H 0.4495 -0.1831 0.8662 0.044 Uiso 1 1 calc R
N4 N 0.1671(4) -0.0740(2) 1.0180(3) 0.0397(5) Uani 1 1 d .
O5' O 0.9404(5) -0.1496(2) 0.2756(3) 0.0590(6) Uani 1 1 d .
C4' C 0.8764(5) 0.0011(2) 0.4480(3) 0.0369(5) Uani 1 1 d .
H4' H 0.9622 0.0507 0.3884 0.044 Uiso 1 1 calc R
C6 C 0.5993(5) -0.0573(2) 0.7721(3) 0.0345(5) Uani 1 1 d .
H6 H 0.6937 -0.1024 0.7223 0.041 Uiso 1 1 calc R
C2' C 0.5781(6) 0.1417(3) 0.4813(4) 0.0472(7) Uani 1 1 d .
H2'x H 0.6446 0.2021 0.4287 0.057 Uiso 1 1 calc R
H2'y H 0.4209 0.1640 0.4952 0.057 Uiso 1 1 calc R
C1' C 0.7468(5) 0.1111(2) 0.6457(3) 0.0353(5) Uani 1 1 d .
H1' H 0.8252 0.1788 0.6996 0.042 Uiso 1 1 calc R
C5' C 0.9693(6) -0.1166(2) 0.4419(4) 0.0472(7) Uani 1 1 d .
H5'y H 1.1389 -0.1199 0.4998 0.057 Uiso 1 1 calc R
H5'x H 0.8807 -0.1671 0.4964 0.057 Uiso 1 1 calc R
H4Nx H 0.092(6) -0.026(3) 1.064(4) 0.048 Uiso 1 1 d .
H3 H 0.257(6) 0.119(3) 0.970(5) 0.039 Uiso 1 1 d .
H5'O H 0.773(10) -0.176(4) 0.220(7) 0.089 Uiso 1 1 d .
H4Ny H 0.133(9) -0.153(4) 1.019(7) 0.048 Uiso 1 1 d .
loop_
_atom_site_aniso_label
_atom_site_aniso_U_11
_atom_site_aniso_U_22
_atom_site_aniso_U_33
_atom_site_aniso_U_23
_atom_site_aniso_U_13
_atom_site_aniso_U_12
S3' 0.0418(3) 0.0689(5) 0.0321(3) -0.0058(3) 0.0020(2) -0.0006(4)
Cl1 0.0577(4) 0.0410(3) 0.0518(4) 0.0068(3) 0.0240(3) 0.0134(3)
C4 0.0344(12) 0.0310(13) 0.0282(12) 0.0006(9) 0.0043(10) -0.0011(9)
O2 0.0496(11) 0.0284(10) 0.0481(11) -0.0004(8) 0.0151(8) 0.0025(8)
N3 0.0382(11) 0.0307(11) 0.0290(10) -0.0037(8) 0.0097(9) 0.0020(9)
O1' 0.0343(9) 0.0464(12) 0.0309(9) -0.0059(8) 0.0068(7) -0.0009(8)
C2 0.0366(12) 0.0257(14) 0.0303(12) -0.0015(10) 0.0056(9) 0.0004(9)
N1 0.0406(11) 0.0283(10) 0.0305(10) 0.0002(8) 0.0108(8) -0.0015(8)
C5 0.0482(15) 0.0270(12) 0.0356(15) 0.0014(10) 0.0126(11) 0.0013(10)
N4 0.0483(13) 0.0359(12) 0.0386(12) -0.0005(10) 0.0177(10) -0.0052(10)
O5' 0.0629(14) 0.0628(14) 0.0587(15) -0.0222(12) 0.0292(12) -0.0106(12)
C4' 0.0417(12) 0.0430(15) 0.0275(12) -0.0033(11) 0.0115(9) -0.0050(12)
C6 0.0416(13) 0.0268(12) 0.0354(13) -0.0017(10) 0.0102(10) 0.0033(10)
C2' 0.0537(16) 0.0481(16) 0.0393(15) 0.0093(12) 0.0109(12) 0.0057(13)
C1' 0.0402(13) 0.0328(13) 0.0352(13) 0.0002(10) 0.0135(10) -0.0030(10)
C5' 0.0542(16) 0.0465(17) 0.0452(16) -0.0056(12) 0.0202(13) -0.0016(13)
loop_
_geom_angle_atom_site_label_1
_geom_angle_atom_site_label_2
_geom_angle_atom_site_label_3
_geom_angle
C2' S3' C4' 86.44(13)
N4 C4 N3 118.9(2)
N4 C4 C5 123.6(2)
N3 C4 C5 117.5(2)
C4 N3 C2 124.6(2)
C4 N3 H3 117(2)
C2 N3 H3 117(2)
C1' O1' C4' 112.32(18)
O2 C2 N3 122.0(3)
O2 C2 N1 122.1(3)
N3 C2 N1 115.9(2)
C6 N1 C2 121.0(2)
C6 N1 C1' 123.1(2)
C2 N1 C1' 115.8(2)
C6 C5 C4 118.3(2)
C6 C5 H5 120.9
C4 C5 H5 120.9
C4 N4 H4Nx 118(2)
C4 N4 H4Ny 120(3)
H4Nx N4 H4Ny 122(4)
C5' O5' H5'O 114(3)
O1' C4' C5' 109.2(2)
O1' C4' S3' 106.57(16)
C5' C4' S3' 114.1(2)
O1' C4' H4' 108.9
C5' C4' H4' 108.9
S3' C4' H4' 108.9
C5 C6 N1 122.3(2)
C5 C6 H6 118.9
N1 C6 H6 118.9
C1' C2' S3' 103.9(2)
C1' C2' H2'x 111.0
S3' C2' H2'x 111.0
C1' C2' H2'y 111.0
S3' C2' H2'y 111.0
H2'x C2' H2'y 109.0
O1' C1' N1 108.9(2)
O1' C1' C2' 109.2(2)
N1 C1' C2' 110.5(2)
O1' C1' H1' 109.4
N1 C1' H1' 109.4
C2' C1' H1' 109.4
O5' C5' C4' 109.7(3)
O5' C5' H5'y 109.7
C4' C5' H5'y 109.7
O5' C5' H5'x 109.7
C4' C5' H5'x 109.7
H5'y C5' H5'x 108.2
loop_
_geom_bond_atom_site_label_1
_geom_bond_atom_site_label_2
_geom_bond_distance
S3' C2' 1.790(3)
S3' C4' 1.798(3)
C4 N4 1.307(4)
C4 N3 1.355(3)
C4 C5 1.413(4)
O2 C2 1.222(3)
N3 C2 1.367(4)
N3 H3 0.87(4)
O1' C1' 1.402(3)
O1' C4' 1.446(3)
C2 N1 1.372(3)
N1 C6 1.369(3)
N1 C1' 1.490(3)
C5 C6 1.341(4)
C5 H5 0.9300
N4 H4Nx 0.86(4)
N4 H4Ny 0.97(5)
O5' C5' 1.413(4)
O5' H5'O 1.01(6)
C4' C5' 1.510(4)
C4' H4' 0.9800
C6 H6 0.9300
C2' C1' 1.513(4)
C2' H2'x 0.9700
C2' H2'y 0.9700
C1' H1' 0.9800
C5' H5'y 0.9700
C5' H5'x 0.9700
loop_
_geom_torsion_atom_site_label_1
_geom_torsion_atom_site_label_2
_geom_torsion_atom_site_label_3
_geom_torsion_atom_site_label_4
_geom_torsion
N4 C4 N3 C2 -173.2(2)
C5 C4 N3 C2 7.1(4)
C4 N3 C2 O2 172.4(3)
C4 N3 C2 N1 -6.1(4)
O2 C2 N1 C6 -177.3(3)
N3 C2 N1 C6 1.2(4)
O2 C2 N1 C1' -1.3(4)
N3 C2 N1 C1' 177.2(2)
N4 C4 C5 C6 177.2(3)
N3 C4 C5 C6 -3.1(4)
C1' O1' C4' C5' -148.3(2)
C1' O1' C4' S3' -24.5(2)
C2' S3' C4' O1' 38.66(19)
C2' S3' C4' C5' 159.2(2)
C4 C5 C6 N1 -1.4(4)
C2 N1 C6 C5 2.4(4)
C1' N1 C6 C5 -173.3(2)
C4' S3' C2' C1' -41.5(2)
C4' O1' C1' N1 113.6(2)
C4' O1' C1' C2' -7.2(3)
C6 N1 C1' O1' -22.1(3)
C2 N1 C1' O1' 162.0(2)
C6 N1 C1' C2' 97.9(3)
C2 N1 C1' C2' -78.1(3)
S3' C2' C1' O1' 35.6(3)
S3' C2' C1' N1 -84.2(2)
O1' C4' C5' O5' -175.8(2)
S3' C4' C5' O5' 65.1(3)
