#------------------------------------------------------------------------------
#$Date: 2016-03-26 17:59:05 +0200 (Sat, 26 Mar 2016) $
#$Revision: 180406 $
#$URL: svn://www.crystallography.net/cod/cif/7/20/75/7207517.cif $
#------------------------------------------------------------------------------
#
# This file is available in the Crystallography Open Database (COD),
# http://www.crystallography.net/
#
# All data on this site have been placed in the public domain by the
# contributors.
#
data_7207517
loop_
_publ_author_name
'Perumalla, Sathyanarayana Reddy'
'Shi, Limin'
'Sun, Changquan Calvin'
_publ_section_title
;
 Ionized form of acetaminophen with improved compaction properties
;
_journal_issue                   7
_journal_name_full               CrystEngComm
_journal_page_first              2389
_journal_paper_doi               10.1039/c1ce06278f
_journal_volume                  14
_journal_year                    2012
_chemical_formula_sum            'C6 H8 Cl N O'
_chemical_formula_weight         145.58
_chemical_name_common            '4-hydroxybenzenaminium chloride'
_chemical_name_systematic
;
?
;
_space_group_IT_number           14
_symmetry_cell_setting           monoclinic
_symmetry_space_group_name_Hall  '-P 2ybc'
_symmetry_space_group_name_H-M   'P 1 21/c 1'
_atom_sites_solution_hydrogens   geom
_atom_sites_solution_primary     direct
_atom_sites_solution_secondary   difmap
_audit_creation_method           SHELXL-97
_cell_angle_alpha                90.00
_cell_angle_beta                 90.0320(10)
_cell_angle_gamma                90.00
_cell_formula_units_Z            4
_cell_length_a                   6.4919(6)
_cell_length_b                   6.1159(6)
_cell_length_c                   16.8700(16)
_cell_measurement_reflns_used    6108
_cell_measurement_temperature    173(2)
_cell_measurement_theta_max      27.56
_cell_measurement_theta_min      3.14
_cell_volume                     669.80(11)
_computing_cell_refinement       'Bruker SAINT'
_computing_data_collection       'Bruker Apex2'
_computing_data_reduction        'Bruker SAINT'
_computing_molecular_graphics    'Bruker SHELXTL'
_computing_publication_material  'Bruker SHELXTL'
_computing_structure_refinement  'SHELXL-97 (Sheldrick, 1997)'
_computing_structure_solution    'SHELXS-97 (Sheldrick, 1990)'
_diffrn_ambient_temperature      173(2)
_diffrn_measured_fraction_theta_full 0.994
_diffrn_measured_fraction_theta_max 0.994
_diffrn_measurement_device_type  'Bruker Apex II platform CCD'
_diffrn_measurement_method       'Omega and Phi scans'
_diffrn_radiation_monochromator  graphite
_diffrn_radiation_source         'fine-focus sealed tube'
_diffrn_radiation_type           MoK\a
_diffrn_radiation_wavelength     0.71073
_diffrn_reflns_av_R_equivalents  0.0000
_diffrn_reflns_av_sigmaI/netI    0.0128
_diffrn_reflns_limit_h_max       8
_diffrn_reflns_limit_h_min       -8
_diffrn_reflns_limit_k_max       7
_diffrn_reflns_limit_k_min       0
_diffrn_reflns_limit_l_max       21
_diffrn_reflns_limit_l_min       0
_diffrn_reflns_number            1682
_diffrn_reflns_theta_full        27.56
_diffrn_reflns_theta_max         27.56
_diffrn_reflns_theta_min         2.41
_exptl_absorpt_coefficient_mu    0.480
_exptl_absorpt_correction_T_max  0.9315
_exptl_absorpt_correction_T_min  0.9143
_exptl_absorpt_correction_type   multi-scan
_exptl_absorpt_process_details   'SADABS (G. Sheldrick, 2003)'
_exptl_crystal_colour            Colorless
_exptl_crystal_density_diffrn    1.444
_exptl_crystal_density_method    'not measured'
_exptl_crystal_description       Needles
_exptl_crystal_F_000             304
_exptl_crystal_size_max          0.19
_exptl_crystal_size_mid          0.16
_exptl_crystal_size_min          0.15
_refine_diff_density_max         0.271
_refine_diff_density_min         -0.207
_refine_diff_density_rms         0.056
_refine_ls_extinction_coef       0.017(3)
_refine_ls_extinction_expression Fc^*^=kFc[1+0.001xFc^2^\l^3^/sin(2\q)]^-1/4^
_refine_ls_extinction_method     SHELXL
_refine_ls_goodness_of_fit_ref   1.097
_refine_ls_hydrogen_treatment    mixed
_refine_ls_matrix_type           full
_refine_ls_number_parameters     116
_refine_ls_number_reflns         1542
_refine_ls_number_restraints     0
_refine_ls_restrained_S_all      1.097
_refine_ls_R_factor_all          0.0228
_refine_ls_R_factor_gt           0.0226
_refine_ls_shift/su_max          0.001
_refine_ls_shift/su_mean         0.000
_refine_ls_structure_factor_coef Fsqd
_refine_ls_weighting_details
'calc w=1/[\s^2^(Fo^2^)+(0.0428P)^2^+0.1243P] where P=(Fo^2^+2Fc^2^)/3'
_refine_ls_weighting_scheme      calc
_refine_ls_wR_factor_gt          0.0658
_refine_ls_wR_factor_ref         0.0660
_reflns_number_gt                1527
_reflns_number_total             1542
_reflns_threshold_expression     >2sigma(I)
_cod_data_source_file            c1ce06278f.txt
_cod_data_source_block           2
_cod_depositor_comments
;
The following automatic conversions were performed:

'_symmetry_cell_setting' value 'Monoclinic' changed to 'monoclinic'
according to /home/saulius/struct/CIF-dictionaries/cif_core.dic
dictionary named 'cif_core.dic' version 2.4.1 from
2010-06-29.

'_exptl_absorpt_correction_type' value 'Multi-Scan'
changed to 'multi-scan' according to
/home/saulius/struct/CIF-dictionaries/cif_core.dic dictionary named
'cif_core.dic' version 2.4.1 from 2010-06-29.

Automatic conversion script
Id: cif_fix_values 1715 2011-07-08 13:25:40Z adriana 
;
_cod_original_sg_symbol_H-M      P2(1)/c
_cod_database_code               7207517
loop_
_symmetry_equiv_pos_as_xyz
'x, y, z'
'-x, y+1/2, -z+1/2'
'-x, -y, -z'
'x, -y-1/2, z-1/2'
loop_
_atom_site_label
_atom_site_type_symbol
_atom_site_fract_x
_atom_site_fract_y
_atom_site_fract_z
_atom_site_U_iso_or_equiv
_atom_site_adp_type
_atom_site_occupancy
_atom_site_symmetry_multiplicity
_atom_site_calc_flag
Cl1 Cl 0.25785(6) 0.28401(4) 0.480064(17) 0.02472(11) Uani 1 1 d
O4 O 0.2474(2) 0.69488(16) 0.37727(5) 0.0267(2) Uani 1 1 d
N1 N 0.2453(3) 0.70164(18) 0.04607(6) 0.0224(2) Uani 1 1 d
C4 C 0.2501(3) 0.69060(19) 0.29627(6) 0.0191(2) Uani 1 1 d
C1 C 0.2481(2) 0.69753(19) 0.13320(6) 0.0181(2) Uani 1 1 d
C2 C 0.1827(2) 0.8810(2) 0.17431(7) 0.0198(2) Uani 1 1 d
C6 C 0.3171(2) 0.5122(2) 0.17168(7) 0.0200(3) Uani 1 1 d
C5 C 0.31786(19) 0.5087(2) 0.25424(7) 0.0201(3) Uani 1 1 d
C3 C 0.1840(2) 0.8774(2) 0.25657(7) 0.0203(3) Uani 1 1 d
H3 H 0.138(3) 1.005(3) 0.2843(10) 0.021(4) Uiso 1 1 d
H2 H 0.141(3) 1.008(3) 0.1471(10) 0.033(5) Uiso 1 1 d
H5 H 0.357(3) 0.384(3) 0.2822(11) 0.029(4) Uiso 1 1 d
H1C H 0.247(3) 0.572(3) 0.0274(9) 0.032(4) Uiso 1 1 d
H6 H 0.364(3) 0.392(3) 0.1447(10) 0.023(4) Uiso 1 1 d
H1B H 0.135(3) 0.777(4) 0.0286(16) 0.029(5) Uiso 1 1 d
H1A H 0.353(4) 0.760(5) 0.028(2) 0.058(8) Uiso 1 1 d
H4 H 0.266(4) 0.576(4) 0.3950(10) 0.044(5) Uiso 1 1 d
loop_
_atom_site_aniso_label
_atom_site_aniso_U_11
_atom_site_aniso_U_22
_atom_site_aniso_U_33
_atom_site_aniso_U_23
_atom_site_aniso_U_13
_atom_site_aniso_U_12
Cl1 0.02609(16) 0.02218(17) 0.02591(16) 0.00422(9) -0.00003(19) 0.00020(12)
O4 0.0396(5) 0.0255(5) 0.0150(4) 0.0015(3) -0.0001(6) -0.0037(5)
N1 0.0289(5) 0.0231(5) 0.0151(5) 0.0001(4) -0.0009(6) -0.0010(6)
C4 0.0177(5) 0.0239(6) 0.0159(5) 0.0012(4) -0.0007(6) -0.0047(6)
C1 0.0171(5) 0.0228(6) 0.0144(5) 0.0008(4) 0.0006(6) 0.0000(6)
C2 0.0194(5) 0.0188(6) 0.0211(6) 0.0024(4) -0.0004(5) 0.0015(4)
C6 0.0206(6) 0.0187(6) 0.0206(6) -0.0013(4) 0.0012(5) 0.0021(4)
C5 0.0198(5) 0.0193(6) 0.0213(6) 0.0046(4) -0.0012(5) 0.0003(4)
C3 0.0200(5) 0.0202(6) 0.0207(5) -0.0022(4) 0.0007(5) 0.0003(4)
loop_
_atom_type_symbol
_atom_type_description
_atom_type_scat_dispersion_real
_atom_type_scat_dispersion_imag
_atom_type_scat_source
C C 0.0033 0.0016 'International Tables Vol C Tables 4.2.6.8 and 6.1.1.4'
H H 0.0000 0.0000 'International Tables Vol C Tables 4.2.6.8 and 6.1.1.4'
N N 0.0061 0.0033 'International Tables Vol C Tables 4.2.6.8 and 6.1.1.4'
O O 0.0106 0.0060 'International Tables Vol C Tables 4.2.6.8 and 6.1.1.4'
Cl Cl 0.1484 0.1585 'International Tables Vol C Tables 4.2.6.8 and 6.1.1.4'
loop_
_geom_angle_atom_site_label_1
_geom_angle_atom_site_label_2
_geom_angle_atom_site_label_3
_geom_angle
O4 C4 C5 121.96(11)
O4 C4 C3 117.46(11)
C5 C4 C3 120.59(10)
C6 C1 C2 121.92(10)
C6 C1 N1 119.21(11)
C2 C1 N1 118.87(11)
C1 C2 C3 119.04(12)
C1 C6 C5 118.93(12)
C4 C5 C6 119.77(12)
C2 C3 C4 119.74(12)
loop_
_geom_bond_atom_site_label_1
_geom_bond_atom_site_label_2
_geom_bond_distance
O4 C4 1.3668(13)
N1 C1 1.4703(13)
C4 C5 1.3906(18)
C4 C3 1.3919(18)
C1 C6 1.3807(17)
C1 C2 1.3862(17)
C2 C3 1.3879(16)
C6 C5 1.3930(16)
loop_
_geom_torsion_atom_site_label_1
_geom_torsion_atom_site_label_2
_geom_torsion_atom_site_label_3
_geom_torsion_atom_site_label_4
_geom_torsion
C6 C1 C2 C3 -0.9(2)
N1 C1 C2 C3 179.62(14)
C2 C1 C6 C5 1.0(2)
N1 C1 C6 C5 -179.51(14)
O4 C4 C5 C6 179.80(15)
C3 C4 C5 C6 -0.8(2)
C1 C6 C5 C4 -0.1(2)
C1 C2 C3 C4 -0.1(2)
O4 C4 C3 C2 -179.66(15)
C5 C4 C3 C2 0.9(2)
