#------------------------------------------------------------------------------
#$Date: 2016-03-26 17:59:05 +0200 (Sat, 26 Mar 2016) $
#$Revision: 180406 $
#$URL: svn://www.crystallography.net/cod/cif/7/20/75/7207550.cif $
#------------------------------------------------------------------------------
#
# This file is available in the Crystallography Open Database (COD),
# http://www.crystallography.net/
#
# All data on this site have been placed in the public domain by the
# contributors.
#
data_7207550
loop_
_publ_author_name
'Ellena, Javier'
'Paparidis, Nikolas'
'Martins, Felipe Terra'
_publ_section_title
;
 Toward supramolecular architectures of the anti-HIV drug lamivudine:
 understanding the effect of the inclusion of water in a hydrochloride
 form
;
_journal_issue                   7
_journal_name_full               CrystEngComm
_journal_page_first              2373
_journal_paper_doi               10.1039/c2ce06303d
_journal_volume                  14
_journal_year                    2012
_chemical_absolute_configuration '2R 5S'
_chemical_compound_source        'Polymorph Screening'
_chemical_formula_moiety         'C8 H12 N3 O3 S, H2 O, Cl'
_chemical_formula_sum            'C8 H14 Cl N3 O4 S'
_chemical_formula_weight         283.73
_chemical_name_common
;
4-amino-1-((2R,5S)-2-(hydroxymethyl)-1, 3-oxathiolan-5-yl)-
(1H)-pyrimidin-2-one hydrochloride monohydrate
;
_chemical_name_systematic
;
4-amino-1-[(2R,5S)-2-(hydroxymethyl)-1,
3-oxathiolan-5-yl]-(1H)-pyrimidin-2-one hydrochloride
monohydrate
;
_space_group_IT_number           4
_symmetry_cell_setting           monoclinic
_symmetry_Int_Tables_number      4
_symmetry_space_group_name_Hall  'P 2yb'
_symmetry_space_group_name_H-M   'P 1 21 1'
_atom_sites_solution_hydrogens   geom
_atom_sites_solution_primary     direct
_atom_sites_solution_secondary   difmap
_audit_creation_date             2008-07-31T17:12:02-00:00
_audit_creation_method           'WinGx routine CIF_UPDATE'
_cell_angle_alpha                90.0000
_cell_angle_beta                 98.774(2)
_cell_angle_gamma                90.0000
_cell_formula_units_Z            2
_cell_length_a                   5.2554(1)
_cell_length_b                   17.1944(6)
_cell_length_c                   6.8210(2)
_cell_measurement_reflns_used    7369
_cell_measurement_temperature    150(2)
_cell_measurement_theta_max      27.485
_cell_measurement_theta_min      2.910
_cell_volume                     609.16(3)
_computing_cell_refinement       'HKL Scalepack (Otwinowski & Minor 1997)'
_computing_data_collection       'Collect (Bruker AxS BV, 1997-2004)'
_computing_data_reduction
'HKL Denzo and Scalepack (Otwinowski & Minor 1997)'
_computing_structure_refinement  'SHELxL-97 (Sheldrick, 1997)'
_diffrn_ambient_temperature      150(2)
_diffrn_measured_fraction_theta_full 0.985
_diffrn_measured_fraction_theta_max 0.985
_diffrn_measurement_device       '95mm CCD camera on \k-goniostat'
_diffrn_measurement_device_type  KappaCCD
_diffrn_measurement_method       'CCD rotation images, thick slices'
_diffrn_radiation_monochromator  graphite
_diffrn_radiation_probe          x-ray
_diffrn_radiation_source         'fine-focus sealed tube'
_diffrn_radiation_type           MoK\a
_diffrn_radiation_wavelength     0.71073
_diffrn_reflns_av_R_equivalents  0.1170
_diffrn_reflns_av_sigmaI/netI    0.0762
_diffrn_reflns_limit_h_max       6
_diffrn_reflns_limit_h_min       -5
_diffrn_reflns_limit_k_max       20
_diffrn_reflns_limit_k_min       -21
_diffrn_reflns_limit_l_max       8
_diffrn_reflns_limit_l_min       -8
_diffrn_reflns_number            8661
_diffrn_reflns_theta_full        27.45
_diffrn_reflns_theta_max         27.45
_diffrn_reflns_theta_min         3.02
_exptl_absorpt_coefficient_mu    0.492
_exptl_absorpt_correction_T_max  0.987
_exptl_absorpt_correction_T_min  0.941
_exptl_absorpt_correction_type   gaussian
_exptl_absorpt_process_details
;
P. Coppens, L. Leiserowitz, D Rabinovich, Acta Cryst.
(1965), 18, 1035-1038
;
_exptl_crystal_colour            colourless
_exptl_crystal_density_diffrn    1.547
_exptl_crystal_density_method    'not measured'
_exptl_crystal_description       plates
_exptl_crystal_F_000             296
_exptl_crystal_size_max          0.584
_exptl_crystal_size_mid          0.098
_exptl_crystal_size_min          0.027
_refine_diff_density_max         0.412
_refine_diff_density_min         -0.514
_refine_diff_density_rms         0.086
_refine_ls_abs_structure_details 'Flack H D (1983), Acta Cryst. A39, 876-881'
_refine_ls_abs_structure_Flack   0.11(8)
_refine_ls_extinction_method     none
_refine_ls_goodness_of_fit_ref   1.058
_refine_ls_hydrogen_treatment    mixed
_refine_ls_matrix_type           full
_refine_ls_number_parameters     172
_refine_ls_number_reflns         2547
_refine_ls_number_restraints     1
_refine_ls_restrained_S_all      1.058
_refine_ls_R_factor_all          0.0529
_refine_ls_R_factor_gt           0.0500
_refine_ls_shift/su_max          0.000
_refine_ls_shift/su_mean         0.000
_refine_ls_structure_factor_coef Fsqd
_refine_ls_weighting_details
'calc w=1/[\s^2^(Fo^2^)+(0.0586P)^2^+0.2721P] where P=(Fo^2^+2Fc^2^)/3'
_refine_ls_weighting_scheme      calc
_refine_ls_wR_factor_gt          0.1137
_refine_ls_wR_factor_ref         0.1166
_reflns_number_gt                2405
_reflns_number_total             2547
_reflns_threshold_expression     >2sigma(I)
_cod_data_source_file            c2ce06303d.txt
_cod_data_source_block           LamHClH2O_LT
_cod_original_sg_symbol_H-M      P21
_cod_database_code               7207550
loop_
_symmetry_equiv_pos_as_xyz
'x, y, z'
'-x, y+1/2, -z'
loop_
_atom_site_label
_atom_site_type_symbol
_atom_site_fract_x
_atom_site_fract_y
_atom_site_fract_z
_atom_site_U_iso_or_equiv
_atom_site_adp_type
_atom_site_occupancy
_atom_site_symmetry_multiplicity
_atom_site_calc_flag
_atom_site_refinement_flags
Cl1 Cl 1.05282(14) 0.58873(5) 0.59757(12) 0.0304(2) Uani 1 1 d .
S3' S 1.00860(15) 0.22830(5) 0.93833(12) 0.0262(2) Uani 1 1 d .
O5' O 1.3045(5) 0.32223(16) 1.2975(4) 0.0302(5) Uani 1 1 d .
O1W O 0.4902(5) 0.14489(16) 0.6183(3) 0.0292(5) Uani 1 1 d .
O2 O 0.6490(4) 0.42095(15) 0.5182(3) 0.0276(5) Uani 1 1 d .
C1' C 1.0683(6) 0.35551(18) 0.7395(5) 0.0223(6) Uani 1 1 d .
H1' H 1.1096 0.3764 0.6145 0.027 Uiso 1 1 calc R
O1' O 1.2977(4) 0.34752(13) 0.8748(3) 0.0235(5) Uani 1 1 d .
N4 N 0.4234(5) 0.57342(18) 1.0126(4) 0.0264(6) Uani 1 1 d .
N1 N 0.8958(5) 0.41163(15) 0.8238(4) 0.0206(5) Uani 1 1 d .
C4 C 0.5829(6) 0.52139(19) 0.9607(4) 0.0225(6) Uani 1 1 d .
N3 N 0.5452(5) 0.49597(16) 0.7693(4) 0.0218(5) Uani 1 1 d .
C2 C 0.6951(6) 0.44156(18) 0.6925(5) 0.0218(6) Uani 1 1 d .
C5 C 0.7916(6) 0.48890(19) 1.0900(5) 0.0245(6) Uani 1 1 d .
H5 H 0.8259 0.5043 1.2221 0.029 Uiso 1 1 calc R
C6 C 0.9401(6) 0.43520(19) 1.0187(5) 0.0244(6) Uani 1 1 d .
H6 H 1.0766 0.4134 1.1038 0.029 Uiso 1 1 calc R
C5' C 1.4554(6) 0.2788(2) 1.1804(5) 0.0277(7) Uani 1 1 d .
H5'x H 1.4856 0.2272 1.2369 0.033 Uiso 1 1 calc R
H5'y H 1.6212 0.3040 1.1836 0.033 Uiso 1 1 calc R
C2' C 0.9437(6) 0.2761(2) 0.7006(5) 0.0252(6) Uani 1 1 d .
H2'x H 1.0201 0.2478 0.6012 0.030 Uiso 1 1 calc R
H2'y H 0.7600 0.2809 0.6568 0.030 Uiso 1 1 calc R
C4' C 1.3265(6) 0.27160(18) 0.9682(4) 0.0221(6) Uani 1 1 d .
H4' H 1.4359 0.2396 0.8963 0.026 Uiso 1 1 calc R
H4Nx H 0.275(7) 0.583(3) 0.931(6) 0.026 Uiso 1 1 d .
H4Ny H 0.444(7) 0.589(3) 1.142(6) 0.026 Uiso 1 1 d .
H1W H 0.340(8) 0.130(3) 0.547(6) 0.033 Uiso 1 1 d .
H2W H 0.624(8) 0.133(3) 0.557(6) 0.033 Uiso 1 1 d .
H3 H 0.391(7) 0.521(3) 0.696(6) 0.026 Uiso 1 1 d .
H5'O H 1.407(8) 0.357(3) 1.368(6) 0.033 Uiso 1 1 d .
loop_
_atom_site_aniso_label
_atom_site_aniso_U_11
_atom_site_aniso_U_22
_atom_site_aniso_U_33
_atom_site_aniso_U_23
_atom_site_aniso_U_13
_atom_site_aniso_U_12
Cl1 0.0238(3) 0.0338(4) 0.0326(4) 0.0082(3) 0.0009(3) 0.0006(3)
S3' 0.0266(4) 0.0211(4) 0.0313(4) 0.0015(3) 0.0056(3) -0.0035(3)
O5' 0.0293(12) 0.0326(14) 0.0284(12) -0.0090(10) 0.0034(9) 0.0018(9)
O1W 0.0266(11) 0.0349(14) 0.0257(11) -0.0029(10) 0.0031(9) -0.0027(10)
O2 0.0347(12) 0.0268(12) 0.0204(11) -0.0029(9) 0.0013(8) 0.0004(9)
C1' 0.0235(14) 0.0199(15) 0.0244(15) -0.0026(12) 0.0062(11) 0.0000(11)
O1' 0.0214(10) 0.0200(11) 0.0290(11) 0.0013(9) 0.0035(8) -0.0001(8)
N4 0.0263(13) 0.0272(15) 0.0253(14) -0.0025(11) 0.0032(10) 0.0052(10)
N1 0.0230(12) 0.0173(12) 0.0212(12) -0.0026(10) 0.0027(9) 0.0002(9)
C4 0.0249(14) 0.0219(16) 0.0213(14) 0.0007(12) 0.0052(11) -0.0038(11)
N3 0.0232(12) 0.0202(13) 0.0212(12) 0.0007(10) 0.0012(9) 0.0009(10)
C2 0.0256(15) 0.0174(15) 0.0221(15) 0.0009(11) 0.0028(11) -0.0011(11)
C5 0.0289(15) 0.0244(16) 0.0199(14) -0.0016(12) 0.0024(11) 0.0021(12)
C6 0.0275(16) 0.0231(16) 0.0232(15) 0.0014(12) 0.0057(12) -0.0003(12)
C5' 0.0269(15) 0.0280(17) 0.0286(16) -0.0014(13) 0.0052(11) 0.0053(12)
C2' 0.0297(15) 0.0192(16) 0.0270(15) -0.0039(12) 0.0056(11) -0.0007(12)
C4' 0.0270(14) 0.0151(14) 0.0249(15) -0.0007(12) 0.0064(11) 0.0009(10)
loop_
_geom_angle_atom_site_label_1
_geom_angle_atom_site_label_2
_geom_angle_atom_site_label_3
_geom_angle
C2' S3' C4' 87.63(14)
O1' C1' N1 108.6(2)
O1' C1' C2' 109.2(3)
N1 C1' C2' 112.1(2)
C1' O1' C4' 113.4(2)
C6 N1 C2 121.3(3)
C6 N1 C1' 122.6(3)
C2 N1 C1' 116.1(2)
N4 C4 N3 118.2(3)
N4 C4 C5 124.6(3)
N3 C4 C5 117.2(3)
C4 N3 C2 125.1(3)
O2 C2 N1 122.7(3)
O2 C2 N3 121.6(3)
N1 C2 N3 115.7(3)
C6 C5 C4 118.8(3)
C5 C6 N1 122.0(3)
O5' C5' C4' 112.0(3)
C1' C2' S3' 103.6(2)
O1' C4' C5' 110.5(3)
O1' C4' S3' 106.7(2)
C5' C4' S3' 114.4(2)
loop_
_geom_bond_atom_site_label_1
_geom_bond_atom_site_label_2
_geom_bond_distance
S3' C2' 1.803(3)
S3' C4' 1.812(3)
O5' C5' 1.421(4)
O2 C2 1.229(4)
C1' O1' 1.409(4)
C1' N1 1.497(4)
C1' C2' 1.520(4)
O1' C4' 1.450(4)
N4 C4 1.311(4)
N1 C6 1.375(4)
N1 C2 1.376(4)
C4 N3 1.363(4)
C4 C5 1.414(4)
N3 C2 1.377(4)
C5 C6 1.347(4)
C5' C4' 1.507(4)
