#------------------------------------------------------------------------------
#$Date: 2016-03-26 17:59:05 +0200 (Sat, 26 Mar 2016) $
#$Revision: 180406 $
#$URL: svn://www.crystallography.net/cod/cif/7/20/75/7207549.cif $
#------------------------------------------------------------------------------
#
# This file is available in the Crystallography Open Database (COD),
# http://www.crystallography.net/
#
# All data on this site have been placed in the public domain by the
# contributors.
#
data_7207549
loop_
_publ_author_name
'Ellena, Javier'
'Paparidis, Nikolas'
'Martins, Felipe Terra'
_publ_section_title
;
 Toward supramolecular architectures of the anti-HIV drug lamivudine:
 understanding the effect of the inclusion of water in a hydrochloride
 form
;
_journal_issue                   7
_journal_name_full               CrystEngComm
_journal_page_first              2373
_journal_paper_doi               10.1039/c2ce06303d
_journal_volume                  14
_journal_year                    2012
_chemical_absolute_configuration '2R 5S'
_chemical_compound_source        'Polymorph Screening'
_chemical_formula_moiety         'C8 H12 N3 O3 S, Cl'
_chemical_formula_sum            'C8 H12 Cl N3 O3 S'
_chemical_formula_weight         265.72
_chemical_name_common
;
4-amino-1-((2R,5S)-2-(hydroxymethyl)-1,3-oxathiolan-5-yl) -
(1H)-pyrimidin-2-one hydrochloride
;
_chemical_name_systematic
;
4-amino-1-[(2R,5S)-2-(hydroxymethyl)-1,3-oxathiolan-5-yl]
-(1H)-pyrimidin-2-one hydrochloride
;
_space_group_IT_number           4
_symmetry_cell_setting           monoclinic
_symmetry_Int_Tables_number      4
_symmetry_space_group_name_Hall  'P 2yb'
_symmetry_space_group_name_H-M   'P 1 21 1'
_atom_sites_solution_hydrogens   geom
_atom_sites_solution_primary     direct
_atom_sites_solution_secondary   difmap
_audit_creation_date             2008-07-31T17:12:02-00:00
_audit_creation_method           'WinGx routine CIF_UPDATE'
_cell_angle_alpha                90.00
_cell_angle_beta                 104.760(3)
_cell_angle_gamma                90.00
_cell_formula_units_Z            2
_cell_length_a                   5.6520(3)
_cell_length_b                   11.9240(6)
_cell_length_c                   8.3220(6)
_cell_measurement_reflns_used    3465
_cell_measurement_temperature    150(2)
_cell_measurement_theta_max      25.35
_cell_measurement_theta_min      2.91
_cell_volume                     542.35(6)
_computing_cell_refinement       'HKL Scalepack (Otwinowski & Minor 1997)'
_computing_data_collection       'Collect (Bruker AxS BV, 1997-2004)'
_computing_data_reduction
'HKL Denzo and Scalepack (Otwinowski & Minor 1997)'
_computing_structure_refinement  'SHELxL-97 (Sheldrick, 1997)'
_diffrn_ambient_temperature      150(2)
_diffrn_measured_fraction_theta_full 0.994
_diffrn_measured_fraction_theta_max 0.994
_diffrn_measurement_device       '95mm CCD camera on \k-goniostat'
_diffrn_measurement_device_type  KappaCCD
_diffrn_measurement_method       'CCD rotation images, thick slices'
_diffrn_radiation_probe          x-ray
_diffrn_radiation_type           MoK\a
_diffrn_radiation_wavelength     0.71073
_diffrn_reflns_av_R_equivalents  0.0848
_diffrn_reflns_av_sigmaI/netI    0.0867
_diffrn_reflns_limit_h_max       6
_diffrn_reflns_limit_h_min       -6
_diffrn_reflns_limit_k_max       14
_diffrn_reflns_limit_k_min       -14
_diffrn_reflns_limit_l_max       9
_diffrn_reflns_limit_l_min       -10
_diffrn_reflns_number            4562
_diffrn_reflns_theta_full        25.37
_diffrn_reflns_theta_max         25.37
_diffrn_reflns_theta_min         3.05
_exptl_absorpt_coefficient_mu    0.541
_exptl_absorpt_correction_T_max  0.944
_exptl_absorpt_correction_T_min  0.833
_exptl_absorpt_correction_type   gaussian
_exptl_absorpt_process_details
;
P. Coppens, L. Leiserowitz, D Rabinovich, Acta Cryst.
(1965), 18, 1035-1038
;
_exptl_crystal_colour            colourless
_exptl_crystal_density_diffrn    1.627
_exptl_crystal_density_method    'not measured'
_exptl_crystal_description       prism
_exptl_crystal_F_000             276
_exptl_crystal_size_max          0.432
_exptl_crystal_size_mid          0.098
_exptl_crystal_size_min          0.050
_refine_diff_density_max         0.266
_refine_diff_density_min         -0.416
_refine_diff_density_rms         0.074
_refine_ls_abs_structure_details 'Flack H D (1983), Acta Cryst. A39, 876-881'
_refine_ls_abs_structure_Flack   -0.04(12)
_refine_ls_extinction_method     none
_refine_ls_goodness_of_fit_ref   0.994
_refine_ls_hydrogen_treatment    mixed
_refine_ls_matrix_type           full
_refine_ls_number_parameters     157
_refine_ls_number_reflns         1955
_refine_ls_number_restraints     1
_refine_ls_restrained_S_all      0.994
_refine_ls_R_factor_all          0.0667
_refine_ls_R_factor_gt           0.0497
_refine_ls_shift/su_max          0.005
_refine_ls_shift/su_mean         0.000
_refine_ls_structure_factor_coef Fsqd
_refine_ls_weighting_details
'calc w=1/[\s^2^(Fo^2^)+(0.0497P)^2^+0.0870P] where P=(Fo^2^+2Fc^2^)/3'
_refine_ls_weighting_scheme      calc
_refine_ls_wR_factor_gt          0.1140
_refine_ls_wR_factor_ref         0.1239
_reflns_number_gt                1615
_reflns_number_total             1955
_reflns_threshold_expression     >2sigma(I)
_cod_data_source_file            c2ce06303d.txt
_cod_data_source_block           LamHCl_LT
_cod_original_sg_symbol_H-M      P21
_cod_database_code               7207549
loop_
_symmetry_equiv_pos_as_xyz
'x, y, z'
'-x, y+1/2, -z'
loop_
_atom_site_label
_atom_site_type_symbol
_atom_site_fract_x
_atom_site_fract_y
_atom_site_fract_z
_atom_site_U_iso_or_equiv
_atom_site_adp_type
_atom_site_occupancy
_atom_site_symmetry_multiplicity
_atom_site_calc_flag
_atom_site_refinement_flags
S3' S 0.5520(2) 0.09286(10) -0.13803(13) 0.0336(3) Uani 1 1 d .
Cl1 Cl 1.0226(2) 0.25766(10) 0.62943(14) 0.0340(3) Uani 1 1 d .
O1' O 0.9296(5) 0.1142(3) 0.1186(4) 0.0295(8) Uani 1 1 d .
O2 O 0.4863(6) 0.3053(3) 0.3145(4) 0.0309(8) Uani 1 1 d .
O5' O 0.9396(7) -0.0729(3) -0.2272(4) 0.0357(8) Uani 1 1 d .
N1 N 0.6139(7) 0.1329(3) 0.2566(5) 0.0263(9) Uani 1 1 d .
N4 N 0.1662(7) 0.0020(3) 0.5181(5) 0.0296(9) Uani 1 1 d .
C4 C 0.3199(8) 0.0394(4) 0.4368(5) 0.0254(11) Uani 1 1 d .
C5 C 0.4586(9) -0.0297(4) 0.3577(6) 0.0295(11) Uani 1 1 d .
H5 H 0.4506 -0.1073 0.3649 0.035 Uiso 1 1 calc R
N3 N 0.3522(7) 0.1527(3) 0.4275(5) 0.0266(9) Uani 1 1 d .
C2 C 0.4853(9) 0.2030(4) 0.3338(6) 0.0244(11) Uani 1 1 d .
C4' C 0.8785(8) 0.0782(4) -0.0525(5) 0.0279(10) Uani 1 1 d .
H4' H 0.9637 0.1280 -0.1130 0.034 Uiso 1 1 calc R
C6 C 0.6026(8) 0.0190(4) 0.2719(6) 0.0284(11) Uani 1 1 d .
H6 H 0.6972 -0.0261 0.2215 0.034 Uiso 1 1 calc R
C2' C 0.5781(9) 0.2188(4) -0.0188(6) 0.0330(11) Uani 1 1 d .
H2'x H 0.6435 0.2793 -0.0725 0.040 Uiso 1 1 calc R
H2'y H 0.4201 0.2414 -0.0039 0.040 Uiso 1 1 calc R
C1' C 0.7527(8) 0.1890(4) 0.1466(6) 0.0288(10) Uani 1 1 d .
H1' H 0.8324 0.2570 0.2006 0.035 Uiso 1 1 calc R
C5' C 0.9703(9) -0.0393(4) -0.0597(6) 0.0327(11) Uani 1 1 d .
H5'y H 1.1422 -0.0430 -0.0014 0.039 Uiso 1 1 calc R
H5'x H 0.8810 -0.0899 -0.0053 0.039 Uiso 1 1 calc R
H4Nx H 0.093(9) 0.058(5) 0.572(6) 0.039 Uiso 1 1 d .
H4Ny H 0.120(9) -0.083(5) 0.514(7) 0.039 Uiso 1 1 d .
H3 H 0.251(9) 0.203(4) 0.484(7) 0.039 Uiso 1 1 d .
H5'O H 0.790(11) -0.105(5) -0.257(8) 0.049 Uiso 1 1 d .
loop_
_atom_site_aniso_label
_atom_site_aniso_U_11
_atom_site_aniso_U_22
_atom_site_aniso_U_33
_atom_site_aniso_U_23
_atom_site_aniso_U_13
_atom_site_aniso_U_12
S3' 0.0329(6) 0.0399(7) 0.0248(6) -0.0029(6) 0.0015(4) 0.0004(6)
Cl1 0.0391(6) 0.0305(6) 0.0332(7) 0.0033(5) 0.0108(5) 0.0052(5)
O1' 0.0292(17) 0.035(2) 0.0232(17) -0.0050(14) 0.0041(12) -0.0014(14)
O2 0.0338(19) 0.0277(19) 0.0286(18) 0.0007(15) 0.0033(14) 0.0012(14)
O5' 0.0380(19) 0.0389(19) 0.032(2) -0.0138(16) 0.0125(16) -0.0071(16)
N1 0.033(2) 0.025(2) 0.021(2) -0.0015(15) 0.0066(16) -0.0008(16)
N4 0.032(2) 0.026(2) 0.031(2) -0.0016(18) 0.0067(17) -0.0026(18)
C4 0.023(2) 0.030(3) 0.020(2) 0.0007(18) -0.0005(18) 0.0016(19)
C5 0.039(3) 0.025(2) 0.023(3) 0.0010(19) 0.005(2) -0.002(2)
N3 0.029(2) 0.027(2) 0.023(2) -0.0023(16) 0.0058(16) -0.0012(17)
C2 0.025(3) 0.024(3) 0.022(3) -0.0017(19) 0.0015(19) 0.0009(19)
C4' 0.031(2) 0.035(3) 0.017(2) -0.0059(19) 0.0044(17) -0.003(2)
C6 0.031(3) 0.026(2) 0.023(3) -0.0019(19) -0.001(2) 0.003(2)
C2' 0.039(3) 0.035(3) 0.025(3) 0.0065(19) 0.008(2) 0.000(2)
C1' 0.032(3) 0.027(2) 0.028(3) -0.0015(19) 0.0071(19) 0.000(2)
C5' 0.034(3) 0.037(3) 0.028(3) -0.007(2) 0.008(2) -0.004(2)
loop_
_geom_angle_atom_site_label_1
_geom_angle_atom_site_label_2
_geom_angle_atom_site_label_3
_geom_angle
C2' S3' C4' 86.1(2)
C1' O1' C4' 112.4(3)
C5' O5' H5'O 105(4)
C6 N1 C2 121.3(4)
C6 N1 C1' 122.8(4)
C2 N1 C1' 115.8(4)
C4 N4 H4Nx 115(3)
C4 N4 H4Ny 120(3)
H4Nx N4 H4Ny 124(4)
N4 C4 N3 118.8(4)
N4 C4 C5 124.3(4)
N3 C4 C5 116.9(4)
C6 C5 C4 118.7(4)
C6 C5 H5 120.7
C4 C5 H5 120.7
C2 N3 C4 124.9(4)
C2 N3 H3 118(3)
C4 N3 H3 117(3)
O2 C2 N3 122.4(5)
O2 C2 N1 121.6(5)
N3 C2 N1 116.0(4)
O1' C4' C5' 109.4(4)
O1' C4' S3' 106.6(3)
C5' C4' S3' 113.8(3)
O1' C4' H4' 109.0
C5' C4' H4' 109.0
S3' C4' H4' 109.0
C5 C6 N1 121.8(5)
C5 C6 H6 119.1
N1 C6 H6 119.1
C1' C2' S3' 104.4(3)
C1' C2' H2'x 110.9
S3' C2' H2'x 110.9
C1' C2' H2'y 110.9
S3' C2' H2'y 110.9
H2'x C2' H2'y 108.9
O1' C1' N1 108.8(4)
O1' C1' C2' 109.0(4)
N1 C1' C2' 109.7(4)
O1' C1' H1' 109.8
N1 C1' H1' 109.8
C2' C1' H1' 109.8
O5' C5' C4' 110.3(4)
O5' C5' H5'y 109.6
C4' C5' H5'y 109.6
O5' C5' H5'x 109.6
C4' C5' H5'x 109.6
H5'y C5' H5'x 108.1
loop_
_geom_bond_atom_site_label_1
_geom_bond_atom_site_label_2
_geom_bond_distance
S3' C2' 1.785(5)
S3' C4' 1.809(4)
O1' C1' 1.402(5)
O1' C4' 1.445(5)
O2 C2 1.230(5)
O5' C5' 1.418(6)
O5' H5'O 0.91(6)
N1 C6 1.368(6)
N1 C2 1.370(6)
N1 C1' 1.505(6)
N4 C4 1.308(6)
N4 H4Nx 0.96(6)
N4 H4Ny 1.05(5)
C4 N3 1.368(6)
C4 C5 1.410(7)
C5 C6 1.343(7)
C5 H5 0.9300
N3 C2 1.355(6)
N3 H3 1.02(6)
C4' C5' 1.500(7)
C4' H4' 0.9800
C6 H6 0.9300
C2' C1' 1.517(6)
C2' H2'x 0.9700
C2' H2'y 0.9700
C1' H1' 0.9800
C5' H5'y 0.9700
C5' H5'x 0.9700
