#------------------------------------------------------------------------------
#$Date: 2016-03-26 17:53:29 +0200 (Sat, 26 Mar 2016) $
#$Revision: 180403 $
#$URL: svn://www.crystallography.net/cod/cif/7/20/72/7207262.cif $
#------------------------------------------------------------------------------
#
# This file is available in the Crystallography Open Database (COD),
# http://www.crystallography.net/
#
# All data on this site have been placed in the public domain by the
# contributors.
#
data_7207262
loop_
_publ_author_name
'Grabowsky, Simon'
'Dean, Pamela M.'
'Skelton, Brian W.'
'Sobolev, Alexandre N.'
'Spackman, Mark A.'
'White, Allan H.'
_publ_section_title
;
 Crystal packing in the 2-R,4-oxo-[1,3-a/b]-naphthodioxanes -- Hirshfeld
 surface analysis and melting point correlation
;
_journal_issue                   3
_journal_name_full               CrystEngComm
_journal_page_first              1083
_journal_paper_doi               10.1039/c2ce06393j
_journal_volume                  14
_journal_year                    2012
_chemical_absolute_configuration unk
_chemical_formula_moiety         'C17 H16 O5'
_chemical_formula_sum            'C17 H16 O5'
_chemical_formula_weight         300.30
_chemical_name_systematic
;
?
;
_space_group_IT_number           4
_symmetry_cell_setting           monoclinic
_symmetry_Int_Tables_number      4
_symmetry_space_group_name_Hall  'P 2yb'
_symmetry_space_group_name_H-M   'P 1 21 1'
_atom_sites_solution_hydrogens   geom
_atom_sites_solution_primary     direct
_atom_sites_solution_secondary   difmap
_audit_creation_method           SHELXL-97
_cell_angle_alpha                90.0
_cell_angle_beta                 90.093(2)
_cell_angle_gamma                90.0
_cell_formula_units_Z            2
_cell_length_a                   10.6142(2)
_cell_length_b                   5.8945(1)
_cell_length_c                   11.1109(2)
_cell_measurement_reflns_used    13645
_cell_measurement_temperature    100(2)
_cell_measurement_theta_max      37.33
_cell_measurement_theta_min      3.91
_cell_volume                     695.16(2)
_computing_cell_refinement
;
CrysAlisPro, Oxford Diffraction Ltd.,
Version 1.171.33.41 (release 06-05-2009 CrysAlis171 .NET)
(compiled May 6 2009,17:20:42)
;
_computing_data_collection
;
CrysAlisPro, Oxford Diffraction Ltd.,
Version 1.171.33.41 (release 06-05-2009 CrysAlis171 .NET)
(compiled May 6 2009,17:20:42)
;
_computing_data_reduction
;
CrysAlisPro, Oxford Diffraction Ltd.,
Version 1.171.33.41 (release 06-05-2009 CrysAlis171 .NET)
(compiled May 6 2009,17:20:42)
;
_computing_molecular_graphics    'X-Seed 2.0 (Barbour, 2001)'
_computing_publication_material  'SHELXL-97 (Sheldrick, 2008)'
_computing_structure_refinement  'SHELXL-97 (Sheldrick, 2008)'
_computing_structure_solution    'SHELXS-97 (Sheldrick, 2008)'
_diffrn_ambient_temperature      100(2)
_diffrn_detector_area_resol_mean 16.0009
_diffrn_measured_fraction_theta_full 0.998
_diffrn_measured_fraction_theta_max 0.976
_diffrn_measurement_device_type  'Oxford Diffraction Xcalibur-S, Sapphire CCD'
_diffrn_measurement_method       '\w scans'
_diffrn_radiation_monochromator  graphite
_diffrn_radiation_source         'normal-focus sealed tube'
_diffrn_radiation_type           MoK\a
_diffrn_radiation_wavelength     0.71073
_diffrn_reflns_av_R_equivalents  0.0269
_diffrn_reflns_av_sigmaI/netI    0.0317
_diffrn_reflns_limit_h_max       18
_diffrn_reflns_limit_h_min       -17
_diffrn_reflns_limit_k_max       9
_diffrn_reflns_limit_k_min       -10
_diffrn_reflns_limit_l_max       18
_diffrn_reflns_limit_l_min       -18
_diffrn_reflns_number            25466
_diffrn_reflns_theta_full        36.00
_diffrn_reflns_theta_max         37.38
_diffrn_reflns_theta_min         3.91
_exptl_absorpt_coefficient_mu    0.106
_exptl_absorpt_correction_T_max  1.00000
_exptl_absorpt_correction_T_min  0.99367
_exptl_absorpt_correction_type   multi-scan
_exptl_absorpt_process_details
;
CrysAlisPro, Oxford Diffraction Ltd.,
Version 1.171.33.41 (release 06-05-2009 CrysAlis171 .NET)
(compiled May 6 2009,17:20:42)
Empirical absorption correction using spherical harmonics,
implemented in SCALE3 ABSPACK scaling algorithm.
;
_exptl_crystal_colour            colorless
_exptl_crystal_density_diffrn    1.435
_exptl_crystal_density_meas      ?
_exptl_crystal_description       prism
_exptl_crystal_F_000             316
_exptl_crystal_size_max          0.43
_exptl_crystal_size_mid          0.29
_exptl_crystal_size_min          0.17
_refine_diff_density_max         0.458
_refine_diff_density_min         -0.177
_refine_diff_density_rms         0.058
_refine_ls_abs_structure_details 'Flack H D (1983), Acta Cryst. A39, 876-881'
_refine_ls_extinction_method     none
_refine_ls_goodness_of_fit_ref   1.006
_refine_ls_hydrogen_treatment    constr
_refine_ls_matrix_type           full
_refine_ls_number_parameters     199
_refine_ls_number_reflns         3793
_refine_ls_number_restraints     1
_refine_ls_restrained_S_all      1.006
_refine_ls_R_factor_all          0.0371
_refine_ls_R_factor_gt           0.0330
_refine_ls_shift/su_max          0.000
_refine_ls_shift/su_mean         0.000
_refine_ls_structure_factor_coef Fsqd
_refine_ls_weighting_details
'calc w=1/[\s^2^(Fo^2^)+(0.0590P)^2^+0.0000P] where P=(Fo^2^+2Fc^2^)/3'
_refine_ls_weighting_scheme      calc
_refine_ls_wR_factor_gt          0.0832
_refine_ls_wR_factor_ref         0.0843
_reflns_number_gt                6072
_reflns_number_total             6986
_reflns_threshold_expression     >2sigma(I)
_cod_data_source_file            c2ce06393j.txt
_cod_data_source_block           ppa
_cod_depositor_comments
;
The following automatic conversions were performed:

'_exptl_crystal_density_meas' value 'not measured' was changed to '?'
- the value is perceived as not measured.

Automatic conversion script
Id: cif_fix_values 3008 2015-01-20 13:52:24Z robertas 
;
_cod_original_sg_symbol_H-M      'P 21'
_cod_database_code               7207262
loop_
_symmetry_equiv_pos_as_xyz
'x, y, z'
'-x, y+1/2, -z'
loop_
_atom_site_label
_atom_site_type_symbol
_atom_site_fract_x
_atom_site_fract_y
_atom_site_fract_z
_atom_site_U_iso_or_equiv
_atom_site_adp_type
_atom_site_occupancy
_atom_site_symmetry_multiplicity
_atom_site_calc_flag
_atom_site_refinement_flags
O1 O 0.08752(6) 0.79311(13) 0.27234(6) 0.01456(12) Uani 1 1 d .
C2 C -0.02724(9) 0.69524(17) 0.23586(8) 0.01366(15) Uani 1 1 d .
H2 H -0.0159 0.6102 0.1588 0.016 Uiso 1 1 calc R
O3 O -0.07814(6) 0.54835(14) 0.32707(6) 0.01574(13) Uani 1 1 d .
O4 O -0.04553(7) 0.24465(14) 0.43928(7) 0.01866(15) Uani 1 1 d .
C4 C 0.00006(8) 0.39313(17) 0.37832(8) 0.01378(15) Uani 1 1 d .
C5 C 0.13588(8) 0.42483(16) 0.35447(8) 0.01271(15) Uani 1 1 d .
C6 C 0.22332(9) 0.26380(17) 0.38785(8) 0.01361(15) Uani 1 1 d .
H6 H 0.1964 0.1275 0.4254 0.016 Uiso 1 1 calc R
C7 C 0.35333(8) 0.30075(17) 0.36632(8) 0.01271(14) Uani 1 1 d .
C8 C 0.44628(9) 0.13712(17) 0.39768(9) 0.01556(16) Uani 1 1 d .
H8 H 0.4216 0.0000 0.4359 0.019 Uiso 1 1 calc R
C9 C 0.57146(9) 0.17522(18) 0.37327(9) 0.01703(17) Uani 1 1 d .
H9 H 0.6325 0.0635 0.3934 0.020 Uiso 1 1 calc R
C10 C 0.60959(9) 0.38075(19) 0.31815(9) 0.01673(17) Uani 1 1 d .
H10 H 0.6963 0.4061 0.3018 0.020 Uiso 1 1 calc R
C11 C 0.52259(8) 0.54360(18) 0.28819(9) 0.01497(16) Uani 1 1 d .
H11 H 0.5496 0.6809 0.2517 0.018 Uiso 1 1 calc R
C12 C 0.39225(8) 0.50834(16) 0.31141(8) 0.01249(15) Uani 1 1 d .
C13 C 0.30097(8) 0.67282(16) 0.27944(8) 0.01326(15) Uani 1 1 d .
H13 H 0.3263 0.8117 0.2435 0.016 Uiso 1 1 calc R
C14 C 0.17599(8) 0.63083(16) 0.30054(8) 0.01270(15) Uani 1 1 d .
C15 C -0.12361(9) 0.88351(18) 0.21983(9) 0.01487(16) Uani 1 1 d .
H15 H -0.1415 0.9581 0.2988 0.018 Uiso 1 1 calc R
C16 C -0.08680(10) 1.05974(19) 0.12654(9) 0.01818(18) Uani 1 1 d .
H161 H -0.1271 1.2078 0.1434 0.022 Uiso 1 1 calc R
H162 H 0.0057 1.0802 0.1236 0.022 Uiso 1 1 calc R
O17 O -0.13359(7) 0.96291(15) 0.01693(7) 0.01823(14) Uani 1 1 d .
C18 C -0.24999(9) 0.85738(18) 0.04792(9) 0.01502(16) Uani 1 1 d .
O19 O -0.23588(6) 0.78608(15) 0.17152(6) 0.01770(14) Uani 1 1 d .
C20 C -0.35948(10) 1.0225(2) 0.04041(10) 0.02051(19) Uani 1 1 d .
H201 H -0.3431 1.1524 0.0932 0.031 Uiso 1 1 calc R
H202 H -0.4370 0.9463 0.0659 0.031 Uiso 1 1 calc R
H203 H -0.3690 1.0753 -0.0427 0.031 Uiso 1 1 calc R
C21 C -0.26827(11) 0.6516(2) -0.03126(11) 0.0235(2) Uani 1 1 d .
H211 H -0.1953 0.5507 -0.0232 0.035 Uiso 1 1 calc R
H212 H -0.2767 0.6998 -0.1153 0.035 Uiso 1 1 calc R
H213 H -0.3447 0.5707 -0.0066 0.035 Uiso 1 1 calc R
loop_
_atom_site_aniso_label
_atom_site_aniso_U_11
_atom_site_aniso_U_22
_atom_site_aniso_U_33
_atom_site_aniso_U_23
_atom_site_aniso_U_13
_atom_site_aniso_U_12
O1 0.0107(3) 0.0132(3) 0.0197(3) 0.0014(3) -0.0018(2) -0.0017(2)
C2 0.0116(3) 0.0156(4) 0.0138(4) 0.0011(3) -0.0008(3) -0.0029(3)
O3 0.0115(3) 0.0187(3) 0.0170(3) 0.0046(3) -0.0001(2) -0.0027(2)
O4 0.0170(3) 0.0194(3) 0.0196(3) 0.0037(3) 0.0023(2) -0.0048(3)
C4 0.0123(3) 0.0154(4) 0.0136(4) -0.0006(3) -0.0003(3) -0.0019(3)
C5 0.0114(3) 0.0138(4) 0.0129(3) 0.0004(3) 0.0008(3) -0.0024(3)
C6 0.0147(3) 0.0127(4) 0.0134(3) 0.0006(3) 0.0012(3) -0.0021(3)
C7 0.0130(3) 0.0132(3) 0.0120(3) -0.0002(3) 0.0001(3) -0.0008(3)
C8 0.0167(4) 0.0148(4) 0.0152(4) 0.0006(3) -0.0002(3) 0.0006(3)
C9 0.0154(4) 0.0184(4) 0.0172(4) -0.0001(3) -0.0003(3) 0.0033(3)
C10 0.0130(4) 0.0201(4) 0.0170(4) -0.0005(3) 0.0005(3) 0.0005(3)
C11 0.0117(3) 0.0174(4) 0.0159(4) 0.0010(3) 0.0009(3) -0.0022(3)
C12 0.0115(3) 0.0138(4) 0.0121(3) 0.0001(3) 0.0001(3) -0.0017(3)
C13 0.0122(3) 0.0129(4) 0.0146(4) 0.0016(3) 0.0004(3) -0.0024(3)
C14 0.0116(3) 0.0128(4) 0.0137(4) 0.0006(3) -0.0006(3) -0.0015(3)
C15 0.0117(3) 0.0169(4) 0.0160(4) 0.0003(3) -0.0012(3) -0.0008(3)
C16 0.0162(4) 0.0169(4) 0.0214(4) 0.0025(3) -0.0020(3) -0.0037(3)
O17 0.0159(3) 0.0221(3) 0.0167(3) 0.0034(3) 0.0024(2) -0.0037(3)
C18 0.0131(3) 0.0179(4) 0.0141(4) 0.0021(3) -0.0001(3) -0.0014(3)
O19 0.0119(3) 0.0255(4) 0.0157(3) 0.0070(3) -0.0026(2) -0.0049(3)
C20 0.0175(4) 0.0244(5) 0.0195(4) 0.0044(4) -0.0003(3) 0.0047(4)
C21 0.0238(5) 0.0219(5) 0.0248(5) -0.0043(4) -0.0008(4) -0.0023(4)
loop_
_atom_type_symbol
_atom_type_description
_atom_type_scat_dispersion_real
_atom_type_scat_dispersion_imag
_atom_type_scat_source
C C 0.0033 0.0016 'International Tables Vol C Tables 4.2.6.8 and 6.1.1.4'
H H 0.0000 0.0000 'International Tables Vol C Tables 4.2.6.8 and 6.1.1.4'
O O 0.0106 0.0060 'International Tables Vol C Tables 4.2.6.8 and 6.1.1.4'
loop_
_geom_angle_atom_site_label_1
_geom_angle_atom_site_label_2
_geom_angle_atom_site_label_3
_geom_angle
C14 O1 C2 111.76(8)
O1 C2 O3 111.70(7)
O1 C2 C15 108.46(8)
O3 C2 C15 105.58(7)
O1 C2 H2 110.3
O3 C2 H2 110.3
C15 C2 H2 110.3
C4 O3 C2 118.05(7)
O4 C4 O3 118.51(8)
O4 C4 C5 125.71(9)
O3 C4 C5 115.77(8)
C6 C5 C14 120.03(8)
C6 C5 C4 121.42(8)
C14 C5 C4 118.49(8)
C5 C6 C7 120.27(9)
C5 C6 H6 119.9
C7 C6 H6 119.9
C6 C7 C8 121.96(9)
C6 C7 C12 119.07(8)
C8 C7 C12 118.97(8)
C9 C8 C7 120.72(9)
C9 C8 H8 119.6
C7 C8 H8 119.6
C8 C9 C10 120.11(9)
C8 C9 H9 119.9
C10 C9 H9 119.9
C11 C10 C9 120.68(9)
C11 C10 H10 119.7
C9 C10 H10 119.7
C10 C11 C12 120.52(9)
C10 C11 H11 119.7
C12 C11 H11 119.7
C13 C12 C11 121.32(9)
C13 C12 C7 119.70(8)
C11 C12 C7 118.97(8)
C14 C13 C12 119.73(8)
C14 C13 H13 120.1
C12 C13 H13 120.1
C13 C14 O1 119.73(8)
C13 C14 C5 121.19(8)
O1 C14 C5 119.05(8)
O19 C15 C16 103.54(8)
O19 C15 C2 108.16(8)
C16 C15 C2 113.92(8)
O19 C15 H15 110.3
C16 C15 H15 110.3
C2 C15 H15 110.3
O17 C16 C15 102.62(8)
O17 C16 H161 111.2
C15 C16 H161 111.2
O17 C16 H162 111.2
C15 C16 H162 111.2
H161 C16 H162 109.2
C18 O17 C16 105.53(7)
O17 C18 O19 105.55(7)
O17 C18 C21 108.67(8)
O19 C18 C21 109.46(9)
O17 C18 C20 111.75(8)
O19 C18 C20 108.49(8)
C21 C18 C20 112.66(9)
C15 O19 C18 109.03(7)
C18 C20 H201 109.5
C18 C20 H202 109.5
H201 C20 H202 109.5
C18 C20 H203 109.5
H201 C20 H203 109.5
H202 C20 H203 109.5
C18 C21 H211 109.5
C18 C21 H212 109.5
H211 C21 H212 109.5
C18 C21 H213 109.5
H211 C21 H213 109.5
H212 C21 H213 109.5
loop_
_geom_bond_atom_site_label_1
_geom_bond_atom_site_label_2
_geom_bond_distance
O1 C14 1.3763(12)
O1 C2 1.4068(11)
C2 O3 1.4388(12)
C2 C15 1.5196(14)
C2 H2 1.0000
O3 C4 1.3597(12)
O4 C4 1.2083(12)
C4 C5 1.4781(12)
C5 C6 1.3779(13)
C5 C14 1.4197(13)
C6 C7 1.4178(12)
C6 H6 0.9500
C7 C8 1.4226(13)
C7 C12 1.4286(13)
C8 C9 1.3750(14)
C8 H8 0.9500
C9 C10 1.4168(15)
C9 H9 0.9500
C10 C11 1.3726(14)
C10 H10 0.9500
C11 C12 1.4229(12)
C11 H11 0.9500
C12 C13 1.4155(13)
C13 C14 1.3700(12)
C13 H13 0.9500
C15 O19 1.4268(12)
C15 C16 1.5190(14)
C15 H15 1.0000
C16 O17 1.4330(13)
C16 H161 0.9900
C16 H162 0.9900
O17 C18 1.4260(12)
C18 O19 1.4438(12)
C18 C21 1.5110(16)
C18 C20 1.5180(14)
C20 H201 0.9800
C20 H202 0.9800
C20 H203 0.9800
C21 H211 0.9800
C21 H212 0.9800
C21 H213 0.9800
loop_
_geom_hbond_atom_site_label_D
_geom_hbond_atom_site_label_H
_geom_hbond_atom_site_label_A
_geom_hbond_distance_DH
_geom_hbond_distance_HA
_geom_hbond_distance_DA
_geom_hbond_angle_DHA
_geom_hbond_site_symmetry_A
C6 H6 O1 0.95 2.85 3.3788(12) 116.4 1_545
C10 H10 O3 0.95 2.55 3.4599(12) 159.9 1_655
C10 H10 O19 0.95 2.76 3.3259(13) 118.8 1_655
C11 H11 O19 0.95 2.52 3.2103(12) 129.3 1_655
C2 H2 O17 1.00 2.66 3.5629(12) 149.7 2_545
C15 H15 O4 1.00 2.51 3.3402(13) 139.7 1_565
loop_
_geom_torsion_atom_site_label_1
_geom_torsion_atom_site_label_2
_geom_torsion_atom_site_label_3
_geom_torsion_atom_site_label_4
_geom_torsion
C14 O1 C2 O3 57.88(10)
C14 O1 C2 C15 173.83(8)
O1 C2 O3 C4 -48.23(12)
C15 C2 O3 C4 -165.92(8)
C2 O3 C4 O4 -167.60(9)
C2 O3 C4 C5 13.05(12)
O4 C4 C5 C6 9.22(15)
O3 C4 C5 C6 -171.49(8)
O4 C4 C5 C14 -168.10(9)
O3 C4 C5 C14 11.20(12)
C14 C5 C6 C7 -1.31(13)
C4 C5 C6 C7 -178.58(9)
C5 C6 C7 C8 -178.97(9)
C5 C6 C7 C12 0.98(13)
C6 C7 C8 C9 178.51(9)
C12 C7 C8 C9 -1.44(14)
C7 C8 C9 C10 1.08(15)
C8 C9 C10 C11 -0.18(15)
C9 C10 C11 C12 -0.33(15)
C10 C11 C12 C13 -179.01(9)
C10 C11 C12 C7 -0.05(14)
C6 C7 C12 C13 -0.06(13)
C8 C7 C12 C13 179.89(8)
C6 C7 C12 C11 -179.04(8)
C8 C7 C12 C11 0.91(13)
C11 C12 C13 C14 178.44(9)
C7 C12 C13 C14 -0.51(13)
C12 C13 C14 O1 178.32(8)
C12 C13 C14 C5 0.19(13)
C2 O1 C14 C13 147.35(9)
C2 O1 C14 C5 -34.48(11)
C6 C5 C14 C13 0.73(13)
C4 C5 C14 C13 178.08(9)
C6 C5 C14 O1 -177.41(8)
C4 C5 C14 O1 -0.06(13)
O1 C2 C15 O19 174.35(7)
O3 C2 C15 O19 -65.79(9)
O1 C2 C15 C16 59.83(10)
O3 C2 C15 C16 179.68(8)
O19 C15 C16 O17 -30.29(10)
C2 C15 C16 O17 86.95(9)
C15 C16 O17 C18 37.55(10)
C16 O17 C18 O19 -30.54(10)
C16 O17 C18 C21 -147.86(9)
C16 O17 C18 C20 87.21(10)
C16 C15 O19 C18 12.28(10)
C2 C15 O19 C18 -108.92(9)
O17 C18 O19 C15 10.50(11)
C21 C18 O19 C15 127.29(9)
C20 C18 O19 C15 -109.42(9)
