#------------------------------------------------------------------------------
#$Date: 2016-02-14 06:40:26 +0200 (Sun, 14 Feb 2016) $
#$Revision: 176432 $
#$URL: svn://www.crystallography.net/cod/cif/7/20/80/7208093.cif $
#------------------------------------------------------------------------------
#
# This file is available in the Crystallography Open Database (COD),
# http://www.crystallography.net/
#
# All data on this site have been placed in the public domain by the
# contributors.
#
data_7208093
loop_
_publ_author_name
'Cai, Weizhao'
'Katrusiak, Andrzej'
_publ_section_title
;
 Pressure effects on H-ordering in hydrogen bonds and interactions in
 benzoic acid
;
_journal_issue                   13
_journal_name_full               CrystEngComm
_journal_page_first              4420
_journal_paper_doi               10.1039/c2ce25128k
_journal_volume                  14
_journal_year                    2012
_chemical_formula_moiety         'C7 H6 O2'
_chemical_formula_sum            'C7 H6 O2'
_chemical_formula_weight         122.12
_chemical_name_common            'Benzioc acid'
_chemical_name_systematic
;
?
;
_space_group_IT_number           14
_symmetry_cell_setting           monoclinic
_symmetry_space_group_name_Hall  '-P 2ybc'
_symmetry_space_group_name_H-M   'P 1 21/c 1'
_atom_sites_solution_hydrogens   geom
_atom_sites_solution_primary     direct
_atom_sites_solution_secondary   difmap
_audit_creation_method           SHELXL-97
_cell_angle_alpha                90.00
_cell_angle_beta                 100.6(4)
_cell_angle_gamma                90.00
_cell_formula_units_Z            4
_cell_length_a                   5.077(14)
_cell_length_b                   4.893(9)
_cell_length_c                   21.10(6)
_cell_measurement_pressure       2210000
_cell_measurement_reflns_used    1349
_cell_measurement_temperature    296(2)
_cell_measurement_theta_max      27.14
_cell_measurement_theta_min      4.28
_cell_volume                     515(2)
_computing_cell_refinement       'CrysAlis (Oxford Diffraction, 2004)'
_computing_data_collection       'CrysAlis (Oxford Diffraction, 2004)'
_computing_data_reduction        'CrysAlisRED (Oxford Diffraction, 2004)'
_computing_molecular_graphics    'Mercury (Macrae et al., 2008)'
_computing_publication_material  'SHELXL-97 (Sheldrick, 2008)'
_computing_structure_refinement  'SHELXL-97 (Sheldrick, 2008)'
_computing_structure_solution    'SHELXS-97 (Sheldrick, 2008)'
_diffrn_ambient_temperature      296(2)
_diffrn_measured_fraction_theta_full 0.141
_diffrn_measured_fraction_theta_max 0.141
_diffrn_measurement_device_type  'Kuma KM4CCD \k geometry'
_diffrn_measurement_method
;HP omega scans - for more details see:
A. Budzianowski, A. Katrusiak in High-Pressure Crystallography
(Eds.: A. Katrusiak, P. F. McMillan),
Dordrecht: Kluwer Acad. Publ., 2004 pp.157-168
;
_diffrn_radiation_monochromator  graphite
_diffrn_radiation_source         'fine-focus sealed tube'
_diffrn_radiation_type           MoK\a
_diffrn_radiation_wavelength     0.71073
_diffrn_reflns_av_R_equivalents  0.3204
_diffrn_reflns_av_sigmaI/netI    0.2852
_diffrn_reflns_limit_h_max       6
_diffrn_reflns_limit_h_min       -6
_diffrn_reflns_limit_k_max       6
_diffrn_reflns_limit_k_min       -6
_diffrn_reflns_limit_l_max       12
_diffrn_reflns_limit_l_min       -12
_diffrn_reflns_number            1349
_diffrn_reflns_theta_full        27.24
_diffrn_reflns_theta_max         27.24
_diffrn_reflns_theta_min         4.28
_exptl_absorpt_coefficient_mu    0.116
_exptl_absorpt_correction_T_max  0.949
_exptl_absorpt_correction_T_min  0.609
_exptl_absorpt_correction_type   analytical
_exptl_absorpt_process_details
;
Katrusiak, A. (2003). REDSHABS - Program for correcting
reflections intensities for DAC absorption, gasket shadowing
and sample crystal absorption. Adam Mickiewicz University, Pozna\'n.
Katrusiak, A. (2004). Z. Kristallogr. 219, 461-467
;
_exptl_crystal_colour            colourless
_exptl_crystal_density_diffrn    1.574
_exptl_crystal_density_method    'not measured'
_exptl_crystal_description       plate-shaped
_exptl_crystal_F_000             256
_exptl_crystal_size_max          0.38
_exptl_crystal_size_mid          0.37
_exptl_crystal_size_min          0.24
_refine_diff_density_max         0.068
_refine_diff_density_min         -0.075
_refine_diff_density_rms         0.022
_refine_ls_extinction_method     none
_refine_ls_goodness_of_fit_ref   1.269
_refine_ls_hydrogen_treatment    constr
_refine_ls_matrix_type           full
_refine_ls_number_parameters     82
_refine_ls_number_reflns         162
_refine_ls_number_restraints     135
_refine_ls_restrained_S_all      0.873
_refine_ls_R_factor_all          0.2213
_refine_ls_R_factor_gt           0.0982
_refine_ls_shift/su_max          0.000
_refine_ls_shift/su_mean         0.000
_refine_ls_structure_factor_coef Fsqd
_refine_ls_weighting_details
'calc w=1/[\s^2^(Fo^2^)+(0.0000P)^2^+0.0000P] where P=(Fo^2^+2Fc^2^)/3'
_refine_ls_weighting_scheme      calc
_refine_ls_wR_factor_gt          0.1083
_refine_ls_wR_factor_ref         0.1479
_reflns_number_gt                93
_reflns_number_total             162
_reflns_threshold_expression     >2sigma(I)
_cod_data_source_file            c2ce25128k.txt
_cod_data_source_block           benziocacid_2.21GPa(CCDC864024)
_cod_original_sg_symbol_Hall     '-p 2ybc'
_cod_original_sg_symbol_H-M      'P 21/c'
_cod_database_code               7208093
loop_
_symmetry_equiv_pos_as_xyz
'x, y, z'
'-x, y+1/2, -z+1/2'
'-x, -y, -z'
'x, -y-1/2, z-1/2'
loop_
_atom_site_label
_atom_site_type_symbol
_atom_site_fract_x
_atom_site_fract_y
_atom_site_fract_z
_atom_site_U_iso_or_equiv
_atom_site_adp_type
_atom_site_occupancy
_atom_site_symmetry_multiplicity
_atom_site_calc_flag
_atom_site_refinement_flags
O1 O 0.222(2) 0.2512(10) 0.0075(10) 0.031(3) Uani 1 1 d DU
H6A H 0.1656 0.1140 -0.0129 0.047 Uiso 0.52(14) 1 calc PR
O2 O -0.120(2) 0.1544(12) 0.0603(10) 0.029(4) Uani 1 1 d DU
H6 H -0.1461 0.0375 0.0320 0.035 Uiso 0.48(14) 1 calc PR
C1 C 0.099(4) 0.2803(16) 0.0578(17) 0.009(3) Uani 1 1 d U
C2 C 0.174(4) 0.5177(18) 0.1031(16) 0.014(3) Uani 1 1 d U
C3 C 0.400(3) 0.6729(16) 0.1034(11) 0.016(3) Uani 1 1 d U
H1 H 0.5144 0.6282 0.0752 0.019 Uiso 1 1 calc R
C4 C 0.461(4) 0.887(2) 0.1433(17) 0.030(4) Uani 1 1 d U
H2 H 0.5820 1.0208 0.1361 0.037 Uiso 1 1 calc R
C5 C 0.323(2) 0.899(2) 0.1993(9) 0.036(4) Uani 1 1 d DU
H3 H 0.3928 1.0133 0.2335 0.043 Uiso 1 1 calc R
C6 C 0.100(3) 0.7495(18) 0.2032(11) 0.019(4) Uani 1 1 d DU
H4 H -0.0019 0.7791 0.2349 0.023 Uiso 1 1 calc R
C7 C 0.037(3) 0.5488(17) 0.1558(13) 0.014(4) Uani 1 1 d DU
H5 H -0.1024 0.4288 0.1588 0.017 Uiso 1 1 calc R
loop_
_atom_site_aniso_label
_atom_site_aniso_U_11
_atom_site_aniso_U_22
_atom_site_aniso_U_33
_atom_site_aniso_U_23
_atom_site_aniso_U_13
_atom_site_aniso_U_12
O1 0.037(5) 0.030(4) 0.027(7) -0.005(4) 0.005(5) -0.002(3)
O2 0.026(5) 0.033(4) 0.028(7) -0.002(5) 0.004(5) -0.003(3)
C1 0.011(5) 0.003(4) 0.012(6) 0.004(4) -0.001(5) -0.001(4)
C2 0.015(5) 0.013(4) 0.015(6) 0.002(4) 0.003(5) 0.000(3)
C3 0.014(5) 0.013(4) 0.019(7) 0.005(4) 0.001(5) -0.003(4)
C4 0.037(6) 0.023(5) 0.029(7) 0.001(5) 0.000(5) -0.010(4)
C5 0.038(6) 0.035(5) 0.033(7) -0.005(5) 0.001(5) -0.005(4)
C6 0.020(5) 0.017(5) 0.020(7) -0.005(5) 0.001(5) 0.009(4)
C7 0.013(5) 0.014(4) 0.016(7) -0.004(4) 0.006(5) 0.005(4)
loop_
_atom_type_symbol
_atom_type_description
_atom_type_scat_dispersion_real
_atom_type_scat_dispersion_imag
_atom_type_scat_source
C C 0.0033 0.0016 'International Tables Vol C Tables 4.2.6.8 and 6.1.1.4'
H H 0.0000 0.0000 'International Tables Vol C Tables 4.2.6.8 and 6.1.1.4'
O O 0.0106 0.0060 'International Tables Vol C Tables 4.2.6.8 and 6.1.1.4'
loop_
_geom_angle_atom_site_label_1
_geom_angle_atom_site_label_2
_geom_angle_atom_site_label_3
_geom_angle
C1 O1 H6A 109.5
C1 O2 H6 109.5
O2 C1 O1 121(3)
O2 C1 C2 117.7(15)
O1 C1 C2 119.1(10)
C3 C2 C7 118(2)
C3 C2 C1 122.6(14)
C7 C2 C1 118.4(10)
C4 C3 C2 121.8(13)
C4 C3 H1 119.1
C2 C3 H1 119.1
C3 C4 C5 116.3(10)
C3 C4 H2 121.8
C5 C4 H2 121.8
C6 C5 C4 123.1(17)
C6 C5 H3 118.4
C4 C5 H3 118.4
C5 C6 C7 114.7(13)
C5 C6 H4 122.6
C7 C6 H4 122.6
C2 C7 C6 123.6(11)
C2 C7 H5 118.2
C6 C7 H5 118.2
loop_
_geom_bond_atom_site_label_1
_geom_bond_atom_site_label_2
_geom_bond_distance
O1 C1 1.34(3)
O1 H6A 0.8200
O2 C1 1.278(13)
O2 H6 0.8200
C1 C2 1.51(3)
C2 C3 1.378(14)
C2 C7 1.42(3)
C3 C4 1.34(3)
C3 H1 0.9300
C4 C5 1.48(3)
C4 H2 0.9300
C5 C6 1.363(14)
C5 H3 0.9300
C6 C7 1.40(3)
C6 H4 0.9300
C7 H5 0.9300
loop_
_geom_torsion_atom_site_label_1
_geom_torsion_atom_site_label_2
_geom_torsion_atom_site_label_3
_geom_torsion_atom_site_label_4
_geom_torsion
O2 C1 C2 C3 -178(2)
O1 C1 C2 C3 -14(4)
O2 C1 C2 C7 15(4)
O1 C1 C2 C7 179(2)
C7 C2 C3 C4 -14(3)
C1 C2 C3 C4 179(3)
C2 C3 C4 C5 18(3)
C3 C4 C5 C6 -17(3)
C4 C5 C6 C7 11(3)
C3 C2 C7 C6 8(3)
C1 C2 C7 C6 176(2)
C5 C6 C7 C2 -7(3)
