#------------------------------------------------------------------------------
#$Date: 2016-03-26 18:08:36 +0200 (Sat, 26 Mar 2016) $
#$Revision: 180413 $
#$URL: svn://www.crystallography.net/cod/cif/7/20/82/7208257.cif $
#------------------------------------------------------------------------------
#
# This file is available in the Crystallography Open Database (COD),
# http://www.crystallography.net/
#
# All data on this site have been placed in the public domain by the
# contributors.
#
data_7208257
loop_
_publ_author_name
'Montis, Riccardo'
'Hursthouse, Michael B.'
_publ_section_title
;
 Surprisingly complex supramolecular behaviour in the crystal structures
 of a family of mono-substituted salicylic acids
;
_journal_issue                   16
_journal_name_full               CrystEngComm
_journal_page_first              5242
_journal_paper_doi               10.1039/c2ce25336d
_journal_volume                  14
_journal_year                    2012
_chemical_formula_moiety         'C7 H7 N O3'
_chemical_formula_sum            'C7 H7 N O3'
_chemical_formula_weight         153.14
_chemical_name_common            '4-amino-2-hydroxobenzoic acid'
_chemical_name_systematic        '4-amino-2-hydroxobenzoic acid'
_space_group_IT_number           14
_symmetry_cell_setting           monoclinic
_symmetry_space_group_name_Hall  '-P 2yn'
_symmetry_space_group_name_H-M   'P 1 21/n 1'
_atom_sites_solution_hydrogens   geom
_atom_sites_solution_primary     direct
_atom_sites_solution_secondary   difmap
_audit_creation_method           SHELXL-97
_cell_angle_alpha                90.00
_cell_angle_beta                 94.386(2)
_cell_angle_gamma                90.00
_cell_formula_units_Z            4
_cell_length_a                   7.1371(3)
_cell_length_b                   3.7278(2)
_cell_length_c                   24.4465(12)
_cell_measurement_reflns_used    7209
_cell_measurement_temperature    120(2)
_cell_measurement_theta_max      27.48
_cell_measurement_theta_min      2.91
_cell_volume                     648.51(5)
_computing_cell_refinement
'DENZO (Otwinowski & Minor, 1997) & COLLECT (Hooft, R.W.W., 1998)'
_computing_data_collection       'COLLECT (Hooft, R.W.W., 1998)'
_computing_data_reduction
'DENZO (Otwinowski & Minor, 1997) & COLLECT (Hooft, R.W.W., 1998)'
_diffrn_ambient_temperature      120(2)
_diffrn_detector_area_resol_mean '4096x4096pixels / 62x62mm'
_diffrn_measured_fraction_theta_full 0.991
_diffrn_measured_fraction_theta_max 0.991
_diffrn_measurement_device_type
'Bruker-Nonius APEX II CCD camera on \k-goniostat'
_diffrn_measurement_method       '\f & \w scans'
_diffrn_radiation_monochromator  '10cm confocal mirrors'
_diffrn_radiation_source         'Bruker-Nonius FR591 rotating anode'
_diffrn_radiation_type           MoK\a
_diffrn_radiation_wavelength     0.71073
_diffrn_reflns_av_R_equivalents  0.0400
_diffrn_reflns_av_sigmaI/netI    0.0337
_diffrn_reflns_limit_h_max       8
_diffrn_reflns_limit_h_min       -9
_diffrn_reflns_limit_k_max       4
_diffrn_reflns_limit_k_min       -4
_diffrn_reflns_limit_l_max       31
_diffrn_reflns_limit_l_min       -31
_diffrn_reflns_number            6128
_diffrn_reflns_theta_full        27.50
_diffrn_reflns_theta_max         27.50
_diffrn_reflns_theta_min         2.92
_exptl_absorpt_coefficient_mu    0.125
_exptl_absorpt_correction_T_max  0.9975
_exptl_absorpt_correction_T_min  0.9671
_exptl_absorpt_correction_type   multi-scan
_exptl_absorpt_process_details   'SADABS 2007/2 (Sheldrick, G.M., 2007)'
_exptl_crystal_colour            Colourless
_exptl_crystal_density_diffrn    1.568
_exptl_crystal_density_method    'not measured'
_exptl_crystal_description       Plate
_exptl_crystal_F_000             320
_exptl_crystal_size_max          0.27
_exptl_crystal_size_mid          0.20
_exptl_crystal_size_min          0.02
_refine_diff_density_max         0.337
_refine_diff_density_min         -0.255
_refine_diff_density_rms         0.057
_refine_ls_extinction_method     none
_refine_ls_goodness_of_fit_ref   1.053
_refine_ls_hydrogen_treatment    mixed
_refine_ls_matrix_type           full
_refine_ls_number_parameters     116
_refine_ls_number_reflns         1475
_refine_ls_number_restraints     0
_refine_ls_restrained_S_all      1.053
_refine_ls_R_factor_all          0.0560
_refine_ls_R_factor_gt           0.0458
_refine_ls_shift/su_max          0.000
_refine_ls_shift/su_mean         0.000
_refine_ls_structure_factor_coef Fsqd
_refine_ls_weighting_details
'calc w=1/[\s^2^(Fo^2^)+(0.0462P)^2^+0.6212P] where P=(Fo^2^+2Fc^2^)/3'
_refine_ls_weighting_scheme      calc
_refine_ls_wR_factor_gt          0.1123
_refine_ls_wR_factor_ref         0.1221
_reflns_number_gt                1236
_reflns_number_total             1475
_reflns_threshold_expression     >2\s(I)
_cod_data_source_file            c2ce25336d.txt
_cod_data_source_block           4-aminosalicylic_acid
_cod_original_sg_symbol_H-M      P2(1)/n
_cod_database_code               7208257
loop_
_symmetry_equiv_pos_as_xyz
'x, y, z'
'-x+1/2, y+1/2, -z+1/2'
'-x, -y, -z'
'x-1/2, -y-1/2, z-1/2'
loop_
_atom_site_label
_atom_site_type_symbol
_atom_site_fract_x
_atom_site_fract_y
_atom_site_fract_z
_atom_site_U_iso_or_equiv
_atom_site_adp_type
_atom_site_occupancy
_atom_site_symmetry_multiplicity
_atom_site_calc_flag
_atom_site_refinement_flags
H1B H 0.569(3) 0.788(6) 0.2543(10) 0.033(6) Uiso 1 1 d .
H1A H 0.735(3) 0.784(7) 0.2974(9) 0.036(6) Uiso 1 1 d .
H1 H 0.155(4) 0.047(7) 0.5176(11) 0.043(7) Uiso 1 1 d .
H3A H -0.037(4) 0.267(8) 0.3645(11) 0.051(8) Uiso 1 1 d .
O2 O -0.01367(16) 0.1208(4) 0.43442(5) 0.0229(3) Uani 1 1 d .
O1 O 0.23995(17) 0.1338(4) 0.49439(5) 0.0238(3) Uani 1 1 d .
O3 O 0.01361(17) 0.3679(4) 0.33539(5) 0.0231(3) Uani 1 1 d .
C1 C 0.2735(2) 0.3448(4) 0.40543(6) 0.0165(4) Uani 1 1 d .
N1 N 0.6139(2) 0.7680(4) 0.28935(6) 0.0231(4) Uani 1 1 d .
C5 C 0.5772(2) 0.5573(5) 0.38098(7) 0.0193(4) Uani 1 1 d .
H5 H 0.7060 0.6054 0.3911 0.023 Uiso 1 1 calc R
C2 C 0.1982(2) 0.4273(4) 0.35176(7) 0.0174(4) Uani 1 1 d .
C3 C 0.3103(2) 0.5710(4) 0.31357(6) 0.0177(4) Uani 1 1 d .
H3 H 0.2571 0.6282 0.2778 0.021 Uiso 1 1 calc R
C7 C 0.1566(2) 0.1914(5) 0.44523(7) 0.0178(4) Uani 1 1 d .
C6 C 0.4659(2) 0.4151(5) 0.41859(7) 0.0187(4) Uani 1 1 d .
H6 H 0.5194 0.3623 0.4545 0.022 Uiso 1 1 calc R
C4 C 0.5014(2) 0.6328(4) 0.32725(6) 0.0178(4) Uani 1 1 d .
loop_
_atom_site_aniso_label
_atom_site_aniso_U_11
_atom_site_aniso_U_22
_atom_site_aniso_U_33
_atom_site_aniso_U_23
_atom_site_aniso_U_13
_atom_site_aniso_U_12
O2 0.0190(6) 0.0320(7) 0.0177(6) 0.0039(5) 0.0009(4) -0.0035(5)
O1 0.0208(6) 0.0356(8) 0.0147(6) 0.0054(5) 0.0004(5) -0.0055(5)
O3 0.0184(6) 0.0343(7) 0.0163(6) 0.0039(5) -0.0008(4) -0.0025(5)
C1 0.0173(8) 0.0166(8) 0.0158(8) -0.0001(6) 0.0018(6) 0.0007(6)
N1 0.0217(8) 0.0292(8) 0.0191(7) 0.0032(6) 0.0065(6) -0.0012(6)
C5 0.0177(8) 0.0202(9) 0.0203(8) -0.0014(6) 0.0032(6) 0.0002(6)
C2 0.0169(8) 0.0180(8) 0.0171(8) -0.0014(6) 0.0005(6) 0.0011(6)
C3 0.0217(8) 0.0177(8) 0.0136(7) 0.0004(6) 0.0012(6) 0.0011(6)
C7 0.0198(8) 0.0176(8) 0.0159(7) 0.0000(6) 0.0012(6) 0.0011(6)
C6 0.0194(8) 0.0199(8) 0.0165(8) -0.0011(6) 0.0003(6) 0.0019(6)
C4 0.0228(8) 0.0136(8) 0.0175(8) -0.0016(6) 0.0054(6) 0.0016(6)
loop_
_atom_type_symbol
_atom_type_description
_atom_type_scat_dispersion_real
_atom_type_scat_dispersion_imag
_atom_type_scat_source
C C 0.0033 0.0016 'International Tables Vol C Tables 4.2.6.8 and 6.1.1.4'
H H 0.0000 0.0000 'International Tables Vol C Tables 4.2.6.8 and 6.1.1.4'
N N 0.0061 0.0033 'International Tables Vol C Tables 4.2.6.8 and 6.1.1.4'
O O 0.0106 0.0060 'International Tables Vol C Tables 4.2.6.8 and 6.1.1.4'
loop_
_geom_angle_atom_site_label_1
_geom_angle_atom_site_label_2
_geom_angle_atom_site_label_3
_geom_angle
C7 O1 H1 110.3(15)
C2 O3 H3A 105.6(17)
C6 C1 C2 117.76(15)
C6 C1 C7 121.43(14)
C2 C1 C7 120.81(15)
C4 N1 H1B 119.5(15)
C4 N1 H1A 119.7(15)
H1B N1 H1A 119(2)
C6 C5 C4 120.15(15)
C6 C5 H5 119.9
C4 C5 H5 119.9
O3 C2 C3 117.39(14)
O3 C2 C1 121.79(15)
C3 C2 C1 120.82(15)
C2 C3 C4 120.42(15)
C2 C3 H3 119.8
C4 C3 H3 119.8
O2 C7 O1 121.45(15)
O2 C7 C1 122.80(15)
O1 C7 C1 115.75(14)
C5 C6 C1 121.63(15)
C5 C6 H6 119.2
C1 C6 H6 119.2
N1 C4 C3 120.72(15)
N1 C4 C5 120.09(15)
C3 C4 C5 119.19(15)
loop_
_geom_bond_atom_site_label_1
_geom_bond_atom_site_label_2
_geom_bond_distance
O2 C7 1.252(2)
O1 C7 1.3173(19)
O1 H1 0.92(3)
O3 C2 1.365(2)
O3 H3A 0.90(3)
C1 C6 1.410(2)
C1 C2 1.413(2)
C1 C7 1.447(2)
N1 C4 1.368(2)
N1 H1B 0.89(2)
N1 H1A 0.87(2)
C5 C6 1.368(2)
C5 C4 1.410(2)
C5 H5 0.9500
C2 C3 1.383(2)
C3 C4 1.399(2)
C3 H3 0.9500
C6 H6 0.9500
loop_
_geom_hbond_atom_site_label_D
_geom_hbond_atom_site_label_H
_geom_hbond_atom_site_label_A
_geom_hbond_distance_DH
_geom_hbond_distance_HA
_geom_hbond_distance_DA
_geom_hbond_angle_DHA
_geom_hbond_site_symmetry_A
N1 H1A O3 0.87(2) 2.64(2) 3.338(2) 138(2) 1_655
O1 H1 O2 0.92(3) 1.72(3) 2.6394(17) 175(2) 3_556
O3 H3A O2 0.90(3) 1.79(3) 2.6114(17) 150(2) .
loop_
_geom_torsion_atom_site_label_1
_geom_torsion_atom_site_label_2
_geom_torsion_atom_site_label_3
_geom_torsion_atom_site_label_4
_geom_torsion
C6 C1 C2 O3 179.91(15)
C7 C1 C2 O3 0.3(3)
C6 C1 C2 C3 0.2(2)
C7 C1 C2 C3 -179.43(15)
O3 C2 C3 C4 -178.83(15)
C1 C2 C3 C4 0.9(3)
C6 C1 C7 O2 -178.79(16)
C2 C1 C7 O2 0.8(3)
C6 C1 C7 O1 2.1(2)
C2 C1 C7 O1 -178.29(15)
C4 C5 C6 C1 -0.9(3)
C2 C1 C6 C5 -0.2(3)
C7 C1 C6 C5 179.46(16)
C2 C3 C4 N1 178.67(16)
C2 C3 C4 C5 -2.0(3)
C6 C5 C4 N1 -178.63(16)
C6 C5 C4 C3 2.0(3)
