#------------------------------------------------------------------------------
#$Date: 2016-02-14 06:40:26 +0200 (Sun, 14 Feb 2016) $
#$Revision: 176432 $
#$URL: svn://www.crystallography.net/cod/cif/7/20/80/7208090.cif $
#------------------------------------------------------------------------------
#
# This file is available in the Crystallography Open Database (COD),
# http://www.crystallography.net/
#
# All data on this site have been placed in the public domain by the
# contributors.
#
data_7208090
loop_
_publ_author_name
'Cai, Weizhao'
'Katrusiak, Andrzej'
_publ_section_title
;
 Pressure effects on H-ordering in hydrogen bonds and interactions in
 benzoic acid
;
_journal_issue                   13
_journal_name_full               CrystEngComm
_journal_page_first              4420
_journal_paper_doi               10.1039/c2ce25128k
_journal_volume                  14
_journal_year                    2012
_chemical_formula_moiety         'C7 H6 O2'
_chemical_formula_sum            'C7 H6 O2'
_chemical_formula_weight         122.12
_chemical_name_common            'benzioc acid'
_chemical_name_systematic
;
?
;
_space_group_IT_number           14
_symmetry_cell_setting           monoclinic
_symmetry_space_group_name_Hall  '-P 2ybc'
_symmetry_space_group_name_H-M   'P 1 21/c 1'
_atom_sites_solution_hydrogens   geom
_atom_sites_solution_primary     direct
_atom_sites_solution_secondary   difmap
_audit_creation_method           SHELXL-97
_cell_angle_alpha                90.00
_cell_angle_beta                 100.38(6)
_cell_angle_gamma                90.00
_cell_formula_units_Z            4
_cell_length_a                   5.1036(11)
_cell_length_b                   4.8981(10)
_cell_length_c                   21.176(16)
_cell_measurement_pressure       1960000
_cell_measurement_reflns_used    2032
_cell_measurement_temperature    296(2)
_cell_measurement_theta_max      29.18
_cell_measurement_theta_min      4.27
_cell_volume                     520.7(4)
_computing_cell_refinement       'CrysAlis (Oxford Diffraction, 2004)'
_computing_data_collection       'CrysAlis (Oxford Diffraction, 2004)'
_computing_data_reduction        'CrysAlisRED (Oxford Diffraction, 2004)'
_computing_molecular_graphics    'Mercury (Macrae et al., 2008)'
_computing_publication_material  'SHELXL-97 (Sheldrick, 2008)'
_computing_structure_refinement  'SHELXL-97 (Sheldrick, 2008)'
_computing_structure_solution    'SHELXS-97 (Sheldrick, 2008)'
_diffrn_ambient_temperature      296(2)
_diffrn_measured_fraction_theta_full 0.153
_diffrn_measured_fraction_theta_max 0.153
_diffrn_measurement_device_type  'Kuma KM4CCD \k geometry'
_diffrn_measurement_method
;HP omega scans - for more details see:
A. Budzianowski, A. Katrusiak in High-Pressure Crystallography
(Eds.: A. Katrusiak, P. F. McMillan),
Dordrecht: Kluwer Acad. Publ., 2004 pp.157-168
;
_diffrn_radiation_monochromator  graphite
_diffrn_radiation_source         'fine-focus sealed tube'
_diffrn_radiation_type           MoK\a
_diffrn_radiation_wavelength     0.71073
_diffrn_reflns_av_R_equivalents  0.2626
_diffrn_reflns_av_sigmaI/netI    0.1048
_diffrn_reflns_limit_h_max       7
_diffrn_reflns_limit_h_min       -6
_diffrn_reflns_limit_k_max       6
_diffrn_reflns_limit_k_min       -6
_diffrn_reflns_limit_l_max       8
_diffrn_reflns_limit_l_min       -8
_diffrn_reflns_number            2032
_diffrn_reflns_theta_full        29.18
_diffrn_reflns_theta_max         29.18
_diffrn_reflns_theta_min         4.27
_exptl_absorpt_coefficient_mu    0.115
_exptl_absorpt_correction_T_max  0.923
_exptl_absorpt_correction_T_min  0.443
_exptl_absorpt_correction_type   analytical
_exptl_absorpt_process_details
;
Katrusiak, A. (2003). REDSHABS - Program for correcting
reflections intensities for DAC absorption, gasket shadowing
and sample crystal absorption. Adam Mickiewicz University, Pozna\'n.
Katrusiak, A. (2004). Z. Kristallogr. 219, 461-467
;
_exptl_crystal_colour            colourless
_exptl_crystal_density_diffrn    1.558
_exptl_crystal_density_method    'not measured'
_exptl_crystal_description       plate-shaped
_exptl_crystal_F_000             256
_exptl_crystal_size_max          0.38
_exptl_crystal_size_mid          0.37
_exptl_crystal_size_min          0.24
_refine_diff_density_max         0.053
_refine_diff_density_min         -0.068
_refine_diff_density_rms         0.017
_refine_ls_extinction_method     none
_refine_ls_goodness_of_fit_ref   1.301
_refine_ls_hydrogen_treatment    constr
_refine_ls_matrix_type           full
_refine_ls_number_parameters     82
_refine_ls_number_reflns         214
_refine_ls_number_restraints     76
_refine_ls_restrained_S_all      1.158
_refine_ls_R_factor_all          0.1128
_refine_ls_R_factor_gt           0.0765
_refine_ls_shift/su_max          0.000
_refine_ls_shift/su_mean         0.000
_refine_ls_structure_factor_coef Fsqd
_refine_ls_weighting_details
'calc w=1/[\s^2^(Fo^2^)+(0.0000P)^2^+0.1095P] where P=(Fo^2^+2Fc^2^)/3'
_refine_ls_weighting_scheme      calc
_refine_ls_wR_factor_gt          0.0919
_refine_ls_wR_factor_ref         0.1048
_reflns_number_gt                160
_reflns_number_total             214
_reflns_threshold_expression     >2sigma(I)
_cod_data_source_file            c2ce25128k.txt
_cod_data_source_block           benziocacid_1.96GPa(CCDC864021)
_cod_original_sg_symbol_Hall     '-p 2ybc'
_cod_original_sg_symbol_H-M      'P 21/c'
_cod_database_code               7208090
loop_
_symmetry_equiv_pos_as_xyz
'x, y, z'
'-x, y+1/2, -z+1/2'
'-x, -y, -z'
'x, -y-1/2, z-1/2'
loop_
_atom_site_label
_atom_site_type_symbol
_atom_site_fract_x
_atom_site_fract_y
_atom_site_fract_z
_atom_site_U_iso_or_equiv
_atom_site_adp_type
_atom_site_occupancy
_atom_site_symmetry_multiplicity
_atom_site_calc_flag
_atom_site_refinement_flags
O1 O 0.2307(8) 0.2485(6) 0.0131(6) 0.055(4) Uani 1 1 d U
H6A H 0.1658 0.1192 -0.0089 0.082 Uiso 0.57(9) 1 calc PR
O2 O -0.1120(6) 0.1487(6) 0.0620(5) 0.053(4) Uani 1 1 d U
H6 H -0.1352 0.0321 0.0337 0.080 Uiso 0.43(9) 1 calc PR
C1 C 0.0952(12) 0.2951(10) 0.0566(9) 0.045(4) Uani 1 1 d U
C2 C 0.1795(11) 0.5086(10) 0.1041(10) 0.045(3) Uani 1 1 d U
C3 C 0.3910(11) 0.6779(10) 0.1009(9) 0.052(4) Uani 1 1 d U
H1 H 0.4899 0.6516 0.0686 0.062 Uiso 1 1 calc R
C4 C 0.4594(13) 0.8829(9) 0.1439(10) 0.045(4) Uani 1 1 d U
H2 H 0.5950 1.0031 0.1388 0.054 Uiso 1 1 calc R
C5 C 0.3266(10) 0.9142(9) 0.1960(8) 0.049(4) Uani 1 1 d U
H3 H 0.3801 1.0516 0.2258 0.059 Uiso 1 1 calc R
C6 C 0.1188(14) 0.7458(9) 0.2037(8) 0.052(4) Uani 1 1 d DU
H4 H 0.0336 0.7622 0.2389 0.063 Uiso 1 1 calc R
C7 C 0.0401(11) 0.5438(9) 0.1550(9) 0.045(4) Uani 1 1 d DU
H5 H -0.1064 0.4336 0.1571 0.054 Uiso 1 1 calc R
loop_
_atom_site_aniso_label
_atom_site_aniso_U_11
_atom_site_aniso_U_22
_atom_site_aniso_U_33
_atom_site_aniso_U_23
_atom_site_aniso_U_13
_atom_site_aniso_U_12
O1 0.068(3) 0.049(2) 0.048(11) -0.001(4) 0.012(6) -0.0037(18)
O2 0.047(3) 0.053(2) 0.056(12) -0.011(5) 0.000(5) -0.0112(18)
C1 0.050(4) 0.041(3) 0.046(11) 0.009(5) 0.011(6) 0.010(2)
C2 0.047(3) 0.035(2) 0.052(10) -0.002(5) 0.007(6) 0.000(2)
C3 0.055(4) 0.047(2) 0.054(11) -0.004(6) 0.014(6) -0.003(3)
C4 0.039(3) 0.047(2) 0.047(11) 0.002(6) 0.001(6) -0.005(2)
C5 0.048(4) 0.050(3) 0.049(11) -0.002(5) 0.008(7) 0.008(2)
C6 0.063(4) 0.044(3) 0.053(11) -0.002(5) 0.019(7) -0.003(2)
C7 0.044(3) 0.043(3) 0.044(10) 0.004(5) -0.002(6) 0.012(2)
loop_
_atom_type_symbol
_atom_type_description
_atom_type_scat_dispersion_real
_atom_type_scat_dispersion_imag
_atom_type_scat_source
C C 0.0033 0.0016 'International Tables Vol C Tables 4.2.6.8 and 6.1.1.4'
H H 0.0000 0.0000 'International Tables Vol C Tables 4.2.6.8 and 6.1.1.4'
O O 0.0106 0.0060 'International Tables Vol C Tables 4.2.6.8 and 6.1.1.4'
loop_
_geom_angle_atom_site_label_1
_geom_angle_atom_site_label_2
_geom_angle_atom_site_label_3
_geom_angle
C1 O1 H6A 109.5
C1 O2 H6 109.5
O1 C1 O2 121.5(10)
O1 C1 C2 119.8(6)
O2 C1 C2 118.6(11)
C3 C2 C7 118.3(13)
C3 C2 C1 122.4(14)
C7 C2 C1 119.2(6)
C2 C3 C4 121.6(13)
C2 C3 H1 119.2
C4 C3 H1 119.2
C3 C4 C5 120.4(6)
C3 C4 H2 119.8
C5 C4 H2 119.8
C6 C5 C4 121.4(11)
C6 C5 H3 119.3
C4 C5 H3 119.3
C5 C6 C7 116.7(12)
C5 C6 H4 121.7
C7 C6 H4 121.7
C6 C7 C2 121.5(6)
C6 C7 H5 119.3
C2 C7 H5 119.3
loop_
_geom_bond_atom_site_label_1
_geom_bond_atom_site_label_2
_geom_bond_distance
O1 C1 1.270(16)
O1 H6A 0.8200
O2 C1 1.299(6)
O2 H6 0.8200
C1 C2 1.460(17)
C2 C3 1.372(7)
C2 C7 1.40(2)
C3 C4 1.358(15)
C3 H1 0.9300
C4 C5 1.40(2)
C4 H2 0.9300
C5 C6 1.377(6)
C5 H3 0.9300
C6 C7 1.434(19)
C6 H4 0.9300
C7 H5 0.9300
loop_
_geom_torsion_atom_site_label_1
_geom_torsion_atom_site_label_2
_geom_torsion_atom_site_label_3
_geom_torsion_atom_site_label_4
_geom_torsion
O1 C1 C2 C3 5.0(18)
O2 C1 C2 C3 -178.0(9)
O1 C1 C2 C7 -175.1(11)
O2 C1 C2 C7 2.0(16)
C7 C2 C3 C4 -2.8(17)
C1 C2 C3 C4 177.1(9)
C2 C3 C4 C5 4.8(17)
C3 C4 C5 C6 -2.3(17)
C4 C5 C6 C7 -2.0(16)
C5 C6 C7 C2 3.9(15)
C3 C2 C7 C6 -1.6(16)
C1 C2 C7 C6 178.4(10)
