#------------------------------------------------------------------------------
#$Date: 2016-03-26 18:08:36 +0200 (Sat, 26 Mar 2016) $
#$Revision: 180413 $
#$URL: svn://www.crystallography.net/cod/cif/7/20/82/7208271.cif $
#------------------------------------------------------------------------------
#
# This file is available in the Crystallography Open Database (COD),
# http://www.crystallography.net/
#
# All data on this site have been placed in the public domain by the
# contributors.
#
data_7208271
loop_
_publ_author_name
'Montis, Riccardo'
'Hursthouse, Michael B.'
_publ_section_title
;
 Surprisingly complex supramolecular behaviour in the crystal structures
 of a family of mono-substituted salicylic acids
;
_journal_issue                   16
_journal_name_full               CrystEngComm
_journal_page_first              5242
_journal_paper_doi               10.1039/c2ce25336d
_journal_volume                  14
_journal_year                    2012
_chemical_formula_moiety         'C7 H5 Cl O3, H2 O'
_chemical_formula_sum            'C7 H7 Cl O4'
_chemical_formula_weight         190.58
_chemical_name_common
;
5-chloro-2-hydroxobenzoic acid monohydrate
;
_chemical_name_systematic
;
5-chloro-2-hydroxobenzoic acid monohydrate
;
_space_group_IT_number           2
_symmetry_cell_setting           triclinic
_symmetry_space_group_name_Hall  '-P 1'
_symmetry_space_group_name_H-M   'P -1'
_atom_sites_solution_hydrogens   geom
_atom_sites_solution_primary     direct
_atom_sites_solution_secondary   difmap
_audit_creation_method           SHELXL-97
_cell_angle_alpha                80.768(2)
_cell_angle_beta                 87.719(3)
_cell_angle_gamma                83.755(3)
_cell_formula_units_Z            2
_cell_length_a                   3.72890(10)
_cell_length_b                   8.2430(4)
_cell_length_c                   13.0565(7)
_cell_measurement_reflns_used    6550
_cell_measurement_temperature    120(2)
_cell_measurement_theta_max      27.48
_cell_measurement_theta_min      2.91
_cell_volume                     393.67(3)
_computing_cell_refinement
'DENZO (Otwinowski & Minor, 1997) & COLLECT (Hooft, R.W.W., 1998)'
_computing_data_collection       'COLLECT (Hooft, R.W.W., 1998)'
_computing_data_reduction
'DENZO (Otwinowski & Minor, 1997) & COLLECT (Hooft, R.W.W., 1998)'
_computing_structure_refinement  'SHELXL-97 (Sheldrick, 1997)'
_computing_structure_solution    'SHELXS-97 (Sheldrick, 1990)'
_diffrn_ambient_temperature      120(2)
_diffrn_detector_area_resol_mean 9.091
_diffrn_measured_fraction_theta_full 0.994
_diffrn_measured_fraction_theta_max 0.994
_diffrn_measurement_device_type
'Bruker-Nonius Roper CCD camera on \k-goniostat'
_diffrn_measurement_method       '\f & \w scans'
_diffrn_radiation_monochromator  graphite
_diffrn_radiation_source         'Bruker-Nonius FR591 rotating anode'
_diffrn_radiation_type           MoK\a
_diffrn_radiation_wavelength     0.71073
_diffrn_reflns_av_R_equivalents  0.0313
_diffrn_reflns_av_sigmaI/netI    0.0317
_diffrn_reflns_limit_h_max       4
_diffrn_reflns_limit_h_min       -4
_diffrn_reflns_limit_k_max       10
_diffrn_reflns_limit_k_min       -10
_diffrn_reflns_limit_l_max       16
_diffrn_reflns_limit_l_min       -16
_diffrn_reflns_number            7078
_diffrn_reflns_theta_full        27.50
_diffrn_reflns_theta_max         27.50
_diffrn_reflns_theta_min         3.16
_exptl_absorpt_coefficient_mu    0.454
_exptl_absorpt_correction_T_max  0.9434
_exptl_absorpt_correction_T_min  0.8394
_exptl_absorpt_correction_type   multi-scan
_exptl_absorpt_process_details   'SADABS 2007/2 (Sheldrick, G.M., 2007)'
_exptl_crystal_colour            Colourless
_exptl_crystal_density_diffrn    1.608
_exptl_crystal_density_method    'not measured'
_exptl_crystal_description       Block
_exptl_crystal_F_000             196
_exptl_crystal_size_max          0.40
_exptl_crystal_size_mid          0.13
_exptl_crystal_size_min          0.13
_refine_diff_density_max         0.263
_refine_diff_density_min         -0.241
_refine_diff_density_rms         0.057
_refine_ls_extinction_method     none
_refine_ls_goodness_of_fit_ref   1.076
_refine_ls_hydrogen_treatment    mixed
_refine_ls_matrix_type           full
_refine_ls_number_parameters     137
_refine_ls_number_reflns         1796
_refine_ls_number_restraints     0
_refine_ls_restrained_S_all      1.076
_refine_ls_R_factor_all          0.0342
_refine_ls_R_factor_gt           0.0304
_refine_ls_shift/su_max          0.001
_refine_ls_shift/su_mean         0.000
_refine_ls_structure_factor_coef Fsqd
_refine_ls_weighting_details
'calc w=1/[\s^2^(Fo^2^)+(0.0336P)^2^+0.1787P] where P=(Fo^2^+2Fc^2^)/3'
_refine_ls_weighting_scheme      calc
_refine_ls_wR_factor_gt          0.0750
_refine_ls_wR_factor_ref         0.0776
_reflns_number_gt                1643
_reflns_number_total             1796
_reflns_threshold_expression     >2\s(I)
_cod_data_source_file            c2ce25336d.txt
_cod_data_source_block           5-chlorosalicylic_acid_monohydrate
_cod_original_sg_symbol_H-M      P-1
_cod_database_code               7208271
loop_
_symmetry_equiv_pos_as_xyz
'x, y, z'
'-x, -y, -z'
loop_
_atom_site_label
_atom_site_type_symbol
_atom_site_fract_x
_atom_site_fract_y
_atom_site_fract_z
_atom_site_U_iso_or_equiv
_atom_site_adp_type
_atom_site_occupancy
_atom_site_symmetry_multiplicity
_atom_site_calc_flag
H3 H 0.682(5) 1.136(2) 0.2489(14) 0.023(4) Uiso 1 1 d
H3A H 0.378(6) 0.920(3) 0.0791(19) 0.052(7) Uiso 1 1 d
H4 H 0.819(5) 1.021(2) 0.4210(13) 0.021(4) Uiso 1 1 d
H4A H 0.193(6) 0.227(3) 0.0983(17) 0.045(6) Uiso 1 1 d
H4B H -0.033(6) 0.337(3) 0.0447(18) 0.039(6) Uiso 1 1 d
H6 H 0.566(4) 0.573(2) 0.3712(13) 0.022(4) Uiso 1 1 d
H1A H 0.229(7) 0.443(3) 0.1726(19) 0.056(7) Uiso 1 1 d
C1 C 0.4954(3) 0.75304(16) 0.24461(10) 0.0127(3) Uani 1 1 d
C2 C 0.5317(3) 0.92097(17) 0.20883(10) 0.0143(3) Uani 1 1 d
C3 C 0.6513(4) 1.01926(17) 0.27513(11) 0.0158(3) Uani 1 1 d
C4 C 0.7350(3) 0.95172(17) 0.37649(11) 0.0147(3) Uani 1 1 d
C5 C 0.7023(3) 0.78515(16) 0.41157(10) 0.0128(3) Uani 1 1 d
C6 C 0.5837(3) 0.68556(16) 0.34723(10) 0.0132(3) Uani 1 1 d
C7 C 0.3558(3) 0.65132(16) 0.17476(10) 0.0148(3) Uani 1 1 d
O1 O 0.3223(3) 0.49779(12) 0.21598(8) 0.0204(2) Uani 1 1 d
O2 O 0.2738(3) 0.70866(12) 0.08455(8) 0.0217(2) Uani 1 1 d
O3 O 0.4519(3) 0.99381(13) 0.10998(8) 0.0198(2) Uani 1 1 d
O4 O 0.0703(3) 0.31578(14) 0.09894(9) 0.0241(3) Uani 1 1 d
Cl1 Cl 0.81380(8) 0.70188(4) 0.53879(2) 0.01680(12) Uani 1 1 d
loop_
_atom_site_aniso_label
_atom_site_aniso_U_11
_atom_site_aniso_U_22
_atom_site_aniso_U_33
_atom_site_aniso_U_23
_atom_site_aniso_U_13
_atom_site_aniso_U_12
C1 0.0118(6) 0.0140(6) 0.0133(6) -0.0052(5) 0.0005(5) -0.0015(5)
C2 0.0144(6) 0.0161(6) 0.0124(6) -0.0029(5) 0.0002(5) -0.0008(5)
C3 0.0172(7) 0.0133(6) 0.0176(7) -0.0034(5) 0.0005(5) -0.0038(5)
C4 0.0136(6) 0.0164(6) 0.0162(7) -0.0074(5) -0.0010(5) -0.0033(5)
C5 0.0115(6) 0.0153(6) 0.0119(6) -0.0025(5) -0.0008(4) -0.0014(5)
C6 0.0125(6) 0.0121(6) 0.0155(6) -0.0039(5) 0.0005(5) -0.0019(5)
C7 0.0143(6) 0.0161(6) 0.0150(7) -0.0059(5) -0.0003(5) -0.0011(5)
O1 0.0323(6) 0.0139(5) 0.0168(5) -0.0045(4) -0.0064(4) -0.0057(4)
O2 0.0323(6) 0.0200(5) 0.0140(5) -0.0038(4) -0.0066(4) -0.0053(4)
O3 0.0315(6) 0.0152(5) 0.0133(5) -0.0012(4) -0.0047(4) -0.0051(4)
O4 0.0346(6) 0.0180(5) 0.0220(6) -0.0085(4) -0.0125(5) -0.0009(5)
Cl1 0.0213(2) 0.01722(18) 0.01276(18) -0.00278(12) -0.00505(12) -0.00359(12)
loop_
_atom_type_symbol
_atom_type_description
_atom_type_scat_dispersion_real
_atom_type_scat_dispersion_imag
_atom_type_scat_source
C C 0.0033 0.0016 'International Tables Vol C Tables 4.2.6.8 and 6.1.1.4'
H H 0.0000 0.0000 'International Tables Vol C Tables 4.2.6.8 and 6.1.1.4'
O O 0.0106 0.0060 'International Tables Vol C Tables 4.2.6.8 and 6.1.1.4'
Cl Cl 0.1484 0.1585 'International Tables Vol C Tables 4.2.6.8 and 6.1.1.4'
loop_
_geom_angle_atom_site_label_1
_geom_angle_atom_site_label_2
_geom_angle_atom_site_label_3
_geom_angle
C6 C1 C2 119.40(12)
C6 C1 C7 120.88(12)
C2 C1 C7 119.71(12)
O3 C2 C3 117.55(12)
O3 C2 C1 122.29(12)
C3 C2 C1 120.15(12)
C4 C3 C2 119.97(12)
C4 C3 H3 120.5(10)
C2 C3 H3 119.6(10)
C3 C4 C5 119.85(12)
C3 C4 H4 118.9(10)
C5 C4 H4 121.2(10)
C6 C5 C4 121.14(12)
C6 C5 Cl1 119.67(10)
C4 C5 Cl1 119.20(10)
C5 C6 C1 119.49(12)
C5 C6 H6 120.5(11)
C1 C6 H6 120.0(11)
O2 C7 O1 122.92(12)
O2 C7 C1 121.88(12)
O1 C7 C1 115.20(12)
C7 O1 H1A 112.1(16)
C2 O3 H3A 107.1(16)
H4A O4 H4B 107(2)
loop_
_geom_bond_atom_site_label_1
_geom_bond_atom_site_label_2
_geom_bond_distance
C1 C6 1.4033(18)
C1 C2 1.4075(18)
C1 C7 1.4777(18)
C2 O3 1.3630(16)
C2 C3 1.3924(19)
C3 C4 1.3848(19)
C3 H3 0.985(18)
C4 C5 1.3928(19)
C4 H4 0.959(18)
C5 C6 1.3802(18)
C5 Cl1 1.7407(13)
C6 H6 0.936(18)
C7 O2 1.2340(17)
C7 O1 1.3105(16)
O1 H1A 0.88(3)
O3 H3A 0.86(3)
O4 H4A 0.82(2)
O4 H4B 0.81(2)
loop_
_geom_hbond_atom_site_label_D
_geom_hbond_atom_site_label_H
_geom_hbond_atom_site_label_A
_geom_hbond_distance_DH
_geom_hbond_distance_HA
_geom_hbond_distance_DA
_geom_hbond_angle_DHA
_geom_hbond_site_symmetry_A
O4 H4A O3 0.82(2) 2.04(2) 2.8568(16) 173(2) 1_545
O4 H4B O2 0.81(2) 2.05(2) 2.8077(15) 157(2) 2_565
O1 H1A O4 0.88(3) 1.70(3) 2.5739(14) 173(2) .
O3 H3A O2 0.86(3) 1.81(2) 2.5854(14) 149(2) .
loop_
_geom_torsion_atom_site_label_1
_geom_torsion_atom_site_label_2
_geom_torsion_atom_site_label_3
_geom_torsion_atom_site_label_4
_geom_torsion
C6 C1 C2 O3 179.71(11)
C7 C1 C2 O3 -1.94(19)
C6 C1 C2 C3 -0.5(2)
C7 C1 C2 C3 177.80(12)
O3 C2 C3 C4 179.81(12)
C1 C2 C3 C4 0.1(2)
C2 C3 C4 C5 0.6(2)
C3 C4 C5 C6 -0.7(2)
C3 C4 C5 Cl1 179.27(10)
C4 C5 C6 C1 0.2(2)
Cl1 C5 C6 C1 -179.77(9)
C2 C1 C6 C5 0.44(19)
C7 C1 C6 C5 -177.89(11)
C6 C1 C7 O2 179.40(12)
C2 C1 C7 O2 1.1(2)
C6 C1 C7 O1 0.14(18)
C2 C1 C7 O1 -178.18(11)
