#------------------------------------------------------------------------------
#$Date: 2016-03-26 18:05:48 +0200 (Sat, 26 Mar 2016) $
#$Revision: 180411 $
#$URL: svn://www.crystallography.net/cod/cif/7/20/80/7208077.cif $
#------------------------------------------------------------------------------
#
# This file is available in the Crystallography Open Database (COD),
# http://www.crystallography.net/
#
# All data on this site have been placed in the public domain by the
# contributors.
#
data_7208077
loop_
_publ_author_name
'Podsiad\/lo, Marcin'
'Bujak, Maciej'
'Katrusiak, Andrzej'
_publ_section_title
;
 Chemistry of density: extension and structural origin of Carnelley's rule
 in chloroethanes
;
_journal_issue                   13
_journal_name_full               CrystEngComm
_journal_page_first              4496
_journal_paper_doi               10.1039/c2ce25097g
_journal_volume                  14
_journal_year                    2012
_chemical_formula_moiety         'C2 H5 Cl'
_chemical_formula_sum            'C2 H5 Cl'
_chemical_formula_weight         64.51
_chemical_melting_point          134
_chemical_name_common            chloroethane
_chemical_name_systematic
;
chloroethane
;
_space_group_IT_number           14
_symmetry_cell_setting           monoclinic
_symmetry_space_group_name_Hall  '-P 2yn'
_symmetry_space_group_name_H-M   'P 1 21/n 1'
_atom_sites_solution_hydrogens   geom
_atom_sites_solution_primary     direct
_atom_sites_solution_secondary   difmap
_audit_creation_method           SHELXL-97
_cell_angle_alpha                90.00
_cell_angle_beta                 98.071(12)
_cell_angle_gamma                90.00
_cell_formula_units_Z            4
_cell_length_a                   5.2815(6)
_cell_length_b                   9.8152(14)
_cell_length_c                   6.7653(9)
_cell_measurement_reflns_used    2697
_cell_measurement_temperature    100.0(1)
_cell_measurement_theta_max      24.99
_cell_measurement_theta_min      3.68
_cell_volume                     347.23(8)
_computing_cell_refinement       'CrysAlisRED (Oxford Diffraction, 2004)'
_computing_data_collection       'CrysAlisCCD (Oxford Diffraction, 2004)'
_computing_data_reduction        'CrysAlisRED (Oxford Diffraction, 2004)'
_computing_molecular_graphics    'SHELXTL (Sheldrick, 1990)'
_computing_publication_material  'SHELXL--97 (Sheldrick, 1997)'
_computing_structure_refinement  'SHELXL--97 (Sheldrick, 1997)'
_computing_structure_solution    'SHELXS--97 (Sheldrick, 1997)'
_diffrn_ambient_pressure         100
_diffrn_ambient_temperature      100.0(1)
_diffrn_measured_fraction_theta_full 1.000
_diffrn_measured_fraction_theta_max 1.000
_diffrn_measurement_device_type  'KM-4 CCD'
_diffrn_measurement_method       \w-scans
_diffrn_radiation_monochromator  graphite
_diffrn_radiation_source         'fine-focus sealed tube'
_diffrn_radiation_type           MoK\a
_diffrn_radiation_wavelength     0.71073
_diffrn_reflns_av_R_equivalents  0.0726
_diffrn_reflns_av_sigmaI/netI    0.0383
_diffrn_reflns_limit_h_max       6
_diffrn_reflns_limit_h_min       -6
_diffrn_reflns_limit_k_max       11
_diffrn_reflns_limit_k_min       -11
_diffrn_reflns_limit_l_max       7
_diffrn_reflns_limit_l_min       -8
_diffrn_reflns_number            2344
_diffrn_reflns_theta_full        24.99
_diffrn_reflns_theta_max         24.99
_diffrn_reflns_theta_min         3.68
_diffrn_standards_decay_%        0
_diffrn_standards_interval_count 0
_diffrn_standards_number         0
_exptl_absorpt_coefficient_mu    0.811
_exptl_absorpt_correction_T_max  0.85
_exptl_absorpt_correction_T_min  0.85
_exptl_absorpt_correction_type   numerical
_exptl_absorpt_process_details
;
Correction for absorption was made using XEMP (SHELXTL,
Sheldrick (1990)).
;
_exptl_crystal_colour            colourless
_exptl_crystal_density_diffrn    1.234
_exptl_crystal_density_method    'not measured'
_exptl_crystal_description       irregular
_exptl_crystal_F_000             136
_exptl_crystal_size_max          0.20
_exptl_crystal_size_mid          0.20
_exptl_crystal_size_min          0.20
_refine_diff_density_max         0.678
_refine_diff_density_min         -0.337
_refine_diff_density_rms         0.108
_refine_ls_extinction_method     none
_refine_ls_goodness_of_fit_ref   0.999
_refine_ls_hydrogen_treatment    mixed
_refine_ls_matrix_type           full
_refine_ls_number_parameters     48
_refine_ls_number_reflns         609
_refine_ls_number_restraints     0
_refine_ls_restrained_S_all      0.999
_refine_ls_R_factor_all          0.0602
_refine_ls_R_factor_gt           0.0552
_refine_ls_shift/su_max          0.000
_refine_ls_shift/su_mean         0.000
_refine_ls_structure_factor_coef Fsqd
_refine_ls_weighting_details
'calc w=1/[\s^2^(Fo^2^)+(0.1180P)^2^+0.0000P] where P=(Fo^2^+2Fc^2^)/3'
_refine_ls_weighting_scheme      calc
_refine_ls_wR_factor_gt          0.1391
_refine_ls_wR_factor_ref         0.1433
_reflns_number_gt                518
_reflns_number_total             609
_reflns_threshold_expression     >2sigma(I)
_cod_data_source_file            c2ce25097g.txt
_cod_data_source_block           4ce_100K
_cod_original_sg_symbol_H-M      P21/n
_cod_database_code               7208077
loop_
_symmetry_equiv_pos_as_xyz
'x, y, z'
'-x+1/2, y+1/2, -z+1/2'
'-x, -y, -z'
'x-1/2, -y-1/2, z-1/2'
loop_
_atom_site_label
_atom_site_type_symbol
_atom_site_fract_x
_atom_site_fract_y
_atom_site_fract_z
_atom_site_U_iso_or_equiv
_atom_site_adp_type
_atom_site_occupancy
_atom_site_symmetry_multiplicity
_atom_site_calc_flag
Cl1 Cl 0.21640(12) 0.94039(7) 0.80632(10) 0.0401(4) Uani 1 1 d
C1 C -0.0951(5) 0.8722(4) 0.7152(5) 0.0378(7) Uani 1 1 d
H11 H -0.090(8) 0.856(4) 0.579(7) 0.061(11) Uiso 1 1 d
H12 H -0.209(9) 0.945(5) 0.727(8) 0.068(16) Uiso 1 1 d
C2 C -0.1500(6) 0.7489(3) 0.8268(5) 0.0382(7) Uani 1 1 d
H21 H -0.300(9) 0.715(5) 0.774(6) 0.054(11) Uiso 1 1 d
H22 H -0.022(10) 0.680(5) 0.812(7) 0.073(12) Uiso 1 1 d
H23 H -0.147(6) 0.766(3) 0.963(6) 0.037(8) Uiso 1 1 d
loop_
_atom_site_aniso_label
_atom_site_aniso_U_11
_atom_site_aniso_U_22
_atom_site_aniso_U_33
_atom_site_aniso_U_23
_atom_site_aniso_U_13
_atom_site_aniso_U_12
Cl1 0.0370(6) 0.0416(7) 0.0426(6) -0.0039(3) 0.0091(4) -0.0064(2)
C1 0.0316(15) 0.0429(19) 0.0374(16) 0.0060(13) -0.0003(11) -0.0005(12)
C2 0.0399(17) 0.0274(16) 0.0436(18) 0.0013(12) -0.0068(14) -0.0015(12)
loop_
_atom_type_symbol
_atom_type_description
_atom_type_scat_dispersion_real
_atom_type_scat_dispersion_imag
_atom_type_scat_source
C C 0.0033 0.0016 'International Tables Vol C Tables 4.2.6.8 and 6.1.1.4'
H H 0.0000 0.0000 'International Tables Vol C Tables 4.2.6.8 and 6.1.1.4'
Cl Cl 0.1484 0.1585 'International Tables Vol C Tables 4.2.6.8 and 6.1.1.4'
loop_
_geom_angle_atom_site_label_1
_geom_angle_atom_site_label_2
_geom_angle_atom_site_label_3
_geom_angle
C2 C1 Cl1 111.4(2)
C2 C1 H11 113(2)
Cl1 C1 H11 104(3)
C2 C1 H12 114(3)
Cl1 C1 H12 104(3)
H11 C1 H12 109(4)
C1 C2 H21 109(3)
C1 C2 H22 109(3)
H21 C2 H22 107(4)
C1 C2 H23 112.4(19)
H21 C2 H23 111(3)
H22 C2 H23 108(3)
loop_
_geom_bond_atom_site_label_1
_geom_bond_atom_site_label_2
_geom_bond_distance
Cl1 C1 1.803(3)
C1 C2 1.476(5)
C1 H11 0.94(4)
C1 H12 0.95(5)
C2 H21 0.88(5)
C2 H22 0.97(5)
C2 H23 0.93(4)
loop_
_refln_index_h
_refln_index_k
_refln_index_l
_refln_F_squared_calc
_refln_F_squared_meas
_refln_F_squared_sigma
_refln_observed_status
2 0 0 1683.99 1707.86 41.13 o
4 0 0 41.82 40.36 1.10 o
6 0 0 14.41 23.77 4.28 o
1 1 0 574.32 575.46 19.57 o
2 1 0 310.14 300.36 9.08 o
3 1 0 384.15 369.23 12.09 o
4 1 0 34.86 32.21 1.32 o
5 1 0 99.75 113.51 2.73 o
6 1 0 33.77 38.89 1.60 o
0 2 0 266.26 370.69 1.21 o
1 2 0 573.02 563.85 26.06 o
2 2 0 570.98 548.60 19.22 o
3 2 0 597.45 529.92 13.19 o
4 2 0 201.73 196.21 6.68 o
5 2 0 24.11 27.45 3.45 o
6 2 0 12.93 16.93 1.69 o
1 3 0 14.06 11.45 0.73 o
2 3 0 260.94 225.90 9.85 o
3 3 0 33.71 31.08 1.12 o
4 3 0 316.48 281.01 15.16 o
5 3 0 71.94 72.22 3.43 o
6 3 0 57.41 79.86 2.75 o
0 4 0 26.63 32.03 1.79 o
1 4 0 1309.14 1605.66 93.14 o
2 4 0 80.26 66.03 7.69 o
3 4 0 348.72 330.92 17.91 o
4 4 0 0.23 0.00 0.65 o
5 4 0 43.03 46.01 1.76 o
1 5 0 41.07 43.39 4.22 o
2 5 0 79.44 96.41 6.05 o
3 5 0 7.47 6.20 0.73 o
4 5 0 53.84 50.33 3.15 o
5 5 0 0.17 0.00 0.95 o
0 6 0 634.94 786.19 3.99 o
1 6 0 596.28 628.37 34.11 o
2 6 0 283.63 312.51 15.43 o
3 6 0 43.71 38.83 1.99 o
4 6 0 18.69 17.56 1.10 o
5 6 0 13.05 11.84 1.19 o
1 7 0 0.01 0.62 1.12 o
2 7 0 164.05 166.35 10.82 o
3 7 0 53.16 53.37 1.84 o
4 7 0 40.71 40.73 1.91 o
0 8 0 86.75 122.09 4.31 o
1 8 0 2.75 2.46 1.14 o
2 8 0 221.57 257.77 3.98 o
3 8 0 1.37 0.43 0.89 o
4 8 0 132.63 154.05 3.56 o
1 9 0 2.53 1.11 2.03 o
2 9 0 40.63 35.52 2.15 o
3 9 0 43.10 44.39 1.72 o
0 10 0 221.29 287.96 6.82 o
1 10 0 67.34 80.95 14.22 o
2 10 0 78.79 64.76 8.46 o
3 10 0 8.64 8.85 1.43 o
1 11 0 9.19 12.11 3.02 o
2 11 0 0.58 1.57 1.18 o
-5 0 1 14.78 14.51 1.56 o
-3 0 1 567.69 548.47 5.38 o
-1 0 1 237.07 293.28 4.94 o
1 0 1 702.79 839.32 3.30 o
3 0 1 1618.01 1479.06 38.85 o
5 0 1 201.90 172.72 6.03 o
-6 1 1 111.41 136.88 2.79 o
-5 1 1 23.04 22.85 1.45 o
-4 1 1 499.95 498.66 4.33 o
-3 1 1 245.58 184.92 17.74 o
-2 1 1 404.72 375.07 19.88 o
-1 1 1 728.42 738.07 17.81 o
0 1 1 194.22 252.01 11.60 o
1 1 1 630.69 733.29 11.60 o
2 1 1 48.27 55.20 1.32 o
3 1 1 87.88 94.91 8.02 o
4 1 1 111.08 100.29 4.33 o
5 1 1 2.11 4.72 1.04 o
6 1 1 67.10 69.29 8.43 o
-6 2 1 7.16 9.28 1.86 o
-5 2 1 1.68 1.21 1.11 o
-4 2 1 9.53 11.27 1.18 o
-3 2 1 164.77 126.12 4.08 o
-2 2 1 179.72 159.03 14.87 o
-1 2 1 2506.65 2615.28 49.12 o
0 2 1 2743.40 2763.26 27.25 o
1 2 1 1768.13 1837.75 52.46 o
2 2 1 646.97 740.12 35.42 o
3 2 1 162.10 144.58 1.67 o
4 2 1 52.54 46.14 4.09 o
5 2 1 19.46 20.12 3.82 o
-6 3 1 16.24 18.29 1.66 o
-5 3 1 89.61 99.00 2.65 o
-4 3 1 31.87 29.08 1.65 o
-3 3 1 208.15 194.06 10.74 o
-2 3 1 281.81 251.04 11.53 o
-1 3 1 933.82 912.12 26.48 o
0 3 1 130.01 134.50 2.03 o
1 3 1 181.65 221.01 2.11 o
2 3 1 101.35 121.07 3.75 o
3 3 1 16.51 17.52 0.93 o
4 3 1 9.29 8.90 1.09 o
5 3 1 44.63 41.45 9.11 o
-5 4 1 7.64 7.67 0.89 o
-4 4 1 49.36 49.79 1.23 o
-3 4 1 66.26 56.71 1.39 o
-2 4 1 562.14 525.96 5.34 o
-1 4 1 57.51 51.11 1.57 o
0 4 1 1652.51 1826.81 111.38 o
1 4 1 35.65 44.22 3.43 o
2 4 1 904.14 1068.83 31.20 o
3 4 1 0.06 0.17 0.73 o
4 4 1 245.03 275.51 5.07 o
5 4 1 4.89 1.45 1.19 o
-5 5 1 228.96 247.69 8.73 o
-4 5 1 42.94 38.20 2.31 o
-3 5 1 562.85 556.10 8.53 o
-2 5 1 1.29 0.68 0.49 o
-1 5 1 95.34 70.45 8.26 o
0 5 1 5.91 5.57 0.78 o
1 5 1 0.10 0.59 1.04 o
2 5 1 24.42 22.20 1.95 o
3 5 1 59.19 62.91 4.73 o
4 5 1 4.47 4.27 0.75 o
5 5 1 63.22 46.39 3.94 o
-5 6 1 21.41 21.42 1.72 o
-4 6 1 29.06 30.95 1.01 o
-3 6 1 31.82 28.53 1.98 o
-2 6 1 264.91 251.91 9.67 o
-1 6 1 38.78 39.25 2.71 o
0 6 1 157.28 205.36 9.01 o
1 6 1 175.50 188.44 17.29 o
2 6 1 310.75 311.03 9.25 o
3 6 1 198.88 183.83 3.83 o
4 6 1 138.97 139.32 5.25 o
5 6 1 58.81 57.44 2.53 o
-5 7 1 26.91 22.17 2.03 o
-4 7 1 62.96 54.61 4.32 o
-3 7 1 10.91 8.88 0.65 o
-2 7 1 206.41 203.14 12.32 o
-1 7 1 9.80 9.63 0.65 o
0 7 1 72.81 93.99 4.63 o
1 7 1 65.64 45.82 11.08 o
2 7 1 15.16 14.17 1.58 o
3 7 1 0.05 0.02 0.64 o
4 7 1 7.74 9.55 1.12 o
-4 8 1 1.21 0.39 1.05 o
-3 8 1 28.41 30.09 1.34 o
-2 8 1 0.36 0.76 0.88 o
-1 8 1 456.76 490.67 4.58 o
0 8 1 14.93 11.55 3.15 o
1 8 1 497.01 645.32 53.44 o
2 8 1 6.92 7.07 1.47 o
3 8 1 46.52 48.35 2.41 o
4 8 1 0.00 0.00 1.15 o
-3 9 1 2.26 1.40 0.88 o
-2 9 1 114.65 117.96 15.91 o
-1 9 1 2.49 1.97 0.98 o
0 9 1 27.39 34.98 3.28 o
1 9 1 49.08 64.08 6.86 o
2 9 1 7.40 7.05 2.11 o
3 9 1 16.72 18.68 1.80 o
-3 10 1 12.88 7.21 2.92 o
-2 10 1 40.30 29.72 3.65 o
-1 10 1 21.55 28.12 2.54 o
0 10 1 16.77 21.21 2.47 o
1 10 1 57.64 72.57 3.13 o
2 10 1 42.56 59.79 7.19 o
3 10 1 81.64 78.36 8.11 o
-2 11 1 7.30 9.01 3.14 o
-1 11 1 12.45 15.78 2.70 o
0 11 1 1.53 1.03 2.36 o
1 11 1 0.19 0.00 2.27 o
-6 0 2 12.92 16.45 1.86 o
-4 0 2 0.13 0.58 1.13 o
-2 0 2 384.71 421.91 50.45 o
0 0 2 4295.47 5826.87 47.49 o
2 0 2 828.45 781.26 34.66 o
4 0 2 89.74 92.49 8.42 o
-6 1 2 9.23 10.04 1.25 o
-5 1 2 159.01 174.84 3.62 o
-4 1 2 59.40 50.78 1.52 o
-3 1 2 676.33 644.90 9.51 o
-2 1 2 48.40 34.40 2.92 o
-1 1 2 2068.98 2062.12 24.58 o
0 1 2 458.25 594.32 26.71 o
1 1 2 260.95 267.33 12.66 o
2 1 2 269.55 302.68 3.28 o
3 1 2 4.02 3.68 0.85 o
4 1 2 10.71 10.11 1.37 o
5 1 2 3.38 7.45 0.97 o
-6 2 2 3.13 6.94 1.41 o
-5 2 2 12.99 12.44 1.32 o
-4 2 2 0.59 0.58 0.72 o
-3 2 2 110.38 91.11 3.41 o
-2 2 2 7.78 6.45 0.70 o
-1 2 2 366.57 442.41 13.30 o
0 2 2 336.02 392.24 8.78 o
1 2 2 146.96 146.16 2.82 o
2 2 2 809.51 742.96 12.51 o
3 2 2 421.47 458.50 4.84 o
4 2 2 268.71 269.98 3.78 o
5 2 2 78.26 79.05 2.93 o
-6 3 2 84.11 101.34 3.20 o
-5 3 2 62.23 64.62 1.83 o
-4 3 2 576.96 555.06 7.05 o
-3 3 2 161.62 142.37 8.96 o
-2 3 2 541.10 467.02 22.11 o
-1 3 2 43.11 38.35 1.50 o
0 3 2 70.92 75.88 6.43 o
1 3 2 63.60 72.54 1.33 o
2 3 2 61.63 56.28 3.51 o
3 3 2 7.90 9.26 0.74 o
4 3 2 0.24 0.40 0.86 o
5 3 2 22.54 28.40 1.91 o
-5 4 2 4.63 3.38 1.01 o
-4 4 2 0.44 0.30 0.75 o
-3 4 2 29.11 23.83 1.14 o
-2 4 2 186.58 174.74 7.01 o
-1 4 2 277.64 223.59 3.72 o
0 4 2 0.10 0.76 0.56 o
1 4 2 710.83 775.10 52.43 o
2 4 2 8.74 6.56 1.15 o
3 4 2 374.36 396.53 8.21 o
4 4 2 1.24 1.69 0.86 o
5 4 2 96.82 94.33 2.68 o
-5 5 2 4.88 4.14 1.07 o
-4 5 2 91.39 81.04 1.42 o
-3 5 2 27.53 26.86 0.86 o
-2 5 2 560.22 501.82 13.19 o
-1 5 2 138.35 119.47 5.32 o
0 5 2 794.01 979.65 9.27 o
1 5 2 3.35 4.35 1.24 o
2 5 2 35.76 32.99 1.86 o
3 5 2 0.19 0.55 1.19 o
4 5 2 8.59 6.46 1.04 o
5 5 2 4.19 3.68 1.05 o
-5 6 2 1.51 2.76 1.02 o
-4 6 2 1.74 1.21 0.74 o
-3 6 2 2.50 1.86 0.63 o
-2 6 2 157.50 128.28 3.64 o
-1 6 2 162.31 140.10 7.75 o
0 6 2 211.07 209.34 14.48 o
1 6 2 462.16 486.09 7.03 o
2 6 2 62.73 61.27 3.13 o
3 6 2 85.82 83.72 2.50 o
4 6 2 24.23 25.79 1.18 o
-4 7 2 56.18 54.76 1.56 o
-3 7 2 196.88 178.36 7.78 o
-2 7 2 124.88 124.56 2.61 o
-1 7 2 108.74 85.10 11.81 o
0 7 2 7.20 6.00 0.64 o
1 7 2 107.21 132.45 22.31 o
2 7 2 26.80 30.56 3.07 o
3 7 2 13.01 11.08 1.47 o
4 7 2 0.27 0.50 0.89 o
-4 8 2 1.24 0.11 0.98 o
-3 8 2 0.08 0.00 0.80 o
-2 8 2 29.28 25.26 2.63 o
-1 8 2 1.45 1.13 1.37 o
0 8 2 53.43 60.53 3.87 o
1 8 2 2.09 1.56 2.00 o
2 8 2 248.71 238.71 5.80 o
3 8 2 4.34 3.67 1.44 o
4 8 2 183.65 234.04 23.51 o
-3 9 2 120.51 140.92 3.39 o
-2 9 2 21.36 24.70 1.73 o
-1 9 2 83.97 79.05 2.84 o
0 9 2 0.28 0.00 2.13 o
1 9 2 46.83 58.20 5.17 o
2 9 2 8.00 10.84 2.56 o
3 9 2 0.95 0.19 1.52 o
-3 10 2 0.00 0.00 1.15 o
-2 10 2 33.35 36.13 2.04 o
-1 10 2 15.86 15.11 2.31 o
0 10 2 90.98 96.61 3.46 o
1 10 2 46.74 60.99 6.05 o
2 10 2 37.72 48.98 9.24 o
-1 11 2 31.72 37.93 3.75 o
0 11 2 62.03 70.68 3.71 o
1 11 2 1.24 2.05 2.35 o
-5 0 3 100.70 101.90 3.86 o
-3 0 3 6.45 6.95 1.88 o
-1 0 3 13.29 16.68 1.49 o
1 0 3 296.06 324.09 3.84 o
3 0 3 671.33 689.97 40.32 o
5 0 3 149.97 159.69 10.75 o
-6 1 3 44.81 52.30 2.86 o
-5 1 3 29.96 34.88 2.01 o
-4 1 3 409.06 442.50 7.11 o
-3 1 3 76.59 54.22 9.88 o
-2 1 3 739.56 617.91 29.86 o
-1 1 3 151.27 172.81 8.36 o
0 1 3 613.98 756.27 30.85 o
1 1 3 0.32 1.63 0.88 o
2 1 3 376.71 362.87 8.79 o
3 1 3 3.93 3.30 0.87 o
4 1 3 7.34 7.85 1.03 o
5 1 3 25.35 44.92 6.02 o
-5 2 3 33.76 38.31 1.59 o
-4 2 3 19.96 17.43 1.35 o
-3 2 3 2.06 1.61 0.35 o
-2 2 3 19.09 19.38 0.74 o
-1 2 3 169.65 221.11 13.07 o
0 2 3 312.75 376.12 15.71 o
1 2 3 123.77 120.37 7.84 o
2 2 3 263.41 220.40 3.81 o
3 2 3 75.56 70.21 1.41 o
4 2 3 30.78 30.73 1.63 o
5 2 3 48.60 49.09 1.97 o
-5 3 3 53.43 62.92 1.93 o
-4 3 3 20.38 19.87 0.90 o
-3 3 3 350.81 331.50 3.78 o
-2 3 3 180.82 164.59 6.11 o
-1 3 3 1569.57 2014.08 100.25 o
0 3 3 301.49 318.11 2.22 o
1 3 3 608.65 644.61 13.33 o
2 3 3 1.05 0.57 1.06 o
3 3 3 12.84 13.06 1.59 o
4 3 3 0.13 1.04 0.91 o
5 3 3 0.35 0.82 1.04 o
-5 4 3 0.84 1.11 1.06 o
-4 4 3 32.91 30.94 1.02 o
-3 4 3 76.63 70.39 1.24 o
-2 4 3 12.53 10.76 0.58 o
-1 4 3 18.31 21.00 0.84 o
0 4 3 254.08 294.38 27.57 o
1 4 3 120.99 117.93 2.31 o
2 4 3 289.11 314.49 11.65 o
3 4 3 10.03 10.13 1.23 o
4 4 3 158.32 183.83 4.44 o
5 4 3 0.13 0.82 0.83 o
-5 5 3 153.30 152.26 3.40 o
-4 5 3 43.52 41.78 1.20 o
-3 5 3 441.99 394.22 8.08 o
-2 5 3 21.31 20.40 0.70 o
-1 5 3 201.58 172.86 5.38 o
0 5 3 32.92 20.62 5.24 o
1 5 3 148.17 141.18 3.21 o
2 5 3 58.94 51.91 4.16 o
3 5 3 77.74 72.61 5.88 o
4 5 3 2.89 2.39 1.24 o
-5 6 3 4.55 6.27 1.38 o
-4 6 3 12.57 12.89 1.12 o
-3 6 3 16.62 16.32 0.75 o
-2 6 3 18.66 18.56 1.40 o
-1 6 3 0.03 0.21 0.67 o
0 6 3 19.22 18.23 1.51 o
1 6 3 97.60 96.69 7.04 o
2 6 3 104.74 94.04 4.58 o
3 6 3 115.10 109.44 2.85 o
4 6 3 116.73 110.89 7.55 o
-4 7 3 63.47 63.13 2.10 o
-3 7 3 43.21 39.78 3.74 o
-2 7 3 239.40 227.47 4.51 o
-1 7 3 88.37 68.99 4.74 o
0 7 3 239.12 220.72 3.56 o
1 7 3 103.99 112.59 6.07 o
2 7 3 30.22 24.42 2.13 o
3 7 3 2.81 2.57 1.37 o
4 7 3 7.37 6.33 1.02 o
-4 8 3 1.70 1.27 1.74 o
-3 8 3 1.47 1.72 1.72 o
-2 8 3 0.02 0.33 1.32 o
-1 8 3 40.89 35.48 2.45 o
0 8 3 5.33 4.96 1.89 o
1 8 3 102.64 115.66 21.12 o
2 8 3 7.30 7.00 1.48 o
3 8 3 18.04 16.06 1.72 o
-3 9 3 5.14 7.32 1.99 o
-2 9 3 149.88 148.57 2.87 o
-1 9 3 9.45 13.41 3.63 o
0 9 3 136.53 161.43 14.04 o
1 9 3 38.40 45.52 5.00 o
2 9 3 19.17 19.26 2.20 o
-2 10 3 7.34 6.85 1.63 o
-1 10 3 0.94 0.93 2.09 o
0 10 3 0.54 0.03 2.31 o
1 10 3 44.79 54.01 8.94 o
-4 0 4 84.88 79.11 3.39 o
-2 0 4 61.54 49.39 2.80 o
0 0 4 72.57 93.40 6.51 o
2 0 4 91.55 84.36 2.10 o
4 0 4 35.63 36.08 4.70 o
-5 1 4 45.43 52.14 2.76 o
-4 1 4 41.50 33.61 1.37 o
-3 1 4 281.06 247.99 3.80 o
-2 1 4 114.05 116.94 9.01 o
-1 1 4 1027.45 1242.37 3.98 o
0 1 4 187.85 227.07 4.62 o
1 1 4 469.85 455.28 20.97 o
2 1 4 89.89 80.25 2.40 o
3 1 4 59.65 63.66 1.66 o
4 1 4 0.05 0.95 1.01 o
-5 2 4 80.23 88.22 3.20 o
-4 2 4 105.32 103.04 1.81 o
-3 2 4 9.33 7.17 0.45 o
-2 2 4 72.62 65.67 4.21 o
-1 2 4 0.58 0.00 0.80 o
0 2 4 27.40 26.57 1.72 o
1 2 4 1.20 0.98 0.70 o
2 2 4 173.75 170.56 2.18 o
3 2 4 82.86 77.13 2.00 o
4 2 4 68.84 67.56 3.51 o
-5 3 4 14.79 18.31 1.64 o
-4 3 4 216.00 217.84 3.92 o
-3 3 4 89.89 76.90 2.74 o
-2 3 4 249.54 242.34 13.91 o
-1 3 4 42.89 46.47 2.34 o
0 3 4 181.35 195.90 12.22 o
1 3 4 79.42 73.83 1.65 o
2 3 4 307.59 289.20 4.64 o
3 3 4 43.76 41.39 2.42 o
4 3 4 78.89 81.59 2.72 o
-5 4 4 74.80 76.35 4.23 o
-4 4 4 0.43 0.27 1.00 o
-3 4 4 72.66 70.38 4.43 o
-2 4 4 50.79 50.78 1.82 o
-1 4 4 7.31 6.99 0.81 o
0 4 4 13.49 15.89 1.36 o
1 4 4 55.75 57.05 1.71 o
2 4 4 19.21 17.71 1.44 o
3 4 4 89.48 86.13 2.63 o
4 4 4 11.40 11.80 1.16 o
-5 5 4 3.01 2.70 1.17 o
-4 5 4 41.39 37.49 2.46 o
-3 5 4 11.08 8.32 2.07 o
-2 5 4 427.18 393.75 16.57 o
-1 5 4 69.79 66.00 3.81 o
0 5 4 665.72 643.86 33.33 o
1 5 4 22.21 19.99 1.41 o
2 5 4 94.12 100.69 6.53 o
3 5 4 3.96 3.86 1.35 o
4 5 4 1.99 1.05 1.36 o
-4 6 4 7.95 7.36 1.10 o
-3 6 4 60.20 53.00 2.08 o
-2 6 4 0.10 0.11 0.76 o
-1 6 4 1.35 1.75 1.18 o
0 6 4 0.05 0.32 1.78 o
1 6 4 76.79 74.37 2.02 o
2 6 4 0.09 0.22 1.41 o
3 6 4 28.47 23.86 1.69 o
-4 7 4 10.67 7.94 1.46 o
-3 7 4 127.47 119.96 8.74 o
-2 7 4 32.22 24.71 0.94 o
-1 7 4 129.65 133.77 6.75 o
0 7 4 28.73 26.89 1.79 o
1 7 4 140.82 132.37 3.26 o
2 7 4 6.26 5.23 1.32 o
3 7 4 65.33 59.12 2.68 o
-3 8 4 1.71 1.44 1.78 o
-2 8 4 8.06 7.11 1.56 o
-1 8 4 0.25 0.18 1.85 o
0 8 4 1.37 0.41 1.94 o
1 8 4 2.44 1.45 1.62 o
2 8 4 52.16 45.22 2.56 o
-2 9 4 1.27 0.87 1.42 o
-1 9 4 76.58 71.33 6.22 o
0 9 4 1.99 3.43 2.26 o
1 9 4 81.55 83.20 7.95 o
2 9 4 1.09 1.52 2.20 o
-1 10 4 1.46 0.43 2.09 o
0 10 4 0.43 0.96 2.29 o
-5 0 5 203.06 215.92 5.49 o
-3 0 5 180.22 199.72 8.19 o
-1 0 5 50.37 69.34 2.01 o
1 0 5 0.16 0.15 1.05 o
3 0 5 57.13 55.96 6.55 o
-5 1 5 3.61 7.74 3.88 o
-4 1 5 77.94 77.78 2.57 o
-3 1 5 1.43 0.59 0.61 o
-2 1 5 217.17 258.82 10.80 o
-1 1 5 32.32 39.75 1.60 o
0 1 5 253.79 321.46 4.59 o
1 1 5 39.95 32.42 1.23 o
2 1 5 283.17 274.18 2.80 o
3 1 5 24.60 24.19 1.19 o
4 1 5 54.32 56.76 3.90 o
-5 2 5 44.50 44.18 1.77 o
-4 2 5 58.62 54.61 2.42 o
-3 2 5 49.24 43.34 2.44 o
-2 2 5 152.10 168.50 5.88 o
-1 2 5 40.58 52.56 3.92 o
0 2 5 0.07 0.15 0.41 o
1 2 5 14.54 11.62 0.84 o
2 2 5 19.91 17.24 1.41 o
3 2 5 7.51 6.98 0.97 o
4 2 5 0.43 1.37 1.02 o
-5 3 5 2.68 3.61 1.23 o
-4 3 5 0.62 0.47 1.78 o
-3 3 5 97.39 85.54 2.95 o
-2 3 5 49.21 58.88 3.40 o
-1 3 5 560.17 602.77 5.64 o
0 3 5 134.91 162.41 10.31 o
1 3 5 276.50 256.13 4.86 o
2 3 5 12.63 11.50 0.99 o
3 3 5 19.80 20.32 1.17 o
4 3 5 3.05 2.85 1.04 o
-4 4 5 122.21 125.28 6.20 o
-3 4 5 29.33 23.37 1.59 o
-2 4 5 89.99 98.33 3.31 o
-1 4 5 1.97 2.66 1.11 o
0 4 5 11.49 14.75 1.81 o
1 4 5 77.33 74.63 1.38 o
2 4 5 7.62 5.79 0.90 o
3 4 5 3.23 2.66 1.00 o
-4 5 5 13.21 9.60 2.00 o
-3 5 5 88.87 74.61 1.68 o
-2 5 5 11.50 10.30 0.74 o
-1 5 5 72.98 79.82 7.34 o
0 5 5 7.64 7.67 1.42 o
1 5 5 164.02 164.00 4.05 o
2 5 5 28.67 26.75 1.90 o
3 5 5 166.08 167.21 3.13 o
-4 6 5 57.02 60.57 6.68 o
-3 6 5 56.21 46.23 1.41 o
-2 6 5 11.08 9.25 0.86 o
-1 6 5 14.68 13.51 1.70 o
0 6 5 9.19 8.53 1.50 o
1 6 5 6.59 6.05 2.01 o
2 6 5 0.99 0.45 1.43 o
3 6 5 6.82 7.50 1.52 o
-3 7 5 28.26 29.73 2.22 o
-2 7 5 65.93 48.59 2.93 o
-1 7 5 49.60 43.54 1.28 o
0 7 5 144.72 140.36 3.45 o
1 7 5 35.90 38.22 2.15 o
2 7 5 46.88 43.54 2.61 o
-2 8 5 0.89 0.22 1.92 o
-1 8 5 33.98 34.82 2.40 o
0 8 5 0.21 0.82 1.65 o
1 8 5 0.22 0.82 2.04 o
-1 9 5 6.09 5.04 2.16 o
0 9 5 86.92 81.07 6.12 o
-4 0 6 85.67 94.88 6.83 o
-2 0 6 278.98 362.29 32.45 o
0 0 6 112.34 129.16 3.95 o
2 0 6 0.27 0.71 1.19 o
-4 1 6 8.91 9.22 1.20 o
-3 1 6 10.59 9.69 1.08 o
-2 1 6 42.07 53.65 2.63 o
-1 1 6 184.20 230.29 9.46 o
0 1 6 11.97 13.11 0.99 o
1 1 6 175.58 168.81 3.33 o
2 1 6 8.72 7.27 0.88 o
3 1 6 43.04 37.76 1.94 o
-4 2 6 100.84 98.94 2.88 o
-3 2 6 52.86 49.24 1.69 o
-2 2 6 85.11 101.43 4.81 o
-1 2 6 27.70 29.04 1.54 o
0 2 6 4.47 3.10 1.21 o
1 2 6 50.21 47.50 1.67 o
2 2 6 0.79 1.25 1.23 o
3 2 6 0.10 0.12 1.25 o
-4 3 6 6.64 6.44 1.37 o
-3 3 6 15.89 15.76 1.03 o
-2 3 6 19.04 22.41 1.26 o
-1 3 6 7.77 9.11 1.18 o
0 3 6 55.27 53.61 1.76 o
1 3 6 22.08 20.31 1.44 o
2 3 6 183.61 170.20 3.43 o
3 3 6 31.32 28.71 1.73 o
-4 4 6 0.08 0.34 1.75 o
-3 4 6 122.53 120.92 2.41 o
-2 4 6 5.17 4.42 0.90 o
-1 4 6 101.43 117.23 16.70 o
0 4 6 14.61 16.99 1.88 o
1 4 6 15.74 14.19 1.50 o
2 4 6 8.92 7.95 1.38 o
-3 5 6 0.00 0.00 1.08 o
-2 5 6 73.82 73.90 3.19 o
-1 5 6 13.84 13.08 1.77 o
0 5 6 170.36 188.86 14.81 o
1 5 6 9.80 7.36 1.98 o
2 5 6 28.91 27.62 1.76 o
-3 6 6 64.26 58.28 4.22 o
-2 6 6 30.81 31.70 1.38 o
-1 6 6 54.43 62.62 2.39 o
0 6 6 41.50 43.77 8.04 o
1 6 6 0.21 0.10 1.82 o
-2 7 6 0.81 0.20 0.82 o
-1 7 6 22.95 27.71 1.83 o
0 7 6 25.07 25.62 1.85 o
1 7 6 36.06 36.97 2.60 o
-3 0 7 109.19 110.94 16.06 o
-1 0 7 40.59 46.23 3.00 o
1 0 7 54.61 57.98 3.70 o
-3 1 7 10.61 9.73 1.26 o
-2 1 7 9.85 13.98 1.72 o
-1 1 7 3.64 4.66 2.25 o
0 1 7 20.15 22.52 2.01 o
1 1 7 34.66 32.73 2.39 o
2 1 7 60.52 65.55 2.83 o
-3 2 7 55.29 51.55 2.14 o
-2 2 7 102.95 125.93 5.84 o
-1 2 7 100.96 118.65 5.70 o
0 2 7 35.24 37.62 2.23 o
1 2 7 37.49 35.71 2.71 o
2 2 7 0.38 0.31 1.99 o
-3 3 7 0.36 0.22 1.04 o
-2 3 7 0.39 0.87 0.89 o
-1 3 7 42.27 41.61 1.84 o
0 3 7 28.15 29.27 2.09 o
1 3 7 27.99 28.11 2.28 o
-2 4 7 91.92 100.02 3.27 o
-1 4 7 0.18 0.42 1.18 o
0 4 7 56.36 69.05 13.70 o
1 4 7 14.09 14.52 2.12 o
-2 5 7 0.49 0.33 0.95 o
-1 5 7 5.63 5.36 1.30 o
0 5 7 0.07 1.37 1.87 o
-1 1 8 2.36 0.45 1.63 o
