#------------------------------------------------------------------------------
#$Date: 2016-03-26 18:05:48 +0200 (Sat, 26 Mar 2016) $
#$Revision: 180411 $
#$URL: svn://www.crystallography.net/cod/cif/7/20/80/7208074.cif $
#------------------------------------------------------------------------------
#
# This file is available in the Crystallography Open Database (COD),
# http://www.crystallography.net/
#
# All data on this site have been placed in the public domain by the
# contributors.
#
data_7208074
loop_
_publ_author_name
'Podsiad\/lo, Marcin'
'Bujak, Maciej'
'Katrusiak, Andrzej'
_publ_section_title
;
 Chemistry of density: extension and structural origin of Carnelley's rule
 in chloroethanes
;
_journal_issue                   13
_journal_name_full               CrystEngComm
_journal_page_first              4496
_journal_paper_doi               10.1039/c2ce25097g
_journal_volume                  14
_journal_year                    2012
_chemical_formula_moiety         'C2 H5 Cl'
_chemical_formula_sum            'C2 H5 Cl'
_chemical_formula_weight         64.51
_chemical_melting_point          134
_chemical_name_common            chloroethane
_chemical_name_systematic
;
chloroethane
;
_space_group_IT_number           176
_symmetry_cell_setting           hexagonal
_symmetry_space_group_name_Hall  '-P 6c'
_symmetry_space_group_name_H-M   'P 63/m'
_atom_sites_solution_hydrogens   geom
_atom_sites_solution_primary     direct
_atom_sites_solution_secondary   difmap
_audit_creation_method           SHELXL-97
_cell_angle_alpha                90.00
_cell_angle_beta                 90.00
_cell_angle_gamma                120.00
_cell_formula_units_Z            6
_cell_length_a                   8.8941(13)
_cell_length_b                   8.8941(13)
_cell_length_c                   6.3353(13)
_cell_measurement_reflns_used    2536
_cell_measurement_temperature    295(2)
_cell_measurement_theta_max      27.87
_cell_measurement_theta_min      2.64
_cell_volume                     434.01(13)
_computing_cell_refinement       'CrysAlisRED (Oxford Diffraction, 2004)'
_computing_data_collection       'CrysAlisCCD (Oxford Diffraction, 2004)'
_computing_data_reduction
'CrysAlisRED (Oxford Diffraction, 2004); REDSHABS (Katrusiak, A. 2003)'
_computing_molecular_graphics    'SHELXTL (Sheldrick, 1990)'
_computing_publication_material  'SHELXL--97 (Sheldrick, 1997)'
_computing_structure_refinement  'SHELXL--97 (Sheldrick, 1997)'
_computing_structure_solution    'SHELXS--97 (Sheldrick, 1997)'
_diffrn_ambient_environment      'diamond-anvil cell'
_diffrn_ambient_pressure         2620000
_diffrn_ambient_temperature      295(2)
_diffrn_measured_fraction_theta_full 0.517
_diffrn_measured_fraction_theta_max 0.517
_diffrn_measurement_device_type  'KM-4 CCD'
_diffrn_measurement_method       '\f- and \w-scans'
_diffrn_radiation_monochromator  graphite
_diffrn_radiation_source         'fine-focus sealed tube'
_diffrn_radiation_type           MoK\a
_diffrn_radiation_wavelength     0.71073
_diffrn_reflns_av_R_equivalents  0.0329
_diffrn_reflns_av_sigmaI/netI    0.0122
_diffrn_reflns_limit_h_max       11
_diffrn_reflns_limit_h_min       -11
_diffrn_reflns_limit_k_max       5
_diffrn_reflns_limit_k_min       -5
_diffrn_reflns_limit_l_max       8
_diffrn_reflns_limit_l_min       -8
_diffrn_reflns_number            1918
_diffrn_reflns_theta_full        27.87
_diffrn_reflns_theta_max         27.87
_diffrn_reflns_theta_min         2.64
_diffrn_standards_decay_%        0
_diffrn_standards_interval_count 0
_diffrn_standards_number         0
_exptl_absorpt_coefficient_mu    0.973
_exptl_absorpt_correction_T_max  0.82
_exptl_absorpt_correction_T_min  0.53
_exptl_absorpt_correction_type   analytical
_exptl_absorpt_process_details
;
Correction for absorption of the diamond-anvil cell and the sample
were made using program REDSHABS (Katrusiak, A. (2003) REDSHABS. Adam
Mickiewicz University Pozna\'n; Katrusiak, A. (2004) Z. Kristallogr.
219, 461-467).
;
_exptl_crystal_colour            colourless
_exptl_crystal_density_diffrn    1.481
_exptl_crystal_density_method    'not measured'
_exptl_crystal_description       cylinder
_exptl_crystal_F_000             204
_exptl_crystal_size_max          0.32
_exptl_crystal_size_mid          0.31
_exptl_crystal_size_min          0.15
_refine_diff_density_max         0.246
_refine_diff_density_min         -0.151
_refine_diff_density_rms         0.035
_refine_ls_extinction_method     none
_refine_ls_goodness_of_fit_ref   1.182
_refine_ls_hydrogen_treatment    mixed
_refine_ls_matrix_type           full
_refine_ls_number_parameters     30
_refine_ls_number_reflns         196
_refine_ls_number_restraints     0
_refine_ls_restrained_S_all      1.182
_refine_ls_R_factor_all          0.0226
_refine_ls_R_factor_gt           0.0215
_refine_ls_shift/su_max          0.000
_refine_ls_shift/su_mean         0.000
_refine_ls_structure_factor_coef Fsqd
_refine_ls_weighting_details
'calc w=1/[\s^2^(Fo^2^)+(0.0209P)^2^+0.1694P] where P=(Fo^2^+2Fc^2^)/3'
_refine_ls_weighting_scheme      calc
_refine_ls_wR_factor_gt          0.0500
_refine_ls_wR_factor_ref         0.0515
_reflns_number_gt                191
_reflns_number_total             196
_reflns_threshold_expression     >2sigma(I)
_cod_data_source_file            c2ce25097g.txt
_cod_data_source_block           1ce_2.62GPa
_cod_database_code               7208074
loop_
_symmetry_equiv_pos_as_xyz
'x, y, z'
'-y, x-y, z'
'-x+y, -x, z'
'-x, -y, z+1/2'
'y, -x+y, z+1/2'
'x-y, x, z+1/2'
'-x, -y, -z'
'y, -x+y, -z'
'x-y, x, -z'
'x, y, -z-1/2'
'-y, x-y, -z-1/2'
'-x+y, -x, -z-1/2'
loop_
_atom_site_label
_atom_site_type_symbol
_atom_site_fract_x
_atom_site_fract_y
_atom_site_fract_z
_atom_site_U_iso_or_equiv
_atom_site_adp_type
_atom_site_occupancy
_atom_site_symmetry_multiplicity
_atom_site_calc_flag
_atom_site_refinement_flags
Cl1 Cl 0.10913(9) 0.45440(9) 0.2500 0.0323(3) Uani 1 2 d S
C1 C -0.1216(4) 0.3049(4) 0.2500 0.0298(7) Uani 1 2 d S
H1 H -0.162(3) 0.334(3) 0.377(3) 0.045(6) Uiso 1 1 d .
C2 C -0.1597(4) 0.1210(4) 0.2500 0.0306(7) Uani 1 2 d S
H21 H -0.275(5) 0.047(5) 0.2500 0.047(9) Uiso 1 2 d S
H22 H -0.111(3) 0.099(3) 0.132(3) 0.055(6) Uiso 1 1 d .
loop_
_atom_site_aniso_label
_atom_site_aniso_U_11
_atom_site_aniso_U_22
_atom_site_aniso_U_33
_atom_site_aniso_U_23
_atom_site_aniso_U_13
_atom_site_aniso_U_12
Cl1 0.0275(4) 0.0253(4) 0.0386(4) 0.000 0.000 0.0090(3)
C1 0.0229(15) 0.0269(15) 0.0371(14) 0.000 0.000 0.0105(13)
C2 0.0306(19) 0.0257(16) 0.0330(14) 0.000 0.000 0.0122(14)
loop_
_atom_type_symbol
_atom_type_description
_atom_type_scat_dispersion_real
_atom_type_scat_dispersion_imag
_atom_type_scat_source
C C 0.0033 0.0016 'International Tables Vol C Tables 4.2.6.8 and 6.1.1.4'
H H 0.0000 0.0000 'International Tables Vol C Tables 4.2.6.8 and 6.1.1.4'
Cl Cl 0.1484 0.1585 'International Tables Vol C Tables 4.2.6.8 and 6.1.1.4'
loop_
_geom_angle_atom_site_label_1
_geom_angle_atom_site_label_2
_geom_angle_atom_site_label_3
_geom_angle
C2 C1 Cl1 111.0(2)
C2 C1 H1 112.2(13)
Cl1 C1 H1 104.0(13)
C1 C2 H21 110(2)
C1 C2 H22 111.0(15)
H21 C2 H22 109(2)
loop_
_geom_bond_atom_site_label_1
_geom_bond_atom_site_label_2
_geom_bond_distance
Cl1 C1 1.803(3)
C1 C2 1.495(4)
C1 H1 0.968(19)
C2 H21 0.90(4)
C2 H22 0.93(2)
loop_
_refln_index_h
_refln_index_k
_refln_index_l
_refln_F_squared_calc
_refln_F_squared_meas
_refln_F_squared_sigma
_refln_observed_status
0 1 0 202.94 180.80 0.36 o
-1 2 0 868.91 851.64 5.47 o
-2 3 0 1827.85 1809.52 24.83 o
-1 3 0 277.15 285.97 2.04 o
-3 4 0 108.67 100.25 1.16 o
-2 4 0 353.64 352.54 2.45 o
-4 5 0 2455.20 2516.71 17.75 o
-3 5 0 15.44 15.88 0.43 o
-2 5 0 855.11 880.02 5.39 o
-4 6 0 143.51 144.03 1.25 o
-3 6 0 438.21 434.46 2.61 o
-5 7 0 366.66 365.63 2.20 o
-4 7 0 6.17 5.71 0.58 o
-3 7 0 237.06 243.46 2.93 o
-5 8 0 22.31 22.56 0.82 o
-4 8 0 179.73 178.95 2.80 o
-6 9 0 13.59 13.05 1.05 o
-5 9 0 0.65 0.90 0.47 o
-6 10 0 80.63 83.59 1.82 o
-6 11 0 9.94 8.74 2.39 o
0 1 1 160.71 171.28 1.23 o
-1 2 1 2521.09 2460.30 14.65 o
0 2 1 275.95 277.81 1.08 o
-2 3 1 41.27 33.48 1.42 o
-1 3 1 4866.67 4861.91 39.28 o
0 3 1 5.41 5.46 0.37 o
-3 4 1 0.36 1.16 0.13 o
-2 4 1 1392.62 1451.91 14.94 o
-1 4 1 200.07 217.14 3.55 o
-4 5 1 19.63 18.95 0.49 o
-3 5 1 122.17 118.14 0.71 o
-2 5 1 43.55 51.62 0.43 o
-5 6 1 88.12 85.89 1.25 o
-4 6 1 33.92 38.59 0.60 o
-3 6 1 1906.23 1933.95 14.47 o
-2 6 1 454.29 430.16 7.50 o
-5 7 1 855.54 880.96 6.21 o
-4 7 1 129.33 128.88 1.11 o
-3 7 1 7.30 7.56 0.59 o
-6 8 1 6.17 6.76 0.99 o
-5 8 1 57.54 56.68 1.02 o
-4 8 1 12.85 12.39 0.57 o
-6 9 1 28.38 30.03 0.94 o
-5 9 1 145.47 145.68 1.45 o
-4 9 1 264.22 252.44 7.18 o
-6 10 1 64.81 67.82 1.19 o
-5 10 1 9.26 7.42 0.91 o
-7 11 1 162.35 163.97 3.08 o
-6 11 1 9.60 5.80 0.99 o
0 1 2 166.08 163.90 1.12 o
-1 2 2 516.15 519.60 2.89 o
0 2 2 23.52 27.90 0.24 o
-2 3 2 1465.38 1448.69 16.36 o
-1 3 2 264.05 257.98 1.66 o
0 3 2 54.74 53.48 0.50 o
-3 4 2 120.25 120.58 0.67 o
-2 4 2 174.05 168.61 1.02 o
-1 4 2 100.29 101.55 0.91 o
0 4 2 701.76 689.98 13.36 o
-4 5 2 1743.26 1731.62 10.28 o
-3 5 2 7.23 5.45 0.27 o
-2 5 2 507.68 526.98 5.57 o
-5 6 2 32.41 29.49 0.93 o
-4 6 2 93.80 92.61 0.78 o
-3 6 2 369.24 366.07 3.08 o
-2 6 2 52.21 51.56 1.18 o
-5 7 2 305.91 305.36 2.29 o
-4 7 2 14.91 13.42 0.56 o
-3 7 2 183.69 197.93 2.16 o
-6 8 2 400.15 398.66 4.37 o
-5 8 2 16.90 16.42 0.61 o
-4 8 2 151.02 150.88 1.46 o
-3 8 2 40.15 33.65 3.86 o
-6 9 2 9.33 7.37 0.87 o
-5 9 2 0.71 1.03 0.42 o
-4 9 2 176.41 182.36 3.39 o
-6 10 2 67.61 70.77 1.78 o
-5 10 2 198.25 197.30 3.00 o
-7 11 2 91.20 87.34 2.52 o
-6 11 2 8.50 5.53 1.66 o
0 1 3 203.84 188.13 1.36 o
-1 2 3 887.13 896.12 6.35 o
0 2 3 26.57 24.29 0.66 o
-2 3 3 4.70 2.97 0.19 o
-1 3 3 1935.58 1958.49 15.75 o
0 3 3 5.94 6.08 0.25 o
-3 4 3 3.12 2.94 0.28 o
-2 4 3 532.82 537.89 4.40 o
-1 4 3 36.03 34.86 0.65 o
0 4 3 569.77 576.65 2.96 o
-4 5 3 18.13 16.51 0.66 o
-3 5 3 90.29 83.70 0.95 o
-2 5 3 22.95 20.86 0.50 o
-1 5 3 15.18 16.04 0.70 o
0 5 3 265.75 267.45 2.42 o
-5 6 3 63.55 66.04 1.07 o
-4 6 3 22.06 23.69 0.65 o
-3 6 3 1138.16 1168.14 6.37 o
-2 6 3 274.66 268.54 5.18 o
-6 7 3 97.31 95.53 2.72 o
-5 7 3 571.47 592.33 4.74 o
-4 7 3 83.23 85.62 0.98 o
-3 7 3 8.65 8.24 0.92 o
-6 8 3 4.41 3.43 0.73 o
-5 8 3 46.59 42.75 1.16 o
-4 8 3 5.04 4.37 0.55 o
-3 8 3 42.04 36.91 2.56 o
-6 9 3 16.67 11.05 1.98 o
-5 9 3 99.54 92.44 3.21 o
-4 9 3 177.46 179.13 4.08 o
-5 10 3 5.84 2.15 1.15 o
0 0 4 3595.18 3604.36 39.05 o
0 1 4 73.36 71.09 0.45 o
-1 2 4 161.03 160.41 0.99 o
0 2 4 16.25 14.85 0.31 o
-2 3 4 653.47 643.16 5.12 o
-1 3 4 130.82 121.68 1.19 o
0 3 4 11.88 12.44 0.43 o
-3 4 4 69.18 71.51 0.76 o
-2 4 4 63.39 56.68 0.77 o
-1 4 4 60.83 60.43 0.80 o
0 4 4 296.82 306.61 3.38 o
-4 5 4 816.03 907.01 16.40 o
-3 5 4 1.92 1.56 0.38 o
-2 5 4 217.08 225.26 2.25 o
-1 5 4 87.00 80.47 1.39 o
0 5 4 267.28 264.33 3.99 o
-5 6 4 15.11 15.11 0.88 o
-4 6 4 43.75 43.41 0.98 o
-3 6 4 199.59 198.66 3.52 o
-2 6 4 33.88 34.04 1.11 o
-6 7 4 17.20 14.80 3.18 o
-5 7 4 169.95 165.43 3.55 o
-4 7 4 12.43 10.22 1.04 o
-3 7 4 93.68 97.49 2.09 o
-6 8 4 220.12 228.56 3.01 o
-5 8 4 8.56 7.00 1.42 o
-4 8 4 84.49 84.72 3.16 o
-3 8 4 24.27 21.26 1.63 o
-6 9 4 4.38 4.06 1.76 o
-4 9 4 95.79 97.14 3.72 o
-7 10 4 11.42 6.24 2.89 o
-5 10 4 112.23 109.00 5.24 o
0 1 5 67.13 64.68 0.61 o
-1 2 5 305.02 319.96 2.20 o
0 2 5 4.55 3.44 0.37 o
-2 3 5 1.62 1.08 0.23 o
-1 3 5 683.11 712.94 5.10 o
0 3 5 1.79 1.32 0.30 o
-3 4 5 0.63 0.97 0.43 o
-2 4 5 209.96 205.07 3.56 o
-1 4 5 18.50 17.31 0.64 o
0 4 5 232.44 233.17 2.15 o
-4 5 5 6.63 5.36 1.01 o
-2 5 5 7.59 5.19 0.61 o
-1 5 5 5.56 3.55 0.65 o
0 5 5 107.24 109.14 2.54 o
-5 6 5 26.33 26.69 1.53 o
-4 6 5 10.64 9.73 1.10 o
-3 6 5 491.48 521.89 5.09 o
-2 6 5 119.68 117.84 2.40 o
-6 7 5 43.68 44.36 2.82 o
-5 7 5 260.41 261.56 6.09 o
-3 7 5 3.98 2.01 0.87 o
-6 8 5 1.99 3.09 1.39 o
-3 8 5 19.34 17.85 1.91 o
-4 9 5 81.18 76.29 2.67 o
0 1 6 21.51 18.59 0.62 o
-1 2 6 44.42 41.99 0.81 o
0 2 6 5.51 3.82 0.35 o
-2 3 6 199.96 206.25 2.95 o
-1 3 6 39.73 40.51 0.84 o
0 3 6 8.13 6.79 0.55 o
-3 4 6 21.37 20.77 2.38 o
-1 4 6 17.60 15.18 0.84 o
0 4 6 111.31 102.18 5.38 o
-4 5 6 301.92 321.25 4.56 o
-2 5 6 89.97 84.05 2.37 o
-1 5 6 32.11 33.10 1.63 o
0 5 6 104.70 99.77 4.23 o
-5 6 6 6.74 4.48 1.04 o
-2 6 6 11.87 11.01 1.04 o
-3 7 6 33.11 25.98 10.03 o
-3 8 6 9.22 3.13 2.10 o
0 1 7 15.93 13.94 1.43 o
-1 2 7 93.74 91.49 1.99 o
0 2 7 2.24 1.91 0.53 o
-2 3 7 0.60 1.53 0.54 o
-1 3 7 211.04 222.37 6.96 o
0 3 7 0.07 2.36 0.63 o
-1 4 7 8.41 6.19 0.91 o
0 4 7 68.46 72.20 3.56 o
-1 5 7 1.23 1.28 0.65 o
0 5 7 27.54 25.11 4.26 o
0 2 8 1.11 1.48 0.94 o
-2 3 8 48.47 46.46 5.83 o
