#------------------------------------------------------------------------------
#$Date: 2016-03-26 18:08:36 +0200 (Sat, 26 Mar 2016) $
#$Revision: 180413 $
#$URL: svn://www.crystallography.net/cod/cif/7/20/82/7208273.cif $
#------------------------------------------------------------------------------
#
# This file is available in the Crystallography Open Database (COD),
# http://www.crystallography.net/
#
# All data on this site have been placed in the public domain by the
# contributors.
#
data_7208273
loop_
_publ_author_name
'Montis, Riccardo'
'Hursthouse, Michael B.'
_publ_section_title
;
 Surprisingly complex supramolecular behaviour in the crystal structures
 of a family of mono-substituted salicylic acids
;
_journal_issue                   16
_journal_name_full               CrystEngComm
_journal_page_first              5242
_journal_paper_doi               10.1039/c2ce25336d
_journal_volume                  14
_journal_year                    2012
_chemical_formula_moiety         'C8 H8 O4'
_chemical_formula_sum            'C8 H8 O4'
_chemical_formula_weight         168.14
_chemical_name_common            '6-methoxysalicylic acid'
_chemical_name_systematic        '6-methoxy-2-hydroxobenzoic acid'
_space_group_IT_number           14
_symmetry_cell_setting           monoclinic
_symmetry_space_group_name_Hall  '-P 2yn'
_symmetry_space_group_name_H-M   'P 1 21/n 1'
_atom_sites_solution_hydrogens   geom
_atom_sites_solution_primary     direct
_atom_sites_solution_secondary   difmap
_audit_creation_method           SHELXL-97
_cell_angle_alpha                90.00
_cell_angle_beta                 104.305(2)
_cell_angle_gamma                90.00
_cell_formula_units_Z            4
_cell_length_a                   6.6697(2)
_cell_length_b                   9.3476(4)
_cell_length_c                   12.2016(5)
_cell_measurement_reflns_used    6881
_cell_measurement_temperature    120(2)
_cell_measurement_theta_max      27.48
_cell_measurement_theta_min      2.91
_cell_volume                     737.13(5)
_computing_cell_refinement
'DENZO (Otwinowski & Minor, 1997) & COLLECT (Hooft, R.W.W., 1998)'
_computing_data_collection       'COLLECT (Hooft, R.W.W., 1998)'
_computing_data_reduction
'DENZO (Otwinowski & Minor, 1997) & COLLECT (Hooft, R.W.W., 1998)'
_computing_structure_refinement  'SHELXL-97 (Sheldrick, 1997)'
_computing_structure_solution    'SHELXS-97 (Sheldrick, 1990)'
_diffrn_ambient_temperature      120(2)
_diffrn_detector_area_resol_mean '4096x4096pixels / 62x62mm'
_diffrn_measured_fraction_theta_full 0.994
_diffrn_measured_fraction_theta_max 0.994
_diffrn_measurement_device_type
'Bruker-Nonius APEX II CCD camera on -goniostat'
_diffrn_measurement_method       '\f & \w scans'
_diffrn_radiation_monochromator  '10cm confocal mirrors'
_diffrn_radiation_source         'Bruker-Nonius FR591 rotating anode'
_diffrn_radiation_type           MoK\a
_diffrn_radiation_wavelength     0.71073
_diffrn_reflns_av_R_equivalents  0.0404
_diffrn_reflns_av_sigmaI/netI    0.0365
_diffrn_reflns_limit_h_max       8
_diffrn_reflns_limit_h_min       -8
_diffrn_reflns_limit_k_max       12
_diffrn_reflns_limit_k_min       -12
_diffrn_reflns_limit_l_max       15
_diffrn_reflns_limit_l_min       -15
_diffrn_reflns_number            7885
_diffrn_reflns_theta_full        27.50
_diffrn_reflns_theta_max         27.50
_diffrn_reflns_theta_min         3.20
_exptl_absorpt_coefficient_mu    0.123
_exptl_absorpt_correction_T_max  0.9902
_exptl_absorpt_correction_T_min  0.9758
_exptl_absorpt_correction_type   multi-scan
_exptl_absorpt_process_details   'SADABS 2007/2 (Sheldrick, G.M., 2007)'
_exptl_crystal_colour            Colourless
_exptl_crystal_density_diffrn    1.515
_exptl_crystal_density_method    'not measured'
_exptl_crystal_description       Block
_exptl_crystal_F_000             352
_exptl_crystal_size_max          0.20
_exptl_crystal_size_mid          0.14
_exptl_crystal_size_min          0.08
_refine_diff_density_max         0.331
_refine_diff_density_min         -0.229
_refine_diff_density_rms         0.055
_refine_ls_extinction_method     none
_refine_ls_goodness_of_fit_ref   1.132
_refine_ls_hydrogen_treatment    mixed
_refine_ls_matrix_type           full
_refine_ls_number_parameters     141
_refine_ls_number_reflns         1678
_refine_ls_number_restraints     0
_refine_ls_restrained_S_all      1.132
_refine_ls_R_factor_all          0.0599
_refine_ls_R_factor_gt           0.0514
_refine_ls_shift/su_max          0.000
_refine_ls_shift/su_mean         0.000
_refine_ls_structure_factor_coef Fsqd
_refine_ls_weighting_details
'calc w=1/[\s^2^(Fo^2^)+(0.0639P)^2^+0.4686P] where P=(Fo^2^+2Fc^2^)/3'
_refine_ls_weighting_scheme      calc
_refine_ls_wR_factor_gt          0.1418
_refine_ls_wR_factor_ref         0.1491
_reflns_number_gt                1445
_reflns_number_total             1678
_reflns_threshold_expression     >2sigma(I)
_cod_data_source_file            c2ce25336d.txt
_cod_data_source_block           6-methoxysalicylic_acid
_cod_original_sg_symbol_H-M      P21/n
_cod_database_code               7208273
loop_
_symmetry_equiv_pos_as_xyz
'x, y, z'
'-x+1/2, y+1/2, -z+1/2'
'-x, -y, -z'
'x-1/2, -y-1/2, z-1/2'
loop_
_atom_site_label
_atom_site_type_symbol
_atom_site_fract_x
_atom_site_fract_y
_atom_site_fract_z
_atom_site_U_iso_or_equiv
_atom_site_adp_type
_atom_site_occupancy
_atom_site_symmetry_multiplicity
_atom_site_calc_flag
H1A H 0.799(4) 0.678(3) 0.199(2) 0.060(8) Uiso 1 1 d
H3 H 0.683(3) 0.282(3) -0.1669(19) 0.032(6) Uiso 1 1 d
H3A H 0.807(5) 0.252(4) 0.121(3) 0.088(11) Uiso 1 1 d
H4 H 0.632(4) 0.511(2) -0.260(2) 0.038(7) Uiso 1 1 d
H5 H 0.681(3) 0.727(2) -0.1543(19) 0.031(6) Uiso 1 1 d
H8A H 0.753(3) 0.952(2) 0.0676(18) 0.022(5) Uiso 1 1 d
H8B H 0.851(3) 0.905(2) -0.0307(17) 0.027(5) Uiso 1 1 d
H8C H 0.605(3) 0.894(2) -0.0411(18) 0.030(6) Uiso 1 1 d
C1 C 0.7743(2) 0.49498(16) 0.05525(13) 0.0145(4) Uani 1 1 d
C2 C 0.7512(2) 0.36787(18) -0.00885(14) 0.0173(4) Uani 1 1 d
C3 C 0.6996(2) 0.37301(19) -0.12739(14) 0.0213(4) Uani 1 1 d
C4 C 0.6729(3) 0.50369(19) -0.18072(14) 0.0215(4) Uani 1 1 d
C5 C 0.6962(2) 0.63248(19) -0.12094(13) 0.0195(4) Uani 1 1 d
C6 C 0.7463(2) 0.62729(17) -0.00337(13) 0.0151(4) Uani 1 1 d
C7 C 0.8246(2) 0.48376(17) 0.17961(14) 0.0160(4) Uani 1 1 d
C8 C 0.7403(3) 0.88537(18) 0.00905(16) 0.0230(4) Uani 1 1 d
O1 O 0.83705(19) 0.60101(13) 0.24274(10) 0.0215(3) Uani 1 1 d
O2 O 0.85373(18) 0.36819(13) 0.22866(10) 0.0217(3) Uani 1 1 d
O3 O 0.77577(19) 0.23747(13) 0.03953(11) 0.0234(3) Uani 1 1 d
O4 O 0.77077(18) 0.74721(12) 0.06202(10) 0.0202(3) Uani 1 1 d
loop_
_atom_site_aniso_label
_atom_site_aniso_U_11
_atom_site_aniso_U_22
_atom_site_aniso_U_33
_atom_site_aniso_U_23
_atom_site_aniso_U_13
_atom_site_aniso_U_12
C1 0.0117(7) 0.0167(9) 0.0156(8) -0.0004(5) 0.0043(6) -0.0002(5)
C2 0.0130(7) 0.0176(8) 0.0220(8) -0.0011(6) 0.0056(6) -0.0009(5)
C3 0.0194(8) 0.0246(9) 0.0205(8) -0.0081(7) 0.0063(6) -0.0021(6)
C4 0.0192(8) 0.0308(10) 0.0142(8) -0.0023(6) 0.0032(6) -0.0013(6)
C5 0.0185(8) 0.0234(9) 0.0170(8) 0.0038(6) 0.0049(6) 0.0017(6)
C6 0.0127(7) 0.0166(8) 0.0165(7) -0.0016(6) 0.0042(5) 0.0003(5)
C7 0.0149(7) 0.0158(8) 0.0175(8) 0.0010(6) 0.0042(6) 0.0008(5)
C8 0.0292(9) 0.0128(8) 0.0264(9) 0.0029(7) 0.0058(7) 0.0013(6)
O1 0.0302(6) 0.0177(6) 0.0150(6) -0.0008(5) 0.0028(5) 0.0012(5)
O2 0.0268(6) 0.0179(6) 0.0203(6) 0.0053(5) 0.0054(5) 0.0015(5)
O3 0.0293(7) 0.0144(6) 0.0274(7) -0.0012(5) 0.0087(5) -0.0003(4)
O4 0.0295(6) 0.0131(6) 0.0178(6) 0.0016(4) 0.0057(5) 0.0023(4)
loop_
_atom_type_symbol
_atom_type_description
_atom_type_scat_dispersion_real
_atom_type_scat_dispersion_imag
_atom_type_scat_source
C C 0.0033 0.0016 'International Tables Vol C Tables 4.2.6.8 and 6.1.1.4'
H H 0.0000 0.0000 'International Tables Vol C Tables 4.2.6.8 and 6.1.1.4'
O O 0.0106 0.0060 'International Tables Vol C Tables 4.2.6.8 and 6.1.1.4'
loop_
_geom_angle_atom_site_label_1
_geom_angle_atom_site_label_2
_geom_angle_atom_site_label_3
_geom_angle
C2 C1 C6 118.20(14)
C2 C1 C7 118.48(14)
C6 C1 C7 123.32(14)
O3 C2 C3 117.09(15)
O3 C2 C1 122.34(14)
C3 C2 C1 120.58(15)
C4 C3 C2 119.25(16)
C4 C3 H3 123.9(13)
C2 C3 H3 116.8(13)
C3 C4 C5 122.29(15)
C3 C4 H4 121.4(14)
C5 C4 H4 116.2(14)
C6 C5 C4 118.43(15)
C6 C5 H5 116.1(13)
C4 C5 H5 125.4(13)
O4 C6 C5 122.60(14)
O4 C6 C1 116.14(13)
C5 C6 C1 121.25(15)
O2 C7 O1 117.60(14)
O2 C7 C1 122.20(14)
O1 C7 C1 120.20(13)
O4 C8 H8A 106.2(13)
O4 C8 H8B 110.0(12)
H8A C8 H8B 108.5(17)
O4 C8 H8C 111.5(13)
H8A C8 H8C 108.8(17)
H8B C8 H8C 111.7(17)
C7 O1 H1A 110.7(19)
C2 O3 H3A 107(2)
C6 O4 C8 119.56(13)
loop_
_geom_bond_atom_site_label_1
_geom_bond_atom_site_label_2
_geom_bond_distance
C1 C2 1.410(2)
C1 C6 1.418(2)
C1 C7 1.475(2)
C2 O3 1.347(2)
C2 C3 1.402(2)
C3 C4 1.375(3)
C3 H3 0.97(2)
C4 C5 1.396(2)
C4 H4 0.94(3)
C5 C6 1.391(2)
C5 H5 0.96(2)
C6 O4 1.3621(18)
C7 O2 1.2270(19)
C7 O1 1.3304(19)
C8 O4 1.4359(19)
C8 H8A 0.94(2)
C8 H8B 0.99(2)
C8 H8C 0.96(2)
O1 H1A 0.89(3)
O3 H3A 0.97(4)
loop_
_geom_hbond_atom_site_label_D
_geom_hbond_atom_site_label_H
_geom_hbond_atom_site_label_A
_geom_hbond_distance_DH
_geom_hbond_distance_HA
_geom_hbond_distance_DA
_geom_hbond_angle_DHA
O3 H3A O2 0.97(4) 1.68(4) 2.5487(17) 147(3)
loop_
_geom_torsion_atom_site_label_1
_geom_torsion_atom_site_label_2
_geom_torsion_atom_site_label_3
_geom_torsion_atom_site_label_4
_geom_torsion
C6 C1 C2 O3 179.69(13)
C7 C1 C2 O3 -0.8(2)
C6 C1 C2 C3 -0.7(2)
C7 C1 C2 C3 178.84(13)
O3 C2 C3 C4 180.00(14)
C1 C2 C3 C4 0.3(2)
C2 C3 C4 C5 0.3(3)
C3 C4 C5 C6 -0.7(3)
C4 C5 C6 O4 -179.53(13)
C4 C5 C6 C1 0.3(2)
C2 C1 C6 O4 -179.81(12)
C7 C1 C6 O4 0.7(2)
C2 C1 C6 C5 0.3(2)
C7 C1 C6 C5 -179.14(14)
C2 C1 C7 O2 2.5(2)
C6 C1 C7 O2 -177.97(14)
C2 C1 C7 O1 -176.50(13)
C6 C1 C7 O1 3.0(2)
C5 C6 O4 C8 1.3(2)
C1 C6 O4 C8 -178.56(13)
