#------------------------------------------------------------------------------
#$Date: 2016-03-26 18:11:22 +0200 (Sat, 26 Mar 2016) $
#$Revision: 180415 $
#$URL: svn://www.crystallography.net/cod/cif/7/20/84/7208459.cif $
#------------------------------------------------------------------------------
#
# This file is available in the Crystallography Open Database (COD),
# http://www.crystallography.net/
#
# All data on this site have been placed in the public domain by the
# contributors.
#
data_7208459
loop_
_publ_author_name
'Minkov, Vasily S.'
'Boldyreva, Elena V.'
'Drebushchak, Tatiana N.'
'G\"orbitz, Carl Henrik'
_publ_section_title
;
 Stabilizing structures of cysteine-containing crystals with respect to
 variations of temperature and pressure by immobilizing amino acid side
 chains
;
_journal_issue                   18
_journal_name_full               CrystEngComm
_journal_page_first              5943
_journal_paper_doi               10.1039/c2ce25241d
_journal_volume                  14
_journal_year                    2012
_chemical_absolute_configuration rmad
_chemical_formula_moiety         'C5 H9 N O3 S'
_chemical_formula_sum            'C5 H9 N O3 S'
_chemical_formula_weight         163.20
_chemical_name_common            N-Acetyl-L-Cysteine
_space_group_IT_number           1
_symmetry_cell_setting           triclinic
_symmetry_Int_Tables_number      1
_symmetry_space_group_name_Hall  'P 1'
_symmetry_space_group_name_H-M   'P 1'
_atom_sites_solution_hydrogens   geom
_atom_sites_solution_primary     direct
_atom_sites_solution_secondary   difmap
_audit_creation_method           SHELXL-97
_cell_angle_alpha                96.162(3)
_cell_angle_beta                 103.409(3)
_cell_angle_gamma                102.331(3)
_cell_formula_units_Z            1
_cell_length_a                   5.06381(14)
_cell_length_b                   5.83621(18)
_cell_length_c                   6.4864(2)
_cell_measurement_temperature    200(2)
_cell_volume                     179.669(10)
_computing_structure_refinement  'SHELXL-97 (Sheldrick, 1997)'
_computing_structure_solution    'SHELXS-97 (Sheldrick, 1990)'
_diffrn_ambient_temperature      200(2)
_diffrn_measured_fraction_theta_full 0.998
_diffrn_measured_fraction_theta_max 0.998
_diffrn_radiation_monochromator  graphite
_diffrn_radiation_probe          x-ray
_diffrn_radiation_source         'fine-focus sealed tube'
_diffrn_radiation_type           MoK\a
_diffrn_radiation_wavelength     0.71073
_diffrn_reflns_av_R_equivalents  0.0217
_diffrn_reflns_av_sigmaI/netI    0.0207
_diffrn_reflns_limit_h_max       9
_diffrn_reflns_limit_h_min       -9
_diffrn_reflns_limit_k_max       10
_diffrn_reflns_limit_k_min       -10
_diffrn_reflns_limit_l_max       11
_diffrn_reflns_limit_l_min       -11
_diffrn_reflns_number            14620
_diffrn_reflns_theta_full        40.23
_diffrn_reflns_theta_max         40.23
_diffrn_reflns_theta_min         3.27
_exptl_absorpt_coefficient_mu    0.396
_exptl_absorpt_correction_T_max  0.9503
_exptl_absorpt_correction_T_min  0.8544
_exptl_absorpt_correction_type   multi-scan
_exptl_absorpt_process_details   'CrysAlis RED (Oxford Diffraction, 2008)'
_exptl_crystal_colour            colorless
_exptl_crystal_density_diffrn    1.508
_exptl_crystal_density_method    'not measured'
_exptl_crystal_description       prism
_exptl_crystal_F_000             86
_exptl_crystal_size_max          0.41
_exptl_crystal_size_mid          0.19
_exptl_crystal_size_min          0.13
_refine_diff_density_max         0.248
_refine_diff_density_min         -0.278
_refine_diff_density_rms         0.045
_refine_ls_abs_structure_details 'Flack H D (1983), Acta Cryst. A39, 876-881'
_refine_ls_abs_structure_Flack   -0.07(3)
_refine_ls_extinction_coef       0.45(4)
_refine_ls_extinction_expression Fc^*^=kFc[1+0.001xFc^2^\l^3^/sin(2\q)]^-1/4^
_refine_ls_extinction_method     SHELXL
_refine_ls_goodness_of_fit_ref   1.085
_refine_ls_hydrogen_treatment    mixed
_refine_ls_matrix_type           full
_refine_ls_number_parameters     96
_refine_ls_number_reflns         4511
_refine_ls_number_restraints     4
_refine_ls_restrained_S_all      1.085
_refine_ls_R_factor_all          0.0263
_refine_ls_R_factor_gt           0.0252
_refine_ls_shift/su_max          0.000
_refine_ls_shift/su_mean         0.000
_refine_ls_structure_factor_coef Fsqd
_refine_ls_weighting_details
'calc w=1/[\s^2^(Fo^2^)+(0.0382P)^2^+0.0031P] where P=(Fo^2^+2Fc^2^)/3'
_refine_ls_weighting_scheme      calc
_refine_ls_wR_factor_gt          0.0646
_refine_ls_wR_factor_ref         0.0652
_reflns_number_gt                4384
_reflns_number_total             4511
_reflns_threshold_expression     >2sigma(I)
_cod_data_source_file            c2ce25241d.txt
_cod_data_source_block           NAC_200K
_cod_database_code               7208459
loop_
_symmetry_equiv_pos_as_xyz
'x, y, z'
loop_
_atom_site_label
_atom_site_type_symbol
_atom_site_fract_x
_atom_site_fract_y
_atom_site_fract_z
_atom_site_U_iso_or_equiv
_atom_site_adp_type
_atom_site_occupancy
_atom_site_symmetry_multiplicity
_atom_site_calc_flag
_atom_site_refinement_flags
S1 S 0.19771(2) -0.070718(19) 0.782283(19) 0.02445(5) Uani 1 1 d D
H1S H 0.263(3) 0.038(2) 0.9700(19) 0.029 Uiso 1 1 d D
O1 O 0.27678(13) 0.44818(10) 0.47870(8) 0.02654(11) Uani 1 1 d .
H1O H 0.2033 0.4579 0.3508 0.032 Uiso 1 1 calc R
N1 N 0.59207(11) 0.46318(10) 0.86754(8) 0.01830(8) Uani 1 1 d .
H1N H 0.4499 0.5298 0.8438 0.022 Uiso 1 1 calc R
C1 C 0.54871(13) 0.03318(11) 0.75481(11) 0.01976(9) Uani 1 1 d .
H11 H 0.6841 0.0289 0.8908 0.024 Uiso 1 1 calc R
H12 H 0.5774 -0.0778 0.6402 0.024 Uiso 1 1 calc R
O2 O 0.42600(18) 0.15657(13) 0.32517(10) 0.03623(16) Uani 1 1 d .
C2 C 0.61295(12) 0.28509(10) 0.70113(9) 0.01695(8) Uani 1 1 d .
H1 H 0.8111 0.3238 0.6909 0.020 Uiso 1 1 calc R
O3 O 0.98836(13) 0.43410(11) 1.09413(9) 0.02694(10) Uani 1 1 d .
C3 C 0.42702(14) 0.29048(11) 0.48162(9) 0.01957(9) Uani 1 1 d .
C4 C 0.78631(14) 0.52721(12) 1.05637(10) 0.01919(9) Uani 1 1 d .
C5 C 0.75328(18) 0.71850(13) 1.21478(11) 0.02659(13) Uani 1 1 d .
H51 H 0.8882 0.8678 1.2183 0.032 Uiso 1 1 calc R
H52 H 0.7875 0.6729 1.3579 0.032 Uiso 1 1 calc R
H53 H 0.5626 0.7400 1.1719 0.032 Uiso 1 1 calc R
loop_
_atom_site_aniso_label
_atom_site_aniso_U_11
_atom_site_aniso_U_22
_atom_site_aniso_U_33
_atom_site_aniso_U_23
_atom_site_aniso_U_13
_atom_site_aniso_U_12
S1 0.02220(7) 0.02686(8) 0.02130(7) 0.00044(5) 0.00528(5) 0.00186(5)
O1 0.0320(3) 0.0319(2) 0.01477(17) 0.00018(16) -0.00393(16) 0.0187(2)
N1 0.01899(19) 0.01987(19) 0.01328(17) -0.00002(14) -0.00246(14) 0.00762(15)
C1 0.0196(2) 0.0191(2) 0.0214(2) 0.00397(17) 0.00357(18) 0.00816(18)
O2 0.0530(4) 0.0404(3) 0.01575(19) -0.0046(2) -0.0004(2) 0.0272(3)
C2 0.01691(19) 0.0190(2) 0.01400(18) 0.00213(15) 0.00073(15) 0.00637(16)
O3 0.0246(2) 0.0362(3) 0.01717(19) 0.00206(17) -0.00494(16) 0.0139(2)
C3 0.0231(2) 0.0214(2) 0.01292(18) 0.00140(16) 0.00076(17) 0.00766(19)
C4 0.0214(2) 0.0206(2) 0.01268(18) 0.00296(15) -0.00119(16) 0.00508(18)
C5 0.0332(3) 0.0253(3) 0.0167(2) -0.00230(19) 0.0007(2) 0.0067(2)
loop_
_atom_type_symbol
_atom_type_description
_atom_type_scat_dispersion_real
_atom_type_scat_dispersion_imag
_atom_type_scat_source
C C 0.0033 0.0016 'International Tables Vol C Tables 4.2.6.8 and 6.1.1.4'
H H 0.0000 0.0000 'International Tables Vol C Tables 4.2.6.8 and 6.1.1.4'
O O 0.0106 0.0060 'International Tables Vol C Tables 4.2.6.8 and 6.1.1.4'
S S 0.1246 0.1234 'International Tables Vol C Tables 4.2.6.8 and 6.1.1.4'
N N 0.0061 0.0033 'International Tables Vol C Tables 4.2.6.8 and 6.1.1.4'
loop_
_geom_angle_atom_site_label_1
_geom_angle_atom_site_label_2
_geom_angle_atom_site_label_3
_geom_angle
C1 S1 H1S 92.1(7)
C3 O1 H1O 109.5
C4 N1 C2 120.91(5)
C4 N1 H1N 119.5
C2 N1 H1N 119.5
C2 C1 S1 114.29(4)
C2 C1 H11 108.7
S1 C1 H11 108.7
C2 C1 H12 108.7
S1 C1 H12 108.7
H11 C1 H12 107.6
N1 C2 C3 112.27(5)
N1 C2 C1 112.64(5)
C3 C2 C1 109.72(5)
N1 C2 H1 107.3
C3 C2 H1 107.3
C1 C2 H1 107.3
O2 C3 O1 124.61(6)
O2 C3 C2 120.27(6)
O1 C3 C2 115.12(5)
O3 C4 N1 120.67(6)
O3 C4 C5 122.16(6)
N1 C4 C5 117.15(6)
C4 C5 H51 109.5
C4 C5 H52 109.5
H51 C5 H52 109.5
C4 C5 H53 109.5
H51 C5 H53 109.5
H52 C5 H53 109.5
loop_
_geom_bond_atom_site_label_1
_geom_bond_atom_site_label_2
_geom_bond_distance
S1 C1 1.8079(6)
S1 H1S 1.245(12)
O1 C3 1.3124(8)
O1 H1O 0.8400
N1 C4 1.3391(8)
N1 C2 1.4545(8)
N1 H1N 0.8800
C1 C2 1.5319(8)
C1 H11 0.9900
C1 H12 0.9900
O2 C3 1.2109(8)
C2 C3 1.5216(8)
C2 H1 1.0000
O3 C4 1.2457(9)
C4 C5 1.4978(11)
C5 H51 0.9800
C5 H52 0.9800
C5 H53 0.9800
loop_
_geom_hbond_atom_site_label_D
_geom_hbond_atom_site_label_H
_geom_hbond_atom_site_label_A
_geom_hbond_distance_DH
_geom_hbond_distance_HA
_geom_hbond_distance_DA
_geom_hbond_angle_DHA
_geom_hbond_site_symmetry_A
O1 H1O O3 0.84 1.74 2.5646(7) 167.4 1_454
S1 H1S O2 1.245(12) 2.236(12) 3.4569(6) 165.8(10) 1_556
N1 H1N S1 0.88 2.91 3.7181(5) 153.7 1_565
loop_
_geom_torsion_atom_site_label_1
_geom_torsion_atom_site_label_2
_geom_torsion_atom_site_label_3
_geom_torsion_atom_site_label_4
_geom_torsion
C4 N1 C2 C3 -163.09(6)
C4 N1 C2 C1 72.45(7)
S1 C1 C2 N1 61.76(6)
S1 C1 C2 C3 -64.10(6)
N1 C2 C3 O2 178.24(7)
C1 C2 C3 O2 -55.70(9)
N1 C2 C3 O1 -1.31(8)
C1 C2 C3 O1 124.75(6)
C2 N1 C4 O3 -0.52(10)
C2 N1 C4 C5 177.75(6)
