#------------------------------------------------------------------------------
#$Date: 2016-03-26 18:08:36 +0200 (Sat, 26 Mar 2016) $
#$Revision: 180413 $
#$URL: svn://www.crystallography.net/cod/cif/7/20/82/7208269.cif $
#------------------------------------------------------------------------------
#
# This file is available in the Crystallography Open Database (COD),
# http://www.crystallography.net/
#
# All data on this site have been placed in the public domain by the
# contributors.
#
data_7208269
loop_
_publ_author_name
'Montis, Riccardo'
'Hursthouse, Michael B.'
_publ_section_title
;
 Surprisingly complex supramolecular behaviour in the crystal structures
 of a family of mono-substituted salicylic acids
;
_journal_issue                   16
_journal_name_full               CrystEngComm
_journal_page_first              5242
_journal_paper_doi               10.1039/c2ce25336d
_journal_volume                  14
_journal_year                    2012
_chemical_formula_moiety         'C7 H5 N O5'
_chemical_formula_sum            'C7 H5 N O5'
_chemical_formula_weight         183.12
_chemical_name_common            '5-nitrosalicylic acid monohydrate'
_chemical_name_systematic        '5-nitro-2-hydroxobenzoic acid monohydrate'
_space_group_IT_number           2
_symmetry_cell_setting           triclinic
_symmetry_space_group_name_Hall  '-P 1'
_symmetry_space_group_name_H-M   'P -1'
_atom_sites_solution_hydrogens   geom
_atom_sites_solution_primary     direct
_atom_sites_solution_secondary   difmap
_audit_creation_method           SHELXL-97
_cell_angle_alpha                62.252(6)
_cell_angle_beta                 75.292(6)
_cell_angle_gamma                82.654(7)
_cell_formula_units_Z            2
_cell_length_a                   5.1246(5)
_cell_length_b                   8.7762(8)
_cell_length_c                   9.2674(9)
_cell_measurement_reflns_used    12477
_cell_measurement_temperature    120(2)
_cell_measurement_theta_max      27.48
_cell_measurement_theta_min      2.91
_cell_volume                     356.76(6)
_computing_cell_refinement
'DENZO (Otwinowski & Minor, 1997) & COLLECT (Hooft, R.W.W., 1998)'
_computing_data_collection       'COLLECT (Hooft, R.W.W., 1998)'
_computing_data_reduction
'DENZO (Otwinowski & Minor, 1997) & COLLECT (Hooft, R.W.W., 1998)'
_computing_structure_refinement  'SHELXL-97 (Sheldrick, 1997)'
_computing_structure_solution    'SHELXS-97 (Sheldrick, 1990)'
_diffrn_ambient_temperature      120(2)
_diffrn_detector_area_resol_mean 9.091
_diffrn_measured_fraction_theta_full 0.995
_diffrn_measured_fraction_theta_max 0.995
_diffrn_measurement_device_type
'Bruker-Nonius 95mm CCD camera on \k-goniostat'
_diffrn_measurement_method       '\f & \w scans'
_diffrn_radiation_monochromator  graphite
_diffrn_radiation_source         'Bruker-Nonius FR591 rotating anode'
_diffrn_radiation_type           MoK\a
_diffrn_radiation_wavelength     0.71073
_diffrn_reflns_av_R_equivalents  0.0477
_diffrn_reflns_av_sigmaI/netI    0.0480
_diffrn_reflns_limit_h_max       6
_diffrn_reflns_limit_h_min       -6
_diffrn_reflns_limit_k_max       11
_diffrn_reflns_limit_k_min       -11
_diffrn_reflns_limit_l_max       12
_diffrn_reflns_limit_l_min       -12
_diffrn_reflns_number            6568
_diffrn_reflns_theta_full        27.50
_diffrn_reflns_theta_max         27.50
_diffrn_reflns_theta_min         4.11
_exptl_absorpt_coefficient_mu    0.149
_exptl_absorpt_correction_T_max  0.9882
_exptl_absorpt_correction_T_min  0.9497
_exptl_absorpt_correction_type   multi-scan
_exptl_absorpt_process_details   'SADABS V2.10 (Sheldrick, G.M., 2003)'
_exptl_crystal_colour            Colourless
_exptl_crystal_density_diffrn    1.705
_exptl_crystal_density_method    'not measured'
_exptl_crystal_description       Plate
_exptl_crystal_F_000             188
_exptl_crystal_size_max          0.35
_exptl_crystal_size_mid          0.25
_exptl_crystal_size_min          0.08
_refine_diff_density_max         0.368
_refine_diff_density_min         -0.358
_refine_diff_density_rms         0.070
_refine_ls_extinction_method     none
_refine_ls_goodness_of_fit_ref   1.060
_refine_ls_hydrogen_treatment    constr
_refine_ls_matrix_type           full
_refine_ls_number_parameters     120
_refine_ls_number_reflns         1634
_refine_ls_number_restraints     0
_refine_ls_restrained_S_all      1.060
_refine_ls_R_factor_all          0.0734
_refine_ls_R_factor_gt           0.0474
_refine_ls_shift/su_max          0.000
_refine_ls_shift/su_mean         0.000
_refine_ls_structure_factor_coef Fsqd
_refine_ls_weighting_details
'calc w=1/[\s^2^(Fo^2^)+(0.0721P)^2^+0.0356P] where P=(Fo^2^+2Fc^2^)/3'
_refine_ls_weighting_scheme      calc
_refine_ls_wR_factor_gt          0.1115
_refine_ls_wR_factor_ref         0.1278
_reflns_number_gt                1204
_reflns_number_total             1634
_reflns_threshold_expression     >2sigma(I)
_cod_data_source_file            c2ce25336d.txt
_cod_data_source_block           5-nitrosalicylic_acid
_cod_original_sg_symbol_H-M      P-1
_cod_database_code               7208269
loop_
_symmetry_equiv_pos_as_xyz
'x, y, z'
'-x, -y, -z'
loop_
_atom_site_label
_atom_site_type_symbol
_atom_site_fract_x
_atom_site_fract_y
_atom_site_fract_z
_atom_site_U_iso_or_equiv
_atom_site_adp_type
_atom_site_occupancy
_atom_site_symmetry_multiplicity
_atom_site_calc_flag
_atom_site_refinement_flags
C1 C 0.0636(3) 0.2073(2) 0.6958(2) 0.0172(4) Uani 1 1 d .
C2 C -0.1470(3) 0.3098(2) 0.6239(2) 0.0187(4) Uani 1 1 d .
C3 C -0.3179(3) 0.4017(2) 0.7013(2) 0.0201(4) Uani 1 1 d .
H3A H -0.4608 0.4703 0.6529 0.024 Uiso 1 1 calc R
C4 C -0.2803(3) 0.3932(2) 0.8460(2) 0.0204(4) Uani 1 1 d .
H4 H -0.3945 0.4567 0.8974 0.025 Uiso 1 1 calc R
C5 C -0.0717(3) 0.2900(2) 0.9168(2) 0.0178(4) Uani 1 1 d .
C6 C 0.0997(3) 0.1979(2) 0.8444(2) 0.0176(4) Uani 1 1 d .
H6 H 0.2405 0.1288 0.8949 0.021 Uiso 1 1 calc R
C7 C 0.2488(3) 0.1118(2) 0.6148(2) 0.0178(4) Uani 1 1 d .
N1 N -0.0316(3) 0.27943(18) 1.07170(18) 0.0201(4) Uani 1 1 d .
O1 O 0.4211(2) 0.01033(15) 0.70114(14) 0.0218(3) Uani 1 1 d .
H1 H 0.5269 -0.0336 0.6449 0.033 Uiso 1 1 calc R
O2 O 0.2364(3) 0.12873(16) 0.47645(15) 0.0234(3) Uani 1 1 d .
O3 O -0.1973(2) 0.32609(16) 0.48157(15) 0.0221(3) Uani 1 1 d .
H3 H -0.0784 0.2724 0.4415 0.033 Uiso 1 1 calc R
O4 O -0.1897(2) 0.35833(16) 1.13839(15) 0.0265(3) Uani 1 1 d .
O5 O 0.1568(3) 0.19136(17) 1.12958(16) 0.0294(4) Uani 1 1 d .
loop_
_atom_site_aniso_label
_atom_site_aniso_U_11
_atom_site_aniso_U_22
_atom_site_aniso_U_33
_atom_site_aniso_U_23
_atom_site_aniso_U_13
_atom_site_aniso_U_12
C1 0.0185(8) 0.0175(8) 0.0169(8) -0.0094(7) -0.0033(7) 0.0012(7)
C2 0.0197(8) 0.0201(9) 0.0169(8) -0.0082(7) -0.0047(7) -0.0011(7)
C3 0.0184(9) 0.0225(9) 0.0202(9) -0.0108(7) -0.0067(7) 0.0063(7)
C4 0.0201(9) 0.0219(9) 0.0212(9) -0.0132(7) -0.0028(7) 0.0036(7)
C5 0.0214(9) 0.0198(9) 0.0145(8) -0.0097(7) -0.0042(7) 0.0007(7)
C6 0.0168(8) 0.0176(8) 0.0190(9) -0.0086(7) -0.0059(7) 0.0032(7)
C7 0.0181(8) 0.0193(8) 0.0168(8) -0.0091(7) -0.0042(7) 0.0009(7)
N1 0.0236(8) 0.0207(7) 0.0174(7) -0.0111(6) -0.0035(6) 0.0025(6)
O1 0.0231(7) 0.0251(7) 0.0205(6) -0.0140(5) -0.0081(5) 0.0107(5)
O2 0.0278(7) 0.0281(7) 0.0198(6) -0.0157(5) -0.0087(5) 0.0086(5)
O3 0.0229(7) 0.0301(7) 0.0192(6) -0.0156(5) -0.0088(5) 0.0070(5)
O4 0.0321(8) 0.0295(7) 0.0232(7) -0.0187(6) -0.0046(6) 0.0066(6)
O5 0.0324(8) 0.0383(8) 0.0249(7) -0.0189(6) -0.0155(6) 0.0121(6)
loop_
_atom_type_symbol
_atom_type_description
_atom_type_scat_dispersion_real
_atom_type_scat_dispersion_imag
_atom_type_scat_source
C C 0.0033 0.0016 'International Tables Vol C Tables 4.2.6.8 and 6.1.1.4'
H H 0.0000 0.0000 'International Tables Vol C Tables 4.2.6.8 and 6.1.1.4'
N N 0.0061 0.0033 'International Tables Vol C Tables 4.2.6.8 and 6.1.1.4'
O O 0.0106 0.0060 'International Tables Vol C Tables 4.2.6.8 and 6.1.1.4'
loop_
_geom_angle_atom_site_label_1
_geom_angle_atom_site_label_2
_geom_angle_atom_site_label_3
_geom_angle
C6 C1 C2 119.41(15)
C6 C1 C7 119.87(15)
C2 C1 C7 120.72(15)
O3 C2 C3 116.68(15)
O3 C2 C1 123.50(15)
C3 C2 C1 119.82(15)
C4 C3 C2 120.56(15)
C4 C3 H3A 119.7
C2 C3 H3A 119.7
C3 C4 C5 119.06(15)
C3 C4 H4 120.5
C5 C4 H4 120.5
C6 C5 C4 121.99(15)
C6 C5 N1 118.65(15)
C4 C5 N1 119.36(14)
C5 C6 C1 119.16(15)
C5 C6 H6 120.4
C1 C6 H6 120.4
O2 C7 O1 123.96(14)
O2 C7 C1 121.41(14)
O1 C7 C1 114.62(14)
O5 N1 O4 123.26(14)
O5 N1 C5 118.29(13)
O4 N1 C5 118.44(14)
C7 O1 H1 109.5
C2 O3 H3 109.5
loop_
_geom_bond_atom_site_label_1
_geom_bond_atom_site_label_2
_geom_bond_distance
C1 C6 1.399(2)
C1 C2 1.406(2)
C1 C7 1.479(2)
C2 O3 1.347(2)
C2 C3 1.404(2)
C3 C4 1.369(2)
C3 H3A 0.9500
C4 C5 1.396(2)
C4 H4 0.9500
C5 C6 1.378(2)
C5 N1 1.460(2)
C6 H6 0.9500
C7 O2 1.238(2)
C7 O1 1.3063(19)
N1 O5 1.2258(18)
N1 O4 1.2324(18)
O1 H1 0.8400
O3 H3 0.8400
loop_
_geom_hbond_atom_site_label_D
_geom_hbond_atom_site_label_H
_geom_hbond_atom_site_label_A
_geom_hbond_distance_DH
_geom_hbond_distance_HA
_geom_hbond_distance_DA
_geom_hbond_angle_DHA
_geom_hbond_site_symmetry_A
O1 H1 O2 0.84 1.83 2.6711(16) 178.8 2_656
O3 H3 O2 0.84 1.91 2.6421(16) 144.3 .
loop_
_geom_torsion_atom_site_label_1
_geom_torsion_atom_site_label_2
_geom_torsion_atom_site_label_3
_geom_torsion_atom_site_label_4
_geom_torsion
C6 C1 C2 O3 -179.77(15)
C7 C1 C2 O3 1.1(3)
C6 C1 C2 C3 0.2(3)
C7 C1 C2 C3 -178.96(15)
O3 C2 C3 C4 -179.64(16)
C1 C2 C3 C4 0.4(3)
C2 C3 C4 C5 -0.9(3)
C3 C4 C5 C6 0.8(3)
C3 C4 C5 N1 -179.57(15)
C4 C5 C6 C1 -0.2(3)
N1 C5 C6 C1 -179.85(14)
C2 C1 C6 C5 -0.3(3)
C7 C1 C6 C5 178.87(16)
C6 C1 C7 O2 -173.92(16)
C2 C1 C7 O2 5.3(3)
C6 C1 C7 O1 6.3(2)
C2 C1 C7 O1 -174.51(15)
C6 C5 N1 O5 1.4(2)
C4 C5 N1 O5 -178.27(16)
C6 C5 N1 O4 -178.07(15)
C4 C5 N1 O4 2.3(2)
