#------------------------------------------------------------------------------
#$Date: 2016-03-26 18:12:22 +0200 (Sat, 26 Mar 2016) $
#$Revision: 180416 $
#$URL: svn://www.crystallography.net/cod/cif/7/20/85/7208589.cif $
#------------------------------------------------------------------------------
#
# This file is available in the Crystallography Open Database (COD),
# http://www.crystallography.net/
#
# All data on this site have been placed in the public domain by the
# contributors.
#
data_7208589
loop_
_publ_author_name
'Tobu, Yasuhiro'
'Ikeda, Ryuichi'
'Nihei, Taka-Aki'
'Gotoh, Kazuma'
'Ishida, Hiroyuki'
'Asaji, Tetsuo'
_publ_section_title
;
 Temperature dependence of one-dimensional hydrogen bonding in
 morpholinium hydrogen chloranilate studied by (35)Cl nuclear quadrupole
 resonance and multi-temperature X-ray diffraction.
;
_journal_issue                   35
_journal_name_full               'Physical chemistry chemical physics : PCCP'
_journal_page_first              12347
_journal_page_last               12354
_journal_paper_doi               10.1039/c2cp41241a
_journal_volume                  14
_journal_year                    2012
_chemical_formula_sum            'C10 H11 Cl2 N O5'
_chemical_formula_weight         296.10
_chemical_name_common            'morpholinium hydrogen chloranilete'
_space_group_IT_number           2
_symmetry_cell_setting           triclinic
_symmetry_Int_Tables_number      2
_symmetry_space_group_name_Hall  '-P 1'
_symmetry_space_group_name_H-M   'P -1'
_atom_sites_solution_hydrogens   geom
_atom_sites_solution_primary     direct
_atom_sites_solution_secondary   difmap
_cell_angle_alpha                91.9088(7)
_cell_angle_beta                 116.6760(7)
_cell_angle_gamma                114.0492(7)
_cell_formula_units_Z            2
_cell_length_a                   8.61998(16)
_cell_length_b                   9.10428(16)
_cell_length_c                   9.19040(17)
_cell_measurement_reflns_used    15964
_cell_measurement_temperature    114(1)
_cell_measurement_theta_max      30.1
_cell_measurement_theta_min      3.1
_cell_volume                     567.491(19)
_computing_cell_refinement       PROCESS-AUTO
_computing_data_collection       'PROCESS-AUTO (Rigaku/MSC, 2004)'
_computing_data_reduction        'CrystalStructure (Rigaku/MSC, 2004)'
_computing_structure_refinement  'SHELXL-97 (Sheldrick, 2008)'
_computing_structure_solution    'SHELXS-97 (Sheldrick, 2008)'
_diffrn_ambient_temperature      114(2)
_diffrn_detector_area_resol_mean 10.00
_diffrn_measured_fraction_theta_full 0.997
_diffrn_measured_fraction_theta_max 0.997
_diffrn_measurement_device_type  'Rigaku RAXIS-RAPID II'
_diffrn_measurement_method       \w
_diffrn_radiation_monochromator  graphite
_diffrn_radiation_source         'fine-focus sealed tube'
_diffrn_radiation_type           MoK\a
_diffrn_radiation_wavelength     0.71075
_diffrn_reflns_av_R_equivalents  0.0147
_diffrn_reflns_av_sigmaI/netI    0.0084
_diffrn_reflns_limit_h_max       12
_diffrn_reflns_limit_h_min       -12
_diffrn_reflns_limit_k_max       12
_diffrn_reflns_limit_k_min       -12
_diffrn_reflns_limit_l_max       12
_diffrn_reflns_limit_l_min       -12
_diffrn_reflns_number            16837
_diffrn_reflns_theta_full        25.00
_diffrn_reflns_theta_max         30.03
_diffrn_reflns_theta_min         3.10
_exptl_absorpt_coefficient_mu    0.585
_exptl_absorpt_correction_T_max  0.900
_exptl_absorpt_correction_T_min  0.828
_exptl_absorpt_correction_type   numerical
_exptl_absorpt_process_details
;
(<i>NUMABS</i>; Higashi, 1999)
;
_exptl_crystal_colour            brown
_exptl_crystal_density_diffrn    1.733
_exptl_crystal_density_method    'not measured'
_exptl_crystal_description       block
_exptl_crystal_F_000             304
_exptl_crystal_preparation
;
Single crystals suitable for X-ray diffraction were prepared
by slow evaporation from an acetonitrile solution of chloranilic acid
with morpholine (molar ration 1:1).
;
_exptl_crystal_size_max          0.40
_exptl_crystal_size_mid          0.30
_exptl_crystal_size_min          0.18
_refine_diff_density_max         0.551
_refine_diff_density_min         -0.219
_refine_diff_density_rms         0.058
_refine_ls_extinction_method     none
_refine_ls_goodness_of_fit_ref   1.072
_refine_ls_hydrogen_treatment    mixed
_refine_ls_matrix_type           full
_refine_ls_number_parameters     178
_refine_ls_number_reflns         3303
_refine_ls_number_restraints     2
_refine_ls_restrained_S_all      1.072
_refine_ls_R_factor_all          0.0232
_refine_ls_R_factor_gt           0.0226
_refine_ls_shift/su_max          0.001
_refine_ls_shift/su_mean         0.000
_refine_ls_structure_factor_coef Fsqd
_refine_ls_weighting_details
'calc w=1/[\s^2^(Fo^2^)+(0.0332P)^2^+0.2192P] where P=(Fo^2^+2Fc^2^)/3'
_refine_ls_weighting_scheme      calc
_refine_ls_wR_factor_gt          0.0603
_refine_ls_wR_factor_ref         0.0607
_reflns_number_gt                3200
_reflns_number_total             3303
_reflns_threshold_expression     >2sigma(I)
_cod_data_source_file            c2cp41241a_2.txt
_cod_data_source_block           114K
_cod_database_code               7208589
loop_
_symmetry_equiv_pos_as_xyz
'x, y, z'
'-x, -y, -z'
loop_
_atom_site_label
_atom_site_type_symbol
_atom_site_fract_x
_atom_site_fract_y
_atom_site_fract_z
_atom_site_U_iso_or_equiv
_atom_site_adp_type
_atom_site_occupancy
_atom_site_symmetry_multiplicity
_atom_site_calc_flag
_atom_site_refinement_flags
Cl1 Cl 0.76393(3) 0.16885(2) 0.70482(3) 0.01338(6) Uani 1 1 d .
Cl2 Cl -0.00105(3) 0.11695(3) 0.18027(3) 0.01557(6) Uani 1 1 d .
O1 O 1.17759(9) 0.32545(8) 0.98011(8) 0.01312(12) Uani 1 1 d .
O2 O 0.61736(9) 0.40882(8) 0.76686(8) 0.01287(12) Uani 1 1 d D
H2 H 0.544(3) 0.318(2) 0.696(3) 0.019 Uiso 0.63(2) 1 d PD
O3 O -0.34222(10) -0.07795(9) 0.22394(8) 0.01554(13) Uani 1 1 d .
O4 O 0.34827(9) 0.18429(8) 0.50812(8) 0.01280(12) Uani 1 1 d D
H4 H 0.431(5) 0.239(4) 0.609(3) 0.019 Uiso 0.37(2) 1 d PD
O5 O 0.82780(10) 0.41780(9) 0.26557(9) 0.01592(13) Uani 1 1 d .
N1 N 0.48576(11) 0.31963(10) 0.29314(10) 0.01313(14) Uani 1 1 d .
C1 C 1.09085(12) 0.40211(10) 0.98585(10) 0.00996(14) Uani 1 1 d .
C2 C 0.88668(12) 0.34900(10) 0.86453(10) 0.01032(15) Uani 1 1 d .
C3 C 0.79678(12) 0.43975(10) 0.87166(10) 0.01029(15) Uani 1 1 d .
C4 C -0.18299(12) -0.04153(10) 0.34759(11) 0.01061(15) Uani 1 1 d .
C5 C 0.00320(12) 0.05465(10) 0.35657(10) 0.01109(15) Uani 1 1 d .
C6 C 0.17975(12) 0.09817(10) 0.49733(11) 0.01066(15) Uani 1 1 d .
C7 C 0.50796(14) 0.19813(11) 0.19937(12) 0.01513(16) Uani 1 1 d .
H7A H 0.3772 0.1155 0.1044 0.018 Uiso 1 1 calc R
H7B H 0.5652 0.1375 0.2760 0.018 Uiso 1 1 calc R
C8 C 0.64084(14) 0.29151(12) 0.13270(12) 0.01604(17) Uani 1 1 d .
H8A H 0.6603 0.2121 0.0755 0.019 Uiso 1 1 calc R
H8B H 0.5771 0.3435 0.0484 0.019 Uiso 1 1 calc R
C9 C 0.80378(14) 0.53754(11) 0.34589(12) 0.01521(16) Uani 1 1 d .
H9A H 0.7381 0.5883 0.2614 0.018 Uiso 1 1 calc R
H9B H 0.9348 0.6274 0.4336 0.018 Uiso 1 1 calc R
C10 C 0.68187(13) 0.45656(12) 0.42620(11) 0.01400(16) Uani 1 1 d .
H10A H 0.7503 0.4108 0.5152 0.017 Uiso 1 1 calc R
H10B H 0.6641 0.5405 0.4790 0.017 Uiso 1 1 calc R
H1A H 0.415(2) 0.2660(19) 0.3417(19) 0.026(4) Uiso 1 1 d .
H1B H 0.420(2) 0.3636(18) 0.2199(19) 0.022(3) Uiso 1 1 d .
loop_
_atom_site_aniso_label
_atom_site_aniso_U_11
_atom_site_aniso_U_22
_atom_site_aniso_U_33
_atom_site_aniso_U_23
_atom_site_aniso_U_13
_atom_site_aniso_U_12
Cl1 0.01185(10) 0.01133(10) 0.01297(10) -0.00023(7) 0.00413(8) 0.00476(7)
Cl2 0.01238(10) 0.01986(11) 0.01170(10) 0.00730(8) 0.00592(8) 0.00525(8)
O1 0.0126(3) 0.0146(3) 0.0140(3) 0.0041(2) 0.0064(2) 0.0084(2)
O2 0.0079(3) 0.0134(3) 0.0129(3) 0.0012(2) 0.0024(2) 0.0046(2)
O3 0.0098(3) 0.0194(3) 0.0128(3) 0.0049(2) 0.0035(2) 0.0055(2)
O4 0.0078(3) 0.0148(3) 0.0113(3) 0.0020(2) 0.0044(2) 0.0023(2)
O5 0.0116(3) 0.0173(3) 0.0182(3) 0.0017(2) 0.0084(3) 0.0055(2)
N1 0.0113(3) 0.0166(3) 0.0147(3) 0.0067(3) 0.0079(3) 0.0075(3)
C1 0.0099(3) 0.0104(3) 0.0098(3) 0.0039(3) 0.0055(3) 0.0043(3)
C2 0.0091(3) 0.0099(3) 0.0094(3) 0.0013(3) 0.0037(3) 0.0034(3)
C3 0.0091(3) 0.0109(3) 0.0100(3) 0.0033(3) 0.0049(3) 0.0039(3)
C4 0.0099(3) 0.0101(3) 0.0107(4) 0.0022(3) 0.0048(3) 0.0043(3)
C5 0.0103(4) 0.0121(4) 0.0099(3) 0.0039(3) 0.0052(3) 0.0042(3)
C6 0.0103(4) 0.0098(3) 0.0111(4) 0.0021(3) 0.0053(3) 0.0044(3)
C7 0.0144(4) 0.0136(4) 0.0164(4) 0.0027(3) 0.0085(3) 0.0050(3)
C8 0.0150(4) 0.0178(4) 0.0140(4) 0.0018(3) 0.0085(3) 0.0055(3)
C9 0.0144(4) 0.0138(4) 0.0173(4) 0.0032(3) 0.0092(3) 0.0053(3)
C10 0.0139(4) 0.0158(4) 0.0130(4) 0.0036(3) 0.0072(3) 0.0072(3)
loop_
_atom_type_symbol
_atom_type_description
_atom_type_scat_dispersion_real
_atom_type_scat_dispersion_imag
_atom_type_scat_source
C C 0.0033 0.0016 'International Tables Vol C Tables 4.2.6.8 and 6.1.1.4'
H H 0.0000 0.0000 'International Tables Vol C Tables 4.2.6.8 and 6.1.1.4'
O O 0.0106 0.0060 'International Tables Vol C Tables 4.2.6.8 and 6.1.1.4'
N N 0.0061 0.0033 'International Tables Vol C Tables 4.2.6.8 and 6.1.1.4'
Cl Cl 0.1484 0.1585 'International Tables Vol C Tables 4.2.6.8 and 6.1.1.4'
loop_
_geom_angle_atom_site_label_1
_geom_angle_atom_site_label_2
_geom_angle_atom_site_label_3
_geom_angle
_geom_angle_site_symmetry_3
C3 O2 H2 117.0(16) .
C6 O4 H4 108(3) .
C8 O5 C9 110.32(7) .
C10 N1 C7 111.27(7) .
C10 N1 H1A 109.3(10) .
C7 N1 H1A 110.1(10) .
C10 N1 H1B 109.1(10) .
C7 N1 H1B 108.9(9) .
H1A N1 H1B 108.0(13) .
O1 C1 C2 123.08(8) .
O1 C1 C3 118.62(7) 2_767
C2 C1 C3 118.30(7) 2_767
C3 C2 C1 121.53(8) .
C3 C2 Cl1 121.45(6) .
C1 C2 Cl1 116.98(6) .
O2 C3 C2 127.33(8) .
O2 C3 C1 112.54(7) 2_767
C2 C3 C1 120.12(7) 2_767
O3 C4 C5 123.71(8) .
O3 C4 C6 118.35(7) 2_556
C5 C4 C6 117.94(7) 2_556
C6 C5 C4 122.91(7) .
C6 C5 Cl2 119.27(6) .
C4 C5 Cl2 117.82(6) .
O4 C6 C5 123.93(8) .
O4 C6 C4 116.92(7) 2_556
C5 C6 C4 119.15(7) 2_556
N1 C7 C8 109.41(7) .
N1 C7 H7A 109.8 .
C8 C7 H7A 109.8 .
N1 C7 H7B 109.8 .
C8 C7 H7B 109.8 .
H7A C7 H7B 108.2 .
O5 C8 C7 111.33(7) .
O5 C8 H8A 109.4 .
C7 C8 H8A 109.4 .
O5 C8 H8B 109.4 .
C7 C8 H8B 109.4 .
H8A C8 H8B 108.0 .
O5 C9 C10 110.88(7) .
O5 C9 H9A 109.5 .
C10 C9 H9A 109.5 .
O5 C9 H9B 109.5 .
C10 C9 H9B 109.5 .
H9A C9 H9B 108.1 .
N1 C10 C9 108.95(7) .
N1 C10 H10A 109.9 .
C9 C10 H10A 109.9 .
N1 C10 H10B 109.9 .
C9 C10 H10B 109.9 .
H10A C10 H10B 108.3 .
loop_
_geom_bond_atom_site_label_1
_geom_bond_atom_site_label_2
_geom_bond_distance
_geom_bond_site_symmetry_2
Cl1 C2 1.7306(8) .
Cl2 C5 1.7244(8) .
O1 C1 1.2277(10) .
O2 C3 1.2994(10) .
O2 H2 0.825(16) .
O3 C4 1.2201(10) .
O4 C6 1.2930(10) .
O4 H4 0.836(19) .
O5 C8 1.4281(11) .
O5 C9 1.4296(11) .
N1 C10 1.4940(12) .
N1 C7 1.5033(12) .
N1 H1A 0.908(16) .
N1 H1B 0.892(15) .
C1 C2 1.4433(11) .
C1 C3 1.5248(12) 2_767
C2 C3 1.3606(11) .
C3 C1 1.5248(12) 2_767
C4 C5 1.4423(11) .
C4 C6 1.5242(12) 2_556
C5 C6 1.3613(11) .
C6 C4 1.5242(12) 2_556
C7 C8 1.5104(13) .
C7 H7A 0.9900 .
C7 H7B 0.9900 .
C8 H8A 0.9900 .
C8 H8B 0.9900 .
C9 C10 1.5145(12) .
C9 H9A 0.9900 .
C9 H9B 0.9900 .
C10 H10A 0.9900 .
C10 H10B 0.9900 .
loop_
_geom_torsion_atom_site_label_1
_geom_torsion_atom_site_label_2
_geom_torsion_atom_site_label_3
_geom_torsion_atom_site_label_4
_geom_torsion
_geom_torsion_site_symmetry_1
_geom_torsion_site_symmetry_4
O1 C1 C2 C3 -177.95(8) . .
C3 C1 C2 C3 2.47(13) 2_767 .
O1 C1 C2 Cl1 -0.35(11) . .
C3 C1 C2 Cl1 -179.92(6) 2_767 .
C1 C2 C3 O2 177.13(8) . .
Cl1 C2 C3 O2 -0.37(13) . .
C1 C2 C3 C1 -2.52(13) . 2_767
Cl1 C2 C3 C1 179.98(6) . 2_767
O3 C4 C5 C6 178.08(9) . .
C6 C4 C5 C6 -0.89(14) 2_556 .
O3 C4 C5 Cl2 -1.60(12) . .
C6 C4 C5 Cl2 179.43(6) 2_556 .
C4 C5 C6 O4 -179.98(8) . .
Cl2 C5 C6 O4 -0.31(12) . .
C4 C5 C6 C4 0.90(14) . 2_556
Cl2 C5 C6 C4 -179.43(6) . 2_556
C10 N1 C7 C8 -53.55(10) . .
C9 O5 C8 C7 -61.23(10) . .
N1 C7 C8 O5 56.47(10) . .
C8 O5 C9 C10 62.08(9) . .
C7 N1 C10 C9 54.33(9) . .
O5 C9 C10 N1 -58.30(9) . .
