#------------------------------------------------------------------------------
#$Date: 2016-02-14 06:40:26 +0200 (Sun, 14 Feb 2016) $
#$Revision: 176432 $
#$URL: svn://www.crystallography.net/cod/cif/7/20/80/7208089.cif $
#------------------------------------------------------------------------------
#
# This file is available in the Crystallography Open Database (COD),
# http://www.crystallography.net/
#
# All data on this site have been placed in the public domain by the
# contributors.
#
data_7208089
loop_
_publ_author_name
'Cai, Weizhao'
'Katrusiak, Andrzej'
_publ_section_title
;
 Pressure effects on H-ordering in hydrogen bonds and interactions in
 benzoic acid
;
_journal_issue                   13
_journal_name_full               CrystEngComm
_journal_page_first              4420
_journal_paper_doi               10.1039/c2ce25128k
_journal_volume                  14
_journal_year                    2012
_chemical_formula_moiety         'C7 H6 O2'
_chemical_formula_sum            'C7 H6 O2'
_chemical_formula_weight         122.12
_chemical_name_common            'benzioc acid'
_chemical_name_systematic
;
?
;
_space_group_IT_number           14
_symmetry_cell_setting           monoclinic
_symmetry_space_group_name_Hall  '-P 2ybc'
_symmetry_space_group_name_H-M   'P 1 21/c 1'
_atom_sites_solution_hydrogens   geom
_atom_sites_solution_primary     direct
_atom_sites_solution_secondary   difmap
_audit_creation_method           SHELXL-97
_cell_angle_alpha                90.00
_cell_angle_beta                 98.10(6)
_cell_angle_gamma                90.00
_cell_formula_units_Z            4
_cell_length_a                   5.402(4)
_cell_length_b                   5.067(3)
_cell_length_c                   21.751(15)
_cell_measurement_pressure       210000
_cell_measurement_reflns_used    1939
_cell_measurement_temperature    296(2)
_cell_measurement_theta_max      27.98
_cell_measurement_theta_min      5.72
_cell_volume                     589.4(7)
_computing_cell_refinement       'CrysAlis (Oxford Diffraction, 2004)'
_computing_data_collection       'CrysAlis (Oxford Diffraction, 2004)'
_computing_data_reduction        'CrysAlisRED (Oxford Diffraction, 2004)'
_computing_molecular_graphics    'Mercury (Macrae et al., 2008)'
_computing_publication_material  'SHELXL-97 (Sheldrick, 2008)'
_computing_structure_refinement  'SHELXL-97 (Sheldrick, 2008)'
_computing_structure_solution    'SHELXS-97 (Sheldrick, 2008)'
_diffrn_ambient_temperature      296(2)
_diffrn_measured_fraction_theta_full 0.153
_diffrn_measured_fraction_theta_max 0.153
_diffrn_measurement_device_type  "'Oxford Diffraction Xcalibur Eos"
_diffrn_measurement_method
;HP omega scans - for more details see:
A. Budzianowski, A. Katrusiak in High-Pressure Crystallography
(Eds.: A. Katrusiak, P. F. McMillan),
Dordrecht: Kluwer Acad. Publ., 2004 pp.157-168
;
_diffrn_radiation_monochromator  graphite
_diffrn_radiation_source         'fine-focus sealed tube'
_diffrn_radiation_type           MoK\a
_diffrn_radiation_wavelength     0.71073
_diffrn_reflns_av_R_equivalents  0.1626
_diffrn_reflns_av_sigmaI/netI    0.0866
_diffrn_reflns_limit_h_max       5
_diffrn_reflns_limit_h_min       -5
_diffrn_reflns_limit_k_max       6
_diffrn_reflns_limit_k_min       -6
_diffrn_reflns_limit_l_max       16
_diffrn_reflns_limit_l_min       -16
_diffrn_reflns_number            1939
_diffrn_reflns_theta_full        27.98
_diffrn_reflns_theta_max         27.98
_diffrn_reflns_theta_min         5.72
_exptl_absorpt_coefficient_mu    0.101
_exptl_absorpt_correction_T_max  0.916
_exptl_absorpt_correction_T_min  0.495
_exptl_absorpt_correction_type   analytical
_exptl_absorpt_process_details
;
Katrusiak, A. (2003). REDSHABS - Program for correcting
reflections intensities for DAC absorption, gasket shadowing
and sample crystal absorption. Adam Mickiewicz University, Pozna\'n.
Katrusiak, A. (2004). Z. Kristallogr. 219, 461-467
;
_exptl_crystal_colour            colourless
_exptl_crystal_density_diffrn    1.376
_exptl_crystal_density_method    'not measured'
_exptl_crystal_description       plate-shaped
_exptl_crystal_F_000             256
_exptl_crystal_size_max          0.42
_exptl_crystal_size_mid          0.25
_exptl_crystal_size_min          0.18
_refine_diff_density_max         0.034
_refine_diff_density_min         -0.031
_refine_diff_density_rms         0.009
_refine_ls_extinction_method     none
_refine_ls_goodness_of_fit_ref   1.477
_refine_ls_hydrogen_treatment    constr
_refine_ls_matrix_type           full
_refine_ls_number_parameters     72
_refine_ls_number_reflns         218
_refine_ls_number_restraints     63
_refine_ls_restrained_S_all      1.293
_refine_ls_R_factor_all          0.1365
_refine_ls_R_factor_gt           0.0875
_refine_ls_shift/su_max          0.000
_refine_ls_shift/su_mean         0.000
_refine_ls_structure_factor_coef Fsqd
_refine_ls_weighting_details
'calc w=1/[\s^2^(Fo^2^)+(0.0000P)^2^+0.0162P] where P=(Fo^2^+2Fc^2^)/3'
_refine_ls_weighting_scheme      calc
_refine_ls_wR_factor_gt          0.0767
_refine_ls_wR_factor_ref         0.0847
_reflns_number_gt                170
_reflns_number_total             218
_reflns_threshold_expression     >2sigma(I)
_cod_data_source_file            c2ce25128k.txt
_cod_data_source_block           benziocacid_0.21GPa(CCDC864020)
_cod_original_cell_volume        589.3(7)
_cod_original_sg_symbol_Hall     '-p 2ybc'
_cod_original_sg_symbol_H-M      'P 21/c'
_cod_database_code               7208089
loop_
_symmetry_equiv_pos_as_xyz
'x, y, z'
'-x, y+1/2, -z+1/2'
'-x, -y, -z'
'x, -y-1/2, z-1/2'
loop_
_atom_site_label
_atom_site_type_symbol
_atom_site_fract_x
_atom_site_fract_y
_atom_site_fract_z
_atom_site_U_iso_or_equiv
_atom_site_adp_type
_atom_site_occupancy
_atom_site_symmetry_multiplicity
_atom_site_calc_flag
_atom_site_refinement_flags
O1 O 0.225(2) 0.2425(14) 0.0155(7) 0.070(6) Uani 1 1 d DU
H6A H 0.1689 0.1197 -0.0068 0.105 Uiso 0.86(12) 1 calc PR
O2 O -0.1020(13) 0.1420(6) 0.0666(4) 0.073(5) Uani 1 1 d DU
H6 H -0.1294 0.0370 0.0378 0.110 Uiso 0.14(12) 1 calc PR
C1 C 0.086(3) 0.276(2) 0.0605(8) 0.067(7) Uani 1 1 d DU
C2 C 0.178(3) 0.4791(17) 0.1060(10) 0.053(3) Uiso 1 1 d .
C3 C 0.382(3) 0.6373(8) 0.0996(10) 0.062(5) Uani 1 1 d U
H1 H 0.4698 0.6135 0.0662 0.074 Uiso 1 1 calc R
C4 C 0.456(3) 0.837(2) 0.1446(8) 0.069(7) Uani 1 1 d U
H2 H 0.5908 0.9464 0.1411 0.082 Uiso 1 1 calc R
C5 C 0.329(3) 0.861(2) 0.1904(11) 0.054(6) Uani 1 1 d U
H3 H 0.3820 0.9862 0.2207 0.065 Uiso 1 1 calc R
C6 C 0.122(3) 0.7127(10) 0.1970(9) 0.071(2) Uiso 1 1 d .
H4 H 0.0295 0.7327 0.2296 0.085 Uiso 1 1 calc R
C7 C 0.064(3) 0.5214(14) 0.1476(10) 0.045(6) Uani 1 1 d U
H5 H -0.0797 0.4207 0.1486 0.054 Uiso 1 1 calc R
loop_
_atom_site_aniso_label
_atom_site_aniso_U_11
_atom_site_aniso_U_22
_atom_site_aniso_U_33
_atom_site_aniso_U_23
_atom_site_aniso_U_13
_atom_site_aniso_U_12
O1 0.082(9) 0.058(3) 0.072(11) -0.008(6) 0.018(7) -0.016(5)
O2 0.085(7) 0.069(2) 0.065(10) -0.007(4) 0.006(7) -0.012(4)
C1 0.062(10) 0.072(6) 0.067(11) 0.007(7) 0.005(8) 0.018(6)
C3 0.065(8) 0.061(2) 0.059(10) 0.007(6) 0.007(7) -0.001(5)
C4 0.067(10) 0.074(5) 0.063(11) -0.003(7) 0.003(8) 0.003(6)
C5 0.052(9) 0.054(4) 0.057(11) 0.000(7) 0.012(8) -0.002(6)
C7 0.052(9) 0.040(3) 0.043(11) 0.001(6) 0.009(8) -0.007(5)
loop_
_atom_type_symbol
_atom_type_description
_atom_type_scat_dispersion_real
_atom_type_scat_dispersion_imag
_atom_type_scat_source
C C 0.0033 0.0016 'International Tables Vol C Tables 4.2.6.8 and 6.1.1.4'
H H 0.0000 0.0000 'International Tables Vol C Tables 4.2.6.8 and 6.1.1.4'
O O 0.0106 0.0060 'International Tables Vol C Tables 4.2.6.8 and 6.1.1.4'
loop_
_geom_angle_atom_site_label_1
_geom_angle_atom_site_label_2
_geom_angle_atom_site_label_3
_geom_angle
C1 O1 H6A 109.5
C1 O2 H6 109.5
O2 C1 O1 124.4(14)
O2 C1 C2 120.9(18)
O1 C1 C2 114.5(17)
C7 C2 C3 118.6(13)
C7 C2 C1 119(2)
C3 C2 C1 123(2)
C2 C3 C4 119(2)
C2 C3 H1 120.3
C4 C3 H1 120.3
C5 C4 C3 118.2(17)
C5 C4 H2 120.9
C3 C4 H2 120.9
C4 C5 C6 123.7(15)
C4 C5 H3 118.1
C6 C5 H3 118.1
C5 C6 C7 113(2)
C5 C6 H4 123.7
C7 C6 H4 123.7
C2 C7 C6 127(2)
C2 C7 H5 116.4
C6 C7 H5 116.4
loop_
_geom_bond_atom_site_label_1
_geom_bond_atom_site_label_2
_geom_bond_distance
O1 C1 1.32(2)
O1 H6A 0.8200
O2 C1 1.244(15)
O2 H6 0.8200
C1 C2 1.466(16)
C2 C7 1.19(5)
C2 C3 1.38(2)
C3 C4 1.42(2)
C3 H1 0.9300
C4 C5 1.29(4)
C4 H2 0.9300
C5 C6 1.37(2)
C5 H3 0.9300
C6 C7 1.45(2)
C6 H4 0.9300
C7 H5 0.9300
loop_
_geom_torsion_atom_site_label_1
_geom_torsion_atom_site_label_2
_geom_torsion_atom_site_label_3
_geom_torsion_atom_site_label_4
_geom_torsion
O2 C1 C2 C7 -2.9(17)
O1 C1 C2 C7 179.7(12)
O2 C1 C2 C3 -177.9(8)
O1 C1 C2 C3 4.8(15)
C7 C2 C3 C4 3.1(14)
C1 C2 C3 C4 178.0(8)
C2 C3 C4 C5 0.6(15)
C3 C4 C5 C6 -2.7(19)
C4 C5 C6 C7 1.3(15)
C3 C2 C7 C6 -4.9(18)
C1 C2 C7 C6 180.0(6)
C5 C6 C7 C2 2.8(14)
