#------------------------------------------------------------------------------
#$Date: 2016-03-26 18:11:22 +0200 (Sat, 26 Mar 2016) $
#$Revision: 180415 $
#$URL: svn://www.crystallography.net/cod/cif/7/20/84/7208457.cif $
#------------------------------------------------------------------------------
#
# This file is available in the Crystallography Open Database (COD),
# http://www.crystallography.net/
#
# All data on this site have been placed in the public domain by the
# contributors.
#
data_7208457
loop_
_publ_author_name
'Minkov, Vasily S.'
'Boldyreva, Elena V.'
'Drebushchak, Tatiana N.'
'G\"orbitz, Carl Henrik'
_publ_section_title
;
 Stabilizing structures of cysteine-containing crystals with respect to
 variations of temperature and pressure by immobilizing amino acid side
 chains
;
_journal_issue                   18
_journal_name_full               CrystEngComm
_journal_page_first              5943
_journal_paper_doi               10.1039/c2ce25241d
_journal_volume                  14
_journal_year                    2012
_chemical_absolute_configuration rmad
_chemical_formula_moiety         'C5 H9 N O3 S'
_chemical_formula_sum            'C5 H9 N O3 S'
_chemical_formula_weight         163.20
_chemical_name_common            N-Acetyl-L-Cysteine
_space_group_IT_number           1
_symmetry_cell_setting           triclinic
_symmetry_Int_Tables_number      1
_symmetry_space_group_name_Hall  'P 1'
_symmetry_space_group_name_H-M   'P 1'
_atom_sites_solution_hydrogens   geom
_atom_sites_solution_primary     direct
_atom_sites_solution_secondary   difmap
_audit_creation_method           SHELXL-97
_cell_angle_alpha                96.452(3)
_cell_angle_beta                 103.859(3)
_cell_angle_gamma                102.076(3)
_cell_formula_units_Z            1
_cell_length_a                   5.08996(15)
_cell_length_b                   5.8843(2)
_cell_length_c                   6.5214(2)
_cell_measurement_temperature    295(2)
_cell_volume                     182.703(11)
_computing_structure_refinement  'SHELXL-97 (Sheldrick, 1997)'
_computing_structure_solution    'SHELXS-97 (Sheldrick, 1990)'
_diffrn_ambient_temperature      295(2)
_diffrn_measured_fraction_theta_full 0.997
_diffrn_measured_fraction_theta_max 0.997
_diffrn_radiation_monochromator  graphite
_diffrn_radiation_probe          x-ray
_diffrn_radiation_source         'fine-focus sealed tube'
_diffrn_radiation_type           MoK\a
_diffrn_radiation_wavelength     0.71073
_diffrn_reflns_av_R_equivalents  0.0203
_diffrn_reflns_av_sigmaI/netI    0.0211
_diffrn_reflns_limit_h_max       9
_diffrn_reflns_limit_h_min       -9
_diffrn_reflns_limit_k_max       10
_diffrn_reflns_limit_k_min       -10
_diffrn_reflns_limit_l_max       11
_diffrn_reflns_limit_l_min       -11
_diffrn_reflns_number            13790
_diffrn_reflns_theta_full        40.24
_diffrn_reflns_theta_max         40.24
_diffrn_reflns_theta_min         3.59
_exptl_absorpt_coefficient_mu    0.390
_exptl_absorpt_correction_T_max  0.9511
_exptl_absorpt_correction_T_min  0.8565
_exptl_absorpt_correction_type   multi-scan
_exptl_absorpt_process_details   'CrysAlis RED (Oxford Diffraction, 2008)'
_exptl_crystal_colour            colorless
_exptl_crystal_density_diffrn    1.483
_exptl_crystal_density_method    'not measured'
_exptl_crystal_description       prism
_exptl_crystal_F_000             86
_exptl_crystal_size_max          0.41
_exptl_crystal_size_mid          0.19
_exptl_crystal_size_min          0.13
_refine_diff_density_max         0.271
_refine_diff_density_min         -0.205
_refine_diff_density_rms         0.046
_refine_ls_abs_structure_details 'Flack H D (1983), Acta Cryst. A39, 876-881'
_refine_ls_abs_structure_Flack   -0.06(3)
_refine_ls_extinction_coef       0.65(4)
_refine_ls_extinction_expression Fc^*^=kFc[1+0.001xFc^2^\l^3^/sin(2\q)]^-1/4^
_refine_ls_extinction_method     SHELXL
_refine_ls_goodness_of_fit_ref   1.040
_refine_ls_hydrogen_treatment    mixed
_refine_ls_matrix_type           full
_refine_ls_number_parameters     96
_refine_ls_number_reflns         4604
_refine_ls_number_restraints     4
_refine_ls_restrained_S_all      1.040
_refine_ls_R_factor_all          0.0334
_refine_ls_R_factor_gt           0.0291
_refine_ls_shift/su_max          0.000
_refine_ls_shift/su_mean         0.000
_refine_ls_structure_factor_coef Fsqd
_refine_ls_weighting_details
'calc w=1/[\s^2^(Fo^2^)+(0.0417P)^2^+0.0000P] where P=(Fo^2^+2Fc^2^)/3'
_refine_ls_weighting_scheme      calc
_refine_ls_wR_factor_gt          0.0701
_refine_ls_wR_factor_ref         0.0729
_reflns_number_gt                4192
_reflns_number_total             4604
_reflns_threshold_expression     >2sigma(I)
_cod_data_source_file            c2ce25241d.txt
_cod_data_source_block           NAC_295K
_cod_database_code               7208457
loop_
_symmetry_equiv_pos_as_xyz
'x, y, z'
loop_
_atom_site_label
_atom_site_type_symbol
_atom_site_fract_x
_atom_site_fract_y
_atom_site_fract_z
_atom_site_U_iso_or_equiv
_atom_site_adp_type
_atom_site_occupancy
_atom_site_symmetry_multiplicity
_atom_site_calc_flag
_atom_site_refinement_flags
S1 S 0.19846(2) -0.06982(2) 0.78215(2) 0.03503(6) Uani 1 1 d D
H1S H 0.266(3) 0.031(2) 0.9687(19) 0.042 Uiso 1 1 d D
O3 O 0.98604(15) 0.43326(14) 1.09450(10) 0.03944(14) Uani 1 1 d .
O1 O 0.27562(15) 0.44354(12) 0.47947(9) 0.03868(15) Uani 1 1 d .
H1O H 0.2120 0.4589 0.3552 0.046 Uiso 1 1 calc R
N1 N 0.59043(13) 0.45980(11) 0.86764(9) 0.02583(10) Uani 1 1 d .
H1N H 0.4520 0.5247 0.8440 0.031 Uiso 1 1 calc R
C4 C 0.78436(16) 0.52422(13) 1.05618(11) 0.02712(12) Uani 1 1 d .
C2 C 0.60984(13) 0.28173(12) 0.70187(10) 0.02387(10) Uani 1 1 d .
H1 H 0.8031 0.3184 0.6927 0.029 Uiso 1 1 calc R
O2 O 0.4223(2) 0.15462(16) 0.32691(12) 0.0538(2) Uani 1 1 d .
C1 C 0.54608(15) 0.03280(13) 0.75469(12) 0.02820(12) Uani 1 1 d .
H11 H 0.6795 0.0288 0.8875 0.034 Uiso 1 1 calc R
H12 H 0.5728 -0.0757 0.6424 0.034 Uiso 1 1 calc R
C3 C 0.42450(16) 0.28737(13) 0.48270(11) 0.02780(12) Uani 1 1 d .
C5 C 0.7505(2) 0.71467(16) 1.21349(13) 0.03835(17) Uani 1 1 d .
H51 H 0.8810 0.8598 1.2173 0.046 Uiso 1 1 calc R
H52 H 0.7848 0.6714 1.3534 0.046 Uiso 1 1 calc R
H53 H 0.5638 0.7347 1.1706 0.046 Uiso 1 1 calc R
loop_
_atom_site_aniso_label
_atom_site_aniso_U_11
_atom_site_aniso_U_22
_atom_site_aniso_U_33
_atom_site_aniso_U_23
_atom_site_aniso_U_13
_atom_site_aniso_U_12
S1 0.03171(8) 0.03876(10) 0.03020(8) 0.00055(6) 0.00767(6) 0.00266(6)
O3 0.0360(3) 0.0528(4) 0.0242(2) 0.0031(2) -0.0083(2) 0.0199(3)
O1 0.0466(3) 0.0467(3) 0.0203(2) -0.0002(2) -0.0069(2) 0.0277(3)
N1 0.0268(2) 0.0280(2) 0.01836(19) 0.00050(16) -0.00431(17) 0.01124(18)
C4 0.0296(3) 0.0299(3) 0.0170(2) 0.00444(18) -0.00263(19) 0.0067(2)
C2 0.0234(2) 0.0277(2) 0.0190(2) 0.00288(18) 0.00038(18) 0.00964(19)
O2 0.0804(6) 0.0598(5) 0.0216(2) -0.0060(3) -0.0009(3) 0.0420(5)
C1 0.0281(3) 0.0274(3) 0.0304(3) 0.0060(2) 0.0050(2) 0.0125(2)
C3 0.0326(3) 0.0311(3) 0.0174(2) 0.0017(2) 0.0002(2) 0.0117(2)
C5 0.0494(5) 0.0361(4) 0.0225(3) -0.0029(2) 0.0007(3) 0.0098(3)
loop_
_atom_type_symbol
_atom_type_description
_atom_type_scat_dispersion_real
_atom_type_scat_dispersion_imag
_atom_type_scat_source
C C 0.0033 0.0016 'International Tables Vol C Tables 4.2.6.8 and 6.1.1.4'
H H 0.0000 0.0000 'International Tables Vol C Tables 4.2.6.8 and 6.1.1.4'
O O 0.0106 0.0060 'International Tables Vol C Tables 4.2.6.8 and 6.1.1.4'
S S 0.1246 0.1234 'International Tables Vol C Tables 4.2.6.8 and 6.1.1.4'
N N 0.0061 0.0033 'International Tables Vol C Tables 4.2.6.8 and 6.1.1.4'
loop_
_geom_angle_atom_site_label_1
_geom_angle_atom_site_label_2
_geom_angle_atom_site_label_3
_geom_angle
C1 S1 H1S 92.1(7)
C3 O1 H1O 109.5
C4 N1 C2 121.05(6)
C4 N1 H1N 119.5
C2 N1 H1N 119.5
O3 C4 N1 120.77(7)
O3 C4 C5 122.25(7)
N1 C4 C5 116.95(7)
N1 C2 C3 112.18(5)
N1 C2 C1 112.75(6)
C3 C2 C1 109.90(6)
N1 C2 H1 107.2
C3 C2 H1 107.2
C1 C2 H1 107.2
C2 C1 S1 114.63(5)
C2 C1 H11 108.6
S1 C1 H11 108.6
C2 C1 H12 108.6
S1 C1 H12 108.6
H11 C1 H12 107.6
O2 C3 O1 124.44(7)
O2 C3 C2 120.37(7)
O1 C3 C2 115.19(6)
C4 C5 H51 109.5
C4 C5 H52 109.5
H51 C5 H52 109.5
C4 C5 H53 109.5
H51 C5 H53 109.5
H52 C5 H53 109.5
loop_
_geom_bond_atom_site_label_1
_geom_bond_atom_site_label_2
_geom_bond_distance
S1 C1 1.8045(8)
S1 H1S 1.225(12)
O3 C4 1.2409(10)
O1 C3 1.3066(9)
O1 H1O 0.8200
N1 C4 1.3368(9)
N1 C2 1.4548(8)
N1 H1N 0.8600
C4 C5 1.4985(12)
C2 C3 1.5205(9)
C2 C1 1.5289(10)
C2 H1 0.9800
O2 C3 1.2063(9)
C1 H11 0.9700
C1 H12 0.9700
C5 H51 0.9600
C5 H52 0.9600
C5 H53 0.9600
loop_
_geom_hbond_atom_site_label_D
_geom_hbond_atom_site_label_H
_geom_hbond_atom_site_label_A
_geom_hbond_distance_DH
_geom_hbond_distance_HA
_geom_hbond_distance_DA
_geom_hbond_angle_DHA
_geom_hbond_site_symmetry_A
O1 H1O O3 0.82 1.78 2.5758(8) 163.0 1_454
S1 H1S O2 1.225(12) 2.260(12) 3.4699(7) 169.0(10) 1_556
N1 H1N S1 0.86 2.96 3.7519(6) 153.5 1_565
loop_
_geom_torsion_atom_site_label_1
_geom_torsion_atom_site_label_2
_geom_torsion_atom_site_label_3
_geom_torsion_atom_site_label_4
_geom_torsion
C2 N1 C4 O3 -0.07(12)
C2 N1 C4 C5 178.05(7)
C4 N1 C2 C3 -162.78(7)
C4 N1 C2 C1 72.50(8)
N1 C2 C1 S1 61.54(7)
C3 C2 C1 S1 -64.41(7)
N1 C2 C3 O2 178.06(9)
C1 C2 C3 O2 -55.67(11)
N1 C2 C3 O1 -1.65(10)
C1 C2 C3 O1 124.63(7)
