#------------------------------------------------------------------------------
#$Date: 2016-03-26 18:08:36 +0200 (Sat, 26 Mar 2016) $
#$Revision: 180413 $
#$URL: svn://www.crystallography.net/cod/cif/7/20/82/7208274.cif $
#------------------------------------------------------------------------------
#
# This file is available in the Crystallography Open Database (COD),
# http://www.crystallography.net/
#
# All data on this site have been placed in the public domain by the
# contributors.
#
data_7208274
loop_
_publ_author_name
'Montis, Riccardo'
'Hursthouse, Michael B.'
_publ_section_title
;
 Surprisingly complex supramolecular behaviour in the crystal structures
 of a family of mono-substituted salicylic acids
;
_journal_issue                   16
_journal_name_full               CrystEngComm
_journal_page_first              5242
_journal_paper_doi               10.1039/c2ce25336d
_journal_volume                  14
_journal_year                    2012
_chemical_formula_moiety         'C7 H6 O3'
_chemical_formula_sum            'C7 H6 O3'
_chemical_formula_weight         138.12
_chemical_name_common            'salicylic acid'
_chemical_name_systematic        '2-hydroxobenzoic acid'
_space_group_IT_number           14
_symmetry_cell_setting           monoclinic
_symmetry_space_group_name_Hall  '-P 2ybc'
_symmetry_space_group_name_H-M   'P 1 21/c 1'
_atom_sites_solution_hydrogens   geom
_atom_sites_solution_primary     direct
_atom_sites_solution_secondary   difmap
_audit_creation_method           SHELXL-97
_cell_angle_alpha                90.00
_cell_angle_beta                 91.919(7)
_cell_angle_gamma                90.00
_cell_formula_units_Z            4
_cell_length_a                   4.8894(3)
_cell_length_b                   11.2411(13)
_cell_length_c                   11.3347(13)
_cell_measurement_reflns_used    1388
_cell_measurement_temperature    120(2)
_cell_measurement_theta_max      2.91
_cell_measurement_theta_min      2.91
_cell_volume                     622.63(11)
_computing_cell_refinement
'DENZO (Otwinowski & Minor, 1997) & COLLECT (Hooft, R.W.W., 1998)'
_computing_data_collection       'COLLECT (Hooft, R.W.W., 1998)'
_computing_data_reduction
'DENZO (Otwinowski & Minor, 1997) & COLLECT (Hooft, R.W.W., 1998)'
_computing_structure_refinement  'SHELXL-97 (Sheldrick, 1997)'
_computing_structure_solution    'SHELXS-97 (Sheldrick, 1990)'
_diffrn_ambient_temperature      120(2)
_diffrn_detector_area_resol_mean '4096x4096pixels / 62x62mm'
_diffrn_measured_fraction_theta_full 0.987
_diffrn_measured_fraction_theta_max 0.987
_diffrn_measurement_device_type
'Bruker-Nonius APEX II CCD camera on -goniostat'
_diffrn_measurement_method       '\f & \w scans'
_diffrn_radiation_monochromator  '10cm confocal mirrors'
_diffrn_radiation_source         'Bruker-Nonius FR591 rotating anode'
_diffrn_radiation_type           MoK\a
_diffrn_radiation_wavelength     0.71073
_diffrn_reflns_av_R_equivalents  0.0462
_diffrn_reflns_av_sigmaI/netI    0.0501
_diffrn_reflns_limit_h_max       6
_diffrn_reflns_limit_h_min       -6
_diffrn_reflns_limit_k_max       13
_diffrn_reflns_limit_k_min       -14
_diffrn_reflns_limit_l_max       14
_diffrn_reflns_limit_l_min       -14
_diffrn_reflns_number            5347
_diffrn_reflns_theta_full        27.48
_diffrn_reflns_theta_max         27.48
_diffrn_reflns_theta_min         3.60
_exptl_absorpt_coefficient_mu    0.117
_exptl_absorpt_correction_T_max  0.9988
_exptl_absorpt_correction_T_min  0.9658
_exptl_absorpt_correction_type   multi-scan
_exptl_absorpt_process_details   'SADABS 2007/2 (Sheldrick, G.M., 2007)'
_exptl_crystal_colour            Colourless
_exptl_crystal_density_diffrn    1.473
_exptl_crystal_density_method    'not measured'
_exptl_crystal_description       Needle
_exptl_crystal_F_000             288
_exptl_crystal_size_max          0.30
_exptl_crystal_size_mid          0.02
_exptl_crystal_size_min          0.01
_refine_diff_density_max         0.295
_refine_diff_density_min         -0.243
_refine_diff_density_rms         0.061
_refine_ls_extinction_method     none
_refine_ls_goodness_of_fit_ref   1.105
_refine_ls_hydrogen_treatment    constr
_refine_ls_matrix_type           full
_refine_ls_number_parameters     93
_refine_ls_number_reflns         1413
_refine_ls_number_restraints     0
_refine_ls_restrained_S_all      1.105
_refine_ls_R_factor_all          0.1041
_refine_ls_R_factor_gt           0.0656
_refine_ls_shift/su_max          0.000
_refine_ls_shift/su_mean         0.000
_refine_ls_structure_factor_coef Fsqd
_refine_ls_weighting_details
'calc w=1/[\s^2^(Fo^2^)+(0.0000P)^2^+0.9891P] where P=(Fo^2^+2Fc^2^)/3'
_refine_ls_weighting_scheme      calc
_refine_ls_wR_factor_gt          0.1080
_refine_ls_wR_factor_ref         0.1251
_reflns_number_gt                1008
_reflns_number_total             1413
_reflns_threshold_expression     >2sigma(I)
_cod_data_source_file            c2ce25336d.txt
_cod_data_source_block           salicylic_acid
_cod_original_sg_symbol_H-M      P21/c
_cod_database_code               7208274
loop_
_symmetry_equiv_pos_as_xyz
'x, y, z'
'-x, y+1/2, -z+1/2'
'-x, -y, -z'
'x, -y-1/2, z-1/2'
loop_
_atom_site_label
_atom_site_type_symbol
_atom_site_fract_x
_atom_site_fract_y
_atom_site_fract_z
_atom_site_U_iso_or_equiv
_atom_site_adp_type
_atom_site_occupancy
_atom_site_symmetry_multiplicity
_atom_site_calc_flag
_atom_site_refinement_flags
C1 C 0.4955(5) 0.1924(2) 0.4172(2) 0.0240(6) Uani 1 1 d .
C2 C 0.6443(5) 0.1681(2) 0.3158(2) 0.0265(6) Uani 1 1 d .
C3 C 0.8410(5) 0.2492(2) 0.2802(2) 0.0305(6) Uani 1 1 d .
H3 H 0.9434 0.2332 0.2122 0.037 Uiso 1 1 calc R
C4 C 0.8872(5) 0.3523(3) 0.3429(3) 0.0324(7) Uani 1 1 d .
H4 H 1.0212 0.4070 0.3176 0.039 Uiso 1 1 calc R
C5 C 0.7406(6) 0.3776(3) 0.4432(3) 0.0332(7) Uani 1 1 d .
H5 H 0.7735 0.4493 0.4858 0.040 Uiso 1 1 calc R
C6 C 0.5471(5) 0.2977(2) 0.4799(2) 0.0292(6) Uani 1 1 d .
H6 H 0.4477 0.3143 0.5486 0.035 Uiso 1 1 calc R
C7 C 0.2856(5) 0.1087(2) 0.4551(2) 0.0240(6) Uani 1 1 d .
O1 O 0.2330(3) 0.01498(16) 0.40107(16) 0.0273(4) Uani 1 1 d .
O2 O 0.1606(4) 0.13864(17) 0.55148(16) 0.0291(5) Uani 1 1 d .
H2 H 0.0440 0.0866 0.5670 0.044 Uiso 1 1 calc R
O3 O 0.6072(4) 0.06838(18) 0.24958(17) 0.0342(5) Uani 1 1 d .
H3A H 0.4796 0.0278 0.2767 0.051 Uiso 1 1 calc R
loop_
_atom_site_aniso_label
_atom_site_aniso_U_11
_atom_site_aniso_U_22
_atom_site_aniso_U_33
_atom_site_aniso_U_23
_atom_site_aniso_U_13
_atom_site_aniso_U_12
C1 0.0212(13) 0.0250(14) 0.0260(13) 0.0044(11) 0.0017(10) 0.0002(10)
C2 0.0251(14) 0.0258(15) 0.0288(14) 0.0041(11) 0.0038(11) -0.0012(11)
C3 0.0279(15) 0.0334(16) 0.0307(15) 0.0049(12) 0.0077(11) -0.0019(12)
C4 0.0264(15) 0.0313(16) 0.0396(16) 0.0096(13) 0.0026(12) -0.0071(12)
C5 0.0311(16) 0.0246(15) 0.0439(17) 0.0030(13) -0.0005(13) -0.0032(12)
C6 0.0269(15) 0.0294(16) 0.0317(15) 0.0016(12) 0.0051(11) -0.0002(11)
C7 0.0204(13) 0.0250(14) 0.0269(13) 0.0028(11) 0.0040(10) 0.0014(10)
O1 0.0262(10) 0.0247(10) 0.0314(11) -0.0010(8) 0.0104(8) -0.0046(8)
O2 0.0289(11) 0.0275(11) 0.0316(10) -0.0023(8) 0.0120(8) -0.0060(8)
O3 0.0362(12) 0.0324(12) 0.0349(11) -0.0020(9) 0.0147(9) -0.0070(9)
loop_
_atom_type_symbol
_atom_type_description
_atom_type_scat_dispersion_real
_atom_type_scat_dispersion_imag
_atom_type_scat_source
C C 0.0033 0.0016 'International Tables Vol C Tables 4.2.6.8 and 6.1.1.4'
H H 0.0000 0.0000 'International Tables Vol C Tables 4.2.6.8 and 6.1.1.4'
O O 0.0106 0.0060 'International Tables Vol C Tables 4.2.6.8 and 6.1.1.4'
loop_
_geom_angle_atom_site_label_1
_geom_angle_atom_site_label_2
_geom_angle_atom_site_label_3
_geom_angle
C6 C1 C2 119.3(2)
C6 C1 C7 120.7(2)
C2 C1 C7 120.0(2)
O3 C2 C3 117.4(2)
O3 C2 C1 123.3(2)
C3 C2 C1 119.3(2)
C4 C3 C2 120.3(3)
C4 C3 H3 119.9
C2 C3 H3 119.9
C3 C4 C5 121.0(3)
C3 C4 H4 119.5
C5 C4 H4 119.5
C6 C5 C4 119.3(3)
C6 C5 H5 120.3
C4 C5 H5 120.3
C5 C6 C1 120.8(3)
C5 C6 H6 119.6
C1 C6 H6 119.6
O1 C7 O2 122.2(2)
O1 C7 C1 122.4(2)
O2 C7 C1 115.4(2)
C7 O2 H2 109.5
C2 O3 H3A 109.5
loop_
_geom_bond_atom_site_label_1
_geom_bond_atom_site_label_2
_geom_bond_distance
C1 C6 1.399(4)
C1 C2 1.408(3)
C1 C7 1.467(3)
C2 O3 1.358(3)
C2 C3 1.395(4)
C3 C4 1.374(4)
C3 H3 0.9500
C4 C5 1.394(4)
C4 H4 0.9500
C5 C6 1.379(4)
C5 H5 0.9500
C6 H6 0.9500
C7 O1 1.241(3)
C7 O2 1.314(3)
O2 H2 0.8400
O3 H3A 0.8400
loop_
_geom_hbond_atom_site_label_D
_geom_hbond_atom_site_label_H
_geom_hbond_atom_site_label_A
_geom_hbond_distance_DH
_geom_hbond_distance_HA
_geom_hbond_distance_DA
_geom_hbond_angle_DHA
O3 H3A O1 0.84 1.89 2.621(2) 144.6
