#------------------------------------------------------------------------------
#$Date: 2016-03-26 18:11:22 +0200 (Sat, 26 Mar 2016) $
#$Revision: 180415 $
#$URL: svn://www.crystallography.net/cod/cif/7/20/84/7208460.cif $
#------------------------------------------------------------------------------
#
# This file is available in the Crystallography Open Database (COD),
# http://www.crystallography.net/
#
# All data on this site have been placed in the public domain by the
# contributors.
#
data_7208460
loop_
_publ_author_name
'Minkov, Vasily S.'
'Boldyreva, Elena V.'
'Drebushchak, Tatiana N.'
'G\"orbitz, Carl Henrik'
_publ_section_title
;
 Stabilizing structures of cysteine-containing crystals with respect to
 variations of temperature and pressure by immobilizing amino acid side
 chains
;
_journal_issue                   18
_journal_name_full               CrystEngComm
_journal_page_first              5943
_journal_paper_doi               10.1039/c2ce25241d
_journal_volume                  14
_journal_year                    2012
_chemical_absolute_configuration rmad
_chemical_formula_moiety         'C5 H9 N O3 S'
_chemical_formula_sum            'C5 H9 N O3 S'
_chemical_formula_weight         163.20
_chemical_name_common            N-Acetyl-L-Cysteine
_space_group_IT_number           1
_symmetry_cell_setting           triclinic
_symmetry_Int_Tables_number      1
_symmetry_space_group_name_Hall  'P 1'
_symmetry_space_group_name_H-M   'P 1'
_atom_sites_solution_hydrogens   geom
_atom_sites_solution_primary     direct
_atom_sites_solution_secondary   difmap
_audit_creation_method           SHELXL-97
_cell_angle_alpha                96.051(3)
_cell_angle_beta                 103.212(3)
_cell_angle_gamma                102.439(3)
_cell_formula_units_Z            1
_cell_length_a                   5.05300(17)
_cell_length_b                   5.81773(18)
_cell_length_c                   6.4717(2)
_cell_measurement_temperature    150(2)
_cell_volume                     178.456(11)
_computing_structure_refinement  'SHELXL-97 (Sheldrick, 1997)'
_computing_structure_solution    'SHELXS-97 (Sheldrick, 1990)'
_diffrn_ambient_temperature      150(2)
_diffrn_measured_fraction_theta_full 0.997
_diffrn_measured_fraction_theta_max 0.997
_diffrn_radiation_monochromator  graphite
_diffrn_radiation_probe          x-ray
_diffrn_radiation_source         'fine-focus sealed tube'
_diffrn_radiation_type           MoK\a
_diffrn_radiation_wavelength     0.71073
_diffrn_reflns_av_R_equivalents  0.0212
_diffrn_reflns_av_sigmaI/netI    0.0217
_diffrn_reflns_limit_h_max       9
_diffrn_reflns_limit_h_min       -9
_diffrn_reflns_limit_k_max       10
_diffrn_reflns_limit_k_min       -10
_diffrn_reflns_limit_l_max       11
_diffrn_reflns_limit_l_min       -11
_diffrn_reflns_number            14340
_diffrn_reflns_theta_full        41.15
_diffrn_reflns_theta_max         41.15
_diffrn_reflns_theta_min         3.28
_exptl_absorpt_coefficient_mu    0.399
_exptl_absorpt_correction_T_max  0.9499
_exptl_absorpt_correction_T_min  0.8535
_exptl_absorpt_correction_type   multi-scan
_exptl_absorpt_process_details   'CrysAlis RED (Oxford Diffraction, 2008)'
_exptl_crystal_colour            colorless
_exptl_crystal_density_diffrn    1.519
_exptl_crystal_density_method    'not measured'
_exptl_crystal_description       prism
_exptl_crystal_F_000             86
_exptl_crystal_size_max          0.41
_exptl_crystal_size_mid          0.19
_exptl_crystal_size_min          0.13
_refine_diff_density_max         0.261
_refine_diff_density_min         -0.241
_refine_diff_density_rms         0.044
_refine_ls_abs_structure_details 'Flack H D (1983), Acta Cryst. A39, 876-881'
_refine_ls_abs_structure_Flack   -0.08(2)
_refine_ls_extinction_coef       0.26(3)
_refine_ls_extinction_expression Fc^*^=kFc[1+0.001xFc^2^\l^3^/sin(2\q)]^-1/4^
_refine_ls_extinction_method     SHELXL
_refine_ls_goodness_of_fit_ref   1.070
_refine_ls_hydrogen_treatment    mixed
_refine_ls_matrix_type           full
_refine_ls_number_parameters     96
_refine_ls_number_reflns         4725
_refine_ls_number_restraints     4
_refine_ls_restrained_S_all      1.070
_refine_ls_R_factor_all          0.0244
_refine_ls_R_factor_gt           0.0237
_refine_ls_shift/su_max          0.000
_refine_ls_shift/su_mean         0.000
_refine_ls_structure_factor_coef Fsqd
_refine_ls_weighting_details
'calc w=1/[\s^2^(Fo^2^)+(0.0366P)^2^+0.0044P] where P=(Fo^2^+2Fc^2^)/3'
_refine_ls_weighting_scheme      calc
_refine_ls_wR_factor_gt          0.0615
_refine_ls_wR_factor_ref         0.0621
_reflns_number_gt                4639
_reflns_number_total             4725
_reflns_threshold_expression     >2sigma(I)
_cod_data_source_file            c2ce25241d.txt
_cod_data_source_block           NAC_150K
_cod_database_code               7208460
loop_
_symmetry_equiv_pos_as_xyz
'x, y, z'
loop_
_atom_site_label
_atom_site_type_symbol
_atom_site_fract_x
_atom_site_fract_y
_atom_site_fract_z
_atom_site_U_iso_or_equiv
_atom_site_adp_type
_atom_site_occupancy
_atom_site_symmetry_multiplicity
_atom_site_calc_flag
_atom_site_refinement_flags
S1 S 0.197459(18) -0.070998(17) 0.782338(16) 0.01946(4) Uani 1 1 d D
H1S H 0.256(3) 0.047(2) 0.9621(18) 0.023 Uiso 1 1 d D
O1 O 0.27736(12) 0.44990(10) 0.47840(7) 0.02112(9) Uani 1 1 d .
H1O H 0.1944 0.4524 0.3507 0.025 Uiso 1 1 calc R
N1 N 0.59295(11) 0.46449(9) 0.86750(7) 0.01476(7) Uani 1 1 d .
H1N H 0.4505 0.5311 0.8440 0.018 Uiso 1 1 calc R
C1 C 0.54993(12) 0.03326(10) 0.75478(10) 0.01596(8) Uani 1 1 d .
H11 H 0.6849 0.0289 0.8910 0.019 Uiso 1 1 calc R
H12 H 0.5791 -0.0779 0.6402 0.019 Uiso 1 1 calc R
O2 O 0.42767(16) 0.15771(11) 0.32425(9) 0.02882(13) Uani 1 1 d .
C2 C 0.61443(11) 0.28643(10) 0.70065(8) 0.01370(7) Uani 1 1 d .
H1 H 0.8130 0.3256 0.6900 0.016 Uiso 1 1 calc R
O3 O 0.98947(11) 0.43496(10) 1.09383(8) 0.02136(9) Uani 1 1 d .
C3 C 0.42835(13) 0.29202(10) 0.48115(9) 0.01584(8) Uani 1 1 d .
C4 C 0.78716(13) 0.52844(11) 1.05655(9) 0.01532(8) Uani 1 1 d .
C5 C 0.75415(16) 0.72012(12) 1.21515(10) 0.02120(11) Uani 1 1 d .
H51 H 0.8897 0.8698 1.2185 0.025 Uiso 1 1 calc R
H52 H 0.7878 0.6740 1.3584 0.025 Uiso 1 1 calc R
H53 H 0.5634 0.7420 1.1724 0.025 Uiso 1 1 calc R
loop_
_atom_site_aniso_label
_atom_site_aniso_U_11
_atom_site_aniso_U_22
_atom_site_aniso_U_33
_atom_site_aniso_U_23
_atom_site_aniso_U_13
_atom_site_aniso_U_12
S1 0.01775(6) 0.02133(6) 0.01702(6) 0.00040(4) 0.00423(4) 0.00162(4)
O1 0.0254(2) 0.0252(2) 0.01216(15) -0.00001(14) -0.00292(14) 0.01472(18)
N1 0.01549(17) 0.01563(17) 0.01108(15) -0.00007(12) -0.00179(12) 0.00610(14)
C1 0.01569(19) 0.01552(19) 0.01733(19) 0.00325(15) 0.00297(16) 0.00635(16)
O2 0.0423(3) 0.0320(3) 0.01263(16) -0.00366(17) -0.00020(18) 0.0215(3)
C2 0.01401(17) 0.01520(18) 0.01125(16) 0.00163(13) 0.00077(13) 0.00517(14)
O3 0.01979(19) 0.0284(2) 0.01403(16) 0.00183(15) -0.00352(14) 0.01123(17)
C3 0.0186(2) 0.0170(2) 0.01093(17) 0.00090(15) 0.00078(15) 0.00624(16)
C4 0.0170(2) 0.01666(19) 0.01003(16) 0.00202(13) -0.00068(14) 0.00397(15)
C5 0.0268(3) 0.0201(2) 0.0137(2) -0.00160(17) 0.00127(19) 0.0058(2)
loop_
_atom_type_symbol
_atom_type_description
_atom_type_scat_dispersion_real
_atom_type_scat_dispersion_imag
_atom_type_scat_source
C C 0.0033 0.0016 'International Tables Vol C Tables 4.2.6.8 and 6.1.1.4'
H H 0.0000 0.0000 'International Tables Vol C Tables 4.2.6.8 and 6.1.1.4'
O O 0.0106 0.0060 'International Tables Vol C Tables 4.2.6.8 and 6.1.1.4'
S S 0.1246 0.1234 'International Tables Vol C Tables 4.2.6.8 and 6.1.1.4'
N N 0.0061 0.0033 'International Tables Vol C Tables 4.2.6.8 and 6.1.1.4'
loop_
_geom_angle_atom_site_label_1
_geom_angle_atom_site_label_2
_geom_angle_atom_site_label_3
_geom_angle
C1 S1 H1S 92.3(7)
C3 O1 H1O 109.5
C4 N1 C2 120.92(5)
C4 N1 H1N 119.5
C2 N1 H1N 119.5
C2 C1 S1 114.13(4)
C2 C1 H11 108.7
S1 C1 H11 108.7
C2 C1 H12 108.7
S1 C1 H12 108.7
H11 C1 H12 107.6
N1 C2 C3 112.28(4)
N1 C2 C1 112.53(4)
C3 C2 C1 109.72(5)
N1 C2 H1 107.3
C3 C2 H1 107.3
C1 C2 H1 107.3
O2 C3 O1 124.61(6)
O2 C3 C2 120.22(6)
O1 C3 C2 115.17(5)
O3 C4 N1 120.58(6)
O3 C4 C5 122.20(6)
N1 C4 C5 117.19(6)
C4 C5 H51 109.5
C4 C5 H52 109.5
H51 C5 H52 109.5
C4 C5 H53 109.5
H51 C5 H53 109.5
H52 C5 H53 109.5
loop_
_geom_bond_atom_site_label_1
_geom_bond_atom_site_label_2
_geom_bond_distance
S1 C1 1.8095(6)
S1 H1S 1.224(12)
O1 C3 1.3135(8)
O1 H1O 0.8400
N1 C4 1.3402(7)
N1 C2 1.4550(7)
N1 H1N 0.8800
C1 C2 1.5338(8)
C1 H11 0.9900
C1 H12 0.9900
O2 C3 1.2131(7)
C2 C3 1.5217(7)
C2 H1 1.0000
O3 C4 1.2464(8)
C4 C5 1.4973(9)
C5 H51 0.9800
C5 H52 0.9800
C5 H53 0.9800
loop_
_geom_hbond_atom_site_label_D
_geom_hbond_atom_site_label_H
_geom_hbond_atom_site_label_A
_geom_hbond_distance_DH
_geom_hbond_distance_HA
_geom_hbond_distance_DA
_geom_hbond_angle_DHA
_geom_hbond_site_symmetry_A
O1 H1O O3 0.84 1.73 2.5618(6) 173.1 1_454
S1 H1S O2 1.224(12) 2.274(12) 3.4508(6) 160.2(9) 1_556
N1 H1N S1 0.88 2.90 3.7064(5) 153.8 1_565
loop_
_geom_torsion_atom_site_label_1
_geom_torsion_atom_site_label_2
_geom_torsion_atom_site_label_3
_geom_torsion_atom_site_label_4
_geom_torsion
C4 N1 C2 C3 -163.19(5)
C4 N1 C2 C1 72.43(7)
S1 C1 C2 N1 61.86(5)
S1 C1 C2 C3 -63.93(5)
N1 C2 C3 O2 178.34(6)
C1 C2 C3 O2 -55.73(8)
N1 C2 C3 O1 -1.28(8)
C1 C2 C3 O1 124.65(6)
C2 N1 C4 O3 -0.56(9)
C2 N1 C4 C5 177.58(5)
