#------------------------------------------------------------------------------
#$Date: 2016-03-26 18:08:36 +0200 (Sat, 26 Mar 2016) $
#$Revision: 180413 $
#$URL: svn://www.crystallography.net/cod/cif/7/20/82/7208267.cif $
#------------------------------------------------------------------------------
#
# This file is available in the Crystallography Open Database (COD),
# http://www.crystallography.net/
#
# All data on this site have been placed in the public domain by the
# contributors.
#
data_7208267
loop_
_publ_author_name
'Montis, Riccardo'
'Hursthouse, Michael B.'
_publ_section_title
;
 Surprisingly complex supramolecular behaviour in the crystal structures
 of a family of mono-substituted salicylic acids
;
_journal_issue                   16
_journal_name_full               CrystEngComm
_journal_page_first              5242
_journal_paper_doi               10.1039/c2ce25336d
_journal_volume                  14
_journal_year                    2012
_chemical_formula_moiety         'C8 H8 O4'
_chemical_formula_sum            'C8 H8 O4'
_chemical_formula_weight         168.15
_chemical_name_common            '5-methoxysalicylic acid'
_chemical_name_systematic        '5-methoxy-2-hydroxobenzoic acid'
_space_group_IT_number           14
_symmetry_cell_setting           monoclinic
_symmetry_space_group_name_Hall  '-P 2ybc'
_symmetry_space_group_name_H-M   'P 1 21/c 1'
_atom_sites_solution_hydrogens   geom
_atom_sites_solution_primary     direct
_atom_sites_solution_secondary   difmap
_audit_creation_method           SHELXL-97
_cell_angle_alpha                90.00
_cell_angle_beta                 90.261(2)
_cell_angle_gamma                90.00
_cell_formula_units_Z            4
_cell_length_a                   3.97840(10)
_cell_length_b                   16.1049(4)
_cell_length_c                   11.5198(3)
_cell_measurement_reflns_used    21325
_cell_measurement_temperature    120(2)
_cell_measurement_theta_max      27.48
_cell_measurement_theta_min      2.91
_cell_volume                     738.09(3)
_computing_cell_refinement
'DENZO (Otwinowski & Minor, 1997) & COLLECT (Hooft, R.W.W., 1998)'
_computing_data_collection       'COLLECT (Hooft, R.W.W., 1998)'
_computing_data_reduction
'DENZO (Otwinowski & Minor, 1997) & COLLECT (Hooft, R.W.W., 1998)'
_computing_structure_refinement  'SHELXL-97 (Sheldrick, 1997)'
_computing_structure_solution    'SHELXS-97 (Sheldrick, 1990)'
_diffrn_ambient_temperature      120(2)
_diffrn_detector_area_resol_mean 9.091
_diffrn_measured_fraction_theta_full 0.986
_diffrn_measured_fraction_theta_max 0.986
_diffrn_measurement_device_type
'Bruker-Nonius Roper CCD camera on \k-goniostat'
_diffrn_measurement_method       '\f & \w scans'
_diffrn_radiation_monochromator  graphite
_diffrn_radiation_source         'Bruker-Nonius FR591 rotating anode'
_diffrn_radiation_type           MoK\a
_diffrn_radiation_wavelength     0.71073
_diffrn_reflns_av_R_equivalents  0.0337
_diffrn_reflns_av_sigmaI/netI    0.0273
_diffrn_reflns_limit_h_max       5
_diffrn_reflns_limit_h_min       -5
_diffrn_reflns_limit_k_max       20
_diffrn_reflns_limit_k_min       -20
_diffrn_reflns_limit_l_max       14
_diffrn_reflns_limit_l_min       -14
_diffrn_reflns_number            11278
_diffrn_reflns_theta_full        27.60
_diffrn_reflns_theta_max         27.60
_diffrn_reflns_theta_min         3.09
_exptl_absorpt_coefficient_mu    0.123
_exptl_absorpt_correction_T_max  0.9902
_exptl_absorpt_correction_T_min  0.9411
_exptl_absorpt_correction_type   multi-scan
_exptl_absorpt_process_details   'SADABS 2007/2 (Sheldrick, G.M., 2007)'
_exptl_crystal_colour            Colourless
_exptl_crystal_density_diffrn    1.513
_exptl_crystal_density_method    'not measured'
_exptl_crystal_description       Needle
_exptl_crystal_F_000             352
_exptl_crystal_size_max          0.50
_exptl_crystal_size_mid          0.10
_exptl_crystal_size_min          0.08
_refine_diff_density_max         0.222
_refine_diff_density_min         -0.193
_refine_diff_density_rms         0.045
_refine_ls_extinction_method     none
_refine_ls_goodness_of_fit_ref   1.051
_refine_ls_hydrogen_treatment    constr
_refine_ls_matrix_type           full
_refine_ls_number_parameters     113
_refine_ls_number_reflns         1685
_refine_ls_number_restraints     0
_refine_ls_restrained_S_all      1.051
_refine_ls_R_factor_all          0.0405
_refine_ls_R_factor_gt           0.0375
_refine_ls_shift/su_max          0.000
_refine_ls_shift/su_mean         0.000
_refine_ls_structure_factor_coef Fsqd
_refine_ls_weighting_details
'calc w=1/[\s^2^(Fo^2^)+(0.0572P)^2^+0.2285P] where P=(Fo^2^+2Fc^2^)/3'
_refine_ls_weighting_scheme      calc
_refine_ls_wR_factor_gt          0.0985
_refine_ls_wR_factor_ref         0.1017
_reflns_number_gt                1582
_reflns_number_total             1685
_reflns_threshold_expression     >2sigma(I)
_cod_data_source_file            c2ce25336d.txt
_cod_data_source_block           5-methoxysalicylic_acid
_cod_original_sg_symbol_H-M      P21/c
_cod_database_code               7208267
loop_
_symmetry_equiv_pos_as_xyz
'x, y, z'
'-x, y+1/2, -z+1/2'
'-x, -y, -z'
'x, -y-1/2, z-1/2'
loop_
_atom_site_label
_atom_site_type_symbol
_atom_site_fract_x
_atom_site_fract_y
_atom_site_fract_z
_atom_site_U_iso_or_equiv
_atom_site_adp_type
_atom_site_occupancy
_atom_site_symmetry_multiplicity
_atom_site_calc_flag
_atom_site_refinement_flags
C1 C 0.2307(4) 0.15732(8) 0.67322(11) 0.0175(3) Uani 1 1 d .
C2 C 0.0461(4) 0.14021(8) 0.77373(12) 0.0196(3) Uani 1 1 d .
C3 C -0.0462(4) 0.20589(9) 0.84639(12) 0.0216(3) Uani 1 1 d .
H3A H -0.1704 0.1949 0.9149 0.026 Uiso 1 1 calc R
C4 C 0.0413(4) 0.28616(9) 0.81951(12) 0.0205(3) Uani 1 1 d .
H4 H -0.0236 0.3301 0.8697 0.025 Uiso 1 1 calc R
C5 C 0.2245(4) 0.30400(8) 0.71926(12) 0.0186(3) Uani 1 1 d .
C6 C 0.3173(4) 0.24013(8) 0.64601(11) 0.0183(3) Uani 1 1 d .
H6 H 0.4395 0.2519 0.5773 0.022 Uiso 1 1 calc R
C7 C 0.3371(4) 0.08909(8) 0.59767(12) 0.0189(3) Uani 1 1 d .
C8 C 0.4732(4) 0.40801(8) 0.59975(13) 0.0238(3) Uani 1 1 d .
H8A H 0.6909 0.3795 0.5988 0.036 Uiso 1 1 calc R
H8B H 0.5092 0.4682 0.5979 0.036 Uiso 1 1 calc R
H8C H 0.3410 0.3912 0.5317 0.036 Uiso 1 1 calc R
O1 O 0.5265(3) 0.11103(6) 0.50922(9) 0.0240(3) Uani 1 1 d .
H1 H 0.5839 0.0685 0.4720 0.036 Uiso 1 1 calc R
O2 O 0.2579(3) 0.01563(6) 0.61548(9) 0.0237(3) Uani 1 1 d .
O3 O -0.0545(3) 0.06310(6) 0.80632(10) 0.0269(3) Uani 1 1 d .
H3 H 0.0175 0.0280 0.7586 0.040 Uiso 1 1 calc R
O4 O 0.2967(3) 0.38636(6) 0.70267(9) 0.0235(3) Uani 1 1 d .
loop_
_atom_site_aniso_label
_atom_site_aniso_U_11
_atom_site_aniso_U_22
_atom_site_aniso_U_33
_atom_site_aniso_U_23
_atom_site_aniso_U_13
_atom_site_aniso_U_12
C1 0.0206(7) 0.0142(6) 0.0177(6) -0.0006(5) -0.0011(6) 0.0012(5)
C2 0.0238(7) 0.0156(6) 0.0196(6) 0.0013(5) 0.0005(6) 0.0001(6)
C3 0.0256(7) 0.0206(7) 0.0187(6) -0.0002(5) 0.0038(6) 0.0011(6)
C4 0.0242(7) 0.0176(6) 0.0196(6) -0.0033(5) 0.0007(6) 0.0030(5)
C5 0.0225(7) 0.0127(6) 0.0207(6) -0.0005(5) -0.0016(6) 0.0002(5)
C6 0.0219(7) 0.0156(6) 0.0172(6) -0.0004(5) 0.0012(6) 0.0009(5)
C7 0.0218(7) 0.0157(6) 0.0192(6) -0.0002(5) -0.0005(6) 0.0014(5)
C8 0.0305(8) 0.0154(6) 0.0257(7) 0.0001(5) 0.0053(7) -0.0017(6)
O1 0.0348(6) 0.0136(4) 0.0238(5) -0.0033(4) 0.0102(5) -0.0002(4)
O2 0.0329(6) 0.0129(4) 0.0253(5) -0.0012(4) 0.0058(5) -0.0002(4)
O3 0.0393(7) 0.0144(5) 0.0271(5) 0.0013(4) 0.0102(5) -0.0017(4)
O4 0.0338(6) 0.0114(5) 0.0254(5) -0.0027(4) 0.0068(5) -0.0011(4)
loop_
_atom_type_symbol
_atom_type_description
_atom_type_scat_dispersion_real
_atom_type_scat_dispersion_imag
_atom_type_scat_source
C C 0.0030 0.0020 'International Tables Vol C Tables 4.2.6.8 and 6.1.1.4'
H H 0.0000 0.0000 'International Tables Vol C Tables 4.2.6.8 and 6.1.1.4'
O O 0.0110 0.0060 'International Tables Vol C Tables 4.2.6.8 and 6.1.1.4'
loop_
_geom_angle_atom_site_label_1
_geom_angle_atom_site_label_2
_geom_angle_atom_site_label_3
_geom_angle
C2 C1 C6 119.88(12)
C2 C1 C7 119.81(12)
C6 C1 C7 120.30(12)
O3 C2 C3 116.59(12)
O3 C2 C1 124.36(12)
C3 C2 C1 119.05(12)
C4 C3 C2 120.60(13)
C4 C3 H3A 119.7
C2 C3 H3A 119.7
C3 C4 C5 120.85(13)
C3 C4 H4 119.6
C5 C4 H4 119.6
O4 C5 C6 125.34(13)
O4 C5 C4 115.11(12)
C6 C5 C4 119.55(12)
C5 C6 C1 120.07(13)
C5 C6 H6 120.0
C1 C6 H6 120.0
O2 C7 O1 121.97(12)
O2 C7 C1 122.83(13)
O1 C7 C1 115.20(11)
O4 C8 H8A 109.5
O4 C8 H8B 109.5
H8A C8 H8B 109.5
O4 C8 H8C 109.5
H8A C8 H8C 109.5
H8B C8 H8C 109.5
C7 O1 H1 109.5
C2 O3 H3 109.5
C5 O4 C8 117.22(11)
loop_
_geom_bond_atom_site_label_1
_geom_bond_atom_site_label_2
_geom_bond_distance
C1 C2 1.401(2)
C1 C6 1.4130(19)
C1 C7 1.4655(18)
C2 O3 1.3582(17)
C2 C3 1.3989(19)
C3 C4 1.374(2)
C3 H3A 0.9500
C4 C5 1.398(2)
C4 H4 0.9500
C5 O4 1.3708(16)
C5 C6 1.3817(19)
C6 H6 0.9500
C7 O2 1.2416(17)
C7 O1 1.3181(18)
C8 O4 1.4239(19)
C8 H8A 0.9800
C8 H8B 0.9800
C8 H8C 0.9800
O1 H1 0.8400
O3 H3 0.8400
loop_
_geom_hbond_atom_site_label_D
_geom_hbond_atom_site_label_H
_geom_hbond_atom_site_label_A
_geom_hbond_distance_DH
_geom_hbond_distance_HA
_geom_hbond_distance_DA
_geom_hbond_angle_DHA
_geom_hbond_site_symmetry_A
O1 H1 O2 0.84 1.80 2.6405(14) 173.6 3_656
O3 H3 O2 0.84 1.92 2.6433(15) 143.5 .
