#------------------------------------------------------------------------------
#$Date: 2016-03-26 18:08:36 +0200 (Sat, 26 Mar 2016) $
#$Revision: 180413 $
#$URL: svn://www.crystallography.net/cod/cif/7/20/82/7208258.cif $
#------------------------------------------------------------------------------
#
# This file is available in the Crystallography Open Database (COD),
# http://www.crystallography.net/
#
# All data on this site have been placed in the public domain by the
# contributors.
#
data_7208258
loop_
_publ_author_name
'Montis, Riccardo'
'Hursthouse, Michael B.'
_publ_section_title
;
 Surprisingly complex supramolecular behaviour in the crystal structures
 of a family of mono-substituted salicylic acids
;
_journal_issue                   16
_journal_name_full               CrystEngComm
_journal_page_first              5242
_journal_paper_doi               10.1039/c2ce25336d
_journal_volume                  14
_journal_year                    2012
_chemical_formula_moiety         'C7 H5 Cl O3'
_chemical_formula_sum            'C7 H5 Cl O3'
_chemical_formula_weight         172.56
_chemical_name_common            '4-chlorosalicylic acid'
_chemical_name_systematic        '4-chloro-2-hydroxobenzoic acid'
_space_group_IT_number           14
_symmetry_cell_setting           monoclinic
_symmetry_space_group_name_Hall  '-P 2ybc'
_symmetry_space_group_name_H-M   'P 1 21/c 1'
_atom_sites_solution_hydrogens   geom
_atom_sites_solution_primary     direct
_atom_sites_solution_secondary   difmap
_audit_creation_method           SHELXL-97
_cell_angle_alpha                90.00
_cell_angle_beta                 97.933(3)
_cell_angle_gamma                90.00
_cell_formula_units_Z            4
_cell_length_a                   3.7241(2)
_cell_length_b                   14.4178(8)
_cell_length_c                   12.9156(6)
_cell_measurement_reflns_used    1518
_cell_measurement_temperature    120(2)
_cell_measurement_theta_max      27.48
_cell_measurement_theta_min      2.91
_cell_volume                     686.85(6)
_computing_cell_refinement
'DENZO (Otwinowski & Minor, 1997) & COLLECT (Hooft, R.W.W., 1998)'
_computing_data_collection       'COLLECT (Hooft, R.W.W., 1998)'
_computing_data_reduction
'DENZO (Otwinowski & Minor, 1997) & COLLECT (Hooft, R.W.W., 1998)'
_computing_structure_refinement  'SHELXL-97 (Sheldrick, 1997)'
_computing_structure_solution    'SHELXS-97 (Sheldrick, 1990)'
_diffrn_ambient_temperature      120(2)
_diffrn_detector_area_resol_mean 9.091
_diffrn_measured_fraction_theta_full 0.990
_diffrn_measured_fraction_theta_max 0.990
_diffrn_measurement_device_type
'Bruker-Nonius Roper CCD camera on \k-goniostat'
_diffrn_measurement_method       '\f & \w scans'
_diffrn_radiation_monochromator  graphite
_diffrn_radiation_source         'Bruker-Nonius FR591 rotating anode'
_diffrn_radiation_type           MoK\a
_diffrn_radiation_wavelength     0.71073
_diffrn_reflns_av_R_equivalents  0.0457
_diffrn_reflns_av_sigmaI/netI    0.0454
_diffrn_reflns_limit_h_max       4
_diffrn_reflns_limit_h_min       -4
_diffrn_reflns_limit_k_max       18
_diffrn_reflns_limit_k_min       -14
_diffrn_reflns_limit_l_max       16
_diffrn_reflns_limit_l_min       -16
_diffrn_reflns_number            5857
_diffrn_reflns_theta_full        27.48
_diffrn_reflns_theta_max         27.48
_diffrn_reflns_theta_min         3.19
_exptl_absorpt_coefficient_mu    0.500
_exptl_absorpt_correction_T_max  0.9950
_exptl_absorpt_correction_T_min  0.9287
_exptl_absorpt_correction_type   multi-scan
_exptl_absorpt_process_details   'SADABS 2007/2 (Sheldrick, G.M., 2007)'
_exptl_crystal_colour            Colourless
_exptl_crystal_density_diffrn    1.669
_exptl_crystal_density_method    'not measured'
_exptl_crystal_description       Plate
_exptl_crystal_F_000             352
_exptl_crystal_size_max          0.15
_exptl_crystal_size_mid          0.13
_exptl_crystal_size_min          0.01
_refine_diff_density_max         0.360
_refine_diff_density_min         -0.306
_refine_diff_density_rms         0.075
_refine_ls_extinction_method     none
_refine_ls_goodness_of_fit_ref   1.098
_refine_ls_hydrogen_treatment    constr
_refine_ls_matrix_type           full
_refine_ls_number_parameters     102
_refine_ls_number_reflns         1556
_refine_ls_number_restraints     0
_refine_ls_restrained_S_all      1.098
_refine_ls_R_factor_all          0.0638
_refine_ls_R_factor_gt           0.0488
_refine_ls_shift/su_max          0.000
_refine_ls_shift/su_mean         0.000
_refine_ls_structure_factor_coef Fsqd
_refine_ls_weighting_details
'calc w=1/[\s^2^(Fo^2^)+(0.0000P)^2^+1.2925P] where P=(Fo^2^+2Fc^2^)/3'
_refine_ls_weighting_scheme      calc
_refine_ls_wR_factor_gt          0.0944
_refine_ls_wR_factor_ref         0.1033
_reflns_number_gt                1284
_reflns_number_total             1556
_reflns_threshold_expression     >2sigma(I)
_cod_data_source_file            c2ce25336d.txt
_cod_data_source_block           4-chlorosalicylic_acid
_cod_original_cell_volume        686.84(6)
_cod_original_sg_symbol_H-M      P21/c
_cod_database_code               7208258
loop_
_symmetry_equiv_pos_as_xyz
'x, y, z'
'-x, y+1/2, -z+1/2'
'-x, -y, -z'
'x, -y-1/2, z-1/2'
loop_
_atom_site_label
_atom_site_type_symbol
_atom_site_fract_x
_atom_site_fract_y
_atom_site_fract_z
_atom_site_U_iso_or_equiv
_atom_site_adp_type
_atom_site_occupancy
_atom_site_symmetry_multiplicity
_atom_site_calc_flag
_atom_site_refinement_flags
Cl1 Cl 0.95831(18) 0.47559(4) 0.66680(5) 0.02622(19) Uani 1 1 d .
O2 O 0.2151(5) 0.05295(13) 0.59915(14) 0.0272(4) Uani 1 1 d .
O1 O 0.1402(5) 0.10606(13) 0.43516(14) 0.0270(4) Uani 1 1 d .
H1 H 0.0295 0.0555 0.4244 0.040 Uiso 1 1 calc R
O3 O 0.5507(6) 0.15543(14) 0.74935(15) 0.0325(5) Uani 1 1 d .
H3 H 0.4428 0.1078 0.7239 0.049 Uiso 1 1 calc R
C6 C 0.4722(7) 0.27212(17) 0.4932(2) 0.0203(5) Uani 1 1 d .
H6 H 0.3839 0.2613 0.4216 0.024 Uiso 1 1 calc R
C2 C 0.5723(7) 0.21831(17) 0.67232(19) 0.0209(5) Uani 1 1 d .
C4 C 0.7622(7) 0.36970(17) 0.6279(2) 0.0210(5) Uani 1 1 d .
C1 C 0.4369(7) 0.20264(17) 0.56687(19) 0.0190(5) Uani 1 1 d .
C3 C 0.7363(7) 0.30280(18) 0.7030(2) 0.0232(6) Uani 1 1 d .
H3A H 0.8285 0.3141 0.7742 0.028 Uiso 1 1 calc R
C7 C 0.2575(7) 0.11460(17) 0.5354(2) 0.0210(5) Uani 1 1 d .
C5 C 0.6332(7) 0.35605(18) 0.5227(2) 0.0223(5) Uani 1 1 d .
H5 H 0.6553 0.4032 0.4725 0.027 Uiso 1 1 calc R
loop_
_atom_site_aniso_label
_atom_site_aniso_U_11
_atom_site_aniso_U_22
_atom_site_aniso_U_33
_atom_site_aniso_U_23
_atom_site_aniso_U_13
_atom_site_aniso_U_12
Cl1 0.0261(3) 0.0200(3) 0.0327(4) -0.0047(3) 0.0045(3) -0.0042(3)
O2 0.0360(11) 0.0216(9) 0.0222(9) 0.0016(8) -0.0021(8) -0.0061(8)
O1 0.0370(11) 0.0218(10) 0.0203(9) -0.0016(8) -0.0024(8) -0.0074(8)
O3 0.0455(13) 0.0263(10) 0.0241(10) 0.0026(8) -0.0011(9) -0.0068(9)
C6 0.0207(13) 0.0203(12) 0.0191(12) 0.0010(10) 0.0006(10) 0.0004(10)
C2 0.0221(13) 0.0207(12) 0.0198(12) 0.0016(10) 0.0021(10) -0.0008(10)
C4 0.0179(12) 0.0178(12) 0.0272(13) -0.0052(10) 0.0030(10) -0.0012(10)
C1 0.0173(12) 0.0184(12) 0.0209(12) -0.0025(10) 0.0016(10) 0.0007(10)
C3 0.0221(13) 0.0256(13) 0.0214(13) -0.0043(11) 0.0009(11) -0.0009(11)
C7 0.0205(13) 0.0208(13) 0.0217(13) -0.0010(10) 0.0027(10) 0.0016(10)
C5 0.0225(13) 0.0197(12) 0.0250(13) 0.0017(10) 0.0041(10) -0.0004(10)
loop_
_atom_type_symbol
_atom_type_description
_atom_type_scat_dispersion_real
_atom_type_scat_dispersion_imag
_atom_type_scat_source
C C 0.0033 0.0016 'International Tables Vol C Tables 4.2.6.8 and 6.1.1.4'
H H 0.0000 0.0000 'International Tables Vol C Tables 4.2.6.8 and 6.1.1.4'
O O 0.0106 0.0060 'International Tables Vol C Tables 4.2.6.8 and 6.1.1.4'
Cl Cl 0.1484 0.1585 'International Tables Vol C Tables 4.2.6.8 and 6.1.1.4'
loop_
_geom_angle_atom_site_label_1
_geom_angle_atom_site_label_2
_geom_angle_atom_site_label_3
_geom_angle
C7 O1 H1 109.5
C2 O3 H3 109.5
C5 C6 C1 121.1(2)
C5 C6 H6 119.4
C1 C6 H6 119.4
O3 C2 C3 116.3(2)
O3 C2 C1 123.7(2)
C3 C2 C1 120.0(2)
C3 C4 C5 122.6(2)
C3 C4 Cl1 118.6(2)
C5 C4 Cl1 118.8(2)
C6 C1 C2 119.3(2)
C6 C1 C7 120.9(2)
C2 C1 C7 119.8(2)
C4 C3 C2 118.7(2)
C4 C3 H3A 120.6
C2 C3 H3A 120.6
O2 C7 O1 122.2(2)
O2 C7 C1 122.2(2)
O1 C7 C1 115.5(2)
C6 C5 C4 118.2(2)
C6 C5 H5 120.9
C4 C5 H5 120.9
loop_
_geom_bond_atom_site_label_1
_geom_bond_atom_site_label_2
_geom_bond_distance
Cl1 C4 1.737(3)
O2 C7 1.236(3)
O1 C7 1.314(3)
O1 H1 0.8400
O3 C2 1.357(3)
O3 H3 0.8400
C6 C5 1.381(3)
C6 C1 1.400(3)
C6 H6 0.9500
C2 C3 1.395(4)
C2 C1 1.404(3)
C4 C3 1.381(4)
C4 C5 1.391(4)
C1 C7 1.466(3)
C3 H3A 0.9500
C5 H5 0.9500
loop_
_geom_hbond_atom_site_label_D
_geom_hbond_atom_site_label_H
_geom_hbond_atom_site_label_A
_geom_hbond_distance_DH
_geom_hbond_distance_HA
_geom_hbond_distance_DA
_geom_hbond_angle_DHA
_geom_hbond_site_symmetry_A
O1 H1 O2 0.84 1.81 2.654(3) 179.3 3_556
O3 H3 O2 0.84 1.89 2.615(3) 144.2 .
loop_
_geom_torsion_atom_site_label_1
_geom_torsion_atom_site_label_2
_geom_torsion_atom_site_label_3
_geom_torsion_atom_site_label_4
_geom_torsion
C5 C6 C1 C2 -0.9(4)
C5 C6 C1 C7 178.4(2)
O3 C2 C1 C6 179.9(2)
C3 C2 C1 C6 0.7(4)
O3 C2 C1 C7 0.6(4)
C3 C2 C1 C7 -178.6(2)
C5 C4 C3 C2 -0.4(4)
Cl1 C4 C3 C2 178.7(2)
O3 C2 C3 C4 -179.4(2)
C1 C2 C3 C4 -0.1(4)
C6 C1 C7 O2 -178.3(2)
C2 C1 C7 O2 1.0(4)
C6 C1 C7 O1 0.8(4)
C2 C1 C7 O1 -179.9(2)
C1 C6 C5 C4 0.4(4)
C3 C4 C5 C6 0.3(4)
Cl1 C4 C5 C6 -178.9(2)
