#------------------------------------------------------------------------------
#$Date: 2016-03-26 18:08:36 +0200 (Sat, 26 Mar 2016) $
#$Revision: 180413 $
#$URL: svn://www.crystallography.net/cod/cif/7/20/82/7208268.cif $
#------------------------------------------------------------------------------
#
# This file is available in the Crystallography Open Database (COD),
# http://www.crystallography.net/
#
# All data on this site have been placed in the public domain by the
# contributors.
#
data_7208268
loop_
_publ_author_name
'Montis, Riccardo'
'Hursthouse, Michael B.'
_publ_section_title
;
 Surprisingly complex supramolecular behaviour in the crystal structures
 of a family of mono-substituted salicylic acids
;
_journal_issue                   16
_journal_name_full               CrystEngComm
_journal_page_first              5242
_journal_paper_doi               10.1039/c2ce25336d
_journal_volume                  14
_journal_year                    2012
_chemical_formula_moiety         'C8 H8 O3'
_chemical_formula_sum            'C8 H8 O3'
_chemical_formula_weight         152.14
_chemical_name_common            '5-methyl-2-hydroxobenzoic acid'
_chemical_name_systematic        '5-methyl-2-hydroxobenzoic acid'
_space_group_IT_number           14
_symmetry_cell_setting           monoclinic
_symmetry_space_group_name_Hall  '-P 2yn'
_symmetry_space_group_name_H-M   'P 1 21/n 1'
_atom_sites_solution_hydrogens   geom
_atom_sites_solution_primary     direct
_atom_sites_solution_secondary   difmap
_audit_creation_method           SHELXL-97
_cell_angle_alpha                90.00
_cell_angle_beta                 95.498(2)
_cell_angle_gamma                90.00
_cell_formula_units_Z            4
_cell_length_a                   7.2810(3)
_cell_length_b                   5.0146(2)
_cell_length_c                   20.2789(7)
_cell_measurement_reflns_used    12555
_cell_measurement_temperature    120(2)
_cell_measurement_theta_max      27.48
_cell_measurement_theta_min      2.91
_cell_volume                     737.00(5)
_computing_cell_refinement
'DENZO (Otwinowski & Minor, 1997) & COLLECT (Hooft, R.W.W., 1998)'
_computing_data_collection       'COLLECT (Hooft, R.W.W., 1998)'
_computing_data_reduction
'DENZO (Otwinowski & Minor, 1997) & COLLECT (Hooft, R.W.W., 1998)'
_computing_structure_refinement  'SHELXL-97 (Sheldrick, 1997)'
_computing_structure_solution    'SHELXS-97 (Sheldrick, 1990)'
_diffrn_ambient_temperature      120(2)
_diffrn_detector_area_resol_mean '4096x4096pixels / 62x62mm'
_diffrn_measured_fraction_theta_full 0.995
_diffrn_measured_fraction_theta_max 0.995
_diffrn_measurement_device_type
'Bruker-Nonius APEX II CCD camera on \k-goniostat'
_diffrn_measurement_method       '\f & \w scans'
_diffrn_radiation_monochromator  '10cm confocal mirrors'
_diffrn_radiation_source         'Bruker-Nonius FR591 rotating anode'
_diffrn_radiation_type           MoK\a
_diffrn_radiation_wavelength     0.71073
_diffrn_reflns_av_R_equivalents  0.0466
_diffrn_reflns_av_sigmaI/netI    0.0359
_diffrn_reflns_limit_h_max       9
_diffrn_reflns_limit_h_min       -9
_diffrn_reflns_limit_k_max       6
_diffrn_reflns_limit_k_min       -6
_diffrn_reflns_limit_l_max       26
_diffrn_reflns_limit_l_min       -26
_diffrn_reflns_number            8182
_diffrn_reflns_theta_full        27.50
_diffrn_reflns_theta_max         27.50
_diffrn_reflns_theta_min         3.93
_exptl_absorpt_coefficient_mu    0.106
_exptl_absorpt_correction_T_max  0.9979
_exptl_absorpt_correction_T_min  0.9843
_exptl_absorpt_correction_type   multi-scan
_exptl_absorpt_process_details   'SADABS 2007/2 (Sheldrick, G.M., 2007)'
_exptl_crystal_colour            Colourless
_exptl_crystal_density_diffrn    1.371
_exptl_crystal_density_method    'not measured'
_exptl_crystal_description       Lath
_exptl_crystal_F_000             320
_exptl_crystal_size_max          0.15
_exptl_crystal_size_mid          0.06
_exptl_crystal_size_min          0.02
_refine_diff_density_max         0.272
_refine_diff_density_min         -0.235
_refine_diff_density_rms         0.054
_refine_ls_extinction_method     none
_refine_ls_goodness_of_fit_ref   1.094
_refine_ls_hydrogen_treatment    mixed
_refine_ls_matrix_type           full
_refine_ls_number_parameters     109
_refine_ls_number_reflns         1695
_refine_ls_number_restraints     0
_refine_ls_restrained_S_all      1.094
_refine_ls_R_factor_all          0.0672
_refine_ls_R_factor_gt           0.0534
_refine_ls_shift/su_max          0.007
_refine_ls_shift/su_mean         0.000
_refine_ls_structure_factor_coef Fsqd
_refine_ls_weighting_details
'calc w=1/[\s^2^(Fo^2^)+(0.0427P)^2^+0.6325P] where P=(Fo^2^+2Fc^2^)/3'
_refine_ls_weighting_scheme      calc
_refine_ls_wR_factor_gt          0.1203
_refine_ls_wR_factor_ref         0.1307
_reflns_number_gt                1396
_reflns_number_total             1695
_reflns_threshold_expression     >2\s(I)
_cod_data_source_file            c2ce25336d.txt
_cod_data_source_block           5-methylsalicylic_acid
_cod_original_sg_symbol_H-M      P21/n
_cod_database_code               7208268
loop_
_symmetry_equiv_pos_as_xyz
'x, y, z'
'-x+1/2, y+1/2, -z+1/2'
'-x, -y, -z'
'x-1/2, -y-1/2, z-1/2'
loop_
_atom_site_label
_atom_site_type_symbol
_atom_site_fract_x
_atom_site_fract_y
_atom_site_fract_z
_atom_site_U_iso_or_equiv
_atom_site_adp_type
_atom_site_occupancy
_atom_site_symmetry_multiplicity
_atom_site_calc_flag
_atom_site_refinement_flags
C1 C 0.5901(2) 0.5091(4) 0.39716(8) 0.0212(4) Uani 1 1 d .
C2 C 0.4557(2) 0.5824(4) 0.34603(9) 0.0231(4) Uani 1 1 d .
C3 C 0.4918(3) 0.7895(4) 0.30342(9) 0.0251(4) Uani 1 1 d .
H3 H 0.4012 0.8414 0.2690 0.030 Uiso 1 1 calc R
C4 C 0.6598(3) 0.9194(4) 0.31131(9) 0.0252(4) Uani 1 1 d .
H4 H 0.6831 1.0590 0.2816 0.030 Uiso 1 1 calc R
C5 C 0.7967(2) 0.8516(4) 0.36181(9) 0.0252(4) Uani 1 1 d .
C6 C 0.7590(2) 0.6474(4) 0.40421(9) 0.0236(4) Uani 1 1 d .
H6 H 0.8495 0.5992 0.4390 0.028 Uiso 1 1 calc R
C7 C 0.5538(2) 0.2924(4) 0.44261(8) 0.0220(4) Uani 1 1 d .
C8 C 0.9790(3) 0.9957(4) 0.36959(11) 0.0351(5) Uani 1 1 d .
H8A H 1.0225 1.0086 0.4167 0.053 Uiso 1 1 calc R
H8B H 0.9636 1.1753 0.3508 0.053 Uiso 1 1 calc R
H8C H 1.0694 0.8971 0.3463 0.053 Uiso 1 1 calc R
O1 O 0.68545(18) 0.2427(3) 0.48983(6) 0.0268(3) Uani 1 1 d .
O2 O 0.40615(17) 0.1658(3) 0.43745(6) 0.0255(3) Uani 1 1 d .
O3 O 0.28927(18) 0.4596(3) 0.33611(7) 0.0305(4) Uani 1 1 d .
H1A H 0.648(3) 0.105(6) 0.5139(13) 0.049(7) Uiso 1 1 d .
H3A H 0.290(4) 0.318(6) 0.3676(14) 0.057(8) Uiso 1 1 d .
loop_
_atom_site_aniso_label
_atom_site_aniso_U_11
_atom_site_aniso_U_22
_atom_site_aniso_U_33
_atom_site_aniso_U_23
_atom_site_aniso_U_13
_atom_site_aniso_U_12
C1 0.0215(8) 0.0202(8) 0.0221(8) -0.0014(7) 0.0024(7) -0.0022(7)
C2 0.0219(9) 0.0233(9) 0.0239(8) -0.0033(7) 0.0009(7) -0.0016(7)
C3 0.0274(9) 0.0259(9) 0.0218(8) 0.0015(7) 0.0013(7) 0.0023(7)
C4 0.0303(10) 0.0215(9) 0.0248(9) 0.0043(7) 0.0066(7) 0.0002(8)
C5 0.0223(9) 0.0245(9) 0.0295(9) 0.0017(8) 0.0051(7) -0.0007(7)
C6 0.0208(9) 0.0236(9) 0.0260(9) -0.0003(7) 0.0008(7) -0.0013(7)
C7 0.0234(8) 0.0205(9) 0.0218(8) -0.0013(7) 0.0014(7) -0.0002(7)
C8 0.0251(10) 0.0326(11) 0.0478(12) 0.0077(10) 0.0049(9) -0.0055(8)
O1 0.0257(7) 0.0268(7) 0.0270(7) 0.0061(6) -0.0032(5) -0.0045(6)
O2 0.0234(7) 0.0243(7) 0.0282(7) 0.0030(5) -0.0005(5) -0.0052(5)
O3 0.0248(7) 0.0327(8) 0.0322(7) 0.0051(6) -0.0064(5) -0.0082(6)
loop_
_atom_type_symbol
_atom_type_description
_atom_type_scat_dispersion_real
_atom_type_scat_dispersion_imag
_atom_type_scat_source
C C 0.0033 0.0016 'International Tables Vol C Tables 4.2.6.8 and 6.1.1.4'
H H 0.0000 0.0000 'International Tables Vol C Tables 4.2.6.8 and 6.1.1.4'
O O 0.0106 0.0060 'International Tables Vol C Tables 4.2.6.8 and 6.1.1.4'
loop_
_geom_angle_atom_site_label_1
_geom_angle_atom_site_label_2
_geom_angle_atom_site_label_3
_geom_angle
C2 C1 C6 119.10(16)
C2 C1 C7 120.22(15)
C6 C1 C7 120.68(16)
O3 C2 C3 117.75(16)
O3 C2 C1 122.67(16)
C3 C2 C1 119.58(16)
C4 C3 C2 119.84(17)
C4 C3 H3 120.1
C2 C3 H3 120.1
C3 C4 C5 122.05(17)
C3 C4 H4 119.0
C5 C4 H4 119.0
C6 C5 C4 117.69(17)
C6 C5 C8 121.07(17)
C4 C5 C8 121.24(17)
C5 C6 C1 121.74(17)
C5 C6 H6 119.1
C1 C6 H6 119.1
O2 C7 O1 121.97(16)
O2 C7 C1 122.13(15)
O1 C7 C1 115.89(15)
C5 C8 H8A 109.5
C5 C8 H8B 109.5
H8A C8 H8B 109.5
C5 C8 H8C 109.5
H8A C8 H8C 109.5
H8B C8 H8C 109.5
C7 O1 H1A 107.8(16)
C2 O3 H3A 106.8(17)
loop_
_geom_bond_atom_site_label_1
_geom_bond_atom_site_label_2
_geom_bond_distance
C1 C2 1.405(2)
C1 C6 1.407(2)
C1 C7 1.466(2)
C2 O3 1.357(2)
C2 C3 1.392(3)
C3 C4 1.381(3)
C3 H3 0.9500
C4 C5 1.401(3)
C4 H4 0.9500
C5 C6 1.381(3)
C5 C8 1.506(3)
C6 H6 0.9500
C7 O2 1.244(2)
C7 O1 1.312(2)
C8 H8A 0.9800
C8 H8B 0.9800
C8 H8C 0.9800
O1 H1A 0.90(3)
O3 H3A 0.96(3)
loop_
_geom_hbond_atom_site_label_D
_geom_hbond_atom_site_label_H
_geom_hbond_atom_site_label_A
_geom_hbond_distance_DH
_geom_hbond_distance_HA
_geom_hbond_distance_DA
_geom_hbond_angle_DHA
_geom_hbond_site_symmetry_A
O1 H1A O2 0.90(3) 1.75(3) 2.6467(18) 176(2) 3_656
O3 H3A O2 0.96(3) 1.75(3) 2.6043(19) 147(2) .
loop_
_geom_torsion_atom_site_label_1
_geom_torsion_atom_site_label_2
_geom_torsion_atom_site_label_3
_geom_torsion_atom_site_label_4
_geom_torsion
C6 C1 C2 O3 -179.74(16)
C7 C1 C2 O3 -0.1(3)
C6 C1 C2 C3 0.0(3)
C7 C1 C2 C3 179.71(16)
O3 C2 C3 C4 -179.60(16)
C1 C2 C3 C4 0.6(3)
C2 C3 C4 C5 -0.7(3)
C3 C4 C5 C6 0.1(3)
C3 C4 C5 C8 -179.99(18)
C4 C5 C6 C1 0.5(3)
C8 C5 C6 C1 -179.34(18)
C2 C1 C6 C5 -0.6(3)
C7 C1 C6 C5 179.70(16)
C2 C1 C7 O2 0.6(3)
C6 C1 C7 O2 -179.72(17)
C2 C1 C7 O1 -178.28(16)
C6 C1 C7 O1 1.4(2)
