#------------------------------------------------------------------------------
#$Date: 2016-03-26 18:08:36 +0200 (Sat, 26 Mar 2016) $
#$Revision: 180413 $
#$URL: svn://www.crystallography.net/cod/cif/7/20/82/7208272.cif $
#------------------------------------------------------------------------------
#
# This file is available in the Crystallography Open Database (COD),
# http://www.crystallography.net/
#
# All data on this site have been placed in the public domain by the
# contributors.
#
data_7208272
loop_
_publ_author_name
'Montis, Riccardo'
'Hursthouse, Michael B.'
_publ_section_title
;
 Surprisingly complex supramolecular behaviour in the crystal structures
 of a family of mono-substituted salicylic acids
;
_journal_issue                   16
_journal_name_full               CrystEngComm
_journal_page_first              5242
_journal_paper_doi               10.1039/c2ce25336d
_journal_volume                  14
_journal_year                    2012
_chemical_formula_moiety         'C7 H5 F O3'
_chemical_formula_sum            'C7 H5 F O3'
_chemical_formula_weight         156.11
_chemical_name_common            '6-fluorosalicylic acid'
_chemical_name_systematic        '6-fluoro-2-hydroxobenzoic acid'
_space_group_IT_number           14
_symmetry_cell_setting           monoclinic
_symmetry_space_group_name_Hall  '-P 2yn'
_symmetry_space_group_name_H-M   'P 1 21/n 1'
_atom_sites_solution_hydrogens   geom
_atom_sites_solution_primary     direct
_atom_sites_solution_secondary   difmap
_audit_creation_method           SHELXL-97
_cell_angle_alpha                90.00
_cell_angle_beta                 91.907(3)
_cell_angle_gamma                90.00
_cell_formula_units_Z            4
_cell_length_a                   5.3146(2)
_cell_length_b                   5.2118(2)
_cell_length_c                   22.5378(10)
_cell_measurement_reflns_used    21229
_cell_measurement_temperature    120(2)
_cell_measurement_theta_max      27.48
_cell_measurement_theta_min      2.91
_cell_volume                     623.92(4)
_computing_cell_refinement
'DENZO (Otwinowski & Minor, 1997) & COLLECT (Hooft, R.W.W., 1998)'
_computing_data_collection       'COLLECT (Hooft, R.W.W., 1998)'
_computing_data_reduction
'DENZO (Otwinowski & Minor, 1997) & COLLECT (Hooft, R.W.W., 1998)'
_computing_structure_refinement  'SHELXL-97 (Sheldrick, 1997)'
_computing_structure_solution    'SHELXS-97 (Sheldrick, 1990)'
_diffrn_ambient_temperature      120(2)
_diffrn_detector_area_resol_mean 9.091
_diffrn_measured_fraction_theta_full 0.992
_diffrn_measured_fraction_theta_max 0.992
_diffrn_measurement_device_type
'Bruker-Nonius Roper CCD camera on \k-goniostat'
_diffrn_measurement_method       '\f & \w scans'
_diffrn_radiation_monochromator  graphite
_diffrn_radiation_source         'Bruker-Nonius FR591 rotating anode'
_diffrn_radiation_type           MoK\a
_diffrn_radiation_wavelength     0.71073
_diffrn_reflns_av_R_equivalents  0.0418
_diffrn_reflns_av_sigmaI/netI    0.0336
_diffrn_reflns_limit_h_max       6
_diffrn_reflns_limit_h_min       -6
_diffrn_reflns_limit_k_max       6
_diffrn_reflns_limit_k_min       -6
_diffrn_reflns_limit_l_max       29
_diffrn_reflns_limit_l_min       -29
_diffrn_reflns_number            8172
_diffrn_reflns_theta_full        27.50
_diffrn_reflns_theta_max         27.50
_diffrn_reflns_theta_min         3.97
_exptl_absorpt_coefficient_mu    0.149
_exptl_absorpt_correction_T_max  0.9985
_exptl_absorpt_correction_T_min  0.9566
_exptl_absorpt_correction_type   multi-scan
_exptl_absorpt_process_details   'SADABS V2.10 (Sheldrick, G.M., 2003)'
_exptl_crystal_colour            Colourless
_exptl_crystal_density_diffrn    1.662
_exptl_crystal_density_method    'not measured'
_exptl_crystal_description       Plate
_exptl_crystal_F_000             320
_exptl_crystal_size_max          0.30
_exptl_crystal_size_mid          0.20
_exptl_crystal_size_min          0.01
_refine_diff_density_max         0.296
_refine_diff_density_min         -0.327
_refine_diff_density_rms         0.056
_refine_ls_extinction_method     none
_refine_ls_goodness_of_fit_ref   1.087
_refine_ls_hydrogen_treatment    mixed
_refine_ls_matrix_type           full
_refine_ls_number_parameters     108
_refine_ls_number_reflns         1420
_refine_ls_number_restraints     0
_refine_ls_restrained_S_all      1.087
_refine_ls_R_factor_all          0.0581
_refine_ls_R_factor_gt           0.0484
_refine_ls_shift/su_max          0.001
_refine_ls_shift/su_mean         0.000
_refine_ls_structure_factor_coef Fsqd
_refine_ls_weighting_details
'calc w=1/[\s^2^(Fo^2^)+(0.0587P)^2^+0.3464P] where P=(Fo^2^+2Fc^2^)/3'
_refine_ls_weighting_scheme      calc
_refine_ls_wR_factor_gt          0.1213
_refine_ls_wR_factor_ref         0.1276
_reflns_number_gt                1212
_reflns_number_total             1420
_reflns_threshold_expression     >2sigma(I)
_cod_data_source_file            c2ce25336d.txt
_cod_data_source_block           6-fluorosalicylic_acid
_cod_original_sg_symbol_H-M      P21/n
_cod_database_code               7208272
loop_
_symmetry_equiv_pos_as_xyz
'x, y, z'
'-x+1/2, y+1/2, -z+1/2'
'-x, -y, -z'
'x-1/2, -y-1/2, z-1/2'
loop_
_atom_site_label
_atom_site_type_symbol
_atom_site_fract_x
_atom_site_fract_y
_atom_site_fract_z
_atom_site_U_iso_or_equiv
_atom_site_adp_type
_atom_site_occupancy
_atom_site_symmetry_multiplicity
_atom_site_calc_flag
_atom_site_refinement_flags
C1 C 1.0469(3) 0.9619(3) 0.10787(7) 0.0210(4) Uani 1 1 d .
C2 C 1.2474(3) 1.1389(3) 0.10621(7) 0.0247(4) Uani 1 1 d .
C3 C 1.2808(3) 1.3264(3) 0.15005(9) 0.0297(4) Uani 1 1 d .
H3 H 1.4165 1.4445 0.1484 0.036 Uiso 1 1 calc R
C4 C 1.1151(3) 1.3381(3) 0.19558(8) 0.0300(4) Uani 1 1 d .
H4 H 1.1373 1.4665 0.2252 0.036 Uiso 1 1 calc R
C5 C 0.9159(3) 1.1663(3) 0.19927(7) 0.0266(4) Uani 1 1 d .
H5 H 0.8039 1.1748 0.2312 0.032 Uiso 1 1 calc R
C6 C 0.8850(3) 0.9835(3) 0.15545(7) 0.0219(4) Uani 1 1 d .
C7 C 1.0154(3) 0.7641(3) 0.06113(7) 0.0228(4) Uani 1 1 d .
O1 O 0.8203(3) 0.6151(3) 0.06338(6) 0.0320(3) Uani 1 1 d .
O2 O 1.1737(3) 0.7462(3) 0.02162(5) 0.0359(4) Uani 1 1 d .
O3 O 1.4152(3) 1.1392(3) 0.06271(7) 0.0339(4) Uani 1 1 d .
F1 F 0.68973(19) 0.8194(2) 0.16084(5) 0.0324(3) Uani 1 1 d .
H1A H 0.825(6) 0.505(7) 0.0383(15) 0.081(10) Uiso 1 1 d .
H3A H 1.382(6) 1.043(6) 0.0456(15) 0.075(12) Uiso 1 1 d .
loop_
_atom_site_aniso_label
_atom_site_aniso_U_11
_atom_site_aniso_U_22
_atom_site_aniso_U_33
_atom_site_aniso_U_23
_atom_site_aniso_U_13
_atom_site_aniso_U_12
C1 0.0244(8) 0.0183(7) 0.0201(7) 0.0001(6) -0.0038(6) 0.0021(6)
C2 0.0212(8) 0.0263(8) 0.0266(8) 0.0042(6) -0.0007(6) 0.0004(6)
C3 0.0244(8) 0.0219(8) 0.0422(10) -0.0005(7) -0.0086(7) -0.0022(6)
C4 0.0334(9) 0.0217(8) 0.0338(9) -0.0075(7) -0.0129(7) 0.0047(7)
C5 0.0302(8) 0.0269(9) 0.0227(8) -0.0022(6) -0.0014(6) 0.0051(7)
C6 0.0219(7) 0.0197(7) 0.0239(8) 0.0035(6) -0.0022(6) -0.0016(6)
C7 0.0267(8) 0.0226(8) 0.0191(7) 0.0004(6) -0.0019(6) 0.0035(6)
O1 0.0399(7) 0.0258(7) 0.0298(7) -0.0081(5) -0.0059(5) -0.0041(5)
O2 0.0436(8) 0.0375(8) 0.0267(7) -0.0083(6) 0.0038(5) 0.0046(6)
O3 0.0240(7) 0.0432(9) 0.0348(8) 0.0030(6) 0.0070(5) -0.0061(6)
F1 0.0332(6) 0.0308(6) 0.0334(6) 0.0008(4) 0.0049(4) -0.0093(4)
loop_
_atom_type_symbol
_atom_type_description
_atom_type_scat_dispersion_real
_atom_type_scat_dispersion_imag
_atom_type_scat_source
C C 0.0033 0.0016 'International Tables Vol C Tables 4.2.6.8 and 6.1.1.4'
H H 0.0000 0.0000 'International Tables Vol C Tables 4.2.6.8 and 6.1.1.4'
O O 0.0106 0.0060 'International Tables Vol C Tables 4.2.6.8 and 6.1.1.4'
F F 0.0171 0.0103 'International Tables Vol C Tables 4.2.6.8 and 6.1.1.4'
loop_
_geom_angle_atom_site_label_1
_geom_angle_atom_site_label_2
_geom_angle_atom_site_label_3
_geom_angle
C6 C1 C2 116.82(14)
C6 C1 C7 122.90(14)
C2 C1 C7 120.28(15)
O3 C2 C3 116.24(16)
O3 C2 C1 122.63(16)
C3 C2 C1 121.13(16)
C4 C3 C2 119.30(16)
C4 C3 H3 120.4
C2 C3 H3 120.4
C3 C4 C5 121.55(16)
C3 C4 H4 119.2
C5 C4 H4 119.2
C6 C5 C4 118.34(16)
C6 C5 H5 120.8
C4 C5 H5 120.8
F1 C6 C5 116.48(15)
F1 C6 C1 120.67(14)
C5 C6 C1 122.85(15)
O2 C7 O1 122.78(15)
O2 C7 C1 119.80(15)
O1 C7 C1 117.42(14)
C7 O1 H1A 111(2)
C2 O3 H3A 105(3)
loop_
_geom_bond_atom_site_label_1
_geom_bond_atom_site_label_2
_geom_bond_distance
C1 C6 1.401(2)
C1 C2 1.411(2)
C1 C7 1.480(2)
C2 O3 1.347(2)
C2 C3 1.397(2)
C3 C4 1.376(3)
C3 H3 0.9500
C4 C5 1.391(3)
C4 H4 0.9500
C5 C6 1.378(2)
C5 H5 0.9500
C6 F1 1.3533(18)
C7 O2 1.249(2)
C7 O1 1.298(2)
O1 H1A 0.81(3)
O3 H3A 0.65(3)
loop_
_geom_hbond_atom_site_label_D
_geom_hbond_atom_site_label_H
_geom_hbond_atom_site_label_A
_geom_hbond_distance_DH
_geom_hbond_distance_HA
_geom_hbond_distance_DA
_geom_hbond_angle_DHA
O3 H3A O2 0.65(3) 1.97(3) 2.573(2) 155(4)
