#------------------------------------------------------------------------------
#$Date: 2016-03-26 18:11:22 +0200 (Sat, 26 Mar 2016) $
#$Revision: 180415 $
#$URL: svn://www.crystallography.net/cod/cif/7/20/84/7208444.cif $
#------------------------------------------------------------------------------
#
# This file is available in the Crystallography Open Database (COD),
# http://www.crystallography.net/
#
# All data on this site have been placed in the public domain by the
# contributors.
#
data_7208444
loop_
_publ_author_name
'Minkov, Vasily S.'
'Boldyreva, Elena V.'
'Drebushchak, Tatiana N.'
'G\"orbitz, Carl Henrik'
_publ_section_title
;
 Stabilizing structures of cysteine-containing crystals with respect to
 variations of temperature and pressure by immobilizing amino acid side
 chains
;
_journal_issue                   18
_journal_name_full               CrystEngComm
_journal_page_first              5943
_journal_paper_doi               10.1039/c2ce25241d
_journal_volume                  14
_journal_year                    2012
_chemical_absolute_configuration rmad
_chemical_formula_moiety         'C3 H8 N O2 S, C2 H O4'
_chemical_formula_sum            'C5 H9 N O6 S'
_chemical_formula_weight         211.20
_chemical_name_common            'DL-cysteinium semioxalate'
_space_group_IT_number           2
_symmetry_cell_setting           triclinic
_symmetry_Int_Tables_number      2
_symmetry_space_group_name_Hall  '-P 1'
_symmetry_space_group_name_H-M   'P -1'
_atom_sites_solution_hydrogens   geom
_atom_sites_solution_primary     direct
_atom_sites_solution_secondary   difmap
_audit_creation_method           SHELXL-97
_cell_angle_alpha                109.967(4)
_cell_angle_beta                 102.224(3)
_cell_angle_gamma                99.833(3)
_cell_formula_units_Z            2
_cell_length_a                   5.66062(16)
_cell_length_b                   8.9394(4)
_cell_length_c                   9.7525(5)
_cell_measurement_temperature    200(2)
_cell_volume                     437.16(4)
_computing_structure_refinement  'SHELXL-97 (Sheldrick, 1997)'
_computing_structure_solution    'SHELXS-97 (Sheldrick, 1990)'
_diffrn_ambient_temperature      200(2)
_diffrn_measured_fraction_theta_full 0.999
_diffrn_measured_fraction_theta_max 0.999
_diffrn_radiation_monochromator  graphite
_diffrn_radiation_probe          x-ray
_diffrn_radiation_source         'fine-focus sealed tube'
_diffrn_radiation_type           MoK\a
_diffrn_radiation_wavelength     0.71073
_diffrn_reflns_av_R_equivalents  0.0299
_diffrn_reflns_av_sigmaI/netI    0.0185
_diffrn_reflns_limit_h_max       8
_diffrn_reflns_limit_h_min       -8
_diffrn_reflns_limit_k_max       12
_diffrn_reflns_limit_k_min       -12
_diffrn_reflns_limit_l_max       13
_diffrn_reflns_limit_l_min       -13
_diffrn_reflns_number            14713
_diffrn_reflns_theta_full        30.51
_diffrn_reflns_theta_max         30.51
_diffrn_reflns_theta_min         3.82
_exptl_absorpt_coefficient_mu    0.370
_exptl_absorpt_correction_T_max  0.9674
_exptl_absorpt_correction_T_min  0.8510
_exptl_absorpt_correction_type   multi-scan
_exptl_absorpt_process_details   'CrysAlis RED (Oxford Diffraction, 2008)'
_exptl_crystal_colour            colorless
_exptl_crystal_density_diffrn    1.605
_exptl_crystal_density_method    'not measured'
_exptl_crystal_description       plate
_exptl_crystal_F_000             220
_exptl_crystal_size_max          0.45
_exptl_crystal_size_mid          0.26
_exptl_crystal_size_min          0.09
_refine_diff_density_max         0.449
_refine_diff_density_min         -0.326
_refine_diff_density_rms         0.054
_refine_ls_extinction_method     none
_refine_ls_goodness_of_fit_ref   1.057
_refine_ls_hydrogen_treatment    mixed
_refine_ls_matrix_type           full
_refine_ls_number_parameters     124
_refine_ls_number_reflns         2659
_refine_ls_number_restraints     1
_refine_ls_restrained_S_all      1.057
_refine_ls_R_factor_all          0.0357
_refine_ls_R_factor_gt           0.0315
_refine_ls_shift/su_max          0.000
_refine_ls_shift/su_mean         0.000
_refine_ls_structure_factor_coef Fsqd
_refine_ls_weighting_details
'calc w=1/[\s^2^(Fo^2^)+(0.0502P)^2^+0.0945P] where P=(Fo^2^+2Fc^2^)/3'
_refine_ls_weighting_scheme      calc
_refine_ls_wR_factor_gt          0.0859
_refine_ls_wR_factor_ref         0.0884
_reflns_number_gt                2378
_reflns_number_total             2659
_reflns_threshold_expression     >2sigma(I)
_cod_data_source_file            c2ce25241d.txt
_cod_data_source_block           DL-cys_ox_11_200K
_cod_database_code               7208444
loop_
_symmetry_equiv_pos_as_xyz
'x, y, z'
'-x, -y, -z'
loop_
_atom_site_label
_atom_site_type_symbol
_atom_site_fract_x
_atom_site_fract_y
_atom_site_fract_z
_atom_site_U_iso_or_equiv
_atom_site_adp_type
_atom_site_occupancy
_atom_site_symmetry_multiplicity
_atom_site_calc_flag
_atom_site_refinement_flags
S1 S 0.86655(5) 0.39724(4) 0.24524(4) 0.03005(10) Uani 1 1 d D
H1S H 0.769(3) 0.404(2) 0.1280(16) 0.036 Uiso 1 1 d D
N1 N 0.51824(17) 0.08356(11) 0.25631(10) 0.02003(17) Uani 1 1 d .
H2N H 0.3951 -0.0116 0.2231 0.024 Uiso 1 1 calc R
H1N H 0.6002 0.1130 0.3564 0.024 Uiso 1 1 calc R
H3N H 0.6284 0.0677 0.2004 0.024 Uiso 1 1 calc R
C1 C 0.5978(2) 0.38435(14) 0.31787(12) 0.0232(2) Uani 1 1 d .
H12 H 0.6569 0.4084 0.4282 0.028 Uiso 1 1 calc R
H11 H 0.5153 0.4703 0.3064 0.028 Uiso 1 1 calc R
C2 C 0.40525(18) 0.21698(13) 0.23833(11) 0.01876(19) Uani 1 1 d .
H2 H 0.2683 0.2210 0.2885 0.023 Uiso 1 1 calc R
O2 O 0.24597(15) 0.03092(11) -0.02380(9) 0.02509(17) Uani 1 1 d .
O1 O 0.23220(17) 0.29473(11) 0.04024(9) 0.02776(18) Uani 1 1 d .
H1O H 0.1478 0.2613 -0.0515 0.033 Uiso 1 1 calc R
O3 O 0.64845(13) 0.19175(11) 0.57404(9) 0.02366(17) Uani 1 1 d .
C3 C 0.28675(18) 0.16984(14) 0.06925(11) 0.01925(19) Uani 1 1 d .
O5 O 1.28567(14) 0.21597(11) 0.69851(9) 0.02343(17) Uani 1 1 d .
H5O H 1.4016 0.2118 0.6571 0.028 Uiso 1 1 calc R
C4 C 0.84864(17) 0.19788(12) 0.66299(11) 0.01713(18) Uani 1 1 d .
O4 O 0.87428(14) 0.19889(11) 0.79333(9) 0.02400(17) Uani 1 1 d .
C5 C 1.07637(18) 0.19794(12) 0.59840(11) 0.01761(18) Uani 1 1 d .
O6 O 1.05213(15) 0.17862(12) 0.46702(9) 0.02823(19) Uani 1 1 d .
loop_
_atom_site_aniso_label
_atom_site_aniso_U_11
_atom_site_aniso_U_22
_atom_site_aniso_U_33
_atom_site_aniso_U_23
_atom_site_aniso_U_13
_atom_site_aniso_U_12
S1 0.02185(14) 0.02530(15) 0.04091(18) 0.01164(13) 0.01001(12) 0.00272(11)
N1 0.0198(4) 0.0234(4) 0.0176(4) 0.0101(3) 0.0042(3) 0.0046(3)
C1 0.0236(5) 0.0225(5) 0.0199(5) 0.0049(4) 0.0046(4) 0.0061(4)
C2 0.0164(4) 0.0245(5) 0.0163(4) 0.0086(4) 0.0050(3) 0.0061(4)
O2 0.0228(4) 0.0293(4) 0.0197(4) 0.0062(3) 0.0044(3) 0.0074(3)
O1 0.0305(4) 0.0298(4) 0.0208(4) 0.0121(3) -0.0006(3) 0.0081(3)
O3 0.0131(3) 0.0395(5) 0.0197(3) 0.0136(3) 0.0037(3) 0.0076(3)
C3 0.0131(4) 0.0283(5) 0.0173(4) 0.0102(4) 0.0046(3) 0.0051(4)
O5 0.0135(3) 0.0381(4) 0.0232(4) 0.0159(3) 0.0061(3) 0.0090(3)
C4 0.0133(4) 0.0205(4) 0.0179(4) 0.0086(4) 0.0044(3) 0.0033(3)
O4 0.0168(3) 0.0393(5) 0.0199(4) 0.0166(3) 0.0059(3) 0.0063(3)
C5 0.0143(4) 0.0209(4) 0.0187(4) 0.0091(4) 0.0052(3) 0.0044(3)
O6 0.0209(4) 0.0471(5) 0.0200(4) 0.0156(4) 0.0079(3) 0.0098(3)
loop_
_atom_type_symbol
_atom_type_description
_atom_type_scat_dispersion_real
_atom_type_scat_dispersion_imag
_atom_type_scat_source
C C 0.0033 0.0016 'International Tables Vol C Tables 4.2.6.8 and 6.1.1.4'
O O 0.0106 0.0060 'International Tables Vol C Tables 4.2.6.8 and 6.1.1.4'
N N 0.0061 0.0033 'International Tables Vol C Tables 4.2.6.8 and 6.1.1.4'
S S 0.1246 0.1234 'International Tables Vol C Tables 4.2.6.8 and 6.1.1.4'
H H 0.0000 0.0000 'International Tables Vol C Tables 4.2.6.8 and 6.1.1.4'
loop_
_geom_angle_atom_site_label_1
_geom_angle_atom_site_label_2
_geom_angle_atom_site_label_3
_geom_angle
C1 S1 H1S 98.5(8)
C2 N1 H2N 109.5
C2 N1 H1N 109.5
H2N N1 H1N 109.5
C2 N1 H3N 109.5
H2N N1 H3N 109.5
H1N N1 H3N 109.5
C2 C1 S1 113.86(7)
C2 C1 H12 108.8
S1 C1 H12 108.8
C2 C1 H11 108.8
S1 C1 H11 108.8
H12 C1 H11 107.7
N1 C2 C3 108.14(8)
N1 C2 C1 110.96(8)
C3 C2 C1 114.14(9)
N1 C2 H2 107.8
C3 C2 H2 107.8
C1 C2 H2 107.8
C3 O1 H1O 109.5
O2 C3 O1 125.78(10)
O2 C3 C2 122.11(10)
O1 C3 C2 112.09(9)
C5 O5 H5O 109.5
O4 C4 O3 125.52(9)
O4 C4 C5 119.20(8)
O3 C4 C5 115.24(8)
O6 C5 O5 125.74(9)
O6 C5 C4 120.97(9)
O5 C5 C4 113.26(8)
loop_
_geom_bond_atom_site_label_1
_geom_bond_atom_site_label_2
_geom_bond_distance
S1 C1 1.8113(12)
S1 H1S 1.184(13)
N1 C2 1.4893(13)
N1 H2N 0.9100
N1 H1N 0.9100
N1 H3N 0.9100
C1 C2 1.5235(15)
C1 H12 0.9900
C1 H11 0.9900
C2 C3 1.5188(14)
C2 H2 1.0000
O2 C3 1.2094(14)
O1 C3 1.3109(13)
O1 H1O 0.8400
O3 C4 1.2529(12)
O5 C5 1.3117(12)
O5 H5O 0.8400
C4 O4 1.2452(12)
C4 C5 1.5500(13)
C5 O6 1.2068(13)
loop_
_geom_hbond_atom_site_label_D
_geom_hbond_atom_site_label_H
_geom_hbond_atom_site_label_A
_geom_hbond_distance_DH
_geom_hbond_distance_HA
_geom_hbond_distance_DA
_geom_hbond_angle_DHA
_geom_hbond_site_symmetry_A
N1 H1N O3 0.91 1.93 2.7969(12) 157.4 1
N1 H1N O6 0.91 2.44 3.0625(12) 126.1 1
N1 H2N O4 0.91 2.00 2.8879(12) 165.2 2_656
N1 H3N O2 0.91 1.99 2.8521(12) 158.4 2_655
O1 H1O O5 0.84 2.64 3.2544(12) 131.4 1_454
O1 H1O O4 0.84 1.77 2.5630(11) 156.6 1_454
O5 H5O O3 0.84 1.76 2.6010(10) 176.1 1_655
loop_
_geom_torsion_atom_site_label_1
_geom_torsion_atom_site_label_2
_geom_torsion_atom_site_label_3
_geom_torsion_atom_site_label_4
_geom_torsion
S1 C1 C2 N1 60.26(10)
S1 C1 C2 C3 -62.22(10)
N1 C2 C3 O2 15.49(13)
C1 C2 C3 O2 139.50(10)
N1 C2 C3 O1 -165.89(8)
C1 C2 C3 O1 -41.88(12)
O4 C4 C5 O6 171.73(11)
O3 C4 C5 O6 -6.21(15)
O4 C4 C5 O5 -6.51(14)
O3 C4 C5 O5 175.55(9)
