#------------------------------------------------------------------------------
#$Date: 2016-03-26 18:08:36 +0200 (Sat, 26 Mar 2016) $
#$Revision: 180413 $
#$URL: svn://www.crystallography.net/cod/cif/7/20/82/7208260.cif $
#------------------------------------------------------------------------------
#
# This file is available in the Crystallography Open Database (COD),
# http://www.crystallography.net/
#
# All data on this site have been placed in the public domain by the
# contributors.
#
data_7208260
loop_
_publ_author_name
'Montis, Riccardo'
'Hursthouse, Michael B.'
_publ_section_title
;
 Surprisingly complex supramolecular behaviour in the crystal structures
 of a family of mono-substituted salicylic acids
;
_journal_issue                   16
_journal_name_full               CrystEngComm
_journal_page_first              5242
_journal_paper_doi               10.1039/c2ce25336d
_journal_volume                  14
_journal_year                    2012
_chemical_formula_moiety         'C8 H8 O3'
_chemical_formula_sum            'C8 H8 O3'
_chemical_formula_weight         152.14
_chemical_name_common            '4-methylsalicylic acid'
_chemical_name_systematic        '4-methyl-2-hydroxobenzoic acid'
_space_group_IT_number           2
_symmetry_cell_setting           triclinic
_symmetry_space_group_name_Hall  '-P 1'
_symmetry_space_group_name_H-M   'P -1'
_atom_sites_solution_hydrogens   geom
_atom_sites_solution_primary     direct
_atom_sites_solution_secondary   difmap
_audit_creation_method           SHELXL-97
_cell_angle_alpha                100.756(5)
_cell_angle_beta                 93.271(7)
_cell_angle_gamma                90.788(7)
_cell_formula_units_Z            2
_cell_length_a                   3.8685(3)
_cell_length_b                   7.2380(9)
_cell_length_c                   13.2142(15)
_cell_measurement_reflns_used    10527
_cell_measurement_temperature    120(2)
_cell_measurement_theta_max      27.48
_cell_measurement_theta_min      2.91
_cell_volume                     362.80(7)
_computing_cell_refinement
'DENZO (Otwinowski & Minor, 1997) & COLLECT (Hooft, R.W.W., 1998)'
_computing_data_collection       'COLLECT (Hooft, R.W.W., 1998)'
_computing_data_reduction
'DENZO (Otwinowski & Minor, 1997) & COLLECT (Hooft, R.W.W., 1998)'
_diffrn_ambient_temperature      120(2)
_diffrn_detector_area_resol_mean '4096x4096pixels / 62x62mm'
_diffrn_measured_fraction_theta_full 0.987
_diffrn_measured_fraction_theta_max 0.987
_diffrn_measurement_device_type
'Bruker-Nonius APEX II CCD camera on -goniostat'
_diffrn_measurement_method       '\f & \w scans'
_diffrn_radiation_monochromator  '10cm confocal mirrors'
_diffrn_radiation_source         'Bruker-Nonius FR591 rotating anode'
_diffrn_radiation_type           MoK\a
_diffrn_radiation_wavelength     0.71073
_diffrn_reflns_av_R_equivalents  0.0619
_diffrn_reflns_av_sigmaI/netI    0.0542
_diffrn_reflns_limit_h_max       5
_diffrn_reflns_limit_h_min       -4
_diffrn_reflns_limit_k_max       9
_diffrn_reflns_limit_k_min       -9
_diffrn_reflns_limit_l_max       16
_diffrn_reflns_limit_l_min       -17
_diffrn_reflns_number            6688
_diffrn_reflns_theta_full        27.50
_diffrn_reflns_theta_max         27.50
_diffrn_reflns_theta_min         3.14
_exptl_absorpt_coefficient_mu    0.107
_exptl_absorpt_correction_T_max  0.9968
_exptl_absorpt_correction_T_min  0.9533
_exptl_absorpt_correction_type   multi-scan
_exptl_absorpt_process_details   'SADABS 2007/2 (Sheldrick, G.M., 2007)'
_exptl_crystal_colour            Colourless
_exptl_crystal_density_diffrn    1.393
_exptl_crystal_density_method    'not measured'
_exptl_crystal_description       Block
_exptl_crystal_F_000             160
_exptl_crystal_size_max          0.45
_exptl_crystal_size_mid          0.29
_exptl_crystal_size_min          0.03
_refine_diff_density_max         0.202
_refine_diff_density_min         -0.217
_refine_diff_density_rms         0.047
_refine_ls_extinction_method     none
_refine_ls_goodness_of_fit_ref   1.077
_refine_ls_hydrogen_treatment    mixed
_refine_ls_matrix_type           full
_refine_ls_number_parameters     121
_refine_ls_number_reflns         1630
_refine_ls_number_restraints     0
_refine_ls_restrained_S_all      1.077
_refine_ls_R_factor_all          0.1054
_refine_ls_R_factor_gt           0.0653
_refine_ls_shift/su_max          0.010
_refine_ls_shift/su_mean         0.002
_refine_ls_structure_factor_coef Fsqd
_refine_ls_weighting_details
'calc w=1/[\s^2^(Fo^2^)+(0.1061P)^2^+0.0210P] where P=(Fo^2^+2Fc^2^)/3'
_refine_ls_weighting_scheme      calc
_refine_ls_wR_factor_gt          0.1704
_refine_ls_wR_factor_ref         0.1947
_reflns_number_gt                1054
_reflns_number_total             1630
_reflns_threshold_expression     >2sigma(I)
_cod_data_source_file            c2ce25336d.txt
_cod_data_source_block           4-methylsalicylic_acid
_cod_original_sg_symbol_H-M      P-1
_cod_database_code               7208260
loop_
_symmetry_equiv_pos_as_xyz
'x, y, z'
'-x, -y, -z'
loop_
_atom_site_label
_atom_site_type_symbol
_atom_site_fract_x
_atom_site_fract_y
_atom_site_fract_z
_atom_site_U_iso_or_equiv
_atom_site_adp_type
_atom_site_occupancy
_atom_site_symmetry_multiplicity
_atom_site_calc_flag
_atom_site_refinement_flags
C1 C 0.3797(5) 0.8518(3) 0.68183(15) 0.0451(5) Uani 1 1 d .
C2 C 0.4639(5) 0.8202(3) 0.78154(17) 0.0490(6) Uani 1 1 d .
C3 C 0.6229(5) 0.9644(3) 0.85514(17) 0.0526(6) Uani 1 1 d .
C4 C 0.6947(5) 1.1379(3) 0.83184(17) 0.0492(6) Uani 1 1 d .
C5 C 0.6114(6) 1.1688(3) 0.73240(18) 0.0543(6) Uani 1 1 d .
C6 C 0.4547(6) 1.0276(3) 0.65879(17) 0.0525(6) Uani 1 1 d .
C7 C 0.2127(5) 0.7016(3) 0.60382(16) 0.0489(6) Uani 1 1 d .
C8 C 0.8593(6) 1.2937(3) 0.91280(19) 0.0625(7) Uani 1 1 d .
H8A H 0.8070 1.2725 0.9815 0.094 Uiso 1 1 calc R
H8B H 0.7672 1.4147 0.9024 0.094 Uiso 1 1 calc R
H8C H 1.1108 1.2952 0.9071 0.094 Uiso 1 1 calc R
O1 O 0.1524(5) 0.7431(2) 0.51217(12) 0.0692(6) Uani 1 1 d .
O2 O 0.1343(4) 0.5457(2) 0.62209(13) 0.0651(5) Uani 1 1 d .
O3 O 0.3977(5) 0.6552(2) 0.81184(14) 0.0736(6) Uani 1 1 d .
H1A H 0.044(8) 0.644(5) 0.463(3) 0.103(10) Uiso 1 1 d .
H3 H 0.654(7) 0.927(4) 0.924(2) 0.082(8) Uiso 1 1 d .
H3A H 0.280(9) 0.573(5) 0.752(3) 0.121(12) Uiso 1 1 d .
H5 H 0.644(6) 1.289(4) 0.7120(19) 0.067(7) Uiso 1 1 d .
H6 H 0.398(6) 1.052(4) 0.589(2) 0.072(7) Uiso 1 1 d .
loop_
_atom_site_aniso_label
_atom_site_aniso_U_11
_atom_site_aniso_U_22
_atom_site_aniso_U_33
_atom_site_aniso_U_23
_atom_site_aniso_U_13
_atom_site_aniso_U_12
C1 0.0458(11) 0.0415(11) 0.0455(12) 0.0019(9) 0.0031(8) -0.0005(8)
C2 0.0528(12) 0.0406(11) 0.0533(12) 0.0084(9) 0.0025(9) 0.0019(8)
C3 0.0548(12) 0.0510(13) 0.0491(13) 0.0036(10) -0.0032(9) 0.0044(9)
C4 0.0414(11) 0.0489(13) 0.0527(13) -0.0024(9) 0.0041(8) 0.0027(8)
C5 0.0605(13) 0.0410(12) 0.0595(14) 0.0048(10) 0.0045(10) -0.0040(9)
C6 0.0624(13) 0.0447(12) 0.0488(13) 0.0052(9) 0.0026(10) -0.0009(9)
C7 0.0540(12) 0.0431(12) 0.0480(12) 0.0046(9) 0.0025(9) -0.0017(9)
C8 0.0562(13) 0.0541(14) 0.0676(15) -0.0106(11) -0.0043(11) -0.0051(10)
O1 0.1035(14) 0.0541(10) 0.0470(10) 0.0073(7) -0.0099(9) -0.0207(9)
O2 0.0946(12) 0.0453(10) 0.0525(10) 0.0069(7) -0.0072(8) -0.0168(8)
O3 0.1137(14) 0.0481(10) 0.0581(11) 0.0152(8) -0.0146(9) -0.0144(9)
loop_
_atom_type_symbol
_atom_type_description
_atom_type_scat_dispersion_real
_atom_type_scat_dispersion_imag
_atom_type_scat_source
C C 0.0033 0.0016 'International Tables Vol C Tables 4.2.6.8 and 6.1.1.4'
H H 0.0000 0.0000 'International Tables Vol C Tables 4.2.6.8 and 6.1.1.4'
O O 0.0106 0.0060 'International Tables Vol C Tables 4.2.6.8 and 6.1.1.4'
loop_
_geom_angle_atom_site_label_1
_geom_angle_atom_site_label_2
_geom_angle_atom_site_label_3
_geom_angle
C6 C1 C2 118.96(19)
C6 C1 C7 121.03(19)
C2 C1 C7 120.01(19)
O3 C2 C3 117.1(2)
O3 C2 C1 123.41(19)
C3 C2 C1 119.5(2)
C4 C3 C2 121.2(2)
C4 C3 H3 127.1(16)
C2 C3 H3 111.5(16)
C3 C4 C5 119.2(2)
C3 C4 C8 120.6(2)
C5 C4 C8 120.2(2)
C6 C5 C4 120.3(2)
C6 C5 H5 116.2(15)
C4 C5 H5 123.4(15)
C5 C6 C1 120.9(2)
C5 C6 H6 119.2(15)
C1 C6 H6 119.9(15)
O2 C7 O1 121.68(19)
O2 C7 C1 122.87(19)
O1 C7 C1 115.45(19)
C4 C8 H8A 109.5
C4 C8 H8B 109.5
H8A C8 H8B 109.5
C4 C8 H8C 109.5
H8A C8 H8C 109.5
H8B C8 H8C 109.5
C7 O1 H1A 113.9(18)
C2 O3 H3A 106(2)
loop_
_geom_bond_atom_site_label_1
_geom_bond_atom_site_label_2
_geom_bond_distance
C1 C6 1.393(3)
C1 C2 1.400(3)
C1 C7 1.466(3)
C2 O3 1.355(3)
C2 C3 1.396(3)
C3 C4 1.376(3)
C3 H3 1.00(3)
C4 C5 1.394(3)
C4 C8 1.508(3)
C5 C6 1.379(3)
C5 H5 0.96(3)
C6 H6 0.98(3)
C7 O2 1.234(2)
C7 O1 1.310(3)
C8 H8A 0.9800
C8 H8B 0.9800
C8 H8C 0.9800
O1 H1A 0.94(4)
O3 H3A 0.98(4)
loop_
_geom_hbond_atom_site_label_D
_geom_hbond_atom_site_label_H
_geom_hbond_atom_site_label_A
_geom_hbond_distance_DH
_geom_hbond_distance_HA
_geom_hbond_distance_DA
_geom_hbond_angle_DHA
_geom_hbond_site_symmetry_A
O1 H1A O2 0.94(4) 1.72(4) 2.660(2) 176(3) 2_566
O3 H3A O2 0.98(4) 1.75(4) 2.626(2) 147(3) .
loop_
_geom_torsion_atom_site_label_1
_geom_torsion_atom_site_label_2
_geom_torsion_atom_site_label_3
_geom_torsion_atom_site_label_4
_geom_torsion
C6 C1 C2 O3 179.15(18)
C7 C1 C2 O3 -0.3(3)
C6 C1 C2 C3 -0.5(3)
C7 C1 C2 C3 179.99(18)
O3 C2 C3 C4 -178.88(18)
C1 C2 C3 C4 0.8(3)
C2 C3 C4 C5 -1.0(3)
C2 C3 C4 C8 178.61(18)
C3 C4 C5 C6 0.8(3)
C8 C4 C5 C6 -178.74(19)
C4 C5 C6 C1 -0.6(3)
C2 C1 C6 C5 0.4(3)
C7 C1 C6 C5 179.89(19)
C6 C1 C7 O2 -178.10(19)
C2 C1 C7 O2 1.4(3)
C6 C1 C7 O1 2.2(3)
C2 C1 C7 O1 -178.30(17)
