#------------------------------------------------------------------------------
#$Date: 2016-03-26 18:26:27 +0200 (Sat, 26 Mar 2016) $
#$Revision: 180429 $
#$URL: svn://www.crystallography.net/cod/cif/7/20/98/7209816.cif $
#------------------------------------------------------------------------------
#
# This file is available in the Crystallography Open Database (COD),
# http://www.crystallography.net/
#
# All data on this site have been placed in the public domain by the
# contributors.
#
data_7209816
loop_
_publ_author_name
'Yates, Jane L. R.'
'Sparkes, Hazel A.'
_publ_section_title
;
 4-Bromo-trans-cinnamic acid: structural characterisation and
 crystallographic investigation into the solid state [2 + 2] cycloaddition
 reaction and temperature induced phase transition
;
_journal_issue                   18
_journal_name_full               CrystEngComm
_journal_page_first              3547
_journal_paper_doi               10.1039/c3ce40300a
_journal_volume                  15
_journal_year                    2013
_chemical_formula_moiety         'C9 H7 Br O2'
_chemical_formula_sum            'C9 H7 Br O2'
_chemical_formula_weight         227.06
_chemical_name_systematic
;
?
;
_space_group_IT_number           14
_symmetry_cell_setting           monoclinic
_symmetry_space_group_name_Hall  '-P 2yn'
_symmetry_space_group_name_H-M   'P 1 21/n 1'
_atom_sites_solution_hydrogens   geom
_atom_sites_solution_primary     direct
_atom_sites_solution_secondary   difmap
_audit_creation_method           SHELXL-97
_cell_angle_alpha                90.00
_cell_angle_beta                 95.552(7)
_cell_angle_gamma                90.00
_cell_formula_units_Z            4
_cell_length_a                   6.6422(4)
_cell_length_b                   3.9472(4)
_cell_length_c                   32.900(3)
_cell_measurement_reflns_used    1385
_cell_measurement_temperature    300(2)
_cell_measurement_theta_max      32.2058
_cell_measurement_theta_min      3.0741
_cell_volume                     858.53(13)
_computing_cell_refinement
;
CrysAlisPro, Oxford Diffraction Ltd.,
Version 1.171.33.41 (release 06-05-2009 CrysAlis171 .NET)
(compiled May 6 2009,17:20:42)
;
_computing_data_collection
;
CrysAlisPro, Oxford Diffraction Ltd.,
Version 1.171.33.41 (release 06-05-2009 CrysAlis171 .NET)
(compiled May 6 2009,17:20:42)
;
_computing_data_reduction
;
CrysAlisPro, Oxford Diffraction Ltd.,
Version 1.171.33.41 (release 06-05-2009 CrysAlis171 .NET)
(compiled May 6 2009,17:20:42)
;
_computing_molecular_graphics    'ORTEP3 for Windows (Farrugia, 1997)'
_computing_publication_material  'WinGX publication routines (Farrugia, 1999)'
_computing_structure_refinement  'SHELXL-97 (Sheldrick, 2008)'
_computing_structure_solution    'SHELXS-97 (Sheldrick, 2008)'
_diffrn_ambient_temperature      300(2)
_diffrn_measured_fraction_theta_full 0.996
_diffrn_measured_fraction_theta_max 0.996
_diffrn_measurement_device_type  'Xcalibur, Sapphire3, Gemini ultra'
_diffrn_measurement_method       '\w scans'
_diffrn_radiation_monochromator  graphite
_diffrn_radiation_source         'Enhance (Mo) X-ray Source'
_diffrn_radiation_type           MoK\a
_diffrn_radiation_wavelength     0.71073
_diffrn_reflns_av_R_equivalents  0.0237
_diffrn_reflns_av_sigmaI/netI    0.0396
_diffrn_reflns_limit_h_max       7
_diffrn_reflns_limit_h_min       -8
_diffrn_reflns_limit_k_max       3
_diffrn_reflns_limit_k_min       -4
_diffrn_reflns_limit_l_max       40
_diffrn_reflns_limit_l_min       -25
_diffrn_reflns_number            3274
_diffrn_reflns_theta_full        25.68
_diffrn_reflns_theta_max         25.68
_diffrn_reflns_theta_min         3.08
_exptl_absorpt_coefficient_mu    4.740
_exptl_absorpt_correction_T_max  1.0000
_exptl_absorpt_correction_T_min  0.5490
_exptl_absorpt_correction_type   multi-scan
_exptl_absorpt_process_details
;
CrysAlisPro, Oxford Diffraction Ltd.,
Version 1.171.33.41 (release 06-05-2009 CrysAlis171 .NET)
(compiled May 6 2009,17:20:42)
Empirical absorption correction using spherical harmonics,
implemented in SCALE3 ABSPACK scaling algorithm.
;
_exptl_crystal_colour            colourless
_exptl_crystal_density_diffrn    1.757
_exptl_crystal_density_method    'not measured'
_exptl_crystal_description       plate
_exptl_crystal_F_000             448
_exptl_crystal_size_max          0.23
_exptl_crystal_size_mid          0.20
_exptl_crystal_size_min          0.12
_refine_diff_density_max         0.409
_refine_diff_density_min         -0.441
_refine_diff_density_rms         0.069
_refine_ls_extinction_method     none
_refine_ls_goodness_of_fit_ref   1.041
_refine_ls_hydrogen_treatment    constr
_refine_ls_matrix_type           full
_refine_ls_number_parameters     109
_refine_ls_number_reflns         1625
_refine_ls_number_restraints     2
_refine_ls_restrained_S_all      1.043
_refine_ls_R_factor_all          0.0661
_refine_ls_R_factor_gt           0.0389
_refine_ls_shift/su_max          0.000
_refine_ls_shift/su_mean         0.000
_refine_ls_structure_factor_coef Fsqd
_refine_ls_weighting_details
'calc w=1/[\s^2^(Fo^2^)+(0.0424P)^2^+0.1042P] where P=(Fo^2^+2Fc^2^)/3'
_refine_ls_weighting_scheme      calc
_refine_ls_wR_factor_gt          0.0810
_refine_ls_wR_factor_ref         0.0868
_reflns_number_gt                1114
_reflns_number_total             1625
_reflns_threshold_expression     >2sigma(I)
_iucr_refine_instructions_details
;
TITL testa in P2(1)/n
CELL 0.71073 6.6422 3.9472 32.8997 90.000 95.552 90.000
ZERR 4.0000 0.0004 0.0004 0.0027 0.000 0.007 0.000
LATT 1
SYMM 0.5-X, 0.5+Y, 0.5-Z
SFAC C H O BR
UNIT 36 28 8 4
MERG 2
SHEL 99999.00 0.82
FMAP 2
GRID
PLAN 20
TEMP -100
MPLA 6 C1 C2 C3 C4 C5 C6
MPLA 3 O1 C9 O2
DFIX 0.86 0.01 O1 H1A O2 H2A
BOND $H
CONF
EQIV $1 -X-1, -Y, -Z
HTAB O1 O2_$1
HTAB O2 O1_$1
L.S. 20
ACTA 52
WGHT 0.042400 0.104200
FVAR 4.88001
BR1 4 0.590116 0.988046 0.213012 11.00000 0.04559 0.04985 =
0.05336 -0.00603 -0.00665 -0.00241
O1 3 -0.423856 0.099480 0.050005 11.00000 0.05197 0.09627 =
0.04852 -0.00781 0.00637 -0.02731
AFIX 83
H1A 2 -0.513346 0.023545 0.032588 10.50000 -1.20000
AFIX 0
O2 3 -0.265878 0.166181 -0.005656 11.00000 0.06053 0.13719 =
0.03881 -0.00814 0.00518 -0.04573
AFIX 83
H2A 2 -0.374744 0.082282 -0.016269 10.50000 -1.20000
AFIX 0
C1 1 0.258623 0.622689 0.110174 11.00000 0.04606 0.05644 =
0.03388 -0.00055 0.00994 -0.00558
AFIX 43
H1 2 0.279593 0.593977 0.082226 11.00000 -1.20000
AFIX 0
C2 1 0.409680 0.760885 0.136323 11.00000 0.03435 0.05899 =
0.04418 -0.00092 0.00944 -0.00859
AFIX 43
H2 2 0.533754 0.827926 0.126602 11.00000 -1.20000
AFIX 0
C3 1 0.379540 0.801418 0.176835 11.00000 0.03603 0.03393 =
0.03551 -0.00007 -0.00187 0.00117
C4 1 0.200576 0.708972 0.191232 11.00000 0.04503 0.05948 =
0.03781 -0.00410 0.00722 -0.00288
AFIX 43
H4 2 0.180794 0.740416 0.219196 11.00000 -1.20000
AFIX 0
C5 1 0.050056 0.570253 0.164746 11.00000 0.03905 0.04980 =
0.04654 -0.00131 0.01215 -0.00988
AFIX 43
H5 2 -0.073640 0.505104 0.174775 11.00000 -1.20000
AFIX 0
C6 1 0.074529 0.523029 0.123637 11.00000 0.03881 0.03798 =
0.03972 -0.00392 0.00543 -0.00283
C7 1 -0.090868 0.377770 0.096505 11.00000 0.03388 0.03905 =
0.04840 0.00103 0.00491 -0.00624
AFIX 43
H7 2 -0.206248 0.305607 0.109127 11.00000 -1.20000
AFIX 0
C8 1 -0.098724 0.335455 0.056911 11.00000 0.04153 0.06413 =
0.04314 0.00226 -0.00010 -0.01644
AFIX 43
H8 2 0.015410 0.400713 0.043439 11.00000 -1.20000
AFIX 0
C9 1 -0.272916 0.193784 0.032395 11.00000 0.04148 0.05800 =
0.04046 0.00288 0.00212 -0.00482
HKLF 4
REM testa in P2(1)/n
REM R1 = 0.0389 for 1114 Fo > 4sig(Fo) and 0.0661 for all 1625 data
REM 109 parameters refined using 2 restraints
END
WGHT 0.0426 0.0951
REM Highest difference peak 0.409, deepest hole -0.441, 1-sigma level 0.069
Q1 1 0.5913 1.0234 0.1805 11.00000 0.05 0.41
Q2 1 0.6094 1.2011 0.1890 11.00000 0.05 0.35
Q3 1 0.6349 0.8810 0.1859 11.00000 0.05 0.33
Q4 1 0.5665 0.8511 0.2416 11.00000 0.05 0.33
Q5 1 0.5501 1.0969 0.2516 11.00000 0.05 0.30
Q6 1 0.4831 0.9361 0.1884 11.00000 0.05 0.26
Q7 1 0.5787 1.2386 0.2369 11.00000 0.05 0.24
Q8 1 0.6866 1.0027 0.2432 11.00000 0.05 0.22
Q9 1 0.2745 0.5263 0.1063 11.00000 0.05 0.21
Q10 1 0.4922 1.1892 0.2035 11.00000 0.05 0.21
Q11 1 -0.2599 0.0102 0.0067 11.00000 0.05 0.21
Q12 1 0.5661 0.9977 0.1540 11.00000 0.05 0.20
Q13 1 0.0619 0.5373 0.2236 11.00000 0.05 0.20
Q14 1 -0.4325 0.3003 0.0385 11.00000 0.05 0.19
Q15 1 0.0607 0.6537 0.1386 11.00000 0.05 0.19
Q16 1 -0.0056 0.4917 0.1678 11.00000 0.05 0.19
Q17 1 -0.2972 0.4376 0.1815 11.00000 0.05 0.18
Q18 1 0.2665 0.7456 0.0846 11.00000 0.05 0.17
Q19 1 0.0908 0.4791 0.1528 11.00000 0.05 0.17
Q20 1 0.4925 0.9624 0.1056 11.00000 0.05 0.16
;
_cod_data_source_file            c3ce40300a.txt
_cod_data_source_block           300K
_cod_original_cell_volume        858.52(12)
_cod_original_sg_symbol_H-M      'P 21/n'
_cod_database_code               7209816
loop_
_symmetry_equiv_pos_as_xyz
'x, y, z'
'-x+1/2, y+1/2, -z+1/2'
'-x, -y, -z'
'x-1/2, -y-1/2, z-1/2'
loop_
_atom_site_label
_atom_site_type_symbol
_atom_site_fract_x
_atom_site_fract_y
_atom_site_fract_z
_atom_site_U_iso_or_equiv
_atom_site_adp_type
_atom_site_occupancy
_atom_site_symmetry_multiplicity
_atom_site_calc_flag
_atom_site_refinement_flags
Br1 Br 0.59012(6) 0.98805(12) 0.213012(13) 0.05034(18) Uani 1 1 d .
O1 O -0.4239(5) 0.0995(9) 0.05000(9) 0.0655(9) Uani 1 1 d D
H1A H -0.5133 0.0235 0.0326 0.079 Uiso 0.50 1 calc PRD
O2 O -0.2659(5) 0.1662(10) -0.00566(9) 0.0788(11) Uani 1 1 d D
H2A H -0.3747 0.0823 -0.0163 0.095 Uiso 0.50 1 calc PRD
C1 C 0.2586(6) 0.6227(11) 0.11017(12) 0.0451(11) Uani 1 1 d .
H1 H 0.2796 0.5940 0.0822 0.054 Uiso 1 1 calc R
C2 C 0.4097(6) 0.7609(10) 0.13632(12) 0.0455(11) Uani 1 1 d .
H2 H 0.5338 0.8279 0.1266 0.055 Uiso 1 1 calc R
C3 C 0.3795(6) 0.8014(10) 0.17683(11) 0.0355(9) Uani 1 1 d .
C4 C 0.2006(6) 0.7090(11) 0.19123(12) 0.0472(11) Uani 1 1 d .
H4 H 0.1808 0.7404 0.2192 0.057 Uiso 1 1 calc R
C5 C 0.0501(6) 0.5703(10) 0.16475(12) 0.0446(11) Uani 1 1 d .
H5 H -0.0736 0.5051 0.1748 0.054 Uiso 1 1 calc R
C6 C 0.0745(6) 0.5230(9) 0.12364(12) 0.0387(9) Uani 1 1 d .
C7 C -0.0909(6) 0.3778(10) 0.09650(13) 0.0404(10) Uani 1 1 d .
H7 H -0.2062 0.3056 0.1091 0.048 Uiso 1 1 calc R
C8 C -0.0987(6) 0.3355(12) 0.05691(12) 0.0499(11) Uani 1 1 d .
H8 H 0.0154 0.4007 0.0434 0.060 Uiso 1 1 calc R
C9 C -0.2729(7) 0.1938(11) 0.03239(13) 0.0468(11) Uani 1 1 d .
loop_
_atom_site_aniso_label
_atom_site_aniso_U_11
_atom_site_aniso_U_22
_atom_site_aniso_U_33
_atom_site_aniso_U_23
_atom_site_aniso_U_13
_atom_site_aniso_U_12
Br1 0.0456(3) 0.0498(3) 0.0534(3) -0.0060(2) -0.00665(17) -0.0024(2)
O1 0.0520(19) 0.096(3) 0.0485(19) -0.0078(17) 0.0064(15) -0.0273(18)
O2 0.061(2) 0.137(3) 0.0388(19) -0.008(2) 0.0052(16) -0.046(2)
C1 0.046(3) 0.056(3) 0.034(2) -0.0005(19) 0.0099(19) -0.006(2)
C2 0.034(2) 0.059(3) 0.044(3) -0.001(2) 0.0094(19) -0.009(2)
C3 0.036(2) 0.034(2) 0.036(2) -0.0001(17) -0.0019(17) 0.0012(18)
C4 0.045(3) 0.059(3) 0.038(2) -0.004(2) 0.007(2) -0.003(2)
C5 0.039(2) 0.050(3) 0.047(3) -0.0013(19) 0.0122(19) -0.0099(19)
C6 0.039(2) 0.038(2) 0.040(2) -0.004(2) 0.0054(16) -0.003(2)
C7 0.034(2) 0.039(2) 0.048(3) 0.0010(19) 0.0049(19) -0.0062(17)
C8 0.042(3) 0.064(3) 0.043(3) 0.002(2) 0.000(2) -0.016(2)
C9 0.041(2) 0.058(3) 0.040(3) 0.003(2) 0.002(2) -0.005(2)
loop_
_atom_type_symbol
_atom_type_description
_atom_type_scat_dispersion_real
_atom_type_scat_dispersion_imag
_atom_type_scat_source
C C 0.0033 0.0016 'International Tables Vol C Tables 4.2.6.8 and 6.1.1.4'
H H 0.0000 0.0000 'International Tables Vol C Tables 4.2.6.8 and 6.1.1.4'
O O 0.0106 0.0060 'International Tables Vol C Tables 4.2.6.8 and 6.1.1.4'
Br Br -0.2901 2.4595 'International Tables Vol C Tables 4.2.6.8 and 6.1.1.4'
loop_
_geom_angle_atom_site_label_1
_geom_angle_atom_site_label_2
_geom_angle_atom_site_label_3
_geom_angle
C9 O1 H1A 109.5
C9 O2 H2A 109.5
C2 C1 C6 121.6(4)
C2 C1 H1 119.2
C6 C1 H1 119.2
C1 C2 C3 119.2(4)
C1 C2 H2 120.4
C3 C2 H2 120.4
C4 C3 C2 121.1(4)
C4 C3 Br1 119.9(3)
C2 C3 Br1 119.1(3)
C3 C4 C5 119.3(4)
C3 C4 H4 120.4
C5 C4 H4 120.4
C4 C5 C6 121.6(4)
C4 C5 H5 119.2
C6 C5 H5 119.2
C5 C6 C1 117.3(4)
C5 C6 C7 119.6(4)
C1 C6 C7 123.0(4)
C8 C7 C6 127.7(4)
C8 C7 H7 116.1
C6 C7 H7 116.1
C7 C8 C9 123.6(4)
C7 C8 H8 118.2
C9 C8 H8 118.2
O1 C9 O2 122.5(4)
O1 C9 C8 118.9(4)
O2 C9 C8 118.6(4)
loop_
_geom_bond_atom_site_label_1
_geom_bond_atom_site_label_2
_geom_bond_distance
Br1 C3 1.896(4)
O1 C9 1.262(5)
O1 H1A 0.8400
O2 C9 1.262(5)
O2 H2A 0.8400
C1 C2 1.370(5)
C1 C6 1.397(5)
C1 H1 0.9500
C2 C3 1.376(5)
C2 H2 0.9500
C3 C4 1.371(5)
C4 C5 1.375(5)
C4 H4 0.9500
C5 C6 1.390(5)
C5 H5 0.9500
C6 C7 1.464(5)
C7 C8 1.309(5)
C7 H7 0.9500
C8 C9 1.457(5)
C8 H8 0.9500
loop_
_geom_hbond_atom_site_label_D
_geom_hbond_atom_site_label_H
_geom_hbond_atom_site_label_A
_geom_hbond_distance_DH
_geom_hbond_distance_HA
_geom_hbond_distance_DA
_geom_hbond_angle_DHA
_geom_hbond_site_symmetry_A
O1 H1A O2 0.84 1.80 2.626(4) 166.5 3_455
O2 H2A O1 0.84 1.80 2.626(4) 166.1 3_455
loop_
_geom_torsion_atom_site_label_1
_geom_torsion_atom_site_label_2
_geom_torsion_atom_site_label_3
_geom_torsion_atom_site_label_4
_geom_torsion
C6 C1 C2 C3 0.2(7)
C1 C2 C3 C4 -0.6(6)
C1 C2 C3 Br1 179.3(3)
C2 C3 C4 C5 0.7(6)
Br1 C3 C4 C5 -179.2(3)
C3 C4 C5 C6 -0.3(6)
C4 C5 C6 C1 -0.1(6)
C4 C5 C6 C7 -179.3(4)
C2 C1 C6 C5 0.1(6)
C2 C1 C6 C7 179.4(4)
C5 C6 C7 C8 175.4(5)
C1 C6 C7 C8 -3.8(7)
C6 C7 C8 C9 -178.7(4)
C7 C8 C9 O1 -1.5(7)
C7 C8 C9 O2 179.4(5)
