#------------------------------------------------------------------------------
#$Date: 2016-03-26 18:26:27 +0200 (Sat, 26 Mar 2016) $
#$Revision: 180429 $
#$URL: svn://www.crystallography.net/cod/cif/7/20/98/7209897.cif $
#------------------------------------------------------------------------------
#
# This file is available in the Crystallography Open Database (COD),
# http://www.crystallography.net/
#
# All data on this site have been placed in the public domain by the
# contributors.
#
data_7209897
loop_
_publ_author_name
'Zhang, Zhu-Yan'
'Deng, Zhao-Peng'
'Huo, Li-Hua'
'Zhao, Hui'
'Gao, Shan'
_publ_section_title
;
 Inorganic anion induced supramolecular architectures of flexible
 unsymmetrical bis(pyridyl) ionic salts mediated by various non-covalent
 interactions
;
_journal_issue                   26
_journal_name_full               CrystEngComm
_journal_page_first              5261
_journal_paper_doi               10.1039/c3ce40227d
_journal_volume                  15
_journal_year                    2013
_chemical_formula_moiety         'C11 H13 N3, 2(N O3)'
_chemical_formula_sum            'C11 H13 N5 O6'
_chemical_formula_weight         311.26
_chemical_name_systematic
;
?
;
_space_group_IT_number           2
_symmetry_cell_setting           triclinic
_symmetry_space_group_name_Hall  '-P 1'
_symmetry_space_group_name_H-M   'P -1'
_atom_sites_solution_hydrogens   geom
_atom_sites_solution_primary     direct
_atom_sites_solution_secondary   difmap
_audit_creation_method           SHELXL-97
_cell_angle_alpha                93.019(12)
_cell_angle_beta                 93.569(14)
_cell_angle_gamma                112.646(15)
_cell_formula_units_Z            2
_cell_length_a                   5.6882(11)
_cell_length_b                   7.1254(10)
_cell_length_c                   18.859(3)
_cell_measurement_reflns_used    656
_cell_measurement_temperature    295(2)
_cell_measurement_theta_max      25.00
_cell_measurement_theta_min      3.41
_cell_volume                     701.6(2)
_computing_cell_refinement       RAPID-AUTO
_computing_data_collection       'RAPID-AUTO (Rigaku Corporation, 1998)'
_computing_data_reduction
'CrystalStructure (Rigaku/MSC and Rigaku Corporation, 2002)'
_computing_molecular_graphics    SHELXL-97
_computing_structure_refinement  'ORTEP-II (Johnson, 1976)'
_computing_structure_solution    'SHELXS-97 (Sheldrick, 1997)'
_diffrn_ambient_temperature      295(2)
_diffrn_detector_area_resol_mean 10.000
_diffrn_measured_fraction_theta_full 0.994
_diffrn_measured_fraction_theta_max 0.994
_diffrn_measurement_device_type  'Rigaku RAXIS-RAPID'
_diffrn_measurement_method       \w
_diffrn_radiation_monochromator  graphite
_diffrn_radiation_source         'fine-focus sealed tube'
_diffrn_radiation_type           MoK\a
_diffrn_radiation_wavelength     0.71073
_diffrn_reflns_av_R_equivalents  0.0178
_diffrn_reflns_av_sigmaI/netI    0.0405
_diffrn_reflns_limit_h_max       6
_diffrn_reflns_limit_h_min       -6
_diffrn_reflns_limit_k_max       8
_diffrn_reflns_limit_k_min       -5
_diffrn_reflns_limit_l_max       21
_diffrn_reflns_limit_l_min       -22
_diffrn_reflns_number            3370
_diffrn_reflns_theta_full        24.99
_diffrn_reflns_theta_max         24.99
_diffrn_reflns_theta_min         3.38
_diffrn_standards_decay_%        0
_diffrn_standards_interval_count 0
_diffrn_standards_interval_time  0
_diffrn_standards_number         0
_exptl_absorpt_coefficient_mu    0.122
_exptl_absorpt_correction_T_max  0.9819
_exptl_absorpt_correction_T_min  0.9737
_exptl_absorpt_correction_type   multi-scan
_exptl_absorpt_process_details   'ABSCOR (Higashi, 1995)'
_exptl_crystal_colour            yellowish
_exptl_crystal_density_diffrn    1.473
_exptl_crystal_density_method    'not measured'
_exptl_crystal_description       prism
_exptl_crystal_F_000             324
_exptl_crystal_size_max          0.22
_exptl_crystal_size_mid          0.18
_exptl_crystal_size_min          0.15
_refine_diff_density_max         0.252
_refine_diff_density_min         -0.290
_refine_diff_density_rms         0.048
_refine_ls_extinction_method     none
_refine_ls_goodness_of_fit_ref   1.018
_refine_ls_hydrogen_treatment    mixed
_refine_ls_matrix_type           full
_refine_ls_number_parameters     208
_refine_ls_number_reflns         2462
_refine_ls_number_restraints     3
_refine_ls_restrained_S_all      1.018
_refine_ls_R_factor_all          0.0975
_refine_ls_R_factor_gt           0.0614
_refine_ls_shift/su_max          0.000
_refine_ls_shift/su_mean         0.000
_refine_ls_structure_factor_coef Fsqd
_refine_ls_weighting_details
'calc w=1/[\s^2^(Fo^2^)+(0.0866P)^2^+0.0000P] where P=(Fo^2^+2Fc^2^)/3'
_refine_ls_weighting_scheme      calc
_refine_ls_wR_factor_gt          0.1457
_refine_ls_wR_factor_ref         0.1663
_reflns_number_gt                2099
_reflns_number_total             2462
_reflns_threshold_expression     >2sigma(I)
_cod_data_source_file            c3ce40227d.txt
_cod_data_source_block           complex5
_cod_database_code               7209897
loop_
_symmetry_equiv_pos_as_xyz
'x, y, z'
'-x, -y, -z'
loop_
_atom_site_label
_atom_site_type_symbol
_atom_site_fract_x
_atom_site_fract_y
_atom_site_fract_z
_atom_site_U_iso_or_equiv
_atom_site_adp_type
_atom_site_occupancy
_atom_site_symmetry_multiplicity
_atom_site_calc_flag
_atom_site_refinement_flags
O1 O 0.4466(5) 1.0962(4) 0.33006(14) 0.0910(8) Uani 1 1 d .
O2 O 0.6869(4) 1.0796(3) 0.42022(12) 0.0670(6) Uani 1 1 d .
O3 O 0.4703(6) 1.2643(5) 0.43041(16) 0.1003(9) Uani 1 1 d .
O4 O 1.6903(5) 1.1518(4) 0.05604(12) 0.0884(9) Uani 1 1 d .
O5 O 1.7412(5) 1.2385(4) 0.16701(12) 0.0842(8) Uani 1 1 d .
O6 O 2.0557(4) 1.3577(4) 0.10329(14) 0.0916(9) Uani 1 1 d .
N1 N 0.9886(6) 0.7824(4) 0.41025(15) 0.0706(8) Uani 1 1 d D
H1N H 0.964(8) 0.887(4) 0.430(2) 0.106 Uiso 1 1 d D
N2 N 0.7281(5) 0.7835(4) 0.30703(13) 0.0602(7) Uani 1 1 d D
H2N H 0.703(7) 0.888(4) 0.323(2) 0.090 Uiso 1 1 d D
N3 N 1.1508(6) 0.9218(5) 0.12515(19) 0.0789(9) Uani 1 1 d D
H3N H 1.304(4) 1.018(5) 0.127(3) 0.118 Uiso 1 1 d D
N4 N 0.5325(5) 1.1472(4) 0.39247(15) 0.0607(7) Uani 1 1 d .
N5 N 1.8274(5) 1.2506(4) 0.10877(14) 0.0593(7) Uani 1 1 d .
C1 C 0.8793(5) 0.7034(4) 0.34202(13) 0.0439(6) Uani 1 1 d .
C2 C 0.9374(6) 0.5425(4) 0.31264(16) 0.0554(8) Uani 1 1 d .
H2A H 0.8669 0.4819 0.2673 0.066 Uiso 1 1 calc R
C3 C 1.0986(6) 0.4748(4) 0.35111(18) 0.0611(8) Uani 1 1 d .
H3A H 1.1355 0.3675 0.3319 0.073 Uiso 1 1 calc R
C4 C 1.2041(6) 0.5649(5) 0.41737(19) 0.0646(9) Uani 1 1 d .
H4A H 1.3171 0.5225 0.4431 0.078 Uiso 1 1 calc R
C5 C 1.1436(5) 0.7126(4) 0.44431(13) 0.0391(6) Uani 1 1 d .
H5A H 1.2140 0.7710 0.4899 0.047 Uiso 1 1 calc R
C6 C 0.5959(6) 0.7033(6) 0.23862(15) 0.0669(9) Uani 1 1 d .
H6A H 0.4629 0.7556 0.2309 0.080 Uiso 1 1 calc R
H6B H 0.5129 0.5562 0.2386 0.080 Uiso 1 1 calc R
C7 C 1.0124(5) 0.8886(4) 0.18399(16) 0.0526(7) Uani 1 1 d .
H7A H 1.0883 0.9577 0.2280 0.063 Uiso 1 1 calc R
C8 C 0.7606(5) 0.7523(4) 0.17726(14) 0.0482(7) Uani 1 1 d .
C9 C 0.6615(6) 0.6573(6) 0.11104(18) 0.0799(11) Uani 1 1 d .
H9A H 0.4915 0.5664 0.1041 0.096 Uiso 1 1 calc R
C10 C 0.8064(8) 0.6935(7) 0.05565(19) 0.0928(13) Uani 1 1 d .
H10A H 0.7356 0.6247 0.0113 0.111 Uiso 1 1 calc R
C11 C 1.0437(5) 0.8229(4) 0.06281(14) 0.0486(7) Uani 1 1 d .
H11A H 1.1390 0.8458 0.0235 0.058 Uiso 1 1 calc R
loop_
_atom_site_aniso_label
_atom_site_aniso_U_11
_atom_site_aniso_U_22
_atom_site_aniso_U_33
_atom_site_aniso_U_23
_atom_site_aniso_U_13
_atom_site_aniso_U_12
O1 0.0809(18) 0.112(2) 0.0557(16) 0.0018(14) -0.0184(13) 0.0156(15)
O2 0.0731(15) 0.0743(14) 0.0648(14) -0.0046(11) -0.0052(11) 0.0441(12)
O3 0.119(2) 0.113(2) 0.099(2) -0.0147(17) -0.0041(17) 0.083(2)
O4 0.0590(15) 0.1170(19) 0.0439(14) -0.0257(13) 0.0101(11) -0.0123(13)
O5 0.0781(17) 0.0950(17) 0.0510(15) -0.0176(12) 0.0197(12) 0.0033(13)
O6 0.0470(14) 0.1134(19) 0.0757(18) -0.0092(14) 0.0125(12) -0.0100(13)
N1 0.081(2) 0.0739(18) 0.0530(17) -0.0007(14) 0.0099(15) 0.0258(16)
N2 0.0655(17) 0.0865(19) 0.0369(14) -0.0042(12) 0.0050(12) 0.0398(15)
N3 0.0549(17) 0.081(2) 0.096(3) 0.0238(18) 0.0152(18) 0.0174(15)
N4 0.0557(16) 0.0590(16) 0.0609(18) 0.0067(13) 0.0070(14) 0.0148(13)
N5 0.0524(16) 0.0612(15) 0.0479(16) -0.0074(12) 0.0110(13) 0.0045(12)
C1 0.0426(15) 0.0535(16) 0.0331(14) -0.0027(12) 0.0071(12) 0.0161(13)
C2 0.0615(19) 0.0525(16) 0.0437(17) -0.0063(13) 0.0146(14) 0.0128(15)
C3 0.067(2) 0.0478(16) 0.073(2) 0.0121(15) 0.0272(17) 0.0236(15)
C4 0.063(2) 0.069(2) 0.062(2) 0.0185(17) 0.0102(17) 0.0239(17)
C5 0.0446(15) 0.0404(14) 0.0334(14) 0.0041(11) -0.0028(11) 0.0184(12)
C6 0.0414(17) 0.116(3) 0.0380(17) 0.0047(16) 0.0052(13) 0.0255(17)
C7 0.0400(16) 0.0602(17) 0.0491(18) 0.0009(13) 0.0009(13) 0.0110(13)
C8 0.0367(15) 0.0649(17) 0.0383(15) 0.0020(12) 0.0025(12) 0.0150(13)
C9 0.0434(18) 0.116(3) 0.0445(19) -0.0111(18) -0.0020(15) -0.0043(18)
C10 0.073(3) 0.128(3) 0.040(2) -0.0168(19) 0.0085(17) 0.000(2)
C11 0.0448(17) 0.0633(17) 0.0314(15) 0.0042(12) 0.0124(12) 0.0128(14)
loop_
_atom_type_symbol
_atom_type_description
_atom_type_scat_dispersion_real
_atom_type_scat_dispersion_imag
_atom_type_scat_source
C C 0.0033 0.0016 'International Tables Vol C Tables 4.2.6.8 and 6.1.1.4'
H H 0.0000 0.0000 'International Tables Vol C Tables 4.2.6.8 and 6.1.1.4'
N N 0.0061 0.0033 'International Tables Vol C Tables 4.2.6.8 and 6.1.1.4'
O O 0.0106 0.0060 'International Tables Vol C Tables 4.2.6.8 and 6.1.1.4'
loop_
_geom_angle_atom_site_label_1
_geom_angle_atom_site_label_2
_geom_angle_atom_site_label_3
_geom_angle
C5 N1 C1 121.1(3)
C5 N1 H1N 119(3)
C1 N1 H1N 120(3)
C1 N2 C6 123.5(3)
C1 N2 H2N 124(3)
C6 N2 H2N 113(3)
C11 N3 C7 120.2(3)
C11 N3 H3N 118(3)
C7 N3 H3N 121(3)
O1 N4 O3 122.0(3)
O1 N4 O2 120.4(3)
O3 N4 O2 117.6(3)
O4 N5 O5 120.0(3)
O4 N5 O6 119.8(3)
O5 N5 O6 120.2(3)
N2 C1 N1 119.9(2)
N2 C1 C2 123.8(3)
N1 C1 C2 116.3(3)
C3 C2 C1 120.0(3)
C3 C2 H2A 120.0
C1 C2 H2A 120.0
C4 C3 C2 120.1(3)
C4 C3 H3A 119.9
C2 C3 H3A 119.9
C5 C4 C3 118.9(3)
C5 C4 H4A 120.6
C3 C4 H4A 120.6
C4 C5 N1 123.6(3)
C4 C5 H5A 118.2
N1 C5 H5A 118.2
N2 C6 C8 115.0(3)
N2 C6 H6A 108.5
C8 C6 H6A 108.5
N2 C6 H6B 108.5
C8 C6 H6B 108.5
H6A C6 H6B 107.5
N3 C7 C8 119.6(3)
N3 C7 H7A 120.2
C8 C7 H7A 120.2
C9 C8 C7 117.0(3)
C9 C8 C6 119.6(3)
C7 C8 C6 123.4(3)
C10 C9 C8 120.9(3)
C10 C9 H9A 119.5
C8 C9 H9A 119.5
C11 C10 C9 121.4(3)
C11 C10 H10A 119.3
C9 C10 H10A 119.3
C10 C11 N3 120.9(3)
C10 C11 H11A 119.6
N3 C11 H11A 119.6
loop_
_geom_bond_atom_site_label_1
_geom_bond_atom_site_label_2
_geom_bond_distance
O1 N4 1.226(3)
O2 N4 1.253(3)
O3 N4 1.237(3)
O4 N5 1.225(3)
O5 N5 1.224(3)
O6 N5 1.241(3)
N1 C5 1.318(4)
N1 C1 1.383(4)
N1 H1N 0.87(3)
N2 C1 1.359(4)
N2 C6 1.424(4)
N2 H2N 0.86(3)
N3 C11 1.320(4)
N3 C7 1.378(4)
N3 H3N 0.87(3)
C1 C2 1.407(4)
C2 C3 1.376(4)
C2 H2A 0.9300
C3 C4 1.363(5)
C3 H3A 0.9300
C4 C5 1.315(4)
C4 H4A 0.9300
C5 H5A 0.9300
C6 C8 1.505(4)
C6 H6A 0.9700
C6 H6B 0.9700
C7 C8 1.380(4)
C7 H7A 0.9300
C8 C9 1.366(4)
C9 C10 1.345(5)
C9 H9A 0.9300
C10 C11 1.302(5)
C10 H10A 0.9300
C11 H11A 0.9300
loop_
_geom_hbond_atom_site_label_D
_geom_hbond_atom_site_label_H
_geom_hbond_atom_site_label_A
_geom_hbond_distance_DH
_geom_hbond_distance_HA
_geom_hbond_distance_DA
_geom_hbond_angle_DHA
N1 H1N O2 0.87(3) 2.46(3) 3.204(4) 143(4)
N2 H2N O2 0.86(3) 2.25(2) 3.005(3) 147(4)
N2 H2N O1 0.86(3) 2.45(2) 3.233(4) 152(4)
N3 H3N O5 0.87(3) 2.418(17) 3.262(4) 162(4)
N3 H3N O4 0.87(3) 2.53(3) 3.264(4) 142(4)
loop_
_geom_torsion_atom_site_label_1
_geom_torsion_atom_site_label_2
_geom_torsion_atom_site_label_3
_geom_torsion_atom_site_label_4
_geom_torsion
C6 N2 C1 N1 -176.0(3)
C6 N2 C1 C2 4.9(4)
C5 N1 C1 N2 -177.4(2)
C5 N1 C1 C2 1.8(4)
N2 C1 C2 C3 178.1(3)
N1 C1 C2 C3 -1.1(4)
C1 C2 C3 C4 -0.7(4)
C2 C3 C4 C5 1.9(4)
C3 C4 C5 N1 -1.3(4)
C1 N1 C5 C4 -0.6(4)
C1 N2 C6 C8 -75.5(4)
C11 N3 C7 C8 -0.4(4)
N3 C7 C8 C9 -0.4(4)
N3 C7 C8 C6 178.9(3)
N2 C6 C8 C9 169.9(3)
N2 C6 C8 C7 -9.3(4)
C7 C8 C9 C10 1.3(6)
C6 C8 C9 C10 -178.0(4)
C8 C9 C10 C11 -1.4(7)
C9 C10 C11 N3 0.6(6)
C7 N3 C11 C10 0.3(5)
