#------------------------------------------------------------------------------
#$Date: 2016-02-16 03:10:39 +0200 (Tue, 16 Feb 2016) $
#$Revision: 176453 $
#$URL: svn://www.crystallography.net/cod/cif/7/20/95/7209515.cif $
#------------------------------------------------------------------------------
#
# This file is available in the Crystallography Open Database (COD),
# http://www.crystallography.net/
#
# All data on this site have been placed in the public domain by the
# contributors.
#
data_7209515
loop_
_publ_author_name
'Bonnard, Ga\"etan'
'Barr\`es, Anne-Lise'
'Mentr\'e, Olivier'
'Allis, Damian G.'
'Gatti, Carlo'
'Poizot, Philippe'
'Frayret, Christine'
_publ_section_title
;
 The low/room-temperature forms of the lithiated salt of
 3,6-dihydroxy-2,5-dimethoxy-p-benzoquinone: a combined experimental and
 dispersion-corrected density functional study
;
_journal_issue                   15
_journal_name_full               CrystEngComm
_journal_page_first              2809
_journal_paper_doi               10.1039/c2ce26523k
_journal_volume                  15
_journal_year                    2013
_chemical_formula_moiety         'C4 H7 Li1 O5'
_chemical_formula_sum            'C4 H7 Li O5'
_chemical_formula_weight         142
_chemical_name_systematic        ' ?'
_space_group_IT_number           14
_symmetry_cell_setting           monoclinic
_symmetry_Int_Tables_number      14
_symmetry_space_group_name_Hall  '-P 2yn'
_symmetry_space_group_name_H-M   'P 1 21/n 1'
_cell_angle_alpha                90
_cell_angle_beta                 96.490(10)
_cell_angle_gamma                90
_cell_formula_units_Z            4
_cell_length_a                   5.3318(5)
_cell_length_b                   9.5162(9)
_cell_length_c                   12.7812(13)
_cell_measurement_temperature    293
_cell_volume                     644.34(11)
_computing_publication_material
'Jana2006 (Petricek, Dusek & Palatinus, 2006)'
_computing_structure_refinement
'Jana2006 (Petricek, Dusek & Palatinus, 2006)'
_diffrn_ambient_temperature      293
_diffrn_measured_fraction_theta_full 0.99
_diffrn_measured_fraction_theta_max 0.99
_diffrn_radiation_source         'X-ray tube'
_diffrn_radiation_type           'Mo K\a'
_diffrn_radiation_wavelength     0.71073
_diffrn_reflns_av_R_equivalents  0.0466
_diffrn_reflns_av_sigmaI/netI    0.0161
_diffrn_reflns_limit_h_max       6
_diffrn_reflns_limit_h_min       -6
_diffrn_reflns_limit_k_max       11
_diffrn_reflns_limit_k_min       -11
_diffrn_reflns_limit_l_max       15
_diffrn_reflns_limit_l_min       -15
_diffrn_reflns_number            26652
_diffrn_reflns_theta_full        26.14
_diffrn_reflns_theta_max         26.14
_diffrn_reflns_theta_min         3.21
_exptl_absorpt_coefficient_mu    0.134
_exptl_absorpt_correction_T_max  0.12
_exptl_absorpt_correction_T_min  0.01
_exptl_absorpt_correction_type   empirical
_exptl_absorpt_process_details   Sadabs
_exptl_crystal_colour            purple
_exptl_crystal_density_diffrn    1.4637
_exptl_crystal_description       plate
_exptl_crystal_F_000             296
_exptl_crystal_size_max          0.3
_exptl_crystal_size_mid          0.2
_exptl_crystal_size_min          0.1
_refine_diff_density_max         0.17
_refine_diff_density_min         -0.14
_refine_ls_extinction_method     none
_refine_ls_goodness_of_fit_gt    1.07
_refine_ls_goodness_of_fit_ref   1.11
_refine_ls_hydrogen_treatment    refall
_refine_ls_number_constraints    3
_refine_ls_number_parameters     120
_refine_ls_number_reflns         1284
_refine_ls_number_restraints     0
_refine_ls_R_factor_all          0.0422
_refine_ls_R_factor_gt           0.0316
_refine_ls_shift/su_max          0.0430
_refine_ls_shift/su_mean         0.0019
_refine_ls_structure_factor_coef F
_refine_ls_weighting_scheme      unit
_refine_ls_wR_factor_gt          0.0266
_refine_ls_wR_factor_ref         0.0321
_reflns_number_gt                978
_reflns_number_total             1284
_reflns_threshold_expression     I>3\s(I)
_cod_data_source_file            c2ce26523k.txt
_cod_data_source_block           I
_cod_original_formula_sum        'C4 H7 Li1 O5'
_cod_database_code               7209515
loop_
_symmetry_equiv_pos_site_id
_symmetry_equiv_pos_as_xyz
1 x,y,z
2 -x+1/2,y+1/2,-z+1/2
3 -x,-y,-z
4 x+1/2,-y+1/2,z+1/2
loop_
_atom_site_label
_atom_site_type_symbol
_atom_site_fract_x
_atom_site_fract_y
_atom_site_fract_z
_atom_site_adp_type
_atom_site_U_iso_or_equiv
_atom_site_symmetry_multiplicity
_atom_site_occupancy
_atom_site_calc_flag
C1 C -0.0049(3) 0.15083(15) -0.00203(12) Uani 0.0273(4) 4 1 d
C2 C 0.1362(3) -0.07924(15) 0.08589(11) Uani 0.0264(4) 4 1 d
C3 C 0.1410(3) 0.06746(15) 0.08773(11) Uani 0.0270(4) 4 1 d
C4 C 0.5115(4) 0.8068(3) 0.15129(17) Uani 0.0493(7) 4 1 d
H4a H 0.588(4) 0.751(3) 0.2134(19) Uiso 0.078(7) 4 1 d
H4b H 0.612(5) 0.897(3) 0.1454(19) Uiso 0.086(8) 4 1 d
H4c H 0.514(4) 0.756(3) 0.088(2) Uiso 0.078(8) 4 1 d
O3 O 0.2592(2) 0.14078(11) 0.15896(9) Uani 0.0397(4) 4 1 d
O1 O 0.0065(2) 0.28277(11) 0.00753(9) Uani 0.0390(4) 4 1 d
O2 O 0.2618(2) 0.84584(11) 0.16977(8) Uani 0.0306(3) 4 1 d
Li1 Li 0.2346(5) 0.3513(3) 0.1439(2) Uani 0.0404(9) 4 1 d
Ow1 O 0.4675(2) 0.02688(12) 0.34407(9) Uani 0.0372(4) 4 1 d
H1a H 0.406(4) 0.065(2) 0.2817(18) Uiso 0.067(5) 4 1 d
H1b H 0.460(4) 0.093(2) 0.3930(18) Uiso 0.067(5) 4 1 d
Ow2 O 0.4451(3) 0.58557(18) -0.10007(13) Uani 0.0585(6) 4 1 d
H2a H 0.328(7) 0.544(4) -0.137(3) Uiso 0.144(12) 4 1 d
H2b' H 0.343(13) 0.664(8) -0.079(6) Uiso 0.144(12) 4 0.5 d
H2b" H 0.522(16) 0.465(9) 0.042(5) Uiso 0.144(12) 4 0.5 d
loop_
_atom_site_aniso_label
_atom_site_aniso_type_symbol
_atom_site_aniso_U_11
_atom_site_aniso_U_22
_atom_site_aniso_U_33
_atom_site_aniso_U_12
_atom_site_aniso_U_13
_atom_site_aniso_U_23
C1 C 0.0328(7) 0.0210(7) 0.0280(7) -0.0008(6) 0.0034(6) 0.0016(6)
C2 C 0.0325(8) 0.0213(7) 0.0249(7) 0.0003(6) 0.0003(6) 0.0022(5)
C3 C 0.0336(8) 0.0235(7) 0.0236(7) -0.0024(6) 0.0014(6) -0.0010(6)
C4 C 0.0409(10) 0.0603(13) 0.0464(11) 0.0140(10) 0.0040(8) -0.0018(10)
O3 O 0.0585(8) 0.0243(6) 0.0322(6) -0.0040(5) -0.0118(5) -0.0018(5)
O1 O 0.0581(7) 0.0195(5) 0.0363(6) -0.0013(5) -0.0088(5) -0.0011(5)
O2 O 0.0352(6) 0.0266(5) 0.0288(5) 0.0037(4) -0.0013(4) 0.0036(4)
Li1 Li 0.0391(15) 0.0274(14) 0.0534(17) -0.0039(12) -0.0008(13) 0.0001(12)
Ow1 O 0.0478(7) 0.0298(6) 0.0311(6) 0.0048(5) -0.0076(5) -0.0017(5)
Ow2 O 0.0441(8) 0.0621(10) 0.0690(10) -0.0134(7) 0.0057(7) -0.0095(8)
loop_
_atom_type_symbol
_atom_type_scat_dispersion_real
_atom_type_scat_dispersion_imag
_atom_type_scat_source
_atom_type_scat_Cromer_Mann_a1
_atom_type_scat_Cromer_Mann_b1
_atom_type_scat_Cromer_Mann_a2
_atom_type_scat_Cromer_Mann_b2
_atom_type_scat_Cromer_Mann_a3
_atom_type_scat_Cromer_Mann_b3
_atom_type_scat_Cromer_Mann_a4
_atom_type_scat_Cromer_Mann_b4
_atom_type_scat_Cromer_Mann_c
C 0.0033 0.0016 'International Tables Vol C tables 4.2.6.8 and 6.1.1.4' 2.31
20.843901 1.02 10.2075 1.5886 0.5687 0.865 51.651199 0.2156
H 0.0000 0.0000 'International Tables Vol C tables 4.2.6.8 and 6.1.1.4'
0.493002 10.5109 0.322912 26.1257 0.140191 3.14236 0.04081 57.799702 0.003038
Li -0.0003 0.0001 'International Tables Vol C tables 4.2.6.8 and 6.1.1.4'
1.1282 3.9546 0.7508 1.0524 0.6175 85.390503 0.4653 168.261002 0.0377
O 0.0106 0.0060 'International Tables Vol C tables 4.2.6.8 and 6.1.1.4' 3.0485
13.2771 2.2868 5.7011 1.5463 0.3239 0.867 32.908901 0.2508
loop_
_geom_angle_atom_site_label_1
_geom_angle_atom_site_label_2
_geom_angle_atom_site_label_3
_geom_angle_site_symmetry_1
_geom_angle_site_symmetry_3
_geom_angle
C2 C1 C3 3_555 . 119.48(12)
C2 C1 C3 3_555 3_555 29.76(7)
C2 C1 O3 3_555 . 148.31(11)
C2 C1 O1 3_555 . 125.20(13)
C2 C1 O2 3_555 3_565 30.10(7)
C3 C1 C3 . 3_555 89.73(9)
C3 C1 O3 . . 28.86(7)
C3 C1 O1 . . 115.33(12)
C3 C1 O2 . 3_565 149.53(10)
C3 C1 O3 3_555 . 118.58(7)
C3 C1 O1 3_555 . 154.94(11)
C3 C1 O2 3_555 3_565 59.85(5)
O3 C1 O1 . . 86.48(9)
O3 C1 O2 . 3_565 177.46(8)
O1 C1 O2 . 3_565 95.12(9)
C1 C2 C3 3_555 . 120.63(13)
C1 C2 C4 3_555 1_545 112.52(11)
C1 C2 O3 3_555 . 146.57(11)
C1 C2 O1 3_555 3_555 25.97(7)
C1 C2 O2 3_555 1_545 119.90(12)
C3 C2 C4 . 1_545 116.31(11)
C3 C2 O3 . . 25.96(7)
C3 C2 O1 . 3_555 146.58(10)
C3 C2 O2 . 1_545 119.47(12)
C4 C2 O3 1_545 . 94.69(8)
C4 C2 O1 1_545 3_555 90.80(8)
C4 C2 O2 1_545 1_545 34.22(8)
O3 C2 O1 . 3_555 172.42(8)
O3 C2 O2 . 1_545 93.53(8)
O1 C2 O2 3_555 1_545 93.95(8)
C1 C3 C1 . 3_555 90.27(9)
C1 C3 C2 . . 119.88(12)
C1 C3 O3 . . 115.14(12)
C1 C3 O1 . . 28.84(7)
C1 C3 O2 . 1_545 150.08(10)
C1 C3 C2 3_555 . 29.62(7)
C1 C3 O3 3_555 . 154.57(11)
C1 C3 O1 3_555 . 119.11(7)
C1 C3 O2 3_555 1_545 59.85(5)
C2 C3 O3 . . 124.97(13)
C2 C3 O1 . . 148.70(10)
C2 C3 O2 . 1_545 30.24(7)
O3 C3 O1 . . 86.32(9)
O3 C3 O2 . 1_545 94.76(9)
O1 C3 O2 . 1_545 177.88(8)
C2 C4 H4a 1_565 . 141.5(14)
C2 C4 H4b 1_565 . 91.0(14)
C2 C4 H4c 1_565 . 91.5(14)
C2 C4 O2 1_565 . 33.32(7)
H4a C4 H4b . . 109.6(19)
H4a C4 H4c . . 111(2)
H4a C4 O2 . . 108.2(14)
H4b C4 H4c . . 108(2)
H4b C4 O2 . . 107.4(15)
H4c C4 O2 . . 112.3(14)
C4 H4a H4b . . 35.6(12)
C4 H4a H4c . . 33.3(12)
C4 H4a O2 . . 43.0(10)
H4b H4a H4c . . 58.5(15)
H4b H4a O2 . . 65.5(12)
H4c H4a O2 . . 66.2(12)
C4 H4b H4a . . 34.9(12)
C4 H4b H4c . . 34.3(13)
C4 H4b O2 . . 43.2(10)
H4a H4b H4c . . 59.3(15)
H4a H4b O2 . . 65.3(12)
H4c H4b O2 . . 66.4(13)
C4 H4c H4a . . 35.6(13)
C4 H4c H4b . . 37.5(14)
C4 H4c O2 . . 41.6(11)
C4 H4c H2b' . . 156(3)
H4a H4c H4b . . 62.2(15)
H4a H4c O2 . . 66.0(12)
H4a H4c H2b' . . 155(2)
H4b H4c O2 . . 66.3(13)
H4b H4c H2b' . . 142(2)
O2 H4c H2b' . . 115(2)
C1 O3 C2 . . 65.06(6)
C1 O3 C3 . . 36.00(8)
C1 O3 Li1 . . 81.40(10)
C1 O3 H1a . . 157.3(7)
C2 O3 C3 . . 29.06(8)
C2 O3 Li1 . . 146.45(10)
C2 O3 H1a . . 93.5(7)
C3 O3 Li1 . . 117.39(12)
C3 O3 H1a . . 122.3(7)
Li1 O3 H1a . . 119.6(7)
C1 O1 C2 . 3_555 28.84(8)
C1 O1 C3 . . 35.84(8)
C1 O1 Li1 . . 113.81(12)
C1 O1 H1b . 4_454 123.4(7)
C1 O1 H2b' . 3_565 103.5(19)
C2 O1 C3 3_555 . 64.67(5)
C2 O1 Li1 3_555 . 142.63(10)
C2 O1 H1b 3_555 4_454 96.6(7)
C2 O1 H2b' 3_555 3_565 99.1(18)
C3 O1 Li1 . . 77.99(9)
C3 O1 H1b . 4_454 153.0(7)
C3 O1 H2b' . 3_565 104.3(19)
Li1 O1 H1b . 4_454 117.5(7)
Li1 O1 H2b' . 3_565 91.2(18)
H1b O1 H2b' 4_454 3_565 98(2)
C1 O2 C2 3_565 1_565 30.01(7)
C1 O2 C3 3_565 1_565 60.29(5)
C1 O2 C4 3_565 . 107.65(11)
C1 O2 H4a 3_565 . 130.4(7)
C1 O2 H4b 3_565 . 107.9(7)
C1 O2 H4c 3_565 . 83.5(7)
C1 O2 Li1 3_565 2_555 146.01(9)
C2 O2 C3 1_565 1_565 30.29(7)
C2 O2 C4 1_565 . 112.46(13)
C2 O2 H4a 1_565 . 141.1(7)
C2 O2 H4b 1_565 . 97.6(7)
C2 O2 H4c 1_565 . 96.3(7)
C2 O2 Li1 1_565 2_555 134.99(11)
C3 O2 C4 1_565 . 111.38(12)
C3 O2 H4a 1_565 . 134.7(7)
C3 O2 H4b 1_565 . 85.7(8)
C3 O2 H4c 1_565 . 108.2(7)
C3 O2 Li1 1_565 2_555 112.81(9)
C4 O2 H4a . . 28.7(7)
C4 O2 H4b . . 29.4(8)
C4 O2 H4c . . 26.1(7)
C4 O2 Li1 . 2_555 105.62(12)
H4a O2 H4b . . 49.2(10)
H4a O2 H4c . . 47.8(10)
H4a O2 Li1 . 2_555 79.7(7)
H4b O2 H4c . . 47.3(10)
H4b O2 Li1 . 2_555 104.5(7)
H4c O2 Li1 . 2_555 127.4(7)
O3 Li1 O1 . . 78.30(11)
O3 Li1 O2 . 2_545 83.66(11)
O3 Li1 Ow1 . 2_555 148.37(17)
O3 Li1 H1a . 2_555 145.5(6)
O3 Li1 Ow2 . 3_665 106.48(15)
O3 Li1 H2b' . 3_665 85.6(17)
O3 Li1 H2b" . . 118(2)
O1 Li1 O2 . 2_545 139.24(15)
O1 Li1 Ow1 . 2_555 93.23(12)
O1 Li1 H1a . 2_555 114.3(5)
O1 Li1 Ow2 . 3_665 107.41(16)
O1 Li1 H2b' . 3_665 99.5(16)
O1 Li1 H2b" . . 92.0(17)
O2 Li1 Ow1 2_545 2_555 83.39(12)
O2 Li1 H1a 2_545 2_555 65.8(6)
O2 Li1 Ow2 2_545 3_665 112.69(14)
O2 Li1 H2b' 2_545 3_665 115.3(16)
O2 Li1 H2b" 2_545 . 128.7(17)
Ow1 Li1 H1a 2_555 2_555 21.3(5)
Ow1 Li1 Ow2 2_555 3_665 105.13(14)
Ow1 Li1 H2b' 2_555 3_665 126.0(17)
Ow1 Li1 H2b" 2_555 . 93(2)
H1a Li1 Ow2 2_555 3_665 100.1(6)
H1a Li1 H2b' 2_555 3_665 121.0(18)
H1a Li1 H2b" 2_555 . 95(2)
Ow2 Li1 H2b' 3_665 3_665 21.3(17)
Ow2 Li1 H2b" 3_665 . 20.7(18)
H2b' Li1 H2b" 3_665 . 35(3)
Li1 Ow1 H1a 2_545 . 104.8(14)
Li1 Ow1 H1b 2_545 . 117.9(15)
Li1 Ow1 H2a 2_545 4_555 103.0(11)
H1a Ow1 H1b . . 107(2)
H1a Ow1 H2a . 4_555 119.2(18)
H1b Ow1 H2a . 4_555 105.5(17)
O3 H1a Li1 . 2_545 123.8(11)
O3 H1a Ow1 . . 176(2)
O3 H1a H1b . . 142.4(18)
Li1 H1a Ow1 2_545 . 53.9(12)
Li1 H1a H1b 2_545 . 78.7(14)
Ow1 H1a H1b . . 36.1(13)
O1 H1b Ow1 4_555 . 168(2)
O1 H1b H1a 4_555 . 151.7(18)
O1 H1b H2a 4_555 4_555 115.0(13)
Ow1 H1b H1a . . 36.6(13)
Ow1 H1b H2a . 4_555 53.7(15)
H1a H1b H2a . 4_555 79.7(16)
Li1 Ow2 H2a 3_665 . 127(3)
Li1 Ow2 H2b' 3_665 . 112(4)
Li1 Ow2 H2b" 3_665 . 108(2)
Li1 Ow2 H2b" 3_665 3_665 108(6)
H2a Ow2 H2b' . . 96(5)
H2a Ow2 H2b" . . 106(3)
H2a Ow2 H2b" . 3_665 106(6)
H2b' Ow2 H2b" . . 104(5)
H2b' Ow2 H2b" . 3_665 104(7)
H2b" Ow2 H2b" . 3_665 1(6)
Ow1 H2a H1b 4_454 4_454 20.8(7)
Ow1 H2a Ow2 4_454 . 150(4)
Ow1 H2a H2b' 4_454 . 110(4)
Ow1 H2a H2b" 4_454 3_665 122(4)
H1b H2a Ow2 4_454 . 137(3)
H1b H2a H2b' 4_454 . 112(4)
H1b H2a H2b" 4_454 3_665 103(4)
Ow2 H2a H2b' . . 46(3)
Ow2 H2a H2b" . 3_665 38(4)
H2b' H2a H2b" . 3_665 65(5)
H4c H2b' O1 . 3_565 79(2)
H4c H2b' Li1 . 3_665 93(2)
H4c H2b' Ow2 . . 111(5)
H4c H2b' H2a . . 142(5)
H4c H2b' H2b" . 3_665 84(4)
O1 H2b' Li1 3_565 3_665 169(4)
O1 H2b' Ow2 3_565 . 144(6)
O1 H2b' H2a 3_565 . 114(4)
O1 H2b' H2b" 3_565 3_665 117(5)
Li1 H2b' Ow2 3_665 . 47(3)
Li1 H2b' H2a 3_665 . 77(4)
Li1 H2b' H2b" 3_665 3_665 69(4)
Ow2 H2b' H2a . . 38(3)
Ow2 H2b' H2b" . 3_665 36(4)
H2a H2b' H2b" . 3_665 58(4)
Li1 H2b" Ow2 . . 129(4)
Li1 H2b" Ow2 . 3_665 51(5)
Li1 H2b" H2a . 3_665 80(4)
Li1 H2b" H2b' . 3_665 76(4)
Li1 H2b" H2b" . 3_665 129(7)
Ow2 H2b" Ow2 . 3_665 179(7)
Ow2 H2b" H2a . 3_665 145(6)
Ow2 H2b" H2b' . 3_665 139(5)
Ow2 H2b" H2b" . 3_665 0(4)
Ow2 H2b" H2a 3_665 3_665 36(3)
Ow2 H2b" H2b' 3_665 3_665 40(5)
Ow2 H2b" H2b" 3_665 3_665 179(9)
H2a H2b" H2b' 3_665 3_665 57(4)
H2a H2b" H2b" 3_665 3_665 145(8)
H2b' H2b" H2b" 3_665 3_665 139(8)
loop_
_geom_bond_atom_site_label_1
_geom_bond_atom_site_label_2
_geom_bond_site_symmetry_2
_geom_bond_distance
C1 C2 3_555 1.390(2)
C1 C3 . 1.532(2)
C1 C3 3_555 2.421(2)
C1 O3 . 2.3603(18)
C1 O1 . 1.2623(18)
C1 O2 3_565 2.4104(17)
C2 C3 . 1.396(2)
C2 C4 1_545 2.345(2)
C2 O3 . 2.3554(18)
C2 O1 3_555 2.3559(17)
C2 O2 1_545 1.3942(17)
C3 O3 . 1.2584(17)
C3 O1 . 2.3658(18)
C3 O2 1_545 2.4103(17)
C4 H4a . 1.00(2)
C4 H4b . 1.02(3)
C4 H4c . 0.95(3)
C4 O2 . 1.427(2)
H4a H4b . 1.66(4)
H4a H4c . 1.61(3)
H4a O2 . 1.99(2)
H4b H4c . 1.60(4)
H4b O2 . 1.99(3)
H4c O2 . 1.99(3)
H4c H2b' . 2.39(7)
O3 Li1 . 2.016(3)
O3 H1a . 1.82(2)
O1 Li1 . 2.113(3)
O1 H1b 4_454 1.88(2)
O1 H2b' 3_565 2.23(7)
O2 Li1 2_555 2.380(3)
Li1 Ow1 2_555 2.003(3)
Li1 H1a 2_555 2.40(2)
Li1 Ow2 3_665 1.951(3)
Li1 H2b' 3_665 2.49(7)
Li1 H2b" . 2.38(8)
Ow1 H1a . 0.90(2)
Ow1 H1b . 0.89(2)
Ow1 H2a 4_555 2.03(4)
H1a H1b . 1.44(3)
H1b H2a 4_555 2.42(4)
Ow2 H2a . 0.83(4)
Ow2 H2b' . 0.98(7)
Ow2 H2b" . 2.15(7)
Ow2 H2b" 3_665 0.89(7)
H2a H2b' . 1.35(8)
H2a H2b" 3_665 1.37(8)
H2b' H2b" 3_665 1.47(11)
H2b" H2b" 3_665 1.26(10)
loop_
_geom_hbond_atom_site_label_D
_geom_hbond_atom_site_label_H
_geom_hbond_atom_site_label_A
_geom_hbond_site_symmetry_A
_geom_hbond_distance_DH
_geom_hbond_distance_HA
_geom_hbond_distance_DA
_geom_hbond_angle_DHA
Ow1 H1a O3 . 0.90(2) 1.82(2) 2.7222(16) 176(2)
Ow1 H1b O1 4_555 0.89(2) 1.88(2) 2.7552(16) 168(2)
Ow2 H2a Ow1 4_454 0.83(4) 2.03(4) 2.7804(19) 150(4)
Ow2 H2b' O1 3_565 0.98(7) 2.23(7) 3.068(2) 144(6)
loop_
_refln_index_h
_refln_index_k
_refln_index_l
_refln_F_squared_calc
_refln_F_squared_meas
_refln_F_squared_sigma
_refln_observed_status
2 0 0 1207.09 1205.12 21.67 o
4 0 0 950.33 938.88 16.84 o
6 0 0 8.05 5.56 1.45 o
1 1 0 110.91 105.93 1.08 o
2 1 0 5.73 6.41 0.42 o
3 1 0 193.17 194.62 2.65 o
4 1 0 0.26 0.64 0.52 <
5 1 0 46.47 42.83 1.56 o
6 1 0 2.23 2.21 1.47 <
0 2 0 0.15 -0.21 0.23 <
1 2 0 54.70 54.65 0.62 o
2 2 0 5.74 3.64 0.31 o
3 2 0 300.75 318.38 3.75 o
4 2 0 273.84 277.11 4.16 o
5 2 0 5.08 6.72 1.01 o
6 2 0 0.05 1.18 1.62 <
1 3 0 0.69 0.31 0.20 <
2 3 0 19.65 20.99 0.53 o
3 3 0 94.08 98.95 1.25 o
4 3 0 4.67 5.19 0.79 o
5 3 0 7.39 6.05 1.16 o
6 3 0 2.10 0.75 1.81 <
0 4 0 1083.90 1102.75 9.92 o
1 4 0 309.41 280.43 2.20 o
2 4 0 1339.58 1329.30 8.89 o
3 4 0 15.86 15.77 0.62 o
4 4 0 27.98 23.71 0.92 o
5 4 0 46.08 48.33 1.61 o
6 4 0 20.30 25.67 3.01 o
1 5 0 2007.16 2057.45 12.63 o
2 5 0 0.01 0.10 0.29 <
3 5 0 151.11 142.00 1.71 o
4 5 0 3.19 2.06 0.50 o
5 5 0 5.83 5.95 0.88 o
0 6 0 54.76 50.21 1.43 o
1 6 0 3.60 3.87 0.43 o
2 6 0 163.68 155.28 1.87 o
3 6 0 8.80 6.19 0.63 o
4 6 0 360.96 358.04 4.11 o
5 6 0 0.99 0.00 0.88 <
1 7 0 1.82 2.93 0.48 o
2 7 0 4.35 3.89 0.55 o
3 7 0 350.86 366.24 4.03 o
4 7 0 47.56 51.03 1.79 o
5 7 0 25.19 23.14 1.96 o
0 8 0 12.88 9.51 1.11 o
1 8 0 7.81 6.53 0.70 o
2 8 0 44.99 44.84 1.35 o
3 8 0 26.87 27.01 1.30 o
4 8 0 37.02 37.27 1.81 o
1 9 0 141.13 126.00 2.39 o
2 9 0 1.87 3.26 0.83 o
3 9 0 14.55 17.28 1.40 o
4 9 0 19.71 22.60 2.03 o
0 10 0 122.74 118.25 3.85 o
1 10 0 16.87 16.85 1.36 o
2 10 0 95.09 103.71 2.94 o
3 10 0 5.19 5.46 1.45 o
1 11 0 27.04 34.57 2.21 o
2 11 0 4.92 5.74 1.47 o
-5 0 1 70.98 68.00 4.59 o
-3 0 1 303.34 338.53 10.74 o
-1 0 1 12181.89 12301.83 199.01 o
1 0 1 348.82 363.17 2.88 o
3 0 1 807.49 808.61 8.96 o
5 0 1 0.36 0.75 0.63 <
-6 1 1 10.86 11.99 1.60 o
-5 1 1 23.09 20.68 1.14 o
-4 1 1 165.04 170.03 2.97 o
-3 1 1 54.69 52.67 1.35 o
-2 1 1 1148.24 1096.23 10.10 o
-1 1 1 50.31 44.65 0.59 o
1 1 1 46.48 42.84 0.49 o
2 1 1 517.78 548.77 4.69 o
3 1 1 15.52 9.79 0.54 o
4 1 1 0.53 0.83 0.45 <
5 1 1 10.29 9.45 1.08 o
6 1 1 84.87 79.17 2.98 o
-6 2 1 14.31 17.56 2.09 o
-5 2 1 30.92 28.07 1.50 o
-4 2 1 0.30 -0.64 0.57 <
-3 2 1 0.06 -0.43 0.39 <
-2 2 1 86.93 99.31 1.25 o
-1 2 1 29.62 32.54 0.47 o
0 2 1 573.92 537.02 3.58 o
1 2 1 3.27 2.24 0.20 o
2 2 1 187.40 203.21 1.58 o
3 2 1 743.70 765.39 6.62 o
4 2 1 93.05 87.05 1.81 o
5 2 1 0.20 1.43 1.01 <
6 2 1 0.00 -0.05 1.62 <
-6 3 1 3.29 4.69 1.75 <
-5 3 1 8.67 5.46 1.13 o
-4 3 1 416.28 411.07 5.75 o
-3 3 1 6.26 3.26 0.38 o
-2 3 1 3.99 4.86 0.33 o
-1 3 1 688.07 656.88 4.16 o
0 3 1 1175.77 1099.91 7.02 o
1 3 1 1184.28 1192.06 7.07 o
2 3 1 2.08 2.38 0.28 o
3 3 1 527.56 525.63 3.95 o
4 3 1 13.37 15.41 0.68 o
5 3 1 28.19 35.23 1.38 o
6 3 1 0.02 1.35 1.76 <
-6 4 1 0.36 1.13 1.52 <
-5 4 1 2.23 1.95 0.79 <
-4 4 1 75.64 67.88 1.31 o
-3 4 1 676.75 661.47 4.93 o
-2 4 1 15.09 14.26 0.54 o
-1 4 1 251.23 225.25 1.85 o
0 4 1 428.69 409.39 3.12 o
1 4 1 1524.07 1510.34 9.36 o
2 4 1 2.83 3.02 0.35 o
3 4 1 229.34 247.87 2.34 o
4 4 1 47.98 49.51 1.19 o
5 4 1 4.50 3.37 0.86 o
6 4 1 1.71 3.09 1.56 <
-5 5 1 0.02 0.11 0.77 <
-4 5 1 8.44 6.69 0.62 o
-3 5 1 16.09 15.82 0.67 o
-2 5 1 27.53 31.43 0.75 o
-1 5 1 66.12 66.10 1.03 o
0 5 1 319.99 346.97 2.86 o
1 5 1 269.55 284.21 2.44 o
2 5 1 0.14 0.26 0.30 <
3 5 1 29.40 25.92 0.83 o
4 5 1 0.21 0.73 0.50 <
5 5 1 32.08 28.53 1.46 o
-5 6 1 135.63 138.64 3.07 o
-4 6 1 1.18 1.46 0.63 <
-3 6 1 8.69 8.47 0.65 o
-2 6 1 2.63 2.19 0.42 o
-1 6 1 304.44 253.63 2.50 o
0 6 1 25.06 22.85 0.78 o
1 6 1 138.89 149.58 1.85 o
2 6 1 53.67 54.74 1.11 o
3 6 1 436.88 430.00 4.13 o
4 6 1 0.72 0.35 0.68 <
5 6 1 41.57 40.49 1.95 o
-5 7 1 2.35 3.04 1.31 <
-4 7 1 346.42 359.84 4.72 o
-3 7 1 30.92 28.04 1.17 o
-2 7 1 6.39 7.76 0.65 o
-1 7 1 2.43 0.93 0.42 <
0 7 1 205.52 210.08 2.38 o
1 7 1 1.31 1.38 0.48 <
2 7 1 271.62 269.84 2.86 o
3 7 1 0.34 0.05 0.62 <
4 7 1 115.21 110.70 2.58 o
5 7 1 4.45 6.30 1.48 o
-4 8 1 9.18 10.05 1.21 o
-3 8 1 21.61 18.06 1.12 o
-2 8 1 26.94 29.40 1.14 o
-1 8 1 8.31 10.65 0.79 o
0 8 1 44.68 39.16 1.28 o
1 8 1 11.97 8.25 0.77 o
2 8 1 243.83 247.52 2.89 o
3 8 1 149.45 161.06 2.62 o
4 8 1 2.55 2.69 1.07 <
-4 9 1 11.57 8.53 1.53 o
-3 9 1 11.47 9.43 1.21 o
-2 9 1 71.14 65.18 1.84 o
-1 9 1 58.16 64.30 1.75 o
0 9 1 256.43 238.03 3.18 o
1 9 1 0.03 0.19 0.63 <
2 9 1 8.31 10.77 0.99 o
3 9 1 30.14 36.57 1.87 o
4 9 1 4.23 4.20 1.47 <
-3 10 1 9.24 4.89 1.43 o
-2 10 1 0.11 0.20 0.94 <
-1 10 1 179.64 176.13 3.31 o
0 10 1 74.41 77.81 2.28 o
1 10 1 38.26 37.90 1.82 o
2 10 1 6.73 5.99 1.22 o
3 10 1 62.10 71.00 3.01 o
-2 11 1 22.47 21.09 2.10 o
-1 11 1 2.91 1.57 1.22 <
0 11 1 2.34 4.11 1.26 o
1 11 1 6.29 11.21 1.72 o
2 11 1 1.67 1.94 1.35 <
-2 0 2 8107.07 8324.43 127.92 o
0 0 2 792.57 741.31 7.82 o
2 0 2 1.54 1.99 0.33 o
4 0 2 234.16 220.41 3.67 o
6 0 2 50.84 45.73 3.16 o
-6 1 2 7.50 7.33 1.42 o
-5 1 2 0.27 -0.08 0.62 <
-4 1 2 40.21 43.09 1.28 o
-3 1 2 3.47 5.89 0.58 o
-2 1 2 280.11 276.96 2.96 o
-1 1 2 6918.31 6750.23 39.04 o
0 1 2 46.34 32.38 0.48 o
1 1 2 92.78 100.88 0.86 o
2 1 2 57.99 61.07 0.72 o
3 1 2 22.31 21.92 0.62 o
4 1 2 0.81 1.03 0.40 <
5 1 2 27.20 28.31 1.06 o
6 1 2 4.18 4.78 1.22 o
-6 2 2 4.11 2.63 1.41 <
-5 2 2 0.14 -0.16 0.73 <
-4 2 2 14.26 16.65 1.06 o
-3 2 2 237.05 231.54 2.97 o
-2 2 2 6.68 10.09 0.39 o
-1 2 2 1181.03 1136.66 6.72 o
0 2 2 183.39 183.19 1.55 o
1 2 2 1489.75 1393.70 8.08 o
2 2 2 2282.78 2326.58 14.72 o
3 2 2 69.46 62.74 1.01 o
4 2 2 143.80 139.12 1.80 o
5 2 2 6.95 6.58 0.74 o
6 2 2 7.97 8.30 1.41 o
-6 3 2 1.70 1.60 1.60 <
-5 3 2 106.34 100.71 3.13 o
-4 3 2 1.45 -0.15 0.63 <
-3 3 2 119.40 125.14 1.46 o
-2 3 2 0.47 0.14 0.23 <
-1 3 2 561.86 536.30 3.47 o
0 3 2 419.64 416.00 3.12 o
1 3 2 904.64 904.96 5.70 o
2 3 2 8.24 7.32 0.42 o
3 3 2 63.43 69.55 1.09 o
4 3 2 19.72 19.40 0.81 o
5 3 2 21.56 22.10 1.12 o
6 3 2 0.15 0.42 1.23 <
-6 4 2 0.48 1.37 1.75 <
-5 4 2 0.88 0.55 0.79 <
-4 4 2 10.14 7.74 0.64 o
-3 4 2 0.47 0.29 0.35 <
-2 4 2 309.32 323.56 2.80 o
-1 4 2 365.67 344.20 2.62 o
0 4 2 57.34 53.82 0.86 o
1 4 2 143.98 139.78 1.38 o
2 4 2 110.83 118.15 1.38 o
3 4 2 57.39 59.81 1.11 o
4 4 2 34.89 36.29 1.14 o
5 4 2 0.51 0.93 0.82 <
6 4 2 27.80 29.14 2.29 o
-5 5 2 2.87 3.85 0.87 o
-4 5 2 15.56 20.07 0.86 o
-3 5 2 139.49 140.68 1.74 o
-2 5 2 16.60 20.07 0.65 o
-1 5 2 771.56 835.88 5.52 o
0 5 2 58.71 50.45 0.91 o
1 5 2 1.30 0.38 0.30 <
2 5 2 31.39 32.09 0.83 o
3 5 2 98.79 95.76 1.52 o
4 5 2 2.42 1.61 0.59 <
5 5 2 0.80 0.30 0.84 <
-5 6 2 29.39 34.39 1.75 o
-4 6 2 4.27 3.38 0.69 o
-3 6 2 38.51 36.74 1.09 o
-2 6 2 42.18 45.57 1.02 o
-1 6 2 174.06 169.61 2.03 o
0 6 2 352.70 363.12 3.25 o
1 6 2 178.76 174.36 2.09 o
2 6 2 337.72 330.80 3.14 o
3 6 2 8.84 6.93 0.69 o
4 6 2 4.07 3.23 0.84 o
5 6 2 3.80 6.16 1.11 o
-5 7 2 120.00 116.84 3.31 o
-4 7 2 46.24 44.44 1.64 o
-3 7 2 9.54 8.11 0.79 o
-2 7 2 72.28 73.21 1.45 o
-1 7 2 152.40 149.51 1.99 o
0 7 2 211.57 228.56 2.72 o
1 7 2 88.25 83.17 1.62 o
2 7 2 39.78 43.06 1.21 o
3 7 2 639.46 650.74 6.54 o
4 7 2 37.49 38.60 1.82 o
5 7 2 1.79 2.86 1.30 <
-4 8 2 12.94 9.97 1.18 o
-3 8 2 8.37 9.89 0.99 o
-2 8 2 13.65 9.25 0.81 o
-1 8 2 0.87 0.42 0.52 <
0 8 2 42.90 34.58 1.26 o
1 8 2 38.00 40.79 1.32 o
2 8 2 122.35 123.15 2.18 o
3 8 2 5.65 6.28 0.93 o
4 8 2 0.01 -0.52 1.06 <
-4 9 2 0.10 1.60 1.27 <
-3 9 2 10.59 8.01 1.16 o
-2 9 2 66.15 57.39 1.76 o
-1 9 2 267.77 262.37 3.67 o
0 9 2 0.04 0.05 0.62 <
1 9 2 20.65 19.82 1.16 o
2 9 2 56.09 53.60 1.85 o
3 9 2 37.89 36.57 2.00 o
4 9 2 0.02 1.36 1.33 <
-3 10 2 0.66 0.88 1.28 <
-2 10 2 19.15 16.70 1.55 o
-1 10 2 10.40 10.24 1.21 o
0 10 2 10.36 11.56 1.19 o
1 10 2 0.71 1.02 0.92 <
2 10 2 39.92 39.80 2.23 o
3 10 2 1.55 1.07 1.31 <
-2 11 2 21.18 18.62 1.92 o
-1 11 2 0.38 0.68 1.21 <
0 11 2 16.62 20.44 1.82 o
1 11 2 15.81 15.18 1.81 o
2 11 2 10.91 10.69 1.75 o
-5 0 3 0.02 0.29 0.69 <
-3 0 3 131.46 144.45 2.42 o
-1 0 3 4037.04 4133.42 31.68 o
1 0 3 370.21 368.85 3.12 o
3 0 3 253.80 244.52 3.26 o
5 0 3 332.01 332.52 5.82 o
-6 1 3 13.79 12.15 1.62 o
-5 1 3 1.81 1.80 0.65 <
-4 1 3 95.28 89.82 1.95 o
-3 1 3 1.22 0.39 0.33 <
-2 1 3 2192.66 2257.65 14.48 o
-1 1 3 8.04 4.97 0.25 o
0 1 3 11.51 13.02 0.36 o
1 1 3 59.44 62.78 0.70 o
2 1 3 667.51 674.37 4.19 o
3 1 3 17.48 19.03 0.60 o
4 1 3 61.41 63.83 1.25 o
5 1 3 5.73 6.26 0.79 o
6 1 3 86.28 89.15 3.31 o
-6 2 3 0.87 0.20 1.18 <
-5 2 3 186.35 178.88 3.71 o
-4 2 3 1.51 2.38 0.62 o
-3 2 3 433.24 436.30 4.49 o
-2 2 3 216.93 234.94 1.96 o
-1 2 3 2082.94 2083.26 12.20 o
0 2 3 554.93 550.34 3.77 o
1 2 3 3705.48 3696.94 20.99 o
2 2 3 103.73 107.57 1.07 o
3 2 3 580.29 606.18 4.21 o
4 2 3 0.39 0.25 0.44 <
5 2 3 9.18 10.18 0.99 o
6 2 3 0.24 1.43 1.19 <
-6 3 3 14.41 12.38 2.19 o
-5 3 3 2.57 4.34 1.16 o
-4 3 3 140.29 131.30 2.59 o
-3 3 3 237.76 226.40 2.13 o
-2 3 3 4.38 7.64 0.42 o
-1 3 3 415.34 406.81 2.91 o
0 3 3 3661.97 3623.50 21.90 o
1 3 3 609.87 639.08 4.28 o
2 3 3 75.98 96.34 1.08 o
3 3 3 0.36 -0.03 0.31 <
4 3 3 270.46 271.98 2.99 o
5 3 3 0.71 0.52 0.74 <
6 3 3 2.01 1.18 1.32 <
-6 4 3 4.52 5.95 1.80 o
-5 4 3 0.19 0.29 0.81 <
-4 4 3 7.63 7.50 0.62 o
-3 4 3 7.27 8.44 0.53 o
-2 4 3 3.29 1.92 0.33 o
-1 4 3 213.78 224.67 1.90 o
0 4 3 27.92 30.07 0.69 o
1 4 3 59.95 67.18 1.02 o
2 4 3 11.32 8.10 0.47 o
3 4 3 39.94 37.01 0.96 o
4 4 3 0.45 0.97 0.53 <
5 4 3 30.02 29.55 1.52 o
-5 5 3 15.17 12.08 1.07 o
-4 5 3 0.01 -0.36 0.48 <
-3 5 3 52.85 55.17 1.19 o
-2 5 3 261.28 283.61 2.55 o
-1 5 3 109.10 110.19 1.40 o
0 5 3 108.79 116.05 1.41 o
1 5 3 10.38 9.97 0.57 o
2 5 3 38.75 34.87 0.86 o
3 5 3 0.07 0.21 0.47 <
4 5 3 80.66 82.11 1.74 o
5 5 3 12.88 11.58 1.27 o
-5 6 3 106.98 108.10 2.63 o
-4 6 3 0.30 0.47 0.64 <
-3 6 3 5.39 4.82 0.60 o
-2 6 3 8.63 8.09 0.58 o
-1 6 3 49.36 44.09 1.03 o
0 6 3 1.61 1.03 0.40 <
1 6 3 10.75 11.37 0.64 o
2 6 3 30.66 29.82 0.92 o
3 6 3 0.45 1.12 0.58 <
4 6 3 25.28 28.63 1.50 o
5 6 3 22.69 23.41 1.69 o
-5 7 3 6.15 3.58 1.26 <
-4 7 3 51.79 55.65 1.79 o
-3 7 3 0.04 0.05 0.58 <
-2 7 3 299.05 308.65 3.17 o
-1 7 3 0.49 1.23 0.49 <
0 7 3 38.95 35.96 1.18 o
1 7 3 71.63 76.64 1.62 o
2 7 3 1172.43 1149.57 9.13 o
3 7 3 13.99 10.05 0.94 o
4 7 3 2.99 2.58 0.97 <
-4 8 3 1.39 1.69 0.97 <
-3 8 3 32.41 32.30 1.45 o
-2 8 3 38.57 40.85 1.33 o
-1 8 3 51.57 45.26 1.38 o
0 8 3 77.28 67.94 1.71 o
1 8 3 6.08 5.13 0.72 o
2 8 3 1.04 0.97 0.63 <
3 8 3 0.80 2.16 0.88 <
4 8 3 5.64 6.36 1.35 o
-4 9 3 4.90 6.15 1.50 o
-3 9 3 22.04 24.52 1.65 o
-2 9 3 227.78 219.10 3.28 o
-1 9 3 22.40 21.77 1.19 o
0 9 3 17.20 18.28 1.14 o
1 9 3 2.01 1.91 0.74 <
2 9 3 35.63 36.94 1.69 o
3 9 3 6.89 8.63 1.37 o
-3 10 3 0.21 0.53 1.31 <
-2 10 3 8.21 6.83 1.26 o
-1 10 3 2.20 0.82 0.96 <
0 10 3 7.57 5.66 1.03 o
1 10 3 8.54 6.58 1.22 o
2 10 3 0.27 1.12 1.16 <
3 10 3 1.16 0.49 1.40 <
-2 11 3 4.05 3.77 1.43 <
-1 11 3 0.19 -0.25 1.22 <
0 11 3 19.54 15.19 1.72 o
1 11 3 0.07 0.65 1.28 <
-6 0 4 2.69 0.79 1.22 <
-4 0 4 38.00 44.53 1.23 o
-2 0 4 1694.15 1720.81 15.60 o
0 0 4 3947.69 3903.50 32.58 o
2 0 4 13.96 8.00 0.48 o
4 0 4 23.96 25.82 1.18 o
6 0 4 61.23 63.28 4.28 o
-6 1 4 0.75 -0.04 1.21 <
-5 1 4 8.99 6.75 0.88 o
-4 1 4 28.73 31.82 0.88 o
-3 1 4 1306.12 1329.89 10.16 o
-2 1 4 183.19 184.05 1.60 o
-1 1 4 41.96 38.43 0.62 o
0 1 4 529.01 488.43 3.52 o
1 1 4 0.50 1.38 0.23 o
2 1 4 73.06 70.69 0.83 o
3 1 4 148.16 139.85 1.47 o
4 1 4 25.06 25.52 0.93 o
5 1 4 102.31 103.96 2.38 o
6 1 4 0.01 0.39 1.27 <
-6 2 4 33.05 29.11 2.55 o
-5 2 4 1.30 1.71 0.87 <
-4 2 4 9.81 10.05 0.64 o
-3 2 4 93.39 98.14 1.31 o
-2 2 4 403.40 389.98 2.97 o
-1 2 4 12.14 11.02 0.39 o
0 2 4 1616.10 1605.69 10.23 o
1 2 4 127.14 137.58 1.30 o
2 2 4 1155.19 1206.72 6.87 o
3 2 4 131.18 124.30 1.38 o
4 2 4 0.16 0.81 0.49 <
5 2 4 30.76 31.61 1.43 o
6 2 4 0.13 1.71 1.37 <
-6 3 4 0.68 1.21 1.47 <
-5 3 4 0.05 0.06 0.84 <
-4 3 4 9.83 8.65 0.60 o
-3 3 4 41.81 40.40 0.88 o
-2 3 4 166.89 162.40 1.56 o
-1 3 4 739.85 770.23 5.04 o
0 3 4 42.35 34.88 0.77 o
1 3 4 725.97 758.14 5.11 o
2 3 4 8.58 8.23 0.43 o
3 3 4 168.98 155.91 1.77 o
4 3 4 10.14 9.89 0.75 o
5 3 4 82.77 92.34 2.33 o
-6 4 4 27.85 29.45 2.60 o
-5 4 4 21.19 18.87 1.36 o
-4 4 4 0.20 -0.18 0.45 <
-3 4 4 15.81 14.52 0.65 o
-2 4 4 645.55 673.29 4.89 o
-1 4 4 182.65 187.66 1.80 o
0 4 4 476.67 439.16 3.40 o
1 4 4 0.34 0.82 0.31 <
2 4 4 28.52 26.84 0.75 o
3 4 4 0.30 0.39 0.40 <
4 4 4 10.37 10.65 0.79 o
5 4 4 0.63 0.01 0.87 <
-5 5 4 3.39 3.25 0.88 o
-4 5 4 0.58 1.12 0.53 <
-3 5 4 20.95 26.55 0.91 o
-2 5 4 61.21 64.72 1.12 o
-1 5 4 13.02 8.05 0.52 o
0 5 4 156.06 156.27 1.82 o
1 5 4 202.27 193.13 2.14 o
2 5 4 55.06 63.21 1.19 o
3 5 4 6.40 7.14 0.68 o
4 5 4 5.61 7.71 0.84 o
5 5 4 27.88 21.95 1.53 o
-5 6 4 0.90 0.98 0.92 <
-4 6 4 97.17 98.79 2.28 o
-3 6 4 16.56 20.89 0.99 o
-2 6 4 2.94 4.06 0.52 o
-1 6 4 60.27 58.84 1.22 o
0 6 4 2.18 3.37 0.48 o
1 6 4 76.23 74.49 1.43 o
2 6 4 393.84 377.50 3.53 o
3 6 4 82.00 83.46 1.85 o
4 6 4 23.57 22.74 1.28 o
5 6 4 7.70 8.25 1.42 o
-5 7 4 20.83 16.20 1.64 o
-4 7 4 0.85 0.79 0.78 <
-3 7 4 48.56 43.81 1.42 o
-2 7 4 0.35 0.25 0.48 <
-1 7 4 14.77 14.79 0.87 o
0 7 4 139.89 143.71 2.19 o
1 7 4 1594.14 1577.69 12.01 o
2 7 4 6.86 4.24 0.63 o
3 7 4 0.59 0.72 0.69 <
4 7 4 48.63 48.17 2.08 o
-4 8 4 2.94 3.66 1.04 o
-3 8 4 0.58 0.15 0.73 <
-2 8 4 0.22 0.44 0.63 <
-1 8 4 19.36 22.69 1.13 o
0 8 4 11.31 11.12 0.87 o
1 8 4 4.42 4.67 0.72 o
2 8 4 112.62 120.25 2.29 o
3 8 4 20.34 21.63 1.50 o
4 8 4 5.37 4.40 1.31 o
-4 9 4 12.96 13.02 1.75 o
-3 9 4 112.65 113.27 2.92 o
-2 9 4 0.03 1.06 0.81 <
-1 9 4 33.94 33.42 1.53 o
0 9 4 0.04 -0.09 0.67 <
1 9 4 59.36 63.44 1.96 o
2 9 4 6.89 5.64 1.07 o
3 9 4 11.52 10.35 1.64 o
-3 10 4 13.40 10.77 1.75 o
-2 10 4 74.66 74.20 2.74 o
-1 10 4 1.44 1.85 1.04 <
0 10 4 10.17 10.10 1.28 o
1 10 4 39.44 43.55 2.30 o
2 10 4 53.96 58.73 2.73 o
-1 11 4 18.73 17.94 1.94 o
0 11 4 0.27 -0.63 1.21 <
1 11 4 31.78 40.36 2.59 o
-5 0 5 24.92 27.16 1.32 o
-3 0 5 2930.48 2981.38 32.40 o
-1 0 5 3.02 4.05 0.42 o
1 0 5 4221.06 4199.65 31.61 o
3 0 5 161.79 158.78 2.21 o
5 0 5 380.05 380.54 7.45 o
-6 1 5 3.75 2.11 1.11 <
-5 1 5 8.94 7.57 0.68 o
-4 1 5 176.62 173.83 2.19 o
-3 1 5 99.03 96.34 1.37 o
-2 1 5 321.47 327.12 2.40 o
-1 1 5 11.05 8.63 0.38 o
0 1 5 30.23 32.19 0.65 o
1 1 5 25.48 24.50 0.54 o
2 1 5 101.62 117.77 1.23 o
3 1 5 56.61 57.33 0.96 o
4 1 5 142.77 146.60 2.11 o
5 1 5 4.21 4.53 0.93 o
-6 2 5 6.76 9.01 2.18 o
-5 2 5 18.52 17.45 1.02 o
-4 2 5 0.00 -0.23 0.36 <
-3 2 5 90.25 92.31 1.16 o
-2 2 5 152.92 154.16 1.45 o
-1 2 5 18.28 21.09 0.55 o
0 2 5 2.18 0.26 0.24 <
1 2 5 718.64 740.36 4.82 o
2 2 5 20.40 23.19 0.64 o
3 2 5 72.15 74.09 1.16 o
4 2 5 21.40 20.28 0.88 o
5 2 5 0.94 1.06 0.84 <
-6 3 5 0.03 -0.72 1.46 <
-5 3 5 0.34 0.30 0.74 <
-4 3 5 2.43 2.52 0.47 o
-3 3 5 1.55 1.08 0.35 o
-2 3 5 120.67 113.75 1.28 o
-1 3 5 11.63 12.65 0.50 o
0 3 5 507.53 505.71 3.95 o
1 3 5 63.25 69.09 1.06 o
2 3 5 29.09 26.18 0.69 o
3 3 5 78.71 75.70 1.32 o
4 3 5 141.55 128.59 1.99 o
5 3 5 10.34 10.00 1.17 o
-6 4 5 3.82 3.18 1.55 <
-5 4 5 12.43 14.10 1.13 o
-4 4 5 173.67 167.76 2.38 o
-3 4 5 465.75 484.35 4.25 o
-2 4 5 109.50 111.61 1.38 o
-1 4 5 426.67 415.60 3.43 o
0 4 5 310.01 302.51 2.74 o
1 4 5 257.69 266.02 2.73 o
2 4 5 1.38 1.09 0.38 <
3 4 5 233.65 243.55 2.74 o
4 4 5 1.46 0.87 0.62 <
5 4 5 7.92 6.30 1.08 o
-5 5 5 0.75 0.93 0.84 <
-4 5 5 31.45 31.70 1.17 o
-3 5 5 25.92 23.86 0.96 o
-2 5 5 245.72 244.06 2.40 o
-1 5 5 50.87 52.33 1.08 o
0 5 5 110.38 107.93 1.57 o
1 5 5 225.64 238.70 2.58 o
2 5 5 126.27 128.08 1.85 o
3 5 5 9.05 9.79 0.79 o
4 5 5 122.75 119.49 2.44 o
5 5 5 41.07 39.51 2.10 o
-5 6 5 7.14 4.59 1.26 o
-4 6 5 4.29 4.49 0.89 o
-3 6 5 0.53 0.78 0.59 <
-2 6 5 5.73 7.70 0.63 o
-1 6 5 236.10 235.97 2.63 o
0 6 5 12.04 11.71 0.70 o
1 6 5 479.95 466.62 4.52 o
2 6 5 81.71 76.74 1.55 o
3 6 5 129.93 129.03 2.45 o
4 6 5 0.10 -0.11 0.79 <
5 6 5 6.09 7.19 1.96 o
-5 7 5 0.20 1.04 1.21 <
-4 7 5 5.84 5.90 1.02 o
-3 7 5 7.94 10.02 0.97 o
-2 7 5 0.03 -0.35 0.52 <
-1 7 5 84.60 80.71 1.67 o
0 7 5 658.36 636.44 6.11 o
1 7 5 5.77 5.60 0.69 o
2 7 5 0.87 0.69 0.55 <
3 7 5 0.28 -0.40 0.69 <
4 7 5 9.80 6.72 1.26 o
-4 8 5 0.90 1.04 1.13 <
-3 8 5 12.18 7.26 1.04 o
-2 8 5 19.68 17.48 1.13 o
-1 8 5 18.91 17.66 1.04 o
0 8 5 1.65 0.44 0.62 <
1 8 5 141.53 137.53 2.40 o
2 8 5 87.66 86.98 2.13 o
3 8 5 30.37 36.06 1.86 o
4 8 5 4.53 3.18 1.37 <
-3 9 5 29.01 33.62 2.20 o
-2 9 5 33.93 31.72 1.70 o
-1 9 5 87.03 95.86 2.34 o
0 9 5 36.32 39.51 1.62 o
1 9 5 11.93 15.22 1.22 o
2 9 5 20.91 20.93 1.65 o
3 9 5 2.72 1.84 1.36 <
-2 10 5 0.40 0.93 1.18 <
-1 10 5 60.79 61.48 2.59 o
0 10 5 70.28 73.04 2.86 o
1 10 5 70.79 73.75 2.92 o
2 10 5 6.94 4.52 1.45 o
-1 11 5 0.35 0.29 1.40 <
0 11 5 1.13 3.84 1.40 <
-6 0 6 3.82 3.11 1.60 <
-4 0 6 967.14 965.27 13.03 o
-2 0 6 28.88 21.72 0.77 o
0 0 6 2868.03 2839.94 23.01 o
2 0 6 132.81 125.48 2.05 o
4 0 6 1436.56 1458.90 16.67 o
-6 1 6 11.73 14.67 1.55 o
-5 1 6 1.16 1.43 0.63 <
-4 1 6 22.19 23.16 0.91 o
-3 1 6 1.57 3.01 0.44 o
-2 1 6 180.40 182.18 1.65 o
-1 1 6 1461.18 1479.60 9.07 o
0 1 6 14.34 15.02 0.54 o
1 1 6 1000.48 1015.46 6.26 o
2 1 6 83.00 89.58 1.17 o
3 1 6 21.51 24.13 0.69 o
4 1 6 10.58 9.09 0.79 o
5 1 6 3.64 3.86 0.98 o
-6 2 6 8.66 4.98 1.26 o
-5 2 6 13.49 14.39 0.98 o
-4 2 6 34.49 32.38 1.01 o
-3 2 6 60.06 61.27 1.02 o
-2 2 6 42.78 45.78 0.81 o
-1 2 6 67.64 62.16 0.97 o
0 2 6 1186.89 1224.08 8.13 o
1 2 6 279.95 274.41 2.39 o
2 2 6 14.52 16.68 0.62 o
3 2 6 37.67 37.76 0.88 o
4 2 6 1.40 1.19 0.59 <
5 2 6 8.36 7.51 1.17 o
-6 3 6 5.69 6.49 1.38 o
-5 3 6 0.48 0.54 0.69 <
-4 3 6 6.84 5.97 0.67 o
-3 3 6 6.39 6.09 0.52 o
-2 3 6 13.06 15.71 0.59 o
-1 3 6 52.73 58.98 1.03 o
0 3 6 163.11 168.74 1.91 o
1 3 6 21.96 31.16 0.81 o
2 3 6 68.94 60.75 1.11 o
3 3 6 47.77 44.17 1.01 o
4 3 6 56.53 55.18 1.48 o
5 3 6 0.60 0.93 1.07 <
-5 4 6 0.34 0.16 0.74 <
-4 4 6 62.62 56.06 1.48 o
-3 4 6 42.96 44.70 1.12 o
-2 4 6 750.03 726.94 5.23 o
-1 4 6 30.27 31.29 0.87 o
0 4 6 13.88 14.89 0.69 o
1 4 6 7.78 10.26 0.62 o
2 4 6 572.33 591.69 4.77 o
3 4 6 3.87 1.62 0.52 o
4 4 6 63.52 58.60 1.60 o
5 4 6 7.12 5.81 1.23 o
-5 5 6 12.67 12.18 1.25 o
-4 5 6 12.41 14.35 0.98 o
-3 5 6 114.85 121.75 2.00 o
-2 5 6 0.29 1.21 0.43 <
-1 5 6 15.55 14.97 0.72 o
0 5 6 76.64 70.82 1.38 o
1 5 6 105.12 87.57 1.65 o
2 5 6 44.96 43.62 1.18 o
3 5 6 313.65 294.43 3.42 o
4 5 6 17.49 15.23 1.19 o
5 5 6 46.67 46.39 2.49 o
-5 6 6 26.22 30.24 1.99 o
-4 6 6 22.37 22.19 1.32 o
-3 6 6 18.53 15.38 1.03 o
-2 6 6 1.97 1.12 0.49 <
-1 6 6 14.36 13.99 0.83 o
0 6 6 1424.23 1421.11 10.75 o
1 6 6 65.33 64.34 1.52 o
2 6 6 23.02 18.54 0.93 o
3 6 6 0.05 0.60 0.64 <
4 6 6 16.89 16.93 1.52 o
-4 7 6 6.96 5.46 1.14 o
-3 7 6 37.19 39.06 1.62 o
-2 7 6 53.24 46.30 1.51 o
-1 7 6 460.46 483.66 4.82 o
0 7 6 17.87 14.45 0.92 o
1 7 6 241.30 231.72 3.18 o
2 7 6 1.03 1.47 0.64 <
3 7 6 10.84 9.36 1.14 o
4 7 6 1.08 0.79 1.12 <
-4 8 6 5.20 5.76 1.36 o
-3 8 6 25.96 25.27 1.51 o
-2 8 6 12.78 14.78 1.11 o
-1 8 6 22.10 15.30 1.07 o
0 8 6 184.86 189.04 2.86 o
1 8 6 1.31 1.76 0.70 <
2 8 6 31.37 31.66 1.61 o
3 8 6 24.46 26.65 2.01 o
-3 9 6 51.62 52.28 2.58 o
-2 9 6 20.98 16.30 1.53 o
-1 9 6 23.36 24.85 1.62 o
0 9 6 3.57 3.70 0.97 o
1 9 6 19.03 16.31 1.48 o
2 9 6 3.70 1.74 1.14 <
3 9 6 60.28 73.94 3.33 o
-2 10 6 23.20 23.72 2.00 o
-1 10 6 23.34 26.23 2.01 o
0 10 6 81.01 89.42 3.17 o
1 10 6 3.86 4.57 1.40 o
2 10 6 33.24 38.97 2.69 o
-5 0 7 332.14 326.08 6.60 o
-3 0 7 209.49 214.23 3.36 o
-1 0 7 1354.12 1335.22 12.18 o
1 0 7 0.51 -0.05 0.40 <
3 0 7 965.20 979.38 9.82 o
5 0 7 39.66 39.57 2.70 o
-6 1 7 1.12 2.08 1.17 <
-5 1 7 0.06 -0.34 0.69 <
-4 1 7 172.11 163.04 2.47 o
-3 1 7 23.59 23.65 0.74 o
-2 1 7 110.25 119.39 1.38 o
-1 1 7 6.03 7.22 0.47 o
0 1 7 64.22 81.19 1.18 o
1 1 7 330.06 319.26 2.65 o
2 1 7 0.52 0.81 0.35 <
3 1 7 0.29 -0.04 0.39 <
4 1 7 8.88 8.18 0.87 o
5 1 7 11.67 15.38 1.45 o
-6 2 7 0.61 0.99 1.18 <
-5 2 7 18.99 20.19 1.26 o
-4 2 7 18.29 18.14 0.98 o
-3 2 7 120.99 117.77 1.53 o
-2 2 7 53.44 50.01 0.96 o
-1 2 7 137.01 134.15 1.56 o
0 2 7 8.37 9.21 0.57 o
1 2 7 20.61 17.11 0.68 o
2 2 7 30.00 34.12 0.86 o
3 2 7 0.24 0.64 0.40 <
4 2 7 0.43 0.39 0.60 <
5 2 7 5.43 6.87 1.28 o
-5 3 7 4.00 4.48 0.88 o
-4 3 7 123.78 129.04 2.19 o
-3 3 7 0.69 0.54 0.42 <
-2 3 7 52.17 51.19 1.01 o
-1 3 7 12.60 10.89 0.59 o
0 3 7 671.60 710.80 5.70 o
1 3 7 34.36 33.65 0.89 o
2 3 7 0.79 0.52 0.42 <
3 3 7 17.77 16.01 0.75 o
4 3 7 15.33 16.00 1.01 o
5 3 7 4.59 3.06 1.25 <
-5 4 7 26.92 26.39 1.56 o
-4 4 7 4.45 4.09 0.65 o
-3 4 7 54.04 48.41 1.21 o
-2 4 7 10.79 15.06 0.72 o
-1 4 7 8.82 8.93 0.58 o
0 4 7 292.41 306.94 3.08 o
1 4 7 466.25 452.82 3.92 o
2 4 7 97.23 92.43 1.60 o
3 4 7 62.44 50.39 1.32 o
4 4 7 87.15 90.99 2.14 o
5 4 7 17.73 15.14 1.79 o
-5 5 7 0.27 1.04 1.03 <
-4 5 7 90.11 96.70 2.25 o
-3 5 7 0.00 0.19 0.52 <
-2 5 7 37.34 39.60 1.11 o
-1 5 7 48.05 46.19 1.26 o
0 5 7 22.42 21.28 0.93 o
1 5 7 70.94 58.90 1.53 o
2 5 7 58.59 46.23 1.30 o
3 5 7 19.33 24.38 1.16 o
4 5 7 2.96 1.25 0.94 <
-5 6 7 1.78 1.56 1.23 <
-4 6 7 0.02 1.02 0.79 <
-3 6 7 69.13 66.98 1.81 o
-2 6 7 0.04 0.45 0.53 <
-1 6 7 365.35 355.76 3.85 o
0 6 7 5.18 4.83 0.67 o
1 6 7 29.30 30.77 1.22 o
2 6 7 3.09 3.95 0.70 o
3 6 7 4.95 5.33 0.84 o
4 6 7 3.01 2.86 1.18 <
-4 7 7 0.58 1.11 0.97 <
-3 7 7 0.09 1.02 0.82 <
-2 7 7 9.38 5.57 0.82 o
-1 7 7 2.84 1.82 0.65 <
0 7 7 313.43 310.16 3.80 o
1 7 7 75.03 80.63 1.94 o
2 7 7 3.48 3.80 0.81 o
3 7 7 8.87 9.81 1.16 o
4 7 7 10.38 10.94 1.77 o
-4 8 7 0.57 0.39 1.16 <
-3 8 7 1.13 1.61 1.02 <
-2 8 7 30.87 31.82 1.62 o
-1 8 7 163.92 159.57 2.75 o
0 8 7 2.29 2.26 0.74 o
1 8 7 0.40 1.02 0.75 <
2 8 7 15.12 14.63 1.43 o
3 8 7 0.72 2.79 1.28 <
-3 9 7 4.39 4.97 1.42 o
-2 9 7 9.17 8.43 1.45 o
-1 9 7 49.99 55.92 2.45 o
0 9 7 33.71 35.89 2.04 o
1 9 7 12.78 12.29 1.47 o
2 9 7 65.71 71.71 2.98 o
-2 10 7 4.93 4.92 1.51 o
-1 10 7 48.55 53.48 2.75 o
0 10 7 3.33 4.15 1.38 <
1 10 7 4.13 5.27 1.51 o
-6 0 8 53.28 40.95 3.51 o
-4 0 8 150.63 151.12 3.60 o
-2 0 8 84.75 82.68 1.74 o
0 0 8 122.90 120.49 2.21 o
2 0 8 1209.36 1212.80 11.03 o
4 0 8 4.79 5.23 1.25 o
-6 1 8 0.04 -2.01 1.87 <
-5 1 8 19.97 16.64 1.27 o
-4 1 8 12.25 10.82 0.87 o
-3 1 8 167.55 170.90 1.90 o
-2 1 8 73.09 69.85 1.17 o
-1 1 8 13.80 12.72 0.62 o
0 1 8 9.21 7.75 0.53 o
1 1 8 11.93 12.11 0.62 o
2 1 8 44.42 41.86 1.06 o
3 1 8 417.92 397.78 3.64 o
4 1 8 0.03 0.34 0.72 <
5 1 8 0.74 0.57 1.14 <
-5 2 8 0.01 -0.14 0.79 <
-4 2 8 0.18 0.54 0.62 <
-3 2 8 2.38 2.08 0.47 o
-2 2 8 240.68 243.48 2.42 o
-1 2 8 38.49 30.77 0.88 o
0 2 8 138.90 139.59 1.87 o
1 2 8 8.48 8.84 0.59 o
2 2 8 25.90 23.61 0.83 o
3 2 8 0.43 1.51 0.49 o
4 2 8 25.52 26.65 1.30 o
5 2 8 2.44 2.01 1.30 <
-5 3 8 21.59 22.05 1.51 o
-4 3 8 1.61 1.87 0.64 <
-3 3 8 22.26 18.01 0.83 o
-2 3 8 132.47 127.90 1.72 o
-1 3 8 297.81 320.00 3.02 o
0 3 8 78.78 71.48 1.43 o
1 3 8 232.46 243.69 2.73 o
2 3 8 104.23 95.73 1.56 o
3 3 8 24.22 19.40 0.92 o
4 3 8 0.45 1.28 0.79 <
5 3 8 11.90 15.08 1.94 o
-5 4 8 0.45 0.86 0.96 <
-4 4 8 2.69 2.49 0.70 o
-3 4 8 9.88 9.03 0.74 o
-2 4 8 7.78 8.02 0.63 o
-1 4 8 0.45 0.92 0.44 <
0 4 8 23.41 24.36 0.98 o
1 4 8 4.72 4.26 0.58 o
2 4 8 117.31 96.41 1.81 o
3 4 8 13.27 11.47 0.88 o
4 4 8 0.47 0.39 0.92 <
-5 5 8 26.99 21.80 1.72 o
-4 5 8 2.31 1.82 0.78 <
-3 5 8 9.00 5.23 0.75 o
-2 5 8 2.51 2.40 0.55 o
-1 5 8 4.11 1.74 0.52 o
0 5 8 85.64 81.28 1.70 o
1 5 8 105.08 92.41 1.90 o
2 5 8 1.16 1.51 0.62 <
3 5 8 77.27 67.73 1.79 o
4 5 8 2.44 3.91 1.16 o
-4 6 8 2.14 1.37 0.97 <
-3 6 8 23.46 21.43 1.25 o
-2 6 8 219.76 234.16 3.03 o
-1 6 8 40.33 35.46 1.30 o
0 6 8 2.80 3.72 0.65 o
1 6 8 13.10 12.98 0.96 o
2 6 8 45.50 39.71 1.43 o
3 6 8 12.04 9.62 1.12 o
4 6 8 19.03 19.06 1.96 o
-4 7 8 5.76 5.71 1.23 o
-3 7 8 8.77 9.50 1.18 o
-2 7 8 0.77 0.74 0.73 <
-1 7 8 594.30 621.20 5.99 o
0 7 8 114.38 116.85 2.35 o
1 7 8 8.39 7.90 0.91 o
2 7 8 21.21 20.62 1.35 o
3 7 8 40.43 41.12 2.31 o
-3 8 8 39.17 33.09 2.06 o
-2 8 8 38.69 41.19 1.96 o
-1 8 8 22.80 25.50 1.55 o
0 8 8 2.52 2.44 0.91 <
1 8 8 44.72 50.98 2.19 o
2 8 8 21.93 25.71 1.84 o
3 8 8 8.58 8.14 1.67 o
-2 9 8 3.67 4.53 1.32 o
-1 9 8 24.29 27.45 2.00 o
0 9 8 0.32 1.22 1.18 <
1 9 8 25.67 28.34 2.19 o
2 9 8 26.99 22.94 2.21 o
-1 10 8 7.37 6.69 1.72 o
0 10 8 1.26 2.09 1.35 <
-5 0 9 207.06 196.59 5.32 o
-3 0 9 2.33 2.25 0.64 o
-1 0 9 31.25 33.90 1.38 o
1 0 9 104.23 98.25 2.20 o
3 0 9 37.19 35.12 1.58 o
-5 1 9 2.23 0.50 0.91 <
-4 1 9 0.48 0.06 0.63 <
-3 1 9 48.66 47.92 1.08 o
-2 1 9 1.12 0.05 0.39 <
-1 1 9 51.26 45.13 1.11 o
0 1 9 26.60 26.88 0.89 o
1 1 9 50.35 50.16 1.19 o
2 1 9 447.75 437.60 4.00 o
3 1 9 6.49 6.01 0.73 o
4 1 9 24.64 28.73 1.46 o
-5 2 9 0.00 0.72 0.96 <
-4 2 9 1.32 1.74 0.73 <
-3 2 9 120.77 118.53 1.72 o
-2 2 9 0.51 1.47 0.44 o
-1 2 9 577.35 601.30 4.86 o
0 2 9 8.82 7.23 0.59 o
1 2 9 166.97 157.20 2.11 o
2 2 9 26.60 28.51 1.02 o
3 2 9 161.42 169.93 2.47 o
4 2 9 8.61 7.42 1.04 o
-5 3 9 0.47 1.06 0.99 <
-4 3 9 18.19 22.13 1.16 o
-3 3 9 0.66 0.40 0.52 <
-2 3 9 94.34 92.11 1.55 o
-1 3 9 0.10 0.86 0.45 <
0 3 9 549.42 537.19 5.08 o
1 3 9 36.16 30.23 1.09 o
2 3 9 8.48 7.53 0.70 o
3 3 9 11.37 10.63 0.88 o
4 3 9 95.44 93.76 2.48 o
-5 4 9 17.28 18.55 1.67 o
-4 4 9 46.69 49.62 1.69 o
-3 4 9 12.44 11.27 0.84 o
-2 4 9 104.42 106.69 1.81 o
-1 4 9 16.10 20.26 0.96 o
0 4 9 86.48 86.27 1.81 o
1 4 9 4.17 1.79 0.55 o
2 4 9 53.85 61.32 1.62 o
3 4 9 21.83 17.97 1.12 o
4 4 9 0.28 -0.10 0.99 <
-5 5 9 0.01 -0.33 1.22 <
-4 5 9 17.83 18.63 1.35 o
-3 5 9 3.50 2.59 0.70 o
-2 5 9 6.76 5.81 0.70 o
-1 5 9 1.93 2.10 0.62 o
0 5 9 0.27 0.44 0.53 <
1 5 9 0.37 0.10 0.58 <
2 5 9 32.63 21.77 1.19 o
3 5 9 7.95 6.97 1.07 o
4 5 9 3.12 3.51 1.45 <
-4 6 9 0.96 0.79 1.06 <
-3 6 9 14.55 11.51 1.08 o
-2 6 9 1.59 1.26 0.70 <
-1 6 9 105.54 103.56 2.04 o
0 6 9 15.85 15.52 0.99 o
1 6 9 36.41 31.51 1.41 o
2 6 9 0.18 0.83 0.81 <
3 6 9 0.36 1.37 1.09 <
-4 7 9 0.29 -0.93 1.19 <
-3 7 9 1.19 1.67 0.98 <
-2 7 9 507.28 523.02 5.91 o
-1 7 9 47.82 52.25 1.67 o
0 7 9 4.67 4.16 0.88 o
1 7 9 0.65 -0.55 0.83 <
2 7 9 150.42 163.30 3.67 o
3 7 9 0.03 1.04 1.32 <
-3 8 9 4.87 1.66 1.25 <
-2 8 9 5.86 4.98 1.19 o
-1 8 9 19.96 17.43 1.52 o
0 8 9 5.04 3.14 1.17 <
1 8 9 49.62 55.02 2.53 o
2 8 9 4.16 2.23 1.33 <
-2 9 9 21.19 18.48 1.90 o
-1 9 9 24.92 32.04 2.30 o
0 9 9 13.87 12.62 1.67 o
1 9 9 32.73 36.07 2.49 o
-4 0 10 55.29 58.41 2.65 o
-2 0 10 43.14 47.07 1.79 o
0 0 10 2.84 2.05 0.73 <
2 0 10 341.97 343.90 4.87 o
4 0 10 45.11 46.93 3.47 o
-5 1 10 15.13 13.14 1.47 o
-4 1 10 0.90 1.27 0.79 <
-3 1 10 23.25 23.27 0.96 o
-2 1 10 10.61 7.99 0.68 o
-1 1 10 39.58 42.26 1.21 o
0 1 10 67.49 64.66 1.48 o
1 1 10 948.71 940.15 7.48 o
2 1 10 4.62 2.26 0.60 o
3 1 10 1.26 1.43 0.72 <
4 1 10 25.36 26.52 1.81 o
-5 2 10 5.45 7.25 1.33 o
-4 2 10 11.90 12.40 1.17 o
-3 2 10 3.77 2.86 0.57 o
-2 2 10 228.25 231.64 2.64 o
-1 2 10 3.21 3.26 0.57 o
0 2 10 3.26 1.42 0.53 <
1 2 10 15.51 12.79 0.83 o
2 2 10 31.11 32.89 1.19 o
3 2 10 0.01 -0.28 0.69 <
4 2 10 25.01 27.51 1.82 o
-5 3 10 0.72 1.50 1.17 <
-4 3 10 9.57 9.96 1.11 o
-3 3 10 64.44 58.93 1.45 o
-2 3 10 26.26 23.08 1.02 o
-1 3 10 111.44 106.68 1.94 o
0 3 10 1.84 0.97 0.53 <
1 3 10 68.94 65.32 1.62 o
2 3 10 1.97 1.02 0.60 <
3 3 10 54.13 50.23 1.66 o
4 3 10 0.19 0.00 1.22 <
-5 4 10 0.03 -0.68 1.26 <
-4 4 10 2.03 0.72 0.82 <
-3 4 10 6.26 5.38 0.77 o
-2 4 10 132.87 133.86 2.20 o
-1 4 10 0.54 0.68 0.57 <
0 4 10 0.17 0.24 0.55 <
1 4 10 4.33 4.53 0.69 o
2 4 10 135.37 125.34 2.23 o
3 4 10 2.63 2.80 0.94 <
4 4 10 5.07 4.03 1.50 <
-4 5 10 2.70 3.28 1.04 o
-3 5 10 32.68 33.99 1.50 o
-2 5 10 11.58 8.35 0.87 o
-1 5 10 0.84 1.37 0.63 <
0 5 10 0.84 0.99 0.63 <
1 5 10 49.30 35.72 1.48 o
2 5 10 68.13 69.41 2.06 o
3 5 10 1.25 -0.06 1.07 <
-4 6 10 2.03 1.09 1.22 <
-3 6 10 0.61 0.98 0.96 <
-2 6 10 56.05 54.10 1.81 o
-1 6 10 35.40 36.89 1.43 o
0 6 10 229.05 249.24 3.35 o
1 6 10 6.09 5.57 0.99 o
2 6 10 6.80 6.09 1.23 o
3 6 10 28.03 26.01 2.29 o
-3 7 10 181.45 184.32 4.29 o
-2 7 10 6.36 6.21 1.14 o
-1 7 10 1.12 0.63 0.89 <
0 7 10 3.43 4.88 1.09 o
1 7 10 34.93 29.95 2.00 o
2 7 10 0.08 0.50 1.13 <
-2 8 10 54.87 54.48 2.49 o
-1 8 10 0.69 -0.33 1.23 <
0 8 10 33.32 40.94 2.40 o
1 8 10 2.84 3.12 1.36 <
2 8 10 0.37 6.68 3.91 <
-1 9 10 2.92 3.08 1.47 <
0 9 10 0.00 0.05 1.35 <
-5 0 11 3.17 6.44 2.04 o
-3 0 11 18.42 19.63 1.52 o
-1 0 11 8.10 6.89 1.01 o
1 0 11 859.24 869.51 9.72 o
3 0 11 11.24 11.52 1.74 o
-5 1 11 2.05 0.74 1.23 <
-4 1 11 4.38 4.19 1.04 o
-3 1 11 9.49 7.74 0.83 o
-2 1 11 27.25 25.19 1.09 o
-1 1 11 27.12 23.74 1.08 o
0 1 11 153.74 161.29 2.43 o
1 1 11 33.76 33.73 1.27 o
2 1 11 14.39 15.03 0.97 o
3 1 11 6.48 5.43 1.02 o
4 1 11 7.95 6.21 1.52 o
-5 2 11 11.83 11.19 1.67 o
-4 2 11 8.41 8.25 1.25 o
-3 2 11 240.65 240.37 3.25 o
-2 2 11 3.22 2.35 0.62 o
-1 2 11 29.42 27.45 1.16 o
0 2 11 14.42 8.88 0.81 o
1 2 11 47.17 49.51 1.46 o
2 2 11 7.02 4.65 0.74 o
3 2 11 15.69 19.60 1.43 o
4 2 11 17.70 18.20 2.03 o
-4 3 11 1.28 0.11 0.83 <
-3 3 11 0.81 0.89 0.68 <
-2 3 11 30.91 26.16 1.17 o
-1 3 11 5.07 2.74 0.65 o
0 3 11 5.96 4.73 0.70 o
1 3 11 5.18 5.40 0.75 o
2 3 11 16.47 18.53 1.11 o
3 3 11 0.83 0.39 0.97 <
-4 4 11 4.32 3.86 1.12 o
-3 4 11 37.28 38.02 1.52 o
-2 4 11 1.51 0.39 0.64 <
-1 4 11 48.45 44.29 1.47 o
0 4 11 32.63 28.83 1.31 o
1 4 11 98.61 89.31 2.01 o
2 4 11 12.16 11.99 1.13 o
3 4 11 48.57 51.80 2.36 o
-4 5 11 8.79 8.88 1.36 o
-3 5 11 29.35 31.84 1.57 o
-2 5 11 2.87 2.47 0.82 o
-1 5 11 0.45 0.69 0.70 <
0 5 11 53.73 46.94 1.65 o
1 5 11 126.35 125.66 3.08 o
2 5 11 21.19 16.36 1.55 o
3 5 11 0.49 0.72 1.36 <
-3 6 11 157.88 155.17 3.65 o
-2 6 11 14.38 13.02 1.27 o
-1 6 11 27.58 28.33 1.62 o
0 6 11 3.29 3.35 1.03 o
1 6 11 11.03 16.44 1.75 o
2 6 11 18.92 23.29 2.00 o
-3 7 11 0.15 0.33 1.23 <
-2 7 11 70.83 75.42 2.79 o
-1 7 11 3.10 2.35 1.16 <
0 7 11 30.86 38.62 2.26 o
1 7 11 4.18 3.11 1.33 <
2 7 11 2.76 4.06 1.56 <
-2 8 11 16.90 20.09 2.16 o
-1 8 11 24.12 19.47 2.09 o
0 8 11 2.03 0.99 1.36 <
1 8 11 1.06 1.96 3.55 <
-4 0 12 27.60 33.35 2.98 o
-2 0 12 18.35 17.22 1.50 o
0 0 12 1137.08 1126.11 12.91 o
2 0 12 0.10 1.13 1.14 <
-4 1 12 1.15 0.92 1.13 <
-3 1 12 1.17 0.52 0.77 <
-2 1 12 79.13 79.90 1.91 o
-1 1 12 42.27 40.60 1.43 o
0 1 12 5.56 3.25 0.74 o
1 1 12 0.36 1.06 0.68 <
2 1 12 84.22 91.76 2.19 o
3 1 12 82.14 82.31 2.79 o
-4 2 12 46.67 44.12 2.24 o
-3 2 12 21.36 19.36 1.25 o
-2 2 12 0.07 -0.31 0.63 <
-1 2 12 0.62 0.75 0.64 <
0 2 12 0.04 -0.15 0.63 <
1 2 12 4.32 5.62 0.83 o
2 2 12 0.70 0.60 0.84 <
3 2 12 9.89 7.13 1.41 o
-4 3 12 2.25 1.53 1.11 <
-3 3 12 10.65 8.91 1.04 o
-2 3 12 4.36 4.30 0.79 o
-1 3 12 1.68 2.30 0.73 o
0 3 12 1.24 0.72 0.69 <
1 3 12 6.89 7.11 0.91 o
2 3 12 0.55 0.59 0.92 <
3 3 12 26.46 33.27 2.30 o
-4 4 12 11.92 9.22 1.45 o
-3 4 12 7.96 7.47 1.07 o
-2 4 12 25.28 24.44 1.38 o
-1 4 12 1.56 2.06 0.79 <
0 4 12 49.25 45.63 1.74 o
1 4 12 35.86 39.94 1.82 o
2 4 12 97.81 99.10 3.14 o
3 4 12 4.35 5.21 1.67 o
-3 5 12 0.79 0.77 1.07 <
-2 5 12 1.21 0.94 0.93 <
-1 5 12 82.73 89.77 2.53 o
0 5 12 88.51 94.26 3.01 o
1 5 12 66.51 68.11 2.70 o
2 5 12 0.05 -0.23 1.28 <
-3 6 12 17.27 15.89 1.90 o
-2 6 12 14.51 16.40 1.70 o
-1 6 12 30.25 32.16 1.99 o
0 6 12 3.66 5.19 1.32 o
1 6 12 24.27 24.75 2.05 o
2 6 12 2.88 4.40 1.60 <
-2 7 12 1.71 2.84 1.43 <
-1 7 12 0.36 1.25 1.27 <
0 7 12 4.42 4.30 1.37 o
1 7 12 3.57 5.28 1.57 o
-3 0 13 0.03 0.81 1.23 <
-1 0 13 482.01 504.38 7.31 o
1 0 13 10.54 9.19 1.48 o
3 0 13 34.87 39.13 3.82 o
-4 1 13 12.69 9.11 1.70 o
-3 1 13 0.37 0.81 0.93 <
-2 1 13 0.06 -0.04 0.75 <
-1 1 13 5.26 4.65 0.87 o
0 1 13 35.93 35.87 1.58 o
1 1 13 11.96 11.97 1.17 o
2 1 13 60.88 61.37 2.29 o
3 1 13 2.63 1.92 1.45 <
-4 2 13 4.95 3.69 1.48 <
-3 2 13 0.30 1.28 0.92 <
-2 2 13 0.12 0.72 0.82 <
-1 2 13 22.07 19.23 1.26 o
0 2 13 16.12 14.30 1.27 o
1 2 13 9.61 6.91 1.13 o
2 2 13 1.43 2.79 1.18 <
-3 3 13 0.45 1.19 0.97 <
-2 3 13 4.23 4.48 0.99 o
-1 3 13 23.78 22.29 1.45 o
0 3 13 108.58 104.68 2.77 o
1 3 13 5.64 4.98 1.12 o
2 3 13 14.27 18.20 1.81 o
-3 4 13 10.56 9.48 1.45 o
-2 4 13 7.74 8.98 1.31 o
-1 4 13 13.57 9.99 1.28 o
0 4 13 8.04 7.66 1.38 o
1 4 13 30.05 33.01 1.91 o
2 4 13 0.31 0.88 1.28 <
-3 5 13 0.16 1.11 1.33 <
-2 5 13 13.15 10.19 1.48 o
-1 5 13 12.24 9.43 1.48 o
0 5 13 53.40 44.50 2.55 o
1 5 13 5.09 5.65 1.36 o
-2 6 13 5.38 5.43 1.61 o
-1 6 13 0.01 1.26 1.32 <
0 6 13 0.15 0.10 1.26 <
1 6 13 0.85 1.14 1.48 <
-2 0 14 240.71 242.12 6.23 o
0 0 14 65.99 67.94 3.74 o
2 0 14 0.52 0.59 1.62 <
-3 1 14 3.61 2.89 1.25 <
-2 1 14 0.77 -0.50 0.97 <
-1 1 14 50.45 45.81 2.13 o
0 1 14 0.31 0.23 1.03 <
1 1 14 80.11 86.11 2.78 o
2 1 14 2.89 3.84 1.36 <
-3 2 14 9.23 11.30 1.55 o
-2 2 14 1.41 1.40 1.11 <
-1 2 14 0.12 0.62 1.08 <
0 2 14 5.37 7.97 1.35 o
1 2 14 7.68 9.32 1.35 o
2 2 14 70.52 81.19 3.27 o
-3 3 14 3.71 1.96 1.33 <
-2 3 14 0.49 -0.05 1.09 <
-1 3 14 37.85 41.56 2.30 o
0 3 14 0.68 1.01 1.18 <
1 3 14 15.28 14.93 1.57 o
-2 4 14 0.59 -0.45 1.23 <
-1 4 14 21.60 23.89 1.95 o
0 4 14 2.62 3.84 1.32 <
1 4 14 2.38 2.52 1.27 <
-1 5 14 52.68 51.43 2.84 o
0 5 14 0.00 -0.04 1.30 <
-1 0 15 103.46 107.96 4.73 o
1 0 15 11.27 8.33 2.04 o
-2 1 15 107.44 105.88 3.71 o
-1 1 15 0.49 0.58 1.18 <
0 1 15 2.80 5.25 1.35 o
1 1 15 12.19 11.69 1.55 o
-2 2 15 7.67 6.72 1.61 o
-1 2 15 3.45 4.08 1.37 <
0 2 15 0.54 1.85 1.28 <
1 2 15 58.87 62.17 3.04 o
-1 3 15 12.23 14.16 1.85 o
0 3 15 25.49 27.71 2.13 o
