#------------------------------------------------------------------------------
#$Date: 2016-03-26 18:26:27 +0200 (Sat, 26 Mar 2016) $
#$Revision: 180429 $
#$URL: svn://www.crystallography.net/cod/cif/7/20/98/7209870.cif $
#------------------------------------------------------------------------------
#
# This file is available in the Crystallography Open Database (COD),
# http://www.crystallography.net/
#
# All data on this site have been placed in the public domain by the
# contributors.
#
data_7209870
loop_
_publ_author_name
'Ramana, C. V.'
'Goriya, Yogesh'
'Durugkar, Kulbhushan A.'
'Chatterjee, Soumitra'
'Krishnaswamy, Shobhana'
'Gonnade, Rajesh G.'
_publ_section_title
;
 Evaluation of viability of halogen&#x22EF;O2N interactions: Insight from
 crystal packing in a series of isomeric halo and nitro substituted
 triaryl compounds with modular positioning of halogen and NO2 groups
;
_journal_issue                   26
_journal_name_full               CrystEngComm
_journal_page_first              5283
_journal_paper_doi               10.1039/c3ce40192h
_journal_volume                  15
_journal_year                    2013
_chemical_formula_moiety         'C14 H9 Cl N4 O2'
_chemical_formula_sum            'C14 H9 Cl N4 O2'
_chemical_formula_weight         300.70
_chemical_melting_point          215.0(10)
_chemical_name_systematic
;
? 4-(4-Chlorophenyl)-1-(2-nitrophenyl)-1H-1,2,3-triazole
;
_space_group_IT_number           2
_symmetry_cell_setting           triclinic
_symmetry_space_group_name_Hall  '-P 1'
_symmetry_space_group_name_H-M   'P -1'
_atom_sites_solution_hydrogens   geom
_atom_sites_solution_primary     direct
_atom_sites_solution_secondary   difmap
_audit_creation_method           SHELXL-97
_cell_angle_alpha                94.793(8)
_cell_angle_beta                 96.114(8)
_cell_angle_gamma                107.261(8)
_cell_formula_units_Z            2
_cell_length_a                   7.013(4)
_cell_length_b                   7.312(4)
_cell_length_c                   13.309(7)
_cell_measurement_reflns_used    2487
_cell_measurement_temperature    297(2)
_cell_measurement_theta_max      26.50
_cell_measurement_theta_min      2.94
_cell_volume                     643.2(6)
_computing_cell_refinement       'SAINT (Bruker, 2003)'
_computing_data_collection       'SMART (Bruker, 2003)'
_computing_data_reduction        'SAINT (Bruker, 2003)'
_computing_molecular_graphics    'ORTEP-3 (Farrugia, 1997)'
_computing_publication_material  'SHELXTL (Bruker, 2003)'
_computing_structure_refinement  'SHELXL97 (Sheldrick, 1997)'
_computing_structure_solution    'SHELXS97 (Sheldrick, 1997)'
_diffrn_ambient_temperature      297(2)
_diffrn_measured_fraction_theta_full 0.990
_diffrn_measured_fraction_theta_max 0.990
_diffrn_measurement_device_type  'Bruker Smart APEX'
_diffrn_measurement_method       'Phi and Omega Scan'
_diffrn_radiation_monochromator  graphite
_diffrn_radiation_source         'fine-focus sealed tube'
_diffrn_radiation_type           MoK\a
_diffrn_radiation_wavelength     0.71073
_diffrn_reflns_av_R_equivalents  0.0496
_diffrn_reflns_av_sigmaI/netI    0.0520
_diffrn_reflns_limit_h_max       8
_diffrn_reflns_limit_h_min       -8
_diffrn_reflns_limit_k_max       8
_diffrn_reflns_limit_k_min       -8
_diffrn_reflns_limit_l_max       15
_diffrn_reflns_limit_l_min       -15
_diffrn_reflns_number            5920
_diffrn_reflns_theta_full        24.99
_diffrn_reflns_theta_max         24.99
_diffrn_reflns_theta_min         1.55
_exptl_absorpt_coefficient_mu    0.307
_exptl_absorpt_correction_T_max  0.9788
_exptl_absorpt_correction_T_min  0.9299
_exptl_absorpt_correction_type   multi-scan
_exptl_absorpt_process_details   'bruker sadabs'
_exptl_crystal_colour            yellow
_exptl_crystal_density_diffrn    1.553
_exptl_crystal_density_method    'not measured'
_exptl_crystal_description       plate
_exptl_crystal_F_000             308
_exptl_crystal_size_max          0.24
_exptl_crystal_size_mid          0.14
_exptl_crystal_size_min          0.07
_refine_diff_density_max         0.221
_refine_diff_density_min         -0.262
_refine_diff_density_rms         0.061
_refine_ls_extinction_method     none
_refine_ls_goodness_of_fit_ref   1.070
_refine_ls_hydrogen_treatment    mixed
_refine_ls_matrix_type           full
_refine_ls_number_parameters     226
_refine_ls_number_reflns         2244
_refine_ls_number_restraints     1
_refine_ls_restrained_S_all      1.071
_refine_ls_R_factor_all          0.0634
_refine_ls_R_factor_gt           0.0527
_refine_ls_shift/su_max          0.000
_refine_ls_shift/su_mean         0.000
_refine_ls_structure_factor_coef Fsqd
_refine_ls_weighting_details
'calc w=1/[\s^2^(Fo^2^)+(0.0822P)^2^+0.1040P] where P=(Fo^2^+2Fc^2^)/3'
_refine_ls_weighting_scheme      calc
_refine_ls_wR_factor_gt          0.1434
_refine_ls_wR_factor_ref         0.1507
_reflns_number_gt                1792
_reflns_number_total             2244
_reflns_threshold_expression     >2sigma(I)
_cod_data_source_file            c3ce40192h.txt
_cod_data_source_block           4N2Cl
_cod_depositor_comments
;
The following automatic conversions were performed:

'_chemical_melting_point' value '214-216' was changed to '215.0(10)'
- the average value was taken and precision was estimated.

Automatic conversion script
Id: cif_fix_values 1891 2012-01-12 08:04:46Z andrius 

The following automatic conversions were performed:

'_symmetry_cell_setting' tag value 'Triclinic'' was replaced with
'triclinic' value as specified in the replacement file
'/home/robertas/cod-tools/perl-scripts/inputs/replacement_values.lst'.

Automatic conversion script
Id: cif_fix_values 3143 2015-03-26 13:38:13Z robertas 
;
_cod_original_sg_symbol_H-M      P-1
_cod_database_code               7209870
loop_
_symmetry_equiv_pos_as_xyz
'x, y, z'
'-x, -y, -z'
loop_
_atom_site_label
_atom_site_type_symbol
_atom_site_fract_x
_atom_site_fract_y
_atom_site_fract_z
_atom_site_U_iso_or_equiv
_atom_site_adp_type
_atom_site_occupancy
_atom_site_symmetry_multiplicity
_atom_site_calc_flag
_atom_site_refinement_flags
Cl1 Cl 0.12146(13) 0.16349(10) -0.07822(5) 0.0615(3) Uani 1 1 d .
O1 O 0.2370(4) 0.0289(3) 0.64946(16) 0.0727(7) Uani 1 1 d .
O2 O 0.2463(4) -0.2088(3) 0.54540(16) 0.0690(6) Uani 1 1 d .
N1 N 0.2807(3) 0.4106(3) 0.24229(15) 0.0414(5) Uani 1 1 d .
N2 N 0.3328(4) 0.6053(3) 0.25987(17) 0.0551(6) Uani 1 1 d .
N3 N 0.3288(4) 0.6680(3) 0.17063(17) 0.0537(6) Uani 1 1 d .
N4 N 0.2457(3) -0.0427(4) 0.56473(17) 0.0512(6) Uani 1 1 d .
C1 C 0.2442(4) 0.3516(4) 0.14116(19) 0.0441(6) Uani 1 1 d D
C2 C 0.2755(4) 0.5167(4) 0.09570(19) 0.0396(6) Uani 1 1 d .
C3 C 0.2616(4) 0.5504(3) -0.01239(18) 0.0386(6) Uani 1 1 d .
C4 C 0.3172(4) 0.7409(4) -0.0358(2) 0.0483(7) Uani 1 1 d .
C5 C 0.3095(5) 0.7815(5) -0.1351(2) 0.0557(8) Uani 1 1 d .
C6 C 0.2442(5) 0.6349(5) -0.2143(2) 0.0565(8) Uani 1 1 d .
C7 C 0.1890(4) 0.4470(5) -0.1946(2) 0.0500(7) Uani 1 1 d .
C8 C 0.1966(4) 0.4061(4) -0.09464(19) 0.0423(6) Uani 1 1 d .
C9 C 0.2722(4) 0.2953(4) 0.32387(18) 0.0405(6) Uani 1 1 d .
C10 C 0.2731(4) 0.1069(4) 0.3056(2) 0.0481(7) Uani 1 1 d .
C11 C 0.2627(4) -0.0044(4) 0.3842(2) 0.0491(7) Uani 1 1 d .
C12 C 0.2559(4) 0.0780(4) 0.48100(19) 0.0430(6) Uani 1 1 d .
C13 C 0.2577(4) 0.2646(4) 0.5001(2) 0.0508(7) Uani 1 1 d .
C14 C 0.2650(4) 0.3764(4) 0.4211(2) 0.0494(7) Uani 1 1 d .
H1 H 0.202(5) 0.220(3) 0.115(2) 0.075(10) Uiso 1 1 d D
H4 H 0.354(4) 0.843(4) 0.022(2) 0.056(8) Uiso 1 1 d .
H5 H 0.349(4) 0.910(4) -0.145(2) 0.055(8) Uiso 1 1 d .
H6 H 0.234(5) 0.655(4) -0.285(3) 0.069(9) Uiso 1 1 d .
H7 H 0.148(5) 0.346(5) -0.243(3) 0.071(10) Uiso 1 1 d .
H10 H 0.280(4) 0.052(4) 0.241(2) 0.046(7) Uiso 1 1 d .
H11 H 0.267(4) -0.127(4) 0.376(2) 0.044(7) Uiso 1 1 d .
H13 H 0.260(4) 0.327(4) 0.571(2) 0.060(8) Uiso 1 1 d .
H14 H 0.267(4) 0.504(4) 0.435(2) 0.056(8) Uiso 1 1 d .
loop_
_atom_site_aniso_label
_atom_site_aniso_U_11
_atom_site_aniso_U_22
_atom_site_aniso_U_33
_atom_site_aniso_U_23
_atom_site_aniso_U_13
_atom_site_aniso_U_12
Cl1 0.0957(6) 0.0397(4) 0.0429(4) 0.0061(3) 0.0072(4) 0.0119(4)
O1 0.1055(18) 0.0808(16) 0.0373(12) 0.0174(11) 0.0195(11) 0.0310(13)
O2 0.1031(18) 0.0608(14) 0.0549(13) 0.0230(11) 0.0190(12) 0.0359(13)
N1 0.0508(12) 0.0405(12) 0.0328(11) 0.0061(9) 0.0071(9) 0.0130(10)
N2 0.0837(17) 0.0438(13) 0.0374(13) 0.0053(10) 0.0097(12) 0.0183(12)
N3 0.0777(17) 0.0434(13) 0.0405(13) 0.0080(10) 0.0109(12) 0.0176(12)
N4 0.0527(14) 0.0623(16) 0.0387(14) 0.0158(11) 0.0082(10) 0.0148(12)
C1 0.0578(16) 0.0395(15) 0.0334(14) 0.0048(11) 0.0064(12) 0.0126(13)
C2 0.0398(13) 0.0416(14) 0.0386(14) 0.0080(11) 0.0096(11) 0.0119(11)
C3 0.0432(14) 0.0391(14) 0.0356(14) 0.0087(11) 0.0097(11) 0.0134(11)
C4 0.0581(17) 0.0442(16) 0.0466(16) 0.0117(13) 0.0140(13) 0.0177(13)
C5 0.0688(19) 0.0483(17) 0.0592(19) 0.0250(15) 0.0202(15) 0.0233(15)
C6 0.0674(19) 0.067(2) 0.0450(18) 0.0245(15) 0.0164(14) 0.0276(15)
C7 0.0616(18) 0.0546(18) 0.0348(15) 0.0059(13) 0.0085(13) 0.0190(14)
C8 0.0471(14) 0.0431(15) 0.0394(14) 0.0096(11) 0.0108(11) 0.0152(12)
C9 0.0411(14) 0.0440(14) 0.0345(14) 0.0087(11) 0.0062(10) 0.0089(11)
C10 0.0675(18) 0.0474(16) 0.0311(14) 0.0033(12) 0.0103(12) 0.0197(13)
C11 0.0630(18) 0.0457(16) 0.0404(15) 0.0095(12) 0.0084(13) 0.0177(14)
C12 0.0428(14) 0.0484(15) 0.0364(14) 0.0117(12) 0.0061(11) 0.0099(12)
C13 0.0650(18) 0.0553(18) 0.0307(14) 0.0042(12) 0.0112(12) 0.0149(14)
C14 0.0667(18) 0.0434(16) 0.0381(15) 0.0033(12) 0.0112(13) 0.0162(14)
loop_
_atom_type_symbol
_atom_type_description
_atom_type_scat_dispersion_real
_atom_type_scat_dispersion_imag
_atom_type_scat_source
C C 0.0033 0.0016 'International Tables Vol C Tables 4.2.6.8 and 6.1.1.4'
H H 0.0000 0.0000 'International Tables Vol C Tables 4.2.6.8 and 6.1.1.4'
N N 0.0061 0.0033 'International Tables Vol C Tables 4.2.6.8 and 6.1.1.4'
O O 0.0106 0.0060 'International Tables Vol C Tables 4.2.6.8 and 6.1.1.4'
Cl Cl 0.1484 0.1585 'International Tables Vol C Tables 4.2.6.8 and 6.1.1.4'
loop_
_geom_angle_atom_site_label_1
_geom_angle_atom_site_label_2
_geom_angle_atom_site_label_3
_geom_angle
C1 N1 N2 110.5(2)
C1 N1 C9 128.1(2)
N2 N1 C9 121.4(2)
N3 N2 N1 106.6(2)
N2 N3 C2 110.0(2)
O1 N4 O2 123.7(2)
O1 N4 C12 118.1(2)
O2 N4 C12 118.3(2)
N1 C1 C2 105.3(2)
N1 C1 H1 122(2)
C2 C1 H1 132(2)
N3 C2 C1 107.7(2)
N3 C2 C3 120.3(2)
C1 C2 C3 132.0(2)
C8 C3 C4 116.4(2)
C8 C3 C2 124.9(2)
C4 C3 C2 118.7(2)
C5 C4 C3 121.4(3)
C5 C4 H4 122.2(17)
C3 C4 H4 116.3(17)
C6 C5 C4 120.5(3)
C6 C5 H5 122.4(18)
C4 C5 H5 117.1(18)
C7 C6 C5 119.9(3)
C7 C6 H6 116.0(19)
C5 C6 H6 124.2(19)
C6 C7 C8 119.6(3)
C6 C7 H7 124(2)
C8 C7 H7 117(2)
C7 C8 C3 122.2(3)
C7 C8 Cl1 115.9(2)
C3 C8 Cl1 121.87(19)
C10 C9 C14 121.2(2)
C10 C9 N1 119.9(2)
C14 C9 N1 118.9(2)
C11 C10 C9 119.7(3)
C11 C10 H10 118.1(17)
C9 C10 H10 122.2(17)
C10 C11 C12 118.6(3)
C10 C11 H11 122.6(17)
C12 C11 H11 118.7(17)
C13 C12 C11 122.1(2)
C13 C12 N4 119.8(2)
C11 C12 N4 118.1(2)
C12 C13 C14 119.5(3)
C12 C13 H13 122.3(16)
C14 C13 H13 118.1(16)
C13 C14 C9 118.8(3)
C13 C14 H14 118.8(18)
C9 C14 H14 122.3(18)
loop_
_geom_bond_atom_site_label_1
_geom_bond_atom_site_label_2
_geom_bond_distance
Cl1 C8 1.734(3)
O1 N4 1.218(3)
O2 N4 1.222(3)
N1 C1 1.352(3)
N1 N2 1.353(3)
N1 C9 1.425(3)
N2 N3 1.309(3)
N3 C2 1.360(3)
N4 C12 1.473(3)
C1 C2 1.365(3)
C1 H1 0.941(18)
C2 C3 1.478(3)
C3 C8 1.391(4)
C3 C4 1.402(4)
C4 C5 1.377(4)
C4 H4 0.99(3)
C5 C6 1.374(4)
C5 H5 0.92(3)
C6 C7 1.368(4)
C6 H6 0.97(3)
C7 C8 1.387(4)
C7 H7 0.89(3)
C9 C10 1.381(4)
C9 C14 1.389(4)
C10 C11 1.373(4)
C10 H10 0.93(3)
C11 C12 1.388(4)
C11 H11 0.91(3)
C12 C13 1.362(4)
C13 C14 1.381(4)
C13 H13 1.01(3)
C14 H14 0.93(3)
loop_
_geom_hbond_atom_site_label_D
_geom_hbond_atom_site_label_H
_geom_hbond_atom_site_label_A
_geom_hbond_distance_DH
_geom_hbond_distance_HA
_geom_hbond_distance_DA
_geom_hbond_angle_DHA
_geom_hbond_site_symmetry_A
C6 H6 O2 0.97(3) 2.54(3) 3.486(4) 166(3) 1_564
C14 H14 O2 0.93(3) 2.51(3) 3.377(4) 155(2) 1_565
C5 H5 Cl1 0.92(3) 2.93(3) 3.487(3) 120(2) 1_565
C11 H11 N2 0.91(3) 2.57(3) 3.367(4) 147(2) 1_545
loop_
_geom_torsion_atom_site_label_1
_geom_torsion_atom_site_label_2
_geom_torsion_atom_site_label_3
_geom_torsion_atom_site_label_4
_geom_torsion
C1 N1 N2 N3 0.1(3)
C9 N1 N2 N3 179.2(2)
N1 N2 N3 C2 -0.2(3)
N2 N1 C1 C2 0.0(3)
C9 N1 C1 C2 -179.0(2)
N2 N3 C2 C1 0.2(3)
N2 N3 C2 C3 -179.6(2)
N1 C1 C2 N3 -0.1(3)
N1 C1 C2 C3 179.7(2)
N3 C2 C3 C8 -175.8(2)
C1 C2 C3 C8 4.4(5)
N3 C2 C3 C4 4.2(4)
C1 C2 C3 C4 -175.6(3)
C8 C3 C4 C5 -0.7(4)
C2 C3 C4 C5 179.3(3)
C3 C4 C5 C6 0.8(5)
C4 C5 C6 C7 -0.9(5)
C5 C6 C7 C8 0.9(4)
C6 C7 C8 C3 -0.8(4)
C6 C7 C8 Cl1 179.5(2)
C4 C3 C8 C7 0.7(4)
C2 C3 C8 C7 -179.3(2)
C4 C3 C8 Cl1 -179.64(19)
C2 C3 C8 Cl1 0.4(4)
C1 N1 C9 C10 16.6(4)
N2 N1 C9 C10 -162.4(2)
C1 N1 C9 C14 -164.0(3)
N2 N1 C9 C14 17.0(4)
C14 C9 C10 C11 1.3(4)
N1 C9 C10 C11 -179.3(2)
C9 C10 C11 C12 -1.4(4)
C10 C11 C12 C13 0.5(4)
C10 C11 C12 N4 -179.8(3)
O1 N4 C12 C13 0.7(4)
O2 N4 C12 C13 -179.3(2)
O1 N4 C12 C11 -179.0(2)
O2 N4 C12 C11 1.0(4)
C11 C12 C13 C14 0.5(4)
N4 C12 C13 C14 -179.3(2)
C12 C13 C14 C9 -0.6(4)
C10 C9 C14 C13 -0.3(4)
N1 C9 C14 C13 -179.7(2)
