#------------------------------------------------------------------------------
#$Date: 2016-03-26 18:26:27 +0200 (Sat, 26 Mar 2016) $
#$Revision: 180429 $
#$URL: svn://www.crystallography.net/cod/cif/7/20/98/7209873.cif $
#------------------------------------------------------------------------------
#
# This file is available in the Crystallography Open Database (COD),
# http://www.crystallography.net/
#
# All data on this site have been placed in the public domain by the
# contributors.
#
data_7209873
loop_
_publ_author_name
'Ramana, C. V.'
'Goriya, Yogesh'
'Durugkar, Kulbhushan A.'
'Chatterjee, Soumitra'
'Krishnaswamy, Shobhana'
'Gonnade, Rajesh G.'
_publ_section_title
;
 Evaluation of viability of halogen&#x22EF;O2N interactions: Insight from
 crystal packing in a series of isomeric halo and nitro substituted
 triaryl compounds with modular positioning of halogen and NO2 groups
;
_journal_issue                   26
_journal_name_full               CrystEngComm
_journal_page_first              5283
_journal_paper_doi               10.1039/c3ce40192h
_journal_volume                  15
_journal_year                    2013
_chemical_formula_moiety         'C14 H9 I N4 O2'
_chemical_formula_sum            'C14 H9 I N4 O2'
_chemical_formula_weight         392.15
_chemical_name_systematic
;
?
;
_space_group_IT_number           4
_symmetry_cell_setting           monoclinic
_symmetry_space_group_name_Hall  'P 2yb'
_symmetry_space_group_name_H-M   'P 1 21 1'
_atom_sites_solution_hydrogens   geom
_atom_sites_solution_primary     direct
_atom_sites_solution_secondary   difmap
_audit_creation_method           SHELXL-97
_cell_angle_alpha                90.00
_cell_angle_beta                 93.816(4)
_cell_angle_gamma                90.00
_cell_formula_units_Z            2
_cell_length_a                   5.4744(14)
_cell_length_b                   11.366(3)
_cell_length_c                   11.235(3)
_cell_measurement_reflns_used    3267
_cell_measurement_temperature    190(2)
_cell_measurement_theta_max      27.86
_cell_measurement_theta_min      2.55
_cell_volume                     697.5(3)
_computing_cell_refinement       'BRUKER SAINT'
_computing_data_collection       'BRUKER SMART'
_computing_data_reduction        'BRUKER SAINT'
_computing_molecular_graphics    'SHELXTL, Ortep32, mercury 2.4'
_computing_publication_material  'SHELXTL, Platon'
_computing_structure_refinement  'SHELXL-97 (Sheldrick, 1997)'
_computing_structure_solution    'SHELXS-97 (Sheldrick, 1990)'
_diffrn_ambient_temperature      190(2)
_diffrn_measured_fraction_theta_full 0.994
_diffrn_measured_fraction_theta_max 0.994
_diffrn_measurement_device       'Bruker Smart APEX'
_diffrn_measurement_device_type  'CCD Area Detector'
_diffrn_measurement_method       'Phi and Omega Scan'
_diffrn_radiation_monochromator  graphite
_diffrn_radiation_source         'fine-focus sealed tube'
_diffrn_radiation_type           MoK\a
_diffrn_radiation_wavelength     0.71073
_diffrn_reflns_av_R_equivalents  0.0299
_diffrn_reflns_av_sigmaI/netI    0.0511
_diffrn_reflns_limit_h_max       6
_diffrn_reflns_limit_h_min       -6
_diffrn_reflns_limit_k_max       13
_diffrn_reflns_limit_k_min       -13
_diffrn_reflns_limit_l_max       13
_diffrn_reflns_limit_l_min       -10
_diffrn_reflns_number            3495
_diffrn_reflns_theta_full        24.97
_diffrn_reflns_theta_max         24.97
_diffrn_reflns_theta_min         2.55
_exptl_absorpt_coefficient_mu    2.305
_exptl_absorpt_correction_T_max  0.8264
_exptl_absorpt_correction_T_min  0.5535
_exptl_absorpt_correction_type   multi-scan
_exptl_absorpt_process_details   'bruker's sadabs'
_exptl_crystal_colour            yellow
_exptl_crystal_density_diffrn    1.867
_exptl_crystal_density_method    'not measured'
_exptl_crystal_description       plate
_exptl_crystal_F_000             380
_exptl_crystal_size_max          0.29
_exptl_crystal_size_mid          0.20
_exptl_crystal_size_min          0.09
_refine_diff_density_max         0.564
_refine_diff_density_min         -0.354
_refine_diff_density_rms         0.094
_refine_ls_abs_structure_details 'Flack H D (1983), Acta Cryst. A39, 876-881'
_refine_ls_abs_structure_Flack   0.01(3)
_refine_ls_extinction_method     none
_refine_ls_goodness_of_fit_ref   1.043
_refine_ls_hydrogen_treatment    mixed
_refine_ls_matrix_type           full
_refine_ls_number_parameters     194
_refine_ls_number_reflns         2268
_refine_ls_number_restraints     1
_refine_ls_restrained_S_all      1.042
_refine_ls_R_factor_all          0.0296
_refine_ls_R_factor_gt           0.0293
_refine_ls_shift/su_max          0.001
_refine_ls_shift/su_mean         0.000
_refine_ls_structure_factor_coef Fsqd
_refine_ls_weighting_details
'calc w=1/[\s^2^(Fo^2^)+(0.0370P)^2^+0.1422P] where P=(Fo^2^+2Fc^2^)/3'
_refine_ls_weighting_scheme      calc
_refine_ls_wR_factor_gt          0.0743
_refine_ls_wR_factor_ref         0.0749
_reflns_number_gt                2237
_reflns_number_total             2268
_reflns_threshold_expression     >2sigma(I)
_cod_data_source_file            c3ce40192h.txt
_cod_data_source_block           2n2i
_cod_original_sg_symbol_H-M      P21
_cod_database_code               7209873
loop_
_symmetry_equiv_pos_as_xyz
'x, y, z'
'-x, y+1/2, -z'
loop_
_atom_site_label
_atom_site_type_symbol
_atom_site_fract_x
_atom_site_fract_y
_atom_site_fract_z
_atom_site_U_iso_or_equiv
_atom_site_adp_type
_atom_site_occupancy
_atom_site_symmetry_multiplicity
_atom_site_calc_flag
_atom_site_refinement_flags
C1 C 0.4096(8) 0.6604(4) 0.2489(4) 0.0325(9) Uani 1 1 d .
C2 C 0.2500(8) 0.6208(4) 0.3288(4) 0.0317(9) Uani 1 1 d .
C3 C 0.2998(8) 0.5749(3) 0.4496(4) 0.0300(9) Uani 1 1 d .
C4 C 0.4887(9) 0.4961(5) 0.4732(4) 0.0338(10) Uani 1 1 d .
H4 H 0.5872 0.4743 0.4103 0.041 Uiso 1 1 calc R
C5 C 0.5393(10) 0.4480(4) 0.5840(5) 0.0441(11) Uani 1 1 d .
H5 H 0.6735 0.3955 0.5976 0.053 Uiso 1 1 calc R
C6 C 0.3930(10) 0.4764(5) 0.6767(4) 0.0448(11) Uani 1 1 d .
H6 H 0.4206 0.4398 0.7524 0.054 Uiso 1 1 calc R
C7 C 0.2090(10) 0.5575(5) 0.6580(4) 0.0412(11) Uani 1 1 d .
H7 H 0.1120 0.5781 0.7219 0.049 Uiso 1 1 calc R
C8 C 0.1621(8) 0.6100(4) 0.5473(4) 0.0306(9) Uani 1 1 d .
C9 C 0.3361(9) 0.7289(5) 0.0374(3) 0.0339(11) Uani 1 1 d .
C10 C 0.5154(10) 0.6680(5) -0.0196(4) 0.0401(10) Uani 1 1 d .
H10 H 0.5951 0.6022 0.0179 0.048 Uiso 1 1 calc R
C11 C 0.5770(11) 0.7044(5) -0.1324(5) 0.0474(13) Uani 1 1 d .
H11 H 0.7038 0.6653 -0.1705 0.057 Uiso 1 1 calc R
C12 C 0.4552(11) 0.7964(5) -0.1884(5) 0.0520(13) Uani 1 1 d .
H12 H 0.4950 0.8194 -0.2661 0.062 Uiso 1 1 calc R
C13 C 0.2755(10) 0.8553(5) -0.1327(4) 0.0474(12) Uani 1 1 d .
H13 H 0.1898 0.9182 -0.1725 0.057 Uiso 1 1 calc R
C14 C 0.2191(9) 0.8234(4) -0.0188(4) 0.0359(10) Uani 1 1 d .
H1 H 0.583(9) 0.671(4) 0.253(3) 0.019(10) Uiso 1 1 d .
I1 I -0.08942(4) 0.74813(4) 0.53400(2) 0.04251(12) Uani 1 1 d .
N1 N 0.2668(7) 0.6865(4) 0.1506(3) 0.0365(8) Uani 1 1 d .
N2 N 0.0301(7) 0.6637(4) 0.1660(4) 0.0467(10) Uani 1 1 d .
N3 N 0.0194(7) 0.6242(5) 0.2736(3) 0.0448(10) Uani 1 1 d .
N4 N 0.0381(9) 0.9000(4) 0.0444(4) 0.0527(12) Uani 1 1 d .
O1 O 0.0999(10) 0.9225(5) 0.1442(4) 0.0795(15) Uani 1 1 d .
O2 O -0.1321(10) 0.9330(5) -0.0155(6) 0.0872(16) Uani 1 1 d .
loop_
_atom_site_aniso_label
_atom_site_aniso_U_11
_atom_site_aniso_U_22
_atom_site_aniso_U_33
_atom_site_aniso_U_23
_atom_site_aniso_U_13
_atom_site_aniso_U_12
C1 0.025(2) 0.039(2) 0.034(2) -0.0017(18) 0.0024(16) -0.0014(18)
C2 0.025(2) 0.038(2) 0.032(2) -0.0076(17) 0.0051(16) -0.0032(18)
C3 0.028(2) 0.030(2) 0.032(2) -0.0023(17) 0.0021(17) -0.0094(17)
C4 0.027(2) 0.034(2) 0.041(3) -0.006(3) 0.007(2) -0.0018(17)
C5 0.038(3) 0.032(2) 0.061(3) 0.004(2) 0.000(2) 0.003(2)
C6 0.050(3) 0.042(2) 0.042(3) 0.006(2) -0.003(2) 0.005(2)
C7 0.045(3) 0.045(3) 0.034(2) 0.003(2) 0.0100(19) 0.001(2)
C8 0.030(2) 0.030(2) 0.033(2) 0.0009(16) 0.0061(17) -0.0017(17)
C9 0.0288(19) 0.044(4) 0.0287(18) -0.0006(18) 0.0000(14) -0.005(2)
C10 0.038(3) 0.043(3) 0.039(2) -0.001(2) 0.0051(19) 0.007(2)
C11 0.047(3) 0.056(3) 0.041(3) -0.003(2) 0.014(2) 0.002(2)
C12 0.064(4) 0.058(3) 0.036(3) 0.003(2) 0.014(2) 0.005(3)
C13 0.055(3) 0.043(3) 0.043(3) 0.008(2) -0.005(2) 0.004(2)
C14 0.035(2) 0.031(2) 0.040(2) -0.0083(18) -0.0019(18) 0.0008(18)
I1 0.03881(18) 0.03991(17) 0.04989(18) 0.00296(16) 0.01098(11) 0.00714(15)
N1 0.0266(19) 0.050(2) 0.0327(19) 0.0005(17) 0.0026(15) 0.0005(17)
N2 0.025(2) 0.075(3) 0.040(2) 0.000(2) -0.0013(16) -0.006(2)
N3 0.0233(19) 0.075(3) 0.037(2) 0.0023(19) 0.0047(15) -0.008(2)
N4 0.058(3) 0.038(2) 0.060(3) 0.005(2) -0.017(2) -0.014(2)
O1 0.079(3) 0.087(3) 0.073(3) -0.040(3) 0.005(3) 0.027(3)
O2 0.067(3) 0.075(4) 0.120(4) 0.000(3) 0.009(3) 0.033(3)
loop_
_atom_type_symbol
_atom_type_description
_atom_type_scat_dispersion_real
_atom_type_scat_dispersion_imag
_atom_type_scat_source
C C 0.0033 0.0016 'International Tables Vol C Tables 4.2.6.8 and 6.1.1.4'
H H 0.0000 0.0000 'International Tables Vol C Tables 4.2.6.8 and 6.1.1.4'
N N 0.0061 0.0033 'International Tables Vol C Tables 4.2.6.8 and 6.1.1.4'
O O 0.0106 0.0060 'International Tables Vol C Tables 4.2.6.8 and 6.1.1.4'
I I -0.4742 1.8119 'International Tables Vol C Tables 4.2.6.8 and 6.1.1.4'
loop_
_geom_angle_atom_site_label_1
_geom_angle_atom_site_label_2
_geom_angle_atom_site_label_3
_geom_angle
N1 C1 C2 104.5(4)
N1 C1 H1 123(2)
C2 C1 H1 133(2)
N3 C2 C1 107.6(4)
N3 C2 C3 122.6(4)
C1 C2 C3 129.6(4)
C4 C3 C8 117.4(4)
C4 C3 C2 120.0(4)
C8 C3 C2 122.6(4)
C5 C4 C3 122.5(4)
C5 C4 H4 118.8
C3 C4 H4 118.8
C4 C5 C6 119.6(5)
C4 C5 H5 120.2
C6 C5 H5 120.2
C7 C6 C5 119.7(5)
C7 C6 H6 120.2
C5 C6 H6 120.2
C6 C7 C8 121.1(5)
C6 C7 H7 119.5
C8 C7 H7 119.5
C7 C8 C3 119.6(4)
C7 C8 I1 118.0(3)
C3 C8 I1 122.2(3)
C14 C9 C10 119.7(4)
C14 C9 N1 121.7(4)
C10 C9 N1 118.5(4)
C9 C10 C11 119.4(5)
C9 C10 H10 120.3
C11 C10 H10 120.3
C12 C11 C10 120.2(5)
C12 C11 H11 119.9
C10 C11 H11 119.9
C11 C12 C13 120.3(5)
C11 C12 H12 119.9
C13 C12 H12 119.9
C12 C13 C14 120.2(5)
C12 C13 H13 119.9
C14 C13 H13 119.9
C9 C14 C13 120.1(4)
C9 C14 N4 121.7(4)
C13 C14 N4 118.1(4)
C1 N1 N2 111.4(4)
C1 N1 C9 129.0(4)
N2 N1 C9 119.5(4)
N3 N2 N1 106.9(4)
N2 N3 C2 109.6(4)
O2 N4 O1 130.0(6)
O2 N4 C14 115.5(5)
O1 N4 C14 114.3(5)
loop_
_geom_bond_atom_site_label_1
_geom_bond_atom_site_label_2
_geom_bond_distance
C1 N1 1.342(6)
C1 C2 1.370(6)
C1 H1 0.96(5)
C2 N3 1.369(6)
C2 C3 1.462(6)
C3 C4 1.381(7)
C3 C8 1.429(6)
C4 C5 1.371(8)
C4 H4 0.9500
C5 C6 1.393(7)
C5 H5 0.9500
C6 C7 1.371(8)
C6 H6 0.9500
C7 C8 1.388(6)
C7 H7 0.9500
C8 I1 2.088(4)
C9 C14 1.382(7)
C9 C10 1.392(7)
C9 N1 1.435(6)
C10 C11 1.396(7)
C10 H10 0.9500
C11 C12 1.370(8)
C11 H11 0.9500
C12 C13 1.375(8)
C12 H12 0.9500
C13 C14 1.384(7)
C13 H13 0.9500
C14 N4 1.529(7)
N1 N2 1.344(6)
N2 N3 1.295(6)
N4 O2 1.174(8)
N4 O1 1.178(6)
loop_
_geom_hbond_atom_site_label_D
_geom_hbond_atom_site_label_H
_geom_hbond_atom_site_label_A
_geom_hbond_distance_DH
_geom_hbond_distance_HA
_geom_hbond_distance_DA
_geom_hbond_angle_DHA
_geom_hbond_site_symmetry_A
C1 H1 N3 0.96(5) 2.44(5) 3.357(6) 160(3) 1_655
loop_
_geom_torsion_atom_site_label_1
_geom_torsion_atom_site_label_2
_geom_torsion_atom_site_label_3
_geom_torsion_atom_site_label_4
_geom_torsion
N1 C1 C2 N3 0.5(5)
N1 C1 C2 C3 177.1(4)
N3 C2 C3 C4 132.4(5)
C1 C2 C3 C4 -43.7(7)
N3 C2 C3 C8 -48.7(6)
C1 C2 C3 C8 135.2(5)
C8 C3 C4 C5 2.8(7)
C2 C3 C4 C5 -178.3(4)
C3 C4 C5 C6 1.7(7)
C4 C5 C6 C7 -3.9(8)
C5 C6 C7 C8 1.5(8)
C6 C7 C8 C3 3.1(7)
C6 C7 C8 I1 -171.9(4)
C4 C3 C8 C7 -5.1(6)
C2 C3 C8 C7 176.0(4)
C4 C3 C8 I1 169.7(3)
C2 C3 C8 I1 -9.3(5)
C14 C9 C10 C11 0.9(8)
N1 C9 C10 C11 176.9(4)
C9 C10 C11 C12 -2.6(8)
C10 C11 C12 C13 1.6(8)
C11 C12 C13 C14 1.0(8)
C10 C9 C14 C13 1.7(7)
N1 C9 C14 C13 -174.2(4)
C10 C9 C14 N4 -174.3(4)
N1 C9 C14 N4 9.7(6)
C12 C13 C14 C9 -2.7(8)
C12 C13 C14 N4 173.5(5)
C2 C1 N1 N2 -0.7(5)
C2 C1 N1 C9 -178.2(5)
C14 C9 N1 C1 -132.2(5)
C10 C9 N1 C1 51.9(7)
C14 C9 N1 N2 50.5(6)
C10 C9 N1 N2 -125.5(5)
C1 N1 N2 N3 0.5(6)
C9 N1 N2 N3 178.3(4)
N1 N2 N3 C2 -0.2(6)
C1 C2 N3 N2 -0.2(6)
C3 C2 N3 N2 -177.1(4)
C9 C14 N4 O2 -142.7(5)
C13 C14 N4 O2 41.2(7)
C9 C14 N4 O1 41.8(7)
C13 C14 N4 O1 -134.3(6)
