#------------------------------------------------------------------------------
#$Date: 2016-03-26 18:25:06 +0200 (Sat, 26 Mar 2016) $
#$Revision: 180428 $
#$URL: svn://www.crystallography.net/cod/cif/7/20/97/7209798.cif $
#------------------------------------------------------------------------------
#
# This file is available in the Crystallography Open Database (COD),
# http://www.crystallography.net/
#
# All data on this site have been placed in the public domain by the
# contributors.
#
data_7209798
loop_
_publ_author_name
'Owczarzak, Anita M.'
'Kourkoumelis, Nikolaos'
'Hadjikakou, Sotiris K.'
'Kubicki, Maciej'
_publ_section_title
;
 The impact of the anion size on the crystal packing in
 2-mercaptopyrimidine halides; isostructurality and polymorphism
;
_journal_issue                   18
_journal_name_full               CrystEngComm
_journal_page_first              3607
_journal_paper_doi               10.1039/c3ce40240a
_journal_volume                  15
_journal_year                    2013
_chemical_formula_moiety         'C4 H5 N2 S, Br'
_chemical_formula_sum            'C4 H5 Br N2 S'
_chemical_formula_weight         193.07
_chemical_name_systematic
;
?
;
_space_group_IT_number           29
_symmetry_cell_setting           orthorhombic
_symmetry_space_group_name_Hall  'P 2c -2ac'
_symmetry_space_group_name_H-M   'P c a 21'
_atom_sites_solution_hydrogens   geom
_atom_sites_solution_primary     direct
_atom_sites_solution_secondary   difmap
_audit_creation_method           SHELXL-97
_cell_angle_alpha                90.00
_cell_angle_beta                 90.00
_cell_angle_gamma                90.00
_cell_formula_units_Z            4
_cell_length_a                   14.0264(6)
_cell_length_b                   4.6351(2)
_cell_length_c                   10.5403(5)
_cell_measurement_reflns_used    6389
_cell_measurement_temperature    293(2)
_cell_measurement_theta_max      76.0947
_cell_measurement_theta_min      3.1481
_cell_volume                     685.26(5)
_computing_cell_refinement       'CrysAlis Pro (Oxford Diffraction (2009))'
_computing_data_collection       'CrysAlis Pro (Oxford Diffraction (2009))'
_computing_data_reduction        'CrysAlis Pro (Oxford Diffraction (2009))'
_computing_molecular_graphics    'Stereochemical Workstation (Siemens, 1989)'
_computing_publication_material  'SHELXL-97 (Sheldrick, 2008)'
_computing_structure_refinement  'SHELXL-97 (Sheldrick, 2008)'
_computing_structure_solution    'SIR92 (Altomare et al., 1993)'
_diffrn_ambient_temperature      293(2)
_diffrn_detector_area_resol_mean 10.5357
_diffrn_measured_fraction_theta_full 1.000
_diffrn_measured_fraction_theta_max 0.995
_diffrn_measurement_device_type  'SuperNova, Single source at offset), Atlas'
_diffrn_measurement_method       '\w scans'
_diffrn_radiation_monochromator  mirror
_diffrn_radiation_source         'SuperNova (Cu) X-ray Source'
_diffrn_radiation_type           'Cu K\a'
_diffrn_radiation_wavelength     1.5418
_diffrn_reflns_av_R_equivalents  0.0438
_diffrn_reflns_av_sigmaI/netI    0.0215
_diffrn_reflns_limit_h_max       17
_diffrn_reflns_limit_h_min       -15
_diffrn_reflns_limit_k_max       5
_diffrn_reflns_limit_k_min       -5
_diffrn_reflns_limit_l_max       13
_diffrn_reflns_limit_l_min       -13
_diffrn_reflns_number            7308
_diffrn_reflns_theta_full        70.00
_diffrn_reflns_theta_max         76.28
_diffrn_reflns_theta_min         6.31
_exptl_absorpt_coefficient_mu    10.203
_exptl_absorpt_correction_T_max  1.00000
_exptl_absorpt_correction_T_min  0.34421
_exptl_absorpt_correction_type   multi-scan
_exptl_absorpt_process_details
;
CrysAlisPro, Oxford Diffraction Ltd.,
Version 1.171.34.43 (release 21-10-2010 CrysAlis171 .NET)
(compiled Oct 21 2010,17:48:23)
Empirical absorption correction using spherical harmonics,
implemented in SCALE3 ABSPACK scaling algorithm.
;
_exptl_crystal_colour            yellow
_exptl_crystal_density_diffrn    1.871
_exptl_crystal_density_method    'not measured'
_exptl_crystal_description       block
_exptl_crystal_F_000             376
_exptl_crystal_size_max          0.2
_exptl_crystal_size_mid          0.1
_exptl_crystal_size_min          0.1
_refine_diff_density_max         0.535
_refine_diff_density_min         -0.603
_refine_diff_density_rms         0.072
_refine_ls_abs_structure_details 'Flack H D (1983), Acta Cryst. A39, 876-881'
_refine_ls_abs_structure_Flack   -0.01(5)
_refine_ls_extinction_method     none
_refine_ls_goodness_of_fit_ref   1.115
_refine_ls_hydrogen_treatment    refall
_refine_ls_matrix_type           full
_refine_ls_number_parameters     93
_refine_ls_number_reflns         1406
_refine_ls_number_restraints     1
_refine_ls_restrained_S_all      1.114
_refine_ls_R_factor_all          0.0346
_refine_ls_R_factor_gt           0.0341
_refine_ls_shift/su_max          0.002
_refine_ls_shift/su_mean         0.000
_refine_ls_structure_factor_coef Fsqd
_refine_ls_weighting_details
'calc w=1/[\s^2^(Fo^2^)+(0.0576P)^2^+0.4285P] where P=(Fo^2^+2Fc^2^)/3'
_refine_ls_weighting_scheme      calc
_refine_ls_wR_factor_gt          0.0969
_refine_ls_wR_factor_ref         0.0975
_reflns_number_gt                1380
_reflns_number_total             1406
_reflns_threshold_expression     >2sigma(I)
_cod_data_source_file            c3ce40240a.txt
_cod_data_source_block           3
_cod_original_sg_symbol_H-M      Pca21
_cod_database_code               7209798
loop_
_symmetry_equiv_pos_as_xyz
'x, y, z'
'-x, -y, z+1/2'
'-x+1/2, y, z+1/2'
'x+1/2, -y, z'
loop_
_atom_site_label
_atom_site_type_symbol
_atom_site_fract_x
_atom_site_fract_y
_atom_site_fract_z
_atom_site_U_iso_or_equiv
_atom_site_adp_type
_atom_site_occupancy
_atom_site_symmetry_multiplicity
_atom_site_calc_flag
N1 N 0.7494(3) 0.9115(10) 0.4438(4) 0.0614(10) Uani 1 1 d
H1 H 0.804(6) 0.859(13) 0.415(6) 0.066(18) Uiso 1 1 d
C2 C 0.7460(4) 1.1046(9) 0.5394(8) 0.0539(10) Uani 1 1 d
S2 S 0.84329(8) 1.2264(4) 0.61358(17) 0.0696(3) Uani 1 1 d
N3 N 0.6561(3) 1.1889(10) 0.5734(4) 0.0537(9) Uani 1 1 d
H3 H 0.653(3) 1.329(11) 0.644(5) 0.043(12) Uiso 1 1 d
C4 C 0.5777(3) 1.0796(13) 0.5203(6) 0.0610(12) Uani 1 1 d
H4 H 0.519(6) 1.148(12) 0.555(7) 0.069(18) Uiso 1 1 d
C5 C 0.5829(4) 0.8815(13) 0.4250(6) 0.0673(15) Uani 1 1 d
H5 H 0.533(6) 0.797(14) 0.373(7) 0.08(2) Uiso 1 1 d
C6 C 0.6717(5) 0.8021(14) 0.3859(5) 0.0655(13) Uani 1 1 d
H6 H 0.687(5) 0.669(12) 0.319(6) 0.062(17) Uiso 1 1 d
Br1 Br 0.91672(3) 0.63322(10) 0.27922(7) 0.06197(18) Uani 1 1 d
loop_
_atom_site_aniso_label
_atom_site_aniso_U_11
_atom_site_aniso_U_22
_atom_site_aniso_U_33
_atom_site_aniso_U_23
_atom_site_aniso_U_13
_atom_site_aniso_U_12
N1 0.052(2) 0.078(3) 0.054(2) -0.0077(19) -0.0025(18) 0.0155(19)
C2 0.048(2) 0.060(2) 0.054(3) 0.011(2) -0.0005(17) 0.001(2)
S2 0.0482(5) 0.0915(9) 0.0690(7) -0.0112(7) -0.0029(6) -0.0044(6)
N3 0.051(2) 0.057(2) 0.053(2) -0.0020(16) 0.0003(15) -0.0012(16)
C4 0.051(3) 0.067(3) 0.065(3) 0.004(3) -0.005(2) -0.0006(19)
C5 0.067(3) 0.073(4) 0.062(3) -0.002(3) -0.014(2) -0.001(2)
C6 0.079(4) 0.063(3) 0.055(3) -0.004(2) -0.010(2) 0.006(3)
Br1 0.0580(3) 0.0687(3) 0.0592(3) -0.0091(3) -0.0048(3) 0.00681(19)
loop_
_atom_type_symbol
_atom_type_description
_atom_type_scat_dispersion_real
_atom_type_scat_dispersion_imag
_atom_type_scat_source
C C 0.0181 0.0091 'International Tables Vol C Tables 4.2.6.8 and 6.1.1.4'
H H 0.0000 0.0000 'International Tables Vol C Tables 4.2.6.8 and 6.1.1.4'
N N 0.0311 0.0180 'International Tables Vol C Tables 4.2.6.8 and 6.1.1.4'
S S 0.3331 0.5567 'International Tables Vol C Tables 4.2.6.8 and 6.1.1.4'
Br Br -0.6763 1.2805 'International Tables Vol C Tables 4.2.6.8 and 6.1.1.4'
loop_
_geom_angle_atom_site_label_1
_geom_angle_atom_site_label_2
_geom_angle_atom_site_label_3
_geom_angle
C2 N1 C6 124.0(5)
C2 N1 H1 119(5)
C6 N1 H1 117(5)
N1 C2 N3 114.7(5)
N1 C2 S2 123.0(4)
N3 C2 S2 122.3(5)
C4 N3 C2 122.8(5)
C4 N3 H3 122(3)
C2 N3 H3 115(3)
N3 C4 C5 121.4(5)
N3 C4 H4 115(4)
C5 C4 H4 123(4)
C6 C5 C4 117.0(5)
C6 C5 H5 112(5)
C4 C5 H5 131(5)
N1 C6 C5 120.1(5)
N1 C6 H6 113(4)
C5 C6 H6 127(4)
loop_
_geom_bond_atom_site_label_1
_geom_bond_atom_site_label_2
_geom_bond_distance
N1 C2 1.348(9)
N1 C6 1.349(8)
N1 H1 0.85(8)
C2 N3 1.368(7)
C2 S2 1.671(7)
N3 C4 1.333(7)
N3 H3 0.99(5)
C4 C5 1.363(9)
C4 H4 0.96(8)
C5 C6 1.362(9)
C5 H5 0.97(8)
C6 H6 0.97(6)
loop_
_geom_hbond_atom_site_label_D
_geom_hbond_atom_site_label_H
_geom_hbond_atom_site_label_A
_geom_hbond_distance_DH
_geom_hbond_distance_HA
_geom_hbond_distance_DA
_geom_hbond_angle_DHA
_geom_hbond_site_symmetry_A
N1 H1 Br1 0.85(8) 2.38(8) 3.191(4) 159(6) .
N3 H3 Br1 0.99(5) 2.23(5) 3.161(4) 156(4) 3_665
C5 H5 Br1 0.97(8) 2.76(8) 3.672(6) 157(5) 4_465
C6 H6 S2 0.97(6) 3.01(6) 3.925(6) 159(5) 3_644
