#------------------------------------------------------------------------------
#$Date: 2016-03-26 18:26:27 +0200 (Sat, 26 Mar 2016) $
#$Revision: 180429 $
#$URL: svn://www.crystallography.net/cod/cif/7/20/98/7209899.cif $
#------------------------------------------------------------------------------
#
# This file is available in the Crystallography Open Database (COD),
# http://www.crystallography.net/
#
# All data on this site have been placed in the public domain by the
# contributors.
#
data_7209899
loop_
_publ_author_name
'Zhang, Zhu-Yan'
'Deng, Zhao-Peng'
'Huo, Li-Hua'
'Zhao, Hui'
'Gao, Shan'
_publ_section_title
;
 Inorganic anion induced supramolecular architectures of flexible
 unsymmetrical bis(pyridyl) ionic salts mediated by various non-covalent
 interactions
;
_journal_issue                   26
_journal_name_full               CrystEngComm
_journal_page_first              5261
_journal_paper_doi               10.1039/c3ce40227d
_journal_volume                  15
_journal_year                    2013
_chemical_formula_moiety         'C11 H13 N3, 2(Cl O4)'
_chemical_formula_sum            'C11 H13 Cl2 N3 O8'
_chemical_formula_weight         386.14
_chemical_name_systematic
;
?
;
_space_group_IT_number           4
_symmetry_cell_setting           monoclinic
_symmetry_space_group_name_Hall  'P 2yb'
_symmetry_space_group_name_H-M   'P 1 21 1'
_atom_sites_solution_hydrogens   geom
_atom_sites_solution_primary     direct
_atom_sites_solution_secondary   difmap
_audit_creation_method           SHELXL-97
_cell_angle_alpha                90.00
_cell_angle_beta                 107.55(3)
_cell_angle_gamma                90.00
_cell_formula_units_Z            2
_cell_length_a                   6.2576(13)
_cell_length_b                   14.176(3)
_cell_length_c                   9.4606(19)
_cell_measurement_reflns_used    4412
_cell_measurement_temperature    295(2)
_cell_measurement_theta_max      25.00
_cell_measurement_theta_min      3.42
_cell_volume                     800.2(3)
_computing_cell_refinement       RAPID-AUTO
_computing_data_collection       'RAPID-AUTO (Rigaku Corporation, 1998)'
_computing_data_reduction
'CrystalStructure (Rigaku/MSC and Rigaku Corporation, 2002)'
_computing_molecular_graphics    SHELXL-97
_computing_structure_refinement  'ORTEP-II (Johnson, 1976)'
_computing_structure_solution    'SHELXS-97 (Sheldrick, 1997)'
_diffrn_ambient_temperature      295(2)
_diffrn_detector_area_resol_mean 10.000
_diffrn_measured_fraction_theta_full 0.992
_diffrn_measured_fraction_theta_max 0.992
_diffrn_measurement_device_type  'Rigaku RAXIS-RAPID'
_diffrn_measurement_method       \w
_diffrn_radiation_monochromator  graphite
_diffrn_radiation_source         'fine-focus sealed tube'
_diffrn_radiation_type           MoK\a
_diffrn_radiation_wavelength     0.71073
_diffrn_reflns_av_R_equivalents  0.0525
_diffrn_reflns_av_sigmaI/netI    0.0685
_diffrn_reflns_limit_h_max       7
_diffrn_reflns_limit_h_min       -6
_diffrn_reflns_limit_k_max       16
_diffrn_reflns_limit_k_min       -16
_diffrn_reflns_limit_l_max       11
_diffrn_reflns_limit_l_min       -11
_diffrn_reflns_number            6081
_diffrn_reflns_theta_full        25.00
_diffrn_reflns_theta_max         25.00
_diffrn_reflns_theta_min         3.41
_diffrn_standards_decay_%        0
_diffrn_standards_interval_count 0
_diffrn_standards_interval_time  0
_diffrn_standards_number         0
_exptl_absorpt_coefficient_mu    0.452
_exptl_absorpt_correction_T_max  0.9353
_exptl_absorpt_correction_T_min  0.8688
_exptl_absorpt_correction_type   multi-scan
_exptl_absorpt_process_details   'ABSCOR (Higashi, 1995)'
_exptl_crystal_colour            yellowish
_exptl_crystal_density_diffrn    1.603
_exptl_crystal_density_method    'not measured'
_exptl_crystal_description       prism
_exptl_crystal_F_000             396
_exptl_crystal_size_max          0.32
_exptl_crystal_size_mid          0.25
_exptl_crystal_size_min          0.15
_refine_diff_density_max         0.346
_refine_diff_density_min         -0.217
_refine_diff_density_rms         0.063
_refine_ls_abs_structure_details 'Flack H D (1983), Acta Cryst. A39, 876-881'
_refine_ls_abs_structure_Flack   0.42(11)
_refine_ls_extinction_method     none
_refine_ls_goodness_of_fit_ref   1.034
_refine_ls_hydrogen_treatment    mixed
_refine_ls_matrix_type           full
_refine_ls_number_parameters     227
_refine_ls_number_reflns         2809
_refine_ls_number_restraints     4
_refine_ls_restrained_S_all      1.033
_refine_ls_R_factor_all          0.0952
_refine_ls_R_factor_gt           0.0623
_refine_ls_shift/su_max          0.000
_refine_ls_shift/su_mean         0.000
_refine_ls_structure_factor_coef Fsqd
_refine_ls_weighting_details
'calc w=1/[\s^2^(Fo^2^)+(0.0794P)^2^+0.0000P] where P=(Fo^2^+2Fc^2^)/3'
_refine_ls_weighting_scheme      calc
_refine_ls_wR_factor_gt          0.1382
_refine_ls_wR_factor_ref         0.1542
_reflns_number_gt                2352
_reflns_number_total             2809
_reflns_threshold_expression     >2sigma(I)
_cod_data_source_file            c3ce40227d.txt
_cod_data_source_block           complex7
_cod_original_sg_symbol_H-M      'P 21'
_cod_database_code               7209899
loop_
_symmetry_equiv_pos_as_xyz
'x, y, z'
'-x, y+1/2, -z'
loop_
_atom_site_label
_atom_site_type_symbol
_atom_site_fract_x
_atom_site_fract_y
_atom_site_fract_z
_atom_site_U_iso_or_equiv
_atom_site_adp_type
_atom_site_occupancy
_atom_site_symmetry_multiplicity
_atom_site_calc_flag
_atom_site_refinement_flags
Cl1 Cl 1.2274(2) 0.56459(9) 0.56015(19) 0.0745(5) Uani 1 1 d .
Cl2 Cl 0.1374(3) 0.85555(12) 0.03145(18) 0.0787(5) Uani 1 1 d .
O1 O 1.0984(17) 0.5778(9) 0.4146(8) 0.230(6) Uani 1 1 d .
O2 O 1.1450(9) 0.6338(5) 0.6425(7) 0.127(2) Uani 1 1 d .
O3 O 1.2078(12) 0.4780(4) 0.6206(12) 0.178(4) Uani 1 1 d .
O4 O 1.4600(8) 0.5768(5) 0.5832(9) 0.156(3) Uani 1 1 d .
O5 O 0.3706(7) 0.8657(5) 0.1118(6) 0.130(2) Uani 1 1 d .
O6 O -0.0024(11) 0.8693(6) 0.1182(8) 0.155(3) Uani 1 1 d .
O7 O 0.0863(10) 0.9183(5) -0.0879(7) 0.127(2) Uani 1 1 d .
O8 O 0.1214(15) 0.7661(5) -0.0289(12) 0.199(4) Uani 1 1 d .
N1 N 0.4840(8) 0.6246(3) 0.2483(5) 0.0683(13) Uani 1 1 d D
H1N H 0.460(12) 0.627(6) 0.333(4) 0.102 Uiso 1 1 d D
N2 N 0.7647(8) 0.7417(4) 0.4732(5) 0.0677(13) Uani 1 1 d D
H2N H 0.884(7) 0.727(5) 0.542(6) 0.102 Uiso 1 1 d D
N3 N 0.4499(7) 0.8402(3) 0.4354(5) 0.0614(11) Uani 1 1 d D
H3N H 0.402(10) 0.834(5) 0.3402(16) 0.092 Uiso 1 1 d D
C1 C 0.3530(10) 0.5637(5) 0.1505(8) 0.0739(15) Uani 1 1 d .
H1A H 0.2437 0.5294 0.1763 0.089 Uiso 1 1 calc R
C2 C 0.3795(12) 0.5523(5) 0.0163(9) 0.0867(19) Uani 1 1 d .
H2A H 0.2851 0.5128 -0.0537 0.104 Uiso 1 1 calc R
C3 C 0.5467(15) 0.5997(6) -0.0146(9) 0.096(2) Uani 1 1 d .
H3A H 0.5748 0.5901 -0.1046 0.115 Uiso 1 1 calc R
C4 C 0.6754(10) 0.6621(4) 0.0866(7) 0.0659(15) Uani 1 1 d .
H4A H 0.7882 0.6953 0.0630 0.079 Uiso 1 1 calc R
C5 C 0.6439(8) 0.6760(3) 0.2144(7) 0.0566(13) Uani 1 1 d .
C6 C 0.7807(9) 0.7490(4) 0.3235(6) 0.0615(13) Uani 1 1 d .
H6A H 0.9369 0.7427 0.3277 0.074 Uiso 1 1 calc R
H6B H 0.7317 0.8115 0.2855 0.074 Uiso 1 1 calc R
C7 C 0.6184(8) 0.7892(3) 0.5262(6) 0.0512(12) Uani 1 1 d .
C8 C 0.6345(11) 0.7863(4) 0.6772(7) 0.0694(15) Uani 1 1 d .
H8A H 0.7495 0.7525 0.7431 0.083 Uiso 1 1 calc R
C9 C 0.4823(13) 0.8328(5) 0.7268(7) 0.086(2) Uani 1 1 d .
H9A H 0.4947 0.8308 0.8273 0.103 Uiso 1 1 calc R
C10 C 0.3082(12) 0.8832(4) 0.6313(8) 0.0782(17) Uani 1 1 d .
H10A H 0.2004 0.9127 0.6652 0.094 Uiso 1 1 calc R
C11 C 0.3005(10) 0.8878(4) 0.4919(8) 0.0692(15) Uani 1 1 d .
H11A H 0.1900 0.9247 0.4280 0.083 Uiso 1 1 calc R
loop_
_atom_site_aniso_label
_atom_site_aniso_U_11
_atom_site_aniso_U_22
_atom_site_aniso_U_33
_atom_site_aniso_U_23
_atom_site_aniso_U_13
_atom_site_aniso_U_12
Cl1 0.0732(9) 0.0548(7) 0.0923(12) 0.0025(7) 0.0199(8) 0.0028(7)
Cl2 0.0719(9) 0.0871(10) 0.0742(10) 0.0104(9) 0.0176(7) 0.0084(8)
O1 0.293(11) 0.304(12) 0.104(5) 0.051(7) 0.075(6) 0.190(11)
O2 0.105(4) 0.150(5) 0.121(4) -0.016(4) 0.025(3) 0.045(4)
O3 0.128(5) 0.072(3) 0.345(11) 0.054(5) 0.090(6) 0.011(3)
O4 0.079(3) 0.116(4) 0.284(9) -0.059(5) 0.069(4) -0.034(3)
O5 0.086(3) 0.171(6) 0.118(4) 0.052(4) 0.006(3) -0.012(4)
O6 0.143(5) 0.206(7) 0.150(5) 0.008(5) 0.095(5) -0.013(5)
O7 0.111(4) 0.172(5) 0.089(4) 0.047(4) 0.017(3) 0.026(4)
O8 0.205(9) 0.086(4) 0.250(10) -0.027(5) -0.016(7) 0.030(5)
N1 0.078(3) 0.054(3) 0.073(3) -0.004(2) 0.024(3) -0.010(2)
N2 0.061(3) 0.074(3) 0.059(3) 0.003(2) 0.005(2) 0.007(2)
N3 0.054(2) 0.058(3) 0.069(3) 0.001(3) 0.015(2) 0.000(2)
C1 0.081(4) 0.056(3) 0.084(4) 0.004(3) 0.024(3) 0.004(3)
C2 0.110(5) 0.059(4) 0.089(5) -0.006(3) 0.026(4) 0.003(4)
C3 0.126(6) 0.098(5) 0.070(5) -0.003(4) 0.038(4) 0.005(5)
C4 0.074(4) 0.055(3) 0.078(4) 0.002(3) 0.038(3) -0.009(3)
C5 0.053(3) 0.045(2) 0.070(4) 0.008(2) 0.016(3) 0.002(2)
C6 0.060(3) 0.061(3) 0.064(4) 0.002(3) 0.018(3) -0.001(3)
C7 0.053(3) 0.041(2) 0.057(3) -0.002(2) 0.014(2) -0.001(2)
C8 0.087(4) 0.054(3) 0.059(4) -0.003(3) 0.010(3) -0.001(3)
C9 0.127(6) 0.077(4) 0.059(4) -0.016(3) 0.037(4) -0.012(4)
C10 0.084(4) 0.064(3) 0.091(5) -0.002(3) 0.032(4) 0.016(3)
C11 0.063(3) 0.065(3) 0.078(4) 0.001(3) 0.019(3) 0.008(3)
loop_
_atom_type_symbol
_atom_type_description
_atom_type_scat_dispersion_real
_atom_type_scat_dispersion_imag
_atom_type_scat_source
C C 0.0033 0.0016 'International Tables Vol C Tables 4.2.6.8 and 6.1.1.4'
H H 0.0000 0.0000 'International Tables Vol C Tables 4.2.6.8 and 6.1.1.4'
N N 0.0061 0.0033 'International Tables Vol C Tables 4.2.6.8 and 6.1.1.4'
O O 0.0106 0.0060 'International Tables Vol C Tables 4.2.6.8 and 6.1.1.4'
Cl Cl 0.1484 0.1585 'International Tables Vol C Tables 4.2.6.8 and 6.1.1.4'
loop_
_geom_angle_atom_site_label_1
_geom_angle_atom_site_label_2
_geom_angle_atom_site_label_3
_geom_angle
O3 Cl1 O1 115.9(8)
O3 Cl1 O4 105.2(4)
O1 Cl1 O4 113.6(6)
O3 Cl1 O2 106.9(5)
O1 Cl1 O2 104.5(4)
O4 Cl1 O2 110.6(4)
O8 Cl2 O6 113.3(6)
O8 Cl2 O7 106.3(5)
O6 Cl2 O7 111.0(4)
O8 Cl2 O5 104.2(5)
O6 Cl2 O5 113.4(4)
O7 Cl2 O5 108.2(4)
C1 N1 C5 121.5(5)
C1 N1 H1N 115(5)
C5 N1 H1N 123(5)
C7 N2 C6 125.5(5)
C7 N2 H2N 112(5)
C6 N2 H2N 117(5)
C7 N3 C11 120.3(5)
C7 N3 H3N 124(5)
C11 N3 H3N 113(5)
C2 C1 N1 120.3(6)
C2 C1 H1A 119.8
N1 C1 H1A 119.8
C1 C2 C3 118.2(7)
C1 C2 H2A 120.9
C3 C2 H2A 120.9
C2 C3 C4 120.0(6)
C2 C3 H3A 120.0
C4 C3 H3A 120.0
C5 C4 C3 121.7(6)
C5 C4 H4A 119.1
C3 C4 H4A 119.1
C4 C5 N1 118.1(5)
C4 C5 C6 121.3(5)
N1 C5 C6 120.6(5)
N2 C6 C5 114.9(5)
N2 C6 H6A 108.6
C5 C6 H6A 108.6
N2 C6 H6B 108.6
C5 C6 H6B 108.6
H6A C6 H6B 107.5
N2 C7 N3 121.2(5)
N2 C7 C8 121.1(5)
N3 C7 C8 117.8(5)
C9 C8 C7 119.8(6)
C9 C8 H8A 120.1
C7 C8 H8A 120.1
C8 C9 C10 121.4(6)
C8 C9 H9A 119.3
C10 C9 H9A 119.3
C11 C10 C9 117.9(6)
C11 C10 H10A 121.1
C9 C10 H10A 121.1
C10 C11 N3 122.8(6)
C10 C11 H11A 118.6
N3 C11 H11A 118.6
loop_
_geom_bond_atom_site_label_1
_geom_bond_atom_site_label_2
_geom_bond_distance
Cl1 O3 1.375(6)
Cl1 O1 1.383(7)
Cl1 O4 1.416(5)
Cl1 O2 1.441(6)
Cl2 O8 1.382(7)
Cl2 O6 1.382(6)
Cl2 O7 1.396(6)
Cl2 O5 1.435(5)
N1 C1 1.348(8)
N1 C5 1.352(7)
N1 H1N 0.86(3)
N2 C7 1.349(7)
N2 C6 1.454(7)
N2 H2N 0.86(3)
N3 C7 1.351(7)
N3 C11 1.384(7)
N3 H3N 0.86(3)
C1 C2 1.339(10)
C1 H1A 0.9300
C2 C3 1.348(11)
C2 H2A 0.9300
C3 C4 1.373(10)
C3 H3A 0.9300
C4 C5 1.297(8)
C4 H4A 0.9300
C5 C6 1.528(8)
C6 H6A 0.9700
C6 H6B 0.9700
C7 C8 1.402(8)
C8 C9 1.354(8)
C8 H8A 0.9300
C9 C10 1.386(9)
C9 H9A 0.9300
C10 C11 1.306(9)
C10 H10A 0.9300
C11 H11A 0.9300
loop_
_geom_hbond_atom_site_label_D
_geom_hbond_atom_site_label_H
_geom_hbond_atom_site_label_A
_geom_hbond_distance_DH
_geom_hbond_distance_HA
_geom_hbond_distance_DA
_geom_hbond_angle_DHA
_geom_hbond_site_symmetry_A
N1 H1N O4 0.86(3) 2.47(3) 3.288(10) 158(7) 1_455
N2 H2N O2 0.86(3) 2.09(4) 2.877(7) 152(7) .
N3 H3N O5 0.86(3) 2.16(3) 2.973(8) 157(7) .
loop_
_geom_torsion_atom_site_label_1
_geom_torsion_atom_site_label_2
_geom_torsion_atom_site_label_3
_geom_torsion_atom_site_label_4
_geom_torsion
C5 N1 C1 C2 0.3(9)
N1 C1 C2 C3 3.2(10)
C1 C2 C3 C4 -4.0(11)
C2 C3 C4 C5 1.3(10)
C3 C4 C5 N1 2.2(9)
C3 C4 C5 C6 -177.1(6)
C1 N1 C5 C4 -3.1(8)
C1 N1 C5 C6 176.2(5)
C7 N2 C6 C5 -93.1(7)
C4 C5 C6 N2 -166.4(5)
N1 C5 C6 N2 14.3(7)
C6 N2 C7 N3 8.8(8)
C6 N2 C7 C8 -172.0(5)
C11 N3 C7 N2 179.5(5)
C11 N3 C7 C8 0.3(7)
N2 C7 C8 C9 -178.4(6)
N3 C7 C8 C9 0.8(7)
C7 C8 C9 C10 0.4(9)
C8 C9 C10 C11 -2.8(10)
C9 C10 C11 N3 4.0(9)
C7 N3 C11 C10 -2.8(8)
