#------------------------------------------------------------------------------
#$Date: 2016-03-26 18:26:27 +0200 (Sat, 26 Mar 2016) $
#$Revision: 180429 $
#$URL: svn://www.crystallography.net/cod/cif/7/20/98/7209868.cif $
#------------------------------------------------------------------------------
#
# This file is available in the Crystallography Open Database (COD),
# http://www.crystallography.net/
#
# All data on this site have been placed in the public domain by the
# contributors.
#
data_7209868
loop_
_publ_author_name
'Ramana, C. V.'
'Goriya, Yogesh'
'Durugkar, Kulbhushan A.'
'Chatterjee, Soumitra'
'Krishnaswamy, Shobhana'
'Gonnade, Rajesh G.'
_publ_section_title
;
 Evaluation of viability of halogen&#x22EF;O2N interactions: Insight from
 crystal packing in a series of isomeric halo and nitro substituted
 triaryl compounds with modular positioning of halogen and NO2 groups
;
_journal_issue                   26
_journal_name_full               CrystEngComm
_journal_page_first              5283
_journal_paper_doi               10.1039/c3ce40192h
_journal_volume                  15
_journal_year                    2013
_chemical_formula_moiety         'C14 H9 Cl N4 O2'
_chemical_formula_sum            'C14 H9 Cl N4 O2'
_chemical_formula_weight         300.70
_chemical_melting_point          186
_chemical_name_systematic
;
? 4-(3-Chlorophenyl)-1-(3-nitrophenyl)-1H-1,2,3-triazole
;
_space_group_IT_number           2
_symmetry_cell_setting           triclinic
_symmetry_space_group_name_Hall  '-P 1'
_symmetry_space_group_name_H-M   'P -1'
_atom_sites_solution_hydrogens   geom
_atom_sites_solution_primary     direct
_atom_sites_solution_secondary   difmap
_audit_creation_method           SHELXL-97
_cell_angle_alpha                102.628(4)
_cell_angle_beta                 94.538(5)
_cell_angle_gamma                114.741(4)
_cell_formula_units_Z            2
_cell_length_a                   7.080(2)
_cell_length_b                   8.369(2)
_cell_length_c                   13.026(4)
_cell_measurement_reflns_used    1697
_cell_measurement_temperature    297(2)
_cell_measurement_theta_max      24.12
_cell_measurement_theta_min      2.79
_cell_volume                     671.2(3)
_computing_cell_refinement       'SAINT (Bruker, 2003)'
_computing_data_collection       'SMART (Bruker, 2003)'
_computing_data_reduction        'SAINT (Bruker, 2003)'
_computing_molecular_graphics    'ORTEP-3 (Farrugia, 1997)'
_computing_publication_material  'SHELXTL (Bruker, 2003)'
_computing_structure_refinement  'SHELXL97 (Sheldrick, 1997)'
_computing_structure_solution    'SHELXS97 (Sheldrick, 1997)'
_diffrn_ambient_temperature      297(2)
_diffrn_measured_fraction_theta_full 0.996
_diffrn_measured_fraction_theta_max 0.996
_diffrn_measurement_device_type  'Bruker Smart APEX'
_diffrn_measurement_method       'Phi and Omega Scan'
_diffrn_radiation_monochromator  graphite
_diffrn_radiation_source         'fine-focus sealed tube'
_diffrn_radiation_type           MoK\a
_diffrn_radiation_wavelength     0.71073
_diffrn_reflns_av_R_equivalents  0.0421
_diffrn_reflns_av_sigmaI/netI    0.0501
_diffrn_reflns_limit_h_max       8
_diffrn_reflns_limit_h_min       -8
_diffrn_reflns_limit_k_max       9
_diffrn_reflns_limit_k_min       -9
_diffrn_reflns_limit_l_max       15
_diffrn_reflns_limit_l_min       -15
_diffrn_reflns_number            6261
_diffrn_reflns_theta_full        25.00
_diffrn_reflns_theta_max         25.00
_diffrn_reflns_theta_min         1.63
_exptl_absorpt_coefficient_mu    0.294
_exptl_absorpt_correction_T_max  0.9712
_exptl_absorpt_correction_T_min  0.9274
_exptl_absorpt_correction_type   multi-scan
_exptl_absorpt_process_details   'BRUKER SADABS'
_exptl_crystal_colour            YELLOW
_exptl_crystal_density_diffrn    1.488
_exptl_crystal_density_method    'not measured'
_exptl_crystal_description       NEEDLE
_exptl_crystal_F_000             308
_exptl_crystal_size_max          0.26
_exptl_crystal_size_mid          0.14
_exptl_crystal_size_min          0.10
_refine_diff_density_max         0.317
_refine_diff_density_min         -0.300
_refine_diff_density_rms         0.067
_refine_ls_extinction_method     none
_refine_ls_goodness_of_fit_ref   1.167
_refine_ls_hydrogen_treatment    mixed
_refine_ls_matrix_type           full
_refine_ls_number_parameters     202
_refine_ls_number_reflns         2348
_refine_ls_number_restraints     1
_refine_ls_restrained_S_all      1.167
_refine_ls_R_factor_all          0.1067
_refine_ls_R_factor_gt           0.0821
_refine_ls_shift/su_max          0.000
_refine_ls_shift/su_mean         0.000
_refine_ls_structure_factor_coef Fsqd
_refine_ls_weighting_details
'calc w=1/[\s^2^(Fo^2^)+(0.0918P)^2^+0.4181P] where P=(Fo^2^+2Fc^2^)/3'
_refine_ls_weighting_scheme      calc
_refine_ls_wR_factor_gt          0.1925
_refine_ls_wR_factor_ref         0.2050
_reflns_number_gt                1794
_reflns_number_total             2348
_reflns_threshold_expression     >2sigma(I)
_cod_data_source_file            c3ce40192h.txt
_cod_data_source_block           3N3Cl
_cod_depositor_comments
;
The following automatic conversions were performed:

'_symmetry_cell_setting' value 'Triclinic' changed to 'triclinic'
according to /home/saulius/struct/CIF-dictionaries/cif_core.dic
dictionary named 'cif_core.dic' version 2.4.2 from
2011-04-26.

'_exptl_absorpt_correction_type' value 'MULTI-SCAN'
changed to 'multi-scan' according to
/home/saulius/struct/CIF-dictionaries/cif_core.dic dictionary named
'cif_core.dic' version 2.4.2 from 2011-04-26.

Automatic conversion script
Id: cif_fix_values 1891 2012-01-12 08:04:46Z andrius 
;
_cod_original_sg_symbol_H-M      P-1
_cod_database_code               7209868
loop_
_symmetry_equiv_pos_as_xyz
'x, y, z'
'-x, -y, -z'
loop_
_atom_site_label
_atom_site_type_symbol
_atom_site_fract_x
_atom_site_fract_y
_atom_site_fract_z
_atom_site_U_iso_or_equiv
_atom_site_adp_type
_atom_site_occupancy
_atom_site_symmetry_multiplicity
_atom_site_calc_flag
_atom_site_refinement_flags
Cl1 Cl 0.4974(3) 0.7444(2) 0.02761(10) 0.0832(6) Uani 1 1 d .
O1 O 0.8816(5) 0.2104(4) 0.6975(2) 0.0589(9) Uani 1 1 d .
O2 O 0.9992(7) 0.3283(5) 0.8671(3) 0.0822(12) Uani 1 1 d .
N1 N 0.7848(5) 0.6828(4) 0.5584(2) 0.0356(8) Uani 1 1 d .
N2 N 0.7441(6) 0.5445(4) 0.4702(3) 0.0481(9) Uani 1 1 d .
N3 N 0.6967(6) 0.5928(5) 0.3869(3) 0.0501(9) Uani 1 1 d .
N4 N 0.9320(6) 0.3341(5) 0.7791(3) 0.0478(9) Uani 1 1 d .
C1 C 0.7630(6) 0.8205(5) 0.5287(3) 0.0403(10) Uani 1 1 d .
C2 C 0.7064(6) 0.7642(5) 0.4208(3) 0.0347(9) Uani 1 1 d .
C3 C 0.6596(6) 0.8551(5) 0.3444(3) 0.0401(9) Uani 1 1 d .
C4 C 0.6653(6) 1.0272(5) 0.3801(3) 0.0436(10) Uani 1 1 d .
H4 H 0.7008 1.0861 0.4532 0.052 Uiso 1 1 calc R
C5 C 0.6183(7) 1.1118(6) 0.3075(4) 0.0527(12) Uani 1 1 d .
C6 C 0.5670(7) 1.0255(6) 0.1996(4) 0.0547(12) Uani 1 1 d .
H6 H 0.5352 1.0805 0.1505 0.066 Uiso 1 1 calc R
C7 C 0.5632(7) 0.8535(6) 0.1645(3) 0.0474(11) Uani 1 1 d .
C8 C 0.6101(6) 0.7711(6) 0.2357(3) 0.0452(10) Uani 1 1 d .
H8 H 0.6086 0.6576 0.2106 0.054 Uiso 1 1 calc R
C9 C 0.8379(6) 0.6669(5) 0.6628(3) 0.0362(9) Uani 1 1 d .
C10 C 0.8626(7) 0.7994(6) 0.7541(3) 0.0473(11) Uani 1 1 d .
H10 H 0.8461 0.9019 0.7484 0.057 Uiso 1 1 calc R
C11 C 0.9116(8) 0.7799(6) 0.8534(3) 0.0597(13) Uani 1 1 d .
H11 H 0.9280 0.8699 0.9145 0.072 Uiso 1 1 calc R
C12 C 0.9367(7) 0.6297(6) 0.8639(4) 0.0523(11) Uani 1 1 d D
C13 C 0.9119(6) 0.5006(5) 0.7709(3) 0.0393(9) Uani 1 1 d .
C14 C 0.8630(6) 0.5138(5) 0.6699(3) 0.0390(9) Uani 1 1 d .
H14 H 0.8474 0.4239 0.6089 0.047 Uiso 1 1 calc R
H1 H 0.784(5) 0.932(5) 0.583(3) 0.039(10) Uiso 1 1 d .
H12 H 0.984(8) 0.639(7) 0.935(2) 0.084(17) Uiso 1 1 d D
H5 H 0.616(7) 1.222(7) 0.337(4) 0.069(15) Uiso 1 1 d .
loop_
_atom_site_aniso_label
_atom_site_aniso_U_11
_atom_site_aniso_U_22
_atom_site_aniso_U_33
_atom_site_aniso_U_23
_atom_site_aniso_U_13
_atom_site_aniso_U_12
Cl1 0.1349(14) 0.0902(11) 0.0436(7) 0.0238(7) 0.0100(7) 0.0669(10)
O1 0.086(2) 0.0401(17) 0.0556(19) 0.0122(15) 0.0105(16) 0.0337(17)
O2 0.130(3) 0.093(3) 0.055(2) 0.0304(19) 0.005(2) 0.077(3)
N1 0.0452(19) 0.0275(16) 0.0376(18) 0.0095(13) 0.0047(14) 0.0198(14)
N2 0.075(3) 0.0371(19) 0.0372(19) 0.0061(15) 0.0023(17) 0.0335(18)
N3 0.072(3) 0.042(2) 0.042(2) 0.0091(16) 0.0048(17) 0.0326(19)
N4 0.057(2) 0.047(2) 0.053(2) 0.0223(18) 0.0113(17) 0.0302(18)
C1 0.049(2) 0.025(2) 0.045(2) 0.0037(17) 0.0013(18) 0.0195(18)
C2 0.036(2) 0.0248(19) 0.044(2) 0.0078(16) 0.0060(16) 0.0149(16)
C3 0.035(2) 0.038(2) 0.049(2) 0.0144(18) 0.0100(17) 0.0159(18)
C4 0.047(2) 0.034(2) 0.047(2) 0.0090(18) 0.0070(18) 0.0177(18)
C5 0.055(3) 0.042(3) 0.068(3) 0.019(2) 0.013(2) 0.026(2)
C6 0.062(3) 0.050(3) 0.070(3) 0.038(2) 0.017(2) 0.030(2)
C7 0.053(3) 0.049(3) 0.047(2) 0.021(2) 0.0077(19) 0.026(2)
C8 0.051(3) 0.041(2) 0.051(3) 0.019(2) 0.013(2) 0.023(2)
C9 0.035(2) 0.034(2) 0.041(2) 0.0104(16) 0.0043(16) 0.0171(17)
C10 0.068(3) 0.037(2) 0.045(2) 0.0079(18) 0.010(2) 0.034(2)
C11 0.089(4) 0.052(3) 0.036(2) 0.001(2) 0.008(2) 0.035(3)
C12 0.064(3) 0.058(3) 0.039(2) 0.011(2) 0.003(2) 0.032(2)
C13 0.043(2) 0.032(2) 0.046(2) 0.0140(17) 0.0074(18) 0.0189(18)
C14 0.047(2) 0.032(2) 0.038(2) 0.0069(16) 0.0059(17) 0.0182(18)
loop_
_atom_type_symbol
_atom_type_description
_atom_type_scat_dispersion_real
_atom_type_scat_dispersion_imag
_atom_type_scat_source
C C 0.0033 0.0016 'International Tables Vol C Tables 4.2.6.8 and 6.1.1.4'
H H 0.0000 0.0000 'International Tables Vol C Tables 4.2.6.8 and 6.1.1.4'
N N 0.0061 0.0033 'International Tables Vol C Tables 4.2.6.8 and 6.1.1.4'
O O 0.0106 0.0060 'International Tables Vol C Tables 4.2.6.8 and 6.1.1.4'
Cl Cl 0.1484 0.1585 'International Tables Vol C Tables 4.2.6.8 and 6.1.1.4'
loop_
_geom_angle_atom_site_label_1
_geom_angle_atom_site_label_2
_geom_angle_atom_site_label_3
_geom_angle
N2 N1 C1 109.5(3)
N2 N1 C9 120.2(3)
C1 N1 C9 130.3(3)
N3 N2 N1 107.6(3)
N2 N3 C2 109.0(3)
O1 N4 O2 123.3(4)
O1 N4 C13 118.0(3)
O2 N4 C13 118.7(4)
C2 C1 N1 106.2(3)
C2 C1 H1 133(2)
N1 C1 H1 121(2)
C1 C2 N3 107.7(3)
C1 C2 C3 130.8(3)
N3 C2 C3 121.6(3)
C8 C3 C4 118.8(4)
C8 C3 C2 120.2(4)
C4 C3 C2 121.0(4)
C3 C4 C5 120.7(4)
C3 C4 H4 119.6
C5 C4 H4 119.6
C6 C5 C4 119.7(4)
C6 C5 H5 124(3)
C4 C5 H5 116(3)
C5 C6 C7 119.1(4)
C5 C6 H6 120.4
C7 C6 H6 120.4
C8 C7 C6 121.1(4)
C8 C7 Cl1 120.0(3)
C6 C7 Cl1 118.9(3)
C7 C8 C3 120.5(4)
C7 C8 H8 119.8
C3 C8 H8 119.8
C10 C9 C14 120.7(4)
C10 C9 N1 121.1(3)
C14 C9 N1 118.2(3)
C11 C10 C9 120.0(4)
C11 C10 H10 120.0
C9 C10 H10 120.0
C12 C11 C10 121.2(4)
C12 C11 H11 119.4
C10 C11 H11 119.4
C11 C12 C13 117.2(4)
C11 C12 H12 113(3)
C13 C12 H12 129(3)
C14 C13 C12 123.8(4)
C14 C13 N4 117.4(3)
C12 C13 N4 118.7(4)
C13 C14 C9 117.2(4)
C13 C14 H14 121.4
C9 C14 H14 121.4
loop_
_geom_bond_atom_site_label_1
_geom_bond_atom_site_label_2
_geom_bond_distance
Cl1 C7 1.740(4)
O1 N4 1.216(4)
O2 N4 1.224(4)
N1 N2 1.353(4)
N1 C1 1.355(5)
N1 C9 1.431(5)
N2 N3 1.305(5)
N3 C2 1.376(5)
N4 C13 1.484(5)
C1 C2 1.349(5)
C1 H1 0.98(4)
C2 C3 1.474(5)
C3 C8 1.379(6)
C3 C4 1.395(6)
C4 C5 1.396(6)
C4 H4 0.9300
C5 C6 1.373(7)
C5 H5 0.93(5)
C6 C7 1.399(6)
C6 H6 0.9300
C7 C8 1.367(6)
C8 H8 0.9300
C9 C10 1.379(5)
C9 C14 1.387(5)
C10 C11 1.375(6)
C10 H10 0.9300
C11 C12 1.374(7)
C11 H11 0.9300
C12 C13 1.379(6)
C12 H12 0.94(2)
C13 C14 1.373(5)
C14 H14 0.9300
loop_
_geom_hbond_atom_site_label_D
_geom_hbond_atom_site_label_H
_geom_hbond_atom_site_label_A
_geom_hbond_distance_DH
_geom_hbond_distance_HA
_geom_hbond_distance_DA
_geom_hbond_angle_DHA
_geom_hbond_site_symmetry_A
C5 H5 N2 0.93(5) 2.60(5) 3.470(6) 157(4) 1_565
C12 H12 O2 0.94(2) 2.52(3) 3.418(6) 161(4) 2_767
C1 H1 O1 0.98(4) 2.26(4) 3.235(5) 171(3) 1_565
loop_
_geom_torsion_atom_site_label_1
_geom_torsion_atom_site_label_2
_geom_torsion_atom_site_label_3
_geom_torsion_atom_site_label_4
_geom_torsion
C1 N1 N2 N3 -0.3(4)
C9 N1 N2 N3 178.8(3)
N1 N2 N3 C2 0.0(5)
N2 N1 C1 C2 0.5(4)
C9 N1 C1 C2 -178.5(4)
N1 C1 C2 N3 -0.5(4)
N1 C1 C2 C3 179.5(4)
N2 N3 C2 C1 0.3(5)
N2 N3 C2 C3 -179.7(3)
C1 C2 C3 C8 178.1(4)
N3 C2 C3 C8 -1.8(6)
C1 C2 C3 C4 -1.6(6)
N3 C2 C3 C4 178.5(4)
C8 C3 C4 C5 1.1(6)
C2 C3 C4 C5 -179.2(4)
C3 C4 C5 C6 -0.4(7)
C4 C5 C6 C7 -0.1(7)
C5 C6 C7 C8 -0.1(7)
C5 C6 C7 Cl1 179.8(3)
C6 C7 C8 C3 0.9(6)
Cl1 C7 C8 C3 -179.1(3)
C4 C3 C8 C7 -1.3(6)
C2 C3 C8 C7 179.0(4)
N2 N1 C9 C10 -174.5(4)
C1 N1 C9 C10 4.4(6)
N2 N1 C9 C14 5.2(5)
C1 N1 C9 C14 -175.9(4)
C14 C9 C10 C11 -0.3(6)
N1 C9 C10 C11 179.4(4)
C9 C10 C11 C12 0.0(7)
C10 C11 C12 C13 0.4(7)
C11 C12 C13 C14 -0.4(7)
C11 C12 C13 N4 -178.3(4)
O1 N4 C13 C14 -8.0(5)
O2 N4 C13 C14 171.7(4)
O1 N4 C13 C12 170.1(4)
O2 N4 C13 C12 -10.3(6)
C12 C13 C14 C9 0.1(6)
N4 C13 C14 C9 178.0(3)
C10 C9 C14 C13 0.3(6)
N1 C9 C14 C13 -179.4(3)
