#------------------------------------------------------------------------------
#$Date: 2016-03-26 19:34:25 +0200 (Sat, 26 Mar 2016) $
#$Revision: 180440 $
#$URL: svn://www.crystallography.net/cod/cif/7/21/09/7210967.cif $
#------------------------------------------------------------------------------
#
# This file is available in the Crystallography Open Database (COD),
# http://www.crystallography.net/
#
# All data on this site have been placed in the public domain by the
# contributors.
#
data_7210967
loop_
_publ_author_name
'Trzybi\'nski, Damian'
'Sikorski, Artur'
_publ_section_title
;
 Solvent-bridged frameworks of hydrogen bonds in crystals of
 9-aminoacridinium halides
;
_journal_issue                   34
_journal_name_full               CrystEngComm
_journal_page_first              6808
_journal_paper_doi               10.1039/c3ce41027g
_journal_volume                  15
_journal_year                    2013
_chemical_formula_moiety         'C13 H11 N2, C H4 O, Br'
_chemical_formula_sum            'C14 H15 Br N2 O'
_chemical_formula_weight         307.18
_chemical_name_systematic
;

?

;
_space_group_IT_number           2
_symmetry_cell_setting           triclinic
_symmetry_space_group_name_Hall  '-P 1'
_symmetry_space_group_name_H-M   'P -1'
_atom_sites_solution_hydrogens   geom
_atom_sites_solution_primary     direct
_atom_sites_solution_secondary   difmap
_audit_creation_method           SHELXL-97
_cell_angle_alpha                73.234(13)
_cell_angle_beta                 79.126(13)
_cell_angle_gamma                69.980(12)
_cell_formula_units_Z            2
_cell_length_a                   7.1357(9)
_cell_length_b                   9.8039(14)
_cell_length_c                   10.6502(17)
_cell_measurement_reflns_used    4485
_cell_measurement_temperature    295(2)
_cell_measurement_theta_max      25.50
_cell_measurement_theta_min      3.39
_cell_volume                     666.93(18)
_computing_cell_refinement
'CrysAlis RED,Version 1.171.32.15 (Oxford Diffraction Ltd., 2008)'
_computing_data_collection
'CrysAlis CCD,Version 1.171.32.15 (Oxford Diffraction Ltd., 2008)'
_computing_data_reduction
'CrysAlis RED,Version 1.171.32.15 (Oxford Diffraction Ltd., 2008)'
_computing_molecular_graphics    'ORTEPII (Johnson, 1976)'
_computing_structure_refinement  'SHELXL-97 (Sheldrick, 2008)'
_computing_structure_solution    'SHELXS-97 (Sheldrick, 2008)'
_diffrn_ambient_temperature      295(2)
_diffrn_detector_area_resol_mean 10.4002
_diffrn_measured_fraction_theta_full 0.998
_diffrn_measured_fraction_theta_max 0.998
_diffrn_measurement_device_type  'Oxford Diffraction Ruby CCD'
_diffrn_measurement_method       \w
_diffrn_radiation_monochromator  graphite
_diffrn_radiation_source         'fine-focus sealed tube'
_diffrn_radiation_type           MoK\a
_diffrn_radiation_wavelength     0.71073
_diffrn_reflns_av_R_equivalents  0.0567
_diffrn_reflns_av_sigmaI/netI    0.0876
_diffrn_reflns_limit_h_max       8
_diffrn_reflns_limit_h_min       -8
_diffrn_reflns_limit_k_max       9
_diffrn_reflns_limit_k_min       -11
_diffrn_reflns_limit_l_max       9
_diffrn_reflns_limit_l_min       -12
_diffrn_reflns_number            4485
_diffrn_reflns_theta_full        25.50
_diffrn_reflns_theta_max         25.50
_diffrn_reflns_theta_min         3.39
_exptl_absorpt_coefficient_mu    3.071
_exptl_absorpt_correction_T_max  0.799
_exptl_absorpt_correction_T_min  0.281
_exptl_absorpt_correction_type   multi-scan
_exptl_absorpt_process_details
;

CrysAlis RED, Version 1.171.32.15 (Oxford Diffraction Ltd.,

2008)

Empirical absorption correction using spherical harmonics,

implemented in SCALE3 ABSPACK scaling algorithm.

;
_exptl_crystal_colour            yellow
_exptl_crystal_density_diffrn    1.530
_exptl_crystal_density_method    'not measured'
_exptl_crystal_description       plate
_exptl_crystal_F_000             312
_exptl_crystal_size_max          0.55
_exptl_crystal_size_mid          0.35
_exptl_crystal_size_min          0.07
_refine_diff_density_max         0.366
_refine_diff_density_min         -0.425
_refine_diff_density_rms         0.083
_refine_ls_extinction_method     none
_refine_ls_goodness_of_fit_ref   0.991
_refine_ls_hydrogen_treatment    constr
_refine_ls_matrix_type           full
_refine_ls_number_parameters     164
_refine_ls_number_reflns         2466
_refine_ls_number_restraints     0
_refine_ls_restrained_S_all      0.991
_refine_ls_R_factor_all          0.0800
_refine_ls_R_factor_gt           0.0497
_refine_ls_shift/su_max          0.000
_refine_ls_shift/su_mean         0.000
_refine_ls_structure_factor_coef Fsqd
_refine_ls_weighting_details
'calc w=1/[\s^2^(Fo^2^)+(0.0370P)^2^+0.0000P] where P=(Fo^2^+2Fc^2^)/3'
_refine_ls_weighting_scheme      calc
_refine_ls_wR_factor_gt          0.0957
_refine_ls_wR_factor_ref         0.1086
_reflns_number_gt                1747
_reflns_number_total             2466
_reflns_threshold_expression     >2sigma(I)
_cod_data_source_file            c3ce41027g.txt
_cod_data_source_block           Global5
_cod_database_code               7210967
loop_
_symmetry_equiv_pos_as_xyz
'x, y, z'
'-x, -y, -z'
loop_
_atom_site_label
_atom_site_type_symbol
_atom_site_fract_x
_atom_site_fract_y
_atom_site_fract_z
_atom_site_U_iso_or_equiv
_atom_site_adp_type
_atom_site_occupancy
_atom_site_symmetry_multiplicity
_atom_site_calc_flag
_atom_site_refinement_flags
C1 C 0.6039(6) 0.8069(4) 0.2155(4) 0.0438(11) Uani 1 1 d .
H1 H 0.5288 0.8998 0.2312 0.053 Uiso 1 1 calc R
C2 C 0.6574(7) 0.7933(5) 0.0905(5) 0.0513(13) Uani 1 1 d .
H2 H 0.6211 0.8772 0.0210 0.062 Uiso 1 1 calc R
C3 C 0.7669(7) 0.6544(5) 0.0636(5) 0.0516(12) Uani 1 1 d .
H3 H 0.8001 0.6456 -0.0232 0.062 Uiso 1 1 calc R
C4 C 0.8249(6) 0.5319(5) 0.1652(5) 0.0450(12) Uani 1 1 d .
H4 H 0.8971 0.4394 0.1478 0.054 Uiso 1 1 calc R
C5 C 0.8741(6) 0.2943(5) 0.6209(5) 0.0473(12) Uani 1 1 d .
H5 H 0.9517 0.2062 0.5968 0.057 Uiso 1 1 calc R
C6 C 0.8319(7) 0.2977(5) 0.7492(5) 0.0541(13) Uani 1 1 d .
H6 H 0.8807 0.2106 0.8134 0.065 Uiso 1 1 calc R
C7 C 0.7175(7) 0.4277(5) 0.7880(5) 0.0528(13) Uani 1 1 d .
H7 H 0.6909 0.4273 0.8771 0.063 Uiso 1 1 calc R
C8 C 0.6438(6) 0.5564(5) 0.6947(4) 0.0434(11) Uani 1 1 d .
H8 H 0.5680 0.6435 0.7211 0.052 Uiso 1 1 calc R
C9 C 0.6056(5) 0.6915(4) 0.4571(4) 0.0334(10) Uani 1 1 d .
N10 N 0.8402(5) 0.4227(3) 0.3956(4) 0.0414(9) Uani 1 1 d .
H10 H 0.9101 0.3392 0.3762 0.050 Uiso 1 1 calc R
C11 C 0.6596(5) 0.6826(4) 0.3235(4) 0.0332(10) Uani 1 1 d .
C12 C 0.7762(6) 0.5454(4) 0.2946(4) 0.0356(10) Uani 1 1 d .
C13 C 0.6809(5) 0.5589(4) 0.5607(4) 0.0328(10) Uani 1 1 d .
C14 C 0.7991(6) 0.4261(4) 0.5236(4) 0.0360(10) Uani 1 1 d .
N15 N 0.4890(5) 0.8158(3) 0.4882(4) 0.0444(9) Uani 1 1 d .
H15A H 0.4436 0.8943 0.4270 0.053 Uiso 1 1 calc R
H15B H 0.4580 0.8188 0.5697 0.053 Uiso 1 1 calc R
Br16 Br 0.17674(7) 1.12770(5) 0.30304(5) 0.0547(2) Uani 1 1 d .
O17 O 0.2549(5) 0.8896(4) 0.7293(3) 0.0726(11) Uani 1 1 d .
H17 H 0.1468 0.8954 0.7088 0.109 Uiso 1 1 calc R
C18 C 0.2502(9) 0.8520(6) 0.8661(5) 0.0740(16) Uani 1 1 d .
H16C H 0.1992 0.7684 0.9026 0.111 Uiso 1 1 calc R
H16B H 0.1650 0.9359 0.8999 0.111 Uiso 1 1 calc R
H16A H 0.3833 0.8256 0.8902 0.111 Uiso 1 1 calc R
loop_
_atom_site_aniso_label
_atom_site_aniso_U_11
_atom_site_aniso_U_22
_atom_site_aniso_U_33
_atom_site_aniso_U_23
_atom_site_aniso_U_13
_atom_site_aniso_U_12
C1 0.045(3) 0.035(2) 0.040(3) -0.007(2) -0.003(2) -0.0001(19)
C2 0.056(3) 0.043(3) 0.040(3) -0.003(2) -0.001(2) -0.004(2)
C3 0.049(3) 0.058(3) 0.040(3) -0.015(2) 0.001(2) -0.007(2)
C4 0.040(2) 0.040(2) 0.049(3) -0.018(2) 0.007(2) -0.0044(19)
C5 0.041(3) 0.037(2) 0.056(3) -0.004(2) -0.009(2) -0.0070(19)
C6 0.053(3) 0.044(3) 0.054(3) 0.009(2) -0.018(3) -0.011(2)
C7 0.058(3) 0.057(3) 0.038(3) -0.001(2) -0.007(2) -0.018(2)
C8 0.044(2) 0.040(2) 0.044(3) -0.010(2) -0.004(2) -0.010(2)
C9 0.027(2) 0.029(2) 0.045(3) -0.0108(18) -0.0049(19) -0.0078(16)
N10 0.037(2) 0.0289(18) 0.050(3) -0.0113(17) -0.0026(18) 0.0007(15)
C11 0.029(2) 0.034(2) 0.033(3) -0.0096(18) 0.0015(19) -0.0057(17)
C12 0.026(2) 0.032(2) 0.042(3) -0.0077(19) 0.0021(19) -0.0042(16)
C13 0.027(2) 0.033(2) 0.038(3) -0.0071(18) -0.0025(19) -0.0108(17)
C14 0.029(2) 0.034(2) 0.042(3) -0.0058(19) -0.005(2) -0.0083(17)
N15 0.057(2) 0.0292(18) 0.037(2) -0.0071(15) -0.0040(18) -0.0016(16)
Br16 0.0498(3) 0.0388(3) 0.0632(4) -0.0134(2) -0.0082(2) 0.0038(2)
O17 0.062(2) 0.105(3) 0.052(2) -0.029(2) -0.0047(19) -0.020(2)
C18 0.091(4) 0.082(4) 0.055(4) -0.020(3) -0.008(3) -0.032(3)
loop_
_atom_type_symbol
_atom_type_description
_atom_type_scat_dispersion_real
_atom_type_scat_dispersion_imag
_atom_type_scat_source
C C 0.0033 0.0016 'International Tables Vol C Tables 4.2.6.8 and 6.1.1.4'
H H 0.0000 0.0000 'International Tables Vol C Tables 4.2.6.8 and 6.1.1.4'
N N 0.0061 0.0033 'International Tables Vol C Tables 4.2.6.8 and 6.1.1.4'
O O 0.0106 0.0060 'International Tables Vol C Tables 4.2.6.8 and 6.1.1.4'
Br Br -0.2901 2.4595 'International Tables Vol C Tables 4.2.6.8 and 6.1.1.4'
loop_
_geom_angle_atom_site_label_1
_geom_angle_atom_site_label_2
_geom_angle_atom_site_label_3
_geom_angle
C2 C1 C11 121.2(4)
C2 C1 H1 119.4
C11 C1 H1 119.4
C1 C2 C3 120.8(4)
C1 C2 H2 119.6
C3 C2 H2 119.6
C4 C3 C2 119.7(5)
C4 C3 H3 120.1
C2 C3 H3 120.1
C3 C4 C12 120.1(4)
C3 C4 H4 120.0
C12 C4 H4 120.0
C6 C5 C14 119.2(4)
C6 C5 H5 120.4
C14 C5 H5 120.4
C5 C6 C7 121.7(4)
C5 C6 H6 119.2
C7 C6 H6 119.2
C8 C7 C6 119.8(5)
C8 C7 H7 120.1
C6 C7 H7 120.1
C7 C8 C13 120.9(4)
C7 C8 H8 119.5
C13 C8 H8 119.5
N15 C9 C11 121.5(4)
N15 C9 C13 119.8(4)
C11 C9 C13 118.7(3)
C14 N10 C12 123.3(3)
C14 N10 H10 118.4
C12 N10 H10 118.4
C12 C11 C1 117.2(4)
C12 C11 C9 119.7(3)
C1 C11 C9 123.2(4)
N10 C12 C4 119.5(4)
N10 C12 C11 119.5(4)
C4 C12 C11 121.0(4)
C8 C13 C14 118.3(4)
C8 C13 C9 123.5(4)
C14 C13 C9 118.2(4)
N10 C14 C13 120.6(3)
N10 C14 C5 119.2(4)
C13 C14 C5 120.1(4)
C9 N15 H15A 120.0
C9 N15 H15B 120.0
H15A N15 H15B 120.0
C18 O17 H17 109.5
O17 C18 H16C 109.5
O17 C18 H16B 109.5
H16C C18 H16B 109.5
O17 C18 H16A 109.5
H16C C18 H16A 109.5
H16B C18 H16A 109.5
loop_
_geom_bond_atom_site_label_1
_geom_bond_atom_site_label_2
_geom_bond_distance
C1 C2 1.344(6)
C1 C11 1.412(5)
C1 H1 0.9300
C2 C3 1.400(6)
C2 H2 0.9300
C3 C4 1.363(6)
C3 H3 0.9300
C4 C12 1.386(6)
C4 H4 0.9300
C5 C6 1.348(7)
C5 C14 1.411(6)
C5 H5 0.9300
C6 C7 1.387(7)
C6 H6 0.9300
C7 C8 1.369(6)
C7 H7 0.9300
C8 C13 1.394(6)
C8 H8 0.9300
C9 N15 1.312(5)
C9 C11 1.419(6)
C9 C13 1.453(5)
N10 C14 1.345(5)
N10 C12 1.368(5)
N10 H10 0.8600
C11 C12 1.405(6)
C13 C14 1.408(6)
N15 H15A 0.8600
N15 H15B 0.8600
O17 C18 1.390(6)
O17 H17 0.8200
C18 H16C 0.9600
C18 H16B 0.9600
C18 H16A 0.9600
loop_
_geom_torsion_atom_site_label_1
_geom_torsion_atom_site_label_2
_geom_torsion_atom_site_label_3
_geom_torsion_atom_site_label_4
_geom_torsion
C11 C1 C2 C3 1.3(7)
C1 C2 C3 C4 -1.8(7)
C2 C3 C4 C12 -0.3(7)
C14 C5 C6 C7 -0.4(7)
C5 C6 C7 C8 0.3(7)
C6 C7 C8 C13 0.4(7)
C2 C1 C11 C12 1.2(6)
C2 C1 C11 C9 -179.6(4)
N15 C9 C11 C12 -176.7(4)
C13 C9 C11 C12 2.9(6)
N15 C9 C11 C1 4.1(6)
C13 C9 C11 C1 -176.3(4)
C14 N10 C12 C4 -179.9(4)
C14 N10 C12 C11 -0.7(6)
C3 C4 C12 N10 -178.1(4)
C3 C4 C12 C11 2.8(6)
C1 C11 C12 N10 177.7(4)
C9 C11 C12 N10 -1.6(6)
C1 C11 C12 C4 -3.2(6)
C9 C11 C12 C4 177.5(4)
C7 C8 C13 C14 -1.1(6)
C7 C8 C13 C9 179.5(4)
N15 C9 C13 C8 -3.0(6)
C11 C9 C13 C8 177.4(4)
N15 C9 C13 C14 177.6(4)
C11 C9 C13 C14 -2.0(5)
C12 N10 C14 C13 1.6(6)
C12 N10 C14 C5 -179.1(4)
C8 C13 C14 N10 -179.7(4)
C9 C13 C14 N10 -0.2(6)
C8 C13 C14 C5 1.0(6)
C9 C13 C14 C5 -179.5(4)
C6 C5 C14 N10 -179.6(4)
C6 C5 C14 C13 -0.3(6)
