#------------------------------------------------------------------------------
#$Date: 2016-03-26 19:34:25 +0200 (Sat, 26 Mar 2016) $
#$Revision: 180440 $
#$URL: svn://www.crystallography.net/cod/cif/7/21/09/7210912.cif $
#------------------------------------------------------------------------------
#
# This file is available in the Crystallography Open Database (COD),
# http://www.crystallography.net/
#
# All data on this site have been placed in the public domain by the
# contributors.
#
data_7210912
loop_
_publ_author_name
'Eccles, Kevin S.'
'Morrison, Robin E.'
'Daly, Carla A.'
'O'Mahony, Graham E.'
'Maguire, Anita R.'
'Lawrence, Simon E.'
_publ_section_title
;
 Co-crystallisation through halogen bonding with racemic or enantiopure
 sulfinamides
;
_journal_issue                   37
_journal_name_full               CrystEngComm
_journal_page_first              7571
_journal_paper_doi               10.1039/c3ce40932e
_journal_volume                  15
_journal_year                    2013
_chemical_absolute_configuration ad
_chemical_formula_moiety         'C7 H9 N O S'
_chemical_formula_sum            'C7 H9 N O S'
_chemical_formula_weight         155.21
_space_group_crystal_system      orthorhombic
_space_group_IT_number           19
_space_group_name_Hall           'P 2ac 2ab'
_space_group_name_H-M_alt        'P 21 21 21'
_symmetry_space_group_name_Hall  'P 2ac 2ab'
_symmetry_space_group_name_H-M   'P 21 21 21'
_atom_sites_solution_hydrogens   geom
_atom_sites_solution_primary     direct
_atom_sites_solution_secondary   difmap
_cell_angle_alpha                90
_cell_angle_beta                 90
_cell_angle_gamma                90
_cell_formula_units_Z            4
_cell_length_a                   4.9534(6)
_cell_length_b                   6.4415(8)
_cell_length_c                   24.643(3)
_cell_measurement_reflns_used    1519
_cell_measurement_temperature    296.(2)
_cell_measurement_theta_max      26.4641
_cell_measurement_theta_min      3.2689
_cell_volume                     786.29(17)
_computing_cell_refinement       'SAINT V7.68A (Bruker AXS, 2009)'
_computing_data_collection       'Bruker Instrument Service v2009, 3, 0, 0'
_computing_data_reduction        'SAINT V7.68A (Bruker AXS, 2009)'
_computing_molecular_graphics    'Mercury 3.0 (Macrae et al, 2008)'
_computing_structure_refinement  'SHELXL-97 (Sheldrick, 2008)'
_computing_structure_solution    'SHELXS-97 (Sheldrick, 2008)'
_diffrn_ambient_temperature      296.(2)
_diffrn_detector_area_resol_mean 8.3333
_diffrn_measured_fraction_theta_full 0.998
_diffrn_measured_fraction_theta_max 0.998
_diffrn_measurement_device_type  'Bruker APEX II DUO'
_diffrn_measurement_method       '\f & \w  scans'
_diffrn_radiation_monochromator  graphite
_diffrn_radiation_source         'fine-focus sealed tube'
_diffrn_radiation_type           MoK\a
_diffrn_radiation_wavelength     0.71073
_diffrn_reflns_av_R_equivalents  0.0295
_diffrn_reflns_av_sigmaI/netI    0.0357
_diffrn_reflns_limit_h_max       6
_diffrn_reflns_limit_h_min       -5
_diffrn_reflns_limit_k_max       8
_diffrn_reflns_limit_k_min       -7
_diffrn_reflns_limit_l_max       31
_diffrn_reflns_limit_l_min       -31
_diffrn_reflns_number            4800
_diffrn_reflns_theta_full        26.78
_diffrn_reflns_theta_max         26.78
_diffrn_reflns_theta_min         1.65
_exptl_absorpt_coefficient_mu    0.341
_exptl_absorpt_correction_T_max  0.7454
_exptl_absorpt_correction_T_min  0.6408
_exptl_absorpt_correction_type   multi-scan
_exptl_absorpt_process_details   'SADABS V2008/1 (Bruker AXS)'
_exptl_crystal_colour            colourless
_exptl_crystal_density_diffrn    1.311
_exptl_crystal_density_method    'not measured'
_exptl_crystal_description       Rod
_exptl_crystal_F_000             328
_exptl_crystal_size_max          0.200
_exptl_crystal_size_mid          0.100
_exptl_crystal_size_min          0.090
_refine_diff_density_max         0.286
_refine_diff_density_min         -0.163
_refine_ls_abs_structure_details 'Flack H D (1983), Acta Cryst. A39, 876-881'
_refine_ls_abs_structure_Flack   0.03(11)
_refine_ls_extinction_method     none
_refine_ls_goodness_of_fit_ref   1.156
_refine_ls_hydrogen_treatment    mixed
_refine_ls_matrix_type           full
_refine_ls_number_parameters     100
_refine_ls_number_reflns         1683
_refine_ls_number_restraints     1
_refine_ls_restrained_S_all      1.156
_refine_ls_R_factor_all          0.0442
_refine_ls_R_factor_gt           0.0361
_refine_ls_shift/su_max          0.004
_refine_ls_shift/su_mean         0.000
_refine_ls_structure_factor_coef Fsqd
_refine_ls_weighting_details
'calc w=1/[\s^2^(Fo^2^)+(0.0455P)^2^+0.0000P] where P=(Fo^2^+2Fc^2^)/3'
_refine_ls_weighting_scheme      calc
_refine_ls_wR_factor_gt          0.0860
_refine_ls_wR_factor_ref         0.0896
_reflns_number_gt                1495
_reflns_number_total             1683
_reflns_threshold_expression     >2sigma(I)
_iucr_refine_instructions_details
;
TITL mo_SEL_KE_Sulfinamide_S_EtOH_0 in P2(1)2(1)2(1)
CELL 0.71073   4.9534   6.4415  24.6429  90.000  90.000  90.000
ZERR    4.00   0.0006   0.0008   0.0032   0.000   0.000   0.000
LATT -1
SYMM 0.5-X, -Y, 0.5+Z
SYMM -X, 0.5+Y, 0.5-Z
SYMM 0.5+X, 0.5-Y, -Z
SFAC C  H  N  O  S
UNIT 28  36  4  4  4
L.S. 10
ACTA
BOND $H
FMAP 2
PLAN 20
HTAB
CONF
HTAB N9 O8_$2
HTAB N9 O8_$1
EQIV $2_[ -x-1, y+1/2, -z+3/2 ]
EQIV $1_[ -x, y+1/2, -z+3/2 ]
DFIX 0.86 0.02 N9 H9A
DFIX 0.76 0.02 N9 N9B
TEMP 23.000
WGHT    0.045500
FVAR       0.31512
MOLE 1
C1    1   -0.056415    0.124789    0.850974    11.00000    0.03050    0.03876 =
         0.03604    0.00380    0.00028   -0.00547
C2    1    0.047625   -0.070879    0.842866    11.00000    0.04969    0.03235 =
         0.04616    0.00106   -0.00662   -0.00230
AFIX  43
H2    2   -0.011759   -0.150606    0.813755    11.00000   -1.20000
AFIX   0
C3    1    0.241200   -0.149456    0.878099    11.00000    0.04851    0.03809 =
         0.05948    0.01040    0.00238    0.00387
AFIX  43
H3    2    0.310253   -0.281757    0.872130    11.00000   -1.20000
AFIX   0
C4    1    0.333255   -0.035624    0.921735    11.00000    0.03281    0.06106 =
         0.04408    0.01620    0.00024   -0.00438
C5    1    0.226078    0.162519    0.929362    11.00000    0.04683    0.06415 =
         0.04019   -0.00264   -0.00931   -0.00396
AFIX  43
H5    2    0.286474    0.242720    0.958300    11.00000   -1.20000
AFIX   0
C6    1    0.032263    0.242154    0.894881    11.00000    0.04134    0.04474 =
         0.04592   -0.00847   -0.00235    0.00279
AFIX  43
H6    2   -0.038717    0.373757    0.900988    11.00000   -1.20000
AFIX   0
S7    5   -0.323032    0.209479    0.807228    11.00000    0.02518    0.04345 =
         0.04241   -0.00025   -0.00286   -0.00470
O8    4   -0.279184    0.086763    0.756218    11.00000    0.04081    0.05145 =
         0.04702   -0.00912   -0.01126   -0.00510
H9A   2   -0.076772    0.474758    0.788251    11.00000    0.04056
H9B   2   -0.357804    0.520294    0.779940    11.00000    0.05697
N9    3   -0.229881    0.452597    0.801511    11.00000    0.03338    0.03929 =
         0.05550    0.00505   -0.00450    0.00230
C10   1    0.545948   -0.122505    0.959028    11.00000    0.04270    0.09162 =
         0.06304    0.03156   -0.00693   -0.00226
AFIX 137
H10A  2    0.535250   -0.271312    0.959085    11.00000   -1.50000
H10B  2    0.516910   -0.071316    0.995146    11.00000   -1.50000
H10C  2    0.721273   -0.080274    0.946628    11.00000   -1.50000
HKLF 4
 
REM  mo_SEL_KE_Sulfinamide_S_EtOH_0 in P2(1)2(1)2(1)
REM R1 =  0.0361 for   1495 Fo > 4sig(Fo)  and  0.0442 for all   1683 data
REM    100 parameters refined using      1 restraints
 
END  
     
WGHT      0.0477      0.0502 
REM Highest difference peak  0.286,  deepest hole -0.163,  1-sigma level  0.042
Q1    1  -0.1672  0.1704  0.8291  11.00000  0.05    0.29
Q2    1  -0.5008  0.2024  0.8151  11.00000  0.05    0.24
Q3    1  -0.3371  0.1674  0.7664  11.00000  0.05    0.21
Q4    1   0.1884  0.2129  0.8982  11.00000  0.05    0.18
Q5    1  -0.2767 -0.0255  0.7601  11.00000  0.05    0.16
Q6    1  -0.1395  0.0919  0.7409  11.00000  0.05    0.16
Q7    1  -0.1574  0.1558  0.7754  11.00000  0.05    0.15
Q8    1   0.0537  0.4311  0.8731  11.00000  0.05    0.15
Q9    1  -0.0840  0.0163  0.7668  11.00000  0.05    0.15
Q10   1   0.6767 -0.1920  0.9277  11.00000  0.05    0.15
Q11   1  -0.0186  0.1474  0.8869  11.00000  0.05    0.14
Q12   1   0.7037 -0.0505  0.9672  11.00000  0.05    0.14
Q13   1   0.0156  0.1823  0.8626  11.00000  0.05    0.13
Q14   1  -0.3270  0.0979  0.7317  11.00000  0.05    0.13
Q15   1  -0.1454  0.1579  0.8710  11.00000  0.05    0.13
Q16   1   0.0501  0.2040  0.9300  11.00000  0.05    0.13
Q17   1  -0.2006  0.4529  0.8472  11.00000  0.05    0.13
Q18   1  -0.3870  0.1568  0.7304  11.00000  0.05    0.12
Q19   1   0.0661 -0.1329  0.8746  11.00000  0.05    0.12
Q20   1  -0.0554  0.0044  0.8574  11.00000  0.05    0.12

;
_cod_data_source_file            c3ce40932e.txt
_cod_data_source_block           Compound_(S)2
_cod_database_code               7210912
loop_
_space_group_symop_operation_xyz
'x, y, z'
'-x+1/2, -y, z+1/2'
'-x, y+1/2, -z+1/2'
'x+1/2, -y+1/2, -z'
loop_
_atom_site_type_symbol
_atom_site_label
_atom_site_fract_x
_atom_site_fract_y
_atom_site_fract_z
_atom_site_U_iso_or_equiv
_atom_site_adp_type
_atom_site_calc_flag
_atom_site_refinement_flags
_atom_site_occupancy
C C1 -0.0564(5) 0.1248(3) 0.85097(8) 0.0351(5) Uani d . 1
C C2 0.0476(6) -0.0709(3) 0.84287(9) 0.0427(6) Uani d . 1
H H2 -0.0118 -0.1506 0.8138 0.051 Uiso calc R 1
C C3 0.2412(5) -0.1495(4) 0.87810(9) 0.0487(7) Uani d . 1
H H3 0.3103 -0.2818 0.8721 0.058 Uiso calc R 1
C C4 0.3333(6) -0.0356(4) 0.92174(9) 0.0460(6) Uani d . 1
C C5 0.2261(6) 0.1625(4) 0.92936(9) 0.0504(7) Uani d . 1
H H5 0.2865 0.2427 0.9583 0.06 Uiso calc R 1
C C6 0.0323(5) 0.2422(4) 0.89488(9) 0.0440(6) Uani d . 1
H H6 -0.0387 0.3738 0.901 0.053 Uiso calc R 1
S S7 -0.32303(12) 0.20948(9) 0.807228(19) 0.03701(17) Uani d . 1
O O8 -0.2792(4) 0.0868(2) 0.75622(6) 0.0464(4) Uani d . 1
H H9A -0.077(4) 0.475(4) 0.7883(9) 0.041(7) Uiso d D 1
H H9B -0.358(6) 0.520(4) 0.7799(10) 0.057(8) Uiso d . 1
N N9 -0.2299(4) 0.4526(3) 0.80151(9) 0.0427(5) Uani d D 1
C C10 0.5459(6) -0.1225(5) 0.95903(10) 0.0658(8) Uani d . 1
H H10A 0.5353 -0.2713 0.9591 0.099 Uiso calc R 1
H H10B 0.5169 -0.0713 0.9951 0.099 Uiso calc R 1
H H10C 0.7213 -0.0803 0.9466 0.099 Uiso calc R 1
loop_
_atom_site_aniso_label
_atom_site_aniso_U_11
_atom_site_aniso_U_22
_atom_site_aniso_U_33
_atom_site_aniso_U_12
_atom_site_aniso_U_13
_atom_site_aniso_U_23
C1 0.0305(12) 0.0388(11) 0.0360(10) -0.0055(10) 0.0003(9) 0.0038(9)
C2 0.0497(16) 0.0324(11) 0.0462(12) -0.0023(11) -0.0066(11) 0.0011(9)
C3 0.0485(18) 0.0381(12) 0.0595(13) 0.0039(11) 0.0024(11) 0.0104(10)
C4 0.0328(13) 0.0611(14) 0.0441(11) -0.0044(14) 0.0002(11) 0.0162(10)
C5 0.0468(17) 0.0642(17) 0.0402(11) -0.0040(13) -0.0093(10) -0.0026(10)
C6 0.0413(14) 0.0447(14) 0.0459(11) 0.0028(11) -0.0023(10) -0.0085(10)
S7 0.0252(3) 0.0434(3) 0.0424(3) -0.0047(3) -0.0029(2) -0.0002(2)
O8 0.0408(11) 0.0514(9) 0.0470(8) -0.0051(8) -0.0113(7) -0.0091(7)
N9 0.0334(12) 0.0393(10) 0.0555(12) 0.0023(9) -0.0045(9) 0.0051(9)
C10 0.0427(18) 0.092(2) 0.0630(15) -0.0023(17) -0.0069(13) 0.0316(15)
loop_
_atom_type_symbol
_atom_type_description
_atom_type_scat_dispersion_real
_atom_type_scat_dispersion_imag
_atom_type_scat_source
C C 0.0033 0.0016 'International Tables Vol C Tables 4.2.6.8 and 6.1.1.4'
H H 0.0000 0.0000 'International Tables Vol C Tables 4.2.6.8 and 6.1.1.4'
N N 0.0061 0.0033 'International Tables Vol C Tables 4.2.6.8 and 6.1.1.4'
O O 0.0106 0.0060 'International Tables Vol C Tables 4.2.6.8 and 6.1.1.4'
S S 0.1246 0.1234 'International Tables Vol C Tables 4.2.6.8 and 6.1.1.4'
loop_
_geom_angle_atom_site_label_1
_geom_angle_atom_site_label_2
_geom_angle_atom_site_label_3
_geom_angle
C2 C1 C6 119.5(2)
C2 C1 S7 117.90(17)
C6 C1 S7 122.40(18)
C1 C2 C3 120.1(2)
C1 C2 H2 120.0
C3 C2 H2 120.0
C4 C3 C2 121.5(2)
C4 C3 H3 119.3
C2 C3 H3 119.3
C3 C4 C5 117.8(2)
C3 C4 C10 120.6(2)
C5 C4 C10 121.6(2)
C6 C5 C4 121.4(2)
C6 C5 H5 119.3
C4 C5 H5 119.3
C5 C6 C1 119.8(2)
C5 C6 H6 120.1
C1 C6 H6 120.1
O8 S7 N9 112.99(10)
O8 S7 C1 103.72(10)
N9 S7 C1 97.78(11)
S7 N9 H9A 116.8(19)
S7 N9 H9B 107.7(17)
H9A N9 H9B 108.(2)
C4 C10 H10A 109.5
C4 C10 H10B 109.5
H10A C10 H10B 109.5
C4 C10 H10C 109.5
H10A C10 H10C 109.5
H10B C10 H10C 109.5
loop_
_geom_bond_atom_site_label_1
_geom_bond_atom_site_label_2
_geom_bond_distance
C1 C2 1.376(3)
C1 C6 1.391(3)
C1 S7 1.790(2)
C2 C3 1.389(3)
C2 H2 0.93
C3 C4 1.379(3)
C3 H3 0.93
C4 C5 1.395(4)
C4 C10 1.506(4)
C5 C6 1.381(3)
C5 H5 0.93
C6 H6 0.93
S7 O8 1.5007(15)
S7 N9 1.639(2)
N9 H9A 0.838(17)
N9 H9B 0.94(3)
C10 H10A 0.96
C10 H10B 0.96
C10 H10C 0.96
loop_
_geom_hbond_atom_site_label_D
_geom_hbond_atom_site_label_H
_geom_hbond_atom_site_label_A
_geom_hbond_site_symmetry_A
_geom_hbond_distance_DH
_geom_hbond_distance_HA
_geom_hbond_distance_DA
_geom_hbond_angle_DHA
N9 H9B O8 3_456 0.94(3) 2.05(3) 2.947(3) 160.(2)
N9 H9A O8 3_556 0.838(17) 2.198(17) 3.021(3) 168.(3)
loop_
_geom_torsion_atom_site_label_1
_geom_torsion_atom_site_label_2
_geom_torsion_atom_site_label_3
_geom_torsion_atom_site_label_4
_geom_torsion
C6 C1 C2 C3 -0.5(4)
S7 C1 C2 C3 -175.43(19)
C1 C2 C3 C4 0.2(4)
C2 C3 C4 C5 -0.2(4)
C2 C3 C4 C10 -179.2(2)
C3 C4 C5 C6 0.7(4)
C10 C4 C5 C6 179.6(3)
C4 C5 C6 C1 -1.0(4)
C2 C1 C6 C5 0.9(4)
S7 C1 C6 C5 175.61(19)
C2 C1 S7 O8 -26.4(2)
C6 C1 S7 O8 158.84(19)
C2 C1 S7 N9 -142.43(19)
C6 C1 S7 N9 42.8(2)
