#------------------------------------------------------------------------------
#$Date: 2016-02-16 03:10:39 +0200 (Tue, 16 Feb 2016) $
#$Revision: 176453 $
#$URL: svn://www.crystallography.net/cod/cif/7/21/07/7210748.cif $
#------------------------------------------------------------------------------
#
# This file is available in the Crystallography Open Database (COD),
# http://www.crystallography.net/
#
# All data on this site have been placed in the public domain by the
# contributors.
#
data_7210748
loop_
_publ_author_name
'Khavasi, Hamid Reza'
'Tehrani, Alireza Azhdari'
_publ_section_title
;
 Effect of halogen bonding interaction on supramolecular assembly of
 halogen-substituted phenylpyrazinamides
;
_journal_issue                   16
_journal_name_full               CrystEngComm
_journal_page_first              3222
_journal_paper_doi               10.1039/c3ce40093j
_journal_volume                  15
_journal_year                    2013
_chemical_formula_moiety         'C11 H8 F1 N3 O1'
_chemical_formula_sum            'C11 H8 F N3 O'
_chemical_formula_weight         217.20
_chemical_name_systematic
;
?
;
_space_group_IT_number           7
_symmetry_cell_setting           monoclinic
_symmetry_space_group_name_Hall  'P -2yc'
_symmetry_space_group_name_H-M   'P 1 c 1'
_atom_sites_solution_hydrogens   geom
_atom_sites_solution_primary     direct
_atom_sites_solution_secondary   difmap
_audit_creation_method           SHELXL-97
_cell_angle_alpha                90.00
_cell_angle_beta                 100.377(7)
_cell_angle_gamma                90.00
_cell_formula_units_Z            2
_cell_length_a                   11.7158(11)
_cell_length_b                   3.8018(4)
_cell_length_c                   10.9082(10)
_cell_measurement_reflns_used    3005
_cell_measurement_temperature    173(2)
_cell_measurement_theta_max      28.00
_cell_measurement_theta_min      3.54
_cell_volume                     477.92(8)
_computing_cell_refinement       'X-Area 1.31 (Stoe & Cie GmbH, 2005)'
_computing_data_collection       'X-Area 1.31 (Stoe & Cie GmbH, 2005)'
_computing_data_reduction        'X-Area 1.31 (Stoe & Cie GmbH, 2005)'
_computing_molecular_graphics    'ORTEP-3 for Windows (Farrugia, 1997)'
_computing_publication_material  'WinGX (Farrugia, 1999)'
_computing_structure_refinement  'SHELXL-97 (Sheldrick, 1997)'
_computing_structure_solution    'SHELXS-97 (Sheldrick, 1990)'
_diffrn_ambient_temperature      173(2)
_diffrn_detector_area_resol_mean '0.15 mm'
_diffrn_measured_fraction_theta_full 0.994
_diffrn_measured_fraction_theta_max 0.994
_diffrn_measurement_device_type  'STOE IPDS II'
_diffrn_measurement_method       'rotation method'
_diffrn_radiation_monochromator  graphite
_diffrn_radiation_source         'fine-focus sealed tube'
_diffrn_radiation_type           MoK\a
_diffrn_radiation_wavelength     0.71073
_diffrn_reflns_av_R_equivalents  0.0701
_diffrn_reflns_av_sigmaI/netI    0.0701
_diffrn_reflns_limit_h_max       15
_diffrn_reflns_limit_h_min       -14
_diffrn_reflns_limit_k_max       4
_diffrn_reflns_limit_k_min       -5
_diffrn_reflns_limit_l_max       14
_diffrn_reflns_limit_l_min       -14
_diffrn_reflns_number            3005
_diffrn_reflns_theta_full        27.99
_diffrn_reflns_theta_max         27.99
_diffrn_reflns_theta_min         3.54
_diffrn_standards_number         0
_exptl_absorpt_coefficient_mu    0.115
_exptl_absorpt_correction_T_max  0.990
_exptl_absorpt_correction_T_min  0.980
_exptl_absorpt_correction_type   numerical
_exptl_absorpt_process_details   'shape of crystal determined optically'
_exptl_crystal_colour            Colorless
_exptl_crystal_density_diffrn    1.509
_exptl_crystal_density_method    'not measured'
_exptl_crystal_description       Needle
_exptl_crystal_F_000             224
_exptl_crystal_size_max          0.32
_exptl_crystal_size_mid          0.11
_exptl_crystal_size_min          0.08
_refine_diff_density_max         0.208
_refine_diff_density_min         -0.210
_refine_diff_density_rms         0.052
_refine_ls_abs_structure_details 'Flack H D (1983), Acta Cryst. A39, 876-881'
_refine_ls_abs_structure_Flack   0.1(1)
_refine_ls_extinction_coef       0.063(8)
_refine_ls_extinction_expression Fc^*^=kFc[1+0.001xFc^2^\l^3^/sin(2\q)]^-1/4^
_refine_ls_extinction_method     SHELXL
_refine_ls_goodness_of_fit_ref   1.061
_refine_ls_hydrogen_treatment    constr
_refine_ls_matrix_type           full
_refine_ls_number_parameters     146
_refine_ls_number_reflns         1815
_refine_ls_number_restraints     2
_refine_ls_restrained_S_all      1.060
_refine_ls_R_factor_all          0.0907
_refine_ls_R_factor_gt           0.0584
_refine_ls_shift/su_max          0.001
_refine_ls_shift/su_mean         0.000
_refine_ls_structure_factor_coef Fsqd
_refine_ls_weighting_details
'calc w=1/[\s^2^(Fo^2^)+(0.0429P)^2^+0.0000P] where P=(Fo^2^+2Fc^2^)/3'
_refine_ls_weighting_scheme      calc
_refine_ls_wR_factor_gt          0.0973
_refine_ls_wR_factor_ref         0.1052
_reflns_number_gt                1314
_reflns_number_total             1815
_reflns_threshold_expression     >2sigma(I)
_cod_data_source_file            c3ce40093j.txt
_cod_data_source_block           d:\determination\solution\3-f\3-f
_cod_depositor_comments
;
The following automatic conversions were performed:

'_symmetry_cell_setting' value 'Monoclinic' changed to 'monoclinic'
according to /home/saulius/struct/CIF-dictionaries/cif_core.dic
dictionary named 'cif_core.dic' version 2.4.2 from 2011-04-26.

Automatic conversion script
Id: cif_fix_values 1891 2012-01-12 08:04:46Z andrius 
;
_cod_original_sg_symbol_H-M      pc
_cod_original_formula_sum        'C11 H8 F1 N3 O1'
_cod_database_code               7210748
loop_
_symmetry_equiv_pos_as_xyz
'x, y, z'
'x, -y, z+1/2'
loop_
_atom_site_label
_atom_site_type_symbol
_atom_site_fract_x
_atom_site_fract_y
_atom_site_fract_z
_atom_site_U_iso_or_equiv
_atom_site_adp_type
_atom_site_occupancy
_atom_site_symmetry_multiplicity
_atom_site_calc_flag
_atom_site_refinement_flags
C1 C -0.1164(3) -0.2277(13) 0.5782(3) 0.0319(10) Uani 1 1 d .
H1 H -0.1497 -0.2172 0.6493 0.038 Uiso 1 1 calc R
C2 C -0.1806(3) -0.3650(11) 0.4697(3) 0.0295(10) Uani 1 1 d .
H2 H -0.2555 -0.4444 0.4705 0.035 Uiso 1 1 calc R
C3 C -0.0298(3) -0.2662(12) 0.3707(3) 0.0295(10) Uani 1 1 d .
H3 H 0.0038 -0.2757 0.2998 0.035 Uiso 1 1 calc R
C4 C 0.0341(3) -0.1280(11) 0.4787(3) 0.0229(8) Uani 1 1 d .
C5 C 0.1549(3) 0.0041(11) 0.4791(3) 0.0228(8) Uani 1 1 d .
C6 C 0.3321(3) 0.1920(11) 0.6235(3) 0.0249(9) Uani 1 1 d .
C7 C 0.4127(3) 0.0907(10) 0.5512(3) 0.0236(8) Uani 1 1 d .
H7 H 0.3900 -0.0265 0.4759 0.028 Uiso 1 1 calc R
C8 C 0.5268(3) 0.1694(10) 0.5947(3) 0.0237(9) Uani 1 1 d .
C9 C 0.5658(3) 0.3469(11) 0.7030(3) 0.0276(10) Uani 1 1 d .
H9 H 0.6441 0.3967 0.7289 0.033 Uiso 1 1 calc R
C10 C 0.4839(3) 0.4498(11) 0.7729(3) 0.0286(9) Uani 1 1 d .
H10 H 0.5076 0.5719 0.8470 0.034 Uiso 1 1 calc R
C11 C 0.3683(3) 0.3747(10) 0.7346(3) 0.0253(9) Uani 1 1 d .
H11 H 0.3143 0.4452 0.7826 0.030 Uiso 1 1 calc R
N1 N -0.0088(3) -0.1103(10) 0.5837(3) 0.0282(8) Uani 1 1 d .
N2 N -0.1384(3) -0.3874(10) 0.3638(3) 0.0335(9) Uani 1 1 d .
N3 N 0.2136(2) 0.0923(8) 0.5924(2) 0.0265(8) Uani 1 1 d .
H3A H 0.1752 0.0877 0.6526 0.032 Uiso 1 1 calc R
O1 O 0.1926(2) 0.0224(8) 0.3817(2) 0.0341(7) Uani 1 1 d .
F1 F 0.60656(17) 0.0616(7) 0.52553(16) 0.0347(7) Uani 1 1 d .
loop_
_atom_site_aniso_label
_atom_site_aniso_U_11
_atom_site_aniso_U_22
_atom_site_aniso_U_33
_atom_site_aniso_U_23
_atom_site_aniso_U_13
_atom_site_aniso_U_12
C1 0.024(2) 0.047(3) 0.0274(19) 0.002(2) 0.0125(16) -0.002(2)
C2 0.0171(19) 0.038(3) 0.0335(19) 0.002(2) 0.0054(16) -0.0031(19)
C3 0.028(2) 0.037(3) 0.0243(17) -0.0014(18) 0.0055(15) 0.000(2)
C4 0.0220(19) 0.023(2) 0.0245(16) 0.0035(15) 0.0057(14) 0.0029(16)
C5 0.0208(18) 0.025(2) 0.0225(16) 0.0015(15) 0.0037(14) 0.0024(16)
C6 0.0190(18) 0.027(3) 0.0301(18) 0.0043(16) 0.0089(14) -0.0009(17)
C7 0.0261(18) 0.024(2) 0.0206(15) 0.0001(16) 0.0051(14) 0.0010(18)
C8 0.023(2) 0.024(2) 0.0252(18) 0.0058(16) 0.0062(16) 0.0033(17)
C9 0.024(2) 0.030(3) 0.0277(19) 0.0058(17) -0.0004(15) -0.0028(18)
C10 0.028(2) 0.031(3) 0.0261(17) 0.0039(18) 0.0019(16) -0.005(2)
C11 0.031(2) 0.026(2) 0.0200(16) 0.0016(15) 0.0063(14) -0.0013(17)
N1 0.0236(19) 0.034(2) 0.0278(15) 0.0010(14) 0.0059(13) -0.0020(16)
N2 0.0233(18) 0.043(2) 0.0349(18) -0.0032(16) 0.0055(14) -0.0017(17)
N3 0.0241(17) 0.035(2) 0.0231(14) -0.0014(14) 0.0105(12) -0.0022(15)
O1 0.0251(15) 0.052(2) 0.0251(12) 0.0009(13) 0.0051(11) -0.0058(14)
F1 0.0238(12) 0.0459(18) 0.0359(11) -0.0004(11) 0.0092(9) 0.0029(12)
loop_
_atom_type_symbol
_atom_type_description
_atom_type_scat_dispersion_real
_atom_type_scat_dispersion_imag
_atom_type_scat_source
C C 0.0033 0.0016 'International Tables Vol C Tables 4.2.6.8 and 6.1.1.4'
H H 0.0000 0.0000 'International Tables Vol C Tables 4.2.6.8 and 6.1.1.4'
N N 0.0061 0.0033 'International Tables Vol C Tables 4.2.6.8 and 6.1.1.4'
O O 0.0106 0.0060 'International Tables Vol C Tables 4.2.6.8 and 6.1.1.4'
F F 0.0171 0.0103 'International Tables Vol C Tables 4.2.6.8 and 6.1.1.4'
loop_
_geom_angle_atom_site_label_1
_geom_angle_atom_site_label_2
_geom_angle_atom_site_label_3
_geom_angle
N1 C1 C2 122.0(3)
N1 C1 H1 119.0
C2 C1 H1 119.0
N2 C2 C1 122.2(3)
N2 C2 H2 118.9
C1 C2 H2 118.9
N2 C3 C4 122.8(3)
N2 C3 H3 118.6
C4 C3 H3 118.6
N1 C4 C3 121.4(3)
N1 C4 C5 118.8(3)
C3 C4 C5 119.8(3)
O1 C5 N3 125.4(3)
O1 C5 C4 120.2(3)
N3 C5 C4 114.3(3)
C7 C6 C11 120.0(3)
C7 C6 N3 121.7(3)
C11 C6 N3 118.1(3)
C8 C7 C6 117.7(3)
C8 C7 H7 121.2
C6 C7 H7 121.2
F1 C8 C9 118.1(3)
F1 C8 C7 117.8(3)
C9 C8 C7 124.1(3)
C8 C9 C10 117.3(3)
C8 C9 H9 121.3
C10 C9 H9 121.3
C11 C10 C9 121.2(3)
C11 C10 H10 119.4
C9 C10 H10 119.4
C10 C11 C6 119.7(3)
C10 C11 H11 120.1
C6 C11 H11 120.1
C1 N1 C4 116.4(3)
C2 N2 C3 115.0(3)
C5 N3 C6 127.0(3)
C5 N3 H3A 116.5
C6 N3 H3A 116.5
loop_
_geom_bond_atom_site_label_1
_geom_bond_atom_site_label_2
_geom_bond_distance
C1 N1 1.328(5)
C1 C2 1.385(6)
C1 H1 0.9300
C2 N2 1.339(4)
C2 H2 0.9300
C3 N2 1.343(5)
C3 C4 1.380(5)
C3 H3 0.9300
C4 N1 1.334(4)
C4 C5 1.501(5)
C5 O1 1.224(3)
C5 N3 1.344(4)
C6 C7 1.390(4)
C6 C11 1.395(5)
C6 N3 1.420(5)
C7 C8 1.369(5)
C7 H7 0.9300
C8 F1 1.365(4)
C8 C9 1.366(5)
C9 C10 1.385(5)
C9 H9 0.9300
C10 C11 1.374(5)
C10 H10 0.9300
C11 H11 0.9300
N3 H3A 0.8600
loop_
_geom_torsion_atom_site_label_1
_geom_torsion_atom_site_label_2
_geom_torsion_atom_site_label_3
_geom_torsion_atom_site_label_4
_geom_torsion
N1 C1 C2 N2 -0.2(7)
N2 C3 C4 N1 0.7(6)
N2 C3 C4 C5 -179.7(4)
N1 C4 C5 O1 -173.1(4)
C3 C4 C5 O1 7.3(6)
N1 C4 C5 N3 7.4(5)
C3 C4 C5 N3 -172.3(4)
C11 C6 C7 C8 1.5(5)
N3 C6 C7 C8 -173.7(4)
C6 C7 C8 F1 178.2(3)
C6 C7 C8 C9 -1.4(5)
F1 C8 C9 C10 -179.1(4)
C7 C8 C9 C10 0.5(5)
C8 C9 C10 C11 0.2(6)
C9 C10 C11 C6 -0.1(6)
C7 C6 C11 C10 -0.8(6)
N3 C6 C11 C10 174.6(4)
C2 C1 N1 C4 0.7(6)
C3 C4 N1 C1 -1.0(6)
C5 C4 N1 C1 179.4(4)
C1 C2 N2 C3 -0.2(6)
C4 C3 N2 C2 -0.1(6)
O1 C5 N3 C6 -6.1(7)
C4 C5 N3 C6 173.5(4)
C7 C6 N3 C5 -24.0(6)
C11 C6 N3 C5 160.7(4)
