#------------------------------------------------------------------------------
#$Date: 2023-12-22 17:07:40 +0200 (Fri, 22 Dec 2023) $
#$Revision: 288505 $
#$URL: file:///home/coder/svn-repositories/cod/cif/7/21/06/7210610.cif $
#------------------------------------------------------------------------------
#
# This file is available in the Crystallography Open Database (COD),
# http://www.crystallography.net/
#
# All data on this site have been placed in the public domain by the
# contributors.
#
data_7210610
loop_
_publ_author_name
'Merkens, Carina'
'Pan, Fangfang'
'Englert, Ulli'
_publ_section_title
;
 3-(4-Pyridyl)-2,4-pentanedione -- a bridge between coordinative, halogen,
 and hydrogen bonds
;
_journal_issue                   40
_journal_name_full               CrystEngComm
_journal_page_first              8153
_journal_paper_doi               10.1039/c3ce41306c
_journal_volume                  15
_journal_year                    2013
_chemical_formula_moiety         'C10 H11 N O2, 0.5(C6 F4 I2)'
_chemical_formula_sum            'C13 H11 F2 I N O2'
_chemical_formula_weight         378.13
_chemical_name_common            HacacPy-TFDIB
_space_group_IT_number           2
_symmetry_cell_setting           triclinic
_symmetry_space_group_name_Hall  '-P 1'
_symmetry_space_group_name_H-M   'P -1'
_atom_sites_solution_hydrogens   geom
_atom_sites_solution_primary     direct
_atom_sites_solution_secondary   difmap
_audit_creation_method           SHELXL-97
_cell_angle_alpha                81.132(15)
_cell_angle_beta                 78.539(15)
_cell_angle_gamma                62.600(12)
_cell_formula_units_Z            2
_cell_length_a                   7.142(6)
_cell_length_b                   7.388(6)
_cell_length_c                   14.672(13)
_cell_measurement_reflns_used    1848
_cell_measurement_temperature    100(2)
_cell_measurement_theta_max      23.23
_cell_measurement_theta_min      2.84
_cell_volume                     671.9(10)
_computing_cell_refinement       'Bruker SAINT'
_computing_data_collection       'Bruker SMART'
_computing_data_reduction        'Bruker SAINT'
_computing_structure_refinement  'SHELXL-97 (Sheldrick, 1997)'
_computing_structure_solution    'SHELXS-97 (Sheldrick, 1990)'
_diffrn_ambient_temperature      100(2)
_diffrn_measured_fraction_theta_full 0.999
_diffrn_measured_fraction_theta_max 0.933
_diffrn_measurement_device_type  'CCD area detector'
_diffrn_measurement_method       'omega scans'
_diffrn_radiation_monochromator  graphite
_diffrn_radiation_source         microsource
_diffrn_radiation_type           MoK\a
_diffrn_radiation_wavelength     0.71073
_diffrn_reflns_av_R_equivalents  0.0935
_diffrn_reflns_av_sigmaI/netI    0.1070
_diffrn_reflns_limit_h_max       8
_diffrn_reflns_limit_h_min       -8
_diffrn_reflns_limit_k_max       9
_diffrn_reflns_limit_k_min       -9
_diffrn_reflns_limit_l_max       18
_diffrn_reflns_limit_l_min       -18
_diffrn_reflns_number            7608
_diffrn_reflns_theta_full        25.00
_diffrn_reflns_theta_max         27.26
_diffrn_reflns_theta_min         1.42
_exptl_absorpt_coefficient_mu    2.403
_exptl_absorpt_correction_T_max  0.9314
_exptl_absorpt_correction_T_min  0.5229
_exptl_absorpt_correction_type   multi-scan
_exptl_absorpt_process_details   SADABS
_exptl_crystal_colour            colorless
_exptl_crystal_density_diffrn    1.869
_exptl_crystal_density_method    'not measured'
_exptl_crystal_description       plate
_exptl_crystal_F_000             366
_exptl_crystal_size_max          0.31
_exptl_crystal_size_mid          0.12
_exptl_crystal_size_min          0.03
_refine_diff_density_max         1.848
_refine_diff_density_min         -1.687
_refine_diff_density_rms         0.205
_refine_ls_extinction_method     none
_refine_ls_goodness_of_fit_ref   0.955
_refine_ls_hydrogen_treatment    mixed
_refine_ls_matrix_type           full
_refine_ls_number_parameters     178
_refine_ls_number_reflns         2821
_refine_ls_number_restraints     1
_refine_ls_restrained_S_all      0.955
_refine_ls_R_factor_all          0.0811
_refine_ls_R_factor_gt           0.0550
_refine_ls_shift/su_max          0.000
_refine_ls_shift/su_mean         0.000
_refine_ls_structure_factor_coef Fsqd
_refine_ls_weighting_details
'calc w=1/[\s^2^(Fo^2^)+(0.0675P)^2^+0.0000P] where P=(Fo^2^+2Fc^2^)/3'
_refine_ls_weighting_scheme      calc
_refine_ls_wR_factor_gt          0.1243
_refine_ls_wR_factor_ref         0.1350
_reflns_number_gt                2079
_reflns_number_total             2821
_reflns_threshold_expression     >2sigma(I)
_iucr_refine_instructions_details
;
TITL c12_33 in P-1
CELL 0.71073 7.1425 7.3878 14.6716 81.1323 78.5386 62.6004
ZERR 2.00 0.0062 0.0064 0.0128 0.0149 0.0146 0.0123
LATT 1
SFAC C H N O F I
UNIT 26 22 2 4 4 2
TEMP -173.000
L.S. 8
BOND
SIZE 0.31 0.12 0.03
BOND$H
ACTA 50
FMAP 2
PLAN -20
WGHT 0.067500
FVAR 0.52889
MOLE 1
I1 6 0.771933 0.521367 0.421799 11.00000 0.02305 0.01818 =
0.05244 0.00305 -0.01076 -0.00649
F2 5 0.782727 0.281421 0.629028 11.00000 0.03362 0.02083 =
0.05093 -0.00106 -0.01195 -0.00370
F1 5 1.056230 0.112914 0.315117 11.00000 0.03510 0.03027 =
0.03760 0.00512 -0.00788 -0.00780
C11 1 0.916027 0.207735 0.470120 11.00000 0.01960 0.01749 =
0.05333 -0.00003 -0.01203 -0.00200
C12 1 0.889255 0.144816 0.563257 11.00000 0.02019 0.02061 =
0.04166 -0.00418 -0.00786 -0.00226
C13 1 1.027174 0.059972 0.407289 11.00000 0.02089 0.02940 =
0.04811 0.00152 -0.01075 -0.00808
MOLE 2
DFIX 0.90 O1 H1D
O1 4 0.686826 0.224709 0.921578 11.00000 0.03435 0.01806 =
0.05315 0.00354 -0.01286 -0.00374
H1D 2 0.550883 0.243303 0.936224 11.00000 0.06747
O2 4 0.296087 0.398783 0.957961 11.00000 0.03604 0.02572 =
0.04949 0.00077 -0.00494 -0.01218
N1 3 0.434639 1.081588 0.666987 11.00000 0.02466 0.01923 =
0.05464 -0.00269 -0.00649 -0.00817
C1 1 0.892806 0.371807 0.822581 11.00000 0.03136 0.02544 =
0.05462 0.00059 -0.01272 -0.00406
AFIX 137
H1A 2 0.980199 0.346427 0.871149 11.00000 -1.50000
H1B 2 0.875233 0.499938 0.786020 11.00000 -1.50000
H1C 2 0.963137 0.258868 0.781518 11.00000 -1.50000
AFIX 0
C2 1 0.679162 0.387338 0.866870 11.00000 0.02977 0.02539 =
0.04616 0.00060 -0.01187 -0.01011
C3 1 0.486802 0.555142 0.855801 11.00000 0.02953 0.01345 =
0.04208 -0.00196 -0.00855 -0.00544
C4 1 0.293088 0.554389 0.906753 11.00000 0.02654 0.02486 =
0.04597 -0.00477 -0.00733 -0.01083
C5 1 0.082939 0.737794 0.900339 11.00000 0.02411 0.03172 =
0.05342 0.00219 -0.01044 -0.00648
AFIX 137
H5A 2 -0.032406 0.703518 0.931753 11.00000 -1.50000
H5B 2 0.065813 0.780027 0.834641 11.00000 -1.50000
H5C 2 0.077890 0.849855 0.930425 11.00000 -1.50000
AFIX 0
C6 1 0.477880 0.737371 0.790507 11.00000 0.01474 0.01900 =
0.04801 0.00413 -0.01002 -0.00269
C7 1 0.477019 0.736826 0.697010 11.00000 0.03584 0.02207 =
0.04083 -0.00264 -0.00926 -0.01159
AFIX 43
H7 2 0.492365 0.618244 0.672456 11.00000 -1.20000
AFIX 0
C8 1 0.453555 0.910855 0.638375 11.00000 0.03626 0.02300 =
0.04489 -0.00215 -0.01158 -0.00826
AFIX 43
H8 2 0.450903 0.907442 0.574195 11.00000 -1.20000
AFIX 0
C9 1 0.443466 1.078564 0.757010 11.00000 0.03514 0.01976 =
0.04583 -0.00507 -0.00845 -0.01114
AFIX 43
H9 2 0.434839 1.197025 0.778937 11.00000 -1.20000
AFIX 0
C10 1 0.464620 0.912135 0.821289 11.00000 0.03896 0.02008 =
0.04925 -0.00353 -0.01475 -0.00886
AFIX 43
H10 2 0.469840 0.918363 0.884877 11.00000 -1.20000
HKLF 4
;
_cod_data_source_file            c3ce41306c.txt
_cod_data_source_block           1
_cod_depositor_comments
;
The following automatic conversions were performed:

data name '_iucr_refine_instruction_details' was replaced with
'_iucr_refine_instructions_details' as specified in the replacement
file 'data/replacement-values/replacement_tags.lst'.

Automatic conversion script
Id: cif_correct_tags 9268 2022-04-12 08:56:07Z antanas 
;
_cod_original_sg_symbol_H-M      P-1
_cod_database_code               7210610
loop_
_symmetry_equiv_pos_as_xyz
'x, y, z'
'-x, -y, -z'
loop_
_atom_site_label
_atom_site_type_symbol
_atom_site_fract_x
_atom_site_fract_y
_atom_site_fract_z
_atom_site_U_iso_or_equiv
_atom_site_adp_type
_atom_site_occupancy
_atom_site_symmetry_multiplicity
_atom_site_calc_flag
_atom_site_refinement_flags
I1 I 0.77193(7) 0.52137(7) 0.42180(4) 0.0321(2) Uani 1 1 d .
F2 F 0.7827(7) 0.2814(6) 0.6290(3) 0.0377(11) Uani 1 1 d .
F1 F 1.0562(7) 0.1129(6) 0.3151(3) 0.0375(10) Uani 1 1 d .
C11 C 0.9160(11) 0.2077(11) 0.4701(6) 0.0319(17) Uani 1 1 d .
C12 C 0.8893(11) 0.1448(11) 0.5633(5) 0.0294(16) Uani 1 1 d .
C13 C 1.0272(11) 0.0600(12) 0.4073(6) 0.0336(18) Uani 1 1 d .
O1 O 0.6868(9) 0.2247(8) 0.9216(4) 0.0380(13) Uani 1 1 d D
H1D H 0.551(6) 0.243(15) 0.936(6) 0.07(3) Uiso 1 1 d D
O2 O 0.2961(8) 0.3988(8) 0.9580(4) 0.0383(13) Uani 1 1 d .
N1 N 0.4346(9) 1.0816(9) 0.6670(5) 0.0333(15) Uani 1 1 d .
C1 C 0.8928(12) 0.3718(12) 0.8226(6) 0.0399(19) Uani 1 1 d .
H1A H 0.9802 0.3464 0.8711 0.060 Uiso 1 1 calc R
H1B H 0.8752 0.4999 0.7860 0.060 Uiso 1 1 calc R
H1C H 0.9631 0.2589 0.7815 0.060 Uiso 1 1 calc R
C2 C 0.6792(12) 0.3873(11) 0.8669(6) 0.0340(18) Uani 1 1 d .
C3 C 0.4868(11) 0.5551(10) 0.8558(5) 0.0295(16) Uani 1 1 d .
C4 C 0.2931(11) 0.5544(11) 0.9068(5) 0.0321(17) Uani 1 1 d .
C5 C 0.0829(12) 0.7378(12) 0.9003(6) 0.0386(19) Uani 1 1 d .
H5A H -0.0324 0.7035 0.9318 0.058 Uiso 1 1 calc R
H5B H 0.0658 0.7800 0.8346 0.058 Uiso 1 1 calc R
H5C H 0.0779 0.8499 0.9304 0.058 Uiso 1 1 calc R
C6 C 0.4779(10) 0.7374(10) 0.7905(5) 0.0291(17) Uani 1 1 d .
C7 C 0.4770(12) 0.7368(11) 0.6970(5) 0.0328(17) Uani 1 1 d .
H7 H 0.4924 0.6182 0.6725 0.039 Uiso 1 1 calc R
C8 C 0.4536(12) 0.9109(11) 0.6384(6) 0.0358(18) Uani 1 1 d .
H8 H 0.4509 0.9074 0.5742 0.043 Uiso 1 1 calc R
C9 C 0.4435(12) 1.0786(11) 0.7570(6) 0.0333(17) Uani 1 1 d .
H9 H 0.4348 1.1970 0.7789 0.040 Uiso 1 1 calc R
C10 C 0.4646(12) 0.9121(11) 0.8213(6) 0.0364(18) Uani 1 1 d .
H10 H 0.4698 0.9184 0.8849 0.044 Uiso 1 1 calc R
loop_
_atom_site_aniso_label
_atom_site_aniso_U_11
_atom_site_aniso_U_22
_atom_site_aniso_U_33
_atom_site_aniso_U_23
_atom_site_aniso_U_13
_atom_site_aniso_U_12
I1 0.0230(3) 0.0182(3) 0.0524(4) 0.0031(2) -0.0108(2) -0.00649(19)
F2 0.034(2) 0.021(2) 0.051(3) -0.001(2) -0.012(2) -0.0037(19)
F1 0.035(2) 0.030(2) 0.038(3) 0.0051(19) -0.0079(19) -0.008(2)
C11 0.020(4) 0.017(3) 0.053(5) 0.000(3) -0.012(3) -0.002(3)
C12 0.020(4) 0.021(4) 0.042(5) -0.004(3) -0.008(3) -0.002(3)
C13 0.021(4) 0.029(4) 0.048(5) 0.002(3) -0.011(3) -0.008(3)
O1 0.034(3) 0.018(3) 0.053(4) 0.004(2) -0.013(3) -0.004(2)
O2 0.036(3) 0.026(3) 0.049(4) 0.001(2) -0.005(3) -0.012(2)
N1 0.025(3) 0.019(3) 0.055(5) -0.003(3) -0.006(3) -0.008(3)
C1 0.031(4) 0.025(4) 0.055(5) 0.001(4) -0.013(4) -0.004(3)
C2 0.030(4) 0.025(4) 0.046(5) 0.001(3) -0.012(3) -0.010(3)
C3 0.030(4) 0.013(3) 0.042(5) -0.002(3) -0.009(3) -0.005(3)
C4 0.027(4) 0.025(4) 0.046(5) -0.005(3) -0.007(3) -0.011(3)
C5 0.024(4) 0.032(4) 0.053(5) 0.002(4) -0.010(4) -0.006(3)
C6 0.015(3) 0.019(3) 0.048(5) 0.004(3) -0.010(3) -0.003(3)
C7 0.036(4) 0.022(4) 0.041(5) -0.003(3) -0.009(3) -0.012(3)
C8 0.036(4) 0.023(4) 0.045(5) -0.002(3) -0.012(4) -0.008(3)
C9 0.035(4) 0.020(4) 0.046(5) -0.005(3) -0.008(3) -0.011(3)
C10 0.039(4) 0.020(4) 0.049(5) -0.004(3) -0.015(4) -0.009(3)
loop_
_atom_type_symbol
_atom_type_description
_atom_type_scat_dispersion_real
_atom_type_scat_dispersion_imag
_atom_type_scat_source
C C 0.0033 0.0016 'International Tables Vol C Tables 4.2.6.8 and 6.1.1.4'
H H 0.0000 0.0000 'International Tables Vol C Tables 4.2.6.8 and 6.1.1.4'
N N 0.0061 0.0033 'International Tables Vol C Tables 4.2.6.8 and 6.1.1.4'
O O 0.0106 0.0060 'International Tables Vol C Tables 4.2.6.8 and 6.1.1.4'
F F 0.0171 0.0103 'International Tables Vol C Tables 4.2.6.8 and 6.1.1.4'
I I -0.4742 1.8119 'International Tables Vol C Tables 4.2.6.8 and 6.1.1.4'
loop_
_geom_angle_atom_site_label_1
_geom_angle_atom_site_label_2
_geom_angle_atom_site_label_3
_geom_angle
_geom_angle_site_symmetry_1
_geom_angle_site_symmetry_3
C13 C11 C12 118.0(7) . .
C13 C11 I1 120.0(6) . .
C12 C11 I1 121.8(6) . .
F2 C12 C13 117.6(7) . 2_756
F2 C12 C11 121.3(6) . .
C13 C12 C11 121.1(7) 2_756 .
F1 C13 C11 120.5(7) . .
F1 C13 C12 118.6(7) . 2_756
C11 C13 C12 120.9(7) . 2_756
C2 O1 H1D 106(6) . .
C8 N1 C9 116.2(6) . .
C2 C1 H1A 109.5 . .
C2 C1 H1B 109.5 . .
H1A C1 H1B 109.5 . .
C2 C1 H1C 109.5 . .
H1A C1 H1C 109.5 . .
H1B C1 H1C 109.5 . .
O1 C2 C3 121.0(7) . .
O1 C2 C1 114.0(6) . .
C3 C2 C1 125.0(7) . .
C2 C3 C4 119.2(6) . .
C2 C3 C6 120.9(7) . .
C4 C3 C6 119.9(6) . .
O2 C4 C3 120.8(6) . .
O2 C4 C5 118.5(7) . .
C3 C4 C5 120.7(6) . .
C4 C5 H5A 109.5 . .
C4 C5 H5B 109.5 . .
H5A C5 H5B 109.5 . .
C4 C5 H5C 109.5 . .
H5A C5 H5C 109.5 . .
H5B C5 H5C 109.5 . .
C7 C6 C10 117.3(7) . .
C7 C6 C3 120.1(7) . .
C10 C6 C3 122.6(7) . .
C6 C7 C8 119.7(7) . .
C6 C7 H7 120.1 . .
C8 C7 H7 120.1 . .
N1 C8 C7 123.8(8) . .
N1 C8 H8 118.1 . .
C7 C8 H8 118.1 . .
N1 C9 C10 124.1(7) . .
N1 C9 H9 117.9 . .
C10 C9 H9 117.9 . .
C6 C10 C9 118.8(7) . .
C6 C10 H10 120.6 . .
C9 C10 H10 120.6 . .
loop_
_geom_bond_atom_site_label_1
_geom_bond_atom_site_label_2
_geom_bond_distance
_geom_bond_site_symmetry_2
I1 C11 2.126(7) .
F2 C12 1.353(9) .
F1 C13 1.351(9) .
C11 C13 1.376(11) .
C11 C12 1.379(11) .
C12 C13 1.379(10) 2_756
C13 C12 1.379(10) 2_756
O1 C2 1.323(9) .
O1 H1D 0.90(2) .
O2 C4 1.266(9) .
N1 C8 1.330(10) .
N1 C9 1.331(10) .
C1 C2 1.494(10) .
C1 H1A 0.9800 .
C1 H1B 0.9800 .
C1 H1C 0.9800 .
C2 C3 1.382(10) .
C3 C4 1.438(10) .
C3 C6 1.511(9) .
C4 C5 1.498(10) .
C5 H5A 0.9800 .
C5 H5B 0.9800 .
C5 H5C 0.9800 .
C6 C7 1.374(11) .
C6 C10 1.389(10) .
C7 C8 1.393(10) .
C7 H7 0.9500 .
C8 H8 0.9500 .
C9 C10 1.397(10) .
C9 H9 0.9500 .
C10 H10 0.9500 .
