#------------------------------------------------------------------------------
#$Date: 2016-03-26 19:21:41 +0200 (Sat, 26 Mar 2016) $
#$Revision: 180431 $
#$URL: svn://www.crystallography.net/cod/cif/7/21/00/7210074.cif $
#------------------------------------------------------------------------------
#
# This file is available in the Crystallography Open Database (COD),
# http://www.crystallography.net/
#
# All data on this site have been placed in the public domain by the
# contributors.
#
data_7210074
loop_
_publ_author_name
'Szafra\'nski, Marek'
'Jarek, Marcin'
_publ_section_title
;
 Origin of spontaneous polarization and reconstructive phase transition in
 guanidinium iodide
;
_journal_issue                   23
_journal_name_full               CrystEngComm
_journal_page_first              4617
_journal_paper_doi               10.1039/c3ce26979e
_journal_volume                  15
_journal_year                    2013
_chemical_formula_sum            'C H6 I N3'
_chemical_formula_weight         186.99
_chemical_melting_point          460(5)
_chemical_name_common            'guanidinium iodide'
_chemical_name_systematic
;
?
;
_space_group_IT_number           186
_symmetry_cell_setting           hexagonal
_symmetry_space_group_name_Hall  'P 6c -2c'
_symmetry_space_group_name_H-M   'P 63 m c'
_atom_sites_solution_hydrogens   geom
_atom_sites_solution_primary     direct
_atom_sites_solution_secondary   difmap
_audit_creation_method           SHELXL-97
_cell_angle_alpha                90.00
_cell_angle_beta                 90.00
_cell_angle_gamma                120.00
_cell_formula_units_Z            4
_cell_length_a                   7.21109(19)
_cell_length_b                   7.21109(19)
_cell_length_c                   12.4610(5)
_cell_measurement_temperature    340.0(1)
_cell_volume                     561.16(3)
_computing_structure_refinement  'SHELXL-97 (Sheldrick, 1997)'
_computing_structure_solution    'SHELXS-97 (Sheldrick, 1990)'
_diffrn_ambient_temperature      340.0(1)
_diffrn_measured_fraction_theta_full 0.983
_diffrn_measured_fraction_theta_max 0.983
_diffrn_measurement_device_type  'Gemini A Ultra'
_diffrn_radiation_monochromator  graphite
_diffrn_radiation_source         'fine-focus sealed tube'
_diffrn_radiation_type           MoK\a
_diffrn_radiation_wavelength     0.71073
_diffrn_reflns_av_R_equivalents  0.0232
_diffrn_reflns_av_sigmaI/netI    0.0106
_diffrn_reflns_limit_h_max       10
_diffrn_reflns_limit_h_min       -10
_diffrn_reflns_limit_k_max       10
_diffrn_reflns_limit_k_min       -10
_diffrn_reflns_limit_l_max       18
_diffrn_reflns_limit_l_min       -18
_diffrn_reflns_number            7972
_diffrn_reflns_theta_full        32.31
_diffrn_reflns_theta_max         32.31
_diffrn_reflns_theta_min         3.26
_exptl_absorpt_coefficient_mu    5.563
_exptl_absorpt_correction_T_max  1.00000
_exptl_absorpt_correction_T_min  0.78053
_exptl_absorpt_correction_type   multi-scan
_exptl_absorpt_process_details   'CrysalisPro (Oxford Diffraction 2010)'
_exptl_crystal_colour            colourless
_exptl_crystal_density_diffrn    2.213
_exptl_crystal_density_method    'not measured'
_exptl_crystal_F_000             344
_exptl_crystal_size_max          0.28
_exptl_crystal_size_mid          0.20
_exptl_crystal_size_min          0.20
_refine_diff_density_max         0.251
_refine_diff_density_min         -0.377
_refine_diff_density_rms         0.056
_refine_ls_abs_structure_details 'Flack H D (1983), Acta Cryst. A39, 876-881'
_refine_ls_abs_structure_Flack   -0.04(7)
_refine_ls_extinction_method     none
_refine_ls_goodness_of_fit_ref   1.183
_refine_ls_hydrogen_treatment    constr
_refine_ls_matrix_type           full
_refine_ls_number_parameters     28
_refine_ls_number_reflns         789
_refine_ls_number_restraints     1
_refine_ls_restrained_S_all      1.183
_refine_ls_R_factor_all          0.0254
_refine_ls_R_factor_gt           0.0206
_refine_ls_shift/su_max          0.000
_refine_ls_shift/su_mean         0.000
_refine_ls_structure_factor_coef Fsqd
_refine_ls_weighting_details
'calc w=1/[\s^2^(Fo^2^)+(0.0234P)^2^+0.0530P] where P=(Fo^2^+2Fc^2^)/3'
_refine_ls_weighting_scheme      calc
_refine_ls_wR_factor_gt          0.0479
_refine_ls_wR_factor_ref         0.0493
_reflns_number_gt                706
_reflns_number_total             789
_reflns_threshold_expression     >2sigma(I)
_cod_data_source_file            c3ce26979e.txt
_cod_data_source_block           ttgi_340d
_cod_original_sg_symbol_H-M      P6(3)mc
_cod_database_code               7210074
loop_
_symmetry_equiv_pos_as_xyz
'x, y, z'
'-y, x-y, z'
'-x+y, -x, z'
'-x, -y, z+1/2'
'y, -x+y, z+1/2'
'x-y, x, z+1/2'
'-y, -x, z'
'-x+y, y, z'
'x, x-y, z'
'y, x, z+1/2'
'x-y, -y, z+1/2'
'-x, -x+y, z+1/2'
loop_
_atom_site_label
_atom_site_type_symbol
_atom_site_fract_x
_atom_site_fract_y
_atom_site_fract_z
_atom_site_U_iso_or_equiv
_atom_site_adp_type
_atom_site_occupancy
_atom_site_symmetry_multiplicity
_atom_site_calc_flag
_atom_site_refinement_flags
I1 I 0.6667 0.3333 0.15872(6) 0.05232(11) Uani 1 6 d S
I2A I 0.0000 0.0000 0.3680(3) 0.0746(11) Uani 0.50 6 d SP
I2B I 0.0000 0.0000 0.3242(3) 0.0743(10) Uani 0.50 6 d SP
C1 C 0.3333 0.6667 -0.9135(6) 0.0527(14) Uani 1 6 d S
N2 N 0.1227(5) 0.5614(3) -0.6429(3) 0.0567(7) Uani 1 2 d S
H2A H 0.0539 0.6302 -0.6415 0.068 Uiso 0.50 1 calc PR
H2B H 0.0539 0.4237 -0.6436 0.068 Uiso 0.50 1 calc PR
N1 N 0.2277(3) 0.7723(3) -0.9136(3) 0.0710(10) Uani 1 2 d S
H1A H 0.0900 0.7035 -0.9139 0.085 Uiso 0.50 1 calc PR
H1B H 0.2965 0.9100 -0.9135 0.085 Uiso 0.50 1 calc PR
C2 C 0.3333 0.6667 -0.6439(5) 0.0441(12) Uani 1 6 d S
loop_
_atom_site_aniso_label
_atom_site_aniso_U_11
_atom_site_aniso_U_22
_atom_site_aniso_U_33
_atom_site_aniso_U_23
_atom_site_aniso_U_13
_atom_site_aniso_U_12
I1 0.04605(13) 0.04605(13) 0.06486(19) 0.000 0.000 0.02302(6)
I2A 0.0440(5) 0.0440(5) 0.136(3) 0.000 0.000 0.0220(3)
I2B 0.0386(4) 0.0386(4) 0.146(3) 0.000 0.000 0.0193(2)
C1 0.053(2) 0.053(2) 0.053(3) 0.000 0.000 0.0264(11)
N2 0.0401(15) 0.0466(12) 0.0812(19) -0.0015(9) -0.0030(17) 0.0200(7)
N1 0.0539(14) 0.0539(14) 0.112(3) 0.0052(9) -0.0052(9) 0.0317(17)
C2 0.0452(18) 0.0452(18) 0.042(3) 0.000 0.000 0.0226(9)
loop_
_atom_type_symbol
_atom_type_description
_atom_type_scat_dispersion_real
_atom_type_scat_dispersion_imag
_atom_type_scat_source
C C 0.0033 0.0016 'International Tables Vol C Tables 4.2.6.8 and 6.1.1.4'
H H 0.0000 0.0000 'International Tables Vol C Tables 4.2.6.8 and 6.1.1.4'
N N 0.0061 0.0033 'International Tables Vol C Tables 4.2.6.8 and 6.1.1.4'
I I -0.4742 1.8119 'International Tables Vol C Tables 4.2.6.8 and 6.1.1.4'
loop_
_geom_angle_atom_site_label_1
_geom_angle_atom_site_label_2
_geom_angle_atom_site_label_3
_geom_angle
_geom_angle_site_symmetry_1
_geom_angle_site_symmetry_3
N1 C1 N1 120.000(5) . 2_665
N1 C1 N1 120.000(5) . 3_565
N1 C1 N1 120.000(4) 2_665 3_565
N2 C2 N2 119.990(12) . 3_565
N2 C2 N2 119.990(13) . 2_665
N2 C2 N2 119.990(12) 3_565 2_665
loop_
_geom_bond_atom_site_label_1
_geom_bond_atom_site_label_2
_geom_bond_distance
_geom_bond_site_symmetry_2
I2A I2B 0.546(6) .
C1 N1 1.320(4) .
C1 N1 1.320(4) 2_665
C1 N1 1.320(4) 3_565
N2 C2 1.315(3) .
C2 N2 1.315(3) 3_565
C2 N2 1.315(3) 2_665
