#------------------------------------------------------------------------------
#$Date: 2016-03-26 20:42:49 +0200 (Sat, 26 Mar 2016) $
#$Revision: 180445 $
#$URL: svn://www.crystallography.net/cod/cif/7/21/14/7211482.cif $
#------------------------------------------------------------------------------
#
# This file is available in the Crystallography Open Database (COD),
# http://www.crystallography.net/
#
# All data on this site have been placed in the public domain by the
# contributors.
#
data_7211482
loop_
_publ_author_name
'Yoneyama, Shota'
'Kodama, Takeshi'
'Kikuchi, Koichi'
'Kawabata, Yohei'
'Kikuchi, Kentaro'
'Ono, Toshio'
'Hosokoshi, Yuko'
'Fujita, Wataru'
_publ_section_title
;
 Large structural transformation and ferromagnetic ordering in a
 coordination polymer with a two-dimensional square-planar lattice,
 bis(glycolato)copper(ii)
;
_journal_issue                   47
_journal_name_full               CrystEngComm
_journal_page_first              10193
_journal_paper_doi               10.1039/c3ce41806e
_journal_volume                  15
_journal_year                    2013
_chemical_formula_moiety         'C4 H6 Cu O6'
_chemical_formula_sum            'C4 H6 Cu O6'
_chemical_formula_weight         213.63
_space_group_IT_number           14
_symmetry_cell_setting           monoclinic
_symmetry_Int_Tables_number      14
_symmetry_space_group_name_Hall  '-P 2yn'
_symmetry_space_group_name_H-M   'P 1 21/n 1'
_atom_sites_solution_hydrogens   geom
_atom_sites_solution_primary     direct
_atom_sites_solution_secondary   difmap
_cell_angle_alpha                90.0000
_cell_angle_beta                 100.840(9)
_cell_angle_gamma                90.0000
_cell_formula_units_Z            2
_cell_length_a                   5.178(4)
_cell_length_b                   7.208(5)
_cell_length_c                   8.889(7)
_cell_measurement_reflns_used    710
_cell_measurement_temperature    150
_cell_measurement_theta_max      27.40
_cell_measurement_theta_min      3.70
_cell_volume                     325.8(4)
_computing_cell_refinement       'CrystalClear-SM Expert 2.0 r4'
_computing_data_collection
'CrystalClear-SM Expert 2.0 r4 (Rigaku, 2009)'
_computing_data_reduction        'CrystalClear-SM Expert 2.0 r4'
_computing_molecular_graphics    'CrystalStructure 4.0'
_computing_publication_material  'CrystalStructure 4.0 (Rigaku, 2010)'
_computing_structure_refinement  'SHELXL97 (Sheldrick, 2008)'
_computing_structure_solution    SIR97
_diffrn_ambient_temperature      150
_diffrn_detector_area_resol_mean 14.706
_diffrn_measured_fraction_theta_full 0.979
_diffrn_measured_fraction_theta_max 0.979
_diffrn_measurement_device_type  'Rigaku Mercury'
_diffrn_measurement_method       \w
_diffrn_radiation_type           'Mo K\a'
_diffrn_radiation_wavelength     0.71075
_diffrn_reflns_av_R_equivalents  0.0677
_diffrn_reflns_limit_h_max       6
_diffrn_reflns_limit_h_min       -6
_diffrn_reflns_limit_k_max       9
_diffrn_reflns_limit_k_min       -9
_diffrn_reflns_limit_l_max       11
_diffrn_reflns_limit_l_min       -9
_diffrn_reflns_number            2356
_diffrn_reflns_theta_full        27.42
_diffrn_reflns_theta_max         27.41
_diffrn_standards_number         0
_exptl_absorpt_coefficient_mu    3.330
_exptl_absorpt_correction_T_max  0.717
_exptl_absorpt_correction_T_min  0.520
_exptl_absorpt_correction_type   multi-scan
_exptl_absorpt_process_details   'REQAB (Rigaku, 1998)'
_exptl_crystal_colour            colorless
_exptl_crystal_density_diffrn    2.177
_exptl_crystal_density_method    'not measured'
_exptl_crystal_description       unknown
_exptl_crystal_F_000             214.00
_exptl_crystal_size_max          0.300
_exptl_crystal_size_mid          0.100
_exptl_crystal_size_min          0.100
_refine_diff_density_max         0.930
_refine_diff_density_min         -0.930
_refine_ls_extinction_method     none
_refine_ls_goodness_of_fit_ref   1.118
_refine_ls_hydrogen_treatment    refxyz
_refine_ls_number_parameters     64
_refine_ls_number_reflns         732
_refine_ls_number_restraints     0
_refine_ls_R_factor_gt           0.0457
_refine_ls_shift/su_max          0.000
_refine_ls_structure_factor_coef Fsqd
_refine_ls_weighting_details
'w = 1/[\s^2^(Fo^2^)+(0.0482P)^2^+0.0000P] where P=(Fo^2^+2Fc^2^)/3'
_refine_ls_weighting_scheme      calc
_refine_ls_wR_factor_ref         0.1166
_reflns_number_gt                530
_reflns_number_total             732
_reflns_threshold_expression     F^2^>2.0\s(F^2^)
_cod_data_source_file            c3ce41806e.txt
_cod_data_source_block           130704_150k
_cod_original_cell_volume        325.8(5)
_cod_database_code               7211482
loop_
_symmetry_equiv_pos_site_id
_symmetry_equiv_pos_as_xyz
1 +X,+Y,+Z
2 1/2-X,1/2+Y,1/2-Z
3 -X,-Y,-Z
4 1/2+X,1/2-Y,1/2+Z
loop_
_atom_site_label
_atom_site_type_symbol
_atom_site_fract_x
_atom_site_fract_y
_atom_site_fract_z
_atom_site_U_iso_or_equiv
_atom_site_adp_type
_atom_site_occupancy
_atom_site_symmetry_multiplicity
_atom_site_calc_flag
Cu1 Cu 0.0000 0.0000 0.0000 0.0161(4) Uani 1.0 2 d
O2 O 0.2316(8) -0.2071(6) -0.0277(4) 0.0191(9) Uani 1.0 4 d
O3 O -0.0643(7) -0.1474(5) 0.1711(4) 0.0193(9) Uani 1.0 4 d
O4 O 0.1224(7) -0.3611(5) 0.3341(4) 0.0198(8) Uani 1.0 4 d
C5 C 0.1060(10) -0.2714(7) 0.2125(5) 0.0154(11) Uani 1.0 4 d
C6 C 0.3015(12) -0.3136(9) 0.1098(7) 0.0203(12) Uani 1.0 4 d
H7 H 0.284(11) -0.443(8) 0.082(6) 0.016(14) Uiso 1.0 4 d
H8 H 0.432(11) -0.261(8) 0.160(6) 0.012(15) Uiso 1.0 4 d
H9 H 0.362(12) -0.195(8) -0.058(7) 0.021(16) Uiso 1.0 4 d
loop_
_atom_site_aniso_label
_atom_site_aniso_U_11
_atom_site_aniso_U_22
_atom_site_aniso_U_33
_atom_site_aniso_U_12
_atom_site_aniso_U_13
_atom_site_aniso_U_23
Cu1 0.0166(6) 0.0185(5) 0.0157(6) 0.0018(4) 0.0091(4) 0.0024(4)
O2 0.018(2) 0.024(2) 0.0179(19) 0.0052(16) 0.0115(16) 0.0047(15)
O3 0.018(2) 0.022(2) 0.020(2) 0.0023(16) 0.0097(15) 0.0021(16)
O4 0.019(2) 0.025(2) 0.0173(19) 0.0050(16) 0.0071(15) 0.0083(16)
C5 0.010(3) 0.025(3) 0.012(3) -0.001(2) 0.0041(19) -0.003(3)
C6 0.019(3) 0.024(3) 0.021(3) 0.006(3) 0.011(3) 0.006(3)
loop_
_atom_type_symbol
_atom_type_description
_atom_type_scat_dispersion_real
_atom_type_scat_dispersion_imag
_atom_type_scat_source
C C 0.0033 0.0016
;
International Tables for Crystallography
(1992, Vol. C, Tables 4.2.6.8 and 6.1.1.4)
;
H H 0.0000 0.0000
;
International Tables for Crystallography
(1992, Vol. C, Table 6.1.1.4)
;
Cu Cu 0.3201 1.2651
;
International Tables for Crystallography
(1992, Vol. C, Tables 4.2.6.8 and 6.1.1.4)
;
O O 0.0106 0.0060
;
International Tables for Crystallography
(1992, Vol. C, Tables 4.2.6.8 and 6.1.1.4)
;
loop_
_geom_angle_atom_site_label_1
_geom_angle_atom_site_label_2
_geom_angle_atom_site_label_3
_geom_angle
_geom_angle_publ_flag
_geom_angle_site_symmetry_1
_geom_angle_site_symmetry_3
O2 Cu1 O2 180.0(2) yes . 3_555
O2 Cu1 O3 83.12(16) yes . .
O2 Cu1 O3 96.88(16) yes . 3_555
O2 Cu1 O3 96.88(16) yes 3_555 .
O2 Cu1 O3 83.12(16) yes 3_555 3_555
O3 Cu1 O3 180.0(2) yes . 3_555
Cu1 O2 C6 111.3(4) yes . .
Cu1 O3 C5 113.9(4) yes . .
O3 C5 O4 123.4(5) yes . .
O3 C5 C6 118.4(5) yes . .
O4 C5 C6 118.2(5) yes . .
O2 C6 C5 108.4(5) yes . .
Cu1 O2 H9 123(5) no . .
C6 O2 H9 105(4) no . .
O2 C6 H7 108(3) no . .
O2 C6 H8 105(4) no . .
C5 C6 H7 108(4) no . .
C5 C6 H8 99(4) no . .
H7 C6 H8 127(5) no . .
loop_
_geom_bond_atom_site_label_1
_geom_bond_atom_site_label_2
_geom_bond_distance
_geom_bond_publ_flag
_geom_bond_site_symmetry_2
Cu1 O2 1.959(4) yes .
Cu1 O2 1.959(4) yes 3_555
Cu1 O3 1.934(4) yes .
Cu1 O3 1.934(4) yes 3_555
O2 C6 1.431(7) yes .
O3 C5 1.261(6) yes .
O4 C5 1.248(6) yes .
C5 C6 1.516(9) yes .
O2 H9 0.78(7) no .
C6 H7 0.97(6) no .
C6 H8 0.83(5) no .
loop_
_geom_contact_atom_site_label_1
_geom_contact_atom_site_label_2
_geom_contact_distance
_geom_contact_publ_flag
_geom_contact_site_symmetry_2
Cu1 C5 2.703(5) no 3_555
Cu1 C6 2.815(6) no 3_555
O2 O4 3.547(6) no .
Cu1 O4 2.432(4) no 2_555
Cu1 O4 2.432(4) no 4_444
Cu1 C5 3.383(5) no 2_555
Cu1 C5 3.383(5) no 4_444
O2 O3 3.233(6) no 4_544
O2 O4 3.044(6) no 2_555
O2 O4 3.200(6) no 4_444
O2 O4 2.604(6) no 4_544
O2 C5 3.286(7) no 4_544
O2 C6 3.558(7) no 4_444
O3 O2 3.233(6) no 4_445
O3 O4 3.544(6) no 2_455
O3 O4 3.088(6) no 2_555
O3 O4 3.127(5) no 4_444
O3 C6 3.441(8) no 1_455
O3 C6 3.231(7) no 2_555
O4 Cu1 2.432(4) no 2_545
O4 O2 3.044(6) no 2_545
O4 O2 2.604(6) no 4_445
O4 O2 3.200(6) no 4_545
O4 O3 3.544(6) no 2_445
O4 O3 3.088(6) no 2_545
O4 O3 3.127(5) no 4_545
O4 C5 3.334(7) no 2_545
O4 C6 3.311(8) no 2_545
O4 C6 3.448(8) no 4_445
C5 Cu1 3.383(5) no 2_545
C5 O2 3.286(7) no 4_445
C5 O4 3.334(7) no 2_555
C6 O2 3.558(7) no 4_545
C6 O3 3.441(8) no 1_655
C6 O3 3.231(7) no 2_545
C6 O4 3.311(8) no 2_555
C6 O4 3.448(8) no 4_544
Cu1 H7 3.54(6) no .
Cu1 H7 3.54(6) no 3_555
Cu1 H8 3.06(5) no .
Cu1 H8 3.06(5) no 3_555
Cu1 H9 2.47(6) no 3_555
O3 H7 2.99(6) no .
O3 H8 2.72(6) no .
O3 H9 3.29(7) no .
O3 H9 2.98(6) no 3_555
O4 H7 2.60(6) no .
O4 H8 2.53(6) no .
C5 H9 3.01(6) no .
H7 H9 2.26(8) no .
H8 H9 1.96(8) no .
Cu1 H8 3.44(5) no 2_555
Cu1 H8 3.44(5) no 4_444
Cu1 H9 3.54(6) no 1_455
Cu1 H9 3.54(6) no 3_655
O2 H8 2.92(5) no 4_444
O2 H9 3.58(6) no 3_655
O3 H7 2.81(5) no 2_555
O3 H8 2.72(6) no 1_455
O3 H8 3.17(6) no 2_555
O3 H9 3.29(6) no 1_455
O3 H9 2.75(6) no 4_445
O4 H7 3.12(6) no 2_555
O4 H8 2.90(6) no 2_545
O4 H8 3.35(6) no 4_445
O4 H9 3.11(6) no 2_545
O4 H9 1.84(7) no 4_445
C5 H7 2.98(6) no 2_555
C5 H8 3.43(6) no 1_455
C5 H9 2.60(7) no 4_445
C6 H7 3.46(6) no 3_645
H7 O3 2.81(5) no 2_545
H7 O4 3.12(6) no 2_545
H7 C5 2.98(6) no 2_545
H7 C6 3.46(6) no 3_645
H7 H7 3.14(7) no 3_545
H7 H7 3.01(8) no 3_645
H7 H8 3.57(8) no 2_545
H7 H8 3.54(8) no 3_645
H7 H9 3.22(8) no 3_645
H8 Cu1 3.44(5) no 2_545
H8 O2 2.92(5) no 4_545
H8 O3 2.72(6) no 1_655
H8 O3 3.17(6) no 2_545
H8 O4 2.90(6) no 2_555
H8 O4 3.35(6) no 4_544
H8 C5 3.43(6) no 1_655
H8 H7 3.57(8) no 2_555
H8 H7 3.54(8) no 3_645
H8 H9 3.04(7) no 4_545
H9 Cu1 3.54(6) no 1_655
H9 O2 3.58(6) no 3_655
H9 O3 3.29(6) no 1_655
H9 O3 2.75(6) no 4_544
H9 O4 3.11(6) no 2_555
H9 O4 1.84(7) no 4_544
H9 C5 2.60(7) no 4_544
H9 H7 3.22(8) no 3_645
H9 H8 3.04(7) no 4_444
H9 H9 3.23(8) no 3_655
loop_
_geom_hbond_atom_site_label_D
_geom_hbond_atom_site_label_H
_geom_hbond_atom_site_label_A
_geom_hbond_site_symmetry_A
_geom_hbond_distance_DA
_geom_hbond_distance_DH
_geom_hbond_distance_HA
_geom_hbond_angle_DHA
_geom_hbond_publ_flag
O2 H9 O4 4_544 2.604(6) 0.779 1.84(7) 167(6) no
loop_
_geom_torsion_atom_site_label_1
_geom_torsion_atom_site_label_2
_geom_torsion_atom_site_label_3
_geom_torsion_atom_site_label_4
_geom_torsion
_geom_torsion_publ_flag
_geom_torsion_site_symmetry_1
_geom_torsion_site_symmetry_3
_geom_torsion_site_symmetry_4
O2 Cu1 O3 C5 17.5(3) no . . .
O3 Cu1 O2 C6 -20.0(2) no . . .
O2 Cu1 O3 C5 162.5(3) no . 3_555 3_555
O3 Cu1 O2 C6 160.0(2) no 3_555 . .
O2 Cu1 O3 C5 -162.5(3) no 3_555 . .
O3 Cu1 O2 C6 -160.0(2) no . 3_555 3_555
O2 Cu1 O3 C5 -17.5(3) no 3_555 3_555 3_555
O3 Cu1 O2 C6 20.0(2) no 3_555 3_555 3_555
Cu1 O2 C6 C5 18.6(5) no . . .
Cu1 O3 C5 O4 168.5(4) no . . .
Cu1 O3 C5 C6 -11.2(5) no . . .
O3 C5 C6 O2 -5.2(6) no . . .
O4 C5 C6 O2 175.0(4) no . . .
