#------------------------------------------------------------------------------
#$Date: 2016-03-26 20:49:26 +0200 (Sat, 26 Mar 2016) $
#$Revision: 180450 $
#$URL: svn://www.crystallography.net/cod/cif/7/21/19/7211934.cif $
#------------------------------------------------------------------------------
#
# This file is available in the Crystallography Open Database (COD),
# http://www.crystallography.net/
#
# All data on this site have been placed in the public domain by the
# contributors.
#
data_7211934
loop_
_publ_author_name
'Callear, Samantha K.'
'Hursthouse, Michael B.'
'Threlfall, Terence L.'
_publ_section_title
;
 A systematic study of the crystallisation products of a series of
 dicarboxylic acids with imidazole derivatives
;
_journal_issue                   3
_journal_name_full               CrystEngComm
_journal_page_first              898
_journal_paper_doi               10.1039/b917191f
_journal_volume                  12
_journal_year                    2010
_chemical_formula_sum            'C8 H10 N2 O4'
_chemical_formula_weight         198.18
_chemical_name_common            'fumaric acid & 2-methylimidazole'
_chemical_name_systematic
;
fumaric acid & 2-methylimidazole
;
_space_group_IT_number           11
_symmetry_cell_setting           monoclinic
_symmetry_space_group_name_Hall  '-P 2yb'
_symmetry_space_group_name_H-M   'P 1 21/m 1'
_atom_sites_solution_hydrogens   geom
_atom_sites_solution_primary     direct
_atom_sites_solution_secondary   difmap
_audit_creation_method           SHELXL-97
_cell_angle_alpha                90.00
_cell_angle_beta                 97.551(4)
_cell_angle_gamma                90.00
_cell_formula_units_Z            2
_cell_length_a                   8.0829(5)
_cell_length_b                   6.2852(4)
_cell_length_c                   9.0979(6)
_cell_measurement_reflns_used    1544
_cell_measurement_temperature    120(2)
_cell_measurement_theta_max      27.48
_cell_measurement_theta_min      2.91
_cell_volume                     458.19(5)
_computing_cell_refinement
'DENZO (Otwinowski & Minor, 1997) & COLLECT (Hooft, R.W.W., 1998)'
_computing_data_collection       'COLLECT (Hooft, R.W.W., 1998)'
_computing_data_reduction
'DENZO (Otwinowski & Minor, 1997) & COLLECT (Hooft, R.W.W., 1998)'
_computing_structure_refinement  'SHELXL-97 (Sheldrick, 1997)'
_diffrn_ambient_temperature      120(2)
_diffrn_detector_area_resol_mean 9.091
_diffrn_measured_fraction_theta_full 0.988
_diffrn_measured_fraction_theta_max 0.988
_diffrn_measurement_device_type
'Bruker-Nonius 95mm CCD camera on \k-goniostat'
_diffrn_measurement_method       '\f & \w scans'
_diffrn_radiation_monochromator  '10cm confocal mirrors'
_diffrn_radiation_source         'Bruker-Nonius FR591 rotating anode'
_diffrn_radiation_type           MoK\a
_diffrn_radiation_wavelength     0.71073
_diffrn_reflns_av_R_equivalents  0.0813
_diffrn_reflns_av_sigmaI/netI    0.0716
_diffrn_reflns_limit_h_max       10
_diffrn_reflns_limit_h_min       -10
_diffrn_reflns_limit_k_max       7
_diffrn_reflns_limit_k_min       -8
_diffrn_reflns_limit_l_max       11
_diffrn_reflns_limit_l_min       -10
_diffrn_reflns_number            4633
_diffrn_reflns_theta_full        27.48
_diffrn_reflns_theta_max         27.48
_diffrn_reflns_theta_min         3.62
_exptl_absorpt_coefficient_mu    0.117
_exptl_absorpt_correction_T_max  0.9988
_exptl_absorpt_correction_T_min  0.9873
_exptl_absorpt_correction_type   multi-scan
_exptl_absorpt_process_details   'SADABS V2.10 (Sheldrick, G.M., 2003)'
_exptl_crystal_colour            colourless
_exptl_crystal_density_diffrn    1.436
_exptl_crystal_density_method    'not measured'
_exptl_crystal_description       plate
_exptl_crystal_F_000             208
_exptl_crystal_size_max          0.11
_exptl_crystal_size_mid          0.04
_exptl_crystal_size_min          0.01
_refine_diff_density_max         0.419
_refine_diff_density_min         -0.369
_refine_diff_density_rms         0.064
_refine_ls_extinction_method     none
_refine_ls_goodness_of_fit_ref   1.069
_refine_ls_hydrogen_treatment    constr
_refine_ls_matrix_type           full
_refine_ls_number_parameters     88
_refine_ls_number_reflns         1138
_refine_ls_number_restraints     0
_refine_ls_restrained_S_all      1.069
_refine_ls_R_factor_all          0.1049
_refine_ls_R_factor_gt           0.0689
_refine_ls_shift/su_max          0.000
_refine_ls_shift/su_mean         0.000
_refine_ls_structure_factor_coef Fsqd
_refine_ls_weighting_details
'calc w=1/[\s^2^(Fo^2^)+(0.0461P)^2^+0.5865P] where P=(Fo^2^+2Fc^2^)/3'
_refine_ls_weighting_scheme      calc
_refine_ls_wR_factor_gt          0.1392
_refine_ls_wR_factor_ref         0.1575
_reflns_number_gt                802
_reflns_number_total             1138
_reflns_threshold_expression     >2sigma(I)
_cod_data_source_file            b917191f.txt
_cod_data_source_block           7
_cod_original_sg_symbol_H-M      P21/m
_cod_database_code               7211934
loop_
_symmetry_equiv_pos_as_xyz
'x, y, z'
'-x, y+1/2, -z'
'-x, -y, -z'
'x, -y-1/2, z'
loop_
_atom_site_label
_atom_site_type_symbol
_atom_site_fract_x
_atom_site_fract_y
_atom_site_fract_z
_atom_site_U_iso_or_equiv
_atom_site_adp_type
_atom_site_occupancy
_atom_site_symmetry_multiplicity
_atom_site_calc_flag
_atom_site_refinement_flags
C1 C 0.4928(4) 0.2500 0.4169(4) 0.0212(8) Uani 1 2 d S
C2 C 0.6461(4) 0.2500 0.3430(4) 0.0232(8) Uani 1 2 d S
H2 H 0.6361 0.2500 0.2378 0.028 Uiso 1 2 calc SR
C3 C 0.7936(5) 0.2500 0.4197(4) 0.0260(9) Uani 1 2 d S
H3 H 0.7999 0.2500 0.5247 0.031 Uiso 1 2 calc SR
C4 C 0.9551(4) 0.2500 0.3543(4) 0.0200(8) Uani 1 2 d S
O1A O 0.4963(3) 0.2500 0.5505(3) 0.0266(6) Uani 1 2 d S
O1B O 0.3547(3) 0.2500 0.3220(3) 0.0253(6) Uani 1 2 d S
H1 H 0.2717 0.2500 0.3687 0.059(16) Uiso 1 2 calc SR
O4A O 1.0876(3) 0.2500 0.4461(3) 0.0288(7) Uani 1 2 d S
O4B O 0.9498(3) 0.2500 0.2166(3) 0.0269(6) Uani 1 2 d S
C22 C 0.0338(5) 0.2500 0.8564(4) 0.0245(8) Uani 1 2 d S
C24 C 0.2944(5) 0.2500 0.9677(4) 0.0322(10) Uani 1 2 d S
H24 H 0.3874 0.2500 1.0433 0.039 Uiso 1 2 calc SR
C25 C 0.2997(5) 0.2500 0.8212(4) 0.0306(9) Uani 1 2 d S
H25 H 0.3971 0.2500 0.7732 0.037 Uiso 1 2 calc SR
C26 C -0.1501(5) 0.2500 0.8327(4) 0.0314(9) Uani 1 2 d S
H26A H -0.1924 0.2500 0.9288 0.047 Uiso 1 2 calc SR
H26B H -0.1900 0.1227 0.7768 0.047 Uiso 0.50 1 calc PR
H26C H -0.1900 0.3773 0.7768 0.047 Uiso 0.50 1 calc PR
N21 N 0.1383(4) 0.2500 0.7540(3) 0.0263(7) Uani 1 2 d S
H21 H 0.1077 0.2500 0.6575 0.036(12) Uiso 1 2 calc SR
N23 N 0.1275(4) 0.2500 0.9879(3) 0.0275(8) Uani 1 2 d S
H23 H 0.0894 0.2500 1.0742 0.053(15) Uiso 1 2 calc SR
loop_
_atom_site_aniso_label
_atom_site_aniso_U_11
_atom_site_aniso_U_22
_atom_site_aniso_U_33
_atom_site_aniso_U_23
_atom_site_aniso_U_13
_atom_site_aniso_U_12
C1 0.0176(18) 0.025(2) 0.0217(18) 0.000 0.0053(15) 0.000
C2 0.0187(19) 0.032(2) 0.0199(18) 0.000 0.0065(15) 0.000
C3 0.0220(19) 0.039(2) 0.0189(17) 0.000 0.0096(15) 0.000
C4 0.0173(17) 0.026(2) 0.0173(16) 0.000 0.0041(14) 0.000
O1A 0.0226(14) 0.0408(17) 0.0177(12) 0.000 0.0079(10) 0.000
O1B 0.0130(13) 0.0437(17) 0.0200(13) 0.000 0.0057(11) 0.000
O4A 0.0162(13) 0.0530(18) 0.0175(12) 0.000 0.0032(10) 0.000
O4B 0.0228(13) 0.0417(16) 0.0171(12) 0.000 0.0057(10) 0.000
C22 0.034(2) 0.022(2) 0.0189(17) 0.000 0.0071(15) 0.000
C24 0.027(2) 0.047(3) 0.0244(19) 0.000 0.0080(16) 0.000
C25 0.028(2) 0.037(2) 0.028(2) 0.000 0.0100(17) 0.000
C26 0.034(2) 0.037(2) 0.0246(19) 0.000 0.0095(17) 0.000
N21 0.0339(18) 0.0292(18) 0.0171(15) 0.000 0.0081(13) 0.000
N23 0.0300(18) 0.036(2) 0.0177(15) 0.000 0.0074(14) 0.000
loop_
_atom_type_symbol
_atom_type_description
_atom_type_scat_dispersion_real
_atom_type_scat_dispersion_imag
_atom_type_scat_source
C C 0.0033 0.0016 'International Tables Vol C Tables 4.2.6.8 and 6.1.1.4'
H H 0.0000 0.0000 'International Tables Vol C Tables 4.2.6.8 and 6.1.1.4'
N N 0.0061 0.0033 'International Tables Vol C Tables 4.2.6.8 and 6.1.1.4'
O O 0.0106 0.0060 'International Tables Vol C Tables 4.2.6.8 and 6.1.1.4'
loop_
_geom_angle_atom_site_label_1
_geom_angle_atom_site_label_2
_geom_angle_atom_site_label_3
_geom_angle
O1A C1 O1B 124.3(3)
O1A C1 C2 122.9(3)
O1B C1 C2 112.9(3)
C3 C2 C1 121.2(3)
C3 C2 H2 119.4
C1 C2 H2 119.4
C2 C3 C4 124.7(3)
C2 C3 H3 117.6
C4 C3 H3 117.6
O4B C4 O4A 125.1(3)
O4B C4 C3 118.7(3)
O4A C4 C3 116.1(3)
C1 O1B H1 109.5
N23 C22 N21 106.8(3)
N23 C22 C26 125.2(3)
N21 C22 C26 128.0(3)
C25 C24 N23 106.9(3)
C25 C24 H24 126.6
N23 C24 H24 126.6
C24 C25 N21 107.0(3)
C24 C25 H25 126.5
N21 C25 H25 126.5
C22 C26 H26A 109.5
C22 C26 H26B 109.5
H26A C26 H26B 109.5
C22 C26 H26C 109.5
H26A C26 H26C 109.5
H26B C26 H26C 109.5
C22 N21 C25 110.0(3)
C22 N21 H21 125.0
C25 N21 H21 125.0
C22 N23 C24 109.3(3)
C22 N23 H23 125.3
C24 N23 H23 125.3
loop_
_geom_bond_atom_site_label_1
_geom_bond_atom_site_label_2
_geom_bond_distance
C1 O1A 1.212(4)
C1 O1B 1.318(4)
C1 C2 1.485(5)
C2 C3 1.300(5)
C2 H2 0.9500
C3 C4 1.504(5)
C3 H3 0.9500
C4 O4B 1.248(4)
C4 O4A 1.269(4)
O1B H1 0.8400
C22 N23 1.329(5)
C22 N21 1.338(5)
C22 C26 1.473(5)
C24 C25 1.339(5)
C24 N23 1.386(5)
C24 H24 0.9500
C25 N21 1.366(5)
C25 H25 0.9500
C26 H26A 0.9800
C26 H26B 0.9800
C26 H26C 0.9800
N21 H21 0.8800
N23 H23 0.8800
loop_
_geom_hbond_atom_site_label_D
_geom_hbond_atom_site_label_H
_geom_hbond_atom_site_label_A
_geom_hbond_distance_DH
_geom_hbond_distance_HA
_geom_hbond_distance_DA
_geom_hbond_angle_DHA
_geom_hbond_site_symmetry_A
O1B H1 O4A 0.84 1.73 2.564(3) 173.8 1_455
N21 H21 O4A 0.88 1.91 2.777(4) 168.6 1_455
N23 H23 O4B 0.88 1.83 2.679(4) 162.5 1_456
