#------------------------------------------------------------------------------
#$Date: 2016-03-26 20:44:10 +0200 (Sat, 26 Mar 2016) $
#$Revision: 180446 $
#$URL: svn://www.crystallography.net/cod/cif/7/21/15/7211565.cif $
#------------------------------------------------------------------------------
#
# This file is available in the Crystallography Open Database (COD),
# http://www.crystallography.net/
#
# All data on this site have been placed in the public domain by the
# contributors.
#
data_7211565
loop_
_publ_author_name
'Centore, Roberto'
'Carella, Antonio'
'Tuzi, Angela'
'Capobianco, Amedeo'
'Peluso, Andrea'
_publ_section_title
;
 Competitive H-bonding synthons in organic hydrazides
;
_journal_issue                   4
_journal_name_full               CrystEngComm
_journal_page_first              1186
_journal_paper_doi               10.1039/b910433j
_journal_volume                  12
_journal_year                    2010
_chemical_formula_moiety         'C8 H7 N3 O'
_chemical_formula_sum            'C8 H7 N3 O'
_chemical_formula_weight         161.17
_chemical_name_common            4-cyanobenzohydrazide
_chemical_name_systematic
;
4-cyanobenzohydrazide
;
_space_group_IT_number           14
_space_group_name_H-M_alt        'P 1 21/c 1'
_symmetry_cell_setting           monoclinic
_symmetry_space_group_name_Hall  '-P 2ybc'
_symmetry_space_group_name_H-M   'P 1 21/c 1'
_atom_sites_solution_hydrogens   geom
_atom_sites_solution_primary     direct
_atom_sites_solution_secondary   difmap
_audit_creation_method           SHELXL-97
_cell_angle_alpha                90.00
_cell_angle_beta                 97.11(7)
_cell_angle_gamma                90.00
_cell_formula_units_Z            4
_cell_length_a                   15.930(10)
_cell_length_b                   3.816(3)
_cell_length_c                   12.689(9)
_cell_measurement_reflns_used    37
_cell_measurement_temperature    173(2)
_cell_measurement_theta_max      19.965
_cell_measurement_theta_min      3.297
_cell_volume                     765.4(9)
_computing_cell_refinement       'CELLFITW (Centore, 2004)'
_computing_data_collection       'Collect (Nonius BV, 1997-2000)'
_computing_data_reduction
;
EvalCCD (Duisenberg & Schreurs 1990-2000)
;
_computing_molecular_graphics
;
Ortep-3 for Windows (Farrugia, 1997) and Mercury 2.2 (CCDC 2001-2008)
;
_computing_publication_material  'WinGX (Farrugia, 1999)'
_computing_structure_refinement  'SHELXL-97 (Sheldrick, 1997)'
_computing_structure_solution    'SIR97 (Altomare at al, 1999)'
_diffrn_ambient_temperature      173(2)
_diffrn_detector                 'CCD plate'
_diffrn_detector_area_resol_mean 9
_diffrn_detector_type
;
Bruker-Nonius 95mm CCD camera on \k-goniostat
;
_diffrn_measured_fraction_theta_full 0.979
_diffrn_measured_fraction_theta_max 0.979
_diffrn_measurement_device       'four-circle diffractometer'
_diffrn_measurement_device_type  'Bruker-Nonius KappaCCD'
_diffrn_measurement_method
;
CCD rotation images, thick slices
;
_diffrn_radiation_monochromator  graphite
_diffrn_radiation_probe          x-ray
_diffrn_radiation_source         'normal-focus sealed tube'
_diffrn_radiation_type           MoK\a
_diffrn_radiation_wavelength     0.71069
_diffrn_reflns_av_R_equivalents  0.0655
_diffrn_reflns_av_sigmaI/netI    0.0684
_diffrn_reflns_limit_h_max       20
_diffrn_reflns_limit_h_min       -20
_diffrn_reflns_limit_k_max       4
_diffrn_reflns_limit_k_min       -4
_diffrn_reflns_limit_l_max       16
_diffrn_reflns_limit_l_min       -16
_diffrn_reflns_number            6482
_diffrn_reflns_theta_full        27.48
_diffrn_reflns_theta_max         27.48
_diffrn_reflns_theta_min         3.24
_exptl_absorpt_coefficient_mu    0.098
_exptl_absorpt_correction_T_max  0.9976
_exptl_absorpt_correction_T_min  0.9435
_exptl_absorpt_correction_type   multi-scan
_exptl_absorpt_process_details
;
SADABS (Bruker-Nonius, 2002)
;
_exptl_crystal_colour            colourless
_exptl_crystal_density_diffrn    1.399
_exptl_crystal_density_method    'not measured'
_exptl_crystal_description       plate
_exptl_crystal_F_000             336
_exptl_crystal_size_max          0.6
_exptl_crystal_size_mid          0.25
_exptl_crystal_size_min          0.03
_refine_diff_density_max         0.179
_refine_diff_density_min         -0.226
_refine_diff_density_rms         0.053
_refine_ls_extinction_method     none
_refine_ls_goodness_of_fit_ref   1.003
_refine_ls_hydrogen_treatment    mixed
_refine_ls_matrix_type           full
_refine_ls_number_parameters     130
_refine_ls_number_reflns         1712
_refine_ls_number_restraints     0
_refine_ls_restrained_S_all      1.003
_refine_ls_R_factor_all          0.0967
_refine_ls_R_factor_gt           0.0459
_refine_ls_shift/su_max          0.000
_refine_ls_shift/su_mean         0.000
_refine_ls_structure_factor_coef Fsqd
_refine_ls_weighting_details
'calc w=1/[\s^2^(Fo^2^)+(0.0524P)^2^+0.0000P] where P=(Fo^2^+2Fc^2^)/3'
_refine_ls_weighting_scheme      calc
_refine_ls_wR_factor_gt          0.0911
_refine_ls_wR_factor_ref         0.1059
_reflns_number_gt                1085
_reflns_number_total             1712
_reflns_threshold_expression     >2sigma(I)
_cod_data_source_file            b910433j.txt
_cod_data_source_block           cnidrzlt
_cod_database_code               7211565
loop_
_symmetry_equiv_pos_as_xyz
'x, y, z'
'-x, y+1/2, -z+1/2'
'-x, -y, -z'
'x, -y-1/2, z-1/2'
loop_
_atom_site_label
_atom_site_type_symbol
_atom_site_fract_x
_atom_site_fract_y
_atom_site_fract_z
_atom_site_U_iso_or_equiv
_atom_site_adp_type
_atom_site_occupancy
_atom_site_symmetry_multiplicity
_atom_site_calc_flag
C1 C 0.11820(10) -0.1557(4) 0.42556(13) 0.0203(4) Uani 1 1 d
C2 C 0.20431(10) -0.0435(4) 0.40393(13) 0.0201(4) Uani 1 1 d
C3 C 0.25978(11) 0.0748(5) 0.49022(14) 0.0262(4) Uani 1 1 d
H3 H 0.2389(11) 0.089(5) 0.5596(15) 0.031 Uiso 1 1 d
C4 C 0.34133(11) 0.1723(5) 0.47738(14) 0.0283(4) Uani 1 1 d
H4 H 0.3812(11) 0.257(5) 0.5377(15) 0.034 Uiso 1 1 d
C5 C 0.36862(10) 0.1453(5) 0.37750(14) 0.0246(4) Uani 1 1 d
C6 C 0.31399(11) 0.0256(5) 0.29089(15) 0.0273(5) Uani 1 1 d
H6 H 0.3368(11) 0.002(5) 0.2251(15) 0.033 Uiso 1 1 d
C7 C 0.23178(11) -0.0651(5) 0.30438(14) 0.0251(4) Uani 1 1 d
H7 H 0.1945(12) -0.144(5) 0.2423(14) 0.030 Uiso 1 1 d
C8 C 0.45513(12) 0.2401(5) 0.36680(15) 0.0296(5) Uani 1 1 d
N1 N -0.02747(9) -0.2398(5) 0.35351(12) 0.0233(4) Uani 1 1 d
H1A H -0.0231(11) -0.401(5) 0.4035(15) 0.028 Uiso 1 1 d
H1B H -0.0573(12) -0.064(5) 0.3833(14) 0.028 Uiso 1 1 d
N2 N 0.05537(8) -0.1098(4) 0.34678(11) 0.0226(4) Uani 1 1 d
H2 H 0.0622(11) 0.018(5) 0.2842(15) 0.027 Uiso 1 1 d
N3 N 0.52378(10) 0.3163(5) 0.36050(13) 0.0392(5) Uani 1 1 d
O1 O 0.10691(7) -0.2905(3) 0.51155(9) 0.0260(3) Uani 1 1 d
loop_
_atom_site_aniso_label
_atom_site_aniso_U_11
_atom_site_aniso_U_22
_atom_site_aniso_U_33
_atom_site_aniso_U_23
_atom_site_aniso_U_13
_atom_site_aniso_U_12
C1 0.0230(9) 0.0182(9) 0.0200(9) -0.0020(8) 0.0040(7) 0.0001(7)
C2 0.0200(9) 0.0166(9) 0.0232(9) 0.0016(7) 0.0012(7) 0.0015(7)
C3 0.0227(10) 0.0311(10) 0.0244(9) -0.0018(8) 0.0015(8) 0.0004(8)
C4 0.0241(11) 0.0300(11) 0.0294(10) -0.0024(9) -0.0020(8) -0.0040(8)
C5 0.0188(9) 0.0220(10) 0.0328(10) 0.0040(8) 0.0025(8) 0.0004(8)
C6 0.0248(10) 0.0328(11) 0.0258(10) 0.0023(8) 0.0083(8) -0.0001(8)
C7 0.0229(10) 0.0283(10) 0.0238(9) -0.0026(8) 0.0015(8) -0.0015(8)
C8 0.0256(11) 0.0310(11) 0.0317(10) 0.0005(9) 0.0013(8) -0.0035(9)
N1 0.0182(8) 0.0309(9) 0.0216(8) 0.0008(7) 0.0055(6) -0.0026(7)
N2 0.0175(8) 0.0307(9) 0.0197(7) 0.0042(7) 0.0025(6) -0.0033(7)
N3 0.0265(10) 0.0517(12) 0.0394(10) -0.0011(9) 0.0041(8) -0.0087(8)
O1 0.0242(7) 0.0321(7) 0.0216(6) 0.0064(6) 0.0032(5) -0.0008(6)
loop_
_atom_type_symbol
_atom_type_description
_atom_type_scat_dispersion_real
_atom_type_scat_dispersion_imag
_atom_type_scat_source
C C 0.0033 0.0016 'International Tables Vol C Tables 4.2.6.8 and 6.1.1.4'
H H 0.0000 0.0000 'International Tables Vol C Tables 4.2.6.8 and 6.1.1.4'
N N 0.0061 0.0033 'International Tables Vol C Tables 4.2.6.8 and 6.1.1.4'
O O 0.0106 0.0060 'International Tables Vol C Tables 4.2.6.8 and 6.1.1.4'
loop_
_geom_angle_atom_site_label_1
_geom_angle_atom_site_label_2
_geom_angle_atom_site_label_3
_geom_angle
O1 C1 N2 122.45(16)
O1 C1 C2 121.14(16)
N2 C1 C2 116.40(15)
C7 C2 C3 119.51(16)
C7 C2 C1 123.34(16)
C3 C2 C1 117.10(15)
C4 C3 C2 120.59(17)
C4 C3 H3 121.3(11)
C2 C3 H3 118.1(11)
C3 C4 C5 119.44(18)
C3 C4 H4 121.4(10)
C5 C4 H4 119.1(10)
C6 C5 C4 120.49(16)
C6 C5 C8 121.16(17)
C4 C5 C8 118.34(17)
C7 C6 C5 119.51(17)
C7 C6 H6 123.5(11)
C5 C6 H6 116.9(11)
C6 C7 C2 120.43(18)
C6 C7 H7 117.9(10)
C2 C7 H7 121.6(10)
N3 C8 C5 178.6(2)
N2 N1 H1A 107.2(12)
N2 N1 H1B 107.4(11)
H1A N1 H1B 102.0(15)
C1 N2 N1 121.61(15)
C1 N2 H2 122.7(11)
N1 N2 H2 115.6(11)
loop_
_geom_bond_atom_site_label_1
_geom_bond_atom_site_label_2
_geom_bond_distance
C1 O1 1.239(2)
C1 N2 1.336(2)
C1 C2 1.495(2)
C2 C7 1.390(2)
C2 C3 1.394(3)
C3 C4 1.380(3)
C3 H3 0.981(19)
C4 C5 1.394(3)
C4 H4 0.986(19)
C5 C6 1.392(3)
C5 C8 1.447(3)
C6 C7 1.385(3)
C6 H6 0.955(19)
C7 H7 0.973(19)
C8 N3 1.144(2)
N1 N2 1.422(2)
N1 H1A 0.88(2)
N1 H1B 0.93(2)
N2 H2 0.950(18)
loop_
_geom_torsion_atom_site_label_1
_geom_torsion_atom_site_label_2
_geom_torsion_atom_site_label_3
_geom_torsion_atom_site_label_4
_geom_torsion
O1 C1 C2 C7 145.32(18)
N2 C1 C2 C7 -33.3(2)
O1 C1 C2 C3 -32.1(2)
N2 C1 C2 C3 149.35(16)
C7 C2 C3 C4 0.4(3)
C1 C2 C3 C4 177.88(17)
C2 C3 C4 C5 -1.2(3)
C3 C4 C5 C6 0.9(3)
C3 C4 C5 C8 -178.33(17)
C4 C5 C6 C7 0.4(3)
C8 C5 C6 C7 179.53(18)
C5 C6 C7 C2 -1.2(3)
C3 C2 C7 C6 0.9(3)
C1 C2 C7 C6 -176.48(17)
C6 C5 C8 N3 -177(100)
C4 C5 C8 N3 2(9)
O1 C1 N2 N1 -5.3(3)
C2 C1 N2 N1 173.21(15)
loop_
_reflns_scale_group_code
_reflns_scale_meas_F
1 1.0
