#------------------------------------------------------------------------------
#$Date: 2016-03-26 20:44:10 +0200 (Sat, 26 Mar 2016) $
#$Revision: 180446 $
#$URL: svn://www.crystallography.net/cod/cif/7/21/15/7211566.cif $
#------------------------------------------------------------------------------
#
# This file is available in the Crystallography Open Database (COD),
# http://www.crystallography.net/
#
# All data on this site have been placed in the public domain by the
# contributors.
#
data_7211566
loop_
_publ_author_name
'Centore, Roberto'
'Carella, Antonio'
'Tuzi, Angela'
'Capobianco, Amedeo'
'Peluso, Andrea'
_publ_section_title
;
 Competitive H-bonding synthons in organic hydrazides
;
_journal_issue                   4
_journal_name_full               CrystEngComm
_journal_page_first              1186
_journal_paper_doi               10.1039/b910433j
_journal_volume                  12
_journal_year                    2010
_chemical_formula_moiety         'C7 H9 N3 O'
_chemical_formula_sum            'C7 H9 N3 O'
_chemical_formula_weight         151.17
_chemical_name_common            4-aminobenzohydrazide
_chemical_name_systematic
;
4-aminobenzohydrazide
;
_space_group_IT_number           14
_space_group_name_H-M_alt        'P 1 21/c 1'
_symmetry_cell_setting           monoclinic
_symmetry_space_group_name_Hall  '-P 2ybc'
_symmetry_space_group_name_H-M   'P 1 21/c 1'
_atom_sites_solution_hydrogens   geom
_atom_sites_solution_primary     direct
_atom_sites_solution_secondary   difmap
_audit_creation_method           SHELXL-97
_cell_angle_alpha                90.00
_cell_angle_beta                 103.63(2)
_cell_angle_gamma                90.00
_cell_formula_units_Z            4
_cell_length_a                   5.416(2)
_cell_length_b                   13.971(4)
_cell_length_c                   9.958(2)
_cell_measurement_reflns_used    51
_cell_measurement_temperature    173(2)
_cell_measurement_theta_max      20.229
_cell_measurement_theta_min      4.931
_cell_volume                     732.3(4)
_computing_cell_refinement       'CELLFITW (Centore, 2004)'
_computing_data_collection       'Collect (Nonius BV, 1997-2000)'
_computing_data_reduction
;
EvalCCD (Duisenberg & Schreurs 1990-2000)
;
_computing_molecular_graphics
;
Ortep-3 for Windows (Farrugia, 1997) and Mercury 2.2 (CCDC 2001-2008)
;
_computing_publication_material  'WinGX (Farrugia, 1999)'
_computing_structure_refinement  'SHELXL-97 (Sheldrick, 1997)'
_computing_structure_solution    'SIR97 (Altomare at al, 1999)'
_diffrn_ambient_temperature      173(2)
_diffrn_detector                 'CCD plate'
_diffrn_detector_area_resol_mean 9
_diffrn_detector_type
;
Bruker-Nonius 95mm CCD camera on \k-goniostat
;
_diffrn_measured_fraction_theta_full 0.904
_diffrn_measured_fraction_theta_max 0.904
_diffrn_measurement_device       'four-circle diffractometer'
_diffrn_measurement_device_type  'Bruker-Nonius KappaCCD'
_diffrn_measurement_method
;
CCD rotation images, thick slices
;
_diffrn_radiation_monochromator  graphite
_diffrn_radiation_probe          x-ray
_diffrn_radiation_source         'normal-focus sealed tube'
_diffrn_radiation_type           MoK\a
_diffrn_radiation_wavelength     0.71073
_diffrn_reflns_av_R_equivalents  0.0405
_diffrn_reflns_av_sigmaI/netI    0.0464
_diffrn_reflns_limit_h_max       7
_diffrn_reflns_limit_h_min       -6
_diffrn_reflns_limit_k_max       18
_diffrn_reflns_limit_k_min       -16
_diffrn_reflns_limit_l_max       11
_diffrn_reflns_limit_l_min       -13
_diffrn_reflns_number            6525
_diffrn_reflns_theta_full        28.39
_diffrn_reflns_theta_max         28.39
_diffrn_reflns_theta_min         3.60
_exptl_absorpt_coefficient_mu    0.097
_exptl_absorpt_correction_T_max  0.9928
_exptl_absorpt_correction_T_min  0.9309
_exptl_absorpt_correction_type   multi-scan
_exptl_absorpt_process_details
;
SADABS (Bruker-Nonius, 2002)
;
_exptl_crystal_colour            colourless
_exptl_crystal_density_diffrn    1.371
_exptl_crystal_density_method    'not measured'
_exptl_crystal_description       prism
_exptl_crystal_F_000             320
_exptl_crystal_size_max          0.75
_exptl_crystal_size_mid          0.35
_exptl_crystal_size_min          0.08
_refine_diff_density_max         0.233
_refine_diff_density_min         -0.197
_refine_diff_density_rms         0.044
_refine_ls_extinction_method     none
_refine_ls_goodness_of_fit_ref   1.042
_refine_ls_hydrogen_treatment    mixed
_refine_ls_matrix_type           full
_refine_ls_number_parameters     127
_refine_ls_number_reflns         1661
_refine_ls_number_restraints     0
_refine_ls_restrained_S_all      1.042
_refine_ls_R_factor_all          0.0788
_refine_ls_R_factor_gt           0.0420
_refine_ls_shift/su_max          0.000
_refine_ls_shift/su_mean         0.000
_refine_ls_structure_factor_coef Fsqd
_refine_ls_weighting_details
'calc w=1/[\s^2^(Fo^2^)+(0.0464P)^2^+0.1621P] where P=(Fo^2^+2Fc^2^)/3'
_refine_ls_weighting_scheme      calc
_refine_ls_wR_factor_gt          0.0892
_refine_ls_wR_factor_ref         0.1025
_reflns_number_gt                1136
_reflns_number_total             1661
_reflns_threshold_expression     >2sigma(I)
_cod_data_source_file            b910433j.txt
_cod_data_source_block           gehlenlt
_cod_database_code               7211566
loop_
_symmetry_equiv_pos_as_xyz
'x, y, z'
'-x, y+1/2, -z+1/2'
'-x, -y, -z'
'x, -y-1/2, z-1/2'
loop_
_atom_site_label
_atom_site_type_symbol
_atom_site_fract_x
_atom_site_fract_y
_atom_site_fract_z
_atom_site_U_iso_or_equiv
_atom_site_adp_type
_atom_site_occupancy
_atom_site_symmetry_multiplicity
_atom_site_calc_flag
C1 C 0.0095(3) 0.04540(11) 0.18493(15) 0.0217(3) Uani 1 1 d
C2 C 0.1082(3) 0.13652(10) 0.14385(15) 0.0211(3) Uani 1 1 d
C3 C 0.3624(3) 0.16373(11) 0.21262(15) 0.0239(4) Uani 1 1 d
H3 H 0.470(3) 0.1224(12) 0.2848(17) 0.029 Uiso 1 1 d
C4 C 0.4627(3) 0.24845(11) 0.18170(16) 0.0250(4) Uani 1 1 d
H4 H 0.637(3) 0.2648(11) 0.2306(17) 0.030 Uiso 1 1 d
C5 C 0.3123(3) 0.30995(10) 0.08028(15) 0.0236(4) Uani 1 1 d
C6 C 0.0594(3) 0.28197(11) 0.00923(16) 0.0264(4) Uani 1 1 d
H6 H -0.048(3) 0.3248(12) -0.0594(17) 0.032 Uiso 1 1 d
C7 C -0.0410(3) 0.19699(11) 0.04048(16) 0.0247(4) Uani 1 1 d
H7 H -0.219(3) 0.1793(11) -0.0115(16) 0.030 Uiso 1 1 d
N1 N -0.3376(3) -0.06984(10) 0.13378(15) 0.0271(3) Uani 1 1 d
H1A H -0.242(3) -0.1232(13) 0.1245(17) 0.032 Uiso 1 1 d
H1B H -0.326(3) -0.0660(12) 0.221(2) 0.032 Uiso 1 1 d
N2 N -0.2145(2) 0.01260(9) 0.10116(14) 0.0256(3) Uani 1 1 d
H2 H -0.314(3) 0.0424(12) 0.0258(18) 0.031 Uiso 1 1 d
N3 N 0.4050(3) 0.39675(10) 0.05479(15) 0.0328(4) Uani 1 1 d
H3A H 0.565(4) 0.4122(13) 0.100(2) 0.039 Uiso 1 1 d
H3B H 0.316(3) 0.4289(13) -0.017(2) 0.039 Uiso 1 1 d
O1 O 0.1257(2) 0.00165(8) 0.29170(11) 0.0328(3) Uani 1 1 d
loop_
_atom_site_aniso_label
_atom_site_aniso_U_11
_atom_site_aniso_U_22
_atom_site_aniso_U_33
_atom_site_aniso_U_23
_atom_site_aniso_U_13
_atom_site_aniso_U_12
C1 0.0216(8) 0.0222(7) 0.0216(8) -0.0014(6) 0.0055(6) 0.0025(6)
C2 0.0217(8) 0.0221(8) 0.0201(8) -0.0024(6) 0.0063(6) -0.0005(6)
C3 0.0218(8) 0.0283(8) 0.0213(8) -0.0007(7) 0.0043(6) 0.0019(7)
C4 0.0198(8) 0.0312(8) 0.0236(8) -0.0047(7) 0.0041(6) -0.0043(7)
C5 0.0265(8) 0.0245(8) 0.0214(8) -0.0050(6) 0.0087(6) -0.0055(7)
C6 0.0267(9) 0.0260(8) 0.0245(9) 0.0040(7) 0.0021(7) -0.0004(6)
C7 0.0208(8) 0.0261(8) 0.0253(8) 0.0002(6) 0.0017(6) -0.0033(6)
N1 0.0308(8) 0.0249(7) 0.0262(8) 0.0042(6) 0.0079(6) -0.0060(6)
N2 0.0259(7) 0.0254(7) 0.0239(7) 0.0061(6) 0.0029(6) -0.0064(6)
N3 0.0333(8) 0.0319(8) 0.0294(8) 0.0053(6) -0.0005(6) -0.0118(7)
O1 0.0322(6) 0.0297(6) 0.0312(7) 0.0086(5) -0.0029(5) -0.0021(5)
loop_
_atom_type_symbol
_atom_type_description
_atom_type_scat_dispersion_real
_atom_type_scat_dispersion_imag
_atom_type_scat_source
C C 0.0033 0.0016 'International Tables Vol C Tables 4.2.6.8 and 6.1.1.4'
H H 0.0000 0.0000 'International Tables Vol C Tables 4.2.6.8 and 6.1.1.4'
N N 0.0061 0.0033 'International Tables Vol C Tables 4.2.6.8 and 6.1.1.4'
O O 0.0106 0.0060 'International Tables Vol C Tables 4.2.6.8 and 6.1.1.4'
loop_
_geom_angle_atom_site_label_1
_geom_angle_atom_site_label_2
_geom_angle_atom_site_label_3
_geom_angle
O1 C1 N2 122.91(14)
O1 C1 C2 120.75(13)
N2 C1 C2 116.34(13)
C7 C2 C3 120.24(13)
C7 C2 C1 122.03(13)
C3 C2 C1 117.72(13)
C4 C3 C2 120.58(14)
C4 C3 H3 118.0(9)
C2 C3 H3 121.4(9)
C3 C4 C5 119.33(14)
C3 C4 H4 118.4(10)
C5 C4 H4 122.2(10)
N3 C5 C4 119.69(14)
N3 C5 C6 120.06(15)
C4 C5 C6 120.19(14)
C7 C6 C5 120.38(15)
C7 C6 H6 118.7(10)
C5 C6 H6 120.9(10)
C6 C7 C2 119.25(14)
C6 C7 H7 118.5(9)
C2 C7 H7 122.3(9)
N2 N1 H1A 109.2(10)
N2 N1 H1B 104.8(12)
H1A N1 H1B 104.0(15)
C1 N2 N1 121.99(13)
C1 N2 H2 127.5(11)
N1 N2 H2 110.1(10)
C5 N3 H3A 118.3(12)
C5 N3 H3B 116.7(12)
H3A N3 H3B 123.7(17)
loop_
_geom_bond_atom_site_label_1
_geom_bond_atom_site_label_2
_geom_bond_distance
C1 O1 1.2588(18)
C1 N2 1.379(2)
C1 C2 1.476(2)
C2 C7 1.426(2)
C2 C3 1.437(2)
C3 C4 1.367(2)
C3 H3 0.995(17)
C4 C5 1.426(2)
C4 H4 0.982(17)
C5 N3 1.359(2)
C5 C6 1.440(2)
C6 C7 1.372(2)
C6 H6 0.989(17)
C7 H7 1.012(17)
N1 N2 1.4067(17)
N1 H1A 0.925(18)
N1 H1B 0.858(19)
N2 H2 0.915(18)
N3 H3A 0.90(2)
N3 H3B 0.88(2)
loop_
_geom_torsion_atom_site_label_1
_geom_torsion_atom_site_label_2
_geom_torsion_atom_site_label_3
_geom_torsion_atom_site_label_4
_geom_torsion
O1 C1 C2 C7 -167.55(13)
N2 C1 C2 C7 11.92(19)
O1 C1 C2 C3 12.0(2)
N2 C1 C2 C3 -168.58(12)
C7 C2 C3 C4 1.1(2)
C1 C2 C3 C4 -178.37(13)
C2 C3 C4 C5 0.1(2)
C3 C4 C5 N3 176.13(14)
C3 C4 C5 C6 -1.3(2)
N3 C5 C6 C7 -176.05(14)
C4 C5 C6 C7 1.4(2)
C5 C6 C7 C2 -0.2(2)
C3 C2 C7 C6 -1.1(2)
C1 C2 C7 C6 178.43(13)
O1 C1 N2 N1 3.8(2)
C2 C1 N2 N1 -175.64(12)
loop_
_reflns_scale_group_code
_reflns_scale_meas_F
1 1.0
