#------------------------------------------------------------------------------
#$Date: 2016-02-16 03:10:39 +0200 (Tue, 16 Feb 2016) $
#$Revision: 176453 $
#$URL: svn://www.crystallography.net/cod/cif/7/21/12/7211203.cif $
#------------------------------------------------------------------------------
#
# This file is available in the Crystallography Open Database (COD),
# http://www.crystallography.net/
#
# All data on this site have been placed in the public domain by the
# contributors.
#
data_7211203
loop_
_publ_author_name
'Jones, R. H.'
'Knight, K. S.'
'Marshall, W. G.'
'Coles, S. J.'
'Horton, P. N.'
'Pitak, M. B.'
_publ_section_title
;
 The competition between halogen bonds (Br&#x22EF;O) and C--H&#x22EF;O
 hydrogen bonds: the structure of the acetone--bromine complex revisited
;
_journal_issue                   42
_journal_name_full               CrystEngComm
_journal_page_first              8572
_journal_paper_doi               10.1039/c3ce41472h
_journal_volume                  15
_journal_year                    2013
_chemical_formula_moiety         'C3 D6 Br2 O1'
_chemical_formula_sum            'C3 Br2 D6 O'
_chemical_formula_weight         223.92
_space_group_IT_number           15
_symmetry_cell_setting           monoclinic
_symmetry_space_group_name_Hall  '-C 2yc'
_symmetry_space_group_name_H-M   'C 1 2/c 1'
_atom_sites_solution_hydrogens   difmap
_atom_sites_solution_primary     direct
_cell_angle_alpha                90
_cell_angle_beta                 102.788(4)
_cell_angle_gamma                90
_cell_formula_units_Z            4
_cell_length_a                   7.6349(5)
_cell_length_b                   7.4263(6)
_cell_length_c                   12.1724(8)
_cell_measurement_reflns_used    0
_cell_measurement_temperature    200
_cell_measurement_theta_max      0
_cell_measurement_theta_min      0
_cell_volume                     673.04(8)
_computing_cell_refinement       'USER DEFINED CELL REFINEMENT'
_computing_data_collection       'USER DEFINED DATA COLLECTION'
_computing_data_reduction        'USER DEFINED DATA REDUCTION'
_computing_molecular_graphics    'CAMERON (Watkin et al., 1996)'
_computing_publication_material  'CRYSTALS (Betteridge et al., 2003)'
_computing_structure_refinement  'CRYSTALS (Betteridge et al., 2003)'
_computing_structure_solution    'SHELXS 86 (Sheldrick, 1986)'
_diffrn_ambient_temperature      200
_diffrn_detector_area_resol_mean '4096x4096pixels / 62x62mm'
_diffrn_measured_fraction_theta_full 0.941
_diffrn_measured_fraction_theta_max 0.941
_diffrn_measurement_device_type
'Bruker-Nonius APEX II CCD camera on \k-goniostat'
_diffrn_measurement_method       '\f & \w scans'
_diffrn_radiation_monochromator  '10cm confocal mirrors'
_diffrn_radiation_source         'Bruker-Nonius FR591 rotating anode'
_diffrn_radiation_type           'Mo K\a'
_diffrn_radiation_wavelength     0.71073
_diffrn_reflns_av_R_equivalents  0.057
_diffrn_reflns_limit_h_max       9
_diffrn_reflns_limit_h_min       -9
_diffrn_reflns_limit_k_max       9
_diffrn_reflns_limit_k_min       -9
_diffrn_reflns_limit_l_max       15
_diffrn_reflns_limit_l_min       -14
_diffrn_reflns_number            2261
_diffrn_reflns_theta_full        27.412
_diffrn_reflns_theta_max         27.412
_diffrn_reflns_theta_min         3.433
_diffrn_standards_number         0
_exptl_absorpt_coefficient_mu    11.928
_exptl_absorpt_correction_T_max  0.2121
_exptl_absorpt_correction_T_min  0.1316
_exptl_absorpt_correction_type   multi-scan
_exptl_absorpt_process_details   'SADABS 2007/2 (Sheldrick, G.M., 2007)'
_exptl_crystal_colour            orange
_exptl_crystal_density_diffrn    2.150
_exptl_crystal_density_method    'not measured'
_exptl_crystal_description       block
_exptl_crystal_F_000             408
_exptl_crystal_size_max          0.370
_exptl_crystal_size_mid          0.170
_exptl_crystal_size_min          0.130
_refine_diff_density_max         0.83
_refine_diff_density_min         -0.91
_refine_ls_extinction_method     None
_refine_ls_goodness_of_fit_ref   1.0975
_refine_ls_hydrogen_treatment    mixed
_refine_ls_matrix_type           full
_refine_ls_number_parameters     39
_refine_ls_number_reflns         626
_refine_ls_number_restraints     6
_refine_ls_R_factor_all          0.0623
_refine_ls_R_factor_gt           0.0562
_refine_ls_shift/su_max          0.0001846
_refine_ls_shift/su_mean         0.0000122
_refine_ls_structure_factor_coef Fsqd
_refine_ls_weighting_details
;
 Method, part 1, Chebychev polynomial, (Watkin, 1994, Prince, 1982) 
 [weight] = 1.0/[A~0~*T~0~(x)+A~1~*T~1~(x) ... +A~n-1~]*T~n-1~(x)] 
 where A~i~ are the Chebychev coefficients listed below and x= Fcalc/Fmax 
 Method = Robust Weighting (Prince, 1982) 
 W = [weight] * [1-(deltaF/6*sigmaF)^2^]^2^ 
 A~i~ are: 
 87.1 99.2 65.4 
;
_refine_ls_weighting_scheme      calc
_refine_ls_wR_factor_all         0.1507
_refine_ls_wR_factor_gt          0.1391
_refine_ls_wR_factor_ref         0.1374
_reflns_limit_h_max              9
_reflns_limit_h_min              -9
_reflns_limit_k_max              9
_reflns_limit_k_min              0
_reflns_limit_l_max              15
_reflns_limit_l_min              0
_reflns_number_gt                649
_reflns_number_total             720
_reflns_threshold_expression     I>2.0\s(I)
_oxford_diffrn_Wilson_B_factor   3.06
_oxford_diffrn_Wilson_scale      3.18
_oxford_refine_ls_r_factor_ref   0.0545
_oxford_refine_ls_scale          0.574(3)
_oxford_reflns_number_all        720
_oxford_reflns_threshold_expression_ref I>3.0\s(I)
_cod_data_source_file            c3ce41472h.txt
_cod_data_source_block           1
_cod_depositor_comments
;
The following automatic conversions were performed:

'_symmetry_cell_setting' value 'Monoclinic' changed to 'monoclinic'
according to /home/saulius/struct/CIF-dictionaries/cif_core.dic
dictionary named 'cif_core.dic' version 2.4.2 from
2011-04-26.

'_atom_sites_solution_primary' value 'Direct' changed to
'direct' according to
/home/saulius/struct/CIF-dictionaries/cif_core.dic dictionary named
'cif_core.dic' version 2.4.2 from 2011-04-26.

Automatic conversion script
Id: cif_fix_values 1891 2012-01-12 08:04:46Z andrius 
;
_cod_original_sg_symbol_H-M      'C 1 2/c 1 '
_cod_original_formula_sum        'C3 D6 Br2 O1'
_cod_database_code               7211203
#BEGIN Tags that were not found in dictionaries:
_iucr_refine_instruction_details_constraints
;
BLOCK 
CONT SCALE 
CONT BR   (    1 ,X'S,U'S)  UNTIL C    (    2 ) 
CONT D    (    1 ,X'S,U[ISO])  UNTIL D    (    3 ) 
EQUIV D(1,U[ISO]) D(2,U[ISO]) d(3,U[ISO]) 
END                                                                             
;
_iucr_refine_instruction_details_restraints
;
REM   HREST   START (DO NOT REMOVE THIS LINE) 
REM NO H   NO #H U MULT DIST 
REM C-H 
REM >4           1.5    .96 DISORDER 
REM 1      1     1.2    .93 C C-H (ACETYLENE) 
REM 1      2     1.2    .93 C-C(H)-C 
REM 1      3     1.2    .98 (C)3-C-H 
REM 2      1     1.2    .93 C=C-H(2) 
REM 2      2     1.2    .97 (C)2-C-(H)2 
REM 3      1     1.5    .96 C-C-(H)3 
REM N-H 
REM >4           1.5    .89 DISORDER 
REM 1      1     1.2    .86 N-N/H 
REM 1      2     1.2    .86 (C)2-N-H 
REM 1      3     1.2    .89 (C)3-N-H 
REM 2      1     1.2    .86 C-N-(H)2 
REM 2      2     1.2    .89 (C)2-N-(H)2 
REM 3      1     1.2    .89 C-H-(H)3 
REM O-H 
REM 1      1     1.5    .82 O-H 
REM 
REM DIST      ESD = 0.02 
REM VIB       ESD = 0.002 
REM ANGLE     ESD = 2.0 
REM            3 H ON SP 3 
ANGLE 109.54, 6.0 = 
CONT C(1) TO C ( 2) TO D(1) 
CONT C(1) TO C ( 2) TO D(2) 
CONT C(1) TO C ( 2) TO D(3) 
ANGLE 0.0, 6.0 = MEAN D(1) TO C ( 2) TO D(2) 
CONT D(1) TO C ( 2) TO D3) 
CONT D(2) TO C ( 2) TO D(3) 
REM   HREST   END (DO NOT REMOVE THIS LINE) 
END                                                                             
;
#END Tags that were not found in dictionaries
loop_
_symmetry_equiv_pos_as_xyz
x,y,z
-x,-y,-z
x+1/2,y+1/2,z
-x+1/2,-y+1/2,-z
-x,y,-z+1/2
x,-y,z+1/2
-x+1/2,y+1/2,-z+1/2
x+1/2,-y+1/2,z+1/2
loop_
_atom_site_label
_atom_site_type_symbol
_atom_site_fract_x
_atom_site_fract_y
_atom_site_fract_z
_atom_site_U_iso_or_equiv
_atom_site_occupancy
_atom_site_adp_type
_atom_site_refinement_flags_posn
_atom_site_refinement_flags_adp
Br1 Br 0.67415(9) 0.65852(11) 0.42841(5) 0.0394 1.0000 Uani . .
O1 O 0.5000 0.4457(13) 0.2500 0.0476 1.0000 Uani S T
C1 C 0.5000 0.2847(16) 0.2500 0.0302 1.0000 Uani DS T
C2 C 0.3714(13) 0.1766(12) 0.1624(7) 0.0458 1.0000 Uani D .
D1 D 0.424(12) 0.121(16) 0.121(8) 0.09(2) 1.0000 Uiso D .
D2 D 0.275(16) 0.277(17) 0.112(9) 0.09(2) 1.0000 Uiso D .
D3 D 0.308(15) 0.106(18) 0.190(7) 0.09(2) 1.0000 Uiso D .
loop_
_atom_site_aniso_label
_atom_site_aniso_U_11
_atom_site_aniso_U_22
_atom_site_aniso_U_33
_atom_site_aniso_U_23
_atom_site_aniso_U_13
_atom_site_aniso_U_12
Br1 0.0450(6) 0.0328(6) 0.0370(5) 0.0003(2) 0.0020(4) -0.0057(2)
O1 0.058(5) 0.034(5) 0.038(4) 0.0000 -0.016(3) 0.0000
C1 0.023(4) 0.041(7) 0.024(4) 0.0000 0.002(3) 0.0000
C2 0.067(5) 0.026(4) 0.038(4) -0.007(3) -0.002(4) -0.011(4)
loop_
_atom_type_symbol
_atom_type_scat_dispersion_real
_atom_type_scat_dispersion_imag
_atom_type_scat_Cromer_Mann_a1
_atom_type_scat_Cromer_Mann_b1
_atom_type_scat_Cromer_Mann_a2
_atom_type_scat_Cromer_Mann_b2
_atom_type_scat_Cromer_Mann_a3
_atom_type_scat_Cromer_Mann_b3
_atom_type_scat_Cromer_Mann_a4
_atom_type_scat_Cromer_Mann_b4
_atom_type_scat_Cromer_Mann_c
_atom_type_scat_source
C 0.0033 0.0016 2.3100 20.8439 1.0200 10.2075 1.5886 0.5687 0.8650 51.6512
0.2156 'International Tables Vol C 4.2.6.8 and 6.1.1.4'
H 0.0000 0.0000 0.4930 10.5109 0.3229 26.1257 0.1402 3.1424 0.0408 57.7998
0.0030 'International Tables Vol C 4.2.6.8 and 6.1.1.4'
O 0.0106 0.0060 3.0485 13.2771 2.2868 5.7011 1.5463 0.3239 0.8670 32.9089
0.2508 'International Tables Vol C 4.2.6.8 and 6.1.1.4'
Br -0.2901 2.4595 17.1789 2.1723 5.2358 16.5796 5.6377 0.2609 3.9851 41.4328
2.9557 'International Tables Vol C 4.2.6.8 and 6.1.1.4'
Cd -0.8075 1.2024 19.2214 0.5946 17.6444 6.9089 4.4610 24.7008 1.6029 87.4825
5.0694 'International Tables Vol C 4.2.6.8 and 6.1.1.4'
loop_
_geom_angle_atom_site_label_1
_geom_angle_site_symmetry_1
_geom_angle_atom_site_label_2
_geom_angle_atom_site_label_3
_geom_angle
_geom_angle_publ_flag
C2 5_655 C1 O1 122.1(5) yes
C2 5_655 C1 C2 115.8(10) yes
O1 . C1 C2 122.1(5) yes
C1 . C2 D1 112(5) no
C1 . C2 D2 106(4) no
D1 . C2 D2 110(5) no
C1 . C2 D3 113(5) no
D1 . C2 D3 109(5) no
D2 . C2 D3 106(5) no
loop_
_geom_bond_atom_site_label_1
_geom_bond_atom_site_label_2
_geom_bond_site_symmetry_2
_geom_bond_distance
_geom_bond_publ_flag
Br1 Br1 4_666 2.3090(13) yes
O1 C1 . 1.196(14) yes
C1 C2 5_655 1.510(10) yes
C1 C2 . 1.510(10) yes
C2 D1 . 0.83(14) no
C2 D2 . 1.13(15) no
C2 D3 . 0.83(16) no
