#------------------------------------------------------------------------------
#$Date: 2016-03-26 20:49:26 +0200 (Sat, 26 Mar 2016) $
#$Revision: 180450 $
#$URL: svn://www.crystallography.net/cod/cif/7/21/19/7211931.cif $
#------------------------------------------------------------------------------
#
# This file is available in the Crystallography Open Database (COD),
# http://www.crystallography.net/
#
# All data on this site have been placed in the public domain by the
# contributors.
#
data_7211931
loop_
_publ_author_name
'Callear, Samantha K.'
'Hursthouse, Michael B.'
'Threlfall, Terence L.'
_publ_section_title
;
 A systematic study of the crystallisation products of a series of
 dicarboxylic acids with imidazole derivatives
;
_journal_issue                   3
_journal_name_full               CrystEngComm
_journal_page_first              898
_journal_paper_doi               10.1039/b917191f
_journal_volume                  12
_journal_year                    2010
_chemical_formula_sum            'C9 H14 N2 O4'
_chemical_formula_weight         214.22
_chemical_name_common            'Glutaric acid & 2-methylimidazole'
_chemical_name_systematic
;
Glutaric acid & 2-methylimidazole
;
_space_group_IT_number           2
_symmetry_cell_setting           triclinic
_symmetry_space_group_name_Hall  '-P 1'
_symmetry_space_group_name_H-M   'P -1'
_atom_sites_solution_hydrogens   geom
_atom_sites_solution_primary     direct
_atom_sites_solution_secondary   difmap
_audit_creation_method           SHELXL-97
_cell_angle_alpha                78.350(4)
_cell_angle_beta                 82.962(4)
_cell_angle_gamma                84.496(4)
_cell_formula_units_Z            2
_cell_length_a                   5.3800(3)
_cell_length_b                   8.1542(6)
_cell_length_c                   12.6592(10)
_cell_measurement_reflns_used    2447
_cell_measurement_temperature    120(2)
_cell_measurement_theta_max      27.48
_cell_measurement_theta_min      2.91
_cell_volume                     538.37(7)
_computing_cell_refinement
'DENZO (Otwinowski & Minor, 1997) & COLLECT (Hooft, R.W.W., 1998)'
_computing_data_collection       'COLLECT (Hooft, R.W.W., 1998)'
_computing_data_reduction
'DENZO (Otwinowski & Minor, 1997) & COLLECT (Hooft, R.W.W., 1998)'
_computing_structure_refinement  'SHELXL-97 (Sheldrick, 2008)'
_diffrn_ambient_temperature      120(2)
_diffrn_detector_area_resol_mean 9.091
_diffrn_measured_fraction_theta_full 0.997
_diffrn_measured_fraction_theta_max 0.997
_diffrn_measurement_device_type
'Bruker-Nonius 95mm CCD camera on \k-goniostat'
_diffrn_measurement_method       '\f & \w scans'
_diffrn_radiation_monochromator  '10cm confocal mirrors'
_diffrn_radiation_source         'Bruker-Nonius FR591 rotating anode'
_diffrn_radiation_type           MoK\a
_diffrn_radiation_wavelength     0.71073
_diffrn_reflns_av_R_equivalents  0.1466
_diffrn_reflns_av_sigmaI/netI    0.1080
_diffrn_reflns_limit_h_max       6
_diffrn_reflns_limit_h_min       -6
_diffrn_reflns_limit_k_max       9
_diffrn_reflns_limit_k_min       -9
_diffrn_reflns_limit_l_max       15
_diffrn_reflns_limit_l_min       -15
_diffrn_reflns_number            10916
_diffrn_reflns_theta_full        24.99
_diffrn_reflns_theta_max         24.99
_diffrn_reflns_theta_min         3.30
_exptl_absorpt_coefficient_mu    0.105
_exptl_absorpt_correction_T_max  0.9979
_exptl_absorpt_correction_T_min  0.9855
_exptl_absorpt_correction_type   multi-scan
_exptl_absorpt_process_details   'SADABS V2.10 (Sheldrick, G.M., 2003)'
_exptl_crystal_colour            colourless
_exptl_crystal_density_diffrn    1.321
_exptl_crystal_density_method    'not measured'
_exptl_crystal_description       lath
_exptl_crystal_F_000             228
_exptl_crystal_size_max          0.14
_exptl_crystal_size_mid          0.06
_exptl_crystal_size_min          0.02
_refine_diff_density_max         0.212
_refine_diff_density_min         -0.241
_refine_diff_density_rms         0.058
_refine_ls_extinction_method     none
_refine_ls_goodness_of_fit_ref   1.060
_refine_ls_hydrogen_treatment    constr
_refine_ls_matrix_type           full
_refine_ls_number_parameters     143
_refine_ls_number_reflns         1891
_refine_ls_number_restraints     0
_refine_ls_restrained_S_all      1.060
_refine_ls_R_factor_all          0.1262
_refine_ls_R_factor_gt           0.0851
_refine_ls_shift/su_max          0.003
_refine_ls_shift/su_mean         0.000
_refine_ls_structure_factor_coef Fsqd
_refine_ls_weighting_details
'calc w=1/[\s^2^(Fo^2^)+(0.0224P)^2^+0.6573P] where P=(Fo^2^+2Fc^2^)/3'
_refine_ls_weighting_scheme      calc
_refine_ls_wR_factor_gt          0.1380
_refine_ls_wR_factor_ref         0.1543
_reflns_number_gt                1320
_reflns_number_total             1891
_reflns_threshold_expression     >2\s(I)
_cod_data_source_file            b917191f.txt
_cod_data_source_block           4
_cod_original_sg_symbol_H-M      P-1
_cod_database_code               7211931
loop_
_symmetry_equiv_pos_as_xyz
'x, y, z'
'-x, -y, -z'
loop_
_atom_site_label
_atom_site_type_symbol
_atom_site_fract_x
_atom_site_fract_y
_atom_site_fract_z
_atom_site_U_iso_or_equiv
_atom_site_adp_type
_atom_site_occupancy
_atom_site_symmetry_multiplicity
_atom_site_calc_flag
_atom_site_refinement_flags
C1 C -0.3361(6) 0.3332(4) 0.4027(3) 0.0252(8) Uani 1 1 d .
C2 C -0.1155(6) 0.2119(4) 0.3784(3) 0.0282(8) Uani 1 1 d .
H2A H -0.1502 0.0982 0.4196 0.034 Uiso 1 1 calc R
H2B H 0.0353 0.2451 0.4041 0.034 Uiso 1 1 calc R
C3 C -0.0588(6) 0.2044(4) 0.2589(3) 0.0237(8) Uani 1 1 d .
H3A H -0.0536 0.3201 0.2160 0.028 Uiso 1 1 calc R
H3B H -0.1955 0.1509 0.2360 0.028 Uiso 1 1 calc R
C4 C 0.1896(6) 0.1064(4) 0.2353(3) 0.0248(8) Uani 1 1 d .
H4A H 0.3240 0.1571 0.2618 0.030 Uiso 1 1 calc R
H4B H 0.1807 -0.0102 0.2765 0.030 Uiso 1 1 calc R
C5 C 0.2604(6) 0.1012(4) 0.1169(3) 0.0246(8) Uani 1 1 d .
O1A O -0.3417(4) 0.3823(3) 0.49380(19) 0.0298(6) Uani 1 1 d .
H1 H -0.4490 0.4639 0.4956 0.03(2) Uiso 0.50 1 calc PR
O1B O -0.4922(4) 0.3798(3) 0.3383(2) 0.0341(7) Uani 1 1 d .
O5A O 0.4420(5) -0.0071(3) 0.0971(2) 0.0332(7) Uani 1 1 d .
H5 H 0.4704 -0.0022 0.0298 0.08(3) Uiso 0.50 1 calc PR
O5B O 0.1523(4) 0.1976(3) 0.0465(2) 0.0356(7) Uani 1 1 d .
C22 C 1.1177(6) -0.3466(4) 0.1818(3) 0.0267(8) Uani 1 1 d .
C24 C 0.7833(6) -0.2257(4) 0.2631(3) 0.0261(8) Uani 1 1 d .
H24 H 0.6273 -0.1630 0.2740 0.031 Uiso 1 1 calc R
C25 C 0.9269(6) -0.3058(4) 0.3406(3) 0.0279(8) Uani 1 1 d .
H25 H 0.8924 -0.3107 0.4166 0.034 Uiso 1 1 calc R
C26 C 1.2996(6) -0.4045(5) 0.0974(3) 0.0326(9) Uani 1 1 d .
H26A H 1.4513 -0.4571 0.1297 0.049 Uiso 1 1 calc R
H26B H 1.3437 -0.3085 0.0401 0.049 Uiso 1 1 calc R
H26C H 1.2244 -0.4865 0.0664 0.049 Uiso 1 1 calc R
N21 N 1.1348(5) -0.3795(3) 0.2874(2) 0.0271(7) Uani 1 1 d .
H21 H 1.2596 -0.4393 0.3191 0.095(19) Uiso 1 1 calc R
N23 N 0.9052(5) -0.2518(3) 0.1654(2) 0.0266(7) Uani 1 1 d .
H23 H 0.8510 -0.2120 0.1017 0.078(17) Uiso 1 1 calc R
loop_
_atom_site_aniso_label
_atom_site_aniso_U_11
_atom_site_aniso_U_22
_atom_site_aniso_U_33
_atom_site_aniso_U_23
_atom_site_aniso_U_13
_atom_site_aniso_U_12
C1 0.0234(18) 0.0273(19) 0.025(2) -0.0071(16) -0.0043(15) 0.0031(14)
C2 0.0263(18) 0.0309(19) 0.027(2) -0.0074(16) -0.0028(15) 0.0067(15)
C3 0.0230(17) 0.0264(18) 0.0224(19) -0.0066(15) -0.0067(14) 0.0041(14)
C4 0.0230(17) 0.0274(18) 0.024(2) -0.0066(15) -0.0043(15) 0.0037(14)
C5 0.0215(17) 0.0269(18) 0.027(2) -0.0101(16) -0.0049(15) 0.0005(15)
O1A 0.0293(13) 0.0391(15) 0.0210(14) -0.0125(11) -0.0047(10) 0.0151(11)
O1B 0.0295(13) 0.0423(15) 0.0359(16) -0.0220(12) -0.0143(12) 0.0158(11)
O5A 0.0358(14) 0.0393(15) 0.0221(16) -0.0100(12) -0.0025(12) 0.0175(12)
O5B 0.0381(14) 0.0417(15) 0.0225(15) -0.0055(12) -0.0049(11) 0.0197(12)
C22 0.0236(18) 0.0284(19) 0.029(2) -0.0055(16) -0.0059(15) 0.0005(15)
C24 0.0228(17) 0.0302(19) 0.025(2) -0.0060(16) -0.0006(15) 0.0000(15)
C25 0.0289(18) 0.0289(19) 0.025(2) -0.0049(16) -0.0015(15) 0.0028(15)
C26 0.0279(18) 0.039(2) 0.031(2) -0.0123(17) 0.0008(16) 0.0042(16)
N21 0.0250(15) 0.0280(16) 0.0277(18) -0.0041(13) -0.0069(13) 0.0034(13)
N23 0.0248(15) 0.0329(16) 0.0210(18) -0.0026(13) -0.0061(13) 0.0027(13)
loop_
_atom_type_symbol
_atom_type_description
_atom_type_scat_dispersion_real
_atom_type_scat_dispersion_imag
_atom_type_scat_source
C C 0.0033 0.0016 'International Tables Vol C Tables 4.2.6.8 and 6.1.1.4'
H H 0.0000 0.0000 'International Tables Vol C Tables 4.2.6.8 and 6.1.1.4'
N N 0.0061 0.0033 'International Tables Vol C Tables 4.2.6.8 and 6.1.1.4'
O O 0.0106 0.0060 'International Tables Vol C Tables 4.2.6.8 and 6.1.1.4'
loop_
_geom_angle_atom_site_label_1
_geom_angle_atom_site_label_2
_geom_angle_atom_site_label_3
_geom_angle
O1B C1 O1A 124.2(3)
O1B C1 C2 120.8(3)
O1A C1 C2 115.0(3)
C1 C2 C3 113.8(3)
C1 C2 H2A 108.8
C3 C2 H2A 108.8
C1 C2 H2B 108.8
C3 C2 H2B 108.8
H2A C2 H2B 107.7
C2 C3 C4 112.1(3)
C2 C3 H3A 109.2
C4 C3 H3A 109.2
C2 C3 H3B 109.2
C4 C3 H3B 109.2
H3A C3 H3B 107.9
C5 C4 C3 114.3(3)
C5 C4 H4A 108.7
C3 C4 H4A 108.7
C5 C4 H4B 108.7
C3 C4 H4B 108.7
H4A C4 H4B 107.6
O5B C5 O5A 124.1(3)
O5B C5 C4 120.7(3)
O5A C5 C4 115.2(3)
C1 O1A H1 109.5
C5 O5A H5 109.5
N21 C22 N23 107.3(3)
N21 C22 C26 126.5(3)
N23 C22 C26 126.2(3)
C25 C24 N23 107.0(3)
C25 C24 H24 126.5
N23 C24 H24 126.5
C24 C25 N21 106.2(3)
C24 C25 H25 126.9
N21 C25 H25 126.9
C22 C26 H26A 109.5
C22 C26 H26B 109.5
H26A C26 H26B 109.5
C22 C26 H26C 109.5
H26A C26 H26C 109.5
H26B C26 H26C 109.5
C22 N21 C25 109.8(3)
C22 N21 H21 125.1
C25 N21 H21 125.1
C22 N23 C24 109.6(3)
C22 N23 H23 125.2
C24 N23 H23 125.2
loop_
_geom_bond_atom_site_label_1
_geom_bond_atom_site_label_2
_geom_bond_distance
C1 O1B 1.223(4)
C1 O1A 1.291(4)
C1 C2 1.513(4)
C2 C3 1.518(5)
C2 H2A 0.9900
C2 H2B 0.9900
C3 C4 1.519(4)
C3 H3A 0.9900
C3 H3B 0.9900
C4 C5 1.509(5)
C4 H4A 0.9900
C4 H4B 0.9900
C5 O5B 1.227(4)
C5 O5A 1.289(4)
O1A H1 0.8400
O5A H5 0.8400
C22 N21 1.322(4)
C22 N23 1.331(4)
C22 C26 1.477(5)
C24 C25 1.348(5)
C24 N23 1.374(4)
C24 H24 0.9500
C25 N21 1.384(4)
C25 H25 0.9500
C26 H26A 0.9800
C26 H26B 0.9800
C26 H26C 0.9800
N21 H21 0.8800
N23 H23 0.8800
loop_
_geom_hbond_atom_site_label_D
_geom_hbond_atom_site_label_H
_geom_hbond_atom_site_label_A
_geom_hbond_distance_DH
_geom_hbond_distance_HA
_geom_hbond_distance_DA
_geom_hbond_angle_DHA
_geom_hbond_site_symmetry_A
N23 H23 O5A 0.88 2.63 3.133(3) 117.2 .
O1A H1 O1A 0.84 1.62 2.457(4) 176.8 2_466
O1A H1 O1B 0.84 2.64 3.153(3) 120.5 2_466
O5A H5 O5A 0.84 1.61 2.442(5) 173.5 2_655
N23 H23 O5B 0.88 1.86 2.681(4) 154.8 2_655
N21 H21 O1B 0.88 1.89 2.710(3) 154.3 1_745
N21 H21 O1A 0.88 2.60 3.104(4) 117.3 2_656
