#------------------------------------------------------------------------------
#$Date: 2016-03-26 20:55:11 +0200 (Sat, 26 Mar 2016) $
#$Revision: 180455 $
#$URL: svn://www.crystallography.net/cod/cif/7/21/24/7212433.cif $
#------------------------------------------------------------------------------
#
# This file is available in the Crystallography Open Database (COD),
# http://www.crystallography.net/
#
# All data on this site have been placed in the public domain by the
# contributors.
#
data_7212433
loop_
_publ_author_name
'Brondel, Nicolas'
'Moynihan, Eamonn J. A.'
'Lehane, K. Niamh'
'Eccles, Kevin S.'
'Elcoate, Curtis J.'
'Coles, Simon J.'
'Lawrence, Simon E.'
'Maguire, Anita R.'
_publ_section_title
;
 Does intermolecular S&#xE001;O&#x22EF;H--C--S&#xE001;O hydrogen bonding
 in sulfoxides and sulfones provide a robust supramolecular synthon in the
 solid state?
;
_journal_issue                   10
_journal_name_full               CrystEngComm
_journal_page_first              2910
_journal_paper_doi               10.1039/c000371a
_journal_volume                  12
_journal_year                    2010
_chemical_absolute_configuration unk
_chemical_formula_moiety         'C16 H18 O2 S'
_chemical_formula_sum            'C16 H18 O2 S'
_chemical_formula_weight         274.36
_chemical_name_systematic
;
?
;
_space_group_IT_number           4
_symmetry_cell_setting           monoclinic
_symmetry_space_group_name_Hall  'P 2yb'
_symmetry_space_group_name_H-M   'P 1 21 1'
_atom_sites_solution_hydrogens   geom
_atom_sites_solution_primary     direct
_atom_sites_solution_secondary   difmap
_audit_creation_method           SHELXL-97
_cell_angle_alpha                90.00
_cell_angle_beta                 97.057(3)
_cell_angle_gamma                90.00
_cell_formula_units_Z            2
_cell_length_a                   8.1016(3)
_cell_length_b                   5.30912(18)
_cell_length_c                   16.8806(5)
_cell_measurement_reflns_used    5965
_cell_measurement_temperature    123(2)
_cell_measurement_theta_max      67.3730
_cell_measurement_theta_min      5.2857
_cell_volume                     720.57(4)
_computing_cell_refinement
;
CrysAlis RED, Oxford Diffraction Ltd.,
Version 1.171.32.15 (release 10-01-2008 CrysAlis171 .NET)
(compiled Jan 10 2008,16:37:18)
;
_computing_data_collection
;
CrysAlis CCD, Oxford Diffraction Ltd.,
Version 1.171.32.15 (release 10-01-2008 CrysAlis171 .NET)
(compiled Jan 10 2008,16:37:18)
;
_computing_data_reduction
;
CrysAlis RED, Oxford Diffraction Ltd.,
Version 1.171.32.15 (release 10-01-2008 CrysAlis171 .NET)
(compiled Jan 10 2008,16:37:18)
;
_computing_molecular_graphics    'PLATON (Spek, 2002)'
_computing_publication_material  'SHELXL-97; PLATON'
_computing_structure_refinement  'SHELXL-97 (Sheldrick, 1997)'
_computing_structure_solution    'SHELXS-97 (Sheldrick, 1990)'
_diffrn_ambient_temperature      123(2)
_diffrn_detector_area_resol_mean 10.2673
_diffrn_measured_fraction_theta_full 0.994
_diffrn_measured_fraction_theta_max 0.986
_diffrn_measurement_device_type  'Gemini R Ultra'
_diffrn_measurement_method       'thin slice \w scans'
_diffrn_radiation_monochromator  mirror
_diffrn_radiation_source         'Ultra (Cu) X-ray Source'
_diffrn_radiation_type           CuK\a
_diffrn_radiation_wavelength     1.54184
_diffrn_reflns_av_R_equivalents  0.0257
_diffrn_reflns_av_sigmaI/netI    0.0179
_diffrn_reflns_limit_h_max       9
_diffrn_reflns_limit_h_min       -9
_diffrn_reflns_limit_k_max       6
_diffrn_reflns_limit_k_min       -6
_diffrn_reflns_limit_l_max       19
_diffrn_reflns_limit_l_min       -19
_diffrn_reflns_number            6182
_diffrn_reflns_theta_full        66.50
_diffrn_reflns_theta_max         67.49
_diffrn_reflns_theta_min         5.28
_exptl_absorpt_coefficient_mu    1.951
_exptl_absorpt_correction_T_max  1.00000
_exptl_absorpt_correction_T_min  0.63013
_exptl_absorpt_correction_type   multi-scan
_exptl_absorpt_process_details
;
CrysAlis RED, Oxford Diffraction Ltd.,
Version 1.171.32.15 (release 10-01-2008 CrysAlis171 .NET)
(compiled Jan 10 2008,16:37:18)
Empirical absorption correction using spherical harmonics,
implemented in SCALE3 ABSPACK scaling algorithm.
;
_exptl_crystal_colour            colourless
_exptl_crystal_density_diffrn    1.265
_exptl_crystal_density_method    'not measured'
_exptl_crystal_description       needle
_exptl_crystal_F_000             292
_exptl_crystal_size_max          0.55
_exptl_crystal_size_mid          0.10
_exptl_crystal_size_min          0.03
_refine_diff_density_max         0.378
_refine_diff_density_min         -0.270
_refine_diff_density_rms         0.042
_refine_ls_abs_structure_details 'Flack H D (1983), Acta Cryst. A39, 876-881'
_refine_ls_abs_structure_Flack   0.42(2)
_refine_ls_extinction_method     none
_refine_ls_goodness_of_fit_ref   1.084
_refine_ls_hydrogen_treatment    constr
_refine_ls_matrix_type           full
_refine_ls_number_parameters     176
_refine_ls_number_reflns         2485
_refine_ls_number_restraints     1
_refine_ls_restrained_S_all      1.084
_refine_ls_R_factor_all          0.0363
_refine_ls_R_factor_gt           0.0348
_refine_ls_shift/su_max          0.000
_refine_ls_shift/su_mean         0.000
_refine_ls_structure_factor_coef Fsqd
_refine_ls_weighting_details
'calc w=1/[\s^2^(Fo^2^)+(0.0559P)^2^+0.2354P] where P=(Fo^2^+2Fc^2^)/3'
_refine_ls_weighting_scheme      calc
_refine_ls_wR_factor_gt          0.0957
_refine_ls_wR_factor_ref         0.0977
_reflns_number_gt                2398
_reflns_number_total             2485
_reflns_threshold_expression     >2sigma(I)
_cod_data_source_file            c000371a.txt
_cod_data_source_block           compound_03
_cod_original_sg_symbol_H-M      'P 21'
_cod_database_code               7212433
loop_
_symmetry_equiv_pos_as_xyz
'x, y, z'
'-x, y+1/2, -z'
loop_
_atom_site_label
_atom_site_type_symbol
_atom_site_fract_x
_atom_site_fract_y
_atom_site_fract_z
_atom_site_U_iso_or_equiv
_atom_site_adp_type
_atom_site_occupancy
_atom_site_symmetry_multiplicity
_atom_site_calc_flag
_atom_site_refinement_flags
S1 S 0.69781(7) -0.19084(14) 0.72922(3) 0.04110(18) Uani 1 1 d .
O2 O 0.78229(18) -0.1894(4) 0.38588(8) 0.0394(4) Uani 1 1 d .
O3 O 0.72261(18) 0.1165(3) 1.10053(8) 0.0311(3) Uani 1 1 d .
C4 C 0.7588(2) -0.1711(5) 0.46472(11) 0.0273(4) Uani 1 1 d .
C5 C 0.7405(2) 0.1128(4) 1.02076(12) 0.0258(4) Uani 1 1 d .
C6 C 0.8226(3) 0.0710(5) 0.77286(13) 0.0383(6) Uani 1 1 d .
H6 H 0.7750 0.2289 0.7470 0.046 Uiso 1 1 calc R
C7 C 0.6687(2) 0.2854(4) 0.96561(11) 0.0296(4) Uani 1 1 d .
H7 H 0.6009 0.4168 0.9820 0.035 Uiso 1 1 calc R
C8 C 0.8387(3) -0.0789(4) 0.99591(13) 0.0305(5) Uani 1 1 d .
H8 H 0.8878 -0.1990 1.0333 0.037 Uiso 1 1 calc R
C9 C 0.6640(3) 0.0111(4) 0.49610(13) 0.0296(5) Uani 1 1 d .
H9 H 0.6098 0.1374 0.4625 0.036 Uiso 1 1 calc R
C10 C 0.8236(3) -0.3564(4) 0.59431(13) 0.0327(5) Uani 1 1 d .
H10 H 0.8803 -0.4804 0.6279 0.039 Uiso 1 1 calc R
C11 C 0.6958(3) 0.2661(4) 0.88606(13) 0.0333(5) Uani 1 1 d .
H11 H 0.6450 0.3846 0.8486 0.040 Uiso 1 1 calc R
C12 C 0.7275(2) -0.1786(5) 0.62704(11) 0.0294(4) Uani 1 1 d .
C13 C 0.6214(2) 0.3130(5) 1.12624(11) 0.0337(4) Uani 1 1 d .
H13A H 0.6669 0.4767 1.1131 0.051 Uiso 1 1 calc R
H13B H 0.6200 0.3011 1.1841 0.051 Uiso 1 1 calc R
H13C H 0.5078 0.2962 1.0992 0.051 Uiso 1 1 calc R
C14 C 0.8390(3) -0.3577(4) 0.51407(13) 0.0318(5) Uani 1 1 d .
H14 H 0.9034 -0.4838 0.4923 0.038 Uiso 1 1 calc R
C15 C 0.7941(3) 0.0803(4) 0.86045(13) 0.0328(5) Uani 1 1 d .
C16 C 0.6485(3) 0.0083(4) 0.57698(13) 0.0323(5) Uani 1 1 d .
H16 H 0.5838 0.1340 0.5988 0.039 Uiso 1 1 calc R
C17 C 0.8651(3) -0.0952(4) 0.91608(14) 0.0343(5) Uani 1 1 d .
H17 H 0.9321 -0.2270 0.8993 0.041 Uiso 1 1 calc R
C18 C 0.7054(4) -0.0018(6) 0.33313(15) 0.0523(7) Uani 1 1 d .
H18A H 0.5843 -0.0140 0.3311 0.078 Uiso 1 1 calc R
H18B H 0.7371 -0.0279 0.2795 0.078 Uiso 1 1 calc R
H18C H 0.7421 0.1656 0.3525 0.078 Uiso 1 1 calc R
C19 C 1.0003(3) 0.0591(7) 0.75973(15) 0.0572(8) Uani 1 1 d .
H19A H 1.0598 0.2037 0.7856 0.086 Uiso 1 1 calc R
H19B H 1.0087 0.0631 0.7023 0.086 Uiso 1 1 calc R
H19C H 1.0496 -0.0973 0.7826 0.086 Uiso 1 1 calc R
loop_
_atom_site_aniso_label
_atom_site_aniso_U_11
_atom_site_aniso_U_22
_atom_site_aniso_U_33
_atom_site_aniso_U_23
_atom_site_aniso_U_13
_atom_site_aniso_U_12
S1 0.0451(3) 0.0506(3) 0.0284(3) -0.0005(3) 0.0079(2) -0.0216(3)
O2 0.0398(8) 0.0508(9) 0.0288(7) 0.0055(9) 0.0085(6) 0.0127(9)
O3 0.0277(7) 0.0393(9) 0.0266(7) 0.0028(6) 0.0046(6) 0.0047(6)
C4 0.0226(9) 0.0313(11) 0.0285(9) 0.0025(10) 0.0045(7) -0.0023(9)
C5 0.0214(9) 0.0300(10) 0.0264(10) 0.0014(8) 0.0047(7) -0.0046(8)
C6 0.0391(13) 0.0443(14) 0.0323(12) -0.0021(10) 0.0082(10) -0.0147(11)
C7 0.0311(10) 0.0281(10) 0.0300(9) 0.0017(10) 0.0053(7) -0.0020(10)
C8 0.0250(10) 0.0301(10) 0.0361(11) 0.0028(9) 0.0030(8) 0.0010(9)
C9 0.0262(10) 0.0290(10) 0.0332(11) 0.0028(9) 0.0020(8) 0.0023(9)
C10 0.0316(11) 0.0301(11) 0.0348(12) 0.0075(9) -0.0020(9) -0.0022(9)
C11 0.0373(11) 0.0323(12) 0.0301(10) 0.0048(9) 0.0035(8) -0.0069(9)
C12 0.0262(9) 0.0361(11) 0.0260(9) 0.0027(11) 0.0038(7) -0.0098(11)
C13 0.0277(9) 0.0441(11) 0.0301(9) -0.0046(12) 0.0062(7) 0.0030(11)
C14 0.0266(10) 0.0312(11) 0.0373(11) -0.0011(9) 0.0029(9) 0.0035(9)
C15 0.0294(11) 0.0387(12) 0.0308(11) -0.0031(9) 0.0060(8) -0.0120(10)
C16 0.0277(11) 0.0339(11) 0.0356(12) -0.0057(9) 0.0048(9) 0.0023(9)
C17 0.0238(10) 0.0373(11) 0.0432(12) -0.0098(9) 0.0096(9) -0.0048(9)
C18 0.0590(17) 0.0680(18) 0.0315(12) 0.0140(13) 0.0116(11) 0.0202(15)
C19 0.0415(14) 0.098(2) 0.0335(12) -0.0051(14) 0.0098(11) -0.0268(15)
loop_
_atom_type_symbol
_atom_type_description
_atom_type_scat_dispersion_real
_atom_type_scat_dispersion_imag
_atom_type_scat_source
C C 0.0181 0.0091 'International Tables Vol C Tables 4.2.6.8 and 6.1.1.4'
H H 0.0000 0.0000 'International Tables Vol C Tables 4.2.6.8 and 6.1.1.4'
O O 0.0492 0.0322 'International Tables Vol C Tables 4.2.6.8 and 6.1.1.4'
S S 0.3331 0.5567 'International Tables Vol C Tables 4.2.6.8 and 6.1.1.4'
loop_
_geom_angle_atom_site_label_1
_geom_angle_atom_site_label_2
_geom_angle_atom_site_label_3
_geom_angle
C12 S1 C6 103.34(10)
C4 O2 C18 117.03(19)
C5 O3 C13 116.29(16)
O2 C4 C9 124.9(2)
O2 C4 C14 114.7(2)
C9 C4 C14 120.43(18)
O3 C5 C7 124.37(19)
O3 C5 C8 116.15(18)
C7 C5 C8 119.48(19)
C19 C6 C15 114.3(2)
C19 C6 S1 114.1(2)
C15 C6 S1 105.94(15)
C5 C7 C11 119.8(2)
C5 C8 C17 120.0(2)
C4 C9 C16 119.49(19)
C14 C10 C12 121.40(19)
C15 C11 C7 121.6(2)
C10 C12 C16 118.67(18)
C10 C12 S1 120.99(17)
C16 C12 S1 120.30(18)
C10 C14 C4 119.4(2)
C11 C15 C17 118.4(2)
C11 C15 C6 119.5(2)
C17 C15 C6 122.1(2)
C9 C16 C12 120.6(2)
C8 C17 C15 120.7(2)
loop_
_geom_bond_atom_site_label_1
_geom_bond_atom_site_label_2
_geom_bond_distance
S1 C12 1.7720(19)
S1 C6 1.820(2)
O2 C4 1.371(2)
O2 C18 1.427(3)
O3 C5 1.372(2)
O3 C13 1.427(3)
C4 C9 1.381(3)
C4 C14 1.402(3)
C5 C7 1.383(3)
C5 C8 1.388(3)
C6 C19 1.484(4)
C6 C15 1.525(3)
C7 C11 1.391(3)
C8 C17 1.393(3)
C9 C16 1.387(3)
C10 C14 1.375(3)
C10 C12 1.381(3)
C11 C15 1.371(3)
C12 C16 1.406(3)
C15 C17 1.396(3)
