#------------------------------------------------------------------------------
#$Date: 2016-03-26 20:56:05 +0200 (Sat, 26 Mar 2016) $
#$Revision: 180456 $
#$URL: svn://www.crystallography.net/cod/cif/7/21/25/7212508.cif $
#------------------------------------------------------------------------------
#
# This file is available in the Crystallography Open Database (COD),
# http://www.crystallography.net/
#
# All data on this site have been placed in the public domain by the
# contributors.
#
data_7212508
loop_
_publ_author_name
'Podsiad\/lo, Marcin'
'Jak\'obek, Katarzyna'
'Katrusiak, Andrzej'
_publ_section_title
;
 Density, freezing and molecular aggregation in pyridazine, pyridine and
 benzene
;
_journal_issue                   9
_journal_name_full               CrystEngComm
_journal_page_first              2561
_journal_paper_doi               10.1039/c001153c
_journal_volume                  12
_journal_year                    2010
_chemical_formula_moiety         '3(C5 H5 N), C H4 O'
_chemical_formula_sum            'C16 H19 N3 O'
_chemical_formula_weight         269.34
_chemical_name_common            'pyridine:methanol 3:1 cocrystal'
_chemical_name_systematic
;
pyridine:methanol 3:1 cocrystal
;
_space_group_IT_number           7
_symmetry_cell_setting           monoclinic
_symmetry_space_group_name_Hall  'P -2yc'
_symmetry_space_group_name_H-M   'P 1 c 1'
_atom_sites_solution_hydrogens   geom
_atom_sites_solution_primary     direct
_atom_sites_solution_secondary   difmap
_audit_creation_method           SHELXL-97
_cell_angle_alpha                90.00
_cell_angle_beta                 90.40(3)
_cell_angle_gamma                90.00
_cell_formula_units_Z            2
_cell_length_a                   6.7710(14)
_cell_length_b                   5.5910(11)
_cell_length_c                   18.100(4)
_cell_measurement_reflns_used    4755
_cell_measurement_temperature    295(2)
_cell_measurement_theta_max      24.96
_cell_measurement_theta_min      3.01
_cell_volume                     685.2(2)
_computing_cell_refinement       'CrysAlisRED (Oxford Diffraction, 2004)'
_computing_data_collection       'CrysAlisCCD (Oxford Diffraction, 2004)'
_computing_data_reduction
'CrysAlisRED (Oxford Diffraction, 2004); REDSHABS (Katrusiak, A. 2003)'
_computing_molecular_graphics    'SHELXTL (Sheldrick, 1990)'
_computing_publication_material  'SHELXL--97 (Sheldrick, 1997)'
_computing_structure_refinement  'SHELXL--97 (Sheldrick, 1997)'
_computing_structure_solution    'SHELXS--97 (Sheldrick, 1997)'
_diffrn_ambient_environment      'diamond-anvil cell'
_diffrn_ambient_pressure         1800000
_diffrn_ambient_temperature      295(2)
_diffrn_measured_fraction_theta_full 0.395
_diffrn_measured_fraction_theta_max 0.395
_diffrn_measurement_device_type  'KM-4 CCD'
_diffrn_measurement_method       '\f- and \w-scans'
_diffrn_radiation_monochromator  graphite
_diffrn_radiation_source         'fine-focus sealed tube'
_diffrn_radiation_type           MoK\a
_diffrn_radiation_wavelength     0.71073
_diffrn_reflns_av_R_equivalents  0.2065
_diffrn_reflns_av_sigmaI/netI    0.1638
_diffrn_reflns_limit_h_max       8
_diffrn_reflns_limit_h_min       -8
_diffrn_reflns_limit_k_max       6
_diffrn_reflns_limit_k_min       -6
_diffrn_reflns_limit_l_max       7
_diffrn_reflns_limit_l_min       -7
_diffrn_reflns_number            4755
_diffrn_reflns_theta_full        24.96
_diffrn_reflns_theta_max         24.96
_diffrn_reflns_theta_min         3.01
_diffrn_standards_decay_%        0
_diffrn_standards_interval_count 0
_diffrn_standards_number         0
_exptl_absorpt_coefficient_mu    0.084
_exptl_absorpt_correction_T_max  0.84
_exptl_absorpt_correction_T_min  0.28
_exptl_absorpt_correction_type   numerical
_exptl_absorpt_process_details
;
Correction for absorption of the diamond-anvil cell and the sample
were made using program REDSHABS (Katrusiak, A. (2003) REDSHABS. Adam
Mickiewicz University Pozna\'n; Katrusiak, A. (2004) Z. Kristallogr.
219, 461-467).
;
_exptl_crystal_colour            colourless
_exptl_crystal_density_diffrn    1.305
_exptl_crystal_density_method    'not measured'
_exptl_crystal_description       cylinder
_exptl_crystal_F_000             288
_exptl_crystal_size_max          0.40
_exptl_crystal_size_mid          0.40
_exptl_crystal_size_min          0.25
_refine_diff_density_max         0.397
_refine_diff_density_min         -0.341
_refine_diff_density_rms         0.091
_refine_ls_abs_structure_details 'Flack H D (1983), Acta Cryst. A39, 876-881'
_refine_ls_abs_structure_Flack   0(10)
_refine_ls_extinction_method     none
_refine_ls_goodness_of_fit_ref   2.301
_refine_ls_hydrogen_treatment    constr
_refine_ls_matrix_type           full
_refine_ls_number_parameters     27
_refine_ls_number_reflns         907
_refine_ls_number_restraints     2
_refine_ls_restrained_S_all      2.299
_refine_ls_R_factor_all          0.3587
_refine_ls_R_factor_gt           0.3001
_refine_ls_shift/su_max          0.000
_refine_ls_shift/su_mean         0.000
_refine_ls_structure_factor_coef Fsqd
_refine_ls_weighting_details
'calc w=1/[\s^2^(Fo^2^)+(0.0300P)^2^+0.0000P] where P=(Fo^2^+2Fc^2^)/3'
_refine_ls_weighting_scheme      calc
_refine_ls_wR_factor_gt          0.2850
_refine_ls_wR_factor_ref         0.3070
_reflns_number_gt                585
_reflns_number_total             907
_reflns_threshold_expression     >2sigma(I)
_cod_data_source_file            c001153c.txt
_cod_data_source_block           pirmet_1.80GPa
_cod_original_sg_symbol_H-M      'P c'
_cod_database_code               7212508
loop_
_symmetry_equiv_pos_as_xyz
'x, y, z'
'x, -y, z+1/2'
loop_
_atom_site_label
_atom_site_type_symbol
_atom_site_fract_x
_atom_site_fract_y
_atom_site_fract_z
_atom_site_U_iso_or_equiv
_atom_site_adp_type
_atom_site_occupancy
_atom_site_symmetry_multiplicity
_atom_site_calc_flag
_atom_site_refinement_flags
N1 N -0.3160(17) 1.011(3) 1.6577(19) 0.0485(16) Uiso 1 1 d G
C2 C -0.3802(16) 1.200(2) 1.6199(19) 0.0485(16) Uiso 1 1 d G
H2 H -0.4286 1.3319 1.6453 0.058 Uiso 1 1 calc R
C3 C -0.377(2) 1.205(2) 1.541(2) 0.0485(16) Uiso 1 1 d G
H3 H -0.4229 1.3410 1.5171 0.058 Uiso 1 1 calc R
C4 C -0.309(2) 1.022(3) 1.501(2) 0.0485(16) Uiso 1 1 d G
H4 H -0.3070 1.0264 1.4494 0.058 Uiso 1 1 calc R
C5 C -0.245(2) 0.833(2) 1.539(2) 0.0485(16) Uiso 1 1 d G
H5 H -0.1963 0.7011 1.5131 0.058 Uiso 1 1 calc R
C6 C -0.2483(18) 0.828(2) 1.617(2) 0.0485(16) Uiso 1 1 d G
H6 H -0.2019 0.6921 1.6414 0.058 Uiso 1 1 calc R
N11 N -0.8582(14) 0.418(3) 1.6460(14) 0.0485(16) Uiso 1 1 d G
C12 C -0.753(2) 0.697(2) 1.5564(15) 0.0485(16) Uiso 1 1 d G
H12 H -0.6977 0.8464 1.5472 0.058 Uiso 1 1 calc R
C13 C -0.7807(18) 0.627(2) 1.6305(14) 0.0485(16) Uiso 1 1 d G
H13 H -0.7437 0.7300 1.6686 0.058 Uiso 1 1 calc R
C14 C -0.803(2) 0.558(3) 1.4978(15) 0.0485(16) Uiso 1 1 d G
H14 H -0.7834 0.6079 1.4494 0.058 Uiso 1 1 calc R
C15 C -0.9082(14) 0.279(2) 1.5874(15) 0.0485(16) Uiso 1 1 d G
H15 H -0.9635 0.1300 1.5965 0.058 Uiso 1 1 calc R
C16 C -0.881(2) 0.349(2) 1.5133(15) 0.0485(16) Uiso 1 1 d G
H16 H -0.9176 0.2464 1.4752 0.058 Uiso 1 1 calc R
N21 N -0.215(2) 1.692(2) 1.367(2) 0.0485(16) Uiso 1 1 d G
C22 C -0.206(3) 1.3346(19) 1.308(3) 0.0485(16) Uiso 1 1 d G
H22 H -0.1340 1.2124 1.2856 0.058 Uiso 1 1 calc R
C23 C -0.398(3) 1.3222(15) 1.310(2) 0.0485(16) Uiso 1 1 d G
H23 H -0.4639 1.1912 1.2903 0.058 Uiso 1 1 calc R
C24 C -0.499(2) 1.4948(13) 1.342(3) 0.0485(16) Uiso 1 1 d G
H24 H -0.6362 1.4858 1.3436 0.058 Uiso 1 1 calc R
C25 C -0.407(2) 1.6797(17) 1.370(3) 0.0485(16) Uiso 1 1 d G
H25 H -0.4790 1.8019 1.3923 0.058 Uiso 1 1 calc R
C26 C -0.114(2) 1.519(2) 1.336(3) 0.0485(16) Uiso 1 1 d G
H26 H 0.0232 1.5284 1.3342 0.058 Uiso 1 1 calc R
O31 O -0.790(3) 1.009(2) 1.345(3) 0.049(4) Uiso 1 1 d G
H31 H -0.8530 0.9000 1.3635 0.058 Uiso 1 1 calc R
C32 C -0.796(4) 0.984(4) 1.260(4) 0.049(4) Uiso 1 1 d .
H321 H -0.8605 0.8365 1.2472 0.063 Uiso 1 1 calc R
H322 H -0.6637 0.9827 1.2415 0.063 Uiso 1 1 calc R
H323 H -0.8675 1.1156 1.2393 0.063 Uiso 1 1 calc R
loop_
_atom_type_symbol
_atom_type_description
_atom_type_scat_dispersion_real
_atom_type_scat_dispersion_imag
_atom_type_scat_source
C C 0.0033 0.0016 'International Tables Vol C Tables 4.2.6.8 and 6.1.1.4'
H H 0.0000 0.0000 'International Tables Vol C Tables 4.2.6.8 and 6.1.1.4'
N N 0.0061 0.0033 'International Tables Vol C Tables 4.2.6.8 and 6.1.1.4'
O O 0.0106 0.0060 'International Tables Vol C Tables 4.2.6.8 and 6.1.1.4'
loop_
_geom_angle_atom_site_label_1
_geom_angle_atom_site_label_2
_geom_angle_atom_site_label_3
_geom_angle
C2 N1 C6 115.8
N1 C2 C3 121.6
C4 C3 C2 122.6
C5 C4 C3 115.8
C4 C5 C6 121.6
N1 C6 C5 122.6
C13 N11 C15 116.2
C14 C12 C13 123.4
N11 C13 C12 120.4
C16 C14 C12 116.2
N11 C15 C16 123.4
C14 C16 C15 120.4
C25 N21 C26 120.0
C23 C22 C26 119.8
C22 C23 C24 120.0
C25 C24 C23 120.2
N21 C25 C24 119.8
C22 C26 N21 120.2
loop_
_geom_bond_atom_site_label_1
_geom_bond_atom_site_label_2
_geom_bond_distance
N1 C2 1.330(8)
N1 C6 1.345(8)
C2 C3 1.422(8)
C3 C4 1.345(8)
C4 C5 1.330(8)
C5 C6 1.422(8)
N11 C13 1.312(8)
N11 C15 1.356(8)
C12 C14 1.356(8)
C12 C13 1.411(8)
C14 C16 1.312(8)
C15 C16 1.410(8)
N21 C25 1.308(5)
N21 C26 1.312(5)
C22 C23 1.308(5)
C22 C26 1.310(5)
C23 C24 1.312(5)
C24 C25 1.310(5)
O31 C32 1.53(7)
loop_
_refln_index_h
_refln_index_k
_refln_index_l
_refln_F_squared_calc
_refln_F_squared_meas
_refln_F_squared_sigma
_refln_observed_status
5 1 -7 59.86 18.18 24.50 o
0 5 -7 7.93 36.53 61.82 o
1 5 -7 52.55 174.65 60.59 o
4 5 -7 7.02 63.75 43.46 o
0 6 -7 16.67 74.11 48.82 o
2 6 -7 7.09 64.01 60.50 o
5 0 -6 1.40 0.00 35.65 o
6 0 -6 28.33 40.22 24.94 o
7 0 -6 0.19 53.47 47.94 o
4 1 -6 24.78 20.37 30.03 o
5 1 -6 11.67 106.21 35.07 o
6 1 -6 4.20 13.52 23.36 o
7 1 -6 13.92 43.73 52.42 o
5 2 -6 64.03 32.86 15.59 o
6 2 -6 27.80 28.67 25.11 o
7 2 -6 0.77 46.36 49.52 o
5 3 -6 3.50 37.72 24.24 o
6 3 -6 0.70 16.04 20.57 o
-2 4 -6 21.28 16.92 16.95 o
-1 4 -6 74.66 49.59 24.37 o
0 4 -6 36.50 54.97 46.27 o
1 4 -6 34.38 27.22 23.88 o
6 4 -6 17.09 22.92 51.45 o
-3 5 -6 13.75 41.17 25.82 o
-2 5 -6 54.82 278.70 105.37 o
-1 5 -6 18.81 29.68 75.34 o
0 5 -6 32.13 241.20 68.05 o
1 5 -6 12.96 118.71 47.06 o
4 5 -6 2.22 59.80 47.94 o
-2 6 -6 0.96 61.24 42.59 o
-1 6 -6 14.08 87.19 69.54 o
0 6 -6 21.35 41.73 36.17 o
1 6 -6 14.17 0.00 65.94 o
2 6 -6 1.85 86.58 69.63 o
4 1 -5 57.41 39.50 18.43 o
5 1 -5 54.89 22.54 16.01 o
6 1 -5 16.45 14.70 27.51 o
7 1 -5 2.46 57.52 27.98 o
3 2 -5 24.93 18.81 16.82 o
4 2 -5 24.34 52.08 41.35 o
5 2 -5 34.28 47.55 20.49 o
6 2 -5 17.53 68.32 29.38 o
7 2 -5 2.12 44.34 30.60 o
-5 3 -5 45.16 45.54 29.11 o
-4 3 -5 52.98 48.18 22.59 o
-3 3 -5 50.48 0.00 23.90 o
-2 3 -5 28.53 27.17 27.88 o
-1 3 -5 12.61 34.86 38.99 o
2 3 -5 51.29 19.67 14.34 o
3 3 -5 16.46 43.26 20.40 o
4 3 -5 30.53 65.20 23.99 o
5 3 -5 6.80 47.17 18.41 o
6 3 -5 1.49 31.38 21.71 o
-6 4 -5 0.50 60.46 40.24 o
-5 4 -5 37.11 60.37 43.50 o
-4 4 -5 6.36 21.69 43.35 o
-3 4 -5 52.55 33.53 24.17 o
-2 4 -5 55.84 29.28 25.27 o
-1 4 -5 39.55 22.52 18.74 o
0 4 -5 120.15 28.98 36.26 o
1 4 -5 74.59 31.35 25.73 o
2 4 -5 18.31 50.93 45.40 o
3 4 -5 0.80 19.41 20.92 o
4 4 -5 22.75 76.86 21.87 o
5 4 -5 7.54 45.84 23.17 o
6 4 -5 5.40 57.35 26.00 o
-4 5 -5 0.17 60.82 29.28 o
-3 5 -5 16.45 69.69 42.81 o
-2 5 -5 12.14 33.10 38.81 o
-1 5 -5 15.50 136.98 70.42 o
0 5 -5 53.29 111.78 56.11 o
1 5 -5 6.01 78.32 48.56 o
2 5 -5 9.01 77.09 62.25 o
3 5 -5 11.31 68.13 23.41 o
4 5 -5 11.98 34.97 19.99 o
-2 6 -5 4.07 44.52 37.73 o
-1 6 -5 7.46 50.61 39.14 o
0 6 -5 21.68 47.71 30.03 o
1 6 -5 13.11 43.91 38.77 o
2 6 -5 15.75 22.98 41.30 o
-6 0 -4 52.01 29.33 29.94 o
-5 0 -4 77.99 35.91 27.66 o
3 0 -4 232.77 277.28 87.98 o
4 0 -4 122.35 70.83 15.21 o
5 0 -4 40.21 30.15 13.47 o
6 0 -4 81.11 52.54 27.69 o
7 0 -4 31.54 55.59 31.98 o
-7 1 -4 1.07 82.01 65.59 o
-6 1 -4 0.83 0.00 56.90 o
-5 1 -4 27.55 86.55 31.24 o
-4 1 -4 24.30 90.09 54.70 o
3 1 -4 54.70 30.38 42.34 o
4 1 -4 22.24 56.75 19.33 o
5 1 -4 91.94 93.19 13.04 o
6 1 -4 1.92 69.23 26.76 o
7 1 -4 3.86 63.56 27.13 o
-7 2 -4 7.55 66.38 55.05 o
-6 2 -4 63.28 54.88 39.69 o
-5 2 -4 41.27 60.62 33.57 o
-4 2 -4 78.51 41.56 24.17 o
-3 2 -4 139.18 154.28 57.16 o
2 2 -4 478.16 320.75 122.90 o
3 2 -4 120.29 80.88 12.83 o
4 2 -4 10.02 79.10 18.72 o
5 2 -4 29.24 42.60 11.91 o
6 2 -4 19.49 58.02 22.86 o
7 2 -4 3.30 38.82 29.57 o
-7 3 -4 9.37 68.84 40.18 o
-6 3 -4 17.23 63.66 40.02 o
-5 3 -4 80.86 76.60 44.11 o
-4 3 -4 29.07 79.75 54.82 o
-3 3 -4 21.07 25.37 15.74 o
-2 3 -4 51.27 120.25 22.13 o
-1 3 -4 171.95 237.56 34.66 o
0 3 -4 3.17 7.56 29.68 o
1 3 -4 188.12 198.61 41.06 o
2 3 -4 114.98 86.72 27.11 o
3 3 -4 78.59 49.06 20.07 o
4 3 -4 4.22 69.95 19.89 o
5 3 -4 82.08 65.79 20.82 o
6 3 -4 4.47 53.47 17.85 o
7 3 -4 0.61 70.71 28.56 o
-6 4 -4 3.59 54.44 54.84 o
-5 4 -4 2.18 49.54 34.22 o
-4 4 -4 14.05 188.60 45.64 o
-3 4 -4 71.93 31.60 32.25 o
-2 4 -4 26.25 50.19 28.74 o
-1 4 -4 68.28 15.26 18.99 o
0 4 -4 27.31 29.91 21.07 o
1 4 -4 47.97 61.55 23.53 o
2 4 -4 12.05 47.63 15.59 o
3 4 -4 18.28 56.82 18.81 o
4 4 -4 2.51 57.26 17.73 o
5 4 -4 20.72 58.51 25.60 o
6 4 -4 4.44 53.90 24.61 o
-5 5 -4 4.36 47.88 46.31 o
-4 5 -4 7.38 49.17 29.51 o
-3 5 -4 4.29 150.02 40.78 o
-2 5 -4 10.56 93.05 41.67 o
-1 5 -4 15.25 34.99 33.78 o
0 5 -4 31.95 27.81 23.81 o
1 5 -4 8.54 42.73 13.72 o
2 5 -4 3.92 35.45 12.55 o
3 5 -4 1.64 51.19 16.11 o
4 5 -4 3.60 73.84 21.69 o
5 5 -4 7.95 37.20 23.43 o
-3 6 -4 1.75 57.47 37.21 o
-2 6 -4 0.54 58.48 39.70 o
-1 6 -4 14.54 56.59 45.37 o
0 6 -4 40.28 74.30 23.64 o
1 6 -4 9.87 29.98 20.29 o
2 6 -4 8.41 55.63 21.18 o
3 6 -4 24.27 50.19 19.94 o
-7 1 -3 2.55 24.22 38.07 o
-6 1 -3 24.28 35.29 24.75 o
-5 1 -3 12.08 44.50 12.37 o
-4 1 -3 311.10 404.38 33.17 o
-3 1 -3 18.85 23.75 20.68 o
2 1 -3 737.34 814.15 62.78 o
3 1 -3 11.23 19.68 8.72 o
4 1 -3 337.93 319.52 11.51 o
5 1 -3 10.42 39.01 9.89 o
6 1 -3 47.42 74.41 21.25 o
7 1 -3 0.30 64.52 23.97 o
-7 2 -3 3.61 107.14 50.78 o
-6 2 -3 1.49 96.34 55.89 o
-5 2 -3 28.81 200.21 40.23 o
-4 2 -3 16.18 30.32 12.60 o
-3 2 -3 112.75 164.52 31.13 o
-2 2 -3 81.54 73.72 26.93 o
-1 2 -3 172.02 81.84 25.55 o
1 2 -3 142.24 42.35 13.14 o
2 2 -3 11.66 57.93 21.34 o
3 2 -3 180.98 177.65 8.53 o
4 2 -3 31.05 31.13 10.92 o
5 2 -3 64.17 79.53 15.44 o
6 2 -3 28.04 21.67 15.87 o
7 2 -3 2.15 75.32 24.62 o
-7 3 -3 1.95 43.38 39.02 o
-6 3 -3 10.66 103.18 46.25 o
-5 3 -3 1.39 47.46 19.28 o
-4 3 -3 14.36 37.38 19.09 o
-3 3 -3 19.04 64.90 29.16 o
-2 3 -3 74.36 32.97 12.45 o
-1 3 -3 26.19 0.00 16.91 o
0 3 -3 82.36 79.74 62.49 o
1 3 -3 43.18 0.00 8.39 o
2 3 -3 14.75 32.12 11.05 o
3 3 -3 29.58 3.03 14.98 o
4 3 -3 2.55 30.93 10.54 o
5 3 -3 33.04 64.95 19.01 o
6 3 -3 1.31 52.30 16.31 o
7 3 -3 8.03 55.29 23.64 o
-6 4 -3 10.79 39.12 29.35 o
-5 4 -3 27.22 100.70 31.15 o
-4 4 -3 23.35 80.74 20.34 o
-3 4 -3 127.02 90.51 27.83 o
-2 4 -3 17.08 38.51 14.86 o
-1 4 -3 116.85 34.16 14.40 o
0 4 -3 33.64 57.12 15.86 o
1 4 -3 33.05 60.28 14.71 o
2 4 -3 46.14 21.95 11.49 o
3 4 -3 36.20 64.64 14.14 o
4 4 -3 19.98 58.46 18.87 o
5 4 -3 21.38 95.20 24.94 o
6 4 -3 1.95 68.56 25.03 o
-5 5 -3 0.20 55.70 33.36 o
-4 5 -3 9.71 31.76 18.27 o
-3 5 -3 0.82 70.13 18.73 o
-2 5 -3 32.84 38.99 15.48 o
-1 5 -3 31.91 48.18 16.26 o
0 5 -3 8.20 44.45 13.06 o
1 5 -3 65.16 45.19 13.44 o
2 5 -3 9.68 53.32 16.91 o
3 5 -3 24.59 143.00 34.00 o
4 5 -3 0.86 53.86 21.44 o
5 5 -3 5.79 49.00 25.99 o
-3 6 -3 3.27 9.44 28.82 o
-2 6 -3 9.63 55.08 23.59 o
-1 6 -3 1.51 47.41 18.37 o
0 6 -3 3.64 41.45 16.14 o
1 6 -3 24.58 63.58 25.69 o
2 6 -3 4.91 49.63 25.10 o
3 6 -3 7.67 52.63 26.08 o
-8 0 -2 6.10 42.18 47.62 o
-7 0 -2 15.39 55.71 50.26 o
-6 0 -2 14.85 75.46 34.61 o
-5 0 -2 89.91 88.76 13.76 o
-4 0 -2 91.82 32.01 9.61 o
-3 0 -2 884.71 1041.98 56.90 o
-2 0 -2 1722.57 1873.08 55.49 o
2 0 -2 1842.01 2143.12 71.44 o
3 0 -2 727.00 881.32 19.11 o
4 0 -2 66.88 28.07 10.50 o
5 0 -2 80.57 79.27 19.57 o
6 0 -2 30.12 84.43 20.76 o
7 0 -2 17.98 106.23 28.10 o
8 0 -2 8.60 55.96 47.80 o
-7 1 -2 0.27 121.40 71.92 o
-6 1 -2 10.36 46.79 21.90 o
-5 1 -2 70.72 64.24 13.39 o
-4 1 -2 100.87 74.47 7.77 o
-3 1 -2 442.43 320.16 33.66 o
-2 1 -2 534.53 852.34 38.77 o
-1 1 -2 6444.49 5741.57 71.30 o
1 1 -2 5718.19 5806.68 36.37 o
2 1 -2 504.24 651.97 10.20 o
3 1 -2 289.83 280.36 15.17 o
4 1 -2 88.02 71.20 9.88 o
5 1 -2 43.10 57.43 10.61 o
6 1 -2 16.22 38.64 19.35 o
7 1 -2 15.86 49.26 17.94 o
-7 2 -2 24.40 58.70 35.03 o
-6 2 -2 32.02 103.88 56.02 o
-5 2 -2 24.55 52.31 17.09 o
-4 2 -2 15.72 32.63 11.58 o
-3 2 -2 104.09 243.48 45.84 o
-2 2 -2 29.11 50.88 19.63 o
-1 2 -2 457.94 533.43 22.24 o
0 2 -2 880.17 1074.94 17.05 o
1 2 -2 561.81 439.80 13.83 o
2 2 -2 24.67 281.25 81.96 o
3 2 -2 170.15 149.44 20.06 o
4 2 -2 25.61 36.76 11.09 o
5 2 -2 23.21 129.64 32.24 o
6 2 -2 8.88 64.61 18.51 o
7 2 -2 15.74 56.20 28.12 o
-7 3 -2 59.38 63.72 29.66 o
-6 3 -2 36.20 60.52 20.16 o
-5 3 -2 339.50 349.14 39.88 o
-4 3 -2 7.64 35.24 11.08 o
-3 3 -2 14.34 42.22 13.15 o
-2 3 -2 315.64 296.47 15.91 o
-1 3 -2 141.84 105.36 22.15 o
0 3 -2 149.00 279.03 61.65 o
1 3 -2 283.59 418.17 46.83 o
2 3 -2 184.08 277.44 16.42 o
3 3 -2 9.85 29.49 7.70 o
4 3 -2 71.50 27.64 10.26 o
5 3 -2 219.86 314.81 23.96 o
6 3 -2 46.31 34.03 17.43 o
7 3 -2 27.30 60.45 21.97 o
-6 4 -2 8.73 55.42 31.47 o
-5 4 -2 1.04 63.90 31.19 o
-4 4 -2 23.75 69.31 18.36 o
-3 4 -2 91.55 113.93 17.41 o
-2 4 -2 11.85 35.84 10.61 o
-1 4 -2 87.89 92.59 13.07 o
0 4 -2 65.02 41.01 11.73 o
1 4 -2 88.71 108.14 13.92 o
2 4 -2 15.61 34.95 10.55 o
3 4 -2 101.13 83.05 18.54 o
4 4 -2 38.01 58.29 15.86 o
5 4 -2 5.53 103.05 25.24 o
6 4 -2 8.93 48.47 20.79 o
-5 5 -2 2.00 63.15 28.60 o
-4 5 -2 5.95 9.28 25.87 o
-3 5 -2 2.90 71.62 23.10 o
-2 5 -2 1.95 50.58 22.48 o
-1 5 -2 190.87 252.48 24.21 o
0 5 -2 115.17 94.59 16.44 o
1 5 -2 188.18 277.83 20.79 o
2 5 -2 19.56 35.46 18.93 o
3 5 -2 4.18 92.26 31.96 o
4 5 -2 11.60 50.14 17.51 o
5 5 -2 4.60 56.92 22.19 o
-3 6 -2 38.30 47.05 27.01 o
-2 6 -2 2.61 62.34 27.78 o
-1 6 -2 6.92 31.96 28.23 o
0 6 -2 19.38 60.19 19.58 o
1 6 -2 2.33 56.65 25.41 o
2 6 -2 3.99 58.96 23.41 o
3 6 -2 14.15 41.30 24.81 o
-7 1 -1 1.02 106.79 33.20 o
-6 1 -1 42.04 44.67 20.20 o
-5 1 -1 22.25 27.69 10.83 o
-4 1 -1 596.53 698.58 15.98 o
-3 1 -1 46.09 52.38 10.61 o
-2 1 -1 1839.55 1685.59 32.68 o
-1 1 -1 16.96 12.61 3.94 o
0 1 -1 13.44 9.33 2.68 o
1 1 -1 12.34 6.85 1.85 o
2 1 -1 2102.41 2152.68 60.82 o
3 1 -1 90.98 75.11 13.38 o
4 1 -1 582.10 722.29 17.13 o
5 1 -1 51.45 22.97 8.07 o
6 1 -1 36.13 64.99 15.36 o
7 1 -1 4.71 53.79 18.59 o
-7 2 -1 6.96 0.00 46.97 o
-6 2 -1 17.44 108.20 39.93 o
-5 2 -1 152.97 186.27 27.31 o
-4 2 -1 18.82 27.79 7.27 o
-3 2 -1 374.80 597.51 52.15 o
-2 2 -1 32.77 10.44 5.92 o
-1 2 -1 139.14 189.34 10.10 o
0 2 -1 14.40 14.97 2.91 o
1 2 -1 144.44 179.42 6.83 o
2 2 -1 25.04 11.69 4.65 o
3 2 -1 489.80 437.47 14.42 o
4 2 -1 31.67 23.61 10.16 o
5 2 -1 166.34 105.50 26.68 o
6 2 -1 10.33 62.32 14.68 o
7 2 -1 16.10 46.13 21.87 o
-7 3 -1 5.01 67.37 25.73 o
-6 3 -1 0.27 69.25 26.12 o
-5 3 -1 20.59 37.91 16.21 o
-4 3 -1 27.74 36.19 9.91 o
-3 3 -1 7.41 26.13 7.48 o
-2 3 -1 23.51 36.26 6.45 o
-1 3 -1 11.47 212.99 42.41 o
0 3 -1 5.39 0.00 10.31 o
1 3 -1 53.60 234.50 54.26 o
2 3 -1 17.24 37.69 6.16 o
3 3 -1 38.12 37.14 9.57 o
4 3 -1 3.66 204.25 90.38 o
5 3 -1 16.92 34.27 15.04 o
6 3 -1 6.69 54.37 18.72 o
7 3 -1 20.32 36.85 19.33 o
-6 4 -1 7.09 49.21 25.02 o
-5 4 -1 17.43 81.64 35.36 o
-4 4 -1 6.22 82.74 26.31 o
-3 4 -1 90.01 159.43 25.62 o
-2 4 -1 1.91 35.18 9.61 o
-1 4 -1 54.59 58.61 9.91 o
0 4 -1 9.50 27.78 7.69 o
1 4 -1 4.92 25.05 14.87 o
2 4 -1 25.36 39.80 12.32 o
3 4 -1 46.17 217.23 25.28 o
4 4 -1 52.38 66.40 17.42 o
5 4 -1 25.15 164.09 39.43 o
6 4 -1 14.89 64.72 21.66 o
-5 5 -1 0.10 48.30 27.20 o
-4 5 -1 7.30 62.35 19.87 o
-3 5 -1 2.15 75.39 27.79 o
-2 5 -1 17.90 3.30 27.26 o
-1 5 -1 3.53 28.09 12.81 o
0 5 -1 48.53 24.55 13.95 o
1 5 -1 39.65 36.07 14.41 o
2 5 -1 21.59 51.38 21.29 o
3 5 -1 19.03 102.86 28.11 o
4 5 -1 3.57 60.33 18.33 o
5 5 -1 1.29 57.58 23.17 o
-3 6 -1 2.71 53.50 26.05 o
-2 6 -1 21.12 77.66 27.25 o
-1 6 -1 18.32 46.01 22.54 o
0 6 -1 24.55 56.57 17.12 o
1 6 -1 2.35 62.09 28.76 o
2 6 -1 2.86 51.86 27.40 o
3 6 -1 12.18 57.23 26.49 o
-8 0 0 16.37 54.76 32.37 o
-7 0 0 52.00 39.27 32.31 o
-6 0 0 31.03 54.24 27.82 o
-5 0 0 105.71 66.94 13.48 o
-4 0 0 43.87 63.15 11.55 o
-3 0 0 773.58 891.67 30.96 o
-2 0 0 10078.23 10500.90 90.90 o
-1 0 0 253.08 240.82 5.09 o
1 0 0 252.91 244.49 12.69 o
2 0 0 10076.65 10543.53 41.19 o
3 0 0 773.63 1006.96 71.46 o
4 0 0 43.82 95.69 30.37 o
5 0 0 105.69 54.64 17.01 o
6 0 0 31.06 47.18 25.03 o
7 0 0 51.96 71.98 30.15 o
8 0 0 16.39 53.09 26.78 o
-7 1 0 1.05 92.50 31.75 o
-6 1 0 34.19 43.77 17.09 o
-5 1 0 10.91 27.59 10.55 o
-4 1 0 238.11 206.11 19.15 o
-3 1 0 658.96 888.13 39.12 o
-2 1 0 788.12 981.30 9.07 o
-1 1 0 529.65 505.62 13.85 o
0 1 0 137.53 151.72 5.86 o
1 1 0 529.90 494.97 15.90 o
2 1 0 788.10 986.86 19.17 o
3 1 0 659.50 857.29 46.30 o
4 1 0 238.06 195.73 14.39 o
5 1 0 10.96 23.64 8.92 o
6 1 0 34.16 50.61 15.34 o
7 1 0 1.06 41.57 19.89 o
-7 2 0 1.78 72.20 48.80 o
-6 2 0 289.57 261.60 52.37 o
-5 2 0 57.71 88.23 23.68 o
-4 2 0 653.10 647.81 17.68 o
-3 2 0 81.24 227.65 29.30 o
-2 2 0 43.27 50.32 3.53 o
-1 2 0 704.35 553.11 11.58 o
0 2 0 0.63 15.30 2.66 o
1 2 0 704.31 537.98 10.92 o
2 2 0 43.47 42.14 5.34 o
3 2 0 81.21 263.76 41.25 o
4 2 0 653.10 612.52 24.19 o
5 2 0 57.77 87.17 19.84 o
6 2 0 289.46 367.48 59.63 o
7 2 0 1.79 250.80 136.71 o
-7 3 0 31.06 52.62 23.46 o
-6 3 0 2.37 54.84 19.45 o
-5 3 0 50.17 50.01 14.76 o
-4 3 0 4.51 273.50 108.21 o
-3 3 0 21.30 45.98 10.39 o
-2 3 0 589.18 536.17 13.81 o
-1 3 0 105.77 165.29 24.46 o
0 3 0 577.62 558.66 28.98 o
1 3 0 105.79 296.52 58.97 o
2 3 0 589.06 547.18 14.61 o
3 3 0 21.32 29.96 8.22 o
4 3 0 4.50 50.71 14.52 o
5 3 0 50.18 43.26 14.48 o
6 3 0 2.38 51.09 18.21 o
7 3 0 31.11 53.69 23.15 o
-6 4 0 22.80 64.97 23.43 o
-5 4 0 31.87 94.19 23.00 o
-4 4 0 30.87 132.17 20.54 o
-3 4 0 24.58 73.00 20.59 o
-2 4 0 6.61 39.31 8.79 o
-1 4 0 13.42 45.73 9.99 o
0 4 0 123.01 132.44 14.53 o
1 4 0 13.45 31.14 9.71 o
2 4 0 6.58 23.85 12.61 o
3 4 0 24.62 61.39 22.64 o
4 4 0 30.83 135.28 20.81 o
5 4 0 31.93 60.96 24.27 o
6 4 0 22.78 62.77 24.08 o
-5 5 0 2.63 87.27 28.90 o
-4 5 0 61.05 61.46 20.64 o
-3 5 0 8.55 97.67 21.29 o
-2 5 0 107.86 67.22 16.37 o
-1 5 0 3.60 66.47 16.03 o
0 5 0 14.98 1.86 3.56 o
1 5 0 3.62 63.52 15.93 o
2 5 0 107.89 93.85 20.16 o
3 5 0 8.57 102.72 23.18 o
4 5 0 61.05 51.86 16.62 o
5 5 0 2.62 65.47 24.29 o
-3 6 0 0.95 60.57 28.13 o
-2 6 0 22.19 68.94 24.88 o
-1 6 0 43.33 93.13 21.76 o
0 6 0 133.80 181.17 25.21 o
1 6 0 43.33 79.15 26.37 o
2 6 0 22.18 60.28 23.77 o
3 6 0 0.95 39.61 26.36 o
-7 1 1 4.71 27.51 20.77 o
-6 1 1 36.11 41.76 15.05 o
-5 1 1 51.48 26.15 8.99 o
-4 1 1 582.19 633.26 17.15 o
-3 1 1 91.00 64.90 11.10 o
-2 1 1 2102.97 2012.10 57.09 o
-1 1 1 12.37 7.15 2.24 o
0 1 1 13.48 7.05 2.17 o
1 1 1 16.99 8.72 3.57 o
2 1 1 1839.72 1654.40 34.08 o
3 1 1 46.11 44.26 10.13 o
4 1 1 596.46 720.91 38.74 o
5 1 1 22.26 25.99 11.02 o
6 1 1 42.00 40.90 16.15 o
7 1 1 1.02 47.12 20.37 o
-7 2 1 16.11 49.60 23.67 o
-6 2 1 10.32 63.98 18.62 o
-5 2 1 166.36 163.94 18.96 o
-4 2 1 31.70 18.20 7.89 o
-3 2 1 489.74 520.48 34.53 o
-2 2 1 25.10 31.09 7.27 o
-1 2 1 144.54 165.03 5.27 o
0 2 1 14.45 10.01 2.71 o
1 2 1 139.01 159.75 5.83 o
2 2 1 32.79 22.02 6.44 o
3 2 1 374.62 484.78 52.11 o
4 2 1 18.80 27.67 9.62 o
5 2 1 152.95 150.30 31.59 o
6 2 1 17.41 14.71 30.12 o
7 2 1 6.97 65.51 27.19 o
-7 3 1 20.30 58.49 21.01 o
-6 3 1 6.69 49.48 15.70 o
-5 3 1 16.91 48.00 15.41 o
-4 3 1 3.67 42.24 15.37 o
-3 3 1 38.13 33.56 9.47 o
-2 3 1 17.24 53.21 9.24 o
-1 3 1 53.67 132.12 30.83 o
0 3 1 5.40 3.20 7.61 o
1 3 1 11.49 260.82 45.46 o
2 3 1 23.58 31.20 6.90 o
3 3 1 7.39 22.96 8.80 o
4 3 1 27.78 31.86 9.41 o
5 3 1 20.56 50.02 18.92 o
6 3 1 0.27 39.61 23.57 o
7 3 1 5.00 77.39 22.42 o
-6 4 1 14.91 49.12 21.21 o
-5 4 1 25.13 77.73 27.33 o
-4 4 1 52.39 45.90 16.52 o
-3 4 1 46.10 218.57 34.40 o
-2 4 1 25.36 40.07 11.67 o
-1 4 1 4.93 22.89 15.19 o
0 4 1 9.52 41.80 9.11 o
1 4 1 54.58 67.90 12.97 o
2 4 1 1.90 33.85 10.79 o
3 4 1 90.00 161.63 55.64 o
4 4 1 6.21 61.29 19.28 o
5 4 1 17.45 75.28 39.62 o
6 4 1 7.09 78.07 29.51 o
-5 5 1 1.29 52.76 23.85 o
-4 5 1 3.57 65.54 18.56 o
-3 5 1 19.03 63.83 19.73 o
-2 5 1 21.59 61.92 19.22 o
-1 5 1 39.64 54.26 19.44 o
0 5 1 48.56 24.82 18.48 o
1 5 1 3.52 43.67 18.40 o
2 5 1 17.93 0.00 89.26 o
3 5 1 2.15 126.08 28.32 o
4 5 1 7.32 42.48 18.85 o
5 5 1 0.10 49.78 23.53 o
-3 6 1 12.18 66.40 24.99 o
-2 6 1 2.87 63.43 32.50 o
-1 6 1 2.34 79.74 29.31 o
0 6 1 24.57 51.76 17.29 o
1 6 1 18.31 52.74 25.02 o
2 6 1 21.13 51.92 23.19 o
3 6 1 2.70 63.65 34.11 o
-8 0 2 8.62 41.50 29.18 o
-7 0 2 18.00 69.54 26.31 o
-6 0 2 30.21 89.01 23.09 o
-5 0 2 80.56 83.27 20.95 o
-4 0 2 66.69 17.49 9.94 o
-3 0 2 726.79 766.43 15.28 o
-2 0 2 1840.35 2051.23 33.27 o
2 0 2 1723.13 1807.84 35.21 o
3 0 2 884.35 948.43 122.18 o
4 0 2 91.94 9.09 27.20 o
5 0 2 89.71 53.82 17.98 o
6 0 2 14.84 82.71 30.84 o
7 0 2 15.32 37.54 22.23 o
8 0 2 6.08 78.47 35.09 o
-7 1 2 15.85 40.30 18.27 o
-6 1 2 16.21 8.19 22.27 o
-5 1 2 43.06 52.28 10.98 o
-4 1 2 88.06 65.01 12.25 o
-3 1 2 289.63 204.58 13.00 o
-2 1 2 504.24 619.00 16.64 o
-1 1 2 5715.99 5849.22 27.15 o
0 1 2 385.41 412.08 24.06 o
1 1 2 6442.06 6061.32 78.76 o
2 1 2 534.34 795.75 29.32 o
3 1 2 441.94 308.38 18.78 o
4 1 2 100.80 75.89 13.88 o
5 1 2 70.61 46.69 13.15 o
6 1 2 10.35 37.40 18.39 o
7 1 2 0.28 17.91 20.69 o
-7 2 2 15.73 80.28 26.74 o
-6 2 2 8.85 69.75 17.49 o
-5 2 2 23.15 62.12 51.21 o
-4 2 2 25.64 29.88 9.28 o
-3 2 2 170.13 152.65 8.96 o
-2 2 2 24.68 239.08 95.25 o
-1 2 2 561.58 426.32 17.01 o
0 2 2 880.46 1034.60 11.10 o
1 2 2 457.54 515.39 15.84 o
2 2 2 29.06 41.41 19.19 o
3 2 2 104.03 178.80 34.15 o
4 2 2 15.76 23.04 11.56 o
5 2 2 24.62 58.80 21.74 o
6 2 2 32.06 76.03 31.06 o
7 2 2 24.39 86.47 32.69 o
-7 3 2 27.31 81.33 22.00 o
-6 3 2 46.23 87.93 22.94 o
-5 3 2 219.79 294.19 28.16 o
-4 3 2 71.35 44.76 13.07 o
-3 3 2 9.80 30.35 8.36 o
-2 3 2 184.09 268.55 18.93 o
-1 3 2 283.69 306.26 24.17 o
0 3 2 148.98 423.99 60.43 o
1 3 2 141.90 114.19 15.87 o
2 3 2 315.61 254.57 10.94 o
3 3 2 14.30 22.14 10.13 o
4 3 2 7.65 38.44 12.04 o
5 3 2 339.25 276.82 25.07 o
6 3 2 36.21 49.67 24.24 o
7 3 2 59.28 50.55 26.15 o
-6 4 2 8.94 40.52 20.60 o
-5 4 2 5.55 75.89 26.10 o
-4 4 2 38.00 66.81 18.18 o
-3 4 2 101.10 110.93 20.68 o
-2 4 2 15.55 39.75 12.70 o
-1 4 2 88.62 99.81 13.03 o
0 4 2 65.02 42.60 9.51 o
1 4 2 87.80 88.25 13.22 o
2 4 2 11.90 34.81 11.08 o
3 4 2 91.46 82.51 24.55 o
4 4 2 23.77 68.99 26.67 o
5 4 2 1.02 112.29 40.69 o
6 4 2 8.73 64.20 32.43 o
-5 5 2 4.58 64.93 25.07 o
-4 5 2 11.57 50.81 19.28 o
-3 5 2 4.17 62.63 20.82 o
-2 5 2 19.53 89.14 25.46 o
-1 5 2 188.17 286.24 34.57 o
0 5 2 115.09 85.44 27.19 o
1 5 2 190.71 314.94 32.04 o
2 5 2 1.94 98.44 40.34 o
3 5 2 2.88 97.66 30.66 o
4 5 2 5.96 57.24 30.36 o
5 5 2 2.01 66.41 33.23 o
-3 6 2 14.12 51.05 28.19 o
-2 6 2 4.00 76.98 24.67 o
-1 6 2 2.32 48.69 22.86 o
0 6 2 19.38 54.66 21.31 o
1 6 2 6.92 34.51 38.97 o
2 6 2 2.59 30.46 45.38 o
3 6 2 38.29 65.29 35.22 o
-7 1 3 0.30 69.07 24.29 o
-6 1 3 47.43 55.28 15.75 o
-5 1 3 10.43 20.63 11.58 o
-4 1 3 337.86 247.45 22.23 o
-3 1 3 11.21 7.41 7.07 o
-2 1 3 737.20 792.19 16.40 o
2 1 3 720.00 1017.76 37.32 o
3 1 3 18.81 0.00 41.23 o
4 1 3 311.13 337.96 24.35 o
5 1 3 12.10 35.13 15.04 o
6 1 3 24.29 35.24 20.12 o
7 1 3 2.56 46.09 23.24 o
-7 2 3 2.14 51.52 25.93 o
-6 2 3 28.04 74.26 24.24 o
-5 2 3 64.16 84.33 20.44 o
-4 2 3 31.04 31.28 9.23 o
-3 2 3 181.03 148.42 10.27 o
-2 2 3 11.66 33.99 13.18 o
-1 2 3 142.34 77.73 11.80 o
0 2 3 172.30 108.24 8.38 o
1 2 3 172.04 86.91 13.50 o
2 2 3 81.62 104.16 27.71 o
3 2 3 112.72 176.77 18.89 o
4 2 3 16.20 25.90 13.66 o
5 2 3 28.79 73.50 21.80 o
6 2 3 1.49 36.29 20.74 o
7 2 3 3.60 15.82 27.25 o
-7 3 3 8.03 63.29 25.18 o
-6 3 3 1.31 75.09 20.33 o
-5 3 3 33.03 50.05 17.72 o
-4 3 3 2.54 37.57 13.90 o
-3 3 3 29.57 11.66 15.09 o
-2 3 3 14.78 35.63 8.84 o
-1 3 3 43.15 10.18 6.74 o
0 3 3 82.45 178.66 36.64 o
1 3 3 26.18 34.03 16.89 o
2 3 3 74.37 24.80 8.60 o
3 3 3 19.02 23.28 16.92 o
4 3 3 14.38 40.02 16.34 o
5 3 3 1.39 30.47 16.47 o
6 3 3 10.66 44.60 22.60 o
7 3 3 1.95 46.15 30.13 o
-6 4 3 1.95 44.68 22.47 o
-5 4 3 21.41 96.52 31.83 o
-4 4 3 19.99 69.51 22.35 o
-3 4 3 36.25 123.75 28.12 o
-2 4 3 46.16 30.72 11.97 o
-1 4 3 33.07 43.26 13.01 o
0 4 3 33.63 39.08 14.06 o
1 4 3 116.96 45.25 14.29 o
2 4 3 17.10 37.50 14.46 o
3 4 3 127.09 112.50 44.16 o
4 4 3 23.39 35.57 23.88 o
5 4 3 27.23 79.52 38.73 o
6 4 3 10.81 83.40 43.24 o
-5 5 3 5.79 34.70 19.27 o
-4 5 3 0.86 51.56 20.72 o
-3 5 3 24.59 99.28 30.08 o
-2 5 3 9.70 38.85 24.31 o
-1 5 3 65.15 60.36 26.48 o
0 5 3 8.19 40.53 22.61 o
1 5 3 31.92 42.62 23.93 o
2 5 3 32.82 49.34 22.27 o
3 5 3 0.82 135.42 39.54 o
4 5 3 9.70 41.43 27.86 o
5 5 3 0.20 81.55 33.04 o
-3 6 3 7.67 72.65 29.87 o
-2 6 3 4.90 24.99 31.94 o
-1 6 3 24.58 89.81 32.26 o
0 6 3 3.65 79.46 27.41 o
1 6 3 1.51 56.80 40.34 o
2 6 3 9.64 64.81 40.23 o
3 6 3 3.27 69.29 46.44 o
-7 0 4 31.57 32.53 25.18 o
-6 0 4 81.08 60.62 27.16 o
-5 0 4 40.18 15.34 17.42 o
-4 0 4 122.27 41.85 14.60 o
-3 0 4 232.67 174.42 26.23 o
5 0 4 78.00 27.46 29.98 o
6 0 4 52.11 32.19 21.90 o
-7 1 4 3.87 46.36 21.90 o
-6 1 4 1.90 95.33 37.52 o
-5 1 4 92.00 42.93 11.35 o
-4 1 4 22.18 24.77 8.38 o
-3 1 4 54.60 366.65 87.79 o
4 1 4 24.25 17.01 19.35 o
5 1 4 27.53 0.00 21.75 o
6 1 4 0.84 33.23 21.71 o
7 1 4 1.07 28.31 38.25 o
-7 2 4 3.30 76.99 33.94 o
-6 2 4 19.48 87.23 22.77 o
-5 2 4 29.16 34.15 16.10 o
-4 2 4 9.98 29.04 12.83 o
-3 2 4 120.33 83.24 9.00 o
-2 2 4 478.36 492.54 69.07 o
-1 2 4 255.93 24.59 30.03 o
2 2 4 205.52 192.82 18.00 o
3 2 4 139.05 68.14 25.99 o
4 2 4 78.38 49.31 24.92 o
5 2 4 41.24 32.34 16.30 o
6 2 4 63.14 30.51 22.36 o
7 2 4 7.53 29.18 25.40 o
-7 3 4 0.60 55.91 27.12 o
-6 3 4 4.46 50.30 20.35 o
-5 3 4 82.09 31.27 15.82 o
-4 3 4 4.21 68.98 25.94 o
-3 3 4 78.60 21.27 12.20 o
-2 3 4 114.96 79.95 13.27 o
-1 3 4 188.12 200.18 14.45 o
0 3 4 3.16 24.93 11.14 o
1 3 4 171.91 167.51 22.88 o
2 3 4 51.19 110.61 35.68 o
3 3 4 21.08 11.54 15.88 o
4 3 4 29.16 47.80 26.03 o
5 3 4 80.87 32.43 26.42 o
6 3 4 17.28 48.33 27.63 o
7 3 4 9.39 27.29 24.58 o
-6 4 4 4.42 56.79 27.87 o
-5 4 4 20.66 64.01 26.85 o
-4 4 4 2.49 59.56 21.54 o
-3 4 4 18.24 39.10 16.20 o
-2 4 4 12.07 30.12 13.33 o
-1 4 4 47.91 25.91 12.76 o
0 4 4 27.27 23.41 10.37 o
1 4 4 68.23 23.34 11.00 o
2 4 4 26.22 25.86 18.59 o
3 4 4 71.90 42.84 25.61 o
4 4 4 14.02 46.60 34.75 o
5 4 4 2.18 39.25 35.59 o
6 4 4 3.57 72.23 39.54 o
-5 5 4 7.96 72.27 31.47 o
-4 5 4 3.59 58.11 23.97 o
-3 5 4 1.62 50.75 20.68 o
-2 5 4 3.91 32.37 19.36 o
-1 5 4 8.57 65.01 17.49 o
0 5 4 32.01 0.00 32.90 o
1 5 4 15.29 97.04 37.24 o
2 5 4 10.58 51.79 29.93 o
3 5 4 4.31 80.57 45.54 o
4 5 4 7.37 60.52 30.47 o
5 5 4 4.35 45.85 29.20 o
-3 6 4 24.28 43.95 31.20 o
-2 6 4 8.38 50.35 27.60 o
-1 6 4 9.84 60.06 30.19 o
0 6 4 40.24 80.35 33.26 o
1 6 4 14.51 44.34 39.84 o
2 6 4 0.54 59.82 42.62 o
3 6 4 1.75 52.42 69.37 o
-7 1 5 2.47 69.52 22.72 o
-6 1 5 16.47 45.98 21.43 o
-5 1 5 54.93 28.02 8.64 o
-4 1 5 57.40 17.79 11.72 o
-3 1 5 46.26 325.09 133.43 o
-7 2 5 2.12 74.21 30.37 o
-6 2 5 17.55 77.65 29.45 o
-5 2 5 34.28 26.79 15.74 o
-4 2 5 24.32 26.19 11.24 o
-3 2 5 24.90 27.67 15.03 o
-2 2 5 30.61 237.84 42.78 o
-6 3 5 1.49 61.13 23.93 o
-5 3 5 6.81 55.93 17.77 o
-4 3 5 30.55 71.26 15.78 o
-3 3 5 16.46 19.11 9.59 o
-2 3 5 51.30 36.04 14.21 o
-1 3 5 13.59 31.37 30.56 o
0 3 5 0.13 13.43 34.77 o
1 3 5 12.60 22.86 24.93 o
2 3 5 28.53 38.72 36.44 o
3 3 5 50.49 40.74 52.51 o
4 3 5 52.98 0.00 22.82 o
5 3 5 45.17 26.17 15.96 o
-6 4 5 5.40 60.33 32.26 o
-5 4 5 7.54 37.12 24.56 o
-4 4 5 22.74 44.10 22.60 o
-3 4 5 0.80 37.21 19.70 o
-2 4 5 18.30 28.08 16.73 o
-1 4 5 74.70 23.36 12.88 o
0 4 5 120.13 26.08 15.26 o
1 4 5 39.53 36.62 13.10 o
2 4 5 55.77 44.11 20.89 o
3 4 5 52.54 51.24 31.22 o
4 4 5 6.34 33.07 32.38 o
5 4 5 37.11 11.24 28.67 o
6 4 5 0.50 4.04 47.42 o
-4 5 5 11.97 51.64 28.26 o
-3 5 5 11.31 36.51 21.07 o
-2 5 5 9.01 104.08 36.20 o
-1 5 5 6.01 53.39 53.74 o
0 5 5 53.29 102.61 40.61 o
1 5 5 15.51 57.23 28.54 o
2 5 5 12.14 36.69 28.43 o
3 5 5 16.46 64.19 49.73 o
4 5 5 0.17 70.48 41.79 o
-2 6 5 15.75 74.84 47.39 o
-1 6 5 13.11 108.83 53.20 o
0 6 5 21.67 78.78 37.80 o
1 6 5 7.45 50.29 40.54 o
2 6 5 4.06 23.97 71.39 o
-7 0 6 0.19 44.97 30.88 o
-6 0 6 28.34 21.85 21.93 o
-5 0 6 1.41 6.92 26.72 o
-4 0 6 180.41 57.00 48.21 o
-7 1 6 13.89 55.11 25.04 o
-6 1 6 4.19 20.49 15.65 o
-5 1 6 11.64 58.19 14.06 o
-4 1 6 24.76 30.56 20.43 o
-7 2 6 0.76 54.09 27.10 o
-6 2 6 27.79 55.64 30.43 o
-5 2 6 63.97 33.69 14.10 o
-4 2 6 75.33 48.27 22.76 o
-3 2 6 3.65 12.89 19.51 o
-6 3 6 0.68 70.55 28.29 o
-5 3 6 3.50 27.81 14.55 o
-4 3 6 1.01 32.51 17.43 o
-3 3 6 40.35 59.25 24.46 o
-2 3 6 168.66 25.05 36.88 o
-1 3 6 119.76 12.91 25.64 o
-6 4 6 17.11 71.45 49.51 o
-5 4 6 2.87 86.44 53.31 o
-4 4 6 44.01 66.64 58.39 o
-3 4 6 0.53 27.03 24.14 o
-2 4 6 3.35 20.81 16.20 o
-1 4 6 34.41 21.06 24.95 o
0 4 6 36.52 34.16 40.92 o
1 4 6 74.77 34.32 28.19 o
2 4 6 21.36 164.24 40.78 o
-4 5 6 2.21 36.26 30.96 o
-3 5 6 8.30 54.00 33.77 o
-2 5 6 27.57 62.34 113.27 o
-1 5 6 12.94 0.00 53.12 o
0 5 6 32.04 25.82 45.13 o
1 5 6 18.76 31.70 32.75 o
2 5 6 54.76 87.63 54.97 o
3 5 6 13.77 53.04 43.29 o
-2 6 6 1.86 51.54 56.02 o
-1 6 6 14.19 27.31 65.77 o
0 6 6 21.33 9.13 47.59 o
-7 1 7 15.06 41.88 25.35 o
-6 1 7 30.13 26.19 25.99 o
-5 1 7 59.84 31.14 19.37 o
-7 2 7 11.81 103.26 52.07 o
-6 2 7 20.58 43.06 21.12 o
-5 2 7 49.45 19.72 13.30 o
-4 2 7 57.74 0.00 44.08 o
-6 3 7 1.53 63.74 29.37 o
-5 3 7 7.32 25.64 19.48 o
-4 3 7 14.32 33.44 18.42 o
-3 3 7 62.73 14.17 35.63 o
-5 4 7 30.96 150.99 111.87 o
-4 4 7 32.67 45.27 36.64 o
-3 4 7 30.05 27.91 16.61 o
-2 4 7 31.64 39.63 22.91 o
-4 5 7 7.01 79.12 39.81 o
-3 5 7 1.40 323.90 93.38 o
-2 5 7 13.00 45.75 49.17 o
-1 5 7 52.52 32.84 28.45 o
0 5 7 7.94 26.69 28.45 o
-2 6 7 7.10 137.15 85.44 o
-1 6 7 2.02 2.46 46.45 o
0 6 7 16.68 58.57 48.73 o
