#------------------------------------------------------------------------------
#$Date: 2016-03-26 20:50:34 +0200 (Sat, 26 Mar 2016) $
#$Revision: 180451 $
#$URL: svn://www.crystallography.net/cod/cif/7/21/20/7212099.cif $
#------------------------------------------------------------------------------
#
# This file is available in the Crystallography Open Database (COD),
# http://www.crystallography.net/
#
# All data on this site have been placed in the public domain by the
# contributors.
#
data_7212099
loop_
_publ_author_name
'Nayak, Susanta K.'
'Venugopala, K. N.'
'Chopra, Deepak'
Vasu,
'Row, T. N. Guru'
_publ_section_title
;
 Effect of substitution on molecular conformation and packing features in
 a series of aryl substituted
 ethyl-6-methyl-4-phenyl-2-thioxo-1,2,3,4-tetrahydropyrimidine-5-carboxylates
;
_journal_issue                   4
_journal_name_full               CrystEngComm
_journal_page_first              1205
_journal_paper_doi               10.1039/b919648j
_journal_volume                  12
_journal_year                    2010
_chemical_compound_source        'see text'
_chemical_formula_moiety         'C14 H15 Cl N2 O2 S'
_chemical_formula_sum            'C14 H15 Cl N2 O2 S'
_chemical_formula_weight         310.80
_chemical_name_common
;
4-(3-Chloro-phenyl)-6-methyl-2-thioxo-1,2,3,4-tetrahydro-
pyrimidine-5-carboxylic
;
_chemical_name_systematic
;
4-(3-Chloro-phenyl)-6-methyl-2-thioxo-1,2,3,4-tetrahydro-pyrimidine-5-carboxylic acid ethyl ester
;
_space_group_IT_number           2
_symmetry_cell_setting           triclinic
_symmetry_Int_Tables_number      2
_symmetry_space_group_name_Hall  '-P 1'
_symmetry_space_group_name_H-M   'P -1'
_atom_sites_solution_hydrogens   geom
_atom_sites_solution_primary     direct
_atom_sites_solution_secondary   difmap
_cell_angle_alpha                107.600(6)
_cell_angle_beta                 90.610(6)
_cell_angle_gamma                107.820(6)
_cell_formula_units_Z            2
_cell_length_a                   7.294(3)
_cell_length_b                   10.430(4)
_cell_length_c                   10.634(4)
_cell_measurement_reflns_used    350
_cell_measurement_temperature    292(2)
_cell_measurement_theta_max      0.92
_cell_measurement_theta_min      27.99
_cell_volume                     729.4(5)
_computing_cell_refinement       SMART
_computing_data_collection       'SMART (Bruker, 1998)'
_computing_data_reduction        'SAINT (Bruker, 1998)'
_computing_molecular_graphics
'Ortep-3 for Windows (Farrugia, 1997) and CAMERON (Watkin et al., 1993)'
_computing_publication_material  'PLATON (Spek, 2003)'
_computing_structure_refinement  'SHELXL-97 (Sheldrick, 1997)'
_computing_structure_solution    'SHELXTL V6.14 (Bruker, 2000)'
_diffrn_ambient_temperature      292(2)
_diffrn_measured_fraction_theta_full 0.998
_diffrn_measured_fraction_theta_max 0.998
_diffrn_measurement_device_type  'Bruker SMART CCD area detector'
_diffrn_measurement_method       '\f and \w scans'
_diffrn_radiation_monochromator  graphite
_diffrn_radiation_probe          x-ray
_diffrn_radiation_source         'fine-focus sealed tube'
_diffrn_radiation_type           MoK\a
_diffrn_radiation_wavelength     0.71073
_diffrn_reflns_av_R_equivalents  0.0238
_diffrn_reflns_av_sigmaI/netI    0.0273
_diffrn_reflns_limit_h_max       8
_diffrn_reflns_limit_h_min       -8
_diffrn_reflns_limit_k_max       12
_diffrn_reflns_limit_k_min       -12
_diffrn_reflns_limit_l_max       12
_diffrn_reflns_limit_l_min       -12
_diffrn_reflns_number            6999
_diffrn_reflns_reduction_process
;
;
_diffrn_reflns_theta_full        25.00
_diffrn_reflns_theta_max         25.00
_diffrn_reflns_theta_min         2.02
_exptl_absorpt_coefficient_mu    0.407
_exptl_absorpt_correction_T_max  0.9303
_exptl_absorpt_correction_T_min  0.8808
_exptl_absorpt_correction_type   multi-scan
_exptl_absorpt_process_details   'SADABS, (Sheldrick, 1996)'
_exptl_crystal_colour            colorless
_exptl_crystal_density_diffrn    1.415
_exptl_crystal_density_method    'Not Measured'
_exptl_crystal_description       plate
_exptl_crystal_F_000             324
_exptl_crystal_size_max          0.32
_exptl_crystal_size_mid          0.23
_exptl_crystal_size_min          0.18
_refine_diff_density_max         0.696
_refine_diff_density_min         -0.377
_refine_diff_density_rms         0.099
_refine_ls_extinction_method     none
_refine_ls_goodness_of_fit_ref   1.091
_refine_ls_hydrogen_treatment    constr
_refine_ls_matrix_type           full
_refine_ls_number_parameters     183
_refine_ls_number_reflns         2569
_refine_ls_number_restraints     0
_refine_ls_restrained_S_all      1.091
_refine_ls_R_factor_all          0.0747
_refine_ls_R_factor_gt           0.0653
_refine_ls_shift/su_max          0.001
_refine_ls_shift/su_mean         0.000
_refine_ls_structure_factor_coef Fsqd
_refine_ls_weighting_details
'calc w=1/[\s^2^(Fo^2^)+(0.1188P)^2^+0.3119P] where P=(Fo^2^+2Fc^2^)/3'
_refine_ls_weighting_scheme      calc
_refine_ls_wR_factor_gt          0.1745
_refine_ls_wR_factor_ref         0.1844
_reflns_number_gt                2155
_reflns_number_total             2569
_reflns_threshold_expression     >2sigma(I)
_cod_data_source_file            b919648j.txt
_cod_data_source_block           s3cl_m
_cod_depositor_comments
;
The following automatic conversions were performed:

'_symmetry_cell_setting' value 'Triclinic' changed to 'triclinic'
according to /home/saulius/struct/CIF-dictionaries/cif_core.dic
dictionary named 'cif_core.dic' version 2.4.2 from 2011-04-26.

Automatic conversion script
Id: cif_fix_values 1891 2012-01-12 08:04:46Z andrius 
;
_cod_database_code               7212099
loop_
_symmetry_equiv_pos_site_id
_symmetry_equiv_pos_as_xyz
1 x,y,z
2 -x,-y,-z
loop_
_atom_site_label
_atom_site_type_symbol
_atom_site_fract_x
_atom_site_fract_y
_atom_site_fract_z
_atom_site_U_iso_or_equiv
_atom_site_adp_type
_atom_site_occupancy
_atom_site_symmetry_multiplicity
_atom_site_calc_flag
_atom_site_refinement_flags
S1 S 1.30672(11) 0.59534(9) 0.95848(9) 0.0446(3) Uani 1 1 d .
Cl1 Cl 0.41826(16) 0.18687(10) 0.56682(11) 0.0720(4) Uani 1 1 d .
O1 O 0.6727(3) 0.8884(2) 0.8302(2) 0.0475(6) Uani 1 1 d .
O2 O 0.9328(3) 1.0296(2) 0.7745(3) 0.0489(6) Uani 1 1 d .
N2 N 0.9807(3) 0.6452(3) 0.9122(2) 0.0355(6) Uani 1 1 d .
H2N H 0.9278 0.5923 0.9588 0.043 Uiso 1 1 calc R
N1 N 1.2546(3) 0.7902(3) 0.8646(2) 0.0348(6) Uani 1 1 d .
H1N H 1.3735 0.8060 0.8488 0.042 Uiso 1 1 calc R
C3 C 0.9659(4) 0.8399(3) 0.8373(3) 0.0327(6) Uani 1 1 d .
C1 C 1.1704(4) 0.6781(3) 0.9084(3) 0.0326(6) Uani 1 1 d .
C9 C 0.7781(4) 0.5853(3) 0.7049(3) 0.0320(6) Uani 1 1 d .
C5 C 0.8432(4) 0.9214(3) 0.8161(3) 0.0341(6) Uani 1 1 d .
C4 C 0.8552(4) 0.6937(3) 0.8417(3) 0.0317(6) Uani 1 1 d .
H4 H 0.7447 0.7004 0.8919 0.038 Uiso 1 1 calc R
C2 C 1.1608(4) 0.8805(3) 0.8439(3) 0.0321(6) Uani 1 1 d .
C10 C 0.6459(4) 0.4533(3) 0.6966(3) 0.0387(7) Uani 1 1 d .
H10 H 0.6029 0.4342 0.7731 0.046 Uiso 1 1 calc R
C11 C 0.5805(4) 0.3528(3) 0.5757(3) 0.0418(7) Uani 1 1 d .
C14 C 0.8365(4) 0.6099(3) 0.5890(3) 0.0409(7) Uani 1 1 d .
H14 H 0.9255 0.6970 0.5929 0.049 Uiso 1 1 calc R
C6 C 0.8190(5) 1.1114(3) 0.7460(4) 0.0454(8) Uani 1 1 d .
H6A H 0.7769 1.1619 0.8268 0.054 Uiso 1 1 calc R
H6B H 0.7054 1.0494 0.6841 0.054 Uiso 1 1 calc R
C8 C 1.2981(4) 1.0155(3) 0.8316(4) 0.0460(8) Uani 1 1 d .
H8A H 1.3126 1.0042 0.7397 0.069 Uiso 1 1 calc R
H8B H 1.4220 1.0365 0.8791 0.069 Uiso 1 1 calc R
H8C H 1.2476 1.0922 0.8683 0.069 Uiso 1 1 calc R
C13 C 0.7648(5) 0.5072(4) 0.4679(3) 0.0475(8) Uani 1 1 d .
H13 H 0.8038 0.5262 0.3906 0.057 Uiso 1 1 calc R
C12 C 0.6361(5) 0.3765(4) 0.4598(3) 0.0475(8) Uani 1 1 d .
H12 H 0.5882 0.3063 0.3781 0.057 Uiso 1 1 calc R
C7 C 0.9460(7) 1.2129(6) 0.6873(7) 0.097(2) Uani 1 1 d .
H7A H 1.0662 1.2638 0.7437 0.146 Uiso 1 1 calc R
H7B H 0.8833 1.2789 0.6787 0.146 Uiso 1 1 calc R
H7C H 0.9711 1.1620 0.6012 0.146 Uiso 1 1 calc R
loop_
_atom_site_aniso_label
_atom_site_aniso_U_11
_atom_site_aniso_U_22
_atom_site_aniso_U_33
_atom_site_aniso_U_23
_atom_site_aniso_U_13
_atom_site_aniso_U_12
S1 0.0354(5) 0.0474(5) 0.0661(6) 0.0357(4) 0.0032(4) 0.0175(4)
Cl1 0.0792(7) 0.0384(5) 0.0796(7) 0.0168(5) -0.0081(5) -0.0046(5)
O1 0.0284(11) 0.0501(14) 0.0782(16) 0.0361(12) 0.0113(10) 0.0172(10)
O2 0.0317(11) 0.0444(13) 0.0885(17) 0.0425(13) 0.0082(11) 0.0165(10)
N2 0.0285(12) 0.0394(14) 0.0464(14) 0.0277(11) 0.0006(10) 0.0080(10)
N1 0.0251(12) 0.0381(13) 0.0514(14) 0.0266(11) 0.0062(10) 0.0125(10)
C3 0.0281(14) 0.0297(15) 0.0441(16) 0.0180(12) 0.0033(12) 0.0088(12)
C1 0.0289(14) 0.0342(15) 0.0354(14) 0.0152(12) 0.0002(11) 0.0074(12)
C9 0.0248(13) 0.0332(15) 0.0453(16) 0.0184(12) -0.0008(11) 0.0138(11)
C5 0.0305(15) 0.0304(14) 0.0447(16) 0.0158(12) 0.0037(12) 0.0109(12)
C4 0.0250(13) 0.0329(15) 0.0445(16) 0.0211(13) 0.0027(11) 0.0111(11)
C2 0.0269(14) 0.0305(14) 0.0421(15) 0.0167(12) 0.0024(11) 0.0087(12)
C10 0.0383(16) 0.0364(16) 0.0470(17) 0.0224(14) 0.0012(13) 0.0111(13)
C11 0.0364(16) 0.0341(16) 0.0553(19) 0.0161(14) -0.0035(14) 0.0106(13)
C14 0.0366(16) 0.0439(18) 0.0472(18) 0.0227(15) 0.0041(13) 0.0123(13)
C6 0.0407(17) 0.0385(17) 0.069(2) 0.0265(16) 0.0050(15) 0.0208(14)
C8 0.0276(15) 0.0403(18) 0.079(2) 0.0347(17) 0.0064(15) 0.0079(13)
C13 0.0450(18) 0.059(2) 0.0455(18) 0.0245(16) 0.0082(14) 0.0197(16)
C12 0.0455(18) 0.0461(19) 0.0471(18) 0.0053(15) -0.0029(15) 0.0196(16)
C7 0.067(3) 0.092(4) 0.190(6) 0.109(4) 0.036(3) 0.041(3)
loop_
_atom_type_symbol
_atom_type_description
_atom_type_scat_dispersion_real
_atom_type_scat_dispersion_imag
_atom_type_scat_source
S S 0.1246 0.1234 'International Tables Vol C Tables 4.2.6.8 and 6.1.1.4'
O O 0.0106 0.0060 'International Tables Vol C Tables 4.2.6.8 and 6.1.1.4'
N N 0.0061 0.0033 'International Tables Vol C Tables 4.2.6.8 and 6.1.1.4'
Cl Cl 0.1484 0.1585 'International Tables Vol C Tables 4.2.6.8 and 6.1.1.4'
H H 0.0000 0.0000 'International Tables Vol C Tables 4.2.6.8 and 6.1.1.4'
C C 0.0033 0.0016 'International Tables Vol C Tables 4.2.6.8 and 6.1.1.4'
loop_
_geom_angle_atom_site_label_1
_geom_angle_atom_site_label_2
_geom_angle_atom_site_label_3
_geom_angle
C5 O2 C6 117.6(2)
C1 N2 C4 124.0(2)
C1 N2 H2N 118.0
C4 N2 H2N 118.0
C1 N1 C2 124.1(2)
C1 N1 H1N 117.9
C2 N1 H1N 117.9
C2 C3 C5 126.2(3)
C2 C3 C4 119.4(3)
C5 C3 C4 114.3(2)
N2 C1 N1 115.6(2)
N2 C1 S1 124.2(2)
N1 C1 S1 120.2(2)
C14 C9 C10 118.5(3)
C14 C9 C4 123.1(3)
C10 C9 C4 118.4(3)
O1 C5 O2 123.1(3)
O1 C5 C3 122.5(3)
O2 C5 C3 114.3(2)
N2 C4 C3 109.2(2)
N2 C4 C9 109.7(2)
C3 C4 C9 113.2(2)
N2 C4 H4 108.2
C3 C4 H4 108.2
C9 C4 H4 108.2
C3 C2 N1 118.8(2)
C3 C2 C8 128.4(3)
N1 C2 C8 112.8(2)
C11 C10 C9 119.4(3)
C11 C10 H10 120.3
C9 C10 H10 120.3
C10 C11 C12 122.6(3)
C10 C11 Cl1 119.0(3)
C12 C11 Cl1 118.5(3)
C13 C14 C9 120.8(3)
C13 C14 H14 119.6
C9 C14 H14 119.6
O2 C6 C7 106.5(3)
O2 C6 H6A 110.4
C7 C6 H6A 110.4
O2 C6 H6B 110.4
C7 C6 H6B 110.4
H6A C6 H6B 108.6
C2 C8 H8A 109.5
C2 C8 H8B 109.5
H8A C8 H8B 109.5
C2 C8 H8C 109.5
H8A C8 H8C 109.5
H8B C8 H8C 109.5
C14 C13 C12 120.7(3)
C14 C13 H13 119.7
C12 C13 H13 119.7
C11 C12 C13 118.0(3)
C11 C12 H12 121.0
C13 C12 H12 121.0
C6 C7 H7A 109.5
C6 C7 H7B 109.5
H7A C7 H7B 109.5
C6 C7 H7C 109.5
H7A C7 H7C 109.5
H7B C7 H7C 109.5
loop_
_geom_bond_atom_site_label_1
_geom_bond_atom_site_label_2
_geom_bond_distance
S1 C1 1.676(3)
Cl1 C11 1.746(3)
O1 C5 1.208(4)
O2 C5 1.324(4)
O2 C6 1.447(4)
N2 C1 1.324(4)
N2 C4 1.468(3)
N2 H2N 0.8600
N1 C1 1.363(4)
N1 C2 1.386(4)
N1 H1N 0.8600
C3 C2 1.348(4)
C3 C5 1.467(4)
C3 C4 1.506(4)
C9 C14 1.379(4)
C9 C10 1.395(4)
C9 C4 1.519(4)
C4 H4 0.9800
C2 C8 1.501(4)
C10 C11 1.358(5)
C10 H10 0.9300
C11 C12 1.371(5)
C14 C13 1.374(5)
C14 H14 0.9300
C6 C7 1.477(5)
C6 H6A 0.9700
C6 H6B 0.9700
C8 H8A 0.9600
C8 H8B 0.9600
C8 H8C 0.9600
C13 C12 1.375(5)
C13 H13 0.9300
C12 H12 0.9300
C7 H7A 0.9600
C7 H7B 0.9600
C7 H7C 0.9600
loop_
_geom_torsion_atom_site_label_1
_geom_torsion_atom_site_label_2
_geom_torsion_atom_site_label_3
_geom_torsion_atom_site_label_4
_geom_torsion
C4 N2 C1 N1 17.0(4)
C4 N2 C1 S1 -165.5(2)
C2 N1 C1 N2 9.7(4)
C2 N1 C1 S1 -168.0(2)
C6 O2 C5 O1 0.5(5)
C6 O2 C5 C3 177.4(3)
C2 C3 C5 O1 -169.1(3)
C4 C3 C5 O1 15.5(4)
C2 C3 C5 O2 13.9(4)
C4 C3 C5 O2 -161.5(3)
C1 N2 C4 C3 -33.5(4)
C1 N2 C4 C9 91.2(3)
C2 C3 C4 N2 26.0(4)
C5 C3 C4 N2 -158.3(2)
C2 C3 C4 C9 -96.5(3)
C5 C3 C4 C9 79.2(3)
C14 C9 C4 N2 -109.6(3)
C10 C9 C4 N2 68.6(3)
C14 C9 C4 C3 12.7(4)
C10 C9 C4 C3 -169.1(2)
C5 C3 C2 N1 180.0(3)
C4 C3 C2 N1 -4.9(4)
C5 C3 C2 C8 0.1(5)
C4 C3 C2 C8 175.2(3)
C1 N1 C2 C3 -15.4(4)
C1 N1 C2 C8 164.5(3)
C14 C9 C10 C11 0.7(4)
C4 C9 C10 C11 -177.6(3)
C9 C10 C11 C12 -1.4(5)
C9 C10 C11 Cl1 178.9(2)
C10 C9 C14 C13 0.6(4)
C4 C9 C14 C13 178.8(3)
C5 O2 C6 C7 -173.5(4)
C9 C14 C13 C12 -1.3(5)
C10 C11 C12 C13 0.7(5)
Cl1 C11 C12 C13 -179.6(3)
C14 C13 C12 C11 0.7(5)
