#------------------------------------------------------------------------------
#$Date: 2016-02-16 03:10:39 +0200 (Tue, 16 Feb 2016) $
#$Revision: 176453 $
#$URL: svn://www.crystallography.net/cod/cif/7/21/21/7212174.cif $
#------------------------------------------------------------------------------
#
# This file is available in the Crystallography Open Database (COD),
# http://www.crystallography.net/
#
# All data on this site have been placed in the public domain by the
# contributors.
#
data_7212174
loop_
_publ_author_name
'Johnstone, Russell D. L.'
'Lennie, Alistair R.'
'Parker, Stewart F.'
'Parsons, Simon'
'Pidcock, Elna'
'Richardson, Patricia R.'
'Warren, John E.'
'Wood, Peter A.'
_publ_section_title
;
 High-pressure polymorphism in salicylamide
;
_journal_issue                   4
_journal_name_full               CrystEngComm
_journal_page_first              1065
_journal_paper_doi               10.1039/b921288d
_journal_volume                  12
_journal_year                    2010
_chemical_absolute_configuration unk
_chemical_formula_moiety         'C7 H7 N1 O2'
_chemical_formula_sum            'C7 H7 N O2'
_chemical_formula_weight         137.14
_chemical_name_common            Salicylamide
_space_group_IT_number           19
_symmetry_cell_setting           orthorhombic
_symmetry_space_group_name_Hall  'P 2ac 2ab'
_symmetry_space_group_name_H-M   'P 21 21 21'
_atom_sites_solution_hydrogens   geom
_atom_sites_solution_primary     direct
_cell_angle_alpha                90
_cell_angle_beta                 90
_cell_angle_gamma                90
_cell_formula_units_Z            4
_cell_length_a                   3.8938(4)
_cell_length_b                   5.5612(6)
_cell_length_c                   28.566(8)
_cell_measurement_reflns_used    587
_cell_measurement_temperature    293
_cell_measurement_theta_max      17
_cell_measurement_theta_min      3
_cell_volume                     618.6(2)
_computing_cell_refinement       'SAINT (Siemens ,1995)'
_computing_data_collection       'SMART (Siemens, 1993)'
_computing_data_reduction        'SAINT (Siemens ,1995)'
_computing_molecular_graphics    'CAMERON (Watkin et al., 1996)'
_computing_publication_material  'CRYSTALS (Betteridge et al., 2003)'
_computing_structure_refinement  'CRYSTALS (Betteridge et al., 2003)'
_computing_structure_solution    'SIR92 (Altomare et al., 1994)'
_diffrn_ambient_pressure         200000
_diffrn_ambient_temperature      293
_diffrn_measured_fraction_theta_full 0.913
_diffrn_measured_fraction_theta_max 0.909
_diffrn_measurement_device       'Bruker SMART'
_diffrn_measurement_device_type  Area
_diffrn_measurement_method       \w
_diffrn_radiation_monochromator  silicon
_diffrn_radiation_type           ' synchrotron '
_diffrn_radiation_wavelength     0.47540
_diffrn_reflns_av_R_equivalents  0.1486
_diffrn_reflns_limit_h_max       4
_diffrn_reflns_limit_h_min       0
_diffrn_reflns_limit_k_max       6
_diffrn_reflns_limit_k_min       0
_diffrn_reflns_limit_l_max       33
_diffrn_reflns_limit_l_min       0
_diffrn_reflns_number            10956
_diffrn_reflns_reduction_process
;
Merged with SORTAV
R.H. Blessing, (1987) Cryst. Rev. 1, 3-58
;
_diffrn_reflns_theta_full        14.858
_diffrn_reflns_theta_max         17.277
_diffrn_reflns_theta_min         2.496
_diffrn_standards_number         0
_exptl_absorpt_coefficient_mu    0.110
_exptl_absorpt_correction_T_max  0.99
_exptl_absorpt_correction_T_min  0.74
_exptl_absorpt_correction_type   multi-scan
_exptl_absorpt_process_details   'SADABS (Siemens, 1996)'
_exptl_crystal_colour            colourless
_exptl_crystal_density_diffrn    1.472
_exptl_crystal_density_method    'not measured'
_exptl_crystal_description       block
_exptl_crystal_F_000             288
_exptl_crystal_recrystallization_method 'From MeOH/EtOH'
_exptl_crystal_size_max          0.20
_exptl_crystal_size_mid          0.10
_exptl_crystal_size_min          0.10
_refine_diff_density_max         0.27
_refine_diff_density_min         -0.30
_refine_ls_extinction_method     None
_refine_ls_goodness_of_fit_ref   1.0518
_refine_ls_hydrogen_treatment    mixed
_refine_ls_matrix_type           full
_refine_ls_number_parameters     95
_refine_ls_number_reflns         716
_refine_ls_number_restraints     8
_refine_ls_R_factor_all          0.0932
_refine_ls_R_factor_gt           0.0493
_refine_ls_shift/su_max          0.000112
_refine_ls_structure_factor_coef Fsqd
_refine_ls_weighting_details
;
Method= Modified Sheldrick
w=1/[\s^2^(F^2^) + ( 0.07P)^2^ + 0.00P]
,where P=(max(Fo^2^,0) + 2Fc^2^)/3
;
_refine_ls_weighting_scheme      calc
_refine_ls_wR_factor_all         0.1261
_refine_ls_wR_factor_gt          0.1062
_refine_ls_wR_factor_ref         0.1261
_reflns_limit_h_max              4
_reflns_limit_h_min              0
_reflns_limit_k_max              6
_reflns_limit_k_min              0
_reflns_limit_l_max              33
_reflns_limit_l_min              0
_reflns_number_gt                434
_reflns_number_total             720
_reflns_threshold_expression     I>2.0\s(I)
_oxford_diffrn_Wilson_B_factor   2.99
_oxford_diffrn_Wilson_scale      0.21
_oxford_refine_ls_r_factor_ref   0.0932
_oxford_refine_ls_scale          2.31(6)
_oxford_reflns_number_all        716
_oxford_reflns_threshold_expression_ref I>-10.0\s(I)
_oxford_structure_analysis_title 'sali01 in P212121'
_cod_data_source_file            b921288d.txt
_cod_data_source_block           0_2GPa_II.cif
_cod_depositor_comments
;
The following automatic conversions were performed:

'_symmetry_cell_setting' value 'Orthorhombic' changed to
'orthorhombic' according to
/home/saulius/struct/CIF-dictionaries/cif_core.dic dictionary named
'cif_core.dic' version 2.4.2 from 2011-04-26.

Automatic conversion script
Id: cif_fix_values 1891 2012-01-12 08:04:46Z andrius 
;
_cod_original_sg_symbol_H-M      'P 21 21 21 '
_cod_original_formula_sum        'C7 H7 N1 O2'
_cod_database_code               7212174
loop_
_symmetry_equiv_pos_as_xyz
x,y,z
x+1/2,-y+1/2,-z
-x,y+1/2,-z+1/2
-x+1/2,-y,z+1/2
loop_
_atom_site_label
_atom_site_type_symbol
_atom_site_fract_x
_atom_site_fract_y
_atom_site_fract_z
_atom_site_U_iso_or_equiv
_atom_site_occupancy
_atom_site_adp_type
_atom_site_refinement_flags_posn
N1 N 0.4602(9) 0.2729(5) 0.30161(14) 0.0468 1.0000 Uani .
O1 O 0.1943(7) 0.6177(5) 0.28282(12) 0.0490 1.0000 Uani .
O2 O -0.1123(7) 0.8717(5) 0.34323(13) 0.0484 1.0000 Uani D
C1 C -0.0145(9) 0.7051(6) 0.37539(18) 0.0352 1.0000 Uani .
C2 C 0.1700(8) 0.4979(6) 0.36249(17) 0.0323 1.0000 Uani .
C3 C 0.2500(9) 0.3339(6) 0.39776(18) 0.0394 1.0000 Uani .
C4 C 0.1557(10) 0.3726(7) 0.44348(19) 0.0434 1.0000 Uani .
C5 C -0.0185(11) 0.5811(7) 0.45530(18) 0.0437 1.0000 Uani .
C6 C -0.1022(9) 0.7459(7) 0.42178(18) 0.0420 1.0000 Uani .
C7 C 0.2747(8) 0.4652(6) 0.31358(18) 0.0349 1.0000 Uani .
H1 H 0.3742 0.1919 0.3901 0.0474 1.0000 Uiso .
H2 H 0.2106 0.2576 0.4669 0.0515 1.0000 Uiso .
H3 H -0.0804 0.6092 0.4869 0.0515 1.0000 Uiso .
H4 H -0.2225 0.8875 0.4303 0.0509 1.0000 Uiso .
H5 H 0.5234 0.2531 0.2724 0.0693 1.0000 Uiso .
H6 H 0.5161 0.1661 0.3230 0.0693 1.0000 Uiso .
H7 H -0.031(5) 0.822(7) 0.3175(9) 0.068(2) 1.0000 Uiso D
loop_
_atom_site_aniso_label
_atom_site_aniso_U_11
_atom_site_aniso_U_22
_atom_site_aniso_U_33
_atom_site_aniso_U_23
_atom_site_aniso_U_13
_atom_site_aniso_U_12
N1 0.0580(19) 0.0417(19) 0.041(3) -0.0019(19) 0.009(2) 0.0092(17)
O1 0.0630(18) 0.0506(17) 0.034(3) 0.0123(15) 0.0077(16) 0.0072(15)
O2 0.0611(17) 0.0414(16) 0.043(3) 0.0101(16) 0.0061(16) 0.0126(13)
C1 0.0352(17) 0.0298(19) 0.041(4) 0.005(2) -0.003(2) -0.0011(16)
C2 0.0311(15) 0.0297(17) 0.036(3) 0.0019(19) 0.0015(18) -0.0043(14)
C3 0.042(2) 0.0352(19) 0.041(4) 0.004(2) 0.001(2) 0.0049(18)
C4 0.049(2) 0.044(2) 0.038(4) 0.005(2) -0.002(2) -0.0027(19)
C5 0.046(2) 0.052(2) 0.033(3) -0.004(2) 0.007(2) -0.005(2)
C6 0.045(2) 0.033(2) 0.047(4) -0.005(2) 0.008(2) 0.0017(17)
C7 0.0338(18) 0.0348(19) 0.036(3) -0.001(2) 0.0012(18) -0.0039(16)
loop_
_atom_type_symbol
_atom_type_scat_dispersion_real
_atom_type_scat_dispersion_imag
_atom_type_scat_Cromer_Mann_a1
_atom_type_scat_Cromer_Mann_b1
_atom_type_scat_Cromer_Mann_a2
_atom_type_scat_Cromer_Mann_b2
_atom_type_scat_Cromer_Mann_a3
_atom_type_scat_Cromer_Mann_b3
_atom_type_scat_Cromer_Mann_a4
_atom_type_scat_Cromer_Mann_b4
_atom_type_scat_Cromer_Mann_c
_atom_type_scat_source
C 0.0000 0.0010 2.3100 20.8439 1.0200 10.2075 1.5886 0.5687 0.8650 51.6512
0.2156 'International Tables Vol C 4.2.6.8 and 6.1.1.4'
H 0.0000 0.0000 0.4930 10.5109 0.3229 26.1257 0.1402 3.1424 0.0408 57.7998
0.0030 'International Tables Vol C 4.2.6.8 and 6.1.1.4'
N 0.0010 0.0010 12.2126 0.0057 3.1322 9.8933 2.0125 28.9975 1.1663 0.5826
-11.5290 'International Tables Vol C 4.2.6.8 and 6.1.1.4'
O 0.0030 0.0020 3.0485 13.2771 2.2868 5.7011 1.5463 0.3239 0.8670 32.9089
0.2508 'International Tables Vol C 4.2.6.8 and 6.1.1.4'
loop_
_geom_angle_atom_site_label_1
_geom_angle_atom_site_label_2
_geom_angle_atom_site_label_3
_geom_angle
_geom_angle_publ_flag
C7 N1 H5 119.8 no
C7 N1 H6 119.8 no
H5 N1 H6 120.4 no
C1 O2 H7 105(3) no
O2 C1 C2 121.6(4) yes
O2 C1 C6 117.7(4) yes
C2 C1 C6 120.7(4) yes
C1 C2 C3 117.4(4) yes
C1 C2 C7 119.6(4) yes
C3 C2 C7 123.0(3) yes
C2 C3 C4 121.7(4) yes
C2 C3 H1 119.3 no
C4 C3 H1 119.1 no
C3 C4 C5 119.6(4) yes
C3 C4 H2 120.2 no
C5 C4 H2 120.2 no
C4 C5 C6 120.5(5) yes
C4 C5 H3 119.7 no
C6 C5 H3 119.8 no
C1 C6 C5 120.1(4) yes
C1 C6 H4 120.2 no
C5 C6 H4 119.7 no
C2 C7 N1 119.6(4) yes
C2 C7 O1 120.8(3) yes
N1 C7 O1 119.6(4) yes
loop_
_geom_bond_atom_site_label_1
_geom_bond_atom_site_label_2
_geom_bond_distance
_geom_bond_publ_flag
N1 C7 1.335(5) yes
N1 H5 0.877 no
N1 H6 0.879 no
O1 C7 1.261(5) yes
O2 C1 1.359(5) yes
O2 H7 0.847(10) no
C1 C2 1.407(5) yes
C1 C6 1.387(7) yes
C2 C3 1.395(6) yes
C2 C7 1.467(6) yes
C3 C4 1.374(7) yes
C3 H1 0.952 no
C4 C5 1.385(6) yes
C4 H2 0.949 no
C5 C6 1.365(6) yes
C5 H3 0.948 no
C6 H4 0.948 no
