#------------------------------------------------------------------------------
#$Date: 2016-02-14 06:40:26 +0200 (Sun, 14 Feb 2016) $
#$Revision: 176432 $
#$URL: svn://www.crystallography.net/cod/cif/7/21/25/7212546.cif $
#------------------------------------------------------------------------------
#
# This file is available in the Crystallography Open Database (COD),
# http://www.crystallography.net/
#
# All data on this site have been placed in the public domain by the
# contributors.
#
data_7212546
loop_
_publ_author_name
'Oswald, Iain D. H.'
'Lennie, Alistair R.'
'Pulham, Colin R.'
'Shankland, Kenneth'
_publ_section_title
;
 High-pressure structural studies of the pharmaceutical, chlorothiazide
;
_journal_issue                   9
_journal_name_full               CrystEngComm
_journal_page_first              2533
_journal_paper_doi               10.1039/c001355b
_journal_volume                  12
_journal_year                    2010
_chemical_absolute_configuration ad
_chemical_formula_moiety         'C7 H6 Cl1 N3 O4 S2'
_chemical_formula_sum            'C7 H6 Cl N3 O4 S2'
_chemical_formula_weight         295.73
_space_group_IT_number           1
_symmetry_cell_setting           triclinic
_symmetry_space_group_name_Hall  'P 1'
_symmetry_space_group_name_H-M   'P 1'
_atom_sites_solution_hydrogens   geom
_atom_sites_solution_primary     direct
_cell_angle_alpha                75.991(15)
_cell_angle_beta                 86.055(14)
_cell_angle_gamma                83.349(6)
_cell_formula_units_Z            1
_cell_length_a                   4.4609(4)
_cell_length_b                   5.8592(5)
_cell_length_c                   8.427(2)
_cell_measurement_reflns_used    778
_cell_measurement_temperature    293
_cell_measurement_theta_max      23
_cell_measurement_theta_min      4
_cell_volume                     212.08(6)
_computing_cell_refinement       'SAINT (Siemens ,1995)'
_computing_data_collection       'SMART (Siemens, 1993)'
_computing_data_reduction        'SAINT (Siemens ,1995)'
_computing_molecular_graphics    'CAMERON (Watkin et al., 1996)'
_computing_publication_material  'CRYSTALS (Betteridge et al., 2003)'
_computing_structure_refinement  'CRYSTALS (Betteridge et al., 2003)'
_computing_structure_solution    'USER DEFINED STRUCTURE SOLUTION'
_diffrn_ambient_temperature      293
_diffrn_measured_fraction_theta_full 0.461
_diffrn_measured_fraction_theta_max 0.401
_diffrn_measurement_device       'Bruker SMART'
_diffrn_measurement_device_type  Area
_diffrn_measurement_method       \w
_diffrn_radiation_monochromator  graphite
_diffrn_radiation_type           'Mo K\a'
_diffrn_radiation_wavelength     0.71073
_diffrn_reflns_av_R_equivalents  0.0384
_diffrn_reflns_limit_h_max       4
_diffrn_reflns_limit_h_min       -4
_diffrn_reflns_limit_k_max       6
_diffrn_reflns_limit_k_min       -5
_diffrn_reflns_limit_l_max       4
_diffrn_reflns_limit_l_min       -6
_diffrn_reflns_number            2115
_diffrn_reflns_theta_full        19.285
_diffrn_reflns_theta_max         23.235
_diffrn_reflns_theta_min         3.603
_diffrn_standards_number         0
_exptl_absorpt_coefficient_mu    0.950
_exptl_absorpt_correction_T_max  0.95
_exptl_absorpt_correction_T_min  0.88
_exptl_absorpt_correction_type   multi-scan
_exptl_absorpt_process_details   'SADABS (Siemens, 1996)'
_exptl_crystal_colour            colourless
_exptl_crystal_density_diffrn    2.315
_exptl_crystal_density_method    'not measured'
_exptl_crystal_description       block
_exptl_crystal_F_000             150
_exptl_crystal_size_max          0.15
_exptl_crystal_size_mid          0.09
_exptl_crystal_size_min          0.05
_refine_diff_density_max         0.15
_refine_diff_density_min         -0.20
_refine_ls_abs_structure_details 'Flack (1983), 0 Friedel-pairs'
_refine_ls_abs_structure_Flack   .0000(0)
_refine_ls_extinction_method     None
_refine_ls_goodness_of_fit_ref   1.1898
_refine_ls_hydrogen_treatment    constr
_refine_ls_matrix_type           full
_refine_ls_number_parameters     71
_refine_ls_number_reflns         242
_refine_ls_number_restraints     20
_refine_ls_R_factor_all          0.0255
_refine_ls_R_factor_gt           0.0240
_refine_ls_shift/su_max          0.000065
_refine_ls_structure_factor_coef Fsqd
_refine_ls_weighting_details
;
Method= Modified Sheldrick
w=1/[\s^2^(F^2^) + ( 0.04P)^2^ + 0.08P]
,where P=(max(Fo^2^,0) + 2Fc^2^)/3
;
_refine_ls_weighting_scheme      calc
_refine_ls_wR_factor_all         0.0584
_refine_ls_wR_factor_gt          0.0579
_refine_ls_wR_factor_ref         0.0584
_reflns_limit_h_max              4
_reflns_limit_h_min              -4
_reflns_limit_k_max              6
_reflns_limit_k_min              -5
_reflns_limit_l_max              4
_reflns_limit_l_min              0
_reflns_number_gt                234
_reflns_number_total             243
_reflns_threshold_expression     I>2.0\s(I)
_oxford_diffrn_Wilson_B_factor   0.05
_oxford_diffrn_Wilson_scale      0.03
_oxford_refine_ls_r_factor_ref   0.0255
_oxford_refine_ls_scale          7.1(5)
_oxford_reflns_number_all        242
_oxford_reflns_threshold_expression_ref I>-10.0\s(I)
_cod_data_source_file            c001355b.txt
_cod_data_source_block           9
_cod_depositor_comments
;
The following automatic conversions were performed:

'_symmetry_cell_setting' value 'Triclinic' changed to 'triclinic'
according to /home/saulius/struct/CIF-dictionaries/cif_core.dic
dictionary named 'cif_core.dic' version 2.4.2 from 2011-04-26.

Automatic conversion script
Id: cif_fix_values 1891 2012-01-12 08:04:46Z andrius 
;
_cod_original_cell_volume        212.08(7)
_cod_original_sg_symbol_Hall     'P 1 '
_cod_original_sg_symbol_H-M      'P 1 '
_cod_original_formula_sum        'C7 H6 Cl1 N3 O4 S2'
_cod_database_code               7212546
loop_
_symmetry_equiv_pos_as_xyz
x,y,z
loop_
_atom_site_label
_atom_site_type_symbol
_atom_site_fract_x
_atom_site_fract_y
_atom_site_fract_z
_atom_site_U_iso_or_equiv
_atom_site_occupancy
_atom_site_adp_type
_atom_site_refinement_flags_posn
Cl1 Cl -0.3950(5) 0.3116(4) 1.0629(7) 0.0227 1.0000 Uani D
S1 S 0.6143(5) 0.0823(4) 0.5725(7) 0.0235 1.0000 Uani D
S2 S -0.0524(5) -0.2080(4) 1.1382(7) 0.0217 1.0000 Uani D
O1 O 0.8495(12) -0.0980(10) 0.6372(17) 0.0179(6) 1.0000 Uiso .
O2 O 0.4421(13) 0.0343(10) 0.4459(19) 0.0217(6) 1.0000 Uiso .
O3 O 0.1194(12) -0.4286(12) 1.1387(17) 0.0216(6) 1.0000 Uiso .
O4 O -0.3734(12) -0.1991(10) 1.1470(19) 0.0196(6) 1.0000 Uiso .
N1 N 0.7575(16) 0.3252(12) 0.493(2) 0.0203(6) 1.0000 Uiso D
N2 N 0.3415(12) 0.5432(11) 0.5930(17) 0.0145(6) 1.0000 Uiso D
N3 N 0.0465(14) -0.1129(13) 1.2831(19) 0.0230(6) 1.0000 Uiso D
C1 C 0.5925(17) 0.5192(15) 0.501(2) 0.0232(6) 1.0000 Uiso D
C2 C 0.2313(17) 0.3640(12) 0.7142(17) 0.0173(6) 1.0000 Uiso D
C3 C 0.3689(16) 0.1306(14) 0.7320(16) 0.0186(6) 1.0000 Uiso D
C4 C 0.2825(17) -0.0444(12) 0.8587(19) 0.0115(6) 1.0000 Uiso D
C5 C 0.0442(15) 0.0023(11) 0.9630(17) 0.0178(6) 1.0000 Uiso D
C6 C -0.0994(14) 0.2345(12) 0.9409(17) 0.0127(6) 1.0000 Uiso D
C7 C -0.0015(16) 0.4122(12) 0.8192(19) 0.0154(6) 1.0000 Uiso D
H1 H 0.6463 0.6501 0.4257 0.0300 1.0000 Uiso R
H2 H 0.2730 0.6781 0.5938 0.0300 1.0000 Uiso R
H31 H -0.0459 -0.0122 1.3294 0.0300 1.0000 Uiso R
H32 H 0.2186 -0.1000 1.3013 0.0300 1.0000 Uiso R
H4 H 0.3776 -0.1926 0.8767 0.0300 1.0000 Uiso R
H7 H -0.0935 0.5612 0.8032 0.0300 1.0000 Uiso R
loop_
_atom_site_aniso_label
_atom_site_aniso_U_11
_atom_site_aniso_U_22
_atom_site_aniso_U_33
_atom_site_aniso_U_23
_atom_site_aniso_U_13
_atom_site_aniso_U_12
Cl1 0.0171(11) 0.0176(11) 0.033(10) -0.007(3) 0.0077(17) -0.0010(8)
S1 0.0155(11) 0.0130(12) 0.042(10) -0.008(3) -0.0008(18) 0.0002(8)
S2 0.0139(11) 0.0147(10) 0.037(10) -0.006(3) -0.0002(18) -0.0019(7)
loop_
_atom_type_symbol
_atom_type_scat_dispersion_real
_atom_type_scat_dispersion_imag
_atom_type_scat_Cromer_Mann_a1
_atom_type_scat_Cromer_Mann_b1
_atom_type_scat_Cromer_Mann_a2
_atom_type_scat_Cromer_Mann_b2
_atom_type_scat_Cromer_Mann_a3
_atom_type_scat_Cromer_Mann_b3
_atom_type_scat_Cromer_Mann_a4
_atom_type_scat_Cromer_Mann_b4
_atom_type_scat_Cromer_Mann_c
_atom_type_scat_source
C 0.0033 0.0016 2.3100 20.8439 1.0200 10.2075 1.5886 0.5687 0.8650 51.6512
0.2156 'International Tables Vol C 4.2.6.8 and 6.1.1.4'
H 0.0000 0.0000 0.4930 10.5109 0.3229 26.1257 0.1402 3.1424 0.0408 57.7998
0.0030 'International Tables Vol C 4.2.6.8 and 6.1.1.4'
N 0.0061 0.0033 12.2126 0.0057 3.1322 9.8933 2.0125 28.9975 1.1663 0.5826
-11.5290 'International Tables Vol C 4.2.6.8 and 6.1.1.4'
O 0.0106 0.0060 3.0485 13.2771 2.2868 5.7011 1.5463 0.3239 0.8670 32.9089
0.2508 'International Tables Vol C 4.2.6.8 and 6.1.1.4'
S 0.1246 0.1234 6.9053 1.4679 5.2034 22.2151 1.4379 0.2536 1.5863 56.1720
0.8669 'International Tables Vol C 4.2.6.8 and 6.1.1.4'
Cl 0.1484 0.1585 11.4604 0.0104 7.1964 1.1662 6.2556 18.5194 1.6455 47.7784
-9.5574 'International Tables Vol C 4.2.6.8 and 6.1.1.4'
loop_
_geom_angle_atom_site_label_1
_geom_angle_atom_site_label_2
_geom_angle_atom_site_label_3
_geom_angle
_geom_angle_publ_flag
O1 S1 O2 115.6(5) yes
O1 S1 N1 109.5(4) yes
O2 S1 N1 106.3(8) yes
O1 S1 C3 108.8(7) yes
O2 S1 C3 109.0(5) yes
N1 S1 C3 107.5(5) yes
O3 S2 O4 118.4(3) yes
O3 S2 N3 108.6(5) yes
O4 S2 N3 108.1(7) yes
O3 S2 C5 109.7(6) yes
O4 S2 C5 106.7(7) yes
N3 S2 C5 104.4(5) yes
S1 N1 C1 116.9(8) yes
C1 N2 C2 124.9(8) yes
C1 N2 H2 116.4 no
C2 N2 H2 116.8 no
S2 N3 H31 129.2 no
S2 N3 H32 125.4 no
H31 N3 H32 100.0 no
N2 C1 N1 127.5(11) yes
N2 C1 H1 117.7 no
N1 C1 H1 114.4 no
N2 C2 C3 119.2(8) yes
N2 C2 C7 120.8(7) yes
C3 C2 C7 120.0(8) yes
C2 C3 S1 115.6(8) yes
C2 C3 C4 120.2(7) yes
S1 C3 C4 123.8(6) yes
C3 C4 C5 119.9(5) yes
C3 C4 H4 121.6 no
C5 C4 H4 118.5 no
S2 C5 C4 121.6(6) yes
S2 C5 C6 118.4(7) yes
C4 C5 C6 119.4(7) yes
C5 C6 Cl1 123.3(7) yes
C5 C6 C7 120.5(6) yes
Cl1 C6 C7 116.3(5) yes
C2 C7 C6 119.8(6) yes
C2 C7 H7 118.9 no
C6 C7 H7 121.2 no
loop_
_geom_bond_atom_site_label_1
_geom_bond_atom_site_label_2
_geom_bond_distance
_geom_bond_publ_flag
Cl1 C6 1.703(9) yes
S1 O1 1.434(7) yes
S1 O2 1.455(12) yes
S1 N1 1.604(8) yes
S1 C3 1.730(11) yes
S2 O3 1.423(5) yes
S2 O4 1.424(6) yes
S2 N3 1.567(12) yes
S2 C5 1.743(13) yes
N1 C1 1.295(9) yes
N2 C1 1.331(13) yes
N2 C2 1.385(13) yes
N2 H2 0.815 no
N3 H31 0.838 no
N3 H32 0.809 no
C1 H1 0.913 no
C2 C3 1.410(9) yes
C2 C7 1.367(13) yes
C3 C4 1.358(14) yes
C4 C5 1.378(12) yes
C4 H4 0.904 no
C5 C6 1.410(8) yes
C6 C7 1.361(13) yes
C7 H7 0.904 no
