#------------------------------------------------------------------------------
#$Date: 2016-03-26 20:51:55 +0200 (Sat, 26 Mar 2016) $
#$Revision: 180452 $
#$URL: svn://www.crystallography.net/cod/cif/7/21/21/7212182.cif $
#------------------------------------------------------------------------------
#
# This file is available in the Crystallography Open Database (COD),
# http://www.crystallography.net/
#
# All data on this site have been placed in the public domain by the
# contributors.
#
data_7212182
loop_
_publ_author_name
'Krasowska, M.'
'Kochel, A.'
'Filarowski, A.'
_publ_section_title
;
 The conformational analysis of 2-hydroxyaryl Schiff thiosemicarbazones
;
_journal_issue                   6
_journal_name_full               CrystEngComm
_journal_page_first              1955
_journal_paper_doi               10.1039/b921402j
_journal_volume                  12
_journal_year                    2010
_chemical_formula_moiety         'C15 H15 N3 O S'
_chemical_formula_sum            'C15 H15 N3 O S'
_chemical_formula_weight         285.37
_chemical_name_common
;
1-(2-hydroxyphenyl)ethan-1-one N-phenylthiosemicarbazone
;
_chemical_name_systematic
;
1-(2-hydroxyphenyl)ethan-1-one N-phenylthiosemicarbazone
;
_space_group_IT_number           2
_symmetry_cell_setting           triclinic
_symmetry_space_group_name_Hall  '-P 1'
_symmetry_space_group_name_H-M   'P -1'
_atom_sites_solution_hydrogens   geom
_atom_sites_solution_primary     direct
_atom_sites_solution_secondary   difmap
_audit_creation_method           SHELXL-97
_cell_angle_alpha                73.835(3)
_cell_angle_beta                 86.048(3)
_cell_angle_gamma                87.208(3)
_cell_formula_units_Z            2
_cell_length_a                   5.5243(2)
_cell_length_b                   10.5902(4)
_cell_length_c                   12.2174(5)
_cell_measurement_reflns_used    1750
_cell_measurement_temperature    100(2)
_cell_measurement_theta_max      25.07
_cell_measurement_theta_min      2.99
_cell_volume                     684.54(5)
_computing_cell_refinement       'CrysAlis RED (Oxford Diffraction, date)'
_computing_data_collection       'CrysAlis CCD (Oxford Diffraction, date)'
_computing_data_reduction        'CrysAlis RED '
_computing_molecular_graphics    'SHELXTL (Bruker, 1999)'
_computing_publication_material  SHELXL-97
_computing_structure_refinement  'SHELXL-97 (Sheldrick, 1997)'
_computing_structure_solution    'SHELXS-97 (Sheldrick, 1997)'
_diffrn_ambient_temperature      100(2)
_diffrn_measured_fraction_theta_full 0.999
_diffrn_measured_fraction_theta_max 0.997
_diffrn_measurement_device_type  KM4-CCD
_diffrn_measurement_method       /w
_diffrn_radiation_monochromator  graphite
_diffrn_radiation_source         'fine-focus sealed tube'
_diffrn_radiation_type           MoK\a
_diffrn_radiation_wavelength     0.71073
_diffrn_reflns_av_R_equivalents  0.0264
_diffrn_reflns_av_sigmaI/netI    0.0332
_diffrn_reflns_limit_h_max       6
_diffrn_reflns_limit_h_min       -6
_diffrn_reflns_limit_k_max       12
_diffrn_reflns_limit_k_min       -12
_diffrn_reflns_limit_l_max       14
_diffrn_reflns_limit_l_min       -14
_diffrn_reflns_number            6809
_diffrn_reflns_theta_full        25.00
_diffrn_reflns_theta_max         25.07
_diffrn_reflns_theta_min         2.99
_exptl_absorpt_coefficient_mu    0.235
_exptl_absorpt_correction_T_max  0.860
_exptl_absorpt_correction_T_min  0.789
_exptl_absorpt_correction_type   analytical
_exptl_absorpt_process_details   'CrysAlis RED, Oxford Diffraction'
_exptl_crystal_colour            yellow
_exptl_crystal_density_diffrn    1.384
_exptl_crystal_density_method    'not measured'
_exptl_crystal_description       plate
_exptl_crystal_F_000             300
_exptl_crystal_size_max          0.23
_exptl_crystal_size_mid          0.20
_exptl_crystal_size_min          0.19
_refine_diff_density_max         0.311
_refine_diff_density_min         -0.215
_refine_diff_density_rms         0.050
_refine_ls_extinction_method     none
_refine_ls_goodness_of_fit_ref   1.046
_refine_ls_hydrogen_treatment    constr
_refine_ls_matrix_type           full
_refine_ls_number_parameters     185
_refine_ls_number_reflns         2441
_refine_ls_number_restraints     0
_refine_ls_restrained_S_all      1.046
_refine_ls_R_factor_all          0.0453
_refine_ls_R_factor_gt           0.0320
_refine_ls_shift/su_max          0.000
_refine_ls_shift/su_mean         0.000
_refine_ls_structure_factor_coef Fsqd
_refine_ls_weighting_details
'calc w=1/[\s^2^(Fo^2^)+(0.0532P)^2^+0.0000P] where P=(Fo^2^+2Fc^2^)/3'
_refine_ls_weighting_scheme      calc
_refine_ls_wR_factor_gt          0.0812
_refine_ls_wR_factor_ref         0.0854
_reflns_number_gt                1893
_reflns_number_total             2441
_reflns_threshold_expression     >2sigma(I)
_cod_data_source_file            b921402j.txt
_cod_data_source_block           olodc
_cod_depositor_comments
;
The following automatic conversions were performed:

'_symmetry_cell_setting' value 'Triclinic' changed to 'triclinic'
according to /home/saulius/struct/CIF-dictionaries/cif_core.dic
dictionary named 'cif_core.dic' version 2.4.2 from 2011-04-26.

Automatic conversion script
Id: cif_fix_values 1891 2012-01-12 08:04:46Z andrius 
;
_cod_database_code               7212182
loop_
_symmetry_equiv_pos_as_xyz
'x, y, z'
'-x, -y, -z'
loop_
_atom_site_label
_atom_site_type_symbol
_atom_site_fract_x
_atom_site_fract_y
_atom_site_fract_z
_atom_site_U_iso_or_equiv
_atom_site_adp_type
_atom_site_occupancy
_atom_site_symmetry_multiplicity
_atom_site_calc_flag
_atom_site_refinement_flags
S1 S 0.04962(7) 0.41050(4) 0.35891(4) 0.01837(14) Uani 1 1 d .
O1 O 0.9359(2) 0.74069(12) 0.19814(10) 0.0241(3) Uani 1 1 d .
N1 N 0.5502(2) 0.66778(13) 0.33530(12) 0.0158(3) Uani 1 1 d .
N2 N 0.3578(2) 0.58509(13) 0.37380(12) 0.0171(3) Uani 1 1 d .
N3 N 0.4797(2) 0.47263(14) 0.24284(12) 0.0173(3) Uani 1 1 d .
C1 C 0.7809(3) 0.84906(16) 0.34080(14) 0.0150(4) Uani 1 1 d .
C2 C 0.9457(3) 0.83826(16) 0.24992(14) 0.0171(4) Uani 1 1 d .
C3 C 1.1295(3) 0.92808(17) 0.21010(15) 0.0209(4) Uani 1 1 d .
H3 H 1.2411 0.9182 0.1501 0.025 Uiso 1 1 calc R
C4 C 1.1512(3) 1.03134(16) 0.25681(14) 0.0198(4) Uani 1 1 d .
H4 H 1.2772 1.0921 0.2290 0.024 Uiso 1 1 calc R
C5 C 0.9891(3) 1.04617(17) 0.34432(15) 0.0204(4) Uani 1 1 d .
H5 H 1.0022 1.1175 0.3763 0.024 Uiso 1 1 calc R
C6 C 0.8082(3) 0.95657(16) 0.38478(15) 0.0184(4) Uani 1 1 d .
H6 H 0.6978 0.9680 0.4447 0.022 Uiso 1 1 calc R
C7 C 0.5835(3) 0.75635(16) 0.38724(14) 0.0153(4) Uani 1 1 d .
C8 C 0.4280(3) 0.76903(17) 0.48917(14) 0.0185(4) Uani 1 1 d .
H8A H 0.2864 0.8266 0.4639 0.028 Uiso 1 1 calc R
H8B H 0.5220 0.8069 0.5368 0.028 Uiso 1 1 calc R
H8C H 0.3737 0.6820 0.5336 0.028 Uiso 1 1 calc R
C9 C 0.3084(3) 0.49353(16) 0.31982(14) 0.0155(4) Uani 1 1 d .
C10 C 0.4623(3) 0.39144(16) 0.16759(14) 0.0159(4) Uani 1 1 d .
C11 C 0.6542(3) 0.30424(17) 0.15876(15) 0.0199(4) Uani 1 1 d .
H11 H 0.7869 0.2941 0.2063 0.024 Uiso 1 1 calc R
C12 C 0.6504(3) 0.23193(17) 0.07968(15) 0.0215(4) Uani 1 1 d .
H12 H 0.7820 0.1731 0.0723 0.026 Uiso 1 1 calc R
C13 C 0.4550(3) 0.24559(17) 0.01164(14) 0.0203(4) Uani 1 1 d .
H13 H 0.4522 0.1958 -0.0420 0.024 Uiso 1 1 calc R
C14 C 0.2634(3) 0.33192(17) 0.02192(14) 0.0199(4) Uani 1 1 d .
H14 H 0.1291 0.3404 -0.0244 0.024 Uiso 1 1 calc R
C15 C 0.2661(3) 0.40603(16) 0.09916(14) 0.0181(4) Uani 1 1 d .
H15 H 0.1356 0.4660 0.1053 0.022 Uiso 1 1 calc R
H1N H 0.2350 0.6020 0.4264 0.027(5) Uiso 1 1 d R
H2N H 0.6374 0.5071 0.2452 0.041(6) Uiso 1 1 d R
H3O H 0.8196 0.6844 0.2401 0.055(7) Uiso 1 1 d R
loop_
_atom_site_aniso_label
_atom_site_aniso_U_11
_atom_site_aniso_U_22
_atom_site_aniso_U_33
_atom_site_aniso_U_23
_atom_site_aniso_U_13
_atom_site_aniso_U_12
S1 0.0159(2) 0.0201(2) 0.0209(2) -0.00825(18) 0.00155(17) -0.00619(17)
O1 0.0291(7) 0.0241(7) 0.0231(7) -0.0141(6) 0.0079(6) -0.0095(6)
N1 0.0142(7) 0.0149(7) 0.0189(7) -0.0053(6) -0.0009(6) -0.0038(6)
N2 0.0146(7) 0.0185(8) 0.0206(8) -0.0090(6) 0.0027(6) -0.0057(6)
N3 0.0160(7) 0.0181(7) 0.0199(8) -0.0085(6) 0.0021(6) -0.0059(6)
C1 0.0138(8) 0.0149(9) 0.0165(9) -0.0039(7) -0.0033(7) -0.0011(7)
C2 0.0197(9) 0.0159(9) 0.0163(8) -0.0051(7) -0.0032(7) -0.0008(7)
C3 0.0196(9) 0.0251(10) 0.0162(9) -0.0029(8) 0.0022(7) -0.0030(8)
C4 0.0198(9) 0.0156(9) 0.0218(9) -0.0004(7) -0.0020(7) -0.0052(7)
C5 0.0243(9) 0.0155(9) 0.0226(9) -0.0066(7) -0.0032(8) -0.0030(7)
C6 0.0192(9) 0.0168(9) 0.0196(9) -0.0063(7) 0.0001(7) 0.0001(7)
C7 0.0140(8) 0.0145(9) 0.0171(8) -0.0036(7) -0.0034(7) 0.0015(7)
C8 0.0191(9) 0.0177(9) 0.0199(9) -0.0074(7) 0.0020(7) -0.0036(7)
C9 0.0168(8) 0.0135(8) 0.0159(8) -0.0031(7) -0.0040(7) -0.0003(7)
C10 0.0183(9) 0.0155(9) 0.0139(8) -0.0036(7) 0.0025(7) -0.0066(7)
C11 0.0163(8) 0.0224(10) 0.0218(9) -0.0068(8) -0.0021(7) -0.0029(7)
C12 0.0182(9) 0.0220(10) 0.0257(10) -0.0102(8) 0.0016(8) 0.0009(7)
C13 0.0234(9) 0.0228(10) 0.0172(9) -0.0098(8) 0.0021(7) -0.0047(8)
C14 0.0203(9) 0.0248(10) 0.0145(9) -0.0045(8) -0.0014(7) -0.0035(8)
C15 0.0182(9) 0.0178(9) 0.0171(9) -0.0029(7) 0.0006(7) -0.0013(7)
loop_
_atom_type_symbol
_atom_type_description
_atom_type_scat_dispersion_real
_atom_type_scat_dispersion_imag
_atom_type_scat_source
C C 0.0033 0.0016 'International Tables Vol C Tables 4.2.6.8 and 6.1.1.4'
H H 0.0000 0.0000 'International Tables Vol C Tables 4.2.6.8 and 6.1.1.4'
N N 0.0061 0.0033 'International Tables Vol C Tables 4.2.6.8 and 6.1.1.4'
O O 0.0106 0.0060 'International Tables Vol C Tables 4.2.6.8 and 6.1.1.4'
S S 0.1246 0.1234 'International Tables Vol C Tables 4.2.6.8 and 6.1.1.4'
loop_
_geom_angle_atom_site_label_1
_geom_angle_atom_site_label_2
_geom_angle_atom_site_label_3
_geom_angle
C2 O1 H3O 105.9
C7 N1 N2 118.23(13)
C9 N2 N1 120.80(13)
C9 N2 H1N 116.2
N1 N2 H1N 121.5
C9 N3 C10 126.84(13)
C9 N3 H2N 116.2
C10 N3 H2N 116.5
C6 C1 C2 116.53(14)
C6 C1 C7 120.24(14)
C2 C1 C7 123.20(14)
O1 C2 C3 116.83(14)
O1 C2 C1 122.45(14)
C3 C2 C1 120.72(15)
C4 C3 C2 120.76(16)
C4 C3 H3 119.6
C2 C3 H3 119.6
C3 C4 C5 119.83(15)
C3 C4 H4 120.1
C5 C4 H4 120.1
C6 C5 C4 119.57(15)
C6 C5 H5 120.2
C4 C5 H5 120.2
C5 C6 C1 122.56(15)
C5 C6 H6 118.7
C1 C6 H6 118.7
N1 C7 C1 117.55(14)
N1 C7 C8 122.64(14)
C1 C7 C8 119.79(14)
C7 C8 H8A 109.5
C7 C8 H8B 109.5
H8A C8 H8B 109.5
C7 C8 H8C 109.5
H8A C8 H8C 109.5
H8B C8 H8C 109.5
N3 C9 N2 116.08(13)
N3 C9 S1 125.32(12)
N2 C9 S1 118.50(12)
C11 C10 C15 120.71(15)
C11 C10 N3 118.38(15)
C15 C10 N3 120.75(15)
C10 C11 C12 119.46(16)
C10 C11 H11 120.3
C12 C11 H11 120.3
C13 C12 C11 120.09(16)
C13 C12 H12 120.0
C11 C12 H12 120.0
C12 C13 C14 119.97(15)
C12 C13 H13 120.0
C14 C13 H13 120.0
C15 C14 C13 120.63(16)
C15 C14 H14 119.7
C13 C14 H14 119.7
C14 C15 C10 119.12(16)
C14 C15 H15 120.4
C10 C15 H15 120.4
loop_
_geom_bond_atom_site_label_1
_geom_bond_atom_site_label_2
_geom_bond_distance
S1 C9 1.6852(16)
O1 C2 1.358(2)
O1 H3O 0.9230
N1 C7 1.296(2)
N1 N2 1.3819(18)
N2 C9 1.362(2)
N2 H1N 0.9473
N3 C9 1.342(2)
N3 C10 1.433(2)
N3 H2N 0.9660
C1 C6 1.406(2)
C1 C2 1.413(2)
C1 C7 1.478(2)
C2 C3 1.393(2)
C3 C4 1.380(2)
C3 H3 0.9500
C4 C5 1.385(2)
C4 H4 0.9500
C5 C6 1.381(2)
C5 H5 0.9500
C6 H6 0.9500
C7 C8 1.497(2)
C8 H8A 0.9800
C8 H8B 0.9800
C8 H8C 0.9800
C10 C11 1.390(2)
C10 C15 1.391(2)
C11 C12 1.392(2)
C11 H11 0.9500
C12 C13 1.385(2)
C12 H12 0.9500
C13 C14 1.387(2)
C13 H13 0.9500
C14 C15 1.386(2)
C14 H14 0.9500
C15 H15 0.9500
loop_
_geom_torsion_atom_site_label_1
_geom_torsion_atom_site_label_2
_geom_torsion_atom_site_label_3
_geom_torsion_atom_site_label_4
_geom_torsion
C7 N1 N2 C9 177.47(14)
C6 C1 C2 O1 -178.54(15)
C7 C1 C2 O1 -0.3(3)
C6 C1 C2 C3 2.2(2)
C7 C1 C2 C3 -179.57(16)
O1 C2 C3 C4 179.20(15)
C1 C2 C3 C4 -1.5(3)
C2 C3 C4 C5 0.0(3)
C3 C4 C5 C6 0.6(3)
C4 C5 C6 C1 0.2(3)
C2 C1 C6 C5 -1.6(3)
C7 C1 C6 C5 -179.87(16)
N2 N1 C7 C1 -176.44(14)
N2 N1 C7 C8 2.2(2)
C6 C1 C7 N1 172.51(15)
C2 C1 C7 N1 -5.7(3)
C6 C1 C7 C8 -6.2(2)
C2 C1 C7 C8 175.58(15)
C10 N3 C9 N2 -173.71(15)
C10 N3 C9 S1 9.8(2)
N1 N2 C9 N3 11.8(2)
N1 N2 C9 S1 -171.47(12)
C9 N3 C10 C11 -132.99(18)
C9 N3 C10 C15 51.4(2)
C15 C10 C11 C12 0.6(2)
N3 C10 C11 C12 -174.92(15)
C10 C11 C12 C13 -0.9(2)
C11 C12 C13 C14 0.3(3)
C12 C13 C14 C15 0.6(2)
C13 C14 C15 C10 -0.9(2)
C11 C10 C15 C14 0.3(2)
N3 C10 C15 C14 175.72(14)
