#------------------------------------------------------------------------------
#$Date: 2016-03-26 20:50:34 +0200 (Sat, 26 Mar 2016) $
#$Revision: 180451 $
#$URL: svn://www.crystallography.net/cod/cif/7/21/20/7212024.cif $
#------------------------------------------------------------------------------
#
# This file is available in the Crystallography Open Database (COD),
# http://www.crystallography.net/
#
# All data on this site have been placed in the public domain by the
# contributors.
#
data_7212024
loop_
_publ_author_name
'Bujak, Maciej'
'Katrusiak, Andrzej'
_publ_section_title
;
 Molecular association in low-temperature and high-pressure polymorphs of
 1,1,1,2-tetrachloroethane
;
_journal_issue                   4
_journal_name_full               CrystEngComm
_journal_page_first              1263
_journal_paper_doi               10.1039/b918360d
_journal_volume                  12
_journal_year                    2010
_chemical_formula_moiety         'C2 H2 Cl4'
_chemical_formula_sum            'C2 H2 Cl4'
_chemical_formula_weight         167.84
_chemical_name_common            1,1,2,2-tetrachloroethane
_chemical_name_systematic
;
1,1,2,2-tetrachloroethane
;
_space_group_IT_number           14
_symmetry_cell_setting           monoclinic
_symmetry_space_group_name_Hall  '-P 2ybc'
_symmetry_space_group_name_H-M   'P 1 21/c 1'
_atom_sites_solution_hydrogens   geom
_atom_sites_solution_primary     direct
_atom_sites_solution_secondary   difmap
_audit_creation_method           SHELXL-97
_cell_angle_alpha                90.00
_cell_angle_beta                 110.32(4)
_cell_angle_gamma                90.00
_cell_formula_units_Z            4
_cell_length_a                   5.7549(14)
_cell_length_b                   11.979(7)
_cell_length_c                   8.734(5)
_cell_measurement_reflns_used    2929
_cell_measurement_temperature    295(2)
_cell_measurement_theta_max      27.48
_cell_measurement_theta_min      3.01
_cell_volume                     564.6(5)
_computing_cell_refinement       'CrysAlisRED (Oxford Diffraction, 2007)'
_computing_data_collection       'CrysAlisCCD (Oxford Diffraction, 2007)'
_computing_data_reduction
'CrysAlisRED (Oxford Diffraction, 2007); REDSHABS (Katrusiak, A. 2003)'
_computing_molecular_graphics    'SHELXTL (Sheldrick, 1990)'
_computing_publication_material  'SHELXL--97 (Sheldrick, 1997)'
_computing_structure_refinement  'SHELXL--97 (Sheldrick, 1997)'
_computing_structure_solution    'SHELXS--97 (Sheldrick, 1997)'
_diffrn_ambient_environment      'diamond-anvil cell'
_diffrn_ambient_pressure         1050000
_diffrn_ambient_temperature      295(2)
_diffrn_measured_fraction_theta_full 0.520
_diffrn_measured_fraction_theta_max 0.520
_diffrn_measurement_device_type  'KM-4 CCD'
_diffrn_measurement_method       '\f- and \w-scans'
_diffrn_radiation_monochromator  graphite
_diffrn_radiation_source         'fine-focus sealed tube'
_diffrn_radiation_type           MoK\a
_diffrn_radiation_wavelength     0.71073
_diffrn_reflns_av_R_equivalents  0.2175
_diffrn_reflns_av_sigmaI/netI    0.2842
_diffrn_reflns_limit_h_max       6
_diffrn_reflns_limit_h_min       -6
_diffrn_reflns_limit_k_max       11
_diffrn_reflns_limit_k_min       -11
_diffrn_reflns_limit_l_max       8
_diffrn_reflns_limit_l_min       -8
_diffrn_reflns_number            3635
_diffrn_reflns_theta_full        24.96
_diffrn_reflns_theta_max         24.96
_diffrn_reflns_theta_min         3.01
_diffrn_standards_decay_%        0
_diffrn_standards_interval_count 0
_diffrn_standards_number         0
_exptl_absorpt_coefficient_mu    1.939
_exptl_absorpt_correction_T_max  0.68
_exptl_absorpt_correction_T_min  0.63
_exptl_absorpt_correction_type   numerical
_exptl_absorpt_process_details
;
Correction for absorption of the diamond-anvil cell and the sample
were made using program REDSHABS (Katrusiak, A. (2003) REDSHABS. Adam
Mickiewicz University Pozna\'n; Katrusiak, A. (2004) Z. Kristallogr.
219, 461-467).
;
_exptl_crystal_colour            colourless
_exptl_crystal_density_diffrn    1.974
_exptl_crystal_density_method    'not measured'
_exptl_crystal_description       cylinder
_exptl_crystal_F_000             328
_exptl_crystal_size_max          0.44
_exptl_crystal_size_mid          0.43
_exptl_crystal_size_min          0.25
_refine_diff_density_max         0.471
_refine_diff_density_min         -0.423
_refine_diff_density_rms         0.124
_refine_ls_extinction_method     none
_refine_ls_goodness_of_fit_ref   1.155
_refine_ls_hydrogen_treatment    constr
_refine_ls_matrix_type           full
_refine_ls_number_parameters     55
_refine_ls_number_reflns         515
_refine_ls_number_restraints     12
_refine_ls_restrained_S_all      1.142
_refine_ls_R_factor_all          0.1269
_refine_ls_R_factor_gt           0.0861
_refine_ls_shift/su_max          0.000
_refine_ls_shift/su_mean         0.000
_refine_ls_structure_factor_coef Fsqd
_refine_ls_weighting_details
'calc w=1/[\s^2^(Fo^2^)+(0.1035P)^2^+2.3159P] where P=(Fo^2^+2Fc^2^)/3'
_refine_ls_weighting_scheme      calc
_refine_ls_wR_factor_gt          0.1978
_refine_ls_wR_factor_ref         0.2024
_reflns_number_gt                488
_reflns_number_total             515
_reflns_threshold_expression     >2sigma(I)
_cod_data_source_file            b918360d.txt
_cod_data_source_block           1112TCE_105GPa
_cod_original_sg_symbol_H-M      'P 21/c'
_cod_database_code               7212024
loop_
_symmetry_equiv_pos_as_xyz
'x, y, z'
'-x, y+1/2, -z+1/2'
'-x, -y, -z'
'x, -y-1/2, z-1/2'
loop_
_atom_site_label
_atom_site_type_symbol
_atom_site_fract_x
_atom_site_fract_y
_atom_site_fract_z
_atom_site_U_iso_or_equiv
_atom_site_adp_type
_atom_site_occupancy
_atom_site_symmetry_multiplicity
_atom_site_calc_flag
_atom_site_refinement_flags
Cl1 Cl 0.4180(4) 0.7738(3) 0.3084(3) 0.0540(9) Uani 1 1 d .
Cl2 Cl 0.0118(4) 0.6574(3) 0.0681(3) 0.0521(9) Uani 1 1 d .
Cl3 Cl 0.5010(4) 0.5588(2) 0.1913(4) 0.0538(10) Uani 1 1 d .
Cl4 Cl 0.1121(4) 0.4516(2) 0.3398(3) 0.0460(9) Uani 1 1 d .
C1 C 0.2864(14) 0.6408(8) 0.2415(11) 0.033(2) Uani 1 1 d U
C2 C 0.2259(16) 0.5903(8) 0.3837(12) 0.039(2) Uani 1 1 d U
H21 H 0.1026 0.6360 0.4063 0.047 Uiso 1 1 calc R
H22 H 0.3741 0.5900 0.4805 0.047 Uiso 1 1 calc R
loop_
_atom_site_aniso_label
_atom_site_aniso_U_11
_atom_site_aniso_U_22
_atom_site_aniso_U_33
_atom_site_aniso_U_23
_atom_site_aniso_U_13
_atom_site_aniso_U_12
Cl1 0.0552(14) 0.041(3) 0.060(3) -0.0047(10) 0.0122(13) -0.0115(12)
Cl2 0.0426(12) 0.066(3) 0.037(3) 0.0118(10) -0.0001(11) -0.0057(11)
Cl3 0.0570(15) 0.057(3) 0.065(3) 0.0043(11) 0.0433(15) 0.0102(12)
Cl4 0.0542(14) 0.044(3) 0.045(2) -0.0006(9) 0.0236(12) -0.0085(11)
C1 0.033(4) 0.033(6) 0.034(6) 0.002(3) 0.012(4) 0.006(3)
C2 0.044(4) 0.033(7) 0.041(6) -0.004(3) 0.014(4) -0.003(4)
loop_
_atom_type_symbol
_atom_type_description
_atom_type_scat_dispersion_real
_atom_type_scat_dispersion_imag
_atom_type_scat_source
C C 0.0033 0.0016 'International Tables Vol C Tables 4.2.6.8 and 6.1.1.4'
H H 0.0000 0.0000 'International Tables Vol C Tables 4.2.6.8 and 6.1.1.4'
Cl Cl 0.1484 0.1585 'International Tables Vol C Tables 4.2.6.8 and 6.1.1.4'
loop_
_geom_angle_atom_site_label_1
_geom_angle_atom_site_label_2
_geom_angle_atom_site_label_3
_geom_angle
C2 C1 Cl3 111.2(6)
C2 C1 Cl1 106.3(6)
Cl3 C1 Cl1 109.2(4)
C2 C1 Cl2 110.5(6)
Cl3 C1 Cl2 110.2(5)
Cl1 C1 Cl2 109.4(5)
C1 C2 Cl4 111.5(7)
C1 C2 H21 109.3
Cl4 C2 H21 109.3
C1 C2 H22 109.3
Cl4 C2 H22 109.3
H21 C2 H22 108.0
loop_
_geom_bond_atom_site_label_1
_geom_bond_atom_site_label_2
_geom_bond_distance
Cl1 C1 1.774(10)
Cl2 C1 1.780(8)
Cl3 C1 1.749(9)
Cl4 C2 1.778(10)
C1 C2 1.527(13)
C2 H21 0.9700
C2 H22 0.9700
loop_
_geom_torsion_atom_site_label_1
_geom_torsion_atom_site_label_2
_geom_torsion_atom_site_label_3
_geom_torsion_atom_site_label_4
_geom_torsion
Cl3 C1 C2 Cl4 -57.0(8)
Cl1 C1 C2 Cl4 -175.8(4)
Cl2 C1 C2 Cl4 65.6(7)
