#------------------------------------------------------------------------------
#$Date: 2016-02-14 06:40:26 +0200 (Sun, 14 Feb 2016) $
#$Revision: 176432 $
#$URL: svn://www.crystallography.net/cod/cif/7/21/25/7212538.cif $
#------------------------------------------------------------------------------
#
# This file is available in the Crystallography Open Database (COD),
# http://www.crystallography.net/
#
# All data on this site have been placed in the public domain by the
# contributors.
#
data_7212538
loop_
_publ_author_name
'Oswald, Iain D. H.'
'Lennie, Alistair R.'
'Pulham, Colin R.'
'Shankland, Kenneth'
_publ_section_title
;
 High-pressure structural studies of the pharmaceutical, chlorothiazide
;
_journal_issue                   9
_journal_name_full               CrystEngComm
_journal_page_first              2533
_journal_paper_doi               10.1039/c001355b
_journal_volume                  12
_journal_year                    2010
_chemical_absolute_configuration ad
_chemical_formula_moiety         'C7 H6 Cl1 N3 O4 S2'
_chemical_formula_sum            'C7 H6 Cl N3 O4 S2'
_chemical_formula_weight         295.73
_space_group_IT_number           1
_symmetry_cell_setting           triclinic
_symmetry_space_group_name_Hall  'P 1'
_symmetry_space_group_name_H-M   'P 1'
_atom_sites_solution_hydrogens   geom
_atom_sites_solution_primary     direct
_cell_angle_alpha                74.05(2)
_cell_angle_beta                 83.54(2)
_cell_angle_gamma                80.468(18)
_cell_formula_units_Z            1
_cell_length_a                   4.8746(14)
_cell_length_b                   6.4011(10)
_cell_length_c                   8.980(3)
_cell_measurement_reflns_used    557
_cell_measurement_temperature    293
_cell_measurement_theta_max      21
_cell_measurement_theta_min      3
_cell_volume                     265.03(13)
_computing_cell_refinement       'SAINT (Siemens ,1995)'
_computing_data_collection       'SMART (Siemens, 1993)'
_computing_data_reduction        'SAINT (Siemens ,1995)'
_computing_molecular_graphics    'CAMERON (Watkin et al., 1996)'
_computing_publication_material  'CRYSTALS (Betteridge et al., 2003)'
_computing_structure_refinement  'CRYSTALS (Betteridge et al., 2003)'
_computing_structure_solution    'USER DEFINED STRUCTURE SOLUTION'
_diffrn_ambient_temperature      293
_diffrn_measured_fraction_theta_full 0.646
_diffrn_measured_fraction_theta_max 0.604
_diffrn_measurement_device       'Bruker SMART'
_diffrn_measurement_device_type  Area
_diffrn_measurement_method       \w
_diffrn_radiation_monochromator  graphite
_diffrn_radiation_type           'Mo K\a'
_diffrn_radiation_wavelength     0.71073
_diffrn_reflns_av_R_equivalents  0.000
_diffrn_reflns_limit_h_max       5
_diffrn_reflns_limit_h_min       -5
_diffrn_reflns_limit_k_max       7
_diffrn_reflns_limit_k_min       -7
_diffrn_reflns_limit_l_max       9
_diffrn_reflns_limit_l_min       0
_diffrn_reflns_number            5860
_diffrn_reflns_theta_full        25.203
_diffrn_reflns_theta_max         26.253
_diffrn_reflns_theta_min         3.344
_diffrn_standards_number         0
_exptl_absorpt_coefficient_mu    0.760
_exptl_absorpt_correction_T_max  0.96
_exptl_absorpt_correction_T_min  0.49
_exptl_absorpt_correction_type   multi-scan
_exptl_absorpt_process_details   'SADABS (Siemens, 1996)'
_exptl_crystal_colour            colourless
_exptl_crystal_density_diffrn    1.853
_exptl_crystal_density_method    'not measured'
_exptl_crystal_description       plate
_exptl_crystal_F_000             150
_exptl_crystal_size_max          0.10
_exptl_crystal_size_mid          0.10
_exptl_crystal_size_min          0.05
_refine_diff_density_max         0.50
_refine_diff_density_min         -0.34
_refine_ls_abs_structure_details 'Flack (1983), 0 Friedel-pairs'
_refine_ls_abs_structure_Flack   .0000
_refine_ls_extinction_method     None
_refine_ls_goodness_of_fit_ref   1.0479
_refine_ls_hydrogen_treatment    constr
_refine_ls_matrix_type           full
_refine_ls_number_parameters     72
_refine_ls_number_reflns         632
_refine_ls_number_restraints     12
_refine_ls_R_factor_all          0.0751
_refine_ls_R_factor_gt           0.0657
_refine_ls_shift/su_max          0.000193
_refine_ls_structure_factor_coef Fsqd
_refine_ls_weighting_details
;
Method= Modified Sheldrick
w=1/[\s^2^(F^2^) + ( 0.07P)^2^ + 1.20P]
,where P=(max(Fo^2^,0) + 2Fc^2^)/3
;
_refine_ls_weighting_scheme      calc
_refine_ls_wR_factor_all         0.1656
_refine_ls_wR_factor_gt          0.1580
_refine_ls_wR_factor_ref         0.1656
_reflns_limit_h_max              5
_reflns_limit_h_min              -5
_reflns_limit_k_max              7
_reflns_limit_k_min              -7
_reflns_limit_l_max              9
_reflns_limit_l_min              0
_reflns_number_gt                544
_reflns_number_total             644
_reflns_threshold_expression     I>2.0\s(I)
_oxford_diffrn_Wilson_B_factor   2.57
_oxford_diffrn_Wilson_scale      0.04
_oxford_refine_ls_r_factor_ref   0.0751
_oxford_refine_ls_scale          7.5(9)
_oxford_reflns_number_all        632
_oxford_reflns_threshold_expression_ref I>-10.0\s(I)
_cod_data_source_file            c001355b.txt
_cod_data_source_block           1
_cod_depositor_comments
;
The following automatic conversions were performed:

'_symmetry_cell_setting' value 'Triclinic' changed to 'triclinic'
according to /home/saulius/struct/CIF-dictionaries/cif_core.dic
dictionary named 'cif_core.dic' version 2.4.2 from 2011-04-26.

Automatic conversion script
Id: cif_fix_values 1891 2012-01-12 08:04:46Z andrius 
;
_cod_original_sg_symbol_Hall     'P 1 '
_cod_original_sg_symbol_H-M      'P 1 '
_cod_original_formula_sum        'C7 H6 Cl1 N3 O4 S2'
_cod_database_code               7212538
loop_
_symmetry_equiv_pos_as_xyz
x,y,z
loop_
_atom_site_label
_atom_site_type_symbol
_atom_site_fract_x
_atom_site_fract_y
_atom_site_fract_z
_atom_site_U_iso_or_equiv
_atom_site_occupancy
_atom_site_adp_type
_atom_site_refinement_flags_posn
Cl1 Cl -0.3477(10) 0.3624(8) 1.0392(7) 0.0518 1.0000 Uani D
S1 S 0.5874(8) 0.0218(7) 0.5979(7) 0.0265 1.0000 Uani .
S2 S -0.0210(9) -0.1404(7) 1.1487(7) 0.0292 1.0000 Uani .
O1 O 0.838(2) -0.0818(17) 0.6744(15) 0.0358(10) 1.0000 Uiso .
O2 O 0.464(2) -0.1104(17) 0.5298(16) 0.0358(10) 1.0000 Uiso .
O3 O 0.153(2) -0.3506(18) 1.1461(15) 0.0358(10) 1.0000 Uiso .
O4 O -0.314(2) -0.1344(17) 1.1706(16) 0.0358(10) 1.0000 Uiso .
N1 N 0.656(3) 0.240(2) 0.4671(19) 0.0358(10) 1.0000 Uiso .
N2 N 0.282(2) 0.474(2) 0.5471(16) 0.0358(10) 1.0000 Uiso D
N3 N 0.079(3) -0.061(2) 1.2828(19) 0.0358(10) 1.0000 Uiso .
C1 C 0.501(3) 0.423(3) 0.451(2) 0.0358(10) 1.0000 Uiso D
C2 C 0.206(3) 0.331(2) 0.6869(18) 0.0358(10) 1.0000 Uiso D
C3 C 0.345(3) 0.118(2) 0.731(2) 0.0358(10) 1.0000 Uiso D
C4 C 0.275(3) -0.025(3) 0.871(2) 0.0358(10) 1.0000 Uiso D
C5 C 0.063(3) 0.048(2) 0.970(2) 0.0358(10) 1.0000 Uiso D
C6 C -0.080(3) 0.262(2) 0.9231(18) 0.0358(10) 1.0000 Uiso D
C7 C -0.005(3) 0.404(3) 0.7842(18) 0.0358(10) 1.0000 Uiso D
H1 H 0.5456 0.5388 0.3637 0.0300 1.0000 Uiso R
H2 H 0.2111 0.6099 0.5350 0.0300 1.0000 Uiso R
H31 H -0.0225 0.0463 1.3000 0.0300 1.0000 Uiso R
H32 H 0.2427 -0.0437 1.2764 0.0300 1.0000 Uiso R
H4 H 0.3745 -0.1689 0.9012 0.0300 1.0000 Uiso R
H7 H -0.1014 0.5501 0.7558 0.0300 1.0000 Uiso R
loop_
_atom_site_aniso_label
_atom_site_aniso_U_11
_atom_site_aniso_U_22
_atom_site_aniso_U_33
_atom_site_aniso_U_23
_atom_site_aniso_U_13
_atom_site_aniso_U_12
Cl1 0.049(3) 0.037(2) 0.060(5) -0.015(3) 0.016(2) 0.010(2)
S1 0.033(2) 0.029(2) 0.016(4) -0.003(2) 0.0023(14) -0.0069(17)
S2 0.026(2) 0.032(2) 0.025(4) -0.004(2) 0.0034(15) -0.0023(17)
loop_
_atom_type_symbol
_atom_type_scat_dispersion_real
_atom_type_scat_dispersion_imag
_atom_type_scat_Cromer_Mann_a1
_atom_type_scat_Cromer_Mann_b1
_atom_type_scat_Cromer_Mann_a2
_atom_type_scat_Cromer_Mann_b2
_atom_type_scat_Cromer_Mann_a3
_atom_type_scat_Cromer_Mann_b3
_atom_type_scat_Cromer_Mann_a4
_atom_type_scat_Cromer_Mann_b4
_atom_type_scat_Cromer_Mann_c
_atom_type_scat_source
C 0.0033 0.0016 2.3100 20.8439 1.0200 10.2075 1.5886 0.5687 0.8650 51.6512
0.2156 'International Tables Vol C 4.2.6.8 and 6.1.1.4'
H 0.0000 0.0000 0.4930 10.5109 0.3229 26.1257 0.1402 3.1424 0.0408 57.7998
0.0030 'International Tables Vol C 4.2.6.8 and 6.1.1.4'
N 0.0061 0.0033 12.2126 0.0057 3.1322 9.8933 2.0125 28.9975 1.1663 0.5826
-11.5290 'International Tables Vol C 4.2.6.8 and 6.1.1.4'
O 0.0106 0.0060 3.0485 13.2771 2.2868 5.7011 1.5463 0.3239 0.8670 32.9089
0.2508 'International Tables Vol C 4.2.6.8 and 6.1.1.4'
S 0.1246 0.1234 6.9053 1.4679 5.2034 22.2151 1.4379 0.2536 1.5863 56.1720
0.8669 'International Tables Vol C 4.2.6.8 and 6.1.1.4'
Cl 0.1484 0.1585 11.4604 0.0104 7.1964 1.1662 6.2556 18.5194 1.6455 47.7784
-9.5574 'International Tables Vol C 4.2.6.8 and 6.1.1.4'
loop_
_geom_angle_atom_site_label_1
_geom_angle_atom_site_label_2
_geom_angle_atom_site_label_3
_geom_angle
_geom_angle_publ_flag
O1 S1 O2 115.6(7) yes
O1 S1 N1 108.5(6) yes
O2 S1 N1 109.3(8) yes
O1 S1 C3 108.7(8) yes
O2 S1 C3 109.4(8) yes
N1 S1 C3 104.8(7) yes
O3 S2 O4 118.5(6) yes
O3 S2 N3 106.8(7) yes
O4 S2 N3 108.2(8) yes
O3 S2 C5 106.1(7) yes
O4 S2 C5 109.1(7) yes
N3 S2 C5 107.6(8) yes
S1 N1 C1 122.9(13) yes
C1 N2 C2 123.4(14) yes
C1 N2 H2 119.0 no
C2 N2 H2 115.8 no
S2 N3 H31 112.7 no
S2 N3 H32 116.8 no
H31 N3 H32 110.8 no
N2 C1 N1 126.7(17) yes
N2 C1 H1 116.1 no
N1 C1 H1 117.2 no
N2 C2 C3 120.7(13) yes
N2 C2 C7 119.3(13) yes
C3 C2 C7 120.0(15) yes
S1 C3 C2 118.8(12) yes
S1 C3 C4 119.5(11) yes
C2 C3 C4 121.3(15) yes
C3 C4 C5 119.0(15) yes
C3 C4 H4 120.6 no
C5 C4 H4 120.4 no
S2 C5 C4 117.7(12) yes
S2 C5 C6 122.9(12) yes
C4 C5 C6 119.4(16) yes
Cl1 C6 C5 122.0(12) yes
Cl1 C6 C7 116.8(10) yes
C5 C6 C7 121.2(14) yes
C6 C7 C2 119.0(14) yes
C6 C7 H7 120.0 no
C2 C7 H7 121.0 no
loop_
_geom_bond_atom_site_label_1
_geom_bond_atom_site_label_2
_geom_bond_distance
_geom_bond_publ_flag
Cl1 C6 1.730(13) yes
S1 O1 1.441(11) yes
S1 O2 1.410(11) yes
S1 N1 1.613(15) yes
S1 C3 1.748(19) yes
S2 O3 1.471(12) yes
S2 O4 1.414(11) yes
S2 N3 1.582(16) yes
S2 C5 1.776(18) yes
N1 C1 1.27(2) yes
N2 C1 1.351(15) yes
N2 C2 1.389(15) yes
N2 H2 0.862 no
N3 H31 0.816 no
N3 H32 0.817 no
C1 H1 0.950 no
C2 C3 1.391(15) yes
C2 C7 1.380(16) yes
C3 C4 1.380(16) yes
C4 C5 1.388(16) yes
C4 H4 0.951 no
C5 C6 1.403(15) yes
C6 C7 1.380(15) yes
C7 H7 0.952 no
loop_
_oxford_twin_element_scale_factors
0.540(7)
0.460(7)
