#------------------------------------------------------------------------------
#$Date: 2016-03-26 20:56:05 +0200 (Sat, 26 Mar 2016) $
#$Revision: 180456 $
#$URL: svn://www.crystallography.net/cod/cif/7/21/25/7212533.cif $
#------------------------------------------------------------------------------
#
# This file is available in the Crystallography Open Database (COD),
# http://www.crystallography.net/
#
# All data on this site have been placed in the public domain by the
# contributors.
#
data_7212533
loop_
_publ_author_name
'Funnell, Nicholas P.'
'Dawson, Alice'
'Francis, Duncan'
'Lennie, Alistair R.'
'Marshall, William G.'
'Moggach, Stephen A.'
'Warren, John E.'
'Parsons, Simon'
_publ_section_title
;
 The effect of pressure on the crystal structure of l-alanine
;
_journal_issue                   9
_journal_name_full               CrystEngComm
_journal_page_first              2573
_journal_paper_doi               10.1039/c001296c
_journal_volume                  12
_journal_year                    2010
_chemical_absolute_configuration rm
_chemical_compound_source        'see text'
_chemical_formula_moiety         'C3 D7 N O2'
_chemical_formula_sum            'C3 D7 N O2'
_chemical_formula_weight         96.11
_chemical_name_systematic        ?
_space_group_IT_number           19
_symmetry_cell_setting           orthorhombic
_symmetry_Int_Tables_number      19
_symmetry_space_group_name_Hall  'P 2ac 2ab'
_symmetry_space_group_name_H-M   'P 21 21 21'
_cell_angle_alpha                90
_cell_angle_beta                 90
_cell_angle_gamma                90
_cell_formula_units_Z            4
_cell_length_a                   5.3626(4)
_cell_length_b                   11.5291(9)
_cell_length_c                   5.5263(4)
_cell_measurement_pressure       6.65(3)
_cell_measurement_temperature    298
_cell_volume                     341.67(4)
_diffrn_ambient_temperature      298
_diffrn_detector                 'ZnS scintillator'
_diffrn_detector_type            custom
_diffrn_measurement_device_type  'HiPr/PEARL, ISIS'
_diffrn_radiation_probe          neutron
_diffrn_radiation_type           Neutron
_diffrn_source                   'Pulsed neutron source'
_exptl_absorpt_correction_type   empirical
_exptl_absorpt_process_details
;
Calculated using custom ISIS software.
;
_exptl_crystal_colour            ' ?'
_exptl_crystal_density_diffrn    1.868
_exptl_crystal_density_method    'Not Measured'
_exptl_crystal_description       ' ?'
_pd_char_colour                  Colourless
_pd_char_particle_morphology     Block
_pd_instr_dist_spec/detc         600
_pd_instr_dist_src/spec          12600
_pd_instr_location               'ISIS, Rutherford Appleton Laboratory'
_pd_meas_2theta_fixed            90
_pd_meas_scan_method             Time-of-flight
_pd_proc_info_data_reduction
;
Custom ISIS software
;
_pd_proc_info_excluded_regions
;
excluded short TOF region above

;
_pd_proc_ls_background_function  'Chebychev polynomial'
_pd_proc_ls_pref_orient_corr
;
Modelling of preferred orientation was found to be unnecessary.
;
_pd_proc_ls_profile_function
;
Voigt function convoluted with a back-to-back double exponential.
;
_pd_proc_ls_prof_R_factor        5.192
_pd_proc_ls_prof_wR_factor       4.101
_pd_spec_mounting                'TiZr Capsule'
_pd_spec_mount_mode              transmission
_refine_ls_extinction_method     none
_refine_ls_goodness_of_fit_all   1.100
_refine_ls_hydrogen_treatment    refxyz
_refine_ls_matrix_type           sparse
_refine_ls_number_parameters     57
_refine_ls_number_restraints     0
_refine_ls_shift/su_max          <0.001
_refine_ls_weighting_scheme      sigma
_cod_data_source_file            c001296c.txt
_cod_data_source_block           alanine_6_65_GPa
_cod_depositor_comments
;
The following automatic conversions were performed:

'_symmetry_cell_setting' value 'Orthorhombic' changed to
'orthorhombic' according to
/home/saulius/struct/CIF-dictionaries/cif_core.dic dictionary named
'cif_core.dic' version 2.4.2 from 2011-04-26.

Automatic conversion script
Id: cif_fix_values 1891 2012-01-12 08:04:46Z andrius 
;
_cod_database_code               7212533
#BEGIN Tags that were not found in dictionaries:
_pd_proc_ls_prof_r_expected      3.728
#END Tags that were not found in dictionaries
loop_
_symmetry_equiv_pos_site_id
_symmetry_equiv_pos_as_xyz
1 x,y,z
2 1/2-x,-y,1/2+z
3 1/2+x,1/2-y,-z
4 -x,1/2+y,1/2-z
loop_
_atom_site_label
_atom_site_type_symbol
_atom_site_thermal_displace_type
_atom_site_fract_x
_atom_site_fract_y
_atom_site_fract_z
_atom_site_occupancy
_atom_site_U_iso_or_equiv
O1 O Uiso 0.7446(10) 0.0898(4) 0.5719(11) 1.000 0.0124(7)
O2 O Uiso 0.4051(10) 0.1861(4) 0.7009(12) 1.000 0.0124(7)
N1 N Uiso 0.6526(7) 0.1371(4) 0.1051(7) 1.000 0.0124(7)
C1 C Uiso 0.5413(3) 0.1437(3) 0.5348(3) 1.000 0.0124(7)
C2 C Uiso 0.4529(4) 0.1592(3) 0.2794(5) 1.000 0.0124(7)
C3 C Uiso 0.2280(10) 0.0852(5) 0.2215(8) 1.000 0.0124(7)
H1 D Uiso 0.7027(10) 0.0494(5) 0.1182(10) 1.000 0.0149(9)
H2 D Uiso 0.5845(11) 0.1563(6) -0.0682(10) 1.000 0.0149(9)
H3 D Uiso 0.8036(10) 0.1909(5) 0.1492(10) 1.000 0.0149(9)
H4 D Uiso 0.4051(9) 0.2518(5) 0.2644(13) 1.000 0.0149(9)
H5 D Uiso 0.0820(12) 0.0995(6) 0.3585(11) 1.000 0.0149(9)
H6 D Uiso 0.1548(13) 0.1086(7) 0.0417(11) 1.000 0.0149(9)
H7 D Uiso 0.2815(13) -0.0071(6) 0.2215(11) 1.000 0.0149(9)
loop_
_geom_angle_atom_site_label_1
_geom_angle_atom_site_label_2
_geom_angle_atom_site_label_3
_geom_angle
_geom_angle_publ_flag
C2 N1 H2 108.0(4) yes
C2 N1 H3 108.0(5) yes
H1 N1 H2 110.8(6) yes
H1 N1 H3 110.9(5) yes
H2 N1 H3 110.9(6) yes
C2 N1 H1 108.1(5) yes
O1 C1 C2 118.8(3) yes
O1 C1 O2 124.4(4) yes
O2 C1 C2 116.9(3) yes
C1 C2 C3 112.6(3) no
N1 C2 C1 111.6(2) yes
N1 C2 C3 110.3(3) yes
N1 C2 H4 106.8(4) yes
C1 C2 H4 105.1(4) yes
C3 C2 H4 110.2(4) yes
C2 C3 H5 109.7(5) yes
C2 C3 H6 109.7(6) yes
C2 C3 H7 109.7(5) yes
H5 C3 H6 109.3(7) yes
H5 C3 H7 109.2(7) yes
H6 C3 H7 109.2(7) yes
loop_
_geom_bond_atom_site_label_1
_geom_bond_atom_site_label_2
_geom_bond_distance
_geom_bond_publ_flag
O1 C1 1.272(6) yes
O2 C1 1.271(6) yes
N1 C2 1.463(5) yes
N1 H2 1.049(7) yes
N1 H3 1.049(7) yes
N1 H1 1.049(7) yes
C1 C2 1.500(3) no
C2 C3 1.512(6) no
C2 H4 1.101(7) yes
C3 H5 1.102(8) yes
C3 H6 1.102(8) yes
C3 H7 1.102(9) yes
loop_
_geom_hbond_atom_site_label_D
_geom_hbond_atom_site_label_H
_geom_hbond_atom_site_label_A
_geom_hbond_distance_DH
_geom_hbond_distance_HA
_geom_hbond_distance_DA
_geom_hbond_angle_DHA
_geom_hbond_site_symmetry_A
_geom_hbond_publ_flag
N1 H1 O1 1.049(7) 1.650(7) 2.680(7) 166.2(6) 2_654 yes
N1 H2 O1 1.049(7) 2.298(8) 3.037(7) 126.2(5) 1_554 yes
N1 H2 O2 1.049(7) 1.635(8) 2.659(7) 164.2(6) 1_554 yes
N1 H3 O2 1.049(7) 1.730(8) 2.672(7) 147.0(5) 3_556 yes
C2 H4 O1 1.101(7) 2.212(8) 3.209(6) 149.3(6) 3_456 yes
C3 H5 O1 1.102(8) 2.163(8) 3.236(8) 164.1(6) 1_455 yes
C3 H6 O2 1.102(8) 2.479(9) 3.245(8) 125.5(6) 1_554 yes
C3 H7 O2 1.102(9) 2.296(8) 3.210(7) 139.0(6) 2_554 yes
loop_
_geom_torsion_atom_site_label_1
_geom_torsion_atom_site_label_2
_geom_torsion_atom_site_label_3
_geom_torsion_atom_site_label_4
_geom_torsion
_geom_torsion_publ_flag
O1 C1 C2 N1 -16.1(5) no
O1 C1 C2 C3 108.6(4) no
O2 C1 C2 N1 164.0(4) no
O2 C1 C2 C3 -71.4(5) no
