#------------------------------------------------------------------------------
#$Date: 2016-03-26 20:50:34 +0200 (Sat, 26 Mar 2016) $
#$Revision: 180451 $
#$URL: svn://www.crystallography.net/cod/cif/7/21/20/7212097.cif $
#------------------------------------------------------------------------------
#
# This file is available in the Crystallography Open Database (COD),
# http://www.crystallography.net/
#
# All data on this site have been placed in the public domain by the
# contributors.
#
data_7212097
loop_
_publ_author_name
'Nayak, Susanta K.'
'Venugopala, K. N.'
'Chopra, Deepak'
Vasu,
'Row, T. N. Guru'
_publ_section_title
;
 Effect of substitution on molecular conformation and packing features in
 a series of aryl substituted
 ethyl-6-methyl-4-phenyl-2-thioxo-1,2,3,4-tetrahydropyrimidine-5-carboxylates
;
_journal_issue                   4
_journal_name_full               CrystEngComm
_journal_page_first              1205
_journal_paper_doi               10.1039/b919648j
_journal_volume                  12
_journal_year                    2010
_chemical_compound_source        'see text'
_chemical_formula_moiety         'C14 H15 F N2 O2 S'
_chemical_formula_sum            'C14 H15 F N2 O2 S'
_chemical_formula_weight         294.35
_chemical_name_common
;
4-(4-Fluoro-phenyl)-6-methyl-2-thioxo-1,2,3,4-tetrahydro-
pyrimidine-5-carboxylic
;
_chemical_name_systematic
;
4-(4-Fluoro-phenyl)-6-methyl-2-thioxo-1,2,3,4-tetrahydro-pyrimidine-5-carboxylic acid ethyl ester
;
_space_group_IT_number           2
_symmetry_cell_setting           triclinic
_symmetry_Int_Tables_number      2
_symmetry_space_group_name_Hall  '-P 1'
_symmetry_space_group_name_H-M   'P -1'
_atom_sites_solution_hydrogens   geom
_atom_sites_solution_primary     direct
_atom_sites_solution_secondary   difmap
_cell_angle_alpha                71.093(5)
_cell_angle_beta                 88.642(5)
_cell_angle_gamma                69.792(5)
_cell_formula_units_Z            2
_cell_length_a                   7.347(2)
_cell_length_b                   9.542(3)
_cell_length_c                   11.327(4)
_cell_measurement_reflns_used    400
_cell_measurement_temperature    292(2)
_cell_measurement_theta_max      0.91
_cell_measurement_theta_min      27.99
_cell_volume                     701.5(4)
_computing_cell_refinement       SMART
_computing_data_collection       'SMART (Bruker, 1998)'
_computing_data_reduction        'SAINT (Bruker, 1998)'
_computing_molecular_graphics
'Ortep-3 for Windows (Farrugia, 1997) and CAMERON (Watkin et al., 1993)'
_computing_publication_material  'PLATON (Spek, 2003)'
_computing_structure_refinement  'SHELXL-97 (Sheldrick, 1997)'
_computing_structure_solution    'SHELXTL V6.14 (Bruker, 2000)'
_diffrn_ambient_temperature      292(2)
_diffrn_measured_fraction_theta_full 0.993
_diffrn_measured_fraction_theta_max 0.993
_diffrn_measurement_device_type  'Bruker SMART CCD area detector'
_diffrn_measurement_method       '\f and \w scans'
_diffrn_radiation_monochromator  graphite
_diffrn_radiation_probe          x-ray
_diffrn_radiation_source         'fine-focus sealed tube'
_diffrn_radiation_type           MoK\a
_diffrn_radiation_wavelength     0.71073
_diffrn_reflns_av_R_equivalents  0.0218
_diffrn_reflns_av_sigmaI/netI    0.0228
_diffrn_reflns_limit_h_max       9
_diffrn_reflns_limit_h_min       -9
_diffrn_reflns_limit_k_max       11
_diffrn_reflns_limit_k_min       -11
_diffrn_reflns_limit_l_max       13
_diffrn_reflns_limit_l_min       -13
_diffrn_reflns_number            7222
_diffrn_reflns_reduction_process
;
;
_diffrn_reflns_theta_full        25.99
_diffrn_reflns_theta_max         25.99
_diffrn_reflns_theta_min         1.91
_exptl_absorpt_coefficient_mu    0.245
_exptl_absorpt_correction_T_max  0.9481
_exptl_absorpt_correction_T_min  0.9072
_exptl_absorpt_correction_type   multi-scan
_exptl_absorpt_process_details   'SADABS, (Sheldrick, 1996)'
_exptl_crystal_colour            colorless
_exptl_crystal_density_diffrn    1.393
_exptl_crystal_density_method    'Not Measured'
_exptl_crystal_description       block
_exptl_crystal_F_000             308
_exptl_crystal_size_max          0.32
_exptl_crystal_size_mid          0.28
_exptl_crystal_size_min          0.22
_refine_diff_density_max         0.290
_refine_diff_density_min         -0.242
_refine_diff_density_rms         0.050
_refine_ls_extinction_method     none
_refine_ls_goodness_of_fit_ref   1.036
_refine_ls_hydrogen_treatment    constr
_refine_ls_matrix_type           full
_refine_ls_number_parameters     183
_refine_ls_number_reflns         2723
_refine_ls_number_restraints     0
_refine_ls_restrained_S_all      1.036
_refine_ls_R_factor_all          0.0465
_refine_ls_R_factor_gt           0.0413
_refine_ls_shift/su_max          0.000
_refine_ls_shift/su_mean         0.000
_refine_ls_structure_factor_coef Fsqd
_refine_ls_weighting_details
'calc w=1/[\s^2^(Fo^2^)+(0.0608P)^2^+0.2951P] where P=(Fo^2^+2Fc^2^)/3'
_refine_ls_weighting_scheme      calc
_refine_ls_wR_factor_gt          0.1121
_refine_ls_wR_factor_ref         0.1156
_reflns_number_gt                2400
_reflns_number_total             2723
_reflns_threshold_expression     >2sigma(I)
_cod_data_source_file            b919648j.txt
_cod_data_source_block           s4f_m
_cod_depositor_comments
;
The following automatic conversions were performed:

'_symmetry_cell_setting' value 'Triclinic' changed to 'triclinic'
according to /home/saulius/struct/CIF-dictionaries/cif_core.dic
dictionary named 'cif_core.dic' version 2.4.2 from 2011-04-26.

Automatic conversion script
Id: cif_fix_values 1891 2012-01-12 08:04:46Z andrius 
;
_cod_original_cell_volume        701.6(4)
_cod_database_code               7212097
loop_
_symmetry_equiv_pos_site_id
_symmetry_equiv_pos_as_xyz
1 x,y,z
2 -x,-y,-z
loop_
_atom_site_label
_atom_site_type_symbol
_atom_site_fract_x
_atom_site_fract_y
_atom_site_fract_z
_atom_site_U_iso_or_equiv
_atom_site_adp_type
_atom_site_occupancy
_atom_site_symmetry_multiplicity
_atom_site_calc_flag
_atom_site_refinement_flags
S1 S 0.20133(7) 0.09201(6) 0.55149(5) 0.04446(18) Uani 1 1 d .
N2 N 0.5177(2) 0.15417(18) 0.58685(14) 0.0364(3) Uani 1 1 d .
H2N H 0.5715 0.1007 0.5391 0.044 Uiso 1 1 calc R
O1 O 0.79002(18) 0.44542(16) 0.64420(13) 0.0432(3) Uani 1 1 d .
N1 N 0.2391(2) 0.30078(18) 0.64675(14) 0.0364(3) Uani 1 1 d .
H1N H 0.1227 0.3122 0.6674 0.044 Uiso 1 1 calc R
O2 O 0.54505(19) 0.55288(17) 0.74572(15) 0.0496(4) Uani 1 1 d .
C3 C 0.5192(2) 0.3624(2) 0.66499(16) 0.0317(4) Uani 1 1 d .
C1 C 0.3285(2) 0.1849(2) 0.59793(16) 0.0331(4) Uani 1 1 d .
F1 F 1.0007(2) -0.28654(18) 1.10285(13) 0.0771(5) Uani 1 1 d .
C9 C 0.7383(2) 0.0761(2) 0.77547(16) 0.0322(4) Uani 1 1 d .
C2 C 0.3246(2) 0.4026(2) 0.66551(16) 0.0329(4) Uani 1 1 d .
C4 C 0.6408(2) 0.2059(2) 0.65120(16) 0.0319(4) Uani 1 1 d .
H4 H 0.7435 0.2229 0.5979 0.038 Uiso 1 1 calc R
C14 C 0.6799(3) 0.0866(2) 0.89023(18) 0.0415(4) Uani 1 1 d .
H14 H 0.5797 0.1771 0.8929 0.050 Uiso 1 1 calc R
C5 C 0.6318(2) 0.4573(2) 0.68148(16) 0.0335(4) Uani 1 1 d .
C10 C 0.8895(3) -0.0598(2) 0.77383(18) 0.0414(4) Uani 1 1 d .
H10 H 0.9317 -0.0683 0.6975 0.050 Uiso 1 1 calc R
C6 C 0.6435(3) 0.6509(3) 0.7689(2) 0.0490(5) Uani 1 1 d .
H6A H 0.6504 0.7294 0.6908 0.059 Uiso 1 1 calc R
H6B H 0.7750 0.5862 0.8078 0.059 Uiso 1 1 calc R
C8 C 0.1793(3) 0.5487(2) 0.6808(2) 0.0470(5) Uani 1 1 d .
H8A H 0.1475 0.5259 0.7660 0.071 Uiso 1 1 calc R
H8B H 0.0635 0.5834 0.6256 0.071 Uiso 1 1 calc R
H8C H 0.2337 0.6308 0.6606 0.071 Uiso 1 1 calc R
C13 C 0.7680(3) -0.0353(3) 1.00160(19) 0.0491(5) Uani 1 1 d .
H13 H 0.7284 -0.0276 1.0785 0.059 Uiso 1 1 calc R
C12 C 0.9141(3) -0.1664(2) 0.99489(19) 0.0478(5) Uani 1 1 d .
C11 C 0.9777(3) -0.1821(2) 0.8834(2) 0.0495(5) Uani 1 1 d .
H11 H 1.0780 -0.2731 0.8818 0.059 Uiso 1 1 calc R
C7 C 0.5292(4) 0.7293(4) 0.8532(3) 0.0781(9) Uani 1 1 d .
H7A H 0.3979 0.7891 0.8153 0.117 Uiso 1 1 calc R
H7B H 0.5867 0.7994 0.8678 0.117 Uiso 1 1 calc R
H7C H 0.5286 0.6507 0.9316 0.117 Uiso 1 1 calc R
loop_
_atom_site_aniso_label
_atom_site_aniso_U_11
_atom_site_aniso_U_22
_atom_site_aniso_U_33
_atom_site_aniso_U_23
_atom_site_aniso_U_13
_atom_site_aniso_U_12
S1 0.0333(3) 0.0507(3) 0.0625(3) -0.0335(3) 0.0072(2) -0.0174(2)
N2 0.0261(7) 0.0447(8) 0.0444(8) -0.0271(7) 0.0039(6) -0.0086(6)
O1 0.0293(7) 0.0540(8) 0.0551(8) -0.0261(7) 0.0101(5) -0.0185(6)
N1 0.0258(7) 0.0440(8) 0.0493(9) -0.0265(7) 0.0117(6) -0.0148(6)
O2 0.0370(7) 0.0568(8) 0.0778(10) -0.0445(8) 0.0188(7) -0.0245(6)
C3 0.0267(8) 0.0332(9) 0.0363(9) -0.0139(7) 0.0038(6) -0.0100(7)
C1 0.0298(9) 0.0358(9) 0.0342(8) -0.0139(7) 0.0031(6) -0.0102(7)
F1 0.0782(10) 0.0639(9) 0.0563(8) 0.0035(7) -0.0102(7) -0.0069(8)
C9 0.0236(8) 0.0359(9) 0.0409(9) -0.0167(7) 0.0037(6) -0.0116(7)
C2 0.0289(8) 0.0343(9) 0.0381(9) -0.0162(7) 0.0053(7) -0.0108(7)
C4 0.0243(8) 0.0372(9) 0.0385(9) -0.0180(7) 0.0060(6) -0.0114(7)
C14 0.0373(10) 0.0413(10) 0.0446(10) -0.0191(8) 0.0061(8) -0.0084(8)
C5 0.0293(8) 0.0328(9) 0.0366(9) -0.0109(7) 0.0011(7) -0.0094(7)
C10 0.0313(9) 0.0455(10) 0.0468(10) -0.0196(9) 0.0071(7) -0.0094(8)
C6 0.0432(11) 0.0514(12) 0.0703(14) -0.0337(11) 0.0128(10) -0.0264(9)
C8 0.0280(9) 0.0446(11) 0.0743(14) -0.0325(10) 0.0076(9) -0.0085(8)
C13 0.0527(12) 0.0546(12) 0.0390(10) -0.0162(9) 0.0054(8) -0.0176(10)
C12 0.0419(11) 0.0454(11) 0.0476(11) -0.0061(9) -0.0058(8) -0.0138(9)
C11 0.0333(10) 0.0416(11) 0.0628(13) -0.0154(9) 0.0011(9) -0.0023(8)
C7 0.0679(16) 0.096(2) 0.118(2) -0.0778(19) 0.0370(16) -0.0491(16)
loop_
_atom_type_symbol
_atom_type_description
_atom_type_scat_dispersion_real
_atom_type_scat_dispersion_imag
_atom_type_scat_source
S S 0.1246 0.1234 'International Tables Vol C Tables 4.2.6.8 and 6.1.1.4'
O O 0.0106 0.0060 'International Tables Vol C Tables 4.2.6.8 and 6.1.1.4'
N N 0.0061 0.0033 'International Tables Vol C Tables 4.2.6.8 and 6.1.1.4'
F F 0.0171 0.0103 'International Tables Vol C Tables 4.2.6.8 and 6.1.1.4'
H H 0.0000 0.0000 'International Tables Vol C Tables 4.2.6.8 and 6.1.1.4'
C C 0.0033 0.0016 'International Tables Vol C Tables 4.2.6.8 and 6.1.1.4'
loop_
_geom_angle_atom_site_label_1
_geom_angle_atom_site_label_2
_geom_angle_atom_site_label_3
_geom_angle
C1 N2 C4 124.14(14)
C1 N2 H2N 117.9
C4 N2 H2N 117.9
C1 N1 C2 123.84(14)
C1 N1 H1N 118.1
C2 N1 H1N 118.1
C5 O2 C6 118.17(14)
C2 C3 C5 125.52(15)
C2 C3 C4 119.88(15)
C5 C3 C4 114.57(14)
N2 C1 N1 115.91(15)
N2 C1 S1 123.39(13)
N1 C1 S1 120.67(13)
C14 C9 C10 118.32(17)
C14 C9 C4 122.62(15)
C10 C9 C4 119.05(15)
C3 C2 N1 118.63(15)
C3 C2 C8 128.39(16)
N1 C2 C8 112.95(15)
N2 C4 C3 108.99(13)
N2 C4 C9 110.14(14)
C3 C4 C9 113.70(14)
N2 C4 H4 107.9
C3 C4 H4 107.9
C9 C4 H4 107.9
C9 C14 C13 121.28(18)
C9 C14 H14 119.4
C13 C14 H14 119.4
O1 C5 O2 123.41(16)
O1 C5 C3 123.29(16)
O2 C5 C3 113.25(15)
C11 C10 C9 121.10(18)
C11 C10 H10 119.5
C9 C10 H10 119.5
O2 C6 C7 106.98(16)
O2 C6 H6A 110.3
C7 C6 H6A 110.3
O2 C6 H6B 110.3
C7 C6 H6B 110.3
H6A C6 H6B 108.6
C2 C8 H8A 109.5
C2 C8 H8B 109.5
H8A C8 H8B 109.5
C2 C8 H8C 109.5
H8A C8 H8C 109.5
H8B C8 H8C 109.5
C12 C13 C14 118.14(19)
C12 C13 H13 120.9
C14 C13 H13 120.9
F1 C12 C13 118.7(2)
F1 C12 C11 118.54(19)
C13 C12 C11 122.75(19)
C12 C11 C10 118.41(18)
C12 C11 H11 120.8
C10 C11 H11 120.8
C6 C7 H7A 109.5
C6 C7 H7B 109.5
H7A C7 H7B 109.5
C6 C7 H7C 109.5
H7A C7 H7C 109.5
H7B C7 H7C 109.5
loop_
_geom_bond_atom_site_label_1
_geom_bond_atom_site_label_2
_geom_bond_distance
S1 C1 1.6835(18)
N2 C1 1.330(2)
N2 C4 1.471(2)
N2 H2N 0.8600
O1 C5 1.208(2)
N1 C1 1.355(2)
N1 C2 1.395(2)
N1 H1N 0.8600
O2 C5 1.332(2)
O2 C6 1.451(2)
C3 C2 1.346(2)
C3 C5 1.475(2)
C3 C4 1.509(2)
F1 C12 1.356(2)
C9 C14 1.383(3)
C9 C10 1.392(2)
C9 C4 1.527(2)
C2 C8 1.495(2)
C4 H4 0.9800
C14 C13 1.390(3)
C14 H14 0.9300
C10 C11 1.378(3)
C10 H10 0.9300
C6 C7 1.472(3)
C6 H6A 0.9700
C6 H6B 0.9700
C8 H8A 0.9600
C8 H8B 0.9600
C8 H8C 0.9600
C13 C12 1.361(3)
C13 H13 0.9300
C12 C11 1.372(3)
C11 H11 0.9300
C7 H7A 0.9600
C7 H7B 0.9600
C7 H7C 0.9600
loop_
_geom_torsion_atom_site_label_1
_geom_torsion_atom_site_label_2
_geom_torsion_atom_site_label_3
_geom_torsion_atom_site_label_4
_geom_torsion
C4 N2 C1 N1 16.1(2)
C4 N2 C1 S1 -165.59(13)
C2 N1 C1 N2 10.7(3)
C2 N1 C1 S1 -167.63(13)
C5 C3 C2 N1 179.05(15)
C4 C3 C2 N1 -3.2(2)
C5 C3 C2 C8 0.8(3)
C4 C3 C2 C8 178.53(17)
C1 N1 C2 C3 -16.9(3)
C1 N1 C2 C8 161.60(17)
C1 N2 C4 C3 -32.3(2)
C1 N2 C4 C9 93.05(19)
C2 C3 C4 N2 24.6(2)
C5 C3 C4 N2 -157.48(14)
C2 C3 C4 C9 -98.72(18)
C5 C3 C4 C9 79.24(18)
C14 C9 C4 N2 -105.93(18)
C10 C9 C4 N2 72.78(19)
C14 C9 C4 C3 16.7(2)
C10 C9 C4 C3 -164.57(15)
C10 C9 C14 C13 -0.5(3)
C4 C9 C14 C13 178.24(17)
C6 O2 C5 O1 1.8(3)
C6 O2 C5 C3 179.37(16)
C2 C3 C5 O1 -156.82(18)
C4 C3 C5 O1 25.3(2)
C2 C3 C5 O2 25.6(3)
C4 C3 C5 O2 -152.23(15)
C14 C9 C10 C11 0.8(3)
C4 C9 C10 C11 -177.95(17)
C5 O2 C6 C7 -173.4(2)
C9 C14 C13 C12 -0.1(3)
C14 C13 C12 F1 -179.70(19)
C14 C13 C12 C11 0.4(3)
F1 C12 C11 C10 -179.96(18)
C13 C12 C11 C10 -0.1(3)
C9 C10 C11 C12 -0.6(3)
