#------------------------------------------------------------------------------
#$Date: 2016-03-26 20:53:06 +0200 (Sat, 26 Mar 2016) $
#$Revision: 180453 $
#$URL: svn://www.crystallography.net/cod/cif/7/21/22/7212204.cif $
#------------------------------------------------------------------------------
#
# This file is available in the Crystallography Open Database (COD),
# http://www.crystallography.net/
#
# All data on this site have been placed in the public domain by the
# contributors.
#
data_7212204
loop_
_publ_author_name
'Dyakonenko, Viktoriya V.'
'Maleev, Andrey V.'
'Zbruyev, Alexander I.'
'Chebanov, Valentin A.'
'Desenko, Sergey M.'
'Shishkin, Oleg V.'
_publ_section_title
;
 Layered crystal structure of bicyclic aziridines as revealed by analysis
 of intermolecular interactions energy
;
_journal_issue                   6
_journal_name_full               CrystEngComm
_journal_page_first              1816
_journal_paper_doi               10.1039/b922131j
_journal_volume                  12
_journal_year                    2010
_chemical_formula_moiety         'C18 H16 Cl I N2'
_chemical_formula_sum            'C18 H16 Cl I N2'
_chemical_formula_weight         422.68
_chemical_name_systematic
;
?
;
_space_group_IT_number           2
_symmetry_cell_setting           triclinic
_symmetry_space_group_name_Hall  '-P 1'
_symmetry_space_group_name_H-M   'P -1'
_atom_sites_solution_hydrogens   difmap
_atom_sites_solution_primary     direct
_atom_sites_solution_secondary   difmap
_audit_creation_method           SHELXL-97
_cell_angle_alpha                116.008(11)
_cell_angle_beta                 97.704(9)
_cell_angle_gamma                104.225(10)
_cell_formula_units_Z            2
_cell_length_a                   9.4070(11)
_cell_length_b                   10.3158(11)
_cell_length_c                   10.7475(12)
_cell_measurement_temperature    294(2)
_cell_volume                     872.9(2)
_computing_structure_refinement  'SHELXL-97 (Sheldrick, 1997)'
_computing_structure_solution    'SHELXS-97 (Sheldrick, 1990)'
_diffrn_ambient_temperature      294(2)
_diffrn_measured_fraction_theta_full 0.987
_diffrn_measured_fraction_theta_max 0.987
_diffrn_radiation_monochromator  graphite
_diffrn_radiation_source         'fine-focus sealed tube'
_diffrn_radiation_type           MoK\a
_diffrn_radiation_wavelength     0.71073
_diffrn_reflns_av_R_equivalents  0.0275
_diffrn_reflns_av_sigmaI/netI    0.0291
_diffrn_reflns_limit_h_max       12
_diffrn_reflns_limit_h_min       -12
_diffrn_reflns_limit_k_max       13
_diffrn_reflns_limit_k_min       -13
_diffrn_reflns_limit_l_max       13
_diffrn_reflns_limit_l_min       -13
_diffrn_reflns_number            9019
_diffrn_reflns_theta_full        27.50
_diffrn_reflns_theta_max         27.50
_diffrn_reflns_theta_min         3.13
_exptl_absorpt_coefficient_mu    1.985
_exptl_absorpt_correction_T_max  0.680
_exptl_absorpt_correction_T_min  0.499
_exptl_absorpt_correction_type   empirical
_exptl_absorpt_process_details
'Blessing, R. H. (1995) Acta Cryst. A51, 33-38.'
_exptl_crystal_density_diffrn    1.608
_exptl_crystal_density_method    'not measured'
_exptl_crystal_description       block
_exptl_crystal_F_000             416
_exptl_crystal_size_max          0.4
_exptl_crystal_size_mid          0.3
_exptl_crystal_size_min          0.2
_refine_diff_density_max         0.722
_refine_diff_density_min         -0.913
_refine_diff_density_rms         0.069
_refine_ls_extinction_method     none
_refine_ls_goodness_of_fit_ref   1.072
_refine_ls_hydrogen_treatment    constr
_refine_ls_matrix_type           full
_refine_ls_number_parameters     199
_refine_ls_number_reflns         3953
_refine_ls_number_restraints     0
_refine_ls_restrained_S_all      1.072
_refine_ls_R_factor_all          0.0488
_refine_ls_R_factor_gt           0.0376
_refine_ls_shift/su_max          0.001
_refine_ls_shift/su_mean         0.000
_refine_ls_structure_factor_coef Fsqd
_refine_ls_weighting_details
'calc w=1/[\s^2^(Fo^2^)+(0.0671P)^2^+0.0433P] where P=(Fo^2^+2Fc^2^)/3'
_refine_ls_weighting_scheme      calc
_refine_ls_wR_factor_gt          0.1055
_refine_ls_wR_factor_ref         0.1147
_reflns_number_gt                3144
_reflns_number_total             3953
_reflns_threshold_expression     >2sigma(I)
_cod_data_source_file            b922131j.txt
_cod_data_source_block           foto6
_cod_database_code               7212204
loop_
_symmetry_equiv_pos_as_xyz
'x, y, z'
'-x, -y, -z'
loop_
_atom_site_label
_atom_site_type_symbol
_atom_site_fract_x
_atom_site_fract_y
_atom_site_fract_z
_atom_site_U_iso_or_equiv
_atom_site_adp_type
_atom_site_occupancy
_atom_site_symmetry_multiplicity
_atom_site_calc_flag
_atom_site_refinement_flags
I1 I 0.14506(3) 0.84239(3) 0.50354(3) 0.07117(14) Uani 1 1 d .
Cl1 Cl -0.52079(15) -0.44529(14) 0.30660(13) 0.0848(3) Uani 1 1 d .
N1 N -0.1659(3) 0.0903(3) -0.1100(3) 0.0536(6) Uani 1 1 d .
N2 N -0.3547(3) -0.1091(3) -0.1034(3) 0.0458(5) Uani 1 1 d .
C1 C -0.3026(3) 0.0348(3) 0.0348(3) 0.0430(6) Uani 1 1 d .
H1B H -0.3735 0.0656 0.0915 0.052 Uiso 1 1 calc R
C2 C -0.1893(3) 0.1480(4) 0.0138(3) 0.0450(6) Uani 1 1 d .
C3 C -0.2753(4) -0.0698(4) -0.1994(4) 0.0524(7) Uani 1 1 d .
C4 C -0.3974(5) -0.0689(5) -0.3088(4) 0.0695(10) Uani 1 1 d .
H4A H -0.4465 0.0015 -0.2585 0.104 Uiso 1 1 calc R
H4B H -0.4718 -0.1701 -0.3667 0.104 Uiso 1 1 calc R
H4C H -0.3502 -0.0377 -0.3697 0.104 Uiso 1 1 calc R
C5 C -0.1939(5) -0.1788(5) -0.2735(5) 0.0717(11) Uani 1 1 d .
H5A H -0.1187 -0.1770 -0.2023 0.108 Uiso 1 1 calc R
H5B H -0.1448 -0.1477 -0.3335 0.108 Uiso 1 1 calc R
H5C H -0.2665 -0.2810 -0.3317 0.108 Uiso 1 1 calc R
C6 C -0.1115(3) 0.3095(4) 0.1274(3) 0.0446(6) Uani 1 1 d .
C7 C -0.1531(4) 0.3673(4) 0.2545(4) 0.0510(7) Uani 1 1 d .
H7A H -0.2310 0.3035 0.2679 0.061 Uiso 1 1 calc R
C8 C -0.0806(4) 0.5187(4) 0.3621(4) 0.0539(7) Uani 1 1 d .
H8A H -0.1094 0.5565 0.4471 0.065 Uiso 1 1 calc R
C9 C 0.0350(3) 0.6125(4) 0.3412(4) 0.0515(7) Uani 1 1 d .
C10 C 0.0770(4) 0.5582(4) 0.2170(5) 0.0678(10) Uani 1 1 d .
H10A H 0.1545 0.6224 0.2036 0.081 Uiso 1 1 calc R
C11 C 0.0033(4) 0.4057(4) 0.1098(4) 0.0638(9) Uani 1 1 d .
H11A H 0.0324 0.3686 0.0250 0.077 Uiso 1 1 calc R
C12 C -0.2543(3) -0.0986(4) 0.0198(3) 0.0455(6) Uani 1 1 d .
H12A H -0.1484 -0.0882 0.0174 0.055 Uiso 1 1 calc R
C13 C -0.3222(3) -0.1920(3) 0.0848(3) 0.0448(6) Uani 1 1 d .
C14 C -0.4780(3) -0.2684(4) 0.0450(4) 0.0497(7) Uani 1 1 d .
H14A H -0.5420 -0.2672 -0.0281 0.060 Uiso 1 1 calc R
C15 C -0.5392(4) -0.3462(4) 0.1128(4) 0.0564(8) Uani 1 1 d .
H15A H -0.6437 -0.3979 0.0853 0.068 Uiso 1 1 calc R
C16 C -0.4440(4) -0.3466(4) 0.2216(4) 0.0553(8) Uani 1 1 d .
C17 C -0.2903(4) -0.2733(4) 0.2619(4) 0.0617(9) Uani 1 1 d .
H17A H -0.2277 -0.2734 0.3366 0.074 Uiso 1 1 calc R
C18 C -0.2272(4) -0.1983(4) 0.1911(4) 0.0545(8) Uani 1 1 d .
H18A H -0.1219 -0.1527 0.2149 0.065 Uiso 1 1 calc R
loop_
_atom_site_aniso_label
_atom_site_aniso_U_11
_atom_site_aniso_U_22
_atom_site_aniso_U_33
_atom_site_aniso_U_23
_atom_site_aniso_U_13
_atom_site_aniso_U_12
I1 0.0676(2) 0.05136(17) 0.0699(2) 0.02164(13) 0.01051(13) 0.00120(12)
Cl1 0.1031(8) 0.0804(7) 0.0796(7) 0.0504(6) 0.0359(6) 0.0181(6)
N1 0.0471(14) 0.0517(16) 0.0563(16) 0.0239(13) 0.0189(12) 0.0106(12)
N2 0.0394(13) 0.0447(13) 0.0469(14) 0.0190(11) 0.0112(10) 0.0111(10)
C1 0.0359(13) 0.0405(15) 0.0503(16) 0.0198(13) 0.0143(11) 0.0128(11)
C2 0.0364(13) 0.0460(16) 0.0540(18) 0.0252(14) 0.0137(12) 0.0142(11)
C3 0.0487(17) 0.0465(17) 0.0536(18) 0.0209(14) 0.0171(13) 0.0082(13)
C4 0.066(2) 0.076(3) 0.055(2) 0.0306(19) 0.0124(17) 0.0109(19)
C5 0.066(2) 0.068(2) 0.075(3) 0.026(2) 0.038(2) 0.0200(19)
C6 0.0368(14) 0.0456(16) 0.0517(17) 0.0253(14) 0.0100(12) 0.0132(12)
C7 0.0557(18) 0.0484(17) 0.0507(18) 0.0295(15) 0.0167(14) 0.0099(14)
C8 0.0621(19) 0.0486(17) 0.0499(18) 0.0255(14) 0.0200(14) 0.0123(15)
C9 0.0434(16) 0.0426(16) 0.0580(19) 0.0209(14) 0.0081(13) 0.0084(12)
C10 0.056(2) 0.054(2) 0.078(3) 0.0231(18) 0.0304(18) 0.0041(16)
C11 0.061(2) 0.054(2) 0.070(2) 0.0219(17) 0.0380(18) 0.0149(16)
C12 0.0354(13) 0.0450(15) 0.0536(17) 0.0214(13) 0.0138(12) 0.0141(12)
C13 0.0424(15) 0.0361(14) 0.0533(17) 0.0185(13) 0.0143(12) 0.0154(12)
C14 0.0419(15) 0.0529(18) 0.0552(18) 0.0267(15) 0.0148(13) 0.0165(13)
C15 0.0457(17) 0.0552(19) 0.063(2) 0.0272(16) 0.0185(14) 0.0112(14)
C16 0.064(2) 0.0439(17) 0.056(2) 0.0227(15) 0.0251(16) 0.0158(15)
C17 0.064(2) 0.057(2) 0.058(2) 0.0284(17) 0.0064(16) 0.0165(17)
C18 0.0449(16) 0.0496(18) 0.060(2) 0.0235(15) 0.0067(14) 0.0122(14)
loop_
_atom_type_symbol
_atom_type_description
_atom_type_scat_dispersion_real
_atom_type_scat_dispersion_imag
_atom_type_scat_source
C C 0.0033 0.0016 'International Tables Vol C Tables 4.2.6.8 and 6.1.1.4'
H H 0.0000 0.0000 'International Tables Vol C Tables 4.2.6.8 and 6.1.1.4'
N N 0.0061 0.0033 'International Tables Vol C Tables 4.2.6.8 and 6.1.1.4'
Cl Cl 0.1484 0.1585 'International Tables Vol C Tables 4.2.6.8 and 6.1.1.4'
I I -0.4742 1.8119 'International Tables Vol C Tables 4.2.6.8 and 6.1.1.4'
loop_
_geom_angle_atom_site_label_1
_geom_angle_atom_site_label_2
_geom_angle_atom_site_label_3
_geom_angle
C2 N1 C3 108.6(3)
C12 N2 C1 61.59(19)
C12 N2 C3 115.0(2)
C1 N2 C3 104.8(2)
N2 C1 C2 105.3(2)
N2 C1 C12 59.02(19)
C2 C1 C12 112.8(2)
N2 C1 H1B 121.1
C2 C1 H1B 121.1
C12 C1 H1B 121.1
N1 C2 C6 124.1(3)
N1 C2 C1 113.3(3)
C6 C2 C1 122.7(3)
N2 C3 N1 107.4(3)
N2 C3 C5 113.2(3)
N1 C3 C5 110.8(3)
N2 C3 C4 106.4(3)
N1 C3 C4 107.2(3)
C5 C3 C4 111.5(3)
C3 C4 H4A 109.5
C3 C4 H4B 109.5
H4A C4 H4B 109.5
C3 C4 H4C 109.5
H4A C4 H4C 109.5
H4B C4 H4C 109.5
C3 C5 H5A 109.5
C3 C5 H5B 109.5
H5A C5 H5B 109.5
C3 C5 H5C 109.5
H5A C5 H5C 109.5
H5B C5 H5C 109.5
C11 C6 C7 118.5(3)
C11 C6 C2 120.9(3)
C7 C6 C2 120.6(3)
C6 C7 C8 121.1(3)
C6 C7 H7A 119.4
C8 C7 H7A 119.4
C9 C8 C7 119.0(3)
C9 C8 H8A 120.5
C7 C8 H8A 120.5
C10 C9 C8 120.8(3)
C10 C9 I1 120.0(2)
C8 C9 I1 119.2(3)
C9 C10 C11 119.6(3)
C9 C10 H10A 120.2
C11 C10 H10A 120.2
C6 C11 C10 121.0(3)
C6 C11 H11A 119.5
C10 C11 H11A 119.5
N2 C12 C13 117.4(2)
N2 C12 C1 59.38(19)
C13 C12 C1 119.7(2)
N2 C12 H12A 116.1
C13 C12 H12A 116.1
C1 C12 H12A 116.1
C14 C13 C18 119.2(3)
C14 C13 C12 121.7(3)
C18 C13 C12 119.1(3)
C15 C14 C13 120.6(3)
C15 C14 H14A 119.7
C13 C14 H14A 119.7
C16 C15 C14 119.4(3)
C16 C15 H15A 120.3
C14 C15 H15A 120.3
C17 C16 C15 121.1(3)
C17 C16 Cl1 119.5(3)
C15 C16 Cl1 119.4(3)
C16 C17 C18 119.9(3)
C16 C17 H17A 120.0
C18 C17 H17A 120.0
C13 C18 C17 119.7(3)
C13 C18 H18A 120.2
C17 C18 H18A 120.2
loop_
_geom_bond_atom_site_label_1
_geom_bond_atom_site_label_2
_geom_bond_distance
I1 C9 2.102(3)
Cl1 C16 1.739(4)
N1 C2 1.273(4)
N1 C3 1.490(4)
N2 C12 1.465(4)
N2 C1 1.470(4)
N2 C3 1.487(4)
C1 C2 1.495(4)
C1 C12 1.503(4)
C1 H1B 0.9800
C2 C6 1.476(4)
C3 C5 1.512(5)
C3 C4 1.534(5)
C4 H4A 0.9600
C4 H4B 0.9600
C4 H4C 0.9600
C5 H5A 0.9600
C5 H5B 0.9600
C5 H5C 0.9600
C6 C11 1.371(5)
C6 C7 1.385(5)
C7 C8 1.386(5)
C7 H7A 0.9300
C8 C9 1.383(5)
C8 H8A 0.9300
C9 C10 1.359(5)
C10 C11 1.394(5)
C10 H10A 0.9300
C11 H11A 0.9300
C12 C13 1.494(4)
C12 H12A 0.9800
C13 C14 1.386(4)
C13 C18 1.389(5)
C14 C15 1.381(5)
C14 H14A 0.9300
C15 C16 1.376(5)
C15 H15A 0.9300
C16 C17 1.363(5)
C17 C18 1.394(5)
C17 H17A 0.9300
C18 H18A 0.9300
loop_
_geom_torsion_atom_site_label_1
_geom_torsion_atom_site_label_2
_geom_torsion_atom_site_label_3
_geom_torsion_atom_site_label_4
_geom_torsion
C12 N2 C1 C2 107.8(2)
C3 N2 C1 C2 -2.9(3)
C3 N2 C1 C12 -110.7(3)
C3 N1 C2 C6 -174.5(3)
C3 N1 C2 C1 6.4(4)
N2 C1 C2 N1 -2.2(3)
C12 C1 C2 N1 60.1(3)
N2 C1 C2 C6 178.6(2)
C12 C1 C2 C6 -119.0(3)
C12 N2 C3 N1 -58.8(3)
C1 N2 C3 N1 6.4(3)
C12 N2 C3 C5 63.9(4)
C1 N2 C3 C5 129.1(3)
C12 N2 C3 C4 -173.3(3)
C1 N2 C3 C4 -108.1(3)
C2 N1 C3 N2 -8.1(4)
C2 N1 C3 C5 -132.3(3)
C2 N1 C3 C4 105.9(3)
N1 C2 C6 C11 -6.0(5)
C1 C2 C6 C11 173.1(3)
N1 C2 C6 C7 174.0(3)
C1 C2 C6 C7 -6.9(4)
C11 C6 C7 C8 -0.2(5)
C2 C6 C7 C8 179.8(3)
C6 C7 C8 C9 0.0(5)
C7 C8 C9 C10 0.3(5)
C7 C8 C9 I1 179.8(2)
C8 C9 C10 C11 -0.4(6)
I1 C9 C10 C11 -179.9(3)
C7 C6 C11 C10 0.1(6)
C2 C6 C11 C10 -179.9(4)
C9 C10 C11 C6 0.2(6)
C1 N2 C12 C13 109.9(3)
C3 N2 C12 C13 -156.1(3)
C3 N2 C12 C1 94.0(3)
C2 C1 C12 N2 -94.7(3)
N2 C1 C12 C13 -106.2(3)
C2 C1 C12 C13 159.1(3)
N2 C12 C13 C14 -9.1(4)
C1 C12 C13 C14 59.5(4)
N2 C12 C13 C18 173.0(3)
C1 C12 C13 C18 -118.4(3)
C18 C13 C14 C15 1.9(5)
C12 C13 C14 C15 -176.0(3)
C13 C14 C15 C16 0.5(5)
C14 C15 C16 C17 -1.0(5)
C14 C15 C16 Cl1 -179.7(3)
C15 C16 C17 C18 -0.9(6)
Cl1 C16 C17 C18 177.8(3)
C14 C13 C18 C17 -3.8(5)
C12 C13 C18 C17 174.2(3)
C16 C17 C18 C13 3.3(5)
