#------------------------------------------------------------------------------
#$Date: 2016-02-14 06:40:26 +0200 (Sun, 14 Feb 2016) $
#$Revision: 176432 $
#$URL: svn://www.crystallography.net/cod/cif/7/21/25/7212542.cif $
#------------------------------------------------------------------------------
#
# This file is available in the Crystallography Open Database (COD),
# http://www.crystallography.net/
#
# All data on this site have been placed in the public domain by the
# contributors.
#
data_7212542
loop_
_publ_author_name
'Oswald, Iain D. H.'
'Lennie, Alistair R.'
'Pulham, Colin R.'
'Shankland, Kenneth'
_publ_section_title
;
 High-pressure structural studies of the pharmaceutical, chlorothiazide
;
_journal_issue                   9
_journal_name_full               CrystEngComm
_journal_page_first              2533
_journal_paper_doi               10.1039/c001355b
_journal_volume                  12
_journal_year                    2010
_chemical_absolute_configuration ad
_chemical_formula_moiety         'C7 H6 Cl1 N3 O4 S2'
_chemical_formula_sum            'C7 H6 Cl N3 O4 S2'
_chemical_formula_weight         295.73
_space_group_IT_number           1
_symmetry_cell_setting           triclinic
_symmetry_space_group_name_Hall  'P 1'
_symmetry_space_group_name_H-M   'P 1'
_atom_sites_solution_hydrogens   geom
_atom_sites_solution_primary     direct
_cell_angle_alpha                77.48(3)
_cell_angle_beta                 84.97(4)
_cell_angle_gamma                82.35(3)
_cell_formula_units_Z            1
_cell_length_a                   4.693(2)
_cell_length_b                   5.9013(14)
_cell_length_c                   8.599(5)
_cell_measurement_reflns_used    448
_cell_measurement_temperature    293
_cell_measurement_theta_max      21
_cell_measurement_theta_min      4
_cell_volume                     229.99(18)
_computing_cell_refinement       'SAINT (Siemens ,1995)'
_computing_data_collection       'SMART (Siemens, 1993)'
_computing_data_reduction        'SAINT (Siemens ,1995)'
_computing_molecular_graphics    'CAMERON (Watkin et al., 1996)'
_computing_publication_material  'CRYSTALS (Betteridge et al., 2003)'
_computing_structure_refinement  'CRYSTALS (Betteridge et al., 2003)'
_computing_structure_solution    'USER DEFINED STRUCTURE SOLUTION'
_diffrn_ambient_temperature      293
_diffrn_measured_fraction_theta_full 0.737
_diffrn_measured_fraction_theta_max 0.579
_diffrn_measurement_device       'Bruker SMART'
_diffrn_measurement_device_type  Area
_diffrn_measurement_method       \w
_diffrn_radiation_monochromator  graphite
_diffrn_radiation_type           'Mo K\a'
_diffrn_radiation_wavelength     0.71073
_diffrn_reflns_av_R_equivalents  0.000
_diffrn_reflns_limit_h_max       4
_diffrn_reflns_limit_h_min       -4
_diffrn_reflns_limit_k_max       6
_diffrn_reflns_limit_k_min       -6
_diffrn_reflns_limit_l_max       8
_diffrn_reflns_limit_l_min       0
_diffrn_reflns_number            4121
_diffrn_reflns_theta_full        17.872
_diffrn_reflns_theta_max         23.830
_diffrn_reflns_theta_min         3.561
_diffrn_standards_number         0
_exptl_absorpt_coefficient_mu    0.876
_exptl_absorpt_correction_T_max  0.96
_exptl_absorpt_correction_T_min  0.49
_exptl_absorpt_correction_type   multi-scan
_exptl_absorpt_process_details   'SADABS (Siemens, 1996)'
_exptl_crystal_colour            colourless
_exptl_crystal_density_diffrn    2.135
_exptl_crystal_density_method    'not measured'
_exptl_crystal_description       plate
_exptl_crystal_F_000             150
_exptl_crystal_size_max          0.10
_exptl_crystal_size_mid          0.10
_exptl_crystal_size_min          0.05
_refine_diff_density_max         0.38
_refine_diff_density_min         -0.39
_refine_ls_abs_structure_details 'Flack (1983), 0 Friedel-pairs'
_refine_ls_abs_structure_Flack   0.00
_refine_ls_extinction_method     None
_refine_ls_goodness_of_fit_ref   1.1572
_refine_ls_hydrogen_treatment    constr
_refine_ls_matrix_type           full
_refine_ls_number_parameters     72
_refine_ls_number_reflns         401
_refine_ls_number_restraints     12
_refine_ls_R_factor_all          0.0703
_refine_ls_R_factor_gt           0.0627
_refine_ls_shift/su_max          0.003573
_refine_ls_structure_factor_coef Fsqd
_refine_ls_weighting_details
;
Method= Modified Sheldrick
w=1/[\s^2^(F^2^) + ( 0.06P)^2^ + 1.11P]
,where P=(max(Fo^2^,0) + 2Fc^2^)/3
;
_refine_ls_weighting_scheme      calc
_refine_ls_wR_factor_all         0.1580
_refine_ls_wR_factor_gt          0.1512
_refine_ls_wR_factor_ref         0.1580
_reflns_limit_h_max              4
_reflns_limit_h_min              -4
_reflns_limit_k_max              6
_reflns_limit_k_min              -6
_reflns_limit_l_max              8
_reflns_limit_l_min              0
_reflns_number_gt                367
_reflns_number_total             410
_reflns_threshold_expression     I>2.0\s(I)
_oxford_diffrn_Wilson_B_factor   2.57
_oxford_diffrn_Wilson_scale      0.04
_oxford_refine_ls_r_factor_ref   0.0703
_oxford_refine_ls_scale          10(4)
_oxford_reflns_number_all        401
_oxford_reflns_threshold_expression_ref I>-10.0\s(I)
_cod_data_source_file            c001355b.txt
_cod_data_source_block           5
_cod_depositor_comments
;
The following automatic conversions were performed:

'_symmetry_cell_setting' value 'Triclinic' changed to 'triclinic'
according to /home/saulius/struct/CIF-dictionaries/cif_core.dic
dictionary named 'cif_core.dic' version 2.4.2 from 2011-04-26.

Automatic conversion script
Id: cif_fix_values 1891 2012-01-12 08:04:46Z andrius 
;
_cod_original_sg_symbol_Hall     'P 1 '
_cod_original_sg_symbol_H-M      'P 1 '
_cod_original_formula_sum        'C7 H6 Cl1 N3 O4 S2'
_cod_database_code               7212542
loop_
_symmetry_equiv_pos_as_xyz
x,y,z
loop_
_atom_site_label
_atom_site_type_symbol
_atom_site_fract_x
_atom_site_fract_y
_atom_site_fract_z
_atom_site_U_iso_or_equiv
_atom_site_occupancy
_atom_site_adp_type
_atom_site_refinement_flags_posn
Cl1 Cl -0.3777(12) 0.3691(10) 1.0394(8) 0.0286 1.0000 Uani D
S1 S 0.6168(14) 0.0222(10) 0.5981(8) 0.0212 1.0000 Uani .
S2 S -0.0249(12) -0.1452(9) 1.1512(7) 0.0164 1.0000 Uani .
O1 O 0.869(3) -0.067(2) 0.6720(18) 0.0219(12) 1.0000 Uiso .
O2 O 0.500(3) -0.138(2) 0.5287(18) 0.0219(12) 1.0000 Uiso .
O3 O 0.140(3) -0.365(2) 1.1459(17) 0.0219(12) 1.0000 Uiso .
O4 O -0.331(3) -0.136(2) 1.171(2) 0.0219(12) 1.0000 Uiso .
N1 N 0.666(4) 0.251(3) 0.459(2) 0.0219(12) 1.0000 Uiso .
N2 N 0.251(3) 0.478(3) 0.5360(19) 0.0219(12) 1.0000 Uiso D
N3 N 0.084(4) -0.054(3) 1.294(2) 0.0219(12) 1.0000 Uiso .
C1 C 0.490(4) 0.433(4) 0.442(3) 0.0219(12) 1.0000 Uiso D
C2 C 0.205(4) 0.334(3) 0.686(2) 0.0219(12) 1.0000 Uiso D
C3 C 0.365(4) 0.118(3) 0.734(2) 0.0219(12) 1.0000 Uiso D
C4 C 0.304(4) -0.023(3) 0.880(2) 0.0219(12) 1.0000 Uiso D
C5 C 0.068(4) 0.046(3) 0.975(2) 0.0219(12) 1.0000 Uiso D
C6 C -0.094(4) 0.261(3) 0.924(2) 0.0219(12) 1.0000 Uiso D
C7 C -0.032(4) 0.406(3) 0.780(2) 0.0219(12) 1.0000 Uiso D
H1 H 0.5349 0.5487 0.3556 0.0300 1.0000 Uiso R
H2 H 0.1797 0.6134 0.5238 0.0300 1.0000 Uiso R
H31 H -0.0174 0.0532 1.3113 0.0300 1.0000 Uiso R
H32 H 0.2477 -0.0368 1.2877 0.0300 1.0000 Uiso R
H4 H 0.4040 -0.1668 0.9102 0.0300 1.0000 Uiso R
H7 H -0.1284 0.5521 0.7517 0.0300 1.0000 Uiso R
loop_
_atom_site_aniso_label
_atom_site_aniso_U_11
_atom_site_aniso_U_22
_atom_site_aniso_U_33
_atom_site_aniso_U_23
_atom_site_aniso_U_13
_atom_site_aniso_U_12
Cl1 0.023(4) 0.027(3) 0.037(5) -0.016(3) 0.012(3) 0.001(3)
S1 0.022(4) 0.015(3) 0.026(5) -0.005(3) 0.004(2) -0.004(3)
S2 0.018(4) 0.016(3) 0.011(4) 0.000(2) 0.007(2) 0.003(3)
loop_
_atom_type_symbol
_atom_type_scat_dispersion_real
_atom_type_scat_dispersion_imag
_atom_type_scat_Cromer_Mann_a1
_atom_type_scat_Cromer_Mann_b1
_atom_type_scat_Cromer_Mann_a2
_atom_type_scat_Cromer_Mann_b2
_atom_type_scat_Cromer_Mann_a3
_atom_type_scat_Cromer_Mann_b3
_atom_type_scat_Cromer_Mann_a4
_atom_type_scat_Cromer_Mann_b4
_atom_type_scat_Cromer_Mann_c
_atom_type_scat_source
C 0.0033 0.0016 2.3100 20.8439 1.0200 10.2075 1.5886 0.5687 0.8650 51.6512
0.2156 'International Tables Vol C 4.2.6.8 and 6.1.1.4'
H 0.0000 0.0000 0.4930 10.5109 0.3229 26.1257 0.1402 3.1424 0.0408 57.7998
0.0030 'International Tables Vol C 4.2.6.8 and 6.1.1.4'
N 0.0061 0.0033 12.2126 0.0057 3.1322 9.8933 2.0125 28.9975 1.1663 0.5826
-11.5290 'International Tables Vol C 4.2.6.8 and 6.1.1.4'
O 0.0106 0.0060 3.0485 13.2771 2.2868 5.7011 1.5463 0.3239 0.8670 32.9089
0.2508 'International Tables Vol C 4.2.6.8 and 6.1.1.4'
S 0.1246 0.1234 6.9053 1.4679 5.2034 22.2151 1.4379 0.2536 1.5863 56.1720
0.8669 'International Tables Vol C 4.2.6.8 and 6.1.1.4'
Cl 0.1484 0.1585 11.4604 0.0104 7.1964 1.1662 6.2556 18.5194 1.6455 47.7784
-9.5574 'International Tables Vol C 4.2.6.8 and 6.1.1.4'
loop_
_geom_angle_atom_site_label_1
_geom_angle_atom_site_label_2
_geom_angle_atom_site_label_3
_geom_angle
_geom_angle_publ_flag
O1 S1 O2 114.1(9) yes
O1 S1 N1 110.6(9) yes
O2 S1 N1 107.7(9) yes
O1 S1 C3 109.3(11) yes
O2 S1 C3 108.9(9) yes
N1 S1 C3 105.9(8) yes
O3 S2 O4 118.3(7) yes
O3 S2 N3 107.0(10) yes
O4 S2 N3 108.0(9) yes
O3 S2 C5 106.5(8) yes
O4 S2 C5 109.3(10) yes
N3 S2 C5 107.2(9) yes
S1 N1 C1 121.6(15) yes
C1 N2 C2 120.4(18) yes
C1 N2 H2 116.5 no
C2 N2 H2 117.2 no
S2 N3 H31 110.4 no
S2 N3 H32 115.7 no
H31 N3 H32 113.9 no
N2 C1 N1 128(2) yes
N2 C1 H1 118.0 no
N1 C1 H1 114.1 no
N2 C2 C3 122.7(15) yes
N2 C2 C7 116.3(16) yes
C3 C2 C7 120.6(17) yes
C2 C3 S1 117.7(13) yes
C2 C3 C4 120.9(16) yes
S1 C3 C4 121.2(13) yes
C3 C4 C5 119.3(19) yes
C3 C4 H4 121.1 no
C5 C4 H4 119.3 no
S2 C5 C4 118.9(14) yes
S2 C5 C6 121.9(12) yes
C4 C5 C6 119.2(18) yes
Cl1 C6 C5 122.6(13) yes
Cl1 C6 C7 115.1(12) yes
C5 C6 C7 122.3(15) yes
C2 C7 C6 117.7(17) yes
C2 C7 H7 120.3 no
C6 C7 H7 121.7 no
loop_
_geom_bond_atom_site_label_1
_geom_bond_atom_site_label_2
_geom_bond_distance
_geom_bond_publ_flag
Cl1 C6 1.728(14) yes
S1 O1 1.380(17) yes
S1 O2 1.411(14) yes
S1 N1 1.626(18) yes
S1 C3 1.717(19) yes
S2 O3 1.425(14) yes
S2 O4 1.426(14) yes
S2 N3 1.592(18) yes
S2 C5 1.740(19) yes
N1 C1 1.26(3) yes
N2 C1 1.352(16) yes
N2 C2 1.396(16) yes
N2 H2 0.813 no
N3 H31 0.771 no
N3 H32 0.784 no
C1 H1 0.926 no
C2 C3 1.388(16) yes
C2 C7 1.395(16) yes
C3 C4 1.379(16) yes
C4 C5 1.387(16) yes
C4 H4 0.911 no
C5 C6 1.394(17) yes
C6 C7 1.378(16) yes
C7 H7 0.910 no
loop_
_oxford_twin_element_scale_factors
0.433(16)
0.567(16)
