#------------------------------------------------------------------------------
#$Date: 2016-02-14 06:40:26 +0200 (Sun, 14 Feb 2016) $
#$Revision: 176432 $
#$URL: svn://www.crystallography.net/cod/cif/7/21/25/7212539.cif $
#------------------------------------------------------------------------------
#
# This file is available in the Crystallography Open Database (COD),
# http://www.crystallography.net/
#
# All data on this site have been placed in the public domain by the
# contributors.
#
data_7212539
loop_
_publ_author_name
'Oswald, Iain D. H.'
'Lennie, Alistair R.'
'Pulham, Colin R.'
'Shankland, Kenneth'
_publ_section_title
;
 High-pressure structural studies of the pharmaceutical, chlorothiazide
;
_journal_issue                   9
_journal_name_full               CrystEngComm
_journal_page_first              2533
_journal_paper_doi               10.1039/c001355b
_journal_volume                  12
_journal_year                    2010
_chemical_absolute_configuration ad
_chemical_formula_moiety         'C7 H6 Cl1 N3 O4 S2'
_chemical_formula_sum            'C7 H6 Cl N3 O4 S2'
_chemical_formula_weight         295.73
_space_group_IT_number           1
_symmetry_cell_setting           triclinic
_symmetry_space_group_name_Hall  'P 1'
_symmetry_space_group_name_H-M   'P 1'
_atom_sites_solution_hydrogens   geom
_atom_sites_solution_primary     direct
_cell_angle_alpha                74.62(4)
_cell_angle_beta                 84.12(5)
_cell_angle_gamma                80.67(4)
_cell_formula_units_Z            1
_cell_length_a                   4.835(3)
_cell_length_b                   6.310(2)
_cell_length_c                   8.895(7)
_cell_measurement_reflns_used    482
_cell_measurement_temperature    293
_cell_measurement_theta_max      20
_cell_measurement_theta_min      3
_cell_volume                     257.7(3)
_computing_cell_refinement       'SAINT (Siemens ,1995)'
_computing_data_collection       'SMART (Siemens, 1993)'
_computing_data_reduction        'SAINT (Siemens ,1995)'
_computing_molecular_graphics    'CAMERON (Watkin et al., 1996)'
_computing_publication_material  'CRYSTALS (Betteridge et al., 2003)'
_computing_structure_refinement  'CRYSTALS (Betteridge et al., 2003)'
_computing_structure_solution    'From Leech et al. see text'
_diffrn_ambient_temperature      293
_diffrn_measured_fraction_theta_full 0.631
_diffrn_measured_fraction_theta_max 0.599
_diffrn_measurement_device       'Bruker SMART'
_diffrn_measurement_device_type  Area
_diffrn_measurement_method       \w
_diffrn_radiation_monochromator  graphite
_diffrn_radiation_type           'Mo K\a'
_diffrn_radiation_wavelength     0.71073
_diffrn_reflns_av_R_equivalents  0.058
_diffrn_reflns_limit_h_max       5
_diffrn_reflns_limit_h_min       -5
_diffrn_reflns_limit_k_max       7
_diffrn_reflns_limit_k_min       -7
_diffrn_reflns_limit_l_max       9
_diffrn_reflns_limit_l_min       -9
_diffrn_reflns_number            5354
_diffrn_reflns_theta_full        25.207
_diffrn_reflns_theta_max         26.257
_diffrn_reflns_theta_min         3.382
_diffrn_standards_number         0
_exptl_absorpt_coefficient_mu    0.782
_exptl_absorpt_correction_T_max  0.96
_exptl_absorpt_correction_T_min  0.16
_exptl_absorpt_correction_type   multi-scan
_exptl_absorpt_process_details   'SADABS (Siemens, 1996)'
_exptl_crystal_colour            colourless
_exptl_crystal_density_diffrn    1.905
_exptl_crystal_density_method    'not measured'
_exptl_crystal_description       plate
_exptl_crystal_F_000             150
_exptl_crystal_size_max          0.10
_exptl_crystal_size_mid          0.10
_exptl_crystal_size_min          0.05
_refine_diff_density_max         0.49
_refine_diff_density_min         -0.45
_refine_ls_abs_structure_details 'Flack (1983), 0 Friedel-pairs'
_refine_ls_abs_structure_Flack   .000(0)
_refine_ls_extinction_method     None
_refine_ls_goodness_of_fit_ref   1.0710
_refine_ls_hydrogen_treatment    constr
_refine_ls_matrix_type           full
_refine_ls_number_parameters     72
_refine_ls_number_reflns         607
_refine_ls_number_restraints     12
_refine_ls_R_factor_all          0.0789
_refine_ls_R_factor_gt           0.0701
_refine_ls_shift/su_max          0.000026
_refine_ls_structure_factor_coef Fsqd
_refine_ls_weighting_details
;
Method= Modified Sheldrick
w=1/[\s^2^(F^2^) + ( 0.00P)^2^ + 2.81P]
,where P=(max(Fo^2^,0) + 2Fc^2^)/3
;
_refine_ls_weighting_scheme      calc
_refine_ls_wR_factor_all         0.1678
_refine_ls_wR_factor_gt          0.1592
_refine_ls_wR_factor_ref         0.1678
_reflns_limit_h_max              5
_reflns_limit_h_min              -5
_reflns_limit_k_max              7
_reflns_limit_k_min              -7
_reflns_limit_l_max              9
_reflns_limit_l_min              0
_reflns_number_gt                537
_reflns_number_total             619
_reflns_threshold_expression     I>2.0\s(I)
_oxford_diffrn_Wilson_B_factor   2.57
_oxford_diffrn_Wilson_scale      0.04
_oxford_refine_ls_r_factor_ref   0.0789
_oxford_refine_ls_scale          8(2)
_oxford_reflns_number_all        607
_oxford_reflns_threshold_expression_ref I>-10.0\s(I)
_cod_data_source_file            c001355b.txt
_cod_data_source_block           2
_cod_depositor_comments
;
The following automatic conversions were performed:

'_symmetry_cell_setting' value 'Triclinic' changed to 'triclinic'
according to /home/saulius/struct/CIF-dictionaries/cif_core.dic
dictionary named 'cif_core.dic' version 2.4.2 from 2011-04-26.

Automatic conversion script
Id: cif_fix_values 1891 2012-01-12 08:04:46Z andrius 
;
_cod_original_sg_symbol_Hall     'P 1 '
_cod_original_sg_symbol_H-M      'P 1 '
_cod_original_formula_sum        'C7 H6 Cl1 N3 O4 S2'
_cod_database_code               7212539
loop_
_symmetry_equiv_pos_as_xyz
x,y,z
loop_
_atom_site_label
_atom_site_type_symbol
_atom_site_fract_x
_atom_site_fract_y
_atom_site_fract_z
_atom_site_U_iso_or_equiv
_atom_site_occupancy
_atom_site_adp_type
_atom_site_refinement_flags_posn
Cl1 Cl -0.3576(11) 0.3617(9) 1.0382(7) 0.0405 1.0000 Uani D
S1 S 0.5942(10) 0.0225(8) 0.5973(7) 0.0247 1.0000 Uani .
S2 S -0.0224(10) -0.1432(8) 1.1485(7) 0.0246 1.0000 Uani .
O1 O 0.845(3) -0.0793(19) 0.6745(16) 0.0311(11) 1.0000 Uiso .
O2 O 0.470(3) -0.1101(19) 0.5242(17) 0.0311(11) 1.0000 Uiso .
O3 O 0.153(2) -0.350(2) 1.1452(16) 0.0311(11) 1.0000 Uiso .
O4 O -0.317(2) -0.135(2) 1.1700(17) 0.0311(11) 1.0000 Uiso .
N1 N 0.662(3) 0.243(2) 0.466(2) 0.0311(11) 1.0000 Uiso .
N2 N 0.275(3) 0.476(2) 0.5452(16) 0.0311(11) 1.0000 Uiso D
N3 N 0.078(3) -0.058(2) 1.2881(19) 0.0311(11) 1.0000 Uiso .
C1 C 0.499(3) 0.430(3) 0.448(2) 0.0311(11) 1.0000 Uiso D
C2 C 0.211(3) 0.332(2) 0.6866(19) 0.0311(11) 1.0000 Uiso D
C3 C 0.352(4) 0.117(2) 0.732(2) 0.0311(11) 1.0000 Uiso D
C4 C 0.282(4) -0.027(3) 0.872(2) 0.0311(11) 1.0000 Uiso D
C5 C 0.063(3) 0.045(2) 0.970(2) 0.0311(11) 1.0000 Uiso D
C6 C -0.082(3) 0.261(2) 0.9255(19) 0.0311(11) 1.0000 Uiso D
C7 C -0.015(3) 0.402(3) 0.7834(19) 0.0311(11) 1.0000 Uiso D
H1 H 0.5443 0.5459 0.3610 0.0300 1.0000 Uiso R
H2 H 0.2039 0.6119 0.5330 0.0300 1.0000 Uiso R
H31 H -0.0235 0.0487 1.3053 0.0300 1.0000 Uiso R
H32 H 0.2416 -0.0413 1.2817 0.0300 1.0000 Uiso R
H4 H 0.3810 -0.1711 0.9026 0.0300 1.0000 Uiso R
H7 H -0.1113 0.5480 0.7550 0.0300 1.0000 Uiso R
loop_
_atom_site_aniso_label
_atom_site_aniso_U_11
_atom_site_aniso_U_22
_atom_site_aniso_U_33
_atom_site_aniso_U_23
_atom_site_aniso_U_13
_atom_site_aniso_U_12
Cl1 0.045(4) 0.032(3) 0.038(5) -0.012(3) 0.015(2) 0.008(3)
S1 0.026(3) 0.019(2) 0.028(4) -0.006(2) 0.0019(17) -0.004(2)
S2 0.016(3) 0.033(3) 0.024(4) -0.006(2) 0.0034(15) -0.002(2)
loop_
_atom_type_symbol
_atom_type_scat_dispersion_real
_atom_type_scat_dispersion_imag
_atom_type_scat_Cromer_Mann_a1
_atom_type_scat_Cromer_Mann_b1
_atom_type_scat_Cromer_Mann_a2
_atom_type_scat_Cromer_Mann_b2
_atom_type_scat_Cromer_Mann_a3
_atom_type_scat_Cromer_Mann_b3
_atom_type_scat_Cromer_Mann_a4
_atom_type_scat_Cromer_Mann_b4
_atom_type_scat_Cromer_Mann_c
_atom_type_scat_source
C 0.0033 0.0016 2.3100 20.8439 1.0200 10.2075 1.5886 0.5687 0.8650 51.6512
0.2156 'International Tables Vol C 4.2.6.8 and 6.1.1.4'
H 0.0000 0.0000 0.4930 10.5109 0.3229 26.1257 0.1402 3.1424 0.0408 57.7998
0.0030 'International Tables Vol C 4.2.6.8 and 6.1.1.4'
N 0.0061 0.0033 12.2126 0.0057 3.1322 9.8933 2.0125 28.9975 1.1663 0.5826
-11.5290 'International Tables Vol C 4.2.6.8 and 6.1.1.4'
O 0.0106 0.0060 3.0485 13.2771 2.2868 5.7011 1.5463 0.3239 0.8670 32.9089
0.2508 'International Tables Vol C 4.2.6.8 and 6.1.1.4'
S 0.1246 0.1234 6.9053 1.4679 5.2034 22.2151 1.4379 0.2536 1.5863 56.1720
0.8669 'International Tables Vol C 4.2.6.8 and 6.1.1.4'
Cl 0.1484 0.1585 11.4604 0.0104 7.1964 1.1662 6.2556 18.5194 1.6455 47.7784
-9.5574 'International Tables Vol C 4.2.6.8 and 6.1.1.4'
loop_
_geom_angle_atom_site_label_1
_geom_angle_atom_site_label_2
_geom_angle_atom_site_label_3
_geom_angle
_geom_angle_publ_flag
O1 S1 O2 116.5(7) yes
O1 S1 N1 108.3(7) yes
O2 S1 N1 108.1(9) yes
O1 S1 C3 108.1(9) yes
O2 S1 C3 109.9(8) yes
N1 S1 C3 105.4(8) yes
O3 S2 O4 119.9(7) yes
O3 S2 N3 107.0(8) yes
O4 S2 N3 107.1(8) yes
O3 S2 C5 105.3(8) yes
O4 S2 C5 109.2(8) yes
N3 S2 C5 107.8(8) yes
S1 N1 C1 122.7(14) yes
C1 N2 C2 123.0(17) yes
C1 N2 H2 117.3 no
C2 N2 H2 116.8 no
S2 N3 H31 113.1 no
S2 N3 H32 115.8 no
H31 N3 H32 111.3 no
N2 C1 N1 125.4(19) yes
N2 C1 H1 117.7 no
N1 C1 H1 116.9 no
N2 C2 C3 122.3(15) yes
N2 C2 C7 118.3(15) yes
C3 C2 C7 119.3(16) yes
S1 C3 C2 117.9(13) yes
S1 C3 C4 120.2(12) yes
C2 C3 C4 121.5(16) yes
C3 C4 C5 119.1(17) yes
C3 C4 H4 120.6 no
C5 C4 H4 120.3 no
S2 C5 C4 118.0(13) yes
S2 C5 C6 121.8(13) yes
C4 C5 C6 120.2(17) yes
Cl1 C6 C5 123.0(12) yes
Cl1 C6 C7 116.6(11) yes
C5 C6 C7 120.4(15) yes
C2 C7 C6 119.4(16) yes
C2 C7 H7 120.4 no
C6 C7 H7 120.0 no
loop_
_geom_bond_atom_site_label_1
_geom_bond_atom_site_label_2
_geom_bond_distance
_geom_bond_publ_flag
Cl1 C6 1.723(14) yes
S1 O1 1.429(13) yes
S1 O2 1.419(12) yes
S1 N1 1.613(16) yes
S1 C3 1.74(2) yes
S2 O3 1.442(13) yes
S2 O4 1.411(12) yes
S2 N3 1.620(16) yes
S2 C5 1.770(19) yes
N1 C1 1.29(2) yes
N2 C1 1.359(15) yes
N2 C2 1.383(16) yes
N2 H2 0.852 no
N3 H31 0.807 no
N3 H32 0.810 no
C1 H1 0.946 no
C2 C3 1.389(16) yes
C2 C7 1.411(16) yes
C3 C4 1.384(16) yes
C4 C5 1.392(16) yes
C4 H4 0.942 no
C5 C6 1.404(16) yes
C6 C7 1.382(16) yes
C7 H7 0.942 no
loop_
_oxford_twin_element_scale_factors
0.67(2)
0.33(2)
