#------------------------------------------------------------------------------
#$Date: 2016-02-14 06:40:26 +0200 (Sun, 14 Feb 2016) $
#$Revision: 176432 $
#$URL: svn://www.crystallography.net/cod/cif/7/21/39/7213922.cif $
#------------------------------------------------------------------------------
#
# This file is available in the Crystallography Open Database (COD),
# http://www.crystallography.net/
#
# All data on this site have been placed in the public domain by the
# contributors.
#
data_7213922
loop_
_publ_author_name
'Hursthouse, Michael B.'
'Montis, Riccardo'
'Niitsoo, Liisa'
'Sarson, Jonathan'
'Threlfall, Terence L.'
'Asiri, Abdullah Mohamed'
'Khan, Salman Ahmad'
'Obaid, Abdullah Yousef'
'Al-Harbi, Laila Mohammad'
_publ_section_title
;
 Anhydrates and/or hydrates in nitrate, sulphate and phosphate salts of
 4-aminopyridine, (4-AP) and 3,4-diaminopyridine (3,4-DAP): the role of
 the water molecules in the hydrates
;
_journal_issue                   11
_journal_name_full               CrystEngComm
_journal_page_first              2205
_journal_paper_doi               10.1039/c3ce42471e
_journal_volume                  16
_journal_year                    2014
_chemical_formula_sum            'C5 H11 N2 O5 P'
_chemical_formula_weight         210.13
_chemical_name_systematic
;
 ?
;
_space_group_IT_number           2
_symmetry_cell_setting           triclinic
_symmetry_space_group_name_Hall  '-P 1'
_symmetry_space_group_name_H-M   'P -1'
_atom_sites_solution_hydrogens   geom
_atom_sites_solution_primary     direct
_atom_sites_solution_secondary   difmap
_audit_creation_method           SHELXL-97
_cell_angle_alpha                77.651(6)
_cell_angle_beta                 71.756(5)
_cell_angle_gamma                67.405(5)
_cell_formula_units_Z            2
_cell_length_a                   7.2785(4)
_cell_length_b                   7.9141(4)
_cell_length_c                   8.9022(6)
_cell_measurement_reflns_used    5179
_cell_measurement_temperature    120(2)
_cell_measurement_theta_max      27.4
_cell_measurement_theta_min      3.1
_cell_volume                     447.06(5)
_computing_cell_refinement
;
CrystalClear-SM Expert 2.0 r13 (Rigaku, 2011)
;
_computing_data_collection
;
CrystalClear-SM Expert 2.0 r11 (Rigaku, 2011)
;
_computing_data_reduction
;
CrystalClear-SM Expert 2.0 r13 (Rigaku, 2011)
;
_computing_molecular_graphics
;
MERCURY (Bruno, Cole, Edgington, Kessler, Macrae, Pearson and 
Taylor, 2002)
;
_computing_publication_material  'WINGX (Farrugia, 1998)'
_computing_structure_refinement  'SHELXL-97 (Sheldrick, 1997) '
_computing_structure_solution    'Superflip (Palatinus & Chapuis, 2007)'
_diffrn_ambient_temperature      120(2)
_diffrn_detector_area_resol_mean 10
_diffrn_measured_fraction_theta_full 0.997
_diffrn_measured_fraction_theta_max 0.997
_diffrn_measurement_device_type  'Rigaku R-AXIS SPIDER IP'
_diffrn_measurement_method       'profile data from oscillation \w-scans'
_diffrn_radiation_monochromator  graphite
_diffrn_radiation_source         'fine-focus sealed tube'
_diffrn_radiation_type           MoK\a
_diffrn_radiation_wavelength     0.71073
_diffrn_reflns_av_R_equivalents  0.0122
_diffrn_reflns_av_sigmaI/netI    0.0131
_diffrn_reflns_limit_h_max       9
_diffrn_reflns_limit_h_min       -9
_diffrn_reflns_limit_k_max       10
_diffrn_reflns_limit_k_min       -10
_diffrn_reflns_limit_l_max       11
_diffrn_reflns_limit_l_min       -11
_diffrn_reflns_number            5766
_diffrn_reflns_theta_full        27.44
_diffrn_reflns_theta_max         27.44
_diffrn_reflns_theta_min         3.14
_exptl_absorpt_coefficient_mu    0.302
_exptl_absorpt_correction_T_max  1.000
_exptl_absorpt_correction_T_min  0.955
_exptl_absorpt_correction_type   multi-scan
_exptl_absorpt_process_details
;
CrystalClear-SM Expert 2.0 r13 (Rigaku, 2011)
;
_exptl_crystal_colour            colourless
_exptl_crystal_density_diffrn    1.561
_exptl_crystal_density_method    'not measured'
_exptl_crystal_description       block
_exptl_crystal_F_000             220
_exptl_crystal_size_max          0.38
_exptl_crystal_size_mid          0.28
_exptl_crystal_size_min          0.25
_refine_diff_density_max         0.354
_refine_diff_density_min         -0.356
_refine_diff_density_rms         0.063
_refine_ls_extinction_method     none
_refine_ls_goodness_of_fit_ref   1.147
_refine_ls_hydrogen_treatment    mixed
_refine_ls_matrix_type           full
_refine_ls_number_parameters     128
_refine_ls_number_reflns         2031
_refine_ls_number_restraints     0
_refine_ls_restrained_S_all      1.147
_refine_ls_R_factor_all          0.0308
_refine_ls_R_factor_gt           0.0270
_refine_ls_shift/su_max          0.001
_refine_ls_shift/su_mean         0.000
_refine_ls_structure_factor_coef Fsqd
_refine_ls_weighting_details
'calc w=1/[\s^2^(Fo^2^)+(0.0398P)^2^+0.2160P] where P=(Fo^2^+2Fc^2^)/3'
_refine_ls_weighting_scheme      calc
_refine_ls_wR_factor_gt          0.0726
_refine_ls_wR_factor_ref         0.0791
_reflns_number_gt                1842
_reflns_number_total             2031
_reflns_threshold_expression     >2\s(I)
_cod_data_source_file            c3ce42471e.txt
_cod_data_source_block           2012ln0016
_cod_depositor_comments
;
The following automatic conversions were performed:
'__computing_data_collection' tag replaced with
'_computing_data_collection'.

Automatic conversion script
Id: cif_correct_tags 1440 2010-10-19 06:21:57Z saulius 
;
_cod_original_cell_volume        447.07(4)
_cod_original_sg_symbol_Hall     -P1
_cod_original_sg_symbol_H-M      P-1
_cod_database_code               7213922
loop_
_symmetry_equiv_pos_as_xyz
'x, y, z'
'-x, -y, -z'
loop_
_atom_site_label
_atom_site_type_symbol
_atom_site_fract_x
_atom_site_fract_y
_atom_site_fract_z
_atom_site_U_iso_or_equiv
_atom_site_adp_type
_atom_site_occupancy
_atom_site_symmetry_multiplicity
_atom_site_calc_flag
_atom_site_refinement_flags
C2 C 0.5615(2) 0.19801(19) 0.52900(16) 0.0166(3) Uani 1 1 d .
H2 H 0.4531 0.2758 0.6022 0.020 Uiso 1 1 calc R
C3 C 0.6793(2) 0.02954(19) 0.58415(16) 0.0157(3) Uani 1 1 d .
H3 H 0.6540 -0.0087 0.6951 0.019 Uiso 1 1 calc R
C4 C 0.8397(2) -0.08843(18) 0.47570(15) 0.0139(3) Uani 1 1 d .
C5 C 0.8724(2) -0.02210(19) 0.31203(16) 0.0162(3) Uani 1 1 d .
H5 H 0.9792 -0.0962 0.2354 0.019 Uiso 1 1 calc R
C6 C 0.7500(2) 0.14842(19) 0.26481(16) 0.0176(3) Uani 1 1 d .
H6 H 0.7731 0.1924 0.1549 0.021 Uiso 1 1 calc R
N1 N 0.59638(18) 0.25603(16) 0.37181(14) 0.0171(2) Uani 1 1 d .
H1 H 0.5183 0.3651 0.3386 0.020 Uiso 1 1 calc R
N4 N 0.95534(18) -0.25664(16) 0.52493(14) 0.0176(2) Uani 1 1 d .
H4B H 1.0534 -0.3278 0.4552 0.021 Uiso 1 1 calc R
H4C H 0.9333 -0.2961 0.6270 0.021 Uiso 1 1 calc R
O1 O 0.14974(14) 0.38565(13) 1.13397(11) 0.0154(2) Uani 1 1 d .
O2 O 0.50956(14) 0.21826(13) 0.96881(12) 0.0170(2) Uani 1 1 d .
O1W O 0.69262(16) 0.43463(14) 0.73641(12) 0.0164(2) Uani 1 1 d .
O3 O 0.22647(15) 0.39520(14) 0.83756(11) 0.0203(2) Uani 1 1 d .
H3A H 0.1018 0.4622 0.8583 0.030 Uiso 1 1 calc R
O4 O 0.21507(15) 0.10355(13) 1.01381(13) 0.0196(2) Uani 1 1 d .
H4A H 0.3185 0.0074 1.0140 0.029 Uiso 1 1 calc R
P1 P 0.27994(5) 0.27605(4) 0.99386(4) 0.01217(11) Uani 1 1 d .
H1W H 0.738(3) 0.483(3) 0.781(3) 0.033(6) Uiso 1 1 d .
H2W H 0.642(3) 0.362(3) 0.804(3) 0.032(5) Uiso 1 1 d .
loop_
_atom_site_aniso_label
_atom_site_aniso_U_11
_atom_site_aniso_U_22
_atom_site_aniso_U_33
_atom_site_aniso_U_23
_atom_site_aniso_U_13
_atom_site_aniso_U_12
C2 0.0148(6) 0.0194(7) 0.0156(6) -0.0062(5) -0.0010(5) -0.0058(5)
C3 0.0162(6) 0.0203(7) 0.0110(6) -0.0014(5) -0.0020(5) -0.0080(5)
C4 0.0139(6) 0.0161(6) 0.0139(6) -0.0011(5) -0.0039(5) -0.0073(5)
C5 0.0164(6) 0.0182(6) 0.0119(6) -0.0029(5) -0.0006(5) -0.0054(5)
C6 0.0212(7) 0.0195(7) 0.0123(6) 0.0005(5) -0.0043(5) -0.0083(6)
N1 0.0180(6) 0.0146(5) 0.0176(6) -0.0005(4) -0.0061(4) -0.0039(4)
N4 0.0181(6) 0.0164(6) 0.0139(5) 0.0004(4) -0.0026(4) -0.0033(5)
O1 0.0151(5) 0.0157(5) 0.0125(4) -0.0019(4) -0.0040(4) -0.0015(4)
O2 0.0126(5) 0.0129(4) 0.0216(5) 0.0019(4) -0.0037(4) -0.0028(4)
O1W 0.0180(5) 0.0162(5) 0.0151(5) -0.0010(4) -0.0030(4) -0.0073(4)
O3 0.0160(5) 0.0220(5) 0.0104(4) 0.0007(4) -0.0006(4) 0.0035(4)
O4 0.0124(5) 0.0135(5) 0.0316(6) -0.0038(4) -0.0064(4) -0.0017(4)
P1 0.01081(17) 0.01125(17) 0.01128(17) 0.00000(12) -0.00243(12) -0.00134(12)
loop_
_atom_type_symbol
_atom_type_description
_atom_type_scat_dispersion_real
_atom_type_scat_dispersion_imag
_atom_type_scat_source
C C 0.0033 0.0016 'International Tables Vol C Tables 4.2.6.8 and 6.1.1.4'
H H 0.0000 0.0000 'International Tables Vol C Tables 4.2.6.8 and 6.1.1.4'
N N 0.0061 0.0033 'International Tables Vol C Tables 4.2.6.8 and 6.1.1.4'
O O 0.0106 0.0060 'International Tables Vol C Tables 4.2.6.8 and 6.1.1.4'
P P 0.1023 0.0942 'International Tables Vol C Tables 4.2.6.8 and 6.1.1.4'
loop_
_geom_angle_atom_site_label_1
_geom_angle_atom_site_label_2
_geom_angle_atom_site_label_3
_geom_angle
N1 C2 C3 121.02(13)
N1 C2 H2 119.5
C3 C2 H2 119.5
C2 C3 C4 119.92(12)
C2 C3 H3 120.0
C4 C3 H3 120.0
N4 C4 C5 120.98(12)
N4 C4 C3 121.67(12)
C5 C4 C3 117.36(12)
C6 C5 C4 119.80(13)
C6 C5 H5 120.1
C4 C5 H5 120.1
N1 C6 C5 121.12(12)
N1 C6 H6 119.4
C5 C6 H6 119.4
C2 N1 C6 120.78(12)
C2 N1 H1 119.6
C6 N1 H1 119.6
C4 N4 H4B 120.0
C4 N4 H4C 120.0
H4B N4 H4C 120.0
H1W O1W H2W 108(2)
P1 O3 H3A 109.5
P1 O4 H4A 109.5
O2 P1 O1 115.38(6)
O2 P1 O4 110.41(5)
O1 P1 O4 108.24(6)
O2 P1 O3 107.35(6)
O1 P1 O3 108.79(5)
O4 P1 O3 106.29(6)
loop_
_geom_bond_atom_site_label_1
_geom_bond_atom_site_label_2
_geom_bond_distance
C2 N1 1.3513(18)
C2 C3 1.364(2)
C2 H2 0.9500
C3 C4 1.4173(19)
C3 H3 0.9500
C4 N4 1.3391(18)
C4 C5 1.4166(18)
C5 C6 1.364(2)
C5 H5 0.9500
C6 N1 1.3533(18)
C6 H6 0.9500
N1 H1 0.8800
N4 H4B 0.8800
N4 H4C 0.8800
O1 P1 1.5156(10)
O2 P1 1.5083(10)
O1W H1W 0.81(2)
O1W H2W 0.84(2)
O3 P1 1.5724(10)
O3 H3A 0.8400
O4 P1 1.5675(10)
O4 H4A 0.8400
loop_
_geom_torsion_atom_site_label_1
_geom_torsion_atom_site_label_2
_geom_torsion_atom_site_label_3
_geom_torsion_atom_site_label_4
_geom_torsion
N1 C2 C3 C4 -0.8(2)
C2 C3 C4 N4 -178.30(12)
C2 C3 C4 C5 1.20(19)
N4 C4 C5 C6 178.82(13)
C3 C4 C5 C6 -0.68(19)
C4 C5 C6 N1 -0.3(2)
C3 C2 N1 C6 -0.2(2)
C5 C6 N1 C2 0.8(2)
