#------------------------------------------------------------------------------
#$Date: 2016-02-16 03:10:39 +0200 (Tue, 16 Feb 2016) $
#$Revision: 176453 $
#$URL: svn://www.crystallography.net/cod/cif/7/21/38/7213893.cif $
#------------------------------------------------------------------------------
#
# This file is available in the Crystallography Open Database (COD),
# http://www.crystallography.net/
#
# All data on this site have been placed in the public domain by the
# contributors.
#
data_7213893
loop_
_publ_author_name
'Khavasi, Hamid Reza'
'Ghanbarpour, Alireza'
'Tehrani, Alireza Azhdari'
_publ_section_title
;
 Synthon crossover between halogen&#x22EF;\p and halogen&#x22EF;halogen
 interaction
;
_journal_issue                   5
_journal_name_full               CrystEngComm
_journal_page_first              749
_journal_paper_doi               10.1039/c3ce41853g
_journal_volume                  16
_journal_year                    2014
_chemical_formula_sum            'C17 H12 Br N O'
_chemical_formula_weight         326.18
_chemical_name_systematic
; 
 ? 
;
_space_group_IT_number           2
_symmetry_cell_setting           triclinic
_symmetry_space_group_name_Hall  '-P 1'
_symmetry_space_group_name_H-M   'P -1'
_atom_sites_solution_hydrogens   geom
_atom_sites_solution_primary     direct
_atom_sites_solution_secondary   difmap
_audit_creation_method           SHELXL-97
_cell_angle_alpha                89.07(2)
_cell_angle_beta                 83.89(2)
_cell_angle_gamma                84.51(3)
_cell_formula_units_Z            2
_cell_length_a                   5.5791(16)
_cell_length_b                   7.683(3)
_cell_length_c                   16.223(4)
_cell_measurement_reflns_used    7723
_cell_measurement_temperature    298(2)
_cell_measurement_theta_max      29.19
_cell_measurement_theta_min      2.53
_cell_volume                     688.3(4)
_computing_cell_refinement       'X-Area 1.31 (Stoe & Cie GmbH, 2005)'
_computing_data_collection       'X-Area 1.31 (Stoe & Cie GmbH, 2005)'
_computing_data_reduction        'X-Area 1.31 (Stoe & Cie GmbH, 2005)'
_computing_molecular_graphics    'ORTEP-3 for Windows (Farrugia, 1997)'
_computing_publication_material  'WinGX (Farrugia, 1999)'
_computing_structure_refinement  'SHELXL-97 (Sheldrick, 1997)'
_computing_structure_solution    'SHELXS-97 (Sheldrick, 1990)'
_diffrn_ambient_temperature      298(2)
_diffrn_detector_area_resol_mean '0.15 mm'
_diffrn_measured_fraction_theta_full 0.986
_diffrn_measured_fraction_theta_max 0.986
_diffrn_measurement_device_type  'STOE IPDS II'
_diffrn_measurement_method       'rotation method'
_diffrn_radiation_monochromator  graphite
_diffrn_radiation_source         'fine-focus sealed tube'
_diffrn_radiation_type           MoK\a
_diffrn_radiation_wavelength     0.71073
_diffrn_reflns_av_R_equivalents  0.1031
_diffrn_reflns_av_sigmaI/netI    0.0912
_diffrn_reflns_limit_h_max       7
_diffrn_reflns_limit_h_min       -7
_diffrn_reflns_limit_k_max       10
_diffrn_reflns_limit_k_min       -10
_diffrn_reflns_limit_l_max       22
_diffrn_reflns_limit_l_min       -21
_diffrn_reflns_number            7723
_diffrn_reflns_theta_full        29.19
_diffrn_reflns_theta_max         29.19
_diffrn_reflns_theta_min         2.53
_diffrn_standards_number         0
_exptl_absorpt_coefficient_mu    2.980
_exptl_absorpt_correction_T_max  0.649
_exptl_absorpt_correction_T_min  0.560
_exptl_absorpt_correction_type   numerical
_exptl_absorpt_process_details   'shape of crystal determined optically'
_exptl_crystal_colour            Colorless
_exptl_crystal_density_diffrn    1.574
_exptl_crystal_density_method    'not measured'
_exptl_crystal_description       Prism
_exptl_crystal_F_000             328
_exptl_crystal_size_max          0.20
_exptl_crystal_size_mid          0.19
_exptl_crystal_size_min          0.15
_refine_diff_density_max         0.401
_refine_diff_density_min         -0.354
_refine_diff_density_rms         0.080
_refine_ls_extinction_method     none
_refine_ls_goodness_of_fit_ref   1.179
_refine_ls_hydrogen_treatment    constr
_refine_ls_matrix_type           full
_refine_ls_number_parameters     181
_refine_ls_number_reflns         3697
_refine_ls_number_restraints     0
_refine_ls_restrained_S_all      1.179
_refine_ls_R_factor_all          0.1319
_refine_ls_R_factor_gt           0.0754
_refine_ls_shift/su_max          0.005
_refine_ls_shift/su_mean         0.000
_refine_ls_structure_factor_coef Fsqd
_refine_ls_weighting_details
'calc w=1/[\s^2^(Fo^2^)+(0.0393P)^2^+0.6712P] where P=(Fo^2^+2Fc^2^)/3'
_refine_ls_weighting_scheme      calc
_refine_ls_wR_factor_gt          0.1368
_refine_ls_wR_factor_ref         0.1571
_reflns_number_gt                2247
_reflns_number_total             3697
_reflns_threshold_expression     >2sigma(I)
_cod_data_source_file            c3ce41853g.txt
_cod_data_source_block           d:\determination\solution\c135\khc135
_cod_depositor_comments
;
The following automatic conversions were performed:

'_symmetry_cell_setting' value 'Triclinic' changed to 'triclinic'
according to
/usr/data/users/saulius/automatic-downloads/current/RSC/lib/dictionaries/cif_core.dic
dictionary named 'cif_core.dic' version 2.4.2 from 2011-04-26.

Automatic conversion script
Id: cif_fix_values 2281 2013-09-26 08:29:07Z andrius 
;
_cod_original_sg_symbol_H-M      P-1
_cod_original_formula_sum        'C17 H12 Br1 N1 O1'
_cod_database_code               7213893
loop_
_symmetry_equiv_pos_as_xyz
'x, y, z'
'-x, -y, -z'
loop_
_atom_site_label
_atom_site_type_symbol
_atom_site_fract_x
_atom_site_fract_y
_atom_site_fract_z
_atom_site_U_iso_or_equiv
_atom_site_adp_type
_atom_site_occupancy
_atom_site_symmetry_multiplicity
_atom_site_calc_flag
_atom_site_refinement_flags
C1 C 1.5153(8) 0.3136(6) -0.1411(3) 0.0360(9) Uani 1 1 d .
H1 H 1.6440 0.3644 -0.1223 0.043 Uiso 1 1 calc R
C2 C 1.4957(8) 0.3077(5) -0.2271(3) 0.0351(9) Uani 1 1 d .
C3 C 1.6644(9) 0.3780(6) -0.2864(3) 0.0430(11) Uani 1 1 d .
H3 H 1.7919 0.4320 -0.2687 0.052 Uiso 1 1 calc R
C4 C 1.6442(10) 0.3685(7) -0.3689(3) 0.0527(13) Uani 1 1 d .
H4 H 1.7566 0.4162 -0.4070 0.063 Uiso 1 1 calc R
C5 C 1.4544(10) 0.2867(7) -0.3963(3) 0.0523(13) Uani 1 1 d .
H5 H 1.4423 0.2795 -0.4528 0.063 Uiso 1 1 calc R
C6 C 1.2859(9) 0.2171(7) -0.3411(3) 0.0474(12) Uani 1 1 d .
H6 H 1.1600 0.1640 -0.3605 0.057 Uiso 1 1 calc R
C7 C 1.3016(8) 0.2251(6) -0.2551(3) 0.0358(9) Uani 1 1 d .
C8 C 1.1325(8) 0.1544(6) -0.1958(3) 0.0405(10) Uani 1 1 d .
H8 H 1.0048 0.1004 -0.2134 0.049 Uiso 1 1 calc R
C9 C 1.1543(8) 0.1644(6) -0.1130(3) 0.0381(10) Uani 1 1 d .
H9 H 1.0411 0.1173 -0.0749 0.046 Uiso 1 1 calc R
C10 C 1.3467(8) 0.2453(6) -0.0846(3) 0.0356(9) Uani 1 1 d .
C11 C 1.3803(8) 0.2537(6) 0.0056(3) 0.0402(10) Uani 1 1 d .
C12 C 1.1462(8) 0.2500(6) 0.1458(3) 0.0352(9) Uani 1 1 d .
C13 C 1.3236(8) 0.1706(6) 0.1912(3) 0.0381(10) Uani 1 1 d .
H13 H 1.4714 0.1254 0.1643 0.046 Uiso 1 1 calc R
C14 C 1.2806(8) 0.1588(6) 0.2762(3) 0.0404(10) Uani 1 1 d .
H14 H 1.4005 0.1074 0.3069 0.049 Uiso 1 1 calc R
C15 C 1.0604(9) 0.2232(6) 0.3157(3) 0.0410(11) Uani 1 1 d .
C16 C 0.8825(9) 0.3026(6) 0.2716(3) 0.0418(11) Uani 1 1 d .
H16 H 0.7346 0.3469 0.2988 0.050 Uiso 1 1 calc R
C17 C 0.9263(8) 0.3159(6) 0.1859(3) 0.0399(10) Uani 1 1 d .
H17 H 0.8072 0.3694 0.1555 0.048 Uiso 1 1 calc R
N1 N 1.1709(7) 0.2578(5) 0.0580(2) 0.0418(9) Uani 1 1 d .
H1B H 1.0384 0.2662 0.0349 0.050 Uiso 1 1 calc R
O1 O 1.5801(6) 0.2580(5) 0.0305(2) 0.0560(9) Uani 1 1 d .
Br1 Br 1.00053(12) 0.20314(9) 0.43281(3) 0.0673(2) Uani 1 1 d .
loop_
_atom_site_aniso_label
_atom_site_aniso_U_11
_atom_site_aniso_U_22
_atom_site_aniso_U_33
_atom_site_aniso_U_23
_atom_site_aniso_U_13
_atom_site_aniso_U_12
C1 0.033(2) 0.040(3) 0.035(2) 0.0007(18) -0.0050(17) -0.0038(19)
C2 0.035(2) 0.029(2) 0.039(2) 0.0018(17) -0.0018(18) 0.0034(18)
C3 0.041(3) 0.047(3) 0.042(2) 0.002(2) -0.0020(19) -0.009(2)
C4 0.051(3) 0.064(3) 0.041(2) 0.009(2) 0.007(2) -0.005(3)
C5 0.060(3) 0.071(4) 0.024(2) -0.004(2) -0.005(2) 0.001(3)
C6 0.046(3) 0.057(3) 0.040(2) -0.008(2) -0.009(2) -0.002(2)
C7 0.031(2) 0.034(2) 0.042(2) 0.0006(18) -0.0071(18) -0.0002(18)
C8 0.032(2) 0.040(3) 0.051(3) 0.000(2) -0.0088(19) -0.005(2)
C9 0.032(2) 0.042(3) 0.041(2) 0.0000(19) -0.0020(18) -0.0072(19)
C10 0.035(2) 0.034(2) 0.037(2) 0.0003(18) -0.0048(18) 0.0004(19)
C11 0.037(3) 0.042(3) 0.041(2) 0.0048(19) -0.0006(19) -0.001(2)
C12 0.034(2) 0.038(2) 0.034(2) -0.0010(18) -0.0032(17) -0.0048(19)
C13 0.027(2) 0.044(3) 0.042(2) -0.0007(19) -0.0032(18) 0.0048(19)
C14 0.038(3) 0.042(3) 0.042(2) 0.006(2) -0.013(2) -0.001(2)
C15 0.050(3) 0.043(3) 0.033(2) 0.0029(19) -0.0057(19) -0.013(2)
C16 0.039(3) 0.043(3) 0.042(2) -0.003(2) 0.0010(19) 0.001(2)
C17 0.034(2) 0.048(3) 0.038(2) -0.0008(19) -0.0073(18) -0.002(2)
N1 0.034(2) 0.057(3) 0.0340(18) 0.0026(17) -0.0041(15) -0.0009(18)
O1 0.0361(19) 0.091(3) 0.0435(18) 0.0051(18) -0.0098(15) -0.0137(18)
Br1 0.0811(5) 0.0866(5) 0.0337(3) 0.0048(2) -0.0007(2) -0.0129(3)
loop_
_atom_type_symbol
_atom_type_description
_atom_type_scat_dispersion_real
_atom_type_scat_dispersion_imag
_atom_type_scat_source
C C 0.0033 0.0016 'International Tables Vol C Tables 4.2.6.8 and 6.1.1.4'
H H 0.0000 0.0000 'International Tables Vol C Tables 4.2.6.8 and 6.1.1.4'
N N 0.0061 0.0033 'International Tables Vol C Tables 4.2.6.8 and 6.1.1.4'
O O 0.0106 0.0060 'International Tables Vol C Tables 4.2.6.8 and 6.1.1.4'
Cl Cl 0.1484 0.1585 'International Tables Vol C Tables 4.2.6.8 and 6.1.1.4'
Br Br -0.2901 2.4595 'International Tables Vol C Tables 4.2.6.8 and 6.1.1.4'
loop_
_geom_angle_atom_site_label_1
_geom_angle_atom_site_label_2
_geom_angle_atom_site_label_3
_geom_angle
C10 C1 C2 121.1(4)
C10 C1 H1 119.5
C2 C1 H1 119.5
C3 C2 C1 122.3(4)
C3 C2 C7 118.8(4)
C1 C2 C7 118.9(4)
C4 C3 C2 121.3(5)
C4 C3 H3 119.3
C2 C3 H3 119.3
C3 C4 C5 119.8(5)
C3 C4 H4 120.1
C5 C4 H4 120.1
C6 C5 C4 121.0(4)
C6 C5 H5 119.5
C4 C5 H5 119.5
C5 C6 C7 120.6(4)
C5 C6 H6 119.7
C7 C6 H6 119.7
C6 C7 C8 122.6(4)
C6 C7 C2 118.5(4)
C8 C7 C2 118.9(4)
C9 C8 C7 120.9(4)
C9 C8 H8 119.6
C7 C8 H8 119.6
C8 C9 C10 120.7(4)
C8 C9 H9 119.6
C10 C9 H9 119.6
C1 C10 C9 119.6(4)
C1 C10 C11 118.3(4)
C9 C10 C11 122.1(4)
O1 C11 N1 122.7(4)
O1 C11 C10 122.6(4)
N1 C11 C10 114.7(4)
C17 C12 C13 119.8(4)
C17 C12 N1 116.8(4)
C13 C12 N1 123.3(4)
C14 C13 C12 119.9(4)
C14 C13 H13 120.0
C12 C13 H13 120.0
C15 C14 C13 119.9(4)
C15 C14 H14 120.0
C13 C14 H14 120.0
C16 C15 C14 120.9(4)
C16 C15 Br1 119.3(4)
C14 C15 Br1 119.7(3)
C15 C16 C17 119.2(4)
C15 C16 H16 120.4
C17 C16 H16 120.4
C12 C17 C16 120.2(4)
C12 C17 H17 119.9
C16 C17 H17 119.9
C11 N1 C12 127.7(4)
C11 N1 H1B 116.1
C12 N1 H1B 116.1
loop_
_geom_bond_atom_site_label_1
_geom_bond_atom_site_label_2
_geom_bond_distance
C1 C10 1.376(6)
C1 C2 1.414(6)
C1 H1 0.9300
C2 C3 1.411(6)
C2 C7 1.424(6)
C3 C4 1.358(6)
C3 H3 0.9300
C4 C5 1.396(7)
C4 H4 0.9300
C5 C6 1.368(7)
C5 H5 0.9300
C6 C7 1.410(6)
C6 H6 0.9300
C7 C8 1.414(6)
C8 C9 1.366(6)
C8 H8 0.9300
C9 C10 1.412(6)
C9 H9 0.9300
C10 C11 1.498(6)
C11 O1 1.229(5)
C11 N1 1.368(6)
C12 C17 1.381(6)
C12 C13 1.385(6)
C12 N1 1.417(5)
C13 C14 1.379(6)
C13 H13 0.9300
C14 C15 1.375(7)
C14 H14 0.9300
C15 C16 1.375(6)
C15 Br1 1.900(4)
C16 C17 1.390(6)
C16 H16 0.9300
C17 H17 0.9300
N1 H1B 0.8600
loop_
_geom_torsion_atom_site_label_1
_geom_torsion_atom_site_label_2
_geom_torsion_atom_site_label_3
_geom_torsion_atom_site_label_4
_geom_torsion
C10 C1 C2 C3 179.4(4)
C10 C1 C2 C7 -1.8(6)
C1 C2 C3 C4 178.9(5)
C7 C2 C3 C4 0.1(7)
C2 C3 C4 C5 -0.4(8)
C3 C4 C5 C6 0.6(8)
C4 C5 C6 C7 -0.5(8)
C5 C6 C7 C8 -179.7(5)
C5 C6 C7 C2 0.2(7)
C3 C2 C7 C6 0.0(6)
C1 C2 C7 C6 -178.9(4)
C3 C2 C7 C8 179.9(4)
C1 C2 C7 C8 1.1(6)
C6 C7 C8 C9 179.8(5)
C2 C7 C8 C9 -0.2(6)
C7 C8 C9 C10 -0.1(7)
C2 C1 C10 C9 1.5(6)
C2 C1 C10 C11 179.2(4)
C8 C9 C10 C1 -0.5(7)
C8 C9 C10 C11 -178.1(4)
C1 C10 C11 O1 -26.8(7)
C9 C10 C11 O1 150.8(5)
C1 C10 C11 N1 152.7(4)
C9 C10 C11 N1 -29.8(6)
C17 C12 C13 C14 -0.4(7)
N1 C12 C13 C14 -176.1(4)
C12 C13 C14 C15 1.1(7)
C13 C14 C15 C16 -1.2(7)
C13 C14 C15 Br1 179.0(3)
C14 C15 C16 C17 0.7(7)
Br1 C15 C16 C17 -179.5(4)
C13 C12 C17 C16 -0.1(7)
N1 C12 C17 C16 175.8(4)
C15 C16 C17 C12 0.0(7)
O1 C11 N1 C12 -6.8(8)
C10 C11 N1 C12 173.8(4)
C17 C12 N1 C11 158.0(5)
C13 C12 N1 C11 -26.2(7)
