#------------------------------------------------------------------------------
#$Date: 2016-02-16 03:10:39 +0200 (Tue, 16 Feb 2016) $
#$Revision: 176453 $
#$URL: svn://www.crystallography.net/cod/cif/7/21/31/7213169.cif $
#------------------------------------------------------------------------------
#
# This file is available in the Crystallography Open Database (COD),
# http://www.crystallography.net/. The original data for this entry
# were provided the Crystal Eye server at
# http://wwmm.ch.cam.ac.uk/crystaleye/, created by Nick Day at the
# Peter Murray-Rust laboratory.
#
# The file may be used within the scientific community so long as
# proper attribution is given to the journal article from which the
# data were obtained.
#
data_7213169
loop_
_publ_author_name
'Hunt, James C. A.'
'Lloyd, Cephas'
'Moody, Christopher J.'
'Slawin, Alexandra M. Z.'
'Takle, Andrew K.'
_publ_section_title
;
 Chiral oxime ethers in asymmetric synthesis. Part 4. Asymmetric synthesis
 of N-protected amines and \b-amino acids by the addition of
 organometallic reagents to ROPHy/SOPHy-derived aldoximes
;
_journal_issue                   23
_journal_name_full
'Journal of the Chemical Society, Perkin Transactions 1'
_journal_page_first              3443
_journal_paper_doi               10.1039/a907186e
_journal_year                    1999
_chemical_compound_source        -
_chemical_formula_analytical     'C14 H16 N2 O S '
_chemical_formula_moiety         'C14 H16 N2 O S '
_chemical_formula_structural     'C14 H16 N2 O S '
_chemical_formula_sum            'C14 H16 N2 O S'
_chemical_formula_weight         260.35
_space_group_IT_number           4
_symmetry_cell_setting           monoclinic
_symmetry_Int_Tables_number      4
_symmetry_space_group_name_Hall  'P 2yb'
_symmetry_space_group_name_H-M   'P 1 21 1'
_cell_angle_alpha                90
_cell_angle_beta                 111.95(2)
_cell_angle_gamma                90
_cell_formula_units_Z            2
_cell_length_a                   9.087(3)
_cell_length_b                   7.841(4)
_cell_length_c                   10.648(3)
_cell_measurement_reflns_used    25
_cell_measurement_temperature    293.2
_cell_measurement_theta_max      36.5
_cell_measurement_theta_min      33.2
_cell_volume                     703.7(5)
_computing_cell_refinement       'MSC/AFC Diffractometer Control'
_computing_data_collection       'MSC/AFC Diffractometer Control'
_computing_data_reduction        'teXsan (MSC, 1992-1997)'
_computing_publication_material  'teXsan (MSC, 1992-1997)'
_computing_structure_refinement  'teXsan (MSC, 1992-1997)'
_computing_structure_solution
;
SIR92 (Altomare, et. al. 1993)
;
_diffrn_ambient_temperature      293.2
_diffrn_measurement_device_type  'Rigaku AFC7S'
_diffrn_measurement_method       \w
_diffrn_orient_matrix_UB_11      -0.09183
_diffrn_orient_matrix_UB_12      0.03261
_diffrn_orient_matrix_UB_13      -0.08371
_diffrn_orient_matrix_UB_21      -0.07510
_diffrn_orient_matrix_UB_22      -0.04357
_diffrn_orient_matrix_UB_23      0.04129
_diffrn_orient_matrix_UB_31      -0.00241
_diffrn_orient_matrix_UB_32      0.11535
_diffrn_orient_matrix_UB_33      0.03926
_diffrn_radiation_detector       'scintillation counter'
_diffrn_radiation_monochromator  graphite
_diffrn_radiation_source         'X-ray tube'
_diffrn_radiation_type           'Cu K\a'
_diffrn_radiation_wavelength     1.5418
_diffrn_reflns_av_R_equivalents  0.15314
_diffrn_reflns_av_sigmaI/netI    0.040
_diffrn_reflns_limit_h_max       10
_diffrn_reflns_limit_h_min       0
_diffrn_reflns_limit_k_max       8
_diffrn_reflns_limit_k_min       0
_diffrn_reflns_limit_l_max       11
_diffrn_reflns_limit_l_min       -11
_diffrn_reflns_number            1226
_diffrn_reflns_reduction_process 'Lp corrections applied'
_diffrn_reflns_theta_max         60.11
_diffrn_reflns_theta_min         4.47
_diffrn_standards_decay_%        -1.56
_diffrn_standards_interval_count 150
_diffrn_standards_number         3
_exptl_absorpt_coefficient_mu    1.958
_exptl_absorpt_correction_T_max  1.000
_exptl_absorpt_correction_T_min  0.540
_exptl_absorpt_correction_type
;
\DF (DIFABS; Walker & Stuart, 1983)
;
_exptl_crystal_colour            colourless
_exptl_crystal_density_diffrn    1.229
_exptl_crystal_density_meas      ?
_exptl_crystal_description       prism
_exptl_crystal_F_000             276.00
_exptl_crystal_size_max          0.20
_exptl_crystal_size_mid          0.10
_exptl_crystal_size_min          0.10
_refine_diff_density_max         0.14
_refine_diff_density_min         -0.13
_refine_ls_abs_structure_details relative
_refine_ls_abs_structure_Flack   0.055(69)
_refine_ls_extinction_coef       0.000069(2)
_refine_ls_extinction_expression 'equ(3) Acta Cryst.(1968) A24, p213.'
_refine_ls_extinction_method     'Zachariasen (1967)'
_refine_ls_goodness_of_fit_all   2.836
_refine_ls_goodness_of_fit_ref   2.836
_refine_ls_hydrogen_treatment    noref
_refine_ls_matrix_type           full
_refine_ls_number_constraints    0
_refine_ls_number_parameters     164
_refine_ls_number_reflns         839
_refine_ls_number_restraints     0
_refine_ls_R_factor_all          0.0386
_refine_ls_R_factor_gt           0.0386
_refine_ls_shift/esd_max         0.0470
_refine_ls_shift/esd_mean        0.0000
_refine_ls_structure_factor_coef F
_refine_ls_weighting_details     'w = 1/[\s^2^(Fo) + 0.00000|Fo|^2^]'
_refine_ls_weighting_scheme      calc
_refine_ls_wR_factor_all         0.0254
_refine_ls_wR_factor_ref         0.0254
_reflns_number_gt                839
_reflns_number_total             1148
_reflns_threshold_expression     I>3.00\s(I)
_cod_data_source_file            907186esup1.cif
_cod_data_source_block           cmex5
_cod_depositor_comments
;
The following automatic conversions were performed:

'_exptl_crystal_density_meas' value 'not measured' was changed to '?'
- the value is perceived as not measured.

Automatic conversion script
Id: cif_fix_values 3008 2015-01-20 13:52:24Z robertas 

The following automatic conversions were performed:

'_refine_ls_weighting_scheme' value 'w = 1/[\s^2^(Fo) +
0.00000|Fo|^2^]' was changed to 'calc'. New tag
'_refine_ls_weighting_details' was created. The value of the new tag
was set to 'w = 1/[\s^2^(Fo) + 0.00000|Fo|^2^]'.

Automatic conversion script
Id: cif_fix_values 3143 2015-03-26 13:38:13Z robertas 
;
_cod_original_cell_volume        703.6(4)
_cod_original_sg_symbol_H-M      'P 21       '
_cod_original_formula_sum        'C14 H16 N2 O S '
_cod_database_code               7213169
loop_
_symmetry_equiv_pos_as_xyz
'   +x,   +y,   +z'
'   -x,1/2+y,   -z'
loop_
_atom_site_label
_atom_site_fract_x
_atom_site_fract_y
_atom_site_fract_z
_atom_site_U_iso_or_equiv
_atom_site_occupancy
_atom_site_adp_type
_atom_site_calc_flag
S(1) 0.42171(9) 0.396(1) -0.03428(8) 0.1080(3) 1.000 Uani d
O(8) 0.0025(2) 0.209(1) -0.3730(2) 0.0772(7) 1.000 Uani d
N(3) 0.5407(3) 0.302(1) -0.2036(3) 0.099(1) 1.000 Uani d
N(7) 0.1350(3) 0.248(1) -0.2605(2) 0.0732(7) 1.000 Uani d
C(2) 0.4075(3) 0.315(1) -0.1876(3) 0.0763(8) 1.000 Uani d
C(4) 0.6588(4) 0.359(1) -0.0938(4) 0.114(1) 1.000 Uani d
C(5) 0.6229(4) 0.413(1) 0.0104(3) 0.102(1) 1.000 Uani d
C(6) 0.2575(3) 0.261(1) -0.2895(3) 0.0756(9) 1.000 Uani d
C(9) -0.1216(4) 0.148(1) -0.3322(3) 0.0721(8) 1.000 Uani d
C(10) -0.0857(3) -0.030(1) -0.2712(2) 0.0641(8) 1.000 Uani d
C(11) -0.0219(3) -0.149(1) -0.3311(3) 0.078(1) 1.000 Uani d
C(12) 0.0042(4) -0.315(1) -0.2823(3) 0.088(1) 1.000 Uani d
C(13) -0.0336(4) -0.359(1) -0.1726(3) 0.086(1) 1.000 Uani d
C(14) -0.0960(4) -0.241(1) -0.1133(3) 0.082(1) 1.000 Uani d
C(15) -0.1228(3) -0.077(1) -0.1627(2) 0.0684(8) 1.000 Uani d
C(16) -0.2729(3) 0.152(1) -0.4599(3) 0.087(1) 1.000 Uani d
C(17) -0.3248(4) 0.328(1) -0.5179(3) 0.099(1) 1.000 Uani d
C(18) -0.4637(4) 0.318(1) -0.6496(3) 0.137(2) 1.000 Uani d
H(4) 0.7649 0.3591 -0.0902 0.136 1.000 Uiso c
H(5) 0.6963 0.4511 0.0945 0.122 1.000 Uiso c
H(6) 0.2513 0.2328 -0.3785 0.091 1.000 Uiso c
H(9) -0.1332 0.2216 -0.2669 0.086 1.000 Uiso c
H(11) 0.0043 -0.1203 -0.4064 0.093 1.000 Uiso c
H(12) 0.0479 -0.3999 -0.3239 0.106 1.000 Uiso c
H(13) -0.0163 -0.4749 -0.1385 0.103 1.000 Uiso c
H(14) -0.1208 -0.2736 -0.0371 0.098 1.000 Uiso c
H(15) -0.1675 0.0020 -0.1212 0.082 1.000 Uiso c
H(16b) -0.2551 0.0827 -0.5273 0.104 1.000 Uiso c
H(16a) -0.3563 0.1007 -0.4386 0.104 1.000 Uiso c
H(17a) -0.2391 0.3798 -0.5323 0.118 1.000 Uiso c
H(17b) -0.3538 0.3900 -0.4553 0.118 1.000 Uiso c
H(18b) -0.5492 0.2592 -0.6360 0.164 1.000 Uiso c
H(18c) -0.4345 0.2535 -0.7133 0.164 1.000 Uiso c
H(18a) -0.4954 0.4274 -0.6827 0.164 1.000 Uiso c
loop_
_atom_site_aniso_label
_atom_site_aniso_U_11
_atom_site_aniso_U_22
_atom_site_aniso_U_33
_atom_site_aniso_U_12
_atom_site_aniso_U_13
_atom_site_aniso_U_23
S(1) 0.1147(6) 0.1156(8) 0.1061(6) -0.0141(7) 0.0557(6) -0.0338(7)
O(8) 0.096(1) 0.072(2) 0.070(1) -0.006(1) 0.0381(9) 0.014(1)
N(3) 0.097(2) 0.102(2) 0.113(2) -0.014(2) 0.057(1) -0.021(2)
N(7) 0.095(1) 0.054(2) 0.073(1) -0.008(1) 0.036(1) 0.003(1)
C(2) 0.094(2) 0.053(2) 0.096(2) 0.003(2) 0.052(1) 0.010(1)
C(4) 0.098(2) 0.111(3) 0.137(3) -0.014(2) 0.050(2) -0.044(2)
C(5) 0.106(1) 0.081(2) 0.101(2) -0.015(3) 0.020(2) -0.015(2)
C(6) 0.099(2) 0.056(2) 0.086(2) -0.001(2) 0.051(1) 0.012(2)
C(9) 0.097(2) 0.057(2) 0.078(2) -0.001(2) 0.051(1) -0.001(1)
C(10) 0.078(2) 0.056(1) 0.060(2) -0.007(1) 0.029(1) -0.003(1)
C(11) 0.114(2) 0.062(2) 0.075(2) 0.008(2) 0.056(2) -0.006(1)
C(12) 0.124(3) 0.061(2) 0.088(2) 0.008(2) 0.050(2) -0.005(2)
C(13) 0.116(3) 0.057(2) 0.083(2) -0.001(2) 0.033(2) 0.007(2)
C(14) 0.116(2) 0.069(2) 0.070(2) -0.009(2) 0.047(2) 0.006(1)
C(15) 0.092(2) 0.062(2) 0.061(2) -0.005(2) 0.039(1) -0.007(1)
C(16) 0.103(2) 0.078(2) 0.085(2) 0.006(2) 0.039(1) 0.016(2)
C(17) 0.112(2) 0.082(2) 0.110(2) 0.024(2) 0.050(2) 0.022(2)
C(18) 0.129(3) 0.146(4) 0.118(3) 0.036(3) 0.028(2) 0.021(3)
loop_
_atom_type_symbol
_atom_type_oxidation_number
_atom_type_number_in_cell
_atom_type_scat_dispersion_real
_atom_type_scat_dispersion_imag
_atom_type_scat_source
C 0 28 0.017 0.009
;International Tables for Crystallography
(1992, Vol. C, Tables 4.2.6.8 and 6.1.1.1)
;
H 0 32 0.000 0.000
;International Tables for Crystallography
(1992, Vol. C, Table 6.1.1.2)
;
N 0 4 0.029 0.018
;International Tables for Crystallography
(1992, Vol. C, Tables 4.2.6.8 and 6.1.1.1)
;
O 0 2 0.047 0.032
;International Tables for Crystallography
(1992, Vol. C, Tables 4.2.6.8 and 6.1.1.1)
;
S 0 2 0.319 0.557
;International Tables for Crystallography
(1992, Vol. C, Tables 4.2.6.8 and 6.1.1.1)
;
loop_
_diffrn_standard_refln_index_h
_diffrn_standard_refln_index_k
_diffrn_standard_refln_index_l
0 2 -2
-3 1 1
-2 1 -2
loop_
_geom_angle_atom_site_label_1
_geom_angle_atom_site_label_2
_geom_angle_atom_site_label_3
_geom_angle
_geom_angle_publ_flag
C(2) S(1) C(5) 89.2(3) yes
N(7) O(8) C(9) 109.9(3) yes
C(2) N(3) C(4) 110.1(4) yes
O(8) N(7) C(6) 111.6(4) yes
S(1) C(2) N(3) 114.7(4) yes
S(1) C(2) C(6) 122.4(3) yes
N(3) C(2) C(6) 122.9(5) yes
N(3) C(4) C(5) 117.9(5) yes
N(3) C(4) H(4) 120.5 no
C(5) C(4) H(4) 121.6 no
S(1) C(5) C(4) 108.2(4) yes
S(1) C(5) H(5) 126.2 no
C(4) C(5) H(5) 125.6 no
N(7) C(6) C(2) 120.5(4) yes
N(7) C(6) H(6) 119.5 no
C(2) C(6) H(6) 120.0 no
O(8) C(9) C(10) 111.5(4) yes
O(8) C(9) C(16) 105.7(3) yes
O(8) C(9) H(9) 109.8 no
C(10) C(9) C(16) 112.0(4) yes
C(10) C(9) H(9) 108.3 no
C(16) C(9) H(9) 109.5 no
C(9) C(10) C(11) 119.0(4) yes
C(9) C(10) C(15) 121.5(4) yes
C(11) C(10) C(15) 119.4(4) yes
C(10) C(11) C(12) 120.3(4) yes
C(10) C(11) H(11) 120.9 no
C(12) C(11) H(11) 118.8 no
C(11) C(12) C(13) 119.4(5) yes
C(11) C(12) H(12) 121.2 no
C(13) C(12) H(12) 119.5 no
C(12) C(13) C(14) 120.1(5) yes
C(12) C(13) H(13) 119.7 no
C(14) C(13) H(13) 120.3 no
C(13) C(14) C(15) 120.4(4) yes
C(13) C(14) H(14) 118.7 no
C(15) C(14) H(14) 120.9 no
C(10) C(15) C(14) 120.6(4) yes
C(10) C(15) H(15) 120.6 no
C(14) C(15) H(15) 118.9 no
C(9) C(16) C(17) 114.9(4) yes
C(9) C(16) H(16b) 107.8 no
C(9) C(16) H(16a) 107.9 no
C(17) C(16) H(16b) 109.0 no
C(17) C(16) H(16a) 109.1 no
H(16b) C(16) H(16a) 107.8 no
C(16) C(17) C(18) 111.1(5) yes
C(16) C(17) H(17a) 108.1 no
C(16) C(17) H(17b) 108.1 no
C(18) C(17) H(17a) 109.2 no
C(18) C(17) H(17b) 109.2 no
H(17a) C(17) H(17b) 111.1 no
C(17) C(18) H(18b) 109.3 no
C(17) C(18) H(18c) 109.3 no
C(17) C(18) H(18a) 109.9 no
H(18b) C(18) H(18c) 107.9 no
H(18b) C(18) H(18a) 110.3 no
H(18c) C(18) H(18a) 110.2 no
loop_
_geom_bond_atom_site_label_1
_geom_bond_atom_site_label_2
_geom_bond_distance
_geom_bond_publ_flag
S(1) C(2) 1.711(5) yes
S(1) C(5) 1.713(5) yes
O(8) N(7) 1.378(4) yes
O(8) C(9) 1.434(5) yes
N(3) C(2) 1.289(4) yes
N(3) C(4) 1.335(5) yes
N(7) C(6) 1.266(4) yes
C(2) C(6) 1.452(6) yes
C(4) C(5) 1.337(6) yes
C(4) H(4) 0.95 no
C(5) H(5) 0.94 no
C(6) H(6) 0.95 no
C(9) C(10) 1.526(6) yes
C(9) C(16) 1.530(6) yes
C(9) H(9) 0.94 no
C(10) C(11) 1.374(5) yes
C(10) C(15) 1.369(5) yes
C(11) C(12) 1.387(6) yes
C(11) H(11) 0.95 no
C(12) C(13) 1.380(6) yes
C(12) H(12) 0.96 no
C(13) C(14) 1.360(6) yes
C(13) H(13) 0.97 no
C(14) C(15) 1.373(7) yes
C(14) H(14) 0.96 no
C(15) H(15) 0.94 no
C(16) C(17) 1.511(7) yes
C(16) H(16b) 0.96 no
C(16) H(16a) 0.96 no
C(17) C(18) 1.498(6) yes
C(17) H(17a) 0.94 no
C(17) H(17b) 0.94 no
C(18) H(18b) 0.96 no
C(18) H(18c) 0.96 no
C(18) H(18a) 0.93 no
loop_
_geom_contact_atom_site_label_1
_geom_contact_atom_site_label_2
_geom_contact_distance
_geom_contact_site_symmetry_2
_geom_contact_publ_flag
O(8) C(11) 3.407(5) 2_554 no
