#------------------------------------------------------------------------------
#$Date: 2016-02-16 03:10:39 +0200 (Tue, 16 Feb 2016) $
#$Revision: 176453 $
#$URL: svn://www.crystallography.net/cod/cif/7/21/35/7213567.cif $
#------------------------------------------------------------------------------
#
# This file is available in the Crystallography Open Database (COD),
# http://www.crystallography.net/
#
# All data on this site have been placed in the public domain by the
# contributors.
#
data_7213567
loop_
_publ_author_name
'Jones, Richard H.'
'Knight, Kevin S.'
'Marshall, William G.'
'Clews, John'
'Darton, Richard J.'
'Pyatt, Daniel'
'Coles, Simon J.'
'Horton, Peter N.'
_publ_section_title
;
 Colossal thermal expansion and negative thermal expansion in simple
 halogen bonded complexes
;
_journal_issue                   2
_journal_name_full               CrystEngComm
_journal_page_first              237
_journal_paper_doi               10.1039/c3ce41909f
_journal_volume                  16
_journal_year                    2014
_chemical_formula_moiety         'C5 H5 Br1 I1 N1'
_chemical_formula_sum            'C5 H5 Br I N'
_chemical_formula_weight         285.91
_space_group_IT_number           14
_symmetry_cell_setting           monoclinic
_symmetry_space_group_name_Hall  '-P 2ybc'
_symmetry_space_group_name_H-M   'P 1 21/c 1'
_atom_sites_solution_hydrogens   difmap
_atom_sites_solution_primary     direct
_cell_angle_alpha                90
_cell_angle_beta                 98.358(2)
_cell_angle_gamma                90
_cell_formula_units_Z            4
_cell_length_a                   4.25640(10)
_cell_length_b                   12.7251(4)
_cell_length_c                   13.9443(3)
_cell_measurement_reflns_used    9855
_cell_measurement_temperature    110
_cell_measurement_theta_max      27
_cell_measurement_theta_min      3
_cell_volume                     747.25(3)
_computing_cell_refinement
'DENZO (Otwinowski & Minor, 1997) & COLLECT (Hooft, R.W.W., 1998)'
_computing_data_collection       'COLLECT (Hooft, R.W.W., 1998)'
_computing_data_reduction
'DENZO (Otwinowski & Minor, 1997) & COLLECT (Hooft, R.W.W., 1998)'
_computing_publication_material  'CRYSTALS (Betteridge et al., 2003)'
_computing_structure_refinement  'CRYSTALS (Betteridge et al., 2003)'
_computing_structure_solution    'SHELXS (Sheldrick, 2008)'
_diffrn_ambient_temperature      110
_diffrn_detector_area_resol_mean 9.091
_diffrn_measured_fraction_theta_full 0.998
_diffrn_measured_fraction_theta_max 0.998
_diffrn_measurement_device_type
'Bruker-Nonius Roper CCD camera on \k-goniostat'
_diffrn_measurement_method       '\f & \w scans'
_diffrn_radiation_monochromator  graphite
_diffrn_radiation_source         'Bruker-Nonius FR591 rotating anode'
_diffrn_radiation_type           MoK\a
_diffrn_radiation_wavelength     0.71073
_diffrn_reflns_av_R_equivalents  0.053
_diffrn_reflns_limit_h_max       5
_diffrn_reflns_limit_h_min       -5
_diffrn_reflns_limit_k_max       16
_diffrn_reflns_limit_k_min       -15
_diffrn_reflns_limit_l_max       18
_diffrn_reflns_limit_l_min       -17
_diffrn_reflns_number            8362
_diffrn_reflns_theta_full        27.522
_diffrn_reflns_theta_max         27.522
_diffrn_reflns_theta_min         3.359
_diffrn_standards_number         0
_exptl_absorpt_coefficient_mu    9.534
_exptl_absorpt_correction_T_max  0.08
_exptl_absorpt_correction_T_min  0.04
_exptl_absorpt_correction_type   multi-scan
_exptl_absorpt_process_details   'SADABS 2007/2 (Sheldrick, G.M., 2007)'
_exptl_crystal_colour            orange
_exptl_crystal_density_diffrn    2.541
_exptl_crystal_density_method    'not measured'
_exptl_crystal_description       block
_exptl_crystal_F_000             520
_exptl_crystal_size_max          0.420
_exptl_crystal_size_mid          0.380
_exptl_crystal_size_min          0.260
_refine_diff_density_max         0.81
_refine_diff_density_min         -1.17
_refine_ls_extinction_coef       28.9(17)
_refine_ls_extinction_method     'Larson (1970), Equation 22'
_refine_ls_goodness_of_fit_ref   0.9808
_refine_ls_hydrogen_treatment    mixed
_refine_ls_matrix_type           full
_refine_ls_number_parameters     94
_refine_ls_number_reflns         1720
_refine_ls_number_restraints     0
_refine_ls_R_factor_all          0.0267
_refine_ls_R_factor_gt           0.0251
_refine_ls_shift/su_max          0.0006887
_refine_ls_shift/su_mean         0.0000370
_refine_ls_structure_factor_coef Fsqd
_refine_ls_weighting_details
;
 Method, part 1, Chebychev polynomial, (Watkin, 1994, Prince, 1982) 
 [weight] = 1.0/[A~0~*T~0~(x)+A~1~*T~1~(x) ... +A~n-1~]*T~n-1~(x)] 
 where A~i~ are the Chebychev coefficients listed below and x= Fcalc/Fmax 
 Method = Robust Weighting (Prince, 1982) 
 W = [weight] * [1-(deltaF/6*sigmaF)^2^]^2^ 
 A~i~ are: 
 31.4 47.6 26.5 7.94 
;
_refine_ls_weighting_scheme      calc
_refine_ls_wR_factor_all         0.0647
_refine_ls_wR_factor_gt          0.0642
_refine_ls_wR_factor_ref         0.0647
_reflns_limit_h_max              5
_reflns_limit_h_min              -5
_reflns_limit_k_max              16
_reflns_limit_k_min              0
_reflns_limit_l_max              18
_reflns_limit_l_min              0
_reflns_number_gt                1636
_reflns_number_total             1722
_reflns_threshold_expression     I>2.0\s(I)
_oxford_diffrn_Wilson_B_factor   0.00
_oxford_diffrn_Wilson_scale      0.00
_oxford_refine_ls_r_factor_ref   0.0267
_oxford_refine_ls_scale          0.4083(8)
_oxford_reflns_number_all        1720
_oxford_reflns_threshold_expression_ref I>-3.0\s(I)
_cod_data_source_file            c3ce41909f.txt
_cod_data_source_block           1
_cod_original_sg_symbol_H-M      'P 1 21/c 1 '
_cod_original_formula_sum        'C5 H5 Br1 I1 N1'
_cod_database_code               7213567
#BEGIN Tags that were not found in dictionaries:
_iucr_refine_instruction_details_constraints
;
BLOCK 
CONT SCALE 
CONT I    (    1 ,X'S,U'S)  UNTIL C    (    6 ) 
CONT H    (    2 ,X'S,U[ISO])  UNTIL H    (    6 ) 
CONT EXTPARAM 
END                                                                             
;
_iucr_refine_instruction_details_restraints
;
NO 
REM   HREST   START (DO NOT REMOVE THIS LINE) 
REM   HREST   END (DO NOT REMOVE THIS LINE) 
END                                                                             
;
#END Tags that were not found in dictionaries
loop_
_symmetry_equiv_pos_as_xyz
x,y,z
-x,-y,-z
-x,y+1/2,-z+1/2
x,-y+1/2,z+1/2
loop_
_atom_site_label
_atom_site_type_symbol
_atom_site_fract_x
_atom_site_fract_y
_atom_site_fract_z
_atom_site_U_iso_or_equiv
_atom_site_occupancy
_atom_site_adp_type
I1 I 0.22212(4) 0.433295(15) 0.354870(14) 0.0153 1.0000 Uani
Br1 Br 0.02662(8) 0.57639(3) 0.22101(3) 0.0209 1.0000 Uani
N1 N 0.3819(6) 0.3063(2) 0.4694(2) 0.0183 1.0000 Uani
C2 C 0.5374(8) 0.2210(3) 0.4452(2) 0.0215 1.0000 Uani
C3 C 0.6217(8) 0.1410(3) 0.5102(3) 0.0243 1.0000 Uani
C4 C 0.5408(9) 0.1486(3) 0.6029(3) 0.0273 1.0000 Uani
C5 C 0.3817(9) 0.2370(3) 0.6282(3) 0.0256 1.0000 Uani
C6 C 0.3076(8) 0.3147(3) 0.5596(2) 0.0215 1.0000 Uani
H2 H 0.592(11) 0.227(4) 0.384(3) 0.028(11) 1.0000 Uiso
H3 H 0.729(11) 0.080(4) 0.492(3) 0.026(12) 1.0000 Uiso
H4 H 0.584(13) 0.090(5) 0.650(4) 0.043(15) 1.0000 Uiso
H5 H 0.309(12) 0.245(4) 0.691(4) 0.040(13) 1.0000 Uiso
H6 H 0.209(12) 0.384(5) 0.575(4) 0.038(13) 1.0000 Uiso
loop_
_atom_site_aniso_label
_atom_site_aniso_U_11
_atom_site_aniso_U_22
_atom_site_aniso_U_33
_atom_site_aniso_U_23
_atom_site_aniso_U_13
_atom_site_aniso_U_12
I1 0.01456(15) 0.01513(15) 0.01664(15) -0.00086(6) 0.00332(9) 0.00088(6)
Br1 0.02103(19) 0.02033(19) 0.0214(2) 0.00505(11) 0.00303(13) -0.00003(11)
N1 0.0183(12) 0.0167(13) 0.0195(13) -0.0012(10) 0.0018(10) -0.0003(9)
C2 0.0223(15) 0.0209(15) 0.0204(15) -0.0039(13) 0.0000(12) 0.0031(12)
C3 0.0265(16) 0.0139(15) 0.0317(18) -0.0007(14) 0.0011(14) 0.0040(13)
C4 0.0304(18) 0.0202(16) 0.0299(18) 0.0026(14) -0.0003(14) 0.0013(14)
C5 0.0283(17) 0.0260(18) 0.0222(16) 0.0004(13) 0.0028(13) -0.0019(14)
C6 0.0241(15) 0.0212(15) 0.0193(15) -0.0026(12) 0.0037(12) 0.0006(12)
loop_
_atom_type_symbol
_atom_type_scat_dispersion_real
_atom_type_scat_dispersion_imag
_atom_type_scat_Cromer_Mann_a1
_atom_type_scat_Cromer_Mann_b1
_atom_type_scat_Cromer_Mann_a2
_atom_type_scat_Cromer_Mann_b2
_atom_type_scat_Cromer_Mann_a3
_atom_type_scat_Cromer_Mann_b3
_atom_type_scat_Cromer_Mann_a4
_atom_type_scat_Cromer_Mann_b4
_atom_type_scat_Cromer_Mann_c
_atom_type_scat_source
C 0.0033 0.0016 2.3100 20.8439 1.0200 10.2075 1.5886 0.5687 0.8650 51.6512
0.2156 'International Tables Vol C 4.2.6.8 and 6.1.1.4'
H 0.0000 0.0000 0.4930 10.5109 0.3229 26.1257 0.1402 3.1424 0.0408 57.7998
0.0030 'International Tables Vol C 4.2.6.8 and 6.1.1.4'
N 0.0061 0.0033 12.2126 0.0057 3.1322 9.8933 2.0125 28.9975 1.1663 0.5826
-11.5290 'International Tables Vol C 4.2.6.8 and 6.1.1.4'
Br -0.2901 2.4595 17.1789 2.1723 5.2358 16.5796 5.6377 0.2609 3.9851 41.4328
2.9557 'International Tables Vol C 4.2.6.8 and 6.1.1.4'
I -0.4742 1.8119 20.1472 4.3470 18.9949 0.3814 7.5138 27.7660 2.2735 66.8776
4.0712 'International Tables Vol C 4.2.6.8 and 6.1.1.4'
loop_
_geom_angle_atom_site_label_1
_geom_angle_atom_site_label_2
_geom_angle_atom_site_label_3
_geom_angle
_geom_angle_publ_flag
Br1 I1 N1 178.57(7) yes
I1 N1 C2 120.1(2) yes
I1 N1 C6 120.4(2) yes
C2 N1 C6 119.4(3) yes
N1 C2 C3 121.7(3) yes
N1 C2 H2 111(3) no
C3 C2 H2 127(3) no
C2 C3 C4 119.0(3) yes
C2 C3 H3 121(3) no
C4 C3 H3 120(3) no
C3 C4 C5 119.4(3) yes
C3 C4 H4 121(3) no
C5 C4 H4 120(3) no
C4 C5 C6 118.5(3) yes
C4 C5 H5 123(3) no
C6 C5 H5 119(3) no
C5 C6 N1 122.0(3) yes
C5 C6 H6 123(3) no
N1 C6 H6 115(3) no
loop_
_geom_bond_atom_site_label_1
_geom_bond_atom_site_label_2
_geom_bond_distance
_geom_bond_publ_flag
I1 Br1 2.6535(4) yes
I1 N1 2.304(3) yes
N1 C2 1.340(4) yes
N1 C6 1.346(4) yes
C2 C3 1.375(5) yes
C2 H2 0.92(5) no
C3 C4 1.388(5) yes
C3 H3 0.95(5) no
C4 C5 1.385(5) yes
C4 H4 0.99(6) no
C5 C6 1.380(5) yes
C5 H5 0.98(5) no
C6 H6 1.01(6) no
