#------------------------------------------------------------------------------
#$Date: 2016-02-16 03:10:39 +0200 (Tue, 16 Feb 2016) $
#$Revision: 176453 $
#$URL: svn://www.crystallography.net/cod/cif/7/21/38/7213894.cif $
#------------------------------------------------------------------------------
#
# This file is available in the Crystallography Open Database (COD),
# http://www.crystallography.net/
#
# All data on this site have been placed in the public domain by the
# contributors.
#
data_7213894
loop_
_publ_author_name
'Khavasi, Hamid Reza'
'Ghanbarpour, Alireza'
'Tehrani, Alireza Azhdari'
_publ_section_title
;
 Synthon crossover between halogen&#x22EF;\p and halogen&#x22EF;halogen
 interaction
;
_journal_issue                   5
_journal_name_full               CrystEngComm
_journal_page_first              749
_journal_paper_doi               10.1039/c3ce41853g
_journal_volume                  16
_journal_year                    2014
_chemical_formula_sum            'C17 H12 Cl N O'
_chemical_formula_weight         281.73
_chemical_name_systematic
; 
 ? 
;
_space_group_IT_number           2
_symmetry_cell_setting           triclinic
_symmetry_space_group_name_Hall  '-P 1'
_symmetry_space_group_name_H-M   'P -1'
_atom_sites_solution_hydrogens   geom
_atom_sites_solution_primary     direct
_atom_sites_solution_secondary   difmap
_audit_creation_method           SHELXL-97
_cell_angle_alpha                88.41(2)
_cell_angle_beta                 83.971(18)
_cell_angle_gamma                84.915(19)
_cell_formula_units_Z            2
_cell_length_a                   5.5931(12)
_cell_length_b                   7.6167(19)
_cell_length_c                   15.880(4)
_cell_measurement_reflns_used    7557
_cell_measurement_temperature    298(2)
_cell_measurement_theta_max      29.25
_cell_measurement_theta_min      2.58
_cell_volume                     670.0(3)
_computing_cell_refinement       'X-Area 1.31 (Stoe & Cie GmbH, 2005)'
_computing_data_collection       'X-Area 1.31 (Stoe & Cie GmbH, 2005)'
_computing_data_reduction        'X-Area 1.31 (Stoe & Cie GmbH, 2005)'
_computing_molecular_graphics    'ORTEP-3 for Windows (Farrugia, 1997)'
_computing_publication_material  'WinGX (Farrugia, 1999)'
_computing_structure_refinement  'SHELXL-97 (Sheldrick, 1997)'
_computing_structure_solution    'SHELXS-97 (Sheldrick, 1990)'
_diffrn_ambient_temperature      298(2)
_diffrn_detector_area_resol_mean '0.15 mm'
_diffrn_measured_fraction_theta_full 0.987
_diffrn_measured_fraction_theta_max 0.987
_diffrn_measurement_device_type  'STOE IPDS II'
_diffrn_measurement_method       'rotation method'
_diffrn_radiation_monochromator  graphite
_diffrn_radiation_source         'fine-focus sealed tube'
_diffrn_radiation_type           MoK\a
_diffrn_radiation_wavelength     0.71073
_diffrn_reflns_av_R_equivalents  0.0951
_diffrn_reflns_av_sigmaI/netI    0.0995
_diffrn_reflns_limit_h_max       6
_diffrn_reflns_limit_h_min       -7
_diffrn_reflns_limit_k_max       10
_diffrn_reflns_limit_k_min       -10
_diffrn_reflns_limit_l_max       21
_diffrn_reflns_limit_l_min       -21
_diffrn_reflns_number            7557
_diffrn_reflns_theta_full        29.25
_diffrn_reflns_theta_max         29.25
_diffrn_reflns_theta_min         2.58
_diffrn_standards_number         0
_exptl_absorpt_coefficient_mu    0.279
_exptl_absorpt_correction_T_max  0.942
_exptl_absorpt_correction_T_min  0.910
_exptl_absorpt_correction_type   numerical
_exptl_absorpt_process_details   'shape of crystal determined optically'
_exptl_crystal_colour            Colorless
_exptl_crystal_density_diffrn    1.396
_exptl_crystal_density_method    'not measured'
_exptl_crystal_description       Prism
_exptl_crystal_F_000             292
_exptl_crystal_size_max          0.35
_exptl_crystal_size_mid          0.30
_exptl_crystal_size_min          0.24
_refine_diff_density_max         0.301
_refine_diff_density_min         -0.404
_refine_diff_density_rms         0.078
_refine_ls_extinction_coef       0.055(18)
_refine_ls_extinction_expression Fc^*^=kFc[1+0.001xFc^2^\l^3^/sin(2\q)]^-1/4^
_refine_ls_extinction_method     SHELXL
_refine_ls_goodness_of_fit_ref   1.166
_refine_ls_hydrogen_treatment    constr
_refine_ls_matrix_type           full
_refine_ls_number_parameters     182
_refine_ls_number_reflns         3611
_refine_ls_number_restraints     0
_refine_ls_restrained_S_all      1.166
_refine_ls_R_factor_all          0.1012
_refine_ls_R_factor_gt           0.0954
_refine_ls_shift/su_max          0.001
_refine_ls_shift/su_mean         0.000
_refine_ls_structure_factor_coef Fsqd
_refine_ls_weighting_details
'calc w=1/[\s^2^(Fo^2^)+(0.1000P)^2^+0.0000P] where P=(Fo^2^+2Fc^2^)/3'
_refine_ls_weighting_scheme      calc
_refine_ls_wR_factor_gt          0.1231
_refine_ls_wR_factor_ref         0.1542
_reflns_number_gt                2512
_reflns_number_total             3611
_reflns_threshold_expression     >2sigma(I)
_cod_data_source_file            c3ce41853g.txt
_cod_data_source_block           d:\determination\solution\544\new
_cod_depositor_comments
;
The following automatic conversions were performed:

'_symmetry_cell_setting' value 'Triclinic' changed to 'triclinic'
according to
/usr/data/users/saulius/automatic-downloads/current/RSC/lib/dictionaries/cif_core.dic
dictionary named 'cif_core.dic' version 2.4.2 from 2011-04-26.

Automatic conversion script
Id: cif_fix_values 2281 2013-09-26 08:29:07Z andrius 
;
_cod_original_sg_symbol_H-M      P-1
_cod_original_formula_sum        'C17 H12 Cl1 N1 O1'
_cod_database_code               7213894
loop_
_symmetry_equiv_pos_as_xyz
'x, y, z'
'-x, -y, -z'
loop_
_atom_site_label
_atom_site_type_symbol
_atom_site_fract_x
_atom_site_fract_y
_atom_site_fract_z
_atom_site_U_iso_or_equiv
_atom_site_adp_type
_atom_site_occupancy
_atom_site_symmetry_multiplicity
_atom_site_calc_flag
_atom_site_refinement_flags
C1 C 0.5143(7) 0.8162(5) 0.3562(3) 0.0473(9) Uani 1 1 d .
H1 H 0.6431 0.8668 0.3756 0.057 Uiso 1 1 calc R
C2 C 0.4969(7) 0.8122(5) 0.2676(3) 0.0450(9) Uani 1 1 d .
C3 C 0.6665(8) 0.8851(6) 0.2070(3) 0.0532(10) Uani 1 1 d .
H3 H 0.7938 0.9398 0.2251 0.064 Uiso 1 1 calc R
C4 C 0.6453(8) 0.8760(6) 0.1224(3) 0.0620(12) Uani 1 1 d .
H4 H 0.7582 0.9245 0.0834 0.074 Uiso 1 1 calc R
C5 C 0.4555(9) 0.7944(6) 0.0938(3) 0.0622(12) Uani 1 1 d .
H5 H 0.4431 0.7889 0.0360 0.075 Uiso 1 1 calc R
C6 C 0.2871(8) 0.7222(6) 0.1506(3) 0.0556(11) Uani 1 1 d .
H6 H 0.1621 0.6674 0.1310 0.067 Uiso 1 1 calc R
C7 C 0.3031(7) 0.7309(5) 0.2392(3) 0.0468(9) Uani 1 1 d .
C8 C 0.1335(7) 0.6582(6) 0.2992(3) 0.0525(10) Uani 1 1 d .
H8 H 0.0073 0.6028 0.2808 0.063 Uiso 1 1 calc R
C9 C 0.1521(7) 0.6679(5) 0.3844(3) 0.0490(9) Uani 1 1 d .
H9 H 0.0365 0.6218 0.4232 0.059 Uiso 1 1 calc R
C10 C 0.3463(7) 0.7475(5) 0.4134(3) 0.0476(9) Uani 1 1 d .
C11 C 0.3818(8) 0.7555(5) 0.5062(3) 0.0510(10) Uani 1 1 d .
C12 C 0.1465(7) 0.7460(5) 0.6489(3) 0.0476(9) Uani 1 1 d .
C13 C -0.0741(8) 0.8112(5) 0.6910(3) 0.0520(10) Uani 1 1 d .
H13 H -0.1930 0.8654 0.6599 0.062 Uiso 1 1 calc R
C14 C -0.1183(8) 0.7963(5) 0.7781(3) 0.0530(10) Uani 1 1 d .
H14 H -0.2655 0.8397 0.8058 0.064 Uiso 1 1 calc R
C15 C 0.0611(8) 0.7156(5) 0.8231(3) 0.0496(10) Uani 1 1 d .
C16 C 0.2788(8) 0.6516(6) 0.7830(3) 0.0564(11) Uani 1 1 d .
H16 H 0.3973 0.5982 0.8145 0.068 Uiso 1 1 calc R
C17 C 0.3225(7) 0.6664(5) 0.6961(3) 0.0511(10) Uani 1 1 d .
H17 H 0.4705 0.6229 0.6691 0.061 Uiso 1 1 calc R
N1 N 0.1717(6) 0.7562(5) 0.5592(2) 0.0542(9) Uani 1 1 d .
H1B H 0.0401 0.7638 0.5353 0.065 Uiso 1 1 calc R
O1 O 0.5798(6) 0.7584(5) 0.5309(2) 0.0677(9) Uani 1 1 d .
Cl1 Cl 0.0050(3) 0.69563(19) 0.93309(8) 0.0773(5) Uani 1 1 d .
loop_
_atom_site_aniso_label
_atom_site_aniso_U_11
_atom_site_aniso_U_22
_atom_site_aniso_U_33
_atom_site_aniso_U_23
_atom_site_aniso_U_13
_atom_site_aniso_U_12
C1 0.044(2) 0.047(2) 0.052(2) -0.0039(17) -0.0043(17) -0.0054(16)
C2 0.044(2) 0.039(2) 0.052(2) -0.0026(16) -0.0065(17) -0.0005(16)
C3 0.052(2) 0.047(2) 0.060(3) -0.0012(19) -0.0037(19) -0.0073(18)
C4 0.062(3) 0.073(3) 0.049(2) 0.004(2) 0.005(2) -0.007(2)
C5 0.071(3) 0.070(3) 0.044(2) -0.007(2) -0.004(2) 0.001(2)
C6 0.054(2) 0.064(3) 0.050(2) -0.004(2) -0.0096(19) -0.004(2)
C7 0.048(2) 0.044(2) 0.049(2) -0.0033(17) -0.0089(17) -0.0014(16)
C8 0.047(2) 0.051(2) 0.062(3) -0.0061(19) -0.0105(19) -0.0111(18)
C9 0.046(2) 0.047(2) 0.054(2) 0.0003(18) -0.0026(18) -0.0083(17)
C10 0.046(2) 0.045(2) 0.051(2) -0.0061(17) -0.0047(17) -0.0038(17)
C11 0.052(2) 0.051(2) 0.050(2) 0.0009(18) -0.0046(19) -0.0065(18)
C12 0.052(2) 0.042(2) 0.050(2) -0.0028(17) -0.0065(18) -0.0073(17)
C13 0.057(2) 0.047(2) 0.054(2) -0.0005(18) -0.0121(19) -0.0036(18)
C14 0.052(2) 0.050(2) 0.056(3) -0.0076(19) 0.0002(19) -0.0068(19)
C15 0.057(2) 0.051(2) 0.043(2) -0.0026(17) -0.0037(18) -0.0122(19)
C16 0.063(3) 0.050(2) 0.056(3) 0.0004(19) -0.011(2) -0.005(2)
C17 0.049(2) 0.050(2) 0.053(2) -0.0012(18) -0.0015(18) -0.0041(18)
N1 0.0523(19) 0.064(2) 0.0464(19) -0.0013(16) -0.0079(15) -0.0020(16)
O1 0.0543(18) 0.096(3) 0.0551(19) 0.0009(17) -0.0075(15) -0.0191(16)
Cl1 0.0933(10) 0.0918(10) 0.0465(6) 0.0011(6) 0.0002(6) -0.0154(7)
loop_
_atom_type_symbol
_atom_type_description
_atom_type_scat_dispersion_real
_atom_type_scat_dispersion_imag
_atom_type_scat_source
C C 0.0033 0.0016 'International Tables Vol C Tables 4.2.6.8 and 6.1.1.4'
H H 0.0000 0.0000 'International Tables Vol C Tables 4.2.6.8 and 6.1.1.4'
N N 0.0061 0.0033 'International Tables Vol C Tables 4.2.6.8 and 6.1.1.4'
O O 0.0106 0.0060 'International Tables Vol C Tables 4.2.6.8 and 6.1.1.4'
Cl Cl 0.1484 0.1585 'International Tables Vol C Tables 4.2.6.8 and 6.1.1.4'
loop_
_geom_angle_atom_site_label_1
_geom_angle_atom_site_label_2
_geom_angle_atom_site_label_3
_geom_angle
C10 C1 C2 121.6(4)
C10 C1 H1 119.2
C2 C1 H1 119.2
C7 C2 C3 118.9(4)
C7 C2 C1 118.4(4)
C3 C2 C1 122.6(4)
C4 C3 C2 120.8(4)
C4 C3 H3 119.6
C2 C3 H3 119.6
C3 C4 C5 120.6(4)
C3 C4 H4 119.7
C5 C4 H4 119.7
C6 C5 C4 120.4(4)
C6 C5 H5 119.8
C4 C5 H5 119.8
C5 C6 C7 120.3(4)
C5 C6 H6 119.8
C7 C6 H6 119.8
C8 C7 C2 119.2(4)
C8 C7 C6 121.8(4)
C2 C7 C6 118.9(4)
C9 C8 C7 121.0(4)
C9 C8 H8 119.5
C7 C8 H8 119.5
C8 C9 C10 120.2(4)
C8 C9 H9 119.9
C10 C9 H9 119.9
C1 C10 C9 119.6(4)
C1 C10 C11 117.8(4)
C9 C10 C11 122.6(4)
O1 C11 N1 123.6(4)
O1 C11 C10 122.5(4)
N1 C11 C10 113.9(4)
C17 C12 C13 118.8(4)
C17 C12 N1 123.6(4)
C13 C12 N1 117.5(4)
C14 C13 C12 121.0(4)
C14 C13 H13 119.5
C12 C13 H13 119.5
C15 C14 C13 118.6(4)
C15 C14 H14 120.7
C13 C14 H14 120.7
C16 C15 C14 121.3(4)
C16 C15 Cl1 120.1(3)
C14 C15 Cl1 118.7(3)
C15 C16 C17 120.1(4)
C15 C16 H16 120.0
C17 C16 H16 120.0
C16 C17 C12 120.3(4)
C16 C17 H17 119.9
C12 C17 H17 119.9
C11 N1 C12 127.5(4)
C11 N1 H1B 116.2
C12 N1 H1B 116.2
loop_
_geom_bond_atom_site_label_1
_geom_bond_atom_site_label_2
_geom_bond_distance
C1 C10 1.366(6)
C1 C2 1.421(6)
C1 H1 0.9300
C2 C7 1.414(5)
C2 C3 1.416(6)
C3 C4 1.365(6)
C3 H3 0.9300
C4 C5 1.397(7)
C4 H4 0.9300
C5 C6 1.374(6)
C5 H5 0.9300
C6 C7 1.423(6)
C6 H6 0.9300
C7 C8 1.410(6)
C8 C9 1.373(6)
C8 H8 0.9300
C9 C10 1.414(6)
C9 H9 0.9300
C10 C11 1.510(6)
C11 O1 1.215(5)
C11 N1 1.372(5)
C12 C17 1.386(6)
C12 C13 1.397(6)
C12 N1 1.417(5)
C13 C14 1.383(6)
C13 H13 0.9300
C14 C15 1.383(6)
C14 H14 0.9300
C15 C16 1.369(6)
C15 Cl1 1.747(4)
C16 C17 1.380(6)
C16 H16 0.9300
C17 H17 0.9300
N1 H1B 0.8600
loop_
_geom_torsion_atom_site_label_1
_geom_torsion_atom_site_label_2
_geom_torsion_atom_site_label_3
_geom_torsion_atom_site_label_4
_geom_torsion
C10 C1 C2 C7 -1.5(5)
C10 C1 C2 C3 179.0(4)
C7 C2 C3 C4 -0.6(6)
C1 C2 C3 C4 179.0(4)
C2 C3 C4 C5 0.0(7)
C3 C4 C5 C6 0.1(7)
C4 C5 C6 C7 0.5(7)
C3 C2 C7 C8 -180.0(4)
C1 C2 C7 C8 0.5(5)
C3 C2 C7 C6 1.1(5)
C1 C2 C7 C6 -178.5(4)
C5 C6 C7 C8 -180.0(4)
C5 C6 C7 C2 -1.0(6)
C2 C7 C8 C9 1.1(6)
C6 C7 C8 C9 180.0(4)
C7 C8 C9 C10 -1.6(6)
C2 C1 C10 C9 1.0(6)
C2 C1 C10 C11 179.2(3)
C8 C9 C10 C1 0.6(6)
C8 C9 C10 C11 -177.5(4)
C1 C10 C11 O1 -27.2(6)
C9 C10 C11 O1 150.9(4)
C1 C10 C11 N1 153.8(4)
C9 C10 C11 N1 -28.1(6)
C17 C12 C13 C14 -0.4(6)
N1 C12 C13 C14 176.0(4)
C12 C13 C14 C15 0.1(6)
C13 C14 C15 C16 0.2(6)
C13 C14 C15 Cl1 -179.7(3)
C14 C15 C16 C17 -0.2(7)
Cl1 C15 C16 C17 179.6(3)
C15 C16 C17 C12 0.0(7)
C13 C12 C17 C16 0.3(6)
N1 C12 C17 C16 -175.9(4)
O1 C11 N1 C12 -5.5(7)
C10 C11 N1 C12 173.4(4)
C17 C12 N1 C11 -26.4(7)
C13 C12 N1 C11 157.4(4)
