#------------------------------------------------------------------------------
#$Date: 2016-03-26 21:12:15 +0200 (Sat, 26 Mar 2016) $
#$Revision: 180470 $
#$URL: svn://www.crystallography.net/cod/cif/7/21/39/7213924.cif $
#------------------------------------------------------------------------------
#
# This file is available in the Crystallography Open Database (COD),
# http://www.crystallography.net/
#
# All data on this site have been placed in the public domain by the
# contributors.
#
data_7213924
loop_
_publ_author_name
'Hursthouse, Michael B.'
'Montis, Riccardo'
'Niitsoo, Liisa'
'Sarson, Jonathan'
'Threlfall, Terence L.'
'Asiri, Abdullah Mohamed'
'Khan, Salman Ahmad'
'Obaid, Abdullah Yousef'
'Al-Harbi, Laila Mohammad'
_publ_section_title
;
 Anhydrates and/or hydrates in nitrate, sulphate and phosphate salts of
 4-aminopyridine, (4-AP) and 3,4-diaminopyridine (3,4-DAP): the role of
 the water molecules in the hydrates
;
_journal_issue                   11
_journal_name_full               CrystEngComm
_journal_page_first              2205
_journal_paper_doi               10.1039/c3ce42471e
_journal_volume                  16
_journal_year                    2014
_chemical_formula_sum            'C5 H8 N4 O3'
_chemical_formula_weight         172.15
_chemical_name_systematic
;
 ?
;
_space_group_IT_number           14
_symmetry_cell_setting           monoclinic
_symmetry_space_group_name_Hall  '-P 2yn'
_symmetry_space_group_name_H-M   'P 1 21/n 1'
_atom_sites_solution_hydrogens   geom
_atom_sites_solution_primary     direct
_atom_sites_solution_secondary   difmap
_audit_creation_method           SHELXL-97
_cell_angle_alpha                90.00
_cell_angle_beta                 92.308(7)
_cell_angle_gamma                90.00
_cell_formula_units_Z            4
_cell_length_a                   7.0735(5)
_cell_length_b                   11.0546(8)
_cell_length_c                   9.4018(6)
_cell_measurement_reflns_used    6827
_cell_measurement_temperature    120(2)
_cell_measurement_theta_max      27.5
_cell_measurement_theta_min      3.4
_cell_volume                     734.57(9)
_computing_cell_refinement
;
CrystalClear-SM Expert 2.0 r13 (Rigaku, 2011)
;
_computing_data_collection
;
CrystalClear-SM Expert 2.0 r11 (Rigaku, 2011)
;
_computing_data_reduction
;
CrystalClear-SM Expert 2.0 r13 (Rigaku, 2011)
;
_computing_molecular_graphics
;
MERCURY  (Bruno, Cole, Edgington, Kessler, Macrae, McCabe, Pearson and 
Taylor, 2002)
;
_computing_publication_material  'WINGX (Farrugia, 1998)'
_computing_structure_refinement  'SHELXL-97 (Sheldrick, 1997)'
_computing_structure_solution    'SHELXL-97 (Sheldrick, 1997)'
_diffrn_ambient_temperature      120(2)
_diffrn_detector_area_resol_mean 28.5714
_diffrn_measured_fraction_theta_full 0.999
_diffrn_measured_fraction_theta_max 0.999
_diffrn_measurement_device_type
;
Rigaku Saturn724+ (2x2 bin mode)
;
_diffrn_measurement_method       'profile data from \w-scans'
_diffrn_radiation_monochromator  Confocal
_diffrn_radiation_source         'Rotating Anode'
_diffrn_radiation_type           MoK\a
_diffrn_radiation_wavelength     0.71073
_diffrn_reflns_av_R_equivalents  0.0442
_diffrn_reflns_av_sigmaI/netI    0.0312
_diffrn_reflns_limit_h_max       9
_diffrn_reflns_limit_h_min       -9
_diffrn_reflns_limit_k_max       13
_diffrn_reflns_limit_k_min       -14
_diffrn_reflns_limit_l_max       7
_diffrn_reflns_limit_l_min       -12
_diffrn_reflns_number            7979
_diffrn_reflns_theta_full        27.46
_diffrn_reflns_theta_max         27.46
_diffrn_reflns_theta_min         3.42
_exptl_absorpt_coefficient_mu    0.130
_exptl_absorpt_correction_T_max  1.000
_exptl_absorpt_correction_T_min  0.832
_exptl_absorpt_correction_type   multi-scan
_exptl_absorpt_process_details
;
CrystalClear-SM Expert 2.0 r13 (Rigaku, 2011)
;
_exptl_crystal_colour            colourless
_exptl_crystal_density_diffrn    1.557
_exptl_crystal_density_method    'not measured'
_exptl_crystal_description       block
_exptl_crystal_F_000             360
_exptl_crystal_size_max          0.22
_exptl_crystal_size_mid          0.07
_exptl_crystal_size_min          0.04
_refine_diff_density_max         0.275
_refine_diff_density_min         -0.231
_refine_diff_density_rms         0.047
_refine_ls_extinction_method     none
_refine_ls_goodness_of_fit_ref   1.098
_refine_ls_hydrogen_treatment    mixed
_refine_ls_matrix_type           full
_refine_ls_number_parameters     133
_refine_ls_number_reflns         1680
_refine_ls_number_restraints     0
_refine_ls_restrained_S_all      1.098
_refine_ls_R_factor_all          0.0409
_refine_ls_R_factor_gt           0.0338
_refine_ls_shift/su_max          0.000
_refine_ls_shift/su_mean         0.000
_refine_ls_structure_factor_coef Fsqd
_refine_ls_weighting_details
'calc w=1/[\s^2^(Fo^2^)+(0.0412P)^2^+0.1831P] where P=(Fo^2^+2Fc^2^)/3'
_refine_ls_weighting_scheme      calc
_refine_ls_wR_factor_gt          0.0853
_refine_ls_wR_factor_ref         0.0884
_reflns_number_gt                1415
_reflns_number_total             1680
_reflns_threshold_expression     >2\s(I)
_cod_data_source_file            c3ce42471e.txt
_cod_data_source_block           2012ln0043a
_cod_original_sg_symbol_H-M      P21/n
_cod_database_code               7213924
loop_
_symmetry_equiv_pos_as_xyz
'x, y, z'
'-x+1/2, y+1/2, -z+1/2'
'-x, -y, -z'
'x-1/2, -y-1/2, z-1/2'
loop_
_atom_site_label
_atom_site_type_symbol
_atom_site_fract_x
_atom_site_fract_y
_atom_site_fract_z
_atom_site_U_iso_or_equiv
_atom_site_adp_type
_atom_site_occupancy
_atom_site_symmetry_multiplicity
_atom_site_calc_flag
C2 C 0.03506(17) 0.23602(11) 0.66491(13) 0.0152(3) Uani 1 1 d
C3 C 0.04174(17) 0.25106(11) 0.81006(13) 0.0136(3) Uani 1 1 d
C4 C 0.11453(16) 0.36252(11) 0.86709(13) 0.0135(3) Uani 1 1 d
C5 C 0.16846(18) 0.45202(11) 0.77001(13) 0.0160(3) Uani 1 1 d
C6 C 0.15605(18) 0.43081(12) 0.62625(14) 0.0173(3) Uani 1 1 d
N1 N 0.09053(15) 0.32429(10) 0.57652(11) 0.0168(2) Uani 1 1 d
N3 N 0.12885(16) 0.38016(10) 1.00836(11) 0.0162(2) Uani 1 1 d
N4 N -0.02647(16) 0.16399(10) 0.90009(12) 0.0167(2) Uani 1 1 d
H2 H -0.010(2) 0.1640(14) 0.6204(16) 0.020 Uiso 1 1 d
H5 H 0.210(2) 0.5310(14) 0.8032(15) 0.020 Uiso 1 1 d
H6 H 0.193(2) 0.4876(14) 0.5561(16) 0.020 Uiso 1 1 d
H1 H 0.092(2) 0.3051(14) 0.4870(17) 0.020 Uiso 1 1 d
H3A H 0.185(2) 0.4470(14) 1.0391(16) 0.020 Uiso 1 1 d
H3B H 0.096(2) 0.3273(15) 1.0679(16) 0.020 Uiso 1 1 d
H4A H -0.056(2) 0.0955(14) 0.8559(16) 0.020 Uiso 1 1 d
H4B H 0.028(2) 0.1550(14) 0.9864(18) 0.020 Uiso 1 1 d
N5 N 0.11438(14) 0.14051(9) 0.28294(10) 0.0143(2) Uani 1 1 d
O5A O 0.05448(13) 0.24788(7) 0.27695(9) 0.0184(2) Uani 1 1 d
O5B O 0.12978(14) 0.08750(8) 0.39973(9) 0.0225(2) Uani 1 1 d
O5C O 0.15752(13) 0.08725(8) 0.17054(9) 0.0187(2) Uani 1 1 d
loop_
_atom_site_aniso_label
_atom_site_aniso_U_11
_atom_site_aniso_U_22
_atom_site_aniso_U_33
_atom_site_aniso_U_23
_atom_site_aniso_U_13
_atom_site_aniso_U_12
C2 0.0127(6) 0.0160(6) 0.0167(6) -0.0019(5) 0.0001(5) 0.0001(5)
C3 0.0102(6) 0.0154(6) 0.0152(6) 0.0001(4) 0.0005(4) 0.0010(4)
C4 0.0096(6) 0.0155(6) 0.0154(6) -0.0014(5) -0.0002(4) 0.0028(4)
C5 0.0148(6) 0.0140(6) 0.0192(6) -0.0001(5) 0.0009(5) 0.0004(5)
C6 0.0153(6) 0.0170(6) 0.0197(6) 0.0031(5) 0.0032(5) 0.0017(5)
N1 0.0170(6) 0.0210(6) 0.0124(5) 0.0000(4) 0.0013(4) 0.0017(4)
N3 0.0213(6) 0.0130(5) 0.0144(5) -0.0008(4) -0.0006(4) -0.0016(4)
N4 0.0208(6) 0.0146(5) 0.0146(5) 0.0003(4) 0.0003(4) -0.0037(4)
N5 0.0137(5) 0.0141(5) 0.0149(5) 0.0002(4) -0.0006(4) -0.0018(4)
O5A 0.0231(5) 0.0136(4) 0.0185(5) 0.0016(3) -0.0007(4) 0.0027(4)
O5B 0.0320(6) 0.0215(5) 0.0141(4) 0.0052(4) 0.0023(4) 0.0066(4)
O5C 0.0230(5) 0.0184(5) 0.0149(4) -0.0042(3) 0.0023(4) -0.0022(4)
loop_
_atom_type_symbol
_atom_type_description
_atom_type_scat_dispersion_real
_atom_type_scat_dispersion_imag
_atom_type_scat_source
C C 0.0033 0.0016 'International Tables Vol C Tables 4.2.6.8 and 6.1.1.4'
H H 0.0000 0.0000 'International Tables Vol C Tables 4.2.6.8 and 6.1.1.4'
N N 0.0061 0.0033 'International Tables Vol C Tables 4.2.6.8 and 6.1.1.4'
O O 0.0106 0.0060 'International Tables Vol C Tables 4.2.6.8 and 6.1.1.4'
loop_
_geom_angle_atom_site_label_1
_geom_angle_atom_site_label_2
_geom_angle_atom_site_label_3
_geom_angle
N1 C2 C3 121.65(11)
N1 C2 H2 115.8(9)
C3 C2 H2 122.5(9)
C2 C3 N4 121.70(11)
C2 C3 C4 118.28(11)
N4 C3 C4 119.97(11)
N3 C4 C5 121.82(11)
N3 C4 C3 120.50(11)
C5 C4 C3 117.68(11)
C6 C5 C4 120.68(11)
C6 C5 H5 118.6(8)
C4 C5 H5 120.7(8)
N1 C6 C5 120.05(12)
N1 C6 H6 115.9(9)
C5 C6 H6 124.0(9)
C6 N1 C2 121.62(11)
C6 N1 H1 122.3(10)
C2 N1 H1 115.8(10)
C4 N3 H3A 117.5(10)
C4 N3 H3B 122.7(10)
H3A N3 H3B 119.6(14)
C3 N4 H4A 113.0(10)
C3 N4 H4B 119.1(10)
H4A N4 H4B 114.8(14)
O5B N5 O5C 120.32(10)
O5B N5 O5A 119.98(10)
O5C N5 O5A 119.70(10)
loop_
_geom_bond_atom_site_label_1
_geom_bond_atom_site_label_2
_geom_bond_distance
C2 N1 1.3501(16)
C2 C3 1.3737(17)
C2 H2 0.948(16)
C3 N4 1.3815(16)
C3 C4 1.4312(16)
C4 N3 1.3422(16)
C4 C5 1.4091(17)
C5 C6 1.3712(18)
C5 H5 0.968(16)
C6 N1 1.3426(17)
C6 H6 0.955(16)
N1 H1 0.868(16)
N3 H3A 0.881(16)
N3 H3B 0.849(16)
N4 H4A 0.885(16)
N4 H4B 0.891(17)
N5 O5B 1.2455(13)
N5 O5C 1.2579(13)
N5 O5A 1.2608(13)
loop_
_geom_torsion_atom_site_label_1
_geom_torsion_atom_site_label_2
_geom_torsion_atom_site_label_3
_geom_torsion_atom_site_label_4
_geom_torsion
N1 C2 C3 N4 175.69(11)
N1 C2 C3 C4 -1.69(18)
C2 C3 C4 N3 -178.12(11)
N4 C3 C4 N3 4.45(18)
C2 C3 C4 C5 2.32(17)
N4 C3 C4 C5 -175.10(11)
N3 C4 C5 C6 178.66(12)
C3 C4 C5 C6 -1.79(18)
C4 C5 C6 N1 0.55(19)
C5 C6 N1 C2 0.19(19)
C3 C2 N1 C6 0.42(19)
