#------------------------------------------------------------------------------
#$Date: 2023-12-08 16:16:31 +0200 (Fri, 08 Dec 2023) $
#$Revision: 288183 $
#$URL: file:///home/coder/svn-repositories/cod/cif/7/21/35/7213519.cif $
#------------------------------------------------------------------------------
#
# This file is available in the Crystallography Open Database (COD),
# http://www.crystallography.net/. The original data for this entry
# were provided the Crystal Eye server at
# http://wwmm.ch.cam.ac.uk/crystaleye/, created by Nick Day at the
# Peter Murray-Rust laboratory.
#
# The file may be used within the scientific community so long as
# proper attribution is given to the journal article from which the
# data were obtained.
#
data_7213519
loop_
_publ_author_name
'Derek R. Boyd'
'Narain D. Sharma'
'Simon A. Haughey'
'John F. Malone'
'Alistair W. T. King'
'Brian T. McMurray'
'Andr\'e Alves-Areias'
'Christopher C. R. Allen'
'Robert Holt'
'Howard Dalton'
_publ_section_title
;
 Dioxygenase-catalysed mono-, di- and tri-oxygenation of dialkyl sulfides
 and thioacetals: chemoenzymatic synthesis of enantiopure cis-diol
 sulfoxides
;
_journal_issue                   24
_journal_name_full
'Journal of the Chemical Society, Perkin Transactions 1'
_journal_page_first              3288
_journal_page_last               3296
_journal_paper_doi               10.1039/b108620k
_journal_year                    2001
_chemical_formula_sum            'C10 H14 O3 S2'
_chemical_formula_weight         246.33
_chemical_melting_point          112
_chemical_name_systematic
;
cis-(1S,2R)-3-(1'S,2'S-1'-oxo-1',3'-dithian-2'-yl)cyclohexa-3,5-diene-1,2-diol 
;
_space_group_IT_number           4
_symmetry_cell_setting           monoclinic
_symmetry_space_group_name_Hall  'P 2yb'
_symmetry_space_group_name_H-M   'P 1 21 1'
_atom_sites_solution_hydrogens   difmap
_atom_sites_solution_primary     direct
_atom_sites_solution_secondary   difmap
_audit_creation_method           SHELXL-97
_cell_angle_alpha                90.00
_cell_angle_beta                 97.184(2)
_cell_angle_gamma                90.00
_cell_formula_units_Z            2
_cell_length_a                   5.2634(7)
_cell_length_b                   10.0356(14)
_cell_length_c                   10.9997(15)
_cell_measurement_temperature    153(2)
_cell_measurement_theta_max      28.0
_cell_measurement_theta_min      1.9
_cell_volume                     576.46(14)
_computing_cell_refinement       'Bruker SAINT'
_computing_data_collection       'Bruker SMART'
_computing_data_reduction        'Bruker SHELXTL'
_computing_molecular_graphics    'Bruker SHELXTL'
_computing_publication_material  'SHELXL-97 (Sheldrick 1997)'
_computing_structure_refinement  'SHELXL-97 (Sheldrick, 1997)'
_computing_structure_solution    'SHELXS-97 (Sheldrick, 1990)'
_diffrn_ambient_temperature      153(2)
_diffrn_measured_fraction_theta_full 0.919
_diffrn_measured_fraction_theta_max 0.919
_diffrn_measurement_device_type  'Bruker SMART CCD area detector'
_diffrn_measurement_method       'phi and omega scan'
_diffrn_radiation_monochromator  graphite
_diffrn_radiation_source         'fine-focus sealed tube'
_diffrn_radiation_type           'Mo K\a'
_diffrn_radiation_wavelength     0.71073
_diffrn_reflns_av_R_equivalents  0.0398
_diffrn_reflns_av_sigmaI/netI    0.0363
_diffrn_reflns_limit_h_max       6
_diffrn_reflns_limit_h_min       -6
_diffrn_reflns_limit_k_max       12
_diffrn_reflns_limit_k_min       -12
_diffrn_reflns_limit_l_max       14
_diffrn_reflns_limit_l_min       -13
_diffrn_reflns_number            6184
_diffrn_reflns_theta_full        28.00
_diffrn_reflns_theta_max         28.00
_diffrn_reflns_theta_min         1.87
_exptl_absorpt_coefficient_mu    0.446
_exptl_absorpt_correction_T_max  0.9780
_exptl_absorpt_correction_T_min  0.8778
_exptl_absorpt_correction_type   empirical
_exptl_absorpt_process_details   'Bruker SADABS'
_exptl_crystal_colour            colourless
_exptl_crystal_density_diffrn    1.419
_exptl_crystal_density_method    'not measured'
_exptl_crystal_description       plate
_exptl_crystal_F_000             260
_exptl_crystal_size_max          0.30
_exptl_crystal_size_mid          0.30
_exptl_crystal_size_min          0.05
_refine_diff_density_max         0.341
_refine_diff_density_min         -0.204
_refine_diff_density_rms         0.062
_refine_ls_abs_structure_details 'Flack H D (1983), Acta Cryst. A39, 876-881'
_refine_ls_abs_structure_Flack   -0.06(9)
_refine_ls_extinction_method     none
_refine_ls_goodness_of_fit_ref   1.047
_refine_ls_hydrogen_treatment    refined
_refine_ls_matrix_type           full
_refine_ls_number_parameters     192
_refine_ls_number_reflns         2396
_refine_ls_number_restraints     1
_refine_ls_restrained_S_all      1.047
_refine_ls_R_factor_all          0.0395
_refine_ls_R_factor_gt           0.0364
_refine_ls_shift/su_max          0.000
_refine_ls_shift/su_mean         0.000
_refine_ls_structure_factor_coef Fsqd
_refine_ls_weighting_details
'calc w=1/[\s^2^(Fo^2^)+(0.0649P)^2^+0.0000P] where P=(Fo^2^+2Fc^2^)/3'
_refine_ls_weighting_scheme      calc
_refine_ls_wR_factor_gt          0.0903
_refine_ls_wR_factor_ref         0.0921
_reflns_number_gt                2238
_reflns_number_total             2396
_reflns_threshold_expression     >2sigma(I)
_cod_data_source_file            b108620ksup1.cif
_cod_data_source_block           22
_cod_depositor_comments
;
The following automatic conversions were performed:

data name '_atom_site_symmetry_multiplicit' was replaced with
'_atom_site_symmetry_multiplicity' as specified in the replacement
file 'data/replacement-values/replacement_tags.lst'.

Automatic conversion script
Id: cif_correct_tags 9268 2022-04-12 08:56:07Z antanas 
;
_cod_original_sg_symbol_H-M      P2(1)
_cod_database_code               7213519
loop_
_symmetry_equiv_pos_as_xyz
'x, y, z'
'-x, y+1/2, -z'
loop_
_atom_site_label
_atom_site_type_symbol
_atom_site_fract_x
_atom_site_fract_y
_atom_site_fract_z
_atom_site_U_iso_or_equiv
_atom_site_adp_type
_atom_site_occupancy
_atom_site_symmetry_multiplicity
_atom_site_calc_flag
C1 C 0.8539(5) 1.2089(3) 0.7221(3) 0.0251(6) Uani 1 1 d
H1 H 0.718(6) 1.226(3) 0.666(3) 0.023(7) Uiso 1 1 d
O1 O 0.8873(4) 1.3258(2) 0.7955(2) 0.0311(5) Uani 1 1 d
HO1 H 0.983(9) 1.314(5) 0.860(4) 0.053(11) Uiso 1 1 d
C2 C 0.7845(5) 1.0879(3) 0.7958(2) 0.0230(5) Uani 1 1 d
H2 H 0.618(6) 1.105(3) 0.823(3) 0.024(8) Uiso 1 1 d
O2 O 0.9777(4) 1.0759(2) 0.89997(18) 0.0313(5) Uani 1 1 d
HO2 H 0.938(7) 1.014(4) 0.939(3) 0.043(11) Uiso 1 1 d
C3 C 0.7737(5) 0.9614(2) 0.7167(2) 0.0195(5) Uani 1 1 d
C4 C 0.9333(5) 0.9505(3) 0.6303(2) 0.0238(5) Uani 1 1 d
H4 H 0.941(6) 0.874(3) 0.582(3) 0.025(7) Uiso 1 1 d
C5 C 1.1088(5) 1.0586(3) 0.6068(3) 0.0285(6) Uani 1 1 d
H5 H 1.251(6) 1.042(3) 0.558(3) 0.029(8) Uiso 1 1 d
C6 C 1.0807(6) 1.1802(3) 0.6528(3) 0.0283(6) Uani 1 1 d
H6 H 1.190(6) 1.253(4) 0.638(3) 0.027(7) Uiso 1 1 d
S1' S 0.75739(10) 0.75269(5) 0.87799(5) 0.02002(16) Uani 1 1 d
O1' O 0.7830(4) 0.84883(17) 0.98633(16) 0.0284(4) Uani 1 1 d
C2' C 0.5952(5) 0.8504(2) 0.7476(2) 0.0193(5) Uani 1 1 d
H2' H 0.448(6) 0.892(3) 0.781(3) 0.020(7) Uiso 1 1 d
S3' S 0.51783(12) 0.73684(6) 0.61916(5) 0.02541(17) Uani 1 1 d
C4' C 0.2945(6) 0.6248(3) 0.6820(3) 0.0287(6) Uani 1 1 d
H4'A H 0.160(6) 0.675(3) 0.693(3) 0.025(8) Uiso 1 1 d
H4'B H 0.249(6) 0.563(4) 0.613(3) 0.032(9) Uiso 1 1 d
C5' C 0.4090(6) 0.5514(3) 0.7980(3) 0.0298(6) Uani 1 1 d
H5'A H 0.274(6) 0.495(3) 0.823(3) 0.027(8) Uiso 1 1 d
H5'B H 0.562(7) 0.492(4) 0.785(3) 0.044(10) Uiso 1 1 d
C6' C 0.4935(5) 0.6457(3) 0.9040(3) 0.0254(6) Uani 1 1 d
H6'A H 0.357(6) 0.708(3) 0.923(3) 0.023(7) Uiso 1 1 d
H6'B H 0.552(7) 0.599(4) 0.963(3) 0.044(10) Uiso 1 1 d
loop_
_atom_site_aniso_label
_atom_site_aniso_U_11
_atom_site_aniso_U_22
_atom_site_aniso_U_33
_atom_site_aniso_U_23
_atom_site_aniso_U_13
_atom_site_aniso_U_12
C1 0.0244(13) 0.0236(13) 0.0247(12) 0.0038(9) -0.0071(10) -0.0015(10)
O1 0.0352(12) 0.0227(9) 0.0321(11) 0.0008(8) -0.0089(9) -0.0010(8)
C2 0.0221(13) 0.0241(12) 0.0216(13) -0.0024(10) -0.0016(10) -0.0024(10)
O2 0.0395(12) 0.0278(10) 0.0233(10) 0.0051(8) -0.0095(8) -0.0098(8)
C3 0.0199(11) 0.0209(11) 0.0167(11) 0.0049(9) -0.0013(9) -0.0005(9)
C4 0.0244(13) 0.0251(13) 0.0216(13) 0.0031(10) 0.0027(10) 0.0017(10)
C5 0.0220(14) 0.0360(15) 0.0274(14) 0.0085(11) 0.0026(11) 0.0000(11)
C6 0.0238(13) 0.0300(13) 0.0296(14) 0.0104(11) -0.0022(11) -0.0065(11)
S1' 0.0192(3) 0.0216(3) 0.0186(3) 0.0027(2) -0.00029(19) -0.0004(2)
O1' 0.0412(12) 0.0247(10) 0.0177(9) 0.0010(7) -0.0031(8) 0.0004(8)
C2' 0.0228(13) 0.0194(11) 0.0150(12) 0.0001(8) -0.0002(9) 0.0014(10)
S3' 0.0280(3) 0.0285(3) 0.0196(3) -0.0035(3) 0.0024(2) -0.0062(3)
C4' 0.0264(15) 0.0274(13) 0.0312(15) 0.0013(11) -0.0004(11) -0.0076(12)
C5' 0.0269(15) 0.0253(13) 0.0357(17) 0.0049(12) -0.0017(12) -0.0082(12)
C6' 0.0228(13) 0.0278(13) 0.0256(14) 0.0077(11) 0.0032(10) -0.0032(11)
loop_
_atom_type_symbol
_atom_type_description
_atom_type_scat_dispersion_real
_atom_type_scat_dispersion_imag
_atom_type_scat_source
C C 0.0033 0.0016 'International Tables Vol C Tables 4.2.6.8 and 6.1.1.4'
H H 0.0000 0.0000 'International Tables Vol C Tables 4.2.6.8 and 6.1.1.4'
O O 0.0106 0.0060 'International Tables Vol C Tables 4.2.6.8 and 6.1.1.4'
S S 0.1246 0.1234 'International Tables Vol C Tables 4.2.6.8 and 6.1.1.4'
loop_
_geom_angle_atom_site_label_1
_geom_angle_atom_site_label_2
_geom_angle_atom_site_label_3
_geom_angle
O1 C1 C6 113.1(2)
O1 C1 C2 112.0(2)
C6 C1 C2 111.7(2)
O2 C2 C1 107.3(2)
O2 C2 C3 110.8(2)
C1 C2 C3 110.5(2)
C4 C3 C2' 123.6(2)
C4 C3 C2 119.0(2)
C2' C3 C2 117.3(2)
C3 C4 C5 121.6(3)
C6 C5 C4 120.4(3)
C5 C6 C1 119.6(3)
O1' S1' C6' 104.28(13)
O1' S1' C2' 104.88(10)
C6' S1' C2' 98.54(12)
C3 C2' S3' 111.67(17)
C3 C2' S1' 108.81(16)
S3' C2' S1' 107.79(12)
C2' S3' C4' 100.62(13)
C5' C4' S3' 114.1(2)
C6' C5' C4' 112.7(2)
C5' C6' S1' 113.8(2)
loop_
_geom_bond_atom_site_label_1
_geom_bond_atom_site_label_2
_geom_bond_distance
C1 O1 1.422(3)
C1 C6 1.522(4)
C1 C2 1.530(4)
C2 O2 1.438(3)
C2 C3 1.536(4)
C3 C4 1.349(4)
C3 C2' 1.523(3)
C4 C5 1.469(4)
C5 C6 1.336(4)
S1' O1' 1.5262(19)
S1' C6' 1.807(3)
S1' C2' 1.855(2)
C2' S3' 1.821(2)
S3' C4' 1.824(3)
C4' C5' 1.530(4)
C5' C6' 1.525(4)
loop_
_geom_torsion_atom_site_label_1
_geom_torsion_atom_site_label_2
_geom_torsion_atom_site_label_3
_geom_torsion_atom_site_label_4
_geom_torsion
O1 C1 C2 O2 -54.1(3)
C6 C1 C2 O2 73.8(3)
O1 C1 C2 C3 -175.0(2)
C6 C1 C2 C3 -47.0(3)
O2 C2 C3 C4 -85.9(3)
C1 C2 C3 C4 32.8(3)
O2 C2 C3 C2' 89.5(3)
C1 C2 C3 C2' -151.8(2)
C2' C3 C4 C5 -177.7(2)
C2 C3 C4 C5 -2.6(3)
C3 C4 C5 C6 -13.3(4)
C4 C5 C6 C1 -4.4(4)
O1 C1 C6 C5 162.5(2)
C2 C1 C6 C5 35.1(3)
C4 C3 C2' S3' -24.7(3)
C2 C3 C2' S3' 160.04(17)
C4 C3 C2' S1' 94.1(2)
C2 C3 C2' S1' -81.1(2)
O1' S1' C2' C3 66.30(19)
C6' S1' C2' C3 173.64(18)
O1' S1' C2' S3' -172.44(12)
C6' S1' C2' S3' -65.11(15)
C3 C2' S3' C4' -177.17(18)
S1' C2' S3' C4' 63.37(16)
C2' S3' C4' C5' -60.1(2)
S3' C4' C5' C6' 62.4(3)
C4' C5' C6' S1' -65.9(3)
O1' S1' C6' C5' 172.60(19)
C2' S1' C6' C5' 64.8(2)
