#------------------------------------------------------------------------------
#$Date: 2016-02-16 03:10:39 +0200 (Tue, 16 Feb 2016) $
#$Revision: 176453 $
#$URL: svn://www.crystallography.net/cod/cif/7/21/45/7214583.cif $
#------------------------------------------------------------------------------
#
# This file is available in the Crystallography Open Database (COD),
# http://www.crystallography.net/
#
# All data on this site have been placed in the public domain by the
# contributors.
#
data_7214583
loop_
_publ_author_name
'Lee, Lucia Myongwon'
'Elder, Philip J. W.'
'Dube, Paul A.'
'Greedan, John E.'
'Jenkins, Hilary A.'
'Britten, James F.'
'Vargas-Baca, Ignacio'
_publ_section_title
;
 The size of the metal ion controls the structures of the coordination
 polymers of benzo-2,1,3-selenadiazole
;
_journal_issue                   37
_journal_name_full               CrystEngComm
_journal_page_first              7434
_journal_paper_doi               10.1039/c3ce40752g
_journal_volume                  15
_journal_year                    2013
_chemical_formula_moiety         'C6 H4 Cd0.50 Cl N2 Se'
_chemical_formula_sum            'C6 H4 Cd0.5 Cl N2 Se'
_chemical_formula_weight         274.72
_chemical_name_systematic
; 
 ? 
;
_space_group_IT_number           2
_symmetry_cell_setting           triclinic
_symmetry_space_group_name_Hall  '-P 1'
_symmetry_space_group_name_H-M   'P -1'
_atom_sites_solution_hydrogens   geom
_atom_sites_solution_primary     direct
_atom_sites_solution_secondary   difmap
_audit_creation_method           SHELXL-97
_cell_angle_alpha                78.814(7)
_cell_angle_beta                 82.416(8)
_cell_angle_gamma                82.514(7)
_cell_formula_units_Z            2
_cell_length_a                   3.7767(17)
_cell_length_b                   9.284(4)
_cell_length_c                   10.824(5)
_cell_measurement_reflns_used    451
_cell_measurement_temperature    100(2)
_cell_measurement_theta_max      26.23
_cell_measurement_theta_min      3.22
_cell_volume                     366.9(3)
_computing_cell_refinement       'Bruker SAINT'
_computing_data_collection       'Bruker APEX2'
_computing_data_reduction        'Bruker SAINT'
_computing_molecular_graphics    'Bruker SHELXTL'
_computing_publication_material  'Bruker SHELXTL'
_computing_structure_refinement  'SHELXL-97 (Sheldrick, 2008)'
_computing_structure_solution    'SHELXS-97 (Sheldrick, 2008)'
_diffrn_ambient_temperature      100(2)
_diffrn_measured_fraction_theta_full 0.988
_diffrn_measured_fraction_theta_max 0.988
_diffrn_measurement_device_type  'Bruker APEX-II CCD'
_diffrn_measurement_method       'phi and omega scans'
_diffrn_radiation_monochromator  graphite
_diffrn_radiation_source         'fine-focus sealed tube'
_diffrn_radiation_type           MoK\a
_diffrn_radiation_wavelength     0.71073
_diffrn_reflns_av_R_equivalents  0.0000
_diffrn_reflns_av_sigmaI/netI    0.1056
_diffrn_reflns_limit_h_max       4
_diffrn_reflns_limit_h_min       -4
_diffrn_reflns_limit_k_max       11
_diffrn_reflns_limit_k_min       -11
_diffrn_reflns_limit_l_max       13
_diffrn_reflns_limit_l_min       0
_diffrn_reflns_number            1495
_diffrn_reflns_theta_full        26.46
_diffrn_reflns_theta_max         26.46
_diffrn_reflns_theta_min         2.25
_exptl_absorpt_coefficient_mu    6.808
_exptl_absorpt_correction_T_max  1.0000
_exptl_absorpt_correction_T_min  0.6855
_exptl_absorpt_correction_type   multi-scan
_exptl_absorpt_process_details   twinabs
_exptl_crystal_colour            colourless
_exptl_crystal_density_diffrn    2.487
_exptl_crystal_density_meas      ?
_exptl_crystal_density_method    'not measured'
_exptl_crystal_description       plate
_exptl_crystal_F_000             258
_exptl_crystal_size_max          0.06
_exptl_crystal_size_mid          0.05
_exptl_crystal_size_min          0.002
_refine_diff_density_max         1.575
_refine_diff_density_min         -1.768
_refine_diff_density_rms         0.298
_refine_ls_extinction_method     none
_refine_ls_goodness_of_fit_ref   0.973
_refine_ls_hydrogen_treatment    mixed
_refine_ls_matrix_type           full
_refine_ls_number_parameters     102
_refine_ls_number_reflns         1495
_refine_ls_number_restraints     12
_refine_ls_restrained_S_all      0.971
_refine_ls_R_factor_all          0.1061
_refine_ls_R_factor_gt           0.0600
_refine_ls_shift/su_max          0.000
_refine_ls_shift/su_mean         0.000
_refine_ls_structure_factor_coef Fsqd
_refine_ls_weighting_details
'calc w=1/[\s^2^(Fo^2^)+(0.0740P)^2^+0.0000P] where P=(Fo^2^+2Fc^2^)/3'
_refine_ls_weighting_scheme      calc
_refine_ls_wR_factor_gt          0.1273
_refine_ls_wR_factor_ref         0.1481
_reflns_number_gt                959
_reflns_number_total             1495
_reflns_threshold_expression     >2sigma(I)
_iucr_refine_instructions_details
;
TITL twin4 in P-1
CELL  0.71073   3.7767   9.2839  10.8240   78.814   82.416   82.514
ZERR     2.00   0.0017   0.0041   0.0047    0.007    0.008    0.007
LATT   1
SFAC  C    H    N    CL   SE   CD
UNIT  12   8    4    2    2    1
MERG   2
FMAP   2
PLAN   20
SIZE     0.00   0.05   0.06
BOND $H
L.S.   10
TEMP    100.00
 
acta

 
isor 0.008 c1 c6
WGHT    0.074000
BASF   0.36591
FVAR       0.89324
N1    3    0.142026    0.893321    0.310905    11.00000    0.01246    0.02127 =
         0.01299   -0.00454   -0.00219   -0.00072
CL1   4   -0.511828    1.173630    0.391537    11.00000    0.01944    0.01954 =
         0.01351   -0.00011   -0.00320   -0.00320
SE2   5    0.339442    1.010514    0.171687    11.00000    0.01856    0.02304 =
         0.01081   -0.00179   -0.00130   -0.00172
N2    3    0.350805    0.874168    0.077259    11.00000    0.02398    0.02946 =
         0.01021   -0.00422   -0.00834    0.00223
C6    1    0.054598    0.510158    0.185172    11.00000    0.02085    0.02018 =
         0.01602   -0.00379   -0.01206   -0.00024
AFIX  44
H6    2    0.041927    0.426567    0.159278    11.00000   -1.20000
AFIX   0
C1    1    0.095601    0.768847    0.278846    11.00000    0.00971    0.02322 =
         0.02128    0.00223   -0.00638    0.00468
C2    1   -0.054124    0.646170    0.360727    11.00000    0.02015    0.02477 =
         0.01536    0.00334   -0.00945   -0.00198
AFIX  44
H2    2   -0.151375    0.651543    0.465411    11.00000   -1.20000
AFIX   0
C5    1    0.219347    0.755759    0.146415    11.00000    0.01894    0.01849 =
         0.01509   -0.00152   -0.00476    0.00370
C4    1    0.200074    0.624016    0.103654    11.00000    0.02158    0.03444 =
         0.01444   -0.00822   -0.00900   -0.00001
AFIX  44
H4    2    0.272497    0.615891    0.033317    11.00000   -1.20000
AFIX   0
C3    1   -0.079436    0.525911    0.314311    11.00000    0.02694    0.02649 =
         0.01773   -0.00688   -0.00347    0.00165
AFIX  44
H3    2   -0.180079    0.453991    0.363162    11.00000   -1.20000
AFIX   0
MOLE    1
CD2   6    0.000000    1.000000    0.500000    10.50000    0.01755    0.02243 =
         0.01082   -0.00241   -0.00123   -0.00324
HKLF    5
 
REM  twin4 in P-1
REM R1 =  0.0600 for    959 Fo > 4sig(Fo)  and  0.1061 for all   1495 data
REM    102 parameters refined using     12 restraints
 
END  
     
WGHT      0.0733      0.0000 
REM Highest difference peak  1.575,  deepest hole -1.768,  1-sigma level  0.298
Q1    1   0.2114  0.9310  0.5341  11.00000  0.05    1.58
Q2    1   0.4042  1.1034  0.1750  11.00000  0.05    1.28
Q3    1   0.5542  0.9572  0.1949  11.00000  0.05    1.24
Q4    1   0.6555  0.9036  0.2577  11.00000  0.05    1.14
Q5    1   0.5927  0.9994  0.1257  11.00000  0.05    1.11
Q6    1   0.1602  1.0299  0.2440  11.00000  0.05    1.10
Q7    1   0.2222  0.9836  0.4474  11.00000  0.05    1.09
Q8    1   0.0991  1.1012  0.4806  11.00000  0.05    1.07
Q9    1  -0.3408  1.1149  0.4121  11.00000  0.05    1.05
Q10   1  -0.6613  1.1412  0.3768  11.00000  0.05    0.92
Q11   1  -0.2780  0.7308  0.5170  11.00000  0.05    0.91
Q12   1  -0.3382  0.6983  0.5539  11.00000  0.05    0.90
Q13   1   0.5942  0.7649  0.0409  11.00000  0.05    0.89
Q14   1  -0.5065  0.4029  0.2594  11.00000  0.05    0.89
Q15   1  -0.3960  0.4041  0.4358  11.00000  0.05    0.88
Q16   1  -0.8546  1.1815  0.4355  11.00000  0.05    0.87
Q17   1   0.3676  0.8821  0.1639  11.00000  0.05    0.86
Q18   1  -0.2228  0.7107  0.1383  11.00000  0.05    0.86
Q19   1  -0.9656  1.2113  0.3518  11.00000  0.05    0.85
Q20   1   0.1016  0.5162  0.2669  11.00000  0.05    0.81
;
_cod_data_source_file            c3ce40752g.txt
_cod_data_source_block           twin5
_cod_depositor_comments
;
The following automatic conversions were performed:

'_symmetry_cell_setting' value 'Triclinic' changed to 'triclinic'
according to
/usr/data/users/saulius/automatic-downloads/retrospective/RSC/lib/dictionaries/cif_core.dic
dictionary named 'cif_core.dic' version 2.4.2 from 2011-04-26.

Automatic conversion script
Id: cif_fix_values 2281 2013-09-26 08:29:07Z andrius 

The following automatic conversions were performed:

'_exptl_crystal_density_meas' value 'not measured' was changed to '?'
- the value is perceived as not measured.

Automatic conversion script
Id: cif_fix_values 3008 2015-01-20 13:52:24Z robertas 
;
_cod_original_sg_symbol_H-M      P-1
_cod_original_formula_sum        'C6 H4 Cd0.50 Cl N2 Se'
_cod_database_code               7214583
loop_
_symmetry_equiv_pos_as_xyz
'x, y, z'
'-x, -y, -z'
loop_
_atom_site_label
_atom_site_type_symbol
_atom_site_fract_x
_atom_site_fract_y
_atom_site_fract_z
_atom_site_U_iso_or_equiv
_atom_site_adp_type
_atom_site_occupancy
_atom_site_symmetry_multiplicity
_atom_site_calc_flag
_atom_site_refinement_flags
N1 N 0.142(2) 0.8933(11) 0.3109(8) 0.015(2) Uani 1 1 d .
Cl1 Cl -0.5118(8) 1.1736(3) 0.3915(3) 0.0177(7) Uani 1 1 d .
Se2 Se 0.3394(3) 1.01051(14) 0.17169(10) 0.0177(4) Uani 1 1 d .
N2 N 0.351(3) 0.8742(12) 0.0773(8) 0.021(2) Uani 1 1 d .
C6 C 0.055(3) 0.5102(14) 0.1852(10) 0.018(3) Uani 1 1 d U
H6 H 0.042(4) 0.427(12) 0.159(4) 0.022 Uiso 1 1 calc R
C1 C 0.096(3) 0.7688(14) 0.2788(11) 0.019(3) Uani 1 1 d U
C2 C -0.054(3) 0.6462(14) 0.3607(11) 0.020(3) Uani 1 1 d .
H2 H -0.151(10) 0.6515(15) 0.465(11) 0.024 Uiso 1 1 calc R
C5 C 0.219(3) 0.7558(13) 0.1464(11) 0.018(3) Uani 1 1 d .
C4 C 0.200(3) 0.6240(14) 0.1037(11) 0.023(3) Uani 1 1 d .
H4 H 0.272(12) 0.6159(19) 0.033(11) 0.027 Uiso 1 1 calc R
C3 C -0.079(3) 0.5259(15) 0.3143(11) 0.024(3) Uani 1 1 d .
H3 H -0.180(16) 0.454(11) 0.363(7) 0.028 Uiso 1 1 calc R
Cd2 Cd 0.0000 1.0000 0.5000 0.0169(4) Uani 1 2 d S
loop_
_atom_site_aniso_label
_atom_site_aniso_U_11
_atom_site_aniso_U_22
_atom_site_aniso_U_33
_atom_site_aniso_U_23
_atom_site_aniso_U_13
_atom_site_aniso_U_12
N1 0.012(5) 0.021(6) 0.013(5) -0.005(4) -0.002(4) -0.001(4)
Cl1 0.0194(15) 0.0195(16) 0.0135(13) -0.0001(11) -0.0032(11) -0.0032(12)
Se2 0.0186(7) 0.0230(8) 0.0108(6) -0.0018(5) -0.0013(5) -0.0017(6)
N2 0.024(6) 0.029(6) 0.010(5) -0.004(4) -0.008(4) 0.002(5)
C6 0.021(5) 0.020(5) 0.016(5) -0.004(4) -0.012(4) 0.000(4)
C1 0.010(5) 0.023(6) 0.021(5) 0.002(4) -0.006(4) 0.005(4)
C2 0.020(7) 0.025(7) 0.015(6) 0.003(5) -0.009(5) -0.002(5)
C5 0.019(6) 0.018(7) 0.015(5) -0.002(5) -0.005(5) 0.004(5)
C4 0.022(7) 0.034(8) 0.014(6) -0.008(6) -0.009(5) 0.000(6)
C3 0.027(7) 0.026(8) 0.018(6) -0.007(6) -0.003(5) 0.002(6)
Cd2 0.0176(7) 0.0224(8) 0.0108(6) -0.0024(5) -0.0012(5) -0.0032(6)
loop_
_atom_type_symbol
_atom_type_description
_atom_type_scat_dispersion_real
_atom_type_scat_dispersion_imag
_atom_type_scat_source
C C 0.0033 0.0016 'International Tables Vol C Tables 4.2.6.8 and 6.1.1.4'
H H 0.0000 0.0000 'International Tables Vol C Tables 4.2.6.8 and 6.1.1.4'
N N 0.0061 0.0033 'International Tables Vol C Tables 4.2.6.8 and 6.1.1.4'
Cl Cl 0.1484 0.1585 'International Tables Vol C Tables 4.2.6.8 and 6.1.1.4'
Se Se -0.0929 2.2259 'International Tables Vol C Tables 4.2.6.8 and 6.1.1.4'
Cd Cd -0.8075 1.2024 'International Tables Vol C Tables 4.2.6.8 and 6.1.1.4'
loop_
_geom_angle_atom_site_label_1
_geom_angle_atom_site_label_2
_geom_angle_atom_site_label_3
_geom_angle
_geom_angle_site_symmetry_1
_geom_angle_site_symmetry_3
C1 N1 Se2 108.1(8) . .
C1 N1 Cd2 135.5(8) . .
Se2 N1 Cd2 116.3(4) . .
Cd2 Cl1 Cd2 92.75(10) . 1_455
N2 Se2 N1 92.2(4) . .
C5 N2 Se2 109.7(8) . .
C4 C6 C3 120.2(12) . .
C4 C6 H6 119.9 . .
C3 C6 H6 119.9 . .
N1 C1 C2 126.1(11) . .
N1 C1 C5 115.5(11) . .
C2 C1 C5 118.4(11) . .
C3 C2 C1 119.0(11) . .
C3 C2 H2 120.5 . .
C1 C2 H2 120.5 . .
N2 C5 C4 125.3(11) . .
N2 C5 C1 114.4(11) . .
C4 C5 C1 120.3(12) . .
C6 C4 C5 119.2(11) . .
C6 C4 H4 120.4 . .
C5 C4 H4 120.4 . .
C2 C3 C6 122.9(13) . .
C2 C3 H3 118.6 . .
C6 C3 H3 118.6 . .
N1 Cd2 N1 180.000(2) 2_576 .
N1 Cd2 Cl1 91.4(2) 2_576 .
N1 Cd2 Cl1 88.6(2) . .
N1 Cd2 Cl1 88.6(2) 2_576 2_576
N1 Cd2 Cl1 91.4(2) . 2_576
Cl1 Cd2 Cl1 180.00(12) . 2_576
N1 Cd2 Cl1 96.1(2) 2_576 1_655
N1 Cd2 Cl1 83.9(2) . 1_655
Cl1 Cd2 Cl1 92.75(10) . 1_655
Cl1 Cd2 Cl1 87.25(10) 2_576 1_655
N1 Cd2 Cl1 83.9(2) 2_576 2_476
N1 Cd2 Cl1 96.1(2) . 2_476
Cl1 Cd2 Cl1 87.25(10) . 2_476
Cl1 Cd2 Cl1 92.75(10) 2_576 2_476
Cl1 Cd2 Cl1 180.000(1) 1_655 2_476
loop_
_geom_bond_atom_site_label_1
_geom_bond_atom_site_label_2
_geom_bond_distance
_geom_bond_site_symmetry_2
N1 C1 1.308(15) .
N1 Se2 1.814(9) .
N1 Cd2 2.412(9) .
Cl1 Cd2 2.601(3) .
Cl1 Cd2 2.616(3) 1_455
Se2 N2 1.768(9) .
N2 C5 1.319(15) .
C6 C4 1.364(17) .
C6 C3 1.451(15) .
C6 H6 0.8836 .
C1 C2 1.430(16) .
C1 C5 1.471(16) .
C2 C3 1.329(17) .
C2 H2 1.1527 .
C5 C4 1.403(16) .
C4 H4 0.7887 .
C3 H3 0.8637 .
Cd2 N1 2.412(9) 2_576
Cd2 Cl1 2.601(3) 2_576
Cd2 Cl1 2.616(3) 1_655
Cd2 Cl1 2.616(3) 2_476
