#------------------------------------------------------------------------------
#$Date: 2016-02-16 03:10:39 +0200 (Tue, 16 Feb 2016) $
#$Revision: 176453 $
#$URL: svn://www.crystallography.net/cod/cif/7/21/49/7214997.cif $
#------------------------------------------------------------------------------
#
# This file is available in the Crystallography Open Database (COD),
# http://www.crystallography.net/
#
# All data on this site have been placed in the public domain by the
# contributors.
#
data_7214997
loop_
_publ_author_name
'Matulkov\'a, Irena'
'Cihelka, Jaroslav'
'Pojarov\'a, Michaela'
'Fejfarov\'a, Karla'
'Du\<sek, Michal'
'Van\<ek, P\<remysl'
'Kroupa, Jan'
'Krupkov\'a, Radmila'
'F\'abry, Jan'
'N\<emec, Ivan'
_publ_section_title
;
 A new series of 3,5-diamino-1,2,4-triazolium(1+) inorganic salts and
 their potential in crystal engineering of novel NLO materials
;
_journal_issue                   14
_journal_name_full               CrystEngComm
_journal_page_first              4625
_journal_paper_doi               10.1039/c2ce00024e
_journal_volume                  14
_journal_year                    2012
_chemical_formula_moiety         '2(C2 H6 N5), O4 S, 2(H2 O)'
_chemical_formula_sum            'C4 H16 N10 O6 S'
_chemical_formula_weight         332.3
_chemical_name_systematic        ' ?'
_space_group_IT_number           2
_symmetry_cell_setting           triclinic
_symmetry_space_group_name_Hall  '-P 1'
_symmetry_space_group_name_H-M   'P -1'
_cell_angle_alpha                99.528(3)
_cell_angle_beta                 98.220(3)
_cell_angle_gamma                96.967(3)
_cell_formula_units_Z            2
_cell_length_a                   6.1197(2)
_cell_length_b                   6.3410(2)
_cell_length_c                   17.7076(6)
_cell_measurement_reflns_used    5717
_cell_measurement_temperature    120
_cell_measurement_theta_max      62.3790
_cell_measurement_theta_min      5.1301
_cell_volume                     663.26(4)
_computing_cell_refinement       'Crysalis RED (Oxford diffraction, 2009)'
_computing_data_collection       'Crysalis CCD (Oxford diffraction, 2009)'
_computing_data_reduction        'Crysalis RED'
_computing_molecular_graphics    'Diamond (Brandenburg & Putz, 2005)'
_computing_publication_material  Jana2006
_computing_structure_refinement
'Jana2006 (Pet\<r\'i\<cek, Du\<sek & Palatinus, 2006)'
_computing_structure_solution    'SIR2002 (Burla et al., 2003)'
_diffrn_ambient_temperature      120
_diffrn_detector_area_resol_mean 10.3784
_diffrn_measured_fraction_theta_full 0.98
_diffrn_measured_fraction_theta_max 0.96
_diffrn_measurement_device       'four-cycle diffractometer'
_diffrn_measurement_device_type
'Goniometer Xcalibur, detector: Atlas (Gemini ultra Cu)'
_diffrn_measurement_method
'Rotation method data acquisition using \w scans'
_diffrn_radiation_monochromator  mirror
_diffrn_radiation_source         'X-ray tube'
_diffrn_radiation_type           'Cu K\a'
_diffrn_radiation_wavelength     1.54184
_diffrn_reflns_av_R_equivalents  0.0222
_diffrn_reflns_av_sigmaI/netI    0.0101
_diffrn_reflns_limit_h_max       6
_diffrn_reflns_limit_h_min       -7
_diffrn_reflns_limit_k_max       6
_diffrn_reflns_limit_k_min       -7
_diffrn_reflns_limit_l_max       19
_diffrn_reflns_limit_l_min       -20
_diffrn_reflns_number            7382
_diffrn_reflns_reduction_process
;
Integration of the CCD images was done by program Crysalis RED
(Oxford diffraction, 2008). The same program was used for indexing of the
crystal shape and absorption correction.
;
_diffrn_reflns_theta_full        61.65
_diffrn_reflns_theta_max         62.38
_diffrn_reflns_theta_min         5.13
_exptl_absorpt_coefficient_mu    2.672
_exptl_absorpt_correction_T_max  0.932
_exptl_absorpt_correction_T_min  0.769
_exptl_absorpt_correction_type   analytical
_exptl_absorpt_process_details
;
CrysAlisPro, Oxford Diffraction Ltd.,
Version 1.171.33.51 (release 27-10-2009 CrysAlis171 .NET)
Analytical numeric absorption correction using a multifaceted crystal
model based on expressions derived by R.C. Clark & J.S. Reid.
;
_exptl_crystal_colour            colorless
_exptl_crystal_density_diffrn    1.6633
_exptl_crystal_density_method    'not measured'
_exptl_crystal_description       prism
_exptl_crystal_F_000             348
_exptl_crystal_size_max          0.1435
_exptl_crystal_size_mid          0.0793
_exptl_crystal_size_min          0.0291
_refine_diff_density_max         0.22
_refine_diff_density_min         -0.27
_refine_ls_extinction_method     none
_refine_ls_goodness_of_fit_gt    1.80
_refine_ls_goodness_of_fit_ref   1.74
_refine_ls_hydrogen_treatment    refxyz
_refine_ls_number_constraints    16
_refine_ls_number_parameters     238
_refine_ls_number_reflns         2042
_refine_ls_number_restraints     0
_refine_ls_R_factor_all          0.0315
_refine_ls_R_factor_gt           0.0270
_refine_ls_shift/su_max          0.0089
_refine_ls_shift/su_mean         0.0008
_refine_ls_structure_factor_coef Fsqd
_refine_ls_weighting_details     w=1/(\s^2^(I)+0.0016I^2^)
_refine_ls_weighting_scheme      sigma
_refine_ls_wR_factor_gt          0.0824
_refine_ls_wR_factor_ref         0.0848
_reflns_number_gt                1826
_reflns_number_total             2042
_reflns_threshold_expression     I>3\s(I)
_cod_data_source_file            c2ce00024e.txt
_cod_data_source_block           II
_cod_original_formula_sum        'C4 H16 N10 O6 S1'
_cod_database_code               7214997
loop_
_symmetry_equiv_pos_site_id
_symmetry_equiv_pos_as_xyz
1 x,y,z
2 -x,-y,-z
loop_
_atom_site_label
_atom_site_type_symbol
_atom_site_fract_x
_atom_site_fract_y
_atom_site_fract_z
_atom_site_adp_type
_atom_site_U_iso_or_equiv
_atom_site_symmetry_multiplicity
_atom_site_occupancy
_atom_site_calc_flag
S1 S 0.47226(7) 0.58860(7) 0.22718(2) Uani 0.01371(16) 2 1 d
O2 O 0.2527(2) 0.4524(2) 0.20318(7) Uani 0.0202(4) 2 1 d
O1 O 0.6513(2) 0.45215(20) 0.22722(7) Uani 0.0183(4) 2 1 d
O3 O 0.5042(2) 0.7412(2) 0.17390(7) Uani 0.0190(4) 2 1 d
O4 O 0.48444(19) 0.71283(20) 0.30648(7) Uani 0.0170(4) 2 1 d
O1W O 0.1780(2) 0.1228(2) 0.28591(8) Uani 0.0229(5) 2 1 d
O2W O 0.7276(2) 0.1332(2) 0.31290(8) Uani 0.0223(5) 2 1 d
N2 N 0.1535(2) 0.2581(2) -0.00161(8) Uani 0.0147(5) 2 1 d
N1 N 0.0191(2) 0.2850(2) 0.05669(9) Uani 0.0142(5) 2 1 d
N4 N -0.2071(2) 0.2079(2) -0.05148(9) Uani 0.0137(5) 2 1 d
N6 N -0.3659(3) 0.2659(3) 0.06442(10) Uani 0.0196(5) 2 1 d
N7 N 0.0529(3) 0.1753(3) -0.13804(10) Uani 0.0214(6) 2 1 d
N9 N -0.1450(2) 0.2536(2) 0.51721(8) Uani 0.0144(5) 2 1 d
N8 N -0.0137(2) 0.2251(2) 0.45839(9) Uani 0.0145(5) 2 1 d
N11 N 0.2170(2) 0.3016(2) 0.56505(9) Uani 0.0141(5) 2 1 d
N13 N 0.3697(3) 0.2453(3) 0.44769(10) Uani 0.0189(5) 2 1 d
N14 N -0.0378(3) 0.3293(3) 0.65364(10) Uani 0.0230(6) 2 1 d
C5 C -0.1952(3) 0.2567(3) 0.02652(10) Uani 0.0145(6) 2 1 d
C3 C 0.0084(3) 0.2140(3) -0.06580(10) Uani 0.0135(5) 2 1 d
C12 C 0.2023(3) 0.2544(3) 0.48682(10) Uani 0.0142(6) 2 1 d
C10 C 0.0022(3) 0.2963(3) 0.58088(10) Uani 0.0142(6) 2 1 d
H1W H 0.193(4) 0.223(4) 0.2579(13) Uiso 0.0275 2 1 d
H2W H 0.038(4) 0.114(4) 0.2864(13) Uiso 0.0275 2 1 d
H3W H 0.681(4) 0.208(4) 0.2853(13) Uiso 0.0268 2 1 d
H4W H 0.623(4) 0.028(4) 0.3014(13) Uiso 0.0268 2 1 d
H1A H 0.078(3) 0.329(3) 0.1035(13) Uiso 0.017 2 1 d
H4A H -0.319(3) 0.212(3) -0.0873(12) Uiso 0.0164 2 1 d
H6B H -0.342(3) 0.320(3) 0.1164(14) Uiso 0.0236 2 1 d
H6A H -0.494(4) 0.261(3) 0.0416(13) Uiso 0.0236 2 1 d
H7B H 0.194(4) 0.199(3) -0.1441(13) Uiso 0.0257 2 1 d
H7A H -0.054(4) 0.137(4) -0.1781(13) Uiso 0.0257 2 1 d
H8A H -0.080(3) 0.205(3) 0.4102(13) Uiso 0.0174 2 1 d
H11A H 0.331(4) 0.310(3) 0.6004(12) Uiso 0.017 2 1 d
H13B H 0.341(3) 0.197(3) 0.3961(14) Uiso 0.0227 2 1 d
H13A H 0.499(4) 0.250(3) 0.4663(13) Uiso 0.0227 2 1 d
H14B H -0.173(4) 0.316(4) 0.6624(13) Uiso 0.0276 2 1 d
H14A H 0.069(4) 0.390(4) 0.6950(14) Uiso 0.0276 2 1 d
loop_
_atom_site_aniso_label
_atom_site_aniso_type_symbol
_atom_site_aniso_U_11
_atom_site_aniso_U_22
_atom_site_aniso_U_33
_atom_site_aniso_U_12
_atom_site_aniso_U_13
_atom_site_aniso_U_23
S1 S 0.0125(3) 0.0176(3) 0.0103(3) 0.00085(17) 0.00080(17) 0.00256(18)
O2 O 0.0152(7) 0.0271(7) 0.0146(7) -0.0047(5) -0.0007(5) 0.0023(5)
O1 O 0.0188(7) 0.0211(7) 0.0153(7) 0.0054(5) 0.0023(5) 0.0029(5)
O3 O 0.0177(7) 0.0253(7) 0.0158(6) 0.0032(5) 0.0025(5) 0.0094(5)
O4 O 0.0156(7) 0.0214(7) 0.0129(6) 0.0031(5) 0.0012(5) 0.0012(5)
O1W O 0.0220(8) 0.0250(8) 0.0217(7) 0.0017(6) 0.0030(6) 0.0061(6)
O2W O 0.0224(8) 0.0194(8) 0.0216(8) -0.0020(6) -0.0056(6) 0.0055(6)
N2 N 0.0144(8) 0.0156(8) 0.0143(8) 0.0026(6) 0.0040(6) 0.0021(6)
N1 N 0.0142(8) 0.0169(8) 0.0099(8) 0.0014(6) 0.0003(6) 0.0006(6)
N4 N 0.0123(8) 0.0167(8) 0.0114(8) 0.0024(6) -0.0005(6) 0.0027(6)
N6 N 0.0150(8) 0.0292(9) 0.0142(9) 0.0042(7) 0.0023(7) 0.0018(7)
N7 N 0.0154(9) 0.0345(10) 0.0136(8) 0.0020(7) 0.0033(7) 0.0027(7)
N9 N 0.0130(8) 0.0159(8) 0.0143(8) 0.0018(6) 0.0031(6) 0.0024(6)
N8 N 0.0129(8) 0.0186(8) 0.0106(8) 0.0013(6) 0.0001(6) 0.0013(6)
N11 N 0.0118(8) 0.0182(8) 0.0116(8) 0.0018(6) -0.0009(6) 0.0030(6)
N13 N 0.0121(8) 0.0298(9) 0.0139(8) 0.0020(7) 0.0019(7) 0.0023(7)
N14 N 0.0131(8) 0.0395(10) 0.0149(9) 0.0010(7) 0.0035(7) 0.0014(7)
C5 C 0.0167(10) 0.0110(9) 0.0158(9) 0.0022(7) 0.0018(7) 0.0028(7)
C3 C 0.0145(9) 0.0105(8) 0.0154(9) 0.0018(7) 0.0018(7) 0.0031(7)
C12 C 0.0155(10) 0.0109(9) 0.0157(9) 0.0010(7) 0.0008(7) 0.0033(7)
C10 C 0.0140(9) 0.0113(9) 0.0173(10) 0.0008(7) 0.0033(7) 0.0030(7)
loop_
_atom_type_symbol
_atom_type_scat_dispersion_real
_atom_type_scat_dispersion_imag
_atom_type_scat_source
C 0.018 0.009 'International Tables Vol C tables 4.2.6.8 and 6.1.1.1'
H 0.000 0.000 'International Tables Vol C tables 4.2.6.8 and 6.1.1.1'
N 0.031 0.018 'International Tables Vol C tables 4.2.6.8 and 6.1.1.1'
O 0.049 0.032 'International Tables Vol C tables 4.2.6.8 and 6.1.1.1'
S 0.333 0.557 'International Tables Vol C tables 4.2.6.8 and 6.1.1.1'
loop_
_geom_angle_atom_site_label_1
_geom_angle_atom_site_label_2
_geom_angle_atom_site_label_3
_geom_angle
_geom_angle_publ_flag
O2 S1 O1 110.07(7) yes
O2 S1 O3 110.38(7) yes
O2 S1 O4 109.06(7) yes
O1 S1 O3 109.28(8) yes
O1 S1 O4 109.11(7) yes
O3 S1 O4 108.91(7) yes
H1W O1W H2W 99(2) yes
H3W O2W H4W 100(2) yes
N1 N2 C3 103.31(14) yes
N2 N1 C5 111.44(14) yes
N2 N1 H1A 120.3(15) yes
C5 N1 H1A 127.8(15) yes
C5 N4 C3 107.04(14) yes
C5 N4 H4A 128.0(15) yes
C3 N4 H4A 122.4(15) yes
C5 N6 H6B 119.9(13) yes
C5 N6 H6A 121.5(17) yes
H6B N6 H6A 116(2) yes
C3 N7 H7B 117.6(14) yes
C3 N7 H7A 121.2(17) yes
H7B N7 H7A 121(2) yes
N8 N9 C10 103.27(14) yes
N9 N8 C12 112.12(14) yes
N9 N8 H8A 118.3(14) yes
C12 N8 H8A 129.2(14) yes
C12 N11 C10 107.36(14) yes
C12 N11 H11A 129.0(15) yes
C10 N11 H11A 122.6(16) yes
C12 N13 H13B 119.4(14) yes
C12 N13 H13A 125.5(17) yes
H13B N13 H13A 113(2) yes
C10 N14 H14B 120.0(15) yes
C10 N14 H14A 123.0(16) yes
H14B N14 H14A 116(2) yes
N1 C5 N4 106.40(16) yes
N1 C5 N6 127.29(16) yes
N4 C5 N6 126.28(15) yes
N2 C3 N4 111.79(16) yes
N2 C3 N7 126.65(17) yes
N4 C3 N7 121.56(15) yes
N8 C12 N11 105.73(16) yes
N8 C12 N13 127.55(16) yes
N11 C12 N13 126.70(15) yes
N9 C10 N11 111.50(16) yes
N9 C10 N14 127.11(17) yes
N11 C10 N14 121.38(15) yes
loop_
_geom_bond_atom_site_label_1
_geom_bond_atom_site_label_2
_geom_bond_distance
_geom_bond_publ_flag
S1 O2 1.4718(12) yes
S1 O1 1.4763(14) yes
S1 O3 1.4744(14) yes
S1 O4 1.4789(12) yes
O1W H1W 0.87(3) yes
O1W H2W 0.85(3) yes
O2W H3W 0.78(3) yes
O2W H4W 0.84(2) yes
N2 N1 1.410(2) yes
N2 C3 1.305(2) yes
N1 C5 1.322(2) yes
N1 H1A 0.84(2) yes
N4 C5 1.354(2) yes
N4 C3 1.375(2) yes
N4 H4A 0.87(2) yes
N6 C5 1.322(3) yes
N6 H6B 0.91(2) yes
N6 H6A 0.82(2) yes
N7 C3 1.335(3) yes
N7 H7B 0.88(3) yes
N7 H7A 0.87(2) yes
N9 N8 1.405(2) yes
N9 C10 1.306(2) yes
N8 C12 1.325(2) yes
N8 H8A 0.87(2) yes
N11 C12 1.355(2) yes
N11 C10 1.381(2) yes
N11 H11A 0.86(2) yes
N13 C12 1.318(3) yes
N13 H13B 0.90(2) yes
N13 H13A 0.81(2) yes
N14 C10 1.333(3) yes
N14 H14B 0.86(3) yes
N14 H14A 0.90(2) yes
loop_
_refln_index_h
_refln_index_k
_refln_index_l
_refln_F_squared_calc
_refln_F_squared_meas
_refln_F_squared_sigma
_refln_observed_status
1 0 0 378.76 308.74 2.55 o
2 0 0 703.39 663.34 8.43 o
3 0 0 216.76 199.14 2.49 o
4 0 0 1634.15 1687.55 6.42 o
5 0 0 164.51 159.26 3.19 o
6 0 0 839.06 830.44 7.69 o
-6 1 0 32.86 28.13 2.37 o
-5 1 0 13.91 10.62 1.79 o
-4 1 0 129.45 117.05 2.22 o
-3 1 0 0.80 1.81 0.90 <
-2 1 0 0.88 2.32 0.82 <
-1 1 0 1204.19 1195.80 2.79 o
0 1 0 1593.76 1662.73 3.63 o
1 1 0 1356.49 1332.14 4.66 o
2 1 0 1422.49 1410.87 5.27 o
3 1 0 83.17 78.95 1.47 o
4 1 0 169.28 172.70 2.35 o
5 1 0 162.37 155.86 2.68 o
6 1 0 249.78 260.08 4.15 o
-6 2 0 554.36 561.06 6.49 o
-5 2 0 445.31 434.33 5.32 o
-4 2 0 399.37 406.88 3.69 o
-3 2 0 1451.60 1461.38 4.35 o
-2 2 0 722.63 818.24 3.50 o
-1 2 0 2012.23 2023.94 8.73 o
0 2 0 14506.58 15122.69 55.23 o
1 2 0 1209.60 1161.32 3.42 o
2 2 0 337.60 378.78 2.69 o
3 2 0 476.35 488.77 3.70 o
4 2 0 6.02 10.05 1.39 o
5 2 0 473.33 517.36 5.91 o
6 2 0 193.77 159.93 3.21 o
-6 3 0 120.75 141.69 2.99 o
-5 3 0 68.24 70.27 2.50 o
-4 3 0 15.34 15.88 1.32 o
-3 3 0 320.63 330.91 2.87 o
-2 3 0 1707.98 1729.88 5.22 o
-1 3 0 58.66 56.46 1.62 o
0 3 0 72.42 70.22 1.76 o
1 3 0 19.37 22.78 0.95 o
2 3 0 28.92 31.03 1.29 o
3 3 0 16.41 15.08 1.53 o
4 3 0 1.54 2.11 1.51 <
5 3 0 53.47 46.41 2.37 o
-6 4 0 94.51 99.88 4.46 o
-5 4 0 224.48 237.90 4.91 o
-4 4 0 201.84 194.53 3.68 o
-3 4 0 0.59 0.55 1.06 <
-2 4 0 12.32 11.01 1.00 o
-1 4 0 210.35 236.77 2.50 o
0 4 0 1156.12 1214.31 6.22 o
1 4 0 0.74 2.30 0.94 <
2 4 0 22.96 20.34 1.36 o
3 4 0 2.16 2.11 1.40 <
4 4 0 44.79 38.32 2.02 o
5 4 0 160.30 132.00 3.77 o
-5 5 0 0.34 0.60 2.09 <
-4 5 0 46.94 42.61 2.17 o
-3 5 0 163.41 158.65 3.15 o
-2 5 0 150.89 156.09 2.87 o
-1 5 0 75.14 84.83 1.95 o
0 5 0 10.96 9.27 1.18 o
1 5 0 78.72 79.47 1.99 o
2 5 0 91.07 91.05 2.52 o
3 5 0 21.42 16.96 1.49 o
4 5 0 1.58 -2.23 2.16 <
-4 6 0 32.03 39.85 2.33 o
-3 6 0 527.88 553.84 6.10 o
-2 6 0 316.25 334.09 4.69 o
-1 6 0 84.24 96.06 3.05 o
0 6 0 760.30 743.10 6.95 o
1 6 0 293.98 331.12 3.30 o
2 6 0 6.67 10.84 2.25 o
-2 7 0 13.93 19.99 2.41 o
-1 7 0 79.99 103.37 3.85 o
0 -7 1 5.04 8.40 2.63 o
1 -7 1 115.77 130.31 4.22 o
2 -7 1 31.67 38.88 2.76 o
-2 -6 1 118.10 115.97 2.97 o
-1 -6 1 1.82 3.10 1.68 <
0 -6 1 206.33 205.70 3.29 o
1 -6 1 19.73 20.91 3.71 o
2 -6 1 30.17 26.93 2.08 o
3 -6 1 12.65 9.76 1.82 o
4 -6 1 59.03 74.34 2.67 o
-4 -5 1 29.97 30.80 2.17 o
-3 -5 1 49.88 46.62 1.68 o
-2 -5 1 587.61 589.13 6.36 o
-1 -5 1 350.50 371.13 3.57 o
0 -5 1 95.51 101.13 1.90 o
1 -5 1 7.83 6.93 1.59 o
2 -5 1 77.45 75.11 2.13 o
3 -5 1 208.58 190.14 3.50 o
4 -5 1 46.60 48.15 2.21 o
5 -5 1 16.84 15.05 2.47 o
-5 -4 1 0.46 -0.12 1.84 <
-4 -4 1 153.53 139.36 3.06 o
-3 -4 1 480.86 503.15 4.67 o
-2 -4 1 72.41 72.71 1.74 o
-1 -4 1 0.52 0.54 0.94 <
0 -4 1 0.67 1.46 1.12 <
1 -4 1 9.13 8.36 1.01 o
2 -4 1 93.30 81.04 1.56 o
3 -4 1 1.22 1.85 1.23 <
4 -4 1 46.24 51.93 2.49 o
5 -4 1 18.16 15.34 2.25 o
6 -4 1 0.67 8.19 4.23 <
-5 -3 1 15.17 17.28 1.82 o
-4 -3 1 95.51 96.40 2.51 o
-3 -3 1 777.28 791.77 5.43 o
-2 -3 1 66.20 73.92 1.37 o
-1 -3 1 296.27 328.43 1.92 o
0 -3 1 17.16 27.09 1.10 o
1 -3 1 227.69 214.15 2.67 o
2 -3 1 1029.74 976.78 4.03 o
3 -3 1 481.37 511.27 4.07 o
4 -3 1 468.55 489.69 3.77 o
5 -3 1 88.14 102.43 2.46 o
6 -3 1 207.48 228.30 4.38 o
-6 -2 1 6.91 9.06 1.58 o
-5 -2 1 0.66 0.44 1.69 <
-4 -2 1 131.55 139.19 2.61 o
-3 -2 1 639.08 643.62 4.79 o
-2 -2 1 473.64 489.21 3.24 o
-1 -2 1 325.12 300.65 1.78 o
0 -2 1 1976.76 1993.57 5.85 o
1 -2 1 393.67 385.97 2.82 o
2 -2 1 7.44 5.17 0.64 o
3 -2 1 252.91 252.25 1.95 o
4 -2 1 665.75 686.84 4.07 o
5 -2 1 255.90 275.82 5.47 o
6 -2 1 102.25 102.07 3.24 o
-6 -1 1 265.82 251.93 4.24 o
-5 -1 1 261.73 260.21 3.84 o
-4 -1 1 1217.36 1298.64 7.05 o
-3 -1 1 18.47 17.94 1.08 o
-2 -1 1 5623.67 6015.15 10.64 o
-1 -1 1 2212.68 2167.80 4.55 o
0 -1 1 1030.94 1089.53 3.02 o
1 -1 1 11.28 25.55 0.78 o
2 -1 1 506.71 507.92 3.95 o
3 -1 1 1908.91 1950.90 5.71 o
4 -1 1 68.25 51.08 1.74 o
5 -1 1 1980.71 2004.56 10.41 o
6 -1 1 1064.54 1131.38 9.23 o
-6 0 1 71.75 70.09 2.88 o
-5 0 1 163.74 152.47 3.84 o
-4 0 1 606.65 609.44 3.93 o
-3 0 1 1.78 1.45 0.90 <
-2 0 1 525.24 534.16 4.01 o
-1 0 1 1.02 1.16 0.82 <
1 0 1 98.50 98.52 1.59 o
2 0 1 128.19 134.58 1.97 o
3 0 1 108.46 95.57 1.55 o
4 0 1 629.56 589.69 5.09 o
5 0 1 287.49 279.66 4.07 o
6 0 1 140.51 135.98 3.56 o
-7 1 1 44.23 36.35 2.56 o
-6 1 1 30.47 41.18 2.50 o
-5 1 1 607.99 580.41 5.11 o
-4 1 1 1970.19 2037.95 7.69 o
-3 1 1 8.06 7.44 0.94 o
-2 1 1 9295.88 9377.41 17.52 o
-1 1 1 1220.84 1147.75 4.37 o
0 1 1 603.58 644.03 2.66 o
1 1 1 963.84 865.87 4.39 o
2 1 1 645.60 787.86 4.12 o
3 1 1 1671.39 1737.97 5.17 o
4 1 1 7.42 7.59 1.12 o
5 1 1 95.19 88.88 2.51 o
6 1 1 70.31 73.95 2.54 o
-6 2 1 252.28 248.56 4.46 o
-5 2 1 412.14 432.06 5.30 o
-4 2 1 324.54 319.03 3.33 o
-3 2 1 470.91 487.92 2.74 o
-2 2 1 354.01 329.36 1.87 o
-1 2 1 504.75 493.77 3.47 o
0 2 1 1352.27 1310.62 4.73 o
1 2 1 48.87 41.98 0.92 o
2 2 1 223.16 244.41 2.19 o
3 2 1 939.84 956.54 7.79 o
4 2 1 140.09 143.39 2.99 o
5 2 1 30.73 26.98 2.52 o
6 2 1 20.53 19.01 1.70 o
-6 3 1 183.37 185.89 3.37 o
-5 3 1 4.69 4.96 1.57 o
-4 3 1 11.06 16.47 1.35 o
-3 3 1 23.91 22.29 1.27 o
-2 3 1 8.44 10.54 0.88 o
-1 3 1 1.30 1.59 0.82 <
0 3 1 960.59 1159.17 5.79 o
1 3 1 854.27 940.27 4.33 o
2 3 1 1383.84 1378.08 6.11 o
3 3 1 6.10 4.64 1.40 o
4 3 1 180.05 168.32 2.79 o
5 3 1 131.43 134.43 3.33 o
-6 4 1 1.77 -2.95 3.86 <
-5 4 1 9.73 6.79 2.28 <
-4 4 1 41.69 41.19 2.22 o
-3 4 1 8.09 7.79 1.21 o
-2 4 1 347.76 329.86 3.17 o
-1 4 1 0.66 2.16 1.06 <
0 4 1 118.83 123.82 2.31 o
1 4 1 42.22 44.72 1.39 o
2 4 1 269.55 266.07 3.21 o
3 4 1 181.01 174.73 3.43 o
4 4 1 20.26 20.67 1.67 o
-5 5 1 0.91 0.56 1.98 <
-4 5 1 91.95 85.02 3.15 o
-3 5 1 447.20 429.31 6.01 o
-2 5 1 17.49 17.72 1.44 o
-1 5 1 82.56 91.86 2.00 o
0 5 1 126.29 129.37 2.39 o
1 5 1 13.59 12.30 1.27 o
2 5 1 17.24 17.82 1.64 o
3 5 1 385.66 369.67 4.16 o
-4 6 1 6.33 3.07 2.27 <
-3 6 1 16.49 14.66 1.73 o
-2 6 1 66.49 66.34 1.78 o
-1 6 1 0.08 -2.72 2.07 <
0 6 1 50.69 52.51 2.19 o
1 6 1 57.53 57.98 1.89 o
2 6 1 125.80 113.91 2.30 o
0 -7 2 16.38 17.61 2.42 o
1 -7 2 29.57 29.19 2.95 o
2 -7 2 1.72 -4.13 2.38 <
-3 -6 2 207.35 201.38 4.67 o
-2 -6 2 13.03 12.03 2.32 o
-1 -6 2 256.39 254.59 4.27 o
0 -6 2 368.42 349.91 5.21 o
1 -6 2 1002.58 1085.60 12.53 o
2 -6 2 104.82 106.05 3.05 o
3 -6 2 45.20 43.29 2.22 o
4 -6 2 16.61 11.81 2.18 o
-4 -5 2 35.56 35.27 2.32 o
-3 -5 2 11.17 11.71 1.90 o
-2 -5 2 254.23 257.14 3.30 o
-1 -5 2 134.17 136.86 2.34 o
0 -5 2 4.79 4.66 1.25 o
1 -5 2 125.14 130.35 2.41 o
2 -5 2 475.17 476.38 4.08 o
3 -5 2 158.93 153.70 2.67 o
4 -5 2 10.34 11.90 2.30 o
5 -5 2 0.93 -0.31 2.28 <
-5 -4 2 253.98 251.36 4.14 o
-4 -4 2 169.42 161.72 3.18 o
-3 -4 2 13.14 14.23 1.38 o
-2 -4 2 66.85 67.02 1.91 o
-1 -4 2 283.19 293.93 3.33 o
0 -4 2 6555.47 6727.19 13.68 o
1 -4 2 1596.09 1657.44 5.36 o
2 -4 2 293.94 294.68 2.45 o
3 -4 2 203.75 208.42 2.77 o
4 -4 2 198.18 205.02 4.60 o
5 -4 2 458.50 456.08 6.34 o
6 -4 2 490.19 520.18 9.23 o
-5 -3 2 10.70 11.17 1.72 o
-4 -3 2 0.42 2.68 1.51 <
-3 -3 2 18.94 19.46 1.39 o
-2 -3 2 10.68 11.46 1.02 o
-1 -3 2 1.92 0.40 0.77 <
0 -3 2 143.13 159.68 1.98 o
1 -3 2 113.79 111.32 1.68 o
2 -3 2 1607.14 1652.60 4.44 o
3 -3 2 225.99 221.07 2.49 o
4 -3 2 38.84 44.85 1.65 o
5 -3 2 96.16 105.19 2.52 o
6 -3 2 243.80 261.89 3.86 o
-6 -2 2 173.70 148.53 3.25 o
-5 -2 2 447.63 504.13 6.15 o
-4 -2 2 529.37 515.61 4.99 o
-3 -2 2 50.09 44.46 1.36 o
-2 -2 2 261.80 315.04 2.64 o
-1 -2 2 967.32 1070.46 3.58 o
0 -2 2 25324.52 25549.68 70.88 o
1 -2 2 6409.52 6986.05 10.39 o
2 -2 2 541.54 629.73 2.90 o
3 -2 2 1992.48 1998.13 6.05 o
4 -2 2 34.89 30.75 1.42 o
5 -2 2 1140.93 1151.73 8.39 o
6 -2 2 114.50 104.74 2.88 o
-6 -1 2 105.09 111.29 3.08 o
-5 -1 2 323.60 327.52 4.27 o
-4 -1 2 138.40 135.51 2.66 o
-3 -1 2 15.92 10.41 0.96 o
-2 -1 2 788.85 738.46 4.57 o
-1 -1 2 1062.36 1057.02 3.87 o
0 -1 2 514.47 549.64 2.41 o
1 -1 2 404.39 399.48 2.19 o
2 -1 2 53.55 49.61 1.38 o
3 -1 2 81.21 91.27 1.38 o
4 -1 2 11.64 9.04 1.31 o
5 -1 2 93.69 97.73 2.62 o
6 -1 2 2.57 3.52 2.04 <
-6 0 2 24.02 32.78 2.41 o
-5 0 2 2196.66 2287.83 8.88 o
-4 0 2 683.12 690.35 5.16 o
-3 0 2 114.59 139.47 1.64 o
-2 0 2 255.30 236.16 2.01 o
-1 0 2 7268.21 7195.87 27.11 o
0 0 2 93.07 61.35 1.36 o
1 0 2 6353.01 6352.41 29.25 o
2 0 2 427.00 453.00 2.43 o
3 0 2 1888.05 1928.41 5.30 o
4 0 2 204.90 188.83 2.85 o
5 0 2 553.66 595.61 6.95 o
6 0 2 134.97 124.51 3.15 o
-7 1 2 13.87 13.94 1.48 o
-6 1 2 0.03 0.59 2.29 <
-5 1 2 98.58 100.14 3.03 o
-4 1 2 437.94 420.51 3.69 o
-3 1 2 8.51 4.87 0.85 o
-2 1 2 77.80 85.38 1.09 o
-1 1 2 1700.76 1622.08 6.41 o
0 1 2 1477.40 1493.57 4.45 o
1 1 2 1548.51 1491.58 3.84 o
2 1 2 1607.65 1581.82 5.48 o
3 1 2 239.42 236.23 2.23 o
4 1 2 47.60 47.70 1.60 o
5 1 2 332.26 340.61 5.49 o
6 1 2 54.91 59.72 2.26 o
-6 2 2 106.45 96.22 2.99 o
-5 2 2 295.02 318.88 4.62 o
-4 2 2 777.40 786.70 4.52 o
-3 2 2 56.14 50.23 1.13 o
-2 2 2 2.35 11.71 0.84 o
-1 2 2 1.83 1.81 0.61 <
0 2 2 1220.91 1364.03 6.17 o
1 2 2 40.86 30.92 0.81 o
2 2 2 494.71 567.98 3.67 o
3 2 2 162.54 159.15 3.66 o
4 2 2 34.39 38.59 1.79 o
5 2 2 63.52 51.21 2.65 o
6 2 2 118.73 106.66 3.77 o
-6 3 2 31.04 35.50 2.37 o
-5 3 2 22.38 23.69 1.70 o
-4 3 2 22.63 24.93 1.98 o
-3 3 2 238.31 232.67 2.75 o
-2 3 2 792.61 791.34 3.03 o
-1 3 2 8.70 8.57 0.75 o
0 3 2 433.12 452.36 2.65 o
1 3 2 37.69 40.68 1.07 o
2 3 2 70.41 78.16 1.84 o
3 3 2 191.14 191.35 3.42 o
4 3 2 8.43 6.68 1.53 o
5 3 2 0.64 -1.47 1.70 <
-6 4 2 300.23 359.08 7.49 o
-5 4 2 170.40 162.56 4.15 o
-4 4 2 74.05 67.67 2.61 o
-3 4 2 764.39 746.16 5.84 o
-2 4 2 37.29 37.08 1.50 o
-1 4 2 0.68 0.90 0.98 <
0 4 2 247.58 260.75 2.88 o
1 4 2 4.09 2.08 0.98 <
2 4 2 1474.07 1521.22 8.66 o
3 4 2 2.18 4.95 1.41 o
4 4 2 114.59 114.83 2.34 o
-5 5 2 2.06 0.94 2.02 <
-4 5 2 88.97 93.71 3.37 o
-3 5 2 191.73 184.00 2.87 o
-2 5 2 27.53 25.20 1.57 o
-1 5 2 48.69 50.81 1.77 o
0 5 2 77.05 78.98 1.90 o
1 5 2 36.39 35.84 1.44 o
2 5 2 32.72 32.85 1.65 o
3 5 2 27.92 22.98 1.62 o
-4 6 2 176.04 171.85 4.65 o
-3 6 2 6.52 8.54 1.73 o
-2 6 2 321.40 323.90 4.84 o
-1 6 2 153.31 176.59 3.83 o
0 6 2 119.81 134.19 3.40 o
1 6 2 131.80 130.51 2.55 o
2 6 2 392.02 382.15 4.18 o
0 -7 3 224.21 254.42 5.23 o
1 -7 3 157.07 162.21 4.64 o
2 -7 3 149.40 160.04 4.33 o
-3 -6 3 12.07 12.50 2.32 o
-2 -6 3 0.31 -3.03 2.10 <
-1 -6 3 90.36 87.82 2.94 o
0 -6 3 277.31 299.88 4.94 o
1 -6 3 59.08 58.58 3.96 o
2 -6 3 0.81 1.86 1.72 <
3 -6 3 105.99 111.50 2.99 o
4 -6 3 162.19 170.88 4.63 o
-4 -5 3 144.04 152.92 3.58 o
-3 -5 3 363.33 360.09 4.68 o
-2 -5 3 12.18 8.56 1.83 o
-1 -5 3 39.35 37.11 1.86 o
0 -5 3 16.78 15.75 2.17 o
1 -5 3 91.70 87.31 2.75 o
2 -5 3 5.58 7.12 1.30 o
3 -5 3 271.39 272.00 3.37 o
4 -5 3 75.25 71.27 3.11 o
5 -5 3 210.91 226.16 4.20 o
-5 -4 3 11.70 12.11 2.04 o
-4 -4 3 316.51 296.58 4.75 o
-3 -4 3 470.70 480.82 3.73 o
-2 -4 3 75.18 75.74 1.97 o
-1 -4 3 25.81 28.41 1.55 o
0 -4 3 85.37 90.08 2.03 o
1 -4 3 7.28 6.00 1.04 o
2 -4 3 6.59 7.85 1.01 o
3 -4 3 18.75 16.59 1.27 o
4 -4 3 0.20 2.21 1.84 <
5 -4 3 9.47 4.80 2.27 <
-5 -3 3 39.89 40.53 2.15 o
-4 -3 3 907.41 938.61 6.12 o
-3 -3 3 75.88 63.03 1.57 o
-2 -3 3 3064.86 3199.41 10.77 o
-1 -3 3 53.11 52.06 1.18 o
0 -3 3 0.99 1.34 0.79 <
1 -3 3 540.90 558.35 2.76 o
2 -3 3 93.00 106.35 1.33 o
3 -3 3 181.32 179.32 2.03 o
4 -3 3 0.11 2.34 1.35 <
5 -3 3 63.64 58.57 2.12 o
6 -3 3 70.89 71.54 2.34 o
-6 -2 3 39.03 45.93 2.23 o
-5 -2 3 9.24 9.25 1.79 o
-4 -2 3 31.56 30.23 2.04 o
-3 -2 3 550.86 538.85 3.25 o
-2 -2 3 521.68 536.80 4.02 o
-1 -2 3 345.19 311.28 1.85 o
0 -2 3 1953.54 1950.70 6.94 o
1 -2 3 77.46 74.47 1.01 o
2 -2 3 40.71 51.40 1.11 o
3 -2 3 290.64 284.56 2.22 o
4 -2 3 601.68 591.46 3.77 o
5 -2 3 81.38 77.53 2.18 o
6 -2 3 62.44 56.00 2.32 o
-6 -1 3 44.43 46.11 2.10 o
-5 -1 3 250.76 231.55 3.23 o
-4 -1 3 26.96 36.49 1.84 o
-3 -1 3 569.54 586.73 3.60 o
-2 -1 3 59.84 69.50 1.28 o
-1 -1 3 1304.22 1332.45 3.71 o
0 -1 3 885.80 854.35 4.17 o
1 -1 3 9214.09 8937.39 9.27 o
2 -1 3 1017.60 887.64 5.80 o
3 -1 3 131.94 157.19 1.74 o
4 -1 3 130.40 133.57 2.21 o
5 -1 3 1566.65 1594.07 8.39 o
6 -1 3 8.18 11.88 2.17 o
-6 0 3 77.74 73.11 3.05 o
-5 0 3 103.54 102.73 2.67 o
-4 0 3 229.39 215.57 3.46 o
-3 0 3 0.66 1.35 0.90 <
-2 0 3 720.99 739.48 3.62 o
-1 0 3 118.03 126.42 1.33 o
0 0 3 16.12 16.64 0.98 o
1 0 3 1047.45 1049.17 5.45 o
2 0 3 15.45 12.58 0.96 o
3 0 3 20.96 16.40 0.92 o
4 0 3 395.64 381.09 3.83 o
5 0 3 519.54 506.55 5.42 o
6 0 3 36.68 39.48 2.20 o
-7 1 3 56.49 63.90 2.20 o
-6 1 3 821.22 899.35 11.56 o
-5 1 3 52.27 51.97 2.03 o
-4 1 3 16.09 11.54 1.21 o
-3 1 3 12.67 17.02 0.90 o
-2 1 3 2901.29 2927.46 6.82 o
-1 1 3 15.71 19.57 1.07 o
0 1 3 698.44 774.12 3.55 o
1 1 3 1566.00 1592.82 4.76 o
2 1 3 3023.11 3150.77 7.03 o
3 1 3 160.82 159.80 1.68 o
4 1 3 520.46 514.90 4.35 o
5 1 3 12.19 10.49 1.60 o
6 1 3 273.10 272.72 3.70 o
-6 2 3 321.42 340.60 6.86 o
-5 2 3 269.96 275.98 4.25 o
-4 2 3 74.87 73.47 1.58 o
-3 2 3 353.12 360.79 2.30 o
-2 2 3 937.40 890.62 4.13 o
-1 2 3 115.50 105.11 1.51 o
0 2 3 245.06 199.55 2.59 o
1 2 3 33.47 28.78 0.91 o
2 2 3 284.00 302.97 2.23 o
3 2 3 321.91 339.23 3.43 o
4 2 3 2.22 2.78 1.73 <
5 2 3 6.66 6.74 1.76 o
6 2 3 35.64 26.63 2.37 o
-6 3 3 67.45 79.22 4.78 o
-5 3 3 224.97 212.99 3.49 o
-4 3 3 358.46 375.39 4.61 o
-3 3 3 1598.26 1625.89 7.99 o
-2 3 3 56.31 46.96 1.23 o
-1 3 3 33.80 28.27 0.96 o
0 3 3 432.94 468.67 3.14 o
1 3 3 164.26 160.55 1.54 o
2 3 3 0.85 1.05 1.18 <
3 3 3 266.36 293.60 3.52 o
4 3 3 20.07 22.03 1.67 o
5 3 3 0.88 2.46 2.25 <
-5 4 3 27.67 20.41 2.19 o
-4 4 3 0.37 -1.68 1.86 <
-3 4 3 259.53 270.05 4.28 o
-2 4 3 591.00 565.71 4.99 o
-1 4 3 0.89 1.36 1.16 <
0 4 3 183.10 192.16 2.58 o
1 4 3 221.11 222.43 2.59 o
2 4 3 157.60 151.62 2.63 o
3 4 3 147.32 150.09 3.20 o
4 4 3 48.53 48.37 1.72 o
-5 5 3 69.54 71.35 2.73 o
-4 5 3 27.71 20.60 2.41 o
-3 5 3 8.64 6.41 1.36 o
-2 5 3 122.62 122.28 2.45 o
-1 5 3 124.26 121.87 2.03 o
0 5 3 621.75 670.73 4.22 o
1 5 3 0.39 0.43 1.18 <
2 5 3 541.44 572.01 4.87 o
3 5 3 45.05 40.77 2.45 o
-4 6 3 1.14 -0.15 1.91 <
-3 6 3 10.48 2.85 2.36 <
-2 6 3 20.33 18.24 1.98 o
-1 6 3 7.37 9.11 1.95 o
0 6 3 9.41 6.98 1.96 o
1 6 3 55.99 55.45 2.39 o
2 6 3 232.65 232.68 4.68 o
0 -7 4 3.73 -3.15 2.39 <
1 -7 4 1.85 -1.98 2.39 <
2 -7 4 0.76 -6.40 2.33 <
-3 -6 4 48.02 42.91 2.79 o
-2 -6 4 3.95 4.95 2.21 <
-1 -6 4 27.93 22.32 2.16 o
0 -6 4 1751.13 1722.26 11.15 o
1 -6 4 726.58 750.95 10.34 o
2 -6 4 75.83 78.10 2.63 o
3 -6 4 1.06 -1.74 1.68 <
4 -6 4 8.95 2.62 1.96 <
-4 -5 4 93.95 97.90 3.10 o
-3 -5 4 159.36 156.71 4.26 o
-2 -5 4 409.01 423.13 6.20 o
-1 -5 4 158.40 167.25 3.07 o
0 -5 4 0.57 0.89 1.50 <
1 -5 4 251.04 229.01 5.43 o
2 -5 4 779.86 801.12 6.07 o
3 -5 4 86.55 81.48 2.31 o
4 -5 4 14.55 13.41 2.14 o
5 -5 4 0.25 2.69 2.17 <
-5 -4 4 865.90 903.50 7.61 o
-4 -4 4 1.43 0.97 2.37 <
-3 -4 4 7.66 6.76 1.54 o
-2 -4 4 542.82 580.26 4.60 o
-1 -4 4 492.98 531.92 3.82 o
0 -4 4 1092.02 1147.18 5.36 o
1 -4 4 2459.59 2566.82 7.06 o
2 -4 4 686.32 695.66 5.26 o
3 -4 4 956.43 954.51 5.21 o
4 -4 4 45.37 40.80 2.00 o
5 -4 4 308.11 296.35 5.31 o
-6 -3 4 39.69 35.92 2.45 o
-5 -3 4 60.58 48.26 2.08 o
-4 -3 4 22.36 23.67 1.92 o
-3 -3 4 91.32 88.43 1.66 o
-2 -3 4 0.09 0.83 1.11 <
-1 -3 4 1.14 2.66 0.80 o
0 -3 4 7.88 11.61 0.96 o
1 -3 4 215.14 198.55 1.49 o
2 -3 4 884.36 884.70 3.51 o
3 -3 4 220.27 219.86 1.90 o
4 -3 4 31.83 32.43 1.41 o
5 -3 4 384.89 404.76 5.15 o
6 -3 4 64.60 66.90 2.24 o
-6 -2 4 9.53 16.10 2.00 o
-5 -2 4 1287.34 1395.05 10.23 o
-4 -2 4 493.97 480.25 4.98 o
-3 -2 4 646.97 705.24 5.05 o
-2 -2 4 81.59 79.58 1.81 o
-1 -2 4 617.59 704.40 4.05 o
0 -2 4 8.26 9.22 0.67 o
1 -2 4 108.16 126.44 1.45 o
2 -2 4 41.78 42.29 0.91 o
3 -2 4 246.36 245.89 2.38 o
4 -2 4 189.87 199.83 2.42 o
5 -2 4 35.08 35.27 1.74 o
6 -2 4 455.21 464.32 5.82 o
-6 -1 4 91.29 88.57 2.47 o
-5 -1 4 307.40 308.73 4.30 o
-4 -1 4 182.74 179.72 3.02 o
-3 -1 4 2.56 5.33 1.13 o
-2 -1 4 185.94 174.49 2.24 o
-1 -1 4 646.39 631.78 3.74 o
0 -1 4 5.50 6.22 1.25 o
1 -1 4 388.90 374.25 2.68 o
2 -1 4 381.14 386.51 2.58 o
3 -1 4 200.86 214.15 2.06 o
4 -1 4 74.28 73.71 1.87 o
5 -1 4 45.18 42.37 1.75 o
6 -1 4 63.77 57.08 2.04 o
-6 0 4 685.32 671.77 7.22 o
-5 0 4 23.91 19.07 1.87 o
-4 0 4 9.45 13.11 1.84 o
-3 0 4 1225.47 1279.84 7.30 o
-2 0 4 174.62 124.42 1.63 o
-1 0 4 1260.05 1191.45 4.07 o
0 0 4 4693.61 4816.24 10.36 o
1 0 4 101.95 93.19 1.38 o
2 0 4 2368.98 2584.27 8.08 o
3 0 4 1392.88 1409.86 4.70 o
4 0 4 1.46 3.58 1.21 <
5 0 4 0.42 3.63 1.58 <
6 0 4 2.50 -1.82 2.01 <
-7 1 4 8.68 9.73 1.50 o
-6 1 4 19.79 23.43 2.75 o
-5 1 4 137.32 135.70 2.48 o
-4 1 4 492.84 476.86 3.95 o
-3 1 4 30.08 25.71 0.95 o
-2 1 4 122.91 132.94 1.62 o
-1 1 4 1245.74 1182.69 4.93 o
0 1 4 2249.51 2290.52 4.84 o
1 1 4 506.71 452.14 2.97 o
2 1 4 230.15 186.65 2.05 o
3 1 4 465.73 465.43 3.11 o
4 1 4 0.69 -0.91 1.33 <
5 1 4 173.35 174.92 3.17 o
6 1 4 30.37 36.79 1.81 o
-6 2 4 16.64 17.86 2.40 o
-5 2 4 903.97 915.75 9.03 o
-4 2 4 34.36 36.71 1.26 o
-3 2 4 779.72 860.91 4.15 o
-2 2 4 140.16 125.60 1.48 o
-1 2 4 345.29 322.95 2.31 o
0 2 4 48.11 68.79 1.36 o
1 2 4 529.78 498.73 2.65 o
2 2 4 3257.46 3485.62 7.47 o
3 2 4 2.25 2.39 1.23 <
4 2 4 409.12 411.43 4.81 o
5 2 4 246.43 230.76 4.46 o
-6 3 4 4.12 5.37 3.89 <
-5 3 4 25.05 19.19 2.08 o
-4 3 4 4.45 4.58 1.43 o
-3 3 4 156.11 151.34 2.46 o
-2 3 4 64.93 64.76 1.51 o
-1 3 4 46.71 47.53 1.05 o
0 3 4 239.21 222.68 1.83 o
1 3 4 1.45 2.34 0.79 <
2 3 4 228.19 242.57 2.76 o
3 3 4 232.91 231.05 3.18 o
4 3 4 213.23 219.14 3.40 o
5 3 4 54.52 44.54 3.03 o
-5 4 4 101.57 122.03 3.28 o
-4 4 4 82.80 80.01 3.24 o
-3 4 4 37.69 39.83 1.61 o
-2 4 4 26.29 26.16 1.23 o
-1 4 4 0.24 0.80 1.37 <
0 4 4 28.93 25.36 1.40 o
1 4 4 6.33 6.36 1.14 o
2 4 4 14.60 13.27 1.41 o
3 4 4 304.54 330.57 4.58 o
4 4 4 131.19 141.74 2.80 o
-5 5 4 29.03 27.91 2.15 o
-4 5 4 273.48 306.77 6.18 o
-3 5 4 29.64 30.20 1.94 o
-2 5 4 11.87 10.99 1.38 o
-1 5 4 87.73 91.36 1.91 o
0 5 4 214.28 210.05 2.38 o
1 5 4 15.41 14.52 1.29 o
2 5 4 4.13 3.21 1.50 <
3 5 4 123.99 116.80 2.64 o
-4 6 4 3.13 6.83 1.97 o
-3 6 4 468.89 472.93 6.05 o
-2 6 4 110.26 125.18 2.89 o
-1 6 4 379.04 363.66 5.34 o
0 6 4 84.14 87.18 2.81 o
1 6 4 66.49 79.32 2.61 o
0 -7 5 16.20 17.21 2.31 o
1 -7 5 14.10 4.71 2.54 <
2 -7 5 132.80 129.69 3.81 o
-3 -6 5 1.06 -0.01 2.24 <
-2 -6 5 67.34 63.02 2.77 o
-1 -6 5 176.65 183.89 3.80 o
0 -6 5 304.96 320.00 4.12 o
1 -6 5 110.11 112.77 3.32 o
2 -6 5 102.61 101.65 2.92 o
3 -6 5 220.44 217.45 4.00 o
4 -6 5 139.53 149.32 4.24 o
-4 -5 5 29.68 29.06 2.29 o
-3 -5 5 44.59 42.93 2.89 o
-2 -5 5 92.83 92.91 2.75 o
-1 -5 5 300.39 312.24 3.94 o
0 -5 5 368.05 372.75 4.32 o
1 -5 5 998.33 1006.78 7.75 o
2 -5 5 105.75 106.16 2.59 o
3 -5 5 13.63 10.61 1.48 o
4 -5 5 72.89 70.75 2.78 o
5 -5 5 237.08 236.89 4.22 o
-5 -4 5 34.01 35.53 2.27 o
-4 -4 5 215.48 206.58 3.88 o
-3 -4 5 393.14 404.89 5.08 o
-2 -4 5 27.40 24.91 1.82 o
-1 -4 5 35.48 37.13 1.69 o
0 -4 5 281.36 307.33 2.76 o
1 -4 5 40.88 40.52 1.40 o
2 -4 5 122.15 123.41 2.24 o
3 -4 5 7.42 6.72 1.35 o
4 -4 5 6.88 5.27 1.60 o
5 -4 5 18.81 16.68 2.35 o
-6 -3 5 360.47 364.05 5.89 o
-5 -3 5 3.27 1.64 1.87 <
-4 -3 5 193.95 190.06 3.94 o
-3 -3 5 729.89 760.73 6.41 o
-2 -3 5 1594.05 1610.04 6.73 o
-1 -3 5 765.87 802.34 3.60 o
0 -3 5 529.32 518.26 3.09 o
1 -3 5 2031.50 2113.12 5.20 o
2 -3 5 359.32 326.15 2.28 o
3 -3 5 419.97 442.10 2.67 o
4 -3 5 0.23 0.10 1.19 <
5 -3 5 508.09 491.03 5.50 o
6 -3 5 111.03 123.09 2.63 o
-6 -2 5 49.98 54.08 2.03 o
-5 -2 5 23.54 19.79 2.01 o
-4 -2 5 25.58 22.78 1.93 o
-3 -2 5 305.26 302.72 3.49 o
-2 -2 5 846.95 800.74 4.86 o
-1 -2 5 475.76 462.38 2.95 o
0 -2 5 1256.09 1164.44 5.12 o
1 -2 5 198.58 196.56 1.73 o
2 -2 5 21.45 23.36 0.85 o
3 -2 5 93.19 88.81 1.60 o
4 -2 5 308.42 294.33 2.68 o
5 -2 5 125.99 126.87 2.83 o
6 -2 5 7.04 6.83 1.90 o
-6 -1 5 405.14 401.79 5.54 o
-5 -1 5 30.14 31.03 2.15 o
-4 -1 5 160.26 176.14 2.95 o
-3 -1 5 570.51 588.10 4.18 o
-2 -1 5 2464.31 2645.28 6.83 o
-1 -1 5 363.24 293.33 2.39 o
0 -1 5 107.29 106.58 1.64 o
1 -1 5 210.57 168.74 1.87 o
2 -1 5 734.35 864.02 2.80 o
3 -1 5 692.66 732.81 3.31 o
4 -1 5 422.55 399.02 3.97 o
5 -1 5 91.51 93.32 2.18 o
6 -1 5 184.48 207.50 3.99 o
-6 0 5 87.36 89.47 2.58 o
-5 0 5 9.70 9.54 1.79 o
-4 0 5 33.65 29.68 1.72 o
-3 0 5 6.95 5.98 1.19 o
-2 0 5 159.38 145.67 2.11 o
-1 0 5 175.51 172.43 2.27 o
0 0 5 3.38 2.72 1.13 <
1 0 5 1100.96 1092.30 6.42 o
2 0 5 2.82 6.33 0.68 o
3 0 5 89.19 84.75 1.58 o
4 0 5 332.78 324.72 3.62 o
5 0 5 165.38 158.50 3.98 o
6 0 5 120.14 144.31 3.33 o
-6 1 5 14.96 21.60 2.97 o
-5 1 5 262.32 268.83 3.90 o
-4 1 5 24.76 26.52 1.45 o
-3 1 5 704.20 763.43 3.13 o
-2 1 5 337.11 364.54 2.46 o
-1 1 5 1413.28 1535.13 8.85 o
0 1 5 7414.26 7764.31 10.75 o
1 1 5 639.90 684.37 3.02 o
2 1 5 145.09 163.97 1.71 o
3 1 5 64.88 84.86 1.85 o
4 1 5 301.66 299.23 3.55 o
5 1 5 69.85 84.49 2.94 o
6 1 5 109.16 90.13 3.39 o
-6 2 5 155.88 166.58 3.69 o
-5 2 5 193.26 210.91 3.64 o
-4 2 5 0.54 0.61 1.06 <
-3 2 5 527.32 511.12 3.11 o
-2 2 5 627.36 597.21 3.09 o
-1 2 5 146.29 160.44 1.51 o
0 2 5 379.51 450.42 2.33 o
1 2 5 54.10 50.17 1.09 o
2 2 5 21.60 20.97 1.10 o
3 2 5 192.19 200.66 3.50 o
4 2 5 9.99 7.23 2.46 <
5 2 5 102.99 95.91 3.08 o
-6 3 5 119.33 144.22 5.39 o
-5 3 5 1.11 2.55 2.16 <
-4 3 5 729.16 708.56 5.27 o
-3 3 5 387.00 371.94 3.37 o
-2 3 5 170.91 181.52 2.15 o
-1 3 5 942.07 930.63 3.92 o
0 3 5 964.69 1015.07 4.22 o
1 3 5 81.82 93.22 1.69 o
2 3 5 723.45 763.74 4.82 o
3 3 5 90.15 100.82 2.43 o
4 3 5 8.00 8.73 1.95 o
5 3 5 2.39 2.29 2.05 <
-5 4 5 2.41 2.96 1.93 <
-4 4 5 154.02 141.62 3.42 o
-3 4 5 419.14 416.49 5.06 o
-2 4 5 710.14 720.15 4.15 o
-1 4 5 138.16 135.88 1.90 o
0 4 5 18.21 20.89 1.25 o
1 4 5 230.68 239.35 3.00 o
2 4 5 508.01 539.03 5.85 o
3 4 5 1.20 2.94 2.10 <
4 4 5 49.01 51.84 2.44 o
-5 5 5 112.97 110.18 2.85 o
-4 5 5 15.87 15.03 2.03 o
-3 5 5 189.14 183.69 3.71 o
-2 5 5 227.12 222.00 3.30 o
-1 5 5 10.19 8.08 1.67 o
0 5 5 0.47 0.73 1.42 <
1 5 5 251.61 252.55 3.99 o
2 5 5 17.22 15.73 1.68 o
3 5 5 378.28 380.63 4.88 o
-3 6 5 16.34 12.31 2.21 o
-2 6 5 1.64 -0.64 2.13 <
-1 6 5 0.29 0.95 2.21 <
0 6 5 0.19 1.60 1.98 <
1 6 5 111.86 115.71 2.91 o
0 -7 6 99.82 103.11 3.66 o
1 -7 6 10.42 8.42 2.29 o
2 -7 6 0.07 0.65 2.14 <
-3 -6 6 33.03 25.84 2.47 o
-2 -6 6 24.76 24.63 2.97 o
-1 -6 6 3.09 3.06 1.88 <
0 -6 6 248.19 240.78 6.26 o
1 -6 6 131.06 130.55 3.68 o
2 -6 6 17.25 15.87 1.91 o
3 -6 6 20.99 21.98 1.83 o
4 -6 6 97.66 98.75 3.49 o
-4 -5 6 210.41 211.48 4.01 o
-3 -5 6 298.08 287.32 5.15 o
-2 -5 6 310.19 319.35 4.43 o
-1 -5 6 98.92 97.61 2.24 o
0 -5 6 2.57 1.29 1.61 <
1 -5 6 308.43 313.98 4.68 o
2 -5 6 642.77 647.86 5.72 o
3 -5 6 12.51 11.75 1.54 o
4 -5 6 0.20 -0.45 1.87 <
5 -5 6 28.77 23.43 2.24 o
-5 -4 6 19.33 15.49 2.10 o
-4 -4 6 152.26 167.78 3.52 o
-3 -4 6 1881.01 1933.95 10.60 o
-2 -4 6 783.69 812.55 5.63 o
-1 -4 6 201.77 203.13 2.97 o
0 -4 6 566.36 615.38 3.58 o
1 -4 6 317.75 308.11 3.48 o
2 -4 6 63.38 60.22 1.80 o
3 -4 6 1655.26 1671.51 5.98 o
4 -4 6 260.32 247.43 3.62 o
5 -4 6 161.87 172.97 4.04 o
-5 -3 6 30.62 27.23 2.10 o
-4 -3 6 84.95 84.19 3.00 o
-3 -3 6 260.04 263.76 4.06 o
-2 -3 6 2.22 1.69 1.23 <
-1 -3 6 7.05 6.52 0.99 o
0 -3 6 200.07 189.70 1.79 o
1 -3 6 127.95 121.92 1.63 o
2 -3 6 144.84 141.96 1.62 o
3 -3 6 509.07 522.20 2.98 o
4 -3 6 112.07 112.03 1.95 o
5 -3 6 420.15 434.07 4.41 o
6 -3 6 59.88 59.87 2.62 o
-6 -2 6 609.86 624.11 4.93 o
-5 -2 6 0.43 0.04 1.74 <
-4 -2 6 298.59 303.26 4.14 o
-3 -2 6 847.78 893.21 5.76 o
-2 -2 6 0.05 1.20 0.94 <
-1 -2 6 448.64 513.14 3.07 o
0 -2 6 2064.92 2461.41 6.29 o
1 -2 6 230.34 213.57 2.06 o
2 -2 6 1886.14 1973.91 5.81 o
3 -2 6 658.94 688.30 4.00 o
4 -2 6 222.61 223.95 2.55 o
5 -2 6 23.15 24.92 1.96 o
6 -2 6 103.76 108.66 2.87 o
-6 -1 6 77.91 73.72 2.34 o
-5 -1 6 232.94 213.89 4.29 o
-4 -1 6 283.72 280.68 3.76 o
-3 -1 6 7.50 5.41 1.06 o
-2 -1 6 12.26 10.56 0.82 o
-1 -1 6 311.34 324.79 2.65 o
0 -1 6 67.47 85.77 2.62 o
1 -1 6 153.09 150.15 1.70 o
2 -1 6 19.34 17.11 0.78 o
3 -1 6 6.88 6.81 0.94 o
4 -1 6 376.24 374.32 3.56 o
5 -1 6 8.06 7.01 1.71 o
6 -1 6 93.31 97.68 2.75 o
-6 0 6 79.90 67.02 2.96 o
-5 0 6 602.83 605.95 7.10 o
-4 0 6 58.68 53.26 1.99 o
-3 0 6 1465.84 1656.34 8.71 o
-2 0 6 1.29 1.50 0.72 <
-1 0 6 215.59 180.34 2.05 o
0 0 6 0.38 15.60 1.43 o
1 0 6 103.53 97.56 1.60 o
2 0 6 288.18 325.30 2.13 o
3 0 6 199.53 212.83 2.62 o
4 0 6 42.22 41.80 2.08 o
5 0 6 1564.50 1643.84 11.39 o
6 0 6 0.26 -0.11 1.57 <
-6 1 6 95.84 85.55 2.90 o
-5 1 6 240.29 244.89 3.83 o
-4 1 6 306.96 301.83 3.94 o
-3 1 6 75.98 78.43 1.53 o
-2 1 6 112.02 117.45 1.49 o
-1 1 6 654.62 596.90 3.42 o
0 1 6 928.10 841.10 4.59 o
1 1 6 76.14 65.64 1.08 o
2 1 6 329.07 308.47 2.21 o
3 1 6 31.07 27.90 1.42 o
4 1 6 21.64 26.42 1.91 o
5 1 6 114.98 105.93 2.60 o
-6 2 6 22.70 25.94 2.34 o
-5 2 6 481.38 474.52 6.02 o
-4 2 6 41.47 35.01 1.43 o
-3 2 6 1658.60 1723.40 5.24 o
-2 2 6 831.39 800.70 4.47 o
-1 2 6 767.33 779.64 3.16 o
0 2 6 2.36 -0.09 0.81 <
1 2 6 411.62 401.16 2.48 o
2 2 6 1010.15 1002.88 4.21 o
3 2 6 823.32 856.97 8.08 o
4 2 6 36.73 27.91 2.74 o
5 2 6 538.20 545.74 6.08 o
-6 3 6 44.89 48.75 3.66 o
-5 3 6 80.07 80.17 2.42 o
-4 3 6 10.31 7.86 1.54 o
-3 3 6 221.66 225.55 2.79 o
-2 3 6 102.97 98.77 1.93 o
-1 3 6 298.72 293.59 2.31 o
0 3 6 139.06 147.19 1.78 o
1 3 6 62.01 61.24 1.40 o
2 3 6 377.64 380.54 3.04 o
3 3 6 1034.78 1106.17 9.73 o
4 3 6 30.18 30.68 2.55 o
-5 4 6 299.45 349.24 6.34 o
-4 4 6 55.25 47.53 2.23 o
-3 4 6 831.83 862.50 7.16 o
-2 4 6 0.42 0.51 1.19 <
-1 4 6 362.92 370.74 3.39 o
0 4 6 28.59 27.00 1.57 o
1 4 6 185.44 190.38 2.79 o
2 4 6 278.82 273.54 3.73 o
3 4 6 28.78 35.65 2.56 o
4 4 6 175.08 165.95 3.45 o
-5 5 6 131.73 120.48 3.62 o
-4 5 6 155.70 161.00 3.43 o
-3 5 6 241.91 232.74 4.54 o
-2 5 6 4.02 4.86 1.59 o
-1 5 6 528.83 494.51 5.42 o
0 5 6 221.02 224.43 3.06 o
1 5 6 15.06 15.26 2.26 o
2 5 6 59.61 60.45 2.72 o
3 5 6 33.70 37.61 2.00 o
-3 6 6 56.38 49.35 2.52 o
-2 6 6 457.81 457.65 5.87 o
-1 6 6 9.21 10.15 2.24 o
0 6 6 220.17 231.63 4.10 o
1 6 6 241.33 249.41 4.98 o
0 -7 7 40.08 41.50 2.75 o
1 -7 7 178.78 175.92 4.61 o
-3 -6 7 6.98 5.15 2.20 <
-2 -6 7 193.74 199.76 5.10 o
-1 -6 7 162.18 172.51 3.46 o
0 -6 7 128.77 126.94 4.90 o
1 -6 7 222.10 234.97 6.36 o
2 -6 7 212.49 201.78 3.79 o
3 -6 7 158.90 158.90 2.75 o
4 -6 7 56.70 60.50 2.79 o
-4 -5 7 78.04 76.34 2.69 o
-3 -5 7 15.60 11.76 2.34 o
-2 -5 7 61.07 60.07 2.37 o
-1 -5 7 245.45 256.21 3.81 o
0 -5 7 304.33 322.43 4.12 o
1 -5 7 217.93 231.16 4.21 o
2 -5 7 264.59 254.09 3.31 o
3 -5 7 1290.64 1328.78 8.48 o
4 -5 7 179.22 171.76 3.88 o
-5 -4 7 16.33 16.95 1.98 o
-4 -4 7 90.45 87.71 2.81 o
-3 -4 7 116.25 115.70 2.77 o
-2 -4 7 21.53 18.82 1.63 o
-1 -4 7 18.65 21.32 1.34 o
0 -4 7 197.29 210.12 2.58 o
1 -4 7 187.72 176.19 2.86 o
2 -4 7 252.04 250.40 2.81 o
3 -4 7 84.39 74.92 1.64 o
4 -4 7 0.27 -0.45 1.66 <
5 -4 7 16.66 18.44 2.27 o
-5 -3 7 476.88 483.05 6.18 o
-4 -3 7 710.63 783.81 9.03 o
-3 -3 7 1162.42 1197.85 7.83 o
-2 -3 7 0.55 0.51 1.26 <
-1 -3 7 551.24 599.94 3.45 o
0 -3 7 145.52 167.33 2.07 o
1 -3 7 1594.38 1581.66 5.51 o
2 -3 7 38.86 38.69 1.12 o
3 -3 7 460.84 459.36 3.07 o
4 -3 7 44.05 38.05 1.63 o
5 -3 7 52.34 49.58 2.00 o
-6 -2 7 65.54 67.02 1.77 o
-5 -2 7 140.26 143.54 3.07 o
-4 -2 7 29.44 29.64 2.05 o
-3 -2 7 328.30 326.82 3.69 o
-2 -2 7 662.41 661.23 3.45 o
-1 -2 7 447.81 444.01 2.89 o
0 -2 7 385.65 390.72 2.73 o
1 -2 7 628.98 632.19 3.05 o
2 -2 7 110.16 114.01 1.33 o
3 -2 7 365.36 358.75 2.86 o
4 -2 7 161.32 150.39 2.11 o
5 -2 7 6.33 3.30 1.62 <
6 -2 7 1.02 2.29 2.10 <
-6 -1 7 21.52 18.21 1.73 o
-5 -1 7 199.25 203.97 3.65 o
-4 -1 7 78.89 74.44 2.37 o
-3 -1 7 187.64 203.02 1.88 o
-2 -1 7 24.22 25.80 0.85 o
-1 -1 7 2299.15 2309.05 6.61 o
0 -1 7 2923.26 3045.57 15.37 o
1 -1 7 1873.97 2122.31 4.54 o
2 -1 7 1.65 1.91 0.64 <
3 -1 7 545.33 596.23 3.24 o
4 -1 7 130.67 127.67 2.35 o
5 -1 7 22.19 26.18 2.05 o
6 -1 7 78.55 68.36 2.96 o
-6 0 7 41.55 39.77 1.99 o
-5 0 7 19.46 19.23 2.44 o
-4 0 7 21.22 21.08 1.75 o
-3 0 7 41.04 43.46 1.37 o
-2 0 7 51.20 45.83 1.13 o
-1 0 7 682.04 721.66 3.49 o
0 0 7 199.51 210.58 2.42 o
1 0 7 87.98 67.56 1.08 o
2 0 7 216.79 209.65 2.00 o
3 0 7 128.15 131.18 2.54 o
4 0 7 133.73 130.43 3.44 o
5 0 7 116.22 111.81 3.51 o
-6 1 7 29.29 27.45 2.23 o
-5 1 7 422.27 442.33 5.05 o
-4 1 7 139.79 138.08 2.16 o
-3 1 7 13.53 14.20 1.13 o
-2 1 7 423.62 422.22 2.46 o
-1 1 7 0.28 2.05 0.62 o
0 1 7 1173.80 1198.25 4.60 o
1 1 7 1390.78 1525.83 4.63 o
2 1 7 7.20 12.41 0.83 o
3 1 7 1648.32 1714.03 7.45 o
4 1 7 350.16 345.50 3.11 o
5 1 7 102.01 105.71 2.99 o
-6 2 7 86.78 91.22 2.95 o
-5 2 7 10.23 9.93 1.81 o
-4 2 7 3.80 4.95 1.15 o
-3 2 7 221.52 216.31 2.17 o
-2 2 7 287.53 258.32 2.07 o
-1 2 7 154.85 158.85 1.68 o
0 2 7 536.77 584.21 3.76 o
1 2 7 144.21 154.18 1.85 o
2 2 7 15.01 13.02 1.16 o
3 2 7 161.01 162.46 2.85 o
4 2 7 87.92 76.28 3.18 o
5 2 7 186.06 180.34 3.57 o
-6 3 7 50.33 47.06 3.69 o
-5 3 7 1099.06 1110.75 6.94 o
-4 3 7 93.64 94.73 2.34 o
-3 3 7 906.36 905.43 4.81 o
-2 3 7 366.77 357.53 3.39 o
-1 3 7 1.47 1.04 0.96 <
0 3 7 83.82 70.66 1.45 o
1 3 7 330.69 359.09 2.90 o
2 3 7 65.62 63.04 1.59 o
3 3 7 100.70 104.34 3.60 o
4 3 7 24.83 27.02 2.42 o
-5 4 7 271.46 258.06 4.67 o
-4 4 7 189.38 194.27 3.45 o
-3 4 7 696.63 680.02 5.14 o
-2 4 7 634.32 641.06 4.32 o
-1 4 7 98.34 100.49 1.98 o
0 4 7 30.15 30.28 1.65 o
1 4 7 788.52 817.89 5.40 o
2 4 7 305.53 318.40 4.68 o
3 4 7 16.82 19.51 2.18 o
-4 5 7 217.43 192.85 4.25 o
-3 5 7 107.24 107.15 2.93 o
-2 5 7 128.28 128.93 3.06 o
-1 5 7 80.75 76.61 2.42 o
0 5 7 354.83 363.28 4.19 o
1 5 7 0.96 0.63 1.85 <
2 5 7 0.44 -0.18 1.87 <
-2 6 7 5.66 8.53 2.03 o
-1 6 7 14.51 15.91 1.82 o
0 6 7 139.18 142.58 4.08 o
1 -7 8 2.49 -0.24 2.38 <
-3 -6 8 326.35 321.43 5.76 o
-2 -6 8 10.57 3.47 2.35 <
-1 -6 8 35.35 36.15 2.08 o
0 -6 8 0.03 -2.39 2.55 <
1 -6 8 148.47 144.75 5.28 o
2 -6 8 229.38 211.84 3.21 o
3 -6 8 124.95 114.26 2.15 o
-4 -5 8 289.31 302.76 4.45 o
-3 -5 8 310.03 309.32 5.01 o
-2 -5 8 94.99 86.02 3.20 o
-1 -5 8 27.72 24.26 1.75 o
0 -5 8 29.22 32.85 1.97 o
1 -5 8 105.27 113.47 3.34 o
2 -5 8 104.23 104.08 2.37 o
3 -5 8 23.93 22.99 1.88 o
4 -5 8 16.53 18.10 1.93 o
-5 -4 8 278.51 290.46 4.26 o
-4 -4 8 55.96 51.64 2.43 o
-3 -4 8 81.99 78.24 2.83 o
-2 -4 8 1258.86 1317.38 10.01 o
-1 -4 8 335.38 327.64 5.04 o
0 -4 8 101.99 101.08 1.99 o
1 -4 8 1373.94 1368.77 7.60 o
2 -4 8 1342.44 1364.92 6.97 o
3 -4 8 7.14 7.82 1.20 o
4 -4 8 564.74 579.81 5.76 o
5 -4 8 38.26 38.18 2.39 o
-5 -3 8 0.40 -0.53 1.69 <
-4 -3 8 110.28 114.15 3.20 o
-3 -3 8 238.52 244.10 3.40 o
-2 -3 8 71.85 66.00 1.93 o
-1 -3 8 147.73 149.26 1.96 o
0 -3 8 393.76 397.30 2.95 o
1 -3 8 176.05 162.54 2.28 o
2 -3 8 197.98 198.19 1.85 o
3 -3 8 228.45 221.66 2.31 o
4 -3 8 517.67 527.29 3.96 o
5 -3 8 38.35 38.89 1.76 o
-6 -2 8 268.40 242.91 3.10 o
-5 -2 8 145.18 158.04 3.23 o
-4 -2 8 19.39 17.85 1.53 o
-3 -2 8 738.72 768.35 5.44 o
-2 -2 8 73.25 89.79 1.42 o
-1 -2 8 426.36 448.03 2.69 o
0 -2 8 827.53 849.47 4.13 o
1 -2 8 42.32 47.49 1.27 o
2 -2 8 6.03 4.03 0.81 o
3 -2 8 79.22 86.15 1.70 o
4 -2 8 12.42 13.92 1.48 o
5 -2 8 1070.64 1073.00 7.36 o
-6 -1 8 87.61 77.95 2.91 o
-5 -1 8 184.79 188.90 3.51 o
-4 -1 8 276.66 273.56 3.81 o
-3 -1 8 132.59 136.14 1.85 o
-2 -1 8 0.06 -0.81 1.04 <
-1 -1 8 176.10 187.64 1.66 o
0 -1 8 111.83 119.13 2.57 o
1 -1 8 147.30 140.97 1.66 o
2 -1 8 71.66 68.20 1.15 o
3 -1 8 208.12 207.20 2.12 o
4 -1 8 74.45 79.63 2.71 o
5 -1 8 177.50 184.76 4.19 o
-6 0 8 23.58 32.99 1.88 o
-5 0 8 704.42 741.38 7.98 o
-4 0 8 352.28 353.96 4.27 o
-3 0 8 715.41 766.70 4.50 o
-2 0 8 118.75 150.08 1.98 o
-1 0 8 33.65 31.50 1.10 o
0 0 8 2227.88 2467.48 7.55 o
1 0 8 347.91 363.96 2.49 o
2 0 8 5.14 5.27 0.88 o
3 0 8 79.61 81.08 2.23 o
4 0 8 781.77 780.55 6.58 o
5 0 8 25.47 33.45 1.76 o
-6 1 8 153.35 157.95 3.69 o
-5 1 8 323.75 354.44 5.57 o
-4 1 8 41.63 38.93 1.58 o
-3 1 8 164.51 176.14 2.68 o
-2 1 8 189.24 194.84 1.63 o
-1 1 8 582.04 536.89 2.56 o
0 1 8 15.26 9.53 0.89 o
1 1 8 123.82 133.94 1.54 o
2 1 8 67.43 61.94 1.30 o
3 1 8 282.82 276.62 2.67 o
4 1 8 191.75 177.23 2.37 o
5 1 8 13.86 9.91 1.65 o
-6 2 8 378.16 352.11 4.80 o
-5 2 8 4.62 1.27 1.42 <
-4 2 8 1006.50 1045.40 5.86 o
-3 2 8 34.09 43.22 1.39 o
-2 2 8 2924.74 2916.63 7.37 o
-1 2 8 41.63 50.29 1.21 o
0 2 8 1200.38 1311.00 5.34 o
1 2 8 2141.06 2219.78 6.51 o
2 2 8 1347.54 1346.57 5.25 o
3 2 8 36.28 34.80 1.85 o
4 2 8 330.62 320.49 5.18 o
5 2 8 0.93 1.90 2.29 <
-5 3 8 22.11 20.30 1.79 o
-4 3 8 22.79 23.11 1.80 o
-3 3 8 92.18 84.67 1.85 o
-2 3 8 1279.33 1269.98 5.56 o
-1 3 8 0.79 1.51 1.05 <
0 3 8 396.91 404.16 2.98 o
1 3 8 745.52 766.15 4.27 o
2 3 8 804.68 832.26 4.54 o
3 3 8 198.58 202.72 4.47 o
4 3 8 413.12 432.01 5.76 o
-5 4 8 2.57 13.38 2.78 o
-4 4 8 0.03 2.08 1.78 <
-3 4 8 87.02 86.88 2.04 o
-2 4 8 748.24 770.82 4.48 o
-1 4 8 218.45 230.41 2.76 o
0 4 8 138.96 137.58 2.36 o
1 4 8 24.32 23.70 1.63 o
2 4 8 71.30 71.02 2.16 o
3 4 8 687.13 701.39 6.84 o
-4 5 8 75.63 70.60 2.40 o
-3 5 8 5.62 3.58 2.29 <
-2 5 8 153.30 143.00 3.46 o
-1 5 8 126.95 127.80 3.19 o
0 5 8 316.51 317.00 4.51 o
1 5 8 5.87 2.96 1.89 <
2 5 8 10.08 7.78 1.93 o
-1 6 8 221.43 216.17 4.86 o
0 6 8 30.31 26.40 2.13 o
-2 -6 9 173.06 161.66 3.21 o
-1 -6 9 76.08 73.25 1.96 o
0 -6 9 25.41 19.14 2.51 o
1 -6 9 318.64 320.05 5.02 o
2 -6 9 166.29 161.54 2.84 o
3 -6 9 176.94 173.38 2.40 o
-4 -5 9 22.83 18.74 1.88 o
-3 -5 9 3.50 1.34 2.29 <
-2 -5 9 177.18 181.63 4.25 o
-1 -5 9 332.08 326.94 4.14 o
0 -5 9 406.32 414.27 4.68 o
1 -5 9 0.47 1.59 1.54 <
2 -5 9 667.76 674.65 5.92 o
3 -5 9 60.86 56.48 1.92 o
4 -5 9 258.90 254.11 4.37 o
-4 -4 9 0.08 0.42 1.50 <
-3 -4 9 13.53 16.19 1.76 o
-2 -4 9 0.01 1.00 1.63 <
-1 -4 9 2.87 0.14 1.40 <
0 -4 9 8.55 9.82 1.29 o
1 -4 9 107.60 107.56 2.70 o
2 -4 9 736.60 745.85 5.41 o
3 -4 9 0.46 -0.20 1.37 <
4 -4 9 38.54 42.05 1.82 o
-5 -3 9 1.74 1.25 1.74 <
-4 -3 9 795.17 847.13 5.99 o
-3 -3 9 95.06 99.61 2.45 o
-2 -3 9 77.14 84.25 2.09 o
-1 -3 9 1885.71 1949.27 8.80 o
0 -3 9 552.19 600.98 3.43 o
1 -3 9 228.81 239.05 2.59 o
2 -3 9 16.99 18.30 1.18 o
3 -3 9 285.01 296.17 2.66 o
4 -3 9 73.67 80.88 1.87 o
5 -3 9 39.76 39.11 1.82 o
-6 -2 9 83.71 81.25 2.59 o
-5 -2 9 70.07 69.31 2.15 o
-4 -2 9 137.76 140.48 2.54 o
-3 -2 9 134.53 131.28 1.92 o
-2 -2 9 625.63 620.56 3.73 o
-1 -2 9 808.58 833.00 3.74 o
0 -2 9 214.61 216.19 2.19 o
1 -2 9 74.34 73.17 1.19 o
2 -2 9 23.88 20.50 0.99 o
3 -2 9 3.30 4.69 1.00 o
4 -2 9 63.67 65.21 2.05 o
5 -2 9 0.03 -1.95 1.69 <
-6 -1 9 18.76 18.89 1.60 o
-5 -1 9 663.29 645.45 6.65 o
-4 -1 9 169.84 171.92 2.63 o
-3 -1 9 1.01 1.02 1.11 <
-2 -1 9 2.37 4.94 0.91 o
-1 -1 9 2.49 0.44 0.86 <
0 -1 9 998.19 954.26 4.57 o
1 -1 9 64.51 73.68 1.27 o
2 -1 9 193.40 206.13 2.11 o
3 -1 9 154.15 160.31 2.80 o
4 -1 9 4.77 3.32 1.75 <
5 -1 9 21.14 19.50 1.82 o
-6 0 9 15.31 13.85 1.68 o
-5 0 9 180.81 186.90 4.45 o
-4 0 9 1.57 2.15 1.63 <
-3 0 9 16.95 17.49 1.35 o
-2 0 9 4.78 5.27 0.89 o
-1 0 9 240.55 222.73 1.92 o
0 0 9 257.75 253.76 2.22 o
1 0 9 542.76 534.59 3.56 o
2 0 9 73.70 64.25 1.63 o
3 0 9 3.29 2.55 1.77 <
4 0 9 39.91 34.16 1.77 o
5 0 9 65.85 65.07 2.65 o
-6 1 9 174.65 178.40 3.82 o
-5 1 9 442.18 430.59 5.06 o
-4 1 9 533.65 539.03 4.58 o
-3 1 9 0.67 -0.43 1.36 <
-2 1 9 606.07 633.80 2.93 o
-1 1 9 1520.80 1609.07 4.72 o
0 1 9 1417.17 1501.98 6.16 o
1 1 9 3.00 1.31 0.89 <
2 1 9 106.37 105.83 1.79 o
3 1 9 742.99 777.89 4.74 o
4 1 9 252.16 258.45 3.08 o
5 1 9 79.08 83.13 2.79 o
-6 2 9 0.58 8.43 2.28 o
-5 2 9 88.91 86.47 2.21 o
-4 2 9 89.93 81.28 2.12 o
-3 2 9 201.21 182.13 2.39 o
-2 2 9 67.80 58.55 1.29 o
-1 2 9 692.43 712.11 3.87 o
0 2 9 1003.45 1068.57 5.09 o
1 2 9 19.17 20.86 1.29 o
2 2 9 88.41 90.02 1.73 o
3 2 9 426.81 417.50 4.91 o
4 2 9 130.05 131.38 3.76 o
-5 3 9 298.78 269.02 5.18 o
-4 3 9 1651.09 1667.85 7.83 o
-3 3 9 507.26 510.88 4.07 o
-2 3 9 232.61 244.76 2.74 o
-1 3 9 153.19 137.72 2.06 o
0 3 9 770.66 817.20 4.33 o
1 3 9 225.50 253.65 2.68 o
2 3 9 64.05 69.05 1.69 o
3 3 9 76.22 88.48 3.12 o
4 3 9 40.64 39.67 2.14 o
-5 4 9 1.33 2.06 1.95 <
-4 4 9 802.81 778.48 8.11 o
-3 4 9 497.54 496.85 5.88 o
-2 4 9 293.69 303.96 3.22 o
-1 4 9 236.69 234.98 3.10 o
0 4 9 480.78 509.47 4.04 o
1 4 9 92.48 88.94 2.15 o
2 4 9 48.00 44.18 2.56 o
3 4 9 11.59 8.32 1.80 o
-4 5 9 85.04 83.09 2.72 o
-3 5 9 34.19 26.74 2.40 o
-2 5 9 184.65 189.16 4.44 o
-1 5 9 78.25 76.55 3.34 o
0 5 9 1.62 1.79 1.75 <
1 5 9 285.66 302.32 5.09 o
-2 -6 10 203.83 187.83 4.74 o
-1 -6 10 13.19 5.59 1.74 o
0 -6 10 0.18 -2.17 2.38 <
1 -6 10 0.06 1.30 1.82 <
2 -6 10 4.63 4.42 1.51 <
3 -6 10 144.08 130.48 3.84 o
-4 -5 10 249.17 276.78 5.48 o
-3 -5 10 109.89 101.53 2.81 o
-2 -5 10 35.04 31.47 2.27 o
-1 -5 10 14.76 14.20 1.46 o
0 -5 10 39.02 38.78 2.18 o
1 -5 10 16.07 19.67 1.69 o
2 -5 10 4.27 4.40 1.50 <
3 -5 10 17.68 12.71 1.75 o
4 -5 10 8.06 7.93 2.01 o
-4 -4 10 18.44 18.60 1.59 o
-3 -4 10 1308.07 1369.01 6.68 o
-2 -4 10 45.18 47.12 2.56 o
-1 -4 10 78.89 79.66 2.52 o
0 -4 10 99.58 88.14 2.17 o
1 -4 10 266.78 276.45 3.91 o
2 -4 10 307.91 309.28 3.40 o
3 -4 10 296.16 325.82 3.50 o
4 -4 10 0.72 1.89 1.55 <
-5 -3 10 31.21 32.46 1.98 o
-4 -3 10 66.65 62.28 2.16 o
-3 -3 10 681.06 689.72 4.72 o
-2 -3 10 36.56 30.67 1.32 o
-1 -3 10 312.85 323.30 3.01 o
0 -3 10 183.96 182.15 2.16 o
1 -3 10 39.08 35.24 1.51 o
2 -3 10 88.51 88.49 1.76 o
3 -3 10 602.27 629.74 4.08 o
4 -3 10 132.88 134.60 2.20 o
5 -3 10 192.99 190.20 3.50 o
-6 -2 10 19.27 26.71 3.16 o
-5 -2 10 417.85 421.47 4.93 o
-4 -2 10 511.78 532.52 4.06 o
-3 -2 10 111.72 132.24 2.16 o
-2 -2 10 940.75 958.81 4.78 o
-1 -2 10 194.19 231.45 2.23 o
0 -2 10 1271.94 1323.78 6.17 o
1 -2 10 264.79 243.56 2.02 o
2 -2 10 0.93 1.60 0.90 <
3 -2 10 243.95 258.86 2.50 o
4 -2 10 724.05 726.96 6.48 o
5 -2 10 30.62 38.35 1.89 o
-6 -1 10 52.25 58.42 2.03 o
-5 -1 10 237.00 249.61 4.93 o
-4 -1 10 27.26 26.90 1.55 o
-3 -1 10 1.43 1.15 1.21 <
-2 -1 10 603.33 621.11 3.68 o
-1 -1 10 315.96 336.47 2.38 o
0 -1 10 201.93 216.79 2.54 o
1 -1 10 45.02 46.68 1.31 o
2 -1 10 11.23 10.69 1.17 o
3 -1 10 2.15 1.36 1.42 <
4 -1 10 611.20 622.23 6.05 o
5 -1 10 7.82 7.46 1.76 o
-6 0 10 264.03 249.81 4.29 o
-5 0 10 3.69 4.41 1.78 <
-4 0 10 34.62 44.94 2.20 o
-3 0 10 112.02 133.62 2.34 o
-2 0 10 2130.50 2262.16 7.51 o
-1 0 10 1653.95 1839.77 5.46 o
0 0 10 51.34 63.80 1.44 o
1 0 10 156.36 139.08 2.17 o
2 0 10 4.91 3.97 1.10 o
3 0 10 1245.77 1214.69 9.61 o
4 0 10 0.64 3.85 1.74 <
5 0 10 554.89 568.93 5.91 o
-6 1 10 322.35 336.34 4.75 o
-5 1 10 78.50 90.36 2.78 o
-4 1 10 54.83 55.37 1.97 o
-3 1 10 38.96 35.68 1.62 o
-2 1 10 467.74 467.11 3.53 o
-1 1 10 26.55 37.03 1.28 o
0 1 10 221.29 217.11 2.42 o
1 1 10 0.18 1.17 1.30 <
2 1 10 42.97 36.95 1.57 o
3 1 10 50.87 45.01 1.56 o
4 1 10 10.22 10.33 1.37 o
-6 2 10 66.68 69.98 2.33 o
-5 2 10 390.13 409.93 4.03 o
-4 2 10 936.85 1016.93 6.83 o
-3 2 10 417.05 426.64 3.51 o
-2 2 10 53.21 61.83 1.30 o
-1 2 10 773.09 831.66 4.35 o
0 2 10 2.88 1.82 1.13 <
1 2 10 276.43 271.81 3.08 o
2 2 10 762.79 772.34 4.97 o
3 2 10 825.98 836.47 6.94 o
4 2 10 112.59 99.96 2.96 o
-5 3 10 54.22 51.84 2.63 o
-4 3 10 114.29 110.95 3.10 o
-3 3 10 468.37 463.71 3.90 o
-2 3 10 221.29 221.86 2.32 o
-1 3 10 64.44 68.56 1.82 o
0 3 10 49.82 54.81 1.45 o
1 3 10 350.69 359.14 3.18 o
2 3 10 690.64 693.02 4.38 o
3 3 10 843.24 833.87 7.45 o
-5 4 10 3.79 2.88 1.94 <
-4 4 10 128.42 124.26 3.53 o
-3 4 10 42.75 45.25 2.42 o
-2 4 10 124.43 118.85 2.47 o
-1 4 10 0.34 0.69 1.33 <
0 4 10 4.49 3.28 1.47 <
1 4 10 264.45 270.11 4.18 o
2 4 10 27.61 27.34 2.24 o
-4 5 10 85.95 72.15 2.81 o
-3 5 10 4.71 2.78 1.88 <
-2 5 10 6.04 3.87 1.67 <
-1 5 10 88.24 87.37 2.56 o
0 5 10 150.27 158.67 3.54 o
1 5 10 207.64 213.65 4.77 o
-2 -6 11 144.45 135.06 3.96 o
-1 -6 11 42.60 38.63 1.81 o
0 -6 11 5.35 0.64 2.42 <
1 -6 11 161.26 161.14 3.62 o
2 -6 11 298.98 280.65 3.42 o
-3 -5 11 47.01 48.79 3.59 o
-2 -5 11 17.83 17.42 3.30 o
-1 -5 11 8.20 8.82 1.85 o
0 -5 11 108.56 104.12 3.68 o
1 -5 11 424.79 424.79 4.29 o
2 -5 11 87.66 86.51 2.58 o
3 -5 11 351.97 366.82 5.36 o
4 -5 11 5.91 9.92 2.02 o
-4 -4 11 0.07 2.58 2.23 <
-3 -4 11 15.75 15.15 2.24 o
-2 -4 11 0.44 -2.69 2.23 <
-1 -4 11 0.13 0.36 1.64 <
0 -4 11 29.02 25.79 1.75 o
1 -4 11 388.25 390.16 5.65 o
2 -4 11 317.02 313.46 3.45 o
3 -4 11 52.88 52.16 1.97 o
4 -4 11 45.38 45.64 1.82 o
-5 -3 11 523.02 533.18 6.45 o
-4 -3 11 261.66 260.15 4.16 o
-3 -3 11 0.87 -0.02 1.50 <
-2 -3 11 84.21 79.26 2.08 o
-1 -3 11 44.06 46.01 1.64 o
0 -3 11 95.90 84.37 1.77 o
1 -3 11 4.75 9.42 1.19 o
2 -3 11 277.74 271.54 2.81 o
3 -3 11 118.28 122.39 2.63 o
4 -3 11 43.48 47.98 1.83 o
-5 -2 11 365.59 362.19 4.54 o
-4 -2 11 6.58 5.29 1.43 o
-3 -2 11 62.16 65.93 1.60 o
-2 -2 11 199.26 201.29 2.29 o
-1 -2 11 171.29 159.84 2.60 o
0 -2 11 26.31 22.88 1.54 o
1 -2 11 366.95 381.86 3.02 o
2 -2 11 1.48 1.76 1.17 <
3 -2 11 111.89 112.05 2.24 o
4 -2 11 1.95 3.40 1.80 <
5 -2 11 16.96 23.07 2.05 o
-6 -1 11 480.63 542.92 4.79 o
-5 -1 11 92.77 75.07 3.08 o
-4 -1 11 1638.44 1701.56 8.96 o
-3 -1 11 4.99 6.59 1.18 o
-2 -1 11 346.89 342.57 2.71 o
-1 -1 11 882.06 888.83 5.99 o
0 -1 11 1381.59 1411.93 9.06 o
1 -1 11 668.94 745.61 4.95 o
2 -1 11 8.03 6.56 1.23 o
3 -1 11 395.47 418.85 4.35 o
4 -1 11 17.37 17.34 1.83 o
5 -1 11 23.99 22.20 1.85 o
-6 0 11 38.45 41.13 2.24 o
-5 0 11 18.91 24.66 2.04 o
-4 0 11 695.80 718.67 6.41 o
-3 0 11 8.43 7.25 1.41 o
-2 0 11 46.89 46.01 1.66 o
-1 0 11 852.91 879.82 4.08 o
0 0 11 962.98 1008.15 4.81 o
1 0 11 0.86 2.00 1.19 <
2 0 11 133.22 137.07 2.40 o
3 0 11 82.09 78.19 2.67 o
4 0 11 46.63 42.80 2.14 o
5 0 11 59.72 73.49 2.84 o
-6 1 11 8.29 8.77 1.97 o
-5 1 11 662.23 648.13 6.04 o
-4 1 11 1029.45 1033.60 6.46 o
-3 1 11 3.36 5.01 1.42 o
-2 1 11 408.88 409.07 3.11 o
-1 1 11 343.42 365.24 3.69 o
0 1 11 0.66 2.76 1.21 <
1 1 11 1847.79 1988.10 9.93 o
2 1 11 484.95 496.08 4.91 o
3 1 11 96.67 93.58 2.69 o
4 1 11 3.57 7.38 1.65 o
-5 2 11 33.82 30.17 1.62 o
-4 2 11 209.64 201.49 3.22 o
-3 2 11 201.71 190.97 2.73 o
-2 2 11 0.02 -0.36 0.90 <
-1 2 11 329.31 338.58 3.31 o
0 2 11 93.33 91.55 2.11 o
1 2 11 185.79 191.66 2.78 o
2 2 11 222.87 213.94 3.23 o
3 2 11 308.51 317.05 4.38 o
4 2 11 4.39 3.58 3.56 <
-5 3 11 209.84 208.79 3.99 o
-4 3 11 7.12 5.10 2.19 <
-3 3 11 1.49 1.02 1.80 <
-2 3 11 268.01 277.63 2.53 o
-1 3 11 55.80 55.42 1.77 o
0 3 11 0.87 0.18 1.17 <
1 3 11 20.69 20.98 1.47 o
2 3 11 8.36 11.38 1.50 o
3 3 11 0.75 1.98 2.11 <
-4 4 11 185.79 201.58 4.17 o
-3 4 11 4.48 3.64 1.85 <
-2 4 11 213.71 208.71 3.52 o
-1 4 11 196.92 191.12 2.73 o
0 4 11 154.34 149.93 2.64 o
1 4 11 77.81 74.65 2.14 o
2 4 11 14.95 11.31 2.08 o
-3 5 11 725.05 685.51 7.73 o
-2 5 11 4.07 6.00 1.69 o
-1 5 11 79.87 79.47 2.36 o
0 5 11 34.00 36.10 1.88 o
-1 -6 12 19.28 13.77 3.70 o
0 -6 12 195.73 184.19 3.49 o
1 -6 12 5.24 4.61 2.25 <
2 -6 12 3.72 -0.34 2.02 <
-3 -5 12 172.94 179.71 3.83 o
-2 -5 12 33.04 24.92 2.55 o
-1 -5 12 84.64 85.01 2.51 o
0 -5 12 2.14 -3.31 2.18 <
1 -5 12 8.26 3.67 1.59 <
2 -5 12 7.91 6.46 1.47 o
3 -5 12 17.29 16.88 1.51 o
-4 -4 12 199.77 217.91 3.99 o
-3 -4 12 15.72 15.55 2.52 o
-2 -4 12 798.57 830.87 11.68 o
-1 -4 12 276.51 271.87 5.30 o
0 -4 12 225.90 237.27 3.91 o
1 -4 12 45.28 48.82 1.86 o
2 -4 12 27.70 27.45 1.56 o
3 -4 12 369.79 368.89 4.38 o
4 -4 12 312.84 310.05 7.28 o
-5 -3 12 1.30 2.16 2.40 <
-4 -3 12 100.55 92.75 3.50 o
-3 -3 12 243.59 251.93 3.02 o
-2 -3 12 597.70 622.40 7.44 o
-1 -3 12 4.28 5.47 1.32 o
0 -3 12 548.74 544.81 4.25 o
1 -3 12 9.44 9.25 1.21 o
2 -3 12 1.03 0.55 1.16 <
3 -3 12 22.74 22.04 1.38 o
4 -3 12 528.61 540.44 6.21 o
-5 -2 12 163.15 172.30 3.15 o
-4 -2 12 587.57 586.81 4.89 o
-3 -2 12 213.32 209.54 2.47 o
-2 -2 12 147.39 165.46 2.19 o
-1 -2 12 1786.60 1857.69 8.19 o
0 -2 12 130.65 121.87 2.49 o
1 -2 12 99.71 92.58 1.84 o
2 -2 12 263.77 275.97 3.25 o
3 -2 12 917.78 969.95 7.58 o
4 -2 12 1.18 -0.66 1.78 <
-6 -1 12 23.18 20.61 1.98 o
-5 -1 12 1.26 0.53 1.63 <
-4 -1 12 12.31 10.75 1.37 o
-3 -1 12 71.61 69.90 1.77 o
-2 -1 12 30.86 27.73 1.23 o
-1 -1 12 202.83 207.04 3.98 o
0 -1 12 53.47 53.89 1.75 o
1 -1 12 170.41 164.00 2.19 o
2 -1 12 106.88 103.87 2.11 o
3 -1 12 525.08 545.03 5.68 o
4 -1 12 14.05 17.99 1.74 o
-6 0 12 257.82 286.42 4.25 o
-5 0 12 197.55 199.94 3.00 o
-4 0 12 624.24 644.50 6.17 o
-3 0 12 1.16 1.55 1.33 <
-2 0 12 68.11 77.75 2.02 o
-1 0 12 18.83 13.89 1.37 o
0 0 12 180.20 183.22 2.75 o
1 0 12 0.40 3.37 1.35 <
2 0 12 275.08 272.82 3.36 o
3 0 12 14.76 12.97 1.85 o
4 0 12 886.74 912.53 6.64 o
-6 1 12 381.15 442.27 6.46 o
-5 1 12 137.49 140.98 3.09 o
-4 1 12 272.64 278.24 3.61 o
-3 1 12 269.06 263.19 3.38 o
-2 1 12 47.95 40.86 1.60 o
-1 1 12 3.24 4.89 1.30 o
0 1 12 61.58 57.69 1.78 o
1 1 12 31.39 36.62 2.17 o
2 1 12 281.20 261.47 3.83 o
3 1 12 228.80 235.83 3.82 o
4 1 12 309.86 297.71 4.68 o
-5 2 12 143.69 156.01 3.03 o
-4 2 12 7.13 7.41 1.56 o
-3 2 12 479.31 501.34 4.13 o
-2 2 12 406.88 416.59 4.86 o
-1 2 12 121.39 123.48 2.37 o
0 2 12 11.83 12.47 1.76 o
1 2 12 875.87 925.02 5.89 o
2 2 12 0.33 1.05 1.72 <
3 2 12 43.70 46.53 2.63 o
-5 3 12 22.13 20.45 1.94 o
-4 3 12 1.12 0.42 2.01 <
-3 3 12 379.42 386.28 4.93 o
-2 3 12 571.00 585.80 3.75 o
-1 3 12 0.57 1.12 1.27 <
0 3 12 31.49 32.87 1.42 o
1 3 12 1173.10 1243.96 5.97 o
2 3 12 21.09 20.23 1.85 o
-4 4 12 198.89 194.87 4.78 o
-3 4 12 56.15 51.80 2.23 o
-2 4 12 35.71 30.47 1.90 o
-1 4 12 3.70 3.76 1.29 <
0 4 12 400.57 440.52 4.77 o
1 4 12 71.12 73.95 2.66 o
0 -6 13 6.86 7.52 2.01 o
1 -6 13 370.46 352.26 6.31 o
-3 -5 13 0.34 3.62 2.15 <
-2 -5 13 42.80 45.32 2.62 o
-1 -5 13 10.08 8.41 1.62 o
0 -5 13 21.62 21.39 2.43 o
1 -5 13 52.07 50.37 2.82 o
2 -5 13 163.89 168.61 4.01 o
3 -5 13 179.51 176.41 3.54 o
-4 -4 13 281.22 287.50 5.81 o
-3 -4 13 3.81 2.66 2.30 <
-2 -4 13 0.56 -0.14 2.31 <
-1 -4 13 15.46 12.00 1.87 o
0 -4 13 130.04 124.92 3.13 o
1 -4 13 1.69 -0.18 1.76 <
2 -4 13 276.14 287.45 3.05 o
3 -4 13 145.10 135.39 3.16 o
-4 -3 13 481.52 507.34 6.10 o
-3 -3 13 273.18 268.68 3.10 o
-2 -3 13 241.14 220.16 4.62 o
-1 -3 13 0.23 0.34 1.36 <
0 -3 13 19.94 23.82 1.65 o
1 -3 13 2062.56 2151.30 8.55 o
2 -3 13 321.20 314.07 3.49 o
3 -3 13 6.91 8.00 1.53 o
4 -3 13 60.74 65.59 2.43 o
-5 -2 13 32.05 33.86 1.82 o
-4 -2 13 228.64 227.02 3.72 o
-3 -2 13 12.88 8.94 1.25 o
-2 -2 13 1.95 2.59 1.18 <
-1 -2 13 34.07 30.81 1.89 o
0 -2 13 25.19 28.21 1.64 o
1 -2 13 131.03 127.21 2.61 o
2 -2 13 16.12 12.75 1.63 o
3 -2 13 128.99 135.92 2.69 o
4 -2 13 25.08 25.75 2.08 o
-5 -1 13 725.06 713.51 7.02 o
-4 -1 13 107.40 102.86 2.09 o
-3 -1 13 36.18 35.54 1.55 o
-2 -1 13 1358.26 1389.93 7.11 o
-1 -1 13 760.42 735.68 7.54 o
0 -1 13 194.23 174.97 2.68 o
1 -1 13 632.08 637.57 4.51 o
2 -1 13 75.65 73.52 2.62 o
3 -1 13 16.98 17.91 2.02 o
4 -1 13 112.86 102.69 2.55 o
-5 0 13 375.24 380.58 4.48 o
-4 0 13 90.92 103.97 2.91 o
-3 0 13 6.65 5.46 1.45 o
-2 0 13 546.70 538.55 4.54 o
-1 0 13 1069.67 1060.71 7.04 o
0 0 13 586.68 562.18 5.35 o
1 0 13 418.98 417.28 4.72 o
2 0 13 285.33 277.21 3.45 o
3 0 13 74.96 71.12 2.48 o
4 0 13 8.35 7.85 1.75 o
-5 1 13 7.11 11.22 1.64 o
-4 1 13 9.98 7.13 1.48 o
-3 1 13 477.27 506.28 5.17 o
-2 1 13 55.31 53.84 1.70 o
-1 1 13 56.32 64.24 2.17 o
0 1 13 6.63 6.04 1.59 o
1 1 13 276.92 270.94 3.75 o
2 1 13 128.78 134.12 2.94 o
3 1 13 161.81 162.98 2.77 o
-5 2 13 13.42 11.36 1.48 o
-4 2 13 59.99 56.87 1.98 o
-3 2 13 67.15 68.57 2.19 o
-2 2 13 186.97 173.84 4.13 o
-1 2 13 106.06 123.12 2.64 o
0 2 13 1.10 0.35 1.72 <
1 2 13 32.01 28.76 1.96 o
2 2 13 59.01 58.10 2.48 o
3 2 13 356.75 363.15 5.24 o
-4 3 13 0.28 0.24 1.90 <
-3 3 13 780.88 802.55 8.02 o
-2 3 13 217.36 218.44 3.14 o
-1 3 13 19.32 15.19 1.73 o
0 3 13 126.20 136.61 2.59 o
1 3 13 5.36 9.40 1.85 o
2 3 13 358.39 378.54 5.50 o
-4 4 13 58.41 52.37 2.63 o
-3 4 13 194.56 188.02 3.68 o
-2 4 13 111.38 115.34 3.05 o
-1 4 13 278.22 280.82 3.58 o
0 4 13 20.28 20.55 1.50 o
-3 -5 14 70.25 69.50 3.17 o
-2 -5 14 22.28 22.35 2.25 o
-1 -5 14 1.99 1.78 1.66 <
0 -5 14 33.73 37.85 2.11 o
1 -5 14 59.70 53.30 2.77 o
2 -5 14 109.87 104.97 2.60 o
-4 -4 14 246.43 259.07 5.32 o
-3 -4 14 19.30 16.92 2.30 o
-2 -4 14 97.57 96.79 3.55 o
-1 -4 14 63.01 63.73 2.50 o
0 -4 14 23.56 16.44 1.62 o
1 -4 14 54.23 57.68 3.18 o
2 -4 14 5.92 6.50 1.79 o
3 -4 14 2.47 -2.94 1.93 <
-4 -3 14 107.42 106.59 3.10 o
-3 -3 14 99.10 100.54 3.59 o
-2 -3 14 80.57 81.85 2.89 o
-1 -3 14 101.80 100.70 2.30 o
0 -3 14 117.80 126.45 2.35 o
1 -3 14 22.69 25.01 1.90 o
2 -3 14 45.26 44.35 1.81 o
3 -3 14 146.83 152.22 3.03 o
4 -3 14 40.16 40.56 2.24 o
-5 -2 14 143.18 154.74 2.69 o
-4 -2 14 74.26 75.27 2.02 o
-3 -2 14 834.28 845.17 4.67 o
-2 -2 14 718.64 759.55 5.61 o
-1 -2 14 949.14 982.37 5.76 o
0 -2 14 457.69 462.78 4.60 o
1 -2 14 535.61 560.08 4.00 o
2 -2 14 41.78 42.33 1.92 o
3 -2 14 101.59 102.74 2.67 o
4 -2 14 972.22 1047.74 7.95 o
-5 -1 14 27.25 28.03 1.93 o
-4 -1 14 4.81 5.04 1.36 o
-3 -1 14 241.70 260.60 3.46 o
-2 -1 14 624.14 641.68 5.98 o
-1 -1 14 317.34 320.56 5.41 o
0 -1 14 88.65 86.52 2.22 o
1 -1 14 1246.65 1285.16 7.25 o
2 -1 14 7.32 6.65 1.80 o
3 -1 14 76.00 81.59 3.20 o
4 -1 14 690.13 754.91 6.71 o
-5 0 14 138.40 152.64 2.93 o
-4 0 14 15.76 16.06 1.78 o
-3 0 14 352.22 350.42 3.95 o
-2 0 14 328.92 346.84 5.20 o
-1 0 14 68.71 75.85 2.50 o
0 0 14 495.97 483.20 6.33 o
1 0 14 718.76 722.41 7.23 o
2 0 14 282.43 286.71 3.10 o
3 0 14 261.94 282.12 3.42 o
-5 1 14 117.88 128.24 2.66 o
-4 1 14 71.20 62.94 2.05 o
-3 1 14 661.71 680.77 5.86 o
-2 1 14 732.66 749.71 5.48 o
-1 1 14 14.74 13.53 1.60 o
0 1 14 90.44 90.38 2.43 o
1 1 14 665.00 702.04 6.16 o
2 1 14 49.70 51.08 1.95 o
3 1 14 3.87 2.29 1.60 <
-4 2 14 298.46 299.05 4.92 o
-3 2 14 71.78 66.06 3.10 o
-2 2 14 201.34 220.56 3.75 o
-1 2 14 56.36 53.56 2.15 o
0 2 14 326.84 325.59 3.62 o
1 2 14 107.08 119.88 2.78 o
2 2 14 301.63 297.76 4.12 o
-4 3 14 87.09 90.80 2.78 o
-3 3 14 168.09 172.82 3.95 o
-2 3 14 23.41 17.18 1.76 o
-1 3 14 1.76 2.76 1.59 <
0 3 14 132.19 134.69 3.22 o
1 3 14 13.75 13.50 1.82 o
-3 4 14 144.12 136.31 3.63 o
-2 4 14 477.48 515.54 5.53 o
-1 4 14 9.89 14.30 2.14 o
0 4 14 0.73 3.98 3.43 <
-2 -5 15 240.91 257.42 4.14 o
-1 -5 15 11.58 8.04 1.70 o
0 -5 15 10.34 4.67 2.17 <
1 -5 15 376.53 403.33 5.72 o
2 -5 15 12.01 13.45 2.66 o
-3 -4 15 39.07 35.37 2.47 o
-2 -4 15 75.14 76.11 3.24 o
-1 -4 15 29.44 26.42 2.01 o
0 -4 15 54.30 50.63 2.07 o
1 -4 15 122.51 112.45 3.72 o
2 -4 15 66.51 69.18 2.40 o
-4 -3 15 332.39 340.58 6.29 o
-3 -3 15 510.27 551.52 6.61 o
-2 -3 15 59.53 64.45 2.60 o
-1 -3 15 34.59 34.84 1.74 o
0 -3 15 89.42 86.10 2.22 o
1 -3 15 416.49 436.49 4.06 o
2 -3 15 281.70 277.98 3.78 o
3 -3 15 337.09 360.39 4.12 o
-4 -2 15 0.17 -0.71 1.50 <
-3 -2 15 283.02 281.76 4.02 o
-2 -2 15 143.80 145.50 2.82 o
-1 -2 15 4.24 5.79 1.67 o
0 -2 15 0.37 -0.18 1.62 <
1 -2 15 72.31 62.85 2.40 o
2 -2 15 46.94 45.85 2.17 o
3 -2 15 501.32 514.15 6.20 o
-5 -1 15 296.39 312.05 4.43 o
-4 -1 15 69.44 67.70 1.89 o
-3 -1 15 1090.68 1141.86 9.69 o
-2 -1 15 13.34 12.79 2.58 o
-1 -1 15 376.88 374.46 6.09 o
0 -1 15 1.16 -1.80 1.56 <
1 -1 15 374.00 358.35 4.64 o
2 -1 15 5.47 9.24 1.78 o
3 -1 15 200.21 222.07 4.24 o
-5 0 15 302.95 319.49 4.64 o
-4 0 15 182.64 194.47 3.39 o
-3 0 15 517.33 509.04 4.60 o
-2 0 15 3.39 2.22 1.92 <
-1 0 15 1311.91 1363.16 10.78 o
0 0 15 70.20 73.56 2.57 o
1 0 15 513.62 494.92 4.62 o
2 0 15 84.13 86.26 2.14 o
3 0 15 490.62 472.28 5.45 o
-5 1 15 28.18 36.42 2.18 o
-4 1 15 11.85 14.38 1.43 o
-3 1 15 179.57 171.60 3.97 o
-2 1 15 958.15 962.93 8.99 o
-1 1 15 10.22 9.63 1.92 o
0 1 15 407.88 416.61 6.32 o
1 1 15 30.97 38.19 2.11 o
2 1 15 505.54 510.61 3.88 o
3 1 15 94.87 115.88 4.43 o
-4 2 15 38.11 36.69 2.24 o
-3 2 15 65.17 50.64 2.73 o
-2 2 15 280.52 284.01 4.00 o
-1 2 15 79.55 71.12 2.65 o
0 2 15 228.65 221.74 3.88 o
1 2 15 42.36 32.00 2.15 o
2 2 15 402.69 412.49 4.44 o
-4 3 15 5.04 8.84 2.00 o
-3 3 15 48.28 47.63 2.42 o
-2 3 15 182.70 162.30 3.26 o
-1 3 15 71.52 81.39 2.39 o
0 3 15 39.49 32.63 2.36 o
1 3 15 381.68 405.70 5.12 o
-1 -5 16 15.19 14.99 2.45 o
0 -5 16 12.44 12.79 1.91 o
1 -5 16 355.31 361.53 4.77 o
-3 -4 16 130.28 135.16 4.38 o
-2 -4 16 41.99 45.11 2.63 o
-1 -4 16 0.92 4.17 1.49 <
0 -4 16 84.33 83.45 3.12 o
1 -4 16 24.55 26.41 1.99 o
2 -4 16 668.84 688.54 6.63 o
-4 -3 16 16.88 21.59 2.73 o
-3 -3 16 222.03 235.97 4.30 o
-2 -3 16 328.90 346.38 4.53 o
-1 -3 16 2.26 3.24 1.41 <
0 -3 16 10.27 9.82 1.55 o
1 -3 16 215.96 223.69 3.15 o
2 -3 16 294.98 283.19 3.68 o
3 -3 16 3.60 1.17 2.25 <
-4 -2 16 267.38 268.91 5.50 o
-3 -2 16 39.54 36.51 2.65 o
-2 -2 16 7.46 11.37 1.63 o
-1 -2 16 1440.05 1486.48 9.25 o
0 -2 16 1203.23 1224.04 9.58 o
1 -2 16 108.13 103.67 2.31 o
2 -2 16 547.32 564.70 6.46 o
3 -2 16 232.76 261.89 4.18 o
-4 -1 16 85.07 85.10 2.28 o
-3 -1 16 39.97 34.07 2.61 o
-2 -1 16 25.69 23.97 2.76 o
-1 -1 16 924.03 904.97 8.98 o
0 -1 16 860.49 852.61 6.01 o
1 -1 16 43.28 50.39 1.91 o
2 -1 16 527.31 547.36 5.37 o
3 -1 16 79.26 87.89 2.68 o
-5 0 16 18.41 14.24 2.06 o
-4 0 16 81.37 105.54 2.69 o
-3 0 16 7.77 6.02 1.78 o
-2 0 16 463.44 463.77 6.48 o
-1 0 16 5.25 5.09 2.26 <
0 0 16 17.60 15.67 1.93 o
1 0 16 77.72 68.28 2.14 o
2 0 16 15.43 8.45 1.97 o
3 0 16 153.05 165.08 3.24 o
-4 1 16 100.35 97.10 2.94 o
-3 1 16 415.21 393.84 4.56 o
-2 1 16 11.31 7.48 2.13 o
-1 1 16 1.02 0.93 1.85 <
0 1 16 75.48 65.24 3.10 o
1 1 16 16.27 16.68 1.58 o
2 1 16 35.23 28.22 1.92 o
-4 2 16 157.27 136.02 3.10 o
-3 2 16 67.18 67.54 2.66 o
-2 2 16 193.02 183.60 3.77 o
-1 2 16 13.61 8.03 2.05 o
0 2 16 30.15 30.57 2.08 o
1 2 16 0.68 6.38 1.80 o
-3 3 16 42.71 42.63 2.53 o
-2 3 16 130.59 125.42 2.86 o
-1 3 16 24.02 22.73 1.67 o
0 3 16 16.62 19.51 2.02 o
-2 -4 17 64.25 67.42 3.37 o
-1 -4 17 228.22 224.47 4.01 o
0 -4 17 11.05 13.31 2.06 o
1 -4 17 131.58 148.30 3.45 o
-3 -3 17 8.58 12.38 2.54 o
-2 -3 17 733.61 736.83 7.17 o
-1 -3 17 0.40 -2.53 1.47 <
0 -3 17 382.11 396.43 4.58 o
1 -3 17 28.05 26.29 1.99 o
2 -3 17 364.45 339.92 4.29 o
-4 -2 17 0.08 0.83 2.80 <
-3 -2 17 1.55 -1.67 2.00 <
-2 -2 17 376.25 360.40 5.55 o
-1 -2 17 91.54 86.68 2.73 o
0 -2 17 298.36 292.65 3.67 o
1 -2 17 15.59 10.30 1.99 o
2 -2 17 337.30 317.18 4.59 o
-4 -1 17 12.71 9.47 2.37 o
-3 -1 17 3.79 6.25 1.94 o
-2 -1 17 887.02 914.36 8.75 o
-1 -1 17 20.40 19.21 2.44 o
0 -1 17 170.54 176.46 3.53 o
1 -1 17 12.95 9.85 1.51 o
2 -1 17 132.51 130.21 3.22 o
-4 0 17 88.73 88.13 2.93 o
-3 0 17 58.60 60.15 2.81 o
-2 0 17 613.33 586.95 7.04 o
-1 0 17 106.60 105.11 3.62 o
0 0 17 455.81 452.88 4.36 o
1 0 17 22.09 20.85 1.51 o
2 0 17 420.75 443.29 5.30 o
-4 1 17 77.44 72.22 2.55 o
-3 1 17 56.83 46.52 1.89 o
-2 1 17 7.97 4.42 2.01 <
-1 1 17 57.30 53.20 2.12 o
0 1 17 1.36 -0.53 1.58 <
1 1 17 669.21 675.17 4.75 o
-3 2 17 76.61 76.17 3.34 o
-2 2 17 5.79 -0.71 1.81 <
-1 2 17 0.89 -0.15 2.10 <
0 2 17 1.88 3.22 1.95 <
1 2 17 363.11 355.46 6.11 o
-1 -4 18 404.03 361.60 5.74 o
0 -4 18 56.22 65.01 3.18 o
1 -4 18 363.44 332.15 5.77 o
-3 -3 18 86.12 90.66 3.68 o
-2 -3 18 8.57 10.29 2.08 o
-1 -3 18 250.58 228.00 3.86 o
0 -3 18 88.09 81.29 1.86 o
1 -3 18 14.02 11.77 1.70 o
-3 -2 18 58.14 65.92 2.48 o
-2 -2 18 552.13 546.98 6.33 o
-1 -2 18 76.34 78.02 3.13 o
0 -2 18 31.67 33.04 1.90 o
1 -2 18 24.11 19.53 1.96 o
2 -2 18 11.96 11.13 1.71 o
-3 -1 18 1.29 2.26 1.88 <
-2 -1 18 438.13 438.21 5.91 o
-1 -1 18 171.17 172.75 4.18 o
0 -1 18 84.71 82.98 2.60 o
1 -1 18 185.82 173.98 2.53 o
2 -1 18 92.90 98.80 3.50 o
-3 0 18 15.16 17.18 1.92 o
-2 0 18 23.83 31.62 2.38 o
-1 0 18 238.06 217.62 4.32 o
0 0 18 262.46 250.59 3.67 o
1 0 18 50.01 61.38 1.73 o
-3 1 18 74.00 84.45 2.62 o
-2 1 18 7.17 2.31 2.04 <
-1 1 18 193.54 200.78 3.85 o
0 1 18 103.28 102.14 2.06 o
1 1 18 23.36 19.32 3.06 o
-2 2 18 4.72 4.94 2.05 <
-1 2 18 8.64 6.23 1.70 o
-2 -3 19 56.06 54.44 3.00 o
-1 -3 19 186.53 171.23 3.13 o
0 -3 19 22.13 21.28 1.68 o
-3 -2 19 25.49 27.24 2.65 o
-2 -2 19 13.83 9.31 2.04 o
-1 -2 19 9.09 7.78 1.48 o
0 -2 19 6.56 4.25 1.40 o
1 -2 19 286.20 273.21 3.91 o
-3 -1 19 0.63 -1.95 2.69 <
-2 -1 19 21.52 22.33 2.11 o
-1 -1 19 23.69 21.34 1.81 o
0 -1 19 16.28 19.50 1.55 o
1 -1 19 176.50 178.28 4.34 o
-2 0 19 0.38 -0.10 2.02 <
-1 0 19 22.55 25.09 1.86 o
0 0 19 3.20 2.09 1.62 <
-2 1 19 132.74 131.62 3.89 o
-1 1 19 24.55 21.52 2.59 o
0 1 19 56.90 60.61 3.07 o
-1 -2 20 193.76 180.28 4.55 o
-2 -1 20 125.39 139.52 4.01 o
-1 -1 20 289.59 306.43 5.77 o
0 -1 20 207.00 214.25 4.59 o
-1 0 20 70.59 74.66 3.24 o
