#------------------------------------------------------------------------------
#$Date: 2016-03-26 21:29:24 +0200 (Sat, 26 Mar 2016) $
#$Revision: 180476 $
#$URL: svn://www.crystallography.net/cod/cif/7/21/45/7214514.cif $
#------------------------------------------------------------------------------
#
# This file is available in the Crystallography Open Database (COD),
# http://www.crystallography.net/
#
# All data on this site have been placed in the public domain by the
# contributors.
#
data_7214514
loop_
_publ_author_name
'Baldrighi, Michele'
'Bartesaghi, Davide'
'Cavallo, Gabriella'
'Chierotti, Michele R.'
'Gobetto, Roberto'
'Metrangolo, Pierangelo'
'Pilati, Tullio'
'Resnati, Giuseppe'
'Terraneo, Giancarlo'
_publ_section_title
;
 Polymorphs and co-crystals of haloprogin: an antifungal agent
;
_journal_issue                   26
_journal_name_full               CrystEngComm
_journal_page_first              5897
_journal_paper_doi               10.1039/c4ce00367e
_journal_volume                  16
_journal_year                    2014
_chemical_formula_moiety         'C9 H4 Cl3 I O'
_chemical_formula_sum            'C9 H4 Cl3 I O'
_chemical_formula_weight         361.37
_chemical_name_systematic
; 
 ? 
;
_space_group_IT_number           2
_symmetry_cell_setting           triclinic
_symmetry_space_group_name_Hall  '-P 1'
_symmetry_space_group_name_H-M   'P -1'
_atom_sites_solution_hydrogens   geom
_atom_sites_solution_primary     direct
_atom_sites_solution_secondary   difmap
_audit_creation_method           SHELXL-97
_cell_angle_alpha                108.226(12)
_cell_angle_beta                 93.893(12)
_cell_angle_gamma                90.291(12)
_cell_formula_units_Z            2
_cell_length_a                   4.2659(6)
_cell_length_b                   10.4936(14)
_cell_length_c                   13.3814(16)
_cell_measurement_reflns_used    7878
_cell_measurement_temperature    296(2)
_cell_measurement_theta_max      27.73
_cell_measurement_theta_min      2.14
_cell_volume                     567.43(14)
_computing_cell_refinement       'Bruker SAINT'
_computing_data_collection       'Bruker SMART'
_computing_data_reduction        'Bruker SAINT'
_computing_molecular_graphics
;
ORTEP-3 (Farrugia, L.J. (1997) Jour. Appl. Cryst. 30, 565)
Mercury (Macrae, C. F., Edgington, P. R., McCabe, P., Pidcock, E., 
Shields, G. P., Taylor, R., Towler, M. & van de Streek, J. (2006). 
J. Appl. Cryst. 39, 453-457
;
_computing_publication_material  SHELXL-97
_computing_structure_refinement
'SHELXL-97 (Sheldrick, G. M. (2008). Acta Cryst. A64, 112-122)'
_computing_structure_solution
'SHELXS (Sheldrick, G. M. (2008). Acta Cryst. A64, 112-122)'
_diffrn_ambient_temperature      296(2)
_diffrn_measured_fraction_theta_full 0.987
_diffrn_measured_fraction_theta_max 0.918
_diffrn_measurement_device_type  'Bruker, APEX 2000, CCD area detector'
_diffrn_measurement_method       '\w and \f scans'
_diffrn_radiation_monochromator  graphite
_diffrn_radiation_source         'fine-focus sealed tube'
_diffrn_radiation_type           MoK\a
_diffrn_radiation_wavelength     0.71073
_diffrn_reflns_av_R_equivalents  0.0652
_diffrn_reflns_av_sigmaI/netI    0.0293
_diffrn_reflns_limit_h_max       5
_diffrn_reflns_limit_h_min       -5
_diffrn_reflns_limit_k_max       13
_diffrn_reflns_limit_k_min       -13
_diffrn_reflns_limit_l_max       16
_diffrn_reflns_limit_l_min       -16
_diffrn_reflns_number            13209
_diffrn_reflns_theta_full        25.00
_diffrn_reflns_theta_max         27.75
_diffrn_reflns_theta_min         1.61
_diffrn_standards_decay_%        0.00
_exptl_absorpt_coefficient_mu    3.490
_exptl_absorpt_correction_T_max  0.7452
_exptl_absorpt_correction_T_min  0.5823
_exptl_absorpt_correction_type   multi-scan
_exptl_absorpt_process_details
'Bruker (2001). SADABS. Bruker AXS Inc., Madison, Wisconsin, USA.'
_exptl_crystal_colour            colourless
_exptl_crystal_density_diffrn    2.115
_exptl_crystal_density_method    'not measured'
_exptl_crystal_description       lamina
_exptl_crystal_F_000             340
_exptl_crystal_size_max          0.42
_exptl_crystal_size_mid          0.14
_exptl_crystal_size_min          0.03
_refine_diff_density_max         0.609
_refine_diff_density_min         -0.993
_refine_diff_density_rms         0.135
_refine_ls_extinction_method     none
_refine_ls_goodness_of_fit_ref   1.059
_refine_ls_hydrogen_treatment    riding
_refine_ls_matrix_type           full
_refine_ls_number_parameters     127
_refine_ls_number_reflns         2461
_refine_ls_number_restraints     0
_refine_ls_restrained_S_all      1.059
_refine_ls_R_factor_all          0.0385
_refine_ls_R_factor_gt           0.0314
_refine_ls_shift/su_max          0.001
_refine_ls_shift/su_mean         0.000
_refine_ls_structure_factor_coef Fsqd
_refine_ls_weighting_details
'w=1/[\s^2^(Fo^2^)+(0.0478P)^2^+0.0745P] where P=(Fo^2^+2Fc^2^)/3'
_refine_ls_weighting_scheme      calc
_refine_ls_wR_factor_gt          0.0737
_refine_ls_wR_factor_ref         0.0785
_reflns_number_gt                2108
_reflns_number_total             2461
_reflns_threshold_expression     I>2\s(I)
_iucr_refine_instructions_details
;
TITL db27_b in P-1
CELL 0.71073   4.2659  10.4936  13.3814 108.226   93.893   90.291
ZERR    2.00   0.0006   0.0014   0.0016   0.012    0.012    0.012
LATT 1
SFAC C  H  O  Cl I
UNIT 18  8  2  6  2
OMIT -3 55.5
L.S. 8
ACTA
BOND
bond $H
conf
FMAP 2
PLAN 20
EQIV $1 1-x,1-y,2-z
EQIV $2 1-x,1-y,1-z
EQIV $3 1+x,  y,  z
HTAB C3 Cl1_$2
RTAB DIST I1 Cl2_$1
RTAB ANGL c1 I1 Cl2_$1
RTAB DIST Cl1 C5_$3
RTAB DIST C8 Cl3_$3
MPLA 6  C4 C5 C6 C7 C8 C9
REM The distance MPLA MPLA+a is 3.600
TEMP 23.000
MOVE 0.5 0.5 0.5 1
WGHT    0.047800    0.074500
FVAR       0.40385
MOLE 1
I1    5    0.244852    0.310356    0.442848    11.00000    0.05459    0.06408 =
         0.04612    0.00881    0.00137   -0.00643
CL1   4   -0.116538   -0.326251   -0.024010    11.00000    0.08068    0.04880 =
         0.05745    0.00622    0.02021   -0.00037
CL2   4   -0.647321   -0.429534    0.295432    11.00000    0.10821    0.06378 =
         0.06599    0.03334   -0.00090   -0.02392
CL3   4   -0.781679   -0.119747    0.392945    11.00000    0.06870    0.08216 =
         0.04946    0.02462    0.01152   -0.00189
O1    3   -0.228641   -0.050843    0.085973    11.00000    0.05761    0.04073 =
         0.04048    0.01288    0.00599   -0.00107
C1    1    0.019104    0.219493    0.303030    11.00000    0.04517    0.04560 =
         0.04736    0.01243    0.00711    0.00041
C2    1   -0.119870    0.162740    0.222288    11.00000    0.04855    0.04168 =
         0.04766    0.01389    0.00735    0.00266
C3    1   -0.298130    0.089125    0.122329    11.00000    0.05448    0.04716 =
         0.04285    0.01826    0.00047    0.00101
AFIX  23
H3A   2   -0.521173    0.098257    0.131947    11.00000   -1.20000
H3B   2   -0.250374    0.129283    0.068758    11.00000   -1.20000
AFIX   0
C4    1   -0.336648   -0.131507    0.138603    11.00000    0.03866    0.04299 =
         0.03970    0.01417   -0.00680   -0.00402
C5    1   -0.287180   -0.267979    0.094907    11.00000    0.04436    0.04380 =
         0.04157    0.00719   -0.00277   -0.00274
C6    1   -0.381659   -0.358336    0.143714    11.00000    0.05938    0.04258 =
         0.05466    0.01596   -0.00445   -0.00596
AFIX  43
H6    2   -0.343461   -0.449154    0.114455    11.00000   -1.20000
AFIX   0
C7    1   -0.532886   -0.313912    0.235976    11.00000    0.05484    0.05265 =
         0.04791    0.02257   -0.00964   -0.01248
C8    1   -0.589379   -0.179475    0.278539    11.00000    0.03948    0.05441 =
         0.04165    0.01734   -0.00475   -0.00535
C9    1   -0.491847   -0.088060    0.230685    11.00000    0.04447    0.04387 =
         0.04171    0.01145   -0.00283   -0.00163
AFIX  43
H9    2   -0.530463    0.002653    0.260337    11.00000   -1.20000
 
HKLF 4
 
REM  db27_b in P-1
REM R1 =  0.0314 for   2108 Fo > 4sig(Fo)  and  0.0385 for all   2461 data
REM    127 parameters refined using      0 restraints
 
END  
     
WGHT      0.0480      0.0744 
REM Highest difference peak  0.609,  deepest hole -0.993,  1-sigma level  0.135
Q1    1   0.2568  0.2286  0.4228  11.00000  0.05    0.61
Q2    1   0.3692  0.3120  0.4044  11.00000  0.05    0.60
Q3    1  -0.2973 -0.3064  0.1155  11.00000  0.05    0.49
Q4    1  -0.8280 -0.1999  0.3752  11.00000  0.05    0.46
Q5    1   0.0893  0.3622  0.4770  11.00000  0.05    0.45
Q6    1  -0.2910 -0.3795  0.1322  11.00000  0.05    0.43
Q7    1  -0.3098 -0.4631  0.0839  11.00000  0.05    0.42
Q8    1  -0.3978 -0.4765  0.0213  11.00000  0.05    0.39
Q9    1  -0.2997 -0.2050  0.1194  11.00000  0.05    0.39
Q10   1  -0.0516 -0.2568 -0.0147  11.00000  0.05    0.37
Q11   1  -0.6291 -0.1172  0.4054  11.00000  0.05    0.36
Q12   1  -0.0805 -0.0690  0.0611  11.00000  0.05    0.33
Q13   1  -0.0545 -0.1309  0.0149  11.00000  0.05    0.31
Q14   1   0.1621  0.3990  0.4225  11.00000  0.05    0.31
Q15   1  -0.7177  0.1077  0.2227  11.00000  0.05    0.30
Q16   1  -0.7755 -0.0352  0.0966  11.00000  0.05    0.30
Q17   1   0.0433  0.0995  0.0400  11.00000  0.05    0.29
Q18   1  -0.2306 -0.2981  0.0446  11.00000  0.05    0.28
Q19   1  -0.7706 -0.2144  0.4399  11.00000  0.05    0.27
Q20   1   0.1416  0.4203  0.3825  11.00000  0.05    0.27
;
_cod_data_source_file            c4ce00367e2.cif
_cod_data_source_block           db27_b
_cod_depositor_comments
'Adding full bibliography for 7214510--7214515.cif.'
_cod_original_cell_volume        567.43(13)
_cod_database_code               7214514
loop_
_symmetry_equiv_pos_as_xyz
'x, y, z'
'-x, -y, -z'
loop_
_atom_site_label
_atom_site_type_symbol
_atom_site_fract_x
_atom_site_fract_y
_atom_site_fract_z
_atom_site_U_iso_or_equiv
_atom_site_adp_type
_atom_site_occupancy
_atom_site_symmetry_multiplicity
_atom_site_calc_flag
_atom_site_refinement_flags
I1 I 0.74485(5) 0.81036(2) 0.942848(16) 0.05704(11) Uani 1 1 d .
Cl1 Cl 0.3835(2) 0.17375(9) 0.47599(7) 0.0640(2) Uani 1 1 d .
Cl2 Cl -0.1473(3) 0.07047(11) 0.79543(8) 0.0768(3) Uani 1 1 d .
Cl3 Cl -0.2817(2) 0.38025(11) 0.89295(7) 0.0655(2) Uani 1 1 d .
O1 O 0.2714(5) 0.4492(2) 0.58597(15) 0.0461(5) Uani 1 1 d .
C1 C 0.5191(7) 0.7195(3) 0.8030(3) 0.0464(7) Uani 1 1 d .
C2 C 0.3801(7) 0.6627(3) 0.7223(3) 0.0458(7) Uani 1 1 d .
C3 C 0.2019(7) 0.5891(3) 0.6223(2) 0.0474(7) Uani 1 1 d .
H3A H -0.0212 0.5983 0.6319 0.057 Uiso 1 1 calc R
H3B H 0.2496 0.6293 0.5688 0.057 Uiso 1 1 calc R
C4 C 0.1634(6) 0.3685(3) 0.6386(2) 0.0407(6) Uani 1 1 d .
C5 C 0.2128(7) 0.2320(3) 0.5949(2) 0.0450(7) Uani 1 1 d .
C6 C 0.1183(8) 0.1417(3) 0.6437(3) 0.0525(8) Uani 1 1 d .
H6 H 0.1565 0.0508 0.6145 0.063 Uiso 1 1 calc R
C7 C -0.0329(8) 0.1861(3) 0.7360(3) 0.0509(7) Uani 1 1 d .
C8 C -0.0894(7) 0.3205(3) 0.7785(2) 0.0451(7) Uani 1 1 d .
C9 C 0.0082(7) 0.4119(3) 0.7307(2) 0.0441(6) Uani 1 1 d .
H9 H -0.0305 0.5027 0.7603 0.053 Uiso 1 1 calc R
loop_
_atom_site_aniso_label
_atom_site_aniso_U_11
_atom_site_aniso_U_22
_atom_site_aniso_U_33
_atom_site_aniso_U_23
_atom_site_aniso_U_13
_atom_site_aniso_U_12
I1 0.05459(16) 0.06408(18) 0.04612(15) 0.00881(11) 0.00137(10) -0.00643(10)
Cl1 0.0807(6) 0.0488(5) 0.0575(5) 0.0062(4) 0.0202(4) -0.0004(4)
Cl2 0.1082(8) 0.0638(6) 0.0660(6) 0.0333(5) -0.0009(5) -0.0239(5)
Cl3 0.0687(6) 0.0822(6) 0.0495(5) 0.0246(4) 0.0115(4) -0.0019(5)
O1 0.0576(12) 0.0407(11) 0.0405(11) 0.0129(9) 0.0060(9) -0.0011(9)
C1 0.0452(16) 0.0456(17) 0.0474(17) 0.0124(14) 0.0071(13) 0.0004(13)
C2 0.0485(16) 0.0417(16) 0.0477(17) 0.0139(14) 0.0073(14) 0.0027(13)
C3 0.0545(18) 0.0472(17) 0.0429(16) 0.0183(14) 0.0005(14) 0.0010(14)
C4 0.0387(14) 0.0430(16) 0.0397(14) 0.0142(12) -0.0068(11) -0.0040(11)
C5 0.0444(16) 0.0438(16) 0.0416(15) 0.0072(13) -0.0028(12) -0.0027(12)
C6 0.0594(19) 0.0426(17) 0.0547(18) 0.0160(15) -0.0045(15) -0.0060(14)
C7 0.0548(18) 0.0527(19) 0.0479(17) 0.0226(15) -0.0096(14) -0.0125(14)
C8 0.0395(15) 0.0544(18) 0.0416(15) 0.0173(14) -0.0048(12) -0.0054(13)
C9 0.0445(15) 0.0439(16) 0.0417(15) 0.0115(13) -0.0028(12) -0.0016(12)
loop_
_atom_type_symbol
_atom_type_description
_atom_type_scat_dispersion_real
_atom_type_scat_dispersion_imag
_atom_type_scat_source
C C 0.0033 0.0016 'International Tables Vol C Tables 4.2.6.8 and 6.1.1.4'
H H 0.0000 0.0000 'International Tables Vol C Tables 4.2.6.8 and 6.1.1.4'
O O 0.0106 0.0060 'International Tables Vol C Tables 4.2.6.8 and 6.1.1.4'
Cl Cl 0.1484 0.1585 'International Tables Vol C Tables 4.2.6.8 and 6.1.1.4'
I I -0.4742 1.8119 'International Tables Vol C Tables 4.2.6.8 and 6.1.1.4'
loop_
_geom_angle_atom_site_label_1
_geom_angle_atom_site_label_2
_geom_angle_atom_site_label_3
_geom_angle
C4 O1 C3 118.5(2)
C2 C1 I1 177.4(3)
C1 C2 C3 178.5(3)
O1 C3 C2 113.0(2)
O1 C3 H3A 109.0
C2 C3 H3A 109.0
O1 C3 H3B 109.0
C2 C3 H3B 109.0
H3A C3 H3B 107.8
O1 C4 C9 125.1(3)
O1 C4 C5 116.2(3)
C9 C4 C5 118.7(3)
C6 C5 C4 120.8(3)
C6 C5 Cl1 119.4(3)
C4 C5 Cl1 119.7(2)
C5 C6 C7 120.0(3)
C5 C6 H6 120.0
C7 C6 H6 120.0
C8 C7 C6 119.6(3)
C8 C7 Cl2 121.5(3)
C6 C7 Cl2 118.9(3)
C7 C8 C9 120.6(3)
C7 C8 Cl3 121.2(2)
C9 C8 Cl3 118.2(3)
C8 C9 C4 120.2(3)
C8 C9 H9 119.9
C4 C9 H9 119.9
loop_
_geom_bond_atom_site_label_1
_geom_bond_atom_site_label_2
_geom_bond_distance
I1 C1 1.992(3)
Cl1 C5 1.729(3)
Cl2 C7 1.730(3)
Cl3 C8 1.728(3)
O1 C4 1.356(3)
O1 C3 1.435(4)
C1 C2 1.175(4)
C2 C3 1.474(4)
C3 H3A 0.9700
C3 H3B 0.9700
C4 C9 1.388(4)
C4 C5 1.390(4)
C5 C6 1.381(4)
C6 C7 1.382(5)
C6 H6 0.9300
C7 C8 1.376(5)
C8 C9 1.386(4)
C9 H9 0.9300
loop_
_geom_hbond_atom_site_label_D
_geom_hbond_atom_site_label_H
_geom_hbond_atom_site_label_A
_geom_hbond_distance_DH
_geom_hbond_distance_HA
_geom_hbond_distance_DA
_geom_hbond_angle_DHA
_geom_hbond_site_symmetry_A
C3 H3B Cl1 0.97 2.82 3.657(3) 145.0 2_666
loop_
_geom_torsion_atom_site_label_1
_geom_torsion_atom_site_label_2
_geom_torsion_atom_site_label_3
_geom_torsion_atom_site_label_4
_geom_torsion
I1 C1 C2 C3 -3(18)
C4 O1 C3 C2 71.9(3)
C1 C2 C3 O1 -60(13)
C3 O1 C4 C9 -5.0(4)
C3 O1 C4 C5 174.5(2)
O1 C4 C5 C6 178.5(3)
C9 C4 C5 C6 -2.0(4)
O1 C4 C5 Cl1 -3.5(4)
C9 C4 C5 Cl1 176.0(2)
C4 C5 C6 C7 1.3(5)
Cl1 C5 C6 C7 -176.7(3)
C5 C6 C7 C8 0.2(5)
C5 C6 C7 Cl2 -179.8(2)
C6 C7 C8 C9 -1.0(5)
Cl2 C7 C8 C9 179.0(2)
C6 C7 C8 Cl3 179.3(2)
Cl2 C7 C8 Cl3 -0.7(4)
C7 C8 C9 C4 0.3(4)
Cl3 C8 C9 C4 -180.0(2)
O1 C4 C9 C8 -179.3(3)
C5 C4 C9 C8 1.2(4)
