#------------------------------------------------------------------------------
#$Date: 2023-12-22 17:07:40 +0200 (Fri, 22 Dec 2023) $
#$Revision: 288505 $
#$URL: file:///home/coder/svn-repositories/cod/cif/7/21/45/7214584.cif $
#------------------------------------------------------------------------------
#
# This file is available in the Crystallography Open Database (COD),
# http://www.crystallography.net/
#
# All data on this site have been placed in the public domain by the
# contributors.
#
data_7214584
loop_
_publ_author_name
'Lee, Lucia Myongwon'
'Elder, Philip J. W.'
'Dube, Paul A.'
'Greedan, John E.'
'Jenkins, Hilary A.'
'Britten, James F.'
'Vargas-Baca, Ignacio'
_publ_section_title
;
 The size of the metal ion controls the structures of the coordination
 polymers of benzo-2,1,3-selenadiazole
;
_journal_issue                   37
_journal_name_full               CrystEngComm
_journal_page_first              7434
_journal_paper_doi               10.1039/c3ce40752g
_journal_volume                  15
_journal_year                    2013
_chemical_formula_moiety         'C12 H8 Cl2 Mn N4 Se2'
_chemical_formula_sum            'C12 H8 Cl2 Mn N4 Se2'
_chemical_formula_weight         491.98
_space_group_IT_number           2
_symmetry_cell_setting           triclinic
_symmetry_space_group_name_Hall  '-P 1'
_symmetry_space_group_name_H-M   'P -1'
_atom_sites_solution_hydrogens   geom
_atom_sites_solution_primary     direct
_atom_sites_solution_secondary   difmap
_audit_creation_method           SHELXL-97
_cell_angle_alpha                80.055(4)
_cell_angle_beta                 81.254(4)
_cell_angle_gamma                83.353(4)
_cell_formula_units_Z            1
_cell_length_a                   3.7203(10)
_cell_length_b                   9.278(2)
_cell_length_c                   10.769(3)
_cell_measurement_reflns_used    4837
_cell_measurement_temperature    100(2)
_cell_measurement_theta_max      0.7457
_cell_measurement_theta_min      0.5957
_cell_volume                     360.34(16)
_computing_cell_refinement       'Bruker SMART'
_computing_data_collection       'Bruker SMART'
_computing_data_reduction        'Bruker SAINT'
_computing_molecular_graphics    'WINGX (Farrugia, 1999)'
_computing_publication_material  'WINGX (Farrugia, 1999)'
_computing_structure_refinement  'SHELXL-97 (Sheldrick, 1997)'
_computing_structure_solution    'Bruker SHELXTL'
_diffrn_ambient_temperature      100(2)
_diffrn_measured_fraction_theta_full 0.988
_diffrn_measured_fraction_theta_max 0.988
_diffrn_measurement_device_type  'CCD area detector'
_diffrn_measurement_method       'phi and omega scans'
_diffrn_radiation_monochromator  graphite
_diffrn_radiation_source         'fine-focus sealed tube'
_diffrn_radiation_type           MoK\a
_diffrn_radiation_wavelength     0.71073
_diffrn_reflns_av_R_equivalents  0.0279
_diffrn_reflns_av_sigmaI/netI    0.0329
_diffrn_reflns_limit_h_max       2
_diffrn_reflns_limit_h_min       -4
_diffrn_reflns_limit_k_max       10
_diffrn_reflns_limit_k_min       -11
_diffrn_reflns_limit_l_max       11
_diffrn_reflns_limit_l_min       -13
_diffrn_reflns_number            4125
_diffrn_reflns_theta_full        26.33
_diffrn_reflns_theta_max         26.33
_diffrn_reflns_theta_min         1.94
_exptl_absorpt_coefficient_mu    6.332
_exptl_absorpt_correction_T_max  0.7025
_exptl_absorpt_correction_T_min  0.2797
_exptl_absorpt_correction_type   numerical
_exptl_absorpt_process_details   SADABS
_exptl_crystal_colour            yellow
_exptl_crystal_density_diffrn    2.267
_exptl_crystal_density_meas      ?
_exptl_crystal_density_method    'not measured'
_exptl_crystal_description       block
_exptl_crystal_F_000             235
_exptl_crystal_size_max          0.27
_exptl_crystal_size_mid          0.10
_exptl_crystal_size_min          0.06
_refine_diff_density_max         0.548
_refine_diff_density_min         -0.442
_refine_diff_density_rms         0.110
_refine_ls_extinction_coef       0.0098(17)
_refine_ls_extinction_expression Fc^*^=kFc[1+0.001xFc^2^\l^3^/sin(2\q)]^-1/4^
_refine_ls_extinction_method     SHELXL
_refine_ls_goodness_of_fit_ref   1.086
_refine_ls_hydrogen_treatment    constr
_refine_ls_matrix_type           full
_refine_ls_number_parameters     98
_refine_ls_number_reflns         1447
_refine_ls_number_restraints     0
_refine_ls_restrained_S_all      1.086
_refine_ls_R_factor_all          0.0311
_refine_ls_R_factor_gt           0.0254
_refine_ls_shift/su_max          0.000
_refine_ls_shift/su_mean         0.000
_refine_ls_structure_factor_coef Fsqd
_refine_ls_weighting_details
'calc w=1/[\s^2^(Fo^2^)+(0.0318P)^2^+0.0000P] where P=(Fo^2^+2Fc^2^)/3'
_refine_ls_weighting_scheme      calc
_refine_ls_wR_factor_gt          0.0595
_refine_ls_wR_factor_ref         0.0618
_reflns_number_gt                1267
_reflns_number_total             1447
_reflns_threshold_expression     >2sigma(I)
_iucr_refine_instructions_details
;

REM TRY      2   FINAL CC 71.92   TIME       0 SECS
REM Fragments: 9
REM
TITL BSeDMn_0m in P-1
CELL 0.71073   3.7203   9.2784  10.7695  80.055  81.254  83.353
ZERR    1.00   0.0010   0.0024   0.0028   0.004   0.004   0.004
LATT  1
SFAC C H N O S CL MN SE
UNIT 10 16 2 2 2 2 1 1
TEMP 100.00
SIZE 0.060 0.100 0.270
 
L.S. 4
BOND
FMAP 2
PLAN 2
WGHT    0.036000
EXTI    0.009711
FVAR       0.25645
MN1   7    0.000000    0.000000    0.500000    10.50000    0.01208    0.01282 =
         0.01185   -0.00363    0.00012   -0.00183
SE1   8    0.339012    0.010585    0.175057    11.00000    0.01591    0.01452 =
         0.01136   -0.00315    0.00039   -0.00276
CL1   6    0.498910    0.166237    0.397665    11.00000    0.01499    0.01204 =
         0.01491   -0.00234   -0.00035   -0.00298
N1    3    0.139206   -0.104401    0.315243    11.00000    0.01255    0.01584 =
         0.01040   -0.00415    0.00054   -0.00141
N2    3    0.351116   -0.127031    0.077382    11.00000    0.01595    0.02019 =
         0.01201   -0.00589   -0.00080   -0.00013
C1    1    0.195725   -0.378844    0.104022    11.00000    0.02294    0.01949 =
         0.02003   -0.00878   -0.00483    0.00003
H1    2    0.292354   -0.384494    0.009188    11.00000    0.04192
C2    1    0.054157   -0.491412    0.185916    11.00000    0.02289    0.01411 =
         0.02848   -0.00985   -0.00722   -0.00119
H2    2    0.030749   -0.583856    0.157943    11.00000    0.01653
C3    1   -0.077555   -0.477917    0.314821    11.00000    0.01778    0.01489 =
         0.02606    0.00001   -0.00602   -0.00179
H3    2   -0.167259   -0.557133    0.360220    11.00000    0.02764
C4    1   -0.059107   -0.354342    0.363581    11.00000    0.01832    0.01498 =
         0.01469   -0.00133   -0.00156   -0.00056
H4    2   -0.138152   -0.345287    0.449292    11.00000    0.03101
C5    1    0.092497   -0.232146    0.282028    11.00000    0.00914    0.01733 =
         0.01513   -0.00581   -0.00292    0.00310
C6    1    0.216904   -0.244534    0.149340    11.00000    0.01467    0.01520 =
         0.01315   -0.00370   -0.00364    0.00241
 
HKLF 4
 
REM  BSeDMn_0m in P-1
REM R1 =  0.0254 for   1267 Fo > 4sig(Fo)  and  0.0310 for all   1447 data
REM    114 parameters refined using      0 restraints
 
END  
     
WGHT      0.0332      0.0000 
REM Highest difference peak  0.542,  deepest hole -0.441,  1-sigma level  0.110
Q1    1   0.5618  0.0268  0.1750  11.00000  0.05    0.54
Q2    1   0.2357 -0.2431  0.2269  11.00000  0.05    0.47

;
_cod_data_source_file            c3ce40752g.txt
_cod_data_source_block           shelxl
_cod_depositor_comments
;
The following automatic conversions were performed:

'_exptl_crystal_density_meas' value 'not measured' was changed to '?'
- the value is perceived as not measured.

Automatic conversion script
Id: cif_fix_values 3008 2015-01-20 13:52:24Z robertas 

The following automatic conversions were performed:

data name '_iucr_refine_instruction_details' was replaced with
'_iucr_refine_instructions_details' as specified in the replacement
file 'data/replacement-values/replacement_tags.lst'.

Automatic conversion script
Id: cif_correct_tags 9268 2022-04-12 08:56:07Z antanas 
;
_cod_original_cell_volume        360.37(16)
_cod_database_code               7214584
loop_
_symmetry_equiv_pos_as_xyz
'x, y, z'
'-x, -y, -z'
loop_
_atom_site_label
_atom_site_type_symbol
_atom_site_fract_x
_atom_site_fract_y
_atom_site_fract_z
_atom_site_U_iso_or_equiv
_atom_site_adp_type
_atom_site_occupancy
_atom_site_symmetry_multiplicity
_atom_site_calc_flag
_atom_site_refinement_flags
Mn1 Mn 0.0000 0.0000 0.5000 0.01218(17) Uani 1 2 d S
Se1 Se 0.33900(7) 0.01059(3) 0.17506(3) 0.01392(13) Uani 1 1 d .
Cl1 Cl 0.49890(18) 0.16624(8) 0.39767(7) 0.01400(19) Uani 1 1 d .
N1 N 0.1393(6) -0.1043(3) 0.3152(2) 0.0130(6) Uani 1 1 d .
N2 N 0.3509(6) -0.1270(3) 0.0774(2) 0.0158(6) Uani 1 1 d .
C1 C 0.1955(8) -0.3788(4) 0.1042(3) 0.0201(7) Uani 1 1 d .
H1 H 0.2783 -0.3883 0.0199 0.024 Uiso 1 1 calc R
C2 C 0.0537(8) -0.4913(4) 0.1859(3) 0.0207(8) Uani 1 1 d .
H2 H 0.0412 -0.5795 0.1574 0.025 Uiso 1 1 calc R
C3 C -0.0775(8) -0.4782(4) 0.3149(3) 0.0193(7) Uani 1 1 d .
H3 H -0.1798 -0.5575 0.3678 0.023 Uiso 1 1 calc R
C4 C -0.0590(8) -0.3543(3) 0.3636(3) 0.0161(7) Uani 1 1 d .
H4 H -0.1438 -0.3492 0.4487 0.019 Uiso 1 1 calc R
C5 C 0.0927(7) -0.2321(3) 0.2820(3) 0.0136(7) Uani 1 1 d .
C6 C 0.2168(7) -0.2444(3) 0.1494(3) 0.0143(7) Uani 1 1 d .
loop_
_atom_site_aniso_label
_atom_site_aniso_U_11
_atom_site_aniso_U_22
_atom_site_aniso_U_33
_atom_site_aniso_U_23
_atom_site_aniso_U_13
_atom_site_aniso_U_12
Mn1 0.0121(3) 0.0128(4) 0.0119(4) -0.0036(3) 0.0001(3) -0.0018(3)
Se1 0.01591(18) 0.0145(2) 0.0113(2) -0.00314(13) 0.00039(12) -0.00277(12)
Cl1 0.0150(4) 0.0120(4) 0.0149(4) -0.0024(3) -0.0004(3) -0.0030(3)
N1 0.0127(12) 0.0158(15) 0.0105(13) -0.0042(11) 0.0004(10) -0.0013(10)
N2 0.0160(13) 0.0201(15) 0.0120(14) -0.0060(12) -0.0008(10) -0.0001(11)
C1 0.0237(16) 0.0199(19) 0.0189(18) -0.0094(15) -0.0045(14) 0.0000(14)
C2 0.0229(16) 0.0141(18) 0.028(2) -0.0103(16) -0.0073(14) -0.0008(14)
C3 0.0171(15) 0.0154(18) 0.025(2) 0.0002(15) -0.0055(14) -0.0018(13)
C4 0.0182(15) 0.0153(18) 0.0140(17) -0.0013(14) -0.0012(12) -0.0005(13)
C5 0.0093(13) 0.0170(18) 0.0151(17) -0.0058(14) -0.0031(12) 0.0030(12)
C6 0.0146(14) 0.0154(18) 0.0132(17) -0.0037(14) -0.0036(12) 0.0023(12)
loop_
_atom_type_symbol
_atom_type_description
_atom_type_scat_dispersion_real
_atom_type_scat_dispersion_imag
_atom_type_scat_source
C C 0.0033 0.0016 'International Tables Vol C Tables 4.2.6.8 and 6.1.1.4'
H H 0.0000 0.0000 'International Tables Vol C Tables 4.2.6.8 and 6.1.1.4'
N N 0.0061 0.0033 'International Tables Vol C Tables 4.2.6.8 and 6.1.1.4'
Cl Cl 0.1484 0.1585 'International Tables Vol C Tables 4.2.6.8 and 6.1.1.4'
Mn Mn 0.3368 0.7283 'International Tables Vol C Tables 4.2.6.8 and 6.1.1.4'
Se Se -0.0929 2.2259 'International Tables Vol C Tables 4.2.6.8 and 6.1.1.4'
loop_
_geom_angle_atom_site_label_1
_geom_angle_atom_site_label_2
_geom_angle_atom_site_label_3
_geom_angle
_geom_angle_site_symmetry_1
_geom_angle_site_symmetry_3
N1 Mn1 N1 180.000(1) . 2_556
N1 Mn1 Cl1 91.62(7) . 2_656
N1 Mn1 Cl1 88.38(7) 2_556 2_656
N1 Mn1 Cl1 88.38(7) . 1_455
N1 Mn1 Cl1 91.62(7) 2_556 1_455
Cl1 Mn1 Cl1 180.0 2_656 1_455
N1 Mn1 Cl1 84.65(6) . .
N1 Mn1 Cl1 95.35(6) 2_556 .
Cl1 Mn1 Cl1 85.98(3) 2_656 .
Cl1 Mn1 Cl1 94.02(3) 1_455 .
N1 Mn1 Cl1 95.35(6) . 2_556
N1 Mn1 Cl1 84.65(6) 2_556 2_556
Cl1 Mn1 Cl1 94.02(3) 2_656 2_556
Cl1 Mn1 Cl1 85.98(3) 1_455 2_556
Cl1 Mn1 Cl1 180.00(3) . 2_556
N2 Se1 N1 92.93(12) . .
Mn1 Cl1 Mn1 94.02(3) 1_655 .
C5 N1 Se1 107.8(2) . .
C5 N1 Mn1 135.5(2) . .
Se1 N1 Mn1 116.64(12) . .
C6 N2 Se1 108.1(2) . .
C2 C1 C6 118.9(3) . .
C2 C1 H1 120.6 . .
C6 C1 H1 120.6 . .
C1 C2 C3 121.3(3) . .
C1 C2 H2 119.3 . .
C3 C2 H2 119.3 . .
C4 C3 C2 122.4(3) . .
C4 C3 H3 118.8 . .
C2 C3 H3 118.8 . .
C3 C4 C5 118.8(3) . .
C3 C4 H4 120.6 . .
C5 C4 H4 120.6 . .
N1 C5 C4 126.4(3) . .
N1 C5 C6 115.0(3) . .
C4 C5 C6 118.7(3) . .
N2 C6 C1 123.9(3) . .
N2 C6 C5 116.2(3) . .
C1 C6 C5 119.9(3) . .
loop_
_geom_bond_atom_site_label_1
_geom_bond_atom_site_label_2
_geom_bond_distance
_geom_bond_site_symmetry_2
Mn1 N1 2.324(2) .
Mn1 N1 2.324(2) 2_556
Mn1 Cl1 2.5379(8) 2_656
Mn1 Cl1 2.5379(8) 1_455
Mn1 Cl1 2.5480(8) .
Mn1 Cl1 2.5480(8) 2_556
Se1 N2 1.782(2) .
Se1 N1 1.804(3) .
Cl1 Mn1 2.5379(8) 1_655
N1 C5 1.333(4) .
N2 C6 1.323(4) .
C1 C2 1.346(5) .
C1 C6 1.429(4) .
C1 H1 0.9300 .
C2 C3 1.421(5) .
C2 H2 0.9300 .
C3 C4 1.356(4) .
C3 H3 0.9300 .
C4 C5 1.425(4) .
C4 H4 0.9300 .
C5 C6 1.453(4) .
