#------------------------------------------------------------------------------
#$Date: 2016-03-26 21:37:51 +0200 (Sat, 26 Mar 2016) $
#$Revision: 180479 $
#$URL: svn://www.crystallography.net/cod/cif/7/21/48/7214899.cif $
#------------------------------------------------------------------------------
#
# This file is available in the Crystallography Open Database (COD),
# http://www.crystallography.net/
#
# All data on this site have been placed in the public domain by the
# contributors.
#
data_7214899
loop_
_publ_author_name
'Yufit, Dmitry S.'
'Zubatyuk, Roman'
'Shishkin, Oleg V.'
'Howard, Judith A. K.'
_publ_section_title
;
 Low-melting molecular complexes. Halogen bonds in molecular complexes of
 bromoform
;
_journal_issue                   23
_journal_name_full               CrystEngComm
_journal_page_first              8222
_journal_paper_doi               10.1039/c2ce26191j
_journal_volume                  14
_journal_year                    2012
_chemical_formula_moiety         '0.5(C10 H18 Br6 O4)'
_chemical_formula_sum            'C5 H9 Br3 O2'
_chemical_formula_weight         340.85
_chemical_name_systematic
;
?
;
_space_group_crystal_system      monoclinic
_space_group_IT_number           11
_space_group_name_Hall           '-P 2yb'
_space_group_name_H-M_alt        'P 1 21/m 1'
_symmetry_space_group_name_Hall  '-P 2yb'
_symmetry_space_group_name_H-M   'P 1 21/m 1'
_atom_sites_solution_hydrogens   difmap
_atom_sites_solution_primary     direct
_atom_sites_solution_secondary   difmap
_audit_creation_date             2011-10-06
_audit_creation_method
;
Olex2 1.1-beta
(compiled 2011.09.28 svn.r2007, GUI svn.r3868)
;
_cell_angle_alpha                90.00
_cell_angle_beta                 106.760(10)
_cell_angle_gamma                90.00
_cell_formula_units_Z            2
_cell_length_a                   4.2311(5)
_cell_length_b                   19.421(2)
_cell_length_c                   6.0413(6)
_cell_measurement_reflns_used    1059
_cell_measurement_temperature    240
_cell_measurement_theta_max      30.50
_cell_measurement_theta_min      3.52
_cell_volume                     475.34(9)
_computing_cell_refinement       'SAINT v6.45A (Bruker, 2003)'
_computing_data_collection       'SMART v5.625 (Bruker, 2001)'
_computing_data_reduction        'SAINT v6.45A (Bruker, 2003)'
_computing_molecular_graphics
;
O. V. Dolomanov, L. J. Bourhis, R. J. Gildea, J. A. K. Howard and H. Puschmann,
OLEX2: a complete structure solution, refinement and analysis program.
J. Appl. Cryst. (2009). 42, 339-341.
;
_computing_publication_material
;
O. V. Dolomanov, L. J. Bourhis, R. J. Gildea, J. A. K. Howard and H. Puschmann,
OLEX2: a complete structure solution, refinement and analysis program.
J. Appl. Cryst. (2009). 42, 339-341.
;
_computing_structure_refinement
;
XL, G.M. Sheldrick, Acta Cryst.
(2008). A64, 112-122
;
_computing_structure_solution
;
XS, G.M. Sheldrick, Acta Cryst.
(2008). A64, 112-122
;
_diffrn_ambient_temperature      240
_diffrn_detector                 'CCD area detector'
_diffrn_detector_area_resol_mean 5.6
_diffrn_detector_type            'Bruker SMART CCD 6000 area detector'
_diffrn_measured_fraction_theta_full 0.788
_diffrn_measured_fraction_theta_max 0.788
_diffrn_measurement_device       'three-circle diffractometer'
_diffrn_measurement_device_type  'Bruker SMART CCD 6000 area detector'
_diffrn_measurement_method       '\w scans'
_diffrn_radiation_monochromator  graphite
_diffrn_radiation_probe          x-ray
_diffrn_radiation_type           MoK\a
_diffrn_radiation_wavelength     0.71073
_diffrn_radiation_xray_symbol    K-L~3~
_diffrn_reflns_av_R_equivalents  0.0222
_diffrn_reflns_av_unetI/netI     0.0200
_diffrn_reflns_limit_h_max       4
_diffrn_reflns_limit_h_min       -5
_diffrn_reflns_limit_k_max       26
_diffrn_reflns_limit_k_min       -26
_diffrn_reflns_limit_l_max       8
_diffrn_reflns_limit_l_min       -6
_diffrn_reflns_number            3946
_diffrn_reflns_theta_full        29.50
_diffrn_reflns_theta_max         29.50
_diffrn_reflns_theta_min         2.10
_diffrn_source                   'sealed X-ray tube'
_diffrn_source_current           30.0
_diffrn_source_power             1.5
_diffrn_source_target            Mo
_diffrn_source_voltage           50.0
_exptl_absorpt_coefficient_mu    12.677
_exptl_absorpt_correction_T_max  0.1053
_exptl_absorpt_correction_T_min  0.0485
_exptl_absorpt_correction_type   multi-scan
_exptl_absorpt_process_details
;
SADABS-2006/1 (Bruker,2006) was used for absorption correction.
R(int) was 0.0314 before and 0.0205 after correction.
The Ratio of minimum to maximum transmission is 0.4606.
The \l/2 correction factor is 0.0015.
;
_exptl_crystal_colour            'dull light colourless'
_exptl_crystal_colour_lustre     dull
_exptl_crystal_colour_modifier   light
_exptl_crystal_colour_primary    colourless
_exptl_crystal_density_diffrn    2.381
_exptl_crystal_density_method    'not measured'
_exptl_crystal_description       cylinder
_exptl_crystal_F_000             320
_exptl_crystal_recrystallization_method 'in situ'
_exptl_crystal_size_max          0.5
_exptl_crystal_size_mid          0.3
_exptl_crystal_size_min          0.3
_refine_diff_density_max         0.662
_refine_diff_density_min         -0.474
_refine_diff_density_rms         0.100
_refine_ls_extinction_coef       0.0216(18)
_refine_ls_extinction_expression Fc^*^=kFc[1+0.001xFc^2^\l^3^/sin(2\q)]^-1/4^
_refine_ls_extinction_method     SHELXL
_refine_ls_goodness_of_fit_ref   1.064
_refine_ls_hydrogen_treatment    refall
_refine_ls_matrix_type           full
_refine_ls_number_parameters     66
_refine_ls_number_reflns         1075
_refine_ls_number_restraints     0
_refine_ls_restrained_S_all      1.064
_refine_ls_R_factor_all          0.0283
_refine_ls_R_factor_gt           0.0244
_refine_ls_shift/su_max          0.001
_refine_ls_shift/su_mean         0.000
_refine_ls_structure_factor_coef Fsqd
_refine_ls_weighting_details
'calc w=1/[\s^2^(Fo^2^)+(0.0300P)^2^+0.5000P] where P=(Fo^2^+2Fc^2^)/3'
_refine_ls_weighting_scheme      calc
_refine_ls_wR_factor_gt          0.0595
_refine_ls_wR_factor_ref         0.0614
_reflns_number_gt                968
_reflns_number_total             1075
_reflns_threshold_expression     >2sigma(I)
_cod_data_source_file            c2ce26191j.txt
_cod_data_source_block           III_240K_bfdo
_cod_original_cell_volume        475.33(9)
_cod_database_code               7214899
loop_
_space_group_symop_id
_space_group_symop_operation_xyz
1 'x, y, z'
2 '-x, y+1/2, -z'
3 '-x, -y, -z'
4 'x, -y-1/2, z'
loop_
_atom_site_label
_atom_site_type_symbol
_atom_site_fract_x
_atom_site_fract_y
_atom_site_fract_z
_atom_site_U_iso_or_equiv
_atom_site_adp_type
_atom_site_occupancy
_atom_site_symmetry_multiplicity
_atom_site_calc_flag
_atom_site_refinement_flags
O1 O -0.0298(6) 0.45665(10) 0.1813(4) 0.0416(5) Uani 1 1 d .
C1 C -0.0190(11) 0.42977(15) -0.0354(7) 0.0446(8) Uani 1 1 d .
C2 C 0.1549(10) 0.51909(17) 0.2269(6) 0.0437(8) Uani 1 1 d .
H1A H -0.160(10) 0.390(2) -0.067(7) 0.047(10) Uiso 1 1 d .
H1B H 0.195(10) 0.420(2) -0.029(7) 0.050(11) Uiso 1 1 d .
H2A H 0.401(10) 0.512(2) 0.242(7) 0.046(10) Uiso 1 1 d .
H2B H 0.144(11) 0.536(2) 0.376(9) 0.065(13) Uiso 1 1 d .
Br1 Br 0.25193(9) 0.331769(14) 0.46312(6) 0.04281(16) Uani 1 1 d .
Br2 Br 0.42544(15) 0.2500 0.93623(8) 0.04765(18) Uani 1 2 d S
C1S C 0.4505(12) 0.2500 0.6239(8) 0.0330(8) Uiso 1 2 d S
H1S H 0.658(12) 0.2500 0.639(8) 0.031(11) Uiso 1 2 d S
loop_
_atom_site_aniso_label
_atom_site_aniso_U_11
_atom_site_aniso_U_22
_atom_site_aniso_U_33
_atom_site_aniso_U_23
_atom_site_aniso_U_13
_atom_site_aniso_U_12
O1 0.0587(15) 0.0310(10) 0.0424(12) 0.0090(8) 0.0261(12) 0.0007(9)
C1 0.066(2) 0.0251(13) 0.049(2) 0.0035(12) 0.026(2) 0.0021(14)
C2 0.058(2) 0.0367(14) 0.0394(19) 0.0014(13) 0.018(2) -0.0011(14)
Br1 0.0637(3) 0.02821(16) 0.0398(2) 0.00471(11) 0.0201(2) 0.00233(12)
Br2 0.0744(4) 0.0402(2) 0.0317(3) 0.000 0.0208(3) 0.000
loop_
_atom_type_symbol
_atom_type_description
_atom_type_scat_dispersion_real
_atom_type_scat_dispersion_imag
_atom_type_scat_source
C C 0.0033 0.0016 'International Tables Vol C Tables 4.2.6.8 and 6.1.1.4'
H H 0.0000 0.0000 'International Tables Vol C Tables 4.2.6.8 and 6.1.1.4'
O O 0.0106 0.0060 'International Tables Vol C Tables 4.2.6.8 and 6.1.1.4'
Br Br -0.2901 2.4595 'International Tables Vol C Tables 4.2.6.8 and 6.1.1.4'
loop_
_geom_angle_atom_site_label_1
_geom_angle_atom_site_label_2
_geom_angle_atom_site_label_3
_geom_angle
_geom_angle_site_symmetry_1
_geom_angle_site_symmetry_3
C1 O1 C2 109.2(2) . .
C1 O1 H2B 160.0(9) . 3_566
C1 O1 Br1 96.46(16) . .
C2 O1 H2B 90.4(9) . 3_566
C2 O1 Br1 118.1(2) . .
H2B O1 Br1 69.9(9) 3_566 .
O1 C1 C2 111.0(3) . 3_565
O1 C1 H1A 107(2) . .
O1 C1 H1B 109(3) . .
C2 C1 H1A 108(2) 3_565 .
C2 C1 H1B 109(3) 3_565 .
H1A C1 H1B 113(4) . .
O1 C2 C1 110.2(3) . 3_565
O1 C2 H2A 112(2) . .
O1 C2 H2B 107(3) . .
C1 C2 H2A 108(2) 3_565 .
C1 C2 H2B 112(3) 3_565 .
H2A C2 H2B 106(4) . .
C1S Br1 O1 175.15(13) . .
Br1 C1S Br1 111.3(2) . 4_565
Br1 C1S H1S 109.8(16) . .
Br1 C1S H1S 109.8(16) 4_565 .
Br2 C1S Br1 110.87(14) . .
Br2 C1S Br1 110.87(14) . 4_565
Br2 C1S H1S 104(3) . .
loop_
_geom_bond_atom_site_label_1
_geom_bond_atom_site_label_2
_geom_bond_distance
_geom_bond_site_symmetry_2
O1 C1 1.423(4) .
O1 C2 1.426(4) .
O1 H2B 2.85(5) 3_566
O1 Br1 3.005(2) .
C1 C2 1.507(5) 3_565
C1 H1A 0.97(4) .
C1 H1B 0.92(4) .
C2 C1 1.507(5) 3_565
C2 H2A 1.03(4) .
C2 H2B 0.98(5) .
Br1 C1S 1.924(3) .
Br2 C1S 1.920(4) .
C1S Br1 1.924(3) 4_565
C1S H1S 0.85(5) .
