#------------------------------------------------------------------------------
#$Date: 2016-03-26 21:37:51 +0200 (Sat, 26 Mar 2016) $
#$Revision: 180479 $
#$URL: svn://www.crystallography.net/cod/cif/7/21/48/7214834.cif $
#------------------------------------------------------------------------------
#
# This file is available in the Crystallography Open Database (COD),
# http://www.crystallography.net/
#
# All data on this site have been placed in the public domain by the
# contributors.
#
data_7214834
loop_
_publ_author_name
'Montis, Riccardo'
'Hursthouse, Michael B.'
_publ_section_title
;
 Crystalline adducts of some substituted salicylic acids with
 4-aminopyridine, including hydrates and solvates: contact and separated
 ionic complexes with diverse supramolecular synthons
;
_journal_issue                   21
_journal_name_full               CrystEngComm
_journal_page_first              7466
_journal_paper_doi               10.1039/c2ce26008e
_journal_volume                  14
_journal_year                    2012
_chemical_formula_moiety         'C7 H4 N O5, C5 H7 N2'
_chemical_formula_sum            'C12 H11 N3 O5'
_chemical_formula_weight         277.24
_chemical_name_common            '4-aminopyridinium 3-nitrosalicylate'
_chemical_name_systematic
;
?
;
_space_group_IT_number           4
_symmetry_cell_setting           monoclinic
_symmetry_space_group_name_Hall  'P 2yb'
_symmetry_space_group_name_H-M   'P 1 21 1'
_atom_sites_solution_hydrogens   geom
_atom_sites_solution_primary     direct
_atom_sites_solution_secondary   difmap
_audit_creation_method           SHELXL-97
_cell_angle_alpha                90.00
_cell_angle_beta                 96.809(3)
_cell_angle_gamma                90.00
_cell_formula_units_Z            2
_cell_length_a                   10.9737(5)
_cell_length_b                   4.5752(2)
_cell_length_c                   11.9808(5)
_cell_measurement_reflns_used    7798
_cell_measurement_temperature    120(2)
_cell_measurement_theta_max      27.48
_cell_measurement_theta_min      2.91
_cell_volume                     597.28(5)
_computing_cell_refinement
'DENZO (Otwinowski & Minor, 1997) & COLLECT (Hooft, R.W.W., 1998)'
_computing_data_collection       'COLLECT (Hooft, R.W.W., 1998)'
_computing_data_reduction
'DENZO (Otwinowski & Minor, 1997) & COLLECT (Hooft, R.W.W., 1998)'
_computing_structure_refinement  'SHELXL-97 (Sheldrick, 2008)'
_diffrn_ambient_temperature      120(2)
_diffrn_detector_area_resol_mean '4096x4096pixels / 62x62mm'
_diffrn_measured_fraction_theta_full 0.991
_diffrn_measured_fraction_theta_max 0.991
_diffrn_measurement_device_type
'Bruker-Nonius APEX II CCD camera on \k-goniostat'
_diffrn_measurement_method       '\f & \w scans'
_diffrn_radiation_monochromator  '10cm confocal mirrors'
_diffrn_radiation_source         'Bruker-Nonius FR591 rotating anode'
_diffrn_radiation_type           MoK\a
_diffrn_radiation_wavelength     0.71073
_diffrn_reflns_av_R_equivalents  0.0669
_diffrn_reflns_av_sigmaI/netI    0.0515
_diffrn_reflns_limit_h_max       14
_diffrn_reflns_limit_h_min       -13
_diffrn_reflns_limit_k_max       5
_diffrn_reflns_limit_k_min       -5
_diffrn_reflns_limit_l_max       15
_diffrn_reflns_limit_l_min       -15
_diffrn_reflns_number            7769
_diffrn_reflns_theta_full        27.50
_diffrn_reflns_theta_max         27.50
_diffrn_reflns_theta_min         3.43
_exptl_absorpt_coefficient_mu    0.123
_exptl_absorpt_correction_T_max  0.9988
_exptl_absorpt_correction_T_min  0.9412
_exptl_absorpt_correction_type   multi-scan
_exptl_absorpt_process_details   'SADABS 2007/2 (Sheldrick, G.M., 2007)'
_exptl_crystal_colour            Gold
_exptl_crystal_density_diffrn    1.542
_exptl_crystal_density_method    'not measured'
_exptl_crystal_description       Block
_exptl_crystal_F_000             288
_exptl_crystal_size_max          0.50
_exptl_crystal_size_mid          0.02
_exptl_crystal_size_min          0.01
_refine_diff_density_max         0.352
_refine_diff_density_min         -0.296
_refine_diff_density_rms         0.068
_refine_ls_abs_structure_details 'Flack H D (1983), Acta Cryst. A39, 876-881'
_refine_ls_extinction_method     none
_refine_ls_goodness_of_fit_ref   1.119
_refine_ls_hydrogen_treatment    constr
_refine_ls_matrix_type           full
_refine_ls_number_parameters     181
_refine_ls_number_reflns         1532
_refine_ls_number_restraints     1
_refine_ls_restrained_S_all      1.119
_refine_ls_R_factor_all          0.0819
_refine_ls_R_factor_gt           0.0587
_refine_ls_shift/su_max          0.000
_refine_ls_shift/su_mean         0.000
_refine_ls_structure_factor_coef Fsqd
_refine_ls_weighting_details
'calc w=1/[\s^2^(Fo^2^)+(0.0000P)^2^+0.9339P] where P=(Fo^2^+2Fc^2^)/3'
_refine_ls_weighting_scheme      calc
_refine_ls_wR_factor_gt          0.1093
_refine_ls_wR_factor_ref         0.1219
_reflns_number_gt                1247
_reflns_number_total             1532
_reflns_threshold_expression     >2\s(I)
_cod_data_source_file            c2ce26008e.txt
_cod_data_source_block           4-aminopyridinium_3-nitrosalicylate
_cod_original_sg_symbol_H-M      P21
_cod_database_code               7214834
loop_
_symmetry_equiv_pos_as_xyz
'x, y, z'
'-x, y+1/2, -z'
loop_
_atom_site_label
_atom_site_type_symbol
_atom_site_fract_x
_atom_site_fract_y
_atom_site_fract_z
_atom_site_U_iso_or_equiv
_atom_site_adp_type
_atom_site_occupancy
_atom_site_symmetry_multiplicity
_atom_site_calc_flag
_atom_site_refinement_flags
O11 O 1.0288(2) 0.2113(8) 0.1871(2) 0.0238(7) Uani 1 1 d .
O12 O 0.9131(3) 0.2138(8) 0.3291(2) 0.0247(7) Uani 1 1 d .
O13 O 0.7316(3) 0.5223(7) 0.3225(2) 0.0261(7) Uani 1 1 d .
H13 H 0.7877 0.4057 0.3468 0.039 Uiso 1 1 d R
O14 O 0.5688(3) 0.9506(8) 0.3090(2) 0.0293(8) Uani 1 1 d .
O15 O 0.4844(3) 1.0472(12) 0.1416(3) 0.0581(14) Uani 1 1 d .
N11 N 0.5693(3) 0.9488(9) 0.2062(3) 0.0272(9) Uani 1 1 d .
C11 C 0.8512(4) 0.5120(10) 0.1703(3) 0.0177(8) Uani 1 1 d .
C12 C 0.7515(4) 0.6187(10) 0.2213(3) 0.0183(9) Uani 1 1 d .
C13 C 0.6722(3) 0.8192(10) 0.1591(3) 0.0197(9) Uani 1 1 d .
C14 C 0.6900(4) 0.9038(10) 0.0508(3) 0.0231(10) Uani 1 1 d .
H14 H 0.6341 1.0349 0.0101 0.028 Uiso 1 1 calc R
C15 C 0.7896(4) 0.7961(11) 0.0021(3) 0.0250(10) Uani 1 1 d .
H15 H 0.8031 0.8542 -0.0715 0.030 Uiso 1 1 calc R
C16 C 0.8695(3) 0.6014(10) 0.0632(3) 0.0193(9) Uani 1 1 d .
H16 H 0.9382 0.5284 0.0305 0.023 Uiso 1 1 calc R
C17 C 0.9380(4) 0.2964(10) 0.2314(3) 0.0193(9) Uani 1 1 d .
N21 N 0.1604(3) 0.8129(8) 0.3079(3) 0.0218(8) Uani 1 1 d .
H21A H 0.0980 0.9470 0.2650 0.026 Uiso 1 1 d R
N22 N 0.3865(3) 0.1846(9) 0.4656(3) 0.0231(8) Uani 1 1 d .
H22A H 0.3720 0.1120 0.5269 0.028 Uiso 1 1 d R
H22B H 0.4470 0.0950 0.4279 0.028 Uiso 1 1 d R
C21 C 0.2559(4) 0.7082(11) 0.2584(3) 0.0236(9) Uani 1 1 d .
H21 H 0.2699 0.7823 0.1870 0.028 Uiso 1 1 calc R
C22 C 0.3324(4) 0.5003(10) 0.3079(3) 0.0201(9) Uani 1 1 d .
H22 H 0.3990 0.4301 0.2715 0.024 Uiso 1 1 calc R
C23 C 0.3121(4) 0.3904(10) 0.4134(3) 0.0198(9) Uani 1 1 d .
C24 C 0.2116(4) 0.5008(10) 0.4639(3) 0.0215(9) Uani 1 1 d .
H24 H 0.1953 0.4313 0.5354 0.026 Uiso 1 1 calc R
C25 C 0.1383(4) 0.7086(11) 0.4087(3) 0.0225(9) Uani 1 1 d .
H25 H 0.0701 0.7814 0.4421 0.027 Uiso 1 1 calc R
loop_
_atom_site_aniso_label
_atom_site_aniso_U_11
_atom_site_aniso_U_22
_atom_site_aniso_U_33
_atom_site_aniso_U_23
_atom_site_aniso_U_13
_atom_site_aniso_U_12
O11 0.0201(14) 0.0284(17) 0.0239(14) 0.0051(15) 0.0072(11) 0.0069(14)
O12 0.0265(15) 0.0288(18) 0.0197(14) 0.0045(15) 0.0072(11) 0.0044(15)
O13 0.0291(16) 0.0303(19) 0.0200(14) 0.0041(15) 0.0075(12) 0.0056(15)
O14 0.0319(17) 0.032(2) 0.0256(16) -0.0016(15) 0.0102(13) 0.0044(16)
O15 0.041(2) 0.100(4) 0.0346(18) 0.014(2) 0.0102(15) 0.045(3)
N11 0.0238(18) 0.032(2) 0.0269(19) 0.0043(19) 0.0061(15) 0.0074(18)
C11 0.0198(19) 0.014(2) 0.0190(18) 0.0010(18) 0.0029(15) 0.0039(18)
C12 0.0197(18) 0.020(2) 0.0155(18) -0.0010(17) 0.0039(15) -0.0021(17)
C13 0.0151(18) 0.023(2) 0.0215(19) -0.0013(19) 0.0024(15) -0.0004(19)
C14 0.025(2) 0.024(2) 0.020(2) 0.004(2) 0.0030(16) 0.0036(19)
C15 0.027(2) 0.031(3) 0.0174(19) 0.004(2) 0.0063(17) 0.004(2)
C16 0.0168(19) 0.021(2) 0.0217(19) 0.0024(19) 0.0067(15) 0.0015(17)
C17 0.0194(19) 0.019(2) 0.0192(19) 0.0000(18) 0.0001(16) -0.0021(18)
N21 0.0208(17) 0.0204(19) 0.0235(17) -0.0037(16) -0.0004(14) 0.0006(16)
N22 0.0236(17) 0.026(2) 0.0199(16) 0.0037(17) 0.0037(13) 0.0074(17)
C21 0.030(2) 0.023(2) 0.0182(19) -0.003(2) 0.0042(16) -0.005(2)
C22 0.022(2) 0.019(2) 0.0206(19) -0.002(2) 0.0047(15) 0.0019(19)
C23 0.0188(19) 0.021(2) 0.019(2) -0.0052(18) 0.0012(16) -0.0034(18)
C24 0.024(2) 0.020(2) 0.0212(19) -0.002(2) 0.0060(16) -0.002(2)
C25 0.023(2) 0.020(2) 0.026(2) -0.004(2) 0.0073(16) 0.000(2)
loop_
_atom_type_symbol
_atom_type_description
_atom_type_scat_dispersion_real
_atom_type_scat_dispersion_imag
_atom_type_scat_source
C C 0.0030 0.0000 'International Tables Vol C Tables 4.2.6.8 and 6.1.1.4'
H H 0.0000 0.0000 'International Tables Vol C Tables 4.2.6.8 and 6.1.1.4'
N N 0.0060 0.0000 'International Tables Vol C Tables 4.2.6.8 and 6.1.1.4'
O O 0.0110 0.0000 'International Tables Vol C Tables 4.2.6.8 and 6.1.1.4'
loop_
_geom_angle_atom_site_label_1
_geom_angle_atom_site_label_2
_geom_angle_atom_site_label_3
_geom_angle
O15 N11 O14 122.4(4)
O15 N11 C13 118.3(4)
O14 N11 C13 119.3(3)
C16 C11 C12 120.5(4)
C16 C11 C17 119.5(3)
C12 C11 C17 120.0(3)
O13 C12 C11 120.1(4)
O13 C12 C13 122.5(4)
C11 C12 C13 117.3(4)
C14 C13 C12 121.8(4)
C14 C13 N11 116.9(4)
C12 C13 N11 121.2(3)
C15 C14 C13 119.9(4)
C14 C15 C16 118.9(4)
C11 C16 C15 121.5(4)
O11 C17 O12 124.1(4)
O11 C17 C11 119.4(3)
O12 C17 C11 116.4(3)
C25 N21 C21 119.9(4)
N21 C21 C22 121.9(4)
C21 C22 C23 119.3(4)
N22 C23 C22 121.0(4)
N22 C23 C24 120.7(4)
C22 C23 C24 118.2(4)
C25 C24 C23 119.1(4)
N21 C25 C24 121.6(4)
loop_
_geom_bond_atom_site_label_1
_geom_bond_atom_site_label_2
_geom_bond_distance
O11 C17 1.245(5)
O12 C17 1.289(5)
O13 C12 1.331(5)
O14 N11 1.232(4)
O15 N11 1.225(5)
N11 C13 1.448(5)
C11 C16 1.385(5)
C11 C12 1.403(5)
C11 C17 1.501(6)
C12 C13 1.415(6)
C13 C14 1.389(6)
C14 C15 1.389(6)
C15 C16 1.395(6)
N21 C25 1.346(5)
N21 C21 1.352(5)
N22 C23 1.350(6)
C21 C22 1.358(6)
C22 C23 1.403(5)
C23 C24 1.413(5)
C24 C25 1.365(6)
loop_
_geom_hbond_atom_site_label_D
_geom_hbond_atom_site_label_H
_geom_hbond_atom_site_label_A
_geom_hbond_distance_DH
_geom_hbond_distance_HA
_geom_hbond_distance_DA
_geom_hbond_angle_DHA
_geom_hbond_site_symmetry_A
N21 H21A O11 1.01 1.66 2.647(5) 164.9 1_465
N21 H21A O12 1.01 2.56 3.309(5) 130.4 1_465
N22 H22A O13 0.84 2.28 3.076(4) 158.2 2_646
N22 H22A O14 0.84 2.53 2.950(5) 112.4 2_646
N22 H22B O14 0.94 2.17 3.092(5) 166.8 1_545
