#------------------------------------------------------------------------------
#$Date: 2016-03-26 21:37:51 +0200 (Sat, 26 Mar 2016) $
#$Revision: 180479 $
#$URL: svn://www.crystallography.net/cod/cif/7/21/48/7214833.cif $
#------------------------------------------------------------------------------
#
# This file is available in the Crystallography Open Database (COD),
# http://www.crystallography.net/
#
# All data on this site have been placed in the public domain by the
# contributors.
#
data_7214833
loop_
_publ_author_name
'Montis, Riccardo'
'Hursthouse, Michael B.'
_publ_section_title
;
 Crystalline adducts of some substituted salicylic acids with
 4-aminopyridine, including hydrates and solvates: contact and separated
 ionic complexes with diverse supramolecular synthons
;
_journal_issue                   21
_journal_name_full               CrystEngComm
_journal_page_first              7466
_journal_paper_doi               10.1039/c2ce26008e
_journal_volume                  14
_journal_year                    2012
_chemical_formula_moiety         'C7 H4 I O3, C5 H7 N2, H2 O'
_chemical_formula_sum            'C12 H13 I N2 O4'
_chemical_formula_weight         376.14
_chemical_name_common
'4-aminopyridinium 5-iodosalicylate monohydrate'
_chemical_name_systematic
;
4-aminopyridinium 5-iodosalicylate monohydrate
;
_space_group_IT_number           4
_symmetry_cell_setting           monoclinic
_symmetry_space_group_name_Hall  'P 2yb'
_symmetry_space_group_name_H-M   'P 1 21 1'
_atom_sites_solution_hydrogens   geom
_atom_sites_solution_primary     direct
_atom_sites_solution_secondary   difmap
_audit_creation_method           SHELXL-97
_cell_angle_alpha                90.00
_cell_angle_beta                 96.077(5)
_cell_angle_gamma                90.00
_cell_formula_units_Z            2
_cell_length_a                   4.400(5)
_cell_length_b                   18.068(5)
_cell_length_c                   8.581(5)
_cell_measurement_reflns_used    9176
_cell_measurement_temperature    120(2)
_cell_measurement_theta_max      27.48
_cell_measurement_theta_min      2.91
_cell_volume                     678.3(9)
_computing_cell_refinement
'DENZO (Otwinowski & Minor, 1997) & COLLECT (Hooft, R.W.W., 1998)'
_computing_data_collection       'COLLECT (Hooft, R.W.W., 1998)'
_computing_data_reduction
'DENZO (Otwinowski & Minor, 1997) & COLLECT (Hooft, R.W.W., 1998)'
_diffrn_ambient_temperature      120(2)
_diffrn_detector_area_resol_mean '4096x4096pixels / 62x62mm'
_diffrn_measured_fraction_theta_full 0.993
_diffrn_measured_fraction_theta_max 0.993
_diffrn_measurement_device_type
'Bruker-Nonius APEX II CCD camera on \k-goniostat'
_diffrn_measurement_method       '\f & \w scans'
_diffrn_radiation_monochromator  '10cm confocal mirrors'
_diffrn_radiation_source         'Bruker-Nonius FR591 rotating anode'
_diffrn_radiation_type           MoK\a
_diffrn_radiation_wavelength     0.71073
_diffrn_reflns_av_R_equivalents  0.0274
_diffrn_reflns_av_sigmaI/netI    0.0358
_diffrn_reflns_limit_h_max       5
_diffrn_reflns_limit_h_min       -5
_diffrn_reflns_limit_k_max       23
_diffrn_reflns_limit_k_min       -23
_diffrn_reflns_limit_l_max       11
_diffrn_reflns_limit_l_min       -10
_diffrn_reflns_number            7757
_diffrn_reflns_theta_full        27.48
_diffrn_reflns_theta_max         27.48
_diffrn_reflns_theta_min         3.28
_exptl_absorpt_coefficient_mu    2.372
_exptl_absorpt_correction_T_max  0.8708
_exptl_absorpt_correction_T_min  0.7639
_exptl_absorpt_correction_type   multi-scan
_exptl_absorpt_process_details   'SADABS 2007/2 (Sheldrick, G.M., 2007)'
_exptl_crystal_colour            Colourless
_exptl_crystal_density_diffrn    1.842
_exptl_crystal_density_method    'not measured'
_exptl_crystal_description       Plate
_exptl_crystal_F_000             368
_exptl_crystal_size_max          0.12
_exptl_crystal_size_mid          0.10
_exptl_crystal_size_min          0.06
_refine_diff_density_max         0.319
_refine_diff_density_min         -0.321
_refine_diff_density_rms         0.058
_refine_ls_abs_structure_details 'Flack H D (1983), Acta Cryst. A39, 876-881'
_refine_ls_abs_structure_Flack   0.027(13)
_refine_ls_extinction_method     none
_refine_ls_goodness_of_fit_ref   1.066
_refine_ls_hydrogen_treatment    constr
_refine_ls_matrix_type           full
_refine_ls_number_parameters     173
_refine_ls_number_reflns         3041
_refine_ls_number_restraints     1
_refine_ls_restrained_S_all      1.065
_refine_ls_R_factor_all          0.0165
_refine_ls_R_factor_gt           0.0162
_refine_ls_shift/su_max          0.000
_refine_ls_shift/su_mean         0.000
_refine_ls_structure_factor_coef Fsqd
_refine_ls_weighting_details
'calc w=1/[\s^2^(Fo^2^)+(0.0000P)^2^+0.0718P] where P=(Fo^2^+2Fc^2^)/3'
_refine_ls_weighting_scheme      calc
_refine_ls_wR_factor_gt          0.0386
_refine_ls_wR_factor_ref         0.0388
_reflns_number_gt                3008
_reflns_number_total             3041
_reflns_threshold_expression     >2\s(I)
_cod_data_source_file            c2ce26008e.txt
_cod_data_source_block           4-aminopyridinium_5-iodosalicylate_monohydrate
_cod_original_sg_symbol_H-M      P21
_cod_database_code               7214833
loop_
_symmetry_equiv_pos_as_xyz
'x, y, z'
'-x, y+1/2, -z'
loop_
_atom_site_label
_atom_site_type_symbol
_atom_site_fract_x
_atom_site_fract_y
_atom_site_fract_z
_atom_site_U_iso_or_equiv
_atom_site_adp_type
_atom_site_occupancy
_atom_site_symmetry_multiplicity
_atom_site_calc_flag
_atom_site_refinement_flags
I11 I 0.41256(2) 0.270135(16) 0.159318(11) 0.01949(5) Uani 1 1 d .
O11 O 1.2009(4) 0.09105(9) 0.54318(19) 0.0240(3) Uani 1 1 d .
O12 O 1.4148(4) 0.15695(9) 0.74567(17) 0.0241(3) Uani 1 1 d .
O13 O 1.2678(4) 0.29042(8) 0.78338(16) 0.0246(4) Uani 1 1 d .
H13 H 1.3644 0.2507 0.8015 0.037 Uiso 1 1 d R
C11 C 1.0476(5) 0.21614(12) 0.5675(3) 0.0152(4) Uani 1 1 d .
C12 C 1.0764(5) 0.28352(13) 0.6482(2) 0.0177(5) Uani 1 1 d .
C13 C 0.9137(6) 0.34511(13) 0.5915(3) 0.0231(5) Uani 1 1 d .
H13A H 0.9372 0.3906 0.6471 0.028 Uiso 1 1 calc R
C14 C 0.7183(5) 0.34126(13) 0.4557(3) 0.0220(5) Uani 1 1 d .
H14 H 0.6059 0.3836 0.4176 0.026 Uiso 1 1 calc R
C15 C 0.6875(4) 0.2744(2) 0.37486(19) 0.0174(4) Uani 1 1 d .
C16 C 0.8471(5) 0.21275(12) 0.4288(2) 0.0165(4) Uani 1 1 d .
H16 H 0.8222 0.1676 0.3722 0.020 Uiso 1 1 calc R
C17 C 1.2314(5) 0.14966(12) 0.6210(2) 0.0182(4) Uani 1 1 d .
N21 N -0.1752(5) 0.06102(12) -0.1141(2) 0.0209(4) Uani 1 1 d .
H21A H -0.3151 0.0856 -0.1742 0.025 Uiso 1 1 calc R
N22 N 0.4783(5) -0.05301(12) 0.1670(2) 0.0212(4) Uani 1 1 d .
H22A H 0.5619 -0.0327 0.2544 0.025 Uiso 1 1 calc R
H22B H 0.5356 -0.0974 0.1398 0.025 Uiso 1 1 calc R
C21 C -0.0888(6) -0.00712(14) -0.1568(3) 0.0219(5) Uani 1 1 d .
H21 H -0.1799 -0.0277 -0.2524 0.026 Uiso 1 1 calc R
C22 C 0.1244(6) -0.04694(14) -0.0670(3) 0.0205(5) Uani 1 1 d .
H22 H 0.1801 -0.0950 -0.0990 0.025 Uiso 1 1 calc R
C23 C 0.2635(6) -0.01620(13) 0.0750(3) 0.0168(5) Uani 1 1 d .
C24 C 0.1689(5) 0.05508(14) 0.1166(3) 0.0191(5) Uani 1 1 d .
H24 H 0.2554 0.0776 0.2111 0.023 Uiso 1 1 calc R
C25 C -0.0476(6) 0.09125(14) 0.0202(3) 0.0203(5) Uani 1 1 d .
H25 H -0.1103 0.1393 0.0486 0.024 Uiso 1 1 calc R
O31 O 0.6761(4) 0.00891(9) 0.46402(18) 0.0260(4) Uani 1 1 d .
H31A H 0.8246 0.0330 0.4789 0.039 Uiso 1 1 d R
H31B H 0.5626 0.0300 0.4989 0.039 Uiso 1 1 d R
loop_
_atom_site_aniso_label
_atom_site_aniso_U_11
_atom_site_aniso_U_22
_atom_site_aniso_U_33
_atom_site_aniso_U_23
_atom_site_aniso_U_13
_atom_site_aniso_U_12
I11 0.01828(7) 0.02074(7) 0.01839(7) 0.00281(7) -0.00306(5) -0.00078(7)
O11 0.0222(8) 0.0186(8) 0.0300(9) -0.0001(7) -0.0024(7) 0.0028(6)
O12 0.0227(9) 0.0258(8) 0.0221(8) 0.0047(6) -0.0057(7) -0.0001(7)
O13 0.0291(9) 0.0256(10) 0.0170(7) -0.0016(6) -0.0079(6) -0.0004(6)
C11 0.0123(10) 0.0179(11) 0.0157(10) 0.0026(8) 0.0022(8) -0.0016(8)
C12 0.0152(9) 0.0219(17) 0.0159(8) -0.0026(9) 0.0011(7) -0.0046(8)
C13 0.0272(13) 0.0190(11) 0.0231(12) -0.0038(9) 0.0023(9) 0.0009(10)
C14 0.0218(12) 0.0195(11) 0.0241(12) -0.0009(9) -0.0001(9) 0.0053(10)
C15 0.0156(8) 0.0223(10) 0.0144(7) 0.0035(14) 0.0015(6) 0.0050(14)
C16 0.0180(12) 0.0174(11) 0.0138(10) 0.0000(8) 0.0007(9) -0.0036(9)
C17 0.0139(11) 0.0204(11) 0.0201(10) 0.0037(9) 0.0009(8) -0.0001(8)
N21 0.0196(11) 0.0227(11) 0.0193(10) 0.0048(8) -0.0028(8) -0.0018(8)
N22 0.0232(10) 0.0195(10) 0.0201(10) -0.0009(7) -0.0015(7) 0.0027(8)
C21 0.0222(13) 0.0222(12) 0.0206(12) -0.0004(10) -0.0013(9) -0.0047(10)
C22 0.0228(13) 0.0180(11) 0.0207(12) -0.0034(9) 0.0021(10) -0.0003(9)
C23 0.0161(11) 0.0162(11) 0.0181(11) 0.0047(9) 0.0027(9) -0.0020(9)
C24 0.0183(12) 0.0183(11) 0.0203(12) -0.0026(10) 0.0006(9) -0.0032(9)
C25 0.0203(12) 0.0168(11) 0.0237(13) -0.0004(9) 0.0016(10) 0.0006(9)
O31 0.0231(9) 0.0265(9) 0.0275(9) -0.0083(7) -0.0015(7) 0.0013(7)
loop_
_atom_type_symbol
_atom_type_description
_atom_type_scat_dispersion_real
_atom_type_scat_dispersion_imag
_atom_type_scat_source
C C 0.0033 0.0016 'International Tables Vol C Tables 4.2.6.8 and 6.1.1.4'
H H 0.0000 0.0000 'International Tables Vol C Tables 4.2.6.8 and 6.1.1.4'
I I -0.4742 1.8119 'International Tables Vol C Tables 4.2.6.8 and 6.1.1.4'
N N 0.0061 0.0033 'International Tables Vol C Tables 4.2.6.8 and 6.1.1.4'
O O 0.0106 0.0060 'International Tables Vol C Tables 4.2.6.8 and 6.1.1.4'
loop_
_geom_angle_atom_site_label_1
_geom_angle_atom_site_label_2
_geom_angle_atom_site_label_3
_geom_angle
C12 O13 H13 109.5
C12 C11 C16 118.2(2)
C12 C11 C17 122.01(19)
C16 C11 C17 119.7(2)
O13 C12 C13 118.3(2)
O13 C12 C11 121.0(2)
C13 C12 C11 120.64(19)
C14 C13 C12 120.7(2)
C14 C13 H13A 119.6
C12 C13 H13A 119.6
C13 C14 C15 119.0(2)
C13 C14 H14 120.5
C15 C14 H14 120.5
C16 C15 C14 121.14(18)
C16 C15 I11 119.6(2)
C14 C15 I11 119.1(2)
C15 C16 C11 120.2(2)
C15 C16 H16 119.9
C11 C16 H16 119.9
O11 C17 O12 123.84(19)
O11 C17 C11 119.52(19)
O12 C17 C11 116.64(19)
C25 N21 C21 120.0(2)
C25 N21 H21A 120.0
C21 N21 H21A 120.0
C23 N22 H22A 120.0
C23 N22 H22B 120.0
H22A N22 H22B 120.0
N21 C21 C22 121.8(2)
N21 C21 H21 119.1
C22 C21 H21 119.1
C21 C22 C23 119.4(2)
C21 C22 H22 120.3
C23 C22 H22 120.3
N22 C23 C24 120.8(2)
N22 C23 C22 121.6(2)
C24 C23 C22 117.6(2)
C25 C24 C23 119.4(2)
C25 C24 H24 120.3
C23 C24 H24 120.3
N21 C25 C24 121.9(2)
N21 C25 H25 119.0
C24 C25 H25 119.0
H31A O31 H31B 104.0
loop_
_geom_bond_atom_site_label_1
_geom_bond_atom_site_label_2
_geom_bond_distance
I11 C15 2.102(2)
O11 C17 1.252(3)
O12 C17 1.277(3)
O13 C12 1.365(2)
O13 H13 0.8401
C11 C12 1.399(3)
C11 C16 1.406(3)
C11 C17 1.493(3)
C12 C13 1.383(3)
C13 C14 1.375(3)
C13 H13A 0.9500
C14 C15 1.393(4)
C14 H14 0.9500
C15 C16 1.371(4)
C16 H16 0.9500
N21 C25 1.343(3)
N21 C21 1.351(4)
N21 H21A 0.8800
N22 C23 1.342(3)
N22 H22A 0.8800
N22 H22B 0.8800
C21 C22 1.356(4)
C21 H21 0.9500
C22 C23 1.418(4)
C22 H22 0.9500
C23 C24 1.411(4)
C24 C25 1.361(4)
C24 H24 0.9500
C25 H25 0.9500
O31 H31A 0.7841
O31 H31B 0.7182
loop_
_geom_hbond_atom_site_label_D
_geom_hbond_atom_site_label_H
_geom_hbond_atom_site_label_A
_geom_hbond_distance_DH
_geom_hbond_distance_HA
_geom_hbond_distance_DA
_geom_hbond_angle_DHA
_geom_hbond_site_symmetry_A
N21 H21A O12 0.88 1.84 2.692(3) 163.3 1_354
N22 H22B O13 0.88 2.27 3.055(3) 147.9 2_746
O31 H31B O11 0.72 2.01 2.709(3) 166.3 1_455
O13 H13 O12 0.84 1.78 2.526(2) 146.9 .
N22 H22A O31 0.88 1.97 2.835(3) 169.5 .
O31 H31A O11 0.78 1.99 2.768(3) 173.3 .
loop_
_geom_torsion_atom_site_label_1
_geom_torsion_atom_site_label_2
_geom_torsion_atom_site_label_3
_geom_torsion_atom_site_label_4
_geom_torsion
C16 C11 C12 O13 -179.87(18)
C17 C11 C12 O13 -2.4(3)
C16 C11 C12 C13 -0.6(3)
C17 C11 C12 C13 176.89(19)
O13 C12 C13 C14 179.9(2)
C11 C12 C13 C14 0.6(4)
C12 C13 C14 C15 -0.4(4)
C13 C14 C15 C16 0.3(4)
C13 C14 C15 I11 -175.81(17)
C14 C15 C16 C11 -0.3(3)
I11 C15 C16 C11 175.77(15)
C12 C11 C16 C15 0.5(3)
C17 C11 C16 C15 -177.1(2)
C12 C11 C17 O11 -178.8(2)
C16 C11 C17 O11 -1.3(3)
C12 C11 C17 O12 0.8(3)
C16 C11 C17 O12 178.26(18)
C25 N21 C21 C22 0.4(4)
N21 C21 C22 C23 -0.6(4)
C21 C22 C23 N22 -179.2(2)
C21 C22 C23 C24 0.6(4)
N22 C23 C24 C25 179.4(2)
C22 C23 C24 C25 -0.3(3)
C21 N21 C25 C24 -0.1(4)
C23 C24 C25 N21 0.1(4)
