#------------------------------------------------------------------------------
#$Date: 2016-03-26 21:35:43 +0200 (Sat, 26 Mar 2016) $
#$Revision: 180478 $
#$URL: svn://www.crystallography.net/cod/cif/7/21/47/7214775.cif $
#------------------------------------------------------------------------------
#
# This file is available in the Crystallography Open Database (COD),
# http://www.crystallography.net/
#
# All data on this site have been placed in the public domain by the
# contributors.
#
data_7214775
loop_
_publ_author_name
'Khavasi, Hamid Reza'
'Barforoush, Maryam Mehdizadeh'
'Fard, Mahmood Azizpoor'
_publ_section_title
;
 Influence of ligand substituent on structural assembly and coordination
 geometry
;
_journal_issue                   21
_journal_name_full               CrystEngComm
_journal_page_first              7236
_journal_paper_doi               10.1039/c2ce25898f
_journal_volume                  14
_journal_year                    2012
_chemical_formula_moiety         'C13 H13 Br2 Hg N3 O2'
_chemical_formula_sum            'C13 H13 Br2 Hg N3 O2'
_chemical_formula_weight         603.65
_chemical_name_systematic
;
?
;
_space_group_IT_number           2
_symmetry_cell_setting           triclinic
_symmetry_space_group_name_Hall  '-P 1'
_symmetry_space_group_name_H-M   'P -1'
_atom_sites_solution_hydrogens   geom
_atom_sites_solution_primary     direct
_atom_sites_solution_secondary   difmap
_audit_creation_method           SHELXL-97
_cell_angle_alpha                93.388(10)
_cell_angle_beta                 96.104(10)
_cell_angle_gamma                103.975(10)
_cell_formula_units_Z            2
_cell_length_a                   7.7934(10)
_cell_length_b                   8.7382(12)
_cell_length_c                   12.4967(14)
_cell_measurement_reflns_used    1432
_cell_measurement_temperature    298(2)
_cell_measurement_theta_max      29.19
_cell_measurement_theta_min      2.41
_cell_volume                     817.98(18)
_computing_cell_refinement       'X-Area 1.31 (Stoe & Cie GmbH, 2005)'
_computing_data_collection       'X-Area 1.31 (Stoe & Cie GmbH, 2005)'
_computing_data_reduction        'X-Area 1.31 (Stoe & Cie GmbH, 2005)'
_computing_molecular_graphics    'ORTEP-3 for Windows (Farrugia, 1997)'
_computing_publication_material  'WinGX (Farrugia, 1999)'
_computing_structure_refinement  'SHELXL-97 (Sheldrick, 1997)'
_computing_structure_solution    'SHELXS-97 (Sheldrick, 1990)'
_diffrn_ambient_temperature      298(2)
_diffrn_detector_area_resol_mean '0.15 mm'
_diffrn_measured_fraction_theta_full 0.989
_diffrn_measured_fraction_theta_max 0.989
_diffrn_measurement_device_type  'STOE IPDS II'
_diffrn_measurement_method       'rotation method'
_diffrn_radiation_monochromator  graphite
_diffrn_radiation_source         'fine-focus sealed tube'
_diffrn_radiation_type           MoK\a
_diffrn_radiation_wavelength     0.71073
_diffrn_reflns_av_R_equivalents  0.0895
_diffrn_reflns_av_sigmaI/netI    0.0641
_diffrn_reflns_limit_h_max       10
_diffrn_reflns_limit_h_min       -10
_diffrn_reflns_limit_k_max       11
_diffrn_reflns_limit_k_min       -11
_diffrn_reflns_limit_l_max       13
_diffrn_reflns_limit_l_min       -17
_diffrn_reflns_number            9135
_diffrn_reflns_theta_full        29.19
_diffrn_reflns_theta_max         29.19
_diffrn_reflns_theta_min         2.41
_diffrn_standards_number         0
_exptl_absorpt_coefficient_mu    14.299
_exptl_absorpt_correction_T_max  0.065
_exptl_absorpt_correction_T_min  0.022
_exptl_absorpt_correction_type   numerical
_exptl_absorpt_process_details   'shape of crystal determined optically'
_exptl_crystal_colour            yellow
_exptl_crystal_density_diffrn    2.451
_exptl_crystal_density_method    'not measured'
_exptl_crystal_description       block
_exptl_crystal_F_000             556
_exptl_crystal_size_max          0.33
_exptl_crystal_size_mid          0.25
_exptl_crystal_size_min          0.20
_refine_diff_density_max         3.974
_refine_diff_density_min         -3.194
_refine_diff_density_rms         0.303
_refine_ls_extinction_method     none
_refine_ls_goodness_of_fit_ref   1.182
_refine_ls_hydrogen_treatment    constr
_refine_ls_matrix_type           full
_refine_ls_number_parameters     190
_refine_ls_number_reflns         4369
_refine_ls_number_restraints     0
_refine_ls_restrained_S_all      1.182
_refine_ls_R_factor_all          0.0727
_refine_ls_R_factor_gt           0.0626
_refine_ls_shift/su_max          0.006
_refine_ls_shift/su_mean         0.000
_refine_ls_structure_factor_coef Fsqd
_refine_ls_weighting_details
'calc w=1/[\s^2^(Fo^2^)+(0.0830P)^2^+1.2981P] where P=(Fo^2^+2Fc^2^)/3'
_refine_ls_weighting_scheme      calc
_refine_ls_wR_factor_gt          0.1554
_refine_ls_wR_factor_ref         0.1629
_reflns_number_gt                3731
_reflns_number_total             4369
_reflns_threshold_expression     >2sigma(I)
_cod_data_source_file            c2ce25898f.txt
_cod_data_source_block           kh-h24
_cod_depositor_comments
;
The following automatic conversions were performed:

'_symmetry_cell_setting' value 'Triclinic' changed to 'triclinic'
according to
/usr/data/users/saulius/automatic-downloads/retrospective/RSC/lib/dictionaries/cif_core.dic
dictionary named 'cif_core.dic' version 2.4.2 from
2011-04-26.

'_exptl_absorpt_correction_type' value 'Numerical'
changed to 'numerical' according to
/usr/data/users/saulius/automatic-downloads/retrospective/RSC/lib/dictionaries/cif_core.dic
dictionary named 'cif_core.dic' version 2.4.2 from 2011-04-26.

Automatic conversion script
Id: cif_fix_values 2281 2013-09-26 08:29:07Z andrius 
;
_cod_original_sg_symbol_H-M      P-1
_cod_database_code               7214775
loop_
_symmetry_equiv_pos_as_xyz
'x, y, z'
'-x, -y, -z'
loop_
_atom_site_label
_atom_site_type_symbol
_atom_site_fract_x
_atom_site_fract_y
_atom_site_fract_z
_atom_site_U_iso_or_equiv
_atom_site_adp_type
_atom_site_occupancy
_atom_site_symmetry_multiplicity
_atom_site_calc_flag
_atom_site_refinement_flags
C1 C 0.2076(13) 0.4233(11) 0.7414(7) 0.0523(19) Uani 1 1 d .
H1 H 0.1362 0.3417 0.7733 0.063 Uiso 1 1 calc R
C2 C 0.3293(13) 0.5449(10) 0.8072(7) 0.0492(18) Uani 1 1 d .
H2 H 0.3382 0.5429 0.8818 0.059 Uiso 1 1 calc R
C3 C 0.4194(11) 0.6607(10) 0.6559(6) 0.0437(16) Uani 1 1 d .
H3 H 0.4920 0.7414 0.6240 0.052 Uiso 1 1 calc R
C4 C 0.2991(10) 0.5391(8) 0.5917(6) 0.0372(14) Uani 1 1 d .
C5 C 0.2887(11) 0.5382(9) 0.4705(6) 0.0412(15) Uani 1 1 d .
C6 C 0.1211(9) 0.3771(9) 0.3057(6) 0.0386(14) Uani 1 1 d .
C7 C 0.1924(11) 0.4705(10) 0.2265(7) 0.0452(16) Uani 1 1 d .
H7 H 0.2743 0.5675 0.2459 0.054 Uiso 1 1 calc R
C8 C 0.1396(16) 0.4169(15) 0.1190(8) 0.064(3) Uani 1 1 d .
H8 H 0.1951 0.4743 0.0664 0.076 Uiso 1 1 calc R
C9 C 0.0080(14) 0.2818(14) 0.0877(8) 0.062(2) Uani 1 1 d .
H9 H -0.0284 0.2513 0.0147 0.074 Uiso 1 1 calc R
C10 C -0.0717(13) 0.1899(12) 0.1650(7) 0.052(2) Uani 1 1 d .
H10 H -0.1610 0.0979 0.1442 0.063 Uiso 1 1 calc R
C11 C -0.0145(11) 0.2389(10) 0.2752(6) 0.0409(15) Uani 1 1 d .
C12 C -0.2167(12) 0.0158(10) 0.3369(9) 0.055(2) Uani 1 1 d .
H12A H -0.1700 -0.0640 0.3010 0.067 Uiso 1 1 calc R
H12B H -0.3182 0.0307 0.2904 0.067 Uiso 1 1 calc R
C13 C -0.2708(14) -0.0345(13) 0.4417(10) 0.063(2) Uani 1 1 d .
H13A H -0.3171 0.0452 0.4763 0.076 Uiso 1 1 calc R
H13B H -0.1694 -0.0489 0.4869 0.076 Uiso 1 1 calc R
H13C H -0.3611 -0.1325 0.4300 0.076 Uiso 1 1 calc R
N1 N 0.1912(9) 0.4213(8) 0.6342(6) 0.0454(14) Uani 1 1 d .
N2 N 0.4324(11) 0.6632(9) 0.7642(6) 0.0500(16) Uani 1 1 d .
N3 N 0.1638(9) 0.4159(8) 0.4168(5) 0.0427(14) Uani 1 1 d .
H3A H 0.1017 0.3529 0.4566 0.051 Uiso 1 1 calc R
O1 O 0.3875(11) 0.6407(9) 0.4289(6) 0.067(2) Uani 1 1 d .
O2 O -0.0822(8) 0.1617(7) 0.3586(5) 0.0491(13) Uani 1 1 d .
Hg1 Hg 0.64459(5) 0.88961(4) 0.88427(3) 0.05173(15) Uani 1 1 d .
Br1 Br 0.56098(17) 0.79092(13) 1.05526(7) 0.0632(3) Uani 1 1 d .
Br2 Br 0.76012(16) 1.06190(14) 0.75073(10) 0.0667(3) Uani 1 1 d .
loop_
_atom_site_aniso_label
_atom_site_aniso_U_11
_atom_site_aniso_U_22
_atom_site_aniso_U_33
_atom_site_aniso_U_23
_atom_site_aniso_U_13
_atom_site_aniso_U_12
C1 0.060(5) 0.046(4) 0.044(4) 0.005(3) 0.012(4) -0.002(4)
C2 0.061(5) 0.045(4) 0.039(4) 0.003(3) 0.009(3) 0.006(4)
C3 0.043(4) 0.045(4) 0.038(4) -0.003(3) 0.004(3) 0.004(3)
C4 0.040(3) 0.032(3) 0.037(3) -0.002(3) 0.005(3) 0.006(3)
C5 0.044(4) 0.040(3) 0.034(3) 0.001(3) 0.004(3) -0.001(3)
C6 0.033(3) 0.040(3) 0.042(4) -0.001(3) 0.007(3) 0.005(3)
C7 0.041(4) 0.046(4) 0.041(4) 0.000(3) 0.005(3) -0.003(3)
C8 0.075(6) 0.076(7) 0.038(4) 0.006(4) 0.019(4) 0.009(5)
C9 0.065(6) 0.075(7) 0.037(4) -0.008(4) 0.001(4) 0.009(5)
C10 0.054(4) 0.055(5) 0.040(4) -0.012(3) -0.002(3) 0.005(4)
C11 0.044(4) 0.041(4) 0.034(3) 0.002(3) 0.001(3) 0.006(3)
C12 0.048(4) 0.037(4) 0.067(6) -0.009(4) 0.003(4) -0.010(3)
C13 0.055(5) 0.054(5) 0.072(6) 0.011(5) 0.016(4) -0.009(4)
N1 0.045(3) 0.039(3) 0.045(4) 0.000(3) 0.008(3) -0.003(3)
N2 0.056(4) 0.047(4) 0.040(3) -0.003(3) -0.005(3) 0.005(3)
N3 0.046(3) 0.038(3) 0.033(3) -0.003(2) 0.001(2) -0.006(3)
O1 0.077(5) 0.057(4) 0.046(3) 0.004(3) 0.005(3) -0.024(4)
O2 0.051(3) 0.043(3) 0.039(3) -0.003(2) 0.001(2) -0.012(2)
Hg1 0.0550(2) 0.0546(2) 0.03802(19) -0.00356(13) 0.00240(12) 0.00240(14)
Br1 0.0863(7) 0.0597(5) 0.0364(4) -0.0013(4) 0.0044(4) 0.0071(5)
Br2 0.0682(6) 0.0662(6) 0.0640(6) 0.0125(5) 0.0196(5) 0.0072(5)
loop_
_atom_type_symbol
_atom_type_description
_atom_type_scat_dispersion_real
_atom_type_scat_dispersion_imag
_atom_type_scat_source
C C 0.0033 0.0016 'International Tables Vol C Tables 4.2.6.8 and 6.1.1.4'
H H 0.0000 0.0000 'International Tables Vol C Tables 4.2.6.8 and 6.1.1.4'
N N 0.0061 0.0033 'International Tables Vol C Tables 4.2.6.8 and 6.1.1.4'
O O 0.0106 0.0060 'International Tables Vol C Tables 4.2.6.8 and 6.1.1.4'
Hg Hg -2.3894 9.2266 'International Tables Vol C Tables 4.2.6.8 and 6.1.1.4'
Br Br -0.2901 2.4595 'International Tables Vol C Tables 4.2.6.8 and 6.1.1.4'
loop_
_geom_angle_atom_site_label_1
_geom_angle_atom_site_label_2
_geom_angle_atom_site_label_3
_geom_angle
N1 C1 C2 121.5(8)
N1 C1 H1 119.2
C2 C1 H1 119.2
N2 C2 C1 120.7(8)
N2 C2 H2 119.7
C1 C2 H2 119.7
N2 C3 C4 120.5(8)
N2 C3 H3 119.7
C4 C3 H3 119.7
N1 C4 C3 121.8(8)
N1 C4 C5 118.8(6)
C3 C4 C5 119.5(7)
O1 C5 N3 125.3(8)
O1 C5 C4 120.8(7)
N3 C5 C4 113.9(7)
C7 C6 N3 125.0(7)
C7 C6 C11 119.6(7)
N3 C6 C11 115.1(7)
C8 C7 C6 119.0(8)
C8 C7 H7 120.5
C6 C7 H7 120.5
C9 C8 C7 121.9(10)
C9 C8 H8 119.1
C7 C8 H8 119.1
C8 C9 C10 120.2(9)
C8 C9 H9 119.9
C10 C9 H9 119.9
C9 C10 C11 118.8(8)
C9 C10 H10 120.6
C11 C10 H10 120.6
O2 C11 C6 115.0(7)
O2 C11 C10 124.9(8)
C6 C11 C10 120.2(8)
O2 C12 C13 107.3(7)
O2 C12 H12A 110.2
C13 C12 H12A 110.2
O2 C12 H12B 110.2
C13 C12 H12B 110.2
H12A C12 H12B 108.5
C12 C13 H13A 109.5
C12 C13 H13B 109.5
H13A C13 H13B 109.5
C12 C13 H13C 109.5
H13A C13 H13C 109.5
H13B C13 H13C 109.5
C1 N1 C4 117.3(7)
C2 N2 C3 118.2(7)
C2 N2 Hg1 120.5(6)
C3 N2 Hg1 121.2(6)
C5 N3 C6 129.1(7)
C5 N3 H3A 115.5
C6 N3 H3A 115.5
C11 O2 C12 119.7(7)
Br2 Hg1 Br1 162.34(5)
Br2 Hg1 N2 100.75(19)
Br1 Hg1 N2 95.86(19)
loop_
_geom_bond_atom_site_label_1
_geom_bond_atom_site_label_2
_geom_bond_distance
C1 N1 1.332(11)
C1 C2 1.395(12)
C1 H1 0.9300
C2 N2 1.327(12)
C2 H2 0.9300
C3 N2 1.344(11)
C3 C4 1.382(10)
C3 H3 0.9300
C4 N1 1.338(10)
C4 C5 1.507(11)
C5 O1 1.214(10)
C5 N3 1.346(9)
C6 C7 1.395(11)
C6 N3 1.395(10)
C6 C11 1.402(10)
C7 C8 1.382(12)
C7 H7 0.9300
C8 C9 1.369(16)
C8 H8 0.9300
C9 C10 1.393(15)
C9 H9 0.9300
C10 C11 1.410(11)
C10 H10 0.9300
C11 O2 1.360(10)
C12 O2 1.432(9)
C12 C13 1.477(15)
C12 H12A 0.9700
C12 H12B 0.9700
C13 H13A 0.9600
C13 H13B 0.9600
C13 H13C 0.9600
N2 Hg1 2.538(7)
N3 H3A 0.8600
Hg1 Br2 2.4133(12)
Hg1 Br1 2.4447(11)
loop_
_geom_torsion_atom_site_label_1
_geom_torsion_atom_site_label_2
_geom_torsion_atom_site_label_3
_geom_torsion_atom_site_label_4
_geom_torsion
N1 C1 C2 N2 0.3(15)
N2 C3 C4 N1 0.5(13)
N2 C3 C4 C5 -179.3(7)
N1 C4 C5 O1 -178.1(8)
C3 C4 C5 O1 1.7(14)
N1 C4 C5 N3 1.6(11)
C3 C4 C5 N3 -178.6(8)
N3 C6 C7 C8 179.3(9)
C11 C6 C7 C8 -6.1(13)
C6 C7 C8 C9 5.9(17)
C7 C8 C9 C10 -2.9(18)
C8 C9 C10 C11 0.1(16)
C7 C6 C11 O2 -176.1(7)
N3 C6 C11 O2 -1.0(11)
C7 C6 C11 C10 3.4(12)
N3 C6 C11 C10 178.6(8)
C9 C10 C11 O2 179.1(9)
C9 C10 C11 C6 -0.4(14)
C2 C1 N1 C4 1.4(14)
C3 C4 N1 C1 -1.8(13)
C5 C4 N1 C1 178.0(8)
C1 C2 N2 C3 -1.6(14)
C1 C2 N2 Hg1 177.5(7)
C4 C3 N2 C2 1.2(13)
C4 C3 N2 Hg1 -177.9(6)
O1 C5 N3 C6 1.1(16)
C4 C5 N3 C6 -178.5(8)
C7 C6 N3 C5 -6.5(14)
C11 C6 N3 C5 178.6(8)
C6 C11 O2 C12 -177.6(8)
C10 C11 O2 C12 2.8(13)
C13 C12 O2 C11 -176.8(8)
C2 N2 Hg1 Br2 -175.2(7)
C3 N2 Hg1 Br2 3.9(7)
C2 N2 Hg1 Br1 -1.2(7)
C3 N2 Hg1 Br1 177.9(7)
