#------------------------------------------------------------------------------
#$Date: 2016-03-26 21:39:43 +0200 (Sat, 26 Mar 2016) $
#$Revision: 180480 $
#$URL: svn://www.crystallography.net/cod/cif/7/21/49/7214935.cif $
#------------------------------------------------------------------------------
#
# This file is available in the Crystallography Open Database (COD),
# http://www.crystallography.net/
#
# All data on this site have been placed in the public domain by the
# contributors.
#
data_7214935
loop_
_publ_author_name
'Hsiao, Hui-Lin'
'Wu, Chia-Jun'
'Hsu, Wayne'
'Yeh, Chun-Wei'
'Xie, Ming-Yuan'
'Huang, Wun-Jhih'
'Chen, Jhy-Der'
_publ_section_title
;
 Diverse Ag(i) complexes constructed from asymmetric pyridyl and pyrimidyl
 amide ligands: roles of Ag&#x22EF;Ag and \p--\p interactions
;
_journal_issue                   23
_journal_name_full               CrystEngComm
_journal_page_first              8143
_journal_paper_doi               10.1039/c2ce25995h
_journal_volume                  14
_journal_year                    2012
_chemical_formula_sum            'C14 H12 N2 O3'
_chemical_formula_weight         256.26
_chemical_name_systematic
;
?
;
_space_group_IT_number           2
_symmetry_cell_setting           triclinic
_symmetry_space_group_name_Hall  '-P 1'
_symmetry_space_group_name_H-M   'P -1'
_atom_sites_solution_hydrogens   geom
_atom_sites_solution_primary     direct
_atom_sites_solution_secondary   difmap
_audit_creation_method           SHELXL-97
_cell_angle_alpha                90.857(14)
_cell_angle_beta                 100.574(13)
_cell_angle_gamma                106.749(13)
_cell_formula_units_Z            2
_cell_length_a                   5.7769(12)
_cell_length_b                   7.8170(18)
_cell_length_c                   13.529(3)
_cell_measurement_reflns_used    2529
_cell_measurement_temperature    296(2)
_cell_measurement_theta_max      27.59
_cell_measurement_theta_min      2.73
_cell_volume                     573.6(2)
_computing_cell_refinement       'SAINT V7.68A (Bruker AXS, 2010)'
_computing_data_collection       'APEX2 (Bruker AXS, 2010)'
_computing_data_reduction        'SAINT V7.68A (Bruker AXS, 2010)'
_computing_molecular_graphics    'SHELXTL (Sheldrick, 2008)'
_computing_publication_material  'SHELXTL (Sheldrick, 2008)'
_computing_structure_refinement  'SHELXL-97 (Sheldrick, 2008)'
_computing_structure_solution    'SHELXS-97 (Sheldrick, 2008)'
_diffrn_ambient_temperature      296(2)
_diffrn_measured_fraction_theta_full 0.998
_diffrn_measured_fraction_theta_max 0.979
_diffrn_measurement_device_type  'CCD area detector'
_diffrn_measurement_method       'phi and omega scans'
_diffrn_radiation_monochromator  graphite
_diffrn_radiation_source         'fine-focus sealed tube'
_diffrn_radiation_type           MoK\a
_diffrn_radiation_wavelength     0.71073
_diffrn_reflns_av_R_equivalents  0.0986
_diffrn_reflns_av_sigmaI/netI    0.1203
_diffrn_reflns_limit_h_max       7
_diffrn_reflns_limit_h_min       -7
_diffrn_reflns_limit_k_max       9
_diffrn_reflns_limit_k_min       -10
_diffrn_reflns_limit_l_max       13
_diffrn_reflns_limit_l_min       -17
_diffrn_reflns_number            10218
_diffrn_reflns_theta_full        25.00
_diffrn_reflns_theta_max         28.49
_diffrn_reflns_theta_min         2.73
_exptl_absorpt_coefficient_mu    0.106
_exptl_absorpt_correction_T_max  1.0000
_exptl_absorpt_correction_T_min  0.7674
_exptl_absorpt_correction_type   multi-scan
_exptl_absorpt_process_details   'SADABS V2008/1 (Bruker AXS, 2008)'
_exptl_crystal_colour            colourless
_exptl_crystal_density_diffrn    1.484
_exptl_crystal_density_method    'not measured'
_exptl_crystal_description       plate
_exptl_crystal_F_000             268
_exptl_crystal_size_max          0.20
_exptl_crystal_size_mid          0.10
_exptl_crystal_size_min          0.03
_refine_diff_density_max         0.273
_refine_diff_density_min         -0.329
_refine_diff_density_rms         0.078
_refine_ls_extinction_method     none
_refine_ls_goodness_of_fit_ref   1.004
_refine_ls_hydrogen_treatment    constr
_refine_ls_matrix_type           full
_refine_ls_number_parameters     173
_refine_ls_number_reflns         2851
_refine_ls_number_restraints     0
_refine_ls_restrained_S_all      1.004
_refine_ls_R_factor_all          0.1275
_refine_ls_R_factor_gt           0.0554
_refine_ls_shift/su_max          0.000
_refine_ls_shift/su_mean         0.000
_refine_ls_structure_factor_coef Fsqd
_refine_ls_weighting_details
'calc w=1/[\s^2^(Fo^2^)+(0.0435P)^2^+0.0000P] where P=(Fo^2^+2Fc^2^)/3'
_refine_ls_weighting_scheme      calc
_refine_ls_wR_factor_gt          0.1055
_refine_ls_wR_factor_ref         0.1307
_reflns_number_gt                1496
_reflns_number_total             2851
_reflns_threshold_expression     >2sigma(I)
_cod_data_source_file            c2ce25995h.txt
_cod_data_source_block           L1
_cod_depositor_comments
;
The following automatic conversions were performed:

'_symmetry_cell_setting' value 'Triclinic' changed to 'triclinic'
according to
/usr/data/users/saulius/automatic-downloads/retrospective/RSC/lib/dictionaries/cif_core.dic
dictionary named 'cif_core.dic' version 2.4.2 from 2011-04-26.

Automatic conversion script
Id: cif_fix_values 2281 2013-09-26 08:29:07Z andrius 
;
_cod_original_sg_symbol_H-M      P-1
_cod_database_code               7214935
loop_
_symmetry_equiv_pos_as_xyz
'x, y, z'
'-x, -y, -z'
loop_
_atom_site_label
_atom_site_type_symbol
_atom_site_fract_x
_atom_site_fract_y
_atom_site_fract_z
_atom_site_U_iso_or_equiv
_atom_site_adp_type
_atom_site_occupancy
_atom_site_symmetry_multiplicity
_atom_site_calc_flag
_atom_site_refinement_flags
O1 O -0.1075(3) 0.6711(2) 0.37027(11) 0.0207(4) Uani 1 1 d .
O2 O -0.1787(3) 0.1291(2) -0.06353(12) 0.0288(5) Uani 1 1 d .
O3 O 0.2292(3) 0.2612(2) -0.04253(11) 0.0220(4) Uani 1 1 d .
N1 N 0.2510(3) 0.6100(3) 0.43910(13) 0.0177(5) Uani 1 1 d .
H1A H 0.3291 0.5331 0.4330 0.021 Uiso 1 1 calc R
N2 N 0.5534(3) 0.7154(3) 0.57992(13) 0.0178(5) Uani 1 1 d .
C1 C 0.6651(4) 0.8371(3) 0.65796(16) 0.0182(5) Uani 1 1 d .
H1B H 0.8139 0.8305 0.6954 0.022 Uiso 1 1 calc R
C2 C 0.5741(4) 0.9713(3) 0.68642(17) 0.0198(5) Uani 1 1 d .
H2B H 0.6595 1.0534 0.7407 0.024 Uiso 1 1 calc R
C3 C 0.3515(4) 0.9791(3) 0.63131(16) 0.0195(5) Uani 1 1 d .
H3A H 0.2828 1.0665 0.6486 0.023 Uiso 1 1 calc R
C4 C 0.2313(4) 0.8563(3) 0.55025(16) 0.0198(6) Uani 1 1 d .
H4A H 0.0800 0.8586 0.5131 0.024 Uiso 1 1 calc R
C5 C 0.3410(4) 0.7294(3) 0.52539(16) 0.0163(5) Uani 1 1 d .
C6 C 0.0544(4) 0.6012(3) 0.36373(16) 0.0173(5) Uani 1 1 d .
C7 C 0.0516(4) 0.5018(3) 0.26764(16) 0.0157(5) Uani 1 1 d .
C8 C -0.1720(4) 0.3905(3) 0.21368(16) 0.0183(5) Uani 1 1 d .
H8A H -0.3147 0.3743 0.2396 0.022 Uiso 1 1 calc R
C9 C -0.1842(4) 0.3038(3) 0.12212(17) 0.0190(5) Uani 1 1 d .
H9A H -0.3337 0.2282 0.0873 0.023 Uiso 1 1 calc R
C10 C 0.0291(4) 0.3303(3) 0.08203(16) 0.0163(5) Uani 1 1 d .
C11 C 0.2501(4) 0.4443(3) 0.13434(17) 0.0178(5) Uani 1 1 d .
H11A H 0.3911 0.4652 0.1068 0.021 Uiso 1 1 calc R
C12 C 0.2636(4) 0.5275(3) 0.22737(16) 0.0173(5) Uani 1 1 d .
H12A H 0.4141 0.6006 0.2629 0.021 Uiso 1 1 calc R
C13 C 0.0104(4) 0.2299(3) -0.01523(17) 0.0190(5) Uani 1 1 d .
C14 C 0.2321(4) 0.1626(3) -0.13403(17) 0.0237(6) Uani 1 1 d .
H14A H 0.3963 0.1572 -0.1335 0.036 Uiso 1 1 calc R
H14B H 0.1798 0.2221 -0.1917 0.036 Uiso 1 1 calc R
H14C H 0.1223 0.0433 -0.1373 0.036 Uiso 1 1 calc R
loop_
_atom_site_aniso_label
_atom_site_aniso_U_11
_atom_site_aniso_U_22
_atom_site_aniso_U_33
_atom_site_aniso_U_23
_atom_site_aniso_U_13
_atom_site_aniso_U_12
O1 0.0178(8) 0.0274(10) 0.0200(9) -0.0012(7) 0.0021(7) 0.0124(7)
O2 0.0212(8) 0.0377(12) 0.0237(9) -0.0084(8) 0.0001(7) 0.0060(8)
O3 0.0245(8) 0.0265(10) 0.0163(9) -0.0042(7) 0.0072(7) 0.0079(7)
N1 0.0205(9) 0.0200(12) 0.0157(10) -0.0027(9) 0.0002(8) 0.0131(8)
N2 0.0165(9) 0.0215(12) 0.0162(10) 0.0006(9) 0.0019(8) 0.0077(8)
C1 0.0148(10) 0.0219(14) 0.0165(12) 0.0009(10) 0.0024(9) 0.0038(10)
C2 0.0229(12) 0.0171(13) 0.0178(12) -0.0005(10) 0.0033(10) 0.0037(10)
C3 0.0236(11) 0.0184(14) 0.0200(13) 0.0000(10) 0.0068(10) 0.0101(10)
C4 0.0197(11) 0.0228(15) 0.0177(12) -0.0023(11) 0.0017(10) 0.0087(10)
C5 0.0180(11) 0.0193(14) 0.0129(12) 0.0011(10) 0.0039(9) 0.0072(10)
C6 0.0151(11) 0.0204(14) 0.0160(12) 0.0046(10) 0.0024(9) 0.0046(10)
C7 0.0179(11) 0.0189(13) 0.0132(12) 0.0032(10) 0.0019(9) 0.0108(10)
C8 0.0179(11) 0.0203(14) 0.0177(12) 0.0002(10) 0.0039(9) 0.0069(10)
C9 0.0165(11) 0.0214(14) 0.0189(12) -0.0004(11) 0.0009(9) 0.0069(10)
C10 0.0197(11) 0.0163(13) 0.0138(12) 0.0025(10) 0.0017(9) 0.0077(9)
C11 0.0171(11) 0.0196(14) 0.0192(12) 0.0048(10) 0.0059(9) 0.0078(10)
C12 0.0167(10) 0.0169(13) 0.0176(12) 0.0006(10) 0.0013(9) 0.0053(9)
C13 0.0196(11) 0.0219(14) 0.0174(12) 0.0039(11) 0.0040(10) 0.0086(10)
C14 0.0277(12) 0.0259(15) 0.0203(13) -0.0013(11) 0.0082(11) 0.0105(11)
loop_
_atom_type_symbol
_atom_type_description
_atom_type_scat_dispersion_real
_atom_type_scat_dispersion_imag
_atom_type_scat_source
C C 0.0033 0.0016 'International Tables Vol C Tables 4.2.6.8 and 6.1.1.4'
H H 0.0000 0.0000 'International Tables Vol C Tables 4.2.6.8 and 6.1.1.4'
N N 0.0061 0.0033 'International Tables Vol C Tables 4.2.6.8 and 6.1.1.4'
O O 0.0106 0.0060 'International Tables Vol C Tables 4.2.6.8 and 6.1.1.4'
loop_
_geom_angle_atom_site_label_1
_geom_angle_atom_site_label_2
_geom_angle_atom_site_label_3
_geom_angle
C13 O3 C14 116.17(17)
C6 N1 C5 127.8(2)
C6 N1 H1A 116.1
C5 N1 H1A 116.1
C1 N2 C5 116.9(2)
N2 C1 C2 124.5(2)
N2 C1 H1B 117.8
C2 C1 H1B 117.8
C1 C2 C3 117.5(2)
C1 C2 H2B 121.2
C3 C2 H2B 121.2
C2 C3 C4 119.6(2)
C2 C3 H3A 120.2
C4 C3 H3A 120.2
C3 C4 C5 118.7(2)
C3 C4 H4A 120.7
C5 C4 H4A 120.7
N2 C5 C4 122.7(2)
N2 C5 N1 113.1(2)
C4 C5 N1 124.1(2)
O1 C6 N1 124.4(2)
O1 C6 C7 120.82(19)
N1 C6 C7 114.7(2)
C12 C7 C8 119.2(2)
C12 C7 C6 121.60(19)
C8 C7 C6 119.09(19)
C9 C8 C7 120.8(2)
C9 C8 H8A 119.6
C7 C8 H8A 119.6
C8 C9 C10 119.8(2)
C8 C9 H9A 120.1
C10 C9 H9A 120.1
C11 C10 C9 119.5(2)
C11 C10 C13 122.3(2)
C9 C10 C13 118.22(19)
C10 C11 C12 120.7(2)
C10 C11 H11A 119.6
C12 C11 H11A 119.6
C11 C12 C7 120.0(2)
C11 C12 H12A 120.0
C7 C12 H12A 120.0
O2 C13 O3 123.4(2)
O2 C13 C10 124.5(2)
O3 C13 C10 112.03(18)
O3 C14 H14A 109.5
O3 C14 H14B 109.5
H14A C14 H14B 109.5
O3 C14 H14C 109.5
H14A C14 H14C 109.5
H14B C14 H14C 109.5
loop_
_geom_bond_atom_site_label_1
_geom_bond_atom_site_label_2
_geom_bond_distance
O1 C6 1.226(3)
O2 C13 1.211(3)
O3 C13 1.338(2)
O3 C14 1.454(3)
N1 C6 1.365(3)
N1 C5 1.404(3)
N1 H1A 0.8600
N2 C1 1.342(3)
N2 C5 1.345(3)
C1 C2 1.380(3)
C1 H1B 0.9300
C2 C3 1.381(3)
C2 H2B 0.9300
C3 C4 1.382(3)
C3 H3A 0.9300
C4 C5 1.389(3)
C4 H4A 0.9300
C6 C7 1.500(3)
C7 C12 1.394(3)
C7 C8 1.395(3)
C8 C9 1.383(3)
C8 H8A 0.9300
C9 C10 1.399(3)
C9 H9A 0.9300
C10 C11 1.385(3)
C10 C13 1.493(3)
C11 C12 1.387(3)
C11 H11A 0.9300
C12 H12A 0.9300
C14 H14A 0.9600
C14 H14B 0.9600
C14 H14C 0.9600
