#------------------------------------------------------------------------------
#$Date: 2016-03-26 21:26:48 +0200 (Sat, 26 Mar 2016) $
#$Revision: 180475 $
#$URL: svn://www.crystallography.net/cod/cif/7/21/44/7214490.cif $
#------------------------------------------------------------------------------
#
# This file is available in the Crystallography Open Database (COD),
# http://www.crystallography.net/
#
# All data on this site have been placed in the public domain by the
# contributors.
#
data_7214490
loop_
_publ_author_name
'Jones, Andrew O. F.'
'Leech, Charlotte K.'
'McIntyre, Garry J.'
'Wilson, Chick C.'
'Thomas, Lynne H.'
_publ_section_title
;
 Engineering short, strong hydrogen bonds in urea di-carboxylic acid
 complexes
;
_journal_issue                   35
_journal_name_full               CrystEngComm
_journal_page_first              8177
_journal_paper_doi               10.1039/C4CE00587B
_journal_volume                  16
_journal_year                    2014
_chemical_formula_sum            'C6 H14 N4 O6'
_chemical_formula_weight         238.21
_chemical_name_common
;
 N-methylurea oxalic acid
;
_chemical_name_systematic
;
 N-methylurea ethandioic acid
;
_space_group_IT_number           14
_symmetry_cell_setting           monoclinic
_symmetry_space_group_name_Hall  '-P 2ybc'
_symmetry_space_group_name_H-M   'P 1 21/c 1'
_atom_sites_solution_hydrogens   difmap
_atom_sites_solution_primary     direct
_atom_sites_solution_secondary   difmap
_audit_creation_method           SHELXL-97
_cell_angle_alpha                90.00
_cell_angle_beta                 102.717(7)
_cell_angle_gamma                90.00
_cell_formula_units_Z            2
_cell_length_a                   5.1081(8)
_cell_length_b                   10.5388(14)
_cell_length_c                   10.2233(14)
_cell_measurement_reflns_used    3964
_cell_measurement_temperature    200
_cell_measurement_theta_max      55.10
_cell_measurement_theta_min      7.73
_cell_volume                     536.85(13)
_computing_cell_refinement       'CrystalClear 1.4.0 (Rigaku, 2008)'
_computing_data_collection       'CrystalClear 1.4.0 (Rigaku, 2008)'
_computing_data_reduction        'CrystalClear 1.4.0 (Rigaku, 2008)'
_computing_molecular_graphics    'Mercury (McRae, 2006)'
_computing_publication_material  'WINGX (Farrugia, 1999)'
_computing_structure_refinement  'SHELXL-97 (Sheldrick, 2008)'
_computing_structure_solution    'SHELXS-97 (Sheldrick, 2008)'
_diffrn_ambient_temperature      200
_diffrn_measured_fraction_theta_full 0.998
_diffrn_measured_fraction_theta_max 0.998
_diffrn_measurement_device_type  'Rigaku R-AXIS RAPID IP Image Plate'
_diffrn_measurement_method       'Image plate'
_diffrn_radiation_monochromator  graphite
_diffrn_radiation_source         'fine-focus sealed tube'
_diffrn_radiation_type           MoK\a
_diffrn_radiation_wavelength     0.71075
_diffrn_reflns_av_R_equivalents  0.0338
_diffrn_reflns_av_sigmaI/netI    0.0260
_diffrn_reflns_limit_h_max       6
_diffrn_reflns_limit_h_min       -6
_diffrn_reflns_limit_k_max       13
_diffrn_reflns_limit_k_min       -13
_diffrn_reflns_limit_l_max       13
_diffrn_reflns_limit_l_min       -13
_diffrn_reflns_number            7002
_diffrn_reflns_theta_full        27.48
_diffrn_reflns_theta_max         27.48
_diffrn_reflns_theta_min         3.87
_exptl_absorpt_coefficient_mu    0.131
_exptl_absorpt_correction_T_max  1.0000
_exptl_absorpt_correction_T_min  0.8397
_exptl_absorpt_correction_type   multi-scan
_exptl_absorpt_process_details   'ABSCOR, Rigaku 1995'
_exptl_crystal_colour            colourless
_exptl_crystal_density_diffrn    1.474
_exptl_crystal_density_method    'not measured'
_exptl_crystal_description       block
_exptl_crystal_F_000             252
_exptl_crystal_size_max          0.4
_exptl_crystal_size_mid          0.4
_exptl_crystal_size_min          0.3
_refine_diff_density_max         0.230
_refine_diff_density_min         -0.244
_refine_diff_density_rms         0.055
_refine_ls_extinction_coef       0.012(5)
_refine_ls_extinction_expression Fc^*^=kFc[1+0.001xFc^2^\l^3^/sin(2\q)]^-1/4^
_refine_ls_extinction_method     SHELXL
_refine_ls_goodness_of_fit_ref   1.173
_refine_ls_hydrogen_treatment    refall
_refine_ls_matrix_type           full
_refine_ls_number_parameters     102
_refine_ls_number_reflns         1233
_refine_ls_number_restraints     0
_refine_ls_restrained_S_all      1.173
_refine_ls_R_factor_all          0.0696
_refine_ls_R_factor_gt           0.0432
_refine_ls_shift/su_max          0.000
_refine_ls_shift/su_mean         0.000
_refine_ls_structure_factor_coef Fsqd
_refine_ls_weighting_details
'calc w=1/[\s^2^(Fo^2^)+(0.0572P)^2^+0.1090P] where P=(Fo^2^+2Fc^2^)/3'
_refine_ls_weighting_scheme      calc
_refine_ls_wR_factor_gt          0.1088
_refine_ls_wR_factor_ref         0.1261
_reflns_number_gt                816
_reflns_number_total             1233
_reflns_threshold_expression     >2\s(I)
_cod_data_source_file            c4ce00587b2.cif
_cod_data_source_block           mu_oxalic_200k
_cod_depositor_comments
'Adding full bibliography for 7214477--7214509.cif.'
_cod_original_sg_symbol_H-M      P21/c
_cod_database_code               7214490
loop_
_symmetry_equiv_pos_as_xyz
'x, y, z'
'-x, y+1/2, -z+1/2'
'-x, -y, -z'
'x, -y-1/2, z-1/2'
loop_
_atom_site_label
_atom_site_type_symbol
_atom_site_fract_x
_atom_site_fract_y
_atom_site_fract_z
_atom_site_U_iso_or_equiv
_atom_site_adp_type
_atom_site_occupancy
_atom_site_symmetry_multiplicity
_atom_site_calc_flag
H2 H 0.660(5) 0.763(2) 0.652(2) 0.055(7) Uiso 1 1 d
H4 H 0.276(4) 0.734(2) 0.871(2) 0.043(6) Uiso 1 1 d
H1 H 0.653(5) 0.985(3) 0.652(3) 0.076(8) Uiso 1 1 d
H3 H 0.567(5) 0.668(3) 0.737(2) 0.051(7) Uiso 1 1 d
H5 H 0.079(6) 0.970(3) 0.859(3) 0.080(9) Uiso 1 1 d
H6 H 0.282(7) 0.954(3) 0.987(3) 0.100(11) Uiso 1 1 d
H7 H 0.044(7) 0.871(3) 0.966(3) 0.097(11) Uiso 1 1 d
O1 O 0.7817(3) 1.03701(12) 0.60376(14) 0.0397(4) Uani 1 1 d
O3 O 0.4585(3) 0.95196(12) 0.72732(14) 0.0381(4) Uani 1 1 d
O2 O 0.8796(3) 0.84920(12) 0.52475(14) 0.0427(4) Uani 1 1 d
C1 C 0.9047(4) 0.96293(18) 0.53489(18) 0.0330(5) Uani 1 1 d
N2 N 0.5574(4) 0.74394(18) 0.71119(19) 0.0428(5) Uani 1 1 d
C2 C 0.4385(4) 0.83778(18) 0.76341(19) 0.0341(5) Uani 1 1 d
N1 N 0.2944(4) 0.81129(18) 0.85350(17) 0.0404(5) Uani 1 1 d
C3 C 0.1608(5) 0.9077(2) 0.9158(2) 0.0423(5) Uani 1 1 d
loop_
_atom_site_aniso_label
_atom_site_aniso_U_11
_atom_site_aniso_U_22
_atom_site_aniso_U_33
_atom_site_aniso_U_23
_atom_site_aniso_U_13
_atom_site_aniso_U_12
O1 0.0458(8) 0.0304(8) 0.0489(8) -0.0013(6) 0.0232(7) 0.0000(6)
O3 0.0433(8) 0.0285(8) 0.0466(8) 0.0026(6) 0.0189(6) 0.0002(5)
O2 0.0528(9) 0.0283(8) 0.0527(9) -0.0020(6) 0.0240(7) -0.0026(6)
C1 0.0350(10) 0.0318(11) 0.0320(9) 0.0004(8) 0.0070(8) 0.0018(7)
N2 0.0570(12) 0.0291(10) 0.0479(11) 0.0028(8) 0.0234(9) 0.0039(8)
C2 0.0367(10) 0.0303(10) 0.0348(10) 0.0027(8) 0.0069(8) -0.0004(8)
N1 0.0520(11) 0.0296(10) 0.0450(10) 0.0057(8) 0.0227(8) -0.0002(7)
C3 0.0461(12) 0.0394(12) 0.0459(12) 0.0026(11) 0.0196(10) 0.0027(9)
loop_
_atom_type_symbol
_atom_type_description
_atom_type_scat_dispersion_real
_atom_type_scat_dispersion_imag
_atom_type_scat_source
C C 0.0033 0.0016 'International Tables Vol C Tables 4.2.6.8 and 6.1.1.4'
H H 0.0000 0.0000 'International Tables Vol C Tables 4.2.6.8 and 6.1.1.4'
N N 0.0061 0.0033 'International Tables Vol C Tables 4.2.6.8 and 6.1.1.4'
O O 0.0106 0.0060 'International Tables Vol C Tables 4.2.6.8 and 6.1.1.4'
loop_
_geom_angle_atom_site_label_1
_geom_angle_atom_site_label_2
_geom_angle_atom_site_label_3
_geom_angle
_geom_angle_site_symmetry_3
O2 C1 O1 125.94(17) .
O2 C1 C1 122.0(2) 3_776
O1 C1 C1 112.07(19) 3_776
O3 C2 N1 119.51(17) .
O3 C2 N2 120.97(18) .
N1 C2 N2 119.51(18) .
C2 N1 C3 122.97(18) .
loop_
_geom_bond_atom_site_label_1
_geom_bond_atom_site_label_2
_geom_bond_distance
_geom_bond_site_symmetry_2
O1 C1 1.302(2) .
O3 C2 1.269(2) .
O2 C1 1.208(2) .
C1 C1 1.540(4) 3_776
N2 C2 1.332(3) .
C2 N1 1.329(3) .
N1 C3 1.447(3) .
loop_
_geom_hbond_atom_site_label_D
_geom_hbond_atom_site_label_H
_geom_hbond_atom_site_label_A
_geom_hbond_distance_DH
_geom_hbond_distance_HA
_geom_hbond_distance_DA
_geom_hbond_angle_DHA
O1 H1 O3 1.06(3) 1.43(3) 2.4583(18) 163(3)
