#------------------------------------------------------------------------------
#$Date: 2016-03-26 21:52:34 +0200 (Sat, 26 Mar 2016) $
#$Revision: 180484 $
#$URL: svn://www.crystallography.net/cod/cif/7/21/53/7215310.cif $
#------------------------------------------------------------------------------
#
# This file is available in the Crystallography Open Database (COD),
# http://www.crystallography.net/
#
# All data on this site have been placed in the public domain by the
# contributors.
#
data_7215310
loop_
_publ_author_name
'Zon, Jerzy'
'Videnova-Adrabinska, Veneta'
'Janczak, Jan'
'Wilk, Magdalena'
'Samoc, Anna'
'Gancarz, Roman'
'Samoc, Marek'
_publ_section_title
;
 Design, synthesis and noncentrosymmetric solid state organization of
 three novel pyridylphosphonic acids
;
_journal_issue                   10
_journal_name_full               CrystEngComm
_journal_page_first              3474
_journal_paper_doi               10.1039/c1ce05140g
_journal_volume                  13
_journal_year                    2011
_chemical_formula_moiety         'C5 H6 N O3 P'
_chemical_formula_sum            'C5 H6 N O3 P'
_chemical_formula_weight         159.08
_chemical_melting_point          524(2)
_chemical_name_systematic
;
?
;
_space_group_IT_number           33
_symmetry_cell_setting           orthorhombic
_symmetry_space_group_name_Hall  'P 2c -2n'
_symmetry_space_group_name_H-M   'P n a 21'
_atom_sites_solution_hydrogens   geom
_atom_sites_solution_primary     direct
_atom_sites_solution_secondary   difmap
_audit_creation_method           SHELXL-97
_cell_angle_alpha                90.00
_cell_angle_beta                 90.00
_cell_angle_gamma                90.00
_cell_formula_units_Z            4
_cell_length_a                   7.5460(15)
_cell_length_b                   10.948(2)
_cell_length_c                   7.8040(16)
_cell_measurement_reflns_used    837
_cell_measurement_temperature    295(2)
_cell_measurement_theta_max      29.30
_cell_measurement_theta_min      3.21
_cell_volume                     644.7(2)
_computing_cell_refinement
;
Oxford Diffration Poland (2006). CrysAlis Red, Version 171.31.6;
Wroc\/law, Poland
;
_computing_data_collection
;
Oxford Diffration Poland (2006). CrysAlis CCD, Version 171.31.6;
Wroc\/law, Poland
;
_computing_data_reduction
;
Oxford Diffration Poland (2006). CrysAlis Red, Version 171.31.6;
Wroc\/law, Poland
;
_computing_publication_material  'SHELXL-97 (Sheldrick, 1997)'
_computing_structure_refinement  'SHELXL-97 (Sheldrick, 1997)'
_computing_structure_solution    'SHELXS-97 (Sheldrick, 1990)'
_diffrn_ambient_temperature      295(2)
_diffrn_detector_area_resol_mean '1024x1024 with bocks 2x2'
_diffrn_measured_fraction_theta_full 0.989
_diffrn_measured_fraction_theta_max 0.958
_diffrn_measurement_device_type  'KUMA KM-4 with area CCD detector'
_diffrn_measurement_method       \w-scan
_diffrn_radiation_monochromator  graphite
_diffrn_radiation_source         'fine-focus sealed tube'
_diffrn_radiation_type           MoK\a
_diffrn_radiation_wavelength     0.71073
_diffrn_reflns_av_R_equivalents  0.0176
_diffrn_reflns_av_sigmaI/netI    0.0165
_diffrn_reflns_limit_h_max       8
_diffrn_reflns_limit_h_min       -10
_diffrn_reflns_limit_k_max       14
_diffrn_reflns_limit_k_min       -13
_diffrn_reflns_limit_l_max       10
_diffrn_reflns_limit_l_min       -10
_diffrn_reflns_number            8140
_diffrn_reflns_theta_full        28.80
_diffrn_reflns_theta_max         29.30
_diffrn_reflns_theta_min         3.21
_exptl_absorpt_coefficient_mu    0.365
_exptl_absorpt_correction_T_max  0.9302
_exptl_absorpt_correction_T_min  0.9181
_exptl_absorpt_correction_type   numerical
_exptl_absorpt_process_details
;
Oxford Diffration Poland (2006). CrysAlis Red, Version 171.31.6;
Wroc\/law, Poland
;
_exptl_crystal_colour            colourless
_exptl_crystal_density_diffrn    1.639
_exptl_crystal_density_meas      1.63
_exptl_crystal_density_method    'not measured'
_exptl_crystal_description       paralellepiped
_exptl_crystal_F_000             328
_exptl_crystal_size_max          0.26
_exptl_crystal_size_mid          0.24
_exptl_crystal_size_min          0.22
_refine_diff_density_max         0.162
_refine_diff_density_min         -0.174
_refine_diff_density_rms         0.034
_refine_ls_abs_structure_details 'Flack H D (1983), Acta Cryst. A39, 876-881'
_refine_ls_abs_structure_Flack   0.12(7)
_refine_ls_extinction_coef       0.046(3)
_refine_ls_extinction_expression Fc^*^=kFc[1+0.001xFc^2^\l^3^/sin(2\q)]^-1/4^
_refine_ls_extinction_method     SHELXL
_refine_ls_goodness_of_fit_ref   0.955
_refine_ls_hydrogen_treatment    mixed
_refine_ls_matrix_type           full
_refine_ls_number_parameters     98
_refine_ls_number_reflns         1643
_refine_ls_number_restraints     0
_refine_ls_restrained_S_all      0.955
_refine_ls_R_factor_all          0.0254
_refine_ls_R_factor_gt           0.0209
_refine_ls_shift/su_max          0.008
_refine_ls_shift/su_mean         0.001
_refine_ls_structure_factor_coef Fsqd
_refine_ls_weighting_details
'calc w=1/[\s^2^(Fo^2^)+(0.0380P)^2^+0.0168P] where P=(Fo^2^+2Fc^2^)/3'
_refine_ls_weighting_scheme      calc
_refine_ls_wR_factor_gt          0.0516
_refine_ls_wR_factor_ref         0.0531
_reflns_number_gt                1466
_reflns_number_total             1643
_reflns_threshold_expression     I>2\s(I)
_cod_data_source_file            c1ce05140g.txt
_cod_data_source_block           Compound_1
_cod_depositor_comments
;
The following automatic conversions were performed:

'_chemical_melting_point' value '249-253 C' was changed to '524(2)' -
it was converted from degrees Celsius(C) to Kelvins(K), the average
value was taken and precision was estimated.

Automatic conversion script
Id: cif_fix_values 2281 2013-09-26 08:29:07Z andrius 
;
_cod_database_code               7215310
loop_
_symmetry_equiv_pos_as_xyz
'x, y, z'
'-x, -y, z+1/2'
'x+1/2, -y+1/2, z'
'-x+1/2, y+1/2, z+1/2'
loop_
_atom_site_label
_atom_site_type_symbol
_atom_site_fract_x
_atom_site_fract_y
_atom_site_fract_z
_atom_site_U_iso_or_equiv
_atom_site_adp_type
_atom_site_occupancy
_atom_site_symmetry_multiplicity
_atom_site_calc_flag
_atom_site_refinement_flags
P3 P 0.79695(4) 0.65655(3) 0.90434(5) 0.02723(10) Uani 1 1 d .
O31 O 0.84746(14) 0.77375(10) 0.98978(12) 0.0379(2) Uani 1 1 d .
O32 O 0.93398(11) 0.55706(8) 0.89653(17) 0.0377(2) Uani 1 1 d .
O33 O 0.62638(13) 0.60001(8) 0.98580(12) 0.0341(2) Uani 1 1 d .
H33 H 0.516(2) 0.6508(15) 0.974(2) 0.051 Uiso 1 1 d .
N1 N 0.64260(16) 0.83729(11) 0.47854(14) 0.0324(3) Uani 1 1 d .
H1 H 0.618(2) 0.9304(13) 0.458(2) 0.039 Uiso 1 1 d .
C2 C 0.69821(17) 0.81071(13) 0.63692(16) 0.0293(3) Uani 1 1 d .
H2 H 0.7153 0.8735 0.7155 0.035 Uiso 1 1 calc R
C3 C 0.73055(17) 0.69191(12) 0.68549(16) 0.0269(2) Uani 1 1 d .
C4 C 0.70423(19) 0.59990(13) 0.56434(18) 0.0362(3) Uani 1 1 d .
H4 H 0.7258 0.5188 0.5929 0.043 Uiso 1 1 calc R
C5 C 0.6463(2) 0.62976(13) 0.4025(3) 0.0441(3) Uani 1 1 d .
H5 H 0.6267 0.5689 0.3215 0.053 Uiso 1 1 calc R
C6 C 0.6176(2) 0.75050(14) 0.36130(16) 0.0393(3) Uani 1 1 d .
H6 H 0.5808 0.7715 0.2515 0.047 Uiso 1 1 calc R
loop_
_atom_site_aniso_label
_atom_site_aniso_U_11
_atom_site_aniso_U_22
_atom_site_aniso_U_33
_atom_site_aniso_U_23
_atom_site_aniso_U_13
_atom_site_aniso_U_12
P3 0.03004(16) 0.02705(15) 0.02460(14) 0.00427(15) -0.00082(17) -0.00138(11)
O31 0.0419(5) 0.0380(6) 0.0339(5) -0.0021(4) -0.0066(4) -0.0049(4)
O32 0.0350(5) 0.0349(4) 0.0434(5) 0.0047(5) 0.0059(5) 0.0023(3)
O33 0.0345(5) 0.0353(5) 0.0325(5) 0.0079(4) 0.0048(4) -0.0028(4)
N1 0.0358(6) 0.0321(6) 0.0293(5) 0.0074(5) 0.0002(5) -0.0006(5)
C2 0.0332(7) 0.0287(6) 0.0258(6) 0.0005(5) 0.0028(5) -0.0029(5)
C3 0.0279(6) 0.0282(6) 0.0246(5) 0.0038(5) 0.0021(5) -0.0014(5)
C4 0.0470(9) 0.0268(7) 0.0349(7) 0.0002(6) -0.0006(6) -0.0009(6)
C5 0.0644(9) 0.0371(7) 0.0309(6) -0.0043(8) -0.0017(11) -0.0054(6)
C6 0.0439(7) 0.0467(9) 0.0273(7) 0.0035(5) -0.0029(5) 0.0002(7)
loop_
_atom_type_symbol
_atom_type_description
_atom_type_scat_dispersion_real
_atom_type_scat_dispersion_imag
_atom_type_scat_source
C C 0.0033 0.0016 'International Tables Vol C Tables 4.2.6.8 and 6.1.1.4'
H H 0.0000 0.0000 'International Tables Vol C Tables 4.2.6.8 and 6.1.1.4'
N N 0.0061 0.0033 'International Tables Vol C Tables 4.2.6.8 and 6.1.1.4'
O O 0.0106 0.0060 'International Tables Vol C Tables 4.2.6.8 and 6.1.1.4'
P P 0.1023 0.0942 'International Tables Vol C Tables 4.2.6.8 and 6.1.1.4'
loop_
_geom_angle_atom_site_label_1
_geom_angle_atom_site_label_2
_geom_angle_atom_site_label_3
_geom_angle
O31 P3 O32 117.68(6)
O31 P3 O33 111.61(6)
O32 P3 O33 107.22(6)
O31 P3 C3 107.81(6)
O32 P3 C3 107.77(7)
O33 P3 C3 103.83(6)
P3 O33 H33 115.1(10)
C6 N1 C2 121.59(12)
C6 N1 H1 124.2(9)
C2 N1 H1 114.1(9)
N1 C2 C3 121.05(13)
N1 C2 H2 119.5
C3 C2 H2 119.5
C2 C3 C4 118.04(13)
C2 C3 P3 120.52(10)
C4 C3 P3 121.39(11)
C5 C4 C3 119.71(13)
C5 C4 H4 120.1
C3 C4 H4 120.1
C6 C5 C4 119.46(15)
C6 C5 H5 120.3
C4 C5 H5 120.3
N1 C6 C5 120.13(14)
N1 C6 H6 119.9
C5 C6 H6 119.9
loop_
_geom_bond_atom_site_label_1
_geom_bond_atom_site_label_2
_geom_bond_distance
P3 O31 1.4954(11)
P3 O32 1.5031(9)
P3 O33 1.5633(10)
P3 C3 1.8215(14)
O33 H33 1.003(18)
N1 C6 1.3325(18)
N1 C2 1.3373(18)
N1 H1 1.049(14)
C2 C3 1.3765(19)
C2 H2 0.9300
C3 C4 1.3957(19)
C4 C5 1.376(3)
C4 H4 0.9300
C5 C6 1.377(2)
C5 H5 0.9300
C6 H6 0.9300
loop_
_geom_hbond_atom_site_label_D
_geom_hbond_atom_site_label_H
_geom_hbond_atom_site_label_A
_geom_hbond_distance_DH
_geom_hbond_distance_HA
_geom_hbond_distance_DA
_geom_hbond_angle_DHA
_geom_hbond_site_symmetry_A
O33 H33 O31 1.003(18) 1.525(19) 2.5181(15) 170.0(16) 3_465
N1 H1 O32 1.049(14) 1.518(14) 2.5559(15) 169.1(15) 4_654
