#------------------------------------------------------------------------------
#$Date: 2016-03-26 22:02:07 +0200 (Sat, 26 Mar 2016) $
#$Revision: 180488 $
#$URL: svn://www.crystallography.net/cod/cif/7/21/57/7215711.cif $
#------------------------------------------------------------------------------
#
# This file is available in the Crystallography Open Database (COD),
# http://www.crystallography.net/
#
# All data on this site have been placed in the public domain by the
# contributors.
#
data_7215711
loop_
_publ_author_name
'Cheng, Nongyi'
'Yan, Qifan'
'Liu, Shuai'
'Zhao, Dahui'
_publ_section_title
;
 Probing the intermolecular interactions of aromatic amides containing
 N-heterocycles and triptycene
;
_journal_issue                   20
_journal_name_full               CrystEngComm
_journal_page_first              4265
_journal_paper_doi               10.1039/c4ce00089g
_journal_volume                  16
_journal_year                    2014
_chemical_formula_moiety         'C19 H15 N3 O2'
_chemical_formula_sum            'C19 H15 N3 O2'
_chemical_formula_weight         317.34
_chemical_name_systematic
; 
 ? 
;
_space_group_IT_number           14
_symmetry_cell_setting           monoclinic
_symmetry_space_group_name_Hall  '-P 2yn'
_symmetry_space_group_name_H-M   'P 1 21/n 1'
_atom_sites_solution_hydrogens   geom
_atom_sites_solution_primary     direct
_atom_sites_solution_secondary   difmap
_audit_creation_method           SHELXL-97
_cell_angle_alpha                90.00
_cell_angle_beta                 107.29(3)
_cell_angle_gamma                90.00
_cell_formula_units_Z            2
_cell_length_a                   5.4114(11)
_cell_length_b                   20.902(4)
_cell_length_c                   6.7857(14)
_cell_measurement_reflns_used    2383
_cell_measurement_temperature    173(2)
_cell_measurement_theta_max      27.4810
_cell_measurement_theta_min      1.9487
_cell_volume                     732.8(3)
_computing_cell_refinement       'CrystalClear (Rigaku Inc., 2008)'
_computing_data_collection       'CrystalClear (Rigaku Inc., 2008)'
_computing_data_reduction        'CrystalClear (Rigaku Inc., 2008)'
_computing_molecular_graphics
;
 Mercury: visualization and analysis of crystal structures, C. F. Macrae,
 P. R. Edgington, P. McCabe, E. Pidcock, G. P. Shields, R. Taylor,
 M. Towler and J. van de Streek, J. Appl. Cryst., 39, 453-457, 2006.
;
_computing_publication_material  'SHELX-97 (Sheldrick, 2008)'
_computing_structure_refinement  'SHELX-97 (Sheldrick, 2008)'
_computing_structure_solution    'SHELX-97 (Sheldrick, 2008)'
_diffrn_ambient_temperature      173(2)
_diffrn_detector_area_resol_mean 28.5714
_diffrn_measured_fraction_theta_full 0.992
_diffrn_measured_fraction_theta_max 0.992
_diffrn_measurement_device_type  'MM007HF + CCD (Saturn724+)'
_diffrn_measurement_method       '\w scans at fixed \c = 45\%'
_diffrn_radiation_monochromator  Confocal
_diffrn_radiation_source         'Rotating Anode'
_diffrn_radiation_type           MoK\a
_diffrn_radiation_wavelength     0.71073
_diffrn_reflns_av_R_equivalents  0.0530
_diffrn_reflns_av_sigmaI/netI    0.0522
_diffrn_reflns_limit_h_max       7
_diffrn_reflns_limit_h_min       -7
_diffrn_reflns_limit_k_max       27
_diffrn_reflns_limit_k_min       -26
_diffrn_reflns_limit_l_max       8
_diffrn_reflns_limit_l_min       -8
_diffrn_reflns_number            5333
_diffrn_reflns_theta_full        27.50
_diffrn_reflns_theta_max         27.50
_diffrn_reflns_theta_min         1.95
_exptl_absorpt_coefficient_mu    0.096
_exptl_absorpt_correction_T_max  1.0000
_exptl_absorpt_correction_T_min  0.7939
_exptl_absorpt_correction_type   multi-scan
_exptl_absorpt_process_details   'CrystalClear (Rigaku Inc., 2008)'
_exptl_crystal_colour            Colorless
_exptl_crystal_density_diffrn    1.438
_exptl_crystal_density_method    'not measured'
_exptl_crystal_description       rod
_exptl_crystal_F_000             332
_exptl_crystal_size_max          0.22
_exptl_crystal_size_mid          0.07
_exptl_crystal_size_min          0.04
_refine_diff_density_max         0.200
_refine_diff_density_min         -0.193
_refine_diff_density_rms         0.050
_refine_ls_extinction_method     none
_refine_ls_goodness_of_fit_ref   1.208
_refine_ls_hydrogen_treatment    constr
_refine_ls_matrix_type           full
_refine_ls_number_parameters     118
_refine_ls_number_reflns         1660
_refine_ls_number_restraints     20
_refine_ls_restrained_S_all      1.204
_refine_ls_R_factor_all          0.0795
_refine_ls_R_factor_gt           0.0686
_refine_ls_shift/su_max          0.000
_refine_ls_shift/su_mean         0.000
_refine_ls_structure_factor_coef Fsqd
_refine_ls_weighting_details
'calc w=1/[\s^2^(Fo^2^)+(0.0221P)^2^+0.5675P] where P=(Fo^2^+2Fc^2^)/3'
_refine_ls_weighting_scheme      calc
_refine_ls_wR_factor_gt          0.1190
_refine_ls_wR_factor_ref         0.1244
_reflns_number_gt                1479
_reflns_number_total             1660
_reflns_threshold_expression     >2sigma(I)
_cod_data_source_file            c4ce00089g2.cif
_cod_data_source_block           a
_cod_original_sg_symbol_H-M      P2(1)/n
_cod_database_code               7215711
loop_
_symmetry_equiv_pos_as_xyz
'x, y, z'
'-x+1/2, y+1/2, -z+1/2'
'-x, -y, -z'
'x-1/2, -y-1/2, z-1/2'
loop_
_atom_site_label
_atom_site_type_symbol
_atom_site_fract_x
_atom_site_fract_y
_atom_site_fract_z
_atom_site_U_iso_or_equiv
_atom_site_adp_type
_atom_site_occupancy
_atom_site_symmetry_multiplicity
_atom_site_calc_flag
_atom_site_refinement_flags
_atom_site_disorder_group
O1 O 0.3488(3) 0.08411(8) 0.4164(2) 0.0330(4) Uani 1 1 d . .
N1 N 0.7840(3) 0.09347(9) 0.4702(3) 0.0243(4) Uani 1 1 d . .
H1 H 0.9110 0.0815 0.4221 0.029 Uiso 1 1 calc R .
N2 N 0.729(3) 0.0048(8) 0.150(3) 0.0249(19) Uani 0.50 1 d PDU 1
C10 C 0.741(3) -0.0020(10) 0.163(4) 0.0213(18) Uani 0.50 1 d PDU 2
H10 H 0.8968 -0.0048 0.2741 0.026 Uiso 0.50 1 calc PR 2
C1 C 0.7174(4) 0.13115(10) 0.7953(3) 0.0225(5) Uani 1 1 d . .
H1A H 0.5709 0.1041 0.7758 0.027 Uiso 1 1 calc R .
C2 C 0.7998(4) 0.16959(10) 0.9696(3) 0.0256(5) Uani 1 1 d . .
H2 H 0.7089 0.1685 1.0696 0.031 Uiso 1 1 calc R .
C3 C 1.0118(4) 0.20945(11) 1.0001(3) 0.0278(5) Uani 1 1 d . .
H3 H 1.0664 0.2355 1.1200 0.033 Uiso 1 1 calc R .
C4 C 1.1436(4) 0.21095(11) 0.8536(4) 0.0299(5) Uani 1 1 d . .
H4 H 1.2886 0.2385 0.8729 0.036 Uiso 1 1 calc R .
C5 C 1.0659(4) 0.17267(10) 0.6793(3) 0.0248(5) Uani 1 1 d . .
H5 H 1.1582 0.1737 0.5802 0.030 Uiso 1 1 calc R .
C6 C 0.8521(4) 0.13269(10) 0.6497(3) 0.0202(4) Uani 1 1 d . .
C7 C 0.5439(4) 0.07263(10) 0.3661(3) 0.0220(5) Uani 1 1 d . .
C8 C 0.5275(4) 0.03441(10) 0.1749(3) 0.0221(5) Uani 1 1 d D .
C9 C 0.2921(4) 0.03306(11) 0.0199(3) 0.0264(5) Uani 1 1 d . .
H9 H 0.1493 0.0576 0.0312 0.032 Uiso 1 1 calc R .
loop_
_atom_site_aniso_label
_atom_site_aniso_U_11
_atom_site_aniso_U_22
_atom_site_aniso_U_33
_atom_site_aniso_U_23
_atom_site_aniso_U_13
_atom_site_aniso_U_12
O1 0.0204(8) 0.0496(11) 0.0296(9) -0.0121(8) 0.0086(7) -0.0002(7)
N1 0.0189(8) 0.0322(10) 0.0226(10) -0.0055(8) 0.0074(7) 0.0008(7)
N2 0.028(3) 0.026(4) 0.019(3) 0.002(3) 0.004(2) -0.004(2)
C10 0.024(2) 0.021(3) 0.019(3) 0.000(3) 0.006(2) 0.001(2)
C1 0.0222(10) 0.0228(10) 0.0230(11) 0.0001(9) 0.0072(8) -0.0008(8)
C2 0.0277(11) 0.0287(11) 0.0213(11) -0.0004(9) 0.0085(9) 0.0024(9)
C3 0.0306(12) 0.0261(11) 0.0247(12) -0.0073(9) 0.0049(9) 0.0016(9)
C4 0.0226(11) 0.0322(12) 0.0330(13) -0.0061(10) 0.0055(9) -0.0044(9)
C5 0.0189(10) 0.0315(12) 0.0245(11) -0.0007(9) 0.0071(8) 0.0003(9)
C6 0.0174(9) 0.0221(10) 0.0196(10) -0.0026(9) 0.0031(8) 0.0024(8)
C7 0.0218(10) 0.0249(11) 0.0196(10) -0.0001(9) 0.0065(8) 0.0010(8)
C8 0.0258(11) 0.0215(10) 0.0204(11) 0.0003(9) 0.0091(9) -0.0032(8)
C9 0.0261(11) 0.0281(11) 0.0239(12) -0.0025(9) 0.0056(9) -0.0034(9)
loop_
_atom_type_symbol
_atom_type_description
_atom_type_scat_dispersion_real
_atom_type_scat_dispersion_imag
_atom_type_scat_source
C C 0.0033 0.0016 'International Tables Vol C Tables 4.2.6.8 and 6.1.1.4'
H H 0.0000 0.0000 'International Tables Vol C Tables 4.2.6.8 and 6.1.1.4'
N N 0.0061 0.0033 'International Tables Vol C Tables 4.2.6.8 and 6.1.1.4'
O O 0.0106 0.0060 'International Tables Vol C Tables 4.2.6.8 and 6.1.1.4'
loop_
_geom_angle_atom_site_label_1
_geom_angle_atom_site_label_2
_geom_angle_atom_site_label_3
_geom_angle
_geom_angle_site_symmetry_1
_geom_angle_site_symmetry_3
C7 N1 C6 126.62(18) . .
C7 N1 H1 116.7 . .
C6 N1 H1 116.7 . .
C8 N2 C9 121.0(13) . 3_655
C9 C10 C8 114.9(15) 3_655 .
C9 C10 H10 122.6 3_655 .
C8 C10 H10 122.6 . .
C2 C1 C6 119.2(2) . .
C2 C1 H1A 120.4 . .
C6 C1 H1A 120.4 . .
C3 C2 C1 121.2(2) . .
C3 C2 H2 119.4 . .
C1 C2 H2 119.4 . .
C2 C3 C4 119.2(2) . .
C2 C3 H3 120.4 . .
C4 C3 H3 120.4 . .
C3 C4 C5 120.6(2) . .
C3 C4 H4 119.7 . .
C5 C4 H4 119.7 . .
C4 C5 C6 119.9(2) . .
C4 C5 H5 120.1 . .
C6 C5 H5 120.1 . .
C1 C6 C5 119.95(19) . .
C1 C6 N1 122.51(18) . .
C5 C6 N1 117.53(18) . .
O1 C7 N1 124.3(2) . .
O1 C7 C8 120.64(19) . .
N1 C7 C8 115.01(18) . .
N2 C8 C9 120.4(9) . .
N2 C8 C10 5.8(19) . .
C9 C8 C10 122.0(10) . .
N2 C8 C7 121.6(9) . .
C9 C8 C7 117.99(19) . .
C10 C8 C7 119.9(10) . .
C10 C9 N2 7.1(16) 3_655 3_655
C10 C9 C8 122.8(7) 3_655 .
N2 C9 C8 118.3(6) 3_655 .
C10 C9 H9 116.1 3_655 .
N2 C9 H9 120.8 3_655 .
C8 C9 H9 120.8 . .
loop_
_geom_bond_atom_site_label_1
_geom_bond_atom_site_label_2
_geom_bond_distance
_geom_bond_site_symmetry_2
O1 C7 1.226(2) .
N1 C7 1.353(3) .
N1 C6 1.422(3) .
N1 H1 0.8800 .
N2 C8 1.305(12) .
N2 C9 1.378(18) 3_655
C10 C9 1.36(2) 3_655
C10 C8 1.407(13) .
C10 H10 0.9500 .
C1 C2 1.389(3) .
C1 C6 1.392(3) .
C1 H1A 0.9500 .
C2 C3 1.383(3) .
C2 H2 0.9500 .
C3 C4 1.385(3) .
C3 H3 0.9500 .
C4 C5 1.386(3) .
C4 H4 0.9500 .
C5 C6 1.392(3) .
C5 H5 0.9500 .
C7 C8 1.503(3) .
C8 C9 1.390(3) .
C9 C10 1.36(2) 3_655
C9 N2 1.378(18) 3_655
C9 H9 0.9500 .
loop_
_geom_hbond_atom_site_label_D
_geom_hbond_atom_site_label_H
_geom_hbond_atom_site_label_A
_geom_hbond_distance_DH
_geom_hbond_distance_HA
_geom_hbond_distance_DA
_geom_hbond_angle_DHA
_geom_hbond_site_symmetry_A
N1 H1 O1 0.88 2.38 3.190(2) 152.8 1_655
loop_
_geom_torsion_atom_site_label_1
_geom_torsion_atom_site_label_2
_geom_torsion_atom_site_label_3
_geom_torsion_atom_site_label_4
_geom_torsion
_geom_torsion_site_symmetry_1
_geom_torsion_site_symmetry_4
C6 C1 C2 C3 0.3(3) . .
C1 C2 C3 C4 0.1(3) . .
C2 C3 C4 C5 -0.5(3) . .
C3 C4 C5 C6 0.6(3) . .
C2 C1 C6 C5 -0.3(3) . .
C2 C1 C6 N1 178.21(19) . .
C4 C5 C6 C1 -0.1(3) . .
C4 C5 C6 N1 -178.72(19) . .
C7 N1 C6 C1 30.8(3) . .
C7 N1 C6 C5 -150.6(2) . .
C6 N1 C7 O1 -1.5(4) . .
C6 N1 C7 C8 177.05(19) . .
C9 N2 C8 C9 -6(2) 3_655 .
C9 N2 C8 C10 102(18) 3_655 .
C9 N2 C8 C7 176.2(10) 3_655 .
C9 C10 C8 N2 -69(17) 3_655 .
C9 C10 C8 C9 7(2) 3_655 .
C9 C10 C8 C7 -177.9(10) 3_655 .
O1 C7 C8 N2 -158.4(11) . .
N1 C7 C8 N2 23.0(11) . .
O1 C7 C8 C9 23.7(3) . .
N1 C7 C8 C9 -154.9(2) . .
O1 C7 C8 C10 -152.0(11) . .
N1 C7 C8 C10 29.4(12) . .
N2 C8 C9 C10 -0.6(4) . 3_655
C10 C8 C9 C10 -7(2) . 3_655
C7 C8 C9 C10 177.3(12) . 3_655
N2 C8 C9 N2 6(2) . 3_655
C10 C8 C9 N2 -0.7(4) . 3_655
C7 C8 C9 N2 -176.3(10) . 3_655
