#------------------------------------------------------------------------------
#$Date: 2016-03-26 22:15:14 +0200 (Sat, 26 Mar 2016) $
#$Revision: 180496 $
#$URL: svn://www.crystallography.net/cod/cif/7/21/65/7216534.cif $
#------------------------------------------------------------------------------
#
# This file is available in the Crystallography Open Database (COD),
# http://www.crystallography.net/
#
# All data on this site have been placed in the public domain by the
# contributors.
#
data_7216534
loop_
_publ_author_name
'Jones, Charlotte L.'
'Wilson, Chick C.'
'Thomas, Lynne H.'
_publ_section_title
;
 Turning colour on and off using molecular disorder and proton transfer in
 multi-component molecular complexes
;
_journal_issue                   26
_journal_name_full               CrystEngComm
_journal_page_first              5849
_journal_paper_doi               10.1039/c4ce00229f
_journal_volume                  16
_journal_year                    2014
_chemical_formula_sum            'C13 H10 I N3 O7'
_chemical_formula_weight         447.14
_chemical_name_systematic
;
 ?
;
_space_group_IT_number           2
_symmetry_space_group_name_Hall  '-P 1'
_symmetry_space_group_name_H-M   'P -1'
_atom_sites_solution_hydrogens   mixed
_atom_sites_solution_primary     direct
_atom_sites_solution_secondary   difmap
_audit_creation_method           SHELXL-97
_cell_angle_alpha                80.602(5)
_cell_angle_beta                 71.795(5)
_cell_angle_gamma                79.460(5)
_cell_formula_units_Z            2
_cell_length_a                   7.3806(15)
_cell_length_b                   9.3433(18)
_cell_length_c                   11.754(2)
_cell_measurement_temperature    100
_cell_volume                     752.1(2)
_computing_structure_refinement  'SHELXL-97 (Sheldrick, 2008)'
_diffrn_ambient_temperature      100
_diffrn_measured_fraction_theta_full 0.993
_diffrn_measured_fraction_theta_max 0.993
_diffrn_radiation_monochromator  graphite
_diffrn_radiation_source         'fine-focus sealed tube'
_diffrn_radiation_type           MoK\a
_diffrn_radiation_wavelength     0.71075
_diffrn_reflns_av_R_equivalents  0.0327
_diffrn_reflns_av_sigmaI/netI    0.0232
_diffrn_reflns_limit_h_max       9
_diffrn_reflns_limit_h_min       -9
_diffrn_reflns_limit_k_max       12
_diffrn_reflns_limit_k_min       -12
_diffrn_reflns_limit_l_max       15
_diffrn_reflns_limit_l_min       -15
_diffrn_reflns_number            18894
_diffrn_reflns_theta_full        27.48
_diffrn_reflns_theta_max         27.48
_diffrn_reflns_theta_min         3.05
_exptl_absorpt_coefficient_mu    2.173
_exptl_absorpt_correction_T_max  1.0000
_exptl_absorpt_correction_T_min  0.8701
_exptl_absorpt_correction_type   multi-scan
_exptl_absorpt_process_details   'ABSCOR (Rigaku, 1995)'
_exptl_crystal_density_diffrn    1.974
_exptl_crystal_density_method    'not measured'
_exptl_crystal_F_000             436
_refine_diff_density_max         0.508
_refine_diff_density_min         -0.266
_refine_diff_density_rms         0.081
_refine_ls_extinction_method     none
_refine_ls_goodness_of_fit_ref   1.087
_refine_ls_hydrogen_treatment    mixed
_refine_ls_matrix_type           full
_refine_ls_number_parameters     233
_refine_ls_number_reflns         3419
_refine_ls_number_restraints     0
_refine_ls_restrained_S_all      1.087
_refine_ls_R_factor_all          0.0211
_refine_ls_R_factor_gt           0.0191
_refine_ls_shift/su_max          0.001
_refine_ls_shift/su_mean         0.000
_refine_ls_structure_factor_coef Fsqd
_refine_ls_weighting_details
'calc w=1/[\s^2^(Fo^2^)+(0.0230P)^2^+0.3034P] where P=(Fo^2^+2Fc^2^)/3'
_refine_ls_weighting_scheme      calc
_refine_ls_wR_factor_gt          0.0462
_refine_ls_wR_factor_ref         0.0474
_reflns_number_gt                3209
_reflns_number_total             3419
_reflns_threshold_expression     >2\s(I)
_cod_data_source_file            c4ce00229f2.cif
_cod_data_source_block           4ia_35dnsa_21_mecn_40
_cod_depositor_comments
;
The following automatic conversions were performed:

'_exptl_absorpt_correction_type' value 'Multi-scan' changed to
'multi-scan' according to
/usr/data/users/saulius/crontab/automatic-downloads/rss-feeds/RSC/lib/dictionaries/cif_core.dic
dictionary named 'cif_core.dic' version 2.4.2 from 2011-04-26.

Automatic conversion script
Id: cif_fix_values 2281 2013-09-26 08:29:07Z andrius 

 Adding full bibliography for 7216532--7216537.cif.
;
_cod_original_cell_volume        752.1(3)
_cod_original_sg_symbol_H-M      P-1
_cod_database_code               7216534
loop_
_symmetry_equiv_pos_as_xyz
'x, y, z'
'-x, -y, -z'
loop_
_atom_site_label
_atom_site_type_symbol
_atom_site_fract_x
_atom_site_fract_y
_atom_site_fract_z
_atom_site_U_iso_or_equiv
_atom_site_adp_type
_atom_site_occupancy
_atom_site_symmetry_multiplicity
_atom_site_calc_flag
_atom_site_refinement_flags
H5 H 0.951(3) 0.361(3) 0.154(2) 0.026(6) Uiso 1 1 d .
H6 H 0.977(3) 0.449(3) 0.229(2) 0.026(6) Uiso 1 1 d .
H7 H 0.856(3) 0.522(3) 0.154(2) 0.029(6) Uiso 1 1 d .
H10 H -0.048(4) -0.038(3) 0.878(3) 0.051(8) Uiso 1 1 d .
I1 I 0.164023(17) 0.243642(14) 0.610627(11) 0.02488(5) Uani 1 1 d .
O1 O -0.08805(18) 0.07068(14) 0.87313(11) 0.0183(3) Uani 1 1 d .
O2 O -0.04762(17) -0.19667(13) 0.92650(12) 0.0184(3) Uani 1 1 d .
O5 O -0.80750(18) 0.24940(14) 1.29321(12) 0.0211(3) Uani 1 1 d .
O3 O -0.23853(19) -0.29969(13) 1.09584(12) 0.0214(3) Uani 1 1 d .
O7 O -0.2235(2) 0.35581(15) 0.81981(12) 0.0270(3) Uani 1 1 d .
N1 N -0.2730(2) 0.35245(16) 0.92947(14) 0.0182(3) Uani 1 1 d .
N3 N 0.8898(2) 0.43444(17) 0.19927(14) 0.0161(3) Uani 1 1 d .
N2 N -0.7166(2) 0.12574(17) 1.28099(14) 0.0179(3) Uani 1 1 d .
O4 O -0.7621(2) 0.01603(15) 1.34917(13) 0.0276(3) Uani 1 1 d .
O6 O -0.2749(2) 0.45631(14) 0.98194(13) 0.0250(3) Uani 1 1 d .
C13 C -0.1875(2) -0.19284(19) 1.02458(16) 0.0160(3) Uani 1 1 d .
C10 C -0.4494(2) -0.02822(19) 1.15308(16) 0.0148(3) Uani 1 1 d .
H10A H -0.4884 -0.1106 1.2049 0.018 Uiso 1 1 calc R
C7 C -0.3348(2) 0.21929(18) 1.00336(16) 0.0147(3) Uani 1 1 d .
C9 C -0.2945(2) -0.04284(18) 1.05087(16) 0.0141(3) Uani 1 1 d .
C1 C 0.4034(3) 0.3062(2) 0.47266(16) 0.0196(4) Uani 1 1 d .
C8 C -0.2354(2) 0.08202(19) 0.97157(16) 0.0148(3) Uani 1 1 d .
C11 C -0.5461(2) 0.10977(19) 1.17785(16) 0.0150(3) Uani 1 1 d .
C4 C 0.7204(2) 0.38903(19) 0.29444(16) 0.0161(3) Uani 1 1 d .
C12 C -0.4880(2) 0.23537(18) 1.10582(16) 0.0150(3) Uani 1 1 d .
H12 H -0.5502 0.3277 1.1259 0.018 Uiso 1 1 calc R
C5 C 0.7362(3) 0.2541(2) 0.36139(18) 0.0225(4) Uani 1 1 d .
H5A H 0.8528 0.1920 0.3462 0.027 Uiso 1 1 calc R
C3 C 0.5487(3) 0.48277(19) 0.31390(16) 0.0180(4) Uani 1 1 d .
H3 H 0.5404 0.5729 0.2673 0.022 Uiso 1 1 calc R
C2 C 0.3886(3) 0.4407(2) 0.40383(18) 0.0210(4) Uani 1 1 d .
H2 H 0.2718 0.5026 0.4179 0.025 Uiso 1 1 calc R
C6 C 0.5760(3) 0.2120(2) 0.45181(18) 0.0235(4) Uani 1 1 d .
H6A H 0.5844 0.1215 0.4979 0.028 Uiso 1 1 calc R
loop_
_atom_site_aniso_label
_atom_site_aniso_U_11
_atom_site_aniso_U_22
_atom_site_aniso_U_33
_atom_site_aniso_U_23
_atom_site_aniso_U_13
_atom_site_aniso_U_12
I1 0.02212(7) 0.03347(8) 0.01732(7) -0.00296(5) 0.00100(5) -0.01138(5)
O1 0.0167(6) 0.0170(6) 0.0178(6) -0.0010(5) -0.0013(5) -0.0012(5)
O2 0.0173(6) 0.0158(6) 0.0208(7) -0.0043(5) -0.0045(5) 0.0012(5)
O5 0.0171(6) 0.0233(7) 0.0214(7) -0.0070(5) -0.0051(5) 0.0042(5)
O3 0.0253(7) 0.0126(6) 0.0234(7) -0.0003(5) -0.0058(6) 0.0005(5)
O7 0.0313(8) 0.0223(7) 0.0192(7) 0.0045(5) -0.0009(6) -0.0004(6)
N1 0.0140(7) 0.0145(7) 0.0237(8) 0.0015(6) -0.0043(6) -0.0009(6)
N3 0.0155(7) 0.0136(7) 0.0169(8) -0.0010(6) -0.0024(6) -0.0009(6)
N2 0.0167(7) 0.0218(8) 0.0149(7) -0.0032(6) -0.0046(6) -0.0008(6)
O4 0.0292(7) 0.0246(7) 0.0210(7) 0.0027(6) 0.0025(6) -0.0055(6)
O6 0.0296(7) 0.0135(6) 0.0333(8) -0.0015(6) -0.0109(6) -0.0044(5)
C13 0.0166(8) 0.0148(8) 0.0191(9) -0.0039(7) -0.0089(7) -0.0001(6)
C10 0.0155(8) 0.0144(8) 0.0158(8) 0.0007(6) -0.0073(7) -0.0030(6)
C7 0.0157(8) 0.0124(8) 0.0168(8) 0.0016(6) -0.0072(7) -0.0029(6)
C9 0.0145(8) 0.0123(8) 0.0167(8) -0.0018(6) -0.0069(7) -0.0004(6)
C1 0.0185(8) 0.0269(9) 0.0145(8) -0.0033(7) -0.0025(7) -0.0089(7)
C8 0.0128(8) 0.0173(8) 0.0160(8) -0.0030(7) -0.0060(6) -0.0019(6)
C11 0.0131(8) 0.0182(8) 0.0136(8) -0.0023(7) -0.0041(6) -0.0012(6)
C4 0.0161(8) 0.0170(8) 0.0147(8) -0.0021(7) -0.0029(7) -0.0034(7)
C12 0.0153(8) 0.0126(8) 0.0184(9) -0.0028(6) -0.0076(7) 0.0003(6)
C5 0.0177(9) 0.0203(9) 0.0252(10) 0.0018(7) -0.0036(7) -0.0005(7)
C3 0.0195(9) 0.0155(8) 0.0170(9) -0.0008(7) -0.0037(7) -0.0012(7)
C2 0.0159(8) 0.0224(9) 0.0231(10) -0.0061(7) -0.0032(7) -0.0001(7)
C6 0.0241(9) 0.0218(9) 0.0224(10) 0.0051(8) -0.0068(8) -0.0049(8)
loop_
_atom_type_symbol
_atom_type_description
_atom_type_scat_dispersion_real
_atom_type_scat_dispersion_imag
_atom_type_scat_source
C C 0.0033 0.0016 'International Tables Vol C Tables 4.2.6.8 and 6.1.1.4'
H H 0.0000 0.0000 'International Tables Vol C Tables 4.2.6.8 and 6.1.1.4'
I I -0.4742 1.8119 'International Tables Vol C Tables 4.2.6.8 and 6.1.1.4'
N N 0.0061 0.0033 'International Tables Vol C Tables 4.2.6.8 and 6.1.1.4'
O O 0.0106 0.0060 'International Tables Vol C Tables 4.2.6.8 and 6.1.1.4'
loop_
_geom_angle_atom_site_label_1
_geom_angle_atom_site_label_2
_geom_angle_atom_site_label_3
_geom_angle
O7 N1 O6 123.60(16)
O7 N1 C7 118.98(15)
O6 N1 C7 117.41(15)
O4 N2 O5 124.13(15)
O4 N2 C11 118.30(14)
O5 N2 C11 117.57(15)
O3 C13 O2 125.48(16)
O3 C13 C9 119.03(16)
O2 C13 C9 115.50(15)
C9 C10 C11 119.56(16)
C12 C7 C8 122.61(16)
C12 C7 N1 117.26(15)
C8 C7 N1 120.09(16)
C10 C9 C8 120.40(15)
C10 C9 C13 119.62(16)
C8 C9 C13 119.99(15)
C2 C1 C6 120.82(17)
C2 C1 I1 119.98(13)
C6 C1 I1 119.20(14)
O1 C8 C7 121.01(16)
O1 C8 C9 121.47(15)
C7 C8 C9 117.49(16)
C12 C11 C10 122.01(16)
C12 C11 N2 117.98(15)
C10 C11 N2 120.00(16)
C5 C4 C3 121.67(16)
C5 C4 N3 119.47(15)
C3 C4 N3 118.86(16)
C7 C12 C11 117.83(15)
C4 C5 C6 119.29(17)
C4 C3 C2 119.10(17)
C1 C2 C3 119.75(17)
C1 C6 C5 119.37(18)
loop_
_geom_bond_atom_site_label_1
_geom_bond_atom_site_label_2
_geom_bond_distance
I1 C1 2.0907(18)
O1 C8 1.321(2)
O2 C13 1.286(2)
O5 N2 1.2314(19)
O3 C13 1.228(2)
O7 N1 1.222(2)
N1 O6 1.228(2)
N1 C7 1.455(2)
N3 C4 1.470(2)
N2 O4 1.223(2)
N2 C11 1.453(2)
C13 C9 1.506(2)
C10 C9 1.381(2)
C10 C11 1.383(2)
C7 C12 1.377(2)
C7 C8 1.401(2)
C9 C8 1.413(2)
C1 C2 1.385(3)
C1 C6 1.386(3)
C11 C12 1.382(2)
C4 C5 1.379(3)
C4 C3 1.380(2)
C5 C6 1.390(3)
C3 C2 1.386(3)
loop_
_geom_hbond_atom_site_label_D
_geom_hbond_atom_site_label_H
_geom_hbond_atom_site_label_A
_geom_hbond_distance_DH
_geom_hbond_distance_HA
_geom_hbond_distance_DA
_geom_hbond_angle_DHA
_geom_hbond_site_symmetry_A
O1 H10 O2 1.00(3) 1.50(3) 2.4606(18) 159(3) .
N3 H6 O5 0.86(3) 2.41(2) 2.950(2) 121.5(19) 1_754
N3 H6 O7 0.86(3) 2.68(3) 3.352(2) 136(2) 2_666
N3 H7 O3 0.94(3) 1.80(3) 2.724(2) 168(2) 1_664
