#------------------------------------------------------------------------------
#$Date: 2016-03-26 22:10:51 +0200 (Sat, 26 Mar 2016) $
#$Revision: 180493 $
#$URL: svn://www.crystallography.net/cod/cif/7/21/62/7216281.cif $
#------------------------------------------------------------------------------
#
# This file is available in the Crystallography Open Database (COD),
# http://www.crystallography.net/
#
# All data on this site have been placed in the public domain by the
# contributors.
#
data_7216281
loop_
_publ_author_name
'Moorthy, J. Narasimha'
'Venkatakrishnan, P.'
'Singh, Ashutosh S.'
_publ_section_title
;
 Molecular self-assembly: 4-formylcoumarins as versatile skeletons for
 complementary multipoint association via weak (C?H?O, C?H?F and C?X?O?C)
 interactions
;
_journal_issue                   92
_journal_name_full               CrystEngComm
_journal_page_first              507
_journal_paper_doi               10.1039/b315065h
_journal_volume                  5
_journal_year                    2003
_chemical_formula_sum            'C10 H5 Cl O3'
_chemical_formula_weight         208.59
_chemical_melting_point          184
_chemical_name_common            6-Chloro-4-formylcoumarin
_chemical_name_systematic
;
6-Chloro-4-formylcoumarin
;
_space_group_IT_number           14
_symmetry_cell_setting           monoclinic
_symmetry_space_group_name_Hall  '-P 2yn'
_symmetry_space_group_name_H-M   'P 1 21/n 1'
_atom_sites_solution_hydrogens   geom
_atom_sites_solution_primary     direct
_atom_sites_solution_secondary   difmap
_audit_creation_method           SHELXL-97
_cell_angle_alpha                90.00
_cell_angle_beta                 97.913(5)
_cell_angle_gamma                90.00
_cell_formula_units_Z            4
_cell_length_a                   7.0980(10)
_cell_length_b                   8.5800(10)
_cell_length_c                   14.328(2)
_cell_measurement_reflns_used    25
_cell_measurement_temperature    293(2)
_cell_measurement_theta_max      15
_cell_measurement_theta_min      1
_cell_volume                     864.3(2)
_computing_cell_refinement       'CAD 4 Express (Enraf Nonius, 1994)'
_computing_data_collection       'CAD 4 Express (Enraf Nonius, 1994)'
_computing_data_reduction        'X CAD4 (Harms & Wocaldo, 1995)'
_computing_molecular_graphics    'Diamond, 2.1c'
_computing_publication_material
'WINGX Publication routines (Farrugia, 1999) '
_computing_structure_refinement  'SHELXL-97 (Sheldrick, 1997)'
_computing_structure_solution    'SHELXS-97 (Sheldrick, 1990)'
_diffrn_ambient_temperature      293(2)
_diffrn_measured_fraction_theta_full 0.998
_diffrn_measured_fraction_theta_max 0.998
_diffrn_measurement_device_type  'Enraf-Nonius CAD4'
_diffrn_measurement_method       omega/2theta
_diffrn_radiation_monochromator  graphite
_diffrn_radiation_source         'fine-focus sealed tube'
_diffrn_radiation_type           MoK\a
_diffrn_radiation_wavelength     0.71069
_diffrn_reflns_av_R_equivalents  0.0136
_diffrn_reflns_av_sigmaI/netI    0.0164
_diffrn_reflns_limit_h_max       7
_diffrn_reflns_limit_h_min       -1
_diffrn_reflns_limit_k_max       9
_diffrn_reflns_limit_k_min       0
_diffrn_reflns_limit_l_max       15
_diffrn_reflns_limit_l_min       -15
_diffrn_reflns_number            1268
_diffrn_reflns_theta_full        22.47
_diffrn_reflns_theta_max         22.47
_diffrn_reflns_theta_min         2.77
_diffrn_standards_decay_%        0
_diffrn_standards_interval_count 97
_diffrn_standards_interval_time  60
_diffrn_standards_number         3
_exptl_absorpt_coefficient_mu    0.414
_exptl_absorpt_correction_T_max  'not measured'
_exptl_absorpt_correction_T_min  'not measured'
_exptl_absorpt_correction_type   none
_exptl_absorpt_process_details   none
_exptl_crystal_colour            yellow
_exptl_crystal_density_diffrn    1.603
_exptl_crystal_density_method    'not measured'
_exptl_crystal_description       needle
_exptl_crystal_F_000             424
_refine_diff_density_max         0.150
_refine_diff_density_min         -0.130
_refine_diff_density_rms         0.037
_refine_ls_extinction_coef       0.0061(17)
_refine_ls_extinction_expression Fc^*^==kFc[1+0.001xFc^2^\l^3^/sin(2\q)]^-1/4^
_refine_ls_extinction_method     SHELXL
_refine_ls_goodness_of_fit_ref   1.043
_refine_ls_hydrogen_treatment    constr
_refine_ls_matrix_type           full
_refine_ls_number_parameters     128
_refine_ls_number_reflns         1122
_refine_ls_number_restraints     0
_refine_ls_restrained_S_all      1.043
_refine_ls_R_factor_all          0.0392
_refine_ls_R_factor_gt           0.0281
_refine_ls_shift/su_max          0.000
_refine_ls_shift/su_mean         0.000
_refine_ls_structure_factor_coef Fsqd
_refine_ls_weighting_details
'calc w==1/[\s^2^(Fo^2^)+(0.0409P)^2^+0.2975P] where P==(Fo^2^+2Fc^2^)/3'
_refine_ls_weighting_scheme      calc
_refine_ls_wR_factor_gt          0.0756
_refine_ls_wR_factor_ref         0.0808
_reflns_number_gt                914
_reflns_number_total             1122
_reflns_threshold_expression     2sigma(I)
_cod_data_source_file            b315065h.txt
_cod_data_source_block           6-chloro-4-formylcoumarin
_cod_original_sg_symbol_H-M      P21/n
_cod_database_code               7216281
loop_
_symmetry_equiv_pos_as_xyz
'x, y, z'
'-x+1/2, y+1/2, -z+1/2'
'-x, -y, -z'
'x-1/2, -y-1/2, z-1/2'
loop_
_atom_site_label
_atom_site_type_symbol
_atom_site_fract_x
_atom_site_fract_y
_atom_site_fract_z
_atom_site_U_iso_or_equiv
_atom_site_adp_type
_atom_site_occupancy
_atom_site_symmetry_multiplicity
_atom_site_calc_flag
_atom_site_refinement_flags
Cl1 Cl 0.14132(9) -0.09384(8) 0.25381(4) 0.0643(3) Uani 1 1 d .
O1 O 0.2866(2) -0.10161(17) 0.66498(10) 0.0481(4) Uani 1 1 d .
O2 O 0.3720(2) 0.0037(2) 0.80434(11) 0.0606(5) Uani 1 1 d .
O3 O 0.3075(3) 0.3805(2) 0.45919(12) 0.0746(6) Uani 1 1 d .
C2 C 0.3444(3) 0.0240(3) 0.72055(16) 0.0446(6) Uani 1 1 d .
C3 C 0.3654(3) 0.1688(3) 0.67188(14) 0.0427(6) Uani 1 1 d .
H3 H 0.4065 0.2563 0.7073 0.051 Uiso 1 1 calc R
C4 C 0.3286(3) 0.1830(2) 0.57789(14) 0.0372(5) Uani 1 1 d .
C5 C 0.2325(3) 0.0452(2) 0.42214(14) 0.0401(5) Uani 1 1 d .
H5 H 0.2429 0.1361 0.3879 0.048 Uiso 1 1 calc R
C6 C 0.1804(3) -0.0919(3) 0.37639(15) 0.0434(6) Uani 1 1 d .
C7 C 0.1629(3) -0.2293(3) 0.42488(16) 0.0483(6) Uani 1 1 d .
H7 H 0.1279 -0.3209 0.3923 0.058 Uiso 1 1 calc R
C8 C 0.1978(3) -0.2292(3) 0.52147(16) 0.0473(6) Uani 1 1 d .
H8 H 0.1852 -0.3204 0.5551 0.057 Uiso 1 1 calc R
C9 C 0.2699(3) 0.0475(2) 0.52083(14) 0.0352(5) Uani 1 1 d .
C10 C 0.2520(3) -0.0920(2) 0.56811(14) 0.0383(5) Uani 1 1 d .
C11 C 0.3501(3) 0.3416(3) 0.53874(17) 0.0491(6) Uani 1 1 d .
H11 H 0.4020 0.4177 0.5808 0.059 Uiso 1 1 calc R
loop_
_atom_site_aniso_label
_atom_site_aniso_U_11
_atom_site_aniso_U_22
_atom_site_aniso_U_33
_atom_site_aniso_U_23
_atom_site_aniso_U_13
_atom_site_aniso_U_12
Cl1 0.0778(5) 0.0718(5) 0.0405(4) -0.0109(3) -0.0018(3) 0.0063(4)
O1 0.0669(11) 0.0374(9) 0.0392(9) 0.0044(7) 0.0053(7) 0.0004(7)
O2 0.0829(13) 0.0607(11) 0.0357(10) 0.0053(8) -0.0006(8) 0.0039(9)
O3 0.1237(17) 0.0448(11) 0.0514(12) 0.0113(8) -0.0016(10) -0.0107(10)
C2 0.0485(13) 0.0440(14) 0.0408(14) -0.0006(11) 0.0045(10) 0.0068(11)
C3 0.0465(13) 0.0376(13) 0.0431(13) -0.0032(10) 0.0028(10) 0.0011(10)
C4 0.0380(12) 0.0342(12) 0.0398(12) -0.0004(9) 0.0072(9) 0.0037(9)
C5 0.0407(12) 0.0390(13) 0.0407(13) 0.0037(10) 0.0061(9) 0.0065(10)
C6 0.0404(13) 0.0488(15) 0.0403(13) -0.0065(11) 0.0027(9) 0.0076(11)
C7 0.0496(14) 0.0397(14) 0.0549(15) -0.0100(11) 0.0050(11) 0.0019(11)
C8 0.0564(14) 0.0318(13) 0.0541(14) 0.0011(11) 0.0092(11) 0.0003(11)
C9 0.0326(11) 0.0336(12) 0.0393(12) 0.0000(9) 0.0051(9) 0.0050(9)
C10 0.0401(12) 0.0365(12) 0.0384(12) 0.0024(10) 0.0053(9) 0.0067(10)
C11 0.0637(16) 0.0357(13) 0.0484(15) -0.0030(11) 0.0091(12) -0.0048(11)
loop_
_atom_type_symbol
_atom_type_description
_atom_type_scat_dispersion_real
_atom_type_scat_dispersion_imag
_atom_type_scat_source
C C 0.0033 0.0016 'International Tables Vol C Tables 4.2.6.8 and 6.1.1.4'
H H 0.0000 0.0000 'International Tables Vol C Tables 4.2.6.8 and 6.1.1.4'
O O 0.0106 0.0060 'International Tables Vol C Tables 4.2.6.8 and 6.1.1.4'
Cl Cl 0.1484 0.1585 'International Tables Vol C Tables 4.2.6.8 and 6.1.1.4'
loop_
_geom_angle_atom_site_label_1
_geom_angle_atom_site_label_2
_geom_angle_atom_site_label_3
_geom_angle
C2 O1 C10 122.42(17)
O2 C2 O1 117.5(2)
O2 C2 C3 126.5(2)
O1 C2 C3 116.08(18)
C4 C3 C2 123.0(2)
C3 C4 C9 119.65(19)
C3 C4 C11 116.47(19)
C9 C4 C11 123.88(18)
C6 C5 C9 119.7(2)
C5 C6 C7 121.8(2)
C5 C6 Cl1 119.05(18)
C7 C6 Cl1 119.08(17)
C8 C7 C6 119.3(2)
C7 C8 C10 119.2(2)
C10 C9 C5 117.52(19)
C10 C9 C4 117.03(18)
C5 C9 C4 125.45(19)
O1 C10 C8 115.80(19)
O1 C10 C9 121.80(19)
C8 C10 C9 122.40(19)
O3 C11 C4 126.5(2)
loop_
_geom_bond_atom_site_label_1
_geom_bond_atom_site_label_2
_geom_bond_distance
Cl1 C6 1.740(2)
O1 C2 1.369(3)
O1 C10 1.378(2)
O2 C2 1.202(2)
O3 C11 1.186(3)
C2 C3 1.442(3)
C3 C4 1.342(3)
C4 C9 1.449(3)
C4 C11 1.487(3)
C5 C6 1.372(3)
C5 C9 1.402(3)
C6 C7 1.383(3)
C7 C8 1.372(3)
C8 C10 1.382(3)
C9 C10 1.390(3)
loop_
_geom_torsion_atom_site_label_1
_geom_torsion_atom_site_label_2
_geom_torsion_atom_site_label_3
_geom_torsion_atom_site_label_4
_geom_torsion
C10 O1 C2 O2 -179.56(19)
C10 O1 C2 C3 0.6(3)
O2 C2 C3 C4 -178.8(2)
O1 C2 C3 C4 1.0(3)
C2 C3 C4 C9 -1.8(3)
C2 C3 C4 C11 177.7(2)
C9 C5 C6 C7 0.2(3)
C9 C5 C6 Cl1 -178.13(15)
C5 C6 C7 C8 0.2(3)
Cl1 C6 C7 C8 178.52(16)
C6 C7 C8 C10 -0.8(3)
C6 C5 C9 C10 0.0(3)
C6 C5 C9 C4 179.09(19)
C3 C4 C9 C10 1.0(3)
C11 C4 C9 C10 -178.47(19)
C3 C4 C9 C5 -178.0(2)
C11 C4 C9 C5 2.4(3)
C2 O1 C10 C8 178.85(18)
C2 O1 C10 C9 -1.4(3)
C7 C8 C10 O1 -179.28(18)
C7 C8 C10 C9 1.0(3)
C5 C9 C10 O1 179.69(17)
C4 C9 C10 O1 0.5(3)
C5 C9 C10 C8 -0.6(3)
C4 C9 C10 C8 -179.73(19)
C3 C4 C11 O3 -172.6(2)
C9 C4 C11 O3 7.0(4)
