#------------------------------------------------------------------------------
#$Date: 2016-03-26 22:13:34 +0200 (Sat, 26 Mar 2016) $
#$Revision: 180495 $
#$URL: svn://www.crystallography.net/cod/cif/7/21/64/7216475.cif $
#------------------------------------------------------------------------------
#
# This file is available in the Crystallography Open Database (COD),
# http://www.crystallography.net/
#
# All data on this site have been placed in the public domain by the
# contributors.
#
data_7216475
loop_
_publ_author_name
'Podsiad\/lo, Marcin'
'Olejniczak, Anna'
'Katrusiak, Andrzej'
_publ_section_title
;
 Halogen&#x2219;&#x2219;&#x2219;halogen contra
 C&#x2212;H&#x2219;&#x2219;&#x2219;halogen
;
_journal_name_full               CrystEngComm
_journal_paper_doi               10.1039/c4ce00241e
_journal_year                    2014
_chemical_formula_moiety         'C H3 Br'
_chemical_formula_sum            'C H3 Br'
_chemical_formula_weight         94.94
_chemical_melting_point          179.5
_chemical_name_common            'methyl bromide'
_chemical_name_systematic
; 
bromomethane 
;
_space_group_IT_number           36
_symmetry_cell_setting           orthorhombic
_symmetry_space_group_name_Hall  'C 2c -2'
_symmetry_space_group_name_H-M   'C m c 21'
_atom_sites_solution_hydrogens   geom
_atom_sites_solution_primary     direct
_atom_sites_solution_secondary   difmap
_audit_creation_method           SHELXL-97
_cell_angle_alpha                90.00
_cell_angle_beta                 90.00
_cell_angle_gamma                90.00
_cell_formula_units_Z            4
_cell_length_a                   6.387(9)
_cell_length_b                   5.163(5)
_cell_length_c                   7.492(5)
_cell_measurement_reflns_used    508
_cell_measurement_temperature    295(2)
_cell_measurement_theta_max      26.79
_cell_measurement_theta_min      5.44
_cell_volume                     247.1(5)
_computing_cell_refinement       'CrysAlisRED (Oxford Diffraction, 2004)'
_computing_data_collection       'CrysAlisCCD (Oxford Diffraction, 2004)'
_computing_data_reduction
'CrysAlisRED (Oxford Diffraction, 2004); REDSHABS (Katrusiak, A.  2003)'
_computing_molecular_graphics    'SHELXTL (Sheldrick, 1990)'
_computing_publication_material  'SHELXL--97 (Sheldrick, 1997)'
_computing_structure_refinement  'SHELXL--97 (Sheldrick, 1997)'
_computing_structure_solution    'SHELXS--97 (Sheldrick, 1997)'
_diffrn_ambient_environment      'diamond-anvil cell'
_diffrn_ambient_pressure         1550000
_diffrn_ambient_temperature      295(2)
_diffrn_measured_fraction_theta_full 0.386
_diffrn_measured_fraction_theta_max 0.386
_diffrn_measurement_device_type  'KM-4 CCD'
_diffrn_measurement_method       '\f- and \w-scans'
_diffrn_radiation_monochromator  graphite
_diffrn_radiation_source         'fine-focus sealed tube'
_diffrn_radiation_type           MoK\a
_diffrn_radiation_wavelength     0.71073
_diffrn_reflns_av_R_equivalents  0.0479
_diffrn_reflns_av_sigmaI/netI    0.0308
_diffrn_reflns_limit_h_max       2
_diffrn_reflns_limit_h_min       -2
_diffrn_reflns_limit_k_max       6
_diffrn_reflns_limit_k_min       -6
_diffrn_reflns_limit_l_max       9
_diffrn_reflns_limit_l_min       -9
_diffrn_reflns_number            492
_diffrn_reflns_theta_full        26.79
_diffrn_reflns_theta_max         26.79
_diffrn_reflns_theta_min         5.44
_diffrn_standards_decay_%        0
_diffrn_standards_interval_count 0
_diffrn_standards_number         0
_exptl_absorpt_coefficient_mu    16.212
_exptl_absorpt_correction_T_max  0.06
_exptl_absorpt_correction_T_min  0.03
_exptl_absorpt_correction_type   analytical
_exptl_absorpt_process_details
; 
 Correction for absorption of the diamond-anvil cell and the sample 
 were made using program REDSHABS (Katrusiak, A. (2003) REDSHABS. Adam
 Mickiewicz University Pozna\'n; Katrusiak, A. (2004) Z. Kristallogr.
 219, 461-467).
;
_exptl_crystal_colour            colourless
_exptl_crystal_density_diffrn    2.553
_exptl_crystal_density_method    'not measured'
_exptl_crystal_description       cylinder
_exptl_crystal_F_000             176
_exptl_crystal_size_max          0.28
_exptl_crystal_size_mid          0.27
_exptl_crystal_size_min          0.16
_refine_diff_density_max         0.290
_refine_diff_density_min         -0.318
_refine_diff_density_rms         0.092
_refine_ls_abs_structure_details 'Flack H D (1983), Acta Cryst. A39, 876-881'
_refine_ls_abs_structure_Flack   0.57(19)
_refine_ls_extinction_coef       0.028(7)
_refine_ls_extinction_expression Fc^*^=kFc[1+0.001xFc^2^\l^3^/sin(2\q)]^-1/4^
_refine_ls_extinction_method     SHELXL
_refine_ls_goodness_of_fit_ref   1.171
_refine_ls_hydrogen_treatment    constr
_refine_ls_matrix_type           full
_refine_ls_number_parameters     14
_refine_ls_number_reflns         115
_refine_ls_number_restraints     1
_refine_ls_restrained_S_all      1.165
_refine_ls_R_factor_all          0.0473
_refine_ls_R_factor_gt           0.0390
_refine_ls_shift/su_max          0.000
_refine_ls_shift/su_mean         0.000
_refine_ls_structure_factor_coef Fsqd
_refine_ls_weighting_details
'calc w=1/[\s^2^(Fo^2^)+(0.0240P)^2^+2.4022P] where P=(Fo^2^+2Fc^2^)/3'
_refine_ls_weighting_scheme      calc
_refine_ls_wR_factor_gt          0.0712
_refine_ls_wR_factor_ref         0.0756
_reflns_number_gt                89
_reflns_number_total             115
_reflns_threshold_expression     >2sigma(I)
_cod_data_source_file            c4ce00241e2.cif
_cod_data_source_block           4bm_155GPa
_cod_database_code               7216475
loop_
_symmetry_equiv_pos_as_xyz
'x, y, z'
'-x, -y, z+1/2'
'x, -y, z+1/2'
'-x, y, z'
'x+1/2, y+1/2, z'
'-x+1/2, -y+1/2, z+1/2'
'x+1/2, -y+1/2, z+1/2'
'-x+1/2, y+1/2, z'
loop_
_atom_site_label
_atom_site_type_symbol
_atom_site_fract_x
_atom_site_fract_y
_atom_site_fract_z
_atom_site_U_iso_or_equiv
_atom_site_adp_type
_atom_site_occupancy
_atom_site_symmetry_multiplicity
_atom_site_calc_flag
_atom_site_refinement_flags
Br1 Br 0.0000 0.1207(3) 0.2464(17) 0.054(3) Uani 1 2 d S
C1 C 0.0000 0.386(3) 0.4259(17) 0.06(3) Uani 1 2 d S
H1 H 0.0000 0.5530 0.3696 0.095 Uiso 1 2 calc SR
H2 H 0.1227 0.3687 0.4989 0.095 Uiso 0.50 1 calc PR
H3 H -0.1227 0.3687 0.4989 0.095 Uiso 0.50 1 calc PR
loop_
_atom_site_aniso_label
_atom_site_aniso_U_11
_atom_site_aniso_U_22
_atom_site_aniso_U_33
_atom_site_aniso_U_23
_atom_site_aniso_U_13
_atom_site_aniso_U_12
Br1 0.052(9) 0.0567(13) 0.0542(13) -0.0058(14) 0.000 0.000
C1 0.11(10) 0.030(10) 0.049(10) 0.000(7) 0.000 0.000
loop_
_atom_type_symbol
_atom_type_description
_atom_type_scat_dispersion_real
_atom_type_scat_dispersion_imag
_atom_type_scat_source
C C 0.0033 0.0016 'International Tables Vol C Tables 4.2.6.8 and 6.1.1.4'
H H 0.0000 0.0000 'International Tables Vol C Tables 4.2.6.8 and 6.1.1.4'
Br Br -0.2901 2.4595 'International Tables Vol C Tables 4.2.6.8 and 6.1.1.4'
loop_
_geom_angle_atom_site_label_1
_geom_angle_atom_site_label_2
_geom_angle_atom_site_label_3
_geom_angle
Br1 C1 H1 109.5
Br1 C1 H2 109.5
H1 C1 H2 109.5
Br1 C1 H3 109.5
H1 C1 H3 109.5
H2 C1 H3 109.5
loop_
_geom_bond_atom_site_label_1
_geom_bond_atom_site_label_2
_geom_bond_distance
Br1 C1 1.919(16)
C1 H1 0.9600
C1 H2 0.9600
C1 H3 0.9600
loop_
_refln_index_h
_refln_index_k
_refln_index_l
_refln_F_squared_calc
_refln_F_squared_meas
_refln_F_squared_sigma
_refln_observed_status
1 1 -9 64.87 86.92 7.33 o
1 1 -8 226.09 264.36 7.34 o
0 2 -8 3.07 13.85 11.30 o
2 2 -8 2.38 5.25 8.62 o
1 1 -7 342.44 322.28 14.08 o
0 2 -7 605.01 402.15 125.41 o
2 2 -7 463.20 440.58 25.07 o
0 4 -7 4.64 3.96 14.58 o
2 4 -7 3.70 6.62 11.88 o
2 0 -6 1517.92 1399.56 31.84 o
1 1 -6 648.39 620.72 16.41 o
0 2 -6 11.29 11.64 6.44 o
2 2 -6 8.34 11.16 6.90 o
1 3 -6 225.28 160.08 8.50 o
0 4 -6 369.61 346.63 89.47 o
2 4 -6 280.71 362.37 20.78 o
1 1 -5 1450.49 1369.16 15.63 o
0 2 -5 1622.19 1749.92 36.05 o
2 2 -5 1250.49 1010.58 196.95 o
1 3 -5 747.61 813.25 15.05 o
0 4 -5 12.09 42.18 22.19 o
2 4 -5 9.25 22.37 15.62 o
1 5 -5 87.55 53.82 33.04 o
0 0 -4 5440.71 5061.17 102.32 o
1 1 -4 2374.39 2418.30 15.71 o
0 2 -4 9.31 13.03 3.85 o
2 2 -4 7.98 1.92 15.05 o
1 3 -4 691.71 698.93 28.87 o
0 4 -4 819.11 683.48 114.90 o
2 4 -4 618.39 558.45 32.62 o
1 5 -4 198.96 210.15 47.70 o
1 1 -3 2604.95 2579.68 33.64 o
0 2 -3 5908.32 6211.73 100.31 o
2 2 -3 4185.08 4268.01 39.15 o
1 3 -3 1107.90 1191.78 23.45 o
0 4 -3 29.94 14.81 11.20 o
2 4 -3 21.93 17.33 6.84 o
1 5 -3 124.14 152.61 20.04 o
2 6 -3 136.52 117.38 8.95 o
0 0 -2 9520.22 10048.93 214.81 o
1 1 -2 6500.57 6455.23 127.26 o
0 2 -2 27.80 32.80 4.63 o
2 2 -2 17.33 21.07 7.74 o
1 3 -2 1590.01 1650.76 14.82 o
0 4 -2 1211.40 1139.49 44.34 o
2 4 -2 958.07 884.74 162.79 o
1 5 -2 418.40 284.42 126.77 o
2 6 -2 3.32 7.56 8.40 o
1 1 -1 6458.83 6275.74 66.67 o
0 2 -1 7817.22 7588.64 46.23 o
1 3 -1 2394.34 2408.44 69.83 o
0 4 -1 17.18 5.12 3.94 o
2 4 -1 13.25 14.45 7.50 o
1 5 -1 237.36 188.19 48.57 o
2 6 -1 138.13 124.21 15.62 o
0 2 0 63.44 83.73 4.03 o
1 3 0 1324.11 1396.04 40.07 o
2 4 0 1703.01 1842.26 35.92 o
1 5 0 274.28 235.12 58.14 o
2 6 0 8.51 12.41 13.13 o
1 1 1 6749.99 6446.87 36.17 o
0 2 1 7369.14 7521.84 28.63 o
1 3 1 2507.31 2357.98 63.82 o
0 4 1 15.10 3.26 4.86 o
2 4 1 11.69 19.73 5.58 o
1 5 1 249.87 212.50 21.49 o
2 6 1 124.17 189.80 24.70 o
0 0 2 10092.02 10015.77 171.84 o
1 1 2 6265.08 6743.00 103.67 o
0 2 2 31.78 33.86 4.09 o
2 2 2 19.81 8.25 6.86 o
1 3 2 1552.00 1616.11 32.82 o
0 4 2 1279.17 1144.51 12.59 o
2 4 2 1005.47 1157.37 68.42 o
1 5 2 393.88 295.27 93.88 o
2 6 2 4.33 7.48 7.44 o
1 1 3 2535.28 2489.46 33.52 o
0 2 3 6021.43 5902.35 60.10 o
2 2 3 4228.07 4231.39 96.88 o
1 3 3 1083.43 1179.02 33.88 o
0 4 3 29.29 7.91 3.60 o
2 4 3 21.52 16.05 8.41 o
1 5 3 120.81 166.88 23.98 o
2 6 3 139.37 127.62 11.40 o
0 0 4 5206.89 5422.70 111.10 o
1 1 4 2475.76 2407.30 16.48 o
0 2 4 8.96 12.95 4.51 o
2 2 4 7.67 4.66 7.30 o
1 3 4 722.54 733.29 18.47 o
0 4 4 767.39 707.66 75.44 o
2 4 4 581.63 547.05 35.05 o
1 5 4 217.11 265.41 27.12 o
1 1 5 1427.44 1465.49 19.70 o
0 2 5 1667.13 1740.58 54.52 o
2 2 5 1288.85 1150.49 131.80 o
1 3 5 724.85 798.20 20.93 o
0 4 5 13.75 12.76 10.99 o
2 4 5 10.42 16.25 14.64 o
1 5 5 85.44 108.08 44.06 o
0 0 6 2038.29 2003.53 52.10 o
2 0 6 1541.70 1411.18 24.35 o
1 1 6 634.31 680.02 15.61 o
0 2 6 10.88 15.61 8.56 o
2 2 6 8.07 21.70 10.11 o
1 3 6 217.50 144.71 18.76 o
0 4 6 380.85 340.04 40.93 o
2 4 6 288.81 379.37 36.50 o
1 1 7 359.54 365.26 14.98 o
0 2 7 572.23 637.85 74.18 o
2 2 7 438.81 468.44 26.13 o
0 4 7 4.17 11.77 8.61 o
2 4 7 3.36 5.81 13.62 o
1 1 8 221.05 261.55 18.46 o
2 2 8 2.56 12.28 10.19 o
1 1 9 61.45 71.22 13.28 o
