#------------------------------------------------------------------------------
#$Date: 2016-03-26 22:10:51 +0200 (Sat, 26 Mar 2016) $
#$Revision: 180493 $
#$URL: svn://www.crystallography.net/cod/cif/7/21/62/7216283.cif $
#------------------------------------------------------------------------------
#
# This file is available in the Crystallography Open Database (COD),
# http://www.crystallography.net/
#
# All data on this site have been placed in the public domain by the
# contributors.
#
data_7216283
loop_
_publ_author_name
'Moorthy, J. Narasimha'
'Venkatakrishnan, P.'
'Singh, Ashutosh S.'
_publ_section_title
;
 Molecular self-assembly: 4-formylcoumarins as versatile skeletons for
 complementary multipoint association via weak (C?H?O, C?H?F and C?X?O?C)
 interactions
;
_journal_issue                   92
_journal_name_full               CrystEngComm
_journal_page_first              507
_journal_paper_doi               10.1039/b315065h
_journal_volume                  5
_journal_year                    2003
_chemical_formula_sum            'C10 H5 Br O3'
_chemical_formula_weight         253.05
_chemical_melting_point          206
_chemical_name_common            7-bromo-4-formylcoumarin
_chemical_name_systematic
;
7-bromo-4-formylcoumarin
;
_space_group_IT_number           14
_symmetry_cell_setting           monoclinic
_symmetry_space_group_name_Hall  '-P 2ybc'
_symmetry_space_group_name_H-M   'P 1 21/c 1'
_atom_sites_solution_hydrogens   geom
_atom_sites_solution_primary     direct
_atom_sites_solution_secondary   difmap
_audit_creation_method           SHELXL-97
_cell_angle_alpha                90.00
_cell_angle_beta                 92.753(5)
_cell_angle_gamma                90.00
_cell_formula_units_Z            4
_cell_length_a                   8.1220(10)
_cell_length_b                   10.2160(10)
_cell_length_c                   10.709(2)
_cell_measurement_reflns_used    25
_cell_measurement_temperature    293(2)
_cell_measurement_theta_max      15
_cell_measurement_theta_min      1
_cell_volume                     887.5(2)
_computing_cell_refinement       'CAD 4 Express (Enraf Nonius, 1994)'
_computing_data_collection       'CAD 4 Express (Enraf Nonius, 1994)'
_computing_data_reduction        'X CAD4 (Harms & Wocaldo, 1995)'
_computing_molecular_graphics    'Diamond, 2.1c'
_computing_publication_material  'WINGX Publication routines(Farrugia, 1999)'
_computing_structure_refinement  'SHELXL-97 (Sheldrick, 1997)'
_computing_structure_solution    'SHELXS-97 (Sheldrick, 1990)'
_diffrn_ambient_temperature      293(2)
_diffrn_measured_fraction_theta_full 0.999
_diffrn_measured_fraction_theta_max 0.999
_diffrn_measurement_device_type  'Enraf-nonius CAD4'
_diffrn_measurement_method       omega/2theta
_diffrn_radiation_monochromator  graphite
_diffrn_radiation_source         'fine-focus sealed tube'
_diffrn_radiation_type           MoK\a
_diffrn_radiation_wavelength     0.71069
_diffrn_reflns_av_R_equivalents  0.0195
_diffrn_reflns_av_sigmaI/netI    0.0468
_diffrn_reflns_limit_h_max       8
_diffrn_reflns_limit_h_min       -1
_diffrn_reflns_limit_k_max       10
_diffrn_reflns_limit_k_min       -4
_diffrn_reflns_limit_l_max       11
_diffrn_reflns_limit_l_min       -11
_diffrn_reflns_number            1290
_diffrn_reflns_theta_full        22.47
_diffrn_reflns_theta_max         22.47
_diffrn_reflns_theta_min         2.51
_diffrn_standards_decay_%        0
_diffrn_standards_interval_count 97
_diffrn_standards_interval_time  60
_diffrn_standards_number         3
_exptl_absorpt_coefficient_mu    4.604
_exptl_absorpt_correction_T_max  'not measured'
_exptl_absorpt_correction_T_min  'not measured'
_exptl_absorpt_correction_type   none
_exptl_absorpt_process_details   none
_exptl_crystal_colour            yellow
_exptl_crystal_density_diffrn    1.894
_exptl_crystal_density_method    'not measured'
_exptl_crystal_description       cubic
_exptl_crystal_F_000             496
_refine_diff_density_max         0.752
_refine_diff_density_min         -0.565
_refine_diff_density_rms         0.111
_refine_ls_extinction_coef       0.0046(14)
_refine_ls_extinction_expression Fc^*^==kFc[1+0.001xFc^2^\l^3^/sin(2\q)]^-1/4^
_refine_ls_extinction_method     SHELXL
_refine_ls_goodness_of_fit_ref   1.026
_refine_ls_hydrogen_treatment    constr
_refine_ls_matrix_type           full
_refine_ls_number_parameters     128
_refine_ls_number_reflns         1151
_refine_ls_number_restraints     0
_refine_ls_restrained_S_all      1.026
_refine_ls_R_factor_all          0.0698
_refine_ls_R_factor_gt           0.0417
_refine_ls_shift/su_max          0.000
_refine_ls_shift/su_mean         0.000
_refine_ls_structure_factor_coef Fsqd
_refine_ls_weighting_details
'calc w==1/[\s^2^(Fo^2^)+(0.0754P)^2^+0.3247P] where P==(Fo^2^+2Fc^2^)/3'
_refine_ls_weighting_scheme      calc
_refine_ls_wR_factor_gt          0.1035
_refine_ls_wR_factor_ref         0.1124
_reflns_number_gt                881
_reflns_number_total             1151
_reflns_threshold_expression     >2sigma(I)
_cod_data_source_file            b315065h.txt
_cod_data_source_block           7-Bromo-4-Formylcoumarin
_cod_original_sg_symbol_H-M      P21/c
_cod_database_code               7216283
loop_
_symmetry_equiv_pos_as_xyz
'x, y, z'
'-x, y+1/2, -z+1/2'
'-x, -y, -z'
'x, -y-1/2, z-1/2'
loop_
_atom_site_label
_atom_site_type_symbol
_atom_site_fract_x
_atom_site_fract_y
_atom_site_fract_z
_atom_site_U_iso_or_equiv
_atom_site_adp_type
_atom_site_occupancy
_atom_site_symmetry_multiplicity
_atom_site_calc_flag
_atom_site_refinement_flags
Br1 Br 0.35186(9) -0.30188(6) 0.13154(6) 0.0472(3) Uani 1 1 d .
O1 O 0.0873(5) 0.0297(4) -0.1756(3) 0.0367(10) Uani 1 1 d .
O2 O -0.0367(6) 0.1491(5) -0.3222(4) 0.0510(12) Uani 1 1 d .
O3 O 0.3383(6) 0.3903(5) 0.1025(5) 0.0574(14) Uani 1 1 d .
C2 C 0.0452(8) 0.1485(6) -0.2257(6) 0.0382(15) Uani 1 1 d .
C3 C 0.1070(8) 0.2623(7) -0.1563(6) 0.0411(16) Uani 1 1 d .
H3 H 0.0792 0.3452 -0.1863 0.049 Uiso 1 1 calc R
C4 C 0.2020(7) 0.2528(6) -0.0513(5) 0.0328(14) Uani 1 1 d .
C5 C 0.3428(7) 0.1020(6) 0.1068(5) 0.0378(16) Uani 1 1 d .
H5 H 0.3864 0.1721 0.1528 0.045 Uiso 1 1 calc R
C6 C 0.3755(7) -0.0253(6) 0.1466(5) 0.0363(15) Uani 1 1 d .
H6 H 0.4412 -0.0403 0.2187 0.044 Uiso 1 1 calc R
C7 C 0.3113(7) -0.1274(6) 0.0798(6) 0.0319(14) Uani 1 1 d .
C8 C 0.2148(7) -0.1101(5) -0.0276(5) 0.0315(14) Uani 1 1 d .
H8 H 0.1716 -0.1811 -0.0726 0.038 Uiso 1 1 calc R
C9 C 0.2456(7) 0.1252(6) -0.0012(5) 0.0312(14) Uani 1 1 d .
C10 C 0.1839(7) 0.0186(6) -0.0668(5) 0.0287(13) Uani 1 1 d .
C11 C 0.2573(8) 0.3774(6) 0.0077(6) 0.0418(16) Uani 1 1 d .
H11 H 0.2252 0.4538 -0.0339 0.050 Uiso 1 1 calc R
loop_
_atom_site_aniso_label
_atom_site_aniso_U_11
_atom_site_aniso_U_22
_atom_site_aniso_U_33
_atom_site_aniso_U_23
_atom_site_aniso_U_13
_atom_site_aniso_U_12
Br1 0.0534(5) 0.0255(5) 0.0614(5) 0.0093(3) -0.0096(3) 0.0064(3)
O1 0.047(3) 0.025(2) 0.036(2) 0.0015(18) -0.011(2) 0.004(2)
O2 0.061(3) 0.044(3) 0.046(3) 0.004(2) -0.019(2) 0.009(2)
O3 0.070(3) 0.028(3) 0.073(3) -0.010(2) -0.017(3) -0.005(2)
C2 0.040(4) 0.032(4) 0.042(4) 0.003(3) 0.001(3) 0.001(3)
C3 0.045(4) 0.030(4) 0.048(4) 0.010(3) -0.001(3) 0.001(3)
C4 0.034(3) 0.023(3) 0.042(4) 0.001(3) 0.006(3) -0.002(3)
C5 0.038(4) 0.032(4) 0.043(4) -0.006(3) -0.007(3) 0.000(3)
C6 0.037(4) 0.031(4) 0.039(4) 0.003(3) -0.014(3) 0.001(3)
C7 0.035(4) 0.016(3) 0.045(3) 0.002(3) 0.004(3) 0.002(3)
C8 0.035(3) 0.018(3) 0.041(3) -0.003(3) -0.007(3) 0.002(3)
C9 0.033(3) 0.024(4) 0.036(3) -0.003(3) 0.001(3) 0.003(3)
C10 0.025(3) 0.029(3) 0.032(3) 0.001(3) -0.002(3) 0.002(3)
C11 0.047(4) 0.021(4) 0.057(4) 0.000(3) 0.005(4) 0.000(3)
loop_
_atom_type_symbol
_atom_type_description
_atom_type_scat_dispersion_real
_atom_type_scat_dispersion_imag
_atom_type_scat_source
C C 0.0033 0.0016 'International Tables Vol C Tables 4.2.6.8 and 6.1.1.4'
H H 0.0000 0.0000 'International Tables Vol C Tables 4.2.6.8 and 6.1.1.4'
O O 0.0106 0.0060 'International Tables Vol C Tables 4.2.6.8 and 6.1.1.4'
Br Br -0.2901 2.4595 'International Tables Vol C Tables 4.2.6.8 and 6.1.1.4'
loop_
_geom_angle_atom_site_label_1
_geom_angle_atom_site_label_2
_geom_angle_atom_site_label_3
_geom_angle
C2 O1 C10 121.9(5)
O2 C2 O1 117.4(6)
O2 C2 C3 126.8(6)
O1 C2 C3 115.8(5)
C4 C3 C2 122.9(6)
C3 C4 C9 119.9(6)
C3 C4 C11 116.6(6)
C9 C4 C11 123.6(5)
C9 C5 C6 120.5(6)
C7 C6 C5 119.7(5)
C6 C7 C8 122.2(5)
C6 C7 Br1 120.9(5)
C8 C7 Br1 116.8(4)
C7 C8 C10 117.3(5)
C10 C9 C5 117.9(5)
C10 C9 C4 116.6(5)
C5 C9 C4 125.5(6)
C9 C10 O1 123.0(5)
C9 C10 C8 122.3(5)
O1 C10 C8 114.7(5)
O3 C11 C4 127.1(6)
loop_
_geom_bond_atom_site_label_1
_geom_bond_atom_site_label_2
_geom_bond_distance
Br1 C7 1.891(6)
O1 C2 1.364(7)
O1 C10 1.378(7)
O2 C2 1.202(7)
O3 C11 1.191(7)
C2 C3 1.456(9)
C3 C4 1.337(9)
C4 C9 1.447(9)
C4 C11 1.481(9)
C5 C9 1.389(8)
C5 C6 1.390(9)
C6 C7 1.355(9)
C7 C8 1.372(8)
C8 C10 1.399(8)
C9 C10 1.377(8)
loop_
_geom_torsion_atom_site_label_1
_geom_torsion_atom_site_label_2
_geom_torsion_atom_site_label_3
_geom_torsion_atom_site_label_4
_geom_torsion
C10 O1 C2 O2 178.5(5)
C10 O1 C2 C3 -0.7(8)
O2 C2 C3 C4 -177.8(7)
O1 C2 C3 C4 1.3(9)
C2 C3 C4 C9 -0.9(9)
C2 C3 C4 C11 179.1(5)
C9 C5 C6 C7 -0.3(9)
C5 C6 C7 C8 0.5(9)
C5 C6 C7 Br1 -179.6(4)
C6 C7 C8 C10 -0.1(9)
Br1 C7 C8 C10 -180.0(4)
C6 C5 C9 C10 -0.2(9)
C6 C5 C9 C4 179.5(6)
C3 C4 C9 C10 -0.2(9)
C11 C4 C9 C10 179.8(5)
C3 C4 C9 C5 -179.9(6)
C11 C4 C9 C5 0.1(9)
C5 C9 C10 O1 -179.4(5)
C4 C9 C10 O1 0.8(8)
C5 C9 C10 C8 0.6(9)
C4 C9 C10 C8 -179.1(5)
C2 O1 C10 C9 -0.3(8)
C2 O1 C10 C8 179.6(5)
C7 C8 C10 C9 -0.5(9)
C7 C8 C10 O1 179.6(5)
C3 C4 C11 O3 177.9(6)
C9 C4 C11 O3 -2.1(10)
