#------------------------------------------------------------------------------
#$Date: 2016-03-26 22:13:34 +0200 (Sat, 26 Mar 2016) $
#$Revision: 180495 $
#$URL: svn://www.crystallography.net/cod/cif/7/21/64/7216476.cif $
#------------------------------------------------------------------------------
#
# This file is available in the Crystallography Open Database (COD),
# http://www.crystallography.net/
#
# All data on this site have been placed in the public domain by the
# contributors.
#
data_7216476
loop_
_publ_author_name
'Podsiad\/lo, Marcin'
'Olejniczak, Anna'
'Katrusiak, Andrzej'
_publ_section_title
;
 Halogen&#x2219;&#x2219;&#x2219;halogen contra
 C&#x2212;H&#x2219;&#x2219;&#x2219;halogen
;
_journal_name_full               CrystEngComm
_journal_paper_doi               10.1039/c4ce00241e
_journal_year                    2014
_chemical_formula_moiety         'C H3 Br'
_chemical_formula_sum            'C H3 Br'
_chemical_formula_weight         94.94
_chemical_melting_point          179.5
_chemical_name_common            'methyl bromide'
_chemical_name_systematic
;
bromomethane 
;
_space_group_IT_number           36
_symmetry_cell_setting           orthorhombic
_symmetry_space_group_name_Hall  'C 2c -2'
_symmetry_space_group_name_H-M   'C m c 21'
_atom_sites_solution_hydrogens   geom
_atom_sites_solution_primary     direct
_atom_sites_solution_secondary   difmap
_audit_creation_method           SHELXL-97
_cell_angle_alpha                90.00
_cell_angle_beta                 90.00
_cell_angle_gamma                90.00
_cell_formula_units_Z            4
_cell_length_a                   6.378(10)
_cell_length_b                   5.133(9)
_cell_length_c                   7.413(9)
_cell_measurement_reflns_used    489
_cell_measurement_temperature    295(2)
_cell_measurement_theta_max      26.94
_cell_measurement_theta_min      5.10
_cell_volume                     242.7(6)
_computing_cell_refinement       'CrysAlisRED (Oxford Diffraction, 2004)'
_computing_data_collection       'CrysAlisCCD (Oxford Diffraction, 2004)'
_computing_data_reduction
'CrysAlisRED (Oxford Diffraction, 2004); REDSHABS (Katrusiak, A.  2003)'
_computing_molecular_graphics    'SHELXTL (Sheldrick, 1990)'
_computing_publication_material  'SHELXL--97 (Sheldrick, 1997)'
_computing_structure_refinement  'SHELXL--97 (Sheldrick, 1997)'
_computing_structure_solution    'SHELXS--97 (Sheldrick, 1997)'
_diffrn_ambient_environment      'diamond-anvil cell'
_diffrn_ambient_pressure         1830000
_diffrn_ambient_temperature      295(2)
_diffrn_measured_fraction_theta_full 0.410
_diffrn_measured_fraction_theta_max 0.410
_diffrn_measurement_device_type  'KM-4 CCD'
_diffrn_measurement_method       '\f- and \w-scans'
_diffrn_radiation_monochromator  graphite
_diffrn_radiation_source         'fine-focus sealed tube'
_diffrn_radiation_type           MoK\a
_diffrn_radiation_wavelength     0.71073
_diffrn_reflns_av_R_equivalents  0.0346
_diffrn_reflns_av_sigmaI/netI    0.0265
_diffrn_reflns_limit_h_max       5
_diffrn_reflns_limit_h_min       -5
_diffrn_reflns_limit_k_max       5
_diffrn_reflns_limit_k_min       -5
_diffrn_reflns_limit_l_max       7
_diffrn_reflns_limit_l_min       -7
_diffrn_reflns_number            463
_diffrn_reflns_theta_full        26.94
_diffrn_reflns_theta_max         26.94
_diffrn_reflns_theta_min         5.10
_diffrn_standards_decay_%        0
_diffrn_standards_interval_count 0
_diffrn_standards_number         0
_exptl_absorpt_coefficient_mu    16.504
_exptl_absorpt_correction_T_max  0.05
_exptl_absorpt_correction_T_min  0.02
_exptl_absorpt_correction_type   analytical
_exptl_absorpt_process_details
; 
 Correction for absorption of the diamond-anvil cell and the sample 
 were made using program REDSHABS (Katrusiak, A. (2003) REDSHABS. Adam
 Mickiewicz University Pozna\'n; Katrusiak, A. (2004) Z. Kristallogr.
 219, 461-467).
;
_exptl_crystal_colour            colourless
_exptl_crystal_density_diffrn    2.598
_exptl_crystal_density_method    'not measured'
_exptl_crystal_description       cylinder
_exptl_crystal_F_000             176
_exptl_crystal_size_max          0.24
_exptl_crystal_size_mid          0.24
_exptl_crystal_size_min          0.18
_refine_diff_density_max         0.384
_refine_diff_density_min         -0.292
_refine_diff_density_rms         0.071
_refine_ls_abs_structure_details 'Flack H D (1983), Acta Cryst. A39, 876-881'
_refine_ls_abs_structure_Flack   0.44(15)
_refine_ls_extinction_method     none
_refine_ls_goodness_of_fit_ref   1.196
_refine_ls_hydrogen_treatment    constr
_refine_ls_matrix_type           full
_refine_ls_number_parameters     13
_refine_ls_number_reflns         121
_refine_ls_number_restraints     1
_refine_ls_restrained_S_all      1.190
_refine_ls_R_factor_all          0.0363
_refine_ls_R_factor_gt           0.0273
_refine_ls_shift/su_max          0.000
_refine_ls_shift/su_mean         0.000
_refine_ls_structure_factor_coef Fsqd
_refine_ls_weighting_details
'calc w=1/[\s^2^(Fo^2^)+(0.0226P)^2^+0.4702P] where P=(Fo^2^+2Fc^2^)/3'
_refine_ls_weighting_scheme      calc
_refine_ls_wR_factor_gt          0.0500
_refine_ls_wR_factor_ref         0.0545
_reflns_number_gt                97
_reflns_number_total             121
_reflns_threshold_expression     >2sigma(I)
_cod_data_source_file            c4ce00241e2.cif
_cod_data_source_block           2bm_183GPa
_cod_database_code               7216476
loop_
_symmetry_equiv_pos_as_xyz
'x, y, z'
'-x, -y, z+1/2'
'x, -y, z+1/2'
'-x, y, z'
'x+1/2, y+1/2, z'
'-x+1/2, -y+1/2, z+1/2'
'x+1/2, -y+1/2, z+1/2'
'-x+1/2, y+1/2, z'
loop_
_atom_site_label
_atom_site_type_symbol
_atom_site_fract_x
_atom_site_fract_y
_atom_site_fract_z
_atom_site_U_iso_or_equiv
_atom_site_adp_type
_atom_site_occupancy
_atom_site_symmetry_multiplicity
_atom_site_calc_flag
_atom_site_refinement_flags
Br1 Br 0.0000 0.1205(2) 0.2446(13) 0.0568(5) Uani 1 2 d S
C1 C 0.0000 0.377(3) 0.4277(13) 0.059(5) Uani 1 2 d S
H1 H 0.0000 0.5473 0.3736 0.088 Uiso 1 2 calc SR
H2 H 0.1229 0.3576 0.5012 0.088 Uiso 0.50 1 calc PR
H3 H -0.1229 0.3576 0.5012 0.088 Uiso 0.50 1 calc PR
loop_
_atom_site_aniso_label
_atom_site_aniso_U_11
_atom_site_aniso_U_22
_atom_site_aniso_U_33
_atom_site_aniso_U_23
_atom_site_aniso_U_13
_atom_site_aniso_U_12
Br1 0.0590(14) 0.0558(9) 0.0556(7) -0.0043(14) 0.000 0.000
C1 0.025(17) 0.091(13) 0.059(9) -0.022(8) 0.000 0.000
loop_
_atom_type_symbol
_atom_type_description
_atom_type_scat_dispersion_real
_atom_type_scat_dispersion_imag
_atom_type_scat_source
C C 0.0033 0.0016 'International Tables Vol C Tables 4.2.6.8 and 6.1.1.4'
H H 0.0000 0.0000 'International Tables Vol C Tables 4.2.6.8 and 6.1.1.4'
Br Br -0.2901 2.4595 'International Tables Vol C Tables 4.2.6.8 and 6.1.1.4'
loop_
_geom_angle_atom_site_label_1
_geom_angle_atom_site_label_2
_geom_angle_atom_site_label_3
_geom_angle
Br1 C1 H1 109.5
Br1 C1 H2 109.5
H1 C1 H2 109.5
Br1 C1 H3 109.5
H1 C1 H3 109.5
H2 C1 H3 109.5
loop_
_geom_bond_atom_site_label_1
_geom_bond_atom_site_label_2
_geom_bond_distance
Br1 C1 1.892(14)
C1 H1 0.9600
C1 H2 0.9600
C1 H3 0.9600
loop_
_refln_index_h
_refln_index_k
_refln_index_l
_refln_F_squared_calc
_refln_F_squared_meas
_refln_F_squared_sigma
_refln_observed_status
1 1 -7 290.69 228.83 30.78 o
3 1 -7 158.47 141.29 7.31 o
0 2 -7 550.92 397.77 140.75 o
4 2 -7 179.11 139.64 12.08 o
1 3 -7 171.18 159.39 18.72 o
2 0 -6 1364.83 1385.49 30.47 o
1 1 -6 611.78 668.85 32.36 o
3 1 -6 322.71 325.24 27.77 o
0 2 -6 7.28 7.08 5.18 o
4 2 -6 2.29 14.67 13.43 o
1 3 -6 224.34 227.44 23.40 o
5 3 -6 38.66 22.93 14.93 o
2 4 -6 230.85 244.35 19.62 o
1 1 -5 1370.12 1379.99 62.92 o
3 1 -5 756.36 804.64 30.75 o
0 2 -5 1591.18 1580.17 25.31 o
4 2 -5 449.83 520.40 43.27 o
1 3 -5 646.38 711.22 30.53 o
5 3 -5 119.37 138.78 16.84 o
2 4 -5 10.20 9.88 9.99 o
2 0 -4 3618.09 3725.27 78.64 o
1 1 -4 2271.23 2298.96 116.97 o
3 1 -4 1215.86 1244.30 21.04 o
0 2 -4 5.51 9.54 3.76 o
2 2 -4 4.83 2.00 1.76 o
4 2 -4 2.05 9.65 7.95 o
1 3 -4 611.42 577.96 57.04 o
5 3 -4 104.20 97.22 26.99 o
2 4 -4 587.62 661.02 90.25 o
3 5 -4 105.49 142.21 39.29 o
1 1 -3 2559.23 2465.15 18.08 o
3 1 -3 1229.29 1235.20 62.02 o
0 2 -3 5519.38 5624.40 65.24 o
2 2 -3 3951.76 4003.20 77.10 o
4 2 -3 1568.42 1517.72 208.98 o
1 3 -3 1197.02 1133.50 50.77 o
3 3 -3 627.84 620.19 10.85 o
5 3 -3 180.55 163.20 17.73 o
2 4 -3 13.75 18.59 6.35 o
4 4 -3 5.93 3.76 6.81 o
3 5 -3 73.66 94.14 13.22 o
0 0 -2 9276.48 9778.35 22.16 o
2 0 -2 6592.08 6784.54 16.75 o
1 1 -2 6327.84 6233.89 67.51 o
3 1 -2 2669.44 2544.36 19.16 o
0 2 -2 39.52 55.79 14.92 o
2 2 -2 22.18 23.98 2.46 o
4 2 -2 7.33 2.11 3.77 o
1 3 -2 1545.61 1448.47 17.03 o
3 3 -2 784.39 825.90 30.33 o
2 4 -2 982.15 1004.50 21.92 o
4 4 -2 397.69 301.07 98.75 o
1 1 -1 6347.10 6452.46 16.74 o
2 2 -1 5248.87 5265.06 33.98 o
1 3 -1 2297.46 2387.83 7.93 o
3 3 -1 1211.50 1225.35 15.18 o
4 4 -1 6.11 9.42 4.81 o
5 5 -1 39.17 12.96 14.99 o
1 1 0 4441.58 4280.52 18.24 o
2 2 0 30.46 13.89 3.18 o
3 3 0 741.88 796.40 20.57 o
4 4 0 629.88 633.18 20.62 o
5 5 0 61.30 32.19 14.53 o
1 1 1 6658.21 6476.84 34.40 o
2 2 1 5045.41 5221.17 41.64 o
1 3 1 2362.99 2407.88 5.94 o
3 3 1 1244.98 1236.80 15.03 o
4 4 1 6.08 7.82 5.02 o
5 5 1 41.12 13.00 16.78 o
0 0 2 9808.34 9598.18 62.63 o
1 1 2 6109.19 6170.98 37.47 o
3 1 2 2566.73 2533.05 62.16 o
0 2 2 42.17 35.11 5.31 o
2 2 2 23.98 32.30 4.37 o
4 2 2 7.94 9.01 6.12 o
1 3 2 1522.48 1439.69 19.09 o
3 3 2 767.72 747.18 14.10 o
2 4 2 1007.26 995.04 10.30 o
4 4 2 412.06 414.91 34.29 o
1 1 3 2471.96 2431.27 21.21 o
3 1 3 1208.55 1027.00 226.81 o
0 2 3 5631.57 5565.96 78.53 o
2 2 3 4000.78 3896.38 112.91 o
4 2 3 1584.37 1662.84 34.35 o
1 3 3 1185.55 1218.85 24.36 o
3 3 3 625.18 581.72 18.45 o
5 3 3 179.32 172.68 34.72 o
2 4 3 12.95 6.70 6.14 o
4 4 3 5.48 1.70 16.62 o
3 5 3 71.63 87.72 9.62 o
2 0 4 3452.45 3593.63 65.77 o
1 1 4 2360.30 2344.72 125.99 o
3 1 4 1270.16 1221.82 24.98 o
0 2 4 6.67 9.52 4.26 o
2 2 4 5.57 4.02 5.00 o
4 2 4 2.36 1.99 7.10 o
1 3 4 635.75 516.14 98.58 o
5 3 4 112.12 65.04 44.54 o
2 4 4 566.67 601.35 118.85 o
3 5 4 108.88 44.96 25.02 o
1 1 5 1359.07 1271.78 34.12 o
3 1 5 742.60 776.62 20.48 o
0 2 5 1614.56 1557.84 24.36 o
4 2 5 467.24 582.17 49.14 o
1 3 5 631.22 727.94 31.97 o
5 3 5 113.82 144.05 23.99 o
2 4 5 10.63 8.58 11.23 o
3 5 5 43.14 23.94 26.72 o
2 0 6 1394.09 1384.37 26.31 o
1 1 6 601.04 650.80 19.73 o
3 1 6 314.45 328.31 24.17 o
0 2 6 6.24 9.46 5.47 o
4 2 6 1.87 15.42 12.77 o
1 3 6 214.44 165.84 36.38 o
5 3 6 35.32 9.44 17.26 o
2 4 6 236.60 262.82 31.94 o
1 1 7 303.74 320.56 20.74 o
3 1 7 168.32 130.40 16.40 o
0 2 7 529.38 631.89 95.07 o
4 2 7 167.83 141.67 35.67 o
1 3 7 178.87 157.17 37.96 o
