#------------------------------------------------------------------------------
#$Date: 2016-03-26 22:12:16 +0200 (Sat, 26 Mar 2016) $
#$Revision: 180494 $
#$URL: svn://www.crystallography.net/cod/cif/7/21/63/7216334.cif $
#------------------------------------------------------------------------------
#
# This file is available in the Crystallography Open Database (COD),
# http://www.crystallography.net/
#
# All data on this site have been placed in the public domain by the
# contributors.
#
data_7216334
loop_
_publ_author_name
'Hu, Chunhua'
'Li, Qi'
'Englert, Ulli'
_publ_section_title
;
 Structural trends in one and two dimensional coordination polymers of
 cadmium(ii) with halide bridges and pyridine-type ligands
;
_journal_issue                   94
_journal_name_full               CrystEngComm
_journal_page_first              519
_journal_paper_doi               10.1039/b314522k
_journal_volume                  5
_journal_year                    2003
_chemical_formula_sum            'C10 H8 Cd I2 N2'
_chemical_formula_weight         522.38
_chemical_name_common
;net-(bis(mu-iodo)-(mu-4,4'-bipyridyl)-cadmium(ii)) (Compound
15, 120K data)
;
_chemical_name_systematic
;
net-[bis(\m-iodo)-(\m-4,4'-bipyridyl)-cadmium(ii)]
(Compound 15, 120K data)
;
_space_group_IT_number           65
_symmetry_cell_setting           orthorhombic
_symmetry_space_group_name_Hall  '-C 2 2'
_symmetry_space_group_name_H-M   'C m m m'
_atom_sites_solution_hydrogens   geom
_atom_sites_solution_primary     direct
_atom_sites_solution_secondary   difmap
_audit_creation_date             30-OCT-03
_audit_creation_method           SHELXTL
_audit_update_record             ' ?'
_cell_angle_alpha                90.00
_cell_angle_beta                 90.00
_cell_angle_gamma                90.00
_cell_formula_units_Z            2
_cell_length_a                   11.8081(12)
_cell_length_b                   13.0971(13)
_cell_length_c                   4.1423(4)
_cell_measurement_reflns_used    3294
_cell_measurement_temperature    120(2)
_cell_measurement_theta_max      26.09
_cell_measurement_theta_min      2.32
_cell_volume                     640.61(11)
_computing_cell_refinement       'SMART (Bruker, 2001)'
_computing_data_collection       'SMART (Bruker, 2001)'
_computing_data_reduction        'SAINT+ (Bruker, 1999)'
_computing_molecular_graphics    'PLATON (Spek, 2003)'
_computing_publication_material  'SHELXTL (Sheldrick, 1998)'
_computing_structure_refinement  'SHELXTL (Sheldrick, 1998)'
_computing_structure_solution    'SHELXTL (Sheldrick, 1998)'
_diffrn_ambient_temperature      120(2)
_diffrn_measured_fraction_theta_full 0.997
_diffrn_measured_fraction_theta_max 0.997
_diffrn_measurement_device_type  'Bruker SMART APEX CCD diffractometer'
_diffrn_measurement_method       'omega scans'
_diffrn_radiation_monochromator  graphite
_diffrn_radiation_source         'fine-focus sealed tube'
_diffrn_radiation_type           MoK\a
_diffrn_radiation_wavelength     0.71073
_diffrn_reflns_av_R_equivalents  0.0387
_diffrn_reflns_av_sigmaI/netI    0.0276
_diffrn_reflns_limit_h_max       14
_diffrn_reflns_limit_h_min       -14
_diffrn_reflns_limit_k_max       15
_diffrn_reflns_limit_k_min       -16
_diffrn_reflns_limit_l_max       5
_diffrn_reflns_limit_l_min       -5
_diffrn_reflns_number            3294
_diffrn_reflns_theta_full        26.09
_diffrn_reflns_theta_max         26.09
_diffrn_reflns_theta_min         2.32
_diffrn_standards_decay_%        0
_exptl_absorpt_coefficient_mu    6.494
_exptl_absorpt_correction_T_max  1.000000
_exptl_absorpt_correction_T_min  0.717139
_exptl_absorpt_correction_type   empirical
_exptl_absorpt_process_details   'SADABS (1996)'
_exptl_crystal_colour            colourless
_exptl_crystal_density_diffrn    2.708
_exptl_crystal_density_method    'not measured'
_exptl_crystal_description       needle
_exptl_crystal_F_000             472
_exptl_crystal_size_max          0.38
_exptl_crystal_size_mid          0.04
_exptl_crystal_size_min          0.02
_refine_diff_density_max         0.872
_refine_diff_density_min         -0.565
_refine_diff_density_rms         0.136
_refine_ls_extinction_method     none
_refine_ls_goodness_of_fit_ref   1.075
_refine_ls_hydrogen_treatment    constr
_refine_ls_matrix_type           full
_refine_ls_number_parameters     28
_refine_ls_number_reflns         395
_refine_ls_number_restraints     0
_refine_ls_restrained_S_all      1.075
_refine_ls_R_factor_all          0.0246
_refine_ls_R_factor_gt           0.0201
_refine_ls_shift/su_max          0.000
_refine_ls_shift/su_mean         0.000
_refine_ls_structure_factor_coef Fsqd
_refine_ls_weighting_details
'calc w=1/[\s^2^(Fo^2^)+(0.0213P)^2^+0.6583P] where P=(Fo^2^+2Fc^2^)/3'
_refine_ls_weighting_scheme      calc
_refine_ls_wR_factor_gt          0.0445
_refine_ls_wR_factor_ref         0.0462
_reflns_number_gt                356
_reflns_number_total             395
_reflns_threshold_expression     >2sigma(I)
_cod_data_source_file            b314522k.txt
_cod_data_source_block           hc220
_cod_depositor_comments
;
The following automatic conversions were performed:

'_symmetry_cell_setting' value 'Orthorhombic' changed to
'orthorhombic' according to
/usr/data/users/saulius/automatic-downloads/retrospective/RSC/lib/dictionaries/cif_core.dic
dictionary named 'cif_core.dic' version 2.4.2 from 2011-04-26.

Automatic conversion script
Id: cif_fix_values 2281 2013-09-26 08:29:07Z andrius 
;
_cod_original_sg_symbol_H-M      Cmmm
_cod_database_code               7216334
loop_
_symmetry_equiv_pos_as_xyz
'x, y, z'
'-x, -y, z'
'-x, y, -z'
'x, -y, -z'
'x+1/2, y+1/2, z'
'-x+1/2, -y+1/2, z'
'-x+1/2, y+1/2, -z'
'x+1/2, -y+1/2, -z'
'-x, -y, -z'
'x, y, -z'
'x, -y, z'
'-x, y, z'
'-x+1/2, -y+1/2, -z'
'x+1/2, y+1/2, -z'
'x+1/2, -y+1/2, z'
'-x+1/2, y+1/2, z'
loop_
_atom_site_label
_atom_site_type_symbol
_atom_site_fract_x
_atom_site_fract_y
_atom_site_fract_z
_atom_site_U_iso_or_equiv
_atom_site_adp_type
_atom_site_occupancy
_atom_site_symmetry_multiplicity
_atom_site_calc_flag
_atom_site_refinement_flags
Cd Cd 0.0000 0.0000 0.0000 0.01429(19) Uani 1 8 d S
I I 0.0000 0.16236(3) 0.5000 0.01771(16) Uani 1 4 d S
N N 0.1989(4) 0.0000 0.0000 0.0156(12) Uani 1 4 d S
C1 C 0.2591(4) 0.0857(4) 0.0000 0.0333(14) Uani 1 2 d S
H1 H 0.2175 0.1505 0.0000 0.043 Uiso 1 2 calc SR
C2 C 0.3742(4) 0.0899(4) 0.0000 0.0351(15) Uani 1 2 d S
H2 H 0.4130 0.1561 0.0000 0.046 Uiso 1 2 calc SR
C3 C 0.4364(5) 0.0000 0.0000 0.0164(14) Uani 1 4 d S
loop_
_atom_site_aniso_label
_atom_site_aniso_U_11
_atom_site_aniso_U_22
_atom_site_aniso_U_33
_atom_site_aniso_U_23
_atom_site_aniso_U_13
_atom_site_aniso_U_12
Cd 0.0090(3) 0.0150(4) 0.0189(4) 0.000 0.000 0.000
I 0.0217(3) 0.0134(3) 0.0180(2) 0.000 0.000 0.000
N 0.011(3) 0.015(3) 0.021(3) 0.000 0.000 0.000
C1 0.012(3) 0.019(3) 0.068(4) 0.000 0.000 0.004(2)
C2 0.014(3) 0.013(3) 0.078(5) 0.000 0.000 -0.006(2)
C3 0.011(3) 0.021(3) 0.017(3) 0.000 0.000 0.000
loop_
_atom_type_symbol
_atom_type_description
_atom_type_scat_dispersion_real
_atom_type_scat_dispersion_imag
_atom_type_scat_source
C C 0.0033 0.0016 'International Tables Vol C Tables 4.2.6.8 and 6.1.1.4'
H H 0.0000 0.0000 'International Tables Vol C Tables 4.2.6.8 and 6.1.1.4'
N N 0.0061 0.0033 'International Tables Vol C Tables 4.2.6.8 and 6.1.1.4'
I I -0.4742 1.8119 'International Tables Vol C Tables 4.2.6.8 and 6.1.1.4'
Cd Cd -0.8075 1.2024 'International Tables Vol C Tables 4.2.6.8 and 6.1.1.4'
loop_
_geom_angle_atom_site_label_1
_geom_angle_atom_site_label_2
_geom_angle_atom_site_label_3
_geom_angle
_geom_angle_site_symmetry_1
_geom_angle_site_symmetry_3
N Cd N 180.0 9 .
N Cd I 90.0 9 9
N Cd I 90.0 . 9
N Cd I 90.0 9 .
N Cd I 90.0 . .
I Cd I 180.000(10) 9 .
N Cd I 90.0 9 9_556
N Cd I 90.0 . 9_556
I Cd I 88.489(13) 9 9_556
I Cd I 91.511(13) . 9_556
N Cd I 90.0 9 1_554
N Cd I 90.0 . 1_554
I Cd I 91.511(13) 9 1_554
I Cd I 88.489(13) . 1_554
I Cd I 180.000(10) 9_556 1_554
Cd I Cd 88.489(13) . 1_556
C1 N C1 115.4(6) . 11
C1 N Cd 122.3(3) . .
C1 N Cd 122.3(3) 11 .
N C1 C2 124.7(5) . .
N C1 H1 117.7 . .
C2 C1 H1 117.7 . .
C1 C2 C3 119.6(5) . .
C1 C2 H2 120.2 . .
C3 C2 H2 120.2 . .
C2 C3 C2 116.1(6) 11 .
C2 C3 C3 121.9(3) 11 9_655
C2 C3 C3 121.9(3) . 9_655
loop_
_geom_bond_atom_site_label_1
_geom_bond_atom_site_label_2
_geom_bond_distance
_geom_bond_site_symmetry_2
Cd N 2.349(5) 9
Cd N 2.349(5) .
Cd I 2.9685(3) 9
Cd I 2.9685(3) .
Cd I 2.9685(3) 9_556
Cd I 2.9685(3) 1_554
I Cd 2.9685(3) 1_556
N C1 1.328(5) .
N C1 1.328(5) 11
C1 C2 1.361(7) .
C1 H1 0.9800 .
C2 C3 1.388(6) .
C2 H2 0.9800 .
C3 C2 1.388(6) 11
C3 C3 1.502(12) 9_655
