#------------------------------------------------------------------------------
#$Date: 2016-03-26 22:28:31 +0200 (Sat, 26 Mar 2016) $
#$Revision: 180507 $
#$URL: svn://www.crystallography.net/cod/cif/7/21/76/7217636.cif $
#------------------------------------------------------------------------------
#
# This file is available in the Crystallography Open Database (COD),
# http://www.crystallography.net/
#
# All data on this site have been placed in the public domain by the
# contributors.
#
data_7217636
loop_
_publ_author_name
'Vidyacharan, Shinde'
'Sagar, A.'
'Chaitra, N. C.'
'Sharada, Duddu S.'
_publ_section_title
;
 A facile synthesis of 2H-indazoles under neat conditions and further
 transformation into aza-\g-carboline alkaloid analogues in a tandem
 one-pot fashion
;
_journal_issue                   65
_journal_name_full               'RSC Advances'
_journal_page_first              34232
_journal_paper_doi               10.1039/C4RA06838F
_journal_volume                  4
_journal_year                    2014
_chemical_formula_moiety         'C15 H14 N2 O'
_chemical_formula_sum            'C15 H14 N2 O'
_chemical_formula_weight         238.28
_chemical_melting_point          117.0(10)
_chemical_name_systematic
;
 2-(4-methoxybenzyl)-2H-indazole
;
_space_group_crystal_system      monoclinic
_space_group_IT_number           4
_space_group_name_Hall           'P 2yb'
_space_group_name_H-M_alt        'P 1 21 1'
_symmetry_space_group_name_Hall  'P 2yb'
_symmetry_space_group_name_H-M   'P 1 21 1'
_atom_sites_solution_hydrogens   geom
_audit_creation_method           SHELXL-2013
_cell_angle_alpha                90
_cell_angle_beta                 110.273(18)
_cell_angle_gamma                90
_cell_formula_units_Z            2
_cell_length_a                   9.4150(16)
_cell_length_b                   5.6395(9)
_cell_length_c                   12.3566(18)
_cell_measurement_temperature    293(2)
_cell_volume                     615.44(18)
_computing_structure_refinement  'SHELXL-2013 (Sheldrick, 2013)'
_diffrn_ambient_temperature      293(2)
_diffrn_measured_fraction_theta_full 0.995
_diffrn_measured_fraction_theta_max 0.974
_diffrn_radiation_type           CuK\a
_diffrn_radiation_wavelength     1.54184
_diffrn_reflns_av_R_equivalents  0.0200
_diffrn_reflns_av_unetI/netI     0.0361
_diffrn_reflns_Laue_measured_fraction_full 0.995
_diffrn_reflns_Laue_measured_fraction_max 0.974
_diffrn_reflns_limit_h_max       10
_diffrn_reflns_limit_h_min       -11
_diffrn_reflns_limit_k_max       3
_diffrn_reflns_limit_k_min       -6
_diffrn_reflns_limit_l_max       15
_diffrn_reflns_limit_l_min       -14
_diffrn_reflns_number            2239
_diffrn_reflns_point_group_measured_fraction_full 0.722
_diffrn_reflns_point_group_measured_fraction_max 0.701
_diffrn_reflns_theta_full        67.684
_diffrn_reflns_theta_max         70.672
_diffrn_reflns_theta_min         3.814
_exptl_absorpt_coefficient_mu    0.652
_exptl_absorpt_correction_T_max  1.00000
_exptl_absorpt_correction_T_min  0.82368
_exptl_absorpt_correction_type   multi-scan
_exptl_absorpt_process_details
;
CrysAlisPro, Agilent Technologies,
Version 1.171.35.19 (release 27-10-2011 CrysAlis171 .NET)
(compiled Oct 27 2011,15:02:11)
Empirical absorption correction using spherical harmonics,
 implemented in SCALE3 ABSPACK scaling algorithm. 
_exptl_special_details
;
_exptl_crystal_density_diffrn    1.286
_exptl_crystal_F_000             252
_exptl_crystal_size_max          0.18
_exptl_crystal_size_mid          0.16
_exptl_crystal_size_min          0.12
_refine_diff_density_max         0.146
_refine_diff_density_min         -0.128
_refine_diff_density_rms         0.036
_refine_ls_abs_structure_details
;
 Flack x determined using 335 quotients [(I+)-(I-)]/[(I+)+(I-)]
 (Parsons and Flack (2004), Acta Cryst. A60, s61).
;
_refine_ls_abs_structure_Flack   -0.1(3)
_refine_ls_extinction_coef       0.015(3)
_refine_ls_extinction_expression Fc^*^=kFc[1+0.001xFc^2^\l^3^/sin(2\q)]^-1/4^
_refine_ls_extinction_method     SHELXL
_refine_ls_goodness_of_fit_ref   1.091
_refine_ls_hydrogen_treatment    constr
_refine_ls_matrix_type           full
_refine_ls_number_parameters     165
_refine_ls_number_reflns         1654
_refine_ls_number_restraints     1
_refine_ls_restrained_S_all      1.091
_refine_ls_R_factor_all          0.0463
_refine_ls_R_factor_gt           0.0386
_refine_ls_shift/su_max          0.000
_refine_ls_shift/su_mean         0.000
_refine_ls_structure_factor_coef Fsqd
_refine_ls_weighting_details
'w=1/[\s^2^(Fo^2^)+(0.0545P)^2^] where P=(Fo^2^+2Fc^2^)/3'
_refine_ls_weighting_scheme      calc
_refine_ls_wR_factor_gt          0.0975
_refine_ls_wR_factor_ref         0.1079
_reflns_Friedel_coverage         0.298
_reflns_Friedel_fraction_full    0.380
_reflns_Friedel_fraction_max     0.362
_reflns_number_gt                1425
_reflns_number_total             1654
_reflns_threshold_expression     'I > 2\s(I)'
_cod_data_source_file            c4ra06838f2.cif
_cod_data_source_block           shelx
_cod_depositor_comments
;
The following automatic conversions were performed:

'_chemical_melting_point' value '116-118' was changed to '117.0(10)'
- the average value was taken and precision was estimated.

Automatic conversion script
Id: cif_fix_values 2281 2013-09-26 08:29:07Z andrius 
;
_cod_database_code               7217636
#BEGIN Tags that were not found in dictionaries:
_shelx_space_group_comment
;
The symmetry employed for this shelxl refinement is uniquely defined
by the following loop, which should always be used as a source of
symmetry information in preference to the above space-group names.
They are only intended as comments.
;
_shelxl_version_number           2013-4
_shelx_res_file
;
TITL exp_2540 in P21 #4
CELL  1.54184   9.4150   5.6395  12.3566   90.000  110.273   90.000
ZERR     1.00   0.0016   0.0009   0.0018    0.000    0.018    0.000
LATT  -1
SYMM  - X, 1/2 + Y, - Z
SFAC  C    H    N    O
UNIT  30   28   4    2
MERG   2
FMAP   2
PLAN   15
ACTA
BOND
L.S.  10
WGHT    0.054500
EXTI    0.015133
FVAR      16.71548
N1    3    0.738244    0.108953    0.538846    11.00000    0.06162    0.05982 =
         0.05186   -0.00043    0.01921   -0.00368
O1    4    0.761140    0.734082    0.980128    11.00000    0.07693    0.08170 =
         0.05966   -0.00402    0.01510   -0.00165
C2    1    0.843045    0.086487    0.406275    11.00000    0.05533    0.05674 =
         0.04895   -0.00547    0.01340   -0.00217
C7    1    0.758297    0.298071    0.396670    11.00000    0.05139    0.05289 =
         0.05158    0.00014    0.01486   -0.00191
C14   1    0.585068    0.393296    0.713008    11.00000    0.05623    0.08566 =
         0.05083    0.00590    0.01024   -0.00425
AFIX  43
H14   2    0.495807    0.388218    0.649581    11.00000   -1.20000
AFIX   0
N2    3    0.693522    0.311537    0.477974    11.00000    0.06106    0.05781 =
         0.05998    0.00156    0.02235    0.00332
C9    1    0.696965    0.232909    0.719390    11.00000    0.06210    0.06697 =
         0.05032    0.00561    0.02324   -0.00650
C1    1    0.825758   -0.028621    0.500511    11.00000    0.06292    0.05433 =
         0.05662   -0.00216    0.01244    0.00362
AFIX  43
H1    2    0.867372   -0.173973    0.530969    11.00000   -1.20000
AFIX   0
C13   1    0.599675    0.562485    0.797221    11.00000    0.05889    0.07878 =
         0.05525    0.00984    0.01438    0.00406
AFIX  43
H13   2    0.521337    0.668405    0.790418    11.00000   -1.20000
AFIX   0
C6    1    0.747123    0.460900    0.306913    11.00000    0.06741    0.05533 =
         0.06333    0.00349    0.02095   -0.00040
AFIX  43
H6    2    0.691815    0.600360    0.299437    11.00000   -1.20000
AFIX   0
C4    1    0.904726    0.198379    0.241613    11.00000    0.07708    0.07627 =
         0.05881   -0.01089    0.03129   -0.01048
AFIX  43
H4    2    0.952599    0.168583    0.188609    11.00000   -1.20000
AFIX   0
C3    1    0.917812    0.038617    0.328041    11.00000    0.06672    0.06178 =
         0.06683   -0.00998    0.02262    0.00068
AFIX  43
H3    2    0.974983   -0.098660    0.334800    11.00000   -1.20000
AFIX   0
C10   1    0.830538    0.245700    0.815822    11.00000    0.05886    0.08124 =
         0.05988    0.00630    0.02120    0.00574
AFIX  43
H10   2    0.908533    0.138936    0.822895    11.00000   -1.20000
AFIX   0
C11   1    0.847812    0.413856    0.900055    11.00000    0.05392    0.08610 =
         0.05544    0.00422    0.01207    0.00114
AFIX  43
H11   2    0.937735    0.420739    0.962832    11.00000   -1.20000
AFIX   0
C12   1    0.733229    0.572303    0.892402    11.00000    0.06338    0.06675 =
         0.04852    0.00530    0.01969   -0.00502
C5    1    0.819085    0.408168    0.232277    11.00000    0.07794    0.07197 =
         0.05576    0.00101    0.02256   -0.01252
AFIX  43
H5    2    0.811957    0.513621    0.172756    11.00000   -1.20000
AFIX   0
C8    1    0.675970    0.044580    0.628764    11.00000    0.07782    0.07863 =
         0.06243    0.00070    0.03066   -0.01526
AFIX  23
H8A   2    0.724274   -0.100284    0.665994    11.00000   -1.20000
H8B   2    0.568639    0.012418    0.592561    11.00000   -1.20000
AFIX   0
C15   1    0.642239    0.890707    0.979648    11.00000    0.09078    0.08683 =
         0.08421   -0.01331    0.03553    0.00100
AFIX 137
H15A  2    0.614655    0.988221    0.911814    11.00000   -1.50000
H15B  2    0.675921    0.989473    1.047060    11.00000   -1.50000
H15C  2    0.556005    0.799991    0.979747    11.00000   -1.50000
AFIX   0
HKLF    4

REM  exp_2540 in P21 #4
REM R1 =  0.0386 for    1425 Fo > 4sig(Fo)  and  0.0463 for all    1654 data
REM    165 parameters refined using      1 restraints

END

WGHT      0.0541      0.0000

REM Highest difference peak  0.146,  deepest hole -0.128,  1-sigma level  0.036
Q1    1   0.5812  0.6633  0.1934  11.00000  0.05    0.13
Q2    1   0.7126  0.0930  0.5827  11.00000  0.05    0.13
Q3    1   0.6973  0.2964  0.5851  11.00000  0.05    0.13
Q4    1   1.0578  0.2039  0.1838  11.00000  0.05    0.12
Q5    1   0.7058  0.2046  0.5009  11.00000  0.05    0.11
Q6    1   0.7190  0.3021  0.4276  11.00000  0.05    0.11
Q7    1   0.6761  0.0790  0.6949  11.00000  0.05    0.11
Q8    1   0.5036  0.2291  0.7633  11.00000  0.05    0.11
Q9    1   0.6486  0.3382  0.5378  11.00000  0.05    0.11
Q10   1   0.7385 -0.0004  0.5160  11.00000  0.05    0.10
Q11   1   0.6388  0.6757  1.0610  11.00000  0.05    0.10
Q12   1   0.9759  0.0838  0.1770  11.00000  0.05    0.10
Q13   1   0.9223  0.1627  0.3148  11.00000  0.05    0.10
Q14   1   0.8020  0.0599  0.4588  11.00000  0.05    0.10
Q15   1   1.0728 -0.0111  0.1848  11.00000  0.05    0.10
;
_shelx_res_checksum              66336
#END Tags that were not found in dictionaries
loop_
_space_group_symop_operation_xyz
'x, y, z'
'-x, y+1/2, -z'
loop_
_atom_site_label
_atom_site_type_symbol
_atom_site_fract_x
_atom_site_fract_y
_atom_site_fract_z
_atom_site_U_iso_or_equiv
_atom_site_adp_type
_atom_site_occupancy
_atom_site_site_symmetry_order
_atom_site_calc_flag
_atom_site_refinement_flags_posn
_atom_site_refinement_flags_adp
N1 N 0.7382(3) 0.1090(5) 0.53885(19) 0.0579(7) Uani 1 1 d . .
O1 O 0.7611(2) 0.7341(5) 0.98013(18) 0.0750(7) Uani 1 1 d . .
C2 C 0.8430(3) 0.0865(6) 0.4063(2) 0.0549(7) Uani 1 1 d . .
C7 C 0.7583(3) 0.2981(6) 0.3967(2) 0.0527(7) Uani 1 1 d . .
C14 C 0.5851(3) 0.3933(7) 0.7130(2) 0.0664(9) Uani 1 1 d . .
H14 H 0.4958 0.3882 0.6496 0.080 Uiso 1 1 calc R U
N2 N 0.6935(3) 0.3115(5) 0.4780(2) 0.0593(6) Uani 1 1 d . .
C9 C 0.6970(3) 0.2329(6) 0.7194(2) 0.0588(8) Uani 1 1 d . .
C1 C 0.8258(3) -0.0286(6) 0.5005(2) 0.0601(7) Uani 1 1 d . .
H1 H 0.8674 -0.1740 0.5310 0.072 Uiso 1 1 calc R U
C13 C 0.5997(3) 0.5625(7) 0.7972(2) 0.0657(9) Uani 1 1 d . .
H13 H 0.5213 0.6684 0.7904 0.079 Uiso 1 1 calc R U
C6 C 0.7471(3) 0.4609(6) 0.3069(2) 0.0625(8) Uani 1 1 d . .
H6 H 0.6918 0.6004 0.2994 0.075 Uiso 1 1 calc R U
C4 C 0.9047(4) 0.1984(7) 0.2416(3) 0.0687(9) Uani 1 1 d . .
H4 H 0.9526 0.1686 0.1886 0.082 Uiso 1 1 calc R U
C3 C 0.9178(3) 0.0386(6) 0.3280(3) 0.0652(9) Uani 1 1 d . .
H3 H 0.9750 -0.0987 0.3348 0.078 Uiso 1 1 calc R U
C10 C 0.8305(3) 0.2457(7) 0.8158(3) 0.0665(9) Uani 1 1 d . .
H10 H 0.9085 0.1389 0.8229 0.080 Uiso 1 1 calc R U
C11 C 0.8478(3) 0.4139(7) 0.9001(2) 0.0670(9) Uani 1 1 d . .
H11 H 0.9377 0.4207 0.9628 0.080 Uiso 1 1 calc R U
C12 C 0.7332(3) 0.5723(7) 0.8924(2) 0.0595(8) Uani 1 1 d . .
C5 C 0.8191(4) 0.4082(7) 0.2323(3) 0.0687(9) Uani 1 1 d . .
H5 H 0.8120 0.5136 0.1728 0.082 Uiso 1 1 calc R U
C8 C 0.6760(4) 0.0446(8) 0.6288(3) 0.0713(10) Uani 1 1 d . .
H8A H 0.7243 -0.1003 0.6660 0.086 Uiso 1 1 calc R U
H8B H 0.5686 0.0124 0.5926 0.086 Uiso 1 1 calc R U
C15 C 0.6422(4) 0.8907(8) 0.9796(3) 0.0859(11) Uani 1 1 d . .
H15A H 0.6147 0.9882 0.9118 0.129 Uiso 1 1 calc R U
H15B H 0.6759 0.9895 1.0471 0.129 Uiso 1 1 calc R U
H15C H 0.5560 0.8000 0.9797 0.129 Uiso 1 1 calc R U
loop_
_atom_site_aniso_label
_atom_site_aniso_U_11
_atom_site_aniso_U_22
_atom_site_aniso_U_33
_atom_site_aniso_U_23
_atom_site_aniso_U_13
_atom_site_aniso_U_12
N1 0.0616(13) 0.0598(17) 0.0519(12) -0.0004(13) 0.0192(10) -0.0037(14)
O1 0.0769(14) 0.082(2) 0.0597(12) -0.0040(12) 0.0151(10) -0.0017(15)
C2 0.0553(14) 0.0567(19) 0.0490(13) -0.0055(15) 0.0134(11) -0.0022(15)
C7 0.0514(13) 0.0529(16) 0.0516(14) 0.0001(15) 0.0149(11) -0.0019(14)
C14 0.0562(16) 0.086(3) 0.0508(15) 0.0059(17) 0.0102(13) -0.0043(18)
N2 0.0611(13) 0.0578(16) 0.0600(13) 0.0016(14) 0.0224(11) 0.0033(13)
C9 0.0621(16) 0.067(2) 0.0503(14) 0.0056(14) 0.0232(12) -0.0065(16)
C1 0.0629(15) 0.0543(18) 0.0566(15) -0.0022(16) 0.0124(13) 0.0036(16)
C13 0.0589(15) 0.079(2) 0.0552(14) 0.0098(17) 0.0144(13) 0.0041(17)
C6 0.0674(16) 0.0553(19) 0.0633(16) 0.0035(16) 0.0210(14) -0.0004(17)
C4 0.077(2) 0.076(2) 0.0588(17) -0.0109(18) 0.0313(15) -0.0105(19)
C3 0.0667(17) 0.062(2) 0.0668(17) -0.0100(17) 0.0226(14) 0.0007(17)
C10 0.0589(15) 0.081(3) 0.0599(16) 0.0063(17) 0.0212(13) 0.0057(17)
C11 0.0539(15) 0.086(3) 0.0554(15) 0.0042(17) 0.0121(13) 0.0011(18)
C12 0.0634(15) 0.067(2) 0.0485(13) 0.0053(15) 0.0197(12) -0.0050(16)
C5 0.0779(19) 0.072(2) 0.0558(16) 0.0010(17) 0.0226(15) -0.013(2)
C8 0.0778(19) 0.079(3) 0.0624(16) 0.0007(18) 0.0307(15) -0.0153(19)
C15 0.091(2) 0.087(3) 0.084(2) -0.013(2) 0.036(2) 0.001(2)
loop_
_atom_type_symbol
_atom_type_description
_atom_type_scat_dispersion_real
_atom_type_scat_dispersion_imag
_atom_type_scat_source
C C 0.0181 0.0091 'International Tables Vol C Tables 4.2.6.8 and 6.1.1.4'
H H 0.0000 0.0000 'International Tables Vol C Tables 4.2.6.8 and 6.1.1.4'
N N 0.0311 0.0180 'International Tables Vol C Tables 4.2.6.8 and 6.1.1.4'
O O 0.0492 0.0322 'International Tables Vol C Tables 4.2.6.8 and 6.1.1.4'
loop_
_geom_angle_atom_site_label_1
_geom_angle_atom_site_label_2
_geom_angle_atom_site_label_3
_geom_angle
C1 N1 N2 113.9(2)
C1 N1 C8 125.6(3)
N2 N1 C8 120.0(3)
C12 O1 C15 118.3(3)
C1 C2 C3 135.9(3)
C1 C2 C7 103.7(2)
C3 C2 C7 120.4(3)
N2 C7 C6 128.2(3)
N2 C7 C2 111.9(3)
C6 C7 C2 119.9(3)
C9 C14 C13 122.6(3)
C7 N2 N1 103.5(3)
C14 C9 C10 117.4(3)
C14 C9 C8 121.5(3)
C10 C9 C8 121.1(3)
N1 C1 C2 107.0(3)
C14 C13 C12 119.2(3)
C5 C6 C7 118.2(3)
C3 C4 C5 120.6(3)
C4 C3 C2 118.6(3)
C11 C10 C9 121.0(3)
C10 C11 C12 120.7(3)
O1 C12 C11 116.5(3)
O1 C12 C13 124.3(3)
C11 C12 C13 119.2(3)
C6 C5 C4 122.3(3)
N1 C8 C9 113.8(3)
loop_
_geom_bond_atom_site_label_1
_geom_bond_atom_site_label_2
_geom_bond_distance
N1 C1 1.333(4)
N1 N2 1.352(4)
N1 C8 1.470(4)
O1 C12 1.371(4)
O1 C15 1.424(4)
C2 C1 1.391(4)
C2 C3 1.405(4)
C2 C7 1.417(4)
C7 N2 1.346(3)
C7 C6 1.415(4)
C14 C9 1.370(5)
C14 C13 1.383(5)
C9 C10 1.403(4)
C9 C8 1.506(5)
C13 C12 1.394(4)
C6 C5 1.353(4)
C4 C3 1.370(5)
C4 C5 1.414(5)
C10 C11 1.375(5)
C11 C12 1.379(5)
