#------------------------------------------------------------------------------
#$Date: 2016-03-26 22:27:20 +0200 (Sat, 26 Mar 2016) $
#$Revision: 180506 $
#$URL: svn://www.crystallography.net/cod/cif/7/21/75/7217560.cif $
#------------------------------------------------------------------------------
#
# This file is available in the Crystallography Open Database (COD),
# http://www.crystallography.net/
#
# All data on this site have been placed in the public domain by the
# contributors.
#
data_7217560
loop_
_publ_author_name
'Vyas, Vijay S.'
'Gutzler, Rico'
'Nuss, J\"urgen'
'Kern, Klaus'
'Lotsch, Bettina V.'
_publ_section_title
;
 Optical gap in herringbone and \p-stacked crystals of
 [1]benzothieno[3,2-b]benzothiophene and its brominated derivative
;
_journal_issue                   32
_journal_name_full               CrystEngComm
_journal_page_first              7389
_journal_paper_doi               10.1039/C4CE00752B
_journal_volume                  16
_journal_year                    2014
_chemical_formula_moiety         'C14 H6 Br2 S2'
_chemical_formula_sum            'C14 H6 Br2 S2'
_chemical_formula_weight         398.13
_space_group_crystal_system      monoclinic
_space_group_IT_number           14
_space_group_name_Hall           '-P 2yn'
_space_group_name_H-M_alt        'P 1 21/n 1'
_symmetry_cell_setting           monoclinic
_symmetry_Int_Tables_number      14
_symmetry_space_group_name_Hall  '-P 2yn'
_symmetry_space_group_name_H-M   'P 1 21/n 1'
_atom_sites_solution_hydrogens   geom
_atom_sites_solution_primary     direct
_atom_sites_solution_secondary   difmap
_audit_creation_method           SHELXL-2013
_cell_angle_alpha                90
_cell_angle_beta                 99.080(9)
_cell_angle_gamma                90
_cell_formula_units_Z            2
_cell_length_a                   7.339(5)
_cell_length_b                   3.915(3)
_cell_length_c                   22.078(14)
_cell_measurement_reflns_used    2062
_cell_measurement_temperature    298(2)
_cell_measurement_theta_max      26.34
_cell_measurement_theta_min      2.82
_cell_volume                     626.4(8)
_computing_cell_refinement       'Bruker Suite (Bruker AXS)'
_computing_data_collection       'Bruker Suite (Bruker AXS)'
_computing_data_reduction        'Bruker Suite (Bruker AXS)'
_computing_structure_refinement  'SHELXL-2013 (Sheldrick, 2013)'
_computing_structure_solution    'SHELXL-2013 (Sheldrick, 2013)'
_diffrn_ambient_temperature      298(2)
_diffrn_measured_fraction_theta_full 0.968
_diffrn_measured_fraction_theta_max 0.956
_diffrn_measurement_device_type  'SMART APEX I, Bruker AXS'
_diffrn_measurement_method       \wscan
_diffrn_radiation_probe          x-ray
_diffrn_radiation_type           MoK\a
_diffrn_radiation_wavelength     0.71073
_diffrn_reflns_av_R_equivalents  0.0499
_diffrn_reflns_av_unetI/netI     0.0541
_diffrn_reflns_Laue_measured_fraction_full 0.968
_diffrn_reflns_Laue_measured_fraction_max 0.956
_diffrn_reflns_limit_h_max       9
_diffrn_reflns_limit_h_min       -7
_diffrn_reflns_limit_k_max       4
_diffrn_reflns_limit_k_min       -4
_diffrn_reflns_limit_l_max       21
_diffrn_reflns_limit_l_min       -26
_diffrn_reflns_number            2888
_diffrn_reflns_point_group_measured_fraction_full 0.968
_diffrn_reflns_point_group_measured_fraction_max 0.956
_diffrn_reflns_theta_full        25.242
_diffrn_reflns_theta_max         26.413
_diffrn_reflns_theta_min         1.868
_diffrn_source                   'fine-focus sealed tube'
_exptl_absorpt_coefficient_mu    6.778
_exptl_absorpt_correction_T_max  0.49
_exptl_absorpt_correction_T_min  0.27
_exptl_absorpt_correction_type   multi-scan
_exptl_absorpt_process_details
; 
semi empirical absorption correction with SADABS,
G.M. Sheldrick, SADABS, Version 2007/4, University of G\"ottingen. Germany. 
;
_exptl_crystal_colour            colorless
_exptl_crystal_density_diffrn    2.111
_exptl_crystal_description       needle
_exptl_crystal_F_000             384
_exptl_crystal_size_max          0.300
_exptl_crystal_size_mid          0.100
_exptl_crystal_size_min          0.020
_refine_diff_density_max         2.730
_refine_diff_density_min         -2.538
_refine_diff_density_rms         0.337
_refine_ls_extinction_method     none
_refine_ls_goodness_of_fit_ref   1.187
_refine_ls_hydrogen_treatment    constr
_refine_ls_matrix_type           full
_refine_ls_number_parameters     82
_refine_ls_number_reflns         1226
_refine_ls_number_restraints     0
_refine_ls_restrained_S_all      1.187
_refine_ls_R_factor_all          0.0966
_refine_ls_R_factor_gt           0.0920
_refine_ls_shift/su_max          0.000
_refine_ls_shift/su_mean         0.000
_refine_ls_structure_factor_coef Fsqd
_refine_ls_weighting_details
;
 w=1/[\s^2^(Fo^2^)+(0.0971P)^2^+21.3774P]
 where P=(Fo^2^+2Fc^2^)/3
;
_refine_ls_weighting_scheme      calc
_refine_ls_wR_factor_gt          0.2529
_refine_ls_wR_factor_ref         0.2555
_reflns_Friedel_coverage         0.000
_reflns_number_gt                1100
_reflns_number_total             1226
_reflns_threshold_expression     'I > 2\s(I)'
_cod_duplicate_entry             7215891
_cod_data_source_file            c4ce00752b2.cif
_cod_data_source_block           lot5_0m
_cod_original_cell_volume        626.4(7)
_cod_original_sg_symbol_H-M      'P 21/n'
_cod_database_code               7217560
#BEGIN Tags that were not found in dictionaries:
_shelx_space_group_comment
;
The symmetry employed for this shelxl refinement is uniquely defined
by the following loop, which should always be used as a source of
symmetry information in preference to the above space-group names.
They are only intended as comments.
;
_shelx_estimated_absorpt_t_min   0.236
_shelx_estimated_absorpt_t_max   0.876
_shelxl_version_number           2013-2
_shelx_res_file
;
TITL lot5_0m in P2(1)/n
CELL 0.71073   7.3390   3.9153  22.0779  90.000  99.080  90.000
ZERR    2.00   0.0046   0.0025   0.0140   0.000   0.009   0.000
LATT 1
SYMM 0.5-X, 0.5+Y, 0.5-Z
SFAC C  H  S  Br
UNIT 28  12  4  4
L.S. 4
ACTA
BOND
FMAP 2
PLAN 20
SIZE 0.3 0.1 0.02
TEMP 25.000
WGHT    0.097100   21.377390
FVAR       0.44006
BR    4   -0.076975   -0.184454    0.295598    11.00000    0.03677    0.01497 =
         0.04774   -0.00160   -0.00703   -0.00031
S     3    0.236709    0.400358    0.519701    11.00000    0.02960    0.01331 =
         0.03928    0.00005    0.00478   -0.00233
C1    1    0.240831    0.255314    0.444706    11.00000    0.03375    0.00332 =
         0.04261    0.00273    0.00659   -0.00199
C2    1    0.094246    0.107230    0.407234    11.00000    0.02978    0.01285 =
         0.04283    0.00137   -0.00094   -0.00127
AFIX  43
H2    2   -0.018909    0.072714    0.420201    11.00000   -1.20000
AFIX   0
C3    1    0.124197    0.013334    0.349709    11.00000    0.02772    0.01274 =
         0.04816    0.00252   -0.00629   -0.00007
C4    1    0.292760    0.054933    0.329705    11.00000    0.03665    0.01263 =
         0.03898    0.00358   -0.00216    0.00308
AFIX  43
H4    2    0.307934   -0.019120    0.290788    11.00000   -1.20000
AFIX   0
C5    1    0.438261    0.206640    0.367684    11.00000    0.03520    0.01432 =
         0.04649   -0.00006    0.00685   -0.00003
AFIX  43
H5    2    0.550972    0.239612    0.354324    11.00000   -1.20000
AFIX   0
C6    1    0.413626    0.308426    0.425752    11.00000    0.03547    0.00630 =
         0.04154    0.00387    0.00084   -0.00396
C7    1    0.536640    0.466609    0.474473    11.00000    0.03053    0.00953 =
         0.04251    0.00535    0.00336    0.00403
HKLF 4

REM  lot5_0m in P2(1)/n
REM R1 =  0.0920 for    1100 Fo > 4sig(Fo)  and  0.0966 for all    1226 data
REM     82 parameters refined using      0 restraints

END

WGHT      0.0956     21.4801

REM Highest difference peak  2.730,  deepest hole -2.538,  1-sigma level  0.337
Q1    1  -0.1040 -0.1891  0.3358  11.00000  0.05    2.73
Q2    1  -0.0703 -0.1827  0.2496  11.00000  0.05    1.77
Q3    1   0.6186  0.2493  0.3448  11.00000  0.05    1.71
Q4    1   0.0623 -0.1809  0.2832  11.00000  0.05    1.59
Q5    1   0.3389  0.1392  0.3695  11.00000  0.05    1.16
Q6    1   0.2176  0.3907  0.4764  11.00000  0.05    1.15
Q7    1   0.2374  0.4294  0.5626  11.00000  0.05    1.08
Q8    1   0.1706  0.2670  0.5414  11.00000  0.05    0.97
Q9    1  -0.0752 -0.0714  0.3889  11.00000  0.05    0.89
Q10   1   0.3775  0.2457  0.2470  11.00000  0.05    0.88
Q11   1  -0.1616 -0.1233  0.2702  11.00000  0.05    0.87
Q12   1  -0.0581 -0.0856  0.4342  11.00000  0.05    0.86
Q13   1   0.3374  0.3428  0.4365  11.00000  0.05    0.76
Q14   1   0.5967  0.5243  0.4600  11.00000  0.05    0.75
Q15   1   0.1036  0.0197  0.3336  11.00000  0.05    0.74
Q16   1  -0.2747 -0.0960  0.3338  11.00000  0.05    0.71
Q17   1   0.1094  0.0477  0.3779  11.00000  0.05    0.70
Q18   1   0.2176  0.0056  0.3495  11.00000  0.05    0.69
Q19   1   0.3382  0.3159  0.5326  11.00000  0.05    0.68
Q20   1   0.4541  0.5419  0.4741  11.00000  0.05    0.67
;
_shelx_res_checksum              15918
#END Tags that were not found in dictionaries
loop_
_space_group_symop_operation_xyz
'x, y, z'
'-x+1/2, y+1/2, -z+1/2'
'-x, -y, -z'
'x-1/2, -y-1/2, z-1/2'
loop_
_atom_site_label
_atom_site_type_symbol
_atom_site_fract_x
_atom_site_fract_y
_atom_site_fract_z
_atom_site_U_iso_or_equiv
_atom_site_adp_type
_atom_site_occupancy
_atom_site_site_symmetry_order
_atom_site_calc_flag
_atom_site_refinement_flags_posn
_atom_site_refinement_flags_adp
Br Br -0.07697(18) -0.1845(3) 0.29560(6) 0.0346(5) Uani 1 1 d . .
S S 0.2367(4) 0.4004(8) 0.51970(15) 0.0275(8) Uani 1 1 d . .
C1 C 0.2408(18) 0.255(3) 0.4447(6) 0.026(3) Uani 1 1 d . .
C2 C 0.0942(18) 0.107(3) 0.4072(6) 0.029(3) Uani 1 1 d . .
H2 H -0.0189 0.0727 0.4202 0.035 Uiso 1 1 calc R U
C3 C 0.1242(18) 0.013(3) 0.3497(7) 0.031(3) Uani 1 1 d . .
C4 C 0.2928(19) 0.055(3) 0.3297(6) 0.030(3) Uani 1 1 d . .
H4 H 0.3079 -0.0191 0.2908 0.036 Uiso 1 1 calc R U
C5 C 0.438(2) 0.207(3) 0.3677(7) 0.032(3) Uani 1 1 d . .
H5 H 0.5510 0.2396 0.3543 0.038 Uiso 1 1 calc R U
C6 C 0.4136(18) 0.308(3) 0.4258(6) 0.028(3) Uani 1 1 d . .
C7 C 0.5366(18) 0.467(3) 0.4745(6) 0.028(3) Uani 1 1 d . .
loop_
_atom_site_aniso_label
_atom_site_aniso_U_11
_atom_site_aniso_U_22
_atom_site_aniso_U_33
_atom_site_aniso_U_23
_atom_site_aniso_U_13
_atom_site_aniso_U_12
Br 0.0368(8) 0.0150(7) 0.0477(9) -0.0016(5) -0.0070(6) -0.0003(5)
S 0.0296(16) 0.0133(14) 0.0393(18) 0.0001(12) 0.0048(13) -0.0023(12)
C1 0.034(7) 0.003(5) 0.043(7) 0.003(5) 0.007(5) -0.002(4)
C2 0.030(7) 0.013(6) 0.043(8) 0.001(5) -0.001(5) -0.001(5)
C3 0.028(7) 0.013(6) 0.048(8) 0.003(5) -0.006(5) 0.000(5)
C4 0.037(7) 0.013(6) 0.039(7) 0.004(5) -0.002(5) 0.003(5)
C5 0.035(7) 0.014(6) 0.046(8) 0.000(5) 0.007(6) 0.000(5)
C6 0.035(7) 0.006(5) 0.042(7) 0.004(5) 0.001(5) -0.004(5)
C7 0.031(6) 0.010(5) 0.043(7) 0.005(5) 0.003(5) 0.004(5)
loop_
_atom_type_symbol
_atom_type_description
_atom_type_scat_dispersion_real
_atom_type_scat_dispersion_imag
_atom_type_scat_source
C C 0.0033 0.0016 'International Tables Vol C Tables 4.2.6.8 and 6.1.1.4'
H H 0.0000 0.0000 'International Tables Vol C Tables 4.2.6.8 and 6.1.1.4'
S S 0.1246 0.1234 'International Tables Vol C Tables 4.2.6.8 and 6.1.1.4'
Br Br -0.2901 2.4595 'International Tables Vol C Tables 4.2.6.8 and 6.1.1.4'
loop_
_geom_angle_atom_site_label_1
_geom_angle_atom_site_label_2
_geom_angle_atom_site_label_3
_geom_angle
_geom_angle_site_symmetry_1
_geom_angle_site_symmetry_3
C7 S C1 90.5(6) 3_666 .
C2 C1 C6 122.5(13) . .
C2 C1 S 125.1(10) . .
C6 C1 S 112.4(10) . .
C3 C2 C1 116.4(12) . .
C2 C3 C4 123.0(12) . .
C2 C3 Br 117.8(10) . .
C4 C3 Br 119.2(11) . .
C5 C4 C3 120.0(13) . .
C6 C5 C4 119.0(13) . .
C5 C6 C1 119.2(12) . .
C5 C6 C7 131.5(13) . .
C1 C6 C7 109.3(12) . .
C7 C7 C6 115.1(15) 3_666 .
C7 C7 S 112.7(14) 3_666 3_666
C6 C7 S 132.2(11) . 3_666
loop_
_geom_bond_atom_site_label_1
_geom_bond_atom_site_label_2
_geom_bond_distance
_geom_bond_site_symmetry_2
Br C3 1.910(13) .
S C7 1.728(14) 3_666
S C1 1.755(14) .
C1 C2 1.377(18) .
C1 C6 1.412(19) .
C2 C3 1.37(2) .
C3 C4 1.39(2) .
C4 C5 1.383(19) .
C5 C6 1.38(2) .
C6 C7 1.431(18) .
C7 C7 1.35(3) 3_666
C7 S 1.728(13) 3_666
