#------------------------------------------------------------------------------
#$Date: 2016-03-26 22:26:07 +0200 (Sat, 26 Mar 2016) $
#$Revision: 180505 $
#$URL: svn://www.crystallography.net/cod/cif/7/21/74/7217453.cif $
#------------------------------------------------------------------------------
#
# This file is available in the Crystallography Open Database (COD),
# http://www.crystallography.net/
#
# All data on this site have been placed in the public domain by the
# contributors.
#
data_7217453
loop_
_publ_author_name
'Cross, Jacob T.'
'Rossi, Nicholas A.'
'Serafin, Mateusz'
'Wheeler, Kraig A.'
_publ_section_title
;
 Tr\"oger's base quasiracemates and crystal packing tendencies
;
_journal_issue                   31
_journal_name_full               CrystEngComm
_journal_page_first              7251
_journal_paper_doi               10.1039/C4CE00323C
_journal_volume                  16
_journal_year                    2014
_chemical_formula_moiety         'C16.23 H15.68 Br0.77 N2, C15 H12 Br1.96 N2'
_chemical_formula_sum            'C31.23 H27.68 Br2.74 N4'
_chemical_formula_weight         677.57
_chemical_name_systematic
;
 ?
;
_space_group_crystal_system      triclinic
_space_group_IT_number           1
_space_group_name_Hall           'P 1'
_space_group_name_H-M_alt        'P 1'
_symmetry_space_group_name_Hall  'P 1'
_symmetry_space_group_name_H-M   'P 1'
_atom_sites_solution_hydrogens   geom
_audit_creation_method           SHELXL-2013
_cell_angle_alpha                82.302(4)
_cell_angle_beta                 75.969(3)
_cell_angle_gamma                82.058(3)
_cell_formula_units_Z            1
_cell_length_a                   6.3568(4)
_cell_length_b                   10.4138(7)
_cell_length_c                   10.7105(7)
_cell_measurement_reflns_used    7874
_cell_measurement_temperature    120(2)
_cell_measurement_theta_max      71.345
_cell_measurement_theta_min      3.229
_cell_volume                     677.53(8)
_computing_cell_refinement       APEX2
_computing_data_collection       APEX2
_computing_data_reduction
;
SAINT (Bruker, 2010) and XPREP (Bruker, 2010)
;
_computing_molecular_graphics    'XSEED (Barbour, 2001)'
_computing_publication_material  'XSEED (Barbour, 2001)'
_computing_structure_refinement  'SHELXL-2013 (Sheldrick, 2013)'
_computing_structure_solution    'SHELXL-2013 (Sheldrick, 2013)'
_diffrn_ambient_temperature      120(2)
_diffrn_measured_fraction_theta_full 1.000
_diffrn_measured_fraction_theta_max 0.996
_diffrn_measurement_device_type  'Bruker APEXII CCD'
_diffrn_measurement_method       'phi and omega scans'
_diffrn_radiation_monochromator  graphite
_diffrn_radiation_source         'fine-focus sealed tube'
_diffrn_radiation_type           MoK\a
_diffrn_radiation_wavelength     0.71073
_diffrn_reflns_av_R_equivalents  0.0575
_diffrn_reflns_av_unetI/netI     0.0657
_diffrn_reflns_Laue_measured_fraction_full 1.000
_diffrn_reflns_Laue_measured_fraction_max 0.996
_diffrn_reflns_limit_h_max       8
_diffrn_reflns_limit_h_min       -8
_diffrn_reflns_limit_k_max       14
_diffrn_reflns_limit_k_min       -14
_diffrn_reflns_limit_l_max       15
_diffrn_reflns_limit_l_min       -15
_diffrn_reflns_number            21743
_diffrn_reflns_point_group_measured_fraction_full 0.989
_diffrn_reflns_point_group_measured_fraction_max 0.963
_diffrn_reflns_theta_full        25.242
_diffrn_reflns_theta_max         30.183
_diffrn_reflns_theta_min         1.971
_exptl_absorpt_coefficient_mu    4.105
_exptl_absorpt_correction_type   multi-scan
_exptl_absorpt_process_details   'SADABS (Bruker, 2010)'
_exptl_crystal_colour            colorless
_exptl_crystal_density_diffrn    1.661
_exptl_crystal_description       'transparent plate'
_exptl_crystal_F_000             338.8
_exptl_crystal_size_max          0.31
_exptl_crystal_size_mid          0.20
_exptl_crystal_size_min          0.18
_exptl_transmission_factor_max   0.477
_exptl_transmission_factor_min   0.280
_refine_diff_density_max         0.807
_refine_diff_density_min         -0.823
_refine_diff_density_rms         0.094
_refine_ls_abs_structure_details
;
 Flack x determined using 3069 quotients [(I+)-(I-)]/[(I+)+(I-)]
 (Parsons and Flack (2004), Acta Cryst. A60, s61).
;
_refine_ls_abs_structure_Flack   0.067(8)
_refine_ls_extinction_method     none
_refine_ls_goodness_of_fit_ref   1.027
_refine_ls_hydrogen_treatment    constr
_refine_ls_matrix_type           full
_refine_ls_number_parameters     365
_refine_ls_number_reflns         7721
_refine_ls_number_restraints     37
_refine_ls_restrained_S_all      1.027
_refine_ls_R_factor_all          0.0434
_refine_ls_R_factor_gt           0.0376
_refine_ls_shift/su_max          0.000
_refine_ls_shift/su_mean         0.000
_refine_ls_structure_factor_coef Fsqd
_refine_ls_weighting_details
'w=1/[\s^2^(Fo^2^)+(0.0470P)^2^] where P=(Fo^2^+2Fc^2^)/3'
_refine_ls_weighting_scheme      calc
_refine_ls_wR_factor_gt          0.0934
_refine_ls_wR_factor_ref         0.0960
_reflns_Friedel_coverage         0.934
_reflns_Friedel_fraction_full    0.979
_reflns_Friedel_fraction_max     0.930
_reflns_number_gt                6901
_reflns_number_total             7721
_reflns_threshold_expression     'I > 2\s(I)'
_cod_data_source_file            c4ce00323c2.cif
_cod_data_source_block           COCR
_cod_database_code               7217453
#BEGIN Tags that were not found in dictionaries:
_shelx_space_group_comment
;
The symmetry employed for this shelxl refinement is uniquely defined
by the following loop, which should always be used as a source of
symmetry information in preference to the above space-group names.
They are only intended as comments.
;
_shelx_estimated_absorpt_t_min   0.280
_shelx_estimated_absorpt_t_max   0.477
_shelxl_version_number           2013-4
_shelx_res_file
;
TITL COCR081507_0m in P1
CELL 0.71073 6.3568 10.4138 10.7105 82.302 75.969 82.058
ZERR 1.0000 0.0004 0.0007 0.0007 0.004 0.003 0.003
LATT -1
SFAC C H N BR CL
UNIT 31.19 27.58 4 2.74 0
MERG 2
FMAP 2
GRID
PLAN 20
TEMP -153
DFIX 1.51 0.01 C4B C17B
DFIX 1.51 0.01 C12B C16B
DFIX 1.84 0.01 C4B Br1B
DFIX 1.84 0.01 C12B Br2B
DELU 0.001 0.001 C4B C3B C5B C17B
RIGU C4B C3B C5B C17B
ISOR .001 0.002 C17B
BOND $H
CONF
L.S. 10
ACTA
WGHT    0.047000
FVAR       0.66618   0.61291
BR1A  4    0.998470    0.303153    0.347979    11.00000    0.02359    0.04502 =
         0.02474   -0.01273   -0.00380    0.00385
BR2A  4    0.487501    0.081529    1.226642     0.96189    0.02770    0.01810 =
         0.01803    0.00110   -0.00689   -0.00040
N1A   3    0.188116    0.473063    0.751672    11.00000    0.01431    0.01945 =
         0.01414   -0.00114   -0.00455    0.00098
N2A   3    0.409868    0.575573    0.856125    11.00000    0.01593    0.01504 =
         0.01537   -0.00328   -0.00596    0.00289
C1A   1    0.381223    0.438413    0.655670    11.00000    0.01546    0.01414 =
         0.01196    0.00102   -0.00422    0.00093
C2A   1    0.371589    0.349484    0.570430    11.00000    0.02027    0.01959 =
         0.01618   -0.00126   -0.00917   -0.00172
AFIX  43
H2A   2    0.237765    0.315704    0.576228    11.00000   -1.20000
AFIX   0
C3A   1    0.552461    0.310488    0.478765    11.00000    0.02306    0.02046 =
         0.01430   -0.00397   -0.00874    0.00083
AFIX  43
H3A   2    0.545289    0.249399    0.421934    11.00000   -1.20000
AFIX   0
C4A   1    0.746746    0.362008    0.470471    11.00000    0.01886    0.02358 =
         0.01244   -0.00167   -0.00292    0.00272
C5A   1    0.760306    0.451550    0.552263    11.00000    0.01551    0.01788 =
         0.01610    0.00112   -0.00759   -0.00218
AFIX  43
H5A   2    0.893767    0.486639    0.544220    11.00000   -1.20000
AFIX   0
C6A   1    0.577002    0.489762    0.646330    11.00000    0.01667    0.01182 =
         0.01216    0.00066   -0.00409   -0.00131
C7A   1    0.593561    0.580480    0.742942    11.00000    0.01868    0.01332 =
         0.01763   -0.00087   -0.00583   -0.00353
AFIX  23
H7A1  2    0.731923    0.555105    0.771360    11.00000   -1.20000
H7A2  2    0.595861    0.670879    0.700345    11.00000   -1.20000
AFIX   0
C8A   1    0.208043    0.587700    0.809508    11.00000    0.01957    0.01894 =
         0.02519   -0.00234   -0.01276    0.00436
AFIX  23
H8A1  2    0.081200    0.601852    0.882860    11.00000   -1.20000
H8A2  2    0.205631    0.664862    0.744698    11.00000   -1.20000
AFIX   0
C9A   1    0.145683    0.365780    0.856810    11.00000    0.01492    0.02441 =
         0.01615   -0.00032   -0.00350   -0.00446
AFIX  23
H9A1  2    0.165542    0.282093    0.818877    11.00000   -1.20000
H9A2  2   -0.007321    0.379671    0.906382    11.00000   -1.20000
AFIX   0
C10A  1    0.297334    0.358385    0.947193    11.00000    0.01498    0.01948 =
         0.01083   -0.00504   -0.00270   -0.00334
C11A  1    0.316818    0.246245    1.034197    11.00000    0.01893    0.01904 =
         0.01397   -0.00461   -0.00273   -0.00405
AFIX  43
H11A  2    0.228753    0.178285    1.039049    11.00000   -1.20000
AFIX   0
C12A  1    0.463754    0.234019    1.113103    11.00000    0.01986    0.01180 =
         0.01262   -0.00027   -0.00216   -0.00109
C13A  1    0.594308    0.332337    1.106657    11.00000    0.01552    0.01922 =
         0.01402   -0.00312   -0.00642    0.00031
AFIX  43
H13A  2    0.696723    0.323195    1.159641    11.00000   -1.20000
AFIX   0
C14A  1    0.573535    0.444089    1.021970    11.00000    0.01611    0.01265 =
         0.01796   -0.00549   -0.00585    0.00045
AFIX  43
H14A  2    0.660176    0.512407    1.018584    11.00000   -1.20000
AFIX   0
C15A  1    0.426949    0.457243    0.941796    11.00000    0.01231    0.01567 =
         0.01202   -0.00510   -0.00272    0.00103
PART 1
BR1B  4    0.253149   -0.060285    1.635385   -21.00000    0.01957    0.02952 =
         0.01896   -0.00869   -0.00334    0.00673
BR2B  4    0.773853    0.166049    0.749318   -21.00000    0.02635    0.01557 =
         0.01903    0.00386   -0.00989   -0.00126
PART 0
N1B   3    1.056143   -0.222894    1.229264    11.00000    0.01358    0.02227 =
         0.01941   -0.00550   -0.00776    0.00145
N2B   3    0.837940   -0.325080    1.121485    11.00000    0.01625    0.01362 =
         0.01885   -0.00283   -0.00696    0.00020
C1B   1    0.862246   -0.190728    1.326003    11.00000    0.01630    0.01757 =
         0.01418   -0.00123   -0.00760   -0.00028
C2B   1    0.869873   -0.104145    1.411206    11.00000    0.02176    0.02358 =
         0.01516   -0.00194   -0.00964   -0.00249
AFIX  43
H2B   2    1.003134   -0.070083    1.406268    11.00000   -1.20000
AFIX   0
C3B   1    0.686873   -0.066123    1.503638    11.00000    0.03049    0.02224 =
         0.01360   -0.00324   -0.00846    0.00021
AFIX  43
H3B   2    0.694467   -0.005877    1.561202    11.00000   -1.20000
AFIX   0
C4B   1    0.490113   -0.116643    1.512245    11.00000    0.02653    0.02076 =
         0.01402    0.00208   -0.00635    0.00240
C5B   1    0.483266   -0.205922    1.428552    11.00000    0.01992    0.01815 =
         0.01464    0.00428   -0.00506   -0.00119
AFIX  43
H5B   2    0.351541   -0.242751    1.436074    11.00000   -1.20000
AFIX   0
C6B   1    0.666370   -0.242498    1.333625    11.00000    0.01831    0.01537 =
         0.01402    0.00234   -0.00767   -0.00053
C7B   1    0.651107   -0.330217    1.235280    11.00000    0.02258    0.01275 =
         0.01688   -0.00064   -0.00645   -0.00310
AFIX  23
H7B1  2    0.646949   -0.421055    1.276540    11.00000   -1.20000
H7B2  2    0.513620   -0.303358    1.206207    11.00000   -1.20000
AFIX   0
C8B   1    1.038298   -0.338394    1.169247    11.00000    0.02094    0.02165 =
         0.01917   -0.00494   -0.00751    0.00640
AFIX  23
H8B1  2    1.166112   -0.351904    1.096323    11.00000   -1.20000
H8B2  2    1.039748   -0.416078    1.233508    11.00000   -1.20000
AFIX   0
C9B   1    1.099422   -0.115420    1.125811    11.00000    0.01282    0.02804 =
         0.01616   -0.00351   -0.00593   -0.00503
AFIX  23
H9B1  2    1.253480   -0.128524    1.077751    11.00000   -1.20000
H9B2  2    1.077380   -0.032217    1.164830    11.00000   -1.20000
AFIX   0
C10B  1    0.951147   -0.106570    1.031803    11.00000    0.01241    0.01924 =
         0.01279   -0.00040   -0.00361   -0.00111
C11B  1    0.934564    0.003117    0.944488    11.00000    0.01986    0.01975 =
         0.01610   -0.00253   -0.00265   -0.00736
AFIX  43
H11B  2    1.026205    0.069429    0.938767    11.00000   -1.20000
AFIX   0
C12B  1    0.788139    0.018715    0.865377    11.00000    0.01819    0.02039 =
         0.01439   -0.00364   -0.00070   -0.00304
C13B  1    0.656813   -0.080542    0.872132    11.00000    0.01642    0.01851 =
         0.01558   -0.00388   -0.00657   -0.00030
AFIX  43
H13B  2    0.555027   -0.071354    0.818738    11.00000   -1.20000
AFIX   0
C14B  1    0.675469   -0.192228    0.956808    11.00000    0.01898    0.01491 =
         0.01665   -0.00506   -0.00344   -0.00244
AFIX  43
H14B  2    0.586950   -0.259568    0.960084    11.00000   -1.20000
AFIX   0
C15B  1    0.822007   -0.207589    1.037402    11.00000    0.01502    0.01356 =
         0.01161   -0.00364   -0.00061    0.00183
PART 2
C16B  1    0.770761    0.141189    0.773319    21.00000    0.04178    0.00867 =
         0.02178    0.00068   -0.01183    0.00072
AFIX 137
H16A  2    0.902525    0.141810    0.703234    21.00000   -1.50000
H16B  2    0.755662    0.217803    0.820178    21.00000   -1.50000
H16C  2    0.642839    0.143304    0.736904    21.00000   -1.50000
AFIX   0
C17B  1    0.279471   -0.079081    1.609292    21.00000    0.03057    0.03257 =
         0.02703   -0.00658   -0.00299    0.00342
AFIX 137
H17A  2    0.172476   -0.138803    1.610429    21.00000   -1.50000
H17B  2    0.221440    0.010300    1.584291    21.00000   -1.50000
H17C  2    0.308843   -0.084549    1.695655    21.00000   -1.50000
AFIX   0
HKLF 4

REM  COCR081507_0m in P1
REM R1 =  0.0376 for    6901 Fo > 4sig(Fo)  and  0.0434 for all    7721 data
REM    365 parameters refined using     37 restraints

END

WGHT      0.0470      0.0000

REM Highest difference peak  0.807,  deepest hole -0.823,  1-sigma level  0.094
Q1    1   0.6271  0.0642  1.2461  11.00000  0.05    0.81
Q2    1   0.3543  0.1019  1.2084  11.00000  0.05    0.69
Q3    1   1.1315  0.2790  0.3725  11.00000  0.05    0.60
Q4    1   0.5150  0.0250  1.1894  11.00000  0.05    0.53
Q5    1   0.1227 -0.0396  1.6149  11.00000  0.05    0.53
Q6    1   0.2907 -0.0093  1.5871  11.00000  0.05    0.52
Q7    1   0.5619  0.2774  1.0865  11.00000  0.05    0.52
Q8    1   0.4534  0.1376  1.2743  11.00000  0.05    0.50
Q9    1   0.9668  0.2482  0.3966  11.00000  0.05    0.49
Q10   1   0.3538  0.4080  0.9507  11.00000  0.05    0.48
Q11   1   0.8557  0.3203  0.3326  11.00000  0.05    0.47
Q12   1   0.4911  0.4607  0.6538  11.00000  0.05    0.46
Q13   1   0.6490  0.3108  0.4951  11.00000  0.05    0.46
Q14   1   0.5862 -0.0581  1.4857  11.00000  0.05    0.46
Q15   1   0.9054 -0.3299  1.1431  11.00000  0.05    0.46
Q16   1   0.5890  0.5398  0.6925  11.00000  0.05    0.45
Q17   1   0.8904 -0.1408  1.3613  11.00000  0.05    0.43
Q18   1   0.2249  0.3591  0.9119  11.00000  0.05    0.43
Q19   1   0.7749 -0.0444  0.8575  11.00000  0.05    0.43
Q20   1   0.7392  0.4138  0.5155  11.00000  0.05    0.43
;
_shelx_res_checksum              70560
#END Tags that were not found in dictionaries
loop_
_space_group_symop_operation_xyz
'x, y, z'
loop_
_atom_site_label
_atom_site_type_symbol
_atom_site_fract_x
_atom_site_fract_y
_atom_site_fract_z
_atom_site_U_iso_or_equiv
_atom_site_adp_type
_atom_site_occupancy
_atom_site_site_symmetry_order
_atom_site_calc_flag
_atom_site_refinement_flags_posn
_atom_site_refinement_flags_adp
_atom_site_refinement_flags_occupancy
_atom_site_disorder_assembly
_atom_site_disorder_group
Br1A Br 0.99847(6) 0.30315(5) 0.34798(4) 0.03130(19) Uani 1 1 d . . . . .
Br2A Br 0.48750(6) 0.08153(4) 1.22664(4) 0.02147(17) Uani 0.962(3) 1 d . . . .
.
N1A N 0.1881(5) 0.4731(3) 0.7517(3) 0.0161(7) Uani 1 1 d . . . . .
N2A N 0.4099(5) 0.5756(3) 0.8561(3) 0.0153(7) Uani 1 1 d . . . . .
C1A C 0.3812(6) 0.4384(4) 0.6557(4) 0.0141(7) Uani 1 1 d . . . . .
C2A C 0.3716(7) 0.3495(4) 0.5704(4) 0.0179(8) Uani 1 1 d . . . . .
H2A H 0.2378 0.3157 0.5762 0.021 Uiso 1 1 calc R U . . .
C3A C 0.5525(7) 0.3105(4) 0.4788(4) 0.0186(8) Uani 1 1 d . . . . .
H3A H 0.5453 0.2494 0.4219 0.022 Uiso 1 1 calc R U . . .
C4A C 0.7467(7) 0.3620(4) 0.4705(4) 0.0189(8) Uani 1 1 d . . . . .
C5A C 0.7603(7) 0.4516(4) 0.5523(4) 0.0160(8) Uani 1 1 d . . . . .
H5A H 0.8938 0.4866 0.5442 0.019 Uiso 1 1 calc R U . . .
C6A C 0.5770(6) 0.4898(4) 0.6463(4) 0.0136(7) Uani 1 1 d . . . . .
C7A C 0.5936(7) 0.5805(4) 0.7429(4) 0.0162(8) Uani 1 1 d . . . . .
H7A1 H 0.7319 0.5551 0.7714 0.019 Uiso 1 1 calc R U . . .
H7A2 H 0.5959 0.6709 0.7003 0.019 Uiso 1 1 calc R U . . .
C8A C 0.2080(7) 0.5877(4) 0.8095(5) 0.0205(9) Uani 1 1 d . . . . .
H8A1 H 0.0812 0.6019 0.8829 0.025 Uiso 1 1 calc R U . . .
H8A2 H 0.2056 0.6649 0.7447 0.025 Uiso 1 1 calc R U . . .
C9A C 0.1457(7) 0.3658(4) 0.8568(4) 0.0184(8) Uani 1 1 d . . . . .
H9A1 H 0.1655 0.2821 0.8189 0.022 Uiso 1 1 calc R U . . .
H9A2 H -0.0073 0.3797 0.9064 0.022 Uiso 1 1 calc R U . . .
C10A C 0.2973(7) 0.3584(4) 0.9472(4) 0.0147(7) Uani 1 1 d . . . . .
C11A C 0.3168(7) 0.2462(4) 1.0342(4) 0.0170(8) Uani 1 1 d . . . . .
H11A H 0.2288 0.1783 1.0390 0.020 Uiso 1 1 calc R U . . .
C12A C 0.4638(7) 0.2340(4) 1.1131(4) 0.0152(8) Uani 1 1 d . . . . .
C13A C 0.5943(6) 0.3323(4) 1.1067(4) 0.0158(8) Uani 1 1 d . . . . .
H13A H 0.6967 0.3232 1.1596 0.019 Uiso 1 1 calc R U . . .
C14A C 0.5735(7) 0.4441(4) 1.0220(4) 0.0151(8) Uani 1 1 d . . . . .
H14A H 0.6602 0.5124 1.0186 0.018 Uiso 1 1 calc R U . . .
C15A C 0.4269(6) 0.4572(4) 0.9418(4) 0.0133(7) Uani 1 1 d . . . . .
Br1B Br 0.2531(3) -0.06029(18) 1.63538(16) 0.0232(4) Uani 0.387(3) 1 d D . P A
1
Br2B Br 0.7739(5) 0.1660(3) 0.7493(3) 0.0201(5) Uani 0.387(3) 1 d D . P A 1
N1B N 1.0561(6) -0.2229(4) 1.2293(4) 0.0177(7) Uani 1 1 d . . . . .
N2B N 0.8379(6) -0.3251(3) 1.1215(4) 0.0158(7) Uani 1 1 d . . . . .
C1B C 0.8622(6) -0.1907(4) 1.3260(4) 0.0155(8) Uani 1 1 d . . . . .
C2B C 0.8699(7) -0.1041(4) 1.4112(4) 0.0192(8) Uani 1 1 d . . . . .
H2B H 1.0031 -0.0701 1.4063 0.023 Uiso 1 1 calc R U . . .
C3B C 0.6869(8) -0.0661(4) 1.5036(4) 0.0217(8) Uani 1 1 d . U . . .
H3B H 0.6945 -0.0059 1.5612 0.026 Uiso 1 1 calc R U . . .
C4B C 0.4901(7) -0.1166(4) 1.5122(4) 0.0210(8) Uani 1 1 d D U . . .
C5B C 0.4833(7) -0.2059(4) 1.4286(4) 0.0180(7) Uani 1 1 d . U . . .
H5B H 0.3515 -0.2428 1.4361 0.022 Uiso 1 1 calc R U . . .
C6B C 0.6664(7) -0.2425(4) 1.3336(4) 0.0157(8) Uani 1 1 d . . . . .
C7B C 0.6511(7) -0.3302(4) 1.2353(4) 0.0170(8) Uani 1 1 d . . . . .
H7B1 H 0.6469 -0.4211 1.2765 0.020 Uiso 1 1 calc R U . . .
H7B2 H 0.5136 -0.3034 1.2062 0.020 Uiso 1 1 calc R U . . .
C8B C 1.0383(7) -0.3384(5) 1.1692(4) 0.0207(9) Uani 1 1 d . . . . .
H8B1 H 1.1661 -0.3519 1.0963 0.025 Uiso 1 1 calc R U . . .
H8B2 H 1.0397 -0.4161 1.2335 0.025 Uiso 1 1 calc R U . . .
C9B C 1.0994(7) -0.1154(4) 1.1258(4) 0.0182(8) Uani 1 1 d . . . . .
H9B1 H 1.2535 -0.1285 1.0778 0.022 Uiso 1 1 calc R U . . .
H9B2 H 1.0774 -0.0322 1.1648 0.022 Uiso 1 1 calc R U . . .
C10B C 0.9511(6) -0.1066(4) 1.0318(4) 0.0149(8) Uani 1 1 d . . . . .
C11B C 0.9346(7) 0.0031(4) 0.9445(4) 0.0183(8) Uani 1 1 d . . . . .
H11B H 1.0262 0.0694 0.9388 0.022 Uiso 1 1 calc R U . . .
C12B C 0.7881(7) 0.0187(4) 0.8654(4) 0.0179(8) Uani 1 1 d D . . . .
C13B C 0.6568(7) -0.0805(4) 0.8721(4) 0.0163(8) Uani 1 1 d . . . . .
H13B H 0.5550 -0.0714 0.8187 0.020 Uiso 1 1 calc R U . . .
C14B C 0.6755(7) -0.1922(4) 0.9568(4) 0.0166(8) Uani 1 1 d . . . . .
H14B H 0.5869 -0.2596 0.9601 0.020 Uiso 1 1 calc R U . . .
C15B C 0.8220(6) -0.2076(4) 1.0374(4) 0.0139(7) Uani 1 1 d . . . . .
C16B C 0.771(5) 0.1412(16) 0.7733(19) 0.024(4) Uani 0.613(3) 1 d D . P A 2
H16A H 0.9025 0.1418 0.7032 0.036 Uiso 0.613(3) 1 calc R U P A 2
H16B H 0.7557 0.2178 0.8202 0.036 Uiso 0.613(3) 1 calc R U P A 2
H16C H 0.6428 0.1433 0.7369 0.036 Uiso 0.613(3) 1 calc R U P A 2
C17B C 0.279(2) -0.0791(16) 1.6093(13) 0.031(2) Uani 0.613(3) 1 d D U P A 2
H17A H 0.1725 -0.1388 1.6104 0.047 Uiso 0.613(3) 1 calc R U P A 2
H17B H 0.2214 0.0103 1.5843 0.047 Uiso 0.613(3) 1 calc R U P A 2
H17C H 0.3088 -0.0845 1.6957 0.047 Uiso 0.613(3) 1 calc R U P A 2
loop_
_atom_site_aniso_label
_atom_site_aniso_U_11
_atom_site_aniso_U_22
_atom_site_aniso_U_33
_atom_site_aniso_U_23
_atom_site_aniso_U_13
_atom_site_aniso_U_12
Br1A 0.0236(3) 0.0450(4) 0.0247(3) -0.0127(3) -0.0038(2) 0.0039(2)
Br2A 0.0277(3) 0.0181(2) 0.0180(3) 0.00110(18) -0.0069(2) -0.00040(19)
N1A 0.0143(15) 0.0194(17) 0.0141(17) -0.0011(13) -0.0045(13) 0.0010(13)
N2A 0.0159(16) 0.0150(16) 0.0154(17) -0.0033(13) -0.0060(14) 0.0029(13)
C1A 0.0155(18) 0.0141(17) 0.0120(18) 0.0010(14) -0.0042(15) 0.0009(14)
C2A 0.0203(19) 0.020(2) 0.016(2) -0.0013(15) -0.0092(16) -0.0017(16)
C3A 0.023(2) 0.020(2) 0.0143(19) -0.0040(15) -0.0087(16) 0.0008(16)
C4A 0.0189(19) 0.024(2) 0.0124(18) -0.0017(15) -0.0029(15) 0.0027(16)
C5A 0.0155(18) 0.0179(19) 0.0161(19) 0.0011(14) -0.0076(15) -0.0022(15)
C6A 0.0167(18) 0.0118(17) 0.0122(18) 0.0007(13) -0.0041(15) -0.0013(14)
C7A 0.0187(19) 0.0133(18) 0.0176(19) -0.0009(14) -0.0058(16) -0.0035(14)
C8A 0.020(2) 0.019(2) 0.025(2) -0.0023(17) -0.0128(18) 0.0044(16)
C9A 0.0149(19) 0.024(2) 0.016(2) -0.0003(16) -0.0035(16) -0.0045(16)
C10A 0.0150(18) 0.019(2) 0.0108(18) -0.0050(15) -0.0027(15) -0.0033(16)
C11A 0.019(2) 0.019(2) 0.0140(19) -0.0046(16) -0.0027(16) -0.0040(16)
C12A 0.0199(19) 0.0118(17) 0.0126(18) -0.0003(14) -0.0022(16) -0.0011(15)
C13A 0.0155(19) 0.0192(19) 0.0140(18) -0.0031(15) -0.0064(15) 0.0003(15)
C14A 0.0161(18) 0.0126(17) 0.018(2) -0.0055(15) -0.0059(16) 0.0005(14)
C15A 0.0123(17) 0.0157(18) 0.0120(18) -0.0051(14) -0.0027(14) 0.0010(14)
Br1B 0.0196(7) 0.0295(9) 0.0190(8) -0.0087(6) -0.0033(6) 0.0067(6)
Br2B 0.0263(8) 0.0156(11) 0.0190(10) 0.0039(7) -0.0099(8) -0.0013(8)
N1B 0.0136(15) 0.0223(18) 0.0194(18) -0.0055(14) -0.0078(14) 0.0014(13)
N2B 0.0163(16) 0.0136(16) 0.0188(17) -0.0028(13) -0.0070(14) 0.0002(13)
C1B 0.0163(18) 0.0176(19) 0.0142(18) -0.0012(14) -0.0076(15) -0.0003(15)
C2B 0.022(2) 0.024(2) 0.0152(19) -0.0019(16) -0.0096(16) -0.0025(16)
C3B 0.0305(18) 0.022(2) 0.0136(19) -0.0032(15) -0.0085(16) 0.0002(16)
C4B 0.0265(17) 0.0208(19) 0.0140(17) 0.0021(13) -0.0064(14) 0.0024(14)
C5B 0.020(2) 0.0181(19) 0.0146(18) 0.0043(13) -0.0051(15) -0.0012(15)
C6B 0.0183(19) 0.0154(18) 0.0140(19) 0.0023(14) -0.0077(15) -0.0005(15)
C7B 0.023(2) 0.0128(18) 0.0169(19) -0.0006(14) -0.0065(16) -0.0031(15)
C8B 0.021(2) 0.022(2) 0.019(2) -0.0049(17) -0.0075(18) 0.0064(17)
C9B 0.0128(18) 0.028(2) 0.0162(19) -0.0035(16) -0.0059(16) -0.0050(16)
C10B 0.0124(17) 0.019(2) 0.0128(19) -0.0004(15) -0.0036(15) -0.0011(15)
C11B 0.020(2) 0.020(2) 0.0161(19) -0.0025(16) -0.0026(17) -0.0074(16)
C12B 0.018(2) 0.020(2) 0.014(2) -0.0036(15) -0.0007(16) -0.0030(16)
C13B 0.0164(18) 0.0185(19) 0.0156(19) -0.0039(15) -0.0066(16) -0.0003(15)
C14B 0.0190(19) 0.0149(18) 0.017(2) -0.0051(15) -0.0034(16) -0.0024(15)
C15B 0.0150(18) 0.0136(18) 0.0116(18) -0.0036(14) -0.0006(15) 0.0018(14)
C16B 0.042(6) 0.009(6) 0.022(8) 0.001(4) -0.012(6) 0.001(5)
C17B 0.031(2) 0.033(3) 0.027(3) -0.007(2) -0.0030(19) 0.003(2)
loop_
_atom_type_symbol
_atom_type_description
_atom_type_scat_dispersion_real
_atom_type_scat_dispersion_imag
_atom_type_scat_source
C C 0.0033 0.0016 'International Tables Vol C Tables 4.2.6.8 and 6.1.1.4'
H H 0.0000 0.0000 'International Tables Vol C Tables 4.2.6.8 and 6.1.1.4'
N N 0.0061 0.0033 'International Tables Vol C Tables 4.2.6.8 and 6.1.1.4'
Br Br -0.2901 2.4595 'International Tables Vol C Tables 4.2.6.8 and 6.1.1.4'
Cl Cl 0.1484 0.1585 'International Tables Vol C Tables 4.2.6.8 and 6.1.1.4'
loop_
_geom_angle_atom_site_label_1
_geom_angle_atom_site_label_2
_geom_angle_atom_site_label_3
_geom_angle
C1A N1A C8A 111.4(3)
C1A N1A C9A 111.0(3)
C8A N1A C9A 107.7(3)
C15A N2A C7A 112.6(3)
C15A N2A C8A 110.2(3)
C7A N2A C8A 107.9(3)
C6A C1A C2A 119.7(4)
C6A C1A N1A 121.8(4)
C2A C1A N1A 118.5(3)
C3A C2A C1A 121.0(4)
C3A C2A H2A 119.5
C1A C2A H2A 119.5
C2A C3A C4A 118.8(4)
C2A C3A H3A 120.6
C4A C3A H3A 120.6
C5A C4A C3A 121.4(4)
C5A C4A Br1A 119.9(3)
C3A C4A Br1A 118.7(3)
C4A C5A C6A 119.6(4)
C4A C5A H5A 120.2
C6A C5A H5A 120.2
C5A C6A C1A 119.4(4)
C5A C6A C7A 120.2(4)
C1A C6A C7A 120.3(4)
N2A C7A C6A 111.4(3)
N2A C7A H7A1 109.3
C6A C7A H7A1 109.3
N2A C7A H7A2 109.3
C6A C7A H7A2 109.3
H7A1 C7A H7A2 108.0
N1A C8A N2A 112.3(3)
N1A C8A H8A1 109.1
N2A C8A H8A1 109.1
N1A C8A H8A2 109.1
N2A C8A H8A2 109.1
H8A1 C8A H8A2 107.9
N1A C9A C10A 111.3(3)
N1A C9A H9A1 109.4
C10A C9A H9A1 109.4
N1A C9A H9A2 109.4
C10A C9A H9A2 109.4
H9A1 C9A H9A2 108.0
C15A C10A C11A 119.0(4)
C15A C10A C9A 121.6(4)
C11A C10A C9A 119.4(4)
C12A C11A C10A 120.5(4)
C12A C11A H11A 119.8
C10A C11A H11A 119.8
C11A C12A C13A 120.4(4)
C11A C12A Br2A 119.1(3)
C13A C12A Br2A 120.4(3)
C14A C13A C12A 119.3(3)
C14A C13A H13A 120.3
C12A C13A H13A 120.3
C13A C14A C15A 120.8(4)
C13A C14A H14A 119.6
C15A C14A H14A 119.6
C10A C15A C14A 120.0(4)
C10A C15A N2A 121.2(3)
C14A C15A N2A 118.8(3)
C1B N1B C8B 111.2(3)
C1B N1B C9B 111.8(3)
C8B N1B C9B 107.8(3)
C15B N2B C8B 110.5(3)
C15B N2B C7B 112.5(3)
C8B N2B C7B 107.8(3)
C2B C1B C6B 119.8(4)
C2B C1B N1B 118.4(3)
C6B C1B N1B 121.8(4)
C1B C2B C3B 121.1(4)
C1B C2B H2B 119.5
C3B C2B H2B 119.5
C2B C3B C4B 119.8(4)
C2B C3B H3B 120.1
C4B C3B H3B 120.1
C5B C4B C3B 119.2(4)
C5B C4B C17B 117.2(7)
C3B C4B C17B 123.6(7)
C5B C4B Br1B 123.3(3)
C3B C4B Br1B 117.5(3)
C4B C5B C6B 121.1(4)
C4B C5B H5B 119.5
C6B C5B H5B 119.5
C5B C6B C1B 119.0(4)
C5B C6B C7B 120.5(4)
C1B C6B C7B 120.4(4)
N2B C7B C6B 111.9(3)
N2B C7B H7B1 109.2
C6B C7B H7B1 109.2
N2B C7B H7B2 109.2
C6B C7B H7B2 109.2
H7B1 C7B H7B2 107.9
N2B C8B N1B 111.8(3)
N2B C8B H8B1 109.3
N1B C8B H8B1 109.3
N2B C8B H8B2 109.3
N1B C8B H8B2 109.3
H8B1 C8B H8B2 107.9
N1B C9B C10B 112.0(3)
N1B C9B H9B1 109.2
C10B C9B H9B1 109.2
N1B C9B H9B2 109.2
C10B C9B H9B2 109.2
H9B1 C9B H9B2 107.9
C11B C10B C15B 119.5(4)
C11B C10B C9B 120.5(4)
C15B C10B C9B 120.0(4)
C12B C11B C10B 121.8(4)
C12B C11B H11B 119.1
C10B C11B H11B 119.1
C11B C12B C13B 118.9(4)
C11B C12B C16B 120.4(10)
C13B C12B C16B 120.7(10)
C11B C12B Br2B 120.2(3)
C13B C12B Br2B 120.9(3)
C14B C13B C12B 119.9(4)
C14B C13B H13B 120.0
C12B C13B H13B 120.0
C13B C14B C15B 121.2(4)
C13B C14B H14B 119.4
C15B C14B H14B 119.4
C14B C15B C10B 118.7(4)
C14B C15B N2B 119.2(3)
C10B C15B N2B 122.1(3)
C12B C16B H16A 109.5
C12B C16B H16B 109.5
H16A C16B H16B 109.5
C12B C16B H16C 109.5
H16A C16B H16C 109.5
H16B C16B H16C 109.5
C4B C17B H17A 109.5
C4B C17B H17B 109.5
H17A C17B H17B 109.5
C4B C17B H17C 109.5
H17A C17B H17C 109.5
H17B C17B H17C 109.5
loop_
_geom_bond_atom_site_label_1
_geom_bond_atom_site_label_2
_geom_bond_distance
Br1A C4A 1.893(4)
Br2A C12A 1.878(4)
N1A C1A 1.435(5)
N1A C8A 1.450(6)
N1A C9A 1.479(5)
N2A C15A 1.442(5)
N2A C7A 1.466(5)
N2A C8A 1.470(5)
C1A C6A 1.398(5)
C1A C2A 1.401(6)
C2A C3A 1.372(6)
C2A H2A 0.9500
C3A C4A 1.392(6)
C3A H3A 0.9500
C4A C5A 1.386(6)
C5A C6A 1.393(6)
C5A H5A 0.9500
C6A C7A 1.522(6)
C7A H7A1 0.9900
C7A H7A2 0.9900
C8A H8A1 0.9900
C8A H8A2 0.9900
C9A C10A 1.511(5)
C9A H9A1 0.9900
C9A H9A2 0.9900
C10A C15A 1.392(5)
C10A C11A 1.404(6)
C11A C12A 1.387(6)
C11A H11A 0.9500
C12A C13A 1.389(6)
C13A C14A 1.388(5)
C13A H13A 0.9500
C14A C15A 1.395(5)
C14A H14A 0.9500
Br1B C4B 1.831(5)
Br2B C12B 1.847(5)
N1B C1B 1.437(5)
N1B C8B 1.467(6)
N1B C9B 1.470(6)
N2B C15B 1.426(5)
N2B C8B 1.467(5)
N2B C7B 1.482(6)
C1B C2B 1.379(6)
C1B C6B 1.404(5)
C2B C3B 1.382(6)
C2B H2B 0.9500
C3B C4B 1.401(6)
C3B H3B 0.9500
C4B C5B 1.387(6)
C4B C17B 1.522(10)
C5B C6B 1.393(6)
C5B H5B 0.9500
C6B C7B 1.512(6)
C7B H7B1 0.9900
C7B H7B2 0.9900
C8B H8B1 0.9900
C8B H8B2 0.9900
C9B C10B 1.524(5)
C9B H9B1 0.9900
C9B H9B2 0.9900
C10B C11B 1.385(6)
C10B C15B 1.408(6)
C11B C12B 1.384(6)
C11B H11B 0.9500
C12B C13B 1.400(6)
C12B C16B 1.513(11)
C13B C14B 1.386(6)
C13B H13B 0.9500
C14B C15B 1.396(6)
C14B H14B 0.9500
C16B H16A 0.9800
C16B H16B 0.9800
C16B H16C 0.9800
C17B H17A 0.9800
C17B H17B 0.9800
C17B H17C 0.9800
loop_
_geom_torsion_atom_site_label_1
_geom_torsion_atom_site_label_2
_geom_torsion_atom_site_label_3
_geom_torsion_atom_site_label_4
_geom_torsion
C8A N1A C1A C6A 15.0(5)
C9A N1A C1A C6A -105.0(4)
C8A N1A C1A C2A -165.7(3)
C9A N1A C1A C2A 74.3(4)
C6A C1A C2A C3A 0.9(6)
N1A C1A C2A C3A -178.4(4)
C1A C2A C3A C4A -0.7(6)
C2A C3A C4A C5A -0.2(6)
C2A C3A C4A Br1A 177.8(3)
C3A C4A C5A C6A 1.0(6)
Br1A C4A C5A C6A -176.9(3)
C4A C5A C6A C1A -0.8(6)
C4A C5A C6A C7A 175.6(4)
C2A C1A C6A C5A -0.1(6)
N1A C1A C6A C5A 179.2(3)
C2A C1A C6A C7A -176.6(4)
N1A C1A C6A C7A 2.8(6)
C15A N2A C7A C6A 74.0(4)
C8A N2A C7A C6A -47.9(4)
C5A C6A C7A N2A -161.7(3)
C1A C6A C7A N2A 14.7(5)
C1A N1A C8A N2A -51.4(5)
C9A N1A C8A N2A 70.5(4)
C15A N2A C8A N1A -53.6(5)
C7A N2A C8A N1A 69.7(4)
C1A N1A C9A C10A 76.2(4)
C8A N1A C9A C10A -45.9(4)
N1A C9A C10A C15A 11.2(6)
N1A C9A C10A C11A -165.4(4)
C15A C10A C11A C12A -0.3(6)
C9A C10A C11A C12A 176.4(4)
C10A C11A C12A C13A -0.3(6)
C10A C11A C12A Br2A -179.2(3)
C11A C12A C13A C14A 1.1(6)
Br2A C12A C13A C14A -180.0(3)
C12A C13A C14A C15A -1.4(6)
C11A C10A C15A C14A 0.0(6)
C9A C10A C15A C14A -176.6(4)
C11A C10A C15A N2A -178.7(4)
C9A C10A C15A N2A 4.7(6)
C13A C14A C15A C10A 0.8(6)
C13A C14A C15A N2A 179.5(4)
C7A N2A C15A C10A -105.3(4)
C8A N2A C15A C10A 15.3(5)
C7A N2A C15A C14A 76.0(4)
C8A N2A C15A C14A -163.4(4)
C8B N1B C1B C2B 165.7(4)
C9B N1B C1B C2B -73.8(4)
C8B N1B C1B C6B -15.8(5)
C9B N1B C1B C6B 104.7(4)
C6B C1B C2B C3B -0.7(6)
N1B C1B C2B C3B 177.9(4)
C1B C2B C3B C4B 0.5(6)
C2B C3B C4B C5B 0.9(6)
C2B C3B C4B C17B -179.0(8)
C2B C3B C4B Br1B -179.1(3)
C3B C4B C5B C6B -2.2(6)
C17B C4B C5B C6B 177.8(8)
Br1B C4B C5B C6B 177.9(3)
C4B C5B C6B C1B 2.0(6)
C4B C5B C6B C7B -174.3(4)
C2B C1B C6B C5B -0.6(6)
N1B C1B C6B C5B -179.1(3)
C2B C1B C6B C7B 175.8(4)
N1B C1B C6B C7B -2.7(6)
C15B N2B C7B C6B -74.8(4)
C8B N2B C7B C6B 47.3(4)
C5B C6B C7B N2B 162.5(3)
C1B C6B C7B N2B -13.8(5)
C15B N2B C8B N1B 53.8(5)
C7B N2B C8B N1B -69.5(4)
C1B N1B C8B N2B 52.3(5)
C9B N1B C8B N2B -70.5(4)
C1B N1B C9B C10B -76.9(4)
C8B N1B C9B C10B 45.5(4)
N1B C9B C10B C11B 166.5(4)
N1B C9B C10B C15B -10.5(5)
C15B C10B C11B C12B 2.4(6)
C9B C10B C11B C12B -174.6(4)
C10B C11B C12B C13B -1.4(7)
C10B C11B C12B C16B 178.6(12)
C10B C11B C12B Br2B -179.4(4)
C11B C12B C13B C14B -0.2(6)
C16B C12B C13B C14B 179.8(12)
Br2B C12B C13B C14B 177.8(4)
C12B C13B C14B C15B 0.7(6)
C13B C14B C15B C10B 0.3(6)
C13B C14B C15B N2B -179.0(4)
C11B C10B C15B C14B -1.9(6)
C9B C10B C15B C14B 175.1(4)
C11B C10B C15B N2B 177.5(4)
C9B C10B C15B N2B -5.5(6)
C8B N2B C15B C14B 163.9(4)
C7B N2B C15B C14B -75.5(4)
C8B N2B C15B C10B -15.4(5)
C7B N2B C15B C10B 105.2(4)
