#------------------------------------------------------------------------------
#$Date: 2016-03-26 22:31:53 +0200 (Sat, 26 Mar 2016) $
#$Revision: 180509 $
#$URL: svn://www.crystallography.net/cod/cif/7/21/78/7217867.cif $
#------------------------------------------------------------------------------
#
# This file is available in the Crystallography Open Database (COD),
# http://www.crystallography.net/
#
# All data on this site have been placed in the public domain by the
# contributors.
#
data_7217867
loop_
_publ_author_name
'Leyssens, T.'
'Tumanova, N.'
'Robeyns, K.'
'Candoni, N.'
'Veesler, S.'
_publ_section_title
;
 Solution cocrystallization, an effective tool to explore the variety of
 cocrystal systems: caffeine/dicarboxylic acid cocrystals
;
_journal_issue                   41
_journal_name_full               CrystEngComm
_journal_page_first              9603
_journal_paper_doi               10.1039/C4CE01495B
_journal_volume                  16
_journal_year                    2014
_chemical_absolute_configuration rm
_chemical_formula_moiety         'C8 H10 N4 O2, C4 H6 O5'
_chemical_formula_sum            'C12 H16 N4 O7'
_chemical_formula_weight         328.29
_chemical_name_systematic
;
 ?
;
_space_group_crystal_system      triclinic
_space_group_IT_number           1
_space_group_name_Hall           'P 1'
_space_group_name_H-M_alt        'P 1'
_symmetry_space_group_name_Hall  'P 1'
_symmetry_space_group_name_H-M   'P 1'
_atom_sites_solution_hydrogens   geom
_audit_creation_method           SHELXL-2014
_cell_angle_alpha                85.131(10)
_cell_angle_beta                 65.297(13)
_cell_angle_gamma                71.185(11)
_cell_formula_units_Z            2
_cell_length_a                   9.1390(11)
_cell_length_b                   9.3060(10)
_cell_length_c                   9.7714(12)
_cell_measurement_reflns_used    4122
_cell_measurement_temperature    150(2)
_cell_measurement_theta_max      25.2981
_cell_measurement_theta_min      2.2935
_cell_volume                     713.44(17)
_computing_cell_refinement
;
CrysAlisPro, Agilent Technologies,
Version 1.171.35.19 (release 27-10-2011 CrysAlis171 .NET)
(compiled Oct 27 2011,15:02:11)
;
_computing_data_collection       MAR
_computing_data_reduction
;
CrysAlisPro, Agilent Technologies,
Version 1.171.35.19 (release 27-10-2011 CrysAlis171 .NET)
(compiled Oct 27 2011,15:02:11)
;
_computing_molecular_graphics    'MERCURY (Macrae et al., 2008)'
_computing_publication_material
;

'MERCURY (Macrae et al., 2008), Platon (Spek, 2009)'



;
_computing_structure_refinement  'SHELXL-2014 (Sheldrick, 2014)'
_computing_structure_solution    'SHELXS-97 (Sheldrick, 1990)'
_diffrn_ambient_temperature      150(2)
_diffrn_measured_fraction_theta_full 0.929
_diffrn_measured_fraction_theta_max 0.928
_diffrn_measurement_device_type  'MAR345 image plate'
_diffrn_measurement_method       '150 images, \D\F 1.5\% '
_diffrn_radiation_monochromator  'Zr filter'
_diffrn_radiation_source         'Rigaku UltraX 18 rotating anode'
_diffrn_radiation_type           MoK\a
_diffrn_radiation_wavelength     0.71073
_diffrn_reflns_av_R_equivalents  0.0219
_diffrn_reflns_av_unetI/netI     0.0257
_diffrn_reflns_Laue_measured_fraction_full 0.929
_diffrn_reflns_Laue_measured_fraction_max 0.928
_diffrn_reflns_limit_h_max       10
_diffrn_reflns_limit_h_min       -10
_diffrn_reflns_limit_k_max       11
_diffrn_reflns_limit_k_min       -11
_diffrn_reflns_limit_l_max       11
_diffrn_reflns_limit_l_min       -11
_diffrn_reflns_number            5903
_diffrn_reflns_point_group_measured_fraction_full 0.894
_diffrn_reflns_point_group_measured_fraction_max 0.890
_diffrn_reflns_theta_full        25.242
_diffrn_reflns_theta_max         25.353
_diffrn_reflns_theta_min         2.316
_exptl_absorpt_coefficient_mu    0.127
_exptl_absorpt_correction_T_max  1.00000
_exptl_absorpt_correction_T_min  0.95964
_exptl_absorpt_correction_type   multi-scan
_exptl_absorpt_process_details
;
CrysAlisPro, Agilent Technologies,
Version 1.171.35.19 (release 27-10-2011 CrysAlis171 .NET)
(compiled Oct 27 2011,15:02:11)
Empirical absorption correction using spherical harmonics,
 implemented in SCALE3 ABSPACK scaling algorithm.
;
_exptl_crystal_colour            colourless
_exptl_crystal_density_diffrn    1.528
_exptl_crystal_description       block
_exptl_crystal_F_000             344
_exptl_crystal_size_max          0.37
_exptl_crystal_size_mid          0.27
_exptl_crystal_size_min          0.27
_refine_diff_density_max         0.377
_refine_diff_density_min         -0.269
_refine_diff_density_rms         0.046
_refine_ls_abs_structure_details
;
 Flack x determined using 1965 quotients [(I+)-(I-)]/[(I+)+(I-)]
 (Parsons, Flack and Wagner, Acta Cryst. B69 (2013) 249-259).
;
_refine_ls_abs_structure_Flack   0.8(10)
_refine_ls_extinction_method     none
_refine_ls_goodness_of_fit_ref   1.059
_refine_ls_hydrogen_treatment    constr
_refine_ls_matrix_type           full
_refine_ls_number_parameters     505
_refine_ls_number_reflns         4640
_refine_ls_number_restraints     57
_refine_ls_restrained_S_all      1.068
_refine_ls_R_factor_all          0.0609
_refine_ls_R_factor_gt           0.0580
_refine_ls_shift/su_max          0.000
_refine_ls_shift/su_mean         0.000
_refine_ls_structure_factor_coef Fsqd
_refine_ls_weighting_details
'w=1/[\s^2^(Fo^2^)+(0.0997P)^2^+0.2849P] where P=(Fo^2^+2Fc^2^)/3'
_refine_ls_weighting_scheme      calc
_refine_ls_wR_factor_gt          0.1558
_refine_ls_wR_factor_ref         0.1595
_reflns_Friedel_coverage         0.918
_reflns_Friedel_fraction_full    0.859
_reflns_Friedel_fraction_max     0.852
_reflns_number_gt                4347
_reflns_number_total             4640
_reflns_threshold_expression     'I > 2\s(I)'
_cod_data_source_file            c4ce01495b2.cif
_cod_data_source_block           tllm013
_cod_depositor_comments
'Adding full bibliography for 7217867--7217872.cif.'
_cod_original_cell_volume        713.43(16)
_cod_database_code               7217867
#BEGIN Tags that were not found in dictionaries:
_shelx_space_group_comment
;
The symmetry employed for this shelxl refinement is uniquely defined
by the following loop, which should always be used as a source of
symmetry information in preference to the above space-group names.
They are only intended as comments.
;
_shelxl_version_number           2014-3
_shelx_res_file
;
TITL tllm013 in P1
CELL 0.71073   9.139020   9.305957   9.771407  85.1311  65.2968  71.1850
ZERR    2.00   0.001055   0.001010   0.001235   0.0096   0.0126   0.0108
LATT -1
SFAC C  H  N  O
UNIT 24 32 8 14
OMIT     0  -1   0
OMIT     0   0  -1
L.S. 10
ACTA
BOND $H
FMAP 2
PLAN 20
CONF
HTAB

TEMP -123
WGHT    0.099700    0.284900
FVAR       5.11409   0.62176
MOLE 1
N1    3    0.659999   -0.113179    0.564484    11.00000    0.04661    0.03750 =
         0.04938   -0.00242   -0.01215   -0.02319
C2    1    0.708020   -0.154899    0.420078    11.00000    0.05712    0.03452 =
         0.04955   -0.00260   -0.01831   -0.02133
AFIX  43
H2    2    0.681112   -0.234040    0.390081    11.00000   -1.20000
AFIX   0
N3    3    0.798945   -0.071914    0.321901    11.00000    0.04578    0.03343 =
         0.03802   -0.00343   -0.01237   -0.01654
C4    1    0.810850    0.030020    0.407644    11.00000    0.03566    0.02800 =
         0.03779   -0.00387   -0.01284   -0.00726
C5    1    0.722823    0.002529    0.555279    11.00000    0.03182    0.02701 =
         0.04815   -0.00378   -0.01141   -0.01318
N6    3    0.711477    0.081034    0.673644    11.00000    0.04372    0.03508 =
         0.03161   -0.00013   -0.00879   -0.01607
C7    1    0.782958    0.194935    0.646764    11.00000    0.03770    0.03405 =
         0.03968   -0.00338   -0.01196   -0.01206
N8    3    0.864888    0.225646    0.494644    11.00000    0.04118    0.03006 =
         0.03558    0.00028   -0.01205   -0.01600
C9    1    0.887681    0.146714    0.368643    11.00000    0.03385    0.02908 =
         0.03954    0.00346   -0.01519   -0.01043
C10   1    0.875335   -0.092511    0.156245    11.00000    0.07209    0.04242 =
         0.03865   -0.00686   -0.01757   -0.01809
AFIX 137
H10A  2    0.843294   -0.171633    0.126339    11.00000   -1.50000
H10B  2    0.999257   -0.122940    0.118390    11.00000   -1.50000
H10C  2    0.834319    0.003325    0.113701    11.00000   -1.50000
AFIX   0
C11   1    0.619803    0.045905    0.830108    11.00000    0.05555    0.04523 =
         0.03375   -0.00004   -0.00365   -0.02179
AFIX 137
H11A  2    0.668682    0.069638    0.894133    11.00000   -1.50000
H11B  2    0.630045   -0.062326    0.833549    11.00000   -1.50000
H11C  2    0.499657    0.107020    0.866794    11.00000   -1.50000
AFIX   0
O12   4    0.777888    0.266070    0.749743    11.00000    0.06522    0.04834 =
         0.04288   -0.00159   -0.01881   -0.02806
C13   1    0.934068    0.353207    0.465991    11.00000    0.05282    0.03865 =
         0.05201   -0.00051   -0.01727   -0.02548
AFIX 137
H13A  2    1.057829    0.313483    0.430494    11.00000   -1.50000
H13B  2    0.885314    0.416350    0.559483    11.00000   -1.50000
H13C  2    0.905118    0.414709    0.388921    11.00000   -1.50000
AFIX   0
O14   4    0.967826    0.178590    0.238891    11.00000    0.05112    0.03541 =
         0.03858    0.00434   -0.01491   -0.01900

N15   3    0.342420    1.107386    0.437881    11.00000    0.05258    0.03443 =
         0.03454    0.00261   -0.01017   -0.02170
C16   1    0.290206    1.146854    0.583806    11.00000    0.05027    0.04413 =
         0.04077   -0.00349   -0.01294   -0.02607
AFIX  43
H16   2    0.317463    1.224239    0.616343    11.00000   -1.20000
AFIX   0
N17   3    0.196693    1.067146    0.678302    11.00000    0.04555    0.04717 =
         0.03436    0.00070   -0.01516   -0.01762
C18   1    0.187860    0.965475    0.587966    11.00000    0.03910    0.03538 =
         0.03712    0.00803   -0.01421   -0.01714
C19   1    0.274474    0.995264    0.443236    11.00000    0.04359    0.02704 =
         0.02892    0.00469   -0.01336   -0.01286
N20   3    0.288314    0.920335    0.323118    11.00000    0.04559    0.02968 =
         0.03710    0.00035   -0.01679   -0.01389
C21   1    0.213725    0.805989    0.348235    11.00000    0.04711    0.02767 =
         0.04808    0.00050   -0.02242   -0.01296
N22   3    0.131871    0.774258    0.497831    11.00000    0.04126    0.03094 =
         0.06667    0.00582   -0.02695   -0.01731
C23   1    0.108245    0.848706    0.628088    11.00000    0.03938    0.03702 =
         0.04929    0.01454   -0.01896   -0.01879
C24   1    0.118228    1.089318    0.842710    11.00000    0.05819    0.07929 =
         0.03523    0.00433   -0.01658   -0.02594
AFIX 137
H24A  2   -0.004602    1.110256    0.879729    11.00000   -1.50000
H24B  2    0.140445    1.175393    0.872377    11.00000   -1.50000
H24C  2    0.166221    0.997173    0.886276    11.00000   -1.50000
AFIX   0
C25   1    0.386432    0.951177    0.166983    11.00000    0.06788    0.04314 =
         0.03191    0.00239   -0.01171   -0.02002
AFIX 137
H25A  2    0.340660    1.058680    0.150581    11.00000   -1.50000
H25B  2    0.378360    0.887710    0.097021    11.00000   -1.50000
H25C  2    0.505666    0.927694    0.149289    11.00000   -1.50000
AFIX   0
O26   4    0.219265    0.739632    0.244947    11.00000    0.05854    0.05445 =
         0.06610   -0.01861   -0.02663   -0.02087
C27   1    0.062565    0.646762    0.521546    11.00000    0.06242    0.04151 =
         0.09543    0.01408   -0.03668   -0.03487
AFIX 137
H27A  2   -0.054173    0.677869    0.599380    11.00000   -1.50000
H27B  2    0.132613    0.559533    0.554029    11.00000   -1.50000
H27C  2    0.063232    0.618220    0.426977    11.00000   -1.50000
AFIX   0
O28   4    0.030345    0.813118    0.754050    11.00000    0.05008    0.06862 =
         0.05355    0.03000   -0.01765   -0.03336

C31   1    0.533237    0.367530    0.291909    11.00000    0.03491    0.03031 =
         0.07988    0.00524   -0.01228   -0.01455
O32   4    0.506633    0.363781    0.422842    11.00000    0.07574    0.05353 =
         0.05973    0.00312   -0.02318   -0.03786
O33   4    0.509616    0.268262    0.218902    11.00000    0.06854    0.05054 =
         0.04749    0.00682   -0.00930   -0.03380
AFIX  83
H33   2    0.481013    0.200814    0.276964    11.00000   -1.50000
AFIX   0
C34   1    0.583815    0.497482    0.200328    11.00000    0.05844    0.03303 =
         0.06390    0.00319   -0.01563   -0.01459
AFIX  13
H34   2    0.493557    0.553055    0.164965    11.00000   -1.20000
AFIX   0
O35   4    0.597248    0.601591    0.289130    11.00000    0.08551    0.03841 =
         0.07528   -0.01317   -0.02751   -0.01963
AFIX  83
H35   2    0.573331    0.572608    0.377412    11.00000   -1.50000
AFIX   0
C36   1    0.749903    0.439665    0.063450    11.00000    0.05199    0.04160 =
         0.05655    0.01262   -0.01736   -0.01471
AFIX  23
H36A  2    0.741551    0.364285    0.003700    11.00000   -1.20000
H36B  2    0.841375    0.387534    0.096836    11.00000   -1.20000
AFIX   0
C37   1    0.795844    0.566191   -0.035331    11.00000    0.06610    0.04106 =
         0.04624    0.00416   -0.00403   -0.01847
O38   4    0.691536    0.675405   -0.050270    11.00000    0.10750    0.09457 =
         0.19675    0.09584    0.03278    0.01503
O39   4    0.949833    0.536594   -0.119374    11.00000    0.04839    0.16692 =
         0.11883    0.08006   -0.02835   -0.04761
AFIX  83
H39   2    0.966092    0.611701   -0.170466    11.00000   -1.50000
AFIX   0

PART 1
SAME 0.01 C31 > O39
C41   1    0.462157    0.626463    0.716716    21.00000    0.04220    0.01854 =
         0.03234   -0.00358   -0.00768   -0.01244
O42   4    0.553375    0.589704    0.586442    21.00000    0.05807    0.05472 =
         0.03234   -0.00708   -0.00224   -0.03592
O43   4    0.451759    0.746771    0.788139    21.00000    0.06998    0.04260 =
         0.03914    0.00191   -0.00644   -0.03537
AFIX  83
H43   2    0.523803    0.787024    0.730253    21.00000   -1.50000
AFIX   0
C44   1    0.336847    0.545331    0.812691    21.00000    0.05058    0.04178 =
         0.04122    0.00747   -0.01459   -0.03021
AFIX  13
H44   2    0.219523    0.615748    0.835677    21.00000   -1.20000
AFIX   0

O45   4    0.365036    0.418123    0.724258    21.00000    0.10713    0.07102 =
         0.03848    0.00241   -0.01527   -0.07545
AFIX 147
H45   2    0.382662    0.442777    0.635400    21.00000   -1.50000
AFIX   0
C46   1    0.348348    0.497034    0.960075    21.00000    0.04692    0.02867 =
         0.04001   -0.00273   -0.01649   -0.01225
AFIX  23
H46A  2    0.349253    0.583600    1.011686    21.00000   -1.20000
H46B  2    0.455827    0.413505    0.940081    21.00000   -1.20000
AFIX   0
C47   1    0.198343    0.443540    1.062334    21.00000    0.03589    0.04070 =
         0.03066    0.01841   -0.02108   -0.02430
O48   4    0.062352    0.537093    1.130556    21.00000    0.03451    0.03959 =
         0.05691   -0.00099    0.00163   -0.02281
O49   4    0.227271    0.299963    1.069667    21.00000    0.04583    0.02524 =
         0.05266    0.00364   -0.00309   -0.01694
AFIX  83
H49   2    0.145419    0.282103    1.142069    21.00000   -1.50000
AFIX   0

PART 2
SAME 0.01 C31 > O39
C41B  1    0.213739    0.405024    1.040606   -21.00000    0.08818    0.15694 =
         0.03647    0.00205   -0.01074   -0.06605
O42B  4    0.122974    0.489886    1.149749   -21.00000    0.30540    0.10968 =
         0.03157   -0.01086    0.00674   -0.14653
O43B  4    0.204712    0.266734    1.030013   -21.00000    0.05338    0.02884 =
         0.03243   -0.00446    0.00260   -0.03079
AFIX  83
H43B  2    0.112445    0.260405    1.096740   -21.00000   -1.50000
AFIX   0
C44B  1    0.351131    0.441540    0.900193   -21.00000    0.03683    0.02744 =
         0.02802    0.00326   -0.00195   -0.01939
AFIX  13
H44B  2    0.462874    0.394382    0.906702   -21.00000   -1.20000
AFIX   0
O45B  4    0.357580    0.373253    0.771860   -21.00000    0.05055    0.04305 =
         0.02545   -0.00715    0.00620   -0.03453
AFIX 147
H45B  2    0.404228    0.416240    0.694210   -21.00000   -1.50000
AFIX   0

C46B  1    0.316265    0.610059    0.895810   -21.00000    0.03803    0.04338 =
         0.01238   -0.00607    0.00070   -0.02785
AFIX  23
H46C  2    0.319038    0.646694    0.986627   -21.00000   -1.20000
H46D  2    0.199647    0.657669    0.902269   -21.00000   -1.20000
AFIX   0
C47B  1    0.435907    0.664924    0.759240   -21.00000    0.02963    0.01918 =
         0.03248   -0.01216   -0.00908   -0.00908
O48B  4    0.527805    0.585793    0.645548   -21.00000    0.07741    0.05500 =
         0.02479   -0.01810    0.01341   -0.04516
O49B  4    0.432444    0.798822    0.774288   -21.00000    0.04913    0.04616 =
         0.05316    0.00587    0.00198   -0.03247
AFIX  83
H49B  2    0.516791    0.814726    0.703429   -21.00000   -1.50000
PART 0

AFIX   0
HKLF 4

REM  tllm013 in P1
REM R1 =  0.0580 for    4347 Fo > 4sig(Fo)  and  0.0609 for all    4640 data
REM    505 parameters refined using     57 restraints

END

WGHT      0.1022      0.2815

REM Instructions for potential hydrogen bonds
EQIV $1 x, y-1, z
HTAB C2 O35_$1
HTAB C2 O42_$1
EQIV $2 x, y-1, z+1
HTAB C11 O38_$2
HTAB C11 O49
HTAB C11 O43B
EQIV $3 x+1, y, z-1
HTAB C13 O42B_$3
EQIV $4 x, y+1, z
HTAB C16 O32_$4
HTAB C16 O45_$4
HTAB C16 O45B_$4
HTAB C24 O43B_$4
HTAB C24 O49B
EQIV $5 x, y+1, z-1
HTAB C25 O49_$5
HTAB C25 O43B_$5
HTAB O33 N15_$1
HTAB C34 O26
HTAB O35 O32
HTAB O35 O42
HTAB O35 O48B
EQIV $6 x, y, z-1
HTAB C36 O12_$6
HTAB C36 O14
HTAB O39 O28_$3
HTAB O43 N1_$4
HTAB C44 O28
EQIV $7 x-1, y, z+1
HTAB C44 O39_$7
HTAB O45 O32
EQIV $8 x, y, z+1
HTAB C46 O26_$8
HTAB O49 O14_$7
HTAB O43B O14_$7
HTAB C44B O12
HTAB O45B O32
HTAB O45B O48B
HTAB C46B O26_$8
HTAB C46B O28
HTAB O49B N1_$4

REM Highest difference peak  0.377,  deepest hole -0.269,  1-sigma level  0.046
Q1    1   0.8185  0.7033 -0.0412  11.00000  0.05    0.38
Q2    1   0.7517  0.5035  0.1394  11.00000  0.05    0.34
Q3    1   0.6786  0.6673 -0.0749  11.00000  0.05    0.28
Q4    1   0.6058  0.4314  0.0997  11.00000  0.05    0.27
Q5    1   0.6769  0.6449  0.2295  11.00000  0.05    0.25
Q6    1   0.9851  0.4453 -0.1135  11.00000  0.05    0.22
Q7    1   0.6741  0.2482  0.8546  11.00000  0.05    0.21
Q8    1   0.2993  0.9363  0.5015  11.00000  0.05    0.20
Q9    1   0.3206  0.7323  0.1554  11.00000  0.05    0.18
Q10   1   0.7376  0.7574 -0.1255  11.00000  0.05    0.17
Q11   1   0.2455  0.4997  0.8550  11.00000  0.05    0.17
Q12   1   0.3268  0.3254  1.0745  11.00000  0.05    0.17
Q13   1   0.4392  0.2776  0.7909  11.00000  0.05    0.16
Q14   1   0.5574  0.4751  0.4041  11.00000  0.05    0.16
Q15   1   0.2302  1.0944  0.6578  11.00000  0.05    0.16
Q16   1   0.4657  0.5150  0.6082  11.00000  0.05    0.15
Q17   1   0.4014  1.0175  0.4937  11.00000  0.05    0.15
Q18   1   0.4681  0.8328  0.0988  11.00000  0.05    0.15
Q19   1   0.6326  0.3213  0.3441  11.00000  0.05    0.15
Q20   1   0.4137  0.5837  0.7511  11.00000  0.05    0.15
;
_shelx_res_checksum              94200
#END Tags that were not found in dictionaries
loop_
_space_group_symop_operation_xyz
'x, y, z'
loop_
_atom_site_label
_atom_site_type_symbol
_atom_site_fract_x
_atom_site_fract_y
_atom_site_fract_z
_atom_site_U_iso_or_equiv
_atom_site_adp_type
_atom_site_occupancy
_atom_site_site_symmetry_order
_atom_site_calc_flag
_atom_site_refinement_flags_posn
_atom_site_refinement_flags_adp
_atom_site_refinement_flags_occupancy
_atom_site_disorder_assembly
_atom_site_disorder_group
N1 N 0.6600(6) -0.1132(5) 0.5645(6) 0.0443(12) Uani 1 1 d . . . . .
C2 C 0.7080(8) -0.1549(6) 0.4201(7) 0.0463(14) Uani 1 1 d . . . . .
H2 H 0.6811 -0.2340 0.3901 0.056 Uiso 1 1 calc R U . . .
N3 N 0.7989(6) -0.0719(5) 0.3219(5) 0.0394(11) Uani 1 1 d . . . . .
C4 C 0.8109(7) 0.0300(6) 0.4076(6) 0.0350(11) Uani 1 1 d . . . . .
C5 C 0.7228(7) 0.0025(5) 0.5553(6) 0.0361(12) Uani 1 1 d . . . . .
N6 N 0.7115(6) 0.0810(5) 0.6736(5) 0.0381(11) Uani 1 1 d . . . . .
C7 C 0.7830(7) 0.1949(6) 0.6468(6) 0.0380(13) Uani 1 1 d . . . . .
N8 N 0.8649(6) 0.2256(5) 0.4946(5) 0.0356(10) Uani 1 1 d . . . . .
C9 C 0.8877(7) 0.1467(6) 0.3686(6) 0.0341(12) Uani 1 1 d . . . . .
C10 C 0.8753(9) -0.0925(7) 0.1562(7) 0.0524(15) Uani 1 1 d . . . . .
H10A H 0.8433 -0.1716 0.1263 0.079 Uiso 1 1 calc R U . . .
H10B H 0.9993 -0.1229 0.1184 0.079 Uiso 1 1 calc R U . . .
H10C H 0.8343 0.0033 0.1137 0.079 Uiso 1 1 calc R U . . .
C11 C 0.6198(8) 0.0459(7) 0.8301(7) 0.0484(15) Uani 1 1 d . . . . .
H11A H 0.6687 0.0696 0.8941 0.073 Uiso 1 1 calc R U . . .
H11B H 0.6300 -0.0623 0.8335 0.073 Uiso 1 1 calc R U . . .
H11C H 0.4997 0.1070 0.8668 0.073 Uiso 1 1 calc R U . . .
O12 O 0.7779(6) 0.2661(5) 0.7497(5) 0.0505(11) Uani 1 1 d . . . . .
C13 C 0.9341(8) 0.3532(6) 0.4660(7) 0.0463(14) Uani 1 1 d . . . . .
H13A H 1.0578 0.3135 0.4305 0.069 Uiso 1 1 calc R U . . .
H13B H 0.8853 0.4163 0.5595 0.069 Uiso 1 1 calc R U . . .
H13C H 0.9051 0.4147 0.3889 0.069 Uiso 1 1 calc R U . . .
O14 O 0.9678(5) 0.1786(4) 0.2389(4) 0.0418(9) Uani 1 1 d . . . . .
N15 N 0.3424(6) 1.1074(5) 0.4379(5) 0.0413(11) Uani 1 1 d . . . . .
C16 C 0.2902(8) 1.1469(7) 0.5838(7) 0.0438(13) Uani 1 1 d . . . . .
H16 H 0.3175 1.2242 0.6163 0.053 Uiso 1 1 calc R U . . .
N17 N 0.1967(6) 1.0671(5) 0.6783(5) 0.0420(11) Uani 1 1 d . . . . .
C18 C 0.1879(7) 0.9655(6) 0.5880(6) 0.0367(12) Uani 1 1 d . . . . .
C19 C 0.2745(7) 0.9953(5) 0.4432(5) 0.0335(12) Uani 1 1 d . . . . .
N20 N 0.2883(6) 0.9203(5) 0.3231(5) 0.0370(10) Uani 1 1 d . . . . .
C21 C 0.2137(8) 0.8060(6) 0.3482(7) 0.0396(13) Uani 1 1 d . . . . .
N22 N 0.1319(6) 0.7743(5) 0.4978(6) 0.0433(11) Uani 1 1 d . . . . .
C23 C 0.1082(7) 0.8487(6) 0.6281(6) 0.0407(14) Uani 1 1 d . . . . .
C24 C 0.1182(9) 1.0893(9) 0.8427(7) 0.0575(17) Uani 1 1 d . . . . .
H24A H -0.0046 1.1103 0.8797 0.086 Uiso 1 1 calc R U . . .
H24B H 0.1404 1.1754 0.8724 0.086 Uiso 1 1 calc R U . . .
H24C H 0.1662 0.9972 0.8863 0.086 Uiso 1 1 calc R U . . .
C25 C 0.3864(9) 0.9512(7) 0.1670(6) 0.0502(15) Uani 1 1 d . . . . .
H25A H 0.3407 1.0587 0.1506 0.075 Uiso 1 1 calc R U . . .
H25B H 0.3784 0.8877 0.0970 0.075 Uiso 1 1 calc R U . . .
H25C H 0.5057 0.9277 0.1493 0.075 Uiso 1 1 calc R U . . .
O26 O 0.2193(6) 0.7396(5) 0.2449(6) 0.0572(12) Uani 1 1 d . . . . .
C27 C 0.0626(9) 0.6468(7) 0.5215(10) 0.0608(19) Uani 1 1 d . . . . .
H27A H -0.0542 0.6779 0.5994 0.091 Uiso 1 1 calc R U . . .
H27B H 0.1326 0.5595 0.5540 0.091 Uiso 1 1 calc R U . . .
H27C H 0.0632 0.6182 0.4270 0.091 Uiso 1 1 calc R U . . .
O28 O 0.0303(6) 0.8131(6) 0.7540(5) 0.0567(12) Uani 1 1 d . . . . .
C31 C 0.5332(7) 0.3675(6) 0.2919(8) 0.0515(17) Uani 1 1 d D . . . .
O32 O 0.5066(6) 0.3638(5) 0.4228(5) 0.0601(13) Uani 1 1 d D . . . .
O33 O 0.5096(6) 0.2683(5) 0.2189(5) 0.0571(11) Uani 1 1 d D . . . .
H33 H 0.4810 0.2008 0.2770 0.086 Uiso 1 1 calc R U . . .
C34 C 0.5838(8) 0.4975(6) 0.2003(7) 0.0552(16) Uani 1 1 d D . . . .
H34 H 0.4936 0.5531 0.1650 0.066 Uiso 1 1 calc R U . . .
O35 O 0.5972(7) 0.6016(5) 0.2891(6) 0.0674(14) Uani 1 1 d D . . . .
H35 H 0.5733 0.5726 0.3774 0.101 Uiso 1 1 calc R U . . .
C36 C 0.7499(8) 0.4397(6) 0.0635(7) 0.0525(14) Uani 1 1 d D . . . .
H36A H 0.7416 0.3643 0.0037 0.063 Uiso 1 1 calc R U . . .
H36B H 0.8414 0.3875 0.0968 0.063 Uiso 1 1 calc R U . . .
C37 C 0.7958(9) 0.5662(7) -0.0353(7) 0.0577(18) Uani 1 1 d D . . . .
O38 O 0.6915(10) 0.6754(9) -0.0503(12) 0.185(6) Uani 1 1 d D . . . .
O39 O 0.9498(7) 0.5366(9) -0.1194(8) 0.115(3) Uani 1 1 d D . . . .
H39 H 0.9661 0.6117 -0.1705 0.172 Uiso 1 1 calc R U . . .
C41 C 0.462(2) 0.6265(16) 0.7167(14) 0.033(4) Uani 0.622(12) 1 d D . P A 1
O42 O 0.5534(17) 0.5897(16) 0.5864(11) 0.049(2) Uani 0.622(12) 1 d D . P A 1
O43 O 0.452(2) 0.7468(14) 0.7881(15) 0.052(3) Uani 0.622(12) 1 d D . P A 1
H43 H 0.5238 0.7870 0.7303 0.078 Uiso 0.622(12) 1 calc R U P A 1
C44 C 0.3368(12) 0.5453(9) 0.8127(9) 0.042(2) Uani 0.622(12) 1 d D . P A 1
H44 H 0.2195 0.6157 0.8357 0.051 Uiso 0.622(12) 1 calc R U P A 1
O45 O 0.365(2) 0.4181(14) 0.7243(11) 0.065(4) Uani 0.622(12) 1 d D . P A 1
H45 H 0.3827 0.4428 0.6354 0.097 Uiso 0.622(12) 1 calc R U P A 1
C46 C 0.3483(10) 0.4970(9) 0.9601(8) 0.039(2) Uani 0.622(12) 1 d D . P A 1
H46A H 0.3493 0.5836 1.0117 0.046 Uiso 0.622(12) 1 calc R U P A 1
H46B H 0.4558 0.4135 0.9401 0.046 Uiso 0.622(12) 1 calc R U P A 1
C47 C 0.1983(13) 0.4435(13) 1.0623(14) 0.031(2) Uani 0.622(12) 1 d D . P A 1
O48 O 0.0624(9) 0.5371(11) 1.1306(11) 0.048(2) Uani 0.622(12) 1 d D . P A 1
O49 O 0.2273(12) 0.3000(9) 1.0697(12) 0.046(2) Uani 0.622(12) 1 d D . P A 1
H49 H 0.1454 0.2821 1.1421 0.069 Uiso 0.622(12) 1 calc R U P A 1
C41B C 0.214(4) 0.405(3) 1.041(2) 0.092(16) Uani 0.378(12) 1 d D . P A 2
O42B O 0.123(5) 0.490(3) 1.150(2) 0.154(16) Uani 0.378(12) 1 d D . P A 2
O43B O 0.205(2) 0.2667(15) 1.0300(15) 0.040(3) Uani 0.378(12) 1 d D . P A 2
H43B H 0.1124 0.2604 1.0967 0.061 Uiso 0.378(12) 1 calc R U P A 2
C44B C 0.3511(15) 0.4415(12) 0.9002(12) 0.033(3) Uani 0.378(12) 1 d D . P A 2
H44B H 0.4629 0.3944 0.9067 0.039 Uiso 0.378(12) 1 calc R U P A 2
O45B O 0.3576(18) 0.3733(15) 0.7719(12) 0.042(3) Uani 0.378(12) 1 d D . P A 2
H45B H 0.4042 0.4162 0.6942 0.063 Uiso 0.378(12) 1 calc R U P A 2
C46B C 0.3163(16) 0.6101(12) 0.8958(11) 0.031(3) Uani 0.378(12) 1 d D . P A 2
H46C H 0.3190 0.6467 0.9866 0.037 Uiso 0.378(12) 1 calc R U P A 2
H46D H 0.1996 0.6577 0.9023 0.037 Uiso 0.378(12) 1 calc R U P A 2
C47B C 0.436(3) 0.665(2) 0.759(2) 0.027(5) Uani 0.378(12) 1 d D . P A 2
O48B O 0.528(3) 0.586(2) 0.6455(18) 0.057(6) Uani 0.378(12) 1 d D . P A 2
O49B O 0.432(3) 0.7988(19) 0.774(3) 0.053(6) Uani 0.378(12) 1 d D . P A 2
H49B H 0.5168 0.8147 0.7034 0.080 Uiso 0.378(12) 1 calc R U P A 2
loop_
_atom_site_aniso_label
_atom_site_aniso_U_11
_atom_site_aniso_U_22
_atom_site_aniso_U_33
_atom_site_aniso_U_23
_atom_site_aniso_U_13
_atom_site_aniso_U_12
N1 0.047(3) 0.038(2) 0.049(3) -0.002(2) -0.012(2) -0.023(2)
C2 0.057(4) 0.035(3) 0.050(3) -0.003(2) -0.018(3) -0.021(2)
N3 0.046(3) 0.033(2) 0.038(2) -0.0034(17) -0.012(2) -0.0165(19)
C4 0.036(3) 0.028(2) 0.038(3) -0.004(2) -0.013(2) -0.007(2)
C5 0.032(3) 0.027(3) 0.048(3) -0.004(2) -0.011(2) -0.013(2)
N6 0.044(3) 0.035(2) 0.032(2) -0.0001(18) -0.0088(19) -0.0161(19)
C7 0.038(3) 0.034(3) 0.040(3) -0.003(2) -0.012(2) -0.012(2)
N8 0.041(3) 0.030(2) 0.036(2) 0.0003(17) -0.0121(18) -0.0160(18)
C9 0.034(3) 0.029(3) 0.040(3) 0.003(2) -0.015(2) -0.010(2)
C10 0.072(4) 0.042(3) 0.039(3) -0.007(2) -0.018(3) -0.018(3)
C11 0.056(4) 0.045(3) 0.034(3) 0.000(2) -0.004(2) -0.022(3)
O12 0.065(3) 0.048(2) 0.043(2) -0.0016(17) -0.0188(19) -0.028(2)
C13 0.053(4) 0.039(3) 0.052(3) -0.001(2) -0.017(3) -0.025(3)
O14 0.051(2) 0.035(2) 0.039(2) 0.0043(15) -0.0149(17) -0.0190(17)
N15 0.053(3) 0.034(2) 0.035(2) 0.0026(18) -0.010(2) -0.0217(19)
C16 0.050(3) 0.044(3) 0.041(3) -0.003(2) -0.013(2) -0.026(2)
N17 0.046(3) 0.047(3) 0.034(2) 0.0007(19) -0.015(2) -0.018(2)
C18 0.039(3) 0.035(3) 0.037(3) 0.008(2) -0.014(2) -0.017(2)
C19 0.044(3) 0.027(2) 0.029(2) 0.0047(19) -0.013(2) -0.013(2)
N20 0.046(3) 0.030(2) 0.037(2) 0.0003(17) -0.0168(19) -0.0139(18)
C21 0.047(3) 0.028(3) 0.048(3) 0.000(2) -0.022(3) -0.013(2)
N22 0.041(3) 0.031(2) 0.067(3) 0.006(2) -0.027(2) -0.0173(19)
C23 0.039(3) 0.037(3) 0.049(3) 0.015(2) -0.019(3) -0.019(2)
C24 0.058(4) 0.079(5) 0.035(3) 0.004(3) -0.017(3) -0.026(3)
C25 0.068(4) 0.043(3) 0.032(3) 0.002(2) -0.012(3) -0.020(3)
O26 0.059(3) 0.054(3) 0.066(3) -0.019(2) -0.027(2) -0.021(2)
C27 0.062(5) 0.042(3) 0.095(6) 0.014(3) -0.037(4) -0.035(3)
O28 0.050(3) 0.069(3) 0.054(3) 0.030(2) -0.018(2) -0.033(2)
C31 0.035(3) 0.030(3) 0.080(5) 0.005(3) -0.012(3) -0.015(2)
O32 0.076(3) 0.054(3) 0.060(3) 0.003(2) -0.023(2) -0.038(2)
O33 0.069(3) 0.051(2) 0.047(2) 0.0068(18) -0.0093(19) -0.034(2)
C34 0.058(4) 0.033(3) 0.064(4) 0.003(2) -0.016(3) -0.015(3)
O35 0.086(4) 0.038(2) 0.075(3) -0.013(2) -0.028(3) -0.020(2)
C36 0.052(3) 0.042(3) 0.057(3) 0.013(2) -0.017(3) -0.015(2)
C37 0.066(4) 0.041(3) 0.046(3) 0.004(2) -0.004(3) -0.018(3)
O38 0.107(5) 0.095(5) 0.197(8) 0.096(6) 0.033(5) 0.015(4)
O39 0.048(3) 0.167(7) 0.119(5) 0.080(5) -0.028(3) -0.048(4)
C41 0.042(8) 0.019(7) 0.032(10) -0.004(7) -0.008(7) -0.012(7)
O42 0.058(6) 0.055(5) 0.032(6) -0.007(5) -0.002(5) -0.036(4)
O43 0.070(7) 0.043(7) 0.039(5) 0.002(6) -0.006(4) -0.035(7)
C44 0.051(5) 0.042(5) 0.041(5) 0.007(4) -0.015(4) -0.030(4)
O45 0.107(10) 0.071(6) 0.038(5) 0.002(4) -0.015(6) -0.075(7)
C46 0.047(5) 0.029(4) 0.040(5) -0.003(4) -0.016(4) -0.012(3)
C47 0.036(6) 0.041(5) 0.031(6) 0.018(5) -0.021(5) -0.024(4)
O48 0.035(4) 0.040(4) 0.057(6) -0.001(3) 0.002(3) -0.023(3)
O49 0.046(4) 0.025(4) 0.053(6) 0.004(4) -0.003(3) -0.017(3)
C41B 0.09(2) 0.16(4) 0.036(14) 0.00(2) -0.011(12) -0.07(2)
O42B 0.31(4) 0.110(19) 0.032(8) -0.011(13) 0.007(18) -0.15(2)
O43B 0.053(7) 0.029(6) 0.032(6) -0.004(4) 0.003(5) -0.031(5)
C44B 0.037(7) 0.027(7) 0.028(6) 0.003(5) -0.002(5) -0.019(5)
O45B 0.051(6) 0.043(7) 0.025(6) -0.007(5) 0.006(5) -0.035(6)
C46B 0.038(7) 0.043(7) 0.012(5) -0.006(5) 0.001(4) -0.028(5)
C47B 0.030(10) 0.019(13) 0.032(11) -0.012(8) -0.009(8) -0.009(9)
O48B 0.077(12) 0.055(9) 0.025(11) -0.018(10) 0.013(10) -0.045(9)
O49B 0.049(9) 0.046(11) 0.053(9) 0.006(8) 0.002(6) -0.032(9)
loop_
_atom_type_symbol
_atom_type_description
_atom_type_scat_dispersion_real
_atom_type_scat_dispersion_imag
_atom_type_scat_source
C C 0.0033 0.0016 'International Tables Vol C Tables 4.2.6.8 and 6.1.1.4'
H H 0.0000 0.0000 'International Tables Vol C Tables 4.2.6.8 and 6.1.1.4'
N N 0.0061 0.0033 'International Tables Vol C Tables 4.2.6.8 and 6.1.1.4'
O O 0.0106 0.0060 'International Tables Vol C Tables 4.2.6.8 and 6.1.1.4'
loop_
_geom_angle_atom_site_label_1
_geom_angle_atom_site_label_2
_geom_angle_atom_site_label_3
_geom_angle
C2 N1 C5 104.0(5)
N1 C2 N3 112.6(5)
N1 C2 H2 123.7
N3 C2 H2 123.7
C2 N3 C4 106.4(5)
C2 N3 C10 126.2(5)
C4 N3 C10 127.4(5)
N3 C4 C5 105.5(5)
N3 C4 C9 132.3(5)
C5 C4 C9 122.1(5)
N1 C5 N6 126.5(5)
N1 C5 C4 111.5(5)
N6 C5 C4 121.9(5)
C7 N6 C5 119.9(4)
C7 N6 C11 119.6(5)
C5 N6 C11 120.4(5)
O12 C7 N6 121.8(5)
O12 C7 N8 121.4(5)
N6 C7 N8 116.8(5)
C9 N8 C7 126.4(5)
C9 N8 C13 116.7(4)
C7 N8 C13 116.8(5)
O14 C9 N8 121.6(5)
O14 C9 C4 125.8(5)
N8 C9 C4 112.6(5)
N3 C10 H10A 109.5
N3 C10 H10B 109.5
H10A C10 H10B 109.5
N3 C10 H10C 109.5
H10A C10 H10C 109.5
H10B C10 H10C 109.5
N6 C11 H11A 109.5
N6 C11 H11B 109.5
H11A C11 H11B 109.5
N6 C11 H11C 109.5
H11A C11 H11C 109.5
H11B C11 H11C 109.5
N8 C13 H13A 109.5
N8 C13 H13B 109.5
H13A C13 H13B 109.5
N8 C13 H13C 109.5
H13A C13 H13C 109.5
H13B C13 H13C 109.5
C16 N15 C19 103.6(5)
N17 C16 N15 113.5(5)
N17 C16 H16 123.3
N15 C16 H16 123.3
C16 N17 C18 105.8(5)
C16 N17 C24 125.3(5)
C18 N17 C24 128.9(5)
C19 C18 N17 106.1(5)
C19 C18 C23 123.4(5)
N17 C18 C23 130.5(5)
N20 C19 C18 122.7(5)
N20 C19 N15 126.3(5)
C18 C19 N15 111.1(5)
C19 N20 C21 119.0(5)
C19 N20 C25 122.0(5)
C21 N20 C25 118.9(5)
O26 C21 N22 122.2(6)
O26 C21 N20 121.1(6)
N22 C21 N20 116.8(5)
C21 N22 C23 127.7(5)
C21 N22 C27 115.9(5)
C23 N22 C27 116.4(5)
O28 C23 N22 121.9(6)
O28 C23 C18 127.8(6)
N22 C23 C18 110.3(5)
N17 C24 H24A 109.5
N17 C24 H24B 109.5
H24A C24 H24B 109.5
N17 C24 H24C 109.5
H24A C24 H24C 109.5
H24B C24 H24C 109.5
N20 C25 H25A 109.5
N20 C25 H25B 109.5
H25A C25 H25B 109.5
N20 C25 H25C 109.5
H25A C25 H25C 109.5
H25B C25 H25C 109.5
N22 C27 H27A 109.5
N22 C27 H27B 109.5
H27A C27 H27B 109.5
N22 C27 H27C 109.5
H27A C27 H27C 109.5
H27B C27 H27C 109.5
O32 C31 O33 124.0(5)
O32 C31 C34 120.6(6)
O33 C31 C34 115.1(6)
C31 O33 H33 109.5
O35 C34 C36 109.3(5)
O35 C34 C31 111.2(5)
C36 C34 C31 111.4(4)
O35 C34 H34 108.2
C36 C34 H34 108.2
C31 C34 H34 108.2
C34 O35 H35 109.5
C34 C36 C37 112.2(4)
C34 C36 H36A 109.2
C37 C36 H36A 109.2
C34 C36 H36B 109.2
C37 C36 H36B 109.2
H36A C36 H36B 107.9
O38 C37 O39 121.6(6)
O38 C37 C36 122.6(7)
O39 C37 C36 114.6(6)
C37 O39 H39 109.5
O42 C41 O43 123.9(11)
O42 C41 C44 122.5(11)
O43 C41 C44 113.4(11)
C41 O43 H43 109.5
O45 C44 C46 110.8(8)
O45 C44 C41 107.3(8)
C46 C44 C41 114.1(8)
O45 C44 H44 108.2
C46 C44 H44 108.2
C41 C44 H44 108.2
C44 O45 H45 109.5
C44 C46 C47 110.9(7)
C44 C46 H46A 109.5
C47 C46 H46A 109.5
C44 C46 H46B 109.5
C47 C46 H46B 109.5
H46A C46 H46B 108.1
O48 C47 O49 124.3(10)
O48 C47 C46 119.1(10)
O49 C47 C46 116.6(9)
C47 O49 H49 109.5
O42B C41B O43B 122.7(15)
O42B C41B C44B 124.5(15)
O43B C41B C44B 112.9(12)
C41B O43B H43B 109.5
O45B C44B C46B 113.9(10)
O45B C44B C41B 108.0(12)
C46B C44B C41B 109.6(11)
O45B C44B H44B 108.4
C46B C44B H44B 108.4
C41B C44B H44B 108.4
C44B O45B H45B 109.5
C44B C46B C47B 116.1(10)
C44B C46B H46C 108.3
C47B C46B H46C 108.3
C44B C46B H46D 108.3
C47B C46B H46D 108.3
H46C C46B H46D 107.4
O48B C47B O49B 123.1(16)
O48B C47B C46B 122.2(14)
O49B C47B C46B 114.7(14)
C47B O49B H49B 109.5
loop_
_geom_bond_atom_site_label_1
_geom_bond_atom_site_label_2
_geom_bond_distance
N1 C2 1.342(8)
N1 C5 1.355(7)
C2 N3 1.352(8)
C2 H2 0.9500
N3 C4 1.375(7)
N3 C10 1.472(7)
C4 C5 1.376(8)
C4 C9 1.420(7)
C5 N6 1.370(7)
N6 C7 1.369(7)
N6 C11 1.472(7)
C7 O12 1.228(7)
C7 N8 1.410(7)
N8 C9 1.393(7)
N8 C13 1.472(7)
C9 O14 1.238(7)
C10 H10A 0.9800
C10 H10B 0.9800
C10 H10C 0.9800
C11 H11A 0.9800
C11 H11B 0.9800
C11 H11C 0.9800
C13 H13A 0.9800
C13 H13B 0.9800
C13 H13C 0.9800
N15 C16 1.343(7)
N15 C19 1.363(7)
C16 N17 1.329(8)
C16 H16 0.9500
N17 C18 1.390(8)
N17 C24 1.461(8)
C18 C19 1.357(7)
C18 C23 1.436(8)
C19 N20 1.356(7)
N20 C21 1.393(7)
N20 C25 1.470(7)
C21 O26 1.202(7)
C21 N22 1.392(8)
N22 C23 1.404(8)
N22 C27 1.476(8)
C23 O28 1.217(7)
C24 H24A 0.9800
C24 H24B 0.9800
C24 H24C 0.9800
C25 H25A 0.9800
C25 H25B 0.9800
C25 H25C 0.9800
C27 H27A 0.9800
C27 H27B 0.9800
C27 H27C 0.9800
C31 O32 1.198(8)
C31 O33 1.333(7)
C31 C34 1.519(7)
O33 H33 0.8400
C34 O35 1.420(7)
C34 C36 1.510(7)
C34 H34 1.0000
O35 H35 0.8400
C36 C37 1.510(7)
C36 H36A 0.9900
C36 H36B 0.9900
C37 O38 1.195(9)
C37 O39 1.246(8)
O39 H39 0.8400
C41 O42 1.198(11)
C41 O43 1.326(12)
C41 C44 1.517(11)
O43 H43 0.8400
C44 O45 1.416(9)
C44 C46 1.508(9)
C44 H44 1.0000
O45 H45 0.8400
C46 C47 1.529(10)
C46 H46A 0.9900
C46 H46B 0.9900
C47 O48 1.206(12)
C47 O49 1.277(12)
O49 H49 0.8400
C41B O42B 1.196(13)
C41B O43B 1.331(14)
C41B C44B 1.527(13)
O43B H43B 0.8400
C44B O45B 1.424(12)
C44B C46B 1.497(11)
C44B H44B 1.0000
O45B H45B 0.8400
C46B C47B 1.504(13)
C46B H46C 0.9900
C46B H46D 0.9900
C47B O48B 1.201(13)
C47B O49B 1.256(13)
O49B H49B 0.8400
loop_
_geom_torsion_atom_site_label_1
_geom_torsion_atom_site_label_2
_geom_torsion_atom_site_label_3
_geom_torsion_atom_site_label_4
_geom_torsion
C5 N1 C2 N3 0.7(7)
N1 C2 N3 C4 0.0(7)
N1 C2 N3 C10 177.7(5)
C2 N3 C4 C5 -0.7(6)
C10 N3 C4 C5 -178.3(5)
C2 N3 C4 C9 -178.8(6)
C10 N3 C4 C9 3.5(10)
C2 N1 C5 N6 -178.0(5)
C2 N1 C5 C4 -1.1(7)
N3 C4 C5 N1 1.1(6)
C9 C4 C5 N1 179.5(5)
N3 C4 C5 N6 178.2(5)
C9 C4 C5 N6 -3.4(8)
N1 C5 N6 C7 179.4(5)
C4 C5 N6 C7 2.8(8)
N1 C5 N6 C11 -1.9(9)
C4 C5 N6 C11 -178.5(5)
C5 N6 C7 O12 -178.8(5)
C11 N6 C7 O12 2.5(9)
C5 N6 C7 N8 0.5(8)
C11 N6 C7 N8 -178.3(5)
O12 C7 N8 C9 175.8(5)
N6 C7 N8 C9 -3.4(8)
O12 C7 N8 C13 -3.8(8)
N6 C7 N8 C13 176.9(5)
C7 N8 C9 O14 -177.0(5)
C13 N8 C9 O14 2.7(7)
C7 N8 C9 C4 2.8(7)
C13 N8 C9 C4 -177.6(5)
N3 C4 C9 O14 -1.7(10)
C5 C4 C9 O14 -179.6(5)
N3 C4 C9 N8 178.6(5)
C5 C4 C9 N8 0.7(7)
C19 N15 C16 N17 0.5(7)
N15 C16 N17 C18 0.8(7)
N15 C16 N17 C24 -177.7(5)
C16 N17 C18 C19 -1.7(6)
C24 N17 C18 C19 176.8(5)
C16 N17 C18 C23 177.9(6)
C24 N17 C18 C23 -3.6(10)
N17 C18 C19 N20 -178.0(5)
C23 C18 C19 N20 2.4(9)
N17 C18 C19 N15 2.1(6)
C23 C18 C19 N15 -177.6(5)
C16 N15 C19 N20 178.4(5)
C16 N15 C19 C18 -1.6(6)
C18 C19 N20 C21 -1.3(8)
N15 C19 N20 C21 178.7(5)
C18 C19 N20 C25 -178.3(5)
N15 C19 N20 C25 1.6(9)
C19 N20 C21 O26 178.0(5)
C25 N20 C21 O26 -4.8(9)
C19 N20 C21 N22 -1.3(7)
C25 N20 C21 N22 175.8(5)
O26 C21 N22 C23 -176.1(5)
N20 C21 N22 C23 3.2(8)
O26 C21 N22 C27 4.1(8)
N20 C21 N22 C27 -176.5(5)
C21 N22 C23 O28 178.1(6)
C27 N22 C23 O28 -2.1(8)
C21 N22 C23 C18 -2.1(8)
C27 N22 C23 C18 177.6(5)
C19 C18 C23 O28 179.0(6)
N17 C18 C23 O28 -0.5(11)
C19 C18 C23 N22 -0.7(8)
N17 C18 C23 N22 179.7(5)
O32 C31 C34 O35 1.5(8)
O33 C31 C34 O35 176.9(5)
O32 C31 C34 C36 123.8(6)
O33 C31 C34 C36 -60.9(7)
O35 C34 C36 C37 -60.9(7)
C31 C34 C36 C37 175.7(6)
C34 C36 C37 O38 -33.6(13)
C34 C36 C37 O39 158.0(7)
O42 C41 C44 O45 6(2)
O43 C41 C44 O45 -178.5(15)
O42 C41 C44 C46 129.0(16)
O43 C41 C44 C46 -55.4(17)
O45 C44 C46 C47 -69.4(11)
C41 C44 C46 C47 169.4(9)
C44 C46 C47 O48 -78.2(14)
C44 C46 C47 O49 102.1(11)
O42B C41B C44B O45B -144(4)
O43B C41B C44B O45B 36(4)
O42B C41B C44B C46B -20(5)
O43B C41B C44B C46B 161(3)
O45B C44B C46B C47B -55.7(19)
C41B C44B C46B C47B -177(2)
C44B C46B C47B O48B 17(4)
C44B C46B C47B O49B -163(2)
