#------------------------------------------------------------------------------
#$Date: 2016-03-26 22:43:35 +0200 (Sat, 26 Mar 2016) $
#$Revision: 180516 $
#$URL: svn://www.crystallography.net/cod/cif/7/21/85/7218506.cif $
#------------------------------------------------------------------------------
#
# This file is available in the Crystallography Open Database (COD),
# http://www.crystallography.net/
#
# All data on this site have been placed in the public domain by the
# contributors.
#
data_7218506
loop_
_publ_author_name
'Dey, Swapan'
'Sain, Dibyendu'
'Kumar, Ashish'
'Kumari, Chanda'
_publ_section_title
;
 A series of ditopic receptors for succinic acid binding
;
_journal_issue                   93
_journal_name_full               'RSC Adv.'
_journal_page_first              51486
_journal_paper_doi               10.1039/C4RA07537D
_journal_volume                  4
_journal_year                    2014
_chemical_formula_sum            'C15 H16 N3 O4 S'
_chemical_formula_weight         334.37
_chemical_name_systematic
;
 ?
;
_space_group_crystal_system      triclinic
_space_group_IT_number           2
_space_group_name_Hall           '-P 1'
_space_group_name_H-M_alt        'P -1'
_symmetry_space_group_name_Hall  '-P 1'
_symmetry_space_group_name_H-M   'P -1'
_atom_sites_solution_hydrogens   mixed
_audit_creation_method           SHELXL-2013
_cell_angle_alpha                78.516(9)
_cell_angle_beta                 83.189(9)
_cell_angle_gamma                68.866(9)
_cell_formula_units_Z            2
_cell_length_a                   8.085(3)
_cell_length_b                   9.738(3)
_cell_length_c                   10.671(4)
_cell_measurement_reflns_used    10043
_cell_measurement_temperature    293(2)
_cell_measurement_theta_max      26.997
_cell_measurement_theta_min      1.950
_cell_volume                     766.9(5)
_computing_data_collection       'APEX 2'
_computing_molecular_graphics    'Mercury 3.1'
_computing_publication_material  'Microsoft word 2007'
_computing_structure_refinement  'SHELXL-2013 (Sheldrick, 2013)'
_computing_structure_solution    'SHELXS-97 (Sheldrick, 1990)'
_diffrn_ambient_temperature      293(2)
_diffrn_measured_fraction_theta_full 0.994
_diffrn_measured_fraction_theta_max 0.967
_diffrn_measurement_device_type  'Bruker AXS SMART APEX II'
_diffrn_measurement_method       'area detector'
_diffrn_radiation_type           MoK\a
_diffrn_radiation_wavelength     0.71073
_diffrn_reflns_av_R_equivalents  0.0226
_diffrn_reflns_av_unetI/netI     0.0229
_diffrn_reflns_Laue_measured_fraction_full 0.994
_diffrn_reflns_Laue_measured_fraction_max 0.967
_diffrn_reflns_limit_h_max       10
_diffrn_reflns_limit_h_min       -10
_diffrn_reflns_limit_k_max       10
_diffrn_reflns_limit_k_min       -12
_diffrn_reflns_limit_l_max       13
_diffrn_reflns_limit_l_min       -13
_diffrn_reflns_number            10043
_diffrn_reflns_point_group_measured_fraction_full 0.994
_diffrn_reflns_point_group_measured_fraction_max 0.967
_diffrn_reflns_theta_full        25.242
_diffrn_reflns_theta_max         26.997
_diffrn_reflns_theta_min         1.950
_exptl_absorpt_coefficient_mu    0.236
_exptl_absorpt_correction_type   none
_exptl_crystal_colour            colourless
_exptl_crystal_density_diffrn    1.448
_exptl_crystal_description       block
_exptl_crystal_F_000             350
_exptl_crystal_size_max          0.16
_exptl_crystal_size_mid          0.14
_exptl_crystal_size_min          0.12
_refine_diff_density_max         0.482
_refine_diff_density_min         -0.705
_refine_diff_density_rms         0.075
_refine_ls_extinction_method     none
_refine_ls_goodness_of_fit_ref   1.079
_refine_ls_hydrogen_treatment    mixed
_refine_ls_matrix_type           full
_refine_ls_number_parameters     216
_refine_ls_number_reflns         3232
_refine_ls_number_restraints     0
_refine_ls_restrained_S_all      1.079
_refine_ls_R_factor_all          0.0665
_refine_ls_R_factor_gt           0.0537
_refine_ls_shift/su_max          0.005
_refine_ls_shift/su_mean         0.001
_refine_ls_structure_factor_coef Fsqd
_refine_ls_weighting_details
'w=1/[\s^2^(Fo^2^)+(0.0910P)^2^+0.2955P] where P=(Fo^2^+2Fc^2^)/3'
_refine_ls_weighting_scheme      calc
_refine_ls_wR_factor_gt          0.1550
_refine_ls_wR_factor_ref         0.1646
_reflns_Friedel_coverage         0.000
_reflns_number_gt                2609
_reflns_number_total             3232
_reflns_threshold_expression     'I > 2\s(I)'
_cod_data_source_file            c4ra07537d2.cif
_cod_data_source_block           shelxl
_cod_original_cell_volume        766.9(4)
_cod_database_code               7218506
#BEGIN Tags that were not found in dictionaries:
_shelx_space_group_comment
;
The symmetry employed for this shelxl refinement is uniquely defined
by the following loop, which should always be used as a source of
symmetry information in preference to the above space-group names.
They are only intended as comments.
;
_shelxl_version_number           2013-4
_shelx_res_file
;
TITL 80st in P-1
CELL  0.71073   8.0850   9.7380  10.6710   78.516   83.189   68.866
ZERR     2.00   0.0027   0.0031   0.0035    0.0087    0.0091    0.0090
LATT   1
SFAC  C    H    N    O    S
UNIT  30   32   6    8    2
MERG   2
FMAP   2
OMIT 0 54
HTAB N2 O3
HTAB O4 N3
HTAB C9 O3
HTAB N1 O3
BOND $H
ACTA
PLAN   25
L.S.   4
WGHT    0.091000    0.295500
FVAR       0.57688
C1    1    0.287807    0.978247    0.093152    11.00000    0.07071    0.04492 =
         0.06154   -0.00015   -0.00268   -0.01720
AFIX  33
H1A   2    0.298602    1.073750    0.058937    11.00000   -1.50000
H1B   2    0.167827    0.991955    0.125149    11.00000   -1.50000
H1C   2    0.317992    0.918209    0.026921    11.00000   -1.50000
AFIX   0
C2    1    0.410667    0.901776    0.199601    11.00000    0.05824    0.03938 =
         0.05455   -0.00342    0.00590   -0.02164
AFIX  23
H2A   2    0.531299    0.890742    0.167323    11.00000   -1.20000
H2B   2    0.380614    0.963485    0.265724    11.00000   -1.20000
AFIX   0
C3    1    0.495249    0.643112    0.192720    11.00000    0.04481    0.04511 =
         0.03951   -0.00475    0.00151   -0.01410
C4    1    0.484738    0.495566    0.257925    11.00000    0.04462    0.03772 =
         0.03926   -0.00767   -0.00042   -0.01060
C5    1    0.579973    0.373751    0.198129    11.00000    0.07882    0.05053 =
         0.04956   -0.01614    0.02215   -0.01635
AFIX  43
H5    2    0.644149    0.387533    0.121298    11.00000   -1.20000
AFIX   0
C6    1    0.580046    0.233058    0.251664    11.00000    0.09823    0.04341 =
         0.06596   -0.02544    0.02604   -0.01526
AFIX  43
H6    2    0.644678    0.152050    0.211356    11.00000   -1.20000
AFIX   0
C7    1    0.483773    0.212113    0.365671    11.00000    0.07382    0.03385 =
         0.05317   -0.01196    0.00730   -0.01475
AFIX  43
H7    2    0.484530    0.116791    0.401942    11.00000   -1.20000
AFIX   0
C8    1    0.385674    0.333132    0.426428    11.00000    0.04255    0.03225 =
         0.03871   -0.00895   -0.00346   -0.00845
C9    1    0.387144    0.474985    0.372203    11.00000    0.03926    0.03194 =
         0.03769   -0.00800   -0.00314   -0.00782
AFIX  43
H9    2    0.322835    0.556200    0.412349    11.00000   -1.20000
AFIX   0
C10   1    0.082053    0.385984    0.722306    11.00000    0.04188    0.02895 =
         0.04027   -0.00356   -0.00506   -0.01199
C11   1   -0.095894    0.446263    0.892087    11.00000    0.04958    0.04547 =
         0.04515   -0.01112    0.00679   -0.01595
AFIX  43
H11   2   -0.168230    0.510001    0.946447    11.00000   -1.20000
AFIX   0
C12   1   -0.066071    0.298434    0.914970    11.00000    0.05614    0.04966 =
         0.05147   -0.00394    0.01066   -0.02171
AFIX  43
H12   2   -0.112978    0.248714    0.985545    11.00000   -1.20000
AFIX   0
C13   1    0.010686    0.814359    0.607408    11.00000    0.07635    0.03036 =
         0.05383   -0.00999    0.00928   -0.01689
C14   1   -0.032906    0.979168    0.563369    11.00000    0.12967    0.02987 =
         0.06462   -0.01323    0.02717   -0.02192
AFIX  23
H14A  2   -0.160968    1.027156    0.567758    11.00000   -1.20000
H14B  2    0.014808    1.017505    0.622449    11.00000   -1.20000
AFIX   0
C19   1    0.283412    0.296206    0.547623    11.00000    0.04476    0.03082 =
         0.04276   -0.00658   -0.00481   -0.01144
N1    3    0.401888    0.755273    0.255357    11.00000    0.04328    0.02555 =
         0.02790   -0.00138    0.01003   -0.01186
AFIX  43
H1    2    0.339935    0.741634    0.324885    11.00000   -1.20000
AFIX   0
N2    3    0.178895    0.409853    0.609639    11.00000    0.04831    0.02562 =
         0.04160   -0.00402    0.00189   -0.01023
N3    3   -0.011812    0.495988    0.782761    11.00000    0.05010    0.03319 =
         0.04505   -0.00746    0.00412   -0.01287
O1    4    0.581209    0.659125    0.095192    11.00000    0.07780    0.05493 =
         0.05889   -0.00916    0.02720   -0.02262
O2    4    0.293191    0.167614    0.590356    11.00000    0.06840    0.02865 =
         0.05921   -0.00762    0.00802   -0.01444
O3    4    0.099077    0.721677    0.542092    11.00000    0.08762    0.02905 =
         0.05550   -0.00969    0.01694   -0.01180
O4    4   -0.058310    0.781696    0.720480    11.00000    0.13100    0.03396 =
         0.06572   -0.01181    0.04182   -0.02525
S1    5    0.071157    0.214653    0.795056    11.00000    0.06202    0.03315 =
         0.05500   -0.00387    0.01017   -0.01958
H4C   2   -0.024730    0.677567    0.745546    11.00000    0.12500
H2C   2    0.170696    0.502837    0.575278    11.00000    0.05499
HKLF    4

REM  80st in P-1
REM R1 =  0.0537 for    2609 Fo > 4sig(Fo)  and  0.0665 for all    3232 data
REM    216 parameters refined using      0 restraints

END

WGHT      0.0903      0.2981

REM Highest difference peak  0.482,  deepest hole -0.705,  1-sigma level  0.075
Q1    1   0.4249  0.7257  0.2855  11.00000  0.05    0.48
Q2    1   0.3549  0.7466  0.2356  11.00000  0.05    0.46
Q3    1   0.3978  0.7714  0.2812  11.00000  0.05    0.46
Q4    1   0.4411  0.7585  0.2297  11.00000  0.05    0.41
Q5    1  -0.0803  1.0394  0.6277  11.00000  0.05    0.25
Q6    1   0.0960  0.9470  0.5589  11.00000  0.05    0.20
Q7    1   0.1727  0.9385  0.0903  11.00000  0.05    0.19
Q8    1   0.2218  0.2193  0.5514  11.00000  0.05    0.19
Q9    1   0.1446  0.9870  0.5638  11.00000  0.05    0.19
Q10   1   0.1523  0.9995  0.5911  11.00000  0.05    0.19
Q11   1   0.0628  0.7369  0.7422  11.00000  0.05    0.18
Q12   1   0.4932  0.4353  0.2167  11.00000  0.05    0.18
Q13   1   0.6027  0.6881  0.0846  11.00000  0.05    0.17
Q14   1  -0.0450  0.7599  0.4208  11.00000  0.05    0.17
Q15   1  -0.2082  0.9811  0.4992  11.00000  0.05    0.17
Q16   1   0.0456  0.8395  0.7990  11.00000  0.05    0.17
Q17   1   0.0555  0.2584  0.8789  11.00000  0.05    0.17
Q18   1   0.2517  0.6124  0.6714  11.00000  0.05    0.16
Q19   1   0.2024  1.1624 -0.0558  11.00000  0.05    0.16
Q20   1   0.5407  0.8919  0.2302  11.00000  0.05    0.16
Q21   1   0.0079  0.7487  0.8597  11.00000  0.05    0.15
Q22   1   0.1271  0.5249  0.8802  11.00000  0.05    0.15
Q23   1  -0.2249  1.0737  0.4237  11.00000  0.05    0.15
Q24   1   0.0371  0.3056  0.7376  11.00000  0.05    0.15
Q25   1   0.3995  0.2816  0.3780  11.00000  0.05    0.15
;
_shelx_res_checksum              51915
#END Tags that were not found in dictionaries
loop_
_space_group_symop_operation_xyz
'x, y, z'
'-x, -y, -z'
loop_
_atom_site_label
_atom_site_type_symbol
_atom_site_fract_x
_atom_site_fract_y
_atom_site_fract_z
_atom_site_U_iso_or_equiv
_atom_site_adp_type
_atom_site_occupancy
_atom_site_site_symmetry_order
_atom_site_calc_flag
_atom_site_refinement_flags_posn
_atom_site_refinement_flags_adp
C1 C 0.2878(4) 0.9782(3) 0.0932(3) 0.0612(7) Uani 1 1 d . .
H1A H 0.2986 1.0738 0.0589 0.092 Uiso 1 1 calc R U
H1B H 0.1678 0.9920 0.1251 0.092 Uiso 1 1 calc R U
H1C H 0.3180 0.9182 0.0269 0.092 Uiso 1 1 calc R U
C2 C 0.4107(3) 0.9018(3) 0.1996(2) 0.0508(6) Uani 1 1 d . .
H2A H 0.5313 0.8907 0.1673 0.061 Uiso 1 1 calc R U
H2B H 0.3806 0.9635 0.2657 0.061 Uiso 1 1 calc R U
C3 C 0.4952(3) 0.6431(3) 0.1927(2) 0.0442(5) Uani 1 1 d . .
C4 C 0.4847(3) 0.4956(2) 0.2579(2) 0.0415(5) Uani 1 1 d . .
C5 C 0.5800(4) 0.3738(3) 0.1981(3) 0.0624(7) Uani 1 1 d . .
H5 H 0.6441 0.3875 0.1213 0.075 Uiso 1 1 calc R U
C6 C 0.5800(5) 0.2331(3) 0.2517(3) 0.0720(9) Uani 1 1 d . .
H6 H 0.6447 0.1520 0.2114 0.086 Uiso 1 1 calc R U
C7 C 0.4838(4) 0.2121(3) 0.3657(3) 0.0549(6) Uani 1 1 d . .
H7 H 0.4845 0.1168 0.4019 0.066 Uiso 1 1 calc R U
C8 C 0.3857(3) 0.3331(2) 0.4264(2) 0.0385(5) Uani 1 1 d . .
C9 C 0.3871(3) 0.4750(2) 0.3722(2) 0.0371(5) Uani 1 1 d . .
H9 H 0.3228 0.5562 0.4123 0.045 Uiso 1 1 calc R U
C10 C 0.0821(3) 0.3860(2) 0.7223(2) 0.0372(5) Uani 1 1 d . .
C11 C -0.0959(3) 0.4463(3) 0.8921(2) 0.0472(5) Uani 1 1 d . .
H11 H -0.1682 0.5100 0.9464 0.057 Uiso 1 1 calc R U
C12 C -0.0661(3) 0.2984(3) 0.9150(3) 0.0533(6) Uani 1 1 d . .
H12 H -0.1130 0.2487 0.9855 0.064 Uiso 1 1 calc R U
C13 C 0.0107(4) 0.8144(3) 0.6074(3) 0.0546(6) Uani 1 1 d . .
C14 C -0.0329(5) 0.9792(3) 0.5634(3) 0.0783(10) Uani 1 1 d . .
H14A H -0.1610 1.0272 0.5678 0.094 Uiso 1 1 calc R U
H14B H 0.0148 1.0175 0.6224 0.094 Uiso 1 1 calc R U
C19 C 0.2834(3) 0.2962(2) 0.5476(2) 0.0396(5) Uani 1 1 d . .
N1 N 0.4019(2) 0.75527(17) 0.25536(15) 0.0338(4) Uani 1 1 d . .
H1 H 0.3399 0.7416 0.3249 0.041 Uiso 1 1 calc R U
N2 N 0.1789(2) 0.4099(2) 0.60964(18) 0.0398(4) Uani 1 1 d . .
N3 N -0.0118(3) 0.4960(2) 0.78276(19) 0.0437(4) Uani 1 1 d . .
O1 O 0.5812(3) 0.6591(2) 0.09519(18) 0.0667(6) Uani 1 1 d . .
O2 O 0.2932(2) 0.16761(17) 0.59036(17) 0.0537(5) Uani 1 1 d . .
O3 O 0.0991(3) 0.72168(17) 0.54209(17) 0.0612(5) Uani 1 1 d . .
O4 O -0.0583(3) 0.7817(2) 0.7205(2) 0.0814(8) Uani 1 1 d . .
S1 S 0.07116(9) 0.21465(6) 0.79506(6) 0.0509(2) Uani 1 1 d . .
H4C H -0.025(6) 0.678(5) 0.746(4) 0.125(15) Uiso 1 1 d . .
H2C H 0.171(4) 0.503(3) 0.575(3) 0.055(7) Uiso 1 1 d . .
loop_
_atom_site_aniso_label
_atom_site_aniso_U_11
_atom_site_aniso_U_22
_atom_site_aniso_U_33
_atom_site_aniso_U_23
_atom_site_aniso_U_13
_atom_site_aniso_U_12
C1 0.0707(17) 0.0449(14) 0.0615(17) -0.0002(12) -0.0027(13) -0.0172(12)
C2 0.0582(14) 0.0394(12) 0.0545(15) -0.0034(11) 0.0059(11) -0.0216(11)
C3 0.0448(12) 0.0451(13) 0.0395(12) -0.0047(10) 0.0015(10) -0.0141(10)
C4 0.0446(11) 0.0377(12) 0.0393(12) -0.0077(9) -0.0004(9) -0.0106(9)
C5 0.0788(18) 0.0505(15) 0.0496(15) -0.0161(12) 0.0222(13) -0.0163(13)
C6 0.098(2) 0.0434(14) 0.0660(18) -0.0254(13) 0.0260(16) -0.0153(14)
C7 0.0738(17) 0.0339(12) 0.0532(15) -0.0120(11) 0.0073(12) -0.0148(11)
C8 0.0425(11) 0.0323(10) 0.0387(11) -0.0089(9) -0.0035(9) -0.0085(8)
C9 0.0393(10) 0.0319(10) 0.0377(11) -0.0080(8) -0.0031(8) -0.0078(8)
C10 0.0419(11) 0.0290(10) 0.0403(11) -0.0036(8) -0.0051(9) -0.0120(8)
C11 0.0496(12) 0.0455(13) 0.0452(13) -0.0111(10) 0.0068(10) -0.0159(10)
C12 0.0561(14) 0.0497(14) 0.0515(14) -0.0039(11) 0.0107(11) -0.0217(11)
C13 0.0764(17) 0.0304(11) 0.0538(15) -0.0100(11) 0.0093(12) -0.0169(11)
C14 0.130(3) 0.0299(13) 0.0646(18) -0.0132(12) 0.0272(18) -0.0219(15)
C19 0.0448(11) 0.0308(10) 0.0428(12) -0.0066(9) -0.0048(9) -0.0114(8)
N1 0.0433(9) 0.0256(8) 0.0279(8) -0.0014(7) 0.0100(7) -0.0119(7)
N2 0.0483(10) 0.0256(9) 0.0416(10) -0.0040(8) 0.0019(8) -0.0102(7)
N3 0.0501(10) 0.0332(9) 0.0451(11) -0.0075(8) 0.0041(8) -0.0129(8)
O1 0.0778(13) 0.0549(11) 0.0589(12) -0.0092(9) 0.0272(10) -0.0226(10)
O2 0.0684(11) 0.0287(8) 0.0592(11) -0.0076(7) 0.0080(8) -0.0144(7)
O3 0.0876(13) 0.0291(8) 0.0555(11) -0.0097(8) 0.0169(9) -0.0118(8)
O4 0.131(2) 0.0340(10) 0.0657(13) -0.0118(9) 0.0418(13) -0.0252(11)
S1 0.0620(4) 0.0332(3) 0.0550(4) -0.0039(3) 0.0102(3) -0.0196(3)
loop_
_atom_type_symbol
_atom_type_description
_atom_type_scat_dispersion_real
_atom_type_scat_dispersion_imag
_atom_type_scat_source
C C 0.0033 0.0016 'International Tables Vol C Tables 4.2.6.8 and 6.1.1.4'
H H 0.0000 0.0000 'International Tables Vol C Tables 4.2.6.8 and 6.1.1.4'
N N 0.0061 0.0033 'International Tables Vol C Tables 4.2.6.8 and 6.1.1.4'
O O 0.0106 0.0060 'International Tables Vol C Tables 4.2.6.8 and 6.1.1.4'
S S 0.1246 0.1234 'International Tables Vol C Tables 4.2.6.8 and 6.1.1.4'
loop_
_geom_angle_atom_site_label_1
_geom_angle_atom_site_label_2
_geom_angle_atom_site_label_3
_geom_angle
_geom_angle_site_symmetry_1
C2 C1 H1A 109.5 .
C2 C1 H1B 109.5 .
H1A C1 H1B 109.5 .
C2 C1 H1C 109.5 .
H1A C1 H1C 109.5 .
H1B C1 H1C 109.5 .
N1 C2 C1 112.3(2) .
N1 C2 H2A 109.1 .
C1 C2 H2A 109.1 .
N1 C2 H2B 109.1 .
C1 C2 H2B 109.1 .
H2A C2 H2B 107.9 .
O1 C3 N1 123.2(2) .
O1 C3 C4 123.4(2) .
N1 C3 C4 113.35(19) .
C5 C4 C9 119.6(2) .
C5 C4 C3 116.3(2) .
C9 C4 C3 124.05(19) .
C6 C5 C4 120.5(2) .
C6 C5 H5 119.7 .
C4 C5 H5 119.7 .
C5 C6 C7 119.9(2) .
C5 C6 H6 120.0 .
C7 C6 H6 120.0 .
C6 C7 C8 120.4(2) .
C6 C7 H7 119.8 .
C8 C7 H7 119.8 .
C9 C8 C7 119.3(2) .
C9 C8 C19 125.43(18) .
C7 C8 C19 115.2(2) .
C8 C9 C4 120.10(19) .
C8 C9 H9 119.9 .
C4 C9 H9 119.9 .
N3 C10 N2 121.34(19) .
N3 C10 S1 114.15(17) .
N2 C10 S1 124.51(16) .
C12 C11 N3 115.1(2) .
C12 C11 H11 122.4 .
N3 C11 H11 122.4 .
C11 C12 S1 110.34(19) .
C11 C12 H12 124.8 .
S1 C12 H12 124.8 .
O3 C13 O4 123.8(2) .
O3 C13 C14 123.0(2) .
O4 C13 C14 113.2(2) .
C14 C14 C13 115.2(3) 2_576
C14 C14 H14A 108.5 2_576
C13 C14 H14A 108.5 .
C14 C14 H14B 108.5 2_576
C13 C14 H14B 108.5 .
H14A C14 H14B 107.5 .
O2 C19 N2 120.3(2) .
O2 C19 C8 121.15(19) .
N2 C19 C8 118.51(19) .
C3 N1 C2 116.43(18) .
C3 N1 H1 121.8 .
C2 N1 H1 121.8 .
C19 N2 C10 122.42(19) .
C19 N2 H2C 118.8(18) .
C10 N2 H2C 118.8(17) .
C10 N3 C11 111.21(19) .
C13 O4 H4C 110(3) .
C12 S1 C10 89.17(11) .
loop_
_geom_bond_atom_site_label_1
_geom_bond_atom_site_label_2
_geom_bond_distance
_geom_bond_site_symmetry_2
C1 C2 1.493(4) .
C1 H1A 0.9600 .
C1 H1B 0.9600 .
C1 H1C 0.9600 .
C2 N1 1.456(3) .
C2 H2A 0.9700 .
C2 H2B 0.9700 .
C3 O1 1.197(3) .
C3 N1 1.336(3) .
C3 C4 1.494(3) .
C4 C5 1.390(3) .
C4 C9 1.392(3) .
C5 C6 1.375(4) .
C5 H5 0.9300 .
C6 C7 1.385(4) .
C6 H6 0.9300 .
C7 C8 1.395(3) .
C7 H7 0.9300 .
C8 C9 1.391(3) .
C8 C19 1.504(3) .
C9 H9 0.9300 .
C10 N3 1.309(3) .
C10 N2 1.382(3) .
C10 S1 1.723(2) .
C11 C12 1.347(4) .
C11 N3 1.372(3) .
C11 H11 0.9300 .
C12 S1 1.721(3) .
C12 H12 0.9300 .
C13 O3 1.216(3) .
C13 O4 1.298(3) .
C13 C14 1.501(3) .
C14 C14 1.429(6) 2_576
C14 H14A 0.9700 .
C14 H14B 0.9700 .
C19 O2 1.221(3) .
C19 N2 1.364(3) .
N1 H1 0.8600 .
N2 H2C 0.89(3) .
O4 H4C 0.94(5) .
loop_
_geom_hbond_atom_site_label_D
_geom_hbond_atom_site_label_H
_geom_hbond_atom_site_label_A
_geom_hbond_distance_DH
_geom_hbond_distance_HA
_geom_hbond_distance_DA
_geom_hbond_angle_DHA
N2 H2C O3 0.89(3) 1.96(3) 2.825(3) 163(3)
O4 H4C N3 0.94(5) 1.70(5) 2.625(3) 167(4)
C9 H9 O3 0.93 2.45 3.344(3) 162.5
N1 H1 O3 0.86 2.87 3.724(3) 173.4
