#------------------------------------------------------------------------------
#$Date: 2016-03-26 22:50:16 +0200 (Sat, 26 Mar 2016) $
#$Revision: 180520 $
#$URL: svn://www.crystallography.net/cod/cif/7/21/89/7218926.cif $
#------------------------------------------------------------------------------
#
# This file is available in the Crystallography Open Database (COD),
# http://www.crystallography.net/
#
# All data on this site have been placed in the public domain by the
# contributors.
#
data_7218926
loop_
_publ_author_name
'Venkatesan, Perumal'
'Thamotharan, Subbiah'
'Kumar, Rajendran Ganesh'
'Ilangovan, Andivelu'
_publ_section_title
;
 Invariant and variable intermolecular interactions in functionalized
 malonic acid half-esters: X-ray, Hirshfeld surface and PIXEL energy
 analyses
;
_journal_issue                   4
_journal_name_full               CrystEngComm
_journal_page_first              904
_journal_paper_doi               10.1039/C4CE02125H
_journal_volume                  17
_journal_year                    2015
_chemical_formula_sum            'C12 H12 Cl N O4'
_chemical_formula_weight         269.68
_chemical_name_systematic
;
 2E)-3-[(4-chlorophenyl)amino]-2-(ethoxycarbonyl)prop-2-enoic acid
;
_space_group_crystal_system      triclinic
_space_group_IT_number           2
_space_group_name_Hall           '-P 1'
_space_group_name_H-M_alt        'P -1'
_symmetry_space_group_name_Hall  '-P 1'
_symmetry_space_group_name_H-M   'P -1'
_atom_sites_solution_hydrogens   mixed
_audit_creation_method           SHELXL-2014
_audit_update_record
;
2014-11-18 deposited with the CCDC.
2014-11-25 downloaded from the CCDC.
;
_cell_angle_alpha                92.127(2)
_cell_angle_beta                 105.123(2)
_cell_angle_gamma                97.607(2)
_cell_formula_units_Z            2
_cell_length_a                   7.0837(2)
_cell_length_b                   7.4404(2)
_cell_length_c                   12.4791(4)
_cell_measurement_reflns_used    5878
_cell_measurement_temperature    296(2)
_cell_measurement_theta_max      29.99
_cell_measurement_theta_min      2.77
_cell_volume                     627.59(3)
_computing_cell_refinement       'Bruker SMART'
_computing_data_collection       'Bruker SMART'
_computing_data_reduction        'Bruker SAINT'
_computing_structure_refinement  'SHELXL-2014 (Sheldrick, 2014)'
_diffrn_ambient_temperature      296(2)
_diffrn_measured_fraction_theta_full 1.000
_diffrn_measured_fraction_theta_max 0.950
_diffrn_radiation_type           MoK\a
_diffrn_radiation_wavelength     0.71073
_diffrn_reflns_av_R_equivalents  0.0292
_diffrn_reflns_av_unetI/netI     0.0229
_diffrn_reflns_Laue_measured_fraction_full 1.000
_diffrn_reflns_Laue_measured_fraction_max 0.950
_diffrn_reflns_limit_h_max       10
_diffrn_reflns_limit_h_min       -10
_diffrn_reflns_limit_k_max       11
_diffrn_reflns_limit_k_min       -10
_diffrn_reflns_limit_l_max       18
_diffrn_reflns_limit_l_min       -18
_diffrn_reflns_number            14717
_diffrn_reflns_point_group_measured_fraction_full 1.000
_diffrn_reflns_point_group_measured_fraction_max 0.950
_diffrn_reflns_theta_full        25.242
_diffrn_reflns_theta_max         32.037
_diffrn_reflns_theta_min         1.695
_exptl_absorpt_coefficient_mu    0.310
_exptl_absorpt_correction_T_max  0.9756
_exptl_absorpt_correction_T_min  0.9637
_exptl_crystal_colour            Colorless
_exptl_crystal_density_diffrn    1.427
_exptl_crystal_description       prism
_exptl_crystal_F_000             280
_exptl_crystal_size_max          0.12
_exptl_crystal_size_mid          0.12
_exptl_crystal_size_min          0.08
_refine_diff_density_max         0.606
_refine_diff_density_min         -0.414
_refine_diff_density_rms         0.056
_refine_ls_extinction_method     none
_refine_ls_goodness_of_fit_ref   1.051
_refine_ls_hydrogen_treatment    constr
_refine_ls_matrix_type           full
_refine_ls_number_parameters     164
_refine_ls_number_reflns         4157
_refine_ls_number_restraints     0
_refine_ls_restrained_S_all      1.051
_refine_ls_R_factor_all          0.0722
_refine_ls_R_factor_gt           0.0493
_refine_ls_shift/su_max          0.001
_refine_ls_shift/su_mean         0.000
_refine_ls_structure_factor_coef Fsqd
_refine_ls_weighting_details
'w=1/[\s^2^(Fo^2^)+(0.0899P)^2^+0.0677P] where P=(Fo^2^+2Fc^2^)/3'
_refine_ls_weighting_scheme      calc
_refine_ls_wR_factor_gt          0.1426
_refine_ls_wR_factor_ref         0.1639
_reflns_Friedel_coverage         0.000
_reflns_number_gt                2843
_reflns_number_total             4157
_reflns_threshold_expression     'I > 2\s(I)'
_cod_data_source_file            c4ce02125h2.cif
_cod_data_source_block           MHE-3
_cod_depositor_comments
'Adding full bibliography for 7218923--7218927.cif.'
_cod_original_cell_volume        627.58(3)
_cod_database_code               7218926
#BEGIN Tags that were not found in dictionaries:
_shelx_space_group_comment
;
The symmetry employed for this shelxl refinement is uniquely defined
by the following loop, which should always be used as a source of
symmetry information in preference to the above space-group names.
They are only intended as comments.
;
_shelxl_version_number           2014-3
_shelx_res_file
;
TITL shelxl    P -1         R = 0.05
CELL  0.71073    7.0837    7.4404   12.4791    92.127   105.123    97.607
ZERR  2           0.0002    0.0002    0.0004     0.002     0.002     0.002
LATT   1
SFAC  C   2.31000  20.84392   1.02000  10.20751   1.58860   0.56870   0.86500 =
         51.65125   0.21560   0.00330   0.00160    11.500   0.68000  12.01000
SFAC  H   0.49300  10.51091   0.32291  26.12573   0.14019   3.14236   0.04081 =
         57.79977   0.00304   0.00000   0.00000     0.624   0.35000   1.00800
SFAC Cl  11.46041   0.01040   7.19641   1.16620   6.25561  18.51942   1.64550 =
         47.77846  -9.55741   0.14840   0.15850   678.000   0.99000  35.45000
SFAC  N  12.21261   0.00570   3.13220   9.89331   2.01250  28.99754   1.16630 =
          0.58260 -11.52901   0.00610   0.00330    19.600   0.68000  14.01000
SFAC  O   3.04850  13.27711   2.28680   5.70111   1.54630   0.32390   0.86700 =
         32.90894   0.25080   0.01060   0.00600    32.500   0.68000  16.00000
UNIT    24   24   2   2   8
TEMP    23
L.S. 5
FMAP 2
PLAN -20
ACTA
BOND $H
CONF
WGHT    0.089900    0.067700
FVAR       0.80125
CL1   3    0.821090    0.873441    1.107950    11.00000    0.07174    0.09509 =
         0.04263   -0.00685    0.00035   -0.01536
O1    5    0.030030    0.231361    0.360333    11.00000    0.04850    0.07844 =
         0.04154   -0.00821    0.01317   -0.00882
AFIX   3
H1O   2   -0.068040    0.174961    0.380433    11.00000   -1.50000
AFIX   0
O2    5    0.307070    0.401249    0.453961    11.00000    0.04574    0.08329 =
         0.04854   -0.00413    0.02011   -0.01431
O3    5   -0.220796    0.119241    0.464146    11.00000    0.04342    0.07233 =
         0.04867   -0.01022    0.01055   -0.01629
O4    5   -0.160166    0.200823    0.645994    11.00000    0.04160    0.05737 =
         0.04388    0.00165    0.01351   -0.01158
N1    4    0.366973    0.497512    0.672779    11.00000    0.03911    0.04857 =
         0.03733    0.00047    0.01006   -0.00660
AFIX   3
H1N   2    0.427973    0.502012    0.615609    11.00000   -1.20000
AFIX   0
C1    1    0.472085    0.588986    0.777606    11.00000    0.03985    0.04231 =
         0.03644    0.00380    0.00789   -0.00627
C2    1    0.677333    0.616495    0.805373    11.00000    0.04123    0.06335 =
         0.04636    0.00020    0.01437   -0.00799
AFIX  43
H2    2    0.743032    0.576350    0.755631    11.00000   -1.20000
AFIX   0
C3    1    0.783650    0.703593    0.907011    11.00000    0.04015    0.06924 =
         0.04979    0.00253    0.00714   -0.01081
AFIX  43
H3    2    0.921093    0.722646    0.925724    11.00000   -1.20000
AFIX   0
C4    1    0.685662    0.762256    0.980698    11.00000    0.05181    0.05483 =
         0.03592    0.00454    0.00513   -0.00852
C5    1    0.482565    0.737856    0.953531    11.00000    0.05450    0.06711 =
         0.04403   -0.00473    0.01462   -0.00338
AFIX  43
H5    2    0.417509    0.779022    1.003321    11.00000   -1.20000
AFIX   0
C6    1    0.375504    0.651361    0.851278    11.00000    0.03996    0.06237 =
         0.04889   -0.00431    0.01077   -0.00292
AFIX  43
H6    2    0.238068    0.635254    0.832192    11.00000   -1.20000
AFIX   0
C7    1    0.190315    0.397090    0.653986    11.00000    0.03843    0.04131 =
         0.03973    0.00493    0.01038   -0.00194
AFIX  43
H7    2    0.136083    0.387000    0.714194    11.00000   -1.20000
AFIX   0
C8    1    0.079281    0.306599    0.555090    11.00000    0.03481    0.04130 =
         0.03912    0.00281    0.00965   -0.00160
C9    1    0.147790    0.316751    0.454719    11.00000    0.04014    0.05074 =
         0.04060    0.00113    0.01079   -0.00004
C10   1   -0.111886    0.201451    0.550238    11.00000    0.03637    0.04375 =
         0.04246    0.00183    0.00944   -0.00206
C11   1   -0.354207    0.100551    0.641807    11.00000    0.03937    0.06005 =
         0.06162    0.00085    0.01924   -0.00899
AFIX  23
H11A  2   -0.363243   -0.024914    0.614492    11.00000   -1.20000
H11B  2   -0.457631    0.154876    0.592451    11.00000   -1.20000
AFIX   0
C12   1   -0.376424    0.109530    0.757942    11.00000    0.05817    0.06569 =
         0.06671    0.01271    0.02932   -0.00114
AFIX 137
H12A  2   -0.273742    0.054808    0.805827    11.00000   -1.50000
H12B  2   -0.502994    0.045260    0.758348    11.00000   -1.50000
H12C  2   -0.366773    0.234277    0.784073    11.00000   -1.50000
AFIX   0
HKLF 4

REM  shelxl    P -1         R = 0.05
REM R1 =  0.0493 for    2843 Fo > 4sig(Fo)  and  0.0722 for all    4157 data
REM    164 parameters refined using      0 restraints

END

WGHT      0.0898      0.0710

REM Highest difference peak  0.606,  deepest hole -0.414,  1-sigma level  0.056
Q1    1   0.8913  0.7871  1.1026  11.00000  0.05    0.61
Q2    1   0.7559  0.8122  1.0423  11.00000  0.05    0.36
Q3    1   0.1353  0.3447  0.6004  11.00000  0.05    0.34
Q4    1   0.4029  0.5552  0.7213  11.00000  0.05    0.33
Q5    1  -0.1892  0.1723  0.4983  11.00000  0.05    0.31
Q6    1   0.7190  0.6647  0.8596  11.00000  0.05    0.30
Q7    1   0.8438  0.9095  1.1384  11.00000  0.05    0.28
Q8    1   0.4274  0.7064  0.9030  11.00000  0.05    0.24
Q9    1   0.4403  0.6613  0.9121  11.00000  0.05    0.24
Q10   1   0.7655  0.9196  1.0564  11.00000  0.05    0.24
Q11   1   0.0880  0.2497  0.4020  11.00000  0.05    0.23
Q12   1   0.1136  0.3138  0.5172  11.00000  0.05    0.22
Q13   1   0.5775  0.5842  0.8039  11.00000  0.05    0.21
Q14   1  -0.1031  0.2384  0.7014  11.00000  0.05    0.20
Q15   1   0.5847  0.7530  0.9556  11.00000  0.05    0.19
Q16   1   0.0094  0.2763  0.5553  11.00000  0.05    0.19
Q17   1   0.3336  0.4115  0.4805  11.00000  0.05    0.19
Q18   1   0.5837  0.6322  0.7752  11.00000  0.05    0.18
Q19   1   0.7503  1.0250  1.0871  11.00000  0.05    0.18
Q20   1   0.7265  0.7010  0.9488  11.00000  0.05    0.18
;
_shelx_res_checksum              68402
#END Tags that were not found in dictionaries
loop_
_space_group_symop_operation_xyz
'x, y, z'
'-x, -y, -z'
loop_
_atom_site_label
_atom_site_type_symbol
_atom_site_fract_x
_atom_site_fract_y
_atom_site_fract_z
_atom_site_U_iso_or_equiv
_atom_site_adp_type
_atom_site_occupancy
_atom_site_site_symmetry_order
_atom_site_calc_flag
_atom_site_refinement_flags_posn
_atom_site_refinement_flags_adp
Cl1 Cl 0.82109(7) 0.87344(7) 1.10795(4) 0.07555(19) Uani 1 1 d . .
O1 O 0.03003(16) 0.23136(17) 0.36033(9) 0.0580(3) Uani 1 1 d . .
H1O H -0.0680 0.1750 0.3804 0.087 Uiso 1 1 d R U
O2 O 0.30707(16) 0.40125(17) 0.45396(9) 0.0602(3) Uani 1 1 d . .
O3 O -0.22080(16) 0.11924(17) 0.46415(9) 0.0579(3) Uani 1 1 d . .
O4 O -0.16017(14) 0.20082(14) 0.64599(9) 0.0490(3) Uani 1 1 d . .
N1 N 0.36697(16) 0.49751(16) 0.67278(10) 0.0430(3) Uani 1 1 d . .
H1N H 0.4280 0.5020 0.6156 0.052 Uiso 1 1 d R U
C1 C 0.47209(19) 0.58899(18) 0.77761(11) 0.0411(3) Uani 1 1 d . .
C2 C 0.6773(2) 0.6165(2) 0.80537(13) 0.0514(4) Uani 1 1 d . .
H2 H 0.7430 0.5763 0.7556 0.062 Uiso 1 1 calc R U
C3 C 0.7836(2) 0.7036(2) 0.90701(14) 0.0558(4) Uani 1 1 d . .
H3 H 0.9211 0.7226 0.9257 0.067 Uiso 1 1 calc R U
C4 C 0.6857(2) 0.7623(2) 0.98070(12) 0.0503(3) Uani 1 1 d . .
C5 C 0.4826(2) 0.7379(2) 0.95353(13) 0.0563(4) Uani 1 1 d . .
H5 H 0.4175 0.7790 1.0033 0.068 Uiso 1 1 calc R U
C6 C 0.3755(2) 0.6514(2) 0.85128(13) 0.0518(4) Uani 1 1 d . .
H6 H 0.2381 0.6353 0.8322 0.062 Uiso 1 1 calc R U
C7 C 0.19032(19) 0.39709(18) 0.65399(11) 0.0405(3) Uani 1 1 d . .
H7 H 0.1361 0.3870 0.7142 0.049 Uiso 1 1 calc R U
C8 C 0.07928(18) 0.30660(17) 0.55509(11) 0.0391(3) Uani 1 1 d . .
C9 C 0.1478(2) 0.3168(2) 0.45472(12) 0.0445(3) Uani 1 1 d . .
C10 C -0.11189(19) 0.20145(18) 0.55024(12) 0.0419(3) Uani 1 1 d . .
C11 C -0.3542(2) 0.1006(2) 0.64181(14) 0.0542(4) Uani 1 1 d . .
H11A H -0.3632 -0.0249 0.6145 0.065 Uiso 1 1 calc R U
H11B H -0.4576 0.1549 0.5925 0.065 Uiso 1 1 calc R U
C12 C -0.3764(3) 0.1095(2) 0.75794(15) 0.0619(4) Uani 1 1 d . .
H12A H -0.2737 0.0548 0.8058 0.093 Uiso 1 1 calc R U
H12B H -0.5030 0.0453 0.7583 0.093 Uiso 1 1 calc R U
H12C H -0.3668 0.2343 0.7841 0.093 Uiso 1 1 calc R U
loop_
_atom_site_aniso_label
_atom_site_aniso_U_11
_atom_site_aniso_U_22
_atom_site_aniso_U_33
_atom_site_aniso_U_23
_atom_site_aniso_U_13
_atom_site_aniso_U_12
Cl1 0.0717(3) 0.0951(4) 0.0426(2) -0.0068(2) 0.00035(19) -0.0154(2)
O1 0.0485(6) 0.0784(7) 0.0415(6) -0.0082(5) 0.0132(4) -0.0088(5)
O2 0.0457(6) 0.0833(8) 0.0485(6) -0.0041(5) 0.0201(5) -0.0143(5)
O3 0.0434(5) 0.0723(7) 0.0487(6) -0.0102(5) 0.0106(4) -0.0163(5)
O4 0.0416(5) 0.0574(6) 0.0439(5) 0.0017(4) 0.0135(4) -0.0116(4)
N1 0.0391(5) 0.0486(6) 0.0373(6) 0.0005(4) 0.0101(4) -0.0066(4)
C1 0.0398(6) 0.0423(6) 0.0364(6) 0.0038(5) 0.0079(5) -0.0063(5)
C2 0.0412(7) 0.0633(9) 0.0464(8) 0.0002(6) 0.0144(6) -0.0080(6)
C3 0.0401(7) 0.0692(10) 0.0498(8) 0.0025(7) 0.0071(6) -0.0108(6)
C4 0.0518(8) 0.0548(8) 0.0359(7) 0.0045(6) 0.0051(6) -0.0085(6)
C5 0.0545(8) 0.0671(10) 0.0440(8) -0.0047(7) 0.0146(7) -0.0034(7)
C6 0.0400(7) 0.0624(9) 0.0489(8) -0.0043(7) 0.0108(6) -0.0029(6)
C7 0.0384(6) 0.0413(6) 0.0397(6) 0.0049(5) 0.0104(5) -0.0019(5)
C8 0.0348(6) 0.0413(6) 0.0391(6) 0.0028(5) 0.0097(5) -0.0016(5)
C9 0.0401(6) 0.0507(7) 0.0406(7) 0.0011(5) 0.0108(5) 0.0000(5)
C10 0.0364(6) 0.0438(7) 0.0425(7) 0.0018(5) 0.0094(5) -0.0021(5)
C11 0.0394(7) 0.0601(9) 0.0616(10) 0.0008(7) 0.0192(6) -0.0090(6)
C12 0.0582(9) 0.0657(10) 0.0667(11) 0.0127(8) 0.0293(8) -0.0011(7)
loop_
_atom_type_symbol
_atom_type_description
_atom_type_scat_dispersion_real
_atom_type_scat_dispersion_imag
_atom_type_scat_source
C C 0.0033 0.0016 'International Tables Vol C Tables 4.2.6.8 and 6.1.1.4'
H H 0.0000 0.0000 'International Tables Vol C Tables 4.2.6.8 and 6.1.1.4'
Cl Cl 0.1484 0.1585 'International Tables Vol C Tables 4.2.6.8 and 6.1.1.4'
N N 0.0061 0.0033 'International Tables Vol C Tables 4.2.6.8 and 6.1.1.4'
O O 0.0106 0.0060 'International Tables Vol C Tables 4.2.6.8 and 6.1.1.4'
loop_
_geom_angle_atom_site_label_1
_geom_angle_atom_site_label_2
_geom_angle_atom_site_label_3
_geom_angle
C9 O1 H1O 103.8
C10 O4 C11 115.47(11)
C7 N1 C1 123.63(12)
C7 N1 H1N 118.0
C1 N1 H1N 118.3
C6 C1 C2 119.73(13)
C6 C1 N1 121.77(12)
C2 C1 N1 118.49(13)
C3 C2 C1 119.86(14)
C3 C2 H2 120.1
C1 C2 H2 120.1
C4 C3 C2 119.88(14)
C4 C3 H3 120.1
C2 C3 H3 120.1
C5 C4 C3 120.76(14)
C5 C4 Cl1 119.75(13)
C3 C4 Cl1 119.47(12)
C4 C5 C6 119.45(15)
C4 C5 H5 120.3
C6 C5 H5 120.3
C1 C6 C5 120.30(14)
C1 C6 H6 119.9
C5 C6 H6 119.9
N1 C7 C8 126.92(12)
N1 C7 H7 116.5
C8 C7 H7 116.5
C7 C8 C10 119.28(12)
C7 C8 C9 121.15(11)
C10 C8 C9 119.56(12)
O2 C9 O1 119.20(13)
O2 C9 C8 122.48(13)
O1 C9 C8 118.32(12)
O3 C10 O4 122.34(12)
O3 C10 C8 122.89(13)
O4 C10 C8 114.78(11)
O4 C11 C12 107.14(13)
O4 C11 H11A 110.3
C12 C11 H11A 110.3
O4 C11 H11B 110.3
C12 C11 H11B 110.3
H11A C11 H11B 108.5
C11 C12 H12A 109.5
C11 C12 H12B 109.5
H12A C12 H12B 109.5
C11 C12 H12C 109.5
H12A C12 H12C 109.5
H12B C12 H12C 109.5
loop_
_geom_bond_atom_site_label_1
_geom_bond_atom_site_label_2
_geom_bond_distance
Cl1 C4 1.7389(15)
O1 C9 1.3335(17)
O1 H1O 0.8621
O2 C9 1.2193(17)
O3 C10 1.2318(16)
O4 C10 1.3259(17)
O4 C11 1.4618(16)
N1 C7 1.3287(16)
N1 C1 1.4214(16)
N1 H1N 0.9250
C1 C6 1.382(2)
C1 C2 1.3888(19)
C2 C3 1.381(2)
C2 H2 0.9300
C3 C4 1.379(2)
C3 H3 0.9300
C4 C5 1.375(2)
C5 C6 1.387(2)
C5 H5 0.9300
C6 H6 0.9300
C7 C8 1.3736(17)
C7 H7 0.9300
C8 C10 1.4570(17)
C8 C9 1.4576(19)
C11 C12 1.498(2)
C11 H11A 0.9700
C11 H11B 0.9700
C12 H12A 0.9600
C12 H12B 0.9600
C12 H12C 0.9600
loop_
_geom_torsion_atom_site_label_1
_geom_torsion_atom_site_label_2
_geom_torsion_atom_site_label_3
_geom_torsion_atom_site_label_4
_geom_torsion
C7 N1 C1 C6 -30.0(2)
C7 N1 C1 C2 150.45(14)
C6 C1 C2 C3 0.9(2)
N1 C1 C2 C3 -179.46(13)
C1 C2 C3 C4 0.3(2)
C2 C3 C4 C5 -1.1(3)
C2 C3 C4 Cl1 -179.47(12)
C3 C4 C5 C6 0.7(3)
Cl1 C4 C5 C6 179.10(12)
C2 C1 C6 C5 -1.3(2)
N1 C1 C6 C5 179.11(14)
C4 C5 C6 C1 0.5(3)
C1 N1 C7 C8 179.27(13)
N1 C7 C8 C10 179.60(13)
N1 C7 C8 C9 -1.5(2)
C7 C8 C9 O2 1.8(2)
C10 C8 C9 O2 -179.33(14)
C7 C8 C9 O1 -177.56(13)
C10 C8 C9 O1 1.3(2)
C11 O4 C10 O3 -1.8(2)
C11 O4 C10 C8 178.20(12)
C7 C8 C10 O3 178.83(13)
C9 C8 C10 O3 -0.1(2)
C7 C8 C10 O4 -1.18(19)
C9 C8 C10 O4 179.93(12)
C10 O4 C11 C12 177.62(13)
