#------------------------------------------------------------------------------
#$Date: 2018-02-18 11:45:15 +0200 (Sun, 18 Feb 2018) $
#$Revision: 206489 $
#$URL: file:///home/coder/svn-repositories/cod/cif/7/21/83/7218373.cif $
#------------------------------------------------------------------------------
#
# This file is available in the Crystallography Open Database (COD),
# http://www.crystallography.net/
#
# All data on this site have been placed in the public domain by the
# contributors.
#
data_7218373
loop_
_publ_author_name
'Xu, Shijie'
'Liu, Jianquan'
'Hu, Donghua'
'Bi, Xihe'
_publ_section_title
;
 Metal-free hydroacyloxylation and hydration reactions of ynamides:
 synthesis of \a-acyloxyenamides and N-acylsulfonamides
;
_journal_issue                   1
_journal_name_full               'Green Chem.'
_journal_page_first              184
_journal_paper_doi               10.1039/C4GC01328J
_journal_volume                  17
_journal_year                    2015
_chemical_formula_sum            'C30 H26 I N O5 S'
_chemical_formula_weight         639.50
_chemical_name_systematic
;
 ?
;
_space_group_crystal_system      triclinic
_space_group_IT_number           2
_space_group_name_Hall           '-P 1'
_space_group_name_H-M_alt        'P -1'
_symmetry_space_group_name_Hall  '-P 1'
_symmetry_space_group_name_H-M   'P -1'
_audit_creation_method           SHELXL-2013
_cell_angle_alpha                106.53(3)
_cell_angle_beta                 105.21(3)
_cell_angle_gamma                91.30(3)
_cell_formula_units_Z            2
_cell_length_a                   12.771(3)
_cell_length_b                   14.579(3)
_cell_length_c                   16.377(3)
_cell_measurement_temperature    293(2)
_cell_volume                     2805.1(12)
_computing_structure_refinement  'SHELXL-2013 (Sheldrick, 2013)'
_diffrn_ambient_temperature      293(2)
_diffrn_measured_fraction_theta_full 0.989
_diffrn_measured_fraction_theta_max 0.977
_diffrn_radiation_type           MoK\a
_diffrn_radiation_wavelength     0.71073
_diffrn_reflns_av_R_equivalents  0.0258
_diffrn_reflns_av_unetI/netI     0.0324
_diffrn_reflns_Laue_measured_fraction_full 0.989
_diffrn_reflns_Laue_measured_fraction_max 0.977
_diffrn_reflns_limit_h_max       16
_diffrn_reflns_limit_h_min       -16
_diffrn_reflns_limit_k_max       18
_diffrn_reflns_limit_k_min       -18
_diffrn_reflns_limit_l_max       21
_diffrn_reflns_limit_l_min       -21
_diffrn_reflns_number            27551
_diffrn_reflns_point_group_measured_fraction_full 0.989
_diffrn_reflns_point_group_measured_fraction_max 0.977
_diffrn_reflns_theta_full        25.242
_diffrn_reflns_theta_max         27.454
_diffrn_reflns_theta_min         3.115
_exptl_absorpt_coefficient_mu    10.685
_exptl_crystal_density_diffrn    4.304
_exptl_crystal_F_000             3276
_refine_diff_density_max         42.926
_refine_diff_density_min         -4.516
_refine_diff_density_rms         1.064
_refine_ls_extinction_method     none
_refine_ls_goodness_of_fit_ref   5.814
_refine_ls_hydrogen_treatment    undef
_refine_ls_matrix_type           full
_refine_ls_number_parameters     343
_refine_ls_number_reflns         12545
_refine_ls_number_restraints     0
_refine_ls_restrained_S_all      5.814
_refine_ls_R_factor_all          0.5924
_refine_ls_R_factor_gt           0.5622
_refine_ls_shift/su_max          0.888
_refine_ls_shift/su_mean         0.162
_refine_ls_structure_factor_coef Fsqd
_refine_ls_weighting_details
'w=1/[\s^2^(Fo^2^)+(0.2000P)^2^] where P=(Fo^2^+2Fc^2^)/3'
_refine_ls_weighting_scheme      calc
_refine_ls_wR_factor_gt          0.8534
_refine_ls_wR_factor_ref         0.8781
_reflns_Friedel_coverage         0.000
_reflns_number_gt                9164
_reflns_number_total             12545
_reflns_threshold_expression     'I > 2\s(I)'
_cod_data_source_file            c4gc01328j2.cif
_cod_data_source_block           shelx
_cod_depositor_comments
;
          Adding full bibliography for 7218373.cif.

2018-01-27
Z value and formula changed from absurd orginal values
                 miguel
;
_cod_original_formula_sum            'C2 H2 I2 N2 O2 S2'
_cod_original_formula_weight         403.98
_cod_original_formula_units_Z            18
_cod_original_cell_volume        2805.2(11)
_cod_database_code               7218373
#BEGIN Tags that were not found in dictionaries:
_shelx_space_group_comment
;
The symmetry employed for this shelxl refinement is uniquely defined
by the following loop, which should always be used as a source of
symmetry information in preference to the above space-group names.
They are only intended as comments.
;
_shelxl_version_number           2013-4
_shelx_res_file
;
TITL p in P-1
CELL  0.71073  12.7711  14.5793  16.3767  106.526  105.210   91.303
ZERR    18.00   0.0026   0.0029   0.0033    0.030    0.030    0.030
LATT   1
SFAC  C    H    N    O    S    I
UNIT  36   36   36   36   36   36
MERG   2
FMAP   2
PLAN   20
ACTA
BOND
L.S.   4
WGHT    0.200000
FVAR       0.20120
I1    6    0.616155    0.590554   -0.330837    11.00000    0.06395    0.05337 =
         0.07290    0.00195    0.02809    0.00316
S1    5    0.518391    0.835461    0.104427    11.00000    0.06175    0.06285 =
         0.06554    0.01410    0.02777    0.00677
O4    4    0.498459    0.801511   -0.107818    11.00000    0.04229    0.10374 =
         0.06684    0.03939    0.01573   -0.01015
N1    3    0.462671    0.751994    0.008183    11.00000    0.05036    0.03842 =
         0.04233    0.02463   -0.00703   -0.01638
O5    4   -0.071501    0.712391   -0.020134    11.00000    0.02525    0.14248 =
         0.08674    0.05892    0.03694    0.02752
C31   1    0.412459    0.599619   -0.009269    11.00000    0.03013    0.06793 =
         0.07505    0.05642    0.01790    0.01214
C30   1    0.016284    0.745019   -0.126855    11.00000    0.04581    0.11913 =
         0.05364    0.06036    0.00996    0.00627
C29   1    0.755526    0.870793   -0.260152    11.00000    0.09866    0.06144 =
         0.02363    0.01398    0.03018   -0.01022
O2    4    0.527224    0.795476    0.173602    11.00000    0.07106    0.12234 =
         0.05651    0.03346    0.03891   -0.00388
C28   1    0.602907    0.782333   -0.218935    11.00000    0.10803    0.10740 =
         0.22009    0.15419    0.04146    0.03570
O3    4    0.451605    0.685094   -0.239963    11.00000    0.13210    0.04550 =
         0.16952    0.03149    0.11072    0.00348
C26   1    0.509819    0.659711   -0.008617    11.00000    0.05783    0.07703 =
         0.05032   -0.01339    0.03738   -0.05528
C25   1    0.660506    0.864099    0.113258    11.00000    0.13763    0.06464 =
         0.09428    0.00666    0.08245   -0.04720
C24   1    0.230895    0.774286   -0.078239    11.00000    0.11007    0.05641 =
         0.02992    0.01736    0.02153    0.03991
O1    4    0.453934    0.914754    0.093745    11.00000    0.18116    0.11547 =
         0.17373    0.06353    0.13423    0.10852
C23   1    0.656650    0.746387   -0.263992    11.00000    0.05547    0.10591 =
         0.07070    0.07516    0.01515   -0.01190
C22   1    0.624699    0.902851   -0.167714    11.00000    0.04785    0.30181 =
         0.05406    0.07536    0.00519   -0.03511
C21   1    0.421775    0.784772   -0.068684    11.00000    0.05136    0.11187 =
         0.05718    0.03148    0.02907   -0.01595
C20   1    0.720700    0.899433   -0.193233    11.00000    0.02779    0.32733 =
         0.07388    0.06715    0.02659   -0.04630
C19   1    0.116371    0.752873   -0.147552    11.00000    0.04434    0.09871 =
         0.04774    0.05006    0.02048    0.00072
C18   1    0.382242    0.559685    0.038037    11.00000    0.07980    0.09663 =
         0.09059    0.06485    0.05625    0.08209
C17   1    0.280039    0.497641    0.034431    11.00000    0.03516    0.02687 =
         0.18002    0.02161    0.02614    0.00057
C16   1    0.519359    0.747498   -0.179151    11.00000    0.02378    0.13718 =
         0.04580    0.01675    0.01950    0.02151
C15   1    0.217957    0.739044   -0.009143    11.00000    0.06734    0.03804 =
         0.07478    0.04127    0.03954    0.02865
C14   1   -0.186401    0.720722   -0.081133    11.00000    0.06067    0.12836 =
         0.05168    0.02979    0.02691    0.02884
C13   1    0.730273    0.797359   -0.285592    11.00000    0.05934    0.27882 =
         0.37147    0.30329    0.08996    0.03815
C12   1    0.318752    0.791835   -0.100270    11.00000    0.09808    0.04010 =
         0.02600    0.00470    0.02223    0.03761
C11   1    0.344657    0.527371   -0.114660    11.00000    0.08047    0.05498 =
         0.05386    0.02488    0.00275   -0.01553
C10   1    0.261511    0.468742   -0.127837    11.00000    0.08700    0.06918 =
         0.05444    0.00223    0.03482    0.01108
C9    1    0.012958    0.722473   -0.056537    11.00000    0.06895    0.08569 =
         0.07449    0.01315    0.05812   -0.01622
C8    1    0.228152    0.460022   -0.050920    11.00000    0.03206    0.08925 =
         0.11486    0.06505    0.01453   -0.00916
C7    1    0.116854    0.729671    0.013702    11.00000    0.05688    0.12824 =
         0.07832    0.07454    0.04510    0.02647
C6    1    0.666436    0.951908    0.082064    11.00000    0.04162    0.13915 =
         0.16585    0.12398    0.04900    0.03321
C5    1    0.739444    0.828251    0.142239    11.00000    0.18202    0.12664 =
         0.09615    0.09586   -0.10438   -0.11476
C4    1    0.974592    0.965376    0.112155    11.00000    0.09451    0.05106 =
         0.17649   -0.00701    0.04658   -0.04438
C3    1    0.853220    0.925782    0.118786    11.00000    0.04456    0.06804 =
         0.12271    0.01145    0.03375   -0.00499
C2    1    0.837554    0.871350    0.132298    11.00000    0.37743    0.03201 =
         0.14890   -0.05541   -0.14418   -0.00255
C1    1    0.786845    0.967885    0.063144    11.00000    0.03112    0.02043 =
         0.04974    0.00516   -0.00825   -0.01872
HKLF    4

REM  p in P-1
REM R1 =  0.5622 for    9164 Fo > 4sig(Fo)  and  0.5924 for all   12545 data
REM    343 parameters refined using      0 restraints

END

WGHT      0.2000      0.0000

REM Highest difference peak 42.926,  deepest hole -4.516,  1-sigma level  1.064
Q1    1   0.1010  0.5567  0.1910  11.00000  0.05   42.93
Q2    1   0.3362  0.7383 -0.4630  11.00000  0.05   13.73
Q3    1   0.1356  0.6246  0.1503  11.00000  0.05   13.46
Q4    1   0.9824  0.8441 -0.3972  11.00000  0.05   12.65
Q5    1   0.7782  1.0102  0.0465  11.00000  0.05    5.64
Q6    1   1.0017  0.7892  0.4039  11.00000  0.05    5.44
Q7    1   0.9635  1.1274  0.4174  11.00000  0.05    5.41
Q8    1   0.9408  0.7472 -0.4886  11.00000  0.05    4.97
Q9    1   0.2529  0.3323 -0.2599  11.00000  0.05    4.93
Q10   1   0.9194  0.9220 -0.4094  11.00000  0.05    4.89
Q11   1   0.1987  0.3139 -0.2432  11.00000  0.05    4.86
Q12   1  -0.0134  0.8066 -0.3310  11.00000  0.05    4.79
Q13   1   0.1967  0.8409 -0.3479  11.00000  0.05    4.71
Q14   1   0.6671  1.0572  0.3599  11.00000  0.05    4.40
Q15   1   0.1613  0.7006  0.2610  11.00000  0.05    4.08
Q16   1   0.0652  0.2990 -0.2621  11.00000  0.05    4.08
Q17   1   0.5882  0.3618 -0.4100  11.00000  0.05    4.07
Q18   1   0.6997  0.9968  0.4626  11.00000  0.05    3.94
Q19   1   0.0821  0.4131 -0.4529  11.00000  0.05    3.84
Q20   1   0.7120  0.7422  0.3943  11.00000  0.05    3.79
;
_shelx_res_checksum              39342
#END Tags that were not found in dictionaries
loop_
_space_group_symop_operation_xyz
'x, y, z'
'-x, -y, -z'
loop_
_atom_site_label
_atom_site_type_symbol
_atom_site_fract_x
_atom_site_fract_y
_atom_site_fract_z
_atom_site_U_iso_or_equiv
_atom_site_adp_type
_atom_site_occupancy
_atom_site_site_symmetry_order
_atom_site_calc_flag
I1 I 0.6162(2) 0.59055(18) -0.33084(18) 0.0654(12) Uani 1 1 d
S1 S 0.5184(8) 0.8355(8) 0.1044(7) 0.063(2) Uani 1 1 d
O4 O 0.498(2) 0.802(2) -0.1078(18) 0.068(7) Uani 1 1 d
N1 N 0.463(2) 0.7520(18) 0.0082(16) 0.045(6) Uani 1 1 d
O5 O -0.0715(17) 0.712(3) -0.020(2) 0.075(9) Uani 1 1 d
C31 C 0.412(2) 0.600(3) -0.009(2) 0.049(8) Uani 1 1 d
C30 C 0.016(3) 0.745(4) -0.127(2) 0.066(11) Uani 1 1 d
C29 C 0.756(4) 0.871(3) -0.2602(18) 0.059(10) Uani 1 1 d
O2 O 0.527(3) 0.795(3) 0.1736(19) 0.078(9) Uani 1 1 d
C28 C 0.603(5) 0.782(4) -0.219(6) 0.12(3) Uani 1 1 d
O3 O 0.452(4) 0.685(2) -0.240(3) 0.102(14) Uani 1 1 d
C26 C 0.510(3) 0.660(3) -0.009(2) 0.065(11) Uani 1 1 d
C25 C 0.661(5) 0.864(3) 0.113(4) 0.094(18) Uani 1 1 d
C24 C 0.231(4) 0.774(3) -0.078(2) 0.064(11) Uani 1 1 d
O1 O 0.454(5) 0.915(4) 0.094(4) 0.134(19) Uani 1 1 d
C23 C 0.657(3) 0.746(4) -0.264(3) 0.068(12) Uani 1 1 d
C22 C 0.625(4) 0.903(8) -0.168(3) 0.13(4) Uani 1 1 d
C21 C 0.422(3) 0.785(4) -0.069(3) 0.070(11) Uani 1 1 d
C20 C 0.721(3) 0.899(8) -0.193(3) 0.14(4) Uani 1 1 d
C19 C 0.116(3) 0.753(3) -0.148(2) 0.056(9) Uani 1 1 d
C18 C 0.382(4) 0.560(3) 0.038(3) 0.073(13) Uani 1 1 d
C17 C 0.280(3) 0.498(2) 0.034(4) 0.084(17) Uani 1 1 d
C16 C 0.519(2) 0.747(4) -0.179(2) 0.069(12) Uani 1 1 d
C15 C 0.218(3) 0.739(2) -0.009(2) 0.051(8) Uani 1 1 d
C14 C -0.186(3) 0.721(4) -0.081(3) 0.077(12) Uani 1 1 d
C13 C 0.730(4) 0.797(7) -0.286(7) 0.19(4) Uani 1 1 d
C12 C 0.319(3) 0.792(2) -0.1003(18) 0.054(9) Uani 1 1 d
C11 C 0.345(4) 0.527(3) -0.115(3) 0.065(10) Uani 1 1 d
C10 C 0.262(4) 0.469(4) -0.128(3) 0.071(11) Uani 1 1 d
C9 C 0.013(3) 0.722(4) -0.057(3) 0.072(11) Uani 1 1 d
C8 C 0.228(3) 0.460(4) -0.051(4) 0.073(13) Uani 1 1 d
C7 C 0.117(3) 0.730(4) 0.014(3) 0.073(13) Uani 1 1 d
C6 C 0.666(3) 0.952(4) 0.082(5) 0.094(19) Uani 1 1 d
C5 C 0.739(6) 0.828(5) 0.142(4) 0.15(4) Uani 1 1 d
C4 C 0.975(5) 0.965(4) 0.112(6) 0.12(3) Uani 1 1 d
C3 C 0.853(4) 0.926(4) 0.119(5) 0.080(14) Uani 1 1 d
C2 C 0.838(11) 0.871(5) 0.132(6) 0.25(8) Uani 1 1 d
C1 C 0.787(2) 0.9679(18) 0.063(2) 0.039(6) Uani 1 1 d
loop_
_atom_site_aniso_label
_atom_site_aniso_U_11
_atom_site_aniso_U_22
_atom_site_aniso_U_33
_atom_site_aniso_U_23
_atom_site_aniso_U_13
_atom_site_aniso_U_12
I1 0.0640(17) 0.0534(15) 0.0729(18) 0.0020(11) 0.0281(12) 0.0032(10)
S1 0.062(5) 0.063(5) 0.066(5) 0.014(4) 0.028(4) 0.007(4)
O4 0.042(12) 0.10(2) 0.067(15) 0.039(15) 0.016(11) -0.010(12)
N1 0.050(13) 0.038(12) 0.042(11) 0.025(11) -0.007(10) -0.016(10)
O5 0.025(9) 0.14(3) 0.087(17) 0.059(19) 0.037(10) 0.028(13)
C31 0.030(12) 0.07(2) 0.08(2) 0.056(19) 0.018(12) 0.012(13)
C30 0.046(17) 0.12(3) 0.054(17) 0.06(2) 0.010(14) 0.006(19)
C29 0.10(3) 0.06(2) 0.024(12) 0.014(14) 0.030(14) -0.01(2)
O2 0.071(18) 0.12(3) 0.057(14) 0.033(17) 0.039(13) -0.004(18)
C28 0.11(3) 0.11(4) 0.22(7) 0.15(5) 0.04(4) 0.04(3)
O3 0.13(3) 0.045(14) 0.17(4) 0.03(2) 0.11(3) 0.003(17)
C26 0.058(18) 0.08(2) 0.050(15) -0.013(15) 0.037(14) -0.055(18)
C25 0.14(4) 0.06(2) 0.09(3) 0.01(2) 0.08(3) -0.05(3)
C24 0.11(3) 0.056(19) 0.030(13) 0.017(14) 0.022(16) 0.04(2)
O1 0.18(5) 0.12(3) 0.17(4) 0.06(3) 0.13(4) 0.11(4)
C23 0.06(2) 0.11(3) 0.07(2) 0.08(2) 0.015(16) -0.01(2)
C22 0.05(2) 0.30(11) 0.05(2) 0.08(5) 0.005(19) -0.04(4)
C21 0.051(19) 0.11(3) 0.057(18) 0.03(2) 0.029(15) -0.02(2)
C20 0.028(18) 0.33(12) 0.07(3) 0.07(5) 0.027(18) -0.05(3)
C19 0.044(16) 0.10(3) 0.048(16) 0.050(19) 0.020(13) 0.001(17)
C18 0.08(3) 0.10(3) 0.09(3) 0.06(2) 0.06(2) 0.08(3)
C17 0.035(17) 0.027(14) 0.18(5) 0.02(2) 0.03(2) 0.001(12)
C16 0.024(12) 0.14(4) 0.046(16) 0.02(2) 0.019(11) 0.022(18)
C15 0.067(19) 0.038(14) 0.07(2) 0.041(16) 0.040(16) 0.029(14)
C14 0.06(2) 0.13(4) 0.052(18) 0.03(2) 0.027(16) 0.03(2)
C13 0.06(2) 0.28(8) 0.37(9) 0.30(8) 0.09(4) 0.04(3)
C12 0.10(3) 0.040(15) 0.026(12) 0.005(11) 0.022(14) 0.038(16)
C11 0.08(2) 0.05(2) 0.054(19) 0.025(17) 0.003(17) -0.016(18)
C10 0.09(3) 0.07(3) 0.054(19) 0.002(18) 0.035(19) 0.01(2)
C9 0.07(2) 0.09(3) 0.07(2) 0.01(2) 0.058(19) -0.02(2)
C8 0.032(15) 0.09(3) 0.11(3) 0.07(3) 0.015(19) -0.009(17)
C7 0.057(19) 0.13(4) 0.08(2) 0.07(3) 0.045(18) 0.03(2)
C6 0.042(18) 0.14(4) 0.17(5) 0.12(4) 0.05(2) 0.03(2)
C5 0.18(6) 0.13(4) 0.10(3) 0.10(4) -0.10(4) -0.11(4)
C4 0.09(4) 0.05(3) 0.18(7) -0.01(3) 0.05(4) -0.04(3)
C3 0.04(2) 0.07(3) 0.12(5) 0.01(3) 0.03(2) -0.005(19)
C2 0.38(14) 0.03(4) 0.15(6) -0.06(4) -0.14(8) 0.00(6)
C1 0.031(12) 0.020(11) 0.050(15) 0.005(11) -0.008(11) -0.019(9)
loop_
_atom_type_symbol
_atom_type_description
_atom_type_scat_dispersion_real
_atom_type_scat_dispersion_imag
_atom_type_scat_source
C C 0.0033 0.0016 'International Tables Vol C Tables 4.2.6.8 and 6.1.1.4'
H H 0.0000 0.0000 'International Tables Vol C Tables 4.2.6.8 and 6.1.1.4'
N N 0.0061 0.0033 'International Tables Vol C Tables 4.2.6.8 and 6.1.1.4'
O O 0.0106 0.0060 'International Tables Vol C Tables 4.2.6.8 and 6.1.1.4'
S S 0.1246 0.1234 'International Tables Vol C Tables 4.2.6.8 and 6.1.1.4'
I I -0.4742 1.8119 'International Tables Vol C Tables 4.2.6.8 and 6.1.1.4'
loop_
_geom_angle_atom_site_label_1
_geom_angle_atom_site_label_2
_geom_angle_atom_site_label_3
_geom_angle
O1 S1 O2 124(3)
O1 S1 N1 101(3)
O2 S1 N1 109.5(19)
O1 S1 C25 112(3)
O2 S1 C25 102(2)
N1 S1 C25 108.5(19)
C16 O4 C21 129(4)
C21 N1 C26 116(3)
C21 N1 S1 117(3)
C26 N1 S1 118(2)
C9 O5 C14 113(3)
C18 C31 C26 140(4)
C18 C31 C11 103(4)
C26 C31 C11 112(3)
C9 C30 C19 121(3)
C13 C29 C20 105(7)
C23 C28 C22 120(4)
C23 C28 C16 136(5)
C22 C28 C16 104(5)
N1 C26 C31 96(3)
C5 C25 C6 123(4)
C5 C25 S1 130(4)
C6 C25 S1 107(4)
C12 C24 C15 130(3)
C12 C24 C19 121(3)
C15 C24 C19 105(4)
C28 C23 C13 123(7)
C28 C23 I1 116(4)
C13 C23 I1 120(6)
C20 C22 C28 86(7)
C12 C21 O4 123(3)
C12 C21 N1 122(3)
O4 C21 N1 115(3)
C29 C20 C22 142(5)
C30 C19 C24 124(3)
C31 C18 C17 138(4)
C8 C17 C18 106(5)
O3 C16 O4 124(3)
O3 C16 C28 108(4)
O4 C16 C28 122(5)
C24 C15 C7 126(3)
C29 C13 C23 128(9)
C21 C12 C24 134(3)
C10 C11 C31 121(4)
C11 C10 C8 119(4)
C30 C9 O5 132(4)
C30 C9 C7 119(3)
O5 C9 C7 107(3)
C17 C8 C10 128(4)
C15 C7 C9 118(3)
C25 C6 C1 111(3)
C2 C5 C25 111(5)
C1 C3 C2 128(8)
C1 C3 C4 99(5)
C2 C3 C4 127(10)
C5 C2 C3 134(10)
C3 C1 C6 102(3)
loop_
_geom_bond_atom_site_label_1
_geom_bond_atom_site_label_2
_geom_bond_distance
I1 C23 2.21(5)
S1 O1 1.46(4)
S1 O2 1.40(3)
S1 N1 1.66(3)
S1 C25 1.81(5)
O4 C16 1.31(5)
O4 C21 1.36(4)
N1 C21 1.45(5)
N1 C26 1.47(5)
O5 C9 1.39(4)
O5 C14 1.57(4)
C31 C18 1.22(5)
C31 C26 1.50(4)
C31 C11 1.73(6)
C30 C9 1.29(5)
C30 C19 1.42(5)
C29 C13 1.04(10)
C29 C20 1.26(7)
C28 C23 1.16(8)
C28 C22 1.70(12)
C28 C16 1.53(7)
O3 C16 1.25(6)
C25 C5 1.20(10)
C25 C6 1.51(6)
C24 C12 1.31(6)
C24 C15 1.41(5)
C24 C19 1.56(5)
C23 C13 1.36(4)
C22 C20 1.39(7)
C21 C12 1.30(6)
C18 C17 1.55(6)
C17 C8 1.32(8)
C15 C7 1.45(5)
C11 C10 1.28(7)
C10 C8 1.47(7)
C9 C7 1.49(6)
C6 C1 1.67(5)
C5 C2 1.46(19)
C4 C3 1.68(7)
C3 C1 1.36(7)
C3 C2 0.91(14)
