#------------------------------------------------------------------------------
#$Date: 2016-03-26 22:34:52 +0200 (Sat, 26 Mar 2016) $
#$Revision: 180511 $
#$URL: svn://www.crystallography.net/cod/cif/7/21/80/7218052.cif $
#------------------------------------------------------------------------------
#
# This file is available in the Crystallography Open Database (COD),
# http://www.crystallography.net/
#
# All data on this site have been placed in the public domain by the
# contributors.
#
data_7218052
loop_
_publ_author_name
'Merhi, Areej'
'Roisnel, Thierry'
'Rigaut, St\'ephane'
'Train, Cyrille'
'Norel, Lucie'
_publ_section_title
;
 Ferromagnetic intermolecular exchange interaction in ethynyl-verdazyl
 radical crystals
;
_journal_issue                   42
_journal_name_full               CrystEngComm
_journal_page_first              9783
_journal_paper_doi               10.1039/C4CE01437E
_journal_volume                  16
_journal_year                    2014
_chemical_compound_source        'synthesis as described'
_chemical_formula_moiety         'C12 H11 N4 O'
_chemical_formula_sum            'C12 H11 N4 O'
_chemical_formula_weight         227.25
_chemical_name_systematic
;
 ?
;
_space_group_IT_number           2
_symmetry_cell_setting           triclinic
_symmetry_Int_Tables_number      2
_symmetry_space_group_name_Hall  '-P 1'
_symmetry_space_group_name_H-M   'P -1'
_atom_sites_solution_hydrogens   geom
_atom_sites_solution_primary     direct
_atom_sites_solution_secondary   difmap
_audit_conform_dict_location     ftp://ftp.iucr.org/pub/cif_core.dic
_audit_conform_dict_name         cif_core.dic
_audit_conform_dict_version      2.4
_audit_creation_date             2012-03-06T18:13:38-00:00
_audit_creation_method           'WinGX routine CIF_UPDATE'
_cell_angle_alpha                104.875(4)
_cell_angle_beta                 94.557(4)
_cell_angle_gamma                93.967(4)
_cell_formula_units_Z            2
_cell_length_a                   3.9940(4)
_cell_length_b                   11.1412(9)
_cell_length_c                   12.8857(11)
_cell_measurement_reflns_used    1617
_cell_measurement_temperature    200(2)
_cell_measurement_theta_max      27.38
_cell_measurement_theta_min      2.82
_cell_measurement_wavelength     0.71073
_cell_volume                     550.03(9)
_computing_cell_refinement       'Bruker APEX2 (Bruker, 2006)'
_computing_data_collection       'Bruker APEX2 (Bruker, 2006)'
_computing_data_reduction        'Bruker APEX2 (Bruker, 2006)'
_computing_molecular_graphics    'Ortep-3 for Windows (Farrugia, 1997)'
_computing_publication_material
;
           WinGX publication routines (Farrugia, 1999),
           CRYSCAL (T. Roisnel, local program)
;
_computing_structure_refinement  'SHELXL-97 (Sheldrick, 1997)'
_computing_structure_solution    'SIR97 (Altomare et al., 1999)'
_diffrn_ambient_temperature      200(2)
_diffrn_detector                 'CCD plate'
_diffrn_measured_fraction_theta_full 0.982
_diffrn_measured_fraction_theta_max 0.982
_diffrn_measurement_device_type  'APEXII, Bruker-AXS'
_diffrn_measurement_method       'CCD rotation images, thin slices'
_diffrn_radiation_monochromator  graphite
_diffrn_radiation_probe          x-ray
_diffrn_radiation_type           MoK\a
_diffrn_radiation_wavelength     0.71073
_diffrn_reflns_av_R_equivalents  0.0364
_diffrn_reflns_av_unetI/netI     0.046
_diffrn_reflns_limit_h_max       5
_diffrn_reflns_limit_h_min       -5
_diffrn_reflns_limit_k_max       14
_diffrn_reflns_limit_k_min       -14
_diffrn_reflns_limit_l_max       16
_diffrn_reflns_limit_l_min       -16
_diffrn_reflns_number            6715
_diffrn_reflns_theta_full        27.48
_diffrn_reflns_theta_max         27.48
_diffrn_reflns_theta_min         4.21
_exptl_absorpt_coefficient_mu    0.093
_exptl_absorpt_correction_T_max  0.995
_exptl_absorpt_correction_T_min  0.887
_exptl_absorpt_correction_type   multi-scan
_exptl_absorpt_process_details
;
  [Sheldrick, G.M. (2002). SADABS Bruker AXS Inc., Madison, Wisconsin, USA]
;
_exptl_crystal_colour            red
_exptl_crystal_density_diffrn    1.372
_exptl_crystal_density_method    'not measured'
_exptl_crystal_description       plate
_exptl_crystal_F_000             238
_exptl_crystal_size_max          0.33
_exptl_crystal_size_mid          0.22
_exptl_crystal_size_min          0.05
_refine_diff_density_max         0.244
_refine_diff_density_min         -0.165
_refine_diff_density_rms         0.041
_refine_ls_extinction_method     none
_refine_ls_goodness_of_fit_ref   0.957
_refine_ls_hydrogen_treatment    constr
_refine_ls_matrix_type           full
_refine_ls_number_parameters     155
_refine_ls_number_reflns         2472
_refine_ls_number_restraints     0
_refine_ls_restrained_S_all      0.957
_refine_ls_R_factor_all          0.0763
_refine_ls_R_factor_gt           0.0502
_refine_ls_shift/su_max          0.003
_refine_ls_shift/su_mean         0
_refine_ls_structure_factor_coef Fsqd
_refine_ls_weighting_details
'calc w=1/[\s^2^(Fo^2^)+(0.0576P)^2^+0.1753P] where P=(Fo^2^+2Fc^2^)/3'
_refine_ls_weighting_scheme      calc
_refine_ls_wR_factor_gt          0.1192
_refine_ls_wR_factor_ref         0.134
_reflns_number_gt                1673
_reflns_number_total             2472
_reflns_threshold_expression     >2sigma(I)
_iucr_refine_instructions_details
;
 .res file for SHELXL : job.res
.................................................................
TITL                                    import in P -1
CELL    0.71073    3.9940   11.1412   12.8857  104.8750   94.5570   93.9670
ZERR         2    0.0004    0.0009    0.0011    0.0040    0.0040    0.0040
LATT   1
SFAC  C    H    N    O
UNIT  24   22   8    2
MERG   2
FMAP   2
PLAN   20
ACTA
BOND   $H
CONF
WPDB  -2
L.S.   4
TEMP   -73.00
WGHT    0.057600    0.175300
FVAR       1.63832
O1    4    0.226714    0.298397    0.445551    11.00000    0.05576    0.04467 =
         0.03027    0.01005    0.01628    0.00452
C2    1    0.338638    0.289617    0.358586    11.00000    0.03330    0.03442 =
         0.02663    0.00653    0.00558    0.00020
N3    3    0.483467    0.186036    0.305358    11.00000    0.03969    0.03293 =
         0.02624    0.01149    0.00693    0.00529
C4    1    0.525736    0.084850    0.356917    11.00000    0.05185    0.03916 =
         0.03787    0.01871    0.00889    0.00644
AFIX 137
H4A   2    0.667789    0.116657    0.425511    11.00000   -1.50000
H4B   2    0.633268    0.018399    0.309409    11.00000   -1.50000
H4C   2    0.304508    0.051609    0.370422    11.00000   -1.50000
AFIX   0
N5    3    0.607754    0.171462    0.207457    11.00000    0.04020    0.03255 =
         0.02534    0.00936    0.00771    0.00558
C6    1    0.571245    0.266346    0.163399    11.00000    0.02900    0.02693 =
         0.02588    0.00605    0.00232    0.00216
N7    3    0.440084    0.372703    0.206418    11.00000    0.04232    0.03190 =
         0.02656    0.00723    0.00986    0.00651
N8    3    0.330232    0.381784    0.306048    11.00000    0.04230    0.03004 =
         0.02721    0.00603    0.00936    0.00637
C9    1    0.199632    0.500016    0.355036    11.00000    0.05100    0.03669 =
         0.03727    0.00365    0.01325    0.01083
AFIX 123
H9A   2    0.213703    0.554504    0.306413    10.50000   -1.50000
H9B   2    0.333641    0.540301    0.423808    10.50000   -1.50000
H9C   2   -0.036223    0.484706    0.367812    10.50000   -1.50000
H9D   2    0.127044    0.498504    0.425609    10.50000   -1.50000
H9E   2    0.007106    0.512706    0.308214    10.50000   -1.50000
H9F   2    0.376971    0.568302    0.364210    10.50000   -1.50000
AFIX   0
C10   1    0.689277    0.253702    0.055231    11.00000    0.02831    0.02774 =
         0.02450    0.00668    0.00387    0.00169
C11   1    0.792018    0.141291   -0.003142    11.00000    0.04104    0.02722 =
         0.02910    0.01104    0.00687    0.00627
AFIX  43
H11   2    0.789202    0.071920    0.027038    11.00000   -1.20000
AFIX   0
C12   1    0.898029    0.129545   -0.104492    11.00000    0.04136    0.02760 =
         0.02900    0.00718    0.00681    0.00849
AFIX  43
H12   2    0.968085    0.052342   -0.143250    11.00000   -1.20000
AFIX   0
C13   1    0.902905    0.230093   -0.150230    11.00000    0.03131    0.03194 =
         0.02685    0.00881    0.00581    0.00475
C14   1    0.798036    0.342503   -0.091716    11.00000    0.05276    0.03073 =
         0.03493    0.01586    0.01247    0.00822
AFIX  43
H14   2    0.797895    0.411723   -0.122062    11.00000   -1.20000
AFIX   0
C15   1    0.694878    0.353951    0.009512    11.00000    0.04722    0.02621 =
         0.03433    0.00884    0.01163    0.00960
AFIX  43
H15   2    0.626672    0.431330    0.048605    11.00000   -1.20000
AFIX   0
C16   1    1.012833    0.220092   -0.255917    11.00000    0.03863    0.03044 =
         0.03499    0.01135    0.00806    0.00696
C17   1    1.102593    0.215660   -0.341627    11.00000    0.05509    0.04116 =
         0.03339    0.01437    0.01504    0.00925
AFIX 163
H17   2    1.174969    0.212086   -0.410738    11.00000   -1.20000
HKLF    4

REM                                     import in P -1
REM R1 =  0.0502 for   1673 Fo > 4sig(Fo)  and  0.0763 for all   2472 data
REM    155 parameters refined using      0 restraints

END

WGHT      0.0670      0.0613
 REM Highest difference peak   0.24,  deepest hole  -0.16,  1-sigma level   0.04
Q1    1   0.6412  0.2570  0.1006  11.00000  0.05    0.24
Q2    1   0.9480  0.1565 -0.0399  11.00000  0.05    0.22
Q3    1   0.8471  0.1778 -0.1369  11.00000  0.05    0.21
Q4    1   0.9352  0.1865 -0.1180  11.00000  0.05    0.21
Q5    1   0.7511  0.3056  0.0411  11.00000  0.05    0.21
Q6    1   0.7234  0.1980  0.0212  11.00000  0.05    0.20
Q7    1   0.8480  0.2121  0.0349  11.00000  0.05    0.20
Q8    1   0.8027  0.2819 -0.1293  11.00000  0.05    0.20
Q9    1  -0.0426  0.4665  0.2955  11.00000  0.05    0.19
Q10   1   0.6497  0.4017  0.2504  11.00000  0.05    0.17
Q11   1   0.5544  0.1461  0.3344  11.00000  0.05    0.15
Q12   1   0.8449  0.0204 -0.1928  11.00000  0.05    0.14
Q13   1   1.1572  0.1778 -0.2812  11.00000  0.05    0.14
Q14   1   0.0008  0.4804  0.4068  11.00000  0.05    0.14
Q15   1   0.4119  0.0926  0.4218  11.00000  0.05    0.14
Q16   1   0.3612  0.2169  0.3224  11.00000  0.05    0.14
Q17   1   0.3630  0.3421  0.3346  11.00000  0.05    0.14
Q18   1   1.1777  0.2391 -0.2605  11.00000  0.05    0.13
Q19   1   0.7425  0.1216 -0.0756  11.00000  0.05    0.13
Q20   1   0.9437  0.0980 -0.1180  11.00000  0.05    0.13
;
_cod_data_source_file            c4ce01437e2.cif
_cod_data_source_block           LN_AM_MF_200K
_cod_depositor_comments
'Adding full bibliography for 7218051--7218053.cif.'
_cod_original_cell_volume        550.03(8)
_cod_database_code               7218052
loop_
_symmetry_equiv_pos_as_xyz
'x, y, z'
'-x, -y, -z'
loop_
_atom_site_label
_atom_site_type_symbol
_atom_site_fract_x
_atom_site_fract_y
_atom_site_fract_z
_atom_site_U_iso_or_equiv
_atom_site_adp_type
_atom_site_occupancy
_atom_site_symmetry_multiplicity
_atom_site_calc_flag
_atom_site_refinement_flags
O1 O 0.2267(3) 0.29840(11) 0.44555(9) 0.0429(3) Uani 1 1 d .
C2 C 0.3386(4) 0.28962(15) 0.35859(12) 0.0317(4) Uani 1 1 d .
N3 N 0.4835(3) 0.18604(12) 0.30536(10) 0.0320(3) Uani 1 1 d .
C4 C 0.5257(5) 0.08485(16) 0.35692(14) 0.0410(4) Uani 1 1 d .
H4A H 0.6678 0.1167 0.4255 0.062 Uiso 1 1 calc R
H4B H 0.6333 0.0184 0.3094 0.062 Uiso 1 1 calc R
H4C H 0.3045 0.0516 0.3704 0.062 Uiso 1 1 calc R
N5 N 0.6078(3) 0.17146(12) 0.20746(10) 0.0320(3) Uani 1 1 d .
C6 C 0.5712(4) 0.26635(14) 0.16340(11) 0.0275(3) Uani 1 1 d .
N7 N 0.4401(3) 0.37270(12) 0.20642(10) 0.0332(3) Uani 1 1 d .
N8 N 0.3302(3) 0.38178(13) 0.30605(10) 0.0330(3) Uani 1 1 d .
C9 C 0.1996(5) 0.50002(16) 0.35504(14) 0.0420(4) Uani 1 1 d .
H9A H 0.2137 0.5545 0.3064 0.063 Uiso 0.5 1 calc PR
H9B H 0.3336 0.5403 0.4238 0.063 Uiso 0.5 1 calc PR
H9C H -0.0362 0.4847 0.3678 0.063 Uiso 0.5 1 calc PR
H9D H 0.127 0.4985 0.4256 0.063 Uiso 0.5 1 calc PR
H9E H 0.0071 0.5127 0.3082 0.063 Uiso 0.5 1 calc PR
H9F H 0.377 0.5683 0.3642 0.063 Uiso 0.5 1 calc PR
C10 C 0.6893(4) 0.25370(14) 0.05523(11) 0.0269(3) Uani 1 1 d .
C11 C 0.7920(4) 0.14129(15) -0.00314(12) 0.0314(4) Uani 1 1 d .
H11 H 0.7892 0.0719 0.027 0.038 Uiso 1 1 calc R
C12 C 0.8980(4) 0.12955(15) -0.10449(12) 0.0323(4) Uani 1 1 d .
H12 H 0.9681 0.0523 -0.1433 0.039 Uiso 1 1 calc R
C13 C 0.9029(4) 0.23009(14) -0.15023(12) 0.0296(4) Uani 1 1 d .
C14 C 0.7980(4) 0.34250(15) -0.09172(13) 0.0375(4) Uani 1 1 d .
H14 H 0.7979 0.4117 -0.1221 0.045 Uiso 1 1 calc R
C15 C 0.6949(4) 0.35395(15) 0.00951(13) 0.0350(4) Uani 1 1 d .
H15 H 0.6267 0.4313 0.0486 0.042 Uiso 1 1 calc R
C16 C 1.0128(4) 0.22009(15) -0.25592(13) 0.0338(4) Uani 1 1 d .
C17 C 1.1026(5) 0.21566(17) -0.34163(14) 0.0416(4) Uani 1 1 d .
H17 H 1.175 0.2121 -0.4107 0.05 Uiso 1 1 calc R
loop_
_atom_site_aniso_label
_atom_site_aniso_U_11
_atom_site_aniso_U_22
_atom_site_aniso_U_33
_atom_site_aniso_U_23
_atom_site_aniso_U_13
_atom_site_aniso_U_12
O1 0.0558(8) 0.0447(7) 0.0303(6) 0.0100(5) 0.0163(5) 0.0045(6)
C2 0.0333(8) 0.0344(9) 0.0266(8) 0.0065(7) 0.0056(7) 0.0002(7)
N3 0.0397(8) 0.0329(8) 0.0262(7) 0.0115(6) 0.0069(6) 0.0053(6)
C4 0.0519(11) 0.0392(10) 0.0379(9) 0.0187(8) 0.0089(8) 0.0064(8)
N5 0.0402(8) 0.0325(8) 0.0253(7) 0.0094(6) 0.0077(6) 0.0056(6)
C6 0.0290(8) 0.0269(8) 0.0259(8) 0.0061(6) 0.0023(6) 0.0022(6)
N7 0.0423(8) 0.0319(8) 0.0266(7) 0.0072(6) 0.0099(6) 0.0065(6)
N8 0.0423(8) 0.0300(7) 0.0272(7) 0.0060(6) 0.0094(6) 0.0064(6)
C9 0.0510(11) 0.0367(10) 0.0373(9) 0.0036(8) 0.0132(8) 0.0108(8)
C10 0.0283(8) 0.0277(8) 0.0245(7) 0.0067(6) 0.0039(6) 0.0017(6)
C11 0.0410(9) 0.0272(8) 0.0291(8) 0.0110(6) 0.0069(7) 0.0063(7)
C12 0.0414(9) 0.0276(8) 0.0290(8) 0.0072(6) 0.0068(7) 0.0085(7)
C13 0.0313(8) 0.0319(9) 0.0269(8) 0.0088(6) 0.0058(6) 0.0047(7)
C14 0.0528(11) 0.0307(9) 0.0349(9) 0.0159(7) 0.0125(8) 0.0082(8)
C15 0.0472(10) 0.0262(8) 0.0343(9) 0.0088(7) 0.0116(7) 0.0096(7)
C16 0.0386(9) 0.0304(9) 0.0350(9) 0.0114(7) 0.0081(7) 0.0070(7)
C17 0.0551(11) 0.0412(10) 0.0334(9) 0.0144(7) 0.0150(8) 0.0092(8)
loop_
_atom_type_symbol
_atom_type_description
_atom_type_scat_dispersion_real
_atom_type_scat_dispersion_imag
_atom_type_scat_source
C C 0.0033 0.0016 'International Tables Vol C Tables 4.2.6.8 and 6.1.1.4'
H H 0 0 'International Tables Vol C Tables 4.2.6.8 and 6.1.1.4'
N N 0.0061 0.0033 'International Tables Vol C Tables 4.2.6.8 and 6.1.1.4'
O O 0.0106 0.006 'International Tables Vol C Tables 4.2.6.8 and 6.1.1.4'
loop_
_geom_angle_atom_site_label_1
_geom_angle_atom_site_label_2
_geom_angle_atom_site_label_3
_geom_angle
O1 C2 N8 122.99(15)
O1 C2 N3 122.67(15)
N8 C2 N3 114.34(14)
N5 N3 C2 124.69(13)
N5 N3 C4 116.06(13)
C2 N3 C4 119.20(14)
N3 C4 H4A 109.5
N3 C4 H4B 109.5
H4A C4 H4B 109.5
N3 C4 H4C 109.5
H4A C4 H4C 109.5
H4B C4 H4C 109.5
C6 N5 N3 114.66(13)
N5 C6 N7 126.96(14)
N5 C6 C10 117.11(14)
N7 C6 C10 115.93(14)
C6 N7 N8 114.85(13)
C2 N8 N7 124.41(13)
C2 N8 C9 120.72(14)
N7 N8 C9 114.87(13)
N8 C9 H9A 109.5
N8 C9 H9B 109.5
H9A C9 H9B 109.5
N8 C9 H9C 109.5
H9A C9 H9C 109.5
H9B C9 H9C 109.5
N8 C9 H9D 109.5
H9A C9 H9D 141.1
H9B C9 H9D 56.3
H9C C9 H9D 56.3
N8 C9 H9E 109.5
H9A C9 H9E 56.3
H9B C9 H9E 141.1
H9C C9 H9E 56.3
H9D C9 H9E 109.5
N8 C9 H9F 109.5
H9A C9 H9F 56.3
H9B C9 H9F 56.3
H9C C9 H9F 141.1
H9D C9 H9F 109.5
H9E C9 H9F 109.5
C15 C10 C11 118.70(14)
C15 C10 C6 120.35(14)
C11 C10 C6 120.94(14)
C12 C11 C10 120.72(15)
C12 C11 H11 119.6
C10 C11 H11 119.6
C11 C12 C13 120.48(15)
C11 C12 H12 119.8
C13 C12 H12 119.8
C12 C13 C14 118.66(14)
C12 C13 C16 121.48(14)
C14 C13 C16 119.86(14)
C15 C14 C13 120.62(15)
C15 C14 H14 119.7
C13 C14 H14 119.7
C14 C15 C10 120.81(15)
C14 C15 H15 119.6
C10 C15 H15 119.6
C17 C16 C13 178.04(18)
C16 C17 H17 180
loop_
_geom_bond_atom_site_label_1
_geom_bond_atom_site_label_2
_geom_bond_distance
O1 C2 1.2225(18)
C2 N8 1.368(2)
C2 N3 1.373(2)
N3 N5 1.3674(17)
N3 C4 1.461(2)
C4 H4A 0.98
C4 H4B 0.98
C4 H4C 0.98
N5 C6 1.333(2)
C6 N7 1.334(2)
C6 C10 1.482(2)
N7 N8 1.3711(17)
N8 C9 1.458(2)
C9 H9A 0.98
C9 H9B 0.98
C9 H9C 0.98
C9 H9D 0.98
C9 H9E 0.98
C9 H9F 0.98
C10 C15 1.390(2)
C10 C11 1.393(2)
C11 C12 1.382(2)
C11 H11 0.95
C12 C13 1.393(2)
C12 H12 0.95
C13 C14 1.397(2)
C13 C16 1.443(2)
C14 C15 1.376(2)
C14 H14 0.95
C15 H15 0.95
C16 C17 1.178(2)
C17 H17 0.95
loop_
_geom_torsion_atom_site_label_1
_geom_torsion_atom_site_label_2
_geom_torsion_atom_site_label_3
_geom_torsion_atom_site_label_4
_geom_torsion
O1 C2 N3 N5 179.09(14)
N8 C2 N3 N5 -0.9(2)
O1 C2 N3 C4 -3.9(2)
N8 C2 N3 C4 176.16(13)
C2 N3 N5 C6 -1.7(2)
C4 N3 N5 C6 -178.77(13)
N3 N5 C6 N7 2.6(2)
N3 N5 C6 C10 -177.69(12)
N5 C6 N7 N8 -0.8(2)
C10 C6 N7 N8 179.49(12)
O1 C2 N8 N7 -177.03(14)
N3 C2 N8 N7 2.9(2)
O1 C2 N8 C9 3.2(2)
N3 C2 N8 C9 -176.88(14)
C6 N7 N8 C2 -2.2(2)
C6 N7 N8 C9 177.60(14)
N5 C6 C10 C15 -172.71(14)
N7 C6 C10 C15 7.1(2)
N5 C6 C10 C11 8.2(2)
N7 C6 C10 C11 -172.06(13)
C15 C10 C11 C12 0.1(2)
C6 C10 C11 C12 179.22(14)
C10 C11 C12 C13 -0.2(2)
C11 C12 C13 C14 -0.1(2)
C11 C12 C13 C16 179.95(14)
C12 C13 C14 C15 0.6(2)
C16 C13 C14 C15 -179.50(15)
C13 C14 C15 C10 -0.7(3)
C11 C10 C15 C14 0.4(2)
C6 C10 C15 C14 -178.78(15)
