#------------------------------------------------------------------------------
#$Date: 2016-03-26 22:41:59 +0200 (Sat, 26 Mar 2016) $
#$Revision: 180515 $
#$URL: svn://www.crystallography.net/cod/cif/7/21/84/7218458.cif $
#------------------------------------------------------------------------------
#
# This file is available in the Crystallography Open Database (COD),
# http://www.crystallography.net/
#
# All data on this site have been placed in the public domain by the
# contributors.
#
data_7218458
loop_
_publ_author_name
'Coles, S. J.'
'Ellis, A. L.'
'Leung, K.'
'Sarson, J.'
'Threlfall, T. L.'
'Tizzard, G. J.'
_publ_section_title
;
 Relationships between the racemic structures of substituted mandelic
 acids containing 8- and 10-membered hydrogen bonded dimer rings
;
_journal_issue                   47
_journal_name_full               CrystEngComm
_journal_page_first              10816
_journal_paper_doi               10.1039/C4CE01832J
_journal_volume                  16
_journal_year                    2014
_chemical_formula_sum            'C8 H7 Cl O3'
_chemical_formula_weight         186.59
_chemical_name_systematic
;
 ?
;
_space_group_IT_number           14
_symmetry_cell_setting           monoclinic
_symmetry_space_group_name_Hall  '-P 2ybc'
_symmetry_space_group_name_H-M   'P 1 21/c 1'
_atom_sites_solution_hydrogens   geom
_atom_sites_solution_primary     direct
_atom_sites_solution_secondary   difmap
_audit_creation_method           SHELXL-97
_cell_angle_alpha                90.00
_cell_angle_beta                 90.900(6)
_cell_angle_gamma                90.00
_cell_formula_units_Z            4
_cell_length_a                   8.6521(15)
_cell_length_b                   8.9195(15)
_cell_length_c                   10.7309(17)
_cell_measurement_reflns_used    4047
_cell_measurement_temperature    100(2)
_cell_measurement_theta_max      27.5
_cell_measurement_theta_min      3.0
_cell_volume                     828.0(2)
_computing_cell_refinement
;
CrystalClear-SM Expert 3.1 b20 (Rigaku, 2012)
;
_computing_data_collection
;
CrystalClear-SM Expert 3.1 b20 (Rigaku, 2012)
;
_computing_data_reduction
;
CrystalClear-SM Expert 3.1 b20 (Rigaku, 2012)
;
_computing_molecular_graphics
'OLEX2 (Dolomanov, Bourhis, Gildea, Howard & Puschmann, 2009)'
_computing_publication_material  'WINGX (Farrugia, 1998)'
_computing_structure_refinement  'SHELXL-97 (Sheldrick, 2008)'
_computing_structure_solution    'SUPERFLIP (Palatinus & Chapuis, 2007)'
_diffrn_ambient_temperature      100(2)
_diffrn_detector                 'CCD plate'
_diffrn_detector_area_resol_mean 28.5714
_diffrn_detector_type            'Rigaku HG Saturn724+ (2x2 bin mode)'
_diffrn_measured_fraction_theta_full 0.998
_diffrn_measured_fraction_theta_max 0.998
_diffrn_measurement_device       'four-circle \k diffractometer'
_diffrn_measurement_device_type  'Rigaku AFC12 (Right)'
_diffrn_measurement_method       'profile data from \w-scans'
_diffrn_measurement_specimen_support 'MiTeGen MicroMesh'
_diffrn_radiation_collimation    'Confocal mirrors, HF Varimax'
_diffrn_radiation_type           MoK\a
_diffrn_radiation_wavelength     0.71075
_diffrn_reflns_av_R_equivalents  0.0674
_diffrn_reflns_av_sigmaI/netI    0.0845
_diffrn_reflns_limit_h_max       10
_diffrn_reflns_limit_h_min       -11
_diffrn_reflns_limit_k_max       11
_diffrn_reflns_limit_k_min       -11
_diffrn_reflns_limit_l_max       10
_diffrn_reflns_limit_l_min       -13
_diffrn_reflns_number            5526
_diffrn_reflns_theta_full        27.48
_diffrn_reflns_theta_max         27.48
_diffrn_reflns_theta_min         3.28
_diffrn_source                   'Rotating Anode'
_diffrn_source_current           55.0
_diffrn_source_power             2.475
_diffrn_source_voltage           45.0
_exptl_absorpt_coefficient_mu    0.421
_exptl_absorpt_correction_T_max  0.9958
_exptl_absorpt_correction_T_min  0.9916
_exptl_absorpt_correction_type   multi-scan
_exptl_absorpt_process_details
;
CrystalClear-SM Expert 3.1 b20 (Rigaku, 2012)
;
_exptl_crystal_colour            Colorless
_exptl_crystal_density_diffrn    1.497
_exptl_crystal_density_method    'not measured'
_exptl_crystal_description       Plate
_exptl_crystal_F_000             384
_exptl_crystal_size_max          0.02
_exptl_crystal_size_mid          0.01
_exptl_crystal_size_min          0.01
_refine_diff_density_max         0.288
_refine_diff_density_min         -0.414
_refine_diff_density_rms         0.075
_refine_ls_extinction_method     none
_refine_ls_goodness_of_fit_ref   1.050
_refine_ls_hydrogen_treatment    mixed
_refine_ls_matrix_type           full
_refine_ls_number_parameters     111
_refine_ls_number_reflns         1895
_refine_ls_number_restraints     0
_refine_ls_restrained_S_all      1.050
_refine_ls_R_factor_all          0.0964
_refine_ls_R_factor_gt           0.0554
_refine_ls_shift/su_max          0.001
_refine_ls_shift/su_mean         0.000
_refine_ls_structure_factor_coef Fsqd
_refine_ls_weighting_details
'calc w=1/[\s^2^(Fo^2^)+(0.0588P)^2^+0.0000P] where P=(Fo^2^+2Fc^2^)/3'
_refine_ls_weighting_scheme      calc
_refine_ls_wR_factor_gt          0.1217
_refine_ls_wR_factor_ref         0.1395
_reflns_number_gt                1217
_reflns_number_total             1895
_reflns_threshold_expression     >2\s(I)
_cod_data_source_file            c4ce01832j2.cif
_cod_data_source_block           2012tsb0001a-RS-3ClMA-3
_cod_depositor_comments
;
The following automatic conversions were performed:

'_symmetry_cell_setting' value 'Monoclinic' changed to 'monoclinic'
according to
/usr/data/users/saulius/crontab/automatic-downloads/rss-feeds/RSC/lib/dictionaries/cif_core.dic
dictionary named 'cif_core.dic' version 2.4.2 from 2011-04-26.

Automatic conversion script
Id: cif_fix_values 2827 2014-09-09 07:05:25Z andrius 

 Adding full bibliography for 7218452--7218470.cif.
;
_cod_original_sg_symbol_H-M      'P 21/c'
_cod_database_code               7218458
loop_
_symmetry_equiv_pos_as_xyz
'x, y, z'
'-x, y+1/2, -z+1/2'
'-x, -y, -z'
'x, -y-1/2, z-1/2'
loop_
_atom_site_label
_atom_site_type_symbol
_atom_site_fract_x
_atom_site_fract_y
_atom_site_fract_z
_atom_site_U_iso_or_equiv
_atom_site_adp_type
_atom_site_occupancy
_atom_site_symmetry_multiplicity
_atom_site_calc_flag
_atom_site_refinement_flags
C1 C 0.7750(3) 0.3217(3) 0.8978(2) 0.0236(6) Uani 1 1 d .
C2 C 0.8939(3) 0.2399(3) 0.9535(3) 0.0262(6) Uani 1 1 d .
H2 H 0.8710 0.1554 1.0038 0.031 Uiso 1 1 calc R
C3 C 1.0455(4) 0.2819(3) 0.9356(3) 0.0314(7) Uani 1 1 d .
C4 C 1.0808(4) 0.4029(3) 0.8623(3) 0.0359(7) Uani 1 1 d .
H4 H 1.1856 0.4300 0.8495 0.043 Uiso 1 1 calc R
C5 C 0.9637(4) 0.4843(3) 0.8075(3) 0.0380(8) Uani 1 1 d .
H5 H 0.9879 0.5686 0.7573 0.046 Uiso 1 1 calc R
C6 C 0.8108(4) 0.4453(3) 0.8246(2) 0.0321(7) Uani 1 1 d .
H6 H 0.7305 0.5027 0.7864 0.039 Uiso 1 1 calc R
C7 C 0.6086(3) 0.2758(3) 0.9161(2) 0.0228(6) Uani 1 1 d .
H7 H 0.5392 0.3555 0.8813 0.027 Uiso 1 1 calc R
C8 C 0.5762(3) 0.2561(3) 1.0529(2) 0.0218(6) Uani 1 1 d .
Cl1 Cl 1.19307(9) 0.17999(9) 1.00650(9) 0.0473(3) Uani 1 1 d .
O1 O 0.5792(2) 0.13929(19) 0.85201(16) 0.0303(5) Uani 1 1 d .
H1 H 0.5431 0.0761 0.9017 0.045 Uiso 1 1 calc R
O2 O 0.5464(2) 0.13644(18) 1.09950(16) 0.0259(4) Uani 1 1 d .
O3 O 0.5858(2) 0.38384(18) 1.11360(16) 0.0279(5) Uani 1 1 d .
H3 H 0.5829 0.3674 1.1906 0.042 Uiso 1 1 calc R
loop_
_atom_site_aniso_label
_atom_site_aniso_U_11
_atom_site_aniso_U_22
_atom_site_aniso_U_33
_atom_site_aniso_U_23
_atom_site_aniso_U_13
_atom_site_aniso_U_12
C1 0.0313(15) 0.0192(11) 0.0202(14) -0.0045(10) -0.0003(11) -0.0043(12)
C2 0.0313(16) 0.0193(12) 0.0281(15) 0.0000(11) 0.0015(12) -0.0019(12)
C3 0.0330(17) 0.0238(13) 0.0373(17) -0.0092(11) 0.0005(14) -0.0015(12)
C4 0.0355(17) 0.0365(15) 0.0359(17) -0.0048(13) 0.0060(14) -0.0084(15)
C5 0.0450(19) 0.0386(16) 0.0305(16) 0.0077(13) 0.0015(14) -0.0154(16)
C6 0.0405(18) 0.0262(13) 0.0296(16) 0.0045(12) -0.0019(13) -0.0048(14)
C7 0.0285(15) 0.0171(11) 0.0228(14) 0.0010(10) -0.0010(12) -0.0017(11)
C8 0.0205(13) 0.0188(11) 0.0262(15) 0.0005(10) -0.0033(11) 0.0014(11)
Cl1 0.0301(4) 0.0340(4) 0.0776(7) -0.0007(4) -0.0035(4) 0.0042(4)
O1 0.0491(13) 0.0208(9) 0.0211(10) -0.0019(7) 0.0021(9) -0.0130(9)
O2 0.0328(11) 0.0189(8) 0.0260(10) 0.0026(7) -0.0010(8) -0.0024(8)
O3 0.0426(12) 0.0195(8) 0.0215(10) -0.0010(7) -0.0013(9) -0.0020(9)
loop_
_atom_type_symbol
_atom_type_description
_atom_type_scat_dispersion_real
_atom_type_scat_dispersion_imag
_atom_type_scat_source
C C 0.0033 0.0016 'International Tables Vol C Tables 4.2.6.8 and 6.1.1.4'
H H 0.0000 0.0000 'International Tables Vol C Tables 4.2.6.8 and 6.1.1.4'
Cl Cl 0.1484 0.1585 'International Tables Vol C Tables 4.2.6.8 and 6.1.1.4'
O O 0.0106 0.0060 'International Tables Vol C Tables 4.2.6.8 and 6.1.1.4'
loop_
_geom_angle_atom_site_label_1
_geom_angle_atom_site_label_2
_geom_angle_atom_site_label_3
_geom_angle
C2 C1 C6 119.3(3)
C2 C1 C7 120.1(2)
C6 C1 C7 120.5(3)
C3 C2 C1 119.8(2)
C3 C2 H2 120.1
C1 C2 H2 120.1
C4 C3 C2 120.9(3)
C4 C3 Cl1 119.7(2)
C2 C3 Cl1 119.5(2)
C5 C4 C3 119.5(3)
C5 C4 H4 120.2
C3 C4 H4 120.2
C4 C5 C6 120.8(3)
C4 C5 H5 119.6
C6 C5 H5 119.6
C5 C6 C1 119.7(3)
C5 C6 H6 120.1
C1 C6 H6 120.1
O1 C7 C8 109.71(19)
O1 C7 C1 109.5(2)
C8 C7 C1 110.5(2)
O1 C7 H7 109.1
C8 C7 H7 109.1
C1 C7 H7 109.1
O2 C8 O3 125.0(2)
O2 C8 C7 123.3(2)
O3 C8 C7 111.7(2)
C7 O1 H1 109.5
C8 O3 H3 109.5
loop_
_geom_bond_atom_site_label_1
_geom_bond_atom_site_label_2
_geom_bond_distance
C1 C2 1.389(4)
C1 C6 1.392(3)
C1 C7 1.513(4)
C2 C3 1.380(4)
C2 H2 0.9500
C3 C4 1.373(4)
C3 Cl1 1.733(3)
C4 C5 1.371(4)
C4 H4 0.9500
C5 C6 1.383(4)
C5 H5 0.9500
C6 H6 0.9500
C7 O1 1.419(3)
C7 C8 1.509(4)
C7 H7 1.0000
C8 O2 1.208(3)
C8 O3 1.314(3)
O1 H1 0.8400
O3 H3 0.8400
loop_
_geom_hbond_atom_site_label_D
_geom_hbond_atom_site_label_H
_geom_hbond_atom_site_label_A
_geom_hbond_distance_DH
_geom_hbond_distance_HA
_geom_hbond_distance_DA
_geom_hbond_angle_DHA
_geom_hbond_site_symmetry_A
O1 H1 O2 0.84 2.05 2.742(2) 139.6 3_657
O1 H1 O2 0.84 2.19 2.675(2) 116.8 .
O3 H3 O1 0.84 1.73 2.568(2) 171.9 4_566
loop_
_geom_torsion_atom_site_label_1
_geom_torsion_atom_site_label_2
_geom_torsion_atom_site_label_3
_geom_torsion_atom_site_label_4
_geom_torsion
C6 C1 C2 C3 0.0(4)
C7 C1 C2 C3 179.5(2)
C1 C2 C3 C4 -0.6(4)
C1 C2 C3 Cl1 179.5(2)
C2 C3 C4 C5 0.9(4)
Cl1 C3 C4 C5 -179.2(2)
C3 C4 C5 C6 -0.5(4)
C4 C5 C6 C1 -0.2(4)
C2 C1 C6 C5 0.5(4)
C7 C1 C6 C5 -179.1(2)
C2 C1 C7 O1 -69.7(3)
C6 C1 C7 O1 109.9(3)
C2 C1 C7 C8 51.2(3)
C6 C1 C7 C8 -129.2(2)
O1 C7 C8 O2 7.4(4)
C1 C7 C8 O2 -113.3(3)
O1 C7 C8 O3 -173.1(2)
C1 C7 C8 O3 66.1(3)
