#------------------------------------------------------------------------------
#$Date: 2016-03-26 22:53:30 +0200 (Sat, 26 Mar 2016) $
#$Revision: 180522 $
#$URL: svn://www.crystallography.net/cod/cif/7/21/91/7219135.cif $
#------------------------------------------------------------------------------
#
# This file is available in the Crystallography Open Database (COD),
# http://www.crystallography.net/
#
# All data on this site have been placed in the public domain by the
# contributors.
#
data_7219135
loop_
_publ_author_name
'Tenorio Clavijo, Juan Carlos'
'Guimar\~aes, Freddy Fernandes'
'Ellena, Javier'
'Martins, Felipe Terra'
_publ_section_title
;
 Isostructurality and the conformational role of the
 2&#x2032;,3&#x2032;-moieties in the diversity of lamivudine crystal forms
 probed in halide salts
;
_journal_issue                   28
_journal_name_full               CrystEngComm
_journal_page_first              5187
_journal_paper_doi               10.1039/C4CE02373K
_journal_volume                  17
_journal_year                    2015
_chemical_absolute_configuration rm
_chemical_compound_source        'synthesis as described'
_chemical_formula_moiety         'C8 H12 N3 O3 S, F2 H'
_chemical_formula_sum            'C8 H13 F2 N3 O3 S'
_chemical_formula_weight         269.27
_chemical_name_common            Lamivudine_Hydrofluoride
_space_group_IT_number           4
_symmetry_cell_setting           monoclinic
_symmetry_Int_Tables_number      4
_symmetry_space_group_name_Hall  'P 2yb'
_symmetry_space_group_name_H-M   'P 1 21 1'
_atom_sites_solution_hydrogens   mixed
_audit_conform_dict_location     ftp://ftp.iucr.org/pub/cif_core.dic
_audit_conform_dict_name         cif_core.dic
_audit_conform_dict_version      2.4.3
_audit_creation_date             2014-11-05T17:03:37-00:00
_audit_creation_method           'WinGX routine CIF_UPDATE'
_audit_update_record
;
2014-11-06 deposited with the CCDC.
2014-12-18 downloaded from the CCDC.
;
_cell_angle_alpha                90
_cell_angle_beta                 104.5500(10)
_cell_angle_gamma                90
_cell_formula_units_Z            2
_cell_length_a                   5.35980(10)
_cell_length_b                   12.0206(4)
_cell_length_c                   8.6306(3)
_cell_measurement_reflns_used    2175
_cell_measurement_temperature    100(2)
_cell_measurement_theta_max      0
_cell_measurement_theta_min      0
_cell_measurement_wavelength     0.71073
_cell_volume                     538.22(3)
_computing_cell_refinement       'HKL Scalepack (Otwinowski & Minor 1997)'
_computing_data_collection       'Collect (Bruker AXS BV, 1997-2004)'
_computing_data_reduction
'HKL Denzo and Scalepack (Otwinowski & Minor 1997)'
_computing_molecular_graphics    'Ortep-3 for Windows (Farrugia, 1997)'
_computing_publication_material  'WinGX publication routines (Farrugia, 1999)'
_computing_structure_refinement  'SHELXL-2012 (Sheldrick, 2012)'
_diffrn_ambient_temperature      100(2)
_diffrn_detector                 'CCD plate'
_diffrn_detector_area_resol_mean 9
_diffrn_measured_fraction_theta_full 0.994
_diffrn_measured_fraction_theta_max 0.993
_diffrn_measurement_device       '95mm CCD camera on \k-goniostat'
_diffrn_measurement_device_type  KappaCCD
_diffrn_measurement_method       'CCD rotation images, thick slices'
_diffrn_orient_matrix_type       'by Bruker AXS Collect from scalepack cell'
_diffrn_orient_matrix_UB_11      0.002546
_diffrn_orient_matrix_UB_12      -0.083175
_diffrn_orient_matrix_UB_13      -0.001278
_diffrn_orient_matrix_UB_21      0.142312
_diffrn_orient_matrix_UB_22      0
_diffrn_orient_matrix_UB_23      0.100351
_diffrn_orient_matrix_UB_31      -0.129983
_diffrn_orient_matrix_UB_32      -0.001629
_diffrn_orient_matrix_UB_33      0.065249
_diffrn_radiation_monochromator  'horizonally mounted graphite crystal'
_diffrn_radiation_probe          x-ray
_diffrn_radiation_type           MoK\a
_diffrn_radiation_wavelength     0.71073
_diffrn_reflns_Laue_measured_fraction_full 0.994
_diffrn_reflns_Laue_measured_fraction_max 0.993
_diffrn_reflns_limit_h_max       6
_diffrn_reflns_limit_h_min       -6
_diffrn_reflns_limit_k_max       15
_diffrn_reflns_limit_k_min       -15
_diffrn_reflns_limit_l_max       10
_diffrn_reflns_limit_l_min       -10
_diffrn_reflns_number            2207
_diffrn_reflns_point_group_measured_fraction_full 0.995
_diffrn_reflns_point_group_measured_fraction_max 0.993
_diffrn_reflns_reduction_process
;
        Scaled and merged with Sortav
        R.H. Blessing, (1987) Cryst. Rev. 1, 3-58
        R.H. Blessing, (1989) J. Appl. Cryst. 22, 396-397
;
_diffrn_reflns_theta_full        25.242
_diffrn_reflns_theta_max         26.366
_diffrn_reflns_theta_min         2.969
_diffrn_source                   'Enraf Nonius FR590'
_exptl_absorpt_coefficient_mu    0.331
_exptl_absorpt_correction_type   none
_exptl_crystal_colour            colourless
_exptl_crystal_density_diffrn    1.662
_exptl_crystal_density_method    'not measured'
_exptl_crystal_description       prism
_exptl_crystal_F_000             280
_exptl_crystal_size_max          0.13
_exptl_crystal_size_mid          0.12
_exptl_crystal_size_min          0.1
_refine_diff_density_max         0.203
_refine_diff_density_min         -0.265
_refine_diff_density_rms         0.053
_refine_ls_abs_structure_details
;
 Flack x determined using 960 quotients [(I+)-(I-)]/[(I+)+(I-)]
 (Parsons and Flack (2004), Acta Cryst. A60, s61).
;
_refine_ls_abs_structure_Flack   -0.04(3)
_refine_ls_extinction_method     none
_refine_ls_goodness_of_fit_ref   1.085
_refine_ls_hydrogen_treatment    mixed
_refine_ls_matrix_type           full
_refine_ls_number_constraints    0
_refine_ls_number_parameters     158
_refine_ls_number_reflns         2189
_refine_ls_number_restraints     1
_refine_ls_restrained_S_all      1.085
_refine_ls_R_factor_all          0.034
_refine_ls_R_factor_gt           0.0313
_refine_ls_shift/su_max          0
_refine_ls_shift/su_mean         0
_refine_ls_structure_factor_coef Fsqd
_refine_ls_weighting_details
;
 w=1/[\s^2^(Fo^2^)+(0.0430P)^2^+0.1551P]
 where P=(Fo^2^+2Fc^2^)/3
;
_refine_ls_weighting_scheme      calc
_refine_ls_wR_factor_gt          0.074
_refine_ls_wR_factor_ref         0.0757
_reflns_number_gt                2094
_reflns_number_total             2189
_reflns_threshold_expression     'I > 2\s(I)'
_iucr_refine_instructions_details
;
TITL import in P 21
CELL  0.71073   5.3598  12.0206   8.6306   90.000  104.550   90.000
ZERR     2.00   0.0001   0.0004   0.0003    0.000    0.001    0.000
LATT  -1
SYMM  - X, 1/2 + Y, - Z
SFAC  C    H    N    O    F    S
UNIT  16   26   6    6    4    2
MERG   2
OMIT     0   2   0
OMIT     0  -2   0
OMIT     1   0   0
OMIT     0   1   1
FMAP   2
PLAN   25
SIZE     0.100   0.120   0.130
ACTA
L.S.   8
TEMP  -173.00
WGHT    0.043000    0.155100
FVAR       2.65726
MOLE    1
C1'   1    0.251441    0.373752    0.145729    11.00000    0.01895    0.01647 =
         0.01955   -0.00040    0.00815   -0.00024
AFIX  13
H1'   2    0.343543    0.437886    0.208894    11.00000   -1.20000
AFIX   0
C2    1   -0.031850    0.372590    0.326548    11.00000    0.01523    0.01711 =
         0.01610   -0.00026    0.00311    0.00061
C2'   1    0.066466    0.417077   -0.006159    11.00000    0.02199    0.02170 =
         0.01932    0.00166    0.00582    0.00044
AFIX  23
H2A'  2    0.140441    0.482097   -0.049205    11.00000   -1.20000
H2B'  2   -0.100455    0.438758    0.014474    11.00000   -1.20000
AFIX   0
C4    1   -0.165016    0.203688    0.431197    11.00000    0.01557    0.02077 =
         0.01337   -0.00018    0.00181   -0.00033
C4'   1    0.368667    0.276469   -0.066859    11.00000    0.01877    0.02295 =
         0.01433   -0.00077    0.00572   -0.00077
AFIX  13
H4'   2    0.466208    0.327351   -0.122105    11.00000   -1.20000
AFIX   0
C5'   1    0.445967    0.157691   -0.087507    11.00000    0.02663    0.02038 =
         0.01932   -0.00141    0.00939   -0.00202
AFIX  23
H5A'  2    0.628526    0.145886   -0.029949    11.00000   -1.20000
H5B'  2    0.338053    0.106073   -0.042848    11.00000   -1.20000
AFIX   0
C5    1   -0.012170    0.141029    0.349109    11.00000    0.02121    0.01463 =
         0.01854   -0.00101    0.00746    0.00223
AFIX  43
H5    2   -0.003627    0.062224    0.356966    11.00000   -1.20000
AFIX   0
C6    1    0.120407    0.197129    0.259652    11.00000    0.01751    0.01853 =
         0.01624   -0.00078    0.00398    0.00129
AFIX  43
H6    2    0.223674    0.156460    0.204668    11.00000   -1.20000
AFIX   0
N1    3    0.110545    0.310204    0.245883    11.00000    0.01663    0.01745 =
         0.01663   -0.00062    0.00587    0.00005
N3    3   -0.161557    0.315514    0.419303    11.00000    0.01938    0.01821 =
         0.01600   -0.00034    0.00644    0.00093
AFIX  43
H3    2   -0.248287    0.354311    0.474754    11.00000   -1.20000
AFIX   0
N4    3   -0.305317    0.156931    0.517817    11.00000    0.02354    0.01845 =
         0.02005   -0.00033    0.00879    0.00112
AFIX  93
H4A   2   -0.396017    0.198493    0.567485    11.00000   -1.20000
H4B   2   -0.308683    0.084019    0.526224    11.00000   -1.20000
AFIX   0
O1'   4    0.432627    0.302619    0.103455    11.00000    0.01572    0.02240 =
         0.01609   -0.00342    0.00470    0.00136
O2    4   -0.042645    0.475058    0.314328    11.00000    0.02197    0.01570 =
         0.02362   -0.00100    0.00655    0.00253
O5'   4    0.411604    0.136898   -0.253651    11.00000    0.03363    0.02926 =
         0.02265   -0.00987    0.01615   -0.01213
AFIX 147
H5C'  2    0.300154    0.086956   -0.283131    11.00000   -1.50000
AFIX   0
S3'   6    0.026810    0.301319   -0.142539    11.00000    0.01938    0.02923 =
         0.01776   -0.00361    0.00305   -0.00039
MOLE    2
F1    5    0.537589    0.496887    0.779043    11.00000    0.03281    0.02251 =
         0.02145    0.00058    0.00768   -0.00216
F2    5    0.502670    0.421190    0.528713    11.00000    0.02378    0.03066 =
         0.02508   -0.00517    0.00681    0.00583
H1    2    0.517754    0.457525    0.668817    11.00000   -1.50000
HKLF    4
REM  import in P 21
REM R1 =  0.0313 for    2094 Fo > 4sig(Fo)  and  0.0340 for all    2189 data
REM    158 parameters refined using      1 restraints
END
;
_cod_data_source_file            c4ce02373k1.cif
_cod_data_source_block           shelx
_cod_depositor_comments
'Adding full bibliography for 7219133--7219137.cif.'
_cod_original_sg_symbol_H-M      'P 21'
_cod_database_code               7219135
#BEGIN Tags that were not found in dictionaries:
_shelx_estimated_absorpt_t_min   0.958
_shelx_estimated_absorpt_t_max   0.968
_iucr_refine_reflections_details
;
   0   0   2  590.80    9.80   1
   0   0   3 3577.00   50.80   1
   0   0   4  436.10    9.70   1
   0   0   5 2820.20   41.10   1
   0   0   6   56.70    5.80   1
   0   0   7  458.90   14.80   1
   0   0   8  841.70   25.70   1
   0   0   9  524.20   24.10   1
   0   0  10  659.90   37.70   1
   0   1   1 2514.40   31.40   1
   0  -1  -1 2547.50   34.10   1
   0   1   213225.40  163.50   1
   0  -1  -213337.70  154.70   1
   0   1   3  747.80   13.40   1
   0  -1  -3  748.40   13.10   1
   0   1   4 3684.20   52.10   1
   0  -1  -4 3604.90   50.70   1
   0   1   5   99.30    5.70   1
   0  -1  -5  120.90    6.60   1
   0   1   6  780.20   17.90   1
   0  -1  -6  826.20   16.90   1
   0   1   7  426.80   14.10   1
   0  -1  -7  437.10   12.70   1
   0   1   8  157.20   12.60   1
   0  -1  -8  159.10   10.90   1
   0   1   9 1097.50   37.00   1
   0  -1  -9 1067.40   34.80   1
   0   1  10  407.10   29.10   1
   0  -1 -10  353.70   25.50   1
   0   2   019308.70  458.60   1
   0  -2   019587.90  464.30   1
   0   2   1 5691.90   85.30   1
   0  -2  -1 5819.40   87.30   1
   0   2   2 1531.00   19.90   1
   0  -2  -2 1525.90   25.50   1
   0   2   3 4908.30   65.10   1
   0  -2  -3 4887.40   63.40   1
   0   2   4 7750.30  101.80   1
   0  -2  -4 7646.00   94.80   1
   0   2   5  754.80   16.70   1
   0  -2  -5  757.50   14.60   1
   0   2   6 3306.10   49.60   1
   0  -2  -6 3243.60   46.80   1
   0   2   7 3041.50   49.20   1
   0  -2  -7 2990.90   49.00   1
   0   2   8  318.30   15.20   1
   0  -2  -8  316.00   13.50   1
   0   2   9  231.50   16.40   1
   0  -2  -9  300.00   18.90   1
   0   2  10  612.60   40.80   1
   0  -2 -10  664.50   36.00   1
   0   3   0    3.10    3.60   1
   0  -3   0    5.90    4.00   1
   0   3   1 2310.90   35.80   1
   0  -3  -1 2340.20   47.20   1
   0   3   2 1698.70   27.40   1
   0  -3  -2 1829.10   26.50   1
   0   3   3  243.00    6.70   1
   0  -3  -3  238.90    7.20   1
   0   3   4 1754.90   25.30   1
   0  -3  -4 1719.40   28.40   1
   0   3   513400.60  171.00   1
   0  -3  -513482.30  165.20   1
   0   3   6  434.10   11.70   1
   0  -3  -6  437.00   11.80   1
   0   3   7 1138.10   23.60   1
   0  -3  -7 1130.10   23.70   1
   0   3   8 1671.50   40.90   1
   0  -3  -8 1628.80   37.80   1
   0   3   9  134.80   16.70   1
   0  -3  -9  148.80   16.20   1
   0   3  10   49.00   20.70   1
   0  -3 -10   72.30   23.80   1
   0   4   0 1747.00   44.30   1
   0  -4   0 1622.10   41.90   1
   0   4   1 9691.00  156.30   1
   0  -4  -1 9512.00  153.50   1
   0   4   2 3213.40   47.00   1
   0  -4  -2 3252.00   58.80   1
   0   4   3 2112.20   33.10   1
   0  -4  -3 2158.20   39.10   1
   0   4   4 8942.10  119.00   1
   0  -4  -4 8836.80  123.80   1
   0   4   5  258.10    9.50   1
   0  -4  -5  268.30    9.70   1
   0   4   6  865.90   20.40   1
   0  -4  -6  815.90   20.10   1
   0   4   7  634.20   15.30   1
   0  -4  -7  560.70   19.30   1
   0   4   8  389.70   20.40   1
   0  -4  -8  380.50   21.60   1
   0   4   9   37.10   17.80   1
   0  -4  -9   34.70   17.10   1
   0   4  10  262.50   31.20   1
   0  -4 -10  300.80   38.00   1
   0   5   0    2.30    5.40   1
   0  -5   0   -4.10    6.50   1
   0   5   1 3317.40   51.50   1
   0  -5  -1 3337.40   58.70   1
   0   5   2 5039.60   74.00   1
   0  -5  -2 5113.70   99.10   1
   0   5   3 1602.40   25.30   1
   0  -5  -3 1637.20   23.30   1
   0   5   4  868.90   16.70   1
   0  -5  -4  900.30   19.50   1
   0   5   5  861.20   20.00   1
   0  -5  -5  926.80   20.10   1
   0   5   6   83.70    7.90   1
   0  -5  -6   75.60    8.30   1
   0   5   7  100.50   10.60   1
   0  -5  -7   99.50   10.60   1
   0   5   8  795.00   29.50   1
   0  -5  -8  762.30   39.00   1
   0   5   9  441.90   28.30   1
   0  -5  -9  472.60   34.00   1
   0   6   026533.80  646.30   1
   0  -6   025254.20  855.80   1
   0   6   1 1890.00   32.70   1
   0  -6  -1 1854.60   36.60   1
   0   6   2 5306.60   84.90   1
   0  -6  -2 5324.10  102.70   1
   0   6   3  833.80   16.50   1
   0  -6  -3  798.70   18.00   1
   0   6   4  432.10   10.80   1
   0  -6  -4  430.60   10.80   1
   0   6   5  851.40   18.50   1
   0  -6  -5  762.50   19.70   1
   0   6   6  591.20   17.90   1
   0  -6  -6  590.40   19.30   1
   0   6   7    4.10    9.40   1
   0  -6  -7    5.80   10.10   1
   0   6   8  470.40   24.70   1
   0  -6  -8  478.00   27.60   1
   0   6   9   52.90   22.00   1
   0  -6  -9   30.00   22.30   1
   0   7   0    3.40    6.00   1
   0  -7   0   15.50   12.00   1
   0   7   1 2128.20   34.30   1
   0  -7  -1 2136.30   42.10   1
   0   7   2 2255.30   39.80   1
   0  -7  -2 2235.10   48.80   1
   0   7   3 1416.50   25.40   1
   0  -7  -3 1427.60   29.40   1
   0   7   4   90.10    6.40   1
   0  -7  -4   87.70    4.80   1
   0   7   5 2701.00   43.70   1
   0  -7  -5 2600.80   47.10   1
   0   7   6 2690.50   52.70   1
   0  -7  -6 2682.80   48.60   1
   0   7   7  549.10   23.50   1
   0  -7  -7  569.50   24.90   1
   0   7   8  413.00   23.10   1
   0  -7  -8  472.20   31.10   1
   0   7   9  745.00   43.50   1
   0  -7  -9  663.90   44.70   1
   0   8   0 5855.20  117.30   1
   0  -8   0 5647.70  208.60   1
   0   8   1  836.70   17.40   1
   0  -8  -1  805.20   20.30   1
   0   8   2 3294.50   49.00   1
   0  -8  -2 3368.40   70.40   1
   0   8   3 2508.10   43.20   1
   0  -8  -3 2495.00   62.70   1
   0   8   4  207.20    8.80   1
   0  -8  -4  214.10    8.80   1
   0   8   5  455.60   14.30   1
   0  -8  -5  421.50   19.30   1
   0   8   6  208.90   13.90   1
   0  -8  -6  211.00   17.30   1
   0   8   7 1576.20   48.60   1
   0  -8  -7 1521.90   48.40   1
   0   8   8  956.00   57.20   1
   0  -8  -8  877.80   45.50   1
   0   9   0   15.40    8.90   1
   0  -9   0   10.30   20.70   1
   0   9   1  472.60   11.20   1
   0  -9  -1  496.50   16.90   1
   0   9   2  223.80    9.10   1
   0  -9  -2  256.00   13.60   1
   0   9   3  417.50   12.50   1
   0  -9  -3  466.60   18.30   1
   0   9   4  126.90   10.10   1
   0  -9  -4  154.00    7.20   1
   0   9   5 5968.20   96.80   1
   0  -9  -5 6097.20  146.80   1
   0   9   6  370.40   21.10   1
   0  -9  -6  362.40   25.00   1
   0   9   7 2138.10   66.30   1
   0  -9  -7 2392.20   86.20   1
   0   9   8  102.20   25.00   1
   0  -9  -8   74.30   27.50   1
   0  10   0 3205.00   75.70   1
   0 -10   0 3147.90  108.40   1
   0  10   1  826.80   17.70   1
   0 -10  -1  788.30   31.50   1
   0  10   2  482.50   14.50   1
   0 -10  -2  458.20   20.70   1
   0  10   3 1254.90   27.00   1
   0 -10  -3 1298.10   38.50   1
   0  10   4  483.20   20.20   1
   0 -10  -4  522.40   16.80   1
   0  10   5  862.30   31.50   1
   0 -10  -5  861.20   37.30   1
   0  10   6  271.60   18.80   1
   0 -10  -6  354.20   28.80   1
   0  10   7  989.60   55.00   1
   0 -10  -7 1015.20   51.90   1
   0  11   0  -16.40    9.80   1
   0 -11   0   -3.60   11.50   1
   0  11   1  746.00   16.40   1
   0 -11  -1  735.20   33.20   1
   0  11   2  790.80   21.90   1
   0 -11  -2  810.00   33.80   1
   0  11   3  460.90   19.80   1
   0 -11  -3  470.80   24.90   1
   0  11   4  393.10   19.30   1
   0 -11  -4  370.20   18.20   1
   0  11   5  867.50   34.60   1
   0 -11  -5  871.10   43.70   1
   0  11   6  295.90   27.40   1
   0 -11  -6  325.50   29.60   1
   0  11   7   88.90   20.00   1
   0 -11  -7   71.00   25.50   1
   0  12   0 2907.60   99.60   1
   0 -12   0 2860.30  116.00   1
   0  12   1  153.00   13.70   1
   0 -12  -1  182.80   20.20   1
   0  12   2  947.70   31.00   1
   0 -12  -2  865.10   37.60   1
   0  12   3   60.10   13.20   1
   0 -12  -3   86.00   20.50   1
   0  12   4 1528.20   47.10   1
   0 -12  -4 1563.10   63.20   1
   0  12   5  284.50   22.70   1
   0 -12  -5  300.80   31.00   1
   0  12   6   -5.30   19.30   1
   0 -12  -6   21.70   24.80   1
   0  13   0   10.20    9.10   1
   0 -13   0   28.10   21.70   1
   0  13   1  117.50   14.70   1
   0 -13  -1  139.80   21.00   1
   0  13   2  226.30   16.50   1
   0 -13  -2  186.30   26.90   1
   0  13   3   70.00   15.80   1
   0 -13  -3   26.80   21.20   1
   0  13   4   33.70   15.30   1
   0 -13  -4   16.10   18.80   1
   0  13   5  131.10   22.30   1
   0 -13  -5  129.70   24.00   1
   0  14   0 1137.60   67.40   1
   0 -14   0 1091.60   69.20   1
   0  14   1  175.80   16.80   1
   0 -14  -1  251.30   28.80   1
   0  14   2   20.40   13.00   1
   0 -14  -2    7.10   31.90   1
   0  14   3  722.20   33.00   1
   0 -14  -3  745.50   45.60   1
   0  15   0   24.90   31.60   1
   0 -15   0  -27.30   35.60   1
   1   0 -10 1534.30   57.10   1
   1   0  -9  725.70   24.80   1
   1   0  -8   53.00    8.10   1
   1   0  -7 5290.00   78.10   1
   1   0  -6 4267.10   65.50   1
   1   0  -5  183.20    6.70   1
   1   0  -4 7833.30  107.30   1
   1   0  -3 1535.10   23.30   1
   1   0  -2  410.50    8.30   1
   1   0  -1  119.90    3.70   1
   1   0   0 1760.50   20.60   1
   1   0   1  297.90    5.80   1
   1   0   210864.30  138.10   1
   1   0   315960.00  203.00   1
   1   0   4 2126.30   32.30   1
   1   0   5  607.70   13.60   1
   1   0   6 4028.80   63.80   1
   1   0   7 5816.10   85.10   1
   1   0   8  420.40   18.90   1
   1   0   9  345.60   22.00   1
   1   1 -10  132.00   20.20   1
  -1  -1  10  104.30   14.60   1
   1   1  -9  192.10   13.90   1
  -1  -1   9  204.30   15.80   1
   1   1  -8 3973.30   69.20   1
  -1  -1   8 3925.40   63.70   1
   1   1  -7  659.70   16.40   1
  -1  -1   7  713.10   15.90   1
   1   1  -6 1954.40   33.20   1
  -1  -1   6 2045.80   32.60   1
   1   1  -512832.70  164.90   1
  -1  -1   513066.10  166.70   1
   1   1  -4  561.10   10.90   1
  -1  -1   4  559.00   10.50   1
   1   1  -3 1364.70   20.60   1
  -1  -1   3 1381.00   23.00   1
   1   1  -212426.20  176.90   1
  -1  -1   212394.70  162.90   1
   1   1  -1 3721.40   47.90   1
  -1  -1   1 3794.30   49.10   1
   1   1   0 2299.30   27.30   1
  -1  -1   0 2280.90   29.00   1
   1   1   135458.10  818.40   1
  -1  -1  -134517.80 1135.10   1
   1   1   233311.50  560.10   1
  -1  -1  -233800.70  570.60   1
   1   1   3 4406.30   60.70   1
  -1  -1  -3 4352.70   59.40   1
   1   1   4  840.30   15.80   1
  -1  -1  -4  837.00   14.40   1
   1   1   5 3295.30   50.00   1
  -1  -1  -5 3303.30   47.90   1
   1   1   6  371.90   11.80   1
  -1  -1  -6  326.20   10.80   1
   1   1   7  792.70   21.60   1
  -1  -1  -7  804.40   21.60   1
   1   1   8  172.00   15.70   1
  -1  -1  -8  174.30   14.30   1
   1   1   9  668.40   32.50   1
  -1  -1  -9  670.50   29.90   1
   1   2 -10 1341.70   75.50   1
  -1  -2  10 1436.90   68.70   1
   1   2  -9  141.20   12.20   1
  -1  -2   9  163.20   13.50   1
   1   2  -8  519.70   17.00   1
  -1  -2   8  510.40   15.80   1
   1   2  -7  379.10   11.10   1
  -1  -2   7  367.70   11.50   1
   1   2  -6   75.20    5.40   1
  -1  -2   6   53.00    5.60   1
   1   2  -5 1426.10   24.20   1
  -1  -2   5 1408.40   21.70   1
   1   2  -4 2606.90   37.60   1
  -1  -2   4 2593.10   37.30   1
   1   2  -319661.70  256.50   1
  -1  -2   319617.40  252.20   1
   1   2  -2 2771.60   39.90   1
  -1  -2   2 2834.60   41.50   1
   1   2  -1 9952.70  142.30   1
  -1  -2   1 9765.60  127.80   1
   1   2   0 9687.80  136.40   1
  -1  -2   0 9462.80  117.10   1
   1   2   1 2697.50   33.30   1
  -1  -2  -1 2598.80   34.00   1
   1   2   2 8557.50   96.60   1
  -1  -2  -2 8508.10  109.10   1
   1   2   3 3246.30   43.10   1
  -1  -2  -3 3334.60   48.10   1
   1   2   4   41.60    3.60   1
  -1  -2  -4   47.30    4.70   1
   1   2   5 1451.30   27.00   1
  -1  -2  -5 1455.00   26.10   1
   1   2   6   81.80    7.50   1
  -1  -2  -6   82.10    7.50   1
   1   2   7 2368.90   53.50   1
  -1  -2  -7 2366.70   45.80   1
   1   2   8  824.00   33.10   1
  -1  -2  -8  946.90   35.50   1
   1   2   9  128.80   21.60   1
  -1  -2  -9  140.90   21.00   1
   1   3 -10   29.40   19.20   1
  -1  -3  10   20.00   17.30   1
   1   3  -9  724.00   26.90   1
  -1  -3   9  753.10   28.10   1
   1   3  -8  172.50   10.20   1
  -1  -3   8  154.70   10.20   1
   1   3  -7  247.40    8.80   1
  -1  -3   7  241.30   10.10   1
   1   3  -6 1888.80   31.20   1
  -1  -3   6 1979.40   31.10   1
   1   3  -5 4634.70   61.00   1
  -1  -3   5 4702.20   70.60   1
   1   3  -4   34.10    3.00   1
  -1  -3   4   23.00    4.40   1
   1   3  -3 1965.00   27.30   1
  -1  -3   3 2022.70   32.10   1
   1   3  -2 6457.20   82.80   1
  -1  -3   2 6461.50   88.40   1
   1   3  -127153.90  647.80   1
  -1  -3   126273.20  624.30   1
   1   3   0 2614.20   36.70   1
  -1  -3   0 2506.60   41.10   1
   1   3   118455.50  239.70   1
  -1  -3  -118352.50  282.70   1
   1   3   2 1551.10   23.80   1
  -1  -3  -2 1528.00   22.30   1
   1   3   3 1795.90   25.40   1
  -1  -3  -3 1781.00   28.50   1
   1   3   4   21.30    2.80   1
  -1  -3  -4   31.00    5.00   1
   1   3   5   68.60    4.40   1
  -1  -3  -5   77.30    5.60   1
   1   3   6 3140.70   48.80   1
  -1  -3  -6 3133.80   52.70   1
   1   3   7  834.40   18.20   1
  -1  -3  -7  858.30   25.30   1
   1   3   8  229.80   10.60   1
  -1  -3  -8  197.70   15.30   1
   1   3   9  660.90   38.60   1
  -1  -3  -9  608.50   33.70   1
   1   4 -10  265.30   26.70   1
  -1  -4  10  291.10   28.00   1
   1   4  -9  722.00   23.90   1
  -1  -4   9  658.40   31.80   1
   1   4  -8  119.00    6.90   1
  -1  -4   8   90.30   12.90   1
   1   4  -7  214.70    8.10   1
  -1  -4   7  228.10   11.40   1
   1   4  -6  161.90    6.10   1
  -1  -4   6  143.40    8.10   1
   1   4  -5  481.00   11.40   1
  -1  -4   5  462.90   12.30   1
   1   4  -4  378.20    8.20   1
  -1  -4   4  352.30    9.40   1
   1   4  -314517.60  178.40   1
  -1  -4   314860.70  193.60   1
   1   4  -2   15.90    2.80   1
  -1  -4   2   21.40    2.90   1
   1   4  -1 1357.10   20.20   1
  -1  -4   1 1362.10   30.30   1
   1   4   0 2580.40   35.80   1
  -1  -4   0 2459.60   39.90   1
   1   4   1 1147.00   18.00   1
  -1  -4  -1 1125.70   19.00   1
   1   4   2  670.60   13.30   1
  -1  -4  -2  671.30   12.00   1
   1   4   3 5306.50   68.40   1
  -1  -4  -3 5200.00   71.10   1
   1   4   4  406.70   10.30   1
  -1  -4  -4  386.30   10.30   1
   1   4   5 1501.20   29.00   1
  -1  -4  -5 1541.00   26.60   1
   1   4   6  398.90   13.60   1
  -1  -4  -6  379.80   14.60   1
   1   4   7 2047.20   54.00   1
  -1  -4  -7 2119.60   58.00   1
   1   4   8  704.80   29.90   1
  -1  -4  -8  743.90   31.20   1
   1   4   9  187.80   22.20   1
  -1  -4  -9  229.50   28.50   1
   1   5 -10  156.40   23.80   1
  -1  -5  10  191.30   27.60   1
   1   5  -9  627.20   35.80   1
  -1  -5   9  674.70   35.00   1
   1   5  -8  235.20   14.10   1
  -1  -5   8  241.60   17.20   1
   1   5  -7  901.00   23.60   1
  -1  -5   7  821.40   23.10   1
   1   5  -6 5968.30   91.20   1
  -1  -5   6 5920.60   92.10   1
   1   5  -5 3514.30   55.80   1
  -1  -5   5 3529.50   61.60   1
   1   5  -4  623.70   13.00   1
  -1  -5   4  631.00   15.10   1
   1   5  -3 4963.30   72.40   1
  -1  -5   3 4974.30   76.50   1
   1   5  -2 6124.80   88.50   1
  -1  -5   2 6242.90   91.10   1
   1   5  -1   80.40    3.70   1
  -1  -5   1   89.20    5.90   1
   1   5   0  141.70    5.20   1
  -1  -5   0  138.10    5.70   1
   1   5   1 2881.20   43.10   1
  -1  -5  -1 2890.60   47.40   1
   1   5   2 3413.50   50.20   1
  -1  -5  -2 3245.80   53.60   1
   1   5   3 5881.00   75.40   1
  -1  -5  -3 5890.70   80.40   1
   1   5   4  119.80    6.40   1
  -1  -5  -4  106.40    5.80   1
   1   5   5  642.60   16.10   1
  -1  -5  -5  649.20   15.40   1
   1   5   6 2348.90   46.70   1
  -1  -5  -6 2320.90   43.70   1
   1   5   7   97.10   12.70   1
  -1  -5  -7   93.70   10.20   1
   1   5   8  175.10   17.90   1
  -1  -5  -8  167.90   20.20   1
   1   5   9  371.30   29.30   1
  -1  -5  -9  364.00   36.50   1
   1   6  -9  144.30   23.50   1
  -1  -6   9  129.70   19.60   1
   1   6  -8  297.40   18.50   1
  -1  -6   8  350.70   24.40   1
   1   6  -7 1446.40   33.70   1
  -1  -6   7 1421.80   37.20   1
   1   6  -6 2363.20   43.50   1
  -1  -6   6 2421.50   51.60   1
   1   6  -5  429.70   11.30   1
  -1  -6   5  411.70   12.40   1
   1   6  -4 2086.00   34.80   1
  -1  -6   4 2224.00   42.50   1
   1   6  -3  579.90   12.10   1
  -1  -6   3  553.20   11.40   1
   1   6  -2 1466.80   24.60   1
  -1  -6   2 1494.50   31.60   1
   1   6  -1 3233.00   46.50   1
  -1  -6   1 3285.90   66.60   1
   1   6   0  312.40    7.80   1
  -1  -6   0  256.60    9.90   1
   1   6   1 3960.10   55.10   1
  -1  -6  -1 4103.00   67.10   1
   1   6   2   88.50    5.20   1
  -1  -6  -2   97.60    5.30   1
   1   6   3  247.70    8.20   1
  -1  -6  -3  262.90    7.90   1
   1   6   4 1031.40   19.70   1
  -1  -6  -4 1000.40   18.90   1
   1   6   5  657.00   15.40   1
  -1  -6  -5  633.60   16.50   1
   1   6   6 1231.60   35.40   1
  -1  -6  -6 1209.70   30.90   1
   1   6   7  690.30   26.40   1
  -1  -6  -7  724.40   28.80   1
   1   6   8  664.70   39.70   1
  -1  -6  -8  664.40   36.00   1
   1   6   9  374.30   31.70   1
  -1  -6  -9  374.90   36.70   1
   1   7  -9  317.60   27.50   1
  -1  -7   9  335.20   29.90   1
   1   7  -8  207.80   16.60   1
  -1  -7   8  267.20   24.50   1
   1   7  -7   16.70    9.00   1
  -1  -7   7   29.60   10.50   1
   1   7  -6 1328.10   29.90   1
  -1  -7   6 1280.30   36.10   1
   1   7  -5 2524.40   44.30   1
  -1  -7   5 2569.90   50.20   1
   1   7  -4  137.00    7.50   1
  -1  -7   4  160.40    8.70   1
   1   7  -3  704.40   16.20   1
  -1  -7   3  713.30   19.00   1
   1   7  -2  856.60   15.50   1
  -1  -7   2  855.00   21.90   1
   1   7  -1 3143.60   44.90   1
  -1  -7   1 3135.80   57.00   1
   1   7   0 1161.80   19.00   1
  -1  -7   0 1143.80   28.00   1
   1   7   1 1057.60   18.20   1
  -1  -7  -1 1078.50   25.50   1
   1   7   2 6213.10   98.90   1
  -1  -7  -2 6220.60  106.00   1
   1   7   3  577.60   14.40   1
  -1  -7  -3  574.80   13.70   1
   1   7   4  202.50    8.40   1
  -1  -7  -4  219.10   10.70   1
   1   7   5 1719.00   32.70   1
  -1  -7  -5 1792.20   40.60   1
   1   7   6   51.50   10.50   1
  -1  -7  -6   20.20    7.80   1
   1   7   7  120.70   13.60   1
  -1  -7  -7   94.70   16.20   1
   1   7   8  506.30   33.90   1
  -1  -7  -8  514.70   35.90   1
   1   8  -9   12.40   19.40   1
  -1  -8   9   19.50   19.70   1
   1   8  -8  251.00   24.10   1
  -1  -8   8  243.10   22.90   1
   1   8  -7  991.00   33.90   1
  -1  -8   7 1067.60   42.30   1
   1   8  -6  438.10   15.40   1
  -1  -8   6  491.00   23.20   1
   1   8  -5 3944.10   59.90   1
  -1  -8   5 4039.20   78.00   1
   1   8  -4 3121.80   56.90   1
  -1  -8   4 3237.50   54.30   1
   1   8  -3 3748.60   56.70   1
  -1  -8   3 3705.50   67.20   1
   1   8  -2 2495.10   34.20   1
  -1  -8   2 2533.80   54.90   1
   1   8  -1 1672.30   27.00   1
  -1  -8   1 1653.10   44.30   1
   1   8   0 2857.10   42.40   1
  -1  -8   0 2784.20   68.70   1
   1   8   1 1238.60   21.60   1
  -1  -8  -1 1236.60   28.50   1
   1   8   2 1434.30   26.90   1
  -1  -8  -2 1404.70   35.90   1
   1   8   3  108.50    9.10   1
  -1  -8  -3  124.40    7.00   1
   1   8   4   68.40    7.20   1
  -1  -8  -4   71.40    8.30   1
   1   8   5  967.10   25.50   1
  -1  -8  -5  985.50   35.90   1
   1   8   6 1293.70   38.70   1
  -1  -8  -6 1468.40   46.50   1
   1   8   7 1268.40   50.00   1
  -1  -8  -7 1135.20   55.50   1
   1   8   8 1465.80   66.70   1
  -1  -8  -8 1409.80   84.60   1
   1   9  -8  260.80   26.50   1
  -1  -9   8  243.50   27.50   1
   1   9  -7   24.90   12.90   1
  -1  -9   7   57.60   17.70   1
   1   9  -6  625.90   22.30   1
  -1  -9   6  721.60   35.30   1
   1   9  -5 4520.30   88.90   1
  -1  -9   5 4583.70   90.20   1
   1   9  -4 3166.00   57.80   1
  -1  -9   4 3296.10   61.40   1
   1   9  -3  354.80   10.30   1
  -1  -9   3  366.60   14.50   1
   1   9  -2  492.80   11.50   1
  -1  -9   2  520.40   18.40   1
   1   9  -1 3730.40   52.30   1
  -1  -9   1 3828.90   96.40   1
   1   9   0  147.10    7.20   1
  -1  -9   0  156.50   13.00   1
   1   9   1 2130.30   35.00   1
  -1  -9  -1 1999.90   43.90   1
   1   9   2 1820.40   32.00   1
  -1  -9  -2 1811.30   48.30   1
   1   9   3   49.20    8.90   1
  -1  -9  -3   61.30    6.70   1
   1   9   4  221.80   11.80   1
  -1  -9  -4  214.30   16.30   1
   1   9   5 1271.90   35.50   1
  -1  -9  -5 1365.00   49.10   1
   1   9   6  489.60   25.90   1
  -1  -9  -6  486.00   29.50   1
   1   9   7  366.80   26.60   1
  -1  -9  -7  367.50   29.90   1
   1  10  -8   73.70   22.60   1
  -1 -10   8  123.20   27.00   1
   1  10  -7  333.30   28.00   1
  -1 -10   7  314.90   27.30   1
   1  10  -6   28.90   11.80   1
  -1 -10   6   49.70   15.50   1
   1  10  -5  719.30   24.10   1
  -1 -10   5  728.30   27.20   1
   1  10  -4  342.80   13.50   1
  -1 -10   4  331.60   15.50   1
   1  10  -3 1804.00   34.40   1
  -1 -10   3 1847.30   43.20   1
   1  10  -2  253.80   10.00   1
  -1 -10   2  317.90   17.50   1
   1  10  -1  914.60   19.40   1
  -1 -10   1  964.90   43.70   1
   1  10   0  803.30   19.10   1
  -1 -10   0  739.40   31.10   1
   1  10   1  805.90   16.80   1
  -1 -10  -1  760.30   24.60   1
   1  10   2  186.70    9.30   1
  -1 -10  -2  177.60   14.40   1
   1  10   3    3.80    7.40   1
  -1 -10  -3    7.70    7.00   1
   1  10   4  908.90   29.00   1
  -1 -10  -4  958.90   41.50   1
   1  10   5  455.50   22.60   1
  -1 -10  -5  492.70   28.60   1
   1  10   6  242.30   22.70   1
  -1 -10  -6  267.10   23.50   1
   1  10   7 2024.50   68.50   1
  -1 -10  -7 2173.00  113.50   1
   1  11  -7   94.60   25.90   1
  -1 -11   7  167.40   25.60   1
   1  11  -6  202.40   22.70   1
  -1 -11   6  230.30   26.70   1
   1  11  -5 1611.20   45.90   1
  -1 -11   5 1579.80   50.50   1
   1  11  -4  807.30   23.60   1
  -1 -11   4  756.90   31.60   1
   1  11  -3  844.10   22.90   1
  -1 -11   3  889.70   34.40   1
   1  11  -2 1606.60   34.30   1
  -1 -11   2 1649.70   53.00   1
   1  11  -1  185.30    9.50   1
  -1 -11   1  179.50   19.80   1
   1  11   0  182.80   10.00   1
  -1 -11   0  170.40   15.10   1
   1  11   1  142.20    7.70   1
  -1 -11  -1  150.90   16.80   1
   1  11   2 2002.30   46.60   1
  -1 -11  -2 2347.90   74.30   1
   1  11   3 2466.80   55.10   1
  -1 -11  -3 2550.40   78.20   1
   1  11   4  195.30   13.80   1
  -1 -11  -4  232.00   20.70   1
   1  11   5  331.30   25.30   1
  -1 -11  -5  316.60   24.40   1
   1  11   6  511.70   34.60   1
  -1 -11  -6  533.20   37.80   1
   1  12  -6  511.00   40.20   1
  -1 -12   6  482.70   40.60   1
   1  12  -5  408.70   22.00   1
  -1 -12   5  380.60   28.50   1
   1  12  -4  126.60   13.80   1
  -1 -12   4   92.80   15.50   1
   1  12  -3  449.60   18.10   1
  -1 -12   3  414.70   24.00   1
   1  12  -2   25.60    9.20   1
  -1 -12   2   48.00   20.90   1
   1  12  -1  248.00   14.90   1
  -1 -12   1  218.80   22.40   1
   1  12   0 1985.20   48.50   1
  -1 -12   0 2165.10   63.10   1
   1  12   1  106.10   10.00   1
  -1 -12  -1  106.70   19.70   1
   1  12   2  557.20   24.10   1
  -1 -12  -2  545.00   31.60   1
   1  12   3  326.80   18.70   1
  -1 -12  -3  301.30   24.60   1
   1  12   4  431.10   24.30   1
  -1 -12  -4  400.80   33.40   1
   1  12   5   38.80   15.00   1
  -1 -12  -5   58.90   25.60   1
   1  13  -5  135.20   17.80   1
  -1 -13   5   81.50   19.80   1
   1  13  -4 1025.50   38.40   1
  -1 -13   4  897.00   47.80   1
   1  13  -3   14.80   12.90   1
  -1 -13   3   23.70   20.80   1
   1  13  -2  280.80   17.30   1
  -1 -13   2  276.90   33.40   1
   1  13  -1  592.80   26.70   1
  -1 -13   1  553.90   35.70   1
   1  13   0  145.40   13.30   1
  -1 -13   0  172.40   19.20   1
   1  13   1    5.50   12.70   1
  -1 -13  -1    0.80   18.50   1
   1  13   2 1802.50   57.30   1
  -1 -13  -2 1848.60   78.30   1
   1  13   3  301.70   21.90   1
  -1 -13  -3  378.80   30.60   1
   1  13   4   61.60   15.80   1
  -1 -13  -4   89.00   20.20   1
   1  14  -3  246.80   21.70   1
  -1 -14   3  247.10   36.30   1
   1  14  -2   47.10   12.90   1
  -1 -14   2   88.90   21.30   1
   1  14  -1   40.60   14.00   1
  -1 -14   1   11.20   21.00   1
   1  14   0  275.90   19.60   1
  -1 -14   0  257.10   25.20   1
   1  14   1   45.90   13.90   1
  -1 -14  -1   38.70   23.00   1
   1  14   2  287.20   23.00   1
  -1 -14  -2  369.90   45.30   1
   1  14   3  456.10   31.20   1
  -1 -14  -3  562.70   54.80   1
   2   0 -10 1732.00   70.50   1
   2   0  -9 1838.60   43.00   1
   2   0  -8  442.10   16.40   1
   2   0  -7 1207.80   25.70   1
   2   0  -6 2478.30   41.50   1
   2   0  -5   39.70    4.20   1
   2   0  -4  698.40   14.20   1
   2   0  -3 5698.70   88.80   1
   2   0  -2  900.80   18.30   1
   2   0  -1 1124.70   20.30   1
   2   0   032088.90  626.10   1
   2   0   1 1881.40   23.80   1
   2   0   2 4765.70   56.50   1
   2   0   3 4258.90   53.40   1
   2   0   4 2465.20   33.90   1
   2   0   5 4227.70   57.80   1
   2   0   6   21.10    6.80   1
   2   0   7  523.20   17.30   1
   2   0   8  293.20   17.10   1
   2   0   9   99.30   23.40   1
   2   1 -10  133.80   20.40   1
  -2  -1  10   98.50   18.40   1
   2   1  -9 1607.00   45.40   1
  -2  -1   9 1541.50   39.40   1
   2   1  -8 5597.00   96.20   1
  -2  -1   8 5611.50   91.90   1
   2   1  -7   78.90    7.30   1
  -2  -1   7   73.30    6.40   1
   2   1  -6  233.50    9.00   1
  -2  -1   6  198.80    7.60   1
   2   1  -5 1043.60   19.90   1
  -2  -1   5 1090.40   20.50   1
   2   1  -4 2140.80   34.40   1
  -2  -1   4 2051.90   31.00   1
   2   1  -3  246.50    6.80   1
  -2  -1   3  247.00    7.00   1
   2   1  -2  726.90   14.80   1
  -2  -1   2  723.70   12.80   1
   2   1  -1 4399.70   65.60   1
  -2  -1   1 4311.00   61.20   1
   2   1   0 1352.60   16.20   1
  -2  -1   0 1321.40   17.30   1
   2   1   1 1327.40   18.40   1
  -2  -1  -1 1348.80   17.00   1
   2   1   2 8577.50   97.80   1
  -2  -1  -2 8563.00   98.00   1
   2   1   3 2330.10   33.90   1
  -2  -1  -3 2348.00   31.90   1
   2   1   411501.50  140.80   1
  -2  -1  -411357.60  139.50   1
   2   1   5  461.10   12.60   1
  -2  -1  -5  431.40   11.70   1
   2   1   6 2992.40   54.00   1
  -2  -1  -6 3008.10   50.80   1
   2   1   7  118.40    9.60   1
  -2  -1  -7  102.90   10.10   1
   2   1   8  176.30   18.30   1
  -2  -1  -8  140.90   15.70   1
   2   1   9  890.90   47.60   1
  -2  -1  -9  838.90   47.70   1
   2   2 -10  753.30   38.90   1
  -2  -2  10  840.20   45.50   1
   2   2  -9   82.10   11.60   1
  -2  -2   9  119.60   12.30   1
   2   2  -8  152.60   10.00   1
  -2  -2   8  166.70    9.40   1
   2   2  -7 1691.40   34.20   1
  -2  -2   7 1653.90   33.70   1
   2   2  -6 3215.60   54.40   1
  -2  -2   6 3267.50   48.80   1
   2   2  -5  835.10   17.20   1
  -2  -2   5  873.90   16.20   1
   2   2  -4  979.00   17.10   1
  -2  -2   4 1054.80   20.30   1
   2   2  -310596.40  142.40   1
  -2  -2   310811.70  133.90   1
   2   2  -2  590.20   11.10   1
  -2  -2   2  617.80   11.70   1
   2   2  -117929.10  277.50   1
  -2  -2   118008.20  249.50   1
   2   2   0 4845.90   59.60   1
  -2  -2   0 4626.00   53.50   1
   2   2   1 2115.00   25.50   1
  -2  -2  -1 2088.40   29.10   1
   2   2   2 2268.40   32.20   1
  -2  -2  -2 2256.60   31.70   1
   2   2   3 1774.50   26.60   1
  -2  -2  -3 1701.60   25.90   1
   2   2   4 8138.30   95.00   1
  -2  -2  -4 8357.00  105.40   1
   2   2   5 2382.10   37.70   1
  -2  -2  -5 2448.90   39.50   1
   2   2   6  562.10   15.80   1
  -2  -2  -6  537.10   15.60   1
   2   2   7  416.80   16.60   1
  -2  -2  -7  373.30   17.60   1
   2   2   8  897.40   40.30   1
  -2  -2  -8  855.60   34.80   1
   2   2   9  135.40   23.10   1
  -2  -2  -9  120.60   24.30   1
   2   3 -10  196.20   17.60   1
  -2  -3  10  187.70   20.40   1
   2   3  -9  923.10   25.80   1
  -2  -3   9  945.20   37.10   1
   2   3  -8 2707.00   58.30   1
  -2  -3   8 2822.10   63.40   1
   2   3  -7 1912.00   35.10   1
  -2  -3   7 1885.60   38.90   1
   2   3  -6 1292.50   23.60   1
  -2  -3   6 1224.40   24.60   1
   2   3  -5 6852.50   94.70   1
  -2  -3   5 6809.60   98.10   1
   2   3  -4 1051.10   18.30   1
  -2  -3   4 1031.70   18.80   1
   2   3  -3 2176.90   37.70   1
  -2  -3   3 2190.30   33.60   1
   2   3  -210543.20  140.30   1
  -2  -3   210440.20  123.50   1
   2   3  -1  377.30    6.90   1
  -2  -3   1  375.80    9.20   1
   2   3   0   28.80    2.60   1
  -2  -3   0   25.90    2.70   1
   2   3   1  765.10   11.70   1
  -2  -3  -1  778.20   11.70   1
   2   3   2 3224.00   42.40   1
  -2  -3  -2 3217.30   43.50   1
   2   3   3  447.60    9.10   1
  -2  -3  -3  416.20    9.90   1
   2   3   4   88.60    5.60   1
  -2  -3  -4   86.30    5.80   1
   2   3   5 2902.30   45.30   1
  -2  -3  -5 2905.90   47.30   1
   2   3   6 1128.30   26.50   1
  -2  -3  -6 1041.20   26.00   1
   2   3   7   28.50   10.70   1
  -2  -3  -7   26.70    8.20   1
   2   3   8  517.60   33.80   1
  -2  -3  -8  485.30   30.20   1
   2   4 -10  235.40   26.50   1
  -2  -4  10  247.10   24.60   1
   2   4  -9   36.00    8.30   1
  -2  -4   9   46.60   14.90   1
   2   4  -8  119.30    9.70   1
  -2  -4   8  157.00   12.80   1
   2   4  -7 3105.50   50.70   1
  -2  -4   7 3063.40   57.40   1
   2   4  -6  699.20   15.50   1
  -2  -4   6  698.20   17.30   1
   2   4  -5  197.90    7.70   1
  -2  -4   5  202.50    8.20   1
   2   4  -4 2343.70   38.10   1
  -2  -4   4 2341.60   41.50   1
   2   4  -3 6221.50   88.70   1
  -2  -4   3 6218.50   94.10   1
   2   4  -2 3551.40   52.20   1
  -2  -4   2 3617.40   43.50   1
   2   4  -1 1527.80   22.50   1
  -2  -4   1 1491.20   25.90   1
   2   4   0  518.80    9.70   1
  -2  -4   0  536.70   10.80   1
   2   4   1 5842.20   77.30   1
  -2  -4  -1 5885.40   78.20   1
   2   4   2  245.60    6.10   1
  -2  -4  -2  230.50    6.40   1
   2   4   3 4040.40   51.00   1
  -2  -4  -3 4047.80   56.70   1
   2   4   4 1861.40   28.50   1
  -2  -4  -4 1829.40   30.90   1
   2   4   5  554.40   13.40   1
  -2  -4  -5  574.30   15.50   1
   2   4   6   94.70   11.10   1
  -2  -4  -6   81.70   10.20   1
   2   4   7   18.30   14.80   1
  -2  -4  -7   24.40   10.80   1
   2   4   8  581.20   32.70   1
  -2  -4  -8  575.10   34.70   1
   2   5 -10   15.40   17.80   1
  -2  -5  10   14.50   18.00   1
   2   5  -9  728.40   30.70   1
  -2  -5   9  822.80   37.20   1
   2   5  -8  514.10   19.50   1
  -2  -5   8  488.80   20.10   1
   2   5  -7  708.80   20.20   1
  -2  -5   7  720.10   20.70   1
   2   5  -6  484.30   14.10   1
  -2  -5   6  469.60   15.50   1
   2   5  -5  239.70    8.90   1
  -2  -5   5  208.00    9.30   1
   2   5  -4  910.90   18.30   1
  -2  -5   4  953.90   20.10   1
   2   5  -3 3220.60   52.10   1
  -2  -5   3 3250.50   48.70   1
   2   5  -2 1924.00   27.70   1
  -2  -5   2 1800.10   30.90   1
   2   5  -1  319.50    7.50   1
  -2  -5   1  292.10    8.90   1
   2   5   0  352.40    8.00   1
  -2  -5   0  341.40    8.80   1
   2   5   1 1329.80   20.50   1
  -2  -5  -1 1325.00   22.00   1
   2   5   2 3145.80   41.20   1
  -2  -5  -2 3166.40   47.50   1
   2   5   3   32.50    4.70   1
  -2  -5  -3   29.80    5.10   1
   2   5   4  352.80    9.90   1
  -2  -5  -4  358.80   10.90   1
   2   5   5 1254.70   28.10   1
  -2  -5  -5 1271.40   27.60   1
   2   5   6  143.00   12.10   1
  -2  -5  -6  116.80   11.20   1
   2   5   7  112.00   16.80   1
  -2  -5  -7   80.10   14.10   1
   2   5   8  651.50   37.60   1
  -2  -5  -8  594.90   37.50   1
   2   6  -9  274.40   23.60   1
  -2  -6   9  244.90   24.20   1
   2   6  -8  268.80   17.30   1
  -2  -6   8  305.80   21.00   1
   2   6  -7  989.00   29.80   1
  -2  -6   7 1082.70   31.60   1
   2   6  -6 1106.90   27.20   1
  -2  -6   6 1159.00   27.20   1
   2   6  -5   85.60    7.40   1
  -2  -6   5   91.70    8.00   1
   2   6  -4 1825.40   26.30   1
  -2  -6   4 1789.10   33.30   1
   2   6  -3 3132.40   49.00   1
  -2  -6   3 3182.80   49.90   1
   2   6  -2 4950.60   69.10   1
  -2  -6   2 4831.90   74.20   1
   2   6  -1 2145.30   30.60   1
  -2  -6   1 2070.20   46.10   1
   2   6   0 6942.00   78.50   1
  -2  -6   0 7084.90   97.40   1
   2   6   1 3388.40   42.40   1
  -2  -6  -1 3300.00   47.10   1
   2   6   2 3847.20   50.10   1
  -2  -6  -2 3921.30   60.10   1
   2   6   3 1445.20   25.70   1
  -2  -6  -3 1521.80   27.60   1
   2   6   4 2476.20   41.70   1
  -2  -6  -4 2523.80   46.90   1
   2   6   5 1430.10   33.50   1
  -2  -6  -5 1428.50   33.70   1
   2   6   6   79.20   12.60   1
  -2  -6  -6   73.10    9.50   1
   2   6   7  465.60   25.50   1
  -2  -6  -7  553.20   33.10   1
   2   6   8  498.70   35.00   1
  -2  -6  -8  472.70   40.30   1
   2   7  -9  255.70   32.30   1
  -2  -7   9  283.10   29.30   1
   2   7  -8  954.80   36.20   1
  -2  -7   8 1108.20   54.10   1
   2   7  -7 1093.20   30.70   1
  -2  -7   7 1066.00   34.90   1
   2   7  -6   39.50    9.50   1
  -2  -7   6   37.50    9.00   1
   2   7  -5  398.30   13.40   1
  -2  -7   5  373.90   12.90   1
   2   7  -4  149.90    6.90   1
  -2  -7   4  162.40    7.40   1
   2   7  -3   80.90    5.30   1
  -2  -7   3   81.60    5.40   1
   2   7  -2  889.30   16.30   1
  -2  -7   2  901.20   24.10   1
   2   7  -1  240.10    6.90   1
  -2  -7   1  205.00   12.20   1
   2   7   0  199.30    5.60   1
  -2  -7   0  192.00    8.20   1
   2   7   1  743.40   12.70   1
  -2  -7  -1  755.50   17.40   1
   2   7   2 1480.80   25.90   1
  -2  -7  -2 1473.30   27.50   1
   2   7   3  579.70   14.70   1
  -2  -7  -3  587.10   14.80   1
   2   7   4 1038.00   22.60   1
  -2  -7  -4 1036.40   29.10   1
   2   7   5  404.90   17.30   1
  -2  -7  -5  383.60   18.40   1
   2   7   6 2913.90   74.20   1
  -2  -7  -6 2552.60   76.10   1
   2   7   7   87.90   19.20   1
  -2  -7  -7  143.30   21.10   1
   2   8  -9  141.60   26.60   1
  -2  -8   9  149.80   20.60   1
   2   8  -8  276.90   22.90   1
  -2  -8   8  305.00   27.50   1
   2   8  -7 1071.30   35.90   1
  -2  -8   7 1114.70   46.70   1
   2   8  -6 1010.20   30.70   1
  -2  -8   6 1052.80   27.60   1
   2   8  -5  479.20   11.60   1
  -2  -8   5  480.40   15.10   1
   2   8  -4  258.60    9.40   1
  -2  -8   4  235.90   10.00   1
   2   8  -3 8249.00  111.80   1
  -2  -8   3 8308.10  148.10   1
   2   8  -2  412.10   10.60   1
  -2  -8   2  408.30   13.60   1
   2   8  -1 2098.90   30.90   1
  -2  -8   1 2077.10   49.80   1
   2   8   0 1191.40   19.00   1
  -2  -8   0 1274.50   32.90   1
   2   8   1  947.90   16.40   1
  -2  -8  -1  958.10   19.90   1
   2   8   2 1439.90   23.90   1
  -2  -8  -2 1553.20   29.20   1
   2   8   3  341.30   12.20   1
  -2  -8  -3  363.30   12.40   1
   2   8   4 1902.70   41.80   1
  -2  -8  -4 1878.90   49.40   1
   2   8   5  509.70   20.90   1
  -2  -8  -5  507.50   25.80   1
   2   8   6   56.80   15.90   1
  -2  -8  -6   45.80   17.80   1
   2   8   7  670.70   36.20   1
  -2  -8  -7  642.30   45.10   1
   2   9  -8  488.10   46.00   1
  -2  -9   8  548.90   40.20   1
   2   9  -7 1140.30   38.50   1
  -2  -9   7 1263.30   56.80   1
   2   9  -6  345.20    9.90   1
  -2  -9   6  310.00   19.40   1
   2   9  -5 1035.80   23.30   1
  -2  -9   5 1014.50   32.60   1
   2   9  -4  169.90    8.50   1
  -2  -9   4  172.20   10.60   1
   2   9  -3 1508.40   27.30   1
  -2  -9   3 1462.60   34.60   1
   2   9  -2 4439.80   68.60   1
  -2  -9   2 4560.80  114.20   1
   2   9  -1 1801.60   28.20   1
  -2  -9   1 1761.60   53.40   1
   2   9   0  699.80   14.40   1
  -2  -9   0  760.00   29.80   1
   2   9   1  867.80   16.80   1
  -2  -9  -1  885.70   21.50   1
   2   9   2  944.00   20.60   1
  -2  -9  -2 1012.60   25.00   1
   2   9   3   48.10    9.20   1
  -2  -9  -3   74.10    7.00   1
   2   9   4  713.20   24.40   1
  -2  -9  -4  761.20   32.20   1
   2   9   5  519.10   25.10   1
  -2  -9  -5  479.70   25.80   1
   2   9   6  537.00   32.00   1
  -2  -9  -6  534.40   33.30   1
   2  10  -7  248.40   27.70   1
  -2 -10   7  288.20   27.70   1
   2  10  -6  429.50   18.30   1
  -2 -10   6  375.40   23.10   1
   2  10  -5    0.50    6.50   1
  -2 -10   5  -13.30   11.50   1
   2  10  -4  191.00    9.90   1
  -2 -10   4  202.30   12.30   1
   2  10  -3 7316.70  111.90   1
  -2 -10   3 7201.50  144.90   1
   2  10  -2  475.80   15.70   1
  -2 -10   2  521.80   24.70   1
   2  10  -1  217.10    8.90   1
  -2 -10   1  244.30   18.10   1
   2  10   0 1264.70   26.10   1
  -2 -10   0 1289.00   47.30   1
   2  10   1 1071.20   21.60   1
  -2 -10  -1 1056.00   28.70   1
   2  10   2  498.40   15.40   1
  -2 -10  -2  532.60   21.70   1
   2  10   3  158.50   10.40   1
  -2 -10  -3  190.40   10.70   1
   2  10   4  105.60   13.30   1
  -2 -10  -4  129.40   16.50   1
   2  10   5  147.40   18.00   1
  -2 -10  -5  121.20   20.20   1
   2  10   6  158.00   21.30   1
  -2 -10  -6  127.90   28.10   1
   2  11  -7    9.80   17.30   1
  -2 -11   7  -18.10   19.90   1
   2  11  -6  246.50   27.90   1
  -2 -11   6  228.10   24.60   1
   2  11  -5  389.00   16.10   1
  -2 -11   5  364.00   23.00   1
   2  11  -4  669.60   19.60   1
  -2 -11   4  655.70   27.20   1
   2  11  -3    2.30    7.50   1
  -2 -11   3    5.10    9.00   1
   2  11  -2    2.40    7.70   1
  -2 -11   2   18.90   13.40   1
   2  11  -1 1226.50   30.40   1
  -2 -11   1 1451.90   49.70   1
   2  11   0   53.30    8.00   1
  -2 -11   0   37.20   14.20   1
   2  11   1   30.60    6.80   1
  -2 -11  -1   15.90   10.00   1
   2  11   2 1298.40   31.10   1
  -2 -11  -2 1515.90   43.70   1
   2  11   3  138.00   13.40   1
  -2 -11  -3  147.30   11.70   1
   2  11   4  818.70   30.80   1
  -2 -11  -4  927.00   45.30   1
   2  11   5  266.00   31.90   1
  -2 -11  -5  257.40   34.60   1
   2  12  -6  437.30   28.90   1
  -2 -12   6  440.40   35.00   1
   2  12  -5   12.20   14.90   1
  -2 -12   5   16.80   16.80   1
   2  12  -4  893.10   26.00   1
  -2 -12   4  849.10   38.40   1
   2  12  -3  352.90   15.90   1
  -2 -12   3  330.60   25.00   1
   2  12  -2  527.10   21.00   1
  -2 -12   2  554.50   30.50   1
   2  12  -1   59.60   10.60   1
  -2 -12   1   59.70   16.60   1
   2  12   0  827.20   23.00   1
  -2 -12   0  819.10   42.40   1
   2  12   1  423.80   14.70   1
  -2 -12  -1  456.00   26.50   1
   2  12   2  171.40   12.20   1
  -2 -12  -2  205.10   17.50   1
   2  12   3  592.10   28.40   1
  -2 -12  -3  557.00   34.50   1
   2  12   4  420.10   32.20   1
  -2 -12  -4  340.00   38.00   1
   2  13  -5  345.80   26.10   1
  -2 -13   5  343.10   31.70   1
   2  13  -4  201.50   18.00   1
  -2 -13   4  194.80   23.90   1
   2  13  -3   -5.40   12.40   1
  -2 -13   3    2.50   19.80   1
   2  13  -2  932.80   34.80   1
  -2 -13   2  930.00   54.20   1
   2  13  -1   36.30   15.80   1
  -2 -13   1   51.70   18.30   1
   2  13   0   88.40   13.70   1
  -2 -13   0  109.30   21.30   1
   2  13   1   76.20   13.90   1
  -2 -13  -1  104.50   18.90   1
   2  13   2  477.90   31.00   1
  -2 -13  -2  434.30   34.80   1
   2  13   3  314.70   27.00   1
  -2 -13  -3  323.00   37.30   1
   2  14  -2  126.80   16.70   1
  -2 -14   2  114.80   26.50   1
   2  14  -1   38.20   20.30   1
  -2 -14   1   74.20   26.50   1
   2  14   0  315.40   29.00   1
  -2 -14   0  277.80   36.60   1
   2  14   1  440.90   38.40   1
  -2 -14  -1  328.10   33.40   1
   3   0 -10  221.80   22.60   1
   3   0  -9  532.40   23.30   1
   3   0  -8   92.10    9.10   1
   3   0  -7  265.70   10.80   1
   3   0  -610114.70  143.50   1
   3   0  -5    4.00    4.50   1
   3   0  -4 4720.00   69.90   1
   3   0  -3   -1.80    2.70   1
   3   0  -2  499.10   11.60   1
   3   0  -1  137.20    5.70   1
   3   0   0   97.40    4.00   1
   3   0   1 3950.40   47.00   1
   3   0   2   57.10    4.40   1
   3   0   3 1684.90   23.40   1
   3   0   4  829.20   16.60   1
   3   0   5 2790.80   46.40   1
   3   0   6 1348.70   33.00   1
   3   0   7  851.50   29.80   1
   3   0   8  505.10   42.20   1
   3   1 -10  -13.30   13.50   1
  -3  -1  10    4.20   16.70   1
   3   1  -9  113.40   11.10   1
  -3  -1   9  107.30   13.70   1
   3   1  -8 5453.30  118.50   1
  -3  -1   8 5349.80   92.70   1
   3   1  -7  459.50   14.20   1
  -3  -1   7  445.00   13.10   1
   3   1  -6 3804.00   62.60   1
  -3  -1   6 3934.10   60.70   1
   3   1  -5  468.30   12.00   1
  -3  -1   5  472.80   10.80   1
   3   1  -4  445.80   10.20   1
  -3  -1   4  439.10   10.10   1
   3   1  -3  791.50   15.40   1
  -3  -1   3  823.00   17.10   1
   3   1  -2 5171.00   68.50   1
  -3  -1   2 5010.70   79.60   1
   3   1  -1 7564.70  101.50   1
  -3  -1   1 7492.40   97.20   1
   3   1   0 7386.70   89.90   1
  -3  -1   0 7558.50   85.50   1
   3   1   1 1543.30   23.00   1
  -3  -1  -1 1569.70   23.90   1
   3   1   2 1591.10   26.80   1
  -3  -1  -2 1589.60   25.40   1
   3   1   3 2136.40   27.10   1
  -3  -1  -3 2131.80   30.40   1
   3   1   4 1424.70   22.60   1
  -3  -1  -4 1419.10   24.20   1
   3   1   5 1460.10   26.20   1
  -3  -1  -5 1369.70   27.90   1
   3   1   6   -3.50    8.40   1
  -3  -1  -6    3.20    8.20   1
   3   1   7  716.90   31.60   1
  -3  -1  -7  707.00   28.80   1
   3   1   8   48.60   27.10   1
  -3  -1  -8   48.40   27.40   1
   3   2 -10  433.60   35.80   1
  -3  -2  10  406.30   30.90   1
   3   2  -9  153.60   13.70   1
  -3  -2   9  181.60   16.30   1
   3   2  -8 1376.70   35.20   1
  -3  -2   8 1394.00   36.10   1
   3   2  -7  382.20   12.80   1
  -3  -2   7  349.40   14.60   1
   3   2  -6  417.80   11.70   1
  -3  -2   6  408.20   12.90   1
   3   2  -5 1848.10   30.00   1
  -3  -2   5 1805.30   33.50   1
   3   2  -4 1312.10   23.80   1
  -3  -2   4 1262.30   22.60   1
   3   2  -3 3698.50   65.40   1
  -3  -2   3 3727.70   55.90   1
   3   2  -2 1718.90   26.00   1
  -3  -2   2 1758.90   30.60   1
   3   2  -1 4889.40   64.50   1
  -3  -2   1 4899.00   65.50   1
   3   2   0  524.70    9.10   1
  -3  -2   0  555.40    8.70   1
   3   2   1 2793.00   35.70   1
  -3  -2  -1 2747.50   41.10   1
   3   2   2 1232.50   19.80   1
  -3  -2  -2 1253.40   23.10   1
   3   2   3 1010.90   16.90   1
  -3  -2  -3 1032.40   18.00   1
   3   2   4 1396.00   25.10   1
  -3  -2  -4 1386.10   24.50   1
   3   2   5 1059.70   27.00   1
  -3  -2  -5 1036.70   23.60   1
   3   2   6  629.30   23.30   1
  -3  -2  -6  585.40   19.00   1
   3   2   7 1342.20   49.30   1
  -3  -2  -7 1149.80   38.20   1
   3   2   8  351.90   36.20   1
  -3  -2  -8  336.30   36.20   1
   3   3 -10  294.00   23.20   1
  -3  -3  10  329.20   34.10   1
   3   3  -9  392.50   17.60   1
  -3  -3   9  352.40   19.40   1
   3   3  -8   46.30    8.10   1
  -3  -3   8   59.10   11.00   1
   3   3  -7  258.90   10.80   1
  -3  -3   7  270.70   13.20   1
   3   3  -6  634.80   15.60   1
  -3  -3   6  639.30   17.70   1
   3   3  -5  981.40   18.90   1
  -3  -3   5 1033.30   22.10   1
   3   3  -4 2140.90   37.40   1
  -3  -3   4 2186.80   39.40   1
   3   3  -3  297.80    9.70   1
  -3  -3   3  288.60    7.80   1
   3   3  -2  905.80   15.60   1
  -3  -3   2  886.50   18.70   1
   3   3  -110759.30  133.10   1
  -3  -3   110868.00  140.10   1
   3   3   0 2075.90   26.90   1
  -3  -3   0 2046.00   25.40   1
   3   3   1 2842.90   34.60   1
  -3  -3  -1 2853.80   42.40   1
   3   3   2 1865.70   26.90   1
  -3  -3  -2 1885.50   28.10   1
   3   3   3 1754.80   28.00   1
  -3  -3  -3 1751.80   28.60   1
   3   3   4  350.70   10.80   1
  -3  -3  -4  323.60   10.50   1
   3   3   5  802.40   22.40   1
  -3  -3  -5  720.90   22.20   1
   3   3   6  313.90   22.00   1
  -3  -3  -6  320.20   14.20   1
   3   3   7   42.90   24.80   1
  -3  -3  -7   70.90   17.70   1
   3   4 -10  368.10   30.80   1
  -3  -4  10  400.70   38.40   1
   3   4  -9  264.40   17.50   1
  -3  -4   9  331.30   20.60   1
   3   4  -8  504.60   18.40   1
  -3  -4   8  459.50   18.40   1
   3   4  -7   35.90    7.40   1
  -3  -4   7   46.90    9.80   1
   3   4  -6  157.20    8.10   1
  -3  -4   6  116.90    8.80   1
   3   4  -5   31.40    4.90   1
  -3  -4   5   22.20    7.00   1
   3   4  -4  915.40   19.60   1
  -3  -4   4  958.10   21.10   1
   3   4  -3 2511.20   43.20   1
  -3  -4   3 2548.40   37.50   1
   3   4  -2  959.10   14.60   1
  -3  -4   2  921.30   17.70   1
   3   4  -1 4080.50   58.60   1
  -3  -4   1 4170.10   63.50   1
   3   4   0 1224.80   18.10   1
  -3  -4   0 1133.10   19.30   1
   3   4   1  333.90    8.10   1
  -3  -4  -1  286.20    8.20   1
   3   4   2  129.80    5.80   1
  -3  -4  -2  134.90    5.40   1
   3   4   3 1248.40   22.10   1
  -3  -4  -3 1265.30   23.20   1
   3   4   4  953.70   21.00   1
  -3  -4  -4  983.10   23.30   1
   3   4   5  927.30   31.60   1
  -3  -4  -5  934.70   26.00   1
   3   4   6   29.30   15.10   1
  -3  -4  -6   45.60   11.40   1
   3   4   7  814.30   47.30   1
  -3  -4  -7  729.20   37.80   1
   3   5  -9  167.10   18.10   1
  -3  -5   9  216.60   22.40   1
   3   5  -8  694.40   26.60   1
  -3  -5   8  705.30   26.60   1
   3   5  -7  174.10   10.30   1
  -3  -5   7  187.10   12.20   1
   3   5  -6 2613.20   49.50   1
  -3  -5   6 2594.90   52.90   1
   3   5  -5 1875.00   36.00   1
  -3  -5   5 1899.10   38.80   1
   3   5  -4 2286.30   47.70   1
  -3  -5   4 2353.60   41.10   1
   3   5  -3  233.90    6.50   1
  -3  -5   3  221.40    6.80   1
   3   5  -2 1464.50   22.70   1
  -3  -5   2 1430.30   27.50   1
   3   5  -1 1556.60   25.60   1
  -3  -5   1 1564.20   28.80   1
   3   5   0 1040.30   16.60   1
  -3  -5   0 1020.50   18.30   1
   3   5   1  232.60    7.60   1
  -3  -5  -1  225.00    7.70   1
   3   5   2 1024.40   18.70   1
  -3  -5  -2 1036.60   19.90   1
   3   5   3 3694.60   56.70   1
  -3  -5  -3 3861.50   59.10   1
   3   5   4 1588.70   34.40   1
  -3  -5  -4 1619.90   32.30   1
   3   5   5  513.30   29.00   1
  -3  -5  -5  598.30   22.90   1
   3   5   6  257.90   22.20   1
  -3  -5  -6  374.90   24.50   1
   3   5   7  128.40   25.00   1
  -3  -5  -7  107.30   21.90   1
   3   6  -9  203.30   18.60   1
  -3  -6   9  205.00   29.90   1
   3   6  -8   22.80   11.40   1
  -3  -6   8   23.50   12.80   1
   3   6  -7  257.70   13.10   1
  -3  -6   7  291.10   13.00   1
   3   6  -6 3789.20   75.30   1
  -3  -6   6 3841.70   69.70   1
   3   6  -5  458.60   14.50   1
  -3  -6   5  453.40   12.30   1
   3   6  -4  555.00   15.00   1
  -3  -6   4  556.50   13.20   1
   3   6  -3  813.90   14.60   1
  -3  -6   3  718.20   17.10   1
   3   6  -2  529.20   10.50   1
  -3  -6   2  535.10   15.70   1
   3   6  -1  653.70   13.80   1
  -3  -6   1  666.10   14.10   1
   3   6   0 1371.70   22.70   1
  -3  -6   0 1361.50   23.80   1
   3   6   1 1212.00   19.80   1
  -3  -6  -1 1270.30   21.90   1
   3   6   2  141.90    7.50   1
  -3  -6  -2  113.60    6.80   1
   3   6   3  445.90   14.00   1
  -3  -6  -3  479.90   14.20   1
   3   6   4  198.40   14.70   1
  -3  -6  -4  213.20   11.90   1
   3   6   5 1081.10   45.30   1
  -3  -6  -5 1136.30   40.30   1
   3   6   6  279.90   25.80   1
  -3  -6  -6  289.80   23.20   1
   3   6   7  319.90   35.30   1
  -3  -6  -7  321.20   33.70   1
   3   7  -9  206.20   25.10   1
  -3  -7   9  242.50   36.00   1
   3   7  -8 1218.20   54.90   1
  -3  -7   8 1110.60   40.50   1
   3   7  -7  -22.50   11.50   1
  -3  -7   7    1.70    9.80   1
   3   7  -6  641.00   22.20   1
  -3  -7   6  629.30   18.40   1
   3   7  -5  995.40   27.60   1
  -3  -7   5 1071.40   24.50   1
   3   7  -4 2136.80   36.50   1
  -3  -7   4 2119.70   38.20   1
   3   7  -3  495.60   11.40   1
  -3  -7   3  506.10   12.50   1
   3   7  -2  605.40   12.60   1
  -3  -7   2  604.50   15.00   1
   3   7  -1 4733.10   70.10   1
  -3  -7   1 4655.90   70.40   1
   3   7   0 5289.70   69.90   1
  -3  -7   0 5440.60   81.90   1
   3   7   1  108.00    6.80   1
  -3  -7  -1  105.80    6.00   1
   3   7   2 1693.40   33.30   1
  -3  -7  -2 1797.20   32.50   1
   3   7   3 1117.70   31.60   1
  -3  -7  -3 1075.00   25.20   1
   3   7   4  135.40   14.30   1
  -3  -7  -4  146.00   14.70   1
   3   7   5  126.50   17.90   1
  -3  -7  -5  138.40   14.70   1
   3   7   6  109.20   24.00   1
  -3  -7  -6  125.40   18.40   1
   3   8  -8  128.50   23.20   1
  -3  -8   8  112.30   22.00   1
   3   8  -7  150.70   18.70   1
  -3  -8   7  148.70   16.20   1
   3   8  -6   35.30   11.50   1
  -3  -8   6   24.20    8.50   1
   3   8  -5  500.80   19.40   1
  -3  -8   5  457.00   16.80   1
   3   8  -4   58.30    5.30   1
  -3  -8   4   57.90    6.20   1
   3   8  -3 1413.40   24.90   1
  -3  -8   3 1454.60   30.20   1
   3   8  -2  480.60   11.50   1
  -3  -8   2  488.10   16.40   1
   3   8  -1 3892.60   60.80   1
  -3  -8   1 3949.00   63.60   1
   3   8   0  748.00   16.00   1
  -3  -8   0  840.20   22.40   1
   3   8   1  481.00   12.80   1
  -3  -8  -1  486.30   13.80   1
   3   8   2  287.70   11.30   1
  -3  -8  -2  317.70   11.30   1
   3   8   3  223.50   15.80   1
  -3  -8  -3  267.80   13.40   1
   3   8   4  617.20   26.90   1
  -3  -8  -4  664.80   30.00   1
   3   8   5  169.30   23.10   1
  -3  -8  -5  157.40   18.30   1
   3   8   6  285.70   33.80   1
  -3  -8  -6  354.50   32.20   1
   3   9  -8  533.80   41.10   1
  -3  -9   8  482.80   74.30   1
   3   9  -7   81.80   20.70   1
  -3  -9   7  101.10   19.10   1
   3   9  -6  122.50   14.00   1
  -3  -9   6  116.90   13.90   1
   3   9  -5 1167.10   32.70   1
  -3  -9   5 1142.40   31.20   1
   3   9  -4   89.70    7.50   1
  -3  -9   4   85.50    8.70   1
   3   9  -3  147.90    8.40   1
  -3  -9   3  143.10   10.90   1
   3   9  -2 1361.20   28.90   1
  -3  -9   2 1437.80   37.80   1
   3   9  -1 4990.60   91.30   1
  -3  -9   1 5201.60  113.80   1
   3   9   0 1906.10   36.80   1
  -3  -9   0 1910.50   49.90   1
   3   9   1  893.30   21.90   1
  -3  -9  -1  877.50   21.60   1
   3   9   2  278.70   11.70   1
  -3  -9  -2  268.40   13.30   1
   3   9   3  136.70   12.70   1
  -3  -9  -3  165.50   17.20   1
   3   9   4  220.60   20.90   1
  -3  -9  -4  255.80   21.00   1
   3   9   5  177.20   26.80   1
  -3  -9  -5  146.70   26.70   1
   3  10  -7   58.30   23.00   1
  -3 -10   7   74.90   40.90   1
   3  10  -6  512.10   29.40   1
  -3 -10   6  456.00   28.50   1
   3  10  -5  216.40   14.90   1
  -3 -10   5  231.90   15.50   1
   3  10  -4  344.60   14.70   1
  -3 -10   4  297.00   14.60   1
   3  10  -3  541.20   19.60   1
  -3 -10   3  633.30   24.70   1
   3  10  -2   31.10    7.00   1
  -3 -10   2   19.60    8.10   1
   3  10  -1 4051.10   61.40   1
  -3 -10   1 4445.10  103.70   1
   3  10   0 1030.50   25.10   1
  -3 -10   0 1180.70   37.70   1
   3  10   1  147.00   11.80   1
  -3 -10  -1  188.40   13.90   1
   3  10   2  143.10   12.40   1
  -3 -10  -2  163.30   12.40   1
   3  10   3   50.50   11.40   1
  -3 -10  -3   32.50   14.40   1
   3  10   4 1085.60   53.50   1
  -3 -10  -4 1057.40   51.10   1
   3  10   5  833.40   51.00   1
  -3 -10  -5  787.30   54.00   1
   3  11  -6  609.20   33.60   1
  -3 -11   6  476.60   88.00   1
   3  11  -5  226.50   21.80   1
  -3 -11   5  148.40   24.70   1
   3  11  -4  379.40   17.80   1
  -3 -11   4  417.80   28.20   1
   3  11  -3   46.70    9.80   1
  -3 -11   3   74.50   15.80   1
   3  11  -2  168.10   11.30   1
  -3 -11   2  174.70   15.30   1
   3  11  -1  608.70   16.50   1
  -3 -11   1  667.60   26.70   1
   3  11   0  303.10   13.60   1
  -3 -11   0  314.20   17.20   1
   3  11   1   63.00   10.20   1
  -3 -11  -1   75.20   14.30   1
   3  11   2  616.50   33.60   1
  -3 -11  -2  558.50   24.40   1
   3  11   3  879.00   41.00   1
  -3 -11  -3  822.20   36.30   1
   3  11   4   59.90   18.70   1
  -3 -11  -4   27.20   27.40   1
   3  12  -5   43.60   18.50   1
  -3 -12   5    8.30   36.80   1
   3  12  -4   67.20   17.50   1
  -3 -12   4   -2.30   43.90   1
   3  12  -3   10.80   12.60   1
  -3 -12   3  -45.00   15.70   1
   3  12  -2  131.40   13.70   1
  -3 -12   2  136.70   15.50   1
   3  12  -1  267.50   20.60   1
  -3 -12   1  255.70   19.70   1
   3  12   0  488.80   22.90   1
  -3 -12   0  602.30   29.20   1
   3  12   1  352.50   25.70   1
  -3 -12  -1  388.60   32.70   1
   3  12   2  123.30   20.20   1
  -3 -12  -2  119.00   25.80   1
   3  13  -3  255.50   23.70   1
  -3 -13   3  273.70   65.70   1
   3  13  -2   57.30   16.40   1
  -3 -13   2   91.00   28.60   1
   3  13  -1  190.80   20.30   1
  -3 -13   1  160.20   30.70   1
   3  13   0  145.50   22.40   1
  -3 -13   0  166.40   24.80   1
   3  13   1   35.60   15.70   1
   4   0  -9    0.20   20.70   1
   4   0  -8   78.90   12.20   1
   4   0  -7   70.10    6.70   1
   4   0  -6 6457.50   97.30   1
   4   0  -5  782.90   16.70   1
   4   0  -4 4740.50   65.70   1
   4   0  -3 1272.90   25.10   1
   4   0  -2  984.30   19.30   1
   4   0  -1 1252.30   23.20   1
   4   0   0 1234.70   18.40   1
   4   0   1  579.80   13.70   1
   4   0   2  643.00   15.80   1
   4   0   3  921.60   21.00   1
   4   0   4  253.10   11.60   1
   4   0   5 2380.40   53.30   1
   4   0   6 1680.90   67.20   1
   4   1  -9  429.80   42.80   1
  -4  -1   9  365.60   26.80   1
   4   1  -8  253.80   19.00   1
  -4  -1   8  253.20   16.20   1
   4   1  -7  658.90   18.10   1
  -4  -1   7  709.70   18.70   1
   4   1  -6  583.70   16.10   1
  -4  -1   6  603.60   13.80   1
   4   1  -5 3305.00   55.00   1
  -4  -1   5 3353.00   53.60   1
   4   1  -4 2258.00   34.50   1
  -4  -1   4 2243.60   41.80   1
   4   1  -3  737.10   13.70   1
  -4  -1   3  704.10   16.10   1
   4   1  -2  253.10    8.50   1
  -4  -1   2  225.60    8.20   1
   4   1  -1 1153.30   19.40   1
  -4  -1   1 1104.40   20.70   1
   4   1   0  704.00   14.40   1
  -4  -1   0  676.30   15.20   1
   4   1   1  417.00   10.80   1
  -4  -1  -1  432.90   10.50   1
   4   1   2  154.00    7.10   1
  -4  -1  -2  177.90    8.40   1
   4   1   3  523.20   15.00   1
  -4  -1  -3  513.10   13.70   1
   4   1   4 1161.80   28.10   1
  -4  -1  -4 1178.90   28.70   1
   4   1   5  389.40   22.20   1
  -4  -1  -5  387.40   20.20   1
   4   1   6  556.00   32.70   1
  -4  -1  -6  571.30   34.80   1
   4   2  -9  504.40   37.10   1
  -4  -2   9  468.60   32.80   1
   4   2  -8  344.30   16.90   1
  -4  -2   8  354.90   19.80   1
   4   2  -7 1563.30   35.20   1
  -4  -2   7 1542.90   38.00   1
   4   2  -6 4092.00   68.40   1
  -4  -2   6 4004.20   68.90   1
   4   2  -5 1361.20   25.90   1
  -4  -2   5 1383.70   26.60   1
   4   2  -4 2294.10   34.40   1
  -4  -2   4 2333.20   38.90   1
   4   2  -3 3156.90   52.70   1
  -4  -2   3 3112.70   51.40   1
   4   2  -2 1824.10   32.10   1
  -4  -2   2 1805.10   29.70   1
   4   2  -1 2460.70   34.70   1
  -4  -2   1 2448.40   38.20   1
   4   2   0 2159.80   36.10   1
  -4  -2   0 2066.60   31.90   1
   4   2   1 1042.40   19.70   1
  -4  -2  -1 1011.00   18.60   1
   4   2   2 1489.60   28.50   1
  -4  -2  -2 1517.70   29.10   1
   4   2   3  161.50    9.70   1
  -4  -2  -3  156.70    9.20   1
   4   2   4  624.50   21.20   1
  -4  -2  -4  606.20   20.70   1
   4   2   5  811.80   24.90   1
  -4  -2  -5  760.10   35.40   1
   4   2   6  154.10   20.50   1
  -4  -2  -6  176.40   26.70   1
   4   3  -9   80.80   23.30   1
  -4  -3   9   64.40   26.10   1
   4   3  -8  610.60   30.10   1
  -4  -3   8  600.40   29.20   1
   4   3  -7   95.60    8.40   1
  -4  -3   7   82.60   10.50   1
   4   3  -6  140.30    9.10   1
  -4  -3   6  168.70   12.30   1
   4   3  -5 2680.70   49.60   1
  -4  -3   5 2688.00   52.10   1
   4   3  -4  106.10    6.40   1
  -4  -3   4  104.80    5.60   1
   4   3  -3  319.70   12.00   1
  -4  -3   3  308.50   10.50   1
   4   3  -2  107.50    6.00   1
  -4  -3   2   94.20    6.30   1
   4   3  -1  394.10   10.50   1
  -4  -3   1  400.40   10.60   1
   4   3   0 1419.30   21.40   1
  -4  -3   0 1434.10   20.20   1
   4   3   1 2724.90   45.10   1
  -4  -3  -1 2779.20   39.20   1
   4   3   2  412.20   11.40   1
  -4  -3  -2  438.70   11.50   1
   4   3   3  125.60    8.70   1
  -4  -3  -3  109.20    8.30   1
   4   3   4   38.60    5.10   1
  -4  -3  -4   60.30   12.60   1
   4   3   5  214.00   14.10   1
  -4  -3  -5  205.60   21.00   1
   4   3   6  359.70   31.10   1
  -4  -3  -6  340.30   30.20   1
   4   4  -9  212.40   30.60   1
  -4  -4   9  207.60   27.30   1
   4   4  -8  602.10   36.10   1
  -4  -4   8  545.90   30.30   1
   4   4  -7 2158.50   51.20   1
  -4  -4   7 2135.40   57.40   1
   4   4  -6 1159.90   26.40   1
  -4  -4   6 1164.40   30.00   1
   4   4  -5  243.40   11.20   1
  -4  -4   5  217.40   10.80   1
   4   4  -4  645.60   15.90   1
  -4  -4   4  645.10   14.00   1
   4   4  -3 1594.90   29.00   1
  -4  -4   3 1571.40   31.00   1
   4   4  -2 5040.50   71.50   1
  -4  -4   2 5118.50   79.10   1
   4   4  -1  473.70    9.50   1
  -4  -4   1  467.50   13.70   1
   4   4   0  210.60    5.80   1
  -4  -4   0  190.70    7.10   1
   4   4   1 2561.70   39.20   1
  -4  -4  -1 2633.60   46.10   1
   4   4   2  293.90    9.50   1
  -4  -4  -2  297.50    9.00   1
   4   4   3  136.30    8.70   1
  -4  -4  -3  163.20   12.30   1
   4   4   4  444.70   20.60   1
  -4  -4  -4  486.70   20.00   1
   4   4   5  270.20   26.40   1
  -4  -4  -5  195.50   21.50   1
   4   4   6  144.80   26.60   1
  -4  -4  -6   99.20   25.30   1
   4   5  -9  273.70   27.90   1
  -4  -5   9  282.70   34.70   1
   4   5  -8  323.50   28.00   1
  -4  -5   8  355.60   24.70   1
   4   5  -7  181.30   13.10   1
  -4  -5   7  195.30   16.40   1
   4   5  -6   48.90    9.00   1
  -4  -5   6   67.40    9.10   1
   4   5  -5  908.40   24.50   1
  -4  -5   5  931.10   22.90   1
   4   5  -4  890.50   18.80   1
  -4  -5   4  846.70   17.60   1
   4   5  -3  858.70   21.30   1
  -4  -5   3  853.30   19.60   1
   4   5  -2  258.70    7.40   1
  -4  -5   2  271.10   10.70   1
   4   5  -1  783.50   15.60   1
  -4  -5   1  789.60   19.80   1
   4   5   0  618.70   14.10   1
  -4  -5   0  659.60   14.80   1
   4   5   1  484.60   11.00   1
  -4  -5  -1  521.60   14.90   1
   4   5   2 2295.20   41.50   1
  -4  -5  -2 2174.30   45.50   1
   4   5   3  446.40   19.40   1
  -4  -5  -3  393.00   20.00   1
   4   5   4  143.90   14.20   1
  -4  -5  -4  162.00   13.00   1
   4   5   5  892.80   50.40   1
  -4  -5  -5  876.60   42.70   1
   4   5   6  184.80   28.70   1
  -4  -5  -6  117.90   32.50   1
   4   6  -8   32.70   16.50   1
  -4  -6   8    8.20   14.80   1
   4   6  -7  138.40   17.50   1
  -4  -6   7  156.40   17.60   1
   4   6  -6 1260.10   38.70   1
  -4  -6   6 1324.70   39.10   1
   4   6  -5  716.50   20.30   1
  -4  -6   5  704.60   20.70   1
   4   6  -4  593.90   14.30   1
  -4  -6   4  573.80   15.40   1
   4   6  -3 1495.80   26.50   1
  -4  -6   3 1508.60   35.70   1
   4   6  -2  865.90   17.70   1
  -4  -6   2  785.00   21.70   1
   4   6  -1  502.30   12.60   1
  -4  -6   1  462.50   16.90   1
   4   6   0   90.90    6.00   1
  -4  -6   0   86.50    7.40   1
   4   6   1  999.70   21.00   1
  -4  -6  -1  926.70   22.90   1
   4   6   2  239.90   12.50   1
  -4  -6  -2  248.40   12.00   1
   4   6   3   73.00   13.60   1
  -4  -6  -3   92.60   15.30   1
   4   6   4  413.20   28.00   1
  -4  -6  -4  415.10   23.70   1
   4   6   5  525.20   38.50   1
  -4  -6  -5  401.90   36.10   1
   4   7  -8  177.50   35.50   1
  -4  -7   8  196.70   25.10   1
   4   7  -7 1298.40   75.40   1
  -4  -7   7 1157.50   50.50   1
   4   7  -6  122.60   15.80   1
  -4  -7   6  126.70   14.90   1
   4   7  -5  491.90   17.40   1
  -4  -7   5  557.60   25.00   1
   4   7  -4  802.80   19.20   1
  -4  -7   4  801.00   28.00   1
   4   7  -3  893.30   19.70   1
  -4  -7   3  903.60   29.60   1
   4   7  -2  277.10   10.50   1
  -4  -7   2  283.30   14.60   1
   4   7  -1  597.30   15.50   1
  -4  -7   1  584.20   22.20   1
   4   7   0   65.10    6.20   1
  -4  -7   0   82.50    7.90   1
   4   7   1 1272.50   24.80   1
  -4  -7  -1 1303.00   29.10   1
   4   7   2  787.70   23.20   1
  -4  -7  -2  786.90   24.40   1
   4   7   3  175.60   17.40   1
  -4  -7  -3  204.70   19.50   1
   4   7   4   11.50   19.10   1
  -4  -7  -4    6.40   12.90   1
   4   7   5  734.20   47.60   1
  -4  -7  -5  765.80   61.90   1
   4   8  -7  393.00   48.00   1
  -4  -8   7  396.80   43.20   1
   4   8  -6  798.70   32.40   1
  -4  -8   6  850.90   43.20   1
   4   8  -5   70.80   11.30   1
  -4  -8   5   77.30   13.70   1
   4   8  -4  155.10   10.50   1
  -4  -8   4  143.80   18.00   1
   4   8  -3 1669.60   37.50   1
  -4  -8   3 1766.50   60.90   1
   4   8  -2  109.30    9.20   1
  -4  -8   2  106.80   13.40   1
   4   8  -1  214.00   11.10   1
  -4  -8   1  207.10   15.00   1
   4   8   0  368.80   13.40   1
  -4  -8   0  396.80   15.90   1
   4   8   1  192.40   11.60   1
  -4  -8  -1  170.50   10.00   1
   4   8   2 2382.80   63.50   1
  -4  -8  -2 2242.30   65.00   1
   4   8   3  101.10   19.70   1
  -4  -8  -3  119.40   15.30   1
   4   8   4  275.00   28.60   1
  -4  -8  -4  282.50   23.40   1
   4   9  -7  370.40   30.10   1
  -4  -9   7  251.20   37.90   1
   4   9  -6  124.60   19.00   1
  -4  -9   6  120.30   22.10   1
   4   9  -5   53.10   15.80   1
  -4  -9   5   22.50   13.40   1
   4   9  -4   13.80    6.70   1
  -4  -9   4   22.60   15.60   1
   4   9  -3  122.60    9.90   1
  -4  -9   3  126.30   16.30   1
   4   9  -2   97.90    8.80   1
  -4  -9   2  109.70   18.20   1
   4   9  -1 1586.40   39.20   1
  -4  -9   1 1617.60   54.40   1
   4   9   0 2008.60   45.60   1
  -4  -9   0 2048.40   58.30   1
   4   9   1 3127.00   77.10   1
  -4  -9  -1 2930.60   67.90   1
   4   9   2  322.70   18.50   1
  -4  -9  -2  332.60   24.80   1
   4   9   3   51.30   23.00   1
  -4  -9  -3   -7.90   16.80   1
   4  10  -6  519.50   36.60   1
  -4 -10   6  487.00   48.20   1
   4  10  -5   41.90   23.90   1
  -4 -10   5  -28.30   20.50   1
   4  10  -4  173.00   22.80   1
  -4 -10   4  173.80   27.80   1
   4  10  -3  738.70   31.70   1
  -4 -10   3  732.60   45.40   1
   4  10  -2 1166.30   38.40   1
  -4 -10   2 1203.30   55.30   1
   4  10  -1  236.00   16.30   1
  -4 -10   1  240.50   23.80   1
   4  10   0   12.60   11.00   1
  -4 -10   0   38.30   16.30   1
   4  10   1 1076.80   43.10   1
  -4 -10  -1 1144.00   61.20   1
   4  10   2 1295.60   68.30   1
  -4 -10  -2 1207.00   70.00   1
   4  10   3  107.70   22.40   1
  -4 -10  -3  107.90   36.50   1
   4  11  -5  250.80   29.10   1
  -4 -11   5  220.50   38.20   1
   4  11  -4  229.60   30.90   1
  -4 -11   4  222.80   34.40   1
   4  11  -3  879.30   49.80   1
  -4 -11   3  711.90   51.50   1
   4  11  -2  355.20   23.80   1
  -4 -11   2  323.90   30.60   1
   4  11  -1  278.40   21.60   1
  -4 -11   1  237.20   26.70   1
   4  11   0  235.50   20.30   1
  -4 -11   0  174.80   25.40   1
   4  11   1  329.40   26.40   1
  -4 -11  -1  324.10   37.50   1
   4  12  -2  198.60   28.60   1
  -4 -12   2  152.90   26.70   1
   4  12  -1   17.20   15.10   1
  -4 -12   1   -2.70   24.00   1
   5   0  -8  183.10   19.20   1
   5   0  -7   40.10   15.30   1
   5   0  -6  300.00   14.80   1
   5   0  -5  509.60   16.90   1
   5   0  -4 7189.40  130.70   1
   5   0  -3  761.30   20.80   1
   5   0  -2  200.80    9.30   1
   5   0  -1   17.80    7.40   1
   5   0   0  211.80   14.80   1
   5   0   1 1391.90   28.20   1
   5   0   2   40.90    8.20   1
   5   0   3   83.10   13.60   1
   5   0   4  597.10   34.60   1
   5   1  -8 1894.40   78.90   1
  -5  -1   8 1699.70   81.40   1
   5   1  -7  595.40   32.80   1
  -5  -1   7  588.20   37.10   1
   5   1  -6  126.10   11.50   1
  -5  -1   6  127.30   16.10   1
   5   1  -5   75.30    6.50   1
  -5  -1   5   62.70    6.00   1
   5   1  -4 1391.80   30.90   1
  -5  -1   4 1333.60   32.00   1
   5   1  -3 3578.90   66.90   1
  -5  -1   3 3655.40   66.00   1
   5   1  -2 2793.10   52.20   1
  -5  -1   2 2852.20   53.10   1
   5   1  -1 1314.60   32.00   1
  -5  -1   1 1321.40   34.30   1
   5   1   0 1276.90   42.30   1
  -5  -1   0 1366.80   36.30   1
   5   1   1  287.90   10.40   1
  -5  -1  -1  273.80   12.00   1
   5   1   2  232.70   11.50   1
  -5  -1  -2  236.20   12.70   1
   5   1   3  345.60   16.50   1
  -5  -1  -3  316.70   16.90   1
   5   1   4  609.10   33.30   1
  -5  -1  -4  643.00   41.20   1
   5   2  -8  157.30   22.50   1
  -5  -2   8  109.60   22.90   1
   5   2  -7  316.80   21.70   1
  -5  -2   7  295.90   26.00   1
   5   2  -6  177.30   13.50   1
  -5  -2   6  178.00   13.50   1
   5   2  -5  110.90   10.40   1
  -5  -2   5   97.20    9.30   1
   5   2  -4  329.50   12.00   1
  -5  -2   4  308.90   12.10   1
   5   2  -3   19.60    9.60   1
  -5  -2   3    4.70    6.60   1
   5   2  -2  154.20    9.00   1
  -5  -2   2  168.80    9.60   1
   5   2  -1  101.70    9.90   1
  -5  -2   1  105.00    6.10   1
   5   2   0  706.90   20.50   1
  -5  -2   0  701.30   20.10   1
   5   2   1  483.70   14.00   1
  -5  -2  -1  485.80   16.30   1
   5   2   2 1009.10   25.00   1
  -5  -2  -2 1124.50   41.00   1
   5   2   3 1097.80   36.10   1
  -5  -2  -3 1080.10   45.60   1
   5   2   4  972.90   45.20   1
  -5  -2  -4  988.70   54.30   1
   5   3  -8  203.10   36.60   1
  -5  -3   8  186.10   27.10   1
   5   3  -7 1647.10   67.70   1
  -5  -3   7 1712.00   76.30   1
   5   3  -6   65.30    8.90   1
  -5  -3   6  101.50   15.90   1
   5   3  -5  284.60   17.60   1
  -5  -3   5  247.80   17.10   1
   5   3  -4 1564.00   43.00   1
  -5  -3   4 1534.50   39.50   1
   5   3  -3  114.40    8.30   1
  -5  -3   3  109.50    8.40   1
   5   3  -2   78.40    5.00   1
  -5  -3   2   75.70    7.30   1
   5   3  -1  551.20   16.70   1
  -5  -3   1  549.80   16.80   1
   5   3   0 1258.90   36.00   1
  -5  -3   0 1234.00   42.60   1
   5   3   1  683.50   15.80   1
  -5  -3  -1  685.70   25.30   1
   5   3   2  547.90   19.50   1
  -5  -3  -2  507.90   29.20   1
   5   3   3  578.10   27.80   1
  -5  -3  -3  572.50   29.50   1
   5   3   4  264.20   20.70   1
  -5  -3  -4  267.80   26.90   1
   5   4  -8  583.70   59.00   1
  -5  -4   8  588.20   48.30   1
   5   4  -7   12.40   15.20   1
  -5  -4   7   32.60   17.50   1
   5   4  -6 1001.10   37.40   1
  -5  -4   6 1283.70   52.20   1
   5   4  -5  174.90    7.20   1
  -5  -4   5  147.60   15.50   1
   5   4  -4  241.20   15.80   1
  -5  -4   4  216.10   14.30   1
   5   4  -3  533.90   23.00   1
  -5  -4   3  568.90   19.10   1
   5   4  -2  549.50   22.40   1
  -5  -4   2  541.20   19.00   1
   5   4  -1   97.20    9.90   1
  -5  -4   1   90.00    9.20   1
   5   4   0  931.40   31.50   1
  -5  -4   0 1000.30   43.00   1
   5   4   1   65.80    6.50   1
  -5  -4  -1   68.90   10.00   1
   5   4   2 1230.10   45.50   1
  -5  -4  -2 1166.30   48.70   1
   5   4   3  766.90   36.80   1
  -5  -4  -3  647.10   31.30   1
   5   4   4  637.70   37.70   1
  -5  -4  -4  637.60   47.20   1
   5   5  -8  348.90   49.50   1
  -5  -5   8  282.50   31.10   1
   5   5  -7  711.50   45.00   1
  -5  -5   7  726.20   39.90   1
   5   5  -6  366.50   20.20   1
  -5  -5   6  367.70   24.90   1
   5   5  -5  244.00   10.80   1
  -5  -5   5  248.80   19.20   1
   5   5  -4 1510.90   54.10   1
  -5  -5   4 1678.70   54.60   1
   5   5  -3  450.00   23.00   1
  -5  -5   3  512.00   24.00   1
   5   5  -2   94.40   12.20   1
  -5  -5   2   92.30   10.20   1
   5   5  -1  356.20   20.20   1
  -5  -5   1  344.20   16.10   1
   5   5   0  336.80    9.80   1
  -5  -5   0  240.40   21.20   1
   5   5   1   59.00    9.80   1
  -5  -5  -1   40.10    8.80   1
   5   5   2  197.40   17.90   1
  -5  -5  -2  176.60   14.80   1
   5   5   3  444.00   28.50   1
  -5  -5  -3  409.70   31.80   1
   5   6  -7   42.50   26.60   1
  -5  -6   7   67.30   23.30   1
   5   6  -6  632.80   36.70   1
  -5  -6   6  582.00   38.10   1
   5   6  -5  253.20   23.00   1
  -5  -6   5  206.00   23.90   1
   5   6  -4  648.20   17.20   1
  -5  -6   4  666.80   33.60   1
   5   6  -3   41.70   19.20   1
  -5  -6   3   46.00   11.60   1
   5   6  -2  410.20   18.70   1
  -5  -6   2  431.80   22.00   1
   5   6  -1   37.90    4.90   1
  -5  -6   1   21.50    9.30   1
   5   6   0  663.90   21.90   1
  -5  -6   0  528.60   34.60   1
   5   6   1  930.30   34.30   1
  -5  -6  -1  936.40   39.00   1
   5   6   2  151.10   17.10   1
  -5  -6  -2  157.90   18.10   1
   5   6   3   25.10   15.30   1
  -5  -6  -3   33.10   18.90   1
   5   7  -6  169.10   18.70   1
  -5  -7   6  136.00   24.40   1
   5   7  -5  146.10   17.00   1
  -5  -7   5  146.10   21.80   1
   5   7  -4  643.60   32.10   1
  -5  -7   4  601.20   32.80   1
   5   7  -3  674.60   29.20   1
  -5  -7   3  524.80   30.00   1
   5   7  -2  403.50   14.80   1
  -5  -7   2  404.20   27.70   1
   5   7  -1  964.90   29.60   1
  -5  -7   1 1009.70   41.90   1
   5   7   0  869.00   31.90   1
  -5  -7   0  828.10   41.80   1
   5   7   1   80.10   14.90   1
  -5  -7  -1   69.40   15.70   1
   5   7   2  566.10   32.80   1
  -5  -7  -2  553.50   37.60   1
   5   8  -6   36.60   18.60   1
  -5  -8   6   29.30   20.50   1
   5   8  -5  176.20   19.90   1
  -5  -8   5  188.80   21.10   1
   5   8  -4  200.50   19.10   1
  -5  -8   4  186.40   19.60   1
   5   8  -3   73.00   10.70   1
  -5  -8   3   55.80   17.70   1
   5   8  -2 1053.90   33.10   1
  -5  -8   2  904.30   50.40   1
   5   8  -1  236.20   15.60   1
  -5  -8   1  219.90   26.20   1
   5   8   0   58.20   13.90   1
  -5  -8   0   47.00   17.90   1
   5   8   1  650.70   30.40   1
  -5  -8  -1  616.80   50.00   1
   5   8   2 1084.60   52.90   1
  -5  -8  -2  900.50   60.30   1
   5   9  -5  490.10   38.40   1
  -5  -9   5  371.90   36.60   1
   5   9  -4  295.10   26.10   1
  -5  -9   4  178.90   24.90   1
   5   9  -3   25.50   16.90   1
  -5  -9   3   34.30   20.50   1
   5   9  -2  186.70   15.30   1
  -5  -9   2  128.10   23.20   1
   5   9  -1  260.30   19.70   1
  -5  -9   1  260.80   33.00   1
   5   9   0  850.30   39.40   1
  -5  -9   0  838.50   46.80   1
   5   9   1  238.30   20.70   1
   6   0  -7    8.90   14.90   1
   6   0  -6  720.70   43.90   1
   6   0  -5   83.80   25.00   1
   6   0  -4  285.90   25.30   1
   6   0  -3   45.40   15.10   1
   6   0  -2    5.60   15.40   1
   6   0  -1 6435.30  222.20   1
   6   0   0  222.90   37.80   1
   6   1  -7  102.40   24.60   1
  -6  -1   7  134.70   19.50   1
   6   1  -6  220.50   29.10   1
  -6  -1   6  223.90   22.40   1
   6   1  -5  193.80   31.10   1
  -6  -1   5  235.40   20.60   1
   6   1  -4  152.50   20.80   1
  -6  -1   4  183.30   20.90   1
   6   1  -3  339.00   28.20   1
  -6  -1   3  423.90   35.90   1
   6   1  -2 2593.20   87.70   1
  -6  -1   2 2490.30   99.10   1
   6   1  -1 1120.70   64.20   1
  -6  -1   1 1047.90   57.90   1
   6   1   0   75.80   30.20   1
  -6  -1   0  120.90   43.30   1
   6   2  -6  258.10   35.10   1
  -6  -2   6  305.80   24.90   1
   6   2  -5  238.10   31.50   1
  -6  -2   5  293.80   25.30   1
   6   2  -4  163.50   20.80   1
  -6  -2   4  120.60   20.00   1
   6   2  -3  415.70   30.00   1
  -6  -2   3  450.00   37.70   1
   6   2  -2  658.70   47.30   1
  -6  -2   2  681.70   45.80   1
   6   2  -1  566.00   48.30   1
  -6  -2   1  675.00   45.00   1
   6   2   0   83.30   22.90   1
  -6  -2   0   35.40   28.70   1
   6   2   1  195.20   40.90   1
  -6  -2  -2  666.10   35.40   1
   6   3  -6  224.50   32.80   1
  -6  -3   6  220.10   21.80   1
   6   3  -5  611.20   52.90   1
  -6  -3   5  659.90   42.00   1
   6   3  -4  431.80   30.70   1
  -6  -3   4  493.90   32.70   1
   6   3  -3  126.70   18.70   1
  -6  -3   3  110.10   22.30   1
   6   3  -2  470.20   39.50   1
  -6  -3   2  354.30   29.50   1
   6   3  -1 1452.50   72.50   1
  -6  -3   1 1199.40   53.20   1
   6   3   0  204.50   51.20   1
  -6  -3   0  159.80   29.50   1
   6   3   1    4.80   27.00   1
  -6  -3  -1   26.80   34.50   1
   6   4  -6  170.60   38.50   1
  -6  -4   6  126.20   22.10   1
   6   4  -5  472.80   50.50   1
  -6  -4   5  499.00   37.40   1
   6   4  -4   40.10   24.90   1
  -6  -4   4   37.70   16.00   1
   6   4  -3  246.80   31.60   1
  -6  -4   3  234.60   21.40   1
   6   4  -2 1691.70   87.40   1
  -6  -4   2 1709.40   78.80   1
   6   4  -1   34.00   24.90   1
  -6  -4   1   -5.30   15.20   1
   6   4   0   47.30   40.00   1
  -6  -4   0   49.50   23.40   1
   6   4   1  953.50   96.30   1
  -6  -4  -1 1012.70   66.90   1
   6   5  -5    8.40   42.30   1
  -6  -5   5   55.90   23.30   1
   6   5  -4   30.80   28.00   1
  -6  -5   4   46.60   14.00   1
   6   5  -3  178.60   26.10   1
  -6  -5   3  127.00   20.50   1
   6   5  -2  126.70   26.40   1
  -6  -5   2  116.40   18.30   1
   6   5  -1  579.50   50.90   1
  -6  -5   1  525.90   48.10   1
   6   5   0  244.10   46.50   1
  -6  -5   0  251.30   30.70   1
   6   6  -4   81.40   43.60   1
  -6  -6   4  138.30   19.90   1
   6   6  -3  797.10   58.10   1
  -6  -6   3  757.20   39.20   1
   6   6  -2  149.90   30.20   1
  -6  -6   2  190.90   25.20   1
   6   6  -1  267.90   59.50   1
  -6  -6   1  378.60   38.90   1
   0   0   0    0.00    0.00
;
#END Tags that were not found in dictionaries
loop_
_symmetry_equiv_pos_as_xyz
'x, y, z'
'-x, y+1/2, -z'
loop_
_atom_site_label
_atom_site_type_symbol
_atom_site_fract_x
_atom_site_fract_y
_atom_site_fract_z
_atom_site_U_iso_or_equiv
_atom_site_adp_type
_atom_site_occupancy
_atom_site_calc_flag
C1' C 0.2514(5) 0.3738(2) 0.1457(3) 0.0177(6) Uani 1 d
H1' H 0.3435 0.4379 0.2089 0.021 Uiso 1 calc
C2 C -0.0319(5) 0.3726(2) 0.3265(3) 0.0163(6) Uani 1 d
C2' C 0.0665(6) 0.4171(3) -0.0062(3) 0.0209(6) Uani 1 d
H2A' H 0.1404 0.4821 -0.0492 0.025 Uiso 1 calc
H2B' H -0.1005 0.4388 0.0145 0.025 Uiso 1 calc
C4 C -0.1650(5) 0.2037(2) 0.4312(3) 0.0169(6) Uani 1 d
C4' C 0.3687(5) 0.2765(2) -0.0669(3) 0.0184(6) Uani 1 d
H4' H 0.4662 0.3274 -0.1221 0.022 Uiso 1 calc
C5' C 0.4460(6) 0.1577(2) -0.0875(4) 0.0215(6) Uani 1 d
H5A' H 0.6285 0.1459 -0.0299 0.026 Uiso 1 calc
H5B' H 0.3381 0.1061 -0.0428 0.026 Uiso 1 calc
C5 C -0.0122(6) 0.1410(3) 0.3491(3) 0.0177(6) Uani 1 d
H5 H -0.0036 0.0622 0.357 0.021 Uiso 1 calc
C6 C 0.1204(5) 0.1971(3) 0.2597(3) 0.0175(6) Uani 1 d
H6 H 0.2237 0.1565 0.2047 0.021 Uiso 1 calc
N1 N 0.1105(4) 0.3102(2) 0.2459(3) 0.0166(5) Uani 1 d
N3 N -0.1616(4) 0.3155(2) 0.4193(3) 0.0175(5) Uani 1 d
H3 H -0.2483 0.3543 0.4748 0.021 Uiso 1 calc
N4 N -0.3053(5) 0.1569(2) 0.5178(3) 0.0201(5) Uani 1 d
H4A H -0.396 0.1985 0.5675 0.024 Uiso 1 calc
H4B H -0.3087 0.084 0.5262 0.024 Uiso 1 calc
O1' O 0.4326(3) 0.30262(19) 0.1035(2) 0.0179(4) Uani 1 d
O2 O -0.0426(4) 0.47506(17) 0.3143(3) 0.0203(5) Uani 1 d
O5' O 0.4116(4) 0.1369(2) -0.2537(3) 0.0269(5) Uani 1 d
H5C' H 0.3002 0.087 -0.2831 0.04 Uiso 1 calc
S3' S 0.02681(13) 0.30132(7) -0.14254(8) 0.02241(19) Uani 1 d
F1 F 0.5376(4) 0.49689(15) 0.7790(2) 0.0254(4) Uani 1 d
F2 F 0.5027(3) 0.42119(16) 0.5287(2) 0.0264(4) Uani 1 d
H1 H 0.518(8) 0.458(3) 0.669(5) 0.04 Uiso 1 d
loop_
_atom_site_aniso_label
_atom_site_aniso_U_11
_atom_site_aniso_U_22
_atom_site_aniso_U_33
_atom_site_aniso_U_23
_atom_site_aniso_U_13
_atom_site_aniso_U_12
C1' 0.0190(14) 0.0165(14) 0.0195(14) -0.0004(11) 0.0081(12) -0.0002(11)
C2 0.0152(13) 0.0171(15) 0.0161(14) -0.0003(11) 0.0031(11) 0.0006(10)
C2' 0.0220(15) 0.0217(14) 0.0193(14) 0.0017(12) 0.0058(11) 0.0004(12)
C4 0.0156(13) 0.0208(15) 0.0134(13) -0.0002(11) 0.0018(10) -0.0003(11)
C4' 0.0188(13) 0.0229(17) 0.0143(13) -0.0008(10) 0.0057(10) -0.0008(10)
C5' 0.0266(16) 0.0204(16) 0.0193(14) -0.0014(12) 0.0094(12) -0.0020(11)
C5 0.0212(14) 0.0146(14) 0.0185(15) -0.0010(11) 0.0075(12) 0.0022(11)
C6 0.0175(14) 0.0185(15) 0.0162(13) -0.0008(11) 0.0040(11) 0.0013(11)
N1 0.0166(10) 0.0175(12) 0.0166(10) -0.0006(10) 0.0059(8) 0.0000(10)
N3 0.0194(11) 0.0182(13) 0.0160(10) -0.0003(10) 0.0064(9) 0.0009(10)
N4 0.0235(13) 0.0185(13) 0.0200(13) -0.0003(10) 0.0088(11) 0.0011(9)
O1' 0.0157(9) 0.0224(10) 0.0161(9) -0.0034(10) 0.0047(7) 0.0014(9)
O2 0.0220(11) 0.0157(11) 0.0236(10) -0.0010(9) 0.0066(9) 0.0025(8)
O5' 0.0336(13) 0.0293(13) 0.0226(12) -0.0099(9) 0.0162(10) -0.0121(10)
S3' 0.0194(3) 0.0292(4) 0.0178(3) -0.0036(3) 0.0030(2) -0.0004(3)
F1 0.0328(10) 0.0225(9) 0.0215(9) 0.0006(7) 0.0077(8) -0.0022(7)
F2 0.0238(9) 0.0307(10) 0.0251(9) -0.0052(8) 0.0068(7) 0.0058(8)
loop_
_atom_type_symbol
_atom_type_description
_atom_type_scat_dispersion_real
_atom_type_scat_dispersion_imag
_atom_type_scat_source
C C 0.0033 0.0016 'International Tables Vol C Tables 4.2.6.8 and 6.1.1.4'
H H 0 0 'International Tables Vol C Tables 4.2.6.8 and 6.1.1.4'
N N 0.0061 0.0033 'International Tables Vol C Tables 4.2.6.8 and 6.1.1.4'
O O 0.0106 0.006 'International Tables Vol C Tables 4.2.6.8 and 6.1.1.4'
F F 0.0171 0.0103 'International Tables Vol C Tables 4.2.6.8 and 6.1.1.4'
S S 0.1246 0.1234 'International Tables Vol C Tables 4.2.6.8 and 6.1.1.4'
loop_
_exptl_crystal_face_index_h
_exptl_crystal_face_index_k
_exptl_crystal_face_index_l
_exptl_crystal_face_perp_dist
0 -1 0 0.047
0 1 0 0.069
-1 0 0 0.044
1 0 0 0.058
0 0 -1 0.074
0 0 1 0.072
-1 0 3 0.063
13 -1 -12 0.061
1 0 6 0.07
-1 4 0 0.064
1 2 0 0.076
1 -5 0 0.052
loop_
_geom_angle_atom_site_label_1
_geom_angle_atom_site_label_2
_geom_angle_atom_site_label_3
_geom_angle
O1' C1' N1 108.7(2)
O1' C1' C2' 109.1(2)
N1 C1' C2' 111.0(2)
O2 C2 N3 122.0(3)
O2 C2 N1 121.3(3)
N3 C2 N1 116.7(2)
C1' C2' S3' 104.1(2)
N4 C4 N3 119.4(3)
N4 C4 C5 122.7(3)
N3 C4 C5 117.9(2)
O1' C4' C5' 108.7(2)
O1' C4' S3' 106.79(18)
C5' C4' S3' 113.4(2)
O5' C5' C4' 108.4(2)
C6 C5 C4 118.0(3)
C5 C6 N1 122.1(3)
C6 N1 C2 120.8(2)
C6 N1 C1' 123.1(2)
C2 N1 C1' 116.1(2)
C4 N3 C2 124.2(2)
C1' O1' C4' 112.9(2)
C2' S3' C4' 87.08(13)
loop_
_geom_bond_atom_site_label_1
_geom_bond_atom_site_label_2
_geom_bond_distance
C1' O1' 1.409(3)
C1' N1 1.493(3)
C1' C2' 1.523(4)
C2 O2 1.236(3)
C2 N3 1.369(3)
C2 N1 1.377(4)
C2' S3' 1.800(3)
C4 N4 1.313(4)
C4 N3 1.349(4)
C4 C5 1.425(4)
C4' O1' 1.457(3)
C4' C5' 1.510(4)
C4' S3' 1.809(3)
C5' O5' 1.421(4)
C5 C6 1.353(4)
C6 N1 1.364(4)
