#------------------------------------------------------------------------------
#$Date: 2016-03-26 23:02:33 +0200 (Sat, 26 Mar 2016) $
#$Revision: 180527 $
#$URL: svn://www.crystallography.net/cod/cif/7/21/96/7219646.cif $
#------------------------------------------------------------------------------
#
# This file is available in the Crystallography Open Database (COD),
# http://www.crystallography.net/
#
# All data on this site have been placed in the public domain by the
# contributors.
#
data_7219646
loop_
_publ_author_name
'Lemmerer, Andreas'
'Govindraju, Stefan'
'Johnston, Marcelle'
'Motloung, Xolani'
'Savig, Kelsey L.'
_publ_section_title
;
 Co-crystals and molecular salts of carboxylic acid/pyridine complexes:
 can calculated pKa's predict proton transfer? A case study of nine
 complexes
;
_journal_issue                   19
_journal_name_full               CrystEngComm
_journal_page_first              3591
_journal_paper_doi               10.1039/C5CE00102A
_journal_volume                  17
_journal_year                    2015
_chemical_formula_moiety         'C7 H4 Cl N O4, C5 H4 Cl N O'
_chemical_formula_sum            'C12 H8 Cl2 N2 O5'
_chemical_formula_weight         331.1
_chemical_name_systematic
;
 (2-chloro-4-nitrobenzoic acid)(2-chloro-3-hydroxypyridine) 
;
_space_group_IT_number           2
_symmetry_cell_setting           triclinic
_symmetry_space_group_name_Hall  '-P 1'
_symmetry_space_group_name_H-M   'P -1'
_atom_sites_solution_hydrogens   geom
_atom_sites_solution_primary     direct
_atom_sites_solution_secondary   difmap
_audit_conform_dict_location     ftp://ftp.iucr.org/pub/cif_core.dic
_audit_conform_dict_name         cif_core.dic
_audit_conform_dict_version      2.3
_audit_creation_date             2012-11-02T13:30:20-00:00
_audit_creation_method           'WinGX routine CIF_UPDATE'
_audit_update_record
;
2014-11-18 deposited with the CCDC.
2015-02-24 downloaded from the CCDC.
;
_cell_angle_alpha                83.332(2)
_cell_angle_beta                 76.2620(10)
_cell_angle_gamma                77.0530(10)
_cell_formula_units_Z            2
_cell_length_a                   6.1583(2)
_cell_length_b                   9.9176(2)
_cell_length_c                   11.1477(3)
_cell_measurement_reflns_used    4342
_cell_measurement_temperature    173(2)
_cell_measurement_theta_max      28.23
_cell_measurement_theta_min      2.74
_cell_volume                     643.14(3)
_computing_cell_refinement       'SAINT-Plus (Bruker, 2007)'
_computing_data_collection       'APEX3 (Bruker, 2007)'
_computing_data_reduction        'SAINT-Plus (Bruker 2007)'
_computing_molecular_graphics
;
Ortep-3 for Windows (Farrugia, 1997) and DIAMOND (Brandenburg, 1999)
;
_computing_publication_material
;
WinGX publication routines (Farrugia, 1999) and PLATON (Spek, 2009)
;
_computing_structure_refinement  'SHELXL-97 (Sheldrick, 2008)'
_computing_structure_solution    'SHELXS-97 (Sheldrick, 2008)'
_diffrn_ambient_temperature      173(2)
_diffrn_measured_fraction_theta_full 0.998
_diffrn_measured_fraction_theta_max 0.998
_diffrn_measurement_device_type  'Bruker D8 Venture Photon CMOS'
_diffrn_measurement_method       '\w scans'
_diffrn_radiation_monochromator  graphite
_diffrn_radiation_type           MoK\a
_diffrn_radiation_wavelength     0.71073
_diffrn_reflns_av_R_equivalents  0.0358
_diffrn_reflns_av_unetI/netI     0.0302
_diffrn_reflns_limit_h_max       8
_diffrn_reflns_limit_h_min       -7
_diffrn_reflns_limit_k_max       13
_diffrn_reflns_limit_k_min       -13
_diffrn_reflns_limit_l_max       14
_diffrn_reflns_limit_l_min       -14
_diffrn_reflns_number            8899
_diffrn_reflns_theta_full        28
_diffrn_reflns_theta_max         28
_diffrn_reflns_theta_min         1.88
_diffrn_standards_number         0
_exptl_absorpt_coefficient_mu    0.529
_exptl_absorpt_correction_T_max  0.9399
_exptl_absorpt_correction_T_min  0.8896
_exptl_absorpt_correction_type   integration
_exptl_absorpt_process_details   'Bruker XPREP (Bruker, 2004)'
_exptl_crystal_colour            yellow
_exptl_crystal_density_diffrn    1.71
_exptl_crystal_density_method    'not measured'
_exptl_crystal_description       block
_exptl_crystal_F_000             336
_exptl_crystal_size_max          0.35
_exptl_crystal_size_mid          0.211
_exptl_crystal_size_min          0.197
_refine_diff_density_max         0.346
_refine_diff_density_min         -0.194
_refine_diff_density_rms         0.049
_refine_ls_extinction_method     none
_refine_ls_goodness_of_fit_ref   1.014
_refine_ls_hydrogen_treatment    mixed
_refine_ls_matrix_type           full
_refine_ls_number_parameters     198
_refine_ls_number_reflns         3089
_refine_ls_number_restraints     0
_refine_ls_restrained_S_all      1.014
_refine_ls_R_factor_all          0.0389
_refine_ls_R_factor_gt           0.0281
_refine_ls_shift/su_max          0.001
_refine_ls_shift/su_mean         0
_refine_ls_structure_factor_coef Fsqd
_refine_ls_weighting_details
'calc w=1/[\s^2^(Fo^2^)+(0.0432P)^2^+0.0434P] where P=(Fo^2^+2Fc^2^)/3'
_refine_ls_weighting_scheme      calc
_refine_ls_wR_factor_gt          0.0723
_refine_ls_wR_factor_ref         0.0783
_reflns_number_gt                2461
_reflns_number_total             3089
_reflns_threshold_expression     >2sigma(I)
_cod_data_source_file            c5ce00102a4.cif
_cod_data_source_block           6
_cod_depositor_comments
;
The following automatic conversions were performed:

'_symmetry_cell_setting' value 'Triclinic' changed to 'triclinic'
according to
/usr/data/users/saulius/crontab/automatic-downloads/rss-feeds/RSC/lib/dictionaries/cif_core.dic
dictionary named 'cif_core.dic' version 2.4.2 from 2011-04-26.

Automatic conversion script
Id: cif_fix_values 3008 2015-01-20 13:52:24Z robertas 

 Adding full bibliography for 7219641--7219649.cif.
;
_cod_original_sg_symbol_H-M      P-1
_cod_database_code               7219646
loop_
_symmetry_equiv_pos_as_xyz
'x, y, z'
'-x, -y, -z'
loop_
_atom_site_label
_atom_site_type_symbol
_atom_site_fract_x
_atom_site_fract_y
_atom_site_fract_z
_atom_site_U_iso_or_equiv
_atom_site_adp_type
_atom_site_occupancy
_atom_site_symmetry_multiplicity
_atom_site_calc_flag
_atom_site_refinement_flags
C1 C 0.5217(2) 0.49556(13) 0.78574(12) 0.0207(3) Uani 1 1 d .
C2 C 0.7013(2) 0.49662(13) 0.84156(12) 0.0214(3) Uani 1 1 d .
C3 C 0.7776(2) 0.38515(13) 0.91896(12) 0.0235(3) Uani 1 1 d .
H3 H 0.9019 0.3848 0.9558 0.028 Uiso 1 1 calc R
C4 C 0.6681(2) 0.27493(13) 0.94084(12) 0.0235(3) Uani 1 1 d .
C5 C 0.4892(2) 0.26935(13) 0.88852(12) 0.0250(3) Uani 1 1 d .
H5A H 0.4155 0.1925 0.9067 0.03 Uiso 1 1 calc R
C6 C 0.4204(2) 0.37982(13) 0.80836(12) 0.0240(3) Uani 1 1 d .
H6 H 0.3021 0.3767 0.7681 0.029 Uiso 1 1 calc R
C7 C 0.4279(2) 0.61627(13) 0.70430(12) 0.0219(3) Uani 1 1 d .
O1 O 0.37258(17) 0.57454(10) 0.61069(9) 0.0285(2) Uani 1 1 d .
O2 O 0.40321(18) 0.73544(10) 0.72711(10) 0.0339(3) Uani 1 1 d .
O3 O 0.6273(2) 0.07517(10) 1.06597(10) 0.0405(3) Uani 1 1 d .
O4 O 0.93890(19) 0.14901(11) 1.04553(10) 0.0405(3) Uani 1 1 d .
N1 N 0.7499(2) 0.15794(11) 1.02362(11) 0.0300(3) Uani 1 1 d .
Cl1 Cl -0.08522(6) 0.65678(4) 0.42878(3) 0.03338(11) Uani 1 1 d .
C8 C 0.0596(2) 0.79162(13) 0.39733(12) 0.0228(3) Uani 1 1 d .
C9 C 0.0009(2) 0.89931(14) 0.31134(13) 0.0252(3) Uani 1 1 d .
C10 C 0.1162(2) 1.00714(14) 0.29199(13) 0.0296(3) Uani 1 1 d .
H10 H 0.0798 1.0836 0.2354 0.036 Uiso 1 1 calc R
C11 C 0.2851(3) 1.00278(15) 0.35571(14) 0.0321(3) Uani 1 1 d .
H11 H 0.367 1.0756 0.3433 0.039 Uiso 1 1 calc R
C12 C 0.3325(3) 0.89051(14) 0.43764(14) 0.0314(3) Uani 1 1 d .
H12 H 0.4493 0.8872 0.4809 0.038 Uiso 1 1 calc R
N2 N 0.22045(19) 0.78619(11) 0.45856(11) 0.0254(2) Uani 1 1 d .
O5 O -0.16349(19) 0.89057(12) 0.25222(11) 0.0384(3) Uani 1 1 d .
Cl2 Cl 0.84494(6) 0.63208(3) 0.81417(3) 0.03149(11) Uani 1 1 d .
H5 H -0.185(3) 0.958(2) 0.211(2) 0.061(7) Uiso 1 1 d .
H1 H 0.323(3) 0.642(2) 0.568(2) 0.061(6) Uiso 1 1 d .
loop_
_atom_site_aniso_label
_atom_site_aniso_U_11
_atom_site_aniso_U_22
_atom_site_aniso_U_33
_atom_site_aniso_U_23
_atom_site_aniso_U_13
_atom_site_aniso_U_12
C1 0.0218(6) 0.0225(6) 0.0174(6) -0.0009(5) -0.0052(5) -0.0029(5)
C2 0.0220(6) 0.0215(6) 0.0213(7) -0.0003(5) -0.0047(5) -0.0059(5)
C3 0.0234(7) 0.0259(6) 0.0225(7) -0.0009(5) -0.0100(5) -0.0028(5)
C4 0.0306(7) 0.0203(6) 0.0189(7) 0.0007(5) -0.0086(5) -0.0011(5)
C5 0.0316(7) 0.0221(6) 0.0236(7) 0.0020(5) -0.0080(6) -0.0097(5)
C6 0.0252(7) 0.0262(6) 0.0234(7) -0.0004(5) -0.0104(5) -0.0065(5)
C7 0.0204(6) 0.0246(6) 0.0208(7) 0.0026(5) -0.0064(5) -0.0050(5)
O1 0.0406(6) 0.0255(5) 0.0229(5) 0.0039(4) -0.0173(4) -0.0056(4)
O2 0.0467(6) 0.0224(5) 0.0367(6) 0.0001(4) -0.0216(5) -0.0034(4)
O3 0.0645(8) 0.0248(5) 0.0353(6) 0.0089(4) -0.0188(5) -0.0129(5)
O4 0.0468(7) 0.0381(6) 0.0384(7) 0.0034(5) -0.0266(5) 0.0026(5)
N1 0.0466(8) 0.0221(6) 0.0218(6) 0.0006(5) -0.0145(5) -0.0017(5)
Cl1 0.0420(2) 0.02910(18) 0.0349(2) 0.01097(14) -0.01829(16) -0.01560(15)
C8 0.0260(7) 0.0219(6) 0.0206(7) 0.0017(5) -0.0069(5) -0.0045(5)
C9 0.0258(7) 0.0269(7) 0.0226(7) 0.0025(5) -0.0092(5) -0.0031(5)
C10 0.0377(8) 0.0233(6) 0.0275(8) 0.0061(5) -0.0113(6) -0.0050(6)
C11 0.0400(8) 0.0280(7) 0.0327(8) 0.0028(6) -0.0129(7) -0.0130(6)
C12 0.0359(8) 0.0310(7) 0.0319(8) 0.0011(6) -0.0166(7) -0.0084(6)
N2 0.0296(6) 0.0249(5) 0.0231(6) 0.0024(4) -0.0116(5) -0.0039(5)
O5 0.0429(6) 0.0385(6) 0.0419(7) 0.0183(5) -0.0288(5) -0.0147(5)
Cl2 0.0298(2) 0.02793(18) 0.0416(2) 0.00515(14) -0.01320(15) -0.01378(14)
loop_
_atom_type_symbol
_atom_type_description
_atom_type_scat_dispersion_real
_atom_type_scat_dispersion_imag
_atom_type_scat_source
C C 0.0033 0.0016 'International Tables Vol C Tables 4.2.6.8 and 6.1.1.4'
H H 0 0 'International Tables Vol C Tables 4.2.6.8 and 6.1.1.4'
N N 0.0061 0.0033 'International Tables Vol C Tables 4.2.6.8 and 6.1.1.4'
O O 0.0106 0.006 'International Tables Vol C Tables 4.2.6.8 and 6.1.1.4'
Cl Cl 0.1484 0.1585 'International Tables Vol C Tables 4.2.6.8 and 6.1.1.4'
loop_
_exptl_crystal_face_index_h
_exptl_crystal_face_index_k
_exptl_crystal_face_index_l
_exptl_crystal_face_perp_dist
0 0 -1 0.055
0 0 1 0.094
0 1 -2 0.071
0 -1 2 0.122
2 1 0 0.091
0 -1 -2 0.087
-1 2 0 0.137
1 -2 0 0.16
-1 -1 0 0.08
0 1 1 0.088
loop_
_geom_angle_atom_site_label_1
_geom_angle_atom_site_label_2
_geom_angle_atom_site_label_3
_geom_angle
C2 C1 C6 118.86(11)
C2 C1 C7 122.62(11)
C6 C1 C7 118.50(11)
C3 C2 C1 120.75(12)
C3 C2 Cl2 117.02(10)
C1 C2 Cl2 122.19(10)
C4 C3 C2 118.13(12)
C4 C3 H3 120.9
C2 C3 H3 120.9
C5 C4 C3 123.29(12)
C5 C4 N1 119.19(12)
C3 C4 N1 117.53(12)
C4 C5 C6 117.64(12)
C4 C5 H5A 121.2
C6 C5 H5A 121.2
C5 C6 C1 121.26(12)
C5 C6 H6 119.4
C1 C6 H6 119.4
O2 C7 O1 125.56(12)
O2 C7 C1 122.82(12)
O1 C7 C1 111.59(11)
C7 O1 H1 109.5(15)
O3 N1 O4 123.76(12)
O3 N1 C4 118.36(12)
O4 N1 C4 117.88(12)
N2 C8 C9 123.77(12)
N2 C8 Cl1 116.84(10)
C9 C8 Cl1 119.39(10)
O5 C9 C10 124.67(12)
O5 C9 C8 117.93(12)
C10 C9 C8 117.40(12)
C9 C10 C11 119.39(13)
C9 C10 H10 120.3
C11 C10 H10 120.3
C12 C11 C10 118.69(13)
C12 C11 H11 120.7
C10 C11 H11 120.7
N2 C12 C11 122.64(13)
N2 C12 H12 118.7
C11 C12 H12 118.7
C8 N2 C12 118.09(11)
C9 O5 H5 107.3(16)
loop_
_geom_bond_atom_site_label_1
_geom_bond_atom_site_label_2
_geom_bond_distance
C1 C2 1.3943(18)
C1 C6 1.3962(18)
C1 C7 1.5093(17)
C2 C3 1.3877(18)
C2 Cl2 1.7289(13)
C3 C4 1.3784(18)
C3 H3 0.95
C4 C5 1.3771(19)
C4 N1 1.4704(16)
C5 C6 1.3866(18)
C5 H5A 0.95
C6 H6 0.95
C7 O2 1.2064(16)
C7 O1 1.3072(16)
O1 H1 0.82(2)
O3 N1 1.2183(16)
O4 N1 1.2274(16)
Cl1 C8 1.7272(13)
C8 N2 1.3188(17)
C8 C9 1.3943(18)
C9 O5 1.3548(17)
C9 C10 1.3815(19)
C10 C11 1.383(2)
C10 H10 0.95
C11 C12 1.380(2)
C11 H11 0.95
C12 N2 1.3371(18)
C12 H12 0.95
O5 H5 0.77(2)
loop_
_geom_hbond_atom_site_label_D
_geom_hbond_atom_site_label_H
_geom_hbond_atom_site_label_A
_geom_hbond_distance_DH
_geom_hbond_distance_HA
_geom_hbond_distance_DA
_geom_hbond_angle_DHA
_geom_hbond_site_symmetry_A
O5 H5 O3 0.77(2) 2.27(2) 2.9415(15) 146(2) 1_464
O5 H5 O4 0.77(2) 2.59(2) 3.3074(16) 154(2) 1_464
O1 H1 N2 0.82(2) 1.86(2) 2.6846(14) 175(2) .
loop_
_geom_torsion_atom_site_label_1
_geom_torsion_atom_site_label_2
_geom_torsion_atom_site_label_3
_geom_torsion_atom_site_label_4
_geom_torsion
C6 C1 C2 C3 -0.4(2)
C7 C1 C2 C3 177.94(12)
C6 C1 C2 Cl2 177.32(10)
C7 C1 C2 Cl2 -4.34(18)
C1 C2 C3 C4 -1.2(2)
Cl2 C2 C3 C4 -179.08(10)
C2 C3 C4 C5 0.9(2)
C2 C3 C4 N1 -179.64(12)
C3 C4 C5 C6 1.2(2)
N1 C4 C5 C6 -178.33(12)
C4 C5 C6 C1 -2.9(2)
C2 C1 C6 C5 2.5(2)
C7 C1 C6 C5 -175.89(12)
C2 C1 C7 O2 -39.7(2)
C6 C1 C7 O2 138.66(14)
C2 C1 C7 O1 142.22(13)
C6 C1 C7 O1 -39.44(16)
C5 C4 N1 O3 -16.58(19)
C3 C4 N1 O3 163.91(12)
C5 C4 N1 O4 163.04(13)
C3 C4 N1 O4 -16.47(18)
N2 C8 C9 O5 178.23(13)
Cl1 C8 C9 O5 -2.43(19)
N2 C8 C9 C10 -1.3(2)
Cl1 C8 C9 C10 177.99(10)
O5 C9 C10 C11 -178.33(14)
C8 C9 C10 C11 1.2(2)
C9 C10 C11 C12 -0.4(2)
C10 C11 C12 N2 -0.5(2)
C9 C8 N2 C12 0.5(2)
Cl1 C8 N2 C12 -178.82(10)
C11 C12 N2 C8 0.4(2)
