#------------------------------------------------------------------------------
#$Date: 2016-03-26 22:53:30 +0200 (Sat, 26 Mar 2016) $
#$Revision: 180522 $
#$URL: svn://www.crystallography.net/cod/cif/7/21/91/7219133.cif $
#------------------------------------------------------------------------------
#
# This file is available in the Crystallography Open Database (COD),
# http://www.crystallography.net/
#
# All data on this site have been placed in the public domain by the
# contributors.
#
data_7219133
loop_
_publ_author_name
'Tenorio Clavijo, Juan Carlos'
'Guimar\~aes, Freddy Fernandes'
'Ellena, Javier'
'Martins, Felipe Terra'
_publ_section_title
;
 Isostructurality and the conformational role of the
 2&#x2032;,3&#x2032;-moieties in the diversity of lamivudine crystal forms
 probed in halide salts
;
_journal_issue                   28
_journal_name_full               CrystEngComm
_journal_page_first              5187
_journal_paper_doi               10.1039/C4CE02373K
_journal_volume                  17
_journal_year                    2015
_chemical_absolute_configuration rm
_chemical_formula_moiety         'C8 H12 N3 O3 S, Br'
_chemical_formula_sum            'C8 H12 Br N3 O3 S'
_chemical_formula_weight         310.18
_chemical_name_common            Lamivudine_Hydrobromide
_space_group_IT_number           4
_symmetry_cell_setting           monoclinic
_symmetry_Int_Tables_number      4
_symmetry_space_group_name_Hall  'P 2yb'
_symmetry_space_group_name_H-M   'P 1 21 1'
_atom_sites_solution_hydrogens   geom
_audit_conform_dict_location     ftp://ftp.iucr.org/pub/cif_core.dic
_audit_conform_dict_name         cif_core.dic
_audit_conform_dict_version      2.4.3
_audit_creation_date             2014-10-28T17:58:29-00:00
_audit_creation_method           'WinGX routine CIF_UPDATE'
_audit_update_record
;
2014-10-29 deposited with the CCDC.
2014-12-18 downloaded from the CCDC.
;
_cell_angle_alpha                90
_cell_angle_beta                 104.3040(12)
_cell_angle_gamma                90
_cell_formula_units_Z            2
_cell_length_a                   5.61900(10)
_cell_length_b                   12.2320(4)
_cell_length_c                   8.3840(3)
_cell_measurement_reflns_used    129
_cell_measurement_temperature    100(2)
_cell_measurement_theta_max      26.37
_cell_measurement_theta_min      2.91
_cell_measurement_wavelength     0.71073
_cell_volume                     558.38(3)
_computing_cell_refinement       'HKL Scalepack (Otwinowski & Minor 1997)'
_computing_data_collection       'Collect (Bruker AXS BV, 1997-2004)'
_computing_data_reduction
'HKL Denzo and Scalepack (Otwinowski & Minor 1997)'
_computing_molecular_graphics    'ORTEP-3 for Windows (Farrugia, 2012)'
_computing_publication_material  'WinGX publication routines (Farrugia, 2012)'
_computing_structure_refinement  'SHELXL-2012 (Sheldrick, 2012)'
_computing_structure_solution    'SIR-92 (Altomare et al., 1994)'
_diffrn_ambient_temperature      100(2)
_diffrn_detector                 'CCD plate'
_diffrn_detector_area_resol_mean 9
_diffrn_measured_fraction_theta_full 0.992
_diffrn_measured_fraction_theta_max 0.994
_diffrn_measurement_device       '95mm CCD camera on \k-goniostat'
_diffrn_measurement_device_type  KappaCCD
_diffrn_measurement_method       'CCD rotation images, thick slices'
_diffrn_orient_matrix_UB_11      -0.164367
_diffrn_orient_matrix_UB_12      -0.021817
_diffrn_orient_matrix_UB_13      0.015428
_diffrn_orient_matrix_UB_21      -0.068133
_diffrn_orient_matrix_UB_22      0
_diffrn_orient_matrix_UB_23      -0.122048
_diffrn_orient_matrix_UB_31      0.045515
_diffrn_orient_matrix_UB_32      -0.078788
_diffrn_orient_matrix_UB_33      -0.004272
_diffrn_radiation_monochromator  'horizonally mounted graphite crystal'
_diffrn_radiation_probe          x-ray
_diffrn_radiation_type           MoK\a
_diffrn_radiation_wavelength     0.71073
_diffrn_reflns_av_R_equivalents  0.077
_diffrn_reflns_Laue_measured_fraction_full 0.992
_diffrn_reflns_Laue_measured_fraction_max 0.994
_diffrn_reflns_limit_h_max       6
_diffrn_reflns_limit_h_min       -6
_diffrn_reflns_limit_k_max       14
_diffrn_reflns_limit_k_min       -14
_diffrn_reflns_limit_l_max       10
_diffrn_reflns_limit_l_min       -10
_diffrn_reflns_number            5387
_diffrn_reflns_point_group_measured_fraction_full 0.522
_diffrn_reflns_point_group_measured_fraction_max 0.521
_diffrn_reflns_reduction_process
;
        Scaled and merged with Sortav
        R.H. Blessing, (1987) Cryst. Rev. 1, 3-58
        R.H. Blessing, (1989) J. Appl. Cryst. 22, 396-397
;
_diffrn_reflns_theta_full        25.242
_diffrn_reflns_theta_max         25.678
_diffrn_reflns_theta_min         3.01
_diffrn_source                   'Enraf Nonius FR590'
_exptl_absorpt_coefficient_mu    3.864
_exptl_absorpt_correction_T_max  0.683
_exptl_absorpt_correction_T_min  0.318
_exptl_absorpt_correction_type   gaussian
_exptl_absorpt_process_details
;
        P. Coppens, L. Leiserowitz, D Rabinovich, Acta Cryst.
        (1965), 18, 1035-1038
;
_exptl_crystal_colour            colourless
_exptl_crystal_density_diffrn    1.845
_exptl_crystal_density_method    'not measured'
_exptl_crystal_description       prism
_exptl_crystal_F_000             312
_exptl_crystal_size_max          0.384
_exptl_crystal_size_mid          0.3
_exptl_crystal_size_min          0.107
_refine_diff_density_max         0.467
_refine_diff_density_min         -0.57
_refine_diff_density_rms         0.109
_refine_ls_abs_structure_details
;
No quotients, so Flack parameter determined by classical intensity fit
;
_refine_ls_abs_structure_Flack   0.037(12)
_refine_ls_extinction_method     none
_refine_ls_goodness_of_fit_ref   1.079
_refine_ls_hydrogen_treatment    constr
_refine_ls_matrix_type           full
_refine_ls_number_constraints    0
_refine_ls_number_parameters     146
_refine_ls_number_reflns         1107
_refine_ls_number_restraints     1
_refine_ls_restrained_S_all      1.078
_refine_ls_R_factor_all          0.0245
_refine_ls_R_factor_gt           0.0239
_refine_ls_shift/su_max          0.001
_refine_ls_shift/su_mean         0
_refine_ls_structure_factor_coef Fsqd
_refine_ls_weighting_details
;
 w=1/[\s^2^(Fo^2^)+(0.0038P)^2^]
 where P=(Fo^2^+2Fc^2^)/3
;
_refine_ls_weighting_scheme      calc
_refine_ls_wR_factor_gt          0.0567
_refine_ls_wR_factor_ref         0.057
_reflns_number_gt                1075
_reflns_number_total             1107
_reflns_threshold_expression     'I > 2\s(I)'
_iucr_refine_instructions_details
;
TITL shelx in P 21
CELL  0.71073   5.6190  12.2320   8.3840   90.000  104.304   90.000
ZERR     2.00   0.0001   0.00040   0.0003    0.000    0.0012    0.000
LATT  -1
SYMM  - X, 1/2 + Y, - Z
SFAC  C    H    N    O    S    BR
UNIT  16   24   6    6    2    2
MERG   2
FMAP   2
PLAN   25
SIZE     0.107   0.300   0.384
ACTA
BOND   $H
CONF
L.S.  20
TEMP    20.00
WGHT    0.003800
FVAR       2.37360
BR1   6    0.982950    0.487196    0.855843    11.00000    0.01690    0.01401 =
         0.01622    0.00138    0.00630    0.00265
S3'   5    0.561815    0.163749    0.370276    11.00000    0.01498    0.02177 =
         0.01429    0.00206    0.00092   -0.00019
O2    4    0.487604   -0.048633    0.809660    11.00000    0.01943    0.01220 =
         0.01597   -0.00298    0.00329   -0.00106
O1'   4    0.942195    0.143101    0.623645    11.00000    0.01411    0.01488 =
         0.01099    0.00306    0.00159   -0.00157
O5'   4    0.944870    0.330875    0.282755    11.00000    0.01897    0.02321 =
         0.01368    0.00509    0.00674    0.00363
AFIX 147
H5'   2    0.808873    0.358501    0.248366    11.00000   -1.50000
AFIX   0
N1    3    0.624540    0.120393    0.759074    11.00000    0.01749    0.01070 =
         0.01144   -0.00049    0.00354    0.00098
N3    3    0.356541    0.099515    0.928856    11.00000    0.01292    0.01425 =
         0.01386    0.00197    0.00383   -0.00056
AFIX  43
H3    2    0.283606    0.057685    0.984262    11.00000   -1.20000
AFIX   0
C5    1    0.474705    0.278725    0.868674    11.00000    0.02042    0.01432 =
         0.01255    0.00014    0.00135    0.00039
AFIX  43
H5    2    0.470032    0.354308    0.879526    11.00000   -1.20000
AFIX   0
C6    1    0.617656    0.231609    0.780585    11.00000    0.01381    0.01541 =
         0.00924    0.00268    0.00068   -0.00168
AFIX  43
H6    2    0.715154    0.275958    0.732629    11.00000   -1.20000
AFIX   0
C4    1    0.331380    0.209764    0.944481    11.00000    0.01472    0.01372 =
         0.00992    0.00035   -0.00207    0.00184
C2    1    0.490138    0.049954    0.830901    11.00000    0.00963    0.01583 =
         0.01312    0.00140    0.00123    0.00148
N4    3    0.181591    0.245625    1.029771    11.00000    0.01855    0.01461 =
         0.01879    0.00158    0.00925    0.00342
AFIX  93
H4A   2    0.101327    0.200061    1.074666    11.00000   -1.20000
H4B   2    0.163331    0.314777    1.040974    11.00000   -1.20000
AFIX   0
C5'   1    0.973749    0.297624    0.448895    11.00000    0.02479    0.01651 =
         0.01574    0.00027    0.00489    0.00046
AFIX  23
H5'1  2    0.878483    0.345035    0.502209    11.00000   -1.20000
H5'2  2    1.145043    0.303335    0.507936    11.00000   -1.20000
AFIX   0
C4'   1    0.888206    0.181251    0.453274    11.00000    0.01430    0.01356 =
         0.01378    0.00052    0.00477   -0.00116
AFIX  13
H4'   2    0.976245    0.135153    0.391230    11.00000   -1.20000
AFIX   0
C1'   1    0.765076    0.068668    0.650103    11.00000    0.01785    0.01330 =
         0.01679    0.00133    0.00804    0.00079
AFIX  13
H1'   2    0.847027    0.002644    0.703065    11.00000   -1.20000
AFIX   0
C2'   1    0.593353    0.038527    0.484886    11.00000    0.02100    0.01511 =
         0.01370    0.00183    0.00529   -0.00105
AFIX  23
H2'1  2    0.435691    0.013738    0.498705    11.00000   -1.20000
H2'2  2    0.664371   -0.018363    0.430544    11.00000   -1.20000
AFIX   0
HKLF    4
REM  shelx in P 21
REM R1 =  0.0239 for    1075 Fo > 4sig(Fo)  and  0.0245 for all    1107 data
REM    146 parameters refined using      1 restraints
END
;
_cod_data_source_file            c4ce02373k1.cif
_cod_data_source_block           shelx
_cod_depositor_comments
'Adding full bibliography for 7219133--7219137.cif.'
_cod_original_sg_symbol_H-M      'P 21'
_cod_database_code               7219133
#BEGIN Tags that were not found in dictionaries:
_iucr_refine_reflections_details
;
  -6   0   115830.60 1110.16   1
  -6   0   2 261.725 83.9648   1
  -6   0   3 1737.24 208.398   1
  -6   0   4 3410.45 347.514   1
  -6   0   5 3668.61 250.932   1
  -6   0   6 1034.86 101.803   1
  -6   1   1  48.962 44.9461   1
  -6   1   2 1321.10 118.996   1
  -6   1   3 1645.69 116.207   1
  -6   1   4 775.447 76.2355   1
  -6   1   5 1177.91 132.611   1
  -6   1   6 3114.83 266.201   1
  -6   2   1 4657.68 296.471   1
  -6   2   2 1004.62 102.186   1
  -6   2   3 2032.11 131.594   1
  -6   2   4 4927.04 371.102   1
  -6   2   5 1186.28 108.714   1
  -6   2   6 52.1232  45.007   1
  -6   3   1 26.0366 24.9013   1
  -6   3   2 1829.31 138.531   1
  -6   3   3 5258.16 384.715   1
  -6   3   4 36.1986 30.2559   1
  -6   3   5 1718.58 135.398   1
  -6   3   6 1150.22 110.524   1
  -6   4   1 3381.24 212.867   1
  -6   4   2 2390.36 188.142   1
  -6   4   3 428.893  49.461   1
  -6   4   4 3545.80 256.453   1
  -6   4   5 374.282 49.3425   1
  -6   4   6 90.0095 49.6492   1
  -6   5   1 573.189 55.2032   1
  -6   5   2 4327.79 321.314   1
  -6   5   3 1223.26 90.3943   1
  -6   5   4 415.612 56.9338   1
  -6   5   5 1242.35 151.866   1
  -6   6   1 2626.95 169.334   1
  -6   6   2 79.2802 42.6542   1
  -6   6   3 587.244 59.1408   1
  -6   6   4 1571.41 143.385   1
  -6   7   2 3852.05 258.472   1
  -6   7   3 1407.64 130.945   1
  -5   0   1 507.655 83.4171   1
  -5   0   2 1623.99 143.527   1
  -5   0   3 66.1014 15.8386   1
  -5   0   4 2130.17 136.926   1
  -5   0   5 1275.45 103.831   1
  -5   0   6 27.9581  21.647   1
  -5   0   7 1878.88 198.311   1
  -5   0   8 4021.87 268.443   1
  -5   1   1 968.502 61.9808   1
  -5   1   2 8207.38 478.676   1
  -5   1   311669.10 614.919   1
  -5   1   4 1660.84 84.3647   1
  -5   1   5 3534.24 177.043   1
  -5   1   6 2708.71 167.528   1
  -5   1   7 1889.26 166.848   1
  -5   1   8 2134.97 134.346   1
  -5   2   1 5334.12 328.508   1
  -5   2   2 393.583 34.3824   1
  -5   2   3 1150.61 104.901   1
  -5   2   4 4270.29 166.929   1
  -5   2   5 6217.71 267.676   1
  -5   2   6 343.268  29.005   1
  -5   2   7 2112.15 287.338   1
  -5   2   8 3273.24 233.499   1
  -5   3   1 1617.96 87.2962   1
  -5   3   2 5716.02  232.32   1
  -5   3   3 1121.40 65.4639   1
  -5   3   4 1512.69 90.9072   1
  -5   3   5 3114.12 143.924   1
  -5   3   6 6873.13 377.882   1
  -5   3   7 429.789 60.1572   1
  -5   3   8 37.8675 33.9224   1
  -5   4   1 3904.15 188.863   1
  -5   4   2 332.918 27.0351   1
  -5   4   3 2393.56 127.854   1
  -5   4   4 3443.88 199.361   1
  -5   4   5 2377.35 162.676   1
  -5   4   6 1023.12 69.0812   1
  -5   4   8 2746.93 206.971   1
  -5   5   1 885.436 84.0477   1
  -5   5   2 3166.88 331.451   1
  -5   5   3 3288.45 166.594   1
  -5   5   4 757.459 53.6699   1
  -5   5   5 1786.07 105.904   1
  -5   5   6 1265.86 94.4621   1
  -5   6   1 1101.65 86.2834   1
  -5   6   2 1267.53 87.1093   1
  -5   6   3 2258.91  198.33   1
  -5   6   4 7911.92 587.794   1
  -5   6   5 849.536 71.9699   1
  -5   6   6 69.2376 46.3141   1
  -5   6   7 2851.55  210.20   1
  -5   7   1 312.241 47.3102   1
  -5   7   2 3999.79 373.052   1
  -5   7   3 3023.77 274.717   1
  -5   7   4 313.416  37.666   1
  -5   7   5 991.162 137.904   1
  -5   7   6 2793.96 224.156   1
  -5   8   1 6512.53 426.457   1
  -5   8   2 29.6777 26.0006   1
  -5   8   3 780.914 119.796   1
  -5   8   4 1912.32 148.643   1
  -5   8   5 1527.47  158.55   1
  -5   8   6 111.646 47.4918   1
  -5   9   1 626.089 99.6056   1
  -5   9   2 2693.72 188.023   1
  -5   9   3 848.702  92.815   1
  -5   9   4 923.897  77.145   1
  -5   9   5 2327.76 147.626   1
  -5  10   1 3068.65 281.663   1
  -5  10   2 281.969 85.0555   1
  -5  10   3 1182.97 117.863   1
  -4   0   1 9480.23 505.915   1
  -4   0   2 1854.73 95.3073   1
  -4   0   3 1916.48 106.763   1
  -4   0   424069.90 952.439   1
  -4   0   5 9838.98 475.541   1
  -4   0   6 6910.03 358.192   1
  -4   0   7 2628.91 126.496   1
  -4   0   8 1211.00 77.7077   1
  -4   0   9 436.244 62.5544   1
  -4   1   1 1705.35 88.9265   1
  -4   1   2 7749.43 303.913   1
  -4   1   3 3273.91 160.955   1
  -4   1   4 1209.71 53.7287   1
  -4   1   5 1507.68 112.247   1
  -4   1   6 5468.08 200.327   1
  -4   1   7 2561.49 123.784   1
  -4   1   8 708.403 46.9286   1
  -4   1   9 3321.97 201.262   1
  -4   2   1 7366.19  289.17   1
  -4   2   2 3504.28  150.53   1
  -4   2   3 6170.76 235.005   1
  -4   2   4 6577.38 387.037   1
  -4   2   5  525.52 53.6736   1
  -4   2   6 1801.59 87.5616   1
  -4   2   7 6153.33 277.271   1
  -4   2   8 2220.83 153.602   1
  -4   2   9 150.683 42.8476   1
  -4   3   1 205.476 21.0373   1
  -4   3   2 2286.81 106.667   1
  -4   3   3 8575.13 317.957   1
  -4   3   4 410.575 24.2996   1
  -4   3   5 3057.29 163.179   1
  -4   3   6 7501.88 304.316   1
  -4   3   7 715.286 43.2249   1
  -4   3   8 1199.46 83.4038   1
  -4   3   9 1551.25 126.339   1
  -4   4   1 7435.14 364.205   1
  -4   4   2 2754.20  136.87   1
  -4   4   3 7606.07 289.684   1
  -4   4   4 6712.63 260.898   1
  -4   4   5 2072.60 94.3177   1
  -4   4   6 1057.71 63.8098   1
  -4   4   7 4605.67 267.031   1
  -4   4   8 1880.71 115.767   1
  -4   4   9 98.4351 36.7171   1
  -4   5   1 1676.66  90.966   1
  -4   5   2 6283.33 274.846   1
  -4   5   3 1511.95 69.2434   1
  -4   5   4 1166.21 57.0652   1
  -4   5   5 8616.58 350.805   1
  -4   5   6 3274.46 199.928   1
  -4   5   7 521.687 48.4007   1
  -4   5   8  441.10 62.4148   1
  -4   6   1 8838.20 378.485   1
  -4   6   2 584.015 51.8696   1
  -4   6   3 564.051 70.4346   1
  -4   6   4 2821.55 130.171   1
  -4   6   5 3628.45 193.814   1
  -4   6   6 2810.06 228.217   1
  -4   6   7 1607.09 196.013   1
  -4   6   8 1142.27 113.999   1
  -4   7   1 2195.35  96.826   1
  -4   7   2 5672.03 389.882   1
  -4   7   3 3347.14 195.586   1
  -4   7   4 459.354 40.9176   1
  -4   7   5 3391.17 339.123   1
  -4   7   6 3127.05 197.123   1
  -4   7   7 943.794 110.029   1
  -4   7   8 547.068 112.059   1
  -4   8   1 1835.83  103.80   1
  -4   8   2 1565.26 114.222   1
  -4   8   3 3686.48 271.598   1
  -4   8   4 5420.83 597.892   1
  -4   8   5 1400.62 234.989   1
  -4   8   6 25.2359 22.1469   1
  -4   8   7 3507.88 275.789   1
  -4   9   1 1198.82  162.08   1
  -4   9   2 4890.58 239.965   1
  -4   9   3 4125.14 357.142   1
  -4   9   4  639.19 53.7754   1
  -4   9   5 1618.16 231.167   1
  -4   9   6 1623.95 115.824   1
  -4  10   1 3796.01 318.622   1
  -4  10   2 1053.56 75.5562   1
  -4  10   3 2857.27 304.397   1
  -4  10   4 1527.50 138.088   1
  -4  10   5 851.084 77.1005   1
  -4  10   6 248.902  86.025   1
  -4  11   1 1301.48 94.2384   1
  -4  11   2 5001.58 303.181   1
  -4  11   3 684.709 64.4103   1
  -4  11   4 394.555 42.8971   1
  -4  12   1 1333.79 111.452   1
  -4  12   2 266.273 41.2533   1
  -3   0   1 1405.68 72.9788   1
  -3   0   2 2792.35 139.172   1
  -3   0   310744.10 521.011   1
  -3   0   4 7141.99 367.009   1
  -3   0   5 3024.21 143.681   1
  -3   0   6 69.4369 24.4666   1
  -3   0   7 2288.19 113.225   1
  -3   0   8 2232.57 154.208   1
  -3   0   9 269.026 40.3371   1
  -3   0  10 192.397 60.6402   1
  -3   1   1 6846.94 448.974   1
  -3   1   219487.30  614.31   1
  -3   1   3 2412.44 103.947   1
  -3   1   4 3292.35  140.84   1
  -3   1   5 7853.97 279.872   1
  -3   1   6 9106.24 409.592   1
  -3   1   7 539.927 40.0942   1
  -3   1   8 5737.07 246.054   1
  -3   1   9 1892.29 174.912   1
  -3   2   1 9982.02 400.278   1
  -3   2   2 1324.95  53.504   1
  -3   2   3 3797.19 194.455   1
  -3   2   4 9078.12 343.925   1
  -3   2   5 3713.63  192.71   1
  -3   2   6 1770.75 110.894   1
  -3   2   7 5825.28 318.826   1
  -3   2   8 7514.25 319.824   1
  -3   2   9 380.002 36.2763   1
  -3   3   122227.60  776.25   1
  -3   3   210531.70 376.761   1
  -3   3   3 4355.00 176.685   1
  -3   3   4 1033.49 49.2166   1
  -3   3   513794.10 528.883   1
  -3   3   6 4625.34 205.469   1
  -3   3   7 690.394 50.3465   1
  -3   3   8 415.518 91.1098   1
  -3   3   9 4244.62 252.664   1
  -3   4   1 6567.89 417.013   1
  -3   4   2 350.573 22.2072   1
  -3   4   3 5937.42 234.949   1
  -3   4   4 6712.11  261.92   1
  -3   4   5 2370.48 101.033   1
  -3   4   6 1467.27 75.8194   1
  -3   4   7 4068.12 191.561   1
  -3   4   8 1936.53 123.277   1
  -3   4   9 88.0423 33.4823   1
  -3   5   1 1796.92 170.343   1
  -3   5   213759.70 494.761   1
  -3   5   3 4383.77  221.34   1
  -3   5   4 2489.29 101.907   1
  -3   5   5 4369.63 254.681   1
  -3   5   6 2632.88 117.036   1
  -3   5   7 1736.42 96.5603   1
  -3   5   8 3129.58 225.647   1
  -3   5   9 2009.34 185.616   1
  -3   6   1 3249.68 148.113   1
  -3   6   2 1111.26 54.2959   1
  -3   6   3 3222.04 141.186   1
  -3   6   4 4479.69 184.018   1
  -3   6   5 1350.01 62.0931   1
  -3   6   6 1165.78 67.8887   1
  -3   6   7 7516.67  585.59   1
  -3   6   8 2068.45 174.514   1
  -3   6   9 235.341 60.2075   1
  -3   7   1 2041.50 163.483   1
  -3   7   2 8075.78 301.711   1
  -3   7   3 8852.47 327.324   1
  -3   7   4 1382.41 70.5357   1
  -3   7   5 1590.26 97.6057   1
  -3   7   6 4792.65 247.912   1
  -3   7   7 893.775 65.5663   1
  -3   7   8 1816.58 153.663   1
  -3   8   110810.50 378.425   1
  -3   8   2 2246.43 100.046   1
  -3   8   3 4057.69 185.502   1
  -3   8   410660.90 402.699   1
  -3   8   5 1160.62 70.7219   1
  -3   8   6 1138.57  67.164   1
  -3   8   7 1263.03 158.279   1
  -3   8   8 731.959 121.787   1
  -3   9   1 2899.67 126.185   1
  -3   9   2 1599.51 269.164   1
  -3   9   3 871.055 51.4407   1
  -3   9   4 564.118 48.7796   1
  -3   9   5 5408.47  236.11   1
  -3   9   6 3952.49 274.537   1
  -3   9   7  137.51 83.3176   1
  -3  10   1 5103.44 258.231   1
  -3  10   2 1219.61 67.0592   1
  -3  10   3 3883.20 172.339   1
  -3  10   4 2549.18 140.744   1
  -3  10   5 486.025 49.7273   1
  -3  10   6 794.442 210.895   1
  -3  10   7 2819.48 352.309   1
  -3  11   1 584.636 49.7468   1
  -3  11   2 5213.04 236.123   1
  -3  11   3 2038.12 113.381   1
  -3  11   4 213.062 35.8664   1
  -3  11   5 977.382 146.333   1
  -3  11   6 1848.65 154.582   1
  -3  12   1 1315.49 95.7965   1
  -3  12   2 70.8879 34.4789   1
  -3  12   3 3894.47 203.804   1
  -3  12   4 4970.06 243.617   1
  -3  12   5 192.607 108.654   1
  -3  13   1 1240.93 139.919   1
  -3  13   2 2213.37 136.718   1
  -3  13   3 1894.64 123.049   1
  -2   0   1 2701.62 138.882   1
  -2   0   2 2909.84 132.541   1
  -2   0   3 1205.23 66.3823   1
  -2   0   410226.40 397.836   1
  -2   0   5 3013.78 135.656   1
  -2   0   612415.90 498.075   1
  -2   0   7 6786.86 348.586   1
  -2   0   8 5964.21 244.736   1
  -2   0   9 38.0137 28.1156   1
  -2   0  10 3999.95  285.61   1
  -2   1   1 9126.19 307.805   1
  -2   1   213560.40 437.242   1
  -2   1   311748.70 443.593   1
  -2   1   4 133.779 12.1446   1
  -2   1   5 9477.73 332.084   1
  -2   1   6 5735.50 200.524   1
  -2   1   7 1231.11 53.1333   1
  -2   1   8 1782.07  226.73   1
  -2   1   9 5971.56 240.014   1
  -2   1  10 1478.55 175.086   1
  -2   2   125241.30 777.163   1
  -2   2   2 600.621 27.9496   1
  -2   2   331122.40 1168.17   1
  -2   2   410446.40 436.978   1
  -2   2   5 108.729 32.0941   1
  -2   2   6 1504.02 118.755   1
  -2   2   7 7489.30 370.196   1
  -2   2   8 768.853 177.445   1
  -2   2   9 790.114 57.7059   1
  -2   2  10 1682.07 289.057   1
  -2   3   1 4088.00 336.517   1
  -2   3   2 596.588 69.9626   1
  -2   3   3 4644.65 190.908   1
  -2   3   4 366.931 20.0188   1
  -2   3   5 2050.49 106.802   1
  -2   3   611941.50 412.787   1
  -2   3   7 177.972 25.4855   1
  -2   3   8 5356.09 306.089   1
  -2   3   9 2465.20 163.208   1
  -2   3  10 1165.26  115.68   1
  -2   4   110002.70 351.566   1
  -2   4   2 2446.33 103.877   1
  -2   4   328566.30 903.865   1
  -2   4   4 7758.66 295.335   1
  -2   4   5 464.077 36.2968   1
  -2   4   6 2157.75 139.343   1
  -2   4   7 9640.04 557.968   1
  -2   4   8 3619.65 196.637   1
  -2   4   9 228.699 54.5034   1
  -2   5   1 4866.35 184.962   1
  -2   5   213506.70 457.336   1
  -2   5   3 3698.74 150.174   1
  -2   5   4 1912.79 93.9291   1
  -2   5   510199.50 366.576   1
  -2   5   6 3387.54 147.855   1
  -2   5   7 82.8205 26.4061   1
  -2   5   8 1570.54 110.743   1
  -2   5   9 5547.93  302.96   1
  -2   6   1 3631.26 144.213   1
  -2   6   2 1172.07  56.001   1
  -2   6   3 491.437 31.4704   1
  -2   6   415410.30 494.559   1
  -2   6   5 3405.64 138.436   1
  -2   6   6 4721.23 196.459   1
  -2   6   7 677.209 74.2242   1
  -2   6   8 2491.67 167.735   1
  -2   6   9  33.518 29.3601   1
  -2   7   1 2951.00 196.076   1
  -2   7   214330.50 535.252   1
  -2   7   3 1255.06 61.8216   1
  -2   7   4 4253.56  170.14   1
  -2   7   5 4373.70 163.466   1
  -2   7   6 2971.91 150.297   1
  -2   7   7 903.474 68.8928   1
  -2   7   8 1752.49 155.859   1
  -2   8   1 2205.71 93.7711   1
  -2   8   2 176.306 23.2224   1
  -2   8   3 1864.66 155.868   1
  -2   8   4 5315.89 372.315   1
  -2   8   5 635.242 45.9661   1
  -2   8   6 66.4723 23.3974   1
  -2   8   7 6640.20 394.352   1
  -2   8   8 2702.37 178.645   1
  -2   9   1 4426.97 171.752   1
  -2   9   218249.30 572.274   1
  -2   9   3 3670.29 156.482   1
  -2   9   4 2168.59 102.933   1
  -2   9   5 4161.80 208.904   1
  -2   9   6 4590.97  294.23   1
  -2   9   7 133.903 39.0822   1
  -2   9   8 2497.80 174.863   1
  -2  10   1 6225.10 280.056   1
  -2  10   2 1723.09 82.3513   1
  -2  10   3 5509.18 249.121   1
  -2  10   4 3297.97 328.064   1
  -2  10   5  610.96 53.8337   1
  -2  10   6 804.173 88.9982   1
  -2  10   7 3666.63 255.576   1
  -2  11   1 4101.76 176.865   1
  -2  11   2 3244.08 291.561   1
  -2  11   3 232.627 30.1291   1
  -2  11   4 212.964 50.9993   1
  -2  11   5 8179.47 447.274   1
  -2  11   6 765.991 88.6897   1
  -2  12   1 1749.45  99.213   1
  -2  12   2 629.467  46.556   1
  -2  12   3 620.406 98.9984   1
  -2  12   4 3657.92 166.644   1
  -2  12   5  882.46  77.503   1
  -2  13   1 1426.36 86.9341   1
  -2  13   2 4341.38 226.686   1
  -2  13   3 1626.40 110.188   1
  -2  13   4 711.469 70.6419   1
  -2  14   1 2286.30 141.747   1
  -2  14   2 63.9773 43.5729   1
  -1   0   1 2168.42 84.2484   1
  -1   0   2 600.807 30.6083   1
  -1   0   311495.20  462.31   1
  -1   0   4 5196.62 242.177   1
  -1   0   5 5451.66 260.969   1
  -1   0   6 2595.46 141.215   1
  -1   0   715056.40  938.25   1
  -1   0   8 575.405 56.9117   1
  -1   0   9  113.37 38.0128   1
  -1   0  10  359.00 86.5313   1
  -1   1   1 7521.60  649.46   1
  -1   1   244337.10 1459.10   1
  -1   1   3 3180.43 181.562   1
  -1   1   4 7188.89 254.924   1
  -1   1   514143.80 731.192   1
  -1   1   6 5966.04 345.275   1
  -1   1   7 264.538 25.4135   1
  -1   1   8 5784.10 299.156   1
  -1   1   9 1733.76 103.982   1
  -1   1  10 1128.74 164.854   1
  -1   2   118423.40 538.809   1
  -1   2   2 6118.52 222.458   1
  -1   2   3 7544.44 535.571   1
  -1   2   420573.80 750.417   1
  -1   2   5 1939.83 83.6078   1
  -1   2   6 796.462 44.5244   1
  -1   2   7 3244.96 141.871   1
  -1   2   8 4844.09 302.837   1
  -1   2   9  367.44 45.8245   1
  -1   2  10 3453.11 284.188   1
  -1   3   148087.60 1504.83   1
  -1   3   2 6761.55 245.445   1
  -1   3   3 6685.49 246.837   1
  -1   3   4 1604.26 89.2433   1
  -1   3   531223.70 966.359   1
  -1   3   6 2268.51 123.293   1
  -1   3   7 394.729 37.2482   1
  -1   3   8 1910.61 291.779   1
  -1   3   9 4396.99 246.517   1
  -1   4   112850.30 416.767   1
  -1   4   2 4926.97 178.514   1
  -1   4   3 8859.81 555.317   1
  -1   4   4 5771.77 223.209   1
  -1   4   5 563.221 36.5148   1
  -1   4   6 2011.17 91.3836   1
  -1   4   7 5539.17  226.32   1
  -1   4   8 2390.93  138.27   1
  -1   4   9 112.253  58.799   1
  -1   5   1 1308.07 56.9928   1
  -1   5   225975.30 803.255   1
  -1   5   3 787.588 74.5166   1
  -1   5   4 2696.32 112.734   1
  -1   5   5 7927.48 455.918   1
  -1   5   6 7704.58 552.919   1
  -1   5   7 641.643 50.1847   1
  -1   5   8 2269.04 148.319   1
  -1   5   9 2117.41 393.277   1
  -1   6   1 3149.35  177.17   1
  -1   6   2 640.743 35.9877   1
  -1   6   313614.50 462.539   1
  -1   6   4 3694.70 145.195   1
  -1   6   5 1819.78 90.1372   1
  -1   6   6 595.523 57.4643   1
  -1   6   7 7068.05 421.167   1
  -1   6   8 481.498 61.2278   1
  -1   6   9 519.848 73.6989   1
  -1   7   1 6251.86 340.295   1
  -1   7   215030.90 502.773   1
  -1   7   3 2271.35 102.393   1
  -1   7   4 1489.11 69.6566   1
  -1   7   5 3706.88  189.84   1
  -1   7   610710.30 499.094   1
  -1   7   7 96.4156 46.7878   1
  -1   7   8 1409.08  113.91   1
  -1   8   1 7157.12 261.927   1
  -1   8   2 895.581 48.3482   1
  -1   8   3 4212.65 174.419   1
  -1   8   416264.70 533.695   1
  -1   8   5 1772.63 110.756   1
  -1   8   6 5695.29 337.298   1
  -1   8   7 2591.19 249.102   1
  -1   8   8 2869.80 184.743   1
  -1   9   1 8623.71 305.312   1
  -1   9   2 1517.54 309.048   1
  -1   9   3 3207.62 231.679   1
  -1   9   4 1502.50 121.289   1
  -1   9   5 3411.77 164.946   1
  -1   9   6 729.874  56.676   1
  -1   9   7  444.66 63.3915   1
  -1   9   8 754.272 84.0233   1
  -1  10   1 1346.22 64.9781   1
  -1  10   2 697.663 42.3842   1
  -1  10   312735.80  443.42   1
  -1  10   4 4625.43 483.033   1
  -1  10   5 579.273 48.1896   1
  -1  10   6 1336.44 125.476   1
  -1  10   7 1914.89 145.559   1
  -1  11   1 276.308 38.1352   1
  -1  11   2 7773.32 288.661   1
  -1  11   3 3005.20  175.25   1
  -1  11   4 1289.94 98.8919   1
  -1  11   5 1976.74 130.886   1
  -1  11   6 4273.30  239.46   1
  -1  12   1 4502.53 196.433   1
  -1  12   2 28.3729 22.8181   1
  -1  12   3 3810.17 210.125   1
  -1  12   4 1574.81 258.253   1
  -1  12   5 427.921 55.0674   1
  -1  12   6 1233.00 97.2618   1
  -1  13   1 1815.34 150.614   1
  -1  13   2 3007.24 141.618   1
  -1  13   3 1698.35 103.837   1
  -1  13   4 1142.03 77.7015   1
  -1  13   5 1848.51 141.478   1
  -1  14   1 930.416 66.3305   1
  -1  14   2 838.906 65.8497   1
  -1  14   3  627.96 55.7911   1
   0   0   2 1006.61 55.2903   1
   0   0   311398.40 464.949   1
   0   0   412128.50 502.308   1
   0   0   5 241.294 32.9628   1
   0   0   6 3799.54 175.008   1
   0   0   7 845.257 66.5922   1
   0   0   8 3724.41 270.826   1
   0   0   9 1490.49 131.881   1
   0   1   1 273.708 16.7548   1
   0   1   218443.40 2591.53   1
   0   1   3 8576.30 316.467   1
   0   1   4 3382.95 134.931   1
   0   1   511430.80 396.276   1
   0   1   6 6880.65 260.951   1
   0   1   7 289.672 28.4324   1
   0   1   8 2262.25  129.04   1
   0   1   9 5246.27 280.374   1
   0   2   018304.30 2422.06   1
   0   2   110116.00 402.192   1
   0   2   2 5437.89 188.324   1
   0   2   331102.00 1336.82   1
   0   2   411923.40 514.863   1
   0   2   5 2141.57 95.9417   1
   0   2   6 6948.84 270.852   1
   0   2   7 8904.74 546.358   1
   0   2   8 1331.56 285.593   1
   0   2   9  600.24  88.572   1
   0   3   0  4.9701  4.9677   1
   0   3   111589.50 380.714   1
   0   3   217227.60 558.629   1
   0   3   3 2344.43 152.082   1
   0   3   4 735.314 77.1687   1
   0   3   5  778.64  42.431   1
   0   3   6 7336.62 278.754   1
   0   3   7 36.0593  23.218   1
   0   3   8 3823.10 211.682   1
   0   3   9 1718.20 163.226   1
   0   4   013315.20 532.251   1
   0   4   118425.00 557.279   1
   0   4   2  202.60 27.1004   1
   0   4   323850.80 747.581   1
   0   4   4 5169.30 359.572   1
   0   4   5 3397.00 142.992   1
   0   4   6 5563.85 218.462   1
   0   4   7 7863.68 427.254   1
   0   4   8 330.689 54.0948   1
   0   4   9  78.325 51.8474   1
   0   5   0 10.2008  9.3268   1
   0   5   121137.60 710.836   1
   0   5   2 9399.41 359.365   1
   0   5   3 6156.35 235.334   1
   0   5   4 1629.01 73.0713   1
   0   5   513268.20 518.226   1
   0   5   6 2057.99 127.763   1
   0   5   7 267.454 37.0538   1
   0   5   8 1320.17 103.863   1
   0   5   9 4706.58 277.145   1
   0   6   022659.90  850.81   1
   0   6   1 1187.54  66.756   1
   0   6   2 2693.53 137.917   1
   0   6   3 4401.40 175.622   1
   0   6   413123.00 443.362   1
   0   6   5 281.685 26.6993   1
   0   6   6 1836.12  101.94   1
   0   6   7 4115.87 218.381   1
   0   6   8 3563.75 211.999   1
   0   6   9  670.92 94.2353   1
   0   7   0  9.4052 10.0851   1
   0   7   110376.60 647.444   1
   0   7   211760.10 461.991   1
   0   7   3 3433.19  144.92   1
   0   7   4 1720.46 76.3419   1
   0   7   5 7146.84 261.799   1
   0   7   6 1204.24 98.2175   1
   0   7   7 745.169 65.4336   1
   0   7   8 2372.37 306.714   1
   0   8   0 4200.31 231.104   1
   0   8   115334.20 496.218   1
   0   8   2 1471.68 69.7947   1
   0   8   3 4912.22 200.025   1
   0   8   4 2193.46  265.13   1
   0   8   5 353.436 29.7784   1
   0   8   6 321.545 61.3527   1
   0   8   7 3471.47 200.295   1
   0   8   8 2316.71 186.348   1
   0   9   0 10.8157 11.7892   1
   0   9   1 5160.80 198.503   1
   0   9   211462.30 436.087   1
   0   9   3 79.6187 21.7875   1
   0   9   4 3504.58 151.349   1
   0   9   5 6836.78 546.354   1
   0   9   6 6224.44 335.687   1
   0   9   7 365.323 64.1254   1
   0  10   0 3607.09 458.648   1
   0  10   1 3132.56 131.911   1
   0  10   2 86.6342  24.331   1
   0  10   3 5051.22 206.758   1
   0  10   4 7652.26 337.288   1
   0  10   5 1548.20 111.768   1
   0  10   6 1315.72 253.952   1
   0  10   7 3445.14 211.744   1
   0  11   0 16.9832 18.1667   1
   0  11   1 8462.14 302.161   1
   0  11   2 3499.94 153.087   1
   0  11   3 896.945 57.9506   1
   0  11   4 2358.62 213.544   1
   0  11   5 3811.39 210.992   1
   0  11   6 47.5157 33.1737   1
   0  12   0 6222.90 310.558   1
   0  12   1 466.767 37.8285   1
   0  12   2 519.649 39.9114   1
   0  12   3 419.456 167.256   1
   0  12   4 5080.80 264.244   1
   0  12   5 150.679 38.1214   1
   0  13   0 32.9646 33.9643   1
   0  13   1 2120.63 244.161   1
   0  13   2 6158.26 264.342   1
   0  13   3 474.004 45.7146   1
   0  13   4 1024.36 82.9467   1
   0  14   0 1263.98 128.215   1
   0  14   1 1752.71 100.504   1
   0  14   2 364.501 46.8116   1
   0  14   3 2495.05 137.395   1
   1   0   0 2276.55 96.2859   1
   1   0   1  49.902   5.749   1
   1   0   2 74.2324 22.8036   1
   1   0   3 238.707 19.3957   1
   1   0   4 2429.55 118.971   1
   1   0   5 775.005 55.0848   1
   1   0   6 728.207   48.33   1
   1   0   714846.60 872.982   1
   1   0   8 123.174 36.2498   1
   1   0   9 130.335 71.5721   1
   1   1   0 2288.91 118.611   1
   1   1   147759.20 1801.99   1
   1   1   263107.40 2422.18   1
   1   1   3 148.967 31.4726   1
   1   1   4 5691.51 208.998   1
   1   1   510883.60 561.707   1
   1   1   6 5769.82 264.408   1
   1   1   7 2454.14 113.953   1
   1   1   8 1663.01 120.925   1
   1   1   9  649.29 211.837   1
   1   2   015582.50 1195.57   1
   1   2   1 8572.52 288.378   1
   1   2   2 2487.81 139.397   1
   1   2   3 6907.43 341.576   1
   1   2   416411.30 528.253   1
   1   2   5  368.36 27.7268   1
   1   2   6 2592.06 116.393   1
   1   2   7 3464.42 323.043   1
   1   2   8 3179.47 165.798   1
   1   2   9 437.011 65.9649   1
   1   3   0 3194.56 127.529   1
   1   3   131508.10 909.858   1
   1   3   2 3010.71  176.18   1
   1   3   3 5026.83 201.592   1
   1   3   4 6042.79 223.186   1
   1   3   513012.90 442.469   1
   1   3   6 662.531 64.2421   1
   1   3   7 177.408 31.1801   1
   1   3   8 6024.03 340.447   1
   1   3   9 3797.03 231.838   1
   1   4   0 9736.24 361.454   1
   1   4   1 7308.21 277.597   1
   1   4   2 1121.10 48.2006   1
   1   4   3 7556.87 298.775   1
   1   4   4 8228.35 288.708   1
   1   4   5 1194.02 59.2868   1
   1   4   6 2086.72 150.626   1
   1   4   7 3412.41 191.529   1
   1   4   8 780.021 72.8806   1
   1   4   9 279.048 51.1814   1
   1   5   0 1365.65 59.3206   1
   1   5   1 3721.85 169.671   1
   1   5   210584.50 381.031   1
   1   5   3 6055.15 229.725   1
   1   5   4 2391.90 98.1588   1
   1   5   5 5473.00 263.744   1
   1   5   6 3622.13 185.082   1
   1   5   7 941.674 74.6423   1
   1   5   8 2037.26 152.496   1
   1   6   019353.10 611.181   1
   1   6   110528.30 366.837   1
   1   6   2 6598.86 256.124   1
   1   6   313534.40 450.559   1
   1   6   4 2132.93 89.0273   1
   1   6   5 868.543 48.8708   1
   1   6   6 2627.03 136.089   1
   1   6   7 6853.11 404.725   1
   1   6   8   27.03 26.7479   1
   1   7   0 1947.16 87.2697   1
   1   7   1 4135.55 275.348   1
   1   7   212102.80 473.445   1
   1   7   3 1324.86 86.7569   1
   1   7   4 2547.34 110.926   1
   1   7   5 5016.06  215.72   1
   1   7   6 5556.88  506.99   1
   1   7   7 309.374 49.0736   1
   1   7   8 1319.31 116.511   1
   1   8   011906.20 414.918   1
   1   8   1 939.939 71.3318   1
   1   8   2 683.336 37.8627   1
   1   8   3 3909.45 165.598   1
   1   8   4 7570.97 292.457   1
   1   8   5 25.5128 19.4923   1
   1   8   6 4211.99 213.313   1
   1   8   7 1955.17 132.806   1
   1   9   0 991.919 52.1363   1
   1   9   1 8734.14 308.957   1
   1   9   2 2588.65 115.535   1
   1   9   3 2636.36  117.62   1
   1   9   4 1146.60 71.9103   1
   1   9   5 3715.10  205.88   1
   1   9   6 824.608  124.88   1
   1   9   7 1000.95 93.4381   1
   1  10   0 7913.94 303.527   1
   1  10   1 1902.97 90.8005   1
   1  10   2  359.57  33.088   1
   1  10   3 8254.45 327.929   1
   1  10   4 1560.90 154.008   1
   1  10   5 507.587 47.7115   1
   1  10   6 3688.33 214.223   1
   1  11   0 228.906 25.7385   1
   1  11   1 1554.66 76.7068   1
   1  11   2 5842.03 234.729   1
   1  11   3 1862.94 154.721   1
   1  11   4 136.848 41.9556   1
   1  11   5 2452.60 187.634   1
   1  11   6 3807.13 229.001   1
   1  12   0 6920.15 278.468   1
   1  12   1 3260.16 166.701   1
   1  12   2 1428.40 78.1255   1
   1  12   3 7005.70 304.555   1
   1  12   4 1280.51 118.214   1
   1  12   5 410.521 51.9633   1
   1  13   0 29.0707 22.9737   1
   1  13   1 1179.21 116.521   1
   1  13   2 3384.18 162.958   1
   1  13   3 290.018 55.5178   1
   1  13   4 685.645 82.1398   1
   1  14   0 5116.46 230.105   1
   1  14   1 53.7921 30.1926   1
   1  14   2 275.653 70.7473   1
   2   0   049096.60 2222.93   1
   2   0   1 216.379 17.7143   1
   2   0   2 5735.08 250.048   1
   2   0   346702.50 1573.89   1
   2   0   420661.40 779.453   1
   2   0   5 3150.44 194.019   1
   2   0   6 600.088 52.3874   1
   2   0   7 3443.20 230.669   1
   2   0   8 974.029 88.6849   1
   2   1   0 1728.16 64.3255   1
   2   1   1 3869.18 358.515   1
   2   1   2 8565.33 547.383   1
   2   1   3 1809.09 73.5599   1
   2   1   4 340.849 62.3533   1
   2   1   5 8115.77 379.739   1
   2   1   6 1336.32 78.8061   1
   2   1   7 338.044 44.2504   1
   2   1   8 3172.07 186.099   1
   2   2   011451.80 410.324   1
   2   2   112607.80 552.221   1
   2   2   2 3966.60 162.413   1
   2   2   3 9458.79  326.50   1
   2   2   4 3541.77 283.894   1
   2   2   5 1851.35 78.4062   1
   2   2   6 8164.29  331.51   1
   2   2   7 2444.27 174.733   1
   2   2   8  598.22 68.9314   1
   2   3   0 354.428 28.4934   1
   2   3   1 7814.12 289.832   1
   2   3   216233.50 541.879   1
   2   3   3 703.629 36.7808   1
   2   3   4 1683.72 82.3722   1
   2   3   5 3757.46 162.852   1
   2   3   6 4357.55 256.064   1
   2   3   7 524.794 46.7248   1
   2   3   8 863.174 87.5194   1
   2   4   0 8817.91 337.251   1
   2   4   1 5903.22 259.216   1
   2   4   2 4971.05 182.176   1
   2   4   312594.10 399.064   1
   2   4   4 6423.12 273.734   1
   2   4   5 3436.33 148.248   1
   2   4   6 5128.96 239.589   1
   2   4   7 2539.98  202.60   1
   2   4   8 41.1418 36.4161   1
   2   5   0 1856.40 81.5482   1
   2   5   1 9519.49 353.447   1
   2   5   2 8457.49 319.873   1
   2   5   3 2354.59 96.0114   1
   2   5   4 5481.55 196.966   1
   2   5   5 7000.76 253.203   1
   2   5   6 677.143 80.0536   1
   2   5   7 74.3669 33.3594   1
   2   5   8 3669.02 317.768   1
   2   6   029070.60 860.158   1
   2   6   1 96.5663 31.6648   1
   2   6   2 171.658 40.3269   1
   2   6   3 2046.27 197.175   1
   2   6   4 4271.17 167.044   1
   2   6   5 2256.29 99.5538   1
   2   6   6 544.609  58.725   1
   2   6   7 2778.32  159.83   1
   2   7   0 1422.40 65.7622   1
   2   7   1 6344.13 238.296   1
   2   7   2 6266.20 244.434   1
   2   7   3 705.084 41.3208   1
   2   7   4 4337.83 288.077   1
   2   7   5 4280.57 194.836   1
   2   7   6 1852.24 117.003   1
   2   7   7 696.985 92.8758   1
   2   8   0 1894.59 103.663   1
   2   8   1 5040.24 213.219   1
   2   8   2 5655.58 264.072   1
   2   8   3 7591.73 305.862   1
   2   8   4 3504.93 153.478   1
   2   8   5 926.646 70.6502   1
   2   8   6 2855.03 162.954   1
   2   8   7 766.462 125.107   1
   2   9   0 421.575 30.5434   1
   2   9   1 7575.47 275.729   1
   2   9   2 7745.59 333.455   1
   2   9   3 1336.85 107.618   1
   2   9   4 1890.08 124.477   1
   2   9   5 1634.02 102.806   1
   2   9   6 1988.93 148.206   1
   2  10   0 3489.30 229.771   1
   2  10   1 1394.46 84.0366   1
   2  10   2 998.067 104.395   1
   2  10   3 2409.36 130.763   1
   2  10   4 2752.43 153.648   1
   2  10   5  948.52 68.5516   1
   2  10   6 723.408 92.4149   1
   2  11   0 772.394 50.0887   1
   2  11   1 7046.83 276.363   1
   2  11   2 2072.99 106.089   1
   2  11   3 1204.06 76.0337   1
   2  11   4 3916.31 328.063   1
   2  11   5 3503.78 441.161   1
   2  12   0 3306.66 151.408   1
   2  12   1 98.6588 34.1277   1
   2  12   2 60.9896 24.3542   1
   2  12   3 1531.78 180.311   1
   2  12   4 2027.25 158.802   1
   2  13   0 223.173 40.3605   1
   2  13   1 3255.35 198.082   1
   2  13   2 2197.87 131.417   1
   2  13   3 453.426 55.6772   1
   2  14   0 1409.63 110.106   1
   2  14   1 1751.20 121.125   1
   3   0   0 7769.35 508.939   1
   3   0   1 3797.93 179.454   1
   3   0   2 6021.57 293.155   1
   3   0   3 1165.14 72.8997   1
   3   0   4 359.071 31.8122   1
   3   0   5 620.756 68.1996   1
   3   0   6 251.963 39.8912   1
   3   0   7 2354.58 344.119   1
   3   1   0 7429.61 308.067   1
   3   1   115124.90 563.657   1
   3   1   2 7308.12  280.90   1
   3   1   3 1312.05 60.2718   1
   3   1   4 4818.29 191.635   1
   3   1   5 9521.31 472.043   1
   3   1   6 2061.92 140.971   1
   3   1   7 2280.40 141.896   1
   3   2   0 7088.80 302.972   1
   3   2   1 1632.38  87.047   1
   3   2   2 153.826 39.2641   1
   3   2   3 7193.91 277.639   1
   3   2   4 4347.08 165.575   1
   3   2   5 505.278 37.8214   1
   3   2   6 2798.04  189.53   1
   3   2   7 3377.84 239.968   1
   3   3   0 6793.06 257.988   1
   3   3   113994.10 602.044   1
   3   3   2 4051.67  181.42   1
   3   3   3 2269.99 96.1668   1
   3   3   410590.20 361.586   1
   3   3   5 949.383 116.839   1
   3   3   6 343.867 52.5892   1
   3   3   7 31.7822 33.6991   1
   3   4   0 3306.74 139.754   1
   3   4   1  312.78 27.1758   1
   3   4   2 1706.58 95.1974   1
   3   4   3 6347.45 232.293   1
   3   4   4 4150.57 157.482   1
   3   4   5 389.252 32.2738   1
   3   4   6 2263.92 216.691   1
   3   4   7 1482.10 130.048   1
   3   5   0 1793.17 122.334   1
   3   5   1 8928.12 382.183   1
   3   5   2 6823.07 302.876   1
   3   5   3 2968.90 124.927   1
   3   5   4 1512.79 159.338   1
   3   5   5 3616.38 157.786   1
   3   5   6 791.572 54.1255   1
   3   5   7 1273.24  137.83   1
   3   6   0 7658.02 293.902   1
   3   6   1 3953.94 163.234   1
   3   6   2 4379.59 170.831   1
   3   6   3 5330.24 197.747   1
   3   6   4 1854.60 86.6835   1
   3   6   5 50.8909 24.9469   1
   3   6   6 3314.67 224.388   1
   3   7   0 3066.97 145.676   1
   3   7   1 6185.20 356.145   1
   3   7   2 6252.42  241.78   1
   3   7   3 215.132 29.5248   1
   3   7   4 1824.70 189.153   1
   3   7   5 4141.17 358.601   1
   3   7   6 1270.88 113.746   1
   3   8   010854.60 374.594   1
   3   8   1 476.415 51.4328   1
   3   8   2 853.662 47.1021   1
   3   8   3 6388.39 276.547   1
   3   8   4 1606.61  89.839   1
   3   8   5 359.728 76.3049   1
   3   8   6 903.951 149.737   1
   3   9   0 2103.31 111.862   1
   3   9   1 2526.36 146.381   1
   3   9   2 1600.20 92.2989   1
   3   9   3 430.814 38.6769   1
   3   9   4 3513.69 226.666   1
   3   9   5 2043.15 158.736   1
   3  10   0 7366.02 406.249   1
   3  10   1 2436.89 116.813   1
   3  10   2 1181.32 85.1214   1
   3  10   3 2634.96  181.30   1
   3  10   4 1619.88 119.525   1
   3  11   0 579.395 64.1963   1
   3  11   1 3144.84 159.443   1
   3  11   2 3005.10 200.947   1
   3  11   3 603.432 66.8295   1
   3  12   0 2507.85 143.312   1
   3  12   1 1779.47  113.25   1
   3  12   2 3995.16  241.85   1
   3  13   0 854.284 73.7891   1
   3  13   1 1104.07 88.8563   1
   4   0   0 5547.32 298.851   1
   4   0   1 14.4093 13.8384   1
   4   0   2 795.177 54.6506   1
   4   0   3 8337.61 554.858   1
   4   0   4 2366.52 342.191   1
   4   0   5 4650.48 483.048   1
   4   0   6 1968.69 231.418   1
   4   1   0 3606.53 134.151   1
   4   1   1 3281.75 143.905   1
   4   1   2 4744.09 198.715   1
   4   1   3 145.733 19.2993   1
   4   1   4 1440.72 108.118   1
   4   1   5 3071.88  238.60   1
   4   1   6 486.855 85.3049   1
   4   2   010212.90 407.099   1
   4   2   1 2379.45  127.51   1
   4   2   2 8493.84 345.852   1
   4   2   3 4282.36 163.171   1
   4   2   4 1302.70  71.428   1
   4   2   5 472.283 44.8916   1
   4   2   6 3123.93 314.361   1
   4   3   0 255.718 29.8441   1
   4   3   1 3691.89  154.46   1
   4   3   2 2199.36 244.309   1
   4   3   3  121.03 16.6105   1
   4   3   4 1088.30 120.295   1
   4   3   5 2651.68 271.368   1
   4   3   6 998.086 79.4462   1
   4   4   0 7114.58 417.252   1
   4   4   1 2096.08 92.8017   1
   4   4   2 5347.89 360.429   1
   4   4   3 2997.09 142.484   1
   4   4   4 1076.61 58.5423   1
   4   4   5 503.692 131.032   1
   4   4   6 3890.12 267.716   1
   4   5   0 3424.05 184.624   1
   4   5   1 3820.71  239.90   1
   4   5   2 3168.32 174.812   1
   4   5   3 259.117 26.5419   1
   4   5   4 2449.33  168.45   1
   4   5   5 4178.11 366.097   1
   4   6   0 4787.42 338.338   1
   4   6   1 312.427 25.9452   1
   4   6   2 225.863 23.3848   1
   4   6   3 7613.50 427.754   1
   4   6   4 1118.12 108.702   1
   4   6   5 1045.24 93.8566   1
   4   7   0 388.182 32.9465   1
   4   7   2 711.604 63.6334   1
   4   7   3 215.771 23.6459   1
   4   7   4 2312.04 140.895   1
   4   7   5 1912.70 144.724   1
   4   8   0 943.847  83.416   1
   4   8   1 494.044   73.84   1
   4   8   3 1777.63 181.384   1
   4   8   4 908.343 94.5496   1
   4   9   0 614.353 82.1422   1
   4   9   112466.50 527.599   1
   4   9   2 4345.26 269.552   1
   4   9   3 955.861 72.4631   1
   4  10   0 3318.45 378.363   1
   4  10   1 271.333 54.1673   1
   4  10   2 1600.90 106.658   1
   4  10   3 1252.14 112.919   1
   4  11   0 1148.70 80.1591   1
   4  11   1 817.381 190.705   1
   5   0   0 4721.79 264.024   1
   5   0   1 550.067 50.9464   1
   5   0   2 2717.18 187.519   1
   5   0   3 1904.23  315.47   1
   5   0   4 852.114 109.303   1
   5   1   0 2626.58 172.163   1
   5   1   1 6979.03 279.462   1
   5   1   2 1352.31 98.4676   1
   5   1   3 736.223 50.5575   1
   5   1   4 1701.85 245.074   1
   5   2   0 2313.85 182.857   1
   5   2   1 292.321 26.0746   1
   5   2   2 716.216 56.9098   1
   5   2   3 3570.93 396.366   1
   5   2   4 946.839 116.757   1
   5   3   0 3707.76 182.463   1
   5   3   1 3782.54 260.289   1
   5   3   2 4062.71 192.339   1
   5   3   3 95.6827  34.841   1
   5   3   4 8935.89 549.141   1
   5   4   0 2471.15  245.05   1
   5   4   1 266.756 33.9309   1
   5   4   2 1793.22 271.425   1
   5   4   3 1909.94 108.166   1
   5   4   4 381.807 49.8256   1
   5   5   0 1323.60 95.3853   1
   5   5   1 4758.20 249.919   1
   5   5   2 1601.55 78.9155   1
   5   5   3 610.316 53.2527   1
   5   5   4 521.942 101.108   1
   5   6   0 2222.11 131.476   1
   5   6   1 537.699 58.9441   1
   5   6   2 3779.19 194.557   1
   5   6   3 1320.49 90.4477   1
   5   7   0 1758.24  169.02   1
   5   7   1 5939.41 337.684   1
   5   7   2 501.448 94.5239   1
   5   7   3 34.0136 28.8294   1
   5   8   0 4086.91 268.408   1
   5   8   1 218.877 50.6001   1
   5   8   2 1032.27 74.5932   1
   5   9   0 973.728 122.036   1
   5   9   1 206.776 44.5965   1
   6   0   0 1338.68 191.623   1
   6   0   1 122.686  39.815   1
   6   0   2 326.817  49.302   1
   6   1   0 1034.61 101.875   1
   6   1   1 1993.01 279.326   1
   6   2   0 2473.32 163.224   1
   6   2   1  20.912 22.5427   1
   6   3   0  30.582 25.4514   1
   6   3   1 4331.13  394.88   1
   6   3   2 100.638 49.0366   1
   6   4   0 3823.73  355.94   1
   6   4   1 95.9594 35.7344   1
   6   5   0 2438.23 347.193   1
   6   5   1 877.678 75.4488   1
   6   6   0 264.743  44.983   1
   0   0   0    0.00    0.00   1
;
#END Tags that were not found in dictionaries
loop_
_symmetry_equiv_pos_as_xyz
'x, y, z'
'-x, y+1/2, -z'
loop_
_atom_site_label
_atom_site_type_symbol
_atom_site_fract_x
_atom_site_fract_y
_atom_site_fract_z
_atom_site_U_iso_or_equiv
_atom_site_adp_type
_atom_site_occupancy
_atom_site_calc_flag
Br1 Br 0.98295(6) 0.48720(6) 0.85584(4) 0.01532(13) Uani 1 d
S3' S 0.5618(2) 0.16375(9) 0.37028(13) 0.0175(2) Uani 1 d
O2 O 0.4876(6) -0.0486(3) 0.8097(6) 0.0161(8) Uani 1 d
O1' O 0.9422(6) 0.1431(3) 0.6236(4) 0.0136(7) Uani 1 d
O5' O 0.9449(6) 0.3309(3) 0.2828(4) 0.0181(7) Uani 1 d
H5' H 0.8089 0.3585 0.2484 0.027 Uiso 1 calc
N1 N 0.6245(7) 0.1204(3) 0.7591(4) 0.0132(8) Uani 1 d
N3 N 0.3565(6) 0.0995(3) 0.9289(4) 0.0136(7) Uani 1 d
H3 H 0.2836 0.0577 0.9843 0.016 Uiso 1 calc
C5 C 0.4747(8) 0.2787(4) 0.8687(5) 0.0162(10) Uani 1 d
H5 H 0.47 0.3543 0.8795 0.019 Uiso 1 calc
C6 C 0.6177(8) 0.2316(4) 0.7806(5) 0.0132(9) Uani 1 d
H6 H 0.7152 0.276 0.7326 0.016 Uiso 1 calc
C4 C 0.3314(8) 0.2098(4) 0.9445(5) 0.0137(9) Uani 1 d
C2 C 0.4901(8) 0.0500(5) 0.8309(7) 0.0131(12) Uani 1 d
N4 N 0.1816(7) 0.2456(3) 1.0298(4) 0.0165(8) Uani 1 d
H4A H 0.1013 0.2001 1.0747 0.02 Uiso 1 calc
H4B H 0.1633 0.3148 1.041 0.02 Uiso 1 calc
C5' C 0.9737(9) 0.2976(4) 0.4489(5) 0.0190(10) Uani 1 d
H5'1 H 0.8785 0.345 0.5022 0.023 Uiso 1 calc
H5'2 H 1.145 0.3033 0.5079 0.023 Uiso 1 calc
C4' C 0.8882(7) 0.1813(3) 0.4533(5) 0.0137(9) Uani 1 d
H4' H 0.9762 0.1352 0.3912 0.016 Uiso 1 calc
C1' C 0.7651(7) 0.0687(4) 0.6501(5) 0.0153(9) Uani 1 d
H1' H 0.847 0.0026 0.7031 0.018 Uiso 1 calc
C2' C 0.5934(9) 0.0385(4) 0.4849(5) 0.0164(9) Uani 1 d
H2'1 H 0.4357 0.0137 0.4987 0.02 Uiso 1 calc
H2'2 H 0.6644 -0.0184 0.4305 0.02 Uiso 1 calc
loop_
_atom_site_aniso_label
_atom_site_aniso_U_11
_atom_site_aniso_U_22
_atom_site_aniso_U_33
_atom_site_aniso_U_23
_atom_site_aniso_U_13
_atom_site_aniso_U_12
Br1 0.0169(2) 0.0140(2) 0.0162(2) 0.0014(2) 0.00630(14) 0.00265(18)
S3' 0.0150(5) 0.0218(6) 0.0143(5) 0.0021(4) 0.0009(4) -0.0002(5)
O2 0.0194(19) 0.0122(17) 0.0160(17) -0.0030(14) 0.0033(14) -0.0011(12)
O1' 0.0141(15) 0.0149(17) 0.0110(15) 0.0031(13) 0.0016(11) -0.0016(13)
O5' 0.0190(17) 0.0232(18) 0.0137(17) 0.0051(15) 0.0067(13) 0.0036(14)
N1 0.0175(19) 0.0107(18) 0.0114(18) -0.0005(14) 0.0035(14) 0.0010(15)
N3 0.0129(18) 0.0142(17) 0.0139(18) 0.0020(15) 0.0038(14) -0.0006(14)
C5 0.020(3) 0.014(2) 0.013(2) 0.0001(16) 0.0013(19) 0.0004(16)
C6 0.014(2) 0.015(2) 0.009(2) 0.0027(17) 0.0007(16) -0.0017(17)
C4 0.015(2) 0.014(2) 0.010(2) 0.0004(16) -0.0021(17) 0.0018(16)
C2 0.010(3) 0.016(3) 0.013(2) 0.0014(19) 0.0012(19) 0.0015(16)
N4 0.0185(19) 0.0146(18) 0.0188(19) 0.0016(16) 0.0093(16) 0.0034(16)
C5' 0.025(3) 0.017(2) 0.016(2) 0.0003(19) 0.005(2) 0.000(2)
C4' 0.014(2) 0.014(2) 0.014(2) 0.0005(18) 0.0048(17) -0.0012(17)
C1' 0.018(2) 0.013(2) 0.017(2) 0.0013(18) 0.0080(17) 0.0008(17)
C2' 0.021(2) 0.015(2) 0.014(2) 0.0018(18) 0.0053(18) -0.0010(18)
loop_
_atom_type_symbol
_atom_type_description
_atom_type_scat_dispersion_real
_atom_type_scat_dispersion_imag
_atom_type_scat_source
C C 0.0033 0.0016 'International Tables Vol C Tables 4.2.6.8 and 6.1.1.4'
H H 0 0 'International Tables Vol C Tables 4.2.6.8 and 6.1.1.4'
N N 0.0061 0.0033 'International Tables Vol C Tables 4.2.6.8 and 6.1.1.4'
O O 0.0106 0.006 'International Tables Vol C Tables 4.2.6.8 and 6.1.1.4'
S S 0.1246 0.1234 'International Tables Vol C Tables 4.2.6.8 and 6.1.1.4'
Br Br -0.2901 2.4595 'International Tables Vol C Tables 4.2.6.8 and 6.1.1.4'
loop_
_exptl_crystal_face_index_h
_exptl_crystal_face_index_k
_exptl_crystal_face_index_l
_exptl_crystal_face_perp_dist
0 1 0 0.134
0 -1 0 0.166
1 0 0 0.207
-1 0 0 0.177
0 0 -1 0.098
0 0 1 0.009
loop_
_geom_angle_atom_site_label_1
_geom_angle_atom_site_label_2
_geom_angle_atom_site_label_3
_geom_angle
C2' S3' C4' 86.5(2)
C1' O1' C4' 112.1(3)
C5' O5' H5' 109.5
C6 N1 C2 121.7(4)
C6 N1 C1' 122.5(4)
C2 N1 C1' 115.7(4)
C4 N3 C2 125.1(4)
C4 N3 H3 117.5
C2 N3 H3 117.5
C6 C5 C4 118.2(4)
C6 C5 H5 120.9
C4 C5 H5 120.9
C5 C6 N1 122.4(4)
C5 C6 H6 118.8
N1 C6 H6 118.8
N4 C4 N3 118.7(4)
N4 C4 C5 123.9(4)
N3 C4 C5 117.4(4)
O2 C2 N1 122.9(6)
O2 C2 N3 122.2(6)
N1 C2 N3 115.0(5)
C4 N4 H4A 120
C4 N4 H4B 120
H4A N4 H4B 120
O5' C5' C4' 109.5(4)
O5' C5' H5'1 109.8
C4' C5' H5'1 109.8
O5' C5' H5'2 109.8
C4' C5' H5'2 109.8
H5'1 C5' H5'2 108.2
O1' C4' C5' 109.6(3)
O1' C4' S3' 106.5(3)
C5' C4' S3' 113.7(3)
O1' C4' H4' 109
C5' C4' H4' 109
S3' C4' H4' 109
O1' C1' N1 109.0(3)
O1' C1' C2' 109.1(3)
N1 C1' C2' 110.4(3)
O1' C1' H1' 109.5
N1 C1' H1' 109.5
C2' C1' H1' 109.5
C1' C2' S3' 103.7(3)
C1' C2' H2'1 111
S3' C2' H2'1 111
C1' C2' H2'2 111
S3' C2' H2'2 111
H2'1 C2' H2'2 109
loop_
_geom_bond_atom_site_label_1
_geom_bond_atom_site_label_2
_geom_bond_distance
S3' C2' 1.794(5)
S3' C4' 1.806(4)
O2 C2 1.219(6)
O1' C1' 1.406(5)
O1' C4' 1.461(5)
O5' C5' 1.421(6)
O5' H5' 0.82
N1 C6 1.374(6)
N1 C2 1.378(7)
N1 C1' 1.488(5)
N3 C4 1.366(6)
N3 C2 1.382(6)
N3 H3 0.86
C5 C6 1.348(6)
C5 C4 1.420(6)
C5 H5 0.93
C6 H6 0.93
C4 N4 1.307(6)
N4 H4A 0.86
N4 H4B 0.86
C5' C4' 1.506(6)
C5' H5'1 0.97
C5' H5'2 0.97
C4' H4' 0.98
C1' C2' 1.525(6)
C1' H1' 0.98
C2' H2'1 0.97
C2' H2'2 0.97
loop_
_geom_torsion_atom_site_label_1
_geom_torsion_atom_site_label_2
_geom_torsion_atom_site_label_3
_geom_torsion_atom_site_label_4
_geom_torsion
C4 C5 C6 N1 1.5(6)
C2 N1 C6 C5 -2.0(7)
C1' N1 C6 C5 174.5(4)
C2 N3 C4 N4 173.9(4)
C2 N3 C4 C5 -7.3(7)
C6 C5 C4 N4 -178.4(4)
C6 C5 C4 N3 2.8(6)
C6 N1 C2 O2 177.8(5)
C1' N1 C2 O2 1.0(7)
C6 N1 C2 N3 -2.0(6)
C1' N1 C2 N3 -178.7(4)
C4 N3 C2 O2 -173.0(5)
C4 N3 C2 N1 6.7(6)
C1' O1' C4' C5' 147.0(4)
C1' O1' C4' S3' 23.6(4)
O5' C5' C4' O1' 173.9(3)
O5' C5' C4' S3' -67.0(4)
C2' S3' C4' O1' -38.6(3)
C2' S3' C4' C5' -159.4(4)
C4' O1' C1' N1 -112.0(4)
C4' O1' C1' C2' 8.5(5)
C6 N1 C1' O1' 19.6(5)
C2 N1 C1' O1' -163.7(3)
C6 N1 C1' C2' -100.2(4)
C2 N1 C1' C2' 76.5(5)
O1' C1' C2' S3' -36.9(4)
N1 C1' C2' S3' 82.8(4)
C4' S3' C2' C1' 42.2(3)
