#------------------------------------------------------------------------------
#$Date: 2016-03-26 23:06:14 +0200 (Sat, 26 Mar 2016) $
#$Revision: 180529 $
#$URL: svn://www.crystallography.net/cod/cif/7/21/98/7219802.cif $
#------------------------------------------------------------------------------
#
# This file is available in the Crystallography Open Database (COD),
# http://www.crystallography.net/
#
# All data on this site have been placed in the public domain by the
# contributors.
#
data_7219802
loop_
_publ_author_name
'Kaur, Gurpreet'
'Choudhury, Angshuman Roy'
_publ_section_title
;
 A comprehensive understanding of the synthons involving C--H&#x22EF;F--C
 hydrogen bond(s) from structural and computational analyses
;
_journal_issue                   15
_journal_name_full               CrystEngComm
_journal_page_first              2949
_journal_paper_doi               10.1039/C5CE00215J
_journal_volume                  17
_journal_year                    2015
_chemical_formula_moiety         'C13 H7 F4 N'
_chemical_formula_sum            'C13 H7 F4 N'
_chemical_formula_weight         253.2
_chemical_name_systematic
;
 ?
;
_space_group_IT_number           2
_symmetry_cell_setting           triclinic
_symmetry_Int_Tables_number      2
_symmetry_space_group_name_Hall  '-P 1'
_symmetry_space_group_name_H-M   'P -1'
_atom_sites_solution_hydrogens   geom
_atom_sites_solution_primary     other
_audit_creation_date             2013-10-25T19:01:14-00:00
_audit_creation_method           'WinGX routine CIF_UPDATE'
_audit_update_record
;
2015-01-29 deposited with the CCDC.
2015-03-09 downloaded from the CCDC.
;
_cell_angle_alpha                74.956(4)
_cell_angle_beta                 73.491(4)
_cell_angle_gamma                74.437(4)
_cell_formula_units_Z            2
_cell_length_a                   6.7242(6)
_cell_length_b                   8.3077(7)
_cell_length_c                   10.3309(9)
_cell_measurement_reflns_used    2544
_cell_measurement_temperature    100
_cell_measurement_theta_max      30.93
_cell_measurement_theta_min      2.596
_cell_volume                     522.43(8)
_computing_data_reduction        'SAINT v7.68A (Bruker, 2009)'
_computing_molecular_graphics
;
O. V. Dolomanov, L. J. Bourhis, R. J. Gildea, J. A. K. Howard and H. Puschmann,
OLEX2: a complete structure solution, refinement and analysis program.
        J. Appl. Cryst. (2009). 42, 339-341.
;
_computing_publication_material
;
O. V. Dolomanov, L. J. Bourhis, R. J. Gildea, J. A. K. Howard and H. Puschmann,
OLEX2: a complete structure solution, refinement and analysis program.
        J. Appl. Cryst. (2009). 42, 339-341.
;
_computing_structure_refinement
;
        XL, G.M. Sheldrick, Acta Cryst.
        (2008). A64, 112-122
;
_computing_structure_solution
;
olex2.solve (L.J. Bourhis, O.V. Dolomanov, R.J. Gildea, J.A.K. Howard,
        H. Puschmann, in preparation, 2011)
;
_diffrn_ambient_temperature      100
_diffrn_measured_fraction_theta_full 0.974
_diffrn_measured_fraction_theta_max 0.995
_diffrn_radiation_type           'MO K\a'
_diffrn_radiation_wavelength     0.71073
_diffrn_reflns_av_R_equivalents  0.0162
_diffrn_reflns_Laue_measured_fraction_full 0.974
_diffrn_reflns_Laue_measured_fraction_max 0.995
_diffrn_reflns_limit_h_max       7
_diffrn_reflns_limit_h_min       -7
_diffrn_reflns_limit_k_max       9
_diffrn_reflns_limit_k_min       -9
_diffrn_reflns_limit_l_max       12
_diffrn_reflns_limit_l_min       -11
_diffrn_reflns_number            5125
_diffrn_reflns_point_group_measured_fraction_full 0.974
_diffrn_reflns_point_group_measured_fraction_max 0.995
_diffrn_reflns_theta_full        25.242
_diffrn_reflns_theta_max         25.025
_diffrn_reflns_theta_min         2.098
_exptl_absorpt_coefficient_mu    0.145
_exptl_absorpt_correction_T_max  0.7463
_exptl_absorpt_correction_T_min  0.686
_exptl_absorpt_correction_type   multi-scan
_exptl_absorpt_process_details
;
        SADABS-2008/1 (Bruker,2008) was used for absorption correction.
        R(int) was 0.0426 before and 0.0308 after correction.
        The Ratio of minimum to maximum transmission is 0.9192.
        The \l/2 correction factor is 0.0015.
;
_exptl_crystal_colour            'clear light colourless'
_exptl_crystal_density_diffrn    1.61
_exptl_crystal_description       block
_exptl_crystal_F_000             256
_exptl_crystal_size_max          0.2
_exptl_crystal_size_mid          0.2
_exptl_crystal_size_min          0.2
_refine_diff_density_max         0.229
_refine_diff_density_min         -0.233
_refine_diff_density_rms         0.048
_refine_ls_extinction_method     none
_refine_ls_goodness_of_fit_ref   1.051
_refine_ls_hydrogen_treatment    constr
_refine_ls_matrix_type           full
_refine_ls_number_parameters     163
_refine_ls_number_reflns         1835
_refine_ls_number_restraints     0
_refine_ls_restrained_S_all      1.051
_refine_ls_R_factor_all          0.0393
_refine_ls_R_factor_gt           0.0329
_refine_ls_shift/su_max          0
_refine_ls_shift/su_mean         0
_refine_ls_structure_factor_coef Fsqd
_refine_ls_weighting_details
'w=1/[\s^2^(Fo^2^)+(0.0599P)^2^+0.0677P] where P=(Fo^2^+2Fc^2^)/3'
_refine_ls_weighting_scheme      calc
_refine_ls_wR_factor_gt          0.0913
_refine_ls_wR_factor_ref         0.0961
_reflns_number_gt                1556
_reflns_number_total             1835
_reflns_threshold_expression     'I > 2\s(I)'
_cod_data_source_file            c5ce00215j2.cif
_cod_data_source_block           70
_cod_depositor_comments
'Adding full bibliography for 7219787--7219816.cif.'
_cod_database_code               7219802
loop_
_symmetry_equiv_pos_as_xyz
'x, y, z'
'-x, -y, -z'
loop_
_atom_site_label
_atom_site_type_symbol
_atom_site_fract_x
_atom_site_fract_y
_atom_site_fract_z
_atom_site_U_iso_or_equiv
_atom_site_adp_type
_atom_site_occupancy
_atom_site_calc_flag
C1 C 0.3148(2) 0.78726(16) 0.75353(13) 0.0170(3) Uani 1 d
H1 H 0.4077 0.7387 0.8143 0.02 Uiso 1 calc
C2 C 0.3056(2) 0.96407(16) 0.67906(13) 0.0171(3) Uani 1 d
C3 C 0.4563(2) 1.05347(17) 0.67382(13) 0.0178(3) Uani 1 d
C4 C 0.4554(2) 1.21893(17) 0.60324(13) 0.0197(3) Uani 1 d
H4 H 0.5615 1.2766 0.6003 0.024 Uiso 1 calc
C5 C 0.2929(2) 1.29608(17) 0.53735(14) 0.0213(3) Uani 1 d
C6 C 0.1355(2) 1.21737(17) 0.53868(14) 0.0217(3) Uani 1 d
H6 H 0.0257 1.2753 0.4918 0.026 Uiso 1 calc
C7 C 0.1435(2) 1.05086(17) 0.61078(14) 0.0198(3) Uani 1 d
H7 H 0.0363 0.9943 0.6139 0.024 Uiso 1 calc
C8 C 0.2075(2) 0.52943(16) 0.81430(13) 0.0165(3) Uani 1 d
C13 C 0.0335(2) 0.45938(16) 0.83017(13) 0.0162(3) Uani 1 d
C12 C 0.0243(2) 0.29690(17) 0.90488(13) 0.0183(3) Uani 1 d
C11 C 0.1846(2) 0.19706(17) 0.96590(13) 0.0191(3) Uani 1 d
H11 H 0.175 0.0861 1.0187 0.023 Uiso 1 calc
C10 C 0.3618(2) 0.26377(17) 0.94778(13) 0.0186(3) Uani 1 d
H10 H 0.476 0.1966 0.9879 0.022 Uiso 1 calc
C9 C 0.3747(2) 0.42589(16) 0.87256(13) 0.0186(3) Uani 1 d
H9 H 0.4985 0.4678 0.8602 0.022 Uiso 1 calc
N1 N 0.19981(18) 0.69819(13) 0.73764(11) 0.0176(3) Uani 1 d
F1 F 0.61470(12) 0.97370(10) 0.73976(8) 0.0243(2) Uani 1 d
F2 F 0.28824(14) 1.45880(9) 0.46684(8) 0.0291(3) Uani 1 d
F4 F -0.13099(12) 0.55083(9) 0.77476(8) 0.0228(2) Uani 1 d
F3 F -0.15107(12) 0.23708(10) 0.91847(8) 0.0250(2) Uani 1 d
loop_
_atom_site_aniso_label
_atom_site_aniso_U_11
_atom_site_aniso_U_22
_atom_site_aniso_U_33
_atom_site_aniso_U_23
_atom_site_aniso_U_13
_atom_site_aniso_U_12
C1 0.0171(7) 0.0180(7) 0.0158(6) -0.0024(5) -0.0049(5) -0.0034(5)
C2 0.0179(7) 0.0179(7) 0.0153(6) -0.0049(5) -0.0010(5) -0.0047(6)
C3 0.0169(7) 0.0207(7) 0.0156(6) -0.0048(5) -0.0043(5) -0.0021(5)
C4 0.0209(8) 0.0202(7) 0.0200(7) -0.0066(5) -0.0016(6) -0.0084(6)
C5 0.0270(8) 0.0132(7) 0.0202(7) -0.0028(5) -0.0008(6) -0.0038(6)
C6 0.0210(8) 0.0182(7) 0.0246(7) -0.0022(6) -0.0085(6) -0.0004(6)
C7 0.0177(7) 0.0213(7) 0.0219(7) -0.0059(5) -0.0042(5) -0.0056(6)
C8 0.0175(7) 0.0167(7) 0.0152(6) -0.0038(5) -0.0020(5) -0.0048(5)
C13 0.0131(7) 0.0192(7) 0.0163(6) -0.0038(5) -0.0057(5) -0.0005(5)
C12 0.0144(7) 0.0223(7) 0.0209(7) -0.0062(6) -0.0011(5) -0.0096(6)
C11 0.0219(8) 0.0150(7) 0.0186(7) -0.0023(5) -0.0033(6) -0.0035(6)
C10 0.0172(7) 0.0190(7) 0.0206(7) -0.0031(5) -0.0082(5) -0.0024(5)
C9 0.0162(7) 0.0212(7) 0.0214(7) -0.0055(5) -0.0052(5) -0.0068(6)
N1 0.0171(6) 0.0164(6) 0.0191(6) -0.0015(4) -0.0045(4) -0.0047(5)
F1 0.0221(5) 0.0253(4) 0.0287(5) -0.0001(3) -0.0128(4) -0.0081(4)
F2 0.0353(5) 0.0146(4) 0.0355(5) 0.0027(3) -0.0107(4) -0.0069(4)
F4 0.0172(4) 0.0231(4) 0.0293(5) 0.0010(3) -0.0121(3) -0.0049(3)
F3 0.0171(4) 0.0236(4) 0.0361(5) -0.0003(3) -0.0079(3) -0.0108(3)
loop_
_atom_type_symbol
_atom_type_description
_atom_type_scat_dispersion_real
_atom_type_scat_dispersion_imag
_atom_type_scat_source
C C 0.0033 0.0016 'International Tables Vol C Tables 4.2.6.8 and 6.1.1.4'
H H 0 0 'International Tables Vol C Tables 4.2.6.8 and 6.1.1.4'
F F 0.0171 0.0103 'International Tables Vol C Tables 4.2.6.8 and 6.1.1.4'
N N 0.0061 0.0033 'International Tables Vol C Tables 4.2.6.8 and 6.1.1.4'
loop_
_geom_angle_atom_site_label_1
_geom_angle_atom_site_label_2
_geom_angle_atom_site_label_3
_geom_angle
N1 C1 C2 120.62(13)
C3 C2 C1 121.60(13)
C3 C2 C7 117.06(12)
C7 C2 C1 121.34(13)
C4 C3 C2 123.49(13)
F1 C3 C2 118.62(12)
F1 C3 C4 117.88(12)
C5 C4 C3 116.44(13)
C4 C5 C6 123.82(13)
F2 C5 C4 117.74(13)
F2 C5 C6 118.44(13)
C5 C6 C7 117.60(13)
C6 C7 C2 121.58(13)
C13 C8 C9 117.34(12)
C13 C8 N1 116.39(12)
C9 C8 N1 126.25(12)
C12 C13 C8 120.84(13)
F4 C13 C8 120.44(12)
F4 C13 C12 118.71(12)
C11 C12 C13 121.97(13)
F3 C12 C13 118.00(12)
F3 C12 C11 120.03(12)
C12 C11 C10 117.76(12)
C9 C10 C11 121.13(13)
C10 C9 C8 120.88(13)
C1 N1 C8 119.25(12)
loop_
_geom_bond_atom_site_label_1
_geom_bond_atom_site_label_2
_geom_bond_distance
C1 C2 1.4645(19)
C1 N1 1.2709(19)
C2 C3 1.390(2)
C2 C7 1.3990(19)
C3 C4 1.378(2)
C3 F1 1.3554(15)
C4 C5 1.374(2)
C5 C6 1.381(2)
C5 F2 1.3558(15)
C6 C7 1.3855(19)
C8 C13 1.394(2)
C8 C9 1.4008(19)
C8 N1 1.4154(17)
C13 C12 1.378(2)
C13 F4 1.3459(15)
C12 C11 1.372(2)
C12 F3 1.3570(16)
C11 C10 1.391(2)
C10 C9 1.3806(19)
