#------------------------------------------------------------------------------
#$Date: 2016-03-26 22:53:30 +0200 (Sat, 26 Mar 2016) $
#$Revision: 180522 $
#$URL: svn://www.crystallography.net/cod/cif/7/21/91/7219126.cif $
#------------------------------------------------------------------------------
#
# This file is available in the Crystallography Open Database (COD),
# http://www.crystallography.net/
#
# All data on this site have been placed in the public domain by the
# contributors.
#
data_7219126
loop_
_publ_author_name
'Hern\'andez-Paredes, Javier'
'Olvera-Tapia, Ana L.'
'Arenas-Garc\'ia, Jenniffer I.'
'H\"opfl, Herbert'
'Morales-Rojas, Hugo'
'Herrera-Ruiz, Dea'
'Gonzaga-Morales, Ana I.'
'Rodr\'iguez-Fragoso, Lourdes'
_publ_section_title
;
 On molecular complexes derived from amino acids and nicotinamides in
 combination with boronic acids
;
_journal_issue                   28
_journal_name_full               CrystEngComm
_journal_page_first              5166
_journal_paper_doi               10.1039/C4CE01934B
_journal_volume                  17
_journal_year                    2015
_chemical_compound_source        'see text'
_chemical_formula_moiety         'C6 H6 B I O2, C5 H9 N O2'
_chemical_formula_sum            'C11 H15 B I N O4'
_chemical_formula_weight         362.95
_chemical_name_common
'cocrystal (I) of 4-iodophenylboronic acid with L-proline (1:1)'
_chemical_name_systematic        ' ?'
_chemical_properties_physical    moisture-sensitive
_space_group_IT_number           4
_symmetry_cell_setting           monoclinic
_symmetry_Int_Tables_number      4
_symmetry_space_group_name_Hall  'P 2yb'
_symmetry_space_group_name_H-M   'P 1 21 1'
_audit_update_record
;
2014-12-09 deposited with the CCDC.
2014-12-17 downloaded from the CCDC.
;
_cell_angle_alpha                90
_cell_angle_beta                 100.2942(21)
_cell_angle_gamma                90
_cell_formula_units_Z            2
_cell_length_a                   13.493(6)
_cell_length_b                   7.8123(33)
_cell_length_c                   6.5850(27)
_cell_measurement_temperature    293
_cell_volume                     683.0(5)
_computing_cell_refinement       Topas
_computing_data_reduction        Topas
_computing_molecular_graphics    'Mercury 3.3.2'
_computing_publication_material  'GSAS, WINGX and Platon'
_computing_structure_refinement  GSAS
_computing_structure_solution    Topas
_diffrn_ambient_temperature      293
_diffrn_detector                 'position sensitive detector'
_diffrn_detector_type            LynxEye
_diffrn_measurement_device_type  'Bruker D8 ADVANCE'
_diffrn_radiation_monochromator  'Ge (111)'
_diffrn_radiation_type           'Cu K\a~1~'
_diffrn_radiation_wavelength     1.5406
_diffrn_source                   X-ray
_diffrn_source_type              'Bruker AXS'
_exptl_absorpt_coefficient_mu    18.470
_exptl_crystal_density_diffrn    1.763
_exptl_crystal_density_method    'Not Measured'
_exptl_crystal_recrystallization_method
'Solvent assisted grinding: methanol, ethanol, acetonitrile, acet., acetone-water, 2-propanol and THF'
_pd_char_colour                  white
_pd_char_particle_morphology     'white powder (visual)'
_pd_instr_location               ' ?'
_pd_meas_2theta_range_inc        0.01947
_pd_meas_2theta_range_max        48.84969
_pd_meas_2theta_range_min        5.0
_pd_meas_number_of_points        2253
_pd_meas_scan_method             cont
_pd_prep_temperature             293
_pd_proc_2theta_range_inc        0.019
_pd_proc_2theta_range_max        48.85039
_pd_proc_2theta_range_min        5.0007
_pd_proc_info_excluded_regions   '31.6-31.8 and 45.3-45.6, impurity present'
_pd_proc_ls_background_function
;   GSAS Background function number 1 with 14 terms.
 Shifted Chebyshev function of 1st kind
      1:    673.793     2:   -399.624     3:    126.654     4:   -31.8702    
      5:    21.8503     6:   -42.8202     7:    45.9706     8:   -23.0519    
      9:    14.9235    10:    11.1692    11:   -10.2477    12:    4.01710    
     13:    1.99611    14:    2.98150    
;
_pd_proc_ls_peak_cutoff          0.00100
_pd_proc_ls_pref_orient_corr     ' ?'
_pd_proc_ls_profile_function
;
CW Profile function number 3 with  19 terms
 Pseudovoigt profile coefficients as parameterized in
 P. Thompson, D.E. Cox & J.B. Hastings (1987). J. Appl. Cryst.,20,79-83.
 Asymmetry correction of L.W. Finger, D.E. Cox & A. P. Jephcoat (1994).
 J. Appl. Cryst.,27,892-900.
 Peak tails are ignored  where the intensity is below 0.0010 times the peak
   Aniso. broadening axis   0.0   0.0   1.0
;
_pd_proc_ls_prof_R_factor        0.0456
_pd_proc_ls_prof_wR_expected     0.0323
_pd_proc_ls_prof_wR_factor       0.0615
_pd_spec_mounting                'Packed between thin slides of cellophane'
_pd_spec_mount_mode              transmission
_pd_spec_shape                   flat_sheet
_pd_spec_size_axial              10
_pd_spec_size_equat              10
_refine_ls_goodness_of_fit_all   1.95
_refine_ls_matrix_type           full
_refine_ls_number_parameters     117
_refine_ls_number_restraints     0
_refine_ls_R_Fsqd_factor         0.06190
_refine_ls_shift/su_max          0.02
_refine_ls_shift/su_mean         0.00
_refine_ls_weighting_scheme      sigma
_cod_data_source_file            c4ce01934b2.cif
_cod_data_source_block           ?
_cod_depositor_comments
'Adding full bibliography for 7219125--7219132.cif.'
_cod_original_cell_volume        683.0(8)
_cod_original_sg_symbol_H-M      'P 21'
_cod_database_code               7219126
loop_
_symmetry_equiv_pos_site_id
_symmetry_equiv_pos_as_xyz
1 x,y,z
2 -x,1/2+y,-z
loop_
_atom_site_label
_atom_site_type_symbol
_atom_site_thermal_displace_type
_atom_site_fract_x
_atom_site_fract_y
_atom_site_fract_z
_atom_site_occupancy
_atom_site_U_iso_or_equiv
I1 I Uiso 1.04654(13) 0.174(2) 0.8045(5) 1.000 0.076(3)
O1 O Uiso 0.5878(5) 0.469(2) 0.1059(17) 1.000 0.076(3)
O2 O Uiso 0.6612(4) 0.280(3) -0.1199(8) 1.000 0.076(3)
C1 C Uiso 0.7553(4) 0.317(2) 0.2479(9) 1.000 0.076(3)
C2 C Uiso 0.8338(3) 0.210(3) 0.2083(5) 1.000 0.076(3)
C3 C Uiso 0.91714(18) 0.172(3) 0.3623(4) 1.000 0.076(3)
O3 O Uiso 0.4367(9) 0.524(2) 0.8368(19) 1.000 0.076(3)
O4 O Uiso 0.5322(6) 0.398(2) 0.621(2) 1.000 0.076(3)
C4 C Uiso 0.9205(2) 0.243(2) 0.5583(5) 1.000 0.076(3)
C5 C Uiso 0.8450(3) 0.3518(19) 0.6041(10) 1.000 0.076(3)
C6 C Uiso 0.7630(4) 0.390(2) 0.4465(12) 1.000 0.076(3)
N1 N Uiso 0.4031(8) 0.463(2) 0.2748(19) 1.000 0.076(3)
B1 B Uiso 0.6633(4) 0.356(3) 0.0745(11) 1.000 0.076(3)
C7 C Uiso 0.4507(7) 0.471(2) 0.6577(19) 1.000 0.076(3)
C8 C Uiso 0.3652(7) 0.4950(17) 0.4760(18) 1.000 0.076(3)
C9 C Uiso 0.2776(5) 0.3654(14) 0.4762(13) 1.000 0.076(3)
C10 C Uiso 0.2500(5) 0.3052(12) 0.2498(11) 1.000 0.076(3)
C11 C Uiso 0.3513(6) 0.303(2) 0.1757(17) 1.000 0.076(3)
H1' H Uiso 0.5420(6) 0.488(2) 0.0040(18) 1.000 0.0800
H2 H Uiso 0.8307(2) 0.164(3) 0.0769(4) 1.000 0.0800
H2' H Uiso 0.6208(4) 0.321(3) -0.2199(10) 1.000 0.0800
H3 H Uiso 0.96793(11) 0.100(3) 0.3337(6) 1.000 0.0800
H5 H Uiso 0.8476(4) 0.3942(17) 0.7369(12) 1.000 0.0800
H6 H Uiso 0.7111(5) 0.4589(17) 0.4745(16) 1.000 0.0800
H1A H Uiso 0.4675(8) 0.450(3) 0.298(2) 1.000 0.0800
H1B H Uiso 0.3876(11) 0.551(2) 0.198(2) 1.000 0.0800
H8 H Uiso 0.3412(9) 0.6135(16) 0.474(2) 1.000 0.0800
H9A H Uiso 0.3008(6) 0.2693(17) 0.5655(12) 1.000 0.0800
H9B H Uiso 0.2216(6) 0.4181(15) 0.5269(16) 1.000 0.0800
H10A H Uiso 0.2185(3) 0.1932(10) 0.2397(10) 1.000 0.0800
H10B H Uiso 0.2035(7) 0.3839(10) 0.1678(14) 1.000 0.0800
H11A H Uiso 0.3920(3) 0.206(2) 0.231(2) 1.000 0.0800
H11B H Uiso 0.3482(8) 0.310(2) 0.0276(17) 1.000 0.0800
loop_
_atom_type_symbol
_atom_type_description
_atom_type_scat_dispersion_real
_atom_type_scat_dispersion_imag
_atom_type_scat_source
C C 0.0181 0.0091 ' International Tables Vol C Tables 4.2.6.8 and 6.1.1.4'
H H 0.0000 0.0000 ' International Tables Vol C Tables 4.2.6.8 and 6.1.1.4'
B B 0.0090 0.0039 ' International Tables Vol C Tables 4.2.6.8 and 6.1.1.4'
I I -0.3257 6.8362 ' International Tables Vol C Tables 4.2.6.8 and 6.1.1.4'
N N 0.0311 0.0180 ' International Tables Vol C Tables 4.2.6.8 and 6.1.1.4'
O O 0.0492 0.0322 ' International Tables Vol C Tables 4.2.6.8 and 6.1.1.4'
loop_
_audit_conform_dict_name
_audit_conform_dict_location
cif_core.dic ftp://ftp.iucr.org/pub/cif_core.dic
cif_pd.dic ftp://ftp.iucr.org/pub/cif_pd.dic
loop_
_geom_angle_atom_site_label_1
_geom_angle_atom_site_label_2
_geom_angle_atom_site_label_3
_geom_angle
_geom_angle_publ_flag
B1 O1 H1' 116.6(15) no
B1 O2 H2' 117(2) no
C2 C1 B1 120.4(8) yes
C6 C1 B1 121.1(10) yes
C2 C1 C6 118.5(6) no
C1 C2 C3 121.5(9) no
C2 C3 C4 118.2(12) no
I1 C4 C3 118.5(8) yes
C3 C4 C5 122.3(6) no
I1 C4 C5 119.2(5) yes
C4 C5 C6 118.4(7) no
C1 C6 C5 121.0(9) no
O2 B1 C1 117.9(12) yes
O1 B1 O2 120.5(9) yes
O1 B1 C1 121.6(10) yes
C8 N1 C11 107.9(10) yes
C1 C2 H2 119.4(10) no
C3 C2 H2 119.1(15) no
C4 C3 H3 121.5(6) no
C2 C3 H3 120.3(10) no
C4 C5 H5 120.8(8) no
C6 C5 H5 120.7(10) no
C1 C6 H6 119.0(10) no
C5 C6 H6 119.9(11) no
C8 N1 H1B 107.3(16) no
C11 N1 H1A 111(2) no
C8 N1 H1A 110.5(14) no
H1A N1 H1B 109(2) no
C11 N1 H1B 111.2(15) no
O3 C7 C8 117.7(10) yes
O3 C7 O4 125.2(12) yes
O4 C7 C8 117.2(11) yes
N1 C8 C7 109.8(9) yes
N1 C8 C9 105.5(9) yes
C7 C8 C9 112.9(10) no
C8 C9 C10 104.5(7) no
C9 C10 C11 103.7(6) no
N1 C11 C10 102.8(9) yes
N1 C8 H8 107.7(13) no
C7 C8 H8 109.3(13) no
C9 C8 H8 111.4(11) no
C8 C9 H9A 109.9(9) no
C8 C9 H9B 111.3(12) no
C10 C9 H9A 110.2(11) no
C10 C9 H9B 113.1(9) no
H9A C9 H9B 107.8(11) no
C9 C10 H10A 111.6(8) no
C9 C10 H10B 111.4(9) no
C11 C10 H10A 111.9(9) no
C11 C10 H10B 110.8(10) no
H10A C10 H10B 107.6(9) no
N1 C11 H11A 107.2(12) no
N1 C11 H11B 108.6(15) no
C10 C11 H11A 111.6(12) no
C10 C11 H11B 116.0(10) no
H11A C11 H11B 110.0(16) no
loop_
_geom_bond_atom_site_label_1
_geom_bond_atom_site_label_2
_geom_bond_distance
_geom_bond_publ_flag
I1 C4 2.197(7) yes
O1 B1 1.391(19) yes
O2 B1 1.407(16) yes
O1 H1' 0.840(15) no
O2 H2' 0.840(15) no
C1 B1 1.559(10) yes
C1 C2 1.410(18) no
C1 C6 1.413(13) no
C2 C3 1.405(8) no
O3 C7 1.295(18) yes
C3 C4 1.398(12) no
C4 C5 1.400(14) no
O4 C7 1.299(15) yes
C5 C6 1.407(10) no
N1 C11 1.52(2) yes
N1 C8 1.524(17) yes
C2 H2 0.931(13) no
C3 H3 0.93(2) no
C5 H5 0.930(12) no
C6 H6 0.928(14) no
N1 H1A 0.861(16) no
N1 H1B 0.86(2) no
C7 C8 1.518(16) no
C8 C9 1.557(14) no
C9 C10 1.544(11) no
C10 C11 1.531(11) no
C8 H8 0.980(18) no
C9 H9A 0.970(15) no
C9 H9B 0.971(12) no
C10 H10A 0.970(12) no
C10 H10B 0.971(12) no
C11 H11A 0.968(19) no
C11 H11B 0.970(16) no
loop_
_geom_hbond_atom_site_label_D
_geom_hbond_atom_site_label_H
_geom_hbond_atom_site_label_A
_geom_hbond_distance_DH
_geom_hbond_distance_HA
_geom_hbond_distance_DA
_geom_hbond_angle_DHA
_geom_hbond_site_symmetry_A
_geom_hbond_publ_flag
O1 H1' O3 0.840(15) 1.659(16) 2.488(16) 168.7(13) 1_554 yes
O1 H1' O4 0.840(15) 2.599(18) 3.195(17) 129.0(12) 1_554 yes
N1 H1A O1 0.861(16) 2.234(15) 2.905(14) 134.8(15) 1_555 yes
N1 H1A O4 0.861(16) 2.188(19) 2.659(17) 114.2(13) 1_555 yes
N1 H1B O2 0.86(2) 1.94(3) 2.76(3) 158.4(16) 2_655 yes
O2 H2' O4 0.840(15) 1.562(16) 2.394(16) 169.9(9) 1_554 yes
C2 H2 O2 0.931(13) 2.583(13) 2.932(9) 102.7(12) 1_555 yes
C11 H11B O3 0.970(16) 2.517(19) 3.195(18) 126.9(13) 1_554 yes
loop_
_geom_torsion_atom_site_label_1
_geom_torsion_atom_site_label_2
_geom_torsion_atom_site_label_3
_geom_torsion_atom_site_label_4
_geom_torsion
_geom_torsion_publ_flag
C6 C1 C2 C3 2(2) no
B1 C1 C2 C3 -179.6(16) no
C2 C1 C6 C5 -3(2) no
B1 C1 C6 C5 178.6(13) no
C2 C1 B1 O1 -176.2(15) no
C2 C1 B1 O2 1(2) no
C6 C1 B1 O1 3(2) no
C6 C1 B1 O2 179.4(15) no
C1 C2 C3 C4 0(3) no
C2 C3 C4 I1 176.9(13) no
C2 C3 C4 C5 -1(2) no
I1 C4 C5 C6 -177.8(10) no
C3 C4 C5 C6 0(2) no
C4 C5 C6 C1 1.7(18) no
C8 N1 C11 C10 29.8(12) no
C11 N1 C8 C7 113.6(11) no
C11 N1 C8 C9 -8.4(12) no
O3 C7 C8 N1 167.4(14) no
O3 C7 C8 C9 -75.2(16) no
O4 C7 C8 N1 -12.9(18) no
O4 C7 C8 C9 104.5(14) no
N1 C8 C9 C10 -16.3(11) no
C7 C8 C9 C10 -136.3(9) no
C8 C9 C10 C11 34.8(10) no
C9 C10 C11 N1 -39.6(11) no
