#------------------------------------------------------------------------------
#$Date: 2016-03-26 23:02:33 +0200 (Sat, 26 Mar 2016) $
#$Revision: 180527 $
#$URL: svn://www.crystallography.net/cod/cif/7/21/96/7219648.cif $
#------------------------------------------------------------------------------
#
# This file is available in the Crystallography Open Database (COD),
# http://www.crystallography.net/
#
# All data on this site have been placed in the public domain by the
# contributors.
#
data_7219648
loop_
_publ_author_name
'Lemmerer, Andreas'
'Govindraju, Stefan'
'Johnston, Marcelle'
'Motloung, Xolani'
'Savig, Kelsey L.'
_publ_section_title
;
 Co-crystals and molecular salts of carboxylic acid/pyridine complexes:
 can calculated pKa's predict proton transfer? A case study of nine
 complexes
;
_journal_issue                   19
_journal_name_full               CrystEngComm
_journal_page_first              3591
_journal_paper_doi               10.1039/C5CE00102A
_journal_volume                  17
_journal_year                    2015
_chemical_formula_moiety         'C7 H3 Cl N O4, C5 H6 Cl N2'
_chemical_formula_sum            'C12 H9 Cl2 N3 O4'
_chemical_formula_weight         330.12
_chemical_name_systematic
;
 (2-chloro-4-nitrobenzoate)(2-amino-5-chloropyridinium)
;
_space_group_IT_number           2
_symmetry_cell_setting           triclinic
_symmetry_space_group_name_Hall  '-P 1'
_symmetry_space_group_name_H-M   'P -1'
_atom_sites_solution_hydrogens   geom
_atom_sites_solution_primary     direct
_atom_sites_solution_secondary   difmap
_audit_conform_dict_location     ftp://ftp.iucr.org/pub/cif_core.dic
_audit_conform_dict_name         cif_core.dic
_audit_conform_dict_version      2.3
_audit_creation_date             2012-11-02T08:30:20-00:00
_audit_creation_method           'WinGX routine CIF_UPDATE'
_audit_update_record
;
2014-11-18 deposited with the CCDC.
2015-02-24 downloaded from the CCDC.
;
_cell_angle_alpha                93.742(2)
_cell_angle_beta                 91.893(2)
_cell_angle_gamma                96.066(2)
_cell_formula_units_Z            2
_cell_length_a                   3.8601(2)
_cell_length_b                   12.3629(6)
_cell_length_c                   13.9025(7)
_cell_measurement_reflns_used    2692
_cell_measurement_temperature    173(2)
_cell_measurement_theta_max      28.4
_cell_measurement_theta_min      2.29
_cell_volume                     657.80(6)
_computing_cell_refinement       'SAINT-Plus (Bruker, 2007)'
_computing_data_collection       'APEX3 (Bruker, 2007)'
_computing_data_reduction        'SAINT-Plus (Bruker 2007)'
_computing_molecular_graphics
;
Ortep-3 for Windows (Farrugia, 1997) and DIAMOND (Brandenburg, 1999)
;
_computing_publication_material
;
WinGX publication routines (Farrugia, 1999) and PLATON (Spek, 2009)
;
_computing_structure_refinement  'SHELXL-97 (Sheldrick, 2008)'
_computing_structure_solution    'SHELXS-97 (Sheldrick, 2008)'
_diffrn_ambient_temperature      173(2)
_diffrn_measured_fraction_theta_full 0.997
_diffrn_measured_fraction_theta_max 0.997
_diffrn_measurement_device_type  'Bruker D8 Venture Photon CMOS'
_diffrn_measurement_method       '\w scans'
_diffrn_radiation_monochromator  graphite
_diffrn_radiation_type           MoK\a
_diffrn_radiation_wavelength     0.71073
_diffrn_reflns_av_R_equivalents  0.1084
_diffrn_reflns_av_unetI/netI     0.0914
_diffrn_reflns_limit_h_max       5
_diffrn_reflns_limit_h_min       -4
_diffrn_reflns_limit_k_max       16
_diffrn_reflns_limit_k_min       -16
_diffrn_reflns_limit_l_max       18
_diffrn_reflns_limit_l_min       -15
_diffrn_reflns_number            7798
_diffrn_reflns_theta_full        28
_diffrn_reflns_theta_max         28
_diffrn_reflns_theta_min         1.47
_diffrn_standards_number         0
_exptl_absorpt_coefficient_mu    0.513
_exptl_absorpt_correction_T_max  0.9864
_exptl_absorpt_correction_T_min  0.8542
_exptl_absorpt_correction_type   integration
_exptl_absorpt_process_details   'Bruker XPREP (Bruker, 2004)'
_exptl_crystal_colour            colourless
_exptl_crystal_density_diffrn    1.667
_exptl_crystal_density_meas      0
_exptl_crystal_density_method    'not measured'
_exptl_crystal_description       needle
_exptl_crystal_F_000             336
_exptl_crystal_size_max          0.802
_exptl_crystal_size_mid          0.053
_exptl_crystal_size_min          0.032
_refine_diff_density_max         0.373
_refine_diff_density_min         -0.306
_refine_diff_density_rms         0.068
_refine_ls_extinction_method     none
_refine_ls_goodness_of_fit_ref   0.92
_refine_ls_hydrogen_treatment    mixed
_refine_ls_matrix_type           full
_refine_ls_number_parameters     202
_refine_ls_number_reflns         3158
_refine_ls_number_restraints     0
_refine_ls_restrained_S_all      0.92
_refine_ls_R_factor_all          0.0642
_refine_ls_R_factor_gt           0.0422
_refine_ls_shift/su_max          0.001
_refine_ls_shift/su_mean         0
_refine_ls_structure_factor_coef Fsqd
_refine_ls_weighting_details
'calc w=1/[\s^2^(Fo^2^)+(0.0294P)^2^] where P=(Fo^2^+2Fc^2^)/3'
_refine_ls_weighting_scheme      calc
_refine_ls_wR_factor_gt          0.0896
_refine_ls_wR_factor_ref         0.0978
_reflns_number_gt                2221
_reflns_number_total             3158
_reflns_threshold_expression     >2sigma(I)
_cod_data_source_file            c5ce00102a4.cif
_cod_data_source_block           8
_cod_depositor_comments
;
The following automatic conversions were performed:

'_symmetry_cell_setting' value 'Triclinic' changed to 'triclinic'
according to
/usr/data/users/saulius/crontab/automatic-downloads/rss-feeds/RSC/lib/dictionaries/cif_core.dic
dictionary named 'cif_core.dic' version 2.4.2 from 2011-04-26.

Automatic conversion script
Id: cif_fix_values 3008 2015-01-20 13:52:24Z robertas 

 Adding full bibliography for 7219641--7219649.cif.
;
_cod_original_sg_symbol_H-M      P-1
_cod_database_code               7219648
loop_
_symmetry_equiv_pos_as_xyz
'x, y, z'
'-x, -y, -z'
loop_
_atom_site_label
_atom_site_type_symbol
_atom_site_fract_x
_atom_site_fract_y
_atom_site_fract_z
_atom_site_U_iso_or_equiv
_atom_site_adp_type
_atom_site_occupancy
_atom_site_symmetry_multiplicity
_atom_site_calc_flag
_atom_site_refinement_flags
C1 C 0.3117(5) 0.28411(16) 0.21251(13) 0.0216(4) Uani 1 1 d .
C2 C 0.2761(5) 0.35914(16) 0.14324(13) 0.0230(4) Uani 1 1 d .
C3 C 0.1002(5) 0.32879(16) 0.05505(13) 0.0240(4) Uani 1 1 d .
H3 H 0.0773 0.3802 0.008 0.029 Uiso 1 1 calc R
C4 C -0.0395(5) 0.22202(17) 0.03812(13) 0.0236(4) Uani 1 1 d .
C5 C -0.0100(5) 0.14463(17) 0.10342(14) 0.0273(5) Uani 1 1 d .
H5 H -0.1089 0.0714 0.0895 0.033 Uiso 1 1 calc R
C6 C 0.1679(5) 0.17659(17) 0.18993(13) 0.0258(4) Uani 1 1 d .
H6 H 0.1935 0.1238 0.2356 0.031 Uiso 1 1 calc R
C7 C 0.4892(5) 0.31060(17) 0.31191(13) 0.0242(4) Uani 1 1 d .
N1 N -0.2354(5) 0.19117(16) -0.05458(12) 0.0317(4) Uani 1 1 d .
O1 O 0.6270(4) 0.23242(12) 0.34558(9) 0.0310(4) Uani 1 1 d .
O2 O 0.4855(4) 0.40286(13) 0.35290(10) 0.0384(4) Uani 1 1 d .
O3 O -0.3546(5) 0.09608(15) -0.07120(12) 0.0583(5) Uani 1 1 d .
O4 O -0.2772(5) 0.26229(15) -0.10876(11) 0.0489(5) Uani 1 1 d .
Cl1 Cl 1.37114(14) 0.02173(5) 0.65463(4) 0.03368(15) Uani 1 1 d .
C8 C 0.9126(5) 0.32588(16) 0.57845(13) 0.0219(4) Uani 1 1 d .
C9 C 1.0285(5) 0.31503(17) 0.67469(13) 0.0261(4) Uani 1 1 d .
H9 H 1.005 0.3714 0.7231 0.031 Uiso 1 1 calc R
C10 C 1.1735(5) 0.22412(18) 0.69790(14) 0.0272(4) Uani 1 1 d .
H10 H 1.2487 0.2163 0.7626 0.033 Uiso 1 1 calc R
C11 C 1.2113(5) 0.14173(17) 0.62548(14) 0.0238(4) Uani 1 1 d .
C12 C 1.1055(5) 0.15496(16) 0.53356(14) 0.0243(4) Uani 1 1 d .
H12 H 1.1352 0.1003 0.4842 0.029 Uiso 1 1 calc R
N2 N 0.9575(4) 0.24548(13) 0.51112(11) 0.0222(4) Uani 1 1 d .
H2 H 0.838(6) 0.2490(19) 0.4418(18) 0.049(7) Uiso 1 1 d .
N3 N 0.7566(5) 0.40968(15) 0.55124(14) 0.0279(4) Uani 1 1 d .
H3A H 0.677(6) 0.4124(19) 0.4883(18) 0.043(7) Uiso 1 1 d .
H3B H 0.725(6) 0.459(2) 0.5897(18) 0.041(7) Uiso 1 1 d .
Cl2 Cl 0.45659(14) 0.49418(4) 0.15882(4) 0.03372(15) Uani 1 1 d .
loop_
_atom_site_aniso_label
_atom_site_aniso_U_11
_atom_site_aniso_U_22
_atom_site_aniso_U_33
_atom_site_aniso_U_23
_atom_site_aniso_U_13
_atom_site_aniso_U_12
C1 0.0219(9) 0.0236(11) 0.0198(9) 0.0001(8) 0.0007(8) 0.0061(8)
C2 0.0236(10) 0.0218(11) 0.0238(9) 0.0000(8) 0.0016(8) 0.0047(8)
C3 0.0292(10) 0.0251(11) 0.0191(9) 0.0059(8) -0.0005(8) 0.0072(8)
C4 0.0262(10) 0.0272(11) 0.0175(9) -0.0024(8) -0.0022(8) 0.0061(8)
C5 0.0315(11) 0.0231(11) 0.0263(10) -0.0022(8) -0.0018(9) 0.0015(8)
C6 0.0331(11) 0.0232(11) 0.0222(9) 0.0048(8) -0.0010(8) 0.0071(9)
C7 0.0269(10) 0.0283(12) 0.0177(9) 0.0005(8) -0.0002(8) 0.0055(9)
N1 0.0352(10) 0.0376(12) 0.0219(9) -0.0029(8) -0.0030(7) 0.0067(8)
O1 0.0441(9) 0.0278(9) 0.0222(7) -0.0002(6) -0.0080(6) 0.0129(7)
O2 0.0587(10) 0.0300(9) 0.0268(8) -0.0080(7) -0.0114(7) 0.0171(8)
O3 0.0855(14) 0.0403(12) 0.0422(10) -0.0046(8) -0.0268(9) -0.0122(10)
O4 0.0729(12) 0.0474(12) 0.0258(8) 0.0056(8) -0.0195(8) 0.0086(9)
Cl1 0.0356(3) 0.0297(3) 0.0374(3) 0.0107(2) -0.0048(2) 0.0084(2)
C8 0.0214(9) 0.0225(11) 0.0207(9) 0.0015(8) -0.0001(8) -0.0022(8)
C9 0.0282(10) 0.0288(12) 0.0200(9) -0.0022(8) -0.0010(8) 0.0002(8)
C10 0.0254(10) 0.0362(13) 0.0191(9) 0.0058(8) -0.0048(8) -0.0007(9)
C11 0.0216(9) 0.0231(11) 0.0268(10) 0.0069(8) -0.0021(8) 0.0010(8)
C12 0.0283(10) 0.0212(11) 0.0231(9) 0.0000(8) -0.0014(8) 0.0029(8)
N2 0.0264(9) 0.0226(9) 0.0177(8) 0.0027(6) -0.0015(7) 0.0026(7)
N3 0.0355(10) 0.0232(10) 0.0251(9) -0.0009(8) -0.0026(8) 0.0061(8)
Cl2 0.0439(3) 0.0219(3) 0.0338(3) 0.0020(2) -0.0034(2) -0.0017(2)
loop_
_atom_type_symbol
_atom_type_description
_atom_type_scat_dispersion_real
_atom_type_scat_dispersion_imag
_atom_type_scat_source
C C 0.0033 0.0016 'International Tables Vol C Tables 4.2.6.8 and 6.1.1.4'
H H 0 0 'International Tables Vol C Tables 4.2.6.8 and 6.1.1.4'
N N 0.0061 0.0033 'International Tables Vol C Tables 4.2.6.8 and 6.1.1.4'
O O 0.0106 0.006 'International Tables Vol C Tables 4.2.6.8 and 6.1.1.4'
Cl Cl 0.1484 0.1585 'International Tables Vol C Tables 4.2.6.8 and 6.1.1.4'
loop_
_exptl_crystal_face_index_h
_exptl_crystal_face_index_k
_exptl_crystal_face_index_l
_exptl_crystal_face_perp_dist
-1 -1 1 0.355
1 1 -1 0.168
0 -1 0 0.016
0 1 0 0.012
0 0 1 0.025
0 0 -1 0.012
loop_
_geom_angle_atom_site_label_1
_geom_angle_atom_site_label_2
_geom_angle_atom_site_label_3
_geom_angle
C2 C1 C6 117.64(17)
C2 C1 C7 125.06(18)
C6 C1 C7 117.29(18)
C3 C2 C1 121.41(19)
C3 C2 Cl2 115.63(16)
C1 C2 Cl2 122.93(14)
C4 C3 C2 117.91(19)
C4 C3 H3 121
C2 C3 H3 121
C5 C4 C3 123.10(17)
C5 C4 N1 119.31(19)
C3 C4 N1 117.58(19)
C4 C5 C6 117.84(19)
C4 C5 H5 121.1
C6 C5 H5 121.1
C5 C6 C1 122.08(19)
C5 C6 H6 119
C1 C6 H6 119
O2 C7 O1 125.86(17)
O2 C7 C1 119.86(17)
O1 C7 C1 114.27(16)
O4 N1 O3 123.57(18)
O4 N1 C4 118.26(19)
O3 N1 C4 118.13(19)
N3 C8 N2 118.11(18)
N3 C8 C9 123.52(18)
N2 C8 C9 118.35(17)
C10 C9 C8 120.10(17)
C10 C9 H9 120
C8 C9 H9 120
C9 C10 C11 119.55(18)
C9 C10 H10 120.2
C11 C10 H10 120.2
C12 C11 C10 119.30(19)
C12 C11 Cl1 120.30(15)
C10 C11 Cl1 120.32(15)
C11 C12 N2 120.79(17)
C11 C12 H12 119.6
N2 C12 H12 119.6
C8 N2 C12 121.88(17)
C8 N2 H2 117.5(12)
C12 N2 H2 120.0(12)
C8 N3 H3A 120.9(14)
C8 N3 H3B 120.5(18)
H3A N3 H3B 119(2)
loop_
_geom_bond_atom_site_label_1
_geom_bond_atom_site_label_2
_geom_bond_distance
C1 C2 1.393(3)
C1 C6 1.397(3)
C1 C7 1.522(3)
C2 C3 1.392(3)
C2 Cl2 1.737(2)
C3 C4 1.374(3)
C3 H3 0.95
C4 C5 1.372(3)
C4 N1 1.479(2)
C5 C6 1.378(3)
C5 H5 0.95
C6 H6 0.95
C7 O2 1.243(2)
C7 O1 1.260(2)
N1 O4 1.214(2)
N1 O3 1.221(2)
Cl1 C11 1.733(2)
C8 N3 1.322(3)
C8 N2 1.349(2)
C8 C9 1.416(3)
C9 C10 1.360(3)
C9 H9 0.95
C10 C11 1.407(3)
C10 H10 0.95
C11 C12 1.354(3)
C12 N2 1.358(2)
C12 H12 0.95
N2 H2 1.06(3)
N3 H3A 0.92(2)
N3 H3B 0.80(2)
loop_
_geom_hbond_atom_site_label_D
_geom_hbond_atom_site_label_H
_geom_hbond_atom_site_label_A
_geom_hbond_distance_DH
_geom_hbond_distance_HA
_geom_hbond_distance_DA
_geom_hbond_angle_DHA
_geom_hbond_site_symmetry_A
N2 H2 O1 1.06(3) 1.53(2) 2.5817(19) 169(2) .
N3 H3A O2 0.92(2) 1.99(2) 2.910(2) 174(2) .
N3 H3B O2 0.80(2) 2.09(2) 2.856(2) 158(2) 2_666
loop_
_geom_torsion_atom_site_label_1
_geom_torsion_atom_site_label_2
_geom_torsion_atom_site_label_3
_geom_torsion_atom_site_label_4
_geom_torsion
C6 C1 C2 C3 0.8(3)
C7 C1 C2 C3 -177.96(17)
C6 C1 C2 Cl2 -177.21(14)
C7 C1 C2 Cl2 4.0(3)
C1 C2 C3 C4 0.2(3)
Cl2 C2 C3 C4 178.31(14)
C2 C3 C4 C5 -0.7(3)
C2 C3 C4 N1 178.18(16)
C3 C4 C5 C6 0.2(3)
N1 C4 C5 C6 -178.65(17)
C4 C5 C6 C1 0.8(3)
C2 C1 C6 C5 -1.3(3)
C7 C1 C6 C5 177.54(17)
C2 C1 C7 O2 30.1(3)
C6 C1 C7 O2 -148.6(2)
C2 C1 C7 O1 -150.65(19)
C6 C1 C7 O1 30.6(3)
C5 C4 N1 O4 175.45(18)
C3 C4 N1 O4 -3.5(3)
C5 C4 N1 O3 -2.5(3)
C3 C4 N1 O3 178.55(19)
N3 C8 C9 C10 177.2(2)
N2 C8 C9 C10 -1.5(3)
C8 C9 C10 C11 0.8(3)
C9 C10 C11 C12 0.7(3)
C9 C10 C11 Cl1 -176.14(15)
C10 C11 C12 N2 -1.4(3)
Cl1 C11 C12 N2 175.43(15)
N3 C8 N2 C12 -177.93(18)
C9 C8 N2 C12 0.9(3)
C11 C12 N2 C8 0.6(3)
