#------------------------------------------------------------------------------
#$Date: 2016-03-26 23:00:42 +0200 (Sat, 26 Mar 2016) $
#$Revision: 180526 $
#$URL: svn://www.crystallography.net/cod/cif/7/21/95/7219502.cif $
#------------------------------------------------------------------------------
#
# This file is available in the Crystallography Open Database (COD),
# http://www.crystallography.net/
#
# All data on this site have been placed in the public domain by the
# contributors.
#
data_7219502
loop_
_publ_author_name
'D\"oring, Cindy'
'N\"ather, Christian'
'Jess, Inke'
'Ibrom, Kerstin'
'Jones, Peter G.'
_publ_section_title
;
 Two polymorphs of 4-hydroxypiperidine with different NH configurations
;
_journal_issue                   28
_journal_name_full               CrystEngComm
_journal_page_first              5206
_journal_paper_doi               10.1039/C4CE02477J
_journal_volume                  17
_journal_year                    2015
_chemical_formula_sum            'C5 H12 Cl N O'
_chemical_formula_weight         137.61
_chemical_name_systematic
;
 ?
;
_space_group_IT_number           14
_symmetry_cell_setting           monoclinic
_symmetry_space_group_name_Hall  '-P 2yn'
_symmetry_space_group_name_H-M   'P 1 21/n 1'
_atom_sites_solution_hydrogens   geom
_atom_sites_solution_primary     direct
_atom_sites_solution_secondary   difmap
_audit_creation_method           SHELXL-97
_audit_update_record
;
2014-12-02 deposited with the CCDC.
2015-02-04 downloaded from the CCDC.
;
_cell_angle_alpha                90.00
_cell_angle_beta                 101.745(5)
_cell_angle_gamma                90.00
_cell_formula_units_Z            4
_cell_length_a                   5.3800(2)
_cell_length_b                   20.4924(11)
_cell_length_c                   6.4026(3)
_cell_measurement_reflns_used    5056
_cell_measurement_temperature    100(2)
_cell_measurement_theta_max      29.9860
_cell_measurement_theta_min      3.7980
_cell_volume                     691.10(6)
_computing_cell_refinement
;
CrysAlisPro, Agilent Technologies,
Version 1.171.36.28 (release 01-02-2013 CrysAlis171 .NET)
(compiled Feb  1 2013,16:14:44)
;
_computing_data_collection
;
CrysAlisPro, Agilent Technologies,
Version 1.171.36.28 (release 01-02-2013 CrysAlis171 .NET)
(compiled Feb  1 2013,16:14:44)
;
_computing_data_reduction
;
CrysAlisPro, Agilent Technologies,
Version 1.171.36.28 (release 01-02-2013 CrysAlis171 .NET)
(compiled Feb  1 2013,16:14:44)
;
_computing_molecular_graphics    'Bruker XP'
_computing_publication_material  SHELXL-97
_computing_structure_refinement  'SHELXL-97 (Sheldrick, 1997)'
_computing_structure_solution    'SHELXS-97 (Sheldrick, 1990)'
_diffrn_ambient_temperature      100(2)
_diffrn_detector_area_resol_mean 16.1419
_diffrn_measured_fraction_theta_full 0.989
_diffrn_measured_fraction_theta_max 0.947
_diffrn_measurement_device_type  'Oxford Diffraction Xcalibur, Eos'
_diffrn_measurement_method       '\w scan'
_diffrn_radiation_monochromator  graphite
_diffrn_radiation_source         'Enhance (Mo) X-ray Source'
_diffrn_radiation_type           MoK\a
_diffrn_radiation_wavelength     0.71073
_diffrn_reflns_av_R_equivalents  0.0401
_diffrn_reflns_av_sigmaI/netI    0.0252
_diffrn_reflns_limit_h_max       7
_diffrn_reflns_limit_h_min       -7
_diffrn_reflns_limit_k_max       28
_diffrn_reflns_limit_k_min       -28
_diffrn_reflns_limit_l_max       9
_diffrn_reflns_limit_l_min       -9
_diffrn_reflns_number            18001
_diffrn_reflns_theta_full        30.00
_diffrn_reflns_theta_max         30.80
_diffrn_reflns_theta_min         3.40
_exptl_absorpt_coefficient_mu    0.460
_exptl_absorpt_correction_T_max  1.00000
_exptl_absorpt_correction_T_min  0.98302
_exptl_absorpt_correction_type   multi-scan
_exptl_absorpt_process_details
;
CrysAlisPro, Agilent Technologies,
Version 1.171.36.28 (release 01-02-2013 CrysAlis171 .NET)
(compiled Feb  1 2013,16:14:44)
;
_exptl_crystal_colour            colourless
_exptl_crystal_density_diffrn    1.323
_exptl_crystal_density_method    'not measured'
_exptl_crystal_description       block
_exptl_crystal_F_000             296
_exptl_crystal_size_max          0.35
_exptl_crystal_size_mid          0.35
_exptl_crystal_size_min          0.15
_refine_diff_density_max         0.371
_refine_diff_density_min         -0.220
_refine_diff_density_rms         0.053
_refine_ls_extinction_method     none
_refine_ls_goodness_of_fit_ref   1.048
_refine_ls_hydrogen_treatment    mixed
_refine_ls_matrix_type           full
_refine_ls_number_parameters     85
_refine_ls_number_reflns         2057
_refine_ls_number_restraints     0
_refine_ls_restrained_S_all      1.048
_refine_ls_R_factor_all          0.0387
_refine_ls_R_factor_gt           0.0300
_refine_ls_shift/su_max          0.005
_refine_ls_shift/su_mean         0.001
_refine_ls_structure_factor_coef Fsqd
_refine_ls_weighting_details
'calc w=1/[\s^2^(Fo^2^)+(0.0267P)^2^+0.2508P] where P=(Fo^2^+2Fc^2^)/3'
_refine_ls_weighting_scheme      calc
_refine_ls_wR_factor_gt          0.0640
_refine_ls_wR_factor_ref         0.0687
_reflns_number_gt                1788
_reflns_number_total             2057
_reflns_threshold_expression     >2sigma(I)
_iucr_refine_instructions_details
;
TITL Meppen in P2(1)/n
REM P2(1)/n (#14 in standard setting)
CELL 0.71073   5.380009  20.492354   6.402593  90.0000 101.7446  90.0000
ZERR    4.00   0.000230   0.001116   0.000300   0.0000   0.0050   0.0000
LATT  1
SYMM  1/2 - X, 1/2 + Y, 1/2 - Z
SFAC  C    H    N    O    CL
UNIT  20   48   4    4    4

FMAP   2
PLAN   10

L.S.   4

SIZE 0.35 0.35 0.15
TEMP -173

OMIT 2 2 1
OMIT -2 2 2

ACTA 60
CONF

EQIV $1 x+1, y, z-1
EQIV $2 x, y, z-1
EQIV $3 -x+1, -y+1, -z+1
EQIV $4 x+1, y, z
EQIV $5 x+1/2, -y+1/2, z-1/2

HTAB O1 Cl1
HTAB N11 Cl1_$1
HTAB N11 Cl1_$2
HTAB C12 Cl1_$3
HTAB C12 Cl1_$4
HTAB C15 O1_$5
HTAB C16 O1_$4
HTAB C16 O1_$5

WGHT    0.026700    0.250800
FVAR       6.61828
CL1   5    0.204663    0.421291    0.931270    11.00000    0.01226    0.02614 =
         0.01514    0.00305    0.00499    0.00162
O1    4    0.383400    0.318258    0.625061    11.00000    0.03258    0.01864 =
         0.03332   -0.00264    0.02346   -0.00678
H03   2    0.348243    0.346682    0.707260    11.00000    0.03549
N11   3    0.766185    0.398278    0.180903    11.00000    0.01096    0.01791 =
         0.01506    0.00146    0.00480    0.00007
H01   2    0.881752    0.409946    0.108694    11.00000    0.02250
H02   2    0.614018    0.408345    0.099830    11.00000    0.02518
C12   1    0.797633    0.433773    0.387838    11.00000    0.01429    0.01534 =
         0.01562    0.00035    0.00357   -0.00273
AFIX  23
H12A  2    0.788267    0.481410    0.361700    11.00000   -1.20000
H12B  2    0.965916    0.423690    0.477452    11.00000   -1.20000
AFIX   0
C13   1    0.589406    0.413191    0.502950    11.00000    0.01565    0.01336 =
         0.01517   -0.00023    0.00575   -0.00073
AFIX  23
H13A  2    0.422137    0.426067    0.417125    11.00000   -1.20000
H13B  2    0.613052    0.435912    0.642058    11.00000   -1.20000
AFIX   0
C14   1    0.594173    0.339732    0.539090    11.00000    0.01741    0.01387 =
         0.01836    0.00198    0.00753   -0.00051
AFIX  13
H14   2    0.755182    0.327723    0.639917    11.00000   -1.20000
AFIX   0
C15   1    0.580408    0.303188    0.330328    11.00000    0.01740    0.01316 =
         0.02375   -0.00167    0.00970   -0.00094
AFIX  23
H15A  2    0.410562    0.309772    0.238510    11.00000   -1.20000
H15B  2    0.602231    0.255911    0.360329    11.00000   -1.20000
AFIX   0
C16   1    0.782606    0.325987    0.211595    11.00000    0.01689    0.01507 =
         0.02316   -0.00111    0.00959    0.00140
AFIX  23
H16A  2    0.952927    0.314135    0.293977    11.00000   -1.20000
H16B  2    0.757777    0.304071    0.071073    11.00000   -1.20000

HKLF    4
;
_cod_data_source_file            c4ce02477j2.cif
_cod_data_source_block           meppen
_cod_depositor_comments
'Adding full bibliography for 7219500--7219504.cif.'
_cod_original_sg_symbol_H-M      'P 21/n'
_cod_database_code               7219502
loop_
_symmetry_equiv_pos_as_xyz
'x, y, z'
'-x+1/2, y+1/2, -z+1/2'
'-x, -y, -z'
'x-1/2, -y-1/2, z-1/2'
loop_
_atom_site_label
_atom_site_type_symbol
_atom_site_fract_x
_atom_site_fract_y
_atom_site_fract_z
_atom_site_U_iso_or_equiv
_atom_site_adp_type
_atom_site_occupancy
_atom_site_symmetry_multiplicity
_atom_site_calc_flag
_atom_site_refinement_flags
Cl1 Cl 0.20466(5) 0.421291(14) 0.93127(4) 0.01753(8) Uani 1 1 d .
O1 O 0.38340(18) 0.31826(5) 0.62506(15) 0.0258(2) Uani 1 1 d .
H03 H 0.348(3) 0.3467(9) 0.707(3) 0.035(5) Uiso 1 1 d .
N11 N 0.76619(18) 0.39828(5) 0.18090(15) 0.01434(19) Uani 1 1 d .
H01 H 0.882(3) 0.4099(7) 0.109(2) 0.023(4) Uiso 1 1 d .
H02 H 0.614(3) 0.4083(7) 0.100(2) 0.025(4) Uiso 1 1 d .
C12 C 0.7976(2) 0.43377(5) 0.38784(17) 0.0150(2) Uani 1 1 d .
H12A H 0.7883 0.4814 0.3617 0.018 Uiso 1 1 calc R
H12B H 0.9659 0.4237 0.4775 0.018 Uiso 1 1 calc R
C13 C 0.5894(2) 0.41319(5) 0.50295(17) 0.0144(2) Uani 1 1 d .
H13A H 0.4221 0.4261 0.4171 0.017 Uiso 1 1 calc R
H13B H 0.6131 0.4359 0.6421 0.017 Uiso 1 1 calc R
C14 C 0.5942(2) 0.33973(5) 0.53909(18) 0.0160(2) Uani 1 1 d .
H14 H 0.7552 0.3277 0.6399 0.019 Uiso 1 1 calc R
C15 C 0.5804(2) 0.30319(6) 0.33033(19) 0.0173(2) Uani 1 1 d .
H15A H 0.4106 0.3098 0.2385 0.021 Uiso 1 1 calc R
H15B H 0.6022 0.2559 0.3603 0.021 Uiso 1 1 calc R
C16 C 0.7826(2) 0.32599(6) 0.21159(19) 0.0176(2) Uani 1 1 d .
H16A H 0.9529 0.3141 0.2940 0.021 Uiso 1 1 calc R
H16B H 0.7578 0.3041 0.0711 0.021 Uiso 1 1 calc R
loop_
_atom_site_aniso_label
_atom_site_aniso_U_11
_atom_site_aniso_U_22
_atom_site_aniso_U_33
_atom_site_aniso_U_23
_atom_site_aniso_U_13
_atom_site_aniso_U_12
Cl1 0.01226(12) 0.02614(16) 0.01514(13) 0.00305(10) 0.00499(9) 0.00162(10)
O1 0.0326(5) 0.0186(5) 0.0333(5) -0.0026(4) 0.0235(4) -0.0068(4)
N11 0.0110(4) 0.0179(5) 0.0151(4) 0.0015(3) 0.0048(3) 0.0001(3)
C12 0.0143(5) 0.0153(5) 0.0156(5) 0.0003(4) 0.0036(4) -0.0027(4)
C13 0.0156(5) 0.0134(5) 0.0152(5) -0.0002(4) 0.0057(4) -0.0007(4)
C14 0.0174(5) 0.0139(5) 0.0184(5) 0.0020(4) 0.0075(4) -0.0005(4)
C15 0.0174(5) 0.0132(5) 0.0238(5) -0.0017(4) 0.0097(4) -0.0009(4)
C16 0.0169(5) 0.0151(5) 0.0232(5) -0.0011(4) 0.0096(4) 0.0014(4)
loop_
_atom_type_symbol
_atom_type_description
_atom_type_scat_dispersion_real
_atom_type_scat_dispersion_imag
_atom_type_scat_source
C C 0.0033 0.0016 'International Tables Vol C Tables 4.2.6.8 and 6.1.1.4'
H H 0.0000 0.0000 'International Tables Vol C Tables 4.2.6.8 and 6.1.1.4'
N N 0.0061 0.0033 'International Tables Vol C Tables 4.2.6.8 and 6.1.1.4'
O O 0.0106 0.0060 'International Tables Vol C Tables 4.2.6.8 and 6.1.1.4'
Cl Cl 0.1484 0.1585 'International Tables Vol C Tables 4.2.6.8 and 6.1.1.4'
loop_
_geom_angle_atom_site_label_1
_geom_angle_atom_site_label_2
_geom_angle_atom_site_label_3
_geom_angle
C12 N11 C16 111.95(9)
N11 C12 C13 109.51(9)
C12 C13 C14 110.89(9)
O1 C14 C15 106.67(9)
O1 C14 C13 111.92(9)
C15 C14 C13 110.92(9)
C14 C15 C16 112.08(9)
N11 C16 C15 109.93(9)
loop_
_geom_bond_atom_site_label_1
_geom_bond_atom_site_label_2
_geom_bond_distance
O1 C14 1.4271(13)
N11 C12 1.4906(14)
N11 C16 1.4946(15)
C12 C13 1.5206(15)
C13 C14 1.5225(15)
C14 C15 1.5207(15)
C15 C16 1.5219(15)
loop_
_geom_hbond_atom_site_label_D
_geom_hbond_atom_site_label_H
_geom_hbond_atom_site_label_A
_geom_hbond_distance_DH
_geom_hbond_distance_HA
_geom_hbond_distance_DA
_geom_hbond_angle_DHA
_geom_hbond_site_symmetry_A
O1 H03 Cl1 0.832(18) 2.333(18) 3.1613(10) 173.6(16) .
N11 H01 Cl1 0.880(16) 2.273(16) 3.1427(10) 169.7(14) 1_654
N11 H02 Cl1 0.900(16) 2.262(16) 3.1524(10) 170.2(13) 1_554
C12 H12A Cl1 0.99 2.74 3.6035(11) 145.6 3_666
C12 H12B Cl1 0.99 2.93 3.7236(11) 138.0 1_655
C15 H15B O1 0.99 2.79 3.3838(14) 118.9 4_665
C16 H16A O1 0.99 2.80 3.7413(16) 158.1 1_655
C16 H16B O1 0.99 2.60 3.0759(15) 109.5 4_665
loop_
_geom_torsion_atom_site_label_1
_geom_torsion_atom_site_label_2
_geom_torsion_atom_site_label_3
_geom_torsion_atom_site_label_4
_geom_torsion
C16 N11 C12 C13 -60.25(11)
N11 C12 C13 C14 57.65(12)
C12 C13 C14 O1 -173.41(9)
C12 C13 C14 C15 -54.41(12)
O1 C14 C15 C16 175.02(9)
C13 C14 C15 C16 52.90(12)
C12 N11 C16 C15 58.30(12)
C14 C15 C16 N11 -54.19(12)
