#------------------------------------------------------------------------------
#$Date: 2016-03-26 23:04:24 +0200 (Sat, 26 Mar 2016) $
#$Revision: 180528 $
#$URL: svn://www.crystallography.net/cod/cif/7/21/97/7219798.cif $
#------------------------------------------------------------------------------
#
# This file is available in the Crystallography Open Database (COD),
# http://www.crystallography.net/
#
# All data on this site have been placed in the public domain by the
# contributors.
#
data_7219798
loop_
_publ_author_name
'Kaur, Gurpreet'
'Choudhury, Angshuman Roy'
_publ_section_title
;
 A comprehensive understanding of the synthons involving C--H&#x22EF;F--C
 hydrogen bond(s) from structural and computational analyses
;
_journal_issue                   15
_journal_name_full               CrystEngComm
_journal_page_first              2949
_journal_paper_doi               10.1039/C5CE00215J
_journal_volume                  17
_journal_year                    2015
_chemical_absolute_configuration unk
_chemical_formula_moiety         'C13 H7 F4 N'
_chemical_formula_sum            'C13 H7 F4 N'
_chemical_formula_weight         253.2
_chemical_name_systematic
;
 ?
;
_space_group_IT_number           4
_symmetry_cell_setting           monoclinic
_symmetry_Int_Tables_number      4
_symmetry_space_group_name_Hall  'P 2yb'
_symmetry_space_group_name_H-M   'P 1 21 1'
_atom_sites_solution_hydrogens   geom
_atom_sites_solution_primary     direct
_atom_sites_solution_secondary   difmap
_audit_creation_date             2013-10-24T00:47:53-00:00
_audit_creation_method           'WinGX routine CIF_UPDATE'
_audit_update_record
;
2015-01-29 deposited with the CCDC.
2015-03-09 downloaded from the CCDC.
;
_cell_angle_alpha                90
_cell_angle_beta                 98.716(4)
_cell_angle_gamma                90
_cell_formula_units_Z            2
_cell_length_a                   11.0553(15)
_cell_length_b                   3.6976(4)
_cell_length_c                   13.0135(14)
_cell_measurement_temperature    100(2)
_cell_volume                     525.82(11)
_computing_molecular_graphics
;
O. V. Dolomanov, L. J. Bourhis, R. J. Gildea, J. A. K. Howard and H. Puschmann,
OLEX2: a complete structure solution, refinement and analysis program.
        J. Appl. Cryst. (2009). 42, 339-341.
;
_computing_publication_material
;
O. V. Dolomanov, L. J. Bourhis, R. J. Gildea, J. A. K. Howard and H. Puschmann,
OLEX2: a complete structure solution, refinement and analysis program.
        J. Appl. Cryst. (2009). 42, 339-341.
;
_computing_structure_refinement
;
        SHELXL, G.M. Sheldrick, Acta Cryst.
        2008). A64, 112-122
;
_computing_structure_solution
;
        XS, G.M. Sheldrick, Acta Cryst.
        (2008). A64, 112-122
;
_diffrn_ambient_temperature      100
_diffrn_measured_fraction_theta_full 0.998
_diffrn_measured_fraction_theta_max 0.998
_diffrn_radiation_monochromator  graphite
_diffrn_radiation_type           'MO K\a'
_diffrn_radiation_wavelength     0.71073
_diffrn_reflns_av_R_equivalents  0.0215
_diffrn_reflns_limit_h_max       9
_diffrn_reflns_limit_h_min       -13
_diffrn_reflns_limit_k_max       3
_diffrn_reflns_limit_k_min       -4
_diffrn_reflns_limit_l_max       14
_diffrn_reflns_limit_l_min       -15
_diffrn_reflns_number            2304
_diffrn_reflns_theta_full        25.01
_diffrn_reflns_theta_max         25.01
_diffrn_reflns_theta_min         1.86
_diffrn_source                   'fine-focus sealed tube'
_exptl_absorpt_coefficient_mu    0.144
_exptl_absorpt_correction_T_max  0.7462
_exptl_absorpt_correction_T_min  0.6249
_exptl_absorpt_correction_type   multi-scan
_exptl_absorpt_process_details
;
        SADABS-2008/1 (Bruker,2008) was used for absorption correction.
        R(int) was 0.0581 before and 0.0403 after correction.
        The Ratio of minimum to maximum transmission is 0.8374.
        The \l/2 correction factor is 0.0015.
;
_exptl_crystal_colour            'clear light colourless'
_exptl_crystal_density_diffrn    1.599
_exptl_crystal_density_method    'not measured'
_exptl_crystal_description       block
_exptl_crystal_F_000             256
_exptl_crystal_size_max          0.3
_exptl_crystal_size_mid          0.3
_exptl_crystal_size_min          0.1
_refine_diff_density_max         0.96
_refine_diff_density_min         -0.325
_refine_diff_density_rms         0.107
_refine_ls_extinction_method     none
_refine_ls_goodness_of_fit_ref   1.058
_refine_ls_hydrogen_treatment    mixed
_refine_ls_matrix_type           full
_refine_ls_number_parameters     163
_refine_ls_number_reflns         1766
_refine_ls_number_restraints     1
_refine_ls_restrained_S_all      1.058
_refine_ls_R_factor_all          0.0906
_refine_ls_R_factor_gt           0.0716
_refine_ls_shift/su_max          0
_refine_ls_structure_factor_coef Fsqd
_refine_ls_weighting_details
'calc w=1/[\s^2^(Fo^2^)+(0.1201P)^2^+0.0000P] where P=(Fo^2^+2Fc^2^)/3'
_refine_ls_weighting_scheme      calc
_refine_ls_wR_factor_gt          0.1691
_refine_ls_wR_factor_ref         0.1845
_reflns_number_gt                1394
_reflns_number_total             1766
_reflns_threshold_expression     >2sigma(I)
_cod_data_source_file            c5ce00215j2.cif
_cod_data_source_block           65
_cod_depositor_comments
'Adding full bibliography for 7219787--7219816.cif.'
_cod_database_code               7219798
loop_
_symmetry_equiv_pos_as_xyz
'x, y, z'
'-x, y+1/2, -z'
loop_
_atom_site_label
_atom_site_type_symbol
_atom_site_fract_x
_atom_site_fract_y
_atom_site_fract_z
_atom_site_U_iso_or_equiv
_atom_site_adp_type
_atom_site_occupancy
_atom_site_symmetry_multiplicity
_atom_site_calc_flag
_atom_site_refinement_flags
C1 C -0.2727(4) -0.0801(14) -1.4027(4) 0.0178(11) Uani 1 1 d .
H1 H -0.349 -0.1822 -1.393 0.021 Uiso 1 1 calc R
C2 C -0.2515(4) 0.0143(13) -1.5088(3) 0.0157(11) Uani 1 1 d .
C3 C -0.3422(4) -0.0549(15) -1.5930(4) 0.0172(11) Uani 1 1 d .
C4 C -0.3229(5) 0.0198(14) -1.6932(4) 0.0185(12) Uani 1 1 d .
C5 C -0.2148(4) 0.1630(15) -1.7134(4) 0.0178(11) Uani 1 1 d .
H5 H -0.2029 0.2184 -1.7825 0.021 Uiso 1 1 calc R
C6 C -0.1232(4) 0.2247(14) -1.6300(3) 0.0166(11) Uani 1 1 d .
H6 H -0.0455 0.3092 -1.6425 0.02 Uiso 1 1 calc R
C7 C -0.1428(4) 0.1659(14) -1.5301(3) 0.0156(10) Uani 1 1 d .
H7 H -0.081 0.2298 -1.4741 0.019 Uiso 1 1 calc R
C8 C -0.2228(5) -0.1060(14) -1.2249(4) 0.0210(12) Uani 1 1 d .
C13 C -0.1337(5) -0.2547(15) -1.1474(4) 0.0213(12) Uani 1 1 d .
C12 C -0.1573(5) -0.3358(16) -1.0499(3) 0.0204(11) Uani 1 1 d .
H12 H -0.0956 -0.4353 -0.999 0.024 Uiso 1 1 calc R
C11 C -0.2720(5) -0.2695(16) -1.0277(4) 0.0252(13) Uani 1 1 d .
C10 C -0.3640(5) -0.1162(16) -1.0987(4) 0.0264(13) Uani 1 1 d .
H10 H -0.4422 -0.0644 -1.0804 0.032 Uiso 1 1 calc R
C9 C -0.3377(5) -0.0414(15) -1.1973(4) 0.0210(12) Uani 1 1 d .
H9 H -0.4002 0.0572 -1.2477 0.025 Uiso 1 1 calc R
N1 N -0.1914(4) -0.0282(12) -1.3241(3) 0.0192(10) Uani 1 1 d .
F1 F -0.4514(3) -0.2031(8) -1.5783(2) 0.0245(8) Uani 1 1 d .
F2 F -0.4163(3) -0.0568(10) -1.7711(2) 0.0293(8) Uani 1 1 d .
F4 F -0.0213(2) -0.3181(9) -1.1699(2) 0.0247(7) Uani 1 1 d .
F3 F -0.2977(3) -0.3560(10) -0.93142(19) 0.0311(8) Uani 1 1 d .
loop_
_atom_site_aniso_label
_atom_site_aniso_U_11
_atom_site_aniso_U_22
_atom_site_aniso_U_33
_atom_site_aniso_U_23
_atom_site_aniso_U_13
_atom_site_aniso_U_12
C1 0.015(3) 0.015(3) 0.025(3) -0.004(2) 0.007(2) -0.003(2)
C2 0.019(3) 0.008(2) 0.020(2) -0.004(2) 0.004(2) 0.002(2)
C3 0.013(2) 0.016(2) 0.023(2) -0.002(2) 0.007(2) 0.002(2)
C4 0.017(3) 0.017(3) 0.020(2) 0.000(2) -0.001(2) 0.005(2)
C5 0.017(3) 0.019(3) 0.019(2) 0.002(2) 0.008(2) 0.000(2)
C6 0.010(2) 0.018(3) 0.022(2) 0.001(2) 0.0036(19) -0.002(2)
C7 0.015(2) 0.011(2) 0.020(2) -0.006(2) 0.0007(19) -0.001(2)
C8 0.017(3) 0.020(3) 0.025(3) 0.000(2) 0.001(2) -0.004(2)
C13 0.014(3) 0.023(3) 0.027(3) -0.004(2) 0.006(2) 0.002(2)
C12 0.021(3) 0.020(3) 0.020(2) -0.001(2) -0.0013(19) 0.001(2)
C11 0.032(3) 0.029(3) 0.016(2) 0.002(2) 0.007(2) -0.002(3)
C10 0.022(3) 0.029(3) 0.030(3) -0.002(3) 0.009(2) -0.003(3)
C9 0.017(3) 0.020(3) 0.026(3) -0.002(2) 0.002(2) 0.000(2)
N1 0.018(2) 0.019(2) 0.021(2) 0.0025(19) 0.0019(18) 0.0036(19)
F1 0.0139(15) 0.0374(19) 0.0236(14) -0.0014(13) 0.0076(12) -0.0095(13)
F2 0.0191(16) 0.045(2) 0.0225(15) -0.0016(15) -0.0021(12) -0.0011(16)
F4 0.0115(14) 0.0394(18) 0.0236(14) -0.0005(15) 0.0041(11) 0.0049(15)
F3 0.0317(18) 0.046(2) 0.0167(14) 0.0052(15) 0.0084(13) -0.0004(17)
loop_
_atom_type_symbol
_atom_type_description
_atom_type_scat_dispersion_real
_atom_type_scat_dispersion_imag
_atom_type_scat_source
C C 0.0033 0.0016 'International Tables Vol C Tables 4.2.6.8 and 6.1.1.4'
H H 0 0 'International Tables Vol C Tables 4.2.6.8 and 6.1.1.4'
F F 0.0171 0.0103 'International Tables Vol C Tables 4.2.6.8 and 6.1.1.4'
N N 0.0061 0.0033 'International Tables Vol C Tables 4.2.6.8 and 6.1.1.4'
loop_
_geom_angle_atom_site_label_1
_geom_angle_atom_site_label_2
_geom_angle_atom_site_label_3
_geom_angle
N1 C1 C2 121.6(5)
C3 C2 C1 119.7(4)
C7 C2 C1 123.1(4)
C7 C2 C3 117.3(4)
C4 C3 C2 120.7(5)
F1 C3 C2 120.7(4)
F1 C3 C4 118.6(4)
C5 C4 C3 121.6(5)
F2 C4 C3 116.9(4)
F2 C4 C5 121.5(4)
C4 C5 C6 117.9(4)
C7 C6 C5 121.0(4)
C6 C7 C2 121.3(4)
C13 C8 N1 119.4(4)
C9 C8 C13 116.6(4)
C9 C8 N1 124.1(4)
C12 C13 C8 122.6(5)
F4 C13 C8 118.8(4)
F4 C13 C12 118.6(5)
C11 C12 C13 118.1(5)
C12 C11 C10 122.9(4)
F3 C11 C12 118.8(5)
F3 C11 C10 118.3(5)
C9 C10 C11 117.6(5)
C10 C9 C8 122.2(5)
C1 N1 C8 117.5(4)
loop_
_geom_bond_atom_site_label_1
_geom_bond_atom_site_label_2
_geom_bond_distance
C1 C2 1.477(6)
C1 N1 1.269(6)
C2 C3 1.392(6)
C2 C7 1.391(7)
C3 C4 1.381(6)
C3 F1 1.366(6)
C4 C5 1.369(7)
C4 F2 1.363(6)
C5 C6 1.387(7)
C6 C7 1.368(6)
C8 C13 1.411(7)
C8 C9 1.393(7)
C8 N1 1.416(6)
C13 C12 1.367(7)
C13 F4 1.340(6)
C12 C11 1.365(7)
C11 C10 1.387(7)
C11 F3 1.364(5)
C10 C9 1.385(7)
