#------------------------------------------------------------------------------
#$Date: 2016-02-16 03:10:39 +0200 (Tue, 16 Feb 2016) $
#$Revision: 176453 $
#$URL: svn://www.crystallography.net/cod/cif/7/21/91/7219136.cif $
#------------------------------------------------------------------------------
#
# This file is available in the Crystallography Open Database (COD),
# http://www.crystallography.net/
#
# All data on this site have been placed in the public domain by the
# contributors.
#
data_7219136
loop_
_publ_author_name
'Tenorio Clavijo, Juan Carlos'
'Guimar\~aes, Freddy Fernandes'
'Ellena, Javier'
'Martins, Felipe Terra'
_publ_section_title
;
 Isostructurality and the conformational role of the
 2&#x2032;,3&#x2032;-moieties in the diversity of lamivudine crystal forms
 probed in halide salts
;
_journal_issue                   28
_journal_name_full               CrystEngComm
_journal_page_first              5187
_journal_paper_doi               10.1039/C4CE02373K
_journal_volume                  17
_journal_year                    2015
_chemical_absolute_configuration rm
_chemical_compound_source        'synthesis as described'
_chemical_formula_moiety         'C8  H12  N3  O3  S,  F2  H'
_chemical_formula_sum            'C8 H13 F2 N3 O3 S'
_chemical_formula_weight         269.27
_chemical_name_common            Lamivudine_Hydrofluoride
_chemical_name_systematic
;
 ?
;
_space_group_IT_number           4
_symmetry_cell_setting           monoclinic
_symmetry_Int_Tables_number      4
_symmetry_space_group_name_Hall  'P 2yb'
_symmetry_space_group_name_H-M   'P 1 21 1'
_atom_sites_solution_hydrogens   mixed
_audit_conform_dict_location     ftp://ftp.iucr.org/pub/cif_core.dic
_audit_conform_dict_name         cif_core.dic
_audit_conform_dict_version      2.4.3
_audit_creation_date             2014-11-05T16:04:10-00:00
_audit_creation_method           'WinGX routine CIF_UPDATE'
_audit_update_record
;
2014-11-06 deposited with the CCDC.
2014-12-18 downloaded from the CCDC.
;
_cell_angle_alpha                90
_cell_angle_beta                 103.854(2)
_cell_angle_gamma                90
_cell_formula_units_Z            2
_cell_length_a                   5.43490(10)
_cell_length_b                   12.0714(3)
_cell_length_c                   8.6515(3)
_cell_measurement_reflns_used    1181
_cell_measurement_temperature    293(2)
_cell_measurement_theta_max      26.37
_cell_measurement_theta_min      2.91
_cell_measurement_wavelength     0.71073
_cell_volume                     551.09(3)
_computing_cell_refinement       'HKL Scalepack (Otwinowski & Minor 1997)'
_computing_data_collection       'Collect (Bruker AXS BV, 1997-2004)'
_computing_data_reduction
'HKL Denzo and Scalepack (Otwinowski & Minor 1997)'
_computing_molecular_graphics    'Ortep-3 for Windows (Farrugia, 1997)'
_computing_publication_material  'WinGX publication routines (Farrugia, 1999)'
_computing_structure_refinement  'SHELXL-2012 (Sheldrick, 2012)'
_diffrn_ambient_temperature      293(2)
_diffrn_detector                 'CCD plate'
_diffrn_detector_area_resol_mean 9
_diffrn_measured_fraction_theta_full 0.996
_diffrn_measured_fraction_theta_max 0.997
_diffrn_measurement_device       '95mm CCD camera on \k-goniostat'
_diffrn_measurement_device_type  KappaCCD
_diffrn_measurement_method       'CCD rotation images, thick slices'
_diffrn_orient_matrix_UB_11      -0.116146
_diffrn_orient_matrix_UB_12      0.064619
_diffrn_orient_matrix_UB_13      -0.002886
_diffrn_orient_matrix_UB_21      0.14846
_diffrn_orient_matrix_UB_22      0.047959
_diffrn_orient_matrix_UB_23      0.048472
_diffrn_orient_matrix_UB_31      0.019587
_diffrn_orient_matrix_UB_32      0.019671
_diffrn_orient_matrix_UB_33      -0.108697
_diffrn_radiation_monochromator  'horizonally mounted graphite crystal'
_diffrn_radiation_probe          x-ray
_diffrn_radiation_type           MoK\a
_diffrn_radiation_wavelength     0.71073
_diffrn_reflns_Laue_measured_fraction_full 0.996
_diffrn_reflns_Laue_measured_fraction_max 0.997
_diffrn_reflns_limit_h_max       6
_diffrn_reflns_limit_h_min       -6
_diffrn_reflns_limit_k_max       14
_diffrn_reflns_limit_k_min       -15
_diffrn_reflns_limit_l_max       10
_diffrn_reflns_limit_l_min       -10
_diffrn_reflns_number            2189
_diffrn_reflns_point_group_measured_fraction_full 0.978
_diffrn_reflns_point_group_measured_fraction_max 0.962
_diffrn_reflns_reduction_process
;
        Scaled and merged with Sortav
        R.H. Blessing, (1987) Cryst. Rev. 1, 3-58
        R.H. Blessing, (1989) J. Appl. Cryst. 22, 396-397
;
_diffrn_reflns_theta_full        25.242
_diffrn_reflns_theta_max         26.376
_diffrn_reflns_theta_min         2.954
_diffrn_source                   'Enraf Nonius FR590'
_exptl_absorpt_coefficient_mu    0.324
_exptl_absorpt_correction_type   none
_exptl_crystal_colour            colourless
_exptl_crystal_density_diffrn    1.623
_exptl_crystal_density_method    'not measured'
_exptl_crystal_description       prism
_exptl_crystal_F_000             280
_exptl_crystal_size_max          0.18
_exptl_crystal_size_mid          0.17
_exptl_crystal_size_min          0.14
_refine_diff_density_max         0.175
_refine_diff_density_min         -0.188
_refine_diff_density_rms         0.039
_refine_ls_abs_structure_details
;
 Flack x determined using 901 quotients [(I+)-(I-)]/[(I+)+(I-)]
 (Parsons and Flack (2004), Acta Cryst. A60, s61).
;
_refine_ls_abs_structure_Flack   -0.06(3)
_refine_ls_extinction_coef       0.069(9)
_refine_ls_extinction_expression Fc^*^=kFc[1+0.001xFc^2^\l^3^/sin(2\q)]^-1/4^
_refine_ls_extinction_method     SHELXL
_refine_ls_goodness_of_fit_ref   1.067
_refine_ls_hydrogen_treatment    mixed
_refine_ls_matrix_type           full
_refine_ls_number_constraints    0
_refine_ls_number_parameters     159
_refine_ls_number_reflns         2174
_refine_ls_number_restraints     1
_refine_ls_restrained_S_all      1.067
_refine_ls_R_factor_all          0.0341
_refine_ls_R_factor_gt           0.0308
_refine_ls_shift/su_max          0
_refine_ls_shift/su_mean         0
_refine_ls_structure_factor_coef Fsqd
_refine_ls_weighting_details
;
 w=1/[\s^2^(Fo^2^)+(0.0468P)^2^+0.0909P]
 where P=(Fo^2^+2Fc^2^)/3
;
_refine_ls_weighting_scheme      calc
_refine_ls_wR_factor_gt          0.0772
_refine_ls_wR_factor_ref         0.0803
_reflns_number_gt                2043
_reflns_number_total             2174
_reflns_threshold_expression     'I > 2\s(I)'
_iucr_refine_instructions_details
;
TITL import in P 21
CELL  0.71073   5.4349  12.0714   8.6515   90.000  103.854   90.000
ZERR     2.00   0.0001   0.0003   0.0003    0.000    0.002    0.000
LATT  -1
SYMM  - X, 1/2 + Y, - Z
SFAC  C    H    N    O    F    S
UNIT  16   26   6    6    4    2
MERG   2
OMIT     1   0   0
OMIT    -1   0   1
MPLA N1 C2 O2 N3 C4 N4 C5 C6
MPLA N1 C2 O2 N3 C4 N4 C5 C6 F1
MPLA C2' C1' O1' C4'
MPLA C2' C1' O1' C4' S3'
FMAP   2
PLAN   20
SIZE     0.14   0.17   0.18
ACTA
BOND   $H
CONF
LIST   4
L.S.   8
TEMP    20.00
WGHT    0.046800    0.090900
EXTI    0.068586
FVAR       1.50508
MOLE    1
F1    5   -0.495532    0.699785    0.530093    11.00000    0.05684    0.08493 =
         0.05539   -0.01795    0.01547    0.01903
F2    5   -0.457885    0.776867    0.775768    11.00000    0.08677    0.05083 =
         0.04630   -0.00285    0.01966   -0.00884
H1A   2   -0.480357    0.741010    0.672721    11.00000   -1.50000
MOLE    2
C1'   1    0.247185    0.653932    0.144516    11.00000    0.03809    0.03459 =
         0.03614   -0.00299    0.01128   -0.00137
AFIX  13
H1'   2    0.335416    0.716679    0.205436    11.00000   -1.20000
AFIX   0
C2    1   -0.033530    0.654418    0.325949    11.00000    0.03591    0.03331 =
         0.03263   -0.00289    0.00655    0.00340
C2'   1    0.068134    0.696847   -0.006133    11.00000    0.05316    0.04854 =
         0.03871    0.00739    0.01114    0.00518
AFIX  23
H2A'  2    0.139988    0.760471   -0.047947    11.00000   -1.20000
H2B'  2   -0.093837    0.717661    0.013862    11.00000   -1.20000
AFIX   0
C4    1   -0.166974    0.486564    0.431163    11.00000    0.03761    0.03876 =
         0.02610   -0.00287    0.00599    0.00220
C4'   1    0.367022    0.556320   -0.065527    11.00000    0.03802    0.04530 =
         0.03058   -0.00016    0.01192   -0.00673
AFIX  13
H4'   2    0.462939    0.605650   -0.119444    11.00000   -1.20000
AFIX   0
C5    1   -0.015329    0.424209    0.350415    11.00000    0.05001    0.03074 =
         0.03886    0.00038    0.01733    0.00548
AFIX  43
H5    2   -0.006909    0.347439    0.359096    11.00000   -1.20000
AFIX   0
C5'   1    0.443365    0.438858   -0.085596    11.00000    0.05840    0.04286 =
         0.04437   -0.00441    0.02346   -0.00471
AFIX  23
H5A'  2    0.618642    0.427652   -0.029275    11.00000   -1.20000
H5B'  2    0.338593    0.388731   -0.041397    11.00000   -1.20000
AFIX   0
C6    1    0.116492    0.479021    0.260645    11.00000    0.04067    0.03338 =
         0.03248   -0.00162    0.01014    0.00620
AFIX  43
H6    2    0.216782    0.438823    0.207409    11.00000   -1.20000
AFIX   0
N1    3    0.107340    0.591350    0.245520    11.00000    0.03516    0.03319 =
         0.03123   -0.00255    0.00990    0.00098
N3    3   -0.163409    0.597705    0.417874    11.00000    0.03851    0.03739 =
         0.02981   -0.00389    0.01040    0.00432
AFIX  43
H3    2   -0.248922    0.635672    0.470999    11.00000   -1.50000
AFIX   0
N4    3   -0.305738    0.440613    0.518390    11.00000    0.05300    0.04740 =
         0.03812   -0.00113    0.02049   -0.00015
AFIX  93
H4A   2   -0.393611    0.481372    0.566608    11.00000   -1.50000
H4B   2   -0.308898    0.369708    0.527396    11.00000   -1.50000
AFIX   0
O1'   4    0.426339    0.583155    0.102589    11.00000    0.03327    0.04867 =
         0.03239   -0.00628    0.00808   -0.00004
O2    4   -0.042837    0.755897    0.313884    11.00000    0.05376    0.03234 =
         0.05128   -0.00421    0.01695    0.00544
O5'   4    0.413721    0.416511   -0.249424    11.00000    0.07835    0.06320 =
         0.05184   -0.02333    0.03893   -0.02908
AFIX 147
H5C'  2    0.301205    0.370457   -0.278382    11.00000   -1.50000
AFIX   0
S3'   6    0.033244    0.581949   -0.141418    11.00000    0.04079    0.07355 =
         0.03494   -0.00965    0.00296   -0.00099
HKLF    4
REM  import in P 21
REM R1 =  0.0308 for    2043 Fo > 4sig(Fo)  and  0.0341 for all    2174 data
REM    159 parameters refined using      1 restraints
END
;
_cod_data_source_file            c4ce02373k1.cif
_cod_data_source_block           shelx
_cod_depositor_comments
'Adding full bibliography for 7219133--7219137.cif.'
_cod_original_sg_symbol_H-M      'P 21'
_cod_original_formula_sum        'C8  H13  F2  N3  O3  S'
_cod_database_code               7219136
#BEGIN Tags that were not found in dictionaries:
_shelx_estimated_absorpt_t_min   0.944
_shelx_estimated_absorpt_t_max   0.956
_iucr_refine_reflections_details
;
   0   0   2  158.20    2.90   1
   0   0   3  922.20   15.10   1
   0   0   4   97.00    2.10   1
   0   0   5  633.20    9.70   1
   0   0   6   45.50    1.40   1
   0   0   7  120.10    2.70   1
   0   0   8  153.00    3.70   1
   0   0   9   69.90    2.60   1
   0   0  10   91.10    7.40   1
   0   1   1  811.70   12.90   1
   0  -1  -1  807.50   11.50   1
   0   1   2 3767.40   52.30   1
   0  -1  -2 3765.80   52.20   1
   0   1   3  230.20    3.60   1
   0  -1  -3  234.10    4.20   1
   0   1   4  808.00   12.00   1
   0  -1  -4  807.70   13.40   1
   0   1   5   28.80    1.00   1
   0  -1  -5   33.60    1.20   1
   0   1   6  126.20    2.60   1
   0  -1  -6  129.00    3.10   1
   0   1   7   96.20    2.40   1
   0  -1  -7  100.20    2.50   1
   0   1   8   12.80    1.10   1
   0  -1  -8   14.50    1.20   1
   0   1   9  145.90    4.40   1
   0  -1  -9  152.80    4.70   1
   0   1  10   35.50    4.20   1
   0  -1 -10   30.90    4.00   1
   0   2   0 5470.80  118.40   1
   0  -2   0 5373.50   95.20   1
   0   2   1 1601.10   20.60   1
   0  -2  -1 1588.80   22.50   1
   0   2   2  533.30    8.90   1
   0  -2  -2  525.30    7.10   1
   0   2   3 1302.40   20.80   1
   0  -2  -3 1295.90   18.50   1
   0   2   4 2016.70   28.80   1
   0  -2  -4 2029.10   32.70   1
   0   2   5  189.90    3.40   1
   0  -2  -5  189.60    3.90   1
   0   2   6  610.40    9.70   1
   0  -2  -6  590.90   10.90   1
   0   2   7  593.30   10.10   1
   0  -2  -7  582.00   11.50   1
   0   2   8   42.70    1.70   1
   0  -2  -8   41.30    1.80   1
   0   2   9   29.70    2.60   1
   0  -2  -9   25.90    1.90   1
   0   2  10   80.60    6.50   1
   0  -2 -10   75.10    6.70   1
   0   3   0    2.50    0.40   1
   0  -3   0    1.70    0.40   1
   0   3   1  652.20    8.70   1
   0  -3  -1  663.50    8.90   1
   0   3   2  479.50    6.00   1
   0  -3  -2  504.60    8.50   1
   0   3   3   93.20    2.00   1
   0  -3  -3   95.50    1.70   1
   0   3   4  504.80    8.70   1
   0  -3  -4  499.10    7.00   1
   0   3   5 2904.20   46.30   1
   0  -3  -5 2918.90   41.60   1
   0   3   6   81.30    2.30   1
   0  -3  -6   86.00    2.20   1
   0   3   7  203.20    4.80   1
   0  -3  -7  203.30    4.50   1
   0   3   8  238.60    6.10   1
   0  -3  -8  254.10    5.40   1
   0   3   9   24.50    2.60   1
   0  -3  -9   21.10    1.70   1
   0   3  10    0.50    2.20   1
   0  -3 -10    5.70    1.80   1
   0   4   0  495.20   16.30   1
   0  -4   0  484.90    9.30   1
   0   4   1 2526.00   32.30   1
   0  -4  -1 2510.60   32.10   1
   0   4   2  790.00    9.70   1
   0  -4  -2  784.10   11.70   1
   0   4   3  564.90    7.90   1
   0  -4  -3  558.80    9.50   1
   0   4   4 2019.80   27.10   1
   0  -4  -4 1977.30   28.60   1
   0   4   5   13.00    0.80   1
   0  -4  -5   11.10    0.70   1
   0   4   6  216.70    4.70   1
   0  -4  -6  211.90    4.30   1
   0   4   7   96.70    2.70   1
   0  -4  -7   95.40    2.70   1
   0   4   8   40.50    2.10   1
   0  -4  -8   38.80    1.90   1
   0   4   9    0.20    1.60   1
   0  -4  -9    3.30    1.70   1
   0   4  10   26.70    3.90   1
   0  -4 -10   21.90    2.60   1
   0   5   0   -0.20    1.00   1
   0  -5   0   -1.10    0.30   1
   0   5   1  836.90   12.20   1
   0  -5  -1  836.70   11.20   1
   0   5   2 1191.90   14.50   1
   0  -5  -2 1174.10   17.00   1
   0   5   3  381.60    5.10   1
   0  -5  -3  403.20    7.10   1
   0   5   4  144.00    2.50   1
   0  -5  -4  142.80    2.80   1
   0   5   5  188.70    3.40   1
   0  -5  -5  191.30    3.60   1
   0   5   6   20.80    1.10   1
   0  -5  -6   18.30    1.40   1
   0   5   7    2.50    0.90   1
   0  -5  -7    1.10    1.10   1
   0   5   8   85.80    3.60   1
   0  -5  -8   80.40    3.00   1
   0   5   9   64.40    4.30   1
   0  -5  -9   55.10    3.60   1
   0   6   0 5994.60  132.10   1
   0  -6   0 5947.40   92.80   1
   0   6   1  561.30    9.50   1
   0  -6  -1  565.60    7.80   1
   0   6   2 1218.10   16.20   1
   0  -6  -2 1197.40   17.60   1
   0   6   3  149.30    2.40   1
   0  -6  -3  145.00    3.10   1
   0   6   4   77.10    1.70   1
   0  -6  -4   73.20    2.10   1
   0   6   5  130.40    2.60   1
   0  -6  -5  132.00    2.80   1
   0   6   6   87.60    2.30   1
   0  -6  -6   94.60    2.40   1
   0   6   7    9.10    1.20   1
   0  -6  -7    9.60    1.20   1
   0   6   8   81.90    3.50   1
   0  -6  -8   75.30    3.00   1
   0   6   9    1.20    1.90   1
   0  -6  -9   -1.00    1.70   1
   0   7   0   -1.00    0.70   1
   0  -7   0   -0.40    0.40   1
   0   7   1  496.10    8.70   1
   0  -7  -1  513.80    6.80   1
   0   7   2  467.70    7.00   1
   0  -7  -2  452.70    7.30   1
   0   7   3  271.00    4.00   1
   0  -7  -3  269.00    5.40   1
   0   7   4   15.20    0.80   1
   0  -7  -4   12.00    1.00   1
   0   7   5  482.90    7.70   1
   0  -7  -5  470.10    8.00   1
   0   7   6  371.60    6.50   1
   0  -7  -6  384.70    7.20   1
   0   7   7   84.90    3.10   1
   0  -7  -7   79.90    2.50   1
   0   7   8   48.40    3.00   1
   0  -7  -8   57.30    3.40   1
   0   7   9   43.60    3.80   1
   0  -7  -9   39.20    3.30   1
   0   8   0  846.30   20.80   1
   0  -8   0  840.80   14.40   1
   0   8   1  218.90    4.50   1
   0  -8  -1  225.20    3.50   1
   0   8   2  642.90   10.40   1
   0  -8  -2  645.60   10.40   1
   0   8   3  349.00    5.10   1
   0  -8  -3  349.20    6.20   1
   0   8   4   22.90    1.00   1
   0  -8  -4   21.40    1.30   1
   0   8   5   88.70    2.20   1
   0  -8  -5   88.50    2.40   1
   0   8   6   42.70    1.90   1
   0  -8  -6   41.00    1.70   1
   0   8   7  164.90    4.90   1
   0  -8  -7  163.70    4.10   1
   0   8   8   91.90    5.10   1
   0  -8  -8   93.90    4.80   1
   0   9   0    0.40    0.70   1
   0  -9   0    0.10    0.40   1
   0   9   1   70.40    2.50   1
   0  -9  -1   76.30    1.60   1
   0   9   2   19.10    1.20   1
   0  -9  -2   22.20    1.10   1
   0   9   3   75.00    1.70   1
   0  -9  -3   75.80    2.50   1
   0   9   4   28.20    1.10   1
   0  -9  -4   32.70    1.60   1
   0   9   5 1031.70   18.80   1
   0  -9  -5 1015.50   17.00   1
   0   9   6   38.40    2.00   1
   0  -9  -6   35.90    1.80   1
   0   9   7  249.60    8.30   1
   0  -9  -7  256.10    9.30   1
   0   9   8   12.80    2.70   1
   0  -9  -8    5.00    2.10   1
   0  10   0  471.40   13.00   1
   0 -10   0  454.70    8.80   1
   0  10   1   87.00    3.00   1
   0 -10  -1   91.30    1.80   1
   0  10   2   63.50    2.20   1
   0 -10  -2   65.70    2.00   1
   0  10   3  133.10    3.10   1
   0 -10  -3  134.60    3.40   1
   0  10   4   51.70    1.80   1
   0 -10  -4   52.90    2.80   1
   0  10   5  182.80    4.60   1
   0 -10  -5  173.80    4.90   1
   0  10   6   85.80    3.00   1
   0 -10  -6   73.80    2.90   1
   0  10   7  115.50    6.00   1
   0 -10  -7  108.60    5.50   1
   0  11   0    1.50    1.10   1
   0 -11   0   -0.80    0.70   1
   0  11   1  109.80    3.20   1
   0 -11  -1  101.70    2.10   1
   0  11   2   76.30    3.20   1
   0 -11  -2   71.70    2.40   1
   0  11   3   74.90    2.90   1
   0 -11  -3   77.20    2.50   1
   0  11   4   44.30    2.30   1
   0 -11  -4   39.60    2.60   1
   0  11   5   84.00    3.00   1
   0 -11  -5   85.50    4.00   1
   0  11   6   51.60    3.10   1
   0 -11  -6   55.10    3.50   1
   0  11   7   10.30    2.40   1
   0 -11  -7   12.30    2.40   1
   0  12   0  366.30   17.10   1
   0 -12   0  355.20    9.10   1
   0  12   1   10.10    1.40   1
   0 -12  -1    9.90    1.00   1
   0  12   2   96.50    4.40   1
   0 -12  -2   99.80    3.10   1
   0  12   3   -2.60    1.40   1
   0 -12  -3    1.10    1.20   1
   0  12   4  107.50    4.10   1
   0 -12  -4  105.00    4.50   1
   0  12   5   24.30    2.20   1
   0 -12  -5   23.00    2.90   1
   0  12   6    0.10    1.50   1
   0 -12  -6   -4.50    2.20   1
   0  13   0   -1.50    1.80   1
   0 -13   0   -0.20    1.70   1
   0  13   1   30.80    2.50   1
   0 -13  -1   30.70    2.20   1
   0  13   2    8.00    1.10   1
   0 -13  -2   10.70    1.60   1
   0  13   3    5.10    1.50   1
   0 -13  -3    6.50    1.70   1
   0  13   4    7.70    1.70   1
   0 -13  -4    5.60    1.70   1
   0  13   5    5.30    1.80   1
   0 -13  -5    1.90    1.80   1
   0 -14   0   51.00    4.30   1
   0 -14  -1    7.80    1.60   1
   0 -14  -2   -1.00    1.50   1
   0 -14  -3   35.70    2.80   1
   0 -15   0   -1.80    2.20   1
   0 -15  -1   16.90    3.00   1
   1   0 -10  192.30    7.80   1
   1   0  -9  123.40    3.70   1
   1   0  -8    9.20    0.90   1
   1   0  -7  981.40   15.30   1
   1   0  -6  831.90   12.70   1
   1   0  -5   43.30    1.30   1
   1   0  -4 1953.50   27.90   1
   1   0  -3  357.50    5.50   1
   1   0  -2  159.60    2.20   1
   1   0  -1   45.40    0.80   1
   1   0   0  620.80    9.00   1
   1   0   1   67.70    1.40   1
   1   0   2 3130.30   49.20   1
   1   0   3 4048.40   63.10   1
   1   0   4  575.70    9.80   1
   1   0   5   93.00    2.40   1
   1   0   6  744.70   12.00   1
   1   0   7 1057.10   17.10   1
   1   0   8  107.40    3.80   1
   1   0   9   41.70    3.60   1
   1   0  10   20.80    4.00   1
   1   1 -10   16.50    1.90   1
  -1  -1  10   15.50    1.90   1
   1   1  -9   26.00    1.70   1
  -1  -1   9   22.80    1.60   1
   1   1  -8  600.50    9.80   1
  -1  -1   8  599.60   10.60   1
   1   1  -7   89.60    2.10   1
  -1  -1   7   93.50    2.20   1
   1   1  -6  498.40    7.20   1
  -1  -1   6  520.60    8.30   1
   1   1  -5 3244.20   41.80   1
  -1  -1   5 3239.30   45.90   1
   1   1  -4  114.40    1.90   1
  -1  -1   4  114.10    2.70   1
   1   1  -3  353.60    5.00   1
  -1  -1   3  351.90    6.00   1
   1   1  -2 3709.20   66.40   1
  -1  -1   2 3572.60   45.40   1
   1   1  -1 1210.70   15.60   1
  -1  -1   1 1213.10   15.60   1
   1   1   0  774.60   11.00   1
  -1  -1   0  759.80    9.20   1
   1   1   1 9088.80  196.90   1
  -1  -1  -1 9175.40  198.90   1
   1   1   2 8603.60  132.10   1
  -1  -1  -2 8942.10  137.20   1
   1   1   3 1211.90   19.70   1
  -1  -1  -3 1206.40   19.40   1
   1   1   4  119.40    2.20   1
  -1  -1  -4  121.30    2.70   1
   1   1   5  681.40   10.50   1
  -1  -1  -5  702.20   12.00   1
   1   1   6   90.80    2.10   1
  -1  -1  -6   92.30    2.70   1
   1   1   7  113.20    2.80   1
  -1  -1  -7  101.10    3.20   1
   1   1   8   10.60    1.10   1
  -1  -1  -8    9.00    1.30   1
   1   1   9   88.70    5.10   1
  -1  -1  -9   85.20    5.30   1
   1   2 -10  183.60    8.40   1
  -1  -2  10  171.00    7.50   1
   1   2  -9   32.60    1.90   1
  -1  -2   9   26.50    1.80   1
   1   2  -8   83.00    2.20   1
  -1  -2   8   93.10    2.90   1
   1   2  -7   63.50    1.70   1
  -1  -2   7   65.00    2.10   1
   1   2  -6   38.60    1.20   1
  -1  -2   6   35.90    1.60   1
   1   2  -5  282.00    4.30   1
  -1  -2   5  290.40    6.30   1
   1   2  -4  688.10    9.40   1
  -1  -2   4  674.50   11.30   1
   1   2  -3 4821.40   67.20   1
  -1  -2   3 4784.80   66.20   1
   1   2  -2  882.70   12.60   1
  -1  -2   2  889.70   10.10   1
   1   2  -1 2895.50   36.70   1
  -1  -2   1 2808.40   33.00   1
   1   2   0 2808.70   38.90   1
  -1  -2   0 2760.40   35.10   1
   1   2   1  753.90   10.00   1
  -1  -2  -1  715.10   10.40   1
   1   2   2 2444.90   38.70   1
  -1  -2  -2 2453.60   34.60   1
   1   2   3  649.80   10.90   1
  -1  -2  -3  693.40   11.50   1
   1   2   4   21.30    1.00   1
  -1  -2  -4   26.70    1.10   1
   1   2   5  257.10    5.10   1
  -1  -2  -5  255.30    5.20   1
   1   2   6   25.90    1.50   1
  -1  -2  -6   22.50    1.40   1
   1   2   7  394.20    8.70   1
  -1  -2  -7  398.50    8.40   1
   1   2   8  199.50    7.20   1
  -1  -2  -8  166.80    4.90   1
   1   2   9   12.40    2.40   1
  -1  -2  -9   11.00    2.40   1
   1   3 -10    8.60    1.90   1
  -1  -3  10    4.20    1.40   1
   1   3  -9  104.50    4.00   1
  -1  -3   9  103.60    3.60   1
   1   3  -8   29.10    1.50   1
  -1  -3   8   26.30    1.40   1
   1   3  -7   56.90    1.80   1
  -1  -3   7   55.70    1.90   1
   1   3  -6  352.30    6.00   1
  -1  -3   6  371.60    6.90   1
   1   3  -5 1169.30   17.50   1
  -1  -3   5 1162.10   17.00   1
   1   3  -4    7.60    0.50   1
  -1  -3   4    8.00    0.50   1
   1   3  -3  654.90    9.60   1
  -1  -3   3  653.00    8.70   1
   1   3  -2 1688.00   23.70   1
  -1  -3   2 1659.70   19.80   1
   1   3  -1 6781.10   93.10   1
  -1  -3   1 6818.10   93.70   1
   1   3   0  864.50   12.40   1
  -1  -3   0  856.80   12.40   1
   1   3   1 4673.30   59.30   1
  -1  -3  -1 4649.50   58.90   1
   1   3   2  472.80    7.30   1
  -1  -3  -2  452.30    6.90   1
   1   3   3  533.60    9.10   1
  -1  -3  -3  526.70    8.10   1
   1   3   4   13.10    0.90   1
  -1  -3  -4   13.50    0.80   1
   1   3   5   15.30    1.00   1
  -1  -3  -5   19.20    1.00   1
   1   3   6  533.40   10.20   1
  -1  -3  -6  525.90    9.10   1
   1   3   7  101.40    3.20   1
  -1  -3  -7  102.30    2.90   1
   1   3   8   38.90    2.90   1
  -1  -3  -8   31.60    2.10   1
   1   3   9   84.10    4.90   1
  -1  -3  -9   76.60    4.20   1
   1   4 -10   32.90    4.00   1
  -1  -4  10   19.80    2.20   1
   1   4  -9   72.30    3.80   1
  -1  -4   9   64.10    2.80   1
   1   4  -8   11.70    1.20   1
  -1  -4   8    8.90    1.10   1
   1   4  -7   32.80    1.50   1
  -1  -4   7   33.90    1.60   1
   1   4  -6   21.60    1.00   1
  -1  -4   6   19.10    1.00   1
   1   4  -5   64.60    1.50   1
  -1  -4   5   65.50    1.60   1
   1   4  -4   97.50    1.80   1
  -1  -4   4   95.80    1.90   1
   1   4  -3 3692.00   47.40   1
  -1  -4   3 3639.80   50.80   1
   1   4  -2    7.70    0.40   1
  -1  -4   2    8.20    0.30   1
   1   4  -1  336.30    5.10   1
  -1  -4   1  332.10    4.00   1
   1   4   0  540.00    9.10   1
  -1  -4   0  531.70    7.90   1
   1   4   1  255.20    3.70   1
  -1  -4  -1  249.60    4.60   1
   1   4   2  188.90    3.00   1
  -1  -4  -2  182.30    3.10   1
   1   4   3 1141.60   17.10   1
  -1  -4  -3 1138.60   15.10   1
   1   4   4  117.80    2.50   1
  -1  -4  -4  111.50    2.40   1
   1   4   5  237.30    4.90   1
  -1  -4  -5  249.00    4.60   1
   1   4   6   92.10    2.80   1
  -1  -4  -6   85.60    2.40   1
   1   4   7  284.20    7.60   1
  -1  -4  -7  282.30    6.20   1
   1   4   8  107.10    5.10   1
  -1  -4  -8  105.00    3.70   1
   1   4   9    6.80    2.20   1
  -1  -4  -9    8.90    1.90   1
   1   5 -10   18.30    3.00   1
  -1  -5  10   16.80    2.10   1
   1   5  -9   59.10    3.70   1
  -1  -5   9   57.80    3.20   1
   1   5  -8   39.60    1.80   1
  -1  -5   8   35.30    1.90   1
   1   5  -7  138.20    3.10   1
  -1  -5   7  140.10    3.20   1
   1   5  -6 1064.60   15.40   1
  -1  -5   6 1058.30   16.50   1
   1   5  -5  736.90   10.50   1
  -1  -5   5  744.10   11.50   1
   1   5  -4  103.70    2.00   1
  -1  -5   4  100.10    2.10   1
   1   5  -3 1097.20   14.60   1
  -1  -5   3 1087.40   14.60   1
   1   5  -2 1425.60   22.90   1
  -1  -5   2 1435.80   16.20   1
   1   5  -1   18.30    0.60   1
  -1  -5   1   21.10    0.50   1
   1   5   0   55.50    1.00   1
  -1  -5   0   52.60    1.20   1
   1   5   1  693.30    9.40   1
  -1  -5  -1  722.90   12.00   1
   1   5   2  740.90   10.30   1
  -1  -5  -2  706.50   10.70   1
   1   5   3 1465.40   21.90   1
  -1  -5  -3 1495.30   21.80   1
   1   5   4   10.40    0.80   1
  -1  -5  -4   10.40    0.60   1
   1   5   5  127.00    2.90   1
  -1  -5  -5  132.30    3.00   1
   1   5   6  430.10    8.20   1
  -1  -5  -6  422.90    7.70   1
   1   5   7   11.30    1.60   1
  -1  -5  -7   12.90    1.30   1
   1   5   8   24.30    2.40   1
  -1  -5  -8   26.20    2.50   1
   1   5   9   22.20    3.20   1
  -1  -5  -9   22.00    3.00   1
   1   6  -9   17.00    2.50   1
  -1  -6   9   11.50    1.80   1
   1   6  -8   56.10    2.70   1
  -1  -6   8   55.00    2.90   1
   1   6  -7  212.80    4.70   1
  -1  -6   7  208.80    4.60   1
   1   6  -6  337.60    5.60   1
  -1  -6   6  341.40    6.10   1
   1   6  -5   66.70    1.60   1
  -1  -6   5   66.70    1.80   1
   1   6  -4  429.40    6.10   1
  -1  -6   4  433.80    6.50   1
   1   6  -3  103.50    2.10   1
  -1  -6   3   97.70    1.90   1
   1   6  -2  264.00    4.80   1
  -1  -6   2  266.70    3.50   1
   1   6  -1  773.80   12.90   1
  -1  -6   1  785.80    9.90   1
   1   6   0   78.00    1.30   1
  -1  -6   0   70.80    1.50   1
   1   6   1  816.20   11.20   1
  -1  -6  -1  834.90   14.20   1
   1   6   2   74.60    1.30   1
  -1  -6  -2   72.30    1.80   1
   1   6   3   42.70    1.10   1
  -1  -6  -3   46.60    1.60   1
   1   6   4  184.10    3.30   1
  -1  -6  -4  183.00    3.50   1
   1   6   5   76.60    2.20   1
  -1  -6  -5   75.60    2.00   1
   1   6   6  130.00    3.70   1
  -1  -6  -6  131.90    3.70   1
   1   6   7   90.60    3.60   1
  -1  -6  -7   96.80    3.40   1
   1   6   8  113.50    5.90   1
  -1  -6  -8  105.30    4.80   1
   1   6   9   44.60    4.10   1
  -1  -6  -9   43.00    4.10   1
   1   7  -9   24.80    2.50   1
  -1  -7   9   19.30    2.30   1
   1   7  -8   17.40    1.70   1
  -1  -7   8   19.70    1.90   1
   1   7  -7    8.60    1.10   1
  -1  -7   7    7.90    1.00   1
   1   7  -6  292.10    5.40   1
  -1  -7   6  304.60    5.90   1
   1   7  -5  334.70    5.60   1
  -1  -7   5  340.10    6.00   1
   1   7  -4   30.10    1.00   1
  -1  -7   4   31.00    1.20   1
   1   7  -3  164.60    3.10   1
  -1  -7   3  158.50    2.40   1
   1   7  -2  115.80    2.50   1
  -1  -7   2  118.40    2.10   1
   1   7  -1  658.50   13.00   1
  -1  -7   1  667.70    8.60   1
   1   7   0  296.50    4.70   1
  -1  -7   0  294.90    4.50   1
   1   7   1  304.70    4.80   1
  -1  -7  -1  305.90    5.90   1
   1   7   2 1131.50   15.90   1
  -1  -7  -2 1105.30   18.90   1
   1   7   3   91.50    1.80   1
  -1  -7  -3   85.40    2.50   1
   1   7   4   34.80    1.20   1
  -1  -7  -4   35.80    1.70   1
   1   7   5  201.90    3.90   1
  -1  -7  -5  213.50    4.20   1
   1   7   6    3.10    0.90   1
  -1  -7  -6    5.40    1.20   1
   1   7   7   20.20    1.80   1
  -1  -7  -7   21.90    2.20   1
   1   7   8   42.60    3.60   1
  -1  -7  -8   41.20    3.20   1
   1   8  -9   -3.60    1.80   1
  -1  -8   9   -0.40    1.80   1
   1   8  -8   38.30    2.90   1
  -1  -8   8   35.20    2.40   1
   1   8  -7   79.10    2.90   1
  -1  -8   7   78.20    3.00   1
   1   8  -6   81.40    2.40   1
  -1  -8   6   81.50    2.40   1
   1   8  -5  672.20   10.60   1
  -1  -8   5  667.30   10.50   1
   1   8  -4  600.70    9.10   1
  -1  -8   4  609.00   10.10   1
   1   8  -3  653.20   12.00   1
  -1  -8   3  643.30    8.00   1
   1   8  -2  454.90    9.40   1
  -1  -8   2  447.90    6.20   1
   1   8  -1  219.10    5.00   1
  -1  -8   1  222.90    3.40   1
   1   8   0  547.30    8.70   1
  -1  -8   0  536.60    7.40   1
   1   8   1  183.80    3.20   1
  -1  -8  -1  184.00    3.60   1
   1   8   2  250.10    4.20   1
  -1  -8  -2  242.30    5.10   1
   1   8   3   23.80    0.80   1
  -1  -8  -3   27.40    1.70   1
   1   8   4    1.90    0.50   1
  -1  -8  -4    2.10    0.80   1
   1   8   5  118.50    3.00   1
  -1  -8  -5  119.60    3.00   1
   1   8   6  207.30    5.60   1
  -1  -8  -6  203.30    4.40   1
   1   8   7  104.60    4.40   1
  -1  -8  -7  110.10    4.90   1
   1   8   8  180.40    8.50   1
  -1  -8  -8  164.70    7.40   1
   1   9  -8   10.70    1.90   1
  -1  -9   8    7.70    1.80   1
   1   9  -7    0.70    1.10   1
  -1  -9   7    0.40    1.10   1
   1   9  -6   67.10    2.60   1
  -1  -9   6   69.40    2.40   1
   1   9  -5  588.00   11.80   1
  -1  -9   5  601.80   10.90   1
   1   9  -4  587.50    9.40   1
  -1  -9   4  586.80    9.30   1
   1   9  -3   84.70    2.40   1
  -1  -9   3   82.10    1.80   1
   1   9  -2   32.20    1.50   1
  -1  -9   2   37.80    1.20   1
   1   9  -1  601.50   12.60   1
  -1  -9   1  595.40    7.70   1
   1   9   0   40.10    1.30   1
  -1  -9   0   38.60    1.20   1
   1   9   1  304.10    5.20   1
  -1  -9  -1  297.50    5.00   1
   1   9   2  268.80    4.70   1
  -1  -9  -2  265.00    5.70   1
   1   9   3    8.60    0.80   1
  -1  -9  -3    7.90    1.30   1
   1   9   4   31.60    1.20   1
  -1  -9  -4   30.50    1.70   1
   1   9   5  147.20    3.70   1
  -1  -9  -5  139.40    3.60   1
   1   9   6   33.30    2.00   1
  -1  -9  -6   32.00    1.80   1
   1   9   7   81.50    4.70   1
  -1  -9  -7   83.30    4.40   1
   1  10  -8    2.10    1.60   1
  -1 -10   8    4.60    2.20   1
   1  10  -7   18.60    1.80   1
  -1 -10   7   14.80    2.30   1
   1  10  -6    3.00    0.90   1
  -1 -10   6    1.40    1.20   1
   1  10  -5  118.70    3.50   1
  -1 -10   5  118.60    3.30   1
   1  10  -4  139.60    4.20   1
  -1 -10   4  136.70    3.90   1
   1  10  -3  258.30    6.80   1
  -1 -10   3  256.40    4.40   1
   1  10  -2   71.40    2.60   1
  -1 -10   2   67.00    1.70   1
   1  10  -1  123.60    3.50   1
  -1 -10   1  121.40    2.00   1
   1  10   0   83.70    2.00   1
  -1 -10   0   77.40    1.90   1
   1  10   1   84.80    2.00   1
  -1 -10  -1   79.80    1.90   1
   1  10   2   33.20    1.30   1
  -1 -10  -2   35.20    1.60   1
   1  10   3    6.80    0.80   1
  -1 -10  -3    6.80    1.20   1
   1  10   4  103.00    2.70   1
  -1 -10  -4   99.60    3.90   1
   1  10   5   56.40    2.10   1
  -1 -10  -5   53.50    2.30   1
   1  10   6   38.50    3.00   1
  -1 -10  -6   33.30    3.00   1
   1  10   7  190.00    9.00   1
  -1 -10  -7  187.20    8.10   1
   1  11  -7   21.10    2.80   1
  -1 -11   7   17.90    3.00   1
   1  11  -6    5.90    1.40   1
  -1 -11   6    5.50    1.40   1
   1  11  -5  167.80    5.80   1
  -1 -11   5  170.60    4.50   1
   1  11  -4  133.40    5.20   1
  -1 -11   4  126.20    3.90   1
   1  11  -3  101.80    5.80   1
  -1 -11   3  102.60    2.70   1
   1  11  -2  164.60    7.50   1
  -1 -11   2  159.50    3.50   1
   1  11  -1   17.20    1.20   1
  -1 -11   1   21.20    0.60   1
   1  11   0   21.90    0.90   1
  -1 -11   0   20.10    1.20   1
   1  11   1   35.90    1.20   1
  -1 -11  -1   32.90    1.40   1
   1  11   2  214.30    5.70   1
  -1 -11  -2  212.40    5.40   1
   1  11   3  313.40    7.90   1
  -1 -11  -3  315.10    8.70   1
   1  11   4    6.70    1.30   1
  -1 -11  -4    8.90    2.00   1
   1  11   5   26.60    2.50   1
  -1 -11  -5   22.40    2.80   1
   1  11   6   32.20    3.10   1
  -1 -11  -6   28.50    3.60   1
   1  12  -6   44.70    5.00   1
  -1 -12   6   42.80    4.10   1
   1  12  -5   55.20    3.90   1
  -1 -12   5   59.40    3.60   1
   1  12  -4    2.00    1.20   1
  -1 -12   4    1.00    1.50   1
   1  12  -3   21.00    2.50   1
  -1 -12   3   19.30    1.20   1
   1  12  -2   -0.20    0.60   1
  -1 -12   2    0.60    0.80   1
   1  12  -1   27.90    1.70   1
  -1 -12   1   30.20    1.40   1
   1  12   0  186.80    5.20   1
  -1 -12   0  183.90    4.50   1
   1  12   1   21.30    1.10   1
  -1 -12  -1   19.10    1.40   1
   1  12   2   90.30    2.70   1
  -1 -12  -2   85.80    2.90   1
   1  12   3    6.80    1.20   1
  -1 -12  -3   11.30    2.00   1
   1  12   4   24.50    2.10   1
  -1 -12  -4   26.90    3.10   1
   1  12   5    8.20    1.90   1
  -1 -12  -5   -2.20    2.50   1
   1  13  -5    6.80    2.70   1
  -1 -13   5    7.60    1.90   1
   1  13  -4   61.70    5.70   1
  -1 -13   4   54.40    3.60   1
  -1 -13   3    4.70    1.40   1
   1  13  -2   28.80    4.30   1
  -1 -13   2   19.00    1.80   1
   1  13  -1   21.40    3.50   1
  -1 -13   1   22.20    1.90   1
   1  13   0   24.00    1.40   1
  -1 -13   0   18.70    1.80   1
   1  13   1    3.40    0.80   1
  -1 -13  -1    2.50    1.00   1
   1  13   2  175.10   10.70   1
  -1 -13  -2  148.20    4.90   1
   1  13   3   20.40    2.90   1
  -1 -13  -3   21.40    1.80   1
   1  13   4    7.60    3.10   1
  -1 -13  -4    4.60    2.40   1
   1  14  -3    3.50    2.30   1
  -1 -14   3    5.30    1.60   1
   1  14  -2   -1.60    3.80   1
  -1 -14   2    4.40    1.50   1
   1  14  -1   -3.20    2.20   1
  -1 -14   1    0.10    1.40   1
   1  14   0    9.10    3.00   1
  -1 -14   0   10.50    1.70   1
   1  14   1    5.80    2.90   1
  -1 -14  -1    2.70    1.60   1
  -1 -14  -2   29.40    2.50   1
   1  14   3   32.80    4.80   1
  -1 -14  -3   21.00    2.50   1
   2   0 -10  234.00    8.90   1
   2   0  -9  272.00    7.00   1
   2   0  -8   76.70    2.30   1
   2   0  -7  208.90    4.00   1
   2   0  -6  550.00    8.80   1
   2   0  -5   26.20    0.90   1
   2   0  -4  224.30    3.60   1
   2   0  -3 1400.10   18.40   1
   2   0  -2  268.80    3.90   1
   2   0  -1  193.70    2.90   1
   2   0   0 7482.90  103.00   1
   2   0   1  659.10    9.80   1
   2   0   2 1084.50   17.90   1
   2   0   3 1235.90   20.00   1
   2   0   4  535.70    9.70   1
   2   0   5  871.30   15.50   1
   2   0   6    1.20    1.00   1
   2   0   7   57.60    2.30   1
   2   0   8   56.60    3.80   1
   2   0   9   13.30    3.50   1
   2   1 -10   14.10    1.70   1
  -2  -1  10   12.50    1.70   1
   2   1  -9  238.90    6.70   1
  -2  -1   9  229.70    6.30   1
   2   1  -8  987.90   17.80   1
  -2  -1   8  998.90   17.50   1
   2   1  -7    8.40    0.70   1
  -2  -1   7    8.60    0.80   1
   2   1  -6   73.50    1.80   1
  -2  -1   6   70.40    1.70   1
   2   1  -5  236.00    3.90   1
  -2  -1   5  253.00    4.20   1
   2   1  -4  439.60    6.80   1
  -2  -1   4  429.70    5.80   1
   2   1  -3   57.70    1.80   1
  -2  -1   3   60.50    1.10   1
   2   1  -2  143.60    2.40   1
  -2  -1   2  148.20    2.10   1
   2   1  -1 1103.10   14.40   1
  -2  -1   1 1074.20   13.00   1
   2   1   0  333.50    4.70   1
  -2  -1   0  332.40    4.60   1
   2   1   1  312.00    4.90   1
  -2  -1  -1  321.00    5.00   1
   2   1   2 2309.40   32.50   1
  -2  -1  -2 2320.10   36.90   1
   2   1   3  756.60   11.30   1
  -2  -1  -3  783.40   13.00   1
   2   1   4 2351.90   38.50   1
  -2  -1  -4 2318.50   38.10   1
   2   1   5  107.50    2.30   1
  -2  -1  -5  103.60    2.90   1
   2   1   6  539.90    9.30   1
  -2  -1  -6  553.90   11.20   1
   2   1   7   25.60    2.00   1
  -2  -1  -7   29.60    2.10   1
   2   1   8    9.30    2.40   1
  -2  -1  -8    9.10    2.20   1
   2   1   9  100.60    8.80   1
  -2  -1  -9   95.10    8.60   1
   2   2 -10  102.60    4.50   1
  -2  -2  10  103.70    4.90   1
   2   2  -9   12.80    1.20   1
  -2  -2   9   15.10    1.60   1
   2   2  -8   34.70    1.60   1
  -2  -2   8   31.50    1.50   1
   2   2  -7  309.40    5.50   1
  -2  -2   7  299.80    5.50   1
   2   2  -6  626.20    9.90   1
  -2  -2   6  613.70    9.70   1
   2   2  -5  227.50    3.90   1
  -2  -2   5  225.20    3.40   1
   2   2  -4  184.60    5.30   1
  -2  -2   4  192.60    2.70   1
   2   2  -3 2859.60   63.70   1
  -2  -2   3 2876.50   32.20   1
   2   2  -2  105.70    1.80   1
  -2  -2   2  111.60    1.70   1
   2   2  -1 4527.60   57.10   1
  -2  -2   1 4541.30   53.20   1
   2   2   0 1145.10   14.90   1
  -2  -2   0 1098.50   13.30   1
   2   2   1  604.40    9.00   1
  -2  -2  -1  593.00    8.70   1
   2   2   2  536.60    9.10   1
  -2  -2  -2  537.70    8.10   1
   2   2   3  361.50    6.60   1
  -2  -2  -3  355.90    5.90   1
   2   2   4 1654.50   27.60   1
  -2  -2  -4 1679.00   24.70   1
   2   2   5  546.80   10.50   1
  -2  -2  -5  562.80   10.80   1
   2   2   6   90.50    2.90   1
  -2  -2  -6   88.30    3.00   1
   2   2   7   54.70    3.20   1
  -2  -2  -7   47.80    2.80   1
   2   2   8  119.90    6.10   1
  -2  -2  -8  126.30    5.10   1
   2   2   9   15.20    4.50   1
  -2  -2  -9   15.00    2.90   1
  -2  -3  10   32.30    2.30   1
   2   3  -9  116.80    4.00   1
  -2  -3   9  124.10    4.10   1
   2   3  -8  415.00    8.90   1
  -2  -3   8  421.10    8.10   1
   2   3  -7  319.20    5.90   1
  -2  -3   7  327.20    5.50   1
   2   3  -6  221.20    4.00   1
  -2  -3   6  220.10    3.40   1
   2   3  -5 1309.50   21.40   1
  -2  -3   5 1311.00   16.50   1
   2   3  -4  289.80    7.80   1
  -2  -3   4  276.50    3.90   1
   2   3  -3  544.70   13.10   1
  -2  -3   3  534.10    6.80   1
   2   3  -2 2944.00   37.70   1
  -2  -3   2 2914.40   34.40   1
   2   3  -1  190.80    2.80   1
  -2  -3   1  185.10    2.70   1
   2   3   0    9.50    0.40   1
  -2  -3   0   10.10    0.40   1
   2   3   1  176.70    2.50   1
  -2  -3  -1  180.50    3.00   1
   2   3   2  763.40   11.50   1
  -2  -3  -2  776.40   11.60   1
   2   3   3  160.40    3.10   1
  -2  -3  -3  157.40    3.00   1
   2   3   4   26.40    1.40   1
  -2  -3  -4   26.70    1.20   1
   2   3   5  520.40   10.30   1
  -2  -3  -5  516.20    8.90   1
   2   3   6  234.40    5.80   1
  -2  -3  -6  232.30    5.00   1
   2   3   7    1.90    1.50   1
  -2  -3  -7   -0.20    1.10   1
   2   3   8   55.90    3.90   1
  -2  -3  -8   58.30    3.50   1
   2   3   9   50.10    5.80   1
  -2  -3  -9   55.60    4.50   1
  -2  -4  10   28.50    2.30   1
   2   4  -9    4.00    1.10   1
  -2  -4   9    3.60    1.20   1
   2   4  -8   33.70    1.60   1
  -2  -4   8   40.60    2.00   1
   2   4  -7  540.80    9.80   1
  -2  -4   7  546.00    8.70   1
   2   4  -6  136.50    2.70   1
  -2  -4   6  135.30    2.40   1
   2   4  -5   80.50    1.80   1
  -2  -4   5   78.10    1.50   1
   2   4  -4  438.60   11.20   1
  -2  -4   4  413.10    4.80   1
   2   4  -3 1604.70   30.40   1
  -2  -4   3 1569.80   16.80   1
   2   4  -2  975.80   14.20   1
  -2  -4   2  962.80   11.00   1
   2   4  -1  281.10    4.40   1
  -2  -4   1  275.00    3.40   1
   2   4   0   87.40    1.60   1
  -2  -4   0   93.80    1.60   1
   2   4   1 1343.10   16.50   1
  -2  -4  -1 1356.30   19.70   1
   2   4   2   48.10    1.30   1
  -2  -4  -2   45.40    1.10   1
   2   4   3  700.80   11.10   1
  -2  -4  -3  702.80   11.00   1
   2   4   4  300.50    5.50   1
  -2  -4  -4  310.50    5.60   1
   2   4   5  157.70    3.60   1
  -2  -4  -5  160.10    3.60   1
   2   4   6   26.40    1.70   1
  -2  -4  -6   25.30    1.40   1
   2   4   7    0.70    2.00   1
  -2  -4  -7    3.00    1.10   1
   2   4   8   96.90    5.60   1
  -2  -4  -8   90.60    4.50   1
  -2  -5  10   -0.20    1.60   1
   2   5  -9  102.20    4.70   1
  -2  -5   9   97.40    4.00   1
   2   5  -8   59.50    2.30   1
  -2  -5   8   57.70    2.90   1
   2   5  -7   67.00    1.90   1
  -2  -5   7   72.00    1.80   1
   2   5  -6   81.80    1.90   1
  -2  -5   6   88.00    1.80   1
   2   5  -5   31.90    1.40   1
  -2  -5   5   26.50    0.70   1
   2   5  -4  127.30    4.10   1
  -2  -5   4  139.60    2.00   1
   2   5  -3  730.60   14.40   1
  -2  -5   3  718.20    8.40   1
   2   5  -2  382.50    6.90   1
  -2  -5   2  368.70    4.30   1
   2   5  -1   66.40    1.60   1
  -2  -5   1   59.60    1.20   1
   2   5   0   86.20    1.60   1
  -2  -5   0   85.10    1.80   1
   2   5   1  264.80    3.60   1
  -2  -5  -1  258.20    4.30   1
   2   5   2  654.30    9.30   1
  -2  -5  -2  652.40   11.50   1
   2   5   3   12.30    0.80   1
  -2  -5  -3   10.90    0.80   1
   2   5   4   46.60    1.60   1
  -2  -5  -4   44.80    1.50   1
   2   5   5  191.60    4.40   1
  -2  -5  -5  202.80    4.40   1
   2   5   6   21.60    1.70   1
  -2  -5  -6   21.50    1.60   1
   2   5   7   15.50    2.20   1
  -2  -5  -7   12.70    1.50   1
   2   5   8   55.50    4.40   1
  -2  -5  -8   63.60    4.00   1
   2   6  -9   17.30    4.00   1
  -2  -6   9   19.10    2.40   1
   2   6  -8   45.50    2.10   1
  -2  -6   8   40.20    2.10   1
   2   6  -7  133.80    3.10   1
  -2  -6   7  135.20    2.90   1
   2   6  -6  200.90    4.10   1
  -2  -6   6  209.50    3.60   1
   2   6  -5   19.90    1.20   1
  -2  -6   5   21.50    0.70   1
   2   6  -4  286.40    6.80   1
  -2  -6   4  289.40    3.60   1
   2   6  -3  587.70   12.00   1
  -2  -6   3  587.60    7.10   1
   2   6  -2 1001.50   17.00   1
  -2  -6   2  987.70   10.90   1
   2   6  -1  321.60    5.90   1
  -2  -6   1  313.20    4.60   1
   2   6   0 1339.40   20.10   1
  -2  -6   0 1346.60   19.60   1
   2   6   1  687.50    9.00   1
  -2  -6  -1  682.90   11.60   1
   2   6   2  661.20    9.00   1
  -2  -6  -2  670.90   11.70   1
   2   6   3  296.20    5.40   1
  -2  -6  -3  319.90    5.60   1
   2   6   4  385.20    7.10   1
  -2  -6  -4  368.80    6.80   1
   2   6   5  243.60    5.80   1
  -2  -6  -5  238.20    5.20   1
   2   6   6   15.60    1.90   1
  -2  -6  -6   12.40    1.40   1
   2   6   7   35.00    3.40   1
  -2  -6  -7   31.90    2.20   1
   2   6   8   65.00    4.60   1
  -2  -6  -8   64.60    5.00   1
   2   7  -9   32.80    5.20   1
  -2  -7   9   32.80    2.70   1
   2   7  -8  111.90    4.30   1
  -2  -7   8  121.30    4.20   1
   2   7  -7  149.90    4.00   1
  -2  -7   7  159.30    3.90   1
   2   7  -6   20.20    1.10   1
  -2  -7   6   20.10    0.90   1
   2   7  -5   57.80    2.00   1
  -2  -7   5   54.00    1.20   1
   2   7  -4   62.20    1.90   1
  -2  -7   4   64.10    1.30   1
   2   7  -3    6.70    0.90   1
  -2  -7   3    6.50    0.40   1
   2   7  -2  177.50    4.50   1
  -2  -7   2  192.40    2.80   1
   2   7  -1   58.30    1.80   1
  -2  -7   1   55.40    1.20   1
   2   7   0   44.00    1.40   1
  -2  -7   0   40.30    1.30   1
   2   7   1  132.90    2.40   1
  -2  -7  -1  135.50    2.80   1
   2   7   2  246.10    3.40   1
  -2  -7  -2  228.70    5.60   1
   2   7   3  103.60    2.40   1
  -2  -7  -3   97.50    3.20   1
   2   7   4  200.00    4.40   1
  -2  -7  -4  201.10    4.90   1
   2   7   5   71.40    2.70   1
  -2  -7  -5   67.10    2.50   1
   2   7   6  267.50    9.30   1
  -2  -7  -6  265.80    6.80   1
   2   7   7   28.70    2.80   1
  -2  -7  -7   31.30    2.80   1
   2   7   8    3.00    2.10   1
  -2  -7  -8    4.10    2.50   1
  -2  -8   9   13.70    2.10   1
   2   8  -8   44.20    2.50   1
  -2  -8   8   42.40    2.90   1
   2   8  -7   92.90    3.00   1
  -2  -8   7   84.90    3.00   1
   2   8  -6  113.60    3.60   1
  -2  -8   6  109.50    2.50   1
   2   8  -5   62.20    2.60   1
  -2  -8   5   64.60    1.50   1
   2   8  -4   32.00    1.40   1
  -2  -8   4   29.60    0.90   1
   2   8  -3 1390.40   28.10   1
  -2  -8   3 1384.60   15.50   1
   2   8  -2   31.30    2.10   1
  -2  -8   2   33.40    0.90   1
   2   8  -1  413.10    9.20   1
  -2  -8   1  418.60    6.30   1
   2   8   0  143.70    3.10   1
  -2  -8   0  145.00    3.00   1
   2   8   1  164.60    3.50   1
  -2  -8  -1  162.20    3.50   1
   2   8   2  252.50    4.50   1
  -2  -8  -2  254.60    5.70   1
   2   8   3   43.70    1.00   1
  -2  -8  -3   42.70    2.20   1
   2   8   4  284.90    5.70   1
  -2  -8  -4  281.80    7.70   1
   2   8   5   63.50    2.50   1
  -2  -8  -5   68.70    3.10   1
   2   8   6   11.90    1.70   1
  -2  -8  -6    5.90    1.60   1
   2   8   7   53.50    4.00   1
  -2  -8  -7   58.90    3.70   1
   2   9  -8   56.90    6.80   1
  -2  -9   8   50.10    3.40   1
   2   9  -7  114.50    6.30   1
  -2  -9   7  112.50    5.00   1
   2   9  -6   19.10    1.80   1
  -2  -9   6   15.70    1.10   1
   2   9  -5  158.50    4.30   1
  -2  -9   5  148.00    2.80   1
   2   9  -4   61.30    2.20   1
  -2  -9   4   63.00    1.50   1
   2   9  -3  200.20    7.00   1
  -2  -9   3  194.30    3.20   1
   2   9  -2  856.20   22.10   1
  -2  -9   2  872.30   11.00   1
   2   9  -1  230.50    6.10   1
  -2  -9   1  228.90    3.80   1
   2   9   0  122.30    3.00   1
  -2  -9   0  128.60    2.70   1
   2   9   1   84.10    2.50   1
  -2  -9  -1   86.30    2.50   1
   2   9   2  110.60    2.50   1
  -2  -9  -2  108.50    3.20   1
   2   9   3   12.50    1.10   1
  -2  -9  -3   14.50    2.00   1
   2   9   4   71.30    2.20   1
  -2  -9  -4   72.30    3.90   1
   2   9   5   53.50    2.40   1
  -2  -9  -5   58.80    3.80   1
   2   9   6   50.50    3.70   1
  -2  -9  -6   41.10    3.20   1
   2   9   7   50.90    3.90   1
  -2  -9  -7   48.80    4.70   1
   2  10  -7   20.80    2.60   1
  -2 -10   7   18.80    2.70   1
   2  10  -6   24.30    2.10   1
  -2 -10   6   23.40    2.70   1
   2  10  -5    0.90    0.90   1
  -2 -10   5    0.20    0.70   1
   2  10  -4   48.30    2.20   1
  -2 -10   4   49.00    1.60   1
   2  10  -3 1041.50   28.90   1
  -2 -10   3 1071.10   14.70   1
   2  10  -2   90.10    4.40   1
  -2 -10   2   93.80    2.00   1
   2  10  -1   56.70    2.30   1
  -2 -10   1   56.80    1.70   1
   2  10   0  106.90    3.40   1
  -2 -10   0  106.10    2.60   1
   2  10   1  101.40    3.00   1
  -2 -10  -1   97.40    2.70   1
   2  10   2   41.90    1.50   1
  -2 -10  -2   40.20    2.00   1
   2  10   3    4.80    0.90   1
  -2 -10  -3    5.80    2.10   1
   2  10   4    7.20    1.40   1
  -2 -10  -4   10.80    2.20   1
   2  10   5   20.30    2.20   1
  -2 -10  -5   17.00    2.50   1
   2  10   6    5.70    1.90   1
  -2 -10  -6    9.60    2.90   1
   2  11  -7   -2.20    2.90   1
  -2 -11   7    2.60    2.10   1
   2  11  -6   26.40    4.10   1
  -2 -11   6   29.60    3.30   1
   2  11  -5   29.50    1.90   1
  -2 -11   5   27.10    2.10   1
   2  11  -4   80.30    3.90   1
  -2 -11   4   71.10    2.80   1
  -2 -11   3    1.90    0.70   1
  -2 -11   2   16.30    1.10   1
   2  11  -1  131.90    6.40   1
  -2 -11   1  151.00    3.40   1
   2  11   0    2.20    1.20   1
  -2 -11   0    4.30    0.90   1
   2  11   1    7.00    1.80   1
  -2 -11  -1    7.60    1.00   1
   2  11   2  123.70    6.00   1
  -2 -11  -2  134.10    4.00   1
   2  11   3   23.30    1.70   1
  -2 -11  -3   22.50    2.50   1
   2  11   4   94.70    5.00   1
  -2 -11  -4   92.20    5.40   1
   2  11   5   22.70    3.90   1
  -2 -11  -5   12.90    2.60   1
   2  12  -6   34.60    4.90   1
  -2 -12   6   40.90    4.10   1
   2  12  -5    2.40    2.60   1
  -2 -12   5   -0.80    2.10   1
  -2 -12   4   49.70    2.60   1
  -2 -12   3   21.30    1.40   1
  -2 -12   2   34.90    1.70   1
   2  12  -1    3.70    2.50   1
  -2 -12   1    3.50    0.90   1
   2  12   0   78.90    4.80   1
  -2 -12   0   84.60    2.90   1
   2  12   1   34.50    3.00   1
  -2 -12  -1   35.10    1.90   1
   2  12   2   17.60    2.50   1
  -2 -12  -2   19.00    1.70   1
   2  12   3   73.00    6.80   1
  -2 -12  -3   78.10    4.10   1
   2  12   4    8.70    3.20   1
  -2 -12  -4    7.60    2.50   1
   2  13  -5    7.00    4.10   1
  -2 -13   5    1.40    2.10   1
  -2 -13   4   10.90    2.80   1
  -2 -13   3   -1.00    1.30   1
   2  13  -2   50.10    6.20   1
  -2 -13   2   56.90    3.10   1
   2  13  -1   13.40    4.30   1
  -2 -13   1    6.10    1.20   1
   2  13   0   14.50    3.70   1
  -2 -13   0   11.30    1.50   1
   2  13   1   11.00    4.30   1
  -2 -13  -1    7.60    1.50   1
   2  13   2   30.70    5.30   1
  -2 -13  -2   24.10    2.20   1
   2  13   3   40.30    5.30   1
  -2 -13  -3   29.60    3.00   1
  -2 -14   3    1.90    1.60   1
  -2 -14   2    1.70    1.50   1
  -2 -14   1    0.20    1.50   1
  -2 -14   0    9.40    1.90   1
  -2 -14  -1    3.20    1.60   1
   3   0 -10   17.30    3.10   1
   3   0  -9   74.60    2.40   1
   3   0  -8   10.20    0.90   1
   3   0  -7  138.40    2.90   1
   3   0  -6 1708.80   25.70   1
   3   0  -5    0.50    0.30   1
   3   0  -4  792.60   11.80   1
   3   0  -3    5.20    0.40   1
   3   0  -2  180.50    2.40   1
   3   0  -1   37.00    1.10   1
   3   0   0   40.20    1.10   1
   3   0   1  963.70   13.00   1
   3   0   2    1.90    0.50   1
   3   0   3  318.40    5.50   1
   3   0   4  180.30    3.60   1
   3   0   5  686.20   12.80   1
   3   0   6  154.70    5.30   1
   3   0   7   97.00    5.70   1
   3   0   8   89.10    8.30   1
   3   1 -10   -0.60    2.30   1
  -3  -1  10    1.50    1.90   1
   3   1  -9   10.80    1.10   1
  -3  -1   9   13.00    1.20   1
   3   1  -8  774.10   14.10   1
  -3  -1   8  772.90   14.60   1
   3   1  -7   62.90    1.50   1
  -3  -1   7   60.60    1.80   1
   3   1  -6  813.80   17.10   1
  -3  -1   6  816.20   12.90   1
   3   1  -5   67.70    2.50   1
  -3  -1   5   64.00    1.40   1
   3   1  -4  119.30    3.50   1
  -3  -1   4  124.70    2.00   1
   3   1  -3  137.60    2.30   1
  -3  -1   3  140.90    2.10   1
   3   1  -2 1089.50   14.60   1
  -3  -1   2 1060.60   13.20   1
   3   1  -1 1795.30   29.00   1
  -3  -1   1 1820.40   24.00   1
   3   1   0 1911.60   25.00   1
  -3  -1   0 1917.90   24.90   1
   3   1   1  299.50    4.50   1
  -3  -1  -1  300.90    4.50   1
   3   1   2  277.90    4.80   1
  -3  -1  -2  293.00    4.90   1
   3   1   3  530.50    8.60   1
  -3  -1  -3  529.80    8.80   1
   3   1   4  165.30    3.30   1
  -3  -1  -4  164.60    4.30   1
   3   1   5  186.30    5.60   1
  -3  -1  -5  174.00    5.40   1
   3   1   6    1.60    1.20   1
  -3  -1  -6    6.60    1.50   1
   3   1   7  103.60    5.50   1
  -3  -1  -7   87.20    5.40   1
   3   1   8    1.60    2.50   1
  -3  -1  -8    6.00    2.40   1
  -3  -2  10   42.50    2.60   1
   3   2  -9   25.30    2.70   1
  -3  -2   9   32.20    1.60   1
   3   2  -8  279.40    9.40   1
  -3  -2   8  281.70    5.80   1
   3   2  -7  110.10    3.80   1
  -3  -2   7  106.00    2.40   1
   3   2  -6   98.50    3.30   1
  -3  -2   6   95.50    2.00   1
   3   2  -5  390.70   15.80   1
  -3  -2   5  383.60    5.10   1
   3   2  -4  229.40    5.20   1
  -3  -2   4  224.90    3.10   1
   3   2  -3  769.30   11.70   1
  -3  -2   3  790.30   10.00   1
   3   2  -2  399.00    6.10   1
  -3  -2   2  392.50    5.20   1
   3   2  -1 1070.30   15.30   1
  -3  -2   1 1076.70   13.30   1
   3   2   0   90.60    1.80   1
  -3  -2   0  102.00    1.70   1
   3   2   1  698.50   10.70   1
  -3  -2  -1  675.00   10.20   1
   3   2   2  255.20    4.60   1
  -3  -2  -2  263.50    5.10   1
   3   2   3  114.90    3.00   1
  -3  -2  -3  118.20    2.60   1
   3   2   4  254.40    5.80   1
  -3  -2  -4  245.40    4.80   1
   3   2   5  268.30    7.30   1
  -3  -2  -5  268.20    6.10   1
   3   2   6   66.80    3.90   1
  -3  -2  -6   68.20    2.70   1
   3   2   7  116.30    6.30   1
  -3  -2  -7  125.90    5.40   1
   3   2   8   74.10    5.50   1
  -3  -2  -8   64.50    4.80   1
  -3  -3  10   20.00    1.90   1
   3   3  -9   32.90    5.00   1
  -3  -3   9   36.30    1.90   1
   3   3  -8   11.50    3.00   1
  -3  -3   8    7.60    1.00   1
   3   3  -7   47.80    3.10   1
  -3  -3   7   46.50    1.40   1
   3   3  -6   94.90    4.20   1
  -3  -3   6  106.10    2.10   1
   3   3  -5  199.70    6.10   1
  -3  -3   5  201.00    3.10   1
   3   3  -4  400.60   10.70   1
  -3  -3   4  407.80    5.30   1
   3   3  -3   50.40    1.20   1
  -3  -3   3   49.40    1.00   1
   3   3  -2  204.80    3.50   1
  -3  -3   2  194.50    2.80   1
   3   3  -1 2172.00   30.80   1
  -3  -3   1 2175.70   23.10   1
   3   3   0  703.00    9.70   1
  -3  -3   0  706.00    9.70   1
   3   3   1  458.80    7.50   1
  -3  -3  -1  458.50    6.70   1
   3   3   2  327.70    5.70   1
  -3  -3  -2  327.20    6.10   1
   3   3   3  384.40    6.80   1
  -3  -3  -3  395.20    6.80   1
   3   3   4   85.10    2.40   1
  -3  -3  -4   84.10    2.40   1
   3   3   5  127.80    3.90   1
  -3  -3  -5  129.50    3.70   1
   3   3   6   36.90    2.90   1
  -3  -3  -6   43.60    2.20   1
   3   3   7   10.70    2.20   1
  -3  -3  -7   11.30    1.90   1
   3   3   8    0.80    2.40   1
  -3  -3  -8    2.20    2.30   1
  -3  -4  10   36.60    2.60   1
   3   4  -9   38.50    5.10   1
  -3  -4   9   37.50    2.00   1
   3   4  -8  101.80    5.40   1
  -3  -4   8  108.10    3.20   1
   3   4  -7    3.20    1.70   1
  -3  -4   7    4.00    0.70   1
   3   4  -6   24.40    1.70   1
  -3  -4   6   20.70    0.90   1
   3   4  -5    8.00    1.50   1
  -3  -4   5    5.30    0.60   1
   3   4  -4  171.80    5.50   1
  -3  -4   4  179.20    2.70   1
   3   4  -3  443.20    9.10   1
  -3  -4   3  450.40    5.20   1
   3   4  -2  165.00    2.70   1
  -3  -4   2  157.00    2.40   1
   3   4  -1  926.00   13.60   1
  -3  -4   1  931.80   10.90   1
   3   4   0  137.50    2.40   1
  -3  -4   0  131.00    2.10   1
   3   4   1   86.10    2.00   1
  -3  -4  -1   72.00    1.50   1
   3   4   2   38.10    1.20   1
  -3  -4  -2   36.50    1.40   1
   3   4   3  178.80    3.80   1
  -3  -4  -3  187.20    3.90   1
   3   4   4  191.70    4.20   1
  -3  -4  -4  186.20    4.20   1
   3   4   5  143.90    4.30   1
  -3  -4  -5  149.80    4.20   1
   3   4   6    7.40    1.80   1
  -3  -4  -6    5.70    1.30   1
   3   4   7   73.30    4.60   1
  -3  -4  -7   69.90    3.90   1
   3   5  -9   12.20    3.70   1
  -3  -5   9   12.20    1.80   1
   3   5  -8   82.60    6.80   1
  -3  -5   8   78.60    2.70   1
   3   5  -7   23.00    2.40   1
  -3  -5   7   22.70    1.20   1
   3   5  -6  301.60    8.20   1
  -3  -5   6  309.90    4.70   1
   3   5  -5  252.50    7.80   1
  -3  -5   5  249.10    4.00   1
   3   5  -4  479.70   12.60   1
  -3  -5   4  464.70    6.60   1
   3   5  -3   49.80    1.60   1
  -3  -5   3   50.00    1.00   1
   3   5  -2  178.50    3.00   1
  -3  -5   2  183.20    2.70   1
   3   5  -1  356.50    5.80   1
  -3  -5   1  350.10    4.70   1
   3   5   0  265.50    4.20   1
  -3  -5   0  256.90    3.70   1
   3   5   1   66.20    1.60   1
  -3  -5  -1   64.20    1.50   1
   3   5   2  166.20    3.10   1
  -3  -5  -2  168.60    3.20   1
   3   5   3  637.50   10.70   1
  -3  -5  -3  637.00   12.30   1
   3   5   4  294.00    6.20   1
  -3  -5  -4  305.40    6.60   1
   3   5   5   33.30    2.20   1
  -3  -5  -5   37.20    2.00   1
   3   5   6   25.60    2.60   1
  -3  -5  -6   24.60    2.00   1
   3   5   7    8.90    2.90   1
  -3  -5  -7   10.50    2.20   1
  -3  -6   9   12.90    1.70   1
   3   6  -8    2.70    2.70   1
  -3  -6   8    4.20    1.30   1
   3   6  -7   38.50    3.10   1
  -3  -6   7   38.40    1.70   1
   3   6  -6  519.70   12.80   1
  -3  -6   6  500.30    8.00   1
   3   6  -5   40.10    2.70   1
  -3  -6   5   42.20    1.30   1
   3   6  -4   79.40    3.40   1
  -3  -6   4   83.80    1.40   1
   3   6  -3  136.20    3.20   1
  -3  -6   3  137.90    2.00   1
   3   6  -2   58.20    1.70   1
  -3  -6   2   64.40    1.10   1
   3   6  -1   95.60    2.00   1
  -3  -6   1   95.50    2.10   1
   3   6   0  241.60    4.00   1
  -3  -6   0  240.90    3.80   1
   3   6   1  169.00    3.10   1
  -3  -6  -1  180.00    3.10   1
   3   6   2    3.50    0.60   1
  -3  -6  -2    3.70    0.50   1
   3   6   3   65.00    1.80   1
  -3  -6  -3   71.30    2.40   1
   3   6   4   37.10    1.90   1
  -3  -6  -4   38.00    1.90   1
   3   6   5  145.30    4.80   1
  -3  -6  -5  141.80    4.20   1
   3   6   6   28.10    2.80   1
  -3  -6  -6   24.10    2.10   1
   3   6   7   35.60    3.40   1
  -3  -6  -7   31.80    3.90   1
  -3  -7   9   22.10    2.40   1
   3   7  -8   98.10    8.60   1
  -3  -7   8  101.80    4.80   1
   3   7  -7    3.70    2.70   1
  -3  -7   7    5.10    1.10   1
   3   7  -6   94.40    3.90   1
  -3  -7   6   92.10    2.60   1
   3   7  -5   90.20    4.30   1
  -3  -7   5   99.00    1.70   1
   3   7  -4  381.60    9.40   1
  -3  -7   4  375.90    4.90   1
   3   7  -3   95.00    3.20   1
  -3  -7   3   99.60    1.70   1
   3   7  -2   86.60    2.40   1
  -3  -7   2   90.80    1.80   1
   3   7  -1  748.50   13.70   1
  -3  -7   1  753.10   11.80   1
   3   7   0  904.20   13.10   1
  -3  -7   0  888.40   14.00   1
   3   7   1   33.20    1.20   1
  -3  -7  -1   29.90    1.30   1
   3   7   2  188.60    3.40   1
  -3  -7  -2  196.10    4.00   1
   3   7   3  141.50    3.00   1
  -3  -7  -3  145.20    3.40   1
   3   7   4   40.10    2.30   1
  -3  -7  -4   37.20    2.10   1
   3   7   5   19.00    2.10   1
  -3  -7  -5   17.30    1.90   1
   3   7   6   15.80    2.50   1
  -3  -7  -6   11.40    1.90   1
   3   8  -8    7.10    3.40   1
  -3  -8   8    9.80    2.40   1
   3   8  -7   20.30    3.70   1
  -3  -8   7   18.90    1.90   1
   3   8  -6    5.30    1.90   1
  -3  -8   6    2.70    0.90   1
   3   8  -5   68.60    4.00   1
  -3  -8   5   70.30    1.80   1
   3   8  -4   14.00    1.60   1
  -3  -8   4   17.10    0.70   1
   3   8  -3  205.90    6.90   1
  -3  -8   3  204.70    3.30   1
   3   8  -2   44.20    2.20   1
  -3  -8   2   41.00    1.10   1
   3   8  -1  578.80   10.10   1
  -3  -8   1  580.40    9.80   1
   3   8   0  154.10    3.60   1
  -3  -8   0  158.30    3.50   1
   3   8   1   25.00    1.40   1
  -3  -8  -1   23.90    1.30   1
   3   8   2   43.30    1.40   1
  -3  -8  -2   45.40    2.30   1
   3   8   3   40.20    1.40   1
  -3  -8  -3   38.70    1.70   1
   3   8   4   65.30    2.50   1
  -3  -8  -4   64.80    3.80   1
   3   8   5   25.00    2.60   1
  -3  -8  -5   16.10    2.60   1
   3   8   6   29.50    3.30   1
  -3  -8  -6   28.20    3.30   1
  -3  -9   8   46.40    4.20   1
   3   9  -7   17.20    3.80   1
  -3  -9   7   13.50    2.70   1
   3   9  -6   11.40    3.40   1
  -3  -9   6    7.70    1.50   1
   3   9  -5  108.30    5.60   1
  -3  -9   5  111.20    3.60   1
   3   9  -4    4.90    1.40   1
  -3  -9   4    7.20    0.90   1
   3   9  -3   11.70    1.80   1
  -3  -9   3   14.70    0.80   1
   3   9  -2  359.80    9.20   1
  -3  -9   2  375.80    5.70   1
   3   9  -1  568.60   10.70   1
  -3  -9   1  580.80   10.20   1
   3   9   0  370.60    7.70   1
  -3  -9   0  374.80    8.00   1
   3   9   1   95.20    3.10   1
  -3  -9  -1  104.30    3.10   1
   3   9   2   18.00    1.70   1
  -3  -9  -2   18.40    1.70   1
   3   9   3   19.70    1.40   1
  -3  -9  -3   20.70    1.40   1
   3   9   4   30.90    2.50   1
  -3  -9  -4   24.40    2.80   1
   3   9   5    6.20    1.60   1
  -3  -9  -5    6.80    2.40   1
   3  10  -7   13.60    4.00   1
  -3 -10   7   11.70    2.70   1
   3  10  -6   31.10    4.80   1
  -3 -10   6   37.20    2.70   1
  -3 -10   5   25.60    2.20   1
   3  10  -4   13.30    3.20   1
  -3 -10   4   16.70    1.40   1
   3  10  -3   33.90    3.40   1
  -3 -10   3   39.00    1.50   1
   3  10  -2    0.60    1.40   1
  -3 -10   2    1.60    0.70   1
   3  10  -1  536.80   11.50   1
  -3 -10   1  554.60   10.40   1
   3  10   0  200.50    4.90   1
  -3 -10   0  198.40    5.00   1
   3  10   1    7.00    1.40   1
  -3 -10  -1    8.40    1.20   1
   3  10   2   12.10    2.20   1
  -3 -10  -2   12.80    1.60   1
   3  10   3   14.20    3.20   1
  -3 -10  -3   10.80    1.70   1
   3  10   4   93.30    7.80   1
  -3 -10  -4   95.80    5.40   1
   3  10   5   67.90    6.90   1
  -3 -10  -5   63.10    5.10   1
   3  11  -6   32.00    5.10   1
  -3 -11   6   33.50    3.50   1
  -3 -11   5    6.60    1.60   1
  -3 -11   4   17.50    1.90   1
  -3 -11   3    2.30    1.10   1
  -3 -11   2   16.10    1.30   1
   3  11  -1   35.80    3.10   1
  -3 -11   1   30.20    1.50   1
   3  11   0   38.60    4.30   1
  -3 -11   0   37.30    2.00   1
   3  11   1    2.20    2.60   1
  -3 -11  -1    3.20    1.20   1
   3  11   2   32.00    4.60   1
  -3 -11  -2   33.10    2.60   1
   3  11   3   59.50    6.40   1
  -3 -11  -3   72.90    4.00   1
   3  11   4    7.80    3.60   1
  -3 -11  -4    9.50    2.60   1
  -3 -12   5    6.10    1.90   1
  -3 -12   4    5.90    2.10   1
  -3 -12   3    8.30    1.70   1
  -3 -12   2    3.30    1.20   1
   3  12  -1   14.10    3.40   1
  -3 -12   1   13.50    1.40   1
   3  12   0   24.70    4.20   1
  -3 -12   0   16.10    1.60   1
   3  12   1   39.50    5.60   1
  -3 -12  -1   28.90    2.20   1
   3  12   2   30.10    4.60   1
  -3 -12  -2   21.50    2.50   1
   3  12   3    4.70    3.20   1
  -3 -12  -3    2.80    1.80   1
  -3 -13   3   24.40    2.50   1
  -3 -13   2    3.70    1.60   1
  -3 -13   1    3.00    1.40   1
   3  13   0   -3.80    2.90   1
  -3 -13   0    0.90    1.40   1
   3  13   1   -3.60    2.90   1
  -3 -13  -1   -1.30    1.50   1
   4   0 -10   40.30    6.30   1
   4   0  -9    2.50    2.10   1
   4   0  -8    4.50    2.20   1
   4   0  -7   11.50    1.90   1
   4   0  -6 1080.00   18.70   1
   4   0  -5  242.20    4.40   1
   4   0  -4  897.20   10.80   1
   4   0  -3  211.50    2.90   1
   4   0  -2  234.80    4.40   1
   4   0  -1  319.60    5.40   1
   4   0   0  106.40    2.40   1
   4   0   1  111.80    2.00   1
   4   0   2  187.90    3.50   1
   4   0   3   62.20    1.90   1
   4   0   4   30.60    1.70   1
   4   0   5  378.20   10.70   1
   4   0   6  102.70    4.60   1
   4   1  -9   22.40    3.00   1
  -4  -1   9   23.60    2.40   1
   4   1  -8   28.30    2.80   1
  -4  -1   8   30.60    1.20   1
   4   1  -7  130.40    5.50   1
  -4  -1   7  128.90    2.90   1
   4   1  -6  123.80    4.30   1
  -4  -1   6  122.10    2.30   1
   4   1  -5  592.30   13.10   1
  -4  -1   5  602.00    7.90   1
   4   1  -4  361.00    5.40   1
  -4  -1   4  366.50    4.80   1
   4   1  -3  115.00    2.00   1
  -4  -1   3  114.20    2.00   1
   4   1  -2   24.40    1.00   1
  -4  -1   2   23.20    0.90   1
   4   1  -1  173.70    3.40   1
  -4  -1   1  168.00    3.30   1
   4   1   0  135.80    2.90   1
  -4  -1   0  126.80    2.70   1
   4   1   1   68.70    1.40   1
  -4  -1  -1   67.50    1.60   1
   4   1   2   31.60    1.10   1
  -4  -1  -2   35.70    1.20   1
   4   1   3  112.80    2.60   1
  -4  -1  -3  108.80    2.70   1
   4   1   4   94.20    3.70   1
  -4  -1  -4  101.20    2.70   1
   4   1   5   38.10    3.20   1
  -4  -1  -5   39.40    2.20   1
   4   1   6   50.20    4.20   1
  -4  -1  -6   54.60    3.30   1
   4   2  -9   32.40    5.10   1
  -4  -2   9   37.50    2.90   1
   4   2  -8   34.90    4.40   1
  -4  -2   8   35.40    1.60   1
   4   2  -7  180.00    9.60   1
  -4  -2   7  164.40    3.70   1
   4   2  -6  604.70   13.70   1
  -4  -2   6  605.90    8.10   1
   4   2  -5  307.20    7.90   1
  -4  -2   5  317.70    4.50   1
   4   2  -4  316.30    6.20   1
  -4  -2   4  323.10    4.80   1
   4   2  -3  537.30    8.60   1
  -4  -2   3  532.50    7.20   1
   4   2  -2  465.20    8.80   1
  -4  -2   2  477.80    7.10   1
   4   2  -1  372.50    7.10   1
  -4  -2   1  373.80    5.80   1
   4   2   0  321.80    6.50   1
  -4  -2   0  311.90    5.50   1
   4   2   1  193.70    3.70   1
  -4  -2  -1  170.10    3.20   1
   4   2   2  356.00    6.40   1
  -4  -2  -2  354.10    5.90   1
   4   2   3   12.00    1.10   1
  -4  -2  -3    9.80    0.90   1
   4   2   4   54.70    2.40   1
  -4  -2  -4   58.70    2.30   1
   4   2   5  128.60    4.90   1
  -4  -2  -5  125.30    4.10   1
   4   2   6   10.20    2.40   1
  -4  -2  -6   10.60    1.80   1
   4   3  -9   14.30    3.90   1
  -4  -3   9   12.50    2.30   1
   4   3  -8   36.60    3.20   1
  -4  -3   8   37.80    1.70   1
   4   3  -7    9.00    1.80   1
  -4  -3   7    7.30    0.90   1
   4   3  -6   26.70    2.80   1
  -4  -3   6   30.80    1.10   1
   4   3  -5  273.20    8.70   1
  -4  -3   5  284.40    4.20   1
   4   3  -4   25.40    1.20   1
  -4  -3   4   26.50    0.90   1
   4   3  -3   57.30    1.40   1
  -4  -3   3   61.20    1.30   1
   4   3  -2   25.00    0.90   1
  -4  -3   2   21.30    0.70   1
   4   3  -1  105.70    2.60   1
  -4  -3   1  108.20    2.20   1
   4   3   0  307.40    5.60   1
  -4  -3   0  305.00    4.50   1
   4   3   1  387.00    6.90   1
  -4  -3  -1  390.00    6.40   1
   4   3   2   76.40    2.10   1
  -4  -3  -2   77.20    2.20   1
   4   3   3   40.10    1.50   1
  -4  -3  -3   37.30    1.80   1
   4   3   4    9.80    1.20   1
  -4  -3  -4   12.90    1.50   1
   4   3   5   22.60    2.20   1
  -4  -3  -5   26.20    1.90   1
   4   3   6   37.60    3.90   1
  -4  -3  -6   40.50    3.00   1
  -4  -4   9   24.00    1.90   1
   4   4  -8   67.60    6.40   1
  -4  -4   8   71.60    2.70   1
   4   4  -7  226.90    8.30   1
  -4  -4   7  243.50    5.40   1
   4   4  -6  142.70    7.50   1
  -4  -4   6  159.10    3.20   1
   4   4  -5   42.30    2.60   1
  -4  -4   5   47.80    1.30   1
   4   4  -4   66.10    2.10   1
  -4  -4   4   63.50    1.50   1
   4   4  -3  277.50    5.00   1
  -4  -4   3  274.00    4.20   1
   4   4  -2  905.40   15.20   1
  -4  -4   2  922.40   11.20   1
   4   4  -1   54.20    1.30   1
  -4  -4   1   59.20    1.30   1
   4   4   0   77.00    1.90   1
  -4  -4   0   77.40    1.70   1
   4   4   1  310.60    5.80   1
  -4  -4  -1  309.10    5.70   1
   4   4   2   93.90    2.50   1
  -4  -4  -2   92.40    2.60   1
   4   4   3   22.40    1.30   1
  -4  -4  -3   19.40    1.50   1
   4   4   4   37.70    2.30   1
  -4  -4  -4   33.30    2.00   1
   4   4   5   24.70    2.30   1
  -4  -4  -5   23.10    1.90   1
   4   4   6   16.70    2.80   1
  -4  -4  -6   24.70    3.10   1
  -4  -5   9   36.80    2.60   1
   4   5  -8   27.30    5.50   1
  -4  -5   8   26.20    2.00   1
   4   5  -7   33.70    2.90   1
  -4  -5   7   31.70    1.60   1
   4   5  -6    0.30    2.20   1
  -4  -5   6    6.40    0.80   1
   4   5  -5  173.00    9.40   1
  -4  -5   5  181.80    3.30   1
   4   5  -4  101.80    4.20   1
  -4  -5   4  108.50    2.10   1
   4   5  -3  135.70    3.00   1
  -4  -5   3  143.50    2.40   1
   4   5  -2   50.20    1.40   1
  -4  -5   2   48.20    1.10   1
   4   5  -1   97.40    2.10   1
  -4  -5   1  100.10    1.90   1
   4   5   0  104.20    2.50   1
  -4  -5   0  113.60    2.30   1
   4   5   1   61.80    1.90   1
  -4  -5  -1   62.30    1.60   1
   4   5   2  278.00    5.80   1
  -4  -5  -2  274.00    6.30   1
   4   5   3   79.60    2.70   1
  -4  -5  -3   79.80    2.90   1
   4   5   4    7.00    1.10   1
  -4  -5  -4    5.50    1.20   1
   4   5   5   70.90    4.70   1
  -4  -5  -5   75.00    4.60   1
   4   5   6   36.10    3.60   1
  -4  -5  -6   32.30    3.30   1
   4   6  -8    7.10    3.40   1
  -4  -6   8    4.90    1.30   1
   4   6  -7   16.40    3.80   1
  -4  -6   7   17.70    1.30   1
   4   6  -6  163.40    9.20   1
  -4  -6   6  167.50    3.60   1
   4   6  -5  103.10    6.30   1
  -4  -6   5  102.20    2.40   1
   4   6  -4   57.60    3.30   1
  -4  -6   4   66.60    1.70   1
   4   6  -3  215.90    4.90   1
  -4  -6   3  216.70    3.20   1
   4   6  -2  119.50    2.70   1
  -4  -6   2  116.80    1.80   1
   4   6  -1   97.30    2.20   1
  -4  -6   1   97.80    1.90   1
   4   6   0    0.20    0.50   1
  -4  -6   0    0.40    0.40   1
   4   6   1  102.40    2.80   1
  -4  -6  -1   98.10    2.40   1
   4   6   2   45.40    1.80   1
  -4  -6  -2   47.10    1.90   1
   4   6   3   23.70    1.80   1
  -4  -6  -3   20.80    2.20   1
   4   6   4   31.20    1.80   1
  -4  -6  -4   31.60    2.50   1
   4   6   5   45.20    3.70   1
  -4  -6  -5   46.70    3.80   1
  -4  -7   8   10.20    1.90   1
   4   7  -7  103.30    9.00   1
  -4  -7   7  106.10    4.30   1
   4   7  -6    9.10    2.70   1
  -4  -7   6   14.30    1.10   1
   4   7  -5   79.70    5.80   1
  -4  -7   5   86.80    2.20   1
   4   7  -4   53.50    4.50   1
  -4  -7   4   62.10    1.60   1
   4   7  -3   76.80    2.90   1
  -4  -7   3   72.00    1.30   1
   4   7  -2   29.70    1.50   1
  -4  -7   2   31.40    1.20   1
   4   7  -1   60.70    1.80   1
  -4  -7   1   60.00    1.70   1
   4   7   0   14.90    1.00   1
  -4  -7   0   15.80    1.10   1
   4   7   1  152.30    3.80   1
  -4  -7  -1  163.60    3.90   1
   4   7   2  116.80    4.10   1
  -4  -7  -2  128.80    3.40   1
   4   7   3   23.80    1.80   1
  -4  -7  -3   26.00    2.00   1
   4   7   4    0.70    1.10   1
  -4  -7  -4    1.60    1.60   1
   4   7   5   45.80    2.90   1
  -4  -7  -5   48.70    4.20   1
   4   8  -7   24.00    5.40   1
  -4  -8   7   22.80    2.00   1
  -4  -8   6   61.40    3.00   1
  -4  -8   5   15.30    1.50   1
   4   8  -4    3.90    2.00   1
  -4  -8   4   11.50    1.30   1
   4   8  -3  161.40    5.30   1
  -4  -8   3  158.60    3.80   1
   4   8  -2   21.10    1.50   1
  -4  -8   2   21.30    1.10   1
   4   8  -1   40.90    1.80   1
  -4  -8   1   45.50    1.70   1
   4   8   0   85.40    2.50   1
  -4  -8   0   88.00    2.50   1
   4   8   1   15.80    1.10   1
  -4  -8  -1   17.20    1.40   1
   4   8   2  272.10    7.50   1
  -4  -8  -2  277.40    6.90   1
   4   8   3    3.20    1.10   1
  -4  -8  -3    5.30    1.40   1
   4   8   4   22.30    4.20   1
  -4  -8  -4   19.80    2.50   1
  -4  -9   7   12.60    2.00   1
  -4  -9   6    9.80    1.90   1
  -4  -9   5    4.80    1.50   1
   4   9  -4    4.90    1.70   1
  -4  -9   4    0.80    1.30   1
   4   9  -3    2.00    1.20   1
  -4  -9   3    5.40    0.90   1
   4   9  -2   17.40    1.70   1
  -4  -9   2   16.20    1.30   1
   4   9  -1  164.90    4.80   1
  -4  -9   1  179.80    4.40   1
   4   9   0  233.00    6.60   1
  -4  -9   0  265.20    6.00   1
   4   9   1  367.20   10.10   1
  -4  -9  -1  386.80    8.80   1
   4   9   2   29.80    3.10   1
  -4  -9  -2   32.00    1.90   1
   4   9   3   10.60    4.40   1
  -4  -9  -3   -1.10    1.80   1
   4   9   4    3.90    3.40   1
  -4  -9  -4    2.70    1.70   1
  -4 -10   6   24.70    2.80   1
  -4 -10   5    1.40    1.50   1
  -4 -10   4   20.60    2.20   1
   4  10  -3   64.10    6.30   1
  -4 -10   3   43.40    2.90   1
   4  10  -2   93.60    5.10   1
  -4 -10   2   98.70    3.20   1
   4  10  -1   38.00    2.70   1
  -4 -10   1   39.40    2.10   1
   4  10   0   13.50    2.30   1
  -4 -10   0   13.70    1.30   1
   4  10   1   48.30    5.60   1
  -4 -10  -1   53.80    2.70   1
   4  10   2  123.80   10.00   1
  -4 -10  -2  129.80    5.80   1
   4  10   3    2.10    4.40   1
  -4 -10  -3   -0.10    1.80   1
  -4 -11   5   35.10    3.30   1
  -4 -11   4    9.80    2.00   1
  -4 -11   3   56.10    3.70   1
   4  11  -2   39.60    5.90   1
  -4 -11   2   28.10    2.20   1
   4  11  -1   19.40    3.90   1
  -4 -11   1   14.00    1.60   1
   4  11   0   17.00    4.80   1
  -4 -11   0   11.50    1.80   1
   4  11   1   24.40    5.30   1
  -4 -11  -1   26.00    2.10   1
   4  11   2    3.30    3.30   1
  -4 -11  -2    9.50    2.10   1
  -4 -12   3   26.50    2.60   1
  -4 -12   2    4.10    1.40   1
   4  12  -1   -3.30    4.20   1
  -4 -12   1    0.70    1.50   1
   4  12   0    6.60    3.70   1
  -4 -12   0    5.40    1.80   1
   5   0  -9   11.10    2.90   1
   5   0  -8   19.80    2.80   1
   5   0  -7   -0.30    1.10   1
   5   0  -6   20.50    1.50   1
   5   0  -5   98.20    2.50   1
   5   0  -4  886.30   16.50   1
   5   0  -3  112.20    2.90   1
   5   0  -2   20.50    1.20   1
   5   0  -1   -0.90    0.70   1
   5   0   0   35.00    1.60   1
   5   0   1  205.10    4.70   1
   5   0   2    3.80    0.50   1
   5   0   3   15.90    1.10   1
   5   0   4   95.50    4.20   1
   5   0   5   84.20    8.20   1
   5   1  -8  136.60   12.80   1
  -5  -1   8  144.80    8.10   1
   5   1  -7   79.60    6.60   1
  -5  -1   7   78.40    4.70   1
   5   1  -6   16.00    1.60   1
  -5  -1   6   16.90    0.90   1
   5   1  -5    6.10    1.00   1
  -5  -1   5    6.00    0.60   1
   5   1  -4  194.00    4.90   1
  -5  -1   4  186.60    3.80   1
   5   1  -3  680.30   13.30   1
  -5  -1   3  702.80   12.50   1
   5   1  -2  276.10    6.20   1
  -5  -1   2  262.50    5.40   1
   5   1  -1  160.40    4.20   1
  -5  -1   1  160.90    3.70   1
   5   1   0  219.30    5.30   1
  -5  -1   0  215.90    4.90   1
   5   1   1   28.60    1.80   1
  -5  -1  -1   32.00    1.60   1
   5   1   2   17.50    0.80   1
  -5  -1  -2   17.10    0.80   1
   5   1   3   43.90    1.90   1
  -5  -1  -3   42.40    2.10   1
   5   1   4  106.60    4.20   1
  -5  -1  -4   93.50    4.20   1
   5   1   5    1.00    3.20   1
  -5  -1  -5    4.80    3.40   1
   5   2  -8   19.00    4.10   1
  -5  -2   8   16.70    2.80   1
   5   2  -7   25.20    4.70   1
  -5  -2   7   28.10    1.70   1
  -5  -2   6   26.70    1.20   1
   5   2  -5   20.50    3.00   1
  -5  -2   5   24.00    1.00   1
   5   2  -4   43.40    1.30   1
  -5  -2   4   40.40    1.20   1
   5   2  -3    0.90    0.80   1
  -5  -2   3    1.60    0.60   1
   5   2  -2   10.30    1.10   1
  -5  -2   2   11.60    1.10   1
   5   2  -1    9.30    1.10   1
  -5  -2   1   11.30    1.10   1
   5   2   0   62.30    2.40   1
  -5  -2   0   61.80    2.10   1
   5   2   1   60.50    2.50   1
  -5  -2  -1   59.50    2.40   1
   5   2   2  184.60    4.20   1
  -5  -2  -2  183.20    4.40   1
   5   2   3   78.10    4.50   1
  -5  -2  -3   78.20    2.90   1
   5   2   4  123.40    6.50   1
  -5  -2  -4  124.20    5.10   1
   5   2   5   69.10    4.90   1
  -5  -2  -5   71.10    7.50   1
   5   3  -8   12.70    3.80   1
  -5  -3   8   11.60    2.50   1
   5   3  -7  203.80   15.70   1
  -5  -3   7  230.80    7.00   1
  -5  -3   6   15.80    1.00   1
   5   3  -5   21.50    3.20   1
  -5  -3   5   21.70    1.10   1
   5   3  -4  196.90    4.80   1
  -5  -3   4  195.00    4.30   1
   5   3  -3   42.10    1.90   1
  -5  -3   3   38.70    1.50   1
   5   3  -2   18.10    1.40   1
  -5  -3   2   21.50    1.20   1
   5   3  -1   45.60    2.00   1
  -5  -3   1   42.10    1.80   1
   5   3   0  184.70    5.00   1
  -5  -3   0  189.70    4.60   1
   5   3   1   71.80    2.10   1
  -5  -3  -1   73.70    2.10   1
   5   3   2   32.70    1.80   1
  -5  -3  -2   28.60    1.40   1
   5   3   3   55.40    3.90   1
  -5  -3  -3   51.70    2.40   1
   5   3   4   61.20    4.40   1
  -5  -3  -4   54.30    3.20   1
  -5  -4   8   87.40    6.00   1
   5   4  -7    5.50    3.00   1
  -5  -4   7    2.40    1.00   1
  -5  -4   6  111.80    3.30   1
  -5  -4   5   22.30    1.10   1
   5   4  -4   40.30    2.60   1
  -5  -4   4   44.60    1.50   1
   5   4  -3   41.70    1.90   1
  -5  -4   3   41.70    1.50   1
   5   4  -2   41.90    1.90   1
  -5  -4   2   40.00    1.50   1
   5   4  -1    4.90    0.90   1
  -5  -4   1    4.50    0.70   1
   5   4   0   83.70    2.30   1
  -5  -4   0   81.10    2.80   1
   5   4   1   16.70    1.10   1
  -5  -4  -1   14.80    1.00   1
   5   4   2  170.90    5.40   1
  -5  -4  -2  167.10    5.40   1
   5   4   3   48.20    3.40   1
  -5  -4  -3   44.50    2.60   1
   5   4   4   69.40    4.60   1
  -5  -4  -4   68.70    3.70   1
  -5  -5   8   23.50    4.60   1
  -5  -5   7   84.00    4.20   1
  -5  -5   6   24.30    1.60   1
  -5  -5   5    5.70    0.90   1
   5   5  -4  163.90    6.60   1
  -5  -5   4  175.20    4.10   1
   5   5  -3   97.80    3.20   1
  -5  -5   3   90.50    2.50   1
   5   5  -2   10.00    1.20   1
  -5  -5   2    7.80    1.10   1
   5   5  -1   34.00    1.50   1
  -5  -5   1   32.50    2.00   1
   5   5   0   50.40    2.10   1
  -5  -5   0   47.00    1.70   1
   5   5   1    2.90    1.00   1
  -5  -5  -1    4.60    1.00   1
   5   5   2   19.50    2.30   1
  -5  -5  -2   17.50    1.50   1
   5   5   3   32.20    3.00   1
  -5  -5  -3   35.40    2.40   1
   5   5   4   10.20    2.20   1
  -5  -5  -4   10.10    1.70   1
  -5  -6   7    1.10    1.60   1
  -5  -6   6   29.20    2.30   1
  -5  -6   5   34.30    2.40   1
   5   6  -4   65.00    5.20   1
  -5  -6   4   67.70    2.50   1
   5   6  -3    3.60    1.00   1
  -5  -6   3    4.90    1.20   1
   5   6  -2   36.70    2.20   1
  -5  -6   2   35.50    2.10   1
   5   6  -1    3.10    0.70   1
  -5  -6   1    4.60    1.20   1
   5   6   0   40.90    1.90   1
  -5  -6   0   50.00    2.00   1
   5   6   1   82.20    4.10   1
  -5  -6  -1   88.00    3.40   1
   5   6   2   30.70    2.80   1
  -5  -6  -2   26.60    2.10   1
   5   6   3    0.00    1.40   1
  -5  -6  -3   -1.90    1.50   1
  -5  -7   7    3.60    1.90   1
  -5  -7   6    9.50    1.80   1
  -5  -7   5    9.30    1.60   1
   5   7  -4   56.60    5.40   1
  -5  -7   4   70.50    3.60   1
   5   7  -3   65.40    5.60   1
  -5  -7   3   78.20    4.30   1
   5   7  -2   24.00    1.50   1
  -5  -7   2   26.50    1.90   1
   5   7  -1   72.20    2.70   1
  -5  -7   1   75.00    2.70   1
   5   7   0   53.10    2.80   1
  -5  -7   0   59.00    2.50   1
   5   7   1   11.70    1.90   1
  -5  -7  -1   12.20    1.50   1
   5   7   2   30.30    2.80   1
  -5  -7  -2   33.80    2.40   1
   5   7   3   -4.00    3.10   1
  -5  -7  -3    2.30    1.60   1
  -5  -8   6    0.90    1.60   1
  -5  -8   5   22.80    2.30   1
  -5  -8   4   22.80    2.20   1
   5   8  -3    6.30    3.60   1
  -5  -8   3    8.00    2.10   1
   5   8  -2   58.90    6.00   1
  -5  -8   2   63.30    4.10   1
   5   8  -1   19.30    1.70   1
  -5  -8   1   19.90    1.50   1
   5   8   0    8.00    1.40   1
  -5  -8   0    8.30    1.20   1
   5   8   1   33.50    5.00   1
  -5  -8  -1   29.60    2.40   1
   5   8   2  124.60   10.70   1
  -5  -8  -2  129.70    6.00   1
  -5  -9   5   24.10    2.70   1
  -5  -9   4   12.80    2.10   1
   5   9  -3    6.90    3.10   1
  -5  -9   3    9.00    2.30   1
   5   9  -2    5.10    2.90   1
  -5  -9   2    7.20    2.20   1
   5   9  -1    3.90    3.10   1
  -5  -9   1   12.20    2.00   1
   5   9   0   60.00    7.40   1
  -5  -9   0   74.40    3.30   1
   5   9   1   21.10    4.70   1
  -5  -9  -1   23.90    2.40   1
   5  10  -3    1.00    2.90   1
  -5 -10   3   -1.00    1.70   1
   5  10  -2   31.70    5.30   1
  -5 -10   2   37.00    2.90   1
   5  10  -1    0.40    4.40   1
  -5 -10   1    0.90    1.50   1
   6   0  -7   -1.10    2.00   1
   6   0  -6   67.30    7.20   1
   6   0  -5   12.20    3.30   1
   6   0  -4   25.70    4.30   1
   6   0  -3   -0.70    1.10   1
   6   0  -2    1.30    1.20   1
   6   0  -1  654.80   15.00   1
   6   0   0    4.00    1.70   1
   6   0   1   14.40    2.50   1
   6   0   2   66.80    5.00   1
   6   1  -7   12.40    4.80   1
  -6  -1   7    4.10    2.50   1
   6   1  -6   21.40    5.10   1
  -6  -1   6   12.70    2.80   1
   6   1  -5   13.90    4.20   1
  -6  -1   5   17.20    2.00   1
   6   1  -4   11.30    3.30   1
  -6  -1   4   12.80    3.30   1
   6   1  -3   63.30    2.80   1
  -6  -1   3   67.90    3.60   1
   6   1  -2  244.00    6.80   1
  -6  -1   2  238.00    6.60   1
   6   1  -1  111.30    4.10   1
  -6  -1   1  107.80    4.70   1
   6   1   0   13.60    2.50   1
  -6  -1   0   15.90    2.80   1
   6   1   1    4.00    2.10   1
  -6  -1  -1    1.60    1.80   1
   6   1   2   14.40    2.50   1
  -6  -1  -2   12.10    2.80   1
  -6  -2   7   36.00    4.00   1
   6   2  -6   12.60    3.30   1
  -6  -2   6   15.00    2.30   1
   6   2  -5   30.20    4.20   1
  -6  -2   5   26.30    2.20   1
   6   2  -4   -1.40    3.20   1
  -6  -2   4    0.80    2.60   1
   6   2  -3   15.80    2.20   1
  -6  -2   3   11.80    1.90   1
   6   2  -2   55.50    3.00   1
  -6  -2   2   50.30    2.70   1
   6   2  -1  120.80    6.20   1
  -6  -2   1  117.60    4.90   1
   6   2   0    3.20    2.00   1
  -6  -2   0    3.10    2.00   1
   6   2   1   24.40    3.00   1
  -6  -2  -1   16.50    2.70   1
   6   2   2   79.60    5.50   1
  -6  -2  -2   80.70    5.40   1
  -6  -3   6   20.20    3.00   1
   6   3  -5   27.50    4.20   1
  -6  -3   5   25.90    2.00   1
   6   3  -4   29.80    4.00   1
  -6  -3   4   34.20    2.60   1
   6   3  -3    6.10    1.90   1
  -6  -3   3    7.30    2.00   1
   6   3  -2   32.80    3.00   1
  -6  -3   2   32.10    4.60   1
   6   3  -1  145.00    5.50   1
  -6  -3   1  135.40    7.20   1
   6   3   0   33.50    3.20   1
  -6  -3   0   39.70    3.50   1
   6   3   1    0.50    2.60   1
  -6  -3  -1    0.10    1.80   1
   6   3   2   34.50    3.40   1
  -6  -3  -2   35.30    3.60   1
  -6  -4   6    6.10    2.30   1
   6   4  -5   60.30    5.90   1
  -6  -4   5   56.30    3.40   1
   6   4  -4    3.10    1.50   1
  -6  -4   4    2.20    1.70   1
   6   4  -3   10.90    2.20   1
  -6  -4   3   14.90    2.60   1
   6   4  -2  145.80    7.50   1
  -6  -4   2  153.50   10.70   1
   6   4  -1    0.60    1.60   1
  -6  -4   1    3.90    1.60   1
   6   4   0   -0.40    1.60   1
  -6  -4   0    1.50    2.30   1
   6   4   1   70.20    4.80   1
  -6  -4  -1   67.90    5.30   1
  -6  -5   5   -0.30    1.60   1
   6   5  -4    2.60    1.60   1
  -6  -5   4    0.40    2.00   1
   6   5  -3    9.70    1.90   1
  -6  -5   3   10.40    2.40   1
   6   5  -2   12.30    2.50   1
  -6  -5   2   11.80    2.10   1
   6   5  -1   38.10    3.50   1
  -6  -5   1   30.50    4.90   1
   6   5   0   34.20    3.20   1
  -6  -5   0   22.20    3.10   1
   6   5   1    5.10    2.10   1
  -6  -5  -1    2.40    2.60   1
   6   6  -4    1.30    2.20   1
  -6  -6   4    6.00    1.90   1
   6   6  -3   51.80    4.30   1
  -6  -6   3   58.20    4.70   1
   6   6  -2   23.40    2.60   1
  -6  -6   2   26.10    2.90   1
   6   6  -1   30.50    3.10   1
  -6  -6   1   27.90    4.90   1
   6   6   0   -3.00    2.10   1
  -6  -6   0    2.00    3.30   1
   6   7  -3   50.60    6.40   1
  -6  -7   3   44.00    4.20   1
   6   7  -2    8.30    2.20   1
  -6  -7   2    8.60    2.60   1
   0   0   0    0.00    0.00
;
#END Tags that were not found in dictionaries
loop_
_symmetry_equiv_pos_as_xyz
'x, y, z'
'-x, y+1/2, -z'
loop_
_atom_site_label
_atom_site_type_symbol
_atom_site_fract_x
_atom_site_fract_y
_atom_site_fract_z
_atom_site_U_iso_or_equiv
_atom_site_adp_type
_atom_site_occupancy
_atom_site_calc_flag
F1 F -0.4955(4) 0.6998(2) 0.5301(3) 0.0654(6) Uani 1 d
F2 F -0.4579(5) 0.77687(18) 0.7758(2) 0.0607(6) Uani 1 d
H1A H -0.480(9) 0.741(4) 0.673(6) 0.091 Uiso 1 d
C1' C 0.2472(5) 0.6539(2) 0.1445(3) 0.0359(6) Uani 1 d
H1' H 0.3354 0.7167 0.2054 0.043 Uiso 1 calc
C2 C -0.0335(5) 0.6544(2) 0.3259(3) 0.0342(6) Uani 1 d
C2' C 0.0681(6) 0.6968(3) -0.0061(4) 0.0468(7) Uani 1 d
H2A' H 0.14 0.7605 -0.0479 0.056 Uiso 1 calc
H2B' H -0.0938 0.7177 0.0139 0.056 Uiso 1 calc
C4 C -0.1670(5) 0.4866(2) 0.4312(3) 0.0344(6) Uani 1 d
C4' C 0.3670(5) 0.5563(2) -0.0655(3) 0.0373(6) Uani 1 d
H4' H 0.4629 0.6056 -0.1194 0.045 Uiso 1 calc
C5 C -0.0153(6) 0.4242(2) 0.3504(3) 0.0387(6) Uani 1 d
H5 H -0.0069 0.3474 0.3591 0.046 Uiso 1 calc
C5' C 0.4434(7) 0.4389(3) -0.0856(4) 0.0467(7) Uani 1 d
H5A' H 0.6186 0.4277 -0.0293 0.056 Uiso 1 calc
H5B' H 0.3386 0.3887 -0.0414 0.056 Uiso 1 calc
C6 C 0.1165(5) 0.4790(2) 0.2606(3) 0.0353(6) Uani 1 d
H6 H 0.2168 0.4388 0.2074 0.042 Uiso 1 calc
N1 N 0.1073(4) 0.5914(2) 0.2455(2) 0.0329(5) Uani 1 d
N3 N -0.1634(4) 0.5977(2) 0.4179(2) 0.0349(5) Uani 1 d
H3 H -0.2489 0.6357 0.471 0.052 Uiso 1 calc
N4 N -0.3057(5) 0.4406(2) 0.5184(3) 0.0446(6) Uani 1 d
H4A H -0.3936 0.4814 0.5666 0.067 Uiso 1 calc
H4B H -0.3089 0.3697 0.5274 0.067 Uiso 1 calc
O1' O 0.4263(3) 0.58315(19) 0.10259(19) 0.0381(4) Uani 1 d
O2 O -0.0428(4) 0.75590(16) 0.3139(3) 0.0451(5) Uani 1 d
O5' O 0.4137(5) 0.4165(2) -0.2494(3) 0.0605(7) Uani 1 d
H5C' H 0.3012 0.3705 -0.2784 0.091 Uiso 1 calc
S3' S 0.03324(14) 0.58195(9) -0.14142(8) 0.0508(2) Uani 1 d
loop_
_atom_site_aniso_label
_atom_site_aniso_U_11
_atom_site_aniso_U_22
_atom_site_aniso_U_33
_atom_site_aniso_U_23
_atom_site_aniso_U_13
_atom_site_aniso_U_12
F1 0.0568(11) 0.0849(15) 0.0554(12) -0.0180(11) 0.0155(9) 0.0190(11)
F2 0.0868(16) 0.0508(11) 0.0463(10) -0.0028(8) 0.0197(10) -0.0088(10)
C1' 0.0381(14) 0.0346(14) 0.0361(14) -0.0030(11) 0.0113(12) -0.0014(11)
C2 0.0359(13) 0.0333(16) 0.0326(13) -0.0029(11) 0.0066(11) 0.0034(10)
C2' 0.0532(17) 0.0485(17) 0.0387(15) 0.0074(13) 0.0111(13) 0.0052(14)
C4 0.0376(14) 0.0388(15) 0.0261(12) -0.0029(10) 0.0060(10) 0.0022(11)
C4' 0.0380(13) 0.0453(17) 0.0306(13) -0.0002(10) 0.0119(10) -0.0067(11)
C5 0.0500(16) 0.0307(14) 0.0389(15) 0.0004(11) 0.0173(13) 0.0055(12)
C5' 0.0584(18) 0.0429(17) 0.0444(16) -0.0044(13) 0.0235(15) -0.0047(13)
C6 0.0407(14) 0.0334(14) 0.0325(13) -0.0016(10) 0.0101(11) 0.0062(11)
N1 0.0352(10) 0.0332(12) 0.0312(10) -0.0026(10) 0.0099(8) 0.0010(9)
N3 0.0385(11) 0.0374(13) 0.0298(10) -0.0039(10) 0.0104(8) 0.0043(10)
N4 0.0530(14) 0.0474(15) 0.0381(13) -0.0011(10) 0.0205(12) -0.0001(11)
O1' 0.0333(8) 0.0487(11) 0.0324(9) -0.0063(10) 0.0081(7) 0.0000(9)
O2 0.0538(12) 0.0323(12) 0.0513(12) -0.0042(9) 0.0170(10) 0.0054(9)
O5' 0.0783(17) 0.0632(16) 0.0518(14) -0.0233(12) 0.0389(13) -0.0291(13)
S3' 0.0408(4) 0.0736(5) 0.0349(4) -0.0096(4) 0.0030(3) -0.0010(4)
loop_
_atom_type_symbol
_atom_type_description
_atom_type_scat_dispersion_real
_atom_type_scat_dispersion_imag
_atom_type_scat_source
C C 0.0033 0.0016 'International Tables Vol C Tables 4.2.6.8 and 6.1.1.4'
H H 0 0 'International Tables Vol C Tables 4.2.6.8 and 6.1.1.4'
N N 0.0061 0.0033 'International Tables Vol C Tables 4.2.6.8 and 6.1.1.4'
O O 0.0106 0.006 'International Tables Vol C Tables 4.2.6.8 and 6.1.1.4'
F F 0.0171 0.0103 'International Tables Vol C Tables 4.2.6.8 and 6.1.1.4'
S S 0.1246 0.1234 'International Tables Vol C Tables 4.2.6.8 and 6.1.1.4'
loop_
_exptl_crystal_face_index_h
_exptl_crystal_face_index_k
_exptl_crystal_face_index_l
_exptl_crystal_face_perp_dist
0 1 0 0.048
0 -1 0 0.09
1 0 0 0.086
-1 0 0 0.089
0 0 1 0.103
0 0 -1 0.074
-2 -3 0 0.079
6 1 -6 0.089
loop_
_geom_angle_atom_site_label_1
_geom_angle_atom_site_label_2
_geom_angle_atom_site_label_3
_geom_angle
O1' C1' N1 108.9(2)
O1' C1' C2' 109.1(2)
N1 C1' C2' 111.3(2)
O1' C1' H1' 109.2
N1 C1' H1' 109.2
C2' C1' H1' 109.2
O2 C2 N3 122.1(2)
O2 C2 N1 121.6(3)
N3 C2 N1 116.3(2)
C1' C2' S3' 104.0(2)
C1' C2' H2A' 111
S3' C2' H2A' 111
C1' C2' H2B' 111
S3' C2' H2B' 111
H2A' C2' H2B' 109
N4 C4 N3 119.5(2)
N4 C4 C5 122.8(3)
N3 C4 C5 117.7(2)
O1' C4' C5' 109.1(2)
O1' C4' S3' 106.85(17)
C5' C4' S3' 113.7(2)
O1' C4' H4' 109
C5' C4' H4' 109
S3' C4' H4' 109
C6 C5 C4 118.3(3)
C6 C5 H5 120.8
C4 C5 H5 120.8
O5' C5' C4' 109.2(3)
O5' C5' H5A' 109.8
C4' C5' H5A' 109.8
O5' C5' H5B' 109.8
C4' C5' H5B' 109.8
H5A' C5' H5B' 108.3
C5 C6 N1 122.1(3)
C5 C6 H6 119
N1 C6 H6 119
C6 N1 C2 120.8(2)
C6 N1 C1' 123.2(2)
C2 N1 C1' 115.9(2)
C4 N3 C2 124.6(2)
C4 N3 H3 117.7
C2 N3 H3 117.7
C4 N4 H4A 120
C4 N4 H4B 120
H4A N4 H4B 120
C1' O1' C4' 113.2(2)
C5' O5' H5C' 109.5
C2' S3' C4' 87.43(14)
loop_
_geom_bond_atom_site_label_1
_geom_bond_atom_site_label_2
_geom_bond_distance
F1 H1A 1.31(5)
F2 H1A 0.97(5)
C1' O1' 1.407(3)
C1' N1 1.493(3)
C1' C2' 1.519(4)
C1' H1' 0.98
C2 O2 1.229(3)
C2 N3 1.367(3)
C2 N1 1.380(3)
C2' S3' 1.795(4)
C2' H2A' 0.97
C2' H2B' 0.97
C4 N4 1.311(4)
C4 N3 1.347(4)
C4 C5 1.418(4)
C4' O1' 1.449(3)
C4' C5' 1.499(4)
C4' S3' 1.802(3)
C4' H4' 0.98
C5 C6 1.349(4)
C5 H5 0.93
C5' O5' 1.414(4)
C5' H5A' 0.97
C5' H5B' 0.97
C6 N1 1.362(4)
C6 H6 0.93
N3 H3 0.86
N4 H4A 0.86
N4 H4B 0.86
O5' H5C' 0.82
loop_
_geom_torsion_atom_site_label_1
_geom_torsion_atom_site_label_2
_geom_torsion_atom_site_label_3
_geom_torsion_atom_site_label_4
_geom_torsion
O1' C1' C2' S3' 35.7(3)
N1 C1' C2' S3' -84.5(2)
N4 C4 C5 C6 178.5(3)
N3 C4 C5 C6 -2.3(4)
O1' C4' C5' O5' -173.1(2)
S3' C4' C5' O5' 67.7(3)
C4 C5 C6 N1 -0.1(4)
C5 C6 N1 C2 1.8(4)
C5 C6 N1 C1' -178.8(3)
O2 C2 N1 C6 179.7(3)
N3 C2 N1 C6 -0.9(4)
O2 C2 N1 C1' 0.3(4)
N3 C2 N1 C1' 179.6(2)
O1' C1' N1 C6 -13.6(3)
C2' C1' N1 C6 106.7(3)
O1' C1' N1 C2 165.9(2)
C2' C1' N1 C2 -73.8(3)
N4 C4 N3 C2 -177.5(2)
C5 C4 N3 C2 3.3(4)
O2 C2 N3 C4 177.6(3)
N1 C2 N3 C4 -1.7(4)
N1 C1' O1' C4' 111.9(2)
C2' C1' O1' C4' -9.8(3)
C5' C4' O1' C1' -144.1(2)
S3' C4' O1' C1' -20.7(3)
C1' C2' S3' C4' -40.0(2)
O1' C4' S3' C2' 35.6(2)
C5' C4' S3' C2' 156.0(2)
