#------------------------------------------------------------------------------
#$Date: 2016-03-26 22:53:30 +0200 (Sat, 26 Mar 2016) $
#$Revision: 180522 $
#$URL: svn://www.crystallography.net/cod/cif/7/21/91/7219110.cif $
#------------------------------------------------------------------------------
#
# This file is available in the Crystallography Open Database (COD),
# http://www.crystallography.net/
#
# All data on this site have been placed in the public domain by the
# contributors.
#
data_7219110
loop_
_publ_author_name
'Kapustin, E. A.'
'Minkov, V. S.'
'Boldyreva, E. V.'
_publ_section_title
;
 Sarcosine and betaine crystals upon cooling: structural motifs unstable
 at high pressure become stable at low temperatures.
;
_journal_issue                   5
_journal_name_full               'Physical chemistry chemical physics : PCCP'
_journal_page_first              3534
_journal_page_last               3543
_journal_paper_doi               10.1039/c4cp05094k
_journal_volume                  17
_journal_year                    2015
_chemical_formula_moiety         'C5 H11 N O2'
_chemical_formula_sum            'C5 H11 N O2'
_chemical_formula_weight         117.15
_chemical_name_common            N,N,N-trimethylglycine
_chemical_name_systematic
; 
 2-(Trimethylamino)acetic acid 
;
_space_group_IT_number           62
_symmetry_cell_setting           orthorhombic
_symmetry_space_group_name_Hall  '-P 2ac 2n'
_symmetry_space_group_name_H-M   'P n m a'
_atom_sites_solution_hydrogens   geom
_atom_sites_solution_primary     direct
_atom_sites_solution_secondary   difmap
_audit_creation_method           SHELXL-97
_audit_update_record
;
2014-05-20 deposited with the CCDC.
2014-12-16 downloaded from the CCDC.
;
_cell_angle_alpha                90.00
_cell_angle_beta                 90.00
_cell_angle_gamma                90.00
_cell_formula_units_Z            4
_cell_length_a                   14.5416(13)
_cell_length_b                   6.8003(4)
_cell_length_c                   6.0871(4)
_cell_measurement_reflns_used    5888
_cell_measurement_temperature    175(2)
_cell_measurement_theta_max      29.49
_cell_measurement_theta_min      2.80
_cell_volume                     601.94(8)
_computing_structure_refinement  'SHELXL-97 (Sheldrick, 1997)'
_computing_structure_solution    'SHELXS-97 (Sheldrick, 1990)'
_diffrn_ambient_temperature      175(2)
_diffrn_detector_area_resol_mean 6.67
_diffrn_measured_fraction_theta_full 0.998
_diffrn_measured_fraction_theta_max 0.998
_diffrn_measurement_device       '2-circle goniometer'
_diffrn_measurement_device_type  'STOE IPDS 2'
_diffrn_measurement_method       'rotation method'
_diffrn_radiation_monochromator  graphite
_diffrn_radiation_source         'fine-focus sealed tube'
_diffrn_radiation_type           MoK\a
_diffrn_radiation_wavelength     0.71073
_diffrn_reflns_av_R_equivalents  0.0323
_diffrn_reflns_av_sigmaI/netI    0.0195
_diffrn_reflns_limit_h_max       19
_diffrn_reflns_limit_h_min       -18
_diffrn_reflns_limit_k_max       9
_diffrn_reflns_limit_k_min       -9
_diffrn_reflns_limit_l_max       8
_diffrn_reflns_limit_l_min       -8
_diffrn_reflns_number            5547
_diffrn_reflns_theta_full        29.15
_diffrn_reflns_theta_max         29.15
_diffrn_reflns_theta_min         2.80
_exptl_absorpt_coefficient_mu    0.099
_exptl_absorpt_correction_type   none
_exptl_crystal_colour            colourless
_exptl_crystal_density_diffrn    1.293
_exptl_crystal_density_method    'not measured'
_exptl_crystal_description       plate
_exptl_crystal_F_000             256
_exptl_crystal_size_max          0.45
_exptl_crystal_size_mid          0.40
_exptl_crystal_size_min          0.10
_refine_diff_density_max         0.165
_refine_diff_density_min         -0.241
_refine_diff_density_rms         0.052
_refine_ls_extinction_method     none
_refine_ls_goodness_of_fit_ref   1.101
_refine_ls_hydrogen_treatment    mixed
_refine_ls_matrix_type           full
_refine_ls_number_parameters     63
_refine_ls_number_reflns         877
_refine_ls_number_restraints     0
_refine_ls_restrained_S_all      1.101
_refine_ls_R_factor_all          0.0453
_refine_ls_R_factor_gt           0.0365
_refine_ls_shift/su_max          0.000
_refine_ls_shift/su_mean         0.000
_refine_ls_structure_factor_coef Fsqd
_refine_ls_weighting_details
'calc w=1/[\s^2^(Fo^2^)+(0.0505P)^2^+0.0587P] where P=(Fo^2^+2Fc^2^)/3'
_refine_ls_weighting_scheme      calc
_refine_ls_wR_factor_gt          0.0882
_refine_ls_wR_factor_ref         0.0916
_reflns_number_gt                738
_reflns_number_total             877
_reflns_threshold_expression     >2sigma(I)
_cod_data_source_file            c4cp05094k2.cif
_cod_data_source_block           Betaine-175
_cod_depositor_comments
'Adding full bibliography for 7219096--7219113.cif.'
_cod_database_code               7219110
loop_
_symmetry_equiv_pos_as_xyz
'x, y, z'
'-x+1/2, -y, z+1/2'
'x+1/2, -y+1/2, -z+1/2'
'-x, y+1/2, -z'
'-x, -y, -z'
'x-1/2, y, -z-1/2'
'-x-1/2, y-1/2, z-1/2'
'x, -y-1/2, z'
loop_
_atom_site_label
_atom_site_type_symbol
_atom_site_fract_x
_atom_site_fract_y
_atom_site_fract_z
_atom_site_U_iso_or_equiv
_atom_site_adp_type
_atom_site_occupancy
_atom_site_symmetry_multiplicity
_atom_site_calc_flag
_atom_site_refinement_flags
N1 N 0.62719(7) 0.2500 0.81434(16) 0.0189(2) Uani 1 2 d S
O1 O 0.87671(7) 0.2500 0.7035(2) 0.0431(3) Uani 1 2 d S
C4 C 0.58197(10) 0.2500 1.0362(2) 0.0272(3) Uani 1 2 d S
H4A H 0.5163(14) 0.2500 1.010(3) 0.041 Uiso 1 2 d S
H4B H 0.6015(9) 0.368(2) 1.114(2) 0.041 Uiso 1 1 d .
C3 C 0.59682(6) 0.43039(15) 0.69307(16) 0.0258(2) Uani 1 1 d .
H3A H 0.6239(9) 0.427(2) 0.544(2) 0.039 Uiso 1 1 d .
H3B H 0.5301(10) 0.426(2) 0.6871(19) 0.039 Uiso 1 1 d .
H3C H 0.6183(9) 0.544(2) 0.774(2) 0.039 Uiso 1 1 d .
C1 C 0.79344(9) 0.2500 0.6506(2) 0.0266(3) Uani 1 2 d S
C2 C 0.72987(8) 0.2500 0.8520(2) 0.0234(3) Uani 1 2 d S
H2A H 0.7421(8) 0.3674(18) 0.9389(18) 0.028 Uiso 1 1 d .
O2 O 0.76021(7) 0.2500 0.46177(17) 0.0336(3) Uani 1 2 d S
loop_
_atom_site_aniso_label
_atom_site_aniso_U_11
_atom_site_aniso_U_22
_atom_site_aniso_U_33
_atom_site_aniso_U_23
_atom_site_aniso_U_13
_atom_site_aniso_U_12
N1 0.0147(5) 0.0213(5) 0.0207(5) 0.000 0.0002(4) 0.000
O1 0.0163(5) 0.0478(7) 0.0653(8) 0.000 0.0084(5) 0.000
C4 0.0210(6) 0.0388(8) 0.0219(6) 0.000 0.0039(5) 0.000
C3 0.0228(5) 0.0245(4) 0.0303(5) 0.0044(4) -0.0004(3) 0.0045(3)
C1 0.0193(6) 0.0186(5) 0.0418(7) 0.000 0.0084(5) 0.000
C2 0.0145(5) 0.0275(6) 0.0281(6) 0.000 -0.0013(4) 0.000
O2 0.0341(6) 0.0347(6) 0.0320(5) 0.000 0.0123(4) 0.000
loop_
_atom_type_symbol
_atom_type_description
_atom_type_scat_dispersion_real
_atom_type_scat_dispersion_imag
_atom_type_scat_source
C C 0.0033 0.0016 'International Tables Vol C Tables 4.2.6.8 and 6.1.1.4'
H H 0.0000 0.0000 'International Tables Vol C Tables 4.2.6.8 and 6.1.1.4'
N N 0.0061 0.0033 'International Tables Vol C Tables 4.2.6.8 and 6.1.1.4'
O O 0.0106 0.0060 'International Tables Vol C Tables 4.2.6.8 and 6.1.1.4'
loop_
_geom_angle_atom_site_label_1
_geom_angle_atom_site_label_2
_geom_angle_atom_site_label_3
_geom_angle
_geom_angle_site_symmetry_1
_geom_angle_site_symmetry_3
C3 N1 C3 109.92(10) . 8_565
C3 N1 C4 108.30(7) . .
C3 N1 C4 108.30(7) 8_565 .
C3 N1 C2 111.48(6) . .
C3 N1 C2 111.48(6) 8_565 .
C4 N1 C2 107.22(10) . .
N1 C4 H4A 106.3(12) . .
N1 C4 H4B 108.0(8) . .
H4A C4 H4B 111.6(10) . .
N1 C3 H3A 108.3(8) . .
N1 C3 H3B 106.7(9) . .
H3A C3 H3B 111.3(11) . .
N1 C3 H3C 107.9(8) . .
H3A C3 H3C 111.0(12) . .
H3B C3 H3C 111.4(12) . .
O2 C1 O1 127.68(14) . .
O2 C1 C2 120.18(12) . .
O1 C1 C2 112.14(13) . .
N1 C2 C1 118.28(11) . .
N1 C2 H2A 105.3(7) . .
C1 C2 H2A 108.9(7) . .
loop_
_geom_bond_atom_site_label_1
_geom_bond_atom_site_label_2
_geom_bond_distance
_geom_bond_site_symmetry_2
N1 C3 1.4983(11) .
N1 C3 1.4983(11) 8_565
N1 C4 1.5023(16) .
N1 C2 1.5106(15) .
O1 C1 1.2529(17) .
C4 H4A 0.97(2) .
C4 H4B 0.975(14) .
C3 H3A 0.989(13) .
C3 H3B 0.971(15) .
C3 H3C 0.971(15) .
C1 O2 1.2470(19) .
C1 C2 1.5355(19) .
C2 H2A 0.974(12) .
loop_
_geom_torsion_atom_site_label_1
_geom_torsion_atom_site_label_2
_geom_torsion_atom_site_label_3
_geom_torsion_atom_site_label_4
_geom_torsion
_geom_torsion_site_symmetry_1
C3 N1 C2 C1 -61.63(7) .
C3 N1 C2 C1 61.63(7) 8_565
C4 N1 C2 C1 180.0 .
O2 C1 C2 N1 0.0 .
O1 C1 C2 N1 180.0 .
