#------------------------------------------------------------------------------
#$Date: 2016-03-26 22:53:30 +0200 (Sat, 26 Mar 2016) $
#$Revision: 180522 $
#$URL: svn://www.crystallography.net/cod/cif/7/21/91/7219103.cif $
#------------------------------------------------------------------------------
#
# This file is available in the Crystallography Open Database (COD),
# http://www.crystallography.net/
#
# All data on this site have been placed in the public domain by the
# contributors.
#
data_7219103
loop_
_publ_author_name
'Kapustin, E. A.'
'Minkov, V. S.'
'Boldyreva, E. V.'
_publ_section_title
;
 Sarcosine and betaine crystals upon cooling: structural motifs unstable
 at high pressure become stable at low temperatures.
;
_journal_issue                   5
_journal_name_full               'Physical chemistry chemical physics : PCCP'
_journal_page_first              3534
_journal_page_last               3543
_journal_paper_doi               10.1039/c4cp05094k
_journal_volume                  17
_journal_year                    2015
_chemical_formula_moiety         'C3 H7 N O2'
_chemical_formula_sum            'C3 H7 N O2'
_chemical_formula_weight         89.10
_chemical_name_common            N-methylglycine
_chemical_name_systematic
; 
 2-(Methylamino)acetic acid  
;
_space_group_IT_number           19
_symmetry_cell_setting           orthorhombic
_symmetry_space_group_name_Hall  'P 2ac 2ab'
_symmetry_space_group_name_H-M   'P 21 21 21'
_atom_sites_solution_hydrogens   geom
_atom_sites_solution_primary     direct
_atom_sites_solution_secondary   difmap
_audit_creation_method           SHELXL-97
_audit_update_record
;
2014-05-20 deposited with the CCDC.
2014-12-16 downloaded from the CCDC.
;
_cell_angle_alpha                90.00
_cell_angle_beta                 90.00
_cell_angle_gamma                90.00
_cell_formula_units_Z            4
_cell_length_a                   6.6768(4)
_cell_length_b                   7.9039(7)
_cell_length_c                   8.6154(5)
_cell_measurement_reflns_used    7077
_cell_measurement_temperature    125(2)
_cell_measurement_theta_max      29.53
_cell_measurement_theta_min      2.58
_cell_volume                     454.66(6)
_computing_structure_refinement  'SHELXL-97 (Sheldrick, 1997)'
_computing_structure_solution    'SHELXS-97 (Sheldrick, 1990)'
_diffrn_ambient_temperature      125(2)
_diffrn_detector_area_resol_mean 6.67
_diffrn_measured_fraction_theta_full 0.997
_diffrn_measured_fraction_theta_max 0.997
_diffrn_measurement_device       '2-circle goniometer'
_diffrn_measurement_device_type  'STOE IPDS 2'
_diffrn_measurement_method       'rotation method'
_diffrn_radiation_monochromator  graphite
_diffrn_radiation_source         'fine-focus sealed tube'
_diffrn_radiation_type           MoK\a
_diffrn_radiation_wavelength     0.71073
_diffrn_reflns_av_R_equivalents  0.0275
_diffrn_reflns_av_sigmaI/netI    0.0208
_diffrn_reflns_limit_h_max       8
_diffrn_reflns_limit_h_min       -9
_diffrn_reflns_limit_k_max       10
_diffrn_reflns_limit_k_min       -10
_diffrn_reflns_limit_l_max       11
_diffrn_reflns_limit_l_min       -10
_diffrn_reflns_number            4955
_diffrn_reflns_theta_full        29.17
_diffrn_reflns_theta_max         29.17
_diffrn_reflns_theta_min         3.50
_exptl_absorpt_coefficient_mu    0.109
_exptl_absorpt_correction_type   none
_exptl_crystal_colour            colourless
_exptl_crystal_density_diffrn    1.302
_exptl_crystal_density_method    'not measured'
_exptl_crystal_description       prism
_exptl_crystal_F_000             192
_exptl_crystal_size_max          0.30
_exptl_crystal_size_mid          0.22
_exptl_crystal_size_min          0.10
_refine_diff_density_max         0.182
_refine_diff_density_min         -0.150
_refine_diff_density_rms         0.041
_refine_ls_abs_structure_details 'Flack H D (1983), Acta Cryst. A39, 876-881'
_refine_ls_abs_structure_Flack   -0.1(10)
_refine_ls_extinction_method     none
_refine_ls_goodness_of_fit_ref   1.076
_refine_ls_hydrogen_treatment    mixed
_refine_ls_matrix_type           full
_refine_ls_number_parameters     62
_refine_ls_number_reflns         1221
_refine_ls_number_restraints     0
_refine_ls_restrained_S_all      1.076
_refine_ls_R_factor_all          0.0291
_refine_ls_R_factor_gt           0.0260
_refine_ls_shift/su_max          0.000
_refine_ls_shift/su_mean         0.000
_refine_ls_structure_factor_coef Fsqd
_refine_ls_weighting_details
'calc w=1/[\s^2^(Fo^2^)+(0.0337P)^2^+0.0324P] where P=(Fo^2^+2Fc^2^)/3'
_refine_ls_weighting_scheme      calc
_refine_ls_wR_factor_gt          0.0605
_refine_ls_wR_factor_ref         0.0612
_reflns_number_gt                1133
_reflns_number_total             1221
_reflns_threshold_expression     >2sigma(I)
_cod_data_source_file            c4cp05094k2.cif
_cod_data_source_block           Sarcosine-125
_cod_depositor_comments
'Adding full bibliography for 7219096--7219113.cif.'
_cod_database_code               7219103
loop_
_symmetry_equiv_pos_as_xyz
'x, y, z'
'-x+1/2, -y, z+1/2'
'x+1/2, -y+1/2, -z'
'-x, y+1/2, -z+1/2'
loop_
_atom_site_label
_atom_site_type_symbol
_atom_site_fract_x
_atom_site_fract_y
_atom_site_fract_z
_atom_site_U_iso_or_equiv
_atom_site_adp_type
_atom_site_occupancy
_atom_site_symmetry_multiplicity
_atom_site_calc_flag
_atom_site_refinement_flags
N1 N 0.48436(12) 0.56209(10) 0.52029(10) 0.01355(16) Uani 1 1 d .
H1N H 0.5893(18) 0.6005(16) 0.4627(15) 0.016 Uiso 1 1 d .
H2N H 0.4446(19) 0.6453(16) 0.5885(16) 0.016 Uiso 1 1 d .
C1 C 0.67691(13) 0.44511(12) 0.74247(12) 0.01482(18) Uani 1 1 d .
O1 O 0.71967(11) 0.31882(8) 0.82779(8) 0.01806(16) Uani 1 1 d .
C2 C 0.54495(14) 0.40563(11) 0.60257(11) 0.01478(19) Uani 1 1 d .
H1 H 0.6190 0.3311 0.5302 0.018 Uiso 1 1 calc R
H2 H 0.4238 0.3443 0.6376 0.018 Uiso 1 1 calc R
O2 O 0.73330(12) 0.59303(9) 0.76279(9) 0.02264(18) Uani 1 1 d .
C3 C 0.31856(16) 0.53350(12) 0.40808(13) 0.0213(2) Uani 1 1 d .
H3 H 0.3575 0.4452 0.3342 0.032 Uiso 1 1 calc R
H4 H 0.2908 0.6387 0.3518 0.032 Uiso 1 1 calc R
H5 H 0.1981 0.4978 0.4643 0.032 Uiso 1 1 calc R
loop_
_atom_site_aniso_label
_atom_site_aniso_U_11
_atom_site_aniso_U_22
_atom_site_aniso_U_33
_atom_site_aniso_U_23
_atom_site_aniso_U_13
_atom_site_aniso_U_12
N1 0.0167(4) 0.0118(3) 0.0121(4) 0.0001(3) -0.0007(3) 0.0009(3)
C1 0.0157(4) 0.0159(4) 0.0129(4) -0.0001(3) 0.0010(4) 0.0010(3)
O1 0.0216(3) 0.0158(3) 0.0168(3) 0.0041(3) -0.0028(3) -0.0015(3)
C2 0.0193(4) 0.0114(4) 0.0137(5) 0.0012(4) 0.0002(3) 0.0001(3)
O2 0.0309(4) 0.0138(3) 0.0232(4) 0.0000(3) -0.0093(3) -0.0010(3)
C3 0.0239(5) 0.0182(5) 0.0219(5) -0.0002(4) -0.0093(4) 0.0003(4)
loop_
_atom_type_symbol
_atom_type_description
_atom_type_scat_dispersion_real
_atom_type_scat_dispersion_imag
_atom_type_scat_source
C C 0.0033 0.0016 'International Tables Vol C Tables 4.2.6.8 and 6.1.1.4'
H H 0.0000 0.0000 'International Tables Vol C Tables 4.2.6.8 and 6.1.1.4'
O O 0.0106 0.0060 'International Tables Vol C Tables 4.2.6.8 and 6.1.1.4'
N N 0.0061 0.0033 'International Tables Vol C Tables 4.2.6.8 and 6.1.1.4'
loop_
_geom_angle_atom_site_label_1
_geom_angle_atom_site_label_2
_geom_angle_atom_site_label_3
_geom_angle
C2 N1 C3 112.80(8)
C2 N1 H1N 109.2(8)
C3 N1 H1N 105.6(8)
C2 N1 H2N 111.7(8)
C3 N1 H2N 108.0(8)
H1N N1 H2N 109.3(11)
O2 C1 O1 126.14(9)
O2 C1 C2 118.66(8)
O1 C1 C2 115.20(8)
N1 C2 C1 111.41(7)
N1 C2 H1 109.3
C1 C2 H1 109.3
N1 C2 H2 109.3
C1 C2 H2 109.3
H1 C2 H2 108.0
N1 C3 H3 109.5
N1 C3 H4 109.5
H3 C3 H4 109.5
N1 C3 H5 109.5
H3 C3 H5 109.5
H4 C3 H5 109.5
loop_
_geom_bond_atom_site_label_1
_geom_bond_atom_site_label_2
_geom_bond_distance
N1 C2 1.4817(12)
N1 C3 1.4871(13)
N1 H1N 0.911(13)
N1 H2N 0.921(13)
C1 O2 1.2407(12)
C1 O1 1.2721(12)
C1 C2 1.5252(13)
C2 H1 0.9900
C2 H2 0.9900
C3 H3 0.9800
C3 H4 0.9800
C3 H5 0.9800
loop_
_geom_hbond_atom_site_label_D
_geom_hbond_atom_site_label_H
_geom_hbond_atom_site_label_A
_geom_hbond_distance_DH
_geom_hbond_distance_HA
_geom_hbond_distance_DA
_geom_hbond_angle_DHA
_geom_hbond_site_symmetry_A
N1 H1N O1 0.911(13) 1.840(13) 2.7462(11) 173.4(12) 2_664
N1 H1N O2 0.911(13) 2.590(13) 3.1589(11) 121.1(10) 2_664
N1 H2N O1 0.921(13) 1.898(13) 2.7724(11) 157.6(12) 4_656
loop_
_geom_torsion_atom_site_label_1
_geom_torsion_atom_site_label_2
_geom_torsion_atom_site_label_3
_geom_torsion_atom_site_label_4
_geom_torsion
C3 N1 C2 C1 -166.19(8)
O2 C1 C2 N1 -6.81(12)
O1 C1 C2 N1 173.64(8)
