#------------------------------------------------------------------------------
#$Date: 2016-03-26 23:06:14 +0200 (Sat, 26 Mar 2016) $
#$Revision: 180529 $
#$URL: svn://www.crystallography.net/cod/cif/7/21/98/7219814.cif $
#------------------------------------------------------------------------------
#
# This file is available in the Crystallography Open Database (COD),
# http://www.crystallography.net/
#
# All data on this site have been placed in the public domain by the
# contributors.
#
data_7219814
loop_
_publ_author_name
'Kaur, Gurpreet'
'Choudhury, Angshuman Roy'
_publ_section_title
;
 A comprehensive understanding of the synthons involving C--H&#x22EF;F--C
 hydrogen bond(s) from structural and computational analyses
;
_journal_issue                   15
_journal_name_full               CrystEngComm
_journal_page_first              2949
_journal_paper_doi               10.1039/C5CE00215J
_journal_volume                  17
_journal_year                    2015
_chemical_formula_moiety         'C13 H7 F4 N'
_chemical_formula_sum            'C13 H7 F4 N'
_chemical_formula_weight         253.2
_chemical_name_systematic
;
 ?
;
_space_group_IT_number           2
_symmetry_cell_setting           triclinic
_symmetry_Int_Tables_number      2
_symmetry_space_group_name_Hall  '-P 1'
_symmetry_space_group_name_H-M   'P -1'
_atom_sites_solution_hydrogens   geom
_audit_creation_date             2013-10-24T01:08:45-00:00
_audit_creation_method           'WinGX routine CIF_UPDATE'
_audit_update_record
;
2015-01-29 deposited with the CCDC.
2015-03-09 downloaded from the CCDC.
;
_cell_angle_alpha                84.037(10)
_cell_angle_beta                 85.232(10)
_cell_angle_gamma                72.402(10)
_cell_formula_units_Z            2
_cell_length_a                   6.7897(10)
_cell_length_b                   6.8031(12)
_cell_length_c                   12.0624(18)
_cell_measurement_reflns_used    1113
_cell_measurement_temperature    100
_cell_measurement_theta_max      27.59
_cell_measurement_theta_min      3.15
_cell_volume                     527.44(15)
_computing_data_reduction        'SAINT v7.68A (Bruker, 2009)'
_computing_molecular_graphics
;
O. V. Dolomanov, L. J. Bourhis, R. J. Gildea, J. A. K. Howard and H. Puschmann,
OLEX2: a complete structure solution, refinement and analysis program.
        J. Appl. Cryst. (2009). 42, 339-341.
;
_computing_publication_material
;
O. V. Dolomanov, L. J. Bourhis, R. J. Gildea, J. A. K. Howard and H. Puschmann,
OLEX2: a complete structure solution, refinement and analysis program.
        J. Appl. Cryst. (2009). 42, 339-341.
;
_computing_structure_refinement
;
        SHELXL, G.M. Sheldrick, Acta Cryst.
        (2008). A64, 112-122
;
_diffrn_ambient_temperature      100
_diffrn_measured_fraction_theta_full 0.997
_diffrn_measured_fraction_theta_max 0.997
_diffrn_measurement_device_type  'Bruker APEX-II CCD'
_diffrn_measurement_method       '\f and \w scans'
_diffrn_radiation_monochromator  graphite
_diffrn_radiation_type           MoK\a
_diffrn_radiation_wavelength     0.71073
_diffrn_reflns_av_R_equivalents  0.0305
_diffrn_reflns_Laue_measured_fraction_full 0.997
_diffrn_reflns_Laue_measured_fraction_max 0.997
_diffrn_reflns_limit_h_max       7
_diffrn_reflns_limit_h_min       -8
_diffrn_reflns_limit_k_max       4
_diffrn_reflns_limit_k_min       -8
_diffrn_reflns_limit_l_max       14
_diffrn_reflns_limit_l_min       -14
_diffrn_reflns_number            5009
_diffrn_reflns_point_group_measured_fraction_full 0.997
_diffrn_reflns_point_group_measured_fraction_max 0.997
_diffrn_reflns_theta_full        25
_diffrn_reflns_theta_max         25.026
_diffrn_reflns_theta_min         1.7
_diffrn_standards_number         0
_exptl_absorpt_coefficient_mu    0.144
_exptl_absorpt_correction_T_max  0.746
_exptl_absorpt_correction_T_min  0.6226
_exptl_absorpt_correction_type   multi-scan
_exptl_absorpt_process_details
;
        SADABS-2008/1 (Bruker,2008) was used for absorption correction.
        wR2(int) was 0.0600 before and 0.0426 after correction.
        The Ratio of minimum to maximum transmission is 0.8346.
        The \l/2 correction factor is 0.0015.
;
_exptl_crystal_colour            'clear light colourless'
_exptl_crystal_density_diffrn    1.594
_exptl_crystal_description       plate
_exptl_crystal_F_000             256
_exptl_crystal_size_max          0.2
_exptl_crystal_size_mid          0.2
_exptl_crystal_size_min          0.1
_refine_diff_density_max         0.859
_refine_diff_density_min         -0.377
_refine_diff_density_rms         0.14
_refine_ls_extinction_method     none
_refine_ls_goodness_of_fit_ref   1.106
_refine_ls_hydrogen_treatment    constr
_refine_ls_matrix_type           full
_refine_ls_number_parameters     163
_refine_ls_number_reflns         1848
_refine_ls_number_restraints     0
_refine_ls_restrained_S_all      1.106
_refine_ls_R_factor_all          0.1013
_refine_ls_R_factor_gt           0.0807
_refine_ls_shift/su_max          0
_refine_ls_shift/su_mean         0
_refine_ls_structure_factor_coef Fsqd
_refine_ls_weighting_details
'w=1/[\s^2^(Fo^2^)+(0.1660P)^2^] where P=(Fo^2^+2Fc^2^)/3'
_refine_ls_weighting_scheme      calc
_refine_ls_wR_factor_gt          0.2227
_refine_ls_wR_factor_ref         0.2452
_reflns_number_gt                1361
_reflns_number_total             1848
_reflns_threshold_expression     'I > 2\s(I)'
_cod_data_source_file            c5ce00215j2.cif
_cod_data_source_block           86
_cod_depositor_comments
'Adding full bibliography for 7219787--7219816.cif.'
_cod_database_code               7219814
loop_
_symmetry_equiv_pos_as_xyz
'x, y, z'
'-x, -y, -z'
loop_
_atom_site_label
_atom_site_type_symbol
_atom_site_fract_x
_atom_site_fract_y
_atom_site_fract_z
_atom_site_U_iso_or_equiv
_atom_site_adp_type
_atom_site_occupancy
_atom_site_calc_flag
C1 C 0.0943(5) 0.2082(5) 0.4330(3) 0.0195(8) Uani 1 d
H1 H 0.1925 0.1257 0.4836 0.023 Uiso 1 calc
C2 C 0.1564(5) 0.2191(5) 0.3138(3) 0.0198(8) Uani 1 d
C3 C 0.3665(5) 0.1701(5) 0.2784(3) 0.0212(8) Uani 1 d
C4 C 0.4391(6) 0.1751(5) 0.1695(3) 0.0246(9) Uani 1 d
H4 H 0.5833 0.1434 0.1508 0.029 Uiso 1 calc
C5 C 0.2980(5) 0.2272(5) 0.0868(3) 0.0231(9) Uani 1 d
H5 H 0.3452 0.2303 0.0104 0.028 Uiso 1 calc
C6 C 0.0879(6) 0.2749(5) 0.1154(3) 0.0239(9) Uani 1 d
H6 H -0.0099 0.3099 0.0592 0.029 Uiso 1 calc
C7 C 0.0234(5) 0.2707(5) 0.2266(3) 0.0201(8) Uani 1 d
C8 C -0.1291(5) 0.2899(5) 0.5888(3) 0.0193(8) Uani 1 d
C9 C 0.0226(5) 0.2485(5) 0.6665(3) 0.0220(8) Uani 1 d
H9 H 0.1641 0.2251 0.6425 0.026 Uiso 1 calc
C10 C -0.0361(6) 0.2422(5) 0.7779(3) 0.0227(8) Uani 1 d
C11 C -0.2417(6) 0.2765(5) 0.8148(3) 0.0231(9) Uani 1 d
C12 C -0.3920(6) 0.3188(5) 0.7393(3) 0.0235(9) Uani 1 d
H12 H -0.5331 0.3414 0.7641 0.028 Uiso 1 calc
C13 C -0.3354(5) 0.3281(5) 0.6267(3) 0.0209(8) Uani 1 d
H13 H -0.4395 0.3612 0.574 0.025 Uiso 1 calc
N1 N -0.0857(4) 0.3045(4) 0.4718(2) 0.0211(7) Uani 1 d
F1 F 0.5040(3) 0.1143(3) 0.36014(17) 0.0302(6) Uani 1 d
F2 F -0.1820(3) 0.3164(3) 0.25195(17) 0.0303(6) Uani 1 d
F3 F 0.1072(3) 0.2055(3) 0.85472(18) 0.0330(7) Uani 1 d
F4 F -0.2910(3) 0.2697(3) 0.92551(17) 0.0292(6) Uani 1 d
loop_
_atom_site_aniso_label
_atom_site_aniso_U_11
_atom_site_aniso_U_22
_atom_site_aniso_U_33
_atom_site_aniso_U_23
_atom_site_aniso_U_13
_atom_site_aniso_U_12
C1 0.0190(19) 0.0226(17) 0.0177(18) -0.0020(13) 0.0005(14) -0.0075(14)
C2 0.0192(19) 0.0170(16) 0.024(2) -0.0019(14) 0.0024(15) -0.0074(14)
C3 0.0182(19) 0.0230(17) 0.0228(19) -0.0010(14) -0.0010(15) -0.0071(14)
C4 0.0197(19) 0.0257(18) 0.028(2) -0.0038(15) 0.0066(16) -0.0078(15)
C5 0.024(2) 0.0292(19) 0.0159(18) -0.0032(14) 0.0062(15) -0.0094(16)
C6 0.024(2) 0.0235(18) 0.025(2) -0.0006(15) -0.0019(16) -0.0077(15)
C7 0.0140(18) 0.0230(18) 0.0231(19) -0.0035(14) 0.0023(14) -0.0053(14)
C8 0.0208(19) 0.0190(17) 0.0184(18) -0.0011(13) 0.0021(14) -0.0074(14)
C9 0.0182(19) 0.0246(18) 0.024(2) -0.0060(15) 0.0047(15) -0.0076(15)
C10 0.022(2) 0.0251(18) 0.0193(19) -0.0009(14) -0.0036(15) -0.0036(15)
C11 0.028(2) 0.0218(17) 0.0188(19) -0.0028(14) 0.0093(16) -0.0086(15)
C12 0.0186(19) 0.0265(19) 0.024(2) -0.0026(15) 0.0064(15) -0.0072(15)
C13 0.0205(19) 0.0218(17) 0.0189(18) 0.0001(14) 0.0002(14) -0.0052(14)
N1 0.0211(16) 0.0263(16) 0.0177(16) -0.0008(12) 0.0012(13) -0.0107(13)
F1 0.0175(12) 0.0469(14) 0.0250(12) -0.0005(9) -0.0024(9) -0.0079(10)
F2 0.0142(12) 0.0498(14) 0.0258(12) -0.0058(10) 0.0014(9) -0.0075(10)
F3 0.0244(13) 0.0489(14) 0.0231(12) -0.0065(10) -0.0028(10) -0.0056(10)
F4 0.0294(13) 0.0391(13) 0.0179(12) -0.0039(9) 0.0092(9) -0.0107(10)
loop_
_atom_type_symbol
_atom_type_description
_atom_type_scat_dispersion_real
_atom_type_scat_dispersion_imag
_atom_type_scat_source
C C 0.0033 0.0016 'International Tables Vol C Tables 4.2.6.8 and 6.1.1.4'
H H 0 0 'International Tables Vol C Tables 4.2.6.8 and 6.1.1.4'
F F 0.0171 0.0103 'International Tables Vol C Tables 4.2.6.8 and 6.1.1.4'
N N 0.0061 0.0033 'International Tables Vol C Tables 4.2.6.8 and 6.1.1.4'
loop_
_geom_angle_atom_site_label_1
_geom_angle_atom_site_label_2
_geom_angle_atom_site_label_3
_geom_angle
C2 C1 H1 118.5
N1 C1 H1 118.5
N1 C1 C2 122.9(3)
C3 C2 C1 120.4(3)
C7 C2 C1 125.8(3)
C7 C2 C3 113.7(3)
C4 C3 C2 124.6(3)
F1 C3 C2 116.3(3)
F1 C3 C4 119.0(3)
C3 C4 H4 120.7
C3 C4 C5 118.6(3)
C5 C4 H4 120.7
C4 C5 H5 120
C4 C5 C6 120.0(3)
C6 C5 H5 120
C5 C6 H6 120.6
C7 C6 C5 118.9(3)
C7 C6 H6 120.6
C6 C7 C2 124.2(3)
F2 C7 C2 118.3(3)
F2 C7 C6 117.6(3)
C9 C8 N1 123.4(3)
C13 C8 C9 119.2(3)
C13 C8 N1 117.4(3)
C8 C9 H9 120.6
C10 C9 C8 118.8(3)
C10 C9 H9 120.6
C9 C10 C11 121.6(3)
F3 C10 C9 120.0(3)
F3 C10 C11 118.4(3)
C12 C11 C10 120.1(3)
F4 C11 C10 119.1(3)
F4 C11 C12 120.8(3)
C11 C12 H12 120.5
C11 C12 C13 119.0(3)
C13 C12 H12 120.5
C8 C13 H13 119.3
C12 C13 C8 121.4(3)
C12 C13 H13 119.3
C1 N1 C8 118.8(3)
loop_
_geom_bond_atom_site_label_1
_geom_bond_atom_site_label_2
_geom_bond_distance
C1 H1 0.95
C1 C2 1.464(5)
C1 N1 1.276(5)
C2 C3 1.403(5)
C2 C7 1.392(5)
C3 C4 1.365(5)
C3 F1 1.359(4)
C4 H4 0.95
C4 C5 1.385(5)
C5 H5 0.95
C5 C6 1.386(5)
C6 H6 0.95
C6 C7 1.376(5)
C7 F2 1.350(4)
C8 C9 1.396(5)
C8 C13 1.391(5)
C8 N1 1.417(4)
C9 H9 0.95
C9 C10 1.369(5)
C10 C11 1.387(5)
C10 F3 1.350(4)
C11 C12 1.369(5)
C11 F4 1.349(4)
C12 H12 0.95
C12 C13 1.381(5)
C13 H13 0.95
