#------------------------------------------------------------------------------
#$Date: 2015-08-08 04:08:58 +0300 (Sat, 08 Aug 2015) $
#$Revision: 153097 $
#$URL: svn://www.crystallography.net/cod/cif/7/22/08/7220863.cif $
#------------------------------------------------------------------------------
#
# This file is available in the Crystallography Open Database (COD),
# http://www.crystallography.net/
#
# All data on this site have been placed in the public domain by the
# contributors.
#
data_7220863
loop_
_publ_author_name
'Vande Velde, Christophe M. L.'
'Zeller, Matthias'
'Azov, Vladimir A.'
_publ_section_title
;
 Thermodynamic parameters of the pedal motion in the crystal structures of
 two bromomethylated azobenzenes
;
_journal_issue                   30
_journal_name_full               CrystEngComm
_journal_page_first              5751
_journal_paper_doi               10.1039/C5CE00905G
_journal_volume                  17
_journal_year                    2015
_chemical_formula_moiety         'C14 H12 Br2 N2'
_chemical_formula_sum            'C14 H12 Br2 N2'
_chemical_formula_weight         368.08
_chemical_melting_point          419.5(5)
_chemical_name_systematic
;
 (1E)-1,2-bis[3-(Bromomethyl)phenyl]-diazene
;
_space_group_crystal_system      monoclinic
_space_group_IT_number           14
_space_group_name_Hall           '-P 2ybc'
_space_group_name_H-M_alt        'P 1 21/c 1'
_symmetry_space_group_name_Hall  '-P 2ybc'
_symmetry_space_group_name_H-M   'P 1 21/c 1'
_atom_sites_solution_hydrogens   geom
_atom_sites_solution_primary     direct
_atom_sites_solution_secondary   difmap
_audit_creation_method           SHELXL-2013
_audit_update_record
;
2015-05-05 deposited with the CCDC.
2015-06-25 downloaded from the CCDC.
;
_cell_angle_alpha                90
_cell_angle_beta                 98.584(2)
_cell_angle_gamma                90
_cell_formula_units_Z            2
_cell_length_a                   13.858(2)
_cell_length_b                   4.3834(7)
_cell_length_c                   11.1513(17)
_cell_measurement_reflns_used    3572
_cell_measurement_temperature    90(2)
_cell_measurement_theta_max      31.55
_cell_measurement_theta_min      2.54
_cell_volume                     669.80(18)
_computing_structure_refinement  'SHELXL-2013 (Sheldrick, 2013)'
_diffrn_ambient_temperature      90(2)
_diffrn_measured_fraction_theta_full 0.993
_diffrn_measured_fraction_theta_max 0.924
_diffrn_measurement_device_type  'Bruker Smart 1000 area detector'
_diffrn_measurement_method       \w-scans
_diffrn_radiation_monochromator  graphite
_diffrn_radiation_source         'fine-focus sealed tube'
_diffrn_radiation_type           MoK\a
_diffrn_radiation_wavelength     0.71073
_diffrn_reflns_av_R_equivalents  0.0249
_diffrn_reflns_av_unetI/netI     0.0264
_diffrn_reflns_laue_measured_fraction_full 0.993
_diffrn_reflns_laue_measured_fraction_max 0.924
_diffrn_reflns_limit_h_max       19
_diffrn_reflns_limit_h_min       -20
_diffrn_reflns_limit_k_max       6
_diffrn_reflns_limit_k_min       -6
_diffrn_reflns_limit_l_max       16
_diffrn_reflns_limit_l_min       -16
_diffrn_reflns_number            6248
_diffrn_reflns_point_group_measured_fraction_full 0.993
_diffrn_reflns_point_group_measured_fraction_max 0.924
_diffrn_reflns_theta_full        28.000
_diffrn_reflns_theta_max         31.661
_diffrn_reflns_theta_min         2.973
_exptl_absorpt_coefficient_mu    6.034
_exptl_absorpt_correction_T_max  0.7463
_exptl_absorpt_correction_T_min  0.5303
_exptl_absorpt_correction_type   multi-scan
_exptl_absorpt_process_details   'Bruker SADABS 2008-1'
_exptl_crystal_colour            orange
_exptl_crystal_density_diffrn    1.825
_exptl_crystal_density_method    'not measured'
_exptl_crystal_description       plate
_exptl_crystal_F_000             360
_exptl_crystal_size_max          0.550
_exptl_crystal_size_mid          0.520
_exptl_crystal_size_min          0.470
_refine_diff_density_max         0.949
_refine_diff_density_min         -0.543
_refine_diff_density_rms         0.087
_refine_ls_extinction_coef       0.0253(18)
_refine_ls_extinction_expression Fc^*^=kFc[1+0.001xFc^2^\l^3^/sin(2\q)]^-1/4^
_refine_ls_extinction_method     SHELXL
_refine_ls_goodness_of_fit_ref   1.057
_refine_ls_hydrogen_treatment    constr
_refine_ls_matrix_type           full
_refine_ls_number_parameters     111
_refine_ls_number_reflns         2091
_refine_ls_number_restraints     21
_refine_ls_restrained_S_all      1.052
_refine_ls_R_factor_all          0.0257
_refine_ls_R_factor_gt           0.0215
_refine_ls_shift/su_max          0.001
_refine_ls_shift/su_mean         0.000
_refine_ls_structure_factor_coef Fsqd
_refine_ls_weighting_details
;
 w=1/[\s^2^(Fo^2^)+(0.0288P)^2^+0.2747P]
 where P=(Fo^2^+2Fc^2^)/3
;
_refine_ls_weighting_scheme      calc
_refine_ls_wR_factor_gt          0.0539
_refine_ls_wR_factor_ref         0.0551
_reflns_Friedel_coverage         0.000
_reflns_number_gt                1867
_reflns_number_total             2091
_reflns_threshold_expression     'I > 2\s(I)'
_cod_data_source_file            c5ce00905g3.cif
_cod_data_source_block           12mz119_0m
_cod_depositor_comments
;
The following automatic conversions were performed:

'_chemical_melting_point' value '419-420K' was changed to '419.5(5)'
- the average value was taken and precision was estimated.

Automatic conversion script
Id: cif_fix_values 3271 2015-04-21 07:52:19Z andrius 

 Adding full bibliography for 7220863--7220879.cif.
;
_cod_original_cell_volume        669.81(18)
_cod_database_code               7220863
_shelx_space_group_comment
;
The symmetry employed for this shelxl refinement is uniquely defined
by the following loop, which should always be used as a source of
symmetry information in preference to the above space-group names.
They are only intended as comments.
;
_shelx_estimated_absorpt_t_min   0.136
_shelx_estimated_absorpt_t_max   0.164
_shelxl_version_number           2013-2
_shelx_res_file
;
TITL 12mz119_0m1 in P2(1)/c
CELL 0.71073  13.8582   4.3834  11.1513  90.000  98.584  90.000
ZERR    2.00   0.0021   0.0007   0.0017   0.000   0.002   0.000
LATT  1
SYMM -X, 0.5+Y, 0.5-Z
SFAC C H N BR
UNIT 28 24 4 4
LIST 4
TEMP -173.5
SIZE 0.47 0.52 0.55

L.S. 14
BOND $H
ACTA 56
CONF
FMAP 2
PLAN 20
EADP C1 C1B
EADP C2 C2B
EADP C3 C3B
EADP C4 C4B
EADP C5 C5B
EADP C6 C6B
EADP C7 C7B
EADP N1 N1B
EADP Br1 Br1B
SADI N1 N1_$1 N1B N1B_$1
EQIV $1 -x, 1-y, -z

WGHT    0.028800    0.274700
EXTI    0.025256
FVAR       0.87706   0.96285
PART 1
BR1   4    0.427173    0.579607    0.138010    21.00000    0.01161    0.01479 =
         0.01081   -0.00209   -0.00225   -0.00063
C1    1    0.349426    0.814745    0.005118    21.00000    0.01346    0.01039 =
         0.01585    0.00197   -0.00294   -0.00167
AFIX  23
H1A   2    0.322658    0.999734    0.039038    21.00000   -1.20000
H1B   2    0.392272    0.880637   -0.053558    21.00000   -1.20000
AFIX   0
C2    1    0.267520    0.626927   -0.058919    21.00000    0.01155    0.00835 =
         0.00955    0.00311   -0.00068   -0.00056
C3    1    0.281325    0.455664   -0.161434    21.00000    0.01256    0.01420 =
         0.01051    0.00230    0.00113    0.00200
AFIX  43
H3    2    0.343245    0.454949   -0.188263    21.00000   -1.20000
AFIX   0
C4    1    0.204811    0.287052   -0.223906    21.00000    0.01776    0.01400 =
         0.00891   -0.00122    0.00122    0.00160
AFIX  43
H4    2    0.214437    0.171935   -0.293325    21.00000   -1.20000
AFIX   0
C5    1    0.113703    0.287357   -0.184315    21.00000    0.01314    0.01221 =
         0.00902   -0.00034   -0.00253   -0.00081
AFIX  43
H5    2    0.061026    0.174628   -0.227312    21.00000   -1.20000
AFIX   0
C6    1    0.100504    0.453928   -0.081399    21.00000    0.01085    0.01064 =
         0.00904    0.00195    0.00015    0.00074
C7    1    0.176833    0.626478   -0.019061    21.00000    0.01289    0.00892 =
         0.00830    0.00126   -0.00070   -0.00021
AFIX  43
H7    2    0.166969    0.742649    0.050000    21.00000   -1.20000
AFIX   0
N1    3    0.004129    0.437317   -0.049654    21.00000    0.01099    0.01437 =
         0.01213   -0.00064    0.00029   -0.00078
PART 2
SAME 0.001 Br1 > N1
BR1B  4    0.444739    0.585435    0.134840   -21.00000    0.01161    0.01479 =
         0.01081   -0.00209   -0.00225   -0.00063
C1B   1    0.386904    0.776976   -0.020761   -21.00000    0.01346    0.01039 =
         0.01585    0.00197   -0.00294   -0.00167
AFIX  23
H1BA  2    0.380320    0.999400   -0.008866   -21.00000   -1.20000
H1BB  2    0.430894    0.745176   -0.081907   -21.00000   -1.20000
AFIX   0
C2B   1    0.288962    0.643913   -0.066259   -21.00000    0.01155    0.00835 =
         0.00955    0.00311   -0.00068   -0.00056
C3B   1    0.277397    0.450981   -0.167950   -21.00000    0.01256    0.01420 =
         0.01051    0.00230    0.00113    0.00200
AFIX  43
H3B   2    0.331033    0.414187   -0.210005   -21.00000   -1.20000
AFIX   0
C4B   1    0.187798    0.313468   -0.207414   -21.00000    0.01776    0.01400 =
         0.00891   -0.00122    0.00122    0.00160
AFIX  43
H4B   2    0.179473    0.190418   -0.278337   -21.00000   -1.20000
AFIX   0
C5B   1    0.110019    0.356770   -0.142456   -21.00000    0.01314    0.01221 =
         0.00902   -0.00034   -0.00253   -0.00081
AFIX  43
H5B   2    0.049273    0.258570   -0.167704   -21.00000   -1.20000
AFIX   0
C6B   1    0.122066    0.544882   -0.040392   -21.00000    0.01085    0.01064 =
         0.00904    0.00195    0.00015    0.00074
C7B   1    0.210239    0.697489   -0.004500   -21.00000    0.01289    0.00892 =
         0.00830    0.00126   -0.00070   -0.00021
AFIX  43
H7B   2    0.216467    0.836698    0.061499   -21.00000   -1.20000
AFIX   0
N1B   3    0.039963    0.554238    0.023985   -21.00000    0.01099    0.01437 =
         0.01213   -0.00064    0.00029   -0.00078
HKLF 4

REM  12mz119_0m1 in P2(1)/c
REM R1 =  0.0215 for    1867 Fo > 4sig(Fo)  and  0.0257 for all    2091 data
REM    111 parameters refined using     21 restraints

END

WGHT      0.0288      0.2747

REM Highest difference peak  0.949,  deepest hole -0.543,  1-sigma level  0.087
Q1    1   0.3750  0.5827  0.1350  11.00000  0.05    0.95
Q2    1   0.4851  0.5819  0.1479  11.00000  0.05    0.70
Q3    1   0.4228  0.9865 -0.0561  11.00000  0.05    0.63
Q4    1   0.2198  0.6189 -0.0358  11.00000  0.05    0.53
Q5    1   0.2339  0.4087 -0.1929  11.00000  0.05    0.46
Q6    1   0.0623  0.4368 -0.0616  11.00000  0.05    0.43
Q7    1   0.1596  0.3003 -0.2112  11.00000  0.05    0.41
Q8    1   0.3077  0.7550 -0.0210  11.00000  0.05    0.36
Q9    1   0.2754  0.5242 -0.1050  11.00000  0.05    0.36
Q10   1   0.3823  0.7591  0.0464  11.00000  0.05    0.31
Q11   1   0.0592  0.5860  0.0515  11.00000  0.05    0.31
Q12   1   0.5378  0.5686  0.1727  11.00000  0.05    0.30
Q13   1   0.3157  0.5862  0.0906  11.00000  0.05    0.25
Q14   1   0.2942  0.3874 -0.1535  11.00000  0.05    0.25
Q15   1   0.3435  0.5765  0.2035  11.00000  0.05    0.25
Q16   1   0.1860  0.5758  0.0088  11.00000  0.05    0.23
Q17   1   0.0000  0.5000  0.0000  10.50000  0.05    0.23
Q18   1   0.4397  0.2209  0.1555  11.00000  0.05    0.23
Q19   1   0.3875  0.8703 -0.0137  11.00000  0.05    0.23
Q20   1   0.4441  0.7968  0.0342  11.00000  0.05    0.22
;
_shelx_res_checksum              30208
loop_
_space_group_symop_operation_xyz
'x, y, z'
'-x, y+1/2, -z+1/2'
'-x, -y, -z'
'x, -y-1/2, z-1/2'
loop_
_atom_site_label
_atom_site_type_symbol
_atom_site_fract_x
_atom_site_fract_y
_atom_site_fract_z
_atom_site_U_iso_or_equiv
_atom_site_adp_type
_atom_site_occupancy
_atom_site_site_symmetry_order
_atom_site_calc_flag
_atom_site_refinement_flags_posn
_atom_site_refinement_flags_adp
_atom_site_refinement_flags_occupancy
_atom_site_disorder_assembly
_atom_site_disorder_group
Br1 Br 0.42717(3) 0.57961(11) 0.13801(3) 0.01281(8) Uani 0.963(2) 1 d D . P A 1
C1 C 0.34943(13) 0.8147(4) 0.00512(15) 0.0138(3) Uani 0.963(2) 1 d D . P A 1
H1A H 0.3227 0.9997 0.0390 0.017 Uiso 0.963(2) 1 calc R U P A 1
H1B H 0.3923 0.8806 -0.0536 0.017 Uiso 0.963(2) 1 calc R U P A 1
C2 C 0.26752(12) 0.6269(4) -0.05892(14) 0.0100(3) Uani 0.963(2) 1 d D . P A 1
C3 C 0.28133(13) 0.4557(5) -0.16143(16) 0.0125(3) Uani 0.963(2) 1 d D . P A 1
H3 H 0.3432 0.4549 -0.1883 0.015 Uiso 0.963(2) 1 calc R U P A 1
C4 C 0.20481(13) 0.2871(4) -0.22391(15) 0.0136(3) Uani 0.963(2) 1 d D . P A 1
H4 H 0.2144 0.1719 -0.2933 0.016 Uiso 0.963(2) 1 calc R U P A 1
C5 C 0.11370(12) 0.2874(4) -0.18431(14) 0.0119(3) Uani 0.963(2) 1 d D . P A 1
H5 H 0.0610 0.1746 -0.2273 0.014 Uiso 0.963(2) 1 calc R U P A 1
C6 C 0.10050(12) 0.4539(4) -0.08140(14) 0.0103(3) Uani 0.963(2) 1 d D . P A 1
C7 C 0.17683(12) 0.6265(4) -0.01906(14) 0.0103(3) Uani 0.963(2) 1 d D . P A 1
H7 H 0.1670 0.7426 0.0500 0.012 Uiso 0.963(2) 1 calc R U P A 1
N1 N 0.00413(11) 0.4373(3) -0.04965(13) 0.0126(3) Uani 0.963(2) 1 d D . P A 1
Br1B Br 0.4447(8) 0.585(3) 0.1348(10) 0.01281(8) Uani 0.037(2) 1 d D . P A 2
C1B C 0.3869(7) 0.777(5) -0.0208(13) 0.0138(3) Uani 0.037(2) 1 d D . P A 2
H1BA H 0.3803 0.9994 -0.0089 0.017 Uiso 0.037(2) 1 calc R U P A 2
H1BB H 0.4309 0.7452 -0.0819 0.017 Uiso 0.037(2) 1 calc R U P A 2
C2B C 0.2890(7) 0.644(5) -0.0663(11) 0.0100(3) Uani 0.037(2) 1 d D . P A 2
C3B C 0.2774(11) 0.451(8) -0.168(2) 0.0125(3) Uani 0.037(2) 1 d D . P A 2
H3B H 0.3310 0.4142 -0.2100 0.015 Uiso 0.037(2) 1 calc R U P A 2
C4B C 0.1878(13) 0.313(8) -0.207(2) 0.0136(3) Uani 0.037(2) 1 d D . P A 2
H4B H 0.1795 0.1904 -0.2783 0.016 Uiso 0.037(2) 1 calc R U P A 2
C5B C 0.1100(11) 0.357(6) -0.1425(18) 0.0119(3) Uani 0.037(2) 1 d D . P A 2
H5B H 0.0493 0.2586 -0.1677 0.014 Uiso 0.037(2) 1 calc R U P A 2
C6B C 0.1221(8) 0.545(5) -0.0404(15) 0.0103(3) Uani 0.037(2) 1 d D . P A 2
C7B C 0.2102(9) 0.697(5) -0.0045(17) 0.0103(3) Uani 0.037(2) 1 d D . P A 2
H7B H 0.2165 0.8367 0.0615 0.012 Uiso 0.037(2) 1 calc R U P A 2
N1B N 0.0400(9) 0.554(7) 0.0240(17) 0.0126(3) Uani 0.037(2) 1 d D . P A 2
loop_
_atom_site_aniso_label
_atom_site_aniso_U_11
_atom_site_aniso_U_22
_atom_site_aniso_U_33
_atom_site_aniso_U_23
_atom_site_aniso_U_13
_atom_site_aniso_U_12
Br1 0.01161(16) 0.01479(10) 0.01081(9) -0.00209(6) -0.00225(9) -0.00063(12)
C1 0.0135(8) 0.0104(7) 0.0158(7) 0.0020(6) -0.0029(6) -0.0017(6)
C2 0.0116(7) 0.0084(6) 0.0095(6) 0.0031(5) -0.0007(5) -0.0006(6)
C3 0.0126(7) 0.0142(7) 0.0105(6) 0.0023(5) 0.0011(5) 0.0020(6)
C4 0.0178(8) 0.0140(8) 0.0089(7) -0.0012(6) 0.0012(5) 0.0016(7)
C5 0.0131(7) 0.0122(8) 0.0090(7) -0.0003(6) -0.0025(5) -0.0008(6)
C6 0.0109(7) 0.0106(7) 0.0090(7) 0.0020(5) 0.0001(5) 0.0007(6)
C7 0.0129(8) 0.0089(7) 0.0083(6) 0.0013(5) -0.0007(5) -0.0002(6)
N1 0.0110(7) 0.0144(7) 0.0121(6) -0.0006(5) 0.0003(5) -0.0008(5)
Br1B 0.01161(16) 0.01479(10) 0.01081(9) -0.00209(6) -0.00225(9) -0.00063(12)
C1B 0.0135(8) 0.0104(7) 0.0158(7) 0.0020(6) -0.0029(6) -0.0017(6)
C2B 0.0116(7) 0.0084(6) 0.0095(6) 0.0031(5) -0.0007(5) -0.0006(6)
C3B 0.0126(7) 0.0142(7) 0.0105(6) 0.0023(5) 0.0011(5) 0.0020(6)
C4B 0.0178(8) 0.0140(8) 0.0089(7) -0.0012(6) 0.0012(5) 0.0016(7)
C5B 0.0131(7) 0.0122(8) 0.0090(7) -0.0003(6) -0.0025(5) -0.0008(6)
C6B 0.0109(7) 0.0106(7) 0.0090(7) 0.0020(5) 0.0001(5) 0.0007(6)
C7B 0.0129(8) 0.0089(7) 0.0083(6) 0.0013(5) -0.0007(5) -0.0002(6)
N1B 0.0110(7) 0.0144(7) 0.0121(6) -0.0006(5) 0.0003(5) -0.0008(5)
loop_
_atom_type_symbol
_atom_type_description
_atom_type_scat_dispersion_real
_atom_type_scat_dispersion_imag
_atom_type_scat_source
C C 0.0033 0.0016 'International Tables Vol C Tables 4.2.6.8 and 6.1.1.4'
H H 0.0000 0.0000 'International Tables Vol C Tables 4.2.6.8 and 6.1.1.4'
N N 0.0061 0.0033 'International Tables Vol C Tables 4.2.6.8 and 6.1.1.4'
Br Br -0.2901 2.4595 'International Tables Vol C Tables 4.2.6.8 and 6.1.1.4'
loop_
_geom_angle_atom_site_label_1
_geom_angle_atom_site_label_2
_geom_angle_atom_site_label_3
_geom_angle
_geom_angle_site_symmetry_1
C2 C1 Br1 111.06(11) .
C2 C1 H1A 109.4 .
Br1 C1 H1A 109.4 .
C2 C1 H1B 109.4 .
Br1 C1 H1B 109.4 .
H1A C1 H1B 108.0 .
C7 C2 C3 119.84(15) .
C7 C2 C1 120.32(15) .
C3 C2 C1 119.82(15) .
C4 C3 C2 120.35(15) .
C4 C3 H3 119.8 .
C2 C3 H3 119.8 .
C3 C4 C5 119.87(15) .
C3 C4 H4 120.1 .
C5 C4 H4 120.1 .
C6 C5 C4 119.71(15) .
C6 C5 H5 120.1 .
C4 C5 H5 120.1 .
C5 C6 C7 120.65(15) .
C5 C6 N1 114.70(14) .
C7 C6 N1 124.63(15) .
C2 C7 C6 119.56(15) .
C2 C7 H7 120.2 .
C6 C7 H7 120.2 .
N1 N1 C6 113.96(18) 3_565
C2B C1B Br1B 111.05(17) .
C2B C1B H1BA 109.4 .
Br1B C1B H1BA 109.4 .
C2B C1B H1BB 109.4 .
Br1B C1B H1BB 109.4 .
H1BA C1B H1BB 108.0 .
C7B C2B C3B 119.79(19) .
C7B C2B C1B 120.3(2) .
C3B C2B C1B 119.8(2) .
C4B C3B C2B 120.3(2) .
C4B C3B H3B 119.8 .
C2B C3B H3B 119.8 .
C3B C4B C5B 119.9(2) .
C3B C4B H4B 120.1 .
C5B C4B H4B 120.1 .
C6B C5B C4B 119.7(2) .
C6B C5B H5B 120.2 .
C4B C5B H5B 120.2 .
C5B C6B C7B 120.62(19) .
C5B C6B N1B 114.7(2) .
C7B C6B N1B 124.6(2) .
C2B C7B C6B 119.5(2) .
C2B C7B H7B 120.2 .
C6B C7B H7B 120.2 .
N1B N1B C6B 119.6(14) 3_565
loop_
_geom_bond_atom_site_label_1
_geom_bond_atom_site_label_2
_geom_bond_distance
_geom_bond_site_symmetry_2
Br1 C1 1.9856(17) .
C1 C2 1.495(2) .
C1 H1A 0.9900 .
C1 H1B 0.9900 .
C2 C7 1.394(2) .
C2 C3 1.404(2) .
C3 C4 1.391(2) .
C3 H3 0.9500 .
C4 C5 1.398(2) .
C4 H4 0.9500 .
C5 C6 1.395(2) .
C5 H5 0.9500 .
C6 C7 1.398(2) .
C6 N1 1.434(2) .
C7 H7 0.9500 .
N1 N1 1.257(3) 3_565
Br1B C1B 1.986(2) .
C1B C2B 1.495(2) .
C1B H1BA 0.9900 .
C1B H1BB 0.9900 .
C2B C7B 1.394(2) .
C2B C3B 1.404(2) .
C3B C4B 1.391(2) .
C3B H3B 0.9500 .
C4B C5B 1.398(3) .
C4B H4B 0.9500 .
C5B C6B 1.395(2) .
C5B H5B 0.9500 .
C6B C7B 1.398(2) .
C6B N1B 1.434(2) .
C7B H7B 0.9500 .
N1B N1B 1.250(18) 3_565
loop_
_geom_torsion_atom_site_label_1
_geom_torsion_atom_site_label_2
_geom_torsion_atom_site_label_3
_geom_torsion_atom_site_label_4
_geom_torsion
_geom_torsion_site_symmetry_4
Br1 C1 C2 C7 89.60(17) .
Br1 C1 C2 C3 -91.88(18) .
C7 C2 C3 C4 0.4(3) .
C1 C2 C3 C4 -178.11(17) .
C2 C3 C4 C5 -0.2(3) .
C3 C4 C5 C6 -0.8(3) .
C4 C5 C6 C7 1.5(2) .
C4 C5 C6 N1 179.93(15) .
C3 C2 C7 C6 0.3(2) .
C1 C2 C7 C6 178.81(14) .
C5 C6 C7 C2 -1.3(2) .
N1 C6 C7 C2 -179.51(15) .
C5 C6 N1 N1 173.23(17) 3_565
C7 C6 N1 N1 -8.4(3) 3_565
Br1B C1B C2B C7B 68.3(17) .
Br1B C1B C2B C3B -108(2) .
C7B C2B C3B C4B 0(4) .
C1B C2B C3B C4B 177(3) .
C2B C3B C4B C5B -3(5) .
C3B C4B C5B C6B 2(5) .
C4B C5B C6B C7B 2(4) .
C4B C5B C6B N1B -176(3) .
C3B C2B C7B C6B 4(3) .
C1B C2B C7B C6B -173.0(16) .
C5B C6B C7B C2B -5(3) .
N1B C6B C7B C2B 173(3) .
C5B C6B N1B N1B -13(5) 3_565
C7B C6B N1B N1B 170(4) 3_565
