#------------------------------------------------------------------------------
#$Date: 2015-08-08 04:08:58 +0300 (Sat, 08 Aug 2015) $
#$Revision: 153097 $
#$URL: svn://www.crystallography.net/cod/cif/7/22/08/7220865.cif $
#------------------------------------------------------------------------------
#
# This file is available in the Crystallography Open Database (COD),
# http://www.crystallography.net/
#
# All data on this site have been placed in the public domain by the
# contributors.
#
data_7220865
loop_
_publ_author_name
'Vande Velde, Christophe M. L.'
'Zeller, Matthias'
'Azov, Vladimir A.'
_publ_section_title
;
 Thermodynamic parameters of the pedal motion in the crystal structures of
 two bromomethylated azobenzenes
;
_journal_issue                   30
_journal_name_full               CrystEngComm
_journal_page_first              5751
_journal_paper_doi               10.1039/C5CE00905G
_journal_volume                  17
_journal_year                    2015
_chemical_formula_moiety         'C14 H12 Br2 N2'
_chemical_formula_sum            'C14 H12 Br2 N2'
_chemical_formula_weight         368.08
_chemical_melting_point          419.5(5)
_chemical_name_systematic
;
 (1E)-1,2-bis[3-(Bromomethyl)phenyl]-diazene
;
_space_group_crystal_system      monoclinic
_space_group_IT_number           14
_space_group_name_Hall           '-P 2ybc'
_space_group_name_H-M_alt        'P 1 21/c 1'
_symmetry_space_group_name_Hall  '-P 2ybc'
_symmetry_space_group_name_H-M   'P 1 21/c 1'
_atom_sites_solution_hydrogens   geom
_atom_sites_solution_primary     direct
_atom_sites_solution_secondary   difmap
_audit_creation_method           SHELXL-2013
_audit_update_record
;
2015-05-05 deposited with the CCDC.
2015-06-25 downloaded from the CCDC.
;
_cell_angle_alpha                90
_cell_angle_beta                 98.719(2)
_cell_angle_gamma                90
_cell_formula_units_Z            2
_cell_length_a                   13.891(2)
_cell_length_b                   4.4024(7)
_cell_length_c                   11.1676(17)
_cell_measurement_reflns_used    3022
_cell_measurement_temperature    150(2)
_cell_measurement_theta_max      31.51
_cell_measurement_theta_min      2.54
_cell_volume                     675.05(18)
_computing_structure_refinement  'SHELXL-2013 (Sheldrick, 2013)'
_diffrn_ambient_temperature      150(2)
_diffrn_measured_fraction_theta_full 0.992
_diffrn_measured_fraction_theta_max 0.931
_diffrn_measurement_device_type  'Bruker Smart 1000 area detector'
_diffrn_measurement_method       \w-scans
_diffrn_radiation_monochromator  graphite
_diffrn_radiation_source         'fine-focus sealed tube'
_diffrn_radiation_type           MoK\a
_diffrn_radiation_wavelength     0.71073
_diffrn_reflns_av_R_equivalents  0.0254
_diffrn_reflns_av_unetI/netI     0.0272
_diffrn_reflns_laue_measured_fraction_full 0.992
_diffrn_reflns_laue_measured_fraction_max 0.931
_diffrn_reflns_limit_h_max       19
_diffrn_reflns_limit_h_min       -20
_diffrn_reflns_limit_k_max       6
_diffrn_reflns_limit_k_min       -6
_diffrn_reflns_limit_l_max       16
_diffrn_reflns_limit_l_min       -16
_diffrn_reflns_number            6512
_diffrn_reflns_point_group_measured_fraction_full 0.992
_diffrn_reflns_point_group_measured_fraction_max 0.931
_diffrn_reflns_theta_full        28.000
_diffrn_reflns_theta_max         31.629
_diffrn_reflns_theta_min         2.967
_exptl_absorpt_coefficient_mu    5.987
_exptl_absorpt_correction_T_max  0.7463
_exptl_absorpt_correction_T_min  0.4237
_exptl_absorpt_correction_type   multi-scan
_exptl_absorpt_process_details   'Bruker SADABS 2008-1'
_exptl_crystal_colour            orange
_exptl_crystal_density_diffrn    1.811
_exptl_crystal_density_meas      ?
_exptl_crystal_description       plate
_exptl_crystal_F_000             360
_exptl_crystal_size_max          0.550
_exptl_crystal_size_mid          0.520
_exptl_crystal_size_min          0.470
_refine_diff_density_max         0.766
_refine_diff_density_min         -0.467
_refine_diff_density_rms         0.087
_refine_ls_extinction_coef       0.034(2)
_refine_ls_extinction_expression Fc^*^=kFc[1+0.001xFc^2^\l^3^/sin(2\q)]^-1/4^
_refine_ls_extinction_method     SHELXL
_refine_ls_goodness_of_fit_ref   1.052
_refine_ls_hydrogen_treatment    constr
_refine_ls_matrix_type           full
_refine_ls_number_parameters     111
_refine_ls_number_reflns         2119
_refine_ls_number_restraints     21
_refine_ls_restrained_S_all      1.047
_refine_ls_R_factor_all          0.0318
_refine_ls_R_factor_gt           0.0245
_refine_ls_shift/su_max          0.000
_refine_ls_shift/su_mean         0.000
_refine_ls_structure_factor_coef Fsqd
_refine_ls_weighting_details
;
 w=1/[\s^2^(Fo^2^)+(0.0340P)^2^+0.1531P]
 where P=(Fo^2^+2Fc^2^)/3
;
_refine_ls_weighting_scheme      calc
_refine_ls_wR_factor_gt          0.0601
_refine_ls_wR_factor_ref         0.0623
_reflns_Friedel_coverage         0.000
_reflns_number_gt                1794
_reflns_number_total             2119
_reflns_threshold_expression     'I > 2\s(I)'
_cod_data_source_file            c5ce00905g3.cif
_cod_data_source_block           12mz121_0m
_cod_depositor_comments
;
The following automatic conversions were performed:

'_chemical_melting_point' value '419-420K' was changed to '419.5(5)'
- the average value was taken and precision was estimated.

'_exptl_crystal_density_meas' value 'not measured' was changed to '?'
- the value is perceived as not measured.

Automatic conversion script
Id: cif_fix_values 3271 2015-04-21 07:52:19Z andrius 

 Adding full bibliography for 7220863--7220879.cif.
;
_cod_original_cell_volume        675.03(18)
_cod_database_code               7220865
_shelx_space_group_comment
;
The symmetry employed for this shelxl refinement is uniquely defined
by the following loop, which should always be used as a source of
symmetry information in preference to the above space-group names.
They are only intended as comments.
;
_shelx_estimated_absorpt_t_min   0.137
_shelx_estimated_absorpt_t_max   0.165
_shelxl_version_number           2013-2
_shelx_res_file
;
TITL 12mz121_0m in P2(1)/c
CELL 0.71073  13.8906   4.4024  11.1676  90.000  98.719  90.000
ZERR    2.00   0.0021   0.0007   0.0017   0.000   0.002   0.000
LATT  1
SYMM -X, 0.5+Y, 0.5-Z
SFAC C H N BR
UNIT 28 24 4 4
LIST 4
TEMP -123.5
SIZE 0.47 0.52 0.55

L.S. 14
BOND $H
ACTA 56
CONF
FMAP 2
PLAN 20
EADP C1 C1B
EADP C2 C2B
EADP C3 C3B
EADP C4 C4B
EADP C5 C5B
EADP C6 C6B
EADP C7 C7B
EADP N1 N1B
EADP Br1 Br1B
SADI N1 N1_$1 N1B N1B_$1
EQIV $1 -x, 1-y, -z

WGHT    0.034000    0.153100
EXTI    0.033504
FVAR       0.28962   0.93019
PART 1
BR1   4    0.426269    0.580350    0.138054    21.00000    0.02039    0.02630 =
         0.01956   -0.00325   -0.00373   -0.00137
C1    1    0.348481    0.813758    0.005504    21.00000    0.02212    0.01896 =
         0.02666    0.00362   -0.00251   -0.00321
AFIX  23
H1A   2    0.321902    0.998141    0.039321    21.00000   -1.20000
H1B   2    0.391034    0.879011   -0.053255    21.00000   -1.20000
AFIX   0
C2    1    0.266730    0.626803   -0.058027    21.00000    0.01905    0.01500 =
         0.01634    0.00477   -0.00105   -0.00040
C3    1    0.280262    0.456574   -0.160393    21.00000    0.02243    0.02286 =
         0.01846    0.00333    0.00288    0.00193
AFIX  43
H3    2    0.342029    0.455302   -0.187080    21.00000   -1.20000
AFIX   0
C4    1    0.203714    0.289780   -0.222943    21.00000    0.02795    0.02547 =
         0.01385   -0.00193    0.00230    0.00105
AFIX  43
H4    2    0.213069    0.176156   -0.292578    21.00000   -1.20000
AFIX   0
C5    1    0.113056    0.289362   -0.183345    21.00000    0.02083    0.02239 =
         0.01621   -0.00134   -0.00441   -0.00089
AFIX  43
H5    2    0.060452    0.176631   -0.226111    21.00000   -1.20000
AFIX   0
C6    1    0.100273    0.455199   -0.080807    21.00000    0.01787    0.01846 =
         0.01431    0.00295   -0.00009    0.00070
C7    1    0.176534    0.626377   -0.018466    21.00000    0.01978    0.01654 =
         0.01452    0.00160   -0.00109    0.00081
AFIX  43
H7    2    0.166820    0.741840    0.050570    21.00000   -1.20000
AFIX   0
N1    3    0.003943    0.437938   -0.049105    21.00000    0.01958    0.02469 =
         0.01880   -0.00093   -0.00058   -0.00105
PART 2
SAME 0.001 Br1 > N1
BR1B  4    0.443431    0.594811    0.134607   -21.00000    0.02039    0.02630 =
         0.01956   -0.00325   -0.00373   -0.00137
C1B   1    0.384542    0.783878   -0.020421   -21.00000    0.02212    0.01896 =
         0.02666    0.00362   -0.00251   -0.00321
AFIX  23
H1BA  2    0.377304    1.005084   -0.008546   -21.00000   -1.20000
H1BB  2    0.428203    0.753771   -0.081734   -21.00000   -1.20000
AFIX   0
C2B   1    0.287268    0.648412   -0.065258   -21.00000    0.01905    0.01500 =
         0.01634    0.00477   -0.00105   -0.00040
C3B   1    0.276006    0.457418   -0.167034   -21.00000    0.02243    0.02286 =
         0.01846    0.00333    0.00288    0.00193
AFIX  43
H3B   2    0.328231    0.432722   -0.212132   -21.00000   -1.20000
AFIX   0
C4B   1    0.188785    0.304173   -0.202178   -21.00000    0.02795    0.02547 =
         0.01385   -0.00193    0.00230    0.00105
AFIX  43
H4B   2    0.182775    0.165739   -0.268148   -21.00000   -1.20000
AFIX   0
C5B   1    0.110008    0.353989   -0.140380   -21.00000    0.02083    0.02239 =
         0.01621   -0.00134   -0.00441   -0.00089
AFIX  43
H5B   2    0.048846    0.261297   -0.167626   -21.00000   -1.20000
AFIX   0
C6B   1    0.121808    0.540494   -0.038565   -21.00000    0.01787    0.01846 =
         0.01431    0.00295   -0.00009    0.00070
C7B   1    0.209992    0.689478   -0.001027   -21.00000    0.01978    0.01654 =
         0.01452    0.00160   -0.00109    0.00081
AFIX  43
H7B   2    0.217132    0.818195    0.068029   -21.00000   -1.20000
AFIX   0
N1B   3    0.037956    0.558524    0.022298   -21.00000    0.01958    0.02469 =
         0.01880   -0.00093   -0.00058   -0.00105
HKLF 4

REM  12mz121_0m in P2(1)/c
REM R1 =  0.0245 for    1794 Fo > 4sig(Fo)  and  0.0318 for all    2119 data
REM    111 parameters refined using     21 restraints

END

WGHT      0.0340      0.1531

REM Highest difference peak  0.766,  deepest hole -0.467,  1-sigma level  0.087
Q1    1   0.3735  0.5872  0.1395  11.00000  0.05    0.77
Q2    1   0.4870  0.5790  0.1460  11.00000  0.05    0.59
Q3    1   0.4238  0.9819 -0.0562  11.00000  0.05    0.59
Q4    1   0.2180  0.6331 -0.0375  11.00000  0.05    0.47
Q5    1   0.2403  0.3791 -0.1821  11.00000  0.05    0.44
Q6    1   0.0606  0.4508 -0.0586  11.00000  0.05    0.38
Q7    1   0.2726  0.5383 -0.1045  11.00000  0.05    0.37
Q8    1   0.3017  0.7711 -0.0145  11.00000  0.05    0.36
Q9    1   0.1364  0.6078 -0.0537  11.00000  0.05    0.36
Q10   1   0.1634  0.3082 -0.1910  11.00000  0.05    0.30
Q11   1   0.5062  0.7553  0.1886  11.00000  0.05    0.29
Q12   1   0.3590  0.9093 -0.0172  11.00000  0.05    0.26
Q13   1   0.1797  0.5355 -0.0064  11.00000  0.05    0.26
Q14   1   0.5252  0.5802  0.2181  11.00000  0.05    0.25
Q15   1   0.2683  0.6723 -0.0846  11.00000  0.05    0.25
Q16   1   0.3496  0.9176  0.0327  11.00000  0.05    0.25
Q17   1   0.5194  0.4111  0.2313  11.00000  0.05    0.24
Q18   1   0.3017  0.5866  0.1198  11.00000  0.05    0.24
Q19   1   0.4013  0.3318 -0.1686  11.00000  0.05    0.23
Q20   1   0.0569  0.5816  0.0621  11.00000  0.05    0.23
;
_shelx_res_checksum              73356
loop_
_space_group_symop_operation_xyz
'x, y, z'
'-x, y+1/2, -z+1/2'
'-x, -y, -z'
'x, -y-1/2, z-1/2'
loop_
_atom_site_label
_atom_site_type_symbol
_atom_site_fract_x
_atom_site_fract_y
_atom_site_fract_z
_atom_site_U_iso_or_equiv
_atom_site_adp_type
_atom_site_occupancy
_atom_site_site_symmetry_order
_atom_site_calc_flag
_atom_site_refinement_flags_posn
_atom_site_refinement_flags_adp
_atom_site_refinement_flags_occupancy
_atom_site_disorder_assembly
_atom_site_disorder_group
Br1 Br 0.42627(4) 0.58035(15) 0.13805(5) 0.02278(10) Uani 0.930(3) 1 d D . P A
1
C1 C 0.34848(16) 0.8138(4) 0.00550(19) 0.0232(4) Uani 0.930(3) 1 d D . P A 1
H1A H 0.3219 0.9981 0.0393 0.028 Uiso 0.930(3) 1 calc R U P A 1
H1B H 0.3910 0.8790 -0.0533 0.028 Uiso 0.930(3) 1 calc R U P A 1
C2 C 0.26673(14) 0.6268(4) -0.05803(16) 0.0172(3) Uani 0.930(3) 1 d D . P A 1
C3 C 0.28026(15) 0.4566(7) -0.1604(2) 0.0213(4) Uani 0.930(3) 1 d D . P A 1
H3 H 0.3420 0.4553 -0.1871 0.026 Uiso 0.930(3) 1 calc R U P A 1
C4 C 0.20371(16) 0.2898(5) -0.22294(18) 0.0225(4) Uani 0.930(3) 1 d D . P A 1
H4 H 0.2131 0.1762 -0.2926 0.027 Uiso 0.930(3) 1 calc R U P A 1
C5 C 0.11306(14) 0.2894(5) -0.18335(17) 0.0206(4) Uani 0.930(3) 1 d D . P A 1
H5 H 0.0605 0.1766 -0.2261 0.025 Uiso 0.930(3) 1 calc R U P A 1
C6 C 0.10027(13) 0.4552(4) -0.08081(16) 0.0171(4) Uani 0.930(3) 1 d D . P A 1
C7 C 0.17653(14) 0.6264(4) -0.01847(16) 0.0173(4) Uani 0.930(3) 1 d D . P A 1
H7 H 0.1668 0.7418 0.0506 0.021 Uiso 0.930(3) 1 calc R U P A 1
N1 N 0.00394(12) 0.4379(4) -0.04911(14) 0.0214(4) Uani 0.930(3) 1 d D . P A 1
Br1B Br 0.4434(6) 0.595(2) 0.1346(7) 0.02278(10) Uani 0.070(3) 1 d D . P A 2
C1B C 0.3845(6) 0.784(4) -0.0204(11) 0.0232(4) Uani 0.070(3) 1 d D . P A 2
H1BA H 0.3773 1.0051 -0.0085 0.028 Uiso 0.070(3) 1 calc R U P A 2
H1BB H 0.4282 0.7538 -0.0817 0.028 Uiso 0.070(3) 1 calc R U P A 2
C2B C 0.2873(5) 0.648(4) -0.0653(9) 0.0172(3) Uani 0.070(3) 1 d D . P A 2
C3B C 0.2760(10) 0.457(7) -0.1670(19) 0.0213(4) Uani 0.070(3) 1 d D . P A 2
H3B H 0.3282 0.4327 -0.2121 0.026 Uiso 0.070(3) 1 calc R U P A 2
C4B C 0.1888(11) 0.304(6) -0.202(2) 0.0225(4) Uani 0.070(3) 1 d D . P A 2
H4B H 0.1828 0.1657 -0.2681 0.027 Uiso 0.070(3) 1 calc R U P A 2
C5B C 0.1100(9) 0.354(4) -0.1404(14) 0.0206(4) Uani 0.070(3) 1 d D . P A 2
H5B H 0.0488 0.2613 -0.1676 0.025 Uiso 0.070(3) 1 calc R U P A 2
C6B C 0.1218(7) 0.540(4) -0.0386(13) 0.0171(4) Uani 0.070(3) 1 d D . P A 2
C7B C 0.2100(7) 0.689(4) -0.0010(14) 0.0173(4) Uani 0.070(3) 1 d D . P A 2
H7B H 0.2171 0.8182 0.0680 0.021 Uiso 0.070(3) 1 calc R U P A 2
N1B N 0.0380(7) 0.559(5) 0.0223(13) 0.0214(4) Uani 0.070(3) 1 d D . P A 2
loop_
_atom_site_aniso_label
_atom_site_aniso_U_11
_atom_site_aniso_U_22
_atom_site_aniso_U_33
_atom_site_aniso_U_23
_atom_site_aniso_U_13
_atom_site_aniso_U_12
Br1 0.0204(2) 0.02630(14) 0.01956(11) -0.00325(8) -0.00373(13) -0.00137(16)
C1 0.0221(10) 0.0190(8) 0.0267(9) 0.0036(7) -0.0025(7) -0.0032(7)
C2 0.0190(9) 0.0150(7) 0.0163(7) 0.0048(6) -0.0011(6) -0.0004(7)
C3 0.0224(9) 0.0229(9) 0.0185(8) 0.0033(7) 0.0029(6) 0.0019(7)
C4 0.0279(10) 0.0255(9) 0.0139(9) -0.0019(7) 0.0023(7) 0.0010(8)
C5 0.0208(8) 0.0224(9) 0.0162(9) -0.0013(7) -0.0044(6) -0.0009(7)
C6 0.0179(8) 0.0185(9) 0.0143(8) 0.0030(6) -0.0001(6) 0.0007(7)
C7 0.0198(9) 0.0165(8) 0.0145(7) 0.0016(6) -0.0011(6) 0.0008(7)
N1 0.0196(8) 0.0247(8) 0.0188(7) -0.0009(6) -0.0006(6) -0.0011(7)
Br1B 0.0204(2) 0.02630(14) 0.01956(11) -0.00325(8) -0.00373(13) -0.00137(16)
C1B 0.0221(10) 0.0190(8) 0.0267(9) 0.0036(7) -0.0025(7) -0.0032(7)
C2B 0.0190(9) 0.0150(7) 0.0163(7) 0.0048(6) -0.0011(6) -0.0004(7)
C3B 0.0224(9) 0.0229(9) 0.0185(8) 0.0033(7) 0.0029(6) 0.0019(7)
C4B 0.0279(10) 0.0255(9) 0.0139(9) -0.0019(7) 0.0023(7) 0.0010(8)
C5B 0.0208(8) 0.0224(9) 0.0162(9) -0.0013(7) -0.0044(6) -0.0009(7)
C6B 0.0179(8) 0.0185(9) 0.0143(8) 0.0030(6) -0.0001(6) 0.0007(7)
C7B 0.0198(9) 0.0165(8) 0.0145(7) 0.0016(6) -0.0011(6) 0.0008(7)
N1B 0.0196(8) 0.0247(8) 0.0188(7) -0.0009(6) -0.0006(6) -0.0011(7)
loop_
_atom_type_symbol
_atom_type_description
_atom_type_scat_dispersion_real
_atom_type_scat_dispersion_imag
_atom_type_scat_source
C C 0.0033 0.0016 'International Tables Vol C Tables 4.2.6.8 and 6.1.1.4'
H H 0.0000 0.0000 'International Tables Vol C Tables 4.2.6.8 and 6.1.1.4'
N N 0.0061 0.0033 'International Tables Vol C Tables 4.2.6.8 and 6.1.1.4'
Br Br -0.2901 2.4595 'International Tables Vol C Tables 4.2.6.8 and 6.1.1.4'
loop_
_geom_angle_atom_site_label_1
_geom_angle_atom_site_label_2
_geom_angle_atom_site_label_3
_geom_angle
_geom_angle_site_symmetry_1
C2 C1 Br1 111.01(13) .
C2 C1 H1A 109.4 .
Br1 C1 H1A 109.4 .
C2 C1 H1B 109.4 .
Br1 C1 H1B 109.4 .
H1A C1 H1B 108.0 .
C7 C2 C3 119.78(17) .
C7 C2 C1 120.48(18) .
C3 C2 C1 119.72(18) .
C4 C3 C2 120.32(18) .
C4 C3 H3 119.8 .
C2 C3 H3 119.8 .
C3 C4 C5 119.96(17) .
C3 C4 H4 120.0 .
C5 C4 H4 120.0 .
C6 C5 C4 119.57(17) .
C6 C5 H5 120.2 .
C4 C5 H5 120.2 .
C5 C6 C7 120.75(16) .
C5 C6 N1 114.49(16) .
C7 C6 N1 124.74(17) .
C2 C7 C6 119.62(17) .
C2 C7 H7 120.2 .
C6 C7 H7 120.2 .
N1 N1 C6 113.8(2) 3_565
C2B C1B Br1B 110.98(18) .
C2B C1B H1BA 109.4 .
Br1B C1B H1BA 109.4 .
C2B C1B H1BB 109.4 .
Br1B C1B H1BB 109.4 .
H1BA C1B H1BB 108.0 .
C7B C2B C3B 119.7(2) .
C7B C2B C1B 120.4(2) .
C3B C2B C1B 119.7(2) .
C4B C3B C2B 120.3(2) .
C4B C3B H3B 119.8 .
C2B C3B H3B 119.8 .
C3B C4B C5B 119.9(2) .
C3B C4B H4B 120.0 .
C5B C4B H4B 120.0 .
C6B C5B C4B 119.5(2) .
C6B C5B H5B 120.3 .
C4B C5B H5B 120.3 .
C5B C6B C7B 120.8(2) .
C5B C6B N1B 114.5(2) .
C7B C6B N1B 124.7(2) .
C2B C7B C6B 119.6(2) .
C2B C7B H7B 120.2 .
C6B C7B H7B 120.2 .
N1B N1B C6B 120.0(12) 3_565
loop_
_geom_bond_atom_site_label_1
_geom_bond_atom_site_label_2
_geom_bond_distance
_geom_bond_site_symmetry_2
Br1 C1 1.9823(19) .
C1 C2 1.492(3) .
C1 H1A 0.9900 .
C1 H1B 0.9900 .
C2 C7 1.390(3) .
C2 C3 1.403(2) .
C3 C4 1.390(3) .
C3 H3 0.9500 .
C4 C5 1.396(3) .
C4 H4 0.9500 .
C5 C6 1.392(3) .
C5 H5 0.9500 .
C6 C7 1.397(3) .
C6 N1 1.437(2) .
C7 H7 0.9500 .
N1 N1 1.245(3) 3_565
Br1B C1B 1.982(2) .
C1B C2B 1.492(3) .
C1B H1BA 0.9900 .
C1B H1BB 0.9900 .
C2B C7B 1.390(3) .
C2B C3B 1.403(3) .
C3B C4B 1.390(3) .
C3B H3B 0.9500 .
C4B C5B 1.397(3) .
C4B H4B 0.9500 .
C5B C6B 1.392(3) .
C5B H5B 0.9500 .
C6B C7B 1.397(3) .
C6B N1B 1.437(3) .
C7B H7B 0.9500 .
N1B N1B 1.211(16) 3_565
loop_
_geom_torsion_atom_site_label_1
_geom_torsion_atom_site_label_2
_geom_torsion_atom_site_label_3
_geom_torsion_atom_site_label_4
_geom_torsion
_geom_torsion_site_symmetry_4
Br1 C1 C2 C7 89.69(19) .
Br1 C1 C2 C3 -92.0(2) .
C7 C2 C3 C4 0.5(4) .
C1 C2 C3 C4 -177.8(2) .
C2 C3 C4 C5 -0.5(4) .
C3 C4 C5 C6 -0.4(3) .
C4 C5 C6 C7 1.2(3) .
C4 C5 C6 N1 179.86(18) .
C3 C2 C7 C6 0.3(3) .
C1 C2 C7 C6 178.56(16) .
C5 C6 C7 C2 -1.2(3) .
N1 C6 C7 C2 -179.66(17) .
C5 C6 N1 N1 173.3(2) 3_565
C7 C6 N1 N1 -8.1(3) 3_565
Br1B C1B C2B C7B 65.9(14) .
Br1B C1B C2B C3B -108.6(19) .
C7B C2B C3B C4B -1(4) .
C1B C2B C3B C4B 173(2) .
C2B C3B C4B C5B 4(4) .
C3B C4B C5B C6B -5(4) .
C4B C5B C6B C7B 3(3) .
C4B C5B C6B N1B -176(2) .
C3B C2B C7B C6B 0(3) .
C1B C2B C7B C6B -174.7(15) .
C5B C6B C7B C2B -1(3) .
N1B C6B C7B C2B 178.2(19) .
C5B C6B N1B N1B -7(4) 3_565
C7B C6B N1B N1B 174(3) 3_565
