#------------------------------------------------------------------------------
#$Date: 2016-02-13 14:50:18 +0200 (Sat, 13 Feb 2016) $
#$Revision: 176428 $
#$URL: svn://www.crystallography.net/cod/cif/7/22/09/7220941.cif $
#------------------------------------------------------------------------------
#
# This file is available in the Crystallography Open Database (COD),
# http://www.crystallography.net/
#
# All data on this site have been placed in the public domain by the
# contributors.
#
data_7220941
loop_
_publ_author_name
'Takahashi, Hiroki'
'Tamura, Rui'
_publ_section_title
;
 Low temperature phase transition induced biaxial negative thermal
 expansion of 2,4-dinitroanisole
;
_journal_issue                   46
_journal_name_full               CrystEngComm
_journal_page_first              8888
_journal_paper_doi               10.1039/C5CE00029G
_journal_volume                  17
_journal_year                    2015
_chemical_formula_sum            'C7 H6 N2 O5'
_chemical_formula_weight         198.14
_chemical_name_systematic
;
 ?
;
_space_group_IT_number           14
_symmetry_cell_setting           monoclinic
_symmetry_Int_Tables_number      14
_symmetry_space_group_name_Hall  '-P 2yn'
_symmetry_space_group_name_H-M   'P 1 21/n 1'
_atom_sites_solution_hydrogens   geom
_atom_sites_solution_primary     direct
_atom_sites_solution_secondary   difmap
_audit_creation_method           SHELXL-97
_audit_update_record
;
2014-12-26 deposited with the CCDC.
2015-06-08 downloaded from the CCDC.
;
_cell_angle_alpha                90.00
_cell_angle_beta                 95.382(6)
_cell_angle_gamma                90.00
_cell_formula_units_Z            4
_cell_length_a                   3.8968(18)
_cell_length_b                   13.781(7)
_cell_length_c                   15.419(7)
_cell_measurement_reflns_used    2055
_cell_measurement_temperature    226(2)
_cell_measurement_theta_max      27.5
_cell_measurement_theta_min      3.0
_cell_volume                     824.4(7)
_computing_cell_refinement
;
CrystalClear-SM Expert 2.0 r4 (Rigaku/MSC, 2009)
;
_computing_data_collection
;
CrystalClear-SM Expert 2.0 r4 (Rigaku/MSC, 2009)
;
_computing_data_reduction
;
CrystalClear-SM Expert 2.0 r4 (Rigaku/MSC, 2009)
;
_computing_molecular_graphics
;
Yadokari-XG 2009 (Kabuto, 2009), ORTEP-3 (Farrugia, 1997) & Mercury (Macrae et
al., 2006)
;
_computing_publication_material
'PLATON (Speak, 2009) and publCIF (Westrip, 2010)'
_computing_structure_refinement  'SHELXL-97 (Sheldrick, 1997)'
_computing_structure_solution    'SIR97 (Altomare et al., 1999)'
_diffrn_ambient_temperature      226(2)
_diffrn_detector                 CCD
_diffrn_detector_area_resol_mean 28.5714
_diffrn_measured_fraction_theta_full 0.996
_diffrn_measured_fraction_theta_max 0.996
_diffrn_measurement_device
;
AFC11 (Right): Eulerian 3 circle
;
_diffrn_measurement_device_type
;
Rigaku Saturn724+
;
_diffrn_measurement_method       'profile data from \w-scans'
_diffrn_radiation_monochromator  'Graphite Monochromator'
_diffrn_radiation_source         'fine-focus sealed tube'
_diffrn_radiation_type           MoK\a
_diffrn_radiation_wavelength     0.71075
_diffrn_reflns_av_R_equivalents  0.0210
_diffrn_reflns_av_sigmaI/netI    0.0315
_diffrn_reflns_limit_h_max       5
_diffrn_reflns_limit_h_min       -4
_diffrn_reflns_limit_k_max       17
_diffrn_reflns_limit_k_min       -11
_diffrn_reflns_limit_l_max       19
_diffrn_reflns_limit_l_min       -19
_diffrn_reflns_number            4076
_diffrn_reflns_theta_full        27.48
_diffrn_reflns_theta_max         27.48
_diffrn_reflns_theta_min         3.04
_exptl_absorpt_coefficient_mu    0.139
_exptl_absorpt_correction_T_max  0.9728
_exptl_absorpt_correction_T_min  0.9728
_exptl_absorpt_correction_type   multi-scan
_exptl_absorpt_process_details
'CrystalClear (Rigaku Americas and Rigaku, 2009)'
_exptl_crystal_colour            'Pale yellow'
_exptl_crystal_density_diffrn    1.596
_exptl_crystal_density_method    'not measured'
_exptl_crystal_description       Platelet
_exptl_crystal_F_000             408
_exptl_crystal_size_max          0.38
_exptl_crystal_size_mid          0.35
_exptl_crystal_size_min          0.30
_refine_diff_density_max         0.278
_refine_diff_density_min         -0.287
_refine_diff_density_rms         0.042
_refine_ls_extinction_method     none
_refine_ls_goodness_of_fit_ref   1.083
_refine_ls_matrix_type           full
_refine_ls_number_parameters     151
_refine_ls_number_reflns         1863
_refine_ls_number_restraints     0
_refine_ls_restrained_S_all      1.083
_refine_ls_R_factor_all          0.0653
_refine_ls_R_factor_gt           0.0450
_refine_ls_shift/su_max          0.000
_refine_ls_shift/su_mean         0.000
_refine_ls_structure_factor_coef Fsqd
_refine_ls_weighting_details
'calc w=1/[\s^2^(Fo^2^)+(0.0745P)^2^+0.0000P] where P=(Fo^2^+2Fc^2^)/3'
_refine_ls_weighting_scheme      calc
_refine_ls_wR_factor_gt          0.1247
_refine_ls_wR_factor_ref         0.1396
_reflns_number_gt                1293
_reflns_number_total             1863
_reflns_threshold_expression     >2\s(I)
_cod_data_source_file            c5ce00029g2.cif
_cod_data_source_block           24dnan_226K
_cod_depositor_comments
;
The following automatic conversions were performed:

'_symmetry_cell_setting' value 'Monoclinic' changed to 'monoclinic'
according to
/usr/data/users/saulius/crontab/automatic-downloads/rss-feeds/RSC/lib/dictionaries/cif_core.dic
dictionary named 'cif_core.dic' version 2.4.2 from 2011-04-26.

Automatic conversion script
Id: cif_fix_values 3271 2015-04-21 07:52:19Z andrius 

 Adding full bibliography for 7220936--7220954.cif.
;
_cod_original_sg_symbol_H-M      'P 21/n'
_cod_database_code               7220941
loop_
_symmetry_equiv_pos_site_id
_symmetry_equiv_pos_as_xyz
1 x,y,z
2 1/2-x,1/2+y,1/2-z
3 -x,-y,-z
4 1/2+x,1/2-y,1/2+z
loop_
_atom_site_label
_atom_site_type_symbol
_atom_site_fract_x
_atom_site_fract_y
_atom_site_fract_z
_atom_site_U_iso_or_equiv
_atom_site_adp_type
_atom_site_occupancy
_atom_site_symmetry_multiplicity
_atom_site_calc_flag
C1 C 0.6041(4) 0.18437(12) 0.07367(10) 0.0346(4) Uani 1 1 d
C2 C 0.5202(4) 0.25792(12) 0.01217(9) 0.0336(4) Uani 1 1 d
C3 C 0.3893(4) 0.34620(13) 0.03505(10) 0.0361(4) Uani 1 1 d
H1 H 0.343(5) 0.3933(15) -0.0070(12) 0.046(5) Uiso 1 1 d
C4 C 0.3401(4) 0.36172(12) 0.12178(10) 0.0363(4) Uani 1 1 d
C5 C 0.4163(5) 0.29163(14) 0.18441(10) 0.0417(5) Uani 1 1 d
H2 H 0.382(5) 0.3050(13) 0.2456(12) 0.041(5) Uiso 1 1 d
C6 C 0.5468(5) 0.20363(14) 0.16041(10) 0.0404(4) Uani 1 1 d
H3 H 0.591(5) 0.1546(14) 0.2040(13) 0.054(6) Uiso 1 1 d
C7 C 0.8093(6) 0.02446(16) 0.10947(14) 0.0500(5) Uani 1 1 d
H6 H 0.968(7) 0.0459(16) 0.1559(15) 0.068(7) Uiso 1 1 d
H5 H 0.893(6) -0.0259(16) 0.0786(13) 0.058(6) Uiso 1 1 d
H4 H 0.613(7) 0.0041(15) 0.1367(14) 0.067(6) Uiso 1 1 d
N1 N 0.5666(4) 0.24480(11) -0.08083(8) 0.0433(4) Uani 1 1 d
N2 N 0.1982(4) 0.45480(12) 0.14610(9) 0.0479(4) Uani 1 1 d
O1 O 0.7273(3) 0.09987(9) 0.04696(7) 0.0444(4) Uani 1 1 d
O2 O 0.7702(5) 0.18491(12) -0.10112(9) 0.0804(6) Uani 1 1 d
O3 O 0.4063(5) 0.29641(13) -0.13281(8) 0.0848(6) Uani 1 1 d
O4 O 0.1630(5) 0.51874(12) 0.09167(10) 0.0808(6) Uani 1 1 d
O5 O 0.1204(5) 0.46496(12) 0.22023(9) 0.0741(5) Uani 1 1 d
loop_
_atom_site_aniso_label
_atom_site_aniso_U_11
_atom_site_aniso_U_22
_atom_site_aniso_U_33
_atom_site_aniso_U_23
_atom_site_aniso_U_13
_atom_site_aniso_U_12
C1 0.0331(9) 0.0411(9) 0.0300(8) -0.0015(7) 0.0053(6) -0.0008(7)
C2 0.0362(9) 0.0416(9) 0.0234(7) -0.0039(7) 0.0053(6) -0.0021(7)
C3 0.0414(10) 0.0401(9) 0.0265(7) -0.0017(7) 0.0020(6) 0.0010(7)
C4 0.0355(9) 0.0428(10) 0.0308(8) -0.0077(7) 0.0048(6) -0.0012(7)
C5 0.0468(11) 0.0551(11) 0.0240(7) -0.0029(7) 0.0079(7) -0.0014(8)
C6 0.0475(10) 0.0477(10) 0.0264(8) 0.0023(7) 0.0063(7) 0.0020(8)
C7 0.0572(13) 0.0480(11) 0.0460(10) 0.0098(9) 0.0113(10) 0.0135(10)
N1 0.0635(10) 0.0407(8) 0.0265(7) -0.0029(6) 0.0090(6) 0.0019(7)
N2 0.0519(10) 0.0524(9) 0.0394(8) -0.0136(7) 0.0047(7) 0.0057(8)
O1 0.0580(8) 0.0418(7) 0.0345(6) 0.0022(5) 0.0105(5) 0.0112(6)
O2 0.1361(16) 0.0693(10) 0.0423(7) 0.0073(7) 0.0433(9) 0.0391(11)
O3 0.1248(16) 0.1010(13) 0.0265(6) -0.0003(8) -0.0044(8) 0.0488(12)
O4 0.1286(16) 0.0590(10) 0.0554(9) -0.0031(8) 0.0110(9) 0.0370(10)
O5 0.1046(13) 0.0739(11) 0.0480(8) -0.0192(7) 0.0288(8) 0.0143(9)
loop_
_atom_type_symbol
_atom_type_description
_atom_type_scat_dispersion_real
_atom_type_scat_dispersion_imag
_atom_type_scat_source
C C 0.0033 0.0016 'International Tables Vol C Tables 4.2.6.8 and 6.1.1.4'
H H 0.0000 0.0000 'International Tables Vol C Tables 4.2.6.8 and 6.1.1.4'
N N 0.0061 0.0033 'International Tables Vol C Tables 4.2.6.8 and 6.1.1.4'
O O 0.0106 0.0060 'International Tables Vol C Tables 4.2.6.8 and 6.1.1.4'
loop_
_geom_angle_atom_site_label_1
_geom_angle_atom_site_label_2
_geom_angle_atom_site_label_3
_geom_angle
O1 C1 C6 123.49(15)
O1 C1 C2 119.15(13)
C6 C1 C2 117.35(15)
C3 C2 C1 122.16(13)
C3 C2 N1 116.09(14)
C1 C2 N1 121.75(14)
C2 C3 C4 118.13(16)
C2 C3 H1 119.6(11)
C4 C3 H1 122.2(11)
C5 C4 C3 121.88(16)
C5 C4 N2 119.84(13)
C3 C4 N2 118.27(15)
C4 C5 C6 119.26(14)
C4 C5 H2 120.1(11)
C6 C5 H2 120.6(11)
C5 C6 C1 121.22(16)
C5 C6 H3 118.6(11)
C1 C6 H3 120.1(11)
O1 C7 H6 111.8(14)
O1 C7 H5 105.5(12)
H6 C7 H5 113(2)
O1 C7 H4 112.0(14)
H6 C7 H4 104.6(19)
H5 C7 H4 110.2(18)
O3 N1 O2 123.05(14)
O3 N1 C2 118.21(14)
O2 N1 C2 118.70(15)
O4 N2 O5 122.86(16)
O4 N2 C4 118.72(13)
O5 N2 C4 118.42(16)
C1 O1 C7 119.18(13)
loop_
_geom_bond_atom_site_label_1
_geom_bond_atom_site_label_2
_geom_bond_distance
C1 O1 1.339(2)
C1 C6 1.402(2)
C1 C2 1.405(2)
C2 C3 1.378(2)
C2 N1 1.4733(19)
C3 C4 1.385(2)
C3 H1 0.92(2)
C4 C5 1.378(2)
C4 N2 1.460(2)
C5 C6 1.379(3)
C5 H2 0.982(18)
C6 H3 0.96(2)
C7 O1 1.433(2)
C7 H6 0.95(3)
C7 H5 0.92(2)
C7 H4 0.95(2)
N1 O3 1.202(2)
N1 O2 1.206(2)
N2 O4 1.216(2)
N2 O5 1.2179(18)
loop_
_geom_hbond_atom_site_label_D
_geom_hbond_atom_site_label_H
_geom_hbond_atom_site_label_A
_geom_hbond_distance_DH
_geom_hbond_distance_HA
_geom_hbond_distance_DA
_geom_hbond_angle_DHA
_geom_hbond_site_symmetry_A
_geom_hbond_publ_flag
C3 H1 O4 0.92(2) 2.57(2) 3.335(3) 141.3(16) 3_565 yes
C5 H2 O2 0.983(19) 2.447(19) 3.423(3) 172.1(15) 4_455 yes
C7 H4 O5 0.95(3) 2.52(2) 3.346(3) 145.3(19) 2_545 yes
C7 H5 O2 0.92(2) 2.56(2) 3.327(3) 141.1(17) 3_755 yes
loop_
_geom_torsion_atom_site_label_1
_geom_torsion_atom_site_label_2
_geom_torsion_atom_site_label_3
_geom_torsion_atom_site_label_4
_geom_torsion
O1 C1 C2 C3 179.39(15)
C6 C1 C2 C3 0.5(3)
O1 C1 C2 N1 -0.5(2)
C6 C1 C2 N1 -179.32(15)
C1 C2 C3 C4 0.0(3)
N1 C2 C3 C4 179.81(14)
C2 C3 C4 C5 -0.4(3)
C2 C3 C4 N2 -179.39(15)
C3 C4 C5 C6 0.3(3)
N2 C4 C5 C6 179.32(16)
C4 C5 C6 C1 0.2(3)
O1 C1 C6 C5 -179.39(16)
C2 C1 C6 C5 -0.6(3)
C3 C2 N1 O3 -20.5(2)
C1 C2 N1 O3 159.38(18)
C3 C2 N1 O2 157.47(17)
C1 C2 N1 O2 -22.7(3)
C5 C4 N2 O4 173.23(17)
C3 C4 N2 O4 -7.8(3)
C5 C4 N2 O5 -6.7(3)
C3 C4 N2 O5 172.28(16)
C6 C1 O1 C7 -0.5(3)
C2 C1 O1 C7 -179.31(16)
