#------------------------------------------------------------------------------
#$Date: 2015-08-08 04:08:58 +0300 (Sat, 08 Aug 2015) $
#$Revision: 153097 $
#$URL: svn://www.crystallography.net/cod/cif/7/22/08/7220869.cif $
#------------------------------------------------------------------------------
#
# This file is available in the Crystallography Open Database (COD),
# http://www.crystallography.net/
#
# All data on this site have been placed in the public domain by the
# contributors.
#
data_7220869
loop_
_publ_author_name
'Vande Velde, Christophe M. L.'
'Zeller, Matthias'
'Azov, Vladimir A.'
_publ_section_title
;
 Thermodynamic parameters of the pedal motion in the crystal structures of
 two bromomethylated azobenzenes
;
_journal_issue                   30
_journal_name_full               CrystEngComm
_journal_page_first              5751
_journal_paper_doi               10.1039/C5CE00905G
_journal_volume                  17
_journal_year                    2015
_chemical_formula_moiety         'C14 H12 Br2 N2'
_chemical_formula_sum            'C14 H12 Br2 N2'
_chemical_formula_weight         368.08
_chemical_melting_point          419.5(5)
_chemical_name_systematic
;
 (1E)-1,2-bis[3-(Bromomethyl)phenyl]-diazene
;
_space_group_crystal_system      monoclinic
_space_group_IT_number           14
_space_group_name_Hall           '-P 2ybc'
_space_group_name_H-M_alt        'P 1 21/c 1'
_symmetry_space_group_name_Hall  '-P 2ybc'
_symmetry_space_group_name_H-M   'P 1 21/c 1'
_atom_sites_solution_hydrogens   geom
_atom_sites_solution_primary     direct
_atom_sites_solution_secondary   difmap
_audit_creation_method           SHELXL-2013
_audit_update_record
;
2015-05-05 deposited with the CCDC.
2015-06-25 downloaded from the CCDC.
;
_cell_angle_alpha                90
_cell_angle_beta                 99.129(2)
_cell_angle_gamma                90
_cell_formula_units_Z            2
_cell_length_a                   14.051(2)
_cell_length_b                   4.4406(6)
_cell_length_c                   11.2041(16)
_cell_measurement_reflns_used    2240
_cell_measurement_temperature    270(2)
_cell_measurement_theta_max      28.65
_cell_measurement_theta_min      2.53
_cell_volume                     690.22(17)
_computing_structure_refinement  'SHELXL-2013 (Sheldrick, 2013)'
_diffrn_ambient_temperature      270(2)
_diffrn_measured_fraction_theta_full 0.995
_diffrn_measured_fraction_theta_max 0.936
_diffrn_measurement_device_type  'Bruker Smart 1000 area detector'
_diffrn_measurement_method       \w-scans
_diffrn_radiation_monochromator  graphite
_diffrn_radiation_source         'fine-focus sealed tube'
_diffrn_radiation_type           MoK\a
_diffrn_radiation_wavelength     0.71073
_diffrn_reflns_av_R_equivalents  0.0313
_diffrn_reflns_av_unetI/netI     0.0328
_diffrn_reflns_laue_measured_fraction_full 0.995
_diffrn_reflns_laue_measured_fraction_max 0.936
_diffrn_reflns_limit_h_max       20
_diffrn_reflns_limit_h_min       -20
_diffrn_reflns_limit_k_max       6
_diffrn_reflns_limit_k_min       -6
_diffrn_reflns_limit_l_max       16
_diffrn_reflns_limit_l_min       -16
_diffrn_reflns_number            7672
_diffrn_reflns_point_group_measured_fraction_full 0.995
_diffrn_reflns_point_group_measured_fraction_max 0.936
_diffrn_reflns_theta_full        28.000
_diffrn_reflns_theta_max         31.671
_diffrn_reflns_theta_min         2.937
_exptl_absorpt_coefficient_mu    5.855
_exptl_absorpt_correction_T_max  0.7463
_exptl_absorpt_correction_T_min  0.4237
_exptl_absorpt_correction_type   multi-scan
_exptl_absorpt_process_details   'Bruker SADABS 2008-1'
_exptl_crystal_colour            orange
_exptl_crystal_density_diffrn    1.771
_exptl_crystal_density_meas      ?
_exptl_crystal_description       plate
_exptl_crystal_F_000             360
_exptl_crystal_size_max          0.550
_exptl_crystal_size_mid          0.520
_exptl_crystal_size_min          0.470
_refine_diff_density_max         0.406
_refine_diff_density_min         -0.345
_refine_diff_density_rms         0.067
_refine_ls_extinction_coef       0.032(3)
_refine_ls_extinction_expression Fc^*^=kFc[1+0.001xFc^2^\l^3^/sin(2\q)]^-1/4^
_refine_ls_extinction_method     SHELXL
_refine_ls_goodness_of_fit_ref   1.023
_refine_ls_hydrogen_treatment    constr
_refine_ls_matrix_type           full
_refine_ls_number_parameters     111
_refine_ls_number_reflns         2197
_refine_ls_number_restraints     21
_refine_ls_restrained_S_all      1.033
_refine_ls_R_factor_all          0.0540
_refine_ls_R_factor_gt           0.0312
_refine_ls_shift/su_max          0.001
_refine_ls_shift/su_mean         0.000
_refine_ls_structure_factor_coef Fsqd
_refine_ls_weighting_details
;
 w=1/[\s^2^(Fo^2^)+(0.0382P)^2^+0.1364P]
 where P=(Fo^2^+2Fc^2^)/3
;
_refine_ls_weighting_scheme      calc
_refine_ls_wR_factor_gt          0.0722
_refine_ls_wR_factor_ref         0.0797
_reflns_Friedel_coverage         0.000
_reflns_number_gt                1541
_reflns_number_total             2197
_reflns_threshold_expression     'I > 2\s(I)'
_cod_data_source_file            c5ce00905g3.cif
_cod_data_source_block           12mz125_0m
_cod_depositor_comments
;
The following automatic conversions were performed:

'_chemical_melting_point' value '419-420K' was changed to '419.5(5)'
- the average value was taken and precision was estimated.

'_exptl_crystal_density_meas' value 'not measured' was changed to '?'
- the value is perceived as not measured.

Automatic conversion script
Id: cif_fix_values 3271 2015-04-21 07:52:19Z andrius 

 Adding full bibliography for 7220863--7220879.cif.
;
_cod_original_cell_volume        690.24(17)
_cod_database_code               7220869
_shelx_space_group_comment
;
The symmetry employed for this shelxl refinement is uniquely defined
by the following loop, which should always be used as a source of
symmetry information in preference to the above space-group names.
They are only intended as comments.
;
_shelx_estimated_absorpt_t_min   0.141
_shelx_estimated_absorpt_t_max   0.169
_shelxl_version_number           2013-2
_shelx_res_file
;
TITL 12mz125_0m in P2(1)/c
CELL 0.71073  14.0513   4.4406  11.2041  90.000  99.129  90.000
ZERR    2.00   0.0020   0.0006   0.0016   0.000   0.002   0.000
LATT  1
SYMM -X, 0.5+Y, 0.5-Z
SFAC C H N BR
UNIT 28 24 4 4
LIST 4
TEMP -3.5
SIZE 0.47 0.52 0.55

L.S. 14
BOND $H
ACTA 56
CONF
FMAP 2
PLAN 20
EADP C1 C1B
EADP C2 C2B
EADP C3 C3B
EADP C4 C4B
EADP C5 C5B
EADP C6 C6B
EADP C7 C7B
EADP N1 N1B
EADP Br1 Br1B
SADI N1 N1_$1 N1B N1B_$1
EQIV $1 -x, 1-y, -z

WGHT    0.038200    0.136400
EXTI    0.032133
FVAR       0.30254   0.74099
PART 1
BR1   4    0.424631    0.575405    0.137454    21.00000    0.05267    0.04990 =
         0.04206   -0.00619   -0.00992   -0.00416
C1    1    0.345651    0.812929    0.007579    21.00000    0.04371    0.03749 =
         0.04583    0.00573    0.00167   -0.00620
AFIX  23
H1A   2    0.320153    0.989984    0.042181    21.00000   -1.20000
H1B   2    0.385637    0.879256   -0.050441    21.00000   -1.20000
AFIX   0
C2    1    0.263959    0.623995   -0.055204    21.00000    0.03900    0.03122 =
         0.03303    0.00857    0.00183   -0.00268
C3    1    0.276608    0.463130   -0.158172    21.00000    0.04199    0.04374 =
         0.03671    0.00571    0.00526    0.00230
AFIX  43
H3    2    0.335974    0.465923   -0.184895    21.00000   -1.20000
AFIX   0
C4    1    0.200605    0.298145   -0.221204    21.00000    0.05864    0.04992 =
         0.02933   -0.00428    0.00350   -0.00215
AFIX  43
H4    2    0.209140    0.190582   -0.289939    21.00000   -1.20000
AFIX   0
C5    1    0.111681    0.294501   -0.181080    21.00000    0.04014    0.04478 =
         0.02902   -0.00345   -0.00469   -0.00199
AFIX  43
H5    2    0.060787    0.182990   -0.222275    21.00000   -1.20000
AFIX   0
C6    1    0.099701    0.459017   -0.078926    21.00000    0.03662    0.03433 =
         0.02685    0.00257   -0.00298    0.00167
C7    1    0.175069    0.625285   -0.017191    21.00000    0.03520    0.03256 =
         0.02999   -0.00072   -0.00396   -0.00619
AFIX  43
H7    2    0.165926    0.738119    0.049996    21.00000   -1.20000
AFIX   0
N1    3    0.004174    0.438913   -0.048135    21.00000    0.04712    0.04982 =
         0.03658   -0.00455   -0.00189    0.00196
PART 2
SAME 0.001 Br1 > N1
BR1B  4    0.433424    0.619507    0.137538   -21.00000    0.05267    0.04990 =
         0.04206   -0.00619   -0.00992   -0.00416
C1B   1    0.376932    0.791665   -0.021702   -21.00000    0.04371    0.03749 =
         0.04583    0.00573    0.00167   -0.00620
AFIX  23
H1BA  2    0.368782    1.007348   -0.014044   -21.00000   -1.20000
H1BB  2    0.420213    0.756900   -0.079673   -21.00000   -1.20000
AFIX   0
C2B   1    0.280950    0.647794   -0.065960   -21.00000    0.03900    0.03122 =
         0.03303    0.00857    0.00183   -0.00268
C3B   1    0.272528    0.448776   -0.163078   -21.00000    0.04199    0.04374 =
         0.03671    0.00571    0.00526    0.00230
AFIX  43
H3B   2    0.325003    0.414575   -0.202479   -21.00000   -1.20000
AFIX   0
C4B   1    0.185693    0.300897   -0.201302   -21.00000    0.05864    0.04992 =
         0.02933   -0.00428    0.00350   -0.00215
AFIX  43
H4B   2    0.179984    0.168999   -0.266524   -21.00000   -1.20000
AFIX   0
C5B   1    0.107304    0.350899   -0.141623   -21.00000    0.04014    0.04478 =
         0.02902   -0.00345   -0.00469   -0.00199
AFIX  43
H5B   2    0.048006    0.262020   -0.169476   -21.00000   -1.20000
AFIX   0
C6B   1    0.118740    0.535030   -0.040045   -21.00000    0.03662    0.03433 =
         0.02685    0.00257   -0.00298    0.00167
C7B   1    0.205324    0.679722   -0.001703   -21.00000    0.03520    0.03256 =
         0.02999   -0.00072   -0.00396   -0.00619
AFIX  43
H7B   2    0.212690    0.798746    0.067448   -21.00000   -1.20000
AFIX   0
N1B   3    0.035251    0.551369    0.019450   -21.00000    0.04712    0.04982 =
         0.03658   -0.00455   -0.00189    0.00196
HKLF 4

REM  12mz125_0m in P2(1)/c
REM R1 =  0.0312 for    1541 Fo > 4sig(Fo)  and  0.0540 for all    2197 data
REM    111 parameters refined using     21 restraints

END

WGHT      0.0382      0.1364

REM Highest difference peak  0.406,  deepest hole -0.345,  1-sigma level  0.067
Q1    1   0.0544  0.5893  0.0353  11.00000  0.05    0.41
Q2    1   0.4309  0.9601 -0.0547  11.00000  0.05    0.32
Q3    1   0.3649  0.5844  0.1198  11.00000  0.05    0.32
Q4    1   0.2247  0.4160 -0.2076  11.00000  0.05    0.31
Q5    1   0.4959  0.5821  0.1552  11.00000  0.05    0.31
Q6    1   0.3770  1.0056  0.0187  11.00000  0.05    0.30
Q7    1   0.0854  0.5130 -0.0409  11.00000  0.05    0.30
Q8    1   0.1018  0.5680 -0.0690  11.00000  0.05    0.28
Q9    1   0.3804  0.7624  0.0186  11.00000  0.05    0.27
Q10   1   0.1325  0.5889 -0.0629  11.00000  0.05    0.26
Q11   1   0.3037  0.7120 -0.0198  11.00000  0.05    0.23
Q12   1   0.4205  0.7516  0.1046  11.00000  0.05    0.22
Q13   1   0.1162  0.4298 -0.0284  11.00000  0.05    0.21
Q14   1   0.3392  0.7723  0.0562  11.00000  0.05    0.21
Q15   1   0.0761  0.3374 -0.1749  11.00000  0.05    0.19
Q16   1   0.5136  0.7408  0.2197  11.00000  0.05    0.19
Q17   1   0.1550  0.4982 -0.0476  11.00000  0.05    0.19
Q18   1   0.2737  0.5891 -0.0978  11.00000  0.05    0.18
Q19   1   0.5062  0.7628  0.1432  11.00000  0.05    0.18
Q20   1   0.3494  0.3743 -0.0250  11.00000  0.05    0.18
;
_shelx_res_checksum              87818
loop_
_space_group_symop_operation_xyz
'x, y, z'
'-x, y+1/2, -z+1/2'
'-x, -y, -z'
'x, -y-1/2, z-1/2'
loop_
_atom_site_label
_atom_site_type_symbol
_atom_site_fract_x
_atom_site_fract_y
_atom_site_fract_z
_atom_site_U_iso_or_equiv
_atom_site_adp_type
_atom_site_occupancy
_atom_site_site_symmetry_order
_atom_site_calc_flag
_atom_site_refinement_flags_posn
_atom_site_refinement_flags_adp
_atom_site_refinement_flags_occupancy
_atom_site_disorder_assembly
_atom_site_disorder_group
Br1 Br 0.42463(16) 0.5754(4) 0.13745(19) 0.0501(2) Uani 0.741(4) 1 d D . P A 1
C1 C 0.3457(2) 0.8129(7) 0.0076(3) 0.0429(8) Uani 0.741(4) 1 d D . P A 1
H1A H 0.3202 0.9900 0.0422 0.052 Uiso 0.741(4) 1 calc R U P A 1
H1B H 0.3856 0.8793 -0.0504 0.052 Uiso 0.741(4) 1 calc R U P A 1
C2 C 0.26396(19) 0.6240(8) -0.0552(3) 0.0348(5) Uani 0.741(4) 1 d D . P A 1
C3 C 0.2766(3) 0.463(2) -0.1582(7) 0.0409(5) Uani 0.741(4) 1 d D . P A 1
H3 H 0.3360 0.4659 -0.1849 0.049 Uiso 0.741(4) 1 calc R U P A 1
C4 C 0.2006(3) 0.2981(16) -0.2212(5) 0.0463(7) Uani 0.741(4) 1 d D . P A 1
H4 H 0.2091 0.1906 -0.2899 0.056 Uiso 0.741(4) 1 calc R U P A 1
C5 C 0.1117(2) 0.2945(8) -0.1811(3) 0.0391(7) Uani 0.741(4) 1 d D . P A 1
H5 H 0.0608 0.1830 -0.2223 0.047 Uiso 0.741(4) 1 calc R U P A 1
C6 C 0.09970(19) 0.4590(7) -0.0789(3) 0.0335(6) Uani 0.741(4) 1 d D . P A 1
C7 C 0.1751(2) 0.6253(7) -0.0172(3) 0.0336(6) Uani 0.741(4) 1 d D . P A 1
H7 H 0.1659 0.7381 0.0500 0.040 Uiso 0.741(4) 1 calc R U P A 1
N1 N 0.00417(19) 0.4389(7) -0.0481(2) 0.0454(7) Uani 0.741(4) 1 d D . P A 1
Br1B Br 0.4334(5) 0.6195(13) 0.1375(6) 0.0501(2) Uani 0.259(4) 1 d D . P A 2
C1B C 0.3769(5) 0.792(2) -0.0217(7) 0.0429(8) Uani 0.259(4) 1 d D . P A 2
H1BA H 0.3688 1.0073 -0.0140 0.052 Uiso 0.259(4) 1 calc R U P A 2
H1BB H 0.4202 0.7569 -0.0797 0.052 Uiso 0.259(4) 1 calc R U P A 2
C2B C 0.2809(4) 0.648(2) -0.0660(6) 0.0348(5) Uani 0.259(4) 1 d D . P A 2
C3B C 0.2725(8) 0.449(6) -0.1631(18) 0.0409(5) Uani 0.259(4) 1 d D . P A 2
H3B H 0.3250 0.4146 -0.2025 0.049 Uiso 0.259(4) 1 calc R U P A 2
C4B C 0.1857(8) 0.301(5) -0.2013(16) 0.0463(7) Uani 0.259(4) 1 d D . P A 2
H4B H 0.1800 0.1690 -0.2665 0.056 Uiso 0.259(4) 1 calc R U P A 2
C5B C 0.1073(5) 0.351(2) -0.1416(8) 0.0391(7) Uani 0.259(4) 1 d D . P A 2
H5B H 0.0480 0.2620 -0.1695 0.047 Uiso 0.259(4) 1 calc R U P A 2
C6B C 0.1187(4) 0.5350(18) -0.0400(6) 0.0335(6) Uani 0.259(4) 1 d D . P A 2
C7B C 0.2053(5) 0.680(2) -0.0017(7) 0.0336(6) Uani 0.259(4) 1 d D . P A 2
H7B H 0.2127 0.7987 0.0674 0.040 Uiso 0.259(4) 1 calc R U P A 2
N1B N 0.0353(4) 0.551(2) 0.0195(7) 0.0454(7) Uani 0.259(4) 1 d D . P A 2
loop_
_atom_site_aniso_label
_atom_site_aniso_U_11
_atom_site_aniso_U_22
_atom_site_aniso_U_33
_atom_site_aniso_U_23
_atom_site_aniso_U_13
_atom_site_aniso_U_12
Br1 0.0527(5) 0.0499(6) 0.04206(16) -0.0062(3) -0.0099(2) -0.0042(4)
C1 0.0437(18) 0.0375(13) 0.0458(18) 0.0057(12) 0.0017(13) -0.0062(14)
C2 0.0390(13) 0.0312(11) 0.0330(11) 0.0086(9) 0.0018(9) -0.0027(10)
C3 0.0420(12) 0.0437(15) 0.0367(12) 0.0057(9) 0.0053(10) 0.0023(10)
C4 0.0586(19) 0.0499(13) 0.029(2) -0.0043(16) 0.0035(12) -0.0021(17)
C5 0.0401(13) 0.0448(18) 0.0290(19) -0.0034(14) -0.0047(12) -0.0020(12)
C6 0.0366(14) 0.0343(16) 0.0268(16) 0.0026(12) -0.0030(11) 0.0017(11)
C7 0.0352(17) 0.0326(15) 0.0300(12) -0.0007(9) -0.0040(12) -0.0062(13)
N1 0.0471(18) 0.0498(14) 0.0366(14) -0.0045(11) -0.0019(11) 0.0020(15)
Br1B 0.0527(5) 0.0499(6) 0.04206(16) -0.0062(3) -0.0099(2) -0.0042(4)
C1B 0.0437(18) 0.0375(13) 0.0458(18) 0.0057(12) 0.0017(13) -0.0062(14)
C2B 0.0390(13) 0.0312(11) 0.0330(11) 0.0086(9) 0.0018(9) -0.0027(10)
C3B 0.0420(12) 0.0437(15) 0.0367(12) 0.0057(9) 0.0053(10) 0.0023(10)
C4B 0.0586(19) 0.0499(13) 0.029(2) -0.0043(16) 0.0035(12) -0.0021(17)
C5B 0.0401(13) 0.0448(18) 0.0290(19) -0.0034(14) -0.0047(12) -0.0020(12)
C6B 0.0366(14) 0.0343(16) 0.0268(16) 0.0026(12) -0.0030(11) 0.0017(11)
C7B 0.0352(17) 0.0326(15) 0.0300(12) -0.0007(9) -0.0040(12) -0.0062(13)
N1B 0.0471(18) 0.0498(14) 0.0366(14) -0.0045(11) -0.0019(11) 0.0020(15)
loop_
_atom_type_symbol
_atom_type_description
_atom_type_scat_dispersion_real
_atom_type_scat_dispersion_imag
_atom_type_scat_source
C C 0.0033 0.0016 'International Tables Vol C Tables 4.2.6.8 and 6.1.1.4'
H H 0.0000 0.0000 'International Tables Vol C Tables 4.2.6.8 and 6.1.1.4'
N N 0.0061 0.0033 'International Tables Vol C Tables 4.2.6.8 and 6.1.1.4'
Br Br -0.2901 2.4595 'International Tables Vol C Tables 4.2.6.8 and 6.1.1.4'
loop_
_geom_angle_atom_site_label_1
_geom_angle_atom_site_label_2
_geom_angle_atom_site_label_3
_geom_angle
_geom_angle_site_symmetry_1
C2 C1 Br1 110.04(17) .
C2 C1 H1A 109.7 .
Br1 C1 H1A 109.7 .
C2 C1 H1B 109.7 .
Br1 C1 H1B 109.7 .
H1A C1 H1B 108.2 .
C7 C2 C3 119.9(2) .
C7 C2 C1 120.9(2) .
C3 C2 C1 119.1(2) .
C4 C3 C2 120.1(2) .
C4 C3 H3 119.9 .
C2 C3 H3 119.9 .
C3 C4 C5 119.8(2) .
C3 C4 H4 120.1 .
C5 C4 H4 120.1 .
C6 C5 C4 119.4(2) .
C6 C5 H5 120.3 .
C4 C5 H5 120.3 .
C7 C6 C5 120.6(2) .
C7 C6 N1 125.6(3) .
C5 C6 N1 113.8(3) .
C2 C7 C6 120.1(2) .
C2 C7 H7 120.0 .
C6 C7 H7 120.0 .
N1 N1 C6 113.9(3) 3_565
C2B C1B Br1B 110.0(2) .
C2B C1B H1BA 109.7 .
Br1B C1B H1BA 109.7 .
C2B C1B H1BB 109.7 .
Br1B C1B H1BB 109.7 .
H1BA C1B H1BB 108.2 .
C7B C2B C3B 119.7(3) .
C7B C2B C1B 120.5(3) .
C3B C2B C1B 119.2(3) .
C4B C3B C2B 120.1(2) .
C4B C3B H3B 119.9 .
C2B C3B H3B 119.9 .
C3B C4B C5B 119.9(3) .
C3B C4B H4B 120.1 .
C5B C4B H4B 120.1 .
C6B C5B C4B 119.3(3) .
C6B C5B H5B 120.4 .
C4B C5B H5B 120.4 .
C7B C6B C5B 120.6(2) .
C7B C6B N1B 125.0(3) .
C5B C6B N1B 114.3(3) .
C2B C7B C6B 120.1(3) .
C2B C7B H7B 119.9 .
C6B C7B H7B 119.9 .
N1B N1B C6B 122.5(7) 3_565
loop_
_geom_bond_atom_site_label_1
_geom_bond_atom_site_label_2
_geom_bond_distance
_geom_bond_site_symmetry_2
Br1 C1 1.987(3) .
C1 C2 1.503(3) .
C1 H1A 0.9700 .
C1 H1B 0.9700 .
C2 C7 1.382(3) .
C2 C3 1.392(3) .
C3 C4 1.392(3) .
C3 H3 0.9300 .
C4 C5 1.394(4) .
C4 H4 0.9300 .
C5 C6 1.390(4) .
C5 H5 0.9300 .
C6 C7 1.383(4) .
C6 N1 1.441(4) .
C7 H7 0.9300 .
N1 N1 1.230(5) 3_565
Br1B C1B 1.987(3) .
C1B C2B 1.504(4) .
C1B H1BA 0.9700 .
C1B H1BB 0.9700 .
C2B C7B 1.382(4) .
C2B C3B 1.392(3) .
C3B C4B 1.392(4) .
C3B H3B 0.9300 .
C4B C5B 1.394(4) .
C4B H4B 0.9300 .
C5B C6B 1.390(4) .
C5B H5B 0.9300 .
C6B C7B 1.383(4) .
C6B N1B 1.440(4) .
C7B H7B 0.9300 .
N1B N1B 1.115(11) 3_565
loop_
_geom_torsion_atom_site_label_1
_geom_torsion_atom_site_label_2
_geom_torsion_atom_site_label_3
_geom_torsion_atom_site_label_4
_geom_torsion
_geom_torsion_site_symmetry_4
Br1 C1 C2 C7 92.0(3) .
Br1 C1 C2 C3 -92.7(6) .
C7 C2 C3 C4 -1.5(12) .
C1 C2 C3 C4 -176.9(7) .
C2 C3 C4 C5 0.1(14) .
C3 C4 C5 C6 0.7(10) .
C4 C5 C6 C7 0.0(6) .
C4 C5 C6 N1 179.3(5) .
C3 C2 C7 C6 2.2(7) .
C1 C2 C7 C6 177.5(3) .
C5 C6 C7 C2 -1.4(5) .
N1 C6 C7 C2 179.4(3) .
C7 C6 N1 N1 -7.1(5) 3_565
C5 C6 N1 N1 173.7(4) 3_565
Br1B C1B C2B C7B 62.7(9) .
Br1B C1B C2B C3B -108.7(17) .
C7B C2B C3B C4B 5(3) .
C1B C2B C3B C4B 177(2) .
C2B C3B C4B C5B 0(4) .
C3B C4B C5B C6B -4(3) .
C4B C5B C6B C7B 3(2) .
C4B C5B C6B N1B -175.4(15) .
C3B C2B C7B C6B -6(2) .
C1B C2B C7B C6B -177.0(8) .
C5B C6B C7B C2B 1.5(17) .
N1B C6B C7B C2B 179.9(9) .
C7B C6B N1B N1B 174.1(14) 3_565
C5B C6B N1B N1B -7.4(19) 3_565
