#------------------------------------------------------------------------------
#$Date: 2016-02-13 14:50:18 +0200 (Sat, 13 Feb 2016) $
#$Revision: 176428 $
#$URL: svn://www.crystallography.net/cod/cif/7/22/03/7220314.cif $
#------------------------------------------------------------------------------
#
# This file is available in the Crystallography Open Database (COD),
# http://www.crystallography.net/
#
# All data on this site have been placed in the public domain by the
# contributors.
#
data_7220314
loop_
_publ_author_name
'Frizzo, Clarissa P.'
'Tier, Aniele Z.'
'Gindri, Izabelle M.'
'Meyer, Alexandre R.'
'Black, Gabrielle'
'Belladona, Andrei L.'
'Martins, Marcos A. P.'
_publ_section_title
;
 Thermodynamic, energetic, and topological properties of crystal packing
 of pyrazolo[1,5-a]pyrimidines governed by weak electrostatic
 intermolecular interactions
;
_journal_issue                   23
_journal_name_full               CrystEngComm
_journal_page_first              4325
_journal_paper_doi               10.1039/C5CE00613A
_journal_volume                  17
_journal_year                    2015
_chemical_formula_moiety         'C15 H12 F3 N3'
_chemical_formula_sum            'C15 H12 F3 N3'
_chemical_formula_weight         291.28
_chemical_melting_point          ?
_chemical_name_common            pyrazolo[1,5-a]pyrimidine
_chemical_name_systematic
;
2-methyl-5-p-tolyl-7-(trifluoromethyl)pyrazolo[1,5-a]pyrimidine
;
_space_group_IT_number           2
_symmetry_cell_setting           triclinic
_symmetry_space_group_name_Hall  '-P 1'
_symmetry_space_group_name_H-M   'P -1'
_atom_sites_solution_hydrogens   geom
_atom_sites_solution_primary     direct
_atom_sites_solution_secondary   difmap
_audit_conform_dict_location     ftp://ftp.iucr.org/pub/cif_core.dic
_audit_conform_dict_name         cif_core.dic
_audit_conform_dict_version      2.4
_audit_creation_date             2015-03-25T06:20:01-00:00
_audit_creation_method           'WinGX routine CIF_UPDATE'
_audit_update_record
;
2015-03-25 deposited with the CCDC.
2015-05-01 downloaded from the CCDC.
;
_cell_angle_alpha                110.225(3)
_cell_angle_beta                 96.808(3)
_cell_angle_gamma                99.835(3)
_cell_formula_units_Z            2
_cell_length_a                   4.8715(2)
_cell_length_b                   11.2655(5)
_cell_length_c                   13.5584(6)
_cell_measurement_reflns_used    3097
_cell_measurement_temperature    293(2)
_cell_measurement_theta_max      24.602
_cell_measurement_theta_min      2.999
_cell_volume                     675.13(5)
_computing_cell_refinement       'BRUKER SAINT'
_computing_data_collection       'BRUKER APEX-II'
_computing_data_reduction        'BRUKER SOFTWARE'
_computing_molecular_graphics    'ORTEP-3 (Farrugia, 2000)'
_computing_publication_material  'SHELXL-97 (Shekdrick, 1997)'
_computing_structure_refinement  'SHELXL-97 (Sheldrick, 1997)'
_computing_structure_solution    'SHELX97 (Sheldrick, 1997)'
_diffrn_ambient_temperature      293(2)
_diffrn_detector_area_resol_mean none
_diffrn_measured_fraction_theta_full 0.987
_diffrn_measured_fraction_theta_max 0.987
_diffrn_measurement_device_type  'X8 APEX II'
_diffrn_measurement_method       'phi and omega scans'
_diffrn_radiation_monochromator  graphite
_diffrn_radiation_type           MoK\a
_diffrn_radiation_wavelength     0.71073
_diffrn_reflns_av_R_equivalents  0.0395
_diffrn_reflns_av_unetI/netI     0.0331
_diffrn_reflns_limit_h_max       6
_diffrn_reflns_limit_h_min       -6
_diffrn_reflns_limit_k_max       15
_diffrn_reflns_limit_k_min       -15
_diffrn_reflns_limit_l_max       18
_diffrn_reflns_limit_l_min       -18
_diffrn_reflns_number            16787
_diffrn_reflns_theta_full        29.66
_diffrn_reflns_theta_max         29.66
_diffrn_reflns_theta_min         1.63
_diffrn_standards_decay_%        none
_diffrn_standards_interval_count none
_diffrn_standards_interval_time  none
_diffrn_standards_number         none
_exptl_absorpt_coefficient_mu    0.117
_exptl_absorpt_correction_T_max  1
_exptl_absorpt_correction_T_min  0.895
_exptl_absorpt_correction_type   gaussian
_exptl_absorpt_process_details   XPREP
_exptl_crystal_colour            yellow
_exptl_crystal_density_diffrn    1.433
_exptl_crystal_density_meas      ?
_exptl_crystal_density_method    'not measured'
_exptl_crystal_description       block
_exptl_crystal_F_000             300
_exptl_crystal_size_max          0.98
_exptl_crystal_size_mid          0.212
_exptl_crystal_size_min          0.197
_refine_diff_density_max         0.317
_refine_diff_density_min         -0.216
_refine_diff_density_rms         0.071
_refine_ls_extinction_coef       none
_refine_ls_extinction_method     none
_refine_ls_goodness_of_fit_ref   1.056
_refine_ls_hydrogen_treatment    constr
_refine_ls_matrix_type           full
_refine_ls_number_parameters     192
_refine_ls_number_reflns         3757
_refine_ls_number_restraints     0
_refine_ls_restrained_S_all      1.056
_refine_ls_R_factor_all          0.0959
_refine_ls_R_factor_gt           0.0595
_refine_ls_shift/su_max          2.723
_refine_ls_shift/su_mean         0.071
_refine_ls_structure_factor_coef Fsqd
_refine_ls_weighting_details
'calc w=1/[\s^2^(Fo^2^)+(0.1373P)^2^+0.0000P] where P=(Fo^2^+2Fc^2^)/3'
_refine_ls_weighting_scheme      calc
_refine_ls_wR_factor_gt          0.1859
_refine_ls_wR_factor_ref         0.2282
_reflns_number_gt                2200
_reflns_number_total             3757
_reflns_threshold_expression     >2\s(I)
_cod_data_source_file            c5ce00613a2.cif
_cod_data_source_block           p-1
_cod_depositor_comments
;
The following automatic conversions were performed:

'_chemical_melting_point' value 'NONE' was changed to '?' - the value
is undefined or not given.

'_exptl_crystal_density_meas' value 'none' was changed to '?' - the
value is perceived as not measured.

Automatic conversion script
Id: cif_fix_values 3271 2015-04-21 07:52:19Z andrius 

 Adding full bibliography for 7220304--7220315.cif.
;
_cod_original_sg_symbol_Hall     -P1
_cod_original_sg_symbol_H-M      p-1
_cod_database_code               7220314
loop_
_symmetry_equiv_pos_as_xyz
'x, y, z'
'-x, -y, -z'
loop_
_atom_site_label
_atom_site_type_symbol
_atom_site_fract_x
_atom_site_fract_y
_atom_site_fract_z
_atom_site_U_iso_or_equiv
_atom_site_adp_type
_atom_site_occupancy
_atom_site_symmetry_multiplicity
_atom_site_calc_flag
_atom_site_refinement_flags
N4 N -0.1394(3) 0.64066(13) 0.15770(10) 0.0450(4) Uani 1 1 d .
C51 C 0.2300(3) 0.60519(16) 0.27096(13) 0.0445(4) Uani 1 1 d .
C5 C 0.0594(3) 0.69036(15) 0.24464(12) 0.0439(4) Uani 1 1 d .
N8 N -0.2414(3) 0.85107(14) 0.19702(11) 0.0489(4) Uani 1 1 d .
C3A C -0.2916(3) 0.71924(16) 0.13247(13) 0.0455(4) Uani 1 1 d .
C7 C -0.0385(4) 0.90320(17) 0.28742(15) 0.0529(4) Uani 1 1 d .
N1 N -0.4126(3) 0.91420(15) 0.15725(13) 0.0574(4) Uani 1 1 d .
C6 C 0.1128(4) 0.82474(17) 0.31325(14) 0.0513(4) Uani 1 1 d .
H6 H 0.2513 0.8577 0.3753 0.062 Uiso 1 1 calc R
C56 C 0.2275(4) 0.48482(18) 0.19512(14) 0.0539(5) Uani 1 1 d .
H56 H 0.1161 0.4574 0.1272 0.065 Uiso 1 1 calc R
C55 C 0.3881(4) 0.40513(18) 0.21905(15) 0.0584(5) Uani 1 1 d .
H55 H 0.3812 0.3246 0.1669 0.07 Uiso 1 1 calc R
C52 C 0.4029(4) 0.64262(19) 0.37086(15) 0.0598(5) Uani 1 1 d .
H52 H 0.4098 0.723 0.4233 0.072 Uiso 1 1 calc R
C54 C 0.5592(4) 0.44188(19) 0.31866(15) 0.0552(5) Uani 1 1 d .
C3 C -0.5080(4) 0.69987(18) 0.04974(14) 0.0528(4) Uani 1 1 d .
H3 H -0.5939 0.622 -0.0068 0.063 Uiso 1 1 calc R
C2 C -0.5725(4) 0.81987(18) 0.06755(15) 0.0534(5) Uani 1 1 d .
C53 C 0.5644(4) 0.5626(2) 0.39351(16) 0.0643(5) Uani 1 1 d .
H53 H 0.6795 0.5906 0.4608 0.077 Uiso 1 1 calc R
C8 C 0.7333(5) 0.3539(2) 0.34296(18) 0.0713(6) Uani 1 1 d .
H8A H 0.7037 0.2755 0.2809 0.107 Uiso 1 1 calc R
H8B H 0.6769 0.3328 0.4015 0.107 Uiso 1 1 calc R
H8C H 0.9306 0.397 0.362 0.107 Uiso 1 1 calc R
C71 C 0.0064(5) 1.0447(2) 0.3533(2) 0.0726(6) Uani 1 1 d .
C21 C -0.7881(4) 0.8562(2) 0.00177(17) 0.0704(6) Uani 1 1 d .
H21A H -0.7829 0.9471 0.0353 0.106 Uiso 1 1 calc R
H21B H -0.9738 0.8064 -0.0036 0.106 Uiso 1 1 calc R
H21C H -0.7458 0.8385 -0.0686 0.106 Uiso 1 1 calc R
F3 F -0.2262(3) 1.07477(12) 0.38784(11) 0.0909(5) Uani 1 1 d .
F1 F 0.2074(3) 1.07987(12) 0.43936(12) 0.1024(6) Uani 1 1 d .
F2 F 0.0852(3) 1.11908(12) 0.29937(14) 0.1019(5) Uani 1 1 d .
loop_
_atom_site_aniso_label
_atom_site_aniso_U_11
_atom_site_aniso_U_22
_atom_site_aniso_U_33
_atom_site_aniso_U_23
_atom_site_aniso_U_13
_atom_site_aniso_U_12
N4 0.0456(8) 0.0439(8) 0.0466(7) 0.0180(6) 0.0059(6) 0.0124(6)
C51 0.0437(9) 0.0448(9) 0.0461(9) 0.0182(7) 0.0063(6) 0.0118(7)
C5 0.0442(9) 0.0414(9) 0.0459(9) 0.0161(7) 0.0081(6) 0.0103(6)
N8 0.0462(8) 0.0443(8) 0.0571(8) 0.0203(6) 0.0052(6) 0.0135(6)
C3A 0.0460(9) 0.0439(9) 0.0489(9) 0.0196(7) 0.0084(7) 0.0116(7)
C7 0.0488(10) 0.0410(9) 0.0619(11) 0.0124(8) 0.0045(8) 0.0108(7)
N1 0.0520(9) 0.0548(10) 0.0737(10) 0.0325(8) 0.0072(7) 0.0193(7)
C6 0.0483(10) 0.0437(9) 0.0534(10) 0.0113(7) -0.0014(7) 0.0108(7)
C56 0.0594(11) 0.0486(10) 0.0524(10) 0.0174(8) 0.0022(8) 0.0184(8)
C55 0.0641(12) 0.0521(11) 0.0628(11) 0.0205(9) 0.0109(9) 0.0260(9)
C52 0.0667(12) 0.0512(11) 0.0544(10) 0.0136(8) -0.0027(8) 0.0182(8)
C54 0.0484(10) 0.0631(11) 0.0666(11) 0.0352(9) 0.0128(8) 0.0204(8)
C3 0.0508(10) 0.0527(10) 0.0539(9) 0.0219(8) 0.0021(7) 0.0111(7)
C2 0.0466(9) 0.0581(11) 0.0630(11) 0.0315(9) 0.0083(8) 0.0136(8)
C53 0.0666(12) 0.0649(13) 0.0591(11) 0.0238(10) -0.0063(9) 0.0207(9)
C8 0.0674(13) 0.0792(14) 0.0857(14) 0.0443(12) 0.0153(11) 0.0358(10)
C71 0.0630(13) 0.0458(11) 0.0933(16) 0.0109(11) -0.0037(11) 0.0171(9)
C21 0.0589(12) 0.0780(15) 0.0846(14) 0.0450(12) 0.0009(10) 0.0201(10)
F3 0.0842(10) 0.0664(8) 0.1030(10) 0.0020(7) 0.0124(7) 0.0348(7)
F1 0.0922(11) 0.0557(8) 0.1113(11) -0.0128(7) -0.0302(9) 0.0202(7)
F2 0.0984(11) 0.0481(8) 0.1552(14) 0.0384(8) 0.0154(10) 0.0117(7)
loop_
_atom_type_symbol
_atom_type_description
_atom_type_scat_dispersion_real
_atom_type_scat_dispersion_imag
_atom_type_scat_source
C C 0.0033 0.0016 'International Tables Vol C Tables 4.2.6.8 and 6.1.1.4'
H H 0 0 'International Tables Vol C Tables 4.2.6.8 and 6.1.1.4'
N N 0.0061 0.0033 'International Tables Vol C Tables 4.2.6.8 and 6.1.1.4'
F F 0.0171 0.0103 'International Tables Vol C Tables 4.2.6.8 and 6.1.1.4'
loop_
_geom_angle_atom_site_label_1
_geom_angle_atom_site_label_2
_geom_angle_atom_site_label_3
_geom_angle
C5 N4 C3A 118.71(14)
C56 C51 C52 117.45(16)
C56 C51 C5 120.62(15)
C52 C51 C5 121.92(15)
N4 C5 C6 121.31(15)
N4 C5 C51 118.73(14)
C6 C5 C51 119.96(15)
C7 N8 N1 127.00(15)
C7 N8 C3A 120.59(14)
N1 N8 C3A 112.41(14)
N4 C3A C3 133.60(16)
N4 C3A N8 121.24(15)
C3 C3A N8 105.16(14)
C6 C7 N8 118.34(16)
C6 C7 C71 123.33(17)
N8 C7 C71 118.34(16)
C2 N1 N8 103.37(14)
C7 C6 C5 119.80(16)
C7 C6 H6 120.1
C5 C6 H6 120.1
C55 C56 C51 120.88(17)
C55 C56 H56 119.6
C51 C56 H56 119.6
C56 C55 C54 121.77(17)
C56 C55 H55 119.1
C54 C55 H55 119.1
C53 C52 C51 121.14(17)
C53 C52 H52 119.4
C51 C52 H52 119.4
C53 C54 C55 117.21(16)
C53 C54 C8 121.85(18)
C55 C54 C8 120.94(18)
C3A C3 C2 106.09(15)
C3A C3 H3 127
C2 C3 H3 127
N1 C2 C3 112.96(15)
N1 C2 C21 117.85(17)
C3 C2 C21 129.19(17)
C52 C53 C54 121.54(17)
C52 C53 H53 119.2
C54 C53 H53 119.2
C54 C8 H8A 109.5
C54 C8 H8B 109.5
H8A C8 H8B 109.5
C54 C8 H8C 109.5
H8A C8 H8C 109.5
H8B C8 H8C 109.5
F1 C71 F2 107.10(17)
F1 C71 F3 106.78(19)
F2 C71 F3 107.23(18)
F1 C71 C7 110.93(17)
F2 C71 C7 112.3(2)
F3 C71 C7 112.23(18)
C2 C21 H21A 109.5
C2 C21 H21B 109.5
H21A C21 H21B 109.5
C2 C21 H21C 109.5
H21A C21 H21C 109.5
H21B C21 H21C 109.5
loop_
_geom_bond_atom_site_label_1
_geom_bond_atom_site_label_2
_geom_bond_distance
N4 C5 1.315(2)
N4 C3A 1.350(2)
C51 C56 1.387(2)
C51 C52 1.391(2)
C51 C5 1.476(2)
C5 C6 1.435(2)
N8 C7 1.357(2)
N8 N1 1.3611(19)
N8 C3A 1.399(2)
C3A C3 1.375(2)
C7 C6 1.350(2)
C7 C71 1.496(3)
N1 C2 1.347(2)
C6 H6 0.93
C56 C55 1.380(2)
C56 H56 0.93
C55 C54 1.385(3)
C55 H55 0.93
C52 C53 1.379(3)
C52 H52 0.93
C54 C53 1.381(3)
C54 C8 1.503(3)
C3 C2 1.386(3)
C3 H3 0.93
C2 C21 1.498(3)
C53 H53 0.93
C8 H8A 0.96
C8 H8B 0.96
C8 H8C 0.96
C71 F1 1.324(2)
C71 F2 1.329(3)
C71 F3 1.328(3)
C21 H21A 0.96
C21 H21B 0.96
C21 H21C 0.96
loop_
_geom_torsion_atom_site_label_1
_geom_torsion_atom_site_label_2
_geom_torsion_atom_site_label_3
_geom_torsion_atom_site_label_4
_geom_torsion
N4 C51 C5 C56 -14.4(2)
N4 C51 C5 C52 166.94(16)
