#------------------------------------------------------------------------------
#$Date: 2016-03-26 23:11:40 +0200 (Sat, 26 Mar 2016) $
#$Revision: 180531 $
#$URL: svn://www.crystallography.net/cod/cif/7/22/00/7220007.cif $
#------------------------------------------------------------------------------
#
# This file is available in the Crystallography Open Database (COD),
# http://www.crystallography.net/
#
# All data on this site have been placed in the public domain by the
# contributors.
#
data_7220007
loop_
_publ_author_name
'Carletta, A.'
'Dubois, J.'
'Tilborg, A.'
'Wouters, J.'
_publ_section_title
;
 Solid-state investigation on a new dimorphic substituted N-salicylidene
 compound: insights into its thermochromic behaviour
;
_journal_issue                   18
_journal_name_full               CrystEngComm
_journal_page_first              3509
_journal_paper_doi               10.1039/C5CE00283D
_journal_volume                  17
_journal_year                    2015
_chemical_formula_moiety         'C14 H12 N2 O4'
_chemical_formula_sum            'C14 H12 N2 O4'
_chemical_formula_weight         272.26
_chemical_name_systematic
(E)-2-methoxy-6-{[(3-nitrophenyl)imino]methyl}phenol
_space_group_IT_number           2
_symmetry_cell_setting           triclinic
_symmetry_space_group_name_Hall  '-P 1'
_symmetry_space_group_name_H-M   'P -1'
_atom_sites_solution_hydrogens   geom
_atom_sites_solution_primary     direct
_atom_sites_solution_secondary   difmap
_audit_creation_method           SHELXL-97
_audit_update_record
;
2015-01-18 deposited with the CCDC.
2015-03-26 downloaded from the CCDC.
;
_cell_angle_alpha                93.472(7)
_cell_angle_beta                 100.357(6)
_cell_angle_gamma                94.022(6)
_cell_formula_units_Z            2
_cell_length_a                   4.7895(3)
_cell_length_b                   11.3446(10)
_cell_length_c                   12.0610(9)
_cell_measurement_reflns_used    1645
_cell_measurement_temperature    293(2)
_cell_measurement_theta_max      67.0770
_cell_measurement_theta_min      3.7480
_cell_volume                     641.28(9)
_computing_cell_refinement
;
CrysAlisPro, Agilent Technologies,
Version 1.171.36.28 (release 01-02-2013 CrysAlis171 .NET)
(compiled Feb  1 2013,16:14:44)
;
_computing_data_collection
;
CrysAlisPro, Agilent Technologies,
Version 1.171.36.28 (release 01-02-2013 CrysAlis171 .NET)
(compiled Feb  1 2013,16:14:44)
;
_computing_data_reduction
;
CrysAlisPro, Agilent Technologies,
Version 1.171.36.28 (release 01-02-2013 CrysAlis171 .NET)
(compiled Feb  1 2013,16:14:44)
;
_computing_structure_refinement  'SHELXL-97 (Sheldrick, 1997)'
_computing_structure_solution    Shelxs
_diffrn_ambient_temperature      293(2)
_diffrn_detector_area_resol_mean 5.1856
_diffrn_measured_fraction_theta_full 0.986
_diffrn_measured_fraction_theta_max 0.986
_diffrn_measurement_device_type  'Xcalibur, Ruby, Gemini ultra'
_diffrn_measurement_method       '\w scans'
_diffrn_radiation_monochromator  mirror
_diffrn_radiation_source         'fine-focus sealed tube'
_diffrn_radiation_type           CuK\a
_diffrn_radiation_wavelength     1.54184
_diffrn_reflns_av_R_equivalents  0.0217
_diffrn_reflns_av_sigmaI/netI    0.0263
_diffrn_reflns_limit_h_max       2
_diffrn_reflns_limit_h_min       -5
_diffrn_reflns_limit_k_max       13
_diffrn_reflns_limit_k_min       -13
_diffrn_reflns_limit_l_max       14
_diffrn_reflns_limit_l_min       -14
_diffrn_reflns_number            3990
_diffrn_reflns_theta_full        66.60
_diffrn_reflns_theta_max         66.60
_diffrn_reflns_theta_min         3.74
_exptl_absorpt_coefficient_mu    0.882
_exptl_absorpt_correction_T_max  0.9656
_exptl_absorpt_correction_T_min  0.6668
_exptl_absorpt_correction_type   multi-scan
_exptl_absorpt_process_details
;
CrysAlisPro, Agilent Technologies,
Version 1.171.36.28 (release 01-02-2013 CrysAlis171 .NET)
(compiled Feb  1 2013,16:14:44)
Empirical absorption correction using spherical harmonics,
 implemented in SCALE3 ABSPACK scaling algorithm.
;
_exptl_crystal_colour            yellow
_exptl_crystal_density_diffrn    1.410
_exptl_crystal_density_method    'not measured'
_exptl_crystal_description       needle
_exptl_crystal_F_000             284
_exptl_crystal_recrystallization_method 'Re-crystallisation from solvent: '
_exptl_crystal_size_max          0.50
_exptl_crystal_size_mid          0.05
_exptl_crystal_size_min          0.04
_refine_diff_density_max         0.117
_refine_diff_density_min         -0.162
_refine_diff_density_rms         0.033
_refine_ls_extinction_method     none
_refine_ls_goodness_of_fit_ref   1.064
_refine_ls_hydrogen_treatment    mixed
_refine_ls_matrix_type           full
_refine_ls_number_parameters     186
_refine_ls_number_reflns         2242
_refine_ls_number_restraints     0
_refine_ls_restrained_S_all      1.064
_refine_ls_R_factor_all          0.0480
_refine_ls_R_factor_gt           0.0414
_refine_ls_shift/su_max          0.000
_refine_ls_shift/su_mean         0.000
_refine_ls_structure_factor_coef Fsqd
_refine_ls_weighting_details
'calc w=1/[\s^2^(Fo^2^)+(0.0706P)^2^+0.0244P] where P=(Fo^2^+2Fc^2^)/3'
_refine_ls_weighting_scheme      calc
_refine_ls_wR_factor_gt          0.1195
_refine_ls_wR_factor_ref         0.1270
_reflns_number_gt                1863
_reflns_number_total             2242
_reflns_threshold_expression     >2sigma(I)
_iucr_refine_instructions_details
;
TITL bn_P3VAN-Nitro-Cu in P-1
CELL  1.54184   4.7895  11.3446  12.0610   93.472  100.357   94.022
ZERR     2.00   0.0003   0.0010   0.0009    0.007    0.006    0.006
LATT   1
SFAC  C        2.31000 20.84392  1.02000 10.20751   1.58860   0.56870 =
         0.86500  51.65125   0.21560   0.018   0.009    89.900   0.770  12.011
SFAC  H        0.49300 10.51091  0.32291 26.12573   0.14019   3.14236 =
         0.04081  57.79977   0.00304   0.000   0.000     0.660   0.320   1.008
SFAC  N       12.21261  0.00570  3.13220  9.89331   2.01250  28.99754 =
         1.16630   0.58260 -11.52901   0.031   0.018   173.000   0.700  14.007
SFAC  O        3.04850 13.27711  2.28680  5.70111   1.54630   0.32390 =
         0.86700  32.90894   0.25080   0.049   0.032   304.000   0.660  15.999
UNIT  28   24   4    8
MERG   2
SHEL 99 0.84
FMAP   2
PLAN   10
SIZE     0.04   0.05   0.50
ACTA
HTAB    2.00000
BOND   $H
CONF
L.S.  10
TEMP    20.00
WGHT    0.070600    0.024400
FVAR      10.90940
C1    1    0.688623    1.213120    0.828151    11.00000    0.06894    0.06361 =
         0.07230    0.00041    0.00863   -0.00841
AFIX  43
H1    2    0.812291    1.281360    0.836642    11.00000   -1.20000
AFIX   0
C2    1    0.655361    1.135841    0.732890    11.00000    0.05660    0.06369 =
         0.05849    0.00759    0.00848    0.00247
C3    1    0.474885    1.033908    0.716220    11.00000    0.05759    0.05974 =
         0.05836    0.00109    0.00964    0.00255
AFIX  43
H3    2    0.457778    0.983985    0.650872    11.00000   -1.20000
AFIX   0
C4    1    0.318740    1.007400    0.799493    11.00000    0.05497    0.05881 =
         0.06118    0.00438    0.00853    0.00255
C5    1    0.351640    1.084302    0.896160    11.00000    0.06671    0.07066 =
         0.05906    0.00216    0.01369   -0.00022
AFIX  43
H5    2    0.249102    1.066692    0.952468    11.00000   -1.20000
AFIX   0
C6    1    0.533422    1.186184    0.910122    11.00000    0.07822    0.07164 =
         0.06264   -0.00671    0.01007   -0.00317
AFIX  43
H6    2    0.551026    1.236733    0.975084    11.00000   -1.20000
AFIX   0
C7    1   -0.003887    0.856843    0.696858    11.00000    0.06244    0.06167 =
         0.06363    0.00572    0.01528    0.00328
AFIX  43
H7    2    0.043639    0.884626    0.631119    11.00000   -1.20000
AFIX   0
C8    1   -0.219486    0.759310    0.687693    11.00000    0.06103    0.05855 =
         0.06310   -0.00140    0.01196    0.00433
C9    1   -0.366739    0.714145    0.580476    11.00000    0.08256    0.07601 =
         0.06373    0.00303    0.00594   -0.00115
AFIX  43
H9    2   -0.318888    0.744775    0.515938    11.00000   -1.20000
AFIX   0
C10   1   -0.580162    0.625336    0.570527    11.00000    0.08868    0.08079 =
         0.07096   -0.00497   -0.00416   -0.00634
AFIX  43
H10   2   -0.677676    0.596369    0.499258    11.00000   -1.20000
AFIX   0
C11   1   -0.652071    0.578193    0.666151    11.00000    0.07075    0.06508 =
         0.08590   -0.00510    0.00403   -0.00794
AFIX  43
H11   2   -0.796707    0.517497    0.658485    11.00000   -1.20000
AFIX   0
C12   1   -0.510960    0.620588    0.772204    11.00000    0.06674    0.06213 =
         0.07322   -0.00151    0.01540   -0.00272
C13   1   -0.294636    0.712564    0.784003    11.00000    0.06071    0.06183 =
         0.06231   -0.00494    0.01324   -0.00051
C14   1   -0.778970    0.486313    0.866282    11.00000    0.08583    0.07970 =
         0.10971    0.01131    0.02404   -0.02143
AFIX 137
H14A  2   -0.959317    0.511582    0.831749    11.00000   -1.50000
H14B  2   -0.788469    0.464538    0.941281    11.00000   -1.50000
H14C  2   -0.734545    0.419260    0.822152    11.00000   -1.50000
AFIX   0
N1    3    0.124025    0.906341    0.792524    11.00000    0.06097    0.06157 =
         0.06370    0.00152    0.01399   -0.00276
N2    3    0.824939    1.162845    0.645930    11.00000    0.06697    0.07478 =
         0.06416    0.01201    0.01073   -0.00431
O1    4    0.809229    1.090422    0.565245    11.00000    0.09869    0.09228 =
         0.06858    0.00140    0.02881   -0.00664
O2    4    0.977113    1.254871    0.658223    11.00000    0.10341    0.09484 =
         0.08599    0.00999    0.02464   -0.03392
O3    4   -0.163036    0.752391    0.889383    11.00000    0.08958    0.08998 =
         0.06012   -0.00723    0.01834   -0.02964
O4    4   -0.563340    0.580559    0.871717    11.00000    0.09682    0.08927 =
         0.08077   -0.00135    0.02609   -0.03352
H3O   2   -0.036393    0.811073    0.880458    11.00000    0.10987
HKLF    4
 
REM  bn_P3VAN-Nitro-Cu in P-1
REM R1 =  0.0414 for   1863 Fo > 4sig(Fo)  and  0.0480 for all   2242 data
REM    186 parameters refined using      0 restraints
 
END
 
WGHT      0.0701      0.0256
REM Highest difference peak  0.117,  deepest hole -0.162,  1-sigma level  0.033
Q1    1   0.6691  1.1328  0.5542  11.00000  0.05    0.12
Q2    1  -0.3638  0.6328  0.5794  11.00000  0.05    0.11
Q3    1  -0.4957  0.7041  0.7781  11.00000  0.05    0.10
Q4    1  -0.9933  0.5330  0.7566  11.00000  0.05    0.10
Q5    1  -0.5903  0.6842  0.9150  11.00000  0.05    0.10
Q6    1   0.7193  1.1525  0.7965  11.00000  0.05    0.09
Q7    1  -0.1674  0.7161  0.5002  11.00000  0.05    0.09
Q8    1  -0.7050  0.6476  0.8355  11.00000  0.05    0.09
Q9    1   0.6522  1.0204  0.5491  11.00000  0.05    0.09
Q10   1  -0.2016  0.8200  0.6976  11.00000  0.05    0.09
;
_cod_data_source_file            c5ce00283d2.cif
_cod_data_source_block           shelxl
_cod_depositor_comments
'Adding full bibliography for 7220006--7220008.cif.'
_cod_original_cell_volume        641.28(8)
_cod_original_sg_symbol_H-M      P-1
_cod_database_code               7220007
loop_
_symmetry_equiv_pos_as_xyz
'x, y, z'
'-x, -y, -z'
loop_
_atom_site_label
_atom_site_type_symbol
_atom_site_fract_x
_atom_site_fract_y
_atom_site_fract_z
_atom_site_U_iso_or_equiv
_atom_site_adp_type
_atom_site_occupancy
_atom_site_symmetry_multiplicity
_atom_site_calc_flag
_atom_site_refinement_flags
C1 C 0.6886(3) 1.21312(15) 0.82815(14) 0.0697(4) Uani 1 1 d .
H1 H 0.8123 1.2814 0.8366 0.084 Uiso 1 1 calc R
C2 C 0.6554(3) 1.13584(13) 0.73289(12) 0.0599(4) Uani 1 1 d .
C3 C 0.4749(3) 1.03391(13) 0.71622(13) 0.0589(4) Uani 1 1 d .
H3 H 0.4578 0.9840 0.6509 0.071 Uiso 1 1 calc R
C4 C 0.3187(3) 1.00740(13) 0.79949(13) 0.0587(4) Uani 1 1 d .
C5 C 0.3516(3) 1.08430(14) 0.89616(13) 0.0656(4) Uani 1 1 d .
H5 H 0.2491 1.0667 0.9525 0.079 Uiso 1 1 calc R
C6 C 0.5334(4) 1.18618(16) 0.91012(15) 0.0721(4) Uani 1 1 d .
H6 H 0.5510 1.2367 0.9751 0.087 Uiso 1 1 calc R
C7 C -0.0039(3) 0.85684(14) 0.69686(13) 0.0622(4) Uani 1 1 d .
H7 H 0.0436 0.8846 0.6311 0.075 Uiso 1 1 calc R
C8 C -0.2195(3) 0.75931(13) 0.68769(13) 0.0611(4) Uani 1 1 d .
C9 C -0.3667(4) 0.71415(16) 0.58048(15) 0.0755(5) Uani 1 1 d .
H9 H -0.3189 0.7448 0.5159 0.091 Uiso 1 1 calc R
C10 C -0.5802(4) 0.62534(17) 0.57053(16) 0.0836(5) Uani 1 1 d .
H10 H -0.6777 0.5964 0.4993 0.100 Uiso 1 1 calc R
C11 C -0.6521(4) 0.57819(16) 0.66615(16) 0.0763(5) Uani 1 1 d .
H11 H -0.7967 0.5175 0.6585 0.092 Uiso 1 1 calc R
C12 C -0.5110(3) 0.62059(14) 0.77220(15) 0.0677(4) Uani 1 1 d .
C13 C -0.2946(3) 0.71256(14) 0.78400(13) 0.0620(4) Uani 1 1 d .
C14 C -0.7790(4) 0.48631(19) 0.8663(2) 0.0922(6) Uani 1 1 d .
H14A H -0.9593 0.5116 0.8317 0.138 Uiso 1 1 calc R
H14B H -0.7885 0.4645 0.9413 0.138 Uiso 1 1 calc R
H14C H -0.7345 0.4193 0.8222 0.138 Uiso 1 1 calc R
N1 N 0.1240(3) 0.90634(11) 0.79252(11) 0.0623(3) Uani 1 1 d .
N2 N 0.8249(3) 1.16284(13) 0.64593(12) 0.0690(4) Uani 1 1 d .
O1 O 0.8092(3) 1.09042(12) 0.56525(11) 0.0857(4) Uani 1 1 d .
O2 O 0.9771(3) 1.25487(13) 0.65822(12) 0.0957(4) Uani 1 1 d .
O3 O -0.1630(3) 0.75239(12) 0.88938(10) 0.0816(4) Uani 1 1 d .
O4 O -0.5633(3) 0.58056(12) 0.87172(11) 0.0900(4) Uani 1 1 d .
H3O H -0.036(5) 0.811(2) 0.880(2) 0.110(7) Uiso 1 1 d .
loop_
_atom_site_aniso_label
_atom_site_aniso_U_11
_atom_site_aniso_U_22
_atom_site_aniso_U_33
_atom_site_aniso_U_23
_atom_site_aniso_U_13
_atom_site_aniso_U_12
C1 0.0689(8) 0.0636(9) 0.0723(10) 0.0004(7) 0.0086(7) -0.0084(7)
C2 0.0566(7) 0.0637(8) 0.0585(8) 0.0076(6) 0.0085(6) 0.0025(6)
C3 0.0576(7) 0.0597(8) 0.0584(8) 0.0011(6) 0.0096(6) 0.0025(6)
C4 0.0550(7) 0.0588(8) 0.0612(8) 0.0044(6) 0.0085(6) 0.0026(6)
C5 0.0667(8) 0.0707(10) 0.0591(8) 0.0022(7) 0.0137(6) -0.0002(7)
C6 0.0782(9) 0.0716(10) 0.0626(9) -0.0067(7) 0.0101(7) -0.0032(8)
C7 0.0624(8) 0.0617(8) 0.0636(9) 0.0057(7) 0.0153(6) 0.0033(6)
C8 0.0610(8) 0.0585(8) 0.0631(8) -0.0014(6) 0.0120(6) 0.0043(6)
C9 0.0826(10) 0.0760(10) 0.0637(10) 0.0030(8) 0.0059(8) -0.0011(8)
C10 0.0887(11) 0.0808(11) 0.0710(11) -0.0050(9) -0.0042(8) -0.0063(9)
C11 0.0707(9) 0.0651(9) 0.0859(12) -0.0051(8) 0.0040(8) -0.0079(7)
C12 0.0667(8) 0.0621(9) 0.0732(10) -0.0015(7) 0.0154(7) -0.0027(7)
C13 0.0607(8) 0.0618(8) 0.0623(8) -0.0049(7) 0.0132(6) -0.0005(6)
C14 0.0858(12) 0.0797(12) 0.1097(15) 0.0113(11) 0.0240(10) -0.0214(9)
N1 0.0610(7) 0.0616(7) 0.0637(7) 0.0015(6) 0.0140(5) -0.0028(5)
N2 0.0670(7) 0.0748(9) 0.0642(8) 0.0120(7) 0.0107(6) -0.0043(6)
O1 0.0987(9) 0.0923(9) 0.0686(8) 0.0014(7) 0.0288(6) -0.0066(7)
O2 0.1034(9) 0.0948(10) 0.0860(9) 0.0100(7) 0.0246(7) -0.0339(8)
O3 0.0896(8) 0.0900(9) 0.0601(7) -0.0072(6) 0.0183(5) -0.0296(7)
O4 0.0968(8) 0.0893(9) 0.0808(8) -0.0013(6) 0.0261(6) -0.0335(7)
loop_
_atom_type_symbol
_atom_type_description
_atom_type_scat_dispersion_real
_atom_type_scat_dispersion_imag
_atom_type_scat_source
C C 0.0180 0.0090 'International Tables Vol C Tables 4.2.6.8 and 6.1.1.4'
H H 0.0000 0.0000 'International Tables Vol C Tables 4.2.6.8 and 6.1.1.4'
N N 0.0310 0.0180 'International Tables Vol C Tables 4.2.6.8 and 6.1.1.4'
O O 0.0490 0.0320 'International Tables Vol C Tables 4.2.6.8 and 6.1.1.4'
loop_
_geom_angle_atom_site_label_1
_geom_angle_atom_site_label_2
_geom_angle_atom_site_label_3
_geom_angle
C6 C1 C2 118.03(15)
C6 C1 H1 121.0
C2 C1 H1 121.0
C3 C2 C1 123.22(14)
C3 C2 N2 118.45(13)
C1 C2 N2 118.33(14)
C2 C3 C4 118.36(14)
C2 C3 H3 120.8
C4 C3 H3 120.8
C3 C4 C5 118.94(14)
C3 C4 N1 124.11(13)
C5 C4 N1 116.95(13)
C6 C5 C4 121.31(15)
C6 C5 H5 119.3
C4 C5 H5 119.3
C1 C6 C5 120.14(15)
C1 C6 H6 119.9
C5 C6 H6 119.9
N1 C7 C8 122.19(14)
N1 C7 H7 118.9
C8 C7 H7 118.9
C13 C8 C9 119.15(14)
C13 C8 C7 121.18(14)
C9 C8 C7 119.59(15)
C10 C9 C8 120.33(16)
C10 C9 H9 119.8
C8 C9 H9 119.8
C9 C10 C11 120.40(16)
C9 C10 H10 119.8
C11 C10 H10 119.8
C12 C11 C10 120.49(16)
C12 C11 H11 119.8
C10 C11 H11 119.8
O4 C12 C11 125.40(15)
O4 C12 C13 114.74(14)
C11 C12 C13 119.86(16)
O3 C13 C8 122.15(14)
O3 C13 C12 118.10(14)
C8 C13 C12 119.75(14)
O4 C14 H14A 109.5
O4 C14 H14B 109.5
H14A C14 H14B 109.5
O4 C14 H14C 109.5
H14A C14 H14C 109.5
H14B C14 H14C 109.5
C7 N1 C4 121.26(13)
O2 N2 O1 123.04(14)
O2 N2 C2 118.75(14)
O1 N2 C2 118.20(13)
C13 O3 H3O 105.5(16)
C12 O4 C14 117.89(15)
loop_
_geom_bond_atom_site_label_1
_geom_bond_atom_site_label_2
_geom_bond_distance
C1 C6 1.376(2)
C1 C2 1.381(2)
C1 H1 0.9300
C2 C3 1.376(2)
C2 N2 1.471(2)
C3 C4 1.391(2)
C3 H3 0.9300
C4 C5 1.392(2)
C4 N1 1.4147(19)
C5 C6 1.380(2)
C5 H5 0.9300
C6 H6 0.9300
C7 N1 1.281(2)
C7 C8 1.445(2)
C7 H7 0.9300
C8 C13 1.399(2)
C8 C9 1.405(2)
C9 C10 1.368(3)
C9 H9 0.9300
C10 C11 1.388(3)
C10 H10 0.9300
C11 C12 1.376(3)
C11 H11 0.9300
C12 O4 1.367(2)
C12 C13 1.400(2)
C13 O3 1.349(2)
C14 O4 1.423(2)
C14 H14A 0.9600
C14 H14B 0.9600
C14 H14C 0.9600
N2 O2 1.2161(18)
N2 O1 1.2230(19)
O3 H3O 0.89(3)
loop_
_geom_torsion_atom_site_label_1
_geom_torsion_atom_site_label_2
_geom_torsion_atom_site_label_3
_geom_torsion_atom_site_label_4
_geom_torsion
C6 C1 C2 C3 0.1(2)
C6 C1 C2 N2 -178.79(14)
C1 C2 C3 C4 -0.1(2)
N2 C2 C3 C4 178.82(13)
C2 C3 C4 C5 -0.3(2)
C2 C3 C4 N1 179.36(13)
C3 C4 C5 C6 0.6(2)
N1 C4 C5 C6 -179.05(14)
C2 C1 C6 C5 0.2(3)
C4 C5 C6 C1 -0.6(3)
N1 C7 C8 C13 -1.3(2)
N1 C7 C8 C9 175.48(15)
C13 C8 C9 C10 -0.2(3)
C7 C8 C9 C10 -177.10(16)
C8 C9 C10 C11 -0.5(3)
C9 C10 C11 C12 0.4(3)
C10 C11 C12 O4 -179.75(17)
C10 C11 C12 C13 0.5(3)
C9 C8 C13 O3 -179.60(15)
C7 C8 C13 O3 -2.8(2)
C9 C8 C13 C12 1.1(2)
C7 C8 C13 C12 177.92(13)
O4 C12 C13 O3 -0.4(2)
C11 C12 C13 O3 179.43(16)
O4 C12 C13 C8 178.99(14)
C11 C12 C13 C8 -1.2(2)
C8 C7 N1 C4 -175.14(13)
C3 C4 N1 C7 -26.9(2)
C5 C4 N1 C7 152.69(15)
C3 C2 N2 O2 177.40(14)
C1 C2 N2 O2 -3.6(2)
C3 C2 N2 O1 -3.7(2)
C1 C2 N2 O1 175.26(14)
C11 C12 O4 C14 0.8(3)
C13 C12 O4 C14 -179.45(16)
