#------------------------------------------------------------------------------
#$Date: 2015-06-24 09:29:43 +0300 (Wed, 24 Jun 2015) $
#$Revision: 139540 $
#$URL: svn://www.crystallography.net/cod/cif/7/22/08/7220841.cif $
#------------------------------------------------------------------------------
#
# This file is available in the Crystallography Open Database (COD),
# http://www.crystallography.net/
#
# All data on this site have been placed in the public domain by the
# contributors.
#
data_7220841
loop_
_publ_author_name
'Chauhan, Ashok Kumar Singh'
'Singh, Bandana'
'Srivastava, Ramesh Chandra'
'Duthie, Andrew'
'Butcher, Ray Jay'
_publ_section_title
;
 Hydrotelluration of acetylenic Esters: Structural Characterization of
 Stereoisomers of Methyl/ethyl (\b-aryltelluro)acrylates
;
_journal_name_full               'RSC Adv.'
_journal_paper_doi               10.1039/C5RA07854G
_journal_year                    2015
_chemical_absolute_configuration ad
_chemical_formula_moiety         'C12 H15 N O2 Te'
_chemical_formula_sum            'C12 H15 N O2 Te'
_chemical_formula_weight         332.85
_chemical_melting_point          372.5(5)
_chemical_name_common
'(Z)-((4-(N,N-dimethyl)phenyl)(2-methoxycarbonylvinyl)telluride '
_chemical_name_systematic
'(Z)-Methyl 2-(4'-(N,N-dimethyl)phenyltelluro)acrylate'
_space_group_crystal_system      monoclinic
_space_group_IT_number           7
_space_group_name_Hall           'P -2yac'
_space_group_name_H-M_alt        'P 1 n 1'
_symmetry_space_group_name_Hall  'P -2yac'
_symmetry_space_group_name_H-M   'P 1 n 1'
_atom_sites_solution_hydrogens   geom
_audit_creation_method           SHELXL-2014
_audit_update_record
;
2015-04-22 deposited with the CCDC.
2015-06-16 downloaded from the CCDC.
;
_cell_angle_alpha                90
_cell_angle_beta                 103.239(5)
_cell_angle_gamma                90
_cell_formula_units_Z            2
_cell_length_a                   7.969(5)
_cell_length_b                   5.535(5)
_cell_length_c                   14.965(5)
_cell_measurement_reflns_used    3728
_cell_measurement_temperature    100(2)
_cell_measurement_theta_max      41.2259
_cell_measurement_theta_min      2.6205
_cell_volume                     642.5(7)
_computing_cell_refinement
;
CrysAlisPro, Agilent Technologies,
Version 1.171.35.19 (release 27-10-2011 CrysAlis171 .NET)
(compiled Oct 27 2011,15:02:11)
;
_computing_data_collection
;
CrysAlisPro, Agilent Technologies,
Version 1.171.35.19 (release 27-10-2011 CrysAlis171 .NET)
(compiled Oct 27 2011,15:02:11)
;
_computing_data_reduction
;
CrysAlisPro, Agilent Technologies,
Version 1.171.35.19 (release 27-10-2011 CrysAlis171 .NET)
(compiled Oct 27 2011,15:02:11)
;
_computing_molecular_graphics    'SHELXTL (Sheldrick, 2008)'
_computing_publication_material  'SHELXTL (Sheldrick, 2008)'
_computing_structure_refinement  'SHELXL-2014 (Sheldrick, 2008)'
_computing_structure_solution    'Sir92 (Altomare et al. 1993)'
_diffrn_ambient_temperature      100(2)
_diffrn_detector_area_resol_mean 10.6501
_diffrn_measured_fraction_theta_full 0.996
_diffrn_measured_fraction_theta_max 0.974
_diffrn_measurement_device_type  'SuperNova, Dual, Cu at zero, Atlas'
_diffrn_measurement_method       '\w scans'
_diffrn_radiation_type           MoK\a
_diffrn_radiation_wavelength     0.71073
_diffrn_reflns_av_R_equivalents  0.0297
_diffrn_reflns_av_unetI/netI     0.0497
_diffrn_reflns_laue_measured_fraction_full 0.996
_diffrn_reflns_laue_measured_fraction_max 0.974
_diffrn_reflns_limit_h_max       14
_diffrn_reflns_limit_h_min       -13
_diffrn_reflns_limit_k_max       6
_diffrn_reflns_limit_k_min       -10
_diffrn_reflns_limit_l_max       27
_diffrn_reflns_limit_l_min       -27
_diffrn_reflns_number            8095
_diffrn_reflns_point_group_measured_fraction_full 0.707
_diffrn_reflns_point_group_measured_fraction_max 0.635
_diffrn_reflns_theta_full        25.500
_diffrn_reflns_theta_max         41.189
_diffrn_reflns_theta_min         2.797
_exptl_absorpt_coefficient_mu    2.301
_exptl_absorpt_correction_T_max  0.641
_exptl_absorpt_correction_T_min  0.391
_exptl_absorpt_correction_type   analytical
_exptl_absorpt_process_details
;
CrysAlisPro, Agilent Technologies,
Version 1.171.35.19 (release 27-10-2011 CrysAlis171 .NET)
(compiled Oct 27 2011,15:02:11)
Analytical numeric absorption correction using a multifaceted crystal
   model based on expressions derived by R.C. Clark & J.S. Reid.
(Clark, R. C. & Reid, J. S. (1995). Acta Cryst. A51, 887-897)
;
_exptl_crystal_colour            colorless
_exptl_crystal_density_diffrn    1.720
_exptl_crystal_description       'thick plate'
_exptl_crystal_F_000             324
_exptl_crystal_recrystallization_method
'Re-crystallisation from solvent: Hexane/ethyl acetate'
_exptl_crystal_size_max          0.7316
_exptl_crystal_size_mid          0.4537
_exptl_crystal_size_min          0.2697
_refine_diff_density_max         0.901
_refine_diff_density_min         -0.930
_refine_diff_density_rms         0.116
_refine_ls_abs_structure_details
;
 Classical Flack method preferred over Parsons because s.u. lower.
;
_refine_ls_abs_structure_Flack   0.00(2)
_refine_ls_extinction_method     none
_refine_ls_goodness_of_fit_ref   0.992
_refine_ls_hydrogen_treatment    constr
_refine_ls_matrix_type           full
_refine_ls_number_parameters     148
_refine_ls_number_reflns         5439
_refine_ls_number_restraints     2
_refine_ls_restrained_S_all      0.992
_refine_ls_R_factor_all          0.0397
_refine_ls_R_factor_gt           0.0317
_refine_ls_shift/su_max          0.001
_refine_ls_shift/su_mean         0.000
_refine_ls_structure_factor_coef Fsqd
_refine_ls_weighting_details
'w=1/[\s^2^(Fo^2^)+(0.0169P)^2^] where P=(Fo^2^+2Fc^2^)/3'
_refine_ls_weighting_scheme      calc
_refine_ls_wR_factor_gt          0.0557
_refine_ls_wR_factor_ref         0.0607
_reflns_Friedel_coverage         0.302
_reflns_friedel_fraction_full    0.417
_reflns_friedel_fraction_max     0.295
_reflns_number_gt                4789
_reflns_number_total             5439
_reflns_threshold_expression     'I > 2\s(I)'
_cod_data_source_file            c5ra07854g2.cif
_cod_data_source_block           5Aa
_cod_depositor_comments
;
The following automatic conversions were performed:

'_chemical_melting_point' value '372-373' was changed to '372.5(5)' -
the average value was taken and precision was estimated.

Automatic conversion script
Id: cif_fix_values 3271 2015-04-21 07:52:19Z andrius 
;
_cod_database_code               7220841
_shelx_space_group_comment
;
The symmetry employed for this shelxl refinement is uniquely defined
by the following loop, which should always be used as a source of
symmetry information in preference to the above space-group names.
They are only intended as comments.
;
_shelxl_version_number           2014-1
_shelx_res_file
;
TITL    aksc-bs19a in P n
CELL   0.71073      7.969    5.535   14.965   90.000  103.239   90.000
ZERR         2      0.005    0.005    0.005    0.005    0.005    0.005
LATT -1
SYMM  0.50000+X,-Y, 0.50000+Z
SFAC    C   H  N  O   TE
UNIT    24 30 2 4 2
temp -173.15
l.s. 10
damp 200
acta 51
conf
bond $h
htab
htab c10 o1_$1
eqiv $1 x, y-1, z
EQIV $2 x-3/2, -y+1, z-1/2
HTAB C13 N1_$2
omit    -5   0  -5
omit    -1   2  -1
omit     2   2   0
omit     9   5  11
omit     5   9  -3
omit     1   0  -5
omit     3   2   3
omit    -5   1  -8
WGHT    0.016900
FVAR       0.99895
TE    5    0.708510    0.640509    0.639960    11.00000    0.01855    0.01626 =
         0.02899   -0.00131    0.00331    0.00092
O1    4    0.369876    0.828147    0.537369    11.00000    0.02192    0.01420 =
         0.02982   -0.00028    0.00202   -0.00083
O2    4    0.130248    0.625034    0.467763    11.00000    0.01959    0.01892 =
         0.02954    0.00086   -0.00229    0.00116
N1    3    1.231181   -0.171620    0.824027    11.00000    0.02144    0.02480 =
         0.01964    0.00234    0.00399    0.00365
C1    1    0.889171    0.377434    0.703532    11.00000    0.01833    0.02138 =
         0.01991    0.00059    0.00456    0.00184
C2    1    0.880309    0.278214    0.787241    11.00000    0.02102    0.03238 =
         0.02424   -0.00013    0.00947    0.00589
AFIX  43
H2A   2    0.797321    0.337924    0.818250    11.00000   -1.20000
AFIX   0
C3    1    0.990131    0.093320    0.826819    11.00000    0.02062    0.03576 =
         0.01905    0.00347    0.00801    0.00336
AFIX  43
H3A   2    0.979883    0.026494    0.883800    11.00000   -1.20000
AFIX   0
C4    1    1.116519    0.003781    0.783430    11.00000    0.01636    0.02168 =
         0.01790    0.00028    0.00213   -0.00043
C5    1    1.124353    0.103992    0.698159    11.00000    0.01953    0.02555 =
         0.01883    0.00138    0.00559    0.00472
AFIX  43
H5A   2    1.207154    0.045803    0.666729    11.00000   -1.20000
AFIX   0
C6    1    1.012066    0.287310    0.659504    11.00000    0.01900    0.02585 =
         0.01773    0.00209    0.00499    0.00366
AFIX  43
H6A   2    1.019262    0.352607    0.601792    11.00000   -1.20000
AFIX   0
C7    1    1.211346   -0.285855    0.908013    11.00000    0.02900    0.03019 =
         0.02364    0.00883    0.00348    0.00027
AFIX 137
H7A   2    1.217720   -0.163019    0.955837    11.00000   -1.50000
H7B   2    1.303581   -0.404562    0.927918    11.00000   -1.50000
H7C   2    1.099309   -0.367322    0.897142    11.00000   -1.50000
AFIX   0
C8    1    1.350509   -0.275916    0.775311    11.00000    0.02694    0.02823 =
         0.02511   -0.00044    0.00440    0.00812
AFIX 137
H8A   2    1.412826   -0.146529    0.752011    11.00000   -1.50000
H8B   2    1.286790   -0.372777    0.723790    11.00000   -1.50000
H8C   2    1.432867   -0.379203    0.817081    11.00000   -1.50000
AFIX   0
C9    1    0.528010    0.371880    0.591241    11.00000    0.02070    0.01486 =
         0.02271    0.00067    0.00402    0.00277
AFIX  43
H9A   2    0.564077    0.210273    0.606013    11.00000   -1.20000
AFIX   0
C10   1    0.367291    0.400855    0.541585    11.00000    0.02033    0.01352 =
         0.02576   -0.00041    0.00464    0.00085
AFIX  43
H10A  2    0.298693    0.262007    0.521897    11.00000   -1.20000
AFIX   0
C11   1    0.294186    0.639347    0.516754    11.00000    0.01697    0.01529 =
         0.01874    0.00017    0.00555   -0.00041
C13   1    0.045703    0.852851    0.440875    11.00000    0.02685    0.02209 =
         0.03963    0.00219   -0.00442    0.00718
AFIX 137
H13A  2   -0.065156    0.823871    0.397836    11.00000   -1.50000
H13B  2    0.118601    0.952995    0.411182    11.00000   -1.50000
H13C  2    0.026237    0.936427    0.495344    11.00000   -1.50000
 
AFIX   0
HKLF      4
 
REM     aksc-bs19a in P n
REM R1 =  0.0317 for    4789 Fo > 4sig(Fo)  and  0.0397 for all    5439 data
REM    148 parameters refined using      2 restraints
 
END
 
WGHT      0.0169      0.0000
 
REM Instructions for potential hydrogen bonds
HTAB C10 O1_$1
HTAB C13 N1_$2
 
REM Highest difference peak  0.901,  deepest hole -0.930,  1-sigma level  0.116
Q1    1   0.7236  0.6586  0.6952  11.00000  0.05    0.90
Q2    1   0.6971  0.6449  0.5849  11.00000  0.05    0.80
Q3    1   0.7654  0.6615  0.6486  11.00000  0.05    0.67
Q4    1   0.7095  0.0868  0.6391  11.00000  0.05    0.63
Q5    1   0.7419  0.7810  0.6004  11.00000  0.05    0.57
Q6    1   0.6758  0.7787  0.6818  11.00000  0.05    0.55
Q7    1   0.6580  0.6587  0.6314  11.00000  0.05    0.55
Q8    1   0.6354  0.4842  0.6148  11.00000  0.05    0.55
Q9    1   0.7880  0.4835  0.6650  11.00000  0.05    0.54
Q10   1   0.9410  0.2171  0.8065  11.00000  0.05    0.47
Q11   1   1.1096  0.0196  0.7291  11.00000  0.05    0.44
Q12   1   0.8201  0.4888  0.7277  11.00000  0.05    0.43
Q13   1   0.4718  0.2065  0.4717  11.00000  0.05    0.43
Q14   1   1.0864 -0.4488  0.7312  11.00000  0.05    0.42
Q15   1   0.9776  0.3623  0.7001  11.00000  0.05    0.41
Q16   1   0.7939  0.8022  0.7215  11.00000  0.05    0.41
Q17   1   1.3754 -0.6541  0.7815  11.00000  0.05    0.41
Q18   1   0.3758  0.4801  0.5905  11.00000  0.05    0.40
Q19   1   0.4807  0.2600  0.6021  11.00000  0.05    0.40
Q20   1   0.8876  0.3287  0.6576  11.00000  0.05    0.40
;
_shelx_res_checksum              63401
loop_
_space_group_symop_operation_xyz
'x, y, z'
'x+1/2, -y, z+1/2'
loop_
_atom_site_label
_atom_site_type_symbol
_atom_site_fract_x
_atom_site_fract_y
_atom_site_fract_z
_atom_site_U_iso_or_equiv
_atom_site_adp_type
_atom_site_occupancy
_atom_site_site_symmetry_order
_atom_site_calc_flag
_atom_site_refinement_flags_posn
_atom_site_refinement_flags_adp
Te Te 0.70851(2) 0.64051(2) 0.63996(2) 0.02161(3) Uani 1 1 d . .
O1 O 0.3699(3) 0.8281(3) 0.53737(15) 0.0226(4) Uani 1 1 d . .
O2 O 0.1302(3) 0.6250(3) 0.46776(16) 0.0240(4) Uani 1 1 d . .
N N 1.2312(3) -0.1716(4) 0.82403(17) 0.0221(5) Uani 1 1 d . .
C5 C 0.8892(5) 0.3774(6) 0.7035(3) 0.0198(7) Uani 1 1 d . .
C6 C 0.8803(4) 0.2782(6) 0.7872(2) 0.0252(5) Uani 1 1 d . .
H6 H 0.7973 0.3379 0.8183 0.030 Uiso 1 1 calc R U
C7 C 0.9901(4) 0.0933(6) 0.8268(2) 0.0246(5) Uani 1 1 d . .
H7 H 0.9799 0.0265 0.8838 0.029 Uiso 1 1 calc R U
C8 C 1.1165(3) 0.0038(5) 0.78343(18) 0.0189(5) Uani 1 1 d . .
C9 C 1.1244(4) 0.1040(5) 0.69816(19) 0.0211(5) Uani 1 1 d . .
H9 H 1.2072 0.0458 0.6667 0.025 Uiso 1 1 calc R U
C10 C 1.0121(3) 0.2873(5) 0.65950(19) 0.0207(5) Uani 1 1 d . .
H10 H 1.0193 0.3526 0.6018 0.025 Uiso 1 1 calc R U
C11 C 1.2113(4) -0.2859(6) 0.9080(2) 0.0280(6) Uani 1 1 d . .
H11A H 1.2177 -0.1630 0.9558 0.042 Uiso 1 1 calc R U
H11B H 1.3036 -0.4046 0.9279 0.042 Uiso 1 1 calc R U
H11C H 1.0993 -0.3673 0.8971 0.042 Uiso 1 1 calc R U
C12 C 1.3505(4) -0.2759(6) 0.7753(2) 0.0270(6) Uani 1 1 d . .
H12A H 1.4128 -0.1465 0.7520 0.041 Uiso 1 1 calc R U
H12B H 1.2868 -0.3728 0.7238 0.041 Uiso 1 1 calc R U
H12C H 1.4329 -0.3792 0.8171 0.041 Uiso 1 1 calc R U
C1 C 0.5280(5) 0.3719(6) 0.5912(3) 0.0196(7) Uani 1 1 d . .
H1 H 0.5641 0.2103 0.6060 0.023 Uiso 1 1 calc R U
C2 C 0.3673(4) 0.4009(4) 0.5416(2) 0.0200(5) Uani 1 1 d . .
H2 H 0.2987 0.2620 0.5219 0.024 Uiso 1 1 calc R U
C3 C 0.2942(3) 0.6393(4) 0.51675(18) 0.0168(4) Uani 1 1 d . .
C4 C 0.0457(4) 0.8529(5) 0.4409(3) 0.0315(7) Uani 1 1 d . .
H4A H -0.0652 0.8239 0.3978 0.047 Uiso 1 1 calc R U
H4B H 0.1186 0.9530 0.4112 0.047 Uiso 1 1 calc R U
H4C H 0.0262 0.9364 0.4953 0.047 Uiso 1 1 calc R U
loop_
_atom_site_aniso_label
_atom_site_aniso_U_11
_atom_site_aniso_U_22
_atom_site_aniso_U_33
_atom_site_aniso_U_23
_atom_site_aniso_U_13
_atom_site_aniso_U_12
Te 0.01855(5) 0.01626(5) 0.02899(7) -0.00131(14) 0.00331(5) 0.00092(12)
O1 0.0219(8) 0.0142(7) 0.0298(10) -0.0003(7) 0.0020(8) -0.0008(6)
O2 0.0196(8) 0.0189(8) 0.0295(10) 0.0009(7) -0.0023(8) 0.0012(7)
N 0.0214(10) 0.0248(11) 0.0196(9) 0.0023(8) 0.0040(8) 0.0036(8)
C5 0.0183(12) 0.0214(13) 0.0199(13) 0.0006(10) 0.0046(10) 0.0018(10)
C6 0.0210(11) 0.0324(14) 0.0242(12) -0.0001(11) 0.0095(10) 0.0059(10)
C7 0.0206(11) 0.0358(14) 0.0191(11) 0.0035(10) 0.0080(9) 0.0034(10)
C8 0.0164(9) 0.0217(11) 0.0179(10) 0.0003(8) 0.0021(8) -0.0004(8)
C9 0.0195(10) 0.0255(12) 0.0188(10) 0.0014(9) 0.0056(9) 0.0047(9)
C10 0.0190(10) 0.0258(11) 0.0177(10) 0.0021(9) 0.0050(9) 0.0037(9)
C11 0.0290(13) 0.0302(14) 0.0236(12) 0.0088(11) 0.0035(11) 0.0003(11)
C12 0.0269(13) 0.0282(13) 0.0251(13) -0.0004(11) 0.0044(11) 0.0081(11)
C1 0.0207(13) 0.0149(11) 0.0227(14) 0.0007(9) 0.0040(11) 0.0028(9)
C2 0.0203(10) 0.0135(9) 0.0258(12) -0.0004(8) 0.0046(9) 0.0009(8)
C3 0.0170(9) 0.0153(9) 0.0187(9) 0.0002(8) 0.0055(8) -0.0004(8)
C4 0.0268(13) 0.0221(12) 0.0396(17) 0.0022(12) -0.0044(13) 0.0072(10)
loop_
_atom_type_symbol
_atom_type_description
_atom_type_scat_dispersion_real
_atom_type_scat_dispersion_imag
_atom_type_scat_source
C C 0.0033 0.0016 'International Tables Vol C Tables 4.2.6.8 and 6.1.1.4'
H H 0.0000 0.0000 'International Tables Vol C Tables 4.2.6.8 and 6.1.1.4'
N N 0.0061 0.0033 'International Tables Vol C Tables 4.2.6.8 and 6.1.1.4'
O O 0.0106 0.0060 'International Tables Vol C Tables 4.2.6.8 and 6.1.1.4'
Te Te -0.5308 1.6751 'International Tables Vol C Tables 4.2.6.8 and 6.1.1.4'
loop_
_geom_angle_atom_site_label_1
_geom_angle_atom_site_label_2
_geom_angle_atom_site_label_3
_geom_angle
C1 Te C5 90.59(11)
C3 O2 C4 115.7(2)
C8 N C12 120.4(3)
C8 N C11 119.9(3)
C12 N C11 118.6(2)
C6 C5 C10 118.3(3)
C6 C5 Te 120.6(3)
C10 C5 Te 120.9(3)
C5 C6 C7 121.4(3)
C5 C6 H6 119.3
C7 C6 H6 119.3
C6 C7 C8 120.7(3)
C6 C7 H7 119.6
C8 C7 H7 119.6
N C8 C9 121.1(3)
N C8 C7 121.2(3)
C9 C8 C7 117.7(2)
C10 C9 C8 120.5(3)
C10 C9 H9 119.7
C8 C9 H9 119.7
C9 C10 C5 121.4(3)
C9 C10 H10 119.3
C5 C10 H10 119.3
N C11 H11A 109.5
N C11 H11B 109.5
H11A C11 H11B 109.5
N C11 H11C 109.5
H11A C11 H11C 109.5
H11B C11 H11C 109.5
N C12 H12A 109.5
N C12 H12B 109.5
H12A C12 H12B 109.5
N C12 H12C 109.5
H12A C12 H12C 109.5
H12B C12 H12C 109.5
C2 C1 Te 127.4(2)
C2 C1 H1 116.3
Te C1 H1 116.3
C1 C2 C3 121.8(2)
C1 C2 H2 119.1
C3 C2 H2 119.1
O1 C3 O2 123.7(2)
O1 C3 C2 124.8(2)
O2 C3 C2 111.5(2)
O2 C4 H4A 109.5
O2 C4 H4B 109.5
H4A C4 H4B 109.5
O2 C4 H4C 109.5
H4A C4 H4C 109.5
H4B C4 H4C 109.5
loop_
_geom_bond_atom_site_label_1
_geom_bond_atom_site_label_2
_geom_bond_distance
Te C1 2.081(4)
Te C5 2.114(4)
O1 C3 1.211(3)
O2 C3 1.346(3)
O2 C4 1.443(3)
N C8 1.376(3)
N C12 1.444(4)
N C11 1.448(4)
C5 C6 1.384(5)
C5 C10 1.392(5)
C6 C7 1.388(4)
C6 H6 0.9500
C7 C8 1.408(4)
C7 H7 0.9500
C8 C9 1.406(4)
C9 C10 1.388(4)
C9 H9 0.9500
C10 H10 0.9500
C11 H11A 0.9800
C11 H11B 0.9800
C11 H11C 0.9800
C12 H12A 0.9800
C12 H12B 0.9800
C12 H12C 0.9800
C1 C2 1.335(5)
C1 H1 0.9500
C2 C3 1.456(4)
C2 H2 0.9500
C4 H4A 0.9800
C4 H4B 0.9800
C4 H4C 0.9800
loop_
_geom_hbond_atom_site_label_D
_geom_hbond_atom_site_label_H
_geom_hbond_atom_site_label_A
_geom_hbond_distance_DH
_geom_hbond_distance_HA
_geom_hbond_distance_DA
_geom_hbond_angle_DHA
_geom_hbond_site_symmetry_A
C2 H2 O1 0.95 2.47 3.171(4) 130.9 1_545
C4 H4A N 0.98 2.60 3.232(4) 122.7 2_364
loop_
_geom_torsion_atom_site_label_1
_geom_torsion_atom_site_label_2
_geom_torsion_atom_site_label_3
_geom_torsion_atom_site_label_4
_geom_torsion
C10 C5 C6 C7 -0.1(5)
Te C5 C6 C7 175.4(2)
C5 C6 C7 C8 1.1(5)
C12 N C8 C9 -6.8(4)
C11 N C8 C9 -174.9(3)
C12 N C8 C7 174.8(3)
C11 N C8 C7 6.7(4)
C6 C7 C8 N 177.0(3)
C6 C7 C8 C9 -1.5(4)
N C8 C9 C10 -177.6(3)
C7 C8 C9 C10 0.9(4)
C8 C9 C10 C5 0.1(4)
C6 C5 C10 C9 -0.5(5)
Te C5 C10 C9 -176.0(2)
Te C1 C2 C3 -2.0(5)
C4 O2 C3 O1 -0.6(4)
C4 O2 C3 C10 -154.9(3)
C1 C2 C3 O1 0.6(5)
C1 C2 C3 O2 -179.2(3)
