#------------------------------------------------------------------------------
#$Date: 2016-02-13 14:50:18 +0200 (Sat, 13 Feb 2016) $
#$Revision: 176428 $
#$URL: svn://www.crystallography.net/cod/cif/7/22/09/7220938.cif $
#------------------------------------------------------------------------------
#
# This file is available in the Crystallography Open Database (COD),
# http://www.crystallography.net/
#
# All data on this site have been placed in the public domain by the
# contributors.
#
data_7220938
loop_
_publ_author_name
'Takahashi, Hiroki'
'Tamura, Rui'
_publ_section_title
;
 Low temperature phase transition induced biaxial negative thermal
 expansion of 2,4-dinitroanisole
;
_journal_issue                   46
_journal_name_full               CrystEngComm
_journal_page_first              8888
_journal_paper_doi               10.1039/C5CE00029G
_journal_volume                  17
_journal_year                    2015
_chemical_formula_sum            'C7 H6 N2 O5'
_chemical_formula_weight         198.14
_chemical_name_systematic
;
 ?
;
_space_group_IT_number           14
_symmetry_cell_setting           monoclinic
_symmetry_Int_Tables_number      14
_symmetry_space_group_name_Hall  '-P 2yn'
_symmetry_space_group_name_H-M   'P 1 21/n 1'
_atom_sites_solution_hydrogens   geom
_atom_sites_solution_primary     direct
_atom_sites_solution_secondary   difmap
_audit_creation_method           SHELXL-97
_audit_update_record
;
2014-12-26 deposited with the CCDC.
2015-06-08 downloaded from the CCDC.
;
_cell_angle_alpha                90.00
_cell_angle_beta                 91.156(8)
_cell_angle_gamma                90.00
_cell_formula_units_Z            4
_cell_length_a                   3.957(2)
_cell_length_b                   13.735(7)
_cell_length_c                   15.454(8)
_cell_measurement_reflns_used    2000
_cell_measurement_temperature    273(2)
_cell_measurement_theta_max      27.5
_cell_measurement_theta_min      3.0
_cell_volume                     839.7(7)
_computing_cell_refinement
;
CrystalClear-SM Expert 2.0 r4 (Rigaku/MSC, 2009)
;
_computing_data_collection
;
CrystalClear-SM Expert 2.0 r4 (Rigaku/MSC, 2009)
;
_computing_data_reduction
;
CrystalClear-SM Expert 2.0 r4 (Rigaku/MSC, 2009)
;
_computing_molecular_graphics
;
Yadokari-XG 2009 (Kabuto, 2009), ORTEP-3 (Farrugia, 1997) & Mercury (Macrae et
al., 2006)
;
_computing_structure_refinement  'SHELXL-97 (Sheldrick, 1997)'
_computing_structure_solution    'SIR97 (Altomare et al., 1999)'
_diffrn_ambient_temperature      273(2)
_diffrn_detector                 CCD
_diffrn_detector_area_resol_mean 28.5714
_diffrn_measured_fraction_theta_full 0.991
_diffrn_measured_fraction_theta_max 0.991
_diffrn_measurement_device
;
AFC11 (Right): Eulerian 3 circle
;
_diffrn_measurement_device_type
;
Rigaku Saturn724+
;
_diffrn_measurement_method       'profile data from \w-scans'
_diffrn_radiation_monochromator  'Graphite Monochromator'
_diffrn_radiation_source         'fine-focus sealed tube'
_diffrn_radiation_type           MoK\a
_diffrn_radiation_wavelength     0.71075
_diffrn_reflns_av_R_equivalents  0.0231
_diffrn_reflns_av_sigmaI/netI    0.0445
_diffrn_reflns_limit_h_max       5
_diffrn_reflns_limit_h_min       -5
_diffrn_reflns_limit_k_max       17
_diffrn_reflns_limit_k_min       -17
_diffrn_reflns_limit_l_max       20
_diffrn_reflns_limit_l_min       -17
_diffrn_reflns_number            3814
_diffrn_reflns_theta_full        27.47
_diffrn_reflns_theta_max         27.47
_diffrn_reflns_theta_min         3.25
_exptl_absorpt_coefficient_mu    0.136
_exptl_absorpt_correction_T_max  0.9733
_exptl_absorpt_correction_T_min  0.9733
_exptl_absorpt_correction_type   multi-scan
_exptl_absorpt_process_details
'CrystalClear (Rigaku Americas and Rigaku, 2009)'
_exptl_crystal_colour            'Pale yellow'
_exptl_crystal_density_diffrn    1.567
_exptl_crystal_density_method    'not measured'
_exptl_crystal_description       Platelet
_exptl_crystal_F_000             408
_exptl_crystal_size_max          0.38
_exptl_crystal_size_mid          0.35
_exptl_crystal_size_min          0.30
_refine_diff_density_max         0.167
_refine_diff_density_min         -0.127
_refine_diff_density_rms         0.033
_refine_ls_extinction_method     none
_refine_ls_goodness_of_fit_ref   0.887
_refine_ls_matrix_type           full
_refine_ls_number_parameters     189
_refine_ls_number_reflns         1904
_refine_ls_number_restraints     0
_refine_ls_restrained_S_all      0.887
_refine_ls_R_factor_all          0.0756
_refine_ls_R_factor_gt           0.0454
_refine_ls_shift/su_max          0.002
_refine_ls_shift/su_mean         0.000
_refine_ls_structure_factor_coef Fsqd
_refine_ls_weighting_details
'calc w=1/[\s^2^(Fo^2^)+(0.1000P)^2^+0.0000P] where P=(Fo^2^+2Fc^2^)/3'
_refine_ls_weighting_scheme      calc
_refine_ls_wR_factor_gt          0.1237
_refine_ls_wR_factor_ref         0.1522
_reflns_number_gt                1178
_reflns_number_total             1904
_reflns_threshold_expression     >2\s(I)
_cod_data_source_file            c5ce00029g2.cif
_cod_data_source_block           24dnan_273K
_cod_depositor_comments
;
The following automatic conversions were performed:

'_symmetry_cell_setting' value 'Monoclinic' changed to 'monoclinic'
according to
/usr/data/users/saulius/crontab/automatic-downloads/rss-feeds/RSC/lib/dictionaries/cif_core.dic
dictionary named 'cif_core.dic' version 2.4.2 from 2011-04-26.

Automatic conversion script
Id: cif_fix_values 3271 2015-04-21 07:52:19Z andrius 

 Adding full bibliography for 7220936--7220954.cif.
;
_cod_original_sg_symbol_H-M      'P 21/n'
_cod_database_code               7220938
loop_
_symmetry_equiv_pos_site_id
_symmetry_equiv_pos_as_xyz
1 x,y,z
2 1/2-x,1/2+y,1/2-z
3 -x,-y,-z
4 1/2+x,1/2-y,1/2+z
loop_
_atom_site_label
_atom_site_type_symbol
_atom_site_fract_x
_atom_site_fract_y
_atom_site_fract_z
_atom_site_U_iso_or_equiv
_atom_site_adp_type
_atom_site_occupancy
_atom_site_symmetry_multiplicity
_atom_site_calc_flag
_atom_site_refinement_flags
_atom_site_disorder_assembly
_atom_site_disorder_group
C1 C 0.3650(4) 0.30558(12) 0.07634(11) 0.0510(4) Uani 1 1 d . . .
C2 C 0.4871(4) 0.24006(12) 0.01451(10) 0.0472(4) Uani 1 1 d . A .
C3 C 0.6232(4) 0.15150(13) 0.03747(10) 0.0477(4) Uani 1 1 d . . .
H1 H 0.708(5) 0.1105(14) -0.0014(13) 0.059(5) Uiso 1 1 d . . .
C4 C 0.6341(4) 0.12631(12) 0.12368(10) 0.0495(4) Uani 1 1 d . B .
C5 C 0.5155(5) 0.18839(14) 0.18668(11) 0.0592(5) Uani 1 1 d . . .
H2 H 0.538(5) 0.1652(15) 0.2487(15) 0.077(6) Uiso 1 1 d . . .
C6 C 0.3821(5) 0.27693(15) 0.16292(12) 0.0593(5) Uani 1 1 d . . .
H3 H 0.299(5) 0.3186(16) 0.2050(14) 0.068(6) Uiso 1 1 d . . .
C7 C 0.1151(8) 0.45802(19) 0.11268(19) 0.0794(7) Uani 1 1 d . . .
H6 H -0.061(8) 0.424(2) 0.1506(19) 0.115(10) Uiso 1 1 d . . .
H5 H 0.029(8) 0.511(2) 0.0830(19) 0.111(9) Uiso 1 1 d . . .
H4 H 0.298(7) 0.4782(19) 0.1540(19) 0.106(8) Uiso 1 1 d . . .
N1 N 0.4788(5) 0.26339(12) -0.07840(10) 0.0621(5) Uani 1 1 d . . .
N2 N 0.7811(5) 0.03304(12) 0.14883(11) 0.0645(5) Uani 1 1 d . . .
O1 O 0.2412(4) 0.39131(9) 0.04911(8) 0.0677(4) Uani 1 1 d . . .
O2 O 0.437(3) 0.3433(3) -0.1075(2) 0.0844(19) Uani 0.498(12) 1 d P A 1
O3 O 0.527(2) 0.1950(3) -0.1331(2) 0.080(2) Uani 0.498(12) 1 d P A 1
O2' O 0.229(2) 0.3079(6) -0.1016(2) 0.095(3) Uani 0.502(12) 1 d P A 2
O3' O 0.720(2) 0.2399(7) -0.1161(4) 0.103(3) Uani 0.502(12) 1 d P A 2
O5' O 0.744(7) 0.0029(15) 0.2234(8) 0.095(4) Uani 0.46(5) 1 d P B 4
O4' O 0.958(7) -0.0075(14) 0.0984(11) 0.074(3) Uani 0.46(5) 1 d P B 4
O4 O 0.832(7) -0.0288(12) 0.0889(6) 0.079(3) Uani 0.54(5) 1 d P B 3
O5 O 0.823(5) 0.0181(13) 0.2247(7) 0.094(3) Uani 0.54(5) 1 d P B 3
loop_
_atom_site_aniso_label
_atom_site_aniso_U_11
_atom_site_aniso_U_22
_atom_site_aniso_U_33
_atom_site_aniso_U_23
_atom_site_aniso_U_13
_atom_site_aniso_U_12
C1 0.0487(9) 0.0555(10) 0.0485(9) -0.0080(7) -0.0037(7) 0.0028(8)
C2 0.0481(9) 0.0555(9) 0.0378(8) 0.0003(7) -0.0004(6) 0.0003(8)
C3 0.0521(9) 0.0516(9) 0.0398(8) -0.0025(7) 0.0053(7) 0.0017(7)
C4 0.0495(9) 0.0546(9) 0.0442(9) 0.0030(7) -0.0013(7) -0.0001(8)
C5 0.0684(12) 0.0721(12) 0.0370(9) -0.0016(8) -0.0029(8) -0.0021(9)
C6 0.0668(12) 0.0674(12) 0.0439(10) -0.0137(8) 0.0015(8) 0.0033(9)
C7 0.0873(18) 0.0685(13) 0.0817(16) -0.0255(12) -0.0126(14) 0.0232(13)
N1 0.0786(12) 0.0617(10) 0.0459(8) 0.0060(7) 0.0006(8) 0.0106(8)
N2 0.0751(11) 0.0646(10) 0.0536(9) 0.0111(8) 0.0003(8) 0.0061(8)
O1 0.0849(10) 0.0581(7) 0.0597(8) -0.0084(6) -0.0048(7) 0.0208(7)
O2 0.124(5) 0.066(2) 0.064(2) 0.0170(15) 0.006(2) 0.017(2)
O3 0.125(5) 0.078(2) 0.0374(15) -0.0060(14) 0.0048(18) 0.016(2)
O2' 0.110(4) 0.131(5) 0.0427(18) 0.003(2) -0.017(2) 0.051(4)
O3' 0.106(4) 0.153(6) 0.050(2) 0.026(3) 0.031(2) 0.033(4)
O5' 0.150(9) 0.083(5) 0.052(4) 0.017(3) 0.019(6) 0.002(6)
O4' 0.085(7) 0.059(4) 0.077(4) 0.007(3) 0.014(4) 0.018(4)
O4 0.102(7) 0.064(4) 0.069(2) 0.006(2) 0.005(3) 0.014(4)
O5 0.134(7) 0.086(5) 0.061(4) 0.025(2) -0.034(5) 0.012(5)
loop_
_atom_type_symbol
_atom_type_description
_atom_type_scat_dispersion_real
_atom_type_scat_dispersion_imag
_atom_type_scat_source
C C 0.0033 0.0016 'International Tables Vol C Tables 4.2.6.8 and 6.1.1.4'
H H 0.0000 0.0000 'International Tables Vol C Tables 4.2.6.8 and 6.1.1.4'
N N 0.0061 0.0033 'International Tables Vol C Tables 4.2.6.8 and 6.1.1.4'
O O 0.0106 0.0060 'International Tables Vol C Tables 4.2.6.8 and 6.1.1.4'
loop_
_geom_angle_atom_site_label_1
_geom_angle_atom_site_label_2
_geom_angle_atom_site_label_3
_geom_angle
O1 C1 C6 124.01(15)
O1 C1 C2 118.55(15)
C6 C1 C2 117.44(16)
C3 C2 C1 121.99(15)
C3 C2 N1 116.48(13)
C1 C2 N1 121.53(15)
C2 C3 C4 118.49(15)
C2 C3 H1 122.3(12)
C4 C3 H1 119.1(12)
C3 C4 C5 121.45(16)
C3 C4 N2 118.95(15)
C5 C4 N2 119.59(15)
C6 C5 C4 119.47(16)
C6 C5 H2 123.9(12)
C4 C5 H2 116.6(12)
C5 C6 C1 121.15(17)
C5 C6 H3 119.8(13)
C1 C6 H3 119.1(13)
O1 C7 H6 110.3(15)
O1 C7 H5 106.9(18)
H6 C7 H5 113(3)
O1 C7 H4 110.9(15)
H6 C7 H4 105(2)
H5 C7 H4 111(2)
O3' N1 O2' 131.2(5)
O2 N1 O3 116.5(3)
O3' N1 C2 115.0(3)
O2 N1 C2 124.5(2)
O2' N1 C2 113.6(3)
O3 N1 C2 119.0(2)
O4' N2 O5' 122.2(9)
O5 N2 O4 125.1(8)
O4' N2 C4 118.2(5)
O5 N2 C4 117.3(6)
O5' N2 C4 119.3(7)
O4 N2 C4 117.4(5)
C1 O1 C7 118.33(17)
loop_
_geom_bond_atom_site_label_1
_geom_bond_atom_site_label_2
_geom_bond_distance
C1 O1 1.340(2)
C1 C6 1.395(3)
C1 C2 1.405(2)
C2 C3 1.374(2)
C2 N1 1.471(2)
C3 C4 1.376(2)
C3 H1 0.89(2)
C4 C5 1.383(2)
C4 N2 1.456(2)
C5 C6 1.373(3)
C5 H2 1.01(2)
C6 H3 0.93(2)
C7 O1 1.440(3)
C7 H6 1.03(3)
C7 H5 0.92(3)
C7 H4 0.99(3)
N1 O3' 1.173(4)
N1 O2 1.196(4)
N1 O2' 1.209(4)
N1 O3 1.280(4)
N2 O4' 1.195(10)
N2 O5 1.199(10)
N2 O5' 1.236(12)
N2 O4 1.276(11)
loop_
_geom_hbond_atom_site_label_D
_geom_hbond_atom_site_label_H
_geom_hbond_atom_site_label_A
_geom_hbond_distance_DH
_geom_hbond_distance_HA
_geom_hbond_distance_DA
_geom_hbond_angle_DHA
_geom_hbond_site_symmetry_A
_geom_hbond_publ_flag
C3 H1 O4 0.89(2) 2.41(2) 2.724(18) 100.7(15) . yes
C3 H1 O4 0.89(2) 2.55(3) 3.39(2) 156.3(17) 3_755 yes
C5 H2 O2' 1.01(2) 2.45(2) 3.363(4) 150.1(16) 4_555 yes
C7 H4 O5 1.00(3) 2.44(3) 3.423(16) 170(2) 2_655 yes
C7 H6 O5 1.03(3) 2.56(3) 3.190(15) 119(2) 2_555 yes
loop_
_geom_torsion_atom_site_label_1
_geom_torsion_atom_site_label_2
_geom_torsion_atom_site_label_3
_geom_torsion_atom_site_label_4
_geom_torsion
O1 C1 C2 C3 178.87(16)
C6 C1 C2 C3 -0.9(3)
O1 C1 C2 N1 -0.5(3)
C6 C1 C2 N1 179.74(17)
C1 C2 C3 C4 1.0(3)
N1 C2 C3 C4 -179.57(15)
C2 C3 C4 C5 -0.8(3)
C2 C3 C4 N2 -179.35(15)
C3 C4 C5 C6 0.4(3)
N2 C4 C5 C6 178.95(17)
C4 C5 C6 C1 -0.2(3)
O1 C1 C6 C5 -179.28(16)
C2 C1 C6 C5 0.5(3)
C3 C2 N1 O3' -39.9(7)
C1 C2 N1 O3' 139.4(7)
C3 C2 N1 O2 -163.5(6)
C1 C2 N1 O2 15.9(7)
C3 C2 N1 O2' 143.4(6)
C1 C2 N1 O2' -37.2(6)
C3 C2 N1 O3 14.8(6)
C1 C2 N1 O3 -165.8(5)
C3 C4 N2 O4' 17.7(18)
C5 C4 N2 O4' -160.9(18)
C3 C4 N2 O5 171.5(14)
C5 C4 N2 O5 -7.2(14)
C3 C4 N2 O5' -168.5(16)
C5 C4 N2 O5' 12.8(17)
C3 C4 N2 O4 -13.4(16)
C5 C4 N2 O4 168.0(15)
C6 C1 O1 C7 -0.5(3)
C2 C1 O1 C7 179.75(19)
