#------------------------------------------------------------------------------
#$Date: 2015-08-18 10:08:43 +0300 (Tue, 18 Aug 2015) $
#$Revision: 153493 $
#$URL: svn://www.crystallography.net/cod/cif/7/22/18/7221814.cif $
#------------------------------------------------------------------------------
#
# This file is available in the Crystallography Open Database (COD),
# http://www.crystallography.net/
#
# All data on this site have been placed in the public domain by the
# contributors.
#
data_7221814
loop_
_publ_author_name
'Tomilin, Denis'
'Pigulski, Bart\/lomiej'
'Gulia, Nurbey'
'Arendt, Agata'
'Sobenina, Luybov'
'Mikhaleva, Al'bina'
'Szafert, Slawomir'
'Trofimov, Boris'
_publ_section_title
;
 Direct Synthesis of Butadiynyl-Substituted Pyrroles under Solvent- and
 Transition Metal-Free Conditions. The First Formal Inverse Sonogashira
 Coupling for 1-Halobutadiynes
;
_journal_name_full               'RSC Adv.'
_journal_paper_doi               10.1039/C5RA08820H
_journal_year                    2015
_chemical_formula_moiety         'C16 H17 N O2'
_chemical_formula_sum            'C16 H17 N O2'
_chemical_formula_weight         255.30
_chemical_name_systematic
;
Ethyl 5-(1-methyl-4,5,6,7-tetrahydro-1H-indol-2-yl)penta-2,4-diynoate
;
_space_group_crystal_system      triclinic
_space_group_IT_number           2
_space_group_name_Hall           '-P 1'
_space_group_name_H-M_alt        'P -1'
_symmetry_space_group_name_Hall  '-P 1'
_symmetry_space_group_name_H-M   'P -1'
_atom_sites_solution_hydrogens   geom
_audit_creation_method           SHELXL-2013
_audit_update_record
;
2014-12-05 deposited with the CCDC.
2015-08-17 downloaded from the CCDC.
;
_cell_angle_alpha                106.45(4)
_cell_angle_beta                 104.02(3)
_cell_angle_gamma                103.26(3)
_cell_formula_units_Z            2
_cell_length_a                   7.685(2)
_cell_length_b                   9.000(3)
_cell_length_c                   11.089(4)
_cell_measurement_reflns_used    3727
_cell_measurement_temperature    100(2)
_cell_measurement_theta_max      32.4787
_cell_measurement_theta_min      2.8781
_cell_volume                     676.1(5)
_computing_cell_refinement
;
CrysAlis RED, Oxford Diffraction Ltd.,
Version 1.171.33.66 (release 28-04-2010 CrysAlis171 .NET)
(compiled Apr 28 2010,14:27:37)
;
_computing_data_collection
;
CrysAlis CCD, Oxford Diffraction Ltd.,
Version 1.171.33.66 (release 28-04-2010 CrysAlis171 .NET)
(compiled Apr 28 2010,14:27:37)
;
_computing_data_reduction
;
CrysAlis RED, Oxford Diffraction Ltd.,
Version 1.171.33.66 (release 28-04-2010 CrysAlis171 .NET)
(compiled Apr 28 2010,14:27:37)
;
_computing_structure_refinement  'SHELXL-2013 (Sheldrick, 2013)'
_computing_structure_solution    'SHELXS-2013 (Sheldrick, 2013)'
_diffrn_ambient_temperature      100(2)
_diffrn_detector_area_resol_mean 8.3359
_diffrn_measured_fraction_theta_full 0.992
_diffrn_measured_fraction_theta_max 0.650
_diffrn_measurement_device_type  'Xcalibur, Sapphire2, large Be window'
_diffrn_measurement_method       '\w scans'
_diffrn_radiation_type           MoK\a
_diffrn_radiation_wavelength     0.71073
_diffrn_reflns_av_R_equivalents  0.0296
_diffrn_reflns_av_unetI/netI     0.0367
_diffrn_reflns_laue_measured_fraction_full 0.992
_diffrn_reflns_laue_measured_fraction_max 0.650
_diffrn_reflns_limit_h_max       9
_diffrn_reflns_limit_h_min       -9
_diffrn_reflns_limit_k_max       11
_diffrn_reflns_limit_k_min       -12
_diffrn_reflns_limit_l_max       14
_diffrn_reflns_limit_l_min       -16
_diffrn_reflns_number            6145
_diffrn_reflns_point_group_measured_fraction_full 0.992
_diffrn_reflns_point_group_measured_fraction_max 0.650
_diffrn_reflns_theta_full        26.000
_diffrn_reflns_theta_max         32.552
_diffrn_reflns_theta_min         2.884
_diffrn_source                   'Enhance (Mo) X-ray Source'
_exptl_absorpt_coefficient_mu    0.083
_exptl_absorpt_correction_T_max  0.992
_exptl_absorpt_correction_T_min  0.962
_exptl_absorpt_correction_type   analytical
_exptl_absorpt_process_details
;
CrysAlis RED, Oxford Diffraction Ltd.,
Version 1.171.33.66 (release 28-04-2010 CrysAlis171 .NET)
(compiled Apr 28 2010,14:27:37)
Analytical numeric absorption correction using a multifaceted crystal
            model based on expressions derived by R.C. Clark & J.S. Reid.
(Clark, R. C. & Reid, J. S. (1995). Acta Cryst. A51, 887-897)
;
_exptl_crystal_colour            purple
_exptl_crystal_density_diffrn    1.254
_exptl_crystal_description       plate
_exptl_crystal_F_000             272
_exptl_crystal_recrystallization_method
'Re-crystallisation from solvent: CH2Cl2/hexane'
_exptl_crystal_size_max          0.990
_exptl_crystal_size_mid          0.350
_exptl_crystal_size_min          0.110
_refine_diff_density_max         0.297
_refine_diff_density_min         -0.366
_refine_diff_density_rms         0.078
_refine_ls_extinction_method     none
_refine_ls_goodness_of_fit_ref   1.056
_refine_ls_hydrogen_treatment    constr
_refine_ls_matrix_type           full
_refine_ls_number_parameters     174
_refine_ls_number_reflns         3201
_refine_ls_number_restraints     0
_refine_ls_restrained_S_all      1.056
_refine_ls_R_factor_all          0.0631
_refine_ls_R_factor_gt           0.0519
_refine_ls_shift/su_max          0.000
_refine_ls_shift/su_mean         0.000
_refine_ls_structure_factor_coef Fsqd
_refine_ls_weighting_details
'w=1/[\s^2^(Fo^2^)+(0.0996P)^2^] where P=(Fo^2^+2Fc^2^)/3'
_refine_ls_weighting_scheme      calc
_refine_ls_wR_factor_gt          0.1401
_refine_ls_wR_factor_ref         0.1474
_reflns_Friedel_coverage         0.000
_reflns_number_gt                2525
_reflns_number_total             3201
_reflns_threshold_expression     'I > 2\s(I)'
_cod_data_source_file            c5ra08820h2.cif
_cod_data_source_block           tom3abs
_cod_original_cell_volume        676.1(4)
_cod_database_code               7221814
_shelx_space_group_comment
;
The symmetry employed for this shelxl refinement is uniquely defined
by the following loop, which should always be used as a source of
symmetry information in preference to the above space-group names.
They are only intended as comments.
;
_shelx_estimated_absorpt_t_min   0.923
_shelx_estimated_absorpt_t_max   0.991
_shelxl_version_number           2013-4
_shelx_res_file
;
TITL tom3 in P-1
CELL 0.71073 7.6852 9.000 11.0892 106.45 104.022 103.265
ZERR 2       0.002  0.003  0.004    0.04   0.03    0.03
LATT 1

SFAC C H N O
UNIT 32 34 2 4

L.S. 20
PLAN  -20
TEMP -173
FMAP 2
ACTA 52
BOND $H
SIZE 0.99 0.35 0.11
CONF
WGHT    0.099600
FVAR       6.89845
O2    4   -0.447507    0.382343    0.208900    11.00000    0.01834    0.02696 =
         0.02403    0.01429    0.00784    0.00922
N1    3    0.514702    0.216766    0.593869    11.00000    0.01993    0.02070 =
         0.02042    0.00852    0.00852    0.00671
O1    4   -0.219871    0.496210    0.135880    11.00000    0.02461    0.03090 =
         0.02766    0.01628    0.01129    0.00924
C4    1    0.087104    0.279959    0.439120    11.00000    0.02345    0.02389 =
         0.02177    0.00862    0.00903    0.00829
C3    1   -0.039097    0.326326    0.359746    11.00000    0.02106    0.02224 =
         0.02089    0.00706    0.00780    0.00646
C5    1    0.200711    0.241096    0.509789    11.00000    0.02283    0.02174 =
         0.01950    0.00601    0.00670    0.00683
C1    1   -0.271708    0.424025    0.204229    11.00000    0.02011    0.01909 =
         0.02016    0.00556    0.00671    0.00633
C14   1   -0.583391    0.427767    0.120996    11.00000    0.02043    0.02324 =
         0.02229    0.01020    0.00465    0.00994
AFIX  23
H14A  2   -0.596278    0.372226    0.026908    11.00000   -1.20000
H14B  2   -0.540257    0.547402    0.142032    11.00000   -1.20000
AFIX   0
C6    1    0.330263    0.196375    0.593994    11.00000    0.01957    0.02116 =
         0.01995    0.00748    0.00644    0.00751
C13   1    0.605030    0.166114    0.689015    11.00000    0.01985    0.01723 =
         0.01815    0.00526    0.00594    0.00559
C7    1    0.307305    0.131523    0.691401    11.00000    0.01914    0.02125 =
         0.02200    0.00861    0.00698    0.00629
AFIX  43
H7    2    0.194897    0.104293    0.713211    11.00000   -1.20000
AFIX   0
C9    1    0.537544    0.054566    0.863873    11.00000    0.02387    0.02397 =
         0.02210    0.01095    0.00754    0.00806
AFIX  23
H9A   2    0.485001   -0.066184    0.831229    11.00000   -1.20000
H9B   2    0.485868    0.100190    0.934320    11.00000   -1.20000
AFIX   0
C2    1   -0.148307    0.369704    0.290916    11.00000    0.02057    0.02558 =
         0.02356    0.00997    0.00883    0.00730
C8    1    0.480081    0.113804    0.751272    11.00000    0.01900    0.01779 =
         0.01998    0.00703    0.00537    0.00568
C16   1    0.598496    0.278165    0.505731    11.00000    0.02892    0.02740 =
         0.02244    0.01087    0.01121    0.00533
AFIX 137
H16A  2    0.723572    0.359209    0.557882    11.00000   -1.50000
H16B  2    0.516780    0.329318    0.461290    11.00000   -1.50000
H16C  2    0.611497    0.187267    0.438739    11.00000   -1.50000
AFIX   0
C11   1    0.841053    0.069389    0.811177    11.00000    0.02522    0.03515 =
         0.02408    0.00977    0.00648    0.01593
AFIX  23
H11A  2    0.786523   -0.048819    0.756928    11.00000   -1.20000
H11B  2    0.979094    0.094581    0.851843    11.00000   -1.20000
AFIX   0
C15   1   -0.769052    0.375899    0.143094    11.00000    0.01918    0.03214 =
         0.03530    0.01358    0.00860    0.00813
AFIX 137
H15A  2   -0.812951    0.256788    0.118154    11.00000   -1.50000
H15B  2   -0.862469    0.408835    0.088332    11.00000   -1.50000
H15C  2   -0.753239    0.428131    0.237259    11.00000   -1.50000
AFIX   0
C12   1    0.805954    0.168479    0.720093    11.00000    0.01928    0.02757 =
         0.02491    0.00822    0.00812    0.00850
AFIX  23
H12A  2    0.892092    0.282603    0.765365    11.00000   -1.20000
H12B  2    0.831207    0.119921    0.636739    11.00000   -1.20000
AFIX   0
C10   1    0.753291    0.107674    0.921388    11.00000    0.02552    0.03190 =
         0.02163    0.00944    0.00586    0.01267
AFIX  23
H10A  2    0.803081    0.226656    0.973175    11.00000   -1.20000
H10B  2    0.789778    0.050311    0.982690    11.00000   -1.20000

AFIX   0
HKLF 4

REM  tom3 in P-1
REM R1 =  0.0519 for    2525 Fo > 4sig(Fo)  and  0.0631 for all    3201 data
REM    174 parameters refined using      0 restraints

END

WGHT      0.0996      0.0000

REM Highest difference peak  0.297,  deepest hole -0.366,  1-sigma level  0.078
Q1    1   0.3234  0.1782  0.6472  11.00000  0.05    0.26
Q2    1   0.6865  0.1720  0.7025  11.00000  0.05    0.26
Q3    1   0.5752  0.1851  0.6328  11.00000  0.05    0.24
Q4    1   0.4929  0.0884  0.8008  11.00000  0.05    0.24
Q5    1   0.8211  0.1184  0.7610  11.00000  0.05    0.24
Q6    1  -0.3666  0.6614  0.2644  11.00000  0.05    0.24
Q7    1  -0.4388  0.5593  0.3592  11.00000  0.05    0.23
Q8    1   0.5990  0.4318  0.5414  11.00000  0.05    0.23
Q9    1  -0.4602  0.5628  0.3021  11.00000  0.05    0.22
Q10   1   0.5802  0.4535  0.6854  11.00000  0.05    0.22
Q11   1  -0.4252  0.2208  0.0723  11.00000  0.05    0.21
Q12   1  -0.5687  0.2989 -0.0041  11.00000  0.05    0.21
Q13   1   0.3294  0.4051  0.6398  11.00000  0.05    0.21
Q14   1   0.5203 -0.0763  0.6315  11.00000  0.05    0.21
Q15   1   0.8078  0.2435  0.9423  11.00000  0.05    0.21
Q16   1   0.7550  0.2661  0.9224  11.00000  0.05    0.20
Q17   1  -0.6147  0.2260 -0.0133  11.00000  0.05    0.20
Q18   1  -0.4701  0.1735  0.1788  11.00000  0.05    0.20
Q19   1   0.5639  0.4473  0.6261  11.00000  0.05    0.20
Q20   1   0.5517  0.1097  0.7102  11.00000  0.05    0.20
;
_shelx_res_checksum              99231
loop_
_space_group_symop_operation_xyz
'x, y, z'
'-x, -y, -z'
loop_
_atom_site_label
_atom_site_type_symbol
_atom_site_fract_x
_atom_site_fract_y
_atom_site_fract_z
_atom_site_U_iso_or_equiv
_atom_site_adp_type
_atom_site_occupancy
_atom_site_site_symmetry_order
_atom_site_calc_flag
_atom_site_refinement_flags_posn
_atom_site_refinement_flags_adp
O2 O -0.44751(12) 0.38234(11) 0.20890(9) 0.0214(2) Uani 1 1 d . .
N1 N 0.51470(15) 0.21677(13) 0.59387(10) 0.0197(3) Uani 1 1 d . .
O1 O -0.21987(13) 0.49621(12) 0.13588(9) 0.0258(2) Uani 1 1 d . .
C4 C 0.08710(18) 0.27996(16) 0.43912(12) 0.0225(3) Uani 1 1 d . .
C3 C -0.03910(17) 0.32633(15) 0.35975(12) 0.0215(3) Uani 1 1 d . .
C5 C 0.20071(18) 0.24110(16) 0.50979(12) 0.0218(3) Uani 1 1 d . .
C1 C -0.27171(18) 0.42403(15) 0.20423(12) 0.0201(3) Uani 1 1 d . .
C14 C -0.58339(18) 0.42777(16) 0.12100(12) 0.0214(3) Uani 1 1 d . .
H14A H -0.5963 0.3722 0.0269 0.026 Uiso 1 1 calc R U
H14B H -0.5403 0.5474 0.1420 0.026 Uiso 1 1 calc R U
C6 C 0.33026(18) 0.19637(16) 0.59399(12) 0.0200(3) Uani 1 1 d . .
C13 C 0.60503(17) 0.16611(15) 0.68902(12) 0.0188(3) Uani 1 1 d . .
C7 C 0.30730(18) 0.13152(15) 0.69140(12) 0.0206(3) Uani 1 1 d . .
H7 H 0.1949 0.1043 0.7132 0.025 Uiso 1 1 calc R U
C9 C 0.53754(18) 0.05457(16) 0.86387(12) 0.0226(3) Uani 1 1 d . .
H9A H 0.4850 -0.0662 0.8312 0.027 Uiso 1 1 calc R U
H9B H 0.4859 0.1002 0.9343 0.027 Uiso 1 1 calc R U
C2 C -0.14831(18) 0.36970(16) 0.29092(12) 0.0227(3) Uani 1 1 d . .
C8 C 0.48008(17) 0.11380(15) 0.75127(12) 0.0191(3) Uani 1 1 d . .
C16 C 0.5985(2) 0.27817(17) 0.50573(13) 0.0260(3) Uani 1 1 d . .
H16A H 0.7236 0.3592 0.5579 0.039 Uiso 1 1 calc R U
H16B H 0.5168 0.3293 0.4613 0.039 Uiso 1 1 calc R U
H16C H 0.6115 0.1873 0.4387 0.039 Uiso 1 1 calc R U
C11 C 0.8411(2) 0.06939(18) 0.81118(13) 0.0275(3) Uani 1 1 d . .
H11A H 0.7865 -0.0488 0.7569 0.033 Uiso 1 1 calc R U
H11B H 0.9791 0.0946 0.8518 0.033 Uiso 1 1 calc R U
C15 C -0.76905(19) 0.37590(18) 0.14309(15) 0.0286(3) Uani 1 1 d . .
H15A H -0.8130 0.2568 0.1182 0.043 Uiso 1 1 calc R U
H15B H -0.8625 0.4088 0.0883 0.043 Uiso 1 1 calc R U
H15C H -0.7532 0.4281 0.2373 0.043 Uiso 1 1 calc R U
C12 C 0.80595(18) 0.16848(17) 0.72009(13) 0.0238(3) Uani 1 1 d . .
H12A H 0.8921 0.2826 0.7654 0.029 Uiso 1 1 calc R U
H12B H 0.8312 0.1199 0.6367 0.029 Uiso 1 1 calc R U
C10 C 0.75329(19) 0.10767(18) 0.92139(13) 0.0261(3) Uani 1 1 d . .
H10A H 0.8031 0.2267 0.9732 0.031 Uiso 1 1 calc R U
H10B H 0.7898 0.0503 0.9827 0.031 Uiso 1 1 calc R U
loop_
_atom_site_aniso_label
_atom_site_aniso_U_11
_atom_site_aniso_U_22
_atom_site_aniso_U_33
_atom_site_aniso_U_23
_atom_site_aniso_U_13
_atom_site_aniso_U_12
O2 0.0183(5) 0.0270(5) 0.0240(5) 0.0143(4) 0.0078(4) 0.0092(4)
N1 0.0199(5) 0.0207(5) 0.0204(5) 0.0085(4) 0.0085(4) 0.0067(4)
O1 0.0246(5) 0.0309(5) 0.0277(5) 0.0163(4) 0.0113(4) 0.0092(4)
C4 0.0234(7) 0.0239(7) 0.0218(6) 0.0086(5) 0.0090(5) 0.0083(5)
C3 0.0211(6) 0.0222(7) 0.0209(6) 0.0071(5) 0.0078(5) 0.0065(5)
C5 0.0228(7) 0.0217(6) 0.0195(6) 0.0060(5) 0.0067(5) 0.0068(5)
C1 0.0201(6) 0.0191(6) 0.0202(6) 0.0056(5) 0.0067(5) 0.0063(5)
C14 0.0204(6) 0.0232(6) 0.0223(6) 0.0102(5) 0.0047(5) 0.0099(5)
C6 0.0196(6) 0.0212(6) 0.0200(6) 0.0075(5) 0.0064(5) 0.0075(5)
C13 0.0199(6) 0.0172(6) 0.0182(6) 0.0053(5) 0.0059(5) 0.0056(5)
C7 0.0191(6) 0.0212(6) 0.0220(6) 0.0086(5) 0.0070(5) 0.0063(5)
C9 0.0239(7) 0.0240(7) 0.0221(6) 0.0109(5) 0.0075(5) 0.0081(5)
C2 0.0206(6) 0.0256(7) 0.0236(6) 0.0100(5) 0.0088(5) 0.0073(5)
C8 0.0190(6) 0.0178(6) 0.0200(6) 0.0070(5) 0.0054(5) 0.0057(5)
C16 0.0289(7) 0.0274(7) 0.0224(6) 0.0109(5) 0.0112(6) 0.0053(6)
C11 0.0252(7) 0.0351(8) 0.0241(6) 0.0098(6) 0.0065(6) 0.0159(6)
C15 0.0192(7) 0.0321(8) 0.0353(7) 0.0136(6) 0.0086(6) 0.0081(6)
C12 0.0193(6) 0.0276(7) 0.0249(6) 0.0082(5) 0.0081(5) 0.0085(5)
C10 0.0255(7) 0.0319(7) 0.0216(6) 0.0094(5) 0.0059(5) 0.0127(6)
loop_
_atom_type_symbol
_atom_type_description
_atom_type_scat_dispersion_real
_atom_type_scat_dispersion_imag
_atom_type_scat_source
C C 0.0033 0.0016 'International Tables Vol C Tables 4.2.6.8 and 6.1.1.4'
H H 0.0000 0.0000 'International Tables Vol C Tables 4.2.6.8 and 6.1.1.4'
N N 0.0061 0.0033 'International Tables Vol C Tables 4.2.6.8 and 6.1.1.4'
O O 0.0106 0.0060 'International Tables Vol C Tables 4.2.6.8 and 6.1.1.4'
loop_
_geom_angle_atom_site_label_1
_geom_angle_atom_site_label_2
_geom_angle_atom_site_label_3
_geom_angle
C1 O2 C14 115.13(10)
C13 N1 C6 108.48(11)
C13 N1 C16 125.24(11)
C6 N1 C16 126.26(11)
C5 C4 C3 179.05(15)
C2 C3 C4 178.95(15)
C4 C5 C6 178.65(13)
O1 C1 O2 125.14(12)
O1 C1 C2 123.44(12)
O2 C1 C2 111.41(11)
O2 C14 C15 107.28(11)
O2 C14 H14A 110.3
C15 C14 H14A 110.3
O2 C14 H14B 110.3
C15 C14 H14B 110.3
H14A C14 H14B 108.5
N1 C6 C7 107.74(11)
N1 C6 C5 122.83(11)
C7 C6 C5 129.41(12)
N1 C13 C8 108.82(11)
N1 C13 C12 125.01(11)
C8 C13 C12 126.17(12)
C6 C7 C8 107.51(12)
C6 C7 H7 126.2
C8 C7 H7 126.2
C8 C9 C10 110.01(11)
C8 C9 H9A 109.7
C10 C9 H9A 109.7
C8 C9 H9B 109.7
C10 C9 H9B 109.7
H9A C9 H9B 108.2
C3 C2 C1 176.64(13)
C13 C8 C7 107.45(11)
C13 C8 C9 122.13(12)
C7 C8 C9 130.41(12)
N1 C16 H16A 109.5
N1 C16 H16B 109.5
H16A C16 H16B 109.5
N1 C16 H16C 109.5
H16A C16 H16C 109.5
H16B C16 H16C 109.5
C10 C11 C12 111.97(11)
C10 C11 H11A 109.2
C12 C11 H11A 109.2
C10 C11 H11B 109.2
C12 C11 H11B 109.2
H11A C11 H11B 107.9
C14 C15 H15A 109.5
C14 C15 H15B 109.5
H15A C15 H15B 109.5
C14 C15 H15C 109.5
H15A C15 H15C 109.5
H15B C15 H15C 109.5
C13 C12 C11 108.79(11)
C13 C12 H12A 109.9
C11 C12 H12A 109.9
C13 C12 H12B 109.9
C11 C12 H12B 109.9
H12A C12 H12B 108.3
C11 C10 C9 111.23(11)
C11 C10 H10A 109.4
C9 C10 H10A 109.4
C11 C10 H10B 109.4
C9 C10 H10B 109.4
H10A C10 H10B 108.0
loop_
_geom_bond_atom_site_label_1
_geom_bond_atom_site_label_2
_geom_bond_distance
O2 C1 1.3346(16)
O2 C14 1.4616(15)
N1 C13 1.3659(16)
N1 C6 1.3873(16)
N1 C16 1.4570(17)
O1 C1 1.2090(16)
C4 C5 1.2094(18)
C4 C3 1.3673(19)
C3 C2 1.2034(18)
C5 C6 1.4041(18)
C1 C2 1.4490(18)
C14 C15 1.4975(19)
C14 H14A 0.9900
C14 H14B 0.9900
C6 C7 1.3931(18)
C13 C8 1.3850(17)
C13 C12 1.4921(18)
C7 C8 1.3997(18)
C7 H7 0.9500
C9 C8 1.5021(17)
C9 C10 1.5283(19)
C9 H9A 0.9900
C9 H9B 0.9900
C16 H16A 0.9800
C16 H16B 0.9800
C16 H16C 0.9800
C11 C10 1.5280(19)
C11 C12 1.542(2)
C11 H11A 0.9900
C11 H11B 0.9900
C15 H15A 0.9800
C15 H15B 0.9800
C15 H15C 0.9800
C12 H12A 0.9900
C12 H12B 0.9900
C10 H10A 0.9900
C10 H10B 0.9900
loop_
_geom_torsion_atom_site_label_1
_geom_torsion_atom_site_label_2
_geom_torsion_atom_site_label_3
_geom_torsion_atom_site_label_4
_geom_torsion
C14 O2 C1 O1 1.10(18)
C14 O2 C1 C2 -178.10(10)
C1 O2 C14 C15 -178.34(10)
C13 N1 C6 C7 -0.08(14)
C16 N1 C6 C7 178.64(12)
C13 N1 C6 C5 178.28(11)
C16 N1 C6 C5 -3.00(19)
C6 N1 C13 C8 -0.32(14)
C16 N1 C13 C8 -179.06(11)
C6 N1 C13 C12 -179.99(11)
C16 N1 C13 C12 1.3(2)
N1 C6 C7 C8 0.44(14)
C5 C6 C7 C8 -177.78(13)
N1 C13 C8 C7 0.59(14)
C12 C13 C8 C7 -179.74(12)
N1 C13 C8 C9 -178.26(11)
C12 C13 C8 C9 1.4(2)
C6 C7 C8 C13 -0.63(14)
C6 C7 C8 C9 178.08(13)
C10 C9 C8 C13 16.47(17)
C10 C9 C8 C7 -162.09(13)
N1 C13 C12 C11 -168.27(11)
C8 C13 C12 C11 12.12(18)
C10 C11 C12 C13 -43.66(15)
C12 C11 C10 C9 64.68(15)
C8 C9 C10 C11 -47.91(15)
loop_
_publcif_info_exptl_table_extra_item
sin_theta_over_lambda_max
