#------------------------------------------------------------------------------
#$Date: 2016-02-13 14:50:18 +0200 (Sat, 13 Feb 2016) $
#$Revision: 176428 $
#$URL: svn://www.crystallography.net/cod/cif/7/22/11/7221185.cif $
#------------------------------------------------------------------------------
#
# This file is available in the Crystallography Open Database (COD),
# http://www.crystallography.net/
#
# All data on this site have been placed in the public domain by the
# contributors.
#
data_7221185
loop_
_publ_author_name
'Yin, Xin'
'Wu, Jin-Ting'
'Jin, Xin'
'Xu, Cai-Xia'
'He, Piao'
'Li, Tong'
'Wang, Kun'
'Qin, Jian'
'Zhang, Jian-Guo'
_publ_section_title
;
 Nitrogen-rich salts of 1-aminotetrazol-5-one: oxygen-containing
 insensitive energetic materials with high thermal stability
;
_journal_issue                   74
_journal_name_full               'RSC Adv.'
_journal_page_first              60005
_journal_paper_doi               10.1039/C5RA07649H
_journal_volume                  5
_journal_year                    2015
_chemical_formula_sum            'C H3 N5 O'
_chemical_formula_weight         101.08
_chemical_name_systematic
; 
 ? 
;
_space_group_IT_number           61
_symmetry_cell_setting           orthorhombic
_symmetry_space_group_name_Hall  '-P 2ac 2ab'
_symmetry_space_group_name_H-M   'P b c a'
_atom_sites_solution_hydrogens   geom
_atom_sites_solution_primary     direct
_atom_sites_solution_secondary   difmap
_audit_creation_method           SHELXL-97
_audit_update_record
;
2014-08-11 deposited with the CCDC.
2015-07-06 downloaded from the CCDC.
;
_cell_angle_alpha                90.00
_cell_angle_beta                 90.00
_cell_angle_gamma                90.00
_cell_formula_units_Z            8
_cell_length_a                   9.8873(7)
_cell_length_b                   5.5314(3)
_cell_length_c                   13.6734(9)
_cell_measurement_reflns_used    1079
_cell_measurement_temperature    298(2)
_cell_measurement_theta_max      25.636
_cell_measurement_theta_min      2.962
_cell_volume                     747.81(8)
_computing_cell_refinement       'Bruker SMART'
_computing_data_collection       'Bruker SMART'
_computing_data_reduction        'Bruker SAINT'
_computing_molecular_graphics    'Bruker SHELXTL'
_computing_publication_material  'Bruker SHELXTL'
_computing_structure_refinement  'SHELXL-97 (Sheldrick, 1997)'
_computing_structure_solution    'SHELXS-97 (Sheldrick, 1990)'
_diffrn_ambient_temperature      298(2)
_diffrn_measured_fraction_theta_full 0.995
_diffrn_measured_fraction_theta_max 0.995
_diffrn_measurement_device_type  'CCD area detector'
_diffrn_measurement_method       'phi and omega scans'
_diffrn_radiation_monochromator  graphite
_diffrn_radiation_source         'fine-focus sealed tube'
_diffrn_radiation_type           MoK\a
_diffrn_radiation_wavelength     0.71073
_diffrn_reflns_av_R_equivalents  0.0557
_diffrn_reflns_av_sigmaI/netI    0.0477
_diffrn_reflns_limit_h_max       13
_diffrn_reflns_limit_h_min       -11
_diffrn_reflns_limit_k_max       7
_diffrn_reflns_limit_k_min       -7
_diffrn_reflns_limit_l_max       18
_diffrn_reflns_limit_l_min       -14
_diffrn_reflns_number            4355
_diffrn_reflns_theta_full        28.61
_diffrn_reflns_theta_max         28.61
_diffrn_reflns_theta_min         2.98
_exptl_absorpt_coefficient_mu    0.154
_exptl_absorpt_correction_T_max  0.9758
_exptl_absorpt_correction_T_min  0.9452
_exptl_absorpt_correction_type   multi-scan
_exptl_absorpt_process_details   sadabs
_exptl_crystal_density_diffrn    1.796
_exptl_crystal_density_method    'not measured'
_exptl_crystal_F_000             416
_exptl_crystal_size_max          0.37
_exptl_crystal_size_mid          0.35
_exptl_crystal_size_min          0.16
_refine_diff_density_max         0.233
_refine_diff_density_min         -0.218
_refine_diff_density_rms         0.053
_refine_ls_extinction_method     none
_refine_ls_goodness_of_fit_ref   1.035
_refine_ls_hydrogen_treatment    mixed
_refine_ls_matrix_type           full
_refine_ls_number_parameters     64
_refine_ls_number_reflns         954
_refine_ls_number_restraints     0
_refine_ls_restrained_S_all      1.035
_refine_ls_R_factor_all          0.0761
_refine_ls_R_factor_gt           0.0415
_refine_ls_shift/su_max          0.000
_refine_ls_shift/su_mean         0.000
_refine_ls_structure_factor_coef Fsqd
_refine_ls_weighting_details
'calc w=1/[\s^2^(Fo^2^)+(0.0427P)^2^+0.2398P] where P=(Fo^2^+2Fc^2^)/3'
_refine_ls_weighting_scheme      calc
_refine_ls_wR_factor_gt          0.0928
_refine_ls_wR_factor_ref         0.1140
_reflns_number_gt                608
_reflns_number_total             954
_reflns_threshold_expression     >2sigma(I)
_cod_data_source_file            c5ra07649h2.cif
_cod_data_source_block           140507g
_cod_depositor_comments
;
The following automatic conversions were performed:

'_symmetry_cell_setting' value 'Orthorhombic' changed to
'orthorhombic' according to
/usr/data/users/saulius/crontab/automatic-downloads/rss-feeds/RSC/lib/dictionaries/cif_core.dic
dictionary named 'cif_core.dic' version 2.4.2 from 2011-04-26.

Automatic conversion script
Id: cif_fix_values 3271 2015-04-21 07:52:19Z andrius 
;
_cod_original_sg_symbol_H-M      Pbca
_cod_database_code               7221185
loop_
_symmetry_equiv_pos_as_xyz
'x, y, z'
'-x+1/2, -y, z+1/2'
'-x, y+1/2, -z+1/2'
'x+1/2, -y+1/2, -z'
'-x, -y, -z'
'x-1/2, y, -z-1/2'
'x, -y-1/2, z-1/2'
'-x-1/2, y-1/2, z'
loop_
_atom_site_label
_atom_site_type_symbol
_atom_site_fract_x
_atom_site_fract_y
_atom_site_fract_z
_atom_site_U_iso_or_equiv
_atom_site_adp_type
_atom_site_occupancy
_atom_site_symmetry_multiplicity
_atom_site_calc_flag
_atom_site_refinement_flags
N1 N 0.96247(14) 0.9395(3) 0.65764(10) 0.0285(4) Uani 1 1 d .
N2 N 1.08195(15) 1.0555(3) 0.65180(12) 0.0358(4) Uani 1 1 d .
N3 N 1.15469(16) 0.9438(3) 0.58978(12) 0.0404(5) Uani 1 1 d .
N4 N 1.08236(15) 0.7556(3) 0.55565(12) 0.0341(4) Uani 1 1 d .
H4 H 1.1108 0.6560 0.5119 0.041 Uiso 1 1 calc R
N5 N 0.86560(16) 1.0191(3) 0.72299(11) 0.0346(4) Uani 1 1 d .
H5B H 0.8528 0.9066 0.7686 0.052 Uiso 1 1 d R
H5C H 0.7884 1.0449 0.6912 0.052 Uiso 1 1 d R
O1 O 0.86817(13) 0.5970(3) 0.58754(9) 0.0403(4) Uani 1 1 d .
C1 C 0.96010(17) 0.7427(3) 0.59848(12) 0.0287(4) Uani 1 1 d .
loop_
_atom_site_aniso_label
_atom_site_aniso_U_11
_atom_site_aniso_U_22
_atom_site_aniso_U_33
_atom_site_aniso_U_23
_atom_site_aniso_U_13
_atom_site_aniso_U_12
N1 0.0272(8) 0.0300(9) 0.0282(8) -0.0044(7) 0.0004(6) -0.0003(6)
N2 0.0314(9) 0.0367(10) 0.0392(9) -0.0070(8) -0.0002(7) -0.0055(7)
N3 0.0339(9) 0.0426(11) 0.0447(10) -0.0079(8) 0.0033(7) -0.0053(8)
N4 0.0323(9) 0.0358(10) 0.0343(8) -0.0096(8) 0.0035(7) -0.0016(7)
N5 0.0319(9) 0.0402(10) 0.0317(8) -0.0042(7) 0.0028(7) 0.0054(7)
O1 0.0358(8) 0.0437(9) 0.0413(8) -0.0136(7) 0.0069(6) -0.0122(7)
C1 0.0284(9) 0.0309(10) 0.0269(9) -0.0017(8) -0.0012(7) 0.0006(8)
loop_
_atom_type_symbol
_atom_type_description
_atom_type_scat_dispersion_real
_atom_type_scat_dispersion_imag
_atom_type_scat_source
C C 0.0033 0.0016 'International Tables Vol C Tables 4.2.6.8 and 6.1.1.4'
H H 0.0000 0.0000 'International Tables Vol C Tables 4.2.6.8 and 6.1.1.4'
N N 0.0061 0.0033 'International Tables Vol C Tables 4.2.6.8 and 6.1.1.4'
O O 0.0106 0.0060 'International Tables Vol C Tables 4.2.6.8 and 6.1.1.4'
loop_
_geom_angle_atom_site_label_1
_geom_angle_atom_site_label_2
_geom_angle_atom_site_label_3
_geom_angle
N2 N1 C1 111.23(14)
N2 N1 N5 119.65(14)
C1 N1 N5 129.00(15)
N3 N2 N1 107.70(15)
N2 N3 N4 107.84(15)
C1 N4 N3 111.56(16)
C1 N4 H4 124.2
N3 N4 H4 124.2
N1 N5 H5B 109.2
N1 N5 H5C 109.2
H5B N5 H5C 109.5
O1 C1 N4 130.49(17)
O1 C1 N1 127.88(17)
N4 C1 N1 101.63(15)
loop_
_geom_bond_atom_site_label_1
_geom_bond_atom_site_label_2
_geom_bond_distance
N1 N2 1.347(2)
N1 C1 1.357(2)
N1 N5 1.3818(19)
N2 N3 1.272(2)
N3 N4 1.347(2)
N4 C1 1.345(2)
N4 H4 0.8600
N5 H5B 0.8900
N5 H5C 0.8900
O1 C1 1.224(2)
loop_
_geom_torsion_atom_site_label_1
_geom_torsion_atom_site_label_2
_geom_torsion_atom_site_label_3
_geom_torsion_atom_site_label_4
_geom_torsion
C1 N1 N2 N3 1.4(2)
N5 N1 N2 N3 177.65(15)
N1 N2 N3 N4 -0.1(2)
N2 N3 N4 C1 -1.3(2)
N3 N4 C1 O1 -179.03(19)
N3 N4 C1 N1 2.0(2)
N2 N1 C1 O1 178.95(18)
N5 N1 C1 O1 3.2(3)
N2 N1 C1 N4 -2.05(19)
N5 N1 C1 N4 -177.84(17)
