#------------------------------------------------------------------------------
#$Date: 2016-02-13 14:50:18 +0200 (Sat, 13 Feb 2016) $
#$Revision: 176428 $
#$URL: svn://www.crystallography.net/cod/cif/7/22/17/7221761.cif $
#------------------------------------------------------------------------------
#
# This file is available in the Crystallography Open Database (COD),
# http://www.crystallography.net/
#
# All data on this site have been placed in the public domain by the
# contributors.
#
data_7221761
loop_
_publ_author_name
'Martins, M. A. P.'
'Meyer, A. R.'
'Tier, A. Z.'
'Longhi, K.'
'Ducati, L. C.'
'Bonacorso, H. G.'
'Zanatta, N.'
'Frizzo, C. P.'
_publ_section_title
;
 Proposal for crystallization of 3-amino-4-halo-5-methylisoxazoles: an
 energetic and topological approach
;
_journal_issue                   38
_journal_name_full               CrystEngComm
_journal_page_first              7381
_journal_paper_doi               10.1039/C5CE01295C
_journal_volume                  17
_journal_year                    2015
_chemical_formula_moiety         'C4 H5 I N2 O'
_chemical_formula_sum            'C4 H5 I N2 O'
_chemical_formula_weight         224
_chemical_melting_point          ?
_chemical_name_common            4-iodo-5-methylisoxazol-3-amine
_chemical_name_systematic
;
        4-iodo-5-methylisoxazol-3-amine
;
_space_group_IT_number           2
_symmetry_cell_setting           triclinic
_symmetry_space_group_name_Hall  '-P 1'
_symmetry_space_group_name_H-M   'P -1'
_atom_sites_solution_hydrogens   geom
_atom_sites_solution_primary     direct
_atom_sites_solution_secondary   difmap
_audit_block_doi                 10.5517/cc12bzr4
_audit_conform_dict_location     ftp://ftp.iucr.org/pub/cif_core.dic
_audit_conform_dict_name         cif_core.dic
_audit_conform_dict_version      2.3
_audit_creation_date             2012-09-18T09:36:02-00:00
_audit_creation_method           'WinGX routine CIF_UPDATE'
_audit_update_record
;
2014-03-25 deposited with the CCDC.
2015-08-10 downloaded from the CCDC.
;
_cell_angle_alpha                96.998(3)
_cell_angle_beta                 100.396(3)
_cell_angle_gamma                113.411(3)
_cell_formula_units_Z            2
_cell_length_a                   6.5261(3)
_cell_length_b                   7.3488(3)
_cell_length_c                   7.6401(3)
_cell_measurement_reflns_used    3700
_cell_measurement_temperature    296(2)
_cell_measurement_theta_max      25.102
_cell_measurement_theta_min      3.0925
_cell_volume                     323.04(3)
_computing_cell_refinement       'BRUKER SANT'
_computing_data_collection       'BRUKER APEX-II'
_computing_data_reduction        'BRUKER SOFTWARE'
_computing_molecular_graphics    'ORTEP-3 (Farrugia, 2000)'
_computing_publication_material  'SHELXL-97 (Sheldrick, 1997)'
_computing_structure_refinement  'SHELXL-97 (Sheldrick, 2008)'
_computing_structure_solution    'SHELXL97 (Sheldrick, 1997)'
_diffrn_ambient_temperature      293(2)
_diffrn_detector_area_resol_mean none
_diffrn_measured_fraction_theta_full 0.999
_diffrn_measured_fraction_theta_max 0.999
_diffrn_measurement_device_type  'X8 APEX II'
_diffrn_measurement_method       'phi and omega scans'
_diffrn_radiation_monochromator  graphite
_diffrn_radiation_type           MoK\a
_diffrn_radiation_wavelength     0.71073
_diffrn_reflns_av_R_equivalents  0.0275
_diffrn_reflns_av_unetI/netI     0.0182
_diffrn_reflns_limit_h_max       8
_diffrn_reflns_limit_h_min       -8
_diffrn_reflns_limit_k_max       9
_diffrn_reflns_limit_k_min       -9
_diffrn_reflns_limit_l_max       9
_diffrn_reflns_limit_l_min       -9
_diffrn_reflns_number            9332
_diffrn_reflns_theta_full        27.13
_diffrn_reflns_theta_max         27.13
_diffrn_reflns_theta_min         2.78
_diffrn_standards_decay_%        none
_diffrn_standards_interval_count none
_diffrn_standards_interval_time  none
_diffrn_standards_number         none
_exptl_absorpt_coefficient_mu    4.861
_exptl_absorpt_correction_T_max  0.5292
_exptl_absorpt_correction_T_min  0.4011
_exptl_absorpt_correction_type   gaussian
_exptl_absorpt_process_details   XPREP
_exptl_crystal_colour            colourless
_exptl_crystal_density_diffrn    2.303
_exptl_crystal_density_method    'not measured'
_exptl_crystal_description       block
_exptl_crystal_F_000             208
_exptl_crystal_size_max          0.23
_exptl_crystal_size_mid          0.16
_exptl_crystal_size_min          0.15
_refine_diff_density_max         0.358
_refine_diff_density_min         -0.719
_refine_diff_density_rms         0.101
_refine_ls_extinction_coef       none
_refine_ls_extinction_method     none
_refine_ls_goodness_of_fit_ref   1.077
_refine_ls_hydrogen_treatment    constr
_refine_ls_matrix_type           full
_refine_ls_number_parameters     73
_refine_ls_number_reflns         1432
_refine_ls_number_restraints     0
_refine_ls_restrained_S_all      1.077
_refine_ls_R_factor_all          0.0256
_refine_ls_R_factor_gt           0.0219
_refine_ls_shift/su_max          0
_refine_ls_shift/su_mean         0
_refine_ls_structure_factor_coef Fsqd
_refine_ls_weighting_details
'calc w=1/[\s^2^(Fo^2^)+(0.0298P)^2^+0.0242P] where P=(Fo^2^+2Fc^2^)/3'
_refine_ls_weighting_scheme      calc
_refine_ls_wR_factor_gt          0.0511
_refine_ls_wR_factor_ref         0.0531
_reflns_number_gt                1291
_reflns_number_total             1432
_reflns_threshold_expression     >2sigma(I)
_cod_data_source_file            c5ce01295c2.cif
_cod_data_source_block           teste1
_cod_depositor_comments
;
The following automatic conversions were performed:

'_chemical_melting_point' value 'none' was changed to '?' - the value
is undefined or not given.

Automatic conversion script
Id: cif_fix_values 3271 2015-04-21 07:52:19Z andrius 

 Adding full bibliography for 7221761--7221763.cif.
;
_cod_original_cell_volume        323.04(2)
_cod_original_sg_symbol_Hall     -P1
_cod_original_sg_symbol_H-M      P-1
_cod_database_code               7221761
loop_
_symmetry_equiv_pos_as_xyz
'x, y, z'
'-x, -y, -z'
loop_
_atom_site_label
_atom_site_type_symbol
_atom_site_fract_x
_atom_site_fract_y
_atom_site_fract_z
_atom_site_U_iso_or_equiv
_atom_site_adp_type
_atom_site_occupancy
_atom_site_symmetry_multiplicity
_atom_site_calc_flag
_atom_site_refinement_flags
I1 I 0.51287(3) 0.35436(3) 0.71091(3) 0.05163(10) Uani 1 1 d .
O1 O 0.4707(4) -0.2151(3) 0.7884(3) 0.0506(5) Uani 1 1 d .
C4 C 0.5460(5) 0.0978(4) 0.7596(3) 0.0369(6) Uani 1 1 d .
N2 N 0.7118(4) -0.0973(4) 0.8687(4) 0.0514(7) Uani 1 1 d .
N31 N 0.9620(4) 0.2467(5) 0.9148(4) 0.0624(8) Uani 1 1 d .
H31A H 1.0763 0.2277 0.9705 0.075 Uiso 1 1 calc R
H31B H 0.9817 0.3663 0.9003 0.075 Uiso 1 1 calc R
C5 C 0.3812(5) -0.0919(5) 0.7251(4) 0.0400(6) Uani 1 1 d .
C3 C 0.7512(5) 0.0886(5) 0.8501(4) 0.0416(6) Uani 1 1 d .
C51 C 0.1307(5) -0.1869(5) 0.6347(5) 0.0555(8) Uani 1 1 d .
H51A H 0.0684 -0.3303 0.6301 0.083 Uiso 1 1 calc R
H51B H 0.1083 -0.164 0.5131 0.083 Uiso 1 1 calc R
H51C H 0.0536 -0.128 0.7023 0.083 Uiso 1 1 calc R
loop_
_atom_site_aniso_label
_atom_site_aniso_U_11
_atom_site_aniso_U_22
_atom_site_aniso_U_33
_atom_site_aniso_U_23
_atom_site_aniso_U_13
_atom_site_aniso_U_12
I1 0.04722(14) 0.04047(14) 0.07047(18) 0.02136(11) 0.00662(10) 0.02287(10)
O1 0.0512(12) 0.0383(12) 0.0633(14) 0.0116(10) 0.0066(10) 0.0234(10)
C4 0.0402(14) 0.0385(15) 0.0364(14) 0.0095(11) 0.0069(11) 0.0219(13)
N2 0.0481(15) 0.0490(16) 0.0614(17) 0.0129(13) 0.0029(12) 0.0294(13)
N31 0.0361(14) 0.0576(19) 0.085(2) 0.0207(15) -0.0052(13) 0.0182(13)
C5 0.0425(15) 0.0408(16) 0.0400(15) 0.0084(12) 0.0069(12) 0.0228(13)
C3 0.0400(15) 0.0449(17) 0.0426(15) 0.0090(13) 0.0058(12) 0.0230(14)
C51 0.0428(17) 0.0474(19) 0.067(2) 0.0099(16) 0.0050(15) 0.0145(15)
loop_
_atom_type_symbol
_atom_type_description
_atom_type_scat_dispersion_real
_atom_type_scat_dispersion_imag
_atom_type_scat_source
C C 0.0033 0.0016 'International Tables Vol C Tables 4.2.6.8 and 6.1.1.4'
H H 0 0 'International Tables Vol C Tables 4.2.6.8 and 6.1.1.4'
N N 0.0061 0.0033 'International Tables Vol C Tables 4.2.6.8 and 6.1.1.4'
O O 0.0106 0.006 'International Tables Vol C Tables 4.2.6.8 and 6.1.1.4'
I I -0.4742 1.8119 'International Tables Vol C Tables 4.2.6.8 and 6.1.1.4'
loop_
_citation_id
_citation_doi
_citation_year
1 10.1039/C4RA06040G 2014
loop_
_geom_angle_atom_site_label_1
_geom_angle_atom_site_label_2
_geom_angle_atom_site_label_3
_geom_angle
C5 O1 N2 108.5(2)
C5 C4 C3 105.3(3)
C5 C4 I1 128.3(2)
C3 C4 I1 126.3(2)
C3 N2 O1 104.8(2)
C3 N31 H31A 120
C3 N31 H31B 120
H31A N31 H31B 120
C4 C5 O1 110.1(2)
C4 C5 C51 133.2(3)
O1 C5 C51 116.8(3)
N2 C3 N31 122.4(3)
N2 C3 C4 111.3(3)
N31 C3 C4 126.3(3)
C5 C51 H51A 109.5
C5 C51 H51B 109.5
H51A C51 H51B 109.5
C5 C51 H51C 109.5
H51A C51 H51C 109.5
H51B C51 H51C 109.5
loop_
_geom_bond_atom_site_label_1
_geom_bond_atom_site_label_2
_geom_bond_distance
I1 C4 2.051(3)
O1 C5 1.348(3)
O1 N2 1.429(3)
C4 C5 1.337(4)
C4 C3 1.423(4)
N2 C3 1.317(4)
N31 C3 1.353(4)
N31 H31A 0.86
N31 H31B 0.86
C5 C51 1.485(4)
C51 H51A 0.96
C51 H51B 0.96
C51 H51C 0.96
loop_
_geom_torsion_atom_site_label_1
_geom_torsion_atom_site_label_2
_geom_torsion_atom_site_label_3
_geom_torsion_atom_site_label_4
_geom_torsion
C5 O1 N2 C3 0.5(3)
C3 C4 C5 O1 0.2(3)
I1 C4 C5 O1 -175.88(18)
C3 C4 C5 C51 -179.8(3)
I1 C4 C5 C51 4.1(5)
N2 O1 C5 C4 -0.4(3)
N2 O1 C5 C51 179.5(3)
O1 N2 C3 N31 178.2(3)
O1 N2 C3 C4 -0.4(3)
C5 C4 C3 N2 0.1(3)
I1 C4 C3 N2 176.3(2)
C5 C4 C3 N31 -178.4(3)
I1 C4 C3 N31 -2.2(4)
