#------------------------------------------------------------------------------
#$Date: 2015-12-09 14:32:02 +0200 (Wed, 09 Dec 2015) $
#$Revision: 171030 $
#$URL: svn://www.crystallography.net/cod/cif/7/22/17/7221745.cif $
#------------------------------------------------------------------------------
#
# This file is available in the Crystallography Open Database (COD),
# http://www.crystallography.net/
#
# All data on this site have been placed in the public domain by the
# contributors.
#
data_7221745
loop_
_publ_author_name
'Pan, F.'
'Puttreddy, R.'
'Rissanen, K.'
'Englert, U.'
_publ_section_title
;
 Synthesis of tetrahalide dianions directed by crystal engineering
;
_journal_issue                   35
_journal_name_full               CrystEngComm
_journal_page_first              6641
_journal_paper_doi               10.1039/C5CE01288K
_journal_volume                  17
_journal_year                    2015
_chemical_formula_moiety         'I, Br, C10 H11 N4 O2 S'
_chemical_formula_sum            'C10 H11 Br I N4 O2 S'
_chemical_formula_weight         458.10
_chemical_name_systematic
;
 ?
;
_space_group_crystal_system      triclinic
_space_group_IT_number           2
_space_group_name_Hall           '-P 1'
_space_group_name_H-M_alt        'P -1'
_symmetry_space_group_name_Hall  '-P 1'
_symmetry_space_group_name_H-M   'P -1'
_atom_sites_solution_hydrogens   difmap
_atom_sites_solution_primary     direct
_audit_creation_date             2015-04-10
_audit_creation_method
;
Olex2 1.2
(compiled 2014.05.21 svn.r2940 for OlexSys, GUI svn.r4846)
;
_audit_update_record
;
2015-06-30 deposited with the CCDC.
2015-08-10 downloaded from the CCDC.
;
_cell_angle_alpha                116.6971(6)
_cell_angle_beta                 91.7117(6)
_cell_angle_gamma                104.1699(7)
_cell_formula_units_Z            2
_cell_length_a                   5.7185(3)
_cell_length_b                   11.6440(6)
_cell_length_c                   12.3493(6)
_cell_measurement_temperature    100(2)
_cell_volume                     702.94(6)
_computing_molecular_graphics    'Olex2 (Dolomanov et al., 2009)'
_computing_publication_material  'Olex2 (Dolomanov et al., 2009)'
_computing_structure_refinement  'ShelXL (Sheldrick, 2008)'
_computing_structure_solution    'ShelXS (Sheldrick, 2008)'
_diffrn_ambient_temperature      100(2)
_diffrn_measured_fraction_theta_full 0.999
_diffrn_measured_fraction_theta_max 0.946
_diffrn_measurement_device_type  'SMART CCD area detector'
_diffrn_measurement_method       '\w scans'
_diffrn_radiation_monochromator  graphite
_diffrn_radiation_type           MoK\a
_diffrn_radiation_wavelength     0.71073
_diffrn_reflns_av_R_equivalents  0.0423
_diffrn_reflns_av_unetI/netI     0.0483
_diffrn_reflns_laue_measured_fraction_full 0.999
_diffrn_reflns_laue_measured_fraction_max 0.946
_diffrn_reflns_limit_h_max       8
_diffrn_reflns_limit_h_min       -12
_diffrn_reflns_limit_k_max       25
_diffrn_reflns_limit_k_min       -25
_diffrn_reflns_limit_l_max       27
_diffrn_reflns_limit_l_min       -27
_diffrn_reflns_number            32221
_diffrn_reflns_point_group_measured_fraction_full 0.999
_diffrn_reflns_point_group_measured_fraction_max 0.946
_diffrn_reflns_theta_full        26.000
_diffrn_reflns_theta_max         52.314
_diffrn_reflns_theta_min         3.313
_exptl_absorpt_coefficient_mu    5.271
_exptl_absorpt_correction_T_max  0.7503
_exptl_absorpt_correction_T_min  0.5431
_exptl_absorpt_correction_type   multi-scan
_exptl_absorpt_process_details   SADABS
_exptl_crystal_colour            brown
_exptl_crystal_colour_primary    brown
_exptl_crystal_density_diffrn    2.164
_exptl_crystal_description       needle
_exptl_crystal_F_000             438
_exptl_crystal_recrystallization_method
'Re-crystallisation from solvent: MeOH'
_exptl_crystal_size_max          0.2
_exptl_crystal_size_mid          0.08
_exptl_crystal_size_min          0.03
_refine_diff_density_max         3.150
_refine_diff_density_min         -1.933
_refine_diff_density_rms         0.184
_refine_ls_extinction_method     none
_refine_ls_goodness_of_fit_ref   0.983
_refine_ls_hydrogen_treatment    refxyz
_refine_ls_matrix_type           full
_refine_ls_number_parameters     205
_refine_ls_number_reflns         15396
_refine_ls_number_restraints     0
_refine_ls_restrained_S_all      0.983
_refine_ls_R_factor_all          0.0555
_refine_ls_R_factor_gt           0.0390
_refine_ls_shift/su_max          0.001
_refine_ls_shift/su_mean         0.000
_refine_ls_structure_factor_coef Fsqd
_refine_ls_weighting_details
'w=1/[\s^2^(Fo^2^)+(0.0392P)^2^] where P=(Fo^2^+2Fc^2^)/3'
_refine_ls_weighting_scheme      calc
_refine_ls_wR_factor_gt          0.0892
_refine_ls_wR_factor_ref         0.0965
_reflns_Friedel_coverage         0.000
_reflns_number_gt                11601
_reflns_number_total             15396
_reflns_threshold_expression     'I > 2\s(I)'
_cod_data_source_file            c5ce01288k2.cif
_cod_data_source_block           2a
_cod_depositor_comments
'Adding full bibliography for 7221744--7221750.cif.'
_cod_original_cell_volume        702.93(6)
_cod_database_code               7221745
_shelxl_version_number           2013-4
_shelx_space_group_comment
;
The symmetry employed for this shelxl refinement is uniquely defined
by the following loop, which should always be used as a source of
symmetry information in preference to the above space-group names.
They are only intended as comments.
;
_shelx_estimated_absorpt_t_max   0.858
_shelx_estimated_absorpt_t_min   0.419
_olex2_refinement_description
;
1. Fixed Uiso
 At 1.2 times of:
  All C(H) groups, All N(H) groups, All N(H,H,H) groups
;
_olex2_submission_special_instructions 'No special instructions were received'
loop_
_space_group_symop_operation_xyz
'x, y, z'
'-x, -y, -z'
loop_
_atom_site_label
_atom_site_type_symbol
_atom_site_fract_x
_atom_site_fract_y
_atom_site_fract_z
_atom_site_U_iso_or_equiv
_atom_site_adp_type
_atom_site_occupancy
_atom_site_site_symmetry_order
_atom_site_calc_flag
_atom_site_refinement_flags_posn
_atom_site_disorder_assembly
_atom_site_disorder_group
I1 I 0.58670(2) 0.49731(2) 0.10306(2) 0.01803(2) Uani 1 1 d . A 1
Br1 Br 0.73467(2) 0.48085(2) 0.35361(2) 0.01286(2) Uani 1 1 d . . .
S1 S 0.65234(6) 1.05216(3) 0.27278(3) 0.01023(4) Uani 1 1 d . . .
O1 O 0.4847(2) 1.13359(10) 0.31024(10) 0.01407(15) Uani 1 1 d . . .
O2 O 0.90558(19) 1.12122(11) 0.32689(10) 0.01508(16) Uani 1 1 d . . .
N1 N 0.6984(2) 0.87734(11) -0.06549(10) 0.01159(15) Uani 1 1 d . . .
H1 H 0.590(4) 0.920(2) -0.091(2) 0.014 Uiso 1 1 d R . .
N2 N 0.8863(2) 0.85753(12) 0.09559(11) 0.01331(16) Uani 1 1 d . . .
N3 N 0.6019(2) 0.98487(11) 0.12561(10) 0.01152(15) Uani 1 1 d . . .
N4 N 0.3318(2) 0.64853(11) 0.45163(12) 0.01295(16) Uani 1 1 d . . .
H4A H 0.369(4) 0.694(2) 0.530(2) 0.016 Uiso 1 1 d R . .
H4B H 0.170(4) 0.600(2) 0.429(2) 0.016 Uiso 1 1 d R . .
H4C H 0.425(4) 0.591(2) 0.428(2) 0.016 Uiso 1 1 d R . .
C1 C 0.7324(2) 0.90688(12) 0.05588(11) 0.01045(16) Uani 1 1 d . . .
C2 C 0.8163(2) 0.80052(13) -0.14801(13) 0.01328(18) Uani 1 1 d . . .
H2 H 0.782(4) 0.781(2) -0.223(2) 0.016 Uiso 1 1 d R . .
C3 C 0.9744(3) 0.74894(15) -0.11061(14) 0.0154(2) Uani 1 1 d . . .
H3 H 1.066(4) 0.697(2) -0.168(2) 0.019 Uiso 1 1 d R . .
C4 C 1.0006(3) 0.78071(14) 0.01340(14) 0.0151(2) Uani 1 1 d . . .
H4 H 1.110(4) 0.748(2) 0.043(2) 0.018 Uiso 1 1 d R . .
C5 C 0.5561(2) 0.92606(12) 0.31807(11) 0.01054(16) Uani 1 1 d . . .
C6 C 0.3087(2) 0.85722(13) 0.29572(13) 0.01248(18) Uani 1 1 d . . .
H6 H 0.194(4) 0.880(2) 0.261(2) 0.015 Uiso 1 1 d R . .
C7 C 0.2343(2) 0.76295(13) 0.33732(13) 0.01289(18) Uani 1 1 d . . .
H7 H 0.068(4) 0.711(2) 0.321(2) 0.015 Uiso 1 1 d R . .
C8 C 0.4073(2) 0.74363(12) 0.40344(12) 0.01085(16) Uani 1 1 d . . .
C9 C 0.6537(2) 0.81352(13) 0.42808(13) 0.01191(17) Uani 1 1 d . . .
H9 H 0.762(4) 0.799(2) 0.477(2) 0.014 Uiso 1 1 d R . .
C10 C 0.7282(2) 0.90439(13) 0.38321(12) 0.01192(17) Uani 1 1 d . . .
H10 H 0.881(4) 0.954(2) 0.395(2) 0.014 Uiso 1 1 d R . .
loop_
_atom_site_aniso_label
_atom_site_aniso_U_11
_atom_site_aniso_U_22
_atom_site_aniso_U_33
_atom_site_aniso_U_23
_atom_site_aniso_U_13
_atom_site_aniso_U_12
I1 0.01805(4) 0.01609(4) 0.01708(4) 0.00714(3) -0.00108(3) 0.00193(3)
Br1 0.01280(5) 0.01299(5) 0.01537(5) 0.00846(4) 0.00251(4) 0.00446(4)
S1 0.01104(10) 0.01101(10) 0.00999(10) 0.00636(8) 0.00056(8) 0.00275(8)
O1 0.0183(4) 0.0139(3) 0.0131(4) 0.0073(3) 0.0032(3) 0.0077(3)
O2 0.0125(3) 0.0167(4) 0.0149(4) 0.0094(3) -0.0019(3) -0.0011(3)
N1 0.0123(4) 0.0142(4) 0.0107(4) 0.0072(3) 0.0020(3) 0.0053(3)
N2 0.0135(4) 0.0157(4) 0.0139(4) 0.0086(3) 0.0010(3) 0.0063(3)
N3 0.0124(4) 0.0145(4) 0.0097(3) 0.0068(3) 0.0014(3) 0.0051(3)
N4 0.0139(4) 0.0126(4) 0.0144(4) 0.0081(3) 0.0019(3) 0.0037(3)
C1 0.0100(4) 0.0120(4) 0.0111(4) 0.0070(3) 0.0009(3) 0.0033(3)
C2 0.0133(4) 0.0154(4) 0.0125(4) 0.0074(4) 0.0028(4) 0.0046(4)
C3 0.0154(5) 0.0176(5) 0.0154(5) 0.0075(4) 0.0038(4) 0.0085(4)
C4 0.0150(5) 0.0162(5) 0.0161(5) 0.0080(4) 0.0006(4) 0.0072(4)
C5 0.0101(4) 0.0119(4) 0.0110(4) 0.0068(3) 0.0005(3) 0.0029(3)
C6 0.0104(4) 0.0151(4) 0.0147(5) 0.0094(4) 0.0003(3) 0.0037(3)
C7 0.0107(4) 0.0145(4) 0.0156(5) 0.0095(4) 0.0001(4) 0.0026(3)
C8 0.0112(4) 0.0107(4) 0.0119(4) 0.0067(3) 0.0008(3) 0.0027(3)
C9 0.0105(4) 0.0135(4) 0.0144(5) 0.0090(4) -0.0002(3) 0.0032(3)
C10 0.0098(4) 0.0145(4) 0.0132(4) 0.0084(4) -0.0005(3) 0.0030(3)
loop_
_atom_type_symbol
_atom_type_description
_atom_type_scat_dispersion_real
_atom_type_scat_dispersion_imag
_atom_type_scat_source
C C 0.0033 0.0016 'International Tables Vol C Tables 4.2.6.8 and 6.1.1.4'
H H 0.0000 0.0000 'International Tables Vol C Tables 4.2.6.8 and 6.1.1.4'
N N 0.0061 0.0033 'International Tables Vol C Tables 4.2.6.8 and 6.1.1.4'
O O 0.0106 0.0060 'International Tables Vol C Tables 4.2.6.8 and 6.1.1.4'
S S 0.1246 0.1234 'International Tables Vol C Tables 4.2.6.8 and 6.1.1.4'
Br Br -0.2901 2.4595 'International Tables Vol C Tables 4.2.6.8 and 6.1.1.4'
I I -0.4742 1.8119 'International Tables Vol C Tables 4.2.6.8 and 6.1.1.4'
loop_
_geom_angle_atom_site_label_1
_geom_angle_atom_site_label_2
_geom_angle_atom_site_label_3
_geom_angle
O1 S1 N3 103.26(6)
O1 S1 C5 106.55(6)
O2 S1 O1 115.96(7)
O2 S1 N3 114.27(6)
O2 S1 C5 107.08(6)
N3 S1 C5 109.39(6)
C1 N1 H1 118.2(13)
C2 N1 H1 119.6(13)
C2 N1 C1 122.07(11)
C4 N2 C1 117.49(12)
C1 N3 S1 121.67(9)
H4A N4 H4B 111(2)
H4A N4 H4C 106(2)
H4B N4 H4C 109(2)
C8 N4 H4A 106.4(16)
C8 N4 H4B 115.1(14)
C8 N4 H4C 109.2(15)
N2 C1 N1 120.15(12)
N3 C1 N1 114.43(10)
N3 C1 N2 125.42(12)
N1 C2 H2 118.1(15)
N1 C2 C3 119.26(13)
C3 C2 H2 122.5(15)
C2 C3 H3 120.4(14)
C2 C3 C4 116.43(13)
C4 C3 H3 123.1(14)
N2 C4 C3 124.59(12)
N2 C4 H4 116.2(15)
C3 C4 H4 119.2(15)
C6 C5 S1 119.73(9)
C10 C5 S1 118.88(9)
C10 C5 C6 121.23(11)
C5 C6 H6 120.6(15)
C7 C6 C5 119.08(11)
C7 C6 H6 120.0(15)
C6 C7 H7 121.4(14)
C8 C7 C6 119.04(11)
C8 C7 H7 119.6(14)
C7 C8 N4 119.93(11)
C7 C8 C9 122.28(11)
C9 C8 N4 117.79(11)
C8 C9 H9 118.3(14)
C10 C9 C8 118.48(11)
C10 C9 H9 123.2(14)
C5 C10 H10 115.0(15)
C9 C10 C5 119.84(11)
C9 C10 H10 125.1(15)
loop_
_geom_bond_atom_site_label_1
_geom_bond_atom_site_label_2
_geom_bond_distance
_geom_bond_site_symmetry_2
I1 I1 2.7368(2) 2_665
S1 O1 1.4523(11) .
S1 O2 1.4421(10) .
S1 N3 1.6058(11) .
S1 C5 1.7698(12) .
N1 H1 1.00(2) .
N1 C1 1.3746(16) .
N1 C2 1.3457(18) .
N2 C1 1.3488(16) .
N2 C4 1.3295(19) .
N3 C1 1.3385(17) .
N4 H4A 0.85(2) .
N4 H4B 0.92(2) .
N4 H4C 0.91(2) .
N4 C8 1.4629(16) .
C2 H2 0.86(2) .
C2 C3 1.3718(19) .
C3 H3 0.96(2) .
C3 C4 1.398(2) .
C4 H4 0.95(2) .
C5 C6 1.3939(17) .
C5 C10 1.3914(16) .
C6 H6 0.92(2) .
C6 C7 1.3932(18) .
C7 H7 0.95(2) .
C7 C8 1.3863(17) .
C8 C9 1.3897(17) .
C9 H9 0.95(2) .
C9 C10 1.3886(17) .
C10 H10 0.89(2) .
loop_
_geom_hbond_atom_site_label_D
_geom_hbond_atom_site_label_H
_geom_hbond_atom_site_label_A
_geom_hbond_distance_DH
_geom_hbond_distance_HA
_geom_hbond_distance_DA
_geom_hbond_angle_DHA
_geom_hbond_site_symmetry_A
N1 H1 N3 1.00(2) 1.90(2) 2.9010(15) 174(2) 2_675
N4 H4A O1 0.85(2) 2.04(2) 2.8274(16) 154(2) 2_676
N4 H4B Br1 0.92(2) 2.45(2) 3.3618(12) 174(2) 1_455
N4 H4C Br1 0.91(2) 2.40(2) 3.2910(12) 165(2) .
loop_
_geom_torsion_atom_site_label_1
_geom_torsion_atom_site_label_2
_geom_torsion_atom_site_label_3
_geom_torsion_atom_site_label_4
_geom_torsion
S1 N3 C1 N1 -168.64(9)
S1 N3 C1 N2 11.78(18)
S1 C5 C6 C7 -176.83(11)
S1 C5 C10 C9 174.91(11)
O1 S1 N3 C1 176.30(10)
O1 S1 C5 C6 45.05(12)
O1 S1 C5 C10 -130.47(11)
O2 S1 N3 C1 49.46(12)
O2 S1 C5 C6 169.73(11)
O2 S1 C5 C10 -5.79(13)
N1 C2 C3 C4 0.2(2)
N3 S1 C5 C6 -65.94(12)
N3 S1 C5 C10 118.54(11)
N4 C8 C9 C10 -179.85(12)
C1 N1 C2 C3 0.50(19)
C1 N2 C4 C3 0.7(2)
C2 N1 C1 N2 -0.63(19)
C2 N1 C1 N3 179.77(12)
C2 C3 C4 N2 -0.9(2)
C4 N2 C1 N1 0.00(18)
C4 N2 C1 N3 179.57(13)
C5 S1 N3 C1 -70.55(11)
C5 C6 C7 C8 2.2(2)
C6 C5 C10 C9 -0.5(2)
C6 C7 C8 N4 177.88(13)
C6 C7 C8 C9 -1.1(2)
C7 C8 C9 C10 -0.9(2)
C8 C9 C10 C5 1.7(2)
C10 C5 C6 C7 -1.4(2)
