#------------------------------------------------------------------------------
#$Date: 2015-07-30 10:54:55 +0300 (Thu, 30 Jul 2015) $
#$Revision: 152637 $
#$URL: svn://www.crystallography.net/cod/cif/7/22/16/7221686.cif $
#------------------------------------------------------------------------------
#
# This file is available in the Crystallography Open Database (COD),
# http://www.crystallography.net/
#
# All data on this site have been placed in the public domain by the
# contributors.
#
data_7221686
loop_
_publ_author_name
'Hattori, Yohei'
'Kusamoto, Tetsuro'
'Nishihara, Hiroshi'
_publ_section_title
;
 Highly photostable luminescent open-shell
 (3,5-dihalo-4-pyridyl)bis(2,4,6-trichlorophenyl)methyl radicals:
 significant effects of halogen atoms on their photophysical and
 photochemical properties
;
_journal_issue                   79
_journal_name_full               'RSC Adv.'
_journal_page_first              64802
_journal_paper_doi               10.1039/C5RA14268G
_journal_volume                  5
_journal_year                    2015
_chemical_formula_moiety         'C18 H6 Br2 Cl6 N'
_chemical_formula_sum            'C18 H6 Br2 Cl6 N'
_chemical_formula_weight         608.78
_chemical_name_systematic
'(3,5-dibromo-4-pyridyl)bis(2,4,6-trichlorophenyl)methyl radical '
_space_group_IT_number           2
_symmetry_cell_setting           triclinic
_symmetry_Int_Tables_number      2
_symmetry_space_group_name_Hall  '-P 1'
_symmetry_space_group_name_H-M   'P -1'
_atom_sites_solution_hydrogens   geom
_atom_sites_solution_primary     direct
_atom_sites_solution_secondary   difmap
_audit_update_record
;
2015-04-10 deposited with the CCDC.
2015-07-29 downloaded from the CCDC.
;
_cell_angle_alpha                81.516(11)
_cell_angle_beta                 88.763(14)
_cell_angle_gamma                87.731(14)
_cell_formula_units_Z            2
_cell_length_a                   7.461(4)
_cell_length_b                   10.846(6)
_cell_length_c                   12.660(7)
_cell_measurement_reflns_used    2449
_cell_measurement_temperature    113
_cell_measurement_theta_max      27.47
_cell_measurement_theta_min      3.16
_cell_volume                     1012.3(10)
_computing_cell_refinement       CrystalClear
_computing_data_collection       'CrystalClear (Rigaku/MSC Inc., 2006)'
_computing_data_reduction        CrystalClear
_computing_molecular_graphics    'CrystalStructure 4.0'
_computing_publication_material  'CrystalStructure 4.0 (Rigaku, 2010)'
_computing_structure_refinement  'SHELXL97 (Sheldrick, 2008)'
_computing_structure_solution    'SIR92 (Altomare, et al., 1994)'
_diffrn_ambient_temperature      113
_diffrn_detector_area_resol_mean 7.111
_diffrn_measured_fraction_theta_full 0.944
_diffrn_measured_fraction_theta_max 0.944
_diffrn_measurement_device_type  'Rigaku Saturn724'
_diffrn_measurement_method       \w
_diffrn_radiation_type           'Mo K\a'
_diffrn_radiation_wavelength     0.71070
_diffrn_reflns_av_R_equivalents  0.0591
_diffrn_reflns_limit_h_max       8
_diffrn_reflns_limit_h_min       -8
_diffrn_reflns_limit_k_max       12
_diffrn_reflns_limit_k_min       -13
_diffrn_reflns_limit_l_max       15
_diffrn_reflns_limit_l_min       -15
_diffrn_reflns_number            6357
_diffrn_reflns_theta_full        25.50
_diffrn_reflns_theta_max         25.50
_diffrn_standards_number         0
_exptl_absorpt_coefficient_mu    4.811
_exptl_absorpt_correction_T_max  0.618
_exptl_absorpt_correction_T_min  0.463
_exptl_absorpt_correction_type   numerical
_exptl_absorpt_process_details   'NUMABS (Rigaku, 1999)'
_exptl_crystal_colour            red
_exptl_crystal_density_diffrn    1.997
_exptl_crystal_density_method    'not measured'
_exptl_crystal_description       block
_exptl_crystal_F_000             586.00
_exptl_crystal_preparation       Luminescent
_exptl_crystal_recrystallization_method
'Re-crystallisation from solvent: acetone, water'
_exptl_crystal_size_max          0.350
_exptl_crystal_size_mid          0.150
_exptl_crystal_size_min          0.100
_refine_diff_density_max         4.250
_refine_diff_density_min         -1.540
_refine_ls_extinction_coef       0.013(5)
_refine_ls_extinction_method     SHELXL
_refine_ls_goodness_of_fit_ref   1.173
_refine_ls_hydrogen_treatment    constr
_refine_ls_number_parameters     245
_refine_ls_number_reflns         3547
_refine_ls_number_restraints     12
_refine_ls_R_factor_gt           0.1517
_refine_ls_shift/su_max          0.000
_refine_ls_structure_factor_coef Fsqd
_refine_ls_weighting_details
'w = 1/[\s^2^(Fo^2^)+(0.1119P)^2^+112.7973P] where P=(Fo^2^+2Fc^2^)/3'
_refine_ls_weighting_scheme      calc
_refine_ls_wR_factor_ref         0.4232
_reflns_number_gt                2883
_reflns_number_total             3547
_reflns_threshold_expression     F^2^>2.0\s(F^2^)
_cod_data_source_file            c5ra14268g2.cif
_cod_data_source_block           141023Br2PyBTM
_cod_original_cell_volume        1012.4(9)
_cod_database_code               7221686
loop_
_symmetry_equiv_pos_site_id
_symmetry_equiv_pos_as_xyz
1 +X,+Y,+Z
2 -X,-Y,-Z
loop_
_atom_site_label
_atom_site_type_symbol
_atom_site_fract_x
_atom_site_fract_y
_atom_site_fract_z
_atom_site_U_iso_or_equiv
_atom_site_adp_type
_atom_site_occupancy
_atom_site_symmetry_multiplicity
_atom_site_calc_flag
_atom_site_refinement_flags
Br1 Br 1.1333(4) 0.6429(3) 0.3640(2) 0.0326(9) Uani 1.0 2 d .
Br2 Br 0.5069(4) 0.5000(3) 0.1541(3) 0.0431(10) Uani 1.0 2 d .
Cl1 Cl 0.9469(9) 0.9627(6) 0.1416(5) 0.0349(15) Uani 1.0 2 d .
Cl2 Cl 0.5920(9) 0.6339(6) 0.4389(5) 0.0337(14) Uani 1.0 2 d .
Cl3 Cl 0.7625(9) 1.0805(7) 0.5237(6) 0.0404(16) Uani 1.0 2 d .
Cl4 Cl 0.6107(11) 0.8592(7) -0.2474(5) 0.0457(18) Uani 1.0 2 d .
Cl5 Cl 1.0653(9) 0.6451(7) 0.0511(5) 0.0377(15) Uani 1.0 2 d .
Cl6 Cl 0.4155(8) 0.8426(6) 0.1634(5) 0.0275(13) Uani 1.0 2 d .
N1 N 0.928(3) 0.316(2) 0.312(2) 0.042(6) Uani 1.0 2 d .
C1 C 0.778(3) 0.7054(19) 0.2164(16) 0.018(4) Uani 1.0 2 d .
C2 C 1.021(4) 0.407(2) 0.340(2) 0.034(6) Uani 1.0 2 d .
C3 C 0.976(3) 0.530(3) 0.3185(19) 0.024(5) Uani 1.0 2 d .
C4 C 0.826(4) 0.574(2) 0.2560(17) 0.025(5) Uani 1.0 2 d .
C5 C 0.725(3) 0.4749(19) 0.227(2) 0.026(5) Uani 1.0 2 d .
C6 C 0.783(4) 0.352(2) 0.258(2) 0.029(6) Uani 1.0 2 d .
C7 C 0.763(4) 0.972(2) 0.4357(16) 0.025(5) Uani 1.0 2 d .
C8 C 0.837(3) 1.005(3) 0.3349(17) 0.022(5) Uani 1.0 2 d .
C9 C 0.844(3) 0.918(2) 0.2638(17) 0.022(5) Uani 1.0 2 d .
C10 C 0.772(3) 0.7945(19) 0.2908(17) 0.018(5) Uani 1.0 2 d .
C11 C 0.696(4) 0.772(3) 0.3933(19) 0.030(6) Uani 1.0 2 d .
C12 C 0.695(4) 0.855(3) 0.466(3) 0.034(6) Uani 1.0 2 d .
C13 C 0.656(4) 0.811(3) -0.1131(18) 0.031(6) Uani 1.0 2 d .
C14 C 0.820(4) 0.751(3) -0.086(2) 0.030(6) Uani 1.0 2 d .
C15 C 0.852(3) 0.713(2) 0.0196(17) 0.024(5) Uani 1.0 2 d .
C16 C 0.735(3) 0.743(2) 0.1029(17) 0.021(5) Uani 1.0 2 d .
C17 C 0.578(3) 0.8064(19) 0.0696(15) 0.018(5) Uani 1.0 2 d .
C18 C 0.538(4) 0.842(3) -0.039(2) 0.031(6) Uani 1.0 2 d .
H2 H 1.1279 0.3839 0.3790 0.0405 Uiso 1.0 2 calc R
H6 H 0.7115 0.2885 0.2386 0.0349 Uiso 1.0 2 calc R
H8 H 0.8825 1.0858 0.3145 0.0267 Uiso 1.0 2 calc R
H12 H 0.6487 0.8316 0.5367 0.0404 Uiso 1.0 2 calc R
H14 H 0.9070 0.7362 -0.1396 0.0354 Uiso 1.0 2 calc R
H18 H 0.4292 0.8875 -0.0592 0.0374 Uiso 1.0 2 calc R
loop_
_atom_site_aniso_label
_atom_site_aniso_U_11
_atom_site_aniso_U_22
_atom_site_aniso_U_33
_atom_site_aniso_U_12
_atom_site_aniso_U_13
_atom_site_aniso_U_23
Br1 0.0284(14) 0.0324(14) 0.0359(15) -0.0002(10) -0.0131(10) 0.0010(10)
Br2 0.0456(17) 0.0266(14) 0.0569(19) -0.0029(11) -0.0258(14) -0.0014(12)
Cl1 0.043(4) 0.034(3) 0.027(3) -0.013(3) 0.008(3) -0.002(3)
Cl2 0.040(4) 0.034(3) 0.027(3) -0.009(3) 0.003(3) -0.000(3)
Cl3 0.042(4) 0.040(4) 0.043(4) 0.006(3) -0.004(3) -0.021(3)
Cl4 0.068(5) 0.052(4) 0.017(3) -0.006(4) -0.010(3) -0.000(3)
Cl5 0.031(4) 0.050(4) 0.033(4) 0.009(3) -0.000(3) -0.013(3)
Cl6 0.028(3) 0.031(3) 0.020(3) -0.002(3) -0.001(3) 0.006(2)
N1 0.025(11) 0.030(12) 0.066(17) 0.010(9) 0.000(11) 0.005(11)
C1 0.013(9) 0.024(10) 0.014(10) -0.008(8) 0.006(8) 0.005(8)
C2 0.046(15) 0.018(11) 0.034(14) 0.009(10) -0.018(12) 0.006(10)
C3 0.011(10) 0.033(12) 0.029(12) -0.007(9) 0.011(9) -0.006(10)
C4 0.032(13) 0.028(12) 0.016(11) 0.008(10) 0.001(9) -0.008(9)
C5 0.021(11) 0.012(10) 0.042(14) 0.002(8) -0.009(10) 0.004(9)
C6 0.029(13) 0.017(11) 0.039(14) -0.003(9) -0.009(11) 0.005(10)
C7 0.041(14) 0.026(11) 0.006(10) 0.003(10) -0.007(9) -0.001(8)
C8 0.013(10) 0.032(12) 0.018(11) 0.005(9) 0.006(8) 0.003(9)
C9 0.021(11) 0.024(11) 0.017(11) -0.003(9) 0.005(9) 0.007(9)
C10 0.017(10) 0.016(10) 0.019(11) -0.003(8) -0.008(8) 0.004(8)
C11 0.028(13) 0.031(13) 0.027(12) -0.011(10) 0.007(10) 0.010(10)
C12 0.021(12) 0.048(15) 0.034(14) 0.003(11) -0.005(10) -0.015(12)
C13 0.054(16) 0.027(12) 0.014(11) 0.001(11) -0.011(11) -0.006(9)
C14 0.034(13) 0.025(12) 0.030(13) -0.001(10) 0.009(11) -0.006(10)
C15 0.028(12) 0.028(12) 0.013(10) 0.008(9) -0.007(9) 0.005(9)
C16 0.021(11) 0.024(11) 0.017(11) 0.001(9) -0.002(9) -0.005(9)
C17 0.032(11) 0.021(10) 0.002(8) -0.011(9) -0.002(8) 0.000(7)
C18 0.035(14) 0.027(12) 0.030(13) -0.003(10) -0.016(11) 0.006(10)
loop_
_atom_type_symbol
_atom_type_description
_atom_type_scat_dispersion_real
_atom_type_scat_dispersion_imag
_atom_type_scat_source
C C 0.0033 0.0016
;
International Tables for Crystallography
(1992, Vol. C, Tables 4.2.6.8 and 6.1.1.4)
;
H H 0.0000 0.0000
;
International Tables for Crystallography
(1992, Vol. C, Table 6.1.1.4)
;
Br Br -0.2901 2.4595
;
International Tables for Crystallography
(1992, Vol. C, Tables 4.2.6.8 and 6.1.1.4)
;
Cl Cl 0.1484 0.1585
;
International Tables for Crystallography
(1992, Vol. C, Tables 4.2.6.8 and 6.1.1.4)
;
N N 0.0061 0.0033
;
International Tables for Crystallography
(1992, Vol. C, Tables 4.2.6.8 and 6.1.1.4)
;
loop_
_geom_angle_atom_site_label_1
_geom_angle_atom_site_label_2
_geom_angle_atom_site_label_3
_geom_angle
_geom_angle_publ_flag
C2 N1 C6 115(3) yes
C4 C1 C10 118.8(18) yes
C4 C1 C16 119.6(19) yes
C10 C1 C16 121.7(18) yes
N1 C2 C3 125(3) yes
Br1 C3 C2 117.6(18) yes
Br1 C3 C4 120.6(18) yes
C2 C3 C4 122(3) yes
C1 C4 C3 126(3) yes
C1 C4 C5 121(2) yes
C3 C4 C5 112(2) yes
Br2 C5 C4 123.6(16) yes
Br2 C5 C6 116.4(18) yes
C4 C5 C6 120(2) yes
N1 C6 C5 125(3) yes
Cl3 C7 C8 117.6(18) yes
Cl3 C7 C12 121.0(18) yes
C8 C7 C12 121(3) yes
C7 C8 C9 119(2) yes
Cl1 C9 C8 116.6(16) yes
Cl1 C9 C10 120.9(17) yes
C8 C9 C10 122.5(19) yes
C1 C10 C9 122.1(18) yes
C1 C10 C11 124.2(19) yes
C9 C10 C11 114(2) yes
Cl2 C11 C10 121.2(19) yes
Cl2 C11 C12 114.0(18) yes
C10 C11 C12 125(3) yes
C7 C12 C11 119(3) yes
Cl4 C13 C14 118.7(19) yes
Cl4 C13 C18 119(2) yes
C14 C13 C18 122(3) yes
C13 C14 C15 118(3) yes
Cl5 C15 C14 116.3(18) yes
Cl5 C15 C16 119.6(16) yes
C14 C15 C16 123(2) yes
C1 C16 C15 121.9(19) yes
C1 C16 C17 123.0(19) yes
C15 C16 C17 115.1(19) yes
Cl6 C17 C16 120.2(15) yes
Cl6 C17 C18 116.8(17) yes
C16 C17 C18 123(2) yes
C13 C18 C17 118(3) yes
loop_
_geom_bond_atom_site_label_1
_geom_bond_atom_site_label_2
_geom_bond_distance
_geom_bond_publ_flag
Br1 C3 1.88(3) yes
Br2 C5 1.88(3) yes
Cl1 C9 1.73(3) yes
Cl2 C11 1.73(3) yes
Cl3 C7 1.74(3) yes
Cl4 C13 1.74(3) yes
Cl5 C15 1.75(3) yes
Cl6 C17 1.75(2) yes
N1 C2 1.32(4) yes
N1 C6 1.30(4) yes
C1 C4 1.47(3) yes
C1 C10 1.44(3) yes
C1 C16 1.47(3) yes
C2 C3 1.36(4) yes
C3 C4 1.41(3) yes
C4 C5 1.43(4) yes
C5 C6 1.39(3) yes
C7 C8 1.38(3) yes
C7 C12 1.38(4) yes
C8 C9 1.40(4) yes
C9 C10 1.45(3) yes
C10 C11 1.40(3) yes
C11 C12 1.38(4) yes
C13 C14 1.39(4) yes
C13 C18 1.35(4) yes
C14 C15 1.37(4) yes
C15 C16 1.42(3) yes
C16 C17 1.38(3) yes
C17 C18 1.41(3) yes
