#------------------------------------------------------------------------------
#$Date: 2018-10-05 15:19:55 +0300 (Fri, 05 Oct 2018) $
#$Revision: 211332 $
#$URL: file:///home/coder/svn-repositories/cod/cif/7/22/23/7222344.cif $
#------------------------------------------------------------------------------
#
# This file is available in the Crystallography Open Database (COD),
# http://www.crystallography.net/
#
# All data on this site have been placed in the public domain by the
# contributors.
#
data_7222344
loop_
_publ_author_name
'Alapour, Saba'
'Ramjugernath, Deresh'
'Koorbanally, Neil'
_publ_section_title
;
 Copper-Catalysed Cross-Coupling Affected by the Smiles Rearrangement: A
 New Chapter on Diversifying the Synthesis of Chiral Fluorinated
 1,4-Benzoxazine Derivatives
;
_journal_name_full               'RSC Adv.'
_journal_paper_doi               10.1039/C5RA18897K
_journal_year                    2015
_chemical_absolute_configuration unk
_chemical_formula_moiety         'C14 H18 Br F2 N O3'
_chemical_formula_sum            'C14 H18 Br F2 N O3'
_chemical_formula_weight         366.2
_chemical_name_systematic
;
 ?
;
_space_group_IT_number           4
_symmetry_cell_setting           monoclinic
_symmetry_Int_Tables_number      4
_symmetry_space_group_name_Hall  'P 2yb'
_symmetry_space_group_name_H-M   'P 1 21 1'
_atom_sites_solution_hydrogens   geom
_atom_sites_solution_primary     'iterative - e.g. charge flipping method'
_atom_sites_solution_secondary   'iterative - e.g. charge flipping method'
_audit_conform_dict_location     ftp://ftp.iucr.org/pub/cif_core.dic
_audit_conform_dict_name         cif_core.dic
_audit_conform_dict_version      2.4.3
_audit_creation_date             2015-06-26T11:00:43-00:00
_audit_creation_method           'WinGX routine CIF_UPDATE'
_audit_update_record
;
2015-06-30 deposited with the CCDC.
2015-09-25 downloaded from the CCDC.
;
_cell_angle_alpha                90
_cell_angle_beta                 95.979(2)
_cell_angle_gamma                90
_cell_formula_units_Z            2
_cell_length_a                   5.1112(3)
_cell_length_b                   10.0220(6)
_cell_length_c                   15.5580(9)
_cell_measurement_reflns_used    13440
_cell_measurement_temperature    173(2)
_cell_measurement_theta_max      31.25
_cell_measurement_theta_min      2.42
_cell_measurement_wavelength     0.71073
_cell_volume                     792.61(8)
_computing_cell_refinement       'SAINT-plus (Bruker, 2012)'
_computing_data_collection       'APEX2 (Bruker, 2012)'
_computing_data_reduction        'SAINT-Plus and XPREP (Bruker, 2012)'
_computing_molecular_graphics    'ORTEP3 (Farrugia, 2012)'
_computing_publication_material  'WinGX (Farrugia, 2012)'
_computing_structure_refinement  'SHELXL-2013 (Sheldrick, 2013)'
_computing_structure_solution    'SHELXS-97 (Sheldrick, 2008)'
_diffrn_ambient_temperature      173(2)
_diffrn_measured_fraction_theta_full 0.99
_diffrn_measured_fraction_theta_max 0.843
_diffrn_measurement_device_type  'Bruker Smart ApexII CCD'
_diffrn_measurement_method       '\f and \w scans'
_diffrn_radiation_probe          x-ray
_diffrn_radiation_type           MoK\a
_diffrn_radiation_wavelength     0.71073
_diffrn_reflns_av_R_equivalents  0.0346
_diffrn_reflns_av_unetI/netI     0.0362
_diffrn_reflns_Laue_measured_fraction_full 0.99
_diffrn_reflns_Laue_measured_fraction_max 0.843
_diffrn_reflns_limit_h_max       7
_diffrn_reflns_limit_h_min       -5
_diffrn_reflns_limit_k_max       9
_diffrn_reflns_limit_k_min       -14
_diffrn_reflns_limit_l_max       20
_diffrn_reflns_limit_l_min       -22
_diffrn_reflns_number            13440
_diffrn_reflns_point_group_measured_fraction_full 0.991
_diffrn_reflns_point_group_measured_fraction_max 0.844
_diffrn_reflns_theta_full        25.242
_diffrn_reflns_theta_max         31.247
_diffrn_reflns_theta_min         2.421
_diffrn_source                   'fine-focus sealed tube'
_diffrn_standards_number         0
_exptl_absorpt_coefficient_mu    2.622
_exptl_absorpt_correction_T_max  0.547
_exptl_absorpt_correction_T_min  0.417
_exptl_absorpt_correction_type   multi-scan
_exptl_absorpt_process_details   'SADABS (Bruker, 2012)'
_exptl_crystal_density_diffrn    1.534
_exptl_crystal_density_method    'not measured'
_exptl_crystal_description       block
_exptl_crystal_F_000             372
_exptl_crystal_size_max          0.33
_exptl_crystal_size_mid          0.28
_exptl_crystal_size_min          0.23
_refine_diff_density_max         0.804
_refine_diff_density_min         -0.613
_refine_diff_density_rms         0.064
_refine_ls_abs_structure_details
;
 Refined as an inversion twin.
;
_refine_ls_abs_structure_Flack   0.038(11)
_refine_ls_extinction_method     none
_refine_ls_goodness_of_fit_ref   1.059
_refine_ls_hydrogen_treatment    constr
_refine_ls_matrix_type           full
_refine_ls_number_constraints    0
_refine_ls_number_parameters     195
_refine_ls_number_reflns         3440
_refine_ls_number_restraints     1
_refine_ls_restrained_S_all      1.059
_refine_ls_R_factor_all          0.041
_refine_ls_R_factor_gt           0.0329
_refine_ls_shift/su_max          0.001
_refine_ls_shift/su_mean         0
_refine_ls_structure_factor_coef Fsqd
_refine_ls_weighting_details
'w=1/[\s^2^(Fo^2^)+(0.0091P)^2^+0.8889P] where P=(Fo^2^+2Fc^2^)/3'
_refine_ls_weighting_scheme      calc
_refine_ls_wR_factor_gt          0.0708
_refine_ls_wR_factor_ref         0.0774
_reflns_Friedel_coverage         0.903
_reflns_Friedel_fraction_full    0.993
_reflns_Friedel_fraction_max     0.844
_reflns_number_gt                3147
_reflns_number_total             3440
_reflns_threshold_expression     'I > 2\s(I)'
_iucr_refine_instructions_details
;
TITL 15eda_nk_sa1_0ma in P2(1)
CELL  0.71073   5.1112  10.0220  15.5580   90.000   95.979   90.000
ZERR     2.00   0.0003   0.0006   0.0009    0.000    0.002    0.000
LATT  -1
SYMM  - X, 1/2 + Y, - Z
SFAC  C    H    N    O    F    BR
UNIT  28 36 2 6 4 2
MERG   2
TWIN
EQIV $1 -x+3, y-1/2, -z+1
HTAB C7 F2_$1
EQIV $2 x-1, y, z
HTAB C7 F1_$2
HTAB C12 O2
HTAB C14 O2
HTAB C7 F2_$1
HTAB C7 F1_$2
HTAB C12 O2
HTAB C14 O2
HTAB N1 O2_$2
FMAP   2
PLAN    2
SIZE     0.230   0.280   0.330
ACTA
BOND   $H
CONF
L.S.  10
TEMP  -100.00
WGHT    0.009100    0.888900
BASF   0.03763
FVAR       0.25813
C1    1    0.316811    0.744706    0.679721    11.00000    0.02842    0.02192 =
         0.02287    0.00245   -0.00833    0.00012
C2    1    0.470369    0.804964    0.622201    11.00000    0.03098    0.02062 =
         0.02558   -0.00276   -0.00065    0.00652
C3    1    0.501801    0.940782    0.620022    11.00000    0.03382    0.02710 =
         0.03021    0.00414    0.00167    0.00018
C4    1    0.381053    1.021611    0.674532    11.00000    0.05147    0.02094 =
         0.03999   -0.00795   -0.00459    0.00333
AFIX  43
H4    2    0.406248    1.115476    0.673220    11.00000   -1.20000
AFIX   0
C5    1    0.222673    0.966278    0.731367    11.00000    0.04043    0.04046 =
         0.03254   -0.01683   -0.00094    0.00838
AFIX  43
H5    2    0.134303    1.021942    0.768456    11.00000   -1.20000
AFIX   0
C6    1    0.192475    0.827916    0.734261    11.00000    0.02720    0.05024 =
         0.02082   -0.00306   -0.00055   -0.00363
C7    1    0.104745    0.545478    0.627889    11.00000    0.02606    0.02125 =
         0.02383    0.00223   -0.00531   -0.00450
AFIX  23
H7A   2    0.106081    0.578460    0.567955    11.00000   -1.20000
H7B   2   -0.069128    0.565471    0.647547    11.00000   -1.20000
AFIX   0
C8    1    0.156556    0.396761    0.631621    11.00000    0.01697    0.02446 =
         0.01718    0.00080    0.00351    0.00089
AFIX  13
H8    2    0.334077    0.379855    0.612232    11.00000   -1.20000
AFIX   0
C9    1   -0.047357    0.322686    0.571261    11.00000    0.02624    0.03213 =
         0.02066   -0.00248    0.00209   -0.00110
AFIX 137
H9A   2   -0.223128    0.339618    0.588708    11.00000   -1.50000
H9B   2   -0.010576    0.226737    0.574300    11.00000   -1.50000
H9C   2   -0.039696    0.353995    0.511902    11.00000   -1.50000
AFIX   0
C10   1    0.382256    0.336995    0.773045    11.00000    0.02067    0.01259 =
         0.01782   -0.00075    0.00256    0.00078
C11   1    0.539578    0.301335    0.925038    11.00000    0.01690    0.02395 =
         0.01996    0.00199   -0.00235   -0.00135
C12   1    0.712618    0.426367    0.931784    11.00000    0.02563    0.02511 =
         0.02696   -0.00266    0.00158   -0.00119
AFIX 137
H12A  2    0.601074    0.505961    0.924704    11.00000   -1.50000
H12B  2    0.831987    0.424476    0.886421    11.00000   -1.50000
H12C  2    0.815553    0.428695    0.988545    11.00000   -1.50000
AFIX   0
C13   1    0.388100    0.291727    1.004369    11.00000    0.02612    0.04117 =
         0.02104    0.00568    0.00194    0.00041
AFIX 137
H13A  2    0.269825    0.214564    0.998430    11.00000   -1.50000
H13B  2    0.284846    0.373251    1.009305    11.00000   -1.50000
H13C  2    0.512401    0.281200    1.056291    11.00000   -1.50000
AFIX   0
C14   1    0.689760    0.173363    0.913648    11.00000    0.02525    0.02185 =
         0.03316    0.00344    0.00033    0.00305
AFIX 137
H14A  2    0.797307    0.183488    0.865459    11.00000   -1.50000
H14B  2    0.565219    0.099769    0.901356    11.00000   -1.50000
H14C  2    0.803929    0.154027    0.966759    11.00000   -1.50000
AFIX   0
N1    3    0.157163    0.348683    0.719939    11.00000    0.01271    0.01982 =
         0.01864    0.00147    0.00356   -0.00138
AFIX  43
H1    2    0.007082    0.326699    0.739178    11.00000   -1.20000
AFIX   0
O1    4    0.311685    0.609042    0.684200    11.00000    0.03745    0.02076 =
         0.03784    0.00907   -0.01539   -0.00631
O2    4    0.603202    0.340149    0.750225    11.00000    0.01593    0.03037 =
         0.02414    0.00092    0.00583    0.00137
O3    4    0.325231    0.317045    0.854737    11.00000    0.01629    0.02529 =
         0.02032    0.00415    0.00274    0.00195
F1    5    0.591212    0.728466    0.567364    11.00000    0.03501    0.04156 =
         0.03574   -0.00715    0.00979    0.01176
F2    5    0.655607    0.992581    0.562790    11.00000    0.05320    0.03883 =
         0.04460    0.01040    0.01226   -0.01097
BR1   6   -0.019370    0.750433    0.812713    11.00000    0.03770    0.11443 =
         0.02449    0.00539    0.00501   -0.02168
HKLF    4
 
REM  15eda_nk_sa1_0ma in P2(1)
REM R1 =  0.0329 for    3147 Fo > 4sig(Fo)  and  0.0410 for all    3440 data
REM    195 parameters refined using      1 restraints
 
END
 
WGHT      0.0089      0.8868
 
REM Highest difference peak  0.804,  deepest hole -0.613,  1-sigma level  0.064
Q1    1   0.6152  0.8261  0.5830  11.00000  0.05    0.80
Q2    1  -0.0467  0.6798  0.8222  11.00000  0.05    0.48
;
_cod_data_source_file            c5ra18897k2.cif
_cod_data_source_block           shelx
_cod_original_sg_symbol_H-M      'P 21'
_cod_database_code               7222344
_shelx_estimated_absorpt_t_min   0.478
_shelx_estimated_absorpt_t_max   0.584
loop_
_symmetry_equiv_pos_as_xyz
'x, y, z'
'-x, y+1/2, -z'
loop_
_atom_site_label
_atom_site_type_symbol
_atom_site_fract_x
_atom_site_fract_y
_atom_site_fract_z
_atom_site_U_iso_or_equiv
_atom_site_adp_type
_atom_site_occupancy
_atom_site_site_symmetry_order
_atom_site_calc_flag
_atom_site_refinement_flags_posn
_atom_site_refinement_flags_adp
C1 C 0.3168(6) 0.7447(4) 0.67972(19) 0.0252(7) Uani 1 1 d . .
C2 C 0.4704(8) 0.8050(4) 0.6222(2) 0.0260(8) Uani 1 1 d . .
C3 C 0.5018(8) 0.9408(4) 0.6200(3) 0.0305(8) Uani 1 1 d . .
C4 C 0.3811(10) 1.0216(4) 0.6745(3) 0.0381(10) Uani 1 1 d . .
H4 H 0.4062 1.1155 0.6732 0.046 Uiso 1 1 calc R U
C5 C 0.2227(9) 0.9663(5) 0.7314(3) 0.0381(10) Uani 1 1 d . .
H5 H 0.1343 1.0219 0.7685 0.046 Uiso 1 1 calc R U
C6 C 0.1925(8) 0.8279(5) 0.7343(2) 0.0330(9) Uani 1 1 d . .
C7 C 0.1047(7) 0.5455(4) 0.6279(2) 0.0243(7) Uani 1 1 d . .
H7A H 0.1061 0.5785 0.568 0.029 Uiso 1 1 calc R U
H7B H -0.0691 0.5655 0.6475 0.029 Uiso 1 1 calc R U
C8 C 0.1566(6) 0.3968(3) 0.6316(2) 0.0194(7) Uani 1 1 d . .
H8 H 0.3341 0.3799 0.6122 0.023 Uiso 1 1 calc R U
C9 C -0.0474(7) 0.3227(4) 0.5713(2) 0.0264(8) Uani 1 1 d . .
H9A H -0.2231 0.3396 0.5887 0.04 Uiso 1 1 calc R U
H9B H -0.0106 0.2267 0.5743 0.04 Uiso 1 1 calc R U
H9C H -0.0397 0.354 0.5119 0.04 Uiso 1 1 calc R U
C10 C 0.3823(6) 0.3370(3) 0.7730(2) 0.0170(6) Uani 1 1 d . .
C11 C 0.5396(7) 0.3013(3) 0.9250(2) 0.0206(7) Uani 1 1 d . .
C12 C 0.7126(7) 0.4264(4) 0.9318(2) 0.0260(8) Uani 1 1 d . .
H12A H 0.6011 0.506 0.9247 0.039 Uiso 1 1 calc R U
H12B H 0.832 0.4245 0.8864 0.039 Uiso 1 1 calc R U
H12C H 0.8156 0.4287 0.9885 0.039 Uiso 1 1 calc R U
C13 C 0.3881(7) 0.2917(4) 1.0044(2) 0.0295(9) Uani 1 1 d . .
H13A H 0.2698 0.2146 0.9984 0.044 Uiso 1 1 calc R U
H13B H 0.2848 0.3733 1.0093 0.044 Uiso 1 1 calc R U
H13C H 0.5124 0.2812 1.0563 0.044 Uiso 1 1 calc R U
C14 C 0.6898(8) 0.1734(4) 0.9136(3) 0.0269(8) Uani 1 1 d . .
H14A H 0.7973 0.1835 0.8655 0.04 Uiso 1 1 calc R U
H14B H 0.5652 0.0998 0.9014 0.04 Uiso 1 1 calc R U
H14C H 0.8039 0.154 0.9668 0.04 Uiso 1 1 calc R U
N1 N 0.1572(5) 0.3487(3) 0.71994(17) 0.0169(5) Uani 1 1 d . .
H1 H 0.0071 0.3267 0.7392 0.02 Uiso 1 1 calc R U
O1 O 0.3117(6) 0.6090(3) 0.68420(18) 0.0334(7) Uani 1 1 d . .
O2 O 0.6032(5) 0.3401(3) 0.75022(15) 0.0232(5) Uani 1 1 d . .
O3 O 0.3252(5) 0.3170(2) 0.85474(15) 0.0206(5) Uani 1 1 d . .
F1 F 0.5912(4) 0.7285(3) 0.56736(14) 0.0370(6) Uani 1 1 d . .
F2 F 0.6556(6) 0.9926(3) 0.56279(17) 0.0450(7) Uani 1 1 d . .
Br1 Br -0.01937(9) 0.75043(8) 0.81271(2) 0.05875(19) Uani 1 1 d . .
loop_
_atom_site_aniso_label
_atom_site_aniso_U_11
_atom_site_aniso_U_22
_atom_site_aniso_U_33
_atom_site_aniso_U_23
_atom_site_aniso_U_13
_atom_site_aniso_U_12
C1 0.0284(16) 0.0219(17) 0.0229(14) 0.0024(18) -0.0083(12) 0.0001(18)
C2 0.0310(19) 0.0206(17) 0.0256(17) -0.0028(14) -0.0006(15) 0.0065(15)
C3 0.034(2) 0.027(2) 0.0302(19) 0.0041(16) 0.0017(16) 0.0002(17)
C4 0.051(3) 0.021(2) 0.040(2) -0.0079(17) -0.005(2) 0.003(2)
C5 0.040(2) 0.040(3) 0.033(2) -0.0168(19) -0.0009(18) 0.008(2)
C6 0.0272(19) 0.050(3) 0.0208(16) -0.0031(17) -0.0005(15) -0.0036(18)
C7 0.0261(18) 0.0212(18) 0.0238(16) 0.0022(14) -0.0053(14) -0.0045(15)
C8 0.0170(15) 0.0245(18) 0.0172(14) 0.0008(13) 0.0035(12) 0.0009(14)
C9 0.0262(18) 0.032(2) 0.0207(16) -0.0025(15) 0.0021(14) -0.0011(16)
C10 0.0207(15) 0.0126(15) 0.0178(14) -0.0007(12) 0.0026(12) 0.0008(13)
C11 0.0169(15) 0.0240(18) 0.0200(15) 0.0020(13) -0.0023(12) -0.0014(13)
C12 0.0256(18) 0.0251(18) 0.0270(18) -0.0027(15) 0.0016(15) -0.0012(16)
C13 0.0261(17) 0.041(2) 0.0210(15) 0.0057(15) 0.0019(13) 0.0004(16)
C14 0.0252(18) 0.0218(19) 0.033(2) 0.0034(16) 0.0003(16) 0.0030(16)
N1 0.0127(12) 0.0198(14) 0.0186(12) 0.0015(11) 0.0036(10) -0.0014(11)
O1 0.0375(16) 0.0208(13) 0.0378(15) 0.0091(12) -0.0154(13) -0.0063(12)
O2 0.0159(11) 0.0304(14) 0.0241(12) 0.0009(11) 0.0058(9) 0.0014(10)
O3 0.0163(11) 0.0253(13) 0.0203(11) 0.0042(10) 0.0027(9) 0.0020(10)
F1 0.0350(11) 0.0416(15) 0.0357(11) -0.0072(12) 0.0098(9) 0.0118(12)
F2 0.0532(16) 0.0388(15) 0.0446(14) 0.0104(12) 0.0123(12) -0.0110(13)
Br1 0.0377(2) 0.1144(5) 0.02449(17) 0.0054(3) 0.00501(15) -0.0217(3)
loop_
_atom_type_symbol
_atom_type_description
_atom_type_scat_dispersion_real
_atom_type_scat_dispersion_imag
_atom_type_scat_source
C C 0.0033 0.0016 'International Tables Vol C Tables 4.2.6.8 and 6.1.1.4'
H H 0 0 'International Tables Vol C Tables 4.2.6.8 and 6.1.1.4'
N N 0.0061 0.0033 'International Tables Vol C Tables 4.2.6.8 and 6.1.1.4'
O O 0.0106 0.006 'International Tables Vol C Tables 4.2.6.8 and 6.1.1.4'
F F 0.0171 0.0103 'International Tables Vol C Tables 4.2.6.8 and 6.1.1.4'
Br Br -0.2901 2.4595 'International Tables Vol C Tables 4.2.6.8 and 6.1.1.4'
loop_
_geom_angle_atom_site_label_1
_geom_angle_atom_site_label_2
_geom_angle_atom_site_label_3
_geom_angle
O1 C1 C2 118.8(3)
O1 C1 C6 123.7(3)
C2 C1 C6 117.2(4)
F1 C2 C3 119.2(4)
F1 C2 C1 119.3(3)
C3 C2 C1 121.5(4)
F2 C3 C4 120.9(4)
F2 C3 C2 118.4(4)
C4 C3 C2 120.8(4)
C3 C4 C5 119.6(4)
C3 C4 H4 120.2
C5 C4 H4 120.2
C4 C5 C6 119.7(4)
C4 C5 H5 120.2
C6 C5 H5 120.2
C1 C6 C5 121.1(4)
C1 C6 Br1 118.6(3)
C5 C6 Br1 120.2(3)
O1 C7 C8 107.2(3)
O1 C7 H7A 110.3
C8 C7 H7A 110.3
O1 C7 H7B 110.3
C8 C7 H7B 110.3
H7A C7 H7B 108.5
N1 C8 C7 110.2(3)
N1 C8 C9 110.8(3)
C7 C8 C9 110.5(3)
N1 C8 H8 108.4
C7 C8 H8 108.4
C9 C8 H8 108.4
C8 C9 H9A 109.5
C8 C9 H9B 109.5
H9A C9 H9B 109.5
C8 C9 H9C 109.5
H9A C9 H9C 109.5
H9B C9 H9C 109.5
O2 C10 O3 125.2(3)
O2 C10 N1 125.2(3)
O3 C10 N1 109.6(3)
O3 C11 C14 110.5(3)
O3 C11 C13 101.9(3)
C14 C11 C13 110.3(3)
O3 C11 C12 110.1(3)
C14 C11 C12 113.9(3)
C13 C11 C12 109.5(3)
C11 C12 H12A 109.5
C11 C12 H12B 109.5
H12A C12 H12B 109.5
C11 C12 H12C 109.5
H12A C12 H12C 109.5
H12B C12 H12C 109.5
C11 C13 H13A 109.5
C11 C13 H13B 109.5
H13A C13 H13B 109.5
C11 C13 H13C 109.5
H13A C13 H13C 109.5
H13B C13 H13C 109.5
C11 C14 H14A 109.5
C11 C14 H14B 109.5
H14A C14 H14B 109.5
C11 C14 H14C 109.5
H14A C14 H14C 109.5
H14B C14 H14C 109.5
C10 N1 C8 121.6(3)
C10 N1 H1 119.2
C8 N1 H1 119.2
C1 O1 C7 115.1(3)
C10 O3 C11 119.9(3)
loop_
_geom_bond_atom_site_label_1
_geom_bond_atom_site_label_2
_geom_bond_distance
C1 O1 1.362(5)
C1 C2 1.388(5)
C1 C6 1.390(5)
C2 F1 1.344(4)
C2 C3 1.371(5)
C3 F2 1.351(5)
C3 C4 1.366(6)
C4 C5 1.376(7)
C4 H4 0.95
C5 C6 1.396(7)
C5 H5 0.95
C6 Br1 1.882(4)
C7 O1 1.449(4)
C7 C8 1.514(5)
C7 H7A 0.99
C7 H7B 0.99
C8 N1 1.456(4)
C8 C9 1.522(5)
C8 H8 1
C9 H9A 0.98
C9 H9B 0.98
C9 H9C 0.98
C10 O2 1.219(4)
C10 O3 1.348(4)
C10 N1 1.350(4)
C11 O3 1.474(4)
C11 C14 1.515(5)
C11 C13 1.527(5)
C11 C12 1.531(5)
C12 H12A 0.98
C12 H12B 0.98
C12 H12C 0.98
C13 H13A 0.98
C13 H13B 0.98
C13 H13C 0.98
C14 H14A 0.98
C14 H14B 0.98
C14 H14C 0.98
N1 H1 0.88
loop_
_geom_hbond_atom_site_label_D
_geom_hbond_atom_site_label_H
_geom_hbond_atom_site_label_A
_geom_hbond_distance_DH
_geom_hbond_distance_HA
_geom_hbond_distance_DA
_geom_hbond_angle_DHA
_geom_hbond_site_symmetry_A
N1 H1 O2 0.88 2.09 2.920(3) 156 1_455
loop_
_geom_torsion_atom_site_label_1
_geom_torsion_atom_site_label_2
_geom_torsion_atom_site_label_3
_geom_torsion_atom_site_label_4
_geom_torsion
O1 C1 C2 F1 5.7(5)
C6 C1 C2 F1 -179.0(3)
O1 C1 C2 C3 -174.2(3)
C6 C1 C2 C3 1.0(5)
F1 C2 C3 F2 -0.4(6)
C1 C2 C3 F2 179.5(3)
F1 C2 C3 C4 179.7(4)
C1 C2 C3 C4 -0.3(6)
F2 C3 C4 C5 179.1(4)
C2 C3 C4 C5 -1.0(7)
C3 C4 C5 C6 1.6(7)
O1 C1 C6 C5 174.6(4)
C2 C1 C6 C5 -0.4(5)
O1 C1 C6 Br1 -5.4(5)
C2 C1 C6 Br1 179.6(3)
C4 C5 C6 C1 -0.9(6)
C4 C5 C6 Br1 179.1(3)
O1 C7 C8 N1 59.4(4)
O1 C7 C8 C9 -177.8(3)
O2 C10 N1 C8 -14.3(5)
O3 C10 N1 C8 167.6(3)
C7 C8 N1 C10 -94.5(4)
C9 C8 N1 C10 142.9(3)
C2 C1 O1 C7 -91.6(4)
C6 C1 O1 C7 93.5(4)
C8 C7 O1 C1 171.4(3)
O2 C10 O3 C11 2.0(5)
N1 C10 O3 C11 -179.9(3)
C14 C11 O3 C10 -66.7(4)
C13 C11 O3 C10 176.1(3)
C12 C11 O3 C10 59.9(4)
