#------------------------------------------------------------------------------
#$Date: 2015-11-12 08:45:24 +0200 (Thu, 12 Nov 2015) $
#$Revision: 170264 $
#$URL: svn://www.crystallography.net/cod/cif/7/22/32/7223234.cif $
#------------------------------------------------------------------------------
#
# This file is available in the Crystallography Open Database (COD),
# http://www.crystallography.net/
#
# All data on this site have been placed in the public domain by the
# contributors.
#
data_7223234
loop_
_publ_author_name
'Ananyev, Ivan V.'
'Bushmarinov, Ivan S.'
'Ushakov, Ivan E.'
'Aitkulova, Liliya I.'
'Lyssenko, Konstantin A.'
_publ_section_title
;
 Tuning of double-well potential of short strong hydrogen bond by ionic
 interactions in alkali metal hydrodicarboxylates
;
_journal_name_full               'RSC Adv.'
_journal_paper_doi               10.1039/C5RA19870D
_journal_year                    2015
_chemical_formula_moiety         'C4 H3 Na O4'
_chemical_formula_sum            'C4 H3 Na O4'
_chemical_formula_weight         138.05
_space_group_crystal_system      triclinic
_space_group_IT_number           2
_space_group_name_Hall           '-P 1'
_space_group_name_H-M_alt        'P -1'
_symmetry_space_group_name_Hall  '-P 1'
_symmetry_space_group_name_H-M   'P -1'
_atom_sites_solution_hydrogens   difmap
_audit_creation_method           SHELXL-2014/6
_audit_update_record
;
2015-09-24 deposited with the CCDC.
2015-11-05 downloaded from the CCDC.
;
_cell_angle_alpha                82.134(2)
_cell_angle_beta                 87.969(2)
_cell_angle_gamma                67.198(2)
_cell_formula_units_Z            2
_cell_length_a                   5.3403(5)
_cell_length_b                   6.5443(6)
_cell_length_c                   7.9451(7)
_cell_measurement_reflns_used    129
_cell_measurement_temperature    200(2)
_cell_measurement_theta_max      25
_cell_measurement_theta_min      3
_cell_volume                     253.51(4)
_computing_cell_refinement       'Bruker SAINT'
_computing_data_collection       'Bruker APEX II'
_computing_data_reduction        'Bruker SAINT'
_computing_molecular_graphics    'Bruker SHELXTL'
_computing_publication_material  'Bruker SHELXTL'
_computing_structure_refinement  'SHELXL-97 (Sheldrick, 1997)'
_computing_structure_solution    'SHELXS-97 (Sheldrick, 1997)'
_diffrn_ambient_temperature      200(2)
_diffrn_measured_fraction_theta_full 1.000
_diffrn_measured_fraction_theta_max 0.998
_diffrn_measurement_device_type  'Bruker APEX II CCD area detector''
_diffrn_measurement_method       'omega scans'
_diffrn_radiation_type           MoK\a
_diffrn_radiation_wavelength     0.71073
_diffrn_reflns_av_R_equivalents  0.0176
_diffrn_reflns_av_unetI/netI     0.0221
_diffrn_reflns_laue_measured_fraction_full 1.000
_diffrn_reflns_laue_measured_fraction_max 0.998
_diffrn_reflns_limit_h_max       7
_diffrn_reflns_limit_h_min       -7
_diffrn_reflns_limit_k_max       9
_diffrn_reflns_limit_k_min       -9
_diffrn_reflns_limit_l_max       11
_diffrn_reflns_limit_l_min       -11
_diffrn_reflns_number            3391
_diffrn_reflns_point_group_measured_fraction_full 1.000
_diffrn_reflns_point_group_measured_fraction_max 0.998
_diffrn_reflns_theta_full        25.242
_diffrn_reflns_theta_max         29.992
_diffrn_reflns_theta_min         2.588
_exptl_absorpt_coefficient_mu    0.232
_exptl_absorpt_correction_T_max  0.966
_exptl_absorpt_correction_T_min  0.929
_exptl_absorpt_correction_type   multi-scan
_exptl_absorpt_process_details   SADABS
_exptl_crystal_colour            colorless
_exptl_crystal_density_diffrn    1.809
_exptl_crystal_description       prism
_exptl_crystal_F_000             140
_exptl_crystal_size_max          0.240
_exptl_crystal_size_mid          0.210
_exptl_crystal_size_min          0.190
_refine_diff_density_max         0.486
_refine_diff_density_min         -0.302
_refine_diff_density_rms         0.070
_refine_ls_extinction_method     none
_refine_ls_goodness_of_fit_ref   1.079
_refine_ls_hydrogen_treatment    refall
_refine_ls_matrix_type           full
_refine_ls_number_parameters     94
_refine_ls_number_reflns         1480
_refine_ls_number_restraints     0
_refine_ls_restrained_S_all      1.079
_refine_ls_R_factor_all          0.0346
_refine_ls_R_factor_gt           0.0314
_refine_ls_shift/su_max          0.000
_refine_ls_shift/su_mean         0.000
_refine_ls_structure_factor_coef Fsqd
_refine_ls_weighting_details
'w=1/[\s^2^(Fo^2^)+(0.0459P)^2^+0.0723P] where P=(Fo^2^+2Fc^2^)/3'
_refine_ls_weighting_scheme      calc
_refine_ls_wR_factor_gt          0.0838
_refine_ls_wR_factor_ref         0.0871
_reflns_Friedel_coverage         0.000
_reflns_number_gt                1340
_reflns_number_total             1480
_reflns_threshold_expression     I>2\s(I)
_cod_data_source_file            c5ra19870d2.cif
_cod_data_source_block           200
_cod_database_code               7223234
_shelx_space_group_comment
;
The symmetry employed for this shelxl refinement is uniquely defined
by the following loop, which should always be used as a source of
symmetry information in preference to the above space-group names.
They are only intended as comments.
;
_shelx_estimated_absorpt_t_min   0.946
_shelx_estimated_absorpt_t_max   0.957
_shelxl_version_number           2014/6
_shelx_res_file
;
TITL 200 in P-1
CELL 0.71073   5.3403   6.5443   7.9451  82.134  87.969  67.198
ZERR    2.00   0.0005   0.0006   0.0007   0.002   0.002   0.002
LATT 1

SFAC C H Na O
UNIT 8 6 2 8
EQIV $1 -X,2-Y,3-Z

omit -4 60
L.S. 8
PLAN  20
TEMP -73
BOND $H
htab
acta
CONF
size 0.24 0.21 0.19
WGHT    0.045900    0.072300
FVAR       0.40885
NA1   3    0.031598    0.763030    1.392185    11.00000    0.01318    0.02274 =
         0.01577   -0.00492   -0.00044   -0.00720
O3    4    0.258501    0.845454    0.614794    11.00000    0.01383    0.02285 =
         0.01511   -0.00497   -0.00344   -0.00240
O1    4    0.444870    0.728096    1.253181    11.00000    0.01786    0.03060 =
         0.00858   -0.00243    0.00027   -0.01234
O4    4    0.683746    0.662005    0.533724    11.00000    0.01499    0.02363 =
         0.00890   -0.00355    0.00171   -0.00679
O2    4    0.841710    0.712455    1.143237    11.00000    0.01377    0.02707 =
         0.01306   -0.00494   -0.00122   -0.00635
C1    1    0.607540    0.729818    1.124683    11.00000    0.01552    0.01235 =
         0.01011   -0.00179   -0.00129   -0.00435
C2    1    0.478254    0.756518    0.955879    11.00000    0.01468    0.01631 =
         0.01026   -0.00196   -0.00224   -0.00547
C3    1    0.623681    0.740367    0.815732    11.00000    0.01345    0.01626 =
         0.01048   -0.00247   -0.00241   -0.00398
C4    1    0.507973    0.753753    0.644170    11.00000    0.01509    0.01340 =
         0.00950   -0.00101   -0.00095   -0.00613
H1    2    0.542599    0.703688    1.367589    11.00000    0.05115
H2    2    0.284871    0.779816    0.951837    11.00000    0.02265
H3    2    0.814571    0.713921    0.822127    11.00000    0.03110
HKLF 4

REM  200 in P-1
REM R1 =  0.0314 for    1340 Fo > 4sig(Fo)  and  0.0346 for all    1480 data
REM     94 parameters refined using      0 restraints

END

WGHT      0.0461      0.0741

REM No hydrogen bonds found for HTAB generation

REM Highest difference peak  0.486,  deepest hole -0.302,  1-sigma level  0.070
Q1    1   0.5643  0.7343  0.7322  11.00000  0.05    0.49
Q2    1   0.5536  0.7407  1.0349  11.00000  0.05    0.44
Q3    1   0.5456  0.7197  0.8774  11.00000  0.05    0.25
Q4    1   0.5459  0.7949  0.8810  11.00000  0.05    0.23
Q5    1   0.9029  0.6510  1.2536  11.00000  0.05    0.20
Q6    1   0.6348  0.6676  0.4463  11.00000  0.05    0.19
Q7    1   0.2670  1.0300  0.7029  11.00000  0.05    0.19
Q8    1   0.1985  0.8802  0.5352  11.00000  0.05    0.18
Q9    1   0.9638  0.7961  1.2057  11.00000  0.05    0.17
Q10   1   0.5297  0.9730  1.2837  11.00000  0.05    0.17
Q11   1   0.1332  0.9800  0.4709  11.00000  0.05    0.17
Q12   1   0.2371  1.0518  0.3985  11.00000  0.05    0.16
Q13   1   0.1645  0.6030  1.5772  11.00000  0.05    0.16
Q14   1   0.5281  0.6712  1.1838  11.00000  0.05    0.16
Q15   1   0.3652  0.7886  0.6439  11.00000  0.05    0.16
Q16   1   0.9693  0.6177  0.5982  11.00000  0.05    0.15
Q17   1   0.7690  0.6465  1.1470  11.00000  0.05    0.15
Q18   1   1.1302  0.5747  1.2356  11.00000  0.05    0.15
Q19   1   0.6050  0.5790  0.4792  11.00000  0.05    0.15
Q20   1   0.7770  0.8741  1.2372  11.00000  0.05    0.15
;
_shelx_res_checksum              20802
loop_
_space_group_symop_operation_xyz
'x, y, z'
'-x, -y, -z'
loop_
_atom_site_label
_atom_site_type_symbol
_atom_site_fract_x
_atom_site_fract_y
_atom_site_fract_z
_atom_site_U_iso_or_equiv
_atom_site_adp_type
_atom_site_occupancy
_atom_site_site_symmetry_order
_atom_site_calc_flag
Na1 Na 0.03160(8) 0.76303(8) 1.39218(6) 0.01689(14) Uani 1 1 d
O3 O 0.25850(16) 0.84545(14) 0.61479(10) 0.01836(19) Uani 1 1 d
O1 O 0.44487(16) 0.72810(15) 1.25318(10) 0.01812(19) Uani 1 1 d
O4 O 0.68375(16) 0.66201(14) 0.53372(9) 0.01595(18) Uani 1 1 d
O2 O 0.84171(16) 0.71246(15) 1.14324(10) 0.01818(19) Uani 1 1 d
C1 C 0.6075(2) 0.72982(17) 1.12468(13) 0.0129(2) Uani 1 1 d
C2 C 0.4783(2) 0.75652(17) 0.95588(13) 0.0138(2) Uani 1 1 d
C3 C 0.6237(2) 0.74037(18) 0.81573(13) 0.0138(2) Uani 1 1 d
C4 C 0.5080(2) 0.75375(17) 0.64417(13) 0.0125(2) Uani 1 1 d
H1 H 0.543(4) 0.704(3) 1.368(3) 0.051(6) Uiso 1 1 d
H2 H 0.285(3) 0.780(3) 0.952(2) 0.023(4) Uiso 1 1 d
H3 H 0.815(4) 0.714(3) 0.822(2) 0.031(4) Uiso 1 1 d
loop_
_atom_site_aniso_label
_atom_site_aniso_U_11
_atom_site_aniso_U_22
_atom_site_aniso_U_33
_atom_site_aniso_U_23
_atom_site_aniso_U_13
_atom_site_aniso_U_12
Na1 0.0132(2) 0.0227(3) 0.0158(2) -0.00492(17) -0.00044(16) -0.00720(18)
O3 0.0138(4) 0.0228(4) 0.0151(4) -0.0050(3) -0.0034(3) -0.0024(3)
O1 0.0179(4) 0.0306(5) 0.0086(3) -0.0024(3) 0.0003(3) -0.0123(3)
O4 0.0150(3) 0.0236(4) 0.0089(3) -0.0035(3) 0.0017(3) -0.0068(3)
O2 0.0138(4) 0.0271(4) 0.0131(4) -0.0049(3) -0.0012(3) -0.0063(3)
C1 0.0155(4) 0.0124(4) 0.0101(4) -0.0018(3) -0.0013(3) -0.0043(4)
C2 0.0147(4) 0.0163(5) 0.0103(5) -0.0020(4) -0.0022(4) -0.0055(4)
C3 0.0135(4) 0.0163(5) 0.0105(4) -0.0025(3) -0.0024(3) -0.0040(4)
C4 0.0151(4) 0.0134(4) 0.0095(4) -0.0010(3) -0.0010(3) -0.0061(4)
loop_
_atom_type_symbol
_atom_type_description
_atom_type_scat_dispersion_real
_atom_type_scat_dispersion_imag
_atom_type_scat_source
C C 0.0033 0.0016 'International Tables Vol C Tables 4.2.6.8 and 6.1.1.4'
H H 0.0000 0.0000 'International Tables Vol C Tables 4.2.6.8 and 6.1.1.4'
Na Na 0.0362 0.0249 'International Tables Vol C Tables 4.2.6.8 and 6.1.1.4'
O O 0.0106 0.0060 'International Tables Vol C Tables 4.2.6.8 and 6.1.1.4'
loop_
_geom_angle_atom_site_label_1
_geom_angle_atom_site_label_2
_geom_angle_atom_site_label_3
_geom_angle
_geom_angle_site_symmetry_1
_geom_angle_site_symmetry_3
O2 Na1 O1 91.77(3) 1_455 .
O2 Na1 O4 84.01(3) 1_455 1_456
O1 Na1 O4 160.28(4) . 1_456
O2 Na1 O3 170.96(4) 1_455 1_556
O1 Na1 O3 80.90(3) . 1_556
O4 Na1 O3 104.66(3) 1_456 1_556
O2 Na1 O3 95.55(3) 1_455 2_577
O1 Na1 O3 109.75(3) . 2_577
O4 Na1 O3 89.85(3) 1_456 2_577
O3 Na1 O3 82.09(3) 1_556 2_577
O2 Na1 O4 92.69(3) 1_455 2_667
O1 Na1 O4 78.63(3) . 2_667
O4 Na1 O4 82.33(3) 1_456 2_667
O3 Na1 O4 91.05(3) 1_556 2_667
O3 Na1 O4 167.99(3) 2_577 2_667
O2 Na1 Na1 135.86(3) 1_455 2_578
O1 Na1 Na1 96.89(3) . 2_578
O4 Na1 Na1 99.54(3) 1_456 2_578
O3 Na1 Na1 41.16(2) 1_556 2_578
O3 Na1 Na1 40.93(2) 2_577 2_578
O4 Na1 Na1 131.46(3) 2_667 2_578
O2 Na1 Na1 88.04(3) 1_455 2_568
O1 Na1 Na1 117.67(3) . 2_568
O4 Na1 Na1 43.13(2) 1_456 2_568
O3 Na1 Na1 100.02(3) 1_556 2_568
O3 Na1 Na1 132.31(3) 2_577 2_568
O4 Na1 Na1 39.20(2) 2_667 2_568
Na1 Na1 Na1 124.22(3) 2_578 2_568
O2 Na1 H1 114.0(5) 1_455 .
O1 Na1 H1 23.2(4) . .
O4 Na1 H1 149.2(4) 1_456 .
O3 Na1 H1 59.4(5) 1_556 .
O3 Na1 H1 111.7(5) 2_577 .
O4 Na1 H1 72.5(5) 2_667 .
Na1 Na1 H1 84.8(5) 2_578 .
Na1 Na1 H1 109.9(4) 2_568 .
C4 O3 Na1 123.68(7) . 1_554
C4 O3 Na1 128.07(7) . 2_577
Na1 O3 Na1 97.91(3) 1_554 2_577
C1 O1 Na1 157.31(7) . .
C1 O1 H1 111.5(11) . .
Na1 O1 H1 91.1(11) . .
C4 O4 Na1 131.79(7) . 1_654
C4 O4 Na1 116.14(7) . 2_667
Na1 O4 Na1 97.67(3) 1_654 2_667
C1 O2 Na1 126.00(7) . 1_655
O2 C1 O1 122.94(9) . .
O2 C1 C2 123.49(10) . .
O1 C1 C2 113.57(9) . .
C3 C2 C1 120.51(10) . .
C3 C2 H2 121.2(9) . .
C1 C2 H2 118.2(9) . .
C2 C3 C4 122.78(10) . .
C2 C3 H3 120.2(11) . .
C4 C3 H3 117.0(11) . .
O3 C4 O4 123.95(10) . .
O3 C4 C3 121.02(9) . .
O4 C4 C3 115.02(9) . .
loop_
_geom_bond_atom_site_label_1
_geom_bond_atom_site_label_2
_geom_bond_distance
_geom_bond_site_symmetry_2
Na1 O2 2.3731(9) 1_455
Na1 O1 2.3766(9) .
Na1 O4 2.3985(9) 1_456
Na1 O3 2.4098(9) 1_556
Na1 O3 2.4204(10) 2_577
Na1 O4 2.5947(10) 2_667
Na1 Na1 3.6430(9) 2_578
Na1 Na1 3.7611(10) 2_568
Na1 H1 2.607(19) .
O3 C4 1.2464(13) .
O3 Na1 2.4098(9) 1_554
O3 Na1 2.4205(10) 2_577
O1 C1 1.3186(13) .
O1 H1 1.03(2) .
O4 C4 1.2887(13) .
O4 Na1 2.3985(9) 1_654
O4 Na1 2.5946(10) 2_667
O2 C1 1.2235(13) .
O2 Na1 2.3731(9) 1_655
C1 C2 1.4879(14) .
C2 C3 1.3272(15) .
C2 H2 0.985(16) .
C3 C4 1.4942(14) .
C3 H3 0.968(17) .
loop_
_geom_torsion_atom_site_label_1
_geom_torsion_atom_site_label_2
_geom_torsion_atom_site_label_3
_geom_torsion_atom_site_label_4
_geom_torsion
_geom_torsion_site_symmetry_1
Na1 O2 C1 O1 -16.40(15) 1_655
Na1 O2 C1 C2 163.12(7) 1_655
Na1 O1 C1 O2 171.82(14) .
Na1 O1 C1 C2 -7.7(2) .
O2 C1 C2 C3 6.77(17) .
O1 C1 C2 C3 -173.66(10) .
C1 C2 C3 C4 176.70(9) .
Na1 O3 C4 O4 22.89(15) 1_554
Na1 O3 C4 O4 -114.17(10) 2_577
Na1 O3 C4 C3 -156.13(7) 1_554
Na1 O3 C4 C3 66.81(13) 2_577
Na1 O4 C4 O3 111.85(11) 1_654
Na1 O4 C4 O3 -118.52(10) 2_667
Na1 O4 C4 C3 -69.08(12) 1_654
Na1 O4 C4 C3 60.55(10) 2_667
C2 C3 C4 O3 21.84(17) .
C2 C3 C4 O4 -157.26(11) .
