#------------------------------------------------------------------------------
#$Date: 2016-02-05 00:38:26 +0200 (Fri, 05 Feb 2016) $
#$Revision: 175974 $
#$URL: svn://www.crystallography.net/cod/cif/7/22/32/7223282.cif $
#------------------------------------------------------------------------------
#
# This file is available in the Crystallography Open Database (COD),
# http://www.crystallography.net/
#
# All data on this site have been placed in the public domain by the
# contributors.
#
data_7223282
loop_
_publ_author_name
'Mondal, Pradip Kumar'
'Chopra, Deepak'
_publ_section_title
;
 Crystal structure landscape of conformationally flexible organo-fluorine
 compounds
;
_journal_issue                   1
_journal_name_full               CrystEngComm
_journal_page_first              48
_journal_paper_doi               10.1039/C5CE01721A
_journal_volume                  18
_journal_year                    2016
_chemical_formula_moiety         'C13 H9 F2 N O'
_chemical_formula_sum            'C13 H9 F2 N O'
_chemical_formula_weight         233.21
_chemical_name_systematic        3,4-difluoro-N-phenylbenzamide
_space_group_crystal_system      triclinic
_space_group_IT_number           2
_space_group_name_Hall           '-P 1'
_space_group_name_H-M_alt        'P -1'
_symmetry_space_group_name_Hall  '-P 1'
_symmetry_space_group_name_H-M   'P -1'
_atom_sites_solution_hydrogens   geom
_audit_creation_method           SHELXL-2014/6
_audit_update_record
;
2015-11-16 deposited with the CCDC.
2015-11-17 downloaded from the CCDC.
;
_cell_angle_alpha                106.2510(10)
_cell_angle_beta                 100.3370(10)
_cell_angle_gamma                90.2030(10)
_cell_formula_units_Z            2
_cell_length_a                   5.43850(10)
_cell_length_b                   7.5939(2)
_cell_length_c                   12.8178(3)
_cell_measurement_temperature    100(2)
_cell_volume                     499.16(2)
_computing_structure_refinement  'SHELXL-2014/6 (Sheldrick, 2014)'
_diffrn_ambient_temperature      100(2)
_diffrn_measured_fraction_theta_full 0.998
_diffrn_measured_fraction_theta_max 0.998
_diffrn_measurement_device_type  goniometer
_diffrn_radiation_type           MoK\a
_diffrn_radiation_wavelength     0.71073
_diffrn_reflns_av_R_equivalents  0.0228
_diffrn_reflns_av_unetI/netI     0.0176
_diffrn_reflns_laue_measured_fraction_full 0.998
_diffrn_reflns_laue_measured_fraction_max 0.998
_diffrn_reflns_limit_h_max       7
_diffrn_reflns_limit_h_min       -7
_diffrn_reflns_limit_k_max       9
_diffrn_reflns_limit_k_min       -9
_diffrn_reflns_limit_l_max       16
_diffrn_reflns_limit_l_min       -16
_diffrn_reflns_number            9603
_diffrn_reflns_point_group_measured_fraction_full 0.998
_diffrn_reflns_point_group_measured_fraction_max 0.998
_diffrn_reflns_theta_full        25.242
_diffrn_reflns_theta_max         27.877
_diffrn_reflns_theta_min         1.685
_exptl_absorpt_coefficient_mu    0.124
_exptl_absorpt_correction_T_max  0.981
_exptl_absorpt_correction_T_min  0.94
_exptl_absorpt_correction_type   multi-scan
_exptl_absorpt_process_details   SABADS
_exptl_crystal_density_diffrn    1.552
_exptl_crystal_description       Plate
_exptl_crystal_F_000             240
_exptl_crystal_size_max          0.400
_exptl_crystal_size_mid          0.300
_exptl_crystal_size_min          0.100
_refine_diff_density_max         0.313
_refine_diff_density_min         -0.286
_refine_diff_density_rms         0.064
_refine_ls_extinction_method     none
_refine_ls_goodness_of_fit_ref   1.032
_refine_ls_hydrogen_treatment    constr
_refine_ls_matrix_type           full
_refine_ls_number_parameters     154
_refine_ls_number_reflns         2372
_refine_ls_number_restraints     0
_refine_ls_restrained_S_all      1.032
_refine_ls_R_factor_all          0.0383
_refine_ls_R_factor_gt           0.0365
_refine_ls_shift/su_max          0.001
_refine_ls_shift/su_mean         0.000
_refine_ls_structure_factor_coef Fsqd
_refine_ls_weighting_details
'w=1/[\s^2^(Fo^2^)+(0.0510P)^2^+0.2254P] where P=(Fo^2^+2Fc^2^)/3'
_refine_ls_weighting_scheme      calc
_refine_ls_wR_factor_gt          0.0969
_refine_ls_wR_factor_ref         0.0987
_reflns_Friedel_coverage         0.000
_reflns_number_gt                2226
_reflns_number_total             2372
_reflns_threshold_expression     'I > 2\s(I)'
_cod_data_source_file            c5ce01721a2.cif
_cod_data_source_block           P0034
_cod_depositor_comments
'Adding full bibliography for 7223280--7223294.cif.'
_cod_database_code               7223282
_shelx_space_group_comment
;
The symmetry employed for this shelxl refinement is uniquely defined
by the following loop, which should always be used as a source of
symmetry information in preference to the above space-group names.
They are only intended as comments.
;
_shelx_estimated_absorpt_t_min   0.952
_shelx_estimated_absorpt_t_max   0.988
_shelxl_version_number           2014/6
_shelx_res_file
;
TITL p0034 in P -1
CELL   0.71073   5.4385   7.5939  12.8178 106.251 100.337  90.203
ZERR     2       0.0001   0.0002   0.0003   0.001   0.001   0.001
LATT    1
SFAC  C H F N O
UNIT  26 18 4 2 2
MERG 2
L.S. 12
TEMP -173
ACTA
BOND $H
CONF
HTAB
SIZE 0.4 0.3 0.1
FMAP 2
PLAN 15
WGHT    0.051000    0.225400
FVAR       0.30885
F1    3    0.428905    0.215589    0.965082    11.00000    0.03245    0.02976 =
         0.01469   -0.00410    0.00611   -0.00062
F2    3    0.812497    0.009472    0.917751    11.00000    0.02299    0.03357 =
         0.01663    0.00347   -0.00547    0.00067
O1    5    0.619488   -0.259936    0.503797    11.00000    0.01536    0.03639 =
         0.01756    0.00048    0.00354    0.00360
N1    4    0.191666   -0.288480    0.466825    11.00000    0.01470    0.02072 =
         0.01254    0.00082    0.00324    0.00016
AFIX  43
H1    2    0.058554   -0.260936    0.497061    11.00000   -1.20000
AFIX   0
C1    1    0.405991   -0.112119    0.648197    11.00000    0.01620    0.01563 =
         0.01338    0.00290    0.00269   -0.00104
C2    1    0.204998   -0.004753    0.673420    11.00000    0.01536    0.01880 =
         0.01664    0.00404    0.00195    0.00054
AFIX  43
H2    2    0.063926   -0.007520    0.617123    11.00000   -1.20000
AFIX   0
C3    1    0.210280    0.106288    0.780611    11.00000    0.01804    0.01856 =
         0.02032    0.00322    0.00660    0.00149
AFIX  43
H3    2    0.074475    0.180282    0.797935    11.00000   -1.20000
AFIX   0
C4    1    0.415342    0.107074    0.860987    11.00000    0.02384    0.01776 =
         0.01300    0.00005    0.00565   -0.00321
C5    1    0.614884    0.000330    0.836488    11.00000    0.01749    0.02075 =
         0.01432    0.00439   -0.00076   -0.00320
C6    1    0.613005   -0.109267    0.730814    11.00000    0.01466    0.01802 =
         0.01689    0.00405    0.00230    0.00046
AFIX  43
H6    2    0.750480   -0.181914    0.714300    11.00000   -1.20000
AFIX   0
C7    1    0.417713   -0.226762    0.533275    11.00000    0.01701    0.01781 =
         0.01393    0.00370    0.00236    0.00155
C8    1    0.148533   -0.392564    0.353923    11.00000    0.01595    0.01516 =
         0.01262    0.00263    0.00125    0.00232
C9    1   -0.071590   -0.504238    0.312894    11.00000    0.01560    0.01836 =
         0.01760    0.00447    0.00448    0.00082
AFIX  43
H9    2   -0.181764   -0.513282    0.361134    11.00000   -1.20000
AFIX   0
C10   1   -0.129949   -0.602102    0.201817    11.00000    0.01641    0.01824 =
         0.02014    0.00249   -0.00006   -0.00122
AFIX  43
H10   2   -0.279878   -0.678198    0.174355    11.00000   -1.20000
AFIX   0
C11   1    0.029672   -0.589510    0.130405    11.00000    0.02156    0.01894 =
         0.01485    0.00069    0.00123    0.00242
AFIX  43
H11   2   -0.010482   -0.656321    0.054298    11.00000   -1.20000
AFIX   0
C12   1    0.248554   -0.478031    0.171732    11.00000    0.01896    0.02156 =
         0.01612    0.00448    0.00573    0.00294
AFIX  43
H12   2    0.358038   -0.469081    0.123196    11.00000   -1.20000
AFIX   0
C13   1    0.310183   -0.379348    0.282859    11.00000    0.01490    0.01858 =
         0.01625    0.00351    0.00212   -0.00052
AFIX  43
H13   2    0.460580   -0.303759    0.310162    11.00000   -1.20000
AFIX   0
HKLF   4

REM  p0034 in P -1
REM R1 =  0.0365 for    2226 Fo > 4sig(Fo)  and  0.0383 for all    2372 data
REM    154 parameters refined using      0 restraints

END

WGHT      0.0506      0.2327

REM Instructions for potential hydrogen bonds
EQIV $1 x-1, y, z
HTAB N1 O1_$1
HTAB C9 O1_$1
HTAB C13 O1

REM Highest difference peak  0.313,  deepest hole -0.286,  1-sigma level  0.064
Q1    1   0.4083 -0.1633  0.5963  11.00000  0.05    0.31
Q2    1  -0.0777 -0.5652  0.2594  11.00000  0.05    0.28
Q3    1   0.5999 -0.0577  0.7826  11.00000  0.05    0.28
Q4    1   0.2121  0.0494  0.7319  11.00000  0.05    0.26
Q5    1   0.4909  0.0260  0.8549  11.00000  0.05    0.26
Q6    1   0.2855 -0.4328  0.2305  11.00000  0.05    0.23
Q7    1   0.1279 -0.5137  0.1552  11.00000  0.05    0.22
Q8    1   0.2265 -0.3835  0.3188  11.00000  0.05    0.22
Q9    1   0.1814 -0.3386  0.4147  11.00000  0.05    0.21
Q10   1   0.3293  0.1247  0.8166  11.00000  0.05    0.20
Q11   1   0.4974 -0.1244  0.6927  11.00000  0.05    0.20
Q12   1   0.3155 -0.0585  0.6640  11.00000  0.05    0.20
Q13   1   0.0397 -0.4477  0.3307  11.00000  0.05    0.20
Q14   1  -0.0343 -0.5833  0.1713  11.00000  0.05    0.18
Q15   1   0.1010  0.2133  0.8326  11.00000  0.05    0.17
;
_shelx_res_checksum              52432
loop_
_space_group_symop_operation_xyz
'x, y, z'
'-x, -y, -z'
loop_
_atom_site_label
_atom_site_type_symbol
_atom_site_fract_x
_atom_site_fract_y
_atom_site_fract_z
_atom_site_U_iso_or_equiv
_atom_site_adp_type
_atom_site_occupancy
_atom_site_site_symmetry_order
_atom_site_calc_flag
_atom_site_refinement_flags_posn
_atom_site_refinement_flags_adp
F1 F 0.42891(14) 0.21559(10) 0.96508(6) 0.02758(19) Uani 1 1 d . .
F2 F 0.81250(13) 0.00947(10) 0.91775(6) 0.02635(19) Uani 1 1 d . .
O1 O 0.61949(15) -0.25994(13) 0.50380(7) 0.0245(2) Uani 1 1 d . .
N1 N 0.19167(17) -0.28848(13) 0.46683(7) 0.0167(2) Uani 1 1 d . .
H1 H 0.0586 -0.2609 0.4971 0.020 Uiso 1 1 calc R U
C1 C 0.4060(2) -0.11212(14) 0.64820(9) 0.0153(2) Uani 1 1 d . .
C2 C 0.2050(2) -0.00475(15) 0.67342(9) 0.0173(2) Uani 1 1 d . .
H2 H 0.0639 -0.0075 0.6171 0.021 Uiso 1 1 calc R U
C3 C 0.2103(2) 0.10629(15) 0.78061(9) 0.0191(2) Uani 1 1 d . .
H3 H 0.0745 0.1803 0.7979 0.023 Uiso 1 1 calc R U
C4 C 0.4153(2) 0.10707(15) 0.86099(9) 0.0188(2) Uani 1 1 d . .
C5 C 0.6149(2) 0.00033(15) 0.83649(9) 0.0181(2) Uani 1 1 d . .
C6 C 0.6130(2) -0.10927(15) 0.73081(9) 0.0168(2) Uani 1 1 d . .
H6 H 0.7505 -0.1819 0.7143 0.020 Uiso 1 1 calc R U
C7 C 0.4177(2) -0.22676(15) 0.53328(9) 0.0165(2) Uani 1 1 d . .
C8 C 0.1485(2) -0.39256(14) 0.35392(9) 0.0150(2) Uani 1 1 d . .
C9 C -0.0716(2) -0.50424(15) 0.31289(9) 0.0171(2) Uani 1 1 d . .
H9 H -0.1818 -0.5133 0.3611 0.021 Uiso 1 1 calc R U
C10 C -0.1299(2) -0.60210(15) 0.20182(9) 0.0193(2) Uani 1 1 d . .
H10 H -0.2799 -0.6782 0.1744 0.023 Uiso 1 1 calc R U
C11 C 0.0297(2) -0.58951(15) 0.13040(9) 0.0196(2) Uani 1 1 d . .
H11 H -0.0105 -0.6563 0.0543 0.023 Uiso 1 1 calc R U
C12 C 0.2486(2) -0.47803(16) 0.17173(9) 0.0187(2) Uani 1 1 d . .
H12 H 0.3580 -0.4691 0.1232 0.022 Uiso 1 1 calc R U
C13 C 0.3102(2) -0.37935(15) 0.28286(9) 0.0170(2) Uani 1 1 d . .
H13 H 0.4606 -0.3038 0.3102 0.020 Uiso 1 1 calc R U
loop_
_atom_site_aniso_label
_atom_site_aniso_U_11
_atom_site_aniso_U_22
_atom_site_aniso_U_33
_atom_site_aniso_U_23
_atom_site_aniso_U_13
_atom_site_aniso_U_12
F1 0.0324(4) 0.0298(4) 0.0147(4) -0.0041(3) 0.0061(3) -0.0006(3)
F2 0.0230(4) 0.0336(4) 0.0166(3) 0.0035(3) -0.0055(3) 0.0007(3)
O1 0.0154(4) 0.0364(5) 0.0176(4) 0.0005(3) 0.0035(3) 0.0036(3)
N1 0.0147(4) 0.0207(5) 0.0125(4) 0.0008(3) 0.0032(3) 0.0002(3)
C1 0.0162(5) 0.0156(5) 0.0134(5) 0.0029(4) 0.0027(4) -0.0010(4)
C2 0.0154(5) 0.0188(5) 0.0166(5) 0.0040(4) 0.0020(4) 0.0005(4)
C3 0.0180(5) 0.0186(5) 0.0203(6) 0.0032(4) 0.0066(4) 0.0015(4)
C4 0.0238(6) 0.0178(5) 0.0130(5) 0.0000(4) 0.0056(4) -0.0032(4)
C5 0.0175(5) 0.0208(5) 0.0143(5) 0.0044(4) -0.0008(4) -0.0032(4)
C6 0.0147(5) 0.0180(5) 0.0169(5) 0.0041(4) 0.0023(4) 0.0005(4)
C7 0.0170(5) 0.0178(5) 0.0139(5) 0.0037(4) 0.0024(4) 0.0016(4)
C8 0.0160(5) 0.0152(5) 0.0126(5) 0.0026(4) 0.0012(4) 0.0023(4)
C9 0.0156(5) 0.0184(5) 0.0176(5) 0.0045(4) 0.0045(4) 0.0008(4)
C10 0.0164(5) 0.0182(5) 0.0201(5) 0.0025(4) -0.0001(4) -0.0012(4)
C11 0.0216(6) 0.0189(5) 0.0149(5) 0.0007(4) 0.0012(4) 0.0024(4)
C12 0.0190(5) 0.0216(5) 0.0161(5) 0.0045(4) 0.0057(4) 0.0029(4)
C13 0.0149(5) 0.0186(5) 0.0162(5) 0.0035(4) 0.0021(4) -0.0005(4)
loop_
_atom_type_symbol
_atom_type_description
_atom_type_scat_dispersion_real
_atom_type_scat_dispersion_imag
_atom_type_scat_source
C C 0.0033 0.0016 'International Tables Vol C Tables 4.2.6.8 and 6.1.1.4'
H H 0.0000 0.0000 'International Tables Vol C Tables 4.2.6.8 and 6.1.1.4'
F F 0.0171 0.0103 'International Tables Vol C Tables 4.2.6.8 and 6.1.1.4'
N N 0.0061 0.0033 'International Tables Vol C Tables 4.2.6.8 and 6.1.1.4'
O O 0.0106 0.0060 'International Tables Vol C Tables 4.2.6.8 and 6.1.1.4'
loop_
_geom_angle_atom_site_label_1
_geom_angle_atom_site_label_2
_geom_angle_atom_site_label_3
_geom_angle
C7 N1 C8 126.73(9)
C7 N1 H1 116.6
C8 N1 H1 116.6
C6 C1 C2 120.01(10)
C6 C1 C7 117.03(9)
C2 C1 C7 122.89(10)
C3 C2 C1 120.34(10)
C3 C2 H2 119.8
C1 C2 H2 119.8
C4 C3 C2 118.87(10)
C4 C3 H3 120.6
C2 C3 H3 120.6
F1 C4 C3 120.45(10)
F1 C4 C5 118.51(10)
C3 C4 C5 121.03(10)
F2 C5 C6 120.77(10)
F2 C5 C4 118.44(10)
C6 C5 C4 120.77(10)
C5 C6 C1 118.98(10)
C5 C6 H6 120.5
C1 C6 H6 120.5
O1 C7 N1 123.95(10)
O1 C7 C1 120.98(10)
N1 C7 C1 115.06(9)
C9 C8 C13 119.84(10)
C9 C8 N1 117.56(9)
C13 C8 N1 122.51(9)
C10 C9 C8 120.15(10)
C10 C9 H9 119.9
C8 C9 H9 119.9
C9 C10 C11 120.41(10)
C9 C10 H10 119.8
C11 C10 H10 119.8
C12 C11 C10 119.19(10)
C12 C11 H11 120.4
C10 C11 H11 120.4
C11 C12 C13 121.16(10)
C11 C12 H12 119.4
C13 C12 H12 119.4
C12 C13 C8 119.26(10)
C12 C13 H13 120.4
C8 C13 H13 120.4
loop_
_geom_bond_atom_site_label_1
_geom_bond_atom_site_label_2
_geom_bond_distance
F1 C4 1.3467(12)
F2 C5 1.3424(13)
O1 C7 1.2280(14)
N1 C7 1.3613(14)
N1 C8 1.4180(13)
N1 H1 0.8800
C1 C6 1.3959(15)
C1 C2 1.3963(15)
C1 C7 1.4994(14)
C2 C3 1.3917(15)
C2 H2 0.9500
C3 C4 1.3745(16)
C3 H3 0.9500
C4 C5 1.3854(17)
C5 C6 1.3753(15)
C6 H6 0.9500
C8 C9 1.3950(15)
C8 C13 1.3966(15)
C9 C10 1.3871(15)
C9 H9 0.9500
C10 C11 1.3907(16)
C10 H10 0.9500
C11 C12 1.3892(16)
C11 H11 0.9500
C12 C13 1.3901(15)
C12 H12 0.9500
C13 H13 0.9500
loop_
_geom_torsion_atom_site_label_1
_geom_torsion_atom_site_label_2
_geom_torsion_atom_site_label_3
_geom_torsion_atom_site_label_4
_geom_torsion
C6 C1 C2 C3 0.37(16)
C7 C1 C2 C3 -176.65(10)
C1 C2 C3 C4 -0.52(16)
C2 C3 C4 F1 178.69(10)
C2 C3 C4 C5 0.30(17)
F1 C4 C5 F2 0.21(16)
C3 C4 C5 F2 178.62(10)
F1 C4 C5 C6 -178.34(10)
C3 C4 C5 C6 0.08(17)
F2 C5 C6 C1 -178.74(10)
C4 C5 C6 C1 -0.23(17)
C2 C1 C6 C5 0.01(16)
C7 C1 C6 C5 177.20(9)
C8 N1 C7 O1 -2.67(18)
C8 N1 C7 C1 177.28(9)
C6 C1 C7 O1 -26.01(15)
C2 C1 C7 O1 151.10(11)
C6 C1 C7 N1 154.05(10)
C2 C1 C7 N1 -28.85(15)
C7 N1 C8 C9 154.30(11)
C7 N1 C8 C13 -29.07(16)
C13 C8 C9 C10 0.04(16)
N1 C8 C9 C10 176.77(10)
C8 C9 C10 C11 -0.17(17)
C9 C10 C11 C12 0.14(17)
C10 C11 C12 C13 0.01(17)
C11 C12 C13 C8 -0.12(17)
C9 C8 C13 C12 0.10(16)
N1 C8 C13 C12 -176.46(10)
