#------------------------------------------------------------------------------
#$Date: 2016-02-05 00:38:26 +0200 (Fri, 05 Feb 2016) $
#$Revision: 175974 $
#$URL: svn://www.crystallography.net/cod/cif/7/22/32/7223287.cif $
#------------------------------------------------------------------------------
#
# This file is available in the Crystallography Open Database (COD),
# http://www.crystallography.net/
#
# All data on this site have been placed in the public domain by the
# contributors.
#
data_7223287
loop_
_publ_author_name
'Mondal, Pradip Kumar'
'Chopra, Deepak'
_publ_section_title
;
 Crystal structure landscape of conformationally flexible organo-fluorine
 compounds
;
_journal_issue                   1
_journal_name_full               CrystEngComm
_journal_page_first              48
_journal_paper_doi               10.1039/C5CE01721A
_journal_volume                  18
_journal_year                    2016
_chemical_formula_sum            'C13 H7 F4 N O'
_chemical_formula_weight         269.20
_chemical_name_systematic        N-(2,3-difluorophenyl)-3,5-difluorobenzamide
_space_group_crystal_system      triclinic
_space_group_IT_number           1
_space_group_name_Hall           'P 1'
_space_group_name_H-M_alt        'P 1'
_symmetry_space_group_name_Hall  'P 1'
_symmetry_space_group_name_H-M   'P 1'
_atom_sites_solution_hydrogens   geom
_audit_creation_method           SHELXL-2014/6
_audit_update_record
;
2015-11-16 deposited with the CCDC.
2015-11-17 downloaded from the CCDC.
;
_cell_angle_alpha                100.967(4)
_cell_angle_beta                 92.076(4)
_cell_angle_gamma                92.987(4)
_cell_formula_units_Z            1
_cell_length_a                   4.6457(5)
_cell_length_b                   5.0544(5)
_cell_length_c                   11.8597(13)
_cell_measurement_temperature    105(2)
_cell_volume                     272.72(5)
_computing_structure_refinement  'SHELXL-2014/6 (Sheldrick, 2014)'
_diffrn_ambient_temperature      105(2)
_diffrn_measured_fraction_theta_full 0.992
_diffrn_measured_fraction_theta_max 0.991
_diffrn_measurement_device_type  goniometer
_diffrn_radiation_type           MoK\a
_diffrn_radiation_wavelength     0.71073
_diffrn_reflns_av_R_equivalents  0.0262
_diffrn_reflns_av_unetI/netI     0.0286
_diffrn_reflns_laue_measured_fraction_full 0.992
_diffrn_reflns_laue_measured_fraction_max 0.991
_diffrn_reflns_limit_h_max       5
_diffrn_reflns_limit_h_min       -5
_diffrn_reflns_limit_k_max       6
_diffrn_reflns_limit_k_min       -6
_diffrn_reflns_limit_l_max       14
_diffrn_reflns_limit_l_min       -14
_diffrn_reflns_number            5200
_diffrn_reflns_point_group_measured_fraction_full 0.944
_diffrn_reflns_point_group_measured_fraction_max 0.939
_diffrn_reflns_theta_full        25.242
_diffrn_reflns_theta_max         26.364
_diffrn_reflns_theta_min         3.504
_exptl_absorpt_coefficient_mu    0.151
_exptl_absorpt_correction_T_max  0.988
_exptl_absorpt_correction_T_min  0.921
_exptl_absorpt_correction_type   multi-scan
_exptl_absorpt_process_details   SABADS
_exptl_crystal_density_diffrn    1.639
_exptl_crystal_description       Plate
_exptl_crystal_F_000             136
_exptl_crystal_size_max          0.500
_exptl_crystal_size_mid          0.240
_exptl_crystal_size_min          0.090
_refine_diff_density_max         0.289
_refine_diff_density_min         -0.220
_refine_diff_density_rms         0.044
_refine_ls_extinction_method     none
_refine_ls_goodness_of_fit_ref   1.059
_refine_ls_hydrogen_treatment    constr
_refine_ls_matrix_type           full
_refine_ls_number_parameters     172
_refine_ls_number_reflns         2091
_refine_ls_number_restraints     3
_refine_ls_restrained_S_all      1.059
_refine_ls_R_factor_all          0.0288
_refine_ls_R_factor_gt           0.0277
_refine_ls_shift/su_max          0.000
_refine_ls_shift/su_mean         0.000
_refine_ls_structure_factor_coef Fsqd
_refine_ls_weighting_details
'w=1/[\s^2^(Fo^2^)+(0.0460P)^2^+0.0448P] where P=(Fo^2^+2Fc^2^)/3'
_refine_ls_weighting_scheme      calc
_refine_ls_wR_factor_gt          0.0746
_refine_ls_wR_factor_ref         0.0756
_reflns_Friedel_coverage         0.894
_reflns_friedel_fraction_full    0.896
_reflns_friedel_fraction_max     0.886
_reflns_number_gt                2026
_reflns_number_total             2091
_reflns_threshold_expression     'I > 2\s(I)'
_cod_data_source_file            c5ce01721a2.cif
_cod_data_source_block           P2335
_cod_depositor_comments
'Adding full bibliography for 7223280--7223294.cif.'
_cod_database_code               7223287
_shelx_space_group_comment
;
The symmetry employed for this shelxl refinement is uniquely defined
by the following loop, which should always be used as a source of
symmetry information in preference to the above space-group names.
They are only intended as comments.
;
_shelx_estimated_absorpt_t_min   0.928
_shelx_estimated_absorpt_t_max   0.987
_shelxl_version_number           2014/6
_shelx_res_file
;
TITL    p2335 in P 1
CELL   0.71073   4.6457   5.0544  11.8597 100.967  92.076  92.987
ZERR     1       0.0005   0.0005   0.0013   0.004   0.004   0.004
LATT -1
SFAC    C   H   N   O   F
UNIT    13   7   1   1   4
MERG    2
L.S.    12
TEMP    -168
ACTA
CONF
HTAB
BOND  $H
SIZE  0.09 0.24 0.50
FMAP    2
PLAN    15
WGHT    0.046000    0.044800
FVAR       0.63583
F1    5    1.702617    0.343063    0.937862    11.00000    0.03054    0.02563 =
         0.03002    0.00484   -0.00617    0.01466
F2    5    1.159428    1.086486    1.063748    11.00000    0.03518    0.02789 =
         0.01958   -0.00473   -0.00168    0.01277
F3    5    1.037031    0.664947    0.218741    11.00000    0.03539    0.02829 =
         0.02087    0.01078    0.00070   -0.00974
F4    5    1.259569    0.727883    0.433796    11.00000    0.02648    0.02609 =
         0.02524    0.00727   -0.00378   -0.01418
O1    4    0.992425    0.883781    0.635904    11.00000    0.03718    0.01239 =
         0.02104    0.00458   -0.00721    0.00163
N1    3    1.039453    0.429709    0.591202    11.00000    0.02153    0.01189 =
         0.01700    0.00369   -0.00316   -0.00026
AFIX  43
H1    2    1.094291    0.286572    0.616482    11.00000   -1.20000
AFIX   0
C1    1    1.199914    0.675713    0.780828    11.00000    0.01751    0.01525 =
         0.01626    0.00342   -0.00191   -0.00044
C2    1    1.396402    0.490687    0.803526    11.00000    0.01868    0.01499 =
         0.02061    0.00196    0.00116    0.00150
AFIX  43
H2    2    1.451661    0.350730    0.744309    11.00000   -1.20000
AFIX   0
C3    1    1.507223    0.517682    0.914332    11.00000    0.01551    0.01592 =
         0.02461    0.00680   -0.00092    0.00380
C4    1    1.434476    0.714289    1.004773    11.00000    0.01981    0.02155 =
         0.01543    0.00693   -0.00290   -0.00034
AFIX  43
H4    2    1.514615    0.727273    1.080607    11.00000   -1.20000
AFIX   0
C5    1    1.237243    0.891088    0.977691    11.00000    0.02112    0.01521 =
         0.01891   -0.00036    0.00189    0.00234
C6    1    1.119830    0.879010    0.868659    11.00000    0.01860    0.01309 =
         0.02261    0.00389   -0.00158    0.00211
AFIX  43
H6    2    0.987222    1.006274    0.853558    11.00000   -1.20000
AFIX   0
C7    1    1.069973    0.674438    0.663046    11.00000    0.01857    0.01373 =
         0.01823    0.00445   -0.00149    0.00084
C8    1    0.922468    0.396993    0.477064    11.00000    0.01824    0.01273 =
         0.01785    0.00325   -0.00009    0.00387
C9    1    0.700937    0.202278    0.437445    11.00000    0.02185    0.01324 =
         0.02054    0.00512    0.00081   -0.00066
AFIX  43
H9    2    0.624348    0.093731    0.487714    11.00000   -1.20000
AFIX   0
C10   1    0.591129    0.165688    0.324829    11.00000    0.02215    0.01698 =
         0.02216    0.00207   -0.00302   -0.00410
AFIX  43
H10   2    0.439561    0.032209    0.298603    11.00000   -1.20000
AFIX   0
C11   1    0.700798    0.322556    0.249916    11.00000    0.02217    0.01770 =
         0.01679    0.00176   -0.00270    0.00117
AFIX  43
H11   2    0.624832    0.298739    0.172958    11.00000   -1.20000
AFIX   0
C12   1    0.921196    0.512437    0.289768    11.00000    0.02261    0.01681 =
         0.01760    0.00797    0.00475    0.00024
C13   1    1.034009    0.549053    0.401371    11.00000    0.01698    0.01534 =
         0.02112    0.00282   -0.00039   -0.00358
HKLF   4

REM     p2335 in P 1
REM R1 =  0.0277 for    2026 Fo > 4sig(Fo)  and  0.0288 for all    2091 data
REM    172 parameters refined using      3 restraints

END

WGHT      0.0460      0.0448

REM Instructions for potential hydrogen bonds
EQIV $1 x, y-1, z
HTAB N1 O1_$1
EQIV $2 x-1, y+1, z
HTAB C6 F1_$2
EQIV $3 x-1, y-1, z
HTAB C9 F4_$3
EQIV $4 x-1, y-1, z-1
HTAB C11 F2_$4

REM Highest difference peak  0.289,  deepest hole -0.220,  1-sigma level  0.044
Q1    1   1.1546  0.6697  0.7233  11.00000  0.05    0.29
Q2    1   1.1016  0.7425  0.8364  11.00000  0.05    0.22
Q3    1   1.1034  0.8530  0.9322  11.00000  0.05    0.21
Q4    1   1.0378  0.4890  0.3402  11.00000  0.05    0.19
Q5    1   1.2321  0.8993  0.9222  11.00000  0.05    0.19
Q6    1   0.5893  0.2102  0.3969  11.00000  0.05    0.18
Q7    1   1.4132  0.4895  0.8676  11.00000  0.05    0.18
Q8    1   0.9198  0.5676  0.3546  11.00000  0.05    0.17
Q9    1   1.5419  0.4041  0.7426  11.00000  0.05    0.17
Q10   1   1.3092  0.7617  0.9994  11.00000  0.05    0.17
Q11   1   0.9630  0.4172  0.5421  11.00000  0.05    0.17
Q12   1   0.9329  0.5488  0.4414  11.00000  0.05    0.17
Q13   1   1.4390  0.7063  1.0747  11.00000  0.05    0.17
Q14   1   1.5938  0.3041  0.7185  11.00000  0.05    0.16
Q15   1   0.9646  0.8776  0.8639  11.00000  0.05    0.16
;
_shelx_res_checksum              27831
loop_
_space_group_symop_operation_xyz
'x, y, z'
loop_
_atom_site_label
_atom_site_type_symbol
_atom_site_fract_x
_atom_site_fract_y
_atom_site_fract_z
_atom_site_U_iso_or_equiv
_atom_site_adp_type
_atom_site_occupancy
_atom_site_site_symmetry_order
_atom_site_calc_flag
_atom_site_refinement_flags_posn
_atom_site_refinement_flags_adp
F1 F 1.7026(3) 0.3431(3) 0.93786(13) 0.0285(4) Uani 1 1 d . .
F2 F 1.1594(3) 1.0865(3) 1.06375(14) 0.0285(4) Uani 1 1 d . .
F3 F 1.0370(3) 0.6649(3) 0.21874(13) 0.0278(4) Uani 1 1 d . .
F4 F 1.2596(3) 0.7279(3) 0.43380(13) 0.0263(4) Uani 1 1 d . .
O1 O 0.9924(4) 0.8838(3) 0.63590(15) 0.0236(4) Uani 1 1 d . .
N1 N 1.0395(4) 0.4297(4) 0.59120(16) 0.0168(4) Uani 1 1 d . .
H1 H 1.0943 0.2866 0.6165 0.020 Uiso 1 1 calc R U
C1 C 1.1999(5) 0.6757(4) 0.7808(2) 0.0164(5) Uani 1 1 d . .
C2 C 1.3964(5) 0.4907(5) 0.8035(2) 0.0183(5) Uani 1 1 d . .
H2 H 1.4517 0.3507 0.7443 0.022 Uiso 1 1 calc R U
C3 C 1.5072(5) 0.5177(5) 0.9143(2) 0.0182(5) Uani 1 1 d . .
C4 C 1.4345(5) 0.7143(5) 1.0048(2) 0.0186(5) Uani 1 1 d . .
H4 H 1.5146 0.7273 1.0806 0.022 Uiso 1 1 calc R U
C5 C 1.2372(5) 0.8911(5) 0.9777(2) 0.0188(5) Uani 1 1 d . .
C6 C 1.1198(5) 0.8790(5) 0.8687(2) 0.0181(5) Uani 1 1 d . .
H6 H 0.9872 1.0063 0.8536 0.022 Uiso 1 1 calc R U
C7 C 1.0700(5) 0.6744(5) 0.6630(2) 0.0167(5) Uani 1 1 d . .
C8 C 0.9225(5) 0.3970(5) 0.4771(2) 0.0162(5) Uani 1 1 d . .
C9 C 0.7009(5) 0.2023(5) 0.4374(2) 0.0184(5) Uani 1 1 d . .
H9 H 0.6243 0.0937 0.4877 0.022 Uiso 1 1 calc R U
C10 C 0.5911(5) 0.1657(5) 0.3248(2) 0.0209(5) Uani 1 1 d . .
H10 H 0.4396 0.0322 0.2986 0.025 Uiso 1 1 calc R U
C11 C 0.7008(5) 0.3226(5) 0.2499(2) 0.0192(5) Uani 1 1 d . .
H11 H 0.6248 0.2987 0.1730 0.023 Uiso 1 1 calc R U
C12 C 0.9212(5) 0.5124(5) 0.2898(2) 0.0183(5) Uani 1 1 d . .
C13 C 1.0340(5) 0.5491(5) 0.4014(2) 0.0181(5) Uani 1 1 d . .
loop_
_atom_site_aniso_label
_atom_site_aniso_U_11
_atom_site_aniso_U_22
_atom_site_aniso_U_33
_atom_site_aniso_U_23
_atom_site_aniso_U_13
_atom_site_aniso_U_12
F1 0.0305(8) 0.0256(8) 0.0300(8) 0.0048(7) -0.0062(6) 0.0147(6)
F2 0.0352(8) 0.0279(8) 0.0196(7) -0.0047(6) -0.0017(6) 0.0128(6)
F3 0.0354(9) 0.0283(8) 0.0209(8) 0.0108(6) 0.0007(6) -0.0097(6)
F4 0.0265(8) 0.0261(8) 0.0252(8) 0.0073(6) -0.0038(6) -0.0142(6)
O1 0.0372(11) 0.0124(8) 0.0210(9) 0.0046(7) -0.0072(7) 0.0016(7)
N1 0.0215(10) 0.0119(9) 0.0170(10) 0.0037(8) -0.0032(8) -0.0003(7)
C1 0.0175(12) 0.0153(12) 0.0163(11) 0.0034(9) -0.0019(9) -0.0004(9)
C2 0.0187(11) 0.0150(11) 0.0206(11) 0.0020(9) 0.0012(8) 0.0015(8)
C3 0.0155(11) 0.0159(12) 0.0246(12) 0.0068(10) -0.0009(9) 0.0038(9)
C4 0.0198(11) 0.0216(12) 0.0154(10) 0.0069(9) -0.0029(8) -0.0003(8)
C5 0.0211(12) 0.0152(12) 0.0189(12) -0.0004(9) 0.0019(9) 0.0023(9)
C6 0.0186(11) 0.0131(11) 0.0226(12) 0.0039(9) -0.0016(9) 0.0021(8)
C7 0.0186(11) 0.0137(11) 0.0182(12) 0.0045(9) -0.0015(8) 0.0008(8)
C8 0.0182(11) 0.0127(10) 0.0179(11) 0.0033(9) -0.0001(9) 0.0039(8)
C9 0.0218(12) 0.0132(11) 0.0205(12) 0.0051(9) 0.0008(9) -0.0007(9)
C10 0.0222(12) 0.0170(11) 0.0222(12) 0.0021(9) -0.0030(9) -0.0041(9)
C11 0.0222(12) 0.0177(11) 0.0168(11) 0.0018(9) -0.0027(9) 0.0012(9)
C12 0.0226(13) 0.0168(11) 0.0176(12) 0.0080(9) 0.0047(10) 0.0002(9)
C13 0.0170(11) 0.0153(11) 0.0211(12) 0.0028(9) -0.0004(9) -0.0036(9)
loop_
_atom_type_symbol
_atom_type_description
_atom_type_scat_dispersion_real
_atom_type_scat_dispersion_imag
_atom_type_scat_source
C C 0.0033 0.0016 'International Tables Vol C Tables 4.2.6.8 and 6.1.1.4'
H H 0.0000 0.0000 'International Tables Vol C Tables 4.2.6.8 and 6.1.1.4'
N N 0.0061 0.0033 'International Tables Vol C Tables 4.2.6.8 and 6.1.1.4'
O O 0.0106 0.0060 'International Tables Vol C Tables 4.2.6.8 and 6.1.1.4'
F F 0.0171 0.0103 'International Tables Vol C Tables 4.2.6.8 and 6.1.1.4'
loop_
_geom_angle_atom_site_label_1
_geom_angle_atom_site_label_2
_geom_angle_atom_site_label_3
_geom_angle
C7 N1 C8 122.32(19)
C7 N1 H1 118.8
C8 N1 H1 118.8
C6 C1 C2 120.5(2)
C6 C1 C7 116.3(2)
C2 C1 C7 123.2(2)
C3 C2 C1 117.8(2)
C3 C2 H2 121.1
C1 C2 H2 121.1
F1 C3 C2 118.7(2)
F1 C3 C4 117.0(2)
C2 C3 C4 124.2(2)
C3 C4 C5 115.6(2)
C3 C4 H4 122.2
C5 C4 H4 122.2
F2 C5 C6 118.9(2)
F2 C5 C4 117.6(2)
C6 C5 C4 123.5(2)
C5 C6 C1 118.4(2)
C5 C6 H6 120.8
C1 C6 H6 120.8
O1 C7 N1 123.2(2)
O1 C7 C1 120.9(2)
N1 C7 C1 115.85(19)
C13 C8 C9 118.7(2)
C13 C8 N1 121.0(2)
C9 C8 N1 120.3(2)
C10 C9 C8 120.3(2)
C10 C9 H9 119.8
C8 C9 H9 119.8
C9 C10 C11 120.7(2)
C9 C10 H10 119.7
C11 C10 H10 119.7
C12 C11 C10 118.5(2)
C12 C11 H11 120.8
C10 C11 H11 120.8
F3 C12 C11 120.1(2)
F3 C12 C13 118.47(19)
C11 C12 C13 121.4(2)
F4 C13 C12 118.8(2)
F4 C13 C8 120.7(2)
C12 C13 C8 120.5(2)
loop_
_geom_bond_atom_site_label_1
_geom_bond_atom_site_label_2
_geom_bond_distance
F1 C3 1.356(3)
F2 C5 1.352(3)
F3 C12 1.353(3)
F4 C13 1.343(3)
O1 C7 1.230(3)
N1 C7 1.359(3)
N1 C8 1.417(3)
N1 H1 0.8800
C1 C6 1.393(3)
C1 C2 1.395(3)
C1 C7 1.500(3)
C2 C3 1.373(3)
C2 H2 0.9500
C3 C4 1.381(3)
C4 C5 1.384(3)
C4 H4 0.9500
C5 C6 1.374(3)
C6 H6 0.9500
C8 C13 1.386(3)
C8 C9 1.390(3)
C9 C10 1.387(3)
C9 H9 0.9500
C10 C11 1.391(4)
C10 H10 0.9500
C11 C12 1.372(3)
C11 H11 0.9500
C12 C13 1.381(3)
loop_
_geom_torsion_atom_site_label_1
_geom_torsion_atom_site_label_2
_geom_torsion_atom_site_label_3
_geom_torsion_atom_site_label_4
_geom_torsion
C6 C1 C2 C3 -0.3(4)
C7 C1 C2 C3 178.0(2)
C1 C2 C3 F1 -178.8(2)
C1 C2 C3 C4 0.7(4)
F1 C3 C4 C5 179.3(2)
C2 C3 C4 C5 -0.2(4)
C3 C4 C5 F2 179.9(2)
C3 C4 C5 C6 -0.7(4)
F2 C5 C6 C1 -179.5(2)
C4 C5 C6 C1 1.0(4)
C2 C1 C6 C5 -0.5(3)
C7 C1 C6 C5 -178.9(2)
C8 N1 C7 O1 1.9(4)
C8 N1 C7 C1 -179.5(2)
C6 C1 C7 O1 26.5(3)
C2 C1 C7 O1 -151.9(2)
C6 C1 C7 N1 -152.2(2)
C2 C1 C7 N1 29.4(3)
C7 N1 C8 C13 53.4(3)
C7 N1 C8 C9 -129.5(2)
C13 C8 C9 C10 -1.2(3)
N1 C8 C9 C10 -178.4(2)
C8 C9 C10 C11 0.1(4)
C9 C10 C11 C12 0.5(4)
C10 C11 C12 F3 178.7(2)
C10 C11 C12 C13 0.1(4)
F3 C12 C13 F4 -2.1(3)
C11 C12 C13 F4 176.5(2)
F3 C12 C13 C8 -179.9(2)
C11 C12 C13 C8 -1.3(3)
C9 C8 C13 F4 -175.9(2)
N1 C8 C13 F4 1.2(3)
C9 C8 C13 C12 1.8(3)
N1 C8 C13 C12 179.0(2)
