#------------------------------------------------------------------------------
#$Date: 2016-02-05 00:38:26 +0200 (Fri, 05 Feb 2016) $
#$Revision: 175974 $
#$URL: svn://www.crystallography.net/cod/cif/7/22/32/7223283.cif $
#------------------------------------------------------------------------------
#
# This file is available in the Crystallography Open Database (COD),
# http://www.crystallography.net/
#
# All data on this site have been placed in the public domain by the
# contributors.
#
data_7223283
loop_
_publ_author_name
'Mondal, Pradip Kumar'
'Chopra, Deepak'
_publ_section_title
;
 Crystal structure landscape of conformationally flexible organo-fluorine
 compounds
;
_journal_issue                   1
_journal_name_full               CrystEngComm
_journal_page_first              48
_journal_paper_doi               10.1039/C5CE01721A
_journal_volume                  18
_journal_year                    2016
_chemical_formula_sum            'C13 H9 F2 N O'
_chemical_formula_weight         233.21
_chemical_name_systematic        3,5-difluoro-N-phenylbenzamide
_space_group_crystal_system      triclinic
_space_group_IT_number           2
_space_group_name_Hall           '-P 1'
_space_group_name_H-M_alt        'P -1'
_symmetry_space_group_name_Hall  '-P 1'
_symmetry_space_group_name_H-M   'P -1'
_atom_sites_solution_hydrogens   geom
_audit_creation_method           SHELXL-2014/6
_audit_update_record
;
2015-11-16 deposited with the CCDC.
2015-11-17 downloaded from the CCDC.
;
_cell_angle_alpha                101.426(3)
_cell_angle_beta                 97.174(3)
_cell_angle_gamma                90.881(3)
_cell_formula_units_Z            2
_cell_length_a                   5.1300(3)
_cell_length_b                   8.8893(5)
_cell_length_c                   11.6782(7)
_cell_measurement_temperature    100(2)
_cell_volume                     517.47(5)
_computing_structure_refinement  'SHELXL-2014/6 (Sheldrick, 2014)'
_diffrn_ambient_temperature      100(2)
_diffrn_measured_fraction_theta_full 0.988
_diffrn_measured_fraction_theta_max 0.988
_diffrn_measurement_device_type  goniometer
_diffrn_radiation_type           MoK\a
_diffrn_radiation_wavelength     0.71073
_diffrn_reflns_av_R_equivalents  0.0272
_diffrn_reflns_av_unetI/netI     0.0222
_diffrn_reflns_laue_measured_fraction_full 0.988
_diffrn_reflns_laue_measured_fraction_max 0.988
_diffrn_reflns_limit_h_max       6
_diffrn_reflns_limit_h_min       -5
_diffrn_reflns_limit_k_max       10
_diffrn_reflns_limit_k_min       -10
_diffrn_reflns_limit_l_max       14
_diffrn_reflns_limit_l_min       -14
_diffrn_reflns_number            7194
_diffrn_reflns_point_group_measured_fraction_full 0.988
_diffrn_reflns_point_group_measured_fraction_max 0.988
_diffrn_reflns_theta_full        25.242
_diffrn_reflns_theta_max         25.339
_diffrn_reflns_theta_min         1.794
_exptl_absorpt_coefficient_mu    0.120
_exptl_absorpt_correction_T_max  0.981
_exptl_absorpt_correction_T_min  0.951
_exptl_absorpt_correction_type   multi-scan
_exptl_absorpt_process_details   SABADS
_exptl_crystal_density_diffrn    1.497
_exptl_crystal_description       Plate
_exptl_crystal_F_000             240
_exptl_crystal_size_max          0.400
_exptl_crystal_size_mid          0.200
_exptl_crystal_size_min          0.100
_refine_diff_density_max         0.189
_refine_diff_density_min         -0.217
_refine_diff_density_rms         0.047
_refine_ls_extinction_method     none
_refine_ls_goodness_of_fit_ref   1.042
_refine_ls_hydrogen_treatment    constr
_refine_ls_matrix_type           full
_refine_ls_number_parameters     154
_refine_ls_number_reflns         1877
_refine_ls_number_restraints     0
_refine_ls_restrained_S_all      1.042
_refine_ls_R_factor_all          0.0368
_refine_ls_R_factor_gt           0.0346
_refine_ls_shift/su_max          0.001
_refine_ls_shift/su_mean         0.000
_refine_ls_structure_factor_coef Fsqd
_refine_ls_weighting_details
'w=1/[\s^2^(Fo^2^)+(0.0555P)^2^+0.1635P] where P=(Fo^2^+2Fc^2^)/3'
_refine_ls_weighting_scheme      calc
_refine_ls_wR_factor_gt          0.0952
_refine_ls_wR_factor_ref         0.0976
_reflns_Friedel_coverage         0.000
_reflns_number_gt                1733
_reflns_number_total             1877
_reflns_threshold_expression     'I > 2\s(I)'
_cod_data_source_file            c5ce01721a2.cif
_cod_data_source_block           P0035
_cod_depositor_comments
'Adding full bibliography for 7223280--7223294.cif.'
_cod_database_code               7223283
_shelx_space_group_comment
;
The symmetry employed for this shelxl refinement is uniquely defined
by the following loop, which should always be used as a source of
symmetry information in preference to the above space-group names.
They are only intended as comments.
;
_shelx_estimated_absorpt_t_min   0.954
_shelx_estimated_absorpt_t_max   0.988
_shelxl_version_number           2014/6
_shelx_res_file
;
TITL p0035 in P -1
CELL   0.71073   5.1300   8.8893  11.6782 101.426  97.174  90.881
ZERR     2       0.0003   0.0005   0.0007   0.003   0.003   0.003
LATT    1
SFAC  C H F N O
UNIT  26 18 4  2  2
MERG  2
L.S.  12
TEMP  -173
ACTA
BOND $H
CONF
HTAB
SIZE 0.1 0.2 0.4
FMAP  2
PLAN  15
WGHT    0.055500    0.163500
FVAR       0.23827
F1    3   -0.473107    0.193895    0.604863    11.00000    0.02758    0.03474 =
         0.02204    0.00817   -0.00621   -0.00891
F2    3    0.270552    0.520968    0.644299    11.00000    0.03272    0.03458 =
         0.02920    0.01769   -0.00011   -0.00903
O1    5    0.375968    0.285395    1.002346    11.00000    0.01716    0.03666 =
         0.02283    0.01168    0.00040    0.00128
N1    4   -0.047834    0.244817    1.032862    11.00000    0.01609    0.02331 =
         0.01812    0.00573   -0.00061    0.00051
AFIX  43
H1    2   -0.212801    0.248079    1.002205    11.00000   -1.20000
AFIX   0
C1    1    0.038018    0.312251    0.850233    11.00000    0.02008    0.01720 =
         0.01904    0.00331    0.00318    0.00504
C2    1   -0.191446    0.241455    0.783939    11.00000    0.02160    0.02053 =
         0.02149    0.00537    0.00384    0.00126
AFIX  43
H2    2   -0.300906    0.177177    0.815468    11.00000   -1.20000
AFIX   0
C3    1   -0.255823    0.266956    0.671432    11.00000    0.01907    0.02137 =
         0.02049    0.00219   -0.00105    0.00137
C4    1   -0.106383    0.360899    0.621737    11.00000    0.02721    0.02144 =
         0.01768    0.00594    0.00113    0.00525
AFIX  43
H4    2   -0.155204    0.377428    0.544150    11.00000   -1.20000
AFIX   0
C5    1    0.117210    0.429177    0.690997    11.00000    0.02363    0.01855 =
         0.02499    0.00858    0.00503    0.00080
C6    1    0.196471    0.408025    0.803288    11.00000    0.01966    0.01856 =
         0.02197    0.00405    0.00049    0.00141
AFIX  43
H6    2    0.353664    0.456784    0.847652    11.00000   -1.20000
AFIX   0
C7    1    0.138485    0.280229    0.969058    11.00000    0.01959    0.01716 =
         0.01960    0.00369    0.00092    0.00134
C8    1   -0.002324    0.202744    1.144977    11.00000    0.02126    0.01812 =
         0.01796    0.00407    0.00358    0.00509
C9    1   -0.191478    0.106938    1.173300    11.00000    0.02361    0.02088 =
         0.02471    0.00472   -0.00011   -0.00094
AFIX  43
H9    2   -0.340326    0.068726    1.117555    11.00000   -1.20000
AFIX   0
C10   1   -0.161421    0.067601    1.283317    11.00000    0.02992    0.02085 =
         0.02951    0.01022    0.00636    0.00022
AFIX  43
H10   2   -0.290271    0.002287    1.302660    11.00000   -1.20000
AFIX   0
C11   1    0.054331    0.122677    1.364859    11.00000    0.03229    0.02297 =
         0.01998    0.00757    0.00564    0.00734
AFIX  43
H11   2    0.074837    0.094996    1.439887    11.00000   -1.20000
AFIX   0
C12   1    0.240591    0.218627    1.336322    11.00000    0.02592    0.03062 =
         0.02052    0.00495   -0.00057    0.00145
AFIX  43
H12   2    0.388558    0.257236    1.392475    11.00000   -1.20000
AFIX   0
C13   1    0.213802    0.259006    1.226889    11.00000    0.02299    0.02824 =
         0.02173    0.00633    0.00307   -0.00192
AFIX  43
H13   2    0.342672    0.324810    1.208106    11.00000   -1.20000
AFIX   0
HKLF   4

REM  p0035 in P -1
REM R1 =  0.0346 for    1733 Fo > 4sig(Fo)  and  0.0368 for all    1877 data
REM    154 parameters refined using      0 restraints

END

WGHT      0.0549      0.1608

REM Instructions for potential hydrogen bonds
EQIV $1 x-1, y, z
HTAB N1 O1_$1
EQIV $2 -x, -y+1, -z+1
HTAB C4 F2_$2
EQIV $3 -x+1, -y+1, -z+2
HTAB C13 F2_$3
HTAB C13 O1

REM Highest difference peak  0.189,  deepest hole -0.217,  1-sigma level  0.047
Q1    1  -0.2830  0.2907  0.7423  11.00000  0.05    0.19
Q2    1   0.0707  0.3014  0.9107  11.00000  0.05    0.19
Q3    1   0.3962  0.2697  0.9193  11.00000  0.05    0.17
Q4    1   0.0530  0.2618  1.1935  11.00000  0.05    0.17
Q5    1   0.4685  0.2464  1.0814  11.00000  0.05    0.17
Q6    1  -0.0655  0.2701  0.8222  11.00000  0.05    0.16
Q7    1  -0.4596  0.1834  0.5156  11.00000  0.05    0.15
Q8    1  -0.0084  0.2181  1.0945  11.00000  0.05    0.15
Q9    1   0.1869  0.3930  0.7366  11.00000  0.05    0.15
Q10   1   0.2797  0.2008  1.2749  11.00000  0.05    0.15
Q11   1   0.0533  0.3697  0.6521  11.00000  0.05    0.14
Q12   1  -0.1802  0.2259  0.7150  11.00000  0.05    0.14
Q13   1   0.5524  0.2866  0.9562  11.00000  0.05    0.13
Q14   1   0.1128  0.4448  0.7580  11.00000  0.05    0.13
Q15   1  -0.2273  0.1243  1.2373  11.00000  0.05    0.13
;
_shelx_res_checksum              96223
loop_
_space_group_symop_operation_xyz
'x, y, z'
'-x, -y, -z'
loop_
_atom_site_label
_atom_site_type_symbol
_atom_site_fract_x
_atom_site_fract_y
_atom_site_fract_z
_atom_site_U_iso_or_equiv
_atom_site_adp_type
_atom_site_occupancy
_atom_site_site_symmetry_order
_atom_site_calc_flag
_atom_site_refinement_flags_posn
_atom_site_refinement_flags_adp
F1 F -0.47311(16) 0.19389(9) 0.60486(6) 0.0287(2) Uani 1 1 d . .
F2 F 0.27055(16) 0.52097(9) 0.64430(7) 0.0311(2) Uani 1 1 d . .
O1 O 0.37597(17) 0.28540(11) 1.00235(8) 0.0250(2) Uani 1 1 d . .
N1 N -0.0478(2) 0.24482(12) 1.03286(9) 0.0192(3) Uani 1 1 d . .
H1 H -0.2128 0.2481 1.0022 0.023 Uiso 1 1 calc R U
C1 C 0.0380(2) 0.31225(13) 0.85023(11) 0.0187(3) Uani 1 1 d . .
C2 C -0.1914(3) 0.24146(14) 0.78394(11) 0.0210(3) Uani 1 1 d . .
H2 H -0.3009 0.1772 0.8155 0.025 Uiso 1 1 calc R U
C3 C -0.2558(3) 0.26696(14) 0.67143(11) 0.0209(3) Uani 1 1 d . .
C4 C -0.1064(3) 0.36090(14) 0.62174(11) 0.0219(3) Uani 1 1 d . .
H4 H -0.1552 0.3774 0.5441 0.026 Uiso 1 1 calc R U
C5 C 0.1172(3) 0.42918(14) 0.69100(11) 0.0216(3) Uani 1 1 d . .
C6 C 0.1965(3) 0.40802(13) 0.80329(11) 0.0203(3) Uani 1 1 d . .
H6 H 0.3537 0.4568 0.8477 0.024 Uiso 1 1 calc R U
C7 C 0.1385(2) 0.28023(13) 0.96906(11) 0.0189(3) Uani 1 1 d . .
C8 C -0.0023(3) 0.20274(14) 1.14498(11) 0.0189(3) Uani 1 1 d . .
C9 C -0.1915(3) 0.10694(14) 1.17330(11) 0.0234(3) Uani 1 1 d . .
H9 H -0.3403 0.0687 1.1176 0.028 Uiso 1 1 calc R U
C10 C -0.1614(3) 0.06760(15) 1.28332(12) 0.0258(3) Uani 1 1 d . .
H10 H -0.2903 0.0023 1.3027 0.031 Uiso 1 1 calc R U
C11 C 0.0543(3) 0.12268(14) 1.36486(11) 0.0244(3) Uani 1 1 d . .
H11 H 0.0748 0.0950 1.4399 0.029 Uiso 1 1 calc R U
C12 C 0.2406(3) 0.21863(16) 1.33632(12) 0.0260(3) Uani 1 1 d . .
H12 H 0.3886 0.2572 1.3925 0.031 Uiso 1 1 calc R U
C13 C 0.2138(3) 0.25901(15) 1.22689(11) 0.0242(3) Uani 1 1 d . .
H13 H 0.3427 0.3248 1.2081 0.029 Uiso 1 1 calc R U
loop_
_atom_site_aniso_label
_atom_site_aniso_U_11
_atom_site_aniso_U_22
_atom_site_aniso_U_33
_atom_site_aniso_U_23
_atom_site_aniso_U_13
_atom_site_aniso_U_12
F1 0.0276(5) 0.0347(4) 0.0220(4) 0.0082(3) -0.0062(3) -0.0089(3)
F2 0.0327(5) 0.0346(4) 0.0292(4) 0.0177(3) -0.0001(4) -0.0090(4)
O1 0.0172(5) 0.0367(5) 0.0228(5) 0.0117(4) 0.0004(4) 0.0013(4)
N1 0.0161(6) 0.0233(5) 0.0181(5) 0.0057(4) -0.0006(4) 0.0005(4)
C1 0.0201(7) 0.0172(6) 0.0190(6) 0.0033(4) 0.0032(5) 0.0050(5)
C2 0.0216(7) 0.0205(6) 0.0215(6) 0.0054(5) 0.0038(5) 0.0013(5)
C3 0.0191(7) 0.0214(6) 0.0205(6) 0.0022(5) -0.0010(5) 0.0014(5)
C4 0.0272(7) 0.0214(6) 0.0177(6) 0.0059(5) 0.0011(5) 0.0053(5)
C5 0.0236(7) 0.0186(6) 0.0250(7) 0.0086(5) 0.0050(5) 0.0008(5)
C6 0.0197(7) 0.0186(6) 0.0220(6) 0.0040(5) 0.0005(5) 0.0014(5)
C7 0.0196(7) 0.0172(6) 0.0196(6) 0.0037(5) 0.0009(5) 0.0013(5)
C8 0.0213(7) 0.0181(6) 0.0180(6) 0.0041(4) 0.0036(5) 0.0051(5)
C9 0.0236(7) 0.0209(6) 0.0247(7) 0.0047(5) -0.0001(5) -0.0009(5)
C10 0.0299(8) 0.0208(6) 0.0295(7) 0.0102(5) 0.0064(6) 0.0002(5)
C11 0.0323(8) 0.0230(6) 0.0200(6) 0.0076(5) 0.0056(6) 0.0073(5)
C12 0.0259(7) 0.0306(7) 0.0205(7) 0.0049(5) -0.0006(5) 0.0014(6)
C13 0.0230(7) 0.0282(7) 0.0217(7) 0.0063(5) 0.0031(5) -0.0019(5)
loop_
_atom_type_symbol
_atom_type_description
_atom_type_scat_dispersion_real
_atom_type_scat_dispersion_imag
_atom_type_scat_source
C C 0.0033 0.0016 'International Tables Vol C Tables 4.2.6.8 and 6.1.1.4'
H H 0.0000 0.0000 'International Tables Vol C Tables 4.2.6.8 and 6.1.1.4'
F F 0.0171 0.0103 'International Tables Vol C Tables 4.2.6.8 and 6.1.1.4'
N N 0.0061 0.0033 'International Tables Vol C Tables 4.2.6.8 and 6.1.1.4'
O O 0.0106 0.0060 'International Tables Vol C Tables 4.2.6.8 and 6.1.1.4'
loop_
_geom_angle_atom_site_label_1
_geom_angle_atom_site_label_2
_geom_angle_atom_site_label_3
_geom_angle
C7 N1 C8 126.18(11)
C7 N1 H1 116.9
C8 N1 H1 116.9
C2 C1 C6 120.34(12)
C2 C1 C7 122.36(11)
C6 C1 C7 117.10(11)
C3 C2 C1 118.33(12)
C3 C2 H2 120.8
C1 C2 H2 120.8
F1 C3 C2 118.65(11)
F1 C3 C4 117.98(11)
C2 C3 C4 123.34(12)
C5 C4 C3 116.15(12)
C5 C4 H4 121.9
C3 C4 H4 121.9
F2 C5 C6 118.30(12)
F2 C5 C4 117.70(11)
C6 C5 C4 123.99(12)
C5 C6 C1 117.84(12)
C5 C6 H6 121.1
C1 C6 H6 121.1
O1 C7 N1 124.11(11)
O1 C7 C1 120.35(11)
N1 C7 C1 115.54(11)
C13 C8 C9 119.94(12)
C13 C8 N1 122.48(11)
C9 C8 N1 117.51(11)
C10 C9 C8 119.71(12)
C10 C9 H9 120.1
C8 C9 H9 120.1
C11 C10 C9 120.51(12)
C11 C10 H10 119.7
C9 C10 H10 119.7
C10 C11 C12 119.43(12)
C10 C11 H11 120.3
C12 C11 H11 120.3
C11 C12 C13 120.83(13)
C11 C12 H12 119.6
C13 C12 H12 119.6
C12 C13 C8 119.57(12)
C12 C13 H13 120.2
C8 C13 H13 120.2
loop_
_geom_bond_atom_site_label_1
_geom_bond_atom_site_label_2
_geom_bond_distance
F1 C3 1.3527(15)
F2 C5 1.3586(14)
O1 C7 1.2290(16)
N1 C7 1.3526(16)
N1 C8 1.4244(16)
N1 H1 0.8800
C1 C2 1.3920(19)
C1 C6 1.4004(18)
C1 C7 1.5016(17)
C2 C3 1.3779(18)
C2 H2 0.9500
C3 C4 1.3803(18)
C4 C5 1.3750(19)
C4 H4 0.9500
C5 C6 1.3738(18)
C6 H6 0.9500
C8 C13 1.3867(19)
C8 C9 1.3938(18)
C9 C10 1.3881(18)
C9 H9 0.9500
C10 C11 1.381(2)
C10 H10 0.9500
C11 C12 1.3852(19)
C11 H11 0.9500
C12 C13 1.3858(19)
C12 H12 0.9500
C13 H13 0.9500
loop_
_geom_torsion_atom_site_label_1
_geom_torsion_atom_site_label_2
_geom_torsion_atom_site_label_3
_geom_torsion_atom_site_label_4
_geom_torsion
C6 C1 C2 C3 0.66(18)
C7 C1 C2 C3 -174.13(11)
C1 C2 C3 F1 177.50(10)
C1 C2 C3 C4 -0.98(19)
F1 C3 C4 C5 -178.02(11)
C2 C3 C4 C5 0.46(19)
C3 C4 C5 F2 179.24(10)
C3 C4 C5 C6 0.39(19)
F2 C5 C6 C1 -179.52(10)
C4 C5 C6 C1 -0.68(19)
C2 C1 C6 C5 0.12(18)
C7 C1 C6 C5 175.18(10)
C8 N1 C7 O1 -2.48(19)
C8 N1 C7 C1 176.74(10)
C2 C1 C7 O1 148.06(12)
C6 C1 C7 O1 -26.88(16)
C2 C1 C7 N1 -31.18(16)
C6 C1 C7 N1 153.87(11)
C7 N1 C8 C13 31.46(18)
C7 N1 C8 C9 -151.57(12)
C13 C8 C9 C10 -0.39(19)
N1 C8 C9 C10 -177.44(11)
C8 C9 C10 C11 0.0(2)
C9 C10 C11 C12 0.4(2)
C10 C11 C12 C13 -0.4(2)
C11 C12 C13 C8 0.1(2)
C9 C8 C13 C12 0.36(19)
N1 C8 C13 C12 177.25(11)
