#------------------------------------------------------------------------------
#$Date: 2016-02-05 00:38:26 +0200 (Fri, 05 Feb 2016) $
#$Revision: 175974 $
#$URL: svn://www.crystallography.net/cod/cif/7/22/32/7223286.cif $
#------------------------------------------------------------------------------
#
# This file is available in the Crystallography Open Database (COD),
# http://www.crystallography.net/
#
# All data on this site have been placed in the public domain by the
# contributors.
#
data_7223286
loop_
_publ_author_name
'Mondal, Pradip Kumar'
'Chopra, Deepak'
_publ_section_title
;
 Crystal structure landscape of conformationally flexible organo-fluorine
 compounds
;
_journal_issue                   1
_journal_name_full               CrystEngComm
_journal_page_first              48
_journal_paper_doi               10.1039/C5CE01721A
_journal_volume                  18
_journal_year                    2016
_chemical_formula_sum            'C13 H7 F4 N O'
_chemical_formula_weight         269.20
_chemical_name_systematic        N-(2,3-difluorophenyl)-3,4-difluorobenzamide
_space_group_crystal_system      triclinic
_space_group_IT_number           2
_space_group_name_Hall           '-P 1'
_space_group_name_H-M_alt        'P -1'
_symmetry_space_group_name_Hall  '-P 1'
_symmetry_space_group_name_H-M   'P -1'
_atom_sites_solution_hydrogens   geom
_audit_creation_method           SHELXL-2014/6
_audit_update_record
;
2015-11-16 deposited with the CCDC.
2015-11-17 downloaded from the CCDC.
;
_cell_angle_alpha                102.372(2)
_cell_angle_beta                 97.440(2)
_cell_angle_gamma                90.222(2)
_cell_formula_units_Z            2
_cell_length_a                   4.9918(2)
_cell_length_b                   9.3610(5)
_cell_length_c                   12.0172(6)
_cell_measurement_temperature    104(2)
_cell_volume                     543.59(5)
_computing_structure_refinement  'SHELXL-2014/6 (Sheldrick, 2014)'
_diffrn_ambient_temperature      104(2)
_diffrn_measured_fraction_theta_full 0.990
_diffrn_measured_fraction_theta_max 0.992
_diffrn_measurement_device_type  goniometer
_diffrn_radiation_type           MoK\a
_diffrn_radiation_wavelength     0.71073
_diffrn_reflns_av_R_equivalents  0.0293
_diffrn_reflns_av_unetI/netI     0.0220
_diffrn_reflns_laue_measured_fraction_full 0.990
_diffrn_reflns_laue_measured_fraction_max 0.992
_diffrn_reflns_limit_h_max       6
_diffrn_reflns_limit_h_min       -6
_diffrn_reflns_limit_k_max       12
_diffrn_reflns_limit_k_min       -12
_diffrn_reflns_limit_l_max       16
_diffrn_reflns_limit_l_min       -16
_diffrn_reflns_number            12797
_diffrn_reflns_point_group_measured_fraction_full 0.990
_diffrn_reflns_point_group_measured_fraction_max 0.992
_diffrn_reflns_theta_full        25.242
_diffrn_reflns_theta_max         28.282
_diffrn_reflns_theta_min         2.518
_exptl_absorpt_coefficient_mu    0.152
_exptl_absorpt_correction_T_max  0.988
_exptl_absorpt_correction_T_min  0.939
_exptl_absorpt_correction_type   multi-scan
_exptl_absorpt_process_details   SABADS
_exptl_crystal_density_diffrn    1.645
_exptl_crystal_description       Plate
_exptl_crystal_F_000             272
_exptl_crystal_size_max          0.400
_exptl_crystal_size_mid          0.160
_exptl_crystal_size_min          0.060
_refine_diff_density_max         0.240
_refine_diff_density_min         -0.305
_refine_diff_density_rms         0.066
_refine_ls_extinction_method     none
_refine_ls_goodness_of_fit_ref   1.032
_refine_ls_hydrogen_treatment    constr
_refine_ls_matrix_type           full
_refine_ls_number_parameters     172
_refine_ls_number_reflns         2677
_refine_ls_number_restraints     0
_refine_ls_restrained_S_all      1.032
_refine_ls_R_factor_all          0.0516
_refine_ls_R_factor_gt           0.0410
_refine_ls_shift/su_max          0.001
_refine_ls_shift/su_mean         0.000
_refine_ls_structure_factor_coef Fsqd
_refine_ls_weighting_details
'w=1/[\s^2^(Fo^2^)+(0.0546P)^2^+0.1669P] where P=(Fo^2^+2Fc^2^)/3'
_refine_ls_weighting_scheme      calc
_refine_ls_wR_factor_gt          0.1049
_refine_ls_wR_factor_ref         0.1133
_reflns_Friedel_coverage         0.000
_reflns_number_gt                2173
_reflns_number_total             2677
_reflns_threshold_expression     'I > 2\s(I)'
_cod_data_source_file            c5ce01721a2.cif
_cod_data_source_block           P2334
_cod_depositor_comments
'Adding full bibliography for 7223280--7223294.cif.'
_cod_database_code               7223286
_shelx_space_group_comment
;
The symmetry employed for this shelxl refinement is uniquely defined
by the following loop, which should always be used as a source of
symmetry information in preference to the above space-group names.
They are only intended as comments.
;
_shelx_estimated_absorpt_t_min   0.942
_shelx_estimated_absorpt_t_max   0.991
_shelxl_version_number           2014/6
_shelx_res_file
;
TITL P2334 in P-1
CELL 0.71073 4.9918 9.3610 12.0172 102.372 97.440 90.222
ZERR 2.00 0.0002 0.0005 0.0006 0.002 0.002 0.002
LATT 1
SFAC C H N O F
UNIT 26 14 2 2 8
L.S. 12
TEMP -169
ACTA
BOND $H
CONF
HTAB
SIZE 0.06 0.16 0.4
FMAP 2
PLAN 10
WGHT    0.054600    0.166900
FVAR       0.21943
F1    5    1.192480    1.106662    1.466225    11.00000    0.06066    0.06381 =
         0.03309   -0.01134   -0.00606    0.00825
F2    5    0.753236    1.185045    1.344731    11.00000    0.05504    0.05304 =
         0.05253   -0.01438    0.00283    0.02300
F3    5    1.342066    0.487619    0.893984    11.00000    0.04562    0.05263 =
         0.04227    0.00530   -0.00802    0.01815
F4    5    1.277585    0.315372    0.684400    11.00000    0.06272    0.04584 =
         0.05617   -0.00597    0.00846    0.02196
O1    4    0.612307    0.803655    0.978728    11.00000    0.02274    0.05433 =
         0.03901   -0.00361   -0.00068    0.00599
N1    3    1.032960    0.721303    0.955365    11.00000    0.02305    0.04337 =
         0.02859   -0.00206   -0.00069    0.00489
AFIX  43
H1    2    1.202104    0.727567    0.988038    11.00000   -1.20000
AFIX   0
C1    1    0.960034    0.881073    1.134954    11.00000    0.02476    0.03143 =
         0.02952    0.00341    0.00370    0.00142
C2    1    1.188020    0.840078    1.199066    11.00000    0.02935    0.03783 =
         0.03273    0.00304    0.00251    0.00765
AFIX  43
H2    2    1.289555    0.760218    1.165854    11.00000   -1.20000
AFIX   0
C3    1    1.267482    0.915514    1.311373    11.00000    0.03369    0.04609 =
         0.03332    0.00567   -0.00276    0.00755
AFIX  43
H3    2    1.422323    0.887458    1.355482    11.00000   -1.20000
AFIX   0
C4    1    1.119867    1.030762    1.357662    11.00000    0.03857    0.04221 =
         0.02736   -0.00116    0.00060   -0.00060
C5    1    0.893588    1.071742    1.294427    11.00000    0.03422    0.03499 =
         0.03817   -0.00091    0.00622    0.00820
C6    1    0.811453    0.998521    1.183900    11.00000    0.02826    0.03553 =
         0.03422    0.00316    0.00139    0.00550
AFIX  43
H6    2    0.655306    1.027215    1.140989    11.00000   -1.20000
AFIX   0
C7    1    0.851234    0.799238    1.016282    11.00000    0.02458    0.03201 =
         0.03083    0.00401    0.00224    0.00111
C8    1    0.975528    0.631101    0.844382    11.00000    0.02592    0.03550 =
         0.02666    0.00291    0.00277    0.00056
C9    1    1.142806    0.514928    0.815162    11.00000    0.03010    0.03613 =
         0.03271    0.00723    0.00033    0.00414
C10   1    1.106956    0.425847    0.706953    11.00000    0.03990    0.03305 =
         0.03906    0.00122    0.00869    0.00600
C11   1    0.903448    0.446634    0.624618    11.00000    0.04873    0.04719 =
         0.02978   -0.00228    0.00182   -0.00021
AFIX  43
H11   2    0.879165    0.384244    0.550234    11.00000   -1.20000
AFIX   0
C12   1    0.734178    0.561651    0.653396    11.00000    0.04112    0.05844 =
         0.03143    0.00440   -0.00531    0.00663
AFIX  43
H12   2    0.591440    0.578051    0.597570    11.00000   -1.20000
AFIX   0
C13   1    0.767578    0.653403    0.761457    11.00000    0.03261    0.04658 =
         0.03335    0.00335   -0.00072    0.00939
AFIX  43
H13   2    0.648573    0.731573    0.779004    11.00000   -1.20000
AFIX   0
HKLF   4

REM  P2334 in P-1
REM R1 =  0.0410 for    2173 Fo > 4sig(Fo)  and  0.0516 for all    2677 data
REM    172 parameters refined using      0 restraints

END

WGHT      0.0546      0.1669

REM Instructions for potential hydrogen bonds
EQIV $1 x+1, y, z
HTAB N1 O1_$1
EQIV $2 -x+3, -y+1, -z+2
HTAB C3 F4_$2
EQIV $3 -x+1, -y+2, -z+2
HTAB C6 O1_$3
HTAB C13 F2_$3
HTAB C13 O1

REM Highest difference peak  0.240,  deepest hole -0.305,  1-sigma level  0.066
Q1    1   0.9153  0.8377  1.0777  11.00000  0.05    0.24
Q2    1   1.1153  0.6012  0.8194  11.00000  0.05    0.18
Q3    1   1.2390  0.7796  0.9628  11.00000  0.05    0.16
Q4    1   0.8730  0.9285  1.1674  11.00000  0.05    0.16
Q5    1   0.9978  0.6768  0.8975  11.00000  0.05    0.16
Q6    1   0.8382  1.0158  1.2467  11.00000  0.05    0.15
Q7    1   1.2164  0.8010  0.9419  11.00000  0.05    0.15
Q8    1   1.0874  0.8784  1.1587  11.00000  0.05    0.15
Q9    1   1.1650  0.9501  1.3421  11.00000  0.05    0.14
Q10   1   0.5369  0.8195  1.0556  11.00000  0.05    0.14
;
_shelx_res_checksum              93171
loop_
_space_group_symop_operation_xyz
'x, y, z'
'-x, -y, -z'
loop_
_atom_site_label
_atom_site_type_symbol
_atom_site_fract_x
_atom_site_fract_y
_atom_site_fract_z
_atom_site_U_iso_or_equiv
_atom_site_adp_type
_atom_site_occupancy
_atom_site_site_symmetry_order
_atom_site_calc_flag
_atom_site_refinement_flags_posn
_atom_site_refinement_flags_adp
F1 F 1.1925(2) 1.10666(11) 1.46623(8) 0.0569(3) Uani 1 1 d . .
F2 F 0.7532(2) 1.18505(11) 1.34473(9) 0.0578(3) Uani 1 1 d . .
F3 F 1.34207(18) 0.48762(10) 0.89398(8) 0.0488(3) Uani 1 1 d . .
F4 F 1.2776(2) 0.31537(10) 0.68440(9) 0.0574(3) Uani 1 1 d . .
O1 O 0.61231(18) 0.80365(12) 0.97873(9) 0.0412(3) Uani 1 1 d . .
N1 N 1.0330(2) 0.72130(13) 0.95536(9) 0.0335(3) Uani 1 1 d . .
H1 H 1.2021 0.7276 0.9880 0.040 Uiso 1 1 calc R U
C1 C 0.9600(2) 0.88107(14) 1.13495(11) 0.0290(3) Uani 1 1 d . .
C2 C 1.1880(3) 0.84008(15) 1.19907(12) 0.0341(3) Uani 1 1 d . .
H2 H 1.2896 0.7602 1.1659 0.041 Uiso 1 1 calc R U
C3 C 1.2675(3) 0.91551(16) 1.31137(12) 0.0388(3) Uani 1 1 d . .
H3 H 1.4223 0.8875 1.3555 0.047 Uiso 1 1 calc R U
C4 C 1.1199(3) 1.03076(16) 1.35766(12) 0.0377(3) Uani 1 1 d . .
C5 C 0.8936(3) 1.07174(15) 1.29443(12) 0.0370(3) Uani 1 1 d . .
C6 C 0.8115(3) 0.99852(15) 1.18390(12) 0.0336(3) Uani 1 1 d . .
H6 H 0.6553 1.0272 1.1410 0.040 Uiso 1 1 calc R U
C7 C 0.8512(2) 0.79924(14) 1.01628(11) 0.0297(3) Uani 1 1 d . .
C8 C 0.9755(3) 0.63110(14) 0.84438(11) 0.0300(3) Uani 1 1 d . .
C9 C 1.1428(3) 0.51493(15) 0.81516(12) 0.0334(3) Uani 1 1 d . .
C10 C 1.1070(3) 0.42585(15) 0.70695(13) 0.0380(3) Uani 1 1 d . .
C11 C 0.9034(3) 0.44663(18) 0.62462(13) 0.0438(4) Uani 1 1 d . .
H11 H 0.8792 0.3842 0.5502 0.053 Uiso 1 1 calc R U
C12 C 0.7342(3) 0.56165(19) 0.65340(13) 0.0454(4) Uani 1 1 d . .
H12 H 0.5914 0.5781 0.5976 0.054 Uiso 1 1 calc R U
C13 C 0.7676(3) 0.65340(17) 0.76146(12) 0.0388(3) Uani 1 1 d . .
H13 H 0.6486 0.7316 0.7790 0.047 Uiso 1 1 calc R U
loop_
_atom_site_aniso_label
_atom_site_aniso_U_11
_atom_site_aniso_U_22
_atom_site_aniso_U_33
_atom_site_aniso_U_23
_atom_site_aniso_U_13
_atom_site_aniso_U_12
F1 0.0607(6) 0.0638(6) 0.0331(5) -0.0113(4) -0.0061(4) 0.0083(5)
F2 0.0550(6) 0.0530(6) 0.0525(6) -0.0144(4) 0.0028(4) 0.0230(5)
F3 0.0456(5) 0.0526(5) 0.0423(5) 0.0053(4) -0.0080(4) 0.0182(4)
F4 0.0627(6) 0.0458(5) 0.0562(6) -0.0060(4) 0.0085(5) 0.0220(5)
O1 0.0227(5) 0.0543(6) 0.0390(5) -0.0036(4) -0.0007(4) 0.0060(4)
N1 0.0230(5) 0.0434(6) 0.0286(6) -0.0021(5) -0.0007(4) 0.0049(4)
C1 0.0248(6) 0.0314(6) 0.0295(6) 0.0034(5) 0.0037(5) 0.0014(5)
C2 0.0293(6) 0.0378(7) 0.0327(7) 0.0030(5) 0.0025(5) 0.0077(5)
C3 0.0337(7) 0.0461(8) 0.0333(7) 0.0057(6) -0.0028(5) 0.0075(6)
C4 0.0386(7) 0.0422(8) 0.0274(6) -0.0012(5) 0.0006(5) -0.0006(6)
C5 0.0342(7) 0.0350(7) 0.0382(7) -0.0009(6) 0.0062(6) 0.0082(5)
C6 0.0283(6) 0.0355(7) 0.0342(7) 0.0032(5) 0.0014(5) 0.0055(5)
C7 0.0246(6) 0.0320(6) 0.0308(6) 0.0040(5) 0.0022(5) 0.0011(5)
C8 0.0259(6) 0.0355(7) 0.0267(6) 0.0029(5) 0.0028(5) 0.0006(5)
C9 0.0301(6) 0.0361(7) 0.0327(7) 0.0072(5) 0.0003(5) 0.0041(5)
C10 0.0399(7) 0.0330(7) 0.0391(8) 0.0012(6) 0.0087(6) 0.0060(5)
C11 0.0487(9) 0.0472(9) 0.0298(7) -0.0023(6) 0.0018(6) -0.0002(7)
C12 0.0411(8) 0.0584(10) 0.0314(7) 0.0044(6) -0.0053(6) 0.0066(7)
C13 0.0326(7) 0.0466(8) 0.0334(7) 0.0033(6) -0.0007(5) 0.0094(6)
loop_
_atom_type_symbol
_atom_type_description
_atom_type_scat_dispersion_real
_atom_type_scat_dispersion_imag
_atom_type_scat_source
C C 0.0033 0.0016 'International Tables Vol C Tables 4.2.6.8 and 6.1.1.4'
H H 0.0000 0.0000 'International Tables Vol C Tables 4.2.6.8 and 6.1.1.4'
N N 0.0061 0.0033 'International Tables Vol C Tables 4.2.6.8 and 6.1.1.4'
O O 0.0106 0.0060 'International Tables Vol C Tables 4.2.6.8 and 6.1.1.4'
F F 0.0171 0.0103 'International Tables Vol C Tables 4.2.6.8 and 6.1.1.4'
loop_
_geom_angle_atom_site_label_1
_geom_angle_atom_site_label_2
_geom_angle_atom_site_label_3
_geom_angle
C7 N1 C8 125.94(11)
C7 N1 H1 117.0
C8 N1 H1 117.0
C2 C1 C6 119.76(12)
C2 C1 C7 123.35(11)
C6 C1 C7 116.77(11)
C3 C2 C1 120.23(12)
C3 C2 H2 119.9
C1 C2 H2 119.9
C4 C3 C2 119.13(12)
C4 C3 H3 120.4
C2 C3 H3 120.4
F1 C4 C3 120.57(13)
F1 C4 C5 118.60(13)
C3 C4 C5 120.83(12)
F2 C5 C6 120.65(12)
F2 C5 C4 118.42(12)
C6 C5 C4 120.93(12)
C5 C6 C1 119.11(12)
C5 C6 H6 120.4
C1 C6 H6 120.4
O1 C7 N1 123.23(12)
O1 C7 C1 120.96(11)
N1 C7 C1 115.81(11)
C9 C8 C13 117.96(12)
C9 C8 N1 117.58(11)
C13 C8 N1 124.43(12)
F3 C9 C10 119.28(12)
F3 C9 C8 119.70(12)
C10 C9 C8 121.01(12)
F4 C10 C11 120.57(13)
F4 C10 C9 117.82(13)
C11 C10 C9 121.60(13)
C10 C11 C12 117.74(13)
C10 C11 H11 121.1
C12 C11 H11 121.1
C11 C12 C13 121.68(13)
C11 C12 H12 119.2
C13 C12 H12 119.2
C12 C13 C8 119.99(13)
C12 C13 H13 120.0
C8 C13 H13 120.0
loop_
_geom_bond_atom_site_label_1
_geom_bond_atom_site_label_2
_geom_bond_distance
F1 C4 1.3478(15)
F2 C5 1.3498(15)
F3 C9 1.3467(15)
F4 C10 1.3472(16)
O1 C7 1.2235(15)
N1 C7 1.3562(16)
N1 C8 1.4108(16)
N1 H1 0.8800
C1 C2 1.3925(18)
C1 C6 1.3953(17)
C1 C7 1.4979(17)
C2 C3 1.3886(19)
C2 H2 0.9500
C3 C4 1.368(2)
C3 H3 0.9500
C4 C5 1.381(2)
C5 C6 1.3670(19)
C6 H6 0.9500
C8 C9 1.3866(18)
C8 C13 1.3918(18)
C9 C10 1.3756(19)
C10 C11 1.368(2)
C11 C12 1.384(2)
C11 H11 0.9500
C12 C13 1.384(2)
C12 H12 0.9500
C13 H13 0.9500
loop_
_geom_torsion_atom_site_label_1
_geom_torsion_atom_site_label_2
_geom_torsion_atom_site_label_3
_geom_torsion_atom_site_label_4
_geom_torsion
C6 C1 C2 C3 0.1(2)
C7 C1 C2 C3 -175.85(13)
C1 C2 C3 C4 -0.4(2)
C2 C3 C4 F1 -179.67(14)
C2 C3 C4 C5 0.4(2)
F1 C4 C5 F2 -0.8(2)
C3 C4 C5 F2 179.16(14)
F1 C4 C5 C6 179.92(14)
C3 C4 C5 C6 -0.1(2)
F2 C5 C6 C1 -179.43(13)
C4 C5 C6 C1 -0.1(2)
C2 C1 C6 C5 0.2(2)
C7 C1 C6 C5 176.37(13)
C8 N1 C7 O1 -2.6(2)
C8 N1 C7 C1 177.07(12)
C2 C1 C7 O1 154.28(14)
C6 C1 C7 O1 -21.76(19)
C2 C1 C7 N1 -25.44(19)
C6 C1 C7 N1 158.52(13)
C7 N1 C8 C9 -152.60(14)
C7 N1 C8 C13 29.3(2)
C13 C8 C9 F3 -178.35(13)
N1 C8 C9 F3 3.44(19)
C13 C8 C9 C10 1.0(2)
N1 C8 C9 C10 -177.20(13)
F3 C9 C10 F4 -0.9(2)
C8 C9 C10 F4 179.75(13)
F3 C9 C10 C11 178.37(14)
C8 C9 C10 C11 -1.0(2)
F4 C10 C11 C12 179.68(14)
C9 C10 C11 C12 0.4(2)
C10 C11 C12 C13 0.0(3)
C11 C12 C13 C8 0.0(3)
C9 C8 C13 C12 -0.5(2)
N1 C8 C13 C12 177.56(14)
