#------------------------------------------------------------------------------
#$Date: 2016-04-05 18:23:21 +0300 (Tue, 05 Apr 2016) $
#$Revision: 181602 $
#$URL: svn://www.crystallography.net/cod/cif/7/22/44/7224492.cif $
#------------------------------------------------------------------------------
#
# This file is available in the Crystallography Open Database (COD),
# http://www.crystallography.net/
#
# All data on this site have been placed in the public domain by the
# contributors.
#
data_7224492
loop_
_publ_author_name
'Aulakh, Darpandeep'
'Nicoletta, Anthony P.'
'Varghese, Juby R.'
'Wriedt, Mario'
_publ_section_title
;
 The structural diversity and properties of nine new viologen based
 zwitterionic metal--organic frameworks
;
_journal_issue                   12
_journal_name_full               CrystEngComm
_journal_page_first              2189
_journal_paper_doi               10.1039/C6CE00284F
_journal_volume                  18
_journal_year                    2016
_chemical_formula_moiety         'C26 H26 Br2 N4 O10 Pd'
_chemical_formula_sum            'C26 H26 Br2 N4 O10 Pd'
_chemical_formula_weight         820.73
_chemical_name_systematic
;
 ?
;
_space_group_crystal_system      triclinic
_space_group_IT_number           2
_space_group_name_Hall           '-P 1'
_space_group_name_H-M_alt        'P -1'
_symmetry_space_group_name_Hall  '-P 1'
_symmetry_space_group_name_H-M   'P -1'
_atom_sites_solution_hydrogens   mixed
_audit_creation_method           SHELXL-2013
_audit_update_record
;
2015-12-07 deposited with the CCDC.
2016-02-25 downloaded from the CCDC.
;
_cell_angle_alpha                80.843(8)
_cell_angle_beta                 72.380(7)
_cell_angle_gamma                67.642(7)
_cell_formula_units_Z            1
_cell_length_a                   8.1476(17)
_cell_length_b                   8.2521(18)
_cell_length_c                   12.398(3)
_cell_measurement_reflns_used    9915
_cell_measurement_temperature    170(2)
_cell_measurement_theta_max      28.362
_cell_measurement_theta_min      2.672
_cell_volume                     733.8(3)
_computing_cell_refinement       'APEX2 (Bruker, 2013)'
_computing_data_collection       'APEX2 (Bruker, 2013)'
_computing_data_reduction        'APEX2 (Bruker, 2013)'
_computing_molecular_graphics    'SHELXP-2014/6 (Sheldrick, 2014)'
_computing_structure_refinement  'SHELXL-2014/6 (Sheldrick, 2014)'
_computing_structure_solution    'SHELXT-2014/6 (Sheldrick, 2014)'
_diffrn_ambient_temperature      170(2)
_diffrn_measured_fraction_theta_full 0.958
_diffrn_measured_fraction_theta_max 0.955
_diffrn_measurement_device_type  'Bruker APEX II CCD area detector'
_diffrn_measurement_method       'omega scans'
_diffrn_radiation_type           MoK\a
_diffrn_radiation_wavelength     0.71073
_diffrn_reflns_av_R_equivalents  0.0687
_diffrn_reflns_av_unetI/netI     0.0967
_diffrn_reflns_Laue_measured_fraction_full 0.958
_diffrn_reflns_Laue_measured_fraction_max 0.955
_diffrn_reflns_limit_h_max       10
_diffrn_reflns_limit_h_min       -10
_diffrn_reflns_limit_k_max       11
_diffrn_reflns_limit_k_min       -10
_diffrn_reflns_limit_l_max       16
_diffrn_reflns_limit_l_min       -16
_diffrn_reflns_number            9915
_diffrn_reflns_point_group_measured_fraction_full 0.958
_diffrn_reflns_point_group_measured_fraction_max 0.955
_diffrn_reflns_theta_full        25.242
_diffrn_reflns_theta_max         28.362
_diffrn_reflns_theta_min         2.672
_diffrn_source                   'fine-focus sealed tube'
_exptl_absorpt_coefficient_mu    3.418
_exptl_absorpt_correction_T_max  0.599
_exptl_absorpt_correction_T_min  0.465
_exptl_absorpt_correction_type   multi-scan
_exptl_absorpt_process_details   'SADABS (Sheldrick 2014)'
_exptl_crystal_colour            brown
_exptl_crystal_density_diffrn    1.857
_exptl_crystal_description       plates
_exptl_crystal_F_000             406
_exptl_crystal_size_max          0.25
_exptl_crystal_size_mid          0.19
_exptl_crystal_size_min          0.15
_refine_diff_density_max         0.837
_refine_diff_density_min         -0.769
_refine_diff_density_rms         0.119
_refine_ls_extinction_method     none
_refine_ls_goodness_of_fit_ref   0.989
_refine_ls_hydrogen_treatment    constr
_refine_ls_matrix_type           full
_refine_ls_number_parameters     197
_refine_ls_number_reflns         3495
_refine_ls_number_restraints     0
_refine_ls_restrained_S_all      0.989
_refine_ls_R_factor_all          0.0966
_refine_ls_R_factor_gt           0.0484
_refine_ls_shift/su_max          0.000
_refine_ls_shift/su_mean         0.000
_refine_ls_structure_factor_coef Fsqd
_refine_ls_weighting_details
'w=1/[\s^2^(Fo^2^)+(0.0460P)^2^] where P=(Fo^2^+2Fc^2^)/3'
_refine_ls_weighting_scheme      calc
_refine_ls_wR_factor_gt          0.0942
_refine_ls_wR_factor_ref         0.1058
_reflns_Friedel_coverage         0.000
_reflns_number_gt                2234
_reflns_number_total             3495
_reflns_threshold_expression     'I > 2\s(I)'
_cod_data_source_file            c6ce00284f2.cif
_cod_data_source_block           an94
_cod_depositor_comments
'Adding full bibliography for 7224483--7224492.cif.'
_cod_database_code               7224492
_shelx_space_group_comment
;
The symmetry employed for this shelxl refinement is uniquely defined
by the following loop, which should always be used as a source of
symmetry information in preference to the above space-group names.
They are only intended as comments.
;
_shelxl_version_number           2013-3
_shelx_res_file
;
TITL [Pd(HL)(Br)2(NO2)2(OH2)2] in P-1 at 170 K (an94)
CELL 0.71073 8.1476 8.2521 12.3978 80.8434 72.3798 67.6415
ZERR 1 0.0017 0.0018 0.0028 0.0081 0.0072 0.0069
LATT 1
SFAC C H N O Pd Br
UNIT 26 26 4 10 1 2

L.S. 20
PLAN  20
TEMP -103
fmap 2 53
acta
SHEL 9 0
OMIT 2 -3 14
OMIT -2 2 2
OMIT -1 3 14

WGHT    0.046000
FVAR       0.56494
PD1   5    0.000000    0.000000    0.500000    10.50000    0.01947    0.03761 =
         0.02307   -0.00451   -0.00159   -0.00914
BR1   6    0.036169    0.135797    0.308449    11.00000    0.03422    0.04565 =
         0.02429   -0.00021   -0.00305   -0.01477
N1    3    0.100885    0.213056   -0.269106    11.00000    0.02207    0.02816 =
         0.01788    0.00014   -0.00591   -0.00988
N2    3    0.286886   -0.175463    0.458926    11.00000    0.06789    0.05220 =
         0.01076   -0.00365   -0.00025   -0.05198
O1    4    0.729452    0.264400    0.013087    11.00000    0.01846    0.04358 =
         0.02495   -0.00219   -0.00394   -0.01327
O2    4    0.468314    0.372052    0.147265    11.00000    0.02105    0.04864 =
         0.02701   -0.01287   -0.00339   -0.00937
AFIX 147
H2    2    0.538402    0.388333    0.178686    11.00000   -1.50000
AFIX   0

O21   4    0.372314   -0.112349    0.466278    11.00000    0.07365    0.08789 =
         0.07772   -0.01668   -0.01778   -0.01408
O22   4    0.308536   -0.303005    0.426190    11.00000    0.04588    0.08144 =
         0.09589   -0.02185   -0.00505   -0.00750
C1    1    0.567128    0.296716    0.048632    11.00000    0.02578    0.02149 =
         0.02002    0.00405   -0.00762   -0.00615
C2    1    0.452206    0.254325   -0.009387    11.00000    0.02106    0.02148 =
         0.01961    0.00510   -0.00521   -0.00766
C3    1    0.264617    0.294764    0.035783    11.00000    0.01917    0.03123 =
         0.01820   -0.00370   -0.00201   -0.00529
AFIX  43
H3    2    0.203786    0.356775    0.103412    11.00000   -1.20000
AFIX   0
C4    1    0.165261    0.245040   -0.017376    11.00000    0.01624    0.03412 =
         0.02608    0.00085   -0.00303   -0.00523
AFIX  43
H4    2    0.035998    0.275394    0.012811    11.00000   -1.20000
AFIX   0
C5    1    0.254809    0.150632   -0.114988    11.00000    0.01990    0.02623 =
         0.01718    0.00374   -0.00648   -0.00781
C6    1    0.441124    0.111601   -0.159693    11.00000    0.02576    0.03176 =
         0.01758   -0.00116   -0.00552   -0.00934
AFIX  43
H6    2    0.501940    0.048757   -0.226990    11.00000   -1.20000
AFIX   0
C7    1    0.541624    0.162638   -0.107975    11.00000    0.01224    0.03191 =
         0.01831   -0.00099    0.00037   -0.00633
AFIX  43
H7    2    0.670264    0.135203   -0.139617    11.00000   -1.20000
AFIX   0
C8    1    0.146855    0.091014   -0.170947    11.00000    0.02518    0.02958 =
         0.02535    0.00288   -0.00796   -0.00982
AFIX  23
H8A   2    0.220560   -0.028896   -0.197509    11.00000   -1.20000
H8B   2    0.031937    0.087463   -0.114976    11.00000   -1.20000
AFIX   0
C9    1   -0.056861    0.350102   -0.254315    11.00000    0.02371    0.03577 =
         0.02149    0.00117    0.00046   -0.00750
AFIX  43
H9    2   -0.141380    0.368467   -0.181355    11.00000   -1.20000
AFIX   0
C10   1   -0.097686    0.464061   -0.343191    11.00000    0.02666    0.03160 =
         0.02037    0.00286   -0.00071    0.00030
AFIX  43
H10   2   -0.210440    0.561059   -0.331207    11.00000   -1.20000
AFIX   0
C11   1    0.022989    0.440469   -0.450869    11.00000    0.02483    0.02503 =
         0.02075   -0.00280   -0.00308   -0.01100
C12   1    0.182146    0.296849   -0.461729    11.00000    0.02054    0.05573 =
         0.01673    0.00062   -0.00193   -0.00004
AFIX  43
H12   2    0.268615    0.274320   -0.533862    11.00000   -1.20000
AFIX   0
C13   1    0.219074    0.185057   -0.370607    11.00000    0.02392    0.04634 =
         0.02710   -0.00075   -0.00850    0.00716
AFIX  43
H13   2    0.330493    0.086599   -0.380388    11.00000   -1.20000
AFIX   0

O1W   4    0.624727    0.443986    0.280716    11.00000    0.05893    0.07661 =
         0.05895   -0.03638   -0.03766    0.01991
AFIX   3
H1WA  2    0.563897    0.491056    0.342756    11.00000   -1.50000
H1WB  2    0.717227    0.377906    0.302886    11.00000   -1.50000
AFIX   0
HKLF 4

REM  [Pd(HL)(Br)2(NO2)2(OH2)2] in P-1 at 170 K (an94)
REM R1 =  0.0484 for    2234 Fo > 4sig(Fo)  and  0.0966 for all    3495 data
REM    197 parameters refined using      0 restraints

END

WGHT      0.0460      0.0000

REM Highest difference peak  0.837,  deepest hole -0.769,  1-sigma level  0.119
Q1    1   0.2573 -0.0777  0.4757  11.00000  0.05    0.84
Q2    1   0.4074 -0.0943  0.4463  11.00000  0.05    0.80
Q3    1   0.2379 -0.1885  0.4398  11.00000  0.05    0.78
Q4    1   0.3861 -0.2301  0.4487  11.00000  0.05    0.68
Q5    1  -0.0563  0.2600  0.3075  11.00000  0.05    0.56
Q6    1   0.0762 -0.0675  0.4183  11.00000  0.05    0.54
Q7    1   0.3654 -0.0934  0.5252  11.00000  0.05    0.53
Q8    1   0.5000  0.5000  0.5000  10.50000  0.05    0.50
Q9    1   0.0030 -0.1402  0.5185  11.00000  0.05    0.49
Q10   1   0.6788  0.2234  0.2775  11.00000  0.05    0.47
Q11   1   0.0361  0.0032  0.3115  11.00000  0.05    0.45
Q12   1   0.2038  0.1229 -0.1264  11.00000  0.05    0.45
Q13   1   0.7721  0.1910 -0.0173  11.00000  0.05    0.43
Q14   1   0.5098  0.2868  0.0185  11.00000  0.05    0.43
Q15   1   0.2090 -0.1529  0.5148  11.00000  0.05    0.43
Q16   1   0.6253  0.2972  0.3196  11.00000  0.05    0.42
Q17   1   0.4805  0.1891 -0.0561  11.00000  0.05    0.42
Q18   1  -0.0384  0.2435  0.3709  11.00000  0.05    0.42
Q19   1   0.5959  0.5146  0.3013  11.00000  0.05    0.42
Q20   1   0.2848  0.2038 -0.3611  11.00000  0.05    0.41
;
_shelx_res_checksum              45573
loop_
_space_group_symop_operation_xyz
'x, y, z'
'-x, -y, -z'
loop_
_atom_site_label
_atom_site_type_symbol
_atom_site_fract_x
_atom_site_fract_y
_atom_site_fract_z
_atom_site_U_iso_or_equiv
_atom_site_adp_type
_atom_site_occupancy
_atom_site_site_symmetry_order
_atom_site_calc_flag
_atom_site_refinement_flags_posn
_atom_site_refinement_flags_adp
_atom_site_refinement_flags_occupancy
Pd1 Pd 0.0000 0.0000 0.5000 0.02760(15) Uani 1 2 d S . P
Br1 Br 0.03617(7) 0.13580(6) 0.30845(4) 0.03582(17) Uani 1 1 d . . .
N1 N 0.1009(5) 0.2131(4) -0.2691(3) 0.0224(8) Uani 1 1 d . . .
N2 N 0.2869(7) -0.1755(6) 0.4589(3) 0.0363(12) Uani 1 1 d . . .
O1 O 0.7295(5) 0.2644(4) 0.0131(3) 0.0287(7) Uani 1 1 d . . .
O2 O 0.4683(5) 0.3721(4) 0.1473(3) 0.0325(8) Uani 1 1 d . . .
H2 H 0.5384 0.3883 0.1787 0.049 Uiso 1 1 calc R U .
O21 O 0.3723(8) -0.1123(7) 0.4663(5) 0.0832(16) Uani 1 1 d . . .
O22 O 0.3085(7) -0.3030(6) 0.4262(5) 0.0802(16) Uani 1 1 d . . .
C1 C 0.5671(7) 0.2967(5) 0.0486(4) 0.0234(10) Uani 1 1 d . . .
C2 C 0.4522(6) 0.2543(5) -0.0094(4) 0.0215(9) Uani 1 1 d . . .
C3 C 0.2646(6) 0.2948(6) 0.0358(4) 0.0244(10) Uani 1 1 d . . .
H3 H 0.2038 0.3568 0.1034 0.029 Uiso 1 1 calc R U .
C4 C 0.1653(7) 0.2450(6) -0.0174(4) 0.0275(10) Uani 1 1 d . . .
H4 H 0.0360 0.2754 0.0128 0.033 Uiso 1 1 calc R U .
C5 C 0.2548(6) 0.1506(5) -0.1150(4) 0.0214(9) Uani 1 1 d . . .
C6 C 0.4411(7) 0.1116(6) -0.1597(4) 0.0253(10) Uani 1 1 d . . .
H6 H 0.5019 0.0488 -0.2270 0.030 Uiso 1 1 calc R U .
C7 C 0.5416(6) 0.1626(5) -0.1080(4) 0.0224(9) Uani 1 1 d . . .
H7 H 0.6703 0.1352 -0.1396 0.027 Uiso 1 1 calc R U .
C8 C 0.1469(7) 0.0910(6) -0.1709(4) 0.0269(10) Uani 1 1 d . . .
H8A H 0.2206 -0.0289 -0.1975 0.032 Uiso 1 1 calc R U .
H8B H 0.0319 0.0875 -0.1150 0.032 Uiso 1 1 calc R U .
C9 C -0.0569(7) 0.3501(6) -0.2543(4) 0.0298(11) Uani 1 1 d . . .
H9 H -0.1414 0.3685 -0.1814 0.036 Uiso 1 1 calc R U .
C10 C -0.0977(7) 0.4641(6) -0.3432(4) 0.0313(12) Uani 1 1 d . . .
H10 H -0.2104 0.5611 -0.3312 0.038 Uiso 1 1 calc R U .
C11 C 0.0230(7) 0.4405(5) -0.4509(4) 0.0234(10) Uani 1 1 d . . .
C12 C 0.1821(7) 0.2968(7) -0.4617(4) 0.0361(13) Uani 1 1 d . . .
H12 H 0.2686 0.2743 -0.5339 0.043 Uiso 1 1 calc R U .
C13 C 0.2191(7) 0.1851(6) -0.3706(4) 0.0382(13) Uani 1 1 d . . .
H13 H 0.3305 0.0866 -0.3804 0.046 Uiso 1 1 calc R U .
O1W O 0.6247(6) 0.4440(5) 0.2807(4) 0.0691(14) Uani 1 1 d . . .
H1WA H 0.5639 0.4911 0.3428 0.104 Uiso 1 1 d R U .
H1WB H 0.7172 0.3779 0.3029 0.104 Uiso 1 1 d R U .
loop_
_atom_site_aniso_label
_atom_site_aniso_U_11
_atom_site_aniso_U_22
_atom_site_aniso_U_33
_atom_site_aniso_U_23
_atom_site_aniso_U_13
_atom_site_aniso_U_12
Pd1 0.0195(3) 0.0376(3) 0.0231(3) -0.0045(2) -0.0016(2) -0.0091(2)
Br1 0.0342(4) 0.0456(3) 0.0243(3) -0.0002(2) -0.0030(2) -0.0148(3)
N1 0.022(2) 0.0282(18) 0.0179(19) 0.0001(14) -0.0059(16) -0.0099(17)
N2 0.068(4) 0.052(3) 0.0108(19) -0.0037(17) 0.000(2) -0.052(3)
O1 0.0185(19) 0.0436(18) 0.0249(18) -0.0022(14) -0.0039(14) -0.0133(15)
O2 0.0211(19) 0.049(2) 0.0270(19) -0.0129(15) -0.0034(15) -0.0094(16)
O21 0.074(4) 0.088(4) 0.078(4) -0.017(3) -0.018(3) -0.014(3)
O22 0.046(3) 0.081(3) 0.096(4) -0.022(3) -0.005(3) -0.007(3)
C1 0.026(3) 0.021(2) 0.020(2) 0.0040(17) -0.008(2) -0.0062(19)
C2 0.021(2) 0.021(2) 0.020(2) 0.0051(16) -0.0052(18) -0.0077(18)
C3 0.019(3) 0.031(2) 0.018(2) -0.0037(17) -0.0020(19) -0.0053(19)
C4 0.016(3) 0.034(2) 0.026(2) 0.0009(19) -0.003(2) -0.005(2)
C5 0.020(2) 0.026(2) 0.017(2) 0.0037(16) -0.0065(18) -0.0078(19)
C6 0.026(3) 0.032(2) 0.018(2) -0.0012(17) -0.0055(19) -0.009(2)
C7 0.012(2) 0.032(2) 0.018(2) -0.0010(17) 0.0004(17) -0.0063(19)
C8 0.025(3) 0.030(2) 0.025(3) 0.0029(18) -0.008(2) -0.010(2)
C9 0.024(3) 0.036(2) 0.021(2) 0.0012(19) 0.000(2) -0.007(2)
C10 0.027(3) 0.032(2) 0.020(2) 0.0029(19) -0.001(2) 0.000(2)
C11 0.025(3) 0.025(2) 0.021(2) -0.0028(17) -0.0031(19) -0.011(2)
C12 0.021(3) 0.056(3) 0.017(2) 0.001(2) -0.002(2) 0.000(2)
C13 0.024(3) 0.046(3) 0.027(3) -0.001(2) -0.009(2) 0.007(2)
O1W 0.059(3) 0.077(3) 0.059(3) -0.036(2) -0.038(2) 0.020(2)
loop_
_atom_type_symbol
_atom_type_description
_atom_type_scat_dispersion_real
_atom_type_scat_dispersion_imag
_atom_type_scat_source
C C 0.0033 0.0016 'International Tables Vol C Tables 4.2.6.8 and 6.1.1.4'
H H 0.0000 0.0000 'International Tables Vol C Tables 4.2.6.8 and 6.1.1.4'
N N 0.0061 0.0033 'International Tables Vol C Tables 4.2.6.8 and 6.1.1.4'
O O 0.0106 0.0060 'International Tables Vol C Tables 4.2.6.8 and 6.1.1.4'
Pd Pd -0.9988 1.0072 'International Tables Vol C Tables 4.2.6.8 and 6.1.1.4'
Br Br -0.2901 2.4595 'International Tables Vol C Tables 4.2.6.8 and 6.1.1.4'
loop_
_geom_angle_atom_site_label_1
_geom_angle_atom_site_label_2
_geom_angle_atom_site_label_3
_geom_angle
_geom_angle_site_symmetry_1
_geom_angle_site_symmetry_3
N2 Pd1 N2 180.0 2_556 .
N2 Pd1 Br1 91.72(10) 2_556 2_556
N2 Pd1 Br1 88.28(10) . 2_556
N2 Pd1 Br1 88.28(10) 2_556 .
N2 Pd1 Br1 91.72(10) . .
Br1 Pd1 Br1 180.000(12) 2_556 .
C13 N1 C9 120.3(4) . .
C13 N1 C8 119.4(4) . .
C9 N1 C8 120.3(4) . .
O21 N2 O22 135.5(7) . .
O21 N2 Pd1 110.5(5) . .
O22 N2 Pd1 113.5(4) . .
O1 C1 O2 123.0(4) . .
O1 C1 C2 124.5(4) . .
O2 C1 C2 112.4(4) . .
C3 C2 C7 120.0(4) . .
C3 C2 C1 122.0(4) . .
C7 C2 C1 117.9(4) . .
C2 C3 C4 120.2(4) . .
C3 C4 C5 120.0(4) . .
C6 C5 C4 119.5(4) . .
C6 C5 C8 120.5(4) . .
C4 C5 C8 120.0(4) . .
C5 C6 C7 121.0(4) . .
C6 C7 C2 119.3(4) . .
N1 C8 C5 110.6(3) . .
N1 C9 C10 120.5(4) . .
C9 C10 C11 121.1(4) . .
C12 C11 C10 116.1(4) . .
C12 C11 C11 122.3(5) . 2_564
C10 C11 C11 121.6(5) . 2_564
C11 C12 C13 121.4(5) . .
N1 C13 C12 120.6(5) . .
loop_
_geom_bond_atom_site_label_1
_geom_bond_atom_site_label_2
_geom_bond_distance
_geom_bond_site_symmetry_2
Pd1 N2 2.181(5) 2_556
Pd1 N2 2.181(5) .
Pd1 Br1 2.4419(7) 2_556
Pd1 Br1 2.4419(7) .
N1 C13 1.324(6) .
N1 C9 1.335(6) .
N1 C8 1.495(5) .
N2 O21 1.046(6) .
N2 O22 1.120(5) .
O1 C1 1.196(6) .
O2 C1 1.340(5) .
C1 C2 1.501(6) .
C2 C3 1.384(6) .
C2 C7 1.390(6) .
C3 C4 1.386(6) .
C4 C5 1.392(6) .
C5 C6 1.375(7) .
C5 C8 1.518(6) .
C6 C7 1.387(6) .
C9 C10 1.365(6) .
C10 C11 1.389(6) .
C11 C12 1.371(6) .
C11 C11 1.485(9) 2_564
C12 C13 1.371(7) .
