#------------------------------------------------------------------------------
#$Date: 2016-01-27 09:38:36 +0200 (Wed, 27 Jan 2016) $
#$Revision: 175150 $
#$URL: svn://www.crystallography.net/cod/cif/7/22/40/7224035.cif $
#------------------------------------------------------------------------------
#
# This file is available in the Crystallography Open Database (COD),
# http://www.crystallography.net/
#
# All data on this site have been placed in the public domain by the
# contributors.
#
data_7224035
loop_
_publ_author_name
'Dalal, Kiran Sharad'
'Tayade, Yogesh Ashok'
'Wagh, Yogesh Baburao'
'Trivedi, Darshak R.'
'Dalal, Dipak Sharadrao'
'Chaudhari, Bhushan Liladhar'
_publ_section_title
;
 Bovine Serum Albumin catalyzed one-pot, three-component synthesis of
 dihydropyrano[2,3-c]pyrazole derivatives in aqueous ethanol
;
_journal_name_full               'RSC Adv.'
_journal_paper_doi               10.1039/C5RA13014J
_journal_year                    2016
_chemical_formula_sum            'C17 H14 Cl N5 O2'
_chemical_formula_weight         355.78
_space_group_crystal_system      triclinic
_space_group_IT_number           2
_space_group_name_Hall           '-P 1'
_space_group_name_H-M_alt        'P -1'
_symmetry_space_group_name_Hall  '-P 1'
_symmetry_space_group_name_H-M   'P -1'
_atom_sites_solution_hydrogens   mixed
_audit_creation_method           SHELXL-2014/7
_audit_update_record
;
2015-10-19 deposited with the CCDC.
2016-01-22 downloaded from the CCDC.
;
_cell_angle_alpha                87.988(3)
_cell_angle_beta                 78.876(3)
_cell_angle_gamma                66.293(3)
_cell_formula_units_Z            2
_cell_length_a                   8.4863(4)
_cell_length_b                   10.0369(5)
_cell_length_c                   10.8206(5)
_cell_measurement_temperature    296(2)
_cell_volume                     827.10(7)
_computing_structure_refinement  'SHELXL-2014/7 (Sheldrick, 2014)'
_diffrn_ambient_temperature      296(2)
_diffrn_measured_fraction_theta_full 0.918
_diffrn_measured_fraction_theta_max 0.908
_diffrn_measurement_device_type  apexIIduo
_diffrn_radiation_type           MoK\a
_diffrn_radiation_wavelength     0.71073
_diffrn_reflns_av_R_equivalents  0.0455
_diffrn_reflns_av_unetI/netI     0.0528
_diffrn_reflns_laue_measured_fraction_full 0.918
_diffrn_reflns_laue_measured_fraction_max 0.908
_diffrn_reflns_limit_h_max       10
_diffrn_reflns_limit_h_min       -10
_diffrn_reflns_limit_k_max       12
_diffrn_reflns_limit_k_min       -12
_diffrn_reflns_limit_l_max       13
_diffrn_reflns_limit_l_min       -13
_diffrn_reflns_number            10903
_diffrn_reflns_point_group_measured_fraction_full 0.918
_diffrn_reflns_point_group_measured_fraction_max 0.908
_diffrn_reflns_theta_full        25.242
_diffrn_reflns_theta_max         25.997
_diffrn_reflns_theta_min         1.920
_exptl_absorpt_coefficient_mu    0.253
_exptl_crystal_density_diffrn    1.429
_exptl_crystal_description       needle
_exptl_crystal_F_000             368
_refine_diff_density_max         0.313
_refine_diff_density_min         -0.357
_refine_diff_density_rms         0.059
_refine_ls_extinction_method     none
_refine_ls_goodness_of_fit_ref   1.458
_refine_ls_hydrogen_treatment    mixed
_refine_ls_matrix_type           full
_refine_ls_number_parameters     260
_refine_ls_number_reflns         2964
_refine_ls_number_restraints     0
_refine_ls_restrained_S_all      1.458
_refine_ls_R_factor_all          0.1161
_refine_ls_R_factor_gt           0.0858
_refine_ls_shift/su_max          0.007
_refine_ls_shift/su_mean         0.000
_refine_ls_structure_factor_coef Fsqd
_refine_ls_weighting_details
'w=1/[\s^2^(Fo^2^)+(0.1000P)^2^+0.9791P] where P=(Fo^2^+2Fc^2^)/3'
_refine_ls_weighting_scheme      calc
_refine_ls_wR_factor_gt          0.2616
_refine_ls_wR_factor_ref         0.2722
_reflns_Friedel_coverage         0.000
_reflns_number_gt                2102
_reflns_number_total             2964
_reflns_threshold_expression     'I > 2\s(I)'
_cod_data_source_file            c5ra13014j2.cif
_cod_data_source_block           mo_NITK409_0m_a
_cod_database_code               7224035
_shelx_shelxl_version_number     2014/7
_shelx_space_group_comment
;
The symmetry employed for this shelxl refinement is uniquely defined
by the following loop, which should always be used as a source of
symmetry information in preference to the above space-group names.
They are only intended as comments.
;
_shelx_res_file
;

    mo_NITK409_0m_a.res created by SHELXL-2014/7

TITL mo_NITK409_0m_a.res in P-1
CELL  0.71073   8.4863  10.0369  10.8206   87.988   78.876   66.293
ZERR    2.000   0.0004   0.0005   0.0005    0.003    0.003    0.003
LATT 1
SFAC C  H  N  O  Cl
UNIT 34  28  10  4  2
OMIT -3 52
L.S. 20
ACTA
BOND $H
FMAP 2
PLAN 20
TEMP 23.000
WGHT    0.100000    0.979090
FVAR       0.81552
CL1   5    0.979116    0.658930    0.342687    11.00000    0.08399    0.05988 =
         0.05533    0.00537    0.02775   -0.00389
O2    4    0.275772    0.864011    0.929738    11.00000    0.03929    0.02968 =
         0.03700    0.00038   -0.00269   -0.01254
O1    4    0.828659    0.615884    0.973297    11.00000    0.04992    0.02362 =
         0.05943    0.01298   -0.03393   -0.01647
N2    3    0.782227    0.406460    0.950295    11.00000    0.03680    0.02484 =
         0.04505    0.00972   -0.01279   -0.01427
N1    3    0.679581    0.374037    0.885205    11.00000    0.03720    0.02326 =
         0.04372    0.00610   -0.00695   -0.01511
N5    3    0.321029    0.874577    0.714936    11.00000    0.02978    0.03587 =
         0.04367    0.00846   -0.01420   -0.01454
N3    3    0.865097    0.817629    1.000255    11.00000    0.05589    0.02645 =
         0.07213    0.01057   -0.04369   -0.01605
C10   1    0.575837    0.752430    0.799511    11.00000    0.03136    0.02222 =
         0.02525    0.00232   -0.00919   -0.01298
C9    1    0.372525    0.836953    0.827181    11.00000    0.03381    0.02052 =
         0.03246    0.00349   -0.01046   -0.01434
C14   1    0.747654    0.543193    0.923742    11.00000    0.03068    0.02567 =
         0.03110    0.00328   -0.00828   -0.01102
C11   1    0.666042    0.825095    0.866484    11.00000    0.03162    0.01973 =
         0.03381    0.00510   -0.01102   -0.01184
C15   1    0.629011    0.600547    0.844756    11.00000    0.03064    0.02060 =
         0.02622    0.00116   -0.00432   -0.01178
C3    1    0.464977    0.828446    0.613007    11.00000    0.03999    0.02858 =
         0.03528    0.00595   -0.01409   -0.02077
N4    3    0.620669    1.087372    0.814248    11.00000    0.07943    0.03151 =
         0.06253    0.01871   -0.04049   -0.02761
C13   1    0.781666    0.757777    0.943488    11.00000    0.03542    0.02451 =
         0.03447    0.00407   -0.01412   -0.01256
C8    1    0.618497    0.757451    0.657388    11.00000    0.03527    0.02262 =
         0.03237    0.00135   -0.01170   -0.01547
C16   1    0.585791    0.485179    0.820913    11.00000    0.03813    0.02562 =
         0.03053    0.00102   -0.00251   -0.01573
C12   1    0.639114    0.970545    0.838269    11.00000    0.03822    0.02911 =
         0.03386    0.00547   -0.01827   -0.01480
C4    1    0.465805    0.847665    0.486154    11.00000    0.05588    0.04521 =
         0.03727    0.01079   -0.02180   -0.02948
C7    1    0.778147    0.704068    0.576114    11.00000    0.04094    0.02465 =
         0.04091    0.00227   -0.00643   -0.01068
C6    1    0.779139    0.723920    0.449065    11.00000    0.05922    0.03300 =
         0.03385   -0.00125    0.00376   -0.01865
C5    1    0.626002    0.795452    0.404216    11.00000    0.08231    0.04168 =
         0.02620    0.00653   -0.01687   -0.03220
C17   1    0.464649    0.474337    0.743894    11.00000    0.06756    0.04002 =
         0.06414    0.00650   -0.03078   -0.03044
AFIX 137
H4    2    0.475828    0.375445    0.740039    11.00000   -1.50000
H6    2    0.493362    0.503924    0.660214    11.00000   -1.50000
H5    2    0.346175    0.536610    0.781468    11.00000   -1.50000
AFIX   0
C2    1    0.138430    0.946900    0.700568    11.00000    0.03526    0.05185 =
         0.06114    0.00986   -0.02176   -0.01294
C1    1    0.071886    0.843739    0.654212    11.00000    0.04934    0.09290 =
         0.09559   -0.00027   -0.02389   -0.04059
AFIX 137
H3    2    0.143320    0.798940    0.574398    11.00000   -1.50000
H2    2   -0.047373    0.896476    0.644544    11.00000   -1.50000
H1    2    0.077204    0.769904    0.714083    11.00000   -1.50000
AFIX   0
H7    2    0.665928    0.290546    0.903154    11.00000    0.07454
H8    2    0.958200    0.759187    1.028510    11.00000    0.04723
H9    2    0.839133    0.914012    0.992525    11.00000    0.05115
H11   2    0.071606    0.988482    0.781947    11.00000    0.06475
H10   2    0.126323    1.024289    0.644771    11.00000    0.05786
H13   2    0.630847    0.807986    0.319944    11.00000    0.03747
H12   2    0.358129    0.897379    0.453808    11.00000    0.04208
H14   2    0.879860    0.655486    0.603401    11.00000    0.03863
HKLF 4

REM  mo_NITK409_0m_a.res in P-1
REM R1 =  0.0858 for    2102 Fo > 4sig(Fo)  and  0.1161 for all    2964 data
REM    260 parameters refined using      0 restraints

END

WGHT      0.0482      1.9163

REM Highest difference peak  0.313,  deepest hole -0.357,  1-sigma level  0.059
Q1    1   0.6224  0.7748  0.7191  11.00000  0.05    0.31
Q2    1   0.3437  0.8146  0.7615  11.00000  0.05    0.31
Q3    1   0.9236  0.6409  0.4353  11.00000  0.05    0.30
Q4    1   0.3849  0.8480  0.6705  11.00000  0.05    0.28
Q5    1   0.7644  0.5362  0.8379  11.00000  0.05    0.27
Q6    1   0.2385  0.8928  1.0059  11.00000  0.05    0.27
Q7    1   0.6466  0.5480  0.7738  11.00000  0.05    0.27
Q8    1   0.3294  0.9142  0.7610  11.00000  0.05    0.26
Q9    1   0.6203  0.6004  0.9240  11.00000  0.05    0.25
Q10   1   0.3827  0.4404  0.8044  11.00000  0.05    0.25
Q11   1   1.0209  0.5662  0.4093  11.00000  0.05    0.24
Q12   1   0.8316  0.7193  0.3796  11.00000  0.05    0.24
Q13   1   0.4336  0.5640  0.6866  11.00000  0.05    0.24
Q14   1   0.5229  0.7456  0.6388  11.00000  0.05    0.24
Q15   1   0.6978  0.7708  0.6365  11.00000  0.05    0.24
Q16   1   0.8567  0.6625  0.3819  11.00000  0.05    0.23
Q17   1   1.0169  0.6400  0.2648  11.00000  0.05    0.23
Q18   1   0.8534  0.3482  0.9742  11.00000  0.05    0.22
Q19   1   0.8061  0.7641  0.8423  11.00000  0.05    0.22
Q20   1   1.0626  0.6029  0.4253  11.00000  0.05    0.22
;
_shelx_res_checksum              97142
loop_
_space_group_symop_operation_xyz
'x, y, z'
'-x, -y, -z'
loop_
_atom_site_label
_atom_site_type_symbol
_atom_site_fract_x
_atom_site_fract_y
_atom_site_fract_z
_atom_site_U_iso_or_equiv
_atom_site_adp_type
_atom_site_occupancy
_atom_site_site_symmetry_order
_atom_site_calc_flag
_atom_site_refinement_flags_posn
_atom_site_refinement_flags_adp
Cl1 Cl 0.9791(3) 0.6589(2) 0.34269(18) 0.0807(8) Uani 1 1 d . .
O2 O 0.2758(5) 0.8640(4) 0.9297(4) 0.0364(9) Uani 1 1 d . .
O1 O 0.8287(5) 0.6159(4) 0.9733(4) 0.0407(10) Uani 1 1 d . .
N2 N 0.7822(5) 0.4065(4) 0.9503(4) 0.0345(11) Uani 1 1 d . .
N1 N 0.6796(6) 0.3740(5) 0.8852(4) 0.0340(11) Uani 1 1 d . .
N5 N 0.3210(5) 0.8746(5) 0.7149(4) 0.0352(11) Uani 1 1 d . .
N3 N 0.8651(7) 0.8176(6) 1.0003(5) 0.0473(14) Uani 1 1 d . .
C10 C 0.5758(6) 0.7524(5) 0.7995(4) 0.0251(11) Uani 1 1 d . .
C9 C 0.3725(6) 0.8370(5) 0.8272(5) 0.0273(11) Uani 1 1 d . .
C14 C 0.7477(6) 0.5432(5) 0.9237(5) 0.0290(11) Uani 1 1 d . .
C11 C 0.6660(6) 0.8251(5) 0.8665(5) 0.0273(11) Uani 1 1 d . .
C15 C 0.6290(6) 0.6005(5) 0.8448(4) 0.0255(11) Uani 1 1 d . .
C3 C 0.4650(7) 0.8284(5) 0.6130(5) 0.0315(12) Uani 1 1 d . .
N4 N 0.6207(7) 1.0874(5) 0.8142(5) 0.0526(14) Uani 1 1 d . .
C13 C 0.7817(6) 0.7578(5) 0.9435(5) 0.0303(12) Uani 1 1 d . .
C8 C 0.6185(6) 0.7575(5) 0.6574(5) 0.0281(11) Uani 1 1 d . .
C16 C 0.5858(7) 0.4852(5) 0.8209(5) 0.0311(12) Uani 1 1 d . .
C12 C 0.6391(7) 0.9705(6) 0.8383(5) 0.0318(12) Uani 1 1 d . .
C4 C 0.4658(8) 0.8477(7) 0.4862(5) 0.0415(14) Uani 1 1 d . .
C7 C 0.7781(8) 0.7041(6) 0.5761(5) 0.0366(13) Uani 1 1 d . .
C6 C 0.7791(8) 0.7239(6) 0.4491(5) 0.0438(14) Uani 1 1 d . .
C5 C 0.6260(9) 0.7955(6) 0.4042(6) 0.0469(16) Uani 1 1 d . .
C17 C 0.4646(8) 0.4743(7) 0.7439(6) 0.0519(16) Uani 1 1 d . .
H4 H 0.4758 0.3754 0.7400 0.078 Uiso 1 1 calc R U
H6 H 0.4934 0.5039 0.6602 0.078 Uiso 1 1 calc R U
H5 H 0.3462 0.5366 0.7815 0.078 Uiso 1 1 calc R U
C2 C 0.1384(8) 0.9469(7) 0.7006(8) 0.0493(16) Uani 1 1 d . .
C1 C 0.0719(9) 0.8437(9) 0.6542(8) 0.074(2) Uani 1 1 d . .
H3 H 0.1433 0.7989 0.5744 0.111 Uiso 1 1 calc R U
H2 H -0.0474 0.8965 0.6445 0.111 Uiso 1 1 calc R U
H1 H 0.0772 0.7699 0.7141 0.111 Uiso 1 1 calc R U
H7 H 0.666(9) 0.291(8) 0.903(7) 0.07(2) Uiso 1 1 d . .
H8 H 0.958(8) 0.759(7) 1.029(5) 0.047(16) Uiso 1 1 d . .
H9 H 0.839(8) 0.914(8) 0.993(6) 0.051(17) Uiso 1 1 d . .
H11 H 0.072(9) 0.988(7) 0.782(7) 0.06(2) Uiso 1 1 d . .
H10 H 0.126(8) 1.024(7) 0.645(6) 0.058(19) Uiso 1 1 d . .
H13 H 0.631(7) 0.808(6) 0.320(6) 0.037(15) Uiso 1 1 d . .
H12 H 0.358(7) 0.897(6) 0.454(5) 0.042(15) Uiso 1 1 d . .
H14 H 0.880(7) 0.655(6) 0.603(5) 0.039(15) Uiso 1 1 d . .
loop_
_atom_site_aniso_label
_atom_site_aniso_U_11
_atom_site_aniso_U_22
_atom_site_aniso_U_33
_atom_site_aniso_U_23
_atom_site_aniso_U_13
_atom_site_aniso_U_12
Cl1 0.0840(14) 0.0599(12) 0.0553(12) 0.0054(9) 0.0278(10) -0.0039(10)
O2 0.039(2) 0.030(2) 0.037(2) 0.0004(16) -0.0027(19) -0.0125(16)
O1 0.050(2) 0.0236(18) 0.059(3) 0.0130(17) -0.034(2) -0.0165(17)
N2 0.037(2) 0.025(2) 0.045(3) 0.0097(19) -0.013(2) -0.0143(19)
N1 0.037(2) 0.023(2) 0.044(3) 0.006(2) -0.007(2) -0.015(2)
N5 0.030(2) 0.036(2) 0.044(3) 0.008(2) -0.014(2) -0.015(2)
N3 0.056(3) 0.026(3) 0.072(4) 0.011(2) -0.044(3) -0.016(2)
C10 0.031(3) 0.022(2) 0.025(3) 0.002(2) -0.009(2) -0.013(2)
C9 0.034(3) 0.021(2) 0.032(3) 0.003(2) -0.010(3) -0.014(2)
C14 0.031(3) 0.026(3) 0.031(3) 0.003(2) -0.008(2) -0.011(2)
C11 0.032(3) 0.020(2) 0.034(3) 0.005(2) -0.011(2) -0.012(2)
C15 0.031(3) 0.021(2) 0.026(3) 0.0012(19) -0.004(2) -0.012(2)
C3 0.040(3) 0.029(3) 0.035(3) 0.006(2) -0.014(3) -0.021(2)
N4 0.079(4) 0.032(3) 0.063(3) 0.019(2) -0.040(3) -0.028(3)
C13 0.035(3) 0.025(2) 0.034(3) 0.004(2) -0.014(2) -0.013(2)
C8 0.035(3) 0.023(2) 0.032(3) 0.001(2) -0.012(2) -0.015(2)
C16 0.038(3) 0.026(3) 0.031(3) 0.001(2) -0.003(2) -0.016(2)
C12 0.038(3) 0.029(3) 0.034(3) 0.005(2) -0.018(2) -0.015(2)
C4 0.056(4) 0.045(3) 0.037(3) 0.011(3) -0.022(3) -0.029(3)
C7 0.041(3) 0.025(3) 0.041(4) 0.002(2) -0.006(3) -0.011(2)
C6 0.059(4) 0.033(3) 0.034(3) -0.001(2) 0.004(3) -0.019(3)
C5 0.082(5) 0.042(3) 0.026(3) 0.007(3) -0.017(3) -0.032(3)
C17 0.068(4) 0.040(3) 0.064(4) 0.006(3) -0.031(4) -0.030(3)
C2 0.035(3) 0.052(4) 0.061(5) 0.010(4) -0.022(3) -0.013(3)
C1 0.049(4) 0.093(6) 0.096(6) 0.000(5) -0.024(4) -0.041(4)
loop_
_atom_type_symbol
_atom_type_description
_atom_type_scat_dispersion_real
_atom_type_scat_dispersion_imag
_atom_type_scat_source
C C 0.0033 0.0016 'International Tables Vol C Tables 4.2.6.8 and 6.1.1.4'
H H 0.0000 0.0000 'International Tables Vol C Tables 4.2.6.8 and 6.1.1.4'
N N 0.0061 0.0033 'International Tables Vol C Tables 4.2.6.8 and 6.1.1.4'
O O 0.0106 0.0060 'International Tables Vol C Tables 4.2.6.8 and 6.1.1.4'
Cl Cl 0.1484 0.1585 'International Tables Vol C Tables 4.2.6.8 and 6.1.1.4'
loop_
_geom_angle_atom_site_label_1
_geom_angle_atom_site_label_2
_geom_angle_atom_site_label_3
_geom_angle
C13 O1 C14 115.6(4)
C14 N2 N1 102.1(4)
C16 N1 N2 113.9(4)
C16 N1 H7 128(5)
N2 N1 H7 117(4)
C9 N5 C3 111.7(4)
C9 N5 C2 124.4(5)
C3 N5 C2 123.8(5)
C13 N3 H8 118(4)
C13 N3 H9 119(4)
H8 N3 H9 122(5)
C15 C10 C8 113.2(4)
C15 C10 C11 106.2(4)
C8 C10 C11 112.7(4)
C15 C10 C9 111.4(4)
C8 C10 C9 101.4(4)
C11 C10 C9 112.1(4)
O2 C9 N5 125.5(5)
O2 C9 C10 126.7(4)
N5 C9 C10 107.8(4)
N2 C14 O1 119.6(4)
N2 C14 C15 114.9(4)
O1 C14 C15 125.5(4)
C13 C11 C12 116.9(4)
C13 C11 C10 125.3(4)
C12 C11 C10 117.6(4)
C14 C15 C16 103.4(4)
C14 C15 C10 123.5(4)
C16 C15 C10 133.0(4)
C4 C3 C8 121.5(5)
C4 C3 N5 128.8(5)
C8 C3 N5 109.7(4)
N3 C13 C11 126.4(5)
N3 C13 O1 109.9(4)
C11 C13 O1 123.7(4)
C7 C8 C3 120.9(5)
C7 C8 C10 129.7(4)
C3 C8 C10 109.4(4)
N1 C16 C15 105.7(4)
N1 C16 C17 123.1(4)
C15 C16 C17 131.2(5)
N4 C12 C11 178.7(6)
C3 C4 C5 117.8(5)
C3 C4 H12 122(3)
C5 C4 H12 120(3)
C8 C7 C6 117.6(5)
C8 C7 H14 122(3)
C6 C7 H14 120(3)
C7 C6 C5 121.7(6)
C7 C6 Cl1 119.1(5)
C5 C6 Cl1 119.1(5)
C4 C5 C6 120.4(5)
C4 C5 H13 120(3)
C6 C5 H13 120(3)
C16 C17 H4 109.5
C16 C17 H6 109.5
H4 C17 H6 109.5
C16 C17 H5 109.5
H4 C17 H5 109.5
H6 C17 H5 109.5
N5 C2 C1 112.5(6)
N5 C2 H11 106(4)
C1 C2 H11 110(4)
N5 C2 H10 110(4)
C1 C2 H10 110(4)
H11 C2 H10 108(6)
C2 C1 H3 109.5
C2 C1 H2 109.5
H3 C1 H2 109.5
C2 C1 H1 109.5
H3 C1 H1 109.5
H2 C1 H1 109.5
loop_
_geom_bond_atom_site_label_1
_geom_bond_atom_site_label_2
_geom_bond_distance
Cl1 C6 1.743(6)
O2 C9 1.212(6)
O1 C13 1.361(6)
O1 C14 1.366(6)
N2 C14 1.316(6)
N2 N1 1.357(6)
N1 C16 1.344(6)
N1 H7 0.90(7)
N5 C9 1.360(6)
N5 C3 1.409(7)
N5 C2 1.460(7)
N3 C13 1.332(6)
N3 H8 0.88(6)
N3 H9 0.91(7)
C10 C15 1.499(6)
C10 C8 1.514(7)
C10 C11 1.531(6)
C10 C9 1.558(7)
C14 C15 1.381(6)
C11 C13 1.363(6)
C11 C12 1.416(7)
C15 C16 1.393(6)
C3 C4 1.378(8)
C3 C8 1.381(7)
N4 C12 1.146(6)
C8 C7 1.373(7)
C16 C17 1.480(7)
C4 C5 1.380(9)
C4 H12 0.98(6)
C7 C6 1.381(8)
C7 H14 0.91(6)
C6 C5 1.381(9)
C5 H13 0.91(6)
C17 H4 0.9600
C17 H6 0.9600
C17 H5 0.9600
C2 C1 1.503(9)
C2 H11 0.96(7)
C2 H10 0.95(7)
C1 H3 0.9600
C1 H2 0.9600
C1 H1 0.9600
