#------------------------------------------------------------------------------
#$Date: 2016-01-30 09:25:13 +0200 (Sat, 30 Jan 2016) $
#$Revision: 175318 $
#$URL: svn://www.crystallography.net/cod/cif/7/22/40/7224066.cif $
#------------------------------------------------------------------------------
#
# This file is available in the Crystallography Open Database (COD),
# http://www.crystallography.net/
#
# All data on this site have been placed in the public domain by the
# contributors.
#
data_7224066
loop_
_publ_author_name
'Materna, Magdalena'
'Stawinski, Jacek'
'Kiliszek, Agnieszka'
'Rypniewski, Wojciech'
'Sobkowski, Michal'
_publ_section_title
;
 Oxyonium phosphobetaines -- unusually stable nucleophilic
 catalyst-phosphate complexes formed from H-phosphonates and N-oxides
;
_journal_name_full               'RSC Adv.'
_journal_paper_doi               10.1039/C5RA27465F
_journal_year                    2016
_chemical_formula_moiety         'C9 H14 N O4 P'
_chemical_formula_sum            'C9 H14 N O4 P'
_chemical_formula_weight         231.18
_chemical_name_common            'phenyl trimethyloxyammonium phosphate'
_chemical_name_systematic        'phenyl (trimethylammonio) phosphate'
_space_group_crystal_system      monoclinic
_space_group_IT_number           4
_space_group_name_Hall           'P 2yb'
_space_group_name_H-M_alt        'P 1 21 1'
_symmetry_space_group_name_Hall  'P 2yb'
_symmetry_space_group_name_H-M   'P 1 21 1'
_atom_sites_solution_hydrogens   geom
_audit_creation_method           SHELXL-2014/7
_audit_update_record
;
2015-09-18 deposited with the CCDC.
2016-01-27 downloaded from the CCDC.
;
_cell_angle_alpha                90
_cell_angle_beta                 102.22
_cell_angle_gamma                90
_cell_formula_units_Z            2
_cell_length_a                   6.2080(10)
_cell_length_b                   7.2180(10)
_cell_length_c                   12.4960(10)
_cell_measurement_temperature    100(2)
_cell_volume                     547.25(12)
_computing_data_collection       'HKL2000 (Otwinowski & Minor, 2007)'
_computing_structure_refinement  'SHELXL-2014/7 (Sheldrick, 2014)'
_computing_structure_solution    'SHELXT (Sheldrick, 2015)'
_diffrn_ambient_temperature      100(2)
_diffrn_detector_area_resol_mean 25.6
_diffrn_measured_fraction_theta_full 0.993
_diffrn_measured_fraction_theta_max 0.990
_diffrn_measurement_device_type  'Mar Research MX-225'
_diffrn_measurement_method       'phi scan'
_diffrn_radiation_type           synchrotron
_diffrn_radiation_wavelength     0.88561
_diffrn_reflns_av_unetI/netI     0.0239
_diffrn_reflns_laue_measured_fraction_full 0.993
_diffrn_reflns_laue_measured_fraction_max 0.990
_diffrn_reflns_limit_h_max       7
_diffrn_reflns_limit_h_min       0
_diffrn_reflns_limit_k_max       8
_diffrn_reflns_limit_k_min       0
_diffrn_reflns_limit_l_max       15
_diffrn_reflns_limit_l_min       -15
_diffrn_reflns_number            1164
_diffrn_reflns_point_group_measured_fraction_full 0.539
_diffrn_reflns_point_group_measured_fraction_max 0.536
_diffrn_reflns_theta_full        32.098
_diffrn_reflns_theta_max         33.183
_diffrn_reflns_theta_min         4.158
_diffrn_source                   'BESSY BL14.2'
_exptl_absorpt_coefficient_mu    0.453
_exptl_crystal_colour            colourless
_exptl_crystal_density_diffrn    1.403
_exptl_crystal_description       needle
_exptl_crystal_F_000             244
_exptl_crystal_recrystallization_method
'Re-crystallisation from solvent: Dichloromethane'
_exptl_crystal_size_max          0.5
_exptl_crystal_size_mid          0.1
_exptl_crystal_size_min          0.1
_refine_diff_density_max         0.204
_refine_diff_density_min         -0.335
_refine_diff_density_rms         0.045
_refine_ls_abs_structure_details
;
No quotients, so Flack parameter determined by classical intensity fit
;
_refine_ls_abs_structure_Flack   0.15(7)
_refine_ls_extinction_method     none
_refine_ls_goodness_of_fit_ref   1.046
_refine_ls_hydrogen_treatment    constr
_refine_ls_matrix_type           full
_refine_ls_number_parameters     136
_refine_ls_number_reflns         1164
_refine_ls_number_restraints     1
_refine_ls_restrained_S_all      1.045
_refine_ls_R_factor_all          0.0256
_refine_ls_R_factor_gt           0.0250
_refine_ls_shift/su_max          0.000
_refine_ls_shift/su_mean         0.000
_refine_ls_structure_factor_coef Fsqd
_refine_ls_weighting_details
'w=1/[\s^2^(Fo^2^)+(0.0364P)^2^+0.2261P] where P=(Fo^2^+2Fc^2^)/3'
_refine_ls_weighting_scheme      calc
_refine_ls_wR_factor_gt          0.0647
_refine_ls_wR_factor_ref         0.0651
_reflns_Friedel_coverage         0.000
_reflns_friedel_fraction_full    0.000
_reflns_friedel_fraction_max     0.000
_reflns_number_gt                1133
_reflns_number_total             1164
_reflns_threshold_expression     'I > 2\s(I)'
_cod_data_source_file            c5ra27465f2.cif
_cod_data_source_block           a2-wght
_cod_original_cell_volume        547.24(12)
_cod_database_code               7224066
_shelx_shelxl_version_number     2014/7
_shelx_space_group_comment
;
The symmetry employed for this shelxl refinement is uniquely defined
by the following loop, which should always be used as a source of
symmetry information in preference to the above space-group names.
They are only intended as comments.
;
_shelx_res_file
;

    a2-wght.res created by SHELXL-2014/7

TITL E [No title given]
CELL  0.88561   6.2080   7.2180  12.4960   90.000  102.224   90.000
ZERR     2.00   0.0010   0.0010   0.0010    0.000    0.000    0.000
LATT  -1
SYMM  - X, 1/2 + Y, - Z
SFAC  C    H    N    O    P
DISP C 0.006 0.003 19.211
DISP H -0 0 0.633
DISP N 0.011 0.005 34.905
DISP O 0.019 0.01 59.724
DISP P 0.148 0.15 784.622
UNIT  18 28 2 8 2
MERG   2
OMIT     0   0   1
FMAP   2
PLAN   20
ACTA
BOND   $H
LIST   6
L.S.  10
TEMP  -173.00
WGHT    0.036400    0.226100
FVAR       4.35568
P1    5    0.385851    0.793366    0.176767    11.00000    0.01261    0.00692 =
         0.01038    0.00109    0.00372    0.00146
O1    4    0.390231    0.785366    0.306564    11.00000    0.01209    0.01106 =
         0.01022    0.00225    0.00169   -0.00185
O2    4    0.173193    0.938132    0.132053    11.00000    0.01267    0.00502 =
         0.01481    0.00121    0.00096   -0.00205
O3    4    0.300146    0.618673    0.123848    11.00000    0.02659    0.00777 =
         0.01363    0.00009    0.00503    0.00081
O4    4    0.592153    0.883307    0.165342    11.00000    0.01376    0.01479 =
         0.01967    0.00448    0.00712    0.00220
C1    1    0.250888    0.670477    0.350897    11.00000    0.01228    0.00655 =
         0.01018   -0.00113    0.00498    0.00094
C2    1    0.344974    0.573482    0.445421    11.00000    0.01166    0.01332 =
         0.01263    0.00022    0.00172    0.00315
AFIX  43
H2    2    0.498163    0.584466    0.475931    11.00000   -1.20000
AFIX   0
C3    1    0.213544    0.460583    0.494837    11.00000    0.02050    0.01375 =
         0.01386    0.00449    0.00461    0.00568
AFIX  43
H3    2    0.276377    0.395681    0.560128    11.00000   -1.20000
AFIX   0
C4    1   -0.010061    0.442161    0.449021    11.00000    0.01885    0.01508 =
         0.01939    0.00378    0.00923   -0.00187
AFIX  43
H4    2   -0.099543    0.362645    0.481827    11.00000   -1.20000
AFIX   0
C5    1   -0.101609    0.541066    0.354805    11.00000    0.01111    0.01462 =
         0.01776   -0.00044    0.00348   -0.00030
AFIX  43
H5    2   -0.254391    0.528594    0.323735    11.00000   -1.20000
AFIX   0
C6    1    0.026287    0.657723    0.305330    11.00000    0.01258    0.01118 =
         0.00952    0.00135    0.00240    0.00282
AFIX  43
H6    2   -0.037833    0.727102    0.241977    11.00000   -1.20000
AFIX   0
N1    3    0.200885    1.136919    0.137354    11.00000    0.01368    0.00639 =
         0.01191    0.00010    0.00275    0.00022
C7    1   -0.028809    1.206668    0.125813    11.00000    0.01415    0.01506 =
         0.02061    0.00134    0.00328    0.00665
AFIX  33
H7A   2   -0.027478    1.342366    0.128448    11.00000   -1.50000
H7B   2   -0.118297    1.165356    0.055628    11.00000   -1.50000
H7C   2   -0.091713    1.158153    0.185772    11.00000   -1.50000
AFIX   0
C8    1    0.337892    1.201048    0.244022    11.00000    0.02105    0.01094 =
         0.01284   -0.00284   -0.00133   -0.00097
AFIX  33
H8A   2    0.351383    1.336292    0.243246    11.00000   -1.50000
H8B   2    0.267380    1.163854    0.303812    11.00000   -1.50000
H8C   2    0.484737    1.145044    0.254942    11.00000   -1.50000
AFIX   0
C9    1    0.294127    1.196763    0.041897    11.00000    0.02445    0.00952 =
         0.01592    0.00364    0.00893   -0.00129
AFIX  33
H9A   2    0.314177    1.331485    0.044023    11.00000   -1.50000
H9B   2    0.436735    1.136162    0.045458    11.00000   -1.50000
H9C   2    0.192566    1.161855   -0.026339    11.00000   -1.50000
AFIX   0
HKLF    4

REM  E [No title given]
REM R1 =  0.0250 for    1133 Fo > 4sig(Fo)  and  0.0256 for all    1164 data
REM    136 parameters refined using      1 restraints

END

WGHT      0.0365      0.2249

REM Highest difference peak  0.204,  deepest hole -0.335,  1-sigma level  0.045
Q1    1   0.2796  0.8925  0.1838  11.00000  0.05    0.20
Q2    1   0.2539  0.8672  0.0965  11.00000  0.05    0.17
Q3    1   0.4721  0.7116  0.2843  11.00000  0.05    0.15
Q4    1   0.2883  1.3005  0.2594  11.00000  0.05    0.15
Q5    1   0.1346  0.6129  0.3069  11.00000  0.05    0.14
Q6    1   0.2982  0.6898  0.1910  11.00000  0.05    0.14
Q7    1   0.3065  0.7249  0.0736  11.00000  0.05    0.14
Q8    1   0.3121  0.9930  0.3851  11.00000  0.05    0.14
Q9    1  -0.0795  0.7746  0.2217  11.00000  0.05    0.14
Q10   1   0.0970  1.1962  0.1401  11.00000  0.05    0.14
Q11   1   0.2950  0.6675  0.4252  11.00000  0.05    0.14
Q12   1   0.0076  0.6392  0.2019  11.00000  0.05    0.14
Q13   1  -0.0324  0.6164  0.3382  11.00000  0.05    0.14
Q14   1   0.2610  1.0259  0.1225  11.00000  0.05    0.13
Q15   1   0.0400  0.8058  0.1779  11.00000  0.05    0.13
Q16   1   0.3838  0.9384  0.0145  11.00000  0.05    0.13
Q17   1  -0.0035  1.0947 -0.1358  11.00000  0.05    0.13
Q18   1   0.0992  0.8771  0.0343  11.00000  0.05    0.13
Q19   1   0.6074  1.4667  0.1350  11.00000  0.05    0.13
Q20   1   0.0918  0.3852  0.4628  11.00000  0.05    0.12
;
_shelx_res_checksum              35596
loop_
_space_group_symop_operation_xyz
'x, y, z'
'-x, y+1/2, -z'
loop_
_atom_site_label
_atom_site_type_symbol
_atom_site_fract_x
_atom_site_fract_y
_atom_site_fract_z
_atom_site_U_iso_or_equiv
_atom_site_adp_type
_atom_site_occupancy
_atom_site_site_symmetry_order
_atom_site_calc_flag
_atom_site_refinement_flags_posn
_atom_site_refinement_flags_adp
P1 P 0.38585(8) 0.79337(8) 0.17677(4) 0.00978(14) Uani 1 1 d . .
O1 O 0.3902(2) 0.7854(3) 0.30656(11) 0.0112(3) Uani 1 1 d . .
O2 O 0.1732(2) 0.9381(2) 0.13205(12) 0.0111(3) Uani 1 1 d . .
O3 O 0.3001(3) 0.6187(2) 0.12385(13) 0.0159(4) Uani 1 1 d . .
O4 O 0.5922(2) 0.8833(3) 0.16534(13) 0.0155(4) Uani 1 1 d . .
C1 C 0.2509(3) 0.6705(3) 0.35090(17) 0.0093(4) Uani 1 1 d . .
C2 C 0.3450(4) 0.5735(3) 0.44542(17) 0.0127(5) Uani 1 1 d . .
H2 H 0.4982 0.5845 0.4759 0.015 Uiso 1 1 calc R U
C3 C 0.2135(4) 0.4606(4) 0.49484(18) 0.0159(5) Uani 1 1 d . .
H3 H 0.2764 0.3957 0.5601 0.019 Uiso 1 1 calc R U
C4 C -0.0101(4) 0.4422(4) 0.44902(18) 0.0170(5) Uani 1 1 d . .
H4 H -0.0995 0.3626 0.4818 0.020 Uiso 1 1 calc R U
C5 C -0.1016(4) 0.5411(4) 0.35481(18) 0.0144(5) Uani 1 1 d . .
H5 H -0.2544 0.5286 0.3237 0.017 Uiso 1 1 calc R U
C6 C 0.0263(4) 0.6577(3) 0.30533(17) 0.0111(4) Uani 1 1 d . .
H6 H -0.0378 0.7271 0.2420 0.013 Uiso 1 1 calc R U
N1 N 0.2009(3) 1.1369(3) 0.13735(15) 0.0107(4) Uani 1 1 d . .
C7 C -0.0288(4) 1.2067(4) 0.12581(19) 0.0167(5) Uani 1 1 d . .
H7A H -0.0275 1.3424 0.1284 0.025 Uiso 1 1 calc R U
H7B H -0.1183 1.1654 0.0556 0.025 Uiso 1 1 calc R U
H7C H -0.0917 1.1582 0.1858 0.025 Uiso 1 1 calc R U
C8 C 0.3379(4) 1.2010(4) 0.24402(18) 0.0157(5) Uani 1 1 d . .
H8A H 0.3514 1.3363 0.2432 0.024 Uiso 1 1 calc R U
H8B H 0.2674 1.1639 0.3038 0.024 Uiso 1 1 calc R U
H8C H 0.4847 1.1450 0.2549 0.024 Uiso 1 1 calc R U
C9 C 0.2941(4) 1.1968(3) 0.04190(19) 0.0159(5) Uani 1 1 d . .
H9A H 0.3142 1.3315 0.0440 0.024 Uiso 1 1 calc R U
H9B H 0.4367 1.1362 0.0455 0.024 Uiso 1 1 calc R U
H9C H 0.1926 1.1619 -0.0263 0.024 Uiso 1 1 calc R U
loop_
_atom_site_aniso_label
_atom_site_aniso_U_11
_atom_site_aniso_U_22
_atom_site_aniso_U_33
_atom_site_aniso_U_23
_atom_site_aniso_U_13
_atom_site_aniso_U_12
P1 0.0126(2) 0.0069(3) 0.0104(2) 0.0011(2) 0.00372(17) 0.0015(2)
O1 0.0121(7) 0.0111(8) 0.0102(6) 0.0022(7) 0.0017(5) -0.0018(7)
O2 0.0127(7) 0.0050(7) 0.0148(7) 0.0012(6) 0.0010(6) -0.0020(6)
O3 0.0266(9) 0.0078(8) 0.0136(7) 0.0001(6) 0.0050(6) 0.0008(7)
O4 0.0138(8) 0.0148(8) 0.0197(8) 0.0045(7) 0.0071(6) 0.0022(7)
C1 0.0123(10) 0.0066(11) 0.0102(9) -0.0011(8) 0.0050(8) 0.0009(8)
C2 0.0117(10) 0.0133(12) 0.0126(9) 0.0002(9) 0.0017(8) 0.0031(9)
C3 0.0205(11) 0.0137(12) 0.0139(10) 0.0045(9) 0.0046(8) 0.0057(10)
C4 0.0189(11) 0.0151(12) 0.0194(11) 0.0038(10) 0.0092(9) -0.0019(10)
C5 0.0111(10) 0.0146(12) 0.0178(10) -0.0004(10) 0.0035(8) -0.0003(9)
C6 0.0126(10) 0.0112(11) 0.0095(9) 0.0013(9) 0.0024(8) 0.0028(9)
N1 0.0137(9) 0.0064(9) 0.0119(9) 0.0001(7) 0.0028(7) 0.0002(7)
C7 0.0141(11) 0.0151(12) 0.0206(12) 0.0013(10) 0.0033(9) 0.0067(9)
C8 0.0210(12) 0.0109(12) 0.0128(11) -0.0028(9) -0.0013(9) -0.0010(10)
C9 0.0244(12) 0.0095(12) 0.0159(11) 0.0036(9) 0.0089(9) -0.0013(10)
loop_
_atom_type_symbol
_atom_type_description
_atom_type_scat_dispersion_real
_atom_type_scat_dispersion_imag
_atom_type_scat_source
C C 0.0060 0.0030 'International Tables Vol C Tables 4.2.6.8 and 6.1.1.4'
H H 0.0000 0.0000 'International Tables Vol C Tables 4.2.6.8 and 6.1.1.4'
N N 0.0110 0.0050 'International Tables Vol C Tables 4.2.6.8 and 6.1.1.4'
O O 0.0190 0.0100 'International Tables Vol C Tables 4.2.6.8 and 6.1.1.4'
P P 0.1480 0.1500 'International Tables Vol C Tables 4.2.6.8 and 6.1.1.4'
loop_
_geom_angle_atom_site_label_1
_geom_angle_atom_site_label_2
_geom_angle_atom_site_label_3
_geom_angle
O4 P1 O3 125.10(10)
O4 P1 O1 106.45(9)
O3 P1 O1 110.37(10)
O4 P1 O2 109.38(9)
O3 P1 O2 101.50(9)
O1 P1 O2 101.56(8)
C1 O1 P1 122.64(14)
N1 O2 P1 121.59(13)
C2 C1 C6 121.2(2)
C2 C1 O1 116.89(19)
C6 C1 O1 121.88(18)
C3 C2 C1 119.5(2)
C3 C2 H2 120.2
C1 C2 H2 120.2
C2 C3 C4 120.2(2)
C2 C3 H3 119.9
C4 C3 H3 119.9
C5 C4 C3 119.5(2)
C5 C4 H4 120.3
C3 C4 H4 120.3
C6 C5 C4 121.2(2)
C6 C5 H5 119.4
C4 C5 H5 119.4
C5 C6 C1 118.4(2)
C5 C6 H6 120.8
C1 C6 H6 120.8
O2 N1 C7 103.23(18)
O2 N1 C8 112.84(17)
C7 N1 C8 109.50(18)
O2 N1 C9 108.22(17)
C7 N1 C9 110.44(18)
C8 N1 C9 112.24(19)
N1 C7 H7A 109.5
N1 C7 H7B 109.5
H7A C7 H7B 109.5
N1 C7 H7C 109.5
H7A C7 H7C 109.5
H7B C7 H7C 109.5
N1 C8 H8A 109.5
N1 C8 H8B 109.5
H8A C8 H8B 109.5
N1 C8 H8C 109.5
H8A C8 H8C 109.5
H8B C8 H8C 109.5
N1 C9 H9A 109.5
N1 C9 H9B 109.5
H9A C9 H9B 109.5
N1 C9 H9C 109.5
H9A C9 H9C 109.5
H9B C9 H9C 109.5
loop_
_geom_bond_atom_site_label_1
_geom_bond_atom_site_label_2
_geom_bond_distance
P1 O4 1.4695(17)
P1 O3 1.4701(18)
P1 O1 1.6174(14)
P1 O2 1.6836(17)
O1 C1 1.395(3)
O2 N1 1.445(3)
C1 C2 1.391(3)
C1 C6 1.393(3)
C2 C3 1.387(3)
C2 H2 0.9500
C3 C4 1.391(3)
C3 H3 0.9500
C4 C5 1.391(3)
C4 H4 0.9500
C5 C6 1.389(3)
C5 H5 0.9500
C6 H6 0.9500
N1 C7 1.490(3)
N1 C8 1.495(3)
N1 C9 1.496(3)
C7 H7A 0.9800
C7 H7B 0.9800
C7 H7C 0.9800
C8 H8A 0.9800
C8 H8B 0.9800
C8 H8C 0.9800
C9 H9A 0.9800
C9 H9B 0.9800
C9 H9C 0.9800
