#------------------------------------------------------------------------------
#$Date: 2016-04-21 08:58:07 +0300 (Thu, 21 Apr 2016) $
#$Revision: 182239 $
#$URL: svn://www.crystallography.net/cod/cif/7/22/49/7224981.cif $
#------------------------------------------------------------------------------
#
# This file is available in the Crystallography Open Database (COD),
# http://www.crystallography.net/
#
# All data on this site have been placed in the public domain by the
# contributors.
#
data_7224981
loop_
_publ_author_name
'Hornung, Julius'
'H\"ubner, Olaf'
'Kaifer, Elisabeth'
'Himmel, Hans-J\"org'
_publ_section_title
;
 Bent and twisted: the electronic structure of 2-azapropenylium ions
 obtained by guanidine oxidation
;
_journal_issue                   45
_journal_name_full               'RSC Adv.'
_journal_page_first              39323
_journal_paper_doi               10.1039/C6RA04494H
_journal_volume                  6
_journal_year                    2016
_chemical_formula_sum            'C16 H28 N6'
_chemical_formula_weight         304.44
_space_group_crystal_system      triclinic
_space_group_IT_number           2
_space_group_name_Hall           '-P 1'
_space_group_name_H-M_alt        'P -1'
_symmetry_space_group_name_Hall  '-P 1'
_symmetry_space_group_name_H-M   'P -1'
_atom_sites_solution_hydrogens   geom
_audit_creation_method           SHELXL-2014/7
_audit_update_record
;
2016-02-19 deposited with the CCDC.
2016-04-12 downloaded from the CCDC.
;
_cell_angle_alpha                110.90(3)
_cell_angle_beta                 97.94(3)
_cell_angle_gamma                111.50(3)
_cell_formula_units_Z            1
_cell_length_a                   6.9120(14)
_cell_length_b                   8.3560(17)
_cell_length_c                   8.8440(18)
_cell_measurement_reflns_used    4364
_cell_measurement_temperature    100
_cell_measurement_theta_max      30.05
_cell_measurement_theta_min      2.59
_cell_volume                     422.2(2)
_computing_cell_refinement       'DENZO/SKALEPACK (Bruker AXS, 1997-2009)'
_computing_data_collection       'COLLECT (Bruker AXS, 1997-2009)'
_computing_data_reduction        'DENZO/SKALEPACK (Bruker AXS, 1997-2009)'
_computing_molecular_graphics    'XPMA (Zsolnai, Huttner, 1994)'
_computing_publication_material  'SHELXL-2014/7 (Sheldrick, 2014)'
_computing_structure_refinement  'SHELXL-2014/7 (Sheldrick, 2014)'
_computing_structure_solution    'SHELXS-2014/7 (Sheldrick, 2014)'
_diffrn_ambient_temperature      100
_diffrn_measured_fraction_theta_full 0.999
_diffrn_measured_fraction_theta_max 0.992
_diffrn_measurement_device_type  'NONIUS KAPPA CCD'
_diffrn_measurement_method       'O-Scan    '
_diffrn_radiation_monochromator  graphite
_diffrn_radiation_source         'fine-focus sealed tube'
_diffrn_radiation_type           MoK\a
_diffrn_radiation_wavelength     0.71073
_diffrn_reflns_av_R_equivalents  0.0293
_diffrn_reflns_av_unetI/netI     0.0498
_diffrn_reflns_Laue_measured_fraction_full 0.999
_diffrn_reflns_Laue_measured_fraction_max 0.992
_diffrn_reflns_limit_h_max       9
_diffrn_reflns_limit_h_min       -9
_diffrn_reflns_limit_k_max       11
_diffrn_reflns_limit_k_min       -11
_diffrn_reflns_limit_l_max       12
_diffrn_reflns_limit_l_min       -12
_diffrn_reflns_number            4364
_diffrn_reflns_point_group_measured_fraction_full 0.999
_diffrn_reflns_point_group_measured_fraction_max 0.992
_diffrn_reflns_theta_full        25.242
_diffrn_reflns_theta_max         30.052
_diffrn_reflns_theta_min         2.592
_exptl_absorpt_coefficient_mu    0.076
_exptl_absorpt_correction_type   none
_exptl_crystal_colour            colourless
_exptl_crystal_density_diffrn    1.197
_exptl_crystal_density_method    'not measured'
_exptl_crystal_description       'box shaped'
_exptl_crystal_F_000             166
_exptl_crystal_size_max          0.3
_exptl_crystal_size_mid          0.25
_exptl_crystal_size_min          0.15
_refine_diff_density_max         0.268
_refine_diff_density_min         -0.272
_refine_diff_density_rms         0.053
_refine_ls_extinction_method     none
_refine_ls_goodness_of_fit_ref   1.038
_refine_ls_hydrogen_treatment    constr
_refine_ls_matrix_type           full
_refine_ls_number_parameters     104
_refine_ls_number_reflns         2451
_refine_ls_number_restraints     0
_refine_ls_restrained_S_all      1.038
_refine_ls_R_factor_all          0.0728
_refine_ls_R_factor_gt           0.0463
_refine_ls_shift/su_max          0.000
_refine_ls_shift/su_mean         0.000
_refine_ls_structure_factor_coef Fsqd
_refine_ls_weighting_details
'w=1/[\s^2^(Fo^2^)+(0.0586P)^2^+0.1176P] where P=(Fo^2^+2Fc^2^)/3'
_refine_ls_weighting_scheme      calc
_refine_ls_wR_factor_gt          0.1120
_refine_ls_wR_factor_ref         0.1278
_reflns_Friedel_coverage         0.000
_reflns_number_gt                1800
_reflns_number_total             2451
_reflns_threshold_expression     'I > 2\s(I)'
_cod_data_source_file            c6ra04494h2.cif
_cod_data_source_block           juh004
_cod_original_cell_volume        422.20(19)
_cod_database_code               7224981
_shelx_shelxl_version_number     2014/7
_shelx_space_group_comment
;
The symmetry employed for this shelxl refinement is uniquely defined
by the following loop, which should always be used as a source of
symmetry information in preference to the above space-group names.
They are only intended as comments.
;
_shelx_res_file
;

    juh004.res created by SHELXL-2014/7

TITL juh014 in P-1
CELL 0.71073   6.9120   8.3560   8.8440 110.900  97.943 111.501
ZERR    1.00   0.0014   0.0017   0.0018   0.030   0.030   0.030
LATT  1
SFAC C H N
UNIT 16 28 6
ACTA
CONF
L.S. 10
BOND $H
FMAP 2
PLAN 20
WGHT    0.058600    0.117600
FVAR       1.21745
N1    3    0.030457    0.733512    0.829484    11.00000    0.01667    0.01748 =
         0.01966    0.01161    0.00655    0.00813
N2    3    0.304899    0.692389    0.704483    11.00000    0.01794    0.01714 =
         0.02230    0.00961    0.00937    0.00885
N3    3    0.238762    0.956808    0.749151    11.00000    0.01896    0.01779 =
         0.01956    0.01190    0.00940    0.00999
C1    1    0.021289    0.614228    0.910387    11.00000    0.01747    0.01448 =
         0.01654    0.00812    0.00747    0.00853
C2    1   -0.182811    0.473505    0.889180    11.00000    0.01510    0.01705 =
         0.01830    0.00873    0.00428    0.00732
AFIX  43
H2    2   -0.307198    0.454743    0.815141    11.00000   -1.20000
AFIX   0
C3    1   -0.204549    0.361226    0.975666    11.00000    0.01437    0.01581 =
         0.01933    0.00826    0.00596    0.00558
AFIX  43
H3    2   -0.342517    0.268408    0.957852    11.00000   -1.20000
AFIX   0
C4    1    0.185985    0.788249    0.765112    11.00000    0.01507    0.01493 =
         0.01550    0.00723    0.00320    0.00648
C5    1    0.535420    0.789493    0.722447    11.00000    0.01864    0.02634 =
         0.03106    0.01317    0.01006    0.01197
AFIX 137
H5A   2    0.552769    0.768779    0.612232    11.00000   -1.50000
H5B   2    0.614641    0.739377    0.774341    11.00000   -1.50000
H5C   2    0.591101    0.924456    0.792631    11.00000   -1.50000
AFIX   0
C6    1    0.213589    0.486074    0.639281    11.00000    0.02815    0.01794 =
         0.02287    0.00876    0.00921    0.01190
AFIX 137
H6A   2    0.277916    0.454777    0.721143    11.00000   -1.50000
H6B   2    0.244031    0.433784    0.534834    11.00000   -1.50000
H6C   2    0.058265    0.432836    0.618625    11.00000   -1.50000
AFIX   0
C7    1    0.283916    0.970433    0.597148    11.00000    0.02434    0.02405 =
         0.02182    0.01473    0.01057    0.01135
AFIX 137
H7A   2    0.302699    0.861249    0.530371    11.00000   -1.50000
H7B   2    0.415033    1.085574    0.629510    11.00000   -1.50000
H7C   2    0.163812    0.973468    0.531265    11.00000   -1.50000
AFIX   0
C8    1    0.147766    1.083027    0.833263    11.00000    0.02290    0.02053 =
         0.02528    0.01321    0.01078    0.01251
AFIX 137
H8A   2    0.004425    1.041482    0.761536    11.00000   -1.50000
H8B   2    0.240586    1.211837    0.854509    11.00000   -1.50000
H8C   2    0.138250    1.079040    0.939240    11.00000   -1.50000
AFIX   0
HKLF    4

REM  juh014 in P-1
REM R1 =  0.0463 for    1800 Fo > 4sig(Fo)  and  0.0728 for all    2451 data
REM    104 parameters refined using      0 restraints

END

WGHT      0.0574      0.1224

REM Highest difference peak  0.268,  deepest hole -0.272,  1-sigma level  0.053
Q1    1  -0.0699  0.5265  0.8714  11.00000  0.05    0.27
Q2    1  -0.1858  0.4574  0.9611  11.00000  0.05    0.24
Q3    1  -0.0779  0.5756  0.9406  11.00000  0.05    0.24
Q4    1   0.1013  0.5834  0.9461  11.00000  0.05    0.23
Q5    1   0.2463  0.7389  0.7303  11.00000  0.05    0.22
Q6    1   0.4033  0.7386  0.7188  11.00000  0.05    0.21
Q7    1   0.2150  0.8819  0.7577  11.00000  0.05    0.21
Q8    1   0.0253  0.6749  0.8794  11.00000  0.05    0.20
Q9    1  -0.0522  0.7807  0.8590  11.00000  0.05    0.18
Q10   1   0.4199  1.1619  0.6422  11.00000  0.05    0.18
Q11   1   0.3087  0.7399  0.8209  11.00000  0.05    0.17
Q12   1   0.3401  0.4405  0.6779  11.00000  0.05    0.16
Q13   1   0.5213  0.6810  0.5637  11.00000  0.05    0.16
Q14   1   0.3952  0.8469  0.5184  11.00000  0.05    0.16
Q15   1   0.2296  0.5358  0.4861  11.00000  0.05    0.15
Q16   1   0.1472  0.7836  0.8206  11.00000  0.05    0.15
Q17   1   0.2034  1.0132  0.7881  11.00000  0.05    0.15
Q18   1   0.3429  0.6004  0.4457  11.00000  0.05    0.15
Q19   1   0.2323  1.0608  0.5811  11.00000  0.05    0.15
Q20   1  -0.0704  0.6620  0.7204  11.00000  0.05    0.15
;
_shelx_res_checksum              2175
loop_
_space_group_symop_operation_xyz
'x, y, z'
'-x, -y, -z'
loop_
_atom_site_label
_atom_site_type_symbol
_atom_site_fract_x
_atom_site_fract_y
_atom_site_fract_z
_atom_site_U_iso_or_equiv
_atom_site_adp_type
_atom_site_occupancy
_atom_site_site_symmetry_order
_atom_site_calc_flag
_atom_site_refinement_flags_posn
_atom_site_refinement_flags_adp
N1 N 0.03046(16) 0.73351(15) 0.82948(13) 0.0166(2) Uani 1 1 d . .
N2 N 0.30490(17) 0.69239(15) 0.70448(14) 0.0182(2) Uani 1 1 d . .
N3 N 0.23876(17) 0.95681(15) 0.74915(13) 0.0166(2) Uani 1 1 d . .
C1 C 0.02129(19) 0.61423(17) 0.91039(15) 0.0150(3) Uani 1 1 d . .
C2 C -0.18281(19) 0.47351(17) 0.88918(16) 0.0166(3) Uani 1 1 d . .
H2 H -0.3072 0.4547 0.8151 0.020 Uiso 1 1 calc R U
C3 C -0.20455(19) 0.36123(17) 0.97567(15) 0.0167(3) Uani 1 1 d . .
H3 H -0.3425 0.2684 0.9579 0.020 Uiso 1 1 calc R U
C4 C 0.18599(19) 0.78825(17) 0.76511(15) 0.0153(2) Uani 1 1 d . .
C5 C 0.5354(2) 0.7895(2) 0.72245(19) 0.0243(3) Uani 1 1 d . .
H5A H 0.5528 0.7688 0.6122 0.036 Uiso 1 1 calc R U
H5B H 0.6146 0.7394 0.7743 0.036 Uiso 1 1 calc R U
H5C H 0.5911 0.9245 0.7926 0.036 Uiso 1 1 calc R U
C6 C 0.2136(2) 0.48607(18) 0.63928(17) 0.0224(3) Uani 1 1 d . .
H6A H 0.2779 0.4548 0.7211 0.034 Uiso 1 1 calc R U
H6B H 0.2440 0.4338 0.5348 0.034 Uiso 1 1 calc R U
H6C H 0.0583 0.4328 0.6186 0.034 Uiso 1 1 calc R U
C7 C 0.2839(2) 0.97043(19) 0.59715(17) 0.0214(3) Uani 1 1 d . .
H7A H 0.3027 0.8612 0.5304 0.032 Uiso 1 1 calc R U
H7B H 0.4150 1.0856 0.6295 0.032 Uiso 1 1 calc R U
H7C H 0.1638 0.9735 0.5313 0.032 Uiso 1 1 calc R U
C8 C 0.1478(2) 1.08303(19) 0.83326(17) 0.0206(3) Uani 1 1 d . .
H8A H 0.0044 1.0415 0.7615 0.031 Uiso 1 1 calc R U
H8B H 0.2406 1.2118 0.8545 0.031 Uiso 1 1 calc R U
H8C H 0.1383 1.0790 0.9392 0.031 Uiso 1 1 calc R U
loop_
_atom_site_aniso_label
_atom_site_aniso_U_11
_atom_site_aniso_U_22
_atom_site_aniso_U_33
_atom_site_aniso_U_23
_atom_site_aniso_U_13
_atom_site_aniso_U_12
N1 0.0167(5) 0.0175(5) 0.0197(5) 0.0116(4) 0.0065(4) 0.0081(4)
N2 0.0179(5) 0.0171(5) 0.0223(5) 0.0096(4) 0.0094(4) 0.0088(4)
N3 0.0190(5) 0.0178(5) 0.0196(5) 0.0119(4) 0.0094(4) 0.0100(4)
C1 0.0175(6) 0.0145(5) 0.0165(5) 0.0081(5) 0.0075(5) 0.0085(5)
C2 0.0151(6) 0.0170(6) 0.0183(6) 0.0087(5) 0.0043(5) 0.0073(5)
C3 0.0144(6) 0.0158(6) 0.0193(6) 0.0083(5) 0.0060(5) 0.0056(4)
C4 0.0151(5) 0.0149(5) 0.0155(5) 0.0072(4) 0.0032(4) 0.0065(4)
C5 0.0186(6) 0.0263(7) 0.0311(7) 0.0132(6) 0.0101(6) 0.0120(5)
C6 0.0282(7) 0.0179(6) 0.0229(6) 0.0088(5) 0.0092(5) 0.0119(5)
C7 0.0243(6) 0.0240(7) 0.0218(6) 0.0147(5) 0.0106(5) 0.0113(5)
C8 0.0229(6) 0.0205(6) 0.0253(6) 0.0132(5) 0.0108(5) 0.0125(5)
loop_
_atom_type_symbol
_atom_type_description
_atom_type_scat_dispersion_real
_atom_type_scat_dispersion_imag
_atom_type_scat_source
C C 0.0033 0.0016 'International Tables Vol C Tables 4.2.6.8 and 6.1.1.4'
H H 0.0000 0.0000 'International Tables Vol C Tables 4.2.6.8 and 6.1.1.4'
N N 0.0061 0.0033 'International Tables Vol C Tables 4.2.6.8 and 6.1.1.4'
loop_
_geom_angle_atom_site_label_1
_geom_angle_atom_site_label_2
_geom_angle_atom_site_label_3
_geom_angle
_geom_angle_site_symmetry_1
_geom_angle_site_symmetry_3
C4 N1 C1 121.63(11) . .
C4 N2 C6 121.04(11) . .
C4 N2 C5 123.22(11) . .
C6 N2 C5 115.21(11) . .
C4 N3 C7 121.18(11) . .
C4 N3 C8 118.60(10) . .
C7 N3 C8 113.50(10) . .
C2 C1 C3 117.22(11) . 2_567
C2 C1 N1 118.98(11) . .
C3 C1 N1 123.56(11) 2_567 .
C3 C2 C1 121.81(11) . .
C3 C2 H2 119.1 . .
C1 C2 H2 119.1 . .
C2 C3 C1 120.97(11) . 2_567
C2 C3 H3 119.5 . .
C1 C3 H3 119.5 2_567 .
N1 C4 N2 126.69(11) . .
N1 C4 N3 118.59(11) . .
N2 C4 N3 114.69(11) . .
N2 C5 H5A 109.5 . .
N2 C5 H5B 109.5 . .
H5A C5 H5B 109.5 . .
N2 C5 H5C 109.5 . .
H5A C5 H5C 109.5 . .
H5B C5 H5C 109.5 . .
N2 C6 H6A 109.5 . .
N2 C6 H6B 109.5 . .
H6A C6 H6B 109.5 . .
N2 C6 H6C 109.5 . .
H6A C6 H6C 109.5 . .
H6B C6 H6C 109.5 . .
N3 C7 H7A 109.5 . .
N3 C7 H7B 109.5 . .
H7A C7 H7B 109.5 . .
N3 C7 H7C 109.5 . .
H7A C7 H7C 109.5 . .
H7B C7 H7C 109.5 . .
N3 C8 H8A 109.5 . .
N3 C8 H8B 109.5 . .
H8A C8 H8B 109.5 . .
N3 C8 H8C 109.5 . .
H8A C8 H8C 109.5 . .
H8B C8 H8C 109.5 . .
loop_
_geom_bond_atom_site_label_1
_geom_bond_atom_site_label_2
_geom_bond_distance
_geom_bond_site_symmetry_2
N1 C4 1.2975(16) .
N1 C1 1.4087(15) .
N2 C4 1.3794(16) .
N2 C6 1.4476(17) .
N2 C5 1.4535(17) .
N3 C4 1.3843(16) .
N3 C7 1.4549(16) .
N3 C8 1.4550(16) .
C1 C2 1.4006(17) .
C1 C3 1.4040(18) 2_567
C2 C3 1.3886(17) .
C2 H2 0.9300 .
C3 C1 1.4040(18) 2_567
C3 H3 0.9300 .
C5 H5A 0.9600 .
C5 H5B 0.9600 .
C5 H5C 0.9600 .
C6 H6A 0.9600 .
C6 H6B 0.9600 .
C6 H6C 0.9600 .
C7 H7A 0.9600 .
C7 H7B 0.9600 .
C7 H7C 0.9600 .
C8 H8A 0.9600 .
C8 H8B 0.9600 .
C8 H8C 0.9600 .
loop_
_geom_torsion_atom_site_label_1
_geom_torsion_atom_site_label_2
_geom_torsion_atom_site_label_3
_geom_torsion_atom_site_label_4
_geom_torsion
_geom_torsion_site_symmetry_1
_geom_torsion_site_symmetry_4
C4 N1 C1 C2 -142.75(12) . .
C4 N1 C1 C3 43.10(18) . 2_567
C3 C1 C2 C3 -0.5(2) 2_567 .
N1 C1 C2 C3 -175.00(11) . .
C1 C2 C3 C1 0.5(2) . 2_567
C1 N1 C4 N2 27.10(19) . .
C1 N1 C4 N3 -154.84(11) . .
C6 N2 C4 N1 26.74(19) . .
C5 N2 C4 N1 -144.50(13) . .
C6 N2 C4 N3 -151.38(11) . .
C5 N2 C4 N3 37.38(16) . .
C7 N3 C4 N1 -138.06(13) . .
C8 N3 C4 N1 11.35(17) . .
C7 N3 C4 N2 40.22(16) . .
C8 N3 C4 N2 -170.37(10) . .
