#------------------------------------------------------------------------------
#$Date: 2016-05-27 09:26:30 +0300 (Fri, 27 May 2016) $
#$Revision: 183095 $
#$URL: svn://www.crystallography.net/cod/cif/7/22/53/7225343.cif $
#------------------------------------------------------------------------------
#
# This file is available in the Crystallography Open Database (COD),
# http://www.crystallography.net/
#
# All data on this site have been placed in the public domain by the
# contributors.
#
data_7225343
loop_
_publ_author_name
'Xue, Pengchong'
'Wang, Panpan'
'Chen, Peng'
'Ding, Jipeng'
'Lu, Ran'
_publ_section_title
;
 Enhanced room-temperature phosphorescence of triphenylphosphine
 derivatives without metal and heavy atoms in their crystal phase
;
_journal_issue                   57
_journal_name_full               'RSC Adv.'
_journal_page_first              51683
_journal_paper_doi               10.1039/C6RA07477D
_journal_volume                  6
_journal_year                    2016
_chemical_formula_sum            'C20 H17 O P'
_chemical_formula_weight         304.30
_space_group_crystal_system      triclinic
_space_group_IT_number           2
_space_group_name_Hall           '-P 1'
_space_group_name_H-M_alt        'P -1'
_symmetry_space_group_name_Hall  '-P 1'
_symmetry_space_group_name_H-M   'P -1'
_atom_sites_solution_hydrogens   geom
_audit_creation_method           SHELXL-2014/7
_audit_update_record
;
2016-01-12 deposited with the CCDC.
2016-05-23 downloaded from the CCDC.
;
_cell_angle_alpha                114.517(16)
_cell_angle_beta                 99.585(14)
_cell_angle_gamma                90.156(13)
_cell_formula_units_Z            2
_cell_length_a                   8.5525(14)
_cell_length_b                   10.3525(17)
_cell_length_c                   10.5874(17)
_cell_measurement_reflns_used    1757
_cell_measurement_temperature    293(2)
_cell_measurement_theta_max      29.3081
_cell_measurement_theta_min      3.1869
_cell_volume                     838.3(3)
_computing_cell_refinement       'CrysAlis PRO (Agilent, 2011)'
_computing_data_collection       'CrysAlis PRO (Agilent, 2011)'
_computing_data_reduction        'CrysAlis PRO (Agilent, 2011)'
_computing_molecular_graphics    'Bruker SHELXTL'
_computing_publication_material  'Bruker SHELXTL'
_computing_structure_refinement  'SHELXL-2014/7 (Sheldrick, 2014)'
_computing_structure_solution    'SHELXL-2014/7 (Sheldrick, 2014)'
_diffrn_ambient_temperature      293
_diffrn_detector_area_resol_mean 16.1954
_diffrn_measured_fraction_theta_full 0.993
_diffrn_measured_fraction_theta_max 0.990
_diffrn_measurement_device_type  'Xcalibur, Eos'
_diffrn_measurement_method       'phi and omega scans'
_diffrn_radiation_monochromator  graphite
_diffrn_radiation_source         'Enhance (Mo) X-ray Source'
_diffrn_radiation_type           MoK\a
_diffrn_radiation_wavelength     0.71073
_diffrn_reflns_av_R_equivalents  0.0283
_diffrn_reflns_av_unetI/netI     0.0476
_diffrn_reflns_Laue_measured_fraction_full 0.993
_diffrn_reflns_Laue_measured_fraction_max 0.990
_diffrn_reflns_limit_h_max       10
_diffrn_reflns_limit_h_min       -10
_diffrn_reflns_limit_k_max       12
_diffrn_reflns_limit_k_min       -12
_diffrn_reflns_limit_l_max       13
_diffrn_reflns_limit_l_min       -13
_diffrn_reflns_number            7088
_diffrn_reflns_point_group_measured_fraction_full 0.993
_diffrn_reflns_point_group_measured_fraction_max 0.990
_diffrn_reflns_theta_full        25.242
_diffrn_reflns_theta_max         26.371
_diffrn_reflns_theta_min         3.193
_exptl_absorpt_coefficient_mu    0.163
_exptl_absorpt_correction_T_max  0.976
_exptl_absorpt_correction_T_min  0.971
_exptl_absorpt_correction_type   multi-scan
_exptl_absorpt_process_details
;
CrysAlisPro, Agilent Technologies,
Version 1.171.35.21 (release 20-01-2012 CrysAlis171 .NET)
(compiled Jan 23 2012,18:06:46)
Empirical absorption correction using spherical harmonics,
 implemented in SCALE3 ABSPACK scaling algorithm.
;
_exptl_crystal_colour            colorless
_exptl_crystal_density_diffrn    1.206
_exptl_crystal_description       block
_exptl_crystal_F_000             320
_exptl_crystal_size_max          0.18
_exptl_crystal_size_mid          0.17
_exptl_crystal_size_min          0.15
_refine_diff_density_max         0.302
_refine_diff_density_min         -0.247
_refine_diff_density_rms         0.046
_refine_ls_extinction_method     none
_refine_ls_goodness_of_fit_ref   1.030
_refine_ls_hydrogen_treatment    constr
_refine_ls_matrix_type           full
_refine_ls_number_parameters     199
_refine_ls_number_reflns         3389
_refine_ls_number_restraints     0
_refine_ls_restrained_S_all      1.030
_refine_ls_R_factor_all          0.0720
_refine_ls_R_factor_gt           0.0516
_refine_ls_shift/su_max          0.004
_refine_ls_shift/su_mean         0.001
_refine_ls_structure_factor_coef Fsqd
_refine_ls_weighting_details
'w=1/[\s^2^(Fo^2^)+(0.0662P)^2^+0.1700P] where P=(Fo^2^+2Fc^2^)/3'
_refine_ls_weighting_scheme      calc
_refine_ls_wR_factor_gt          0.1302
_refine_ls_wR_factor_ref         0.1460
_reflns_Friedel_coverage         0.000
_reflns_number_gt                2521
_reflns_number_total             3389
_reflns_threshold_expression     'I > 2\s(I)'
_cod_data_source_file            c6ra07477d2.cif
_cod_data_source_block           c
_cod_database_code               7225343
_shelx_shelxl_version_number     2014/7
_shelx_space_group_comment
;
The symmetry employed for this shelxl refinement is uniquely defined
by the following loop, which should always be used as a source of
symmetry information in preference to the above space-group names.
They are only intended as comments.
;
_shelx_res_file
;

    c.res created by SHELXL-2014/7


TITL                     New: P-1
CELL  0.71073    8.5525   10.3525   10.5874   114.517    99.585    90.156
ZERR        2    0.0014    0.0017    0.0017     0.016     0.014     0.013
LATT   1
SFAC  C  H  O  P
UNIT   40 34  2 2
L.S. 5
FMAP 2
PLAN -4
ACTA
BOND $H

WGHT    0.066200    0.170000
FVAR       0.98311
P1    4    0.084799    0.252029    0.164397    11.00000    0.04795    0.04552 =
         0.03805    0.01666    0.01059    0.01080
O1    3    0.362280    0.025717    0.667585    11.00000    0.07983    0.11244 =
         0.07599    0.06120    0.01173    0.02932
C1    1    0.150027    0.135705    0.778473    11.00000    0.10606    0.09412 =
         0.04902    0.03761    0.01782    0.01501
AFIX  33
H1A   2    0.063445    0.186817    0.757638    11.00000   -1.50000
H1B   2    0.108719    0.052547    0.784514    11.00000   -1.50000
H1C   2    0.216097    0.195878    0.866889    11.00000   -1.50000
AFIX   0
C2    1    0.246868    0.091642    0.663147    11.00000    0.06092    0.05670 =
         0.04763    0.02292    0.00082   -0.00129
C4    1    0.199385    0.132819    0.543342    11.00000    0.04811    0.04203 =
         0.03815    0.01568    0.00272   -0.00026
C5    1    0.298484    0.105553    0.444503    11.00000    0.04266    0.05119 =
         0.05026    0.02297    0.00677    0.01041
AFIX  43
H5A   2    0.391874    0.061962    0.454095    11.00000   -1.20000
AFIX   0
C6    1    0.259795    0.142343    0.332994    11.00000    0.04476    0.05243 =
         0.04636    0.02099    0.01573    0.01028
AFIX  43
H6A   2    0.327241    0.122951    0.267988    11.00000   -1.20000
AFIX   0
C7    1    0.121823    0.207861    0.316116    11.00000    0.04039    0.03690 =
         0.04066    0.01342    0.00815    0.00411
C8    1    0.021821    0.233316    0.414143    11.00000    0.04675    0.05798 =
         0.05055    0.02550    0.01750    0.01996
AFIX  43
H8A   2   -0.072464    0.275483    0.403819    11.00000   -1.20000
AFIX   0
C3    1    0.061028    0.196735    0.526169    11.00000    0.05307    0.05816 =
         0.04496    0.02080    0.01861    0.01183
AFIX  43
H3A   2   -0.006645    0.215391    0.590906    11.00000   -1.20000
AFIX   0
C10   1   -0.450755    0.303091    0.096391    11.00000    0.04645    0.13833 =
         0.10405    0.05837    0.01089    0.00989
AFIX  43
H10A  2   -0.559846    0.310626    0.079554    11.00000   -1.20000
AFIX   0
C11   1   -0.390088    0.178392    0.025270    11.00000    0.05585    0.09569 =
         0.09802    0.04602   -0.00450   -0.01310
AFIX  43
H11A  2   -0.457706    0.100443   -0.040031    11.00000   -1.20000
AFIX   0
C12   1   -0.229371    0.166388    0.049011    11.00000    0.06162    0.05622 =
         0.06397    0.02762    0.00172   -0.00114
AFIX  43
H12A  2   -0.188951    0.080226   -0.000720    11.00000   -1.20000
AFIX   0
C13   1   -0.126508    0.280766    0.145980    11.00000    0.05062    0.04945 =
         0.03923    0.02091    0.00730    0.00795
C14   1   -0.189883    0.407357    0.217840    11.00000    0.05819    0.06375 =
         0.06451    0.01221    0.01226    0.01623
AFIX  43
H14A  2   -0.122975    0.485744    0.283292    11.00000   -1.20000
AFIX   0
C9    1   -0.351907    0.418546    0.193315    11.00000    0.06677    0.10608 =
         0.09563    0.03300    0.02888    0.04226
AFIX  43
H9A   2   -0.393929    0.504070    0.242332    11.00000   -1.20000
AFIX   0
C16   1    0.326895    0.702619    0.326055    11.00000    0.06575    0.05308 =
         0.11848    0.03826    0.02132    0.00116
AFIX  43
H16A  2    0.377115    0.792793    0.355476    11.00000   -1.20000
AFIX   0
C17   1    0.333969    0.640450    0.418499    11.00000    0.05716    0.06166 =
         0.07563    0.01782    0.00491   -0.00515
AFIX  43
H17A  2    0.389345    0.688516    0.510595    11.00000   -1.20000
AFIX   0
C18   1    0.259172    0.506679    0.375421    11.00000    0.05323    0.05547 =
         0.05455    0.02192    0.01036    0.00208
AFIX  43
H18A  2    0.263808    0.465753    0.439157    11.00000   -1.20000
AFIX   0
C19   1    0.177639    0.433119    0.238801    11.00000    0.03974    0.04958 =
         0.04725    0.02076    0.01382    0.01092
C20   1    0.173004    0.498390    0.146933    11.00000    0.06840    0.06070 =
         0.06324    0.03556    0.01275    0.01138
AFIX  43
H20A  2    0.119411    0.450485    0.054192    11.00000   -1.20000
AFIX   0
C15   1    0.245681    0.631663    0.190184    11.00000    0.07855    0.07074 =
         0.09938    0.05516    0.02123    0.01122
AFIX  43
H15A  2    0.239941    0.673936    0.127488    11.00000   -1.20000

AFIX   0
HKLF 4

REM                      New: P-1
REM R1 =  0.0516 for    2521 Fo > 4sig(Fo)  and  0.0720 for all    3389 data
REM    199 parameters refined using      0 restraints

END

WGHT      0.0623      0.1785

REM Highest difference peak  0.302,  deepest hole -0.247,  1-sigma level  0.046
Q1    1   0.1990  0.0963  0.8474  11.00000  0.05    0.30
Q2    1   0.0166  0.0911  0.7396  11.00000  0.05    0.29
Q3    1   0.1590  0.2504  0.8235  11.00000  0.05    0.29
Q4    1   0.1415  0.1829  0.0726  11.00000  0.05    0.26
;
_shelx_res_checksum              83013
loop_
_space_group_symop_operation_xyz
'x, y, z'
'-x, -y, -z'
loop_
_atom_site_label
_atom_site_type_symbol
_atom_site_fract_x
_atom_site_fract_y
_atom_site_fract_z
_atom_site_U_iso_or_equiv
_atom_site_adp_type
_atom_site_occupancy
_atom_site_site_symmetry_order
_atom_site_calc_flag
_atom_site_refinement_flags_posn
_atom_site_refinement_flags_adp
P1 P 0.08480(7) 0.25203(6) 0.16440(6) 0.0438(2) Uani 1 1 d . .
O1 O 0.3623(2) 0.0257(2) 0.6676(2) 0.0824(6) Uani 1 1 d . .
C1 C 0.1500(4) 0.1357(3) 0.7785(3) 0.0801(9) Uani 1 1 d . .
H1A H 0.0634 0.1868 0.7576 0.120 Uiso 1 1 calc R U
H1B H 0.1087 0.0525 0.7845 0.120 Uiso 1 1 calc R U
H1C H 0.2161 0.1959 0.8669 0.120 Uiso 1 1 calc R U
C2 C 0.2469(3) 0.0916(3) 0.6631(3) 0.0559(6) Uani 1 1 d . .
C4 C 0.1994(3) 0.1328(2) 0.5433(2) 0.0438(5) Uani 1 1 d . .
C5 C 0.2985(3) 0.1056(2) 0.4445(2) 0.0477(5) Uani 1 1 d . .
H5A H 0.3919 0.0620 0.4541 0.057 Uiso 1 1 calc R U
C6 C 0.2598(3) 0.1423(2) 0.3330(2) 0.0469(5) Uani 1 1 d . .
H6A H 0.3272 0.1230 0.2680 0.056 Uiso 1 1 calc R U
C7 C 0.1218(2) 0.2079(2) 0.3161(2) 0.0402(5) Uani 1 1 d . .
C8 C 0.0218(3) 0.2333(3) 0.4141(2) 0.0498(6) Uani 1 1 d . .
H8A H -0.0725 0.2755 0.4038 0.060 Uiso 1 1 calc R U
C3 C 0.0610(3) 0.1967(3) 0.5262(2) 0.0512(6) Uani 1 1 d . .
H3A H -0.0066 0.2154 0.5909 0.061 Uiso 1 1 calc R U
C10 C -0.4508(4) 0.3031(5) 0.0964(4) 0.0942(11) Uani 1 1 d . .
H10A H -0.5598 0.3106 0.0796 0.113 Uiso 1 1 calc R U
C11 C -0.3901(4) 0.1784(4) 0.0253(4) 0.0838(9) Uani 1 1 d . .
H11A H -0.4577 0.1004 -0.0400 0.101 Uiso 1 1 calc R U
C12 C -0.2294(3) 0.1664(3) 0.0490(3) 0.0611(7) Uani 1 1 d . .
H12A H -0.1890 0.0802 -0.0007 0.073 Uiso 1 1 calc R U
C13 C -0.1265(3) 0.2808(2) 0.1460(2) 0.0458(5) Uani 1 1 d . .
C14 C -0.1899(3) 0.4074(3) 0.2178(3) 0.0671(7) Uani 1 1 d . .
H14A H -0.1230 0.4857 0.2833 0.080 Uiso 1 1 calc R U
C9 C -0.3519(4) 0.4185(4) 0.1933(4) 0.0909(10) Uani 1 1 d . .
H9A H -0.3939 0.5041 0.2423 0.109 Uiso 1 1 calc R U
C16 C 0.3269(4) 0.7026(3) 0.3261(4) 0.0778(9) Uani 1 1 d . .
H16A H 0.3771 0.7928 0.3555 0.093 Uiso 1 1 calc R U
C17 C 0.3340(3) 0.6405(3) 0.4185(3) 0.0696(8) Uani 1 1 d . .
H17A H 0.3893 0.6885 0.5106 0.083 Uiso 1 1 calc R U
C18 C 0.2592(3) 0.5067(3) 0.3754(3) 0.0548(6) Uani 1 1 d . .
H18A H 0.2638 0.4658 0.4392 0.066 Uiso 1 1 calc R U
C19 C 0.1776(3) 0.4331(2) 0.2388(2) 0.0447(5) Uani 1 1 d . .
C20 C 0.1730(3) 0.4984(3) 0.1469(3) 0.0608(7) Uani 1 1 d . .
H20A H 0.1194 0.4505 0.0542 0.073 Uiso 1 1 calc R U
C15 C 0.2457(4) 0.6317(3) 0.1902(4) 0.0757(8) Uani 1 1 d . .
H15A H 0.2399 0.6739 0.1275 0.091 Uiso 1 1 calc R U
loop_
_atom_site_aniso_label
_atom_site_aniso_U_11
_atom_site_aniso_U_22
_atom_site_aniso_U_33
_atom_site_aniso_U_23
_atom_site_aniso_U_13
_atom_site_aniso_U_12
P1 0.0479(4) 0.0455(4) 0.0381(4) 0.0167(3) 0.0106(2) 0.0108(3)
O1 0.0798(14) 0.1124(17) 0.0760(14) 0.0612(13) 0.0117(11) 0.0293(12)
C1 0.106(2) 0.094(2) 0.0490(17) 0.0376(16) 0.0178(16) 0.0150(18)
C2 0.0609(16) 0.0567(15) 0.0476(14) 0.0229(12) 0.0008(12) -0.0013(12)
C4 0.0481(13) 0.0420(12) 0.0382(12) 0.0157(10) 0.0027(10) -0.0003(10)
C5 0.0427(12) 0.0512(14) 0.0503(14) 0.0230(11) 0.0068(10) 0.0104(10)
C6 0.0448(12) 0.0524(14) 0.0464(13) 0.0210(11) 0.0157(10) 0.0103(10)
C7 0.0404(11) 0.0369(11) 0.0407(12) 0.0134(9) 0.0081(9) 0.0041(9)
C8 0.0468(13) 0.0580(15) 0.0506(14) 0.0255(12) 0.0175(10) 0.0200(11)
C3 0.0531(14) 0.0582(15) 0.0450(13) 0.0208(11) 0.0186(11) 0.0118(11)
C10 0.0464(17) 0.138(3) 0.104(3) 0.058(3) 0.0109(17) 0.010(2)
C11 0.0558(18) 0.096(2) 0.098(2) 0.046(2) -0.0045(17) -0.0131(17)
C12 0.0616(16) 0.0562(16) 0.0640(17) 0.0276(13) 0.0017(13) -0.0011(13)
C13 0.0506(13) 0.0495(13) 0.0392(12) 0.0209(10) 0.0073(10) 0.0080(10)
C14 0.0582(16) 0.0638(17) 0.0645(17) 0.0122(14) 0.0123(13) 0.0162(13)
C9 0.067(2) 0.106(3) 0.096(2) 0.033(2) 0.0289(18) 0.0423(19)
C16 0.0657(18) 0.0531(17) 0.118(3) 0.0383(19) 0.0213(18) 0.0012(14)
C17 0.0572(16) 0.0617(18) 0.0756(19) 0.0178(15) 0.0049(14) -0.0052(13)
C18 0.0532(14) 0.0555(15) 0.0545(15) 0.0219(12) 0.0104(11) 0.0021(11)
C19 0.0397(12) 0.0496(13) 0.0472(13) 0.0208(11) 0.0138(10) 0.0109(10)
C20 0.0684(17) 0.0607(16) 0.0632(17) 0.0356(14) 0.0127(13) 0.0114(13)
C15 0.079(2) 0.071(2) 0.099(2) 0.0552(19) 0.0212(18) 0.0112(16)
loop_
_atom_type_symbol
_atom_type_description
_atom_type_scat_dispersion_real
_atom_type_scat_dispersion_imag
_atom_type_scat_source
C C 0.0033 0.0016 'International Tables Vol C Tables 4.2.6.8 and 6.1.1.4'
H H 0.0000 0.0000 'International Tables Vol C Tables 4.2.6.8 and 6.1.1.4'
O O 0.0106 0.0060 'International Tables Vol C Tables 4.2.6.8 and 6.1.1.4'
P P 0.1023 0.0942 'International Tables Vol C Tables 4.2.6.8 and 6.1.1.4'
loop_
_geom_angle_atom_site_label_1
_geom_angle_atom_site_label_2
_geom_angle_atom_site_label_3
_geom_angle
C13 P1 C19 102.24(10)
C13 P1 C7 103.30(10)
C19 P1 C7 102.06(10)
C2 C1 H1A 109.5
C2 C1 H1B 109.5
H1A C1 H1B 109.5
C2 C1 H1C 109.5
H1A C1 H1C 109.5
H1B C1 H1C 109.5
O1 C2 C4 120.3(2)
O1 C2 C1 120.9(2)
C4 C2 C1 118.9(2)
C3 C4 C5 118.4(2)
C3 C4 C2 122.7(2)
C5 C4 C2 118.9(2)
C6 C5 C4 120.8(2)
C6 C5 H5A 119.6
C4 C5 H5A 119.6
C5 C6 C7 121.0(2)
C5 C6 H6A 119.5
C7 C6 H6A 119.5
C6 C7 C8 118.1(2)
C6 C7 P1 116.65(16)
C8 C7 P1 125.24(16)
C3 C8 C7 120.9(2)
C3 C8 H8A 119.6
C7 C8 H8A 119.6
C8 C3 C4 120.8(2)
C8 C3 H3A 119.6
C4 C3 H3A 119.6
C11 C10 C9 120.2(3)
C11 C10 H10A 119.9
C9 C10 H10A 119.9
C10 C11 C12 120.3(3)
C10 C11 H11A 119.8
C12 C11 H11A 119.8
C11 C12 C13 120.9(3)
C11 C12 H12A 119.6
C13 C12 H12A 119.6
C14 C13 C12 118.3(2)
C14 C13 P1 125.2(2)
C12 C13 P1 116.50(18)
C9 C14 C13 120.5(3)
C9 C14 H14A 119.7
C13 C14 H14A 119.7
C10 C9 C14 119.8(3)
C10 C9 H9A 120.1
C14 C9 H9A 120.1
C17 C16 C15 119.9(3)
C17 C16 H16A 120.1
C15 C16 H16A 120.1
C16 C17 C18 120.3(3)
C16 C17 H17A 119.9
C18 C17 H17A 119.9
C19 C18 C17 120.7(3)
C19 C18 H18A 119.6
C17 C18 H18A 119.6
C18 C19 C20 117.8(2)
C18 C19 P1 125.43(19)
C20 C19 P1 116.63(19)
C15 C20 C19 121.4(3)
C15 C20 H20A 119.3
C19 C20 H20A 119.3
C20 C15 C16 119.9(3)
C20 C15 H15A 120.1
C16 C15 H15A 120.1
loop_
_geom_bond_atom_site_label_1
_geom_bond_atom_site_label_2
_geom_bond_distance
P1 C13 1.824(2)
P1 C19 1.823(2)
P1 C7 1.825(2)
O1 C2 1.207(3)
C1 C2 1.504(4)
C1 H1A 0.9600
C1 H1B 0.9600
C1 H1C 0.9600
C2 C4 1.495(3)
C4 C3 1.380(3)
C4 C5 1.394(3)
C5 C6 1.376(3)
C5 H5A 0.9300
C6 C7 1.385(3)
C6 H6A 0.9300
C7 C8 1.396(3)
C8 C3 1.380(3)
C8 H8A 0.9300
C3 H3A 0.9300
C10 C11 1.353(5)
C10 C9 1.373(5)
C10 H10A 0.9300
C11 C12 1.371(4)
C11 H11A 0.9300
C12 C13 1.384(3)
C12 H12A 0.9300
C13 C14 1.380(3)
C14 C9 1.381(4)
C14 H14A 0.9300
C9 H9A 0.9300
C16 C17 1.371(4)
C16 C15 1.371(4)
C16 H16A 0.9300
C17 C18 1.382(4)
C17 H17A 0.9300
C18 C19 1.380(3)
C18 H18A 0.9300
C19 C20 1.392(3)
C20 C15 1.370(4)
C20 H20A 0.9300
C15 H15A 0.9300
