#------------------------------------------------------------------------------
#$Date: 2016-08-07 11:18:58 +0300 (Sun, 07 Aug 2016) $
#$Revision: 185209 $
#$URL: file:///home/coder/svn-repositories/cod/cif/7/22/51/7225157.cif $
#------------------------------------------------------------------------------
#
# This file is available in the Crystallography Open Database (COD),
# http://www.crystallography.net/
#
# All data on this site have been placed in the public domain by the
# contributors.
#
data_7225157
loop_
_publ_author_name
'Nauha, Elisa'
'Naumov, Pan\<ce'
'Lusi, Matteo'
_publ_section_title
;
 Fine-tuning of a thermosalient phase transition by solid solutions
;
_journal_issue                   25
_journal_name_full               CrystEngComm
_journal_page_first              4699
_journal_paper_doi               10.1039/C6CE00762G
_journal_volume                  18
_journal_year                    2016
_chemical_formula_sum            'C10 H8 Br1.37 Cl0.64 N2 Zn'
_chemical_formula_weight         353.14
_chemical_name_systematic
;
 ?
;
_space_group_crystal_system      triclinic
_space_group_IT_number           2
_space_group_name_Hall           '-P 1'
_space_group_name_H-M_alt        'P -1'
_symmetry_space_group_name_Hall  '-P 1'
_symmetry_space_group_name_H-M   'P -1'
_atom_sites_solution_hydrogens   geom
_audit_creation_method           SHELXL-2013
_audit_update_record
;
2016-03-18 deposited with the CCDC.
2016-05-09 downloaded from the CCDC.
;
_cell_angle_alpha                114.064(4)
_cell_angle_beta                 95.245(4)
_cell_angle_gamma                96.005(4)
_cell_formula_units_Z            2
_cell_length_a                   7.7335(13)
_cell_length_b                   8.9213(15)
_cell_length_c                   9.2304(16)
_cell_measurement_temperature    99(2)
_cell_volume                     571.96(17)
_computing_structure_refinement  'SHELXL-2013 (Sheldrick, 2013)'
_diffrn_ambient_temperature      99(2)
_diffrn_measured_fraction_theta_full 1.000
_diffrn_measured_fraction_theta_max 0.992
_diffrn_radiation_type           MoK\a
_diffrn_radiation_wavelength     0.71073
_diffrn_reflns_av_unetI/netI     0.0848
_diffrn_reflns_Laue_measured_fraction_full 1.000
_diffrn_reflns_Laue_measured_fraction_max 0.992
_diffrn_reflns_limit_h_max       10
_diffrn_reflns_limit_h_min       -11
_diffrn_reflns_limit_k_max       11
_diffrn_reflns_limit_k_min       -12
_diffrn_reflns_limit_l_max       13
_diffrn_reflns_limit_l_min       0
_diffrn_reflns_number            3448
_diffrn_reflns_point_group_measured_fraction_full 1.000
_diffrn_reflns_point_group_measured_fraction_max 0.992
_diffrn_reflns_theta_full        25.242
_diffrn_reflns_theta_max         30.570
_diffrn_reflns_theta_min         2.443
_exptl_absorpt_coefficient_mu    7.028
_exptl_absorpt_correction_T_max  0.746069
_exptl_absorpt_correction_T_min  0.547137
_exptl_absorpt_correction_type   multi-scan
_exptl_absorpt_process_details   sadabs
_exptl_crystal_colour            colorless
_exptl_crystal_density_diffrn    2.051
_exptl_crystal_description       block
_exptl_crystal_F_000             341
_exptl_crystal_size_max          0.210
_exptl_crystal_size_mid          0.110
_exptl_crystal_size_min          0.080
_refine_diff_density_max         1.321
_refine_diff_density_min         -1.139
_refine_diff_density_rms         0.182
_refine_ls_extinction_method     none
_refine_ls_goodness_of_fit_ref   0.957
_refine_ls_hydrogen_treatment    constr
_refine_ls_matrix_type           full
_refine_ls_number_parameters     139
_refine_ls_number_reflns         3448
_refine_ls_number_restraints     0
_refine_ls_restrained_S_all      0.957
_refine_ls_R_factor_all          0.0522
_refine_ls_R_factor_gt           0.0350
_refine_ls_shift/su_max          0.000
_refine_ls_shift/su_mean         0.000
_refine_ls_structure_factor_coef Fsqd
_refine_ls_weighting_details
'w=1/[\s^2^(Fo^2^)+(0.0348P)^2^] where P=(Fo^2^+2Fc^2^)/3'
_refine_ls_weighting_scheme      calc
_refine_ls_wR_factor_gt          0.0785
_refine_ls_wR_factor_ref         0.0811
_reflns_Friedel_coverage         0.000
_reflns_number_gt                2545
_reflns_number_total             3448
_reflns_threshold_expression     'I > 2\s(I)'
_cod_data_source_file            c6ce00762g3.cif
_cod_data_source_block           1x70_100K_twin
_cod_depositor_comments
'Adding full bibliography for 7225150--7225163.cif.'
_cod_original_cell_volume        571.95(17)
_cod_database_code               7225157
_shelx_space_group_comment
;
The symmetry employed for this shelxl refinement is uniquely defined
by the following loop, which should always be used as a source of
symmetry information in preference to the above space-group names.
They are only intended as comments.
;
_shelx_estimated_absorpt_t_min   0.320
_shelx_estimated_absorpt_t_max   0.603
_shelxl_version_number           2013-4
_shelx_res_file
;
TITL ekn057_100K_twin in P-1
CELL 0.71073   7.73350   8.92130   9.23040 114.0644  95.2453  96.0049
ZERR    2.00   0.00130   0.00150   0.00160   0.0039   0.0038   0.0036
LATT  1
SFAC C H N CL ZN BR
UNIT 20 16 4 1.27 2 2.73
LIST 4
TEMP -174.230
SIZE 0.08 0.11 0.21
ACTA
CONF
L.S. 10
BOND $H
FMAP 2
PLAN 10
EXYZ Br3 Cl3
EADP Br3 Cl3
EXYZ Br2 Cl2
EADP Br2 Cl2
L.S. 10
WGHT    0.034800
BASF   0.76433
FVAR       0.64349   0.63784   0.72671
ZN1   5    0.768184    0.717516    0.822904    11.00000    0.01417    0.01470 =
         0.01987    0.01028    0.00650    0.00625
PART 1
BR2   6    0.529578    0.788427    0.707726    31.00000    0.01404    0.02253 =
         0.02424    0.01361    0.00474    0.00796
BR3   6    1.043307    0.825047    0.795266    21.00000    0.01331    0.01980 =
         0.02403    0.01426    0.00652    0.00456
PART 2
CL2   4    0.529578    0.788427    0.707726   -31.00000    0.01404    0.02253 =
         0.02424    0.01361    0.00474    0.00796
CL3   4    1.043307    0.825047    0.795266   -21.00000    0.01331    0.01980 =
         0.02403    0.01426    0.00652    0.00456
PART 0
N2    3    0.721685    0.698421    1.030422    11.00000    0.01000    0.01316 =
         0.02044    0.00759    0.00462    0.00381
N8    3    0.790445    0.470324    0.759023    11.00000    0.01022    0.01488 =
         0.01914    0.00724    0.00331    0.00437
C1    1    0.737530    0.549463    1.030467    11.00000    0.00841    0.01512 =
         0.01686    0.00732    0.00249    0.00182
C3    1    0.672101    0.816395    1.159675    11.00000    0.01085    0.01635 =
         0.02277    0.00386    0.00353    0.00105
AFIX  43
H3    2    0.658771    0.920780    1.159013    11.00000   -1.20000
AFIX   0
C4    1    0.640275    0.790058    1.292372    11.00000    0.01339    0.02229 =
         0.01921    0.00401    0.00565    0.00213
AFIX  43
H4    2    0.604442    0.874994    1.381248    11.00000   -1.20000
AFIX   0
C5    1    0.660833    0.638612    1.295640    11.00000    0.01589    0.03075 =
         0.01666    0.01164    0.00538    0.00036
AFIX  43
H5    2    0.641289    0.619158    1.387071    11.00000   -1.20000
AFIX   0
C6    1    0.710959    0.515095    1.161448    11.00000    0.01582    0.01916 =
         0.02065    0.01106    0.00358    0.00503
AFIX  43
H6    2    0.726434    0.410273    1.159999    11.00000   -1.20000
AFIX   0
C7    1    0.782228    0.422581    0.879023    11.00000    0.00825    0.01349 =
         0.02074    0.00860    0.00233    0.00150
C9    1    0.829213    0.364256    0.617921    11.00000    0.01451    0.01961 =
         0.01826    0.00649    0.00290    0.00498
AFIX  43
H9    2    0.836936    0.399319    0.534067    11.00000   -1.20000
AFIX   0
C10   1    0.858136    0.205474    0.591657    11.00000    0.01857    0.01623 =
         0.01908    0.00000    0.00363    0.00435
AFIX  43
H10   2    0.883924    0.131856    0.490642    11.00000   -1.20000
AFIX   0
C11   1    0.848968    0.155134    0.714941    11.00000    0.01621    0.01412 =
         0.02817    0.00507    0.00106    0.00555
AFIX  43
H11   2    0.869075    0.046661    0.699151    11.00000   -1.20000

AFIX   0
C12   1    0.810521    0.263433    0.860415    11.00000    0.01538    0.01646 =
         0.02144    0.01023   -0.00077    0.00226
AFIX  43
H12   2    0.803360    0.231016    0.946045    11.00000   -1.20000
AFIX   0
HKLF 5

REM  ekn057_100K_twin in P-1
REM R1 =  0.0350 for    2545 Fo > 4sig(Fo)  and  0.0522 for all    3448 data
REM    139 parameters refined using      0 restraints

END

WGHT      0.0348      0.0000

REM Highest difference peak  1.321,  deepest hole -1.139,  1-sigma level  0.182
Q1    1   0.7736  0.6994  0.9052  11.00000  0.05    1.32
Q2    1   0.5182  0.7915  0.6247  11.00000  0.05    1.31
Q3    1   0.7437  0.6223  0.8142  11.00000  0.05    1.20
Q4    1   0.5413  0.7905  0.8009  11.00000  0.05    1.15
Q5    1   1.0380  0.8346  0.7211  11.00000  0.05    1.15
Q6    1   0.5645  0.9008  0.7350  11.00000  0.05    1.08
Q7    1   0.4906  0.6822  0.6832  11.00000  0.05    1.07
Q8    1   0.7489  0.7048  0.7220  11.00000  0.05    1.05
Q9    1   1.0491  0.8143  0.8816  11.00000  0.05    1.01
Q10   1   1.0199  0.7233  0.7784  11.00000  0.05    0.94
;
_shelx_res_checksum              90683
loop_
_space_group_symop_operation_xyz
'x, y, z'
'-x, -y, -z'
loop_
_atom_site_label
_atom_site_type_symbol
_atom_site_fract_x
_atom_site_fract_y
_atom_site_fract_z
_atom_site_U_iso_or_equiv
_atom_site_adp_type
_atom_site_occupancy
_atom_site_site_symmetry_order
_atom_site_calc_flag
_atom_site_refinement_flags_posn
_atom_site_refinement_flags_adp
_atom_site_refinement_flags_occupancy
_atom_site_disorder_assembly
_atom_site_disorder_group
Zn1 Zn 0.76818(6) 0.71752(6) 0.82290(6) 0.01466(15) Uani 1 1 d . . . . .
Br2 Br 0.52958(7) 0.78843(7) 0.70773(7) 0.01849(17) Uani 0.727(4) 1 d . . P A 1
Br3 Br 1.04331(7) 0.82505(7) 0.79527(7) 0.01696(18) Uani 0.638(4) 1 d . . P A 1
Cl2 Cl 0.52958(7) 0.78843(7) 0.70773(7) 0.01849(17) Uani 0.273(4) 1 d . . P A 2
Cl3 Cl 1.04331(7) 0.82505(7) 0.79527(7) 0.01696(18) Uani 0.362(4) 1 d . . P A 2
N2 N 0.7217(4) 0.6984(4) 1.0304(4) 0.0140(7) Uani 1 1 d . . . . .
N8 N 0.7904(4) 0.4703(4) 0.7590(5) 0.0145(7) Uani 1 1 d . . . . .
C1 C 0.7375(5) 0.5495(5) 1.0305(5) 0.0132(9) Uani 1 1 d . . . . .
C3 C 0.6721(5) 0.8164(6) 1.1597(6) 0.0181(9) Uani 1 1 d . . . . .
H3 H 0.6588 0.9208 1.1590 0.022 Uiso 1 1 calc R U . . .
C4 C 0.6403(6) 0.7901(6) 1.2924(6) 0.0197(10) Uani 1 1 d . . . . .
H4 H 0.6044 0.8750 1.3812 0.024 Uiso 1 1 calc R U . . .
C5 C 0.6608(6) 0.6386(6) 1.2956(6) 0.0206(10) Uani 1 1 d . . . . .
H5 H 0.6413 0.6192 1.3871 0.025 Uiso 1 1 calc R U . . .
C6 C 0.7110(6) 0.5151(6) 1.1614(5) 0.0174(9) Uani 1 1 d . . . . .
H6 H 0.7264 0.4103 1.1600 0.021 Uiso 1 1 calc R U . . .
C7 C 0.7822(6) 0.4226(5) 0.8790(5) 0.0137(9) Uani 1 1 d . . . . .
C9 C 0.8292(5) 0.3643(6) 0.6179(5) 0.0177(9) Uani 1 1 d . . . . .
H9 H 0.8369 0.3993 0.5341 0.021 Uiso 1 1 calc R U . . .
C10 C 0.8581(6) 0.2055(6) 0.5917(6) 0.0203(10) Uani 1 1 d . . . . .
H10 H 0.8839 0.1319 0.4906 0.024 Uiso 1 1 calc R U . . .
C11 C 0.8490(6) 0.1551(6) 0.7149(6) 0.0207(10) Uani 1 1 d . . . . .
H11 H 0.8691 0.0467 0.6992 0.025 Uiso 1 1 calc R U . . .
C12 C 0.8105(6) 0.2634(5) 0.8604(6) 0.0173(9) Uani 1 1 d . . . . .
H12 H 0.8034 0.2310 0.9460 0.021 Uiso 1 1 calc R U . . .
loop_
_atom_site_aniso_label
_atom_site_aniso_U_11
_atom_site_aniso_U_22
_atom_site_aniso_U_33
_atom_site_aniso_U_23
_atom_site_aniso_U_13
_atom_site_aniso_U_12
Zn1 0.0142(3) 0.0147(3) 0.0199(3) 0.0103(2) 0.0065(2) 0.00625(19)
Br2 0.0140(3) 0.0225(3) 0.0242(3) 0.0136(2) 0.0047(2) 0.0080(2)
Br3 0.0133(3) 0.0198(3) 0.0240(3) 0.0143(2) 0.0065(2) 0.0046(2)
Cl2 0.0140(3) 0.0225(3) 0.0242(3) 0.0136(2) 0.0047(2) 0.0080(2)
Cl3 0.0133(3) 0.0198(3) 0.0240(3) 0.0143(2) 0.0065(2) 0.0046(2)
N2 0.0100(17) 0.0132(17) 0.0204(19) 0.0076(15) 0.0046(15) 0.0038(14)
N8 0.0102(17) 0.0149(17) 0.0191(19) 0.0072(15) 0.0033(15) 0.0044(14)
C1 0.008(2) 0.015(2) 0.017(2) 0.0073(17) 0.0025(17) 0.0018(16)
C3 0.011(2) 0.016(2) 0.023(2) 0.0039(19) 0.0035(18) 0.0010(17)
C4 0.013(2) 0.022(2) 0.019(2) 0.004(2) 0.0056(19) 0.002(2)
C5 0.016(2) 0.031(3) 0.017(2) 0.012(2) 0.0054(18) 0.000(2)
C6 0.016(2) 0.019(2) 0.021(2) 0.0111(19) 0.0036(18) 0.0050(18)
C7 0.008(2) 0.013(2) 0.021(2) 0.0086(18) 0.0023(17) 0.0015(16)
C9 0.015(2) 0.020(2) 0.018(2) 0.0065(18) 0.0029(18) 0.0050(18)
C10 0.019(2) 0.016(2) 0.019(2) 0.0000(19) 0.0036(19) 0.0044(19)
C11 0.016(2) 0.014(2) 0.028(3) 0.0051(19) 0.001(2) 0.0055(18)
C12 0.015(2) 0.016(2) 0.021(2) 0.0102(18) -0.0008(18) 0.0023(18)
loop_
_atom_type_symbol
_atom_type_description
_atom_type_scat_dispersion_real
_atom_type_scat_dispersion_imag
_atom_type_scat_source
C C 0.0033 0.0016 'International Tables Vol C Tables 4.2.6.8 and 6.1.1.4'
H H 0.0000 0.0000 'International Tables Vol C Tables 4.2.6.8 and 6.1.1.4'
N N 0.0061 0.0033 'International Tables Vol C Tables 4.2.6.8 and 6.1.1.4'
Cl Cl 0.1484 0.1585 'International Tables Vol C Tables 4.2.6.8 and 6.1.1.4'
Zn Zn 0.2839 1.4301 'International Tables Vol C Tables 4.2.6.8 and 6.1.1.4'
Br Br -0.2901 2.4595 'International Tables Vol C Tables 4.2.6.8 and 6.1.1.4'
loop_
_geom_angle_atom_site_label_1
_geom_angle_atom_site_label_2
_geom_angle_atom_site_label_3
_geom_angle
N2 Zn1 N8 80.00(15)
N2 Zn1 Br2 111.86(10)
N8 Zn1 Br2 120.18(10)
N2 Zn1 Br3 121.56(10)
N8 Zn1 Br3 102.09(10)
Br2 Zn1 Br3 116.01(3)
C1 N2 C3 118.9(4)
C1 N2 Zn1 114.6(3)
C3 N2 Zn1 126.4(3)
C7 N8 C9 119.5(4)
C7 N8 Zn1 114.2(3)
C9 N8 Zn1 125.9(3)
N2 C1 C6 122.3(4)
N2 C1 C7 115.5(4)
C6 C1 C7 122.2(4)
N2 C3 C4 122.0(4)
N2 C3 H3 119.0
C4 C3 H3 119.0
C3 C4 C5 119.6(4)
C3 C4 H4 120.2
C5 C4 H4 120.2
C4 C5 C6 118.7(4)
C4 C5 H5 120.7
C6 C5 H5 120.7
C1 C6 C5 118.5(4)
C1 C6 H6 120.8
C5 C6 H6 120.8
N8 C7 C12 121.7(4)
N8 C7 C1 115.2(4)
C12 C7 C1 123.1(4)
N8 C9 C10 121.7(5)
N8 C9 H9 119.1
C10 C9 H9 119.1
C9 C10 C11 119.1(4)
C9 C10 H10 120.5
C11 C10 H10 120.5
C12 C11 C10 119.6(4)
C12 C11 H11 120.2
C10 C11 H11 120.2
C11 C12 C7 118.4(4)
C11 C12 H12 120.8
C7 C12 H12 120.8
loop_
_geom_bond_atom_site_label_1
_geom_bond_atom_site_label_2
_geom_bond_distance
Zn1 N2 2.051(4)
Zn1 N8 2.068(4)
Zn1 Br2 2.3172(8)
Zn1 Br3 2.3204(8)
N2 C1 1.347(5)
N2 C3 1.350(5)
N8 C7 1.343(6)
N8 C9 1.344(5)
C1 C6 1.390(6)
C1 C7 1.495(6)
C3 C4 1.376(7)
C3 H3 0.9500
C4 C5 1.389(7)
C4 H4 0.9500
C5 C6 1.401(6)
C5 H5 0.9500
C6 H6 0.9500
C7 C12 1.402(6)
C9 C10 1.383(6)
C9 H9 0.9500
C10 C11 1.388(7)
C10 H10 0.9500
C11 C12 1.378(7)
C11 H11 0.9500
C12 H12 0.9500
loop_
_geom_torsion_atom_site_label_1
_geom_torsion_atom_site_label_2
_geom_torsion_atom_site_label_3
_geom_torsion_atom_site_label_4
_geom_torsion
C3 N2 C1 C6 -2.5(6)
Zn1 N2 C1 C6 179.9(3)
C3 N2 C1 C7 176.4(4)
Zn1 N2 C1 C7 -1.3(5)
C1 N2 C3 C4 1.1(6)
Zn1 N2 C3 C4 178.5(3)
N2 C3 C4 C5 0.6(7)
C3 C4 C5 C6 -1.1(7)
N2 C1 C6 C5 2.0(7)
C7 C1 C6 C5 -176.8(4)
C4 C5 C6 C1 -0.2(7)
C9 N8 C7 C12 -1.0(7)
Zn1 N8 C7 C12 -174.3(3)
C9 N8 C7 C1 -179.8(4)
Zn1 N8 C7 C1 6.9(5)
N2 C1 C7 N8 -3.8(6)
C6 C1 C7 N8 175.1(4)
N2 C1 C7 C12 177.4(4)
C6 C1 C7 C12 -3.7(7)
C7 N8 C9 C10 1.1(6)
Zn1 N8 C9 C10 173.6(3)
N8 C9 C10 C11 -0.8(7)
C9 C10 C11 C12 0.3(7)
C10 C11 C12 C7 -0.2(7)
N8 C7 C12 C11 0.5(7)
C1 C7 C12 C11 179.2(4)
