#------------------------------------------------------------------------------
#$Date: 2016-08-07 11:12:48 +0300 (Sun, 07 Aug 2016) $
#$Revision: 185186 $
#$URL: file:///home/coder/svn-repositories/cod/cif/7/22/57/7225708.cif $
#------------------------------------------------------------------------------
#
# This file is available in the Crystallography Open Database (COD),
# http://www.crystallography.net/
#
# All data on this site have been placed in the public domain by the
# contributors.
#
data_7225708
loop_
_publ_author_name
'Tulyabaev, Arthur R.'
'Mescheryakova, Ekaterina S.'
'Khabibullina, Guzel R.'
'Khalilov, Leonard M.'
_publ_section_title
;
 Intermolecular interactions and chiral crystallization effects in
 (1,5,3-dithiazepan-3-yl)-alkanoic acids
;
_journal_issue                   30
_journal_name_full               CrystEngComm
_journal_page_first              5686
_journal_paper_doi               10.1039/C6CE00708B
_journal_volume                  18
_journal_year                    2016
_chemical_absolute_configuration ad
_chemical_formula_moiety         'C6 H11 N O2 S2, H2 O'
_chemical_formula_sum            'C6 H13 N O3 S2'
_chemical_formula_weight         211.29
_chemical_name_systematic        '2-(1,5,3-dithiazepan-3-yl)acetic acid'
_space_group_crystal_system      monoclinic
_space_group_IT_number           4
_space_group_name_Hall           'P 2yb'
_space_group_name_H-M_alt        'P 1 21 1'
_symmetry_space_group_name_Hall  'P 2yb'
_symmetry_space_group_name_H-M   'P 1 21 1'
_atom_sites_solution_hydrogens   mixed
_atom_sites_solution_primary     direct
_audit_creation_date             2016-05-12
_audit_creation_method
;
  Olex2 1.2-ac2
  (compiled 2012.03.27 svn.r2268, GUI svn.r4156)
;
_audit_update_record
;
2016-05-17 deposited with the CCDC.
2016-06-03 downloaded from the CCDC.
;
_cell_angle_alpha                90
_cell_angle_beta                 94.507(5)
_cell_angle_gamma                90
_cell_formula_units_Z            2
_cell_length_a                   6.6882(3)
_cell_length_b                   8.6039(4)
_cell_length_c                   8.0793(4)
_cell_measurement_reflns_used    1280
_cell_measurement_temperature    200(2)
_cell_measurement_theta_max      31.1197
_cell_measurement_theta_min      2.5237
_cell_volume                     463.48(4)
_computing_cell_refinement
;
CrysAlisPro, Agilent Technologies,
Version 1.171.36.20 (release 27-06-2012 CrysAlis171 .NET)
(compiled Jul 11 2012,15:38:31)
;
_computing_data_collection
;
CrysAlisPro, Agilent Technologies,
Version 1.171.36.20 (release 27-06-2012 CrysAlis171 .NET)
(compiled Jul 11 2012,15:38:31)
;
_computing_data_reduction
;
CrysAlisPro, Agilent Technologies,
Version 1.171.36.20 (release 27-06-2012 CrysAlis171 .NET)
(compiled Jul 11 2012,15:38:31)
;
_computing_molecular_graphics
;
O. V. Dolomanov, L. J. Bourhis, R. J. Gildea, J. A. K. Howard and H. Puschmann,
OLEX2: a complete structure solution, refinement and analysis program.
J. Appl. Cryst. (2009). 42, 339-341.
;
_computing_publication_material
;
O. V. Dolomanov, L. J. Bourhis, R. J. Gildea, J. A. K. Howard and H. Puschmann,
OLEX2: a complete structure solution, refinement and analysis program.
J. Appl. Cryst. (2009). 42, 339-341.
;
_computing_structure_refinement
;
SHELXL, G.M. Sheldrick, Acta Cryst.
(2008). A64, 112-122
;
_computing_structure_solution
;
SHELXS, G.M. Sheldrick, Acta Cryst.
(2008). A64, 112-122
;
_diffrn_ambient_temperature      200(2)
_diffrn_detector_area_resol_mean 16.1709
_diffrn_measured_fraction_theta_full 1.000
_diffrn_measured_fraction_theta_max 1.000
_diffrn_measurement_details
;
  1 omega  -48.00   50.00   1.0000    1.2600
omega____ theta____ kappa____ phi______ frames
    -       24.2348  -38.0000  -30.0000 98

  2 omega   53.00   96.00   1.0000    1.2600
omega____ theta____ kappa____ phi______ frames
    -       24.2348  178.0000  -90.0000 43

  3 omega  -19.00   67.00   1.0000    1.2600
omega____ theta____ kappa____ phi______ frames
    -       24.2348  -19.0000   30.0000 86
;
_diffrn_measurement_device_type  'Xcalibur, Eos'
_diffrn_measurement_method       '\w scans'
_diffrn_orient_matrix_UB_11      -0.0231131000
_diffrn_orient_matrix_UB_12      -0.0627213000
_diffrn_orient_matrix_UB_13      -0.0553230000
_diffrn_orient_matrix_UB_21      -0.0910382000
_diffrn_orient_matrix_UB_22      -0.0126711000
_diffrn_orient_matrix_UB_23      0.0374140000
_diffrn_orient_matrix_UB_31      -0.0499039000
_diffrn_orient_matrix_UB_32      0.0520848000
_diffrn_orient_matrix_UB_33      -0.0573142000
_diffrn_radiation_monochromator  graphite
_diffrn_radiation_wavelength     0.71073
_diffrn_reflns_av_R_equivalents  0.0084
_diffrn_reflns_av_unetI/netI     0.0256
_diffrn_reflns_Laue_measured_fraction_full 0.982
_diffrn_reflns_Laue_measured_fraction_max 0.883
_diffrn_reflns_limit_h_max       4
_diffrn_reflns_limit_h_min       -9
_diffrn_reflns_limit_k_max       12
_diffrn_reflns_limit_k_min       -10
_diffrn_reflns_limit_l_max       10
_diffrn_reflns_limit_l_min       -11
_diffrn_reflns_number            2436
_diffrn_reflns_point_group_measured_fraction_full 0.840
_diffrn_reflns_point_group_measured_fraction_max 0.684
_diffrn_reflns_theta_full        25.242
_diffrn_reflns_theta_max         31.189
_diffrn_reflns_theta_min         3.055
_diffrn_source                   'Enhance (Mo) X-ray Source'
_exptl_absorpt_coefficient_mu    0.543
_exptl_absorpt_correction_T_max  1.00000
_exptl_absorpt_correction_T_min  0.84544
_exptl_absorpt_correction_type   multi-scan
_exptl_absorpt_process_details
;
CrysAlisPro, Agilent Technologies,
Version 1.171.36.20 (release 27-06-2012 CrysAlis171 .NET)
(compiled Jul 11 2012,15:38:31)
Empirical absorption correction using spherical harmonics,
 implemented in SCALE3 ABSPACK scaling algorithm.
;
_exptl_crystal_colour            colourless
_exptl_crystal_density_diffrn    1.514
_exptl_crystal_F_000             224.0
_exptl_crystal_size_max          0.44
_exptl_crystal_size_mid          0.35
_exptl_crystal_size_min          0.22
_refine_diff_density_max         0.443
_refine_diff_density_min         -0.504
_refine_diff_density_rms         0.062
_refine_ls_abs_structure_details
;
 Flack x determined using 626 quotients [(I+)-(I-)]/[(I+)+(I-)]
 (Parsons and Flack (2004), Acta Cryst. A60, s61).
;
_refine_ls_abs_structure_Flack   -0.13(7)
_refine_ls_extinction_method     none
_refine_ls_goodness_of_fit_ref   0.853
_refine_ls_hydrogen_treatment    mixed
_refine_ls_matrix_type           full
_refine_ls_number_parameters     153
_refine_ls_number_reflns         2054
_refine_ls_number_restraints     1
_refine_ls_restrained_S_all      0.752
_refine_ls_R_factor_all          0.0313
_refine_ls_R_factor_gt           0.0303
_refine_ls_shift/su_max          0.014
_refine_ls_shift/su_mean         0.010
_refine_ls_structure_factor_coef Fsqd
_refine_ls_weighting_details
'w=1/[\s^2^(Fo^2^)+(0.1000P)^2^] where P=(Fo^2^+2Fc^2^)/3'
_refine_ls_weighting_scheme      calc
_refine_ls_wR_factor_gt          0.0865
_refine_ls_wR_factor_ref         0.0888
_reflns_Friedel_coverage         0.462
_reflns_Friedel_fraction_full    0.677
_reflns_Friedel_fraction_max     0.459
_reflns_number_gt                1990
_reflns_number_total             2054
_reflns_threshold_expression     'I > 2\s(I)'
_cod_data_source_file            c6ce00708b2.cif
_cod_data_source_block           compound_2a
_cod_depositor_comments
'Adding full bibliography for 7225700--7225708.cif.'
_cod_database_code               7225708
_reflns_odcompleteness_completeness 99.85
_reflns_odcompleteness_iscentric 1
_reflns_odcompleteness_theta     28.98
_olex2_date_sample_data_collection 1386301073.56
_olex2_submission_special_instructions 'No special instructions were received'
_shelx_res_checksum              31533
_shelx_res_file
;
TITL KHG-239-200 in P21 #4
CELL 0.71073 6.688238 8.603918 8.079265 90 94.5068 90
ZERR 2 0.000293 0.000409 0.00042 0 0.0046 0
LATT -1
SYMM -X,0.5+Y,-Z

SFAC C H N O S
UNIT 12 22 2 4 4

L.S. 4
PLAN  20
REM reset to P21 #4
BOND
fmap 2
acta
OMIT 2 -1 6
OMIT 1 0 2
OMIT 4 3 6
OMIT 4 0 2
OMIT -1 0 4
OMIT 0 -9 7
OMIT -3 6 4
OMIT -8 -1 5
OMIT 6 -1 8
OMIT 0 2 3
OMIT -8 6 2
OMIT 0 10 2
OMIT 0 0 1
OMIT 7 0 4
OMIT -2 -5 6
OMIT -8 2 1
OMIT 5 -7 2
OMIT 2 0 3
OMIT -4 10 2
OMIT 2 -2 3
OMIT -2 5 6
OMIT 0 -5 5
OMIT 2 10 1
OMIT 2 -4 8
OMIT -6 4 7
OMIT 3 9 3
OMIT -4 -2 5
OMIT 8 0 4
OMIT 0 0 9
OMIT 3 -2 0
OMIT -1 -2 11
OMIT 5 1 3
OMIT 9 4 0
OMIT -2 6 2
OMIT 4 9 2
OMIT 3 0 2
OMIT 5 -8 0
REM <HKL>D:/data/ibragimov/KHG/KHG-239-200/struct/olex2_KHG-239-200/KHG-239-20
REM 0.hkl</HKL>

WGHT    0.100000
FVAR      15.53175
S1    5   -0.490765   -0.528992   -0.589664    11.00000    0.01781    0.02909 =
         0.02557   -0.00244   -0.00099   -0.00135
S5    5   -0.961154   -0.591098   -0.429151    11.00000    0.02880    0.02710 =
         0.02266    0.00082    0.00889    0.00036
N3    3   -0.860131   -0.597331   -0.757140    11.00000    0.01542    0.01767 =
         0.01779    0.00037    0.00141   -0.00136
O2    4   -1.345534   -0.579341   -0.996464    11.00000    0.02070    0.02787 =
         0.03883    0.00471   -0.00820   -0.00275
AFIX 147
H2    2   -1.417852   -0.646599   -1.041280    11.00000   -1.50000
AFIX   0
C8    1   -1.042900   -0.523851   -0.841876    11.00000    0.01725    0.01730 =
         0.02474    0.00134    0.00015   -0.00113
AFIX   6
O3    4   -1.338237   -0.268299   -1.040936    11.00000    0.02104    0.02613 =
         0.03555    0.00523    0.00902    0.00124
H3A   2   -1.228721   -0.225671   -1.062806    11.00000   -1.50000
H3B   2   -1.322124   -0.366153   -1.034374    11.00000   -1.50000
AFIX   0
C2    1   -0.708198   -0.469724   -0.716574    11.00000    0.01905    0.02014 =
         0.02139    0.00119   -0.00060   -0.00362
C4    1   -0.904101   -0.694983   -0.611156    11.00000    0.02499    0.01565 =
         0.02040    0.00061    0.00319   -0.00325
C9    1   -1.191067   -0.642216   -0.924231    11.00000    0.01506    0.02431 =
         0.02243   -0.00050    0.00329   -0.00267
O1    4   -1.153631   -0.782107   -0.914937    11.00000    0.02585    0.02270 =
         0.03349   -0.00619    0.00115    0.00009
C6    1   -0.716696   -0.587480   -0.315351    11.00000    0.04096    0.02963 =
         0.01780   -0.00035    0.00029   -0.00209
C7    1   -0.563636   -0.481697   -0.384650    11.00000    0.03434    0.02880 =
         0.02152   -0.00418   -0.00340   -0.00271
H4A   2   -1.009529   -0.760568   -0.647025    11.00000    0.03138
H8A   2   -1.096049   -0.464024   -0.774177    11.00000    0.02235
H4B   2   -0.794189   -0.763077   -0.598783    11.00000    0.02004
H6A   2   -0.644422   -0.691976   -0.328973    11.00000    0.03605
H7A   2   -0.568479   -0.365184   -0.406126    11.00000    0.06312
H2A   2   -0.672666   -0.433645   -0.816700    11.00000    0.01388
H6B   2   -0.748153   -0.559228   -0.232440    11.00000    0.04271
H8B   2   -0.974500   -0.461075   -0.941129    11.00000    0.02850
H7B   2   -0.424627   -0.486725   -0.316009    11.00000    0.03018
H2B   2   -0.748815   -0.386877   -0.657090    11.00000    0.01440
HKLF 4

REM  KHG-239-200 in P21 #4
REM R1 =  0.0303 for    1990 Fo > 4sig(Fo)  and  0.0313 for all    2054 data
REM    153 parameters refined using      1 restraints

END

WGHT      0.0595      0.0000

REM Highest difference peak  0.443,  deepest hole -0.504,  1-sigma level  0.062
Q1    1  -0.8085 -0.6577 -0.8299  11.00000  0.05    0.44
Q2    1  -1.4457 -0.2168 -1.0397  11.00000  0.05    0.38
Q3    1  -0.5130 -0.5062 -0.4987  11.00000  0.05    0.24
Q4    1  -0.6659 -0.4883 -0.1690  11.00000  0.05    0.22
Q5    1  -0.9078 -0.6347 -0.5372  11.00000  0.05    0.22
Q6    1  -0.6297 -0.3796 -0.3793  11.00000  0.05    0.22
Q7    1  -0.9142 -0.5842 -0.7978  11.00000  0.05    0.22
Q8    1  -1.1204 -0.5940 -0.8760  11.00000  0.05    0.22
Q9    1  -0.6897 -0.6819 -0.2922  11.00000  0.05    0.22
Q10   1  -0.7441 -0.5048 -0.1538  11.00000  0.05    0.22
Q11   1  -1.1773 -0.7715 -0.8711  11.00000  0.05    0.21
Q12   1  -0.8712 -0.6308 -0.6841  11.00000  0.05    0.21
Q13   1  -0.9290 -0.5693 -0.5336  11.00000  0.05    0.20
Q14   1  -0.4011 -0.6080 -0.5787  11.00000  0.05    0.19
Q15   1  -0.7989 -0.3494 -0.6996  11.00000  0.05    0.19
Q16   1  -1.1274 -0.4764 -0.7208  11.00000  0.05    0.19
Q17   1  -1.0970 -0.3650 -1.1257  11.00000  0.05    0.19
Q18   1  -1.0326 -0.4343 -0.8904  11.00000  0.05    0.18
Q19   1  -0.9966 -0.6238 -0.3219  11.00000  0.05    0.18
Q20   1  -0.4076 -0.4440 -0.5882  11.00000  0.05    0.18
;
_shelx_space_group_comment
;
The symmetry employed for this shelxl refinement is uniquely defined
by the following loop, which should always be used as a source of
symmetry information in preference to the above space-group names.
They are only intended as comments.
;
_shelxl_version_number           2013-4
loop_
_space_group_symop_operation_xyz
'x, y, z'
'-x, y+1/2, -z'
loop_
_atom_site_label
_atom_site_type_symbol
_atom_site_fract_x
_atom_site_fract_y
_atom_site_fract_z
_atom_site_U_iso_or_equiv
_atom_site_adp_type
_atom_site_occupancy
_atom_site_site_symmetry_order
_atom_site_calc_flag
_atom_site_refinement_flags_posn
_atom_site_refinement_flags_adp
S1 S -0.49076(8) -0.52899(7) -0.58966(7) 0.02430(16) Uani 1 1 d . .
S5 S -0.96115(9) -0.59110(8) -0.42915(7) 0.02582(16) Uani 1 1 d . .
N3 N -0.8601(3) -0.5973(3) -0.7571(2) 0.0170(3) Uani 1 1 d . .
O2 O -1.3455(3) -0.5793(3) -0.9965(3) 0.0297(4) Uani 1 1 d . .
H2 H -1.4179 -0.6466 -1.0413 0.045 Uiso 1 1 calc R U
C8 C -1.0429(3) -0.5239(3) -0.8419(3) 0.0198(4) Uani 1 1 d . .
O3 O -1.3382(3) -0.2683(2) -1.0409(3) 0.0272(4) Uani 1 1 d G .
H3A H -1.2287 -0.2257 -1.0628 0.041 Uiso 1 1 d G U
H3B H -1.3221 -0.3662 -1.0344 0.041 Uiso 1 1 d G U
C2 C -0.7082(3) -0.4697(3) -0.7166(3) 0.0203(4) Uani 1 1 d . .
C4 C -0.9041(4) -0.6950(3) -0.6112(3) 0.0203(4) Uani 1 1 d . .
C9 C -1.1911(3) -0.6422(3) -0.9242(3) 0.0205(4) Uani 1 1 d . .
O1 O -1.1536(3) -0.7821(2) -0.9149(2) 0.0274(4) Uani 1 1 d . .
C6 C -0.7167(4) -0.5875(4) -0.3154(3) 0.0296(5) Uani 1 1 d . .
C7 C -0.5636(4) -0.4817(4) -0.3846(3) 0.0285(5) Uani 1 1 d . .
H4A H -1.010(6) -0.761(5) -0.647(5) 0.031(9) Uiso 1 1 d . .
H8A H -1.096(5) -0.464(4) -0.774(4) 0.022(8) Uiso 1 1 d . .
H4B H -0.794(5) -0.763(4) -0.599(4) 0.020(7) Uiso 1 1 d . .
H6A H -0.644(6) -0.692(5) -0.329(5) 0.036(10) Uiso 1 1 d . .
H7A H -0.568(7) -0.365(7) -0.406(6) 0.063(16) Uiso 1 1 d . .
H2A H -0.673(5) -0.434(4) -0.817(4) 0.014(7) Uiso 1 1 d . .
H6B H -0.748(6) -0.559(6) -0.232(6) 0.043(11) Uiso 1 1 d . .
H8B H -0.975(5) -0.461(5) -0.941(4) 0.028(9) Uiso 1 1 d . .
H7B H -0.425(5) -0.487(5) -0.316(4) 0.030(9) Uiso 1 1 d . .
H2B H -0.749(5) -0.387(4) -0.657(4) 0.014(7) Uiso 1 1 d . .
loop_
_atom_site_aniso_label
_atom_site_aniso_U_11
_atom_site_aniso_U_22
_atom_site_aniso_U_33
_atom_site_aniso_U_23
_atom_site_aniso_U_13
_atom_site_aniso_U_12
S1 0.0178(2) 0.0291(3) 0.0256(3) -0.0024(2) -0.00099(18) -0.0013(2)
S5 0.0288(3) 0.0271(3) 0.0227(3) 0.0008(2) 0.0089(2) 0.0004(2)
N3 0.0154(7) 0.0177(8) 0.0178(7) 0.0004(8) 0.0014(6) -0.0014(7)
O2 0.0207(7) 0.0279(9) 0.0388(10) 0.0047(9) -0.0082(7) -0.0027(7)
C8 0.0173(8) 0.0173(9) 0.0247(10) 0.0013(10) 0.0001(7) -0.0011(9)
O3 0.0210(8) 0.0261(9) 0.0356(10) 0.0052(8) 0.0090(7) 0.0012(7)
C2 0.0190(9) 0.0201(10) 0.0214(10) 0.0012(9) -0.0006(7) -0.0036(9)
C4 0.0250(10) 0.0157(9) 0.0204(10) 0.0006(8) 0.0032(8) -0.0032(8)
C9 0.0151(8) 0.0243(10) 0.0224(10) -0.0005(9) 0.0033(7) -0.0027(8)
O1 0.0258(8) 0.0227(8) 0.0335(10) -0.0062(8) 0.0012(7) 0.0001(8)
C6 0.0410(13) 0.0296(12) 0.0178(10) -0.0003(12) 0.0003(9) -0.0021(13)
C7 0.0343(12) 0.0288(12) 0.0215(11) -0.0042(10) -0.0034(9) -0.0027(11)
loop_
_atom_type_symbol
_atom_type_description
_atom_type_scat_dispersion_real
_atom_type_scat_dispersion_imag
_atom_type_scat_source
C C 0.0033 0.0016 'International Tables Vol C Tables 4.2.6.8 and 6.1.1.4'
H H 0.0000 0.0000 'International Tables Vol C Tables 4.2.6.8 and 6.1.1.4'
N N 0.0061 0.0033 'International Tables Vol C Tables 4.2.6.8 and 6.1.1.4'
O O 0.0106 0.0060 'International Tables Vol C Tables 4.2.6.8 and 6.1.1.4'
S S 0.1246 0.1234 'International Tables Vol C Tables 4.2.6.8 and 6.1.1.4'
loop_
_geom_angle_atom_site_label_1
_geom_angle_atom_site_label_2
_geom_angle_atom_site_label_3
_geom_angle
C2 S1 C7 101.28(12)
C4 S5 C6 100.58(13)
C8 N3 C2 107.7(2)
C8 N3 C4 113.24(16)
C4 N3 C2 114.00(18)
N3 C8 C9 113.3(2)
N3 C2 S1 114.80(17)
N3 C4 S5 115.83(16)
O2 C9 C8 113.0(2)
O1 C9 O2 126.9(2)
O1 C9 C8 120.1(2)
C7 C6 S5 115.7(2)
C6 C7 S1 116.3(2)
loop_
_geom_bond_atom_site_label_1
_geom_bond_atom_site_label_2
_geom_bond_distance
S1 C2 1.787(2)
S1 C7 1.809(3)
S5 C4 1.787(2)
S5 C6 1.812(3)
N3 C8 1.494(3)
N3 C2 1.514(3)
N3 C4 1.496(3)
O2 C9 1.267(3)
C8 C9 1.536(3)
C9 O1 1.230(3)
C6 C7 1.510(4)
