#------------------------------------------------------------------------------
#$Date: 2016-08-07 11:11:35 +0300 (Sun, 07 Aug 2016) $
#$Revision: 185181 $
#$URL: file:///home/coder/svn-repositories/cod/cif/7/22/55/7225597.cif $
#------------------------------------------------------------------------------
#
# This file is available in the Crystallography Open Database (COD),
# http://www.crystallography.net/
#
# All data on this site have been placed in the public domain by the
# contributors.
#
data_7225597
loop_
_publ_author_name
'Mocilac, P.'
'Osman, I. A.'
'Gallagher, J. F.'
_publ_section_title
;
 Short C--H&#x22EF;F interactions involving the 2,5-difluorobenzene group:
 understanding the role of fluorine in aggregation and complex C--F/C--H
 disorder in a 2 \\times 6 isomer grid
;
_journal_issue                   30
_journal_name_full               CrystEngComm
_journal_page_first              5764
_journal_paper_doi               10.1039/C6CE00795C
_journal_volume                  18
_journal_year                    2016
_chemical_absolute_configuration unk
_chemical_formula_moiety         'C13 H9 F2 N O'
_chemical_formula_sum            'C13 H9 F2 N O'
_chemical_formula_weight         233.21
_chemical_melting_point          395
_chemical_name_systematic        '(F2_24 or 11-051)'
_space_group_crystal_system      monoclinic
_space_group_IT_number           7
_space_group_name_Hall           'P -2yac'
_space_group_name_H-M_alt        'P 1 n 1'
_symmetry_space_group_name_Hall  'P -2yac'
_symmetry_space_group_name_H-M   'P 1 n 1'
_atom_sites_solution_hydrogens   geom
_audit_creation_method           SHELXL-2014/7
_audit_update_record
;
2016-02-14 deposited with the CCDC.
2016-06-21 downloaded from the CCDC.
;
_cell_angle_alpha                90
_cell_angle_beta                 90.665(5)
_cell_angle_gamma                90
_cell_formula_units_Z            2
_cell_length_a                   5.5268(3)
_cell_length_b                   4.9905(2)
_cell_length_c                   19.7058(11)
_cell_measurement_reflns_used    1059
_cell_measurement_temperature    294(2)
_cell_measurement_theta_max      27.96
_cell_measurement_theta_min      4.07
_cell_volume                     543.48(5)
_computing_cell_refinement
;
CrysAlisPro, Agilent Technologies,
Version 1.171.34.49 (release 20-01-2011 CrysAlis171 .NET)
(compiled Jan 20 2011,15:58:25)
;
_computing_data_collection
;
CrysAlisPro, Agilent Technologies,
Version 1.171.34.49 (release 20-01-2011 CrysAlis171 .NET)
(compiled Jan 20 2011,15:58:25)
;
_computing_data_reduction
;
CrysAlisPro, Agilent Technologies,
Version 1.171.34.49 (release 20-01-2011 CrysAlis171 .NET)
(compiled Jan 20 2011,15:58:25)
;
_computing_molecular_graphics    'PLATON (Spek, 2009)'
_computing_publication_material  SHELXL-14/7
_computing_structure_refinement
'SHELXL97 and SHELXL-14/7 (Sheldrick, 2008) & SORTX (McArdle, 1995)'
_computing_structure_solution    'SHELXS-14/7 (Sheldrick, 2014)'
_diffrn_ambient_temperature      294(1)
_diffrn_detector_area_resol_mean 16.0560
_diffrn_measured_fraction_theta_full 0.997
_diffrn_measured_fraction_theta_max 0.961
_diffrn_measurement_device       'Xcalibur, Sapphire3, Gemini Ultra'
_diffrn_measurement_method       '\w scans'
_diffrn_radiation_monochromator  graphite
_diffrn_radiation_source         'Enhance (Mo) X-ray Source'
_diffrn_radiation_type           MoK\a
_diffrn_radiation_wavelength     0.71073
_diffrn_reflns_av_R_equivalents  0.0529
_diffrn_reflns_av_unetI/netI     0.0790
_diffrn_reflns_Laue_measured_fraction_full 0.997
_diffrn_reflns_Laue_measured_fraction_max 0.961
_diffrn_reflns_limit_h_max       7
_diffrn_reflns_limit_h_min       -7
_diffrn_reflns_limit_k_max       6
_diffrn_reflns_limit_k_min       -6
_diffrn_reflns_limit_l_max       25
_diffrn_reflns_limit_l_min       -25
_diffrn_reflns_number            6736
_diffrn_reflns_point_group_measured_fraction_full 0.997
_diffrn_reflns_point_group_measured_fraction_max 0.935
_diffrn_reflns_theta_full        26.000
_diffrn_reflns_theta_max         27.600
_diffrn_reflns_theta_min         4.083
_exptl_absorpt_coefficient_mu    0.114
_exptl_absorpt_correction_T_max  0.996
_exptl_absorpt_correction_T_min  0.971
_exptl_absorpt_correction_type   analytical
_exptl_absorpt_process_details   '(ABSFAC, Clark and Reid, 1998)'
_exptl_crystal_colour            Colourless
_exptl_crystal_density_diffrn    1.425
_exptl_crystal_description       Needle
_exptl_crystal_F_000             240
_exptl_crystal_recrystallization_method
'Re-crystallisation from solvent: Dichloromethane'
_exptl_crystal_size_max          0.500
_exptl_crystal_size_mid          0.065
_exptl_crystal_size_min          0.040
_refine_diff_density_max         0.075
_refine_diff_density_min         -0.089
_refine_diff_density_rms         0.020
_refine_ls_abs_structure_details
;
Flack x from 394 quotients (Parsons et al., 2013)
;
_refine_ls_abs_structure_Flack   0.9(7)
_refine_ls_extinction_method     none
_refine_ls_goodness_of_fit_ref   0.767
_refine_ls_hydrogen_treatment    mixed
_refine_ls_matrix_type           full
_refine_ls_number_parameters     209
_refine_ls_number_reflns         2370
_refine_ls_number_restraints     53
_refine_ls_restrained_S_all      0.767
_refine_ls_R_factor_all          0.1116
_refine_ls_R_factor_gt           0.0347
_refine_ls_shift/su_max          0.001
_refine_ls_shift/su_mean         0.000
_refine_ls_structure_factor_coef Fsqd
_refine_ls_weighting_details
'w=1/[\s^2^(Fo^2^)+(0.0136P)^2^] where P=(Fo^2^+2Fc^2^)/3'
_refine_ls_weighting_scheme      calc
_refine_ls_wR_factor_gt          0.0428
_refine_ls_wR_factor_ref         0.0514
_reflns_Friedel_coverage         0.941
_reflns_Friedel_fraction_full    0.997
_reflns_Friedel_fraction_max     0.909
_reflns_number_gt                1051
_reflns_number_total             2370
_reflns_threshold_expression     I>2\s(I)
_cod_data_source_file            c6ce00795c2.cif
_cod_data_source_block           F2_24_294K
_cod_depositor_comments
;
The following automatic conversions were performed:

'_exptl_absorpt_correction_type' value 'Analytical' changed to
'analytical' according to
/usr/data/users/saulius/crontab/automatic-downloads/rss-feeds/RSC/lib/dictionaries/cif_core.dic
dictionary named 'cif_core.dic' version 2.4.2 from 2011-04-26.

Automatic conversion script
Id: cif_fix_values 4268 2015-11-12 08:31:59Z antanas 

 Adding full bibliography for 7225595--7225606.cif.
;
_cod_database_code               7225597
_shelx_shelxl_version_number     2014/7
_shelx_space_group_comment
;
The symmetry employed for this shelxl refinement is uniquely defined
by the following loop, which should always be used as a source of
symmetry information in preference to the above space-group names.
They are only intended as comments.
;
_shelx_estimated_absorpt_t_min   0.945
_shelx_estimated_absorpt_t_max   0.995
_shelx_res_file
;

    11-051.res created by SHELXL-2014/7

TITL  11-051 is F2-24 [Pn at RT] Mo 40kV30mA to 0.80\%A [Disorder!] SHELXL14
CELL  0.71073   5.5268   4.9905  19.7058   90.000   90.665   90.000
ZERR  2         0.0003   0.0002   0.0011    0.000    0.005    0.000
LATT  -1
SYMM  1/2+X,-Y,1/2+Z
SFAC  C H N O F
UNIT  26 18 2 2 4
MERG  2
MORE  1
FMAP  2
L.S.  8 3
LIST  4
ACTA  52
CONF
BOND $H
EQIV  $1  X,Y-1,Z
EQIV  $2  X-1,1+Y,Z
HTAB  N1 O1_$1
HTAB  C25 F22_$2
HTAB
RTAB  FC F22 C23
RTAB  FC F24 C24
RTAB  CC C11 C1
RTAB  CO C1 O1
RTAB  CN C1 N1
RTAB  CN C21 N1
RTAB  NH N1 H1
RTAB  CC C14 C24
RTAB  CCO C11 C1 O1
RTAB  CCN C11 C1 N1
RTAB  NCO N1 C1 O1
RTAB  CNC C21 N1 C1
RTAB  CCN C22 C21 N1
RTAB  CCN C26 C21 N1
RTAB  CCC C12 C11 C1
RTAB  CCC C16 C11 C1
RTAB  CCC C14 C11 C1
RTAB  CCN C24 C21 N1
RTAB  CCF C21 C22 F22
RTAB  CCF C23 C22 F22
RTAB  CCF C23 C24 F24
RTAB  CCF C25 C24 F24
RTAB  CCC C21 C22 C23
RTAB  CCC C23 C24 C25
RTAB  OCCC O1 C1 C11 C12
RTAB  OCCC O1 C1 C11 C16
RTAB  CCNC C11 C1 N1 C21
RTAB  CCCN C12 C11 C1 N1
RTAB  CCCN C16 C11 C1 N1
RTAB  CCNC C22 C21 N1 C1
RTAB  CCNC C26 C21 N1 C1
BIND  C1B C21
DELU  0.010  F14B F16B F26B O1B C1B N1B
ISOR  0.010  F14B F16B F26B O1B C1B N1B
SIMU  0.010  F14B F16B F26B O1B C1B N1B
SIZE  0.040 0.065 0.50
TEMP  21
PLAN  15
MPLA  6  C11 C12 C13 C14 C15 C16 F22 F24
MPLA  5  O1 N1 C1 C11 C21 F22 F24
MPLA  6  C21 C22 C23 C24 C25 C26 F22 F24
MPLA  6  C11 C12 C13 C14 C15 C16
MPLA  3  O1 N1 C1 C11 C21
MPLA  6  C21 C22 C23 C24 C25 C26
WGHT    0.013600
FVAR      10.53853
MOLE    1
PART  1
O1    4    0.506750    1.126566    0.178741    10.88000    0.10472    0.02426 =
         0.09390   -0.00279    0.02783    0.00543
C1    1    0.567211    0.890079    0.173827    10.88000    0.06207    0.03869 =
         0.06988   -0.00070   -0.01393   -0.00711
N1    3    0.489540    0.699966    0.214216    10.88000    0.05511    0.03275 =
         0.06923   -0.00240    0.00012    0.00934
AFIX  43
H1    2    0.537435    0.538541    0.207095    11.00000    0.09230
AFIX   0
C11   1    0.750950    0.801447    0.119824    11.00000    0.05879    0.05872 =
         0.06997   -0.01684    0.00878   -0.00515
C12   1    0.758280    0.946202    0.062454    11.00000    0.08993    0.06442 =
         0.06642    0.00623    0.00061    0.00087
AFIX  43
H12   2    0.645051    1.081668    0.055607    11.00000   -1.20000
AFIX   0
C13   1    0.924651    0.900684    0.014699    11.00000    0.09277    0.08059 =
         0.06472   -0.00791    0.00915   -0.01389
AFIX  43
H13   2    0.925487    1.005079   -0.024391    11.00000   -1.20000
AFIX   0
C14   1    1.092946    0.702038    0.023059    11.00000    0.07452    0.08622 =
         0.08061   -0.01478    0.01960   -0.00863
AFIX  43
H14   2    1.209771    0.671558   -0.009640    10.88000   -1.20000
AFIX   0
C15   1    1.085274    0.546837    0.081556    11.00000    0.06740    0.05787 =
         0.11244   -0.02022   -0.01679    0.01548
AFIX  43
H15   2    1.197363    0.410317    0.088538    11.00000   -1.20000
AFIX   0
C16   1    0.909919    0.597043    0.129185    11.00000    0.09034    0.05229 =
         0.06457    0.00058    0.00259   -0.00857
AFIX  43
H16   2    0.900620    0.490569    0.167800    10.88000   -1.20000
AFIX   0
C21   1    0.331570    0.747012    0.268679    11.00000    0.04577    0.05810 =
         0.05541   -0.00735    0.00570    0.00005
C22   1    0.352083    0.584004    0.324658    11.00000    0.05224    0.05498 =
         0.07027   -0.01105   -0.00441    0.01621
AFIX  43
H22   2    0.475991    0.457967    0.326036    10.18000   -1.20000
AFIX   0
C23   1    0.198888    0.598797    0.378272    11.00000    0.09164    0.06401 =
         0.06133    0.00728   -0.00225   -0.01116
AFIX  43
H23   2    0.217876    0.487282    0.415769    11.00000   -1.20000
AFIX   0
C24   1    0.017595    0.782182    0.374960    11.00000    0.06198    0.06833 =
         0.09256   -0.02147    0.01693   -0.00193
AFIX  43
H24   2   -0.088430    0.795324    0.411112    10.12000   -1.20000
AFIX   0
C25   1   -0.014357    0.946284    0.321038    11.00000    0.06271    0.04445 =
         0.10005   -0.01367    0.00037    0.01290
AFIX  43
H25   2   -0.141192    1.068735    0.320013    11.00000   -1.20000
AFIX   0
C26   1    0.143445    0.929705    0.267634    11.00000    0.05324    0.05312 =
         0.08266   -0.00162    0.00535    0.01006
AFIX  43
H26   2    0.123275    1.042623    0.230454    10.94000   -1.20000
AFIX   0
PART  2
F22   5    0.531314    0.402090    0.328777    10.82000    0.08116    0.06833 =
         0.08918    0.01197    0.00572    0.03186
F24   5   -0.136919    0.803066    0.428526    10.88000    0.09920    0.12033 =
         0.10113   -0.01240    0.04742    0.00949
F14B  5    1.248302    0.732352   -0.033706    10.12000    0.15120    0.13900 =
         0.12380    0.01032    0.04145    0.03706
F16B  5    0.995499    0.382749    0.177477    10.12000    0.11208    0.08645 =
         0.16958    0.04901   -0.06735    0.00284
F26B  5    0.136626    1.092106    0.218709    10.06000    0.08017    0.05685 =
         0.05344    0.03251   -0.00803    0.02747
O1B   4    0.626172    0.366640    0.210905    10.12000    0.07590    0.07376 =
         0.12279    0.01943   -0.01290    0.02242
C1B   1    0.482550    0.838287    0.219082    10.12000    0.08332    0.07284 =
         0.08602   -0.00692   -0.00385    0.00097
N1B   3    0.625298    0.620957    0.179164    10.12000    0.08338    0.07622 =
         0.09305   -0.00934    0.00130   -0.00267
HKLF  4

REM   11-051 is F2-24 [Pn at RT] Mo 40kV30mA to 0.80\%A [Disorder
REM R1 =  0.0347 for    1051 Fo > 4sig(Fo)  and  0.1116 for all    2370 data
REM    209 parameters refined using     53 restraints

END

WGHT      0.0136      0.0000

REM Instructions for potential hydrogen bonds
HTAB N1 O1_$1

REM Highest difference peak  0.075,  deepest hole -0.089,  1-sigma level  0.020
Q1    1   0.7420  0.9891  0.0445  11.00000  0.05    0.08
Q2    1   0.5338  1.0574  0.0597  11.00000  0.05    0.08
Q3    1   0.0702  0.8560  0.2800  11.00000  0.05    0.07
Q4    1   0.3175  1.2065  0.2803  11.00000  0.05    0.07
Q5    1   0.3424  1.0981  0.2287  11.00000  0.05    0.07
Q6    1   1.2246  0.4955  0.0406  11.00000  0.05    0.07
Q7    1   0.5576  1.1274  0.0645  11.00000  0.05    0.07
Q8    1   0.7174  0.4746  0.2741  11.00000  0.05    0.07
Q9    1   0.5017  0.3019  0.3303  11.00000  0.05    0.07
Q10   1   1.1189  0.7916  0.0735  11.00000  0.05    0.07
Q11   1   0.7450  1.1860  0.0746  11.00000  0.05    0.06
Q12   1   0.0433  0.3903  0.4158  11.00000  0.05    0.06
Q13   1  -0.2928  0.9970  0.4301  11.00000  0.05    0.06
Q14   1  -0.1039  0.8734  0.4987  11.00000  0.05    0.06
Q15   1   0.3565  0.9416  0.2824  11.00000  0.05    0.06
;
_shelx_res_checksum              53563
loop_
_space_group_symop_operation_xyz
'x, y, z'
'x+1/2, -y, z+1/2'
loop_
_atom_site_label
_atom_site_type_symbol
_atom_site_fract_x
_atom_site_fract_y
_atom_site_fract_z
_atom_site_U_iso_or_equiv
_atom_site_adp_type
_atom_site_occupancy
_atom_site_site_symmetry_order
_atom_site_calc_flag
_atom_site_refinement_flags_posn
_atom_site_refinement_flags_adp
_atom_site_refinement_flags_occupancy
_atom_site_disorder_assembly
_atom_site_disorder_group
O1 O 0.5068(6) 1.1266(5) 0.17874(18) 0.0741(10) Uani 0.88 1 d . . P A 1
C1 C 0.5672(8) 0.8901(9) 0.1738(3) 0.0570(13) Uani 0.88 1 d . . P A 1
N1 N 0.4895(7) 0.7000(8) 0.2142(2) 0.0524(12) Uani 0.88 1 d . . P A 1
H1 H 0.5374 0.5385 0.2071 0.09(2) Uiso 1 1 calc R . . A 1
C11 C 0.7509(7) 0.8014(8) 0.1198(2) 0.0624(12) Uani 1 1 d . . . A 1
C12 C 0.7583(8) 0.9462(9) 0.0625(2) 0.0736(14) Uani 1 1 d . . . A 1
H12 H 0.6451 1.0817 0.0556 0.088 Uiso 1 1 calc R U . A 1
C13 C 0.9247(9) 0.9007(10) 0.0147(2) 0.0793(15) Uani 1 1 d . . . A 1
H13 H 0.9255 1.0051 -0.0244 0.095 Uiso 1 1 calc R U . A 1
C14 C 1.0929(9) 0.7020(10) 0.0231(2) 0.0803(14) Uani 1 1 d . . . A 1
H14 H 1.2098 0.6716 -0.0096 0.096 Uiso 0.88 1 calc R U P A 1
C15 C 1.0853(8) 0.5468(8) 0.0816(3) 0.0794(17) Uani 1 1 d . . . A 1
H15 H 1.1974 0.4103 0.0885 0.095 Uiso 1 1 calc R U . A 1
C16 C 0.9099(8) 0.5970(8) 0.1292(2) 0.0691(13) Uani 1 1 d . . . A 1
H16 H 0.9006 0.4906 0.1678 0.083 Uiso 0.88 1 calc R U P A 1
C21 C 0.3316(7) 0.7470(8) 0.2687(2) 0.0531(12) Uani 1 1 d . . . A 1
C22 C 0.3521(7) 0.5840(9) 0.3247(2) 0.0592(12) Uani 1 1 d . . . A 1
H22 H 0.4760 0.4580 0.3260 0.071 Uiso 0.18 1 calc R U P A 1
C23 C 0.1989(9) 0.5988(9) 0.3783(2) 0.0723(13) Uani 1 1 d . . . A 1
H23 H 0.2179 0.4873 0.4158 0.087 Uiso 1 1 calc R U . A 1
C24 C 0.0176(8) 0.7822(9) 0.3750(3) 0.0742(15) Uani 1 1 d . . . A 1
H24 H -0.0884 0.7953 0.4111 0.089 Uiso 0.12 1 calc R U P A 1
C25 C -0.0144(8) 0.9463(8) 0.3210(3) 0.0691(15) Uani 1 1 d . . . A 1
H25 H -0.1412 1.0687 0.3200 0.083 Uiso 1 1 calc R U . A 1
C26 C 0.1434(7) 0.9297(8) 0.2676(2) 0.0630(12) Uani 1 1 d . . . A 1
H26 H 0.1233 1.0426 0.2305 0.076 Uiso 0.94 1 calc R U P A 1
F22 F 0.5313(4) 0.4021(5) 0.32878(14) 0.0795(9) Uani 0.82 1 d . . P B 2
F24 F -0.1369(5) 0.8031(6) 0.42853(16) 0.1065(12) Uani 0.88 1 d . . P C 2
F14B F 1.248(5) 0.732(5) -0.0337(13) 0.138(10) Uani 0.12 1 d . U P D 2
F16B F 0.995(5) 0.383(4) 0.1775(14) 0.123(8) Uani 0.12 1 d . U P E 2
F26B F 0.137(7) 1.092(7) 0.2187(18) 0.064(9) Uani 0.06 1 d . U P F 2
O1B O 0.626(5) 0.367(5) 0.2109(14) 0.091(7) Uani 0.12 1 d . U P A 2
C1B C 0.483(11) 0.838(11) 0.219(3) 0.081(9) Uani 0.12 1 d . U P A 2
N1B N 0.625(6) 0.621(7) 0.1792(17) 0.084(7) Uani 0.12 1 d . U P A 2
loop_
_atom_site_aniso_label
_atom_site_aniso_U_11
_atom_site_aniso_U_22
_atom_site_aniso_U_33
_atom_site_aniso_U_23
_atom_site_aniso_U_13
_atom_site_aniso_U_12
O1 0.105(3) 0.0243(15) 0.094(2) -0.0028(17) 0.0278(18) 0.0054(16)
C1 0.062(3) 0.039(3) 0.070(4) -0.001(3) -0.014(3) -0.007(3)
N1 0.055(3) 0.033(2) 0.069(3) -0.002(2) 0.000(2) 0.009(2)
C11 0.059(3) 0.059(3) 0.070(3) -0.017(3) 0.009(3) -0.005(2)
C12 0.090(4) 0.064(3) 0.066(4) 0.006(3) 0.001(3) 0.001(2)
C13 0.093(4) 0.081(3) 0.065(3) -0.008(3) 0.009(3) -0.014(3)
C14 0.075(4) 0.086(4) 0.081(4) -0.015(3) 0.020(3) -0.009(3)
C15 0.067(3) 0.058(3) 0.112(5) -0.020(3) -0.017(3) 0.015(2)
C16 0.090(4) 0.052(3) 0.065(3) 0.001(3) 0.003(3) -0.009(3)
C21 0.046(3) 0.058(3) 0.055(3) -0.007(3) 0.006(3) 0.000(2)
C22 0.052(3) 0.055(3) 0.070(4) -0.011(3) -0.004(3) 0.016(2)
C23 0.092(4) 0.064(3) 0.061(3) 0.007(3) -0.002(3) -0.011(3)
C24 0.062(3) 0.068(3) 0.093(5) -0.021(3) 0.017(3) -0.002(3)
C25 0.063(3) 0.044(3) 0.100(4) -0.014(3) 0.000(3) 0.013(2)
C26 0.053(3) 0.053(3) 0.083(4) -0.002(3) 0.005(3) 0.010(2)
F22 0.081(2) 0.0683(17) 0.089(2) 0.0120(14) 0.0057(15) 0.0319(16)
F24 0.099(2) 0.120(3) 0.101(2) -0.012(2) 0.047(2) 0.0095(19)
F14B 0.151(19) 0.14(2) 0.124(17) 0.010(15) 0.041(18) 0.037(15)
F16B 0.112(16) 0.086(13) 0.170(18) 0.049(13) -0.067(13) 0.003(12)
F26B 0.08(2) 0.057(15) 0.053(18) 0.033(15) -0.008(16) 0.027(16)
O1B 0.076(14) 0.074(12) 0.123(16) 0.019(12) -0.013(12) 0.022(12)
C1B 0.083(13) 0.073(12) 0.086(13) -0.007(11) -0.004(11) 0.001(11)
N1B 0.083(11) 0.076(11) 0.093(11) -0.009(9) 0.001(10) -0.003(10)
loop_
_atom_type_symbol
_atom_type_description
_atom_type_scat_dispersion_real
_atom_type_scat_dispersion_imag
_atom_type_scat_source
C C 0.0033 0.0016 'International Tables Vol C Tables 4.2.6.8 and 6.1.1.4'
H H 0.0000 0.0000 'International Tables Vol C Tables 4.2.6.8 and 6.1.1.4'
N N 0.0061 0.0033 'International Tables Vol C Tables 4.2.6.8 and 6.1.1.4'
O O 0.0106 0.0060 'International Tables Vol C Tables 4.2.6.8 and 6.1.1.4'
F F 0.0171 0.0103 'International Tables Vol C Tables 4.2.6.8 and 6.1.1.4'
loop_
_geom_angle_atom_site_label_1
_geom_angle_atom_site_label_2
_geom_angle_atom_site_label_3
_geom_angle
O1 C1 N1 123.6(5)
O1 C1 C11 120.7(4)
N1 C1 C11 115.6(4)
C1 N1 C21 123.4(4)
C1 N1 H1 118.3
C21 N1 H1 118.3
C12 C11 C16 119.5(4)
C12 C11 C1 116.9(4)
C16 C11 C1 123.5(4)
C11 C12 C13 121.8(4)
C11 C12 H12 119.1
C13 C12 H12 119.1
C12 C13 C14 120.6(5)
C12 C13 H13 119.7
C14 C13 H13 119.7
C13 C14 C15 118.5(4)
C13 C14 H14 120.8
C15 C14 H14 120.8
C16 C15 C14 119.4(4)
C16 C15 H15 120.3
C14 C15 H15 120.3
C11 C16 C15 120.2(4)
C11 C16 H16 119.9
C15 C16 H16 119.9
C22 C21 C26 117.2(4)
C22 C21 N1 117.8(4)
C26 C21 N1 124.8(4)
C23 C22 C21 122.9(4)
C23 C22 H22 118.5
C21 C22 H22 118.5
C24 C23 C22 117.6(5)
C24 C23 H23 121.2
C22 C23 H23 121.2
C25 C24 C23 122.4(5)
C25 C24 H24 118.8
C23 C24 H24 118.8
C24 C25 C26 119.1(4)
C24 C25 H25 120.5
C26 C25 H25 120.5
C25 C26 C21 120.7(4)
C25 C26 H26 119.6
C21 C26 H26 119.6
O1B N1B C1B 114(4)
loop_
_geom_bond_atom_site_label_1
_geom_bond_atom_site_label_2
_geom_bond_distance
O1 C1 1.231(5)
C1 N1 1.314(6)
C1 C11 1.544(6)
N1 C21 1.411(6)
N1 H1 0.8600
C11 C12 1.343(5)
C11 C16 1.357(5)
C12 C13 1.343(5)
C12 H12 0.9300
C13 C14 1.368(6)
C13 H13 0.9300
C14 C15 1.390(6)
C14 H14 0.9300
C15 C16 1.380(5)
C15 H15 0.9300
C16 H16 0.9300
C21 C1B 1.37(7)
C21 C22 1.374(5)
C21 C26 1.383(5)
C22 C23 1.364(5)
C22 H22 0.9300
C23 C24 1.358(6)
C23 H23 0.9300
C24 C25 1.352(6)
C24 H24 0.9300
C25 C26 1.377(5)
C25 H25 0.9300
C26 H26 0.9300
O1B N1B 1.41(4)
C1B N1B 1.56(5)
loop_
_geom_hbond_atom_site_label_D
_geom_hbond_atom_site_label_H
_geom_hbond_atom_site_label_A
_geom_hbond_distance_DH
_geom_hbond_distance_HA
_geom_hbond_distance_DA
_geom_hbond_angle_DHA
_geom_hbond_site_symmetry_A
_geom_hbond_publ_flag
N1 H1 O1 0.86 2.14 2.948(5) 157 1_545 yes
C26 H26 O1 0.93 2.40 2.854(5) 110 . yes
C25 H25 F22 0.93 2.47 3.393(5) 175 1_465 yes
loop_
_geom_torsion_atom_site_label_1
_geom_torsion_atom_site_label_2
_geom_torsion_atom_site_label_3
_geom_torsion_atom_site_label_4
_geom_torsion
O1 C1 N1 C21 -1.3(6)
C11 C1 N1 C21 176.5(4)
O1 C1 C11 C12 -29.1(6)
N1 C1 C11 C12 153.0(4)
O1 C1 C11 C16 147.4(4)
N1 C1 C11 C16 -30.5(6)
C16 C11 C12 C13 -2.4(7)
C1 C11 C12 C13 174.3(4)
C11 C12 C13 C14 0.3(7)
C12 C13 C14 C15 0.9(6)
C13 C14 C15 C16 -0.1(6)
C12 C11 C16 C15 3.1(6)
C1 C11 C16 C15 -173.3(4)
C14 C15 C16 C11 -1.9(6)
C1 N1 C21 C22 -148.9(4)
C1 N1 C21 C26 37.0(6)
C26 C21 C22 C23 -0.9(6)
N1 C21 C22 C23 -175.4(4)
C21 C22 C23 C24 0.7(7)
C22 C23 C24 C25 0.1(7)
C23 C24 C25 C26 -0.6(7)
C24 C25 C26 C21 0.4(6)
C22 C21 C26 C25 0.4(6)
N1 C21 C26 C25 174.5(4)
