#------------------------------------------------------------------------------
#$Date: 2016-08-07 11:18:58 +0300 (Sun, 07 Aug 2016) $
#$Revision: 185209 $
#$URL: file:///home/coder/svn-repositories/cod/cif/7/22/51/7225156.cif $
#------------------------------------------------------------------------------
#
# This file is available in the Crystallography Open Database (COD),
# http://www.crystallography.net/
#
# All data on this site have been placed in the public domain by the
# contributors.
#
data_7225156
loop_
_publ_author_name
'Nauha, Elisa'
'Naumov, Pan\<ce'
'Lusi, Matteo'
_publ_section_title
;
 Fine-tuning of a thermosalient phase transition by solid solutions
;
_journal_issue                   25
_journal_name_full               CrystEngComm
_journal_page_first              4699
_journal_paper_doi               10.1039/C6CE00762G
_journal_volume                  18
_journal_year                    2016
_chemical_formula_sum            'C10 H8 Br0.88 Cl1.12 N2 Zn'
_chemical_formula_weight         331.62
_chemical_name_systematic
;
 ?
;
_space_group_crystal_system      triclinic
_space_group_IT_number           2
_space_group_name_Hall           '-P 1'
_space_group_name_H-M_alt        'P -1'
_symmetry_space_group_name_Hall  '-P 1'
_symmetry_space_group_name_H-M   'P -1'
_atom_sites_solution_hydrogens   geom
_audit_creation_method           SHELXL-2013
_audit_update_record
;
2016-03-18 deposited with the CCDC.
2016-05-09 downloaded from the CCDC.
;
_cell_angle_alpha                113.6995(13)
_cell_angle_beta                 95.3265(14)
_cell_angle_gamma                95.9991(14)
_cell_formula_units_Z            2
_cell_length_a                   7.6883(8)
_cell_length_b                   8.8529(9)
_cell_length_c                   9.1701(9)
_cell_measurement_temperature    99(2)
_cell_volume                     562.12(10)
_computing_structure_refinement  'SHELXL-2013 (Sheldrick, 2013)'
_diffrn_ambient_temperature      99(2)
_diffrn_measured_fraction_theta_full 1.000
_diffrn_measured_fraction_theta_max 0.992
_diffrn_radiation_type           MoK\a
_diffrn_radiation_wavelength     0.71073
_diffrn_reflns_av_R_equivalents  0.0159
_diffrn_reflns_av_unetI/netI     0.0146
_diffrn_reflns_Laue_measured_fraction_full 1.000
_diffrn_reflns_Laue_measured_fraction_max 0.992
_diffrn_reflns_limit_h_max       10
_diffrn_reflns_limit_h_min       -10
_diffrn_reflns_limit_k_max       12
_diffrn_reflns_limit_k_min       -12
_diffrn_reflns_limit_l_max       12
_diffrn_reflns_limit_l_min       -12
_diffrn_reflns_number            11998
_diffrn_reflns_point_group_measured_fraction_full 1.000
_diffrn_reflns_point_group_measured_fraction_max 0.992
_diffrn_reflns_theta_full        25.242
_diffrn_reflns_theta_max         29.647
_diffrn_reflns_theta_min         2.453
_exptl_absorpt_coefficient_mu    5.546
_exptl_absorpt_correction_T_max  0.7459
_exptl_absorpt_correction_T_min  0.5621
_exptl_absorpt_correction_type   multi-scan
_exptl_absorpt_process_details   sadabs
_exptl_crystal_colour            colorless
_exptl_crystal_density_diffrn    1.959
_exptl_crystal_description       block
_exptl_crystal_F_000             324
_exptl_crystal_size_max          0.290
_exptl_crystal_size_mid          0.170
_exptl_crystal_size_min          0.150
_refine_diff_density_max         0.470
_refine_diff_density_min         -0.246
_refine_diff_density_rms         0.065
_refine_ls_extinction_method     none
_refine_ls_goodness_of_fit_ref   1.066
_refine_ls_hydrogen_treatment    constr
_refine_ls_matrix_type           full
_refine_ls_number_parameters     138
_refine_ls_number_reflns         3162
_refine_ls_number_restraints     0
_refine_ls_restrained_S_all      1.066
_refine_ls_R_factor_all          0.0202
_refine_ls_R_factor_gt           0.0175
_refine_ls_shift/su_max          0.001
_refine_ls_shift/su_mean         0.000
_refine_ls_structure_factor_coef Fsqd
_refine_ls_weighting_details
'w=1/[\s^2^(Fo^2^)+(0.0251P)^2^+0.1402P] where P=(Fo^2^+2Fc^2^)/3'
_refine_ls_weighting_scheme      calc
_refine_ls_wR_factor_gt          0.0441
_refine_ls_wR_factor_ref         0.0450
_reflns_Friedel_coverage         0.000
_reflns_number_gt                2907
_reflns_number_total             3162
_reflns_threshold_expression     'I > 2\s(I)'
_cod_data_source_file            c6ce00762g3.cif
_cod_data_source_block           1x50_100K
_cod_depositor_comments
'Adding full bibliography for 7225150--7225163.cif.'
_cod_database_code               7225156
_shelx_space_group_comment
;
The symmetry employed for this shelxl refinement is uniquely defined
by the following loop, which should always be used as a source of
symmetry information in preference to the above space-group names.
They are only intended as comments.
;
_shelx_estimated_absorpt_t_min   0.296
_shelx_estimated_absorpt_t_max   0.490
_shelxl_version_number           2013-4
_shelx_res_file
;
TITL ekn089_100Ka in P-1
CELL 0.71073   7.68830   8.85290   9.17010 113.6995  95.3265  95.9991
ZERR    2.00   0.00080   0.00090   0.00090   0.0013   0.0014   0.0014
LATT  1
SFAC C H N CL ZN BR
UNIT 20 16 4 2.238 2 1.762
ACTA
CONF
TEMP -174.010
SIZE 0.15 0.17 0.29
L.S. 10
BOND $H
LIST 4
FMAP 2
PLAN 10
EXYZ Br3 Cl3
EADP Br3 Cl3
EXYZ Br2 Cl2
EADP Br2 Cl2
WGHT    0.025100    0.140200
FVAR       0.65502   0.33508   0.54572
ZN1   5    0.770024    0.720746    0.823736    11.00000    0.01678    0.01445 =
         0.01838    0.01098    0.00540    0.00506
PART 1
BR2   6    0.531866    0.791530    0.708589    31.00000    0.01699    0.02210 =
         0.02251    0.01390    0.00371    0.00686
BR3   6    1.042761    0.827520    0.797675    21.00000    0.01634    0.02036 =
         0.02354    0.01520    0.00521    0.00361
PART 2
CL2   4    0.531866    0.791530    0.708589   -31.00000    0.01699    0.02210 =
         0.02251    0.01390    0.00371    0.00686
CL3   4    1.042761    0.827520    0.797675   -21.00000    0.01634    0.02036 =
         0.02354    0.01520    0.00521    0.00361
PART 0
N2    3    0.722316    0.699342    1.032225    11.00000    0.01286    0.01461 =
         0.01687    0.00789    0.00225    0.00131
N8    3    0.791285    0.472086    0.757721    11.00000    0.01476    0.01407 =
         0.01654    0.00856    0.00212    0.00252
C1    1    0.738406    0.548034    1.030734    11.00000    0.01026    0.01485 =
         0.01629    0.00796    0.00076    0.00092
C3    1    0.672363    0.816525    1.161461    11.00000    0.01570    0.01562 =
         0.02116    0.00666    0.00367    0.00131
AFIX  43
H3    2    0.658738    0.921741    1.160943    11.00000   -1.20000
AFIX   0
C4    1    0.640049    0.788382    1.295822    11.00000    0.01627    0.02215 =
         0.01837    0.00505    0.00470    0.00091
AFIX  43
H4    2    0.604434    0.872827    1.385698    11.00000   -1.20000
AFIX   0
C5    1    0.660717    0.634947    1.296307    11.00000    0.01806    0.02777 =
         0.01871    0.01222    0.00403    0.00104
AFIX  43
H5    2    0.641202    0.613657    1.387563    11.00000   -1.20000
AFIX   0
C6    1    0.710266    0.512220    1.162174    11.00000    0.01752    0.02057 =
         0.01963    0.01227    0.00316    0.00254
AFIX  43
H6    2    0.724605    0.406190    1.160290    11.00000   -1.20000
AFIX   0
C7    1    0.783284    0.422404    0.878818    11.00000    0.01071    0.01484 =
         0.01625    0.00875    0.00015    0.00086
C9    1    0.829275    0.366112    0.615959    11.00000    0.01960    0.01844 =
         0.01628    0.00875    0.00258    0.00294
AFIX  43
H9    2    0.836078    0.402400    0.531940    11.00000   -1.20000
AFIX   0
C10   1    0.858911    0.205668    0.587891    11.00000    0.02178    0.01571 =
         0.01872    0.00490    0.00204    0.00349
AFIX  43
H10   2    0.884799    0.132730    0.486273    11.00000   -1.20000
AFIX   0
C11   1    0.849924    0.153900    0.711589    11.00000    0.02169    0.01301 =
         0.02436    0.00835    0.00057    0.00376
AFIX  43
H11   2    0.869621    0.044532    0.695591    11.00000   -1.20000

AFIX   0
C12   1    0.811884    0.263339    0.859006    11.00000    0.01767    0.01650 =
         0.02143    0.01160   -0.00012    0.00222
AFIX  43
H12   2    0.805531    0.229904    0.944933    11.00000   -1.20000

AFIX   0
HKLF 4

REM  ekn089_100Ka in P-1
REM R1 =  0.0175 for    2907 Fo > 4sig(Fo)  and  0.0202 for all    3162 data
REM    138 parameters refined using      0 restraints

END

WGHT      0.0251      0.1402

REM Highest difference peak  0.470,  deepest hole -0.246,  1-sigma level  0.065
Q1    1   0.7650  0.4886  0.9572  11.00000  0.05    0.47
Q2    1   0.5046  0.6873  0.6563  11.00000  0.05    0.43
Q3    1   0.7094  0.5179  1.0843  11.00000  0.05    0.41
Q4    1   0.6783  0.8013  1.2347  11.00000  0.05    0.39
Q5    1   0.8356  0.2787  0.6037  11.00000  0.05    0.38
Q6    1   0.7322  0.6336  1.0425  11.00000  0.05    0.38
Q7    1   0.6936  0.5773  1.2284  11.00000  0.05    0.37
Q8    1   0.6401  0.7007  1.2861  11.00000  0.05    0.37
Q9    1   0.8070  0.3539  0.8817  11.00000  0.05    0.37
Q10   1   0.8235  0.4208  0.6973  11.00000  0.05    0.37
;
_shelx_res_checksum              59690
loop_
_space_group_symop_operation_xyz
'x, y, z'
'-x, -y, -z'
loop_
_atom_site_label
_atom_site_type_symbol
_atom_site_fract_x
_atom_site_fract_y
_atom_site_fract_z
_atom_site_U_iso_or_equiv
_atom_site_adp_type
_atom_site_occupancy
_atom_site_site_symmetry_order
_atom_site_calc_flag
_atom_site_refinement_flags_posn
_atom_site_refinement_flags_adp
_atom_site_refinement_flags_occupancy
_atom_site_disorder_assembly
_atom_site_disorder_group
Zn1 Zn 0.77002(2) 0.72075(2) 0.82374(2) 0.01478(5) Uani 1 1 d . . . . .
Br2 Br 0.53187(2) 0.79153(2) 0.70859(2) 0.01866(7) Uani 0.5457(15) 1 d . . P A
1
Br3 Br 1.04276(3) 0.82752(3) 0.79767(3) 0.01788(8) Uani 0.3351(15) 1 d . . P A
1
Cl2 Cl 0.53187(2) 0.79153(2) 0.70859(2) 0.01866(7) Uani 0.4543(15) 1 d . . P A
2
Cl3 Cl 1.04276(3) 0.82752(3) 0.79767(3) 0.01788(8) Uani 0.6649(15) 1 d . . P A
2
N2 N 0.72232(14) 0.69934(14) 1.03222(13) 0.0144(2) Uani 1 1 d . . . . .
N8 N 0.79129(14) 0.47209(14) 0.75772(13) 0.0144(2) Uani 1 1 d . . . . .
C1 C 0.73841(16) 0.54803(16) 1.03073(16) 0.0135(2) Uani 1 1 d . . . . .
C3 C 0.67236(17) 0.81652(17) 1.16146(17) 0.0178(3) Uani 1 1 d . . . . .
H3 H 0.6587 0.9217 1.1609 0.021 Uiso 1 1 calc R U . . .
C4 C 0.64005(18) 0.78838(19) 1.29582(17) 0.0200(3) Uani 1 1 d . . . . .
H4 H 0.6044 0.8728 1.3857 0.024 Uiso 1 1 calc R U . . .
C5 C 0.66072(18) 0.63495(19) 1.29631(17) 0.0208(3) Uani 1 1 d . . . . .
H5 H 0.6412 0.6137 1.3876 0.025 Uiso 1 1 calc R U . . .
C6 C 0.71027(17) 0.51222(18) 1.16217(17) 0.0180(3) Uani 1 1 d . . . . .
H6 H 0.7246 0.4062 1.1603 0.022 Uiso 1 1 calc R U . . .
C7 C 0.78328(16) 0.42240(16) 0.87882(15) 0.0134(2) Uani 1 1 d . . . . .
C9 C 0.82928(18) 0.36611(17) 0.61596(16) 0.0176(3) Uani 1 1 d . . . . .
H9 H 0.8361 0.4024 0.5319 0.021 Uiso 1 1 calc R U . . .
C10 C 0.85891(19) 0.20567(18) 0.58789(17) 0.0195(3) Uani 1 1 d . . . . .
H10 H 0.8848 0.1327 0.4863 0.023 Uiso 1 1 calc R U . . .
C11 C 0.84992(19) 0.15390(17) 0.71159(18) 0.0196(3) Uani 1 1 d . . . . .
H11 H 0.8696 0.0445 0.6956 0.024 Uiso 1 1 calc R U . . .
C12 C 0.81188(18) 0.26334(17) 0.85901(17) 0.0176(3) Uani 1 1 d . . . . .
H12 H 0.8055 0.2299 0.9449 0.021 Uiso 1 1 calc R U . . .
loop_
_atom_site_aniso_label
_atom_site_aniso_U_11
_atom_site_aniso_U_22
_atom_site_aniso_U_33
_atom_site_aniso_U_23
_atom_site_aniso_U_13
_atom_site_aniso_U_12
Zn1 0.01678(8) 0.01445(9) 0.01838(9) 0.01098(6) 0.00540(6) 0.00506(6)
Br2 0.01699(10) 0.02210(11) 0.02251(10) 0.01390(8) 0.00371(7) 0.00686(7)
Br3 0.01634(11) 0.02036(13) 0.02354(12) 0.01520(10) 0.00521(8) 0.00361(8)
Cl2 0.01699(10) 0.02210(11) 0.02251(10) 0.01390(8) 0.00371(7) 0.00686(7)
Cl3 0.01634(11) 0.02036(13) 0.02354(12) 0.01520(10) 0.00521(8) 0.00361(8)
N2 0.0129(5) 0.0146(5) 0.0169(5) 0.0079(4) 0.0022(4) 0.0013(4)
N8 0.0148(5) 0.0141(5) 0.0165(5) 0.0086(4) 0.0021(4) 0.0025(4)
C1 0.0103(5) 0.0149(6) 0.0163(6) 0.0080(5) 0.0008(4) 0.0009(4)
C3 0.0157(6) 0.0156(6) 0.0212(7) 0.0067(5) 0.0037(5) 0.0013(5)
C4 0.0163(6) 0.0222(7) 0.0184(6) 0.0051(6) 0.0047(5) 0.0009(5)
C5 0.0181(6) 0.0278(8) 0.0187(6) 0.0122(6) 0.0040(5) 0.0010(5)
C6 0.0175(6) 0.0206(7) 0.0196(6) 0.0123(6) 0.0032(5) 0.0025(5)
C7 0.0107(5) 0.0148(6) 0.0163(6) 0.0088(5) 0.0001(4) 0.0009(4)
C9 0.0196(6) 0.0184(7) 0.0163(6) 0.0088(5) 0.0026(5) 0.0029(5)
C10 0.0218(6) 0.0157(6) 0.0187(6) 0.0049(5) 0.0020(5) 0.0035(5)
C11 0.0217(6) 0.0130(6) 0.0244(7) 0.0083(5) 0.0006(5) 0.0038(5)
C12 0.0177(6) 0.0165(6) 0.0214(6) 0.0116(5) -0.0001(5) 0.0022(5)
loop_
_atom_type_symbol
_atom_type_description
_atom_type_scat_dispersion_real
_atom_type_scat_dispersion_imag
_atom_type_scat_source
C C 0.0033 0.0016 'International Tables Vol C Tables 4.2.6.8 and 6.1.1.4'
H H 0.0000 0.0000 'International Tables Vol C Tables 4.2.6.8 and 6.1.1.4'
N N 0.0061 0.0033 'International Tables Vol C Tables 4.2.6.8 and 6.1.1.4'
Cl Cl 0.1484 0.1585 'International Tables Vol C Tables 4.2.6.8 and 6.1.1.4'
Zn Zn 0.2839 1.4301 'International Tables Vol C Tables 4.2.6.8 and 6.1.1.4'
Br Br -0.2901 2.4595 'International Tables Vol C Tables 4.2.6.8 and 6.1.1.4'
loop_
_geom_angle_atom_site_label_1
_geom_angle_atom_site_label_2
_geom_angle_atom_site_label_3
_geom_angle
N2 Zn1 N8 80.31(4)
N2 Zn1 Br3 121.49(3)
N8 Zn1 Br3 102.10(3)
N2 Zn1 Br2 111.76(3)
N8 Zn1 Br2 119.58(3)
Br3 Zn1 Br2 116.337(11)
C3 N2 C1 119.33(12)
C3 N2 Zn1 126.46(9)
C1 N2 Zn1 114.16(9)
C9 N8 C7 119.34(11)
C9 N8 Zn1 126.30(9)
C7 N8 Zn1 113.97(9)
N2 C1 C6 121.63(12)
N2 C1 C7 115.71(11)
C6 C1 C7 122.65(12)
N2 C3 C4 121.99(13)
N2 C3 H3 119.0
C4 C3 H3 119.0
C5 C4 C3 118.81(13)
C5 C4 H4 120.6
C3 C4 H4 120.6
C4 C5 C6 119.55(13)
C4 C5 H5 120.2
C6 C5 H5 120.2
C5 C6 C1 118.66(13)
C5 C6 H6 120.7
C1 C6 H6 120.7
N8 C7 C12 121.35(12)
N8 C7 C1 115.37(11)
C12 C7 C1 123.27(12)
N8 C9 C10 122.32(13)
N8 C9 H9 118.8
C10 C9 H9 118.8
C9 C10 C11 118.52(13)
C9 C10 H10 120.7
C11 C10 H10 120.7
C10 C11 C12 119.48(12)
C10 C11 H11 120.3
C12 C11 H11 120.3
C7 C12 C11 119.00(13)
C7 C12 H12 120.5
C11 C12 H12 120.5
loop_
_geom_bond_atom_site_label_1
_geom_bond_atom_site_label_2
_geom_bond_distance
Zn1 N2 2.0573(11)
Zn1 N8 2.0643(11)
Zn1 Br3 2.2821(3)
Zn1 Br2 2.2963(3)
N2 C3 1.3445(17)
N2 C1 1.3528(17)
N8 C9 1.3427(17)
N8 C7 1.3528(16)
C1 C6 1.3934(18)
C1 C7 1.4902(18)
C3 C4 1.390(2)
C3 H3 0.9500
C4 C5 1.386(2)
C4 H4 0.9500
C5 C6 1.392(2)
C5 H5 0.9500
C6 H6 0.9500
C7 C12 1.3895(18)
C9 C10 1.3858(19)
C9 H9 0.9500
C10 C11 1.388(2)
C10 H10 0.9500
C11 C12 1.390(2)
C11 H11 0.9500
C12 H12 0.9500
loop_
_geom_torsion_atom_site_label_1
_geom_torsion_atom_site_label_2
_geom_torsion_atom_site_label_3
_geom_torsion_atom_site_label_4
_geom_torsion
C3 N2 C1 C6 -2.20(19)
Zn1 N2 C1 C6 -179.87(10)
C3 N2 C1 C7 176.31(11)
Zn1 N2 C1 C7 -1.36(14)
C1 N2 C3 C4 1.4(2)
Zn1 N2 C3 C4 178.73(10)
N2 C3 C4 C5 0.2(2)
C3 C4 C5 C6 -1.0(2)
C4 C5 C6 C1 0.2(2)
N2 C1 C6 C5 1.4(2)
C7 C1 C6 C5 -177.00(12)
C9 N8 C7 C12 -0.64(19)
Zn1 N8 C7 C12 -173.94(10)
C9 N8 C7 C1 -179.38(11)
Zn1 N8 C7 C1 7.32(14)
N2 C1 C7 N8 -4.02(17)
C6 C1 C7 N8 174.47(11)
N2 C1 C7 C12 177.26(12)
C6 C1 C7 C12 -4.2(2)
C7 N8 C9 C10 0.8(2)
Zn1 N8 C9 C10 173.16(10)
N8 C9 C10 C11 -0.4(2)
C9 C10 C11 C12 0.0(2)
N8 C7 C12 C11 0.2(2)
C1 C7 C12 C11 178.83(12)
C10 C11 C12 C7 0.1(2)
