#------------------------------------------------------------------------------
#$Date: 2016-08-07 11:34:54 +0300 (Sun, 07 Aug 2016) $
#$Revision: 185274 $
#$URL: file:///home/coder/svn-repositories/cod/cif/7/22/53/7225380.cif $
#------------------------------------------------------------------------------
#
# This file is available in the Crystallography Open Database (COD),
# http://www.crystallography.net/
#
# All data on this site have been placed in the public domain by the
# contributors.
#
data_7225380
loop_
_publ_author_name
'Bujak, Maciej'
'Podsiad\/lo, Marcin'
'Katrusiak, Andrzej'
_publ_section_title
;
 Halogen and hydrogen bonds in compressed pentachloroethane
;
_journal_issue                   28
_journal_name_full               CrystEngComm
_journal_page_first              5393
_journal_paper_doi               10.1039/C6CE01025C
_journal_volume                  18
_journal_year                    2016
_chemical_formula_moiety         'C2 H Cl5'
_chemical_formula_sum            'C2 H Cl5'
_chemical_formula_weight         202.28
_chemical_melting_point          244.37
_chemical_name_systematic        pentachloroethane
_space_group_crystal_system      monoclinic
_space_group_IT_number           14
_space_group_name_Hall           '-P 2yn'
_space_group_name_H-M_alt        'P 1 21/n 1'
_symmetry_space_group_name_Hall  '-P 2yn'
_symmetry_space_group_name_H-M   'P 1 21/n 1'
_atom_sites_solution_hydrogens   difmap
_atom_sites_solution_primary     direct
_atom_sites_solution_secondary   difmap
_audit_creation_method           SHELXL-2014/7
_audit_update_record
;
2016-04-29 deposited with the CCDC.
2016-05-30 downloaded from the CCDC.
;
_cell_angle_alpha                90
_cell_angle_beta                 111.126(7)
_cell_angle_gamma                90
_cell_formula_units_Z            4
_cell_length_a                   9.5458(6)
_cell_length_b                   11.3671(6)
_cell_length_c                   6.4745(4)
_cell_measurement_reflns_used    4281
_cell_measurement_temperature    85.0(5)
_cell_measurement_theta_max      29.41
_cell_measurement_theta_min      3.32
_cell_volume                     655.32(7)
_computing_cell_refinement       'CrysAlisPro (Oxford Diffraction Ltd., 2010)'
_computing_data_collection       'CrysAlisCCD (Oxford Diffraction Ltd., 2010)'
_computing_data_reduction        'CrysAlisPro (Oxford Diffraction Ltd., 2010)'
_computing_molecular_graphics    'Mercury (Macrae at al., 2008)'
_computing_publication_material  'SHELXL-2014/7 (Sheldrick, 2014)'
_computing_structure_refinement  'SHELXL-2014/7 (Sheldrick, 2014)'
_computing_structure_solution    'SHELXS-97 (Sheldrick, 2008)'
_diffrn_ambient_temperature      85.0(5)
_diffrn_measured_fraction_theta_full 0.997
_diffrn_measured_fraction_theta_max 0.997
_diffrn_measurement_device_type  Xcalibur
_diffrn_measurement_method       \w-scans
_diffrn_radiation_type           MoK\a
_diffrn_radiation_wavelength     0.71073
_diffrn_reflns_av_R_equivalents  0.0254
_diffrn_reflns_av_unetI/netI     0.0179
_diffrn_reflns_Laue_measured_fraction_full 0.997
_diffrn_reflns_Laue_measured_fraction_max 0.997
_diffrn_reflns_limit_h_max       11
_diffrn_reflns_limit_h_min       -10
_diffrn_reflns_limit_k_max       13
_diffrn_reflns_limit_k_min       -13
_diffrn_reflns_limit_l_max       4
_diffrn_reflns_limit_l_min       -7
_diffrn_reflns_number            3347
_diffrn_reflns_point_group_measured_fraction_full 0.997
_diffrn_reflns_point_group_measured_fraction_max 0.997
_diffrn_reflns_theta_full        24.997
_diffrn_reflns_theta_max         24.997
_diffrn_reflns_theta_min         3.324
_diffrn_source                   'fine-focus sealed tube'
_exptl_absorpt_coefficient_mu    2.084
_exptl_absorpt_correction_T_max  1.00
_exptl_absorpt_correction_T_min  0.55
_exptl_absorpt_correction_type   multi-scan
_exptl_absorpt_process_details
;
Correction for absorption was made using CrysAlisPro,
CrysAlisPro, Oxford Diffraction Ltd., 2010.
;
_exptl_crystal_colour            colourless
_exptl_crystal_density_diffrn    2.050
_exptl_crystal_density_method    'not measured'
_exptl_crystal_description       irregular
_exptl_crystal_F_000             392
_exptl_crystal_size_max          0.300
_exptl_crystal_size_mid          0.250
_exptl_crystal_size_min          0.200
_refine_diff_density_max         0.503
_refine_diff_density_min         -0.395
_refine_diff_density_rms         0.097
_refine_ls_extinction_method     none
_refine_ls_goodness_of_fit_ref   1.032
_refine_ls_hydrogen_treatment    constr
_refine_ls_matrix_type           full
_refine_ls_number_parameters     64
_refine_ls_number_reflns         1158
_refine_ls_number_restraints     0
_refine_ls_restrained_S_all      1.032
_refine_ls_R_factor_all          0.0295
_refine_ls_R_factor_gt           0.0275
_refine_ls_shift/su_max          0.000
_refine_ls_shift/su_mean         0.000
_refine_ls_structure_factor_coef Fsqd
_refine_ls_weighting_details
'w=1/[\s^2^(Fo^2^)+(0.0567P)^2^+0.1825P] where P=(Fo^2^+2Fc^2^)/3'
_refine_ls_weighting_scheme      calc
_refine_ls_wR_factor_gt          0.0729
_refine_ls_wR_factor_ref         0.0739
_reflns_Friedel_coverage         0.000
_reflns_number_gt                1109
_reflns_number_total             1158
_reflns_threshold_expression     'I > 2\s(I)'
_cod_data_source_file            c6ce01025c3.cif
_cod_data_source_block           PCE_II_85K_01MPa
_cod_depositor_comments
'Adding full bibliography for 7225378--7225383.cif.'
_cod_database_code               7225380
_shelx_shelxl_version_number     2014/7
_shelx_space_group_comment
;
The symmetry employed for this shelxl refinement is uniquely defined
by the following loop, which should always be used as a source of
symmetry information in preference to the above space-group names.
They are only intended as comments.
;
_shelx_estimated_absorpt_t_min   0.574
_shelx_estimated_absorpt_t_max   0.681
loop_
_space_group_symop_operation_xyz
'x, y, z'
'-x+1/2, y+1/2, -z+1/2'
'-x, -y, -z'
'x-1/2, -y-1/2, z-1/2'
loop_
_atom_site_label
_atom_site_type_symbol
_atom_site_fract_x
_atom_site_fract_y
_atom_site_fract_z
_atom_site_U_iso_or_equiv
_atom_site_adp_type
_atom_site_occupancy
_atom_site_site_symmetry_order
_atom_site_calc_flag
_atom_site_refinement_flags_posn
_atom_site_refinement_flags_adp
C1 C 0.27756(18) 0.16400(15) 0.1127(3) 0.0131(4) Uani 1 1 d . .
Cl1 Cl 0.30263(5) 0.31474(4) 0.18744(7) 0.01759(17) Uani 1 1 d . .
Cl2 Cl 0.44343(5) 0.08560(4) 0.25486(8) 0.02016(17) Uani 1 1 d . .
Cl3 Cl 0.12907(5) 0.10821(4) 0.18615(7) 0.01638(17) Uani 1 1 d . .
C2 C 0.23357(19) 0.15477(16) -0.1400(3) 0.0142(4) Uani 1 1 d . .
H1 H 0.1430 0.2020 -0.2106 0.017 Uiso 1 1 calc R U
Cl4 Cl 0.37775(5) 0.21051(4) -0.22298(8) 0.02141(18) Uani 1 1 d . .
Cl5 Cl 0.19366(5) 0.00786(4) -0.23021(7) 0.01965(17) Uani 1 1 d . .
loop_
_atom_site_aniso_label
_atom_site_aniso_U_11
_atom_site_aniso_U_22
_atom_site_aniso_U_33
_atom_site_aniso_U_23
_atom_site_aniso_U_13
_atom_site_aniso_U_12
C1 0.0098(8) 0.0118(8) 0.0175(9) 0.0018(7) 0.0046(7) 0.0007(7)
Cl1 0.0195(3) 0.0120(3) 0.0201(3) -0.00280(16) 0.0055(2) -0.00215(15)
Cl2 0.0122(3) 0.0201(3) 0.0250(3) 0.00556(17) 0.0028(2) 0.00455(16)
Cl3 0.0143(3) 0.0174(3) 0.0206(3) -0.00002(17) 0.0102(2) -0.00157(15)
C2 0.0135(8) 0.0128(9) 0.0178(9) -0.0010(7) 0.0073(7) -0.0016(7)
Cl4 0.0251(3) 0.0187(3) 0.0272(3) 0.00064(18) 0.0175(2) -0.00413(18)
Cl5 0.0223(3) 0.0155(3) 0.0246(3) -0.00704(17) 0.0126(2) -0.00510(17)
loop_
_atom_type_symbol
_atom_type_description
_atom_type_scat_dispersion_real
_atom_type_scat_dispersion_imag
_atom_type_scat_source
C C 0.0033 0.0016 'International Tables Vol C Tables 4.2.6.8 and 6.1.1.4'
H H 0.0000 0.0000 'International Tables Vol C Tables 4.2.6.8 and 6.1.1.4'
Cl Cl 0.1484 0.1585 'International Tables Vol C Tables 4.2.6.8 and 6.1.1.4'
loop_
_geom_angle_atom_site_label_1
_geom_angle_atom_site_label_2
_geom_angle_atom_site_label_3
_geom_angle
C2 C1 Cl2 111.77(12)
C2 C1 Cl3 108.89(12)
Cl2 C1 Cl3 109.58(9)
C2 C1 Cl1 108.32(12)
Cl2 C1 Cl1 109.82(9)
Cl3 C1 Cl1 108.40(9)
C1 C2 Cl5 111.08(13)
C1 C2 Cl4 110.79(12)
Cl5 C2 Cl4 109.76(9)
C1 C2 H1 108.4
Cl5 C2 H1 108.4
Cl4 C2 H1 108.4
loop_
_geom_bond_atom_site_label_1
_geom_bond_atom_site_label_2
_geom_bond_distance
C1 C2 1.539(2)
C1 Cl2 1.7601(17)
C1 Cl3 1.7675(17)
C1 Cl1 1.7732(18)
C2 Cl5 1.7648(18)
C2 Cl4 1.7654(17)
C2 H1 0.9800
loop_
_geom_torsion_atom_site_label_1
_geom_torsion_atom_site_label_2
_geom_torsion_atom_site_label_3
_geom_torsion_atom_site_label_4
_geom_torsion
Cl2 C1 C2 Cl5 63.01(14)
Cl3 C1 C2 Cl5 -58.18(14)
Cl1 C1 C2 Cl5 -175.87(8)
Cl2 C1 C2 Cl4 -59.26(15)
Cl3 C1 C2 Cl4 179.55(8)
Cl1 C1 C2 Cl4 61.86(14)
