#------------------------------------------------------------------------------
#$Date: 2016-08-07 11:18:58 +0300 (Sun, 07 Aug 2016) $
#$Revision: 185209 $
#$URL: file:///home/coder/svn-repositories/cod/cif/7/22/51/7225153.cif $
#------------------------------------------------------------------------------
#
# This file is available in the Crystallography Open Database (COD),
# http://www.crystallography.net/
#
# All data on this site have been placed in the public domain by the
# contributors.
#
data_7225153
loop_
_publ_author_name
'Nauha, Elisa'
'Naumov, Pan\<ce'
'Lusi, Matteo'
_publ_section_title
;
 Fine-tuning of a thermosalient phase transition by solid solutions
;
_journal_issue                   25
_journal_name_full               CrystEngComm
_journal_page_first              4699
_journal_paper_doi               10.1039/C6CE00762G
_journal_volume                  18
_journal_year                    2016
_chemical_formula_sum            'C10 H8 Cl2 N2 Zn'
_chemical_formula_weight         292.45
_chemical_name_systematic
;
 ?
;
_space_group_crystal_system      triclinic
_space_group_IT_number           2
_space_group_name_Hall           '-P 1'
_space_group_name_H-M_alt        'P -1'
_symmetry_space_group_name_Hall  '-P 1'
_symmetry_space_group_name_H-M   'P -1'
_atom_sites_solution_hydrogens   geom
_audit_creation_method           SHELXL-2013
_audit_update_record
;
2016-03-18 deposited with the CCDC.
2016-05-09 downloaded from the CCDC.
;
_cell_angle_alpha                112.8348(19)
_cell_angle_beta                 94.457(2)
_cell_angle_gamma                95.707(2)
_cell_formula_units_Z            2
_cell_length_a                   7.5299(6)
_cell_length_b                   8.7931(7)
_cell_length_c                   9.0498(7)
_cell_measurement_temperature    100(2)
_cell_volume                     545.06(8)
_computing_structure_refinement  'SHELXL-2013 (Sheldrick, 2013)'
_diffrn_ambient_temperature      100(2)
_diffrn_measured_fraction_theta_full 0.999
_diffrn_measured_fraction_theta_max 0.903
_diffrn_radiation_type           MoK\a
_diffrn_radiation_wavelength     0.71073
_diffrn_reflns_av_R_equivalents  0.0242
_diffrn_reflns_av_unetI/netI     0.0285
_diffrn_reflns_Laue_measured_fraction_full 0.999
_diffrn_reflns_Laue_measured_fraction_max 0.903
_diffrn_reflns_limit_h_max       10
_diffrn_reflns_limit_h_min       -10
_diffrn_reflns_limit_k_max       12
_diffrn_reflns_limit_k_min       -12
_diffrn_reflns_limit_l_max       12
_diffrn_reflns_limit_l_min       -12
_diffrn_reflns_number            9415
_diffrn_reflns_point_group_measured_fraction_full 0.999
_diffrn_reflns_point_group_measured_fraction_max 0.903
_diffrn_reflns_theta_full        25.242
_diffrn_reflns_theta_max         31.343
_diffrn_reflns_theta_min         2.462
_exptl_absorpt_coefficient_mu    2.706
_exptl_absorpt_correction_T_max  0.7462
_exptl_absorpt_correction_T_min  0.5845
_exptl_absorpt_correction_type   multi-scan
_exptl_absorpt_process_details   sadabs
_exptl_crystal_colour            colorless
_exptl_crystal_density_diffrn    1.782
_exptl_crystal_description       needle
_exptl_crystal_F_000             292
_exptl_crystal_size_max          0.200
_exptl_crystal_size_mid          0.080
_exptl_crystal_size_min          0.060
_refine_diff_density_max         0.542
_refine_diff_density_min         -0.441
_refine_diff_density_rms         0.078
_refine_ls_extinction_method     none
_refine_ls_goodness_of_fit_ref   1.038
_refine_ls_hydrogen_treatment    constr
_refine_ls_matrix_type           full
_refine_ls_number_parameters     136
_refine_ls_number_reflns         3228
_refine_ls_number_restraints     0
_refine_ls_restrained_S_all      1.038
_refine_ls_R_factor_all          0.0309
_refine_ls_R_factor_gt           0.0244
_refine_ls_shift/su_max          0.000
_refine_ls_shift/su_mean         0.000
_refine_ls_structure_factor_coef Fsqd
_refine_ls_weighting_details
'w=1/[\s^2^(Fo^2^)+(0.0269P)^2^+0.2188P] where P=(Fo^2^+2Fc^2^)/3'
_refine_ls_weighting_scheme      calc
_refine_ls_wR_factor_gt          0.0557
_refine_ls_wR_factor_ref         0.0577
_reflns_Friedel_coverage         0.000
_reflns_number_gt                2831
_reflns_number_total             3228
_reflns_threshold_expression     'I > 2\s(I)'
_cod_data_source_file            c6ce00762g3.cif
_cod_data_source_block           1x0_100K
_cod_depositor_comments
'Adding full bibliography for 7225150--7225163.cif.'
_cod_original_cell_volume        545.06(7)
_cod_database_code               7225153
_shelx_space_group_comment
;
The symmetry employed for this shelxl refinement is uniquely defined
by the following loop, which should always be used as a source of
symmetry information in preference to the above space-group names.
They are only intended as comments.
;
_shelx_estimated_absorpt_t_min   0.614
_shelx_estimated_absorpt_t_max   0.854
_shelxl_version_number           2013-4
_shelx_res_file
;
TITL ekn049_100K in P-1
CELL 0.71073   7.52990   8.79310   9.04980 112.8348  94.4567  95.7072
ZERR    2.00   0.00060   0.00070   0.00070   0.0019   0.0020   0.0020
LATT  1
SFAC C H N CL ZN
UNIT 20 16 4 4 2
LIST 4
TEMP -173.140
ACTA
CONF
L.S. 10
BOND $H
FMAP 2
OMIT 4   1   0
PLAN 10
SIZE 0.06 0.08 0.20
WGHT    0.026900    0.218800
FVAR       0.24401
ZN1   5    0.266563    0.225407    0.325477    11.00000    0.01418    0.01350 =
         0.01465    0.01007    0.00412    0.00418
CL2   4    0.537731    0.328948    0.298304    11.00000    0.01486    0.02063 =
         0.02128    0.01521    0.00455    0.00277
CL3   4    0.033395    0.293296    0.212612    11.00000    0.01639    0.02135 =
         0.01964    0.01318    0.00289    0.00684
N1    3    0.219915    0.203182    0.537532    11.00000    0.01139    0.01265 =
         0.01439    0.00732    0.00298    0.00125
N2    3    0.287528   -0.024300    0.259298    11.00000    0.01400    0.01409 =
         0.01215    0.00812    0.00218    0.00255
C1    1    0.172282    0.320854    0.669063    11.00000    0.01300    0.01423 =
         0.01819    0.00644    0.00352    0.00119
AFIX  43
H1    2    0.159130    0.426999    0.668572    11.00000   -1.20000
AFIX   0
C2    1    0.141611    0.291872    0.806100    11.00000    0.01374    0.02075 =
         0.01439    0.00496    0.00411    0.00125
AFIX  43
H2    2    0.106716    0.376514    0.897548    11.00000   -1.20000
AFIX   0
C3    1    0.162838    0.137198    0.807027    11.00000    0.01673    0.02386 =
         0.01403    0.00990    0.00300    0.00159
AFIX  43
H3    2    0.144699    0.115352    0.900056    11.00000   -1.20000
AFIX   0
C4    1    0.210864    0.014646    0.670601    11.00000    0.01578    0.01766 =
         0.01503    0.01052    0.00174    0.00200
AFIX  43
H4    2    0.225384   -0.092111    0.668842    11.00000   -1.20000
AFIX   0
C5    1    0.237335    0.050824    0.536644    11.00000    0.00977    0.01296 =
         0.01304    0.00759    0.00155    0.00171
C6    1    0.280596   -0.074498    0.382736    11.00000    0.01015    0.01468 =
         0.01220    0.00824    0.00037    0.00030
C7    1    0.309891   -0.234690    0.363169    11.00000    0.01619    0.01430 =
         0.01611    0.00942   -0.00008    0.00171
AFIX  43
H7    2    0.305148   -0.268587    0.450661    11.00000   -1.20000
AFIX   0
C8    1    0.346209   -0.344322    0.213544    11.00000    0.01947    0.01338 =
         0.01800    0.00796    0.00123    0.00354
AFIX  43
H8    2    0.366218   -0.454279    0.197620    11.00000   -1.20000
AFIX   0
C9    1    0.352985   -0.291711    0.087568    11.00000    0.01905    0.01550 =
         0.01460    0.00560    0.00282    0.00349
AFIX  43
H9    2    0.377501   -0.364606   -0.015603    11.00000   -1.20000
AFIX   0
C10   1    0.323065   -0.130089    0.116153    11.00000    0.01675    0.01708 =
         0.01363    0.00915    0.00238    0.00245
AFIX  43
H10   2    0.328052   -0.093261    0.030596    11.00000   -1.20000
AFIX   0
HKLF 4

REM  ekn049_100K in P-1
REM R1 =  0.0244 for    2831 Fo > 4sig(Fo)  and  0.0309 for all    3228 data
REM    136 parameters refined using      0 restraints

END

WGHT      0.0269      0.2188

REM Highest difference peak  0.542,  deepest hole -0.441,  1-sigma level  0.078
Q1    1   0.2934  0.3400  0.3704  11.00000  0.05    0.54
Q2    1   0.2557 -0.0217  0.4695  11.00000  0.05    0.52
Q3    1   0.2691  0.1067  0.2904  11.00000  0.05    0.48
Q4    1   0.1390  0.2073  0.8051  11.00000  0.05    0.45
Q5    1   0.1578  0.3052  0.7422  11.00000  0.05    0.43
Q6    1   0.3346 -0.2794  0.2896  11.00000  0.05    0.41
Q7    1   0.2622 -0.1731  0.3579  11.00000  0.05    0.39
Q8    1   0.3191 -0.2223  0.1015  11.00000  0.05    0.39
Q9    1   0.3700 -0.3073  0.1643  11.00000  0.05    0.38
Q10   1   0.2290  0.1234  0.5418  11.00000  0.05    0.38
;
_shelx_res_checksum              71721
loop_
_space_group_symop_operation_xyz
'x, y, z'
'-x, -y, -z'
loop_
_atom_site_label
_atom_site_type_symbol
_atom_site_fract_x
_atom_site_fract_y
_atom_site_fract_z
_atom_site_U_iso_or_equiv
_atom_site_adp_type
_atom_site_occupancy
_atom_site_site_symmetry_order
_atom_site_calc_flag
_atom_site_refinement_flags_posn
_atom_site_refinement_flags_adp
Zn1 Zn 0.26656(2) 0.22541(2) 0.32548(2) 0.01243(6) Uani 1 1 d . .
Cl2 Cl 0.53773(5) 0.32895(5) 0.29830(5) 0.01665(9) Uani 1 1 d . .
Cl3 Cl 0.03340(5) 0.29330(5) 0.21261(5) 0.01723(9) Uani 1 1 d . .
N1 N 0.21992(18) 0.20318(17) 0.53753(16) 0.0122(3) Uani 1 1 d . .
N2 N 0.28753(18) -0.02430(17) 0.25930(16) 0.0124(3) Uani 1 1 d . .
C1 C 0.1723(2) 0.3209(2) 0.6691(2) 0.0151(3) Uani 1 1 d . .
H1 H 0.1591 0.4270 0.6686 0.018 Uiso 1 1 calc R U
C2 C 0.1416(2) 0.2919(2) 0.8061(2) 0.0169(3) Uani 1 1 d . .
H2 H 0.1067 0.3765 0.8975 0.020 Uiso 1 1 calc R U
C3 C 0.1628(2) 0.1372(2) 0.8070(2) 0.0175(3) Uani 1 1 d . .
H3 H 0.1447 0.1154 0.9001 0.021 Uiso 1 1 calc R U
C4 C 0.2109(2) 0.0146(2) 0.67060(19) 0.0150(3) Uani 1 1 d . .
H4 H 0.2254 -0.0921 0.6688 0.018 Uiso 1 1 calc R U
C5 C 0.2373(2) 0.05082(19) 0.53664(19) 0.0112(3) Uani 1 1 d . .
C6 C 0.2806(2) -0.0745(2) 0.38274(18) 0.0116(3) Uani 1 1 d . .
C7 C 0.3099(2) -0.2347(2) 0.3632(2) 0.0146(3) Uani 1 1 d . .
H7 H 0.3051 -0.2686 0.4507 0.018 Uiso 1 1 calc R U
C8 C 0.3462(2) -0.3443(2) 0.2135(2) 0.0164(3) Uani 1 1 d . .
H8 H 0.3662 -0.4543 0.1976 0.020 Uiso 1 1 calc R U
C9 C 0.3530(2) -0.2917(2) 0.0876(2) 0.0164(3) Uani 1 1 d . .
H9 H 0.3775 -0.3646 -0.0156 0.020 Uiso 1 1 calc R U
C10 C 0.3231(2) -0.1301(2) 0.11615(19) 0.0149(3) Uani 1 1 d . .
H10 H 0.3281 -0.0933 0.0306 0.018 Uiso 1 1 calc R U
loop_
_atom_site_aniso_label
_atom_site_aniso_U_11
_atom_site_aniso_U_22
_atom_site_aniso_U_33
_atom_site_aniso_U_23
_atom_site_aniso_U_13
_atom_site_aniso_U_12
Zn1 0.01418(10) 0.01350(10) 0.01465(9) 0.01007(7) 0.00412(7) 0.00418(7)
Cl2 0.01486(18) 0.0206(2) 0.02128(19) 0.01521(16) 0.00455(14) 0.00277(15)
Cl3 0.01639(18) 0.0213(2) 0.01964(19) 0.01318(16) 0.00289(14) 0.00684(15)
N1 0.0114(6) 0.0126(6) 0.0144(6) 0.0073(5) 0.0030(5) 0.0013(5)
N2 0.0140(6) 0.0141(6) 0.0121(6) 0.0081(5) 0.0022(5) 0.0026(5)
C1 0.0130(7) 0.0142(7) 0.0182(8) 0.0064(6) 0.0035(6) 0.0012(6)
C2 0.0137(7) 0.0207(8) 0.0144(7) 0.0050(6) 0.0041(6) 0.0013(6)
C3 0.0167(8) 0.0239(9) 0.0140(7) 0.0099(7) 0.0030(6) 0.0016(7)
C4 0.0158(7) 0.0177(8) 0.0150(7) 0.0105(6) 0.0017(6) 0.0020(6)
C5 0.0098(7) 0.0130(7) 0.0130(7) 0.0076(6) 0.0016(5) 0.0017(5)
C6 0.0102(7) 0.0147(7) 0.0122(7) 0.0082(6) 0.0004(5) 0.0003(6)
C7 0.0162(7) 0.0143(7) 0.0161(7) 0.0094(6) -0.0001(6) 0.0017(6)
C8 0.0195(8) 0.0134(8) 0.0180(8) 0.0080(6) 0.0012(6) 0.0035(6)
C9 0.0190(8) 0.0155(8) 0.0146(7) 0.0056(6) 0.0028(6) 0.0035(6)
C10 0.0168(7) 0.0171(8) 0.0136(7) 0.0091(6) 0.0024(6) 0.0024(6)
loop_
_atom_type_symbol
_atom_type_description
_atom_type_scat_dispersion_real
_atom_type_scat_dispersion_imag
_atom_type_scat_source
C C 0.0033 0.0016 'International Tables Vol C Tables 4.2.6.8 and 6.1.1.4'
H H 0.0000 0.0000 'International Tables Vol C Tables 4.2.6.8 and 6.1.1.4'
N N 0.0061 0.0033 'International Tables Vol C Tables 4.2.6.8 and 6.1.1.4'
Cl Cl 0.1484 0.1585 'International Tables Vol C Tables 4.2.6.8 and 6.1.1.4'
Zn Zn 0.2839 1.4301 'International Tables Vol C Tables 4.2.6.8 and 6.1.1.4'
loop_
_geom_angle_atom_site_label_1
_geom_angle_atom_site_label_2
_geom_angle_atom_site_label_3
_geom_angle
N1 Zn1 N2 80.51(5)
N1 Zn1 Cl3 112.81(4)
N2 Zn1 Cl3 118.37(4)
N1 Zn1 Cl2 120.27(4)
N2 Zn1 Cl2 102.55(4)
Cl3 Zn1 Cl2 116.683(17)
C1 N1 C5 119.44(14)
C1 N1 Zn1 126.55(11)
C5 N1 Zn1 113.99(10)
C10 N2 C6 119.52(14)
C10 N2 Zn1 126.53(11)
C6 N2 Zn1 113.62(11)
N1 C1 C2 121.88(15)
N1 C1 H1 119.1
C2 C1 H1 119.1
C3 C2 C1 118.90(16)
C3 C2 H2 120.6
C1 C2 H2 120.6
C2 C3 C4 119.37(15)
C2 C3 H3 120.3
C4 C3 H3 120.3
C3 C4 C5 118.92(15)
C3 C4 H4 120.5
C5 C4 H4 120.5
N1 C5 C4 121.47(15)
N1 C5 C6 115.71(13)
C4 C5 C6 122.79(14)
N2 C6 C7 121.16(15)
N2 C6 C5 115.69(13)
C7 C6 C5 123.14(14)
C8 C7 C6 118.97(14)
C8 C7 H7 120.5
C6 C7 H7 120.5
C9 C8 C7 119.46(15)
C9 C8 H8 120.3
C7 C8 H8 120.3
C10 C9 C8 118.36(16)
C10 C9 H9 120.8
C8 C9 H9 120.8
N2 C10 C9 122.53(15)
N2 C10 H10 118.7
C9 C10 H10 118.7
loop_
_geom_bond_atom_site_label_1
_geom_bond_atom_site_label_2
_geom_bond_distance
Zn1 N1 2.0558(13)
Zn1 N2 2.0658(14)
Zn1 Cl3 2.2103(4)
Zn1 Cl2 2.2228(5)
N1 C1 1.342(2)
N1 C5 1.3560(19)
N2 C10 1.335(2)
N2 C6 1.3538(19)
C1 C2 1.391(2)
C1 H1 0.9500
C2 C3 1.388(2)
C2 H2 0.9500
C3 C4 1.389(2)
C3 H3 0.9500
C4 C5 1.391(2)
C4 H4 0.9500
C5 C6 1.487(2)
C6 C7 1.392(2)
C7 C8 1.391(2)
C7 H7 0.9500
C8 C9 1.389(2)
C8 H8 0.9500
C9 C10 1.387(2)
C9 H9 0.9500
C10 H10 0.9500
loop_
_geom_torsion_atom_site_label_1
_geom_torsion_atom_site_label_2
_geom_torsion_atom_site_label_3
_geom_torsion_atom_site_label_4
_geom_torsion
C5 N1 C1 C2 0.6(2)
Zn1 N1 C1 C2 179.13(12)
N1 C1 C2 C3 0.7(2)
C1 C2 C3 C4 -1.1(2)
C2 C3 C4 C5 0.3(2)
C1 N1 C5 C4 -1.5(2)
Zn1 N1 C5 C4 179.83(12)
C1 N1 C5 C6 176.75(14)
Zn1 N1 C5 C6 -1.95(17)
C3 C4 C5 N1 1.0(2)
C3 C4 C5 C6 -177.09(15)
C10 N2 C6 C7 0.0(2)
Zn1 N2 C6 C7 -173.80(12)
C10 N2 C6 C5 -179.07(14)
Zn1 N2 C6 C5 7.13(17)
N1 C5 C6 N2 -3.5(2)
C4 C5 C6 N2 174.67(14)
N1 C5 C6 C7 177.43(14)
C4 C5 C6 C7 -4.4(2)
N2 C6 C7 C8 -0.2(2)
C5 C6 C7 C8 178.77(15)
C6 C7 C8 C9 0.2(2)
C7 C8 C9 C10 0.0(2)
C6 N2 C10 C9 0.3(2)
Zn1 N2 C10 C9 173.18(12)
C8 C9 C10 N2 -0.3(3)
