#------------------------------------------------------------------------------
#$Date: 2016-08-07 11:12:28 +0300 (Sun, 07 Aug 2016) $
#$Revision: 185184 $
#$URL: file:///home/coder/svn-repositories/cod/cif/7/22/56/7225670.cif $
#------------------------------------------------------------------------------
#
# This file is available in the Crystallography Open Database (COD),
# http://www.crystallography.net/
#
# All data on this site have been placed in the public domain by the
# contributors.
#
data_7225670
loop_
_publ_author_name
'Sovago, Ioana'
'Thomas, Lynne H.'
'Adam, Martin S.'
'Capelli, Silvia C.'
'Wilson, Chick C.'
'Farrugia, Louis J.'
_publ_section_title
;
 High resolution X-ray and neutron diffraction studies on molecular
 complexes of chloranilic acid and lutidines
;
_journal_issue                   30
_journal_name_full               CrystEngComm
_journal_page_first              5697
_journal_paper_doi               10.1039/C6CE01065B
_journal_volume                  18
_journal_year                    2016
_chemical_compound_source        commercial
_chemical_formula_moiety
;
C6 H Cl2 O4, C7 H10 N 
;
_chemical_formula_sum            'C13 H11 Cl2 N O4'
_chemical_formula_weight         316.13
_chemical_name_systematic
;
 ?
;
_space_group_crystal_system      triclinic
_space_group_IT_number           2
_space_group_name_Hall           '-P 1'
_space_group_name_H-M_alt        'P -1'
_symmetry_space_group_name_Hall  '-P 1'
_symmetry_space_group_name_H-M   'P -1'
_atom_sites_solution_hydrogens   geom
_atom_sites_solution_primary     direct
_atom_sites_solution_secondary   difmap
_audit_update_record
;
2016-05-04 deposited with the CCDC.
2016-06-13 downloaded from the CCDC.
;
_cell_angle_alpha                96.274(2)
_cell_angle_beta                 91.960(2)
_cell_angle_gamma                90.6090(10)
_cell_formula_units_Z            2
_cell_length_a                   5.0687(2)
_cell_length_b                   11.2561(4)
_cell_length_c                   11.6281(3)
_cell_measurement_reflns_used    13978
_cell_measurement_temperature    100(2)
_cell_measurement_theta_max      50.44
_cell_measurement_theta_min      2
_cell_measurement_wavelength     0.71073
_cell_volume                     659.00(4)
_computing_cell_refinement       'HKL Scalepack (Otwinowski & Minor 1997)'
_computing_data_collection       'Collect (Bruker AXS BV, 1997-2004)'
_computing_data_reduction
'HKL Denzo and Scalepack (Otwinowski & Minor 1997)'
_computing_molecular_graphics    'Ortep-3 for Windows (Farrugia, 1997)'
_computing_publication_material  'WinGX publication routines (Farrugia, 1999)'
_computing_structure_refinement  'SHELXL-97 (Sheldrick, 2008)'
_computing_structure_solution    'SHELXS-97 (Sheldrick, 2008)'
_diffrn_ambient_temperature      100(2)
_diffrn_detector                 'CCD plate'
_diffrn_detector_area_resol_mean 9
_diffrn_measured_fraction_theta_full 0.984
_diffrn_measured_fraction_theta_max 0.984
_diffrn_measurement_device       '95mm CCD camera on \k-goniostat'
_diffrn_measurement_device_type  KappaCCD
_diffrn_measurement_method       'CCD rotation images, thick slices'
_diffrn_orient_matrix_type       'by Bruker AXS Collect from scalepack cell'
_diffrn_orient_matrix_UB_11      0.344261E-1
_diffrn_orient_matrix_UB_12      -0.777945E-1
_diffrn_orient_matrix_UB_13      -0.468051E-1
_diffrn_orient_matrix_UB_21      -0.1902439
_diffrn_orient_matrix_UB_22      -0.233391E-1
_diffrn_orient_matrix_UB_23      0.36180E-2
_diffrn_orient_matrix_UB_31      -0.400009E-1
_diffrn_orient_matrix_UB_32      0.372261E-1
_diffrn_orient_matrix_UB_33      -0.727386E-1
_diffrn_radiation_monochromator  graphite
_diffrn_radiation_probe          x-ray
_diffrn_radiation_type           MoK\a
_diffrn_radiation_wavelength     0.71073
_diffrn_reflns_av_R_equivalents  0.0199
_diffrn_reflns_av_unetI/netI     0.0259
_diffrn_reflns_limit_h_max       10
_diffrn_reflns_limit_h_min       -10
_diffrn_reflns_limit_k_max       24
_diffrn_reflns_limit_k_min       -24
_diffrn_reflns_limit_l_max       24
_diffrn_reflns_limit_l_min       -22
_diffrn_reflns_number            13978
_diffrn_reflns_reduction_process
;
 Scaled and merged with Sortav
 R.H. Blessing, (1987) Cryst. Rev. 1, 3-58
 R.H. Blessing, (1989) J. Appl. Cryst. 22, 396-397
;
_diffrn_reflns_theta_full        50.66
_diffrn_reflns_theta_max         50.66
_diffrn_reflns_theta_min         2.39
_diffrn_source                   'Enraf Nonius FR590'
_exptl_absorpt_coefficient_mu    0.504
_exptl_absorpt_correction_T_max  0.7495
_exptl_absorpt_correction_T_min  0.5458
_exptl_absorpt_correction_type   multi-scan
_exptl_absorpt_process_details   'SADABS, Bruker(2001)'
_exptl_crystal_colour            red
_exptl_crystal_density_diffrn    1.593
_exptl_crystal_density_method    'not measured'
_exptl_crystal_description       prism
_exptl_crystal_F_000             324
_exptl_crystal_size_max          0.41
_exptl_crystal_size_mid          0.20
_exptl_crystal_size_min          0.17
_refine_diff_density_max         0.642
_refine_diff_density_min         -0.406
_refine_diff_density_rms         0.064
_refine_ls_extinction_method     none
_refine_ls_goodness_of_fit_ref   1.039
_refine_ls_hydrogen_treatment    mixed
_refine_ls_matrix_type           full
_refine_ls_number_parameters     225
_refine_ls_number_reflns         13978
_refine_ls_number_restraints     0
_refine_ls_restrained_S_all      1.039
_refine_ls_R_factor_all          0.0292
_refine_ls_R_factor_gt           0.0247
_refine_ls_shift/su_max          0.004
_refine_ls_shift/su_mean         0
_refine_ls_structure_factor_coef Fsqd
_refine_ls_weighting_details
'calc w=1/[\s^2^(Fo^2^)+(0.0468P)^2^+0.0233P] where P=(Fo^2^+2Fc^2^)/3'
_refine_ls_weighting_scheme      calc
_refine_ls_wR_factor_gt          0.0763
_refine_ls_wR_factor_ref         0.0786
_reflns_number_gt                12202
_reflns_number_total             13978
_reflns_threshold_expression     >2\s(I)
_iucr_refine_instructions_details
;
TITL 24lu1to1_shelx
CELL  0.71073   5.0687  11.2561  11.6281   96.274   91.960   90.609
ZERR     2.00   0.0002   0.0004   0.0003    0.002    0.002    0.001
LATT   1
SFAC  CL   O    N    C    H
UNIT  4    8    2    26   22
MERG   2
MPLA   6  N125 C121 C122 C123 C124 C126
MPLA  6 C114 C113 C113 C114 C116 C116
FMAP   2
PLAN   20
ACTA
BOND   $H
CONF
LIST   4
L.S.  10
WGHT    0.046800    0.023300
FVAR       1.17995
CL1   1    0.644627    0.890467    0.089341    11.00000    0.01480    0.01353 =
         0.01574    0.00258    0.00440   -0.00125
CL2   1   -0.229718    0.573319    0.295079    11.00000    0.01345    0.01487 =
         0.01936    0.00495    0.00398   -0.00053
O2    2    0.270625    0.968070    0.278198    11.00000    0.01447    0.01120 =
         0.02036   -0.00346    0.00348    0.00018
O3    2   -0.101696    0.831647    0.359639    11.00000    0.01683    0.01689 =
         0.01511   -0.00091    0.00670    0.00185
O5    2    0.158525    0.495685    0.114798    11.00000    0.01919    0.01045 =
         0.01585   -0.00080    0.00452   -0.00077
O6    2    0.498754    0.633892    0.021507    11.00000    0.02267    0.01308 =
         0.01501   -0.00078    0.00846    0.00209
N125  3   -0.150074    1.107991    0.323243    11.00000    0.01335    0.01248 =
         0.01207    0.00070    0.00207    0.00154
C121  4   -0.468907    1.200117    0.446562    11.00000    0.01516    0.01573 =
         0.01284    0.00129    0.00367    0.00184
C122  4   -0.532643    1.277315    0.363058    11.00000    0.01214    0.01351 =
         0.01424    0.00047    0.00136    0.00126
C123  4   -0.399482    1.265140    0.259288    11.00000    0.01414    0.01394 =
         0.01336    0.00225    0.00129    0.00112
C124  4   -0.203575    1.180169    0.240484    11.00000    0.01286    0.01315 =
         0.01142    0.00071    0.00192   -0.00035
C126  4   -0.278684    1.114985    0.423444    11.00000    0.01625    0.01442 =
         0.01210    0.00223    0.00260    0.00219
C22   4   -0.737679    1.371707    0.385019    11.00000    0.01586    0.01749 =
         0.02154   -0.00019    0.00177    0.00480
C24   4   -0.046851    1.167019    0.133062    11.00000    0.01767    0.01892 =
         0.01331    0.00116    0.00477   -0.00083
C111  4    0.407094    0.806286    0.148247    11.00000    0.01204    0.01048 =
         0.01194    0.00063    0.00275    0.00029
C112  4    0.251783    0.860847    0.235448    11.00000    0.01108    0.01059 =
         0.01241   -0.00046    0.00166    0.00096
C113  4    0.036087    0.784025    0.283742    11.00000    0.01152    0.01221 =
         0.01134    0.00038    0.00219    0.00131
C114  4    0.009071    0.658514    0.238540    11.00000    0.01178    0.01156 =
         0.01322    0.00156    0.00266    0.00020
C115  4    0.170043    0.610259    0.155318    11.00000    0.01337    0.01037 =
         0.01158    0.00069    0.00166    0.00039
C116  4    0.374114    0.685285    0.102608    11.00000    0.01373    0.01040 =
         0.01099    0.00056    0.00273    0.00115
H121  5   -0.551889    1.202522    0.518915    11.00000    0.02726
H123  5   -0.436301    1.321661    0.202049    11.00000    0.02221
H125  5   -0.007856    1.048560    0.312083    11.00000    0.04115
H126  5   -0.237215    1.055848    0.473033    11.00000    0.02210
H22A  5   -0.825258    1.390725    0.310657    11.00000    0.03636
H22B  5   -0.655235    1.445790    0.423938    11.00000    0.04275
H22C  5   -0.884703    1.340621    0.439387    11.00000    0.02883
H24A  5    0.101087    1.113329    0.139842    11.00000    0.02853
H24B  5   -0.163037    1.131881    0.063371    11.00000    0.03385
H24C  5    0.012582    1.244717    0.117684    11.00000    0.03728
H5    5    0.284890    0.483469    0.061152    11.00000    0.05042
HKLF    4
REM  24lu1to1_shelx
REM R1 =  0.0247 for  12202 Fo > 4sig(Fo)  and  0.0292 for all  13978 data
REM    225 parameters refined using      0 restraints
END
;
_cod_data_source_file            c6ce01065b3.cif
_cod_data_source_block           1_(2,4)_shelx
_cod_depositor_comments
'Adding full bibliography for 7225667--7225698.cif.'
_cod_database_code               7225670
loop_
_symmetry_equiv_pos_as_xyz
'x, y, z'
'-x, -y, -z'
loop_
_atom_site_label
_atom_site_type_symbol
_atom_site_fract_x
_atom_site_fract_y
_atom_site_fract_z
_atom_site_U_iso_or_equiv
_atom_site_adp_type
_atom_site_occupancy
_atom_site_symmetry_multiplicity
_atom_site_calc_flag
Cl1 Cl 0.644627(15) 0.890467(7) 0.089341(7) 0.01454(2) Uani 1 1 d
Cl2 Cl -0.229718(15) 0.573319(7) 0.295079(7) 0.01559(2) Uani 1 1 d
O2 O 0.27063(5) 0.96807(2) 0.27820(2) 0.01566(4) Uani 1 1 d
O3 O -0.10170(5) 0.83165(2) 0.35964(2) 0.01632(4) Uani 1 1 d
O5 O 0.15853(5) 0.49569(2) 0.11480(2) 0.01525(3) Uani 1 1 d
O6 O 0.49875(6) 0.63389(2) 0.02151(2) 0.01690(4) Uani 1 1 d
N125 N -0.15007(5) 1.10799(2) 0.32324(2) 0.01263(3) Uani 1 1 d
C121 C -0.46891(6) 1.20012(3) 0.44656(3) 0.01451(4) Uani 1 1 d
C122 C -0.53264(6) 1.27732(3) 0.36306(3) 0.01334(4) Uani 1 1 d
C123 C -0.39948(6) 1.26514(3) 0.25929(3) 0.01373(4) Uani 1 1 d
C124 C -0.20357(6) 1.18017(3) 0.24048(2) 0.01250(3) Uani 1 1 d
C126 C -0.27868(6) 1.11498(3) 0.42344(3) 0.01414(4) Uani 1 1 d
C22 C -0.73768(7) 1.37171(3) 0.38502(3) 0.01841(5) Uani 1 1 d
C24 C -0.04685(7) 1.16702(3) 0.13306(3) 0.01659(4) Uani 1 1 d
C111 C 0.40709(5) 0.80629(2) 0.14825(2) 0.01148(3) Uani 1 1 d
C112 C 0.25178(5) 0.86085(2) 0.23545(2) 0.01145(3) Uani 1 1 d
C113 C 0.03609(5) 0.78402(2) 0.28374(2) 0.01171(3) Uani 1 1 d
C114 C 0.00907(5) 0.65851(2) 0.23854(2) 0.01212(3) Uani 1 1 d
C115 C 0.17004(6) 0.61026(2) 0.15532(2) 0.01178(3) Uani 1 1 d
C116 C 0.37411(6) 0.68529(2) 0.10261(2) 0.01169(3) Uani 1 1 d
H121 H -0.5519(18) 1.2025(8) 0.5189(8) 0.027(2) Uiso 1 1 d
H123 H -0.4363(17) 1.3217(7) 0.2020(7) 0.0222(19) Uiso 1 1 d
H125 H -0.008(2) 1.0486(10) 0.3121(9) 0.041(3) Uiso 1 1 d
H126 H -0.2372(17) 1.0558(8) 0.4730(8) 0.0221(18) Uiso 1 1 d
H22A H -0.825(2) 1.3907(9) 0.3107(9) 0.036(2) Uiso 1 1 d
H22B H -0.655(2) 1.4458(10) 0.4239(10) 0.043(3) Uiso 1 1 d
H22C H -0.8847(18) 1.3406(8) 0.4394(8) 0.029(2) Uiso 1 1 d
H24A H 0.1011(18) 1.1133(8) 0.1398(8) 0.029(2) Uiso 1 1 d
H24B H -0.1630(19) 1.1319(9) 0.0634(9) 0.034(2) Uiso 1 1 d
H24C H 0.0126(19) 1.2447(9) 0.1177(9) 0.037(3) Uiso 1 1 d
H5 H 0.285(2) 0.4835(10) 0.0612(10) 0.050(3) Uiso 1 1 d
loop_
_atom_site_aniso_label
_atom_site_aniso_U_11
_atom_site_aniso_U_22
_atom_site_aniso_U_33
_atom_site_aniso_U_23
_atom_site_aniso_U_13
_atom_site_aniso_U_12
Cl1 0.01480(3) 0.01353(3) 0.01574(3) 0.00258(2) 0.00440(2) -0.00125(2)
Cl2 0.01345(3) 0.01487(3) 0.01936(3) 0.00495(2) 0.00398(2) -0.00053(2)
O2 0.01447(8) 0.01120(7) 0.02036(9) -0.00346(6) 0.00348(6) 0.00018(6)
O3 0.01683(8) 0.01689(8) 0.01511(8) -0.00091(6) 0.00670(6) 0.00185(6)
O5 0.01919(9) 0.01045(6) 0.01585(8) -0.00080(6) 0.00452(6) -0.00077(6)
O6 0.02267(10) 0.01308(7) 0.01501(8) -0.00078(6) 0.00846(7) 0.00209(7)
N125 0.01335(7) 0.01248(7) 0.01207(7) 0.00070(6) 0.00207(6) 0.00154(6)
C121 0.01516(9) 0.01573(9) 0.01284(9) 0.00129(7) 0.00367(7) 0.00184(7)
C122 0.01214(8) 0.01351(8) 0.01424(9) 0.00047(7) 0.00136(6) 0.00126(6)
C123 0.01414(9) 0.01394(9) 0.01336(9) 0.00225(7) 0.00129(7) 0.00112(7)
C124 0.01286(8) 0.01315(8) 0.01142(8) 0.00071(6) 0.00192(6) -0.00035(6)
C126 0.01625(9) 0.01442(9) 0.01210(8) 0.00223(7) 0.00260(7) 0.00219(7)
C22 0.01586(10) 0.01749(11) 0.02154(12) -0.00019(9) 0.00177(9) 0.00480(8)
C24 0.01767(10) 0.01892(11) 0.01331(9) 0.00116(8) 0.00477(8) -0.00083(8)
C111 0.01204(8) 0.01048(7) 0.01194(8) 0.00063(6) 0.00275(6) 0.00029(6)
C112 0.01108(7) 0.01059(7) 0.01241(8) -0.00046(6) 0.00166(6) 0.00096(6)
C113 0.01152(8) 0.01221(8) 0.01134(8) 0.00038(6) 0.00219(6) 0.00131(6)
C114 0.01178(8) 0.01156(8) 0.01322(8) 0.00156(6) 0.00266(6) 0.00020(6)
C115 0.01337(8) 0.01037(7) 0.01158(8) 0.00069(6) 0.00166(6) 0.00039(6)
C116 0.01373(8) 0.01040(7) 0.01099(8) 0.00056(6) 0.00273(6) 0.00115(6)
loop_
_atom_type_symbol
_atom_type_description
_atom_type_scat_dispersion_real
_atom_type_scat_dispersion_imag
_atom_type_scat_source
Cl Cl 0.1484 0.1585 'International Tables Vol C Tables 4.2.6.8 and 6.1.1.4'
O O 0.0106 0.006 'International Tables Vol C Tables 4.2.6.8 and 6.1.1.4'
N N 0.0061 0.0033 'International Tables Vol C Tables 4.2.6.8 and 6.1.1.4'
C C 0.0033 0.0016 'International Tables Vol C Tables 4.2.6.8 and 6.1.1.4'
H H 0 0 'International Tables Vol C Tables 4.2.6.8 and 6.1.1.4'
loop_
_geom_angle_atom_site_label_1
_geom_angle_atom_site_label_2
_geom_angle_atom_site_label_3
_geom_angle
C115 O5 H5 107.2(7)
C124 N125 C126 122.61(3)
C124 N125 H125 119.5(7)
C126 N125 H125 117.8(6)
C126 C121 C122 119.13(3)
C126 C121 H121 117.5(5)
C122 C121 H121 123.4(5)
C123 C122 C121 118.53(3)
C123 C122 C22 120.63(3)
C121 C122 C22 120.84(3)
C124 C123 C122 120.60(3)
C124 C123 H123 120.2(5)
C122 C123 H123 119.0(5)
N125 C124 C123 118.58(3)
N125 C124 C24 118.68(3)
C123 C124 C24 122.73(3)
N125 C126 C121 120.51(3)
N125 C126 H126 116.1(5)
C121 C126 H126 123.3(5)
C122 C22 H22A 111.1(6)
C122 C22 H22B 110.1(6)
H22A C22 H22B 108.1(9)
C122 C22 H22C 109.3(5)
H22A C22 H22C 109.0(8)
H22B C22 H22C 109.1(8)
C124 C24 H24A 111.8(5)
C124 C24 H24B 110.4(6)
H24A C24 H24B 107.2(8)
C124 C24 H24C 108.7(6)
H24A C24 H24C 111.2(8)
H24B C24 H24C 107.6(8)
C112 C111 C116 122.99(2)
C112 C111 Cl1 119.21(2)
C116 C111 Cl1 117.77(2)
O2 C112 C111 125.64(3)
O2 C112 C113 116.47(2)
C111 C112 C113 117.89(2)
O3 C113 C114 123.20(3)
O3 C113 C112 118.13(3)
C114 C113 C112 118.66(2)
C115 C114 C113 120.55(3)
C115 C114 Cl2 121.39(2)
C113 C114 Cl2 118.06(2)
O5 C115 C114 122.51(3)
O5 C115 C116 115.81(2)
C114 C115 C116 121.68(2)
O6 C116 C111 125.54(3)
O6 C116 C115 116.36(2)
C111 C116 C115 118.10(2)
loop_
_geom_bond_atom_site_label_1
_geom_bond_atom_site_label_2
_geom_bond_distance
Cl1 C111 1.7293(3)
Cl2 C114 1.7275(3)
O2 C112 1.2554(3)
O3 C113 1.2250(4)
O5 C115 1.3238(4)
O5 H5 0.910(12)
O6 C116 1.2460(4)
N125 C124 1.3481(4)
N125 C126 1.3497(4)
N125 H125 0.991(11)
C121 C126 1.3789(4)
C121 C122 1.4040(4)
C121 H121 0.951(9)
C122 C123 1.3971(4)
C122 C22 1.5022(4)
C123 C124 1.3921(4)
C123 H123 0.984(8)
C124 C24 1.4977(4)
C126 H126 0.948(9)
C22 H22A 1.003(11)
C22 H22B 0.986(11)
C22 H22C 1.074(10)
C24 H24A 0.975(9)
C24 H24B 1.026(10)
C24 H24C 0.959(10)
C111 C112 1.3978(4)
C111 C116 1.4127(4)
C112 C113 1.5448(4)
C113 C114 1.4559(4)
C114 C115 1.3586(4)
C115 C116 1.5155(4)
loop_
_geom_torsion_atom_site_label_1
_geom_torsion_atom_site_label_2
_geom_torsion_atom_site_label_3
_geom_torsion_atom_site_label_4
_geom_torsion
C126 C121 C122 C123 -0.22(5)
C126 C121 C122 C22 -179.68(3)
C121 C122 C123 C124 -1.52(4)
C22 C122 C123 C124 177.95(3)
C126 N125 C124 C123 -0.06(4)
C126 N125 C124 C24 178.94(3)
C122 C123 C124 N125 1.68(4)
C122 C123 C124 C24 -177.27(3)
C124 N125 C126 C121 -1.71(5)
C122 C121 C126 N125 1.82(5)
C116 C111 C112 O2 -179.19(3)
Cl1 C111 C112 O2 -1.26(4)
C116 C111 C112 C113 0.35(4)
Cl1 C111 C112 C113 178.284(19)
O2 C112 C113 O3 0.06(4)
C111 C112 C113 O3 -179.53(3)
O2 C112 C113 C114 -178.93(3)
C111 C112 C113 C114 1.48(4)
O3 C113 C114 C115 -179.13(3)
C112 C113 C114 C115 -0.20(4)
O3 C113 C114 Cl2 0.08(4)
C112 C113 C114 Cl2 179.015(19)
C113 C114 C115 O5 177.53(3)
Cl2 C114 C115 O5 -1.66(4)
C113 C114 C115 C116 -2.78(4)
Cl2 C114 C115 C116 178.03(2)
C112 C111 C116 O6 176.55(3)
Cl1 C111 C116 O6 -1.41(4)
C112 C111 C116 C115 -3.21(4)
Cl1 C111 C116 C115 178.84(2)
O5 C115 C116 O6 4.47(4)
C114 C115 C116 O6 -175.24(3)
O5 C115 C116 C111 -175.75(3)
C114 C115 C116 C111 4.54(4)
