#------------------------------------------------------------------------------
#$Date: 2016-08-07 11:18:58 +0300 (Sun, 07 Aug 2016) $
#$Revision: 185209 $
#$URL: file:///home/coder/svn-repositories/cod/cif/7/22/51/7225154.cif $
#------------------------------------------------------------------------------
#
# This file is available in the Crystallography Open Database (COD),
# http://www.crystallography.net/
#
# All data on this site have been placed in the public domain by the
# contributors.
#
data_7225154
loop_
_publ_author_name
'Nauha, Elisa'
'Naumov, Pan\<ce'
'Lusi, Matteo'
_publ_section_title
;
 Fine-tuning of a thermosalient phase transition by solid solutions
;
_journal_issue                   25
_journal_name_full               CrystEngComm
_journal_page_first              4699
_journal_paper_doi               10.1039/C6CE00762G
_journal_volume                  18
_journal_year                    2016
_chemical_formula_sum            'C10 H8 Br0.19 Cl1.81 N2 Zn'
_chemical_formula_weight         300.71
_chemical_name_systematic
;
 ?
;
_space_group_crystal_system      triclinic
_space_group_IT_number           2
_space_group_name_Hall           '-P 1'
_space_group_name_H-M_alt        'P -1'
_symmetry_space_group_name_Hall  '-P 1'
_symmetry_space_group_name_H-M   'P -1'
_atom_sites_solution_hydrogens   geom
_audit_creation_method           SHELXL-2013
_audit_update_record
;
2016-03-18 deposited with the CCDC.
2016-05-09 downloaded from the CCDC.
;
_cell_angle_alpha                113.0052(18)
_cell_angle_beta                 94.6504(19)
_cell_angle_gamma                95.7870(19)
_cell_formula_units_Z            2
_cell_length_a                   7.5668(10)
_cell_length_b                   8.8117(11)
_cell_length_c                   9.0830(11)
_cell_measurement_temperature    99(2)
_cell_volume                     549.79(12)
_computing_structure_refinement  'SHELXL-2013 (Sheldrick, 2013)'
_diffrn_ambient_temperature      99(2)
_diffrn_measured_fraction_theta_full 0.999
_diffrn_measured_fraction_theta_max 0.994
_diffrn_radiation_type           MoK\a
_diffrn_radiation_wavelength     0.71073
_diffrn_reflns_av_R_equivalents  0.0185
_diffrn_reflns_av_unetI/netI     0.0182
_diffrn_reflns_Laue_measured_fraction_full 0.999
_diffrn_reflns_Laue_measured_fraction_max 0.994
_diffrn_reflns_limit_h_max       10
_diffrn_reflns_limit_h_min       -10
_diffrn_reflns_limit_k_max       12
_diffrn_reflns_limit_k_min       -12
_diffrn_reflns_limit_l_max       12
_diffrn_reflns_limit_l_min       -12
_diffrn_reflns_number            12004
_diffrn_reflns_point_group_measured_fraction_full 0.999
_diffrn_reflns_point_group_measured_fraction_max 0.994
_diffrn_reflns_theta_full        25.242
_diffrn_reflns_theta_max         30.485
_diffrn_reflns_theta_min         2.457
_exptl_absorpt_coefficient_mu    3.313
_exptl_absorpt_correction_T_max  0.7461
_exptl_absorpt_correction_T_min  0.6016
_exptl_absorpt_correction_type   multi-scan
_exptl_absorpt_process_details   sadabs
_exptl_crystal_colour            colorless
_exptl_crystal_density_diffrn    1.816
_exptl_crystal_description       needle
_exptl_crystal_F_000             299
_exptl_crystal_size_max          0.340
_exptl_crystal_size_mid          0.070
_exptl_crystal_size_min          0.050
_refine_diff_density_max         0.479
_refine_diff_density_min         -0.258
_refine_diff_density_rms         0.068
_refine_ls_extinction_method     none
_refine_ls_goodness_of_fit_ref   1.073
_refine_ls_hydrogen_treatment    constr
_refine_ls_matrix_type           full
_refine_ls_number_parameters     138
_refine_ls_number_reflns         3324
_refine_ls_number_restraints     0
_refine_ls_restrained_S_all      1.073
_refine_ls_R_factor_all          0.0247
_refine_ls_R_factor_gt           0.0201
_refine_ls_shift/su_max          0.002
_refine_ls_shift/su_mean         0.000
_refine_ls_structure_factor_coef Fsqd
_refine_ls_weighting_details
'w=1/[\s^2^(Fo^2^)+(0.0209P)^2^+0.2888P] where P=(Fo^2^+2Fc^2^)/3'
_refine_ls_weighting_scheme      calc
_refine_ls_wR_factor_gt          0.0471
_refine_ls_wR_factor_ref         0.0484
_reflns_Friedel_coverage         0.000
_reflns_number_gt                3008
_reflns_number_total             3324
_reflns_threshold_expression     'I > 2\s(I)'
_cod_data_source_file            c6ce00762g3.cif
_cod_data_source_block           1x10_100K
_cod_depositor_comments
'Adding full bibliography for 7225150--7225163.cif.'
_cod_database_code               7225154
_shelx_space_group_comment
;
The symmetry employed for this shelxl refinement is uniquely defined
by the following loop, which should always be used as a source of
symmetry information in preference to the above space-group names.
They are only intended as comments.
;
_shelx_estimated_absorpt_t_min   0.399
_shelx_estimated_absorpt_t_max   0.852
_shelxl_version_number           2013-4
_shelx_res_file
;
TITL ekn078_100 in P-1
CELL 0.71073   7.56680   8.81170   9.08300 113.0052  94.6504  95.7870
ZERR    2.00   0.00100   0.00110   0.00110   0.0018   0.0019   0.0019
LATT  1
SFAC C H N CL ZN BR
UNIT 20 16 4 3.628 2 0.3717
LIST 4
TEMP -174.030
SIZE 0.05 0.07 0.34
ACTA
CONF
L.S. 10
BOND $H
FMAP 2
PLAN 10
EXYZ Br3 Cl3
EADP Br3 Cl3
EXYZ Br2 Cl2
EADP Br2 Cl2
WGHT    0.020900    0.288800
FVAR       0.22972   0.05538   0.13046
ZN1   5    0.767688    0.724469    0.825058    11.00000    0.01347    0.01268 =
         0.01590    0.00915    0.00441    0.00427
PART 1
BR2   6    0.532880    0.793614    0.711729    31.00000    0.01546    0.02038 =
         0.02023    0.01184    0.00292    0.00670
BR3   6    1.039020    0.828848    0.798283    21.00000    0.01445    0.01951 =
         0.02211    0.01407    0.00465    0.00301
PART 2
CL2   4    0.532880    0.793614    0.711729   -31.00000    0.01546    0.02038 =
         0.02023    0.01184    0.00292    0.00670
CL3   4    1.039020    0.828848    0.798283   -21.00000    0.01445    0.01951 =
         0.02211    0.01407    0.00465    0.00301
PART 0
N2    3    0.720699    0.702397    1.036382    11.00000    0.01074    0.01267 =
         0.01504    0.00681    0.00247    0.00138
N8    3    0.788646    0.475064    0.758975    11.00000    0.01242    0.01305 =
         0.01384    0.00748    0.00214    0.00242
C1    1    0.737633    0.550061    1.035125    11.00000    0.00910    0.01294 =
         0.01412    0.00655    0.00085    0.00065
C3    1    0.672478    0.819907    1.167691    11.00000    0.01244    0.01405 =
         0.01875    0.00533    0.00323    0.00121
AFIX  43
H3    2    0.659409    0.925876    1.167357    11.00000   -1.20000
AFIX   0
C4    1    0.641180    0.791001    1.303891    11.00000    0.01443    0.01886 =
         0.01518    0.00305    0.00416    0.00077
AFIX  43
H4    2    0.605948    0.875393    1.394887    11.00000   -1.20000
AFIX   0
C5    1    0.662379    0.636381    1.304481    11.00000    0.01551    0.02290 =
         0.01496    0.00896    0.00252    0.00103
AFIX  43
H5    2    0.643812    0.614480    1.396935    11.00000   -1.20000
AFIX   0
C6    1    0.710990    0.513975    1.168654    11.00000    0.01517    0.01784 =
         0.01647    0.00998    0.00173    0.00231
AFIX  43
H6    2    0.725779    0.407540    1.166956    11.00000   -1.20000
AFIX   0
C7    1    0.781389    0.424478    0.881607    11.00000    0.00937    0.01347 =
         0.01286    0.00674    0.00058    0.00089
C9    1    0.824647    0.368968    0.615521    11.00000    0.01684    0.01598 =
         0.01452    0.00742    0.00281    0.00291
AFIX  43
H9    2    0.830062    0.405601    0.530320    11.00000   -1.20000
AFIX   0
C10   1    0.854210    0.207687    0.587429    11.00000    0.01921    0.01413 =
         0.01580    0.00382    0.00272    0.00294
AFIX  43
H10   2    0.878646    0.134691    0.484614    11.00000   -1.20000
AFIX   0
C11   1    0.847327    0.155099    0.712921    11.00000    0.01735    0.01220 =
         0.02008    0.00661    0.00068    0.00319
AFIX  43
H11   2    0.867447    0.045397    0.696999    11.00000   -1.20000

AFIX   0
C12   1    0.810715    0.264624    0.861909    11.00000    0.01542    0.01478 =
         0.01659    0.00915   -0.00004    0.00237
AFIX  43
H12   2    0.805785    0.230848    0.949012    11.00000   -1.20000

AFIX   0
HKLF 4

REM  ekn078_100 in P-1
REM R1 =  0.0201 for    3008 Fo > 4sig(Fo)  and  0.0247 for all    3324 data
REM    138 parameters refined using      0 restraints

END

WGHT      0.0209      0.2888

REM Highest difference peak  0.479,  deepest hole -0.258,  1-sigma level  0.068
Q1    1   0.7560  0.4859  0.9548  11.00000  0.05    0.48
Q2    1   0.6953  0.5808  1.2364  11.00000  0.05    0.43
Q3    1   0.8339  0.2835  0.5985  11.00000  0.05    0.43
Q4    1   0.7078  0.5382  1.1035  11.00000  0.05    0.42
Q5    1   0.6510  0.8064  1.2306  11.00000  0.05    0.41
Q6    1   0.8232  0.2137  0.7881  11.00000  0.05    0.40
Q7    1   0.6216  0.6958  1.2822  11.00000  0.05    0.39
Q8    1   0.7933  0.4422  0.8160  11.00000  0.05    0.39
Q9    1   0.8096  0.3511  0.8815  11.00000  0.05    0.37
Q10   1   0.6858  0.7459  1.0988  11.00000  0.05    0.37
;
_shelx_res_checksum              8346
loop_
_space_group_symop_operation_xyz
'x, y, z'
'-x, -y, -z'
loop_
_atom_site_label
_atom_site_type_symbol
_atom_site_fract_x
_atom_site_fract_y
_atom_site_fract_z
_atom_site_U_iso_or_equiv
_atom_site_adp_type
_atom_site_occupancy
_atom_site_site_symmetry_order
_atom_site_calc_flag
_atom_site_refinement_flags_posn
_atom_site_refinement_flags_adp
_atom_site_refinement_flags_occupancy
_atom_site_disorder_assembly
_atom_site_disorder_group
Zn1 Zn 0.76769(2) 0.72447(2) 0.82506(2) 0.01263(5) Uani 1 1 d . . . . .
Br2 Br 0.53288(4) 0.79361(4) 0.71173(3) 0.01720(9) Uani 0.1305(15) 1 d . . P A
1
Br3 Br 1.03902(4) 0.82885(4) 0.79828(4) 0.01673(10) Uani 0.0554(14) 1 d . . P A
1
Cl2 Cl 0.53288(4) 0.79361(4) 0.71173(3) 0.01720(9) Uani 0.8695(15) 1 d . . P A
2
Cl3 Cl 1.03902(4) 0.82885(4) 0.79828(4) 0.01673(10) Uani 0.9446(14) 1 d . . P A
2
N2 N 0.72070(15) 0.70240(14) 1.03638(14) 0.0124(2) Uani 1 1 d . . . . .
N8 N 0.78865(15) 0.47506(14) 0.75898(13) 0.0124(2) Uani 1 1 d . . . . .
C1 C 0.73763(17) 0.55006(17) 1.03512(16) 0.0118(2) Uani 1 1 d . . . . .
C3 C 0.67248(18) 0.81991(18) 1.16769(17) 0.0155(3) Uani 1 1 d . . . . .
H3 H 0.6594 0.9259 1.1674 0.019 Uiso 1 1 calc R U . . .
C4 C 0.64118(19) 0.79100(19) 1.30389(17) 0.0173(3) Uani 1 1 d . . . . .
H4 H 0.6059 0.8754 1.3949 0.021 Uiso 1 1 calc R U . . .
C5 C 0.66238(19) 0.63638(19) 1.30448(17) 0.0175(3) Uani 1 1 d . . . . .
H5 H 0.6438 0.6145 1.3969 0.021 Uiso 1 1 calc R U . . .
C6 C 0.71099(19) 0.51398(18) 1.16865(16) 0.0156(3) Uani 1 1 d . . . . .
H6 H 0.7258 0.4075 1.1670 0.019 Uiso 1 1 calc R U . . .
C7 C 0.78139(17) 0.42448(16) 0.88161(15) 0.0116(2) Uani 1 1 d . . . . .
C9 C 0.82465(19) 0.36897(18) 0.61552(16) 0.0153(3) Uani 1 1 d . . . . .
H9 H 0.8301 0.4056 0.5303 0.018 Uiso 1 1 calc R U . . .
C10 C 0.8542(2) 0.20769(18) 0.58743(17) 0.0170(3) Uani 1 1 d . . . . .
H10 H 0.8786 0.1347 0.4846 0.020 Uiso 1 1 calc R U . . .
C11 C 0.84733(19) 0.15510(17) 0.71292(17) 0.0165(3) Uani 1 1 d . . . . .
H11 H 0.8674 0.0454 0.6970 0.020 Uiso 1 1 calc R U . . .
C12 C 0.81072(19) 0.26462(17) 0.86191(17) 0.0148(2) Uani 1 1 d . . . . .
H12 H 0.8058 0.2308 0.9490 0.018 Uiso 1 1 calc R U . . .
loop_
_atom_site_aniso_label
_atom_site_aniso_U_11
_atom_site_aniso_U_22
_atom_site_aniso_U_33
_atom_site_aniso_U_23
_atom_site_aniso_U_13
_atom_site_aniso_U_12
Zn1 0.01347(8) 0.01268(8) 0.01590(8) 0.00915(6) 0.00441(5) 0.00427(6)
Br2 0.01546(14) 0.02038(16) 0.02023(15) 0.01184(12) 0.00292(10) 0.00670(10)
Br3 0.01445(16) 0.01951(17) 0.02211(17) 0.01407(13) 0.00465(11) 0.00301(11)
Cl2 0.01546(14) 0.02038(16) 0.02023(15) 0.01184(12) 0.00292(10) 0.00670(10)
Cl3 0.01445(16) 0.01951(17) 0.02211(17) 0.01407(13) 0.00465(11) 0.00301(11)
N2 0.0107(5) 0.0127(5) 0.0150(5) 0.0068(4) 0.0025(4) 0.0014(4)
N8 0.0124(5) 0.0130(5) 0.0138(5) 0.0075(4) 0.0021(4) 0.0024(4)
C1 0.0091(5) 0.0129(6) 0.0141(6) 0.0066(5) 0.0009(4) 0.0006(5)
C3 0.0124(6) 0.0141(6) 0.0188(6) 0.0053(5) 0.0032(5) 0.0012(5)
C4 0.0144(6) 0.0189(7) 0.0152(6) 0.0030(5) 0.0042(5) 0.0008(5)
C5 0.0155(6) 0.0229(7) 0.0150(6) 0.0090(6) 0.0025(5) 0.0010(5)
C6 0.0152(6) 0.0178(7) 0.0165(6) 0.0100(5) 0.0017(5) 0.0023(5)
C7 0.0094(5) 0.0135(6) 0.0129(5) 0.0067(5) 0.0006(4) 0.0009(5)
C9 0.0168(6) 0.0160(6) 0.0145(6) 0.0074(5) 0.0028(5) 0.0029(5)
C10 0.0192(7) 0.0141(6) 0.0158(6) 0.0038(5) 0.0027(5) 0.0029(5)
C11 0.0173(6) 0.0122(6) 0.0201(6) 0.0066(5) 0.0007(5) 0.0032(5)
C12 0.0154(6) 0.0148(6) 0.0166(6) 0.0092(5) 0.0000(5) 0.0024(5)
loop_
_atom_type_symbol
_atom_type_description
_atom_type_scat_dispersion_real
_atom_type_scat_dispersion_imag
_atom_type_scat_source
C C 0.0033 0.0016 'International Tables Vol C Tables 4.2.6.8 and 6.1.1.4'
H H 0.0000 0.0000 'International Tables Vol C Tables 4.2.6.8 and 6.1.1.4'
N N 0.0061 0.0033 'International Tables Vol C Tables 4.2.6.8 and 6.1.1.4'
Cl Cl 0.1484 0.1585 'International Tables Vol C Tables 4.2.6.8 and 6.1.1.4'
Zn Zn 0.2839 1.4301 'International Tables Vol C Tables 4.2.6.8 and 6.1.1.4'
Br Br -0.2901 2.4595 'International Tables Vol C Tables 4.2.6.8 and 6.1.1.4'
loop_
_geom_angle_atom_site_label_1
_geom_angle_atom_site_label_2
_geom_angle_atom_site_label_3
_geom_angle
N2 Zn1 N8 80.47(4)
N2 Zn1 Br3 120.53(3)
N8 Zn1 Br3 102.50(3)
N2 Zn1 Br2 112.54(3)
N8 Zn1 Br2 118.73(3)
Br3 Zn1 Br2 116.556(15)
C3 N2 C1 119.38(12)
C3 N2 Zn1 126.65(9)
C1 N2 Zn1 113.95(9)
C9 N8 C7 119.40(11)
C9 N8 Zn1 126.41(9)
C7 N8 Zn1 113.86(9)
N2 C1 C6 121.44(12)
N2 C1 C7 115.83(11)
C6 C1 C7 122.71(12)
N2 C3 C4 122.00(13)
N2 C3 H3 119.0
C4 C3 H3 119.0
C5 C4 C3 118.79(13)
C5 C4 H4 120.6
C3 C4 H4 120.6
C4 C5 C6 119.48(13)
C4 C5 H5 120.3
C6 C5 H5 120.3
C5 C6 C1 118.89(13)
C5 C6 H6 120.6
C1 C6 H6 120.6
N8 C7 C12 121.30(12)
N8 C7 C1 115.42(11)
C12 C7 C1 123.28(12)
N8 C9 C10 122.27(12)
N8 C9 H9 118.9
C10 C9 H9 118.9
C9 C10 C11 118.62(13)
C9 C10 H10 120.7
C11 C10 H10 120.7
C12 C11 C10 119.37(13)
C12 C11 H11 120.3
C10 C11 H11 120.3
C11 C12 C7 119.05(12)
C11 C12 H12 120.5
C7 C12 H12 120.5
loop_
_geom_bond_atom_site_label_1
_geom_bond_atom_site_label_2
_geom_bond_distance
Zn1 N2 2.0584(11)
Zn1 N8 2.0664(12)
Zn1 Br3 2.2350(4)
Zn1 Br2 2.2360(4)
N2 C3 1.3451(18)
N2 C1 1.3570(17)
N8 C9 1.3427(18)
N8 C7 1.3548(16)
C1 C6 1.3932(18)
C1 C7 1.4904(19)
C3 C4 1.3903(19)
C3 H3 0.9500
C4 C5 1.390(2)
C4 H4 0.9500
C5 C6 1.391(2)
C5 H5 0.9500
C6 H6 0.9500
C7 C12 1.3921(18)
C9 C10 1.3874(19)
C9 H9 0.9500
C10 C11 1.3908(19)
C10 H10 0.9500
C11 C12 1.390(2)
C11 H11 0.9500
C12 H12 0.9500
loop_
_geom_torsion_atom_site_label_1
_geom_torsion_atom_site_label_2
_geom_torsion_atom_site_label_3
_geom_torsion_atom_site_label_4
_geom_torsion
C3 N2 C1 C6 -1.80(19)
Zn1 N2 C1 C6 179.79(10)
C3 N2 C1 C7 176.68(12)
Zn1 N2 C1 C7 -1.73(14)
C1 N2 C3 C4 0.8(2)
Zn1 N2 C3 C4 178.95(10)
N2 C3 C4 C5 0.7(2)
C3 C4 C5 C6 -1.1(2)
C4 C5 C6 C1 0.1(2)
N2 C1 C6 C5 1.3(2)
C7 C1 C6 C5 -177.02(12)
C9 N8 C7 C12 0.07(19)
Zn1 N8 C7 C12 -173.74(10)
C9 N8 C7 C1 -179.03(12)
Zn1 N8 C7 C1 7.16(14)
N2 C1 C7 N8 -3.67(17)
C6 C1 C7 N8 174.79(12)
N2 C1 C7 C12 177.25(12)
C6 C1 C7 C12 -4.3(2)
C7 N8 C9 C10 0.3(2)
Zn1 N8 C9 C10 173.26(11)
N8 C9 C10 C11 -0.4(2)
C9 C10 C11 C12 0.2(2)
C10 C11 C12 C7 0.1(2)
N8 C7 C12 C11 -0.3(2)
C1 C7 C12 C11 178.74(13)
