#------------------------------------------------------------------------------
#$Date: 2016-06-02 10:02:08 +0300 (Thu, 02 Jun 2016) $
#$Revision: 183256 $
#$URL: svn://www.crystallography.net/cod/cif/7/22/54/7225403.cif $
#------------------------------------------------------------------------------
#
# This file is available in the Crystallography Open Database (COD),
# http://www.crystallography.net/
#
# All data on this site have been placed in the public domain by the
# contributors.
#
data_7225403
loop_
_publ_author_name
'Mahmoud, Abdallah G.'
'Mahmudov, Kamran T.'
'Guedes da Silva, M. F\'atima C.'
'Pombeiro, Armando J. L.'
_publ_section_title
;
 Reaction of sodium 2-(2-(2,4-dioxopentan-3-ylidene)hydrazinyl)
 benzenesulfonate with ethylenediamine on Cu(II) and Ni(II) centres:
 efficient Cu(II) homogeneous catalysts for cyanosilylation of aldehydes
;
_journal_name_full               'RSC Adv.'
_journal_paper_doi               10.1039/C6RA12274D
_journal_year                    2016
_chemical_formula_moiety         'C13 H16 Cu N4 O4 S'
_chemical_formula_sum            'C13 H16 Cu N4 O4 S'
_chemical_formula_weight         387.90
_space_group_crystal_system      triclinic
_space_group_IT_number           2
_space_group_name_Hall           '-P 1'
_space_group_name_H-M_alt        'P -1'
_symmetry_space_group_name_Hall  '-P 1'
_symmetry_space_group_name_H-M   'P -1'
_atom_sites_solution_hydrogens   mixed
_audit_creation_method           SHELXL-2014/7
_audit_update_record
;
2016-05-03 deposited with the CCDC.
2016-05-31 downloaded from the CCDC.
;
_cell_angle_alpha                81.729(5)
_cell_angle_beta                 88.354(6)
_cell_angle_gamma                78.606(6)
_cell_formula_units_Z            2
_cell_length_a                   5.1923(10)
_cell_length_b                   8.6543(16)
_cell_length_c                   16.704(3)
_cell_measurement_reflns_used    4584
_cell_measurement_temperature    150(2)
_cell_measurement_theta_max      27.99
_cell_measurement_theta_min      2.42
_cell_volume                     728.2(2)
_computing_cell_refinement       'Bruker SAINT'
_computing_data_collection       'Bruker APEX2'
_computing_data_reduction        'Bruker SAINT'
_computing_molecular_graphics    'Mercury CSD 3.5.1'
_computing_structure_refinement  'SHELXL-2014/7 (Sheldrick, 2008)'
_computing_structure_solution    'SIR97 (Giacovazzo et al, 1997)'
_diffrn_ambient_temperature      150(2)
_diffrn_measured_fraction_theta_full 0.999
_diffrn_measured_fraction_theta_max 0.995
_diffrn_measurement_device_type  'Bruker APEX-II CCD'
_diffrn_measurement_method       '\f and \w scans'
_diffrn_radiation_type           MoK\a
_diffrn_radiation_wavelength     0.71069
_diffrn_reflns_av_R_equivalents  0.0749
_diffrn_reflns_av_unetI/netI     0.0647
_diffrn_reflns_Laue_measured_fraction_full 0.999
_diffrn_reflns_Laue_measured_fraction_max 0.995
_diffrn_reflns_limit_h_max       6
_diffrn_reflns_limit_h_min       -6
_diffrn_reflns_limit_k_max       11
_diffrn_reflns_limit_k_min       -11
_diffrn_reflns_limit_l_max       22
_diffrn_reflns_limit_l_min       -22
_diffrn_reflns_number            20570
_diffrn_reflns_point_group_measured_fraction_full 0.999
_diffrn_reflns_point_group_measured_fraction_max 0.995
_diffrn_reflns_theta_full        25.240
_diffrn_reflns_theta_max         28.484
_diffrn_reflns_theta_min         2.425
_exptl_absorpt_coefficient_mu    1.670
_exptl_absorpt_correction_T_max  0.885
_exptl_absorpt_correction_T_min  0.783
_exptl_absorpt_correction_type   multi-scan
_exptl_absorpt_process_details   sadabs
_exptl_crystal_colour            brown
_exptl_crystal_density_diffrn    1.769
_exptl_crystal_description       plate
_exptl_crystal_F_000             398
_exptl_crystal_size_max          0.390
_exptl_crystal_size_mid          0.130
_exptl_crystal_size_min          0.080
_refine_diff_density_max         0.518
_refine_diff_density_min         -0.670
_refine_diff_density_rms         0.104
_refine_ls_extinction_method     none
_refine_ls_goodness_of_fit_ref   0.994
_refine_ls_hydrogen_treatment    mixed
_refine_ls_matrix_type           full
_refine_ls_number_parameters     216
_refine_ls_number_reflns         3657
_refine_ls_number_restraints     2
_refine_ls_restrained_S_all      0.995
_refine_ls_R_factor_all          0.0709
_refine_ls_R_factor_gt           0.0407
_refine_ls_shift/su_max          0.003
_refine_ls_shift/su_mean         0.000
_refine_ls_structure_factor_coef Fsqd
_refine_ls_weighting_details
'w=1/[\s^2^(Fo^2^)+(0.0433P)^2^+0.2724P] where P=(Fo^2^+2Fc^2^)/3'
_refine_ls_weighting_scheme      calc
_refine_ls_wR_factor_gt          0.0826
_refine_ls_wR_factor_ref         0.0890
_reflns_Friedel_coverage         0.000
_reflns_number_gt                2708
_reflns_number_total             3657
_reflns_threshold_expression     'I > 2\s(I)'
_cod_data_source_file            c6ra12274d2.cif
_cod_data_source_block           Compound3
_cod_database_code               7225403
_shelx_shelxl_version_number     2014/7
_shelx_space_group_comment
;
The symmetry employed for this shelxl refinement is uniquely defined
by the following loop, which should always be used as a source of
symmetry information in preference to the above space-group names.
They are only intended as comments.
;
_shelx_estimated_absorpt_t_min   0.562
_shelx_estimated_absorpt_t_max   0.878
_shelx_res_file
;

    shelx.res created by SHELXL-2014/7

TITL ABD47b in P-1
CELL  0.71069   5.1923   8.6543  16.7040   81.729   88.354   78.606
ZERR     2.00   0.0010   0.0016   0.0032    0.005    0.006    0.006
LATT   1
SFAC  C    H    N    O    S    CU
UNIT  26   32   8    8    2    2
MERG   2
OMIT     0.00 180.00
OMIT     0   0   1
OMIT     2   4   2
OMIT     1 -10   1
DANG     1.600   0.040 H42n H41n
DFIX     0.900   0.020 H42n N4
EQIV $1 x-1, y, z
HTAB C9 O1_$1
EQIV $2 x+1, y-1, z
HTAB C12 O13_$2
EQIV $3 -x, -y+1, -z+1
HTAB N4 O13_$3
HTAB N4 S1_$3
EQIV $4 -x+1, -y+1, -z+1
HTAB N4 O11_$4
EQIV $5 x+1, y, z
HTAB N4 O12_$5
FMAP   2
PLAN   25
SIZE     0.08   0.13   0.39
ACTA
HTAB    2.00000
LIST   4
L.S.   80
TEMP   -123.00
WGHT    0.043300    0.272400
FVAR       0.18420
C1    1   -0.024650    0.595955    0.722187    11.00000    0.00866    0.01224 =
         0.01807   -0.00164    0.00071   -0.00283
C2    1   -0.250882    0.697424    0.744993    11.00000    0.01123    0.01646 =
         0.02114   -0.00008   -0.00328    0.00303
AFIX  43
H2    2   -0.374332    0.753305    0.704889    11.00000   -1.20000
AFIX   0
C3    1   -0.296483    0.717148    0.824337    11.00000    0.01438    0.02260 =
         0.02822   -0.00636    0.00424    0.00363
AFIX  43
H3    2   -0.452460    0.784337    0.839481    11.00000   -1.20000
AFIX   0
C4    1   -0.113568    0.638438    0.882177    11.00000    0.02153    0.02710 =
         0.01708   -0.00631    0.00296    0.00056
AFIX  43
H4    2   -0.140794    0.655202    0.937006    11.00000   -1.20000
AFIX   0
C5    1    0.108369    0.535674    0.861118    11.00000    0.01731    0.02091 =
         0.01683   -0.00355   -0.00059    0.00345
AFIX  43
H5    2    0.230484    0.481561    0.901965    11.00000   -1.20000
AFIX   0
C6    1    0.157349    0.509490    0.780830    11.00000    0.00972    0.01261 =
         0.01340   -0.00215    0.00090   -0.00276
C7    1    0.741015    0.224156    0.829136    11.00000    0.01182    0.01606 =
         0.01503    0.00165   -0.00284   -0.00013
C8    1    0.852585    0.195064    0.912496    11.00000    0.01927    0.02090 =
         0.01953   -0.00013   -0.00528    0.00098
C9    1    0.667874    0.234468    0.980764    11.00000    0.02858    0.04059 =
         0.01487   -0.00157   -0.00745    0.00600
AFIX 137
H9A   2    0.750187    0.182347    1.032298    11.00000   -1.50000
H9B   2    0.504978    0.196746    0.973923    11.00000   -1.50000
H9C   2    0.627948    0.350020    0.980611    11.00000   -1.50000
AFIX   0
C10   1    0.866890    0.140913    0.764022    11.00000    0.01149    0.01155 =
         0.01603    0.00065   -0.00126   -0.00291
C11   1    1.118564    0.022056    0.780120    11.00000    0.01763    0.02301 =
         0.02478   -0.00422   -0.00596    0.00788
AFIX 137
H11A  2    1.124143   -0.063871    0.747386    11.00000   -1.50000
H11B  2    1.128394   -0.022298    0.837585    11.00000   -1.50000
H11C  2    1.267671    0.074641    0.765914    11.00000   -1.50000
AFIX   0
C12   1    0.875839    0.084808    0.626579    11.00000    0.01657    0.01340 =
         0.01646   -0.00488    0.00031    0.00020
AFIX  23
H12A  2    0.945411   -0.028734    0.646608    11.00000   -1.20000
H12B  2    1.022736    0.133538    0.602684    11.00000   -1.20000
AFIX   0
C13   1    0.665310    0.099403    0.563849    11.00000    0.01883    0.01368 =
         0.02032   -0.00505   -0.00131   -0.00216
AFIX  23
H13A  2    0.745552    0.065727    0.513095    11.00000   -1.20000
H13B  2    0.539533    0.030111    0.583561    11.00000   -1.20000
AFIX   0
N1    3    0.383982    0.397520    0.760721    11.00000    0.01052    0.01265 =
         0.01133   -0.00064   -0.00177    0.00074
N2    3    0.520681    0.331506    0.826123    11.00000    0.01431    0.01423 =
         0.01386    0.00040   -0.00259   -0.00102
N3    3    0.755866    0.168059    0.693688    11.00000    0.01152    0.01028 =
         0.01512   -0.00199    0.00082   -0.00271
N4    3    0.527109    0.267677    0.548801    11.00000    0.01359    0.01447 =
         0.01217    0.00054   -0.00090   -0.00291
O1    4    1.086642    0.145285    0.926141    11.00000    0.02240    0.04805 =
         0.03074   -0.00304   -0.01044    0.00194
O11   4    0.295360    0.559326    0.603110    11.00000    0.01093    0.01293 =
         0.01272    0.00216   -0.00071   -0.00273
O12   4   -0.095923    0.448529    0.602430    11.00000    0.01697    0.01332 =
         0.02258   -0.00590    0.00141   -0.00545
O13   4   -0.120224    0.734463    0.574915    11.00000    0.01809    0.01402 =
         0.01699   -0.00075   -0.00593    0.00418
S1    5    0.008603    0.584292    0.617962    11.00000    0.00905    0.00863 =
         0.01320   -0.00071   -0.00275   -0.00031
CU1   6    0.492562    0.352152    0.653809    11.00000    0.01034    0.01031 =
         0.01096   -0.00059   -0.00177    0.00062
H41N  2    0.370203    0.269820    0.519527    11.00000   -1.50000
H42N  2    0.618817    0.328005    0.516020    11.00000   -1.50000
HKLF    4

REM  ABD47b in P-1
REM R1 =  0.0407 for    2708 Fo > 4sig(Fo)  and  0.0709 for all    3657 data
REM    216 parameters refined using      2 restraints

END

WGHT      0.0401      0.2326

REM Instructions for potential hydrogen bonds
HTAB C9 O1_$1
HTAB C11 O1
HTAB C12 O13_$2
HTAB N4 O13_$3
HTAB N4 O11_$4
HTAB N4 S1_$4

REM Highest difference peak  0.518,  deepest hole -0.670,  1-sigma level  0.104
Q1    1   0.4163  0.3863  0.7208  11.00000  0.05    0.52
Q2    1   1.2150  0.0694  0.8138  11.00000  0.05    0.50
Q3    1  -0.1304  0.6403  0.7288  11.00000  0.05    0.49
Q4    1   0.5089  0.3327  0.5778  11.00000  0.05    0.45
Q5    1   0.6639  0.2414  0.6995  11.00000  0.05    0.43
Q6    1   0.1589  0.5945  0.6116  11.00000  0.05    0.42
Q7    1   0.2909  0.3341  0.7110  11.00000  0.05    0.42
Q8    1  -0.2002  0.4270  0.5825  11.00000  0.05    0.42
Q9    1   0.4511  0.2603  0.7014  11.00000  0.05    0.42
Q10   1   0.9530  0.0076  0.9241  11.00000  0.05    0.39
Q11   1   0.3210  0.3378  0.6463  11.00000  0.05    0.39
Q12   1  -0.0578  0.6550  0.5927  11.00000  0.05    0.39
Q13   1   0.3316  0.4093  0.5959  11.00000  0.05    0.38
Q14   1  -0.1566  0.6748  0.8386  11.00000  0.05    0.38
Q15   1  -0.0119  0.5911  0.6818  11.00000  0.05    0.37
Q16   1   1.0786 -0.0748  0.7812  11.00000  0.05    0.36
Q17   1   0.8291  0.1729  0.7214  11.00000  0.05    0.36
Q18   1   0.5209  0.3232  0.4906  11.00000  0.05    0.36
Q19   1   0.4844  0.2710  0.7315  11.00000  0.05    0.35
Q20   1  -0.0092  0.5227  0.7585  11.00000  0.05    0.35
Q21   1   0.9661  0.0726  0.7547  11.00000  0.05    0.34
Q22   1   0.8217  0.1240  0.6707  11.00000  0.05    0.34
Q23   1   0.5810  0.2685  0.6545  11.00000  0.05    0.34
Q24   1  -0.0126  0.7510  0.7158  11.00000  0.05    0.34
Q25   1   0.7911  0.1802  0.7913  11.00000  0.05    0.34
;
_shelx_res_checksum              10846
loop_
_space_group_symop_operation_xyz
'x, y, z'
'-x, -y, -z'
loop_
_atom_site_label
_atom_site_type_symbol
_atom_site_fract_x
_atom_site_fract_y
_atom_site_fract_z
_atom_site_U_iso_or_equiv
_atom_site_adp_type
_atom_site_occupancy
_atom_site_site_symmetry_order
_atom_site_calc_flag
_atom_site_refinement_flags_posn
_atom_site_refinement_flags_adp
C1 C -0.0246(5) 0.5960(3) 0.72219(17) 0.0129(6) Uani 1 1 d . .
C2 C -0.2509(6) 0.6974(3) 0.74499(18) 0.0173(6) Uani 1 1 d . .
H2 H -0.3743 0.7533 0.7049 0.021 Uiso 1 1 calc R U
C3 C -0.2965(6) 0.7171(4) 0.82434(19) 0.0225(7) Uani 1 1 d . .
H3 H -0.4525 0.7843 0.8395 0.027 Uiso 1 1 calc R U
C4 C -0.1136(6) 0.6384(4) 0.88218(19) 0.0224(7) Uani 1 1 d . .
H4 H -0.1408 0.6552 0.9370 0.027 Uiso 1 1 calc R U
C5 C 0.1084(6) 0.5357(3) 0.86112(18) 0.0192(7) Uani 1 1 d . .
H5 H 0.2305 0.4816 0.9020 0.023 Uiso 1 1 calc R U
C6 C 0.1573(5) 0.5095(3) 0.78083(17) 0.0118(6) Uani 1 1 d . .
C7 C 0.7410(6) 0.2242(3) 0.82914(17) 0.0150(6) Uani 1 1 d . .
C8 C 0.8526(6) 0.1951(4) 0.91250(19) 0.0207(7) Uani 1 1 d . .
C9 C 0.6679(7) 0.2345(4) 0.98076(19) 0.0299(8) Uani 1 1 d . .
H9A H 0.7502 0.1823 1.0323 0.045 Uiso 1 1 calc R U
H9B H 0.5050 0.1967 0.9739 0.045 Uiso 1 1 calc R U
H9C H 0.6279 0.3500 0.9806 0.045 Uiso 1 1 calc R U
C10 C 0.8669(5) 0.1409(3) 0.76402(17) 0.0132(6) Uani 1 1 d . .
C11 C 1.1186(6) 0.0221(4) 0.78012(19) 0.0232(7) Uani 1 1 d . .
H11A H 1.1241 -0.0639 0.7474 0.035 Uiso 1 1 calc R U
H11B H 1.1284 -0.0223 0.8376 0.035 Uiso 1 1 calc R U
H11C H 1.2677 0.0746 0.7659 0.035 Uiso 1 1 calc R U
C12 C 0.8758(6) 0.0848(3) 0.62658(17) 0.0156(6) Uani 1 1 d . .
H12A H 0.9454 -0.0287 0.6466 0.019 Uiso 1 1 calc R U
H12B H 1.0227 0.1335 0.6027 0.019 Uiso 1 1 calc R U
C13 C 0.6653(6) 0.0994(3) 0.56385(18) 0.0175(6) Uani 1 1 d . .
H13A H 0.7456 0.0657 0.5131 0.021 Uiso 1 1 calc R U
H13B H 0.5395 0.0301 0.5836 0.021 Uiso 1 1 calc R U
N1 N 0.3840(4) 0.3975(3) 0.76072(14) 0.0120(5) Uani 1 1 d . .
N2 N 0.5207(5) 0.3315(3) 0.82612(14) 0.0146(5) Uani 1 1 d . .
N3 N 0.7559(4) 0.1681(3) 0.69369(14) 0.0122(5) Uani 1 1 d . .
N4 N 0.5271(5) 0.2677(3) 0.54880(14) 0.0136(5) Uani 1 1 d D .
O1 O 1.0866(5) 0.1453(3) 0.92614(15) 0.0350(6) Uani 1 1 d . .
O11 O 0.2954(4) 0.5593(2) 0.60311(11) 0.0125(4) Uani 1 1 d . .
O12 O -0.0959(4) 0.4485(2) 0.60243(12) 0.0170(4) Uani 1 1 d . .
O13 O -0.1202(4) 0.7345(2) 0.57491(12) 0.0174(5) Uani 1 1 d . .
S1 S 0.00860(13) 0.58429(8) 0.61796(4) 0.01052(15) Uani 1 1 d . .
Cu1 Cu 0.49256(7) 0.35215(4) 0.65381(2) 0.01096(11) Uani 1 1 d . .
H41N H 0.370(6) 0.270(3) 0.5195(19) 0.016 Uiso 1 1 d D U
H42N H 0.619(5) 0.328(3) 0.5160(16) 0.016 Uiso 1 1 d D U
loop_
_atom_site_aniso_label
_atom_site_aniso_U_11
_atom_site_aniso_U_22
_atom_site_aniso_U_33
_atom_site_aniso_U_23
_atom_site_aniso_U_13
_atom_site_aniso_U_12
C1 0.0087(13) 0.0122(13) 0.0181(15) -0.0016(11) 0.0007(11) -0.0028(11)
C2 0.0112(14) 0.0165(15) 0.0211(16) -0.0001(12) -0.0033(12) 0.0030(12)
C3 0.0144(15) 0.0226(16) 0.0282(18) -0.0064(14) 0.0042(13) 0.0036(13)
C4 0.0215(16) 0.0271(17) 0.0171(16) -0.0063(13) 0.0030(13) 0.0006(14)
C5 0.0173(16) 0.0209(16) 0.0168(16) -0.0036(12) -0.0006(12) 0.0035(12)
C6 0.0097(13) 0.0126(13) 0.0134(14) -0.0022(11) 0.0009(11) -0.0028(11)
C7 0.0118(14) 0.0161(14) 0.0150(15) 0.0016(11) -0.0028(11) -0.0001(11)
C8 0.0193(16) 0.0209(16) 0.0195(16) -0.0001(12) -0.0053(13) 0.0010(13)
C9 0.0286(19) 0.041(2) 0.0149(16) -0.0016(14) -0.0074(14) 0.0060(16)
C10 0.0115(14) 0.0115(13) 0.0160(15) 0.0007(11) -0.0013(11) -0.0029(11)
C11 0.0176(16) 0.0230(17) 0.0248(18) -0.0042(13) -0.0060(13) 0.0079(13)
C12 0.0166(15) 0.0134(14) 0.0165(15) -0.0049(11) 0.0003(12) 0.0002(12)
C13 0.0188(15) 0.0137(14) 0.0203(16) -0.0050(12) -0.0013(12) -0.0022(12)
N1 0.0105(11) 0.0127(11) 0.0113(12) -0.0006(9) -0.0018(9) 0.0007(9)
N2 0.0143(12) 0.0142(12) 0.0139(13) 0.0004(10) -0.0026(10) -0.0010(10)
N3 0.0115(12) 0.0103(11) 0.0151(12) -0.0020(9) 0.0008(9) -0.0027(9)
N4 0.0136(12) 0.0145(12) 0.0122(13) 0.0005(10) -0.0009(10) -0.0029(10)
O1 0.0224(13) 0.0481(16) 0.0307(14) -0.0030(12) -0.0104(11) 0.0019(11)
O11 0.0109(10) 0.0129(10) 0.0127(10) 0.0022(8) -0.0007(8) -0.0027(8)
O12 0.0170(11) 0.0133(10) 0.0226(12) -0.0059(8) 0.0014(9) -0.0055(8)
O13 0.0181(11) 0.0140(10) 0.0170(11) -0.0007(8) -0.0059(9) 0.0042(8)
S1 0.0090(3) 0.0086(3) 0.0132(4) -0.0007(3) -0.0027(3) -0.0003(3)
Cu1 0.01034(18) 0.01031(18) 0.01096(19) -0.00059(13) -0.00177(13) 0.00062(13)
loop_
_atom_type_symbol
_atom_type_description
_atom_type_scat_dispersion_real
_atom_type_scat_dispersion_imag
_atom_type_scat_source
C C 0.0033 0.0016 'International Tables Vol C Tables 4.2.6.8 and 6.1.1.4'
H H 0.0000 0.0000 'International Tables Vol C Tables 4.2.6.8 and 6.1.1.4'
N N 0.0061 0.0033 'International Tables Vol C Tables 4.2.6.8 and 6.1.1.4'
O O 0.0106 0.0060 'International Tables Vol C Tables 4.2.6.8 and 6.1.1.4'
S S 0.1246 0.1234 'International Tables Vol C Tables 4.2.6.8 and 6.1.1.4'
Cu Cu 0.3201 1.2651 'International Tables Vol C Tables 4.2.6.8 and 6.1.1.4'
loop_
_geom_angle_atom_site_label_1
_geom_angle_atom_site_label_2
_geom_angle_atom_site_label_3
_geom_angle
C2 C1 C6 120.4(3)
C2 C1 S1 115.6(2)
C6 C1 S1 123.9(2)
C3 C2 C1 120.8(3)
C2 C3 C4 119.4(3)
C3 C4 C5 120.7(3)
C4 C5 C6 121.4(3)
C5 C6 C1 117.2(2)
C5 C6 N1 120.5(2)
C1 C6 N1 122.3(2)
N2 C7 C10 128.0(3)
N2 C7 C8 109.6(2)
C10 C7 C8 122.4(2)
O1 C8 C7 122.4(3)
O1 C8 C9 119.9(3)
C7 C8 C9 117.7(3)
N3 C10 C7 119.4(2)
N3 C10 C11 121.0(3)
C7 C10 C11 119.6(2)
N3 C12 C13 107.7(2)
N4 C13 C12 108.4(2)
N2 N1 C6 110.4(2)
N2 N1 Cu1 122.95(18)
C6 N1 Cu1 126.55(18)
N1 N2 C7 126.2(2)
C10 N3 C12 120.9(2)
C10 N3 Cu1 125.87(19)
C12 N3 Cu1 110.90(17)
C13 N4 Cu1 107.90(17)
S1 O11 Cu1 114.28(11)
O13 S1 O12 114.80(12)
O13 S1 O11 110.26(12)
O12 S1 O11 111.07(11)
O13 S1 C1 107.89(12)
O12 S1 C1 107.64(13)
O11 S1 C1 104.58(12)
N1 Cu1 N3 93.62(10)
N1 Cu1 O11 92.06(9)
N3 Cu1 O11 166.75(9)
N1 Cu1 N4 163.70(10)
N3 Cu1 N4 86.20(10)
O11 Cu1 N4 91.67(9)
loop_
_geom_bond_atom_site_label_1
_geom_bond_atom_site_label_2
_geom_bond_distance
C1 C2 1.400(4)
C1 C6 1.405(4)
C1 S1 1.760(3)
C2 C3 1.369(4)
C3 C4 1.381(4)
C4 C5 1.380(4)
C5 C6 1.400(4)
C6 N1 1.434(3)
C7 N2 1.321(3)
C7 C10 1.459(4)
C7 C8 1.492(4)
C8 O1 1.223(4)
C8 C9 1.502(4)
C10 N3 1.294(4)
C10 C11 1.499(4)
C12 N3 1.476(3)
C12 C13 1.511(4)
C13 N4 1.480(4)
N1 N2 1.315(3)
N1 Cu1 1.928(2)
N3 Cu1 1.933(2)
N4 Cu1 1.986(2)
O11 S1 1.481(2)
O11 Cu1 1.9667(18)
O12 S1 1.446(2)
O13 S1 1.4383(19)
loop_
_geom_hbond_atom_site_label_D
_geom_hbond_atom_site_label_H
_geom_hbond_atom_site_label_A
_geom_hbond_distance_DH
_geom_hbond_distance_HA
_geom_hbond_distance_DA
_geom_hbond_angle_DHA
_geom_hbond_site_symmetry_A
C9 H9B O1 0.98 2.48 3.438(4) 166.4 1_455
C12 H12A O13 0.99 2.60 3.266(3) 124.7 1_645
N4 H41N O13 0.96(3) 2.08(3) 3.002(3) 161(3) 2_566
N4 H41N S1 0.96(3) 3.03(3) 3.892(3) 150(2) 2_566
N4 H42N O11 0.895(17) 2.16(2) 2.975(3) 151(3) 2_666
N4 H42N O12 0.895(17) 2.56(3) 2.966(3) 109(2) 1_655
