#------------------------------------------------------------------------------
#$Date: 2016-08-07 11:12:28 +0300 (Sun, 07 Aug 2016) $
#$Revision: 185184 $
#$URL: file:///home/coder/svn-repositories/cod/cif/7/22/56/7225680.cif $
#------------------------------------------------------------------------------
#
# This file is available in the Crystallography Open Database (COD),
# http://www.crystallography.net/
#
# All data on this site have been placed in the public domain by the
# contributors.
#
data_7225680
loop_
_publ_author_name
'Sovago, Ioana'
'Thomas, Lynne H.'
'Adam, Martin S.'
'Capelli, Silvia C.'
'Wilson, Chick C.'
'Farrugia, Louis J.'
_publ_section_title
;
 High resolution X-ray and neutron diffraction studies on molecular
 complexes of chloranilic acid and lutidines
;
_journal_issue                   30
_journal_name_full               CrystEngComm
_journal_page_first              5697
_journal_paper_doi               10.1039/C6CE01065B
_journal_volume                  18
_journal_year                    2016
_chemical_compound_source        commercial
_chemical_formula_moiety
;
C6 H Cl2 O4, C7 H10 N  
;
_chemical_formula_sum            'C13 H11 Cl2 N O4'
_chemical_formula_weight         316.13
_space_group_crystal_system      triclinic
_space_group_IT_number           2
_space_group_name_Hall           '-P 1'
_space_group_name_H-M_alt        'P -1'
_symmetry_space_group_name_Hall  '-P 1'
_symmetry_space_group_name_H-M   'P -1'
_atom_sites_solution_hydrogens   geom
_atom_sites_solution_primary     direct
_atom_sites_solution_secondary   difmap
_audit_update_record
;
2016-05-04 deposited with the CCDC.
2016-06-13 downloaded from the CCDC.
;
_cell_angle_alpha                93.526(2)
_cell_angle_beta                 104.359(2)
_cell_angle_gamma                110.821(2)
_cell_formula_units_Z            2
_cell_length_a                   9.0071(3)
_cell_length_b                   9.0326(3)
_cell_length_c                   9.0768(3)
_cell_measurement_reflns_used    14000
_cell_measurement_temperature    100(2)
_cell_measurement_theta_max      50.522
_cell_measurement_theta_min      2.348
_cell_measurement_wavelength     0.71073
_cell_volume                     659.48(4)
_computing_cell_refinement       'HKL Scalepack (Otwinowski & Minor 1997)'
_computing_data_collection       'Collect (Bruker AXS BV, 1997-2004)'
_computing_data_reduction
'HKL Denzo and Scalepack (Otwinowski & Minor 1997)'
_computing_molecular_graphics    'Ortep-3 for Windows (Farrugia, 1997)'
_computing_publication_material  'WinGX publication routines (Farrugia, 1999)'
_computing_structure_refinement  'SHELXL-97 (Sheldrick, 2008)'
_computing_structure_solution    'SHELXS-97 (Sheldrick, 2008)'
_diffrn_ambient_temperature      100(2)
_diffrn_detector                 'CCD plate'
_diffrn_detector_area_resol_mean 9
_diffrn_measured_fraction_theta_full 0.999
_diffrn_measured_fraction_theta_max 0.988
_diffrn_measurement_device       '95mm CCD camera on \k-goniostat'
_diffrn_measurement_device_type  KappaCCD
_diffrn_measurement_method       'CCD rotation images, thick slices'
_diffrn_orient_matrix_type       'by Bruker AXS Collect from scalepack cell'
_diffrn_orient_matrix_UB_11      0.215013E-1
_diffrn_orient_matrix_UB_12      -0.1012639
_diffrn_orient_matrix_UB_13      -0.8928E-3
_diffrn_orient_matrix_UB_21      -0.595806E-1
_diffrn_orient_matrix_UB_22      -0.314661E-1
_diffrn_orient_matrix_UB_23      0.796033E-1
_diffrn_orient_matrix_UB_31      -0.1067006
_diffrn_orient_matrix_UB_32      -0.563804E-1
_diffrn_orient_matrix_UB_33      -0.834197E-1
_diffrn_radiation_monochromator  graphite
_diffrn_radiation_probe          x-ray
_diffrn_radiation_type           MoK\a
_diffrn_radiation_wavelength     0.71073
_diffrn_reflns_av_R_equivalents  0.0311
_diffrn_reflns_av_unetI/netI     0.0295
_diffrn_reflns_Laue_measured_fraction_full 0.999
_diffrn_reflns_Laue_measured_fraction_max 0.988
_diffrn_reflns_limit_h_max       19
_diffrn_reflns_limit_h_min       -19
_diffrn_reflns_limit_k_max       19
_diffrn_reflns_limit_k_min       -19
_diffrn_reflns_limit_l_max       19
_diffrn_reflns_limit_l_min       -19
_diffrn_reflns_number            62289
_diffrn_reflns_point_group_measured_fraction_full 0.999
_diffrn_reflns_point_group_measured_fraction_max 0.988
_diffrn_reflns_reduction_process
;
 Scaled and merged with Sortav
 R.H. Blessing, (1987) Cryst. Rev. 1, 3-58
 R.H. Blessing, (1989) J. Appl. Cryst. 22, 396-397
;
_diffrn_reflns_theta_full        25.242
_diffrn_reflns_theta_max         50.52
_diffrn_reflns_theta_min         2.35
_exptl_absorpt_coefficient_mu    0.504
_exptl_absorpt_correction_T_max  0.7496
_exptl_absorpt_correction_T_min  0.5290
_exptl_absorpt_correction_type   multi-scan
_exptl_absorpt_process_details   'SADABS, Bruker(2001)'
_exptl_crystal_colour            red
_exptl_crystal_density_diffrn    1.592
_exptl_crystal_density_method    'not measured'
_exptl_crystal_description       prism
_exptl_crystal_F_000             324
_exptl_crystal_size_max          0.36
_exptl_crystal_size_mid          0.25
_exptl_crystal_size_min          0.20
_refine_diff_density_max         0.715
_refine_diff_density_min         -0.384
_refine_diff_density_rms         0.067
_refine_ls_extinction_method     none
_refine_ls_goodness_of_fit_ref   1.038
_refine_ls_hydrogen_treatment    refall
_refine_ls_matrix_type           full
_refine_ls_number_constraints    0
_refine_ls_number_parameters     225
_refine_ls_number_reflns         14000
_refine_ls_number_restraints     0
_refine_ls_restrained_S_all      1.038
_refine_ls_R_factor_all          0.0346
_refine_ls_R_factor_gt           0.0264
_refine_ls_shift/su_max          0.002
_refine_ls_shift/su_mean         0
_refine_ls_structure_factor_coef Fsqd
_refine_ls_weighting_details
'w=1/[\s^2^(Fo^2^)+(0.0485P)^2^+0.0127P] where P=(Fo^2^+2Fc^2^)/3'
_refine_ls_weighting_scheme      calc
_refine_ls_wR_factor_gt          0.0799
_refine_ls_wR_factor_ref         0.083
_reflns_Friedel_coverage         0
_reflns_number_gt                11619
_reflns_number_total             14000
_reflns_threshold_expression     'I > 2\s(I)'
_cod_data_source_file            c6ce01065b3.cif
_cod_data_source_block           1_(2,6)_shelx
_cod_depositor_comments
'Adding full bibliography for 7225667--7225698.cif.'
_cod_database_code               7225680
_shelx_res_file
;
 
    shelx.res created by SHELXL-2014/7
 
TITL 26lu1to1_shelx
CELL  0.71073   9.0071   9.0326   9.0768   93.526  104.359  110.821
ZERR     2.00   0.0003   0.0003   0.0003    0.002    0.002    0.002
LATT   1
SFAC  CL   O    N    C    H
UNIT  4 8 2 26 22
MERG   2
OMIT    -4  -3   3
OMIT     3   0   2
MPLA   6   C111 C112  C113 C114 C115 C116
MPLA   6   N125 C121 C122 C123 C124 C126
FMAP   2
PLAN   20
ACTA
BOND   $H
CONF
LIST   4
L.S.  10
WGHT    0.048500    0.012700
FVAR       0.94484
CL1   1    0.059860    0.848549    0.416477    11.00000    0.01712    0.01231 =
         0.01499    0.00305    0.00287    0.00743
CL2   1    0.292226    0.262252    0.419774    11.00000    0.02673    0.01713 =
         0.02004    0.00362    0.00790    0.01413
O3    2    0.330115    0.494217    0.687364    11.00000    0.02026    0.01890 =
         0.01187    0.00313    0.00013    0.01063
O2    2    0.209066    0.727668    0.691186    11.00000    0.01414    0.01531 =
         0.00973   -0.00090    0.00100    0.00618
O5    2    0.111601    0.360933    0.147749    11.00000    0.02141    0.01356 =
         0.01042    0.00014    0.00440    0.00575
O6    2    0.027407    0.614488    0.147651    11.00000    0.02162    0.01688 =
         0.00907    0.00327    0.00201    0.00738
N125  3    0.506541    0.827307    0.897576    11.00000    0.01122    0.01238 =
         0.01009    0.00162    0.00213    0.00374
C121  4    0.775996    1.027636    0.956689    11.00000    0.01275    0.01475 =
         0.01792    0.00288    0.00333    0.00267
C122  4    0.819207    0.970384    1.093609    11.00000    0.01216    0.01895 =
         0.01829    0.00306   -0.00013    0.00309
C123  4    0.703142    0.838784    1.129551    11.00000    0.01339    0.01845 =
         0.01410    0.00386    0.00037    0.00497
C124  4    0.543392    0.767479    1.028812    11.00000    0.01210    0.01335 =
         0.01122    0.00246    0.00257    0.00467
C126  4    0.616057    0.953169    0.857360    11.00000    0.01312    0.01246 =
         0.01227    0.00221    0.00403    0.00454
C24   4    0.405970    0.630591    1.057472    11.00000    0.01504    0.01606 =
         0.01567    0.00507    0.00500    0.00447
C26   4    0.556081    1.004116    0.707251    11.00000    0.01866    0.01718 =
         0.01424    0.00550    0.00613    0.00761
C111  4    0.114939    0.683319    0.419777    11.00000    0.01293    0.01006 =
         0.00972    0.00181    0.00199    0.00429
C112  4    0.188483    0.651250    0.562678    11.00000    0.01044    0.01080 =
         0.00917    0.00102    0.00151    0.00342
C113  4    0.253958    0.514437    0.563646    11.00000    0.01234    0.01158 =
         0.01032    0.00211    0.00200    0.00478
C114  4    0.223722    0.417573    0.417039    11.00000    0.01533    0.01165 =
         0.01171    0.00197    0.00377    0.00623
C115  4    0.142673    0.448339    0.282712    11.00000    0.01398    0.01077 =
         0.01011    0.00119    0.00378    0.00338
C116  4    0.088934    0.589345    0.278095    11.00000    0.01276    0.01090 =
         0.00906    0.00210    0.00247    0.00305
H121  5    0.851065    1.119136    0.929169    11.00000    0.02335
H122  5    0.928584    1.021155    1.160871    11.00000    0.02713
H123  5    0.726597    0.793112    1.224576    11.00000    0.03152
H125  5    0.403596    0.782397    0.831938    11.00000    0.02225
H24A  5    0.357977    0.542025    0.974449    11.00000    0.03381
H24B  5    0.320613    0.667023    1.074206    11.00000    0.04023
H24C  5    0.451348    0.593170    1.159680    11.00000    0.05310
H26A  5    0.527810    0.919695    0.622252    11.00000    0.03659
H26B  5    0.458540    1.023007    0.702956    11.00000    0.03473
H26C  5    0.629445    1.099656    0.700740    11.00000    0.04767
H5    5    0.061937    0.400518    0.070984    11.00000    0.04739
HKLF    4
 
REM  26lu1to1_shelx
REM R1 =  0.0264 for   11619 Fo > 4sig(Fo)  and  0.0346 for all   14000 data
REM    225 parameters refined using      0 restraints
 
END
;
loop_
_symmetry_equiv_pos_as_xyz
'x, y, z'
'-x, -y, -z'
loop_
_atom_site_label
_atom_site_type_symbol
_atom_site_fract_x
_atom_site_fract_y
_atom_site_fract_z
_atom_site_U_iso_or_equiv
_atom_site_adp_type
_atom_site_occupancy
_atom_site_site_symmetry_order
_atom_site_calc_flag
Cl1 Cl 0.05986(2) 0.84855(2) 0.41648(2) 0.01460(2) Uani 1 1 d
Cl2 Cl 0.29223(2) 0.26225(2) 0.41977(2) 0.01941(2) Uani 1 1 d
O3 O 0.33012(4) 0.49422(4) 0.68736(3) 0.01696(4) Uani 1 1 d
O2 O 0.20907(3) 0.72767(3) 0.69119(3) 0.01352(4) Uani 1 1 d
O5 O 0.11160(4) 0.36093(3) 0.14775(3) 0.01553(4) Uani 1 1 d
O6 O 0.02741(4) 0.61449(4) 0.14765(3) 0.01627(4) Uani 1 1 d
N125 N 0.50654(3) 0.82731(3) 0.89758(3) 0.01165(3) Uani 1 1 d
C121 C 0.77600(4) 1.02764(5) 0.95669(5) 0.01609(5) Uani 1 1 d
C122 C 0.81921(5) 0.97038(5) 1.09361(5) 0.01817(6) Uani 1 1 d
C123 C 0.70314(4) 0.83878(5) 1.12955(4) 0.01628(5) Uani 1 1 d
C124 C 0.54339(4) 0.76748(4) 1.02881(4) 0.01242(4) Uani 1 1 d
C126 C 0.61606(4) 0.95317(4) 0.85736(4) 0.01265(4) Uani 1 1 d
C24 C 0.40597(5) 0.63059(5) 1.05747(4) 0.01580(5) Uani 1 1 d
C26 C 0.55608(5) 1.00412(5) 0.70725(4) 0.01608(5) Uani 1 1 d
C111 C 0.11494(4) 0.68332(4) 0.41978(3) 0.01117(4) Uani 1 1 d
C112 C 0.18848(4) 0.65125(4) 0.56268(3) 0.01061(4) Uani 1 1 d
C113 C 0.25396(4) 0.51444(4) 0.56365(3) 0.01159(4) Uani 1 1 d
C114 C 0.22372(4) 0.41757(4) 0.41704(4) 0.01262(4) Uani 1 1 d
C115 C 0.14267(4) 0.44834(4) 0.28271(4) 0.01198(4) Uani 1 1 d
C116 C 0.08893(4) 0.58934(4) 0.27809(3) 0.01145(4) Uani 1 1 d
H121 H 0.8511(11) 1.1191(11) 0.9292(11) 0.023(2) Uiso 1 1 d
H122 H 0.9286(12) 1.0212(12) 1.1609(11) 0.027(2) Uiso 1 1 d
H123 H 0.7266(12) 0.7931(12) 1.2246(12) 0.032(2) Uiso 1 1 d
H125 H 0.4036(11) 0.7824(11) 0.8319(10) 0.022(2) Uiso 1 1 d
H24A H 0.3580(13) 0.5420(13) 0.9744(13) 0.034(2) Uiso 1 1 d
H24B H 0.3206(14) 0.6670(14) 1.0742(13) 0.040(3) Uiso 1 1 d
H24C H 0.4513(16) 0.5932(15) 1.1597(15) 0.053(3) Uiso 1 1 d
H26A H 0.5278(13) 0.9197(13) 0.6223(12) 0.037(3) Uiso 1 1 d
H26B H 0.4585(13) 1.0230(13) 0.7030(12) 0.035(2) Uiso 1 1 d
H26C H 0.6294(15) 1.0997(15) 0.7007(14) 0.048(3) Uiso 1 1 d
H5 H 0.0619(14) 0.4005(14) 0.0710(14) 0.047(3) Uiso 1 1 d
loop_
_atom_site_aniso_label
_atom_site_aniso_U_11
_atom_site_aniso_U_22
_atom_site_aniso_U_33
_atom_site_aniso_U_23
_atom_site_aniso_U_13
_atom_site_aniso_U_12
Cl1 0.01712(3) 0.01231(3) 0.01499(3) 0.00305(2) 0.00287(2) 0.00743(2)
Cl2 0.02673(4) 0.01713(3) 0.02004(4) 0.00362(3) 0.00790(3) 0.01413(3)
O3 0.02026(11) 0.01890(10) 0.01187(8) 0.00313(7) 0.00013(7) 0.01063(9)
O2 0.01414(8) 0.01531(8) 0.00973(7) -0.00090(6) 0.00100(6) 0.00618(7)
O5 0.02141(11) 0.01356(8) 0.01042(8) 0.00014(6) 0.00440(7) 0.00575(8)
O6 0.02162(11) 0.01688(9) 0.00907(7) 0.00327(7) 0.00201(7) 0.00738(8)
N125 0.01122(8) 0.01238(8) 0.01009(8) 0.00162(6) 0.00213(6) 0.00374(6)
C121 0.01275(10) 0.01475(11) 0.01792(12) 0.00288(9) 0.00333(9) 0.00267(9)
C122 0.01216(10) 0.01895(13) 0.01829(13) 0.00306(10) -0.00013(9) 0.00309(9)
C123 0.01339(10) 0.01845(12) 0.01410(11) 0.00386(9) 0.00037(8) 0.00497(9)
C124 0.01210(9) 0.01335(10) 0.01122(9) 0.00246(7) 0.00257(7) 0.00467(8)
C126 0.01312(10) 0.01246(9) 0.01227(9) 0.00221(7) 0.00403(8) 0.00454(8)
C24 0.01504(11) 0.01606(11) 0.01567(11) 0.00507(9) 0.00500(9) 0.00447(9)
C26 0.01866(12) 0.01718(12) 0.01424(11) 0.00550(9) 0.00613(9) 0.00761(10)
C111 0.01293(9) 0.01006(8) 0.00972(8) 0.00181(7) 0.00199(7) 0.00429(7)
C112 0.01044(8) 0.01080(8) 0.00917(8) 0.00102(6) 0.00151(6) 0.00342(7)
C113 0.01234(9) 0.01158(9) 0.01032(9) 0.00211(7) 0.00200(7) 0.00478(7)
C114 0.01533(10) 0.01165(9) 0.01171(9) 0.00197(7) 0.00377(8) 0.00623(8)
C115 0.01398(10) 0.01077(9) 0.01011(9) 0.00119(7) 0.00378(7) 0.00338(7)
C116 0.01276(9) 0.01090(9) 0.00906(8) 0.00210(7) 0.00247(7) 0.00305(7)
loop_
_atom_type_symbol
_atom_type_description
_atom_type_scat_dispersion_real
_atom_type_scat_dispersion_imag
_atom_type_scat_source
Cl Cl 0.1484 0.1585 'International Tables Vol C Tables 4.2.6.8 and 6.1.1.4'
O O 0.0106 0.006 'International Tables Vol C Tables 4.2.6.8 and 6.1.1.4'
N N 0.0061 0.0033 'International Tables Vol C Tables 4.2.6.8 and 6.1.1.4'
C C 0.0033 0.0016 'International Tables Vol C Tables 4.2.6.8 and 6.1.1.4'
H H 0 0 'International Tables Vol C Tables 4.2.6.8 and 6.1.1.4'
loop_
_geom_angle_atom_site_label_1
_geom_angle_atom_site_label_2
_geom_angle_atom_site_label_3
_geom_angle
C115 O5 H5 110.5(8)
C126 N125 C124 123.96(3)
C126 N125 H125 116.7(6)
C124 N125 H125 119.3(6)
C126 C121 C122 119.38(3)
C126 C121 H121 117.9(5)
C122 C121 H121 122.7(6)
C121 C122 C123 120.16(3)
C121 C122 H122 119.2(6)
C123 C122 H122 120.7(6)
C124 C123 C122 119.28(3)
C124 C123 H123 117.0(6)
C122 C123 H123 123.7(6)
N125 C124 C123 118.61(3)
N125 C124 C24 116.98(3)
C123 C124 C24 124.39(3)
N125 C126 C121 118.60(3)
N125 C126 C26 117.42(3)
C121 C126 C26 123.98(3)
C124 C24 H24A 112.1(6)
C124 C24 H24B 109.7(7)
H24A C24 H24B 109.9(9)
C124 C24 H24C 109.4(7)
H24A C24 H24C 109.6(9)
H24B C24 H24C 105.9(10)
C126 C26 H26A 110.3(6)
C126 C26 H26B 110.5(7)
H26A C26 H26B 106.8(9)
C126 C26 H26C 110.3(8)
H26A C26 H26C 114.7(10)
H26B C26 H26C 104.0(10)
C112 C111 C116 122.67(3)
C112 C111 Cl1 118.50(2)
C116 C111 Cl1 118.80(2)
O2 C112 C111 124.96(3)
O2 C112 C113 116.95(3)
C111 C112 C113 118.07(3)
O3 C113 C114 123.31(3)
O3 C113 C112 118.38(3)
C114 C113 C112 118.30(3)
C115 C114 C113 120.82(3)
C115 C114 Cl2 121.21(3)
C113 C114 Cl2 117.96(2)
O5 C115 C114 122.14(3)
O5 C115 C116 116.13(3)
C114 C115 C116 121.68(3)
O6 C116 C111 125.34(3)
O6 C116 C115 116.47(3)
C111 C116 C115 118.17(3)
loop_
_geom_bond_atom_site_label_1
_geom_bond_atom_site_label_2
_geom_bond_distance
Cl1 C111 1.7317(3)
Cl2 C114 1.7210(3)
O3 C113 1.2236(4)
O2 C112 1.2547(4)
O5 C115 1.3252(4)
O5 H5 0.896(12)
O6 C116 1.2481(4)
N125 C126 1.3532(4)
N125 C124 1.3534(4)
N125 H125 0.899(9)
C121 C126 1.3903(5)
C121 C122 1.3949(6)
C121 H121 0.956(9)
C122 C123 1.3949(6)
C122 H122 0.949(10)
C123 C124 1.3919(5)
C123 H123 0.987(10)
C124 C24 1.4966(5)
C126 C26 1.4996(5)
C24 H24A 0.956(11)
C24 H24B 0.977(11)
C24 H24C 1.044(13)
C26 H26A 0.966(11)
C26 H26B 0.945(11)
C26 H26C 0.897(12)
C111 C112 1.4006(4)
C111 C116 1.4157(4)
C112 C113 1.5466(4)
C113 C114 1.4554(4)
C114 C115 1.3569(5)
C115 C116 1.5143(5)
loop_
_geom_torsion_atom_site_label_1
_geom_torsion_atom_site_label_2
_geom_torsion_atom_site_label_3
_geom_torsion_atom_site_label_4
_geom_torsion
C126 C121 C122 C123 0.53(6)
C121 C122 C123 C124 -1.18(7)
C126 N125 C124 C123 0.07(5)
C126 N125 C124 C24 178.33(3)
C122 C123 C124 N125 0.88(6)
C122 C123 C124 C24 -177.24(4)
C124 N125 C126 C121 -0.72(5)
C124 N125 C126 C26 179.52(3)
C122 C121 C126 N125 0.40(6)
C122 C121 C126 C26 -179.86(4)
C116 C111 C112 O2 -177.51(3)
Cl1 C111 C112 O2 4.62(4)
C116 C111 C112 C113 4.19(4)
Cl1 C111 C112 C113 -173.68(2)
O2 C112 C113 O3 -4.21(5)
C111 C112 C113 O3 174.23(3)
O2 C112 C113 C114 176.58(3)
C111 C112 C113 C114 -4.98(4)
O3 C113 C114 C115 -178.04(3)
C112 C113 C114 C115 1.12(5)
O3 C113 C114 Cl2 2.52(5)
C112 C113 C114 Cl2 -178.31(2)
C113 C114 C115 O5 -179.15(3)
Cl2 C114 C115 O5 0.27(5)
C113 C114 C115 C116 3.49(5)
Cl2 C114 C115 C116 -177.09(2)
C112 C111 C116 O6 -178.38(3)
Cl1 C111 C116 O6 -0.51(5)
C112 C111 C116 C115 0.26(5)
Cl1 C111 C116 C115 178.12(2)
O5 C115 C116 O6 -3.14(4)
C114 C115 C116 O6 174.37(3)
O5 C115 C116 C111 178.10(3)
C114 C115 C116 C111 -4.38(5)
