#------------------------------------------------------------------------------
#$Date: 2016-08-07 11:34:54 +0300 (Sun, 07 Aug 2016) $
#$Revision: 185274 $
#$URL: file:///home/coder/svn-repositories/cod/cif/7/22/53/7225383.cif $
#------------------------------------------------------------------------------
#
# This file is available in the Crystallography Open Database (COD),
# http://www.crystallography.net/
#
# All data on this site have been placed in the public domain by the
# contributors.
#
data_7225383
loop_
_publ_author_name
'Bujak, Maciej'
'Podsiad\/lo, Marcin'
'Katrusiak, Andrzej'
_publ_section_title
;
 Halogen and hydrogen bonds in compressed pentachloroethane
;
_journal_issue                   28
_journal_name_full               CrystEngComm
_journal_page_first              5393
_journal_paper_doi               10.1039/C6CE01025C
_journal_volume                  18
_journal_year                    2016
_chemical_formula_moiety         'C2 H Cl5'
_chemical_formula_sum            'C2 H Cl5'
_chemical_formula_weight         202.28
_chemical_melting_point          244.37
_chemical_name_systematic        pentachloroethane
_space_group_crystal_system      monoclinic
_space_group_IT_number           14
_space_group_name_Hall           '-P 2yn'
_space_group_name_H-M_alt        'P 1 21/n 1'
_symmetry_space_group_name_Hall  '-P 2yn'
_symmetry_space_group_name_H-M   'P 1 21/n 1'
_atom_sites_solution_hydrogens   difmap
_atom_sites_solution_primary     direct
_atom_sites_solution_secondary   difmap
_audit_creation_method           SHELXL-2014/7
_audit_update_record
;
2016-04-29 deposited with the CCDC.
2016-05-30 downloaded from the CCDC.
;
_cell_angle_alpha                90
_cell_angle_beta                 111.75(3)
_cell_angle_gamma                90
_cell_formula_units_Z            4
_cell_length_a                   9.4194(9)
_cell_length_b                   11.2200(3)
_cell_length_c                   6.379(4)
_cell_measurement_pressure       1000000
_cell_measurement_reflns_used    2217
_cell_measurement_temperature    295(2)
_cell_measurement_theta_max      26.80
_cell_measurement_theta_min      5.89
_cell_volume                     626.2(4)
_computing_cell_refinement       'CrysAlisPro (Agilent Technologies, 2012)'
_computing_data_collection       'CrysAlisPro (Agilent Technologies, 2012)'
_computing_data_reduction        'CrysAlisPro (Agilent Technologies, 2012)'
_computing_molecular_graphics    'Mercury (Macrae at al., 2008)'
_computing_publication_material  'SHELXL-2014/7 (Sheldrick, 2014)'
_computing_structure_refinement  'SHELXL-2014/7 (Sheldrick, 2014)'
_computing_structure_solution    'SHELXS-97 (Sheldrick, 2008)'
_diffrn_ambient_environment      'diamond-anvil cell'
_diffrn_ambient_pressure         1000000
_diffrn_ambient_temperature      295(2)
_diffrn_measured_fraction_theta_full 0.272
_diffrn_measured_fraction_theta_max 0.247
_diffrn_measurement_device_type  'KUMA KM-4 CCD'
_diffrn_measurement_method       '\f- and \w-scans'
_diffrn_radiation_type           MoK\a
_diffrn_radiation_wavelength     0.71073
_diffrn_reflns_av_R_equivalents  0.0445
_diffrn_reflns_av_unetI/netI     0.0177
_diffrn_reflns_Laue_measured_fraction_full 0.272
_diffrn_reflns_Laue_measured_fraction_max 0.247
_diffrn_reflns_limit_h_max       11
_diffrn_reflns_limit_h_min       -11
_diffrn_reflns_limit_k_max       14
_diffrn_reflns_limit_k_min       -14
_diffrn_reflns_limit_l_max       1
_diffrn_reflns_limit_l_min       -1
_diffrn_reflns_number            3483
_diffrn_reflns_point_group_measured_fraction_full 0.272
_diffrn_reflns_point_group_measured_fraction_max 0.247
_diffrn_reflns_theta_full        25.242
_diffrn_reflns_theta_max         27.395
_diffrn_reflns_theta_min         5.002
_diffrn_source                   'fine-focus sealed tube'
_exptl_absorpt_coefficient_mu    2.181
_exptl_absorpt_correction_T_max  1.00
_exptl_absorpt_correction_T_min  0.80
_exptl_absorpt_correction_type   multi-scan
_exptl_absorpt_process_details
;
Correction for absorption was made using CrysAlisPro,
Agilent Technologies, 2012.
;
_exptl_crystal_colour            colourless
_exptl_crystal_density_diffrn    2.146
_exptl_crystal_density_method    'not measured'
_exptl_crystal_description       pillar
_exptl_crystal_F_000             392
_exptl_crystal_size_max          0.180
_exptl_crystal_size_mid          0.180
_exptl_crystal_size_min          0.150
_refine_diff_density_max         0.165
_refine_diff_density_min         -0.156
_refine_diff_density_rms         0.044
_refine_ls_extinction_coef       0.036(7)
_refine_ls_extinction_expression Fc^*^=kFc[1+0.001xFc^2^\l^3^/sin(2\q)]^-1/4^
_refine_ls_extinction_method     'SHELXL-2014/7 (Sheldrick 2014'
_refine_ls_goodness_of_fit_ref   1.097
_refine_ls_hydrogen_treatment    constr
_refine_ls_matrix_type           full
_refine_ls_number_parameters     65
_refine_ls_number_reflns         350
_refine_ls_number_restraints     36
_refine_ls_restrained_S_all      1.099
_refine_ls_R_factor_all          0.0305
_refine_ls_R_factor_gt           0.0282
_refine_ls_shift/su_max          0.000
_refine_ls_shift/su_mean         0.000
_refine_ls_structure_factor_coef Fsqd
_refine_ls_weighting_details
'w=1/[\s^2^(Fo^2^)+(0.0451P)^2^+0.3029P] where P=(Fo^2^+2Fc^2^)/3'
_refine_ls_weighting_scheme      calc
_refine_ls_wR_factor_gt          0.0732
_refine_ls_wR_factor_ref         0.0745
_reflns_Friedel_coverage         0.000
_reflns_number_gt                324
_reflns_number_total             350
_reflns_threshold_expression     'I > 2\s(I)'
_cod_data_source_file            c6ce01025c3.cif
_cod_data_source_block           PCE_II_295K_100GPa
_cod_depositor_comments
'Adding full bibliography for 7225378--7225383.cif.'
_cod_database_code               7225383
_shelx_shelxl_version_number     2014/7
_shelx_space_group_comment
;
The symmetry employed for this shelxl refinement is uniquely defined
by the following loop, which should always be used as a source of
symmetry information in preference to the above space-group names.
They are only intended as comments.
;
_shelx_estimated_absorpt_t_min   0.695
_shelx_estimated_absorpt_t_max   0.736
loop_
_space_group_symop_operation_xyz
'x, y, z'
'-x+1/2, y+1/2, -z+1/2'
'-x, -y, -z'
'x-1/2, -y-1/2, z-1/2'
loop_
_atom_site_label
_atom_site_type_symbol
_atom_site_fract_x
_atom_site_fract_y
_atom_site_fract_z
_atom_site_U_iso_or_equiv
_atom_site_adp_type
_atom_site_occupancy
_atom_site_site_symmetry_order
_atom_site_calc_flag
_atom_site_refinement_flags_posn
_atom_site_refinement_flags_adp
C1 C 0.2767(5) 0.1655(5) 0.122(3) 0.033(7) Uani 1 1 d . U
Cl1 Cl 0.30146(11) 0.31706(8) 0.1896(6) 0.068(4) Uani 1 1 d . U
Cl2 Cl 0.44581(9) 0.08515(9) 0.2614(6) 0.075(4) Uani 1 1 d . U
Cl3 Cl 0.12664(10) 0.10783(8) 0.1877(6) 0.071(4) Uani 1 1 d . .
C2 C 0.2357(6) 0.1546(5) -0.146(3) 0.036(7) Uani 1 1 d . U
H1 H 0.1440 0.2024 -0.2235 0.043 Uiso 1 1 calc R U
Cl4 Cl 0.38306(13) 0.20978(10) -0.2219(7) 0.083(4) Uani 1 1 d . U
Cl5 Cl 0.19448(12) 0.00594(9) -0.2331(6) 0.077(4) Uani 1 1 d . U
loop_
_atom_site_aniso_label
_atom_site_aniso_U_11
_atom_site_aniso_U_22
_atom_site_aniso_U_33
_atom_site_aniso_U_23
_atom_site_aniso_U_13
_atom_site_aniso_U_12
C1 0.035(2) 0.0288(19) 0.033(19) -0.010(6) 0.010(6) -0.0022(17)
Cl1 0.0501(6) 0.0287(5) 0.113(11) -0.0085(10) 0.0160(13) -0.0047(3)
Cl2 0.0328(5) 0.0502(6) 0.122(10) 0.0161(13) 0.0052(11) 0.0104(4)
Cl3 0.0368(5) 0.0422(6) 0.132(10) 0.0004(11) 0.0274(12) -0.0036(3)
C2 0.041(2) 0.0284(19) 0.039(19) -0.010(6) 0.016(6) -0.0049(18)
Cl4 0.0686(8) 0.0465(6) 0.144(11) 0.0010(13) 0.0499(17) -0.0122(5)
Cl5 0.0581(7) 0.0394(6) 0.131(11) -0.0200(11) 0.0335(15) -0.0148(4)
loop_
_atom_type_symbol
_atom_type_description
_atom_type_scat_dispersion_real
_atom_type_scat_dispersion_imag
_atom_type_scat_source
C C 0.0033 0.0016 'International Tables Vol C Tables 4.2.6.8 and 6.1.1.4'
H H 0.0000 0.0000 'International Tables Vol C Tables 4.2.6.8 and 6.1.1.4'
Cl Cl 0.1484 0.1585 'International Tables Vol C Tables 4.2.6.8 and 6.1.1.4'
loop_
_geom_angle_atom_site_label_1
_geom_angle_atom_site_label_2
_geom_angle_atom_site_label_3
_geom_angle
C2 C1 Cl3 109.3(5)
C2 C1 Cl1 107.1(8)
Cl3 C1 Cl1 110.4(7)
C2 C1 Cl2 108.3(9)
Cl3 C1 Cl2 110.6(7)
Cl1 C1 Cl2 111.1(4)
C1 C2 Cl4 111.4(5)
C1 C2 Cl5 110.2(8)
Cl4 C2 Cl5 110.9(8)
C1 C2 H1 108.1
Cl4 C2 H1 108.1
Cl5 C2 H1 108.1
loop_
_geom_bond_atom_site_label_1
_geom_bond_atom_site_label_2
_geom_bond_distance
C1 C2 1.61(2)
C1 Cl3 1.741(12)
C1 Cl1 1.748(6)
C1 Cl2 1.759(6)
C2 Cl4 1.743(12)
C2 Cl5 1.755(7)
C2 H1 0.9800
loop_
_geom_torsion_atom_site_label_1
_geom_torsion_atom_site_label_2
_geom_torsion_atom_site_label_3
_geom_torsion_atom_site_label_4
_geom_torsion
Cl3 C1 C2 Cl4 -179.40(16)
Cl1 C1 C2 Cl4 61.0(5)
Cl2 C1 C2 Cl4 -58.9(5)
Cl3 C1 C2 Cl5 -56.0(6)
Cl1 C1 C2 Cl5 -175.51(19)
Cl2 C1 C2 Cl5 64.6(6)
