#------------------------------------------------------------------------------
#$Date: 2016-08-07 11:11:35 +0300 (Sun, 07 Aug 2016) $
#$Revision: 185181 $
#$URL: file:///home/coder/svn-repositories/cod/cif/7/22/55/7225596.cif $
#------------------------------------------------------------------------------
#
# This file is available in the Crystallography Open Database (COD),
# http://www.crystallography.net/
#
# All data on this site have been placed in the public domain by the
# contributors.
#
data_7225596
loop_
_publ_author_name
'Mocilac, P.'
'Osman, I. A.'
'Gallagher, J. F.'
_publ_section_title
;
 Short C--H&#x22EF;F interactions involving the 2,5-difluorobenzene group:
 understanding the role of fluorine in aggregation and complex C--F/C--H
 disorder in a 2 \\times 6 isomer grid
;
_journal_issue                   30
_journal_name_full               CrystEngComm
_journal_page_first              5764
_journal_paper_doi               10.1039/C6CE00795C
_journal_volume                  18
_journal_year                    2016
_chemical_absolute_configuration unk
_chemical_formula_moiety         'C13 H9 F2 N O'
_chemical_formula_sum            'C13 H9 F2 N O'
_chemical_formula_weight         233.21
_chemical_melting_point          377
_chemical_name_systematic        '(23_F2 or 10-015)'
_space_group_crystal_system      monoclinic
_space_group_IT_number           7
_space_group_name_Hall           'P -2yc'
_space_group_name_H-M_alt        'P 1 c 1'
_symmetry_space_group_name_Hall  'P -2yc'
_symmetry_space_group_name_H-M   'P 1 c 1'
_atom_sites_solution_hydrogens   mixed
_audit_creation_method           SHELXL-2014/7
_audit_update_record
;
2016-02-14 deposited with the CCDC.
2016-06-21 downloaded from the CCDC.
;
_cell_angle_alpha                90
_cell_angle_beta                 97.894(4)
_cell_angle_gamma                90
_cell_formula_units_Z            2
_cell_length_a                   5.2115(2)
_cell_length_b                   6.4193(3)
_cell_length_c                   16.1911(7)
_cell_measurement_reflns_used    2054
_cell_measurement_temperature    294(2)
_cell_measurement_theta_max      27.2
_cell_measurement_theta_min      3.4
_cell_volume                     536.53(4)
_computing_cell_refinement
;
CrysAlisPro, Agilent Technologies,
Version 1.171.34.49 (release 20-01-2011 CrysAlis171 .NET)
(compiled Jan 20 2011,15:58:25)
;
_computing_data_collection
;
CrysAlisPro, Agilent Technologies,
Version 1.171.34.49 (release 20-01-2011 CrysAlis171 .NET)
(compiled Jan 20 2011,15:58:25)
;
_computing_data_reduction
;
CrysAlisPro, Agilent Technologies,
Version 1.171.34.49 (release 20-01-2011 CrysAlis171 .NET)
(compiled Jan 20 2011,15:58:25)
;
_computing_molecular_graphics    'PLATON (Spek, 2009)'
_computing_publication_material  SHELXL-14/7
_computing_structure_refinement
'SHELXL97 and SHELXL-14/7 (Sheldrick, 2008) & SORTX (McArdle, 1995)'
_computing_structure_solution    'SHELXS-14/6 (Sheldrick, 2014)'
_diffrn_ambient_temperature      294(2)
_diffrn_detector_area_resol_mean 16.0560
_diffrn_measured_fraction_theta_full 0.998
_diffrn_measured_fraction_theta_max 0.956
_diffrn_measurement_device_type  'Xcalibur, Sapphire3, Gemini Ultra'
_diffrn_measurement_method       '\w scans'
_diffrn_radiation_monochromator  graphite
_diffrn_radiation_source         'Enhance (Mo) X-ray Source'
_diffrn_radiation_type           'Mo K\a'
_diffrn_radiation_wavelength     0.71073
_diffrn_reflns_av_R_equivalents  0.0217
_diffrn_reflns_av_unetI/netI     0.0241
_diffrn_reflns_Laue_measured_fraction_full 0.998
_diffrn_reflns_Laue_measured_fraction_max 0.956
_diffrn_reflns_limit_h_max       6
_diffrn_reflns_limit_h_min       -6
_diffrn_reflns_limit_k_max       8
_diffrn_reflns_limit_k_min       -8
_diffrn_reflns_limit_l_max       20
_diffrn_reflns_limit_l_min       -20
_diffrn_reflns_number            3561
_diffrn_reflns_point_group_measured_fraction_full 0.791
_diffrn_reflns_point_group_measured_fraction_max 0.744
_diffrn_reflns_theta_full        26.000
_diffrn_reflns_theta_max         27.334
_diffrn_reflns_theta_min         3.419
_exptl_absorpt_coefficient_mu    0.116
_exptl_absorpt_correction_T_max  1.00
_exptl_absorpt_correction_T_min  0.73
_exptl_absorpt_correction_type   multi-scan
_exptl_absorpt_process_details   'Empirical - ABSPACK'
_exptl_crystal_colour            colourless
_exptl_crystal_density_diffrn    1.444
_exptl_crystal_description       block
_exptl_crystal_F_000             240
_exptl_crystal_recrystallization_method
'Re-crystallisation from solvent: n-hexane'
_exptl_crystal_size_max          0.360
_exptl_crystal_size_mid          0.230
_exptl_crystal_size_min          0.130
_refine_diff_density_max         0.149
_refine_diff_density_min         -0.120
_refine_diff_density_rms         0.030
_refine_ls_abs_structure_details
;
Flack x from 445 quotients (Parsons et al., 2013)
;
_refine_ls_abs_structure_Flack   0.4(7)
_refine_ls_extinction_method     none
_refine_ls_goodness_of_fit_ref   1.033
_refine_ls_hydrogen_treatment    mixed
_refine_ls_matrix_type           full
_refine_ls_number_parameters     158
_refine_ls_number_reflns         1810
_refine_ls_number_restraints     2
_refine_ls_restrained_S_all      1.032
_refine_ls_R_factor_all          0.0492
_refine_ls_R_factor_gt           0.0394
_refine_ls_shift/su_max          0.000
_refine_ls_shift/su_mean         0.000
_refine_ls_structure_factor_coef Fsqd
_refine_ls_weighting_details
'w=1/[\s^2^(Fo^2^)+(0.0665P)^2^+0.0116P] where P=(Fo^2^+2Fc^2^)/3'
_refine_ls_weighting_scheme      calc
_refine_ls_wR_factor_gt          0.1020
_refine_ls_wR_factor_ref         0.1061
_reflns_Friedel_coverage         0.552
_reflns_Friedel_fraction_full    0.582
_reflns_Friedel_fraction_max     0.531
_reflns_number_gt                1466
_reflns_number_total             1810
_reflns_threshold_expression     I>2\s(I)
_cod_data_source_file            c6ce00795c2.cif
_cod_data_source_block           23_F2_294K
_cod_depositor_comments
'Adding full bibliography for 7225595--7225606.cif.'
_cod_database_code               7225596
_shelx_shelxl_version_number     2014/7
_shelx_space_group_comment
;
The symmetry employed for this shelxl refinement is uniquely defined
by the following loop, which should always be used as a source of
symmetry information in preference to the above space-group names.
They are only intended as comments.
;
_shelx_estimated_absorpt_t_min   0.960
_shelx_estimated_absorpt_t_max   0.985
_shelx_res_file
;

    10-015.res created by SHELXL-2014/7

TITL  10-015 is 23-F2 in Pc [Mo @ 45kV35mA to 0.80\%A] [SHELXL_14]
CELL  0.71073   5.2115   6.4193  16.1911   90.000   97.894   90.000
ZERR  2         0.0002   0.0003   0.0007    0.000    0.004    0.000
LATT  -1
SYMM  X,-Y,1/2+Z
SFAC  C H N O F
UNIT  26 18 2 2 4
MERG  2
MORE  1
L.S.  8 3
FMAP  2
LIST  4
ACTA  52
CONF
BOND $H
HTAB
EQIV  $2 1+X,Y,Z
EQIV  $3 X-1,1-Y,-1/2+Z
HTAB  N1 O1_$2
HTAB  N1 F12
HTAB  C22 O1
HTAB  C22 F13_$3
RTAB  FC F12 C12
RTAB  FC F13 C13
RTAB  CC C11 C1
RTAB  CO C1 O1
RTAB  CN C1 N1
RTAB  CN C21 N1
RTAB  NH N1 H1
RTAB  CC C14 C24
RTAB  CCO C11 C1 O1
RTAB  CCN C11 C1 N1
RTAB  NCO N1 C1 O1
RTAB  CNC C21 N1 C1
RTAB  CCN C22 C21 N1
RTAB  CCN C26 C21 N1
RTAB  CCC C12 C11 C1
RTAB  CCC C16 C11 C1
RTAB  CCC C14 C11 C1
RTAB  CCN C24 C21 N1
RTAB  OCCC O1 C1 C11 C12
RTAB  OCCC O1 C1 C11 C16
RTAB  CCNC C11 C1 N1 C21
RTAB  CCCN C12 C11 C1 N1
RTAB  CCCN C16 C11 C1 N1
RTAB  CCNC C22 C21 N1 C1
RTAB  CCNC C26 C21 N1 C1
SIZE  0.36 0.23 0.13
TEMP  21
PLAN  10
MPLA  6 C11 C12 C13 C14 C15 C16 F12 F13
MPLA  5 O1 N1 C1 C11 C21 F12 F13
MPLA  6 C21 C22 C23 C24 C25 C26 F12 F13
MPLA  6 C11 C12 C13 C14 C15 C16
MPLA  3 O1 N1 C1 C11 C21
MPLA  6 C21 C22 C23 C24 C25 C26
WGHT    0.066500    0.011600
FVAR      13.03460
MOLE    1
F12   5    0.874440    0.687238    0.168632    11.00000    0.06824    0.06423 =
         0.07592    0.00184   -0.01208   -0.01716
F13   5    1.004503    0.382846    0.275504    11.00000    0.09204    0.09423 =
         0.08520    0.01512   -0.02107    0.00690
O1    4    0.187339    0.693081    0.020352    11.00000    0.03821    0.07513 =
         0.09547    0.02093    0.00743    0.00076
N1    3    0.602732    0.773630    0.009202    11.00000    0.03356    0.04394 =
         0.06698    0.00382    0.00181    0.00238
H1    2    0.789230    0.744799    0.029342    11.00000    0.05930
C1    1    0.421183    0.664612    0.040663    11.00000    0.03859    0.04516 =
         0.06060   -0.00397    0.00584   -0.00136
C11   1    0.510076    0.497977    0.102062    11.00000    0.04539    0.04095 =
         0.05827   -0.00582    0.01049    0.00037
C12   1    0.728545    0.513748    0.161569    11.00000    0.05121    0.04386 =
         0.05764   -0.00443    0.00772   -0.00108
C13   1    0.795221    0.355189    0.217670    11.00000    0.06504    0.06224 =
         0.05924   -0.00255    0.00749    0.01117
C14   1    0.652991    0.177792    0.216301    11.00000    0.08781    0.05147 =
         0.07496    0.00908    0.01999    0.01665
AFIX  43
H14   2    0.701848    0.070860    0.253946    11.00000   -1.20000
AFIX   0
C15   1    0.436455    0.159054    0.158556    11.00000    0.08888    0.04346 =
         0.09621    0.00241    0.02212   -0.01142
AFIX  43
H15   2    0.336884    0.038549    0.157128    11.00000   -1.20000
AFIX   0
C16   1    0.364212    0.317559    0.102293    11.00000    0.06617    0.05170 =
         0.07827   -0.00059    0.00798   -0.00923
AFIX  43
H16   2    0.215192    0.302803    0.063961    11.00000   -1.20000
AFIX   0
C21   1    0.562554    0.950602   -0.044346    11.00000    0.04310    0.04174 =
         0.05565   -0.00201    0.00690    0.00621
C22   1    0.344024    0.974959   -0.101378    11.00000    0.05174    0.06417 =
         0.05960    0.00042    0.00296   -0.00083
AFIX  43
H22   2    0.216541    0.872611   -0.107828    11.00000   -1.20000
AFIX   0
C23   1    0.316573    1.156155   -0.149534    11.00000    0.06287    0.08083 =
         0.06569    0.01744    0.00871    0.01550
AFIX  43
H23   2    0.168519    1.174954   -0.187947    11.00000   -1.20000
AFIX   0
C24   1    0.503572    1.305546   -0.140993    11.00000    0.07197    0.06240 =
         0.08788    0.02306    0.03206    0.01937
AFIX  43
H24   2    0.481457    1.426302   -0.172912    11.00000   -1.20000
AFIX   0
C25   1    0.725449    1.278433   -0.085227    11.00000    0.06832    0.05061 =
         0.09763    0.00993    0.02328   -0.00315
AFIX  43
H25   2    0.855125    1.378999   -0.079921    11.00000   -1.20000
AFIX   0
C26   1    0.752755    1.099669   -0.037244    11.00000    0.04580    0.05141 =
         0.08495    0.00338    0.00388   -0.00149
AFIX  43
H26   2    0.902370    1.080198    0.000423    11.00000   -1.20000
AFIX   0
HKLF    4

REM   10-015 is 23-F2 in Pc [Mo @ 45kV35mA to 0.80\%A] [SHELXL_14]
REM R1 =  0.0394 for    1466 Fo > 4sig(Fo)  and  0.0492 for all    1810 data
REM    158 parameters refined using      2 restraints

END

WGHT      0.0665      0.0116

REM Instructions for potential hydrogen bonds
HTAB N1 F12
HTAB N1 O1_$2
HTAB C22 F13_$3
HTAB C22 O1

REM Highest difference peak  0.149,  deepest hole -0.120,  1-sigma level  0.030
Q1    1   0.6605  0.4974  0.1101  11.00000  0.05    0.15
Q2    1   0.8565  0.6991  0.1050  11.00000  0.05    0.13
Q3    1   0.5183  0.9397 -0.1111  11.00000  0.05    0.13
Q4    1   0.5240  1.3026 -0.0711  11.00000  0.05    0.13
Q5    1   0.5627  0.5026  0.1661  11.00000  0.05    0.13
Q6    1   0.2399  0.6967  0.0844  11.00000  0.05    0.12
Q7    1   0.5806  0.7625 -0.0553  11.00000  0.05    0.12
Q8    1   0.5055  0.1985  0.2144  11.00000  0.05    0.12
Q9    1   0.3660  0.9660 -0.0312  11.00000  0.05    0.11
Q10   1   0.7750  1.1043  0.0338  11.00000  0.05    0.11
;
_shelx_res_checksum              92236
loop_
_space_group_symop_operation_xyz
'x, y, z'
'x, -y, z+1/2'
loop_
_atom_site_label
_atom_site_type_symbol
_atom_site_fract_x
_atom_site_fract_y
_atom_site_fract_z
_atom_site_U_iso_or_equiv
_atom_site_adp_type
_atom_site_occupancy
_atom_site_site_symmetry_order
_atom_site_calc_flag
_atom_site_refinement_flags_posn
_atom_site_refinement_flags_adp
F12 F 0.8744(4) 0.6872(3) 0.16863(15) 0.0715(6) Uani 1 1 d . .
F13 F 1.0045(5) 0.3828(4) 0.27550(17) 0.0936(8) Uani 1 1 d . .
O1 O 0.1873(4) 0.6931(4) 0.02035(19) 0.0698(7) Uani 1 1 d . .
N1 N 0.6027(5) 0.7736(4) 0.00920(18) 0.0486(6) Uani 1 1 d . .
H1 H 0.789(8) 0.745(5) 0.029(2) 0.059(9) Uiso 1 1 d . .
C1 C 0.4212(5) 0.6646(5) 0.0407(2) 0.0482(7) Uani 1 1 d . .
C11 C 0.5101(6) 0.4980(4) 0.10206(19) 0.0479(7) Uani 1 1 d . .
C12 C 0.7285(6) 0.5137(5) 0.1616(2) 0.0509(7) Uani 1 1 d . .
C13 C 0.7952(7) 0.3552(6) 0.2177(2) 0.0623(9) Uani 1 1 d . .
C14 C 0.6530(8) 0.1778(6) 0.2163(3) 0.0706(10) Uani 1 1 d . .
H14 H 0.7018 0.0709 0.2539 0.085 Uiso 1 1 calc R U
C15 C 0.4365(9) 0.1591(6) 0.1586(3) 0.0753(11) Uani 1 1 d . .
H15 H 0.3369 0.0385 0.1571 0.090 Uiso 1 1 calc R U
C16 C 0.3642(8) 0.3176(5) 0.1023(3) 0.0656(9) Uani 1 1 d . .
H16 H 0.2152 0.3028 0.0640 0.079 Uiso 1 1 calc R U
C21 C 0.5626(5) 0.9506(4) -0.04435(18) 0.0468(7) Uani 1 1 d . .
C22 C 0.3440(6) 0.9750(6) -0.1014(2) 0.0589(8) Uani 1 1 d . .
H22 H 0.2165 0.8726 -0.1078 0.071 Uiso 1 1 calc R U
C23 C 0.3166(7) 1.1562(6) -0.1495(2) 0.0698(10) Uani 1 1 d . .
H23 H 0.1685 1.1750 -0.1879 0.084 Uiso 1 1 calc R U
C24 C 0.5036(8) 1.3055(7) -0.1410(3) 0.0721(11) Uani 1 1 d . .
H24 H 0.4815 1.4263 -0.1729 0.087 Uiso 1 1 calc R U
C25 C 0.7254(8) 1.2784(6) -0.0852(3) 0.0711(11) Uani 1 1 d . .
H25 H 0.8551 1.3790 -0.0799 0.085 Uiso 1 1 calc R U
C26 C 0.7528(7) 1.0997(5) -0.0372(2) 0.0612(9) Uani 1 1 d . .
H26 H 0.9024 1.0802 0.0004 0.073 Uiso 1 1 calc R U
loop_
_atom_site_aniso_label
_atom_site_aniso_U_11
_atom_site_aniso_U_22
_atom_site_aniso_U_33
_atom_site_aniso_U_23
_atom_site_aniso_U_13
_atom_site_aniso_U_12
F12 0.0682(13) 0.0642(12) 0.0759(13) 0.0018(10) -0.0121(10) -0.0172(11)
F13 0.0920(17) 0.0942(18) 0.0852(15) 0.0151(14) -0.0211(13) 0.0069(15)
O1 0.0382(12) 0.0751(16) 0.0955(19) 0.0209(14) 0.0074(11) 0.0008(11)
N1 0.0336(12) 0.0439(13) 0.0670(17) 0.0038(13) 0.0018(11) 0.0024(10)
C1 0.0386(16) 0.0452(16) 0.0606(18) -0.0040(14) 0.0058(13) -0.0014(12)
C11 0.0454(15) 0.0410(16) 0.0583(18) -0.0058(15) 0.0105(14) 0.0004(13)
C12 0.0512(17) 0.0439(18) 0.0576(17) -0.0044(14) 0.0077(15) -0.0011(13)
C13 0.065(2) 0.062(2) 0.059(2) -0.0025(17) 0.0075(17) 0.0112(17)
C14 0.088(3) 0.051(2) 0.075(2) 0.009(2) 0.020(2) 0.0166(19)
C15 0.089(3) 0.043(2) 0.096(3) 0.0024(19) 0.022(2) -0.0114(19)
C16 0.066(2) 0.052(2) 0.078(2) -0.0006(18) 0.0080(19) -0.0092(17)
C21 0.0431(15) 0.0417(17) 0.0556(17) -0.0020(14) 0.0069(14) 0.0062(13)
C22 0.0517(19) 0.064(2) 0.0596(18) 0.0004(17) 0.0030(16) -0.0008(16)
C23 0.063(2) 0.081(3) 0.066(2) 0.0174(19) 0.0087(18) 0.016(2)
C24 0.072(2) 0.062(2) 0.088(3) 0.023(2) 0.032(2) 0.0194(19)
C25 0.068(2) 0.051(2) 0.098(3) 0.010(2) 0.023(2) -0.0032(17)
C26 0.0458(16) 0.0514(19) 0.085(2) 0.0034(19) 0.0039(16) -0.0015(14)
loop_
_atom_type_symbol
_atom_type_description
_atom_type_scat_dispersion_real
_atom_type_scat_dispersion_imag
_atom_type_scat_source
C C 0.0033 0.0016 'International Tables Vol C Tables 4.2.6.8 and 6.1.1.4'
H H 0.0000 0.0000 'International Tables Vol C Tables 4.2.6.8 and 6.1.1.4'
N N 0.0061 0.0033 'International Tables Vol C Tables 4.2.6.8 and 6.1.1.4'
O O 0.0106 0.0060 'International Tables Vol C Tables 4.2.6.8 and 6.1.1.4'
F F 0.0171 0.0103 'International Tables Vol C Tables 4.2.6.8 and 6.1.1.4'
loop_
_geom_angle_atom_site_label_1
_geom_angle_atom_site_label_2
_geom_angle_atom_site_label_3
_geom_angle
C1 N1 C21 126.7(2)
C1 N1 H1 119(2)
C21 N1 H1 114(2)
O1 C1 N1 123.3(3)
O1 C1 C11 119.4(3)
N1 C1 C11 117.4(3)
C16 C11 C12 117.1(3)
C16 C11 C1 118.8(3)
C12 C11 C1 124.1(2)
F12 C12 C13 117.9(3)
F12 C12 C11 121.3(3)
C13 C12 C11 120.8(3)
F13 C13 C14 120.6(3)
F13 C13 C12 117.9(3)
C14 C13 C12 121.5(3)
C13 C14 C15 118.8(3)
C13 C14 H14 120.6
C15 C14 H14 120.6
C14 C15 C16 120.6(4)
C14 C15 H15 119.7
C16 C15 H15 119.7
C15 C16 C11 121.1(4)
C15 C16 H16 119.4
C11 C16 H16 119.4
C26 C21 C22 120.0(3)
C26 C21 N1 117.4(3)
C22 C21 N1 122.6(3)
C21 C22 C23 118.8(3)
C21 C22 H22 120.6
C23 C22 H22 120.6
C24 C23 C22 120.9(4)
C24 C23 H23 119.6
C22 C23 H23 119.6
C23 C24 C25 120.2(4)
C23 C24 H24 119.9
C25 C24 H24 119.9
C24 C25 C26 119.1(4)
C24 C25 H25 120.5
C26 C25 H25 120.5
C21 C26 C25 121.0(4)
C21 C26 H26 119.5
C25 C26 H26 119.5
loop_
_geom_bond_atom_site_label_1
_geom_bond_atom_site_label_2
_geom_bond_distance
F12 C12 1.344(4)
F13 C13 1.348(4)
O1 C1 1.232(4)
N1 C1 1.333(4)
N1 C21 1.427(4)
N1 H1 1.00(4)
C1 C11 1.490(4)
C11 C16 1.386(5)
C11 C12 1.391(4)
C12 C13 1.377(5)
C13 C14 1.357(6)
C14 C15 1.368(6)
C14 H14 0.9300
C15 C16 1.383(6)
C15 H15 0.9300
C16 H16 0.9300
C21 C26 1.371(4)
C21 C22 1.373(4)
C22 C23 1.397(5)
C22 H22 0.9300
C23 C24 1.361(6)
C23 H23 0.9300
C24 C25 1.377(6)
C24 H24 0.9300
C25 C26 1.382(5)
C25 H25 0.9300
C26 H26 0.9300
loop_
_geom_hbond_atom_site_label_D
_geom_hbond_atom_site_label_H
_geom_hbond_atom_site_label_A
_geom_hbond_distance_DH
_geom_hbond_distance_HA
_geom_hbond_distance_DA
_geom_hbond_angle_DHA
_geom_hbond_site_symmetry_A
_geom_hbond_publ_flag
N1 H1 O1 1.00(4) 2.13(4) 3.071(3) 157(3) 1_655 yes
N1 H1 F12 1.00(4) 2.27(4) 2.823(4) 114(3) . yes
C22 H22 O1 0.93 2.40 2.875(4) 112 . yes
loop_
_geom_torsion_atom_site_label_1
_geom_torsion_atom_site_label_2
_geom_torsion_atom_site_label_3
_geom_torsion_atom_site_label_4
_geom_torsion
C21 N1 C1 O1 7.2(5)
C21 N1 C1 C11 -174.1(3)
O1 C1 C11 C16 33.9(5)
N1 C1 C11 C16 -144.9(3)
O1 C1 C11 C12 -144.2(3)
N1 C1 C11 C12 37.0(4)
C16 C11 C12 F12 -176.7(3)
C1 C11 C12 F12 1.4(4)
C16 C11 C12 C13 0.3(4)
C1 C11 C12 C13 178.4(3)
F12 C12 C13 F13 -0.8(4)
C11 C12 C13 F13 -177.9(3)
F12 C12 C13 C14 177.9(3)
C11 C12 C13 C14 0.8(5)
F13 C13 C14 C15 177.6(4)
C12 C13 C14 C15 -1.1(5)
C13 C14 C15 C16 0.3(6)
C14 C15 C16 C11 0.8(6)
C12 C11 C16 C15 -1.1(5)
C1 C11 C16 C15 -179.3(3)
C1 N1 C21 C26 147.8(3)
C1 N1 C21 C22 -32.3(5)
C26 C21 C22 C23 -2.0(5)
N1 C21 C22 C23 178.0(3)
C21 C22 C23 C24 0.7(5)
C22 C23 C24 C25 0.9(6)
C23 C24 C25 C26 -1.2(6)
C22 C21 C26 C25 1.8(5)
N1 C21 C26 C25 -178.2(3)
C24 C25 C26 C21 -0.2(5)
