#------------------------------------------------------------------------------
#$Date: 2016-08-07 11:18:58 +0300 (Sun, 07 Aug 2016) $
#$Revision: 185209 $
#$URL: file:///home/coder/svn-repositories/cod/cif/7/22/51/7225155.cif $
#------------------------------------------------------------------------------
#
# This file is available in the Crystallography Open Database (COD),
# http://www.crystallography.net/
#
# All data on this site have been placed in the public domain by the
# contributors.
#
data_7225155
loop_
_publ_author_name
'Nauha, Elisa'
'Naumov, Pan\<ce'
'Lusi, Matteo'
_publ_section_title
;
 Fine-tuning of a thermosalient phase transition by solid solutions
;
_journal_issue                   25
_journal_name_full               CrystEngComm
_journal_page_first              4699
_journal_paper_doi               10.1039/C6CE00762G
_journal_volume                  18
_journal_year                    2016
_chemical_formula_sum            'C10 H8 Br0.62 Cl1.38 N2 Zn'
_chemical_formula_weight         320.02
_chemical_name_systematic
;
 ?
;
_space_group_crystal_system      triclinic
_space_group_IT_number           2
_space_group_name_Hall           '-P 1'
_space_group_name_H-M_alt        'P -1'
_symmetry_space_group_name_Hall  '-P 1'
_symmetry_space_group_name_H-M   'P -1'
_atom_sites_solution_hydrogens   geom
_audit_creation_method           SHELXL-2013
_audit_update_record
;
2016-03-18 deposited with the CCDC.
2016-05-09 downloaded from the CCDC.
;
_cell_angle_alpha                113.5232(13)
_cell_angle_beta                 95.1819(15)
_cell_angle_gamma                95.9954(15)
_cell_formula_units_Z            2
_cell_length_a                   7.6518(5)
_cell_length_b                   8.8233(6)
_cell_length_c                   9.1333(6)
_cell_measurement_temperature    100(2)
_cell_volume                     556.37(6)
_computing_structure_refinement  'SHELXL-2013 (Sheldrick, 2013)'
_diffrn_ambient_temperature      100(2)
_diffrn_measured_fraction_theta_full 1.000
_diffrn_measured_fraction_theta_max 0.994
_diffrn_radiation_type           MoK\a
_diffrn_radiation_wavelength     0.71073
_diffrn_reflns_av_R_equivalents  0.0127
_diffrn_reflns_av_unetI/netI     0.0169
_diffrn_reflns_Laue_measured_fraction_full 1.000
_diffrn_reflns_Laue_measured_fraction_max 0.994
_diffrn_reflns_limit_h_max       10
_diffrn_reflns_limit_h_min       -10
_diffrn_reflns_limit_k_max       12
_diffrn_reflns_limit_k_min       -12
_diffrn_reflns_limit_l_max       13
_diffrn_reflns_limit_l_min       -13
_diffrn_reflns_number            7827
_diffrn_reflns_point_group_measured_fraction_full 1.000
_diffrn_reflns_point_group_measured_fraction_max 0.994
_diffrn_reflns_theta_full        25.242
_diffrn_reflns_theta_max         30.625
_diffrn_reflns_theta_min         2.458
_exptl_absorpt_coefficient_mu    4.729
_exptl_absorpt_correction_T_max  0.7461
_exptl_absorpt_correction_T_min  0.5757
_exptl_absorpt_correction_type   multi-scan
_exptl_absorpt_process_details   sadabs
_exptl_crystal_colour            colorless
_exptl_crystal_density_diffrn    1.910
_exptl_crystal_description       block
_exptl_crystal_F_000             314
_exptl_crystal_size_max          0.280
_exptl_crystal_size_mid          0.120
_exptl_crystal_size_min          0.100
_refine_diff_density_max         0.515
_refine_diff_density_min         -0.332
_refine_diff_density_rms         0.064
_refine_ls_extinction_method     none
_refine_ls_goodness_of_fit_ref   1.038
_refine_ls_hydrogen_treatment    constr
_refine_ls_matrix_type           full
_refine_ls_number_parameters     138
_refine_ls_number_reflns         3406
_refine_ls_number_restraints     0
_refine_ls_restrained_S_all      1.038
_refine_ls_R_factor_all          0.0209
_refine_ls_R_factor_gt           0.0175
_refine_ls_shift/su_max          0.002
_refine_ls_shift/su_mean         0.000
_refine_ls_structure_factor_coef Fsqd
_refine_ls_weighting_details
'w=1/[\s^2^(Fo^2^)+(0.0224P)^2^+0.2037P] where P=(Fo^2^+2Fc^2^)/3'
_refine_ls_weighting_scheme      calc
_refine_ls_wR_factor_gt          0.0436
_refine_ls_wR_factor_ref         0.0448
_reflns_Friedel_coverage         0.000
_reflns_number_gt                3098
_reflns_number_total             3406
_reflns_threshold_expression     'I > 2\s(I)'
_cod_data_source_file            c6ce00762g3.cif
_cod_data_source_block           1x30_100K
_cod_depositor_comments
'Adding full bibliography for 7225150--7225163.cif.'
_cod_database_code               7225155
_shelx_space_group_comment
;
The symmetry employed for this shelxl refinement is uniquely defined
by the following loop, which should always be used as a source of
symmetry information in preference to the above space-group names.
They are only intended as comments.
;
_shelx_estimated_absorpt_t_min   0.351
_shelx_estimated_absorpt_t_max   0.649
_shelxl_version_number           2013-4
_shelx_res_file
;
TITL ekn056_100K in P-1
CELL 0.71073   7.65180   8.82330   9.13330 113.5232  95.1819  95.9954
ZERR    2.00   0.00050   0.00060   0.00060   0.0013   0.0015   0.0015
LATT  1
SFAC C H N CL ZN BR
UNIT 20 16 4 2.76 2 1.24
LIST 4
TEMP -173.340
SIZE 0.10 0.12 0.28
ACTA
CONF
L.S. 10
BOND $H
FMAP 2
PLAN 10
EXYZ Br2 Cl2
EXYZ Br3 Cl3
EADP Br2 Cl2
EADP Br3 Cl3
WGHT    0.022400    0.203700
FVAR       0.21956   0.18622   0.43289
ZN1   5    0.770518    0.222460    0.324255    11.00000    0.01503    0.01346 =
         0.01763    0.01023    0.00516    0.00446
PART 1
BR2   6    0.532971    0.293002    0.209304    31.00000    0.01566    0.02067 =
         0.02126    0.01262    0.00336    0.00625
BR3   6    1.042102    0.328699    0.299006    21.00000    0.01497    0.01939 =
         0.02264    0.01430    0.00485    0.00320
PART 2
CL2   4    0.532971    0.293002    0.209304   -31.00000    0.01566    0.02067 =
         0.02126    0.01262    0.00336    0.00625
CL3   4    1.042102    0.328699    0.299006   -21.00000    0.01497    0.01939 =
         0.02264    0.01430    0.00485    0.00320
PART 0
N1    3    0.722465    0.200012    0.533045    11.00000    0.01232    0.01299 =
         0.01638    0.00700    0.00263    0.00101
N2    3    0.791503   -0.027014    0.257417    11.00000    0.01332    0.01354 =
         0.01575    0.00824    0.00204    0.00219
C1    1    0.672707    0.317067    0.662986    11.00000    0.01351    0.01514 =
         0.01969    0.00576    0.00304    0.00084
AFIX  43
H1    2    0.659414    0.422858    0.662828    11.00000   -1.20000
AFIX   0
C2    1    0.640045    0.288135    0.797781    11.00000    0.01465    0.01940 =
         0.01677    0.00377    0.00389    0.00056
AFIX  43
H2    2    0.604325    0.372510    0.888106    11.00000   -1.20000
AFIX   0
C3    1    0.660611    0.133830    0.797799    11.00000    0.01661    0.02613 =
         0.01711    0.01137    0.00350    0.00193
AFIX  43
H3    2    0.640947    0.111945    0.889224    11.00000   -1.20000
AFIX   0
C4    1    0.710208    0.011340    0.663110    11.00000    0.01540    0.01876 =
         0.01824    0.01108    0.00267    0.00204
AFIX  43
H4    2    0.724333   -0.095218    0.660893    11.00000   -1.20000
AFIX   0
C5    1    0.738780    0.048068    0.531412    11.00000    0.00957    0.01424 =
         0.01541    0.00745    0.00065    0.00059
C6    1    0.783503   -0.077636    0.378662    11.00000    0.00989    0.01314 =
         0.01456    0.00700   -0.00003    0.00078
C7    1    0.812126   -0.237263    0.358739    11.00000    0.01660    0.01447 =
         0.01940    0.01021    0.00016    0.00199
AFIX  43
H7    2    0.805928   -0.271138    0.444907    11.00000   -1.20000
AFIX   0
C8    1    0.850054   -0.346708    0.210259    11.00000    0.01884    0.01284 =
         0.02229    0.00767    0.00078    0.00380
AFIX  43
H8    2    0.869882   -0.456479    0.193851    11.00000   -1.20000
AFIX   0
C9    1    0.858611   -0.293909    0.086501    11.00000    0.01990    0.01470 =
         0.01830    0.00441    0.00233    0.00348
AFIX  43
H9    2    0.884325   -0.366604   -0.015658    11.00000   -1.20000
AFIX   0
C10   1    0.828807   -0.132671    0.115160    11.00000    0.01865    0.01678 =
         0.01568    0.00825    0.00278    0.00312
AFIX  43
H10   2    0.835084   -0.095914    0.030892    11.00000   -1.20000
AFIX   0
HKLF 4

REM  ekn056_100K in P-1
REM R1 =  0.0175 for    3098 Fo > 4sig(Fo)  and  0.0209 for all    3406 data
REM    138 parameters refined using      0 restraints

END

WGHT      0.0224      0.2037

REM Highest difference peak  0.515,  deepest hole -0.332,  1-sigma level  0.064
Q1    1   0.7407  0.0337  0.6032  11.00000  0.05    0.51
Q2    1   0.8514 -0.3207  0.1466  11.00000  0.05    0.46
Q3    1   0.6453  0.2975  0.7246  11.00000  0.05    0.43
Q4    1   0.8376 -0.2196  0.0969  11.00000  0.05    0.42
Q5    1   0.8255 -0.1439  0.3801  11.00000  0.05    0.41
Q6    1   0.7528 -0.0100  0.4536  11.00000  0.05    0.39
Q7    1   0.8457 -0.2778  0.2846  11.00000  0.05    0.37
Q8    1   0.6332  0.1988  0.7798  11.00000  0.05    0.37
Q9    1   0.7991 -0.0537  0.3157  11.00000  0.05    0.36
Q10   1   0.7156  0.1194  0.5229  11.00000  0.05    0.35
;
_shelx_res_checksum              12682
loop_
_space_group_symop_operation_xyz
'x, y, z'
'-x, -y, -z'
loop_
_atom_site_label
_atom_site_type_symbol
_atom_site_fract_x
_atom_site_fract_y
_atom_site_fract_z
_atom_site_U_iso_or_equiv
_atom_site_adp_type
_atom_site_occupancy
_atom_site_site_symmetry_order
_atom_site_calc_flag
_atom_site_refinement_flags_posn
_atom_site_refinement_flags_adp
_atom_site_refinement_flags_occupancy
_atom_site_disorder_assembly
_atom_site_disorder_group
Zn1 Zn 0.77052(2) 0.22246(2) 0.32426(2) 0.01377(5) Uani 1 1 d . . . . .
Br2 Br 0.53297(2) 0.29300(2) 0.20930(2) 0.01759(6) Uani 0.4329(14) 1 d . . P A
1
Br3 Br 1.04210(3) 0.32870(3) 0.29901(3) 0.01699(8) Uani 0.1862(14) 1 d . . P A
1
Cl2 Cl 0.53297(2) 0.29300(2) 0.20930(2) 0.01759(6) Uani 0.5671(14) 1 d . . P A
2
Cl3 Cl 1.04210(3) 0.32870(3) 0.29901(3) 0.01699(8) Uani 0.8138(14) 1 d . . P A
2
N1 N 0.72246(14) 0.20001(13) 0.53305(13) 0.01363(19) Uani 1 1 d . . . . .
N2 N 0.79150(14) -0.02701(13) 0.25742(13) 0.01348(19) Uani 1 1 d . . . . .
C1 C 0.67271(17) 0.31707(16) 0.66299(16) 0.0166(2) Uani 1 1 d . . . . .
H1 H 0.6594 0.4229 0.6628 0.020 Uiso 1 1 calc R U . . .
C2 C 0.64005(17) 0.28813(17) 0.79778(16) 0.0182(2) Uani 1 1 d . . . . .
H2 H 0.6043 0.3725 0.8881 0.022 Uiso 1 1 calc R U . . .
C3 C 0.66061(18) 0.13383(18) 0.79780(16) 0.0192(3) Uani 1 1 d . . . . .
H3 H 0.6409 0.1119 0.8892 0.023 Uiso 1 1 calc R U . . .
C4 C 0.71021(17) 0.01134(16) 0.66311(15) 0.0164(2) Uani 1 1 d . . . . .
H4 H 0.7243 -0.0952 0.6609 0.020 Uiso 1 1 calc R U . . .
C5 C 0.73878(15) 0.04807(15) 0.53141(15) 0.0128(2) Uani 1 1 d . . . . .
C6 C 0.78350(15) -0.07764(15) 0.37866(14) 0.0123(2) Uani 1 1 d . . . . .
C7 C 0.81213(17) -0.23726(16) 0.35874(16) 0.0160(2) Uani 1 1 d . . . . .
H7 H 0.8059 -0.2711 0.4449 0.019 Uiso 1 1 calc R U . . .
C8 C 0.85005(18) -0.34671(16) 0.21026(16) 0.0179(2) Uani 1 1 d . . . . .
H8 H 0.8699 -0.4565 0.1939 0.021 Uiso 1 1 calc R U . . .
C9 C 0.85861(18) -0.29391(16) 0.08650(16) 0.0184(2) Uani 1 1 d . . . . .
H9 H 0.8843 -0.3666 -0.0157 0.022 Uiso 1 1 calc R U . . .
C10 C 0.82881(17) -0.13267(16) 0.11516(15) 0.0165(2) Uani 1 1 d . . . . .
H10 H 0.8351 -0.0959 0.0309 0.020 Uiso 1 1 calc R U . . .
loop_
_atom_site_aniso_label
_atom_site_aniso_U_11
_atom_site_aniso_U_22
_atom_site_aniso_U_33
_atom_site_aniso_U_23
_atom_site_aniso_U_13
_atom_site_aniso_U_12
Zn1 0.01503(8) 0.01346(8) 0.01763(8) 0.01023(6) 0.00516(5) 0.00446(5)
Br2 0.01566(10) 0.02067(11) 0.02126(10) 0.01262(8) 0.00336(7) 0.00625(7)
Br3 0.01497(12) 0.01939(13) 0.02264(13) 0.01430(10) 0.00485(8) 0.00320(9)
Cl2 0.01566(10) 0.02067(11) 0.02126(10) 0.01262(8) 0.00336(7) 0.00625(7)
Cl3 0.01497(12) 0.01939(13) 0.02264(13) 0.01430(10) 0.00485(8) 0.00320(9)
N1 0.0123(5) 0.0130(5) 0.0164(5) 0.0070(4) 0.0026(4) 0.0010(4)
N2 0.0133(5) 0.0135(5) 0.0157(5) 0.0082(4) 0.0020(4) 0.0022(4)
C1 0.0135(5) 0.0151(6) 0.0197(6) 0.0058(5) 0.0030(4) 0.0008(4)
C2 0.0147(6) 0.0194(6) 0.0168(6) 0.0038(5) 0.0039(4) 0.0006(5)
C3 0.0166(6) 0.0261(7) 0.0171(6) 0.0114(5) 0.0035(5) 0.0019(5)
C4 0.0154(6) 0.0188(6) 0.0182(6) 0.0111(5) 0.0027(4) 0.0020(5)
C5 0.0096(5) 0.0142(5) 0.0154(5) 0.0075(4) 0.0006(4) 0.0006(4)
C6 0.0099(5) 0.0131(5) 0.0146(5) 0.0070(4) 0.0000(4) 0.0008(4)
C7 0.0166(6) 0.0145(5) 0.0194(6) 0.0102(5) 0.0002(4) 0.0020(4)
C8 0.0188(6) 0.0128(5) 0.0223(6) 0.0077(5) 0.0008(5) 0.0038(5)
C9 0.0199(6) 0.0147(6) 0.0183(6) 0.0044(5) 0.0023(5) 0.0035(5)
C10 0.0187(6) 0.0168(6) 0.0157(6) 0.0083(5) 0.0028(4) 0.0031(5)
loop_
_atom_type_symbol
_atom_type_description
_atom_type_scat_dispersion_real
_atom_type_scat_dispersion_imag
_atom_type_scat_source
C C 0.0033 0.0016 'International Tables Vol C Tables 4.2.6.8 and 6.1.1.4'
H H 0.0000 0.0000 'International Tables Vol C Tables 4.2.6.8 and 6.1.1.4'
N N 0.0061 0.0033 'International Tables Vol C Tables 4.2.6.8 and 6.1.1.4'
Cl Cl 0.1484 0.1585 'International Tables Vol C Tables 4.2.6.8 and 6.1.1.4'
Zn Zn 0.2839 1.4301 'International Tables Vol C Tables 4.2.6.8 and 6.1.1.4'
Br Br -0.2901 2.4595 'International Tables Vol C Tables 4.2.6.8 and 6.1.1.4'
loop_
_geom_angle_atom_site_label_1
_geom_angle_atom_site_label_2
_geom_angle_atom_site_label_3
_geom_angle
N1 Zn1 N2 80.36(4)
N1 Zn1 Br3 121.24(3)
N2 Zn1 Br3 102.17(3)
N1 Zn1 Br2 111.90(3)
N2 Zn1 Br2 119.29(3)
Br3 Zn1 Br2 116.496(10)
C1 N1 C5 119.27(11)
C1 N1 Zn1 126.51(9)
C5 N1 Zn1 114.18(8)
C10 N2 C6 119.33(11)
C10 N2 Zn1 126.32(8)
C6 N2 Zn1 113.98(8)
N1 C1 C2 122.04(12)
N1 C1 H1 119.0
C2 C1 H1 119.0
C3 C2 C1 118.76(12)
C3 C2 H2 120.6
C1 C2 H2 120.6
C2 C3 C4 119.57(12)
C2 C3 H3 120.2
C4 C3 H3 120.2
C3 C4 C5 118.67(12)
C3 C4 H4 120.7
C5 C4 H4 120.7
N1 C5 C4 121.66(11)
N1 C5 C6 115.72(10)
C4 C5 C6 122.59(11)
N2 C6 C7 121.50(11)
N2 C6 C5 115.29(10)
C7 C6 C5 123.20(11)
C6 C7 C8 118.86(11)
C6 C7 H7 120.6
C8 C7 H7 120.6
C9 C8 C7 119.39(12)
C9 C8 H8 120.3
C7 C8 H8 120.3
C10 C9 C8 118.59(12)
C10 C9 H9 120.7
C8 C9 H9 120.7
N2 C10 C9 122.34(12)
N2 C10 H10 118.8
C9 C10 H10 118.8
loop_
_geom_bond_atom_site_label_1
_geom_bond_atom_site_label_2
_geom_bond_distance
Zn1 N1 2.0552(10)
Zn1 N2 2.0646(11)
Zn1 Br3 2.2589(3)
Zn1 Br2 2.2818(3)
N1 C1 1.3437(16)
N1 C5 1.3537(16)
N2 C10 1.3396(16)
N2 C6 1.3531(15)
C1 C2 1.3915(18)
C1 H1 0.9500
C2 C3 1.3868(19)
C2 H2 0.9500
C3 C4 1.3907(19)
C3 H3 0.9500
C4 C5 1.3941(16)
C4 H4 0.9500
C5 C6 1.4913(17)
C6 C7 1.3899(17)
C7 C8 1.3929(18)
C7 H7 0.9500
C8 C9 1.3879(18)
C8 H8 0.9500
C9 C10 1.3877(18)
C9 H9 0.9500
C10 H10 0.9500
loop_
_geom_torsion_atom_site_label_1
_geom_torsion_atom_site_label_2
_geom_torsion_atom_site_label_3
_geom_torsion_atom_site_label_4
_geom_torsion
C5 N1 C1 C2 1.09(19)
Zn1 N1 C1 C2 178.73(9)
N1 C1 C2 C3 0.36(19)
C1 C2 C3 C4 -1.04(19)
C2 C3 C4 C5 0.30(19)
C1 N1 C5 C4 -1.87(18)
Zn1 N1 C5 C4 -179.79(9)
C1 N1 C5 C6 176.33(11)
Zn1 N1 C5 C6 -1.58(13)
C3 C4 C5 N1 1.18(19)
C3 C4 C5 C6 -176.90(12)
C10 N2 C6 C7 -0.37(18)
Zn1 N2 C6 C7 -173.87(9)
C10 N2 C6 C5 -179.22(11)
Zn1 N2 C6 C5 7.28(13)
N1 C5 C6 N2 -3.85(16)
C4 C5 C6 N2 174.34(11)
N1 C5 C6 C7 177.32(11)
C4 C5 C6 C7 -4.49(19)
N2 C6 C7 C8 0.08(19)
C5 C6 C7 C8 178.84(12)
C6 C7 C8 C9 0.11(19)
C7 C8 C9 C10 0.0(2)
C6 N2 C10 C9 0.48(19)
Zn1 N2 C10 C9 173.09(10)
C8 C9 C10 N2 -0.3(2)
