#------------------------------------------------------------------------------
#$Date: 2016-09-10 02:19:36 +0300 (Sat, 10 Sep 2016) $
#$Revision: 186359 $
#$URL: file:///home/coder/svn-repositories/cod/cif/7/22/58/7225825.cif $
#------------------------------------------------------------------------------
#
# This file is available in the Crystallography Open Database (COD),
# http://www.crystallography.net/
#
# All data on this site have been placed in the public domain by the
# contributors.
#
data_7225825
loop_
_publ_author_name
'de Melo, Cristiane C.'
'de Sousa Carvalho, Paulo'
'Diniz, Luan F.'
'D'Vries, Richard F.'
'Ayala, Alejandro P.'
'Ellena, Javier'
_publ_section_title
;
 Supramolecular synthesis and thermochemical investigations of
 pharmaceutical inorganic isoniazid salts
;
_journal_issue                   34
_journal_name_full               CrystEngComm
_journal_page_first              6378
_journal_paper_doi               10.1039/C6CE00969G
_journal_volume                  18
_journal_year                    2016
_chemical_compound_source        'synthesis as described'
_chemical_formula_moiety         'C6 H8 N3 O, Br'
_chemical_formula_sum            'C6 H8 Br N3 O'
_chemical_formula_weight         218.06
_space_group_IT_number           14
_symmetry_cell_setting           monoclinic
_symmetry_Int_Tables_number      14
_symmetry_space_group_name_Hall  '-P 2ybc'
_symmetry_space_group_name_H-M   'P 1 21/c 1'
_atom_sites_solution_hydrogens   mixed
_audit_conform_dict_location     ftp://ftp.iucr.org/pub/cif_core.dic
_audit_conform_dict_name         cif_core.dic
_audit_conform_dict_version      2.4.3
_audit_creation_date             2015-07-29T00:37:05-00:00
_audit_creation_method           'WinGX routine CIF_UPDATE'
_audit_update_record
;
2016-04-19 deposited with the CCDC.
2016-07-05 downloaded from the CCDC.
;
_cell_angle_alpha                90
_cell_angle_beta                 92.183(7)
_cell_angle_gamma                90
_cell_formula_units_Z            4
_cell_length_a                   6.6307(4)
_cell_length_b                   16.3280(13)
_cell_length_c                   7.4836(5)
_cell_measurement_reflns_used    3647
_cell_measurement_temperature    290(2)
_cell_measurement_theta_max      25.242
_cell_measurement_theta_min      2.901
_cell_measurement_wavelength     0.71073
_cell_volume                     809.63(10)
_computing_cell_refinement       'HKL Scalepack (Otwinowski & Minor 1997)'
_computing_data_collection       'Collect (Bruker AXS BV, 1997-2004)'
_computing_data_reduction
'HKL Denzo and Scalepack (Otwinowski & Minor 1997)'
_computing_molecular_graphics    'Ortep-3 for Windows (Farrugia, 1997)'
_computing_publication_material  'WinGX publication routines (Farrugia, 1999)'
_computing_structure_refinement  'SHELXL-2014/7 (Sheldrick, 2014)'
_computing_structure_solution    'SHELXS-86 (Sheldrick, 1986)'
_diffrn_ambient_temperature      290(2)
_diffrn_detector                 'CCD plate'
_diffrn_detector_area_resol_mean 9
_diffrn_measured_fraction_theta_full 0.998
_diffrn_measured_fraction_theta_max 0.995
_diffrn_measurement_device       '95mm CCD camera on \k-goniostat'
_diffrn_measurement_device_type  KappaCCD
_diffrn_measurement_method       'CCD rotation images, thick slices'
_diffrn_orient_matrix_type       'by Bruker AXS Collect from scalepack cell'
_diffrn_orient_matrix_UB_11      -0.043523
_diffrn_orient_matrix_UB_12      -0.03446
_diffrn_orient_matrix_UB_13      0.102058
_diffrn_orient_matrix_UB_21      -0.141443
_diffrn_orient_matrix_UB_22      0
_diffrn_orient_matrix_UB_23      -0.051386
_diffrn_orient_matrix_UB_31      0.029623
_diffrn_orient_matrix_UB_32      -0.05063
_diffrn_orient_matrix_UB_33      -0.069465
_diffrn_radiation_monochromator  'horizonally mounted graphite crystal'
_diffrn_radiation_probe          x-ray
_diffrn_radiation_type           MoK\a
_diffrn_radiation_wavelength     0.71073
_diffrn_reflns_av_R_equivalents  0.0802
_diffrn_reflns_av_unetI/netI     0.0656
_diffrn_reflns_Laue_measured_fraction_full 0.998
_diffrn_reflns_Laue_measured_fraction_max 0.995
_diffrn_reflns_limit_h_max       8
_diffrn_reflns_limit_h_min       -8
_diffrn_reflns_limit_k_max       20
_diffrn_reflns_limit_k_min       -20
_diffrn_reflns_limit_l_max       9
_diffrn_reflns_limit_l_min       -8
_diffrn_reflns_number            5442
_diffrn_reflns_point_group_measured_fraction_full 0.998
_diffrn_reflns_point_group_measured_fraction_max 0.995
_diffrn_reflns_reduction_process
;
        Scaled and merged with SORTAV
        R.H. Blessing, (1987) Cryst. Rev. 1, 3-58
        R.H. Blessing, (1989) J. Appl. Cryst. 22, 396-397
;
_diffrn_reflns_theta_full        25.242
_diffrn_reflns_theta_max         26.385
_diffrn_reflns_theta_min         2.996
_diffrn_source                   'Enraf Nonius FR590'
_exptl_absorpt_coefficient_mu    5.022
_exptl_absorpt_correction_T_max  0.937
_exptl_absorpt_correction_T_min  0.458
_exptl_absorpt_correction_type   gaussian
_exptl_absorpt_process_details
;
        P. Coppens, L. Leiserowitz, D Rabinovich, Acta Cryst.
        (1965), 18, 1035-1038
;
_exptl_crystal_colour            colourless
_exptl_crystal_density_diffrn    1.789
_exptl_crystal_density_method    'not measured'
_exptl_crystal_description       prism
_exptl_crystal_F_000             432
_exptl_crystal_size_max          0.3
_exptl_crystal_size_mid          0.15
_exptl_crystal_size_min          0.01
_refine_diff_density_max         0.504
_refine_diff_density_min         -0.397
_refine_diff_density_rms         0.082
_refine_ls_extinction_method     none
_refine_ls_goodness_of_fit_ref   0.979
_refine_ls_hydrogen_treatment    constr
_refine_ls_matrix_type           full
_refine_ls_number_constraints    0
_refine_ls_number_parameters     100
_refine_ls_number_reflns         1654
_refine_ls_number_restraints     0
_refine_ls_restrained_S_all      0.979
_refine_ls_R_factor_all          0.086
_refine_ls_R_factor_gt           0.0448
_refine_ls_shift/su_max          0
_refine_ls_shift/su_mean         0
_refine_ls_structure_factor_coef Fsqd
_refine_ls_weighting_details
'w=1/[\s^2^(Fo^2^)+(0.0558P)^2^] where P=(Fo^2^+2Fc^2^)/3'
_refine_ls_weighting_scheme      calc
_refine_ls_wR_factor_gt          0.1056
_refine_ls_wR_factor_ref         0.125
_reflns_Friedel_coverage         0
_reflns_number_gt                1010
_reflns_number_total             1654
_reflns_threshold_expression     'I > 2\s(I)'
_cod_data_source_file            c6ce00969g2.cif
_cod_data_source_block           INH_bromide
_cod_depositor_comments
'Adding full bibliography for 7225824--7225827.cif.'
_cod_original_sg_symbol_H-M      'P 21/c'
_cod_database_code               7225825
_shelx_res_file
;
 
    shelx.res created by SHELXL-2014/7
 
 
TITL import in P 21/c
CELL  0.71073   6.6307  16.3280   7.4836   90.000   92.183   90.000
ZERR     4.00   0.0004   0.0013   0.0005    0.000    0.007    0.000
LATT   1
SYMM  - X, 1/2 + Y, 1/2 - Z
SFAC  C    H    N    O    BR
UNIT  24 32 12 4 4
MERG   2
FMAP   2
PLAN   25
ACTA
BOND   $H
CONF
L.S.  10
WGHT    0.055800
FVAR       1.01557
BR1   5    0.758912    0.032894    0.744131    11.00000    0.06331    0.05257 =
         0.08265   -0.00114   -0.00703    0.00235
O1    4   -0.259235    0.233765    0.330887    11.00000    0.04212    0.07150 =
         0.09003   -0.01556   -0.01856    0.01364
N2    3    0.417353    0.275951    0.597114    11.00000    0.03918    0.07534 =
         0.05637   -0.00864   -0.00399    0.00052
C5    1    0.396141    0.195541    0.588054    11.00000    0.04033    0.07036 =
         0.05600   -0.00349   -0.00807    0.01389
AFIX  43
H5    2    0.498111    0.161787    0.634726    11.00000   -1.20000
AFIX   0
C3    1    0.103219    0.296993    0.449606    11.00000    0.04137    0.05910 =
         0.05629   -0.00794   -0.00747    0.00775
AFIX  43
H3    2    0.004730    0.332351    0.402831    11.00000   -1.20000
AFIX   0
C1    1    0.074945    0.213521    0.438815    11.00000    0.03616    0.06126 =
         0.04232   -0.00375    0.00073    0.00399
C6    1    0.224426    0.161215    0.510134    11.00000    0.04277    0.05843 =
         0.05582   -0.00156   -0.00773    0.00446
AFIX  43
H6    2    0.208355    0.104669    0.505105    11.00000   -1.20000
AFIX   0
C2    1   -0.118379    0.185321    0.348972    11.00000    0.03819    0.05961 =
         0.04849    0.00688   -0.00126    0.00174
C4    1    0.277307    0.328064    0.529649    11.00000    0.05064    0.06157 =
         0.06388   -0.01159   -0.00146    0.00416
AFIX  43
H4    2    0.297675    0.384337    0.536916    11.00000   -1.20000
AFIX   0
N3    3   -0.308724    0.084319    0.201818    11.00000    0.05180    0.06589 =
         0.07956   -0.00578   -0.00979   -0.01002
N1    3   -0.128472    0.108602    0.290263    11.00000    0.03696    0.05950 =
         0.06816    0.00026   -0.00676    0.00143
AFIX   3
H1    2   -0.031717    0.069302    0.303101    11.00000   -1.20000
H2    2    0.546290    0.303052    0.655286    11.00000   -1.20000
H3B   2   -0.279006    0.048627    0.105469    11.00000   -1.20000
H3A   2   -0.361437    0.046987    0.283408    11.00000   -1.20000
AFIX   0
HKLF    4
 
REM  import in P 21/c
REM R1 =  0.0448 for    1010 Fo > 4sig(Fo)  and  0.0860 for all    1654 data
REM    100 parameters refined using      0 restraints
 
END
 
WGHT      0.0558      0.0000
 
REM Highest difference peak  0.504,  deepest hole -0.397,  1-sigma level  0.082
Q1    1   0.2452  0.4096  0.7526  11.00000  0.05    0.50
Q2    1  -0.2449  0.2346  0.1741  11.00000  0.05    0.35
Q3    1  -0.2658  0.0113  0.2470  11.00000  0.05    0.34
Q4    1   0.6575  0.0624  0.7583  11.00000  0.05    0.33
Q5    1   0.7173  0.0960  0.9048  11.00000  0.05    0.27
Q6    1   0.2973  0.4667  0.5990  11.00000  0.05    0.25
Q7    1   0.7743  0.0962  0.5892  11.00000  0.05    0.24
Q8    1   0.2073  0.0340  0.4008  11.00000  0.05    0.23
Q9    1  -0.2006  0.0349  0.3506  11.00000  0.05    0.23
Q10   1   0.0943  0.2470  0.4133  11.00000  0.05    0.22
Q11   1  -0.4423  0.0984  0.2069  11.00000  0.05    0.22
Q12   1   0.3955  0.2497  0.5983  11.00000  0.05    0.22
Q13   1   0.6712  0.2496  0.5364  11.00000  0.05    0.22
Q14   1   0.5020  0.1843  0.5974  11.00000  0.05    0.22
Q15   1   0.4723  0.1494  0.6827  11.00000  0.05    0.21
Q16   1   0.1066  0.2009  0.4070  11.00000  0.05    0.21
Q17   1  -0.4313 -0.0285  0.2159  11.00000  0.05    0.21
Q18   1   0.1002  0.2145  0.5175  11.00000  0.05    0.21
Q19   1   0.3295  0.3668  0.5278  11.00000  0.05    0.21
Q20   1   0.1860  0.1377  0.4957  11.00000  0.05    0.21
Q21   1   0.9500  0.0277  0.6235  11.00000  0.05    0.21
Q22   1   0.4073  0.2977  0.5869  11.00000  0.05    0.20
Q23   1   0.3120  0.0342  0.4159  11.00000  0.05    0.20
Q24   1   0.6843  0.1482  0.8014  11.00000  0.05    0.20
Q25   1   0.3377  0.0876  0.6963  11.00000  0.05    0.20
;
_shelx_res_checksum              64805
loop_
_symmetry_equiv_pos_as_xyz
'x, y, z'
'-x, y+1/2, -z+1/2'
'-x, -y, -z'
'x, -y-1/2, z-1/2'
loop_
_atom_site_label
_atom_site_type_symbol
_atom_site_fract_x
_atom_site_fract_y
_atom_site_fract_z
_atom_site_U_iso_or_equiv
_atom_site_adp_type
_atom_site_occupancy
_atom_site_site_symmetry_order
_atom_site_calc_flag
_atom_site_refinement_flags_posn
_atom_site_refinement_flags_adp
Br1 Br 0.75891(5) 0.03289(3) 0.74413(5) 0.0664(3) Uani 1 1 d . .
O1 O -0.2592(4) 0.23376(19) 0.3309(5) 0.0684(9) Uani 1 1 d . .
N2 N 0.4174(5) 0.2760(2) 0.5971(4) 0.0571(9) Uani 1 1 d . .
C5 C 0.3961(6) 0.1955(3) 0.5881(5) 0.0558(11) Uani 1 1 d . .
H5 H 0.4981 0.1618 0.6347 0.067 Uiso 1 1 calc R U
C3 C 0.1032(6) 0.2970(3) 0.4496(5) 0.0525(10) Uani 1 1 d . .
H3 H 0.0047 0.3324 0.4028 0.063 Uiso 1 1 calc R U
C1 C 0.0749(5) 0.2135(3) 0.4388(5) 0.0466(10) Uani 1 1 d . .
C6 C 0.2244(5) 0.1612(3) 0.5101(5) 0.0526(10) Uani 1 1 d . .
H6 H 0.2084 0.1047 0.5051 0.063 Uiso 1 1 calc R U
C2 C -0.1184(5) 0.1853(3) 0.3490(5) 0.0488(10) Uani 1 1 d . .
C4 C 0.2773(6) 0.3281(3) 0.5296(5) 0.0588(11) Uani 1 1 d . .
H4 H 0.2977 0.3843 0.5369 0.071 Uiso 1 1 calc R U
N3 N -0.3087(5) 0.0843(2) 0.2018(5) 0.0661(10) Uani 1 1 d . .
N1 N -0.1285(5) 0.1086(2) 0.2903(4) 0.0551(9) Uani 1 1 d . .
H1 H -0.0317 0.0693 0.3031 0.066 Uiso 1 1 d R U
H2 H 0.5463 0.3031 0.6553 0.066 Uiso 1 1 d R U
H3B H -0.279 0.0486 0.1055 0.066 Uiso 1 1 d R U
H3A H -0.3614 0.047 0.2834 0.066 Uiso 1 1 d R U
loop_
_atom_site_aniso_label
_atom_site_aniso_U_11
_atom_site_aniso_U_22
_atom_site_aniso_U_33
_atom_site_aniso_U_23
_atom_site_aniso_U_13
_atom_site_aniso_U_12
Br1 0.0633(4) 0.0526(4) 0.0827(4) -0.0011(2) -0.0070(3) 0.00235(19)
O1 0.0421(17) 0.071(2) 0.090(2) -0.0156(19) -0.0186(14) 0.0136(14)
N2 0.039(2) 0.075(3) 0.056(2) -0.0086(19) -0.0040(15) 0.0005(18)
C5 0.040(2) 0.070(3) 0.056(2) -0.003(2) -0.0081(17) 0.014(2)
C3 0.041(2) 0.059(3) 0.056(2) -0.008(2) -0.0075(17) 0.0078(19)
C1 0.036(2) 0.061(3) 0.042(2) -0.0038(18) 0.0007(15) 0.0040(18)
C6 0.043(2) 0.058(3) 0.056(2) -0.002(2) -0.0077(17) 0.0045(19)
C2 0.038(2) 0.060(3) 0.048(2) 0.007(2) -0.0013(16) 0.0017(19)
C4 0.051(3) 0.062(3) 0.064(2) -0.012(2) -0.001(2) 0.004(2)
N3 0.052(2) 0.066(3) 0.080(2) -0.006(2) -0.0098(17) -0.010(2)
N1 0.0370(19) 0.060(2) 0.068(2) 0.0003(18) -0.0068(15) 0.0014(15)
loop_
_atom_type_symbol
_atom_type_description
_atom_type_scat_dispersion_real
_atom_type_scat_dispersion_imag
_atom_type_scat_source
C C 0.0033 0.0016 'International Tables Vol C Tables 4.2.6.8 and 6.1.1.4'
H H 0 0 'International Tables Vol C Tables 4.2.6.8 and 6.1.1.4'
N N 0.0061 0.0033 'International Tables Vol C Tables 4.2.6.8 and 6.1.1.4'
O O 0.0106 0.006 'International Tables Vol C Tables 4.2.6.8 and 6.1.1.4'
Br Br -0.2901 2.4595 'International Tables Vol C Tables 4.2.6.8 and 6.1.1.4'
loop_
_exptl_crystal_face_index_h
_exptl_crystal_face_index_k
_exptl_crystal_face_index_l
_exptl_crystal_face_perp_dist
0 1 0 0.009
0 -1 0 0.004
16 1 0 0.048
-16 -1 0 0.1
0 0 -1 0.144
0 0 1 0.162
-1 0 3 0.126
1 -1 -4 0.112
loop_
_geom_angle_atom_site_label_1
_geom_angle_atom_site_label_2
_geom_angle_atom_site_label_3
_geom_angle
C5 N2 C4 122.6(4)
C5 N2 H2 121.8
C4 N2 H2 115.6
N2 C5 C6 120.7(4)
N2 C5 H5 119.7
C6 C5 H5 119.7
C4 C3 C1 120.0(4)
C4 C3 H3 120
C1 C3 H3 120
C3 C1 C6 119.3(4)
C3 C1 C2 116.3(3)
C6 C1 C2 124.5(4)
C5 C6 C1 118.4(4)
C5 C6 H6 120.8
C1 C6 H6 120.8
O1 C2 N1 122.9(3)
O1 C2 C1 119.1(4)
N1 C2 C1 118.0(3)
N2 C4 C3 119.1(4)
N2 C4 H4 120.5
C3 C4 H4 120.5
N1 N3 H3B 109.5
N1 N3 H3A 102
H3B N3 H3A 100.8
C2 N1 N3 117.0(3)
C2 N1 H1 127.1
N3 N1 H1 115.8
loop_
_geom_bond_atom_site_label_1
_geom_bond_atom_site_label_2
_geom_bond_distance
O1 C2 1.227(4)
N2 C5 1.322(5)
N2 C4 1.344(5)
N2 H2 1.043
C5 C6 1.378(5)
C5 H5 0.93
C3 C4 1.377(5)
C3 C1 1.378(5)
C3 H3 0.93
C1 C6 1.399(5)
C1 C2 1.497(5)
C6 H6 0.93
C2 N1 1.328(5)
C4 H4 0.93
N3 N1 1.401(5)
N3 H3B 0.9535
N3 H3A 0.9396
N1 H1 0.9099
loop_
_geom_torsion_atom_site_label_1
_geom_torsion_atom_site_label_2
_geom_torsion_atom_site_label_3
_geom_torsion_atom_site_label_4
_geom_torsion
C4 N2 C5 C6 -1.1(6)
C4 C3 C1 C6 0.1(6)
C4 C3 C1 C2 -179.8(4)
N2 C5 C6 C1 0.9(6)
C3 C1 C6 C5 -0.4(6)
C2 C1 C6 C5 179.5(3)
C3 C1 C2 O1 -18.0(5)
C6 C1 C2 O1 162.1(4)
C3 C1 C2 N1 161.2(3)
C6 C1 C2 N1 -18.7(6)
C5 N2 C4 C3 0.8(6)
C1 C3 C4 N2 -0.3(6)
O1 C2 N1 N3 1.1(6)
C1 C2 N1 N3 -178.1(3)
