#------------------------------------------------------------------------------
#$Date: 2016-10-08 00:54:21 +0300 (Sat, 08 Oct 2016) $
#$Revision: 187036 $
#$URL: file:///home/coder/svn-repositories/cod/cif/7/22/54/7225491.cif $
#------------------------------------------------------------------------------
#
# This file is available in the Crystallography Open Database (COD),
# http://www.crystallography.net/
#
# All data on this site have been placed in the public domain by the
# contributors.
#
data_7225491
loop_
_publ_author_name
'Safin, Damir A.'
'Robeyns, Koen'
'Garcia, Yann'
_publ_section_title
;
 1,2,4-Triazole-based molecular switches: crystal structures, Hirshfeld
 surface analysis and optical properties
;
_journal_issue                   38
_journal_name_full               CrystEngComm
_journal_page_first              7284
_journal_paper_doi               10.1039/C6CE00749J
_journal_volume                  18
_journal_year                    2016
_chemical_formula_moiety         'C9 H7 Cl N4 O'
_chemical_formula_sum            'C9 H7 Cl N4 O'
_chemical_formula_weight         222.64
_space_group_crystal_system      monoclinic
_space_group_IT_number           7
_space_group_name_Hall           'P -2yc'
_space_group_name_H-M_alt        'P 1 c 1'
_symmetry_space_group_name_Hall  'P -2yc'
_symmetry_space_group_name_H-M   'P 1 c 1'
_atom_sites_solution_hydrogens   geom
_audit_creation_method           SHELXL-2014/7
_audit_update_record
;
2016-02-01 deposited with the CCDC.
2016-05-20 downloaded from the CCDC.
;
_cell_angle_alpha                90
_cell_angle_beta                 101.23(4)
_cell_angle_gamma                90
_cell_formula_units_Z            2
_cell_length_a                   3.7737(14)
_cell_length_b                   14.259(5)
_cell_length_c                   8.993(3)
_cell_measurement_reflns_used    778
_cell_measurement_temperature    150(2)
_cell_measurement_theta_max      20.7685
_cell_measurement_theta_min      2.3043
_cell_volume                     474.6(3)
_computing_cell_refinement
;
CrysAlisPro, Agilent Technologies,
Version 1.171.35.15 (release 03-08-2011 CrysAlis171 .NET)
(compiled Aug  3 2011,13:03:54)
;
_computing_data_collection       MAR
_computing_data_reduction
;
CrysAlisPro, Agilent Technologies,
Version 1.171.35.15 (release 03-08-2011 CrysAlis171 .NET)
(compiled Aug  3 2011,13:03:54)
;
_computing_molecular_graphics    'MERCURY (Macrae et al., 2008)'
_computing_publication_material
;

'MERCURY (Macrae et al., 2008), Platon (Spek, 2009)'



;
_computing_structure_refinement  'SHELXL-2014/7 (Sheldrick, 2014)'
_computing_structure_solution    'SHELXS-97 (Sheldrick, 1990)'
_diffrn_ambient_temperature      150(2)
_diffrn_measured_fraction_theta_full 0.991
_diffrn_measured_fraction_theta_max 0.991
_diffrn_measurement_device_type  'MAR345 image plate'
_diffrn_measurement_method       '61 images, \D\F 3.0\% '
_diffrn_radiation_monochromator  'Zr filter'
_diffrn_radiation_source         'Rigaku UltraX 18 rotating anode'
_diffrn_radiation_type           MoK\a
_diffrn_radiation_wavelength     0.71073
_diffrn_reflns_av_unetI/netI     0.0872
_diffrn_reflns_Laue_measured_fraction_full 0.991
_diffrn_reflns_Laue_measured_fraction_max 0.991
_diffrn_reflns_limit_h_max       3
_diffrn_reflns_limit_h_min       -3
_diffrn_reflns_limit_k_max       13
_diffrn_reflns_limit_k_min       -13
_diffrn_reflns_limit_l_max       8
_diffrn_reflns_limit_l_min       -8
_diffrn_reflns_number            849
_diffrn_reflns_point_group_measured_fraction_full 0.949
_diffrn_reflns_point_group_measured_fraction_max 0.949
_diffrn_reflns_theta_full        19.980
_diffrn_reflns_theta_max         19.980
_diffrn_reflns_theta_min         2.715
_exptl_absorpt_coefficient_mu    0.378
_exptl_absorpt_correction_T_max  1.00000
_exptl_absorpt_correction_T_min  0.73541
_exptl_absorpt_correction_type   multi-scan
_exptl_absorpt_process_details
;
CrysAlisPro, Agilent Technologies,
Version 1.171.35.15 (release 03-08-2011 CrysAlis171 .NET)
(compiled Aug  3 2011,13:03:54)
Empirical absorption correction using spherical harmonics,
 implemented in SCALE3 ABSPACK scaling algorithm.
;
_exptl_crystal_colour            colourless
_exptl_crystal_density_diffrn    1.558
_exptl_crystal_description       plate
_exptl_crystal_F_000             228
_exptl_crystal_size_max          0.270
_exptl_crystal_size_mid          0.100
_exptl_crystal_size_min          0.020
_refine_diff_density_max         0.469
_refine_diff_density_min         -0.416
_refine_diff_density_rms         0.094
_refine_ls_abs_structure_details
;
 Flack x determined using 255 quotients [(I+)-(I-)]/[(I+)+(I-)]
 (Parsons, Flack and Wagner, Acta Cryst. B69 (2013) 249-259).
;
_refine_ls_abs_structure_Flack   0.1(3)
_refine_ls_extinction_method     none
_refine_ls_goodness_of_fit_ref   1.144
_refine_ls_hydrogen_treatment    constr
_refine_ls_matrix_type           full
_refine_ls_number_parameters     126
_refine_ls_number_reflns         849
_refine_ls_number_restraints     111
_refine_ls_restrained_S_all      1.087
_refine_ls_R_factor_all          0.0831
_refine_ls_R_factor_gt           0.0727
_refine_ls_shift/su_max          0.000
_refine_ls_shift/su_mean         0.000
_refine_ls_structure_factor_coef Fsqd
_refine_ls_weighting_details
'w=1/[\s^2^(Fo^2^)+(0.0943P)^2^+1.7828P] where P=(Fo^2^+2Fc^2^)/3'
_refine_ls_weighting_scheme      calc
_refine_ls_wR_factor_gt          0.1938
_refine_ls_wR_factor_ref         0.2008
_reflns_Friedel_coverage         0.887
_reflns_Friedel_fraction_full    0.905
_reflns_Friedel_fraction_max     0.905
_reflns_number_gt                737
_reflns_number_total             849
_reflns_threshold_expression     'I > 2\s(I)'
_cod_data_source_file            c6ce00749j2.cif
_cod_data_source_block           5
_cod_depositor_comments
'Adding full bibliography for 7225488--7225494.cif.'
_cod_database_code               7225491
_shelx_shelxl_version_number     2014/7
_shelx_space_group_comment
;
The symmetry employed for this shelxl refinement is uniquely defined
by the following loop, which should always be used as a source of
symmetry information in preference to the above space-group names.
They are only intended as comments.
;
_shelx_estimated_absorpt_t_min   0.905
_shelx_estimated_absorpt_t_max   0.992
_shelx_res_file
;

    5.res created by SHELXL-2014/7

TITL 5 in Pc
CELL 0.71073   3.773737  14.258563   8.992741  90.0000 101.2307  90.0000
ZERR    2.00   0.001433   0.004721   0.003341   0.0000   0.0384   0.0000
LATT -1
SYMM  x,-y, z+1/2
SFAC C  H  N  O  Cl
UNIT 18 14 8 2 2
L.S. 20
ACTA
OMIT     1   1  -4
OMIT    -1   1   4
SHEL 999 1.04
BOND $H
FMAP 2
SIZE 0.27 0.10 0.02
PLAN 20
CONF
ISOR 0.01 $C $N
DELU  0.01 $C $N
REM DELU 0.01 C2 C3 C4 C5 C6 C7
REM DELU 0.01 N11 C12 N13 N14 C15
TEMP -123

WGHT    0.094300    1.782800
BASF   0.01233   0.16782
FVAR      31.51505
N1    3    1.435274    0.036224    1.080456    11.00000    0.03951    0.03916 =
         0.02982   -0.00007   -0.01073    0.00641
N2    3    1.237824   -0.026186    0.974459    11.00000    0.04708    0.03245 =
         0.02219    0.00596   -0.00077    0.00075
C3    1    1.045717    0.028128    0.868390    11.00000    0.03650    0.02776 =
         0.02058    0.00025   -0.00501   -0.00050
AFIX  43
H3    2    0.883126    0.004542    0.782420    11.00000   -1.20000
AFIX   0
N4    3    1.104580    0.117797    0.895080    11.00000    0.02306    0.02412 =
         0.01909   -0.00135   -0.00550   -0.00170
C5    1    1.352038    0.121051    1.032413    11.00000    0.02930    0.03479 =
         0.02347   -0.00589   -0.00398   -0.00124
AFIX  43
H5    2    1.445637    0.176810    1.083186    11.00000   -1.20000
AFIX   0
N6    3    0.959494    0.198085    0.823489    11.00000    0.03448    0.03108 =
         0.02685   -0.00325   -0.00118    0.00197
C7    1    0.769139    0.192512    0.686478    11.00000    0.02840    0.02833 =
         0.02098    0.00507   -0.00195   -0.00144
AFIX  43
H7    2    0.741212    0.133638    0.636095    11.00000   -1.20000
AFIX  66
C8    1    0.602569    0.273647    0.611452    11.00000    0.02942    0.02589 =
         0.02054    0.00473    0.00646    0.00140
C9    1    0.618759    0.361643    0.678960    11.00000    0.03199    0.02664 =
         0.02630    0.00637   -0.00031    0.00040
C10   1    0.451116    0.437853    0.597964    11.00000    0.03580    0.02068 =
         0.02017   -0.00449    0.00372    0.00290
AFIX  43
H10   2    0.462182    0.497994    0.644103    11.00000   -1.20000
AFIX  65
C11   1    0.267282    0.426068    0.449460    11.00000    0.03284    0.03158 =
         0.01905    0.00572    0.00173    0.01000
AFIX  43
H11   2    0.152705    0.478155    0.394103    11.00000   -1.20000
AFIX  65
C12   1    0.251089    0.338073    0.381950    11.00000    0.03242    0.03414 =
         0.00608   -0.00251    0.00490    0.00148
C13   1    0.418730    0.261862    0.462944    11.00000    0.03308    0.03325 =
         0.02058    0.00119   -0.00327    0.00537
AFIX  43
H13   2    0.407663    0.201721    0.416805    11.00000   -1.20000
AFIX   0
O14   4    0.792392    0.380219    0.820664    11.00000    0.05234    0.04459 =
         0.00490   -0.00412   -0.00541   -0.00299
AFIX  83
H14   2    0.888715    0.330907    0.860785    11.00000   -1.50000
AFIX   0
CL15  5    0.008451    0.324791    0.194897    11.00000    0.04365    0.04639 =
         0.01424    0.00166   -0.00768    0.00441
HKLF 5

REM  5 in Pc
REM R1 =  0.0727 for     737 Fo > 4sig(Fo)  and  0.0831 for all     849 data
REM    126 parameters refined using    111 restraints

END

WGHT      0.0789      1.4613

REM Highest difference peak  0.469,  deepest hole -0.416,  1-sigma level  0.094
Q1    1   0.6226  0.3225  0.2932  11.00000  0.05    0.47
Q2    1   1.2298 -0.0213  0.8031  11.00000  0.05    0.40
Q3    1   0.4576  0.3212  0.0999  11.00000  0.05    0.36
Q4    1  -0.2262  0.3944  0.1957  11.00000  0.05    0.28
Q5    1   1.0861  0.0134  0.6369  11.00000  0.05    0.27
Q6    1   0.0712  0.1603  0.3638  11.00000  0.05    0.27
Q7    1   0.9026 -0.0206  0.5995  11.00000  0.05    0.27
Q8    1   0.6257  0.5903  0.5147  11.00000  0.05    0.26
Q9    1   0.5041  0.4239  0.3690  11.00000  0.05    0.26
Q10   1   0.6471  0.3339  0.4552  11.00000  0.05    0.26
Q11   1   1.6814 -0.0224  1.0754  11.00000  0.05    0.26
Q12   1  -0.2324  0.2476  0.1982  11.00000  0.05    0.26
Q13   1   1.3069 -0.1087  0.9198  11.00000  0.05    0.25
Q14   1   0.0992  0.2812  0.5605  11.00000  0.05    0.24
Q15   1   0.0975  0.3804  0.4406  11.00000  0.05    0.24
Q16   1   1.7090  0.1172  0.9702  11.00000  0.05    0.23
Q17   1   0.8368  0.2478  0.4225  11.00000  0.05    0.23
Q18   1   0.7881  0.5337  0.7109  11.00000  0.05    0.22
Q19   1   1.1395  0.2664  1.0054  11.00000  0.05    0.22
Q20   1   1.5224  0.0028  1.2017  11.00000  0.05    0.21
;
_shelx_res_checksum              31771
loop_
_space_group_symop_operation_xyz
'x, y, z'
'x, -y, z+1/2'
loop_
_atom_site_label
_atom_site_type_symbol
_atom_site_fract_x
_atom_site_fract_y
_atom_site_fract_z
_atom_site_U_iso_or_equiv
_atom_site_adp_type
_atom_site_occupancy
_atom_site_site_symmetry_order
_atom_site_calc_flag
_atom_site_refinement_flags_posn
_atom_site_refinement_flags_adp
N1 N 1.435(5) 0.0362(13) 1.080(2) 0.039(5) Uani 1 1 d . U
N2 N 1.238(5) -0.0262(12) 0.974(2) 0.035(4) Uani 1 1 d . U
C3 C 1.046(6) 0.0281(15) 0.868(2) 0.030(5) Uani 1 1 d . U
H3 H 0.8831 0.0045 0.7824 0.036 Uiso 1 1 calc R U
N4 N 1.105(4) 0.1178(12) 0.8951(18) 0.023(4) Uani 1 1 d . U
C5 C 1.352(5) 0.1211(16) 1.032(2) 0.030(5) Uani 1 1 d . U
H5 H 1.4456 0.1768 1.0832 0.037 Uiso 1 1 calc R U
N6 N 0.959(4) 0.1981(11) 0.823(2) 0.032(4) Uani 1 1 d . U
C7 C 0.769(5) 0.1925(15) 0.686(2) 0.027(5) Uani 1 1 d . U
H7 H 0.7412 0.1336 0.6361 0.032 Uiso 1 1 calc R U
C8 C 0.603(3) 0.2736(8) 0.6115(13) 0.025(5) Uani 1 1 d G U
C9 C 0.619(3) 0.3616(9) 0.6790(11) 0.029(5) Uani 1 1 d G U
C10 C 0.451(4) 0.4379(7) 0.5980(14) 0.026(5) Uani 1 1 d G U
H10 H 0.4622 0.4980 0.6441 0.031 Uiso 1 1 calc R U
C11 C 0.267(4) 0.4261(8) 0.4495(14) 0.028(5) Uani 1 1 d G U
H11 H 0.1527 0.4782 0.3941 0.034 Uiso 1 1 calc R U
C12 C 0.251(4) 0.3381(10) 0.3820(11) 0.024(5) Uani 1 1 d G U
C13 C 0.419(3) 0.2619(8) 0.4629(13) 0.030(5) Uani 1 1 d G U
H13 H 0.4077 0.2017 0.4168 0.036 Uiso 1 1 calc R U
O14 O 0.792(4) 0.3802(10) 0.8207(14) 0.035(4) Uani 1 1 d . .
H14 H 0.8887 0.3309 0.8608 0.053 Uiso 1 1 calc R U
Cl15 Cl 0.0085(14) 0.3248(4) 0.1949(7) 0.0366(17) Uani 1 1 d . .
loop_
_atom_site_aniso_label
_atom_site_aniso_U_11
_atom_site_aniso_U_22
_atom_site_aniso_U_33
_atom_site_aniso_U_23
_atom_site_aniso_U_13
_atom_site_aniso_U_12
N1 0.040(9) 0.039(9) 0.030(9) 0.000(7) -0.011(7) 0.006(8)
N2 0.047(9) 0.032(8) 0.022(9) 0.006(7) -0.001(7) 0.001(8)
C3 0.036(10) 0.028(8) 0.021(9) 0.000(8) -0.005(7) 0.000(9)
N4 0.023(8) 0.024(7) 0.019(8) -0.001(7) -0.006(6) -0.002(7)
C5 0.029(10) 0.035(9) 0.023(10) -0.006(8) -0.004(7) -0.001(8)
N6 0.034(9) 0.031(8) 0.027(8) -0.003(7) -0.001(7) 0.002(7)
C7 0.028(10) 0.028(9) 0.021(9) 0.005(8) -0.002(7) -0.001(8)
C8 0.029(10) 0.026(8) 0.021(8) 0.005(7) 0.006(7) 0.001(8)
C9 0.032(11) 0.027(8) 0.026(10) 0.006(7) 0.000(9) 0.000(8)
C10 0.036(10) 0.021(9) 0.020(9) -0.004(7) 0.004(8) 0.003(8)
C11 0.033(10) 0.032(8) 0.019(9) 0.006(8) 0.002(8) 0.010(9)
C12 0.032(10) 0.034(9) 0.006(8) -0.003(7) 0.005(8) 0.001(9)
C13 0.033(10) 0.033(9) 0.021(9) 0.001(8) -0.003(8) 0.005(9)
O14 0.052(9) 0.045(9) 0.005(8) -0.004(7) -0.005(7) -0.003(9)
Cl15 0.044(3) 0.046(3) 0.014(3) 0.002(3) -0.008(2) 0.004(4)
loop_
_atom_type_symbol
_atom_type_description
_atom_type_scat_dispersion_real
_atom_type_scat_dispersion_imag
_atom_type_scat_source
C C 0.0033 0.0016 'International Tables Vol C Tables 4.2.6.8 and 6.1.1.4'
H H 0.0000 0.0000 'International Tables Vol C Tables 4.2.6.8 and 6.1.1.4'
N N 0.0061 0.0033 'International Tables Vol C Tables 4.2.6.8 and 6.1.1.4'
O O 0.0106 0.0060 'International Tables Vol C Tables 4.2.6.8 and 6.1.1.4'
Cl Cl 0.1484 0.1585 'International Tables Vol C Tables 4.2.6.8 and 6.1.1.4'
loop_
_geom_angle_atom_site_label_1
_geom_angle_atom_site_label_2
_geom_angle_atom_site_label_3
_geom_angle
C5 N1 N2 107.5(16)
C3 N2 N1 105.1(15)
N4 C3 N2 112.8(18)
N4 C3 H3 123.6
N2 C3 H3 123.6
C3 N4 N6 133.5(17)
C3 N4 C5 104.7(18)
N6 N4 C5 121.6(17)
N1 C5 N4 110(2)
N1 C5 H5 125.1
N4 C5 H5 125.1
C7 N6 N4 119.2(17)
N6 C7 C8 120.7(19)
N6 C7 H7 119.7
C8 C7 H7 119.7
C9 C8 C13 120.0
C9 C8 C7 123.3(12)
C13 C8 C7 116.7(12)
O14 C9 C8 124.4(10)
O14 C9 C10 115.6(10)
C8 C9 C10 120.0
C11 C10 C9 120.0
C11 C10 H10 120.0
C9 C10 H10 120.0
C12 C11 C10 120.0
C12 C11 H11 120.0
C10 C11 H11 120.0
C13 C12 C11 120.0
C13 C12 Cl15 121.0(8)
C11 C12 Cl15 119.0(7)
C12 C13 C8 120.0
C12 C13 H13 120.0
C8 C13 H13 120.0
C9 O14 H14 109.5
loop_
_geom_bond_atom_site_label_1
_geom_bond_atom_site_label_2
_geom_bond_distance
N1 C5 1.30(3)
N1 N2 1.41(2)
N2 C3 1.33(2)
C3 N4 1.31(3)
C3 H3 0.9500
N4 N6 1.37(2)
N4 C5 1.40(2)
C5 H5 0.9500
N6 C7 1.30(3)
C7 C8 1.42(2)
C7 H7 0.9500
C8 C9 1.3900
C8 C13 1.3900
C9 O14 1.341(15)
C9 C10 1.3900
C10 C11 1.3900
C10 H10 0.9500
C11 C12 1.3900
C11 H11 0.9500
C12 C13 1.3900
C12 Cl15 1.762(10)
C13 H13 0.9500
O14 H14 0.8400
loop_
_geom_torsion_atom_site_label_1
_geom_torsion_atom_site_label_2
_geom_torsion_atom_site_label_3
_geom_torsion_atom_site_label_4
_geom_torsion
C5 N1 N2 C3 0(2)
N1 N2 C3 N4 1(3)
N2 C3 N4 N6 -176.3(19)
N2 C3 N4 C5 -1(2)
N2 N1 C5 N4 -1(2)
C3 N4 C5 N1 1(2)
N6 N4 C5 N1 176.9(18)
C3 N4 N6 C7 -15(3)
C5 N4 N6 C7 170.7(17)
N4 N6 C7 C8 177.4(15)
N6 C7 C8 C9 -2(2)
N6 C7 C8 C13 177.1(14)
C13 C8 C9 O14 -179.2(13)
C7 C8 C9 O14 0.3(16)
C13 C8 C9 C10 0.0
C7 C8 C9 C10 179.5(14)
O14 C9 C10 C11 179.3(12)
C8 C9 C10 C11 0.0
C9 C10 C11 C12 0.0
C10 C11 C12 C13 0.0
C10 C11 C12 Cl15 178.7(10)
C11 C12 C13 C8 0.0
Cl15 C12 C13 C8 -178.7(10)
C9 C8 C13 C12 0.0
C7 C8 C13 C12 -179.6(13)
