#------------------------------------------------------------------------------
#$Date: 2017-01-09 05:03:29 +0200 (Mon, 09 Jan 2017) $
#$Revision: 190066 $
#$URL: file:///home/coder/svn-repositories/cod/cif/7/22/68/7226840.cif $
#------------------------------------------------------------------------------
#
# This file is available in the Crystallography Open Database (COD),
# http://www.crystallography.net/
#
# All data on this site have been placed in the public domain by the
# contributors.
#
data_7226840
loop_
_publ_author_name
'Galica, T.'
'B\;akowicz, J.'
'Konieczny, K.'
'Turowska-Tyrk, I.'
_publ_section_title
;
 Structural transformations in crystals induced by radiation and pressure.
 Part 5. The influence of pressure on the course of the photochemical
 reaction in crystals of 2,6-difluorocinnamic acid
;
_journal_issue                   46
_journal_name_full               CrystEngComm
_journal_page_first              8871
_journal_paper_doi               10.1039/C6CE01652A
_journal_volume                  18
_journal_year                    2016
_chemical_formula_sum            'C9 H6 F2 O2'
_chemical_formula_weight         184.14
_chemical_properties_physical    ', Photo-sensitive'
_space_group_crystal_system      monoclinic
_space_group_IT_number           14
_space_group_name_Hall           '-P 2ybc'
_space_group_name_H-M_alt        'P 1 21/c 1'
_symmetry_space_group_name_Hall  '-P 2ybc'
_symmetry_space_group_name_H-M   'P 1 21/c 1'
_atom_sites_solution_hydrogens   mixed
_atom_sites_solution_primary     isomor
_atom_sites_solution_secondary   geom
_audit_creation_method           SHELXL-2014/7
_audit_update_record
;
2016-07-27 deposited with the CCDC.
2016-10-19 downloaded from the CCDC.
;
_cell_angle_alpha                90
_cell_angle_beta                 91.839(17)
_cell_angle_gamma                90
_cell_formula_units_Z            4
_cell_length_a                   3.7768(5)
_cell_length_b                   19.151(3)
_cell_length_c                   10.824(4)
_cell_measurement_pressure       1100000
_cell_measurement_reflns_used    593
_cell_measurement_temperature    299(2)
_cell_measurement_theta_max      20.16
_cell_measurement_theta_min      6.58
_cell_volume                     782.5(3)
_computing_cell_refinement       'CrysAlisPro (Agilent Technologies, 2014)'
_computing_data_collection       'CrysAlisPro (Agilent Technologies, 2014)'
_computing_data_reduction        'CrysAlisPro (Agilent Technologies, 2014)'
_computing_molecular_graphics    'ORTEP-3 for Windows (Farrugia, 2012)'
_computing_publication_material  'SHELXL-2014/7 (Sheldrick, 2015)'
_computing_structure_refinement  'SHELXL-2014/7 (Sheldrick, 2015)'
_computing_structure_solution    'SHELXS-2013/1 (Sheldrick, 2008)'
_diffrn_ambient_pressure         1100000
_diffrn_ambient_temperature      299(2)
_diffrn_detector_area_resol_mean 15.9718
_diffrn_measured_fraction_theta_full 0.518
_diffrn_measured_fraction_theta_max 0.518
_diffrn_measurement_device_type  'KM4 with Eos CCD'
_diffrn_measurement_method       '\f- and \w scans'
_diffrn_radiation_monochromator  graphite
_diffrn_radiation_source         'fine-focus sealed tube'
_diffrn_radiation_type           MoK\a
_diffrn_radiation_wavelength     0.71073
_diffrn_reflns_av_R_equivalents  0.1547
_diffrn_reflns_av_unetI/netI     0.1399
_diffrn_reflns_Laue_measured_fraction_full 0.518
_diffrn_reflns_Laue_measured_fraction_max 0.518
_diffrn_reflns_limit_h_max       4
_diffrn_reflns_limit_h_min       -4
_diffrn_reflns_limit_k_max       19
_diffrn_reflns_limit_k_min       -19
_diffrn_reflns_limit_l_max       9
_diffrn_reflns_limit_l_min       -9
_diffrn_reflns_number            3253
_diffrn_reflns_point_group_measured_fraction_full 0.518
_diffrn_reflns_point_group_measured_fraction_max 0.518
_diffrn_reflns_theta_full        24.057
_diffrn_reflns_theta_max         24.057
_diffrn_reflns_theta_min         6.666
_exptl_absorpt_coefficient_mu    0.141
_exptl_absorpt_correction_T_max  1.00000
_exptl_absorpt_correction_T_min  0.23662
_exptl_absorpt_correction_type   multi-scan
_exptl_absorpt_process_details
;
SCALE3 ABSPACK (Agilent Technologies, 2014).
;
_exptl_crystal_colour            colourless
_exptl_crystal_density_diffrn    1.563
_exptl_crystal_description       block
_exptl_crystal_F_000             376
_exptl_crystal_size_max          0.14
_exptl_crystal_size_mid          0.10
_exptl_crystal_size_min          0.08
_refine_diff_density_max         0.338
_refine_diff_density_min         -0.253
_refine_diff_density_rms         0.064
_refine_ls_extinction_method     none
_refine_ls_goodness_of_fit_ref   1.115
_refine_ls_hydrogen_treatment    constr
_refine_ls_matrix_type           full
_refine_ls_number_parameters     73
_refine_ls_number_reflns         647
_refine_ls_number_restraints     63
_refine_ls_restrained_S_all      1.138
_refine_ls_R_factor_all          0.2136
_refine_ls_R_factor_gt           0.1106
_refine_ls_shift/su_max          0.000
_refine_ls_shift/su_mean         0.000
_refine_ls_structure_factor_coef Fsqd
_refine_ls_weighting_details
'w=1/[\s^2^(Fo^2^)+(0.2000P)^2^] where P=(Fo^2^+2Fc^2^)/3'
_refine_ls_weighting_scheme      calc
_refine_ls_wR_factor_gt          0.3012
_refine_ls_wR_factor_ref         0.3677
_reflns_Friedel_coverage         0.000
_reflns_number_gt                296
_reflns_number_total             647
_reflns_threshold_expression     'I > 2\s(I)'
_cod_data_source_file            c6ce01652a1.cif
_cod_data_source_block           30secUV_p2
_cod_depositor_comments
'Adding full bibliography for 7226837--7226849.cif.'
_cod_database_code               7226840
_shelx_shelxl_version_number     2014/7
_shelx_space_group_comment
;
The symmetry employed for this shelxl refinement is uniquely defined
by the following loop, which should always be used as a source of
symmetry information in preference to the above space-group names.
They are only intended as comments.
;
_shelx_res_file
;

    30secUV_1.1GPa.res created by SHELXL-2014/7


TITL 30secUV_1.1GPa
CELL 0.71073   3.7768  19.151  10.824  90.000  91.839  90.000
ZERR    4.00   0.0005   0.003   0.004   0.000   0.017   0.000
LATT  1
SYMM -x, y+1/2,-z+1/2
SFAC C H O F
UNIT 36 24 8 8
OMIT -1 50
L.S. 6
FMAP 2
PLAN -10
BOND $H
HTAB
ACTA
DFIX 1.499 0.01 C6P1 C7P1
DFIX 1.536 0.01 C7P1 C8P1
DFIX 1.497 0.01 C8P1 C9P1
DFIX 1.504 0.01 C6P2 C7P2
DFIX 1.559 0.01 C7P2 C8P2
DFIX 1.493 0.01 C8P2 C9P2
DFIX 1.574 0.01 C7P1 C7P2
DFIX 1.584 0.01 C8P1 C8P2
DANG 2.583 0.02 C1P1 C7P1
DANG 2.478 0.02 C5P1 C7P1
DANG 2.343 0.02 C8P1 O1P1
DANG 2.393 0.02 C8P1 O2P1
DANG 2.558 0.02 C1P2 C7P2
DANG 2.525 0.02 C5P2 C7P2
DANG 2.353 0.02 C8P2 O1P2
DANG 2.373 0.02 C8P2 O2P2
DANG 2.648 0.02 C6P2 C7P1
DANG 2.620 0.02 C6P2 C8P2
DANG 2.663 0.02 C6P1 C7P2
DANG 2.666 0.02 C6P1 C8P1
DANG 2.558 0.02 C9P2 C7P2
DANG 2.555 0.02 C9P2 C8P1
DANG 2.578 0.02 C9P1 C7P1
DANG 2.616 0.02 C9P1 C8P2
DANG 2.205 0.02 C7P2 C8P1
DANG 2.205 0.02 C8P2 C7P1
FLAT C8P1 C9P1 O1P1 O2P1
FLAT C8P2 C9P2 O1P2 O2P2
FLAT C1P1 C5P1 C6P1 C7P1
FLAT C1P2 C5P2 C6P2 C7P2
SIMU 0.02 0.02 10.0 O1R O2R O1P1 O2P1 O1P2 O2P2
SIMU 0.02 0.02 10.0 F1R F2R F1P1

FREE C7P1 C6P2_$3
FREE C8P1 F1P2_$3
EQIV $3   x-1, y, z
FREE C8P2 C9P1_$1
EQIV $1   x+1, y, z
BIND 2 3
TEMP 26
WGHT    0.200000
FVAR       4.24773   0.84062   0.06867   0.05831   0.09934
PART 1
AFIX   6
C6R   1    0.725419    0.710555    0.075268    21.00000   31.00000
C1R   1    0.889292    0.686755    0.184491    21.00000   31.00000
F1R   4    0.997966    0.734791    0.269179    21.00000    0.11868    0.06353 =
         0.11343   -0.00195   -0.03811    0.00415
C2R   1    0.949983    0.617851    0.211883    21.00000   31.00000
H2R   2    1.059376    0.608162    0.285197    21.00000   -1.20000
C3R   1    0.849639    0.568238    0.126026    21.00000   31.00000
H3R   2    0.890951    0.520362    0.145347    21.00000   -1.20000
C4R   1    0.688899    0.587431    0.015997    21.00000   31.00000
H4R   2    0.622382    0.556862   -0.044963    21.00000   -1.20000
C5R   1    0.628598    0.657057   -0.005748    21.00000   31.00000
F2R   4    0.460769    0.674954   -0.113625    21.00000    0.10247    0.05488 =
         0.11832    0.00499   -0.02556   -0.01123
AFIX   0
C7R   1    0.648481    0.782881    0.045764    21.00000   31.00000
AFIX  43
H7R   2    0.522793    0.790138   -0.028417    21.00000   -1.20000
AFIX   0
C8R   1    0.731771    0.840865    0.109635    21.00000   31.00000
AFIX  43
H8R   2    0.859782    0.837601    0.184252    21.00000   -1.20000
AFIX   6
C9R   1    0.623096    0.908394    0.062795    21.00000   31.00000
O1R   3    0.721184    0.959917    0.136301    21.00000    0.08873
AFIX  83
H1R   2    0.650369    0.997015    0.106856    21.00000   -1.50000
AFIX   5
O2R   3    0.469664    0.918149   -0.036551    21.00000    0.08435
AFIX   6
PART 0

PART 2
C6P1  1    0.836775    0.701379    0.086809   -20.50000   31.00000
C1P1  1    0.876316    0.678877    0.207518   -20.50000   31.00000
F1P1  4    1.008671    0.724160    0.293554   -20.50000   51.00000
C2P1  1    0.783662    0.612909    0.246438   -20.50000   31.00000
H2P1  2    0.828516    0.604130    0.332253   -20.50000   -1.20000
C3P1  1    0.647719    0.566233    0.162019   -20.50000   31.00000
H3P1  2    0.585199    0.519763    0.192525   -20.50000   -1.20000
C4P1  1    0.596999    0.585314    0.041007   -20.50000   31.00000
H4P1  2    0.501866    0.555498   -0.015513   -20.50000   -1.20000
C5P1  1    0.690720    0.651833    0.006916   -20.50000   31.00000
F2P1  4    0.629666    0.672569   -0.111542   -20.50000   51.00000
AFIX   0
C7P1  1    0.958736    0.770391    0.036220   -20.50000   31.00000
AFIX  13
H7P1  2    0.863025    0.776164   -0.048391   -20.50000   -1.20000
AFIX   0
C8P1  1    0.907861    0.838346    0.108092   -20.50000   31.00000
AFIX  13
H8P1  2    0.776190    0.830548    0.183419   -20.50000   -1.20000
AFIX   6
C9P1  1    0.782410    0.902876    0.040697   -20.50000   31.00000
O1P1  3    0.864706    0.959375    0.102401   -20.50000   41.00000
AFIX  83
H1P1  2    0.794163    0.993666    0.063494   -20.50000   -1.50000
AFIX   5
O2P1  3    0.641576    0.903513   -0.062168   -20.50000   41.00000
AFIX   6
PART 0
PART 3
C6P2  1    1.603650    0.720969    0.071931   -20.50000   31.00000
C1P2  1    1.833337    0.716358    0.174118   -20.50000   31.00000
F1P2  4    1.862495    0.772835    0.249209   -20.50000   51.00000
C2P2  1    2.031874    0.658442    0.203709   -20.50000   31.00000
H2P2  2    2.178686    0.660399    0.272892   -20.50000   -1.20000
C3P2  1    1.999792    0.600352    0.129835   -20.50000   31.00000
H3P2  2    2.131956    0.557068    0.148441   -20.50000   -1.20000
C4P2  1    1.774269    0.600737    0.027915   -20.50000   31.00000
H4P2  2    1.728075    0.563429   -0.027890   -20.50000   -1.20000
C5P2  1    1.584894    0.660573    0.001166   -20.50000   31.00000
F2P2  4    1.367976    0.660428   -0.100545   -20.50000   51.00000
AFIX   0
C7P2  1    1.374155    0.782952    0.038185   -20.50000   31.00000
AFIX  13
H7P2  2    1.445899    0.803238   -0.040278   -20.50000   -1.20000
AFIX   0
C8P2  1    1.327202    0.841361    0.136780   -20.50000   31.00000
AFIX  13
H8P2  2    1.404395    0.829357    0.221440   -20.50000   -1.20000
AFIX   6
C9P2  1    1.441574    0.911717    0.091675   -20.50000   31.00000
O1P2  3    1.565117    0.954713    0.176170   -20.50000   41.00000
AFIX  83
H1P2  2    1.616516    0.991926    0.143839   -20.50000   -1.50000
AFIX   5
O2P2  3    1.381386    0.928453   -0.015047   -20.50000   41.00000
PART 0
AFIX   0
HKLF 4

REM  30secUV_1.1GPa
REM R1 =  0.1106 for     296 Fo > 4sig(Fo)  and  0.2136 for all     647 data
REM     73 parameters refined using     63 restraints

END

WGHT      0.2000      0.0000

REM Instructions for potential hydrogen bonds
EQIV $4 x+1, -y+3/2, z+1/2
HTAB C2R O2R_$4
HTAB C8R F1R
EQIV $5 -x+1, -y+2, -z
HTAB O1R O2R_$5
EQIV $6 x, -y+3/2, z+1/2
HTAB C2P1 O2P1_$6
EQIV $7 x-1, -y+3/2, z+1/2
HTAB C2P1 O2P2_$7
HTAB C8P1 F2P1_$6
HTAB C8P1 F1P2_$3
EQIV $8 -x+2, -y+2, -z
HTAB O1P1 O1P1_$8
HTAB O1P1 O2P1_$5
HTAB O1P1 O2P2_$8
HTAB C8P2 F2P1_$4
HTAB C8P2 F1P2
HTAB C8P2 F2P2_$6
HTAB O1P2 O2P1_$8
EQIV $9 -x+3, -y+2, -z
HTAB O1P2 O2P2_$9

REM Highest difference peak  0.338,  deepest hole -0.253,  1-sigma level  0.064
Q1    1   0.3289  0.9138  0.0214  11.00000  0.05    0.34
Q2    1   0.5837  0.9314 -0.0831  11.00000  0.05    0.26
Q3    1   0.8020  0.5826 -0.0317  11.00000  0.05    0.25
Q4    1   0.8180  0.8355  0.0559  11.00000  0.05    0.24
Q5    1   0.8206  0.5609  0.1956  11.00000  0.05    0.22
Q6    1   0.5701  0.8222  0.1634  11.00000  0.05    0.22
Q7    1   0.9842  0.6926  0.1308  11.00000  0.05    0.20
Q8    1   0.6959  0.8707  0.2303  11.00000  0.05    0.19
Q9    1   0.4900  0.7238 -0.2585  11.00000  0.05    0.18
Q10   1   0.4579  0.9730  0.1184  11.00000  0.05    0.18
;
_shelx_res_checksum              1991
loop_
_space_group_symop_operation_xyz
'x, y, z'
'-x, y+1/2, -z+1/2'
'-x, -y, -z'
'x, -y-1/2, z-1/2'
loop_
_atom_site_label
_atom_site_type_symbol
_atom_site_fract_x
_atom_site_fract_y
_atom_site_fract_z
_atom_site_U_iso_or_equiv
_atom_site_adp_type
_atom_site_occupancy
_atom_site_site_symmetry_order
_atom_site_calc_flag
_atom_site_refinement_flags_posn
_atom_site_refinement_flags_adp
_atom_site_refinement_flags_occupancy
_atom_site_disorder_assembly
_atom_site_disorder_group
C6R C 0.7254(15) 0.7106(2) 0.0753(6) 0.069(2) Uiso 0.841(9) 1 d G U P A 1
C1R C 0.8893(14) 0.6868(3) 0.1845(6) 0.069(2) Uiso 0.841(9) 1 d G U P A 1
F1R F 0.998(2) 0.7348(3) 0.2692(6) 0.099(3) Uani 0.841(9) 1 d G U P A 1
C2R C 0.9500(16) 0.6179(3) 0.2119(6) 0.069(2) Uiso 0.841(9) 1 d G U P A 1
H2R H 1.0594 0.6082 0.2852 0.082 Uiso 0.841(9) 1 d G U P A 1
C3R C 0.850(2) 0.5682(2) 0.1260(7) 0.069(2) Uiso 0.841(9) 1 d G U P A 1
H3R H 0.8910 0.5204 0.1453 0.082 Uiso 0.841(9) 1 d G U P A 1
C4R C 0.6889(16) 0.5874(2) 0.0160(6) 0.069(2) Uiso 0.841(9) 1 d G U P A 1
H4R H 0.6224 0.5569 -0.0450 0.082 Uiso 0.841(9) 1 d G U P A 1
C5R C 0.6286(11) 0.6571(2) -0.0057(6) 0.069(2) Uiso 0.841(9) 1 d G U P A 1
F2R F 0.4608(15) 0.6750(3) -0.1136(6) 0.093(3) Uani 0.841(9) 1 d G U P A 1
C7R C 0.648(3) 0.7829(6) 0.0458(13) 0.069(2) Uiso 0.841(9) 1 d . U P A 1
H7R H 0.5228 0.7901 -0.0284 0.082 Uiso 0.841(9) 1 calc R U P A 1
C8R C 0.732(3) 0.8409(6) 0.1096(15) 0.069(2) Uiso 0.841(9) 1 d . U P A 1
H8R H 0.8598 0.8376 0.1843 0.082 Uiso 0.841(9) 1 calc R U P A 1
C9R C 0.623(3) 0.9084(3) 0.0628(9) 0.069(2) Uiso 0.841(9) 1 d G U P A 1
O1R O 0.721(2) 0.9599(5) 0.1363(8) 0.089(4) Uiso 0.841(9) 1 d G U P A 1
H1R H 0.6504 0.9970 0.1069 0.133 Uiso 0.841(9) 1 calc R U P A 1
O2R O 0.470(2) 0.9181(5) -0.0366(8) 0.084(4) Uiso 0.841(9) 1 d G U P A 1
C6P1 C 0.837(9) 0.7014(17) 0.087(5) 0.069(2) Uiso 0.080(4) 1 d DG U P A 2
C1P1 C 0.876(13) 0.679(2) 0.208(5) 0.069(2) Uiso 0.080(4) 1 d DG U P A 2
F1P1 F 1.009(19) 0.724(3) 0.294(5) 0.099(8) Uiso 0.080(4) 1 d G U P A 2
C2P1 C 0.784(17) 0.613(3) 0.246(7) 0.069(2) Uiso 0.080(4) 1 d G U P A 2
H2P1 H 0.8285 0.6041 0.3323 0.082 Uiso 0.080(4) 1 d G U P A 2
C3P1 C 0.648(17) 0.566(2) 0.162(8) 0.069(2) Uiso 0.080(4) 1 d G U P A 2
H3P1 H 0.5852 0.5198 0.1925 0.082 Uiso 0.080(4) 1 d G U P A 2
C4P1 C 0.597(14) 0.5853(19) 0.041(8) 0.069(2) Uiso 0.080(4) 1 d G U P A 2
H4P1 H 0.5019 0.5555 -0.0155 0.082 Uiso 0.080(4) 1 d G U P A 2
C5P1 C 0.691(10) 0.6518(19) 0.007(6) 0.069(2) Uiso 0.080(4) 1 d DG U P A 2
F2P1 F 0.630(15) 0.673(3) -0.112(6) 0.099(8) Uiso 0.080(4) 1 d G U P A 2
C7P1 C 0.959(9) 0.7704(17) 0.036(4) 0.069(2) Uiso 0.080(4) 1 d D U P A 2
H7P1 H 0.8630 0.7762 -0.0484 0.082 Uiso 0.080(4) 1 calc R U P A 2
C8P1 C 0.908(9) 0.8383(17) 0.108(5) 0.069(2) Uiso 0.080(4) 1 d D U P A 2
H8P1 H 0.7762 0.8305 0.1834 0.082 Uiso 0.080(4) 1 calc R U P A 2
C9P1 C 0.782(10) 0.9029(18) 0.041(5) 0.069(2) Uiso 0.080(4) 1 d DG U P A 2
O1P1 O 0.865(19) 0.9594(18) 0.102(7) 0.058(7) Uiso 0.080(4) 1 d DG U P A 2
H1P1 H 0.7942 0.9937 0.0635 0.087 Uiso 0.080(4) 1 calc R U P A 2
O2P1 O 0.642(17) 0.904(3) -0.062(5) 0.058(7) Uiso 0.080(4) 1 d DG U P A 2
C6P2 C 1.604(9) 0.7210(18) 0.072(4) 0.069(2) Uiso 0.080(4) 1 d DG U P A 3
C1P2 C 1.833(10) 0.716(2) 0.174(4) 0.069(2) Uiso 0.080(4) 1 d DG U P A 3
F1P2 F 1.862(14) 0.773(3) 0.249(5) 0.099(8) Uiso 0.080(4) 1 d G U P A 3
C2P2 C 2.032(13) 0.658(3) 0.204(6) 0.069(2) Uiso 0.080(4) 1 d G U P A 3
H2P2 H 2.1787 0.6604 0.2729 0.082 Uiso 0.080(4) 1 d G U P A 3
C3P2 C 2.000(16) 0.600(2) 0.130(7) 0.069(2) Uiso 0.080(4) 1 d G U P A 3
H3P2 H 2.1320 0.5571 0.1484 0.082 Uiso 0.080(4) 1 d G U P A 3
C4P2 C 1.774(16) 0.6007(19) 0.028(7) 0.069(2) Uiso 0.080(4) 1 d G U P A 3
H4P2 H 1.7281 0.5634 -0.0279 0.082 Uiso 0.080(4) 1 d G U P A 3
C5P2 C 1.585(13) 0.6606(19) 0.001(5) 0.069(2) Uiso 0.080(4) 1 d DG U P A 3
F2P2 F 1.368(18) 0.660(3) -0.101(6) 0.099(8) Uiso 0.080(4) 1 d G U P A 3
C7P2 C 1.374(9) 0.7830(17) 0.038(4) 0.069(2) Uiso 0.080(4) 1 d D U P A 3
H7P2 H 1.4459 0.8032 -0.0403 0.082 Uiso 0.080(4) 1 calc R U P A 3
C8P2 C 1.327(9) 0.8414(16) 0.137(4) 0.069(2) Uiso 0.080(4) 1 d D U P A 3
H8P2 H 1.4044 0.8294 0.2214 0.082 Uiso 0.080(4) 1 calc R U P A 3
C9P2 C 1.442(10) 0.9117(16) 0.092(5) 0.069(2) Uiso 0.080(4) 1 d DG U P A 3
O1P2 O 1.565(17) 0.955(2) 0.176(7) 0.058(7) Uiso 0.080(4) 1 d DG U P A 3
H1P2 H 1.6165 0.9919 0.1438 0.087 Uiso 0.080(4) 1 calc R U P A 3
O2P2 O 1.38(2) 0.928(3) -0.015(5) 0.058(7) Uiso 0.080(4) 1 d DG U P A 3
loop_
_atom_site_aniso_label
_atom_site_aniso_U_11
_atom_site_aniso_U_22
_atom_site_aniso_U_33
_atom_site_aniso_U_23
_atom_site_aniso_U_13
_atom_site_aniso_U_12
F1R 0.119(5) 0.064(6) 0.113(9) -0.002(4) -0.038(5) 0.004(4)
F2R 0.102(5) 0.055(5) 0.118(9) 0.005(3) -0.026(5) -0.011(4)
loop_
_atom_type_symbol
_atom_type_description
_atom_type_scat_dispersion_real
_atom_type_scat_dispersion_imag
_atom_type_scat_source
C C 0.0033 0.0016 'International Tables Vol C Tables 4.2.6.8 and 6.1.1.4'
H H 0.0000 0.0000 'International Tables Vol C Tables 4.2.6.8 and 6.1.1.4'
O O 0.0106 0.0060 'International Tables Vol C Tables 4.2.6.8 and 6.1.1.4'
F F 0.0171 0.0103 'International Tables Vol C Tables 4.2.6.8 and 6.1.1.4'
loop_
_geom_angle_atom_site_label_1
_geom_angle_atom_site_label_2
_geom_angle_atom_site_label_3
_geom_angle
C5R C6R C1R 113.3
C5R C6R C7R 121.3(6)
C1R C6R C7R 125.5(6)
F1R C1R C2R 117.6
F1R C1R C6R 118.0
C2R C1R C6R 124.4
C1R C2R C3R 118.6
C1R C2R H2R 117.2
C3R C2R H2R 124.2
C4R C3R C2R 120.5
C4R C3R H3R 121.0
C2R C3R H3R 118.5
C3R C4R C5R 118.5
C3R C4R H4R 124.2
C5R C4R H4R 117.4
F2R C5R C4R 117.7
F2R C5R C6R 117.6
C4R C5R C6R 124.7
C8R C7R C6R 129.5(14)
C8R C7R H7R 115.2
C6R C7R H7R 115.2
C7R C8R C9R 120.1(14)
C7R C8R H8R 119.9
C9R C8R H8R 119.9
O2R C9R O1R 122.4
O2R C9R C8R 124.6(8)
O1R C9R C8R 112.9(8)
C9R O1R H1R 109.5
C1P1 C6P1 C5P1 113.9
C1P1 C6P1 C7P1 126.3(12)
C5P1 C6P1 C7P1 119.6(12)
F1P1 C1P1 C6P1 118.5
F1P1 C1P1 C2P1 117.8
C6P1 C1P1 C2P1 123.7
C3P1 C2P1 C1P1 119.2
C3P1 C2P1 H2P1 125.9
C1P1 C2P1 H2P1 114.8
C2P1 C3P1 C4P1 120.3
C2P1 C3P1 H3P1 117.2
C4P1 C3P1 H3P1 122.5
C3P1 C4P1 C5P1 118.4
C3P1 C4P1 H4P1 121.4
C5P1 C4P1 H4P1 120.3
F2P1 C5P1 C4P1 119.2
F2P1 C5P1 C6P1 116.2
C4P1 C5P1 C6P1 124.6
C6P1 C7P1 C8P1 121.0(16)
C6P1 C7P1 C7P2 116.2(13)
C8P1 C7P1 C7P2 90.3(9)
C6P1 C7P1 H7P1 109.3
C8P1 C7P1 H7P1 109.3
C7P2 C7P1 H7P1 109.3
C9P1 C8P1 C7P1 119.6(16)
C9P1 C8P1 C8P2 111.0(13)
C7P1 C8P1 C8P2 89.4(9)
C9P1 C8P1 H8P1 111.6
C7P1 C8P1 H8P1 111.6
C8P2 C8P1 H8P1 111.6
O2P1 C9P1 O1P1 123.3
O2P1 C9P1 C8P1 125.0(12)
O1P1 C9P1 C8P1 111.5(12)
C9P1 O1P1 H1P1 109.5
C1P2 C6P2 C5P2 114.0
C1P2 C6P2 C7P2 125.7(11)
C5P2 C6P2 C7P2 120.2(11)
F1P2 C1P2 C2P2 118.2
F1P2 C1P2 C6P2 117.7
C2P2 C1P2 C6P2 124.2
C1P2 C2P2 C3P2 118.8
C1P2 C2P2 H2P2 118.0
C3P2 C2P2 H2P2 123.2
C4P2 C3P2 C2P2 120.3
C4P2 C3P2 H3P2 117.8
C2P2 C3P2 H3P2 121.9
C3P2 C4P2 C5P2 118.6
C3P2 C4P2 H4P2 127.2
C5P2 C4P2 H4P2 114.2
F2P2 C5P2 C4P2 117.8
F2P2 C5P2 C6P2 118.1
C4P2 C5P2 C6P2 124.1
C6P2 C7P2 C8P2 118.4(15)
C6P2 C7P2 C7P1 116.4(13)
C8P2 C7P2 C7P1 89.1(9)
C6P2 C7P2 H7P2 110.4
C8P2 C7P2 H7P2 110.4
C7P1 C7P2 H7P2 110.4
C9P2 C8P2 C7P2 112.4(15)
C9P2 C8P2 C8P1 105.2(13)
C7P2 C8P2 C8P1 88.6(9)
C9P2 C8P2 H8P2 115.8
C7P2 C8P2 H8P2 115.8
C8P1 C8P2 H8P2 115.8
O2P2 C9P2 O1P2 123.5
O2P2 C9P2 C8P2 120.0(12)
O1P2 C9P2 C8P2 116.0(12)
C9P2 O1P2 H1P2 109.5
loop_
_geom_bond_atom_site_label_1
_geom_bond_atom_site_label_2
_geom_bond_distance
C6R C5R 1.3899
C6R C1R 1.3934
C6R C7R 1.449(13)
C1R F1R 1.3531
C1R C2R 1.3702
C2R C3R 1.3738
C2R H2R 0.9021
C3R C4R 1.3695
C3R H3R 0.9522
C4R C5R 1.3718
C4R H4R 0.9114
C5R F2R 1.3547
C7R C8R 1.340(16)
C7R H7R 0.9300
C8R C9R 1.444(13)
C8R H8R 0.9300
C9R O2R 1.2194
C9R O1R 1.3134
O1R H1R 0.8200
C6P1 C1P1 1.3793
C6P1 C5P1 1.3863
C6P1 C7P1 1.508(9)
C1P1 F1P1 1.3562
C1P1 C2P1 1.3804
C2P1 C3P1 1.3666
C2P1 H2P1 0.9538
C3P1 C4P1 1.3674
C3P1 H3P1 0.9807
C4P1 C5P1 1.3757
C4P1 H4P1 0.9029
C5P1 F2P1 1.3550
C7P1 C8P1 1.531(10)
C7P1 C7P2 1.587(10)
C7P1 H7P1 0.9800
C8P1 C9P1 1.504(9)
C8P1 C8P2 1.605(10)
C8P1 H8P1 0.9800
C9P1 O2P1 1.2185
C9P1 O1P1 1.3039
O1P1 H1P1 0.8200
C6P2 C1P2 1.3864
C6P2 C5P2 1.3878
C6P2 C7P2 1.508(9)
C1P2 F1P2 1.3553
C1P2 C2P2 1.3710
C2P2 C3P2 1.3731
C2P2 H2P2 0.9181
C3P2 C4P2 1.3719
C3P2 H3P2 0.9851
C4P2 C5P2 1.3767
C4P2 H4P2 0.9482
C5P2 F2P2 1.3510
C7P2 C8P2 1.560(10)
C7P2 H7P2 0.9800
C8P2 C9P2 1.501(9)
C8P2 H8P2 0.9800
C9P2 O2P2 1.2132
C9P2 O1P2 1.3057
O1P2 H1P2 0.8200
