#------------------------------------------------------------------------------
#$Date: 2017-01-09 05:03:29 +0200 (Mon, 09 Jan 2017) $
#$Revision: 190066 $
#$URL: file:///home/coder/svn-repositories/cod/cif/7/22/68/7226841.cif $
#------------------------------------------------------------------------------
#
# This file is available in the Crystallography Open Database (COD),
# http://www.crystallography.net/
#
# All data on this site have been placed in the public domain by the
# contributors.
#
data_7226841
loop_
_publ_author_name
'Galica, T.'
'B\;akowicz, J.'
'Konieczny, K.'
'Turowska-Tyrk, I.'
_publ_section_title
;
 Structural transformations in crystals induced by radiation and pressure.
 Part 5. The influence of pressure on the course of the photochemical
 reaction in crystals of 2,6-difluorocinnamic acid
;
_journal_issue                   46
_journal_name_full               CrystEngComm
_journal_page_first              8871
_journal_paper_doi               10.1039/C6CE01652A
_journal_volume                  18
_journal_year                    2016
_chemical_formula_sum            'C9 H6 F2 O2'
_chemical_formula_weight         184.14
_chemical_properties_physical    ', Photo-sensitive'
_space_group_crystal_system      monoclinic
_space_group_IT_number           14
_space_group_name_Hall           '-P 2ybc'
_space_group_name_H-M_alt        'P 1 21/c 1'
_symmetry_space_group_name_Hall  '-P 2ybc'
_symmetry_space_group_name_H-M   'P 1 21/c 1'
_atom_sites_solution_hydrogens   mixed
_atom_sites_solution_primary     isomor
_atom_sites_solution_secondary   geom
_audit_creation_method           SHELXL-2014/7
_audit_update_record
;
2016-07-27 deposited with the CCDC.
2016-10-19 downloaded from the CCDC.
;
_cell_angle_alpha                90
_cell_angle_beta                 91.978(18)
_cell_angle_gamma                90
_cell_formula_units_Z            4
_cell_length_a                   3.7692(6)
_cell_length_b                   19.123(3)
_cell_length_c                   10.849(4)
_cell_measurement_pressure       1100000
_cell_measurement_reflns_used    444
_cell_measurement_temperature    299(2)
_cell_measurement_theta_max      18.23
_cell_measurement_theta_min      6.79
_cell_volume                     781.5(3)
_computing_cell_refinement       'CrysAlisPro (Agilent Technologies, 2014)'
_computing_data_collection       'CrysAlisPro (Agilent Technologies, 2014)'
_computing_data_reduction        'CrysAlisPro (Agilent Technologies, 2014)'
_computing_molecular_graphics    'ORTEP-3 for Windows (Farrugia, 2012)'
_computing_publication_material  'SHELXL-2014/7 (Sheldrick, 2015)'
_computing_structure_refinement  'SHELXL-2014/7 (Sheldrick, 2015)'
_computing_structure_solution    'SHELXS-2013/1 (Sheldrick, 2008)'
_diffrn_ambient_pressure         1100000
_diffrn_ambient_temperature      299(2)
_diffrn_detector_area_resol_mean 15.9718
_diffrn_measured_fraction_theta_full 0.485
_diffrn_measured_fraction_theta_max 0.485
_diffrn_measurement_device_type  'KM4 with Eos CCD'
_diffrn_measurement_method       '\f- and \w scans'
_diffrn_radiation_monochromator  graphite
_diffrn_radiation_source         'fine-focus sealed tube'
_diffrn_radiation_type           MoK\a
_diffrn_radiation_wavelength     0.71073
_diffrn_reflns_av_R_equivalents  0.1802
_diffrn_reflns_av_unetI/netI     0.1761
_diffrn_reflns_Laue_measured_fraction_full 0.485
_diffrn_reflns_Laue_measured_fraction_max 0.485
_diffrn_reflns_limit_h_max       4
_diffrn_reflns_limit_h_min       -4
_diffrn_reflns_limit_k_max       19
_diffrn_reflns_limit_k_min       -19
_diffrn_reflns_limit_l_max       9
_diffrn_reflns_limit_l_min       -9
_diffrn_reflns_number            2953
_diffrn_reflns_point_group_measured_fraction_full 0.485
_diffrn_reflns_point_group_measured_fraction_max 0.485
_diffrn_reflns_theta_full        24.071
_diffrn_reflns_theta_max         24.071
_diffrn_reflns_theta_min         6.674
_exptl_absorpt_coefficient_mu    0.141
_exptl_absorpt_correction_T_max  1.00000
_exptl_absorpt_correction_T_min  0.04405
_exptl_absorpt_correction_type   multi-scan
_exptl_absorpt_process_details
;
SCALE3 ABSPACK (Agilent Technologies, 2014).
;
_exptl_crystal_colour            colourless
_exptl_crystal_density_diffrn    1.565
_exptl_crystal_description       block
_exptl_crystal_F_000             376
_exptl_crystal_size_max          0.14
_exptl_crystal_size_mid          0.10
_exptl_crystal_size_min          0.08
_refine_diff_density_max         0.337
_refine_diff_density_min         -0.306
_refine_diff_density_rms         0.066
_refine_ls_extinction_method     none
_refine_ls_goodness_of_fit_ref   1.226
_refine_ls_hydrogen_treatment    constr
_refine_ls_matrix_type           full
_refine_ls_number_parameters     59
_refine_ls_number_reflns         604
_refine_ls_number_restraints     27
_refine_ls_restrained_S_all      1.229
_refine_ls_R_factor_all          0.2793
_refine_ls_R_factor_gt           0.1424
_refine_ls_shift/su_max          0.000
_refine_ls_shift/su_mean         0.000
_refine_ls_structure_factor_coef Fsqd
_refine_ls_weighting_details
'w=1/[\s^2^(Fo^2^)+(0.2000P)^2^] where P=(Fo^2^+2Fc^2^)/3'
_refine_ls_weighting_scheme      calc
_refine_ls_wR_factor_gt          0.3454
_refine_ls_wR_factor_ref         0.4247
_reflns_Friedel_coverage         0.000
_reflns_number_gt                242
_reflns_number_total             604
_reflns_threshold_expression     'I > 2\s(I)'
_cod_data_source_file            c6ce01652a1.cif
_cod_data_source_block           60secUV_p2
_cod_depositor_comments
'Adding full bibliography for 7226837--7226849.cif.'
_cod_database_code               7226841
_shelx_shelxl_version_number     2014/7
_shelx_space_group_comment
;
The symmetry employed for this shelxl refinement is uniquely defined
by the following loop, which should always be used as a source of
symmetry information in preference to the above space-group names.
They are only intended as comments.
;
_shelx_res_file
;

    60secUV_1.1GPa.res created by SHELXL-2014/7


TITL 60secUV_1.1GPa
CELL 0.71073   3.7692  19.123  10.849  90.000  91.978  90.000
ZERR    4.00   0.0006   0.003   0.004   0.000   0.018   0.000
LATT  1
SYMM -x, y+1/2,-z+1/2
SFAC C H O F
UNIT 36 24 8 8
OMIT -1 50
L.S. 6
FMAP 2
PLAN -10
BOND $H
HTAB
ACTA
DFIX 1.499 0.01 C6P1 C7P1
DFIX 1.536 0.01 C7P1 C8P1
DFIX 1.497 0.01 C8P1 C9P1
DFIX 1.504 0.01 C6P2 C7P2
DFIX 1.559 0.01 C7P2 C8P2
DFIX 1.493 0.01 C8P2 C9P2
DFIX 1.574 0.01 C7P1 C7P2
DFIX 1.584 0.01 C8P1 C8P2
DANG 2.583 0.02 C1P1 C7P1
DANG 2.478 0.02 C5P1 C7P1
DANG 2.343 0.02 C8P1 O1P1
DANG 2.393 0.02 C8P1 O2P1
DANG 2.558 0.02 C1P2 C7P2
DANG 2.525 0.02 C5P2 C7P2
DANG 2.353 0.02 C8P2 O1P2
DANG 2.373 0.02 C8P2 O2P2
DANG 2.648 0.02 C6P2 C7P1
DANG 2.620 0.02 C6P2 C8P2
DANG 2.663 0.02 C6P1 C7P2
DANG 2.666 0.02 C6P1 C8P1
DANG 2.558 0.02 C9P2 C7P2
DANG 2.555 0.02 C9P2 C8P1
DANG 2.578 0.02 C9P1 C7P1
DANG 2.616 0.02 C9P1 C8P2
DANG 2.205 0.02 C7P2 C8P1
DANG 2.205 0.02 C8P2 C7P1
FLAT C1P2 C5P2 C6P2 C7P2

FREE C7P1 C6P2_$3
FREE C8P1 F1P2_$3
EQIV $3   x-1, y, z
FREE C8P2 C9P1_$1
EQIV $1   x+1, y, z
BIND 2 3
TEMP 26
WGHT    0.200000
FVAR       3.73435   0.81127   0.07843   0.09187   0.10532
PART 1
AFIX   6
C6R   1    0.722075    0.710330    0.078591    21.00000   31.00000
C1R   1    0.887664    0.686349    0.187365    21.00000   31.00000
F1R   4    0.995293    0.734311    0.272387    21.00000   51.00000
C2R   1    0.951040    0.617335    0.213990    21.00000   31.00000
H2R   2    1.061368    0.607534    0.287066    21.00000   -1.20000
C3R   1    0.851807    0.567809    0.127789    21.00000   31.00000
H3R   2    0.894985    0.519855    0.146577    21.00000   -1.20000
C4R   1    0.689519    0.587186    0.018165    21.00000   31.00000
H4R   2    0.623641    0.556688   -0.042991    21.00000   -1.20000
C5R   1    0.626536    0.656901   -0.002820    21.00000   31.00000
F2R   4    0.457190    0.674959   -0.110309    21.00000   51.00000
AFIX   0
C7R   1    0.657092    0.783943    0.045556    21.00000   31.00000
AFIX  43
H7R   2    0.552003    0.791442   -0.032138    21.00000   -1.20000
AFIX   0
C8R   1    0.729127    0.842391    0.112650    21.00000   31.00000
AFIX  43
H8R   2    0.843718    0.839608    0.189794    21.00000   -1.20000
AFIX   6
C9R   1    0.624582    0.908021    0.061759    21.00000   31.00000
O1R   3    0.721506    0.959143    0.136433    21.00000   41.00000
AFIX  83
H1R   2    0.659303    0.996638    0.106052    21.00000   -1.50000
AFIX   5
O2R   3    0.450276    0.918006   -0.033396    21.00000   41.00000
AFIX   6
PART 0

PART 2
C6P1  1    0.859467    0.706642    0.060293   -20.50000   31.00000
C1P1  1    0.944994    0.683433    0.177977   -20.50000   31.00000
F1P1  4    1.093618    0.729286    0.259948   -20.50000   51.00000
C2P1  1    0.883037    0.616145    0.217969   -20.50000   31.00000
H2P1  2    0.958600    0.607037    0.301233   -20.50000   -1.20000
C3P1  1    0.731755    0.568845    0.137693   -20.50000   31.00000
H3P1  2    0.691868    0.521442    0.168832   -20.50000   -1.20000
C4P1  1    0.635917    0.588519    0.020028   -20.50000   31.00000
H4P1  2    0.530188    0.558243   -0.033500   -20.50000   -1.20000
C5P1  1    0.700424    0.656323   -0.015179   -20.50000   31.00000
F2P1  4    0.594796    0.677527   -0.129834   -20.50000   51.00000
AFIX   0
C7P1  1    0.985875    0.775017    0.007876   -20.50000   31.00000
AFIX  13
H7P1  2    0.883528    0.781811   -0.075530   -20.50000   -1.20000
AFIX   0
C8P1  1    0.948801    0.842357    0.083786   -20.50000   31.00000
AFIX  13
H8P1  2    0.832143    0.832367    0.161184   -20.50000   -1.20000
AFIX   6
C9P1  1    0.789087    0.905816    0.023456   -20.50000   31.00000
O1P1  3    0.861543    0.962900    0.085045   -20.50000   41.00000
AFIX  83
H1P1  2    0.754302    0.995838    0.052847   -20.50000   -1.50000
AFIX   5
O2P1  3    0.609761    0.904812   -0.072153   -20.50000   41.00000
AFIX   6
PART 0
PART 3
C6P2  1    1.625073    0.722708    0.045931   -20.50000   31.00000
C1P2  1    1.818053    0.716780    0.156559   -20.50000   31.00000
F1P2  4    1.836488    0.773697    0.230943   -20.50000   51.00000
C2P2  1    1.990593    0.657144    0.195134   -20.50000   31.00000
H2P2  2    2.113914    0.658298    0.269575   -20.50000   -1.20000
C3P2  1    1.968397    0.598656    0.121856   -20.50000   31.00000
H3P2  2    2.082360    0.554222    0.146536   -20.50000   -1.20000
C4P2  1    1.778355    0.600317    0.011736   -20.50000   31.00000
H4P2  2    1.741423    0.562931   -0.044659   -20.50000   -1.20000
C5P2  1    1.614493    0.661806   -0.023676   -20.50000   31.00000
F2P2  4    1.432827    0.662854   -0.133213   -20.50000   51.00000
AFIX   0
C7P2  1    1.404346    0.785584    0.008096   -20.50000   31.00000
AFIX  13
H7P2  2    1.479098    0.804655   -0.070732   -20.50000   -1.20000
AFIX   0
C8P2  1    1.366781    0.844569    0.106040   -20.50000   31.00000
AFIX  13
H8P2  2    1.445192    0.830525    0.189476   -20.50000   -1.20000
AFIX   6
C9P2  1    1.513024    0.913459    0.067212   -20.50000   31.00000
O1P2  3    1.526732    0.960281    0.154845   -20.50000   41.00000
AFIX  83
H1P2  2    1.552848    0.999174    0.124646   -20.50000   -1.50000
AFIX   5
O2P2  3    1.586721    0.925696   -0.038608   -20.50000   41.00000
PART 0
AFIX   0
HKLF 4

REM  60secUV_1.1GPa
REM R1 =  0.1424 for     242 Fo > 4sig(Fo)  and  0.2793 for all     604 data
REM     59 parameters refined using     27 restraints

END

WGHT      0.2000      0.0000

REM Instructions for potential hydrogen bonds
EQIV $4 x+1, -y+3/2, z+1/2
HTAB C2R O2R_$4
HTAB C8R F1R
EQIV $5 -x+1, -y+2, -z
HTAB O1R O2R_$5
EQIV $6 x, -y+3/2, z+1/2
HTAB C2P1 O2P1_$6
EQIV $7 x-1, -y+3/2, z+1/2
HTAB C2P1 O2P2_$7
HTAB C8P1 F1P1
HTAB C8P1 F2P1_$6
HTAB C8P1 F1P2_$3
HTAB O1P1 O2P1_$5
EQIV $8 -x+2, -y+2, -z
HTAB O1P1 O1P2_$8
HTAB O1P1 O2P2_$8
HTAB C8P2 F1P1
HTAB C8P2 F2P1_$4
HTAB C8P2 F1P2
HTAB C8P2 F2P2_$6
HTAB O1P2 O2P1_$8
EQIV $9 -x+3, -y+2, -z
HTAB O1P2 O2P2_$9

REM Highest difference peak  0.337,  deepest hole -0.306,  1-sigma level  0.066
Q1    1   0.2924  0.9208  0.0223  11.00000  0.05    0.34
Q2    1   0.8320  0.7306  0.3049  11.00000  0.05    0.33
Q3    1   0.5767  0.9555  0.1795  11.00000  0.05    0.28
Q4    1   0.3227  0.6784 -0.0707  11.00000  0.05    0.28
Q5    1   1.1199  0.7405  0.2241  11.00000  0.05    0.27
Q6    1   0.8063  0.8379  0.0624  11.00000  0.05    0.25
Q7    1   0.5674  0.9296 -0.0721  11.00000  0.05    0.22
Q8    1   0.7396  0.7843 -0.0036  11.00000  0.05    0.21
Q9    1   0.9868  0.5631  0.0768  11.00000  0.05    0.20
Q10   1   0.6324  0.9171  0.2583  11.00000  0.05    0.19
;
_shelx_res_checksum              95608
loop_
_space_group_symop_operation_xyz
'x, y, z'
'-x, y+1/2, -z+1/2'
'-x, -y, -z'
'x, -y-1/2, z-1/2'
loop_
_atom_site_label
_atom_site_type_symbol
_atom_site_fract_x
_atom_site_fract_y
_atom_site_fract_z
_atom_site_U_iso_or_equiv
_atom_site_adp_type
_atom_site_occupancy
_atom_site_site_symmetry_order
_atom_site_calc_flag
_atom_site_refinement_flags_posn
_atom_site_refinement_flags_adp
_atom_site_refinement_flags_occupancy
_atom_site_disorder_assembly
_atom_site_disorder_group
C6R C 0.7221(19) 0.7103(3) 0.0786(8) 0.078(3) Uiso 0.811(11) 1 d G U P A 1
C1R C 0.8877(17) 0.6863(4) 0.1874(8) 0.078(3) Uiso 0.811(11) 1 d G U P A 1
F1R F 0.995(2) 0.7343(5) 0.2724(8) 0.105(3) Uiso 0.811(11) 1 d G U P A 1
C2R C 0.951(2) 0.6173(4) 0.2140(9) 0.078(3) Uiso 0.811(11) 1 d G U P A 1
H2R H 1.0614 0.6075 0.2871 0.094 Uiso 0.811(11) 1 d G U P A 1
C3R C 0.852(2) 0.5678(3) 0.1278(12) 0.078(3) Uiso 0.811(11) 1 d G U P A 1
H3R H 0.8950 0.5199 0.1466 0.094 Uiso 0.811(11) 1 d G U P A 1
C4R C 0.690(2) 0.5872(4) 0.0182(11) 0.078(3) Uiso 0.811(11) 1 d G U P A 1
H4R H 0.6236 0.5567 -0.0430 0.094 Uiso 0.811(11) 1 d G U P A 1
C5R C 0.6265(19) 0.6569(4) -0.0028(9) 0.078(3) Uiso 0.811(11) 1 d G U P A 1
F2R F 0.457(3) 0.6750(5) -0.1103(9) 0.105(3) Uiso 0.811(11) 1 d G U P A 1
C7R C 0.657(4) 0.7839(8) 0.0456(17) 0.078(3) Uiso 0.811(11) 1 d . U P A 1
H7R H 0.5520 0.7914 -0.0321 0.094 Uiso 0.811(11) 1 calc R U P A 1
C8R C 0.729(4) 0.8424(8) 0.1126(19) 0.078(3) Uiso 0.811(11) 1 d . U P A 1
H8R H 0.8437 0.8396 0.1898 0.094 Uiso 0.811(11) 1 calc R U P A 1
C9R C 0.625(4) 0.9080(4) 0.0618(12) 0.078(3) Uiso 0.811(11) 1 d G U P A 1
O1R O 0.722(3) 0.9591(6) 0.1364(11) 0.092(4) Uiso 0.811(11) 1 d G U P A 1
H1R H 0.6593 0.9966 0.1061 0.138 Uiso 0.811(11) 1 calc R U P A 1
O2R O 0.450(3) 0.9180(7) -0.0334(11) 0.092(4) Uiso 0.811(11) 1 d G U P A 1
C6P1 C 0.859(12) 0.7066(18) 0.060(6) 0.078(3) Uiso 0.094(6) 1 d DG U P A 2
C1P1 C 0.945(12) 0.683(3) 0.178(6) 0.078(3) Uiso 0.094(6) 1 d DG U P A 2
F1P1 F 1.094(17) 0.729(4) 0.260(5) 0.105(3) Uiso 0.094(6) 1 d G U P A 2
C2P1 C 0.883(18) 0.616(3) 0.218(8) 0.078(3) Uiso 0.094(6) 1 d G U P A 2
H2P1 H 0.9586 0.6070 0.3012 0.094 Uiso 0.094(6) 1 d G U P A 2
C3P1 C 0.73(2) 0.569(2) 0.138(9) 0.078(3) Uiso 0.094(6) 1 d G U P A 2
H3P1 H 0.6919 0.5214 0.1688 0.094 Uiso 0.094(6) 1 d G U P A 2
C4P1 C 0.636(18) 0.5885(19) 0.020(9) 0.078(3) Uiso 0.094(6) 1 d G U P A 2
H4P1 H 0.5302 0.5582 -0.0335 0.094 Uiso 0.094(6) 1 d G U P A 2
C5P1 C 0.700(11) 0.6563(19) -0.015(7) 0.078(3) Uiso 0.094(6) 1 d DG U P A 2
F2P1 F 0.595(16) 0.678(3) -0.130(6) 0.105(3) Uiso 0.094(6) 1 d G U P A 2
C7P1 C 0.986(10) 0.7750(16) 0.008(5) 0.078(3) Uiso 0.094(6) 1 d D U P A 2
H7P1 H 0.8835 0.7818 -0.0755 0.094 Uiso 0.094(6) 1 calc R U P A 2
C8P1 C 0.949(11) 0.8424(18) 0.084(5) 0.078(3) Uiso 0.094(6) 1 d D U P A 2
H8P1 H 0.8321 0.8324 0.1612 0.094 Uiso 0.094(6) 1 calc R U P A 2
C9P1 C 0.789(19) 0.906(2) 0.023(8) 0.078(3) Uiso 0.094(6) 1 d DG U P A 2
O1P1 O 0.86(3) 0.963(2) 0.085(9) 0.092(4) Uiso 0.094(6) 1 d DG U P A 2
H1P1 H 0.7543 0.9958 0.0528 0.138 Uiso 0.094(6) 1 calc R U P A 2
O2P1 O 0.61(3) 0.905(3) -0.072(7) 0.092(4) Uiso 0.094(6) 1 d DG U P A 2
C6P2 C 1.625(10) 0.723(2) 0.046(5) 0.078(3) Uiso 0.094(6) 1 d DG U P A 3
C1P2 C 1.818(10) 0.717(3) 0.157(5) 0.078(3) Uiso 0.094(6) 1 d DG U P A 3
F1P2 F 1.836(14) 0.774(3) 0.231(5) 0.105(3) Uiso 0.094(6) 1 d G U P A 3
C2P2 C 1.991(14) 0.657(3) 0.195(6) 0.078(3) Uiso 0.094(6) 1 d G U P A 3
H2P2 H 2.1139 0.6583 0.2696 0.094 Uiso 0.094(6) 1 d G U P A 3
C3P2 C 1.968(17) 0.599(3) 0.122(8) 0.078(3) Uiso 0.094(6) 1 d G U P A 3
H3P2 H 2.0824 0.5542 0.1465 0.094 Uiso 0.094(6) 1 d G U P A 3
C4P2 C 1.778(18) 0.600(2) 0.012(8) 0.078(3) Uiso 0.094(6) 1 d G U P A 3
H4P2 H 1.7414 0.5629 -0.0447 0.094 Uiso 0.094(6) 1 d G U P A 3
C5P2 C 1.614(14) 0.662(2) -0.024(6) 0.078(3) Uiso 0.094(6) 1 d DG U P A 3
F2P2 F 1.433(19) 0.663(3) -0.133(6) 0.105(3) Uiso 0.094(6) 1 d G U P A 3
C7P2 C 1.404(10) 0.7856(18) 0.008(4) 0.078(3) Uiso 0.094(6) 1 d D U P A 3
H7P2 H 1.4791 0.8047 -0.0707 0.094 Uiso 0.094(6) 1 calc R U P A 3
C8P2 C 1.367(11) 0.8446(18) 0.106(5) 0.078(3) Uiso 0.094(6) 1 d D U P A 3
H8P2 H 1.4452 0.8305 0.1895 0.094 Uiso 0.094(6) 1 calc R U P A 3
C9P2 C 1.513(17) 0.913(2) 0.067(6) 0.078(3) Uiso 0.094(6) 1 d DG U P A 3
O1P2 O 1.53(3) 0.960(3) 0.155(8) 0.092(4) Uiso 0.094(6) 1 d DG U P A 3
H1P2 H 1.5528 0.9992 0.1246 0.138 Uiso 0.094(6) 1 calc R U P A 3
O2P2 O 1.59(3) 0.926(3) -0.039(7) 0.092(4) Uiso 0.094(6) 1 d DG U P A 3
loop_
_atom_type_symbol
_atom_type_description
_atom_type_scat_dispersion_real
_atom_type_scat_dispersion_imag
_atom_type_scat_source
C C 0.0033 0.0016 'International Tables Vol C Tables 4.2.6.8 and 6.1.1.4'
H H 0.0000 0.0000 'International Tables Vol C Tables 4.2.6.8 and 6.1.1.4'
O O 0.0106 0.0060 'International Tables Vol C Tables 4.2.6.8 and 6.1.1.4'
F F 0.0171 0.0103 'International Tables Vol C Tables 4.2.6.8 and 6.1.1.4'
loop_
_geom_angle_atom_site_label_1
_geom_angle_atom_site_label_2
_geom_angle_atom_site_label_3
_geom_angle
C5R C6R C1R 113.3
C5R C6R C7R 120.8(8)
C1R C6R C7R 126.0(8)
F1R C1R C2R 117.6
F1R C1R C6R 118.0
C2R C1R C6R 124.4
C1R C2R C3R 118.6
C1R C2R H2R 117.2
C3R C2R H2R 124.2
C4R C3R C2R 120.5
C4R C3R H3R 121.0
C2R C3R H3R 118.5
C3R C4R C5R 118.5
C3R C4R H4R 124.1
C5R C4R H4R 117.4
F2R C5R C4R 117.7
F2R C5R C6R 117.6
C4R C5R C6R 124.7
C8R C7R C6R 129.0(18)
C8R C7R H7R 115.5
C6R C7R H7R 115.5
C7R C8R C9R 118.1(18)
C7R C8R H8R 120.9
C9R C8R H8R 120.9
O2R C9R O1R 122.4
O2R C9R C8R 127.0(12)
O1R C9R C8R 110.5(12)
C9R O1R H1R 109.5
C1P1 C6P1 C5P1 113.9
C1P1 C6P1 C7P1 124.1(12)
C5P1 C6P1 C7P1 121.0(12)
F1P1 C1P1 C6P1 118.5
F1P1 C1P1 C2P1 117.8
C6P1 C1P1 C2P1 123.7
C3P1 C2P1 C1P1 119.2
C3P1 C2P1 H2P1 126.0
C1P1 C2P1 H2P1 114.8
C2P1 C3P1 C4P1 120.3
C2P1 C3P1 H3P1 117.2
C4P1 C3P1 H3P1 122.5
C3P1 C4P1 C5P1 118.4
C3P1 C4P1 H4P1 121.4
C5P1 C4P1 H4P1 120.3
F2P1 C5P1 C4P1 119.2
F2P1 C5P1 C6P1 116.2
C4P1 C5P1 C6P1 124.6
C6P1 C7P1 C8P1 119.2(17)
C6P1 C7P1 C7P2 115.8(14)
C8P1 C7P1 C7P2 90.1(9)
C6P1 C7P1 H7P1 110.1
C8P1 C7P1 H7P1 110.1
C7P2 C7P1 H7P1 110.1
C9P1 C8P1 C7P1 119.2(16)
C9P1 C8P1 C8P2 115.3(16)
C7P1 C8P1 C8P2 89.8(9)
C9P1 C8P1 H8P1 110.3
C7P1 C8P1 H8P1 110.3
C8P2 C8P1 H8P1 110.3
O2P1 C9P1 O1P1 123.3
O2P1 C9P1 C8P1 124.3(12)
O1P1 C9P1 C8P1 112.4(12)
C9P1 O1P1 H1P1 109.5
C1P2 C6P2 C5P2 114.0
C1P2 C6P2 C7P2 124.6(11)
C5P2 C6P2 C7P2 121.0(11)
F1P2 C1P2 C2P2 118.2
F1P2 C1P2 C6P2 117.7
C2P2 C1P2 C6P2 124.2
C1P2 C2P2 C3P2 118.8
C1P2 C2P2 H2P2 118.0
C3P2 C2P2 H2P2 123.2
C4P2 C3P2 C2P2 120.3
C4P2 C3P2 H3P2 117.8
C2P2 C3P2 H3P2 121.9
C3P2 C4P2 C5P2 118.6
C3P2 C4P2 H4P2 127.2
C5P2 C4P2 H4P2 114.2
F2P2 C5P2 C4P2 117.8
F2P2 C5P2 C6P2 118.1
C4P2 C5P2 C6P2 124.1
C6P2 C7P2 C8P2 116.9(15)
C6P2 C7P2 C7P1 115.9(13)
C8P2 C7P2 C7P1 88.8(9)
C6P2 C7P2 H7P2 111.2
C8P2 C7P2 H7P2 111.2
C7P1 C7P2 H7P2 111.2
C9P2 C8P2 C7P2 113.7(16)
C9P2 C8P2 C8P1 110.8(15)
C7P2 C8P2 C8P1 89.4(9)
C9P2 C8P2 H8P2 113.6
C7P2 C8P2 H8P2 113.6
C8P1 C8P2 H8P2 113.6
O2P2 C9P2 O1P2 123.5
O2P2 C9P2 C8P2 122.4(14)
O1P2 C9P2 C8P2 113.9(12)
C9P2 O1P2 H1P2 109.5
loop_
_geom_bond_atom_site_label_1
_geom_bond_atom_site_label_2
_geom_bond_distance
C6R C5R 1.3899
C6R C1R 1.3934
C6R C7R 1.471(17)
C1R F1R 1.3531
C1R C2R 1.3702
C2R C3R 1.3738
C2R H2R 0.9021
C3R C4R 1.3696
C3R H3R 0.9522
C4R C5R 1.3718
C4R H4R 0.9114
C5R F2R 1.3547
C7R C8R 1.36(2)
C7R H7R 0.9300
C8R C9R 1.421(17)
C8R H8R 0.9300
C9R O2R 1.2194
C9R O1R 1.3134
O1R H1R 0.8200
C6P1 C1P1 1.3793
C6P1 C5P1 1.3863
C6P1 C7P1 1.510(9)
C1P1 F1P1 1.3562
C1P1 C2P1 1.3804
C2P1 C3P1 1.3666
C2P1 H2P1 0.9538
C3P1 C4P1 1.3674
C3P1 H3P1 0.9808
C4P1 C5P1 1.3757
C4P1 H4P1 0.9029
C5P1 F2P1 1.3550
C7P1 C8P1 1.538(10)
C7P1 C7P2 1.590(10)
C7P1 H7P1 0.9800
C8P1 C9P1 1.495(9)
C8P1 C8P2 1.586(10)
C8P1 H8P1 0.9800
C9P1 O2P1 1.2185
C9P1 O1P1 1.3039
O1P1 H1P1 0.8200
C6P2 C1P2 1.3864
C6P2 C5P2 1.3879
C6P2 C7P2 1.511(9)
C1P2 F1P2 1.3553
C1P2 C2P2 1.3711
C2P2 C3P2 1.3731
C2P2 H2P2 0.9181
C3P2 C4P2 1.3720
C3P2 H3P2 0.9850
C4P2 C5P2 1.3767
C4P2 H4P2 0.9481
C5P2 F2P2 1.3510
C7P2 C8P2 1.559(10)
C7P2 H7P2 0.9800
C8P2 C9P2 1.494(9)
C8P2 H8P2 0.9800
C9P2 O2P2 1.2132
C9P2 O1P2 1.3057
O1P2 H1P2 0.8200
