#------------------------------------------------------------------------------
#$Date: 2016-08-12 09:18:47 +0300 (Fri, 12 Aug 2016) $
#$Revision: 185769 $
#$URL: file:///home/coder/svn-repositories/cod/cif/7/22/62/7226228.cif $
#------------------------------------------------------------------------------
#
# This file is available in the Crystallography Open Database (COD),
# http://www.crystallography.net/
#
# All data on this site have been placed in the public domain by the
# contributors.
#
data_7226228
loop_
_publ_author_name
'Landeros-Rivera, Bruno'
'Moreno-Esparza, Rafael'
'Hern\'andez-Trujillo, Jes\'us'
_publ_section_title
;
 Theoretical study of intermolecular interactions in crystalline
 arene-perhaloarene adducts in terms of the electron density
;
_journal_name_full               'RSC Adv.'
_journal_paper_doi               10.1039/C6RA14957J
_journal_year                    2016
_chemical_formula_moiety         'C16 H10, C6 Cl6'
_chemical_formula_sum            'C22 H10 Cl6'
_chemical_formula_weight         487.03
_chemical_name_systematic        'Hexachlorobenzene-pyrene adduct'
_space_group_crystal_system      triclinic
_space_group_IT_number           2
_space_group_name_Hall           '-P 1'
_space_group_name_H-M_alt        'P -1'
_symmetry_space_group_name_Hall  '-P 1'
_symmetry_space_group_name_H-M   'P -1'
_atom_sites_solution_hydrogens   geom
_atom_sites_solution_primary     direct
_audit_creation_date             2016-05-31T04:01:00-00:00
_audit_creation_method           'WinGX routine CIF_UPDATE'
_audit_update_record
;
2016-06-01 deposited with the CCDC.
2016-08-09 downloaded from the CCDC.
;
_cell_angle_alpha                94.02(2)
_cell_angle_beta                 102.77(3)
_cell_angle_gamma                89.86(3)
_cell_formula_units_Z            2
_cell_length_a                   7.367(3)
_cell_length_b                   8.555(2)
_cell_length_c                   15.803(5)
_cell_measurement_reflns_used    1430
_cell_measurement_temperature    240(2)
_cell_measurement_theta_max      29.6608
_cell_measurement_theta_min      3.4315
_cell_volume                     968.9(6)
_computing_cell_refinement
;
        CrysAlisPro, Agilent Technologies,
        Version 1.171.35.19 (release 27-10-2011 CrysAlis171 .NET)
        (compiled Oct 27 2011,15:02:11)
;
_computing_data_collection
;
        CrysAlisPro, Agilent Technologies,
        Version 1.171.35.19 (release 27-10-2011 CrysAlis171 .NET)
        (compiled Oct 27 2011,15:02:11)
;
_computing_data_reduction
;
        CrysAlisPro, Agilent Technologies,
        Version 1.171.35.19 (release 27-10-2011 CrysAlis171 .NET)
        (compiled Oct 27 2011,15:02:11)
;
_computing_molecular_graphics    'Mercury (Macrae <i>et al.</i>, 2006)'
_computing_structure_refinement  'SHELXL-2014/7 (Sheldrick, 2014)'
_computing_structure_solution    'SUPERFLIP (Palatinus & Chapuis 2007)'
_diffrn_ambient_temperature      240(2)
_diffrn_detector_area_resol_mean 10.4685
_diffrn_measured_fraction_theta_full 0.997
_diffrn_measured_fraction_theta_max 0.997
_diffrn_measurement_device_type  'Xcalibur, Atlas, Gemini'
_diffrn_measurement_method       '\w scans'
_diffrn_orient_matrix_UB_11      -0.0015174
_diffrn_orient_matrix_UB_12      -0.0684754
_diffrn_orient_matrix_UB_13      -0.0282018
_diffrn_orient_matrix_UB_21      0.016138
_diffrn_orient_matrix_UB_22      -0.0464826
_diffrn_orient_matrix_UB_23      0.0363095
_diffrn_orient_matrix_UB_31      -0.0973946
_diffrn_orient_matrix_UB_32      -0.0077613
_diffrn_orient_matrix_UB_33      -0.0039006
_diffrn_radiation_monochromator  graphite
_diffrn_radiation_type           MoK\a
_diffrn_radiation_wavelength     0.71073
_diffrn_reflns_av_R_equivalents  0.0295
_diffrn_reflns_av_unetI/netI     0.1075
_diffrn_reflns_Laue_measured_fraction_full 0.997
_diffrn_reflns_Laue_measured_fraction_max 0.997
_diffrn_reflns_limit_h_max       8
_diffrn_reflns_limit_h_min       -8
_diffrn_reflns_limit_k_max       9
_diffrn_reflns_limit_k_min       -10
_diffrn_reflns_limit_l_max       18
_diffrn_reflns_limit_l_min       -18
_diffrn_reflns_number            6702
_diffrn_reflns_point_group_measured_fraction_full 0.997
_diffrn_reflns_point_group_measured_fraction_max 0.997
_diffrn_reflns_theta_full        25.242
_diffrn_reflns_theta_max         25.253
_diffrn_reflns_theta_min         3.438
_exptl_absorpt_coefficient_mu    0.893
_exptl_absorpt_correction_T_max  0.8759
_exptl_absorpt_correction_T_min  0.7599
_exptl_absorpt_correction_type   multi-scan
_exptl_absorpt_process_details
;
SADABS, TWINABS: Bruker (2001). Program name. Bruker AXS Inc., Madison,
Wisconsin, USA. or Sheldrick, G. M. (1996). Program name. University of
G\"ottingen, Germany.
;
_exptl_crystal_colour            colourless
_exptl_crystal_density_diffrn    1.669
_exptl_crystal_density_method    'not measured'
_exptl_crystal_description       prismatic
_exptl_crystal_F_000             488
_exptl_crystal_recrystallization_method 'Re-crystallisation from solvent'
_exptl_crystal_size_max          0.4354
_exptl_crystal_size_mid          0.1846
_exptl_crystal_size_min          0.1206
_refine_diff_density_max         0.778
_refine_diff_density_min         -0.428
_refine_diff_density_rms         0.084
_refine_ls_extinction_method     none
_refine_ls_goodness_of_fit_ref   1.125
_refine_ls_hydrogen_treatment    constr
_refine_ls_matrix_type           full
_refine_ls_number_parameters     253
_refine_ls_number_reflns         3494
_refine_ls_number_restraints     249
_refine_ls_restrained_S_all      1.745
_refine_ls_R_factor_all          0.0901
_refine_ls_R_factor_gt           0.0663
_refine_ls_shift/su_max          0
_refine_ls_shift/su_mean         0
_refine_ls_structure_factor_coef Fsqd
_refine_ls_weighting_details
'w=1/[\s^2^(Fo^2^)+(0.0698P)^2^+1.5333P] where P=(Fo^2^+2Fc^2^)/3'
_refine_ls_weighting_scheme      calc
_refine_ls_wR_factor_gt          0.1674
_refine_ls_wR_factor_ref         0.1847
_reflns_number_gt                2616
_reflns_number_total             3494
_reflns_threshold_expression     'I > 2\s(I)'
_iucr_refine_instructions_details
;
TITL hcbpyr2 in P-1
CELL  0.71073   7.3668   8.5548  15.8028   94.022  102.770   89.857
ZERR     4.00   0.0029   0.0021   0.0047    0.022    0.029    0.026
LATT   1
SFAC  C    H    CL
UNIT  44   20    12
acta
LIST 4 ! automatically inserted. Change 6 to 4 for CHECKCIF!!
MERG   2
FMAP   2
bond $H
PLAN   20
L.S.  5
SIMU C1 > C8
SIMU C12 > C19
SIMU C9 > C11
SIMU C20 > C22
DELU C1 > C8
DELU C12 > C19
DELU C9 > C11
DELU C20 > C22
FLAT 0.01 C1 > C8 H1 > H8
FLAT 0.01 C12 > C19 H12 > H19
FLAT 0.01 C9 > C11 CL9 > CL11
FLAT 0.01 C20 > C22
SAME CL10 CL11 CL9
SAME CL11 CL9 CL10
WGHT    0.069800    1.533300
FVAR       0.53794
CL9   3    1.039284    1.047391    0.199144    11.00000    0.06969    0.11090 =
         0.04539    0.00271    0.00933    0.03254
CL10  3    0.924719    0.720688    0.104169    11.00000    0.05394    0.06653 =
         0.10746    0.04384    0.02427    0.01263
CL11  3    0.906054    0.668829   -0.093239    11.00000    0.05652    0.04805 =
         0.10716   -0.02343   -0.00351    0.00527
SAME CL21 CL22 CL20
SAME CL22 CL20 CL21
CL20  3    0.476899    0.842247    0.575957    11.00000    0.07254    0.03926 =
         0.06753   -0.00206    0.01941    0.00498
CL21  3    0.330327    0.757841    0.379174    11.00000    0.04999    0.05281 =
         0.06399    0.02379    0.00911    0.00840
CL22  3    0.369046    0.417441    0.302246    11.00000    0.06638    0.06560 =
         0.04093    0.00120    0.00766   -0.00393
SAME C1 C6 C5 C4 C3 C2 C8 C7
SAME C12 C13 C14 C15 C16 C17 C18 C19
C1    1    0.404699    0.706672    0.128523    11.00000    0.04480    0.10001 =
         0.10860    0.06641    0.01347    0.00847
AFIX  43
H1    2    0.379330    0.629418    0.163010    11.00000   -1.20000
AFIX   0
C2    1    0.390352    0.670878    0.042064    11.00000    0.03551    0.05418 =
         0.12545    0.03191    0.00241    0.00447
AFIX  43
H2    2    0.355593    0.570068    0.018129    11.00000   -1.20000
AFIX   0
C3    1    0.428167    0.786595   -0.011445    11.00000    0.02982    0.05049 =
         0.07195    0.01155    0.00269    0.01155
C4    1    0.480796    0.938966    0.026137    11.00000    0.02118    0.04860 =
         0.04126    0.01313    0.00127    0.00823
C5    1    0.495623    0.975137    0.116770    11.00000    0.02888    0.07762 =
         0.04359    0.01266    0.00373    0.01723
C6    1    0.455673    0.853939    0.166030    11.00000    0.03573    0.12580 =
         0.05685    0.04561    0.00853    0.01717
AFIX  43
H6    2    0.464072    0.874298    0.225366    11.00000   -1.20000
AFIX   0
C7    1    0.415696    0.757101   -0.102758    11.00000    0.04626    0.06290 =
         0.07629   -0.01488   -0.00434    0.01976
AFIX  43
H7    2    0.381924    0.657414   -0.128779    11.00000   -1.20000
AFIX   0
C8    1    0.548548    1.130522    0.151433    11.00000    0.04479    0.09683 =
         0.04521   -0.00598   -0.00015    0.02056
AFIX  43
H8    2    0.558650    1.154789    0.210598    11.00000   -1.20000
AFIX   0
SAME C10 C11 C9
SAME C11 C9 C10
C9    1    1.015051    1.018353    0.086127    11.00000    0.03394    0.05221 =
         0.04104    0.00850    0.00418    0.01293
C10   1    0.968635    0.870102    0.048182    11.00000    0.03152    0.04463 =
         0.05900    0.01635    0.00506    0.01089
C11   1    0.958530    0.857428   -0.039843    11.00000    0.03029    0.03536 =
         0.06300   -0.00431    0.00047    0.00844
C12   1    0.811431    0.786198    0.361363    11.00000    0.03998    0.09061 =
         0.09104    0.04002   -0.00050    0.00526
AFIX  43
H12   2    0.761597    0.862604    0.324163    11.00000   -1.20000
AFIX   0
C13   1    0.830754    0.636977    0.327512    11.00000    0.03978    0.10107 =
         0.05227    0.02920    0.00113   -0.00348
AFIX  43
H13   2    0.793642    0.613616    0.267799    11.00000   -1.20000
AFIX   0
C14   1    0.905453    0.519181    0.381382    11.00000    0.03606    0.07425 =
         0.04417    0.01321    0.00572   -0.00831
C15   1    0.960461    0.558685    0.471286    11.00000    0.02722    0.05324 =
         0.04578    0.00994    0.00659   -0.00152
C16   1    0.939644    0.712869    0.505425    11.00000    0.03459    0.05652 =
         0.06518    0.00877    0.01619    0.00131
C17   1    0.863680    0.824967    0.448348    11.00000    0.04111    0.05924 =
         0.09575    0.02086    0.01046    0.00285
AFIX  43
H17   2    0.848594    0.927020    0.469880    11.00000   -1.20000
AFIX   0
C18   1    0.928599    0.361338    0.349672    11.00000    0.06216    0.07666 =
         0.04815   -0.00718    0.01545   -0.01403
AFIX  43
H18   2    0.890799    0.334313    0.290329    11.00000   -1.20000
AFIX   0
C19   1    0.996889    0.749149    0.597241    11.00000    0.06246    0.05482 =
         0.06733   -0.00769    0.02335   -0.00408
AFIX  43
H19   2    0.982366    0.850192    0.620385    11.00000   -1.20000
AFIX   0
C20   1    0.486737    0.652459    0.533867    11.00000    0.03741    0.03744 =
         0.05023    0.00234    0.01648   -0.00235
C21   1    0.425704    0.615594    0.445840    11.00000    0.03157    0.04504 =
         0.04806    0.01087    0.01136    0.00223
C22   1    0.440365    0.463381    0.411307    11.00000    0.03427    0.04521 =
         0.04208    0.00990    0.00962    0.00051
HKLF    4
 
REM  hcbpyr2 in P-1
REM R1 =  0.0663 for    2616 Fo > 4sig(Fo)  and  0.0901 for all    3494 data
REM    253 parameters refined using    249 restraints
 
END  
     
WGHT      0.0698      1.5333 

REM Highest difference peak  0.778,  deepest hole -0.428,  1-sigma level  0.084
Q1    1   1.0184  1.0291  0.1196  11.00000  0.05    0.78
Q2    1   0.9356  0.8166 -0.0547  11.00000  0.05    0.68
Q3    1   0.9603  0.9055  0.0369  11.00000  0.05    0.58
Q4    1   0.9950  0.9428  0.1846  11.00000  0.05    0.48
Q5    1   0.9217  0.6729  0.0360  11.00000  0.05    0.42
Q6    1   0.9322  0.7604 -0.1238  11.00000  0.05    0.41
Q7    1   0.5007  0.8488  0.6576  11.00000  0.05    0.33
Q8    1   0.8665  0.7990  0.3918  11.00000  0.05    0.31
Q9    1   0.5000  1.0000  0.0000  10.50000  0.05    0.31
Q10   1   0.4663  0.8329  0.4954  11.00000  0.05    0.31
Q11   1   0.9054  0.6872 -0.0194  11.00000  0.05    0.30
Q12   1   0.5000  0.5000  0.5000  10.50000  0.05    0.30
Q13   1   0.4494  0.7200  0.0761  11.00000  0.05    0.30
Q14   1   0.3848  0.4723  0.3608  11.00000  0.05    0.29
Q15   1   0.4984  0.9592  0.0785  11.00000  0.05    0.28
Q16   1   0.3049  0.7663  0.3003  11.00000  0.05    0.28
Q17   1   0.3952  0.3970  0.2415  11.00000  0.05    0.27
Q18   1   0.3620  0.7377  0.3195  11.00000  0.05    0.25
Q19   1   0.4664  0.8593  0.0241  11.00000  0.05    0.24
Q20   1   1.0000  1.0000  0.0000  10.50000  0.05    0.24
;
_cod_data_source_file            c6ra14957j2.cif
_cod_data_source_block           clp
_cod_original_cell_volume        968.8(5)
_cod_database_code               7226228
_solvent_exptl_crystal_recrystallization_method ethylether
loop_
_symmetry_equiv_pos_as_xyz
'x, y, z'
'-x, -y, -z'
loop_
_atom_site_label
_atom_site_type_symbol
_atom_site_fract_x
_atom_site_fract_y
_atom_site_fract_z
_atom_site_U_iso_or_equiv
_atom_site_adp_type
_atom_site_occupancy
_atom_site_calc_flag
Cl9 Cl 1.0393(2) 1.0474(2) 0.19914(9) 0.0760(5) Uani 1 d
Cl10 Cl 0.9247(2) 0.72069(18) 0.10417(12) 0.0732(5) Uani 1 d
Cl11 Cl 0.9061(2) 0.66883(17) -0.09324(12) 0.0753(5) Uani 1 d
Cl20 Cl 0.4769(2) 0.84225(15) 0.57596(9) 0.0595(4) Uani 1 d
Cl21 Cl 0.33033(18) 0.75784(16) 0.37917(9) 0.0552(4) Uani 1 d
Cl22 Cl 0.3690(2) 0.41744(17) 0.30225(8) 0.0584(4) Uani 1 d
C1 C 0.4047(6) 0.7067(8) 0.1285(5) 0.082(2) Uani 1 d
H1 H 0.3793 0.6294 0.163 0.099 Uiso 1 calc
C2 C 0.3904(5) 0.6709(7) 0.0421(5) 0.0729(17) Uani 1 d
H2 H 0.3556 0.5701 0.0181 0.087 Uiso 1 calc
C3 C 0.4282(4) 0.7866(6) -0.0114(3) 0.0518(12) Uani 1 d
C4 C 0.4808(5) 0.9390(5) 0.0261(3) 0.0374(10) Uani 1 d
C5 C 0.4956(5) 0.9751(6) 0.1168(3) 0.0503(12) Uani 1 d
C6 C 0.4557(6) 0.8539(8) 0.1660(4) 0.0712(17) Uani 1 d
H6 H 0.4641 0.8743 0.2254 0.085 Uiso 1 calc
C7 C 0.4157(6) 0.7571(7) -0.1028(4) 0.0656(15) Uani 1 d
H7 H 0.3819 0.6574 -0.1288 0.079 Uiso 1 calc
C8 C 0.5485(6) 1.1305(8) 0.1514(4) 0.0644(15) Uani 1 d
H8 H 0.5586 1.1548 0.2106 0.077 Uiso 1 calc
C9 C 1.0151(5) 1.0184(6) 0.0861(3) 0.0428(11) Uani 1 d
C10 C 0.9686(3) 0.8701(5) 0.0482(3) 0.0452(11) Uani 1 d
C11 C 0.9585(5) 0.8574(5) -0.0398(3) 0.0448(11) Uani 1 d
C12 C 0.8114(6) 0.7862(8) 0.3614(4) 0.0746(17) Uani 1 d
H12 H 0.7616 0.8626 0.3242 0.09 Uiso 1 calc
C13 C 0.8308(5) 0.6370(8) 0.3275(4) 0.0646(15) Uani 1 d
H13 H 0.7936 0.6136 0.2678 0.078 Uiso 1 calc
C14 C 0.9055(4) 0.5192(6) 0.3814(3) 0.0515(12) Uani 1 d
C15 C 0.9605(5) 0.5587(5) 0.4713(3) 0.0420(10) Uani 1 d
C16 C 0.9396(5) 0.7129(6) 0.5054(3) 0.0511(12) Uani 1 d
C17 C 0.8637(6) 0.8250(7) 0.4483(4) 0.0654(15) Uani 1 d
H17 H 0.8486 0.927 0.4699 0.078 Uiso 1 calc
C18 C 0.9286(7) 0.3613(7) 0.3497(4) 0.0624(15) Uani 1 d
H18 H 0.8908 0.3343 0.2903 0.075 Uiso 1 calc
C19 C 0.9969(7) 0.7491(7) 0.5972(4) 0.0607(14) Uani 1 d
H19 H 0.9824 0.8502 0.6204 0.073 Uiso 1 calc
C20 C 0.4867(6) 0.6525(5) 0.5339(3) 0.0407(11) Uani 1 d
C21 C 0.4257(6) 0.6156(6) 0.4458(3) 0.0408(10) Uani 1 d
C22 C 0.4404(6) 0.4634(6) 0.4113(3) 0.0400(10) Uani 1 d
loop_
_atom_site_aniso_label
_atom_site_aniso_U_11
_atom_site_aniso_U_22
_atom_site_aniso_U_33
_atom_site_aniso_U_23
_atom_site_aniso_U_13
_atom_site_aniso_U_12
Cl9 0.0697(10) 0.1109(14) 0.0454(8) 0.0027(8) 0.0093(7) 0.0325(9)
Cl10 0.0539(8) 0.0665(10) 0.1075(13) 0.0438(9) 0.0243(8) 0.0126(7)
Cl11 0.0565(9) 0.0481(8) 0.1072(13) -0.0234(8) -0.0035(8) 0.0053(6)
Cl20 0.0725(9) 0.0393(7) 0.0675(9) -0.0021(6) 0.0194(7) 0.0050(6)
Cl21 0.0500(7) 0.0528(8) 0.0640(8) 0.0238(6) 0.0091(6) 0.0084(6)
Cl22 0.0664(9) 0.0656(9) 0.0409(7) 0.0012(6) 0.0077(6) -0.0039(7)
C1 0.045(3) 0.100(5) 0.109(5) 0.066(4) 0.013(4) 0.008(3)
C2 0.036(3) 0.054(3) 0.125(5) 0.032(3) 0.002(3) 0.004(2)
C3 0.030(2) 0.050(3) 0.072(3) 0.012(2) 0.003(2) 0.012(2)
C4 0.021(2) 0.049(3) 0.041(2) 0.0131(19) 0.0013(18) 0.0082(18)
C5 0.029(2) 0.078(3) 0.044(3) 0.013(2) 0.004(2) 0.017(2)
C6 0.036(3) 0.126(5) 0.057(3) 0.046(3) 0.009(2) 0.017(3)
C7 0.046(3) 0.063(4) 0.076(4) -0.015(3) -0.004(3) 0.020(3)
C8 0.045(3) 0.097(4) 0.045(3) -0.006(3) 0.000(2) 0.021(3)
C9 0.034(2) 0.052(3) 0.041(3) 0.008(2) 0.004(2) 0.013(2)
C10 0.032(2) 0.045(3) 0.059(3) 0.016(2) 0.005(2) 0.011(2)
C11 0.030(2) 0.035(3) 0.063(3) -0.004(2) 0.000(2) 0.0084(19)
C12 0.040(3) 0.091(4) 0.091(4) 0.040(4) -0.001(3) 0.005(3)
C13 0.040(3) 0.101(4) 0.052(3) 0.029(3) 0.001(2) -0.003(3)
C14 0.036(3) 0.074(3) 0.044(3) 0.013(2) 0.006(2) -0.008(2)
C15 0.027(2) 0.053(3) 0.046(2) 0.010(2) 0.0066(19) -0.002(2)
C16 0.035(3) 0.057(3) 0.065(3) 0.009(2) 0.016(2) 0.001(2)
C17 0.041(3) 0.059(3) 0.096(4) 0.021(3) 0.010(3) 0.003(2)
C18 0.062(4) 0.077(4) 0.048(3) -0.007(3) 0.015(3) -0.014(3)
C19 0.062(3) 0.055(3) 0.067(3) -0.008(3) 0.023(3) -0.004(3)
C20 0.037(2) 0.037(3) 0.050(3) 0.002(2) 0.016(2) -0.002(2)
C21 0.032(2) 0.045(3) 0.048(3) 0.011(2) 0.011(2) 0.0022(19)
C22 0.034(2) 0.045(3) 0.042(3) 0.010(2) 0.010(2) 0.001(2)
loop_
_atom_type_symbol
_atom_type_description
_atom_type_scat_dispersion_real
_atom_type_scat_dispersion_imag
_atom_type_scat_source
C C 0.0033 0.0016 'International Tables Vol C Tables 4.2.6.8 and 6.1.1.4'
H H 0 0 'International Tables Vol C Tables 4.2.6.8 and 6.1.1.4'
Cl Cl 0.1484 0.1585 'International Tables Vol C Tables 4.2.6.8 and 6.1.1.4'
loop_
_exptl_crystal_face_index_h
_exptl_crystal_face_index_k
_exptl_crystal_face_index_l
_exptl_crystal_face_perp_dist
-1 8 -15 0.0923
1 -8 15 0.0923
10 0 5 0.1996
-10 0 -5 0.1996
-1 -9 -17 0.0603
1 9 17 0.0603
0 12 -5 0.0801
loop_
_geom_angle_atom_site_label_1
_geom_angle_atom_site_label_2
_geom_angle_atom_site_label_3
_geom_angle
_geom_angle_site_symmetry_1
_geom_angle_site_symmetry_3
C2 C1 C6 121.5(6) . .
C2 C1 H1 119.2 . .
C6 C1 H1 119.2 . .
C1 C2 C3 120.1(6) . .
C1 C2 H2 120 . .
C3 C2 H2 120 . .
C4 C3 C2 119.1(5) . .
C4 C3 C7 117.9(5) . .
C2 C3 C7 123.0(5) . .
C3 C4 C5 120.3(4) . .
C3 C4 C4 121.0(5) . 2_675
C5 C4 C4 118.7(5) . 2_675
C6 C5 C8 124.4(5) . .
C6 C5 C4 117.4(5) . .
C8 C5 C4 118.2(5) . .
C1 C6 C5 121.5(6) . .
C1 C6 H6 119.2 . .
C5 C6 H6 119.2 . .
C8 C7 C3 121.4(5) 2_675 .
C8 C7 H7 119.3 2_675 .
C3 C7 H7 119.3 . .
C7 C8 C5 122.9(5) 2_675 .
C7 C8 H8 118.6 2_675 .
C5 C8 H8 118.6 . .
C11 C9 C10 123.1(4) 2_775 .
C11 C9 Cl9 119.3(4) 2_775 .
C10 C9 Cl9 117.7(4) . .
C11 C10 C9 113.5(4) . .
C11 C10 Cl10 123.5(4) . .
C9 C10 Cl10 122.9(4) . .
C9 C11 C10 123.3(4) 2_775 .
C9 C11 Cl11 120.2(4) 2_775 .
C10 C11 Cl11 116.4(4) . .
C17 C12 C13 121.3(6) . .
C17 C12 H12 119.3 . .
C13 C12 H12 119.3 . .
C12 C13 C14 121.0(5) . .
C12 C13 H13 119.5 . .
C14 C13 H13 119.5 . .
C13 C14 C15 118.0(5) . .
C13 C14 C18 123.4(5) . .
C15 C14 C18 118.6(5) . .
C14 C15 C16 120.5(4) . .
C14 C15 C15 119.7(5) . 2_766
C16 C15 C15 119.8(5) . 2_766
C17 C16 C15 118.7(5) . .
C17 C16 C19 122.2(5) . .
C15 C16 C19 119.1(5) . .
C12 C17 C16 120.5(6) . .
C12 C17 H17 119.8 . .
C16 C17 H17 119.8 . .
C19 C18 C14 122.2(5) 2_766 .
C19 C18 H18 118.9 2_766 .
C14 C18 H18 118.9 . .
C18 C19 C16 120.6(5) 2_766 .
C18 C19 H19 119.7 2_766 .
C16 C19 H19 119.7 . .
C21 C20 C22 120.1(4) . 2_666
C21 C20 Cl20 120.2(4) . .
C22 C20 Cl20 119.8(4) 2_666 .
C20 C21 C22 120.2(4) . .
C20 C21 Cl21 119.8(4) . .
C22 C21 Cl21 120.1(4) . .
C21 C22 C20 119.8(4) . 2_666
C21 C22 Cl22 120.5(4) . .
C20 C22 Cl22 119.7(4) 2_666 .
loop_
_geom_bond_atom_site_label_1
_geom_bond_atom_site_label_2
_geom_bond_distance
_geom_bond_site_symmetry_2
Cl9 C9 1.755(5) .
Cl10 C10 1.676(5) .
Cl11 C11 1.770(5) .
Cl20 C20 1.718(5) .
Cl21 C21 1.713(5) .
Cl22 C22 1.705(5) .
C1 C2 1.360(8) .
C1 C6 1.371(8) .
C1 H1 0.93 .
C2 C3 1.413(7) .
C2 H2 0.93 .
C3 C4 1.412(6) .
C3 C7 1.430(7) .
C4 C5 1.424(6) .
C4 C4 1.442(8) 2_675
C5 C6 1.408(7) .
C5 C8 1.423(7) .
C6 H6 0.93 .
C7 C8 1.334(9) 2_675
C7 H7 0.93 .
C8 C7 1.334(9) 2_675
C8 H8 0.93 .
C9 C11 1.369(7) 2_775
C9 C10 1.375(6) .
C10 C11 1.373(6) .
C11 C9 1.369(7) 2_775
C12 C17 1.360(8) .
C12 C13 1.369(8) .
C12 H12 0.93 .
C13 C14 1.398(7) .
C13 H13 0.93 .
C14 C15 1.406(6) .
C14 C18 1.430(7) .
C15 C16 1.411(6) .
C15 C15 1.436(9) 2_766
C16 C17 1.394(7) .
C16 C19 1.431(7) .
C17 H17 0.93 .
C18 C19 1.343(8) 2_766
C18 H18 0.93 .
C19 C18 1.343(8) 2_766
C19 H19 0.93 .
C20 C21 1.378(6) .
C20 C22 1.390(6) 2_666
C21 C22 1.390(7) .
C22 C20 1.390(6) 2_666
