#------------------------------------------------------------------------------
#$Date: 2016-11-08 21:27:13 +0200 (Tue, 08 Nov 2016) $
#$Revision: 188069 $
#$URL: file:///home/coder/svn-repositories/cod/cif/7/22/62/7226292.cif $
#------------------------------------------------------------------------------
#
# This file is available in the Crystallography Open Database (COD),
# http://www.crystallography.net/
#
# All data on this site have been placed in the public domain by the
# contributors.
#
data_7226292
loop_
_publ_author_name
'Nemec, Vinko'
'Cin\<ci\'c, Dominik'
_publ_section_title
;
 Uncommon halogen bond motifs in cocrystals of aromatic amines and
 1,4-diiodotetrafluorobenzene
;
_journal_issue                   39
_journal_name_full               CrystEngComm
_journal_page_first              7425
_journal_paper_doi               10.1039/C6CE01703G
_journal_volume                  18
_journal_year                    2016
_chemical_formula_moiety         'C6 F4 I2, 2(C8 H9 N O)'
_chemical_formula_sum            'C22 H18 F4 I2 N2 O2'
_chemical_formula_weight         672.20
_space_group_crystal_system      triclinic
_space_group_IT_number           2
_space_group_name_Hall           '-P 1'
_space_group_name_H-M_alt        'P -1'
_symmetry_space_group_name_Hall  '-P 1'
_symmetry_space_group_name_H-M   'P -1'
_atom_sites_solution_hydrogens   mixed
_audit_creation_method           SHELXL-2014/7
_audit_update_record
;
2016-07-18 deposited with the CCDC.
2016-08-17 downloaded from the CCDC.
;
_cell_angle_alpha                113.014(5)
_cell_angle_beta                 96.686(4)
_cell_angle_gamma                104.202(5)
_cell_formula_units_Z            1
_cell_length_a                   6.1553(3)
_cell_length_b                   9.6907(6)
_cell_length_c                   10.8382(5)
_cell_measurement_reflns_used    2381
_cell_measurement_temperature    295
_cell_measurement_theta_max      27.0
_cell_measurement_theta_min      4.0
_cell_volume                     560.28(6)
_computing_structure_refinement  'SHELXL-2014/7 (Sheldrick, 2014)'
_diffrn_ambient_temperature      295
_diffrn_measured_fraction_theta_full 0.983
_diffrn_measured_fraction_theta_max 0.974
_diffrn_measurement_device_type
;
Oxford Diffraction Xcalibur CCD
diffractometer
;
_diffrn_measurement_method       'omega scan'
_diffrn_radiation_type           MoK\a
_diffrn_radiation_wavelength     0.71073
_diffrn_reflns_av_R_equivalents  0.0194
_diffrn_reflns_av_unetI/netI     0.0170
_diffrn_reflns_Laue_measured_fraction_full 0.983
_diffrn_reflns_Laue_measured_fraction_max 0.974
_diffrn_reflns_limit_h_max       7
_diffrn_reflns_limit_h_min       -7
_diffrn_reflns_limit_k_max       12
_diffrn_reflns_limit_k_min       -12
_diffrn_reflns_limit_l_max       13
_diffrn_reflns_limit_l_min       -13
_diffrn_reflns_number            7170
_diffrn_reflns_point_group_measured_fraction_full 0.983
_diffrn_reflns_point_group_measured_fraction_max 0.974
_diffrn_reflns_theta_full        25.242
_diffrn_reflns_theta_max         26.996
_diffrn_reflns_theta_min         4.038
_diffrn_source                   'fine-focus sealed tube'
_exptl_absorpt_coefficient_mu    2.862
_exptl_absorpt_correction_T_max  0.73
_exptl_absorpt_correction_T_min  0.32
_exptl_absorpt_correction_type   analytical
_exptl_absorpt_process_details   'N.W. Alcock (1970). Cryst. Computing, p271'
_exptl_crystal_colour            'light brown'
_exptl_crystal_density_diffrn    1.992
_exptl_crystal_description       plate
_exptl_crystal_F_000             322
_exptl_crystal_size_max          0.54
_exptl_crystal_size_mid          0.45
_exptl_crystal_size_min          0.14
_refine_diff_density_max         0.410
_refine_diff_density_min         -0.703
_refine_diff_density_rms         0.083
_refine_ls_extinction_method     none
_refine_ls_goodness_of_fit_ref   1.078
_refine_ls_hydrogen_treatment    mixed
_refine_ls_matrix_type           full
_refine_ls_number_parameters     154
_refine_ls_number_reflns         2381
_refine_ls_number_restraints     0
_refine_ls_restrained_S_all      1.078
_refine_ls_R_factor_all          0.0225
_refine_ls_R_factor_gt           0.0199
_refine_ls_shift/su_max          0.018
_refine_ls_shift/su_mean         0.002
_refine_ls_structure_factor_coef Fsqd
_refine_ls_weighting_details
'w=1/[\s^2^(Fo^2^)+(0.0335P)^2^] where P=(Fo^2^+2Fc^2^)/3'
_refine_ls_weighting_scheme      calc
_refine_ls_wR_factor_gt          0.0487
_refine_ls_wR_factor_ref         0.0492
_reflns_Friedel_coverage         0.000
_reflns_number_gt                2168
_reflns_number_total             2381
_reflns_threshold_expression     'I > 2\s(I)'
_cod_data_source_file            c6ce01703g2.cif
_cod_data_source_block           4aap2_tfib
_cod_depositor_comments
'Adding full bibliography for 7226290--7226295.cif.'
_cod_database_code               7226292
_shelx_shelxl_version_number     2014/7
_shelx_space_group_comment
;
The symmetry employed for this shelxl refinement is uniquely defined
by the following loop, which should always be used as a source of
symmetry information in preference to the above space-group names.
They are only intended as comments.
;
_shelx_res_file
;

    shelx.res created by SHELXL-2014/7

TITL PROFFIT_SMART_TRIC_FY in P1
CELL  0.71073   6.1553   9.6907  10.8382  113.014   96.686  104.202
ZERR     1.00   0.0003   0.0006   0.0005    0.005    0.004    0.005
LATT   1
SFAC  C        2.31000 20.84392  1.02000 10.20751   1.58860   0.56870 =
         0.86500  51.65125   0.21560   0.003   0.002    11.500   0.770  12.011
SFAC  H        0.49300 10.51091  0.32291 26.12573   0.14019   3.14236 =
         0.04081  57.79977   0.00304   0.000   0.000     0.620   0.320   1.008
SFAC  N       12.21261  0.00570  3.13220  9.89331   2.01250  28.99754 =
         1.16630   0.58260 -11.52901   0.006   0.003    19.600   0.700  14.007
SFAC  O        3.04850 13.27711  2.28680  5.70111   1.54630   0.32390 =
         0.86700  32.90894   0.25080   0.011   0.006    32.500   0.660  15.999
SFAC  F        3.53920 10.28251  2.64120  4.29440   1.51700   0.26150 =
         1.02430  26.14763   0.27760   0.017   0.010    51.500   0.640  18.998
SFAC  I       20.14722  4.34700 18.99492  0.38140   7.51381  27.76604 =
         2.27350  66.87767   4.07120  -0.474   1.812  7730.000   1.330 126.904
UNIT  22   18   2    2    4    2
MERG   2
OMIT    -4.00  54.00
FMAP   2
PLAN   20
ACTA
L.S.   4
WGHT    0.033500
FVAR       7.30815
F2    5   -0.250732    0.459157    0.179657    11.00000    0.06371    0.07399 =
         0.06068    0.04621    0.03895    0.03437
F1    5    0.314451    0.349623   -0.067773    11.00000    0.06249    0.06557 =
         0.07017    0.04089    0.03505    0.04452
C11   1   -0.123766    0.478060    0.090818    11.00000    0.03963    0.04002 =
         0.03690    0.02214    0.01523    0.01545
C10   1    0.036648    0.400489    0.060798    11.00000    0.03889    0.03379 =
         0.03501    0.02000    0.00837    0.01205
C9    1    0.158722    0.423707   -0.032613    11.00000    0.03911    0.03750 =
         0.03954    0.01938    0.01422    0.01907
N1    3    0.306673    0.607699    0.559905    11.00000    0.07820    0.05979 =
         0.06538    0.04490    0.01948    0.02522
O1    4    0.147451    1.030899    0.258301    11.00000    0.07846    0.08119 =
         0.07537    0.05911    0.03221    0.04855
C7    1    0.290486    0.963315    0.252747    11.00000    0.05138    0.04259 =
         0.03664    0.02186    0.00685    0.01572
C8    1    0.466287    0.979829    0.170600    11.00000    0.06459    0.05914 =
         0.05050    0.03554    0.02036    0.01870
AFIX 137
H8A   2    0.447257    1.051713    0.132610    11.00000   -1.50000
H8B   2    0.446102    0.878374    0.097060    11.00000   -1.50000
H8C   2    0.618263    1.019990    0.229438    11.00000   -1.50000
AFIX   0
H1N   2    0.202159    0.620397    0.610600    11.00000    0.06224
H2N   2    0.445913    0.625715    0.604410    11.00000    0.11956
MOLE    1
I1    6    0.089036    0.249008    0.146260    11.00000    0.05105    0.04309 =
         0.04705    0.02945    0.00862    0.01701
MOLE    2
C1    1    0.294088    0.864137    0.326751    11.00000    0.03875    0.03354 =
         0.03065    0.01513    0.00719    0.01106
C6    1    0.463809    0.795222    0.333052    11.00000    0.04065    0.04416 =
         0.04529    0.02388    0.01807    0.01865
AFIX  43
H6    2    0.577249    0.806080    0.284745    11.00000   -1.20000
AFIX   0
C2    1    0.124232    0.844418    0.399495    11.00000    0.03735    0.05198 =
         0.04745    0.02661    0.01505    0.02102
AFIX  43
H2    2    0.007532    0.889189    0.396075    11.00000   -1.20000
AFIX   0
C4    1    0.302376    0.693368    0.483596    11.00000    0.04931    0.03583 =
         0.03946    0.02014    0.00703    0.00972
C3    1    0.127422    0.759625    0.476107    11.00000    0.04108    0.05498 =
         0.04802    0.02937    0.01870    0.01641
AFIX  43
H3    2    0.012320    0.746673    0.522914    11.00000   -1.20000
AFIX   0
C5    1    0.468392    0.710747    0.409448    11.00000    0.04679    0.04701 =
         0.05879    0.02822    0.01465    0.02724
AFIX  43
H5    2    0.583944    0.664732    0.411496    11.00000   -1.20000
AFIX   0
HKLF    4

REM  PROFFIT_SMART_TRIC_FY in P1
REM R1 =  0.0199 for    2168 Fo > 4sig(Fo)  and  0.0225 for all    2381 data
REM    154 parameters refined using      0 restraints

END

WGHT      0.0360      0.0000

REM Highest difference peak  0.410,  deepest hole -0.703,  1-sigma level  0.083
Q1    1   0.1000  0.3407  0.1207  11.00000  0.05    0.41
Q2    1   0.0978  0.4368 -0.0924  11.00000  0.05    0.34
Q3    1   0.2837  0.8974  0.2847  11.00000  0.05    0.31
Q4    1   0.0687  0.2743  0.0633  11.00000  0.05    0.30
Q5    1   0.2212  0.8656  0.3713  11.00000  0.05    0.30
Q6    1  -0.1946  0.4166  0.2593  11.00000  0.05    0.27
Q7    1  -0.0697  0.1786 -0.0144  11.00000  0.05    0.25
Q8    1  -0.0511  0.7410  0.6730  11.00000  0.05    0.24
Q9    1   0.0790  0.4032 -0.0006  11.00000  0.05    0.23
Q10   1   0.1898  0.5140 -0.0212  11.00000  0.05    0.22
Q11   1   0.2541  0.3426 -0.1835  11.00000  0.05    0.21
Q12   1   0.1500  1.0574  0.4183  11.00000  0.05    0.20
Q13   1  -0.3908  0.4327  0.2631  11.00000  0.05    0.19
Q14   1   0.2380  0.3283  0.3015  11.00000  0.05    0.19
Q15   1   0.1294  0.2571 -0.0003  11.00000  0.05    0.19
Q16   1   0.1284  0.1533 -0.0339  11.00000  0.05    0.19
Q17   1   0.1356  0.3535  0.2434  11.00000  0.05    0.19
Q18   1   0.5417  1.0886  0.2029  11.00000  0.05    0.18
Q19   1   0.0241  0.4061  0.2414  11.00000  0.05    0.18
Q20   1   0.0638  0.1665  0.1615  11.00000  0.05    0.18
;
_shelx_res_checksum              59021
loop_
_space_group_symop_operation_xyz
'x, y, z'
'-x, -y, -z'
loop_
_atom_site_label
_atom_site_type_symbol
_atom_site_fract_x
_atom_site_fract_y
_atom_site_fract_z
_atom_site_U_iso_or_equiv
_atom_site_adp_type
_atom_site_occupancy
_atom_site_site_symmetry_order
_atom_site_calc_flag
_atom_site_refinement_flags_posn
_atom_site_refinement_flags_adp
F2 F -0.2507(3) 0.45916(19) 0.17966(17) 0.0558(4) Uani 1 1 d . .
F1 F 0.3145(3) 0.34962(18) -0.06777(17) 0.0557(4) Uani 1 1 d . .
C11 C -0.1238(4) 0.4781(2) 0.0908(2) 0.0359(4) Uani 1 1 d . .
C10 C 0.0366(4) 0.4005(2) 0.0608(2) 0.0342(4) Uani 1 1 d . .
C9 C 0.1587(4) 0.4237(2) -0.0326(2) 0.0360(4) Uani 1 1 d . .
N1 N 0.3067(6) 0.6077(3) 0.5599(3) 0.0610(6) Uani 1 1 d . .
O1 O 0.1475(4) 1.0309(3) 0.2583(2) 0.0641(5) Uani 1 1 d . .
C7 C 0.2905(4) 0.9633(3) 0.2527(2) 0.0422(5) Uani 1 1 d . .
C8 C 0.4663(5) 0.9798(3) 0.1706(3) 0.0538(6) Uani 1 1 d . .
H8A H 0.4473 1.0517 0.1326 0.081 Uiso 1 1 calc R U
H8B H 0.4461 0.8784 0.0971 0.081 Uiso 1 1 calc R U
H8C H 0.6183 1.0200 0.2294 0.081 Uiso 1 1 calc R U
H1N H 0.202(6) 0.620(4) 0.611(3) 0.062(9) Uiso 1 1 d . .
H2N H 0.446(8) 0.626(6) 0.604(5) 0.120(18) Uiso 1 1 d . .
I1 I 0.08904(3) 0.24901(2) 0.14626(2) 0.04367(7) Uani 1 1 d . .
C1 C 0.2941(4) 0.8641(2) 0.3268(2) 0.0341(4) Uani 1 1 d . .
C6 C 0.4638(4) 0.7952(3) 0.3331(2) 0.0401(5) Uani 1 1 d . .
H6 H 0.5772 0.8061 0.2847 0.048 Uiso 1 1 calc R U
C2 C 0.1242(4) 0.8444(3) 0.3995(2) 0.0421(5) Uani 1 1 d . .
H2 H 0.0075 0.8892 0.3961 0.051 Uiso 1 1 calc R U
C4 C 0.3024(4) 0.6934(3) 0.4836(2) 0.0414(5) Uani 1 1 d . .
C3 C 0.1274(4) 0.7596(3) 0.4761(3) 0.0447(5) Uani 1 1 d . .
H3 H 0.0123 0.7467 0.5229 0.054 Uiso 1 1 calc R U
C5 C 0.4684(4) 0.7107(3) 0.4094(3) 0.0465(5) Uani 1 1 d . .
H5 H 0.5839 0.6647 0.4115 0.056 Uiso 1 1 calc R U
loop_
_atom_site_aniso_label
_atom_site_aniso_U_11
_atom_site_aniso_U_22
_atom_site_aniso_U_33
_atom_site_aniso_U_23
_atom_site_aniso_U_13
_atom_site_aniso_U_12
F2 0.0637(9) 0.0740(10) 0.0607(9) 0.0462(8) 0.0389(8) 0.0344(8)
F1 0.0625(9) 0.0656(9) 0.0702(10) 0.0409(8) 0.0351(8) 0.0445(7)
C11 0.0396(10) 0.0400(10) 0.0369(11) 0.0221(9) 0.0152(9) 0.0154(8)
C10 0.0389(10) 0.0338(9) 0.0350(10) 0.0200(8) 0.0084(8) 0.0121(8)
C9 0.0391(10) 0.0375(10) 0.0395(11) 0.0194(9) 0.0142(9) 0.0191(8)
N1 0.0782(17) 0.0598(14) 0.0654(16) 0.0449(13) 0.0195(14) 0.0252(13)
O1 0.0785(13) 0.0812(14) 0.0754(14) 0.0591(12) 0.0322(11) 0.0486(11)
C7 0.0514(13) 0.0426(11) 0.0366(11) 0.0219(9) 0.0068(9) 0.0157(10)
C8 0.0646(16) 0.0591(15) 0.0505(15) 0.0355(13) 0.0204(12) 0.0187(12)
I1 0.05105(10) 0.04309(9) 0.04705(11) 0.02945(7) 0.00862(7) 0.01701(6)
C1 0.0388(10) 0.0335(9) 0.0306(10) 0.0151(8) 0.0072(8) 0.0111(8)
C6 0.0406(11) 0.0442(11) 0.0453(12) 0.0239(10) 0.0181(9) 0.0186(9)
C2 0.0374(11) 0.0520(12) 0.0474(13) 0.0266(11) 0.0150(9) 0.0210(9)
C4 0.0493(12) 0.0358(10) 0.0395(12) 0.0201(9) 0.0070(10) 0.0097(9)
C3 0.0411(11) 0.0550(13) 0.0480(13) 0.0294(11) 0.0187(10) 0.0164(10)
C5 0.0468(12) 0.0470(12) 0.0588(15) 0.0282(11) 0.0147(11) 0.0272(10)
loop_
_atom_type_symbol
_atom_type_description
_atom_type_scat_dispersion_real
_atom_type_scat_dispersion_imag
_atom_type_scat_source
C C 0.0030 0.0020 'International Tables Vol C Tables 4.2.6.8 and 6.1.1.4'
H H 0.0000 0.0000 'International Tables Vol C Tables 4.2.6.8 and 6.1.1.4'
N N 0.0060 0.0030 'International Tables Vol C Tables 4.2.6.8 and 6.1.1.4'
O O 0.0110 0.0060 'International Tables Vol C Tables 4.2.6.8 and 6.1.1.4'
F F 0.0170 0.0100 'International Tables Vol C Tables 4.2.6.8 and 6.1.1.4'
I I -0.4740 1.8120 'International Tables Vol C Tables 4.2.6.8 and 6.1.1.4'
loop_
_geom_angle_atom_site_label_1
_geom_angle_atom_site_label_2
_geom_angle_atom_site_label_3
_geom_angle
_geom_angle_site_symmetry_1
_geom_angle_site_symmetry_3
F2 C11 C10 120.03(19) . .
F2 C11 C9 118.30(19) . 2_565
C10 C11 C9 121.67(19) . 2_565
C11 C10 C9 116.94(19) . .
C11 C10 I1 122.17(15) . .
C9 C10 I1 120.86(15) . .
F1 C9 C11 118.80(19) . 2_565
F1 C9 C10 119.82(19) . .
C11 C9 C10 121.38(19) 2_565 .
O1 C7 C1 120.7(2) . .
O1 C7 C8 120.3(2) . .
C1 C7 C8 119.1(2) . .
C6 C1 C2 118.1(2) . .
C6 C1 C7 123.0(2) . .
C2 C1 C7 118.9(2) . .
C5 C6 C1 121.2(2) . .
C3 C2 C1 121.0(2) . .
N1 C4 C5 120.7(2) . .
N1 C4 C3 120.6(2) . .
C5 C4 C3 118.7(2) . .
C2 C3 C4 120.2(2) . .
C6 C5 C4 120.8(2) . .
loop_
_geom_bond_atom_site_label_1
_geom_bond_atom_site_label_2
_geom_bond_distance
_geom_bond_site_symmetry_2
F2 C11 1.347(2) .
F1 C9 1.337(2) .
C11 C10 1.376(3) .
C11 C9 1.374(3) 2_565
C10 C9 1.383(3) .
C10 I1 2.084(2) .
C9 C11 1.374(3) 2_565
N1 C4 1.384(3) .
O1 C7 1.213(3) .
C7 C1 1.475(3) .
C7 C8 1.497(3) .
C1 C6 1.380(3) .
C1 C2 1.401(3) .
C6 C5 1.376(3) .
C2 C3 1.379(3) .
C4 C5 1.390(3) .
C4 C3 1.392(4) .
