#------------------------------------------------------------------------------
#$Date: 2017-01-09 05:03:29 +0200 (Mon, 09 Jan 2017) $
#$Revision: 190066 $
#$URL: file:///home/coder/svn-repositories/cod/cif/7/22/68/7226848.cif $
#------------------------------------------------------------------------------
#
# This file is available in the Crystallography Open Database (COD),
# http://www.crystallography.net/
#
# All data on this site have been placed in the public domain by the
# contributors.
#
data_7226848
loop_
_publ_author_name
'Galica, T.'
'B\;akowicz, J.'
'Konieczny, K.'
'Turowska-Tyrk, I.'
_publ_section_title
;
 Structural transformations in crystals induced by radiation and pressure.
 Part 5. The influence of pressure on the course of the photochemical
 reaction in crystals of 2,6-difluorocinnamic acid
;
_journal_issue                   46
_journal_name_full               CrystEngComm
_journal_page_first              8871
_journal_paper_doi               10.1039/C6CE01652A
_journal_volume                  18
_journal_year                    2016
_chemical_formula_sum            'C9 H6 F2 O2'
_chemical_formula_weight         184.14
_chemical_properties_physical    ', Photo-sensitive'
_space_group_crystal_system      monoclinic
_space_group_IT_number           14
_space_group_name_Hall           '-P 2ybc'
_space_group_name_H-M_alt        'P 1 21/c 1'
_symmetry_space_group_name_Hall  '-P 2ybc'
_symmetry_space_group_name_H-M   'P 1 21/c 1'
_atom_sites_solution_hydrogens   mixed
_atom_sites_solution_primary     isomor
_atom_sites_solution_secondary   geom
_audit_creation_method           SHELXL-2014/7
_audit_update_record
;
2016-07-27 deposited with the CCDC.
2016-10-19 downloaded from the CCDC.
;
_cell_angle_alpha                90
_cell_angle_beta                 91.72(6)
_cell_angle_gamma                90
_cell_formula_units_Z            4
_cell_length_a                   3.6358(17)
_cell_length_b                   18.973(11)
_cell_length_c                   10.701(13)
_cell_measurement_pressure       2100000
_cell_measurement_reflns_used    337
_cell_measurement_temperature    299(2)
_cell_measurement_theta_max      18.10
_cell_measurement_theta_min      6.33
_cell_volume                     737.8(11)
_computing_cell_refinement       'CrysAlisPro (Agilent Technologies, 2014)'
_computing_data_collection       'CrysAlisPro (Agilent Technologies, 2014)'
_computing_data_reduction        'CrysAlisPro (Agilent Technologies, 2014)'
_computing_molecular_graphics    'ORTEP-3 for Windows (Farrugia, 2012)'
_computing_publication_material  'SHELXL-2014/7 (Sheldrick, 2015)'
_computing_structure_refinement  'SHELXL-2014/7 (Sheldrick, 2015)'
_computing_structure_solution    'SHELXS-2013/1 (Sheldrick, 2008)'
_diffrn_ambient_pressure         2100000
_diffrn_ambient_temperature      299(2)
_diffrn_detector_area_resol_mean 15.9718
_diffrn_measured_fraction_theta_full 0.509
_diffrn_measured_fraction_theta_max 0.509
_diffrn_measurement_device_type  'KM4 with Eos CCD'
_diffrn_measurement_method       '\f- and \w scans'
_diffrn_radiation_monochromator  graphite
_diffrn_radiation_source         'fine-focus sealed tube'
_diffrn_radiation_type           MoK\a
_diffrn_radiation_wavelength     0.71073
_diffrn_reflns_av_R_equivalents  0.1210
_diffrn_reflns_av_unetI/netI     0.0924
_diffrn_reflns_Laue_measured_fraction_full 0.509
_diffrn_reflns_Laue_measured_fraction_max 0.509
_diffrn_reflns_limit_h_max       4
_diffrn_reflns_limit_h_min       -4
_diffrn_reflns_limit_k_max       19
_diffrn_reflns_limit_k_min       -18
_diffrn_reflns_limit_l_max       8
_diffrn_reflns_limit_l_min       -9
_diffrn_reflns_number            3007
_diffrn_reflns_point_group_measured_fraction_full 0.509
_diffrn_reflns_point_group_measured_fraction_max 0.509
_diffrn_reflns_theta_full        24.402
_diffrn_reflns_theta_max         24.402
_diffrn_reflns_theta_min         6.476
_exptl_absorpt_coefficient_mu    0.149
_exptl_absorpt_correction_type   none
_exptl_crystal_colour            colourless
_exptl_crystal_density_diffrn    1.658
_exptl_crystal_description       block
_exptl_crystal_F_000             376
_exptl_crystal_size_max          0.24
_exptl_crystal_size_mid          0.15
_exptl_crystal_size_min          0.10
_refine_diff_density_max         0.203
_refine_diff_density_min         -0.237
_refine_diff_density_rms         0.054
_refine_ls_extinction_method     none
_refine_ls_goodness_of_fit_ref   1.085
_refine_ls_hydrogen_treatment    constr
_refine_ls_matrix_type           full
_refine_ls_number_parameters     59
_refine_ls_number_reflns         621
_refine_ls_number_restraints     29
_refine_ls_restrained_S_all      1.119
_refine_ls_R_factor_all          0.2524
_refine_ls_R_factor_gt           0.1204
_refine_ls_shift/su_max          0.000
_refine_ls_shift/su_mean         0.000
_refine_ls_structure_factor_coef Fsqd
_refine_ls_weighting_details
'w=1/[\s^2^(Fo^2^)+(0.2000P)^2^] where P=(Fo^2^+2Fc^2^)/3'
_refine_ls_weighting_scheme      calc
_refine_ls_wR_factor_gt          0.3060
_refine_ls_wR_factor_ref         0.3922
_reflns_Friedel_coverage         0.000
_reflns_number_gt                229
_reflns_number_total             621
_reflns_threshold_expression     'I > 2\s(I)'
_cod_data_source_file            c6ce01652a1.cif
_cod_data_source_block           180secUV_p3
_cod_depositor_comments
'Adding full bibliography for 7226837--7226849.cif.'
_cod_database_code               7226848
_shelx_shelxl_version_number     2014/7
_shelx_space_group_comment
;
The symmetry employed for this shelxl refinement is uniquely defined
by the following loop, which should always be used as a source of
symmetry information in preference to the above space-group names.
They are only intended as comments.
;
_shelx_res_file
;

    180secUV_2.1GPa.res created by SHELXL-2014/7


TITL 180secUV_2.1GPa
CELL 0.71073   3.6358  18.973  10.701  90.000  91.72  90.000
ZERR    4.00   0.0017   0.011   0.013   0.000   0.06   0.000
LATT  1
SYMM -x, y+1/2,-z+1/2
SFAC C H O F
UNIT 36 24 8 8
OMIT -2 50
L.S. 6
FMAP 2
PLAN -10
BOND $H
HTAB
ACTA
DFIX 1.499 0.01 C6P1 C7P1
DFIX 1.536 0.01 C7P1 C8P1
DFIX 1.497 0.01 C8P1 C9P1
DFIX 1.504 0.01 C6P2 C7P2
DFIX 1.559 0.01 C7P2 C8P2
DFIX 1.493 0.01 C8P2 C9P2
DFIX 1.574 0.01 C7P1 C7P2
DFIX 1.584 0.01 C8P1 C8P2
DANG 2.583 0.02 C1P1 C7P1
DANG 2.478 0.02 C5P1 C7P1
DANG 2.343 0.02 C8P1 O1P1
DANG 2.393 0.02 C8P1 O2P1
DANG 2.558 0.02 C1P2 C7P2
DANG 2.525 0.02 C5P2 C7P2
DANG 2.353 0.02 C8P2 O1P2
DANG 2.373 0.02 C8P2 O2P2
DANG 2.648 0.02 C6P2 C7P1
DANG 2.620 0.02 C6P2 C8P2
DANG 2.663 0.02 C6P1 C7P2
DANG 2.666 0.02 C6P1 C8P1
DANG 2.558 0.02 C9P2 C7P2
DANG 2.555 0.02 C9P2 C8P1
DANG 2.578 0.02 C9P1 C7P1
DANG 2.616 0.02 C9P1 C8P2
DANG 2.205 0.02 C7P2 C8P1
DANG 2.205 0.02 C8P2 C7P1

FLAT C1P2 C5P2 C6P2 C7P2
FLAT C1P1 C5P1 C6P1 C7P1
FLAT O1P2 O2P2 C9P2 C8P2

FREE C7P1 C6P2_$3
FREE C8P1 F1P2_$3
EQIV $3   x-1, y, z
FREE C8P2 C9P1_$1
EQIV $1   x+1, y, z
BIND 2 3
TEMP 26
WGHT    0.200000
FVAR       4.67900   0.71454   0.09695   0.10025   0.11123
PART 1
AFIX   6
C6R   1    0.724791    0.708922    0.078867    21.00000   31.00000
C1R   1    0.887513    0.684062    0.189881    21.00000   31.00000
F1R   4    0.997131    0.731917    0.277036    21.00000   51.00000
C2R   1    0.946258    0.614276    0.216710    21.00000   31.00000
H2R   2    1.055100    0.603934    0.291335    21.00000   -1.20000
C3R   1    0.845298    0.564820    0.128401    21.00000   31.00000
H3R   2    0.885207    0.516333    0.147328    21.00000   -1.20000
C4R   1    0.685704    0.585032    0.016512    21.00000   31.00000
H4R   2    0.619119    0.554611   -0.046080    21.00000   -1.20000
C5R   1    0.627047    0.655514   -0.004598    21.00000   31.00000
F2R   4    0.459903    0.674416   -0.114380    21.00000   51.00000
AFIX   0
C7R   1    0.646591    0.782820    0.044866    21.00000   31.00000
AFIX  43
H7R   2    0.524636    0.790906   -0.031425    21.00000   -1.20000
AFIX   0
C8R   1    0.738020    0.840569    0.115915    21.00000   31.00000
AFIX  43
H8R   2    0.870349    0.837036    0.191387    21.00000   -1.20000
AFIX   6
C9R   1    0.614364    0.907432    0.065352    21.00000   31.00000
O1R   3    0.714544    0.958121    0.142725    21.00000   41.00000
AFIX  83
H1R   2    0.647978    0.996199    0.113711    21.00000   -1.50000
AFIX   5
O2R   3    0.439164    0.918677   -0.031555    21.00000   41.00000
AFIX   6
PART 0

PART 2
C6P1  1    0.873209    0.703269    0.065194   -20.50000   31.00000
C1P1  1    0.963265    0.679612    0.184098   -20.50000   31.00000
F1P1  4    1.124412    0.725305    0.266391   -20.50000   51.00000
C2P1  1    0.893661    0.612060    0.225048   -20.50000   31.00000
H2P1  2    0.973695    0.602640    0.309088   -20.50000   -1.20000
C3P1  1    0.729672    0.564926    0.144496   -20.50000   31.00000
H3P1  2    0.684632    0.517324    0.176333   -20.50000   -1.20000
C4P1  1    0.628589    0.585054    0.025669   -20.50000   31.00000
H4P1  2    0.514340    0.554916   -0.028021   -20.50000   -1.20000
C5P1  1    0.701037    0.653121   -0.010442   -20.50000   31.00000
F2P1  4    0.590070    0.674826   -0.126171   -20.50000   51.00000
AFIX   0
C7P1  1    0.985946    0.774883    0.017728   -20.50000   31.00000
AFIX  13
H7P1  2    0.875163    0.784297   -0.065211   -20.50000   -1.20000
AFIX   0
C8P1  1    0.958611    0.839806    0.103152   -20.50000   31.00000
AFIX  13
H8P1  2    0.854509    0.827112    0.183518   -20.50000   -1.20000
AFIX   6
C9P1  1    0.775171    0.904417    0.049371   -20.50000   31.00000
O1P1  3    0.868514    0.961707    0.109692   -20.50000   41.00000
AFIX  83
H1P1  2    0.760335    0.995510    0.078090   -20.50000   -1.50000
AFIX   5
O2P1  3    0.609747    0.904604   -0.051357   -20.50000   41.00000
AFIX   6
PART 0
PART 3
C6P2  1    1.633439    0.718091    0.055279   -20.50000   31.00000
C1P2  1    1.840804    0.708172    0.164712   -20.50000   31.00000
F1P2  4    1.891023    0.764428    0.241384   -20.50000   51.00000
C2P2  1    1.997467    0.645228    0.199944   -20.50000   31.00000
H2P2  2    2.132431    0.643825    0.273805   -20.50000   -1.20000
C3P2  1    1.942821    0.587441    0.124404   -20.50000   31.00000
H3P2  2    2.044095    0.540805    0.146734   -20.50000   -1.20000
C4P2  1    1.736738    0.593025    0.015336   -20.50000   31.00000
H4P2  2    1.677411    0.556525   -0.042330   -20.50000   -1.20000
C5P2  1    1.590117    0.657667   -0.016759   -20.50000   31.00000
F2P2  4    1.392471    0.662499   -0.125364   -20.50000   51.00000
AFIX   0
C7P2  1    1.423258    0.783916    0.017377   -20.50000   31.00000
AFIX  13
H7P2  2    1.503330    0.801790   -0.063312   -20.50000   -1.20000
AFIX   0
C8P2  1    1.394790    0.844370    0.114344   -20.50000   31.00000
AFIX  13
H8P2  2    1.496541    0.832381    0.197485   -20.50000   -1.20000
AFIX   6
C9P2  1    1.518520    0.914358    0.067010   -20.50000   31.00000
O1P2  3    1.516182    0.963617    0.152186   -20.50000   41.00000
AFIX  83
H1P2  2    1.584962    1.000894    0.121935   -20.50000   -1.50000
AFIX   5
O2P2  3    1.596399    0.924942   -0.040836   -20.50000   41.00000
PART 0
AFIX   0
HKLF 4

REM  180secUV_2.1GPa
REM R1 =  0.1204 for     229 Fo > 4sig(Fo)  and  0.2524 for all     621 data
REM     59 parameters refined using     29 restraints

END

WGHT      0.2000      0.0000

REM Instructions for potential hydrogen bonds
EQIV $4 x+1, -y+3/2, z+1/2
HTAB C2R O2R_$4
HTAB C8R F1R
EQIV $5 x, -y+3/2, z+1/2
HTAB C8R F2R_$5
EQIV $6 -x+1, -y+2, -z
HTAB O1R O2R_$6
HTAB C2P1 O2P1_$5
EQIV $7 x-1, -y+3/2, z+1/2
HTAB C2P1 O2P2_$7
HTAB C8P1 F1P1
HTAB C8P1 F2P1_$5
HTAB C8P1 F1P2_$3
HTAB O1P1 O2P1_$6
EQIV $8 -x+2, -y+2, -z
HTAB O1P1 O2P2_$8
HTAB C8P2 F2P1_$4
HTAB C8P2 F1P2
HTAB C8P2 F2P2_$5
HTAB O1P2 O2P1_$8
EQIV $9 -x+3, -y+2, -z
HTAB O1P2 O2P2_$9

REM Highest difference peak  0.203,  deepest hole -0.237,  1-sigma level  0.054
Q1    1   0.5343  0.9498  0.2035  11.00000  0.05    0.20
Q2    1   0.2703  0.9229  0.0243  11.00000  0.05    0.20
Q3    1   0.3061  0.6781 -0.0914  11.00000  0.05    0.20
Q4    1   0.5166  0.9466 -0.0987  11.00000  0.05    0.17
Q5    1   0.7434  0.7105  0.1151  11.00000  0.05    0.17
Q6    1   0.5136  0.6148 -0.2424  11.00000  0.05    0.17
Q7    1   1.1545  0.7442  0.2354  11.00000  0.05    0.16
Q8    1   0.8084  0.6388  0.2690  11.00000  0.05    0.15
Q9    1   0.8171  0.7362  0.3224  11.00000  0.05    0.14
Q10   1   0.4934  0.6024  0.0826  11.00000  0.05    0.13
;
_shelx_res_checksum              25517
loop_
_space_group_symop_operation_xyz
'x, y, z'
'-x, y+1/2, -z+1/2'
'-x, -y, -z'
'x, -y-1/2, z-1/2'
loop_
_atom_site_label
_atom_site_type_symbol
_atom_site_fract_x
_atom_site_fract_y
_atom_site_fract_z
_atom_site_U_iso_or_equiv
_atom_site_adp_type
_atom_site_occupancy
_atom_site_site_symmetry_order
_atom_site_calc_flag
_atom_site_refinement_flags_posn
_atom_site_refinement_flags_adp
_atom_site_refinement_flags_occupancy
_atom_site_disorder_assembly
_atom_site_disorder_group
C6R C 0.7248(18) 0.7089(4) 0.0789(9) 0.097(3) Uiso 0.715(11) 1 d G U P A 1
C1R C 0.8875(17) 0.6841(4) 0.1899(9) 0.097(3) Uiso 0.715(11) 1 d G U P A 1
F1R F 0.997(2) 0.7319(5) 0.2770(9) 0.111(3) Uiso 0.715(11) 1 d G U P A 1
C2R C 0.946(2) 0.6143(4) 0.2167(11) 0.097(3) Uiso 0.715(11) 1 d G U P A 1
H2R H 1.0551 0.6039 0.2913 0.116 Uiso 0.715(11) 1 d G U P A 1
C3R C 0.845(3) 0.5648(4) 0.1284(14) 0.097(3) Uiso 0.715(11) 1 d G U P A 1
H3R H 0.8852 0.5163 0.1473 0.116 Uiso 0.715(11) 1 d G U P A 1
C4R C 0.686(3) 0.5850(4) 0.0165(13) 0.097(3) Uiso 0.715(11) 1 d G U P A 1
H4R H 0.6191 0.5546 -0.0461 0.116 Uiso 0.715(11) 1 d G U P A 1
C5R C 0.627(2) 0.6555(5) -0.0046(10) 0.097(3) Uiso 0.715(11) 1 d G U P A 1
F2R F 0.460(3) 0.6744(6) -0.1144(10) 0.111(3) Uiso 0.715(11) 1 d G U P A 1
C7R C 0.647(4) 0.7828(9) 0.0449(19) 0.097(3) Uiso 0.715(11) 1 d . U P A 1
H7R H 0.5246 0.7909 -0.0314 0.116 Uiso 0.715(11) 1 calc R U P A 1
C8R C 0.738(4) 0.8406(8) 0.116(2) 0.097(3) Uiso 0.715(11) 1 d . U P A 1
H8R H 0.8703 0.8370 0.1914 0.116 Uiso 0.715(11) 1 calc R U P A 1
C9R C 0.614(4) 0.9074(5) 0.0654(11) 0.097(3) Uiso 0.715(11) 1 d G U P A 1
O1R O 0.715(3) 0.9581(6) 0.1427(11) 0.100(4) Uiso 0.715(11) 1 d G U P A 1
H1R H 0.6480 0.9962 0.1137 0.150 Uiso 0.715(11) 1 calc R U P A 1
O2R O 0.439(3) 0.9187(7) -0.0316(11) 0.100(4) Uiso 0.715(11) 1 d G U P A 1
C6P1 C 0.873(7) 0.7033(12) 0.065(4) 0.097(3) Uiso 0.143(5) 1 d DG U P A 2
C1P1 C 0.963(7) 0.6796(15) 0.184(4) 0.097(3) Uiso 0.143(5) 1 d DG U P A 2
F1P1 F 1.124(10) 0.725(2) 0.266(4) 0.111(3) Uiso 0.143(5) 1 d G U P A 2
C2P1 C 0.894(11) 0.6121(18) 0.225(5) 0.097(3) Uiso 0.143(5) 1 d G U P A 2
H2P1 H 0.9737 0.6026 0.3091 0.116 Uiso 0.143(5) 1 d G U P A 2
C3P1 C 0.730(14) 0.5649(14) 0.144(6) 0.097(3) Uiso 0.143(5) 1 d G U P A 2
H3P1 H 0.6846 0.5173 0.1763 0.116 Uiso 0.143(5) 1 d G U P A 2
C4P1 C 0.629(11) 0.5851(14) 0.026(6) 0.097(3) Uiso 0.143(5) 1 d G U P A 2
H4P1 H 0.5143 0.5549 -0.0280 0.116 Uiso 0.143(5) 1 d G U P A 2
C5P1 C 0.701(8) 0.6531(14) -0.010(4) 0.097(3) Uiso 0.143(5) 1 d DG U P A 2
F2P1 F 0.590(10) 0.675(2) -0.126(4) 0.111(3) Uiso 0.143(5) 1 d G U P A 2
C7P1 C 0.986(7) 0.7749(12) 0.018(3) 0.097(3) Uiso 0.143(5) 1 d D U P A 2
H7P1 H 0.8752 0.7843 -0.0652 0.116 Uiso 0.143(5) 1 calc R U P A 2
C8P1 C 0.959(8) 0.8398(12) 0.103(4) 0.097(3) Uiso 0.143(5) 1 d D U P A 2
H8P1 H 0.8545 0.8271 0.1835 0.116 Uiso 0.143(5) 1 calc R U P A 2
C9P1 C 0.775(11) 0.9044(13) 0.049(4) 0.097(3) Uiso 0.143(5) 1 d DG U P A 2
O1P1 O 0.869(15) 0.9617(15) 0.110(5) 0.100(4) Uiso 0.143(5) 1 d DG U P A 2
H1P1 H 0.7603 0.9955 0.0781 0.150 Uiso 0.143(5) 1 calc R U P A 2
O2P1 O 0.610(19) 0.905(2) -0.051(4) 0.100(4) Uiso 0.143(5) 1 d DG U P A 2
C6P2 C 1.633(7) 0.7181(13) 0.055(3) 0.097(3) Uiso 0.143(5) 1 d DG U P A 3
C1P2 C 1.841(7) 0.7082(16) 0.165(3) 0.097(3) Uiso 0.143(5) 1 d DG U P A 3
F1P2 F 1.891(9) 0.764(2) 0.241(4) 0.111(3) Uiso 0.143(5) 1 d G U P A 3
C2P2 C 1.997(10) 0.645(2) 0.200(4) 0.097(3) Uiso 0.143(5) 1 d G U P A 3
H2P2 H 2.1324 0.6438 0.2738 0.116 Uiso 0.143(5) 1 d G U P A 3
C3P2 C 1.943(13) 0.5874(16) 0.124(5) 0.097(3) Uiso 0.143(5) 1 d G U P A 3
H3P2 H 2.0441 0.5408 0.1467 0.116 Uiso 0.143(5) 1 d G U P A 3
C4P2 C 1.737(12) 0.5930(14) 0.015(5) 0.097(3) Uiso 0.143(5) 1 d G U P A 3
H4P2 H 1.6774 0.5565 -0.0423 0.116 Uiso 0.143(5) 1 d G U P A 3
C5P2 C 1.590(9) 0.6577(14) -0.017(4) 0.097(3) Uiso 0.143(5) 1 d DG U P A 3
F2P2 F 1.392(12) 0.662(2) -0.125(4) 0.111(3) Uiso 0.143(5) 1 d G U P A 3
C7P2 C 1.423(7) 0.7839(12) 0.017(3) 0.097(3) Uiso 0.143(5) 1 d D U P A 3
H7P2 H 1.5033 0.8018 -0.0633 0.116 Uiso 0.143(5) 1 calc R U P A 3
C8P2 C 1.395(8) 0.8444(12) 0.114(3) 0.097(3) Uiso 0.143(5) 1 d D U P A 3
H8P2 H 1.4965 0.8324 0.1975 0.116 Uiso 0.143(5) 1 calc R U P A 3
C9P2 C 1.519(9) 0.9144(12) 0.067(4) 0.097(3) Uiso 0.143(5) 1 d DG U P A 3
O1P2 O 1.516(14) 0.9636(16) 0.152(5) 0.100(4) Uiso 0.143(5) 1 d DG U P A 3
H1P2 H 1.5850 1.0009 0.1219 0.150 Uiso 0.143(5) 1 calc R U P A 3
O2P2 O 1.596(18) 0.925(2) -0.041(4) 0.100(4) Uiso 0.143(5) 1 d DG U P A 3
loop_
_atom_type_symbol
_atom_type_description
_atom_type_scat_dispersion_real
_atom_type_scat_dispersion_imag
_atom_type_scat_source
C C 0.0033 0.0016 'International Tables Vol C Tables 4.2.6.8 and 6.1.1.4'
H H 0.0000 0.0000 'International Tables Vol C Tables 4.2.6.8 and 6.1.1.4'
O O 0.0106 0.0060 'International Tables Vol C Tables 4.2.6.8 and 6.1.1.4'
F F 0.0171 0.0103 'International Tables Vol C Tables 4.2.6.8 and 6.1.1.4'
loop_
_geom_angle_atom_site_label_1
_geom_angle_atom_site_label_2
_geom_angle_atom_site_label_3
_geom_angle
C5R C6R C1R 113.3
C5R C6R C7R 119.4(9)
C1R C6R C7R 127.3(9)
F1R C1R C2R 117.6
F1R C1R C6R 118.0
C2R C1R C6R 124.4
C1R C2R C3R 118.6
C1R C2R H2R 117.2
C3R C2R H2R 124.2
C4R C3R C2R 120.5
C4R C3R H3R 121.0
C2R C3R H3R 118.5
C3R C4R C5R 118.5
C3R C4R H4R 124.2
C5R C4R H4R 117.4
F2R C5R C4R 117.7
F2R C5R C6R 117.6
C4R C5R C6R 124.7
C8R C7R C6R 125.6(19)
C8R C7R H7R 117.2
C6R C7R H7R 117.2
C7R C8R C9R 115.3(18)
C7R C8R H8R 122.4
C9R C8R H8R 122.4
O2R C9R O1R 122.4
O2R C9R C8R 128.4(11)
O1R C9R C8R 109.2(11)
C9R O1R H1R 109.5
C1P1 C6P1 C5P1 113.9
C1P1 C6P1 C7P1 122.9(10)
C5P1 C6P1 C7P1 122.9(10)
F1P1 C1P1 C6P1 118.5
F1P1 C1P1 C2P1 117.8
C6P1 C1P1 C2P1 123.7
C3P1 C2P1 C1P1 119.2
C3P1 C2P1 H2P1 126.0
C1P1 C2P1 H2P1 114.8
C2P1 C3P1 C4P1 120.3
C2P1 C3P1 H3P1 117.2
C4P1 C3P1 H3P1 122.5
C3P1 C4P1 C5P1 118.4
C3P1 C4P1 H4P1 121.4
C5P1 C4P1 H4P1 120.3
F2P1 C5P1 C4P1 119.2
F2P1 C5P1 C6P1 116.2
C4P1 C5P1 C6P1 124.6
C6P1 C7P1 C8P1 119.8(15)
C6P1 C7P1 C7P2 112.1(11)
C8P1 C7P1 C7P2 89.9(8)
C6P1 C7P1 H7P1 111.1
C8P1 C7P1 H7P1 111.1
C7P2 C7P1 H7P1 111.1
C9P1 C8P1 C7P1 117.5(15)
C9P1 C8P1 C8P2 114.5(13)
C7P1 C8P1 C8P2 90.4(8)
C9P1 C8P1 H8P1 111.0
C7P1 C8P1 H8P1 111.0
C8P2 C8P1 H8P1 111.0
O2P1 C9P1 O1P1 123.3
O2P1 C9P1 C8P1 122.9(15)
O1P1 C9P1 C8P1 112.6(12)
C9P1 O1P1 H1P1 109.5
C1P2 C6P2 C5P2 114.0
C1P2 C6P2 C7P2 126.6(10)
C5P2 C6P2 C7P2 119.0(10)
F1P2 C1P2 C2P2 118.2
F1P2 C1P2 C6P2 117.7
C2P2 C1P2 C6P2 124.2
C1P2 C2P2 C3P2 118.8
C1P2 C2P2 H2P2 118.0
C3P2 C2P2 H2P2 123.2
C4P2 C3P2 C2P2 120.3
C4P2 C3P2 H3P2 117.8
C2P2 C3P2 H3P2 121.9
C3P2 C4P2 C5P2 118.6
C3P2 C4P2 H4P2 127.2
C5P2 C4P2 H4P2 114.2
F2P2 C5P2 C4P2 117.8
F2P2 C5P2 C6P2 118.1
C4P2 C5P2 C6P2 124.1
C6P2 C7P2 C8P2 118.3(14)
C6P2 C7P2 C7P1 113.9(12)
C8P2 C7P2 C7P1 89.5(8)
C6P2 C7P2 H7P2 111.1
C8P2 C7P2 H7P2 111.1
C7P1 C7P2 H7P2 111.1
C9P2 C8P2 C7P2 113.8(15)
C9P2 C8P2 C8P1 109.4(13)
C7P2 C8P2 C8P1 89.8(8)
C9P2 C8P2 H8P2 113.9
C7P2 C8P2 H8P2 113.9
C8P1 C8P2 H8P2 113.9
O2P2 C9P2 O1P2 123.5
O2P2 C9P2 C8P2 123.4(11)
O1P2 C9P2 C8P2 113.0(11)
C9P2 O1P2 H1P2 109.5
loop_
_geom_bond_atom_site_label_1
_geom_bond_atom_site_label_2
_geom_bond_distance
C6R C5R 1.3899
C6R C1R 1.3934
C6R C7R 1.474(19)
C1R F1R 1.3530
C1R C2R 1.3702
C2R C3R 1.3738
C2R H2R 0.9021
C3R C4R 1.3695
C3R H3R 0.9522
C4R C5R 1.3718
C4R H4R 0.9114
C5R F2R 1.3547
C7R C8R 1.37(2)
C7R H7R 0.9300
C8R C9R 1.446(18)
C8R H8R 0.9300
C9R O2R 1.2194
C9R O1R 1.3134
O1R H1R 0.8200
C6P1 C1P1 1.3794
C6P1 C5P1 1.3863
C6P1 C7P1 1.511(9)
C1P1 F1P1 1.3562
C1P1 C2P1 1.3804
C2P1 C3P1 1.3665
C2P1 H2P1 0.9538
C3P1 C4P1 1.3674
C3P1 H3P1 0.9808
C4P1 C5P1 1.3757
C4P1 H4P1 0.9029
C5P1 F2P1 1.3550
C7P1 C8P1 1.539(10)
C7P1 C7P2 1.599(10)
C7P1 H7P1 0.9800
C8P1 C9P1 1.502(9)
C8P1 C8P2 1.589(10)
C8P1 H8P1 0.9800
C9P1 O2P1 1.2185
C9P1 O1P1 1.3039
O1P1 H1P1 0.8200
C6P2 C1P2 1.3864
C6P2 C5P2 1.3878
C6P2 C7P2 1.513(9)
C1P2 F1P2 1.3553
C1P2 C2P2 1.3711
C2P2 C3P2 1.3731
C2P2 H2P2 0.9181
C3P2 C4P2 1.3720
C3P2 H3P2 0.9850
C4P2 C5P2 1.3767
C4P2 H4P2 0.9481
C5P2 F2P2 1.3510
C7P2 C8P2 1.552(10)
C7P2 H7P2 0.9800
C8P2 C9P2 1.495(9)
C8P2 H8P2 0.9800
C9P2 O2P2 1.2132
C9P2 O1P2 1.3057
O1P2 H1P2 0.8200
