#------------------------------------------------------------------------------
#$Date: 2016-08-06 03:50:55 +0300 (Sat, 06 Aug 2016) $
#$Revision: 185040 $
#$URL: file:///home/coder/svn-repositories/cod/cif/7/22/61/7226151.cif $
#------------------------------------------------------------------------------
#
# This file is available in the Crystallography Open Database (COD),
# http://www.crystallography.net/
#
# All data on this site have been placed in the public domain by the
# contributors.
#
data_7226151
loop_
_publ_author_name
'Khavasi, Hamid Reza'
'Kavand, Sima'
_publ_section_title
;
 \p-Stacking synthon repetitivity in coordination compounds
;
_journal_issue                   25
_journal_name_full               CrystEngComm
_journal_page_first              4760
_journal_paper_doi               10.1039/C6CE00838K
_journal_volume                  18
_journal_year                    2016
_chemical_formula_sum            'C15 H10 Br2 Cl Hg N3 O'
_chemical_formula_weight         644.10
_chemical_name_systematic
; 
 ? 
;
_space_group_IT_number           2
_symmetry_cell_setting           triclinic
_symmetry_space_group_name_Hall  '-P 1'
_symmetry_space_group_name_H-M   'P -1'
_atom_sites_solution_hydrogens   geom
_atom_sites_solution_primary     direct
_atom_sites_solution_secondary   difmap
_audit_creation_method           SHELXL-97
_audit_update_record
;
2014-07-29 deposited with the CCDC.
2016-05-24 downloaded from the CCDC.
;
_cell_angle_alpha                76.986(8)
_cell_angle_beta                 80.953(9)
_cell_angle_gamma                75.314(9)
_cell_formula_units_Z            2
_cell_length_a                   7.8587(9)
_cell_length_b                   9.8104(10)
_cell_length_c                   11.5257(13)
_cell_measurement_reflns_used    9109
_cell_measurement_temperature    298(2)
_cell_measurement_theta_max      29.20
_cell_measurement_theta_min      1.82
_cell_volume                     832.75(16)
_computing_cell_refinement       'X-Area 1.31 (Stoe & Cie GmbH, 2005)'
_computing_data_collection       'X-Area 1.31 (Stoe & Cie GmbH, 2005)'
_computing_data_reduction        'X-Area 1.31 (Stoe & Cie GmbH, 2005)'
_computing_molecular_graphics    'ORTEP-3 for Windows (Farrugia, 1997)'
_computing_publication_material  'WinGX (Farrugia, 1999)'
_computing_structure_refinement  'SHELXL-97 (Sheldrick, 1997)'
_computing_structure_solution    'SHELXS-97 (Sheldrick, 1990)'
_diffrn_ambient_temperature      298(2)
_diffrn_detector_area_resol_mean '0.15 mm'
_diffrn_measured_fraction_theta_full 0.987
_diffrn_measured_fraction_theta_max 0.987
_diffrn_measurement_device_type  'STOE IPDS II'
_diffrn_measurement_method       'rotation method'
_diffrn_radiation_monochromator  graphite
_diffrn_radiation_source         'fine-focus sealed tube'
_diffrn_radiation_type           MoK\a
_diffrn_radiation_wavelength     0.71073
_diffrn_reflns_av_R_equivalents  0.0645
_diffrn_reflns_av_sigmaI/netI    0.0623
_diffrn_reflns_limit_h_max       9
_diffrn_reflns_limit_h_min       -10
_diffrn_reflns_limit_k_max       13
_diffrn_reflns_limit_k_min       -13
_diffrn_reflns_limit_l_max       15
_diffrn_reflns_limit_l_min       -15
_diffrn_reflns_number            9109
_diffrn_reflns_theta_full        29.20
_diffrn_reflns_theta_max         29.20
_diffrn_reflns_theta_min         1.82
_diffrn_standards_number         0
_exptl_absorpt_coefficient_mu    14.205
_exptl_absorpt_correction_T_max  0.212
_exptl_absorpt_correction_T_min  0.140
_exptl_absorpt_correction_type   numerical
_exptl_absorpt_process_details   'shape of crystal determined optically'
_exptl_crystal_colour            Yellow
_exptl_crystal_density_diffrn    2.569
_exptl_crystal_density_method    'not measured'
_exptl_crystal_description       Block
_exptl_crystal_F_000             592
_exptl_crystal_size_max          0.15
_exptl_crystal_size_mid          0.12
_exptl_crystal_size_min          0.11
_refine_diff_density_max         1.086
_refine_diff_density_min         -1.077
_refine_diff_density_rms         0.172
_refine_ls_extinction_method     none
_refine_ls_goodness_of_fit_ref   1.049
_refine_ls_hydrogen_treatment    constr
_refine_ls_matrix_type           full
_refine_ls_number_parameters     208
_refine_ls_number_reflns         4459
_refine_ls_number_restraints     0
_refine_ls_restrained_S_all      1.049
_refine_ls_R_factor_all          0.0756
_refine_ls_R_factor_gt           0.0479
_refine_ls_shift/su_max          0.008
_refine_ls_shift/su_mean         0.000
_refine_ls_structure_factor_coef Fsqd
_refine_ls_weighting_details
'calc w=1/[\s^2^(Fo^2^)+(0.0463P)^2^+0.9574P] where P=(Fo^2^+2Fc^2^)/3'
_refine_ls_weighting_scheme      calc
_refine_ls_wR_factor_gt          0.0975
_refine_ls_wR_factor_ref         0.1078
_reflns_number_gt                3293
_reflns_number_total             4459
_reflns_threshold_expression     >2sigma(I)
_cod_data_source_file            c6ce00838k2.cif
_cod_data_source_block           d:\determination\solution\kh488\kh488-2
_cod_depositor_comments
;
The following automatic conversions were performed:

'_symmetry_cell_setting' value 'Triclinic' changed to 'triclinic'
according to
/usr/data/users/saulius/crontab/automatic-downloads/current/RSC/lib/dictionaries/cif_core.dic
dictionary named 'cif_core.dic' version 2.4.2 from 2011-04-26.

Automatic conversion script
Id: cif_fix_values 4268 2015-11-12 08:31:59Z antanas 
;
_cod_original_sg_symbol_H-M      P-1
_cod_original_formula_sum        'C15 H10 Br2 Cl1 Hg1 N3 O1'
_cod_database_code               7226151
loop_
_symmetry_equiv_pos_as_xyz
'x, y, z'
'-x, -y, -z'
loop_
_atom_site_label
_atom_site_type_symbol
_atom_site_fract_x
_atom_site_fract_y
_atom_site_fract_z
_atom_site_U_iso_or_equiv
_atom_site_adp_type
_atom_site_occupancy
_atom_site_symmetry_multiplicity
_atom_site_calc_flag
_atom_site_refinement_flags
C1 C 0.4687(11) 0.8920(8) 0.2881(7) 0.0465(18) Uani 1 1 d .
H1 H 0.5048 0.9752 0.2485 0.056 Uiso 1 1 calc R
C2 C 0.5209(11) 0.7696(8) 0.2387(7) 0.0465(17) Uani 1 1 d .
H2 H 0.5904 0.7739 0.1653 0.056 Uiso 1 1 calc R
C3 C 0.3772(10) 0.6479(8) 0.3951(6) 0.0408(16) Uani 1 1 d .
H3 H 0.3412 0.5645 0.4343 0.049 Uiso 1 1 calc R
C4 C 0.3262(9) 0.7667(7) 0.4467(6) 0.0362(14) Uani 1 1 d .
C5 C 0.2148(10) 0.7635(8) 0.5666(6) 0.0382(15) Uani 1 1 d .
C6 C 0.0535(10) 0.9384(8) 0.6966(6) 0.0383(14) Uani 1 1 d .
C7 C -0.0273(11) 0.8447(8) 0.7828(7) 0.0461(18) Uani 1 1 d .
H7 H -0.0142 0.7504 0.7743 0.055 Uiso 1 1 calc R
C8 C -0.1303(11) 0.8942(9) 0.8840(7) 0.0501(19) Uani 1 1 d .
H8 H -0.1842 0.8315 0.9422 0.060 Uiso 1 1 calc R
C9 C -0.1510(10) 1.0297(9) 0.8971(7) 0.0456(17) Uani 1 1 d .
C10 C -0.0686(10) 1.1310(8) 0.8125(6) 0.0402(16) Uani 1 1 d .
C11 C -0.0849(11) 1.2721(9) 0.8251(8) 0.0495(19) Uani 1 1 d .
H11 H -0.1506 1.3032 0.8925 0.059 Uiso 1 1 calc R
C12 C -0.0072(11) 1.3645(9) 0.7414(8) 0.0491(19) Uani 1 1 d .
H12 H -0.0175 1.4572 0.7528 0.059 Uiso 1 1 calc R
C13 C 0.0890(12) 1.3214(8) 0.6375(8) 0.0508(19) Uani 1 1 d .
H13 H 0.1382 1.3863 0.5785 0.061 Uiso 1 1 calc R
C14 C 0.1098(10) 1.1834(8) 0.6235(7) 0.0429(16) Uani 1 1 d .
H14 H 0.1765 1.1552 0.5552 0.052 Uiso 1 1 calc R
C15 C 0.0341(9) 1.0829(7) 0.7083(6) 0.0350(14) Uani 1 1 d .
N1 N 0.3668(9) 0.8907(6) 0.3924(5) 0.0424(14) Uani 1 1 d .
N2 N 0.4770(8) 0.6483(7) 0.2903(5) 0.0410(13) Uani 1 1 d .
N3 N 0.1540(9) 0.8968(6) 0.5929(5) 0.0424(14) Uani 1 1 d .
H3B H 0.1809 0.9658 0.5382 0.051 Uiso 1 1 calc R
O1 O 0.1905(8) 0.6501(6) 0.6302(5) 0.0499(13) Uani 1 1 d .
Hg1 Hg 0.55710(5) 0.43391(3) 0.18878(3) 0.04771(12) Uani 1 1 d .
Cl1 Cl -0.2897(3) 1.0879(3) 1.01973(19) 0.0616(6) Uani 1 1 d .
Br1 Br 0.38552(13) 0.27745(10) 0.32178(8) 0.0600(2) Uani 1 1 d .
Br2 Br 0.74271(13) 0.53834(10) 0.02144(8) 0.0603(2) Uani 1 1 d .
loop_
_atom_site_aniso_label
_atom_site_aniso_U_11
_atom_site_aniso_U_22
_atom_site_aniso_U_33
_atom_site_aniso_U_23
_atom_site_aniso_U_13
_atom_site_aniso_U_12
C1 0.054(5) 0.036(4) 0.047(4) -0.002(3) -0.002(3) -0.014(3)
C2 0.050(4) 0.042(4) 0.043(4) -0.002(3) 0.006(3) -0.014(3)
C3 0.054(4) 0.034(3) 0.036(3) -0.006(3) -0.001(3) -0.014(3)
C4 0.037(4) 0.031(3) 0.037(3) -0.005(3) -0.003(3) -0.003(3)
C5 0.043(4) 0.036(4) 0.034(3) -0.007(3) -0.003(3) -0.007(3)
C6 0.044(4) 0.034(3) 0.039(3) -0.008(3) -0.005(3) -0.010(3)
C7 0.062(5) 0.036(4) 0.042(4) -0.008(3) 0.004(3) -0.020(3)
C8 0.059(5) 0.047(4) 0.040(4) -0.003(3) 0.010(3) -0.017(4)
C9 0.048(4) 0.048(4) 0.039(4) -0.008(3) 0.004(3) -0.013(3)
C10 0.045(4) 0.035(4) 0.037(3) -0.002(3) 0.001(3) -0.008(3)
C11 0.054(5) 0.044(4) 0.053(5) -0.019(4) -0.002(4) -0.009(4)
C12 0.050(5) 0.043(4) 0.059(5) -0.016(4) -0.002(4) -0.017(4)
C13 0.064(5) 0.035(4) 0.053(4) -0.005(3) 0.001(4) -0.019(4)
C14 0.046(4) 0.036(4) 0.045(4) -0.004(3) 0.003(3) -0.014(3)
C15 0.036(4) 0.032(3) 0.034(3) -0.003(3) 0.004(3) -0.011(3)
N1 0.057(4) 0.035(3) 0.038(3) -0.008(3) 0.001(3) -0.018(3)
N2 0.042(3) 0.041(3) 0.040(3) -0.011(3) 0.003(3) -0.011(3)
N3 0.058(4) 0.033(3) 0.033(3) -0.003(2) 0.006(3) -0.016(3)
O1 0.062(4) 0.036(3) 0.049(3) -0.006(2) 0.006(3) -0.015(2)
Hg1 0.0594(2) 0.04216(16) 0.04029(16) -0.00669(11) 0.00684(12) -0.01769(13)
Cl1 0.0673(14) 0.0679(13) 0.0437(10) -0.0144(10) 0.0163(9) -0.0154(11)
Br1 0.0709(6) 0.0571(5) 0.0546(5) 0.0008(4) -0.0006(4) -0.0329(4)
Br2 0.0779(6) 0.0561(5) 0.0485(4) -0.0173(4) 0.0215(4) -0.0289(4)
loop_
_atom_type_symbol
_atom_type_description
_atom_type_scat_dispersion_real
_atom_type_scat_dispersion_imag
_atom_type_scat_source
C C 0.0033 0.0016 'International Tables Vol C Tables 4.2.6.8 and 6.1.1.4'
H H 0.0000 0.0000 'International Tables Vol C Tables 4.2.6.8 and 6.1.1.4'
N N 0.0061 0.0033 'International Tables Vol C Tables 4.2.6.8 and 6.1.1.4'
O O 0.0106 0.0060 'International Tables Vol C Tables 4.2.6.8 and 6.1.1.4'
Hg Hg -2.3894 9.2266 'International Tables Vol C Tables 4.2.6.8 and 6.1.1.4'
Cl Cl 0.1484 0.1585 'International Tables Vol C Tables 4.2.6.8 and 6.1.1.4'
Br Br -0.2901 2.4595 'International Tables Vol C Tables 4.2.6.8 and 6.1.1.4'
loop_
_geom_angle_atom_site_label_1
_geom_angle_atom_site_label_2
_geom_angle_atom_site_label_3
_geom_angle
N1 C1 C2 120.2(7)
N1 C1 H1 119.9
C2 C1 H1 119.9
N2 C2 C1 123.1(7)
N2 C2 H2 118.4
C1 C2 H2 118.4
N2 C3 C4 121.9(7)
N2 C3 H3 119.1
C4 C3 H3 119.1
N1 C4 C3 121.8(6)
N1 C4 C5 117.1(6)
C3 C4 C5 121.1(6)
O1 C5 N3 126.5(6)
O1 C5 C4 121.5(6)
N3 C5 C4 111.9(6)
C7 C6 N3 121.9(6)
C7 C6 C15 121.0(6)
N3 C6 C15 117.1(6)
C6 C7 C8 119.2(7)
C6 C7 H7 120.4
C8 C7 H7 120.4
C9 C8 C7 121.0(7)
C9 C8 H8 119.5
C7 C8 H8 119.5
C8 C9 C10 122.5(7)
C8 C9 Cl1 119.1(6)
C10 C9 Cl1 118.4(6)
C11 C10 C9 123.7(7)
C11 C10 C15 119.2(7)
C9 C10 C15 117.1(6)
C12 C11 C10 121.4(7)
C12 C11 H11 119.3
C10 C11 H11 119.3
C11 C12 C13 120.4(7)
C11 C12 H12 119.8
C13 C12 H12 119.8
C14 C13 C12 119.5(7)
C14 C13 H13 120.2
C12 C13 H13 120.2
C13 C14 C15 122.3(7)
C13 C14 H14 118.9
C15 C14 H14 118.9
C14 C15 C6 123.7(6)
C14 C15 C10 117.1(6)
C6 C15 C10 119.2(6)
C4 N1 C1 116.8(6)
C2 N2 C3 116.1(6)
C2 N2 Hg1 121.7(5)
C3 N2 Hg1 122.1(5)
C5 N3 C6 129.5(6)
C5 N3 H3B 115.3
C6 N3 H3B 115.3
Br1 Hg1 Br2 163.59(3)
Br1 Hg1 N2 100.72(13)
Br2 Hg1 N2 95.52(13)
loop_
_geom_bond_atom_site_label_1
_geom_bond_atom_site_label_2
_geom_bond_distance
C1 N1 1.335(9)
C1 C2 1.385(11)
C1 H1 0.9300
C2 N2 1.309(9)
C2 H2 0.9300
C3 N2 1.332(9)
C3 C4 1.369(9)
C3 H3 0.9300
C4 N1 1.328(9)
C4 C5 1.514(9)
C5 O1 1.228(9)
C5 N3 1.359(9)
C6 C7 1.386(10)
C6 N3 1.407(8)
C6 C15 1.421(9)
C7 C8 1.418(10)
C7 H7 0.9300
C8 C9 1.338(11)
C8 H8 0.9300
C9 C10 1.432(10)
C9 Cl1 1.754(7)
C10 C11 1.395(10)
C10 C15 1.440(9)
C11 C12 1.351(12)
C11 H11 0.9300
C12 C13 1.402(11)
C12 H12 0.9300
C13 C14 1.364(10)
C13 H13 0.9300
C14 C15 1.401(9)
C14 H14 0.9300
N2 Hg1 2.528(6)
N3 H3B 0.8600
Hg1 Br1 2.4215(9)
Hg1 Br2 2.4249(9)
loop_
_geom_torsion_atom_site_label_1
_geom_torsion_atom_site_label_2
_geom_torsion_atom_site_label_3
_geom_torsion_atom_site_label_4
_geom_torsion
N1 C1 C2 N2 -0.9(13)
N2 C3 C4 N1 3.1(12)
N2 C3 C4 C5 -179.2(7)
N1 C4 C5 O1 -170.3(7)
C3 C4 C5 O1 11.9(11)
N1 C4 C5 N3 8.0(10)
C3 C4 C5 N3 -169.8(7)
N3 C6 C7 C8 -178.6(7)
C15 C6 C7 C8 -0.2(12)
C6 C7 C8 C9 0.3(13)
C7 C8 C9 C10 -1.4(14)
C7 C8 C9 Cl1 176.4(7)
C8 C9 C10 C11 -178.6(9)
Cl1 C9 C10 C11 3.5(11)
C8 C9 C10 C15 2.3(12)
Cl1 C9 C10 C15 -175.6(6)
C9 C10 C11 C12 -178.7(8)
C15 C10 C11 C12 0.4(13)
C10 C11 C12 C13 1.6(13)
C11 C12 C13 C14 -2.6(14)
C12 C13 C14 C15 1.7(13)
C13 C14 C15 C6 -179.9(8)
C13 C14 C15 C10 0.2(12)
C7 C6 C15 C14 -178.9(8)
N3 C6 C15 C14 -0.4(11)
C7 C6 C15 C10 1.1(12)
N3 C6 C15 C10 179.6(7)
C11 C10 C15 C14 -1.2(11)
C9 C10 C15 C14 177.9(7)
C11 C10 C15 C6 178.8(7)
C9 C10 C15 C6 -2.1(11)
C3 C4 N1 C1 -3.9(12)
C5 C4 N1 C1 178.4(7)
C2 C1 N1 C4 2.8(12)
C1 C2 N2 C3 0.1(12)
C1 C2 N2 Hg1 175.4(6)
C4 C3 N2 C2 -1.1(12)
C4 C3 N2 Hg1 -176.4(5)
O1 C5 N3 C6 1.1(14)
C4 C5 N3 C6 -177.1(7)
C7 C6 N3 C5 -12.1(13)
C15 C6 N3 C5 169.5(7)
C2 N2 Hg1 Br1 -169.9(6)
C3 N2 Hg1 Br1 5.2(6)
C2 N2 Hg1 Br2 7.8(6)
C3 N2 Hg1 Br2 -177.1(6)
