#------------------------------------------------------------------------------
#$Date: 2016-10-08 00:58:55 +0300 (Sat, 08 Oct 2016) $
#$Revision: 187053 $
#$URL: file:///home/coder/svn-repositories/cod/cif/7/22/61/7226122.cif $
#------------------------------------------------------------------------------
#
# This file is available in the Crystallography Open Database (COD),
# http://www.crystallography.net/
#
# All data on this site have been placed in the public domain by the
# contributors.
#
data_7226122
loop_
_publ_author_name
'Koshti, Vijay S.'
'Thorat, Shridhar H.'
'Gote, Ravindra P.'
'Chikkali, Samir H.'
'Gonnade, Rajesh G.'
_publ_section_title
;
 The impact of modular substitution on crystal packing: the tale of two
 ureas
;
_journal_issue                   37
_journal_name_full               CrystEngComm
_journal_page_first              7078
_journal_paper_doi               10.1039/C6CE01324D
_journal_volume                  18
_journal_year                    2016
_chemical_formula_moiety         'C7 H7 I N2 O'
_chemical_formula_sum            'C7 H7 I N2 O'
_chemical_formula_weight         262.05
_chemical_name_systematic
;
 ?
;
_space_group_crystal_system      monoclinic
_space_group_IT_number           14
_space_group_name_Hall           '-P 2ybc'
_space_group_name_H-M_alt        'P 1 21/c 1'
_symmetry_space_group_name_Hall  '-P 2ybc'
_symmetry_space_group_name_H-M   'P 1 21/c 1'
_atom_sites_solution_hydrogens   mixed
_audit_creation_method           SHELXL-2013
_audit_update_record
;
2016-07-21 deposited with the CCDC.
2016-08-04 downloaded from the CCDC.
;
_cell_angle_alpha                90
_cell_angle_beta                 90.047(3)
_cell_angle_gamma                90
_cell_formula_units_Z            4
_cell_length_a                   11.8183(6)
_cell_length_b                   7.9251(4)
_cell_length_c                   8.9570(5)
_cell_measurement_reflns_used    5909
_cell_measurement_temperature    296(2)
_cell_measurement_theta_max      34.62
_cell_measurement_theta_min      3.84
_cell_volume                     838.92(8)
_computing_cell_refinement       'Bruker SAINT'
_computing_data_collection       'Bruker APEX2'
_computing_data_reduction        'Bruker SAINT'
_computing_molecular_graphics    'Bruker SHELXTL'
_computing_publication_material  'Bruker SHELXTL'
_computing_structure_refinement  'SHELXL-2013 (Sheldrick, 2013)'
_computing_structure_solution    'SHELXL-2013 (Sheldrick, 2013)'
_diffrn_ambient_temperature      296(2)
_diffrn_measured_fraction_theta_full 0.995
_diffrn_measured_fraction_theta_max 0.996
_diffrn_measurement_device_type  'Bruker APEX-II CCD'
_diffrn_measurement_method       '\f and \w scans'
_diffrn_radiation_type           MoK\a
_diffrn_radiation_wavelength     0.71073
_diffrn_reflns_av_R_equivalents  0.0471
_diffrn_reflns_av_unetI/netI     0.0391
_diffrn_reflns_Laue_measured_fraction_full 0.995
_diffrn_reflns_Laue_measured_fraction_max 0.996
_diffrn_reflns_limit_h_max       18
_diffrn_reflns_limit_h_min       -18
_diffrn_reflns_limit_k_max       11
_diffrn_reflns_limit_k_min       -12
_diffrn_reflns_limit_l_max       14
_diffrn_reflns_limit_l_min       -14
_diffrn_reflns_number            13070
_diffrn_reflns_point_group_measured_fraction_full 0.995
_diffrn_reflns_point_group_measured_fraction_max 0.996
_diffrn_reflns_theta_full        25.242
_diffrn_reflns_theta_max         34.778
_diffrn_reflns_theta_min         3.842
_diffrn_source                   'sealed tube'
_exptl_absorpt_coefficient_mu    3.760
_exptl_absorpt_correction_T_max  0.379
_exptl_absorpt_correction_T_min  0.282
_exptl_absorpt_correction_type   multi-scan
_exptl_absorpt_process_details   SADABS,(BRUKER,2006)
_exptl_crystal_colour            COLOURLESS
_exptl_crystal_density_diffrn    2.075
_exptl_crystal_description       BLOCK
_exptl_crystal_F_000             496
_exptl_crystal_size_max          0.450
_exptl_crystal_size_mid          0.410
_exptl_crystal_size_min          0.320
_refine_diff_density_max         1.392
_refine_diff_density_min         -0.987
_refine_diff_density_rms         0.124
_refine_ls_extinction_method     none
_refine_ls_goodness_of_fit_ref   1.050
_refine_ls_hydrogen_treatment    mixed
_refine_ls_matrix_type           full
_refine_ls_number_parameters     112
_refine_ls_number_reflns         3612
_refine_ls_number_restraints     0
_refine_ls_restrained_S_all      1.050
_refine_ls_R_factor_all          0.0461
_refine_ls_R_factor_gt           0.0369
_refine_ls_shift/su_max          0.001
_refine_ls_shift/su_mean         0.000
_refine_ls_structure_factor_coef Fsqd
_refine_ls_weighting_details
'w=1/[\s^2^(Fo^2^)+(0.0396P)^2^+0.4754P] where P=(Fo^2^+2Fc^2^)/3'
_refine_ls_weighting_scheme      calc
_refine_ls_wR_factor_gt          0.0899
_refine_ls_wR_factor_ref         0.0952
_reflns_Friedel_coverage         0.000
_reflns_number_gt                2975
_reflns_number_total             3612
_reflns_threshold_expression     'I > 2\s(I)'
_cod_data_source_file            c6ce01324d2.cif
_cod_data_source_block           2_IODO
_cod_depositor_comments
;
The following automatic conversions were performed:

'_exptl_absorpt_correction_type' value 'MULTI-SCAN' changed to
'multi-scan' according to
/usr/data/users/saulius/crontab/automatic-downloads/rss-feeds/RSC/lib/dictionaries/cif_core.dic
dictionary named 'cif_core.dic' version 2.4.2 from 2011-04-26.

Automatic conversion script
Id: cif_fix_values 4268 2015-11-12 08:31:59Z antanas 

 Adding full bibliography for 7226122--7226134.cif.
;
_cod_database_code               7226122
_shelx_space_group_comment
;
The symmetry employed for this shelxl refinement is uniquely defined
by the following loop, which should always be used as a source of
symmetry information in preference to the above space-group names.
They are only intended as comments.
;
_shelx_estimated_absorpt_t_min   0.282
_shelx_estimated_absorpt_t_max   0.379
_shelxl_version_number           2013-3
_shelx_res_file
;
TITL
CELL 0.71073 11.8183 7.9251 8.9570 90.000 90.047 90.000
ZERR 4.00 0.0006 0.0004 0.0005 0.000 0.003 0.000
LATT 1
SYMM -x, y+1/2, -z+1/2
SFAC C  H  N  O  I
UNIT 28  28  8  4  4
L.S. 30
ACTA
BOND $H
FMAP 2
PLAN 2
CONF
SIZE 0.45 0.41 0.32
TEMP 23.000
WGHT    0.039600    0.475400
FVAR       0.14077
I1    5    0.390381    0.171499   -0.048912    11.00000    0.04141    0.04173 =
         0.05627   -0.00122   -0.00036    0.01031
O1    4    0.090660    0.175367   -0.064040    11.00000    0.04403    0.04854 =
         0.01813   -0.00096    0.00035   -0.01425
N1    3    0.170225    0.321323    0.128087    11.00000    0.04103    0.04373 =
         0.02091   -0.00368    0.00311   -0.01228
N2    3    0.068332    0.081919    0.173312    11.00000    0.05276    0.05092 =
         0.02083    0.00361    0.00073   -0.02137
C1    1    0.108246    0.191135    0.072436    11.00000    0.02966    0.03705 =
         0.01908   -0.00103    0.00240   -0.00427
C2    1    0.219734    0.444819    0.034567    11.00000    0.03152    0.03394 =
         0.02570   -0.00435    0.00096   -0.00414
C3    1    0.315008    0.410270   -0.051832    11.00000    0.03136    0.02960 =
         0.02925   -0.00214    0.00088   -0.00299
C4    1    0.362642    0.534516   -0.141236    11.00000    0.04338    0.04185 =
         0.04250    0.00060    0.00983   -0.01029
AFIX  43
H4    2    0.426735    0.510791   -0.197632    11.00000   -1.20000
AFIX   0
C5    1    0.314724    0.693344   -0.146298    11.00000    0.06417    0.03539 =
         0.05374    0.00757    0.00174   -0.01376
AFIX  43
H5    2    0.345429    0.775716   -0.208131    11.00000   -1.20000
AFIX   0
C6    1    0.221726    0.729893   -0.060105    11.00000    0.06129    0.03046 =
         0.06693    0.00085   -0.00372    0.00228
AFIX  43
H6    2    0.191076    0.837962   -0.061598    11.00000   -1.20000
AFIX   0
C7    1    0.173479    0.606639    0.028893    11.00000    0.04186    0.04067 =
         0.04942   -0.01123    0.00543    0.00219
AFIX  43
H7    2    0.109698    0.631905    0.085380    11.00000   -1.20000
AFIX   0
H1    2    0.168837    0.344702    0.226819    11.00000    0.05651
H2A   2    0.077879    0.100652    0.266697    11.00000    0.04892
H2B   2    0.033569    0.004587    0.148013    11.00000    0.04059
HKLF 4 1 1 0 0 0 1 0 0 0 1

REM
REM R1 =  0.0369 for    2975 Fo > 4sig(Fo)  and  0.0461 for all    3612 data
REM    112 parameters refined using      0 restraints

END

WGHT      0.0398      0.4671

REM Highest difference peak  1.392,  deepest hole -0.987,  1-sigma level  0.124
Q1    1   0.4629  0.1733 -0.0342  11.00000  0.05    1.39
Q2    1   0.3219  0.1711 -0.0632  11.00000  0.05    1.20
;
_shelx_res_checksum              67775
loop_
_space_group_symop_operation_xyz
'x, y, z'
'-x, y+1/2, -z+1/2'
'-x, -y, -z'
'x, -y-1/2, z-1/2'
loop_
_atom_site_label
_atom_site_type_symbol
_atom_site_fract_x
_atom_site_fract_y
_atom_site_fract_z
_atom_site_U_iso_or_equiv
_atom_site_adp_type
_atom_site_occupancy
_atom_site_site_symmetry_order
_atom_site_calc_flag
_atom_site_refinement_flags_posn
_atom_site_refinement_flags_adp
I1 I 0.39038(2) 0.17150(2) -0.04891(2) 0.04647(8) Uani 1 1 d . .
O1 O 0.09066(16) 0.1754(2) -0.06404(16) 0.0369(4) Uani 1 1 d . .
N1 N 0.17022(18) 0.3213(3) 0.1281(2) 0.0352(4) Uani 1 1 d . .
N2 N 0.0683(2) 0.0819(3) 0.1733(2) 0.0415(5) Uani 1 1 d . .
C1 C 0.10825(16) 0.1911(3) 0.0724(2) 0.0286(4) Uani 1 1 d . .
C2 C 0.21973(18) 0.4448(3) 0.0346(2) 0.0304(4) Uani 1 1 d . .
C3 C 0.31501(18) 0.4103(3) -0.0518(2) 0.0301(4) Uani 1 1 d . .
C4 C 0.3626(2) 0.5345(4) -0.1412(3) 0.0426(5) Uani 1 1 d . .
H4 H 0.4267 0.5108 -0.1976 0.051 Uiso 1 1 calc R U
C5 C 0.3147(3) 0.6933(4) -0.1463(4) 0.0511(7) Uani 1 1 d . .
H5 H 0.3454 0.7757 -0.2081 0.061 Uiso 1 1 calc R U
C6 C 0.2217(3) 0.7299(4) -0.0601(4) 0.0529(7) Uani 1 1 d . .
H6 H 0.1911 0.8380 -0.0616 0.063 Uiso 1 1 calc R U
C7 C 0.1735(2) 0.6066(4) 0.0289(3) 0.0440(5) Uani 1 1 d . .
H7 H 0.1097 0.6319 0.0854 0.053 Uiso 1 1 calc R U
H1 H 0.169(4) 0.345(4) 0.227(5) 0.057(11) Uiso 1 1 d . .
H2A H 0.078(3) 0.101(5) 0.267(4) 0.049(9) Uiso 1 1 d . .
H2B H 0.034(3) 0.005(4) 0.148(4) 0.041(8) Uiso 1 1 d . .
loop_
_atom_site_aniso_label
_atom_site_aniso_U_11
_atom_site_aniso_U_22
_atom_site_aniso_U_33
_atom_site_aniso_U_23
_atom_site_aniso_U_13
_atom_site_aniso_U_12
I1 0.04141(10) 0.04173(11) 0.05627(12) -0.00122(7) -0.00036(7) 0.01031(6)
O1 0.0440(9) 0.0485(10) 0.0181(5) -0.0010(5) 0.0003(5) -0.0142(7)
N1 0.0410(10) 0.0437(11) 0.0209(6) -0.0037(6) 0.0031(6) -0.0123(8)
N2 0.0528(12) 0.0509(13) 0.0208(7) 0.0036(7) 0.0007(7) -0.0214(10)
C1 0.0297(8) 0.0370(11) 0.0191(7) -0.0010(6) 0.0024(6) -0.0043(7)
C2 0.0315(9) 0.0339(10) 0.0257(8) -0.0043(7) 0.0010(6) -0.0041(7)
C3 0.0314(9) 0.0296(9) 0.0292(8) -0.0021(7) 0.0009(7) -0.0030(7)
C4 0.0434(12) 0.0418(13) 0.0425(11) 0.0006(10) 0.0098(9) -0.0103(10)
C5 0.0642(18) 0.0354(13) 0.0537(15) 0.0076(11) 0.0017(13) -0.0138(12)
C6 0.0613(17) 0.0305(12) 0.0669(18) 0.0009(12) -0.0037(14) 0.0023(12)
C7 0.0419(12) 0.0407(13) 0.0494(13) -0.0112(11) 0.0054(10) 0.0022(10)
loop_
_atom_type_symbol
_atom_type_description
_atom_type_scat_dispersion_real
_atom_type_scat_dispersion_imag
_atom_type_scat_source
C C 0.0033 0.0016 'International Tables Vol C Tables 4.2.6.8 and 6.1.1.4'
H H 0.0000 0.0000 'International Tables Vol C Tables 4.2.6.8 and 6.1.1.4'
N N 0.0061 0.0033 'International Tables Vol C Tables 4.2.6.8 and 6.1.1.4'
O O 0.0106 0.0060 'International Tables Vol C Tables 4.2.6.8 and 6.1.1.4'
I I -0.4742 1.8119 'International Tables Vol C Tables 4.2.6.8 and 6.1.1.4'
loop_
_geom_angle_atom_site_label_1
_geom_angle_atom_site_label_2
_geom_angle_atom_site_label_3
_geom_angle
C1 N1 C2 122.05(17)
C1 N1 H1 120(2)
C2 N1 H1 116(2)
C1 N2 H2A 120(3)
C1 N2 H2B 120(3)
H2A N2 H2B 120(4)
O1 C1 N2 122.6(2)
O1 C1 N1 121.67(19)
N2 C1 N1 115.70(18)
C3 C2 C7 118.5(2)
C3 C2 N1 121.8(2)
C7 C2 N1 119.7(2)
C4 C3 C2 120.6(2)
C4 C3 I1 118.41(17)
C2 C3 I1 120.99(16)
C5 C4 C3 119.9(2)
C5 C4 H4 120.0
C3 C4 H4 120.0
C6 C5 C4 120.1(3)
C6 C5 H5 119.9
C4 C5 H5 119.9
C5 C6 C7 120.3(3)
C5 C6 H6 119.8
C7 C6 H6 119.8
C6 C7 C2 120.5(2)
C6 C7 H7 119.7
C2 C7 H7 119.7
loop_
_geom_bond_atom_site_label_1
_geom_bond_atom_site_label_2
_geom_bond_distance
I1 C3 2.092(2)
O1 C1 1.246(2)
N1 C1 1.360(3)
N1 C2 1.415(3)
N1 H1 0.90(4)
N2 C1 1.337(3)
N2 H2A 0.86(4)
N2 H2B 0.77(4)
C2 C3 1.394(3)
C2 C7 1.395(4)
C3 C4 1.389(3)
C4 C5 1.381(4)
C4 H4 0.9300
C5 C6 1.375(5)
C5 H5 0.9300
C6 C7 1.384(4)
C6 H6 0.9300
C7 H7 0.9300
loop_
_geom_torsion_atom_site_label_1
_geom_torsion_atom_site_label_2
_geom_torsion_atom_site_label_3
_geom_torsion_atom_site_label_4
_geom_torsion
C2 N1 C1 O1 -1.0(4)
C2 N1 C1 N2 178.7(2)
C1 N1 C2 C3 -74.1(3)
C1 N1 C2 C7 106.6(3)
C7 C2 C3 C4 0.1(3)
N1 C2 C3 C4 -179.2(2)
C7 C2 C3 I1 179.60(17)
N1 C2 C3 I1 0.3(3)
C2 C3 C4 C5 -0.8(4)
I1 C3 C4 C5 179.7(2)
C3 C4 C5 C6 1.7(5)
C4 C5 C6 C7 -1.9(5)
C5 C6 C7 C2 1.2(5)
C3 C2 C7 C6 -0.3(4)
N1 C2 C7 C6 179.0(2)
