#------------------------------------------------------------------------------
#$Date: 2016-11-08 21:29:48 +0200 (Tue, 08 Nov 2016) $
#$Revision: 188081 $
#$URL: file:///home/coder/svn-repositories/cod/cif/7/22/63/7226339.cif $
#------------------------------------------------------------------------------
#
# This file is available in the Crystallography Open Database (COD),
# http://www.crystallography.net/
#
# All data on this site have been placed in the public domain by the
# contributors.
#
data_7226339
loop_
_publ_author_name
'Hutchins, Kristin M.'
'Kummer, Katherine A.'
'Groeneman, Ryan H.'
'Reinheimer, Eric W.'
'Sinnwell, Michael A.'
'Swenson, Dale C.'
'MacGillivray, Leonard R.'
_publ_section_title
;
 Thermal expansion properties of three isostructural co-crystals composed
 of isosteric components: interplay between halogen and hydrogen bonds
;
_journal_issue                   43
_journal_name_full               CrystEngComm
_journal_page_first              8354
_journal_paper_doi               10.1039/C6CE01674J
_journal_volume                  18
_journal_year                    2016
_chemical_formula_moiety         'C6 H4 Br2 O2, C10 H8 N4'
_chemical_formula_sum            'C16 H12 Br2 N4 O2'
_chemical_formula_weight         452.12
_chemical_name_systematic
;
 ?
;
_space_group_crystal_system      triclinic
_space_group_IT_number           2
_space_group_name_Hall           '-P 1'
_space_group_name_H-M_alt        'P -1'
_symmetry_space_group_name_Hall  '-P 1'
_symmetry_space_group_name_H-M   'P -1'
_atom_sites_solution_hydrogens   geom
_audit_creation_date             2015-04-13
_audit_creation_method
;
Olex2 1.2
(compiled 2015.01.26 svn.r3150 for OlexSys, GUI svn.r4998)
;
_audit_update_record
;
2015-04-14 deposited with the CCDC.
2016-08-23 downloaded from the CCDC.
;
_cell_angle_alpha                76.068(5)
_cell_angle_beta                 70.779(5)
_cell_angle_gamma                64.511(5)
_cell_formula_units_Z            2
_cell_length_a                   9.0497(9)
_cell_length_b                   10.3158(10)
_cell_length_c                   10.6690(11)
_cell_measurement_reflns_used    4558
_cell_measurement_temperature    290(2)
_cell_measurement_theta_max      27.56
_cell_measurement_theta_min      2.58
_cell_volume                     843.19(15)
_computing_cell_refinement       'Collect (Hooft, 1998)'
_computing_data_collection       'HKL Scalepack (Otwinowski and Minor, 1997)'
_computing_data_reduction        'Denzo (Otwinowski and Minor, 1997)'
_computing_molecular_graphics    'Olex2 (Dolomanov et al., 2009)'
_computing_publication_material  'Olex2 (Dolomanov et al., 2009)'
_computing_structure_refinement  'ShelXL (Sheldrick, 2008)'
_computing_structure_solution    'ShelXT (Sheldrick, 2015)'
_diffrn_ambient_temperature      290(2)
_diffrn_detector_area_resol_mean 9
_diffrn_measured_fraction_theta_full 0.995
_diffrn_measured_fraction_theta_max 0.992
_diffrn_measurement_device_type  'Nonius Kappa CCD'
_diffrn_measurement_method       'CCD rotation images, phi scans'
_diffrn_radiation_type           MoK\a
_diffrn_radiation_wavelength     0.71073
_diffrn_reflns_av_R_equivalents  0.0190
_diffrn_reflns_av_unetI/netI     0.0238
_diffrn_reflns_Laue_measured_fraction_full 0.995
_diffrn_reflns_Laue_measured_fraction_max 0.992
_diffrn_reflns_limit_h_max       11
_diffrn_reflns_limit_h_min       -9
_diffrn_reflns_limit_k_max       13
_diffrn_reflns_limit_k_min       -13
_diffrn_reflns_limit_l_max       13
_diffrn_reflns_limit_l_min       -13
_diffrn_reflns_number            9881
_diffrn_reflns_point_group_measured_fraction_full 0.995
_diffrn_reflns_point_group_measured_fraction_max 0.992
_diffrn_reflns_theta_full        26.000
_diffrn_reflns_theta_max         27.590
_diffrn_reflns_theta_min         2.820
_diffrn_source                   'fine-focus sealed tube'
_exptl_absorpt_coefficient_mu    4.823
_exptl_absorpt_correction_T_max  0.561
_exptl_absorpt_correction_T_min  0.167
_exptl_absorpt_correction_type   multi-scan
_exptl_absorpt_process_details   'SADABS (Bruker, 2002)'
_exptl_crystal_colour            'yellowish orange'
_exptl_crystal_colour_modifier   yellow
_exptl_crystal_colour_primary    orange
_exptl_crystal_density_diffrn    1.781
_exptl_crystal_description       plate
_exptl_crystal_F_000             444
_exptl_crystal_size_max          0.40
_exptl_crystal_size_mid          0.37
_exptl_crystal_size_min          0.12
_refine_diff_density_max         0.618
_refine_diff_density_min         -0.385
_refine_diff_density_rms         0.056
_refine_ls_extinction_method     none
_refine_ls_goodness_of_fit_ref   1.020
_refine_ls_hydrogen_treatment    constr
_refine_ls_matrix_type           full
_refine_ls_number_parameters     219
_refine_ls_number_reflns         3870
_refine_ls_number_restraints     0
_refine_ls_restrained_S_all      1.020
_refine_ls_R_factor_all          0.0353
_refine_ls_R_factor_gt           0.0239
_refine_ls_shift/su_max          0.002
_refine_ls_shift/su_mean         0.000
_refine_ls_structure_factor_coef Fsqd
_refine_ls_weighting_details
'w=1/[\s^2^(Fo^2^)+(0.0268P)^2^+0.3254P] where P=(Fo^2^+2Fc^2^)/3'
_refine_ls_weighting_scheme      calc
_refine_ls_wR_factor_gt          0.0558
_refine_ls_wR_factor_ref         0.0603
_reflns_Friedel_coverage         0.000
_reflns_number_gt                3157
_reflns_number_total             3870
_reflns_threshold_expression     'I > 2\s(I)'
_iucr_refine_instructions_details
;
TITL Mcg14_75rt in P-1 sample #14136 KH101414-01 room temp
rem EXTI 0.000000
CELL 0.71073 9.0497 10.3158 10.669 76.068 70.779 64.511
ZERR 2 0.0009 0.001 0.0011 0.005 0.005 0.005
LATT 1
SFAC C H Br N O
UNIT 32 24 4 8 4
 
L.S. 4
PLAN  -20
TEMP 17(2)
BOND
MORE -1
BOND $H
CONF
fmap 2
acta 52
MERG 2
SHEL 7.6 0
REM <olex2.extras>
REM <HklSrc "%.\\mcg1475rt.hkl">
REM </olex2.extras>
 
WGHT    0.026800    0.325400
FVAR       0.14602
BR1   3    0.652332    0.116797    1.281070    11.00000    0.02768    0.05188 =
         0.04625   -0.01319   -0.00161   -0.01449
BR2   3    0.181249    0.096738    1.052182    11.00000    0.04504    0.07178 =
         0.03549   -0.02342   -0.00460   -0.02056
O1    5    0.337918    0.214724    1.510477    11.00000    0.03795    0.06770 =
         0.03430   -0.02215    0.00064   -0.02327
AFIX 147
H1A   2    0.252839    0.238120    1.572696    11.00000   -1.50000
AFIX   0
O2    5   -0.057592    0.190692    1.316212    11.00000    0.03042    0.11416 =
         0.04589   -0.04094    0.00542   -0.02817
AFIX 147
H2A   2   -0.124951    0.229015    1.382577    11.00000   -1.50000
AFIX   0
 
N2    4    0.336725    0.542509    0.935044    11.00000    0.04315    0.04444 =
         0.03345   -0.01258    0.00332   -0.00988
C12   1    0.138191    0.200346    1.417213    11.00000    0.02944    0.05690 =
         0.02956   -0.01912    0.00661   -0.01567
AFIX  43
H12   2    0.052684    0.228451    1.494516    11.00000   -1.20000
AFIX   0
 
N4    4    0.712141    0.298984    0.541991    11.00000    0.03230    0.05417 =
         0.03471   -0.01660    0.00133   -0.01125
C15   1    0.391722    0.115552    1.189150    11.00000    0.02952    0.03701 =
         0.02944   -0.01200    0.00337   -0.01090
AFIX  43
H15   2    0.477155    0.087379    1.111827    11.00000   -1.20000
AFIX   0
C16   1    0.427788    0.141541    1.294276    11.00000    0.02381    0.03510 =
         0.03427   -0.00839   -0.00045   -0.01092
C11   1    0.300335    0.186051    1.410303    11.00000    0.03326    0.03930 =
         0.02813   -0.00963   -0.00142   -0.01560
 
C8    1    0.621260    0.223806    0.619462    11.00000    0.04139    0.04788 =
         0.04383   -0.01977   -0.00079   -0.01344
AFIX  43
H8    2    0.642007    0.135612    0.595141    11.00000   -1.20000
AFIX   0
 
C14   1    0.229628    0.131095    1.197994    11.00000    0.03409    0.04020 =
         0.02661   -0.01219   -0.00266   -0.01208
N3    4    0.336260    0.442818    0.891521    11.00000    0.04484    0.05449 =
         0.04030   -0.02113    0.01096   -0.01887
C13   1    0.099493    0.174117    1.312707    11.00000    0.02808    0.05326 =
         0.03204   -0.01479    0.00102   -0.01570
C6    1    0.467646    0.398719    0.771454    11.00000    0.03310    0.04526 =
         0.03020   -0.01237    0.00176   -0.01010
C7    1    0.497202    0.269784    0.734574    11.00000    0.04772    0.05371 =
         0.04129   -0.01848    0.00870   -0.02554
AFIX  43
H7    2    0.435168    0.214350    0.785849    11.00000   -1.20000
AFIX   0
C5    1    0.201084    0.588460    1.052432    11.00000    0.03765    0.04118 =
         0.02706   -0.00749   -0.00063   -0.00601
C9    1    0.559464    0.480561    0.691947    11.00000    0.04811    0.04202 =
         0.04051   -0.01296    0.00378   -0.01489
AFIX  43
H9    2    0.541203    0.569012    0.714195    11.00000   -1.20000
AFIX   0
C10   1    0.678933    0.425494    0.578566    11.00000    0.04735    0.05372 =
         0.03970   -0.00915    0.00661   -0.02179
AFIX  43
H10   2    0.740429    0.480119    0.523978    11.00000   -1.20000
AFIX   0
C3    1    0.045520    0.763866    1.204991    11.00000    0.04618    0.05487 =
         0.03781   -0.01989   -0.00463   -0.01221
AFIX  43
H3    2    0.028168    0.849499    1.232358    11.00000   -1.20000
AFIX   0
C4    1    0.176588    0.714027    1.093725    11.00000    0.04349    0.05177 =
         0.03596   -0.01289   -0.00303   -0.01552
AFIX  43
H4    2    0.246317    0.764514    1.048108    11.00000   -1.20000
AFIX   0
C1    1   -0.029679    0.572378    1.233351    11.00000    0.05422    0.05835 =
         0.03792   -0.01062    0.00901   -0.02260
AFIX  43
H1    2   -0.100098    0.523148    1.281400    11.00000   -1.20000
AFIX   0
C2    1    0.097020    0.514359    1.123329    11.00000    0.05968    0.04464 =
         0.03805   -0.01296    0.00447   -0.01612
AFIX  43
H2    2    0.111783    0.428569    1.097874    11.00000   -1.20000
AFIX   0
N1    4   -0.056770    0.694774    1.274560    11.00000    0.04317    0.05974 =
         0.03156   -0.01827    0.00006   -0.00994
HKLF 4
 
REM  Mcg14_75rt in P-1 sample #14136 KH101414-01 room temp
REM R1 =  0.0239 for    3157 Fo > 4sig(Fo)  and  0.0353 for all    3870 data
REM    219 parameters refined using      0 restraints
 
END  
     
WGHT      0.0268      0.3254 

REM Highest difference peak  0.618,  deepest hole -0.385,  1-sigma level  0.056
Q1    1   0.2147  0.0171  1.1043  11.00000  0.05    0.62
Q2    1   0.1861  0.0945  1.0196  11.00000  0.05    0.34
Q3    1   0.2029  0.1117  1.1431  11.00000  0.05    0.27
Q4    1   0.6525  0.0193  1.2871  11.00000  0.05    0.27
Q5    1   0.4759  0.4734  0.6999  11.00000  0.05    0.26
Q6    1   0.0860  0.1145  1.0987  11.00000  0.05    0.25
Q7    1   0.1668  0.1311  1.2610  11.00000  0.05    0.24
Q8    1   0.3087  0.1166  1.2000  11.00000  0.05    0.24
Q9    1   0.1244  0.1371  1.5014  11.00000  0.05    0.23
Q10   1   0.7323 -0.0026  1.3036  11.00000  0.05    0.22
Q11   1   0.0812  0.1998  1.0517  11.00000  0.05    0.22
Q12   1   0.1043  0.7192  1.1505  11.00000  0.05    0.21
Q13   1   0.6249  0.2466  1.2858  11.00000  0.05    0.21
Q14   1   0.1238  0.2325  0.9969  11.00000  0.05    0.20
Q15   1   0.2524  0.1255  1.0670  11.00000  0.05    0.20
Q16   1   0.2246  0.1811  1.4130  11.00000  0.05    0.20
Q17   1   0.1238  0.5777  1.0592  11.00000  0.05    0.19
Q18   1   0.3108 -0.0734  1.0761  11.00000  0.05    0.18
Q19   1   0.5165  0.5391  0.6790  11.00000  0.05    0.18
Q20   1   0.7047  0.0757  1.2133  11.00000  0.05    0.18

REM The information below was added by Olex2.
REM
REM R1 = 0.0239 for 3157 Fo > 4sig(Fo) and 0.0353 for all 9900 data
REM n/a parameters refined using n/a restraints
REM Highest difference peak 0.62, deepest hole -0.38
REM Mean Shift 0, Max Shift -0.002.

REM +++ Tabular Listing of Refinement Information +++
REM R1_all = 0.0353
REM R1_gt = 0.0239
REM wR_ref = 0.0603
REM GOOF = 1.020
REM Shift_max = -0.002
REM Shift_mean = 0
REM Reflections_all = 9900
REM Reflections_gt = 3157
REM Parameters = n/a
REM Hole = -0.38
REM Peak = 0.62
REM Flack = n/a

;
_cod_data_source_file            c6ce01674j2.cif
_cod_data_source_block           mcg1475rt
_cod_depositor_comments
;
The following automatic conversions were performed:

'_space_group_crystal_system' value 'Triclinic' changed to
'triclinic' according to
/usr/data/users/saulius/crontab/automatic-downloads/rss-feeds/RSC/lib/dictionaries/cif_core.dic
dictionary named 'cif_core.dic' version 2.4.2 from 2011-04-26.

'_exptl_absorpt_correction_type' value 'Multi-scan' changed to
'multi-scan' according to
/usr/data/users/saulius/crontab/automatic-downloads/rss-feeds/RSC/lib/dictionaries/cif_core.dic
dictionary named 'cif_core.dic' version 2.4.2 from 2011-04-26.

Automatic conversion script
Id: cif_fix_values 4268 2015-11-12 08:31:59Z antanas 

 Adding full bibliography for 7226336--7226343.cif.
;
_cod_database_code               7226339
_shelxl_version_number           2013-3
_shelx_space_group_comment
;
The symmetry employed for this shelxl refinement is uniquely defined
by the following loop, which should always be used as a source of
symmetry information in preference to the above space-group names.
They are only intended as comments.
;
_olex2_refinement_description
;
1. Fixed Uiso
 At 1.2 times of:
  All C(H) groups
 At 1.5 times of:
  All O(H) groups
2.a Aromatic/amide H refined with riding coordinates:
 C12(H12), C15(H15), C8(H8), C7(H7), C9(H9), C10(H10), C3(H3), C4(H4), C1(H1),
 C2(H2)
2.b Idealised tetrahedral OH refined as rotating group:
 O1(H1A), O2(H2A)
;
_olex2_submission_special_instructions 'No special instructions were received'
loop_
_space_group_symop_operation_xyz
'x, y, z'
'-x, -y, -z'
loop_
_atom_site_label
_atom_site_type_symbol
_atom_site_fract_x
_atom_site_fract_y
_atom_site_fract_z
_atom_site_U_iso_or_equiv
_atom_site_adp_type
_atom_site_occupancy
_atom_site_site_symmetry_order
_atom_site_calc_flag
_atom_site_refinement_flags_posn
Br1 Br 0.65233(3) 0.11680(3) 1.28107(2) 0.04291(8) Uani 1 1 d .
Br2 Br 0.18125(3) 0.09674(3) 1.05218(2) 0.04970(8) Uani 1 1 d .
O1 O 0.33792(19) 0.21472(19) 1.51048(15) 0.0451(4) Uani 1 1 d .
H1A H 0.2528 0.2381 1.5727 0.068 Uiso 1 1 calc GR
O2 O -0.05759(19) 0.1907(2) 1.31621(17) 0.0614(5) Uani 1 1 d .
H2A H -0.1250 0.2290 1.3826 0.092 Uiso 1 1 calc GR
N2 N 0.3367(2) 0.5425(2) 0.93504(18) 0.0449(5) Uani 1 1 d .
C12 C 0.1382(3) 0.2003(3) 1.4172(2) 0.0401(5) Uani 1 1 d .
H12 H 0.0527 0.2285 1.4945 0.048 Uiso 1 1 calc R
N4 N 0.7121(2) 0.2990(2) 0.54199(18) 0.0428(4) Uani 1 1 d .
C15 C 0.3917(2) 0.1156(2) 1.18915(19) 0.0341(4) Uani 1 1 d .
H15 H 0.4772 0.0874 1.1118 0.041 Uiso 1 1 calc R
C16 C 0.4278(2) 0.1415(2) 1.29428(19) 0.0322(4) Uani 1 1 d .
C11 C 0.3003(2) 0.1861(2) 1.41030(19) 0.0336(4) Uani 1 1 d .
C8 C 0.6213(3) 0.2238(3) 0.6195(2) 0.0457(5) Uani 1 1 d .
H8 H 0.6420 0.1356 0.5951 0.055 Uiso 1 1 calc R
C14 C 0.2296(3) 0.1311(2) 1.19799(19) 0.0342(4) Uani 1 1 d .
N3 N 0.3363(3) 0.4428(2) 0.89152(19) 0.0495(5) Uani 1 1 d .
C13 C 0.0995(2) 0.1741(3) 1.3127(2) 0.0382(5) Uani 1 1 d .
C6 C 0.4676(3) 0.3987(2) 0.7715(2) 0.0391(5) Uani 1 1 d .
C7 C 0.4972(3) 0.2698(3) 0.7346(2) 0.0483(6) Uani 1 1 d .
H7 H 0.4352 0.2143 0.7858 0.058 Uiso 1 1 calc R
C5 C 0.2011(3) 0.5885(2) 1.0524(2) 0.0400(5) Uani 1 1 d .
C9 C 0.5595(3) 0.4806(3) 0.6919(2) 0.0469(6) Uani 1 1 d .
H9 H 0.5412 0.5690 0.7142 0.056 Uiso 1 1 calc R
C10 C 0.6789(3) 0.4255(3) 0.5786(2) 0.0501(6) Uani 1 1 d .
H10 H 0.7404 0.4801 0.5240 0.060 Uiso 1 1 calc R
C3 C 0.0455(3) 0.7639(3) 1.2050(2) 0.0478(6) Uani 1 1 d .
H3 H 0.0282 0.8495 1.2324 0.057 Uiso 1 1 calc R
C4 C 0.1766(3) 0.7140(3) 1.0937(2) 0.0452(5) Uani 1 1 d .
H4 H 0.2463 0.7645 1.0481 0.054 Uiso 1 1 calc R
C1 C -0.0297(3) 0.5724(3) 1.2334(2) 0.0544(6) Uani 1 1 d .
H1 H -0.1001 0.5231 1.2814 0.065 Uiso 1 1 calc R
C2 C 0.0970(3) 0.5144(3) 1.1233(2) 0.0519(6) Uani 1 1 d .
H2 H 0.1118 0.4286 1.0979 0.062 Uiso 1 1 calc R
N1 N -0.0568(2) 0.6948(2) 1.27456(18) 0.0485(5) Uani 1 1 d .
loop_
_atom_site_aniso_label
_atom_site_aniso_U_11
_atom_site_aniso_U_22
_atom_site_aniso_U_33
_atom_site_aniso_U_23
_atom_site_aniso_U_13
_atom_site_aniso_U_12
Br1 0.02768(11) 0.05188(15) 0.04625(13) -0.01319(10) -0.00161(9) -0.01449(10)
Br2 0.04504(14) 0.07178(19) 0.03549(13) -0.02342(11) -0.00460(10) -0.02056(12)
O1 0.0380(8) 0.0677(11) 0.0343(8) -0.0222(8) 0.0006(6) -0.0233(8)
O2 0.0304(8) 0.1142(16) 0.0459(10) -0.0409(10) 0.0054(7) -0.0282(10)
N2 0.0431(10) 0.0444(11) 0.0334(10) -0.0126(8) 0.0033(8) -0.0099(9)
C12 0.0294(10) 0.0569(14) 0.0296(10) -0.0191(10) 0.0066(8) -0.0157(10)
N4 0.0323(9) 0.0542(12) 0.0347(9) -0.0166(9) 0.0013(7) -0.0113(9)
C15 0.0295(10) 0.0370(12) 0.0294(10) -0.0120(8) 0.0034(8) -0.0109(9)
C16 0.0238(9) 0.0351(11) 0.0343(10) -0.0084(8) -0.0005(8) -0.0109(8)
C11 0.0333(10) 0.0393(12) 0.0281(10) -0.0096(8) -0.0014(8) -0.0156(9)
C8 0.0414(12) 0.0479(14) 0.0438(13) -0.0198(11) -0.0008(10) -0.0134(11)
C14 0.0341(10) 0.0402(12) 0.0266(9) -0.0122(8) -0.0027(8) -0.0121(9)
N3 0.0448(11) 0.0545(13) 0.0403(11) -0.0211(9) 0.0110(8) -0.0189(10)
C13 0.0281(10) 0.0533(14) 0.0320(10) -0.0148(10) 0.0010(8) -0.0157(10)
C6 0.0331(10) 0.0453(13) 0.0302(10) -0.0124(9) 0.0018(8) -0.0101(10)
C7 0.0477(13) 0.0537(15) 0.0413(12) -0.0185(11) 0.0087(10) -0.0255(12)
C5 0.0376(11) 0.0412(13) 0.0271(10) -0.0075(9) -0.0006(9) -0.0060(10)
C9 0.0481(13) 0.0420(13) 0.0405(12) -0.0130(10) 0.0038(10) -0.0149(11)
C10 0.0474(13) 0.0537(16) 0.0397(13) -0.0091(11) 0.0066(10) -0.0218(12)
C3 0.0462(13) 0.0549(15) 0.0378(12) -0.0199(11) -0.0046(10) -0.0122(12)
C4 0.0435(12) 0.0518(15) 0.0360(12) -0.0129(10) -0.0030(10) -0.0155(11)
C1 0.0542(15) 0.0583(17) 0.0379(13) -0.0106(11) 0.0090(11) -0.0226(13)
C2 0.0597(15) 0.0446(14) 0.0380(12) -0.0130(10) 0.0045(11) -0.0161(12)
N1 0.0432(11) 0.0597(13) 0.0316(10) -0.0183(9) 0.0001(8) -0.0099(10)
loop_
_atom_type_symbol
_atom_type_description
_atom_type_scat_dispersion_real
_atom_type_scat_dispersion_imag
_atom_type_scat_source
C C 0.0033 0.0016 'International Tables Vol C Tables 4.2.6.8 and 6.1.1.4'
H H 0.0000 0.0000 'International Tables Vol C Tables 4.2.6.8 and 6.1.1.4'
Br Br -0.2901 2.4595 'International Tables Vol C Tables 4.2.6.8 and 6.1.1.4'
N N 0.0061 0.0033 'International Tables Vol C Tables 4.2.6.8 and 6.1.1.4'
O O 0.0106 0.0060 'International Tables Vol C Tables 4.2.6.8 and 6.1.1.4'
loop_
_geom_angle_atom_site_label_1
_geom_angle_atom_site_label_2
_geom_angle_atom_site_label_3
_geom_angle
C11 O1 H1A 109.5
C13 O2 H2A 109.5
N3 N2 C5 113.28(19)
C11 C12 H12 118.9
C13 C12 H12 118.9
C13 C12 C11 122.20(17)
C8 N4 C10 117.12(18)
C16 C15 H15 119.8
C16 C15 C14 120.33(17)
C14 C15 H15 119.8
C15 C16 Br1 119.65(14)
C15 C16 C11 120.53(18)
C11 C16 Br1 119.82(15)
O1 C11 C12 122.47(17)
O1 C11 C16 119.40(18)
C12 C11 C16 118.13(18)
N4 C8 H8 118.3
N4 C8 C7 123.3(2)
C7 C8 H8 118.3
C15 C14 Br2 119.92(14)
C15 C14 C13 120.74(18)
C13 C14 Br2 119.34(15)
N2 N3 C6 114.04(18)
O2 C13 C12 123.10(17)
O2 C13 C14 118.83(18)
C12 C13 C14 118.06(18)
C7 C6 N3 116.55(19)
C7 C6 C9 119.61(19)
C9 C6 N3 123.8(2)
C8 C7 H7 120.7
C6 C7 C8 118.5(2)
C6 C7 H7 120.7
C4 C5 N2 116.4(2)
C4 C5 C2 119.56(19)
C2 C5 N2 124.0(2)
C6 C9 H9 121.4
C10 C9 C6 117.2(2)
C10 C9 H9 121.4
N4 C10 C9 124.2(2)
N4 C10 H10 117.9
C9 C10 H10 117.9
C4 C3 H3 118.5
N1 C3 H3 118.5
N1 C3 C4 123.1(2)
C5 C4 C3 118.5(2)
C5 C4 H4 120.8
C3 C4 H4 120.8
C2 C1 H1 118.1
N1 C1 H1 118.1
N1 C1 C2 123.8(2)
C5 C2 H2 121.2
C1 C2 C5 117.7(2)
C1 C2 H2 121.2
C3 N1 C1 117.41(19)
loop_
_geom_bond_atom_site_label_1
_geom_bond_atom_site_label_2
_geom_bond_distance
Br1 C16 1.8965(19)
Br2 C14 1.8934(19)
O1 H1A 0.8200
O1 C11 1.350(2)
O2 H2A 0.8200
O2 C13 1.346(2)
N2 N3 1.228(3)
N2 C5 1.440(2)
C12 H12 0.9300
C12 C11 1.389(3)
C12 C13 1.387(3)
N4 C8 1.324(3)
N4 C10 1.333(3)
C15 H15 0.9300
C15 C16 1.377(3)
C15 C14 1.378(3)
C16 C11 1.397(3)
C8 H8 0.9300
C8 C7 1.381(3)
C14 C13 1.394(3)
N3 C6 1.440(2)
C6 C7 1.368(3)
C6 C9 1.385(3)
C7 H7 0.9300
C5 C4 1.373(3)
C5 C2 1.384(3)
C9 H9 0.9300
C9 C10 1.377(3)
C10 H10 0.9300
C3 H3 0.9300
C3 C4 1.386(3)
C3 N1 1.333(3)
C4 H4 0.9300
C1 H1 0.9300
C1 C2 1.383(3)
C1 N1 1.333(3)
C2 H2 0.9300
loop_
_geom_torsion_atom_site_label_1
_geom_torsion_atom_site_label_2
_geom_torsion_atom_site_label_3
_geom_torsion_atom_site_label_4
_geom_torsion
Br1 C16 C11 O1 1.8(3)
Br1 C16 C11 C12 -178.81(17)
Br2 C14 C13 O2 -0.3(3)
Br2 C14 C13 C12 -179.16(18)
N2 N3 C6 C7 166.2(2)
N2 N3 C6 C9 -15.6(4)
N2 C5 C4 C3 178.9(2)
N2 C5 C2 C1 -179.2(2)
N4 C8 C7 C6 -0.7(4)
C15 C16 C11 O1 -178.2(2)
C15 C16 C11 C12 1.2(3)
C15 C14 C13 O2 178.7(2)
C15 C14 C13 C12 -0.1(3)
C16 C15 C14 Br2 179.43(16)
C16 C15 C14 C13 0.4(3)
C11 C12 C13 O2 -178.4(2)
C11 C12 C13 C14 0.4(4)
C8 N4 C10 C9 1.2(4)
C14 C15 C16 Br1 179.08(16)
C14 C15 C16 C11 -1.0(3)
N3 N2 C5 C4 -169.6(2)
N3 N2 C5 C2 10.2(3)
N3 C6 C7 C8 179.5(2)
N3 C6 C9 C10 -178.7(2)
C13 C12 C11 O1 178.4(2)
C13 C12 C11 C16 -1.0(4)
C6 C9 C10 N4 -0.7(4)
C7 C6 C9 C10 -0.6(4)
C5 N2 N3 C6 178.00(19)
C9 C6 C7 C8 1.3(4)
C10 N4 C8 C7 -0.5(4)
C4 C5 C2 C1 0.6(4)
C4 C3 N1 C1 -0.1(4)
C2 C5 C4 C3 -1.0(4)
C2 C1 N1 C3 -0.2(4)
N1 C3 C4 C5 0.7(4)
N1 C1 C2 C5 0.0(4)
