#------------------------------------------------------------------------------
#$Date: 2017-01-09 05:03:29 +0200 (Mon, 09 Jan 2017) $
#$Revision: 190066 $
#$URL: file:///home/coder/svn-repositories/cod/cif/7/22/68/7226849.cif $
#------------------------------------------------------------------------------
#
# This file is available in the Crystallography Open Database (COD),
# http://www.crystallography.net/
#
# All data on this site have been placed in the public domain by the
# contributors.
#
data_7226849
loop_
_publ_author_name
'Galica, T.'
'B\;akowicz, J.'
'Konieczny, K.'
'Turowska-Tyrk, I.'
_publ_section_title
;
 Structural transformations in crystals induced by radiation and pressure.
 Part 5. The influence of pressure on the course of the photochemical
 reaction in crystals of 2,6-difluorocinnamic acid
;
_journal_issue                   46
_journal_name_full               CrystEngComm
_journal_page_first              8871
_journal_paper_doi               10.1039/C6CE01652A
_journal_volume                  18
_journal_year                    2016
_chemical_formula_sum            'C9 H6 F2 O2'
_chemical_formula_weight         184.14
_chemical_properties_physical    ', Photo-sensitive'
_space_group_crystal_system      monoclinic
_space_group_IT_number           14
_space_group_name_Hall           '-P 2ybc'
_space_group_name_H-M_alt        'P 1 21/c 1'
_symmetry_space_group_name_Hall  '-P 2ybc'
_symmetry_space_group_name_H-M   'P 1 21/c 1'
_atom_sites_solution_hydrogens   mixed
_atom_sites_solution_primary     isomor
_atom_sites_solution_secondary   geom
_audit_creation_method           SHELXL-2014/7
_audit_update_record
;
2016-07-27 deposited with the CCDC.
2016-10-19 downloaded from the CCDC.
;
_cell_angle_alpha                90
_cell_angle_beta                 91.34(6)
_cell_angle_gamma                90
_cell_formula_units_Z            4
_cell_length_a                   3.6223(14)
_cell_length_b                   18.978(9)
_cell_length_c                   10.755(14)
_cell_measurement_pressure       2100000
_cell_measurement_reflns_used    274
_cell_measurement_temperature    299(2)
_cell_measurement_theta_max      18.11
_cell_measurement_theta_min      6.33
_cell_volume                     739.1(11)
_computing_cell_refinement       'CrysAlisPro (Agilent Technologies, 2014)'
_computing_data_collection       'CrysAlisPro (Agilent Technologies, 2014)'
_computing_data_reduction        'CrysAlisPro (Agilent Technologies, 2014)'
_computing_molecular_graphics    'ORTEP-3 for Windows (Farrugia, 2012)'
_computing_publication_material  'SHELXL-2014/7 (Sheldrick, 2015)'
_computing_structure_refinement  'SHELXL-2014/7 (Sheldrick, 2015)'
_computing_structure_solution    'SHELXS-2013/1 (Sheldrick, 2008)'
_diffrn_ambient_pressure         2100000
_diffrn_ambient_temperature      299(2)
_diffrn_detector_area_resol_mean 15.9718
_diffrn_measured_fraction_theta_full 0.513
_diffrn_measured_fraction_theta_max 0.513
_diffrn_measurement_device_type  'KM4 with Eos CCD'
_diffrn_measurement_method       '\f- and \w scans'
_diffrn_radiation_monochromator  graphite
_diffrn_radiation_source         'fine-focus sealed tube'
_diffrn_radiation_type           MoK\a
_diffrn_radiation_wavelength     0.71073
_diffrn_reflns_av_R_equivalents  0.1803
_diffrn_reflns_av_unetI/netI     0.1290
_diffrn_reflns_Laue_measured_fraction_full 0.513
_diffrn_reflns_Laue_measured_fraction_max 0.513
_diffrn_reflns_limit_h_max       4
_diffrn_reflns_limit_h_min       -4
_diffrn_reflns_limit_k_max       19
_diffrn_reflns_limit_k_min       -18
_diffrn_reflns_limit_l_max       8
_diffrn_reflns_limit_l_min       -8
_diffrn_reflns_number            3046
_diffrn_reflns_point_group_measured_fraction_full 0.513
_diffrn_reflns_point_group_measured_fraction_max 0.513
_diffrn_reflns_theta_full        24.415
_diffrn_reflns_theta_max         24.415
_diffrn_reflns_theta_min         6.361
_exptl_absorpt_coefficient_mu    0.149
_exptl_absorpt_correction_type   none
_exptl_crystal_colour            colourless
_exptl_crystal_density_diffrn    1.655
_exptl_crystal_description       block
_exptl_crystal_F_000             376
_exptl_crystal_size_max          0.24
_exptl_crystal_size_mid          0.15
_exptl_crystal_size_min          0.10
_refine_diff_density_max         0.215
_refine_diff_density_min         -0.232
_refine_diff_density_rms         0.052
_refine_ls_extinction_method     none
_refine_ls_goodness_of_fit_ref   1.029
_refine_ls_hydrogen_treatment    constr
_refine_ls_matrix_type           full
_refine_ls_number_parameters     59
_refine_ls_number_reflns         627
_refine_ls_number_restraints     30
_refine_ls_restrained_S_all      1.062
_refine_ls_R_factor_all          0.2846
_refine_ls_R_factor_gt           0.1191
_refine_ls_shift/su_max          0.000
_refine_ls_shift/su_mean         0.000
_refine_ls_structure_factor_coef Fsqd
_refine_ls_weighting_details
'w=1/[\s^2^(Fo^2^)+(0.1661P)^2^+1.1513P] where P=(Fo^2^+2Fc^2^)/3'
_refine_ls_weighting_scheme      calc
_refine_ls_wR_factor_gt          0.2824
_refine_ls_wR_factor_ref         0.3920
_reflns_Friedel_coverage         0.000
_reflns_number_gt                225
_reflns_number_total             627
_reflns_threshold_expression     'I > 2\s(I)'
_cod_data_source_file            c6ce01652a1.cif
_cod_data_source_block           270secUV_p3
_cod_depositor_comments
'Adding full bibliography for 7226837--7226849.cif.'
_cod_database_code               7226849
_shelx_shelxl_version_number     2014/7
_shelx_space_group_comment
;
The symmetry employed for this shelxl refinement is uniquely defined
by the following loop, which should always be used as a source of
symmetry information in preference to the above space-group names.
They are only intended as comments.
;
_shelx_res_file
;

    270secUV_2.1GPa.res created by SHELXL-2014/7


TITL 270secUV_2.1GPa
CELL 0.71073   3.6223  18.978  10.755  90.000  91.34  90.000
ZERR    4.00   0.0014   0.009   0.014   0.000   0.06   0.000
LATT  1
SYMM -x, y+1/2,-z+1/2
SFAC C H O F
UNIT 36 24 8 8
OMIT -2 50
L.S. 6
FMAP 2
PLAN -10
BOND $H
HTAB
ACTA
DFIX 1.499 0.01 C6P1 C7P1
DFIX 1.536 0.01 C7P1 C8P1
DFIX 1.497 0.01 C8P1 C9P1
DFIX 1.504 0.01 C6P2 C7P2
DFIX 1.559 0.01 C7P2 C8P2
DFIX 1.493 0.01 C8P2 C9P2
DFIX 1.574 0.01 C7P1 C7P2
DFIX 1.584 0.01 C8P1 C8P2
DANG 2.583 0.02 C1P1 C7P1
DANG 2.478 0.02 C5P1 C7P1
DANG 2.343 0.02 C8P1 O1P1
DANG 2.393 0.02 C8P1 O2P1

DANG 2.558 0.02 C1P2 C7P2
DANG 2.525 0.02 C5P2 C7P2
DANG 2.353 0.02 C8P2 O1P2
DANG 2.373 0.02 C8P2 O2P2
DANG 2.648 0.02 C6P2 C7P1
DANG 2.620 0.02 C6P2 C8P2
DANG 2.663 0.02 C6P1 C7P2
DANG 2.666 0.02 C6P1 C8P1
DANG 2.558 0.02 C9P2 C7P2
DANG 2.555 0.02 C9P2 C8P1
DANG 2.578 0.02 C9P1 C7P1
DANG 2.616 0.02 C9P1 C8P2
DANG 2.205 0.02 C7P2 C8P1
DANG 2.205 0.02 C8P2 C7P1

FLAT C8P1 C9P1 O1P1 O2P1
FLAT C8P2 C9P2 O1P2 O2P2
FLAT C1P1 C5P1 C6P1 C7P1
FLAT C1P2 C5P2 C6P2 C7P2
FREE C7P1 C6P2_$3
FREE C8P1 F1P2_$3
EQIV $3   x-1, y, z
FREE C8P2 C9P1_$1
EQIV $1   x+1, y, z
BIND 2 3
TEMP 26
WGHT    0.166100    1.151300
FVAR       3.99630   0.67591   0.09020   0.09330   0.10740
PART 1
AFIX   6
C6R   1    0.727068    0.708659    0.078791    21.00000   31.00000
C1R   1    0.887022    0.683618    0.189287    21.00000   31.00000
F1R   4    0.997204    0.731338    0.275944    21.00000   51.00000
C2R   1    0.942509    0.613777    0.216081    21.00000   31.00000
H2R   2    1.049747    0.603321    0.290348    21.00000   -1.20000
C3R   1    0.840974    0.564443    0.128282    21.00000   31.00000
H3R   2    0.878607    0.515916    0.147193    21.00000   -1.20000
C4R   1    0.683989    0.584830    0.016913    21.00000   31.00000
H4R   2    0.617209    0.554485   -0.045302    21.00000   -1.20000
C5R   1    0.628500    0.655370   -0.004185    21.00000   31.00000
F2R   4    0.463829    0.674459   -0.113449    21.00000   51.00000
AFIX   0
C7R   1    0.653094    0.782667    0.043480    21.00000   31.00000
AFIX  43
H7R   2    0.541607    0.791136   -0.033850    21.00000   -1.20000
AFIX   0
C8R   1    0.738762    0.840342    0.117915    21.00000   31.00000
AFIX  43
H8R   2    0.862505    0.836698    0.194388    21.00000   -1.20000
AFIX   6
C9R   1    0.614995    0.907791    0.064209    21.00000   31.00000
O1R   3    0.717136    0.957453    0.142819    21.00000   41.00000
AFIX  83
H1R   2    0.634270    0.995440    0.118896    21.00000   -1.50000
AFIX   5
O2R   3    0.433849    0.920184   -0.030255    21.00000   41.00000
AFIX   6
PART 0

PART 2
C6P1  1    0.861930    0.704716    0.070876   -20.50000   31.00000
C1P1  1    0.958505    0.680676    0.188229   -20.50000   31.00000
F1P1  4    1.112978    0.726712    0.270655   -20.50000   51.00000
C2P1  1    0.901840    0.612358    0.227486   -20.50000   31.00000
H2P1  2    0.985187    0.602772    0.310550   -20.50000   -1.20000
C3P1  1    0.744803    0.564847    0.146760   -20.50000   31.00000
H3P1  2    0.708946    0.516707    0.177386   -20.50000   -1.20000
C4P1  1    0.637819    0.585281    0.029441   -20.50000   31.00000
H4P1  2    0.527957    0.554860   -0.024305   -20.50000   -1.20000
C5P1  1    0.697322    0.654092   -0.005002   -20.50000   31.00000
F2P1  4    0.580182    0.676021   -0.119161   -20.50000   51.00000
AFIX   0
C7P1  1    0.971806    0.775978    0.021208   -20.50000   31.00000
AFIX  13
H7P1  2    0.859657    0.784217   -0.061318   -20.50000   -1.20000
AFIX   0
C8P1  1    0.945255    0.842191    0.102691   -20.50000   31.00000
AFIX  13
H8P1  2    0.831293    0.831453    0.182239   -20.50000   -1.20000
AFIX   6
C9P1  1    0.781128    0.907386    0.045061   -20.50000   31.00000
O1P1  3    0.866135    0.964594    0.106467   -20.50000   41.00000
AFIX  83
H1P1  2    0.770543    0.998677    0.071654   -20.50000   -1.50000
AFIX   5
O2P1  3    0.595902    0.907268   -0.050973   -20.50000   41.00000
AFIX   6
PART 0
PART 3
C6P2  1    1.623646    0.719589    0.055045   -20.50000   31.00000
C1P2  1    1.830411    0.709334    0.163651   -20.50000   31.00000
F1P2  4    1.879735    0.765327    0.240462   -20.50000   51.00000
C2P2  1    1.987341    0.646312    0.197926   -20.50000   31.00000
H2P2  2    2.121858    0.644676    0.271288   -20.50000   -1.20000
C3P2  1    1.933555    0.588778    0.122224   -20.50000   31.00000
H3P2  2    2.035019    0.542092    0.143872   -20.50000   -1.20000
C4P2  1    1.728075    0.594703    0.013939   -20.50000   31.00000
H4P2  2    1.669336    0.558393   -0.043757   -20.50000   -1.20000
C5P2  1    1.581192    0.659416   -0.017209   -20.50000   31.00000
F2P2  4    1.384170    0.664584   -0.125045   -20.50000   51.00000
AFIX   0
C7P2  1    1.410655    0.785192    0.018331   -20.50000   31.00000
AFIX  13
H7P2  2    1.489554    0.803625   -0.061912   -20.50000   -1.20000
AFIX   0
C8P2  1    1.383217    0.844726    0.117015   -20.50000   31.00000
AFIX  13
H8P2  2    1.479031    0.831781    0.199870   -20.50000   -1.20000
AFIX   6
C9P2  1    1.518231    0.914228    0.070803   -20.50000   31.00000
O1P2  3    1.520292    0.963674    0.155231   -20.50000   41.00000
AFIX  83
H1P2  2    1.595845    1.000479    0.125039   -20.50000   -1.50000
AFIX   5
O2P2  3    1.606236    0.923920   -0.035997   -20.50000   41.00000
PART 0
AFIX   0
HKLF 4

REM  270secUV_2.1GPa
REM R1 =  0.1191 for     225 Fo > 4sig(Fo)  and  0.2846 for all     627 data
REM     59 parameters refined using     30 restraints

END

WGHT      0.1661      1.1545

REM Instructions for potential hydrogen bonds
EQIV $4 x+1, -y+3/2, z+1/2
HTAB C2R O2R_$4
HTAB C8R F1R
EQIV $5 x, -y+3/2, z+1/2
HTAB C8R F2R_$5
EQIV $6 -x+1, -y+2, -z
HTAB O1R O2R_$6
HTAB C2P1 O2P1_$5
EQIV $7 x-1, -y+3/2, z+1/2
HTAB C2P1 O2P2_$7
HTAB C8P1 F2P1_$5
HTAB C8P1 F1P2_$3
EQIV $8 -x+2, -y+2, -z
HTAB O1P1 O1P1_$8
HTAB O1P1 O2P1_$6
HTAB O1P1 O2P2_$8
HTAB C8P2 F2P1_$4
HTAB C8P2 F1P2
HTAB C8P2 F2P2_$5
HTAB O1P2 O2P1_$8
EQIV $9 -x+3, -y+2, -z
HTAB O1P2 O2P2_$9

REM Highest difference peak  0.215,  deepest hole -0.232,  1-sigma level  0.052
Q1    1   0.2802  0.6772 -0.0982  11.00000  0.05    0.22
Q2    1   1.1467  0.7484  0.2341  11.00000  0.05    0.20
Q3    1   1.1707  0.8217  0.1203  11.00000  0.05    0.19
Q4    1   0.2165  0.9202  0.0304  11.00000  0.05    0.18
Q5    1   0.5390  0.9473  0.2017  11.00000  0.05    0.17
Q6    1   0.7251  1.0067  0.0402  11.00000  0.05    0.17
Q7    1   0.8148  0.7331  0.3096  11.00000  0.05    0.16
Q8    1   0.4715  0.9469 -0.0977  11.00000  0.05    0.13
Q9    1   0.7346  0.6815  0.1982  11.00000  0.05    0.13
Q10   1   0.8320  0.5774 -0.0051  11.00000  0.05    0.12
;
_shelx_res_checksum              43481
loop_
_space_group_symop_operation_xyz
'x, y, z'
'-x, y+1/2, -z+1/2'
'-x, -y, -z'
'x, -y-1/2, z-1/2'
loop_
_atom_site_label
_atom_site_type_symbol
_atom_site_fract_x
_atom_site_fract_y
_atom_site_fract_z
_atom_site_U_iso_or_equiv
_atom_site_adp_type
_atom_site_occupancy
_atom_site_site_symmetry_order
_atom_site_calc_flag
_atom_site_refinement_flags_posn
_atom_site_refinement_flags_adp
_atom_site_refinement_flags_occupancy
_atom_site_disorder_assembly
_atom_site_disorder_group
C6R C 0.727(2) 0.7087(5) 0.0788(12) 0.090(3) Uiso 0.676(12) 1 d G U P A 1
C1R C 0.887(2) 0.6836(5) 0.1893(12) 0.090(3) Uiso 0.676(12) 1 d G U P A 1
F1R F 0.997(3) 0.7313(7) 0.2759(12) 0.107(4) Uiso 0.676(12) 1 d G U P A 1
C2R C 0.943(3) 0.6138(6) 0.2161(15) 0.090(3) Uiso 0.676(12) 1 d G U P A 1
H2R H 1.0497 0.6033 0.2903 0.108 Uiso 0.676(12) 1 d G U P A 1
C3R C 0.841(4) 0.5644(5) 0.1283(19) 0.090(3) Uiso 0.676(12) 1 d G U P A 1
H3R H 0.8786 0.5159 0.1472 0.108 Uiso 0.676(12) 1 d G U P A 1
C4R C 0.684(4) 0.5848(5) 0.0169(18) 0.090(3) Uiso 0.676(12) 1 d G U P A 1
H4R H 0.6172 0.5545 -0.0453 0.108 Uiso 0.676(12) 1 d G U P A 1
C5R C 0.629(3) 0.6554(6) -0.0042(14) 0.090(3) Uiso 0.676(12) 1 d G U P A 1
F2R F 0.464(3) 0.6745(8) -0.1134(14) 0.107(4) Uiso 0.676(12) 1 d G U P A 1
C7R C 0.653(5) 0.7827(10) 0.043(2) 0.090(3) Uiso 0.676(12) 1 d . U P A 1
H7R H 0.5416 0.7911 -0.0338 0.108 Uiso 0.676(12) 1 calc R U P A 1
C8R C 0.739(5) 0.8403(10) 0.118(2) 0.090(3) Uiso 0.676(12) 1 d . U P A 1
H8R H 0.8625 0.8367 0.1944 0.108 Uiso 0.676(12) 1 calc R U P A 1
C9R C 0.615(5) 0.9078(5) 0.0642(14) 0.090(3) Uiso 0.676(12) 1 d G U P A 1
O1R O 0.717(3) 0.9575(7) 0.1428(13) 0.093(4) Uiso 0.676(12) 1 d G U P A 1
H1R H 0.6343 0.9954 0.1189 0.140 Uiso 0.676(12) 1 calc R U P A 1
O2R O 0.434(4) 0.9202(8) -0.0303(13) 0.093(4) Uiso 0.676(12) 1 d G U P A 1
C6P1 C 0.862(8) 0.7047(12) 0.071(4) 0.090(3) Uiso 0.162(6) 1 d DG U P A 2
C1P1 C 0.959(8) 0.6807(17) 0.188(4) 0.090(3) Uiso 0.162(6) 1 d DG U P A 2
F1P1 F 1.113(11) 0.727(2) 0.271(4) 0.107(4) Uiso 0.162(6) 1 d G U P A 2
C2P1 C 0.902(12) 0.6124(19) 0.227(6) 0.090(3) Uiso 0.162(6) 1 d G U P A 2
H2P1 H 0.9852 0.6028 0.3106 0.108 Uiso 0.162(6) 1 d G U P A 2
C3P1 C 0.745(15) 0.5648(15) 0.147(7) 0.090(3) Uiso 0.162(6) 1 d G U P A 2
H3P1 H 0.7089 0.5167 0.1774 0.108 Uiso 0.162(6) 1 d G U P A 2
C4P1 C 0.638(12) 0.5853(15) 0.029(7) 0.090(3) Uiso 0.162(6) 1 d G U P A 2
H4P1 H 0.5280 0.5549 -0.0243 0.108 Uiso 0.162(6) 1 d G U P A 2
C5P1 C 0.697(9) 0.6541(15) -0.005(5) 0.090(3) Uiso 0.162(6) 1 d DG U P A 2
F2P1 F 0.580(11) 0.676(2) -0.119(5) 0.107(4) Uiso 0.162(6) 1 d G U P A 2
C7P1 C 0.972(7) 0.7760(12) 0.021(4) 0.090(3) Uiso 0.162(6) 1 d D U P A 2
H7P1 H 0.8597 0.7842 -0.0613 0.108 Uiso 0.162(6) 1 calc R U P A 2
C8P1 C 0.945(8) 0.8422(12) 0.103(3) 0.090(3) Uiso 0.162(6) 1 d D U P A 2
H8P1 H 0.8313 0.8315 0.1822 0.108 Uiso 0.162(6) 1 calc R U P A 2
C9P1 C 0.781(8) 0.9074(13) 0.045(4) 0.090(3) Uiso 0.162(6) 1 d DG U P A 2
O1P1 O 0.866(14) 0.9646(15) 0.106(5) 0.093(4) Uiso 0.162(6) 1 d DG U P A 2
H1P1 H 0.7705 0.9987 0.0717 0.140 Uiso 0.162(6) 1 calc R U P A 2
O2P1 O 0.596(15) 0.907(2) -0.051(4) 0.093(4) Uiso 0.162(6) 1 d DG U P A 2
C6P2 C 1.624(7) 0.7196(13) 0.055(3) 0.090(3) Uiso 0.162(6) 1 d DG U P A 3
C1P2 C 1.830(7) 0.7093(16) 0.164(3) 0.090(3) Uiso 0.162(6) 1 d DG U P A 3
F1P2 F 1.880(10) 0.765(2) 0.240(4) 0.107(4) Uiso 0.162(6) 1 d G U P A 3
C2P2 C 1.987(10) 0.6463(19) 0.198(4) 0.090(3) Uiso 0.162(6) 1 d G U P A 3
H2P2 H 2.1219 0.6447 0.2713 0.108 Uiso 0.162(6) 1 d G U P A 3
C3P2 C 1.934(13) 0.5888(16) 0.122(5) 0.090(3) Uiso 0.162(6) 1 d G U P A 3
H3P2 H 2.0350 0.5421 0.1439 0.108 Uiso 0.162(6) 1 d G U P A 3
C4P2 C 1.728(12) 0.5947(14) 0.014(5) 0.090(3) Uiso 0.162(6) 1 d G U P A 3
H4P2 H 1.6693 0.5584 -0.0438 0.108 Uiso 0.162(6) 1 d G U P A 3
C5P2 C 1.581(10) 0.6594(15) -0.017(4) 0.090(3) Uiso 0.162(6) 1 d DG U P A 3
F2P2 F 1.384(14) 0.665(2) -0.125(4) 0.107(4) Uiso 0.162(6) 1 d G U P A 3
C7P2 C 1.411(7) 0.7852(12) 0.018(3) 0.090(3) Uiso 0.162(6) 1 d D U P A 3
H7P2 H 1.4896 0.8036 -0.0619 0.108 Uiso 0.162(6) 1 calc R U P A 3
C8P2 C 1.383(8) 0.8447(12) 0.117(3) 0.090(3) Uiso 0.162(6) 1 d D U P A 3
H8P2 H 1.4790 0.8318 0.1999 0.108 Uiso 0.162(6) 1 calc R U P A 3
C9P2 C 1.518(8) 0.9142(12) 0.071(4) 0.090(3) Uiso 0.162(6) 1 d DG U P A 3
O1P2 O 1.520(14) 0.9637(16) 0.155(5) 0.093(4) Uiso 0.162(6) 1 d DG U P A 3
H1P2 H 1.5958 1.0005 0.1250 0.140 Uiso 0.162(6) 1 calc R U P A 3
O2P2 O 1.606(18) 0.924(2) -0.036(4) 0.093(4) Uiso 0.162(6) 1 d DG U P A 3
loop_
_atom_type_symbol
_atom_type_description
_atom_type_scat_dispersion_real
_atom_type_scat_dispersion_imag
_atom_type_scat_source
C C 0.0033 0.0016 'International Tables Vol C Tables 4.2.6.8 and 6.1.1.4'
H H 0.0000 0.0000 'International Tables Vol C Tables 4.2.6.8 and 6.1.1.4'
O O 0.0106 0.0060 'International Tables Vol C Tables 4.2.6.8 and 6.1.1.4'
F F 0.0171 0.0103 'International Tables Vol C Tables 4.2.6.8 and 6.1.1.4'
loop_
_geom_angle_atom_site_label_1
_geom_angle_atom_site_label_2
_geom_angle_atom_site_label_3
_geom_angle
C5R C6R C1R 113.3
C5R C6R C7R 119.0(11)
C1R C6R C7R 127.8(11)
F1R C1R C2R 117.6
F1R C1R C6R 118.0
C2R C1R C6R 124.4
C1R C2R C3R 118.6
C1R C2R H2R 117.2
C3R C2R H2R 124.2
C4R C3R C2R 120.5
C4R C3R H3R 121.0
C2R C3R H3R 118.5
C3R C4R C5R 118.5
C3R C4R H4R 124.1
C5R C4R H4R 117.4
F2R C5R C4R 117.7
F2R C5R C6R 117.6
C4R C5R C6R 124.7
C8R C7R C6R 124(2)
C8R C7R H7R 117.8
C6R C7R H7R 117.8
C7R C8R C9R 113(2)
C7R C8R H8R 123.3
C9R C8R H8R 123.3
O2R C9R O1R 122.4
O2R C9R C8R 130.4(13)
O1R C9R C8R 107.0(13)
C9R O1R H1R 109.5
C1P1 C6P1 C5P1 113.9
C1P1 C6P1 C7P1 123.8(11)
C5P1 C6P1 C7P1 121.7(11)
F1P1 C1P1 C6P1 118.5
F1P1 C1P1 C2P1 117.9
C6P1 C1P1 C2P1 123.7
C3P1 C2P1 C1P1 119.2
C3P1 C2P1 H2P1 126.0
C1P1 C2P1 H2P1 114.8
C2P1 C3P1 C4P1 120.3
C2P1 C3P1 H3P1 117.2
C4P1 C3P1 H3P1 122.5
C3P1 C4P1 C5P1 118.3
C3P1 C4P1 H4P1 121.4
C5P1 C4P1 H4P1 120.3
F2P1 C5P1 C4P1 119.2
F2P1 C5P1 C6P1 116.2
C4P1 C5P1 C6P1 124.6
C6P1 C7P1 C8P1 120.7(15)
C6P1 C7P1 C7P2 112.0(11)
C8P1 C7P1 C7P2 89.8(8)
C6P1 C7P1 H7P1 110.9
C8P1 C7P1 H7P1 110.9
C7P2 C7P1 H7P1 110.9
C9P1 C8P1 C7P1 117.9(15)
C9P1 C8P1 C8P2 113.6(13)
C7P1 C8P1 C8P2 90.3(8)
C9P1 C8P1 H8P1 111.2
C7P1 C8P1 H8P1 111.2
C8P2 C8P1 H8P1 111.2
O2P1 C9P1 O1P1 123.3
O2P1 C9P1 C8P1 123.6(11)
O1P1 C9P1 C8P1 113.0(11)
C9P1 O1P1 H1P1 109.5
C1P2 C6P2 C5P2 114.0
C1P2 C6P2 C7P2 126.7(10)
C5P2 C6P2 C7P2 118.8(10)
F1P2 C1P2 C2P2 118.2
F1P2 C1P2 C6P2 117.7
C2P2 C1P2 C6P2 124.2
C1P2 C2P2 C3P2 118.8
C1P2 C2P2 H2P2 118.0
C3P2 C2P2 H2P2 123.2
C4P2 C3P2 C2P2 120.3
C4P2 C3P2 H3P2 117.8
C2P2 C3P2 H3P2 121.9
C3P2 C4P2 C5P2 118.6
C3P2 C4P2 H4P2 127.2
C5P2 C4P2 H4P2 114.2
F2P2 C5P2 C4P2 117.8
F2P2 C5P2 C6P2 118.1
C4P2 C5P2 C6P2 124.1
C6P2 C7P2 C8P2 117.4(14)
C6P2 C7P2 C7P1 114.0(12)
C8P2 C7P2 C7P1 89.2(8)
C6P2 C7P2 H7P2 111.5
C8P2 C7P2 H7P2 111.5
C7P1 C7P2 H7P2 111.5
C9P2 C8P2 C7P2 112.8(14)
C9P2 C8P2 C8P1 109.1(13)
C7P2 C8P2 C8P1 89.5(8)
C9P2 C8P2 H8P2 114.3
C7P2 C8P2 H8P2 114.3
C8P1 C8P2 H8P2 114.3
O2P2 C9P2 O1P2 123.5
O2P2 C9P2 C8P2 122.9(11)
O1P2 C9P2 C8P2 113.5(11)
C9P2 O1P2 H1P2 109.5
loop_
_geom_bond_atom_site_label_1
_geom_bond_atom_site_label_2
_geom_bond_distance
C6R C5R 1.3899
C6R C1R 1.3934
C6R C7R 1.48(2)
C1R F1R 1.3530
C1R C2R 1.3702
C2R C3R 1.3738
C2R H2R 0.9021
C3R C4R 1.3696
C3R H3R 0.9523
C4R C5R 1.3718
C4R H4R 0.9112
C5R F2R 1.3547
C7R C8R 1.39(3)
C7R H7R 0.9300
C8R C9R 1.47(2)
C8R H8R 0.9300
C9R O2R 1.2194
C9R O1R 1.3135
O1R H1R 0.8200
C6P1 C1P1 1.3794
C6P1 C5P1 1.3863
C6P1 C7P1 1.511(9)
C1P1 F1P1 1.3561
C1P1 C2P1 1.3804
C2P1 C3P1 1.3665
C2P1 H2P1 0.9538
C3P1 C4P1 1.3674
C3P1 H3P1 0.9808
C4P1 C5P1 1.3758
C4P1 H4P1 0.9028
C5P1 F2P1 1.3551
C7P1 C8P1 1.536(10)
C7P1 C7P2 1.600(10)
C7P1 H7P1 0.9800
C8P1 C9P1 1.500(9)
C8P1 C8P2 1.591(10)
C8P1 H8P1 0.9800
C9P1 O2P1 1.2184
C9P1 O1P1 1.3039
O1P1 H1P1 0.8200
C6P2 C1P2 1.3865
C6P2 C5P2 1.3878
C6P2 C7P2 1.512(9)
C1P2 F1P2 1.3552
C1P2 C2P2 1.3710
C2P2 C3P2 1.3732
C2P2 H2P2 0.9181
C3P2 C4P2 1.3720
C3P2 H3P2 0.9850
C4P2 C5P2 1.3767
C4P2 H4P2 0.9481
C5P2 F2P2 1.3510
C7P2 C8P2 1.555(10)
C7P2 H7P2 0.9800
C8P2 C9P2 1.496(9)
C8P2 H8P2 0.9800
C9P2 O2P2 1.2132
C9P2 O1P2 1.3057
O1P2 H1P2 0.8200
