#------------------------------------------------------------------------------
#$Date: 2017-01-09 05:03:29 +0200 (Mon, 09 Jan 2017) $
#$Revision: 190066 $
#$URL: file:///home/coder/svn-repositories/cod/cif/7/22/68/7226844.cif $
#------------------------------------------------------------------------------
#
# This file is available in the Crystallography Open Database (COD),
# http://www.crystallography.net/
#
# All data on this site have been placed in the public domain by the
# contributors.
#
data_7226844
loop_
_publ_author_name
'Galica, T.'
'B\;akowicz, J.'
'Konieczny, K.'
'Turowska-Tyrk, I.'
_publ_section_title
;
 Structural transformations in crystals induced by radiation and pressure.
 Part 5. The influence of pressure on the course of the photochemical
 reaction in crystals of 2,6-difluorocinnamic acid
;
_journal_issue                   46
_journal_name_full               CrystEngComm
_journal_page_first              8871
_journal_paper_doi               10.1039/C6CE01652A
_journal_volume                  18
_journal_year                    2016
_chemical_formula_sum            'C9 H6 F2 O2'
_chemical_formula_weight         184.14
_chemical_properties_physical    ', Photo-sensitive'
_space_group_crystal_system      monoclinic
_space_group_IT_number           14
_space_group_name_Hall           '-P 2ybc'
_space_group_name_H-M_alt        'P 1 21/c 1'
_symmetry_space_group_name_Hall  '-P 2ybc'
_symmetry_space_group_name_H-M   'P 1 21/c 1'
_atom_sites_solution_hydrogens   mixed
_atom_sites_solution_primary     isomor
_atom_sites_solution_secondary   geom
_audit_creation_method           SHELXL-2014/7
_audit_update_record
;
2016-07-27 deposited with the CCDC.
2016-10-19 downloaded from the CCDC.
;
_cell_angle_alpha                90
_cell_angle_beta                 90.798(16)
_cell_angle_gamma                90
_cell_formula_units_Z            4
_cell_length_a                   3.6652(5)
_cell_length_b                   19.070(3)
_cell_length_c                   10.517(3)
_cell_measurement_pressure       2100000
_cell_measurement_reflns_used    697
_cell_measurement_temperature    299(2)
_cell_measurement_theta_max      21.53
_cell_measurement_theta_min      6.40
_cell_volume                     735.0(3)
_computing_cell_refinement       'CrysAlisPro (Rigaku OD, 2015)'
_computing_data_collection       'CrysAlisPro (Rigaku OD, 2015)'
_computing_data_reduction        'CrysAlisPro (Rigaku OD, 2015)'
_computing_molecular_graphics    'ORTEP-3 for Windows (Farrugia, 2012)'
_computing_publication_material  'SHELXL-2014/7 (Sheldrick, 2015)'
_computing_structure_refinement  'SHELXL-2014/7 (Sheldrick, 2015)'
_computing_structure_solution    'SHELXS-2013/1 (Sheldrick, 2008)'
_diffrn_ambient_pressure         2100000
_diffrn_ambient_temperature      299(2)
_diffrn_detector_area_resol_mean 15.9718
_diffrn_measured_fraction_theta_full 0.536
_diffrn_measured_fraction_theta_max 0.536
_diffrn_measurement_device_type  'KM4 with Eos CCD'
_diffrn_measurement_method       '\f- and \w scans'
_diffrn_radiation_monochromator  graphite
_diffrn_radiation_source         'fine-focus sealed tube'
_diffrn_radiation_type           MoK\a
_diffrn_radiation_wavelength     0.71073
_diffrn_reflns_av_R_equivalents  0.0554
_diffrn_reflns_av_unetI/netI     0.0481
_diffrn_reflns_Laue_measured_fraction_full 0.536
_diffrn_reflns_Laue_measured_fraction_max 0.536
_diffrn_reflns_limit_h_max       4
_diffrn_reflns_limit_h_min       -4
_diffrn_reflns_limit_k_max       19
_diffrn_reflns_limit_k_min       -19
_diffrn_reflns_limit_l_max       8
_diffrn_reflns_limit_l_min       -9
_diffrn_reflns_number            3131
_diffrn_reflns_point_group_measured_fraction_full 0.536
_diffrn_reflns_point_group_measured_fraction_max 0.536
_diffrn_reflns_theta_full        24.448
_diffrn_reflns_theta_max         24.448
_diffrn_reflns_theta_min         6.426
_exptl_absorpt_coefficient_mu    0.150
_exptl_absorpt_correction_T_max  1.00000
_exptl_absorpt_correction_T_min  0.35682
_exptl_absorpt_correction_type   multi-scan
_exptl_absorpt_process_details
;
SCALE3 ABSPACK (Rigaku OD, 2015).
;
_exptl_crystal_colour            colourless
_exptl_crystal_density_diffrn    1.664
_exptl_crystal_description       block
_exptl_crystal_F_000             376
_exptl_crystal_size_max          0.24
_exptl_crystal_size_mid          0.15
_exptl_crystal_size_min          0.10
_refine_diff_density_max         0.230
_refine_diff_density_min         -0.186
_refine_diff_density_rms         0.053
_refine_ls_extinction_method     none
_refine_ls_goodness_of_fit_ref   1.062
_refine_ls_hydrogen_treatment    constr
_refine_ls_matrix_type           full
_refine_ls_number_parameters     84
_refine_ls_number_reflns         652
_refine_ls_number_restraints     63
_refine_ls_restrained_S_all      1.028
_refine_ls_R_factor_all          0.1287
_refine_ls_R_factor_gt           0.0686
_refine_ls_shift/su_max          0.000
_refine_ls_shift/su_mean         0.000
_refine_ls_structure_factor_coef Fsqd
_refine_ls_weighting_details
'w=1/[\s^2^(Fo^2^)+(0.1361P)^2^+0.1794P] where P=(Fo^2^+2Fc^2^)/3'
_refine_ls_weighting_scheme      calc
_refine_ls_wR_factor_gt          0.1758
_refine_ls_wR_factor_ref         0.2297
_reflns_Friedel_coverage         0.000
_reflns_number_gt                378
_reflns_number_total             652
_reflns_threshold_expression     'I > 2\s(I)'
_cod_data_source_file            c6ce01652a1.cif
_cod_data_source_block           20secUV_p3
_cod_depositor_comments
'Adding full bibliography for 7226837--7226849.cif.'
_cod_database_code               7226844
_shelx_shelxl_version_number     2014/7
_shelx_space_group_comment
;
The symmetry employed for this shelxl refinement is uniquely defined
by the following loop, which should always be used as a source of
symmetry information in preference to the above space-group names.
They are only intended as comments.
;
_shelx_res_file
;

    20secUV_2.1GPa.res created by SHELXL-2014/7


TITL 20secUV_2.1GPa
CELL 0.71073   3.6652  19.070  10.517  90.000  90.798  90.000
ZERR    4.00   0.0005   0.003   0.003   0.000   0.016   0.000
LATT  1
SYMM -x, y+1/2,-z+1/2
SFAC C H O F
UNIT 36 24 8 8
OMIT -2 50
L.S. 6
FMAP 2
PLAN -10
BOND $H
HTAB
ACTA
DFIX 1.499 0.01 C6P1 C7P1
DFIX 1.536 0.01 C7P1 C8P1
DFIX 1.497 0.01 C8P1 C9P1
DFIX 1.504 0.01 C6P2 C7P2
DFIX 1.559 0.01 C7P2 C8P2
DFIX 1.493 0.01 C8P2 C9P2
DFIX 1.574 0.01 C7P1 C7P2
DFIX 1.584 0.01 C8P1 C8P2

DANG 2.583 0.02 C1P1 C7P1
DANG 2.478 0.02 C5P1 C7P1
DANG 2.343 0.02 C8P1 O1P1
DANG 2.393 0.02 C8P1 O2P1

DANG 2.558 0.02 C1P2 C7P2
DANG 2.525 0.02 C5P2 C7P2
DANG 2.353 0.02 C8P2 O1P2
DANG 2.373 0.02 C8P2 O2P2

DANG 2.648 0.02 C6P2 C7P1
DANG 2.620 0.02 C6P2 C8P2
DANG 2.663 0.02 C6P1 C7P2
DANG 2.666 0.02 C6P1 C8P1
DANG 2.558 0.02 C9P2 C7P2
DANG 2.555 0.02 C9P2 C8P1
DANG 2.578 0.02 C9P1 C7P1
DANG 2.616 0.02 C9P1 C8P2
DANG 2.205 0.02 C7P2 C8P1
DANG 2.205 0.02 C8P2 C7P1

FLAT C1P1 C6P1 C5P1 C7P1

SIMU 0.02 0.04 10.0 O1R O2R O1P1
SIMU 0.02 0.04 10.0 F1R F2R F1P1

FREE C7P1 C6P2_$3
FREE C8P1 F1P2_$3
EQIV $3   x-1, y, z
FREE C8P2 C9P1_$1
EQIV $1   x+1, y, z
BIND 2 3
TEMP 26

WGHT    0.136100    0.179400
FVAR       1.92912   0.88993   0.05967   0.07386   0.09604
PART 1
AFIX   6
C6R   1    0.720813    0.709545    0.076064    21.00000   31.00000
C1R   1    0.888275    0.685073    0.187237    21.00000   31.00000
F1R   4    1.001816    0.732889    0.274209    21.00000    0.10076    0.05992 =
         0.07391   -0.00877   -0.02957    0.00440
C2R   1    0.947956    0.615704    0.214365    21.00000   31.00000
H2R   2    1.059986    0.605592    0.289055    21.00000   -1.20000
C3R   1    0.842927    0.566291    0.126133    21.00000   31.00000
H3R   2    0.883507    0.518094    0.145291    21.00000   -1.20000
C4R   1    0.678509    0.586138    0.014061    21.00000   31.00000
H4R   2    0.608995    0.555722   -0.048562    21.00000   -1.20000
C5R   1    0.619243    0.656211   -0.007255    21.00000   31.00000
F2R   4    0.447478    0.674758   -0.117075    21.00000    0.09260    0.05951 =
         0.06478    0.00089   -0.01951   -0.00593
AFIX   0
C7R   1    0.644636    0.782484    0.043642    21.00000   31.00000
AFIX  43
H7R   2    0.515189    0.790115   -0.031775    21.00000   -1.20000
AFIX   0
C8R   1    0.739258    0.839530    0.109712    21.00000   31.00000
AFIX  43
H8R   2    0.873604    0.835096    0.184951    21.00000   -1.20000
AFIX   6
C9R   1    0.632263    0.908752    0.064070    21.00000   31.00000
O1R   3    0.729597    0.959654    0.141535    21.00000    0.10607    0.04797 =
         0.06935   -0.01754   -0.02242    0.00093
AFIX 147
H1R   2    0.645642    0.996873    0.115269    21.00000   -1.50000
AFIX   5
O2R   3    0.453957    0.919168   -0.032847    21.00000    0.08883    0.04137 =
         0.09419   -0.00721   -0.02480    0.00312
AFIX   6
PART 0

PART 2
C6P1  1    0.851706    0.701272    0.076404   -20.50000   31.00000
C1P1  1    0.920184    0.676944    0.197917   -20.50000   31.00000
F1P1  4    1.081203    0.720852    0.283203   -20.50000   51.00000
C2P1  1    0.829026    0.610468    0.238579   -20.50000   31.00000
H2P1  2    0.895510    0.600369    0.324654   -20.50000   -1.20000
C3P1  1    0.664607    0.565148    0.155029   -20.50000   31.00000
H3P1  2    0.603973    0.518272    0.186748   -20.50000   -1.20000
C4P1  1    0.584299    0.586078    0.033475   -20.50000   31.00000
H4P1  2    0.470129    0.557190   -0.022250   -20.50000   -1.20000
C5P1  1    0.677798    0.653037   -0.002242   -20.50000   31.00000
F2P1  4    0.587697    0.675622   -0.120729   -20.50000   51.00000
AFIX   0
C7P1  1    0.979548    0.770388    0.024032   -20.50000   31.00000
AFIX  13
H7P1  2    0.874665    0.777670   -0.061170   -20.50000   -1.20000
AFIX   0
C8P1  1    0.946273    0.838061    0.102423   -20.50000   31.00000
AFIX  13
H8P1  2    0.819952    0.828851    0.182223   -20.50000   -1.20000
AFIX   6
C9P1  1    0.786329    0.900718    0.036959   -20.50000   31.00000
O1P1  3    0.869702    0.959655    0.093102   -20.50000   41.00000
AFIX  83
H1P1  2    0.773986    0.992292    0.054369   -20.50000   -1.50000
AFIX   5
O2P1  3    0.586211    0.896968   -0.056288   -20.50000   41.00000
PART 0
PART 3
AFIX   6
C6P2  1    1.638023    0.716713    0.050644   -20.50000   31.00000
C1P2  1    1.848656    0.708226    0.160085   -20.50000   31.00000
F1P2  4    1.875393    0.763411    0.240877   -20.50000   51.00000
C2P2  1    2.030726    0.647709    0.191418   -20.50000   31.00000
H2P2  2    2.165706    0.647137    0.265611   -20.50000   -1.20000
C3P2  1    2.000281    0.590916    0.111719   -20.50000   31.00000
H3P2  2    2.120511    0.545906    0.131192   -20.50000   -1.20000
C4P2  1    1.792768    0.595123    0.002399   -20.50000   31.00000
H4P2  2    1.748884    0.559035   -0.057907   -20.50000   -1.20000
C5P2  1    1.619936    0.657429   -0.025714   -20.50000   31.00000
F2P2  4    1.421079    0.661016   -0.134657   -20.50000   51.00000
AFIX   0
C7P2  1    1.409497    0.780639    0.020608   -20.50000   31.00000
AFIX  13
H7P2  2    1.482423    0.801502   -0.060316   -20.50000   -1.20000
AFIX   0
C8P2  1    1.374566    0.838143    0.124993   -20.50000   31.00000
AFIX  13
H8P2  2    1.448020    0.821873    0.209951   -20.50000   -1.20000
AFIX   6
C9P2  1    1.538083    0.907203    0.090353   -20.50000   31.00000
O1P2  3    1.534252    0.953510    0.181775   -20.50000   41.00000
AFIX  83
H1P2  2    1.623818    0.990312    0.156675   -20.50000   -1.50000
AFIX   5
O2P2  3    1.634985    0.920262   -0.016912   -20.50000   41.00000
PART 0
AFIX   0
HKLF 4

REM  20secUV_2.1GPa
REM R1 =  0.0686 for     378 Fo > 4sig(Fo)  and  0.1287 for all     652 data
REM     84 parameters refined using     63 restraints

END

WGHT      0.1361      0.1794

REM Instructions for potential hydrogen bonds
EQIV $4 x+1, -y+3/2, z+1/2
HTAB C2R O2R_$4
HTAB C8R F1R
EQIV $5 x, -y+3/2, z+1/2
HTAB C8R F2R_$5
EQIV $6 -x+1, -y+2, -z
HTAB O1R O2R_$6
HTAB C2P1 O2P1_$5
EQIV $7 x-1, -y+3/2, z+1/2
HTAB C2P1 O2P2_$7
HTAB C8P1 F2P1_$5
HTAB C8P1 F1P2_$3
HTAB C8P1 F2P2_$7
EQIV $8 -x+2, -y+2, -z
HTAB O1P1 O1P1_$8
HTAB O1P1 O2P1_$6
HTAB O1P1 O2P2_$8
EQIV $9 x+2, -y+3/2, z+1/2
HTAB C2P2 O2P1_$9
HTAB C8P2 F1P1
HTAB C8P2 F2P1_$4
HTAB C8P2 F1P2
HTAB C8P2 F2P2_$5
HTAB O1P2 O2P1_$8
EQIV $10 -x+3, -y+2, -z
HTAB O1P2 O2P2_$10

REM Highest difference peak  0.230,  deepest hole -0.186,  1-sigma level  0.053
Q1    1   0.6340  0.7100  0.0938  11.00000  0.05    0.23
Q2    1   0.9022  0.8375  0.0549  11.00000  0.05    0.19
Q3    1   0.5002  0.7326  0.2296  11.00000  0.05    0.19
Q4    1   0.8607  0.6185  0.2671  11.00000  0.05    0.18
Q5    1   1.0886  0.6492  0.0859  11.00000  0.05    0.16
Q6    1   0.2297  0.6996  0.0440  11.00000  0.05    0.16
Q7    1   1.0508  0.6414  0.4054  11.00000  0.05    0.16
Q8    1   0.7299  0.6730  0.2255  11.00000  0.05    0.16
Q9    1   0.2385  0.9561  0.1142  11.00000  0.05    0.16
Q10   1   0.7929  0.7417 -0.0542  11.00000  0.05    0.15
;
_shelx_res_checksum              108
loop_
_space_group_symop_operation_xyz
'x, y, z'
'-x, y+1/2, -z+1/2'
'-x, -y, -z'
'x, -y-1/2, z-1/2'
loop_
_atom_site_label
_atom_site_type_symbol
_atom_site_fract_x
_atom_site_fract_y
_atom_site_fract_z
_atom_site_U_iso_or_equiv
_atom_site_adp_type
_atom_site_occupancy
_atom_site_site_symmetry_order
_atom_site_calc_flag
_atom_site_refinement_flags_posn
_atom_site_refinement_flags_adp
_atom_site_refinement_flags_occupancy
_atom_site_disorder_assembly
_atom_site_disorder_group
C6R C 0.7208(10) 0.70954(14) 0.0761(4) 0.0597(11) Uiso 0.890(7) 1 d G U P A 1
C1R C 0.8883(8) 0.68507(16) 0.1872(3) 0.0597(11) Uiso 0.890(7) 1 d G U P A 1
F1R F 1.0018(12) 0.7329(2) 0.2742(4) 0.078(2) Uani 0.890(7) 1 d G U P A 1
C2R C 0.9480(10) 0.61570(17) 0.2144(4) 0.0597(11) Uiso 0.890(7) 1 d G U P A 1
H2R H 1.0600 0.6056 0.2891 0.072 Uiso 0.890(7) 1 d G U P A 1
C3R C 0.8429(12) 0.56629(14) 0.1261(5) 0.0597(11) Uiso 0.890(7) 1 d G U P A 1
H3R H 0.8835 0.5181 0.1453 0.072 Uiso 0.890(7) 1 d G U P A 1
C4R C 0.6785(10) 0.58614(15) 0.0141(4) 0.0597(11) Uiso 0.890(7) 1 d G U P A 1
H4R H 0.6090 0.5557 -0.0486 0.072 Uiso 0.890(7) 1 d G U P A 1
C5R C 0.6192(9) 0.65621(16) -0.0073(4) 0.0597(11) Uiso 0.890(7) 1 d G U P A 1
F2R F 0.4475(14) 0.6748(2) -0.1171(4) 0.0725(19) Uani 0.890(7) 1 d G U P A 1
C7R C 0.6446(18) 0.7825(4) 0.0436(8) 0.0597(11) Uiso 0.890(7) 1 d . U P A 1
H7R H 0.5152 0.7901 -0.0318 0.072 Uiso 0.890(7) 1 calc R U P A 1
C8R C 0.7393(17) 0.8395(4) 0.1097(9) 0.0597(11) Uiso 0.890(7) 1 d . U P A 1
H8R H 0.8736 0.8351 0.1850 0.072 Uiso 0.890(7) 1 calc R U P A 1
C9R C 0.632(2) 0.90875(19) 0.0641(5) 0.0597(11) Uiso 0.890(7) 1 d G U P A 1
O1R O 0.7296(17) 0.9597(3) 0.1415(5) 0.075(2) Uani 0.890(7) 1 d G U P A 1
H1R H 0.6456 0.9969 0.1153 0.112 Uiso 0.890(7) 1 calc R U P A 1
O2R O 0.4540(18) 0.9192(3) -0.0328(5) 0.075(2) Uani 0.890(7) 1 d G U P A 1
C6P1 C 0.852(10) 0.7013(18) 0.076(5) 0.0597(11) Uiso 0.055(4) 1 d DG U P A 2
C1P1 C 0.920(14) 0.677(2) 0.198(5) 0.0597(11) Uiso 0.055(4) 1 d DG U P A 2
F1P1 F 1.08(2) 0.721(4) 0.283(5) 0.096(14) Uiso 0.055(4) 1 d G U P A 2
C2P1 C 0.829(17) 0.610(3) 0.239(7) 0.0597(11) Uiso 0.055(4) 1 d G U P A 2
H2P1 H 0.8955 0.6004 0.3247 0.072 Uiso 0.055(4) 1 d G U P A 2
C3P1 C 0.665(17) 0.565(2) 0.155(8) 0.0597(11) Uiso 0.055(4) 1 d G U P A 2
H3P1 H 0.6040 0.5183 0.1867 0.072 Uiso 0.055(4) 1 d G U P A 2
C4P1 C 0.584(15) 0.586(2) 0.033(8) 0.0597(11) Uiso 0.055(4) 1 d G U P A 2
H4P1 H 0.4701 0.5572 -0.0222 0.072 Uiso 0.055(4) 1 d G U P A 2
C5P1 C 0.678(11) 0.653(2) -0.002(6) 0.0597(11) Uiso 0.055(4) 1 d DG U P A 2
F2P1 F 0.588(17) 0.676(3) -0.121(6) 0.096(14) Uiso 0.055(4) 1 d G U P A 2
C7P1 C 0.980(9) 0.7704(17) 0.024(5) 0.0597(11) Uiso 0.055(4) 1 d D U P A 2
H7P1 H 0.8747 0.7777 -0.0612 0.072 Uiso 0.055(4) 1 calc R U P A 2
C8P1 C 0.946(10) 0.8381(18) 0.102(5) 0.0597(11) Uiso 0.055(4) 1 d D U P A 2
H8P1 H 0.8200 0.8289 0.1822 0.072 Uiso 0.055(4) 1 calc R U P A 2
C9P1 C 0.786(18) 0.901(2) 0.037(9) 0.0597(11) Uiso 0.055(4) 1 d DG U P A 2
O1P1 O 0.87(2) 0.960(2) 0.093(9) 0.074(14) Uiso 0.055(4) 1 d DG U P A 2
H1P1 H 0.7740 0.9923 0.0544 0.111 Uiso 0.055(4) 1 calc R U P A 2
O2P1 O 0.59(3) 0.897(3) -0.056(8) 0.074(14) Uiso 0.055(4) 1 d DG U P A 2
C6P2 C 1.638(11) 0.717(2) 0.051(5) 0.0597(11) Uiso 0.055(4) 1 d DG U P A 3
C1P2 C 1.849(10) 0.708(2) 0.160(4) 0.0597(11) Uiso 0.055(4) 1 d DG U P A 3
F1P2 F 1.875(15) 0.763(3) 0.241(5) 0.096(14) Uiso 0.055(4) 1 d G U P A 3
C2P2 C 2.031(14) 0.648(3) 0.191(5) 0.0597(11) Uiso 0.055(4) 1 d G U P A 3
H2P2 H 2.1657 0.6471 0.2656 0.072 Uiso 0.055(4) 1 d G U P A 3
C3P2 C 2.000(18) 0.591(2) 0.112(7) 0.0597(11) Uiso 0.055(4) 1 d G U P A 3
H3P2 H 2.1205 0.5459 0.1312 0.072 Uiso 0.055(4) 1 d G U P A 3
C4P2 C 1.793(17) 0.595(2) 0.002(7) 0.0597(11) Uiso 0.055(4) 1 d G U P A 3
H4P2 H 1.7489 0.5590 -0.0579 0.072 Uiso 0.055(4) 1 d G U P A 3
C5P2 C 1.620(14) 0.657(2) -0.026(5) 0.0597(11) Uiso 0.055(4) 1 d DG U P A 3
F2P2 F 1.42(2) 0.661(3) -0.135(6) 0.096(14) Uiso 0.055(4) 1 d G U P A 3
C7P2 C 1.409(9) 0.7806(17) 0.021(4) 0.0597(11) Uiso 0.055(4) 1 d D U P A 3
H7P2 H 1.4824 0.8015 -0.0603 0.072 Uiso 0.055(4) 1 calc R U P A 3
C8P2 C 1.375(11) 0.8381(17) 0.125(4) 0.0597(11) Uiso 0.055(4) 1 d D U P A 3
H8P2 H 1.4480 0.8219 0.2100 0.072 Uiso 0.055(4) 1 calc R U P A 3
C9P2 C 1.538(16) 0.907(2) 0.090(6) 0.0597(11) Uiso 0.055(4) 1 d DG U P A 3
O1P2 O 1.53(2) 0.954(2) 0.182(7) 0.074(14) Uiso 0.055(4) 1 d DG U P A 3
H1P2 H 1.6238 0.9903 0.1567 0.111 Uiso 0.055(4) 1 calc R U P A 3
O2P2 O 1.63(3) 0.920(3) -0.017(7) 0.074(14) Uiso 0.055(4) 1 d DG U P A 3
loop_
_atom_site_aniso_label
_atom_site_aniso_U_11
_atom_site_aniso_U_22
_atom_site_aniso_U_33
_atom_site_aniso_U_23
_atom_site_aniso_U_13
_atom_site_aniso_U_12
F1R 0.101(4) 0.060(4) 0.074(5) -0.009(2) -0.030(3) 0.004(3)
F2R 0.093(3) 0.060(4) 0.065(5) 0.001(2) -0.020(3) -0.006(2)
O1R 0.106(5) 0.048(4) 0.069(7) -0.018(3) -0.022(4) 0.001(3)
O2R 0.089(4) 0.041(4) 0.094(8) -0.007(2) -0.025(4) 0.003(3)
loop_
_atom_type_symbol
_atom_type_description
_atom_type_scat_dispersion_real
_atom_type_scat_dispersion_imag
_atom_type_scat_source
C C 0.0033 0.0016 'International Tables Vol C Tables 4.2.6.8 and 6.1.1.4'
H H 0.0000 0.0000 'International Tables Vol C Tables 4.2.6.8 and 6.1.1.4'
O O 0.0106 0.0060 'International Tables Vol C Tables 4.2.6.8 and 6.1.1.4'
F F 0.0171 0.0103 'International Tables Vol C Tables 4.2.6.8 and 6.1.1.4'
loop_
_geom_angle_atom_site_label_1
_geom_angle_atom_site_label_2
_geom_angle_atom_site_label_3
_geom_angle
C5R C6R C1R 113.3
C5R C6R C7R 120.1(4)
C1R C6R C7R 126.6(4)
F1R C1R C2R 117.6
F1R C1R C6R 118.0
C2R C1R C6R 124.4
C1R C2R C3R 118.6
C1R C2R H2R 117.2
C3R C2R H2R 124.2
C4R C3R C2R 120.5
C4R C3R H3R 121.0
C2R C3R H3R 118.5
C3R C4R C5R 118.5
C3R C4R H4R 124.1
C5R C4R H4R 117.4
F2R C5R C4R 117.7
F2R C5R C6R 117.6
C4R C5R C6R 124.7
C8R C7R C6R 127.5(8)
C8R C7R H7R 116.3
C6R C7R H7R 116.3
C7R C8R C9R 120.0(8)
C7R C8R H8R 120.0
C9R C8R H8R 120.0
O2R C9R O1R 122.4
O2R C9R C8R 124.2(5)
O1R C9R C8R 113.3(5)
C9R O1R H1R 109.5
C1P1 C6P1 C5P1 113.9
C1P1 C6P1 C7P1 125.4(12)
C5P1 C6P1 C7P1 120.4(12)
F1P1 C1P1 C6P1 118.5
F1P1 C1P1 C2P1 117.8
C6P1 C1P1 C2P1 123.7
C3P1 C2P1 C1P1 119.2
C3P1 C2P1 H2P1 126.0
C1P1 C2P1 H2P1 114.8
C2P1 C3P1 C4P1 120.3
C2P1 C3P1 H3P1 117.2
C4P1 C3P1 H3P1 122.5
C3P1 C4P1 C5P1 118.4
C3P1 C4P1 H4P1 121.4
C5P1 C4P1 H4P1 120.3
F2P1 C5P1 C4P1 119.2
F2P1 C5P1 C6P1 116.2
C4P1 C5P1 C6P1 124.6
C6P1 C7P1 C8P1 120.7(17)
C6P1 C7P1 C7P2 115.5(14)
C8P1 C7P1 C7P2 89.7(9)
C6P1 C7P1 H7P1 109.8
C8P1 C7P1 H7P1 109.8
C7P2 C7P1 H7P1 109.8
C9P1 C8P1 C7P1 117.2(17)
C9P1 C8P1 C8P2 116.7(16)
C7P1 C8P1 C8P2 89.7(9)
C9P1 C8P1 H8P1 110.5
C7P1 C8P1 H8P1 110.5
C8P2 C8P1 H8P1 110.5
O2P1 C9P1 O1P1 123.3
O2P1 C9P1 C8P1 123.5(13)
O1P1 C9P1 C8P1 113.1(12)
C9P1 O1P1 H1P1 109.5
C1P2 C6P2 C5P2 114.0
C1P2 C6P2 C7P2 124.7(11)
C5P2 C6P2 C7P2 121.0(11)
F1P2 C1P2 C2P2 118.2
F1P2 C1P2 C6P2 117.7
C2P2 C1P2 C6P2 124.1
C1P2 C2P2 C3P2 118.8
C1P2 C2P2 H2P2 118.0
C3P2 C2P2 H2P2 123.2
C4P2 C3P2 C2P2 120.3
C4P2 C3P2 H3P2 117.8
C2P2 C3P2 H3P2 121.9
C3P2 C4P2 C5P2 118.6
C3P2 C4P2 H4P2 127.2
C5P2 C4P2 H4P2 114.2
F2P2 C5P2 C4P2 117.8
F2P2 C5P2 C6P2 118.1
C4P2 C5P2 C6P2 124.1
C6P2 C7P2 C8P2 118.1(16)
C6P2 C7P2 C7P1 116.3(15)
C8P2 C7P2 C7P1 88.8(9)
C6P2 C7P2 H7P2 110.6
C8P2 C7P2 H7P2 110.6
C7P1 C7P2 H7P2 110.6
C9P2 C8P2 C7P2 114.3(16)
C9P2 C8P2 C8P1 111.4(15)
C7P2 C8P2 C8P1 89.1(9)
C9P2 C8P2 H8P2 113.3
C7P2 C8P2 H8P2 113.3
C8P1 C8P2 H8P2 113.3
O2P2 C9P2 O1P2 123.5
O2P2 C9P2 C8P2 122.1(14)
O1P2 C9P2 C8P2 114.1(13)
C9P2 O1P2 H1P2 109.5
loop_
_geom_bond_atom_site_label_1
_geom_bond_atom_site_label_2
_geom_bond_distance
C6R C5R 1.3899
C6R C1R 1.3934
C6R C7R 1.458(8)
C1R F1R 1.3530
C1R C2R 1.3702
C2R C3R 1.3738
C2R H2R 0.9021
C3R C4R 1.3696
C3R H3R 0.9522
C4R C5R 1.3718
C4R H4R 0.9113
C5R F2R 1.3547
C7R C8R 1.334(10)
C7R H7R 0.9300
C8R C9R 1.457(8)
C8R H8R 0.9300
C9R O2R 1.2194
C9R O1R 1.3135
O1R H1R 0.8200
C6P1 C1P1 1.3793
C6P1 C5P1 1.3863
C6P1 C7P1 1.506(9)
C1P1 F1P1 1.3562
C1P1 C2P1 1.3804
C2P1 C3P1 1.3665
C2P1 H2P1 0.9538
C3P1 C4P1 1.3674
C3P1 H3P1 0.9807
C4P1 C5P1 1.3757
C4P1 H4P1 0.9029
C5P1 F2P1 1.3550
C7P1 C8P1 1.537(10)
C7P1 C7P2 1.589(10)
C7P1 H7P1 0.9800
C8P1 C9P1 1.495(9)
C8P1 C8P2 1.584(10)
C8P1 H8P1 0.9800
C9P1 O2P1 1.2185
C9P1 O1P1 1.3039
O1P1 H1P1 0.8200
C6P2 C1P2 1.3864
C6P2 C5P2 1.3878
C6P2 C7P2 1.510(9)
C1P2 F1P2 1.3553
C1P2 C2P2 1.3710
C2P2 C3P2 1.3731
C2P2 H2P2 0.9181
C3P2 C4P2 1.3720
C3P2 H3P2 0.9851
C4P2 C5P2 1.3767
C4P2 H4P2 0.9481
C5P2 F2P2 1.3511
C7P2 C8P2 1.558(10)
C7P2 H7P2 0.9800
C8P2 C9P2 1.494(9)
C8P2 H8P2 0.9800
C9P2 O2P2 1.2132
C9P2 O1P2 1.3057
O1P2 H1P2 0.8200
