#------------------------------------------------------------------------------
#$Date: 2016-10-17 09:56:24 +0300 (Mon, 17 Oct 2016) $
#$Revision: 187362 $
#$URL: file:///home/coder/svn-repositories/cod/cif/7/22/68/7226805.cif $
#------------------------------------------------------------------------------
#
# This file is available in the Crystallography Open Database (COD),
# http://www.crystallography.net/
#
# All data on this site have been placed in the public domain by the
# contributors.
#
data_7226805
loop_
_publ_author_name
'Hou, Xiaomin'
'Tang, Sifu'
_publ_section_title
;
 Four new silver phosphonates constructed from semi-rigid phosphonate
 ligands: syntheses, structures and properties
;
_journal_name_full               'RSC Adv.'
_journal_paper_doi               10.1039/C6RA21382K
_journal_year                    2016
_chemical_formula_sum            'C10 H14 Ag2 O6 P2'
_chemical_formula_weight         507.89
_chemical_name_systematic
;
 ?
;
_space_group_crystal_system      monoclinic
_space_group_IT_number           14
_space_group_name_Hall           '-P 2ybc'
_space_group_name_H-M_alt        'P 1 21/c 1'
_symmetry_space_group_name_Hall  '-P 2ybc'
_symmetry_space_group_name_H-M   'P 1 21/c 1'
_atom_sites_solution_hydrogens   geom
_audit_creation_method           SHELXL-2013
_audit_update_record
;
2016-08-12 deposited with the CCDC.
2016-10-17 downloaded from the CCDC.
;
_cell_angle_alpha                90
_cell_angle_beta                 94.412(13)
_cell_angle_gamma                90
_cell_formula_units_Z            2
_cell_length_a                   6.747(2)
_cell_length_b                   6.1736(16)
_cell_length_c                   15.970(5)
_cell_measurement_reflns_used    3501
_cell_measurement_temperature    300(2)
_cell_measurement_theta_max      24.998
_cell_measurement_theta_min      3.028
_cell_volume                     663.2(3)
_computing_cell_refinement       'Bruker XSCANS'
_computing_data_collection       'Bruker XSCANS'
_computing_data_reduction        'Bruker SHELXTL'
_computing_molecular_graphics    'Bruker SHELXTL'
_computing_publication_material  'Bruker SHELXTL'
_computing_structure_refinement  'SHELXL-2013 (Sheldrick, 2013)'
_computing_structure_solution    'Bruker SHELXTL'
_diffrn_ambient_temperature      300(2)
_diffrn_measured_fraction_theta_full 0.958
_diffrn_measured_fraction_theta_max 0.989
_diffrn_measurement_device_type  'Bruker P4'
_diffrn_measurement_method       '\w scans'
_diffrn_radiation_type           MoK\a
_diffrn_radiation_wavelength     0.71073
_diffrn_reflns_av_R_equivalents  0.0310
_diffrn_reflns_av_unetI/netI     0.0308
_diffrn_reflns_Laue_measured_fraction_full 0.958
_diffrn_reflns_Laue_measured_fraction_max 0.989
_diffrn_reflns_limit_h_max       7
_diffrn_reflns_limit_h_min       -7
_diffrn_reflns_limit_k_max       7
_diffrn_reflns_limit_k_min       -6
_diffrn_reflns_limit_l_max       18
_diffrn_reflns_limit_l_min       -18
_diffrn_reflns_number            3501
_diffrn_reflns_point_group_measured_fraction_full 0.958
_diffrn_reflns_point_group_measured_fraction_max 0.989
_diffrn_reflns_theta_full        25.242
_diffrn_reflns_theta_max         24.998
_diffrn_reflns_theta_min         3.028
_exptl_absorpt_coefficient_mu    3.214
_exptl_absorpt_correction_T_max  0.825
_exptl_absorpt_correction_T_min  0.467
_exptl_absorpt_correction_type   multi-scan
_exptl_crystal_colour            colorless
_exptl_crystal_density_diffrn    2.543
_exptl_crystal_description       plate
_exptl_crystal_F_000             492
_exptl_crystal_size_max          0.24
_exptl_crystal_size_mid          0.20
_exptl_crystal_size_min          0.06
_refine_diff_density_max         1.363
_refine_diff_density_min         -1.092
_refine_diff_density_rms         0.121
_refine_ls_extinction_method     none
_refine_ls_goodness_of_fit_ref   1.060
_refine_ls_hydrogen_treatment    constr
_refine_ls_matrix_type           full
_refine_ls_number_parameters     92
_refine_ls_number_reflns         1144
_refine_ls_number_restraints     0
_refine_ls_restrained_S_all      1.060
_refine_ls_R_factor_all          0.0477
_refine_ls_R_factor_gt           0.0329
_refine_ls_shift/su_max          0.000
_refine_ls_shift/su_mean         0.000
_refine_ls_structure_factor_coef Fsqd
_refine_ls_weighting_details
;
 w=1/[\s^2^(Fo^2^)+(0.0303P)^2^+3.1481P]
 where P=(Fo^2^+2Fc^2^)/3
;
_refine_ls_weighting_scheme      calc
_refine_ls_wR_factor_gt          0.0737
_refine_ls_wR_factor_ref         0.0794
_reflns_Friedel_coverage         0.000
_reflns_number_gt                920
_reflns_number_total             1144
_reflns_threshold_expression     'I > 2\s(I)'
_cod_data_source_file            c6ra21382k2.cif
_cod_data_source_block           2
_cod_original_cell_volume        663.2(4)
_cod_database_code               7226805
_shelx_space_group_comment
;
The symmetry employed for this shelxl refinement is uniquely defined
by the following loop, which should always be used as a source of
symmetry information in preference to the above space-group names.
They are only intended as comments.
;
_shelxl_version_number           2013-2
_shelx_res_file
;
TITL 1 in P2(1)/c
CELL 0.71073   6.7470   6.1736  15.9703  90.000  94.412  90.000
ZERR    2.00   0.0024   0.0016   0.0050   0.000   0.013   0.000
LATT  1
SYMM -X, 0.5+Y, 0.5-Z
SFAC C H O P Ag
UNIT 20 28 12 4  4
TEMP 27.150

L.S. 10
BOND
OMIT 4   5  11
OMIT 2   2  15
OMIT -3 50
acta
FMAP 2
PLAN 10
WGHT    0.030300    3.148100
FVAR       0.15729
AG1   5    1.093883   -0.396696    0.188253    11.00000    0.04245    0.01969 =
         0.05108   -0.00347    0.01141   -0.00061
O1    3    1.166311    0.261933    0.242374    11.00000    0.02901    0.02283 =
         0.01945    0.00371    0.00180    0.00199
O2    3    1.474594    0.225075    0.162695    11.00000    0.02495    0.03320 =
         0.01889   -0.00185   -0.00368   -0.01101
AFIX  83
H2A   2    1.533197    0.272041    0.205799    11.00000   -1.50000
AFIX   0
O3    3    1.305993   -0.111528    0.215724    11.00000    0.02885    0.01948 =
         0.02992    0.00647   -0.01014   -0.00031
P1    4    1.273507    0.118165    0.184265    11.00000    0.01823    0.01541 =
         0.01562    0.00256   -0.00381   -0.00070
C1    1    1.360980    0.290076   -0.052361    11.00000    0.02679    0.02890 =
         0.02853   -0.00009    0.00435    0.00612
AFIX 137
H1A   2    1.326050    0.157246   -0.081071    11.00000   -1.50000
H1B   2    1.450932    0.259900   -0.004253    11.00000   -1.50000
H1C   2    1.423827    0.385739   -0.089626    11.00000   -1.50000
AFIX   0
C2    1    1.176365    0.395553   -0.024379    11.00000    0.01683    0.02183 =
         0.01650   -0.00234   -0.00853   -0.00006
C3    1    1.069808    0.307702    0.040474    11.00000    0.02139    0.01165 =
         0.01309   -0.00154   -0.01053   -0.00256
C4    1    0.898300    0.414139    0.063409    11.00000    0.02150    0.02296 =
         0.01082    0.00207   -0.00527   -0.00332
AFIX  43
H4A   2    0.830584    0.355684    0.106671    11.00000   -1.20000
AFIX   0
C5    1    1.132198    0.096652    0.083416    11.00000    0.02275    0.01582 =
         0.02215    0.00066   -0.01066   -0.00185
AFIX  23
H5A   2    1.210794    0.015313    0.045915    11.00000   -1.20000
H5B   2    1.013310    0.012835    0.091018    11.00000   -1.20000

AFIX   0
HKLF 4

REM  1 in P2(1)/c
REM R1 =  0.0329 for     920 Fo > 4sig(Fo)  and  0.0477 for all    1144 data
REM     92 parameters refined using      0 restraints

END

WGHT      0.0296      3.2183

REM Highest difference peak  1.363,  deepest hole -1.092,  1-sigma level  0.121
Q1    1   1.1472 -0.3875  0.2394  11.00000  0.05    1.36
Q2    1   1.2332  0.1117  0.1262  11.00000  0.05    0.49
Q3    1   1.0834 -0.1374  0.1700  11.00000  0.05    0.38
Q4    1   1.0998  0.2330  0.2028  11.00000  0.05    0.38
Q5    1   0.8967  0.3924  0.0984  11.00000  0.05    0.37
Q6    1   1.2472  0.1021  0.0672  11.00000  0.05    0.37
Q7    1   1.1870 -0.0771  0.2235  11.00000  0.05    0.37
Q8    1   1.3787 -0.0676  0.1990  11.00000  0.05    0.36
Q9    1   1.0137  0.3855  0.0566  11.00000  0.05    0.35
Q10   1   1.0199 -0.3972  0.0985  11.00000  0.05    0.35
;
_shelx_res_checksum              8581
loop_
_space_group_symop_operation_xyz
'x, y, z'
'-x, y+1/2, -z+1/2'
'-x, -y, -z'
'x, -y-1/2, z-1/2'
loop_
_atom_site_label
_atom_site_type_symbol
_atom_site_fract_x
_atom_site_fract_y
_atom_site_fract_z
_atom_site_U_iso_or_equiv
_atom_site_adp_type
_atom_site_occupancy
_atom_site_site_symmetry_order
_atom_site_calc_flag
_atom_site_refinement_flags_posn
_atom_site_refinement_flags_adp
Ag1 Ag 1.09388(8) -0.39670(7) 0.18825(3) 0.0373(2) Uani 1 1 d . .
O1 O 1.1663(5) 0.2619(6) 0.2424(2) 0.0238(9) Uani 1 1 d . .
O2 O 1.4746(5) 0.2251(6) 0.1627(2) 0.0260(9) Uani 1 1 d . .
H2A H 1.5332 0.2720 0.2058 0.039 Uiso 1 1 calc R U
O3 O 1.3060(6) -0.1115(6) 0.2157(2) 0.0267(9) Uani 1 1 d . .
P1 P 1.27351(19) 0.1182(2) 0.18427(8) 0.0167(3) Uani 1 1 d . .
C1 C 1.3610(8) 0.2901(10) -0.0524(4) 0.0280(13) Uani 1 1 d . .
H1A H 1.3261 0.1572 -0.0811 0.042 Uiso 1 1 calc R U
H1B H 1.4509 0.2599 -0.0043 0.042 Uiso 1 1 calc R U
H1C H 1.4238 0.3857 -0.0896 0.042 Uiso 1 1 calc R U
C2 C 1.1764(7) 0.3956(8) -0.0244(3) 0.0189(11) Uani 1 1 d . .
C3 C 1.0698(7) 0.3077(8) 0.0405(3) 0.0160(11) Uani 1 1 d . .
C4 C 0.8983(8) 0.4141(8) 0.0634(3) 0.0188(11) Uani 1 1 d . .
H4A H 0.8306 0.3557 0.1067 0.023 Uiso 1 1 calc R U
C5 C 1.1322(8) 0.0967(8) 0.0834(3) 0.0209(12) Uani 1 1 d . .
H5A H 1.2108 0.0153 0.0459 0.025 Uiso 1 1 calc R U
H5B H 1.0133 0.0128 0.0910 0.025 Uiso 1 1 calc R U
loop_
_atom_site_aniso_label
_atom_site_aniso_U_11
_atom_site_aniso_U_22
_atom_site_aniso_U_33
_atom_site_aniso_U_23
_atom_site_aniso_U_13
_atom_site_aniso_U_12
Ag1 0.0425(3) 0.0197(3) 0.0511(3) -0.0035(2) 0.0114(2) -0.0006(2)
O1 0.029(2) 0.023(2) 0.019(2) 0.0037(16) 0.0018(16) 0.0020(17)
O2 0.025(2) 0.033(2) 0.019(2) -0.0019(17) -0.0037(16) -0.0110(17)
O3 0.029(2) 0.019(2) 0.030(2) 0.0065(17) -0.0101(17) -0.0003(16)
P1 0.0182(7) 0.0154(7) 0.0156(7) 0.0026(5) -0.0038(5) -0.0007(5)
C1 0.027(3) 0.029(3) 0.029(3) 0.000(3) 0.004(3) 0.006(3)
C2 0.017(3) 0.022(3) 0.017(3) -0.002(2) -0.009(2) 0.000(2)
C3 0.021(3) 0.012(2) 0.013(3) -0.002(2) -0.011(2) -0.003(2)
C4 0.021(3) 0.023(3) 0.011(2) 0.002(2) -0.005(2) -0.003(2)
C5 0.023(3) 0.016(3) 0.022(3) 0.001(2) -0.011(2) -0.002(2)
loop_
_atom_type_symbol
_atom_type_description
_atom_type_scat_dispersion_real
_atom_type_scat_dispersion_imag
_atom_type_scat_source
C C 0.0033 0.0016 'International Tables Vol C Tables 4.2.6.8 and 6.1.1.4'
H H 0.0000 0.0000 'International Tables Vol C Tables 4.2.6.8 and 6.1.1.4'
O O 0.0106 0.0060 'International Tables Vol C Tables 4.2.6.8 and 6.1.1.4'
P P 0.1023 0.0942 'International Tables Vol C Tables 4.2.6.8 and 6.1.1.4'
Ag Ag -0.8971 1.1015 'International Tables Vol C Tables 4.2.6.8 and 6.1.1.4'
loop_
_geom_angle_atom_site_label_1
_geom_angle_atom_site_label_2
_geom_angle_atom_site_label_3
_geom_angle
_geom_angle_site_symmetry_1
_geom_angle_site_symmetry_3
O3 Ag1 O1 121.16(13) . 1_545
O3 Ag1 O1 93.87(14) . 2_745
O1 Ag1 O1 110.23(9) 1_545 2_745
O3 Ag1 C4 140.35(15) . 1_545
O1 Ag1 C4 87.55(15) 1_545 1_545
O1 Ag1 C4 101.28(15) 2_745 1_545
P1 O1 Ag1 113.8(2) . 1_565
P1 O1 Ag1 117.0(2) . 2_755
Ag1 O1 Ag1 114.19(15) 1_565 2_755
P1 O3 Ag1 125.7(2) . .
O1 P1 O3 114.3(2) . .
O1 P1 O2 110.5(2) . .
O3 P1 O2 111.1(2) . .
O1 P1 C5 110.2(2) . .
O3 P1 C5 106.2(2) . .
O2 P1 C5 103.9(2) . .
C4 C2 C3 117.4(5) 3_765 .
C4 C2 C1 120.5(5) 3_765 .
C3 C2 C1 122.1(5) . .
C4 C3 C2 119.2(5) . .
C4 C3 C5 119.3(5) . .
C2 C3 C5 121.4(5) . .
C3 C4 C2 123.4(5) . 3_765
C3 C4 Ag1 91.8(3) . 1_565
C2 C4 Ag1 96.2(3) 3_765 1_565
C3 C5 P1 116.6(3) . .
loop_
_geom_bond_atom_site_label_1
_geom_bond_atom_site_label_2
_geom_bond_distance
_geom_bond_site_symmetry_2
Ag1 O3 2.290(4) .
Ag1 O1 2.316(4) 1_545
Ag1 O1 2.360(4) 2_745
Ag1 C4 2.584(5) 1_545
O1 P1 1.508(4) .
O1 Ag1 2.316(4) 1_565
O1 Ag1 2.360(4) 2_755
O2 P1 1.571(4) .
O3 P1 1.515(4) .
P1 C5 1.812(5) .
C1 C2 1.504(7) .
C2 C4 1.405(7) 3_765
C2 C3 1.414(7) .
C3 C4 1.404(7) .
C3 C5 1.517(7) .
C4 C2 1.405(7) 3_765
C4 Ag1 2.584(5) 1_565
