#------------------------------------------------------------------------------
#$Date: 2017-01-09 05:03:29 +0200 (Mon, 09 Jan 2017) $
#$Revision: 190066 $
#$URL: file:///home/coder/svn-repositories/cod/cif/7/22/68/7226845.cif $
#------------------------------------------------------------------------------
#
# This file is available in the Crystallography Open Database (COD),
# http://www.crystallography.net/
#
# All data on this site have been placed in the public domain by the
# contributors.
#
data_7226845
loop_
_publ_author_name
'Galica, T.'
'B\;akowicz, J.'
'Konieczny, K.'
'Turowska-Tyrk, I.'
_publ_section_title
;
 Structural transformations in crystals induced by radiation and pressure.
 Part 5. The influence of pressure on the course of the photochemical
 reaction in crystals of 2,6-difluorocinnamic acid
;
_journal_issue                   46
_journal_name_full               CrystEngComm
_journal_page_first              8871
_journal_paper_doi               10.1039/C6CE01652A
_journal_volume                  18
_journal_year                    2016
_chemical_formula_sum            'C9 H6 F2 O2'
_chemical_formula_weight         184.14
_chemical_properties_physical    ', Photo-sensitive'
_space_group_crystal_system      monoclinic
_space_group_IT_number           14
_space_group_name_Hall           '-P 2ybc'
_space_group_name_H-M_alt        'P 1 21/c 1'
_symmetry_space_group_name_Hall  '-P 2ybc'
_symmetry_space_group_name_H-M   'P 1 21/c 1'
_atom_sites_solution_hydrogens   mixed
_atom_sites_solution_primary     isomor
_atom_sites_solution_secondary   geom
_audit_creation_method           SHELXL-2014/7
_audit_update_record
;
2016-07-27 deposited with the CCDC.
2016-10-19 downloaded from the CCDC.
;
_cell_angle_alpha                90
_cell_angle_beta                 90.90(3)
_cell_angle_gamma                90
_cell_formula_units_Z            4
_cell_length_a                   3.6528(11)
_cell_length_b                   19.053(6)
_cell_length_c                   10.581(6)
_cell_measurement_pressure       2100000
_cell_measurement_reflns_used    582
_cell_measurement_temperature    299(2)
_cell_measurement_theta_max      21.13
_cell_measurement_theta_min      6.43
_cell_volume                     736.3(5)
_computing_cell_refinement       'CrysAlisPro (Rigaku OD, 2015)'
_computing_data_collection       'CrysAlisPro (Rigaku OD, 2015)'
_computing_data_reduction        'CrysAlisPro (Rigaku OD, 2015)'
_computing_molecular_graphics    'ORTEP-3 for Windows (Farrugia, 2012)'
_computing_publication_material  'SHELXL-2014/7 (Sheldrick, 2015)'
_computing_structure_refinement  'SHELXL-2014/7 (Sheldrick, 2015)'
_computing_structure_solution    'SHELXS-2013/1 (Sheldrick, 2008)'
_diffrn_ambient_pressure         2100000
_diffrn_ambient_temperature      299(2)
_diffrn_detector_area_resol_mean 15.9718
_diffrn_measured_fraction_theta_full 0.533
_diffrn_measured_fraction_theta_max 0.533
_diffrn_measurement_device_type  'KM4 with Eos CCD'
_diffrn_measurement_method       '\f- and \w scans'
_diffrn_radiation_monochromator  graphite
_diffrn_radiation_source         'fine-focus sealed tube'
_diffrn_radiation_type           MoK\a
_diffrn_radiation_wavelength     0.71073
_diffrn_reflns_av_R_equivalents  0.0697
_diffrn_reflns_av_unetI/netI     0.0607
_diffrn_reflns_Laue_measured_fraction_full 0.533
_diffrn_reflns_Laue_measured_fraction_max 0.533
_diffrn_reflns_limit_h_max       4
_diffrn_reflns_limit_h_min       -4
_diffrn_reflns_limit_k_max       19
_diffrn_reflns_limit_k_min       -18
_diffrn_reflns_limit_l_max       8
_diffrn_reflns_limit_l_min       -9
_diffrn_reflns_number            3112
_diffrn_reflns_point_group_measured_fraction_full 0.533
_diffrn_reflns_point_group_measured_fraction_max 0.533
_diffrn_reflns_theta_full        24.427
_diffrn_reflns_theta_max         24.427
_diffrn_reflns_theta_min         6.444
_exptl_absorpt_coefficient_mu    0.150
_exptl_absorpt_correction_T_max  1.00000
_exptl_absorpt_correction_T_min  0.48747
_exptl_absorpt_correction_type   multi-scan
_exptl_absorpt_process_details
;
SCALE3 ABSPACK (Rigaku OD, 2015).
;
_exptl_crystal_colour            colourless
_exptl_crystal_density_diffrn    1.661
_exptl_crystal_description       block
_exptl_crystal_F_000             376
_exptl_crystal_size_max          0.24
_exptl_crystal_size_mid          0.15
_exptl_crystal_size_min          0.10
_refine_diff_density_max         0.186
_refine_diff_density_min         -0.203
_refine_diff_density_rms         0.050
_refine_ls_extinction_method     none
_refine_ls_goodness_of_fit_ref   1.049
_refine_ls_hydrogen_treatment    constr
_refine_ls_matrix_type           full
_refine_ls_number_parameters     83
_refine_ls_number_reflns         648
_refine_ls_number_restraints     65
_refine_ls_restrained_S_all      1.017
_refine_ls_R_factor_all          0.1622
_refine_ls_R_factor_gt           0.0785
_refine_ls_shift/su_max          0.000
_refine_ls_shift/su_mean         0.000
_refine_ls_structure_factor_coef Fsqd
_refine_ls_weighting_details
'w=1/[\s^2^(Fo^2^)+(0.1447P)^2^+0.2550P] where P=(Fo^2^+2Fc^2^)/3'
_refine_ls_weighting_scheme      calc
_refine_ls_wR_factor_gt          0.2033
_refine_ls_wR_factor_ref         0.2632
_reflns_Friedel_coverage         0.000
_reflns_number_gt                333
_reflns_number_total             648
_reflns_threshold_expression     'I > 2\s(I)'
_cod_data_source_file            c6ce01652a1.cif
_cod_data_source_block           50secUV_p3
_cod_depositor_comments
'Adding full bibliography for 7226837--7226849.cif.'
_cod_database_code               7226845
_shelx_shelxl_version_number     2014/7
_shelx_space_group_comment
;
The symmetry employed for this shelxl refinement is uniquely defined
by the following loop, which should always be used as a source of
symmetry information in preference to the above space-group names.
They are only intended as comments.
;
_shelx_res_file
;

    50secUV_2.1GPa.res created by SHELXL-2014/7


TITL 50secUV_2.1GPa
CELL 0.71073   3.6528  19.053  10.581  90.000  90.90  90.000
ZERR    4.00   0.0011   0.006   0.006   0.000   0.03   0.000
LATT  1
SYMM -x, y+1/2,-z+1/2
SFAC C H O F
UNIT 36 24 8 8
OMIT -2 50
L.S. 6
FMAP 2
PLAN -10
BOND $H
HTAB
ACTA
DFIX 1.499 0.01 C6P1 C7P1
DFIX 1.536 0.01 C7P1 C8P1
DFIX 1.497 0.01 C8P1 C9P1
DFIX 1.504 0.01 C6P2 C7P2
DFIX 1.559 0.01 C7P2 C8P2
DFIX 1.493 0.01 C8P2 C9P2
DFIX 1.574 0.01 C7P1 C7P2
DFIX 1.584 0.01 C8P1 C8P2
DANG 2.583 0.02 C1P1 C7P1
DANG 2.478 0.02 C5P1 C7P1
DANG 2.343 0.02 C8P1 O1P1
DANG 2.393 0.02 C8P1 O2P1
DANG 2.558 0.02 C1P2 C7P2
DANG 2.525 0.02 C5P2 C7P2
DANG 2.353 0.02 C8P2 O1P2
DANG 2.373 0.02 C8P2 O2P2

DANG 2.648 0.02 C6P2 C7P1
DANG 2.620 0.02 C6P2 C8P2
DANG 2.663 0.02 C6P1 C7P2
DANG 2.666 0.02 C6P1 C8P1
DANG 2.558 0.02 C9P2 C7P2
DANG 2.555 0.02 C9P2 C8P1
DANG 2.578 0.02 C9P1 C7P1
DANG 2.616 0.02 C9P1 C8P2
DANG 2.205 0.02 C7P2 C8P1
DANG 2.205 0.02 C8P2 C7P1
FLAT C1P1 C5P1 C6P1 C7P1
FLAT C1P2 C5P2 C6P2 C7P2
FLAT C8P2 C9P2 O1P2 O2P2

SIMU 0.02 0.04 10.0 O1R O2R O1P1
SIMU 0.02 0.04 10.0 F1R F2R F1P1

FREE C7P1 C6P2_$3
FREE C8P1 F1P2_$3
EQIV $3   x-1, y, z
FREE C8P2 C9P1_$1
EQIV $1   x+1, y, z
BIND 2 3
TEMP 26
WGHT    0.144700    0.255000
FVAR       5.66040   0.86377   0.07245   0.09515   0.10914
PART 1
AFIX   6
C6R   1    0.723258    0.709447    0.075967    21.00000   31.00000
C1R   1    0.889654    0.685056    0.186931    21.00000   31.00000
F1R   4    1.003543    0.733003    0.273294    21.00000    0.11673    0.07598 =
         0.09495   -0.01103   -0.03194    0.00117
C2R   1    0.947978    0.615637    0.214432    21.00000   31.00000
H2R   2    1.059397    0.605578    0.288947    21.00000   -1.20000
C3R   1    0.842620    0.566076    0.126844    21.00000   31.00000
H3R   2    0.882247    0.517851    0.146251    21.00000   -1.20000
C4R   1    0.679205    0.585838    0.015018    21.00000   31.00000
H4R   2    0.609559    0.555324   -0.047179    21.00000   -1.20000
C5R   1    0.621253    0.655977   -0.006713    21.00000   31.00000
F2R   4    0.450431    0.674448   -0.116304    21.00000    0.10815    0.07106 =
         0.08780   -0.00070   -0.02419   -0.00455
AFIX   0
C7R   1    0.644978    0.782128    0.043834    21.00000   31.00000
AFIX  43
H7R   2    0.512652    0.789561   -0.030774    21.00000   -1.20000
AFIX   0
C8R   1    0.741269    0.839774    0.109209    21.00000   31.00000
AFIX  43
H8R   2    0.877482    0.835410    0.183791    21.00000   -1.20000
AFIX   6
C9R   1    0.633682    0.909267    0.064061    21.00000   31.00000
O1R   3    0.725765    0.959938    0.142492    21.00000    0.11744    0.05939 =
         0.08319   -0.01500   -0.02173   -0.00196
AFIX  83
H1R   2    0.687912    0.997994    0.108532    21.00000   -1.50000
AFIX   5
O2R   3    0.454436    0.919805   -0.032259    21.00000    0.10112    0.05719 =
         0.10699   -0.00766   -0.02673    0.00166
AFIX   6
PART 0

PART 2
C6P1  1    0.846208    0.702420    0.076229   -20.50000   31.00000
C1P1  1    0.909006    0.677628    0.197112   -20.50000   31.00000
F1P1  4    1.065183    0.721342    0.283543   -20.50000   51.00000
C2P1  1    0.816757    0.610859    0.235995   -20.50000   31.00000
H2P1  2    0.879134    0.600444    0.321820   -20.50000   -1.20000
C3P1  1    0.657100    0.565718    0.151234   -20.50000   31.00000
H3P1  2    0.595543    0.518622    0.181712   -20.50000   -1.20000
C4P1  1    0.582500    0.587110    0.030195   -20.50000   31.00000
H4P1  2    0.471474    0.558329   -0.026344   -20.50000   -1.20000
C5P1  1    0.676846    0.654351   -0.003750   -20.50000   31.00000
F2P1  4    0.592216    0.677377   -0.121802   -20.50000   51.00000
AFIX   0
C7P1  1    0.976075    0.771906    0.025600   -20.50000   31.00000
AFIX  13
H7P1  2    0.869808    0.779910   -0.058791   -20.50000   -1.20000
AFIX   0
C8P1  1    0.945914    0.839114    0.105068   -20.50000   31.00000
AFIX  13
H8P1  2    0.823322    0.829521    0.184959   -20.50000   -1.20000
AFIX   6
C9P1  1    0.782158    0.902026    0.041192   -20.50000   31.00000
O1P1  3    0.891268    0.961142    0.091117   -20.50000   41.00000
AFIX  83
H1P1  2    0.790202    0.993910    0.054411   -20.50000   -1.50000
AFIX   5
O2P1  3    0.576948    0.898566   -0.050506   -20.50000   41.00000
AFIX   6
PART 0
PART 3
C6P2  1    1.630405    0.717525    0.055802   -20.50000   31.00000
C1P2  1    1.840715    0.710231    0.165233   -20.50000   31.00000
F1P2  4    1.861688    0.765944    0.244632   -20.50000   51.00000
C2P2  1    2.027936    0.650384    0.197866   -20.50000   31.00000
H2P2  2    2.162236    0.650602    0.271947   -20.50000   -1.20000
C3P2  1    2.003348    0.593046    0.119559   -20.50000   31.00000
H3P2  2    2.127403    0.548472    0.139988   -20.50000   -1.20000
C4P2  1    1.796516    0.596066    0.010334   -20.50000   31.00000
H4P2  2    1.756427    0.559513   -0.049083   -20.50000   -1.20000
C5P2  1    1.618382    0.657760   -0.019106   -20.50000   31.00000
F2P2  4    1.420281    0.660172   -0.127926   -20.50000   51.00000
AFIX   0
C7P2  1    1.408038    0.781870    0.021928   -20.50000   31.00000
AFIX  13
H7P2  2    1.483914    0.801690   -0.059015   -20.50000   -1.20000
AFIX   0
C8P2  1    1.376937    0.840000    0.124893   -20.50000   31.00000
AFIX  13
H8P2  2    1.456741    0.824473    0.209217   -20.50000   -1.20000
AFIX   6
C9P2  1    1.533243    0.909227    0.087593   -20.50000   31.00000
O1P2  3    1.527816    0.956820    0.176342   -20.50000   41.00000
AFIX  83
H1P2  2    1.616521    0.993397    0.149799   -20.50000   -1.50000
AFIX   5
O2P2  3    1.646283    0.920081   -0.017830   -20.50000   41.00000
PART 0
AFIX   0
HKLF 4

REM  50secUV_2.1GPa
REM R1 =  0.0785 for     333 Fo > 4sig(Fo)  and  0.1622 for all     648 data
REM     83 parameters refined using     65 restraints

END

WGHT      0.1447      0.2550

REM Instructions for potential hydrogen bonds
EQIV $4 x+1, -y+3/2, z+1/2
HTAB C2R O2R_$4
HTAB C8R F1R
EQIV $5 -x+1, -y+2, -z
HTAB O1R O2R_$5
EQIV $6 x, -y+3/2, z+1/2
HTAB C2P1 O2P1_$6
EQIV $7 x-1, -y+3/2, z+1/2
HTAB C2P1 O2P2_$7
HTAB C8P1 F1P1
HTAB C8P1 F2P1_$6
HTAB C8P1 F1P2_$3
HTAB C8P1 F2P2_$7
EQIV $8 -x+2, -y+2, -z
HTAB O1P1 O1P1_$8
HTAB O1P1 O2P1_$5
HTAB O1P1 O2P2_$8
EQIV $9 x+2, -y+3/2, z+1/2
HTAB C2P2 O2P1_$9
HTAB C8P2 F1P1
HTAB C8P2 F2P1_$4
HTAB C8P2 F1P2
HTAB C8P2 F2P2_$6
HTAB O1P2 O2P1_$8
EQIV $10 -x+3, -y+2, -z
HTAB O1P2 O2P2_$10

REM Highest difference peak  0.186,  deepest hole -0.203,  1-sigma level  0.050
Q1    1   0.6510  0.7089  0.1105  11.00000  0.05    0.19
Q2    1   0.8087  0.7433 -0.0618  11.00000  0.05    0.18
Q3    1   1.1626  0.6607  0.0757  11.00000  0.05    0.16
Q4    1   0.7820  0.5823  0.1817  11.00000  0.05    0.16
Q5    1   0.8348  0.6336  0.2651  11.00000  0.05    0.15
Q6    1   0.8477  0.7878  0.0018  11.00000  0.05    0.15
Q7    1   1.2512  0.5442  0.1387  11.00000  0.05    0.15
Q8    1   1.4596  0.7713  0.2799  11.00000  0.05    0.15
Q9    1   0.7552  0.6040 -0.0912  11.00000  0.05    0.15
Q10   1   0.4711  0.7413  0.1990  11.00000  0.05    0.15
;
_shelx_res_checksum              88258
loop_
_space_group_symop_operation_xyz
'x, y, z'
'-x, y+1/2, -z+1/2'
'-x, -y, -z'
'x, -y-1/2, z-1/2'
loop_
_atom_site_label
_atom_site_type_symbol
_atom_site_fract_x
_atom_site_fract_y
_atom_site_fract_z
_atom_site_U_iso_or_equiv
_atom_site_adp_type
_atom_site_occupancy
_atom_site_site_symmetry_order
_atom_site_calc_flag
_atom_site_refinement_flags_posn
_atom_site_refinement_flags_adp
_atom_site_refinement_flags_occupancy
_atom_site_disorder_assembly
_atom_site_disorder_group
C6R C 0.7233(12) 0.70945(18) 0.0760(5) 0.0725(14) Uiso 0.864(8) 1 d G U P A 1
C1R C 0.8897(11) 0.6851(2) 0.1869(4) 0.0725(14) Uiso 0.864(8) 1 d G U P A 1
F1R F 1.0035(16) 0.7330(3) 0.2733(5) 0.096(3) Uani 0.864(8) 1 d G U P A 1
C2R C 0.9480(13) 0.6156(2) 0.2144(5) 0.0725(14) Uiso 0.864(8) 1 d G U P A 1
H2R H 1.0594 0.6056 0.2889 0.087 Uiso 0.864(8) 1 d G U P A 1
C3R C 0.8426(15) 0.56608(18) 0.1268(6) 0.0725(14) Uiso 0.864(8) 1 d G U P A 1
H3R H 0.8822 0.5179 0.1463 0.087 Uiso 0.864(8) 1 d G U P A 1
C4R C 0.6792(13) 0.5858(2) 0.0150(5) 0.0725(14) Uiso 0.864(8) 1 d G U P A 1
H4R H 0.6096 0.5553 -0.0472 0.087 Uiso 0.864(8) 1 d G U P A 1
C5R C 0.6213(11) 0.6560(2) -0.0067(5) 0.0725(14) Uiso 0.864(8) 1 d G U P A 1
F2R F 0.4504(17) 0.6744(3) -0.1163(5) 0.089(2) Uani 0.864(8) 1 d G U P A 1
C7R C 0.645(2) 0.7821(5) 0.0438(10) 0.0725(14) Uiso 0.864(8) 1 d . U P A 1
H7R H 0.5127 0.7896 -0.0308 0.087 Uiso 0.864(8) 1 calc R U P A 1
C8R C 0.741(2) 0.8398(4) 0.1092(11) 0.0725(14) Uiso 0.864(8) 1 d . U P A 1
H8R H 0.8775 0.8354 0.1838 0.087 Uiso 0.864(8) 1 calc R U P A 1
C9R C 0.634(2) 0.9093(2) 0.0641(6) 0.0725(14) Uiso 0.864(8) 1 d G U P A 1
O1R O 0.726(2) 0.9599(3) 0.1425(6) 0.087(3) Uani 0.864(8) 1 d G U P A 1
H1R H 0.6879 0.9980 0.1085 0.130 Uiso 0.864(8) 1 calc R U P A 1
O2R O 0.454(2) 0.9198(4) -0.0323(6) 0.089(3) Uani 0.864(8) 1 d G U P A 1
C6P1 C 0.846(10) 0.7024(17) 0.076(5) 0.0725(14) Uiso 0.068(4) 1 d DG U P A 2
C1P1 C 0.909(15) 0.678(2) 0.197(5) 0.0725(14) Uiso 0.068(4) 1 d DG U P A 2
F1P1 F 1.07(2) 0.721(4) 0.284(5) 0.109(13) Uiso 0.068(4) 1 d G U P A 2
C2P1 C 0.817(18) 0.611(3) 0.236(7) 0.0725(14) Uiso 0.068(4) 1 d G U P A 2
H2P1 H 0.8791 0.6004 0.3218 0.087 Uiso 0.068(4) 1 d G U P A 2
C3P1 C 0.657(17) 0.566(2) 0.151(8) 0.0725(14) Uiso 0.068(4) 1 d G U P A 2
H3P1 H 0.5955 0.5186 0.1817 0.087 Uiso 0.068(4) 1 d G U P A 2
C4P1 C 0.583(15) 0.587(2) 0.030(8) 0.0725(14) Uiso 0.068(4) 1 d G U P A 2
H4P1 H 0.4715 0.5583 -0.0263 0.087 Uiso 0.068(4) 1 d G U P A 2
C5P1 C 0.677(11) 0.654(2) -0.004(6) 0.0725(14) Uiso 0.068(4) 1 d DG U P A 2
F2P1 F 0.592(17) 0.677(3) -0.122(6) 0.109(13) Uiso 0.068(4) 1 d G U P A 2
C7P1 C 0.976(9) 0.7719(17) 0.026(5) 0.0725(14) Uiso 0.068(4) 1 d D U P A 2
H7P1 H 0.8698 0.7799 -0.0588 0.087 Uiso 0.068(4) 1 calc R U P A 2
C8P1 C 0.946(10) 0.8391(17) 0.105(5) 0.0725(14) Uiso 0.068(4) 1 d D U P A 2
H8P1 H 0.8233 0.8295 0.1850 0.087 Uiso 0.068(4) 1 calc R U P A 2
C9P1 C 0.782(15) 0.9020(19) 0.041(8) 0.0725(14) Uiso 0.068(4) 1 d DG U P A 2
O1P1 O 0.89(2) 0.9611(19) 0.091(9) 0.095(14) Uiso 0.068(4) 1 d DG U P A 2
H1P1 H 0.7902 0.9939 0.0544 0.143 Uiso 0.068(4) 1 calc R U P A 2
O2P1 O 0.58(3) 0.899(3) -0.051(8) 0.095(14) Uiso 0.068(4) 1 d DG U P A 2
C6P2 C 1.630(10) 0.7175(18) 0.056(4) 0.0725(14) Uiso 0.068(4) 1 d DG U P A 3
C1P2 C 1.841(10) 0.710(2) 0.165(4) 0.0725(14) Uiso 0.068(4) 1 d DG U P A 3
F1P2 F 1.862(15) 0.766(3) 0.245(5) 0.109(13) Uiso 0.068(4) 1 d G U P A 3
C2P2 C 2.028(13) 0.650(3) 0.198(5) 0.0725(14) Uiso 0.068(4) 1 d G U P A 3
H2P2 H 2.1622 0.6506 0.2719 0.087 Uiso 0.068(4) 1 d G U P A 3
C3P2 C 2.003(15) 0.593(2) 0.120(6) 0.0725(14) Uiso 0.068(4) 1 d G U P A 3
H3P2 H 2.1274 0.5485 0.1400 0.087 Uiso 0.068(4) 1 d G U P A 3
C4P2 C 1.797(17) 0.596(2) 0.010(6) 0.0725(14) Uiso 0.068(4) 1 d G U P A 3
H4P2 H 1.7564 0.5595 -0.0491 0.087 Uiso 0.068(4) 1 d G U P A 3
C5P2 C 1.618(14) 0.658(2) -0.019(5) 0.0725(14) Uiso 0.068(4) 1 d DG U P A 3
F2P2 F 1.42(2) 0.660(3) -0.128(6) 0.109(13) Uiso 0.068(4) 1 d G U P A 3
C7P2 C 1.408(9) 0.7819(17) 0.022(4) 0.0725(14) Uiso 0.068(4) 1 d D U P A 3
H7P2 H 1.4839 0.8017 -0.0590 0.087 Uiso 0.068(4) 1 calc R U P A 3
C8P2 C 1.377(10) 0.8400(17) 0.125(4) 0.0725(14) Uiso 0.068(4) 1 d D U P A 3
H8P2 H 1.4567 0.8245 0.2092 0.087 Uiso 0.068(4) 1 calc R U P A 3
C9P2 C 1.533(12) 0.9092(18) 0.088(6) 0.0725(14) Uiso 0.068(4) 1 d DG U P A 3
O1P2 O 1.53(2) 0.957(2) 0.176(8) 0.095(14) Uiso 0.068(4) 1 d DG U P A 3
H1P2 H 1.6165 0.9934 0.1498 0.143 Uiso 0.068(4) 1 calc R U P A 3
O2P2 O 1.65(2) 0.920(3) -0.018(7) 0.095(14) Uiso 0.068(4) 1 d DG U P A 3
loop_
_atom_site_aniso_label
_atom_site_aniso_U_11
_atom_site_aniso_U_22
_atom_site_aniso_U_33
_atom_site_aniso_U_23
_atom_site_aniso_U_13
_atom_site_aniso_U_12
F1R 0.117(5) 0.076(5) 0.095(7) -0.011(3) -0.032(4) 0.001(3)
F2R 0.108(4) 0.071(4) 0.088(7) -0.001(3) -0.024(4) -0.005(3)
O1R 0.117(6) 0.059(5) 0.083(9) -0.015(3) -0.022(5) -0.002(3)
O2R 0.101(6) 0.057(5) 0.107(9) -0.008(3) -0.027(5) 0.002(3)
loop_
_atom_type_symbol
_atom_type_description
_atom_type_scat_dispersion_real
_atom_type_scat_dispersion_imag
_atom_type_scat_source
C C 0.0033 0.0016 'International Tables Vol C Tables 4.2.6.8 and 6.1.1.4'
H H 0.0000 0.0000 'International Tables Vol C Tables 4.2.6.8 and 6.1.1.4'
O O 0.0106 0.0060 'International Tables Vol C Tables 4.2.6.8 and 6.1.1.4'
F F 0.0171 0.0103 'International Tables Vol C Tables 4.2.6.8 and 6.1.1.4'
loop_
_geom_angle_atom_site_label_1
_geom_angle_atom_site_label_2
_geom_angle_atom_site_label_3
_geom_angle
C5R C6R C1R 113.3
C5R C6R C7R 120.1(5)
C1R C6R C7R 126.6(5)
F1R C1R C2R 117.6
F1R C1R C6R 118.0
C2R C1R C6R 124.4
C1R C2R C3R 118.6
C1R C2R H2R 117.2
C3R C2R H2R 124.1
C4R C3R C2R 120.5
C4R C3R H3R 121.0
C2R C3R H3R 118.5
C3R C4R C5R 118.5
C3R C4R H4R 124.2
C5R C4R H4R 117.4
F2R C5R C4R 117.7
F2R C5R C6R 117.6
C4R C5R C6R 124.7
C8R C7R C6R 127.6(10)
C8R C7R H7R 116.2
C6R C7R H7R 116.2
C7R C8R C9R 120.4(10)
C7R C8R H8R 119.8
C9R C8R H8R 119.8
O2R C9R O1R 122.4
O2R C9R C8R 124.1(6)
O1R C9R C8R 113.3(6)
C9R O1R H1R 109.5
C1P1 C6P1 C5P1 114.0
C1P1 C6P1 C7P1 125.6(12)
C5P1 C6P1 C7P1 120.2(12)
F1P1 C1P1 C6P1 118.5
F1P1 C1P1 C2P1 117.8
C6P1 C1P1 C2P1 123.7
C3P1 C2P1 C1P1 119.2
C3P1 C2P1 H2P1 125.9
C1P1 C2P1 H2P1 114.8
C2P1 C3P1 C4P1 120.3
C2P1 C3P1 H3P1 117.2
C4P1 C3P1 H3P1 122.5
C3P1 C4P1 C5P1 118.4
C3P1 C4P1 H4P1 121.4
C5P1 C4P1 H4P1 120.3
F2P1 C5P1 C4P1 119.2
F2P1 C5P1 C6P1 116.2
C4P1 C5P1 C6P1 124.5
C6P1 C7P1 C8P1 120.8(16)
C6P1 C7P1 C7P2 115.6(13)
C8P1 C7P1 C7P2 89.6(9)
C6P1 C7P1 H7P1 109.8
C8P1 C7P1 H7P1 109.8
C7P2 C7P1 H7P1 109.8
C9P1 C8P1 C7P1 116.9(16)
C9P1 C8P1 C8P2 116.1(16)
C7P1 C8P1 C8P2 90.1(9)
C9P1 C8P1 H8P1 110.7
C7P1 C8P1 H8P1 110.7
C8P2 C8P1 H8P1 110.7
O2P1 C9P1 O1P1 123.3
O2P1 C9P1 C8P1 123.6(12)
O1P1 C9P1 C8P1 113.1(12)
C9P1 O1P1 H1P1 109.5
C1P2 C6P2 C5P2 114.0
C1P2 C6P2 C7P2 124.6(11)
C5P2 C6P2 C7P2 121.2(11)
F1P2 C1P2 C2P2 118.2
F1P2 C1P2 C6P2 117.7
C2P2 C1P2 C6P2 124.1
C1P2 C2P2 C3P2 118.8
C1P2 C2P2 H2P2 118.0
C3P2 C2P2 H2P2 123.2
C4P2 C3P2 C2P2 120.3
C4P2 C3P2 H3P2 117.8
C2P2 C3P2 H3P2 121.9
C3P2 C4P2 C5P2 118.6
C3P2 C4P2 H4P2 127.2
C5P2 C4P2 H4P2 114.2
F2P2 C5P2 C4P2 117.8
F2P2 C5P2 C6P2 118.1
C4P2 C5P2 C6P2 124.1
C6P2 C7P2 C8P2 117.1(15)
C6P2 C7P2 C7P1 115.3(13)
C8P2 C7P2 C7P1 89.1(9)
C6P2 C7P2 H7P2 111.2
C8P2 C7P2 H7P2 111.2
C7P1 C7P2 H7P2 111.2
C9P2 C8P2 C7P2 114.2(16)
C9P2 C8P2 C8P1 111.0(14)
C7P2 C8P2 C8P1 89.0(9)
C9P2 C8P2 H8P2 113.4
C7P2 C8P2 H8P2 113.4
C8P1 C8P2 H8P2 113.4
O2P2 C9P2 O1P2 123.5
O2P2 C9P2 C8P2 122.1(12)
O1P2 C9P2 C8P2 114.4(12)
C9P2 O1P2 H1P2 109.5
loop_
_geom_bond_atom_site_label_1
_geom_bond_atom_site_label_2
_geom_bond_distance
C6R C5R 1.3899
C6R C1R 1.3934
C6R C7R 1.453(10)
C1R F1R 1.3530
C1R C2R 1.3702
C2R C3R 1.3739
C2R H2R 0.9022
C3R C4R 1.3696
C3R H3R 0.9521
C4R C5R 1.3719
C4R H4R 0.9114
C5R F2R 1.3547
C7R C8R 1.342(12)
C7R H7R 0.9300
C8R C9R 1.459(10)
C8R H8R 0.9300
C9R O2R 1.2193
C9R O1R 1.3134
O1R H1R 0.8200
C6P1 C1P1 1.3793
C6P1 C5P1 1.3861
C6P1 C7P1 1.508(9)
C1P1 F1P1 1.3561
C1P1 C2P1 1.3804
C2P1 C3P1 1.3667
C2P1 H2P1 0.9537
C3P1 C4P1 1.3673
C3P1 H3P1 0.9808
C4P1 C5P1 1.3759
C4P1 H4P1 0.9030
C5P1 F2P1 1.3550
C7P1 C8P1 1.537(10)
C7P1 C7P2 1.590(10)
C7P1 H7P1 0.9800
C8P1 C9P1 1.496(9)
C8P1 C8P2 1.585(10)
C8P1 H8P1 0.9800
C9P1 O2P1 1.2185
C9P1 O1P1 1.3038
O1P1 H1P1 0.8200
C6P2 C1P2 1.3865
C6P2 C5P2 1.3877
C6P2 C7P2 1.511(9)
C1P2 F1P2 1.3551
C1P2 C2P2 1.3710
C2P2 C3P2 1.3732
C2P2 H2P2 0.9182
C3P2 C4P2 1.3720
C3P2 H3P2 0.9850
C4P2 C5P2 1.3769
C4P2 H4P2 0.9481
C5P2 F2P2 1.3511
C7P2 C8P2 1.559(10)
C7P2 H7P2 0.9800
C8P2 C9P2 1.493(9)
C8P2 H8P2 0.9800
C9P2 O2P2 1.2133
C9P2 O1P2 1.3058
O1P2 H1P2 0.8200
