#------------------------------------------------------------------------------
#$Date: 2017-01-09 05:03:29 +0200 (Mon, 09 Jan 2017) $
#$Revision: 190066 $
#$URL: file:///home/coder/svn-repositories/cod/cif/7/22/68/7226847.cif $
#------------------------------------------------------------------------------
#
# This file is available in the Crystallography Open Database (COD),
# http://www.crystallography.net/
#
# All data on this site have been placed in the public domain by the
# contributors.
#
data_7226847
loop_
_publ_author_name
'Galica, T.'
'B\;akowicz, J.'
'Konieczny, K.'
'Turowska-Tyrk, I.'
_publ_section_title
;
 Structural transformations in crystals induced by radiation and pressure.
 Part 5. The influence of pressure on the course of the photochemical
 reaction in crystals of 2,6-difluorocinnamic acid
;
_journal_issue                   46
_journal_name_full               CrystEngComm
_journal_page_first              8871
_journal_paper_doi               10.1039/C6CE01652A
_journal_volume                  18
_journal_year                    2016
_chemical_formula_sum            'C9 H6 F2 O2'
_chemical_formula_weight         184.14
_chemical_properties_physical    ', Photo-sensitive'
_space_group_crystal_system      monoclinic
_space_group_IT_number           14
_space_group_name_Hall           '-P 2ybc'
_space_group_name_H-M_alt        'P 1 21/c 1'
_symmetry_space_group_name_Hall  '-P 2ybc'
_symmetry_space_group_name_H-M   'P 1 21/c 1'
_atom_sites_solution_hydrogens   mixed
_atom_sites_solution_primary     isomor
_atom_sites_solution_secondary   geom
_audit_creation_method           SHELXL-2014/7
_audit_update_record
;
2016-07-27 deposited with the CCDC.
2016-10-19 downloaded from the CCDC.
;
_cell_angle_alpha                90
_cell_angle_beta                 91.14(2)
_cell_angle_gamma                90
_cell_formula_units_Z            4
_cell_length_a                   3.6390(7)
_cell_length_b                   19.002(4)
_cell_length_c                   10.645(5)
_cell_measurement_pressure       2100000
_cell_measurement_reflns_used    439
_cell_measurement_temperature    299(2)
_cell_measurement_theta_max      19.28
_cell_measurement_theta_min      6.32
_cell_volume                     735.9(4)
_computing_cell_refinement       'CrysAlisPro (Rigaku OD, 2015)'
_computing_data_collection       'CrysAlisPro (Rigaku OD, 2015)'
_computing_data_reduction        'CrysAlisPro (Rigaku OD, 2015)'
_computing_molecular_graphics    'ORTEP-3 for Windows (Farrugia, 2012)'
_computing_publication_material  'SHELXL-2014/7 (Sheldrick, 2015)'
_computing_structure_refinement  'SHELXL-2014/7 (Sheldrick, 2015)'
_computing_structure_solution    'SHELXS-2013/1 (Sheldrick, 2008)'
_diffrn_ambient_pressure         2100000
_diffrn_ambient_temperature      299(2)
_diffrn_detector_area_resol_mean 15.9718
_diffrn_measured_fraction_theta_full 0.502
_diffrn_measured_fraction_theta_max 0.502
_diffrn_measurement_device_type  'KM4 with Eos CCD'
_diffrn_measurement_method       '\f- and \w scans'
_diffrn_radiation_monochromator  graphite
_diffrn_radiation_source         'fine-focus sealed tube'
_diffrn_radiation_type           MoK\a
_diffrn_radiation_wavelength     0.71073
_diffrn_reflns_av_R_equivalents  0.0902
_diffrn_reflns_av_unetI/netI     0.0695
_diffrn_reflns_Laue_measured_fraction_full 0.502
_diffrn_reflns_Laue_measured_fraction_max 0.502
_diffrn_reflns_limit_h_max       4
_diffrn_reflns_limit_h_min       -4
_diffrn_reflns_limit_k_max       19
_diffrn_reflns_limit_k_min       -18
_diffrn_reflns_limit_l_max       8
_diffrn_reflns_limit_l_min       -9
_diffrn_reflns_number            3002
_diffrn_reflns_point_group_measured_fraction_full 0.502
_diffrn_reflns_point_group_measured_fraction_max 0.502
_diffrn_reflns_theta_full        24.468
_diffrn_reflns_theta_max         24.468
_diffrn_reflns_theta_min         6.468
_exptl_absorpt_coefficient_mu    0.150
_exptl_absorpt_correction_T_max  1.00000
_exptl_absorpt_correction_T_min  0.26226
_exptl_absorpt_correction_type   multi-scan
_exptl_absorpt_process_details
;
SCALE3 ABSPACK (Rigaku OD, 2015).
;
_exptl_crystal_colour            colourless
_exptl_crystal_density_diffrn    1.662
_exptl_crystal_description       block
_exptl_crystal_F_000             376
_exptl_crystal_size_max          0.24
_exptl_crystal_size_mid          0.15
_exptl_crystal_size_min          0.10
_refine_diff_density_max         0.239
_refine_diff_density_min         -0.276
_refine_diff_density_rms         0.056
_refine_ls_extinction_method     none
_refine_ls_goodness_of_fit_ref   1.072
_refine_ls_hydrogen_treatment    constr
_refine_ls_matrix_type           full
_refine_ls_number_parameters     63
_refine_ls_number_reflns         615
_refine_ls_number_restraints     59
_refine_ls_restrained_S_all      1.087
_refine_ls_R_factor_all          0.2146
_refine_ls_R_factor_gt           0.1094
_refine_ls_shift/su_max          0.000
_refine_ls_shift/su_mean         0.000
_refine_ls_structure_factor_coef Fsqd
_refine_ls_weighting_details
'w=1/[\s^2^(Fo^2^)+(0.2000P)^2^] where P=(Fo^2^+2Fc^2^)/3'
_refine_ls_weighting_scheme      calc
_refine_ls_wR_factor_gt          0.2902
_refine_ls_wR_factor_ref         0.3538
_reflns_Friedel_coverage         0.000
_reflns_number_gt                272
_reflns_number_total             615
_reflns_threshold_expression     'I > 2\s(I)'
_cod_data_source_file            c6ce01652a1.cif
_cod_data_source_block           120secUV_p3
_cod_depositor_comments
'Adding full bibliography for 7226837--7226849.cif.'
_cod_database_code               7226847
_shelx_shelxl_version_number     2014/7
_shelx_space_group_comment
;
The symmetry employed for this shelxl refinement is uniquely defined
by the following loop, which should always be used as a source of
symmetry information in preference to the above space-group names.
They are only intended as comments.
;
_shelx_res_file
;

    120secUV_2.1GPa.res created by SHELXL-2014/7


TITL 120secUV_2.1GPa
CELL 0.71073   3.6390  19.002  10.645  90.000  91.14  90.000
ZERR    4.00   0.0007   0.004   0.005   0.000   0.02   0.000
LATT  1
SYMM -x, y+1/2,-z+1/2
SFAC C H O F
UNIT 36 24 8 8
OMIT -1 50
L.S. 6
FMAP 2
PLAN -10
BOND $H
HTAB
ACTA
DFIX 1.499 0.01 C6P1 C7P1
DFIX 1.536 0.01 C7P1 C8P1
DFIX 1.497 0.01 C8P1 C9P1
DFIX 1.504 0.01 C6P2 C7P2
DFIX 1.559 0.01 C7P2 C8P2
DFIX 1.493 0.01 C8P2 C9P2
DFIX 1.574 0.01 C7P1 C7P2
DFIX 1.584 0.01 C8P1 C8P2
DANG 2.583 0.02 C1P1 C7P1
DANG 2.478 0.02 C5P1 C7P1
DANG 2.343 0.02 C8P1 O1P1
DANG 2.393 0.02 C8P1 O2P1
DANG 2.558 0.02 C1P2 C7P2
DANG 2.525 0.02 C5P2 C7P2
DANG 2.353 0.02 C8P2 O1P2
DANG 2.373 0.02 C8P2 O2P2

DANG 2.648 0.02 C6P2 C7P1
DANG 2.620 0.02 C6P2 C8P2
DANG 2.663 0.02 C6P1 C7P2
DANG 2.666 0.02 C6P1 C8P1
DANG 2.558 0.02 C9P2 C7P2
DANG 2.555 0.02 C9P2 C8P1
DANG 2.578 0.02 C9P1 C7P1
DANG 2.616 0.02 C9P1 C8P2
DANG 2.205 0.02 C7P2 C8P1
DANG 2.205 0.02 C8P2 C7P1

FLAT C1P1 C5P1 C6P1 C7P1
FLAT C1P2 C5P2 C6P2 C7P2
FLAT C8P2 C9P2 O1P2 O2P2

SIMU 0.02 0.02 10.0 O1R O2R O1P1 O1P2 O2P1 O2P2
SIMU 0.02 0.02 10.0 F1R F2R F1P1 F1P2 F2P1 F2P2

FREE C7P1 C6P2_$3
FREE C8P1 F1P2_$3
EQIV $3   x-1, y, z
FREE C8P2 C9P1_$1
EQIV $1   x+1, y, z
BIND 2 3
TEMP 26
WGHT    0.200000
FVAR       5.05081   0.75475   0.08120   0.08171   0.09394
PART 1
AFIX   6
C6R   1    0.725349    0.708824    0.076715    21.00000   31.00000
C1R   1    0.887749    0.683484    0.187396    21.00000   31.00000
F1R   4    0.997506    0.730868    0.275297    21.00000    0.09941
C2R   1    0.946038    0.613683    0.213192    21.00000   31.00000
H2R   2    1.054699    0.603011    0.287683    21.00000   -1.20000
C3R   1    0.844921    0.564710    0.124074    21.00000   31.00000
H3R   2    0.884511    0.516205    0.142292    21.00000   -1.20000
C4R   1    0.685620    0.585405    0.012439    21.00000   31.00000
H4R   2    0.618941    0.555316   -0.050679    21.00000   -1.20000
C5R   1    0.627422    0.655878   -0.007596    21.00000   31.00000
F2R   4    0.460567    0.675261   -0.117110    21.00000    0.09734
AFIX   0
C7R   1    0.648066    0.782671    0.046225    21.00000   31.00000
AFIX  43
H7R   2    0.522694    0.790814   -0.029362    21.00000   -1.20000
AFIX   0
C8R   1    0.738780    0.841538    0.116068    21.00000   31.00000
AFIX  43
H8R   2    0.868161    0.838465    0.192095    21.00000   -1.20000
AFIX   6
C9R   1    0.621669    0.907793    0.064453    21.00000   31.00000
O1R   3    0.722722    0.958316    0.141932    21.00000    0.09651
AFIX  83
H1R   2    0.655672    0.996366    0.113272    21.00000   -1.50000
AFIX   5
O2R   3    0.441880    0.919037   -0.031338    21.00000    0.08822
AFIX   6
PART 0

PART 2
C6P1  1    0.867590    0.705413    0.070679   -20.50000   31.00000
C1P1  1    0.960984    0.685558    0.191793   -20.50000   31.00000
F1P1  4    1.111555    0.734386    0.270183   -20.50000   51.00000
C2P1  1    0.904875    0.618779    0.238717   -20.50000   31.00000
H2P1  2    0.985743    0.612136    0.323665   -20.50000   -1.20000
C3P1  1    0.751730    0.568531    0.162201   -20.50000   31.00000
H3P1  2    0.716165    0.521583    0.198251   -20.50000   -1.20000
C4P1  1    0.648054    0.584796    0.041488   -20.50000   31.00000
H4P1  2    0.540783    0.552546   -0.009604   -20.50000   -1.20000
C5P1  1    0.706847    0.652235   -0.000629   -20.50000   31.00000
F2P1  4    0.592932    0.670078   -0.118333   -20.50000   51.00000
AFIX   0
C7P1  1    0.977612    0.776002    0.017411   -20.50000   31.00000
AFIX  13
H7P1  2    0.870529    0.783159   -0.066820   -20.50000   -1.20000
AFIX   0
C8P1  1    0.949614    0.843083    0.097470   -20.50000   31.00000
AFIX  13
H8P1  2    0.836247    0.832506    0.178048   -20.50000   -1.20000
AFIX   6
C9P1  1    0.776023    0.906978    0.038942   -20.50000   31.00000
O1P1  3    0.846042    0.964664    0.101287   -20.50000   41.00000
AFIX  83
H1P1  2    0.739236    0.997753    0.067208   -20.50000   -1.50000
AFIX   5
O2P1  3    0.585754    0.905203   -0.056497   -20.50000   41.00000
AFIX   6
PART 0
PART 3
C6P2  1    1.618761    0.719302    0.059392   -20.50000   31.00000
C1P2  1    1.827770    0.711155    0.168743   -20.50000   31.00000
F1P2  4    1.879575    0.768569    0.242533   -20.50000   51.00000
C2P2  1    1.984551    0.648871    0.206610   -20.50000   31.00000
H2P2  2    2.120659    0.648647    0.280164   -20.50000   -1.20000
C3P2  1    1.928336    0.589954    0.134066   -20.50000   31.00000
H3P2  2    2.029650    0.543743    0.158410   -20.50000   -1.20000
C4P2  1    1.720597    0.593776    0.025305   -20.50000   31.00000
H4P2  2    1.660134    0.556405   -0.030385   -20.50000   -1.20000
C5P2  1    1.573909    0.657811   -0.009562   -20.50000   31.00000
F2P2  4    1.374596    0.660886   -0.117862   -20.50000   51.00000
AFIX   0
C7P2  1    1.415409    0.784969    0.017406   -20.50000   31.00000
AFIX  13
H7P2  2    1.500877    0.801768   -0.064006   -20.50000   -1.20000
AFIX   0
C8P2  1    1.383721    0.846117    0.113525   -20.50000   31.00000
AFIX  13
H8P2  2    1.472612    0.833831    0.198221   -20.50000   -1.20000
AFIX   6
C9P2  1    1.526983    0.914899    0.067349   -20.50000   31.00000
O1P2  3    1.545551    0.963475    0.153991   -20.50000   41.00000
AFIX  83
H1P2  2    1.627480    0.999819    0.123874   -20.50000   -1.50000
AFIX   5
O2P2  3    1.610100    0.924767   -0.041044   -20.50000   41.00000
PART 0
AFIX   0
HKLF 4

REM  120secUV_2.1GPa
REM R1 =  0.1094 for     272 Fo > 4sig(Fo)  and  0.2146 for all     615 data
REM     63 parameters refined using     59 restraints

END

WGHT      0.2000      0.0000

REM Instructions for potential hydrogen bonds
EQIV $4 x+1, -y+3/2, z+1/2
HTAB C2R O2R_$4
HTAB C8R F1R
EQIV $5 x, -y+3/2, z+1/2
HTAB C8R F2R_$5
EQIV $6 -x+1, -y+2, -z
HTAB O1R O2R_$6
HTAB C2P1 O2P1_$5
EQIV $7 x-1, -y+3/2, z+1/2
HTAB C2P1 O2P2_$7
HTAB C8P1 F1P1
HTAB C8P1 F2P1_$5
HTAB C8P1 F1P2_$3
HTAB O1P1 O2P1_$6
EQIV $8 -x+2, -y+2, -z
HTAB O1P1 O1P2_$8
HTAB O1P1 O2P2_$8
EQIV $9 x+2, -y+3/2, z+1/2
HTAB C2P2 O2P1_$9
HTAB C8P2 F2P1_$4
HTAB C8P2 F1P2
HTAB C8P2 F2P2_$5
HTAB O1P2 O2P1_$8
EQIV $10 -x+3, -y+2, -z
HTAB O1P2 O2P2_$10

REM Highest difference peak  0.239,  deepest hole -0.276,  1-sigma level  0.056
Q1    1   0.3010  0.6741 -0.0861  11.00000  0.05    0.24
Q2    1   0.2377  0.9145  0.0198  11.00000  0.05    0.23
Q3    1   0.5520  0.9551  0.1939  11.00000  0.05    0.22
Q4    1   1.1400  0.7449  0.2339  11.00000  0.05    0.21
Q5    1   0.7527  0.7601 -0.0690  11.00000  0.05    0.19
Q6    1   0.7225  0.7087  0.1102  11.00000  0.05    0.17
Q7    1   0.7816  0.6331  0.2869  11.00000  0.05    0.16
Q8    1   0.8204  0.7276  0.3208  11.00000  0.05    0.16
Q9    1   0.5282  0.9411 -0.0789  11.00000  0.05    0.15
Q10   1   0.4863  0.6003  0.0916  11.00000  0.05    0.14
;
_shelx_res_checksum              11160
loop_
_space_group_symop_operation_xyz
'x, y, z'
'-x, y+1/2, -z+1/2'
'-x, -y, -z'
'x, -y-1/2, z-1/2'
loop_
_atom_site_label
_atom_site_type_symbol
_atom_site_fract_x
_atom_site_fract_y
_atom_site_fract_z
_atom_site_U_iso_or_equiv
_atom_site_adp_type
_atom_site_occupancy
_atom_site_site_symmetry_order
_atom_site_calc_flag
_atom_site_refinement_flags_posn
_atom_site_refinement_flags_adp
_atom_site_refinement_flags_occupancy
_atom_site_disorder_assembly
_atom_site_disorder_group
C6R C 0.7253(13) 0.7088(3) 0.0767(6) 0.081(2) Uiso 0.755(10) 1 d G U P A 1
C1R C 0.8877(14) 0.6835(3) 0.1874(6) 0.081(2) Uiso 0.755(10) 1 d G U P A 1
F1R F 0.9975(18) 0.7309(4) 0.2753(7) 0.099(4) Uiso 0.755(10) 1 d G U P A 1
C2R C 0.946(2) 0.6137(4) 0.2132(7) 0.081(2) Uiso 0.755(10) 1 d G U P A 1
H2R H 1.0547 0.6030 0.2877 0.097 Uiso 0.755(10) 1 d G U P A 1
C3R C 0.845(2) 0.5647(3) 0.1241(9) 0.081(2) Uiso 0.755(10) 1 d G U P A 1
H3R H 0.8845 0.5162 0.1423 0.097 Uiso 0.755(10) 1 d G U P A 1
C4R C 0.686(2) 0.5854(3) 0.0124(8) 0.081(2) Uiso 0.755(10) 1 d G U P A 1
H4R H 0.6189 0.5553 -0.0507 0.097 Uiso 0.755(10) 1 d G U P A 1
C5R C 0.6274(14) 0.6559(3) -0.0076(7) 0.081(2) Uiso 0.755(10) 1 d G U P A 1
F2R F 0.4606(18) 0.6753(5) -0.1171(7) 0.097(3) Uiso 0.755(10) 1 d G U P A 1
C7R C 0.648(3) 0.7827(7) 0.0462(16) 0.081(2) Uiso 0.755(10) 1 d . U P A 1
H7R H 0.5227 0.7908 -0.0294 0.097 Uiso 0.755(10) 1 calc R U P A 1
C8R C 0.739(3) 0.8415(7) 0.1161(16) 0.081(2) Uiso 0.755(10) 1 d . U P A 1
H8R H 0.8682 0.8385 0.1921 0.097 Uiso 0.755(10) 1 calc R U P A 1
C9R C 0.622(3) 0.9078(4) 0.0645(10) 0.081(2) Uiso 0.755(10) 1 d G U P A 1
O1R O 0.723(2) 0.9583(5) 0.1419(10) 0.097(4) Uiso 0.755(10) 1 d G U P A 1
H1R H 0.6557 0.9964 0.1133 0.145 Uiso 0.755(10) 1 calc R U P A 1
O2R O 0.442(3) 0.9190(6) -0.0313(9) 0.088(4) Uiso 0.755(10) 1 d G U P A 1
C6P1 C 0.868(7) 0.7054(12) 0.071(4) 0.081(2) Uiso 0.123(5) 1 d DG U P A 2
C1P1 C 0.961(8) 0.6856(16) 0.192(4) 0.081(2) Uiso 0.123(5) 1 d DG U P A 2
F1P1 F 1.112(11) 0.734(2) 0.270(4) 0.094(6) Uiso 0.123(5) 1 d G U P A 2
C2P1 C 0.905(11) 0.6188(18) 0.239(4) 0.081(2) Uiso 0.123(5) 1 d G U P A 2
H2P1 H 0.9857 0.6121 0.3237 0.097 Uiso 0.123(5) 1 d G U P A 2
C3P1 C 0.752(13) 0.5685(14) 0.162(5) 0.081(2) Uiso 0.123(5) 1 d G U P A 2
H3P1 H 0.7162 0.5216 0.1983 0.097 Uiso 0.123(5) 1 d G U P A 2
C4P1 C 0.648(11) 0.5848(13) 0.041(5) 0.081(2) Uiso 0.123(5) 1 d G U P A 2
H4P1 H 0.5408 0.5525 -0.0096 0.097 Uiso 0.123(5) 1 d G U P A 2
C5P1 C 0.707(8) 0.6522(13) -0.001(4) 0.081(2) Uiso 0.123(5) 1 d DG U P A 2
F2P1 F 0.593(10) 0.670(2) -0.118(4) 0.094(6) Uiso 0.123(5) 1 d G U P A 2
C7P1 C 0.978(7) 0.7760(11) 0.017(3) 0.081(2) Uiso 0.123(5) 1 d D U P A 2
H7P1 H 0.8705 0.7832 -0.0668 0.097 Uiso 0.123(5) 1 calc R U P A 2
C8P1 C 0.950(7) 0.8431(12) 0.097(3) 0.081(2) Uiso 0.123(5) 1 d D U P A 2
H8P1 H 0.8362 0.8325 0.1780 0.097 Uiso 0.123(5) 1 calc R U P A 2
C9P1 C 0.776(12) 0.9070(14) 0.039(5) 0.081(2) Uiso 0.123(5) 1 d DG U P A 2
O1P1 O 0.846(15) 0.9647(14) 0.101(5) 0.082(6) Uiso 0.123(5) 1 d DG U P A 2
H1P1 H 0.7392 0.9978 0.0672 0.123 Uiso 0.123(5) 1 calc R U P A 2
O2P1 O 0.586(18) 0.905(2) -0.056(4) 0.082(6) Uiso 0.123(5) 1 d DG U P A 2
C6P2 C 1.619(7) 0.7193(12) 0.059(3) 0.081(2) Uiso 0.123(5) 1 d DG U P A 3
C1P2 C 1.828(7) 0.7112(16) 0.169(3) 0.081(2) Uiso 0.123(5) 1 d DG U P A 3
F1P2 F 1.880(9) 0.769(2) 0.243(4) 0.094(6) Uiso 0.123(5) 1 d G U P A 3
C2P2 C 1.985(10) 0.649(2) 0.207(4) 0.081(2) Uiso 0.123(5) 1 d G U P A 3
H2P2 H 2.1207 0.6486 0.2802 0.097 Uiso 0.123(5) 1 d G U P A 3
C3P2 C 1.928(13) 0.5900(16) 0.134(5) 0.081(2) Uiso 0.123(5) 1 d G U P A 3
H3P2 H 2.0297 0.5437 0.1584 0.097 Uiso 0.123(5) 1 d G U P A 3
C4P2 C 1.721(12) 0.5938(13) 0.025(4) 0.081(2) Uiso 0.123(5) 1 d G U P A 3
H4P2 H 1.6601 0.5564 -0.0304 0.097 Uiso 0.123(5) 1 d G U P A 3
C5P2 C 1.574(9) 0.6578(13) -0.010(3) 0.081(2) Uiso 0.123(5) 1 d DG U P A 3
F2P2 F 1.375(12) 0.661(2) -0.118(4) 0.094(6) Uiso 0.123(5) 1 d G U P A 3
C7P2 C 1.415(7) 0.7850(11) 0.017(3) 0.081(2) Uiso 0.123(5) 1 d D U P A 3
H7P2 H 1.5009 0.8018 -0.0640 0.097 Uiso 0.123(5) 1 calc R U P A 3
C8P2 C 1.384(7) 0.8461(11) 0.114(3) 0.081(2) Uiso 0.123(5) 1 d D U P A 3
H8P2 H 1.4726 0.8338 0.1982 0.097 Uiso 0.123(5) 1 calc R U P A 3
C9P2 C 1.527(9) 0.9149(12) 0.067(4) 0.081(2) Uiso 0.123(5) 1 d DG U P A 3
O1P2 O 1.546(14) 0.9635(15) 0.154(4) 0.082(6) Uiso 0.123(5) 1 d DG U P A 3
H1P2 H 1.6275 0.9998 0.1239 0.123 Uiso 0.123(5) 1 calc R U P A 3
O2P2 O 1.610(17) 0.925(2) -0.041(4) 0.082(6) Uiso 0.123(5) 1 d DG U P A 3
loop_
_atom_type_symbol
_atom_type_description
_atom_type_scat_dispersion_real
_atom_type_scat_dispersion_imag
_atom_type_scat_source
C C 0.0033 0.0016 'International Tables Vol C Tables 4.2.6.8 and 6.1.1.4'
H H 0.0000 0.0000 'International Tables Vol C Tables 4.2.6.8 and 6.1.1.4'
O O 0.0106 0.0060 'International Tables Vol C Tables 4.2.6.8 and 6.1.1.4'
F F 0.0171 0.0103 'International Tables Vol C Tables 4.2.6.8 and 6.1.1.4'
loop_
_geom_angle_atom_site_label_1
_geom_angle_atom_site_label_2
_geom_angle_atom_site_label_3
_geom_angle
C5R C6R C1R 113.3
C5R C6R C7R 120.3(7)
C1R C6R C7R 126.5(7)
F1R C1R C2R 117.6
F1R C1R C6R 118.0
C2R C1R C6R 124.4
C1R C2R C3R 118.6
C1R C2R H2R 117.2
C3R C2R H2R 124.2
C4R C3R C2R 120.5
C4R C3R H3R 121.0
C2R C3R H3R 118.5
C3R C4R C5R 118.5
C3R C4R H4R 124.2
C5R C4R H4R 117.4
F2R C5R C4R 117.7
F2R C5R C6R 117.6
C4R C5R C6R 124.7
C8R C7R C6R 127.9(15)
C8R C7R H7R 116.1
C6R C7R H7R 116.1
C7R C8R C9R 116.0(14)
C7R C8R H8R 122.0
C9R C8R H8R 122.0
O2R C9R O1R 122.4
O2R C9R C8R 128.6(9)
O1R C9R C8R 108.9(9)
C9R O1R H1R 109.5
C1P1 C6P1 C5P1 113.9
C1P1 C6P1 C7P1 122.0(10)
C5P1 C6P1 C7P1 123.6(10)
F1P1 C1P1 C6P1 118.5
F1P1 C1P1 C2P1 117.8
C6P1 C1P1 C2P1 123.7
C3P1 C2P1 C1P1 119.2
C3P1 C2P1 H2P1 126.0
C1P1 C2P1 H2P1 114.8
C2P1 C3P1 C4P1 120.3
C2P1 C3P1 H3P1 117.2
C4P1 C3P1 H3P1 122.5
C3P1 C4P1 C5P1 118.4
C3P1 C4P1 H4P1 121.4
C5P1 C4P1 H4P1 120.3
F2P1 C5P1 C4P1 119.2
F2P1 C5P1 C6P1 116.2
C4P1 C5P1 C6P1 124.6
C6P1 C7P1 C8P1 120.4(15)
C6P1 C7P1 C7P2 111.4(11)
C8P1 C7P1 C7P2 89.4(8)
C6P1 C7P1 H7P1 111.3
C8P1 C7P1 H7P1 111.3
C7P2 C7P1 H7P1 111.3
C9P1 C8P1 C7P1 118.2(15)
C9P1 C8P1 C8P2 115.2(15)
C7P1 C8P1 C8P2 90.7(8)
C9P1 C8P1 H8P1 110.4
C7P1 C8P1 H8P1 110.4
C8P2 C8P1 H8P1 110.4
O2P1 C9P1 O1P1 123.3
O2P1 C9P1 C8P1 123.5(11)
O1P1 C9P1 C8P1 113.1(11)
C9P1 O1P1 H1P1 109.5
C1P2 C6P2 C5P2 114.0
C1P2 C6P2 C7P2 126.6(10)
C5P2 C6P2 C7P2 119.1(10)
F1P2 C1P2 C2P2 118.2
F1P2 C1P2 C6P2 117.7
C2P2 C1P2 C6P2 124.2
C1P2 C2P2 C3P2 118.8
C1P2 C2P2 H2P2 118.0
C3P2 C2P2 H2P2 123.2
C4P2 C3P2 C2P2 120.3
C4P2 C3P2 H3P2 117.8
C2P2 C3P2 H3P2 121.9
C3P2 C4P2 C5P2 118.6
C3P2 C4P2 H4P2 127.2
C5P2 C4P2 H4P2 114.2
F2P2 C5P2 C4P2 117.8
F2P2 C5P2 C6P2 118.1
C4P2 C5P2 C6P2 124.1
C6P2 C7P2 C8P2 117.7(14)
C6P2 C7P2 C7P1 113.1(12)
C8P2 C7P2 C7P1 89.6(8)
C6P2 C7P2 H7P2 111.6
C8P2 C7P2 H7P2 111.6
C7P1 C7P2 H7P2 111.6
C9P2 C8P2 C7P2 114.0(14)
C9P2 C8P2 C8P1 110.5(13)
C7P2 C8P2 C8P1 89.4(8)
C9P2 C8P2 H8P2 113.6
C7P2 C8P2 H8P2 113.6
C8P1 C8P2 H8P2 113.6
O2P2 C9P2 O1P2 123.5
O2P2 C9P2 C8P2 122.9(11)
O1P2 C9P2 C8P2 113.6(11)
C9P2 O1P2 H1P2 109.5
loop_
_geom_bond_atom_site_label_1
_geom_bond_atom_site_label_2
_geom_bond_distance
C6R C5R 1.3899
C6R C1R 1.3934
C6R C7R 1.466(15)
C1R F1R 1.3531
C1R C2R 1.3701
C2R C3R 1.3738
C2R H2R 0.9021
C3R C4R 1.3695
C3R H3R 0.9522
C4R C5R 1.3718
C4R H4R 0.9114
C5R F2R 1.3547
C7R C8R 1.380(19)
C7R H7R 0.9300
C8R C9R 1.435(15)
C8R H8R 0.9300
C9R O2R 1.2194
C9R O1R 1.3134
O1R H1R 0.8200
C6P1 C1P1 1.3794
C6P1 C5P1 1.3863
C6P1 C7P1 1.513(9)
C1P1 F1P1 1.3562
C1P1 C2P1 1.3804
C2P1 C3P1 1.3666
C2P1 H2P1 0.9538
C3P1 C4P1 1.3674
C3P1 H3P1 0.9807
C4P1 C5P1 1.3758
C4P1 H4P1 0.9029
C5P1 F2P1 1.3550
C7P1 C8P1 1.538(10)
C7P1 C7P2 1.602(10)
C7P1 H7P1 0.9800
C8P1 C9P1 1.499(9)
C8P1 C8P2 1.587(10)
C8P1 H8P1 0.9800
C9P1 O2P1 1.2185
C9P1 O1P1 1.3039
O1P1 H1P1 0.8200
C6P2 C1P2 1.3864
C6P2 C5P2 1.3878
C6P2 C7P2 1.514(9)
C1P2 F1P2 1.3553
C1P2 C2P2 1.3710
C2P2 C3P2 1.3730
C2P2 H2P2 0.9181
C3P2 C4P2 1.3720
C3P2 H3P2 0.9851
C4P2 C5P2 1.3767
C4P2 H4P2 0.9481
C5P2 F2P2 1.3510
C7P2 C8P2 1.554(10)
C7P2 H7P2 0.9800
C8P2 C9P2 1.494(9)
C8P2 H8P2 0.9800
C9P2 O2P2 1.2132
C9P2 O1P2 1.3057
O1P2 H1P2 0.8200
