#------------------------------------------------------------------------------
#$Date: 2017-02-16 09:23:00 +0200 (Thu, 16 Feb 2017) $
#$Revision: 192188 $
#$URL: file:///home/coder/svn-repositories/cod/cif/7/22/77/7227701.cif $
#------------------------------------------------------------------------------
#
# This file is available in the Crystallography Open Database (COD),
# http://www.crystallography.net/
#
# All data on this site have been placed in the public domain by the
# contributors.
#
data_7227701
loop_
_publ_author_name
'Lin, Nai-Chieh'
'Syu, Herbert J. H.'
'Naziruddin, Abbas Raja'
'Liu, Fu-Chen'
'Lin, Ivan J. B.'
_publ_section_title
;
 Direct C-metallation of N-substituted triazoles promoted by mercury
 acetate. An alternative route to N-heterocyclic carbene complexes
;
_journal_issue                   19
_journal_name_full               'RSC Adv.'
_journal_page_first              11652
_journal_paper_doi               10.1039/C7RA00163K
_journal_volume                  7
_journal_year                    2017
_chemical_formula_sum            'C10 H9 Hg N3 O2'
_chemical_formula_weight         403.79
_space_group_crystal_system      triclinic
_space_group_IT_number           2
_space_group_name_Hall           '-P 1'
_space_group_name_H-M_alt        'P -1'
_symmetry_space_group_name_Hall  '-P 1'
_symmetry_space_group_name_H-M   'P -1'
_atom_sites_solution_hydrogens   geom
_audit_creation_method           SHELXL-2014/7
_audit_update_record
;
2016-10-03 deposited with the CCDC.
2017-02-10 downloaded from the CCDC.
;
_cell_angle_alpha                106.28(3)
_cell_angle_beta                 93.90(3)
_cell_angle_gamma                95.40(3)
_cell_formula_units_Z            2
_cell_length_a                   4.3353(9)
_cell_length_b                   10.658(2)
_cell_length_c                   12.488(3)
_cell_measurement_reflns_used    2952
_cell_measurement_temperature    293(2)
_cell_measurement_theta_max      25.97
_cell_measurement_theta_min      2.23
_cell_volume                     548.7(2)
_computing_cell_refinement       'Bruker SAINT'
_computing_data_collection       'Bruker APEX2'
_computing_data_reduction        'Bruker SAINT'
_computing_molecular_graphics    'Bruker SHELXTL'
_computing_publication_material  'Bruker SHELXTL'
_computing_structure_refinement  'SHELXL-2014/7 (Sheldrick, 2014)'
_computing_structure_solution    'SHELXS-97 (Sheldrick, 2008)'
_diffrn_ambient_temperature      293(2)
_diffrn_measured_fraction_theta_full 1.000
_diffrn_measured_fraction_theta_max 0.999
_diffrn_measurement_device_type  'Bruker APEX-II CCD'
_diffrn_measurement_method       '\f and \w scans'
_diffrn_radiation_type           MoK\a
_diffrn_radiation_wavelength     0.71073
_diffrn_reflns_av_R_equivalents  0.0301
_diffrn_reflns_av_unetI/netI     0.0398
_diffrn_reflns_Laue_measured_fraction_full 1.000
_diffrn_reflns_Laue_measured_fraction_max 0.999
_diffrn_reflns_limit_h_max       5
_diffrn_reflns_limit_h_min       -5
_diffrn_reflns_limit_k_max       13
_diffrn_reflns_limit_k_min       -13
_diffrn_reflns_limit_l_max       15
_diffrn_reflns_limit_l_min       -15
_diffrn_reflns_number            5327
_diffrn_reflns_point_group_measured_fraction_full 1.000
_diffrn_reflns_point_group_measured_fraction_max 0.999
_diffrn_reflns_theta_full        25.242
_diffrn_reflns_theta_max         26.468
_diffrn_reflns_theta_min         1.707
_exptl_absorpt_coefficient_mu    14.012
_exptl_absorpt_correction_T_max  0.7454
_exptl_absorpt_correction_T_min  0.4403
_exptl_absorpt_correction_type   multi-scan
_exptl_absorpt_process_details   SADABS
_exptl_crystal_colour            colourless
_exptl_crystal_density_diffrn    2.444
_exptl_crystal_description       block
_exptl_crystal_F_000             372
_exptl_crystal_size_max          0.10
_exptl_crystal_size_mid          0.08
_exptl_crystal_size_min          0.05
_refine_diff_density_max         1.297
_refine_diff_density_min         -1.053
_refine_diff_density_rms         0.141
_refine_ls_extinction_method     none
_refine_ls_goodness_of_fit_ref   0.983
_refine_ls_hydrogen_treatment    constr
_refine_ls_matrix_type           full
_refine_ls_number_parameters     146
_refine_ls_number_reflns         2271
_refine_ls_number_restraints     0
_refine_ls_restrained_S_all      0.983
_refine_ls_R_factor_all          0.0369
_refine_ls_R_factor_gt           0.0273
_refine_ls_shift/su_max          0.000
_refine_ls_shift/su_mean         0.000
_refine_ls_structure_factor_coef Fsqd
_refine_ls_weighting_details
'w=1/[\s^2^(Fo^2^)+(0.0351P)^2^] where P=(Fo^2^+2Fc^2^)/3'
_refine_ls_weighting_scheme      calc
_refine_ls_wR_factor_gt          0.0607
_refine_ls_wR_factor_ref         0.0645
_reflns_Friedel_coverage         0.000
_reflns_number_gt                1928
_reflns_number_total             2271
_reflns_threshold_expression     'I > 2\s(I)'
_cod_data_source_file            c7ra00163k2.cif
_cod_data_source_block           1
_cod_database_code               7227701
_shelx_shelxl_version_number     2014/7
_shelx_space_group_comment
; 
The symmetry employed for this shelxl refinement is uniquely defined 
by the following loop, which should always be used as a source of 
symmetry information in preference to the above space-group names. 
They are only intended as comments. 
;
_shelx_res_file
; 
  
    1.res created by SHELXL-2014/7 
  
TITL 2 in P-1 
CELL 0.71073   4.3353  10.6583  12.4877 106.281  93.904  95.396 
ZERR    2.00   0.0009   0.0021   0.0025   0.030   0.030   0.030 
LATT 1 
SFAC C  H  N  O  Hg 
UNIT 20  18  6  4  2 
L.S. 10 
ACTA 
BOND 
FMAP 2 
PLAN 20 
WGHT    0.035100 
FVAR       0.15666 
MOLE 1 
C1    1    0.319793    0.366672    0.355135    11.00000    0.06131    0.02735 = 
         0.03714    0.00793    0.00460    0.00266 
C2    1    0.464912    0.195379    0.384672    11.00000    0.10115    0.03695 = 
         0.04976    0.01866   -0.01412    0.00788 
AFIX  43 
H2    2    0.549495    0.140693    0.422275    11.00000   -1.20000 
AFIX   0 
C3    1    0.133920    0.261187    0.150864    11.00000    0.06043    0.03350 = 
         0.03385    0.00489    0.00103    0.00755 
C4    1   -0.088759    0.161381    0.093661    11.00000    0.06254    0.05083 = 
         0.04454    0.00937   -0.00428   -0.00053 
AFIX  43 
H4    2   -0.159922    0.097058    0.126272    11.00000   -1.20000 
AFIX   0 
C5    1   -0.208910    0.156521   -0.014090    11.00000    0.06576    0.07406 = 
         0.05574    0.00450   -0.01145   -0.00640 
AFIX  43 
H5    2   -0.360490    0.088754   -0.053791    11.00000   -1.20000 
AFIX   0 
C6    1   -0.102884    0.251907   -0.061242    11.00000    0.07301    0.07921 = 
         0.04293    0.01827   -0.00673    0.01421 
AFIX  43 
H6    2   -0.183150    0.249500   -0.132870    11.00000   -1.20000 
AFIX   0 
C7    1    0.123471    0.351550   -0.002012    11.00000    0.08600    0.06038 = 
         0.05084    0.02688    0.00408    0.00737 
AFIX  43 
H7    2    0.194935    0.416188   -0.034242    11.00000   -1.20000 
AFIX   0 
C8    1    0.245130    0.356755    0.104040    11.00000    0.06113    0.05339 = 
         0.04588    0.01742    0.00329    0.00021 
AFIX  43 
H8    2    0.399473    0.423559    0.143276    11.00000   -1.20000 
AFIX   0 
C9    1   -0.141903    0.743290    0.328665    11.00000    0.05271    0.03847 = 
         0.04660    0.01392    0.00282    0.00521 
C10   1   -0.222255    0.879396    0.332302    11.00000    0.06124    0.04732 = 
         0.08132    0.02304   -0.00396    0.00884 
AFIX 137 
H10A  2   -0.249140    0.886495    0.257362    11.00000   -1.50000 
H10B  2   -0.056828    0.944048    0.374884    11.00000   -1.50000 
H10C  2   -0.411792    0.894024    0.366969    11.00000   -1.50000 
AFIX   0 
HG1   5    0.226851    0.556120    0.374958    11.00000    0.05803    0.03039 = 
         0.04477    0.01083   -0.00435    0.00379 
N1    3    0.259147    0.264472    0.261280    11.00000    0.06579    0.03225 = 
         0.03650    0.01147   -0.00277    0.00416 
N2    3    0.352749    0.152318    0.280953    11.00000    0.09053    0.03134 = 
         0.04905    0.00947   -0.00775    0.01070 
N3    3    0.452662    0.324550    0.435724    11.00000    0.09514    0.03092 = 
         0.04126    0.00967   -0.01182    0.00284 
O1    4    0.107859    0.744444    0.390320    11.00000    0.05544    0.03458 = 
         0.06935    0.00973   -0.00635    0.00738 
O2    4   -0.304502    0.643874    0.273063    11.00000    0.06138    0.04410 = 
         0.05920    0.01192    0.00078    0.00180 
HKLF 4 
  
REM  2 in P-1 
REM R1 =  0.0273 for    1928 Fo > 4sig(Fo)  and  0.0369 for all    2271 data 
REM    146 parameters refined using      0 restraints 
  
END 
  
WGHT      0.0334      0.0000 
  
REM Highest difference peak  1.297,  deepest hole -1.053,  1-sigma level  0.141 
Q1    1   0.4160  0.5354  0.3347  11.00000  0.05    1.30 
Q2    1   0.2854  0.6436  0.4036  11.00000  0.05    1.14 
Q3    1   0.1445  0.4643  0.3482  11.00000  0.05    1.13 
Q4    1  -0.0038  0.5674  0.4115  11.00000  0.05    1.06 
Q5    1  -0.2635  0.6617  0.1607  11.00000  0.05    0.49 
Q6    1  -0.0387  0.4242  0.4592  11.00000  0.05    0.47 
Q7    1  -0.0400  0.3823  0.3259  11.00000  0.05    0.46 
Q8    1   0.4073  0.4557  0.3929  11.00000  0.05    0.46 
Q9    1  -0.2890  0.5702  0.2999  11.00000  0.05    0.44 
Q10   1   0.0678  0.9025  0.2777  11.00000  0.05    0.43 
Q11   1  -0.0076  0.9157  0.3024  11.00000  0.05    0.39 
Q12   1   0.8859  0.3371  0.4418  11.00000  0.05    0.38 
Q13   1   0.0535  0.6658  0.3539  11.00000  0.05    0.36 
Q14   1   0.3083  0.4766  0.2098  11.00000  0.05    0.34 
Q15   1   0.3253  0.3175  0.3012  11.00000  0.05    0.34 
Q16   1  -0.0924  0.2303  0.3167  11.00000  0.05    0.34 
Q17   1  -0.0566  0.6652  0.4940  11.00000  0.05    0.34 
Q18   1   0.4150  0.0948  0.2461  11.00000  0.05    0.33 
Q19   1  -0.4310  0.8749  0.2990  11.00000  0.05    0.33 
Q20   1   0.2441  0.4206  0.5209  11.00000  0.05    0.32 
;
_shelx_res_checksum              67594
loop_
_space_group_symop_operation_xyz
'x, y, z'
'-x, -y, -z'
loop_
_atom_site_label
_atom_site_type_symbol
_atom_site_fract_x
_atom_site_fract_y
_atom_site_fract_z
_atom_site_U_iso_or_equiv
_atom_site_adp_type
_atom_site_occupancy
_atom_site_site_symmetry_order
_atom_site_calc_flag
_atom_site_refinement_flags_posn
_atom_site_refinement_flags_adp
C1 C 0.3198(15) 0.3667(5) 0.3551(5) 0.0424(14) Uani 1 1 d . .
C2 C 0.465(2) 0.1954(6) 0.3847(6) 0.062(2) Uani 1 1 d . .
H2 H 0.5495 0.1407 0.4223 0.075 Uiso 1 1 calc R U
C3 C 0.1339(15) 0.2612(6) 0.1509(5) 0.0436(14) Uani 1 1 d . .
C4 C -0.0888(16) 0.1614(7) 0.0937(5) 0.0545(17) Uani 1 1 d . .
H4 H -0.1599 0.0971 0.1263 0.065 Uiso 1 1 calc R U
C5 C -0.2089(19) 0.1565(8) -0.0141(6) 0.070(2) Uani 1 1 d . .
H5 H -0.3605 0.0888 -0.0538 0.084 Uiso 1 1 calc R U
C6 C -0.1029(19) 0.2519(8) -0.0612(6) 0.065(2) Uani 1 1 d . .
H6 H -0.1832 0.2495 -0.1329 0.078 Uiso 1 1 calc R U
C7 C 0.1235(19) 0.3516(7) -0.0020(6) 0.064(2) Uani 1 1 d . .
H7 H 0.1949 0.4162 -0.0342 0.076 Uiso 1 1 calc R U
C8 C 0.2451(17) 0.3568(7) 0.1040(5) 0.0534(16) Uani 1 1 d . .
H8 H 0.3995 0.4236 0.1433 0.064 Uiso 1 1 calc R U
C9 C -0.1419(15) 0.7433(6) 0.3287(5) 0.0457(14) Uani 1 1 d . .
C10 C -0.2223(18) 0.8794(7) 0.3323(7) 0.0627(19) Uani 1 1 d . .
H10A H -0.2491 0.8865 0.2574 0.094 Uiso 1 1 calc R U
H10B H -0.0568 0.9440 0.3749 0.094 Uiso 1 1 calc R U
H10C H -0.4118 0.8940 0.3670 0.094 Uiso 1 1 calc R U
Hg1 Hg 0.22685(6) 0.55612(2) 0.37496(2) 0.04495(10) Uani 1 1 d . .
N1 N 0.2591(13) 0.2645(5) 0.2613(4) 0.0450(12) Uani 1 1 d . .
N2 N 0.3527(15) 0.1523(5) 0.2810(5) 0.0579(15) Uani 1 1 d . .
N3 N 0.4527(15) 0.3245(5) 0.4357(4) 0.0571(15) Uani 1 1 d . .
O1 O 0.1079(11) 0.7444(4) 0.3903(4) 0.0547(11) Uani 1 1 d . .
O2 O -0.3045(11) 0.6439(4) 0.2731(4) 0.0561(11) Uani 1 1 d . .
loop_
_atom_site_aniso_label
_atom_site_aniso_U_11
_atom_site_aniso_U_22
_atom_site_aniso_U_33
_atom_site_aniso_U_23
_atom_site_aniso_U_13
_atom_site_aniso_U_12
C1 0.061(4) 0.027(3) 0.037(3) 0.008(2) 0.005(3) 0.003(3)
C2 0.101(6) 0.037(3) 0.050(4) 0.019(3) -0.014(4) 0.008(4)
C3 0.060(4) 0.033(3) 0.034(3) 0.005(2) 0.001(3) 0.008(3)
C4 0.063(4) 0.051(4) 0.045(4) 0.009(3) -0.004(3) -0.001(3)
C5 0.066(5) 0.074(5) 0.056(4) 0.004(4) -0.011(4) -0.006(4)
C6 0.073(5) 0.079(5) 0.043(4) 0.018(4) -0.007(3) 0.014(4)
C7 0.086(6) 0.060(4) 0.051(4) 0.027(4) 0.004(4) 0.007(4)
C8 0.061(4) 0.053(4) 0.046(4) 0.017(3) 0.003(3) 0.000(3)
C9 0.053(4) 0.038(3) 0.047(3) 0.014(3) 0.003(3) 0.005(3)
C10 0.061(5) 0.047(4) 0.081(5) 0.023(4) -0.004(4) 0.009(3)
Hg1 0.05803(17) 0.03039(13) 0.04477(15) 0.01083(9) -0.00435(10) 0.00379(10)
N1 0.066(3) 0.032(2) 0.036(3) 0.011(2) -0.003(2) 0.004(2)
N2 0.091(5) 0.031(3) 0.049(3) 0.009(2) -0.008(3) 0.011(3)
N3 0.095(5) 0.031(3) 0.041(3) 0.010(2) -0.012(3) 0.003(3)
O1 0.055(3) 0.035(2) 0.069(3) 0.010(2) -0.006(2) 0.007(2)
O2 0.061(3) 0.044(3) 0.059(3) 0.012(2) 0.001(2) 0.002(2)
loop_
_atom_type_symbol
_atom_type_description
_atom_type_scat_dispersion_real
_atom_type_scat_dispersion_imag
_atom_type_scat_source
C C 0.0033 0.0016 'International Tables Vol C Tables 4.2.6.8 and 6.1.1.4'
H H 0.0000 0.0000 'International Tables Vol C Tables 4.2.6.8 and 6.1.1.4'
N N 0.0061 0.0033 'International Tables Vol C Tables 4.2.6.8 and 6.1.1.4'
O O 0.0106 0.0060 'International Tables Vol C Tables 4.2.6.8 and 6.1.1.4'
Hg Hg -2.3894 9.2266 'International Tables Vol C Tables 4.2.6.8 and 6.1.1.4'
loop_
_geom_angle_atom_site_label_1
_geom_angle_atom_site_label_2
_geom_angle_atom_site_label_3
_geom_angle
_geom_angle_site_symmetry_3
N3 C1 N1 108.5(5) .
N3 C1 Hg1 124.4(4) .
N1 C1 Hg1 127.1(4) .
N2 C2 N3 116.3(6) .
C4 C3 C8 121.3(6) .
C4 C3 N1 119.1(6) .
C8 C3 N1 119.5(5) .
C3 C4 C5 119.5(7) .
C6 C5 C4 119.8(7) .
C5 C6 C7 119.7(7) .
C8 C7 C6 121.0(7) .
C3 C8 C7 118.7(7) .
O2 C9 O1 124.4(6) .
O2 C9 C10 122.2(6) .
O1 C9 C10 113.4(6) .
C1 Hg1 O1 176.8(2) .
C1 Hg1 N3 100.8(2) 2_666
O1 Hg1 N3 81.92(18) 2_666
C1 N1 N2 110.1(5) .
C1 N1 C3 129.8(5) .
N2 N1 C3 120.0(5) .
C2 N2 N1 101.8(5) .
C1 N3 C2 103.3(5) .
C1 N3 Hg1 133.1(4) 2_666
C2 N3 Hg1 121.4(4) 2_666
C9 O1 Hg1 112.3(4) .
loop_
_geom_bond_atom_site_label_1
_geom_bond_atom_site_label_2
_geom_bond_distance
_geom_bond_site_symmetry_2
C1 N3 1.330(8) .
C1 N1 1.348(7) .
C1 Hg1 2.046(6) .
C2 N2 1.290(8) .
C2 N3 1.353(8) .
C3 C4 1.364(9) .
C3 C8 1.375(9) .
C3 N1 1.437(7) .
C4 C5 1.395(10) .
C5 C6 1.370(11) .
C6 C7 1.379(11) .
C7 C8 1.376(9) .
C9 O2 1.217(8) .
C9 O1 1.282(8) .
C9 C10 1.513(9) .
Hg1 O1 2.079(4) .
Hg1 N3 2.583(5) 2_666
N1 N2 1.377(7) .
N3 Hg1 2.583(5) 2_666
