#------------------------------------------------------------------------------
#$Date: 2017-02-04 16:16:59 +0200 (Sat, 04 Feb 2017) $
#$Revision: 191764 $
#$URL: file:///home/coder/svn-repositories/cod/cif/7/22/73/7227391.cif $
#------------------------------------------------------------------------------
#
# This file is available in the Crystallography Open Database (COD),
# http://www.crystallography.net/
#
# All data on this site have been placed in the public domain by the
# contributors.
#
data_7227391
loop_
_publ_author_name
'Yeung, Hamish H.-M.'
'Kilmurray, Rebecca'
'Hobday, Claire L.'
'McKellar, Scott C.'
'Cheetham, Anthony K.'
'Allan, David R.'
'Moggach, Stephen A.'
_publ_section_title
;
 Hidden negative linear compressibility in lithium l-tartrate.
;
_journal_issue                   5
_journal_name_full               'Physical chemistry chemical physics : PCCP'
_journal_page_first              3544
_journal_page_last               3549
_journal_paper_doi               10.1039/c6cp08690j
_journal_volume                  19
_journal_year                    2017
_chemical_absolute_configuration unk
_chemical_formula_moiety         'C4 H4 Li2 O6'
_chemical_formula_sum            'C4 H4 Li2 O6'
_chemical_formula_weight         161.95
_chemical_name_common            'Lithium tartrate; dilithium tartrate'
_chemical_name_systematic        'Lithium l-tartrate'
_space_group_IT_number           5
_symmetry_cell_setting           monoclinic
_symmetry_Int_Tables_number      5
_symmetry_space_group_name_Hall  'C 2y'
_symmetry_space_group_name_H-M   'C 1 2 1'
_atom_sites_solution_hydrogens   difmap
_atom_sites_solution_primary     other
_audit_creation_date             2016-02-26
_audit_creation_method           CRYSTALS_ver_14.61_build_5811
_audit_update_record
;
2016-04-13 deposited with the CCDC.
2017-01-06 downloaded from the CCDC.
;
_cell_angle_alpha                90
_cell_angle_beta                 134.825(18)
_cell_angle_gamma                90
_cell_formula_units_Z            4
_cell_length_a                   14.168(8)
_cell_length_b                   4.8351(6)
_cell_length_c                   10.715(8)
_cell_measurement_reflns_used    1395
_cell_measurement_temperature    293
_cell_measurement_theta_max      20
_cell_measurement_theta_min      4
_cell_volume                     520.6(5)
_computing_cell_refinement       'USER DEFINED CELL REFINEMENT'
_computing_data_collection       'USER DEFINED DATA COLLECTION'
_computing_data_reduction        'Apex2 (Bruker AXS, 2006)'
_computing_molecular_graphics    'CAMERON (Watkin et al., 1996)'
_computing_publication_material  'CRYSTALS (Betteridge et al., 2003)'
_computing_structure_refinement  'CRYSTALS (Betteridge et al., 2003)'
_computing_structure_solution    'USER DEFINED STRUCTURE SOLUTION'
_diffrn_ambient_pressure         4410000
_diffrn_ambient_temperature      293
_diffrn_measured_fraction_theta_full 0.380
_diffrn_measured_fraction_theta_max 0.369
_diffrn_measurement_device       Serial
_diffrn_measurement_device_type  Unknown
_diffrn_measurement_method       \w
_diffrn_radiation_monochromator  graphite
_diffrn_radiation_probe          x-ray
_diffrn_radiation_wavelength     0.4859
_diffrn_reflns_av_R_equivalents  0.061
_diffrn_reflns_limit_h_max       7
_diffrn_reflns_limit_h_min       -7
_diffrn_reflns_limit_k_max       6
_diffrn_reflns_limit_k_min       -6
_diffrn_reflns_limit_l_max       13
_diffrn_reflns_limit_l_min       -13
_diffrn_reflns_number            1997
_diffrn_reflns_theta_full        26.228
_diffrn_reflns_theta_max         30.498
_diffrn_reflns_theta_min         2.680
_diffrn_source                   synchrotron
_diffrn_standards_number         0
_exptl_absorpt_coefficient_mu    0.191
_exptl_absorpt_correction_T_max  0.98
_exptl_absorpt_correction_T_min  0.86
_exptl_absorpt_correction_type   multi-scan
_exptl_absorpt_process_details   'SADABS (Siemens, 1996)'
_exptl_crystal_colour            colourless
_exptl_crystal_density_diffrn    2.066
_exptl_crystal_density_method    'not measured'
_exptl_crystal_description       block
_exptl_crystal_F_000             328
_exptl_crystal_size_max          0.200
_exptl_crystal_size_mid          0.200
_exptl_crystal_size_min          0.100
_refine_diff_density_max         0.30
_refine_diff_density_min         -0.31
_refine_ls_extinction_method     None
_refine_ls_goodness_of_fit_ref   1.0688
_refine_ls_hydrogen_treatment    constr
_refine_ls_matrix_type           full
_refine_ls_number_parameters     49
_refine_ls_number_reflns         311
_refine_ls_number_restraints     23
_refine_ls_R_factor_all          0.0643
_refine_ls_R_factor_gt           0.0566
_refine_ls_shift/su_max          0.0000425
_refine_ls_shift/su_mean         0.0000101
_refine_ls_structure_factor_coef Fsqd
_refine_ls_weighting_details
;
 Method= Modified Sheldrick 
 w=1/[\s^2^(F^2^) + ( 0.11P)^2^ + 2.38P] 
 ,where P=(max(Fo^2^,0) + 2Fc^2^)/3 
;
_refine_ls_weighting_scheme      calc
_refine_ls_wR_factor_all         0.1790
_refine_ls_wR_factor_gt          0.1495
_refine_ls_wR_factor_ref         0.1790
_reflns_limit_h_max              6
_reflns_limit_h_min              -7
_reflns_limit_k_max              6
_reflns_limit_k_min              0
_reflns_limit_l_max              13
_reflns_limit_l_min              0
_reflns_number_gt                297
_reflns_number_total             327
_reflns_threshold_expression     I>2.0\s(I)
_oxford_diffrn_Wilson_B_factor   0.00
_oxford_diffrn_Wilson_scale      0.00
_oxford_refine_ls_r_factor_ref   0.0643
_oxford_refine_ls_scale          1.75(9)
_oxford_reflns_number_all        311
_oxford_reflns_threshold_expression_ref I>-10.0\s(I)
_oxford_structure_analysis_title 'trans in C2'
_iucr_refine_instructions_details
;
#
# Punched on 26/02/16 at 16:35:07
#
#LIST     12                                                                    
BLOCK SCALE X'S  U[ISO] 
RIDE C   (   2,X'S) H   (  21,X'S) 
RIDE C   (   4,X'S) H   (  41,X'S) 
RIDE O   (   3,X'S) H   (   3,X'S) 
RIDE O   (   6,X'S) H   (   6,X'S) 
END                                                                             
#
# Punched on 26/02/16 at 16:35:07
#
#LIST     16                                                                    
DIST   1.532,.01= C(1) TO C(2) 
DIST   1.251,.01= C(1) TO O(1) 
DIST   1.252,.01= C(1) TO O(2) 
DIST   1.564,.01= C(2) TO C(2,2,1,1,0,1) 
DIST   1.408,.01= C(2) TO O(3) 
DIST   1.528,.01= C(3) TO C(4) 
DIST   1.249,.01= C(3) TO O(4) 
DIST   1.253,.01= C(3) TO O(5) 
DIST   1.564,.01= C(4) TO C(4,2) 
DIST   1.409,.01= C(4) TO O(6) 
ANGL 120,1= O(1) TO C(1) TO C(2) 
ANGL 116,1= O(2) TO C(1) TO C(2) 
ANGL 124,1= O(2) TO C(1) TO O(1) 
ANGL 110,1= C(2,2,1,1,0,1) TO C(2) TO C(1) 
ANGL 113,1= O(3) TO C(2) TO C(1) 
ANGL 111,1= O(3) TO C(2) TO C(2,2,1,1,0,1) 
ANGL 120,1= O(4) TO C(3) TO C(4) 
ANGL 115,1= O(5) TO C(3) TO C(4) 
ANGL 125,1= O(5) TO C(3) TO O(4) 
ANGL 109,1= C(4,2) TO C(4) TO C(3) 
ANGL 114,1= O(6) TO C(4) TO C(3) 
ANGL 111,1= O(6) TO C(4) TO C(4,2) 
REM   HREST   START (DO NOT REMOVE THIS LINE) 
REM   HREST   END (DO NOT REMOVE THIS LINE) 
END                                                                             
;
_cod_data_source_file            c6cp08690j2.cif
_cod_data_source_block           TART06
_cod_depositor_comments
;
The following automatic conversions were performed:

'_atom_sites_solution_primary' value 'Other' changed to 'other'
according to
/usr/data/users/saulius/crontab/automatic-downloads/rss-feeds/RSC/lib/dictionaries/cif_core.dic
dictionary named 'cif_core.dic' version 2.4.2 from 2011-04-26.

Automatic conversion script
Id: cif_fix_values 4268 2015-11-12 08:31:59Z antanas 

 Adding full bibliography for 7227387--7227399.cif.
;
_cod_original_sg_symbol_Hall     'C 2y '
_cod_original_sg_symbol_H-M      'C 2'
_cod_database_code               7227391
loop_
_symmetry_equiv_pos_as_xyz
x,y,z
x+1/2,y+1/2,z
-x,y,-z
-x+1/2,y+1/2,-z
loop_
_atom_site_label
_atom_site_type_symbol
_atom_site_fract_x
_atom_site_fract_y
_atom_site_fract_z
_atom_site_U_iso_or_equiv
_atom_site_occupancy
_atom_site_adp_type
_atom_site_refinement_flags_posn
Li1 Li 0.178(2) 0.769(3) 0.4244(13) 0.017(2) 1.0000 Uiso .
Li2 Li 0.170(2) 0.671(2) -0.0579(13) 0.014(2) 1.0000 Uiso .
C1 C 0.4116(10) 0.6922(9) 0.2649(5) 0.0108(12) 1.0000 Uiso D
C2 C 0.5248(5) 0.5883(10) 0.4543(5) 0.0104(11) 1.0000 Uiso D
C3 C 0.1394(10) 0.2458(9) 0.2396(6) 0.0126(12) 1.0000 Uiso D
C4 C 0.0767(4) 0.3437(9) 0.0605(5) 0.0093(11) 1.0000 Uiso D
O1 O 0.3585(9) 0.5295(8) 0.1397(5) 0.0134(10) 1.0000 Uiso D
O2 O 0.3877(9) 0.9444(8) 0.2476(5) 0.0136(10) 1.0000 Uiso D
O3 O 0.5694(8) 0.3224(8) 0.4629(5) 0.0138(10) 1.0000 Uiso D
O4 O 0.1649(8) 0.4137(8) 0.3484(5) 0.0134(10) 1.0000 Uiso D
O5 O 0.1554(8) -0.0098(9) 0.2632(5) 0.0148(10) 1.0000 Uiso D
O6 O 0.1213(8) 0.6064(9) 0.0604(5) 0.0168(10) 1.0000 Uiso D
H6 H 0.1186 0.7143 0.1171 0.0500 1.0000 Uiso R
H3 H 0.5068 0.2164 0.4022 0.0500 1.0000 Uiso R
H21 H 0.5974 0.7132 0.5153 0.0125 1.0000 Uiso R
H41 H 0.0963 0.2118 0.0156 0.0112 1.0000 Uiso R
loop_
_atom_type_symbol
_atom_type_scat_dispersion_real
_atom_type_scat_dispersion_imag
_atom_type_scat_Cromer_Mann_a1
_atom_type_scat_Cromer_Mann_b1
_atom_type_scat_Cromer_Mann_a2
_atom_type_scat_Cromer_Mann_b2
_atom_type_scat_Cromer_Mann_a3
_atom_type_scat_Cromer_Mann_b3
_atom_type_scat_Cromer_Mann_a4
_atom_type_scat_Cromer_Mann_b4
_atom_type_scat_Cromer_Mann_c
_atom_type_scat_source
C 0.0033 0.0016 2.3100 20.8439 1.0200 10.2075 1.5886 0.5687 0.8650 51.6512
0.2156 'International Tables Vol C 4.2.6.8 and 6.1.1.4'
H 0.0000 0.0000 0.4930 10.5109 0.3229 26.1257 0.1402 3.1424 0.0408 57.7998
0.0030 'International Tables Vol C 4.2.6.8 and 6.1.1.4'
Li -0.0003 0.0001 1.1282 3.9546 0.7508 1.0524 0.6175 85.3905 0.4653 168.2610
0.0377 'International Tables Vol C 4.2.6.8 and 6.1.1.4'
O 0.0106 0.0060 3.0485 13.2771 2.2868 5.7011 1.5463 0.3239 0.8670 32.9089
0.2508 'International Tables Vol C 4.2.6.8 and 6.1.1.4'
loop_
_geom_angle_atom_site_label_1
_geom_angle_site_symmetry_1
_geom_angle_atom_site_label_2
_geom_angle_atom_site_label_3
_geom_angle_site_symmetry_3
_geom_angle
_geom_angle_publ_flag
O5 1_565 Li1 O4 . 103.1(9) yes
O1 4_555 Li2 O6 . 114.7(12) yes
C2 . C1 O1 . 119.4(4) yes
C2 . C1 O2 . 116.0(4) yes
O1 . C1 O2 . 124.2(4) yes
C1 . C2 C2 3_656 108.5(6) yes
C1 . C2 O3 . 112.9(4) yes
C2 3_656 C2 O3 . 109.9(4) yes
C1 . C2 H21 . 108.5 no
C2 3_656 C2 H21 . 108.5 no
O3 . C2 H21 . 108.5 no
C4 . C3 O4 . 120.4(4) yes
C4 . C3 O5 . 115.3(4) yes
O4 . C3 O5 . 124.2(5) yes
C4 3_555 C4 C3 . 106.4(6) yes
C4 3_555 C4 O6 . 111.1(4) yes
C3 . C4 O6 . 114.7(4) yes
C4 3_555 C4 H41 . 108.2 no
C3 . C4 H41 . 108.2 no
O6 . C4 H41 . 108.2 no
C1 . O1 Li2 4_545 149.5(4) yes
C2 . O3 H3 . 109.7 no
C3 . O4 Li1 . 152.6(6) yes
C3 . O5 Li1 1_545 130.2(8) yes
C4 . O6 Li2 . 122.3(6) yes
C4 . O6 H6 . 108.4 no
Li2 . O6 H6 . 129.4 no
loop_
_geom_bond_atom_site_label_1
_geom_bond_atom_site_label_2
_geom_bond_site_symmetry_2
_geom_bond_distance
_geom_bond_publ_flag
Li1 O5 1_565 1.860(18) yes
Li1 O4 . 1.853(14) yes
Li2 O1 4_555 1.853(12) yes
Li2 O6 . 1.85(3) yes
C1 C2 . 1.534(5) yes
C1 O1 . 1.250(5) yes
C1 O2 . 1.243(5) yes
C2 C2 3_656 1.556(9) yes
C2 O3 . 1.407(6) yes
C2 H21 . 0.950 no
C3 C4 . 1.514(5) yes
C3 O4 . 1.247(6) yes
C3 O5 . 1.249(5) yes
C4 C4 3_555 1.560(9) yes
C4 O6 . 1.418(6) yes
C4 H41 . 0.950 no
O3 H3 . 0.812 no
O6 H6 . 0.822 no
loop_
_oxford_refln_omitted_index_h
_oxford_refln_omitted_index_k
_oxford_refln_omitted_index_l
_oxford_refln_omitted_flag
6 4 4 x
-6 6 2 x
6 4 2 x
6 2 4 x
5 3 0 x
6 4 3 x
6 0 6 x
-5 1 7 x
5 1 3 x
-6 4 7 x
4 2 1 x
6 6 0 x
6 2 3 x
-7 1 13 x
-7 5 8 x
6 0 4 x
