#------------------------------------------------------------------------------
#$Date: 2017-04-05 13:11:50 +0300 (Wed, 05 Apr 2017) $
#$Revision: 195187 $
#$URL: file:///home/coder/svn-repositories/cod/cif/7/22/77/7227794.cif $
#------------------------------------------------------------------------------
#
# This file is available in the Crystallography Open Database (COD),
# http://www.crystallography.net/
#
# All data on this site have been placed in the public domain by the
# contributors.
#
data_7227794
loop_
_publ_author_name
'Huang, Chun-Hao'
'Wu, Pei-Jhen'
'Chung, Kun-You'
'Chen, Yi-An'
'Li, Elise Y.'
'Chou, Pi-Tai'
_publ_section_title
;
 Room-temperature phosphorescence from small organic systems containing a
 thiocarbonyl moiety.
;
_journal_issue                   13
_journal_name_full               'Physical chemistry chemical physics : PCCP'
_journal_page_first              8896
_journal_page_last               8901
_journal_paper_doi               10.1039/c7cp00074j
_journal_volume                  19
_journal_year                    2017
_chemical_formula_sum            'C8 H6 I N S2'
_chemical_formula_weight         307.16
_space_group_crystal_system      monoclinic
_space_group_IT_number           14
_space_group_name_Hall           '-P 2yn'
_space_group_name_H-M_alt        'P 1 21/n 1'
_symmetry_space_group_name_Hall  '-P 2yn'
_symmetry_space_group_name_H-M   'P 1 21/n 1'
_atom_sites_solution_hydrogens   geom
_audit_creation_method           SHELXL-2014/7
_audit_update_record
;
2016-12-20 deposited with the CCDC.
2017-03-03 downloaded from the CCDC.
;
_cell_angle_alpha                90
_cell_angle_beta                 118.0593(13)
_cell_angle_gamma                90
_cell_formula_units_Z            4
_cell_length_a                   7.3765(2)
_cell_length_b                   18.9914(7)
_cell_length_c                   7.7127(3)
_cell_measurement_reflns_used    5962
_cell_measurement_temperature    200(2)
_cell_measurement_theta_max      27.50
_cell_measurement_theta_min      3.15
_cell_volume                     953.48(6)
_computing_cell_refinement       'Bruker SAINT'
_computing_data_collection       'Bruker APEX3'
_computing_data_reduction        'Bruker SAINT'
_computing_molecular_graphics    'Bruker SHELXTL'
_computing_publication_material  'Bruker SHELXTL'
_computing_structure_refinement  'SHELXL-2014/7 (Sheldrick, 2014)'
_computing_structure_solution    'SHELXS-97 (Sheldrick 2008)'
_diffrn_ambient_temperature      200(2)
_diffrn_measured_fraction_theta_full 1.000
_diffrn_measured_fraction_theta_max 0.999
_diffrn_measurement_device_type  'Bruker D8 VENTURE'
_diffrn_measurement_method       '\f and \w scans'
_diffrn_radiation_type           MoK\a
_diffrn_radiation_wavelength     0.71073
_diffrn_reflns_av_R_equivalents  0.0237
_diffrn_reflns_av_unetI/netI     0.0217
_diffrn_reflns_Laue_measured_fraction_full 1.000
_diffrn_reflns_Laue_measured_fraction_max 0.999
_diffrn_reflns_limit_h_max       9
_diffrn_reflns_limit_h_min       -9
_diffrn_reflns_limit_k_max       24
_diffrn_reflns_limit_k_min       -24
_diffrn_reflns_limit_l_max       9
_diffrn_reflns_limit_l_min       -10
_diffrn_reflns_number            6979
_diffrn_reflns_point_group_measured_fraction_full 1.000
_diffrn_reflns_point_group_measured_fraction_max 0.999
_diffrn_reflns_theta_full        25.242
_diffrn_reflns_theta_max         27.495
_diffrn_reflns_theta_min         2.145
_exptl_absorpt_coefficient_mu    3.738
_exptl_absorpt_correction_T_max  0.7455
_exptl_absorpt_correction_T_min  0.6545
_exptl_absorpt_correction_type   multi-scan
_exptl_absorpt_process_details   'SADABS (Bruker, 2014)'
_exptl_crystal_density_diffrn    2.140
_exptl_crystal_description       needle
_exptl_crystal_F_000             584
_exptl_crystal_size_max          0.250
_exptl_crystal_size_mid          0.080
_exptl_crystal_size_min          0.080
_refine_diff_density_max         0.369
_refine_diff_density_min         -0.804
_refine_diff_density_rms         0.105
_refine_ls_extinction_method     none
_refine_ls_goodness_of_fit_ref   1.115
_refine_ls_hydrogen_treatment    constr
_refine_ls_matrix_type           full
_refine_ls_number_parameters     110
_refine_ls_number_reflns         2186
_refine_ls_number_restraints     0
_refine_ls_restrained_S_all      1.115
_refine_ls_R_factor_all          0.0267
_refine_ls_R_factor_gt           0.0208
_refine_ls_shift/su_max          0.002
_refine_ls_shift/su_mean         0.000
_refine_ls_structure_factor_coef Fsqd
_refine_ls_weighting_details
'w=1/[\s^2^(Fo^2^)+(0.0212P)^2^+0.4237P] where P=(Fo^2^+2Fc^2^)/3'
_refine_ls_weighting_scheme      calc
_refine_ls_wR_factor_gt          0.0452
_refine_ls_wR_factor_ref         0.0468
_reflns_Friedel_coverage         0.000
_reflns_number_gt                1940
_reflns_number_total             2186
_reflns_threshold_expression     'I > 2\s(I)'
_cod_data_source_file            c7cp00074j2.cif
_cod_data_source_block           ic17611
_cod_depositor_comments
'Adding full bibliography for 7227791--7227794.cif.'
_cod_original_cell_volume        953.47(6)
_cod_database_code               7227794
_shelx_shelxl_version_number     2014/7
_shelx_space_group_comment
; 
The symmetry employed for this shelxl refinement is uniquely defined 
by the following loop, which should always be used as a source of 
symmetry information in preference to the above space-group names. 
They are only intended as comments. 
;
_shelx_estimated_absorpt_t_min   0.455
_shelx_estimated_absorpt_t_max   0.754
_shelx_res_file
; 
  
    ic17611.res created by SHELXL-2014/7 
  
  
TITL ic17611 in P2(1)/n 
CELL 0.71073   7.37650  18.99140   7.71270  90.0000 118.0593  90.0000 
ZERR    4.00   0.00020   0.00070   0.00030   0.0000   0.0013   0.0000 
LATT 1 
SYMM 1/2-X, 1/2+Y, 1/2-Z 
SFAC C  H  N  S  I 
UNIT 32  24  4  8  4 
OMIT -3 55 
L.S. 10 
ACTA 
BOND $H 
EQIV $1 x-1, y, z 
HTAB C7 S2_$1 
EQIV $2 -x+1/2, y+1/2, -z+1/2 
HTAB C8 I1_$2 
EQIV $3 -x+3/2, y+1/2, -z+1/2 
HTAB C8 I1_$3 
EQIV $4 x-1/2, -y+3/2, z-1/2 
HTAB C8 S2_$4 
FMAP 2 
PLAN 20 
SIZE 0.08 0.08 0.25 
TEMP -73.150 
WGHT    0.021200    0.423700 
FVAR       0.11957 
I1    5    0.610207    0.314209    0.186397    11.00000    0.02540    0.01968 = 
         0.02556    0.00034    0.01269   -0.00173 
S1    4    0.708480    0.483203    0.281990    11.00000    0.01793    0.01913 = 
         0.02865    0.00180    0.01311    0.00020 
S2    4    0.814934    0.648352    0.396112    11.00000    0.01769    0.02055 = 
         0.04120   -0.00106    0.01353   -0.00096 
N1    3    0.416526    0.654854    0.314461    11.00000    0.02041    0.02263 = 
         0.02114    0.00293    0.01179    0.00364 
C1    1    0.529426    0.416501    0.221659    11.00000    0.02345    0.01976 = 
         0.01973    0.00097    0.01059   -0.00199 
C2    1    0.345520    0.438274    0.202994    11.00000    0.01953    0.02561 = 
         0.02467    0.00079    0.00910   -0.00611 
AFIX  43 
H2    2    0.231856    0.408028    0.172393    11.00000   -1.20000 
AFIX   0 
C3    1    0.344566    0.512094    0.235049    11.00000    0.01753    0.02516 = 
         0.01749    0.00249    0.00792   -0.00114 
C4    1    0.532169    0.543423    0.279978    11.00000    0.01799    0.02270 = 
         0.01455    0.00393    0.00841    0.00306 
C5    1    0.577868    0.615311    0.326251    11.00000    0.01613    0.02255 = 
         0.01719    0.00396    0.00831    0.00304 
C6    1    0.186716    0.556520    0.228514    11.00000    0.01689    0.03146 = 
         0.02787    0.00356    0.01197   -0.00098 
AFIX  43 
H6    2    0.055435    0.538023    0.198096    11.00000   -1.20000 
AFIX   0 
C7    1    0.227947    0.625740    0.266638    11.00000    0.01665    0.03270 = 
         0.02842    0.00423    0.01319    0.00476 
AFIX  43 
H7    2    0.121870    0.655738    0.260150    11.00000   -1.20000 
AFIX   0 
C8    1    0.446006    0.730781    0.355513    11.00000    0.02686    0.02396 = 
         0.03419    0.00050    0.01668    0.00416 
AFIX 137 
H8A   2    0.574551    0.738639    0.476591    11.00000   -1.50000 
H8B   2    0.330807    0.749496    0.371277    11.00000   -1.50000 
H8C   2    0.452308    0.754813    0.246032    11.00000   -1.50000 
  
AFIX   0 
HKLF 4 
  
REM  ic17611 in P2(1)/n 
REM R1 =  0.0208 for    1940 Fo > 4sig(Fo)  and  0.0267 for all    2186 data 
REM    110 parameters refined using      0 restraints 
  
END 
  
WGHT      0.0208      0.4934 
  
REM Highest difference peak  0.369,  deepest hole -0.804,  1-sigma level  0.105 
Q1    1   0.6875  0.8412  0.4433  11.00000  0.05    0.37 
Q2    1   0.3191  0.6739  0.5162  11.00000  0.05    0.32 
Q3    1   0.5388  0.7183  0.5240  11.00000  0.05    0.31 
Q4    1   0.3207  0.4777  0.1831  11.00000  0.05    0.29 
Q5    1   0.3193  0.6394  0.3092  11.00000  0.05    0.28 
Q6    1   0.2837  0.5324  0.2582  11.00000  0.05    0.27 
Q7    1   0.0819  0.5260  0.3164  11.00000  0.05    0.27 
Q8    1   0.5433  0.5806  0.2745  11.00000  0.05    0.27 
Q9    1   0.1673  0.5673  0.4565  11.00000  0.05    0.27 
Q10   1   0.5353  0.3863  0.3866  11.00000  0.05    0.27 
Q11   1   0.4802  0.7521  0.4939  11.00000  0.05    0.27 
Q12   1   0.6859  0.6288  0.3581  11.00000  0.05    0.26 
Q13   1   0.9050  0.4499  0.4484  11.00000  0.05    0.26 
Q14   1   0.7217  0.2974  0.0780  11.00000  0.05    0.26 
Q15   1   0.4267  0.4723  0.4249  11.00000  0.05    0.26 
Q16   1   0.6405  0.6005  0.5273  11.00000  0.05    0.25 
Q17   1   0.8193  0.6226  0.6170  11.00000  0.05    0.25 
Q18   1   0.2751  0.4512 -0.0768  11.00000  0.05    0.25 
Q19   1   0.4613  0.6744  0.5574  11.00000  0.05    0.25 
Q20   1   0.1552  0.3557  0.0212  11.00000  0.05    0.25 
;
_shelx_res_checksum              33248
loop_
_space_group_symop_operation_xyz
'x, y, z'
'-x+1/2, y+1/2, -z+1/2'
'-x, -y, -z'
'x-1/2, -y-1/2, z-1/2'
loop_
_atom_site_label
_atom_site_type_symbol
_atom_site_fract_x
_atom_site_fract_y
_atom_site_fract_z
_atom_site_U_iso_or_equiv
_atom_site_adp_type
_atom_site_occupancy
_atom_site_site_symmetry_order
_atom_site_calc_flag
_atom_site_refinement_flags_posn
_atom_site_refinement_flags_adp
I1 I 0.61021(2) 0.31421(2) 0.18640(2) 0.02326(6) Uani 1 1 d . .
S1 S 0.70848(9) 0.48320(3) 0.28199(10) 0.02104(14) Uani 1 1 d . .
S2 S 0.81493(9) 0.64835(3) 0.39611(11) 0.02661(15) Uani 1 1 d . .
N1 N 0.4165(3) 0.65485(11) 0.3145(3) 0.0206(4) Uani 1 1 d . .
C1 C 0.5294(4) 0.41650(13) 0.2217(4) 0.0208(5) Uani 1 1 d . .
C2 C 0.3455(4) 0.43827(13) 0.2030(4) 0.0238(5) Uani 1 1 d . .
H2 H 0.2319 0.4080 0.1724 0.029 Uiso 1 1 calc R U
C3 C 0.3446(4) 0.51209(13) 0.2350(4) 0.0202(5) Uani 1 1 d . .
C4 C 0.5322(3) 0.54342(13) 0.2800(3) 0.0181(5) Uani 1 1 d . .
C5 C 0.5779(3) 0.61531(13) 0.3263(4) 0.0184(5) Uani 1 1 d . .
C6 C 0.1867(4) 0.55652(14) 0.2285(4) 0.0248(5) Uani 1 1 d . .
H6 H 0.0554 0.5380 0.1981 0.030 Uiso 1 1 calc R U
C7 C 0.2279(4) 0.62574(14) 0.2666(4) 0.0249(6) Uani 1 1 d . .
H7 H 0.1219 0.6557 0.2602 0.030 Uiso 1 1 calc R U
C8 C 0.4460(4) 0.73078(14) 0.3555(4) 0.0274(6) Uani 1 1 d . .
H8A H 0.5746 0.7386 0.4766 0.041 Uiso 1 1 calc R U
H8B H 0.3308 0.7495 0.3713 0.041 Uiso 1 1 calc R U
H8C H 0.4523 0.7548 0.2460 0.041 Uiso 1 1 calc R U
loop_
_atom_site_aniso_label
_atom_site_aniso_U_11
_atom_site_aniso_U_22
_atom_site_aniso_U_33
_atom_site_aniso_U_23
_atom_site_aniso_U_13
_atom_site_aniso_U_12
I1 0.02540(9) 0.01968(9) 0.02556(10) 0.00034(7) 0.01269(7) -0.00173(7)
S1 0.0179(3) 0.0191(3) 0.0286(4) 0.0018(2) 0.0131(3) 0.0002(2)
S2 0.0177(3) 0.0205(3) 0.0412(4) -0.0011(3) 0.0135(3) -0.0010(2)
N1 0.0204(10) 0.0226(11) 0.0211(11) 0.0029(9) 0.0118(9) 0.0036(8)
C1 0.0235(12) 0.0198(12) 0.0197(13) 0.0010(10) 0.0106(10) -0.0020(10)
C2 0.0195(11) 0.0256(13) 0.0247(14) 0.0008(11) 0.0091(11) -0.0061(10)
C3 0.0175(11) 0.0252(13) 0.0175(12) 0.0025(10) 0.0079(10) -0.0011(10)
C4 0.0180(11) 0.0227(12) 0.0146(12) 0.0039(9) 0.0084(10) 0.0031(9)
C5 0.0161(11) 0.0225(12) 0.0172(12) 0.0040(10) 0.0083(10) 0.0030(9)
C6 0.0169(11) 0.0315(14) 0.0279(14) 0.0036(12) 0.0120(10) -0.0010(10)
C7 0.0166(12) 0.0327(14) 0.0284(15) 0.0042(11) 0.0132(11) 0.0048(10)
C8 0.0269(13) 0.0240(13) 0.0342(16) 0.0005(11) 0.0167(12) 0.0042(11)
loop_
_atom_type_symbol
_atom_type_description
_atom_type_scat_dispersion_real
_atom_type_scat_dispersion_imag
_atom_type_scat_source
C C 0.0033 0.0016 'International Tables Vol C Tables 4.2.6.8 and 6.1.1.4'
H H 0.0000 0.0000 'International Tables Vol C Tables 4.2.6.8 and 6.1.1.4'
N N 0.0061 0.0033 'International Tables Vol C Tables 4.2.6.8 and 6.1.1.4'
S S 0.1246 0.1234 'International Tables Vol C Tables 4.2.6.8 and 6.1.1.4'
I I -0.4742 1.8119 'International Tables Vol C Tables 4.2.6.8 and 6.1.1.4'
loop_
_geom_angle_atom_site_label_1
_geom_angle_atom_site_label_2
_geom_angle_atom_site_label_3
_geom_angle
C4 S1 C1 90.35(12)
C5 N1 C7 122.2(2)
C5 N1 C8 119.09(19)
C7 N1 C8 118.7(2)
C2 C1 S1 113.81(19)
C2 C1 I1 126.95(18)
S1 C1 I1 119.24(13)
C1 C2 C3 111.5(2)
C1 C2 H2 124.2
C3 C2 H2 124.2
C4 C3 C6 117.2(2)
C4 C3 C2 112.2(2)
C6 C3 C2 130.5(2)
C3 C4 C5 124.6(2)
C3 C4 S1 112.06(18)
C5 C4 S1 123.31(17)
N1 C5 C4 114.6(2)
N1 C5 S2 123.54(19)
C4 C5 S2 121.88(18)
C7 C6 C3 118.3(2)
C7 C6 H6 120.9
C3 C6 H6 120.9
C6 C7 N1 123.0(2)
C6 C7 H7 118.5
N1 C7 H7 118.5
N1 C8 H8A 109.5
N1 C8 H8B 109.5
H8A C8 H8B 109.5
N1 C8 H8C 109.5
H8A C8 H8C 109.5
H8B C8 H8C 109.5
loop_
_geom_bond_atom_site_label_1
_geom_bond_atom_site_label_2
_geom_bond_distance
I1 C1 2.087(2)
S1 C4 1.726(2)
S1 C1 1.728(2)
S2 C5 1.690(2)
N1 C5 1.374(3)
N1 C7 1.376(3)
N1 C8 1.470(3)
C1 C2 1.360(3)
C2 C3 1.424(4)
C2 H2 0.9500
C3 C4 1.392(3)
C3 C6 1.419(3)
C4 C5 1.411(3)
C6 C7 1.350(4)
C6 H6 0.9500
C7 H7 0.9500
C8 H8A 0.9800
C8 H8B 0.9800
C8 H8C 0.9800
loop_
_geom_hbond_atom_site_label_D
_geom_hbond_atom_site_label_H
_geom_hbond_atom_site_label_A
_geom_hbond_distance_DH
_geom_hbond_distance_HA
_geom_hbond_distance_DA
_geom_hbond_angle_DHA
_geom_hbond_site_symmetry_A
C7 H7 S2 0.95 2.91 3.650(2) 135.5 1_455
C8 H8B I1 0.98 3.31 4.266(2) 166.9 2
C8 H8C I1 0.98 3.22 3.785(3) 118.3 2_655
C8 H8C S2 0.98 3.02 3.941(3) 157.2 4_575
