#------------------------------------------------------------------------------
#$Date: 2017-02-04 16:16:59 +0200 (Sat, 04 Feb 2017) $
#$Revision: 191764 $
#$URL: file:///home/coder/svn-repositories/cod/cif/7/22/73/7227390.cif $
#------------------------------------------------------------------------------
#
# This file is available in the Crystallography Open Database (COD),
# http://www.crystallography.net/
#
# All data on this site have been placed in the public domain by the
# contributors.
#
data_7227390
loop_
_publ_author_name
'Yeung, Hamish H.-M.'
'Kilmurray, Rebecca'
'Hobday, Claire L.'
'McKellar, Scott C.'
'Cheetham, Anthony K.'
'Allan, David R.'
'Moggach, Stephen A.'
_publ_section_title
;
 Hidden negative linear compressibility in lithium l-tartrate.
;
_journal_issue                   5
_journal_name_full               'Physical chemistry chemical physics : PCCP'
_journal_page_first              3544
_journal_page_last               3549
_journal_paper_doi               10.1039/c6cp08690j
_journal_volume                  19
_journal_year                    2017
_chemical_absolute_configuration unk
_chemical_formula_moiety         'C4 H2 Li2 O6'
_chemical_formula_sum            'C4 H2 Li2 O6'
_chemical_formula_weight         159.94
_chemical_name_common            'Lithium tartrate; dilithium tartrate'
_chemical_name_systematic        'Lithium l-tartrate'
_space_group_IT_number           5
_symmetry_cell_setting           monoclinic
_symmetry_space_group_name_Hall  'C 2y'
_symmetry_space_group_name_H-M   'C 1 2 1'
_atom_sites_solution_hydrogens   difmap
_atom_sites_solution_primary     other
_audit_update_record
;
2016-04-13 deposited with the CCDC.
2017-01-06 downloaded from the CCDC.
;
_cell_angle_alpha                90
_cell_angle_beta                 131.64(15)
_cell_angle_gamma                90
_cell_formula_units_Z            4
_cell_length_a                   14.84(3)
_cell_length_b                   4.980(12)
_cell_length_c                   10.36(4)
_cell_measurement_reflns_used    0
_cell_measurement_temperature    293
_cell_measurement_theta_max      0
_cell_measurement_theta_min      0
_cell_volume                     572(3)
_computing_cell_refinement       'Apex2 (Bruker AXS, 2006)'
_computing_data_collection       'Apex2 (Bruker AXS, 2006)'
_computing_data_reduction        'Apex2 (Bruker AXS, 2006)'
_computing_molecular_graphics    'CAMERON (Watkin et al., 1996)'
_computing_publication_material  'CRYSTALS (Betteridge et al., 2003)'
_computing_structure_refinement  'CRYSTALS (Betteridge et al., 2003)'
_computing_structure_solution    'USER DEFINED STRUCTURE SOLUTION'
_diffrn_ambient_temperature      293
_diffrn_measured_fraction_theta_full 0.370
_diffrn_measured_fraction_theta_max 0.363
_diffrn_measurement_device       Area
_diffrn_measurement_device_type  'Bruker Kappa Apex2'
_diffrn_measurement_method       \w
_diffrn_radiation_monochromator  graphite
_diffrn_radiation_type           'Mo K\a'
_diffrn_radiation_wavelength     0.71073
_diffrn_reflns_av_R_equivalents  0.011
_diffrn_reflns_limit_h_max       13
_diffrn_reflns_limit_h_min       -18
_diffrn_reflns_limit_k_max       4
_diffrn_reflns_limit_k_min       -4
_diffrn_reflns_limit_l_max       7
_diffrn_reflns_limit_l_min       0
_diffrn_reflns_number            694
_diffrn_reflns_theta_full        25.030
_diffrn_reflns_theta_max         26.073
_diffrn_reflns_theta_min         2.751
_diffrn_standards_number         0
_exptl_absorpt_coefficient_mu    0.172
_exptl_absorpt_correction_T_max  0.98
_exptl_absorpt_correction_T_min  0.81
_exptl_absorpt_correction_type   multi-scan
_exptl_absorpt_process_details   'SADABS (Siemens, 1996)'
_exptl_crystal_colour            colourless
_exptl_crystal_density_diffrn    1.856
_exptl_crystal_density_method    'not measured'
_exptl_crystal_description       block
_exptl_crystal_F_000             320
_exptl_crystal_size_max          0.200
_exptl_crystal_size_mid          0.200
_exptl_crystal_size_min          0.100
_refine_diff_density_max         0.38
_refine_diff_density_min         -0.31
_refine_ls_extinction_method     None
_refine_ls_goodness_of_fit_ref   1.0302
_refine_ls_hydrogen_treatment    constr
_refine_ls_matrix_type           full
_refine_ls_number_parameters     49
_refine_ls_number_reflns         228
_refine_ls_number_restraints     48
_refine_ls_R_factor_all          0.0712
_refine_ls_R_factor_gt           0.0679
_refine_ls_shift/su_max          0.0000451
_refine_ls_shift/su_mean         0.0000091
_refine_ls_structure_factor_coef Fsqd
_refine_ls_weighting_details
;
 Method= Modified Sheldrick 
 w=1/[\s^2^(F^2^) + ( 0.09P)^2^ + 8.60P] 
 ,where P=(max(Fo^2^,0) + 2Fc^2^)/3 
;
_refine_ls_weighting_scheme      calc
_refine_ls_wR_factor_all         0.1797
_refine_ls_wR_factor_gt          0.1683
_refine_ls_wR_factor_ref         0.1797
_reflns_limit_h_max              13
_reflns_limit_h_min              -18
_reflns_limit_k_max              4
_reflns_limit_k_min              0
_reflns_limit_l_max              7
_reflns_limit_l_min              0
_reflns_number_gt                211
_reflns_number_total             230
_reflns_threshold_expression     I>2.0\s(I)
_oxford_diffrn_Wilson_B_factor   0.00
_oxford_diffrn_Wilson_scale      0.00
_oxford_refine_ls_r_factor_ref   0.0712
_oxford_refine_ls_scale          0.356(3)
_oxford_reflns_number_all        228
_oxford_reflns_threshold_expression_ref I>-10.0\s(I)
_iucr_refine_instructions_details
;
#
# Punched on 12/02/16 at 16:50:45
#
#LIST     12                                                                    
BLOCK SCALE X'S  U[ISO] 
RIDE C   (   2,X'S) H   (  21,X'S) 
RIDE C   (   4,X'S) H   (  41,X'S) 
END                                                                             
#
# Punched on 12/02/16 at 16:50:45
#
#LIST     16                                                                    
DIST   1.532,.01= C(1) TO C(2) 
DIST   1.251,.01= C(1) TO O(1) 
DIST   1.252,.01= C(1) TO O(2) 
DIST   1.564,.01= C(2) TO C(2,2,1,1,0,1) 
DIST   1.408,.01= C(2) TO O(3) 
DIST   1.528,.01= C(3) TO C(4) 
DIST   1.249,.01= C(3) TO O(4) 
DIST   1.253,.01= C(3) TO O(5) 
DIST   1.564,.01= C(4) TO C(4,2) 
DIST   1.409,.01= C(4) TO O(6) 
ANGL 120,1= O(1) TO C(1) TO C(2) 
ANGL 116,1= O(2) TO C(1) TO C(2) 
ANGL 124,1= O(2) TO C(1) TO O(1) 
ANGL 110,1= C(2,2,1,1,0,1) TO C(2) TO C(1) 
ANGL 113,1= O(3) TO C(2) TO C(1) 
ANGL 111,1= O(3) TO C(2) TO C(2,2,1,1,0,1) 
ANGL 120,1= O(4) TO C(3) TO C(4) 
ANGL 115,1= O(5) TO C(3) TO C(4) 
ANGL 125,1= O(5) TO C(3) TO O(4) 
ANGL 109,1= C(4,2) TO C(4) TO C(3) 
ANGL 114,1= O(6) TO C(4) TO C(3) 
ANGL 111,1= O(6) TO C(4) TO C(4,2) 
REM   DELU   START (DO NOT REMOVE THIS LINE) 
VIBR .0, 0.00200 = LI(2) TO O(1,2,2) 
VIBR .0, 0.00200 = LI(2) TO O(6) 
VIBR .0, 0.00500 = O(6) TO O(1,2,2) 
VIBR .0, 0.00200 = C(1) TO C(2) 
VIBR .0, 0.00200 = C(1) TO O(1) 
VIBR .0, 0.00200 = C(1) TO O(2) 
VIBR .0, 0.00500 = O(1) TO C(2) 
VIBR .0, 0.00500 = O(2) TO C(2) 
VIBR .0, 0.00500 = O(2) TO O(1) 
VIBR .0, 0.00200 = C(2) TO C(2,2,1,1,0,1) 
VIBR .0, 0.00200 = C(2) TO O(3) 
VIBR .0, 0.00500 = C(2,2,1,1,0,1) TO C(1) 
VIBR .0, 0.00500 = O(3) TO C(1) 
VIBR .0, 0.00500 = O(3) TO C(2,2,1,1,0,1) 
VIBR .0, 0.00200 = C(3) TO C(4) 
VIBR .0, 0.00200 = C(3) TO O(4) 
VIBR .0, 0.00200 = C(3) TO O(5) 
VIBR .0, 0.00500 = O(4) TO C(4) 
VIBR .0, 0.00500 = O(5) TO C(4) 
VIBR .0, 0.00500 = O(5) TO O(4) 
VIBR .0, 0.00200 = C(4) TO C(4,2) 
VIBR .0, 0.00200 = C(4) TO O(6) 
VIBR .0, 0.00500 = C(3) TO C(4,2) 
VIBR .0, 0.00500 = O(6) TO C(4,2) 
VIBR .0, 0.00500 = O(6) TO C(3) 
VIBR .0, 0.00500 = LI(2,2,2,0,-1) TO C(1) 
VIBR .0, 0.00500 = LI(2) TO C(4) 
REM   DELU   END (DO NOT REMOVE THIS LINE) 
REM   HREST   START (DO NOT REMOVE THIS LINE) 
REM   HREST   END (DO NOT REMOVE THIS LINE) 
END                                                                             
;
_cod_data_source_file            c6cp08690j2.cif
_cod_data_source_block           1
_cod_depositor_comments
;
The following automatic conversions were performed:

'_atom_sites_solution_primary' value 'Other' changed to 'other'
according to
/usr/data/users/saulius/crontab/automatic-downloads/rss-feeds/RSC/lib/dictionaries/cif_core.dic
dictionary named 'cif_core.dic' version 2.4.2 from 2011-04-26.

Automatic conversion script
Id: cif_fix_values 4268 2015-11-12 08:31:59Z antanas 

 Adding full bibliography for 7227387--7227399.cif.
;
_cod_original_sg_symbol_H-M      'C 1 2 1 '
_cod_database_code               7227390
loop_
_symmetry_equiv_pos_as_xyz
x,y,z
x+1/2,y+1/2,z
-x,y,-z
-x+1/2,y+1/2,-z
loop_
_atom_site_label
_atom_site_type_symbol
_atom_site_fract_x
_atom_site_fract_y
_atom_site_fract_z
_atom_site_U_iso_or_equiv
_atom_site_occupancy
_atom_site_adp_type
_atom_site_refinement_flags_posn
_atom_site_refinement_flags_adp
Li1 Li 0.1743(14) 0.786(5) 0.420(4) 0.017(4) 1.0000 Uiso . .
Li2 Li 0.1808(14) 0.646(5) -0.054(4) 0.0239(16) 1.0000 Uiso . U
C1 C 0.4088(7) 0.6624(14) 0.2601(10) 0.0227(13) 1.0000 Uiso D U
C2 C 0.5157(6) 0.5609(16) 0.4414(8) 0.0212(15) 1.0000 Uiso D U
C3 C 0.1365(7) 0.2737(14) 0.2335(10) 0.0250(14) 1.0000 Uiso D U
C4 C 0.0690(4) 0.3704(16) 0.0498(10) 0.0242(15) 1.0000 Uiso D U
O1 O 0.3418(5) 0.4998(15) 0.1396(13) 0.0235(13) 1.0000 Uiso D U
O2 O 0.3916(6) 0.9114(16) 0.2438(15) 0.0270(15) 1.0000 Uiso D U
O3 O 0.5558(5) 0.3050(15) 0.4408(14) 0.0213(15) 1.0000 Uiso D U
O4 O 0.1854(6) 0.4381(16) 0.3543(13) 0.0263(16) 1.0000 Uiso D U
O5 O 0.1375(6) 0.0236(16) 0.2500(14) 0.0285(16) 1.0000 Uiso D U
O6 O 0.1045(5) 0.6268(15) 0.0401(14) 0.0240(14) 1.0000 Uiso D U
H21 H 0.5822 0.6875 0.4920 0.0247 1.0000 Uiso R .
H41 H 0.0829 0.2400 -0.0062 0.0293 1.0000 Uiso R .
loop_
_atom_type_symbol
_atom_type_scat_dispersion_real
_atom_type_scat_dispersion_imag
_atom_type_scat_Cromer_Mann_a1
_atom_type_scat_Cromer_Mann_b1
_atom_type_scat_Cromer_Mann_a2
_atom_type_scat_Cromer_Mann_b2
_atom_type_scat_Cromer_Mann_a3
_atom_type_scat_Cromer_Mann_b3
_atom_type_scat_Cromer_Mann_a4
_atom_type_scat_Cromer_Mann_b4
_atom_type_scat_Cromer_Mann_c
_atom_type_scat_source
C 0.0033 0.0016 2.3100 20.8439 1.0200 10.2075 1.5886 0.5687 0.8650 51.6512
0.2156 'International Tables Vol C 4.2.6.8 and 6.1.1.4'
H 0.0000 0.0000 0.4930 10.5109 0.3229 26.1257 0.1402 3.1424 0.0408 57.7998
0.0030 'International Tables Vol C 4.2.6.8 and 6.1.1.4'
Li -0.0003 0.0001 1.1282 3.9546 0.7508 1.0524 0.6175 85.3905 0.4653 168.2610
0.0377 'International Tables Vol C 4.2.6.8 and 6.1.1.4'
O 0.0106 0.0060 3.0485 13.2771 2.2868 5.7011 1.5463 0.3239 0.8670 32.9089
0.2508 'International Tables Vol C 4.2.6.8 and 6.1.1.4'
loop_
_geom_angle_atom_site_label_1
_geom_angle_site_symmetry_1
_geom_angle_atom_site_label_2
_geom_angle_atom_site_label_3
_geom_angle_site_symmetry_3
_geom_angle
_geom_angle_publ_flag
C2 . C1 O1 . 120.1(6) yes
C2 . C1 O2 . 116.4(6) yes
O1 . C1 O2 . 123.4(6) yes
C1 . C2 C2 3_656 110.7(7) yes
C1 . C2 O3 . 113.0(6) yes
C2 3_656 C2 O3 . 110.4(5) yes
C1 . C2 H21 . 107.4 no
C2 3_656 C2 H21 . 107.4 no
O3 . C2 H21 . 107.8 no
C4 . C3 O4 . 120.5(6) yes
C4 . C3 O5 . 114.9(7) yes
O4 . C3 O5 . 124.6(7) yes
C3 . C4 C4 3_555 108.1(7) yes
C3 . C4 O6 . 114.1(6) yes
C4 3_555 C4 O6 . 109.9(3) yes
C3 . C4 H41 . 107.9 no
C4 3_555 C4 H41 . 107.9 no
O6 . C4 H41 . 108.8 no
loop_
_geom_bond_atom_site_label_1
_geom_bond_atom_site_label_2
_geom_bond_site_symmetry_2
_geom_bond_distance
_geom_bond_publ_flag
C1 C2 . 1.529(9) yes
C1 O1 . 1.246(8) yes
C1 O2 . 1.255(8) yes
C2 C2 3_656 1.563(10) yes
C2 O3 . 1.409(8) yes
C2 H21 . 0.980 no
C3 C4 . 1.524(10) yes
C3 O4 . 1.247(9) yes
C3 O5 . 1.256(8) yes
C4 C4 3_555 1.566(9) yes
C4 O6 . 1.410(8) yes
C4 H41 . 0.980 no
