#------------------------------------------------------------------------------
#$Date: 2017-02-04 16:16:59 +0200 (Sat, 04 Feb 2017) $
#$Revision: 191764 $
#$URL: file:///home/coder/svn-repositories/cod/cif/7/22/73/7227392.cif $
#------------------------------------------------------------------------------
#
# This file is available in the Crystallography Open Database (COD),
# http://www.crystallography.net/
#
# All data on this site have been placed in the public domain by the
# contributors.
#
data_7227392
loop_
_publ_author_name
'Yeung, Hamish H.-M.'
'Kilmurray, Rebecca'
'Hobday, Claire L.'
'McKellar, Scott C.'
'Cheetham, Anthony K.'
'Allan, David R.'
'Moggach, Stephen A.'
_publ_section_title
;
 Hidden negative linear compressibility in lithium l-tartrate.
;
_journal_issue                   5
_journal_name_full               'Physical chemistry chemical physics : PCCP'
_journal_page_first              3544
_journal_page_last               3549
_journal_paper_doi               10.1039/c6cp08690j
_journal_volume                  19
_journal_year                    2017
_chemical_absolute_configuration unk
_chemical_formula_moiety         'C4 H4 Li2 O6'
_chemical_formula_sum            'C4 H4 Li2 O6'
_chemical_formula_weight         161.95
_chemical_name_common            'Lithium tartrate; dilithium tartrate'
_chemical_name_systematic        'Lithium l-tartrate'
_space_group_IT_number           5
_symmetry_cell_setting           monoclinic
_symmetry_Int_Tables_number      5
_symmetry_space_group_name_Hall  'C 2y'
_symmetry_space_group_name_H-M   'C 1 2 1'
_atom_sites_solution_hydrogens   difmap
_atom_sites_solution_primary     other
_audit_creation_date             2016-02-12
_audit_creation_method           CRYSTALS_ver_14.61_build_5811
_audit_update_record
;
2016-04-15 deposited with the CCDC.
2017-01-06 downloaded from the CCDC.
;
_cell_angle_alpha                90
_cell_angle_beta                 135.458(18)
_cell_angle_gamma                90
_cell_formula_units_Z            4
_cell_length_a                   14.095(8)
_cell_length_b                   4.8107(5)
_cell_length_c                   10.788(8)
_cell_measurement_reflns_used    1374
_cell_measurement_temperature    293
_cell_measurement_theta_max      20
_cell_measurement_theta_min      4
_cell_volume                     513.1(5)
_computing_cell_refinement       'USER DEFINED CELL REFINEMENT'
_computing_data_collection       'USER DEFINED DATA COLLECTION'
_computing_data_reduction        'Apex2 (Bruker AXS, 2006)'
_computing_molecular_graphics    'CAMERON (Watkin et al., 1996)'
_computing_publication_material  'CRYSTALS (Betteridge et al., 2003)'
_computing_structure_refinement  'CRYSTALS (Betteridge et al., 2003)'
_computing_structure_solution    'USER DEFINED STRUCTURE SOLUTION'
_diffrn_ambient_pressure         4820000
_diffrn_ambient_temperature      293
_diffrn_measured_fraction_theta_full 0.403
_diffrn_measured_fraction_theta_max 0.387
_diffrn_measurement_device       Serial
_diffrn_measurement_device_type  Unknown
_diffrn_measurement_method       \w
_diffrn_radiation_monochromator  graphite
_diffrn_radiation_probe          x-ray
_diffrn_radiation_wavelength     0.4859
_diffrn_reflns_av_R_equivalents  0.064
_diffrn_reflns_limit_h_max       7
_diffrn_reflns_limit_h_min       -7
_diffrn_reflns_limit_k_max       6
_diffrn_reflns_limit_k_min       -6
_diffrn_reflns_limit_l_max       13
_diffrn_reflns_limit_l_min       -13
_diffrn_reflns_number            1959
_diffrn_reflns_theta_full        25.937
_diffrn_reflns_theta_max         30.514
_diffrn_reflns_theta_min         2.692
_diffrn_source                   synchrotron
_diffrn_standards_number         0
_exptl_absorpt_coefficient_mu    0.193
_exptl_absorpt_correction_T_max  0.98
_exptl_absorpt_correction_T_min  0.82
_exptl_absorpt_correction_type   multi-scan
_exptl_absorpt_process_details   'SADABS (Siemens, 1996)'
_exptl_crystal_colour            colourless
_exptl_crystal_density_diffrn    2.096
_exptl_crystal_density_method    'not measured'
_exptl_crystal_description       block
_exptl_crystal_F_000             328
_exptl_crystal_size_max          0.200
_exptl_crystal_size_mid          0.200
_exptl_crystal_size_min          0.100
_refine_diff_density_max         0.17
_refine_diff_density_min         -0.16
_refine_ls_extinction_method     None
_refine_ls_goodness_of_fit_ref   0.9874
_refine_ls_hydrogen_treatment    constr
_refine_ls_matrix_type           full
_refine_ls_number_parameters     49
_refine_ls_number_reflns         299
_refine_ls_number_restraints     52
_refine_ls_R_factor_all          0.0455
_refine_ls_R_factor_gt           0.0447
_refine_ls_shift/su_max          0.0001106
_refine_ls_shift/su_mean         0.0000161
_refine_ls_structure_factor_coef Fsqd
_refine_ls_weighting_details
;
 Method= Modified Sheldrick 
 w=1/[\s^2^(F^2^) + ( 0.10P)^2^ + 0.00P] 
 ,where P=(max(Fo^2^,0) + 2Fc^2^)/3 
;
_refine_ls_weighting_scheme      calc
_refine_ls_wR_factor_all         0.1463
_refine_ls_wR_factor_gt          0.1417
_refine_ls_wR_factor_ref         0.1463
_reflns_limit_h_max              7
_reflns_limit_h_min              -7
_reflns_limit_k_max              6
_reflns_limit_k_min              0
_reflns_limit_l_max              13
_reflns_limit_l_min              0
_reflns_number_gt                290
_reflns_number_total             338
_reflns_threshold_expression     I>2.0\s(I)
_oxford_diffrn_Wilson_B_factor   0.00
_oxford_diffrn_Wilson_scale      0.00
_oxford_refine_ls_r_factor_ref   0.0455
_oxford_refine_ls_scale          1.81(8)
_oxford_reflns_number_all        299
_oxford_reflns_threshold_expression_ref I>-10.0\s(I)
_oxford_structure_analysis_title 'trans08 in C2'
_iucr_refine_instructions_details
;
#
# Punched on 12/02/16 at 17:57:39
#
#LIST     12                                                                    
BLOCK SCALE X'S  U[ISO] 
RIDE C   (   2,X'S) H   (  21,X'S) 
RIDE C   (   4,X'S) H   (  41,X'S) 
RIDE O   (   3,X'S) H   (   3,X'S) 
RIDE O   (   6,X'S) H   (   6,X'S) 
END                                                                             
#
# Punched on 12/02/16 at 17:57:39
#
#LIST     16                                                                    
DIST   1.532,.01= C(1) TO C(2) 
DIST   1.251,.01= C(1) TO O(1) 
DIST   1.252,.01= C(1) TO O(2) 
DIST   1.564,.01= C(2) TO C(2,2,1,1,0,1) 
DIST   1.408,.01= C(2) TO O(3) 
DIST   1.528,.01= C(3) TO C(4) 
DIST   1.249,.01= C(3) TO O(4) 
DIST   1.253,.01= C(3) TO O(5) 
DIST   1.564,.01= C(4) TO C(4,2) 
DIST   1.409,.01= C(4) TO O(6) 
ANGL 120,1= O(1) TO C(1) TO C(2) 
ANGL 116,1= O(2) TO C(1) TO C(2) 
ANGL 124,1= O(2) TO C(1) TO O(1) 
ANGL 110,1= C(2,2,1,1,0,1) TO C(2) TO C(1) 
ANGL 113,1= O(3) TO C(2) TO C(1) 
ANGL 111,1= O(3) TO C(2) TO C(2,2,1,1,0,1) 
ANGL 120,1= O(4) TO C(3) TO C(4) 
ANGL 115,1= O(5) TO C(3) TO C(4) 
ANGL 125,1= O(5) TO C(3) TO O(4) 
ANGL 109,1= C(4,2) TO C(4) TO C(3) 
ANGL 114,1= O(6) TO C(4) TO C(3) 
ANGL 111,1= O(6) TO C(4) TO C(4,2) 
REM   HREST   START (DO NOT REMOVE THIS LINE) 
REM   HREST   END (DO NOT REMOVE THIS LINE) 
REM   DELU   START (DO NOT REMOVE THIS LINE) 
VIBR .0, 0.00200 = LI(1) TO O(3,1,2,-1) 
VIBR .0, 0.00200 = LI(1) TO O(5,1,1,0,1) 
VIBR .0, 0.00200 = LI(1) TO O(4) 
VIBR .0, 0.00500 = O(5,1,1,0,1) TO O(3,1,2,-1) 
VIBR .0, 0.00500 = O(4) TO O(3,1,2,-1) 
VIBR .0, 0.00500 = O(4) TO O(5,1,1,0,1) 
VIBR .0, 0.00200 = C(1) TO C(2) 
VIBR .0, 0.00200 = C(1) TO O(1) 
VIBR .0, 0.00200 = C(1) TO O(2) 
VIBR .0, 0.00500 = O(1) TO C(2) 
VIBR .0, 0.00500 = O(2) TO C(2) 
VIBR .0, 0.00500 = O(2) TO O(1) 
VIBR .0, 0.00200 = C(2) TO C(2,2,1,1,0,1) 
VIBR .0, 0.00200 = C(2) TO O(3) 
VIBR .0, 0.00500 = C(2,2,1,1,0,1) TO C(1) 
VIBR .0, 0.00500 = O(3) TO C(1) 
VIBR .0, 0.00500 = O(3) TO C(2,2,1,1,0,1) 
VIBR .0, 0.00200 = C(3) TO C(4) 
VIBR .0, 0.00200 = C(3) TO O(4) 
VIBR .0, 0.00200 = C(3) TO O(5) 
VIBR .0, 0.00500 = O(4) TO C(4) 
VIBR .0, 0.00500 = O(5) TO C(4) 
VIBR .0, 0.00500 = O(5) TO O(4) 
VIBR .0, 0.00200 = C(4) TO C(4,2) 
VIBR .0, 0.00200 = C(4) TO O(6) 
VIBR .0, 0.00500 = C(3) TO C(4,2) 
VIBR .0, 0.00500 = O(6) TO C(4,2) 
VIBR .0, 0.00500 = O(6) TO C(3) 
VIBR .0, 0.00500 = LI(1,1,2,0,-1) TO C(2) 
VIBR .0, 0.00500 = C(3) TO LI(1) 
VIBR .0, 0.00500 = LI(1,1,1,0,-1) TO C(3) 
REM   DELU   END (DO NOT REMOVE THIS LINE) 
REM   THERMSIM   START (DO NOT REMOVE THIS LINE) 
U(IJ) .0, 0.04000 = LI(1) TO O(3,1,2,-1) 
U(IJ) .0, 0.04000 = LI(1) TO O(5,1,1,0,1) 
U(IJ) .0, 0.04000 = LI(1) TO O(4) 
U(IJ) .0, 0.04000 = C(1) TO C(2) 
U(IJ) .0, 0.08000 = C(1) TO O(1) 
U(IJ) .0, 0.08000 = C(1) TO O(2) 
U(IJ) .0, 0.04000 = C(2) TO C(2,2,1,1,0,1) 
U(IJ) .0, 0.04000 = C(2) TO O(3) 
U(IJ) .0, 0.04000 = C(3) TO C(4) 
U(IJ) .0, 0.04000 = C(3) TO O(4) 
U(IJ) .0, 0.04000 = C(3) TO O(5) 
U(IJ) .0, 0.04000 = C(4) TO C(4,2) 
U(IJ) .0, 0.08000 = C(4) TO O(6) 
REM   THERMSIM   END (DO NOT REMOVE THIS LINE) 
END                                                                             
;
_cod_data_source_file            c6cp08690j2.cif
_cod_data_source_block           TART08
_cod_depositor_comments
;
The following automatic conversions were performed:

'_atom_sites_solution_primary' value 'Other' changed to 'other'
according to
/usr/data/users/saulius/crontab/automatic-downloads/rss-feeds/RSC/lib/dictionaries/cif_core.dic
dictionary named 'cif_core.dic' version 2.4.2 from 2011-04-26.

Automatic conversion script
Id: cif_fix_values 4268 2015-11-12 08:31:59Z antanas 

 Adding full bibliography for 7227387--7227399.cif.
;
_cod_original_sg_symbol_Hall     'C 2y '
_cod_original_sg_symbol_H-M      'C 2'
_cod_database_code               7227392
loop_
_symmetry_equiv_pos_as_xyz
x,y,z
x+1/2,y+1/2,z
-x,y,-z
-x+1/2,y+1/2,-z
loop_
_atom_site_label
_atom_site_type_symbol
_atom_site_fract_x
_atom_site_fract_y
_atom_site_fract_z
_atom_site_U_iso_or_equiv
_atom_site_occupancy
_atom_site_adp_type
_atom_site_refinement_flags_posn
_atom_site_refinement_flags_adp
Li1 Li 0.1802(15) 0.7600(14) 0.4256(9) 0.0140(9) 1.0000 Uiso . U
Li2 Li 0.1754(18) 0.6681(14) -0.0550(9) 0.0171(14) 1.0000 Uiso . .
C1 C 0.4173(7) 0.6970(6) 0.2667(4) 0.0116(7) 1.0000 Uiso D U
C2 C 0.5269(4) 0.5936(7) 0.4572(4) 0.0112(7) 1.0000 Uiso D U
C3 C 0.1391(7) 0.2416(6) 0.2408(4) 0.0122(7) 1.0000 Uiso D U
C4 C 0.0779(4) 0.3389(7) 0.0627(4) 0.0113(7) 1.0000 Uiso D U
O1 O 0.3622(6) 0.5338(5) 0.1404(3) 0.0124(7) 1.0000 Uiso D U
O2 O 0.3854(7) 0.9481(5) 0.2477(4) 0.0141(7) 1.0000 Uiso D U
O3 O 0.5703(6) 0.3248(5) 0.4660(3) 0.0146(7) 1.0000 Uiso D U
O4 O 0.1585(6) 0.4088(5) 0.3456(3) 0.0139(6) 1.0000 Uiso D U
O5 O 0.1542(6) -0.0162(6) 0.2649(3) 0.0136(7) 1.0000 Uiso D U
O6 O 0.1241(6) 0.6005(6) 0.0636(3) 0.0166(7) 1.0000 Uiso D U
H6 H 0.1120 0.7061 0.1110 0.0500 1.0000 Uiso R .
H3 H 0.4980 0.2551 0.4179 0.0500 1.0000 Uiso R .
H21 H 0.6044 0.7200 0.5244 0.0135 1.0000 Uiso R .
H41 H 0.0992 0.2006 0.0188 0.0136 1.0000 Uiso R .
loop_
_atom_type_symbol
_atom_type_scat_dispersion_real
_atom_type_scat_dispersion_imag
_atom_type_scat_Cromer_Mann_a1
_atom_type_scat_Cromer_Mann_b1
_atom_type_scat_Cromer_Mann_a2
_atom_type_scat_Cromer_Mann_b2
_atom_type_scat_Cromer_Mann_a3
_atom_type_scat_Cromer_Mann_b3
_atom_type_scat_Cromer_Mann_a4
_atom_type_scat_Cromer_Mann_b4
_atom_type_scat_Cromer_Mann_c
_atom_type_scat_source
C 0.0033 0.0016 2.3100 20.8439 1.0200 10.2075 1.5886 0.5687 0.8650 51.6512
0.2156 'International Tables Vol C 4.2.6.8 and 6.1.1.4'
H 0.0000 0.0000 0.4930 10.5109 0.3229 26.1257 0.1402 3.1424 0.0408 57.7998
0.0030 'International Tables Vol C 4.2.6.8 and 6.1.1.4'
Li -0.0003 0.0001 1.1282 3.9546 0.7508 1.0524 0.6175 85.3905 0.4653 168.2610
0.0377 'International Tables Vol C 4.2.6.8 and 6.1.1.4'
O 0.0106 0.0060 3.0485 13.2771 2.2868 5.7011 1.5463 0.3239 0.8670 32.9089
0.2508 'International Tables Vol C 4.2.6.8 and 6.1.1.4'
loop_
_geom_angle_atom_site_label_1
_geom_angle_site_symmetry_1
_geom_angle_atom_site_label_2
_geom_angle_atom_site_label_3
_geom_angle_site_symmetry_3
_geom_angle
_geom_angle_publ_flag
O5 1_565 Li1 O4 . 104.0(6) yes
C2 . C1 O1 . 120.6(3) yes
C2 . C1 O2 . 115.8(3) yes
O1 . C1 O2 . 123.6(3) yes
C1 . C2 C2 3_656 110.2(5) yes
C1 . C2 O3 . 111.4(3) yes
C2 3_656 C2 O3 . 109.4(3) yes
C1 . C2 H21 . 108.6 no
C2 3_656 C2 H21 . 108.6 no
O3 . C2 H21 . 108.6 no
C4 . C3 O4 . 120.6(3) yes
C4 . C3 O5 . 115.3(3) yes
O4 . C3 O5 . 123.7(4) yes
C4 3_555 C4 C3 . 106.2(5) yes
C4 3_555 C4 O6 . 111.4(3) yes
C3 . C4 O6 . 115.0(3) yes
C4 3_555 C4 H41 . 108.0 no
C3 . C4 H41 . 108.0 no
O6 . C4 H41 . 108.0 no
C2 . O3 H3 . 92.8 no
Li1 . O4 C3 . 151.8(5) yes
C3 . O5 Li1 1_545 131.6(5) yes
C4 . O6 H6 . 104.9 no
loop_
_geom_bond_atom_site_label_1
_geom_bond_atom_site_label_2
_geom_bond_site_symmetry_2
_geom_bond_distance
_geom_bond_publ_flag
Li1 O5 1_565 1.843(12) yes
Li1 O4 . 1.821(8) yes
C1 C2 . 1.527(4) yes
C1 O1 . 1.252(4) yes
C1 O2 . 1.254(4) yes
C2 C2 3_656 1.558(8) yes
C2 O3 . 1.405(4) yes
C2 H21 . 0.980 no
C3 C4 . 1.514(4) yes
C3 O4 . 1.249(5) yes
C3 O5 . 1.254(4) yes
C4 C4 3_555 1.554(8) yes
C4 O6 . 1.413(5) yes
C4 H41 . 0.980 no
O3 H3 . 0.816 no
O6 H6 . 0.820 no
loop_
_oxford_refln_omitted_index_h
_oxford_refln_omitted_index_k
_oxford_refln_omitted_index_l
_oxford_refln_omitted_flag
6 2 2 x
4 2 0 x
-7 5 1 x
6 2 3 x
6 6 0 x
7 5 0 x
-7 5 2 x
7 3 4 x
7 1 5 x
7 3 3 x
7 1 6 x
7 5 1 x
6 2 4 x
6 0 6 x
5 1 3 x
5 3 1 x
-6 4 2 x
6 4 3 x
5 3 0 x
0 2 3 x
4 2 2 x
6 4 0 x
6 4 2 x
6 2 5 x
6 4 4 x
-7 3 12 x
6 0 5 x
7 5 2 x
6 0 4 x
-7 5 4 x
-7 5 3 x
-6 4 1 x
6 2 6 x
6 0 7 x
-6 2 10 x
4 0 5 x
0 4 1 x
0 0 3 x
0 0 7 x
