#------------------------------------------------------------------------------
#$Date: 2017-02-04 15:43:01 +0200 (Sat, 04 Feb 2017) $
#$Revision: 191558 $
#$URL: file:///home/coder/svn-repositories/cod/cif/7/22/72/7227261.cif $
#------------------------------------------------------------------------------
#
# This file is available in the Crystallography Open Database (COD),
# http://www.crystallography.net/
#
# All data on this site have been placed in the public domain by the
# contributors.
#
data_7227261
loop_
_publ_author_name
'Romasanta, A. K. S.'
'Braga, D.'
'Duarte, M. T.'
'Grepioni, F.'
_publ_section_title
;
 How similar is similar? Exploring the binary and ternary solid solution
 landscapes of p-methyl/chloro/bromo-benzyl alcohols
;
_journal_issue                   4
_journal_name_full               CrystEngComm
_journal_page_first              653
_journal_paper_doi               10.1039/C6CE02282K
_journal_volume                  19
_journal_year                    2017
_chemical_formula_sum            'C7.5 H8.5 Br0.5 O'
_chemical_formula_weight         154.60
_space_group_crystal_system      monoclinic
_space_group_IT_number           4
_space_group_name_Hall           'P 2yb'
_space_group_name_H-M_alt        'P 1 21 1'
_symmetry_space_group_name_Hall  'P 2yb'
_symmetry_space_group_name_H-M   'P 1 21 1'
_atom_sites_solution_hydrogens   geom
_atom_sites_solution_primary     direct
_atom_sites_solution_secondary   difmap
_audit_creation_method           SHELXL-97
_audit_update_record
;
2016-10-29 deposited with the CCDC.
2016-12-13 downloaded from the CCDC.
;
_cell_angle_alpha                90
_cell_angle_beta                 103.69(4)
_cell_angle_gamma                90
_cell_formula_units_Z            2
_cell_length_a                   6.044(2)
_cell_length_b                   4.9739(12)
_cell_length_c                   12.231(5)
_cell_measurement_reflns_used    412
_cell_measurement_temperature    295
_cell_measurement_theta_max      24.3207
_cell_measurement_theta_min      3.8115
_cell_volume                     357.2(2)
_computing_cell_refinement
;
CrysAlisPro, Agilent Technologies,
Version 1.171.37.35h (release 09-02-2015 CrysAlis171 .NET)
(compiled Feb  9 2015,16:26:32)
;
_computing_data_collection
;
CrysAlisPro, Agilent Technologies,
Version 1.171.37.35h (release 09-02-2015 CrysAlis171 .NET)
(compiled Feb  9 2015,16:26:32)
;
_computing_data_reduction
;
CrysAlisPro, Agilent Technologies,
Version 1.171.37.35h (release 09-02-2015 CrysAlis171 .NET)
(compiled Feb  9 2015,16:26:32)
;
_computing_structure_refinement  'SHELXL-97 (Sheldrick, 2008)'
_computing_structure_solution    'SHELXS-97 (Sheldrick, 2008)'
_diffrn_ambient_temperature      295
_diffrn_detector                 'CCD plate'
_diffrn_detector_area_resol_mean 16.1340
_diffrn_detector_type            Sapphire3
_diffrn_measured_fraction_theta_full 0.908
_diffrn_measured_fraction_theta_max 0.792
_diffrn_measurement_device       'four-circle diffractometer'
_diffrn_measurement_device_type  'Xcalibur, Sapphire3'
_diffrn_radiation_monochromator  graphite
_diffrn_radiation_type           'Mo K\a'
_diffrn_radiation_wavelength     0.71073
_diffrn_reflns_av_R_equivalents  0.0576
_diffrn_reflns_av_unetI/netI     0.1167
_diffrn_reflns_limit_h_max       6
_diffrn_reflns_limit_h_min       -5
_diffrn_reflns_limit_k_max       5
_diffrn_reflns_limit_k_min       -6
_diffrn_reflns_limit_l_max       15
_diffrn_reflns_limit_l_min       -13
_diffrn_reflns_number            1188
_diffrn_reflns_theta_full        25.242
_diffrn_reflns_theta_max         26.659
_diffrn_reflns_theta_min         3.429
_exptl_absorpt_coefficient_mu    2.869
_exptl_absorpt_correction_T_max  1.00000
_exptl_absorpt_correction_T_min  0.82544
_exptl_absorpt_correction_type   multi-scan
_exptl_absorpt_process_details
;
CrysAlisPro, Agilent Technologies,
Version 1.171.37.35h (release 09-02-2015 CrysAlis171 .NET)
(compiled Feb  9 2015,16:26:32)
Empirical absorption correction using spherical harmonics,
 implemented in SCALE3 ABSPACK scaling algorithm.
;
_exptl_crystal_colour            colourless
_exptl_crystal_density_diffrn    1.437
_exptl_crystal_density_method    'not measured'
_exptl_crystal_description       prism
_exptl_crystal_F_000             158
_exptl_crystal_size_max          0.10
_exptl_crystal_size_mid          0.06
_exptl_crystal_size_min          0.03
_refine_diff_density_max         0.660
_refine_diff_density_min         -0.352
_refine_diff_density_rms         0.100
_refine_ls_abs_structure_details 'Flack H D (1983), Acta Cryst. A39, 876-881'
_refine_ls_abs_structure_Flack   0.13(4)
_refine_ls_extinction_method     none
_refine_ls_goodness_of_fit_ref   1.141
_refine_ls_hydrogen_treatment    constr
_refine_ls_matrix_type           full
_refine_ls_number_parameters     79
_refine_ls_number_reflns         904
_refine_ls_number_restraints     8
_refine_ls_restrained_S_all      1.138
_refine_ls_R_factor_all          0.1333
_refine_ls_R_factor_gt           0.0943
_refine_ls_shift/su_max          0.000
_refine_ls_shift/su_mean         0.000
_refine_ls_structure_factor_coef Fsqd
_refine_ls_weighting_details
'w=1/[\s^2^(Fo^2^)+(0.1067P)^2^+0.0216P] where P=(Fo^2^+2Fc^2^)/3'
_refine_ls_weighting_scheme      calc
_refine_ls_wR_factor_gt          0.2196
_refine_ls_wR_factor_ref         0.2507
_reflns_number_gt                589
_reflns_number_total             904
_reflns_threshold_expression     'I > 2\s(I)'
_cod_data_source_file            c6ce02282k2.cif
_cod_data_source_block           p-MeBA_BrBA_50_50
_cod_depositor_comments
'Adding full bibliography for 7227260--7227262.cif.'
_cod_original_formula_sum        'C7.50 H8.50 Br0.50 O'
_cod_database_code               7227261
_exptl_absorpt_special_details
;
 ?   
;
loop_
_symmetry_equiv_pos_as_xyz
'x, y, z'
'-x, y+1/2, -z'
loop_
_atom_site_label
_atom_site_type_symbol
_atom_site_fract_x
_atom_site_fract_y
_atom_site_fract_z
_atom_site_U_iso_or_equiv
_atom_site_adp_type
_atom_site_occupancy
_atom_site_site_symmetry_order
_atom_site_calc_flag
_atom_site_refinement_flags_posn
_atom_site_refinement_flags_adp
_atom_site_refinement_flags_occupancy
_atom_site_disorder_assembly
_atom_site_disorder_group
Br1 Br 0.8663(8) 0.2268(18) 0.9009(4) 0.0642(12) Uani 0.5 1 d . . P A 1
C8 C 0.809(5) 0.244(6) 0.873(3) 0.10(3) Uani 0.5 1 d D U P A 2
H8A H 0.9202 0.2066 0.8300 0.154 Uiso 0.5 1 calc R U P A 2
H8B H 0.8854 0.2927 0.9480 0.154 Uiso 0.5 1 calc R U P A 2
H8C H 0.7182 0.0862 0.8743 0.154 Uiso 0.5 1 calc R U P A 2
C7 C 0.193(4) 1.064(5) 0.6469(16) 0.106(8) Uani 1 1 d . . . . .
H7A H 0.0808 1.1049 0.6897 0.128 Uiso 1 1 calc R U . . .
H7B H 0.2811 1.2255 0.6438 0.128 Uiso 1 1 calc R U . . .
O1 O 0.082(3) 0.990(3) 0.5385(11) 0.121(6) Uani 1 1 d . . . . .
H1 H -0.0068 1.1090 0.5098 0.181 Uiso 1 1 calc R U . . .
C1 C 0.6585(17) 0.4716(14) 0.8185(9) 0.066(5) Uani 1 1 d DG U . . .
C2 C 0.484(2) 0.562(2) 0.8656(8) 0.082(6) Uani 1 1 d DG . . A .
H2 H 0.4716 0.4964 0.9351 0.098 Uiso 1 1 calc R U . . .
C3 C 0.3280(16) 0.749(2) 0.8087(10) 0.075(4) Uani 1 1 d G . . A .
H3 H 0.2112 0.8092 0.8402 0.090 Uiso 1 1 calc R U . . .
C4 C 0.3465(17) 0.846(2) 0.7047(9) 0.069(5) Uani 1 1 d DG . . A .
C5 C 0.521(2) 0.756(2) 0.6576(8) 0.075(5) Uani 1 1 d G . . A .
H5 H 0.5334 0.8216 0.5880 0.090 Uiso 1 1 calc R U . . .
C6 C 0.6770(17) 0.569(2) 0.7145(10) 0.077(5) Uani 1 1 d DG . . A .
H6 H 0.7938 0.5088 0.6830 0.093 Uiso 1 1 calc R U . . .
loop_
_atom_site_aniso_label
_atom_site_aniso_U_11
_atom_site_aniso_U_22
_atom_site_aniso_U_33
_atom_site_aniso_U_23
_atom_site_aniso_U_13
_atom_site_aniso_U_12
Br1 0.054(3) 0.055(2) 0.074(2) -0.001(2) -0.004(2) 0.014(3)
C8 0.04(2) 0.025(16) 0.20(6) 0.01(2) -0.06(2) -0.013(14)
C7 0.12(2) 0.079(15) 0.103(15) 0.007(13) 0.002(14) 0.033(14)
O1 0.167(17) 0.060(8) 0.098(10) -0.001(8) -0.043(9) 0.019(10)
C1 0.055(11) 0.044(9) 0.096(12) 0.014(9) 0.014(10) 0.005(9)
C2 0.071(14) 0.055(12) 0.129(15) -0.013(12) 0.044(12) -0.002(11)
C3 0.057(10) 0.066(11) 0.103(12) -0.006(14) 0.018(9) 0.011(14)
C4 0.065(12) 0.049(9) 0.083(11) -0.016(9) -0.005(9) 0.019(8)
C5 0.073(11) 0.066(12) 0.081(10) 0.002(12) 0.009(9) 0.028(14)
C6 0.057(12) 0.086(12) 0.087(12) -0.018(11) 0.013(10) 0.017(11)
loop_
_atom_type_symbol
_atom_type_description
_atom_type_scat_dispersion_real
_atom_type_scat_dispersion_imag
_atom_type_scat_source
C C 0.0033 0.0016 'International Tables Vol C Tables 4.2.6.8 and 6.1.1.4'
H H 0.0000 0.0000 'International Tables Vol C Tables 4.2.6.8 and 6.1.1.4'
Br Br -0.2901 2.4595 'International Tables Vol C Tables 4.2.6.8 and 6.1.1.4'
O O 0.0106 0.0060 'International Tables Vol C Tables 4.2.6.8 and 6.1.1.4'
loop_
_geom_angle_atom_site_label_1
_geom_angle_atom_site_label_2
_geom_angle_atom_site_label_3
_geom_angle
O1 C7 C4 111.4(16)
C2 C1 C6 120.0
C2 C1 C8 120.0(7)
C6 C1 C8 119.6(7)
C2 C1 Br1 117.8(7)
C6 C1 Br1 122.2(7)
C1 C2 C3 120.0
C2 C3 C4 120.0
C5 C4 C3 120.0
C5 C4 C7 119.1(12)
C3 C4 C7 120.7(12)
C4 C5 C6 120.0
C5 C6 C1 120.0
loop_
_geom_bond_atom_site_label_1
_geom_bond_atom_site_label_2
_geom_bond_distance
Br1 C1 1.865(10)
C8 C1 1.506(7)
C7 O1 1.39(2)
C7 C4 1.49(2)
C1 C2 1.3900
C1 C6 1.3900
C2 C3 1.3900
C3 C4 1.3900
C4 C5 1.3900
C5 C6 1.3900
