#------------------------------------------------------------------------------
#$Date: 2017-12-10 22:13:10 +0200 (Sun, 10 Dec 2017) $
#$Revision: 204140 $
#$URL: file:///home/coder/svn-repositories/cod/cif/7/22/78/7227897.cif $
#------------------------------------------------------------------------------
#
# This file is available in the Crystallography Open Database (COD),
# http://www.crystallography.net/
#
# All data on this site have been placed in the public domain by the
# contributors.
#
data_7227897
loop_
_publ_author_name
'Zhao, Haishuang'
'Bodach, Alexander'
'Heine, Miriam'
'Krysiak, Yasar'
'Glinnemann, J\"urgen'
'Alig, Edith'
'Fink, Lothar'
'Schmidt, Martin U.'
_publ_section_title
;
 4-Cyanopyridine, a versatile mono- and bidentate ligand. Crystal
 structures of related coordination polymers determined by X-ray powder
 diffraction
;
_journal_issue                   16
_journal_name_full               CrystEngComm
_journal_page_first              2216
_journal_paper_doi               10.1039/C7CE00425G
_journal_volume                  19
_journal_year                    2017
_chemical_formula_iupac          'C6 H4 Cl2 Cu N2 '
_chemical_formula_moiety         'C6 H4 Cl2 Cu N2'
_chemical_formula_structural     'C6 H4 Cl2 Cu N2'
_chemical_formula_sum            'C6 H4 Cl2 Cu N2'
_chemical_formula_weight         238.56
_chemical_name_common            Dichloro-bis(4-cyanopyridine)copper
_chemical_name_systematic        Dichloro(4-cyanopyridine)copper
_space_group_crystal_system      monoclinic
_space_group_IT_number           14
_space_group_name_Hall           '-P 2yn'
_space_group_name_H-M_alt        'P 1 21/n 1'
_audit_update_record
;
2017-02-28 deposited with the CCDC.
2017-03-21 downloaded from the CCDC.
;
_cell_angle_alpha                90
_cell_angle_beta                 97.4815(16)
_cell_angle_gamma                90
_cell_formula_units_Z            4
_cell_length_a                   7.96092(38)
_cell_length_b                   27.33624(13)
_cell_length_c                   3.79473(18)
_cell_measurement_temperature    298
_cell_volume                     818.79(6)
_computing_cell_refinement       'DASH (David <i> et al.</i> , 2004)'
_computing_data_collection       'STOE WINXPOW (STOE & Cie GmbH, 2004)'
_computing_data_reduction        'DASH (David <i>et al.</i>, 2004)'
_computing_molecular_graphics    'MERCURY (Macrea <i>et al.</i>)'
_computing_structure_refinement  'TOPAS (Coelho, 2007)'
_computing_structure_solution    'DASH (David <i>et al.</i>, 2004)'
_diffrn_ambient_temperature      298
_diffrn_detector_type            'lin psd'
_diffrn_measurement_device_type  'STOE Stadi-P'
_diffrn_radiation_monochromator  'primary focussing, Ge 111'
_diffrn_radiation_source         'X-ray tube'
_diffrn_radiation_type           'Cu K\a~1~'
_diffrn_radiation_wavelength     1.54060
_exptl_crystal_colour            'light blue'
_exptl_crystal_density_diffrn    1.935
_pd_instr_location               ' ?'
_pd_meas_2theta_range_max        110
_pd_meas_2theta_range_min        2
_pd_meas_scan_method             step
_pd_proc_2theta_range_max        110
_pd_proc_2theta_range_min        2
_pd_proc_info_excluded_regions   16.1-16.4
_pd_proc_ls_background_function  'Chebychev polynomial'
_pd_proc_ls_pref_orient_corr     none
_pd_proc_ls_profile_function
;
modified spherical harmonics( LIT?!)
;
_pd_proc_ls_prof_R_factor        0.04279
_pd_proc_ls_prof_wR_expected     0.02819
_pd_proc_ls_prof_wR_factor       0.05895
_pd_spec_mounting
;
Specimen was sealed in a 0.7 mm diameter borosilicate glass capillary 
;
_pd_spec_mount_mode              transmission
_pd_spec_shape                   cylinder
_pd_spec_size_axial              12
_pd_spec_size_equat              0.7
_pd_spec_size_thick              0.7
_refine_ls_extinction_method     none
_refine_ls_goodness_of_fit_all   2.091
_refine_ls_hydrogen_treatment    mixed
_refine_ls_matrix_type           fullcycle
_refine_ls_number_constraints    2
_refine_ls_number_parameters     136
_refine_ls_number_restraints     78
_refine_ls_R_I_factor            0.03203
_refine_ls_weighting_details     w=1/\s(Y~obs~)^2^
_refine_ls_weighting_scheme      sigma
_cod_data_source_file            c7ce00425g2.cif
_cod_data_source_block           CuCl2_4-cypy_1_monoclinic
_cod_depositor_comments
'Adding full bibliography for 7227893--7227899.cif.'
_cod_original_cell_volume        818.785(68)
_cod_database_code               7227897
loop_
_space_group_symop_id
_space_group_symop_operation_xyz
1 'x, y, z'
2 '-x, -y, -z'
3 '-x+1/2, y+1/2, -z+1/2'
4 'x+1/2, -y+1/2, z+1/2'
loop_
_atom_site_label
_atom_site_type_symbol
_atom_site_symmetry_multiplicity
_atom_site_fract_x
_atom_site_fract_y
_atom_site_fract_z
_atom_site_occupancy
_atom_site_B_iso_or_equiv
_atom_site_adp_type
N1 N 0 -0.23529(39) -0.10332(11) 0.61611(68) 1 2.19532 Biso
Cu2 Cu 0 -0.03946(26) -0.057470(66) 0.63956(46) 1 2.72318 Biso
C3 C 0 -0.21705(44) -0.15257(13) 0.54772(89) 1 2.19532 Biso
C4 C 0 -0.38131(48) -0.08327(13) 0.67997(88) 1 2.19532 Biso
Cl5 Cl 0 0.07918(42) -0.10071(11) 0.12398(70) 1 1.51507 Biso
Cl6 Cl 0 -0.17861(38) 0.00172(12) 0.27724(77) 1 1.51507 Biso
C7 C 0 -0.37109(48) -0.18076(13) 0.55076(94) 1 2.19532 Biso
H8 H 0 -0.0957(34) -0.16864(92) 0.4912(73) 1 2.634384 Biso
C9 C 0 -0.53310(55) -0.10972(12) 0.68692(91) 1 2.19532 Biso
H10 H 0 -0.3840(33) -0.05070(90) 0.7097(62) 1 2.634384 Biso
C11 C 0 -0.52048(58) -0.16077(13) 0.61576(92) 1 2.19532 Biso
H12 H 0 -0.3708(35) -0.21492(98) 0.5111(71) 1 2.634384 Biso
H13 H 0 -0.6372(33) -0.09382(95) 0.7425(63) 1 2.634384 Biso
C14 C 0 -0.67031(45) -0.19262(15) 0.61402(91) 1 2.1335 Biso
N15 N 0 -0.78486(64) -0.21843(22) 0.5977(18) 1 2.1335 Biso
loop_
_atom_type_symbol
_atom_type_description
_atom_type_scat_source
C C 'International Tables Vol C Table 6.1.1.4'
H H 'International Tables Vol C Table 6.1.1.4'
Cu Cu 'International Tables Vol C Table 6.1.1.4'
Cl Cl 'International Tables Vol C Table 6.1.1.4'
N N 'International Tables Vol C Table 6.1.1.4'
loop_
_geom_angle_atom_site_label_1
_geom_angle_atom_site_label_2
_geom_angle_atom_site_label_3
_geom_angle
N1 Cu2 Cl6 95.864(134)
N1 Cu2 Cl5 92.273(129)
Cl5 Cu2 Cl5 102.730(112)
Cl6 Cu2 Cl6 84.982(128)
Cl6 Cu2 Cl5 93.648(120)
Cl6 Cu2 Cl5 93.689(119)
C4 N1 C3 123.294(309)
H8 C3 N1 122.572(1364)
H8 C3 C7 123.429(1443)
N1 C3 C7 113.991(306)
H10 C4 N1 117.723(1662)
H10 C4 C9 118.103(1655)
N1 C4 C9 124.104(360)
H12 C7 C11 116.471(1699)
H12 C7 C3 120.260(1688)
C11 C7 C3 123.256(364)
H13 C9 C4 121.697(1593)
H13 C9 C11 123.718(1550)
C4 C9 C11 114.569(317)
C7 C11 C9 120.783(346)
C7 C11 C14 119.165(386)
C9 C11 C14 120.051(330)
N15 C14 C11 176.647(459)
loop_
_geom_bond_atom_site_label_1
_geom_bond_atom_site_label_2
_geom_bond_distance
Cu2 N1 1.9933(36)
Cu2 Cl6 2.3106(35)
Cu2 Cl5 2.5687(36)
N1 C4 1.3356(50)
N1 C3 1.3823(47)
C3 H8 1.1073(278)
C3 C7 1.4496(52)
C4 H10 0.8981(249)
C4 C9 1.4114(56)
C7 H12 0.9459(270)
C7 C11 1.3602(59)
C9 H13 0.9827(271)
C9 C11 1.4274(49)
C11 C14 1.4761(57)
C14 N15 1.1483(66)
