#------------------------------------------------------------------------------
#$Date: 2016-11-22 08:33:02 +0200 (Tue, 22 Nov 2016) $
#$Revision: 188625 $
#$URL: file:///home/coder/svn-repositories/cod/cif/7/22/71/7227151.cif $
#------------------------------------------------------------------------------
#
# This file is available in the Crystallography Open Database (COD),
# http://www.crystallography.net/
#
# All data on this site have been placed in the public domain by the
# contributors.
#
data_7227151
loop_
_publ_author_name
'Singh, Rupinder'
'Gogoi, Abhijit'
'Das, Gopal'
_publ_section_title
;
 Benzothiazole based multi-analyte sensor for selective sensing of Zn2+
 and Cd2+ and subsequent sensing of inorganic phosphates (Pi) in mixed
 aqueous medium
;
_journal_name_full               'RSC Adv.'
_journal_paper_doi               10.1039/C6RA22840B
_journal_year                    2016
_chemical_formula_moiety         'C17 H12 N4 S'
_chemical_formula_sum            'C17 H12 N4 S'
_chemical_formula_weight         304.37
_space_group_crystal_system      monoclinic
_space_group_IT_number           4
_space_group_name_Hall           'P 2yb'
_space_group_name_H-M_alt        'P 1 21 1'
_symmetry_space_group_name_Hall  'P 2yb'
_symmetry_space_group_name_H-M   'P 1 21 1'
_atom_sites_solution_hydrogens   geom
_audit_creation_method           SHELXL-2014/7
_audit_update_record
;
2016-07-30 deposited with the CCDC.
2016-11-21 downloaded from the CCDC.
;
_cell_angle_alpha                90
_cell_angle_beta                 99.659(9)
_cell_angle_gamma                90
_cell_formula_units_Z            2
_cell_length_a                   8.3771(9)
_cell_length_b                   6.2358(8)
_cell_length_c                   14.5374(13)
_cell_measurement_reflns_used    617
_cell_measurement_temperature    298(2)
_cell_measurement_theta_max      24.5650
_cell_measurement_theta_min      3.5630
_cell_volume                     748.64(14)
_computing_structure_refinement  'SHELXL-2014/7 (Sheldrick, 2014)'
_diffrn_ambient_temperature      298(2)
_diffrn_measured_fraction_theta_full 0.997
_diffrn_measured_fraction_theta_max 0.876
_diffrn_measurement_device_type  'CCD area detector'
_diffrn_measurement_method       'phi and omega scans'
_diffrn_radiation_monochromator  graphite
_diffrn_radiation_source         'fine-focus sealed tube'
_diffrn_radiation_type           MoK\a
_diffrn_radiation_wavelength     0.71073
_diffrn_reflns_av_R_equivalents  0.0223
_diffrn_reflns_av_unetI/netI     0.0816
_diffrn_reflns_Laue_measured_fraction_full 0.997
_diffrn_reflns_Laue_measured_fraction_max 0.876
_diffrn_reflns_limit_h_max       8
_diffrn_reflns_limit_h_min       -11
_diffrn_reflns_limit_k_max       7
_diffrn_reflns_limit_k_min       -8
_diffrn_reflns_limit_l_max       19
_diffrn_reflns_limit_l_min       -18
_diffrn_reflns_number            3885
_diffrn_reflns_point_group_measured_fraction_full 0.757
_diffrn_reflns_point_group_measured_fraction_max 0.637
_diffrn_reflns_theta_full        25.242
_diffrn_reflns_theta_max         28.738
_diffrn_reflns_theta_min         3.047
_exptl_absorpt_coefficient_mu    0.217
_exptl_absorpt_correction_T_max  0.943
_exptl_absorpt_correction_T_min  0.908
_exptl_absorpt_correction_type   multi-scan
_exptl_absorpt_process_details   SADABS
_exptl_crystal_colour            yellow
_exptl_crystal_density_diffrn    1.350
_exptl_crystal_density_method    'not measured'
_exptl_crystal_description       needle
_exptl_crystal_F_000             316
_exptl_crystal_size_max          0.41
_exptl_crystal_size_mid          0.31
_exptl_crystal_size_min          0.26
_refine_diff_density_max         0.210
_refine_diff_density_min         -0.190
_refine_diff_density_rms         0.049
_refine_ls_abs_structure_details
;
 Flack x determined using 312 quotients [(I+)-(I-)]/[(I+)+(I-)]
 (Parsons, Flack and Wagner, Acta Cryst. B69 (2013) 249-259).
;
_refine_ls_abs_structure_Flack   0.08(11)
_refine_ls_extinction_method     none
_refine_ls_goodness_of_fit_ref   1.022
_refine_ls_hydrogen_treatment    constr
_refine_ls_matrix_type           full
_refine_ls_number_parameters     199
_refine_ls_number_reflns         3875
_refine_ls_number_restraints     1
_refine_ls_restrained_S_all      1.022
_refine_ls_R_factor_all          0.1047
_refine_ls_R_factor_gt           0.0604
_refine_ls_shift/su_max          0.004
_refine_ls_shift/su_mean         0.001
_refine_ls_structure_factor_coef Fsqd
_refine_ls_weighting_details
'w=1/[\s^2^(Fo^2^)+(0.0600P)^2^] where P=(Fo^2^+2Fc^2^)/3'
_refine_ls_weighting_scheme      calc
_refine_ls_wR_factor_gt          0.1258
_refine_ls_wR_factor_ref         0.1546
_reflns_Friedel_coverage         0.334
_reflns_Friedel_fraction_full    0.464
_reflns_Friedel_fraction_max     0.350
_reflns_number_gt                1631
_reflns_number_total             3820
_reflns_threshold_expression     'I > 2\s(I)'
_cod_data_source_file            c6ra22840b2.cif
_cod_data_source_block           Quin_SBz
_cod_database_code               7227151
_shelx_space_group_comment
;
The symmetry employed for this shelxl refinement is uniquely defined
by the following loop, which should always be used as a source of
symmetry information in preference to the above space-group names.
They are only intended as comments.
;
_shelx_res_file
;

    exp_2328.res created by SHELXL-2014/7

TITL CF solution in P21
CELL 0.71073 8.37715 6.23575 14.5374 90 99.659 90
ZERR 2 0.00091 0.00082 0.00128 0 0.0093 0
LATT -1
SYMM -X,0.5+Y,-Z
SFAC C  H  N  O  S  Cd
UNIT 10  10  4  8  4  2
L.S. 1
ACTA
BOND
FMAP 2
PLAN 1
WGHT    0.060000
FVAR       5.20405
S1    5    0.868872    0.727361    0.937846    11.00000    0.04344    0.05725 =
         0.04547   -0.01049   -0.00176    0.00446
N4    3    0.651148    0.738724    0.786002    11.00000    0.05263    0.04491 =
         0.04496    0.00047   -0.00261    0.00264
N3    3    0.835394    0.455726    0.791522    11.00000    0.05487    0.05482 =
         0.04336   -0.00996    0.00132    0.00752
AFIX  43
H3N   2    0.792550    0.410740    0.737032    11.00000   -1.20000
AFIX   0
N2    3    0.963269    0.351025    0.841049    11.00000    0.04705    0.05668 =
         0.04676    0.00413    0.00381    0.00604
N1    3    0.840655    0.179772    0.655076    11.00000    0.05091    0.05266 =
         0.04551   -0.00741    0.01353   -0.00251
C17   1    0.725805    0.935627    0.924581    11.00000    0.03447    0.04453 =
         0.04801   -0.00284    0.00700   -0.00561
C11   1    0.775374    0.631790    0.828350    11.00000    0.04422    0.04983 =
         0.04598   -0.00471    0.00461   -0.00235
C12   1    0.621713    0.911878    0.839120    11.00000    0.05107    0.04438 =
         0.04547   -0.00568    0.00952   -0.00425
C5    1    0.787712    0.086058    0.570460    11.00000    0.05191    0.05067 =
         0.05154   -0.01024    0.01797   -0.00859
C10   1    1.014331    0.180981    0.804775    11.00000    0.04550    0.04964 =
         0.04845    0.00478    0.00492    0.00602
AFIX  43
H10   2    1.102665    0.114456    0.840886    11.00000   -1.20000
AFIX   0
C16   1    0.711687    1.103630    0.983934    11.00000    0.04781    0.05388 =
         0.05620   -0.01666    0.01164   -0.00614
AFIX  43
H16   2    0.782815    1.117207    1.040065    11.00000   -1.20000
AFIX   0
C15   1    0.590383    1.251045    0.958648    11.00000    0.04984    0.04544 =
         0.07430   -0.00513    0.02209   -0.00717
AFIX  43
H15   2    0.579123    1.366114    0.997751    11.00000   -1.20000
AFIX   0
C13   1    0.497278    1.059645    0.814735    11.00000    0.06771    0.05953 =
         0.06251    0.00819    0.00544    0.01379
AFIX  43
H13   2    0.424349    1.045202    0.759333    11.00000   -1.20000
AFIX   0
C2    1    1.017064   -0.121087    0.694523    11.00000    0.06278    0.05809 =
         0.06919    0.00739    0.02564    0.00935
AFIX  43
H2    2    1.096950   -0.186835    0.737428    11.00000   -1.20000
AFIX   0
C1    1    0.954108    0.075608    0.714695    11.00000    0.04892    0.04538 =
         0.05745    0.00924    0.02179    0.00593
C14   1    0.484584    1.228571    0.874840    11.00000    0.06028    0.06303 =
         0.07306    0.01059    0.01999    0.01321
AFIX  43
H14   2    0.403069    1.329638    0.858664    11.00000   -1.20000
AFIX   0
C6    1    0.672708    0.196958    0.505586    11.00000    0.05682    0.07127 =
         0.05178   -0.00394    0.00522   -0.00001
AFIX  43
H6    2    0.633443    0.328781    0.521732    11.00000   -1.20000
AFIX   0
C4    1    0.845601   -0.114554    0.545702    11.00000    0.06205    0.05188 =
         0.06273   -0.01210    0.02639   -0.00709
C3    1    0.960616   -0.217512    0.610969    11.00000    0.08076    0.04805 =
         0.08760   -0.00297    0.04489    0.00650
AFIX  43
H3    2    0.999121   -0.351988    0.597757    11.00000   -1.20000
AFIX   0
C8    1    0.676320   -0.085646    0.394189    11.00000    0.10008    0.10453 =
         0.06597   -0.03985    0.01874   -0.02933
AFIX  43
H8    2    0.640684   -0.140434    0.334794    11.00000   -1.20000
AFIX   0
C7    1    0.618389    0.112366    0.419118    11.00000    0.07704    0.10660 =
         0.05682   -0.00692    0.00730   -0.02016
AFIX  43
H7    2    0.542709    0.186939    0.376858    11.00000   -1.20000
AFIX   0
C9    1    0.783058   -0.198000    0.455102    11.00000    0.09824    0.07806 =
         0.07578   -0.03292    0.03148   -0.02862
AFIX  43
H9    2    0.816798   -0.332188    0.438063    11.00000   -1.20000
AFIX   0
HKLF 4

REM  CF solution in P21
REM R1 =  0.0604 for    1631 Fo > 4sig(Fo)  and  0.1047 for all    2475 data
REM    199 parameters refined using      1 restraints

END

WGHT      0.0353      0.1028

REM Highest difference peak  0.210,  deepest hole -0.190,  1-sigma level  0.049
Q1    1   0.9232  0.7371  0.8645  11.00000  0.05    0.21
;
_shelx_res_checksum              36525
loop_
_space_group_symop_operation_xyz
'x, y, z'
'-x, y+1/2, -z'
loop_
_atom_site_label
_atom_site_type_symbol
_atom_site_fract_x
_atom_site_fract_y
_atom_site_fract_z
_atom_site_U_iso_or_equiv
_atom_site_adp_type
_atom_site_occupancy
_atom_site_site_symmetry_order
_atom_site_calc_flag
_atom_site_refinement_flags_posn
_atom_site_refinement_flags_adp
S1 S 0.86887(16) 0.7274(3) 0.93785(9) 0.0498(5) Uani 1 1 d . .
N4 N 0.6511(5) 0.7387(11) 0.7860(3) 0.0487(12) Uani 1 1 d . .
N3 N 0.8354(6) 0.4557(10) 0.7915(3) 0.0518(14) Uani 1 1 d . .
H3N H 0.7926 0.4107 0.7370 0.062 Uiso 1 1 calc R U
N2 N 0.9633(6) 0.3510(10) 0.8410(3) 0.0506(15) Uani 1 1 d . .
N1 N 0.8407(5) 0.1798(9) 0.6551(3) 0.0491(15) Uani 1 1 d . .
C17 C 0.7258(6) 0.9356(12) 0.9246(4) 0.0423(15) Uani 1 1 d . .
C11 C 0.7754(7) 0.6318(12) 0.8283(4) 0.0470(16) Uani 1 1 d . .
C12 C 0.6217(7) 0.9119(11) 0.8391(4) 0.0468(16) Uani 1 1 d . .
C5 C 0.7877(7) 0.0861(12) 0.5705(4) 0.0503(18) Uani 1 1 d . .
C10 C 1.0143(7) 0.1810(11) 0.8048(4) 0.0482(19) Uani 1 1 d . .
H10 H 1.1027 0.1145 0.8409 0.058 Uiso 1 1 calc R U
C16 C 0.7117(7) 1.1036(11) 0.9839(4) 0.0523(17) Uani 1 1 d . .
H16 H 0.7828 1.1172 1.0401 0.063 Uiso 1 1 calc R U
C15 C 0.5904(6) 1.2510(14) 0.9586(4) 0.0552(17) Uani 1 1 d . .
H15 H 0.5791 1.3661 0.9978 0.066 Uiso 1 1 calc R U
C13 C 0.4973(8) 1.0596(14) 0.8147(5) 0.064(2) Uani 1 1 d . .
H13 H 0.4243 1.0452 0.7593 0.077 Uiso 1 1 calc R U
C2 C 1.0171(8) -0.1211(13) 0.6945(5) 0.062(2) Uani 1 1 d . .
H2 H 1.0970 -0.1868 0.7374 0.074 Uiso 1 1 calc R U
C1 C 0.9541(7) 0.0756(12) 0.7147(4) 0.0491(17) Uani 1 1 d . .
C14 C 0.4846(7) 1.2286(16) 0.8748(4) 0.0644(18) Uani 1 1 d . .
H14 H 0.4031 1.3296 0.8587 0.077 Uiso 1 1 calc R U
C6 C 0.6727(7) 0.1970(15) 0.5056(4) 0.060(2) Uani 1 1 d . .
H6 H 0.6334 0.3288 0.5217 0.072 Uiso 1 1 calc R U
C4 C 0.8456(8) -0.1146(13) 0.5457(5) 0.0571(19) Uani 1 1 d . .
C3 C 0.9606(8) -0.2175(13) 0.6110(5) 0.069(2) Uani 1 1 d . .
H3 H 0.9991 -0.3520 0.5978 0.082 Uiso 1 1 calc R U
C8 C 0.6763(10) -0.0856(17) 0.3942(5) 0.090(3) Uani 1 1 d . .
H8 H 0.6407 -0.1404 0.3348 0.108 Uiso 1 1 calc R U
C7 C 0.6184(9) 0.1124(17) 0.4191(5) 0.081(3) Uani 1 1 d . .
H7 H 0.5427 0.1869 0.3769 0.097 Uiso 1 1 calc R U
C9 C 0.7831(10) -0.1980(15) 0.4551(5) 0.082(3) Uani 1 1 d . .
H9 H 0.8168 -0.3322 0.4381 0.099 Uiso 1 1 calc R U
loop_
_atom_site_aniso_label
_atom_site_aniso_U_11
_atom_site_aniso_U_22
_atom_site_aniso_U_33
_atom_site_aniso_U_23
_atom_site_aniso_U_13
_atom_site_aniso_U_12
S1 0.0434(7) 0.0572(11) 0.0455(7) -0.0105(10) -0.0018(5) 0.0045(10)
N4 0.053(3) 0.045(3) 0.045(2) 0.000(4) -0.0026(19) 0.003(3)
N3 0.055(3) 0.055(4) 0.043(2) -0.010(3) 0.001(2) 0.008(3)
N2 0.047(3) 0.057(4) 0.047(3) 0.004(3) 0.004(2) 0.006(3)
N1 0.051(3) 0.053(4) 0.046(2) -0.007(3) 0.0135(19) -0.003(3)
C17 0.034(3) 0.045(4) 0.048(3) -0.003(3) 0.007(2) -0.006(3)
C11 0.044(3) 0.050(4) 0.046(3) -0.005(3) 0.005(2) -0.002(3)
C12 0.051(3) 0.044(4) 0.045(3) -0.006(4) 0.010(3) -0.004(3)
C5 0.052(4) 0.051(5) 0.052(3) -0.010(4) 0.018(3) -0.009(3)
C10 0.046(3) 0.050(6) 0.048(3) 0.005(4) 0.005(2) 0.006(3)
C16 0.048(3) 0.054(5) 0.056(3) -0.017(4) 0.012(3) -0.006(3)
C15 0.050(3) 0.045(4) 0.074(4) -0.005(5) 0.022(3) -0.007(4)
C13 0.068(4) 0.060(6) 0.063(4) 0.008(4) 0.005(3) 0.014(4)
C2 0.063(4) 0.058(6) 0.069(4) 0.007(4) 0.026(3) 0.009(4)
C1 0.049(3) 0.045(5) 0.057(4) 0.009(4) 0.022(3) 0.006(3)
C14 0.060(4) 0.063(5) 0.073(4) 0.011(6) 0.020(3) 0.013(5)
C6 0.057(3) 0.071(7) 0.052(3) -0.004(5) 0.005(3) 0.000(4)
C4 0.062(4) 0.052(5) 0.063(4) -0.012(4) 0.026(3) -0.007(4)
C3 0.081(5) 0.048(6) 0.088(5) -0.003(5) 0.045(4) 0.007(4)
C8 0.100(6) 0.105(9) 0.066(5) -0.040(6) 0.019(4) -0.029(6)
C7 0.077(5) 0.107(9) 0.057(4) -0.007(5) 0.007(3) -0.020(6)
C9 0.098(6) 0.078(8) 0.076(5) -0.033(6) 0.031(4) -0.029(5)
loop_
_atom_type_symbol
_atom_type_description
_atom_type_scat_dispersion_real
_atom_type_scat_dispersion_imag
_atom_type_scat_source
C C 0.0033 0.0016 'International Tables Vol C Tables 4.2.6.8 and 6.1.1.4'
H H 0.0000 0.0000 'International Tables Vol C Tables 4.2.6.8 and 6.1.1.4'
N N 0.0061 0.0033 'International Tables Vol C Tables 4.2.6.8 and 6.1.1.4'
O O 0.0106 0.0060 'International Tables Vol C Tables 4.2.6.8 and 6.1.1.4'
S S 0.1246 0.1234 'International Tables Vol C Tables 4.2.6.8 and 6.1.1.4'
Cd Cd -0.8075 1.2024 'International Tables Vol C Tables 4.2.6.8 and 6.1.1.4'
loop_
_geom_angle_atom_site_label_1
_geom_angle_atom_site_label_2
_geom_angle_atom_site_label_3
_geom_angle
C17 S1 C11 87.7(3)
C11 N4 C12 110.0(5)
N2 N3 C11 119.6(5)
C10 N2 N3 117.8(5)
C1 N1 C5 117.5(6)
C16 C17 C12 122.1(6)
C16 C17 S1 128.6(5)
C12 C17 S1 109.3(5)
N4 C11 N3 123.3(5)
N4 C11 S1 117.1(5)
N3 C11 S1 119.6(5)
N4 C12 C13 125.1(6)
N4 C12 C17 116.0(6)
C13 C12 C17 119.0(6)
N1 C5 C4 122.4(6)
N1 C5 C6 118.3(7)
C4 C5 C6 119.3(6)
N2 C10 C1 129.9(6)
C15 C16 C17 118.7(6)
C16 C15 C14 120.1(7)
C14 C13 C12 118.5(6)
C3 C2 C1 119.4(7)
N1 C1 C2 123.0(6)
N1 C1 C10 117.2(6)
C2 C1 C10 119.7(6)
C13 C14 C15 121.7(7)
C7 C6 C5 120.6(8)
C3 C4 C5 117.6(6)
C3 C4 C9 124.4(8)
C5 C4 C9 118.0(7)
C2 C3 C4 120.0(7)
C9 C8 C7 120.8(8)
C6 C7 C8 120.2(8)
C8 C9 C4 121.1(9)
loop_
_geom_bond_atom_site_label_1
_geom_bond_atom_site_label_2
_geom_bond_distance
S1 C17 1.756(7)
S1 C11 1.756(6)
N4 C11 1.301(7)
N4 C12 1.374(8)
N3 N2 1.354(6)
N3 C11 1.355(8)
N2 C10 1.289(8)
N1 C1 1.342(7)
N1 C5 1.367(7)
C17 C16 1.375(8)
C17 C12 1.401(7)
C12 C13 1.392(9)
C5 C4 1.410(9)
C5 C6 1.411(9)
C10 C1 1.476(8)
C16 C15 1.374(9)
C15 C14 1.388(8)
C13 C14 1.384(11)
C2 C3 1.367(9)
C2 C1 1.386(10)
C6 C7 1.369(9)
C4 C3 1.391(9)
C4 C9 1.431(9)
C8 C9 1.345(11)
C8 C7 1.397(12)
