#------------------------------------------------------------------------------
#$Date: 2017-02-04 16:16:59 +0200 (Sat, 04 Feb 2017) $
#$Revision: 191764 $
#$URL: file:///home/coder/svn-repositories/cod/cif/7/22/73/7227394.cif $
#------------------------------------------------------------------------------
#
# This file is available in the Crystallography Open Database (COD),
# http://www.crystallography.net/
#
# All data on this site have been placed in the public domain by the
# contributors.
#
data_7227394
loop_
_publ_author_name
'Yeung, Hamish H.-M.'
'Kilmurray, Rebecca'
'Hobday, Claire L.'
'McKellar, Scott C.'
'Cheetham, Anthony K.'
'Allan, David R.'
'Moggach, Stephen A.'
_publ_section_title
;
 Hidden negative linear compressibility in lithium l-tartrate.
;
_journal_issue                   5
_journal_name_full               'Physical chemistry chemical physics : PCCP'
_journal_page_first              3544
_journal_page_last               3549
_journal_paper_doi               10.1039/c6cp08690j
_journal_volume                  19
_journal_year                    2017
_chemical_absolute_configuration unk
_chemical_formula_moiety         'C4 H2 Li2 O6'
_chemical_formula_sum            'C4 H2 Li2 O6'
_chemical_formula_weight         159.94
_chemical_name_common            'Lithium tartrate; dilithium tartrate'
_chemical_name_systematic        'Lithium l-tartraate'
_space_group_IT_number           5
_symmetry_cell_setting           monoclinic
_symmetry_Int_Tables_number      5
_symmetry_space_group_name_Hall  'C 2y'
_symmetry_space_group_name_H-M   'C 1 2 1'
_atom_sites_solution_hydrogens   difmap
_atom_sites_solution_primary     other
_audit_creation_date             2016-02-12
_audit_creation_method           CRYSTALS_ver_14.61_build_5811
_audit_update_record
;
2016-04-13 deposited with the CCDC.
2017-01-06 downloaded from the CCDC.
;
_cell_angle_alpha                90
_cell_angle_beta                 131.943(6)
_cell_angle_gamma                90
_cell_formula_units_Z            4
_cell_length_a                   15.181(2)
_cell_length_b                   4.9938(2)
_cell_length_c                   10.405(2)
_cell_measurement_reflns_used    1301
_cell_measurement_temperature    293
_cell_measurement_theta_max      26
_cell_measurement_theta_min      3
_cell_volume                     586.73(15)
_computing_cell_refinement       'Apex2 (Bruker AXS, 2006)'
_computing_data_collection       'Apex2 (Bruker AXS, 2006)'
_computing_data_reduction        'Apex2 (Bruker AXS, 2006)'
_computing_molecular_graphics    'CAMERON (Watkin et al., 1996)'
_computing_publication_material  'CRYSTALS (Betteridge et al., 2003)'
_computing_structure_refinement  'CRYSTALS (Betteridge et al., 2003)'
_computing_structure_solution    'USER DEFINED STRUCTURE SOLUTION'
_diffrn_ambient_pressure         137000
_diffrn_ambient_temperature      293
_diffrn_measured_fraction_theta_full 0.343
_diffrn_measured_fraction_theta_max 0.330
_diffrn_measurement_device       Area
_diffrn_measurement_device_type  'Bruker Kappa Apex2'
_diffrn_measurement_method       \w
_diffrn_radiation_monochromator  graphite
_diffrn_radiation_probe          x-ray
_diffrn_radiation_type           'Mo K\a'
_diffrn_radiation_wavelength     0.71073
_diffrn_reflns_av_R_equivalents  0.021
_diffrn_reflns_limit_h_max       11
_diffrn_reflns_limit_h_min       -11
_diffrn_reflns_limit_k_max       5
_diffrn_reflns_limit_k_min       -5
_diffrn_reflns_limit_l_max       7
_diffrn_reflns_limit_l_min       -7
_diffrn_reflns_number            1634
_diffrn_reflns_theta_full        25.028
_diffrn_reflns_theta_max         26.345
_diffrn_reflns_theta_min         2.632
_diffrn_source                   'sealed tube'
_diffrn_standards_number         0
_exptl_absorpt_coefficient_mu    0.168
_exptl_absorpt_correction_T_max  0.98
_exptl_absorpt_correction_T_min  0.77
_exptl_absorpt_correction_type   multi-scan
_exptl_absorpt_process_details   'SADABS (Siemens, 1996)'
_exptl_crystal_colour            colourless
_exptl_crystal_density_diffrn    1.811
_exptl_crystal_density_method    'not measured'
_exptl_crystal_description       block
_exptl_crystal_F_000             320
_exptl_crystal_size_max          0.200
_exptl_crystal_size_mid          0.200
_exptl_crystal_size_min          0.100
_refine_diff_density_max         0.31
_refine_diff_density_min         -0.25
_refine_ls_extinction_method     None
_refine_ls_goodness_of_fit_ref   1.0972
_refine_ls_hydrogen_treatment    constr
_refine_ls_matrix_type           full
_refine_ls_number_parameters     49
_refine_ls_number_reflns         221
_refine_ls_number_restraints     48
_refine_ls_R_factor_all          0.0570
_refine_ls_R_factor_gt           0.0560
_refine_ls_shift/su_max          0.0000527
_refine_ls_shift/su_mean         0.0000079
_refine_ls_structure_factor_coef Fsqd
_refine_ls_weighting_details
;
 Method= Modified Sheldrick 
 w=1/[\s^2^(F^2^) + ( 0.14P)^2^ + 2.39P] 
 ,where P=(max(Fo^2^,0) + 2Fc^2^)/3 
;
_refine_ls_weighting_scheme      calc
_refine_ls_wR_factor_all         0.1808
_refine_ls_wR_factor_gt          0.1781
_refine_ls_wR_factor_ref         0.1808
_reflns_limit_h_max              11
_reflns_limit_h_min              -10
_reflns_limit_k_max              5
_reflns_limit_k_min              0
_reflns_limit_l_max              7
_reflns_limit_l_min              0
_reflns_number_gt                214
_reflns_number_total             221
_reflns_threshold_expression     I>2.0\s(I)
_oxford_diffrn_Wilson_B_factor   0.99
_oxford_diffrn_Wilson_scale      9.33
_oxford_refine_ls_r_factor_ref   0.0570
_oxford_refine_ls_scale          0.343(3)
_oxford_reflns_number_all        221
_oxford_reflns_threshold_expression_ref I>-10.0\s(I)
_oxford_structure_analysis_title 'ltart3 in C2'
_iucr_refine_instructions_details
;
#
# Punched on 12/02/16 at 13:12:35
#
#LIST     12                                                                    
BLOCK SCALE X'S  U[ISO] 
RIDE C   (   2,X'S) H   (  21,X'S) 
RIDE C   (   4,X'S) H   (  41,X'S) 
END                                                                             
#
# Punched on 12/02/16 at 13:12:35
#
#LIST     16                                                                    
DIST   1.532,.01= C(1) TO C(2) 
DIST   1.251,.01= C(1) TO O(1) 
DIST   1.252,.01= C(1) TO O(2) 
DIST   1.564,.01= C(2) TO C(2,2,1,1,0,1) 
DIST   1.408,.01= C(2) TO O(3) 
DIST   1.528,.01= C(3) TO C(4) 
DIST   1.249,.01= C(3) TO O(4) 
DIST   1.253,.01= C(3) TO O(5) 
DIST   1.564,.01= C(4) TO C(4,2) 
DIST   1.409,.01= C(4) TO O(6) 
ANGL 120,1= O(1) TO C(1) TO C(2) 
ANGL 116,1= O(2) TO C(1) TO C(2) 
ANGL 124,1= O(2) TO C(1) TO O(1) 
ANGL 110,1= C(2,2,1,1,0,1) TO C(2) TO C(1) 
ANGL 113,1= O(3) TO C(2) TO C(1) 
ANGL 111,1= O(3) TO C(2) TO C(2,2,1,1,0,1) 
ANGL 120,1= O(4) TO C(3) TO C(4) 
ANGL 115,1= O(5) TO C(3) TO C(4) 
ANGL 125,1= O(5) TO C(3) TO O(4) 
ANGL 109,1= C(4,2) TO C(4) TO C(3) 
ANGL 114,1= O(6) TO C(4) TO C(3) 
ANGL 111,1= O(6) TO C(4) TO C(4,2) 
REM   DELU   START (DO NOT REMOVE THIS LINE) 
VIBR .0, 0.00200 = LI(2) TO O(1,2,2) 
VIBR .0, 0.00200 = LI(2) TO O(6) 
VIBR .0, 0.00500 = O(6) TO O(1,2,2) 
VIBR .0, 0.00200 = C(1) TO C(2) 
VIBR .0, 0.00200 = C(1) TO O(1) 
VIBR .0, 0.00200 = C(1) TO O(2) 
VIBR .0, 0.00500 = O(1) TO C(2) 
VIBR .0, 0.00500 = O(2) TO C(2) 
VIBR .0, 0.00500 = O(2) TO O(1) 
VIBR .0, 0.00200 = C(2) TO C(2,2,1,1,0,1) 
VIBR .0, 0.00200 = C(2) TO O(3) 
VIBR .0, 0.00500 = C(2,2,1,1,0,1) TO C(1) 
VIBR .0, 0.00500 = O(3) TO C(1) 
VIBR .0, 0.00500 = O(3) TO C(2,2,1,1,0,1) 
VIBR .0, 0.00200 = C(3) TO C(4) 
VIBR .0, 0.00200 = C(3) TO O(4) 
VIBR .0, 0.00200 = C(3) TO O(5) 
VIBR .0, 0.00500 = O(4) TO C(4) 
VIBR .0, 0.00500 = O(5) TO C(4) 
VIBR .0, 0.00500 = O(5) TO O(4) 
VIBR .0, 0.00200 = C(4) TO C(4,2) 
VIBR .0, 0.00200 = C(4) TO O(6) 
VIBR .0, 0.00500 = C(3) TO C(4,2) 
VIBR .0, 0.00500 = O(6) TO C(4,2) 
VIBR .0, 0.00500 = O(6) TO C(3) 
VIBR .0, 0.00500 = LI(2,2,2,0,-1) TO C(1) 
VIBR .0, 0.00500 = LI(2) TO C(4) 
REM   DELU   END (DO NOT REMOVE THIS LINE) 
REM   HREST   START (DO NOT REMOVE THIS LINE) 
REM   HREST   END (DO NOT REMOVE THIS LINE) 
END                                                                             
;
_cod_data_source_file            c6cp08690j2.cif
_cod_data_source_block           LTART3
_cod_depositor_comments
;
The following automatic conversions were performed:

'_atom_sites_solution_primary' value 'Other' changed to 'other'
according to
/usr/data/users/saulius/crontab/automatic-downloads/rss-feeds/RSC/lib/dictionaries/cif_core.dic
dictionary named 'cif_core.dic' version 2.4.2 from 2011-04-26.

Automatic conversion script
Id: cif_fix_values 4268 2015-11-12 08:31:59Z antanas 

 Adding full bibliography for 7227387--7227399.cif.
;
_cod_original_cell_volume        586.72(17)
_cod_original_sg_symbol_H-M      'C 2'
_cod_database_code               7227394
loop_
_symmetry_equiv_pos_as_xyz
x,y,z
x+1/2,y+1/2,z
-x,y,-z
-x+1/2,y+1/2,-z
loop_
_atom_site_label
_atom_site_type_symbol
_atom_site_fract_x
_atom_site_fract_y
_atom_site_fract_z
_atom_site_U_iso_or_equiv
_atom_site_occupancy
_atom_site_adp_type
_atom_site_refinement_flags_posn
_atom_site_refinement_flags_adp
Li1 Li 0.1752(16) 0.788(3) 0.419(3) 0.020(3) 1.0000 Uiso . .
Li2 Li 0.1786(17) 0.643(3) -0.052(3) 0.0170(14) 1.0000 Uiso . U
C1 C 0.4074(8) 0.6590(11) 0.2596(9) 0.0181(12) 1.0000 Uiso D U
C2 C 0.5148(5) 0.5585(13) 0.4410(6) 0.0175(14) 1.0000 Uiso D U
C3 C 0.1351(9) 0.2767(10) 0.2357(8) 0.0189(12) 1.0000 Uiso D U
C4 C 0.0678(3) 0.3726(14) 0.0513(8) 0.0179(13) 1.0000 Uiso D U
O1 O 0.3422(6) 0.4975(11) 0.1365(9) 0.0174(12) 1.0000 Uiso D U
O2 O 0.3927(7) 0.9061(11) 0.2448(10) 0.0200(13) 1.0000 Uiso D U
O3 O 0.5551(6) 0.3053(12) 0.4400(9) 0.0176(14) 1.0000 Uiso D U
O4 O 0.1855(7) 0.4415(12) 0.3566(10) 0.0185(13) 1.0000 Uiso D U
O5 O 0.1366(6) 0.0284(11) 0.2506(9) 0.0210(13) 1.0000 Uiso D U
O6 O 0.1027(6) 0.6269(11) 0.0405(9) 0.0187(12) 1.0000 Uiso D U
H21 H 0.5795 0.6862 0.4904 0.0209 1.0000 Uiso R .
H41 H 0.0820 0.2432 -0.0040 0.0215 1.0000 Uiso R .
loop_
_atom_type_symbol
_atom_type_scat_dispersion_real
_atom_type_scat_dispersion_imag
_atom_type_scat_Cromer_Mann_a1
_atom_type_scat_Cromer_Mann_b1
_atom_type_scat_Cromer_Mann_a2
_atom_type_scat_Cromer_Mann_b2
_atom_type_scat_Cromer_Mann_a3
_atom_type_scat_Cromer_Mann_b3
_atom_type_scat_Cromer_Mann_a4
_atom_type_scat_Cromer_Mann_b4
_atom_type_scat_Cromer_Mann_c
_atom_type_scat_source
C 0.0033 0.0016 2.3100 20.8439 1.0200 10.2075 1.5886 0.5687 0.8650 51.6512
0.2156 'International Tables Vol C 4.2.6.8 and 6.1.1.4'
H 0.0000 0.0000 0.4930 10.5109 0.3229 26.1257 0.1402 3.1424 0.0408 57.7998
0.0030 'International Tables Vol C 4.2.6.8 and 6.1.1.4'
Li -0.0003 0.0001 1.1282 3.9546 0.7508 1.0524 0.6175 85.3905 0.4653 168.2610
0.0377 'International Tables Vol C 4.2.6.8 and 6.1.1.4'
O 0.0106 0.0060 3.0485 13.2771 2.2868 5.7011 1.5463 0.3239 0.8670 32.9089
0.2508 'International Tables Vol C 4.2.6.8 and 6.1.1.4'
loop_
_geom_angle_atom_site_label_1
_geom_angle_site_symmetry_1
_geom_angle_atom_site_label_2
_geom_angle_atom_site_label_3
_geom_angle_site_symmetry_3
_geom_angle
_geom_angle_publ_flag
C2 . C1 O1 . 120.6(5) yes
C2 . C1 O2 . 115.5(5) yes
O1 . C1 O2 . 123.8(5) yes
C1 . C2 C2 3_656 109.8(7) yes
C1 . C2 O3 . 113.2(5) yes
C2 3_656 C2 O3 . 111.1(5) yes
C1 . C2 H21 . 107.5 no
C2 3_656 C2 H21 . 107.5 no
O3 . C2 H21 . 107.5 no
C4 . C3 O4 . 120.3(5) yes
C4 . C3 O5 . 114.1(5) yes
O4 . C3 O5 . 125.6(6) yes
C3 . C4 C4 3_555 109.2(6) yes
C3 . C4 O6 . 114.2(5) yes
C4 3_555 C4 O6 . 109.9(4) yes
C3 . C4 H41 . 107.8 no
C4 3_555 C4 H41 . 107.8 no
O6 . C4 H41 . 107.8 no
loop_
_geom_bond_atom_site_label_1
_geom_bond_atom_site_label_2
_geom_bond_site_symmetry_2
_geom_bond_distance
_geom_bond_publ_flag
C1 C2 . 1.536(6) yes
C1 O1 . 1.255(6) yes
C1 O2 . 1.245(7) yes
C2 C2 3_656 1.565(9) yes
C2 O3 . 1.408(7) yes
C2 H21 . 0.980 no
C3 C4 . 1.528(7) yes
C3 O4 . 1.248(7) yes
C3 O5 . 1.248(7) yes
C4 C4 3_555 1.561(8) yes
C4 O6 . 1.409(7) yes
C4 H41 . 0.980 no
