#------------------------------------------------------------------------------
#$Date: 2017-07-22 04:41:50 +0300 (Sat, 22 Jul 2017) $
#$Revision: 198906 $
#$URL: file:///home/coder/svn-repositories/cod/cif/7/22/87/7228715.cif $
#------------------------------------------------------------------------------
#
# This file is available in the Crystallography Open Database (COD),
# http://www.crystallography.net/
#
# All data on this site have been placed in the public domain by the
# contributors.
#
data_7228715
loop_
_publ_author_name
'Tran, Thao Thi-Phuong'
'Ould, Darren'
'Wilkins, Lewis'
'Wright, Dominic S.'
'Melen, Rebecca'
'Rawson, Jeremy Michael'
_publ_section_title
;
 Supramolecular Aggregation in Dithia-arsoles: Chlorides, Cations and
 N-centered Paddlewheels
;
_journal_name_full               CrystEngComm
_journal_paper_doi               10.1039/C7CE01117B
_journal_year                    2017
_chemical_formula_moiety         'c7 H6 As Cl S2'
_chemical_formula_sum            'C7 H6 As Cl S2'
_chemical_formula_weight         264.61
_space_group_crystal_system      triclinic
_space_group_IT_number           2
_space_group_name_Hall           '-P 1'
_space_group_name_H-M_alt        'P -1'
_symmetry_space_group_name_Hall  '-P 1'
_symmetry_space_group_name_H-M   'P -1'
_atom_sites_solution_hydrogens   geom
_atom_sites_solution_primary     direct
_atom_sites_solution_secondary   difmap
_audit_creation_method           SHELXL-2014/7
_audit_update_record
;
2017-04-28 deposited with the CCDC.
2017-07-21 downloaded from the CCDC.
;
_cell_angle_alpha                81.120(2)
_cell_angle_beta                 76.281(2)
_cell_angle_gamma                84.486(2)
_cell_formula_units_Z            4
_cell_length_a                   9.2240(2)
_cell_length_b                   9.6289(3)
_cell_length_c                   10.8161(3)
_cell_measurement_reflns_used    5999
_cell_measurement_temperature    180(2)
_cell_measurement_theta_max      27.10
_cell_measurement_theta_min      1.00
_cell_volume                     920.29(4)
_computing_cell_refinement       'HKL Scalepack (Otwinowski & Minor 1997)'
_computing_data_collection       'Collect (Nonius B.V. 1998)'
_computing_data_reduction
;
 HKL Denzo and Scalepack (Otwinowski & Minor 1997)
;
_computing_structure_refinement  'SHELXL-2014/7 (Sheldrick, 2014)'
_computing_structure_solution    'SIR-92 (Altomare et al. 1994)'
_diffrn_ambient_temperature      180(2)
_diffrn_measured_fraction_theta_full 0.992
_diffrn_measured_fraction_theta_max 0.972
_diffrn_measurement_device_type  'nonius Kappa CCD'
_diffrn_measurement_method       'phi and omega scans'
_diffrn_radiation_type           MoK\a
_diffrn_radiation_wavelength     0.71069
_diffrn_reflns_av_R_equivalents  0.0388
_diffrn_reflns_av_unetI/netI     0.0427
_diffrn_reflns_Laue_measured_fraction_full 0.992
_diffrn_reflns_Laue_measured_fraction_max 0.972
_diffrn_reflns_limit_h_max       11
_diffrn_reflns_limit_h_min       -11
_diffrn_reflns_limit_k_max       12
_diffrn_reflns_limit_k_min       -11
_diffrn_reflns_limit_l_max       13
_diffrn_reflns_limit_l_min       -12
_diffrn_reflns_number            8175
_diffrn_reflns_point_group_measured_fraction_full 0.992
_diffrn_reflns_point_group_measured_fraction_max 0.972
_diffrn_reflns_theta_full        25.240
_diffrn_reflns_theta_max         27.058
_diffrn_reflns_theta_min         3.655
_diffrn_source                   'fine focus sealed tube'
_exptl_absorpt_coefficient_mu    4.367
_exptl_absorpt_correction_T_max  0.978
_exptl_absorpt_correction_T_min  0.640
_exptl_absorpt_correction_type   multi-scan
_exptl_absorpt_process_details
;
multi-scan from symmetry-related measurements
Sortav (blessing 1995)
;
_exptl_crystal_colour            colourless
_exptl_crystal_density_diffrn    1.910
_exptl_crystal_description       plate
_exptl_crystal_F_000             520
_exptl_crystal_recrystallization_method 'Re-crystallisation from solvent'
_exptl_crystal_size_max          0.230
_exptl_crystal_size_mid          0.070
_exptl_crystal_size_min          0.020
_refine_diff_density_max         0.428
_refine_diff_density_min         -0.683
_refine_diff_density_rms         0.076
_refine_ls_extinction_method     none
_refine_ls_goodness_of_fit_ref   1.031
_refine_ls_hydrogen_treatment    constr
_refine_ls_matrix_type           full
_refine_ls_number_parameters     201
_refine_ls_number_reflns         3932
_refine_ls_number_restraints     0
_refine_ls_restrained_S_all      1.031
_refine_ls_R_factor_all          0.0412
_refine_ls_R_factor_gt           0.0311
_refine_ls_shift/su_max          0.001
_refine_ls_shift/su_mean         0.000
_refine_ls_structure_factor_coef Fsqd
_refine_ls_weighting_details
'w=1/[\s^2^(Fo^2^)+(0.0395P)^2^+0.1457P] where P=(Fo^2^+2Fc^2^)/3'
_refine_ls_weighting_scheme      calc
_refine_ls_wR_factor_gt          0.0765
_refine_ls_wR_factor_ref         0.0804
_reflns_Friedel_coverage         0.000
_reflns_number_gt                3242
_reflns_number_total             3932
_reflns_threshold_expression     'I > 2\s(I)'
_cod_data_source_file            c7ce01117b2.cif
_cod_data_source_block           dw1039
_cod_database_code               7228715
_shelx_shelxl_version_number     2014/7
_shelx_space_group_comment
;
The symmetry employed for this shelxl refinement is uniquely defined
by the following loop, which should always be used as a source of
symmetry information in preference to the above space-group names.
They are only intended as comments.
;
_shelx_estimated_absorpt_t_min   0.433
_shelx_estimated_absorpt_t_max   0.918
_shelx_res_file
;

    dw1039.res created by SHELXL-2014/7

TITL  dw1039 (RIM198) in P-1

CELL  0.71069    9.2240 9.6289 10.8161 81.120 76.281 84.486
ZERR        4    0.0002 0.0003  0.0003  0.002  0.002  0.002

LATT 1

SFAC     C     H     S    CL    AS
UNIT    28    24     8     4     4

TEMP -93
SIZE 0.23 0.07 0.02

L.S. 10

ACTA
BOND $H
WPDB -1

FMAP 2
PLAN 5

SHEL 5.8 0

WGHT    0.039500    0.145700
FVAR       0.89909
AS1   5    0.270122    0.462282    1.462323    11.00000    0.04745    0.05250 =
         0.03717   -0.00631   -0.00668   -0.00419
CL1   4    0.388880    0.663912    1.399075    11.00000    0.05995    0.05148 =
         0.05529   -0.01585   -0.01004   -0.00722
S1    3    0.121664    0.491420    1.325067    11.00000    0.03555    0.05647 =
         0.04646   -0.01348   -0.00541    0.00398
S2    3    0.431969    0.318938    1.349449    11.00000    0.04937    0.04656 =
         0.05029   -0.00719   -0.02043    0.00787
C1    1    0.243514    0.428544    1.190513    11.00000    0.03419    0.03275 =
         0.04368   -0.00707   -0.00771   -0.00309
C2    1    0.202495    0.450785    1.072699    11.00000    0.03029    0.03847 =
         0.04551   -0.00310   -0.00946   -0.00083
AFIX  43
H2    2    0.108498    0.497788    1.066811    11.00000   -1.20000
AFIX   0
C3    1    0.296143    0.405679    0.963816    11.00000    0.04061    0.03619 =
         0.04288   -0.00426   -0.00923   -0.00703
C4    1    0.434751    0.339510    0.974595    11.00000    0.04022    0.03538 =
         0.04593   -0.01260   -0.00343   -0.00130
AFIX  43
H4    2    0.501345    0.309864    0.900633    11.00000   -1.20000
AFIX   0
C5    1    0.477079    0.316249    1.090511    11.00000    0.03738    0.03392 =
         0.05533   -0.00815   -0.01041    0.00228
AFIX  43
H5    2    0.572526    0.272058    1.095494    11.00000   -1.20000
AFIX   0
C6    1    0.380132    0.357436    1.200209    11.00000    0.03747    0.02928 =
         0.04417   -0.00530   -0.01071   -0.00033
C7    1    0.249396    0.429075    0.837540    11.00000    0.05546    0.06274 =
         0.04443   -0.00592   -0.01387   -0.00101
AFIX 137
H7A   2    0.202673    0.524379    0.824600    11.00000   -1.50000
H7B   2    0.177649    0.360034    0.838276    11.00000   -1.50000
H7C   2    0.337446    0.418038    0.767568    11.00000   -1.50000
AFIX   0
AS2   5    0.776562    0.007506    1.461437    11.00000    0.04390    0.04801 =
         0.03820   -0.00796   -0.00564    0.00018
CL2   4    0.959747   -0.165036    1.428641    11.00000    0.05239    0.04454 =
         0.05585   -0.00149   -0.01418    0.00427
S3    3    0.635963   -0.052419    1.339791    11.00000    0.03773    0.05411 =
         0.04666   -0.00252   -0.00558   -0.00961
S4    3    0.878687    0.175253    1.310714    11.00000    0.05285    0.03800 =
         0.04859   -0.00620   -0.01689   -0.00507
C8    1    0.733271    0.023597    1.186199    11.00000    0.02945    0.03496 =
         0.04490   -0.00460   -0.00788    0.00229
C9    1    0.700669   -0.013713    1.076838    11.00000    0.03315    0.03784 =
         0.04882   -0.00690   -0.00844   -0.00016
AFIX  43
H9    2    0.630448   -0.082594    1.085589    11.00000   -1.20000
AFIX   0
C10   1    0.769780    0.048747    0.954756    11.00000    0.03612    0.04255 =
         0.04532   -0.00842   -0.00972    0.00761
C11   1    0.873712    0.146402    0.944564    11.00000    0.04659    0.04172 =
         0.04024    0.00032   -0.00616   -0.00240
AFIX  43
H11   2    0.922108    0.189637    0.861963    11.00000   -1.20000
AFIX   0
C12   1    0.908589    0.182386    1.052831    11.00000    0.04232    0.03622 =
         0.05216    0.00020   -0.01273   -0.00476
AFIX  43
H12   2    0.981739    0.248541    1.043739    11.00000   -1.20000
AFIX   0
C13   1    0.836781    0.121921    1.175278    11.00000    0.03703    0.03200 =
         0.04332   -0.00431   -0.01296    0.00334
C14   1    0.732820    0.007424    0.836860    11.00000    0.05082    0.06551 =
         0.04605   -0.01139   -0.00868   -0.00710
AFIX 137
H14A  2    0.718882    0.092270    0.776897    11.00000   -1.50000
H14B  2    0.640666   -0.042928    0.862253    11.00000   -1.50000
H14C  2    0.814974   -0.053835    0.795073    11.00000   -1.50000

AFIX   0
HKLF 4

REM   dw1039 (RIM198) in P-1
REM R1 =  0.0311 for    3242 Fo > 4sig(Fo)  and  0.0412 for all    3932 data
REM    201 parameters refined using      0 restraints

END

WGHT      0.0401      0.1303

REM Highest difference peak  0.428,  deepest hole -0.683,  1-sigma level  0.076
Q1    1   0.7389  0.0375  1.5384  11.00000  0.05    0.43
Q2    1   0.8091  0.0367  0.7524  11.00000  0.05    0.32
Q3    1   0.8604  0.1347  1.1241  11.00000  0.05    0.29
Q4    1   0.2224  0.3837  1.5425  11.00000  0.05    0.28
Q5    1   0.7161  0.0238  1.1457  11.00000  0.05    0.28
;
_shelx_res_checksum              40252
loop_
_space_group_symop_operation_xyz
'x, y, z'
'-x, -y, -z'
loop_
_atom_site_label
_atom_site_type_symbol
_atom_site_fract_x
_atom_site_fract_y
_atom_site_fract_z
_atom_site_U_iso_or_equiv
_atom_site_adp_type
_atom_site_occupancy
_atom_site_site_symmetry_order
_atom_site_calc_flag
_atom_site_refinement_flags_posn
_atom_site_refinement_flags_adp
As1 As 0.27012(3) 0.46228(3) 1.46232(2) 0.04610(10) Uani 1 1 d . .
Cl1 Cl 0.38888(9) 0.66391(8) 1.39907(7) 0.05489(19) Uani 1 1 d . .
S1 S 0.12166(8) 0.49142(8) 1.32507(7) 0.04657(17) Uani 1 1 d . .
S2 S 0.43197(8) 0.31894(8) 1.34945(7) 0.04785(18) Uani 1 1 d . .
C1 C 0.2435(3) 0.4285(3) 1.1905(2) 0.0368(5) Uani 1 1 d . .
C2 C 0.2025(3) 0.4508(3) 1.0727(2) 0.0383(6) Uani 1 1 d . .
H2 H 0.1085 0.4978 1.0668 0.046 Uiso 1 1 calc R U
C3 C 0.2961(3) 0.4057(3) 0.9638(2) 0.0397(6) Uani 1 1 d . .
C4 C 0.4348(3) 0.3395(3) 0.9746(3) 0.0409(6) Uani 1 1 d . .
H4 H 0.5013 0.3099 0.9006 0.049 Uiso 1 1 calc R U
C5 C 0.4771(3) 0.3162(3) 1.0905(3) 0.0423(6) Uani 1 1 d . .
H5 H 0.5725 0.2721 1.0955 0.051 Uiso 1 1 calc R U
C6 C 0.3801(3) 0.3574(2) 1.2002(2) 0.0368(5) Uani 1 1 d . .
C7 C 0.2494(4) 0.4291(3) 0.8375(3) 0.0541(7) Uani 1 1 d . .
H7A H 0.2027 0.5244 0.8246 0.081 Uiso 1 1 calc R U
H7B H 0.1776 0.3600 0.8383 0.081 Uiso 1 1 calc R U
H7C H 0.3374 0.4180 0.7676 0.081 Uiso 1 1 calc R U
As2 As 0.77656(3) 0.00751(3) 1.46144(2) 0.04396(10) Uani 1 1 d . .
Cl2 Cl 0.95975(8) -0.16504(7) 1.42864(7) 0.05166(18) Uani 1 1 d . .
S3 S 0.63596(8) -0.05242(8) 1.33979(7) 0.04685(18) Uani 1 1 d . .
S4 S 0.87869(8) 0.17525(7) 1.31071(7) 0.04538(17) Uani 1 1 d . .
C8 C 0.7333(3) 0.0236(3) 1.1862(2) 0.0369(5) Uani 1 1 d . .
C9 C 0.7007(3) -0.0137(3) 1.0768(3) 0.0401(6) Uani 1 1 d . .
H9 H 0.6304 -0.0826 1.0856 0.048 Uiso 1 1 calc R U
C10 C 0.7698(3) 0.0487(3) 0.9548(3) 0.0417(6) Uani 1 1 d . .
C11 C 0.8737(3) 0.1464(3) 0.9446(3) 0.0441(6) Uani 1 1 d . .
H11 H 0.9221 0.1896 0.8620 0.053 Uiso 1 1 calc R U
C12 C 0.9086(3) 0.1824(3) 1.0528(3) 0.0437(6) Uani 1 1 d . .
H12 H 0.9817 0.2485 1.0437 0.052 Uiso 1 1 calc R U
C13 C 0.8368(3) 0.1219(3) 1.1753(2) 0.0372(5) Uani 1 1 d . .
C14 C 0.7328(4) 0.0074(3) 0.8369(3) 0.0539(7) Uani 1 1 d . .
H14A H 0.7189 0.0923 0.7769 0.081 Uiso 1 1 calc R U
H14B H 0.6407 -0.0429 0.8623 0.081 Uiso 1 1 calc R U
H14C H 0.8150 -0.0538 0.7951 0.081 Uiso 1 1 calc R U
loop_
_atom_site_aniso_label
_atom_site_aniso_U_11
_atom_site_aniso_U_22
_atom_site_aniso_U_33
_atom_site_aniso_U_23
_atom_site_aniso_U_13
_atom_site_aniso_U_12
As1 0.04745(18) 0.05250(19) 0.03717(17) -0.00631(13) -0.00668(13) -0.00419(13)
Cl1 0.0599(5) 0.0515(4) 0.0553(4) -0.0159(3) -0.0100(3) -0.0072(3)
S1 0.0356(4) 0.0565(4) 0.0465(4) -0.0135(3) -0.0054(3) 0.0040(3)
S2 0.0494(4) 0.0466(4) 0.0503(4) -0.0072(3) -0.0204(3) 0.0079(3)
C1 0.0342(13) 0.0327(13) 0.0437(14) -0.0071(10) -0.0077(11) -0.0031(10)
C2 0.0303(13) 0.0385(13) 0.0455(15) -0.0031(11) -0.0095(11) -0.0008(11)
C3 0.0406(14) 0.0362(13) 0.0429(14) -0.0043(11) -0.0092(11) -0.0070(11)
C4 0.0402(15) 0.0354(13) 0.0459(15) -0.0126(11) -0.0034(12) -0.0013(11)
C5 0.0374(14) 0.0339(13) 0.0553(16) -0.0082(12) -0.0104(12) 0.0023(11)
C6 0.0375(14) 0.0293(12) 0.0442(14) -0.0053(10) -0.0107(11) -0.0003(10)
C7 0.0555(19) 0.0627(19) 0.0444(16) -0.0059(14) -0.0139(14) -0.0010(15)
As2 0.04390(18) 0.04801(18) 0.03820(17) -0.00796(12) -0.00564(12) 0.00018(13)
Cl2 0.0524(4) 0.0445(4) 0.0558(4) -0.0015(3) -0.0142(3) 0.0043(3)
S3 0.0377(4) 0.0541(4) 0.0467(4) -0.0025(3) -0.0056(3) -0.0096(3)
S4 0.0529(4) 0.0380(3) 0.0486(4) -0.0062(3) -0.0169(3) -0.0051(3)
C8 0.0294(13) 0.0350(13) 0.0449(14) -0.0046(11) -0.0079(11) 0.0023(10)
C9 0.0331(13) 0.0378(14) 0.0488(15) -0.0069(11) -0.0084(11) -0.0002(11)
C10 0.0361(14) 0.0426(14) 0.0453(15) -0.0084(11) -0.0097(12) 0.0076(11)
C11 0.0466(16) 0.0417(14) 0.0402(14) 0.0003(11) -0.0062(12) -0.0024(12)
C12 0.0423(15) 0.0362(13) 0.0522(16) 0.0002(12) -0.0127(12) -0.0048(12)
C13 0.0370(14) 0.0320(12) 0.0433(14) -0.0043(10) -0.0130(11) 0.0033(10)
C14 0.0508(18) 0.066(2) 0.0460(16) -0.0114(14) -0.0087(13) -0.0071(15)
loop_
_atom_type_symbol
_atom_type_description
_atom_type_scat_dispersion_real
_atom_type_scat_dispersion_imag
_atom_type_scat_source
C C 0.0033 0.0016 'International Tables Vol C Tables 4.2.6.8 and 6.1.1.4'
H H 0.0000 0.0000 'International Tables Vol C Tables 4.2.6.8 and 6.1.1.4'
S S 0.1246 0.1234 'International Tables Vol C Tables 4.2.6.8 and 6.1.1.4'
Cl Cl 0.1484 0.1585 'International Tables Vol C Tables 4.2.6.8 and 6.1.1.4'
As As 0.0499 2.0058 'International Tables Vol C Tables 4.2.6.8 and 6.1.1.4'
loop_
_geom_angle_atom_site_label_1
_geom_angle_atom_site_label_2
_geom_angle_atom_site_label_3
_geom_angle
S2 As1 S1 93.07(3)
S2 As1 Cl1 99.89(3)
S1 As1 Cl1 99.25(3)
C1 S1 As1 100.52(9)
C6 S2 As1 100.37(9)
C2 C1 C6 119.6(2)
C2 C1 S1 119.4(2)
C6 C1 S1 121.0(2)
C3 C2 C1 121.3(2)
C3 C2 H2 119.3
C1 C2 H2 119.3
C2 C3 C4 118.1(2)
C2 C3 C7 120.7(2)
C4 C3 C7 121.2(2)
C5 C4 C3 121.3(2)
C5 C4 H4 119.3
C3 C4 H4 119.3
C4 C5 C6 120.1(2)
C4 C5 H5 119.9
C6 C5 H5 119.9
C5 C6 C1 119.4(2)
C5 C6 S2 119.6(2)
C1 C6 S2 121.0(2)
C3 C7 H7A 109.5
C3 C7 H7B 109.5
H7A C7 H7B 109.5
C3 C7 H7C 109.5
H7A C7 H7C 109.5
H7B C7 H7C 109.5
S4 As2 S3 92.77(3)
S4 As2 Cl2 99.26(3)
S3 As2 Cl2 98.04(3)
C8 S3 As2 100.07(9)
C13 S4 As2 99.96(8)
C13 C8 C9 120.4(2)
C13 C8 S3 120.35(19)
C9 C8 S3 119.21(19)
C8 C9 C10 120.8(2)
C8 C9 H9 119.6
C10 C9 H9 119.6
C11 C10 C9 118.5(2)
C11 C10 C14 121.4(2)
C9 C10 C14 120.2(2)
C10 C11 C12 121.1(2)
C10 C11 H11 119.5
C12 C11 H11 119.5
C11 C12 C13 120.4(2)
C11 C12 H12 119.8
C13 C12 H12 119.8
C8 C13 C12 118.9(2)
C8 C13 S4 122.05(19)
C12 C13 S4 119.09(19)
C10 C14 H14A 109.5
C10 C14 H14B 109.5
H14A C14 H14B 109.5
C10 C14 H14C 109.5
H14A C14 H14C 109.5
H14B C14 H14C 109.5
loop_
_geom_bond_atom_site_label_1
_geom_bond_atom_site_label_2
_geom_bond_distance
As1 S2 2.2100(8)
As1 S1 2.2180(8)
As1 Cl1 2.2540(8)
S1 C1 1.764(3)
S2 C6 1.766(3)
C1 C2 1.393(4)
C1 C6 1.394(3)
C2 C3 1.387(4)
C2 H2 0.9500
C3 C4 1.395(4)
C3 C7 1.506(4)
C4 C5 1.380(4)
C4 H4 0.9500
C5 C6 1.392(4)
C5 H5 0.9500
C7 H7A 0.9800
C7 H7B 0.9800
C7 H7C 0.9800
As2 S4 2.2147(7)
As2 S3 2.2212(8)
As2 Cl2 2.2582(8)
S3 C8 1.773(3)
S4 C13 1.760(3)
C8 C13 1.381(3)
C8 C9 1.393(4)
C9 C10 1.393(4)
C9 H9 0.9500
C10 C11 1.381(4)
C10 C14 1.513(4)
C11 C12 1.386(4)
C11 H11 0.9500
C12 C13 1.397(4)
C12 H12 0.9500
C14 H14A 0.9800
C14 H14B 0.9800
C14 H14C 0.9800
