#------------------------------------------------------------------------------
#$Date: 2017-06-16 04:47:05 +0300 (Fri, 16 Jun 2017) $
#$Revision: 197871 $
#$URL: file:///home/coder/svn-repositories/cod/cif/7/22/84/7228489.cif $
#------------------------------------------------------------------------------
#
# This file is available in the Crystallography Open Database (COD),
# http://www.crystallography.net/
#
# All data on this site have been placed in the public domain by the
# contributors.
#
data_7228489
loop_
_publ_author_name
'Molcanov, Kresimir'
'Jelsch, Christian'
'Wenger, Emmanuel'
'Stare, Jernej'
'Madsen, Anders \/Ostergaard'
'Kojic-Prodic, Biserka'
_publ_section_title
;
 Experimental evidence of 3-centre, 2-electron covalent bond character of
 the central O-H-O fragment on the Zundel cation in crystals of Zundel
 nitranilate tetrahydrate
;
_journal_name_full               CrystEngComm
_journal_paper_doi               10.1039/C7CE00501F
_journal_year                    2017
_chemical_absolute_configuration -
_chemical_formula_moiety         'C3 H7 N O7'
_chemical_formula_sum            'C3 H7 N O7'
_chemical_formula_weight         169.085
_chemical_name_common            'nitranilic acid'
_space_group_IT_number           14
_symmetry_cell_setting           monoclinic
_symmetry_space_group_name_Hall  '-P 2ybc'
_symmetry_space_group_name_H-M   'P 1 21/c 1'
_atom_sites_solution_hydrogens   difmap
_atom_sites_solution_primary     direct
_atom_sites_solution_secondary   difmap
_audit_creation_method           'MoPro v15.10   rev. 1113 '
_audit_update_record
;
2016-12-22 deposited with the CCDC.
2017-06-15 downloaded from the CCDC.
;
_cell_angle_alpha                90.
_cell_angle_beta                 93.645(2)
_cell_angle_gamma                90.
_cell_formula_units_Z            4
_cell_length_a                   3.5787(3)
_cell_length_b                   19.23520(10)
_cell_length_c                   9.1906(8)
_cell_measurement_reflns_used    9842
_cell_measurement_temperature    100(2)
_cell_measurement_theta_max      45.13
_cell_measurement_theta_min      4.92
_cell_volume                     631.37(8)
_computing_structure_refinement  'MoPro (J. Appl. Cryst. 2005, 38, 38-54)'
_diffrn_ambient_temperature      100(2)
_diffrn_measured_fraction_theta_full 0.985
_diffrn_measured_fraction_theta_max 0.985
_diffrn_measurement_device_type  'Bruker D8 Venture'
_diffrn_measurement_method       '\w scans'
_diffrn_radiation_monochromator  graphite
_diffrn_radiation_source         'microfocus tube'
_diffrn_radiation_type           MoK\a
_diffrn_radiation_wavelength     0.71073
_diffrn_reflns_av_R_equivalents  0.0727
_diffrn_reflns_av_sigmaI/netI    0.02927
_diffrn_reflns_limit_h_max       5
_diffrn_reflns_limit_h_min       -6
_diffrn_reflns_limit_k_max       34
_diffrn_reflns_limit_k_min       -34
_diffrn_reflns_limit_l_max       16
_diffrn_reflns_limit_l_min       -15
_diffrn_reflns_number            66115
_diffrn_reflns_theta_full        39.76
_diffrn_reflns_theta_max         39.76
_diffrn_reflns_theta_min         2.12
_exptl_absorpt_coefficient_mu    0.181
_exptl_absorpt_correction_T_max  0.9920
_exptl_absorpt_correction_T_min  0.9750
_exptl_absorpt_correction_type   multi-scan
_exptl_crystal_colour            orange
_exptl_crystal_density_diffrn    1.779
_exptl_crystal_density_method    'not measured'
_exptl_crystal_description       rod
_exptl_crystal_F_000             352
_exptl_crystal_recrystallization_method
'Re-crystallisation from solvent: conc. nitric acid'
_exptl_crystal_size_max          0.160
_exptl_crystal_size_mid          0.060
_exptl_crystal_size_min          0.050
_refine_diff_density_max         0.405
_refine_diff_density_min         -0.393
_refine_diff_density_rms         0.058
_refine_ls_extinction_method     none
_refine_ls_goodness_of_fit_ref   0.907
_refine_ls_hydrogen_treatment    refall
_refine_ls_matrix_type           full
_refine_ls_number_parameters     359
_refine_ls_number_reflns         3810
_refine_ls_number_restraints     40
_refine_ls_restrained_S_all      0.899
_refine_ls_R_factor_all          0.0453
_refine_ls_R_factor_gt           0.0301
_refine_ls_shift/su_max          0.000
_refine_ls_shift/su_mean         0.000
_refine_ls_structure_factor_coef Fsqd
_refine_ls_weighting_details     'calc w =1/[2.5*\s^2^(Fo^2^)]'
_refine_ls_weighting_scheme      calc
_refine_ls_wR_factor_gt          0.0274
_refine_ls_wR_factor_ref         0.0295
_reflns_number_gt                3234
_reflns_number_total             3810
_reflns_threshold_expression     >2.0sigma(I)
_iucr_refine_instructions_details
; 
! MoPro v15.10 rev. 1113 29/09/2016 14:25:05 D:\Users\Christian\Desktop\Zundel_
#exp_sep2016_TDS\zundel_exp_unrest_nresidue_68.par
! reflections hkl file : D:\Users\Christian\Desktop\Zundel_exp_sep2016_TDS\Zund
#el_OBS_NOEXTINCT.hkl refin. vs. F^2
! atomic table file : D:\MoProSuite\LibMoPro\mopro.tab
! wave functions file : D:\MoProSuite\LibMoPro\WAVEF_Su_Coppens_relativistic
! Constraints file : D:\Users\Christian\Desktop\Zundel_exp_sep2016_TDS\CONSTRAI
#N.txt
! Restraints file : D:\Users\Christian\Desktop\Zundel_exp_sep2016_TDS\RESTRAIN_
#NOSYM_225.txt
! RF factor = 4.531 % RI factor = 2.958%
! wR2F factor = 1.622 % wR2I factor = 2.948%
! g.o.f.(F**2) = 1.004 Nvar= 359 Nref= 3810 Nfree= 0 0.05<sinT/l< 0.90

! P00 Dip Qua Oct Hex l=5 l=6
! O nl = 2 2 2 3 4 4 4
! O zeta= 4.466 4.466 4.466 4.466 4.466 4.466 4.466
! N nl = 2 2 2 3 4 4 4
! N zeta= 3.839 3.839 3.839 3.839 3.839 3.839 3.839
! C nl = 2 2 2 3 4 4 4
! C zeta= 3.176 3.176 3.176 3.176 3.176 3.176 3.176
! H nl = 1 1 2 2 2 2 2
! H zeta= 2.000 2.000 2.000 2.000 2.000 2.000 2.000

WSIG 2.50000 ! weighting scheme
 ! SPACE GROUP P ?

CELL 3.5787 19.2352 9.1906 90.0000 93.6450 90.0000 0.71073
ZERR 0.0003 0.0001 0.0008 0.0000 0.0020 0.0000

SYMM 4 P
 X , Y, Z
 -X , Y+1/2, -Z+1/2
 -X , -Y, -Z
 X , -Y-1/2, Z-1/2

EQUIV 56603

SCALE 4 0.060828 0.000000 0.000000 0.007712 POLI

FMULT 1.00000

UOVER 0.00000 0.00000 0.00000 0.00000 0.00000 0.00000 ANI

SOLVT 0.00000 50.00000

EXTIN 0.00000 GAUSSIAN ISOT TYP1 ! G*10^4


DUMMY 0

KAPPA 18
 0.976855 0.736611 ! # 1 1 cif O1 1X O
 0.976363 0.730392 ! # 2 1 cif O2 1X O
 0.988552 0.741083 ! # 3 1 cif O3 1X O
 0.989331 0.734354 ! # 4 1 cif O4 1X O
 0.992563 0.935644 ! # 5 1 cif N1 1X N
 0.998694 0.910964 ! # 6 1 cif C1 1X C
 0.995421 0.920527 ! # 7 1 cif C2 1X C
 0.999819 1.042855 ! # 8 1 cif C3 1X C
 0.965340 0.638265 ! # 9 2 cif O5 1X O
 0.960851 0.938905 ! # 10 2 cif O6 1X O
 1.192536 1.294433 ! # 11 2 cif H1 1X H
 1.294941 1.279893 ! # 12 2 cif H5A 1X H
 1.382006 1.250555 ! # 13 2 cif H5B 1X H
 1.286645 1.206956 ! # 14 2 cif H6A 1X H
 1.245694 1.187913 ! # 15 2 cif H6B 1X H
 0.961168 0.810762 ! # 16 3 cif O7 1X O
 1.149986 1.329059 ! # 17 3 cif H7A 1X H
 1.230828 1.185787 ! # 18 3 cif H7B 1X H


ATOMS 18

ATOM 1 O1 cif 1 0.248635 0.601177 0.328706 1.0000 1 O
 XY C1 C2 OCT K1 V0 M0 Q0
UANI 0.024778 0.010704 0.007701 -.006485 0.001865 0.001281
 6.23924 0. -.049 -.022 0.025 -.057 -.033 -.020 -.046 -.001
 -.004 0.023 0.011 0.003 -.001 0.053 0.017

ATOM 2 O2 cif 1 -0.007296 0.488734 0.205599 1.0000 1 O
 XY C2 C1 OCT K2 V0 M0 Q0
UANI 0.022559 0.010794 0.005888 -.004655 0.001470 -.000528
 6.29132 0. -.078 -.001 0.012 -.025 0.002 -.042 -.095 0.009
 0.036 -.002 0.012 -.010 0.007 0.070 0.003

ATOM 3 O3 cif 1 -0.198104 0.355857 0.244199 1.0000 1 O
 XY N1 O4 OCT K3 V0 M0 Q0
UANI 0.023787 0.011491 0.009033 -.003181 0.004001 -.003131
 5.89537 0. -.175 -.026 -.011 0.026 -.009 -.030 -.215 0.
 -.025 0.023 0.007 0.010 -.004 -.010 0.007

ATOM 4 O4 cif 1 -0.516199 0.338047 0.431996 1.0000 1 O
 XY N1 O3 OCT K4 V0 M0 Q0
UANI 0.016423 0.010634 0.011850 -.004004 0.002022 -.000237
 5.89496 0. -.163 -.017 -.020 0.029 -.031 -.025 -.187 0.004
 -.016 0.017 -.001 0.015 -.007 -.021 0.007

ATOM 5 N1 cif 1 -0.300140 0.373570 0.364384 1.0000 1 N
bXY O4 O3 OCT K5 V0 M0 Q0
UANI 0.012437 0.006624 0.007882 -.000547 0.002306 0.000059
 5.58410 0. 0.156 0.035 -.043 -.259 -.050 -.011 -.062 0.033
 0.038 0.007 0.004 -.023 -.054 -.361 -.031

ATOM 6 C1 cif 1 0.145070 0.556952 0.414093 1.0000 1 C
bXY C2 C3_SYM56603 OCT K6 V0 M0 Q0
UANI 0.012685 0.007767 0.006015 -.001208 0.000975 0.000100
 4.01658 0. -.082 0.012 -.016 -.247 0.019 -.019 0.077 0.071
 -.005 0.026 0.024 0.011 -.010 -.327 0.041

ATOM 7 C2 cif 1 -0.014349 0.489567 0.341000 1.0000 1 C
bXY C1 C3 OCT K7 V0 M0 Q0
UANI 0.012496 0.007784 0.006069 -.001374 0.000710 -.000156
 4.03899 0. -.048 0.032 -.027 -.232 0.018 -.027 0.036 0.036
 0.021 -.014 -.008 -.012 -.005 -.342 0.060

ATOM 8 C3 cif 1 -0.157472 0.437171 0.429879 1.0000 1 C
bXY C2 C1_SYM56603 OCT K8 V0 M0 Q0
UANI 0.011829 0.006911 0.006546 -.000926 0.000800 -.000394
 4.03736 0. 0.082 -.005 -.009 -.002 0.014 -.006 -.071 -.028
 -.036 0.017 -.003 -.003 0.009 -.202 0.016

ATOM 9 O5 cif 2 0.238488 0.588836 0.027452 1.0000 1 O
bZX H5A H5B OCT K9 V0 M0 Q0
UANI 0.021471 0.015870 0.007677 -.001935 0.001115 0.000851
 6.52478 0. -.018 0.052 0.008 -.035 -.035 -.077 -.059 -.014
 -.108 0.022 -.028 0.178 -.018 -.009 -.038

ATOM 10 O6 cif 2 0.002521 0.706665 0.054405 1.0000 1 O
bXY H6A H6B OCT K10 V0 M0 Q0
UANI 0.020890 0.014960 0.012376 -.001084 0.001495 0.000024
 6.67736 0. 0.004 -.008 0.026 -.028 0.029 -.008 0.023 -.005
 0.030 -.037 0.010 0.044 -.005 -.132 0.007

ATOM 11 H1 cif 2 0.104551 0.643982 0.037760 1.0000 1 H
 ZX O5 H5A QUA K11 V0 M0 Q0
UANI 0.042417 0.063341 0.027083 -.001518 0.001914 0.000345
 0.61784 0. 0. 0. 0.069 0.180 0. 0. 0. 0.

ATOM 12 H5A cif 2 0.166978 0.560555 0.100840 1.0000 1 H
 ZX O5 H5B DIP K12 V0 M0 Q0
UISO 0.022515
 0.52807 0. 0. 0. 0.037

ATOM 13 H5B cif 2 0.155610 0.568354 -0.059646 1.0000 1 H
 ZX O5 H5A DIP K13 V0 M0 Q0
UISO 0.022494
 0.50101 0. 0. 0. 0.076

ATOM 14 H6A cif 2 -0.137157 0.714447 0.134183 1.0000 1 H
 ZX O6 H6B DIP K14 V0 M0 Q0
UISO 0.024077
 0.57770 0. 0. 0. 0.034

ATOM 15 H6B cif 2 -0.125032 0.726771 -0.023536 1.0000 1 H
 ZX O6 H6A DIP K15 V0 M0 Q0
UISO 0.024132
 0.59245 0. 0. 0. 0.020

ATOM 16 O7 cif 3 0.336822 0.269379 0.691494 1.0000 1 O
bXY H7B H7A OCT K16 V0 M0 Q0
UANI 0.019420 0.010987 0.012736 -.000192 0.000815 0.003494
 6.60861 0. 0.017 -.002 0.011 0.014 0.023 -.014 0.012 -.031
 0.001 -.047 0.008 -.004 -.038 -.107 -.023

ATOM 17 H7A cif 3 0.520586 0.236732 0.717150 1.0000 1 H
 ZX O7 H7B DIP K17 V0 M0 Q0
UISO 0.021587
 0.73330 0. 0. 0. 0.082

ATOM 18 H7B cif 3 0.478548 0.307179 0.665181 1.0000 1 H
 ZX O7 H7A DIP K18 V0 M0 Q0
UISO 0.021571
 0.64081 0. 0. 0. 0.088

ANHAR 0 3 ! number_of_anharmonic_atoms max_order
! 1 ! atom number
! 0.00E+00 0.00E+00 0.00E+00 0.00E+00 0.00E+00 0.00E+00 0.00E+00 0.00E+00
! 0.00E+00 0.00E+00


STOP
;
_cod_data_source_file            c7ce00501f2.cif
_cod_data_source_block           I
_cod_original_sg_symbol_H-M      'P 21/c'
_cod_database_code               7228489
loop_
_symmetry_equiv_pos_as_xyz
'x, y, z'
'-x, y+1/2, -z+1/2'
'-x, -y, -z'
'x, -y-1/2, z-1/2'
loop_
_atom_site_type_symbol
_atom_site_label
_atom_site_fract_x
_atom_site_fract_y
_atom_site_fract_z
_atom_site_U_iso_or_equiv
_atom_site_adp_type
_atom_site_occupancy
_atom_site_calc_flag
_atom_site_refinement_flags_posn
O O1_1 0.24863(14) 0.60118(3) 0.32871(5) 0.01436(19) Uani 1 d .
O O2_1 -0.00730(13) 0.48873(2) 0.20560(5) 0.01306(18) Uani 1 d .
O O3_1 -0.19810(12) 0.35586(2) 0.24420(5) 0.01464(18) Uani 1 d .
O O4_1 -0.51620(12) 0.33805(2) 0.43200(5) 0.01292(15) Uani 1 d .
N N1_1 -0.30014(14) 0.37357(3) 0.36438(5) 0.00891(17) Uani 1 d .
C C1_1 0.14507(13) 0.55695(3) 0.41409(5) 0.00881(16) Uani 1 d .
C C2_1 -0.01435(12) 0.48957(3) 0.34100(5) 0.00878(16) Uani 1 d .
C C3_1 -0.15747(14) 0.43717(3) 0.42988(6) 0.00842(17) Uani 1 d .
O O5_2 0.23849(13) 0.58884(3) 0.02745(6) 0.01500(19) Uani 1 d .
O O6_2 0.0025(2) 0.70666(4) 0.05441(8) 0.0161(3) Uani 1 d .
H H1_2 0.105(6) 0.644(2) 0.0378(14) 0.044(16) Uani 1 d D
H H5A_2 0.167(5) 0.5606(15) 0.101(4) 0.023(11) Uiso 1 d D
H H5B_2 0.156(4) 0.5684(9) -0.060(4) 0.022(11) Uiso 1 d D
H H6A_2 -0.137(6) 0.7144(6) 0.134(3) 0.024(10) Uiso 1 d D
H H6B_2 -0.125(7) 0.7268(11) -0.024(4) 0.024(10) Uiso 1 d D
O O7_3 0.33682(16) 0.26938(3) 0.69149(5) 0.0144(2) Uani 1 d .
H H7A_3 0.521(8) 0.2367(15) 0.7171(16) 0.022(8) Uiso 1 d D
H H7B_3 0.479(5) 0.3072(14) 0.6652(14) 0.022(9) Uiso 1 d D
loop_
_atom_site_aniso_label
_atom_site_aniso_U_11
_atom_site_aniso_U_22
_atom_site_aniso_U_33
_atom_site_aniso_U_12
_atom_site_aniso_U_13
_atom_site_aniso_U_23
O1_1 0.0248(2) 0.0107(2) 0.00770(16) -0.00648(18) 0.00186(14) 0.00128(15)
O2_1 0.0226(2) 0.01079(18) 0.00589(17) -0.00465(17) 0.00147(14) -0.00053(14)
O3_1 0.0238(2) 0.01149(18) 0.00903(16) -0.00318(15) 0.00400(13) -0.00313(13)
O4_1 0.01642(17) 0.01063(16) 0.01185(15) -0.00400(13) 0.00202(12) -0.00024(14)
N1_1 0.01244(19) 0.0066(2) 0.00788(18) -0.00055(17) 0.00231(16) 0.00006(17)
C1_1 0.01268(17) 0.00777(18) 0.00601(17) -0.00121(15) 0.00097(13) 0.00010(15)
C2_1 0.01250(17) 0.00778(17) 0.00607(17) -0.00137(15) 0.00071(12) -0.00016(15)
C3_1 0.01183(19) 0.00691(19) 0.00655(18) -0.00093(16) 0.00080(14) -0.00039(16)
O5_2 0.0215(2) 0.0159(2) 0.00768(17) -0.00193(16) 0.00111(13) 0.00085(16)
O6_2 0.0209(3) 0.0150(3) 0.0124(3) -0.0011(2) 0.0015(2) 0.0000(2)
H1_2 0.042(17) 0.06(4) 0.027(17) -0.002(16) 0.002(5) 0.000(9)
O7_3 0.0194(2) 0.0110(2) 0.01274(19) -0.0002(2) 0.00081(16) 0.00349(17)
loop_
_atom_type_symbol
_atom_type_description
_atom_type_scat_dispersion_real
_atom_type_scat_dispersion_imag
_atom_type_scat_source
C C 0.0033 0.0016 'Su & Coppens. Acta. Cryst. (1997) A53, 749-762. '
H H 0.0000 0.0000 'Su & Coppens. Acta. Cryst. (1997) A53, 749-762. '
N N 0.0061 0.0033 'Su & Coppens. Acta. Cryst. (1997) A53, 749-762. '
O O 0.0106 0.0060 'Su & Coppens. Acta. Cryst. (1997) A53, 749-762. '
loop_
_geom_angle_atom_site_label_1
_geom_angle_atom_site_label_2
_geom_angle_atom_site_label_3
_geom_angle
_geom_angle_site_symmetry_3
C2_1 C1_1 C3_1 119.02(4) 3_566
H5A_2 O5_2 H5B_2 107.(2) .
H5A_2 O5_2 H1_2 110.(2) .
H5B_2 O5_2 H1_2 110.(1) .
H6B_2 O6_2 H6A_2 107.(1) .
H7B_3 O7_3 H7A_3 102.(1) .
loop_
_geom_bond_atom_site_label_1
_geom_bond_atom_site_label_2
_geom_bond_distance
_geom_bond_site_symmetry_2
O1_1 C1_1 1.2304(6) .
O2_1 C2_1 1.2464(6) .
O3_1 N1_1 1.2332(6) .
O4_1 N1_1 1.2296(6) .
N1_1 C3_1 1.4424(8) .
C1_1 C2_1 1.5518(7) .
C1_1 C3_1 1.4363(7) 3_566
C2_1 C3_1 1.4137(7) .
C3_1 C1_1 1.4363(7) 3_566
O5_2 H5A_2 0.92(4) .
O5_2 H5B_2 0.92(4) .
O5_2 H1_2 1.17(4) .
O6_2 H6B_2 0.91(4) .
O6_2 H6A_2 0.93(4) .
O7_3 H7B_3 0.93(3) .
O7_3 H7A_3 0.93(4) .
loop_
_geom_hbond_atom_site_label_D
_geom_hbond_atom_site_label_H
_geom_hbond_atom_site_label_A
_geom_hbond_distance_DH
_geom_hbond_distance_HA
_geom_hbond_distance_DA
_geom_hbond_angle_DHA
_geom_hbond_site_symmetry_A
O5_2 H1_2 O6_2 1.17(4) 1.27(4) 2.4368(11) 172.4(7) 1_555
O5_2 H5A_2 O1_1 0.92(4) 2.24(2) 2.7768(7) 117.(2) 1_555
O5_2 H5A_2 O2_1 0.92(4) 1.82(4) 2.7102(7) 164.5(4) 1_555
O6_2 H6B_2 O7_3 0.91(4) 1.87(4) 2.7728(10) 173.88(14) 2_555
O5_2 H5B_2 O2_1 0.92(4) 1.79(4) 2.6969(7) 167.3(3) 3_565
O5_2 H5B_2 O3_1 0.92(4) 2.249(17) 2.7092(7) 110.(1) 3_565
O6_2 H6A_2 O7_3 0.93(4) 1.82(4) 2.7389(9) 170.4(2) 3_566
O7_3 H7B_3 O4_1 0.93(3) 2.225(19) 2.8051(7) 120.(1) 1_655
O7_3 H7B_3 O1_1 0.93(3) 2.01(3) 2.9103(8) 162.0(3) 3_666
O7_3 H7A_3 O3_1 0.93(4) 2.05(4) 2.9505(7) 162.0(3) 4_666
O7_3 H7A_3 O4_1 0.93(4) 2.45(2) 3.0470(7) 122.(2) 4_666
O7_3 H7A_3 N1_1 0.93(4) 2.58(3) 3.3928(9) 147.(2) 4_666
loop_
_geom_torsion_atom_site_label_1
_geom_torsion_atom_site_label_2
_geom_torsion_atom_site_label_3
_geom_torsion_atom_site_label_4
_geom_torsion
O1_1 C1_1 C2_1 O2_1 1.67(8)
O1_1 C1_1 C2_1 C3_1 -176.92(5)
O2_1 C2_1 C3_1 N1_1 2.82(7)
O3_1 N1_1 C3_1 C2_1 21.85(9)
O4_1 N1_1 C3_1 C2_1 -159.3(3)
N1_1 C3_1 C2_1 C1_1 -178.78(2)
