#------------------------------------------------------------------------------
#$Date: 2017-07-22 04:42:30 +0300 (Sat, 22 Jul 2017) $
#$Revision: 198907 $
#$URL: file:///home/coder/svn-repositories/cod/cif/7/22/87/7228724.cif $
#------------------------------------------------------------------------------
#
# This file is available in the Crystallography Open Database (COD),
# http://www.crystallography.net/
#
# All data on this site have been placed in the public domain by the
# contributors.
#
data_7228724
loop_
_publ_author_name
'Aldilla, Vina Rizki'
'Bhadbhade, Mohan'
'Bhattacharyya, Saroj'
'Kumar, Naresh'
'Rich, Anne M.'
'Marjo, Christopher'
_publ_section_title
;
 Controlling the distance between hydrogen-bonded chloro-s-triazine tapes:
 crystal engineering using N-alkyl chains and the influence of temperature
;
_journal_name_full               CrystEngComm
_journal_paper_doi               10.1039/C7CE01049D
_journal_year                    2017
_chemical_formula_moiety         'C11 H20 Cl N5'
_chemical_formula_sum            'C11 H20 Cl N5'
_chemical_formula_weight         257.77
_space_group_crystal_system      triclinic
_space_group_IT_number           2
_space_group_name_Hall           '-P 1'
_space_group_name_H-M_alt        'P -1'
_symmetry_space_group_name_Hall  '-P 1'
_symmetry_space_group_name_H-M   'P -1'
_atom_sites_solution_hydrogens   mixed
_audit_creation_date             2017-05-29
_audit_creation_method
;
Olex2 1.2
(compiled 2017.03.28 svn.r3405 for OlexSys, GUI svn.r5337)
;
_audit_update_record
;
2017-06-05 deposited with the CCDC.
2017-07-21 downloaded from the CCDC.
;
_cell_angle_alpha                104.518(5)
_cell_angle_beta                 92.842(6)
_cell_angle_gamma                100.832(5)
_cell_formula_units_Z            2
_cell_length_a                   5.0858(6)
_cell_length_b                   10.0093(10)
_cell_length_c                   15.2007(18)
_cell_measurement_reflns_used    1316
_cell_measurement_temperature    150.0
_cell_measurement_theta_max      21.577
_cell_measurement_theta_min      2.783
_cell_volume                     731.93(14)
_computing_cell_refinement       'SAINT v8.34A (Bruker, 2013)'
_computing_data_reduction        'SAINT v8.34A (Bruker, 2013)'
_computing_molecular_graphics    'Olex2 (Dolomanov et al., 2009)'
_computing_publication_material  'Olex2 (Dolomanov et al., 2009)'
_computing_structure_refinement  'ShelXL (Sheldrick, 2015)'
_diffrn_ambient_temperature      150.0
_diffrn_measured_fraction_theta_full 0.996
_diffrn_measured_fraction_theta_max 0.996
_diffrn_measurement_device_type  'Bruker APEX-II CCD'
_diffrn_measurement_method       '\f and \w scans'
_diffrn_radiation_type           MoK\a
_diffrn_radiation_wavelength     0.71073
_diffrn_reflns_av_R_equivalents  0.0661
_diffrn_reflns_av_unetI/netI     0.0675
_diffrn_reflns_Laue_measured_fraction_full 0.996
_diffrn_reflns_Laue_measured_fraction_max 0.996
_diffrn_reflns_limit_h_max       5
_diffrn_reflns_limit_h_min       -6
_diffrn_reflns_limit_k_max       11
_diffrn_reflns_limit_k_min       -11
_diffrn_reflns_limit_l_max       18
_diffrn_reflns_limit_l_min       -18
_diffrn_reflns_number            10068
_diffrn_reflns_point_group_measured_fraction_full 0.996
_diffrn_reflns_point_group_measured_fraction_max 0.996
_diffrn_reflns_theta_full        24.998
_diffrn_reflns_theta_max         24.998
_diffrn_reflns_theta_min         2.148
_diffrn_standards_number         0
_exptl_absorpt_coefficient_mu    0.250
_exptl_absorpt_correction_T_max  0.7455
_exptl_absorpt_correction_T_min  0.6318
_exptl_absorpt_correction_type   multi-scan
_exptl_absorpt_process_details
'SADABS-2014/5 (Bruker,2014/5) was used for absorption correction. wR2(int) was 0.0999 before and 0.0635 after correction. The Ratio of minimum to maximum transmission is 0.8475. The \l/2 correction factor is 0.00150.'
_exptl_crystal_colour            colourless
_exptl_crystal_colour_primary    colourless
_exptl_crystal_density_diffrn    1.170
_exptl_crystal_description       plate
_exptl_crystal_F_000             276
_exptl_crystal_size_max          0.149
_exptl_crystal_size_mid          0.096
_exptl_crystal_size_min          0.05
_refine_diff_density_max         0.293
_refine_diff_density_min         -0.244
_refine_diff_density_rms         0.048
_refine_ls_extinction_method     none
_refine_ls_goodness_of_fit_ref   1.070
_refine_ls_hydrogen_treatment    mixed
_refine_ls_matrix_type           full
_refine_ls_number_parameters     208
_refine_ls_number_reflns         2555
_refine_ls_number_restraints     131
_refine_ls_restrained_S_all      1.099
_refine_ls_R_factor_all          0.1401
_refine_ls_R_factor_gt           0.0678
_refine_ls_shift/su_max          0.000
_refine_ls_shift/su_mean         0.000
_refine_ls_structure_factor_coef Fsqd
_refine_ls_weighting_details
'w=1/[\s^2^(Fo^2^)+(0.1201P)^2^+0.1829P] where P=(Fo^2^+2Fc^2^)/3'
_refine_ls_weighting_scheme      calc
_refine_ls_wR_factor_gt          0.2093
_refine_ls_wR_factor_ref         0.2561
_reflns_Friedel_coverage         0.000
_reflns_number_gt                1250
_reflns_number_total             2555
_reflns_threshold_expression     'I > 2\s(I)'
_iucr_refine_instructions_details
;

    partial1_a.res created by SHELXL-2014/7

TITL partial1_a.res in P-1
REM Old TITL partial1 in P-1
REM SHELXT solution in P-1
REM R1 0.294, Rweak 0.013, Alpha 0.078, Orientation as input
REM Formula found by SHELXT: C9 N4 Cl
CELL 0.71073 5.0858 10.0093 15.2007 104.518 92.842 100.832
ZERR 2 0.0006 0.001 0.0018 0.005 0.006 0.005
LATT 1
SFAC C H Cl N
UNIT 22 40 2 10
DFIX 3.826 H7c H11a
SADI C5 C4 C5' C4 C6' C5' C6 C5 C7 C6 C7' C6' C9 C8 C9' C8 C9' C10' C9 C10 =
 C11 C10 C11' C10'
SADI C4 C6 C5 C7
SADI C4 C6' C5' C7'
SADI C8 C10 C9 C11
SADI C8 C10' C9' C11'
RIGU C4 H4bd H4bc H4ab H4aa C5 H5a H5b C5' H5'a H5'b C6 H6b H6a C6' H6'a =
 H6'B C7 H7A H7B H7C C7' H7'A H7'B H7'C
RIGU C8 H8ab H8aa H8bd H8bc C9 H9a H9b C9' H9'a H9'b C10 H10a H10b C10' H10c =
 H10D C11 H11A H11B H11C C11' H11D H11E H11F
EADP C7 C7'
EADP C11 C11'
 
L.S. 50
PLAN  60
TEMP -123.15
BOND $H
MORE -1
CONF
fmap 2
acta
OMIT -3 50
OMIT 1 0 0
OMIT 0 1 2
OMIT 0 0 1
OMIT -1 0 2
OMIT -1 1 1
OMIT 0 -1 1
OMIT 1 -2 1
OMIT 1 0 1
OMIT 1 -1 1
REM <olex2.extras>
REM <HklSrc "%.\\partial1_a.hkl">
REM </olex2.extras>
 
WGHT    0.120100    0.182900
FVAR       1.02000
CL    3    0.017956    0.718329    0.634829    11.00000    0.10250    0.07984 =
         0.10864    0.04597    0.04069    0.04898
N1    4    0.129256    0.845120    0.509665    11.00000    0.07350    0.05731 =
         0.08156    0.02704    0.01516    0.03237
N2    4    0.413540    0.769968    0.393098    11.00000    0.07347    0.05443 =
         0.08773    0.02273    0.01600    0.02899
N3    4    0.325675    0.647582    0.509230    11.00000    0.07405    0.05597 =
         0.08978    0.02672    0.01781    0.03219
N4    4    0.228092    0.963081    0.398796    11.00000    0.08583    0.06635 =
         0.08967    0.03121    0.02263    0.04398
H4    2    0.122738    1.006951    0.426393    11.00000    0.04721
N5    4    0.592654    0.577437    0.395861    11.00000    0.08366    0.05913 =
         0.09749    0.03209    0.02741    0.03680
H5    2    0.596716    0.521476    0.425006    11.00000    0.06414
C1    1    0.176505    0.739758    0.539670    11.00000    0.06799    0.05509 =
         0.08038    0.02293    0.01520    0.02689
C2    1    0.258761    0.856034    0.434782    11.00000    0.06829    0.04922 =
         0.08422    0.01896    0.00218    0.02268
C3    1    0.441145    0.667814    0.433436    11.00000    0.06580    0.04795 =
         0.08514    0.01699    0.01186    0.02230
C4    1    0.344115    0.987925    0.319220    11.00000    0.09313    0.07573 =
         0.09088    0.04050    0.02620    0.03923
PART 2
AFIX  23
H4BD  2    0.519534    0.958589    0.316031    10.50000   -1.20000
H4BC  2    0.376444    1.090022    0.323166    10.50000   -1.20000
AFIX  23
PART 0
PART 1
H4AB  2    0.527263    0.967799    0.321403    10.50000   -1.20000
H4AA  2    0.364776    1.089734    0.323410    10.50000   -1.20000
AFIX   0
C5    1    0.200269    0.907571    0.227501    10.50000    0.15086    0.16725 =
         0.09989    0.01851    0.01518    0.02668
AFIX  23
H5A   2    0.009747    0.916732    0.225437    10.50000   -1.20000
H5B   2    0.204798    0.806307    0.216533    10.50000   -1.20000
AFIX   0
PART 0
PART 2
C5'   1    0.162433    0.907796    0.234995    10.50000    0.10498    0.09318 =
         0.08514    0.04624    0.02317    0.02770
AFIX  23
H5'A  2   -0.008054    0.942118    0.236944    10.50000   -1.20000
H5'B  2    0.119143    0.806827    0.234217    10.50000   -1.20000
AFIX   0
PART 0
PART 1
C6    1    0.338883    0.966771    0.152739    10.50000    0.30098    0.28694 =
         0.10764    0.03287    0.03784   -0.03287
AFIX  23
H6B   2    0.354107    1.070219    0.167529    10.50000   -1.20000
H6A   2    0.522181    0.946952    0.149409    10.50000   -1.20000
AFIX   0
PART 0
PART 2
C6'   1    0.285323    0.921859    0.146343    10.50000    0.17443    0.16496 =
         0.09313    0.05448    0.03686    0.03279
AFIX  23
H6'A  2    0.301576    1.019886    0.141622    10.50000   -1.20000
H6'B  2    0.467878    0.900887    0.147792    10.50000   -1.20000
AFIX   0
PART 0
PART 1
C7    1    0.172352    0.897402    0.062971    10.50000    0.40852    0.39432 =
         0.13003    0.06169    0.01188   -0.10599
AFIX 137
H7A   2    0.134378    0.969852    0.034055    10.50000   -1.50000
H7B   2    0.002646    0.841180    0.073199    10.50000   -1.50000
H7C   2    0.271248    0.835861    0.023020    10.50000   -1.50000
AFIX   0
PART 0
PART 2
C7'   1    0.108388    0.819885    0.063060    10.50000    0.40852    0.39432 =
         0.13003    0.06169    0.01188   -0.10599
AFIX 137
H7'A  2   -0.080315    0.825955    0.068935    10.50000   -1.50000
H7'B  2    0.128988    0.723333    0.059524    10.50000   -1.50000
H7'C  2    0.163335    0.845151    0.007458    10.50000   -1.50000
AFIX   0
PART 0
C8    1    0.719104    0.580560    0.314266    11.00000    0.09529    0.07394 =
         0.09598    0.02766    0.03244    0.04336
PART 1
AFIX  23
H8AB  2    0.858859    0.523168    0.310875    10.50000   -1.20000
H8AA  2    0.812456    0.679002    0.320143    10.50000   -1.20000
AFIX  23
PART 0
PART 2
H8BD  2    0.898492    0.556616    0.319301    10.50000   -1.20000
H8BC  2    0.742826    0.676053    0.304470    10.50000   -1.20000
AFIX   0
C9    1    0.540366    0.473626    0.234982    10.50000    0.16009    0.09480 =
         0.10126    0.00919    0.01599    0.02599
AFIX  23
H9A   2    0.538261    0.377367    0.241283    10.50000   -1.20000
H9B   2    0.353970    0.489273    0.236734    10.50000   -1.20000
AFIX   0
PART 0
PART 1
C9'   1    0.540177    0.528624    0.223852    10.50000    0.16375    0.13953 =
         0.10752    0.01981    0.03409    0.05827
AFIX  23
H9'A  2    0.373766    0.566478    0.230652    10.50000   -1.20000
H9'B  2    0.635595    0.563760    0.176285    10.50000   -1.20000
AFIX   0
PART 0
PART 2
C10   1    0.636827    0.484791    0.145105    10.50000    0.24954    0.14616 =
         0.09603    0.00772    0.03989    0.02568
AFIX  23
H10A  2    0.686598    0.585627    0.145946    10.50000   -1.20000
H10B  2    0.800493    0.444746    0.136704    10.50000   -1.20000
AFIX   0
PART 0
PART 1
C10'  1    0.469710    0.373424    0.195286    10.50000    0.39443    0.15307 =
         0.20361    0.00360   -0.07327    0.04837
AFIX  23
H10C  2    0.347692    0.338484    0.237088    10.50000   -1.20000
H10D  2    0.634550    0.334888    0.198240    10.50000   -1.20000
AFIX   0
PART 0
PART 2
C11   1    0.430412    0.409717    0.066082    10.50000    0.40787    0.21031 =
         0.17406    0.02354   -0.05098    0.00581
AFIX 137
H11A  2    0.404161    0.474484    0.029168    10.50000   -1.50000
H11B  2    0.259878    0.376599    0.088801    10.50000   -1.50000
H11C  2    0.491902    0.328861    0.028481    10.50000   -1.50000
AFIX   0
PART 0
PART 1
C11'  1    0.331999    0.323938    0.098019    10.50000    0.40787    0.21031 =
         0.17406    0.02354   -0.05098    0.00581
AFIX 137
H11D  2    0.265911    0.401837    0.082423    10.50000   -1.50000
H11E  2    0.180416    0.245102    0.093454    10.50000   -1.50000
H11F  2    0.461097    0.293048    0.055621    10.50000   -1.50000
AFIX   0
HKLF 4
 
REM  partial1_a.res in P-1
REM R1 =  0.0678 for    1250 Fo > 4sig(Fo)  and  0.1401 for all    2555 data
REM    208 parameters refined using    131 restraints
 
END  
     
WGHT      0.1167      0.1725 

REM Highest difference peak  0.293,  deepest hole -0.244,  1-sigma level  0.048
Q1    1   0.3571  0.4767  0.1847  11.00000  0.05    0.29
Q2    1   0.3069  1.0608  0.1224  11.00000  0.05    0.23
Q3    1   0.5936  0.4563  0.1532  11.00000  0.05    0.17
Q4    1   0.2267  0.8820  0.0757  11.00000  0.05    0.16
Q5    1   0.0995  0.7749  0.7439  11.00000  0.05    0.16
Q6    1  -0.0010  0.7480  0.7225  11.00000  0.05    0.15
Q7    1   0.8618  0.6431  0.4186  11.00000  0.05    0.15
Q8    1   1.0018  0.6257  0.3387  11.00000  0.05    0.15
Q9    1  -0.0046  0.6855  0.5576  11.00000  0.05    0.15
Q10   1  -0.1468  0.7049  0.7007  11.00000  0.05    0.15
Q11   1   0.4177  0.9650  0.1057  11.00000  0.05    0.14
Q12   1   0.4220  0.8648  0.1089  11.00000  0.05    0.14
Q13   1   0.3665  0.9220  0.1129  11.00000  0.05    0.14
Q14   1   0.8675  0.5374  0.1281  11.00000  0.05    0.13
Q15   1   0.6042  0.8138  0.3283  11.00000  0.05    0.13
Q16   1   0.2768  0.7952  0.6694  11.00000  0.05    0.13
Q17   1   0.4387  0.7265  0.3170  11.00000  0.05    0.13
Q18   1   0.9461  0.6085  0.3714  11.00000  0.05    0.13
Q19   1   0.5579  1.1238  0.2002  11.00000  0.05    0.12
Q20   1   0.7201  0.5886  0.3379  11.00000  0.05    0.12
Q21   1  -0.2562  0.7550  0.6815  11.00000  0.05    0.12
Q22   1   0.6351  1.1528  0.2214  11.00000  0.05    0.12
Q23   1   0.6791  0.3980  0.1357  11.00000  0.05    0.12
Q24   1   0.5621  0.7781  0.2573  11.00000  0.05    0.12
Q25   1   0.1433  0.9485  0.1428  11.00000  0.05    0.12
Q26   1  -0.0025  0.8207  0.2579  11.00000  0.05    0.11
Q27   1   0.0625  0.9165  0.1613  11.00000  0.05    0.11
Q28   1   0.7152  0.3209  0.1227  11.00000  0.05    0.11
Q29   1  -0.2738  0.6757  0.6603  11.00000  0.05    0.11
Q30   1   0.5432  1.2175  0.2855  11.00000  0.05    0.11
Q31   1   0.3460  0.7576  0.6976  11.00000  0.05    0.11
Q32   1   0.4645  0.8049  0.4031  11.00000  0.05    0.11
Q33   1   0.5766  0.7474  0.2440  11.00000  0.05    0.11
Q34   1   0.4165  0.8011  0.3201  11.00000  0.05    0.10
Q35   1   0.5948  1.1618  0.1219  11.00000  0.05    0.10
Q36   1   0.8000  0.5676  0.2911  11.00000  0.05    0.10
Q37   1   0.4927  0.4010  0.2223  11.00000  0.05    0.10
Q38   1   0.3968  0.2715  0.3176  11.00000  0.05    0.10
Q39   1   0.5261  0.7032  0.6191  11.00000  0.05    0.10
Q40   1   0.1059  0.6700  0.7181  11.00000  0.05    0.10
Q41   1   0.7683  0.6556  0.5026  11.00000  0.05    0.10
Q42   1   0.8733  0.7267  0.3565  11.00000  0.05    0.09
Q43   1   0.5012  1.1738  0.3590  11.00000  0.05    0.09
Q44   1   0.0944  0.9130  0.3033  11.00000  0.05    0.09
Q45   1   0.1009  0.9421  0.2201  11.00000  0.05    0.09
Q46   1   0.4106  0.7561  0.6214  11.00000  0.05    0.09
Q47   1   0.8310  0.1812  0.1825  11.00000  0.05    0.09
Q48   1   0.4575  0.9956  0.3169  11.00000  0.05    0.09
Q49   1   0.5755  0.6612  0.5774  11.00000  0.05    0.09
Q50   1   0.1544  0.9301  0.3199  11.00000  0.05    0.09
Q51   1  -0.0753  0.8267  0.5925  11.00000  0.05    0.09
Q52   1   0.5344  0.8396  0.1582  11.00000  0.05    0.09
Q53   1   0.1388  0.5173 -0.0172  11.00000  0.05    0.09
Q54   1   0.3301  0.8867  0.4424  11.00000  0.05    0.09
Q55   1   0.2254  0.8775  0.5134  11.00000  0.05    0.09
Q56   1   0.1254  0.7052  0.3839  11.00000  0.05    0.09
Q57   1   0.8255  0.8340  0.3086  11.00000  0.05    0.08
Q58   1   0.2311  0.6943  0.3100  11.00000  0.05    0.08
Q59   1   0.7295  0.5332  0.0845  11.00000  0.05    0.08
Q60   1  -0.1880  0.7332  0.0484  11.00000  0.05    0.08

  REM The information below was added by Olex2.
  REM
  REM R1 = 0.0678 for 1250 Fo > 4sig(Fo) and 0.1401 for all 11286 data
  REM n/a parameters refined using n/a restraints
  REM Highest difference peak 0.29, deepest hole -0.24
  REM Mean Shift 0, Max Shift 0.000.

  REM +++ Tabular Listing of Refinement Information +++
  REM R1_all = 0.1401
  REM R1_gt = 0.0678
  REM wR_ref = 0.2561
  REM GOOF = 1.070
  REM Shift_max = 0.000
  REM Shift_mean = 0
  REM Reflections_all = 11286
  REM Reflections_gt = 1250
  REM Parameters = n/a
  REM Hole = -0.24
  REM Peak = 0.29
  REM Flack = n/a

  
;
_cod_data_source_file            c7ce01049d2.cif
_cod_data_source_block           partial1_a
_cod_database_code               7228724
_shelx_shelxl_version_number     2014/7
_shelx_space_group_comment
;
The symmetry employed for this shelxl refinement is uniquely defined
by the following loop, which should always be used as a source of
symmetry information in preference to the above space-group names.
They are only intended as comments.
;
_olex2_refinement_description
;
1. Fixed Uiso
 At 1.2 times of:
  All C(H,H) groups, All C(H,H,H,H) groups
 At 1.5 times of:
  All C(H,H,H) groups
2. Restrained distances
 H7C-H11A
 3.826 with sigma of 0.02
 C5-C4 \\sim C5'-C4 \\sim C6'-C5' \\sim C6-C5 \\sim C7-C6 \\sim C7'-C6' \\sim
C9-C8 \\sim C9'-C8 \\sim C9'-
 C10' \\sim C9-C10 \\sim C11-C10 \\sim C11'-C10'
 with sigma of 0.02
 C4-C6 \\sim C5-C7
 with sigma of 0.02
 C4-C6' \\sim C5'-C7'
 with sigma of 0.02
 C8-C10 \\sim C9-C11
 with sigma of 0.02
 C8-C10' \\sim C9'-C11'
 with sigma of 0.02
3. Uiso/Uaniso restraints and constraints
Uanis(C7) = Uanis(C7')
Uanis(C11) = Uanis(C11')
4. Rigid body (RIGU) restrains
 C4, H4BD, H4BC, H4AB, H4AA, C5, H5A, H5B, C5', H5'A, H5'B, C6, H6B, H6A, C6',
 H6'A, H6'B, C7, H7A, H7B, H7C, C7', H7'A, H7'B, H7'C
 with sigma for 1-2 distances of 0.004 and sigma for 1-3 distances of 0.004
 C8, H8AB, H8AA, H8BD, H8BC, C9, H9A, H9B, C9', H9'A, H9'B, C10, H10A, H10B,
 C10', H10C, H10D, C11, H11A, H11B, H11C, C11', H11D, H11E, H11F
 with sigma for 1-2 distances of 0.004 and sigma for 1-3 distances of 0.004
5. Others
 Fixed Sof: H4BD(0.5) H4BC(0.5) H4AB(0.5) H4AA(0.5) C5(0.5) H5A(0.5) H5B(0.5)
 C5'(0.5) H5'A(0.5) H5'B(0.5) C6(0.5) H6B(0.5) H6A(0.5) C6'(0.5) H6'A(0.5)
 H6'B(0.5) C7(0.5) H7A(0.5) H7B(0.5) H7C(0.5) C7'(0.5) H7'A(0.5) H7'B(0.5)
 H7'C(0.5) H8AB(0.5) H8AA(0.5) H8BD(0.5) H8BC(0.5) C9(0.5) H9A(0.5) H9B(0.5)
 C9'(0.5) H9'A(0.5) H9'B(0.5) C10(0.5) H10A(0.5) H10B(0.5) C10'(0.5) H10C(0.5)
 H10D(0.5) C11(0.5) H11A(0.5) H11B(0.5) H11C(0.5) C11'(0.5) H11D(0.5) H11E(0.5)
 H11F(0.5)
6.a Secondary CH2 refined with riding coordinates:
 C4(H4BD,H4BC), C4(H4AB,H4AA), C5(H5A,H5B), C5'(H5'A,H5'B), C6(H6B,H6A),
 C6'(H6'A,H6'B), C8(H8AB,H8AA), C8(H8BD,H8BC), C9(H9A,H9B), C9'(H9'A,H9'B),
 C10(H10A,H10B), C10'(H10C,H10D)
6.b Idealised Me refined as rotating group:
 C7(H7A,H7B,H7C), C7'(H7'A,H7'B,H7'C), C11(H11A,H11B,H11C), C11'(H11D,H11E,H11F)
;
_olex2_submission_special_instructions 'No special instructions were received'
loop_
_space_group_symop_operation_xyz
'x, y, z'
'-x, -y, -z'
loop_
_atom_site_label
_atom_site_type_symbol
_atom_site_fract_x
_atom_site_fract_y
_atom_site_fract_z
_atom_site_U_iso_or_equiv
_atom_site_adp_type
_atom_site_occupancy
_atom_site_site_symmetry_order
_atom_site_calc_flag
_atom_site_refinement_flags_posn
_atom_site_refinement_flags_adp
_atom_site_refinement_flags_occupancy
_atom_site_disorder_assembly
_atom_site_disorder_group
Cl Cl 0.0180(3) 0.71833(12) 0.63483(9) 0.0880(6) Uani 1 1 d . . . . .
N1 N 0.1293(7) 0.8451(3) 0.5097(2) 0.0664(10) Uani 1 1 d . . . . .
N2 N 0.4135(7) 0.7700(3) 0.3931(2) 0.0688(11) Uani 1 1 d . . . . .
N3 N 0.3257(7) 0.6476(3) 0.5092(3) 0.0690(11) Uani 1 1 d . . . . .
N4 N 0.2281(9) 0.9631(4) 0.3988(3) 0.0744(12) Uani 1 1 d . . . . .
H4 H 0.123(8) 1.007(4) 0.426(2) 0.047(11) Uiso 1 1 d . . . . .
N5 N 0.5927(8) 0.5774(4) 0.3959(3) 0.0744(12) Uani 1 1 d . . . . .
H5 H 0.597(8) 0.521(4) 0.425(3) 0.064(14) Uiso 1 1 d . . . . .
C1 C 0.1765(9) 0.7398(4) 0.5397(3) 0.0647(12) Uani 1 1 d . . . . .
C2 C 0.2588(9) 0.8560(4) 0.4348(3) 0.0658(12) Uani 1 1 d . . . . .
C3 C 0.4411(9) 0.6678(4) 0.4334(3) 0.0648(12) Uani 1 1 d . . . . .
C4 C 0.3441(11) 0.9879(5) 0.3192(3) 0.0797(14) Uani 1 1 d D U . . .
H4BD H 0.5195 0.9586 0.3160 0.096 Uiso 0.5 1 calc R U P A 2
H4BC H 0.3764 1.0900 0.3232 0.096 Uiso 0.5 1 calc R U P A 2
H4AB H 0.5273 0.9678 0.3214 0.096 Uiso 0.5 1 calc R U P B 1
H4AA H 0.3648 1.0897 0.3234 0.096 Uiso 0.5 1 calc R U P B 1
C5 C 0.200(6) 0.908(3) 0.2275(9) 0.143(10) Uani 0.5 1 d D U P C 1
H5A H 0.0097 0.9167 0.2254 0.172 Uiso 0.5 1 calc R U P C 1
H5B H 0.2048 0.8063 0.2165 0.172 Uiso 0.5 1 calc R U P C 1
C5' C 0.162(5) 0.908(2) 0.2350(8) 0.089(5) Uani 0.5 1 d D U P C 2
H5'A H -0.0081 0.9421 0.2369 0.107 Uiso 0.5 1 calc R U P C 2
H5'B H 0.1191 0.8068 0.2342 0.107 Uiso 0.5 1 calc R U P C 2
C6 C 0.339(10) 0.967(5) 0.153(2) 0.248(19) Uani 0.5 1 d D U P C 1
H6B H 0.3541 1.0702 0.1675 0.297 Uiso 0.5 1 calc R U P C 1
H6A H 0.5222 0.9470 0.1494 0.297 Uiso 0.5 1 calc R U P C 1
C6' C 0.285(6) 0.922(3) 0.1463(14) 0.140(7) Uani 0.5 1 d D U P C 2
H6'A H 0.3016 1.0199 0.1416 0.168 Uiso 0.5 1 calc R U P C 2
H6'B H 0.4679 0.9009 0.1478 0.168 Uiso 0.5 1 calc R U P C 2
C7 C 0.172(12) 0.897(5) 0.063(2) 0.339(17) Uani 0.5 1 d D U P C 1
H7A H 0.1344 0.9699 0.0341 0.508 Uiso 0.5 1 calc GR U P C 1
H7B H 0.0026 0.8412 0.0732 0.508 Uiso 0.5 1 calc GR U P C 1
H7C H 0.2712 0.8359 0.0230 0.508 Uiso 0.5 1 calc DGR U P C 1
C7' C 0.108(12) 0.820(5) 0.063(2) 0.339(17) Uani 0.5 1 d D U P C 2
H7'A H -0.0803 0.8260 0.0689 0.508 Uiso 0.5 1 calc GR U P C 2
H7'B H 0.1290 0.7233 0.0595 0.508 Uiso 0.5 1 calc GR U P C 2
H7'C H 0.1633 0.8452 0.0075 0.508 Uiso 0.5 1 calc GR U P C 2
C8 C 0.7191(11) 0.5806(5) 0.3143(3) 0.0832(15) Uani 1 1 d D U . . .
H8AB H 0.8589 0.5232 0.3109 0.100 Uiso 0.5 1 calc R U P D 1
H8AA H 0.8125 0.6790 0.3201 0.100 Uiso 0.5 1 calc R U P D 1
H8BD H 0.8985 0.5566 0.3193 0.100 Uiso 0.5 1 calc R U P E 2
H8BC H 0.7428 0.6761 0.3045 0.100 Uiso 0.5 1 calc R U P E 2
C9 C 0.540(4) 0.4736(17) 0.2350(8) 0.122(6) Uani 0.5 1 d D U P F 2
H9A H 0.5383 0.3774 0.2413 0.146 Uiso 0.5 1 calc R U P F 2
H9B H 0.3540 0.4893 0.2367 0.146 Uiso 0.5 1 calc R U P F 2
C9' C 0.540(5) 0.5286(16) 0.2239(10) 0.135(6) Uani 0.5 1 d D U P F 1
H9'A H 0.3738 0.5665 0.2307 0.162 Uiso 0.5 1 calc R U P F 1
H9'B H 0.6356 0.5638 0.1763 0.162 Uiso 0.5 1 calc R U P F 1
C10 C 0.637(4) 0.4848(19) 0.1451(9) 0.170(6) Uani 0.5 1 d D U P F 2
H10A H 0.6866 0.5856 0.1459 0.204 Uiso 0.5 1 calc R U P F 2
H10B H 0.8005 0.4447 0.1367 0.204 Uiso 0.5 1 calc R U P F 2
C10' C 0.470(6) 0.3734(16) 0.1953(16) 0.263(15) Uani 0.5 1 d D U P F 1
H10C H 0.3477 0.3385 0.2371 0.316 Uiso 0.5 1 calc R U P F 1
H10D H 0.6346 0.3349 0.1982 0.316 Uiso 0.5 1 calc R U P F 1
C11 C 0.430(7) 0.410(3) 0.0661(15) 0.280(11) Uani 0.5 1 d D U P F 2
H11A H 0.4042 0.4745 0.0292 0.420 Uiso 0.5 1 calc DGR U P F 2
H11B H 0.2599 0.3766 0.0888 0.420 Uiso 0.5 1 calc GR U P F 2
H11C H 0.4919 0.3289 0.0285 0.420 Uiso 0.5 1 calc GR U P F 2
C11' C 0.332(8) 0.324(3) 0.0980(16) 0.280(11) Uani 0.5 1 d D U P F 1
H11D H 0.2659 0.4018 0.0824 0.420 Uiso 0.5 1 calc GR U P F 1
H11E H 0.1804 0.2451 0.0935 0.420 Uiso 0.5 1 calc GR U P F 1
H11F H 0.4611 0.2930 0.0556 0.420 Uiso 0.5 1 calc GR U P F 1
loop_
_atom_site_aniso_label
_atom_site_aniso_U_11
_atom_site_aniso_U_22
_atom_site_aniso_U_33
_atom_site_aniso_U_23
_atom_site_aniso_U_13
_atom_site_aniso_U_12
Cl 0.1025(11) 0.0798(9) 0.1086(11) 0.0460(7) 0.0407(8) 0.0490(7)
N1 0.074(3) 0.057(2) 0.082(3) 0.0270(19) 0.015(2) 0.0324(19)
N2 0.073(3) 0.054(2) 0.088(3) 0.0227(19) 0.016(2) 0.0290(19)
N3 0.074(3) 0.056(2) 0.090(3) 0.0267(19) 0.018(2) 0.032(2)
N4 0.086(3) 0.066(2) 0.090(3) 0.031(2) 0.023(2) 0.044(2)
N5 0.084(3) 0.059(2) 0.097(3) 0.032(2) 0.027(2) 0.037(2)
C1 0.068(3) 0.055(2) 0.080(3) 0.023(2) 0.015(2) 0.027(2)
C2 0.068(3) 0.049(2) 0.084(3) 0.019(2) 0.002(3) 0.023(2)
C3 0.066(3) 0.048(2) 0.085(3) 0.017(2) 0.012(3) 0.022(2)
C4 0.093(4) 0.076(3) 0.091(3) 0.040(3) 0.026(3) 0.039(3)
C5 0.151(18) 0.167(18) 0.100(8) 0.019(8) 0.015(9) 0.027(13)
C5' 0.105(10) 0.093(9) 0.085(6) 0.046(5) 0.023(5) 0.028(7)
C6 0.30(3) 0.29(4) 0.108(9) 0.033(12) 0.038(11) -0.03(2)
C6' 0.174(16) 0.165(15) 0.093(8) 0.054(8) 0.037(8) 0.033(12)
C7 0.41(3) 0.39(4) 0.130(7) 0.062(11) 0.012(10) -0.11(3)
C7' 0.41(3) 0.39(4) 0.130(7) 0.062(11) 0.012(10) -0.11(3)
C8 0.095(4) 0.074(3) 0.096(4) 0.028(3) 0.032(3) 0.043(3)
C9 0.160(12) 0.095(10) 0.101(7) 0.009(6) 0.016(7) 0.026(9)
C9' 0.164(13) 0.140(13) 0.108(9) 0.020(7) 0.034(8) 0.058(10)
C10 0.250(17) 0.146(12) 0.096(7) 0.008(7) 0.040(8) 0.026(11)
C10' 0.39(4) 0.153(12) 0.204(14) 0.004(9) -0.073(19) 0.048(12)
C11 0.41(3) 0.21(2) 0.174(11) 0.024(10) -0.051(14) 0.006(16)
C11' 0.41(3) 0.21(2) 0.174(11) 0.024(10) -0.051(14) 0.006(16)
loop_
_atom_type_symbol
_atom_type_description
_atom_type_scat_dispersion_real
_atom_type_scat_dispersion_imag
_atom_type_scat_source
C C 0.0033 0.0016 'International Tables Vol C Tables 4.2.6.8 and 6.1.1.4'
H H 0.0000 0.0000 'International Tables Vol C Tables 4.2.6.8 and 6.1.1.4'
Cl Cl 0.1484 0.1585 'International Tables Vol C Tables 4.2.6.8 and 6.1.1.4'
N N 0.0061 0.0033 'International Tables Vol C Tables 4.2.6.8 and 6.1.1.4'
loop_
_geom_angle_atom_site_label_1
_geom_angle_atom_site_label_2
_geom_angle_atom_site_label_3
_geom_angle
C1 N1 C2 112.0(3)
C2 N2 C3 113.9(4)
C1 N3 C3 112.3(3)
C2 N4 H4 110(3)
C2 N4 C4 124.5(4)
C4 N4 H4 125(3)
C3 N5 H5 110(3)
C3 N5 C8 124.0(4)
C8 N5 H5 126(3)
N1 C1 Cl 114.9(3)
N1 C1 N3 130.3(4)
N3 C1 Cl 114.9(3)
N2 C2 N1 126.1(4)
N2 C2 N4 116.8(5)
N4 C2 N1 117.1(4)
N2 C3 N3 125.5(4)
N5 C3 N2 117.5(4)
N5 C3 N3 117.0(4)
N4 C4 H4BD 109.5
N4 C4 H4BC 109.5
N4 C4 H4AB 107.7
N4 C4 H4AA 107.7
N4 C4 C5 118.4(10)
N4 C4 C5' 110.7(9)
H4BD C4 H4BC 108.1
H4AB C4 H4AA 107.1
C5 C4 H4AB 107.7
C5 C4 H4AA 107.7
C5' C4 H4BD 109.5
C5' C4 H4BC 109.5
C4 C5 H5A 109.8
C4 C5 H5B 109.8
C4 C5 C6 109.3(19)
H5A C5 H5B 108.3
C6 C5 H5A 109.8
C6 C5 H5B 109.8
C4 C5' H5'A 108.9
C4 C5' H5'B 108.9
C4 C5' C6' 113.2(16)
H5'A C5' H5'B 107.7
C6' C5' H5'A 108.9
C6' C5' H5'B 108.9
C5 C6 H6B 110.0
C5 C6 H6A 110.0
H6B C6 H6A 108.4
C7 C6 C5 108(2)
C7 C6 H6B 110.0
C7 C6 H6A 110.0
C5' C6' H6'A 109.6
C5' C6' H6'B 109.6
H6'A C6' H6'B 108.1
C7' C6' C5' 110.4(17)
C7' C6' H6'A 109.6
C7' C6' H6'B 109.6
C6 C7 H7A 109.5
C6 C7 H7B 109.5
C6 C7 H7C 109.5
H7A C7 H7B 109.5
H7A C7 H7C 109.5
H7B C7 H7C 109.5
C6' C7' H7'A 109.5
C6' C7' H7'B 109.5
C6' C7' H7'C 109.5
H7'A C7' H7'B 109.5
H7'A C7' H7'C 109.5
H7'B C7' H7'C 109.5
N5 C8 H8AB 107.9
N5 C8 H8AA 107.9
N5 C8 H8BD 110.1
N5 C8 H8BC 110.1
N5 C8 C9 108.0(8)
N5 C8 C9' 117.5(10)
H8AB C8 H8AA 107.2
H8BD C8 H8BC 108.4
C9 C8 H8BD 110.1
C9 C8 H8BC 110.1
C9' C8 H8AB 107.9
C9' C8 H8AA 107.9
C8 C9 H9A 109.3
C8 C9 H9B 109.3
H9A C9 H9B 108.0
C10 C9 C8 111.5(13)
C10 C9 H9A 109.3
C10 C9 H9B 109.3
C8 C9' H9'A 109.5
C8 C9' H9'B 109.5
H9'A C9' H9'B 108.1
C10' C9' C8 110.7(15)
C10' C9' H9'A 109.5
C10' C9' H9'B 109.5
C9 C10 H10A 109.0
C9 C10 H10B 109.0
H10A C10 H10B 107.8
C11 C10 C9 112.8(15)
C11 C10 H10A 109.0
C11 C10 H10B 109.0
C9' C10' H10C 109.7
C9' C10' H10D 109.7
C9' C10' C11' 109.6(15)
H10C C10' H10D 108.2
C11' C10' H10C 109.7
C11' C10' H10D 109.7
C10 C11 H11A 109.5
C10 C11 H11B 109.5
C10 C11 H11C 109.5
H11A C11 H11B 109.5
H11A C11 H11C 109.5
H11B C11 H11C 109.5
C10' C11' H11D 109.5
C10' C11' H11E 109.5
C10' C11' H11F 109.5
H11D C11' H11E 109.5
H11D C11' H11F 109.5
H11E C11' H11F 109.5
loop_
_geom_bond_atom_site_label_1
_geom_bond_atom_site_label_2
_geom_bond_distance
Cl C1 1.731(4)
N1 C1 1.305(5)
N1 C2 1.361(5)
N2 C2 1.339(5)
N2 C3 1.342(5)
N3 C1 1.313(5)
N3 C3 1.361(5)
N4 H4 0.82(4)
N4 C2 1.349(5)
N4 C4 1.428(6)
N5 H5 0.80(4)
N5 C3 1.336(5)
N5 C8 1.430(6)
C4 H4BD 0.9900
C4 H4BC 0.9900
C4 H4AB 0.9900
C4 H4AA 0.9900
C4 C5 1.497(12)
C4 C5' 1.492(11)
C5 H5A 0.9900
C5 H5B 0.9900
C5 C6 1.549(14)
C5' H5'A 0.9900
C5' H5'B 0.9900
C5' C6' 1.540(13)
C6 H6B 0.9900
C6 H6A 0.9900
C6 C7 1.500(14)
C6' H6'A 0.9900
C6' H6'B 0.9900
C6' C7' 1.532(13)
C7 H7A 0.9800
C7 H7B 0.9800
C7 H7C 0.9800
C7' H7'A 0.9800
C7' H7'B 0.9800
C7' H7'C 0.9800
C8 H8AB 0.9900
C8 H8AA 0.9900
C8 H8BD 0.9900
C8 H8BC 0.9900
C8 C9 1.518(11)
C8 C9' 1.525(12)
C9 H9A 0.9900
C9 H9B 0.9900
C9 C10 1.497(14)
C9' H9'A 0.9900
C9' H9'B 0.9900
C9' C10' 1.472(14)
C10 H10A 0.9900
C10 H10B 0.9900
C10 C11 1.495(13)
C10' H10C 0.9900
C10' H10D 0.9900
C10' C11' 1.524(13)
C11 H11A 0.9800
C11 H11B 0.9800
C11 H11C 0.9800
C11' H11D 0.9800
C11' H11E 0.9800
C11' H11F 0.9800
loop_
_geom_torsion_atom_site_label_1
_geom_torsion_atom_site_label_2
_geom_torsion_atom_site_label_3
_geom_torsion_atom_site_label_4
_geom_torsion
N4 C4 C5 C6 172(2)
N4 C4 C5' C6' -175.9(14)
N5 C8 C9 C10 171.6(13)
N5 C8 C9' C10' -77(2)
C1 N1 C2 N2 1.4(7)
C1 N1 C2 N4 -178.9(4)
C1 N3 C3 N2 0.8(7)
C1 N3 C3 N5 -178.6(4)
C2 N1 C1 Cl -179.8(3)
C2 N1 C1 N3 0.3(7)
C2 N2 C3 N3 0.5(7)
C2 N2 C3 N5 180.0(4)
C2 N4 C4 C5 83.3(18)
C2 N4 C4 C5' 87.9(12)
C3 N2 C2 N1 -1.8(7)
C3 N2 C2 N4 178.5(4)
C3 N3 C1 Cl 178.8(3)
C3 N3 C1 N1 -1.3(7)
C3 N5 C8 C9 -97.2(10)
C3 N5 C8 C9' -74.0(9)
C4 N4 C2 N1 -178.4(4)
C4 N4 C2 N2 1.4(7)
C4 C5 C6 C7 -173(4)
C4 C5' C6' C7' 171(3)
C8 N5 C3 N2 -2.0(7)
C8 N5 C3 N3 177.4(4)
C8 C9 C10 C11 -164.8(19)
C8 C9' C10' C11' -171(2)
