#------------------------------------------------------------------------------
#$Date: 2017-04-13 04:57:16 +0300 (Thu, 13 Apr 2017) $
#$Revision: 195397 $
#$URL: file:///home/coder/svn-repositories/cod/cif/7/22/80/7228059.cif $
#------------------------------------------------------------------------------
#
# This file is available in the Crystallography Open Database (COD),
# http://www.crystallography.net/
#
# All data on this site have been placed in the public domain by the
# contributors.
#
data_7228059
loop_
_publ_author_name
'Li, Zhongyi'
'Zhang, Chi'
'Zhai, Bin'
'Han, Jing-Cheng'
'Pei, Meng-Chun'
'Zhang, Jian-Jun'
'Zhang, Fuli'
'Li, Suzhi'
'Cao, Guangxiu'
_publ_section_title
;
 Linking heterometallic Cu-Ln chain unit with 2-methylenesuccinate bridge
 to form 2D network exhibiting large magnetocaloric effect
;
_journal_name_full               CrystEngComm
_journal_paper_doi               10.1039/C7CE00356K
_journal_year                    2017
_chemical_formula_sum            'C20 H32 Cu Dy2 O24'
_chemical_formula_weight         1044.99
_space_group_crystal_system      triclinic
_space_group_IT_number           2
_space_group_name_Hall           '-P 1'
_space_group_name_H-M_alt        'P -1'
_symmetry_space_group_name_Hall  '-P 1'
_symmetry_space_group_name_H-M   'P -1'
_atom_sites_solution_hydrogens   mixed
_audit_creation_method           SHELXL-2016/6
_audit_update_record
;
2017-02-14 deposited with the CCDC.
2017-04-12 downloaded from the CCDC.
;
_cell_angle_alpha                109.409(4)
_cell_angle_beta                 99.928(4)
_cell_angle_gamma                98.943(4)
_cell_formula_units_Z            1
_cell_length_a                   6.9551(8)
_cell_length_b                   10.5490(11)
_cell_length_c                   11.4502(12)
_cell_measurement_reflns_used    9725
_cell_measurement_temperature    299(2)
_cell_measurement_theta_max      28.34
_cell_measurement_theta_min      3.05
_cell_volume                     759.75(15)
_computing_cell_refinement       'Bruker SAINT'
_computing_data_collection       'Bruker APEX2'
_computing_data_reduction        'Bruker SAINT'
_computing_molecular_graphics    'Bruker SHELXTL'
_computing_publication_material  'Bruker SHELXTL'
_computing_structure_refinement  'SHELXL-2016/6 (Sheldrick, 2016)'
_computing_structure_solution    'SHELXT 2014/4 (Sheldrick, 2014)'
_diffrn_ambient_temperature      299(2)
_diffrn_measured_fraction_theta_full 0.997
_diffrn_measured_fraction_theta_max 0.997
_diffrn_measurement_device_type  'Bruker APEX-II CCD'
_diffrn_measurement_method       '\f and \w scans'
_diffrn_radiation_type           MoK\a
_diffrn_radiation_wavelength     0.71073
_diffrn_reflns_av_R_equivalents  0.0283
_diffrn_reflns_av_unetI/netI     0.0156
_diffrn_reflns_Laue_measured_fraction_full 0.997
_diffrn_reflns_Laue_measured_fraction_max 0.997
_diffrn_reflns_limit_h_max       8
_diffrn_reflns_limit_h_min       -8
_diffrn_reflns_limit_k_max       12
_diffrn_reflns_limit_k_min       -12
_diffrn_reflns_limit_l_max       13
_diffrn_reflns_limit_l_min       -13
_diffrn_reflns_number            21325
_diffrn_reflns_point_group_measured_fraction_full 0.997
_diffrn_reflns_point_group_measured_fraction_max 0.997
_diffrn_reflns_theta_full        24.998
_diffrn_reflns_theta_max         24.998
_diffrn_reflns_theta_min         3.055
_exptl_absorpt_coefficient_mu    5.661
_exptl_absorpt_correction_T_max  0.7457
_exptl_absorpt_correction_T_min  0.5714
_exptl_absorpt_correction_type   multi-scan
_exptl_absorpt_process_details   'SADABS (Sheldrick,1996)'
_exptl_crystal_colour            blue
_exptl_crystal_density_diffrn    2.284
_exptl_crystal_description       block
_exptl_crystal_F_000             505
_exptl_crystal_size_max          0.32
_exptl_crystal_size_mid          0.26
_exptl_crystal_size_min          0.12
_refine_diff_density_max         3.000
_refine_diff_density_min         -0.668
_refine_diff_density_rms         0.124
_refine_ls_extinction_method     none
_refine_ls_goodness_of_fit_ref   1.048
_refine_ls_hydrogen_treatment    mixed
_refine_ls_matrix_type           full
_refine_ls_number_parameters     238
_refine_ls_number_reflns         2667
_refine_ls_number_restraints     8
_refine_ls_restrained_S_all      1.047
_refine_ls_R_factor_all          0.0230
_refine_ls_R_factor_gt           0.0211
_refine_ls_shift/su_max          0.000
_refine_ls_shift/su_mean         0.000
_refine_ls_structure_factor_coef Fsqd
_refine_ls_weighting_details
'w=1/[\s^2^(Fo^2^)+(0.0316P)^2^+2.8483P] where P=(Fo^2^+2Fc^2^)/3'
_refine_ls_weighting_scheme      calc
_refine_ls_wR_factor_gt          0.0555
_refine_ls_wR_factor_ref         0.0566
_reflns_Friedel_coverage         0.000
_reflns_number_gt                2547
_reflns_number_total             2667
_reflns_threshold_expression     'I > 2\s(I)'
_cod_data_source_file            c7ce00356k2.cif
_cod_data_source_block           1_a
_cod_original_cell_volume        759.75(14)
_cod_database_code               7228059
_shelx_shelxl_version_number     2016/6
_shelx_space_group_comment
;
The symmetry employed for this shelxl refinement is uniquely defined
by the following loop, which should always be used as a source of
symmetry information in preference to the above space-group names.
They are only intended as comments.
;
_shelx_res_file
;

TITL 1_a.res in P-1
    1_a.res
    created by SHELXL-2016/6 at 16:34:53 on 14-Feb-2017
REM Old TITL 1 in P1

REM SHELXT solution in P-1
REM R1 0.047,  Rweak 0.011,  Alpha 0.035,  Orientation as input
REM Formula found by SHELXT:  C20 N2 O22 Cu Gd2

CELL  0.71073   6.9551  10.5490  11.4502  109.409   99.928   98.943
ZERR    1.000   0.0008   0.0011   0.0012    0.004    0.004    0.004
LATT  1
SFAC C H O CU Dy
UNIT 20 32 24 1 2
TEMP 25.980
L.S. 10
acta
omit 0 50
omit 0 -2 2
omit -1 1 0
dfix 0.85 o9 h9a o9 h9b o10 h10c o10 h10d
dfix 0.85 o11 h11a o11 h11b o12 h12a o12 h12b
BOND $H
LIST 6
FMAP 2
PLAN 20

WGHT    0.031600    2.848300
FVAR       0.59670
DY1   5    0.640388    0.707038    0.098770    11.00000    0.01466    0.01430 =
         0.01540    0.00442    0.00465    0.00513
CU1   4    1.000000    1.000000    0.500000    10.50000    0.01579    0.02478 =
         0.01750    0.00412    0.00479    0.00366
O1    3    0.730588    0.745158    0.318185    11.00000    0.02514    0.03878 =
         0.01988    0.00929    0.00929    0.00530
C1    1    0.688243    0.774174    0.424273    11.00000    0.01546    0.02701 =
         0.02082    0.01408    0.00562    0.01010
O2    3    0.780959    0.879200    0.519970    11.00000    0.02355    0.03350 =
         0.02122    0.00432    0.00560    0.00006
C2    1    0.523538    0.677948    0.444924    11.00000    0.01784    0.03879 =
         0.02676    0.01745    0.00446    0.00830
AFIX  23
H2A   2    0.429757    0.624194    0.363448    11.00000   -1.20000
H2B   2    0.582266    0.614143    0.475989    11.00000   -1.20000
AFIX   0
O3    3    0.234569    0.807995    0.372437    11.00000    0.03836    0.05025 =
         0.01848    0.01090    0.00621    0.02522
C3    1    0.409893    0.749819    0.537228    11.00000    0.01771    0.03853 =
         0.02607    0.01856    0.00886    0.00732
O4    3    0.188955    0.904107    0.566433    11.00000    0.02318    0.03791 =
         0.02120    0.00916    0.00860    0.01246
C4    1    0.269299    0.826193    0.487460    11.00000    0.01565    0.03000 =
         0.02116    0.00877    0.00500    0.00306
O5    3    0.639261    0.262603    0.055920    11.00000    0.02273    0.01892 =
         0.02938    0.00790    0.00262    0.00563
C5    1    0.416886    0.736174    0.647094    11.00000    0.06519    0.07511 =
         0.06781    0.03483    0.02676    0.02634
AFIX  93
H5A   2    0.494331    0.680294    0.670679    11.00000   -1.20000
H5B   2    0.344420    0.782341    0.701712    11.00000   -1.20000
AFIX   0
O6    3    0.613000    0.475272    0.094036    11.00000    0.02421    0.01905 =
         0.02095    0.00807    0.00863    0.01056
C6    1    0.708833    0.388185    0.115886    11.00000    0.01550    0.02116 =
         0.01517    0.00719    0.00750    0.00623
O7    3    1.137412    0.399442    0.033149    11.00000    0.03453    0.02298 =
         0.03093    0.01447    0.01798    0.01152
C7    1    0.905270    0.440031    0.215891    11.00000    0.01976    0.03513 =
         0.01783    0.00496    0.00470    0.00768
AFIX  23
H7A   2    0.978209    0.524284    0.212237    11.00000   -1.20000
H7B   2    0.877549    0.462156    0.299673    11.00000   -1.20000
AFIX   0
O8    3    1.232025    0.222537    0.062518    11.00000    0.02518    0.03030 =
         0.03095    0.01793    0.01201    0.01526
C8    1    1.035232    0.336222    0.198544    11.00000    0.01475    0.04033 =
         0.02136    0.01171    0.00457    0.00749
O9    3    0.968809    0.854389    0.196532    11.00000    0.01770    0.04216 =
         0.02767    0.01953    0.00266    0.00289
C9    1    1.139569    0.317569    0.092001    11.00000    0.01114    0.02426 =
         0.01648    0.00572   -0.00021    0.00168
H9A   2    1.043312    0.886568    0.157783    11.00000   -1.20000
H9B   2    1.049032    0.844784    0.255295    11.00000   -1.20000
O10   3    0.601087    0.933360    0.184370    11.00000    0.03398    0.02320 =
         0.03646   -0.00345   -0.00804    0.01534
C10   1    1.060877    0.267037    0.272830    11.00000    0.04544    0.08772 =
         0.05217    0.04729    0.02701    0.03884
AFIX  93
H10A  2    1.144457    0.205458    0.260018    11.00000   -1.20000
H10B  2    0.995649    0.279105    0.338805    11.00000   -1.20000
AFIX   0
H10C  2    0.497984    0.962509    0.165117    11.00000   -1.20000
H10D  2    0.667266    0.984981    0.258742    11.00000   -1.20000
O11   3    0.333113    0.668268    0.156328    11.00000    0.02071    0.02885 =
         0.02137   -0.00150    0.00941    0.00130
H11A  2    0.246566    0.594324    0.126751    11.00000   -1.20000
H11B  2    0.307738    0.705023    0.226674    11.00000   -1.20000
O12   3    0.238465    0.970624    0.083153    11.00000    0.03538    0.02814 =
         0.03730    0.01435    0.01277    0.01356
H12A  2    0.234565    1.041921    0.066068    11.00000   -1.20000
H12B  2    0.249546    0.923083    0.008766    11.00000   -1.20000
HKLF 4




REM  1_a.res in P-1
REM R1 =  0.0211 for    2547 Fo > 4sig(Fo)  and  0.0230 for all    2667 data
REM    238 parameters refined using      8 restraints

END

WGHT      0.0259      2.8839

REM Highest difference peak  3.000,  deepest hole -0.668,  1-sigma level  0.124
Q1    1   0.4683  0.5566  0.3837  11.00000  0.05    3.00
Q2    1   0.9429  0.5112  0.3085  11.00000  0.05    0.64
Q3    1   0.4764  0.8224  0.6029  11.00000  0.05    0.41
Q4    1   0.3363  0.4957  0.4003  11.00000  0.05    0.38
Q5    1   0.5739  0.5394  0.5816  11.00000  0.05    0.35
Q6    1   0.5312  0.5119  0.2798  11.00000  0.05    0.32
Q7    1   0.7273  0.7104  0.1969  11.00000  0.05    0.29
Q8    1   0.5259  0.4182  0.0204  11.00000  0.05    0.29
Q9    1   0.7465  0.9337  0.4600  11.00000  0.05    0.27
Q10   1   0.8077  0.2281  0.1534  11.00000  0.05    0.27
Q11   1   0.3326  1.0425  0.5998  11.00000  0.05    0.27
Q12   1   0.3758  1.1239  0.0373  11.00000  0.05    0.26
Q13   1   0.5499  0.4234  0.1024  11.00000  0.05    0.26
Q14   1   0.9596  0.4054 -0.0375  11.00000  0.05    0.26
Q15   1   0.8521  0.9049  0.5787  11.00000  0.05    0.26
Q16   1   0.3023  0.6711  0.5445  11.00000  0.05    0.26
Q17   1   0.6735  0.1993  0.1133  11.00000  0.05    0.25
Q18   1   0.8244  0.4118  0.1599  11.00000  0.05    0.25
Q19   1   0.6457  0.2825  0.0048  11.00000  0.05    0.25
Q20   1   0.1906  0.9481 -0.1257  11.00000  0.05    0.25
;
_shelx_res_checksum              32094
loop_
_space_group_symop_operation_xyz
'x, y, z'
'-x, -y, -z'
loop_
_atom_site_label
_atom_site_type_symbol
_atom_site_fract_x
_atom_site_fract_y
_atom_site_fract_z
_atom_site_U_iso_or_equiv
_atom_site_adp_type
_atom_site_occupancy
_atom_site_site_symmetry_order
_atom_site_calc_flag
_atom_site_refinement_flags_posn
_atom_site_refinement_flags_adp
_atom_site_refinement_flags_occupancy
Dy1 Dy 0.64039(3) 0.70704(2) 0.09877(2) 0.01472(8) Uani 1 1 d . . .
Cu1 Cu 1.000000 1.000000 0.500000 0.02034(17) Uani 1 2 d S . P
O1 O 0.7306(5) 0.7452(3) 0.3182(3) 0.0281(7) Uani 1 1 d . . .
C1 C 0.6882(6) 0.7742(5) 0.4243(4) 0.0189(9) Uani 1 1 d . . .
O2 O 0.7810(5) 0.8792(3) 0.5200(3) 0.0283(7) Uani 1 1 d . . .
C2 C 0.5235(7) 0.6779(5) 0.4449(4) 0.0263(10) Uani 1 1 d . . .
H2A H 0.429757 0.624194 0.363448 0.032 Uiso 1 1 calc R U .
H2B H 0.582266 0.614143 0.475989 0.032 Uiso 1 1 calc R U .
O3 O 0.2346(5) 0.8080(4) 0.3724(3) 0.0345(8) Uani 1 1 d . . .
C3 C 0.4099(7) 0.7498(5) 0.5372(4) 0.0251(10) Uani 1 1 d . . .
O4 O 0.1890(5) 0.9041(3) 0.5664(3) 0.0268(7) Uani 1 1 d . . .
C4 C 0.2693(6) 0.8262(5) 0.4875(4) 0.0226(9) Uani 1 1 d . . .
O5 O 0.6393(5) 0.2626(3) 0.0559(3) 0.0243(7) Uani 1 1 d . . .
C5 C 0.4169(11) 0.7362(8) 0.6471(7) 0.0645(19) Uani 1 1 d . . .
H5A H 0.494331 0.680294 0.670679 0.077 Uiso 1 1 calc R U .
H5B H 0.344420 0.782341 0.701712 0.077 Uiso 1 1 calc R U .
O6 O 0.6130(4) 0.4753(3) 0.0940(3) 0.0201(6) Uani 1 1 d . . .
C6 C 0.7088(6) 0.3882(4) 0.1159(4) 0.0164(8) Uani 1 1 d . . .
O7 O 1.1374(5) 0.3994(3) 0.0331(3) 0.0264(7) Uani 1 1 d . . .
C7 C 0.9053(7) 0.4400(5) 0.2159(4) 0.0253(10) Uani 1 1 d . . .
H7A H 0.978209 0.524284 0.212237 0.030 Uiso 1 1 calc R U .
H7B H 0.877549 0.462156 0.299673 0.030 Uiso 1 1 calc R U .
O8 O 1.2320(5) 0.2225(3) 0.0625(3) 0.0253(7) Uani 1 1 d . . .
C8 C 1.0352(6) 0.3362(5) 0.1985(4) 0.0252(10) Uani 1 1 d . . .
O9 O 0.9688(5) 0.8544(4) 0.1965(3) 0.0283(7) Uani 1 1 d D . .
C9 C 1.1396(6) 0.3176(4) 0.0920(4) 0.0185(9) Uani 1 1 d . . .
H9A H 1.043(6) 0.887(5) 0.158(4) 0.022 Uiso 1 1 d D U .
H9B H 1.049(6) 0.845(5) 0.255(4) 0.022 Uiso 1 1 d D U .
O10 O 0.6011(5) 0.9334(4) 0.1844(3) 0.0362(9) Uani 1 1 d D . .
C10 C 1.0609(9) 0.2670(7) 0.2728(6) 0.0513(17) Uani 1 1 d . . .
H10A H 1.144457 0.205458 0.260018 0.062 Uiso 1 1 calc R U .
H10B H 0.995649 0.279105 0.338805 0.062 Uiso 1 1 calc R U .
H10C H 0.498(7) 0.963(7) 0.165(7) 0.062 Uiso 1 1 d D U .
H10D H 0.667(9) 0.985(6) 0.259(3) 0.062 Uiso 1 1 d D U .
O11 O 0.3331(5) 0.6683(3) 0.1563(3) 0.0264(7) Uani 1 1 d D . .
H11A H 0.247(6) 0.594(3) 0.127(5) 0.032 Uiso 1 1 d D U .
H11B H 0.308(8) 0.705(5) 0.227(3) 0.032 Uiso 1 1 d D U .
O12 O 0.2385(5) 0.9706(4) 0.0832(3) 0.0317(8) Uani 1 1 d D . .
H12A H 0.235(9) 1.042(4) 0.066(5) 0.038 Uiso 1 1 d D U .
H12B H 0.250(9) 0.923(5) 0.009(3) 0.038 Uiso 1 1 d D U .
loop_
_atom_site_aniso_label
_atom_site_aniso_U_11
_atom_site_aniso_U_22
_atom_site_aniso_U_33
_atom_site_aniso_U_23
_atom_site_aniso_U_13
_atom_site_aniso_U_12
Dy1 0.01466(11) 0.01430(12) 0.01540(12) 0.00442(8) 0.00465(8) 0.00513(8)
Cu1 0.0158(4) 0.0248(4) 0.0175(4) 0.0041(3) 0.0048(3) 0.0037(3)
O1 0.0251(17) 0.0388(19) 0.0199(16) 0.0093(14) 0.0093(13) 0.0053(14)
C1 0.015(2) 0.027(2) 0.021(2) 0.0141(19) 0.0056(17) 0.0101(18)
O2 0.0235(17) 0.0335(18) 0.0212(16) 0.0043(15) 0.0056(13) 0.0001(14)
C2 0.018(2) 0.039(3) 0.027(2) 0.017(2) 0.0045(18) 0.008(2)
O3 0.038(2) 0.050(2) 0.0185(17) 0.0109(16) 0.0062(14) 0.0252(17)
C3 0.018(2) 0.039(3) 0.026(2) 0.019(2) 0.0089(18) 0.007(2)
O4 0.0232(16) 0.0379(19) 0.0212(16) 0.0092(14) 0.0086(13) 0.0125(14)
C4 0.016(2) 0.030(2) 0.021(2) 0.0088(19) 0.0050(17) 0.0031(18)
O5 0.0227(16) 0.0189(16) 0.0294(17) 0.0079(14) 0.0026(13) 0.0056(13)
C5 0.065(5) 0.075(5) 0.068(5) 0.035(4) 0.027(4) 0.026(4)
O6 0.0242(16) 0.0190(15) 0.0210(15) 0.0081(13) 0.0086(12) 0.0106(13)
C6 0.016(2) 0.021(2) 0.015(2) 0.0072(17) 0.0075(16) 0.0062(17)
O7 0.0345(18) 0.0230(16) 0.0309(17) 0.0145(14) 0.0180(14) 0.0115(14)
C7 0.020(2) 0.035(3) 0.018(2) 0.0050(19) 0.0047(18) 0.0077(19)
O8 0.0252(16) 0.0303(17) 0.0309(17) 0.0179(14) 0.0120(14) 0.0153(14)
C8 0.015(2) 0.040(3) 0.021(2) 0.012(2) 0.0046(17) 0.0075(19)
O9 0.0177(16) 0.042(2) 0.0277(18) 0.0195(16) 0.0027(13) 0.0029(14)
C9 0.0111(19) 0.024(2) 0.016(2) 0.0057(18) -0.0002(16) 0.0017(17)
O10 0.034(2) 0.0232(18) 0.036(2) -0.0034(15) -0.0080(16) 0.0153(15)
C10 0.045(3) 0.088(5) 0.052(4) 0.047(4) 0.027(3) 0.039(3)
O11 0.0207(16) 0.0288(18) 0.0214(16) -0.0015(14) 0.0094(13) 0.0013(13)
O12 0.0354(19) 0.0281(19) 0.037(2) 0.0143(16) 0.0128(16) 0.0136(16)
loop_
_atom_type_symbol
_atom_type_description
_atom_type_scat_dispersion_real
_atom_type_scat_dispersion_imag
_atom_type_scat_source
C C 0.0033 0.0016 'International Tables Vol C Tables 4.2.6.8 and 6.1.1.4'
H H 0.0000 0.0000 'International Tables Vol C Tables 4.2.6.8 and 6.1.1.4'
O O 0.0106 0.0060 'International Tables Vol C Tables 4.2.6.8 and 6.1.1.4'
Cu Cu 0.3201 1.2651 'International Tables Vol C Tables 4.2.6.8 and 6.1.1.4'
Dy Dy -0.1892 4.4098 'International Tables Vol C Tables 4.2.6.8 and 6.1.1.4'
loop_
_geom_angle_atom_site_label_1
_geom_angle_atom_site_label_2
_geom_angle_atom_site_label_3
_geom_angle
_geom_angle_site_symmetry_1
_geom_angle_site_symmetry_3
O10 Dy1 O11 79.22(13) . .
O10 Dy1 O1 80.38(13) . .
O11 Dy1 O1 75.10(11) . .
O10 Dy1 O9 72.63(12) . .
O11 Dy1 O9 137.29(11) . .
O1 Dy1 O9 69.10(11) . .
O10 Dy1 O6 152.77(13) . .
O11 Dy1 O6 79.05(11) . .
O1 Dy1 O6 78.33(11) . .
O9 Dy1 O6 114.46(11) . .
O10 Dy1 O8 85.91(13) . 2_765
O11 Dy1 O8 138.12(11) . 2_765
O1 Dy1 O8 140.50(11) . 2_765
O9 Dy1 O8 71.46(11) . 2_765
O6 Dy1 O8 121.30(10) . 2_765
O10 Dy1 O7 133.23(13) . 2_765
O11 Dy1 O7 145.25(11) . 2_765
O1 Dy1 O7 116.70(11) . 2_765
O9 Dy1 O7 74.25(11) . 2_765
O6 Dy1 O7 72.37(10) . 2_765
O8 Dy1 O7 52.44(10) 2_765 2_765
O10 Dy1 O5 71.88(11) . 2_665
O11 Dy1 O5 69.42(11) . 2_665
O1 Dy1 O5 138.10(11) . 2_665
O9 Dy1 O5 127.62(11) . 2_665
O6 Dy1 O5 114.84(10) . 2_665
O8 Dy1 O5 68.77(10) 2_765 2_665
O7 Dy1 O5 105.16(11) 2_765 2_665
O10 Dy1 O6 121.75(10) . 2_665
O11 Dy1 O6 71.98(10) . 2_665
O1 Dy1 O6 134.75(10) . 2_665
O9 Dy1 O6 150.68(11) . 2_665
O6 Dy1 O6 65.72(11) . 2_665
O8 Dy1 O6 83.61(10) 2_765 2_665
O7 Dy1 O6 78.42(10) 2_765 2_665
O5 Dy1 O6 50.95(9) 2_665 2_665
O10 Dy1 C9 110.25(14) . 2_765
O11 Dy1 C9 150.10(11) . 2_765
O1 Dy1 C9 133.51(11) . 2_765
O9 Dy1 C9 71.52(11) . 2_765
O6 Dy1 C9 96.73(11) . 2_765
O8 Dy1 C9 26.18(11) 2_765 2_765
O7 Dy1 C9 26.27(11) 2_765 2_765
O5 Dy1 C9 86.26(11) 2_665 2_765
O6 Dy1 C9 79.29(10) 2_665 2_765
O10 Dy1 C6 96.00(12) . 2_665
O11 Dy1 C6 66.41(11) . 2_665
O1 Dy1 C6 141.28(11) . 2_665
O9 Dy1 C6 146.69(11) . 2_665
O6 Dy1 C6 90.16(11) . 2_665
O8 Dy1 C6 76.66(11) 2_765 2_665
O7 Dy1 C6 93.93(11) 2_765 2_665
O5 Dy1 C6 25.12(11) 2_665 2_665
O6 Dy1 C6 25.99(10) 2_665 2_665
C9 Dy1 C6 84.14(11) 2_765 2_665
O2 Cu1 O2 180.0 . 2_776
O2 Cu1 O4 90.43(14) . 2_676
O2 Cu1 O4 89.57(14) 2_776 2_676
O2 Cu1 O4 89.57(14) . 1_655
O2 Cu1 O4 90.43(14) 2_776 1_655
O4 Cu1 O4 180.0 2_676 1_655
C1 O1 Dy1 150.1(3) . .
O1 C1 O2 123.4(4) . .
O1 C1 C2 120.5(4) . .
O2 C1 C2 116.0(4) . .
C1 O2 Cu1 117.4(3) . .
C3 C2 C1 114.2(4) . .
C3 C2 H2A 108.7 . .
C1 C2 H2A 108.7 . .
C3 C2 H2B 108.7 . .
C1 C2 H2B 108.7 . .
H2A C2 H2B 107.6 . .
C5 C3 C2 122.5(5) . .
C5 C3 C4 122.3(5) . .
C2 C3 C4 114.9(4) . .
C4 O4 Cu1 117.6(3) . 1_455
O3 C4 O4 123.4(4) . .
O3 C4 C3 118.8(4) . .
O4 C4 C3 117.8(4) . .
C6 O5 Dy1 95.0(2) . 2_665
C3 C5 H5A 120.0 . .
C3 C5 H5B 120.0 . .
H5A C5 H5B 120.0 . .
C6 O6 Dy1 145.4(3) . .
C6 O6 Dy1 93.5(2) . 2_665
Dy1 O6 Dy1 114.28(11) . 2_665
O5 C6 O6 119.9(4) . .
O5 C6 C7 120.8(4) . .
O6 C6 C7 119.3(4) . .
O5 C6 Dy1 59.9(2) . 2_665
O6 C6 Dy1 60.5(2) . 2_665
C7 C6 Dy1 172.9(3) . 2_665
C9 O7 Dy1 93.2(2) . 2_765
C8 C7 C6 112.8(4) . .
C8 C7 H7A 109.0 . .
C6 C7 H7A 109.0 . .
C8 C7 H7B 109.0 . .
C6 C7 H7B 109.0 . .
H7A C7 H7B 107.8 . .
C9 O8 Dy1 94.4(2) . 2_765
C10 C8 C9 120.4(5) . .
C10 C8 C7 122.7(5) . .
C9 C8 C7 116.9(4) . .
Dy1 O9 H9A 125(3) . .
Dy1 O9 H9B 123(3) . .
H9A O9 H9B 104(5) . .
O8 C9 O7 119.9(4) . .
O8 C9 C8 120.5(4) . .
O7 C9 C8 119.5(4) . .
O8 C9 Dy1 59.4(2) . 2_765
O7 C9 Dy1 60.6(2) . 2_765
C8 C9 Dy1 176.4(3) . 2_765
Dy1 O10 H10C 127(5) . .
Dy1 O10 H10D 119(5) . .
H10C O10 H10D 109(7) . .
C8 C10 H10A 120.0 . .
C8 C10 H10B 120.0 . .
H10A C10 H10B 120.0 . .
Dy1 O11 H11A 126(4) . .
Dy1 O11 H11B 128(4) . .
H11A O11 H11B 101(5) . .
H12A O12 H12B 94(5) . .
loop_
_geom_bond_atom_site_label_1
_geom_bond_atom_site_label_2
_geom_bond_distance
_geom_bond_site_symmetry_2
Dy1 O10 2.340(3) .
Dy1 O11 2.358(3) .
Dy1 O1 2.361(3) .
Dy1 O9 2.397(3) .
Dy1 O6 2.404(3) .
Dy1 O8 2.454(3) 2_765
Dy1 O7 2.480(3) 2_765
Dy1 O5 2.531(3) 2_665
Dy1 O6 2.542(3) 2_665
Dy1 C9 2.843(4) 2_765
Dy1 C6 2.914(4) 2_665
Cu1 O2 1.925(3) .
Cu1 O2 1.925(3) 2_776
Cu1 O4 1.977(3) 2_676
Cu1 O4 1.977(3) 1_655
O1 C1 1.249(5) .
C1 O2 1.254(6) .
C1 C2 1.513(6) .
C2 C3 1.503(6) .
C2 H2A 0.9700 .
C2 H2B 0.9700 .
O3 C4 1.240(5) .
C3 C5 1.307(8) .
C3 C4 1.513(6) .
O4 C4 1.276(5) .
O5 C6 1.242(5) .
C5 H5A 0.9300 .
C5 H5B 0.9300 .
O6 C6 1.279(5) .
C6 C7 1.513(6) .
O7 C9 1.260(5) .
C7 C8 1.510(6) .
C7 H7A 0.9700 .
C7 H7B 0.9700 .
O8 C9 1.258(5) .
C8 C10 1.300(7) .
C8 C9 1.498(6) .
O9 H9A 0.84(2) .
O9 H9B 0.84(2) .
O10 H10C 0.85(2) .
O10 H10D 0.84(2) .
C10 H10A 0.9300 .
C10 H10B 0.9300 .
O11 H11A 0.83(2) .
O11 H11B 0.83(2) .
O12 H12A 0.84(2) .
O12 H12B 0.86(2) .
