#------------------------------------------------------------------------------
#$Date: 2019-11-17 09:06:00 +0200 (Sun, 17 Nov 2019) $
#$Revision: 229010 $
#$URL: file:///home/coder/svn-repositories/cod/cif/7/22/97/7229793.cif $
#------------------------------------------------------------------------------
#
# This file is available in the Crystallography Open Database (COD),
# http://www.crystallography.net/
#
# All data on this site have been placed in the public domain by the
# contributors.
#
data_7229793
loop_
_publ_author_name
'Dhingra, Shallu'
'Barman, Dibya Jyoti'
'Yadav, Hare Ram'
'Eyyathiyil, Jusaina'
'Bhowmik, Prasanta'
'Kaur, Parmeet'
'Adhikari, Debashis'
'Roy Choudhury, Angshuman'
_publ_section_title
;
 Structural and computational understanding of weak interactions in
 &#x201C;bridge-flipped&#x201D; isomeric
 tetrafluoro-bis-benzylideneanilines
;
_journal_issue                   6
_journal_name_full               CrystEngComm
_journal_page_first              716
_journal_paper_doi               10.1039/C7CE01872J
_journal_volume                  20
_journal_year                    2018
_chemical_formula_moiety         'C20 H12 F4 N2'
_chemical_formula_sum            'C20 H12 F4 N2'
_chemical_formula_weight         356.32
_space_group_crystal_system      monoclinic
_space_group_IT_number           14
_space_group_name_Hall           '-P 2ybc'
_space_group_name_H-M_alt        'P 1 21/c 1'
_symmetry_space_group_name_Hall  '-P 2ybc'
_symmetry_space_group_name_H-M   'P 1 21/c 1'
_atom_sites_solution_hydrogens   geom
_atom_sites_solution_primary     direct
_audit_creation_date             2017-07-04
_audit_creation_method
;
Olex2 1.2
(compiled 2017.03.28 svn.r3405 for OlexSys, GUI svn.r5337)
;
_audit_update_record
;
2017-07-17 deposited with the CCDC.
2017-12-26 downloaded from the CCDC.
;
_cell_angle_alpha                90
_cell_angle_beta                 95.317(11)
_cell_angle_gamma                90
_cell_formula_units_Z            2
_cell_length_a                   16.870(4)
_cell_length_b                   3.7774(7)
_cell_length_c                   12.010(3)
_cell_measurement_reflns_used    1567
_cell_measurement_temperature    100.0
_cell_measurement_theta_max      27.5
_cell_measurement_theta_min      2.4
_cell_volume                     762.0(3)
_computing_cell_refinement
;
CrystalClear-SM Expert 2.0 r15 (Rigaku, 2011)
;
_computing_data_collection
;
CrystalClear-SM Expert 2.0 r15 (Rigaku, 2011)
;
_computing_data_reduction
;
CrystalClear-SM Expert 2.0 r15 (Rigaku, 2011)
;
_computing_molecular_graphics    'Olex2 (Dolomanov et al., 2009)'
_computing_publication_material  'Olex2 (Dolomanov et al., 2009)'
_computing_structure_refinement  'ShelXL (Sheldrick, 2015)'
_computing_structure_solution    'ShelXT (Sheldrick, 2015)'
_diffrn_ambient_temperature      100.0
_diffrn_detector                 CCD
_diffrn_detector_area_resol_mean 13.6612
_diffrn_measured_fraction_theta_full 0.996
_diffrn_measured_fraction_theta_max 0.996
_diffrn_measurement_details
;
scan:
    Number of images: 629
               Slice: -69.0000 - 119.7000
         Image width: 0.3000
            Exp time: 22.0000
       Rotation axis: Omega
               Omega: 0.0000
                 Chi: 54.0000
                 Phi: 0.0000
                 XTD: 49.8600
              2theta: 29.8900
scan:
    Number of images: 629
               Slice: -69.0000 - 119.7000
         Image width: 0.3000
            Exp time: 22.0000
       Rotation axis: Omega
               Omega: 0.0000
                 Chi: 54.0000
                 Phi: 120.0000
                 XTD: 49.8600
              2theta: 29.8900
scan:
    Number of images: 544
               Slice: -69.0000 - 94.2000
         Image width: 0.3000
            Exp time: 22.0000
       Rotation axis: Omega
               Omega: 0.0000
                 Chi: 54.0000
                 Phi: 240.0000
                 XTD: 49.8600
              2theta: 29.8900
;
_diffrn_measurement_device
;
XtaLABmini: Fixed Chi 2 circle
;
_diffrn_measurement_device_type  'XtaLAB Mini (ROW)'
_diffrn_measurement_method       'profile data from \w-scans'
_diffrn_measurement_specimen_support 'Cryo loop'
_diffrn_orient_matrix_type       d*Trek
_diffrn_orient_matrix_UB_11      0.024192
_diffrn_orient_matrix_UB_12      0.079783
_diffrn_orient_matrix_UB_13      0.006477
_diffrn_orient_matrix_UB_21      0.249350
_diffrn_orient_matrix_UB_22      -0.071294
_diffrn_orient_matrix_UB_23      -0.053152
_diffrn_orient_matrix_UB_31      -0.008523
_diffrn_orient_matrix_UB_32      0.013031
_diffrn_orient_matrix_UB_33      -0.057461
_diffrn_radiation_monochromator  'Graphite Monochromator'
_diffrn_radiation_type           MoK\a
_diffrn_radiation_wavelength     0.71075
_diffrn_reflns_av_R_equivalents  0.0464
_diffrn_reflns_av_unetI/netI     0.0351
_diffrn_reflns_Laue_measured_fraction_full 0.996
_diffrn_reflns_Laue_measured_fraction_max 0.996
_diffrn_reflns_limit_h_max       21
_diffrn_reflns_limit_h_min       -21
_diffrn_reflns_limit_k_max       4
_diffrn_reflns_limit_k_min       -4
_diffrn_reflns_limit_l_max       15
_diffrn_reflns_limit_l_min       -15
_diffrn_reflns_number            7231
_diffrn_reflns_point_group_measured_fraction_full 0.996
_diffrn_reflns_point_group_measured_fraction_max 0.996
_diffrn_reflns_theta_full        25.242
_diffrn_reflns_theta_max         27.495
_diffrn_reflns_theta_min         2.425
_diffrn_source                   'Sealed Tube'
_diffrn_source_current           12.0
_diffrn_source_power             0.6
_diffrn_source_voltage           50.0
_exptl_absorpt_coefficient_mu    0.127
_exptl_absorpt_correction_T_max  1.000
_exptl_absorpt_correction_T_min  0.886
_exptl_absorpt_correction_type   multi-scan
_exptl_absorpt_process_details   'Blessings, 1995'
_exptl_crystal_colour            'clear light yellow'
_exptl_crystal_colour_lustre     clear
_exptl_crystal_colour_modifier   light
_exptl_crystal_colour_primary    yellow
_exptl_crystal_density_diffrn    1.553
_exptl_crystal_description       block
_exptl_crystal_F_000             364
_exptl_crystal_size_max          0.2
_exptl_crystal_size_mid          0.2
_exptl_crystal_size_min          0.1
_refine_diff_density_max         0.625
_refine_diff_density_min         -0.593
_refine_diff_density_rms         0.155
_refine_ls_extinction_method     none
_refine_ls_goodness_of_fit_ref   1.093
_refine_ls_hydrogen_treatment    constr
_refine_ls_matrix_type           full
_refine_ls_number_parameters     118
_refine_ls_number_reflns         1735
_refine_ls_number_restraints     0
_refine_ls_restrained_S_all      1.093
_refine_ls_R_factor_all          0.0730
_refine_ls_R_factor_gt           0.0505
_refine_ls_shift/su_max          0.000
_refine_ls_shift/su_mean         0.000
_refine_ls_structure_factor_coef Fsqd
_refine_ls_weighting_details
'w=1/[\s^2^(Fo^2^)+(0.1462P)^2^] where P=(Fo^2^+2Fc^2^)/3'
_refine_ls_weighting_scheme      calc
_refine_ls_wR_factor_gt          0.1457
_refine_ls_wR_factor_ref         0.2039
_reflns_Friedel_coverage         0.000
_reflns_number_gt                1374
_reflns_number_total             1735
_reflns_threshold_expression     'I > 2\s(I)'
_iucr_refine_instructions_details
;

    5.res created by SHELXL-2014/7

TITL 5.res in P2(1)/c
REM Old TITL 5 in P21/c #14
REM SHELXT solution in P2(1)/c
REM R1 0.219, Rweak 0.323, Alpha 0.010, Orientation as input
REM Formula found by SHELXT: C10 F2 N
CELL 0.71075 16.87 3.7774 12.0103 90 95.317 90
ZERR 2 0.0037 0.0007 0.0025 0 0.011 0
LATT 1
SYMM -X,0.5+Y,0.5-Z
SFAC C H F N
UNIT 40 24 8 4
 
L.S. 8
PLAN  20
TEMP -173.15
BOND $H
LIST 4
fmap 2
acta
REM <olex2.extras>
REM <HklSrc "%.\\5.hkl">
REM </olex2.extras>
 
WGHT    0.146200
FVAR       0.87799
F1    3    0.729063    0.388235    0.181516    11.00000    0.02039    0.03660 =
         0.01874   -0.00252   -0.00259    0.00286
F2    3    0.881492    0.241011    0.158370    11.00000    0.02562    0.03770 =
         0.02059   -0.00187    0.00539    0.00920
N1    4    0.681914    0.757597    0.363450    11.00000    0.01481    0.02135 =
         0.02183   -0.00070    0.00150    0.00083
C2    1    0.762375    0.656617    0.358312    11.00000    0.01638    0.01775 =
         0.01990    0.00326    0.00166    0.00144
C8    1    0.574585    0.870975    0.478098    11.00000    0.01633    0.01687 =
         0.02116   -0.00128    0.00262   -0.00199
C10   1    0.475598    0.976589    0.607682    11.00000    0.01757    0.02201 =
         0.01814   -0.00157    0.00282   -0.00015
AFIX  43
H10   2    0.458960    0.959440    0.680922    11.00000   -1.20000
AFIX   0
C9    1    0.549900    0.849983    0.585844    11.00000    0.01749    0.02032 =
         0.02076    0.00095    0.00077   -0.00032
AFIX  43
H9    2    0.584168    0.748451    0.644525    11.00000   -1.20000
AFIX   0
C3    1    0.784466    0.486246    0.263591    11.00000    0.01612    0.02376 =
         0.01808    0.00319   -0.00074    0.00023
C4    1    0.863598    0.409205    0.251607    11.00000    0.02226    0.02263 =
         0.01773    0.00316    0.00466    0.00423
C5    1    0.922978    0.500882    0.332634    11.00000    0.01474    0.02399 =
         0.02633    0.00661    0.00383    0.00071
AFIX  43
H5    2    0.977076    0.447578    0.323834    11.00000   -1.20000
AFIX   0
C1    1    0.653610    0.736619    0.458610    11.00000    0.01640    0.01856 =
         0.02006    0.00005    0.00061   -0.00003
AFIX  43
H1    2    0.685169    0.629502    0.519052    11.00000   -1.20000
AFIX   0
C6    1    0.901944    0.673167    0.427569    11.00000    0.01728    0.02288 =
         0.02586    0.00283   -0.00214   -0.00171
AFIX  43
H6    2    0.942205    0.739339    0.484316    11.00000   -1.20000
AFIX   0
C7    1    0.822796    0.750391    0.440868    11.00000    0.01823    0.02205 =
         0.01947   -0.00162    0.00227   -0.00048
AFIX  43
H7    2    0.809586    0.867905    0.506597    11.00000   -1.20000
AFIX   0
HKLF 4
 
REM  5.res in P2(1)/c
REM R1 =  0.0505 for    1374 Fo > 4sig(Fo)  and  0.0730 for all    1735 data
REM    118 parameters refined using      0 restraints
 
END  
     
WGHT      0.1462      0.0000 

REM Highest difference peak  0.625,  deepest hole -0.593,  1-sigma level  0.155
Q1    1   0.8587  0.7366  0.4230  11.00000  0.05    0.63
Q2    1   0.9127  0.6868  0.3602  11.00000  0.05    0.50
Q3    1   0.9601  0.7578  0.4598  11.00000  0.05    0.48
Q4    1   0.5102  0.8882  0.5827  11.00000  0.05    0.48
Q5    1   0.4996  0.7504  0.7180  11.00000  0.05    0.46
Q6    1   0.5631  0.8562  0.5114  11.00000  0.05    0.45
Q7    1   1.0429  0.1871  0.3735  11.00000  0.05    0.44
Q8    1   0.5351  1.2112  0.5401  11.00000  0.05    0.44
Q9    1   0.9182  0.6756  0.2083  11.00000  0.05    0.44
Q10   1   0.4468  1.1683  0.6826  11.00000  0.05    0.43
Q11   1   0.8880  0.3585  0.4069  11.00000  0.05    0.43
Q12   1   0.5736  1.1162  0.4620  11.00000  0.05    0.43
Q13   1   0.6110  0.7828  0.4655  11.00000  0.05    0.43
Q14   1   0.4600  1.0802  0.5604  11.00000  0.05    0.42
Q15   1   0.9629  0.7464  0.2833  11.00000  0.05    0.42
Q16   1   0.8621  0.7238  0.6004  11.00000  0.05    0.42
Q17   1   0.4608  0.7964  0.6140  11.00000  0.05    0.41
Q18   1   0.6315  0.2638  0.5603  11.00000  0.05    0.41
Q19   1   0.4613  0.7957  0.7993  11.00000  0.05    0.41
Q20   1   0.4193  0.7698  0.6995  11.00000  0.05    0.41

  REM The information below was added by Olex2.
  REM
  REM R1 = 0.0505 for 1374 Fo > 4sig(Fo) and 0.0730 for all 7910 data
  REM n/a parameters refined using n/a restraints
  REM Highest difference peak 0.63, deepest hole -0.59
  REM Mean Shift 0, Max Shift 0.000.

  REM +++ Tabular Listing of Refinement Information +++
  REM R1_all = 0.0730
  REM R1_gt = 0.0505
  REM wR_ref = 0.2039
  REM GOOF = 1.093
  REM Shift_max = 0.000
  REM Shift_mean = 0
  REM Reflections_all = 7910
  REM Reflections_gt = 1374
  REM Parameters = n/a
  REM Hole = -0.59
  REM Peak = 0.63
  REM Flack = n/a

  
;
_cod_data_source_file            c7ce01872j2.cif
_cod_data_source_block           5
_cod_depositor_comments
'Adding full bibliography for 7229788--7229798.cif.'
_cod_original_cell_volume        762.1(3)
_cod_database_code               7229793
_shelx_shelxl_version_number     2014/7
_shelx_space_group_comment
;
The symmetry employed for this shelxl refinement is uniquely defined
by the following loop, which should always be used as a source of
symmetry information in preference to the above space-group names.
They are only intended as comments.
;
_olex2_refinement_description
;
1. Fixed Uiso
 At 1.2 times of:
  All C(H) groups
2.a Aromatic/amide H refined with riding coordinates:
 C10(H10), C9(H9), C5(H5), C1(H1), C6(H6), C7(H7)
;
_olex2_exptl_crystal_mounting_method 'cryo loop'
_olex2_submission_special_instructions 'No special instructions were received'
loop_
_space_group_symop_operation_xyz
'x, y, z'
'-x, y+1/2, -z+1/2'
'-x, -y, -z'
'x, -y-1/2, z-1/2'
loop_
_atom_site_label
_atom_site_type_symbol
_atom_site_fract_x
_atom_site_fract_y
_atom_site_fract_z
_atom_site_U_iso_or_equiv
_atom_site_adp_type
_atom_site_occupancy
_atom_site_site_symmetry_order
_atom_site_calc_flag
_atom_site_refinement_flags_posn
F1 F 0.72906(6) 0.3882(3) 0.18152(9) 0.0255(4) Uani 1 1 d .
F2 F 0.88149(7) 0.2410(3) 0.15837(10) 0.0278(4) Uani 1 1 d .
N1 N 0.68191(9) 0.7576(4) 0.36345(14) 0.0193(4) Uani 1 1 d .
C2 C 0.76237(11) 0.6566(5) 0.35831(16) 0.0180(4) Uani 1 1 d .
C8 C 0.57459(11) 0.8710(5) 0.47810(15) 0.0181(5) Uani 1 1 d .
C10 C 0.47560(11) 0.9766(5) 0.60768(16) 0.0192(5) Uani 1 1 d .
H10 H 0.4590 0.9594 0.6809 0.023 Uiso 1 1 calc R
C9 C 0.54990(11) 0.8500(5) 0.58584(16) 0.0196(5) Uani 1 1 d .
H9 H 0.5842 0.7485 0.6445 0.024 Uiso 1 1 calc R
C3 C 0.78447(11) 0.4862(5) 0.26359(16) 0.0195(5) Uani 1 1 d .
C4 C 0.86360(12) 0.4092(5) 0.25161(16) 0.0207(5) Uani 1 1 d .
C5 C 0.92298(11) 0.5009(5) 0.33263(16) 0.0216(5) Uani 1 1 d .
H5 H 0.9771 0.4476 0.3238 0.026 Uiso 1 1 calc R
C1 C 0.65361(11) 0.7366(5) 0.45861(16) 0.0184(5) Uani 1 1 d .
H1 H 0.6852 0.6295 0.5191 0.022 Uiso 1 1 calc R
C6 C 0.90194(11) 0.6732(6) 0.42757(18) 0.0223(5) Uani 1 1 d .
H6 H 0.9422 0.7393 0.4843 0.027 Uiso 1 1 calc R
C7 C 0.82280(12) 0.7504(5) 0.44087(17) 0.0199(5) Uani 1 1 d .
H7 H 0.8096 0.8679 0.5066 0.024 Uiso 1 1 calc R
loop_
_atom_site_aniso_label
_atom_site_aniso_U_11
_atom_site_aniso_U_22
_atom_site_aniso_U_33
_atom_site_aniso_U_23
_atom_site_aniso_U_13
_atom_site_aniso_U_12
F1 0.0204(6) 0.0366(8) 0.0187(7) -0.0025(5) -0.0026(5) 0.0029(5)
F2 0.0256(7) 0.0377(8) 0.0206(7) -0.0019(5) 0.0054(5) 0.0092(5)
N1 0.0148(8) 0.0213(9) 0.0218(9) -0.0007(6) 0.0015(6) 0.0008(6)
C2 0.0164(9) 0.0178(9) 0.0199(10) 0.0033(7) 0.0017(7) 0.0014(7)
C8 0.0163(9) 0.0169(9) 0.0212(10) -0.0013(7) 0.0026(7) -0.0020(7)
C10 0.0176(9) 0.0220(9) 0.0181(9) -0.0016(7) 0.0028(7) -0.0002(7)
C9 0.0175(9) 0.0203(9) 0.0208(10) 0.0010(7) 0.0008(7) -0.0003(7)
C3 0.0161(9) 0.0238(10) 0.0181(9) 0.0032(7) -0.0007(7) 0.0002(7)
C4 0.0223(9) 0.0226(10) 0.0177(9) 0.0032(7) 0.0047(7) 0.0042(8)
C5 0.0147(9) 0.0240(10) 0.0263(10) 0.0066(8) 0.0038(7) 0.0007(7)
C1 0.0164(9) 0.0186(10) 0.0201(10) 0.0001(7) 0.0006(7) 0.0000(7)
C6 0.0173(9) 0.0229(9) 0.0259(11) 0.0028(7) -0.0021(8) -0.0017(7)
C7 0.0182(10) 0.0221(10) 0.0195(9) -0.0016(7) 0.0023(7) -0.0005(7)
loop_
_atom_type_symbol
_atom_type_description
_atom_type_scat_dispersion_real
_atom_type_scat_dispersion_imag
_atom_type_scat_source
C C 0.0033 0.0016 'International Tables Vol C Tables 4.2.6.8 and 6.1.1.4'
H H 0.0000 0.0000 'International Tables Vol C Tables 4.2.6.8 and 6.1.1.4'
F F 0.0171 0.0103 'International Tables Vol C Tables 4.2.6.8 and 6.1.1.4'
N N 0.0061 0.0033 'International Tables Vol C Tables 4.2.6.8 and 6.1.1.4'
loop_
_geom_angle_atom_site_label_1
_geom_angle_atom_site_label_2
_geom_angle_atom_site_label_3
_geom_angle
_geom_angle_site_symmetry_1
_geom_angle_site_symmetry_3
C1 N1 C2 117.38(16) . .
C3 C2 N1 119.45(17) . .
C3 C2 C7 117.69(17) . .
C7 C2 N1 122.59(17) . .
C10 C8 C9 119.63(17) 3_676 .
C10 C8 C1 121.57(17) 3_676 .
C9 C8 C1 118.79(17) . .
C8 C10 H10 120.0 3_676 .
C9 C10 C8 119.93(18) . 3_676
C9 C10 H10 120.0 . .
C8 C9 H9 119.8 . .
C10 C9 C8 120.44(18) . .
C10 C9 H9 119.8 . .
F1 C3 C2 120.46(16) . .
F1 C3 C4 118.43(17) . .
C4 C3 C2 121.11(18) . .
F2 C4 C3 118.54(17) . .
F2 C4 C5 120.20(17) . .
C5 C4 C3 121.26(18) . .
C4 C5 H5 120.8 . .
C4 C5 C6 118.35(17) . .
C6 C5 H5 120.8 . .
N1 C1 C8 122.74(17) . .
N1 C1 H1 118.6 . .
C8 C1 H1 118.6 . .
C5 C6 H6 119.5 . .
C5 C6 C7 120.96(18) . .
C7 C6 H6 119.5 . .
C2 C7 H7 119.7 . .
C6 C7 C2 120.63(18) . .
C6 C7 H7 119.7 . .
loop_
_geom_bond_atom_site_label_1
_geom_bond_atom_site_label_2
_geom_bond_distance
_geom_bond_site_symmetry_2
F1 C3 1.346(2) .
F2 C4 1.346(2) .
N1 C2 1.417(2) .
N1 C1 1.281(3) .
C2 C3 1.388(3) .
C2 C7 1.400(3) .
C8 C10 1.396(3) 3_676
C8 C9 1.398(3) .
C8 C1 1.465(3) .
C10 C8 1.396(3) 3_676
C10 H10 0.9500 .
C10 C9 1.389(3) .
C9 H9 0.9500 .
C3 C4 1.387(3) .
C4 C5 1.375(3) .
C5 H5 0.9500 .
C5 C6 1.387(3) .
C1 H1 0.9500 .
C6 H6 0.9500 .
C6 C7 1.390(3) .
C7 H7 0.9500 .
