#------------------------------------------------------------------------------
#$Date: 2017-09-14 05:19:29 +0300 (Thu, 14 Sep 2017) $
#$Revision: 200866 $
#$URL: file:///home/coder/svn-repositories/cod/cif/7/22/91/7229159.cif $
#------------------------------------------------------------------------------
#
# This file is available in the Crystallography Open Database (COD),
# http://www.crystallography.net/
#
# All data on this site have been placed in the public domain by the
# contributors.
#
data_7229159
loop_
_publ_author_name
'Koch, Elizabeth S.'
'McKenna, Kelly A.'
'Kim, Hyo Jung'
'Young, Victor G.'
'Swift, Jennifer A.'
_publ_section_title
;
 Thymine cocrystals based on DNA-inspired binding motifs
;
_journal_name_full               CrystEngComm
_journal_paper_doi               10.1039/C7CE01347G
_journal_year                    2017
_chemical_formula_moiety         '3(H2 O), C5 H6 N2 O2, C4 H6 N4 O'
_chemical_formula_sum            'C9 H18 N6 O6'
_chemical_formula_weight         306.29
_chemical_name_common
'thymine:2,4-diamino-6-hydroxypyrimidine trihydrate'
_chemical_name_systematic        T:DAHP.3H2O
_space_group_crystal_system      triclinic
_space_group_IT_number           2
_space_group_name_Hall           '-P 1'
_space_group_name_H-M_alt        'P -1'
_symmetry_space_group_name_Hall  '-P 1'
_symmetry_space_group_name_H-M   'P -1'
_atom_sites_solution_hydrogens   geom
_atom_sites_solution_primary     direct
_atom_sites_solution_secondary   difmap
_audit_creation_date             2016-09-02
_audit_creation_method
;
Olex2 1.2
(compiled 2016.02.19 svn.r3266 for OlexSys, GUI svn.r5155)
;
_audit_update_record
;
2016-09-12 deposited with the CCDC.
2017-09-05 downloaded from the CCDC.
;
_cell_angle_alpha                83.219(2)
_cell_angle_beta                 87.719(2)
_cell_angle_gamma                73.739(2)
_cell_formula_units_Z            2
_cell_length_a                   6.9654(5)
_cell_length_b                   6.9947(5)
_cell_length_c                   15.4852(10)
_cell_measurement_reflns_used    9906
_cell_measurement_temperature    100(2)
_cell_measurement_theta_max      27.82
_cell_measurement_theta_min      2.65
_cell_volume                     719.19(9)
_computing_cell_refinement       'SAINT v8.34A (Bruker, 2013)'
_computing_data_reduction        'SAINT v8.34A (Bruker, 2013)'
_computing_molecular_graphics    'Olex2 (Dolomanov et al., 2009)'
_computing_publication_material  'Olex2 (Dolomanov et al., 2009)'
_computing_structure_refinement  'ShelXL (Sheldrick, 2015)'
_computing_structure_solution    'ShelXS (Sheldrick, 2008)'
_diffrn_ambient_temperature      100.15
_diffrn_measured_fraction_theta_full 1.000
_diffrn_measured_fraction_theta_max 0.999
_diffrn_measurement_device_type  'Bruker APEX-II CCD'
_diffrn_measurement_method       '\f and \w scans'
_diffrn_radiation_monochromator  graphite
_diffrn_radiation_type           MoK\a
_diffrn_radiation_wavelength     0.71073
_diffrn_reflns_av_R_equivalents  0.0000
_diffrn_reflns_av_unetI/netI     0.0394
_diffrn_reflns_limit_h_max       9
_diffrn_reflns_limit_h_min       -9
_diffrn_reflns_limit_k_max       9
_diffrn_reflns_limit_k_min       -9
_diffrn_reflns_limit_l_max       20
_diffrn_reflns_limit_l_min       0
_diffrn_reflns_number            3426
_diffrn_reflns_theta_full        26.00
_diffrn_reflns_theta_max         27.89
_diffrn_reflns_theta_min         2.65
_diffrn_source                   'fine-focus sealed tube'
_diffrn_standards_number         0
_exptl_absorpt_coefficient_mu    0.119
_exptl_absorpt_correction_T_max  0.9894
_exptl_absorpt_correction_T_min  0.9364
_exptl_absorpt_correction_type   multi-scan
_exptl_absorpt_process_details
;
 TWINABS-2012/1 (Bruker,2012) was used for absorption correction.
 
For component 1:
 wR2(int) was 0.1476 before and 0.0523 after correction.
 The Ratio of minimum to maximum transmission not present.
 The \l/2 correction factor is Not present
 
For component 2:
 wR2(int) was 0.1499 before and 0.0610 after correction.
 The Ratio of minimum to maximum transmission is 0.91.
 The \l/2 correction factor is Not present

Final HKLF 4 output contains 38876 reflections, Rint = 0.1130
 (19048 with I > 3sig(I), Rint = 0.0581)
;
_exptl_crystal_colour            colorless
_exptl_crystal_density_diffrn    1.414
_exptl_crystal_density_method    'not measured'
_exptl_crystal_description       prism
_exptl_crystal_F_000             324
_exptl_crystal_size_max          0.56
_exptl_crystal_size_mid          0.32
_exptl_crystal_size_min          0.09
_refine_diff_density_max         0.269
_refine_diff_density_min         -0.290
_refine_diff_density_rms         0.060
_refine_ls_extinction_method     none
_refine_ls_goodness_of_fit_ref   1.189
_refine_ls_hydrogen_treatment    refall
_refine_ls_matrix_type           full
_refine_ls_number_parameters     262
_refine_ls_number_reflns         3426
_refine_ls_number_restraints     0
_refine_ls_restrained_S_all      1.189
_refine_ls_R_factor_all          0.0915
_refine_ls_R_factor_gt           0.0624
_refine_ls_shift/su_max          0.000
_refine_ls_shift/su_mean         0.000
_refine_ls_structure_factor_coef Fsqd
_refine_ls_weighting_details
'calc w=1/[\s^2^(Fo^2^)+(0.0367P)^2^+0.6283P] where P=(Fo^2^+2Fc^2^)/3'
_refine_ls_weighting_scheme      calc
_refine_ls_wR_factor_gt          0.1139
_refine_ls_wR_factor_ref         0.1223
_reflns_number_gt                2765
_reflns_number_total             3426
_reflns_threshold_expression     >2sigma(I)
_iucr_refine_instructions_details
;
TITL twin4a in P-1
REM twin4a in P-1
REM 262 parameters refined using 0 restraints
REM Highest difference peak 0.270, deepest hole -0.291, 1-sigma level 0.060
REM Highest difference peak 0.269, deepest hole -0.290, 1-sigma level 0.060
CELL 0.71073 6.9654 6.9947 15.4852 83.219 87.719 73.739
ZERR 2 0.0005 0.0005 0.001 0.002 0.002 0.002
LATT 1
SFAC C H N O
UNIT 18 36 12 12
 
L.S. 10
PLAN  20
SIZE 0.56 0.32 0.09
TEMP -173
GRID
BOND $H
HTAB
MORE -1
CONF
fmap 2
acta 52
MERG 2
REM <olex2.extras>
REM <HklSrc "%.\\twin4a.hkl">
REM </olex2.extras>
 
WGHT    0.036700    0.628300
FVAR       0.16468
O1    4    0.381662    0.870355    0.082459    11.00000    0.01657    0.02178 =
         0.02066    0.00354    0.00317   -0.00318
O2    4    0.315511    0.167213    0.428834    11.00000    0.01404    0.02113 =
         0.01712   -0.00036    0.00117   -0.00038
O3    4    0.973570   -0.111170    0.370867    11.00000    0.01261    0.01885 =
         0.01793    0.00093   -0.00244    0.00111
N4    3    0.644970    0.028897    0.397862    11.00000    0.01323    0.01494 =
         0.01404    0.00055   -0.00160   -0.00154
O5    4    0.761304    0.740562    0.002401    11.00000    0.01688    0.01946 =
         0.02396   -0.00313    0.00043   -0.00110
O6    4    1.086217    0.481163    0.238574    11.00000    0.01127    0.02456 =
         0.01728    0.00507    0.00136    0.00019
N7    3    0.390479    0.767045    0.276911    11.00000    0.00925    0.02240 =
         0.01696    0.00321   -0.00065   -0.00092
N8    3    0.435094    0.235388    0.293650    11.00000    0.00946    0.01548 =
         0.01685    0.00064   -0.00137    0.00031
N9    3    0.927479    0.428481    0.366235    11.00000    0.00987    0.01565 =
         0.01451    0.00128   -0.00244   -0.00036
N10   3    0.582398    0.570163    0.388949    11.00000    0.01143    0.01482 =
         0.01492   -0.00005   -0.00263   -0.00125
O11   4    0.144060    0.611973    0.074016    11.00000    0.02155    0.02222 =
         0.01659   -0.00164    0.00145   -0.00830
C12   1    0.737779    0.629529    0.249391    11.00000    0.01321    0.01563 =
         0.01274    0.00218   -0.00114   -0.00307
C13   1    0.456874    0.145408    0.376047    11.00000    0.01428    0.01369 =
         0.01559   -0.00237   -0.00140   -0.00283
C14   1    0.811372   -0.003826    0.342866    11.00000    0.01331    0.01084 =
         0.01661   -0.00310   -0.00098   -0.00291
N15   3    0.778589    0.372546    0.498889    11.00000    0.01318    0.02161 =
         0.01456    0.00307   -0.00051    0.00185
C16   1    0.590751    0.209819    0.235073    11.00000    0.01785    0.01475 =
         0.01538    0.00033   -0.00037   -0.00326
C17   1    0.760814    0.458913    0.417315    11.00000    0.01345    0.01331 =
         0.01374   -0.00167    0.00007   -0.00432
C18   1    0.571400    0.654642    0.304648    11.00000    0.01320    0.01038 =
         0.01467   -0.00166   -0.00207   -0.00397
C19   1    0.776164    0.094783    0.254944    11.00000    0.01457    0.01345 =
         0.01657   -0.00041   -0.00034   -0.00356
C20   1    0.922276    0.514901    0.280861    11.00000    0.01369    0.01484 =
         0.01657   -0.00042   -0.00086   -0.00472
C21   1    0.946744    0.064199    0.191228    11.00000    0.01662    0.02441 =
         0.01830    0.00086    0.00305   -0.00059
H16   2    0.554955    0.282093    0.178495    11.00000    0.02048
H12   2    0.727293    0.687154    0.190554    11.00000    0.01740
H15A  2    0.893592    0.288285    0.519766    11.00000    0.02992
H8    2    0.320665    0.314461    0.279725    11.00000    0.01689
H21A  2    1.004876   -0.081142    0.183535    11.00000    0.03343
H9    2    1.037195    0.354464    0.386707    11.00000    0.02558
H21B  2    0.898795    0.138462    0.135666    11.00000    0.03232
H11A  2    0.124809    0.574024    0.128708    11.00000    0.03763
H11B  2    0.216286    0.691366    0.074928    11.00000    0.03302
H4    2    0.664495   -0.033848    0.452269    11.00000    0.03009
H1A   2    0.499623    0.829211    0.058159    11.00000    0.04277
H5A   2    0.880835    0.718133    0.025502    11.00000    0.05069
H7A   2    0.285074    0.783931    0.308908    11.00000    0.03207
H7B   2    0.377730    0.819246    0.220229    11.00000    0.03701
H21C  2    1.057297    0.109895    0.211331    11.00000    0.03056
H15B  2    0.673804    0.396288    0.531058    11.00000    0.03139
H5B   2    0.772129    0.632626   -0.022596    11.00000    0.05308
H1B   2    0.340761    0.986237    0.058941    11.00000    0.04636
HKLF 4
 
REM  twin4a in P-1
REM R1 =  0.0624 for   2765 Fo > 4sig(Fo)  and  0.0915 for all   3426 data
REM    262 parameters refined using      0 restraints
 
END  
     
WGHT      0.0367      0.6283 
REM Highest difference peak  0.269,  deepest hole -0.290,  1-sigma level  0.060
Q1    1   0.7960  0.0227  0.2907  11.00000  0.05    0.27
Q2    1   0.8220  0.5469  0.2586  11.00000  0.05    0.25
Q3    1   0.5604  0.5856  0.3486  11.00000  0.05    0.24
Q4    1   0.9594 -0.1776  0.4257  11.00000  0.05    0.23
Q5    1   0.8499  0.0635  0.2297  11.00000  0.05    0.23
Q6    1   0.6516  0.4777  0.3995  11.00000  0.05    0.23
Q7    1   0.8281  0.4202  0.3793  11.00000  0.05    0.22
Q8    1   0.5590  0.6534  0.4195  11.00000  0.05    0.21
Q9    1   1.1179  0.5340  0.2959  11.00000  0.05    0.21
Q10   1   0.4215  0.6078  0.2259  11.00000  0.05    0.20
Q11   1   0.6715  0.0831  0.2407  11.00000  0.05    0.20
Q12   1   0.7116 -0.0366  0.3646  11.00000  0.05    0.20
Q13   1   0.6720  0.6687  0.2840  11.00000  0.05    0.20
Q14   1   0.3194  0.5459  0.1296  11.00000  0.05    0.20
Q15   1   0.6582  0.6102  0.2727  11.00000  0.05    0.19
Q16   1   0.4893  0.5418  0.4068  11.00000  0.05    0.19
Q17   1   1.0295  0.4830  0.1789  11.00000  0.05    0.19
Q18   1   0.3115  0.0990  0.4857  11.00000  0.05    0.19
Q19   1   0.7888  0.3462  0.1709  11.00000  0.05    0.19
Q20   1   0.9999  0.0957  0.4766  11.00000  0.05    0.19

  REM The information below was added by Olex2.
  REM
  REM R1 = 0.0624 for 2765 Fo > 4sig(Fo) and 0.0915 for all 3426 data
  REM n/a parameters refined using n/a restraints
  REM Highest difference peak 0.27, deepest hole -0.29
  REM Mean Shift 0, Max Shift 0.000.
  
  REM +++ Tabular Listing of Refinement Information +++
  REM R1_all = 0.0915
  REM R1_gt = 0.0624
  REM wR_ref = 0.1223
  REM GOOF = 1.189
  REM Shift_max = 0.000
  REM Shift_mean = 0
  REM Reflections_all = 3426
  REM Reflections_gt = 2765
  REM Parameters = n/a
  REM Hole = -0.29
  REM Peak = 0.27
  REM Flack = n/a
  
  
;
_cod_data_source_file            c7ce01347g2.cif
_cod_data_source_block           twin4a
_cod_database_code               7229159
_olex2_refinement_description
;
;
_olex2_submission_special_instructions 'No special instructions were received'
loop_
_space_group_symop_id
_space_group_symop_operation_xyz
1 'x, y, z'
2 '-x, -y, -z'
loop_
_atom_site_label
_atom_site_type_symbol
_atom_site_fract_x
_atom_site_fract_y
_atom_site_fract_z
_atom_site_U_iso_or_equiv
_atom_site_adp_type
_atom_site_occupancy
_atom_site_calc_flag
O1 O 0.3817(2) 0.8704(2) 0.08246(10) 0.0207(3) Uani 1 d
O2 O 0.3155(2) 0.1672(2) 0.42883(9) 0.0185(3) Uani 1 d
O3 O 0.9736(2) -0.1112(2) 0.37087(9) 0.0178(3) Uani 1 d
N4 N 0.6450(2) 0.0289(2) 0.39786(11) 0.0147(3) Uani 1 d
O5 O 0.7613(2) 0.7406(2) 0.00240(10) 0.0209(3) Uani 1 d
O6 O 1.0862(2) 0.4812(2) 0.23857(9) 0.0194(3) Uani 1 d
N7 N 0.3905(3) 0.7670(3) 0.27691(12) 0.0173(4) Uani 1 d
N8 N 0.4351(2) 0.2354(2) 0.29365(11) 0.0149(4) Uani 1 d
N9 N 0.9275(2) 0.4285(2) 0.36624(11) 0.0142(4) Uani 1 d
N10 N 0.5824(2) 0.5702(2) 0.38895(11) 0.0143(3) Uani 1 d
O11 O 0.1441(2) 0.6120(2) 0.07402(10) 0.0198(3) Uani 1 d
C12 C 0.7378(3) 0.6295(3) 0.24939(13) 0.0143(4) Uani 1 d
C13 C 0.4569(3) 0.1454(3) 0.37605(13) 0.0146(4) Uani 1 d
C14 C 0.8114(3) -0.0038(3) 0.34287(13) 0.0135(4) Uani 1 d
N15 N 0.7786(3) 0.3725(3) 0.49889(12) 0.0182(4) Uani 1 d
C16 C 0.5908(3) 0.2098(3) 0.23507(13) 0.0164(4) Uani 1 d
C17 C 0.7608(3) 0.4589(3) 0.41732(12) 0.0134(4) Uani 1 d
C18 C 0.5714(3) 0.6546(3) 0.30465(12) 0.0125(4) Uani 1 d
C19 C 0.7762(3) 0.0948(3) 0.25494(13) 0.0150(4) Uani 1 d
C20 C 0.9223(3) 0.5149(3) 0.28086(13) 0.0150(4) Uani 1 d
C21 C 0.9467(3) 0.0642(4) 0.19123(15) 0.0212(5) Uani 1 d
H16 H 0.555(3) 0.282(4) 0.1785(16) 0.020(6) Uiso 1 d
H12 H 0.727(3) 0.687(3) 0.1906(16) 0.017(6) Uiso 1 d
H15A H 0.894(4) 0.288(4) 0.5198(17) 0.030(7) Uiso 1 d
H8 H 0.321(4) 0.314(4) 0.2797(15) 0.017(6) Uiso 1 d
H21A H 1.005(4) -0.081(4) 0.1835(17) 0.033(7) Uiso 1 d
H9 H 1.037(4) 0.354(4) 0.3867(17) 0.026(7) Uiso 1 d
H21B H 0.899(4) 0.138(4) 0.1357(18) 0.032(7) Uiso 1 d
H11A H 0.125(4) 0.574(4) 0.129(2) 0.038(8) Uiso 1 d
H11B H 0.216(4) 0.691(4) 0.0749(18) 0.033(8) Uiso 1 d
H4 H 0.664(4) -0.034(4) 0.4523(18) 0.030(7) Uiso 1 d
H1A H 0.500(5) 0.829(4) 0.058(2) 0.043(8) Uiso 1 d
H5A H 0.881(5) 0.718(5) 0.026(2) 0.051(9) Uiso 1 d
H7A H 0.285(4) 0.784(4) 0.3089(18) 0.032(7) Uiso 1 d
H7B H 0.378(4) 0.819(4) 0.220(2) 0.037(8) Uiso 1 d
H21C H 1.057(4) 0.110(4) 0.2113(17) 0.031(7) Uiso 1 d
H15B H 0.674(4) 0.396(4) 0.5311(18) 0.031(7) Uiso 1 d
H5B H 0.772(5) 0.633(5) -0.023(2) 0.053(10) Uiso 1 d
H1B H 0.341(5) 0.986(5) 0.059(2) 0.046(9) Uiso 1 d
loop_
_atom_site_aniso_label
_atom_site_aniso_U_11
_atom_site_aniso_U_22
_atom_site_aniso_U_33
_atom_site_aniso_U_23
_atom_site_aniso_U_13
_atom_site_aniso_U_12
O1 0.0166(8) 0.0218(8) 0.0207(8) 0.0035(6) 0.0032(6) -0.0032(6)
O2 0.0140(7) 0.0211(7) 0.0171(7) -0.0004(6) 0.0012(6) -0.0004(6)
O3 0.0126(7) 0.0188(7) 0.0179(7) 0.0009(6) -0.0024(6) 0.0011(5)
N4 0.0132(8) 0.0149(8) 0.0140(9) 0.0006(7) -0.0016(6) -0.0015(6)
O5 0.0169(8) 0.0195(8) 0.0240(8) -0.0031(6) 0.0004(6) -0.0011(6)
O6 0.0113(7) 0.0246(8) 0.0173(7) 0.0051(6) 0.0014(6) 0.0002(6)
N7 0.0092(8) 0.0224(9) 0.0170(9) 0.0032(7) -0.0006(7) -0.0009(7)
N8 0.0095(8) 0.0155(8) 0.0168(9) 0.0006(7) -0.0014(6) 0.0003(6)
N9 0.0099(8) 0.0156(8) 0.0145(8) 0.0013(6) -0.0024(6) -0.0004(6)
N10 0.0114(8) 0.0148(8) 0.0149(8) 0.0000(6) -0.0026(6) -0.0013(6)
O11 0.0216(8) 0.0222(8) 0.0166(8) -0.0016(6) 0.0015(6) -0.0083(6)
C12 0.0132(9) 0.0156(9) 0.0127(10) 0.0022(7) -0.0011(7) -0.0031(7)
C13 0.0143(9) 0.0137(9) 0.0156(10) -0.0024(7) -0.0014(8) -0.0028(7)
C14 0.0133(9) 0.0108(9) 0.0166(10) -0.0031(7) -0.0010(7) -0.0029(7)
N15 0.0132(9) 0.0216(9) 0.0146(9) 0.0031(7) -0.0005(7) 0.0019(7)
C16 0.0179(10) 0.0148(10) 0.0154(10) 0.0003(8) -0.0004(8) -0.0033(8)
C17 0.0134(9) 0.0133(9) 0.0137(9) -0.0017(7) 0.0001(7) -0.0043(7)
C18 0.0132(9) 0.0104(9) 0.0147(9) -0.0017(7) -0.0021(7) -0.0040(7)
C19 0.0146(9) 0.0134(9) 0.0166(10) -0.0004(7) -0.0003(8) -0.0036(7)
C20 0.0137(9) 0.0148(9) 0.0166(10) -0.0004(8) -0.0009(8) -0.0047(7)
C21 0.0166(10) 0.0244(11) 0.0183(11) 0.0009(9) 0.0031(8) -0.0006(8)
loop_
_atom_type_symbol
_atom_type_description
_atom_type_scat_dispersion_real
_atom_type_scat_dispersion_imag
_atom_type_scat_source
C C 0.0033 0.0016 'International Tables Vol C Tables 4.2.6.8 and 6.1.1.4'
H H 0.0000 0.0000 'International Tables Vol C Tables 4.2.6.8 and 6.1.1.4'
N N 0.0061 0.0033 'International Tables Vol C Tables 4.2.6.8 and 6.1.1.4'
O O 0.0106 0.0060 'International Tables Vol C Tables 4.2.6.8 and 6.1.1.4'
loop_
_geom_angle_atom_site_label_1
_geom_angle_atom_site_label_2
_geom_angle_atom_site_label_3
_geom_angle
H1A O1 H1B 102(3)
C13 N4 C14 125.79(17)
C13 N4 H4 117.9(17)
C14 N4 H4 116.3(17)
H5A O5 H5B 103(3)
C18 N7 H7A 123.2(18)
C18 N7 H7B 118.1(18)
H7A N7 H7B 119(3)
C13 N8 C16 122.31(18)
C13 N8 H8 117.0(16)
C16 N8 H8 120.6(16)
C17 N9 C20 121.76(17)
C17 N9 H9 119.5(17)
C20 N9 H9 118.8(17)
C17 N10 C18 116.97(17)
H11A O11 H11B 105(3)
C18 C12 H12 121.8(14)
C20 C12 C18 119.12(18)
C20 C12 H12 119.1(14)
O2 C13 N4 122.06(18)
O2 C13 N8 122.29(18)
N8 C13 N4 115.65(17)
O3 C14 N4 119.39(18)
O3 C14 C19 125.07(18)
N4 C14 C19 115.53(17)
C17 N15 H15A 122.4(17)
C17 N15 H15B 117.4(18)
H15A N15 H15B 120(2)
N8 C16 H16 113.9(14)
C19 C16 N8 122.99(19)
C19 C16 H16 123.1(14)
N10 C17 N9 122.76(18)
N10 C17 N15 119.12(18)
N15 C17 N9 118.13(18)
N7 C18 N10 116.36(17)
N7 C18 C12 120.89(18)
N10 C18 C12 122.75(18)
C14 C19 C21 118.86(17)
C16 C19 C14 117.72(18)
C16 C19 C21 123.43(19)
O6 C20 N9 117.35(17)
O6 C20 C12 126.02(18)
C12 C20 N9 116.63(17)
C19 C21 H21A 111.6(15)
C19 C21 H21B 108.8(16)
C19 C21 H21C 111.4(15)
H21A C21 H21B 109(2)
H21A C21 H21C 106(2)
H21B C21 H21C 110(2)
loop_
_geom_bond_atom_site_label_1
_geom_bond_atom_site_label_2
_geom_bond_distance
O1 H1A 0.88(3)
O1 H1B 0.82(3)
O2 C13 1.242(2)
O3 C14 1.231(2)
N4 C13 1.366(2)
N4 C14 1.393(2)
N4 H4 0.90(3)
O5 H5A 0.88(3)
O5 H5B 0.87(3)
O6 C20 1.271(2)
N7 C18 1.341(2)
N7 H7A 0.86(3)
N7 H7B 0.91(3)
N8 C13 1.349(3)
N8 C16 1.372(3)
N8 H8 0.85(2)
N9 C17 1.359(2)
N9 C20 1.385(2)
N9 H9 0.84(3)
N10 C17 1.328(2)
N10 C18 1.364(2)
O11 H11A 0.87(3)
O11 H11B 0.85(3)
C12 C18 1.396(3)
C12 C20 1.383(3)
C12 H12 0.95(2)
C14 C19 1.449(3)
N15 C17 1.329(3)
N15 H15A 0.90(3)
N15 H15B 0.86(3)
C16 C19 1.342(3)
C16 H16 0.96(2)
C19 C21 1.498(3)
C21 H21A 1.00(3)
C21 H21B 0.97(3)
C21 H21C 0.99(3)
loop_
_geom_torsion_atom_site_label_1
_geom_torsion_atom_site_label_2
_geom_torsion_atom_site_label_3
_geom_torsion_atom_site_label_4
_geom_torsion
O3 C14 C19 C16 -178.9(2)
O3 C14 C19 C21 1.0(3)
N4 C14 C19 C16 1.2(3)
N4 C14 C19 C21 -178.91(18)
N8 C16 C19 C14 -0.8(3)
N8 C16 C19 C21 179.4(2)
C13 N4 C14 O3 179.36(18)
C13 N4 C14 C19 -0.7(3)
C13 N8 C16 C19 -0.3(3)
C14 N4 C13 O2 179.91(19)
C14 N4 C13 N8 -0.3(3)
C16 N8 C13 O2 -179.36(19)
C16 N8 C13 N4 0.8(3)
C17 N9 C20 O6 178.67(18)
C17 N9 C20 C12 -1.7(3)
C17 N10 C18 N7 -179.83(18)
C17 N10 C18 C12 -0.6(3)
C18 N10 C17 N9 0.2(3)
C18 N10 C17 N15 -179.60(18)
C18 C12 C20 O6 -179.12(19)
C18 C12 C20 N9 1.3(3)
C20 N9 C17 N10 1.0(3)
C20 N9 C17 N15 -179.24(18)
C20 C12 C18 N7 179.04(19)
C20 C12 C18 N10 -0.2(3)
