#------------------------------------------------------------------------------
#$Date: 2019-11-17 08:51:53 +0200 (Sun, 17 Nov 2019) $
#$Revision: 228954 $
#$URL: file:///home/coder/svn-repositories/cod/cif/7/22/97/7229776.cif $
#------------------------------------------------------------------------------
#
# This file is available in the Crystallography Open Database (COD),
# http://www.crystallography.net/
#
# All data on this site have been placed in the public domain by the
# contributors.
#
data_7229776
loop_
_publ_author_name
'Borovina, Mladen'
'Kodrin, Ivan'
'\/Dakovi\'c, Marijana'
_publ_section_title
;
 Testing the limits of halogen bonding in coordination chemistry
;
_journal_issue                   5
_journal_name_full               CrystEngComm
_journal_page_first              539
_journal_paper_doi               10.1039/C7CE01989K
_journal_volume                  20
_journal_year                    2018
_chemical_formula_moiety         'C18 H20 Co I2 N4 O4'
_chemical_formula_sum            'C18 H20 Co I2 N4 O4'
_chemical_formula_weight         669.11
_space_group_crystal_system      triclinic
_space_group_IT_number           2
_space_group_name_Hall           '-P 1'
_space_group_name_H-M_alt        'P -1'
_symmetry_space_group_name_Hall  '-P 1'
_symmetry_space_group_name_H-M   'P -1'
_atom_sites_solution_hydrogens   geom
_atom_sites_solution_primary     dual
_audit_creation_date             2017-10-27
_audit_creation_method
;
Olex2 1.2
(compiled 2017.08.10 svn.r3458 for OlexSys, GUI svn.r5381)
;
_audit_update_record
;
2017-10-27 deposited with the CCDC.
2017-12-04 downloaded from the CCDC.
;
_cell_angle_alpha                102.241(8)
_cell_angle_beta                 100.737(9)
_cell_angle_gamma                98.708(11)
_cell_formula_units_Z            1
_cell_length_a                   6.3513(9)
_cell_length_b                   9.2560(11)
_cell_length_c                   10.3631(8)
_cell_measurement_reflns_used    1521
_cell_measurement_temperature    296.15
_cell_measurement_theta_max      29.3730
_cell_measurement_theta_min      4.4190
_cell_volume                     573.27(12)
_computing_cell_refinement
;
CrysAlisPro, Agilent Technologies,
Version 1.171.37.35 (release 13-08-2014 CrysAlis171 .NET)
(compiled Aug 13 2014,18:06:01)
;
_computing_data_collection
;
CrysAlisPro, Agilent Technologies,
Version 1.171.37.35 (release 13-08-2014 CrysAlis171 .NET)
(compiled Aug 13 2014,18:06:01)
;
_computing_data_reduction
;
CrysAlisPro, Agilent Technologies,
Version 1.171.37.35 (release 13-08-2014 CrysAlis171 .NET)
(compiled Aug 13 2014,18:06:01)
;
_computing_publication_material  'Olex2 (Dolomanov et al., 2009)'
_computing_structure_refinement  'ShelXL (Sheldrick, 2015)'
_computing_structure_solution    'ShelXT (Sheldrick, 2015)'
_diffrn_ambient_temperature      296.15
_diffrn_detector_area_resol_mean 16.3426
_diffrn_measured_fraction_theta_full 0.993
_diffrn_measured_fraction_theta_max 0.992
_diffrn_measurement_device_type  'Xcalibur, Sapphire3'
_diffrn_measurement_method       '\w scans'
_diffrn_radiation_type           MoK\a
_diffrn_radiation_wavelength     0.71073
_diffrn_reflns_av_R_equivalents  0.0244
_diffrn_reflns_av_unetI/netI     0.0367
_diffrn_reflns_Laue_measured_fraction_full 0.993
_diffrn_reflns_Laue_measured_fraction_max 0.992
_diffrn_reflns_limit_h_max       7
_diffrn_reflns_limit_h_min       -7
_diffrn_reflns_limit_k_max       11
_diffrn_reflns_limit_k_min       -11
_diffrn_reflns_limit_l_max       12
_diffrn_reflns_limit_l_min       -11
_diffrn_reflns_number            4009
_diffrn_reflns_point_group_measured_fraction_full 0.993
_diffrn_reflns_point_group_measured_fraction_max 0.992
_diffrn_reflns_theta_full        25.242
_diffrn_reflns_theta_max         25.998
_diffrn_reflns_theta_min         4.271
_diffrn_source                   'Enhance (Mo) X-ray Source'
_exptl_absorpt_coefficient_mu    3.471
_exptl_absorpt_correction_T_max  1.00000
_exptl_absorpt_correction_T_min  0.64739
_exptl_absorpt_correction_type   multi-scan
_exptl_absorpt_process_details
;
CrysAlisPro, Agilent Technologies,
Version 1.171.37.35 (release 13-08-2014 CrysAlis171 .NET)
(compiled Aug 13 2014,18:06:01)
Empirical absorption correction using spherical harmonics,
 implemented in SCALE3 ABSPACK scaling algorithm.
;
_exptl_crystal_colour            'dark orange'
_exptl_crystal_colour_modifier   dark
_exptl_crystal_colour_primary    orange
_exptl_crystal_density_diffrn    1.938
_exptl_crystal_description       block
_exptl_crystal_F_000             321
_exptl_crystal_size_max          0.22
_exptl_crystal_size_mid          0.21
_exptl_crystal_size_min          0.19
_refine_diff_density_max         0.564
_refine_diff_density_min         -0.954
_refine_diff_density_rms         0.099
_refine_ls_extinction_method     none
_refine_ls_goodness_of_fit_ref   1.046
_refine_ls_hydrogen_treatment    constr
_refine_ls_matrix_type           full
_refine_ls_number_parameters     135
_refine_ls_number_reflns         2226
_refine_ls_number_restraints     0
_refine_ls_restrained_S_all      1.046
_refine_ls_R_factor_all          0.0467
_refine_ls_R_factor_gt           0.0329
_refine_ls_shift/su_max          0.000
_refine_ls_shift/su_mean         0.000
_refine_ls_structure_factor_coef Fsqd
_refine_ls_weighting_details
'w=1/[\s^2^(Fo^2^)+(0.0391P)^2^] where P=(Fo^2^+2Fc^2^)/3'
_refine_ls_weighting_scheme      calc
_refine_ls_wR_factor_gt          0.0765
_refine_ls_wR_factor_ref         0.0848
_reflns_Friedel_coverage         0.000
_reflns_number_gt                1748
_reflns_number_total             2226
_reflns_threshold_expression     'I > 2\s(I)'
_cod_data_source_file            c7ce01989k2.cif
_cod_data_source_block           6a
_cod_depositor_comments
'Adding full bibliography for 7229768--7229780.cif.'
_cod_database_code               7229776
_shelx_shelxl_version_number     2014/7
_shelx_space_group_comment
;
The symmetry employed for this shelxl refinement is uniquely defined
by the following loop, which should always be used as a source of
symmetry information in preference to the above space-group names.
They are only intended as comments.
;
_olex2_refinement_description
;
1. Fixed Uiso
 At 1.2 times of:
  All C(H) groups
 At 1.5 times of:
  All C(H,H,H) groups
2.a Aromatic/amide H refined with riding coordinates:
 C1(H1), C4(H4), C3(H3), C7(H7)
2.b Idealised Me refined as rotating group:
 C5(H5A,H5B,H5C), C9(H9A,H9B,H9C)
;
_shelx_res_file
;
    exp_1110.res created by SHELXL-2014/7

TITL 6a
CELL 0.71073 6.3513 9.256 10.3631 102.241 100.737 98.708
ZERR 1 0.0009 0.0011 0.0008 0.008 0.009 0.011
LATT 1
SFAC C H Co I N O
UNIT 18 20 1 2 4 4
EQIV $1 -1+X,+Y,+Z

L.S. 4
PLAN  20
TEMP 23
HTAB C3 O2_$1
HTAB C4 O2_$1
conf
htab
BOND $H
list 4
fmap 2
acta
OMIT -1 52
OMIT 1 -1 1
OMIT 0 2 0
REM <olex2.extras>
REM <HklSrc "%.\\exp_1110.hkl">
REM </olex2.extras>

WGHT    0.039100
FVAR       0.87907
I1    4    0.503851    0.211523    0.973429    11.00000    0.08943    0.06795 =
         0.05991    0.03118    0.00800    0.02317
CO1   3    0.500000    0.500000    0.500000    10.50000    0.04093    0.04722 =
         0.03921    0.01241    0.00375    0.02126
O1    6    0.326860    0.663999    0.486570    11.00000    0.05154    0.05735 =
         0.04743    0.01464    0.00683    0.02907
O2    6    0.738281    0.649109    0.645660    11.00000    0.04685    0.05856 =
         0.04613    0.00746    0.00203    0.01730
N1    5    0.341532    0.442830    0.662778    11.00000    0.04433    0.05721 =
         0.03993    0.01640    0.00547    0.01616
N2    5    0.169696    0.377063    0.877040    11.00000    0.05076    0.07736 =
         0.06399    0.02832    0.01835    0.01409
C1    1    0.433677    0.364891    0.744210    11.00000    0.04315    0.05441 =
         0.04702    0.01694    0.00817    0.01810
AFIX  43
H1    2    0.560451    0.331822    0.729688    11.00000   -1.20000
AFIX   0
C2    1    0.347184    0.332107    0.848563    11.00000    0.04831    0.04959 =
         0.04183    0.01341    0.00249    0.00841
C6    1    0.372259    0.794719    0.562465    11.00000    0.05978    0.05157 =
         0.05565    0.02755    0.03136    0.02714
C4    1    0.161352    0.487104    0.690405    11.00000    0.04280    0.06712 =
         0.05140    0.02119    0.00501    0.01884
AFIX  43
H4    2    0.090329    0.541810    0.636688    11.00000   -1.20000
AFIX   0
C8    1    0.729360    0.781410    0.700955    11.00000    0.05084    0.06468 =
         0.04263    0.01488    0.01375    0.00715
C3    1    0.077986    0.454209    0.795763    11.00000    0.04482    0.09053 =
         0.06938    0.02692    0.01570    0.02632
AFIX  43
H3    2   -0.048401    0.487396    0.810983    11.00000   -1.20000
AFIX   0
C7    1    0.556394    0.853611    0.666732    11.00000    0.06958    0.04648 =
         0.05998    0.00889    0.01817    0.01599
AFIX  43
H7    2    0.565941    0.950392    0.718972    11.00000   -1.20000
AFIX   0
C5    1    0.206110    0.892374    0.532389    11.00000    0.09238    0.07502 =
         0.09245    0.03828    0.03512    0.05683
AFIX 137
H5A   2    0.208875    0.914654    0.446296    11.00000   -1.50000
H5B   2    0.241902    0.984737    0.602012    11.00000   -1.50000
H5C   2    0.062686    0.839366    0.529876    11.00000   -1.50000
AFIX   0
C9    1    0.922436    0.866999    0.813546    11.00000    0.06795    0.09783 =
         0.05875   -0.00540    0.00851   -0.00266
AFIX 137
H9A   2    0.921189    0.826824    0.891596    11.00000   -1.50000
H9B   2    0.913694    0.971655    0.836586    11.00000   -1.50000
H9C   2    1.055352    0.857012    0.784141    11.00000   -1.50000
AFIX   0
HKLF 4

REM  6a
REM R1 =  0.0329 for    1748 Fo > 4sig(Fo)  and  0.0467 for all    2226 data
REM    135 parameters refined using      0 restraints

END

WGHT      0.0391      0.0000

REM Instructions for potential hydrogen bonds
EQIV $2 -x+1, -y+1, -z+1
HTAB C1 O1_$2
HTAB C4 O1
HTAB C4 O2_$1
EQIV $3 x, y+1, z
HTAB C7 I1_$3
EQIV $4 -x+1, -y+1, -z+2
HTAB C9 I1_$4

REM Highest difference peak  0.564,  deepest hole -0.954,  1-sigma level  0.099
Q1    1   0.5062  0.9117  0.4429  11.00000  0.05    0.56
Q2    1   0.4235  0.1808  0.9019  11.00000  0.05    0.38
Q3    1   0.6363  0.2358  0.9646  11.00000  0.05    0.38
Q4    1   0.5407  0.1411  0.8582  11.00000  0.05    0.32
Q5    1   0.6111  0.2797  0.9761  11.00000  0.05    0.32
Q6    1   0.2781  0.1972  0.9771  11.00000  0.05    0.32
Q7    1   0.5007  0.3841  1.0919  11.00000  0.05    0.28
Q8    1   0.4710  1.0464  0.7906  11.00000  0.05    0.27
Q9    1   0.6282  0.5422  0.7825  11.00000  0.05    0.27
Q10   1  -0.0725  0.7005  0.5392  11.00000  0.05    0.27
Q11   1   0.6487  0.5031  0.8733  11.00000  0.05    0.27
Q12   1   0.4587  0.5624  0.8239  11.00000  0.05    0.25
Q13   1   0.3903  1.1592  0.6478  11.00000  0.05    0.25
Q14   1   0.3639  0.0608  0.9608  11.00000  0.05    0.25
Q15   1   0.1485  0.6652  0.6727  11.00000  0.05    0.25
Q16   1   0.5091  0.0072  0.8982  11.00000  0.05    0.25
Q17   1  -0.0404  0.6768  0.4617  11.00000  0.05    0.25
Q18   1  -0.2197  0.4469  0.9231  11.00000  0.05    0.24
Q19   1   0.0313  0.8277  0.3803  11.00000  0.05    0.24
Q20   1   0.5307  0.6240  0.7610  11.00000  0.05    0.24
;
_shelx_res_checksum              72307
_olex2_date_sample_data_collection 2016-02-09
_olex2_submission_special_instructions 'No special instructions were received'
loop_
_space_group_symop_operation_xyz
'x, y, z'
'-x, -y, -z'
loop_
_atom_site_label
_atom_site_type_symbol
_atom_site_fract_x
_atom_site_fract_y
_atom_site_fract_z
_atom_site_U_iso_or_equiv
_atom_site_adp_type
_atom_site_occupancy
_atom_site_site_symmetry_order
_atom_site_calc_flag
_atom_site_refinement_flags_posn
_atom_site_refinement_flags_adp
_atom_site_refinement_flags_occupancy
I1 I 0.50385(5) 0.21152(4) 0.97343(3) 0.07043(16) Uani 1 1 d . . .
Co1 Co 0.5000 0.5000 0.5000 0.0415(2) Uani 1 2 d S T P
O1 O 0.3269(4) 0.6640(3) 0.4866(3) 0.0504(7) Uani 1 1 d . . .
O2 O 0.7383(4) 0.6491(3) 0.6457(3) 0.0518(7) Uani 1 1 d . . .
N1 N 0.3415(5) 0.4428(4) 0.6628(3) 0.0464(8) Uani 1 1 d . . .
N2 N 0.1697(6) 0.3771(5) 0.8770(4) 0.0615(10) Uani 1 1 d . . .
C1 C 0.4337(6) 0.3649(5) 0.7442(4) 0.0469(9) Uani 1 1 d . . .
H1 H 0.5605 0.3318 0.7297 0.056 Uiso 1 1 calc R . .
C2 C 0.3472(6) 0.3321(5) 0.8486(4) 0.0474(9) Uani 1 1 d . . .
C6 C 0.3723(7) 0.7947(5) 0.5625(4) 0.0492(10) Uani 1 1 d . . .
C4 C 0.1614(6) 0.4871(5) 0.6904(4) 0.0527(10) Uani 1 1 d . . .
H4 H 0.0903 0.5418 0.6367 0.063 Uiso 1 1 calc R . .
C8 C 0.7294(7) 0.7814(5) 0.7010(4) 0.0525(10) Uani 1 1 d . . .
C3 C 0.0780(7) 0.4542(6) 0.7958(5) 0.0653(13) Uani 1 1 d . . .
H3 H -0.0484 0.4874 0.8110 0.078 Uiso 1 1 calc R . .
C7 C 0.5564(7) 0.8536(5) 0.6667(4) 0.0584(11) Uani 1 1 d . . .
H7 H 0.5659 0.9504 0.7190 0.070 Uiso 1 1 calc R . .
C5 C 0.2061(8) 0.8924(6) 0.5324(5) 0.0776(15) Uani 1 1 d . . .
H5A H 0.2089 0.9147 0.4463 0.116 Uiso 1 1 calc GR . .
H5B H 0.2419 0.9847 0.6020 0.116 Uiso 1 1 calc GR . .
H5C H 0.0627 0.8394 0.5299 0.116 Uiso 1 1 calc GR . .
C9 C 0.9224(8) 0.8670(7) 0.8135(5) 0.0816(16) Uani 1 1 d . . .
H9A H 0.9212 0.8268 0.8916 0.122 Uiso 1 1 calc GR . .
H9B H 0.9137 0.9717 0.8366 0.122 Uiso 1 1 calc GR . .
H9C H 1.0554 0.8570 0.7841 0.122 Uiso 1 1 calc GR . .
loop_
_atom_site_aniso_label
_atom_site_aniso_U_11
_atom_site_aniso_U_22
_atom_site_aniso_U_33
_atom_site_aniso_U_23
_atom_site_aniso_U_13
_atom_site_aniso_U_12
I1 0.0894(3) 0.0680(3) 0.0599(2) 0.03118(17) 0.00800(17) 0.02317(19)
Co1 0.0409(4) 0.0472(4) 0.0392(4) 0.0124(3) 0.0037(3) 0.0213(3)
O1 0.0515(16) 0.0574(19) 0.0474(16) 0.0146(13) 0.0068(12) 0.0291(14)
O2 0.0468(15) 0.0586(19) 0.0461(15) 0.0075(13) 0.0020(12) 0.0173(14)
N1 0.0443(18) 0.057(2) 0.0399(17) 0.0164(15) 0.0055(14) 0.0162(16)
N2 0.051(2) 0.077(3) 0.064(2) 0.028(2) 0.0183(18) 0.0141(19)
C1 0.043(2) 0.054(3) 0.047(2) 0.0169(18) 0.0082(17) 0.0181(18)
C2 0.048(2) 0.050(2) 0.042(2) 0.0134(18) 0.0025(18) 0.0084(19)
C6 0.060(2) 0.052(3) 0.056(2) 0.028(2) 0.031(2) 0.027(2)
C4 0.043(2) 0.067(3) 0.051(2) 0.021(2) 0.0050(18) 0.019(2)
C8 0.051(2) 0.065(3) 0.043(2) 0.015(2) 0.0138(18) 0.007(2)
C3 0.045(2) 0.091(4) 0.069(3) 0.027(3) 0.016(2) 0.026(2)
C7 0.070(3) 0.046(3) 0.060(3) 0.009(2) 0.018(2) 0.016(2)
C5 0.092(4) 0.075(4) 0.092(4) 0.038(3) 0.035(3) 0.057(3)
C9 0.068(3) 0.098(4) 0.059(3) -0.005(3) 0.009(2) -0.003(3)
loop_
_atom_type_symbol
_atom_type_description
_atom_type_scat_dispersion_real
_atom_type_scat_dispersion_imag
_atom_type_scat_source
C C 0.0033 0.0016 'International Tables Vol C Tables 4.2.6.8 and 6.1.1.4'
H H 0.0000 0.0000 'International Tables Vol C Tables 4.2.6.8 and 6.1.1.4'
Co Co 0.3494 0.9721 'International Tables Vol C Tables 4.2.6.8 and 6.1.1.4'
I I -0.4742 1.8119 'International Tables Vol C Tables 4.2.6.8 and 6.1.1.4'
N N 0.0061 0.0033 'International Tables Vol C Tables 4.2.6.8 and 6.1.1.4'
O O 0.0106 0.0060 'International Tables Vol C Tables 4.2.6.8 and 6.1.1.4'
loop_
_geom_angle_atom_site_label_1
_geom_angle_atom_site_label_2
_geom_angle_atom_site_label_3
_geom_angle
_geom_angle_site_symmetry_1
_geom_angle_site_symmetry_3
O1 Co1 O1 180.0 . 2_666
O1 Co1 O2 90.09(11) 2_666 .
O1 Co1 O2 89.91(11) 2_666 2_666
O1 Co1 O2 89.91(11) . .
O1 Co1 O2 90.08(11) . 2_666
O1 Co1 N1 89.66(11) 2_666 .
O1 Co1 N1 90.34(11) 2_666 2_666
O1 Co1 N1 89.66(11) . 2_666
O1 Co1 N1 90.34(11) . .
O2 Co1 O2 180.00(13) . 2_666
O2 Co1 N1 91.36(12) 2_666 .
O2 Co1 N1 88.64(12) . .
O2 Co1 N1 88.64(12) 2_666 2_666
O2 Co1 N1 91.36(12) . 2_666
N1 Co1 N1 180.0 . 2_666
C6 O1 Co1 126.3(2) . .
C8 O2 Co1 126.1(3) . .
C1 N1 Co1 119.8(3) . .
C4 N1 Co1 124.6(3) . .
C4 N1 C1 115.6(3) . .
C2 N2 C3 115.3(4) . .
N1 C1 H1 119.0 . .
N1 C1 C2 121.9(4) . .
C2 C1 H1 119.0 . .
N2 C2 I1 117.7(3) . .
N2 C2 C1 122.7(4) . .
C1 C2 I1 119.6(3) . .
O1 C6 C7 125.6(4) . .
O1 C6 C5 114.8(4) . .
C7 C6 C5 119.6(4) . .
N1 C4 H4 119.1 . .
N1 C4 C3 121.7(4) . .
C3 C4 H4 119.1 . .
O2 C8 C7 125.3(4) . .
O2 C8 C9 116.1(4) . .
C7 C8 C9 118.6(4) . .
N2 C3 C4 122.8(4) . .
N2 C3 H3 118.6 . .
C4 C3 H3 118.6 . .
C6 C7 C8 126.2(4) . .
C6 C7 H7 116.9 . .
C8 C7 H7 116.9 . .
C6 C5 H5A 109.5 . .
C6 C5 H5B 109.5 . .
C6 C5 H5C 109.5 . .
H5A C5 H5B 109.5 . .
H5A C5 H5C 109.5 . .
H5B C5 H5C 109.5 . .
C8 C9 H9A 109.5 . .
C8 C9 H9B 109.5 . .
C8 C9 H9C 109.5 . .
H9A C9 H9B 109.5 . .
H9A C9 H9C 109.5 . .
H9B C9 H9C 109.5 . .
loop_
_geom_bond_atom_site_label_1
_geom_bond_atom_site_label_2
_geom_bond_distance
_geom_bond_site_symmetry_2
I1 C2 2.093(4) .
Co1 O1 2.018(2) .
Co1 O1 2.018(2) 2_666
Co1 O2 2.026(3) .
Co1 O2 2.026(3) 2_666
Co1 N1 2.233(3) .
Co1 N1 2.233(3) 2_666
O1 C6 1.254(5) .
O2 C8 1.252(5) .
N1 C1 1.333(5) .
N1 C4 1.332(5) .
N2 C2 1.321(5) .
N2 C3 1.325(6) .
C1 H1 0.9300 .
C1 C2 1.369(6) .
C6 C7 1.385(6) .
C6 C5 1.521(5) .
C4 H4 0.9300 .
C4 C3 1.368(6) .
C8 C7 1.399(6) .
C8 C9 1.508(6) .
C3 H3 0.9300 .
C7 H7 0.9300 .
C5 H5A 0.9600 .
C5 H5B 0.9600 .
C5 H5C 0.9600 .
C9 H9A 0.9600 .
C9 H9B 0.9600 .
C9 H9C 0.9600 .
loop_
_geom_hbond_atom_site_label_D
_geom_hbond_atom_site_label_H
_geom_hbond_atom_site_label_A
_geom_hbond_distance_DH
_geom_hbond_distance_HA
_geom_hbond_distance_DA
_geom_hbond_angle_DHA
_geom_hbond_site_symmetry_A
C4 H4 O2 0.93 2.59 3.276(5) 131.1 1_455
C3 H3 O2 0.93 2.80 3.383(5) 121.7 1_455
loop_
_geom_torsion_atom_site_label_1
_geom_torsion_atom_site_label_2
_geom_torsion_atom_site_label_3
_geom_torsion_atom_site_label_4
_geom_torsion
Co1 O1 C6 C7 3.1(6)
Co1 O1 C6 C5 -177.3(3)
Co1 O2 C8 C7 -3.7(6)
Co1 O2 C8 C9 176.1(3)
Co1 N1 C1 C2 177.5(3)
Co1 N1 C4 C3 -176.9(4)
O1 C6 C7 C8 3.8(8)
O2 C8 C7 C6 -3.5(8)
N1 C1 C2 I1 -179.2(3)
N1 C1 C2 N2 -1.1(7)
N1 C4 C3 N2 0.1(8)
C1 N1 C4 C3 0.1(6)
C2 N2 C3 C4 -0.7(7)
C4 N1 C1 C2 0.4(6)
C3 N2 C2 I1 179.4(3)
C3 N2 C2 C1 1.2(6)
C5 C6 C7 C8 -175.8(4)
C9 C8 C7 C6 176.8(4)
