#------------------------------------------------------------------------------
#$Date: 2017-10-24 05:03:13 +0300 (Tue, 24 Oct 2017) $
#$Revision: 202259 $
#$URL: file:///home/coder/svn-repositories/cod/cif/7/22/93/7229376.cif $
#------------------------------------------------------------------------------
#
# This file is available in the Crystallography Open Database (COD),
# http://www.crystallography.net/
#
# All data on this site have been placed in the public domain by the
# contributors.
#
data_7229376
loop_
_publ_author_name
'Du, Ceng-Ceng'
'Wang, Xin-Fang'
'Zhou, Sheng-Bin'
'Wang, Duo-Zhi'
'Jia, Dianzeng'
_publ_section_title
;
 New complexes constructed from in situ nitration of
 (1H-tetrazol-5-yl)phenol: synthesis, structures and properties
;
_journal_name_full               CrystEngComm
_journal_paper_doi               10.1039/C7CE00753A
_journal_year                    2017
_chemical_formula_sum            'C7 H24 Cu N6 O16'
_chemical_formula_weight         511.84
_space_group_crystal_system      triclinic
_space_group_IT_number           2
_space_group_name_Hall           '-P 1'
_space_group_name_H-M_alt        'P -1'
_symmetry_space_group_name_Hall  '-P 1'
_symmetry_space_group_name_H-M   'P -1'
_atom_sites_solution_hydrogens   geom
_atom_sites_solution_primary     direct
_audit_creation_date             2017-08-06
_audit_creation_method
;
Olex2 1.2
(compiled 2017.07.20 svn.r3457 for OlexSys, GUI svn.r5370)
;
_audit_update_record
;
2017-10-18 deposited with the CCDC.
2017-10-23 downloaded from the CCDC.
;
_cell_angle_alpha                92.9(3)
_cell_angle_beta                 108.43(16)
_cell_angle_gamma                90.0(2)
_cell_formula_units_Z            2
_cell_length_a                   7.83(3)
_cell_length_b                   8.07(4)
_cell_length_c                   12.27(7)
_cell_measurement_reflns_used    316
_cell_measurement_temperature    296(2)
_cell_measurement_theta_max      18.62
_cell_measurement_theta_min      2.56
_cell_volume                     735(6)
_computing_molecular_graphics    'Olex2 (Dolomanov et al., 2009)'
_computing_publication_material  'Olex2 (Dolomanov et al., 2009)'
_computing_structure_refinement  'ShelXL (Sheldrick, 2015)'
_computing_structure_solution    'ShelXS (Sheldrick, 2008)'
_diffrn_ambient_temperature      296.15
_diffrn_measured_fraction_theta_full 0.981
_diffrn_measured_fraction_theta_max 0.981
_diffrn_measurement_device_type  CCD
_diffrn_measurement_method       '\w scans'
_diffrn_radiation_type           MoK\a
_diffrn_radiation_wavelength     0.71073
_diffrn_reflns_av_R_equivalents  0.0723
_diffrn_reflns_av_unetI/netI     0.1217
_diffrn_reflns_Laue_measured_fraction_full 0.981
_diffrn_reflns_Laue_measured_fraction_max 0.981
_diffrn_reflns_limit_h_max       9
_diffrn_reflns_limit_h_min       -9
_diffrn_reflns_limit_k_max       9
_diffrn_reflns_limit_k_min       -8
_diffrn_reflns_limit_l_max       14
_diffrn_reflns_limit_l_min       -14
_diffrn_reflns_number            4525
_diffrn_reflns_point_group_measured_fraction_full 0.981
_diffrn_reflns_point_group_measured_fraction_max 0.981
_diffrn_reflns_theta_full        25.107
_diffrn_reflns_theta_max         25.107
_diffrn_reflns_theta_min         1.751
_exptl_absorpt_coefficient_mu    1.535
_exptl_absorpt_correction_T_max  0.7452
_exptl_absorpt_correction_T_min  0.5548
_exptl_absorpt_correction_type   multi-scan
_exptl_absorpt_process_details   sadabs
_exptl_crystal_colour            blue
_exptl_crystal_colour_primary    blue
_exptl_crystal_density_diffrn    1.755
_exptl_crystal_description       block
_exptl_crystal_F_000             358
_exptl_crystal_size_max          0.22
_exptl_crystal_size_mid          0.2
_exptl_crystal_size_min          0.18
_platon_squeeze_details
;
TITL 20161020_8_0m_a.res in P-1
CELL    7.8300    8.0700   12.2700     92.90    108.43     90.00
SPGR P-1
# Solvent Accessible Volume =        50
# Electrons Found in S.A.V. =        23
# Note: Atoms in Void as Cxxx and Qxxx all others
C101 0.251 0.445 0.000 !       8.47 eA-3
Q102 0.784 0.367 0.181 !       4.04 eA-3
Q103 0.885 0.377 0.166 !       3.60 eA-3
Q104 0.019 0.975 0.378 !       3.37 eA-3
Q105 0.787 0.741 0.266 !       3.10 eA-3
Q106 0.807 0.530 0.425 !       2.64 eA-3
Q107 0.073 0.831 0.344 !       2.49 eA-3
Q108 0.846 1.002 0.372 !       2.45 eA-3
Q109 0.244 0.181 0.235 !       2.39 eA-3
Q110 0.967 0.752 0.251 !       2.38 eA-3
Q111 0.265 0.819 0.387 !       2.34 eA-3
Q112 0.542 0.696 0.387 !       2.26 eA-3
Q113 0.428 0.699 0.218 !       2.15 eA-3
Q114 0.666 0.161 0.467 !       2.00 eA-3
Q115 0.489 0.181 0.240 !       1.97 eA-3
Q116 0.784 0.841 0.339 !       1.88 eA-3
Q117 0.178 0.601 0.345 !       1.83 eA-3
Q118 0.102 0.558 0.422 !       1.79 eA-3
Q119 0.473 0.742 0.322 !       1.78 eA-3
C120 0.290 0.404 0.091 !       1.71 eA-3
Q121 0.284 0.693 0.215 !       1.63 eA-3
Q122 0.662 0.772 0.407 !       1.61 eA-3
Q123 0.244 0.497 0.114 !       1.53 eA-3
Q124 0.373 0.757 0.320 !       1.51 eA-3
Q125 0.285 0.157 0.485 !       1.51 eA-3
Q126 0.377 0.650 0.408 !       1.42 eA-3
Q127 0.881 0.133 0.003 !       1.35 eA-3
Q128 0.403 0.469 0.109 !       1.34 eA-3
Q129 0.647 0.605 0.342 !       1.33 eA-3
Q130 0.584 0.847 0.360 !       1.25 eA-3
Q131 0.580 0.280 0.487 !       1.19 eA-3
Q132 0.776 0.122 0.115 !       1.18 eA-3
Q133 0.824 0.879 0.217 !       1.14 eA-3
Q134 0.505 0.746 0.094 !       1.13 eA-3
Q135 0.401 0.204 0.268 !       1.11 eA-3
Q136 0.638 0.130 0.025 !       1.09 eA-3
Q137 0.397 0.382 0.204 !       1.06 eA-3
Q138 0.836 0.934 0.143 !       1.06 eA-3
Q139 0.862 0.432 0.357 !       1.03 eA-3
Q140 0.124 0.183 0.469 !       1.03 eA-3
Q141 0.898 0.755 0.323 !       1.02 eA-3
Q142 0.437 0.802 0.023 !       1.00 eA-3
Q143 0.802 0.157 0.474 !       1.00 eA-3
Q144 0.397 0.094 0.289 !       1.00 eA-3
Q145 0.748 0.187 0.227 !       0.96 eA-3
Q146 0.058 0.187 0.335 !       0.95 eA-3
Q147 0.431 0.242 0.418 !       0.95 eA-3
Q148 0.581 0.651 0.022 !       0.95 eA-3
Q149 0.314 0.963 0.010 !       0.94 eA-3
Q150 0.245 0.474 0.400 !       0.93 eA-3
Q151 0.102 0.601 0.250 !       0.92 eA-3
Q152 0.590 0.586 0.238 !       0.92 eA-3
Q153 0.645 0.188 0.250 !       0.91 eA-3
Q154 0.650 0.088 0.304 !       0.91 eA-3
Q155 0.230 0.194 0.122 !       0.91 eA-3
Q156 0.031 0.124 0.165 !       0.91 eA-3
Q157 0.502 0.622 0.144 !       0.89 eA-3
Q158 0.318 0.542 0.402 !       0.88 eA-3
Q159 0.309 0.584 0.139 !       0.88 eA-3
Q160 0.346 0.152 0.105 !       0.88 eA-3
Q161 0.697 0.308-0.010 !       0.86 eA-3
Q162 1.011 0.905 0.194 !       0.85 eA-3
Q163 0.665 0.601 0.070 !       0.85 eA-3
Q164 0.312 0.491 0.504 !       0.85 eA-3
Q165 0.248 0.808 0.031 !       0.84 eA-3
Q166 0.515 0.065 0.231 !       0.84 eA-3
Q167 0.573 0.436 0.259 !       0.83 eA-3
Q168 0.027 0.190 0.097 !       0.83 eA-3
Q169 0.182 0.226 0.308 !       0.82 eA-3
Q170 0.815 0.232 0.036 !       0.82 eA-3
Q171 0.046 0.665 0.395 !       0.82 eA-3
Q172 0.921 0.690 0.014 !       0.81 eA-3
Q173 0.599 0.147 0.086 !       0.80 eA-3
Q174 0.867 0.511 0.250 !       0.79 eA-3
Q175 0.909 0.884 0.094 !       0.79 eA-3
Q176 0.906 0.084 0.368 !       0.78 eA-3
Q177 0.321 0.367 0.204 !       0.78 eA-3
Q178 0.721 0.439 0.296 !       0.77 eA-3
Q179 0.279 0.936 0.455 !       0.76 eA-3
Q180 0.065 0.758 0.098 !       0.76 eA-3
Q181 0.135 0.437 0.105 !       0.76 eA-3
Q182 0.857 0.685 0.209 !       0.76 eA-3
Q183 0.914 0.410 0.014 !       0.75 eA-3
Q184 0.101 0.753 0.198 !       0.74 eA-3
Q185 0.966 0.184 0.234 !       0.73 eA-3
Q186 0.496 0.968 0.381 !       0.73 eA-3
Q187 0.782 0.181 0.323 !       0.73 eA-3
Q188 0.066 0.859 0.155 !       0.73 eA-3
Q189 1.007 0.625 0.481 !       0.73 eA-3
Q190 0.690 0.658 0.183 !       0.72 eA-3
Q191 0.788 0.404 0.487 !       0.72 eA-3
Q192 0.949 0.310 0.360 !       0.72 eA-3
Q193 0.284 0.812 0.159 !       0.72 eA-3
Q194 0.779 0.817 0.412 !       0.71 eA-3
Q195 0.816 0.314-0.004 !       0.71 eA-3
Q196 0.417 0.899 0.190 !       0.71 eA-3
Q197 0.668 0.314 0.107 !       0.70 eA-3
Q198 0.489 0.246 0.329 !       0.70 eA-3
Q199 0.097 0.405 0.362 !       0.70 eA-3
;
_refine_diff_density_max         2.922
_refine_diff_density_min         -1.635
_refine_diff_density_rms         0.321
_refine_ls_extinction_method     none
_refine_ls_goodness_of_fit_ref   1.042
_refine_ls_hydrogen_treatment    constr
_refine_ls_matrix_type           full
_refine_ls_number_parameters     293
_refine_ls_number_reflns         2579
_refine_ls_number_restraints     389
_refine_ls_restrained_S_all      1.596
_refine_ls_R_factor_all          0.2221
_refine_ls_R_factor_gt           0.0705
_refine_ls_shift/su_max          0.001
_refine_ls_shift/su_mean         0.000
_refine_ls_structure_factor_coef Fsqd
_refine_ls_weighting_details
'w=1/[\s^2^(Fo^2^)+(0.2000P)^2^] where P=(Fo^2^+2Fc^2^)/3'
_refine_ls_weighting_scheme      calc
_refine_ls_wR_factor_gt          0.4291
_refine_ls_wR_factor_ref         0.2747
_reflns_Friedel_coverage         0.000
_reflns_number_gt                1544
_reflns_number_total             2579
_reflns_threshold_expression     'I > 2\s(I)'
_iucr_refine_instructions_details
;
TITL 20161020_8_0m_a.res in P-1
    20161020_8_0m_a_sq.res
    created by SHELXL-2017/1 at 16:37:54 on 05-Aug-2017
CELL 0.71073 7.8324 8.069 12.2733 92.876 108.426 89.971
ZERR 2 0.0339 0.0445 0.0681 0.321 0.157 0.226
LATT 1
SFAC C H Cu N O
UNIT 14 4 2 12 16
DFIX 1.22 N1A O2A N1A O3A N1B O2B N1B O3B N2A O4A N2A O5A N2B O4B N2B O5B
DFIX 1.46 C2A N1A C2B N1B C6A N2A C6B N2B
DFIX 1.39 C1 C2B C2B C3B C3B C4 C4 C5B C5B C6B C6B C1
DFIX 1.39 C1 C2A C2A C3A C3A C4 C4 C5A C5A C6A C6A C1
SADI 0.01 C2A O2A C2A O3A C6A O4A C6A O5A C2B O2B C2B O3B C6B O4B C6B O5B
SADI 0.01 O2A O3A O2B O3B O4A O5A O4B O5B
SADI 0.01 C1 C3B C2B C4 C3B C5B C4 C6B C5B C1 C6B C2B
SADI 0.01 C1 C3A C2A C4 C3A C5A C4 C6A C5A C1 C6A C2A
FLAT 0.01 C1 C2B C3B C4 C5B C6B N1B N2B O2B O3B O4B O5B
FLAT 0.01 C1 C2A C3A C4 C5A C6A N1A N2A O2A O3A O4A O5A
DELU 0.01 0.02 O1 C1 C4 C2A > O5B
SIMU 0.01 0.02 2 O1 C1 C4 C2A > O5B
ISOR 0.001 0.002 C7 N6 N3 N4

L.S. 10
PLAN  20
SIZE 0.22 0.2 0.18
TEMP 0
BOND $H
conf
ABIN
fmap 2
acta
OMIT 0 -1 4
OMIT -1 1 3
OMIT -1 -1 4
OMIT 1 1 2
OMIT 1 -1 1
OMIT -1 -3 2
OMIT 1 -3 1
OMIT -1 2 3
OMIT -1 -1 6
OMIT -1 -1 3
OMIT 1 0 1
OMIT 1 2 2
OMIT -1 0 2
OMIT 1 -1 3
OMIT -3 -2 4
OMIT -3 0 3
OMIT 0 3 0
OMIT -1 -5 1
REM <olex2.extras>
REM <HklSrc "%.\\20161020_8_0m_a_sq.hkl">
REM </olex2.extras>

WGHT    0.200000
FVAR       0.84653   0.54130
C1    1    0.573035    0.302048    0.655310    11.00000    0.08601    0.07068 =
         0.03399   -0.01703    0.01088   -0.01682
C4    1    0.463795    0.193155    0.422154    11.00000    0.07974    0.06288 =
         0.02380   -0.01429    0.01332   -0.01666
C7    1    0.399388    0.158870    0.299711    11.00000    0.02436    0.02482 =
         0.02414    0.00125    0.00780    0.00038
PART 1
C2A   1    0.671246    0.333368    0.589959    21.00000    0.07982    0.06786 =
         0.03045   -0.01192    0.00695   -0.02165
C3A   1    0.626134    0.282827    0.471496    21.00000    0.08158    0.06843 =
         0.03142   -0.01408    0.00964   -0.01967
AFIX  43
H3A   2    0.700660    0.307948    0.428554    21.00000   -1.20000
AFIX   0
C5A   1    0.356344    0.158001    0.490891    21.00000    0.08221    0.06572 =
         0.02871   -0.01422    0.01641   -0.01859
AFIX  43
H5A   2    0.249610    0.098288    0.456876    21.00000   -1.20000
AFIX   0
C6A   1    0.399130    0.206067    0.604086    21.00000    0.08354    0.06983 =
         0.03039   -0.01427    0.02014   -0.02006
N1A   4    0.834777    0.426520    0.649298    21.00000    0.06955    0.06751 =
         0.02899   -0.00428    0.00430   -0.02259
N2A   4    0.265986    0.156054    0.661096    21.00000    0.09080    0.08257 =
         0.03351   -0.01419    0.02524   -0.03139
O2A   5    0.871528    0.469186    0.750939    21.00000    0.05273    0.07400 =
         0.03105   -0.00923   -0.00166   -0.03716
O3A   5    0.937467    0.462769    0.595529    21.00000    0.06966    0.10698 =
         0.03547    0.00558    0.00355   -0.03068
O4A   5    0.298502    0.197305    0.762633    21.00000    0.13474    0.11278 =
         0.04462   -0.02494    0.03745   -0.03828
O5A   5    0.133503    0.077970    0.606607    21.00000    0.08687    0.11382 =
         0.06473   -0.02529    0.02954   -0.04024
PART 0
PART 2
C2B   1    0.698495    0.206285    0.606936   -21.00000    0.08485    0.07003 =
         0.03412   -0.01735    0.00820   -0.01664
C3B   1    0.635975    0.158613    0.494406   -21.00000    0.08224    0.06636 =
         0.03256   -0.01641    0.00783   -0.01674
AFIX  43
H3B   2    0.712193    0.098990    0.462856   -21.00000   -1.20000
AFIX   0
C5B   1    0.346981    0.283537    0.468639   -21.00000    0.08236    0.06738 =
         0.02929   -0.01514    0.01726   -0.01543
AFIX  43
H5B   2    0.231307    0.309194    0.423462   -21.00000   -1.20000
AFIX   0
C6B   1    0.412126    0.333487    0.586082   -21.00000    0.08115    0.06837 =
         0.02774   -0.01499    0.01831   -0.01553
N1B   4    0.885491    0.149865    0.657968   -21.00000    0.09324    0.08074 =
         0.04027   -0.02429    0.00993   -0.00526
N2B   4    0.305918    0.426835    0.644800   -21.00000    0.07372    0.06705 =
         0.02162   -0.00346    0.02350   -0.01318
O2B   5    0.961494    0.184022    0.760258   -21.00000    0.13181    0.12271 =
         0.05426   -0.03698   -0.01609    0.03050
O3B   5    0.957756    0.072222    0.598904   -21.00000    0.10414    0.10132 =
         0.07046   -0.05387    0.01486   -0.00704
O4B   5    0.367826    0.467402    0.746809   -21.00000    0.07154    0.07550 =
         0.02215   -0.00717    0.01999    0.00688
O5B   5    0.151368    0.464609    0.589196   -21.00000    0.07419    0.09513 =
         0.02060    0.00693    0.02193   -0.00650
PART 0
CU1   3    0.500000    0.000000    0.000000    10.50000    0.01638    0.04899 =
         0.01566   -0.00549    0.00599    0.00024
CU2   3    0.000000    0.000000    0.000000    10.50000    0.01451    0.04769 =
         0.01572   -0.00276    0.00322   -0.00591
N3    4    0.221898    0.123708    0.233859    11.00000    0.05330    0.05389 =
         0.05328    0.00224    0.01717    0.00124
N4    4    0.229154    0.080933    0.126649    11.00000    0.02389    0.02431 =
         0.02360    0.00112    0.00751    0.00035
N5    4    0.398236    0.078681    0.127629    11.00000    0.02764    0.04648 =
         0.00451   -0.00246    0.00455    0.00238
N6    4    0.511810    0.128462    0.233543    11.00000    0.04620    0.04687 =
         0.04639    0.00231    0.01483    0.00034
O1    5    0.640052    0.297652    0.776257    11.00000    0.10667    0.05798 =
         0.02190   -0.00382    0.00783   -0.00866
PART 1
O6    5   -0.047718    0.232911   -0.043751    11.00000    0.02739    0.03465 =
         0.03999   -0.00390    0.00720   -0.00318
O7    5    0.501822    0.233384   -0.043831    11.00000    0.02680    0.04038 =
         0.04889   -0.01618    0.01628   -0.00634
O8    5    0.808026    0.032013    0.115657    11.00000    0.02062    0.03486 =
         0.02988   -0.00165    0.00608   -0.00214
HKLF 4




REM  20161020_8_0m_a.res in P-1
REM R1 =  0.0705 for    1544 Fo > 4sig(Fo)  and  0.2221 for all    2579 data
REM    293 parameters refined using    389 restraints

END  
     
WGHT      0.2000      0.0000 

REM Highest difference peak  2.922,  deepest hole -1.635,  1-sigma level  0.321
Q1    1   0.2009  0.6450  0.8048  11.00000  0.05    2.92
Q2    1   1.0968  0.6441  0.8024  11.00000  0.05    2.79
Q3    1   1.0144  0.2489  0.7406  11.00000  0.05    2.33
Q4    1   0.2216  0.2475  0.7449  11.00000  0.05    2.09
Q5    1   0.1405  0.0113  0.6243  11.00000  0.05    1.62
Q6    1   0.9835  0.0147  0.6190  11.00000  0.05    1.56
Q7    1   0.6761  0.1704  0.4766  11.00000  0.05    1.55
Q8    1   0.2297  0.1753  0.2271  11.00000  0.05    1.54
Q9    1   0.7395  0.2138  0.5964  11.00000  0.05    1.49
Q10   1   0.9335  0.1657  0.6595  11.00000  0.05    1.43
Q11   1   0.2964  0.3593  0.2012  11.00000  0.05    1.42
Q12   1   0.4042  0.3625  0.2073  11.00000  0.05    1.37
Q13   1   0.5394  0.2578  0.6826  11.00000  0.05    1.23
Q14   1   0.4926  0.1849  0.2338  11.00000  0.05    1.19
Q15   1   0.1991  0.4796  0.5817  11.00000  0.05    1.18
Q16   1   0.5190  0.2558  0.7462  11.00000  0.05    1.15
Q17   1   0.3892  0.3035  0.4977  11.00000  0.05    1.12
Q18   1   0.7362  0.1650  0.2230  11.00000  0.05    1.12
Q19   1   0.6363  0.2666  0.6743  11.00000  0.05    1.11
Q20   1   0.4589  0.3300  0.6036  11.00000  0.05    1.10

  REM The information below was added by Olex2.
  REM
  REM R1 = 0.0705 for 1544 Fo > 4sig(Fo) and 0.2221 for all 4571 data
  REM n/a parameters refined using n/a restraints
  REM Highest difference peak 2.92, deepest hole -1.63
  REM Mean Shift 0, Max Shift -0.001.

  REM +++ Tabular Listing of Refinement Information +++
  REM R1_all = 0.2221
  REM R1_gt = 0.0705
  REM wR_ref = 0.4747
  REM GOOF = 1.042
  REM Shift_max = -0.001
  REM Shift_mean = 0
  REM Reflections_all = 4571
  REM Reflections_gt = 1544
  REM Parameters = n/a
  REM Hole = -1.63
  REM Peak = 2.92
  REM Flack = n/a

  
;
_cod_data_source_file            c7ce00753a2.cif
_cod_data_source_block           6
_cod_original_cell_volume        735(7)
_cod_database_code               7229376
_shelx_shelxl_version_number     2017/1
_shelx_space_group_comment
;
The symmetry employed for this shelxl refinement is uniquely defined
by the following loop, which should always be used as a source of
symmetry information in preference to the above space-group names.
They are only intended as comments.
;
_shelx_estimated_absorpt_t_max   0.770
_shelx_estimated_absorpt_t_min   0.729
_olex2_refinement_description
;
1. Fixed Uiso
 At 1.2 times of:
  All C(H) groups
2. Restrained distances
 N1A-O2A = N1A-O3A = N1B-O2B = N1B-O3B = N2A-O4A = N2A-O5A = N2B-O4B = N2B-O5B
 1.22 with sigma of 0.02
 C2A-N1A = C2B-N1B = C6A-N2A = C6B-N2B
 1.46 with sigma of 0.02
 C1-C2B = C2B-C3B = C3B-C4 = C4-C5B = C5B-C6B = C6B-C1
 1.39 with sigma of 0.02
 C1-C2A = C2A-C3A = C3A-C4 = C4-C5A = C5A-C6A = C6A-C1
 1.39 with sigma of 0.02
 C2A-O2A \\sim C2A-O3A \\sim C6A-O4A \\sim C6A-O5A \\sim C2B-O2B \\sim C2B-O3B
\\sim C6B-O4B \\sim C6B-O5B
 with sigma of 0.01
 O2A-O3A \\sim O2B-O3B \\sim O4A-O5A \\sim O4B-O5B
 with sigma of 0.01
 C1-C3B \\sim C2B-C4 \\sim C3B-C5B \\sim C4-C6B \\sim C5B-C1 \\sim C6B-C2B
 with sigma of 0.01
 C1-C3A \\sim C2A-C4 \\sim C3A-C5A \\sim C4-C6A \\sim C5A-C1 \\sim C6A-C2A
 with sigma of 0.01
3. Restrained planarity
 C1, C2B, C3B, C4, C5B, C6B, N1B, N2B, O2B, O3B, O4B, O5B
 with sigma of 0.01
 C1, C2A, C3A, C4, C5A, C6A, N1A, N2A, O2A, O3A, O4A, O5A
 with sigma of 0.01
4. Rigid bond restraints
 O1, C1, C4, C2A, C3A, C5A, C6A, N1A, N2A, O2A, O3A, O4A, O5A, C2B, C3B, C5B,
 C6B, N1B, N2B, O2B, O3B, O4B, O5B
 with sigma for 1-2 distances of 0.01 and sigma for 1-3 distances of 0.02
5. Uiso/Uaniso restraints and constraints
O1 \\sim C1 \\sim C4 \\sim C2A \\sim C3A \\sim C5A \\sim C6A \\sim N1A \\sim
N2A \\sim O2A \\sim O3A \\sim O4A \\sim O5A \\sim C2B \\sim C3B \\sim C5B \\sim
C6B \\sim N1B \\sim N2B \\sim O2B \\sim O3B \\sim O4B \\sim O5B: within 2A with
sigma of 0.01 and sigma for terminal atoms of 0.02
Uanis(C7) \\sim Ueq, Uanis(N6) \\sim Ueq, Uanis(N3) \\sim Ueq, Uanis(N4) \\sim
Ueq: with sigma of 0.001 and sigma for terminal atoms of 0.002
6. Others
 Sof(C2B)=Sof(C3B)=Sof(H3B)=Sof(C5B)=Sof(H5B)=Sof(C6B)=Sof(N1B)=Sof(N2B)=
 Sof(O2B)=Sof(O3B)=Sof(O4B)=Sof(O5B)=1-FVAR(1)
 Sof(C2A)=Sof(C3A)=Sof(H3A)=Sof(C5A)=Sof(H5A)=Sof(C6A)=Sof(N1A)=Sof(N2A)=
 Sof(O2A)=Sof(O3A)=Sof(O4A)=Sof(O5A)=FVAR(1)
7.a Aromatic/amide H refined with riding coordinates:
 C3A(H3A), C5A(H5A), C3B(H3B), C5B(H5B)
;
_shelx_fab_file
;
 1 0 0 0.17 0.00
 2 0 0 -16.44 0.00
 3 0 0 -0.95 0.00
 4 0 0 6.28 0.00
 5 0 0 0.14 0.00
 6 0 0 -3.84 0.00
 8 0 0 1.12 0.00
 -8 1 0 -0.75 0.00
 -7 1 0 -0.50 0.00
 -6 1 0 3.59 0.00
 -5 1 0 1.88 0.00
 -4 1 0 -5.16 0.00
 -3 1 0 -2.38 0.00
 -2 1 0 12.63 0.00
 -1 1 0 3.33 0.00
 0 1 0 -23.02 0.00
 1 1 0 -3.25 0.00
 2 1 0 16.37 0.00
 3 1 0 3.75 0.00
 4 1 0 -6.13 0.00
 5 1 0 -2.07 0.00
 6 1 0 3.37 0.00
 7 1 0 0.20 0.00
 8 1 0 -1.21 0.00
 -8 2 0 0.14 0.00
 -7 2 0 0.75 0.00
 -6 2 0 -2.70 0.00
 -5 2 0 -3.06 0.00
 -4 2 0 3.46 0.00
 -3 2 0 4.94 0.00
 -2 2 0 -6.87 0.00
 -1 2 0 -6.23 0.00
 0 2 0 15.40 0.00
 1 2 0 5.22 0.00
 2 2 0 -12.44 0.00
 3 2 0 -5.16 0.00
 4 2 0 4.59 0.00
 5 2 0 3.23 0.00
 6 2 0 -2.34 0.00
 7 2 0 -0.21 0.00
 8 2 0 1.06 0.00
 -8 3 0 0.45 0.00
 -7 3 0 -0.66 0.00
 -6 3 0 1.45 0.00
 -5 3 0 2.91 0.00
 -4 3 0 -1.91 0.00
 -3 3 0 -5.77 0.00
 -2 3 0 1.69 0.00
 -1 3 0 7.77 0.00
 0 3 0 -6.66 0.00
 1 3 0 -5.91 0.00
 2 3 0 6.58 0.00
 3 3 0 5.14 0.00
 4 3 0 -2.26 0.00
 5 3 0 -3.44 0.00
 6 3 0 1.03 0.00
 7 3 0 0.05 0.00
 8 3 0 -0.68 0.00
 -8 4 0 -0.73 0.00
 -7 4 0 0.38 0.00
 -6 4 0 -0.27 0.00
 -5 4 0 -1.73 0.00
 -4 4 0 0.80 0.00
 -3 4 0 4.80 0.00
 -2 4 0 1.34 0.00
 -1 4 0 -7.70 0.00
 0 4 0 0.00 0.00
 1 4 0 5.61 0.00
 2 4 0 -1.25 0.00
 3 4 0 -4.23 0.00
 4 4 0 0.10 0.00
 5 4 0 3.01 0.00
 6 4 0 0.18 0.00
 7 4 0 0.10 0.00
 -7 5 0 -0.20 0.00
 -6 5 0 -0.49 0.00
 -5 5 0 0.37 0.00
 -4 5 0 -0.04 0.00
 -3 5 0 -2.78 0.00
 -2 5 0 -2.27 0.00
 -1 5 0 6.32 0.00
 0 5 0 3.27 0.00
 1 5 0 -4.70 0.00
 2 5 0 -1.98 0.00
 3 5 0 3.03 0.00
 4 5 0 1.16 0.00
 5 5 0 -2.29 0.00
 6 5 0 -0.92 0.00
 7 5 0 -0.13 0.00
 -6 6 0 0.70 0.00
 -5 6 0 0.46 0.00
 -4 6 0 -0.54 0.00
 -3 6 0 0.73 0.00
 -2 6 0 2.06 0.00
 -1 6 0 -4.22 0.00
 0 6 0 -3.74 0.00
 1 6 0 3.43 0.00
 2 6 0 2.97 0.00
 3 6 0 -1.91 0.00
 4 6 0 -1.38 0.00
 5 6 0 1.56 0.00
 6 6 0 0.99 0.00
 -6 7 0 -0.48 0.00
 -5 7 0 -0.57 0.00
 -4 7 0 0.90 0.00
 -3 7 0 0.60 0.00
 -2 7 0 -1.62 0.00
 -1 7 0 2.08 0.00
 0 7 0 2.81 0.00
 1 7 0 -2.04 0.00
 2 7 0 -2.57 0.00
 3 7 0 1.02 0.00
 4 7 0 0.96 0.00
 5 7 0 -0.97 0.00
 -5 8 0 0.25 0.00
 -4 8 0 -0.91 0.00
 -3 8 0 -1.02 0.00
 -2 8 0 1.26 0.00
 -1 8 0 -0.50 0.00
 0 8 0 -1.62 0.00
 1 8 0 0.84 0.00
 2 8 0 1.70 0.00
 3 8 0 -0.41 0.00
 4 8 0 -0.46 0.00
 -3 9 0 0.78 0.00
 -2 9 0 -0.94 0.00
 -1 9 0 -0.27 0.00
 0 9 0 0.70 0.00
 1 9 0 -0.09 0.00
 2 9 0 -0.93 0.00
 -3 -9 1 -0.19 0.00
 -2 -9 1 -0.89 0.00
 -1 -9 1 0.22 0.00
 0 -9 1 0.96 0.00
 1 -9 1 -0.64 0.00
 2 -9 1 -1.42 0.00
 3 -9 1 0.56 0.00
 -4 -8 1 -0.55 0.00
 -3 -8 1 -0.01 0.00
 -2 -8 1 1.42 0.00
 -1 -8 1 0.55 0.00
 0 -8 1 -1.38 0.00
 1 -8 1 0.18 0.00
 2 -8 1 1.67 0.00
 3 -8 1 -0.89 0.00
 4 -8 1 -1.15 0.00
 -6 -7 1 -0.29 0.00
 -5 -7 1 -0.75 0.00
 -4 -7 1 0.91 0.00
 -3 -7 1 0.67 0.00
 -2 -7 1 -2.12 0.00
 -1 -7 1 -2.15 0.00
 0 -7 1 1.94 0.00
 1 -7 1 1.33 0.00
 2 -7 1 -1.57 0.00
 3 -7 1 0.76 0.00
 4 -7 1 1.37 0.00
 5 -7 1 0.20 0.00
 -6 -6 1 0.81 0.00
 -5 -6 1 1.53 0.00
 -4 -6 1 -1.31 0.00
 -3 -6 1 -1.73 0.00
 -2 -6 1 2.71 0.00
 -1 -6 1 4.23 0.00
 0 -6 1 -2.64 0.00
 1 -6 1 -3.82 0.00
 2 -6 1 1.32 0.00
 3 -6 1 0.24 0.00
 4 -6 1 -0.98 0.00
 5 -6 1 -0.25 0.00
 6 -6 1 0.69 0.00
 -7 -5 1 0.81 0.00
 -6 -5 1 -0.93 0.00
 -5 -5 1 -2.48 0.00
 -4 -5 1 1.21 0.00
 -3 -5 1 2.93 0.00
 -2 -5 1 -2.37 0.00
 -1 -5 1 -6.20 0.00
 0 -5 1 2.92 0.00
 1 -5 1 6.70 0.00
 2 -5 1 -1.17 0.00
 3 -5 1 -2.17 0.00
 4 -5 1 0.05 0.00
 5 -5 1 0.74 0.00
 6 -5 1 -0.78 0.00
 7 -5 1 -0.54 0.00
 -8 -4 1 -0.37 0.00
 -7 -4 1 -0.97 0.00
 -6 -4 1 0.40 0.00
 -5 -4 1 3.39 0.00
 -4 -4 1 -0.07 0.00
 -3 -4 1 -4.03 0.00
 -2 -4 1 0.05 0.00
 -1 -4 1 7.45 0.00
 0 -4 1 -1.55 0.00
 1 -4 1 -9.02 0.00
 2 -4 1 0.85 0.00
 3 -4 1 4.50 0.00
 4 -4 1 1.14 0.00
 5 -4 1 -1.73 0.00
 6 -4 1 0.29 0.00
 7 -4 1 0.60 0.00
 -8 -3 1 -0.25 0.00
 -7 -3 1 1.06 0.00
 -6 -3 1 0.72 0.00
 -5 -3 1 -3.98 0.00
 -4 -3 1 -2.20 0.00
 -3 -3 1 4.77 0.00
 -2 -3 1 4.77 0.00
 -1 -3 1 -7.55 0.00
 0 -3 1 -2.68 0.00
 1 -3 1 9.79 0.00
 2 -3 1 0.43 0.00
 3 -3 1 -6.17 0.00
 4 -3 1 -2.39 0.00
 5 -3 1 2.78 0.00
 6 -3 1 0.74 0.00
 7 -3 1 -0.69 0.00
 8 -3 1 0.48 0.00
 -8 -2 1 0.87 0.00
 -7 -2 1 -1.00 0.00
 -6 -2 1 -2.07 0.00
 -5 -2 1 3.94 0.00
 -4 -2 1 4.95 0.00
 -3 -2 1 -4.79 0.00
 -2 -2 1 -11.16 0.00
 -1 -2 1 6.31 0.00
 0 -2 1 9.73 0.00
 1 -2 1 -8.41 0.00
 2 -2 1 -3.32 0.00
 3 -2 1 6.11 0.00
 4 -2 1 3.63 0.00
 5 -2 1 -3.16 0.00
 6 -2 1 -1.97 0.00
 7 -2 1 0.64 0.00
 8 -2 1 -0.28 0.00
 -8 -1 1 -1.33 0.00
 -7 -1 1 0.67 0.00
 -6 -1 1 3.21 0.00
 -5 -1 1 -2.98 0.00
 -4 -1 1 -7.04 0.00
 -3 -1 1 3.73 0.00
 -2 -1 1 16.75 0.00
 -1 -1 1 -3.85 0.00
 0 -1 1 -17.49 0.00
 1 -1 1 5.10 0.00
 2 -1 1 7.38 0.00
 3 -1 1 -3.99 0.00
 4 -1 1 -4.72 0.00
 5 -1 1 2.45 0.00
 6 -1 1 2.96 0.00
 7 -1 1 -0.38 0.00
 8 -1 1 -0.06 0.00
 -9 0 1 0.27 0.00
 -8 0 1 1.52 0.00
 -7 0 1 -0.04 0.00
 -6 0 1 -3.80 0.00
 -5 0 1 1.13 0.00
 -4 0 1 7.52 0.00
 -3 0 1 -1.57 0.00
 -2 0 1 -18.93 0.00
 -1 0 1 0.68 0.00
 0 0 1 22.64 0.00
 1 0 1 -0.89 0.00
 2 0 1 -10.98 0.00
 3 0 1 0.53 0.00
 4 0 1 5.34 0.00
 5 0 1 -0.86 0.00
 6 0 1 -3.38 0.00
 7 0 1 0.08 0.00
 8 0 1 0.38 0.00
 -8 1 1 -1.32 0.00
 -7 1 1 -0.67 0.00
 -6 1 1 3.67 0.00
 -5 1 1 1.03 0.00
 -4 1 1 -6.24 0.00
 -3 1 1 -1.15 0.00
 -2 1 1 16.59 0.00
 -1 1 1 2.41 0.00
 0 1 1 -22.66 0.00
 1 1 1 -2.77 0.00
 2 1 1 12.25 0.00
 3 1 1 2.86 0.00
 4 1 1 -5.09 0.00
 5 1 1 -0.87 0.00
 6 1 1 3.17 0.00
 7 1 1 0.00 0.00
 8 1 1 -0.65 0.00
 -8 2 1 0.72 0.00
 -7 2 1 1.08 0.00
 -6 2 1 -2.90 0.00
 -5 2 1 -2.57 0.00
 -4 2 1 3.95 0.00
 -3 2 1 3.46 0.00
 -2 2 1 -10.86 0.00
 -1 2 1 -4.64 0.00
 0 2 1 17.53 0.00
 1 2 1 4.85 0.00
 2 2 1 -10.43 0.00
 3 2 1 -4.94 0.00
 4 2 1 3.84 0.00
 5 2 1 2.00 0.00
 6 2 1 -2.43 0.00
 7 2 1 0.23 0.00
 8 2 1 0.83 0.00
 -8 3 1 0.08 0.00
 -7 3 1 -0.94 0.00
 -6 3 1 1.77 0.00
 -5 3 1 2.79 0.00
 -4 3 1 -1.73 0.00
 -3 3 1 -4.51 0.00
 -2 3 1 4.41 0.00
 -1 3 1 5.64 0.00
 0 3 1 -9.71 0.00
 1 3 1 -5.22 0.00
 2 3 1 6.41 0.00
 3 3 1 5.33 0.00
 4 3 1 -1.95 0.00
 5 3 1 -2.30 0.00
 6 3 1 1.36 0.00
 7 3 1 -0.63 0.00
 8 3 1 -0.85 0.00
 -8 4 1 -0.69 0.00
 -7 4 1 0.40 0.00
 -6 4 1 -0.64 0.00
 -5 4 1 -1.76 0.00
 -4 4 1 0.25 0.00
 -3 4 1 4.07 0.00
 -2 4 1 0.40 0.00
 -1 4 1 -5.51 0.00
 0 4 1 2.46 0.00
 1 4 1 4.47 0.00
 2 4 1 -2.06 0.00
 3 4 1 -4.49 0.00
 4 4 1 0.10 0.00
 5 4 1 1.96 0.00
 6 4 1 -0.22 0.00
 7 4 1 0.94 0.00
 -7 5 1 0.07 0.00
 -6 5 1 -0.19 0.00
 -5 5 1 0.23 0.00
 -4 5 1 0.45 0.00
 -3 5 1 -2.59 0.00
 -2 5 1 -2.67 0.00
 -1 5 1 4.60 0.00
 0 5 1 2.11 0.00
 1 5 1 -3.37 0.00
 2 5 1 -1.06 0.00
 3 5 1 3.18 0.00
 4 5 1 1.07 0.00
 5 5 1 -1.36 0.00
 6 5 1 -0.64 0.00
 7 5 1 -1.01 0.00
 -7 6 1 -0.17 0.00
 -6 6 1 0.59 0.00
 -5 6 1 0.93 0.00
 -4 6 1 -0.74 0.00
 -3 6 1 0.86 0.00
 -2 6 1 2.94 0.00
 -1 6 1 -3.29 0.00
 0 6 1 -3.71 0.00
 1 6 1 2.35 0.00
 2 6 1 2.38 0.00
 3 6 1 -1.98 0.00
 4 6 1 -1.33 0.00
 5 6 1 0.81 0.00
 6 6 1 0.96 0.00
 -6 7 1 -0.59 0.00
 -5 7 1 -1.26 0.00
 -4 7 1 0.85 0.00
 -3 7 1 0.43 0.00
 -2 7 1 -2.27 0.00
 -1 7 1 1.92 0.00
 0 7 1 3.29 0.00
 1 7 1 -1.50 0.00
 2 7 1 -2.34 0.00
 3 7 1 1.12 0.00
 4 7 1 0.95 0.00
 5 7 1 -0.44 0.00
 -5 8 1 0.92 0.00
 -4 8 1 -0.81 0.00
 -3 8 1 -0.97 0.00
 -2 8 1 1.43 0.00
 -1 8 1 -0.79 0.00
 0 8 1 -2.05 0.00
 1 8 1 0.82 0.00
 2 8 1 1.68 0.00
 3 8 1 -0.59 0.00
 4 8 1 -0.41 0.00
 -3 9 1 0.86 0.00
 -2 9 1 -0.74 0.00
 -1 9 1 0.12 0.00
 0 9 1 0.84 0.00
 1 9 1 -0.35 0.00
 2 9 1 -0.98 0.00
 -3 -9 2 -0.31 0.00
 -2 -9 2 -1.03 0.00
 -1 -9 2 0.42 0.00
 0 -9 2 1.52 0.00
 1 -9 2 -0.73 0.00
 2 -9 2 -1.69 0.00
 -5 -8 2 -0.31 0.00
 -4 -8 2 -0.71 0.00
 -3 -8 2 0.33 0.00
 -2 -8 2 1.22 0.00
 -1 -8 2 0.04 0.00
 0 -8 2 -1.70 0.00
 1 -8 2 0.80 0.00
 2 -8 2 2.34 0.00
 3 -8 2 -0.49 0.00
 4 -8 2 -1.16 0.00
 -6 -7 2 -0.17 0.00
 -5 -7 2 -0.01 0.00
 -4 -7 2 0.81 0.00
 -3 -7 2 0.29 0.00
 -2 -7 2 -1.39 0.00
 -1 -7 2 -1.54 0.00
 0 -7 2 1.57 0.00
 1 -7 2 0.03 0.00
 2 -7 2 -2.27 0.00
 3 -7 2 0.59 0.00
 4 -7 2 1.83 0.00
 5 -7 2 0.75 0.00
 -7 -6 2 -0.76 0.00
 -6 -6 2 0.57 0.00
 -5 -6 2 0.82 0.00
 -4 -6 2 -1.01 0.00
 -3 -6 2 -1.51 0.00
 -2 -6 2 1.63 0.00
 -1 -6 2 3.95 0.00
 0 -6 2 -1.40 0.00
 1 -6 2 -2.04 0.00
 2 -6 2 1.47 0.00
 3 -6 2 -0.15 0.00
 4 -6 2 -1.75 0.00
 5 -6 2 -0.96 0.00
 6 -6 2 0.49 0.00
 -7 -5 2 1.26 0.00
 -6 -5 2 -0.72 0.00
 -5 -5 2 -1.93 0.00
 -4 -5 2 0.96 0.00
 -3 -5 2 2.96 0.00
 -2 -5 2 -1.61 0.00
 -1 -5 2 -6.62 0.00
 0 -5 2 1.41 0.00
 1 -5 2 4.97 0.00
 2 -5 2 -0.43 0.00
 3 -5 2 -1.12 0.00
 4 -5 2 0.78 0.00
 5 -5 2 1.26 0.00
 6 -5 2 -0.83 0.00
 7 -5 2 -0.62 0.00
 -8 -4 2 -0.60 0.00
 -7 -4 2 -1.67 0.00
 -6 -4 2 0.29 0.00
 -5 -4 2 3.00 0.00
 -4 -4 2 -0.10 0.00
 -3 -4 2 -4.15 0.00
 -2 -4 2 0.50 0.00
 -1 -4 2 8.64 0.00
 0 -4 2 -1.15 0.00
 1 -4 2 -7.96 0.00
 2 -4 2 -0.40 0.00
 3 -4 2 3.09 0.00
 4 -4 2 0.81 0.00
 5 -4 2 -1.80 0.00
 6 -4 2 0.69 0.00
 7 -4 2 0.76 0.00
 -8 -3 2 0.03 0.00
 -7 -3 2 1.87 0.00
 -6 -3 2 0.72 0.00
 -5 -3 2 -3.75 0.00
 -4 -3 2 -1.89 0.00
 -3 -3 2 4.73 0.00
 -2 -3 2 2.61 0.00
 -1 -3 2 -9.21 0.00
 1 -3 2 9.84 0.00
 2 -3 2 1.09 0.00
 3 -3 2 -5.02 0.00
 4 -3 2 -2.52 0.00
 5 -3 2 2.46 0.00
 6 -3 2 -0.03 0.00
 7 -3 2 -0.83 0.00
 -8 -2 2 0.63 0.00
 -7 -2 2 -1.75 0.00
 -6 -2 2 -2.00 0.00
 -5 -2 2 3.89 0.00
 -4 -2 2 4.65 0.00
 -3 -2 2 -4.46 0.00
 -2 -2 2 -7.70 0.00
 -1 -2 2 7.95 0.00
 0 -2 2 4.30 0.00
 1 -2 2 -9.56 0.00
 2 -2 2 -2.20 0.00
 3 -2 2 5.83 0.00
 4 -2 2 3.95 0.00
 5 -2 2 -2.81 0.00
 6 -2 2 -0.94 0.00
 7 -2 2 0.72 0.00
 8 -2 2 -0.22 0.00
 -9 -1 2 -0.14 0.00
 -8 -1 2 -1.20 0.00
 -7 -1 2 1.24 0.00
 -6 -1 2 3.10 0.00
 -5 -1 2 -3.18 0.00
 -4 -1 2 -7.12 0.00
 -3 -1 2 3.27 0.00
 -2 -1 2 13.26 0.00
 -1 -1 2 -5.05 0.00
 0 -1 2 -9.75 0.00
 1 -1 2 6.86 0.00
 2 -1 2 4.03 0.00
 3 -1 2 -4.76 0.00
 4 -1 2 -4.84 0.00
 5 -1 2 2.45 0.00
 6 -1 2 1.81 0.00
 7 -1 2 -0.43 0.00
 8 -1 2 0.26 0.00
 -9 0 2 0.20 0.00
 -8 0 2 1.54 0.00
 -7 0 2 -0.34 0.00
 -6 0 2 -3.65 0.00
 -5 0 2 1.62 0.00
 -4 0 2 8.15 0.00
 -3 0 2 -1.31 0.00
 -2 0 2 -16.84 0.00
 -1 0 2 1.34 0.00
 0 0 2 14.70 0.00
 1 0 2 -2.56 0.00
 2 0 2 -6.05 0.00
 3 0 2 2.02 0.00
 4 0 2 5.05 0.00
 5 0 2 -1.38 0.00
 6 0 2 -2.30 0.00
 7 0 2 0.11 0.00
 8 0 2 -0.24 0.00
 -9 1 2 -0.19 0.00
 -8 1 2 -1.52 0.00
 -7 1 2 -0.70 0.00
 -6 1 2 3.49 0.00
 -5 1 2 0.39 0.00
 -4 1 2 -7.22 0.00
 -3 1 2 -0.93 0.00
 -2 1 2 16.59 0.00
 -1 1 2 2.02 0.00
 0 1 2 -16.68 0.00
 1 1 2 -1.72 0.00
 2 1 2 7.14 0.00
 3 1 2 1.30 0.00
 4 1 2 -4.49 0.00
 5 1 2 0.10 0.00
 6 1 2 2.32 0.00
 7 1 2 -0.01 0.00
 8 1 2 0.08 0.00
 -8 2 2 1.07 0.00
 -7 2 2 1.40 0.00
 -6 2 2 -2.74 0.00
 -5 2 2 -2.04 0.00
 -4 2 2 4.81 0.00
 -3 2 2 2.75 0.00
 -2 2 2 -12.56 0.00
 -1 2 2 -4.11 0.00
 0 2 2 14.61 0.00
 1 2 2 4.51 0.00
 2 2 2 -6.49 0.00
 3 2 2 -3.83 0.00
 4 2 2 3.22 0.00
 5 2 2 0.81 0.00
 6 2 2 -1.95 0.00
 7 2 2 0.26 0.00
 8 2 2 0.22 0.00
 -8 3 2 -0.33 0.00
 -7 3 2 -1.41 0.00
 -6 3 2 1.69 0.00
 -5 3 2 2.59 0.00
 -4 3 2 -2.08 0.00
 -3 3 2 -3.57 0.00
 -2 3 2 6.66 0.00
 -1 3 2 4.66 0.00
 0 3 2 -9.54 0.00
 1 3 2 -5.23 0.00
 2 3 2 4.27 0.00
 3 3 2 4.82 0.00
 4 3 2 -1.54 0.00
 5 3 2 -1.06 0.00
 6 3 2 1.29 0.00
 7 3 2 -0.72 0.00
 -8 4 2 -0.40 0.00
 -7 4 2 0.77 0.00
 -6 4 2 -0.67 0.00
 -5 4 2 -1.85 0.00
 -4 4 2 0.02 0.00
 -3 4 2 3.23 0.00
 -2 4 2 -1.30 0.00
 -1 4 2 -4.08 0.00
 0 4 2 3.81 0.00
 1 4 2 4.40 0.00
 2 4 2 -1.53 0.00
 3 4 2 -4.37 0.00
 4 4 2 -0.07 0.00
 5 4 2 0.76 0.00
 6 4 2 -0.46 0.00
 7 4 2 1.14 0.00
 -7 5 2 0.01 0.00
 -6 5 2 -0.10 0.00
 -5 5 2 0.38 0.00
 -4 5 2 1.03 0.00
 -3 5 2 -2.08 0.00
 -2 5 2 -1.99 0.00
 -1 5 2 3.04 0.00
 0 5 2 0.51 0.00
 1 5 2 -2.99 0.00
 2 5 2 -0.61 0.00
 3 5 2 3.14 0.00
 4 5 2 1.10 0.00
 5 5 2 -0.22 0.00
 6 5 2 -0.31 0.00
 -7 6 2 -0.43 0.00
 -6 6 2 0.53 0.00
 -5 6 2 0.98 0.00
 -4 6 2 -1.34 0.00
 -3 6 2 0.70 0.00
 -2 6 2 3.11 0.00
 -1 6 2 -2.03 0.00
 0 6 2 -2.60 0.00
 1 6 2 1.78 0.00
 2 6 2 1.61 0.00
 3 6 2 -1.85 0.00
 4 6 2 -1.34 0.00
 5 6 2 -0.25 0.00
 6 6 2 0.75 0.00
 -6 7 2 -0.63 0.00
 -5 7 2 -1.61 0.00
 -4 7 2 1.28 0.00
 -3 7 2 0.37 0.00
 -2 7 2 -2.81 0.00
 -1 7 2 1.22 0.00
 0 7 2 2.83 0.00
 1 7 2 -1.02 0.00
 2 7 2 -1.64 0.00
 3 7 2 0.91 0.00
 4 7 2 0.96 0.00
 5 7 2 0.48 0.00
 -5 8 2 1.44 0.00
 -4 8 2 -1.05 0.00
 -3 8 2 -0.86 0.00
 -2 8 2 1.91 0.00
 -1 8 2 -0.66 0.00
 0 8 2 -2.07 0.00
 1 8 2 0.62 0.00
 2 8 2 1.24 0.00
 3 8 2 -0.39 0.00
 4 8 2 -0.40 0.00
 -3 9 2 0.81 0.00
 -2 9 2 -0.96 0.00
 -1 9 2 0.33 0.00
 0 9 2 1.05 0.00
 1 9 2 -0.43 0.00
 2 9 2 -0.81 0.00
 -3 -9 3 -0.21 0.00
 -2 -9 3 -1.22 0.00
 -1 -9 3 0.40 0.00
 0 -9 3 1.80 0.00
 1 -9 3 -0.47 0.00
 2 -9 3 -1.36 0.00
 -5 -8 3 -0.69 0.00
 -4 -8 3 -0.91 0.00
 -3 -8 3 0.41 0.00
 -2 -8 3 1.32 0.00
 -1 -8 3 -0.41 0.00
 0 -8 3 -2.30 0.00
 1 -8 3 0.89 0.00
 2 -8 3 2.56 0.00
 3 -8 3 0.06 0.00
 4 -8 3 -0.86 0.00
 -6 -7 3 -0.26 0.00
 -5 -7 3 0.66 0.00
 -4 -7 3 0.75 0.00
 -3 -7 3 0.05 0.00
 -2 -7 3 -1.04 0.00
 -1 -7 3 -0.50 0.00
 0 -7 3 2.04 0.00
 1 -7 3 -0.88 0.00
 2 -7 3 -3.08 0.00
 3 -7 3 -0.08 0.00
 4 -7 3 1.83 0.00
 5 -7 3 0.85 0.00
 -7 -6 3 -0.41 0.00
 -6 -6 3 0.43 0.00
 -5 -6 3 0.00 0.00
 -4 -6 3 -0.60 0.00
 -3 -6 3 -1.28 0.00
 -2 -6 3 0.58 0.00
 -1 -6 3 2.51 0.00
 0 -6 3 -1.12 0.00
 1 -6 3 -0.01 0.00
 2 -6 3 2.41 0.00
 3 -6 3 0.13 0.00
 4 -6 3 -2.24 0.00
 5 -6 3 -1.38 0.00
 6 -6 3 0.28 0.00
 -7 -5 3 1.06 0.00
 -6 -5 3 -0.42 0.00
 -5 -5 3 -1.11 0.00
 -4 -5 3 0.35 0.00
 -3 -5 3 2.94 0.00
 -2 -5 3 -0.17 0.00
 -1 -5 3 -5.26 0.00
 0 -5 3 0.14 0.00
 1 -5 3 1.95 0.00
 2 -5 3 -0.76 0.00
 3 -5 3 -0.51 0.00
 4 -5 3 1.64 0.00
 5 -5 3 1.70 0.00
 6 -5 3 -0.63 0.00
 -8 -4 3 -0.48 0.00
 -7 -4 3 -1.68 0.00
 -6 -4 3 -0.05 0.00
 -5 -4 3 2.26 0.00
 -4 -4 3 0.34 0.00
 -3 -4 3 -4.40 0.00
 -2 -4 3 -0.39 0.00
 -1 -4 3 7.88 0.00
 0 -4 3 0.43 0.00
 1 -4 3 -4.61 0.00
 2 -4 3 -1.07 0.00
 3 -4 3 1.48 0.00
 4 -4 3 -0.09 0.00
 5 -4 3 -1.93 0.00
 6 -4 3 0.73 0.00
 7 -4 3 0.60 0.00
 -8 -3 3 -0.07 0.00
 -7 -3 3 2.06 0.00
 -6 -3 3 1.03 0.00
 -5 -3 3 -3.07 0.00
 -4 -3 3 -1.82 0.00
 -3 -3 3 5.06 0.00
 -2 -3 3 1.80 0.00
 -1 -3 3 -9.34 0.00
 0 -3 3 -0.86 0.00
 1 -3 3 7.09 0.00
 2 -3 3 2.42 0.00
 3 -3 3 -2.85 0.00
 4 -3 3 -1.89 0.00
 5 -3 3 2.14 0.00
 6 -3 3 -0.45 0.00
 7 -3 3 -0.78 0.00
 -9 -2 3 0.29 0.00
 -8 -2 3 0.70 0.00
 -7 -2 3 -2.05 0.00
 -6 -2 3 -2.24 0.00
 -5 -2 3 3.27 0.00
 -4 -2 3 4.06 0.00
 -3 -2 3 -4.61 0.00
 -2 -2 3 -4.62 0.00
 -1 -2 3 8.88 0.00
 0 -2 3 1.99 0.00
 1 -2 3 -8.19 0.00
 2 -2 3 -3.19 0.00
 3 -2 3 3.95 0.00
 4 -2 3 3.66 0.00
 5 -2 3 -2.23 0.00
 6 -2 3 -0.10 0.00
 7 -2 3 0.79 0.00
 -9 -1 3 -0.32 0.00
 -8 -1 3 -1.20 0.00
 -7 -1 3 1.60 0.00
 -6 -1 3 3.25 0.00
 -5 -1 3 -2.74 0.00
 -4 -1 3 -6.37 0.00
 -3 -1 3 3.09 0.00
 -2 -1 3 8.45 0.00
 -1 -1 3 -6.36 0.00
 0 -1 3 -4.30 0.00
 1 -1 3 7.08 0.00
 2 -1 3 3.68 0.00
 3 -1 3 -3.95 0.00
 4 -1 3 -4.74 0.00
 5 -1 3 1.99 0.00
 6 -1 3 0.64 0.00
 7 -1 3 -0.58 0.00
 -9 0 3 0.25 0.00
 -8 0 3 1.47 0.00
 -7 0 3 -0.69 0.00
 -6 0 3 -3.68 0.00
 -5 0 3 1.47 0.00
 -4 0 3 7.70 0.00
 -3 0 3 -0.90 0.00
 -2 0 3 -11.76 0.00
 -1 0 3 2.52 0.00
 0 0 3 7.15 0.00
 1 0 3 -3.89 0.00
 2 0 3 -4.04 0.00
 3 0 3 2.50 0.00
 4 0 3 4.91 0.00
 5 0 3 -1.35 0.00
 6 0 3 -0.96 0.00
 7 0 3 0.26 0.00
 8 0 3 -0.28 0.00
 -9 1 3 -0.10 0.00
 -8 1 3 -1.44 0.00
 -7 1 3 -0.49 0.00
 -6 1 3 3.38 0.00
 -5 1 3 0.25 0.00
 -4 1 3 -7.31 0.00
 -3 1 3 -1.36 0.00
 -2 1 3 12.80 0.00
 -1 1 3 1.33 0.00
 0 1 3 -9.02 0.00
 1 1 3 -0.18 0.00
 2 1 3 4.01 0.00
 3 1 3 -0.09 0.00
 4 1 3 -4.22 0.00
 5 1 3 0.54 0.00
 6 1 3 1.02 0.00
 7 1 3 -0.04 0.00
 -9 2 3 -0.03 0.00
 -8 2 3 1.10 0.00
 -7 2 3 1.46 0.00
 -6 2 3 -2.52 0.00
 -5 2 3 -1.80 0.00
 -4 2 3 5.29 0.00
 -3 2 3 2.99 0.00
 -2 2 3 -10.85 0.00
 -1 2 3 -3.91 0.00
 0 2 3 8.74 0.00
 1 2 3 3.50 0.00
 2 2 3 -3.24 0.00
 3 2 3 -2.23 0.00
 4 2 3 2.89 0.00
 5 2 3 0.05 0.00
 6 2 3 -0.90 0.00
 7 2 3 0.10 0.00
 -8 3 3 -0.49 0.00
 -7 3 3 -1.76 0.00
 -6 3 3 1.42 0.00
 -5 3 3 2.51 0.00
 -4 3 3 -2.56 0.00
 -3 3 3 -3.57 0.00
 -2 3 3 6.79 0.00
 -1 3 3 4.66 0.00
 0 3 3 -6.35 0.00
 1 3 3 -5.00 0.00
 2 3 3 1.77 0.00
 3 3 3 3.55 0.00
 4 3 3 -1.25 0.00
 5 3 3 -0.19 0.00
 6 3 3 0.64 0.00
 7 3 3 -0.40 0.00
 -8 4 3 -0.16 0.00
 -7 4 3 1.27 0.00
 -6 4 3 -0.43 0.00
 -5 4 3 -2.08 0.00
 -4 4 3 0.17 0.00
 -3 4 3 3.09 0.00
 -2 4 3 -2.38 0.00
 -1 4 3 -3.94 0.00
 0 4 3 3.05 0.00
 1 4 3 4.69 0.00
 2 4 3 -0.15 0.00
 3 4 3 -3.60 0.00
 4 4 3 -0.25 0.00
 5 4 3 -0.07 0.00
 6 4 3 -0.25 0.00
 7 4 3 0.76 0.00
 -7 5 3 -0.37 0.00
 -6 5 3 -0.26 0.00
 -5 5 3 0.80 0.00
 -4 5 3 1.29 0.00
 -3 5 3 -1.96 0.00
 -2 5 3 -0.88 0.00
 -1 5 3 2.61 0.00
 0 5 3 -0.23 0.00
 1 5 3 -3.35 0.00
 2 5 3 -0.98 0.00
 3 5 3 2.72 0.00
 4 5 3 1.20 0.00
 5 5 3 0.54 0.00
 6 5 3 -0.20 0.00
 -7 6 3 -0.36 0.00
 -6 6 3 0.62 0.00
 -5 6 3 0.60 0.00
 -4 6 3 -1.86 0.00
 -3 6 3 0.69 0.00
 -2 6 3 2.46 0.00
 -1 6 3 -1.42 0.00
 0 6 3 -1.35 0.00
 1 6 3 1.92 0.00
 2 6 3 1.31 0.00
 3 6 3 -1.52 0.00
 4 6 3 -1.41 0.00
 5 6 3 -0.95 0.00
 -6 7 3 -0.71 0.00
 -5 7 3 -1.48 0.00
 -4 7 3 1.85 0.00
 -3 7 3 0.27 0.00
 -2 7 3 -2.68 0.00
 -1 7 3 0.69 0.00
 0 7 3 1.78 0.00
 1 7 3 -0.93 0.00
 2 7 3 -1.06 0.00
 3 7 3 0.52 0.00
 4 7 3 1.02 0.00
 -5 8 3 1.59 0.00
 -4 8 3 -1.53 0.00
 -3 8 3 -0.71 0.00
 -2 8 3 2.12 0.00
 -1 8 3 -0.38 0.00
 0 8 3 -1.50 0.00
 1 8 3 0.46 0.00
 2 8 3 0.66 0.00
 3 8 3 0.03 0.00
 -2 9 3 -1.28 0.00
 -1 9 3 0.33 0.00
 0 9 3 0.96 0.00
 1 9 3 -0.34 0.00
 -2 -9 4 -1.08 0.00
 -1 -9 4 0.21 0.00
 0 -9 4 1.38 0.00
 1 -9 4 -0.10 0.00
 -5 -8 4 -0.64 0.00
 -4 -8 4 -1.01 0.00
 -3 -8 4 0.28 0.00
 -2 -8 4 1.49 0.00
 -1 -8 4 -0.51 0.00
 0 -8 4 -2.43 0.00
 1 -8 4 0.39 0.00
 2 -8 4 1.95 0.00
 3 -8 4 0.43 0.00
 -6 -7 4 -0.44 0.00
 -5 -7 4 0.82 0.00
 -4 -7 4 0.82 0.00
 -3 -7 4 -0.01 0.00
 -2 -7 4 -1.28 0.00
 -1 -7 4 0.32 0.00
 0 -7 4 2.77 0.00
 1 -7 4 -0.73 0.00
 2 -7 4 -3.12 0.00
 3 -7 4 -0.93 0.00
 4 -7 4 1.35 0.00
 -7 -6 4 0.06 0.00
 -6 -6 4 0.41 0.00
 -5 -6 4 -0.36 0.00
 -4 -6 4 -0.35 0.00
 -3 -6 4 -1.03 0.00
 -2 -6 4 0.39 0.00
 -1 -6 4 0.76 0.00
 0 -6 4 -1.91 0.00
 1 -6 4 0.85 0.00
 2 -6 4 3.16 0.00
 3 -6 4 1.11 0.00
 4 -6 4 -2.04 0.00
 5 -6 4 -1.26 0.00
 -7 -5 4 0.57 0.00
 -6 -5 4 -0.19 0.00
 -5 -5 4 -0.62 0.00
 -4 -5 4 -0.29 0.00
 -3 -5 4 2.67 0.00
 -2 -5 4 0.76 0.00
 -1 -5 4 -2.72 0.00
 0 -5 4 0.22 0.00
 1 -5 4 -0.39 0.00
 2 -5 4 -1.75 0.00
 3 -5 4 -0.98 0.00
 4 -5 4 1.97 0.00
 5 -5 4 1.78 0.00
 6 -5 4 -0.41 0.00
 -8 -4 4 -0.21 0.00
 -7 -4 4 -1.23 0.00
 -6 -4 4 -0.44 0.00
 -5 -4 4 1.73 0.00
 -4 -4 4 1.11 0.00
 -3 -4 4 -4.32 0.00
 -2 -4 4 -1.71 0.00
 -1 -4 4 5.13 0.00
 0 -4 4 1.42 0.00
 1 -4 4 -0.87 0.00
 2 -4 4 -0.58 0.00
 3 -4 4 0.85 0.00
 4 -4 4 -0.93 0.00
 5 -4 4 -1.96 0.00
 6 -4 4 0.49 0.00
 -8 -3 4 -0.42 0.00
 -7 -3 4 1.68 0.00
 -6 -3 4 1.48 0.00
 -5 -3 4 -2.48 0.00
 -4 -3 4 -2.26 0.00
 -3 -3 4 5.24 0.00
 -2 -3 4 2.50 0.00
 -1 -3 4 -7.14 0.00
 0 -3 4 -2.33 0.00
 1 -3 4 2.73 0.00
 2 -3 4 2.86 0.00
 3 -3 4 -1.07 0.00
 4 -3 4 -0.79 0.00
 5 -3 4 1.92 0.00
 6 -3 4 -0.40 0.00
 7 -3 4 -0.41 0.00
 -9 -2 4 0.43 0.00
 -8 -2 4 1.07 0.00
 -7 -2 4 -1.79 0.00
 -6 -2 4 -2.66 0.00
 -5 -2 4 2.62 0.00
 -4 -2 4 3.80 0.00
 -3 -2 4 -4.95 0.00
 -2 -2 4 -3.59 0.00
 -1 -2 4 7.81 0.00
 0 -2 4 2.67 0.00
 1 -2 4 -4.44 0.00
 2 -2 4 -4.35 0.00
 3 -2 4 1.61 0.00
 4 -2 4 2.56 0.00
 5 -2 4 -1.74 0.00
 6 -2 4 0.17 0.00
 7 -2 4 0.61 0.00
 -9 -1 4 -0.48 0.00
 -8 -1 4 -1.49 0.00
 -7 -1 4 1.53 0.00
 -6 -1 4 3.59 0.00
 -5 -1 4 -2.10 0.00
 -4 -1 4 -5.47 0.00
 -3 -1 4 3.39 0.00
 -2 -1 4 5.26 0.00
 -1 -1 4 -6.57 0.00
 0 -1 4 -3.00 0.00
 1 -1 4 4.96 0.00
 2 -1 4 4.88 0.00
 3 -1 4 -1.99 0.00
 4 -1 4 -3.80 0.00
 5 -1 4 1.45 0.00
 6 -1 4 0.03 0.00
 7 -1 4 -0.62 0.00
 -9 0 4 0.42 0.00
 -8 0 4 1.59 0.00
 -7 0 4 -0.85 0.00
 -6 0 4 -3.91 0.00
 -5 0 4 0.98 0.00
 -4 0 4 6.59 0.00
 -3 0 4 -0.97 0.00
 -2 0 4 -7.06 0.00
 -1 0 4 3.58 0.00
 0 0 4 3.59 0.00
 1 0 4 -3.70 0.00
 2 0 4 -4.61 0.00
 3 0 4 1.70 0.00
 4 0 4 4.18 0.00
 5 0 4 -1.03 0.00
 6 0 4 -0.04 0.00
 7 0 4 0.42 0.00
 -9 1 4 -0.22 0.00
 -8 1 4 -1.39 0.00
 -7 1 4 -0.15 0.00
 -6 1 4 3.48 0.00
 -5 1 4 0.49 0.00
 -4 1 4 -6.48 0.00
 -3 1 4 -1.58 0.00
 -2 1 4 7.96 0.00
 -1 1 4 0.12 0.00
 0 1 4 -4.05 0.00
 1 1 4 1.01 0.00
 2 1 4 3.70 0.00
 3 1 4 -0.61 0.00
 4 1 4 -3.67 0.00
 5 1 4 0.56 0.00
 6 1 4 -0.09 0.00
 7 1 4 -0.17 0.00
 -9 2 4 -0.04 0.00
 -8 2 4 0.97 0.00
 -7 2 4 1.16 0.00
 -6 2 4 -2.45 0.00
 -5 2 4 -1.86 0.00
 -4 2 4 5.00 0.00
 -3 2 4 3.45 0.00
 -2 2 4 -7.19 0.00
 -1 2 4 -3.17 0.00
 0 2 4 3.77 0.00
 1 2 4 1.94 0.00
 2 2 4 -2.27 0.00
 3 2 4 -0.84 0.00
 4 2 4 2.50 0.00
 5 2 4 -0.24 0.00
 6 2 4 0.21 0.00
 7 2 4 0.02 0.00
 -8 3 4 -0.41 0.00
 -7 3 4 -1.72 0.00
 -6 3 4 1.21 0.00
 -5 3 4 2.61 0.00
 -4 3 4 -2.68 0.00
 -3 3 4 -4.15 0.00
 -2 3 4 4.93 0.00
 -1 3 4 4.59 0.00
 0 3 4 -2.60 0.00
 1 3 4 -3.92 0.00
 2 3 4 0.59 0.00
 3 3 4 1.96 0.00
 4 3 4 -1.02 0.00
 5 3 4 0.18 0.00
 6 3 4 -0.27 0.00
 7 3 4 -0.06 0.00
 -8 4 4 -0.12 0.00
 -7 4 4 1.53 0.00
 -6 4 4 -0.14 0.00
 -5 4 4 -2.41 0.00
 -4 4 4 0.41 0.00
 -3 4 4 3.68 0.00
 -2 4 4 -2.13 0.00
 -1 4 4 -4.32 0.00
 0 4 4 1.03 0.00
 1 4 4 4.38 0.00
 2 4 4 0.85 0.00
 3 4 4 -2.32 0.00
 4 4 4 -0.35 0.00
 5 4 4 -0.37 0.00
 6 4 4 0.32 0.00
 -7 5 4 -0.78 0.00
 -6 5 4 -0.54 0.00
 -5 5 4 1.39 0.00
 -4 5 4 1.19 0.00
 -3 5 4 -2.48 0.00
 -2 5 4 -0.19 0.00
 -1 5 4 3.07 0.00
 0 5 4 0.22 0.00
 1 5 4 -3.59 0.00
 2 5 4 -1.60 0.00
 3 5 4 1.91 0.00
 4 5 4 1.24 0.00
 5 5 4 0.68 0.00
 6 5 4 -0.42 0.00
 -7 6 4 -0.04 0.00
 -6 6 4 0.85 0.00
 -5 6 4 -0.06 0.00
 -4 6 4 -1.97 0.00
 -3 6 4 1.12 0.00
 -2 6 4 1.53 0.00
 -1 6 4 -1.69 0.00
 0 6 4 -0.82 0.00
 1 6 4 2.29 0.00
 2 6 4 1.52 0.00
 3 6 4 -1.06 0.00
 4 6 4 -1.45 0.00
 5 6 4 -0.98 0.00
 -6 7 4 -0.87 0.00
 -5 7 4 -0.96 0.00
 -4 7 4 2.14 0.00
 -3 7 4 -0.07 0.00
 -2 7 4 -1.97 0.00
 -1 7 4 0.72 0.00
 0 7 4 0.88 0.00
 1 7 4 -1.14 0.00
 2 7 4 -0.92 0.00
 3 7 4 0.20 0.00
 4 7 4 1.06 0.00
 -4 8 4 -1.89 0.00
 -3 8 4 -0.46 0.00
 -2 8 4 1.81 0.00
 -1 8 4 -0.29 0.00
 0 8 4 -0.72 0.00
 1 8 4 0.46 0.00
 2 8 4 0.31 0.00
 3 8 4 0.34 0.00
 -2 9 4 -1.30 0.00
 -1 9 4 0.24 0.00
 0 9 4 0.54 0.00
 -2 -9 5 -0.45 0.00
 -1 -9 5 0.04 0.00
 0 -9 5 0.43 0.00
 -4 -8 5 -0.84 0.00
 -3 -8 5 0.09 0.00
 -2 -8 5 1.28 0.00
 -1 -8 5 -0.27 0.00
 0 -8 5 -1.70 0.00
 1 -8 5 -0.21 0.00
 2 -8 5 0.86 0.00
 3 -8 5 0.29 0.00
 -6 -7 5 -0.51 0.00
 -5 -7 5 0.48 0.00
 -4 -7 5 0.91 0.00
 -3 -7 5 0.09 0.00
 -2 -7 5 -1.66 0.00
 -1 -7 5 0.38 0.00
 0 -7 5 2.79 0.00
 1 -7 5 0.26 0.00
 2 -7 5 -2.14 0.00
 3 -7 5 -1.29 0.00
 4 -7 5 0.76 0.00
 -7 -6 5 0.22 0.00
 -6 -6 5 0.43 0.00
 -5 -6 5 -0.14 0.00
 -4 -6 5 -0.45 0.00
 -3 -6 5 -0.84 0.00
 -2 -6 5 1.07 0.00
 -1 -6 5 -0.15 0.00
 0 -6 5 -2.76 0.00
 1 -6 5 0.02 0.00
 2 -6 5 2.85 0.00
 3 -6 5 2.07 0.00
 4 -6 5 -1.32 0.00
 5 -6 5 -0.62 0.00
 -7 -5 5 0.28 0.00
 -6 -5 5 -0.05 0.00
 -5 -5 5 -0.70 0.00
 -4 -5 5 -0.48 0.00
 -3 -5 5 2.16 0.00
 -2 -5 5 0.40 0.00
 -1 -5 5 -0.61 0.00
 0 -5 5 1.32 0.00
 1 -5 5 -0.56 0.00
 2 -5 5 -2.29 0.00
 3 -5 5 -2.16 0.00
 4 -5 5 1.54 0.00
 5 -5 5 1.30 0.00
 6 -5 5 -0.38 0.00
 -8 -4 5 0.03 0.00
 -7 -4 5 -0.82 0.00
 -6 -4 5 -0.71 0.00
 -5 -4 5 1.68 0.00
 -4 -4 5 1.64 0.00
 -3 -4 5 -3.65 0.00
 -2 -4 5 -2.09 0.00
 -1 -4 5 1.92 0.00
 0 -4 5 0.91 0.00
 1 -4 5 0.94 0.00
 2 -4 5 0.43 0.00
 3 -4 5 1.58 0.00
 4 -4 5 -1.11 0.00
 5 -4 5 -1.64 0.00
 6 -4 5 0.27 0.00
 -8 -3 5 -0.74 0.00
 -7 -3 5 1.17 0.00
 -6 -3 5 1.82 0.00
 -5 -3 5 -2.31 0.00
 -4 -3 5 -2.85 0.00
 -3 -3 5 4.73 0.00
 -2 -3 5 3.37 0.00
 -1 -3 5 -3.50 0.00
 0 -3 5 -2.89 0.00
 1 -3 5 -0.67 0.00
 2 -3 5 2.01 0.00
 3 -3 5 -0.78 0.00
 4 -3 5 0.07 0.00
 5 -3 5 1.65 0.00
 6 -3 5 -0.10 0.00
 -9 -2 5 0.36 0.00
 -8 -2 5 1.48 0.00
 -7 -2 5 -1.24 0.00
 -6 -2 5 -3.01 0.00
 -5 -2 5 2.32 0.00
 -4 -2 5 4.03 0.00
 -3 -2 5 -4.81 0.00
 -2 -2 5 -4.13 0.00
 -1 -2 5 4.73 0.00
 0 -2 5 3.99 0.00
 1 -2 5 -0.29 0.00
 2 -2 5 -4.14 0.00
 3 -2 5 0.29 0.00
 4 -2 5 1.22 0.00
 5 -2 5 -1.43 0.00
 6 -2 5 -0.09 0.00
 7 -2 5 0.16 0.00
 -9 -1 5 -0.49 0.00
 -8 -1 5 -1.91 0.00
 -7 -1 5 1.10 0.00
 -6 -1 5 3.90 0.00
 -5 -1 5 -1.69 0.00
 -4 -1 5 -5.07 0.00
 -3 -1 5 3.66 0.00
 -2 -1 5 4.63 0.00
 -1 -1 5 -4.87 0.00
 0 -1 5 -4.21 0.00
 1 -1 5 1.39 0.00
 2 -1 5 5.36 0.00
 3 -1 5 -0.25 0.00
 4 -1 5 -2.27 0.00
 5 -1 5 1.12 0.00
 6 -1 5 0.16 0.00
 7 -1 5 -0.39 0.00
 -9 0 5 0.56 0.00
 -8 0 5 1.91 0.00
 -7 0 5 -0.73 0.00
 -6 0 5 -4.17 0.00
 -5 0 5 0.59 0.00
 -4 0 5 5.68 0.00
 -3 0 5 -1.46 0.00
 -2 0 5 -4.98 0.00
 -1 0 5 3.50 0.00
 0 0 5 3.90 0.00
 1 0 5 -1.78 0.00
 2 0 5 -5.49 0.00
 3 0 5 0.38 0.00
 4 0 5 2.73 0.00
 5 0 5 -0.78 0.00
 6 0 5 0.02 0.00
 7 0 5 0.42 0.00
 -9 1 5 -0.48 0.00
 -8 1 5 -1.54 0.00
 -7 1 5 0.10 0.00
 -6 1 5 3.68 0.00
 -5 1 5 0.76 0.00
 -4 1 5 -5.46 0.00
 -3 1 5 -1.14 0.00
 -2 1 5 4.95 0.00
 -1 1 5 -0.95 0.00
 0 1 5 -3.20 0.00
 1 1 5 1.01 0.00
 2 1 5 4.63 0.00
 3 1 5 -0.30 0.00
 4 1 5 -2.51 0.00
 5 1 5 0.49 0.00
 6 1 5 -0.37 0.00
 7 1 5 -0.28 0.00
 -9 2 5 0.22 0.00
 -8 2 5 0.94 0.00
 -7 2 5 0.67 0.00
 -6 2 5 -2.56 0.00
 -5 2 5 -1.99 0.00
 -4 2 5 4.27 0.00
 -3 2 5 3.31 0.00
 -2 2 5 -4.19 0.00
 -1 2 5 -1.79 0.00
 0 2 5 2.12 0.00
 1 2 5 0.61 0.00
 2 2 5 -3.00 0.00
 3 2 5 -0.09 0.00
 4 2 5 1.73 0.00
 5 2 5 -0.30 0.00
 6 2 5 0.68 0.00
 -8 3 5 -0.29 0.00
 -7 3 5 -1.26 0.00
 -6 3 5 1.20 0.00
 -5 3 5 2.73 0.00
 -4 3 5 -2.42 0.00
 -3 3 5 -4.39 0.00
 -2 3 5 2.74 0.00
 -1 3 5 3.65 0.00
 0 3 5 -0.78 0.00
 1 3 5 -2.23 0.00
 2 3 5 1.02 0.00
 3 3 5 0.61 0.00
 4 3 5 -0.64 0.00
 5 3 5 0.26 0.00
 6 3 5 -0.82 0.00
 -8 4 5 -0.24 0.00
 -7 4 5 1.35 0.00
 -6 4 5 -0.01 0.00
 -5 4 5 -2.69 0.00
 -4 4 5 0.52 0.00
 -3 4 5 4.24 0.00
 -2 4 5 -1.11 0.00
 -1 4 5 -4.10 0.00
 0 4 5 -0.41 0.00
 1 4 5 3.12 0.00
 2 4 5 0.73 0.00
 3 4 5 -0.95 0.00
 4 4 5 -0.43 0.00
 5 4 5 -0.32 0.00
 6 4 5 0.79 0.00
 -7 5 5 -0.91 0.00
 -6 5 5 -0.75 0.00
 -5 5 5 1.91 0.00
 -4 5 5 0.91 0.00
 -3 5 5 -3.18 0.00
 -2 5 5 -0.18 0.00
 -1 5 5 3.40 0.00
 0 5 5 1.02 0.00
 1 5 5 -3.05 0.00
 2 5 5 -1.71 0.00
 3 5 5 0.94 0.00
 4 5 5 1.18 0.00
 5 5 5 0.42 0.00
 -7 6 5 0.24 0.00
 -6 6 5 1.04 0.00
 -5 6 5 -0.74 0.00
 -4 6 5 -1.71 0.00
 -3 6 5 1.80 0.00
 -2 6 5 0.89 0.00
 -1 6 5 -2.20 0.00
 0 6 5 -0.99 0.00
 1 6 5 2.30 0.00
 2 6 5 1.73 0.00
 3 6 5 -0.58 0.00
 4 6 5 -1.38 0.00
 -6 7 5 -1.01 0.00
 -5 7 5 -0.31 0.00
 -4 7 5 1.97 0.00
 -3 7 5 -0.61 0.00
 -2 7 5 -1.16 0.00
 -1 7 5 1.12 0.00
 0 7 5 0.61 0.00
 1 7 5 -1.35 0.00
 2 7 5 -1.08 0.00
 3 7 5 0.09 0.00
 -4 8 5 -1.86 0.00
 -3 8 5 -0.11 0.00
 -2 8 5 1.15 0.00
 -1 8 5 -0.46 0.00
 0 8 5 -0.27 0.00
 1 8 5 0.60 0.00
 2 8 5 0.31 0.00
 -4 -8 6 -0.31 0.00
 -3 -8 6 0.02 0.00
 -2 -8 6 0.56 0.00
 -1 -8 6 -0.03 0.00
 0 -8 6 -0.48 0.00
 1 -8 6 -0.24 0.00
 2 -8 6 0.01 0.00
 -6 -7 6 -0.36 0.00
 -5 -7 6 0.02 0.00
 -4 -7 6 0.80 0.00
 -3 -7 6 0.28 0.00
 -2 -7 6 -1.55 0.00
 -1 -7 6 -0.15 0.00
 0 -7 6 1.76 0.00
 1 -7 6 1.06 0.00
 2 -7 6 -0.74 0.00
 3 -7 6 -0.76 0.00
 -7 -6 6 0.03 0.00
 -6 -6 6 0.35 0.00
 -5 -6 6 0.37 0.00
 -4 -6 6 -0.74 0.00
 -3 -6 6 -0.86 0.00
 -2 -6 6 1.79 0.00
 -1 -6 6 0.26 0.00
 0 -6 6 -2.58 0.00
 1 -6 6 -1.55 0.00
 2 -6 6 1.53 0.00
 3 -6 6 2.08 0.00
 4 -6 6 -0.62 0.00
 -7 -5 6 0.40 0.00
 -6 -5 6 0.00 0.00
 -5 -5 6 -1.11 0.00
 -4 -5 6 -0.06 0.00
 -3 -5 6 1.72 0.00
 -2 -5 6 -0.81 0.00
 -1 -5 6 -0.24 0.00
 0 -5 6 2.12 0.00
 1 -5 6 1.22 0.00
 2 -5 6 -1.70 0.00
 3 -5 6 -2.91 0.00
 4 -5 6 0.77 0.00
 5 -5 6 0.35 0.00
 -8 -4 6 0.21 0.00
 -7 -4 6 -0.81 0.00
 -6 -4 6 -0.78 0.00
 -5 -4 6 1.93 0.00
 -4 -4 6 1.42 0.00
 -3 -4 6 -2.72 0.00
 -2 -4 6 -1.07 0.00
 -1 -4 6 0.26 0.00
 0 -4 6 -0.38 0.00
 1 -4 6 -0.11 0.00
 2 -4 6 0.86 0.00
 3 -4 6 2.78 0.00
 4 -4 6 -0.67 0.00
 5 -4 6 -0.86 0.00
 6 -4 6 0.27 0.00
 -8 -3 6 -0.89 0.00
 -7 -3 6 0.96 0.00
 -6 -3 6 1.89 0.00
 -5 -3 6 -2.43 0.00
 -4 -3 6 -2.91 0.00
 -3 -3 6 3.54 0.00
 -2 -3 6 3.05 0.00
 -1 -3 6 -0.57 0.00
 0 -3 6 -1.92 0.00
 1 -3 6 -1.13 0.00
 3 -3 6 -1.82 0.00
 4 -3 6 0.24 0.00
 5 -3 6 1.11 0.00
 6 -3 6 0.07 0.00
 -9 -2 6 0.17 0.00
 -8 -2 6 1.64 0.00
 -7 -2 6 -0.85 0.00
 -6 -2 6 -3.05 0.00
 -5 -2 6 2.33 0.00
 -4 -2 6 4.19 0.00
 -3 -2 6 -3.80 0.00
 -2 -2 6 -4.48 0.00
 -1 -2 6 1.24 0.00
 0 -2 6 3.90 0.00
 1 -2 6 1.73 0.00
 2 -2 6 -2.65 0.00
 3 -2 6 0.66 0.00
 4 -2 6 0.38 0.00
 5 -2 6 -1.11 0.00
 6 -2 6 -0.43 0.00
 -9 -1 6 -0.29 0.00
 -8 -1 6 -2.14 0.00
 -7 -1 6 0.63 0.00
 -6 -1 6 3.92 0.00
 -5 -1 6 -1.62 0.00
 -4 -1 6 -5.03 0.00
 -3 -1 6 3.22 0.00
 -2 -1 6 5.14 0.00
 -1 -1 6 -1.88 0.00
 0 -1 6 -5.04 0.00
 1 -1 6 -1.43 0.00
 2 -1 6 4.15 0.00
 3 -1 6 0.12 0.00
 4 -1 6 -0.95 0.00
 5 -1 6 0.95 0.00
 6 -1 6 0.66 0.00
 -9 0 6 0.52 0.00
 -8 0 6 2.18 0.00
 -7 0 6 -0.40 0.00
 -6 0 6 -4.21 0.00
 -5 0 6 0.50 0.00
 -4 0 6 5.29 0.00
 -3 0 6 -1.71 0.00
 -2 0 6 -5.12 0.00
 -1 0 6 1.91 0.00
 0 0 6 5.23 0.00
 1 0 6 0.64 0.00
 2 0 6 -4.89 0.00
 3 0 6 -0.32 0.00
 4 0 6 1.23 0.00
 5 0 6 -0.73 0.00
 6 0 6 -0.58 0.00
 -9 1 6 -0.67 0.00
 -8 1 6 -1.77 0.00
 -7 1 6 0.13 0.00
 -6 1 6 3.77 0.00
 -5 1 6 0.77 0.00
 -4 1 6 -4.85 0.00
 -3 1 6 -0.38 0.00
 -2 1 6 4.47 0.00
 -1 1 6 -1.01 0.00
 0 1 6 -4.54 0.00
 1 1 6 -0.07 0.00
 2 1 6 4.71 0.00
 3 1 6 0.14 0.00
 4 1 6 -1.15 0.00
 5 1 6 0.52 0.00
 6 1 6 0.19 0.00
 -9 2 6 0.59 0.00
 -8 2 6 1.07 0.00
 -7 2 6 0.25 0.00
 -6 2 6 -2.71 0.00
 -5 2 6 -1.91 0.00
 -4 2 6 3.70 0.00
 -3 2 6 2.41 0.00
 -2 2 6 -3.28 0.00
 -1 2 6 -0.55 0.00
 0 2 6 3.13 0.00
 1 2 6 0.15 0.00
 2 2 6 -3.64 0.00
 3 2 6 0.11 0.00
 4 2 6 0.75 0.00
 5 2 6 -0.37 0.00
 6 2 6 0.28 0.00
 -8 3 6 -0.30 0.00
 -7 3 6 -0.65 0.00
 -6 3 6 1.34 0.00
 -5 3 6 2.61 0.00
 -4 3 6 -2.10 0.00
 -3 3 6 -3.73 0.00
 -2 3 6 1.79 0.00
 -1 3 6 2.06 0.00
 0 3 6 -1.34 0.00
 1 3 6 -0.75 0.00
 2 3 6 1.95 0.00
 3 3 6 -0.19 0.00
 4 3 6 -0.15 0.00
 5 3 6 0.29 0.00
 6 3 6 -0.61 0.00
 -8 4 6 -0.32 0.00
 -7 4 6 0.83 0.00
 -6 4 6 -0.08 0.00
 -5 4 6 -2.68 0.00
 -4 4 6 0.54 0.00
 -3 4 6 3.99 0.00
 -2 4 6 -0.46 0.00
 -1 4 6 -2.87 0.00
 0 4 6 -0.25 0.00
 1 4 6 1.42 0.00
 2 4 6 -0.17 0.00
 3 4 6 0.09 0.00
 4 4 6 -0.50 0.00
 5 4 6 -0.23 0.00
 -7 5 6 -0.66 0.00
 -6 5 6 -0.75 0.00
 -5 5 6 2.11 0.00
 -4 5 6 0.61 0.00
 -3 5 6 -3.34 0.00
 -2 5 6 -0.36 0.00
 -1 5 6 2.83 0.00
 0 5 6 1.14 0.00
 1 5 6 -1.77 0.00
 2 5 6 -1.10 0.00
 3 5 6 0.08 0.00
 4 5 6 1.00 0.00
 5 5 6 0.14 0.00
 -6 6 6 1.08 0.00
 -5 6 6 -1.15 0.00
 -4 6 6 -1.24 0.00
 -3 6 6 2.20 0.00
 -2 6 6 0.63 0.00
 -1 6 6 -2.20 0.00
 0 6 6 -1.21 0.00
 1 6 6 1.67 0.00
 2 6 6 1.51 0.00
 3 6 6 -0.16 0.00
 4 6 6 -1.16 0.00
 -5 7 6 0.19 0.00
 -4 7 6 1.47 0.00
 -3 7 6 -1.05 0.00
 -2 7 6 -0.62 0.00
 -1 7 6 1.38 0.00
 0 7 6 0.76 0.00
 1 7 6 -1.25 0.00
 2 7 6 -1.14 0.00
 3 7 6 0.12 0.00
 -4 8 6 -1.44 0.00
 -3 8 6 0.23 0.00
 -2 8 6 0.57 0.00
 -1 8 6 -0.71 0.00
 0 8 6 -0.28 0.00
 1 8 6 0.74 0.00
 -4 -8 7 0.33 0.00
 -3 -8 7 0.15 0.00
 -2 -8 7 -0.25 0.00
 -1 -8 7 -0.23 0.00
 0 -8 7 0.41 0.00
 1 -8 7 0.47 0.00
 -5 -7 7 -0.25 0.00
 -4 -7 7 0.40 0.00
 -3 -7 7 0.42 0.00
 -2 -7 7 -0.82 0.00
 -1 -7 7 -0.54 0.00
 0 -7 7 0.32 0.00
 1 -7 7 0.75 0.00
 2 -7 7 0.14 0.00
 3 -7 7 0.38 0.00
 -6 -6 7 0.14 0.00
 -5 -6 7 0.74 0.00
 -4 -6 7 -0.86 0.00
 -3 -6 7 -1.10 0.00
 -2 -6 7 1.72 0.00
 -1 -6 7 1.29 0.00
 0 -6 7 -1.27 0.00
 1 -6 7 -2.26 0.00
 2 -6 7 0.14 0.00
 3 -6 7 0.90 0.00
 4 -6 7 -0.36 0.00
 -7 -5 7 0.70 0.00
 -6 -5 7 0.05 0.00
 -5 -5 7 -1.42 0.00
 -4 -5 7 0.58 0.00
 -3 -5 7 1.71 0.00
 -2 -5 7 -1.67 0.00
 -1 -5 7 -1.51 0.00
 0 -5 7 1.66 0.00
 1 -5 7 3.13 0.00
 2 -5 7 -0.42 0.00
 3 -5 7 -2.31 0.00
 4 -5 7 0.28 0.00
 5 -5 7 -0.60 0.00
 -8 -4 7 0.46 0.00
 -7 -4 7 -1.08 0.00
 -6 -4 7 -0.67 0.00
 -5 -4 7 2.09 0.00
 -4 -4 7 0.53 0.00
 -3 -4 7 -2.14 0.00
 -2 -4 7 0.44 0.00
 -1 -4 7 1.00 0.00
 0 -4 7 -1.03 0.00
 1 -4 7 -2.72 0.00
 2 -4 7 0.33 0.00
 3 -4 7 3.11 0.00
 4 -4 7 -0.17 0.00
 5 -4 7 0.16 0.00
 -8 -3 7 -0.93 0.00
 -7 -3 7 1.12 0.00
 -6 -3 7 1.63 0.00
 -5 -3 7 -2.45 0.00
 -4 -3 7 -2.10 0.00
 -3 -3 7 2.36 0.00
 -2 -3 7 1.52 0.00
 -1 -3 7 -0.13 0.00
 0 -3 7 -0.50 0.00
 1 -3 7 1.19 0.00
 2 -3 7 0.24 0.00
 3 -3 7 -2.91 0.00
 4 -3 7 -0.02 0.00
 5 -3 7 0.28 0.00
 -8 -2 7 1.53 0.00
 -7 -2 7 -0.82 0.00
 -6 -2 7 -2.67 0.00
 -5 -2 7 2.28 0.00
 -4 -2 7 3.60 0.00
 -3 -2 7 -2.34 0.00
 -2 -2 7 -3.49 0.00
 -1 -2 7 -0.50 0.00
 0 -2 7 2.38 0.00
 1 -2 7 0.59 0.00
 2 -2 7 -1.15 0.00
 3 -2 7 1.96 0.00
 4 -2 7 0.25 0.00
 5 -2 7 -0.59 0.00
 6 -2 7 -0.45 0.00
 -9 -1 7 -0.03 0.00
 -8 -1 7 -2.00 0.00
 -7 -1 7 0.40 0.00
 -6 -1 7 3.48 0.00
 -5 -1 7 -1.60 0.00
 -4 -1 7 -4.63 0.00
 -3 -1 7 2.00 0.00
 -2 -1 7 4.88 0.00
 -1 -1 7 0.56 0.00
 0 -1 7 -4.03 0.00
 1 -1 7 -1.70 0.00
 2 -1 7 2.12 0.00
 3 -1 7 -0.86 0.00
 4 -1 7 -0.41 0.00
 5 -1 7 0.72 0.00
 6 -1 7 0.94 0.00
 -9 0 7 0.27 0.00
 -8 0 7 2.12 0.00
 -7 0 7 -0.10 0.00
 -6 0 7 -3.81 0.00
 -5 0 7 0.56 0.00
 -4 0 7 4.97 0.00
 -3 0 7 -1.21 0.00
 -2 0 7 -5.41 0.00
 -1 0 7 -0.24 0.00
 0 0 7 5.05 0.00
 1 0 7 1.79 0.00
 2 0 7 -2.90 0.00
 3 0 7 0.13 0.00
 4 0 7 0.42 0.00
 5 0 7 -0.68 0.00
 6 0 7 -1.15 0.00
 -9 1 7 -0.61 0.00
 -8 1 7 -1.85 0.00
 -7 1 7 -0.02 0.00
 -6 1 7 3.53 0.00
 -5 1 7 0.57 0.00
 -4 1 7 -4.53 0.00
 -3 1 7 -0.01 0.00
 -2 1 7 5.00 0.00
 -1 1 7 0.03 0.00
 0 1 7 -5.18 0.00
 1 1 7 -1.18 0.00
 2 1 7 3.26 0.00
 3 1 7 0.03 0.00
 4 1 7 -0.29 0.00
 5 1 7 0.56 0.00
 6 1 7 0.97 0.00
 -8 2 7 1.24 0.00
 -7 2 7 0.10 0.00
 -6 2 7 -2.66 0.00
 -5 2 7 -1.56 0.00
 -4 2 7 3.42 0.00
 -3 2 7 1.36 0.00
 -2 2 7 -3.78 0.00
 -1 2 7 -0.23 0.00
 0 2 7 4.33 0.00
 1 2 7 0.46 0.00
 2 2 7 -3.03 0.00
 3 2 7 0.20 0.00
 4 2 7 0.08 0.00
 5 2 7 -0.44 0.00
 6 2 7 -0.55 0.00
 -8 3 7 -0.47 0.00
 -7 3 7 -0.21 0.00
 -6 3 7 1.45 0.00
 -5 3 7 2.18 0.00
 -4 3 7 -1.96 0.00
 -3 3 7 -2.42 0.00
 -2 3 7 2.14 0.00
 -1 3 7 0.73 0.00
 0 3 7 -2.72 0.00
 1 3 7 -0.07 0.00
 2 3 7 2.17 0.00
 3 3 7 -0.51 0.00
 4 3 7 0.16 0.00
 5 3 7 0.34 0.00
 -8 4 7 -0.23 0.00
 -7 4 7 0.28 0.00
 -6 4 7 -0.26 0.00
 -5 4 7 -2.28 0.00
 -4 4 7 0.61 0.00
 -3 4 7 2.83 0.00
 -2 4 7 -0.66 0.00
 -1 4 7 -1.23 0.00
 0 4 7 0.92 0.00
 1 4 7 0.10 0.00
 2 4 7 -0.93 0.00
 3 4 7 0.62 0.00
 4 4 7 -0.41 0.00
 5 4 7 -0.22 0.00
 -7 5 7 -0.22 0.00
 -6 5 7 -0.57 0.00
 -5 5 7 1.88 0.00
 -4 5 7 0.30 0.00
 -3 5 7 -2.58 0.00
 -2 5 7 -0.22 0.00
 -1 5 7 1.48 0.00
 0 5 7 0.41 0.00
 1 5 7 -0.38 0.00
 2 5 7 -0.22 0.00
 3 5 7 -0.46 0.00
 4 5 7 0.65 0.00
 -5 6 7 -1.15 0.00
 -4 6 7 -0.73 0.00
 -3 6 7 1.90 0.00
 -2 6 7 0.46 0.00
 -1 6 7 -1.42 0.00
 0 6 7 -0.95 0.00
 1 6 7 0.68 0.00
 2 6 7 0.86 0.00
 3 6 7 0.14 0.00
 -5 7 7 0.37 0.00
 -4 7 7 0.86 0.00
 -3 7 7 -1.09 0.00
 -2 7 7 -0.37 0.00
 -1 7 7 1.14 0.00
 0 7 7 0.83 0.00
 1 7 7 -0.81 0.00
 2 7 7 -0.87 0.00
 -3 8 7 0.41 0.00
 -2 8 7 0.27 0.00
 -1 8 7 -0.79 0.00
 0 8 7 -0.48 0.00
 -3 -8 8 0.46 0.00
 -2 -8 8 -0.54 0.00
 -1 -8 8 -0.90 0.00
 0 -8 8 0.43 0.00
 -5 -7 8 -0.25 0.00
 -4 -7 8 -0.07 0.00
 -3 -7 8 0.33 0.00
 -2 -7 8 0.00 0.00
 -1 -7 8 -0.14 0.00
 0 -7 8 -0.53 0.00
 1 -7 8 -0.55 0.00
 2 -7 8 0.11 0.00
 -6 -6 8 -0.12 0.00
 -5 -6 8 0.82 0.00
 -4 -6 8 -0.63 0.00
 -3 -6 8 -1.33 0.00
 -2 -6 8 0.88 0.00
 -1 -6 8 1.71 0.00
 0 -6 8 0.16 0.00
 1 -6 8 -1.28 0.00
 2 -6 8 -0.34 0.00
 3 -6 8 -0.75 0.00
 -7 -5 8 0.82 0.00
 -6 -5 8 0.11 0.00
 -5 -5 8 -1.43 0.00
 -4 -5 8 0.90 0.00
 -3 -5 8 2.09 0.00
 -2 -5 8 -1.44 0.00
 -1 -5 8 -2.96 0.00
 0 -5 8 0.31 0.00
 1 -5 8 3.32 0.00
 2 -5 8 0.41 0.00
 3 -5 8 -0.53 0.00
 4 -5 8 0.35 0.00
 -8 -4 8 0.78 0.00
 -7 -4 8 -1.24 0.00
 -6 -4 8 -0.47 0.00
 -5 -4 8 1.93 0.00
 -4 -4 8 -0.38 0.00
 -3 -4 8 -2.30 0.00
 -2 -4 8 1.16 0.00
 -1 -4 8 3.11 0.00
 0 -4 8 -0.45 0.00
 1 -4 8 -4.44 0.00
 2 -4 8 -0.42 0.00
 3 -4 8 1.95 0.00
 4 -4 8 -0.14 0.00
 -8 -3 8 -1.02 0.00
 -7 -3 8 1.33 0.00
 -6 -3 8 1.16 0.00
 -5 -3 8 -2.13 0.00
 -4 -3 8 -0.82 0.00
 -3 -3 8 1.97 0.00
 -2 -3 8 0.02 0.00
 -1 -3 8 -2.07 0.00
 0 -3 8 0.03 0.00
 1 -3 8 4.04 0.00
 2 -3 8 0.46 0.00
 3 -3 8 -2.79 0.00
 4 -3 8 -0.13 0.00
 5 -3 8 -0.51 0.00
 -8 -2 8 1.33 0.00
 -7 -2 8 -1.00 0.00
 -6 -2 8 -1.97 0.00
 -5 -2 8 1.92 0.00
 -4 -2 8 2.27 0.00
 -3 -2 8 -1.37 0.00
 -2 -2 8 -1.69 0.00
 -1 -2 8 0.47 0.00
 0 -2 8 0.88 0.00
 1 -2 8 -2.40 0.00
 2 -2 8 -0.55 0.00
 3 -2 8 2.76 0.00
 4 -2 8 0.37 0.00
 5 -2 8 0.05 0.00
 -8 -1 8 -1.60 0.00
 -7 -1 8 0.44 0.00
 -6 -1 8 2.64 0.00
 -5 -1 8 -1.31 0.00
 -4 -1 8 -3.48 0.00
 -3 -1 8 0.74 0.00
 -2 -1 8 3.32 0.00
 -1 -1 8 0.84 0.00
 0 -1 8 -2.05 0.00
 1 -1 8 0.47 0.00
 2 -1 8 0.71 0.00
 3 -1 8 -2.07 0.00
 4 -1 8 -0.49 0.00
 5 -1 8 0.29 0.00
 -9 0 8 -0.03 0.00
 -8 0 8 1.72 0.00
 -7 0 8 0.02 0.00
 -6 0 8 -2.97 0.00
 -5 0 8 0.47 0.00
 -4 0 8 4.08 0.00
 -3 0 8 -0.19 0.00
 -2 0 8 -4.42 0.00
 -1 0 8 -1.38 0.00
 0 0 8 3.18 0.00
 1 0 8 0.86 0.00
 2 0 8 -0.97 0.00
 3 0 8 1.21 0.00
 4 0 8 0.42 0.00
 5 0 8 -0.45 0.00
 -8 1 8 -1.61 0.00
 -7 1 8 -0.22 0.00
 -6 1 8 2.83 0.00
 -5 1 8 0.42 0.00
 -4 1 8 -3.91 0.00
 -3 1 8 -0.35 0.00
 -2 1 8 4.67 0.00
 -1 1 8 1.24 0.00
 0 1 8 -3.92 0.00
 1 1 8 -1.21 0.00
 2 1 8 1.29 0.00
 3 1 8 -0.61 0.00
 4 1 8 -0.23 0.00
 5 1 8 0.44 0.00
 -8 2 8 1.23 0.00
 -7 2 8 0.20 0.00
 -6 2 8 -2.22 0.00
 -5 2 8 -1.15 0.00
 -4 2 8 3.03 0.00
 -3 2 8 0.87 0.00
 -2 2 8 -3.98 0.00
 -1 2 8 -0.78 0.00
 0 2 8 3.92 0.00
 1 2 8 0.80 0.00
 2 2 8 -1.52 0.00
 3 2 8 0.45 0.00
 4 2 8 0.04 0.00
 5 2 8 -0.38 0.00
 -8 3 8 -0.63 0.00
 -7 3 8 -0.10 0.00
 -6 3 8 1.30 0.00
 -5 3 8 1.57 0.00
 -4 3 8 -1.79 0.00
 -3 3 8 -1.25 0.00
 -2 3 8 2.62 0.00
 -1 3 8 0.36 0.00
 0 3 8 -3.10 0.00
 1 3 8 -0.11 0.00
 2 3 8 1.46 0.00
 3 3 8 -0.58 0.00
 4 3 8 0.05 0.00
 5 3 8 0.31 0.00
 -7 4 8 -0.01 0.00
 -6 4 8 -0.35 0.00
 -5 4 8 -1.61 0.00
 -4 4 8 0.65 0.00
 -3 4 8 1.39 0.00
 -2 4 8 -1.18 0.00
 -1 4 8 -0.14 0.00
 0 4 8 1.77 0.00
 1 4 8 -0.38 0.00
 2 4 8 -1.03 0.00
 3 4 8 0.72 0.00
 4 4 8 -0.08 0.00
 -7 5 8 0.12 0.00
 -6 5 8 -0.34 0.00
 -5 5 8 1.30 0.00
 -4 5 8 0.06 0.00
 -3 5 8 -1.27 0.00
 -2 5 8 0.19 0.00
 -1 5 8 0.15 0.00
 0 5 8 -0.47 0.00
 1 5 8 0.44 0.00
 2 5 8 0.38 0.00
 3 5 8 -0.62 0.00
 -6 6 8 0.64 0.00
 -5 6 8 -0.79 0.00
 -4 6 8 -0.30 0.00
 -3 6 8 0.99 0.00
 -2 6 8 0.19 0.00
 -1 6 8 -0.31 0.00
 0 6 8 -0.34 0.00
 1 6 8 -0.14 0.00
 2 6 8 0.17 0.00
 -4 7 8 0.32 0.00
 -3 7 8 -0.65 0.00
 -2 7 8 -0.19 0.00
 -1 7 8 0.48 0.00
 0 7 8 0.59 0.00
 1 7 8 -0.26 0.00
 -4 -7 9 -0.23 0.00
 -3 -7 9 -0.05 0.00
 -2 -7 9 0.27 0.00
 -1 -7 9 0.90 0.00
 0 -7 9 -0.33 0.00
 1 -7 9 -1.78 0.00
 -6 -6 9 -0.25 0.00
 -5 -6 9 0.67 0.00
 -4 -6 9 -0.28 0.00
 -3 -6 9 -1.19 0.00
 -2 -6 9 0.01 0.00
 -1 -6 9 0.87 0.00
 0 -6 9 0.63 0.00
 1 -6 9 0.68 0.00
 2 -6 9 0.21 0.00
 -7 -5 9 0.58 0.00
 -6 -5 9 0.12 0.00
 -5 -5 9 -1.18 0.00
 -4 -5 9 0.74 0.00
 -3 -5 9 2.36 0.00
 -2 -5 9 -0.47 0.00
 -1 -5 9 -3.05 0.00
 0 -5 9 -0.66 0.00
 1 -5 9 1.51 0.00
 2 -5 9 0.10 0.00
 3 -5 9 1.25 0.00
 -7 -4 9 -1.01 0.00
 -6 -4 9 -0.26 0.00
 -5 -4 9 1.53 0.00
 -4 -4 9 -0.73 0.00
 -3 -4 9 -2.86 0.00
 -2 -4 9 0.68 0.00
 -1 -4 9 4.50 0.00
 0 -4 9 0.55 0.00
 1 -4 9 -3.78 0.00
 2 -4 9 -0.40 0.00
 3 -4 9 -0.02 0.00
 4 -4 9 -0.58 0.00
 -8 -3 9 -1.14 0.00
 -7 -3 9 1.22 0.00
 -6 -3 9 0.68 0.00
 -5 -3 9 -1.58 0.00
 -4 -3 9 0.12 0.00
 -3 -3 9 2.48 0.00
 -2 -3 9 -0.39 0.00
 -1 -3 9 -4.47 0.00
 0 -3 9 -0.46 0.00
 1 -3 9 5.01 0.00
 2 -3 9 0.61 0.00
 3 -3 9 -1.34 0.00
 4 -3 9 0.24 0.00
 -8 -2 9 1.20 0.00
 -7 -2 9 -1.04 0.00
 -6 -2 9 -1.23 0.00
 -5 -2 9 1.31 0.00
 -4 -2 9 0.90 0.00
 -3 -2 9 -1.47 0.00
 -2 -2 9 -0.41 0.00
 -1 -2 9 3.03 0.00
 0 -2 9 0.50 0.00
 1 -2 9 -4.68 0.00
 2 -2 9 -0.63 0.00
 3 -2 9 2.21 0.00
 4 -2 9 0.22 0.00
 -8 -1 9 -1.22 0.00
 -7 -1 9 0.54 0.00
 -6 -1 9 1.70 0.00
 -5 -1 9 -0.77 0.00
 -4 -1 9 -1.94 0.00
 -3 -1 9 0.32 0.00
 -2 -1 9 1.50 0.00
 -1 -1 9 -1.01 0.00
 0 -1 9 -0.75 0.00
 1 -1 9 3.14 0.00
 2 -1 9 0.47 0.00
 3 -1 9 -2.32 0.00
 4 -1 9 -0.60 0.00
 5 -1 9 -0.14 0.00
 -8 0 9 1.19 0.00
 -7 0 9 0.00 0.00
 -6 0 9 -1.93 0.00
 -5 0 9 0.12 0.00
 -4 0 9 2.63 0.00
 -3 0 9 0.55 0.00
 -2 0 9 -2.52 0.00
 -1 0 9 -0.69 0.00
 0 0 9 1.23 0.00
 1 0 9 -1.27 0.00
 2 0 9 -0.25 0.00
 3 0 9 1.85 0.00
 4 0 9 0.72 0.00
 5 0 9 -0.08 0.00
 -8 1 9 -1.13 0.00
 -7 1 9 -0.33 0.00
 -6 1 9 1.84 0.00
 -5 1 9 0.50 0.00
 -4 1 9 -2.71 0.00
 -3 1 9 -1.00 0.00
 -2 1 9 3.10 0.00
 -1 1 9 1.52 0.00
 0 1 9 -1.80 0.00
 1 1 9 -0.09 0.00
 2 1 9 0.17 0.00
 3 1 9 -1.19 0.00
 4 1 9 -0.60 0.00
 5 1 9 0.14 0.00
 -8 2 9 0.96 0.00
 -7 2 9 0.39 0.00
 -6 2 9 -1.43 0.00
 -5 2 9 -0.93 0.00
 -4 2 9 2.16 0.00
 -3 2 9 1.05 0.00
 -2 2 9 -2.97 0.00
 -1 2 9 -1.44 0.00
 0 2 9 2.18 0.00
 1 2 9 0.59 0.00
 2 2 9 -0.30 0.00
 3 2 9 0.72 0.00
 4 2 9 0.41 0.00
 -8 3 9 -0.62 0.00
 -7 3 9 -0.25 0.00
 -6 3 9 0.82 0.00
 -5 3 9 1.08 0.00
 -4 3 9 -1.24 0.00
 -3 3 9 -0.81 0.00
 -2 3 9 2.19 0.00
 -1 3 9 0.80 0.00
 0 3 9 -2.09 0.00
 1 3 9 -0.34 0.00
 2 3 9 0.54 0.00
 3 3 9 -0.56 0.00
 4 3 9 -0.32 0.00
 -7 4 9 0.02 0.00
 -6 4 9 -0.19 0.00
 -5 4 9 -0.96 0.00
 -4 4 9 0.41 0.00
 -3 4 9 0.45 0.00
 -2 4 9 -1.16 0.00
 -1 4 9 -0.05 0.00
 0 4 9 1.53 0.00
 1 4 9 -0.19 0.00
 2 4 9 -0.66 0.00
 3 4 9 0.56 0.00
 -6 5 9 -0.23 0.00
 -5 5 9 0.65 0.00
 -4 5 9 0.03 0.00
 -3 5 9 -0.14 0.00
 -2 5 9 0.37 0.00
 -1 5 9 -0.42 0.00
 0 5 9 -0.76 0.00
 1 5 9 0.52 0.00
 2 5 9 0.54 0.00
 3 5 9 -0.51 0.00
 -5 6 9 -0.30 0.00
 -4 6 9 -0.05 0.00
 -3 6 9 0.00 0.00
 -2 6 9 -0.03 0.00
 -1 6 9 0.44 0.00
 0 6 9 0.14 0.00
 1 6 9 -0.46 0.00
 2 6 9 -0.27 0.00
 -3 7 9 -0.01 0.00
 -2 7 9 -0.02 0.00
 -1 7 9 -0.17 0.00
 0 7 9 0.19 0.00
 -3 -7 10 -0.54 0.00
 -2 -7 10 -0.14 0.00
 -1 -7 10 1.71 0.00
 0 -7 10 0.43 0.00
 -5 -6 10 0.47 0.00
 -4 -6 10 -0.15 0.00
 -3 -6 10 -0.59 0.00
 -2 -6 10 -0.16 0.00
 -1 -6 10 -0.65 0.00
 0 -6 10 -0.05 0.00
 1 -6 10 2.07 0.00
 -6 -5 10 -0.02 0.00
 -5 -5 10 -0.87 0.00
 -4 -5 10 0.41 0.00
 -3 -5 10 2.02 0.00
 -2 -5 10 0.24 0.00
 -1 -5 10 -1.53 0.00
 0 -5 10 -0.37 0.00
 1 -5 10 -0.86 0.00
 2 -5 10 -0.99 0.00
 -7 -4 10 -0.46 0.00
 -6 -4 10 -0.01 0.00
 -5 -4 10 1.11 0.00
 -4 -4 10 -0.54 0.00
 -3 -4 10 -3.05 0.00
 -2 -4 10 -0.20 0.00
 -1 -4 10 3.86 0.00
 0 -4 10 0.74 0.00
 1 -4 10 -1.32 0.00
 2 -4 10 0.60 0.00
 3 -4 10 -1.45 0.00
 -7 -3 10 0.72 0.00
 -6 -3 10 0.28 0.00
 -5 -3 10 -1.07 0.00
 -4 -3 10 0.35 0.00
 -3 -3 10 3.16 0.00
 -2 -3 10 0.19 0.00
 -1 -3 10 -5.19 0.00
 0 -3 10 -0.96 0.00
 1 -3 10 3.44 0.00
 2 -3 10 0.00 0.00
 3 -3 10 0.40 0.00
 -8 -2 10 1.17 0.00
 -7 -2 10 -0.75 0.00
 -6 -2 10 -0.67 0.00
 -5 -2 10 0.75 0.00
 -4 -2 10 0.17 0.00
 -3 -2 10 -2.31 0.00
 -2 -2 10 -0.33 0.00
 -1 -2 10 4.91 0.00
 0 -2 10 0.95 0.00
 1 -2 10 -4.50 0.00
 2 -2 10 -0.54 0.00
 3 -2 10 0.71 0.00
 4 -2 10 -0.28 0.00
 -8 -1 10 -1.03 0.00
 -7 -1 10 0.48 0.00
 -6 -1 10 1.00 0.00
 -5 -1 10 -0.26 0.00
 -4 -1 10 -0.81 0.00
 -3 -1 10 0.93 0.00
 -2 -1 10 0.64 0.00
 -1 -1 10 -3.29 0.00
 0 -1 10 -0.76 0.00
 1 -1 10 4.16 0.00
 2 -1 10 0.76 0.00
 3 -1 10 -1.39 0.00
 4 -1 10 -0.35 0.00
 -8 0 10 0.83 0.00
 -7 0 10 -0.05 0.00
 -6 0 10 -1.10 0.00
 -5 0 10 -0.28 0.00
 -4 0 10 1.30 0.00
 -3 0 10 0.39 0.00
 -2 0 10 -1.05 0.00
 -1 0 10 1.14 0.00
 0 0 10 0.57 0.00
 1 0 10 -2.80 0.00
 2 0 10 -0.60 0.00
 3 0 10 1.46 0.00
 4 0 10 0.76 0.00
 -8 1 10 -0.68 0.00
 -7 1 10 -0.33 0.00
 -6 1 10 0.96 0.00
 -5 1 10 0.71 0.00
 -4 1 10 -1.39 0.00
 -3 1 10 -1.23 0.00
 -2 1 10 1.36 0.00
 -1 1 10 0.62 0.00
 0 1 10 -0.53 0.00
 1 1 10 1.19 0.00
 2 1 10 0.28 0.00
 3 1 10 -1.12 0.00
 4 1 10 -0.83 0.00
 -8 2 10 0.57 0.00
 -7 2 10 0.51 0.00
 -6 2 10 -0.61 0.00
 -5 2 10 -0.92 0.00
 -4 2 10 1.02 0.00
 -3 2 10 1.41 0.00
 -2 2 10 -1.36 0.00
 -1 2 10 -1.46 0.00
 0 2 10 0.63 0.00
 1 2 10 -0.04 0.00
 2 2 10 -0.09 0.00
 3 2 10 0.68 0.00
 4 2 10 0.68 0.00
 -7 3 10 -0.45 0.00
 -6 3 10 0.17 0.00
 -5 3 10 0.85 0.00
 -4 3 10 -0.39 0.00
 -3 3 10 -1.01 0.00
 -2 3 10 0.99 0.00
 -1 3 10 1.32 0.00
 0 3 10 -0.70 0.00
 1 3 10 -0.34 0.00
 2 3 10 0.15 0.00
 3 3 10 -0.41 0.00
 -7 4 10 0.21 0.00
 -6 4 10 0.19 0.00
 -5 4 10 -0.57 0.00
 -4 4 10 -0.15 0.00
 -3 4 10 0.33 0.00
 -2 4 10 -0.44 0.00
 -1 4 10 -0.59 0.00
 0 4 10 0.63 0.00
 1 4 10 0.14 0.00
 2 4 10 -0.35 0.00
 3 4 10 0.33 0.00
 -6 5 10 -0.33 0.00
 -5 5 10 0.21 0.00
 -4 5 10 0.29 0.00
 -3 5 10 0.26 0.00
 -2 5 10 0.05 0.00
 -1 5 10 -0.16 0.00
 0 5 10 -0.41 0.00
 1 5 10 0.21 0.00
 2 5 10 0.48 0.00
 -4 6 10 -0.06 0.00
 -3 6 10 -0.52 0.00
 -2 6 10 0.03 0.00
 -1 6 10 0.52 0.00
 0 6 10 0.18 0.00
 -4 -6 11 -0.35 0.00
 -3 -6 11 0.14 0.00
 -2 -6 11 0.34 0.00
 -1 -6 11 -1.60 0.00
 0 -6 11 -1.05 0.00
 -6 -5 11 -0.34 0.00
 -5 -5 11 -0.61 0.00
 -4 -5 11 0.30 0.00
 -3 -5 11 1.09 0.00
 -2 -5 11 0.07 0.00
 -1 -5 11 0.41 0.00
 0 -5 11 0.83 0.00
 1 -5 11 -2.01 0.00
 -6 -4 11 0.34 0.00
 -5 -4 11 0.79 0.00
 -4 -4 11 -0.27 0.00
 -3 -4 11 -2.39 0.00
 -2 -4 11 -0.46 0.00
 -1 -4 11 1.67 0.00
 0 -4 11 -0.25 0.00
 1 -4 11 0.97 0.00
 2 -4 11 1.81 0.00
 -7 -3 11 0.11 0.00
 -6 -3 11 -0.09 0.00
 -5 -3 11 -0.74 0.00
 -4 -3 11 0.15 0.00
 -3 -3 11 3.10 0.00
 -2 -3 11 0.73 0.00
 -1 -3 11 -3.64 0.00
 0 -3 11 -0.50 0.00
 1 -3 11 0.74 0.00
 2 -3 11 -1.17 0.00
 3 -3 11 1.22 0.00
 -7 -2 11 -0.25 0.00
 -6 -2 11 -0.31 0.00
 -5 -2 11 0.46 0.00
 -4 -2 11 0.12 0.00
 -3 -2 11 -2.87 0.00
 -2 -2 11 -0.86 0.00
 -1 -2 11 4.55 0.00
 0 -2 11 1.11 0.00
 1 -2 11 -2.26 0.00
 2 -2 11 0.16 0.00
 3 -2 11 -0.55 0.00
 -8 -1 11 -1.02 0.00
 -7 -1 11 0.22 0.00
 -6 -1 11 0.65 0.00
 -5 -1 11 -0.03 0.00
 -4 -1 11 -0.44 0.00
 -3 -1 11 1.83 0.00
 -2 -1 11 0.85 0.00
 -1 -1 11 -4.05 0.00
 0 -1 11 -1.31 0.00
 1 -1 11 2.91 0.00
 2 -1 11 0.71 0.00
 3 -1 11 -0.09 0.00
 -8 0 11 0.78 0.00
 -7 0 11 -0.01 0.00
 -6 0 11 -0.75 0.00
 -5 0 11 -0.44 0.00
 -4 0 11 0.66 0.00
 -3 0 11 -0.44 0.00
 -2 0 11 -0.76 0.00
 -1 0 11 2.48 0.00
 0 0 11 1.10 0.00
 1 0 11 -2.53 0.00
 2 0 11 -1.09 0.00
 3 0 11 0.42 0.00
 -7 1 11 -0.27 0.00
 -6 1 11 0.56 0.00
 -5 1 11 0.79 0.00
 -4 1 11 -0.62 0.00
 -3 1 11 -0.76 0.00
 -2 1 11 0.62 0.00
 -1 1 11 -0.59 0.00
 0 1 11 -0.70 0.00
 1 1 11 1.50 0.00
 2 1 11 0.95 0.00
 3 1 11 -0.42 0.00
 -7 2 11 0.48 0.00
 -6 2 11 -0.16 0.00
 -5 2 11 -0.93 0.00
 -4 2 11 0.24 0.00
 -3 2 11 1.37 0.00
 -2 2 11 -0.36 0.00
 -1 2 11 -0.82 0.00
 0 2 11 0.32 0.00
 1 2 11 -0.44 0.00
 2 2 11 -0.59 0.00
 3 2 11 0.27 0.00
 -7 3 11 -0.52 0.00
 -6 3 11 -0.27 0.00
 -5 3 11 0.80 0.00
 -4 3 11 0.30 0.00
 -3 3 11 -1.28 0.00
 -2 3 11 0.00 0.00
 -1 3 11 1.35 0.00
 0 3 11 -0.10 0.00
 1 3 11 -0.18 0.00
 2 3 11 0.35 0.00
 -6 4 11 0.53 0.00
 -5 4 11 -0.46 0.00
 -4 4 11 -0.69 0.00
 -3 4 11 0.68 0.00
 -2 4 11 0.36 0.00
 -1 4 11 -1.04 0.00
 0 4 11 0.00 0.00
 1 4 11 0.26 0.00
 -5 5 11 0.08 0.00
 -4 5 11 0.67 0.00
 -3 5 11 0.02 0.00
 -2 5 11 -0.49 0.00
 -1 5 11 0.37 0.00
 0 5 11 0.04 0.00
 -5 -5 12 -0.43 0.00
 -4 -5 12 0.46 0.00
 -3 -5 12 0.14 0.00
 -2 -5 12 -0.66 0.00
 -1 -5 12 1.31 0.00
 0 -5 12 1.80 0.00
 -6 -4 12 0.72 0.00
 -5 -4 12 0.56 0.00
 -4 -4 12 -0.31 0.00
 -3 -4 12 -1.15 0.00
 -2 -4 12 0.18 0.00
 -1 -4 12 -0.38 0.00
 0 -4 12 -1.60 0.00
 1 -4 12 1.57 0.00
 -6 -3 12 -0.50 0.00
 -5 -3 12 -0.56 0.00
 -4 -3 12 0.08 0.00
 -3 -3 12 2.08 0.00
 -2 -3 12 0.43 0.00
 -1 -3 12 -1.08 0.00
 0 -3 12 0.76 0.00
 1 -3 12 -1.03 0.00
 2 -3 12 -2.02 0.00
 -7 -2 12 0.19 0.00
 -6 -2 12 0.03 0.00
 -5 -2 12 0.37 0.00
 -4 -2 12 0.21 0.00
 -3 -2 12 -2.44 0.00
 -2 -2 12 -0.96 0.00
 -1 -2 12 2.32 0.00
 0 -2 12 0.38 0.00
 1 -2 12 0.14 0.00
 2 -2 12 1.09 0.00
 -7 -1 12 -0.10 0.00
 -6 -1 12 0.47 0.00
 -5 -1 12 -0.06 0.00
 -4 -1 12 -0.50 0.00
 -3 -1 12 2.06 0.00
 -2 -1 12 1.23 0.00
 -1 -1 12 -2.74 0.00
 0 -1 12 -1.31 0.00
 1 -1 12 0.60 0.00
 2 -1 12 0.11 0.00
 -7 0 12 0.10 0.00
 -6 0 12 -0.73 0.00
 -5 0 12 -0.31 0.00
 -4 0 12 0.65 0.00
 -3 0 12 -1.11 0.00
 -2 0 12 -1.19 0.00
 -1 0 12 2.19 0.00
 0 0 12 1.68 0.00
 1 0 12 -0.85 0.00
 2 0 12 -1.00 0.00
 -7 1 12 -0.21 0.00
 -6 1 12 0.64 0.00
 -5 1 12 0.62 0.00
 -4 1 12 -0.56 0.00
 -3 1 12 -0.01 0.00
 -2 1 12 0.90 0.00
 -1 1 12 -1.03 0.00
 0 1 12 -1.48 0.00
 1 1 12 0.62 0.00
 2 1 12 1.27 0.00
 -7 2 12 0.35 0.00
 -6 2 12 -0.25 0.00
 -5 2 12 -0.78 0.00
 -4 2 12 0.17 0.00
 -3 2 12 0.86 0.00
 -2 2 12 -0.44 0.00
 -1 2 12 -0.19 0.00
 0 2 12 0.97 0.00
 1 2 12 -0.19 0.00
 2 2 12 -1.03 0.00
 -6 3 12 -0.23 0.00
 -5 3 12 0.72 0.00
 -4 3 12 0.37 0.00
 -3 3 12 -1.16 0.00
 -2 3 12 -0.09 0.00
 -1 3 12 0.92 0.00
 0 3 12 -0.45 0.00
 1 3 12 -0.13 0.00
 -5 4 12 -0.47 0.00
 -4 4 12 -0.79 0.00
 -3 4 12 0.90 0.00
 -2 4 12 0.53 0.00
 -1 4 12 -0.98 0.00
 0 4 12 0.09 0.00
 -3 5 12 -0.37 0.00
 -2 5 12 -0.72 0.00
 -4 -4 13 -0.54 0.00
 -3 -4 13 -0.14 0.00
 -2 -4 13 1.03 0.00
 -1 -4 13 -0.98 0.00
 -5 -3 13 -0.41 0.00
 -4 -3 13 0.34 0.00
 -3 -3 13 0.73 0.00
 -2 -3 13 -0.50 0.00
 -1 -3 13 0.63 0.00
 0 -3 13 1.79 0.00
 -6 -2 13 0.43 0.00
 -5 -2 13 0.31 0.00
 -4 -2 13 0.00 0.00
 -3 -2 13 -1.20 0.00
 -2 -2 13 -0.27 0.00
 -1 -2 13 -0.02 0.00
 0 -2 13 -0.76 0.00
 1 -2 13 1.08 0.00
 -6 -1 13 0.17 0.00
 -5 -1 13 -0.12 0.00
 -4 -1 13 -0.37 0.00
 -3 -1 13 1.30 0.00
 -2 -1 13 0.95 0.00
 -1 -1 13 -0.49 0.00
 0 -1 13 -0.51 0.00
 1 -1 13 -0.96 0.00
 -6 0 13 -0.65 0.00
 -5 0 13 -0.10 0.00
 -4 0 13 0.66 0.00
 -3 0 13 -0.98 0.00
 -2 0 13 -1.33 0.00
 -1 0 13 0.63 0.00
 0 0 13 1.46 0.00
 1 0 13 0.78 0.00
 -6 1 13 0.80 0.00
 -5 1 13 0.32 0.00
 -4 1 13 -0.73 0.00
 -3 1 13 0.36 0.00
 -2 1 13 1.34 0.00
 -1 1 13 -0.37 0.00
 0 1 13 -1.78 0.00
 1 1 13 -0.62 0.00
 -6 2 13 -0.58 0.00
 -5 2 13 -0.48 0.00
 -4 2 13 0.51 0.00
 -3 2 13 0.29 0.00
 -2 2 13 -1.02 0.00
 -1 2 13 -0.10 0.00
 0 2 13 1.55 0.00
 -5 3 13 0.51 0.00
 -4 3 13 -0.07 0.00
 -3 3 13 -0.71 0.00
 -2 3 13 0.50 0.00
 -1 3 13 0.48 0.00
 -3 4 13 0.73 0.00
 -3 -3 14 -0.09 0.00
 -2 -3 14 -1.19 0.00
 -4 -2 14 -0.43 0.00
 -3 -2 14 -0.04 0.00
 -2 -2 14 0.64 0.00
 -1 -2 14 -0.97 0.00
 -5 -1 14 -0.07 0.00
 -4 -1 14 0.09 0.00
 -3 -1 14 0.16 0.00
 -2 -1 14 0.12 0.00
 -1 -1 14 1.01 0.00
 -5 0 14 -0.04 0.00
 -4 0 14 0.30 0.00
 -3 0 14 -0.21 0.00
 -2 0 14 -0.79 0.00
 -1 0 14 -0.87 0.00
 -5 1 14 0.13 0.00
 -4 1 14 -0.59 0.00
 -3 1 14 0.13 0.00
 -2 1 14 1.18 0.00
 -1 1 14 0.67 0.00
 -4 2 14 0.67 0.00
 -3 2 14 0.06 0.00
 -2 2 14 -1.24 0.00
 7 0 0 0.09 0.00
 9 0 0 0.32 0.00
 -9 1 0 -0.31 0.00
 9 1 0 -0.12 0.00
 -9 2 0 0.17 0.00
 9 2 0 -0.21 0.00
 -9 3 0 -0.03 0.00
 9 3 0 0.48 0.00
 -9 4 0 -0.05 0.00
 8 4 0 0.15 0.00
 -8 5 0 0.56 0.00
 8 5 0 0.35 0.00
 -8 6 0 -0.11 0.00
 -7 6 0 0.25 0.00
 7 6 0 0.06 0.00
 -7 7 0 -0.39 0.00
 6 7 0 -0.54 0.00
 7 7 0 0.08 0.00
 -6 8 0 0.09 0.00
 5 8 0 0.58 0.00
 6 8 0 -0.02 0.00
 -5 9 0 0.07 0.00
 -4 9 0 0.62 0.00
 3 9 0 0.11 0.00
 4 9 0 0.21 0.00
 -5 -9 1 -0.11 0.00
 -4 -9 1 0.43 0.00
 4 -9 1 0.55 0.00
 -6 -8 1 -0.18 0.00
 -5 -8 1 0.28 0.00
 5 -8 1 -0.27 0.00
 6 -8 1 -0.19 0.00
 -7 -7 1 0.44 0.00
 6 -7 1 -0.24 0.00
 7 -7 1 -0.40 0.00
 -8 -6 1 -0.76 0.00
 -7 -6 1 -0.61 0.00
 7 -6 1 0.51 0.00
 -8 -5 1 0.76 0.00
 8 -5 1 -0.01 0.00
 -9 -4 1 -0.39 0.00
 8 -4 1 -0.37 0.00
 -9 -3 1 0.36 0.00
 9 -3 1 0.20 0.00
 -9 -2 1 -0.18 0.00
 9 -2 1 -0.09 0.00
 -9 -1 1 -0.08 0.00
 9 -1 1 -0.10 0.00
 9 0 1 0.22 0.00
 -9 1 1 -0.32 0.00
 9 1 1 -0.15 0.00
 -9 2 1 0.28 0.00
 9 2 1 -0.11 0.00
 -9 3 1 -0.23 0.00
 9 3 1 0.38 0.00
 -9 4 1 0.18 0.00
 8 4 1 0.60 0.00
 -8 5 1 0.86 0.00
 8 5 1 -0.18 0.00
 -8 6 1 -0.59 0.00
 7 6 1 0.83 0.00
 -7 7 1 -0.05 0.00
 6 7 1 -0.74 0.00
 -6 8 1 0.33 0.00
 5 8 1 0.28 0.00
 -5 9 1 -0.36 0.00
 -4 9 1 0.59 0.00
 3 9 1 0.32 0.00
 4 9 1 0.08 0.00
 -5 -9 2 0.21 0.00
 -4 -9 2 0.73 0.00
 3 -9 2 0.25 0.00
 4 -9 2 0.30 0.00
 -6 -8 2 -0.09 0.00
 5 -8 2 -0.44 0.00
 -7 -7 2 0.35 0.00
 6 -7 2 0.00 0.00
 -8 -6 2 -0.72 0.00
 7 -6 2 0.41 0.00
 -8 -5 2 0.86 0.00
 8 -5 2 -0.50 0.00
 -9 -4 2 -0.11 0.00
 8 -4 2 0.19 0.00
 -9 -3 2 0.06 0.00
 0 -3 2 -0.48 0.00
 8 -3 2 0.08 0.00
 -9 -2 2 0.03 0.00
 9 -2 2 -0.27 0.00
 9 -1 2 0.16 0.00
 9 0 2 0.00 0.00
 9 1 2 -0.06 0.00
 -9 2 2 0.16 0.00
 9 2 2 -0.02 0.00
 -9 3 2 -0.19 0.00
 8 3 2 -0.53 0.00
 -9 4 2 0.25 0.00
 8 4 2 0.64 0.00
 -8 5 2 0.80 0.00
 7 5 2 -1.32 0.00
 -8 6 2 -0.77 0.00
 7 6 2 1.20 0.00
 -7 7 2 0.36 0.00
 6 7 2 -0.74 0.00
 -6 8 2 0.48 0.00
 5 8 2 -0.42 0.00
 -5 9 2 -0.85 0.00
 -4 9 2 0.72 0.00
 3 9 2 0.21 0.00
 4 9 2 0.04 0.00
 -5 -9 3 0.29 0.00
 -4 -9 3 0.95 0.00
 3 -9 3 0.05 0.00
 4 -9 3 -0.01 0.00
 -6 -8 3 0.18 0.00
 5 -8 3 -0.23 0.00
 -7 -7 3 -0.05 0.00
 6 -7 3 0.05 0.00
 -8 -6 3 -0.59 0.00
 7 -6 3 0.02 0.00
 -8 -5 3 0.72 0.00
 7 -5 3 -0.33 0.00
 -9 -4 3 0.12 0.00
 8 -4 3 0.55 0.00
 -9 -3 3 -0.22 0.00
 8 -3 3 -0.43 0.00
 8 -2 3 0.25 0.00
 8 -1 3 0.00 0.00
 8 1 3 0.45 0.00
 8 2 3 -0.35 0.00
 -9 3 3 0.03 0.00
 8 3 3 0.04 0.00
 -9 4 3 0.10 0.00
 8 4 3 0.25 0.00
 -8 5 3 0.59 0.00
 7 5 3 -0.98 0.00
 -8 6 3 -0.69 0.00
 6 6 3 0.53 0.00
 7 6 3 0.97 0.00
 -7 7 3 0.58 0.00
 5 7 3 1.13 0.00
 6 7 3 -0.59 0.00
 -6 8 3 0.58 0.00
 4 8 3 -0.43 0.00
 5 8 3 -1.00 0.00
 -5 9 3 -1.12 0.00
 -4 9 3 1.05 0.00
 -3 9 3 0.66 0.00
 2 9 3 -0.41 0.00
 3 9 3 -0.15 0.00
 -5 -9 4 0.13 0.00
 -4 -9 4 0.89 0.00
 -3 -9 4 -0.04 0.00
 2 -9 4 -0.58 0.00
 3 -9 4 0.10 0.00
 -6 -8 4 0.43 0.00
 4 -8 4 -0.46 0.00
 5 -8 4 0.19 0.00
 -7 -7 4 -0.40 0.00
 5 -7 4 0.50 0.00
 6 -7 4 -0.19 0.00
 -8 -6 4 -0.48 0.00
 6 -6 4 0.26 0.00
 -8 -5 4 0.54 0.00
 7 -5 4 0.14 0.00
 -9 -4 4 0.19 0.00
 7 -4 4 0.12 0.00
 -9 -3 4 -0.33 0.00
 8 -3 4 -0.60 0.00
 8 -2 4 0.69 0.00
 8 -1 4 -0.58 0.00
 8 0 4 0.25 0.00
 8 1 4 0.15 0.00
 8 2 4 -0.39 0.00
 -9 3 4 0.18 0.00
 8 3 4 0.35 0.00
 -9 4 4 -0.13 0.00
 7 4 4 0.21 0.00
 -9 5 4 -0.02 0.00
 -8 5 4 0.47 0.00
 7 5 4 -0.35 0.00
 -8 6 4 -0.55 0.00
 6 6 4 0.50 0.00
 -7 7 4 0.49 0.00
 5 7 4 1.12 0.00
 -6 8 4 0.70 0.00
 -5 8 4 1.33 0.00
 4 8 4 -0.45 0.00
 -5 9 4 -1.09 0.00
 -4 9 4 1.38 0.00
 -3 9 4 0.49 0.00
 1 9 4 -0.22 0.00
 2 9 4 -0.02 0.00
 3 9 4 -0.46 0.00
 -5 -9 5 -0.01 0.00
 -4 -9 5 0.43 0.00
 -3 -9 5 0.00 0.00
 1 -9 5 0.00 0.00
 2 -9 5 0.10 0.00
 3 -9 5 0.42 0.00
 -6 -8 5 0.46 0.00
 -5 -8 5 -0.33 0.00
 4 -8 5 -0.28 0.00
 -7 -7 5 -0.44 0.00
 5 -7 5 -0.12 0.00
 -8 -6 5 -0.35 0.00
 6 -6 5 0.46 0.00
 -9 -5 5 -0.08 0.00
 -8 -5 5 0.36 0.00
 7 -5 5 0.48 0.00
 -9 -4 5 0.17 0.00
 7 -4 5 -0.38 0.00
 -9 -3 5 -0.26 0.00
 7 -3 5 0.14 0.00
 8 -2 5 0.69 0.00
 8 -1 5 -0.93 0.00
 8 0 5 0.87 0.00
 8 1 5 -0.52 0.00
 7 2 5 0.09 0.00
 -9 3 5 0.06 0.00
 7 3 5 0.05 0.00
 -9 4 5 -0.17 0.00
 7 4 5 -0.10 0.00
 -8 5 5 0.50 0.00
 6 5 5 -0.71 0.00
 -8 6 5 -0.50 0.00
 5 6 5 -0.53 0.00
 6 6 5 0.62 0.00
 -7 7 5 0.26 0.00
 4 7 5 1.04 0.00
 5 7 5 0.58 0.00
 -6 8 5 0.79 0.00
 -5 8 5 0.86 0.00
 3 8 5 0.31 0.00
 4 8 5 -0.44 0.00
 -4 9 5 1.46 0.00
 -3 9 5 0.32 0.00
 -2 9 5 -0.97 0.00
 -1 9 5 0.22 0.00
 0 9 5 0.14 0.00
 1 9 5 -0.21 0.00
 2 9 5 0.14 0.00
 -4 -9 6 -0.26 0.00
 -3 -9 6 -0.17 0.00
 -2 -9 6 0.37 0.00
 -1 -9 6 0.15 0.00
 0 -9 6 -0.38 0.00
 1 -9 6 -0.35 0.00
 2 -9 6 0.20 0.00
 -6 -8 6 0.20 0.00
 -5 -8 6 -0.09 0.00
 3 -8 6 -0.33 0.00
 4 -8 6 -0.37 0.00
 -7 -7 6 -0.22 0.00
 4 -7 6 0.43 0.00
 5 -7 6 -0.64 0.00
 -8 -6 6 -0.09 0.00
 5 -6 6 0.24 0.00
 6 -6 6 0.65 0.00
 -8 -5 6 0.12 0.00
 6 -5 6 -0.51 0.00
 -9 -4 6 0.22 0.00
 7 -4 6 -0.57 0.00
 -9 -3 6 -0.18 0.00
 2 -3 6 0.79 0.00
 7 -3 6 0.53 0.00
 7 -2 6 -0.31 0.00
 7 -1 6 0.02 0.00
 7 0 6 0.18 0.00
 7 1 6 -0.23 0.00
 7 2 6 0.15 0.00
 -9 3 6 -0.32 0.00
 7 3 6 -0.02 0.00
 -9 4 6 0.07 0.00
 6 4 6 0.72 0.00
 -8 5 6 0.60 0.00
 6 5 6 -0.71 0.00
 -8 6 6 -0.55 0.00
 -7 6 6 0.26 0.00
 5 6 6 -0.05 0.00
 -7 7 6 0.10 0.00
 -6 7 6 -1.04 0.00
 4 7 6 0.90 0.00
 -6 8 6 0.79 0.00
 -5 8 6 0.43 0.00
 2 8 6 0.45 0.00
 3 8 6 0.01 0.00
 -4 9 6 1.19 0.00
 -3 9 6 0.15 0.00
 -2 9 6 -0.52 0.00
 -1 9 6 0.33 0.00
 0 9 6 0.05 0.00
 1 9 6 -0.36 0.00
 -4 -9 7 -0.76 0.00
 -3 -9 7 -0.47 0.00
 -2 -9 7 0.77 0.00
 -1 -9 7 0.57 0.00
 0 -9 7 -0.48 0.00
 1 -9 7 -0.89 0.00
 2 -9 7 -0.17 0.00
 -6 -8 7 -0.20 0.00
 -5 -8 7 -0.08 0.00
 2 -8 7 -0.13 0.00
 3 -8 7 -0.92 0.00
 -7 -7 7 -0.01 0.00
 -6 -7 7 -0.02 0.00
 4 -7 7 0.43 0.00
 -8 -6 7 0.27 0.00
 -7 -6 7 -0.26 0.00
 5 -6 7 0.84 0.00
 -8 -5 7 -0.26 0.00
 6 -5 7 -0.57 0.00
 -9 -4 7 0.40 0.00
 6 -4 7 0.41 0.00
 -9 -3 7 -0.25 0.00
 6 -3 7 -0.06 0.00
 -9 -2 7 0.05 0.00
 7 -2 7 -0.49 0.00
 7 -1 7 0.34 0.00
 7 0 7 -0.15 0.00
 7 1 7 0.01 0.00
 -9 2 7 0.78 0.00
 7 2 7 0.05 0.00
 -9 3 7 -0.68 0.00
 6 3 7 0.14 0.00
 -9 4 7 0.43 0.00
 6 4 7 0.13 0.00
 -8 5 7 0.61 0.00
 5 5 7 0.05 0.00
 -8 6 7 -0.60 0.00
 -7 6 7 0.04 0.00
 -6 6 7 0.92 0.00
 4 6 7 -0.77 0.00
 5 6 7 0.14 0.00
 -7 7 7 0.13 0.00
 -6 7 7 -0.89 0.00
 3 7 7 0.14 0.00
 4 7 7 0.65 0.00
 -5 8 7 0.19 0.00
 -4 8 7 -0.85 0.00
 1 8 7 0.72 0.00
 2 8 7 0.46 0.00
 -3 9 7 -0.01 0.00
 -2 9 7 -0.25 0.00
 -1 9 7 0.48 0.00
 0 9 7 0.21 0.00
 -3 -9 8 -0.75 0.00
 -2 -9 8 0.46 0.00
 -1 -9 8 1.03 0.00
 0 -9 8 0.02 0.00
 -5 -8 8 -0.20 0.00
 -4 -8 8 0.65 0.00
 1 -8 8 1.34 0.00
 2 -8 8 0.24 0.00
 -7 -7 8 0.04 0.00
 -6 -7 8 0.33 0.00
 3 -7 8 1.29 0.00
 4 -7 8 0.49 0.00
 -8 -6 8 0.58 0.00
 -7 -6 8 -0.35 0.00
 4 -6 8 -0.47 0.00
 5 -6 8 0.86 0.00
 -8 -5 8 -0.66 0.00
 5 -5 8 -1.06 0.00
 -9 -4 8 0.59 0.00
 5 -4 8 0.91 0.00
 6 -4 8 0.41 0.00
 -9 -3 8 -0.45 0.00
 6 -3 8 -0.27 0.00
 -9 -2 8 0.13 0.00
 6 -2 8 -0.14 0.00
 -9 -1 8 0.10 0.00
 6 -1 8 0.71 0.00
 6 0 8 -1.15 0.00
 -9 1 8 -0.31 0.00
 6 1 8 1.26 0.00
 -9 2 8 0.64 0.00
 6 2 8 -1.06 0.00
 -9 3 8 -0.75 0.00
 6 3 8 0.74 0.00
 -9 4 8 0.64 0.00
 -8 4 8 -0.02 0.00
 5 4 8 -0.22 0.00
 -8 5 8 0.47 0.00
 4 5 8 0.15 0.00
 5 5 8 0.08 0.00
 -7 6 8 -0.23 0.00
 3 6 8 0.30 0.00
 4 6 8 -0.26 0.00
 -6 7 8 -0.62 0.00
 -5 7 8 0.26 0.00
 2 7 8 -0.38 0.00
 3 7 8 0.08 0.00
 -5 8 8 0.13 0.00
 -4 8 8 -0.31 0.00
 -3 8 8 0.34 0.00
 -2 8 8 0.16 0.00
 -1 8 8 -0.56 0.00
 0 8 8 -0.51 0.00
 1 8 8 0.51 0.00
 -2 -9 9 -0.25 0.00
 -5 -8 9 -0.28 0.00
 -4 -8 9 0.40 0.00
 -3 -8 9 0.80 0.00
 -2 -8 9 -0.13 0.00
 -1 -8 9 -1.52 0.00
 0 -8 9 -0.15 0.00
 1 -8 9 1.55 0.00
 2 -8 9 0.53 0.00
 -6 -7 9 0.44 0.00
 -5 -7 9 -0.13 0.00
 2 -7 9 -0.45 0.00
 3 -7 9 1.31 0.00
 -7 -6 9 -0.21 0.00
 3 -6 9 -1.73 0.00
 4 -6 9 -0.59 0.00
 -8 -5 9 -0.86 0.00
 4 -5 9 0.70 0.00
 5 -5 9 -0.88 0.00
 -9 -4 9 0.61 0.00
 -8 -4 9 1.02 0.00
 5 -4 9 1.03 0.00
 -9 -3 9 -0.62 0.00
 5 -3 9 -0.87 0.00
 -9 -2 9 0.33 0.00
 5 -2 9 0.50 0.00
 6 -2 9 0.18 0.00
 -9 -1 9 0.03 0.00
 6 -1 9 0.20 0.00
 -9 0 9 -0.18 0.00
 6 0 9 -0.64 0.00
 -9 1 9 0.03 0.00
 6 1 9 0.89 0.00
 -9 2 9 0.27 0.00
 5 2 9 -0.14 0.00
 -9 3 9 -0.49 0.00
 5 3 9 0.13 0.00
 -8 4 9 0.16 0.00
 4 4 9 0.36 0.00
 5 4 9 -0.12 0.00
 -8 5 9 0.24 0.00
 -7 5 9 0.20 0.00
 4 5 9 -0.36 0.00
 -7 6 9 -0.35 0.00
 -6 6 9 0.38 0.00
 3 6 9 0.30 0.00
 -6 7 9 -0.33 0.00
 -5 7 9 0.02 0.00
 -4 7 9 -0.06 0.00
 1 7 9 0.12 0.00
 2 7 9 0.04 0.00
 -4 8 9 0.08 0.00
 -3 8 9 0.08 0.00
 -2 8 9 0.07 0.00
 -1 8 9 -0.15 0.00
 0 8 9 -0.29 0.00
 -4 -8 10 -0.21 0.00
 -3 -8 10 0.90 0.00
 -2 -8 10 0.52 0.00
 -1 -8 10 -1.46 0.00
 0 -8 10 -0.60 0.00
 -6 -7 10 0.26 0.00
 -5 -7 10 -0.05 0.00
 -4 -7 10 0.05 0.00
 1 -7 10 -1.91 0.00
 2 -7 10 -0.78 0.00
 -7 -6 10 -0.03 0.00
 -6 -6 10 -0.12 0.00
 2 -6 10 1.04 0.00
 3 -6 10 -1.49 0.00
 -8 -5 10 -0.70 0.00
 -7 -5 10 0.18 0.00
 3 -5 10 1.89 0.00
 4 -5 10 0.83 0.00
 -8 -4 10 0.97 0.00
 4 -4 10 -1.01 0.00
 -9 -3 10 -0.58 0.00
 -8 -3 10 -1.15 0.00
 4 -3 10 0.81 0.00
 5 -3 10 -0.67 0.00
 -9 -2 10 0.48 0.00
 5 -2 10 0.51 0.00
 -9 -1 10 -0.16 0.00
 5 -1 10 -0.31 0.00
 -9 0 10 -0.13 0.00
 5 0 10 0.17 0.00
 -9 1 10 0.21 0.00
 5 1 10 -0.14 0.00
 -9 2 10 -0.09 0.00
 5 2 10 0.13 0.00
 -9 3 10 -0.10 0.00
 -8 3 10 -0.43 0.00
 4 3 10 -0.56 0.00
 -8 4 10 0.19 0.00
 4 4 10 0.58 0.00
 -7 5 10 0.07 0.00
 3 5 10 -0.29 0.00
 -6 6 10 0.26 0.00
 -5 6 10 0.06 0.00
 1 6 10 -0.35 0.00
 2 6 10 -0.41 0.00
 -5 7 10 -0.18 0.00
 -4 7 10 -0.23 0.00
 -3 7 10 0.44 0.00
 -2 7 10 0.05 0.00
 -1 7 10 -0.44 0.00
 0 7 10 -0.04 0.00
 1 7 10 0.23 0.00
 -2 -8 11 0.77 0.00
 -5 -7 11 -0.06 0.00
 -4 -7 11 0.50 0.00
 -3 -7 11 -0.73 0.00
 -2 -7 11 -0.68 0.00
 -1 -7 11 1.53 0.00
 0 -7 11 0.89 0.00
 1 -7 11 -0.89 0.00
 -6 -6 11 0.18 0.00
 -5 -6 11 0.32 0.00
 1 -6 11 1.90 0.00
 2 -6 11 1.27 0.00
 -7 -5 11 -0.10 0.00
 2 -5 11 -1.82 0.00
 3 -5 11 1.26 0.00
 -8 -4 11 0.54 0.00
 -7 -4 11 0.06 0.00
 3 -4 11 -1.53 0.00
 4 -4 11 -1.00 0.00
 -8 -3 11 -0.87 0.00
 4 -3 11 1.11 0.00
 -9 -2 11 0.43 0.00
 -8 -2 11 1.06 0.00
 4 -2 11 -0.76 0.00
 -9 -1 11 -0.29 0.00
 4 -1 11 0.12 0.00
 -9 0 11 0.04 0.00
 4 0 11 0.45 0.00
 -9 1 11 0.16 0.00
 -8 1 11 -0.51 0.00
 4 1 11 -0.68 0.00
 -8 2 11 0.32 0.00
 4 2 11 0.59 0.00
 -8 3 11 -0.21 0.00
 3 3 11 -0.14 0.00
 4 3 11 -0.44 0.00
 -8 4 11 0.09 0.00
 -7 4 11 0.36 0.00
 2 4 11 -0.35 0.00
 3 4 11 0.11 0.00
 -7 5 11 -0.11 0.00
 -6 5 11 -0.51 0.00
 1 5 11 -0.04 0.00
 2 5 11 0.42 0.00
 -6 6 11 0.28 0.00
 -5 6 11 0.17 0.00
 -4 6 11 -0.26 0.00
 -3 6 11 -0.44 0.00
 -2 6 11 0.34 0.00
 -1 6 11 0.16 0.00
 0 6 11 -0.05 0.00
 1 6 11 -0.16 0.00
 -4 7 11 -0.20 0.00
 -3 7 11 0.48 0.00
 -2 7 11 -0.04 0.00
 -1 7 11 -0.33 0.00
 -4 -7 12 0.66 0.00
 -3 -7 12 -0.44 0.00
 -2 -7 12 -0.76 0.00
 -1 -7 12 0.48 0.00
 -6 -6 12 0.41 0.00
 -5 -6 12 0.25 0.00
 -4 -6 12 -0.58 0.00
 -3 -6 12 0.46 0.00
 -2 -6 12 0.86 0.00
 -1 -6 12 -1.27 0.00
 0 -6 12 -1.36 0.00
 1 -6 12 0.59 0.00
 -7 -5 12 -0.12 0.00
 -6 -5 12 -0.65 0.00
 1 -5 12 -1.40 0.00
 2 -5 12 -1.64 0.00
 -7 -4 12 0.28 0.00
 2 -4 12 2.22 0.00
 3 -4 12 -0.65 0.00
 -8 -3 12 -0.29 0.00
 -7 -3 12 -0.29 0.00
 3 -3 12 0.85 0.00
 -8 -2 12 0.71 0.00
 3 -2 12 -0.79 0.00
 -8 -1 12 -0.94 0.00
 3 -1 12 0.60 0.00
 4 -1 12 0.44 0.00
 -8 0 12 0.88 0.00
 3 0 12 -0.43 0.00
 4 0 12 0.07 0.00
 -8 1 12 -0.62 0.00
 3 1 12 0.32 0.00
 -8 2 12 0.34 0.00
 3 2 12 -0.24 0.00
 -8 3 12 -0.15 0.00
 -7 3 12 -0.42 0.00
 2 3 12 0.66 0.00
 3 3 12 0.14 0.00
 -7 4 12 0.36 0.00
 -6 4 12 0.55 0.00
 1 4 12 0.17 0.00
 2 4 12 -0.44 0.00
 -6 5 12 -0.56 0.00
 -5 5 12 0.14 0.00
 -4 5 12 0.82 0.00
 -1 5 12 0.59 0.00
 0 5 12 0.10 0.00
 1 5 12 -0.02 0.00
 -5 6 12 0.07 0.00
 -4 6 12 -0.43 0.00
 -3 6 12 -0.07 0.00
 -2 6 12 0.57 0.00
 -1 6 12 -0.13 0.00
 0 6 12 -0.17 0.00
 -4 -6 13 -0.51 0.00
 -3 -6 13 0.22 0.00
 -2 -6 13 0.82 0.00
 -1 -6 13 -0.13 0.00
 -6 -5 13 -0.68 0.00
 -5 -5 13 -0.33 0.00
 -4 -5 13 0.59 0.00
 -3 -5 13 -0.24 0.00
 -2 -5 13 -1.13 0.00
 -1 -5 13 0.79 0.00
 0 -5 13 1.65 0.00
 1 -5 13 -0.01 0.00
 -7 -4 13 0.20 0.00
 -6 -4 13 0.92 0.00
 -5 -4 13 0.41 0.00
 0 -4 13 -2.12 0.00
 1 -4 13 0.62 0.00
 2 -4 13 1.49 0.00
 -7 -3 13 -0.34 0.00
 -6 -3 13 -0.85 0.00
 1 -3 13 -1.00 0.00
 2 -3 13 -1.88 0.00
 -8 -2 13 0.14 0.00
 -7 -2 13 0.37 0.00
 2 -2 13 1.50 0.00
 -8 -1 13 -0.63 0.00
 -7 -1 13 -0.31 0.00
 2 -1 13 -0.55 0.00
 3 -1 13 0.40 0.00
 -8 0 13 0.85 0.00
 -7 0 13 0.23 0.00
 2 0 13 -0.44 0.00
 3 0 13 -0.53 0.00
 -8 1 13 -0.78 0.00
 -7 1 13 -0.19 0.00
 2 1 13 0.98 0.00
 -7 2 13 0.21 0.00
 1 2 13 0.47 0.00
 2 2 13 -0.97 0.00
 -7 3 13 -0.25 0.00
 -6 3 13 0.16 0.00
 0 3 13 -1.05 0.00
 1 3 13 -0.30 0.00
 2 3 13 0.65 0.00
 -6 4 13 0.22 0.00
 -5 4 13 -0.39 0.00
 -4 4 13 -0.39 0.00
 -2 4 13 0.04 0.00
 -1 4 13 -0.56 0.00
 0 4 13 0.56 0.00
 1 4 13 0.08 0.00
 -5 5 13 0.20 0.00
 -4 5 13 0.58 0.00
 -3 5 13 -0.46 0.00
 -2 5 13 -0.40 0.00
 -1 5 13 0.35 0.00
 0 5 13 -0.20 0.00
 -4 -5 14 0.42 0.00
 -3 -5 14 -0.01 0.00
 -2 -5 14 -0.88 0.00
 -1 -5 14 -0.27 0.00
 -6 -4 14 0.73 0.00
 -5 -4 14 0.33 0.00
 -4 -4 14 -0.62 0.00
 -3 -4 14 0.13 0.00
 -2 -4 14 1.28 0.00
 -1 -4 14 -0.27 0.00
 0 -4 14 -1.40 0.00
 -6 -3 14 -0.91 0.00
 -5 -3 14 -0.31 0.00
 -4 -3 14 0.63 0.00
 -1 -3 14 0.72 0.00
 0 -3 14 1.75 0.00
 1 -3 14 0.05 0.00
 -7 -2 14 0.28 0.00
 -6 -2 14 0.74 0.00
 -5 -2 14 0.21 0.00
 0 -2 14 -1.36 0.00
 1 -2 14 0.50 0.00
 -7 -1 14 -0.34 0.00
 -6 -1 14 -0.27 0.00
 0 -1 14 0.42 0.00
 1 -1 14 -0.98 0.00
 -7 0 14 0.31 0.00
 -6 0 14 -0.27 0.00
 0 0 14 0.60 0.00
 1 0 14 1.23 0.00
 -7 1 14 -0.24 0.00
 -6 1 14 0.64 0.00
 0 1 14 -1.26 0.00
 1 1 14 -1.19 0.00
 -7 2 14 0.16 0.00
 -6 2 14 -0.70 0.00
 -5 2 14 -0.21 0.00
 -1 2 14 -0.48 0.00
 0 2 14 1.40 0.00
 1 2 14 0.90 0.00
 -6 3 14 0.50 0.00
 -5 3 14 0.25 0.00
 -4 3 14 -0.48 0.00
 -3 3 14 -0.27 0.00
 -2 3 14 0.99 0.00
 -1 3 14 0.34 0.00
 0 3 14 -1.17 0.00
 -5 4 14 -0.23 0.00
 -4 4 14 0.15 0.00
 -3 4 14 0.33 0.00
 -2 4 14 -0.58 0.00
 -1 4 14 -0.17 0.00
 0 0 0 0.00 0.00
# SQUEEZE RESULTS (Version = 150216)
# Note: Data are Listed for all Voids in the P1 Unit Cell
# i.e. Centre of Gravity, Solvent Accessible Volume,
# Recovered number of Electrons in the Void and
# Details about the Squeezed Material
;
_platon_squeeze_void_probe_radius 1.20
_olex2_submission_special_instructions 'No special instructions were received'
loop_
_space_group_symop_operation_xyz
'x, y, z'
'-x, -y, -z'
loop_
_atom_site_label
_atom_site_type_symbol
_atom_site_fract_x
_atom_site_fract_y
_atom_site_fract_z
_atom_site_U_iso_or_equiv
_atom_site_adp_type
_atom_site_occupancy
_atom_site_site_symmetry_order
_atom_site_calc_flag
_atom_site_refinement_flags_posn
_atom_site_refinement_flags_adp
_atom_site_refinement_flags_occupancy
_atom_site_disorder_assembly
_atom_site_disorder_group
C1 C 0.5730(17) 0.3020(11) 0.6553(9) 0.066(3) Uani 1 1 d D U . . .
C4 C 0.464(2) 0.1932(19) 0.4222(10) 0.057(4) Uani 1 1 d D U . . .
C7 C 0.399(2) 0.1589(19) 0.2997(13) 0.024(3) Uani 1 1 d . U . . .
C2A C 0.6712(16) 0.3334(12) 0.5900(12) 0.062(4) Uani 0.541(9) 1 d D U . A 1
C3A C 0.626(2) 0.2828(18) 0.4715(13) 0.063(4) Uani 0.541(9) 1 d D U . A 1
H3A H 0.700660 0.307948 0.428554 0.076 Uiso 0.541(9) 1 calc R . . A 1
C5A C 0.356(2) 0.1580(19) 0.4909(14) 0.060(4) Uani 0.541(9) 1 d D U . A 1
H5A H 0.249610 0.098288 0.456876 0.072 Uiso 0.541(9) 1 calc R . . A 1
C6A C 0.399(2) 0.2061(16) 0.6041(13) 0.061(4) Uani 0.541(9) 1 d D U . A 1
N1A N 0.835(2) 0.427(2) 0.6493(15) 0.058(5) Uani 0.541(9) 1 d D U . A 1
N2A N 0.266(3) 0.156(2) 0.6611(16) 0.068(5) Uani 0.541(9) 1 d D U . A 1
O2A O 0.872(3) 0.469(2) 0.7509(13) 0.057(7) Uani 0.541(9) 1 d D U . A 1
O3A O 0.937(2) 0.463(2) 0.5955(19) 0.074(7) Uani 0.541(9) 1 d D U . A 1
O4A O 0.299(4) 0.197(3) 0.7626(14) 0.096(8) Uani 0.541(9) 1 d D U . A 1
O5A O 0.134(2) 0.078(2) 0.607(2) 0.088(8) Uani 0.541(9) 1 d D U . A 1
C2B C 0.6985(19) 0.2063(14) 0.6069(13) 0.066(4) Uani 0.459(9) 1 d D U . A 2
C3B C 0.636(2) 0.1586(17) 0.4944(15) 0.063(4) Uani 0.459(9) 1 d D U . A 2
H3B H 0.712193 0.098990 0.462856 0.076 Uiso 0.459(9) 1 calc R . . A 2
C5B C 0.347(2) 0.284(2) 0.4686(13) 0.060(4) Uani 0.459(9) 1 d D U . A 2
H5B H 0.231307 0.309194 0.423462 0.072 Uiso 0.459(9) 1 calc R . . A 2
C6B C 0.412(2) 0.3335(15) 0.5861(12) 0.059(4) Uani 0.459(9) 1 d D U . A 2
N1B N 0.885(3) 0.150(2) 0.6580(19) 0.075(6) Uani 0.459(9) 1 d D U . A 2
N2B N 0.306(3) 0.427(2) 0.6448(16) 0.052(5) Uani 0.459(9) 1 d D U . A 2
O2B O 0.961(3) 0.184(3) 0.7603(17) 0.115(11) Uani 0.459(9) 1 d D U . A 2
O3B O 0.958(3) 0.072(2) 0.599(2) 0.097(9) Uani 0.459(9) 1 d D U . A 2
O4B O 0.368(3) 0.467(2) 0.7468(13) 0.056(7) Uani 0.459(9) 1 d D U . A 2
O5B O 0.151(2) 0.465(3) 0.5892(19) 0.062(7) Uani 0.459(9) 1 d D U . A 2
Cu1 Cu 0.500000 0.000000 0.000000 0.0270(9) Uani 1 2 d S T P . .
Cu2 Cu 0.000000 0.000000 0.000000 0.0265(9) Uani 1 2 d S T P . .
N3 N 0.222(3) 0.124(2) 0.2339(16) 0.053(5) Uani 1 1 d . U . . .
N4 N 0.2292(18) 0.0809(16) 0.1266(11) 0.024(3) Uani 1 1 d . U . . .
N5 N 0.3982(19) 0.0787(17) 0.1276(10) 0.026(3) Uani 1 1 d . . . . .
N6 N 0.512(2) 0.128(2) 0.2335(14) 0.046(4) Uani 1 1 d . U . . .
O1 O 0.640(2) 0.2977(18) 0.7763(11) 0.065(4) Uani 1 1 d . U . . .
O6 O -0.0477(16) 0.2329(14) -0.0438(11) 0.035(3) Uani 1 1 d . . . B 1
O7 O 0.5018(17) 0.2334(15) -0.0438(11) 0.038(3) Uani 1 1 d . . . C 1
O8 O 0.8080(15) 0.0320(14) 0.1157(9) 0.029(3) Uani 1 1 d . . . D 1
loop_
_atom_site_aniso_label
_atom_site_aniso_U_11
_atom_site_aniso_U_22
_atom_site_aniso_U_33
_atom_site_aniso_U_23
_atom_site_aniso_U_13
_atom_site_aniso_U_12
C1 0.086(7) 0.071(7) 0.034(5) -0.017(6) 0.011(5) -0.017(6)
C4 0.080(8) 0.063(8) 0.024(6) -0.014(6) 0.013(6) -0.017(7)
C7 0.024(4) 0.025(4) 0.024(4) 0.0013(11) 0.0078(15) 0.0004(10)
C2A 0.080(8) 0.068(8) 0.030(6) -0.012(6) 0.007(6) -0.022(7)
C3A 0.082(8) 0.068(8) 0.031(7) -0.014(7) 0.010(7) -0.020(7)
C5A 0.082(8) 0.066(8) 0.029(6) -0.014(7) 0.016(6) -0.019(8)
C6A 0.084(8) 0.070(8) 0.030(6) -0.014(6) 0.020(6) -0.020(7)
N1A 0.070(10) 0.068(10) 0.029(8) -0.004(8) 0.004(8) -0.023(9)
N2A 0.091(11) 0.083(11) 0.034(8) -0.014(9) 0.025(8) -0.031(9)
O2A 0.053(14) 0.074(15) 0.031(9) -0.009(11) -0.002(10) -0.037(12)
O3A 0.070(15) 0.107(17) 0.035(12) 0.006(13) 0.004(11) -0.031(14)
O4A 0.135(19) 0.113(18) 0.045(11) -0.025(13) 0.037(13) -0.038(16)
O5A 0.087(16) 0.114(18) 0.065(14) -0.025(14) 0.030(13) -0.040(14)
C2B 0.085(8) 0.070(8) 0.034(6) -0.017(7) 0.008(6) -0.017(7)
C3B 0.082(8) 0.066(8) 0.033(7) -0.016(7) 0.008(7) -0.017(8)
C5B 0.082(8) 0.067(8) 0.029(7) -0.015(7) 0.017(6) -0.015(8)
C6B 0.081(8) 0.068(8) 0.028(6) -0.015(6) 0.018(6) -0.016(7)
N1B 0.093(10) 0.081(11) 0.040(9) -0.024(10) 0.010(9) -0.005(10)
N2B 0.074(10) 0.067(11) 0.022(8) -0.003(8) 0.023(8) -0.013(9)
O2B 0.13(2) 0.12(2) 0.054(13) -0.037(16) -0.016(15) 0.031(19)
O3B 0.104(18) 0.101(19) 0.070(16) -0.054(15) 0.015(15) -0.007(16)
O4B 0.072(16) 0.075(16) 0.022(10) -0.007(11) 0.020(11) 0.007(14)
O5B 0.074(14) 0.095(17) 0.021(12) 0.007(13) 0.022(10) -0.007(14)
Cu1 0.0164(16) 0.0490(19) 0.0157(15) -0.0055(13) 0.0060(12) 0.0002(13)
Cu2 0.0145(15) 0.0477(19) 0.0157(15) -0.0028(12) 0.0032(12) -0.0059(13)
N3 0.053(5) 0.054(5) 0.053(5) 0.0022(11) 0.0172(18) 0.0012(11)
N4 0.024(3) 0.024(3) 0.024(3) 0.0011(11) 0.0075(14) 0.0003(10)
N5 0.028(8) 0.046(8) 0.005(6) -0.002(6) 0.005(6) 0.002(6)
N6 0.046(4) 0.047(4) 0.046(4) 0.0023(11) 0.0148(16) 0.0003(11)
O1 0.107(12) 0.058(9) 0.022(6) -0.004(6) 0.008(7) -0.009(8)
O6 0.027(7) 0.035(7) 0.040(7) -0.004(6) 0.007(6) -0.003(5)
O7 0.027(7) 0.040(7) 0.049(8) -0.016(6) 0.016(6) -0.006(6)
O8 0.021(6) 0.035(6) 0.030(6) -0.002(5) 0.006(5) -0.002(5)
loop_
_atom_type_symbol
_atom_type_description
_atom_type_scat_dispersion_real
_atom_type_scat_dispersion_imag
_atom_type_scat_source
C C 0.0033 0.0016 'International Tables Vol C Tables 4.2.6.8 and 6.1.1.4'
H H 0.0000 0.0000 'International Tables Vol C Tables 4.2.6.8 and 6.1.1.4'
Cu Cu 0.3201 1.2651 'International Tables Vol C Tables 4.2.6.8 and 6.1.1.4'
N N 0.0061 0.0033 'International Tables Vol C Tables 4.2.6.8 and 6.1.1.4'
O O 0.0106 0.0060 'International Tables Vol C Tables 4.2.6.8 and 6.1.1.4'
loop_
_geom_angle_atom_site_label_1
_geom_angle_atom_site_label_2
_geom_angle_atom_site_label_3
_geom_angle
_geom_angle_site_symmetry_1
_geom_angle_site_symmetry_3
C2A C1 C6A 119.1(8) . .
C2A C1 O1 124.4(12) . .
C6B C1 C2B 118.2(9) . .
C6B C1 O1 131.2(13) . .
O1 C1 C6A 112.8(11) . .
O1 C1 C2B 107.8(12) . .
C3A C4 C7 119.3(12) . .
C5A C4 C7 121.0(12) . .
C5A C4 C3A 119.2(8) . .
C3B C4 C7 125.4(13) . .
C3B C4 C5B 118.6(9) . .
C5B C4 C7 115.7(13) . .
N3 C7 C4 125.9(14) . .
N6 C7 C4 123.5(15) . .
N6 C7 N3 109.7(15) . .
C1 C2A C3A 124.7(9) . .
C1 C2A N1A 113.7(12) . .
C3A C2A N1A 121.6(13) . .
C4 C3A C2A 117.0(8) . .
C4 C3A H3A 121.5 . .
C2A C3A H3A 121.5 . .
C4 C5A H5A 118.1 . .
C6A C5A C4 123.9(9) . .
C6A C5A H5A 118.1 . .
C5A C6A C1 116.1(8) . .
C5A C6A N2A 115.2(13) . .
N2A C6A C1 128.6(12) . .
O2A N1A C2A 120.9(14) . .
O2A N1A O3A 120.1(18) . .
O3A N1A C2A 119.0(14) . .
O4A N2A C6A 117.5(14) . .
O5A N2A C6A 119.6(14) . .
O5A N2A O4A 122.9(18) . .
C3B C2B C1 116.8(9) . .
C3B C2B N1B 110.3(14) . .
N1B C2B C1 133.0(13) . .
C4 C3B H3B 118.0 . .
C2B C3B C4 124.1(9) . .
C2B C3B H3B 118.0 . .
C4 C5B H5B 121.3 . .
C6B C5B C4 117.4(9) . .
C6B C5B H5B 121.3 . .
C1 C6B C5B 124.9(9) . .
C1 C6B N2B 112.0(12) . .
C5B C6B N2B 123.0(13) . .
O2B N1B C2B 118.1(14) . .
O3B N1B C2B 119.8(14) . .
O3B N1B O2B 122.1(19) . .
O4B N2B C6B 120.8(15) . .
O4B N2B O5B 120.6(18) . .
O5B N2B C6B 118.6(14) . .
N5 Cu1 N5 180.0 2_655 .
N5 Cu1 O8 84.9(6) . 2_655
N5 Cu1 O8 95.1(6) . .
N5 Cu1 O8 84.9(6) 2_655 .
N5 Cu1 O8 95.1(6) 2_655 2_655
O7 Cu1 N5 91.0(6) . 2_655
O7 Cu1 N5 90.9(6) 2_655 .
O7 Cu1 N5 89.1(6) 2_655 2_655
O7 Cu1 N5 89.0(6) . .
O7 Cu1 O7 180.0 . 2_655
O7 Cu1 O8 89.6(5) . .
O7 Cu1 O8 90.4(5) 2_655 .
O7 Cu1 O8 89.6(5) 2_655 2_655
O7 Cu1 O8 90.4(5) . 2_655
O8 Cu1 O8 180.0 2_655 .
N4 Cu2 N4 180.0 2 .
N4 Cu2 O8 95.4(6) 2 2_655
N4 Cu2 O8 95.4(6) . 1_455
N4 Cu2 O8 84.6(6) . 2_655
N4 Cu2 O8 84.6(6) 2 1_455
O6 Cu2 N4 88.8(6) . .
O6 Cu2 N4 91.2(6) . 2
O6 Cu2 N4 91.2(6) 2 .
O6 Cu2 N4 88.8(6) 2 2
O6 Cu2 O6 180.0 . 2
O6 Cu2 O8 89.2(5) . 1_455
O6 Cu2 O8 90.8(5) . 2_655
O6 Cu2 O8 89.2(5) 2 2_655
O6 Cu2 O8 90.8(5) 2 1_455
O8 Cu2 O8 180.0(4) 2_655 1_455
N4 N3 C7 104.9(15) . .
N3 N4 Cu2 119.6(12) . .
N5 N4 Cu2 129.7(10) . .
N5 N4 N3 110.0(14) . .
N4 N5 Cu1 129.0(10) . .
N4 N5 N6 110.8(12) . .
N6 N5 Cu1 120.1(12) . .
N5 N6 C7 104.4(15) . .
Cu2 O8 Cu1 110.5(6) 1_655 .
loop_
_geom_bond_atom_site_label_1
_geom_bond_atom_site_label_2
_geom_bond_distance
_geom_bond_site_symmetry_2
C1 C2A 1.307(14) .
C1 C6A 1.504(15) .
C1 C2B 1.496(15) .
C1 C6B 1.311(15) .
C1 O1 1.412(19) .
C4 C7 1.44(2) .
C4 C3A 1.406(16) .
C4 C5A 1.405(15) .
C4 C3B 1.397(16) .
C4 C5B 1.408(16) .
C7 N3 1.39(2) .
C7 N6 1.39(2) .
C2A C3A 1.422(17) .
C2A N1A 1.446(17) .
C3A H3A 0.9300 .
C5A H5A 0.9300 .
C5A C6A 1.358(17) .
C6A N2A 1.493(17) .
N1A O2A 1.220(18) .
N1A O3A 1.234(17) .
N2A O4A 1.219(18) .
N2A O5A 1.200(17) .
C2B C3B 1.347(18) .
C2B N1B 1.481(18) .
C3B H3B 0.9300 .
C5B H5B 0.9300 .
C5B C6B 1.406(18) .
C6B N2B 1.450(17) .
N1B O2B 1.225(18) .
N1B O3B 1.205(18) .
N2B O4B 1.219(18) .
N2B O5B 1.234(18) .
Cu1 N5 2.045(14) 2_655
Cu1 N5 2.045(14) .
Cu1 O7 1.986(16) .
Cu1 O7 1.986(16) 2_655
Cu1 O8 2.388(15) 2_655
Cu1 O8 2.388(15) .
Cu2 N4 2.049(15) .
Cu2 N4 2.049(15) 2
Cu2 O6 1.983(16) .
Cu2 O6 1.983(16) 2
Cu2 O8 2.378(14) 2_655
Cu2 O8 2.378(14) 1_455
N3 N4 1.36(2) .
N4 N5 1.321(19) .
N5 N6 1.36(2) .
loop_
_geom_torsion_atom_site_label_1
_geom_torsion_atom_site_label_2
_geom_torsion_atom_site_label_3
_geom_torsion_atom_site_label_4
_geom_torsion
C1 C2A C3A C4 0.1(3)
C1 C2A N1A O2A -0.1(8)
C1 C2A N1A O3A 180.0(5)
C1 C6A N2A O4A 0.3(11)
C1 C6A N2A O5A -179.5(6)
C1 C2B C3B C4 0.0(3)
C1 C2B N1B O2B 0.0(7)
C1 C2B N1B O3B 179.8(4)
C1 C6B N2B O4B 0.1(8)
C1 C6B N2B O5B 180.0(5)
C4 C7 N3 N4 -173.0(15)
C4 C7 N6 N5 171.4(15)
C4 C5A C6A C1 -0.1(10)
C4 C5A C6A N2A 179.9(6)
C4 C5B C6B C1 -0.1(9)
C4 C5B C6B N2B -179.9(5)
C7 C4 C3A C2A 171.5(14)
C7 C4 C5A C6A -171.4(15)
C7 C4 C3B C2B 173.4(14)
C7 C4 C5B C6B -173.9(13)
C7 N3 N4 Cu2 175.3(10)
C7 N3 N4 N5 3.9(19)
C2A C1 C6A C5A 0.0(7)
C2A C1 C6A N2A -180.0(5)
C3A C4 C7 N3 -157.2(14)
C3A C4 C7 N6 34(2)
C3A C4 C5A C6A 0.2(10)
C3A C2A N1A O2A 179.9(5)
C3A C2A N1A O3A 0.0(8)
C5A C4 C7 N3 14(2)
C5A C4 C7 N6 -154.1(13)
C5A C4 C3A C2A -0.2(7)
C5A C6A N2A O4A -179.6(7)
C5A C6A N2A O5A 0.5(10)
C6A C1 C2A C3A 0.0(3)
C6A C1 C2A N1A 179.9(4)
N1A C2A C3A C4 -179.8(4)
C2B C1 C6B C5B 0.2(7)
C2B C1 C6B N2B 180.0(3)
C3B C4 C7 N3 150.6(14)
C3B C4 C7 N6 -18(2)
C3B C4 C5B C6B 0.0(8)
C3B C2B N1B O2B 179.9(5)
C3B C2B N1B O3B -0.4(6)
C5B C4 C7 N3 -36(2)
C5B C4 C7 N6 155.5(13)
C5B C4 C3B C2B 0.1(6)
C5B C6B N2B O4B 179.9(6)
C5B C6B N2B O5B -0.2(9)
C6B C1 C2B C3B -0.1(3)
C6B C1 C2B N1B 179.8(4)
N1B C2B C3B C4 -179.9(4)
Cu1 N5 N6 C7 -175.1(10)
Cu2 N4 N5 Cu1 2(2)
Cu2 N4 N5 N6 -173.5(11)
N3 C7 N6 N5 1.3(19)
N3 N4 N5 Cu1 172.5(11)
N3 N4 N5 N6 -3.3(19)
N4 N5 N6 C7 1.2(18)
N6 C7 N3 N4 -3.2(19)
O1 C1 C2A C3A 156.6(12)
O1 C1 C2A N1A -23.5(12)
O1 C1 C6A C5A -159.2(12)
O1 C1 C6A N2A 20.8(14)
O1 C1 C2B C3B 163.1(10)
O1 C1 C2B N1B -17.0(11)
O1 C1 C6B C5B -158.4(13)
O1 C1 C6B N2B 21.4(14)
loop_
_platon_squeeze_void_nr
_platon_squeeze_void_average_x
_platon_squeeze_void_average_y
_platon_squeeze_void_average_z
_platon_squeeze_void_volume
_platon_squeeze_void_count_electrons
_platon_squeeze_void_content
1 0.254 0.478 1.001 24 11 ' '
2 0.746 0.522 0.998 25 11 ' '
loop_
_platon_missing_refln_index_h
_platon_missing_refln_index_k
_platon_missing_refln_index_l
_platon_missing_refln_theta
0 -3 2 8.209
