#------------------------------------------------------------------------------
#$Date: 2017-09-19 05:54:57 +0300 (Tue, 19 Sep 2017) $
#$Revision: 201007 $
#$URL: file:///home/coder/svn-repositories/cod/cif/7/22/91/7229188.cif $
#------------------------------------------------------------------------------
#
# This file is available in the Crystallography Open Database (COD),
# http://www.crystallography.net/
#
# All data on this site have been placed in the public domain by the
# contributors.
#
data_7229188
loop_
_publ_author_name
'Valdo, Ana Karoline Silva Medanha'
'Sarotti, Ariel Marcelo'
'Martins, Felipe Terra'
_publ_section_title
;
 Synthon trends according to acid strength and geometry in salts of
 N-heterocyclic bases
;
_journal_name_full               CrystEngComm
_journal_paper_doi               10.1039/C7CE01490B
_journal_year                    2017
_chemical_formula_sum            'C12 H16 N2 O8 P2'
_chemical_formula_weight         378.21
_space_group_crystal_system      monoclinic
_space_group_IT_number           14
_space_group_name_Hall           '-P 2yn'
_space_group_name_H-M_alt        'P 1 21/n 1'
_symmetry_space_group_name_Hall  '-P 2yn'
_symmetry_space_group_name_H-M   'P 1 21/n 1'
_atom_sites_solution_hydrogens   geom
_audit_creation_method           SHELXL-2014/7
_audit_update_record
;
2017-08-14 deposited with the CCDC.
2017-09-18 downloaded from the CCDC.
;
_cell_angle_alpha                90
_cell_angle_beta                 90.536(2)
_cell_angle_gamma                90
_cell_formula_units_Z            2
_cell_length_a                   9.2640(7)
_cell_length_b                   4.7949(3)
_cell_length_c                   17.7033(13)
_cell_measurement_reflns_used    832
_cell_measurement_temperature    296(2)
_cell_measurement_theta_max      23.82
_cell_measurement_theta_min      2.30
_cell_volume                     786.35(10)
_computing_structure_refinement  'SHELXL-2014/7 (Sheldrick, 2014)'
_diffrn_ambient_temperature      296(2)
_diffrn_measured_fraction_theta_full 0.982
_diffrn_measured_fraction_theta_max 0.981
_diffrn_measurement_device_type  'Bruker APEX-II CCD'
_diffrn_measurement_method       '\f and \w scans'
_diffrn_radiation_type           MoK\a
_diffrn_radiation_wavelength     0.71073
_diffrn_reflns_av_R_equivalents  0.0344
_diffrn_reflns_av_unetI/netI     0.0439
_diffrn_reflns_Laue_measured_fraction_full 0.982
_diffrn_reflns_Laue_measured_fraction_max 0.981
_diffrn_reflns_limit_h_max       11
_diffrn_reflns_limit_h_min       -11
_diffrn_reflns_limit_k_max       5
_diffrn_reflns_limit_k_min       -5
_diffrn_reflns_limit_l_max       20
_diffrn_reflns_limit_l_min       -21
_diffrn_reflns_number            3423
_diffrn_reflns_point_group_measured_fraction_full 0.982
_diffrn_reflns_point_group_measured_fraction_max 0.981
_diffrn_reflns_theta_full        25.242
_diffrn_reflns_theta_max         25.339
_diffrn_reflns_theta_min         2.301
_diffrn_source                   'sealed tube'
_exptl_absorpt_coefficient_mu    0.322
_exptl_absorpt_correction_T_max  0.984
_exptl_absorpt_correction_T_min  0.895
_exptl_absorpt_correction_type   multi-scan
_exptl_absorpt_process_details
'Blessing, R. H. (1995) Acta Cryst., A51, 33-38'
_exptl_crystal_colour            colorless
_exptl_crystal_density_diffrn    1.597
_exptl_crystal_description       plate
_exptl_crystal_F_000             392
_exptl_crystal_size_max          0.15
_exptl_crystal_size_mid          0.1
_exptl_crystal_size_min          0.05
_refine_diff_density_max         0.728
_refine_diff_density_min         -0.325
_refine_diff_density_rms         0.066
_refine_ls_extinction_method     none
_refine_ls_goodness_of_fit_ref   1.076
_refine_ls_hydrogen_treatment    constr
_refine_ls_matrix_type           full
_refine_ls_number_parameters     109
_refine_ls_number_reflns         1408
_refine_ls_number_restraints     0
_refine_ls_restrained_S_all      1.076
_refine_ls_R_factor_all          0.0616
_refine_ls_R_factor_gt           0.0477
_refine_ls_shift/su_max          0.000
_refine_ls_shift/su_mean         0.000
_refine_ls_structure_factor_coef Fsqd
_refine_ls_weighting_details
'w=1/[\s^2^(Fo^2^)+(0.0535P)^2^+0.5415P] where P=(Fo^2^+2Fc^2^)/3'
_refine_ls_weighting_scheme      calc
_refine_ls_wR_factor_gt          0.1116
_refine_ls_wR_factor_ref         0.1193
_reflns_Friedel_coverage         0.000
_reflns_number_gt                1128
_reflns_number_total             1408
_reflns_threshold_expression     'I > 2\s(I)'
_cod_data_source_file            c7ce01490b2.cif
_cod_data_source_block           B2
_cod_database_code               7229188
_shelx_shelxl_version_number     2014/7
_shelx_space_group_comment
;
The symmetry employed for this shelxl refinement is uniquely defined
by the following loop, which should always be used as a source of
symmetry information in preference to the above space-group names.
They are only intended as comments.
;
_shelx_res_file
;

    shelx.res created by SHELXL-2014/7

TITL mo_BPE_HCl_2u_0m in P2(1)/n
CELL  0.71073   9.2640   4.7949  17.7033   90.000   90.536   90.000
ZERR     4.00   0.0007   0.0003   0.0013    0.000    0.002    0.000
LATT   1
SYMM  1/2 - X, 1/2 + Y, 1/2 - Z
SFAC  C    H    N    CL   O    S    P
UNIT  40 24 4 4 0 0 0
MERG   2
FMAP   2
PLAN   20
HTAB
ACTA
BOND   $H
CONF
L.S.  10
TEMP    23.00
WGHT    0.053500    0.541500
FVAR       0.20436
O1    5    0.496360   -1.070456    0.886886    11.00000    0.04398    0.04215 =
         0.03463    0.00801    0.01577    0.01724
N1    3   -0.318352    0.684937    1.078588    11.00000    0.02891    0.02696 =
         0.04083   -0.00114    0.00875    0.00572
AFIX  43
H1N   2   -0.379769    0.812834    1.089560    11.00000   -1.20000
AFIX   0
C1    1   -0.318005    0.578074    1.009383    11.00000    0.03019    0.03854 =
         0.03467    0.00418   -0.00202    0.00144
AFIX  43
H1    2   -0.383513    0.642053    0.973224    11.00000   -1.20000
AFIX   0
C2    1   -0.220061    0.371416    0.991130    11.00000    0.04341    0.03598 =
         0.03530   -0.00776    0.00829   -0.00577
AFIX  43
H2    2   -0.220352    0.295051    0.942840    11.00000   -1.20000
AFIX   0
C3    1   -0.121347    0.278141    1.044964    11.00000    0.02596    0.02335 =
         0.05384    0.00480    0.00594    0.00297
C6    1   -0.008022    0.064942    1.031616    11.00000    0.04009    0.03815 =
         0.04688    0.00045   -0.00591   -0.00311
AFIX  43
H6    2    0.055062    0.022580    1.071147    11.00000   -1.20000
AFIX   0
C4    1   -0.125706    0.398188    1.115864    11.00000    0.03859    0.04109 =
         0.04198    0.00439   -0.00738    0.00958
AFIX  43
H4    2   -0.060421    0.342582    1.153140    11.00000   -1.20000
AFIX   0
C5    1   -0.225766    0.598081    1.131068    11.00000    0.04265    0.04183 =
         0.03319   -0.00237   -0.00134    0.00441
AFIX  43
H5    2   -0.229205    0.675170    1.179223    11.00000   -1.20000
AFIX   0
O3    5    0.586377   -0.831025    0.769135    11.00000    0.04398    0.02275 =
         0.03996    0.00504    0.00719   -0.00032
O4    5    0.729269   -1.212149    0.835844    11.00000    0.02964    0.04527 =
         0.03086   -0.00489    0.00154    0.01078
AFIX  83
H4P   2    0.777490   -1.229493    0.797523    11.00000   -1.50000
AFIX   0
O2    5    0.504554   -1.315815    0.760487    11.00000    0.04743    0.02446 =
         0.05238   -0.00031   -0.01698    0.00012
AFIX  83
H2P   2    0.504465   -1.468810    0.781183    11.00000   -1.50000
AFIX   0
P1    7    0.576509   -1.095493    0.814344    11.00000    0.02653    0.02080 =
         0.02827    0.00026    0.00278    0.00283
HKLF    4  1.0  1.00  0.00  0.00  0.00  1.00  0.00  0.00  0.00  1.00

REM  mo_BPE_HCl_2u_0m in P2(1)/n
REM R1 =  0.0477 for    1128 Fo > 4sig(Fo)  and  0.0616 for all    1408 data
REM    109 parameters refined using      0 restraints

END

WGHT      0.0538      0.5351

REM Instructions for potential hydrogen bonds
EQIV $1 -x, -y, -z+2
HTAB N1 O1_$1
EQIV $2 x-1, y+2, z
HTAB C1 O1_$2
EQIV $3 x-1/2, -y-1/2, z+1/2
HTAB C4 O3_$3
EQIV $4 -x+3/2, y-1/2, -z+3/2
HTAB O4 O3_$4
EQIV $5 x, y-1, z
HTAB O2 O3_$5

REM Highest difference peak  0.728,  deepest hole -0.325,  1-sigma level  0.066
Q1    1  -0.0641  0.0826  0.9841  11.00000  0.05    0.73
Q2    1   0.4654 -1.0761  0.8438  11.00000  0.05    0.26
Q3    1   0.6154 -0.8976  0.7952  11.00000  0.05    0.25
Q4    1   0.5539 -1.5067  0.7589  11.00000  0.05    0.22
Q5    1  -0.2352  0.5740  0.9935  11.00000  0.05    0.22
Q6    1   0.5467 -0.7641  0.7999  11.00000  0.05    0.21
Q7    1  -0.2073  0.3831  0.9601  11.00000  0.05    0.20
Q8    1  -0.1402  0.4050  1.0669  11.00000  0.05    0.20
Q9    1   0.3830 -1.0093  0.8757  11.00000  0.05    0.18
Q10   1   0.7386 -1.2935  0.8753  11.00000  0.05    0.17
Q11   1   0.7800 -1.3687  0.8109  11.00000  0.05    0.17
Q12   1   0.4879 -1.3025  0.7947  11.00000  0.05    0.17
Q13   1  -0.2905  0.3796  1.0121  11.00000  0.05    0.17
Q14   1   0.5217 -0.9179  0.8970  11.00000  0.05    0.16
Q15   1  -0.0672  0.4881  1.2353  11.00000  0.05    0.15
Q16   1   0.6238 -0.7957  0.7343  11.00000  0.05    0.15
Q17   1   0.6615 -1.1370  0.8375  11.00000  0.05    0.15
Q18   1   0.7122 -1.0291  0.8217  11.00000  0.05    0.15
Q19   1  -0.4154  0.7854  0.9950  11.00000  0.05    0.15
Q20   1   0.0131  0.4867  1.0386  11.00000  0.05    0.15
;
_shelx_res_checksum              84858
loop_
_space_group_symop_operation_xyz
'x, y, z'
'-x+1/2, y+1/2, -z+1/2'
'-x, -y, -z'
'x-1/2, -y-1/2, z-1/2'
loop_
_atom_site_label
_atom_site_type_symbol
_atom_site_fract_x
_atom_site_fract_y
_atom_site_fract_z
_atom_site_U_iso_or_equiv
_atom_site_adp_type
_atom_site_occupancy
_atom_site_site_symmetry_order
_atom_site_calc_flag
_atom_site_refinement_flags_posn
_atom_site_refinement_flags_adp
O1 O 0.4964(2) -1.0705(5) 0.88689(11) 0.0402(6) Uani 1 1 d . .
N1 N -0.3184(3) 0.6849(5) 1.07859(14) 0.0322(6) Uani 1 1 d . .
H1N H -0.3798 0.8128 1.0896 0.039 Uiso 1 1 calc R U
C1 C -0.3180(3) 0.5781(7) 1.00938(17) 0.0345(8) Uani 1 1 d . .
H1 H -0.3835 0.6421 0.9732 0.041 Uiso 1 1 calc R U
C2 C -0.2201(4) 0.3714(7) 0.99113(18) 0.0382(8) Uani 1 1 d . .
H2 H -0.2204 0.2951 0.9428 0.046 Uiso 1 1 calc R U
C3 C -0.1213(3) 0.2781(7) 1.04496(19) 0.0343(8) Uani 1 1 d . .
C6 C -0.0080(4) 0.0649(7) 1.03162(18) 0.0417(9) Uani 1 1 d . .
H6 H 0.0551 0.0226 1.0711 0.050 Uiso 1 1 calc R U
C4 C -0.1257(4) 0.3982(7) 1.11586(18) 0.0406(8) Uani 1 1 d . .
H4 H -0.0604 0.3426 1.1531 0.049 Uiso 1 1 calc R U
C5 C -0.2258(4) 0.5981(7) 1.13107(18) 0.0392(8) Uani 1 1 d . .
H5 H -0.2292 0.6752 1.1792 0.047 Uiso 1 1 calc R U
O3 O 0.5864(2) -0.8310(4) 0.76914(12) 0.0355(6) Uani 1 1 d . .
O4 O 0.7293(2) -1.2121(5) 0.83584(11) 0.0352(6) Uani 1 1 d . .
H4P H 0.7775 -1.2295 0.7975 0.053 Uiso 1 1 calc R U
O2 O 0.5046(2) -1.3158(5) 0.76049(12) 0.0415(6) Uani 1 1 d . .
H2P H 0.5045 -1.4688 0.7812 0.062 Uiso 1 1 calc R U
P1 P 0.57651(8) -1.09549(16) 0.81434(4) 0.0252(3) Uani 1 1 d . .
loop_
_atom_site_aniso_label
_atom_site_aniso_U_11
_atom_site_aniso_U_22
_atom_site_aniso_U_33
_atom_site_aniso_U_23
_atom_site_aniso_U_13
_atom_site_aniso_U_12
O1 0.0440(14) 0.0421(15) 0.0346(12) 0.0080(11) 0.0158(10) 0.0172(11)
N1 0.0289(14) 0.0270(15) 0.0408(15) -0.0011(12) 0.0087(11) 0.0057(12)
C1 0.0302(17) 0.039(2) 0.0347(17) 0.0042(15) -0.0020(13) 0.0014(15)
C2 0.043(2) 0.036(2) 0.0353(17) -0.0078(14) 0.0083(14) -0.0058(16)
C3 0.0260(16) 0.0233(17) 0.054(2) 0.0048(15) 0.0059(14) 0.0030(14)
C6 0.0401(19) 0.038(2) 0.047(2) 0.0004(15) -0.0059(16) -0.0031(16)
C4 0.0386(19) 0.041(2) 0.0420(19) 0.0044(16) -0.0074(15) 0.0096(17)
C5 0.043(2) 0.042(2) 0.0332(17) -0.0024(15) -0.0013(15) 0.0044(17)
O3 0.0440(14) 0.0227(12) 0.0400(13) 0.0050(9) 0.0072(10) -0.0003(10)
O4 0.0296(12) 0.0453(15) 0.0309(11) -0.0049(10) 0.0015(9) 0.0108(10)
O2 0.0474(15) 0.0245(12) 0.0524(14) -0.0003(10) -0.0170(12) 0.0001(11)
P1 0.0265(4) 0.0208(4) 0.0283(4) 0.0003(3) 0.0028(3) 0.0028(3)
loop_
_atom_type_symbol
_atom_type_description
_atom_type_scat_dispersion_real
_atom_type_scat_dispersion_imag
_atom_type_scat_source
C C 0.0033 0.0016 'International Tables Vol C Tables 4.2.6.8 and 6.1.1.4'
H H 0.0000 0.0000 'International Tables Vol C Tables 4.2.6.8 and 6.1.1.4'
N N 0.0061 0.0033 'International Tables Vol C Tables 4.2.6.8 and 6.1.1.4'
Cl Cl 0.1484 0.1585 'International Tables Vol C Tables 4.2.6.8 and 6.1.1.4'
O O 0.0106 0.0060 'International Tables Vol C Tables 4.2.6.8 and 6.1.1.4'
S S 0.1246 0.1234 'International Tables Vol C Tables 4.2.6.8 and 6.1.1.4'
P P 0.1023 0.0942 'International Tables Vol C Tables 4.2.6.8 and 6.1.1.4'
loop_
_geom_angle_atom_site_label_1
_geom_angle_atom_site_label_2
_geom_angle_atom_site_label_3
_geom_angle
_geom_angle_site_symmetry_1
C5 N1 C1 121.2(3) .
C5 N1 H1N 119.4 .
C1 N1 H1N 119.4 .
N1 C1 C2 119.9(3) .
N1 C1 H1 120.0 .
C2 C1 H1 120.0 .
C1 C2 C3 120.0(3) .
C1 C2 H2 120.0 .
C3 C2 H2 120.0 .
C4 C3 C2 117.7(3) .
C4 C3 C6 117.2(3) .
C2 C3 C6 125.0(3) .
C6 C6 C3 123.9(4) 3_557
C6 C6 H6 118.1 3_557
C3 C6 H6 118.1 .
C5 C4 C3 119.9(3) .
C5 C4 H4 120.1 .
C3 C4 H4 120.1 .
N1 C5 C4 121.3(3) .
N1 C5 H5 119.3 .
C4 C5 H5 119.3 .
P1 O4 H4P 109.5 .
P1 O2 H2P 109.5 .
O1 P1 O3 115.03(13) .
O1 P1 O4 105.97(12) .
O3 P1 O4 111.82(13) .
O1 P1 O2 111.41(14) .
O3 P1 O2 105.81(12) .
O4 P1 O2 106.58(12) .
loop_
_geom_bond_atom_site_label_1
_geom_bond_atom_site_label_2
_geom_bond_distance
_geom_bond_site_symmetry_2
O1 P1 1.494(2) .
N1 C5 1.326(4) .
N1 C1 1.328(4) .
N1 H1N 0.8600 .
C1 C2 1.384(5) .
C1 H1 0.9300 .
C2 C3 1.389(4) .
C2 H2 0.9300 .
C3 C4 1.382(5) .
C3 C6 1.486(5) .
C6 C6 1.291(6) 3_557
C6 H6 0.9300 .
C4 C5 1.362(5) .
C4 H4 0.9300 .
C5 H5 0.9300 .
O3 P1 1.503(2) .
O4 P1 1.565(2) .
O4 H4P 0.8200 .
O2 P1 1.568(2) .
O2 H2P 0.8200 .
loop_
_geom_torsion_atom_site_label_1
_geom_torsion_atom_site_label_2
_geom_torsion_atom_site_label_3
_geom_torsion_atom_site_label_4
_geom_torsion
_geom_torsion_site_symmetry_4
C5 N1 C1 C2 0.2(5) .
N1 C1 C2 C3 -0.7(5) .
C1 C2 C3 C4 0.1(5) .
C1 C2 C3 C6 -177.9(3) .
C4 C3 C6 C6 179.6(4) 3_557
C2 C3 C6 C6 -2.4(7) 3_557
C2 C3 C4 C5 0.8(5) .
C6 C3 C4 C5 179.0(3) .
C1 N1 C5 C4 0.7(5) .
C3 C4 C5 N1 -1.3(6) .
