#------------------------------------------------------------------------------
#$Date: 2017-10-20 05:10:04 +0300 (Fri, 20 Oct 2017) $
#$Revision: 202166 $
#$URL: file:///home/coder/svn-repositories/cod/cif/7/22/93/7229367.cif $
#------------------------------------------------------------------------------
#
# This file is available in the Crystallography Open Database (COD),
# http://www.crystallography.net/
#
# All data on this site have been placed in the public domain by the
# contributors.
#
data_7229367
loop_
_publ_author_name
'Quarez, Eric'
'Deunf, Elise'
'Cadiou, Vincent'
'Gutel, Thibaut'
'Boucher, Florent'
'Guyomard, Dominique'
'Dolhem, Franck'
'Poizot, Philippe'
_publ_section_title
;
 Investigating the crystal structures of alkaline and alkaline-earth metal
 salts of 2,5-(dianilino)terephthalic acid
;
_journal_name_full               CrystEngComm
_journal_paper_doi               10.1039/C7CE01501A
_journal_year                    2017
_chemical_formula_moiety         'C20 H26 Li2 N2 O10, 2(H2 O)'
_chemical_formula_sum            'C20 H30 Li2 N2 O12'
_chemical_formula_weight         504.3
_chemical_name_systematic        ' ?'
_space_group_IT_number           2
_symmetry_cell_setting           triclinic
_symmetry_Int_Tables_number      2
_symmetry_space_group_name_Hall  '-P 1'
_symmetry_space_group_name_H-M   'P -1'
_audit_update_record
;
2017-10-04 deposited with the CCDC.
2017-10-19 downloaded from the CCDC.
;
_cell_angle_alpha                98.674(7)
_cell_angle_beta                 107.377(14)
_cell_angle_gamma                90.655(6)
_cell_formula_units_Z            1
_cell_length_a                   7.4372(6)
_cell_length_b                   8.2866(5)
_cell_length_c                   10.6200(13)
_cell_measurement_reflns_used    9575
_cell_measurement_temperature    173
_cell_measurement_theta_max      27.5
_cell_measurement_theta_min      2.04
_cell_volume                     616.38(11)
_computing_cell_refinement       'Dirax/LSQ (Duisenberg et al., 2000)'
_computing_data_collection       'Collect (Nonius BV, 1998)'
_computing_data_reduction        'EvalCCD (Duisenberg et al., 2003)'
_computing_molecular_graphics    'DIAMOND (Brandenburg, 1999)'
_computing_publication_material
'JANA2006 (Petricek et al., 2014) and publCIF (Westrip, 2010)'
_computing_structure_refinement  'JANA2006 (Petricek et al., 2014)'
_computing_structure_solution    'SHELXT (Sheldrick, 2015)'
_diffrn_ambient_temperature      173
_diffrn_detector                 'CCD area detector'
_diffrn_measured_fraction_theta_full 1
_diffrn_measured_fraction_theta_max 1
_diffrn_measurement_device       'four-circle diffractometer'
_diffrn_measurement_device_type  'Bruker-Nonius Kappa CCD'
_diffrn_measurement_method       'phi and omega scans'
_diffrn_radiation_monochromator  graphite
_diffrn_radiation_probe          x-ray
_diffrn_radiation_source         'sealed X-ray tube'
_diffrn_radiation_type           'Mo K\a'
_diffrn_radiation_wavelength     0.71073
_diffrn_reflns_av_R_equivalents  0.0688
_diffrn_reflns_av_unetI/netI     0.0577
_diffrn_reflns_limit_h_max       9
_diffrn_reflns_limit_h_min       -9
_diffrn_reflns_limit_k_max       10
_diffrn_reflns_limit_k_min       -10
_diffrn_reflns_limit_l_max       13
_diffrn_reflns_limit_l_min       -13
_diffrn_reflns_number            9575
_diffrn_reflns_theta_full        27.5
_diffrn_reflns_theta_max         27.5
_diffrn_reflns_theta_min         2.04
_exptl_absorpt_coefficient_mu    0.111
_exptl_absorpt_correction_T_max  0.9341
_exptl_absorpt_correction_T_min  0.758
_exptl_absorpt_correction_type   gaussian
_exptl_absorpt_process_details   Jana2006
_exptl_crystal_colour            light_yellow
_exptl_crystal_density_diffrn    1.3587
_exptl_crystal_description       block
_exptl_crystal_F_000             266
_exptl_crystal_recrystallization_method 'Re-crystallisation from solvent'
_exptl_crystal_size_max          0.197
_exptl_crystal_size_mid          0.168
_exptl_crystal_size_min          0.165
_refine_diff_density_max         0.32
_refine_diff_density_min         -0.33
_refine_ls_extinction_method     none
_refine_ls_goodness_of_fit_gt    1.54
_refine_ls_goodness_of_fit_ref   1.42
_refine_ls_hydrogen_treatment    mixed
_refine_ls_number_constraints    24
_refine_ls_number_parameters     199
_refine_ls_number_reflns         2827
_refine_ls_number_restraints     0
_refine_ls_R_factor_all          0.1076
_refine_ls_R_factor_gt           0.0491
_refine_ls_shift/su_max          0.0002
_refine_ls_shift/su_mean         0.0000
_refine_ls_structure_factor_coef Fsqd
_refine_ls_weighting_details     w=1/(\s^2^(I)+0.0016I^2^)
_refine_ls_weighting_scheme      sigma
_refine_ls_wR_factor_gt          0.1020
_refine_ls_wR_factor_ref         0.1255
_reflns_number_gt                1670
_reflns_number_total             2827
_reflns_threshold_expression     I>3\s(I)
_iucr_refine_instructions_details
;
Jana2006 M40 file
   33    0    0    1
 1.428215 0.000000 0.000000 0.000000 0.000000 0.000000      100000
 0.000000 0.000000                                          00
 0.000000 0.000000 0.000000 0.000000 0.000000 0.000000      000000
 0.000000 0.000000 0.000000 0.000000 0.000000 0.000000      000000
O11a      4  2     1.000000 0.374126 0.755845 0.231337
 0.030404 0.022227 0.022229 0.008620 0.010965 0.009021      0111111111
O12a      4  2     1.000000 0.582865 0.580305 0.191785
 0.028335 0.023108 0.018850 0.005093 0.011517 0.006267      0111111111
N21a      3  2     1.000000 0.771018 0.265297 0.568767
 0.024110 0.021033 0.017695 0.007180 0.008312 0.006396      0111111111
C1a       1  2     1.000000 0.483271 0.570043 0.384133
 0.018959 0.018394 0.014352-0.001829 0.003965 0.002826      0111111111
C2a       1  2     1.000000 0.631231 0.379012 0.534259
 0.020838 0.014706 0.016757-0.000243 0.003662 0.001413      0111111111
C3a       1  2     1.000000 0.609997 0.450485 0.420721
 0.022478 0.018240 0.017091 0.000736 0.008108 0.001439      0111111111
C11a      1  2     1.000000 0.478635 0.640553 0.261131
 0.021523 0.016183 0.016516-0.001739 0.005471 0.001738      0111111111
C21a      1  2     1.000000 0.844121 0.187936 0.464456
 0.022457 0.020696 0.017039 0.006284 0.006824 0.007469      0111111111
C22a      1  2     1.000000 0.745346 0.057051 0.372153
 0.032845 0.024308 0.026997-0.003703 0.012780 0.003675      0111111111
C23a      1  2     1.000000 0.817706-0.014117 0.273264
 0.054139 0.024946 0.028898-0.003377 0.019464-0.002502      0111111111
C24a      1  2     1.000000 0.987543 0.044657 0.265587
 0.050529 0.031466 0.026613 0.015994 0.022530 0.009993      0111111111
C25a      1  2     1.000000 1.085363 0.175461 0.356425
 0.031082 0.044421 0.032540 0.002492 0.015536 0.007485      0111111111
C26a      1  2     1.000000 1.013118 0.246872 0.456822
 0.028676 0.032135 0.025087-0.002025 0.009188 0.000455      0111111111
H21a      5  1     1.000000 0.733523 0.200537 0.618112
 0.043493 0.000000 0.000000 0.000000 0.000000 0.000000      0111100000
H22a      5  1     1.000000 0.628003 0.016271 0.376832
 0.032792 0.000000 0.000000 0.000000 0.000000 0.000000      0000000000
H23a      5  1     1.000000 0.750022-0.104357 0.209919
 0.042316 0.000000 0.000000 0.000000 0.000000 0.000000      0000000000
H24a      5  1     1.000000 1.036885-0.005387 0.197410
 0.039745 0.000000 0.000000 0.000000 0.000000 0.000000      0000000000
H25a      5  1     1.000000 1.201797 0.217037 0.350789
 0.041488 0.000000 0.000000 0.000000 0.000000 0.000000      0000000000
H26a      5  1     1.000000 1.081053 0.336830 0.520383
 0.034667 0.000000 0.000000 0.000000 0.000000 0.000000      0000000000
H3a       5  1     1.000000 0.686019 0.415904 0.365122
 0.022754 0.000000 0.000000 0.000000 0.000000 0.000000      0000000000
O1b       4  2     1.000000 0.455681 0.723095-0.029941
 0.033895 0.022184 0.021865 0.001470 0.011338 0.004829      0111111111
O2b       4  2     1.000000 0.283124 1.064511 0.076679
 0.031199 0.023693 0.042762 0.005149 0.015647 0.012200      0111111111
O3b       4  2     1.000000 0.020242 0.722034-0.014259
 0.032424 0.021633 0.026163 0.002009 0.009480 0.005361      0111111111
Li1b      2  2     1.000000 0.278363 0.831861 0.058823
 0.033262 0.021714 0.029624 0.003203 0.011499 0.006091      0111111111
H11b      5  1     1.000000 0.506932 0.671889 0.040886
 0.076930 0.000000 0.000000 0.000000 0.000000 0.000000      0111100000
H12b      5  1     1.000000 0.429752 0.643622-0.101289
 0.054707 0.000000 0.000000 0.000000 0.000000 0.000000      0111100000
H21b      5  1     1.000000 0.386598 1.125483 0.071391
 0.071331 0.000000 0.000000 0.000000 0.000000 0.000000      0111100000
H22b      5  1     1.000000 0.186974 1.119457 0.059967
 0.064686 0.000000 0.000000 0.000000 0.000000 0.000000      0111100000
H31b      5  1     1.000000-0.001558 0.675150 0.054290
 0.057814 0.000000 0.000000 0.000000 0.000000 0.000000      0111100000
H32b      5  1     1.000000 0.016089 0.638122-0.079285
 0.066024 0.000000 0.000000 0.000000 0.000000 0.000000      0111100000
O1c       4  2     1.000000 0.954034 0.566673 0.186067
 0.027601 0.029284 0.024751-0.000186 0.008180-0.000027      0111111111
H11c      5  1     1.000000 1.036710 0.608579 0.257199
 0.068515 0.000000 0.000000 0.000000 0.000000 0.000000      0111100000
H12c      5  1     1.000000 0.837394 0.569698 0.200088
 0.083215 0.000000 0.000000 0.000000 0.000000 0.000000      0111100000
----------------------------   s.u. block   ----------------------------
 0.003678 0.000000 0.000000 0.000000 0.000000 0.000000
 0.000000 0.000000
 0.000000 0.000000 0.000000 0.000000 0.000000 0.000000
 0.000000 0.000000 0.000000 0.000000 0.000000 0.000000
O11a               0.000000 0.000182 0.000171 0.000133
 0.000837 0.000858 0.000864 0.000653 0.000644 0.000675
O12a               0.000000 0.000182 0.000170 0.000134
 0.000818 0.000838 0.000816 0.000625 0.000639 0.000661
N21a               0.000000 0.000227 0.000220 0.000173
 0.000977 0.001032 0.000970 0.000768 0.000757 0.000805
C1a                0.000000 0.000255 0.000239 0.000189
 0.001029 0.001145 0.001079 0.000852 0.000811 0.000876
C2a                0.000000 0.000259 0.000238 0.000195
 0.001071 0.001106 0.001109 0.000835 0.000838 0.000895
C3a                0.000000 0.000260 0.000244 0.000196
 0.001086 0.001130 0.001112 0.000858 0.000843 0.000893
C11a               0.000000 0.000270 0.000244 0.000200
 0.001081 0.001123 0.001103 0.000865 0.000845 0.000898
C21a               0.000000 0.000267 0.000253 0.000199
 0.001119 0.001185 0.001105 0.000881 0.000854 0.000918
C22a               0.000000 0.000297 0.000261 0.000211
 0.001294 0.001286 0.001306 0.000988 0.000998 0.001044
C23a               0.000000 0.000336 0.000292 0.000231
 0.001567 0.001366 0.001426 0.001120 0.001190 0.001106
C24a               0.000000 0.000323 0.000288 0.000230
 0.001536 0.001458 0.001355 0.001178 0.001128 0.001150
C25a               0.000000 0.000312 0.000300 0.000229
 0.001339 0.001623 0.001445 0.001125 0.001078 0.001240
C26a               0.000000 0.000291 0.000283 0.000218
 0.001249 0.001402 0.001319 0.001019 0.000982 0.001071
H21a               0.000000 0.003034 0.003144 0.002524
 0.007672 0.000000 0.000000 0.000000 0.000000 0.000000
H22a               0.000000-0.100000-0.100000-0.100000
 0.000000 0.000000 0.000000 0.000000 0.000000 0.000000
H23a               0.000000-0.100000-0.100000-0.100000
 0.000000 0.000000 0.000000 0.000000 0.000000 0.000000
H24a               0.000000-0.100000-0.100000-0.100000
 0.000000 0.000000 0.000000 0.000000 0.000000 0.000000
H25a               0.000000-0.100000-0.100000-0.100000
 0.000000 0.000000 0.000000 0.000000 0.000000 0.000000
H26a               0.000000-0.100000-0.100000-0.100000
 0.000000 0.000000 0.000000 0.000000 0.000000 0.000000
H3a                0.000000-0.100000-0.100000-0.100000
 0.000000 0.000000 0.000000 0.000000 0.000000 0.000000
O1b                0.000000 0.000211 0.000193 0.000184
 0.000909 0.000924 0.000926 0.000694 0.000722 0.000796
O2b                0.000000 0.000258 0.000195 0.000166
 0.000987 0.000947 0.001079 0.000774 0.000791 0.000779
O3b                0.000000 0.000204 0.000199 0.000183
 0.000882 0.000919 0.000948 0.000661 0.000708 0.000800
Li1b               0.000000 0.000481 0.000439 0.000378
 0.002075 0.002077 0.002161 0.001576 0.001650 0.001691
H11b               0.000000 0.003947 0.003799 0.003428
 0.010661 0.000000 0.000000 0.000000 0.000000 0.000000
H12b               0.000000 0.003395 0.003551 0.002921
 0.008749 0.000000 0.000000 0.000000 0.000000 0.000000
H21b               0.000000 0.003921 0.003751 0.002876
 0.009848 0.000000 0.000000 0.000000 0.000000 0.000000
H22b               0.000000 0.003850 0.003728 0.002763
 0.010108 0.000000 0.000000 0.000000 0.000000 0.000000
H31b               0.000000 0.003432 0.003422 0.002882
 0.008913 0.000000 0.000000 0.000000 0.000000 0.000000
H32b               0.000000 0.003699 0.003976 0.003096
 0.009728 0.000000 0.000000 0.000000 0.000000 0.000000
O1c                0.000000 0.000252 0.000198 0.000167
 0.000933 0.000952 0.000959 0.000719 0.000751 0.000751
H11c               0.000000 0.004052 0.003872 0.003228
 0.010587 0.000000 0.000000 0.000000 0.000000 0.000000
H12c               0.000000 0.004410 0.003905 0.003045
 0.011062 0.000000 0.000000 0.000000 0.000000 0.000000
--------------------------   Saved points   ----------------------------
    0
--------------------------   Fourier maxima   --------------------------
    1    1    1
max1      1  1     1.000000 0.330635 0.791491 0.944918      000  0  0  0
     0.25     0.09
max2      1  1     1.000000 0.163451 0.666934 0.095365      000  0  0  0
     0.22     0.08
max3      1  1     1.000000 0.406132 0.083097 0.831946      000  0  0  0
     0.18     0.08
max4      1  1     1.000000 0.288895 0.178638 0.372514      000  0  0  0
     0.23     0.08
max5      1  1     1.000000 0.090021 0.262059 0.084983      000  0  0  0
     0.27     0.08
max6      1  1     1.000000 0.312962 0.035299 0.336569      000  0  0  0
     0.16     0.08
max7      1  1     1.000000 0.211603 0.097054 0.313893      000  0  0  0
     0.20     0.08
max8      1  1     1.000000 0.254444 0.710471 0.172151      000  0  0  0
     0.22     0.08
max9      1  1     1.000000 0.306431 0.472008 0.720633      000  0  0  0
     0.27     0.08
max10     1  1     1.000000 0.455024 0.877807 0.673092      000  0  0  0
     0.25     0.07
max11     1  1     1.000000 0.158539 0.234273 0.167963      000  0  0  0
     0.18     0.07
max12     1  1     1.000000 0.404831 0.555950 0.388955      000  0  0  0
     0.26     0.07
max13     1  1     1.000000 0.472477 0.459282 0.611921      000  0  0  0
     0.23     0.07
max14     1  1     1.000000 0.187313 0.630771 0.691198      000  0  0  0
     0.17     0.07
max15     1  1     1.000000-0.003957 0.551843 0.425312      000  0  0  0
     0.24     0.07
max16     1  1     1.000000 0.364778 0.579834 0.498182      000  0  0  0
     0.21     0.07
max17     1  1     1.000000 0.038454 0.166783 0.017479      000  0  0  0
     0.24     0.07
max18     1  1     1.000000 0.310934 0.110409 0.292412      000  0  0  0
     0.15     0.07
max19     1  1     1.000000 0.144713 0.160384 0.778138      000  0  0  0
     0.21     0.07
max20     1  1     1.000000 0.314363 0.923808 0.263857      000  0  0  0
     0.17     0.07
max21     1  1     1.000000 0.265079 0.574884 0.163031      000  0  0  0
     0.22     0.07
max22     1  1     1.000000 0.231907 0.177599 0.213953      000  0  0  0
     0.16     0.07
max23     1  1     1.000000 0.220518 0.850833 0.583610      000  0  0  0
     0.25     0.07
max24     1  1     1.000000 0.152245 0.717628 0.057417      000  0  0  0
     0.18     0.07
max25     1  1     1.000000 0.416483 0.499856 0.067841      000  0  0  0
     0.19     0.07
max26     1  1     1.000000 0.433233 0.627212 0.323029      000  0  0  0
     0.18     0.07
max27     1  1     1.000000 0.201478 0.972815 0.174152      000  0  0  0
     0.20     0.07
max28     1  1     1.000000 0.044928 0.846277 0.929977      000  0  0  0
     0.17     0.06
max29     1  1     1.000000 0.162611 0.759436 0.965221      000  0  0  0
     0.24     0.06
max30     1  1     1.000000 0.095177 0.351122 0.836593      000  0  0  0
     0.24     0.06
--------------------------   Fourier minima   --------------------------
    1    1    1
min1      1  1     1.000000 0.477521 0.456377 0.469519      000  0  0  0
     0.24     0.10
min2      1  1     1.000000 0.391022 0.510171 0.675902      000  0  0  0
     0.26     0.10
min3      1  1     1.000000 0.354569 0.685270 0.421563      000  0  0  0
     0.21     0.10
min4      1  1     1.000000 0.400879 0.654068 0.390745      000  0  0  0
     0.22     0.09
min5      1  1     1.000000 0.259444 0.018561 0.639804      000  0  0  0
     0.21     0.09
#------------------------------------------------------------------------
Jana2006 M50 file
Version Jana2006
title
cell 7.4372 8.2866 10.62 98.6745 107.3771 90.6553
esdcell 0.0006 0.0005 0.0013 0.0072 0.014 0.006
spgroup P-1 2 1
lattice P
symmetry x y z
symmetry -x -y -z
unitsnumb 1
chemform C20 Li2 N2 O12 H30
formtab -62
atom C atradius 0.77 color 128073041
atom Li atradius 1.57 color 134224116
atom N atradius 0.74 color 176185230
atom O atradius 0.74 color 254003000
atom H atradius 0.46 color 255204204
roundmethod 1
end
*******************************************************************************
contour
end contour
dist
  angles 1
  selsecnd O11a O12a N21a C1a C2a C3a C11a C21a C22a C23a C24a C25a C26a
  selsecnd H21a H22a H23a H24a H25a H26a H3a O1b O2b O3b Li1b H11b H12b
  selsecnd H21b H22b H31b H32b O1c H11c
end dist
fourier
  maptype 6 positive 30 negative 5
end fourier
refine
  fsquare 1 convcycl 2 unstab 0.02 convlim 0.0003
  keep hydro triang C3a 2 1 C2a C1a 0.95 H3a
  keep ADP riding C3a 1.2 H3a
  keep hydro triang C22a 2 1 C21a C23a 0.95 H22a
  keep ADP riding C22a 1.2 H22a
  keep hydro triang C23a 2 1 C24a C22a 0.95 H23a
  keep ADP riding C23a 1.2 H23a
  keep hydro triang C24a 2 1 C25a C23a 0.95 H24a
  keep ADP riding C24a 1.2 H24a
  keep hydro triang C25a 2 1 C24a C26a 0.95 H25a
  keep ADP riding C25a 1.2 H25a
  keep hydro triang C26a 2 1 C21a C25a 0.95 H26a
  keep ADP riding C26a 1.2 H26a
end refine
;
_cod_data_source_file            c7ce01501a2.cif
_cod_data_source_block           I
_cod_depositor_comments
;
The following automatic conversions were performed:

'_diffrn_radiation_probe' value 'X-ray' changed to 'x-ray' according
to
/home/data/users/saulius/crontab/automatic-downloads/rss-feeds/RSC/lib/dictionaries/cif_core.dic
dictionary named 'cif_core.dic' version 2.4.2 from 2011-04-26.

'_exptl_absorpt_correction_type' value 'Gaussian' changed to
'gaussian' according to
/home/data/users/saulius/crontab/automatic-downloads/rss-feeds/RSC/lib/dictionaries/cif_core.dic
dictionary named 'cif_core.dic' version 2.4.2 from 2011-04-26.

Automatic conversion script
Id: cif_fix_values 4973 2017-02-22 13:04:09Z antanas 
;
_cod_database_code               7229367
loop_
_space_group_symop_id
_space_group_symop_operation_xyz
1 x,y,z
2 -x,-y,-z
loop_
_atom_site_label
_atom_site_type_symbol
_atom_site_fract_x
_atom_site_fract_y
_atom_site_fract_z
_atom_site_adp_type
_atom_site_U_iso_or_equiv
_atom_site_site_symmetry_multiplicity
_atom_site_occupancy
_atom_site_calc_flag
O11a O 0.37413(18) 0.75585(17) 0.23134(13) Uani 0.0237(6) 2 1 d
O12a O 0.58286(18) 0.58030(17) 0.19178(13) Uani 0.0221(5) 2 1 d
N21a N 0.7710(2) 0.2653(2) 0.56877(17) Uani 0.0201(6) 2 1 d
C1a C 0.4833(3) 0.5700(2) 0.38413(19) Uani 0.0175(7) 2 1 d
C2a C 0.6312(3) 0.3790(2) 0.53426(20) Uani 0.0180(7) 2 1 d
C3a C 0.6100(3) 0.4505(2) 0.4207(2) Uani 0.0190(7) 2 1 d
C11a C 0.4786(3) 0.6406(2) 0.2611(2) Uani 0.0183(7) 2 1 d
C21a C 0.8441(3) 0.1879(3) 0.4645(2) Uani 0.0194(7) 2 1 d
C22a C 0.7453(3) 0.0571(3) 0.3722(2) Uani 0.0273(8) 2 1 d
C23a C 0.8177(3) -0.0141(3) 0.2733(2) Uani 0.0353(10) 2 1 d
C24a C 0.9875(3) 0.0447(3) 0.2656(2) Uani 0.0331(10) 2 1 d
C25a C 1.0854(3) 0.1755(3) 0.3564(2) Uani 0.0346(10) 2 1 d
C26a C 1.0131(3) 0.2469(3) 0.4568(2) Uani 0.0289(9) 2 1 d
H21a H 0.734(3) 0.201(3) 0.618(3) Uiso 0.043(8) 2 1 d
H22a H 0.628003 0.016271 0.376832 Uiso 0.0328 2 1 d
H23a H 0.750022 -0.104357 0.209919 Uiso 0.0423 2 1 d
H24a H 1.036885 -0.005387 0.19741 Uiso 0.0397 2 1 d
H25a H 1.201797 0.217037 0.350789 Uiso 0.0415 2 1 d
H26a H 1.081053 0.33683 0.520383 Uiso 0.0347 2 1 d
H3a H 0.686019 0.415904 0.365122 Uiso 0.0228 2 1 d
O1b O 0.4557(2) 0.72309(19) -0.02994(18) Uani 0.0252(6) 2 1 d
O2b O 0.2831(3) 1.06451(20) 0.07668(17) Uani 0.0308(7) 2 1 d
O3b O 0.0202(2) 0.7220(2) -0.01426(18) Uani 0.0264(6) 2 1 d
Li1b Li 0.2784(5) 0.8319(4) 0.0588(4) Uani 0.0275(14) 2 1 d
H11b H 0.507(4) 0.672(4) 0.041(3) Uiso 0.077(11) 2 1 d
H12b H 0.430(3) 0.644(4) -0.101(3) Uiso 0.055(9) 2 1 d
H21b H 0.387(4) 1.125(4) 0.071(3) Uiso 0.071(10) 2 1 d
H22b H 0.187(4) 1.119(4) 0.060(3) Uiso 0.065(10) 2 1 d
H31b H -0.002(3) 0.675(3) 0.054(3) Uiso 0.058(9) 2 1 d
H32b H 0.016(4) 0.638(4) -0.079(3) Uiso 0.066(10) 2 1 d
O1c O 0.9540(3) 0.5667(2) 0.18607(17) Uani 0.0277(6) 2 1 d
H11c H 1.037(4) 0.609(4) 0.257(3) Uiso 0.069(11) 2 1 d
H12c H 0.837(4) 0.570(4) 0.200(3) Uiso 0.083(11) 2 1 d
loop_
_atom_site_aniso_label
_atom_site_aniso_type_symbol
_atom_site_aniso_U_11
_atom_site_aniso_U_22
_atom_site_aniso_U_33
_atom_site_aniso_U_12
_atom_site_aniso_U_13
_atom_site_aniso_U_23
O11a O 0.0304(8) 0.0222(9) 0.0222(9) 0.0086(7) 0.0110(6) 0.0090(7)
O12a O 0.0283(8) 0.0231(8) 0.0188(8) 0.0051(6) 0.0115(6) 0.0063(7)
N21a N 0.0241(10) 0.0210(10) 0.0177(10) 0.0072(8) 0.0083(8) 0.0064(8)
C1a C 0.0190(10) 0.0184(11) 0.0144(11) -0.0018(9) 0.0040(8) 0.0028(9)
C2a C 0.0208(11) 0.0147(11) 0.0168(11) -0.0002(8) 0.0037(8) 0.0014(9)
C3a C 0.0225(11) 0.0182(11) 0.0171(11) 0.0007(9) 0.0081(8) 0.0014(9)
C11a C 0.0215(11) 0.0162(11) 0.0165(11) -0.0017(9) 0.0055(8) 0.0017(9)
C21a C 0.0225(11) 0.0207(12) 0.0170(11) 0.0063(9) 0.0068(9) 0.0075(9)
C22a C 0.0328(13) 0.0243(13) 0.0270(13) -0.0037(10) 0.0128(10) 0.0037(10)
C23a C 0.0541(16) 0.0249(14) 0.0289(14) -0.0034(11) 0.0195(12) -0.0025(11)
C24a C 0.0505(15) 0.0315(15) 0.0266(14) 0.0160(12) 0.0225(11) 0.0100(12)
C25a C 0.0311(13) 0.0444(16) 0.0325(14) 0.0025(11) 0.0155(11) 0.0075(12)
C26a C 0.0287(12) 0.0321(14) 0.0251(13) -0.0020(10) 0.0092(10) 0.0005(11)
O1b O 0.0339(9) 0.0222(9) 0.0219(9) 0.0015(7) 0.0113(7) 0.0048(8)
O2b O 0.0312(10) 0.0237(9) 0.0428(11) 0.0051(8) 0.0156(8) 0.0122(8)
O3b O 0.0324(9) 0.0216(9) 0.0262(9) 0.0020(7) 0.0095(7) 0.0054(8)
Li1b Li 0.033(2) 0.022(2) 0.030(2) 0.0032(16) 0.0115(17) 0.0061(17)
O1c O 0.0276(9) 0.0293(10) 0.0248(10) -0.0002(7) 0.0082(8) 0.0000(8)
loop_
_atom_type_symbol
_atom_type_scat_dispersion_real
_atom_type_scat_dispersion_imag
_atom_type_scat_source
C 0.0033 0.0016 'International Tables Vol C tables 4.2.6.8 and 6.1.1.1'
H 0.0000 0.0000 'International Tables Vol C tables 4.2.6.8 and 6.1.1.1'
Li -0.0003 0.0001 'International Tables Vol C tables 4.2.6.8 and 6.1.1.1'
N 0.0061 0.0033 'International Tables Vol C tables 4.2.6.8 and 6.1.1.1'
O 0.0106 0.0060 'International Tables Vol C tables 4.2.6.8 and 6.1.1.1'
loop_
_exptl_crystal_face_index_h
_exptl_crystal_face_index_k
_exptl_crystal_face_index_l
_exptl_crystal_face_perp_dist
-2 28 23 0.51636
-24 13 17 2.08617
5 -27 -7 0.50836
30 -6 -19 0.62713
-9 11 -25 0.51886
7 -4 25 0.118
loop_
_geom_angle_atom_site_label_1
_geom_angle_atom_site_label_2
_geom_angle_atom_site_label_3
_geom_angle_site_symmetry_1
_geom_angle_site_symmetry_3
_geom_angle
C11a O11a Li1b . . 129.02(18)
C2a N21a C21a . . 117.35(17)
C2a N21a H21a . . 107.5(15)
C21a N21a H21a . . 117.7(16)
C2a C1a C3a 2_666 . 118.5(2)
C2a C1a C11a 2_666 . 123.41(18)
C3a C1a C11a . . 118.06(19)
N21a C2a C1a . 2_666 121.90(19)
N21a C2a C3a . . 120.1(2)
C1a C2a C3a 2_666 . 117.96(18)
C1a C3a C2a . . 123.5(2)
C1a C3a H3a . . 118.24
C2a C3a H3a . . 118.24
O11a C11a O12a . . 123.0(2)
O11a C11a C1a . . 119.0(2)
O12a C11a C1a . . 117.99(18)
N21a C21a C22a . . 120.9(2)
N21a C21a C26a . . 119.26(17)
C22a C21a C26a . . 119.9(2)
C21a C22a C23a . . 119.7(2)
C21a C22a H22a . . 120.14
C23a C22a H22a . . 120.14
C22a C23a C24a . . 120.5(2)
C22a C23a H23a . . 119.76
C24a C23a H23a . . 119.76
C23a C24a C25a . . 120.0(2)
C23a C24a H24a . . 120.01
C25a C24a H24a . . 120.01
C24a C25a C26a . . 119.6(2)
C24a C25a H25a . . 120.18
C26a C25a H25a . . 120.18
C21a C26a C25a . . 120.29(19)
C21a C26a H26a . . 119.86
C25a C26a H26a . . 119.86
Li1b O1b H11b . . 91(2)
Li1b O1b H12b . . 128.5(17)
H11b O1b H12b . . 105(3)
Li1b O2b H21b . . 121.5(19)
Li1b O2b H22b . . 125(2)
H21b O2b H22b . . 110(3)
Li1b O3b H31b . . 106.4(14)
Li1b O3b H32b . . 110.8(18)
H31b O3b H32b . . 105(3)
O11a Li1b O1b . . 98.34(17)
O11a Li1b O2b . . 112.52(18)
O11a Li1b O3b . . 102.3(2)
O1b Li1b O2b . . 116.0(2)
O1b Li1b O3b . . 111.55(17)
O2b Li1b O3b . . 114.20(19)
loop_
_geom_bond_atom_site_label_1
_geom_bond_atom_site_label_2
_geom_bond_site_symmetry_2
_geom_bond_distance
O11a C11a . 1.256(2)
O11a Li1b . 1.959(4)
O12a C11a . 1.277(3)
N21a C2a . 1.415(3)
N21a C21a . 1.445(3)
N21a H21a . 0.90(3)
C1a C2a 2_666 1.412(3)
C1a C3a . 1.393(3)
C1a C11a . 1.501(3)
C2a C3a . 1.390(3)
C3a H3a . 0.95
C21a C22a . 1.381(3)
C21a C26a . 1.372(3)
C22a C23a . 1.378(4)
C22a H22a . 0.95
C23a C24a . 1.378(4)
C23a H23a . 0.95
C24a C25a . 1.372(3)
C24a H24a . 0.95
C25a C26a . 1.391(4)
C25a H25a . 0.95
C26a H26a . 0.95
O1b Li1b . 1.988(4)
O1b H11b . 0.91(3)
O1b H12b . 0.90(3)
O2b Li1b . 1.907(4)
O2b H21b . 0.94(3)
O2b H22b . 0.84(3)
O3b Li1b . 1.993(4)
O3b H31b . 0.93(3)
O3b H32b . 0.90(3)
O1c H11c . 0.84(3)
H12c O1c . 0.92(4)
loop_
_geom_hbond_atom_site_label_D
_geom_hbond_atom_site_label_H
_geom_hbond_atom_site_label_A
_geom_hbond_site_symmetry_A
_geom_hbond_distance_DH
_geom_hbond_distance_HA
_geom_hbond_distance_DA
_geom_hbond_angle_DHA
N21a H21a O11a 2_666 0.90(3) 1.98(3) 2.679(3) 133(2)
C3a H3a O12a . 0.95 2.40 2.759(3) 101.85
C3a H3a C21a . 0.95 2.44 2.809(3) 102.58
O1b H11b O12a . 0.91(3) 1.82(4) 2.716(2) 172(3)
O1b H11b C11a . 0.91(3) 2.46(4) 3.221(3) 142(3)
O1b H12b O12a 2_665 0.90(3) 1.94(3) 2.783(2) 155(3)
O2b H21b O1b 2_675 0.94(3) 1.89(3) 2.807(3) 165(3)
O2b H22b O3b 2_575 0.84(3) 2.03(3) 2.865(2) 171(3)
O3b H31b O1c 1_455 0.93(3) 1.88(3) 2.804(3) 176(3)
O3b H32b O1c 2_665 0.90(3) 1.95(3) 2.827(2) 166(3)
O1c H11c N21a 2_766 0.84(3) 2.09(3) 2.926(2) 174(3)
O1c H12c O12a . 0.92(4) 1.87(3) 2.782(2) 168(3)
