#------------------------------------------------------------------------------
#$Date: 2017-11-01 05:17:00 +0200 (Wed, 01 Nov 2017) $
#$Revision: 202457 $
#$URL: file:///home/coder/svn-repositories/cod/cif/7/22/94/7229445.cif $
#------------------------------------------------------------------------------
#
# This file is available in the Crystallography Open Database (COD),
# http://www.crystallography.net/
#
# All data on this site have been placed in the public domain by the
# contributors.
#
data_7229445
loop_
_publ_author_name
'Rademeyer, Melanie'
'van der Westhuizen, Belinda'
_publ_section_title
;
 Salts of 4-aminobutyric acid and 6-aminohexanoic acid behaving as
 molecular Velcro
;
_journal_name_full               CrystEngComm
_journal_paper_doi               10.1039/C7CE01597F
_journal_year                    2017
_chemical_formula_moiety         'C4 H10 N O2, I'
_chemical_formula_sum            'C4 H10 I N O2'
_chemical_formula_weight         231.03
_chemical_name_systematic
;
 ?
;
_space_group_crystal_system      orthorhombic
_space_group_IT_number           62
_space_group_name_Hall           '-P 2ac 2n'
_space_group_name_H-M_alt        'P n m a'
_symmetry_space_group_name_Hall  '-P 2ac 2n'
_symmetry_space_group_name_H-M   'P n m a'
_atom_sites_solution_hydrogens   difmap
_audit_creation_method           SHELXL-2013
_audit_update_record
;
2017-08-31 deposited with the CCDC.
2017-10-31 downloaded from the CCDC.
;
_cell_angle_alpha                90
_cell_angle_beta                 90
_cell_angle_gamma                90
_cell_formula_units_Z            4
_cell_length_a                   9.5887(4)
_cell_length_b                   6.0522(3)
_cell_length_c                   12.6513(6)
_cell_measurement_reflns_used    9968
_cell_measurement_temperature    150(2)
_cell_measurement_theta_max      28.39
_cell_measurement_theta_min      2.67
_cell_volume                     734.19(6)
_computing_cell_refinement       'Bruker SAINT'
_computing_data_collection       'Bruker APEX2'
_computing_data_reduction        'Bruker SAINT'
_computing_molecular_graphics    'Bruker SHELXTL'
_computing_publication_material  'Bruker SHELXTL'
_computing_structure_refinement  'SHELXL-2014 (Sheldrick 2014)'
_computing_structure_solution    'SHELXS-97 (Sheldrick 2008)'
_diffrn_ambient_temperature      150(2)
_diffrn_measured_fraction_theta_full 0.999
_diffrn_measured_fraction_theta_max 1.001
_diffrn_measurement_device_type  'Bruker APEX-II CCD'
_diffrn_measurement_method       '\f and \w scans'
_diffrn_radiation_type           MoK\a
_diffrn_radiation_wavelength     0.71073
_diffrn_reflns_av_R_equivalents  0.0329
_diffrn_reflns_av_unetI/netI     0.0109
_diffrn_reflns_Laue_measured_fraction_full 0.999
_diffrn_reflns_Laue_measured_fraction_max 1.001
_diffrn_reflns_limit_h_max       12
_diffrn_reflns_limit_h_min       -12
_diffrn_reflns_limit_k_max       8
_diffrn_reflns_limit_k_min       -8
_diffrn_reflns_limit_l_max       16
_diffrn_reflns_limit_l_min       -16
_diffrn_reflns_number            21535
_diffrn_reflns_point_group_measured_fraction_full 0.999
_diffrn_reflns_point_group_measured_fraction_max 1.001
_diffrn_reflns_theta_full        25.242
_diffrn_reflns_theta_max         28.398
_diffrn_reflns_theta_min         2.665
_exptl_absorpt_coefficient_mu    4.286
_exptl_absorpt_correction_T_max  0.4426
_exptl_absorpt_correction_T_min  0.3680
_exptl_absorpt_correction_type   multi-scan
_exptl_absorpt_process_details   'SADABS (Bruker, 2015)'
_exptl_crystal_colour            colourless
_exptl_crystal_density_diffrn    2.090
_exptl_crystal_description       block
_exptl_crystal_F_000             440
_exptl_crystal_size_max          0.137
_exptl_crystal_size_mid          0.137
_exptl_crystal_size_min          0.061
_refine_diff_density_max         0.451
_refine_diff_density_min         -0.266
_refine_diff_density_rms         0.091
_refine_ls_extinction_coef       0.0074(3)
_refine_ls_extinction_expression Fc^*^=kFc[1+0.001xFc^2^\l^3^/sin(2\q)]^-1/4^
_refine_ls_extinction_method     SHELXL
_refine_ls_goodness_of_fit_ref   1.135
_refine_ls_hydrogen_treatment    refall
_refine_ls_matrix_type           full
_refine_ls_number_parameters     72
_refine_ls_number_reflns         1010
_refine_ls_number_restraints     0
_refine_ls_restrained_S_all      1.135
_refine_ls_R_factor_all          0.0125
_refine_ls_R_factor_gt           0.0110
_refine_ls_shift/su_max          0.001
_refine_ls_shift/su_mean         0.000
_refine_ls_structure_factor_coef Fsqd
_refine_ls_weighting_details
;
 w=1/[\s^2^(Fo^2^)+(0.0105P)^2^+0.3015P]
 where P=(Fo^2^+2Fc^2^)/3
;
_refine_ls_weighting_scheme      calc
_refine_ls_wR_factor_gt          0.0249
_refine_ls_wR_factor_ref         0.0252
_reflns_Friedel_coverage         0.000
_reflns_number_gt                958
_reflns_number_total             1010
_reflns_threshold_expression     'I > 2\s(I)'
_cod_data_source_file            c7ce01597f2.cif
_cod_data_source_block           shelxl_CCDC5
_cod_database_code               7229445
_shelx_space_group_comment
;
The symmetry employed for this shelxl refinement is uniquely defined
by the following loop, which should always be used as a source of
symmetry information in preference to the above space-group names.
They are only intended as comments.
;
_shelxl_version_number           2013-2
_shelx_res_file
;
TITL mo_MR52_LT_0ma_a.res in Pnma
CELL  0.71073   9.5887   6.0522  12.6513   90.000   90.000   90.000
ZERR     4.00   0.0004   0.0003   0.0006    0.000    0.000    0.000
LATT   1
SYMM  1/2 - X, - Y, 1/2 + Z
SYMM  - X, 1/2 + Y, - Z
SYMM  1/2 + X, 1/2 - Y, 1/2 - Z
SFAC  C    H    I    N    O
UNIT  16   40   4    4    8
MERG   2
EQIV $1 x+1/2, y, -z+3/2
HTAB N1 O2_$1
EQIV $2 -x+3/2, -y+2, z+1/2
HTAB C2 I1_$2
HTAB C4 I1_$2
EQIV $3 -x+1, -y+2, -z+1
HTAB C3 I1_$3
HTAB O1 I1
HTAB N1 I1_$3
HTAB N1 O2_$1
HTAB C2 I1_$2
HTAB C4 I1_$2
HTAB C3 I1_$3
HTAB O1 I1
HTAB N1 I1_$3
FMAP   2
PLAN   40
ACTA
BOND   $H
CONF
LIST   6
L.S.  10
TEMP  -123.15
WGHT    0.010500    0.301500
EXTI    0.007394
FVAR       0.37396
I1    3    0.524617    0.750000    0.132323    10.50000    0.02088    0.01748 =
         0.01263    0.00000   -0.00120    0.00000
O2    5    0.445049    0.750000    0.500024    10.50000    0.01485    0.01873 =
         0.01879    0.00000   -0.00028    0.00000
O1    5    0.630602    0.750000    0.392725    10.50000    0.01977    0.04231 =
         0.01119    0.00000   -0.00033    0.00000
N1    4    0.684165    0.750000    0.874785    10.50000    0.01871    0.02225 =
         0.01189    0.00000   -0.00315    0.00000
C1    1    0.570254    0.750000    0.487553    10.50000    0.01984    0.01101 =
         0.01336    0.00000   -0.00001    0.00000
C2    1    0.678530    0.750000    0.573255    10.50000    0.01470    0.02492 =
         0.01117    0.00000    0.00023    0.00000
C3    1    0.619487    0.750000    0.684089    10.50000    0.01615    0.02346 =
         0.01195    0.00000    0.00003    0.00000
C4    1    0.737083    0.750000    0.763887    10.50000    0.01521    0.02412 =
         0.01193    0.00000   -0.00008    0.00000
H1A   2    0.755027    0.750000    0.916195    10.50000    0.02397
H2A   2    0.738629    0.877365    0.563064    11.00000    0.02860
H4A   2    0.792987    0.881478    0.753775    11.00000    0.02876
H3A   2    0.562658    0.880606    0.695086    11.00000    0.03108
H1    2    0.570569    0.750000    0.349946    10.50000    0.04246
H1B   2    0.633145    0.869708    0.887217    11.00000    0.03719
HKLF    4

REM  mo_MR52_LT_0ma_a.res in Pnma
REM R1 =  0.0110 for     958 Fo > 4sig(Fo)  and  0.0125 for all    1010 data
REM     72 parameters refined using      0 restraints

END

WGHT      0.0105      0.3015

REM Highest difference peak  0.451,  deepest hole -0.266,  1-sigma level  0.091
Q1    1   0.6470  0.7500  0.6322  10.50000  0.05    0.45
Q2    1   0.6220  0.7500  0.5325  10.50000  0.05    0.43
Q3    1   0.6022  0.7500  0.1347  10.50000  0.05    0.34
Q4    1   0.6765  0.7500  0.7220  10.50000  0.05    0.34
Q5    1   0.4911  0.7500  0.4988  10.50000  0.05    0.30
Q6    1   0.4386  0.7500  0.5489  10.50000  0.05    0.30
Q7    1   0.8053  0.7500  0.7517  10.50000  0.05    0.30
Q8    1   0.7160  0.7500  0.8162  10.50000  0.05    0.29
Q9    1   0.6914  0.7500  0.1596  10.50000  0.05    0.28
Q10   1   0.3832  0.7500  0.1792  10.50000  0.05    0.27
Q11   1   0.3668  0.7500  0.4981  10.50000  0.05    0.27
Q12   1   0.7554  0.7500  0.4008  10.50000  0.05    0.26
Q13   1   0.4144  0.7500  0.1305  10.50000  0.05    0.25
Q14   1   0.6080  0.7500  0.0558  10.50000  0.05    0.25
Q15   1   0.5304  0.7500  0.6928  10.50000  0.05    0.25
Q16   1   0.4553  0.8277  0.1382  11.00000  0.05    0.24
Q17   1   0.4572  0.7500  0.9470  10.50000  0.05    0.24
Q18   1   0.7606  1.1832  0.7393  11.00000  0.05    0.24
Q19   1   0.3177  0.7500  0.2400  10.50000  0.05    0.23
Q20   1   0.2734  0.7500  0.4105  10.50000  0.05    0.23
Q21   1   0.8411  0.7500  0.9195  10.50000  0.05    0.23
Q22   1   0.5024  0.7500  0.8953  10.50000  0.05    0.23
Q23   1   0.7845  0.7797  0.3270  11.00000  0.05    0.22
Q24   1   0.4918  0.7500  0.8220  10.50000  0.05    0.22
Q25   1   0.5924  0.7500  0.4440  10.50000  0.05    0.22
Q26   1   0.3413  0.8082  0.1480  11.00000  0.05    0.21
Q27   1   0.8267  0.7500  0.4500  10.50000  0.05    0.21
Q28   1   0.7038  0.7500  0.0731  10.50000  0.05    0.21
Q29   1   0.7254  0.7835  0.5600  11.00000  0.05    0.21
Q30   1   0.5002  0.7500  0.1845  10.50000  0.05    0.21
Q31   1   0.3369  0.7500  0.3289  10.50000  0.05    0.20
Q32   1   0.6172  0.7500  0.1965  10.50000  0.05    0.19
Q33   1   0.6092  0.7500  0.3726  10.50000  0.05    0.18
Q34   1   0.8418  0.7500  0.5614  10.50000  0.05    0.18
Q35   1   0.8388  0.8169  0.8171  11.00000  0.05    0.18
Q36   1   0.8640  0.7500  0.6921  10.50000  0.05    0.18
Q37   1   0.5165  0.7500  0.0985  10.50000  0.05    0.17
Q38   1   0.6606  0.7500  0.2899  10.50000  0.05    0.17
Q39   1   0.8248  0.7500  0.6665  10.50000  0.05    0.17
Q40   1   0.9195  0.8089  0.6504  11.00000  0.05    0.16
;
_shelx_res_checksum              65661
loop_
_space_group_symop_operation_xyz
'x, y, z'
'-x+1/2, -y, z+1/2'
'-x, y+1/2, -z'
'x+1/2, -y+1/2, -z+1/2'
'-x, -y, -z'
'x-1/2, y, -z-1/2'
'x, -y-1/2, z'
'-x-1/2, y-1/2, z-1/2'
loop_
_atom_site_label
_atom_site_type_symbol
_atom_site_fract_x
_atom_site_fract_y
_atom_site_fract_z
_atom_site_U_iso_or_equiv
_atom_site_adp_type
_atom_site_occupancy
_atom_site_site_symmetry_order
_atom_site_calc_flag
_atom_site_refinement_flags_posn
_atom_site_refinement_flags_adp
_atom_site_refinement_flags_occupancy
I1 I 0.52462(2) 0.7500 0.13232(2) 0.01699(6) Uani 1 2 d S T P
O2 O 0.44505(13) 0.7500 0.50002(10) 0.0175(3) Uani 1 2 d S T P
O1 O 0.63060(16) 0.7500 0.39273(11) 0.0244(3) Uani 1 2 d S T P
N1 N 0.68417(18) 0.7500 0.87479(12) 0.0176(3) Uani 1 2 d S T P
C1 C 0.5703(2) 0.7500 0.48755(13) 0.0147(3) Uani 1 2 d S T P
C2 C 0.67853(19) 0.7500 0.57325(13) 0.0169(4) Uani 1 2 d S T P
C3 C 0.6195(2) 0.7500 0.68409(13) 0.0172(4) Uani 1 2 d S T P
C4 C 0.73708(19) 0.7500 0.76389(14) 0.0171(4) Uani 1 2 d S T P
H1A H 0.755(3) 0.7500 0.9162(18) 0.024(6) Uiso 1 2 d S . P
H2A H 0.7386(17) 0.877(3) 0.5631(12) 0.029(4) Uiso 1 1 d . . .
H4A H 0.7930(16) 0.881(3) 0.7538(11) 0.029(4) Uiso 1 1 d . . .
H3A H 0.5627(17) 0.881(3) 0.6951(13) 0.031(4) Uiso 1 1 d . . .
H1 H 0.571(4) 0.7500 0.350(2) 0.042(8) Uiso 1 2 d S . P
H1B H 0.633(2) 0.870(3) 0.8872(12) 0.037(5) Uiso 1 1 d . . .
loop_
_atom_site_aniso_label
_atom_site_aniso_U_11
_atom_site_aniso_U_22
_atom_site_aniso_U_33
_atom_site_aniso_U_23
_atom_site_aniso_U_13
_atom_site_aniso_U_12
I1 0.02088(8) 0.01748(8) 0.01263(7) 0.000 -0.00120(4) 0.000
O2 0.0149(6) 0.0187(7) 0.0188(6) 0.000 -0.0003(5) 0.000
O1 0.0198(7) 0.0423(9) 0.0112(6) 0.000 -0.0003(5) 0.000
N1 0.0187(8) 0.0222(9) 0.0119(7) 0.000 -0.0032(6) 0.000
C1 0.0198(8) 0.0110(8) 0.0134(8) 0.000 0.0000(7) 0.000
C2 0.0147(9) 0.0249(10) 0.0112(8) 0.000 0.0002(6) 0.000
C3 0.0162(8) 0.0235(10) 0.0120(8) 0.000 0.0000(6) 0.000
C4 0.0152(8) 0.0241(10) 0.0119(8) 0.000 -0.0001(7) 0.000
loop_
_atom_type_symbol
_atom_type_description
_atom_type_scat_dispersion_real
_atom_type_scat_dispersion_imag
_atom_type_scat_source
C C 0.0033 0.0016 'International Tables Vol C Tables 4.2.6.8 and 6.1.1.4'
H H 0.0000 0.0000 'International Tables Vol C Tables 4.2.6.8 and 6.1.1.4'
I I -0.4742 1.8119 'International Tables Vol C Tables 4.2.6.8 and 6.1.1.4'
N N 0.0061 0.0033 'International Tables Vol C Tables 4.2.6.8 and 6.1.1.4'
O O 0.0106 0.0060 'International Tables Vol C Tables 4.2.6.8 and 6.1.1.4'
loop_
_geom_angle_atom_site_label_1
_geom_angle_atom_site_label_2
_geom_angle_atom_site_label_3
_geom_angle
C1 O1 H1 107(2)
C4 N1 H1A 107.7(16)
C4 N1 H1B 110.7(11)
H1A N1 H1B 109.2(14)
O2 C1 O1 123.24(16)
O2 C1 C2 126.27(15)
O1 C1 C2 110.49(16)
C1 C2 C3 114.26(16)
C1 C2 H2A 108.3(9)
C3 C2 H2A 110.2(9)
C2 C3 C4 109.85(15)
C2 C3 H3A 110.1(10)
C4 C3 H3A 108.8(10)
N1 C4 C3 111.96(15)
N1 C4 H4A 108.2(9)
C3 C4 H4A 108.9(9)
loop_
_geom_bond_atom_site_label_1
_geom_bond_atom_site_label_2
_geom_bond_distance
O2 C1 1.211(2)
O1 C1 1.332(2)
O1 H1 0.79(3)
N1 C4 1.492(2)
N1 H1A 0.86(3)
N1 H1B 0.89(2)
C1 C2 1.501(2)
C2 C3 1.512(2)
C2 H2A 0.971(17)
C3 C4 1.513(2)
C3 H3A 0.970(17)
C4 H4A 0.968(17)
loop_
_geom_hbond_atom_site_label_D
_geom_hbond_atom_site_label_H
_geom_hbond_atom_site_label_A
_geom_hbond_distance_DH
_geom_hbond_distance_HA
_geom_hbond_distance_DA
_geom_hbond_angle_DHA
_geom_hbond_site_symmetry_A
N1 H1A O2 0.86(3) 2.11(3) 2.961(2) 173(2) 6_657
C2 H2A I1 0.971(17) 3.318(16) 4.2211(13) 155.6(12) 2_675
C4 H4A I1 0.968(17) 3.224(16) 4.1411(12) 158.8(11) 2_675
C3 H3A I1 0.970(17) 3.235(17) 4.0572(12) 143.6(12) 5_676
O1 H1 I1 0.79(3) 2.79(3) 3.4476(14) 142(3) .
N1 H1B I1 0.89(2) 2.77(2) 3.6295(10) 164.7(14) 5_676
N1 H1A O2 0.86(3) 2.11(3) 2.961(2) 173(2) 6_657
C2 H2A I1 0.971(17) 3.318(16) 4.2211(13) 155.6(12) 2_675
C4 H4A I1 0.968(17) 3.224(16) 4.1411(12) 158.8(11) 2_675
C3 H3A I1 0.970(17) 3.235(17) 4.0572(12) 143.6(12) 5_676
O1 H1 I1 0.79(3) 2.79(3) 3.4476(14) 142(3) .
N1 H1B I1 0.89(2) 2.77(2) 3.6295(10) 164.7(14) 5_676
loop_
_geom_torsion_atom_site_label_1
_geom_torsion_atom_site_label_2
_geom_torsion_atom_site_label_3
_geom_torsion_atom_site_label_4
_geom_torsion
O2 C1 C2 C3 0.000(0)
O1 C1 C2 C3 180.000(0)
C1 C2 C3 C4 180.000(0)
C2 C3 C4 N1 180.000(0)
