#------------------------------------------------------------------------------
#$Date: 2019-11-17 09:26:29 +0200 (Sun, 17 Nov 2019) $
#$Revision: 229094 $
#$URL: file:///home/coder/svn-repositories/cod/cif/7/23/03/7230320.cif $
#------------------------------------------------------------------------------
#
# This file is available in the Crystallography Open Database (COD),
# http://www.crystallography.net/
#
# All data on this site have been placed in the public domain by the
# contributors.
#
data_7230320
loop_
_publ_author_name
'Sugiyama, Haruki'
'Uekusa, Hidehiro'
_publ_section_title
;
 Relationship between crystal structures and photochromic properties of
 N-salicylideneaminopyridine derivatives
;
_journal_issue                   15
_journal_name_full               CrystEngComm
_journal_page_first              2144
_journal_paper_doi               10.1039/C8CE00003D
_journal_volume                  20
_journal_year                    2018
_chemical_compound_source        non-photochromic
_chemical_formula_moiety         'C13 H11 Cl N2 O'
_chemical_formula_sum            'C13 H11 Cl N2 O'
_chemical_formula_weight         246.69
_chemical_name_common            5Cl-5Me3SAP
_chemical_name_systematic        4-chloro-6-[(E)-3-pyridylimino-5-methyl]phenol
_space_group_crystal_system      triclinic
_space_group_IT_number           2
_space_group_name_Hall           '-P 1'
_space_group_name_H-M_alt        'P -1'
_symmetry_space_group_name_Hall  '-P 1'
_symmetry_space_group_name_H-M   'P -1'
_atom_sites_solution_hydrogens   geom
_atom_sites_solution_primary     direct
_atom_sites_solution_secondary   difmap
_audit_creation_method           SHELXL-2018/1
_audit_update_record
;
2017-12-30 deposited with the CCDC.
2018-03-20 downloaded from the CCDC.
;
_cell_angle_alpha                93.793(7)
_cell_angle_beta                 93.656(7)
_cell_angle_gamma                99.044(7)
_cell_formula_units_Z            2
_cell_length_a                   5.8388(13)
_cell_length_b                   7.4762(17)
_cell_length_c                   13.369(3)
_cell_measurement_reflns_used    6067
_cell_measurement_temperature    293(2)
_cell_measurement_theta_max      27.482
_cell_measurement_theta_min      3.058
_cell_volume                     573.4(2)
_computing_cell_refinement       'CrystalClear-SM Expert 2.0'
_computing_data_collection       'CrystalClear-SM Expert 2.0'
_computing_data_reduction        'CrystalClear-SM Expert 2.0'
_computing_structure_refinement  'SHELXL-2018/1 (Sheldrick, 2018)'
_computing_structure_solution    'SHELXS-97(Sheldrick, 1990)'
_diffrn_ambient_temperature      293(2)
_diffrn_detector_area_resol_mean 13.6612
_diffrn_measured_fraction_theta_full 0.999
_diffrn_measured_fraction_theta_max 0.998
_diffrn_measurement_device_type  'RIGAKU XtaLAB mini'
_diffrn_measurement_method       \w-scan
_diffrn_radiation_type           MoK\a
_diffrn_radiation_wavelength     0.71075
_diffrn_reflns_av_R_equivalents  0.0164
_diffrn_reflns_av_unetI/netI     0.0196
_diffrn_reflns_Laue_measured_fraction_full 0.999
_diffrn_reflns_Laue_measured_fraction_max 0.998
_diffrn_reflns_limit_h_max       7
_diffrn_reflns_limit_h_min       -7
_diffrn_reflns_limit_k_max       9
_diffrn_reflns_limit_k_min       -9
_diffrn_reflns_limit_l_max       17
_diffrn_reflns_limit_l_min       -17
_diffrn_reflns_number            6067
_diffrn_reflns_point_group_measured_fraction_full 0.999
_diffrn_reflns_point_group_measured_fraction_max 0.998
_diffrn_reflns_theta_full        25.242
_diffrn_reflns_theta_max         27.482
_diffrn_reflns_theta_min         3.058
_diffrn_source                   'sealed tube with SHINE monochrometor X-ray'
_exptl_absorpt_coefficient_mu    0.316
_exptl_absorpt_correction_T_max  0.943
_exptl_absorpt_correction_T_min  0.830
_exptl_absorpt_correction_type   multi-scan
_exptl_absorpt_process_details   'Abscor T.Higashi RIGAKU'
_exptl_crystal_colour            yellow
_exptl_crystal_density_diffrn    1.429
_exptl_crystal_description       prizm
_exptl_crystal_F_000             256
_exptl_crystal_recrystallization_method
'Re-crystallisation from solvent: methanol'
_exptl_crystal_size_max          0.235
_exptl_crystal_size_mid          0.235
_exptl_crystal_size_min          0.187
_refine_diff_density_max         0.168
_refine_diff_density_min         -0.303
_refine_diff_density_rms         0.063
_refine_ls_extinction_method     none
_refine_ls_goodness_of_fit_ref   1.055
_refine_ls_hydrogen_treatment    constr
_refine_ls_matrix_type           full
_refine_ls_number_parameters     156
_refine_ls_number_reflns         2634
_refine_ls_number_restraints     0
_refine_ls_restrained_S_all      1.055
_refine_ls_R_factor_all          0.0518
_refine_ls_R_factor_gt           0.0418
_refine_ls_shift/su_max          0.000
_refine_ls_shift/su_mean         0.000
_refine_ls_structure_factor_coef Fsqd
_refine_ls_weighting_details
'w=1/[\s^2^(Fo^2^)+(0.0618P)^2^+0.1268P] where P=(Fo^2^+2Fc^2^)/3'
_refine_ls_weighting_scheme      calc
_refine_ls_wR_factor_gt          0.1126
_refine_ls_wR_factor_ref         0.1196
_reflns_Friedel_coverage         0.000
_reflns_number_gt                2162
_reflns_number_total             2634
_reflns_threshold_expression     'I > 2\s(I)'
_cod_data_source_file            c8ce00003d2.cif
_cod_data_source_block           shelx_CCDC5
_cod_depositor_comments
'Adding full bibliography for 7230315--7230335.cif.'
_cod_database_code               7230320
_shelx_shelxl_version_number     2018/1
_shelx_space_group_comment
; 
The symmetry employed for this shelxl refinement is uniquely defined 
by the following loop, which should always be used as a source of 
symmetry information in preference to the above space-group names. 
They are only intended as comments. 
;
_shelx_estimated_absorpt_t_min   0.929
_shelx_estimated_absorpt_t_max   0.943
_shelx_res_file
; 
  
TITL  P-1 
    shelx.res 
    created by SHELXL-2018/1 at 20:42:12 on 30-Dec-2017 
CELL  0.71075   5.8388   7.4762  13.3690   93.793   93.656   99.044 
ZERR    2.000   0.0013   0.0017   0.0029    0.007    0.007    0.007 
LATT  1 
SFAC C H O N CL 
UNIT 26 22 2 4 2 
SIZE 0.235 0.235 0.187 
TEMP 20 
L.S. 10 
BOND $H 
LIST 4 
CONF 
FMAP 2 
HTAB O1 N1 
EQIV $1 -x, -y, -z+1 
HTAB C5 N2_$1 
ACTA 
PLAN 20 
WGHT    0.061800    0.126800 
FVAR       0.56723 
CL1   5    0.185205    0.275417    0.056490    11.00000    0.06125    0.07885 = 
         0.03570    0.01131   -0.01062    0.00157 
O1    3    0.860825    0.419909    0.407321    11.00000    0.03694    0.07781 = 
         0.03957    0.00495   -0.00276   -0.00761 
AFIX 147 
H1    2    0.804919    0.378879    0.457398    11.00000   -1.50000 
AFIX   0 
N1    4    0.529228    0.263258    0.513939    11.00000    0.03702    0.04306 = 
         0.03122    0.00279    0.00348    0.00266 
N2    4    0.157484    0.066549    0.707345    11.00000    0.04524    0.07600 = 
         0.04387    0.00912    0.00746   -0.01023 
C1    1    0.700556    0.383827    0.328396    11.00000    0.03430    0.04083 = 
         0.03604    0.00040    0.00111    0.00388 
C2    1    0.765220    0.434005    0.234861    11.00000    0.03789    0.05252 = 
         0.04278    0.00666    0.00830   -0.00194 
AFIX  43 
H2    2    0.916588    0.490345    0.228098    11.00000   -1.20000 
AFIX   0 
C3    1    0.608118    0.401422    0.151999    11.00000    0.05108    0.04707 = 
         0.03483    0.00897    0.00957    0.00423 
AFIX  43 
H3    2    0.652782    0.435772    0.089600    11.00000   -1.20000 
AFIX   0 
C4    1    0.383778    0.317397    0.162146    11.00000    0.04457    0.04263 = 
         0.03273    0.00460   -0.00161    0.00547 
C5    1    0.314714    0.265315    0.253382    11.00000    0.03488    0.04465 = 
         0.03637    0.00719   -0.00001    0.00045 
AFIX  43 
H5    2    0.163090    0.208215    0.258849    11.00000   -1.20000 
AFIX   0 
C6    1    0.472755    0.298193    0.338350    11.00000    0.03406    0.03442 = 
         0.03294    0.00339    0.00266    0.00440 
C7    1    0.395591    0.240133    0.433382    11.00000    0.03303    0.04251 = 
         0.03639    0.00612    0.00254    0.00126 
AFIX  43 
H7    2    0.242506    0.183723    0.435828    11.00000   -1.20000 
AFIX   0 
C8    1    0.450558    0.202971    0.606029    11.00000    0.03551    0.03430 = 
         0.03196    0.00044    0.00346    0.00342 
C9    1    0.224170    0.126451    0.620456    11.00000    0.04009    0.07045 = 
         0.03636    0.00339    0.00024   -0.00754 
AFIX  43 
H9    2    0.112869    0.116403    0.566560    11.00000   -1.20000 
AFIX   0 
C10   1    0.317639    0.086417    0.784293    11.00000    0.05242    0.05127 = 
         0.03705    0.00850    0.01124    0.00476 
AFIX  43 
H10   2    0.272409    0.043804    0.844995    11.00000   -1.20000 
AFIX   0 
C11   1    0.546413    0.165966    0.780214    11.00000    0.04514    0.03860 = 
         0.03316    0.00134    0.00206    0.01058 
C12   1    0.611581    0.223305    0.688066    11.00000    0.03522    0.03837 = 
         0.03630    0.00223    0.00163    0.00449 
AFIX  43 
H12   2    0.764637    0.275781    0.681432    11.00000   -1.20000 
AFIX   0 
C13   1    0.715167    0.188692    0.871481    11.00000    0.06186    0.06927 = 
         0.03620    0.00778   -0.00470    0.01060 
AFIX 137 
H13A  2    0.643232    0.127135    0.925017    11.00000   -1.50000 
H13B  2    0.759314    0.315566    0.892094    11.00000   -1.50000 
H13C  2    0.850836    0.137902    0.855679    11.00000   -1.50000 
AFIX   0 
HKLF 4 
  
  
  
  
REM   P-1 
REM R1 =  0.0418 for    2162 Fo > 4sig(Fo)  and  0.0518 for all    2634 data 
REM    156 parameters refined using      0 restraints 
  
END 
  
WGHT      0.0618      0.1268 
  
REM Highest difference peak  0.168,  deepest hole -0.303,  1-sigma level  0.063 
Q1    1   0.7679  0.1598  0.5047  11.00000  0.05    0.17 
Q2    1   0.1879  0.2793  0.4448  11.00000  0.05    0.16 
Q3    1   0.5019  0.3057  0.1426  11.00000  0.05    0.16 
Q4    1   0.0362  0.1925  0.5682  11.00000  0.05    0.16 
Q5    1   0.0441  0.2791  0.5152  11.00000  0.05    0.15 
Q6    1   0.1294  0.1415  0.0464  11.00000  0.05    0.14 
Q7    1   0.7986  0.1707  0.4348  11.00000  0.05    0.14 
Q8    1   0.3058  0.0660  0.2810  11.00000  0.05    0.14 
Q9    1   0.6520  0.2622  0.9275  11.00000  0.05    0.14 
Q10   1   0.1449  0.3199  0.5186  11.00000  0.05    0.14 
Q11   1  -0.0123  0.0687  0.7184  11.00000  0.05    0.14 
Q12   1   0.4203  0.0756  0.3374  11.00000  0.05    0.13 
Q13   1   0.7911  0.5236  0.6390  11.00000  0.05    0.13 
Q14   1   1.0433  0.3445  0.4419  11.00000  0.05    0.13 
Q15   1  -0.0229  0.1302  0.6949  11.00000  0.05    0.13 
Q16   1   0.4269  0.3236  0.8816  11.00000  0.05    0.13 
Q17   1   0.0792  0.2755  0.4570  11.00000  0.05    0.13 
Q18   1   0.8107  0.0199  0.7609  11.00000  0.05    0.13 
Q19   1   0.1542  0.3513  0.3735  11.00000  0.05    0.13 
Q20   1   0.9858  0.3680  0.2795  11.00000  0.05    0.13 
;
_shelx_res_checksum              97158
loop_
_space_group_symop_operation_xyz
'x, y, z'
'-x, -y, -z'
loop_
_atom_site_label
_atom_site_type_symbol
_atom_site_fract_x
_atom_site_fract_y
_atom_site_fract_z
_atom_site_U_iso_or_equiv
_atom_site_adp_type
_atom_site_occupancy
_atom_site_site_symmetry_order
_atom_site_calc_flag
_atom_site_refinement_flags_posn
_atom_site_refinement_flags_adp
Cl1 Cl 0.18521(8) 0.27542(7) 0.05649(3) 0.05997(19) Uani 1 1 d . .
O1 O 0.8608(2) 0.41991(19) 0.40732(9) 0.0535(3) Uani 1 1 d . .
H1 H 0.804919 0.378879 0.457398 0.080 Uiso 1 1 calc R U
N1 N 0.5292(2) 0.26326(17) 0.51394(9) 0.0375(3) Uani 1 1 d . .
N2 N 0.1575(3) 0.0665(2) 0.70734(11) 0.0568(4) Uani 1 1 d . .
C1 C 0.7006(3) 0.3838(2) 0.32840(11) 0.0375(3) Uani 1 1 d . .
C2 C 0.7652(3) 0.4340(2) 0.23486(12) 0.0450(4) Uani 1 1 d . .
H2 H 0.916588 0.490345 0.228098 0.054 Uiso 1 1 calc R U
C3 C 0.6081(3) 0.4014(2) 0.15200(12) 0.0442(4) Uani 1 1 d . .
H3 H 0.652782 0.435772 0.089600 0.053 Uiso 1 1 calc R U
C4 C 0.3838(3) 0.3174(2) 0.16215(11) 0.0403(3) Uani 1 1 d . .
C5 C 0.3147(3) 0.2653(2) 0.25338(11) 0.0392(3) Uani 1 1 d . .
H5 H 0.163090 0.208215 0.258849 0.047 Uiso 1 1 calc R U
C6 C 0.4728(2) 0.29819(19) 0.33835(11) 0.0339(3) Uani 1 1 d . .
C7 C 0.3956(3) 0.2401(2) 0.43338(11) 0.0377(3) Uani 1 1 d . .
H7 H 0.242506 0.183723 0.435828 0.045 Uiso 1 1 calc R U
C8 C 0.4506(2) 0.20297(19) 0.60603(11) 0.0342(3) Uani 1 1 d . .
C9 C 0.2242(3) 0.1265(3) 0.62046(12) 0.0509(4) Uani 1 1 d . .
H9 H 0.112869 0.116403 0.566560 0.061 Uiso 1 1 calc R U
C10 C 0.3176(3) 0.0864(2) 0.78429(12) 0.0467(4) Uani 1 1 d . .
H10 H 0.272409 0.043804 0.844995 0.056 Uiso 1 1 calc R U
C11 C 0.5464(3) 0.1660(2) 0.78021(11) 0.0387(3) Uani 1 1 d . .
C12 C 0.6116(3) 0.2233(2) 0.68807(11) 0.0369(3) Uani 1 1 d . .
H12 H 0.764637 0.275781 0.681432 0.044 Uiso 1 1 calc R U
C13 C 0.7152(3) 0.1887(3) 0.87148(13) 0.0560(5) Uani 1 1 d . .
H13A H 0.643232 0.127135 0.925017 0.084 Uiso 1 1 calc R U
H13B H 0.759314 0.315566 0.892094 0.084 Uiso 1 1 calc R U
H13C H 0.850836 0.137902 0.855679 0.084 Uiso 1 1 calc R U
loop_
_atom_site_aniso_label
_atom_site_aniso_U_11
_atom_site_aniso_U_22
_atom_site_aniso_U_33
_atom_site_aniso_U_23
_atom_site_aniso_U_13
_atom_site_aniso_U_12
Cl1 0.0612(3) 0.0789(4) 0.0357(2) 0.0113(2) -0.01062(18) 0.0016(2)
O1 0.0369(6) 0.0778(9) 0.0396(6) 0.0050(6) -0.0028(5) -0.0076(6)
N1 0.0370(7) 0.0431(7) 0.0312(6) 0.0028(5) 0.0035(5) 0.0027(5)
N2 0.0452(8) 0.0760(11) 0.0439(8) 0.0091(7) 0.0075(6) -0.0102(7)
C1 0.0343(7) 0.0408(8) 0.0360(7) 0.0004(6) 0.0011(6) 0.0039(6)
C2 0.0379(8) 0.0525(9) 0.0428(9) 0.0067(7) 0.0083(7) -0.0019(7)
C3 0.0511(9) 0.0471(9) 0.0348(8) 0.0090(6) 0.0096(7) 0.0042(7)
C4 0.0446(8) 0.0426(8) 0.0327(7) 0.0046(6) -0.0016(6) 0.0055(7)
C5 0.0349(7) 0.0446(8) 0.0364(8) 0.0072(6) 0.0000(6) 0.0004(6)
C6 0.0341(7) 0.0344(7) 0.0329(7) 0.0034(5) 0.0027(5) 0.0044(6)
C7 0.0330(7) 0.0425(8) 0.0364(8) 0.0061(6) 0.0025(6) 0.0013(6)
C8 0.0355(7) 0.0343(7) 0.0320(7) 0.0004(5) 0.0035(6) 0.0034(6)
C9 0.0401(9) 0.0704(11) 0.0364(8) 0.0034(8) 0.0002(7) -0.0075(8)
C10 0.0524(10) 0.0513(9) 0.0370(8) 0.0085(7) 0.0112(7) 0.0048(8)
C11 0.0451(8) 0.0386(8) 0.0332(7) 0.0013(6) 0.0021(6) 0.0106(6)
C12 0.0352(7) 0.0384(8) 0.0363(7) 0.0022(6) 0.0016(6) 0.0045(6)
C13 0.0619(11) 0.0693(12) 0.0362(9) 0.0078(8) -0.0047(8) 0.0106(9)
loop_
_atom_type_symbol
_atom_type_description
_atom_type_scat_dispersion_real
_atom_type_scat_dispersion_imag
_atom_type_scat_source
C C 0.0033 0.0016 'International Tables Vol C Tables 4.2.6.8 and 6.1.1.4'
H H 0.0000 0.0000 'International Tables Vol C Tables 4.2.6.8 and 6.1.1.4'
O O 0.0106 0.0060 'International Tables Vol C Tables 4.2.6.8 and 6.1.1.4'
N N 0.0061 0.0033 'International Tables Vol C Tables 4.2.6.8 and 6.1.1.4'
Cl Cl 0.1484 0.1585 'International Tables Vol C Tables 4.2.6.8 and 6.1.1.4'
loop_
_geom_angle_atom_site_label_1
_geom_angle_atom_site_label_2
_geom_angle_atom_site_label_3
_geom_angle
C1 O1 H1 109.5
C7 N1 C8 121.55(13)
C10 N2 C9 117.39(14)
O1 C1 C2 118.43(14)
O1 C1 C6 122.04(13)
C2 C1 C6 119.53(14)
C3 C2 C1 120.79(14)
C3 C2 H2 119.6
C1 C2 H2 119.6
C2 C3 C4 119.51(14)
C2 C3 H3 120.2
C4 C3 H3 120.2
C5 C4 C3 121.14(14)
C5 C4 Cl1 119.54(12)
C3 C4 Cl1 119.32(12)
C4 C5 C6 119.90(14)
C4 C5 H5 120.0
C6 C5 H5 120.0
C5 C6 C1 119.13(13)
C5 C6 C7 118.66(13)
C1 C6 C7 122.20(13)
N1 C7 C6 122.55(13)
N1 C7 H7 118.7
C6 C7 H7 118.7
C12 C8 C9 117.39(14)
C12 C8 N1 117.53(13)
C9 C8 N1 125.07(13)
N2 C9 C8 123.52(15)
N2 C9 H9 118.2
C8 C9 H9 118.2
N2 C10 C11 124.46(15)
N2 C10 H10 117.8
C11 C10 H10 117.8
C10 C11 C12 116.73(14)
C10 C11 C13 121.24(15)
C12 C11 C13 122.03(15)
C8 C12 C11 120.45(14)
C8 C12 H12 119.8
C11 C12 H12 119.8
C11 C13 H13A 109.5
C11 C13 H13B 109.5
H13A C13 H13B 109.5
C11 C13 H13C 109.5
H13A C13 H13C 109.5
H13B C13 H13C 109.5
loop_
_geom_bond_atom_site_label_1
_geom_bond_atom_site_label_2
_geom_bond_distance
Cl1 C4 1.7482(16)
O1 C1 1.3487(18)
O1 H1 0.8200
N1 C7 1.2745(19)
N1 C8 1.4179(19)
N2 C10 1.330(2)
N2 C9 1.332(2)
C1 C2 1.387(2)
C1 C6 1.401(2)
C2 C3 1.376(2)
C2 H2 0.9300
C3 C4 1.380(2)
C3 H3 0.9300
C4 C5 1.370(2)
C5 C6 1.400(2)
C5 H5 0.9300
C6 C7 1.446(2)
C7 H7 0.9300
C8 C12 1.383(2)
C8 C9 1.386(2)
C9 H9 0.9300
C10 C11 1.380(2)
C10 H10 0.9300
C11 C12 1.387(2)
C11 C13 1.502(2)
C12 H12 0.9300
C13 H13A 0.9600
C13 H13B 0.9600
C13 H13C 0.9600
loop_
_geom_hbond_atom_site_label_D
_geom_hbond_atom_site_label_H
_geom_hbond_atom_site_label_A
_geom_hbond_distance_DH
_geom_hbond_distance_HA
_geom_hbond_distance_DA
_geom_hbond_angle_DHA
_geom_hbond_site_symmetry_A
_geom_hbond_publ_flag
O1 H1 N1 0.82 1.93 2.6480(17) 146.2 . yes
C5 H5 N2 0.93 2.64 3.498(2) 154.5 2_556 yes
loop_
_geom_torsion_atom_site_label_1
_geom_torsion_atom_site_label_2
_geom_torsion_atom_site_label_3
_geom_torsion_atom_site_label_4
_geom_torsion
O1 C1 C2 C3 -179.58(14)
C6 C1 C2 C3 0.3(2)
C1 C2 C3 C4 -0.2(3)
C2 C3 C4 C5 -0.2(3)
C2 C3 C4 Cl1 -179.72(12)
C3 C4 C5 C6 0.4(2)
Cl1 C4 C5 C6 179.91(11)
C4 C5 C6 C1 -0.2(2)
C4 C5 C6 C7 -179.40(14)
O1 C1 C6 C5 179.77(14)
C2 C1 C6 C5 -0.1(2)
O1 C1 C6 C7 -1.1(2)
C2 C1 C6 C7 179.04(14)
C8 N1 C7 C6 -179.14(13)
C5 C6 C7 N1 179.26(14)
C1 C6 C7 N1 0.1(2)
C7 N1 C8 C12 175.92(13)
C7 N1 C8 C9 -4.6(2)
C10 N2 C9 C8 1.7(3)
C12 C8 C9 N2 -2.5(3)
N1 C8 C9 N2 178.05(16)
C9 N2 C10 C11 0.6(3)
N2 C10 C11 C12 -2.0(3)
N2 C10 C11 C13 178.03(16)
C9 C8 C12 C11 0.9(2)
N1 C8 C12 C11 -179.54(13)
C10 C11 C12 C8 1.1(2)
C13 C11 C12 C8 -178.90(14)
