#------------------------------------------------------------------------------
#$Date: 2019-11-17 09:14:47 +0200 (Sun, 17 Nov 2019) $
#$Revision: 229045 $
#$URL: file:///home/coder/svn-repositories/cod/cif/7/23/05/7230524.cif $
#------------------------------------------------------------------------------
#
# This file is available in the Crystallography Open Database (COD),
# http://www.crystallography.net/
#
# All data on this site have been placed in the public domain by the
# contributors.
#
data_7230524
loop_
_publ_author_name
'Chakraborty, Shaunak'
'Desiraju, Gautam R.'
_publ_section_title
;
 Exploring the structural landscape with &#x2018;partial&#x2019;
 fluoro-substitution as a probe
;
_journal_issue                   20
_journal_name_full               CrystEngComm
_journal_page_first              2793
_journal_paper_doi               10.1039/C8CE00336J
_journal_volume                  20
_journal_year                    2018
_chemical_formula_moiety         'C9 H7 F O2'
_chemical_formula_sum            'C9 H7 F O2'
_chemical_formula_weight         166.24
_space_group_crystal_system      triclinic
_space_group_IT_number           2
_space_group_name_Hall           '-P 1'
_space_group_name_H-M_alt        'P -1'
_symmetry_space_group_name_Hall  '-P 1'
_symmetry_space_group_name_H-M   'P -1'
_atom_sites_solution_hydrogens   geom
_audit_creation_method           SHELXL-2018/3
_audit_update_record
;
2018-04-14 deposited with the CCDC.
2018-04-18 downloaded from the CCDC.
;
_cell_angle_alpha                84.74(4)
_cell_angle_beta                 84.44(4)
_cell_angle_gamma                86.65(5)
_cell_formula_units_Z            2
_cell_length_a                   3.807(8)
_cell_length_b                   6.296(13)
_cell_length_c                   15.98(3)
_cell_measurement_reflns_used    900
_cell_measurement_temperature    100(2)
_cell_measurement_theta_max      27.5
_cell_measurement_theta_min      3.3
_cell_volume                     379.1(13)
_computing_structure_refinement  'SHELXL-2018/3 (Sheldrick, 2018)'
_diffrn_ambient_temperature      100(2)
_diffrn_measured_fraction_theta_full 0.993
_diffrn_measured_fraction_theta_max 0.993
_diffrn_measurement_device_type  CCD'
_diffrn_radiation_type           MoK\a
_diffrn_radiation_wavelength     0.71073
_diffrn_reflns_av_R_equivalents  0.0813
_diffrn_reflns_av_unetI/netI     0.0824
_diffrn_reflns_Laue_measured_fraction_full 0.993
_diffrn_reflns_Laue_measured_fraction_max 0.993
_diffrn_reflns_limit_h_max       4
_diffrn_reflns_limit_h_min       -4
_diffrn_reflns_limit_k_max       8
_diffrn_reflns_limit_k_min       -8
_diffrn_reflns_limit_l_max       20
_diffrn_reflns_limit_l_min       -20
_diffrn_reflns_number            3976
_diffrn_reflns_point_group_measured_fraction_full 0.993
_diffrn_reflns_point_group_measured_fraction_max 0.993
_diffrn_reflns_theta_full        25.242
_diffrn_reflns_theta_max         27.430
_diffrn_reflns_theta_min         3.253
_exptl_absorpt_coefficient_mu    0.119
_exptl_crystal_colour            colourless
_exptl_crystal_density_diffrn    1.456
_exptl_crystal_description       plate
_exptl_crystal_F_000             172.1
_exptl_crystal_size_max          0.7
_exptl_crystal_size_mid          0.5
_exptl_crystal_size_min          0.3
_refine_diff_density_max         0.319
_refine_diff_density_min         -0.242
_refine_diff_density_rms         0.061
_refine_ls_extinction_method     none
_refine_ls_goodness_of_fit_ref   0.912
_refine_ls_hydrogen_treatment    constr
_refine_ls_matrix_type           full
_refine_ls_number_parameters     125
_refine_ls_number_reflns         1709
_refine_ls_number_restraints     2
_refine_ls_restrained_S_all      0.918
_refine_ls_R_factor_all          0.0862
_refine_ls_R_factor_gt           0.0611
_refine_ls_shift/su_max          0.000
_refine_ls_shift/su_mean         0.000
_refine_ls_structure_factor_coef Fsqd
_refine_ls_weighting_details
'w=1/[\s^2^(Fo^2^)+(0.1115P)^2^+0.0071P] where P=(Fo^2^+2Fc^2^)/3'
_refine_ls_weighting_scheme      calc
_refine_ls_wR_factor_gt          0.1579
_refine_ls_wR_factor_ref         0.1827
_reflns_Friedel_coverage         0.000
_reflns_number_gt                1192
_reflns_number_total             1709
_reflns_threshold_expression     'I > 2\s(I)'
_cod_data_source_file            c8ce00336j2.cif
_cod_data_source_block           11
_cod_depositor_comments
'Adding full bibliography for 7230514--7230540.cif.'
_cod_original_cell_volume        379.1(14)
_cod_database_code               7230524
_shelx_shelxl_version_number     2018/3
_shelx_space_group_comment
;
The symmetry employed for this shelxl refinement is uniquely defined
by the following loop, which should always be used as a source of
symmetry information in preference to the above space-group names.
They are only intended as comments.
;
_shelx_res_file
;
TITL datam in P-1
    shelx.res
    created by SHELXL-2018/3 at 17:05:05 on 07-Apr-2018
CELL  0.71073   3.8074   6.2961  15.9765   84.743   84.436   86.652
ZERR     9.00   0.0077   0.0132   0.0342    0.038    0.039    0.049
LATT   1
SFAC  C    H    O    F
UNIT  18 12 4 2
MERG   2
OMIT    -2.00  55.00
DFIX     1.300   0.020 C8 F2B
FLAT     0.100 C9 C7 C8 F2B
SUMP 1.0 0.01 2 1.0 3 1.0 4 1.0
EADP F2A F2B
EQIV $1 -x+1, -y+1, -z+2
HTAB C2 O2_$1
EQIV $2 -x+2, -y+2, -z+1
HTAB C7 F2A_$2
EQIV $3 -x, -y, -z+2
HTAB O2 O1_$3
OMIT     0   0   1
OMIT     0   0   2
FMAP   2
PLAN   20
ACTA
HTAB    2.00000
BOND
BOND   $H
CONF
L.S.  50
TEMP  -173.00
WGHT    0.111500    0.007100
FVAR       0.92510   0.57974   0.48830   0.92661
MOLE    1
C1    1    0.194211    0.235491    0.929514    11.00000    0.02548    0.02963 =
         0.02178   -0.00051   -0.00288   -0.00249
C2    1    0.343037    0.419766    0.877478    11.00000    0.02833    0.02575 =
         0.02843   -0.00192   -0.00355   -0.00335
AFIX  43
H2    2    0.437297    0.529979    0.904011    11.00000   -1.20000
AFIX   0
C3    1    0.347302    0.434031    0.793751    11.00000    0.02376    0.02661 =
         0.02528   -0.00192   -0.00335   -0.00070
AFIX  43
H3    2    0.245585    0.321948    0.769932    11.00000   -1.20000
AFIX   0
C4    1    0.493687    0.605890    0.734548    11.00000    0.02362    0.02480 =
         0.02567    0.00120   -0.00300    0.00031
C5    1    0.516346    0.585195    0.648175    11.00000    0.03643    0.03112 =
         0.02517   -0.00102   -0.00497   -0.00389
PART    1
AFIX  43
H5    2    0.438966    0.459777    0.628294    21.00000   -1.20000
AFIX   0
PART    2
F1    4    0.387932    0.413789    0.618672   -21.00000    0.06683    0.03212 =
         0.02336   -0.00426   -0.00816   -0.00910
PART    0
C6    1    0.649829    0.744723    0.591227    11.00000    0.04639    0.04211 =
         0.02405    0.00606   -0.00095   -0.00122
PART    1
AFIX  43
H6    2    0.662250    0.727562    0.532537    31.00000   -1.20000
AFIX   0
PART    2
F2A   4    0.689209    0.717858    0.510579   -31.00000    0.08491    0.04774 =
         0.02018    0.00305   -0.00622   -0.02260
PART    0
C7    1    0.765828    0.928839    0.617621    11.00000    0.03575    0.03323 =
         0.03932    0.01110    0.00139   -0.00225
AFIX  43
H7    2    0.857626    1.037852    0.577822    11.00000   -1.20000
AFIX   0
C8    1    0.745673    0.951270    0.703041    11.00000    0.03018    0.02780 =
         0.04269    0.00230   -0.00367   -0.00194
PART    1
AFIX  43
H8    2    0.825743    1.076988    0.722097    41.00000   -1.20000
AFIX   0
PART    2
F2B   4    0.860711    1.122988    0.709271   -41.00000    0.08491    0.04774 =
         0.02018    0.00305   -0.00622   -0.02260
PART    0
C9    1    0.610719    0.793676    0.761515    11.00000    0.02759    0.03043 =
         0.03033   -0.00158   -0.00425   -0.00076
AFIX  43
H9    2    0.597222    0.812607    0.820073    11.00000   -1.20000
AFIX   0
O1    3    0.056861    0.089784    0.897990    11.00000    0.04069    0.03318 =
         0.02663   -0.00201   -0.00678   -0.00939
O2    3    0.219179    0.236547    1.010413    11.00000    0.05076    0.03618 =
         0.02194    0.00239   -0.00421   -0.01440
AFIX 147
H2A   2    0.121645    0.130023    1.036136    11.00000   -1.50000
AFIX   0
HKLF    4




REM  datam in P-1
REM wR2 = 0.1827, GooF = S = 0.912, Restrained GooF = 0.918 for all data
REM R1 = 0.0611 for 1192 Fo > 4sig(Fo) and 0.0862 for all 1709 data
REM 125 parameters refined using 2 restraints

END

WGHT      0.0799      0.0000

REM Instructions for potential hydrogen bonds
HTAB C2 O2_$1
HTAB C7 F2A_$2
HTAB O2 O1_$3

REM Highest difference peak  0.319,  deepest hole -0.242,  1-sigma level  0.061
Q1    1   0.8956  1.1150  0.6810  11.00000  0.05    0.25
Q2    1  -0.0125  0.1957  0.9167  11.00000  0.05    0.24
Q3    1  -0.0590 -0.0671  0.8401  11.00000  0.05    0.24
Q4    1   0.7013  0.6706  0.7410  11.00000  0.05    0.23
Q5    1   0.2340  0.2489  0.7548  11.00000  0.05    0.22
Q6    1   0.8799  0.7879  0.6009  11.00000  0.05    0.20
Q7    1   0.4423  0.7153  0.7479  11.00000  0.05    0.19
Q8    1   0.5168  0.8741  0.6065  11.00000  0.05    0.18
Q9    1   0.6814  0.5887  0.9433  11.00000  0.05    0.18
Q10   1   0.1328  0.3864  1.0316  11.00000  0.05    0.17
Q11   1   0.8733  0.8850  0.8195  11.00000  0.05    0.17
Q12   1  -0.0094  0.4655  0.6027  11.00000  0.05    0.16
Q13   1   0.4449  0.3260  0.7801  11.00000  0.05    0.16
Q14   1   0.1632 -0.0658  0.9108  11.00000  0.05    0.16
Q15   1   0.2011  0.2523  0.6744  11.00000  0.05    0.16
Q16   1   0.0391  0.0636  0.8194  11.00000  0.05    0.16
Q17   1   0.6060  0.7952  0.8403  11.00000  0.05    0.15
Q18   1   0.4528  0.5960  0.9896  11.00000  0.05    0.15
Q19   1   0.8657  1.1029  0.7413  11.00000  0.05    0.15
Q20   1  -0.1559  0.0359  0.8985  11.00000  0.05    0.15
;
_shelx_res_checksum              2644
loop_
_space_group_symop_operation_xyz
'x, y, z'
'-x, -y, -z'
loop_
_atom_site_label
_atom_site_type_symbol
_atom_site_fract_x
_atom_site_fract_y
_atom_site_fract_z
_atom_site_U_iso_or_equiv
_atom_site_adp_type
_atom_site_occupancy
_atom_site_site_symmetry_order
_atom_site_calc_flag
_atom_site_refinement_flags_posn
_atom_site_refinement_flags_adp
_atom_site_refinement_flags_occupancy
_atom_site_disorder_assembly
_atom_site_disorder_group
C1 C 0.1942(5) 0.2355(3) 0.92951(12) 0.0256(5) Uani 1 1 d . . . . .
C2 C 0.3430(5) 0.4198(3) 0.87748(12) 0.0274(5) Uani 1 1 d . . . . .
H2 H 0.437297 0.529979 0.904011 0.033 Uiso 1 1 calc R U . . .
C3 C 0.3473(5) 0.4340(3) 0.79375(12) 0.0252(4) Uani 1 1 d . . . . .
H3 H 0.245585 0.321948 0.769932 0.030 Uiso 1 1 calc R U . . .
C4 C 0.4937(5) 0.6059(3) 0.73455(12) 0.0249(5) Uani 1 1 d . . . . .
C5 C 0.5163(5) 0.5852(3) 0.64817(12) 0.0308(5) Uani 1 1 d . . . . .
H5 H 0.438966 0.459777 0.628294 0.037 Uiso 0.580(5) 1 calc R U P A 1
F1 F 0.3879(8) 0.4138(4) 0.61867(17) 0.0401(12) Uani 0.420(5) 1 d . . P A 2
C6 C 0.6498(6) 0.7447(3) 0.59123(13) 0.0383(5) Uani 1 1 d . . . . .
H6 H 0.662250 0.727562 0.532537 0.046 Uiso 0.488(6) 1 calc R U P B 1
F2A F 0.6892(8) 0.7179(4) 0.51058(15) 0.0505(11) Uani 0.512(6) 1 d . . P B 2
C7 C 0.7658(6) 0.9288(3) 0.61762(15) 0.0373(5) Uani 1 1 d . . . . .
H7 H 0.857626 1.037852 0.577822 0.045 Uiso 1 1 calc R U . . .
C8 C 0.7457(5) 0.9513(3) 0.70304(14) 0.0338(5) Uani 1 1 d D . . . .
H8 H 0.825743 1.076988 0.722097 0.041 Uiso 0.927(3) 1 calc R U P C 1
F2B F 0.861(5) 1.123(2) 0.7093(10) 0.0505(11) Uani 0.073(3) 1 d D . P C 2
C9 C 0.6107(5) 0.7937(3) 0.76151(13) 0.0294(5) Uani 1 1 d . . . . .
H9 H 0.597222 0.812607 0.820073 0.035 Uiso 1 1 calc R U . . .
O1 O 0.0569(4) 0.0898(2) 0.89799(9) 0.0330(4) Uani 1 1 d . . . . .
O2 O 0.2192(4) 0.2365(2) 1.01041(9) 0.0361(4) Uani 1 1 d . . . . .
H2A H 0.121645 0.130023 1.036136 0.054 Uiso 1 1 calc R U . . .
loop_
_atom_site_aniso_label
_atom_site_aniso_U_11
_atom_site_aniso_U_22
_atom_site_aniso_U_33
_atom_site_aniso_U_23
_atom_site_aniso_U_13
_atom_site_aniso_U_12
C1 0.0255(9) 0.0296(10) 0.0218(10) -0.0005(7) -0.0029(7) -0.0025(8)
C2 0.0283(9) 0.0258(10) 0.0284(11) -0.0019(7) -0.0035(7) -0.0034(8)
C3 0.0238(9) 0.0266(9) 0.0253(10) -0.0019(7) -0.0034(7) -0.0007(7)
C4 0.0236(9) 0.0248(9) 0.0257(11) 0.0012(7) -0.0030(7) 0.0003(7)
C5 0.0364(11) 0.0311(10) 0.0252(11) -0.0010(8) -0.0050(8) -0.0039(8)
F1 0.067(2) 0.0321(17) 0.0234(18) -0.0043(11) -0.0082(13) -0.0091(14)
C6 0.0464(12) 0.0421(12) 0.0240(12) 0.0061(9) -0.0009(9) -0.0012(10)
F2A 0.085(2) 0.0477(17) 0.0202(15) 0.0031(10) -0.0062(12) -0.0226(14)
C7 0.0358(11) 0.0332(11) 0.0393(13) 0.0111(9) 0.0014(9) -0.0023(9)
C8 0.0302(10) 0.0278(10) 0.0427(13) 0.0023(8) -0.0037(8) -0.0019(8)
F2B 0.085(2) 0.0477(17) 0.0202(15) 0.0031(10) -0.0062(12) -0.0226(14)
C9 0.0276(9) 0.0304(10) 0.0303(11) -0.0016(8) -0.0043(7) -0.0008(8)
O1 0.0407(8) 0.0332(8) 0.0266(8) -0.0020(6) -0.0068(6) -0.0094(6)
O2 0.0508(9) 0.0362(8) 0.0219(8) 0.0024(6) -0.0042(6) -0.0144(7)
loop_
_atom_type_symbol
_atom_type_description
_atom_type_scat_dispersion_real
_atom_type_scat_dispersion_imag
_atom_type_scat_source
C C 0.0033 0.0016 'International Tables Vol C Tables 4.2.6.8 and 6.1.1.4'
H H 0.0000 0.0000 'International Tables Vol C Tables 4.2.6.8 and 6.1.1.4'
O O 0.0106 0.0060 'International Tables Vol C Tables 4.2.6.8 and 6.1.1.4'
F F 0.0171 0.0103 'International Tables Vol C Tables 4.2.6.8 and 6.1.1.4'
loop_
_geom_angle_atom_site_label_1
_geom_angle_atom_site_label_2
_geom_angle_atom_site_label_3
_geom_angle
O1 C1 O2 123.12(18)
O1 C1 C2 122.1(2)
O2 C1 C2 114.79(19)
C3 C2 C1 120.88(19)
C3 C2 H2 119.6
C1 C2 H2 119.6
C2 C3 C4 126.4(2)
C2 C3 H3 116.8
C4 C3 H3 116.8
C5 C4 C9 118.00(18)
C5 C4 C3 119.5(2)
C9 C4 C3 122.5(2)
F1 C5 C6 118.8(3)
F1 C5 C4 120.4(2)
C6 C5 C4 120.7(2)
C6 C5 H5 119.7
C4 C5 H5 119.7
F2A C6 C5 120.0(2)
F2A C6 C7 118.5(2)
C5 C6 C7 121.4(2)
C5 C6 H6 119.3
C7 C6 H6 119.3
C6 C7 C8 118.56(19)
C6 C7 H7 120.7
C8 C7 H7 120.7
F2B C8 C7 105.6(8)
F2B C8 C9 133.3(8)
C7 C8 C9 121.1(2)
C7 C8 H8 119.4
C9 C8 H8 119.4
C8 C9 C4 120.2(2)
C8 C9 H9 119.9
C4 C9 H9 119.9
C1 O2 H2A 109.5
loop_
_geom_bond_atom_site_label_1
_geom_bond_atom_site_label_2
_geom_bond_distance
C1 O1 1.249(3)
C1 O2 1.306(4)
C1 C2 1.472(3)
C2 C3 1.331(4)
C2 H2 0.9500
C3 C4 1.469(3)
C3 H3 0.9500
C4 C5 1.392(4)
C4 C9 1.405(3)
C5 F1 1.351(4)
C5 C6 1.377(3)
C5 H5 0.9500
C6 F2A 1.308(4)
C6 C7 1.379(4)
C6 H6 0.9500
C7 C8 1.379(4)
C7 H7 0.9500
C8 F2B 1.206(14)
C8 C9 1.385(3)
C8 H8 0.9500
C9 H9 0.9500
O2 H2A 0.8400
loop_
_geom_hbond_atom_site_label_D
_geom_hbond_atom_site_label_H
_geom_hbond_atom_site_label_A
_geom_hbond_distance_DH
_geom_hbond_distance_HA
_geom_hbond_distance_DA
_geom_hbond_angle_DHA
_geom_hbond_site_symmetry_A
_geom_hbond_publ_flag
C2 H2 O2 0.95 2.58 3.518(5) 167.6 2_667 yes
C7 H7 F2A^b 0.95 2.60 3.511(6) 160.1 2_776 yes
O2 H2A O1 0.84 1.79 2.621(4) 172.7 2_557 yes
loop_
_geom_torsion_atom_site_label_1
_geom_torsion_atom_site_label_2
_geom_torsion_atom_site_label_3
_geom_torsion_atom_site_label_4
_geom_torsion
O1 C1 C2 C3 -2.3(3)
O2 C1 C2 C3 177.32(16)
C1 C2 C3 C4 -178.63(16)
C2 C3 C4 C5 172.31(18)
C2 C3 C4 C9 -8.3(3)
C9 C4 C5 F1 -176.0(2)
C3 C4 C5 F1 3.5(3)
C9 C4 C5 C6 0.0(3)
C3 C4 C5 C6 179.46(17)
F1 C5 C6 F2A -8.0(4)
C4 C5 C6 F2A 175.9(2)
F1 C5 C6 C7 176.3(2)
C4 C5 C6 C7 0.2(3)
F2A C6 C7 C8 -175.8(2)
C5 C6 C7 C8 -0.1(3)
C6 C7 C8 F2B -179.9(11)
C6 C7 C8 C9 -0.3(3)
F2B C8 C9 C4 179.9(14)
C7 C8 C9 C4 0.5(3)
C5 C4 C9 C8 -0.4(3)
C3 C4 C9 C8 -179.80(17)
