#------------------------------------------------------------------------------
#$Date: 2019-11-17 09:14:47 +0200 (Sun, 17 Nov 2019) $
#$Revision: 229045 $
#$URL: file:///home/coder/svn-repositories/cod/cif/7/23/05/7230534.cif $
#------------------------------------------------------------------------------
#
# This file is available in the Crystallography Open Database (COD),
# http://www.crystallography.net/
#
# All data on this site have been placed in the public domain by the
# contributors.
#
data_7230534
loop_
_publ_author_name
'Chakraborty, Shaunak'
'Desiraju, Gautam R.'
_publ_section_title
;
 Exploring the structural landscape with &#x2018;partial&#x2019;
 fluoro-substitution as a probe
;
_journal_issue                   20
_journal_name_full               CrystEngComm
_journal_page_first              2793
_journal_paper_doi               10.1039/C8CE00336J
_journal_volume                  20
_journal_year                    2018
_chemical_formula_moiety         'C9 H6.76 F1.24 O2'
_chemical_formula_sum            'C9 H6.76 F1.24 O2'
_chemical_formula_weight         170.43
_space_group_crystal_system      monoclinic
_space_group_IT_number           14
_space_group_name_Hall           '-P 2ybc'
_space_group_name_H-M_alt        'P 1 21/c 1'
_symmetry_space_group_name_Hall  '-P 2ybc'
_symmetry_space_group_name_H-M   'P 1 21/c 1'
_atom_sites_solution_hydrogens   geom
_audit_creation_method           SHELXL-2014/7
_audit_update_record
;
2018-04-14 deposited with the CCDC.
2018-04-18 downloaded from the CCDC.
;
_cell_angle_alpha                90
_cell_angle_beta                 95.72(3)
_cell_angle_gamma                90
_cell_formula_units_Z            4
_cell_length_a                   3.7681(16)
_cell_length_b                   6.618(3)
_cell_length_c                   31.762(15)
_cell_measurement_reflns_used    1172
_cell_measurement_temperature    293(2)
_cell_measurement_theta_max      27.4
_cell_measurement_theta_min      1.9
_cell_volume                     788.1(6)
_computing_structure_refinement  'SHELXL-2014/7 (Sheldrick, 2014)'
_diffrn_ambient_temperature      293(2)
_diffrn_measured_fraction_theta_full 0.989
_diffrn_measured_fraction_theta_max 0.988
_diffrn_measurement_device_type  CCD
_diffrn_radiation_type           MoK\a
_diffrn_radiation_wavelength     0.71073
_diffrn_reflns_av_R_equivalents  0.1273
_diffrn_reflns_av_unetI/netI     0.0992
_diffrn_reflns_Laue_measured_fraction_full 0.989
_diffrn_reflns_Laue_measured_fraction_max 0.988
_diffrn_reflns_limit_h_max       4
_diffrn_reflns_limit_h_min       -4
_diffrn_reflns_limit_k_max       8
_diffrn_reflns_limit_k_min       -8
_diffrn_reflns_limit_l_max       40
_diffrn_reflns_limit_l_min       -40
_diffrn_reflns_number            6173
_diffrn_reflns_point_group_measured_fraction_full 0.989
_diffrn_reflns_point_group_measured_fraction_max 0.988
_diffrn_reflns_theta_full        25.242
_diffrn_reflns_theta_max         27.447
_diffrn_reflns_theta_min         3.145
_exptl_absorpt_coefficient_mu    0.120
_exptl_crystal_colour            colourless
_exptl_crystal_density_diffrn    1.436
_exptl_crystal_description       needle
_exptl_crystal_F_000             351.6
_exptl_crystal_size_max          0.8
_exptl_crystal_size_mid          0.4
_exptl_crystal_size_min          0.4
_refine_diff_density_max         0.361
_refine_diff_density_min         -0.432
_refine_diff_density_rms         0.073
_refine_ls_extinction_method     none
_refine_ls_goodness_of_fit_ref   1.131
_refine_ls_hydrogen_treatment    constr
_refine_ls_matrix_type           full
_refine_ls_number_parameters     124
_refine_ls_number_reflns         1767
_refine_ls_number_restraints     0
_refine_ls_restrained_S_all      1.131
_refine_ls_R_factor_all          0.1249
_refine_ls_R_factor_gt           0.0932
_refine_ls_shift/su_max          0.000
_refine_ls_shift/su_mean         0.000
_refine_ls_structure_factor_coef Fsqd
_refine_ls_weighting_details
'w=1/[\s^2^(Fo^2^)+(0.0711P)^2^+0.6192P] where P=(Fo^2^+2Fc^2^)/3'
_refine_ls_weighting_scheme      calc
_refine_ls_wR_factor_gt          0.2133
_refine_ls_wR_factor_ref         0.2395
_reflns_Friedel_coverage         0.000
_reflns_number_gt                1264
_reflns_number_total             1767
_reflns_threshold_expression     'I > 2\s(I)'
_cod_data_source_file            c8ce00336j2.cif
_cod_data_source_block           21
_cod_depositor_comments
'Adding full bibliography for 7230514--7230540.cif.'
_cod_database_code               7230534
_shelx_shelxl_version_number     2014/7
_shelx_space_group_comment
;
The symmetry employed for this shelxl refinement is uniquely defined
by the following loop, which should always be used as a source of
symmetry information in preference to the above space-group names.
They are only intended as comments.
;
_shelx_res_file
;

    shelx.res created by SHELXL-2014/7


TITL datam in P-1                New: P21/c
CELL  0.71073   3.7681   6.6180  31.7620   90.000   95.720   90.000
ZERR     4.00   0.0016   0.0030   0.0150    0.000    0.030    0.000
LATT   1
SYMM  - X, 1/2 + Y, 1/2 - Z
SFAC  C    H    O    F
UNIT  36 0 8 8
MERG   2
OMIT    -2.00  55.00
OMIT     0   0   2
OMIT     0   0   4
EADP  F1B F1B
EQIV $1 -x+2, -y+1, -z+1
HTAB C2 O2_$1
EQIV $2 -x+1, -y+2, -z+1
HTAB O2 O1_$2
HTAB C2 O2_$1
HTAB O2 O1_$2
EADP F1B F1A
OMIT    -3   0  30
FMAP   2
PLAN   20
ACTA
BOND
BOND   $H
CONF
L.S.  50
WGHT    0.071100    0.619200
FVAR       0.35915   0.94004   0.82157
MOLE    1
C1    1    0.619184    0.774980    0.465171    11.00000    0.02614    0.03332 =
         0.03173    0.00669    0.00412    0.00325
C2    1    0.712375    0.600396    0.439802    11.00000    0.02619    0.02735 =
         0.03528    0.00450    0.00226    0.00371
AFIX  43
H2    2    0.840244    0.493951    0.453044    11.00000   -1.20000
AFIX   0
C3    1    0.617283    0.591189    0.398055    11.00000    0.02318    0.02734 =
         0.03553    0.00511    0.00214    0.00073
AFIX  43
H3    2    0.487815    0.699924    0.386015    11.00000   -1.20000
AFIX   0
C4    1    0.696633    0.427109    0.369442    11.00000    0.02123    0.03466 =
         0.03168    0.00053    0.00242   -0.00167
C5    1    0.854319    0.245048    0.383953    11.00000    0.02794    0.03087 =
         0.04749   -0.00143   -0.00064    0.00258
AFIX  43
H5    2    0.913238    0.226735    0.412835    11.00000   -1.20000
AFIX   0
C6    1    0.924542    0.091642    0.356283    11.00000    0.02761    0.03719 =
         0.07104   -0.01194    0.00362   -0.00093
PART    1
AFIX  43
H6    2    1.027557   -0.029271    0.366146    31.00000   -1.20000
AFIX   0
PART    2
F1A   4    1.051819   -0.071752    0.354307   -31.00000    0.05121    0.02462 =
         0.04423    0.00192   -0.00752    0.01333
PART    0
C7    1    0.836727    0.124129    0.313673    11.00000    0.03263    0.05473 =
         0.07460   -0.03517    0.01314   -0.00639
C8    1    0.680484    0.298714    0.297429    11.00000    0.03650    0.07558 =
         0.03676   -0.01576    0.00468   -0.00771
PART    1
AFIX  43
H8    2    0.623543    0.314537    0.268449    21.00000   -1.20000
AFIX   0
PART    2
F1B   4    0.617999    0.264136    0.261468   -21.00000    0.05121    0.02462 =
         0.04423    0.00192   -0.00752    0.01333
PART    0
C9    1    0.609800    0.451349    0.325612    11.00000    0.03030    0.04573 =
         0.03821    0.00218    0.00116   -0.00088
AFIX  43
H9    2    0.503871    0.570798    0.315331    11.00000   -1.20000
AFIX   0
O1    3    0.436861    0.920930    0.449205    11.00000    0.03696    0.03837 =
         0.03384    0.00326    0.00214    0.00947
O2    3    0.736975    0.768797    0.505290    11.00000    0.04740    0.03904 =
         0.02932    0.00167   -0.00046    0.01346
AFIX 147
H2A   2    0.667078    0.868837    0.517267    11.00000   -1.50000
AFIX   0
F2    4    0.908093   -0.029903    0.286199    11.00000    0.06031    0.07873 =
         0.08869   -0.05089    0.01497   -0.00197
HKLF    4  1.0 -1.00  0.00  0.00  0.00  1.00  0.00  1.00  0.00 -1.00

REM  datam in P-1                New: P21/c
REM R1 =  0.0932 for    1264 Fo > 4sig(Fo)  and  0.1249 for all    1767 data
REM    124 parameters refined using      0 restraints

END

WGHT      0.0662      0.6198

REM Highest difference peak  0.361,  deepest hole -0.432,  1-sigma level  0.073
Q1    1   0.8777  0.0732  0.2659  11.00000  0.05    0.36
Q2    1   0.2826  0.8846  0.4537  11.00000  0.05    0.28
Q3    1   0.8368  1.0543  0.4615  11.00000  0.05    0.24
Q4    1   1.2492  0.1578  0.3491  11.00000  0.05    0.23
Q5    1   0.9704  0.8366  0.4794  11.00000  0.05    0.23
Q6    1   1.1356  0.5542  0.4598  11.00000  0.05    0.21
Q7    1   0.0670  0.7856  0.4216  11.00000  0.05    0.21
Q8    1   1.1908  0.2360  0.3193  11.00000  0.05    0.20
Q9    1   0.3351  0.6373  0.4886  11.00000  0.05    0.20
Q10   1   1.2778  0.0175  0.3194  11.00000  0.05    0.20
Q11   1   0.9095  1.0470  0.5037  11.00000  0.05    0.19
Q12   1   0.8994  0.6169  0.4126  11.00000  0.05    0.19
Q13   1   0.1423  0.2352  0.2699  11.00000  0.05    0.18
Q14   1   0.9116  0.7349  0.4904  11.00000  0.05    0.18
Q15   1   1.0371  0.5944  0.3488  11.00000  0.05    0.18
Q16   1   0.1732  0.7148  0.3938  11.00000  0.05    0.18
Q17   1   1.0396  0.5550  0.3826  11.00000  0.05    0.17
Q18   1   0.3174  0.5270  0.3480  11.00000  0.05    0.17
Q19   1   0.1230  0.4075  0.3129  11.00000  0.05    0.17
Q20   1   0.3296  0.2949  0.3325  11.00000  0.05    0.17
;
_shelx_res_checksum              75578
loop_
_space_group_symop_operation_xyz
'x, y, z'
'-x, y+1/2, -z+1/2'
'-x, -y, -z'
'x, -y-1/2, z-1/2'
loop_
_atom_site_label
_atom_site_type_symbol
_atom_site_fract_x
_atom_site_fract_y
_atom_site_fract_z
_atom_site_U_iso_or_equiv
_atom_site_adp_type
_atom_site_occupancy
_atom_site_site_symmetry_order
_atom_site_calc_flag
_atom_site_refinement_flags_posn
_atom_site_refinement_flags_adp
_atom_site_refinement_flags_occupancy
_atom_site_disorder_assembly
_atom_site_disorder_group
C1 C 0.6192(8) 0.7750(5) 0.46517(10) 0.0303(7) Uani 1 1 d . . . . .
C2 C 0.7124(8) 0.6004(5) 0.43980(10) 0.0297(7) Uani 1 1 d . . . . .
H2 H 0.8402 0.4940 0.4530 0.036 Uiso 1 1 calc R U . . .
C3 C 0.6173(8) 0.5912(5) 0.39806(10) 0.0287(7) Uani 1 1 d . . . . .
H3 H 0.4878 0.6999 0.3860 0.034 Uiso 1 1 calc R U . . .
C4 C 0.6966(7) 0.4271(5) 0.36944(10) 0.0292(7) Uani 1 1 d . . . . .
C5 C 0.8543(8) 0.2450(5) 0.38395(11) 0.0357(8) Uani 1 1 d . . . . .
H5 H 0.9132 0.2267 0.4128 0.043 Uiso 1 1 calc R U . . .
C6 C 0.9245(9) 0.0916(6) 0.35628(14) 0.0454(10) Uani 1 1 d . . . . .
H6 H 1.0276 -0.0293 0.3661 0.054 Uiso 0.822(7) 1 calc R U P A 1
F1A F 1.052(3) -0.0718(16) 0.3543(4) 0.041(4) Uani 0.178(7) 1 d . . P A 2
C7 C 0.8367(9) 0.1241(7) 0.31367(15) 0.0535(12) Uani 1 1 d . . . . .
C8 C 0.6805(9) 0.2987(7) 0.29743(12) 0.0495(11) Uani 1 1 d . . . . .
H8 H 0.6235 0.3145 0.2684 0.059 Uiso 0.940(5) 1 calc R U P B 1
F1B F 0.618(9) 0.264(5) 0.2615(10) 0.041(4) Uani 0.060(5) 1 d . . P B 2
C9 C 0.6098(9) 0.4513(6) 0.32561(11) 0.0382(9) Uani 1 1 d . . . . .
H9 H 0.5039 0.5708 0.3153 0.046 Uiso 1 1 calc R U . . .
O1 O 0.4369(6) 0.9209(4) 0.44921(7) 0.0365(6) Uani 1 1 d . . . . .
O2 O 0.7370(6) 0.7688(4) 0.50529(7) 0.0389(7) Uani 1 1 d . . . . .
H2A H 0.6671 0.8688 0.5173 0.058 Uiso 1 1 calc R U . . .
F2 F 0.9081(6) -0.0299(5) 0.28620(9) 0.0754(10) Uani 1 1 d . . . . .
loop_
_atom_site_aniso_label
_atom_site_aniso_U_11
_atom_site_aniso_U_22
_atom_site_aniso_U_33
_atom_site_aniso_U_23
_atom_site_aniso_U_13
_atom_site_aniso_U_12
C1 0.0261(15) 0.0333(18) 0.0317(16) 0.0067(13) 0.0041(12) 0.0032(14)
C2 0.0262(15) 0.0273(18) 0.0353(17) 0.0045(13) 0.0023(12) 0.0037(13)
C3 0.0232(14) 0.0273(17) 0.0355(16) 0.0051(13) 0.0021(12) 0.0007(13)
C4 0.0212(14) 0.0347(18) 0.0317(16) 0.0005(13) 0.0024(12) -0.0017(13)
C5 0.0279(16) 0.0309(18) 0.0475(19) -0.0014(15) -0.0006(14) 0.0026(14)
C6 0.0276(17) 0.037(2) 0.071(3) -0.0119(19) 0.0036(17) -0.0009(16)
F1A 0.051(7) 0.025(6) 0.044(7) 0.002(4) -0.008(5) 0.013(5)
C7 0.0326(18) 0.055(3) 0.075(3) -0.035(2) 0.0131(19) -0.0064(18)
C8 0.0365(19) 0.076(3) 0.0368(19) -0.0158(18) 0.0047(15) -0.0077(19)
F1B 0.051(7) 0.025(6) 0.044(7) 0.002(4) -0.008(5) 0.013(5)
C9 0.0303(16) 0.046(2) 0.0382(19) 0.0022(15) 0.0012(14) -0.0009(15)
O1 0.0370(12) 0.0384(14) 0.0338(13) 0.0033(10) 0.0021(10) 0.0095(11)
O2 0.0474(14) 0.0390(15) 0.0293(12) 0.0017(10) -0.0005(10) 0.0135(12)
F2 0.0603(15) 0.079(2) 0.089(2) -0.0509(16) 0.0150(14) -0.0020(13)
loop_
_atom_type_symbol
_atom_type_description
_atom_type_scat_dispersion_real
_atom_type_scat_dispersion_imag
_atom_type_scat_source
C C 0.0033 0.0016 'International Tables Vol C Tables 4.2.6.8 and 6.1.1.4'
H H 0.0000 0.0000 'International Tables Vol C Tables 4.2.6.8 and 6.1.1.4'
O O 0.0106 0.0060 'International Tables Vol C Tables 4.2.6.8 and 6.1.1.4'
F F 0.0171 0.0103 'International Tables Vol C Tables 4.2.6.8 and 6.1.1.4'
loop_
_geom_angle_atom_site_label_1
_geom_angle_atom_site_label_2
_geom_angle_atom_site_label_3
_geom_angle
O1 C1 O2 122.3(3)
O1 C1 C2 122.1(3)
O2 C1 C2 115.6(3)
C3 C2 C1 121.5(3)
C3 C2 H2 119.2
C1 C2 H2 119.2
C2 C3 C4 126.6(3)
C2 C3 H3 116.7
C4 C3 H3 116.7
C5 C4 C9 118.2(3)
C5 C4 C3 122.6(3)
C9 C4 C3 119.2(3)
C6 C5 C4 121.5(3)
C6 C5 H5 119.2
C4 C5 H5 119.2
F1A C6 C7 98.6(6)
F1A C6 C5 143.6(7)
C7 C6 C5 117.8(4)
C7 C6 H6 121.1
C5 C6 H6 121.1
C8 C7 C6 123.5(4)
C8 C7 F2 119.0(4)
C6 C7 F2 117.5(4)
F1B C8 C7 103.9(15)
F1B C8 C9 137.7(15)
C7 C8 C9 118.1(4)
C7 C8 H8 121.0
C9 C8 H8 121.0
C8 C9 C4 120.8(4)
C8 C9 H9 119.6
C4 C9 H9 119.6
C1 O2 H2A 109.5
loop_
_geom_bond_atom_site_label_1
_geom_bond_atom_site_label_2
_geom_bond_distance
C1 O1 1.262(4)
C1 O2 1.308(4)
C1 C2 1.471(5)
C2 C3 1.340(4)
C2 H2 0.9300
C3 C4 1.466(4)
C3 H3 0.9300
C4 C5 1.401(4)
C4 C9 1.407(4)
C5 C6 1.385(5)
C5 H5 0.9300
C6 F1A 1.187(11)
C6 C7 1.378(6)
C6 H6 0.9300
C7 C8 1.374(6)
C7 F2 1.386(4)
C8 F1B 1.17(3)
C8 C9 1.393(5)
C8 H8 0.9300
C9 H9 0.9300
O2 H2A 0.8200
loop_
_geom_hbond_atom_site_label_D
_geom_hbond_atom_site_label_H
_geom_hbond_atom_site_label_A
_geom_hbond_distance_DH
_geom_hbond_distance_HA
_geom_hbond_distance_DA
_geom_hbond_angle_DHA
_geom_hbond_site_symmetry_A
C2 H2 O2 0.93 2.63 3.549(4) 172.2 3_766
O2 H2A O1 0.82 1.82 2.631(3) 170.9 3_676
C2 H2 O2 0.93 2.63 3.549(4) 172.2 3_766
O2 H2A O1 0.82 1.82 2.631(3) 170.9 3_676
loop_
_geom_torsion_atom_site_label_1
_geom_torsion_atom_site_label_2
_geom_torsion_atom_site_label_3
_geom_torsion_atom_site_label_4
_geom_torsion
O1 C1 C2 C3 2.2(5)
O2 C1 C2 C3 -177.9(3)
C1 C2 C3 C4 179.4(3)
C2 C3 C4 C5 7.2(5)
C2 C3 C4 C9 -173.2(3)
C9 C4 C5 C6 0.0(5)
C3 C4 C5 C6 179.6(3)
C4 C5 C6 F1A 177.4(11)
C4 C5 C6 C7 0.5(5)
F1A C6 C7 C8 -178.9(7)
C5 C6 C7 C8 -0.8(6)
F1A C6 C7 F2 1.8(7)
C5 C6 C7 F2 179.9(3)
C6 C7 C8 F1B -173.8(18)
F2 C7 C8 F1B 5.5(18)
C6 C7 C8 C9 0.5(6)
F2 C7 C8 C9 179.8(3)
F1B C8 C9 C4 172(3)
C7 C8 C9 C4 0.1(5)
C5 C4 C9 C8 -0.3(5)
C3 C4 C9 C8 -179.9(3)
