#------------------------------------------------------------------------------
#$Date: 2019-11-17 08:42:31 +0200 (Sun, 17 Nov 2019) $
#$Revision: 228912 $
#$URL: file:///home/coder/svn-repositories/cod/cif/7/23/08/7230846.cif $
#------------------------------------------------------------------------------
#
# This file is available in the Crystallography Open Database (COD),
# http://www.crystallography.net/
#
# All data on this site have been placed in the public domain by the
# contributors.
#
data_7230846
loop_
_publ_author_name
'Ate\,s, \"Ozge Dilara'
'Zorlu, Yunus'
'Kanmazalp, Sibel Demir'
'Chumakov, Yurii'
'G\"urek, Ay\,se G\"ul'
'Ayhan, Mehmet Menaf'
_publ_section_title
;
 Halogen bonding driven crystal engineering of iodophthalonitrile
 derivatives
;
_journal_issue                   27
_journal_name_full               CrystEngComm
_journal_page_first              3858
_journal_paper_doi               10.1039/C8CE00594J
_journal_volume                  20
_journal_year                    2018
_chemical_formula_moiety         'C8 H3 I N2'
_chemical_formula_sum            'C8 H3 I N2'
_chemical_formula_weight         254.02
_chemical_name_common            phthalonitrile
_space_group_crystal_system      monoclinic
_space_group_IT_number           14
_space_group_name_Hall           '-P 2ybc'
_space_group_name_H-M_alt        'P 1 21/c 1'
_symmetry_space_group_name_Hall  '-P 2ybc'
_symmetry_space_group_name_H-M   'P 1 21/c 1'
_atom_sites_solution_hydrogens   geom
_audit_update_record
;
2017-11-30 deposited with the CCDC.
2018-06-07 downloaded from the CCDC.
;
_cell_angle_alpha                90
_cell_angle_beta                 116.649(4)
_cell_angle_gamma                90
_cell_formula_units_Z            4
_cell_length_a                   7.9954(6)
_cell_length_b                   15.2187(11)
_cell_length_c                   7.5106(5)
_cell_measurement_reflns_used    73
_cell_measurement_temperature    296.(2)
_cell_measurement_theta_max      22.0347
_cell_measurement_theta_min      3.3598
_cell_volume                     816.81(10)
_computing_cell_refinement       'APEX2 v2014.11-0 (Bruker AXS)'
_computing_data_collection
'Bruker Instrument Service v2013.12.0.0 (Bruker AXS)'
_computing_data_reduction        'SAINT V8.34A (Bruker AXS)'
_computing_molecular_graphics    'MERCURY (Macrae et al., 2006)'
_computing_publication_material
'PLATON V1.16 (Spek, 2009), SHELXTL V6.14 (Bruker AXS)'
_computing_structure_refinement  'SHELXTL V6.14 (Bruker AXS)'
_computing_structure_solution    'SHELXTL V6.14 (Bruker AXS)'
_diffrn_ambient_temperature      296.(2)
_diffrn_detector_area_resol_mean 8.3333
_diffrn_measured_fraction_theta_full 0.998
_diffrn_measured_fraction_theta_max 0.998
_diffrn_measurement_device_type
'Bruker APEX II QUAZAR three-circle diffractometer'
_diffrn_measurement_method       '\f and \w scans'
_diffrn_radiation_monochromator  'multilayer QUAZAR mirrors'
_diffrn_radiation_type           MoK\a
_diffrn_radiation_wavelength     0.71073
_diffrn_reflns_av_R_equivalents  0.0686
_diffrn_reflns_av_unetI/netI     0.0647
_diffrn_reflns_limit_h_max       9
_diffrn_reflns_limit_h_min       -9
_diffrn_reflns_limit_k_max       18
_diffrn_reflns_limit_k_min       -18
_diffrn_reflns_limit_l_max       8
_diffrn_reflns_limit_l_min       -8
_diffrn_reflns_number            5968
_diffrn_reflns_theta_full        25.00
_diffrn_reflns_theta_max         25.00
_diffrn_reflns_theta_min         3.15
_diffrn_source                   'microfocus sealed tube'
_diffrn_source_type              ImuS
_exptl_absorpt_coefficient_mu    3.851
_exptl_absorpt_correction_T_max  0.77
_exptl_absorpt_correction_T_min  0.22
_exptl_absorpt_correction_type   multi-scan
_exptl_absorpt_process_details   'SADABS V2014/5 (Bruker AXS)'
_exptl_crystal_colour            colourless
_exptl_crystal_density_diffrn    2.066
_exptl_crystal_density_method    'not measured'
_exptl_crystal_description       plate
_exptl_crystal_F_000             472
_exptl_crystal_size_max          0.332
_exptl_crystal_size_mid          0.201
_exptl_crystal_size_min          0.070
_refine_diff_density_max         1.030
_refine_diff_density_min         -0.941
_refine_ls_extinction_method     none
_refine_ls_goodness_of_fit_ref   1.054
_refine_ls_hydrogen_treatment    constr
_refine_ls_matrix_type           full
_refine_ls_number_parameters     100
_refine_ls_number_reflns         1438
_refine_ls_number_restraints     0
_refine_ls_restrained_S_all      1.054
_refine_ls_R_factor_all          0.0486
_refine_ls_R_factor_gt           0.0403
_refine_ls_shift/su_max          0.001
_refine_ls_shift/su_mean         0.000
_refine_ls_structure_factor_coef Fsqd
_refine_ls_weighting_details
'w=1/[\s^2^(Fo^2^)+(0.0444P)^2^+0.4192P] where P=(Fo^2^+2Fc^2^)/3'
_refine_ls_weighting_scheme      calc
_refine_ls_wR_factor_gt          0.1021
_refine_ls_wR_factor_ref         0.1067
_reflns_number_gt                1213
_reflns_number_total             1438
_reflns_threshold_expression     'I > 2\s(I)'
_cod_data_source_file            c8ce00594j2.cif
_cod_data_source_block           I_CCDC2
_cod_depositor_comments
'Adding full bibliography for 7230844--7230847.cif.'
_cod_database_code               7230846
_shelx_res_file
;
16gtu238_mma109ba_a.res created by SHELXL-2014/7


TITL 16gtu238_mma109ba_a.res in P2(1)/c
CELL  0.71073   7.9954  15.2187   7.5106   90.000  116.649   90.000
ZERR    4.000   0.0006   0.0011   0.0005    0.000    0.004    0.000
LATT 1
SYMM -X, 1/2+Y, 1/2-Z
SFAC C  H  I  N
UNIT 32  12  4  8
L.S. 30
HTAB
EQIV $1 x-1, y, z
HTAB C4 N1_$1
CONF
ACTA
OMIT 0 50
SHEL 7 0.84
BOND $H
FMAP 2
PLAN 20
SIZE 0.070 0.201 0.332
TEMP 23.000
WGHT    0.044400    0.419200
FVAR       0.35708
C1    1    0.545249    0.310975    0.484574    11.00000    0.03764    0.04040 =
         0.04451    0.00291    0.01829    0.00798
C2    1    0.378924    0.268121    0.467691    11.00000    0.03289    0.04593 =
         0.04202   -0.00065    0.01927    0.00089
C3    1    0.223503    0.314468    0.447829    11.00000    0.03309    0.04991 =
         0.04123    0.00143    0.01829    0.00650
C4    1    0.065800    0.269155    0.432253    11.00000    0.03918    0.07196 =
         0.05314    0.00077    0.02588    0.00362
AFIX  43
H4    2   -0.038806    0.300118    0.420911    11.00000   -1.20000
AFIX   0
C5    1    0.064743    0.178965    0.433639    11.00000    0.03963    0.06861 =
         0.05403   -0.00563    0.02243   -0.01247
AFIX  43
H5    2   -0.041767    0.149558    0.421667    11.00000   -1.20000
AFIX   0
C6    1    0.217121    0.131313    0.452269    11.00000    0.04864    0.05092 =
         0.05420   -0.00207    0.02795   -0.00157
AFIX  43
H6    2    0.214274    0.070237    0.453903    11.00000   -1.20000
AFIX   0
C7    1    0.374896    0.174766    0.468591    11.00000    0.03888    0.04506 =
         0.04843   -0.00068    0.02344    0.00391
C8    1    0.538574    0.127704    0.489657    11.00000    0.05064    0.04688 =
         0.06095    0.00203    0.02813    0.00302
I1    3    0.226209    0.451476    0.448607    11.00000    0.05518    0.05049 =
         0.07049    0.00061    0.03217    0.01399
N1    4    0.678200    0.342994    0.495614    11.00000    0.04260    0.05826 =
         0.08631    0.00376    0.03469   -0.00123
N2    4    0.671339    0.093269    0.502832    11.00000    0.05952    0.05418 =
         0.11500    0.00023    0.04518    0.01510
HKLF 4

REM  16gtu238_mma109ba_a.res in P2(1)/c
REM R1 =  0.0403 for    1213 Fo > 4sig(Fo)  and  0.0486 for all    1438 data
REM    100 parameters refined using      0 restraints

END

WGHT      0.0444      0.4192

REM Instructions for potential hydrogen bonds
HTAB C4 N1_$1

REM Highest difference peak  1.030,  deepest hole -0.941,  1-sigma level  0.123
Q1    1   0.3163  0.4483  0.5759  11.00000  0.05    1.03
Q2    1   0.1295  0.4493  0.2838  11.00000  0.05    1.01
Q3    1   0.2368  0.5099  0.4593  11.00000  0.05    0.78
Q4    1   0.2108  0.3840  0.4272  11.00000  0.05    0.72
Q5    1   0.1402  0.5030  0.3392  11.00000  0.05    0.43
Q6    1   0.3753  0.2205  0.4482  11.00000  0.05    0.35
Q7    1   0.3132  0.1553  0.4860  11.00000  0.05    0.29
Q8    1   0.1168  0.2159  0.5163  11.00000  0.05    0.29
Q9    1   0.4392  0.2930  0.5624  11.00000  0.05    0.29
Q10   1   0.3613  0.1538  0.3373  11.00000  0.05    0.29
Q11   1   0.5615  0.0831  0.5019  11.00000  0.05    0.29
Q12   1   0.2300  0.0496  0.3648  11.00000  0.05    0.28
Q13   1   0.2804  0.0945  0.4624  11.00000  0.05    0.27
Q14   1   0.6546  0.0502  0.4843  11.00000  0.05    0.26
Q15   1   0.6137  0.1437  0.5240  11.00000  0.05    0.26
Q16   1   0.4822  0.1662  0.4059  11.00000  0.05    0.25
Q17   1   0.4238  0.4906  0.7181  11.00000  0.05    0.25
Q18   1   0.3596  0.0691  0.2741  11.00000  0.05    0.24
Q19   1   0.3035  0.0488  0.6910  11.00000  0.05    0.24
Q20   1   0.4096  0.0518  0.4775  11.00000  0.05    0.24
;
_shelx_res_checksum              76462
loop_
_space_group_symop_operation_xyz
'x, y, z'
'-x, y+1/2, -z+1/2'
'-x, -y, -z'
'x, -y-1/2, z-1/2'
loop_
_atom_site_type_symbol
_atom_site_label
_atom_site_fract_x
_atom_site_fract_y
_atom_site_fract_z
_atom_site_U_iso_or_equiv
_atom_site_adp_type
_atom_site_calc_flag
_atom_site_refinement_flags_adp
_atom_site_refinement_flags_posn
_atom_site_occupancy
C C1 0.5452(7) 0.3110(3) 0.4846(9) 0.0409(12) Uani d . . 1
C C2 0.3789(7) 0.2681(3) 0.4677(8) 0.0394(12) Uani d . . 1
C C3 0.2235(7) 0.3145(4) 0.4478(8) 0.0408(12) Uani d . . 1
C C4 0.0658(8) 0.2692(4) 0.4323(9) 0.0528(14) Uani d . . 1
H H4 -0.0388 0.3001 0.4209 0.063 Uiso calc U R 1
C C5 0.0647(8) 0.1790(4) 0.4336(9) 0.0536(15) Uani d . . 1
H H5 -0.0418 0.1496 0.4217 0.064 Uiso calc U R 1
C C6 0.2171(8) 0.1313(4) 0.4523(9) 0.0494(14) Uani d . . 1
H H6 0.2143 0.0702 0.4539 0.059 Uiso calc U R 1
C C7 0.3749(8) 0.1748(3) 0.4686(9) 0.0427(12) Uani d . . 1
C C8 0.5386(9) 0.1277(4) 0.4897(10) 0.0517(14) Uani d . . 1
I I1 0.22621(6) 0.45148(2) 0.44861(7) 0.0572(2) Uani d . . 1
N N1 0.6782(8) 0.3430(3) 0.4956(10) 0.0602(14) Uani d . . 1
N N2 0.6713(8) 0.0933(3) 0.5028(11) 0.0740(17) Uani d . . 1
loop_
_atom_site_aniso_label
_atom_site_aniso_U_11
_atom_site_aniso_U_22
_atom_site_aniso_U_33
_atom_site_aniso_U_12
_atom_site_aniso_U_13
_atom_site_aniso_U_23
C1 0.038(3) 0.040(3) 0.045(3) 0.008(2) 0.018(3) 0.003(2)
C2 0.033(3) 0.046(3) 0.042(3) 0.001(2) 0.019(2) -0.001(2)
C3 0.033(3) 0.050(3) 0.041(3) 0.007(2) 0.018(3) 0.001(2)
C4 0.039(3) 0.072(4) 0.053(4) 0.004(3) 0.026(3) 0.001(3)
C5 0.040(3) 0.069(4) 0.054(4) -0.012(3) 0.022(3) -0.006(3)
C6 0.049(3) 0.051(3) 0.054(3) -0.002(3) 0.028(3) -0.002(3)
C7 0.039(3) 0.045(3) 0.048(3) 0.004(2) 0.023(3) -0.001(2)
C8 0.051(4) 0.047(3) 0.061(4) 0.003(3) 0.028(3) 0.002(3)
I1 0.0552(3) 0.0505(3) 0.0705(4) 0.01399(16) 0.0322(3) 0.00061(18)
N1 0.043(3) 0.058(3) 0.086(4) -0.001(3) 0.035(3) 0.004(3)
N2 0.060(4) 0.054(3) 0.115(5) 0.015(3) 0.045(4) 0.000(3)
loop_
_atom_type_symbol
_atom_type_description
_atom_type_scat_dispersion_real
_atom_type_scat_dispersion_imag
_atom_type_scat_source
C C 0.0033 0.0016 'International Tables Vol C Tables 4.2.6.8 and 6.1.1.4'
H H 0.0000 0.0000 'International Tables Vol C Tables 4.2.6.8 and 6.1.1.4'
I I -0.4742 1.8119 'International Tables Vol C Tables 4.2.6.8 and 6.1.1.4'
N N 0.0061 0.0033 'International Tables Vol C Tables 4.2.6.8 and 6.1.1.4'
loop_
_geom_angle_atom_site_label_1
_geom_angle_atom_site_label_2
_geom_angle_atom_site_label_3
_geom_angle
N1 C1 C2 178.1(6)
C3 C2 C7 119.4(5)
C3 C2 C1 122.1(5)
C7 C2 C1 118.4(5)
C2 C3 C4 119.6(5)
C2 C3 I1 120.3(4)
C4 C3 I1 120.2(4)
C5 C4 C3 120.1(5)
C5 C4 H4 119.9
C3 C4 H4 119.9
C6 C5 C4 121.5(5)
C6 C5 H5 119.3
C4 C5 H5 119.3
C5 C6 C7 119.4(5)
C5 C6 H6 120.3
C7 C6 H6 120.3
C6 C7 C2 120.0(5)
C6 C7 C8 121.5(5)
C2 C7 C8 118.5(5)
N2 C8 C7 177.0(6)
loop_
_geom_bond_atom_site_label_1
_geom_bond_atom_site_label_2
_geom_bond_distance
C1 N1 1.138(7)
C1 C2 1.435(7)
C2 C3 1.378(7)
C2 C7 1.421(7)
C3 C4 1.395(8)
C3 I1 2.085(5)
C4 C5 1.373(8)
C4 H4 0.93
C5 C6 1.370(8)
C5 H5 0.93
C6 C7 1.380(7)
C6 H6 0.93
C7 C8 1.437(8)
C8 N2 1.148(7)
loop_
_geom_hbond_atom_site_label_D
_geom_hbond_atom_site_label_H
_geom_hbond_atom_site_label_A
_geom_hbond_site_symmetry_A
_geom_hbond_distance_DH
_geom_hbond_distance_HA
_geom_hbond_distance_DA
_geom_hbond_angle_DHA
C4 H4 N1 1_455 0.93 2.65 3.524(8) 157.7
loop_
_geom_torsion_atom_site_label_1
_geom_torsion_atom_site_label_2
_geom_torsion_atom_site_label_3
_geom_torsion_atom_site_label_4
_geom_torsion
C7 C2 C3 C4 1.1(8)
C1 C2 C3 C4 -179.9(5)
C7 C2 C3 I1 179.4(4)
C1 C2 C3 I1 -1.6(7)
C2 C3 C4 C5 -1.0(8)
I1 C3 C4 C5 -179.4(4)
C3 C4 C5 C6 0.7(9)
C4 C5 C6 C7 -0.5(9)
C5 C6 C7 C2 0.5(9)
C5 C6 C7 C8 179.6(6)
C3 C2 C7 C6 -0.8(8)
C1 C2 C7 C6 -179.9(5)
C3 C2 C7 C8 -179.9(5)
C1 C2 C7 C8 1.0(8)
