#------------------------------------------------------------------------------
#$Date: 2019-11-17 15:38:49 +0200 (Sun, 17 Nov 2019) $
#$Revision: 230933 $
#$URL: file:///home/coder/svn-repositories/cod/cif/7/23/00/7230042.cif $
#------------------------------------------------------------------------------
#
# This file is available in the Crystallography Open Database (COD),
# http://www.crystallography.net/
#
# All data on this site have been placed in the public domain by the
# contributors.
#
data_7230042
loop_
_publ_author_name
'Wang, Hui'
'Liu, Ju'
'Wang, Weizhou'
_publ_section_title
;
 Intermolecular and very strong intramolecular C-SeO/N chalcogen bonds in
 nitrophenyl selenocyanate crystals.
;
_journal_issue                   7
_journal_name_full               'Physical chemistry chemical physics : PCCP'
_journal_page_first              5227
_journal_page_last               5234
_journal_paper_doi               10.1039/c7cp08215k
_journal_volume                  20
_journal_year                    2018
_chemical_absolute_configuration ad
_chemical_formula_moiety         'C7 H4 N2 O2 Se'
_chemical_formula_sum            'C7 H4 N2 O2 Se'
_chemical_formula_weight         227.08
_space_group_crystal_system      monoclinic
_space_group_IT_number           4
_space_group_name_Hall           'P 2yb'
_space_group_name_H-M_alt        'P 1 21 1'
_symmetry_space_group_name_Hall  'P 2yb'
_symmetry_space_group_name_H-M   'P 1 21 1'
_atom_sites_solution_hydrogens   geom
_atom_sites_solution_primary     direct
_atom_sites_solution_secondary   difmap
_audit_creation_date             2017-11-30
_audit_creation_method
;
Olex2 1.2
(compiled 2017.08.10 svn.r3458 for OlexSys, GUI svn.r5381)
;
_audit_update_record
;
2017-11-30 deposited with the CCDC.
2018-01-25 downloaded from the CCDC.
;
_cell_angle_alpha                90.00
_cell_angle_beta                 91.940(2)
_cell_angle_gamma                90.00
_cell_formula_units_Z            2
_cell_length_a                   3.9951(3)
_cell_length_b                   6.9821(6)
_cell_length_c                   14.3544(13)
_cell_measurement_reflns_used    3761
_cell_measurement_temperature    273(2)
_cell_measurement_theta_max      28.30
_cell_measurement_theta_min      2.84
_cell_volume                     400.17(6)
_computing_cell_refinement       'SAINT v8.37A (Bruker, 2015)'
_computing_data_reduction        'SAINT v8.37A (Bruker, 2015)'
_computing_molecular_graphics    'Olex2 (Dolomanov et al., 2009)'
_computing_publication_material  'Olex2 (Dolomanov et al., 2009)'
_computing_structure_refinement  'XL (Sheldrick, 2008)'
_computing_structure_solution    'XS (Sheldrick, 2008)'
_diffrn_ambient_temperature      273.15
_diffrn_measured_fraction_theta_full 0.989
_diffrn_measured_fraction_theta_max 0.989
_diffrn_measurement_device_type  'CCD area detector'
_diffrn_measurement_method       'phi and omega scans'
_diffrn_radiation_monochromator  graphite
_diffrn_radiation_type           MoK\a
_diffrn_radiation_wavelength     0.71073
_diffrn_reflns_av_R_equivalents  0.0148
_diffrn_reflns_av_unetI/netI     0.0327
_diffrn_reflns_limit_h_max       4
_diffrn_reflns_limit_h_min       -4
_diffrn_reflns_limit_k_max       8
_diffrn_reflns_limit_k_min       -8
_diffrn_reflns_limit_l_max       17
_diffrn_reflns_limit_l_min       -17
_diffrn_reflns_number            3773
_diffrn_reflns_theta_full        25.34
_diffrn_reflns_theta_max         25.34
_diffrn_reflns_theta_min         2.84
_diffrn_source                   'fine-focus sealed tube'
_exptl_absorpt_coefficient_mu    4.647
_exptl_absorpt_correction_T_max  0.7457
_exptl_absorpt_correction_T_min  0.5811
_exptl_absorpt_correction_type   multi-scan
_exptl_absorpt_process_details
'SADABS-2016/2 (Bruker,2016/2) was used for absorption correction. wR2(int) was 0.0719 before and 0.0509 after correction. The Ratio of minimum to maximum transmission is 0.7793. The \l/2 correction factor is Not present.'
_exptl_crystal_colour            brown
_exptl_crystal_colour_primary    brown
_exptl_crystal_density_diffrn    1.885
_exptl_crystal_density_method    'not measured'
_exptl_crystal_description       needle
_exptl_crystal_F_000             220
_exptl_crystal_size_max          0.12
_exptl_crystal_size_mid          0.11
_exptl_crystal_size_min          0.11
_refine_diff_density_max         0.399
_refine_diff_density_min         -0.435
_refine_diff_density_rms         0.143
_refine_ls_abs_structure_details 'Flack H D (1983), Acta Cryst. A39, 876-881'
_refine_ls_abs_structure_Flack   0.009(16)
_refine_ls_extinction_method     none
_refine_ls_goodness_of_fit_ref   1.298
_refine_ls_hydrogen_treatment    constr
_refine_ls_matrix_type           full
_refine_ls_number_parameters     109
_refine_ls_number_reflns         1424
_refine_ls_number_restraints     1
_refine_ls_restrained_S_all      1.297
_refine_ls_R_factor_all          0.0199
_refine_ls_R_factor_gt           0.0173
_refine_ls_shift/su_max          0.000
_refine_ls_shift/su_mean         0.000
_refine_ls_structure_factor_coef Fsqd
_refine_ls_weighting_details
'calc w=1/[\s^2^(Fo^2^)+(0.0440P)^2^+0.0000P] where P=(Fo^2^+2Fc^2^)/3'
_refine_ls_weighting_scheme      calc
_refine_ls_wR_factor_gt          0.0524
_refine_ls_wR_factor_ref         0.0769
_reflns_number_gt                1401
_reflns_number_total             1424
_reflns_threshold_expression     >2sigma(I)
_iucr_refine_instructions_details
;
TITL w in P21 #4
REM reset to P21 #4
CELL 0.71073 3.9951 6.9821 14.3544 90 91.94 90
ZERR 2 0.0003 0.0006 0.0013 0 0.002 0
LATT -1
SYMM -X,0.5+Y,-Z
SFAC C H N O Se
UNIT 14 8 4 4 2
 
L.S. 50
PLAN  20
TEMP 0
BOND
fmap 2
acta
SHEL 999 0.83
REM <olex2.extras>
REM <HklSrc "%.\\w.hkl">
REM </olex2.extras>
 
WGHT    0.044000
FVAR       0.62700
SE1   5   -0.496015   -0.132570   -0.837622    11.00000    0.04879    0.03955 =
         0.04502   -0.00404    0.00006    0.00761
C6    1   -0.640862    0.090552   -0.772375    11.00000    0.03317    0.03348 =
         0.03795    0.00064    0.00157   -0.00218
C4    1   -0.908327    0.396301   -0.764437    11.00000    0.04712    0.03436 =
         0.03992    0.00488   -0.00573    0.00259
AFIX  43
H4    2   -1.022726    0.498058   -0.792629    11.00000   -1.20000
AFIX   0
C2    1   -0.663636    0.251553   -0.625179    11.00000    0.04684    0.04975 =
         0.03164    0.00351   -0.00542    0.00155
AFIX  43
H2    2   -0.612837    0.256858   -0.561524    11.00000   -1.20000
AFIX   0
C5    1   -0.811025    0.240930   -0.816800    11.00000    0.04785    0.03811 =
         0.02995    0.00359   -0.00423   -0.00071
AFIX  43
H5    2   -0.858408    0.236874   -0.880649    11.00000   -1.20000
AFIX   0
C1    1   -0.569817    0.095586   -0.677078    11.00000    0.04589    0.04071 =
         0.04107    0.00333   -0.00597    0.00772
AFIX  43
H1    2   -0.458664   -0.006502   -0.648176    11.00000   -1.20000
AFIX   0
C3    1   -0.832937    0.398620   -0.668902    11.00000    0.04178    0.03343 =
         0.03789    0.00017    0.00285   -0.00216
N1    3   -0.937256    0.562889   -0.614694    11.00000    0.05632    0.04580 =
         0.04754   -0.00986    0.00265   -0.00133
O2    4   -0.839504    0.570902   -0.533071    11.00000    0.10974    0.08385 =
         0.04840   -0.02718   -0.01284    0.01980
O1    4   -1.115608    0.683313   -0.651593    11.00000    0.11792    0.05502 =
         0.06769   -0.01268   -0.01229    0.03922
C7    1   -0.624862   -0.051763   -0.955253    11.00000    0.05461    0.04673 =
         0.04129   -0.00900    0.00078   -0.00126
N2    3   -0.700948   -0.002432   -1.028000    11.00000    0.10973    0.06922 =
         0.04535   -0.00734   -0.00485    0.00410
HKLF 4
 
REM  w in P21 #4
REM R1 =  0.0173 for   1401 Fo > 4sig(Fo)  and  0.0199 for all   1424 data
REM    109 parameters refined using      1 restraints
 
END  
     
WGHT      0.0443      0.0000 
REM Highest difference peak  0.399,  deepest hole -0.435,  1-sigma level  0.143
Q1    1  -0.7118  0.3666 -0.5639  11.00000  0.05    0.40
Q2    1  -0.9162  0.3640 -0.4686  11.00000  0.05    0.32
Q3    1  -1.0731  0.5249 -0.5396  11.00000  0.05    0.30
Q4    1  -0.7901 -0.1827 -1.0152  11.00000  0.05    0.30
Q5    1  -0.5490  0.0521 -1.0047  11.00000  0.05    0.29
Q6    1  -1.1669  0.3807 -0.4771  11.00000  0.05    0.28
Q7    1  -0.7201  0.0771 -0.9763  11.00000  0.05    0.28
Q8    1  -0.9083  0.6968 -0.4669  11.00000  0.05    0.27
Q9    1  -0.4739 -0.2552 -0.9970  11.00000  0.05    0.27
Q10   1  -0.4556  0.5896 -0.5169  11.00000  0.05    0.26
Q11   1  -0.7020 -0.1342 -0.9254  11.00000  0.05    0.25
Q12   1  -0.4404  0.1891 -0.5363  11.00000  0.05    0.24
Q13   1  -0.4800  0.0021 -0.5397  11.00000  0.05    0.24
Q14   1  -0.2637  0.0247 -0.9963  11.00000  0.05    0.24
Q15   1  -0.6469  0.1811 -0.4628  11.00000  0.05    0.24
Q16   1  -0.8443  0.5905 -0.5030  11.00000  0.05    0.24
Q17   1  -0.4908 -0.0197 -0.9495  11.00000  0.05    0.24
Q18   1  -0.7450  0.6345 -0.5613  11.00000  0.05    0.24
Q19   1  -0.7242  0.2146 -1.0216  11.00000  0.05    0.24
Q20   1  -0.7346  0.3437 -0.9843  11.00000  0.05    0.24

  REM The information below was added by Olex2.
  REM
  REM R1 = 0.0173 for 1401 Fo > 4sig(Fo) and 0.0199 for all 4720 data
  REM n/a parameters refined using n/a restraints
  REM Highest difference peak 0.40, deepest hole -0.43
  REM Mean Shift 0, Max Shift 0.000.

  REM +++ Tabular Listing of Refinement Information +++
  REM R1_all = 0.0199
  REM R1_gt = 0.0173
  REM wR_ref = 0.0769
  REM GOOF = 1.298
  REM Shift_max = 0.000
  REM Shift_mean = 0
  REM Reflections_all = 4720
  REM Reflections_gt = 1401
  REM Parameters = n/a
  REM Hole = -0.43
  REM Peak = 0.40
  REM Flack = 0.009(16)

  
;
_cod_data_source_file            c7cp08215k2.cif
_cod_data_source_block           w_CCDC2
_cod_depositor_comments
'Adding full bibliography for 7230040--7230042.cif.'
_cod_database_code               7230042
_olex2_refinement_description
;
1. Fixed Uiso
 At 1.2 times of:
  All C(H) groups
2.a Aromatic/amide H refined with riding coordinates:
 C4(H4), C2(H2), C5(H5), C1(H1)
;
_olex2_submission_special_instructions 'No special instructions were received'
loop_
_space_group_symop_id
_space_group_symop_operation_xyz
1 'x, y, z'
2 '-x, y+1/2, -z'
loop_
_atom_site_label
_atom_site_type_symbol
_atom_site_fract_x
_atom_site_fract_y
_atom_site_fract_z
_atom_site_U_iso_or_equiv
_atom_site_adp_type
_atom_site_occupancy
_atom_site_calc_flag
_atom_site_refinement_flags_posn
Se1 Se -0.49602(7) -0.13257(11) -0.837622(18) 0.04449(15) Uani 1 d .
C6 C -0.6409(7) 0.0906(5) -0.7724(2) 0.0349(7) Uani 1 d .
C4 C -0.9083(8) 0.3963(6) -0.7644(2) 0.0406(8) Uani 1 d .
H4 H -1.0227 0.4981 -0.7926 0.049 Uiso 1 calc R
C2 C -0.6636(9) 0.2516(6) -0.6252(2) 0.0429(8) Uani 1 d .
H2 H -0.6128 0.2569 -0.5615 0.051 Uiso 1 calc R
C5 C -0.8110(9) 0.2409(5) -0.8168(2) 0.0388(7) Uani 1 d .
H5 H -0.8584 0.2369 -0.8806 0.047 Uiso 1 calc R
C1 C -0.5698(9) 0.0956(6) -0.6771(3) 0.0427(8) Uani 1 d .
H1 H -0.4587 -0.0065 -0.6482 0.051 Uiso 1 calc R
C3 C -0.8329(8) 0.3986(5) -0.6689(2) 0.0377(8) Uani 1 d .
N1 N -0.9373(8) 0.5629(5) -0.6147(2) 0.0499(8) Uani 1 d .
O2 O -0.8395(10) 0.5709(6) -0.5331(2) 0.0810(11) Uani 1 d .
O1 O -1.1156(13) 0.6833(6) -0.6516(3) 0.0806(11) Uani 1 d .
C7 C -0.6249(10) -0.0518(6) -0.9553(3) 0.0476(8) Uani 1 d .
N2 N -0.7009(13) -0.0024(7) -1.0280(3) 0.0749(12) Uani 1 d .
loop_
_atom_site_aniso_label
_atom_site_aniso_U_11
_atom_site_aniso_U_22
_atom_site_aniso_U_33
_atom_site_aniso_U_23
_atom_site_aniso_U_13
_atom_site_aniso_U_12
Se1 0.0488(2) 0.0396(2) 0.0450(2) -0.00404(17) 0.00006(13) 0.00761(19)
C6 0.0332(14) 0.0335(16) 0.0380(17) 0.0006(13) 0.0016(12) -0.0022(14)
C4 0.0471(15) 0.034(2) 0.0399(16) 0.0049(14) -0.0057(12) 0.0026(17)
C2 0.0468(19) 0.050(2) 0.0316(16) 0.0035(14) -0.0054(14) 0.0016(17)
C5 0.0479(18) 0.0381(18) 0.0299(16) 0.0036(13) -0.0042(13) -0.0007(14)
C1 0.0459(16) 0.041(2) 0.0411(19) 0.0033(15) -0.0060(14) 0.0077(18)
C3 0.0418(16) 0.033(2) 0.0379(15) 0.0002(14) 0.0029(12) -0.0022(16)
N1 0.0563(19) 0.0458(19) 0.048(2) -0.0099(14) 0.0026(14) -0.0013(15)
O2 0.110(3) 0.084(3) 0.0484(19) -0.0272(17) -0.0128(17) 0.020(2)
O1 0.118(3) 0.055(2) 0.068(2) -0.0127(16) -0.0123(18) 0.039(2)
C7 0.055(2) 0.0467(18) 0.041(2) -0.0090(16) 0.0008(15) -0.0013(17)
N2 0.110(3) 0.069(3) 0.045(2) -0.007(2) -0.005(2) 0.004(3)
loop_
_atom_type_symbol
_atom_type_description
_atom_type_scat_dispersion_real
_atom_type_scat_dispersion_imag
_atom_type_scat_source
C C 0.0033 0.0016 'International Tables Vol C Tables 4.2.6.8 and 6.1.1.4'
H H 0.0000 0.0000 'International Tables Vol C Tables 4.2.6.8 and 6.1.1.4'
N N 0.0061 0.0033 'International Tables Vol C Tables 4.2.6.8 and 6.1.1.4'
O O 0.0106 0.0060 'International Tables Vol C Tables 4.2.6.8 and 6.1.1.4'
Se Se -0.0929 2.2259 'International Tables Vol C Tables 4.2.6.8 and 6.1.1.4'
loop_
_geom_angle_atom_site_label_1
_geom_angle_atom_site_label_2
_geom_angle_atom_site_label_3
_geom_angle
C7 Se1 C6 96.87(15)
C5 C6 Se1 122.6(2)
C1 C6 Se1 116.5(3)
C1 C6 C5 120.8(3)
C5 C4 C3 119.2(3)
C3 C2 C1 118.9(3)
C4 C5 C6 119.0(3)
C2 C1 C6 120.2(3)
C4 C3 N1 118.6(3)
C2 C3 C4 121.9(3)
C2 C3 N1 119.5(3)
O2 N1 C3 117.4(3)
O1 N1 C3 119.2(3)
O1 N1 O2 123.4(3)
N2 C7 Se1 179.3(4)
loop_
_geom_bond_atom_site_label_1
_geom_bond_atom_site_label_2
_geom_bond_distance
Se1 C6 1.917(3)
Se1 C7 1.837(4)
C6 C5 1.394(5)
C6 C1 1.388(5)
C4 C5 1.383(5)
C4 C3 1.394(4)
C2 C1 1.378(5)
C2 C3 1.370(5)
C3 N1 1.455(5)
N1 O2 1.224(4)
N1 O1 1.212(5)
C7 N2 1.131(5)
