#------------------------------------------------------------------------------
#$Date: 2019-11-17 08:56:24 +0200 (Sun, 17 Nov 2019) $
#$Revision: 228974 $
#$URL: file:///home/coder/svn-repositories/cod/cif/7/23/08/7230874.cif $
#------------------------------------------------------------------------------
#
# This file is available in the Crystallography Open Database (COD),
# http://www.crystallography.net/
#
# All data on this site have been placed in the public domain by the
# contributors.
#
data_7230874
loop_
_publ_author_name
'Tran, Thao T.'
'Quintero, Michael A.'
'Arpino, Kathryn E.'
'Kelly, Zachary A.'
'Panella, Jessica R.'
'Wang, Xiaoping'
'McQueen, Tyrel M.'
_publ_section_title
;
 Chemically controlled crystal growth of (CH3NH3)2AgInBr6
;
_journal_issue                   39
_journal_name_full               CrystEngComm
_journal_page_first              5929
_journal_paper_doi               10.1039/C8CE00702K
_journal_volume                  20
_journal_year                    2018
_chemical_formula_sum            'C2 H12 Ag Br6 In N2'
_chemical_formula_weight         766.29
_space_group_crystal_system      trigonal
_space_group_IT_number           147
_space_group_name_Hall           '-P 3'
_space_group_name_H-M_alt        'P -3'
_symmetry_space_group_name_Hall  '-P 3'
_symmetry_space_group_name_H-M   'P -3'
_atom_sites_solution_hydrogens   difmap
_audit_creation_method           SHELXL-2014/7
_audit_update_record
;
2018-02-16 deposited with the CCDC.
2018-02-18 downloaded from the CCDC.
;
_cell_angle_alpha                90
_cell_angle_beta                 90
_cell_angle_gamma                120
_cell_formula_units_Z            1
_cell_length_a                   7.6399(11)
_cell_length_b                   7.6399(11)
_cell_length_c                   7.0651(14)
_cell_measurement_reflns_used    6943
_cell_measurement_temperature    95.0(10)
_cell_measurement_theta_max      32.5570
_cell_measurement_theta_min      2.8840
_cell_volume                     357.13(10)
_computing_cell_refinement       'CrysAlisPro 1.171.38.43 (Rigaku OD, 2015)'
_computing_data_collection       'CrysAlisPro 1.171.38.43 (Rigaku OD, 2015)'
_computing_data_reduction        'CrysAlisPro 1.171.38.43 (Rigaku OD, 2015)'
_computing_structure_refinement  'SHELXL-2014/7 (Sheldrick, 2014)'
_computing_structure_solution    'SHELXS-2014/7 (Sheldrick, 2014)'
_diffrn_ambient_environment      N~2~
_diffrn_ambient_temperature      95.00(10)
_diffrn_detector                 'CCD plate'
_diffrn_detector_area_resol_mean 5.1937
_diffrn_detector_type            Atlas
_diffrn_measured_fraction_theta_full 1.000
_diffrn_measured_fraction_theta_max 1.000
_diffrn_measurement_device       'four-circle diffractometer'
_diffrn_measurement_device_type  'SuperNova, Dual, Cu at zero, Atlas'
_diffrn_orient_matrix_type
'CrysAlisPro convention (1999,Acta A55,543-557)'
_diffrn_radiation_monochromator  mirror
_diffrn_radiation_probe          x-ray
_diffrn_radiation_type           'Mo K\a'
_diffrn_radiation_wavelength     0.71073
_diffrn_reflns_av_R_equivalents  0.0753
_diffrn_reflns_av_sigmaI/netI    0.0473
_diffrn_reflns_av_unetI/netI     0.0220
_diffrn_reflns_limit_h_max       9
_diffrn_reflns_limit_h_min       -9
_diffrn_reflns_limit_k_max       9
_diffrn_reflns_limit_k_min       -9
_diffrn_reflns_limit_l_max       9
_diffrn_reflns_limit_l_min       -9
_diffrn_reflns_number            541
_diffrn_reflns_theta_full        25.242
_diffrn_reflns_theta_max         27.316
_diffrn_reflns_theta_min         2.883
_diffrn_source                   'micro-focus sealed X-ray tube'
_diffrn_source_type              'SuperNova (Mo) X-ray Source'
_exptl_absorpt_coefficient_mu    19.730
_exptl_absorpt_correction_T_max  1.00000
_exptl_absorpt_correction_T_min  0.36635
_exptl_absorpt_correction_type   multi-scan
_exptl_crystal_colour            colorless
_exptl_crystal_density_diffrn    3.563
_exptl_crystal_density_method    'not measured'
_exptl_crystal_description       'thick plate'
_exptl_crystal_F_000             344
_exptl_crystal_size_max          0.180
_exptl_crystal_size_mid          0.147
_exptl_crystal_size_min          0.091
_exptl_transmission_factor_max   0.735
_exptl_transmission_factor_min   0.616
_refine_diff_density_max         1.371
_refine_diff_density_min         -0.581
_refine_diff_density_rms         0.224
_refine_ls_extinction_coef       none
_refine_ls_extinction_expression Fc^*^=kFc[1+0.001xFc^2^\l^3^/sin(2\q)]^-1/4^
_refine_ls_extinction_method     'SHELXL-2014/7 (Sheldrick 2014)'
_refine_ls_goodness_of_fit_ref   1.140
_refine_ls_hydrogen_treatment    refall
_refine_ls_matrix_type           full
_refine_ls_number_parameters     32
_refine_ls_number_reflns         541
_refine_ls_number_restraints     0
_refine_ls_restrained_S_all      1.140
_refine_ls_R_factor_all          0.0204
_refine_ls_R_factor_gt           0.0204
_refine_ls_shift/su_max          8.773
_refine_ls_shift/su_mean         0.275
_refine_ls_structure_factor_coef Fsqd
_refine_ls_weighting_details
'w=1/[\s^2^(Fo^2^)+(0.0292P)^2^+0.1627P] where P=(Fo^2^+2Fc^2^)/3'
_refine_ls_weighting_scheme      calc
_refine_ls_wR_factor_gt          0.0486
_refine_ls_wR_factor_ref         0.0486
_reflns_number_gt                541
_reflns_number_total             541
_reflns_threshold_expression     'I > 2\s(I)'
_cod_data_source_file            c8ce00702k2.cif
_cod_data_source_block           lt
_cod_depositor_comments
'Adding full bibliography for 7230872--7230875.cif.'
_cod_original_cell_volume        357.13(12)
_cod_database_code               7230874
_shelx_shelxl_version_number     2014/7
_shelx_space_group_comment
;
The symmetry employed for this shelxl refinement is uniquely defined
by the following loop, which should always be used as a source of
symmetry information in preference to the above space-group names.
They are only intended as comments.
;
_shelx_res_file
;

    LT.res created by SHELXL-2014/7


TITL P-3 in P-3
CELL 0.71073   7.63990   7.63990   7.06510  90.0000  90.0000 120.0000
ZERR    1.00   0.00108   0.00108   0.00141   0.0000   0.0000   0.0000
LATT  1
SYMM -Y, X-Y, Z
SYMM -X+Y, -X, Z
SFAC H C N BR AG IN
UNIT 12 2 2 6 1 1
L.S. 4
ACTA
MERG 0
FMAP 2
PLAN 10
WGHT    0.029200    0.162700
EXTI    0.000000
BASF   0.19539   0.04297   0.05142
FVAR       9.72557
IN1   6    0.000000    0.000000    0.000000    10.16667    0.00991    0.00991 =
         0.00526    0.00000    0.00000    0.00495
AG1   5    0.000000    0.000000    0.500000    10.16667    0.02932    0.02932 =
         0.00523    0.00000    0.00000    0.01466
BR1   4    0.323658    0.188075    0.222394    11.00000    0.01308    0.02079 =
         0.01179   -0.00262   -0.00495    0.00610
N1    3    0.333333    0.666667    0.156252    10.33333    0.03421    0.03421 =
         0.01150    0.00000    0.00000    0.01711
H1    1    0.257316    0.743542    0.120771    11.00000    0.09338
C1    2    0.333333    0.666667    0.362220    10.33333    0.03737    0.03737 =
         0.00813    0.00000    0.00000    0.01869
H2    1    0.343725    0.785385    0.409274    11.00000    0.02837

HKLF 5

REM  P-3 in P-3
REM R1 =  0.0204 for     541 Fo > 4sig(Fo)  and  0.0204 for all     541 data
REM     32 parameters refined using      0 restraints

END

WGHT      0.0287      0.1523

REM Highest difference peak  1.371,  deepest hole -0.581,  1-sigma level  0.224
Q1    1   0.3228  0.1209  0.2553  11.00000  0.05    1.37
Q2    1   0.5000  1.0000  0.0000  10.50000  0.05    0.72
Q3    1   0.5000  1.0000  0.5000  10.50000  0.05    0.66
Q4    1   0.3333  0.6667  0.5454  10.33333  0.05    0.58
Q5    1   0.3333  0.6667  0.0521  10.33333  0.05    0.54
Q6    1   0.1807  0.8392  0.2972  11.00000  0.05    0.35
Q7    1   0.0000  0.0000  0.3354  10.33333  0.05    0.31
Q8    1   0.1770  0.8771  0.4552  11.00000  0.05    0.28
Q9    1   0.2460 -0.0529  0.2605  11.00000  0.05    0.25
Q10   1   0.5062  0.9991  0.2944  11.00000  0.05    0.25
;
_shelx_res_checksum              54993
_shelx_hkl_file
;
   0  -1   0 1410539   16003  -2
   0   1   0 1410539   16003  -3
   0  -1   0 1410539   16003  -4
   0   1   0 1410539   16003   1
  -1  -1   0  184261    1913  -2
   1   1   0  184261    1913  -3
   1  -2   0  184261    1913  -4
  -1   2   0  184261    1913   1
   0  -2   0   26057     475  -2
   0   2   0   26057     475  -3
   0  -2   0   26057     475  -4
   0   2   0   26057     475   1
  -2  -1   0  871106   12722  -2
   2   1   0  871106   12722  -3
   2  -3   0  871106   12722  -4
  -2   3   0  871106   12722   1
  -1  -2   0  413677    8172  -2
   1   2   0  413677    8172  -3
   1  -3   0  413677    8172  -4
  -1   3   0  413677    8172   1
   0  -3   0  198187    2481  -2
   0   3   0  198187    2481  -3
   0  -3   0  198187    2481  -4
   0   3   0  198187    2481   1
  -3  -1   0 1387398   21702  -2
   3   1   0 1387398   21702  -3
   3  -4   0 1387398   21702  -4
  -3   4   0 1387398   21702   1
  -2  -2   0 3885573   46397  -2
   2   2   0 3885573   46397  -3
   2  -4   0 3885573   46397  -4
  -2   4   0 3885573   46397   1
  -1  -3   0  452319   13666  -2
   1   3   0  452319   13666  -3
   1  -4   0  452319   13666  -4
  -1   4   0  452319   13666   1
   0  -4   0    2562     216  -2
   0   4   0    2562     216  -3
   0  -4   0    2562     216  -4
   0   4   0    2562     216   1
  -4  -1   0   83757    1810  -2
   4   1   0   83757    1810  -3
   4  -5   0   83757    1810  -4
  -4   5   0   83757    1810   1
  -3  -2   0  768227   17340  -2
   3   2   0  768227   17340  -3
   3  -5   0  768227   17340  -4
  -3   5   0  768227   17340   1
  -2  -3   0  408928    6942  -2
   2   3   0  408928    6942  -3
   2  -5   0  408928    6942  -4
  -2   5   0  408928    6942   1
  -1  -4   0   44892    1267  -2
   1   4   0   44892    1267  -3
   1  -5   0   44892    1267  -4
  -1   5   0   44892    1267   1
   0  -5   0  108385    1892  -2
   0   5   0  108385    1892  -3
   0  -5   0  108385    1892  -4
   0   5   0  108385    1892   1
  -5  -1   0  166516    5409  -2
   5   1   0  166516    5409  -3
   5  -6   0  166516    5409  -4
  -5   6   0  166516    5409   1
  -4  -2   0    2088     314  -2
   4   2   0    2088     314  -3
   4  -6   0    2088     314  -4
  -4   6   0    2088     314   1
  -3  -3   0    8283     467  -2
   3   3   0    8283     467  -3
   3  -6   0    8283     467  -4
  -3   6   0    8283     467   1
  -2  -4   0    5214     314  -2
   2   4   0    5214     314  -3
   2  -6   0    5214     314  -4
  -2   6   0    5214     314   1
  -1  -5   0  596707    8741  -2
   1   5   0  596707    8741  -3
   1  -6   0  596707    8741  -4
  -1   6   0  596707    8741   1
   0  -6   0 1006586   17518  -2
   0   6   0 1006586   17518  -3
   0  -6   0 1006586   17518  -4
   0   6   0 1006586   17518   1
  -6  -1   0  177847    3471  -2
   6   1   0  177847    3471  -3
   6  -7   0  177847    3471  -4
  -6   7   0  177847    3471   1
  -5  -2   0  113316    2668  -2
   5   2   0  113316    2668  -3
   5  -7   0  113316    2668  -4
  -5   7   0  113316    2668   1
  -4  -3   0  155416    4313  -2
   4   3   0  155416    4313  -3
   4  -7   0  155416    4313  -4
  -4   7   0  155416    4313   1
  -3  -4   0   53125    2080  -2
   3   4   0   53125    2080  -3
   3  -7   0   53125    2080  -4
  -3   7   0   53125    2080   1
  -2  -5   0  168413    2305  -2
   2   5   0  168413    2305  -3
   2  -7   0  168413    2305  -4
  -2   7   0  168413    2305   1
  -1  -6   0  629123   10451  -2
   1   6   0  629123   10451  -3
   1  -7   0  629123   10451  -4
  -1   7   0  629123   10451   1
   0  -7   0  135152    3102  -2
   0   7   0  135152    3102  -3
   0  -7   0  135152    3102  -4
   0   7   0  135152    3102   1
  -7  -1   0    4512     575  -2
   7   1   0    4512     575  -3
   7  -8   0    4512     575  -4
  -7   8   0    4512     575   1
  -6  -2   0   30609    1508  -2
   6   2   0   30609    1508  -3
   6  -8   0   30609    1508  -4
  -6   8   0   30609    1508   1
  -5  -3   0  579368   15676  -2
   5   3   0  579368   15676  -3
   5  -8   0  579368   15676  -4
  -5   8   0  579368   15676   1
  -4  -4   0  553424    7333  -2
   4   4   0  553424    7333  -3
   4  -8   0  553424    7333  -4
  -4   8   0  553424    7333   1
  -3  -5   0  180331    6044  -2
   3   5   0  180331    6044  -3
   3  -8   0  180331    6044  -4
  -3   8   0  180331    6044   1
  -2  -6   0   15846    1027  -2
   2   6   0   15846    1027  -3
   2  -8   0   15846    1027  -4
  -2   8   0   15846    1027   1
  -1  -7   0   12205    1006  -2
   1   7   0   12205    1006  -3
   1  -8   0   12205    1006  -4
  -1   8   0   12205    1006   1
   0  -8   0    2017     416  -2
   0   8   0    2017     416  -3
   0  -8   0    2017     416  -4
   0   8   0    2017     416   1
  -8  -1   0  105431    3379  -2
   8   1   0  105431    3379  -3
   8  -9   0  105431    3379  -4
  -8   9   0  105431    3379   1
  -7  -2   0    6826     738  -2
   7   2   0    6826     738  -3
   7  -9   0    6826     738  -4
  -7   9   0    6826     738   1
  -6  -3   0   73360    2502  -2
   6   3   0   73360    2502  -3
   6  -9   0   73360    2502  -4
  -6   9   0   73360    2502   1
  -5  -4   0  203258    6069  -2
   5   4   0  203258    6069  -3
   5  -9   0  203258    6069  -4
  -5   9   0  203258    6069   1
  -4  -5   0   81370    2704  -2
   4   5   0   81370    2704  -3
   4  -9   0   81370    2704  -4
  -4   9   0   81370    2704   1
  -3  -6   0   28400    1659  -2
   3   6   0   28400    1659  -3
   3  -9   0   28400    1659  -4
  -3   9   0   28400    1659   1
  -2  -7   0   12061    1202  -2
   2   7   0   12061    1202  -3
   2  -9   0   12061    1202  -4
  -2   9   0   12061    1202   1
  -1  -8   0   29185    2167  -2
   1   8   0   29185    2167  -3
   1  -9   0   29185    2167  -4
  -1   9   0   29185    2167   1
   0   0  -1  118217    3027  -2
   0   0  -1  118217    3027  -3
   0   0   1  118217    3027  -4
   0   0   1  118217    3027   1
  -1   0  -1  136466    2128  -2
   1   0  -1  136466    2128  -3
   1  -1   1  136466    2128  -4
  -1   1   1  136466    2128   1
   0  -1  -1   55499    1116  -2
   0   1  -1   55499    1116  -3
   0  -1   1   55499    1116  -4
   0   1   1   55499    1116   1
   1  -2  -1  106212    1622  -2
  -1   2  -1  106212    1622  -3
  -1  -1   1  106212    1622  -4
   1   1   1  106212    1622   1
  -3   1  -1  261797    3359  -2
   3  -1  -1  261797    3359  -3
   3  -2   1  261797    3359  -4
  -3   2   1  261797    3359   1
  -2   0  -1 2188642   26222  -2
   2   0  -1 2188642   26222  -3
   2  -2   1 2188642   26222  -4
  -2   2   1 2188642   26222   1
  -1  -1  -1  169452    2462  -2
   1   1  -1  169452    2462  -3
   1  -2   1  169452    2462  -4
  -1   2   1  169452    2462   1
   0  -2  -1 2846084   34201  -2
   0   2  -1 2846084   34201  -3
   0  -2   1 2846084   34201  -4
   0   2   1 2846084   34201   1
   1  -3  -1   69648    3264  -2
  -1   3  -1   69648    3264  -3
  -1  -2   1   69648    3264  -4
   1   2   1   69648    3264   1
   2  -4  -1   61523    1188  -2
  -2   4  -1   61523    1188  -3
  -2  -2   1   61523    1188  -4
   2   2   1   61523    1188   1
  -5   2  -1   24030     501  -2
   5  -2  -1   24030     501  -3
   5  -3   1   24030     501  -4
  -5   3   1   24030     501   1
  -4   1  -1  222401    3405  -2
   4  -1  -1  222401    3405  -3
   4  -3   1  222401    3405  -4
  -4   3   1  222401    3405   1
  -3   0  -1   23156     522  -2
   3   0  -1   23156     522  -3
   3  -3   1   23156     522  -4
  -3   3   1   23156     522   1
  -2  -1  -1  130472    2120  -2
   2   1  -1  130472    2120  -3
   2  -3   1  130472    2120  -4
  -2   3   1  130472    2120   1
  -1  -2  -1  207976    2855  -2
   1   2  -1  207976    2855  -3
   1  -3   1  207976    2855  -4
  -1   3   1  207976    2855   1
   0  -3  -1   31200     497  -2
   0   3  -1   31200     497  -3
   0  -3   1   31200     497  -4
   0   3   1   31200     497   1
   1  -4  -1  114220    2541  -2
  -1   4  -1  114220    2541  -3
  -1  -3   1  114220    2541  -4
   1   3   1  114220    2541   1
   2  -5  -1   11802     487  -2
  -2   5  -1   11802     487  -3
  -2  -3   1   11802     487  -4
   2   3   1   11802     487   1
   3  -6  -1  285724    5122  -2
  -3   6  -1  285724    5122  -3
  -3  -3   1  285724    5122  -4
   3   3   1  285724    5122   1
  -7   3  -1  121857    3951  -2
   7  -3  -1  121857    3951  -3
   7  -4   1  121857    3951  -4
  -7   4   1  121857    3951   1
  -6   2  -1  405098    5327  -2
   6  -2  -1  405098    5327  -3
   6  -4   1  405098    5327  -4
  -6   4   1  405098    5327   1
  -5   1  -1  241981    3689  -2
   5  -1  -1  241981    3689  -3
   5  -4   1  241981    3689  -4
  -5   4   1  241981    3689   1
  -4   0  -1  967942   10654  -2
   4   0  -1  967942   10654  -3
   4  -4   1  967942   10654  -4
  -4   4   1  967942   10654   1
  -3  -1  -1   72629    1689  -2
   3   1  -1   72629    1689  -3
   3  -4   1   72629    1689  -4
  -3   4   1   72629    1689   1
  -2  -2  -1   74237    1036  -2
   2   2  -1   74237    1036  -3
   2  -4   1   74237    1036  -4
  -2   4   1   74237    1036   1
  -1  -3  -1  241917    3845  -2
   1   3  -1  241917    3845  -3
   1  -4   1  241917    3845  -4
  -1   4   1  241917    3845   1
   0  -4  -1  873084   11067  -2
   0   4  -1  873084   11067  -3
   0  -4   1  873084   11067  -4
   0   4   1  873084   11067   1
   1  -5  -1  116160    2455  -2
  -1   5  -1  116160    2455  -3
  -1  -4   1  116160    2455  -4
   1   4   1  116160    2455   1
   2  -6  -1  388050    3724  -2
  -2   6  -1  388050    3724  -3
  -2  -4   1  388050    3724  -4
   2   4   1  388050    3724   1
   3  -7  -1   49336    1502  -2
  -3   7  -1   49336    1502  -3
  -3  -4   1   49336    1502  -4
   3   4   1   49336    1502   1
   4  -8  -1   15789     997  -2
  -4   8  -1   15789     997  -3
  -4  -4   1   15789     997  -4
   4   4   1   15789     997   1
  -9   4  -1    6053     826  -2
   9  -4  -1    6053     826  -3
   9  -5   1    6053     826  -4
  -9   5   1    6053     826   1
  -8   3  -1  126942    3704  -2
   8  -3  -1  126942    3704  -3
   8  -5   1  126942    3704  -4
  -8   5   1  126942    3704   1
  -7   2  -1   29938    1084  -2
   7  -2  -1   29938    1084  -3
   7  -5   1   29938    1084  -4
  -7   5   1   29938    1084   1
  -6   1  -1  102359    2191  -2
   6  -1  -1  102359    2191  -3
   6  -5   1  102359    2191  -4
  -6   5   1  102359    2191   1
  -5   0  -1    8300     501  -2
   5   0  -1    8300     501  -3
   5  -5   1    8300     501  -4
  -5   5   1    8300     501   1
  -4  -1  -1  119397    1648  -2
   4   1  -1  119397    1648  -3
   4  -5   1  119397    1648  -4
  -4   5   1  119397    1648   1
  -3  -2  -1   18143     587  -2
   3   2  -1   18143     587  -3
   3  -5   1   18143     587  -4
  -3   5   1   18143     587   1
  -2  -3  -1    6219     306  -2
   2   3  -1    6219     306  -3
   2  -5   1    6219     306  -4
  -2   5   1    6219     306   1
  -1  -4  -1  225396    2370  -2
   1   4  -1  225396    2370  -3
   1  -5   1  225396    2370  -4
  -1   5   1  225396    2370   1
   0  -5  -1   30158     925  -2
   0   5  -1   30158     925  -3
   0  -5   1   30158     925  -4
   0   5   1   30158     925   1
   1  -6  -1  257464    7596  -2
  -1   6  -1  257464    7596  -3
  -1  -5   1  257464    7596  -4
   1   5   1  257464    7596   1
   2  -7  -1   35923    1499  -2
  -2   7  -1   35923    1499  -3
  -2  -5   1   35923    1499  -4
   2   5   1   35923    1499   1
   3  -8  -1   73816    2221  -2
  -3   8  -1   73816    2221  -3
  -3  -5   1   73816    2221  -4
   3   5   1   73816    2221   1
   4  -9  -1   26895    1430  -2
  -4   9  -1   26895    1430  -3
  -4  -5   1   26895    1430  -4
   4   5   1   26895    1430   1
  -9   3  -1   68793    2822  -2
   9  -3  -1   68793    2822  -3
   9  -6   1   68793    2822  -4
  -9   6   1   68793    2822   1
  -8   2  -1  101594    2541  -2
   8  -2  -1  101594    2541  -3
   8  -6   1  101594    2541  -4
  -8   6   1  101594    2541   1
  -7   1  -1   27365    1124  -2
   7  -1  -1   27365    1124  -3
   7  -6   1   27365    1124  -4
  -7   6   1   27365    1124   1
  -6   0  -1   48732    1426  -2
   6   0  -1   48732    1426  -3
   6  -6   1   48732    1426  -4
  -6   6   1   48732    1426   1
  -5  -1  -1  274871    5381  -2
   5   1  -1  274871    5381  -3
   5  -6   1  274871    5381  -4
  -5   6   1  274871    5381   1
  -4  -2  -1  367527    5093  -2
   4   2  -1  367527    5093  -3
   4  -6   1  367527    5093  -4
  -4   6   1  367527    5093   1
  -3  -3  -1  299246    5135  -2
   3   3  -1  299246    5135  -3
   3  -6   1  299246    5135  -4
  -3   6   1  299246    5135   1
  -2  -4  -1  411302    6335  -2
   2   4  -1  411302    6335  -3
   2  -6   1  411302    6335  -4
  -2   6   1  411302    6335   1
  -1  -5  -1   91156    2373  -2
   1   5  -1   91156    2373  -3
   1  -6   1   91156    2373  -4
  -1   6   1   91156    2373   1
   0  -6  -1   16410     663  -2
   0   6  -1   16410     663  -3
   0  -6   1   16410     663  -4
   0   6   1   16410     663   1
   1  -7  -1   44805    1740  -2
  -1   7  -1   44805    1740  -3
  -1  -6   1   44805    1740  -4
   1   6   1   44805    1740   1
   2  -8  -1  171646    3651  -2
  -2   8  -1  171646    3651  -3
  -2  -6   1  171646    3651  -4
   2   6   1  171646    3651   1
   3  -9  -1   33309    1713  -2
  -3   9  -1   33309    1713  -3
  -3  -6   1   33309    1713  -4
   3   6   1   33309    1713   1
  -9   2  -1   25585    1943  -2
   9  -2  -1   25585    1943  -3
   9  -7   1   25585    1943  -4
  -9   7   1   25585    1943   1
  -8   1  -1  120759    3257  -2
   8  -1  -1  120759    3257  -3
   8  -7   1  120759    3257  -4
  -8   7   1  120759    3257   1
  -7   0  -1    9270     727  -2
   7   0  -1    9270     727  -3
   7  -7   1    9270     727  -4
  -7   7   1    9270     727   1
  -6  -1  -1   26529    1126  -2
   6   1  -1   26529    1126  -3
   6  -7   1   26529    1126  -4
  -6   7   1   26529    1126   1
  -5  -2  -1   81901    1611  -2
   5   2  -1   81901    1611  -3
   5  -7   1   81901    1611  -4
  -5   7   1   81901    1611   1
  -4  -3  -1   35813    1703  -2
   4   3  -1   35813    1703  -3
   4  -7   1   35813    1703  -4
  -4   7   1   35813    1703   1
  -3  -4  -1   93435    1971  -2
   3   4  -1   93435    1971  -3
   3  -7   1   93435    1971  -4
  -3   7   1   93435    1971   1
  -2  -5  -1   14360     708  -2
   2   5  -1   14360     708  -3
   2  -7   1   14360     708  -4
  -2   7   1   14360     708   1
  -1  -6  -1   29252    1254  -2
   1   6  -1   29252    1254  -3
   1  -7   1   29252    1254  -4
  -1   7   1   29252    1254   1
   0  -7  -1   44053    1796  -2
   0   7  -1   44053    1796  -3
   0  -7   1   44053    1796  -4
   0   7   1   44053    1796   1
   1  -8  -1  186490    4860  -2
  -1   8  -1  186490    4860  -3
  -1  -7   1  186490    4860  -4
   1   7   1  186490    4860   1
   2  -9  -1    7539     792  -2
  -2   9  -1    7539     792  -3
  -2  -7   1    7539     792  -4
   2   7   1    7539     792   1
  -8   0  -1   52734    2537  -2
   8   0  -1   52734    2537  -3
   8  -8   1   52734    2537  -4
  -8   8   1   52734    2537   1
  -7  -1  -1  172216    3723  -2
   7   1  -1  172216    3723  -3
   7  -8   1  172216    3723  -4
  -7   8   1  172216    3723   1
  -6  -2  -1  112399    2786  -2
   6   2  -1  112399    2786  -3
   6  -8   1  112399    2786  -4
  -6   8   1  112399    2786   1
  -5  -3  -1   56313    1935  -2
   5   3  -1   56313    1935  -3
   5  -8   1   56313    1935  -4
  -5   8   1   56313    1935   1
  -4  -4  -1   38003    1558  -2
   4   4  -1   38003    1558  -3
   4  -8   1   38003    1558  -4
  -4   8   1   38003    1558   1
  -3  -5  -1  163029    3089  -2
   3   5  -1  163029    3089  -3
   3  -8   1  163029    3089  -4
  -3   8   1  163029    3089   1
  -2  -6  -1  140140    3137  -2
   2   6  -1  140140    3137  -3
   2  -8   1  140140    3137  -4
  -2   8   1  140140    3137   1
  -1  -7  -1   96851    2852  -2
   1   7  -1   96851    2852  -3
   1  -8   1   96851    2852  -4
  -1   8   1   96851    2852   1
   0  -8  -1   28311    1671  -2
   0   8  -1   28311    1671  -3
   0  -8   1   28311    1671  -4
   0   8   1   28311    1671   1
  -7  -2  -1    7082     766  -2
   7   2  -1    7082     766  -3
   7  -9   1    7082     766  -4
  -7   9   1    7082     766   1
  -6  -3  -1   41446    1811  -2
   6   3  -1   41446    1811  -3
   6  -9   1   41446    1811  -4
  -6   9   1   41446    1811   1
  -5  -4  -1    4606     582  -2
   5   4  -1    4606     582  -3
   5  -9   1    4606     582  -4
  -5   9   1    4606     582   1
  -4  -5  -1   24197    1477  -2
   4   5  -1   24197    1477  -3
   4  -9   1   24197    1477  -4
  -4   9   1   24197    1477   1
  -3  -6  -1  102720    3172  -2
   3   6  -1  102720    3172  -3
   3  -9   1  102720    3172  -4
  -3   9   1  102720    3172   1
  -2  -7  -1    6522     879  -2
   2   7  -1    6522     879  -3
   2  -9   1    6522     879  -4
  -2   9   1    6522     879   1
   0   0  -2  814272   11131  -2
   0   0  -2  814272   11131  -3
   0   0   2  814272   11131  -4
   0   0   2  814272   11131   1
  -1   0  -2  370210    3587  -2
   1   0  -2  370210    3587  -3
   1  -1   2  370210    3587  -4
  -1   1   2  370210    3587   1
   0  -1  -2  142957    2244  -2
   0   1  -2  142957    2244  -3
   0  -1   2  142957    2244  -4
   0   1   2  142957    2244   1
   1  -2  -2 1721601   21553  -2
  -1   2  -2 1721601   21553  -3
  -1  -1   2 1721601   21553  -4
   1   1   2 1721601   21553   1
  -3   1  -2  713371    7698  -2
   3  -1  -2  713371    7698  -3
   3  -2   2  713371    7698  -4
  -3   2   2  713371    7698   1
  -2   0  -2 3692596   60157  -2
   2   0  -2 3692596   60157  -3
   2  -2   2 3692596   60157  -4
  -2   2   2 3692596   60157   1
  -1  -1  -2 1429382   20250  -2
   1   1  -2 1429382   20250  -3
   1  -2   2 1429382   20250  -4
  -1   2   2 1429382   20250   1
   0  -2  -2 1210512   17676  -2
   0   2  -2 1210512   17676  -3
   0  -2   2 1210512   17676  -4
   0   2   2 1210512   17676   1
   1  -3  -2  176746    4238  -2
  -1   3  -2  176746    4238  -3
  -1  -2   2  176746    4238  -4
   1   2   2  176746    4238   1
   2  -4  -2  243782    3253  -2
  -2   4  -2  243782    3253  -3
  -2  -2   2  243782    3253  -4
   2   2   2  243782    3253   1
  -5   2  -2  196613    4399  -2
   5  -2  -2  196613    4399  -3
   5  -3   2  196613    4399  -4
  -5   3   2  196613    4399   1
  -4   1  -2  237961    2489  -2
   4  -1  -2  237961    2489  -3
   4  -3   2  237961    2489  -4
  -4   3   2  237961    2489   1
  -3   0  -2  892595   11552  -2
   3   0  -2  892595   11552  -3
   3  -3   2  892595   11552  -4
  -3   3   2  892595   11552   1
  -2  -1  -2  329435    4773  -2
   2   1  -2  329435    4773  -3
   2  -3   2  329435    4773  -4
  -2   3   2  329435    4773   1
  -1  -2  -2  329346    5345  -2
   1   2  -2  329346    5345  -3
   1  -3   2  329346    5345  -4
  -1   3   2  329346    5345   1
   0  -3  -2  761249    8957  -2
   0   3  -2  761249    8957  -3
   0  -3   2  761249    8957  -4
   0   3   2  761249    8957   1
   1  -4  -2  183046    6077  -2
  -1   4  -2  183046    6077  -3
  -1  -3   2  183046    6077  -4
   1   3   2  183046    6077   1
   2  -5  -2   45510    2487  -2
  -2   5  -2   45510    2487  -3
  -2  -3   2   45510    2487  -4
   2   3   2   45510    2487   1
   3  -6  -2  760757   13013  -2
  -3   6  -2  760757   13013  -3
  -3  -3   2  760757   13013  -4
   3   3   2  760757   13013   1
  -7   3  -2  348208   10121  -2
   7  -3  -2  348208   10121  -3
   7  -4   2  348208   10121  -4
  -7   4   2  348208   10121   1
  -6   2  -2  879133   12311  -2
   6  -2  -2  879133   12311  -3
   6  -4   2  879133   12311  -4
  -6   4   2  879133   12311   1
  -5   1  -2  472552    5773  -2
   5  -1  -2  472552    5773  -3
   5  -4   2  472552    5773  -4
  -5   4   2  472552    5773   1
  -4   0  -2  511635   10144  -2
   4   0  -2  511635   10144  -3
   4  -4   2  511635   10144  -4
  -4   4   2  511635   10144   1
  -3  -1  -2  107960    4560  -2
   3   1  -2  107960    4560  -3
   3  -4   2  107960    4560  -4
  -3   4   2  107960    4560   1
  -2  -2  -2  256641    4069  -2
   2   2  -2  256641    4069  -3
   2  -4   2  256641    4069  -4
  -2   4   2  256641    4069   1
  -1  -3  -2  656128    9066  -2
   1   3  -2  656128    9066  -3
   1  -4   2  656128    9066  -4
  -1   4   2  656128    9066   1
   0  -4  -2 1610364   15189  -2
   0   4  -2 1610364   15189  -3
   0  -4   2 1610364   15189  -4
   0   4   2 1610364   15189   1
   1  -5  -2  446327    7784  -2
  -1   5  -2  446327    7784  -3
  -1  -4   2  446327    7784  -4
   1   4   2  446327    7784   1
   2  -6  -2  371029    4642  -2
  -2   6  -2  371029    4642  -3
  -2  -4   2  371029    4642  -4
   2   4   2  371029    4642   1
   3  -7  -2  117324    3703  -2
  -3   7  -2  117324    3703  -3
  -3  -4   2  117324    3703  -4
   3   4   2  117324    3703   1
   4  -8  -2   13854    1588  -2
  -4   8  -2   13854    1588  -3
  -4  -4   2   13854    1588  -4
   4   4   2   13854    1588   1
  -9   4  -2   77905    2925  -2
   9  -4  -2   77905    2925  -3
   9  -5   2   77905    2925  -4
  -9   5   2   77905    2925   1
  -8   3  -2  114865    3451  -2
   8  -3  -2  114865    3451  -3
   8  -5   2  114865    3451  -4
  -8   5   2  114865    3451   1
  -7   2  -2  108495    2260  -2
   7  -2  -2  108495    2260  -3
   7  -5   2  108495    2260  -4
  -7   5   2  108495    2260   1
  -6   1  -2  153964    4134  -2
   6  -1  -2  153964    4134  -3
   6  -5   2  153964    4134  -4
  -6   5   2  153964    4134   1
  -5   0  -2  242862    3748  -2
   5   0  -2  242862    3748  -3
   5  -5   2  242862    3748  -4
  -5   5   2  242862    3748   1
  -4  -1  -2  557670    5345  -2
   4   1  -2  557670    5345  -3
   4  -5   2  557670    5345  -4
  -4   5   2  557670    5345   1
  -3  -2  -2   64863    1767  -2
   3   2  -2   64863    1767  -3
   3  -5   2   64863    1767  -4
  -3   5   2   64863    1767   1
  -2  -3  -2  128745    2607  -2
   2   3  -2  128745    2607  -3
   2  -5   2  128745    2607  -4
  -2   5   2  128745    2607   1
  -1  -4  -2  773126    9845  -2
   1   4  -2  773126    9845  -3
   1  -5   2  773126    9845  -4
  -1   5   2  773126    9845   1
   0  -5  -2  333292    4320  -2
   0   5  -2  333292    4320  -3
   0  -5   2  333292    4320  -4
   0   5   2  333292    4320   1
   1  -6  -2  180475    3206  -2
  -1   6  -2  180475    3206  -3
  -1  -5   2  180475    3206  -4
   1   5   2  180475    3206   1
   2  -7  -2  107941    2527  -2
  -2   7  -2  107941    2527  -3
  -2  -5   2  107941    2527  -4
   2   5   2  107941    2527   1
   3  -8  -2  135220    4907  -2
  -3   8  -2  135220    4907  -3
  -3  -5   2  135220    4907  -4
   3   5   2  135220    4907   1
   4  -9  -2   28917    2054  -2
  -4   9  -2   28917    2054  -3
  -4  -5   2   28917    2054  -4
   4   5   2   28917    2054   1
  -9   3  -2   95300    3222  -2
   9  -3  -2   95300    3222  -3
   9  -6   2   95300    3222  -4
  -9   6   2   95300    3222   1
  -8   2  -2  117381    3315  -2
   8  -2  -2  117381    3315  -3
   8  -6   2  117381    3315  -4
  -8   6   2  117381    3315   1
  -7   1  -2   72286    1843  -2
   7  -1  -2   72286    1843  -3
   7  -6   2   72286    1843  -4
  -7   6   2   72286    1843   1
  -6   0  -2   26919     914  -2
   6   0  -2   26919     914  -3
   6  -6   2   26919     914  -4
  -6   6   2   26919     914   1
  -5  -1  -2  543070    9178  -2
   5   1  -2  543070    9178  -3
   5  -6   2  543070    9178  -4
  -5   6   2  543070    9178   1
  -4  -2  -2  949748   13648  -2
   4   2  -2  949748   13648  -3
   4  -6   2  949748   13648  -4
  -4   6   2  949748   13648   1
  -3  -3  -2  454144    7667  -2
   3   3  -2  454144    7667  -3
   3  -6   2  454144    7667  -4
  -3   6   2  454144    7667   1
  -2  -4  -2  341927    6656  -2
   2   4  -2  341927    6656  -3
   2  -6   2  341927    6656  -4
  -2   6   2  341927    6656   1
  -1  -5  -2   69786    3045  -2
   1   5  -2   69786    3045  -3
   1  -6   2   69786    3045  -4
  -1   6   2   69786    3045   1
   0  -6  -2   34845    1113  -2
   0   6  -2   34845    1113  -3
   0  -6   2   34845    1113  -4
   0   6   2   34845    1113   1
   1  -7  -2  228957    5664  -2
  -1   7  -2  228957    5664  -3
  -1  -6   2  228957    5664  -4
   1   6   2  228957    5664   1
   2  -8  -2  239349    5387  -2
  -2   8  -2  239349    5387  -3
  -2  -6   2  239349    5387  -4
   2   6   2  239349    5387   1
   3  -9  -2   76159    2903  -2
  -3   9  -2   76159    2903  -3
  -3  -6   2   76159    2903  -4
   3   6   2   76159    2903   1
  -9   2  -2  151089    4827  -2
   9  -2  -2  151089    4827  -3
   9  -7   2  151089    4827  -4
  -9   7   2  151089    4827   1
  -8   1  -2  242930    5560  -2
   8  -1  -2  242930    5560  -3
   8  -7   2  242930    5560  -4
  -8   7   2  242930    5560   1
  -7   0  -2   34648    1454  -2
   7   0  -2   34648    1454  -3
   7  -7   2   34648    1454  -4
  -7   7   2   34648    1454   1
  -6  -1  -2  119770    2226  -2
   6   1  -2  119770    2226  -3
   6  -7   2  119770    2226  -4
  -6   7   2  119770    2226   1
  -5  -2  -2  191315    3655  -2
   5   2  -2  191315    3655  -3
   5  -7   2  191315    3655  -4
  -5   7   2  191315    3655   1
  -4  -3  -2  148906    4428  -2
   4   3  -2  148906    4428  -3
   4  -7   2  148906    4428  -4
  -4   7   2  148906    4428   1
  -3  -4  -2  187672    2807  -2
   3   4  -2  187672    2807  -3
   3  -7   2  187672    2807  -4
  -3   7   2  187672    2807   1
  -2  -5  -2   96350    1828  -2
   2   5  -2   96350    1828  -3
   2  -7   2   96350    1828  -4
  -2   7   2   96350    1828   1
  -1  -6  -2   96627    3078  -2
   1   6  -2   96627    3078  -3
   1  -7   2   96627    3078  -4
  -1   7   2   96627    3078   1
   0  -7  -2   59431    2098  -2
   0   7  -2   59431    2098  -3
   0  -7   2   59431    2098  -4
   0   7   2   59431    2098   1
   1  -8  -2  356170    8088  -2
  -1   8  -2  356170    8088  -3
  -1  -7   2  356170    8088  -4
   1   7   2  356170    8088   1
   2  -9  -2  136808    3718  -2
  -2   9  -2  136808    3718  -3
  -2  -7   2  136808    3718  -4
   2   7   2  136808    3718   1
  -8   0  -2  239900    5582  -2
   8   0  -2  239900    5582  -3
   8  -8   2  239900    5582  -4
  -8   8   2  239900    5582   1
  -7  -1  -2  171088    4136  -2
   7   1  -2  171088    4136  -3
   7  -8   2  171088    4136  -4
  -7   8   2  171088    4136   1
  -6  -2  -2   79866    2480  -2
   6   2  -2   79866    2480  -3
   6  -8   2   79866    2480  -4
  -6   8   2   79866    2480   1
  -5  -3  -2   86345    2330  -2
   5   3  -2   86345    2330  -3
   5  -8   2   86345    2330  -4
  -5   8   2   86345    2330   1
  -4  -4  -2    7043     660  -2
   4   4  -2    7043     660  -3
   4  -8   2    7043     660  -4
  -4   8   2    7043     660   1
  -3  -5  -2  338002    8208  -2
   3   5  -2  338002    8208  -3
   3  -8   2  338002    8208  -4
  -3   8   2  338002    8208   1
  -2  -6  -2  271924    4956  -2
   2   6  -2  271924    4956  -3
   2  -8   2  271924    4956  -4
  -2   8   2  271924    4956   1
  -1  -7  -2  168450    4338  -2
   1   7  -2  168450    4338  -3
   1  -8   2  168450    4338  -4
  -1   8   2  168450    4338   1
   0  -8  -2  140206    4068  -2
   0   8  -2  140206    4068  -3
   0  -8   2  140206    4068  -4
   0   8   2  140206    4068   1
  -7  -2  -2  141108    3746  -2
   7   2  -2  141108    3746  -3
   7  -9   2  141108    3746  -4
  -7   9   2  141108    3746   1
  -6  -3  -2   75334    2452  -2
   6   3  -2   75334    2452  -3
   6  -9   2   75334    2452  -4
  -6   9   2   75334    2452   1
  -5  -4  -2   25205    1381  -2
   5   4  -2   25205    1381  -3
   5  -9   2   25205    1381  -4
  -5   9   2   25205    1381   1
  -4  -5  -2   84121    2799  -2
   4   5  -2   84121    2799  -3
   4  -9   2   84121    2799  -4
  -4   9   2   84121    2799   1
  -3  -6  -2  197040    5127  -2
   3   6  -2  197040    5127  -3
   3  -9   2  197040    5127  -4
  -3   9   2  197040    5127   1
  -2  -7  -2  109477    3804  -2
   2   7  -2  109477    3804  -3
   2  -9   2  109477    3804  -4
  -2   9   2  109477    3804   1
   0   0  -3  606549    9008  -2
   0   0  -3  606549    9008  -3
   0   0   3  606549    9008  -4
   0   0   3  606549    9008   1
  -1   0  -3  231635    2968  -2
   1   0  -3  231635    2968  -3
   1  -1   3  231635    2968  -4
  -1   1   3  231635    2968   1
   0  -1  -3  104544    1864  -2
   0   1  -3  104544    1864  -3
   0  -1   3  104544    1864  -4
   0   1   3  104544    1864   1
   1  -2  -3   67530    2576  -2
  -1   2  -3   67530    2576  -3
  -1  -1   3   67530    2576  -4
   1   1   3   67530    2576   1
  -3   1  -3  173583    1994  -2
   3  -1  -3  173583    1994  -3
   3  -2   3  173583    1994  -4
  -3   2   3  173583    1994   1
  -2   0  -3  457582   10206  -2
   2   0  -3  457582   10206  -3
   2  -2   3  457582   10206  -4
  -2   2   3  457582   10206   1
  -1  -1  -3  186956    3802  -2
   1   1  -3  186956    3802  -3
   1  -2   3  186956    3802  -4
  -1   2   3  186956    3802   1
   0  -2  -3 1666381   20148  -2
   0   2  -3 1666381   20148  -3
   0  -2   3 1666381   20148  -4
   0   2   3 1666381   20148   1
   1  -3  -3   98369    3185  -2
  -1   3  -3   98369    3185  -3
  -1  -2   3   98369    3185  -4
   1   2   3   98369    3185   1
   2  -4  -3  216733    2377  -2
  -2   4  -3  216733    2377  -3
  -2  -2   3  216733    2377  -4
   2   2   3  216733    2377   1
  -5   2  -3   11299     520  -2
   5  -2  -3   11299     520  -3
   5  -3   3   11299     520  -4
  -5   3   3   11299     520   1
  -4   1  -3  285096    5018  -2
   4  -1  -3  285096    5018  -3
   4  -3   3  285096    5018  -4
  -4   3   3  285096    5018   1
  -3   0  -3    9936     625  -2
   3   0  -3    9936     625  -3
   3  -3   3    9936     625  -4
  -3   3   3    9936     625   1
  -2  -1  -3  150320    2253  -2
   2   1  -3  150320    2253  -3
   2  -3   3  150320    2253  -4
  -2   3   3  150320    2253   1
  -1  -2  -3  259867    3827  -2
   1   2  -3  259867    3827  -3
   1  -3   3  259867    3827  -4
  -1   3   3  259867    3827   1
   0  -3  -3   86191    1102  -2
   0   3  -3   86191    1102  -3
   0  -3   3   86191    1102  -4
   0   3   3   86191    1102   1
   1  -4  -3  150821    1825  -2
  -1   4  -3  150821    1825  -3
  -1  -3   3  150821    1825  -4
   1   3   3  150821    1825   1
   2  -5  -3   10805     479  -2
  -2   5  -3   10805     479  -3
  -2  -3   3   10805     479  -4
   2   3   3   10805     479   1
   3  -6  -3  138372    5996  -2
  -3   6  -3  138372    5996  -3
  -3  -3   3  138372    5996  -4
   3   3   3  138372    5996   1
  -7   3  -3   32871    1393  -2
   7  -3  -3   32871    1393  -3
   7  -4   3   32871    1393  -4
  -7   4   3   32871    1393   1
  -6   2  -3   97176    3025  -2
   6  -2  -3   97176    3025  -3
   6  -4   3   97176    3025  -4
  -6   4   3   97176    3025   1
  -5   1  -3  300044    7438  -2
   5  -1  -3  300044    7438  -3
   5  -4   3  300044    7438  -4
  -5   4   3  300044    7438   1
  -4   0  -3  856718   15202  -2
   4   0  -3  856718   15202  -3
   4  -4   3  856718   15202  -4
  -4   4   3  856718   15202   1
  -3  -1  -3  104586    2616  -2
   3   1  -3  104586    2616  -3
   3  -4   3  104586    2616  -4
  -3   4   3  104586    2616   1
  -2  -2  -3  233480    3229  -2
   2   2  -3  233480    3229  -3
   2  -4   3  233480    3229  -4
  -2   4   3  233480    3229   1
  -1  -3  -3  128928    1700  -2
   1   3  -3  128928    1700  -3
   1  -4   3  128928    1700  -4
  -1   4   3  128928    1700   1
   0  -4  -3  221503    4812  -2
   0   4  -3  221503    4812  -3
   0  -4   3  221503    4812  -4
   0   4   3  221503    4812   1
   1  -5  -3  122966    1746  -2
  -1   5  -3  122966    1746  -3
  -1  -4   3  122966    1746  -4
   1   4   3  122966    1746   1
   2  -6  -3  455306    7264  -2
  -2   6  -3  455306    7264  -3
  -2  -4   3  455306    7264  -4
   2   4   3  455306    7264   1
   3  -7  -3   50546    3449  -2
  -3   7  -3   50546    3449  -3
  -3  -4   3   50546    3449  -4
   3   4   3   50546    3449   1
   4  -8  -3   14655    1189  -2
  -4   8  -3   14655    1189  -3
  -4  -4   3   14655    1189  -4
   4   4   3   14655    1189   1
  -9   4  -3   28510    1793  -2
   9  -4  -3   28510    1793  -3
   9  -5   3   28510    1793  -4
  -9   5   3   28510    1793   1
  -8   3  -3  210474    4584  -2
   8  -3  -3  210474    4584  -3
   8  -5   3  210474    4584  -4
  -8   5   3  210474    4584   1
  -7   2  -3   11485     921  -2
   7  -2  -3   11485     921  -3
   7  -5   3   11485     921  -4
  -7   5   3   11485     921   1
  -6   1  -3   76450    2750  -2
   6  -1  -3   76450    2750  -3
   6  -5   3   76450    2750  -4
  -6   5   3   76450    2750   1
  -5   0  -3   49021    1369  -2
   5   0  -3   49021    1369  -3
   5  -5   3   49021    1369  -4
  -5   5   3   49021    1369   1
  -4  -1  -3   86180    2338  -2
   4   1  -3   86180    2338  -3
   4  -5   3   86180    2338  -4
  -4   5   3   86180    2338   1
  -3  -2  -3   23904     918  -2
   3   2  -3   23904     918  -3
   3  -5   3   23904     918  -4
  -3   5   3   23904     918   1
  -2  -3  -3   24638     820  -2
   2   3  -3   24638     820  -3
   2  -5   3   24638     820  -4
  -2   5   3   24638     820   1
  -1  -4  -3   79175    2325  -2
   1   4  -3   79175    2325  -3
   1  -5   3   79175    2325  -4
  -1   5   3   79175    2325   1
   0  -5  -3   10505     517  -2
   0   5  -3   10505     517  -3
   0  -5   3   10505     517  -4
   0   5   3   10505     517   1
   1  -6  -3  393583    9523  -2
  -1   6  -3  393583    9523  -3
  -1  -5   3  393583    9523  -4
   1   5   3  393583    9523   1
   2  -7  -3   77093    3310  -2
  -2   7  -3   77093    3310  -3
  -2  -5   3   77093    3310  -4
   2   5   3   77093    3310   1
   3  -8  -3   62827    2477  -2
  -3   8  -3   62827    2477  -3
  -3  -5   3   62827    2477  -4
   3   5   3   62827    2477   1
   4  -9  -3    5295     760  -2
  -4   9  -3    5295     760  -3
  -4  -5   3    5295     760  -4
   4   5   3    5295     760   1
  -9   3  -3  122878    3745  -2
   9  -3  -3  122878    3745  -3
   9  -6   3  122878    3745  -4
  -9   6   3  122878    3745   1
  -8   2  -3  151595    3877  -2
   8  -2  -3  151595    3877  -3
   8  -6   3  151595    3877  -4
  -8   6   3  151595    3877   1
  -7   1  -3   37225    1780  -2
   7  -1  -3   37225    1780  -3
   7  -6   3   37225    1780  -4
  -7   6   3   37225    1780   1
  -6   0  -3   65794    1639  -2
   6   0  -3   65794    1639  -3
   6  -6   3   65794    1639  -4
  -6   6   3   65794    1639   1
  -5  -1  -3  108963    1944  -2
   5   1  -3  108963    1944  -3
   5  -6   3  108963    1944  -4
  -5   6   3  108963    1944   1
  -4  -2  -3   85867    5215  -2
   4   2  -3   85867    5215  -3
   4  -6   3   85867    5215  -4
  -4   6   3   85867    5215   1
  -3  -3  -3  342591    5586  -2
   3   3  -3  342591    5586  -3
   3  -6   3  342591    5586  -4
  -3   6   3  342591    5586   1
  -2  -4  -3  438043    6706  -2
   2   4  -3  438043    6706  -3
   2  -6   3  438043    6706  -4
  -2   6   3  438043    6706   1
  -1  -5  -3  125412    5236  -2
   1   5  -3  125412    5236  -3
   1  -6   3  125412    5236  -4
  -1   6   3  125412    5236   1
   0  -6  -3   28810     940  -2
   0   6  -3   28810     940  -3
   0  -6   3   28810     940  -4
   0   6   3   28810     940   1
   1  -7  -3   14696    1010  -2
  -1   7  -3   14696    1010  -3
  -1  -6   3   14696    1010  -4
   1   6   3   14696    1010   1
   2  -8  -3   36110    1896  -2
  -2   8  -3   36110    1896  -3
  -2  -6   3   36110    1896  -4
   2   6   3   36110    1896   1
   3  -9  -3   24488    1654  -2
  -3   9  -3   24488    1654  -3
  -3  -6   3   24488    1654  -4
   3   6   3   24488    1654   1
  -8   1  -3   71905    3079  -2
   8  -1  -3   71905    3079  -3
   8  -7   3   71905    3079  -4
  -8   7   3   71905    3079   1
  -7   0  -3   18763    1332  -2
   7   0  -3   18763    1332  -3
   7  -7   3   18763    1332  -4
  -7   7   3   18763    1332   1
  -6  -1  -3   75023    2415  -2
   6   1  -3   75023    2415  -3
   6  -7   3   75023    2415  -4
  -6   7   3   75023    2415   1
  -5  -2  -3   20101     894  -2
   5   2  -3   20101     894  -3
   5  -7   3   20101     894  -4
  -5   7   3   20101     894   1
  -4  -3  -3   16706     973  -2
   4   3  -3   16706     973  -3
   4  -7   3   16706     973  -4
  -4   7   3   16706     973   1
  -3  -4  -3  180313    3737  -2
   3   4  -3  180313    3737  -3
   3  -7   3  180313    3737  -4
  -3   7   3  180313    3737   1
  -2  -5  -3   24953    1048  -2
   2   5  -3   24953    1048  -3
   2  -7   3   24953    1048  -4
  -2   7   3   24953    1048   1
  -1  -6  -3   36419    1393  -2
   1   6  -3   36419    1393  -3
   1  -7   3   36419    1393  -4
  -1   7   3   36419    1393   1
   0  -7  -3    3947     568  -2
   0   7  -3    3947     568  -3
   0  -7   3    3947     568  -4
   0   7   3    3947     568   1
   1  -8  -3   65628    3270  -2
  -1   8  -3   65628    3270  -3
  -1  -7   3   65628    3270  -4
   1   7   3   65628    3270   1
  -8   0  -3    8961    1223  -2
   8   0  -3    8961    1223  -3
   8  -8   3    8961    1223  -4
  -8   8   3    8961    1223   1
  -7  -1  -3  240059    5041  -2
   7   1  -3  240059    5041  -3
   7  -8   3  240059    5041  -4
  -7   8   3  240059    5041   1
  -6  -2  -3  146831    3823  -2
   6   2  -3  146831    3823  -3
   6  -8   3  146831    3823  -4
  -6   8   3  146831    3823   1
  -5  -3  -3   81203    2299  -2
   5   3  -3   81203    2299  -3
   5  -8   3   81203    2299  -4
  -5   8   3   81203    2299   1
  -4  -4  -3   30893    1310  -2
   4   4  -3   30893    1310  -3
   4  -8   3   30893    1310  -4
  -4   8   3   30893    1310   1
  -3  -5  -3   48378    1599  -2
   3   5  -3   48378    1599  -3
   3  -8   3   48378    1599  -4
  -3   8   3   48378    1599   1
  -2  -6  -3   26236    2176  -2
   2   6  -3   26236    2176  -3
   2  -8   3   26236    2176  -4
  -2   8   3   26236    2176   1
  -1  -7  -3  115890    3431  -2
   1   7  -3  115890    3431  -3
   1  -8   3  115890    3431  -4
  -1   8   3  115890    3431   1
   0  -8  -3   73267    2990  -2
   0   8  -3   73267    2990  -3
   0  -8   3   73267    2990  -4
   0   8   3   73267    2990   1
  -6  -3  -3   33335    1717  -2
   6   3  -3   33335    1717  -3
   6  -9   3   33335    1717  -4
  -6   9   3   33335    1717   1
  -5  -4  -3    8804     889  -2
   5   4  -3    8804     889  -3
   5  -9   3    8804     889  -4
  -5   9   3    8804     889   1
  -4  -5  -3    3264     596  -2
   4   5  -3    3264     596  -3
   4  -9   3    3264     596  -4
  -4   9   3    3264     596   1
  -3  -6  -3   24810    1867  -2
   3   6  -3   24810    1867  -3
   3  -9   3   24810    1867  -4
  -3   9   3   24810    1867   1
   0   0  -4 2758218  123456  -2
   0   0  -4 2758218  123456  -3
   0   0   4 2758218  123456  -4
   0   0   4 2758218  123456   1
  -1   0  -4  536296   12763  -2
   1   0  -4  536296   12763  -3
   1  -1   4  536296   12763  -4
  -1   1   4  536296   12763   1
   0  -1  -4 1079960   15899  -2
   0   1  -4 1079960   15899  -3
   0  -1   4 1079960   15899  -4
   0   1   4 1079960   15899   1
   1  -2  -4   31427    1120  -2
  -1   2  -4   31427    1120  -3
  -1  -1   4   31427    1120  -4
   1   1   4   31427    1120   1
  -3   1  -4  196078    8691  -2
   3  -1  -4  196078    8691  -3
   3  -2   4  196078    8691  -4
  -3   2   4  196078    8691   1
  -2   0  -4  296187    5601  -2
   2   0  -4  296187    5601  -3
   2  -2   4  296187    5601  -4
  -2   2   4  296187    5601   1
  -1  -1  -4   82341    1227  -2
   1   1  -4   82341    1227  -3
   1  -2   4   82341    1227  -4
  -1   2   4   82341    1227   1
   0  -2  -4  649441    8497  -2
   0   2  -4  649441    8497  -3
   0  -2   4  649441    8497  -4
   0   2   4  649441    8497   1
   1  -3  -4  661617    9001  -2
  -1   3  -4  661617    9001  -3
  -1  -2   4  661617    9001  -4
   1   2   4  661617    9001   1
   2  -4  -4 1372093   20276  -2
  -2   4  -4 1372093   20276  -3
  -2  -2   4 1372093   20276  -4
   2   2   4 1372093   20276   1
  -5   2  -4  253937    6274  -2
   5  -2  -4  253937    6274  -3
   5  -3   4  253937    6274  -4
  -5   3   4  253937    6274   1
  -4   1  -4  604577   10171  -2
   4  -1  -4  604577   10171  -3
   4  -3   4  604577   10171  -4
  -4   3   4  604577   10171   1
  -3   0  -4   44677    1049  -2
   3   0  -4   44677    1049  -3
   3  -3   4   44677    1049  -4
  -3   3   4   44677    1049   1
  -2  -1  -4  383086    5635  -2
   2   1  -4  383086    5635  -3
   2  -3   4  383086    5635  -4
  -2   3   4  383086    5635   1
  -1  -2  -4  603349    8480  -2
   1   2  -4  603349    8480  -3
   1  -3   4  603349    8480  -4
  -1   3   4  603349    8480   1
   0  -3  -4   85657    1333  -2
   0   3  -4   85657    1333  -3
   0  -3   4   85657    1333  -4
   0   3   4   85657    1333   1
   1  -4  -4  632806   14855  -2
  -1   4  -4  632806   14855  -3
  -1  -3   4  632806   14855  -4
   1   3   4  632806   14855   1
   2  -5  -4  519743   10801  -2
  -2   5  -4  519743   10801  -3
  -2  -3   4  519743   10801  -4
   2   3   4  519743   10801   1
   3  -6  -4   72539    1816  -2
  -3   6  -4   72539    1816  -3
  -3  -3   4   72539    1816  -4
   3   3   4   72539    1816   1
  -7   3  -4   41510    3291  -2
   7  -3  -4   41510    3291  -3
   7  -4   4   41510    3291  -4
  -7   4   4   41510    3291   1
  -6   2  -4   50691    1776  -2
   6  -2  -4   50691    1776  -3
   6  -4   4   50691    1776  -4
  -6   4   4   50691    1776   1
  -5   1  -4  106843    2341  -2
   5  -1  -4  106843    2341  -3
   5  -4   4  106843    2341  -4
  -5   4   4  106843    2341   1
  -4   0  -4  379681    4360  -2
   4   0  -4  379681    4360  -3
   4  -4   4  379681    4360  -4
  -4   4   4  379681    4360   1
  -3  -1  -4  874396    9216  -2
   3   1  -4  874396    9216  -3
   3  -4   4  874396    9216  -4
  -3   4   4  874396    9216   1
  -2  -2  -4 1330915   17687  -2
   2   2  -4 1330915   17687  -3
   2  -4   4 1330915   17687  -4
  -2   4   4 1330915   17687   1
  -1  -3  -4  250785    9279  -2
   1   3  -4  250785    9279  -3
   1  -4   4  250785    9279  -4
  -1   4   4  250785    9279   1
   0  -4  -4  126521    2911  -2
   0   4  -4  126521    2911  -3
   0  -4   4  126521    2911  -4
   0   4   4  126521    2911   1
   1  -5  -4  131234    4279  -2
  -1   5  -4  131234    4279  -3
  -1  -4   4  131234    4279  -4
   1   4   4  131234    4279   1
   2  -6  -4  190097    3099  -2
  -2   6  -4  190097    3099  -3
  -2  -4   4  190097    3099  -4
   2   4   4  190097    3099   1
   3  -7  -4  116178    2770  -2
  -3   7  -4  116178    2770  -3
  -3  -4   4  116178    2770  -4
   3   4   4  116178    2770   1
   4  -8  -4  293898    5986  -2
  -4   8  -4  293898    5986  -3
  -4  -4   4  293898    5986  -4
   4   4   4  293898    5986   1
  -8   3  -4  224275    4692  -2
   8  -3  -4  224275    4692  -3
   8  -5   4  224275    4692  -4
  -8   5   4  224275    4692   1
  -7   2  -4   90057    2796  -2
   7  -2  -4   90057    2796  -3
   7  -5   4   90057    2796  -4
  -7   5   4   90057    2796   1
  -6   1  -4  331117    9039  -2
   6  -1  -4  331117    9039  -3
   6  -5   4  331117    9039  -4
  -6   5   4  331117    9039   1
  -5   0  -4  131069    2791  -2
   5   0  -4  131069    2791  -3
   5  -5   4  131069    2791  -4
  -5   5   4  131069    2791   1
  -4  -1  -4   38333    1513  -2
   4   1  -4   38333    1513  -3
   4  -5   4   38333    1513  -4
  -4   5   4   38333    1513   1
  -3  -2  -4  454805    8828  -2
   3   2  -4  454805    8828  -3
   3  -5   4  454805    8828  -4
  -3   5   4  454805    8828   1
  -2  -3  -4  394023    3853  -2
   2   3  -4  394023    3853  -3
   2  -5   4  394023    3853  -4
  -2   5   4  394023    3853   1
  -1  -4  -4   61922    1923  -2
   1   4  -4   61922    1923  -3
   1  -5   4   61922    1923  -4
  -1   5   4   61922    1923   1
   0  -5  -4   69848    1319  -2
   0   5  -4   69848    1319  -3
   0  -5   4   69848    1319  -4
   0   5   4   69848    1319   1
   1  -6  -4  290630    5034  -2
  -1   6  -4  290630    5034  -3
  -1  -5   4  290630    5034  -4
   1   5   4  290630    5034   1
   2  -7  -4  105021    2695  -2
  -2   7  -4  105021    2695  -3
  -2  -5   4  105021    2695  -4
   2   5   4  105021    2695   1
   3  -8  -4  318200    9545  -2
  -3   8  -4  318200    9545  -3
  -3  -5   4  318200    9545  -4
   3   5   4  318200    9545   1
  -8   2  -4  118724    4336  -2
   8  -2  -4  118724    4336  -3
   8  -6   4  118724    4336  -4
  -8   6   4  118724    4336   1
  -7   1  -4  389824    7751  -2
   7  -1  -4  389824    7751  -3
   7  -6   4  389824    7751  -4
  -7   6   4  389824    7751   1
  -6   0  -4  395865    5869  -2
   6   0  -4  395865    5869  -3
   6  -6   4  395865    5869  -4
  -6   6   4  395865    5869   1
  -5  -1  -4  126461    3868  -2
   5   1  -4  126461    3868  -3
   5  -6   4  126461    3868  -4
  -5   6   4  126461    3868   1
  -4  -2  -4   57174    1854  -2
   4   2  -4   57174    1854  -3
   4  -6   4   57174    1854  -4
  -4   6   4   57174    1854   1
  -3  -3  -4  119701    2249  -2
   3   3  -4  119701    2249  -3
   3  -6   4  119701    2249  -4
  -3   6   4  119701    2249   1
  -2  -4  -4  224244    3650  -2
   2   4  -4  224244    3650  -3
   2  -6   4  224244    3650  -4
  -2   6   4  224244    3650   1
  -1  -5  -4  412810    8683  -2
   1   5  -4  412810    8683  -3
   1  -6   4  412810    8683  -4
  -1   6   4  412810    8683   1
   0  -6  -4  462291   10032  -2
   0   6  -4  462291   10032  -3
   0  -6   4  462291   10032  -4
   0   6   4  462291   10032   1
   1  -7  -4  131663   12782  -2
  -1   7  -4  131663   12782  -3
  -1  -6   4  131663   12782  -4
   1   6   4  131663   12782   1
   2  -8  -4   16074    1798  -2
  -2   8  -4   16074    1798  -3
  -2  -6   4   16074    1798  -4
   2   6   4   16074    1798   1
  -8   1  -4   25836    1865  -2
   8  -1  -4   25836    1865  -3
   8  -7   4   25836    1865  -4
  -8   7   4   25836    1865   1
  -7   0  -4  164661    3938  -2
   7   0  -4  164661    3938  -3
   7  -7   4  164661    3938  -4
  -7   7   4  164661    3938   1
  -6  -1  -4  203258    4317  -2
   6   1  -4  203258    4317  -3
   6  -7   4  203258    4317  -4
  -6   7   4  203258    4317   1
  -5  -2  -4   35505    1604  -2
   5   2  -4   35505    1604  -3
   5  -7   4   35505    1604  -4
  -5   7   4   35505    1604   1
  -4  -3  -4  130175    3505  -2
   4   3  -4  130175    3505  -3
   4  -7   4  130175    3505  -4
  -4   7   4  130175    3505   1
  -3  -4  -4  121267    2935  -2
   3   4  -4  121267    2935  -3
   3  -7   4  121267    2935  -4
  -3   7   4  121267    2935   1
  -2  -5  -4   97185    2207  -2
   2   5  -4   97185    2207  -3
   2  -7   4   97185    2207  -4
  -2   7   4   97185    2207   1
  -1  -6  -4  355703   10017  -2
   1   6  -4  355703   10017  -3
   1  -7   4  355703   10017  -4
  -1   7   4  355703   10017   1
   0  -7  -4   93397    3949  -2
   0   7  -4   93397    3949  -3
   0  -7   4   93397    3949  -4
   0   7   4   93397    3949   1
   1  -8  -4   58907    2540  -2
  -1   8  -4   58907    2540  -3
  -1  -7   4   58907    2540  -4
   1   7   4   58907    2540   1
  -7  -1  -4   59064    2602  -2
   7   1  -4   59064    2602  -3
   7  -8   4   59064    2602  -4
  -7   8   4   59064    2602   1
  -6  -2  -4  157833    4383  -2
   6   2  -4  157833    4383  -3
   6  -8   4  157833    4383  -4
  -6   8   4  157833    4383   1
  -5  -3  -4  367009   10961  -2
   5   3  -4  367009   10961  -3
   5  -8   4  367009   10961  -4
  -5   8   4  367009   10961   1
  -4  -4  -4  233902    5310  -2
   4   4  -4  233902    5310  -3
   4  -8   4  233902    5310  -4
  -4   8   4  233902    5310   1
  -3  -5  -4  127505    7038  -2
   3   5  -4  127505    7038  -3
   3  -8   4  127505    7038  -4
  -3   8   4  127505    7038   1
  -2  -6  -4   16750    2443  -2
   2   6  -4   16750    2443  -3
   2  -8   4   16750    2443  -4
  -2   8   4   16750    2443   1
  -1  -7  -4   75881    3134  -2
   1   7  -4   75881    3134  -3
   1  -8   4   75881    3134  -4
  -1   8   4   75881    3134   1
   0   0  -5  857157   18486  -2
   0   0  -5  857157   18486  -3
   0   0   5  857157   18486  -4
   0   0   5  857157   18486   1
  -1   0  -5  163640    3220  -2
   1   0  -5  163640    3220  -3
   1  -1   5  163640    3220  -4
  -1   1   5  163640    3220   1
   0  -1  -5   27675    1412  -2
   0   1  -5   27675    1412  -3
   0  -1   5   27675    1412  -4
   0   1   5   27675    1412   1
   1  -2  -5   44811    1165  -2
  -1   2  -5   44811    1165  -3
  -1  -1   5   44811    1165  -4
   1   1   5   44811    1165   1
  -3   1  -5  109994    2389  -2
   3  -1  -5  109994    2389  -3
   3  -2   5  109994    2389  -4
  -3   2   5  109994    2389   1
  -2   0  -5   98690    5845  -2
   2   0  -5   98690    5845  -3
   2  -2   5   98690    5845  -4
  -2   2   5   98690    5845   1
  -1  -1  -5  107134    1923  -2
   1   1  -5  107134    1923  -3
   1  -2   5  107134    1923  -4
  -1   2   5  107134    1923   1
   0  -2  -5  698296   13560  -2
   0   2  -5  698296   13560  -3
   0  -2   5  698296   13560  -4
   0   2   5  698296   13560   1
   1  -3  -5   48764    1984  -2
  -1   3  -5   48764    1984  -3
  -1  -2   5   48764    1984  -4
   1   2   5   48764    1984   1
   2  -4  -5  450105    8358  -2
  -2   4  -5  450105    8358  -3
  -2  -2   5  450105    8358  -4
   2   2   5  450105    8358   1
  -5   2  -5   35077    1540  -2
   5  -2  -5   35077    1540  -3
   5  -3   5   35077    1540  -4
  -5   3   5   35077    1540   1
  -4   1  -5  143343    3678  -2
   4  -1  -5  143343    3678  -3
   4  -3   5  143343    3678  -4
  -4   3   5  143343    3678   1
  -3   0  -5    7389     529  -2
   3   0  -5    7389     529  -3
   3  -3   5    7389     529  -4
  -3   3   5    7389     529   1
  -2  -1  -5  143383    1733  -2
   2   1  -5  143383    1733  -3
   2  -3   5  143383    1733  -4
  -2   3   5  143383    1733   1
  -1  -2  -5  116334    1945  -2
   1   2  -5  116334    1945  -3
   1  -3   5  116334    1945  -4
  -1   3   5  116334    1945   1
   0  -3  -5   48113    1002  -2
   0   3  -5   48113    1002  -3
   0  -3   5   48113    1002  -4
   0   3   5   48113    1002   1
   1  -4  -5  221002    5362  -2
  -1   4  -5  221002    5362  -3
  -1  -3   5  221002    5362  -4
   1   3   5  221002    5362   1
   2  -5  -5   38658    1311  -2
  -2   5  -5   38658    1311  -3
  -2  -3   5   38658    1311  -4
   2   3   5   38658    1311   1
   3  -6  -5   51960    2679  -2
  -3   6  -5   51960    2679  -3
  -3  -3   5   51960    2679  -4
   3   3   5   51960    2679   1
  -7   3  -5   32848    1594  -2
   7  -3  -5   32848    1594  -3
   7  -4   5   32848    1594  -4
  -7   4   5   32848    1594   1
  -6   2  -5   25912    1571  -2
   6  -2  -5   25912    1571  -3
   6  -4   5   25912    1571  -4
  -6   4   5   25912    1571   1
  -5   1  -5  139310    5607  -2
   5  -1  -5  139310    5607  -3
   5  -4   5  139310    5607  -4
  -5   4   5  139310    5607   1
  -4   0  -5  348691    6626  -2
   4   0  -5  348691    6626  -3
   4  -4   5  348691    6626  -4
  -4   4   5  348691    6626   1
  -3  -1  -5  120886    1928  -2
   3   1  -5  120886    1928  -3
   3  -4   5  120886    1928  -4
  -3   4   5  120886    1928   1
  -2  -2  -5  480024    4529  -2
   2   2  -5  480024    4529  -3
   2  -4   5  480024    4529  -4
  -2   4   5  480024    4529   1
  -1  -3  -5  116309    2864  -2
   1   3  -5  116309    2864  -3
   1  -4   5  116309    2864  -4
  -1   4   5  116309    2864   1
   0  -4  -5   54564    2736  -2
   0   4  -5   54564    2736  -3
   0  -4   5   54564    2736  -4
   0   4   5   54564    2736   1
   1  -5  -5   38352    1328  -2
  -1   5  -5   38352    1328  -3
  -1  -4   5   38352    1328  -4
   1   4   5   38352    1328   1
   2  -6  -5  177367    4978  -2
  -2   6  -5  177367    4978  -3
  -2  -4   5  177367    4978  -4
   2   4   5  177367    4978   1
   3  -7  -5   39660    1724  -2
  -3   7  -5   39660    1724  -3
  -3  -4   5   39660    1724  -4
   3   4   5   39660    1724   1
   4  -8  -5   86723    3381  -2
  -4   8  -5   86723    3381  -3
  -4  -4   5   86723    3381  -4
   4   4   5   86723    3381   1
  -8   3  -5  110474    3828  -2
   8  -3  -5  110474    3828  -3
   8  -5   5  110474    3828  -4
  -8   5   5  110474    3828   1
  -7   2  -5   22879    1526  -2
   7  -2  -5   22879    1526  -3
   7  -5   5   22879    1526  -4
  -7   5   5   22879    1526   1
  -6   1  -5  137412    3228  -2
   6  -1  -5  137412    3228  -3
   6  -5   5  137412    3228  -4
  -6   5   5  137412    3228   1
  -5   0  -5   17996     941  -2
   5   0  -5   17996     941  -3
   5  -5   5   17996     941  -4
  -5   5   5   17996     941   1
  -4  -1  -5   45134    2035  -2
   4   1  -5   45134    2035  -3
   4  -5   5   45134    2035  -4
  -4   5   5   45134    2035   1
  -3  -2  -5   81334    1919  -2
   3   2  -5   81334    1919  -3
   3  -5   5   81334    1919  -4
  -3   5   5   81334    1919   1
  -2  -3  -5   19110     840  -2
   2   3  -5   19110     840  -3
   2  -5   5   19110     840  -4
  -2   5   5   19110     840   1
  -1  -4  -5   28962    1003  -2
   1   4  -5   28962    1003  -3
   1  -5   5   28962    1003  -4
  -1   5   5   28962    1003   1
   0  -5  -5   21843     911  -2
   0   5  -5   21843     911  -3
   0  -5   5   21843     911  -4
   0   5   5   21843     911   1
   1  -6  -5  189457    4622  -2
  -1   6  -5  189457    4622  -3
  -1  -5   5  189457    4622  -4
   1   5   5  189457    4622   1
   2  -7  -5   18603    1136  -2
  -2   7  -5   18603    1136  -3
  -2  -5   5   18603    1136  -4
   2   5   5   18603    1136   1
   3  -8  -5  155751    5606  -2
  -3   8  -5  155751    5606  -3
  -3  -5   5  155751    5606  -4
   3   5   5  155751    5606   1
  -7   1  -5   91150    3170  -2
   7  -1  -5   91150    3170  -3
   7  -6   5   91150    3170  -4
  -7   6   5   91150    3170   1
  -6   0  -5  188884    4304  -2
   6   0  -5  188884    4304  -3
   6  -6   5  188884    4304  -4
  -6   6   5  188884    4304   1
  -5  -1  -5   85543    2611  -2
   5   1  -5   85543    2611  -3
   5  -6   5   85543    2611  -4
  -5   6   5   85543    2611   1
  -4  -2  -5   21908    1954  -2
   4   2  -5   21908    1954  -3
   4  -6   5   21908    1954  -4
  -4   6   5   21908    1954   1
  -3  -3  -5  141269    2627  -2
   3   3  -5  141269    2627  -3
   3  -6   5  141269    2627  -4
  -3   6   5  141269    2627   1
  -2  -4  -5  164492    2825  -2
   2   4  -5  164492    2825  -3
   2  -6   5  164492    2825  -4
  -2   6   5  164492    2825   1
  -1  -5  -5  125857    3000  -2
   1   5  -5  125857    3000  -3
   1  -6   5  125857    3000  -4
  -1   6   5  125857    3000   1
   0  -6  -5  136466    3642  -2
   0   6  -5  136466    3642  -3
   0  -6   5  136466    3642  -4
   0   6   5  136466    3642   1
   1  -7  -5   43300    3858  -2
  -1   7  -5   43300    3858  -3
  -1  -6   5   43300    3858  -4
   1   6   5   43300    3858   1
  -7   0  -5    2270     432  -2
   7   0  -5    2270     432  -3
   7  -7   5    2270     432  -4
  -7   7   5    2270     432   1
  -6  -1  -5   45004    2088  -2
   6   1  -5   45004    2088  -3
   6  -7   5   45004    2088  -4
  -6   7   5   45004    2088   1
  -5  -2  -5   32326    1395  -2
   5   2  -5   32326    1395  -3
   5  -7   5   32326    1395  -4
  -5   7   5   32326    1395   1
  -4  -3  -5   28779    1200  -2
   4   3  -5   28779    1200  -3
   4  -7   5   28779    1200  -4
  -4   7   5   28779    1200   1
  -3  -4  -5   86750    2120  -2
   3   4  -5   86750    2120  -3
   3  -7   5   86750    2120  -4
  -3   7   5   86750    2120   1
  -2  -5  -5    7911     615  -2
   2   5  -5    7911     615  -3
   2  -7   5    7911     615  -4
  -2   7   5    7911     615   1
  -1  -6  -5  125477    4526  -2
   1   6  -5  125477    4526  -3
   1  -7   5  125477    4526  -4
  -1   7   5  125477    4526   1
   0  -7  -5   17644    1359  -2
   0   7  -5   17644    1359  -3
   0  -7   5   17644    1359  -4
   0   7   5   17644    1359   1
  -5  -3  -5  126285    3010  -2
   5   3  -5  126285    3010  -3
   5  -8   5  126285    3010  -4
  -5   8   5  126285    3010   1
  -4  -4  -5  111114    2775  -2
   4   4  -5  111114    2775  -3
   4  -8   5  111114    2775  -4
  -4   8   5  111114    2775   1
  -3  -5  -5   69305    3032  -2
   3   5  -5   69305    3032  -3
   3  -8   5   69305    3032  -4
  -3   8   5   69305    3032   1
   0   0  -6    4900     969  -2
   0   0  -6    4900     969  -3
   0   0   6    4900     969  -4
   0   0   6    4900     969   1
  -1   0  -6  277096    5894  -2
   1   0  -6  277096    5894  -3
   1  -1   6  277096    5894  -4
  -1   1   6  277096    5894   1
   0  -1  -6   45089    2266  -2
   0   1  -6   45089    2266  -3
   0  -1   6   45089    2266  -4
   0   1   6   45089    2266   1
   1  -2  -6  571119    9317  -2
  -1   2  -6  571119    9317  -3
  -1  -1   6  571119    9317  -4
   1   1   6  571119    9317   1
  -3   1  -6  446194    9523  -2
   3  -1  -6  446194    9523  -3
   3  -2   6  446194    9523  -4
  -3   2   6  446194    9523   1
  -2   0  -6 1621402   34641  -2
   2   0  -6 1621402   34641  -3
   2  -2   6 1621402   34641  -4
  -2   2   6 1621402   34641   1
  -1  -1  -6  370369    9057  -2
   1   1  -6  370369    9057  -3
   1  -2   6  370369    9057  -4
  -1   2   6  370369    9057   1
   0  -2  -6  197893   14509  -2
   0   2  -6  197893   14509  -3
   0  -2   6  197893   14509  -4
   0   2   6  197893   14509   1
   1  -3  -6   74262    3008  -2
  -1   3  -6   74262    3008  -3
  -1  -2   6   74262    3008  -4
   1   2   6   74262    3008   1
   2  -4  -6    4309     387  -2
  -2   4  -6    4309     387  -3
  -2  -2   6    4309     387  -4
   2   2   6    4309     387   1
  -5   2  -6  114763    4750  -2
   5  -2  -6  114763    4750  -3
   5  -3   6  114763    4750  -4
  -5   3   6  114763    4750   1
  -4   1  -6   37300    3207  -2
   4  -1  -6   37300    3207  -3
   4  -3   6   37300    3207  -4
  -4   3   6   37300    3207   1
  -3   0  -6  369045    7005  -2
   3   0  -6  369045    7005  -3
   3  -3   6  369045    7005  -4
  -3   3   6  369045    7005   1
  -2  -1  -6  240177    5065  -2
   2   1  -6  240177    5065  -3
   2  -3   6  240177    5065  -4
  -2   3   6  240177    5065   1
  -1  -2  -6   72611    3519  -2
   1   2  -6   72611    3519  -3
   1  -3   6   72611    3519  -4
  -1   3   6   72611    3519   1
   0  -3  -6  257081    5547  -2
   0   3  -6  257081    5547  -3
   0  -3   6  257081    5547  -4
   0   3   6  257081    5547   1
   1  -4  -6  143751    5936  -2
  -1   4  -6  143751    5936  -3
  -1  -3   6  143751    5936  -4
   1   3   6  143751    5936   1
   2  -5  -6   27709    1450  -2
  -2   5  -6   27709    1450  -3
  -2  -3   6   27709    1450  -4
   2   3   6   27709    1450   1
   3  -6  -6  488779   17263  -2
  -3   6  -6  488779   17263  -3
  -3  -3   6  488779   17263  -4
   3   3   6  488779   17263   1
  -7   3  -6  267463   10864  -2
   7  -3  -6  267463   10864  -3
   7  -4   6  267463   10864  -4
  -7   4   6  267463   10864   1
  -6   2  -6  587194   19277  -2
   6  -2  -6  587194   19277  -3
   6  -4   6  587194   19277  -4
  -6   4   6  587194   19277   1
  -5   1  -6  137847    5244  -2
   5  -1  -6  137847    5244  -3
   5  -4   6  137847    5244  -4
  -5   4   6  137847    5244   1
  -4   0  -6  100433   10398  -2
   4   0  -6  100433   10398  -3
   4  -4   6  100433   10398  -4
  -4   4   6  100433   10398   1
  -3  -1  -6   34740    2595  -2
   3   1  -6   34740    2595  -3
   3  -4   6   34740    2595  -4
  -3   4   6   34740    2595   1
  -2  -2  -6    7622     464  -2
   2   2  -6    7622     464  -3
   2  -4   6    7622     464  -4
  -2   4   6    7622     464   1
  -1  -3  -6  383303    8717  -2
   1   3  -6  383303    8717  -3
   1  -4   6  383303    8717  -4
  -1   4   6  383303    8717   1
   0  -4  -6  936563   23497  -2
   0   4  -6  936563   23497  -3
   0  -4   6  936563   23497  -4
   0   4   6  936563   23497   1
   1  -5  -6  198380    9473  -2
  -1   5  -6  198380    9473  -3
  -1  -4   6  198380    9473  -4
   1   4   6  198380    9473   1
   2  -6  -6   59865    7009  -2
  -2   6  -6   59865    7009  -3
  -2  -4   6   59865    7009  -4
   2   4   6   59865    7009   1
   3  -7  -6   88244    2972  -2
  -3   7  -6   88244    2972  -3
  -3  -4   6   88244    2972  -4
   3   4   6   88244    2972   1
  -7   2  -6   94274    3304  -2
   7  -2  -6   94274    3304  -3
   7  -5   6   94274    3304  -4
  -7   5   6   94274    3304   1
  -6   1  -6  131016    6097  -2
   6  -1  -6  131016    6097  -3
   6  -5   6  131016    6097  -4
  -6   5   6  131016    6097   1
  -5   0  -6  103817    2617  -2
   5   0  -6  103817    2617  -3
   5  -5   6  103817    2617  -4
  -5   5   6  103817    2617   1
  -4  -1  -6  295926    5602  -2
   4   1  -6  295926    5602  -3
   4  -5   6  295926    5602  -4
  -4   5   6  295926    5602   1
  -3  -2  -6   54587    1560  -2
   3   2  -6   54587    1560  -3
   3  -5   6   54587    1560  -4
  -3   5   6   54587    1560   1
  -2  -3  -6   41612    1234  -2
   2   3  -6   41612    1234  -3
   2  -5   6   41612    1234  -4
  -2   5   6   41612    1234   1
  -1  -4  -6  481529    7537  -2
   1   4  -6  481529    7537  -3
   1  -5   6  481529    7537  -4
  -1   5   6  481529    7537   1
   0  -5  -6  195262    4176  -2
   0   5  -6  195262    4176  -3
   0  -5   6  195262    4176  -4
   0   5   6  195262    4176   1
   1  -6  -6   28414    2764  -2
  -1   6  -6   28414    2764  -3
  -1  -5   6   28414    2764  -4
   1   5   6   28414    2764   1
   2  -7  -6   54053    2637  -2
  -2   7  -6   54053    2637  -3
  -2  -5   6   54053    2637  -4
   2   5   6   54053    2637   1
  -6   0  -6   23497    1774  -2
   6   0  -6   23497    1774  -3
   6  -6   6   23497    1774  -4
  -6   6   6   23497    1774   1
  -5  -1  -6  423486   13273  -2
   5   1  -6  423486   13273  -3
   5  -6   6  423486   13273  -4
  -5   6   6  423486   13273   1
  -4  -2  -6  567964   13651  -2
   4   2  -6  567964   13651  -3
   4  -6   6  567964   13651  -4
  -4   6   6  567964   13651   1
  -3  -3  -6  173723    6974  -2
   3   3  -6  173723    6974  -3
   3  -6   6  173723    6974  -4
  -3   6   6  173723    6974   1
  -2  -4  -6   60103    6548  -2
   2   4  -6   60103    6548  -3
   2  -6   6   60103    6548  -4
  -2   6   6   60103    6548   1
  -1  -5  -6   37989    2477  -2
   1   5  -6   37989    2477  -3
   1  -6   6   37989    2477  -4
  -1   6   6   37989    2477   1
   0  -6  -6   10081     905  -2
   0   6  -6   10081     905  -3
   0  -6   6   10081     905  -4
   0   6   6   10081     905   1
  -5  -2  -6  174269    4003  -2
   5   2  -6  174269    4003  -3
   5  -7   6  174269    4003  -4
  -5   7   6  174269    4003   1
  -4  -3  -6  114151    2521  -2
   4   3  -6  114151    2521  -3
   4  -7   6  114151    2521  -4
  -4   7   6  114151    2521   1
  -3  -4  -6   57079    2783  -2
   3   4  -6   57079    2783  -3
   3  -7   6   57079    2783  -4
  -3   7   6   57079    2783   1
  -2  -5  -6   70551    2268  -2
   2   5  -6   70551    2268  -3
   2  -7   6   70551    2268  -4
  -2   7   6   70551    2268   1
   0   0  -7  605043   12122  -2
   0   0  -7  605043   12122  -3
   0   0   7  605043   12122  -4
   0   0   7  605043   12122   1
  -1   0  -7   39552    1544  -2
   1   0  -7   39552    1544  -3
   1  -1   7   39552    1544  -4
  -1   1   7   39552    1544   1
   0  -1  -7    8002     745  -2
   0   1  -7    8002     745  -3
   0  -1   7    8002     745  -4
   0   1   7    8002     745   1
   1  -2  -7   66600    1937  -2
  -1   2  -7   66600    1937  -3
  -1  -1   7   66600    1937  -4
   1   1   7   66600    1937   1
  -3   1  -7   17264    1006  -2
   3  -1  -7   17264    1006  -3
   3  -2   7   17264    1006  -4
  -3   2   7   17264    1006   1
  -2   0  -7   60763    3416  -2
   2   0  -7   60763    3416  -3
   2  -2   7   60763    3416  -4
  -2   2   7   60763    3416   1
  -1  -1  -7   97509    2548  -2
   1   1  -7   97509    2548  -3
   1  -2   7   97509    2548  -4
  -1   2   7   97509    2548   1
   0  -2  -7  329341    9100  -2
   0   2  -7  329341    9100  -3
   0  -2   7  329341    9100  -4
   0   2   7  329341    9100   1
   1  -3  -7   20889    1050  -2
  -1   3  -7   20889    1050  -3
  -1  -2   7   20889    1050  -4
   1   2   7   20889    1050   1
   2  -4  -7  304991    9602  -2
  -2   4  -7  304991    9602  -3
  -2  -2   7  304991    9602  -4
   2   2   7  304991    9602   1
  -5   2  -7   11683     926  -2
   5  -2  -7   11683     926  -3
   5  -3   7   11683     926  -4
  -5   3   7   11683     926   1
  -4   1  -7   66432    2629  -2
   4  -1  -7   66432    2629  -3
   4  -3   7   66432    2629  -4
  -4   3   7   66432    2629   1
  -3   0  -7   19790    1108  -2
   3   0  -7   19790    1108  -3
   3  -3   7   19790    1108  -4
  -3   3   7   19790    1108   1
  -2  -1  -7   39138    1623  -2
   2   1  -7   39138    1623  -3
   2  -3   7   39138    1623  -4
  -2   3   7   39138    1623   1
  -1  -2  -7   39626    1706  -2
   1   2  -7   39626    1706  -3
   1  -3   7   39626    1706  -4
  -1   3   7   39626    1706   1
   0  -3  -7   57535    2036  -2
   0   3  -7   57535    2036  -3
   0  -3   7   57535    2036  -4
   0   3   7   57535    2036   1
   1  -4  -7  109337    4020  -2
  -1   4  -7  109337    4020  -3
  -1  -3   7  109337    4020  -4
   1   3   7  109337    4020   1
   2  -5  -7   28315    1452  -2
  -2   5  -7   28315    1452  -3
  -2  -3   7   28315    1452  -4
   2   3   7   28315    1452   1
   3  -6  -7   54091    2763  -2
  -3   6  -7   54091    2763  -3
  -3  -3   7   54091    2763  -4
   3   3   7   54091    2763   1
  -6   2  -7   27836    1925  -2
   6  -2  -7   27836    1925  -3
   6  -4   7   27836    1925  -4
  -6   4   7   27836    1925   1
  -5   1  -7  111428    3501  -2
   5  -1  -7  111428    3501  -3
   5  -4   7  111428    3501  -4
  -5   4   7  111428    3501   1
  -4   0  -7  190297    6618  -2
   4   0  -7  190297    6618  -3
   4  -4   7  190297    6618  -4
  -4   4   7  190297    6618   1
  -3  -1  -7   86241    2712  -2
   3   1  -7   86241    2712  -3
   3  -4   7   86241    2712  -4
  -3   4   7   86241    2712   1
  -2  -2  -7  302373    7781  -2
   2   2  -7  302373    7781  -3
   2  -4   7  302373    7781  -4
  -2   4   7  302373    7781   1
  -1  -3  -7   36180    1692  -2
   1   3  -7   36180    1692  -3
   1  -4   7   36180    1692  -4
  -1   4   7   36180    1692   1
   0  -4  -7   27230    2017  -2
   0   4  -7   27230    2017  -3
   0  -4   7   27230    2017  -4
   0   4   7   27230    2017   1
   1  -5  -7   34952    1742  -2
  -1   5  -7   34952    1742  -3
  -1  -4   7   34952    1742  -4
   1   4   7   34952    1742   1
   2  -6  -7  130603    4743  -2
  -2   6  -7  130603    4743  -3
  -2  -4   7  130603    4743  -4
   2   4   7  130603    4743   1
  -5   0  -7   23472    1399  -2
   5   0  -7   23472    1399  -3
   5  -5   7   23472    1399  -4
  -5   5   7   23472    1399   1
  -4  -1  -7   47566    1942  -2
   4   1  -7   47566    1942  -3
   4  -5   7   47566    1942  -4
  -4   5   7   47566    1942   1
  -3  -2  -7   31767    1550  -2
   3   2  -7   31767    1550  -3
   3  -5   7   31767    1550  -4
  -3   5   7   31767    1550   1
  -2  -3  -7    9687     828  -2
   2   3  -7    9687     828  -3
   2  -5   7    9687     828  -4
  -2   5   7    9687     828   1
  -1  -4  -7   20229    1253  -2
   1   4  -7   20229    1253  -3
   1  -5   7   20229    1253  -4
  -1   5   7   20229    1253   1
   0  -5  -7    1901     518  -2
   0   5  -7    1901     518  -3
   0  -5   7    1901     518  -4
   0   5   7    1901     518   1
  -4  -2  -7   35554    1717  -2
   4   2  -7   35554    1717  -3
   4  -6   7   35554    1717  -4
  -4   6   7   35554    1717   1
  -3  -3  -7  105286    4391  -2
   3   3  -7  105286    4391  -3
   3  -6   7  105286    4391  -4
  -3   6   7  105286    4391   1
  -2  -4  -7  110840    3991  -2
   2   4  -7  110840    3991  -3
   2  -6   7  110840    3991  -4
  -2   6   7  110840    3991   1
   0   0  -8  286700   10484  -2
   0   0  -8  286700   10484  -3
   0   0   8  286700   10484  -4
   0   0   8  286700   10484   1
  -1   0  -8   73570    2213  -2
   1   0  -8   73570    2213  -3
   1  -1   8   73570    2213  -4
  -1   1   8   73570    2213   1
   0  -1  -8  316331    9161  -2
   0   1  -8  316331    9161  -3
   0  -1   8  316331    9161  -4
   0   1   8  316331    9161   1
   1  -2  -8   86254    3016  -2
  -1   2  -8   86254    3016  -3
  -1  -1   8   86254    3016  -4
   1   1   8   86254    3016   1
  -3   1  -8   34464    2797  -2
   3  -1  -8   34464    2797  -3
   3  -2   8   34464    2797  -4
  -3   2   8   34464    2797   1
  -2   0  -8  122666    5741  -2
   2   0  -8  122666    5741  -3
   2  -2   8  122666    5741  -4
  -2   2   8  122666    5741   1
  -1  -1  -8  182689    5266  -2
   1   1  -8  182689    5266  -3
   1  -2   8  182689    5266  -4
  -1   2   8  182689    5266   1
   0  -2  -8  610478   19493  -2
   0   2  -8  610478   19493  -3
   0  -2   8  610478   19493  -4
   0   2   8  610478   19493   1
   1  -3  -8  210664   11045  -2
  -1   3  -8  210664   11045  -3
  -1  -2   8  210664   11045  -4
   1   2   8  210664   11045   1
   2  -4  -8  191740    7208  -2
  -2   4  -8  191740    7208  -3
  -2  -2   8  191740    7208  -4
   2   2   8  191740    7208   1
  -4   1  -8  289442   13164  -2
   4  -1  -8  289442   13164  -3
   4  -3   8  289442   13164  -4
  -4   3   8  289442   13164   1
  -3   0  -8   67702    2717  -2
   3   0  -8   67702    2717  -3
   3  -3   8   67702    2717  -4
  -3   3   8   67702    2717   1
  -2  -1  -8   59316    2859  -2
   2   1  -8   59316    2859  -3
   2  -3   8   59316    2859  -4
  -2   3   8   59316    2859   1
  -1  -2  -8  283432    9071  -2
   1   2  -8  283432    9071  -3
   1  -3   8  283432    9071  -4
  -1   3   8  283432    9071   1
   0  -3  -8  136866    6016  -2
   0   3  -8  136866    6016  -3
   0  -3   8  136866    6016  -4
   0   3   8  136866    6016   1
   1  -4  -8   95561    4564  -2
  -1   4  -8   95561    4564  -3
  -1  -3   8   95561    4564  -4
   1   3   8   95561    4564   1
  -4   0  -8  406624   18263  -2
   4   0  -8  406624   18263  -3
   4  -4   8  406624   18263  -4
  -4   4   8  406624   18263   1
  -3  -1  -8  214086    8764  -2
   3   1  -8  214086    8764  -3
   3  -4   8  214086    8764  -4
  -3   4   8  214086    8764   1
  -2  -2  -8  182365    8047  -2
   2   2  -8  182365    8047  -3
   2  -4   8  182365    8047  -4
  -2   4   8  182365    8047   1
  -1  -3  -8   44532    3627  -2
   1   3  -8   44532    3627  -3
   1  -4   8   44532    3627  -4
  -1   4   8   44532    3627   1
   0  -4  -8   59557    5176  -2
   0   4  -8   59557    5176  -3
   0  -4   8   59557    5176  -4
   0   4   8   59557    5176   1
   0   0  -9  322188   26391  -2
   0   0  -9  322188   26391  -3
   0   0   9  322188   26391  -4
   0   0   9  322188   26391   1
  -1   0  -9   14616    1429  -2
   1   0  -9   14616    1429  -3
   1  -1   9   14616    1429  -4
  -1   1   9   14616    1429   1
   0  -1  -9   28019    1790  -2
   0   1  -9   28019    1790  -3
   0  -1   9   28019    1790  -4
   0   1   9   28019    1790   1
;
_shelx_hkl_checksum              41532
loop_
_space_group_symop_operation_xyz
'x, y, z'
'-y, x-y, z'
'-x+y, -x, z'
'-x, -y, -z'
'y, -x+y, -z'
'x-y, x, -z'
loop_
_atom_site_label
_atom_site_type_symbol
_atom_site_fract_x
_atom_site_fract_y
_atom_site_fract_z
_atom_site_U_iso_or_equiv
_atom_site_adp_type
_atom_site_occupancy
_atom_site_site_symmetry_order
_atom_site_calc_flag
_atom_site_refinement_flags_posn
_atom_site_refinement_flags_adp
_atom_site_refinement_flags_occupancy
In1 In 0.0000 0.0000 0.0000 0.00836(16) Uani 1 6 d S T P
Ag1 Ag 0.0000 0.0000 0.5000 0.0213(2) Uani 1 6 d S T P
Br1 Br 0.32366(6) 0.18808(6) 0.22239(7) 0.01627(16) Uani 1 1 d . . .
N1 N 0.3333 0.6667 0.1563(10) 0.0266(16) Uani 1 3 d S T P
H1 H 0.257(18) 0.744(18) 0.121(12) 0.09(3) Uiso 1 1 d . . .
C1 C 0.3333 0.6667 0.3622(12) 0.0276(18) Uani 1 3 d S T P
H2 H 0.344(9) 0.785(8) 0.409(9) 0.028(16) Uiso 1 1 d . . .
loop_
_atom_site_aniso_label
_atom_site_aniso_U_11
_atom_site_aniso_U_22
_atom_site_aniso_U_33
_atom_site_aniso_U_23
_atom_site_aniso_U_13
_atom_site_aniso_U_12
In1 0.0099(2) 0.0099(2) 0.0053(3) 0.000 0.000 0.00495(11)
Ag1 0.0293(3) 0.0293(3) 0.0052(3) 0.000 0.000 0.01466(14)
Br1 0.0131(2) 0.0208(2) 0.0118(2) -0.00262(16) -0.00495(14) 0.00610(16)
N1 0.034(2) 0.034(2) 0.012(3) 0.000 0.000 0.0171(12)
C1 0.037(3) 0.037(3) 0.008(3) 0.000 0.000 0.0187(15)
loop_
_atom_type_symbol
_atom_type_description
_atom_type_scat_dispersion_real
_atom_type_scat_dispersion_imag
_atom_type_scat_source
H H 0.0000 0.0000 'International Tables Vol C Tables 4.2.6.8 and 6.1.1.4'
C C 0.0033 0.0016 'International Tables Vol C Tables 4.2.6.8 and 6.1.1.4'
N N 0.0061 0.0033 'International Tables Vol C Tables 4.2.6.8 and 6.1.1.4'
Br Br -0.2901 2.4595 'International Tables Vol C Tables 4.2.6.8 and 6.1.1.4'
Ag Ag -0.8971 1.1015 'International Tables Vol C Tables 4.2.6.8 and 6.1.1.4'
In In -0.7276 1.3100 'International Tables Vol C Tables 4.2.6.8 and 6.1.1.4'
loop_
_geom_angle_atom_site_label_1
_geom_angle_atom_site_label_2
_geom_angle_atom_site_label_3
_geom_angle
_geom_angle_site_symmetry_1
_geom_angle_site_symmetry_3
Br1 In1 Br1 180.000(13) 6 3
Br1 In1 Br1 88.741(17) 6 4
Br1 In1 Br1 91.259(17) 3 4
Br1 In1 Br1 91.259(17) 6 .
Br1 In1 Br1 88.741(17) 3 .
Br1 In1 Br1 180.0 4 .
Br1 In1 Br1 88.741(18) 6 5
Br1 In1 Br1 91.259(17) 3 5
Br1 In1 Br1 88.741(17) 4 5
Br1 In1 Br1 91.258(17) . 5
Br1 In1 Br1 91.259(17) 6 2
Br1 In1 Br1 88.741(18) 3 2
Br1 In1 Br1 91.259(17) 4 2
Br1 In1 Br1 88.742(17) . 2
Br1 In1 Br1 180.00(2) 5 2
Br1 Ag1 Br1 180.0 6_556 3
Br1 Ag1 Br1 79.571(16) 6_556 4_556
Br1 Ag1 Br1 100.429(16) 3 4_556
Br1 Ag1 Br1 100.429(17) 6_556 .
Br1 Ag1 Br1 79.571(17) 3 .
Br1 Ag1 Br1 180.0 4_556 .
Br1 Ag1 Br1 79.571(17) 6_556 5_556
Br1 Ag1 Br1 100.429(17) 3 5_556
Br1 Ag1 Br1 79.571(16) 4_556 5_556
Br1 Ag1 Br1 100.429(16) . 5_556
Br1 Ag1 Br1 100.429(17) 6_556 2
Br1 Ag1 Br1 79.571(17) 3 2
Br1 Ag1 Br1 100.429(16) 4_556 2
Br1 Ag1 Br1 79.571(16) . 2
Br1 Ag1 Br1 180.0 5_556 2
In1 Br1 Ag1 78.511(17) . .
loop_
_geom_bond_atom_site_label_1
_geom_bond_atom_site_label_2
_geom_bond_distance
_geom_bond_site_symmetry_2
In1 Br1 2.6636(5) 6
In1 Br1 2.6636(5) 3
In1 Br1 2.6636(5) 4
In1 Br1 2.6636(5) .
In1 Br1 2.6636(5) 5
In1 Br1 2.6636(5) 2
Ag1 Br1 2.9108(6) 6_556
Ag1 Br1 2.9108(6) 3
Ag1 Br1 2.9108(6) 4_556
Ag1 Br1 2.9108(6) .
Ag1 Br1 2.9108(6) 5_556
Ag1 Br1 2.9108(6) 2
N1 C1 1.455(10) .
