#------------------------------------------------------------------------------
#$Date: 2019-11-17 09:14:47 +0200 (Sun, 17 Nov 2019) $
#$Revision: 229045 $
#$URL: file:///home/coder/svn-repositories/cod/cif/7/23/05/7230527.cif $
#------------------------------------------------------------------------------
#
# This file is available in the Crystallography Open Database (COD),
# http://www.crystallography.net/
#
# All data on this site have been placed in the public domain by the
# contributors.
#
data_7230527
loop_
_publ_author_name
'Chakraborty, Shaunak'
'Desiraju, Gautam R.'
_publ_section_title
;
 Exploring the structural landscape with &#x2018;partial&#x2019;
 fluoro-substitution as a probe
;
_journal_issue                   20
_journal_name_full               CrystEngComm
_journal_page_first              2793
_journal_paper_doi               10.1039/C8CE00336J
_journal_volume                  20
_journal_year                    2018
_chemical_formula_moiety         'C9 H6.36 F1.64 O2'
_chemical_formula_sum            'C9 H6.36 F1.64 O2'
_chemical_formula_weight         177.62
_space_group_crystal_system      monoclinic
_space_group_IT_number           14
_space_group_name_Hall           '-P 2yn'
_space_group_name_H-M_alt        'P 1 21/n 1'
_symmetry_space_group_name_Hall  '-P 2yn'
_symmetry_space_group_name_H-M   'P 1 21/n 1'
_atom_sites_solution_hydrogens   geom
_audit_creation_method           SHELXL-2014/7
_audit_update_record
;
2018-04-14 deposited with the CCDC.
2018-04-18 downloaded from the CCDC.
;
_cell_angle_alpha                90
_cell_angle_beta                 92.13(6)
_cell_angle_gamma                90
_cell_formula_units_Z            4
_cell_length_a                   3.768(16)
_cell_length_b                   6.37(3)
_cell_length_c                   32.12(13)
_cell_measurement_reflns_used    1051
_cell_measurement_temperature    100(2)
_cell_measurement_theta_max      27.5
_cell_measurement_theta_min      1.9
_cell_volume                     770(6)
_computing_structure_refinement  'SHELXL-2014/7 (Sheldrick, 2014)'
_diffrn_ambient_temperature      100(2)
_diffrn_measured_fraction_theta_full 0.922
_diffrn_measured_fraction_theta_max 0.935
_diffrn_measurement_device_type  CCD
_diffrn_radiation_type           MoK\a
_diffrn_radiation_wavelength     0.71073
_diffrn_reflns_av_R_equivalents  0.0944
_diffrn_reflns_av_unetI/netI     0.0897
_diffrn_reflns_Laue_measured_fraction_full 0.922
_diffrn_reflns_Laue_measured_fraction_max 0.935
_diffrn_reflns_limit_h_max       4
_diffrn_reflns_limit_h_min       -4
_diffrn_reflns_limit_k_max       8
_diffrn_reflns_limit_k_min       -8
_diffrn_reflns_limit_l_max       41
_diffrn_reflns_limit_l_min       -41
_diffrn_reflns_number            5005
_diffrn_reflns_point_group_measured_fraction_full 0.922
_diffrn_reflns_point_group_measured_fraction_max 0.935
_diffrn_reflns_theta_full        25.242
_diffrn_reflns_theta_max         27.484
_diffrn_reflns_theta_min         1.269
_exptl_absorpt_coefficient_mu    0.133
_exptl_crystal_colour            colourless
_exptl_crystal_density_diffrn    1.532
_exptl_crystal_description       needle
_exptl_crystal_F_000             364.4
_exptl_crystal_size_max          0.8
_exptl_crystal_size_mid          0.3
_exptl_crystal_size_min          0.2
_refine_diff_density_max         0.444
_refine_diff_density_min         -0.498
_refine_diff_density_rms         0.099
_refine_ls_extinction_method     none
_refine_ls_goodness_of_fit_ref   1.076
_refine_ls_hydrogen_treatment    constr
_refine_ls_matrix_type           full
_refine_ls_number_parameters     120
_refine_ls_number_reflns         1652
_refine_ls_number_restraints     0
_refine_ls_restrained_S_all      1.076
_refine_ls_R_factor_all          0.1661
_refine_ls_R_factor_gt           0.1131
_refine_ls_shift/su_max          0.000
_refine_ls_shift/su_mean         0.000
_refine_ls_structure_factor_coef Fsqd
_refine_ls_weighting_details
'w=1/[\s^2^(Fo^2^)+(0.2000P)^2^] where P=(Fo^2^+2Fc^2^)/3'
_refine_ls_weighting_scheme      calc
_refine_ls_wR_factor_gt          0.3050
_refine_ls_wR_factor_ref         0.3644
_reflns_Friedel_coverage         0.000
_reflns_number_gt                885
_reflns_number_total             1652
_reflns_threshold_expression     'I > 2\s(I)'
_cod_data_source_file            c8ce00336j2.cif
_cod_data_source_block           16
_cod_depositor_comments
'Adding full bibliography for 7230514--7230540.cif.'
_cod_original_cell_volume        771(6)
_cod_database_code               7230527
_shelx_shelxl_version_number     2014/7
_shelx_space_group_comment
;
The symmetry employed for this shelxl refinement is uniquely defined
by the following loop, which should always be used as a source of
symmetry information in preference to the above space-group names.
They are only intended as comments.
;
_shelx_res_file
;

    shelx.res created by SHELXL-2014/7

TITL datam in P2(1)/n
CELL  0.71073   3.7685   6.3712  32.1210   90.000   92.129   90.000
ZERR    18.00   0.0162   0.0273   0.1262    0.000    0.061    0.000
LATT   1
SYMM  1/2 - X, 1/2 + Y, 1/2 - Z
SFAC  C    H    O    F
UNIT  18 18 18 18
MERG   2
OMIT    -2.00  55.00
EQIV $1 -x+1, -y+1, -z
HTAB C2 O2_$1
EQIV $2 -x+3/2, y-1/2, -z+1/2
HTAB C7 F2_$2
EQIV $3 -x, -y+2, -z
HTAB O2 O1_$3
OMIT     1   5   8
OMIT    -3   2   3
OMIT    -1   3  24
FMAP   2
PLAN   20
ACTA
HTAB    2.00000
BOND
BOND   $H
CONF
L.S.  50
TEMP  -173.00
WGHT    0.200000
FVAR       4.72322   0.36215
MOLE    1
C1    1    0.159325    0.775739    0.035274    11.00000    0.03035    0.04699 =
         0.04595   -0.00509    0.00184   -0.00166
C2    1    0.284542    0.597571    0.060707    11.00000    0.03790    0.03385 =
         0.05100   -0.00807    0.00003    0.00726
AFIX  43
H2    2    0.396825    0.481851    0.047984    11.00000   -1.20000
AFIX   0
C3    1    0.240353    0.598105    0.102023    11.00000    0.02747    0.03148 =
         0.05231   -0.00535    0.00451    0.00603
AFIX  43
H3    2    0.124606    0.716890    0.113156    11.00000   -1.20000
AFIX   0
C4    1    0.352366    0.434377    0.131587    11.00000    0.02137    0.03262 =
         0.05850   -0.00194    0.00397    0.00048
C5    1    0.312009    0.464743    0.174650    11.00000    0.03148    0.03585 =
         0.05392   -0.00396    0.00537   -0.00024
C6    1    0.414757    0.316114    0.203709    11.00000    0.04768    0.05099 =
         0.05050    0.00419   -0.00232   -0.00774
PART    1
AFIX  43
H6    2    0.384267    0.342479    0.232465    21.00000   -1.20000
AFIX   0
PART    2
F2    4    0.379170    0.354656    0.239725   -21.00000    0.14725    0.09889 =
         0.07789    0.00960    0.01110   -0.00674
PART    0
C7    1    0.559834    0.131513    0.191519    11.00000    0.04107    0.05119 =
         0.06762    0.01889   -0.00033   -0.00398
AFIX  43
H7    2    0.630767    0.029971    0.211826    11.00000   -1.20000
AFIX   0
C8    1    0.604829    0.090639    0.149606    11.00000    0.03189    0.03329 =
         0.09108    0.00726    0.00963    0.00305
AFIX  43
H8    2    0.707002   -0.038190    0.141205    11.00000   -1.20000
AFIX   0
C9    1    0.498724    0.240428    0.119782    11.00000    0.03063    0.03682 =
         0.06655   -0.00881    0.00906    0.00234
AFIX  43
H9    2    0.525756    0.210949    0.091082    11.00000   -1.20000
AFIX   0
O1    3   -0.001854    0.925413    0.049829    11.00000    0.05127    0.04608 =
         0.04824   -0.00531    0.00773    0.01086
O2    3    0.231818    0.760783   -0.003998    11.00000    0.05409    0.05172 =
         0.04128   -0.00370    0.00772    0.01483
AFIX 147
H2A   2    0.211263    0.879258   -0.015305    11.00000   -1.50000
AFIX   0
F1    4    0.169378    0.645982    0.187543    11.00000    0.07122    0.04421 =
         0.04794   -0.00598    0.01042    0.00448
HKLF    4

REM  datam in P2(1)/n
REM R1 =  0.1131 for     885 Fo > 4sig(Fo)  and  0.1661 for all    1652 data
REM    120 parameters refined using      0 restraints

END

WGHT      0.2000      0.0000

REM Instructions for potential hydrogen bonds
HTAB C2 O2_$1
HTAB C7 F2_$2
HTAB O2 O1_$3

REM Highest difference peak  0.444,  deepest hole -0.498,  1-sigma level  0.099
Q1    1   0.0151  0.9266 -0.0332  11.00000  0.05    0.28
Q2    1  -0.0480  0.5478  0.0506  11.00000  0.05    0.28
Q3    1   0.3929 -0.0269  0.1995  11.00000  0.05    0.28
Q4    1  -0.0410  0.7158  0.2231  11.00000  0.05    0.27
Q5    1   0.2273  0.2662  0.0609  11.00000  0.05    0.25
Q6    1   0.7706  0.0753  0.2585  11.00000  0.05    0.24
Q7    1   0.4162  0.5757 -0.0017  11.00000  0.05    0.24
Q8    1   0.0233  0.3465  0.2141  11.00000  0.05    0.23
Q9    1   0.7311  0.4010  0.0446  11.00000  0.05    0.23
Q10   1   0.6142  0.2300  0.0756  11.00000  0.05    0.23
Q11   1   0.5917  0.2648  0.1890  11.00000  0.05    0.22
Q12   1   0.4022  0.9277  0.0724  11.00000  0.05    0.21
Q13   1   0.3466  0.0389  0.1290  11.00000  0.05    0.21
Q14   1   0.0961  0.7507 -0.0536  11.00000  0.05    0.21
Q15   1   0.1703  0.1402  0.1998  11.00000  0.05    0.20
Q16   1   0.0031  0.2823  0.1846  11.00000  0.05    0.20
Q17   1  -0.0892  0.5860  0.2270  11.00000  0.05    0.20
Q18   1   0.7095 -0.0433  0.2198  11.00000  0.05    0.20
Q19   1   0.7570  0.5235  0.1440  11.00000  0.05    0.20
Q20   1   0.1380 -0.0209  0.1981  11.00000  0.05    0.20
;
_shelx_res_checksum              52698
loop_
_space_group_symop_operation_xyz
'x, y, z'
'-x+1/2, y+1/2, -z+1/2'
'-x, -y, -z'
'x-1/2, -y-1/2, z-1/2'
loop_
_atom_site_label
_atom_site_type_symbol
_atom_site_fract_x
_atom_site_fract_y
_atom_site_fract_z
_atom_site_U_iso_or_equiv
_atom_site_adp_type
_atom_site_occupancy
_atom_site_site_symmetry_order
_atom_site_calc_flag
_atom_site_refinement_flags_posn
_atom_site_refinement_flags_adp
_atom_site_refinement_flags_occupancy
_atom_site_disorder_assembly
_atom_site_disorder_group
C1 C 0.1593(11) 0.7757(9) 0.03527(14) 0.0411(12) Uani 1 1 d . . . . .
C2 C 0.2845(13) 0.5976(8) 0.06071(14) 0.0410(11) Uani 1 1 d . . . . .
H2 H 0.3968 0.4819 0.0480 0.049 Uiso 1 1 calc R U . . .
C3 C 0.2404(11) 0.5981(8) 0.10202(14) 0.0370(11) Uani 1 1 d . . . . .
H3 H 0.1246 0.7169 0.1132 0.044 Uiso 1 1 calc R U . . .
C4 C 0.3524(11) 0.4344(8) 0.13159(14) 0.0374(11) Uani 1 1 d . . . . .
C5 C 0.3120(12) 0.4647(8) 0.17465(14) 0.0403(11) Uani 1 1 d . . . . .
C6 C 0.4148(14) 0.3161(10) 0.20371(17) 0.0498(14) Uani 1 1 d . . . . .
H6 H 0.3843 0.3425 0.2325 0.060 Uiso 0.362(6) 1 calc R U P A 1
F2 F 0.379(2) 0.3547(15) 0.2397(2) 0.108(3) Uani 0.638(6) 1 d . . P A 2
C7 C 0.5598(14) 0.1315(10) 0.19152(18) 0.0534(14) Uani 1 1 d . . . . .
H7 H 0.6308 0.0300 0.2118 0.064 Uiso 1 1 calc R U . . .
C8 C 0.6048(13) 0.0906(10) 0.14961(19) 0.0519(14) Uani 1 1 d . . . . .
H8 H 0.7070 -0.0382 0.1412 0.062 Uiso 1 1 calc R U . . .
C9 C 0.4987(12) 0.2404(8) 0.11978(16) 0.0445(12) Uani 1 1 d . . . . .
H9 H 0.5258 0.2109 0.0911 0.053 Uiso 1 1 calc R U . . .
O1 O -0.0019(9) 0.9254(6) 0.04983(10) 0.0484(10) Uani 1 1 d . . . . .
O2 O 0.2318(10) 0.7608(6) -0.00400(9) 0.0489(10) Uani 1 1 d . . . . .
H2A H 0.2113 0.8793 -0.0153 0.073 Uiso 1 1 calc R U . . .
F1 F 0.1694(8) 0.6460(6) 0.18754(9) 0.0543(10) Uani 1 1 d . . . . .
loop_
_atom_site_aniso_label
_atom_site_aniso_U_11
_atom_site_aniso_U_22
_atom_site_aniso_U_33
_atom_site_aniso_U_23
_atom_site_aniso_U_13
_atom_site_aniso_U_12
C1 0.030(2) 0.047(3) 0.046(3) -0.005(2) 0.0018(17) -0.002(2)
C2 0.038(2) 0.034(3) 0.051(3) -0.0081(19) 0.0000(18) 0.007(2)
C3 0.027(2) 0.031(2) 0.052(3) -0.0053(18) 0.0045(17) 0.0060(19)
C4 0.021(2) 0.033(3) 0.058(3) -0.002(2) 0.0040(16) 0.0005(19)
C5 0.031(2) 0.036(3) 0.054(3) -0.004(2) 0.0054(18) 0.000(2)
C6 0.048(3) 0.051(4) 0.051(3) 0.004(2) -0.002(2) -0.008(3)
F2 0.147(8) 0.099(7) 0.078(5) 0.010(4) 0.011(4) -0.007(5)
C7 0.041(3) 0.051(4) 0.068(3) 0.019(3) 0.000(2) -0.004(3)
C8 0.032(3) 0.033(3) 0.091(4) 0.007(3) 0.010(2) 0.003(2)
C9 0.031(2) 0.037(3) 0.067(3) -0.009(2) 0.0091(19) 0.002(2)
O1 0.051(2) 0.046(2) 0.048(2) -0.0053(15) 0.0077(14) 0.0109(18)
O2 0.054(2) 0.052(2) 0.0413(18) -0.0037(16) 0.0077(14) 0.0148(19)
F1 0.071(2) 0.044(2) 0.0479(18) -0.0060(12) 0.0104(14) 0.0045(15)
loop_
_atom_type_symbol
_atom_type_description
_atom_type_scat_dispersion_real
_atom_type_scat_dispersion_imag
_atom_type_scat_source
C C 0.0033 0.0016 'International Tables Vol C Tables 4.2.6.8 and 6.1.1.4'
H H 0.0000 0.0000 'International Tables Vol C Tables 4.2.6.8 and 6.1.1.4'
O O 0.0106 0.0060 'International Tables Vol C Tables 4.2.6.8 and 6.1.1.4'
F F 0.0171 0.0103 'International Tables Vol C Tables 4.2.6.8 and 6.1.1.4'
loop_
_geom_angle_atom_site_label_1
_geom_angle_atom_site_label_2
_geom_angle_atom_site_label_3
_geom_angle
O1 C1 O2 123.2(5)
O1 C1 C2 122.7(5)
O2 C1 C2 114.1(5)
C3 C2 C1 119.9(5)
C3 C2 H2 120.0
C1 C2 H2 120.0
C2 C3 C4 126.6(5)
C2 C3 H3 116.7
C4 C3 H3 116.7
C5 C4 C9 116.2(4)
C5 C4 C3 120.0(5)
C9 C4 C3 123.8(5)
F1 C5 C6 119.2(5)
F1 C5 C4 118.6(4)
C6 C5 C4 122.2(5)
F2 C6 C7 121.1(7)
F2 C6 C5 118.5(7)
C7 C6 C5 120.4(6)
C7 C6 H6 119.8
C5 C6 H6 119.8
C6 C7 C8 120.4(5)
C6 C7 H7 119.8
C8 C7 H7 119.8
C7 C8 C9 119.6(6)
C7 C8 H8 120.2
C9 C8 H8 120.2
C8 C9 C4 121.2(5)
C8 C9 H9 119.4
C4 C9 H9 119.4
C1 O2 H2A 109.5
loop_
_geom_bond_atom_site_label_1
_geom_bond_atom_site_label_2
_geom_bond_distance
C1 O1 1.232(7)
C1 O2 1.304(7)
C1 C2 1.466(8)
C2 C3 1.344(8)
C2 H2 0.9500
C3 C4 1.462(8)
C3 H3 0.9500
C4 C5 1.410(8)
C4 C9 1.411(8)
C5 F1 1.345(7)
C5 C6 1.375(8)
C6 F2 1.195(10)
C6 C7 1.361(10)
C6 H6 0.9500
C7 C8 1.388(10)
C7 H7 0.9500
C8 C9 1.400(8)
C8 H8 0.9500
C9 H9 0.9500
O2 H2A 0.8400
loop_
_geom_hbond_atom_site_label_D
_geom_hbond_atom_site_label_H
_geom_hbond_atom_site_label_A
_geom_hbond_distance_DH
_geom_hbond_distance_HA
_geom_hbond_distance_DA
_geom_hbond_angle_DHA
_geom_hbond_site_symmetry_A
C2 H2 O2 0.95 2.55 3.478(10) 166.4 3_665
C7 H7 F2 0.95 2.62 3.480(14) 150.7 2_645
O2 H2A O1 0.84 1.83 2.612(9) 154.9 3_575
loop_
_geom_torsion_atom_site_label_1
_geom_torsion_atom_site_label_2
_geom_torsion_atom_site_label_3
_geom_torsion_atom_site_label_4
_geom_torsion
O1 C1 C2 C3 -3.3(7)
O2 C1 C2 C3 177.1(4)
C1 C2 C3 C4 -179.4(4)
C2 C3 C4 C5 175.1(4)
C2 C3 C4 C9 -5.8(8)
C9 C4 C5 F1 -179.2(4)
C3 C4 C5 F1 0.0(6)
C9 C4 C5 C6 1.1(7)
C3 C4 C5 C6 -179.7(4)
F1 C5 C6 F2 -1.2(8)
C4 C5 C6 F2 178.5(6)
F1 C5 C6 C7 -180.0(5)
C4 C5 C6 C7 -0.3(8)
F2 C6 C7 C8 -178.9(6)
C5 C6 C7 C8 -0.2(8)
C6 C7 C8 C9 -0.2(8)
C7 C8 C9 C4 1.2(7)
C5 C4 C9 C8 -1.6(7)
C3 C4 C9 C8 179.3(4)
