#------------------------------------------------------------------------------
#$Date: 2019-11-17 09:39:26 +0200 (Sun, 17 Nov 2019) $
#$Revision: 229155 $
#$URL: file:///home/coder/svn-repositories/cod/cif/7/23/01/7230104.cif $
#------------------------------------------------------------------------------
#
# This file is available in the Crystallography Open Database (COD),
# http://www.crystallography.net/
#
# All data on this site have been placed in the public domain by the
# contributors.
#
data_7230104
loop_
_publ_author_name
'Hachu\/la, Barbara'
'Zubko, Maciej'
'Zajdel, Pawe\/l'
'Ksi\;a\.zek, Maria'
'Kusz, Joachim'
'Starczewska, Oliwia'
'Janek, Joanna'
'Pisarski, Wojciech'
_publ_section_title
;
 Polymorphs of oxindole as the core structures in bioactive compounds
;
_journal_issue                   12
_journal_name_full               CrystEngComm
_journal_page_first              1739
_journal_paper_doi               10.1039/C7CE01237C
_journal_volume                  20
_journal_year                    2018
_chemical_formula_moiety         'C8 H7 N O'
_chemical_formula_sum            'C8 H7 N O'
_chemical_formula_weight         133.15
_chemical_name_systematic        2-oxindole
_space_group_crystal_system      monoclinic
_space_group_IT_number           14
_space_group_name_Hall           '-P 2ybc'
_space_group_name_H-M_alt        'P 1 21/c 1'
_symmetry_space_group_name_Hall  '-P 2ybc'
_symmetry_space_group_name_H-M   'P 1 21/c 1'
_atom_sites_solution_hydrogens   geom
_audit_creation_method           SHELXL-2014/7
_audit_update_record
;
2017-01-17 deposited with the CCDC.
2018-02-09 downloaded from the CCDC.
;
_cell_angle_alpha                90
_cell_angle_beta                 103.325(6)
_cell_angle_gamma                90
_cell_formula_units_Z            4
_cell_length_a                   12.2387(7)
_cell_length_b                   7.2236(4)
_cell_length_c                   8.0822(4)
_cell_measurement_reflns_used    1200
_cell_measurement_temperature    293(1)
_cell_measurement_theta_max      24.2770
_cell_measurement_theta_min      3.8190
_cell_volume                     695.29(7)
_computing_cell_refinement       'CrysAlisPro 1.171.38.41q (Rigaku OD, 2015)'
_computing_data_collection       'CrysAlisPro 1.171.38.41q (Rigaku OD, 2015)'
_computing_data_reduction        'CrysAlisPro 1.171.38.41q (Rigaku OD, 2015)'
_computing_structure_refinement  'SHELXL-2014/7 (Sheldrick, 2014)'
_computing_structure_solution    'SHELXS-2013 (Sheldrick, 2014)'
_diffrn_ambient_temperature      293(1)
_diffrn_detector_area_resol_mean 10.4498
_diffrn_measured_fraction_theta_full 0.999
_diffrn_measured_fraction_theta_max 0.999
_diffrn_measurement_device_type
;
SuperNova diffractometer (Agilent Technologies) with Atlas detector
;
_diffrn_measurement_method       '\w scans'
_diffrn_radiation_type           MoK\a
_diffrn_radiation_wavelength     0.71073
_diffrn_reflns_av_R_equivalents  0.0368
_diffrn_reflns_av_unetI/netI     0.0354
_diffrn_reflns_Laue_measured_fraction_full 0.999
_diffrn_reflns_Laue_measured_fraction_max 0.999
_diffrn_reflns_limit_h_max       15
_diffrn_reflns_limit_h_min       -15
_diffrn_reflns_limit_k_max       9
_diffrn_reflns_limit_k_min       -9
_diffrn_reflns_limit_l_max       10
_diffrn_reflns_limit_l_min       -6
_diffrn_reflns_number            5463
_diffrn_reflns_point_group_measured_fraction_full 0.999
_diffrn_reflns_point_group_measured_fraction_max 0.999
_diffrn_reflns_theta_full        25.242
_diffrn_reflns_theta_max         26.370
_diffrn_reflns_theta_min         3.298
_diffrn_source                   'micro-focus sealed X-ray tube'
_exptl_absorpt_coefficient_mu    0.085
_exptl_absorpt_correction_T_max  1.00000
_exptl_absorpt_correction_T_min  0.43781
_exptl_absorpt_correction_type   multi-scan
_exptl_absorpt_process_details
;
CrysAlisPro 1.171.38.41q (Rigaku Oxford Diffraction, 2015)
Empirical absorption correction using spherical harmonics,
 implemented in SCALE3 ABSPACK scaling algorithm.
;
_exptl_crystal_colour            colourless
_exptl_crystal_density_diffrn    1.272
_exptl_crystal_description       needle
_exptl_crystal_F_000             280
_exptl_crystal_recrystallization_method 'Re-crystallisation from solvent'
_exptl_crystal_size_max          0.200
_exptl_crystal_size_mid          0.030
_exptl_crystal_size_min          0.020
_refine_diff_density_max         0.112
_refine_diff_density_min         -0.173
_refine_diff_density_rms         0.035
_refine_ls_extinction_method     none
_refine_ls_goodness_of_fit_ref   1.062
_refine_ls_hydrogen_treatment    constr
_refine_ls_matrix_type           full
_refine_ls_number_parameters     91
_refine_ls_number_reflns         1417
_refine_ls_number_restraints     0
_refine_ls_restrained_S_all      1.062
_refine_ls_R_factor_all          0.0809
_refine_ls_R_factor_gt           0.0499
_refine_ls_shift/su_max          0.000
_refine_ls_shift/su_mean         0.000
_refine_ls_structure_factor_coef Fsqd
_refine_ls_weighting_details
'w=1/[\s^2^(Fo^2^)+(0.0607P)^2^+0.0023P] where P=(Fo^2^+2Fc^2^)/3'
_refine_ls_weighting_scheme      calc
_refine_ls_wR_factor_gt          0.1220
_refine_ls_wR_factor_ref         0.1518
_reflns_Friedel_coverage         0.000
_reflns_number_gt                888
_reflns_number_total             1417
_reflns_threshold_expression     'I > 2\s(I)'
_cod_data_source_file            c7ce01237c3.cif
_cod_data_source_block           shelx
_cod_depositor_comments
'Adding full bibliography for 7230098--7230105.cif.'
_cod_database_code               7230104
_shelx_shelxl_version_number     2014/7
_shelx_space_group_comment
;
The symmetry employed for this shelxl refinement is uniquely defined
by the following loop, which should always be used as a source of
symmetry information in preference to the above space-group names.
They are only intended as comments.
;
_shelx_estimated_absorpt_t_min   0.983
_shelx_estimated_absorpt_t_max   0.998
_shelx_res_file
;

    shelx.res created by SHELXL-2014/7


TITL flch16_hb5_ht in P2(1)/c
CELL 0.71073  12.2387   7.2236   8.0822  90.000 103.325  90.000
ZERR    4.00   0.0007   0.0004   0.0004   0.000   0.006   0.000
LATT  1
SYMM -X, 0.5+Y, 0.5-Z
SFAC  C    H    N    O
UNIT  32 28 4 4
MERG   2
shel 999 0.8
FMAP   2
PLAN   20
ACTA
BOND   $H
CONF
size 0.02 0.03 0.20
L.S.  40
htab
WGHT    0.060700    0.002300
FVAR       0.37801
MOLE    1
O1    4    0.517348    0.243362    0.727944    11.00000    0.06780    0.07259 =
         0.07918    0.01352   -0.00999    0.00332
N1    3    0.389297    0.441869    0.574926    11.00000    0.05994    0.04481 =
         0.05820    0.00162    0.00440   -0.00215
AFIX  43
H1    2    0.419523    0.542447    0.620943    11.00000   -1.20000
AFIX   0
C1    1    0.290867    0.435819    0.446914    11.00000    0.04777    0.06164 =
         0.04909    0.00137    0.00988    0.00441
C2    1    0.224663    0.579514    0.371602    11.00000    0.06964    0.08006 =
         0.07137    0.00989    0.01015    0.02092
AFIX  43
H2    2    0.242642    0.701510    0.403372    11.00000   -1.20000
AFIX   0
C3    1    0.130484    0.537050    0.247112    11.00000    0.06633    0.11740 =
         0.07728    0.01450    0.00730    0.03041
AFIX  43
H3    2    0.084098    0.631857    0.193656    11.00000   -1.20000
AFIX   0
C4    1    0.104304    0.356942    0.201078    11.00000    0.05217    0.14223 =
         0.06129    0.00478    0.00131    0.00081
AFIX  43
H4    2    0.040203    0.331127    0.117170    11.00000   -1.20000
AFIX   0
C5    1    0.172292    0.212378    0.278143    11.00000    0.06210    0.09930 =
         0.05705   -0.00864    0.01028   -0.01777
AFIX  43
H5    2    0.154308    0.090569    0.245678    11.00000   -1.20000
AFIX   0
C6    1    0.265755    0.251364    0.402029    11.00000    0.04994    0.07123 =
         0.04673   -0.00128    0.01209   -0.00012
C7    1    0.355188    0.132697    0.509588    11.00000    0.06841    0.05338 =
         0.05673   -0.00227    0.01391   -0.00563
AFIX  23
H7A   2    0.395103    0.062286    0.439945    11.00000   -1.20000
H7B   2    0.323565    0.047993    0.579183    11.00000   -1.20000
AFIX   0
C8    1    0.431226    0.272304    0.617760    11.00000    0.05412    0.05792 =
         0.05416    0.00787    0.00805   -0.00035
HKLF    4

REM  flch16_hb5_ht in P2(1)/c
REM R1 =  0.0499 for     888 Fo > 4sig(Fo)  and  0.0809 for all    1417 data
REM     91 parameters refined using      0 restraints

END

WGHT      0.0636      0.0000

REM Instructions for potential hydrogen bonds
EQIV $1 -x+1, y+1/2, -z+3/2
HTAB N1 O1_$1

REM Highest difference peak  0.112,  deepest hole -0.173,  1-sigma level  0.035
Q1    1   0.0351  0.2520  0.0766  11.00000  0.05    0.11
Q2    1   0.0779  0.7533  0.2921  11.00000  0.05    0.10
Q3    1   0.1764  0.0019  0.2492  11.00000  0.05    0.10
Q4    1   0.5363  0.2163  0.6078  11.00000  0.05    0.10
Q5    1   0.0841 -0.0621  0.0840  11.00000  0.05    0.09
Q6    1   0.5628  0.4138  0.7866  11.00000  0.05    0.09
Q7    1   0.5236  0.6624  0.5994  11.00000  0.05    0.09
Q8    1   0.6127  0.3558  0.7046  11.00000  0.05    0.08
Q9    1   0.3233  0.1869  0.2761  11.00000  0.05    0.08
Q10   1   0.4864  0.5662  0.7255  11.00000  0.05    0.08
Q11   1   0.6351  0.2464  0.8049  11.00000  0.05    0.08
Q12   1   0.2863  0.1839  0.4367  11.00000  0.05    0.08
Q13   1   0.1981  0.3520  0.5478  11.00000  0.05    0.08
Q14   1   0.2087 -0.0816  0.5756  11.00000  0.05    0.08
Q15   1   0.1019  0.1266  0.3986  11.00000  0.05    0.08
Q16   1   0.4867  0.7245  0.5462  11.00000  0.05    0.08
Q17   1   0.3584 -0.0559  0.7347  11.00000  0.05    0.07
Q18   1   0.0081  0.0588 -0.0246  11.00000  0.05    0.07
Q19   1  -0.1000  0.3737  0.1094  11.00000  0.05    0.07
Q20   1   0.3776  0.0949  0.7777  11.00000  0.05    0.07
;
_shelx_res_checksum              30950
loop_
_space_group_symop_operation_xyz
'x, y, z'
'-x, y+1/2, -z+1/2'
'-x, -y, -z'
'x, -y-1/2, z-1/2'
loop_
_atom_site_label
_atom_site_type_symbol
_atom_site_fract_x
_atom_site_fract_y
_atom_site_fract_z
_atom_site_U_iso_or_equiv
_atom_site_adp_type
_atom_site_occupancy
_atom_site_site_symmetry_order
_atom_site_calc_flag
_atom_site_refinement_flags_posn
_atom_site_refinement_flags_adp
O1 O 0.51735(12) 0.2434(2) 0.72794(17) 0.0776(5) Uani 1 1 d . .
N1 N 0.38930(12) 0.4419(2) 0.57493(17) 0.0558(5) Uani 1 1 d . .
H1 H 0.4195 0.5424 0.6209 0.067 Uiso 1 1 calc R U
C1 C 0.29087(15) 0.4358(3) 0.4469(2) 0.0530(5) Uani 1 1 d . .
C2 C 0.22466(19) 0.5795(3) 0.3716(3) 0.0747(7) Uani 1 1 d . .
H2 H 0.2426 0.7015 0.4034 0.090 Uiso 1 1 calc R U
C3 C 0.1305(2) 0.5371(5) 0.2471(3) 0.0885(8) Uani 1 1 d . .
H3 H 0.0841 0.6319 0.1937 0.106 Uiso 1 1 calc R U
C4 C 0.10430(19) 0.3569(5) 0.2011(3) 0.0871(8) Uani 1 1 d . .
H4 H 0.0402 0.3311 0.1172 0.105 Uiso 1 1 calc R U
C5 C 0.17229(18) 0.2124(4) 0.2781(2) 0.0734(7) Uani 1 1 d . .
H5 H 0.1543 0.0906 0.2457 0.088 Uiso 1 1 calc R U
C6 C 0.26575(15) 0.2514(3) 0.4020(2) 0.0558(5) Uani 1 1 d . .
C7 C 0.35519(16) 0.1327(3) 0.5096(2) 0.0596(6) Uani 1 1 d . .
H7A H 0.3951 0.0623 0.4399 0.072 Uiso 1 1 calc R U
H7B H 0.3236 0.0480 0.5792 0.072 Uiso 1 1 calc R U
C8 C 0.43123(16) 0.2723(3) 0.6178(2) 0.0561(5) Uani 1 1 d . .
loop_
_atom_site_aniso_label
_atom_site_aniso_U_11
_atom_site_aniso_U_22
_atom_site_aniso_U_33
_atom_site_aniso_U_23
_atom_site_aniso_U_13
_atom_site_aniso_U_12
O1 0.0678(10) 0.0726(11) 0.0792(9) 0.0135(7) -0.0100(8) 0.0033(8)
N1 0.0599(10) 0.0448(9) 0.0582(9) 0.0016(7) 0.0044(8) -0.0022(7)
C1 0.0478(11) 0.0616(12) 0.0491(9) 0.0014(8) 0.0099(8) 0.0044(9)
C2 0.0696(14) 0.0801(15) 0.0714(12) 0.0099(11) 0.0102(11) 0.0209(12)
C3 0.0663(15) 0.117(2) 0.0773(15) 0.0145(15) 0.0073(12) 0.0304(16)
C4 0.0522(13) 0.142(3) 0.0613(13) 0.0048(15) 0.0013(10) 0.0008(16)
C5 0.0621(13) 0.0993(18) 0.0570(12) -0.0086(11) 0.0103(10) -0.0178(13)
C6 0.0499(11) 0.0712(14) 0.0467(10) -0.0013(8) 0.0121(8) -0.0001(9)
C7 0.0684(13) 0.0534(12) 0.0567(11) -0.0023(8) 0.0139(10) -0.0056(10)
C8 0.0541(11) 0.0579(12) 0.0542(10) 0.0079(9) 0.0081(9) -0.0003(9)
loop_
_atom_type_symbol
_atom_type_description
_atom_type_scat_dispersion_real
_atom_type_scat_dispersion_imag
_atom_type_scat_source
C C 0.0033 0.0016 'International Tables Vol C Tables 4.2.6.8 and 6.1.1.4'
H H 0.0000 0.0000 'International Tables Vol C Tables 4.2.6.8 and 6.1.1.4'
N N 0.0061 0.0033 'International Tables Vol C Tables 4.2.6.8 and 6.1.1.4'
O O 0.0106 0.0060 'International Tables Vol C Tables 4.2.6.8 and 6.1.1.4'
loop_
_geom_angle_atom_site_label_1
_geom_angle_atom_site_label_2
_geom_angle_atom_site_label_3
_geom_angle
C8 N1 C1 112.08(15)
C8 N1 H1 124.0
C1 N1 H1 124.0
C2 C1 C6 122.36(19)
C2 C1 N1 128.79(19)
C6 C1 N1 108.85(16)
C1 C2 C3 117.7(2)
C1 C2 H2 121.1
C3 C2 H2 121.1
C4 C3 C2 120.9(2)
C4 C3 H3 119.6
C2 C3 H3 119.6
C3 C4 C5 120.9(2)
C3 C4 H4 119.6
C5 C4 H4 119.6
C6 C5 C4 119.2(2)
C6 C5 H5 120.4
C4 C5 H5 120.4
C5 C6 C1 118.99(19)
C5 C6 C7 133.1(2)
C1 C6 C7 107.89(15)
C6 C7 C8 102.96(16)
C6 C7 H7A 111.2
C8 C7 H7A 111.2
C6 C7 H7B 111.2
C8 C7 H7B 111.2
H7A C7 H7B 109.1
O1 C8 N1 123.66(18)
O1 C8 C7 128.11(18)
N1 C8 C7 108.22(15)
loop_
_geom_bond_atom_site_label_1
_geom_bond_atom_site_label_2
_geom_bond_distance
O1 C8 1.231(2)
N1 C8 1.342(2)
N1 C1 1.396(2)
N1 H1 0.8600
C1 C2 1.370(3)
C1 C6 1.396(3)
C2 C3 1.379(3)
C2 H2 0.9300
C3 C4 1.371(4)
C3 H3 0.9300
C4 C5 1.390(4)
C4 H4 0.9300
C5 C6 1.365(3)
C5 H5 0.9300
C6 C7 1.500(3)
C7 C8 1.507(3)
C7 H7A 0.9700
C7 H7B 0.9700
loop_
_geom_torsion_atom_site_label_1
_geom_torsion_atom_site_label_2
_geom_torsion_atom_site_label_3
_geom_torsion_atom_site_label_4
_geom_torsion
C8 N1 C1 C2 179.73(18)
C8 N1 C1 C6 0.1(2)
C6 C1 C2 C3 -0.2(3)
N1 C1 C2 C3 -179.79(17)
C1 C2 C3 C4 0.1(3)
C2 C3 C4 C5 -0.3(4)
C3 C4 C5 C6 0.5(3)
C4 C5 C6 C1 -0.5(3)
C4 C5 C6 C7 179.72(19)
C2 C1 C6 C5 0.3(3)
N1 C1 C6 C5 -179.96(15)
C2 C1 C6 C7 -179.82(18)
N1 C1 C6 C7 -0.12(19)
C5 C6 C7 C8 179.94(19)
C1 C6 C7 C8 0.13(18)
C1 N1 C8 O1 -179.81(17)
C1 N1 C8 C7 0.0(2)
C6 C7 C8 O1 179.7(2)
C6 C7 C8 N1 -0.10(18)
