#------------------------------------------------------------------------------
#$Date: 2018-02-08 09:14:45 +0200 (Thu, 08 Feb 2018) $
#$Revision: 206294 $
#$URL: file:///home/coder/svn-repositories/cod/cif/7/23/00/7230096.cif $
#------------------------------------------------------------------------------
#
# This file is available in the Crystallography Open Database (COD),
# http://www.crystallography.net/
#
# All data on this site have been placed in the public domain by the
# contributors.
#
data_7230096
loop_
_publ_author_name
'Nong, Wenqian'
'Zhao, Anran'
'Wei, Jinrui'
'Cheng, Hui'
'Luo, Xuan'
'Lin, Cuiwu'
_publ_section_title
;
 Synthesis of a series of benzothiazole amide derivatives and their
 biological evaluation as potent hemostatic agents
;
_journal_issue                   12
_journal_name_full               'RSC Advances'
_journal_page_first              6231
_journal_paper_doi               10.1039/C7RA13397A
_journal_volume                  8
_journal_year                    2018
_chemical_formula_moiety         'C18 H16 N2 O3 S'
_chemical_formula_sum            'C18 H16 N2 O3 S'
_chemical_formula_weight         340.39
_chemical_name_systematic
(E)-N-(benzo[d]thiazol-2-yl)-3-(3,4-dimethoxyphenyl)acrylamide
_space_group_crystal_system      triclinic
_space_group_IT_number           2
_space_group_name_Hall           '-P 1'
_space_group_name_H-M_alt        'P -1'
_symmetry_space_group_name_Hall  '-P 1'
_symmetry_space_group_name_H-M   'P -1'
_atom_sites_solution_hydrogens   geom
_atom_sites_solution_primary     dual
_audit_creation_date             2017-09-22
_audit_creation_method
;
Olex2 1.2
(compiled 2017.08.10 svn.r3458 for OlexSys, GUI svn.r5381)
;
_audit_update_record
;
2017-10-30 deposited with the CCDC.
2018-01-30 downloaded from the CCDC.
;
_cell_angle_alpha                74.802(2)
_cell_angle_beta                 89.117(2)
_cell_angle_gamma                84.624(2)
_cell_formula_units_Z            2
_cell_length_a                   8.2809(2)
_cell_length_b                   8.4804(3)
_cell_length_c                   12.4655(3)
_cell_measurement_reflns_used    6541
_cell_measurement_temperature    150.00(10)
_cell_measurement_theta_max      73.6450
_cell_measurement_theta_min      5.3100
_cell_volume                     841.02(4)
_computing_cell_refinement       'CrysAlisPro 1.171.39.28b (Rigaku OD, 2015)'
_computing_data_collection       'CrysAlisPro 1.171.39.28b (Rigaku OD, 2015)'
_computing_data_reduction        'CrysAlisPro 1.171.39.28b (Rigaku OD, 2015)'
_computing_molecular_graphics    'Olex2 (Dolomanov et al., 2009)'
_computing_publication_material  'Olex2 (Dolomanov et al., 2009)'
_computing_structure_refinement  'ShelXL (Sheldrick, 2015)'
_computing_structure_solution    'ShelXT (Sheldrick, 2015)'
_diffrn_ambient_environment      N~2~
_diffrn_ambient_temperature      150.00(10)
_diffrn_detector                 'CCD plate'
_diffrn_measured_fraction_theta_full 0.995
_diffrn_measured_fraction_theta_max 0.959
_diffrn_measurement_details
;
List of Runs (angles in degrees, time in seconds):

  # Type    Start    End  Width  t~exp~   \w     \q     \k     \f   Frames
#--------------------------------------------------------------------------
  1  \w    -81.00 -55.00   0.50    0.50    --    0.00 -57.00  30.00   52
  2  \w    -39.00 -13.00   0.50    0.50    --    0.00 -38.00 120.00   52
  3  \w      9.00  35.00   0.50    0.50    --    0.00  38.00 -90.00   52
  4  \w    -50.00  17.00   0.50    0.50    --    0.00 -57.00  30.00  134
  5  \w    -18.00  88.00   0.50    0.50    --    0.00  19.00  30.00  212
  6  \w     63.00  89.00   0.50    0.50    --    0.00  38.00 -90.00   52
  7  \w     52.00 121.00   0.50    0.50    --   95.20 -82.00 -60.00  138
  8  \w     72.00 105.00   0.50    0.50    --   95.20  61.00   0.00   66
  9  \w      9.00 118.00   0.50    0.50    --   95.20 -61.00-150.00  218
 10  \w     83.00 115.00   0.50    0.50    --   95.20 -15.00  60.00   64
 11  \w     22.00 116.00   0.50    0.50    --   95.20 -61.00  60.00  188
 12  \w      6.00  75.00   0.50    0.50    --   95.20 -15.00  60.00  138
 13  \w     60.00 101.00   0.50    0.50    --   95.20 -82.00   0.00   82
 14  \w     64.00  95.00   0.50    0.50    --   95.20 -82.00 150.00   62
 15  \w     38.00 125.00   0.50    0.50    --   95.20 -82.00-150.00  174
 16  \w     82.00 185.00   0.50    0.50    --   95.20  30.00  30.00  206
 17  \w     81.00 127.00   0.50    0.50    --   95.20  30.00  60.00   92
 18  \w    137.00 164.00   0.50    0.50    --   95.20  30.00  60.00   54
 19  \w     24.00 126.00   0.50    0.50    --   95.20 -82.00  60.00  204
 20  \w     73.00 168.00   0.50    0.50    --   95.20  15.00 -30.00  190
;
_diffrn_measurement_device       'four-circle diffractometer'
_diffrn_measurement_device_type  'XtaLAB AFC12 (RINC): Kappa dual home/near'
_diffrn_measurement_method       '\w scans'
_diffrn_orient_matrix_type
'CrysAlisPro convention (1999,Acta A55,543-557)'
_diffrn_orient_matrix_UB_11      -0.0023566000
_diffrn_orient_matrix_UB_12      0.0109953000
_diffrn_orient_matrix_UB_13      0.1214363000
_diffrn_orient_matrix_UB_21      -0.1840407000
_diffrn_orient_matrix_UB_22      -0.0153195000
_diffrn_orient_matrix_UB_23      0.0043073000
_diffrn_orient_matrix_UB_31      0.0322986000
_diffrn_orient_matrix_UB_32      -0.1881202000
_diffrn_orient_matrix_UB_33      0.0404562000
_diffrn_radiation_monochromator  graphite
_diffrn_radiation_probe          x-ray
_diffrn_radiation_type           CuK\a
_diffrn_radiation_wavelength     1.54184
_diffrn_reflns_av_R_equivalents  0.0240
_diffrn_reflns_av_unetI/netI     0.0233
_diffrn_reflns_Laue_measured_fraction_full 0.995
_diffrn_reflns_Laue_measured_fraction_max 0.959
_diffrn_reflns_limit_h_max       10
_diffrn_reflns_limit_h_min       -10
_diffrn_reflns_limit_k_max       6
_diffrn_reflns_limit_k_min       -10
_diffrn_reflns_limit_l_max       13
_diffrn_reflns_limit_l_min       -15
_diffrn_reflns_number            7491
_diffrn_reflns_point_group_measured_fraction_full 0.995
_diffrn_reflns_point_group_measured_fraction_max 0.959
_diffrn_reflns_theta_full        67.684
_diffrn_reflns_theta_max         74.014
_diffrn_reflns_theta_min         3.675
_diffrn_source                   'fine-focus sealed X-ray tube'
_diffrn_source_type              'Enhance (Cu) X-ray Source'
_exptl_absorpt_coefficient_mu    1.868
_exptl_absorpt_correction_T_max  1.00000
_exptl_absorpt_correction_T_min  0.06531
_exptl_absorpt_correction_type   multi-scan
_exptl_absorpt_process_details
;
CrysAlisPro 1.171.39.28b (Rigaku Oxford Diffraction, 2015)
Empirical absorption correction using spherical harmonics,
 implemented in SCALE3 ABSPACK scaling algorithm.
;
_exptl_crystal_colour            colorless
_exptl_crystal_density_diffrn    1.344
_exptl_crystal_description       block
_exptl_crystal_F_000             356
_exptl_crystal_size_max          0.18
_exptl_crystal_size_mid          0.15
_exptl_crystal_size_min          0.12
_refine_diff_density_max         0.628
_refine_diff_density_min         -0.390
_refine_diff_density_rms         0.066
_refine_ls_extinction_coef       0.0080(9)
_refine_ls_extinction_expression Fc^*^=kFc[1+0.001xFc^2^\l^3^/sin(2\q)]^-1/4^
_refine_ls_extinction_method     'SHELXL-2017/1 (Sheldrick 2017)'
_refine_ls_goodness_of_fit_ref   1.046
_refine_ls_hydrogen_treatment    constr
_refine_ls_matrix_type           full
_refine_ls_number_parameters     220
_refine_ls_number_reflns         3284
_refine_ls_number_restraints     0
_refine_ls_restrained_S_all      1.046
_refine_ls_R_factor_all          0.0460
_refine_ls_R_factor_gt           0.0449
_refine_ls_shift/su_max          0.001
_refine_ls_shift/su_mean         0.000
_refine_ls_structure_factor_coef Fsqd
_refine_ls_weighting_details
'w=1/[\s^2^(Fo^2^)+(0.0669P)^2^+0.6562P] where P=(Fo^2^+2Fc^2^)/3'
_refine_ls_weighting_scheme      calc
_refine_ls_wR_factor_gt          0.1203
_refine_ls_wR_factor_ref         0.1210
_reflns_Friedel_coverage         0.000
_reflns_number_gt                3176
_reflns_number_total             3284
_reflns_threshold_expression     'I > 2\s(I)'
_iucr_refine_instructions_details
;
TITL rgs_a.res in P-1
    rgs.res
    created by SHELXL-2017/1 at 10:42:50 on 22-Sep-2017
REM Old TITL RGS in P-1
REM SHELXT solution in P-1
REM R1 0.094, Rweak 0.008, Alpha 0.052, Orientation as input
REM Formula found by SHELXT: C18 N2 O4 S
CELL 1.54184 8.2809 8.4804 12.4655 74.802 89.117 84.624
ZERR 2 0.0002 0.0003 0.0003 0.002 0.002 0.002
LATT 1
SFAC C H N O S
UNIT 36 32 4 6 2

L.S. 10
PLAN  20
SIZE 0.18 0.15 0.12
BOND $H
list 4
ABIN
fmap 2
acta
REM <olex2.extras>
REM <HklSrc "%.\\RGS.hkl">
REM </olex2.extras>

WGHT    0.066900    0.656200
EXTI    0.008000
FVAR       0.58388
S1    5    0.867279    1.046652    0.881627    11.00000    0.02347    0.01939 =
         0.01832   -0.00626    0.00138   -0.00446
O2    4    0.523676    0.152184    0.574798    11.00000    0.03599    0.02698 =
         0.02273   -0.01086    0.00310   -0.00738
O1    4    0.375808   -0.033834    0.732103    11.00000    0.03285    0.02473 =
         0.02975   -0.00950    0.00195   -0.01132
O3    4    0.726826    0.776365    0.889771    11.00000    0.03988    0.02767 =
         0.02186   -0.00909    0.00454   -0.01193
N1    3    0.823685    0.890522    0.719081    11.00000    0.02536    0.02064 =
         0.01865   -0.00779    0.00113   -0.00538
AFIX  43
H1    2    0.836386    0.882488    0.652054    11.00000   -1.20000
AFIX   0
N2    3    0.952197    1.132559    0.673292    11.00000    0.02183    0.02273 =
         0.02079   -0.00685    0.00102   -0.00523
C5    1    0.575051    0.339540    0.687616    11.00000    0.02069    0.01749 =
         0.02141   -0.00281    0.00006   -0.00124
AFIX  43
H5    2    0.632403    0.405421    0.631257    11.00000   -1.20000
AFIX   0
C4    1    0.512758    0.202522    0.670958    11.00000    0.02057    0.02136 =
         0.02133   -0.00707   -0.00207    0.00098
C12   1    0.964466    1.225057    0.834907    11.00000    0.01855    0.01975 =
         0.02415   -0.00656    0.00037   -0.00137
C3    1    0.428875    0.099677    0.757284    11.00000    0.01897    0.01929 =
         0.02680   -0.00686   -0.00315   -0.00254
C13   1    1.006871    1.332708    0.895416    11.00000    0.02541    0.02398 =
         0.02458   -0.01071    0.00095   -0.00210
AFIX  43
H13   2    0.985797    1.312907    0.971047    11.00000   -1.20000
AFIX   0
C2    1    0.406544    0.138855    0.857623    11.00000    0.02133    0.02220 =
         0.02519   -0.00367    0.00293   -0.00424
AFIX  43
H2    2    0.351315    0.071795    0.914667    11.00000   -1.20000
AFIX   0
C9    1    0.745922    0.771785    0.792922    11.00000    0.02058    0.02056 =
         0.02337   -0.00537   -0.00050   -0.00174
C11   1    0.998423    1.252018    0.721659    11.00000    0.02014    0.02061 =
         0.02378   -0.00730   -0.00020   -0.00123
C1    1    0.466911    0.278772    0.872921    11.00000    0.02323    0.02452 =
         0.02218   -0.00773    0.00190   -0.00189
AFIX  43
H1A   2    0.449996    0.305321    0.940279    11.00000   -1.20000
AFIX   0
C15   1    1.112265    1.499290    0.725631    11.00000    0.03175    0.02470 =
         0.03494   -0.00829    0.00428   -0.01020
AFIX  43
H15   2    1.160333    1.593418    0.689348    11.00000   -1.20000
AFIX   0
C6    1    0.552033    0.380072    0.789898    11.00000    0.01925    0.01807 =
         0.02364   -0.00513   -0.00151    0.00037
C16   1    1.072976    1.391462    0.666121    11.00000    0.02910    0.02567 =
         0.02610   -0.00631    0.00333   -0.00781
AFIX  43
H16   2    1.095681    1.411300    0.590709    11.00000   -1.20000
AFIX   0
C10   1    0.882083    1.021144    0.746700    11.00000    0.01902    0.02031 =
         0.01865   -0.00519   -0.00238   -0.00045
C14   1    1.081075    1.469397    0.839175    11.00000    0.02838    0.02371 =
         0.03495   -0.01349    0.00018   -0.00619
AFIX  43
H14   2    1.110746    1.542726    0.877599    11.00000   -1.20000
AFIX   0
C7    1    0.614751    0.522503    0.813489    11.00000    0.02392    0.02089 =
         0.02303   -0.00795   -0.00009   -0.00086
AFIX  43
H7    2    0.599203    0.531359    0.885803    11.00000   -1.20000
AFIX   0
C8    1    0.691074    0.642021    0.746970    11.00000    0.02326    0.02092 =
         0.02368   -0.00878   -0.00160   -0.00167
AFIX  43
H8    2    0.709420    0.643581    0.672923    11.00000   -1.20000
AFIX   0
C17   1    0.302257   -0.147582    0.819906    11.00000    0.03271    0.02673 =
         0.03779   -0.00829    0.00451   -0.01229
AFIX 137
H17A  2    0.277841   -0.240533    0.794780    11.00000   -1.50000
H17B  2    0.203929   -0.095365    0.841701    11.00000   -1.50000
H17C  2    0.375509   -0.183387    0.882317    11.00000   -1.50000
AFIX   0
C18   1    0.613902    0.245702    0.485633    11.00000    0.03640    0.02902 =
         0.02045   -0.00590    0.00240   -0.00199
AFIX 137
H18A  2    0.609058    0.201642    0.422361    11.00000   -1.50000
H18B  2    0.724867    0.240294    0.508579    11.00000   -1.50000
H18C  2    0.568339    0.357938    0.466114    11.00000   -1.50000
AFIX   0
HKLF 4




REM  rgs_a.res in P-1
REM R1 =  0.0449 for    3176 Fo > 4sig(Fo)  and  0.0460 for all    3284 data
REM    220 parameters refined using      0 restraints

END  
     
WGHT      0.0669      0.6623 

REM Highest difference peak  0.628,  deepest hole -0.390,  1-sigma level  0.066
Q1    1   1.0789  1.0996  0.5605  11.00000  0.05    0.63
Q2    1   0.8194  0.8609  0.4996  11.00000  0.05    0.44
Q3    1   0.8271  0.9254  0.5647  11.00000  0.05    0.42
Q4    1   0.9089  0.8286  0.5576  11.00000  0.05    0.36
Q5    1   0.8832  1.0249  0.8052  11.00000  0.05    0.33
Q6    1   0.5573  0.3615  0.7412  11.00000  0.05    0.32
Q7    1   0.4619  0.1579  0.7145  11.00000  0.05    0.31
Q8    1   0.4216  0.1230  0.8015  11.00000  0.05    0.30
Q9    1   0.5788  0.4433  0.7972  11.00000  0.05    0.30
Q10   1   0.7985 -0.0101  0.4407  11.00000  0.05    0.29
Q11   1   0.9757  1.2492  0.7822  11.00000  0.05    0.29
Q12   1   0.7442  0.6578  0.5930  11.00000  0.05    0.28
Q13   1   0.5362  0.2738  0.6757  11.00000  0.05    0.28
Q14   1   0.7249 -0.0268  0.4610  11.00000  0.05    0.28
Q15   1   0.5203  0.3358  0.8213  11.00000  0.05    0.28
Q16   1   0.9731  1.2692  0.8561  11.00000  0.05    0.26
Q17   1   1.0448  1.3963  0.8674  11.00000  0.05    0.24
Q18   1   0.5204  0.1843  0.6226  11.00000  0.05    0.24
Q19   1   0.9764  1.0994  0.5964  11.00000  0.05    0.23
Q20   1   0.9985  1.2121  0.6979  11.00000  0.05    0.23

  REM The information below was added by Olex2.
  REM
  REM R1 = 0.0449 for 3176 Fo > 4sig(Fo) and 0.0460 for all 7491 data
  REM n/a parameters refined using n/a restraints
  REM Highest difference peak 0.63, deepest hole -0.39
  REM Mean Shift 0, Max Shift -0.001.

  REM +++ Tabular Listing of Refinement Information +++
  REM R1_all = 0.0460
  REM R1_gt = 0.0449
  REM wR_ref = 0.1210
  REM GOOF = 1.046
  REM Shift_max = -0.001
  REM Shift_mean = 0
  REM Reflections_all = 7491
  REM Reflections_gt = 3176
  REM Parameters = n/a
  REM Hole = -0.39
  REM Peak = 0.63
  REM Flack = n/a

  
;
_cod_data_source_file            c7ra13397a2.cif
_cod_data_source_block           rgs
_cod_database_code               7230096
_shelx_shelxl_version_number     2017/1
_shelx_space_group_comment
;
The symmetry employed for this shelxl refinement is uniquely defined
by the following loop, which should always be used as a source of
symmetry information in preference to the above space-group names.
They are only intended as comments.
;
_shelx_estimated_absorpt_t_max   0.807
_shelx_estimated_absorpt_t_min   0.730
_reflns_odcompleteness_completeness 99.53
_reflns_odcompleteness_iscentric 1
_reflns_odcompleteness_theta     66.97
_olex2_refinement_description
;
1. Fixed Uiso
 At 1.2 times of:
  All C(H) groups, All N(H) groups
 At 1.5 times of:
  All C(H,H,H) groups
2.a Aromatic/amide H refined with riding coordinates:
 N1(H1), C5(H5), C13(H13), C2(H2), C1(H1A), C15(H15), C16(H16), C14(H14),
 C7(H7), C8(H8)
2.b Idealised Me refined as rotating group:
 C17(H17A,H17B,H17C), C18(H18A,H18B,H18C)
;
_shelx_fab_file
;
-10 -3 1 -0.2406 -0.0909
-10 -2 1 -0.7863 -0.0828
-10 -1 1 -0.8815 -0.0585
-10 -1 2 0.8306 0.0569
-10 -1 3 -0.7470 -0.0473
-10 0 1 -0.2984 -0.0368
-10 0 2 0.2754 0.0430
-10 0 3 -0.2478 -0.0416
-10 1 1 0.4477 -0.0188
-10 1 2 -0.4460 0.0232
-9 -5 1 -0.0436 -0.0396
-9 -4 1 -0.8407 -0.0913
-9 -4 2 0.6974 0.0740
-9 -4 3 -0.5469 -0.0567
-9 -3 1 -1.5052 -0.1108
-9 -3 2 1.3578 0.0906
-9 -3 3 -1.1788 -0.0678
-9 -3 4 0.9882 0.0483
-9 -3 5 -0.8028 -0.0354
-9 -2 1 -1.2465 -0.1052
-9 -2 2 1.1860 0.0904
-9 -2 3 -1.0970 -0.0705
-9 -2 4 0.9877 0.0506
-9 -2 5 -0.8644 -0.0343
-9 -2 6 0.7309 0.0226
-9 -1 1 -0.0158 -0.1012
-9 -1 2 0.0398 0.0945
-9 -1 3 -0.0658 -0.0791
-9 -1 4 0.0885 0.0593
-9 -1 5 -0.1019 -0.0395
-9 -1 6 0.1013 0.0229
-9 -1 7 -0.0857 -0.0109
-9 0 1 1.3327 -0.0974
-9 0 2 -1.2797 0.0922
-9 0 3 1.2025 -0.0752
-9 0 4 -1.1096 0.0508
-9 0 5 1.0077 -0.0251
-9 0 6 -0.9002 0.0034
-9 0 7 0.7863 0.0106
-9 1 1 1.7044 -0.0816
-9 1 2 -1.6691 0.0773
-9 1 3 1.6114 -0.0608
-9 1 4 -1.5349 0.0363
-9 1 5 1.4393 -0.0099
-9 1 6 -1.3204 -0.0127
-9 1 7 1.1723 0.0276
-9 2 1 0.9065 -0.0513
-9 2 2 -0.9156 0.0527
-9 2 3 0.9178 -0.0454
-9 2 4 -0.9096 0.0320
-9 2 5 0.8836 -0.0162
-9 2 6 -0.8310 0.0014
-9 2 7 0.7449 0.0101
-9 3 1 -0.2062 -0.0169
-9 3 2 0.1795 0.0205
-9 3 3 -0.1427 -0.0200
-8 -6 1 -0.3745 0.0580
-8 -6 2 0.2607 -0.0576
-8 -5 1 -1.3629 0.0126
-8 -5 2 1.1544 -0.0236
-8 -5 3 -0.9444 0.0243
-8 -5 4 0.7508 -0.0157
-8 -4 1 -1.9340 -0.0257
-8 -4 2 1.7321 0.0070
-8 -4 3 -1.5163 0.0023
-8 -4 4 1.3054 -0.0011
-8 -4 5 -1.1112 -0.0079
-8 -4 6 0.9363 0.0197
-8 -3 1 -1.1523 -0.0471
-8 -3 2 1.1079 0.0268
-8 -3 3 -1.0519 -0.0132
-8 -3 4 0.9884 0.0084
-8 -3 5 -0.9163 -0.0109
-8 -3 6 0.8309 0.0168
-8 -3 7 -0.7260 -0.0218
-8 -2 1 0.6419 -0.0782
-8 -2 2 -0.5356 0.0595
-8 -2 3 0.4203 -0.0420
-8 -2 4 -0.3074 0.0297
-8 -2 5 0.2085 -0.0238
-8 -2 6 -0.1320 0.0232
-8 -2 7 0.0815 -0.0252
-8 -2 8 -0.0551 0.0273
-8 -1 1 2.1847 -0.1178
-8 -1 2 -2.0657 0.0979
-8 -1 3 1.9253 -0.0729
-8 -1 4 -1.7734 0.0491
-8 -1 5 1.6165 -0.0317
-8 -1 6 -1.4555 0.0230
-8 -1 7 1.2861 -0.0226
-8 -1 8 -1.1018 0.0276
-8 0 1 2.2903 -0.1377
-8 0 2 -2.2430 0.1181
-8 0 3 2.1827 -0.0891
-8 0 4 -2.1082 0.0581
-8 0 5 2.0138 -0.0319
-8 0 6 -1.8902 0.0147
-8 0 7 1.7266 -0.0072
-8 0 8 -1.5156 0.0073
-8 0 9 1.2580 -0.0113
-8 1 1 0.8503 -0.1273
-8 1 2 -0.8823 0.1161
-8 1 3 0.9160 -0.0954
-8 1 4 -0.9416 0.0707
-8 1 6 -0.9207 0.0281
-8 1 7 0.8544 -0.0144
-8 1 8 -0.7465 0.0049
-8 1 9 0.6042 0.0022
-8 2 1 -0.9188 -0.1006
-8 2 2 0.8464 0.0976
-8 2 3 -0.7590 -0.0869
-8 2 4 0.6692 0.0718
-8 2 5 -0.5883 -0.0554
-8 2 6 0.5234 0.0397
-8 2 7 -0.4756 -0.0255
-8 2 8 0.4400 0.0127
-8 2 9 -0.4067 -0.0012
-8 3 1 -1.6666 -0.0784
-8 3 2 1.6313 0.0772
-8 3 3 -1.5766 -0.0682
-8 3 4 1.5081 0.0537
-8 3 5 -1.4281 -0.0367
-8 3 6 1.3347 0.0199
-8 3 7 -1.2235 -0.0051
-8 3 8 1.0892 -0.0064
-8 4 1 -1.1483 -0.0656
-8 4 2 1.1726 0.0678
-8 4 3 -1.1905 -0.0602
-8 4 4 1.1956 0.0449
-8 4 5 -1.1779 -0.0255
-8 4 6 1.1270 0.0061
-8 4 7 -1.0355 0.0101
-8 5 1 -0.1579 -0.0499
-8 5 2 0.1844 0.0570
-8 5 3 -0.2214 -0.0538
-8 5 4 0.2583 0.0425
-8 5 5 -0.2826 -0.0269
-8 5 6 0.2835 0.0114
-7 -7 1 -0.6438 0.0996
-7 -7 2 0.4734 -0.0787
-7 -7 3 -0.3038 0.0543
-7 -6 1 -1.5554 0.1119
-7 -6 2 1.3261 -0.0996
-7 -6 3 -1.0952 0.0778
-7 -6 4 0.8792 -0.0527
-7 -6 5 -0.6917 0.0298
-7 -5 1 -1.7756 0.1114
-7 -5 2 1.5875 -0.1080
-7 -5 3 -1.4060 0.0903
-7 -5 4 1.2417 -0.0640
-7 -5 5 -1.0953 0.0362
-7 -5 6 0.9588 -0.0128
-7 -5 7 -0.8194 -0.0031
-7 -4 1 -0.4084 0.1014
-7 -4 2 0.4134 -0.1058
-7 -4 3 -0.4362 0.0943
-7 -4 4 0.4733 -0.0717
-7 -4 5 -0.5119 0.0452
-7 -4 6 0.5334 -0.0217
-7 -4 7 -0.5190 0.0054
-7 -4 8 0.4572 0.0026
-7 -3 1 1.7430 0.0604
-7 -3 2 -1.5533 -0.0724
-7 -3 3 1.3375 0.0709
-7 -3 4 -1.1116 -0.0578
-7 -3 5 0.8928 0.0382
-7 -3 6 -0.6963 -0.0175
-7 -3 7 0.5326 0.0004
-7 -3 8 -0.4059 0.0112
-7 -3 9 0.3136 -0.0174
-7 -2 1 2.9650 -0.0074
-7 -2 2 -2.7987 -0.0124
-7 -2 3 2.6091 0.0236
-7 -2 4 -2.4071 -0.0239
-7 -2 5 2.1977 0.0142
-7 -2 6 -1.9792 0.0022
-7 -2 7 1.7451 -0.0210
-7 -2 8 -1.4898 0.0383
-7 -2 9 1.2124 -0.0511
-7 -2 10 -0.9207 0.0582
-7 -1 1 2.2479 -0.0619
-7 -1 2 -2.2372 0.0372
-7 -1 3 2.2199 -0.0164
-7 -1 4 -2.1932 0.0047
-7 -1 5 2.1468 -0.0036
-7 -1 6 -2.0644 0.0116
-7 -1 7 1.9278 -0.0244
-7 -1 8 -1.7250 0.0372
-7 -1 9 1.4564 -0.0461
-7 -1 10 -1.1387 0.0487
-7 0 1 -0.0358 -0.0854
-7 0 2 -0.0600 0.0638
-7 0 3 0.1646 -0.0434
-7 0 4 -0.2689 0.0291
-7 0 5 0.3610 -0.0224
-7 0 6 -0.4269 0.0218
-7 0 7 0.4530 -0.0234
-7 0 8 -0.4319 0.0234
-7 0 9 0.3659 -0.0191
-7 0 10 -0.2682 0.0100
-7 1 1 -2.2696 -0.0977
-7 1 2 2.1553 0.0821
-7 1 3 -2.0240 -0.0656
-7 1 4 1.8853 0.0519
-7 1 5 -1.7460 -0.0426
-7 1 6 1.6090 0.0366
-7 1 7 -1.4735 -0.0316
-7 1 8 1.3355 0.0251
-7 1 9 -1.1881 -0.0161
-7 1 10 1.0240 0.0050
-7 1 11 -0.8388 0.0061
-7 2 1 -2.8227 -0.1146
-7 2 2 2.7701 0.1006
-7 2 3 -2.6957 -0.0814
-7 2 4 2.6059 0.0613
-7 2 5 -2.5014 -0.0436
-7 2 6 2.3767 0.0297
-7 2 7 -2.2225 -0.0198
-7 2 8 2.0292 0.0134
-7 2 9 -1.7908 -0.0098
-7 2 10 1.5087 0.0086
-7 2 11 -1.1932 -0.0093
-7 3 1 -1.5585 -0.1275
-7 3 2 1.6094 0.1155
-7 3 3 -1.6469 -0.0939
-7 3 4 1.6657 0.0676
-7 3 5 -1.6573 -0.0415
-7 3 6 1.6109 0.0194
-7 3 7 -1.5174 -0.0036
-7 3 8 1.3727 -0.0053
-7 3 9 -1.1810 0.0077
-7 3 10 0.9550 -0.0049
-7 4 1 0.2331 -0.1211
-7 4 2 -0.1445 0.1144
-7 4 3 0.0515 -0.0969
-7 4 4 0.0310 0.0735
-7 4 5 -0.0895 -0.0496
-7 4 6 0.1149 0.0292
-7 4 7 -0.1054 -0.0140
-7 4 8 0.0677 0.0039
-7 4 9 -0.0155 0.0020
-7 4 10 -0.0343 -0.0050
-7 5 1 1.1875 -0.0979
-7 5 2 -1.1477 0.0925
-7 5 3 1.0942 -0.0778
-7 5 4 -1.0392 0.0591
-7 5 5 0.9907 -0.0414
-7 5 6 -0.9499 0.0280
-7 5 7 0.9105 -0.0193
-7 5 8 -0.8603 0.0138
-7 5 9 0.7858 -0.0089
-7 6 1 0.9713 -0.0696
-7 6 2 -0.9791 0.0652
-7 6 3 0.9734 -0.0528
-7 6 4 -0.9572 0.0367
-7 6 5 0.9314 -0.0214
-7 6 6 -0.8940 0.0101
-7 7 3 0.3065 -0.0380
-6 -8 1 -0.6404 0.0118
-6 -8 2 0.4184 0.0076
-6 -8 3 -0.2071 -0.0182
-6 -7 1 -1.3599 0.0575
-6 -7 2 1.1341 -0.0331
-6 -7 3 -0.9062 0.0132
-6 -7 4 0.6948 -0.0016
-6 -6 1 -1.1647 0.1177
-6 -6 2 1.0482 -0.0908
-6 -6 3 -0.9482 0.0608
-6 -6 4 0.8655 -0.0348
-6 -6 5 -0.7921 0.0169
-6 -6 6 0.7145 -0.0077
-6 -6 7 -0.6191 0.0050
-6 -5 1 0.6553 0.1673
-6 -5 2 -0.5650 -0.1433
-6 -5 3 0.4295 0.1096
-6 -5 4 -0.2642 -0.0751
-6 -5 5 0.0959 0.0470
-6 -5 6 0.0440 -0.0288
-6 -5 7 -0.1298 0.0200
-6 -5 8 0.1499 -0.0173
-6 -4 1 2.9502 0.1717
-6 -4 2 -2.6806 -0.1584
-6 -4 3 2.3588 0.1319
-6 -4 4 -2.0079 -0.1002
-6 -4 5 1.6557 0.0707
-6 -4 6 -1.3286 -0.0480
-6 -4 7 1.0461 0.0333
-6 -4 8 -0.8162 -0.0247
-6 -4 9 0.6347 0.0190
-6 -3 1 3.6342 0.1309
-6 -3 2 -3.4181 -0.1302
-6 -3 3 3.1664 0.1157
-6 -3 4 -2.8930 -0.0918
-6 -3 5 2.6063 0.0642
-6 -3 6 -2.3089 -0.0377
-6 -3 7 1.9998 0.0152
-6 -3 8 -1.6782 0.0023
-6 -3 9 1.3465 -0.0153
-6 -3 10 -1.0127 0.0244
-6 -2 1 1.8496 0.0882
-6 -2 2 -1.8680 -0.0956
-6 -2 3 1.8844 0.0895
-6 -2 4 -1.8951 -0.0717
-6 -2 5 1.8854 0.0468
-6 -2 6 -1.8332 -0.0202
-6 -2 7 1.7176 -0.0033
-6 -2 8 -1.5286 0.0209
-6 -2 9 1.2723 -0.0316
-6 -2 10 -0.9716 0.0359
-6 -2 11 0.6603 -0.0350
-6 -1 1 -1.3942 0.0667
-6 -1 2 1.2355 -0.0764
-6 -1 3 -1.0459 0.0725
-6 -1 4 0.8323 -0.0568
-6 -1 5 -0.6137 0.0345
-6 -1 6 0.4170 -0.0123
-6 -1 7 -0.2677 -0.0041
-6 -1 8 0.1804 0.0114
-6 -1 9 -0.1529 -0.0098
-6 -1 10 0.1667 0.0018
-6 -1 11 -0.1939 0.0086
-6 0 1 -3.9586 0.0402
-6 0 2 3.8276 -0.0511
-6 0 3 -3.6533 0.0499
-6 0 4 3.4369 -0.0377
-6 0 5 -3.1855 0.0193
-6 0 6 2.9114 -0.0012
-6 0 7 -2.6273 -0.0109
-6 0 8 2.3412 0.0142
-6 0 9 -2.0539 -0.0092
-6 0 10 1.7598 -0.0009
-6 0 11 -1.4522 0.0117
-6 0 12 1.1299 -0.0196
-6 1 1 -4.0132 -0.0088
-6 1 2 3.9704 -0.0073
-6 1 3 -3.8940 0.0160
-6 1 4 3.7842 -0.0159
-6 1 5 -3.6380 0.0085
-6 1 6 3.4502 0.0027
-6 1 7 -3.2154 -0.0139
-6 1 8 2.9299 0.0226
-6 1 9 -2.5936 -0.0279
-6 1 10 2.2115 0.0305
-6 1 11 -1.7957 -0.0316
-6 1 12 1.3657 0.0320
-6 2 1 -1.6873 -0.0563
-6 2 2 1.7400 0.0356
-6 2 3 -1.7844 -0.0165
-6 2 4 1.8182 0.0031
-6 2 5 -1.8303 0.0030
-6 2 6 1.8042 -0.0020
-6 2 7 -1.7240 -0.0042
-6 2 8 1.5808 0.0134
-6 2 9 -1.3770 -0.0238
-6 2 10 1.1267 0.0337
-6 2 11 -0.8535 -0.0421
-6 2 12 0.5851 0.0474
-6 3 1 1.0366 -0.0788
-6 3 2 -0.9415 0.0585
-6 3 3 0.8301 -0.0374
-6 3 4 -0.7103 0.0205
-6 3 5 0.5960 -0.0104
-6 3 6 -0.5029 0.0073
-6 3 7 0.4427 -0.0091
-6 3 8 -0.4181 0.0131
-6 3 9 0.4212 -0.0171
-6 3 10 -0.4355 0.0197
-6 3 11 0.4417 -0.0207
-6 3 12 -0.4238 0.0203
-6 4 1 2.2850 -0.0862
-6 4 2 -2.2483 0.0659
-6 4 3 2.1921 -0.0447
-6 4 4 -2.1219 0.0284
-6 4 5 2.0414 -0.0197
-6 4 6 -1.9514 0.0181
-6 4 7 1.8477 -0.0202
-6 4 8 -1.7224 0.0220
-6 4 9 1.5663 -0.0208
-6 4 10 -1.3736 0.0161
-6 4 11 1.1461 -0.0093
-6 5 1 1.7302 -0.0960
-6 5 2 -1.7744 0.0754
-6 5 3 1.8070 -0.0522
-6 5 4 -1.8252 0.0325
-6 5 5 1.8217 -0.0197
-6 5 6 -1.7859 0.0141
-6 5 7 1.7065 -0.0128
-6 5 8 -1.5752 0.0123
-6 5 9 1.3902 -0.0097
-6 5 10 -1.1598 0.0045
-6 5 11 0.9022 0.0014
-6 6 1 0.4193 -0.0989
-6 6 2 -0.4842 0.0872
-6 6 3 0.5378 -0.0688
-6 6 4 -0.5731 0.0486
-6 6 5 0.5837 -0.0307
-6 6 6 -0.5655 0.0174
-6 6 7 0.5174 -0.0082
-6 6 8 -0.4426 0.0014
-6 6 9 0.3494 0.0047
-6 6 10 -0.2498 -0.0107
-6 7 1 -0.4181 -0.0790
-6 7 2 0.3783 0.0800
-6 7 3 -0.3481 -0.0716
-6 7 4 0.3333 0.0567
-6 7 5 -0.3341 -0.0398
-6 7 6 0.3450 0.0244
-6 7 7 -0.3568 -0.0125
-6 7 8 0.3590 0.0040
-5 -8 1 -0.8174 -0.0716
-5 -8 2 0.6235 0.0747
-5 -8 3 -0.4438 -0.0646
-5 -8 4 0.2957 0.0453
-5 -7 1 -0.3771 -0.0275
-5 -7 2 0.3466 0.0452
-5 -7 3 -0.3380 -0.0508
-5 -7 4 0.3456 0.0445
-5 -7 5 -0.3567 -0.0302
-5 -7 6 0.3556 0.0136
-5 -6 1 1.5110 0.0419
-5 -6 2 -1.3269 -0.0117
-5 -6 3 1.0884 -0.0107
-5 -6 4 -0.8223 0.0210
-5 -6 5 0.5635 -0.0193
-5 -6 6 -0.3455 0.0097
-5 -6 7 0.1908 0.0024
-5 -6 8 -0.1045 -0.0120
-5 -5 1 3.5939 0.0935
-5 -5 2 -3.2525 -0.0634
-5 -5 3 2.8479 0.0361
-5 -5 4 -2.4150 -0.0182
-5 -5 5 1.9916 0.0120
-5 -5 6 -1.6088 -0.0153
-5 -5 7 1.2834 0.0232
-5 -5 8 -1.0158 -0.0304
-5 -5 9 0.7924 0.0332
-5 -4 1 3.7051 0.1138
-5 -4 2 -3.4204 -0.0923
-5 -4 3 3.0962 0.0685
-5 -4 4 -2.7572 -0.0485
-5 -4 5 2.4221 0.0354
-5 -4 6 -2.1009 -0.0291
-5 -4 7 1.7943 0.0268
-5 -4 8 -1.4968 -0.0250
-5 -4 9 1.2010 0.0211
-5 -4 10 -0.9038 -0.0148
-5 -3 1 1.0073 0.1273
-5 -3 2 -1.0082 -0.1117
-5 -3 3 1.0192 0.0888
-5 -3 4 -1.0368 -0.0644
-5 -3 5 1.0462 0.0430
-5 -3 6 -1.0279 -0.0269
-5 -3 7 0.9652 0.0160
-5 -3 8 -0.8517 -0.0085
-5 -3 9 0.6934 0.0026
-5 -3 10 -0.5070 0.0025
-5 -3 11 0.3160 -0.0065
-5 -2 1 -3.0443 0.1503
-5 -2 2 2.8247 -0.1351
-5 -2 3 -2.5275 0.1081
-5 -2 4 2.1767 -0.0767
-5 -2 5 -1.8125 0.0482
-5 -2 6 1.4782 -0.0277
-5 -2 7 -1.2052 0.0171
-5 -2 8 1.0036 -0.0148
-5 -2 9 -0.8610 0.0173
-5 -2 10 0.7509 -0.0211
-5 -2 11 -0.6445 0.0234
-5 -2 12 0.5229 -0.0234
-5 -1 1 -5.6757 0.1595
-5 -1 2 5.4944 -0.1458
-5 -1 3 -5.1962 0.1173
-5 -1 4 4.8023 -0.0819
-5 -1 5 -4.3516 0.0488
-5 -1 6 3.8876 -0.0253
-5 -1 7 -3.4434 0.0143
-5 -1 8 3.0320 -0.0144
-5 -1 9 -2.6453 0.0212
-5 -1 10 2.2631 -0.0290
-5 -1 11 -1.8661 0.0335
-5 -1 12 1.4490 -0.0329
-5 0 1 -4.7347 0.1348
-5 0 2 4.6912 -0.1291
-5 0 3 -4.5685 0.1081
-5 0 4 4.3741 -0.0778
-5 0 5 -4.1232 0.0457
-5 0 6 3.8334 -0.0186
-5 0 7 -3.5183 0.0004
-5 0 8 3.1833 0.0091
-5 0 9 -2.8251 -0.0125
-5 0 10 2.4376 0.0137
-5 0 11 -2.0186 -0.0155
-5 0 12 1.5770 0.0187
-5 0 13 -1.1351 -0.0224
-5 1 1 -0.7638 0.0999
-5 1 2 0.8053 -0.1042
-5 1 3 -0.8662 0.0949
-5 1 4 0.9377 -0.0746
-5 1 5 -1.0021 0.0483
-5 1 6 1.0390 -0.0214
-5 1 7 -1.0314 -0.0018
-5 1 8 0.9706 0.0196
-5 1 9 -0.8580 -0.0322
-5 1 10 0.7043 0.0407
-5 1 11 -0.5277 -0.0462
-5 1 12 0.3500 0.0491
-5 1 13 -0.1925 -0.0488
-5 2 1 3.1200 0.0793
-5 2 2 -3.0676 -0.0899
-5 2 3 2.9122 0.0875
-5 2 4 -2.6756 -0.0728
-5 2 5 2.3975 0.0496
-5 2 6 -2.1217 -0.0238
-5 2 7 1.8824 0.0008
-5 2 8 -1.6945 0.0159
-5 2 9 1.5517 -0.0253
-5 2 10 -1.4325 0.0281
-5 2 11 1.3094 -0.0264
-5 2 12 -1.1598 0.0222
-5 2 13 0.9726 -0.0167
-5 3 1 4.2363 0.0572
-5 3 2 -4.2575 -0.0729
-5 3 3 4.1739 0.0758
-5 3 4 -4.0006 -0.0647
-5 3 5 3.7658 0.0434
-5 3 6 -3.4998 -0.0183
-5 3 7 3.2247 -0.0037
-5 3 8 -2.9484 0.0178
-5 3 9 2.6657 -0.0224
-5 3 10 -2.3648 0.0192
-5 3 11 2.0361 -0.0115
-5 3 12 -1.6795 0.0031
-5 3 13 1.3065 0.0037
-5 4 1 2.6156 0.0129
-5 4 2 -2.7231 -0.0347
-5 4 3 2.7841 0.0463
-5 4 4 -2.7929 -0.0453
-5 4 5 2.7469 0.0335
-5 4 6 -2.6446 -0.0162
-5 4 7 2.4851 -0.0003
-5 4 8 -2.2689 0.0113
-5 4 9 2.0005 -0.0154
-5 4 10 -1.6910 0.0142
-5 4 11 1.3596 -0.0111
-5 4 12 -1.0313 0.0092
-5 4 13 0.7320 -0.0097
-5 5 1 0.2330 -0.0390
-5 5 2 -0.3293 0.0173
-5 5 3 0.4210 0.0006
-5 5 4 -0.4947 -0.0108
-5 5 5 0.5362 0.0130
-5 5 6 -0.5338 -0.0096
-5 5 7 0.4828 0.0049
-5 5 8 -0.3874 -0.0020
-5 5 9 0.2617 0.0018
-5 5 10 -0.1275 -0.0029
-5 5 11 0.0098 0.0025
-5 5 12 0.0699 0.0015
-5 6 1 -1.0824 -0.0692
-5 6 2 1.0754 0.0541
-5 6 3 -1.0677 -0.0366
-5 6 4 1.0616 0.0213
-5 6 5 -1.0580 -0.0109
-5 6 6 1.0549 0.0054
-5 6 7 -1.0467 -0.0026
-5 6 8 1.0247 -0.0003
-5 6 9 -0.9787 0.0048
-5 6 10 0.9002 -0.0105
-5 6 11 -0.7855 0.0151
-5 7 1 -0.9507 -0.0739
-5 7 2 1.0087 0.0635
-5 7 3 -1.0702 -0.0464
-5 7 4 1.1249 0.0284
-5 7 5 -1.1599 -0.0146
-5 7 6 1.1622 0.0074
-5 7 7 -1.1219 -0.0058
-5 7 8 1.0355 0.0063
-5 7 9 -0.9074 -0.0053
-5 7 10 0.7498 0.0006
-5 8 1 -0.2387 -0.0704
-5 8 2 0.2841 0.0623
-5 8 3 -0.3392 -0.0456
-5 8 4 0.3931 0.0260
-5 8 5 -0.4323 -0.0100
-5 8 6 0.4441 0.0015
-5 8 8 0.3641 0.0061
-4 -9 1 -0.2130 -0.0818
-4 -9 2 0.1122 0.0606
-4 -8 1 0.3032 -0.1113
-4 -8 2 -0.2417 0.0960
-4 -8 3 0.1522 -0.0698
-4 -8 4 -0.0486 0.0401
-4 -8 5 -0.0496 -0.0140
-4 -7 1 1.8673 -0.1103
-4 -7 2 -1.6147 0.1106
-4 -7 3 1.3165 -0.0956
-4 -7 4 -1.0040 0.0702
-4 -7 5 0.7112 -0.0419
-4 -7 6 -0.4662 0.0174
-4 -7 7 0.2845 -0.0010
-4 -6 1 3.3022 -0.0934
-4 -6 2 -2.9385 0.1053
-4 -6 3 2.5344 -0.1002
-4 -6 4 -2.1281 0.0798
-4 -6 5 1.7523 -0.0504
-4 -6 6 -1.4256 0.0200
-4 -6 7 1.1497 0.0046
-4 -6 8 -0.9128 -0.0195
-4 -5 1 2.7789 -0.0608
-4 -5 2 -2.4616 0.0760
-4 -5 3 2.1380 -0.0769
-4 -5 4 -1.8417 0.0633
-4 -5 5 1.5920 -0.0396
-4 -5 6 -1.3896 0.0130
-4 -5 7 1.2181 0.0095
-4 -5 8 -1.0525 -0.0234
-4 -5 9 0.8697 0.0279
-4 -4 1 -0.4286 -0.0075
-4 -4 2 0.4520 0.0245
-4 -4 3 -0.4362 -0.0331
-4 -4 4 0.3791 0.0315
-4 -4 5 -0.2908 -0.0214
-4 -4 6 0.1892 0.0074
-4 -4 7 -0.0949 0.0051
-4 -4 8 0.0257 -0.0124
-4 -4 9 0.0080 0.0136
-4 -4 10 -0.0053 -0.0105
-4 -3 1 -4.7892 0.0547
-4 -3 2 4.4617 -0.0318
-4 -3 3 -4.0257 0.0116
-4 -3 4 3.5294 0.0009
-4 -3 5 -3.0272 -0.0037
-4 -3 6 2.5627 -0.0012
-4 -3 7 -2.1584 0.0098
-4 -3 8 1.8138 -0.0177
-4 -3 9 -1.5127 0.0218
-4 -3 10 1.2346 -0.0217
-4 -3 11 -0.9652 0.0188
-4 -2 1 -7.0784 0.1043
-4 -2 2 6.6870 -0.0750
-4 -2 3 -6.1281 0.0436
-4 -2 4 5.4778 -0.0189
-4 -2 5 -4.8169 0.0061
-4 -2 6 4.2069 -0.0059
-4 -2 7 -3.6739 0.0147
-4 -2 8 3.2079 -0.0265
-4 -2 9 -2.7754 0.0359
-4 -2 10 2.3398 -0.0393
-4 -2 11 -1.8807 0.0365
-4 -2 12 1.4035 -0.0297
-4 -1 1 -4.6733 0.1314
-4 -1 2 4.4935 -0.1014
-4 -1 3 -4.1956 0.0653
-4 -1 4 3.8341 -0.0326
-4 -1 5 -3.4669 0.0105
-4 -1 6 3.1354 -0.0014
-4 -1 7 -2.8528 0.0030
-4 -1 8 2.6029 -0.0096
-4 -1 9 -2.3517 0.0152
-4 -1 10 2.0647 -0.0157
-4 -1 11 -1.7245 0.0105
-4 -1 12 1.3395 -0.0019
-4 -1 13 -0.9417 -0.0065
-4 0 1 1.5215 0.1504
-4 0 2 -1.4689 -0.1250
-4 0 3 1.3646 0.0894
-4 0 4 -1.2129 -0.0526
-4 0 5 1.0239 0.0221
-4 0 6 -0.8136 -0.0023
-4 0 7 0.6024 -0.0070
-4 0 8 -0.4129 0.0095
-4 0 9 0.2649 -0.0100
-4 0 10 -0.1701 0.0121
-4 0 11 0.1279 -0.0170
-4 0 12 -0.1245 0.0232
-4 0 13 0.1377 -0.0280
-4 1 1 6.8777 0.1722
-4 1 2 -6.7100 -0.1527
-4 1 3 6.3292 0.1188
-4 1 4 -5.7997 -0.0784
-4 1 5 5.1984 0.0405
-4 1 6 -4.5945 -0.0119
-4 1 7 4.0349 -0.0044
-4 1 8 -3.5384 0.0095
-4 1 9 3.1000 -0.0075
-4 1 10 -2.6999 0.0026
-4 1 11 2.3152 0.0015
-4 1 12 -1.9284 -0.0036
-4 1 13 1.5334 0.0039
-4 2 1 7.3643 0.1755
-4 2 2 -7.2404 -0.1640
-4 2 3 6.8882 0.1346
-4 2 4 -6.3844 -0.0942
-4 2 5 5.8157 0.0525
-4 2 6 -5.2526 -0.0183
-4 2 7 4.7334 -0.0024
-4 2 8 -4.2609 0.0087
-4 2 9 3.8126 -0.0034
-4 2 10 -3.3578 -0.0079
-4 2 11 2.8738 0.0198
-4 2 12 -2.3567 -0.0288
-4 2 13 1.8227 0.0333
-4 2 14 -1.3024 -0.0338
-4 3 1 3.5044 0.1435
-4 3 2 -3.5156 -0.1419
-4 3 3 3.4196 0.1230
-4 3 4 -3.2517 -0.0912
-4 3 5 3.0485 0.0546
-4 3 6 -2.8352 -0.0220
-4 3 7 2.6185 -0.0002
-4 3 8 -2.3893 0.0101
-4 3 9 2.1316 -0.0096
-4 3 10 -1.8346 0.0035
-4 3 11 1.5015 0.0034
-4 3 12 -1.1509 -0.0081
-4 3 13 0.8119 0.0102
-4 3 14 -0.5148 -0.0108
-4 4 1 -0.9197 0.0944
-4 4 2 0.8683 -0.1010
-4 4 3 -0.8019 0.0939
-4 4 4 0.7287 -0.0749
-4 4 5 -0.6586 0.0499
-4 4 6 0.6026 -0.0255
-4 4 7 -0.5689 0.0072
-4 4 8 0.5607 0.0031
-4 4 9 -0.5730 -0.0071
-4 4 10 0.5925 0.0083
-4 4 11 -0.6005 -0.0102
-4 4 12 0.5785 0.0142
-4 4 13 -0.5148 -0.0190
-4 5 1 -2.9025 0.0522
-4 5 2 2.9600 -0.0640
-4 5 3 -2.9626 0.0658
-4 5 4 2.9229 -0.0572
-4 5 5 -2.8539 0.0414
-4 5 6 2.7642 -0.0238
-4 5 7 -2.6539 0.0096
-4 5 8 2.5152 -0.0015
-4 5 9 -2.3359 -0.0010
-4 5 10 2.1048 0.0008
-4 5 11 -1.8175 -0.0015
-4 5 12 1.4811 0.0050
-4 5 13 -1.1149 -0.0108
-4 6 1 -2.2311 0.0182
-4 6 2 2.4007 -0.0356
-4 6 3 -2.5266 0.0465
-4 6 4 2.6017 -0.0471
-4 6 5 -2.6202 0.0377
-4 6 6 2.5767 -0.0224
-4 6 7 -2.4660 0.0071
-4 6 8 2.2863 0.0031
-4 6 9 -2.0413 -0.0057
-4 6 10 1.7425 0.0020
-4 6 11 -1.4091 0.0040
-4 6 12 1.0660 -0.0085
-4 7 1 -0.5907 -0.0184
-4 7 2 0.7436 -0.0039
-4 7 3 -0.8764 0.0236
-4 7 4 0.9714 -0.0341
-4 7 5 -1.0140 0.0326
-4 7 6 0.9959 -0.0208
-4 7 7 -0.9174 0.0045
-4 7 8 0.7885 0.0095
-4 7 9 -0.6281 -0.0159
-4 7 10 0.4598 0.0133
-4 7 11 -0.3071 -0.0046
-4 8 1 0.3843 -0.0514
-4 8 2 -0.3484 0.0318
-4 8 3 0.3083 -0.0109
-4 8 4 -0.2742 -0.0045
-4 8 5 0.2543 0.0101
-4 8 6 -0.2524 -0.0054
-4 8 7 0.2658 -0.0058
-4 8 8 -0.2853 0.0174
-4 8 9 0.2980 -0.0235
-4 8 10 -0.2911 0.0213
-4 9 2 -0.3762 0.0456
-4 9 4 -0.4234 0.0199
-4 9 5 0.4310 -0.0122
-4 9 6 -0.4269 0.0110
-3 -9 1 0.5317 -0.0390
-3 -9 2 -0.3921 0.0134
-3 -8 1 1.6447 -0.0914
-3 -8 2 -1.3658 0.0640
-3 -8 3 1.0631 -0.0328
-3 -8 4 -0.7669 0.0057
-3 -8 5 0.5055 0.0115
-3 -7 1 2.2815 -0.1473
-3 -7 2 -1.9827 0.1249
-3 -7 3 1.6808 -0.0897
-3 -7 4 -1.4002 0.0503
-3 -7 5 1.1543 -0.0154
-3 -7 6 -0.9431 -0.0090
-3 -7 7 0.7568 0.0211
-3 -7 8 -0.5827 -0.0225
-3 -6 1 1.1497 -0.1723
-3 -6 2 -0.9274 0.1578
-3 -6 3 0.7555 -0.1257
-3 -6 4 -0.6534 0.0833
-3 -6 5 0.6165 -0.0403
-3 -6 6 -0.6184 0.0050
-3 -6 7 0.6208 0.0176
-3 -6 8 -0.5881 -0.0271
-3 -6 9 0.5004 0.0263
-3 -5 1 -2.0309 -0.1445
-3 -5 2 2.0069 0.1384
-3 -5 3 -1.8975 -0.1164
-3 -5 4 1.7018 0.0836
-3 -5 5 -1.4377 -0.0483
-3 -5 6 1.1386 0.0183
-3 -5 7 -0.8442 0.0013
-3 -5 8 0.5908 -0.0096
-3 -5 9 -0.4015 0.0093
-3 -5 10 0.2807 -0.0048
-3 -4 1 -5.8228 -0.0952
-3 -4 2 5.3859 0.0988
-3 -4 3 -4.8485 -0.0894
-3 -4 4 4.2627 0.0692
-3 -4 5 -3.6754 -0.0439
-3 -4 6 3.1188 0.0201
-3 -4 7 -2.6083 -0.0032
-3 -4 8 2.1452 -0.0047
-3 -4 9 -1.7240 0.0051
-3 -4 10 1.3385 -0.0017
-3 -4 11 -0.9868 -0.0017
-3 -3 1 -7.1477 -0.0556
-3 -3 2 6.4895 0.0714
-3 -3 3 -5.7232 -0.0754
-3 -3 4 4.9536 0.0659
-3 -3 5 -4.2585 -0.0457
-3 -3 6 3.6717 0.0211
-3 -3 7 -3.1828 0.0011
-3 -3 8 2.7528 -0.0159
-3 -3 9 -2.3372 0.0218
-3 -3 10 1.9065 -0.0206
-3 -3 11 -1.4579 0.0158
-3 -3 12 1.0138 -0.0113
-3 -2 1 -3.2935 -0.0189
-3 -2 2 2.8647 0.0462
-3 -2 3 -2.3958 -0.0631
-3 -2 4 1.9826 0.0647
-3 -2 5 -1.6876 -0.0514
-3 -2 6 1.5231 0.0287
-3 -2 7 -1.4534 -0.0046
-3 -2 8 1.4143 -0.0137
-3 -2 9 -1.3405 0.0223
-3 -2 10 1.1912 -0.0215
-3 -2 11 -0.9629 0.0148
-3 -2 12 0.6868 -0.0073
-3 -2 13 -0.4124 0.0026
-3 -1 1 4.5706 0.0287
-3 -1 2 -4.5167 0.0064
-3 -1 3 4.3344 -0.0348
-3 -1 4 -4.0101 0.0491
-3 -1 5 3.5547 -0.0473
-3 -1 6 -3.0069 0.0333
-3 -1 7 2.4268 -0.0143
-3 -1 8 -1.8808 -0.0016
-3 -1 9 1.4232 0.0093
-3 -1 10 -1.0815 -0.0077
-3 -1 11 0.8506 -0.0002
-3 -1 12 -0.6986 0.0093
-3 -1 13 0.5820 -0.0149
-3 0 1 10.6440 0.0814
-3 0 2 -10.1862 -0.0429
-3 0 3 9.4653 0.0051
-3 0 4 -8.5711 0.0225
-3 0 5 7.5949 -0.0344
-3 0 6 -6.6150 0.0308
-3 0 7 5.6879 -0.0170
-3 0 8 -4.8458 0.0006
-3 0 9 4.0987 0.0117
-3 0 10 -3.4394 -0.0161
-3 0 11 2.8500 0.0129
-3 0 12 -2.3096 -0.0052
-3 0 13 1.8024 -0.0026
-3 0 14 -1.3228 0.0076
-3 1 1 9.7170 0.1161
-3 1 2 -9.1451 -0.0811
-3 1 3 8.3552 0.0399
-3 1 4 -7.4835 -0.0034
-3 1 5 6.6404 -0.0200
-3 1 6 -5.8882 0.0263
-3 1 7 5.2379 -0.0174
-3 1 8 -4.6625 -0.0004
-3 1 9 4.1189 0.0196
-3 1 10 -3.5700 -0.0336
-3 1 11 2.9983 0.0394
-3 1 12 -2.4097 -0.0374
-3 1 13 1.8286 0.0305
-3 1 14 -1.2876 -0.0221
-3 2 1 2.9288 0.1235
-3 2 2 -2.5453 -0.0973
-3 2 3 2.1313 0.0608
-3 2 4 -1.7801 -0.0235
-3 2 5 1.5471 -0.0053
-3 2 6 -1.4356 0.0195
-3 2 7 1.4039 -0.0182
-3 2 8 -1.3863 0.0057
-3 2 9 1.3209 0.0114
-3 2 10 -1.1725 -0.0264
-3 2 11 0.9419 0.0353
-3 2 12 -0.6619 -0.0375
-3 2 13 0.3811 0.0351
-3 2 14 -0.1461 -0.0310
-3 3 1 -3.7334 0.1233
-3 3 2 3.8724 -0.1060
-3 3 3 -3.8929 0.0766
-3 3 4 3.7782 -0.0424
-3 3 5 -3.5377 0.0122
-3 3 6 3.2057 0.0077
-3 3 7 -2.8326 -0.0150
-3 3 8 2.4691 0.0120
-3 3 9 -2.1507 -0.0038
-3 3 10 1.8891 -0.0044
-3 3 11 -1.6723 0.0094
-3 3 12 1.4735 -0.0111
-3 3 13 -1.2653 0.0117
-3 3 14 1.0318 -0.0139
-3 4 1 -5.8793 0.1276
-3 4 2 5.9462 -0.1184
-3 4 3 -5.8850 0.0951
-3 4 4 5.7177 -0.0634
-3 4 5 -5.4684 0.0312
-3 4 6 5.1573 -0.0058
-3 4 7 -4.7981 -0.0089
-3 4 8 4.3965 0.0133
-3 4 9 -3.9531 -0.0110
-3 4 10 3.4669 0.0065
-3 4 11 -2.9413 -0.0032
-3 4 12 2.3878 0.0017
-3 4 13 -1.8290 -0.0003
-3 5 1 -3.8957 0.1240
-3 5 2 4.0060 -0.1247
-3 5 3 -4.0471 0.1097
-3 5 4 4.0349 -0.0820
-3 5 5 -3.9753 0.0487
-3 5 6 3.8616 -0.0180
-3 5 7 -3.6788 -0.0035
-3 5 8 3.4115 0.0133
-3 5 9 -3.0527 -0.0132
-3 5 10 2.6106 0.0076
-3 5 11 -2.1101 -0.0013
-3 5 12 1.5892 -0.0027
-3 5 13 -1.0920 0.0041
-3 5 14 0.6598 -0.0049
-3 6 1 -0.8084 0.0994
-3 6 2 0.9065 -0.1113
-3 6 3 -0.9763 0.1079
-3 6 4 1.0195 -0.0889
-3 6 5 -1.0325 0.0591
-3 6 6 1.0076 -0.0267
-3 6 7 -0.9365 0.0004
-3 6 8 0.8167 0.0144
-3 6 9 -0.6548 -0.0170
-3 6 10 0.4674 0.0111
-3 6 11 -0.2775 -0.0027
-3 6 12 0.1089 -0.0029
-3 6 13 0.0196 0.0034
-3 7 1 1.0088 0.0550
-3 7 2 -1.0248 -0.0749
-3 7 3 1.0429 0.0821
-3 7 4 -1.0631 -0.0739
-3 7 5 1.0834 0.0524
-3 7 6 -1.0991 -0.0245
-3 7 7 1.1025 -0.0012
-3 7 8 -1.0837 0.0175
-3 7 9 1.0329 -0.0217
-3 7 10 -0.9435 0.0161
-3 7 11 0.8160 -0.0067
-3 7 12 -0.6594 -0.0003
-3 8 1 1.0912 0.0145
-3 8 2 -1.2112 -0.0336
-3 8 3 1.3144 0.0452
-3 8 4 -1.3953 -0.0453
-3 8 5 1.4465 0.0337
-3 8 6 -1.4589 -0.0145
-3 8 7 1.4235 -0.0051
-3 8 8 -1.3337 0.0183
-3 8 9 1.1891 -0.0213
-3 8 10 -0.9977 0.0145
-3 8 11 0.7768 -0.0028
-3 9 1 0.3711 0.0010
-3 9 2 -0.4748 -0.0127
-3 9 3 0.5660 0.0228
-3 9 4 -0.6383 -0.0275
-3 9 5 0.6861 0.0245
-3 9 6 -0.7043 -0.0147
-3 9 7 0.6896 0.0019
-3 9 8 -0.6411 0.0087
-2 -9 1 0.9607 0.0178
-2 -9 2 -0.7280 -0.0382
-2 -9 3 0.5029 0.0497
-2 -8 1 1.0773 -0.0370
-2 -8 2 -0.9070 0.0055
-2 -8 3 0.7554 0.0234
-2 -8 4 -0.6277 -0.0432
-2 -8 5 0.5206 0.0510
-2 -8 6 -0.4250 -0.0479
-2 -7 1 -0.3263 -0.0992
-2 -7 2 0.3366 0.0668
-2 -7 3 -0.2744 -0.0285
-2 -7 4 0.1526 -0.0066
-2 -7 5 -0.0033 0.0320
-2 -7 6 -0.1325 -0.0447
-2 -7 7 0.2184 0.0459
-2 -6 1 -2.9966 -0.1205
-2 -6 2 2.8203 0.0949
-2 -6 3 -2.5350 -0.0602
-2 -6 4 2.1610 0.0252
-2 -6 5 -1.7388 0.0022
-2 -6 6 1.3191 -0.0175
-2 -6 7 -0.9490 0.0208
-2 -6 8 0.6594 -0.0154
-2 -6 9 -0.4577 0.0066
-2 -5 1 -5.4597 -0.1162
-2 -5 2 4.9939 0.0979
-2 -5 3 -4.4514 -0.0697
-2 -5 4 3.8736 0.0391
-2 -5 5 -3.2979 -0.0138
-2 -5 6 2.7526 -0.0009
-2 -5 7 -2.2547 0.0040
-2 -5 8 1.8108 0.0016
-2 -5 9 -1.4192 -0.0105
-2 -5 10 1.0734 0.0177
-2 -4 1 -5.2489 -0.1244
-2 -4 2 4.5744 0.1151
-2 -4 3 -3.9034 -0.0927
-2 -4 4 3.3074 0.0625
-2 -4 5 -2.8181 -0.0322
-2 -4 6 2.4278 0.0084
-2 -4 7 -2.1028 0.0048
-2 -4 8 1.8028 -0.0078
-2 -4 9 -1.4978 0.0040
-2 -4 10 1.1774 0.0018
-2 -4 11 -0.8518 -0.0058
-2 -3 1 -0.3309 -0.1299
-2 -3 2 -0.1113 0.1328
-2 -3 3 0.4262 -0.1188
-2 -3 4 -0.5558 0.0907
-2 -3 5 0.5035 -0.0557
-2 -3 6 -0.3259 0.0225
-2 -3 7 0.1080 0.0021
-2 -3 8 0.0696 -0.0150
-2 -3 9 -0.1570 0.0177
-2 -3 10 0.1464 -0.0144
-2 -3 11 -0.0668 0.0098
-2 -3 12 -0.0346 -0.0075
-2 -2 1 7.6459 -0.1110
-2 -2 2 -7.4775 0.1258
-2 -2 3 7.0396 -0.1220
-2 -2 4 -6.3479 0.1003
-2 -2 5 5.4711 -0.0670
-2 -2 6 -4.5156 0.0317
-2 -2 7 3.5971 -0.0035
-2 -2 8 -2.8089 -0.0124
-2 -2 9 2.1985 0.0156
-2 -2 10 -1.7605 -0.0104
-2 -2 11 1.4485 0.0029
-2 -2 12 -1.1989 0.0017
-2 -2 13 0.9578 -0.0008
-2 -1 1 12.4327 -0.0807
-2 -1 2 -11.7102 0.1055
-2 -1 3 10.7035 -0.1132
-2 -1 4 -9.5089 0.1013
-2 -1 5 8.2330 -0.0738
-2 -1 6 -6.9778 0.0397
-2 -1 7 5.8263 -0.0094
-2 -1 8 -4.8302 -0.0095
-2 -1 9 4.0040 0.0141
-2 -1 10 -3.3278 -0.0072
-2 -1 11 2.7586 -0.0052
-2 -1 12 -2.2483 0.0164
-2 -1 13 1.7611 -0.0216
-2 -1 14 -1.2852 0.0196
-2 0 1 8.7209 -0.0522
-2 0 2 -7.8309 0.0824
-2 0 3 6.8775 -0.1004
-2 0 4 -5.9774 0.1002
-2 0 5 5.1973 -0.0819
-2 0 6 -4.5526 0.0518
-2 0 7 4.0209 -0.0193
-2 0 8 -3.5610 -0.0061
-2 0 9 3.1326 0.0184
-2 0 10 -2.7075 -0.0170
-2 0 11 2.2744 0.0056
-2 0 12 -1.8373 0.0093
-2 0 13 1.4105 -0.0215
-2 0 14 -1.0134 0.0274
-2 1 1 -1.1125 -0.0191
-2 1 2 1.7517 0.0477
-2 1 3 -2.1404 -0.0711
-2 1 4 2.2174 0.0814
-2 1 5 -2.0068 -0.0750
-2 1 6 1.6025 0.0541
-2 1 7 -1.1315 -0.0257
-2 1 8 0.7120 -0.0014
-2 1 9 -0.4204 0.0199
-2 1 10 0.2777 -0.0265
-2 1 11 -0.2556 0.0225
-2 1 12 0.2978 -0.0126
-2 1 13 -0.3455 0.0023
-2 1 14 0.3570 0.0042
-2 2 1 -8.8332 0.0291
-2 2 2 9.0697 -0.0045
-2 2 3 -8.9246 -0.0220
-2 2 4 8.4093 0.0419
-2 2 5 -7.6048 -0.0492
-2 2 6 6.6389 0.0425
-2 2 7 -5.6501 -0.0257
-2 2 8 4.7508 0.0054
-2 2 9 -4.0022 0.0120
-2 2 10 3.4081 -0.0223
-2 2 11 -2.9287 0.0255
-2 2 12 2.5058 -0.0243
-2 2 13 -2.0895 0.0227
-2 2 14 1.6567 -0.0233
-2 2 15 -1.2148 0.0264
-2 3 1 -9.1776 0.0815
-2 3 2 9.1647 -0.0605
-2 3 3 -8.9121 0.0310
-2 3 4 8.4569 -0.0016
-2 3 5 -7.8540 -0.0196
-2 3 6 7.1645 0.0285
-2 3 7 -6.4428 -0.0253
-2 3 8 5.7260 0.0144
-2 3 9 -5.0296 -0.0011
-2 3 10 4.3510 -0.0102
-2 3 11 -3.6800 0.0179
-2 3 12 3.0105 -0.0232
-2 3 13 -2.3499 0.0283
-2 3 14 1.7212 -0.0348
-2 4 1 -4.2140 0.1156
-2 4 2 4.1266 -0.0988
-2 4 3 -4.0265 0.0688
-2 4 4 3.9338 -0.0335
-2 4 5 -3.8442 0.0021
-2 4 6 3.7335 0.0182
-2 4 7 -3.5691 -0.0249
-2 4 8 3.3226 0.0200
-2 4 9 -2.9805 -0.0086
-2 4 10 2.5494 -0.0041
-2 4 11 -2.0565 0.0147
-2 4 12 1.5435 -0.0223
-2 4 13 -1.0583 0.0283
-2 4 14 0.6444 -0.0341
-2 4 15 -0.3316 0.0403
-2 5 1 0.7750 0.1293
-2 5 2 -0.9006 -0.1177
-2 5 3 0.9357 0.0904
-2 5 4 -0.8746 -0.0538
-2 5 5 0.7423 0.0176
-2 5 6 -0.5838 0.0095
-2 5 7 0.4473 -0.0226
-2 5 8 -0.3678 0.0217
-2 5 9 0.3572 -0.0115
-2 5 10 -0.4029 -0.0015
-2 5 11 0.4753 0.0120
-2 5 12 -0.5383 -0.0176
-2 5 13 0.5614 0.0191
-2 5 14 -0.5281 -0.0193
-2 6 1 2.8495 0.1257
-2 6 2 -3.0268 -0.1220
-2 6 3 3.1297 0.1010
-2 6 4 -3.1503 -0.0675
-2 6 5 3.0944 0.0302
-2 6 6 -2.9766 0.0012
-2 6 7 2.8121 -0.0197
-2 6 8 -2.6120 0.0237
-2 6 9 2.3807 -0.0169
-2 6 10 -2.1187 0.0060
-2 6 11 1.8272 0.0021
-2 6 12 -1.5124 -0.0037
-2 6 13 1.1876 -0.0007
-2 7 1 2.3751 0.1013
-2 7 2 -2.5744 -0.1065
-2 7 3 2.7294 0.0953
-2 7 4 -2.8292 -0.0699
-2 7 5 2.8631 0.0371
-2 7 6 -2.8215 -0.0060
-2 7 7 2.6974 -0.0152
-2 7 8 -2.4895 0.0229
-2 7 9 2.2049 -0.0187
-2 7 10 -1.8614 0.0087
-2 7 11 1.4868 -0.0002
-2 7 12 -1.1144 -0.0014
-2 7 13 0.7771 -0.0048
-2 8 1 0.9593 0.0706
-2 8 2 -1.0921 -0.0793
-2 8 3 1.1986 0.0772
-2 8 4 -1.2735 -0.0631
-2 8 5 1.3095 0.0402
-2 8 6 -1.2986 -0.0151
-2 8 7 1.2352 -0.0046
-2 8 8 -1.1191 0.0137
-2 8 9 0.9579 -0.0113
-2 8 10 -0.7677 0.0009
-2 8 11 0.5706 0.0109
-2 9 1 -0.0312 0.0468
-2 9 2 0.0145 -0.0537
-2 9 3 -0.0048 0.0569
-2 9 4 -0.0005 -0.0533
-2 9 5 0.0039 0.0420
-2 9 6 -0.0066 -0.0256
-2 9 7 0.0099 0.0091
-2 9 8 -0.0146 0.0022
-2 9 9 0.0217 -0.0049
-1 -9 1 0.2287 0.0483
-1 -9 2 -0.1868 -0.0624
-1 -9 3 0.1634 0.0669
-1 -8 1 -0.9240 0.0142
-1 -8 2 0.7610 -0.0371
-1 -8 3 -0.5588 0.0546
-1 -8 4 0.3481 -0.0632
-1 -8 5 -0.1628 0.0630
-1 -8 6 0.0303 -0.0566
-1 -7 1 -2.7897 -0.0179
-1 -7 2 2.4680 -0.0041
-1 -7 3 -2.0778 0.0243
-1 -7 4 1.6584 -0.0370
-1 -7 5 -1.2555 0.0398
-1 -7 6 0.9082 -0.0341
-1 -7 7 -0.6389 0.0238
-1 -7 8 0.4485 -0.0131
-1 -6 1 -3.8937 -0.0367
-1 -6 2 3.4865 0.0164
-1 -6 3 -3.0373 0.0045
-1 -6 4 2.5816 -0.0190
-1 -6 5 -2.1507 0.0229
-1 -6 6 1.7657 -0.0163
-1 -6 7 -1.4341 0.0028
-1 -6 8 1.1502 0.0119
-1 -6 9 -0.8997 -0.0229
-1 -5 1 -2.4086 -0.0712
-1 -5 2 2.0110 0.0521
-1 -5 3 -1.6677 -0.0273
-1 -5 4 1.4020 0.0041
-1 -5 5 -1.2115 0.0113
-1 -5 6 1.0749 -0.0160
-1 -5 7 -0.9630 0.0114
-1 -5 8 0.8493 -0.0016
-1 -5 9 -0.7171 -0.0084
-1 -5 10 0.5622 0.0151
-1 -5 11 -0.3921 -0.0172
-1 -4 1 2.7392 -0.1090
-1 -4 2 -2.8078 0.0952
-1 -4 3 2.6804 -0.0695
-1 -4 4 -2.3805 0.0387
-1 -4 5 1.9738 -0.0106
-1 -4 6 -1.5431 -0.0091
-1 -4 7 1.1608 0.0184
-1 -4 8 -0.8692 -0.0192
-1 -4 9 0.6739 0.0153
-1 -4 10 -0.5520 -0.0107
-1 -4 11 0.4682 0.0076
-1 -4 12 -0.3917 -0.0062
-1 -3 1 9.4261 -0.1235
-1 -3 2 -8.8881 0.1148
-1 -3 3 8.0258 -0.0899
-1 -3 4 -6.9391 0.0555
-1 -3 5 5.7680 -0.0206
-1 -3 6 -4.6545 -0.0065
-1 -3 7 3.7051 0.0214
-1 -3 8 -2.9665 -0.0246
-1 -3 9 2.4228 0.0204
-1 -3 10 -2.0147 -0.0141
-1 -3 11 1.6691 0.0101
-1 -3 12 -1.3300 -0.0100
-1 -2 1 11.6459 -0.1323
-1 -2 2 -10.7131 0.1274
-1 -2 3 9.5021 -0.1032
-1 -2 4 -8.1441 0.0656
-1 -2 5 6.7829 -0.0252
-1 -2 6 -5.5454 -0.0076
-1 -2 7 4.5151 0.0255
-1 -2 8 -3.7174 -0.0272
-1 -2 9 3.1213 0.0167
-1 -2 10 -2.6581 -0.0015
-1 -2 11 2.2503 -0.0111
-1 -2 12 -1.8392 0.0166
-1 -2 13 1.4032 -0.0142
-1 -1 1 4.8338 -0.1398
-1 -1 2 -4.0610 0.1420
-1 -1 3 3.3418 -0.1241
-1 -1 4 -2.7376 0.0896
-1 -1 5 2.2742 -0.0476
-1 -1 6 -1.9468 0.0096
-1 -1 7 1.7300 0.0147
-1 -1 8 -1.5868 -0.0208
-1 -1 9 1.4773 0.0104
-1 -1 10 -1.3655 0.0097
-1 -1 11 1.2256 -0.0307
-1 -1 12 -1.0466 0.0453
-1 -1 13 0.8340 -0.0498
-1 -1 14 -0.6073 0.0446
-1 0 1 -7.2559 -0.1116
-1 0 2 7.4847 0.1222
-1 0 3 -7.2385 -0.1170
-1 0 4 6.5823 0.0954
-1 0 5 -5.6556 -0.0626
-1 0 6 4.6272 0.0277
-1 0 7 -3.6484 -0.0006
-1 0 8 2.8199 -0.0120
-1 0 9 -2.1797 0.0090
-1 0 10 1.7124 0.0055
-1 0 11 -1.3709 -0.0241
-1 0 12 1.1020 0.0393
-1 0 13 -0.8650 -0.0461
-1 0 14 0.6399 0.0433
-1 1 1 -14.6003 -0.0394
-1 1 2 14.3578 0.0561
-1 1 3 -13.5007 -0.0654
-1 1 4 12.1708 0.0625
-1 1 5 -10.5784 -0.0476
-1 1 6 8.9453 0.0257
-1 1 7 -7.4498 -0.0043
-1 1 8 6.1912 -0.0099
-1 1 9 -5.1832 0.0140
-1 1 10 4.3745 -0.0091
-1 1 11 -3.6854 0.0001
-1 1 12 3.0445 0.0074
-1 1 13 -2.4140 -0.0094
-1 1 14 1.7954 0.0051
-1 1 15 -1.2199 0.0033
-1 2 1 -11.5121 0.0341
-1 2 2 11.1605 -0.0141
-1 2 3 -10.4640 -0.0071
-1 2 4 9.5297 0.0218
-1 2 5 -8.4874 -0.0258
-1 2 6 7.4567 0.0197
-1 2 7 -6.5193 -0.0077
-1 2 8 5.7041 -0.0044
-1 2 9 -4.9918 0.0123
-1 2 10 4.3345 -0.0151
-1 2 11 -3.6835 0.0146
-1 2 12 3.0124 -0.0141
-1 2 13 -2.3286 0.0162
-1 2 14 1.6694 -0.0213
-1 2 15 -1.0854 0.0275
-1 3 1 -2.2747 0.0685
-1 3 2 2.0350 -0.0481
-1 3 3 -1.8627 0.0210
-1 3 4 1.7708 0.0039
-1 3 5 -1.7485 -0.0193
-1 3 6 1.7659 0.0226
-1 3 7 -1.7834 -0.0157
-1 3 8 1.7604 0.0036
-1 3 9 -1.6660 0.0084
-1 3 10 1.4861 -0.0169
-1 3 11 -1.2285 0.0216
-1 3 12 0.9215 -0.0240
-1 3 13 -0.6072 0.0262
-1 3 14 0.3306 -0.0292
-1 3 15 -0.1266 0.0321
-1 4 1 4.8541 0.0777
-1 4 2 -5.0334 -0.0564
-1 4 3 4.9389 0.0267
-1 4 4 -4.6127 0.0023
-1 4 5 4.1356 -0.0221
-1 4 6 -3.6009 0.0284
-1 4 7 3.0894 -0.0219
-1 4 8 -2.6516 0.0072
-1 4 9 2.3029 0.0091
-1 4 10 -2.0285 -0.0218
-1 4 11 1.7968 0.0289
-1 4 12 -1.5730 -0.0313
-1 4 13 1.3320 0.0317
-1 4 14 -1.0645 -0.0324
-1 5 1 6.1893 0.0909
-1 5 2 -6.3779 -0.0693
-1 5 3 6.3485 0.0377
-1 5 4 -6.1350 -0.0050
-1 5 5 5.7937 -0.0199
-1 5 6 -5.3828 0.0311
-1 5 7 4.9454 -0.0280
-1 5 8 -4.5006 0.0151
-1 5 9 4.0465 0.0007
-1 5 10 -3.5705 -0.0128
-1 5 11 3.0618 0.0181
-1 5 12 -2.5221 -0.0175
-1 5 13 1.9683 0.0147
-1 5 14 -1.4299 -0.0137
-1 6 1 3.7834 0.0952
-1 6 2 -3.9417 -0.0801
-1 6 3 4.0102 0.0520
-1 6 4 -3.9965 -0.0185
-1 6 5 3.9108 -0.0110
-1 6 6 -3.7597 0.0292
-1 6 7 3.5441 -0.0334
-1 6 8 -3.2613 0.0263
-1 6 9 2.9111 -0.0144
-1 6 10 -2.5011 0.0051
-1 6 11 2.0510 -0.0026
-1 6 12 -1.5908 0.0070
-1 6 13 1.1550 -0.0143
-1 7 1 0.9288 0.0767
-1 7 2 -0.9856 -0.0710
-1 7 3 1.0268 0.0523
-1 7 4 -1.0512 -0.0252
-1 7 5 1.0527 -0.0025
-1 7 6 -1.0220 0.0230
-1 7 7 0.9511 -0.0311
-1 7 8 -0.8375 0.0271
-1 7 9 0.6876 -0.0155
-1 7 10 -0.5171 0.0037
-1 7 11 0.3483 0.0023
-1 7 12 -0.2038 -0.0002
-1 8 1 -0.7091 0.0529
-1 8 2 0.7816 -0.0531
-1 8 3 -0.8359 0.0443
-1 8 4 0.8681 -0.0270
-1 8 5 -0.8784 0.0059
-1 8 6 0.8694 0.0126
-1 8 7 -0.8434 -0.0223
-1 8 8 0.8007 0.0206
-1 8 9 -0.7397 -0.0091
-1 8 10 0.6581 -0.0065
-1 8 11 -0.5550 0.0197
-1 8 12 0.4333 -0.0256
-1 9 1 -0.8836 0.0298
-1 9 2 1.0079 -0.0345
-1 9 3 -1.1019 0.0344
-1 9 4 1.1583 -0.0273
-1 9 5 -1.1730 0.0139
-1 9 6 1.1449 0.0019
-1 9 7 -1.0750 -0.0148
-1 9 8 0.9670 0.0199
-1 9 9 -0.8275 -0.0157
-1 9 10 0.6667 0.0042
-1 10 4 0.4556 -0.0210
-1 10 5 -0.4531 0.0152
-1 10 6 0.4268 -0.0033
-1 10 7 -0.3803 -0.0109
0 -8 1 -1.6856 0.0092
0 -8 2 1.3872 -0.0173
0 -8 3 -1.0870 0.0202
0 -8 4 0.8141 -0.0177
0 -8 5 -0.5895 0.0120
0 -8 6 0.4205 -0.0065
0 -7 1 -1.9448 -0.0083
0 -7 2 1.6845 -0.0028
0 -7 3 -1.4284 0.0093
0 -7 4 1.1985 -0.0083
0 -7 5 -1.0062 0.0004
0 -7 6 0.8497 0.0110
0 -7 7 -0.7154 -0.0213
0 -7 8 0.5845 0.0272
0 -6 1 -0.1906 -0.0355
0 -6 2 0.1142 0.0188
0 -6 3 -0.0839 -0.0023
0 -6 4 0.1006 -0.0083
0 -6 5 -0.1527 0.0106
0 -6 6 0.2198 -0.0057
0 -6 7 -0.2780 -0.0026
0 -6 8 0.3062 0.0104
0 -6 9 -0.2914 -0.0148
0 -5 1 3.9318 -0.0682
0 -5 2 -3.6214 0.0514
0 -5 3 3.1961 -0.0287
0 -5 4 -2.7091 0.0070
0 -5 5 2.2186 0.0088
0 -5 6 -1.7716 -0.0169
0 -5 7 1.3940 0.0186
0 -5 8 -1.0893 -0.0170
0 -5 9 0.8456 0.0147
0 -5 10 -0.6453 -0.0127
0 -5 11 0.4745 0.0105
0 -4 1 8.3914 -0.0781
0 -4 2 -7.5536 0.0624
0 -4 3 6.5338 -0.0376
0 -4 4 -5.4656 0.0115
0 -4 5 4.4733 0.0094
0 -4 6 -3.6397 -0.0214
0 -4 7 2.9899 0.0248
0 -4 8 -2.4959 -0.0229
0 -4 9 2.0979 0.0194
0 -4 10 -1.7338 -0.0170
0 -4 11 1.3638 0.0159
0 -4 12 -0.9825 -0.0149
0 -3 1 8.3748 -0.0824
0 -3 2 -7.3551 0.0621
0 -3 3 6.1875 -0.0305
0 -3 4 -5.0282 -0.0031
0 -3 5 4.0122 0.0295
0 -3 6 -3.2215 -0.0427
0 -3 7 2.6689 0.0420
0 -3 8 -2.3052 -0.0313
0 -3 9 2.0445 0.0170
0 -3 10 -1.7989 -0.0050
0 -3 11 1.5093 -0.0012
0 -3 12 -1.1620 0.0018
0 -2 1 0.4993 -0.0982
0 -2 2 -0.0319 0.0774
0 -2 3 -0.3410 -0.0422
0 -2 4 0.5750 0.0020
0 -2 5 -0.6508 0.0320
0 -2 6 0.5780 -0.0510
0 -2 7 -0.3940 0.0518
0 -2 8 0.1562 -0.0370
0 -2 9 0.0724 0.0139
0 -2 10 -0.2387 0.0091
0 -2 11 0.3138 -0.0253
0 -2 12 -0.2987 0.0318
0 -2 13 0.2206 -0.0298
0 -1 1 -11.1747 -0.0829
0 -1 2 10.6871 0.0733
0 -1 3 -9.7781 -0.0489
0 -1 4 8.5896 0.0161
0 -1 5 -7.2828 0.0154
0 -1 6 6.0004 -0.0361
0 -1 7 -4.8418 0.0405
0 -1 8 3.8553 -0.0291
0 -1 9 -3.0459 0.0074
0 -1 10 2.3909 0.0163
0 -1 11 -1.8572 -0.0343
0 -1 12 1.4133 0.0422
0 -1 13 -1.0365 -0.0401
0 -1 14 0.7141 0.0310
0 0 1 -16.6978 -0.0136
0 0 2 15.6148 0.0202
0 0 3 -14.0172 -0.0161
0 0 4 12.1547 0.0026
0 0 5 -10.2758 0.0146
0 0 6 8.5695 -0.0281
0 0 7 -7.1331 0.0322
0 0 8 5.9715 -0.0251
0 0 9 -5.0250 0.0100
0 0 10 4.2098 0.0069
0 0 11 -3.4561 -0.0192
0 0 12 2.7299 0.0227
0 0 13 -2.0362 -0.0171
0 0 14 1.4060 0.0057
0 0 15 -0.8761 0.0066
0 1 0 11.1579 -0.0770
0 1 1 -10.6407 0.0603
0 1 2 9.7187 -0.0408
0 1 3 -8.5567 0.0259
0 1 4 7.3445 -0.0193
0 1 5 -6.2459 0.0202
0 1 6 5.3584 -0.0243
0 1 7 -4.6957 0.0261
0 1 8 4.2001 -0.0224
0 1 9 -3.7759 0.0133
0 1 10 3.3321 -0.0021
0 1 11 -2.8163 -0.0067
0 1 12 2.2299 0.0094
0 1 13 -1.6203 -0.0053
0 1 14 1.0572 -0.0034
0 1 15 -0.6030 0.0129
0 2 0 -0.9984 -0.1001
0 2 1 1.4576 0.0854
0 2 2 -1.8072 -0.0611
0 2 3 1.9912 0.0365
0 2 4 -1.9794 -0.0186
0 2 5 1.7768 0.0105
0 2 6 -1.4254 -0.0103
0 2 7 0.9977 0.0134
0 2 8 -0.5796 -0.0147
0 2 9 0.2487 0.0115
0 2 10 -0.0536 -0.0042
0 2 11 0.0017 -0.0045
0 2 12 -0.0603 0.0113
0 2 13 0.1706 -0.0140
0 2 14 -0.2694 0.0129
0 2 15 0.3103 -0.0097
0 3 0 -9.1083 -0.0859
0 3 1 9.4663 0.0727
0 3 2 -9.4255 -0.0487
0 3 3 9.0259 0.0228
0 3 4 -8.3537 -0.0033
0 3 5 7.5157 -0.0052
0 3 6 -6.6150 0.0031
0 3 7 5.7327 0.0052
0 3 8 -4.9200 -0.0137
0 3 9 4.1974 0.0177
0 3 10 -3.5620 -0.0155
0 3 11 2.9961 0.0087
0 3 12 -2.4778 -0.0007
0 3 13 1.9897 -0.0055
0 3 14 -1.5246 0.0083
0 3 15 1.0881 -0.0084
0 4 0 -8.9411 -0.0794
0 4 1 9.1519 0.0658
0 4 2 -9.0384 -0.0417
0 4 3 8.6690 0.0153
0 4 4 -8.1398 0.0052
0 4 5 7.5426 -0.0142
0 4 6 -6.9405 0.0116
0 4 7 6.3571 -0.0012
0 4 8 -5.7822 -0.0104
0 4 9 5.1879 0.0177
0 4 10 -4.5487 -0.0185
0 4 11 3.8564 0.0140
0 4 12 -3.1265 -0.0081
0 4 13 2.3952 0.0047
0 4 14 -1.7085 -0.0057
0 4 15 1.1107 0.0104
0 5 0 -4.0965 -0.0732
0 5 1 4.1164 0.0640
0 5 2 -4.0236 -0.0431
0 5 3 3.8689 0.0171
0 5 4 -3.7022 0.0059
0 5 5 3.5548 -0.0196
0 5 6 -3.4292 0.0222
0 5 7 3.3009 -0.0163
0 5 8 -3.1312 0.0079
0 5 9 2.8851 -0.0027
0 5 10 -2.5469 0.0035
0 5 11 2.1275 -0.0093
0 5 12 -1.6622 0.0157
0 5 13 1.1990 -0.0177
0 5 14 -0.7852 0.0126
0 6 0 0.2996 -0.0458
0 6 1 -0.4180 0.0447
0 6 2 0.5187 -0.0316
0 6 3 -0.5789 0.0104
0 6 4 0.5870 0.0119
0 6 5 -0.5467 -0.0281
0 6 6 0.4749 0.0344
0 6 7 -0.3963 -0.0311
0 6 8 0.3340 0.0229
0 6 9 -0.3013 -0.0157
0 6 10 0.2976 0.0140
0 6 11 -0.3098 -0.0183
0 6 12 0.3185 0.0255
0 6 13 -0.3067 -0.0303
0 6 14 0.2664 0.0283
0 7 0 2.1837 -0.0185
0 7 1 -2.3780 0.0220
0 7 2 2.5130 -0.0156
0 7 3 -2.5838 0.0003
0 7 4 2.5942 0.0188
0 7 5 -2.5528 -0.0348
0 7 6 2.4689 0.0418
0 7 7 -2.3486 -0.0378
0 7 8 2.1937 0.0250
0 7 9 -2.0025 -0.0094
0 7 10 1.7730 -0.0031
0 7 11 -1.5070 0.0086
0 7 12 1.2131 -0.0071
0 7 13 -0.9084 0.0022
0 8 0 1.9530 -0.0012
0 8 1 -2.1668 0.0089
0 8 2 2.3154 -0.0095
0 8 3 -2.3976 0.0013
0 8 4 2.4187 0.0135
0 8 5 -2.3860 -0.0295
0 8 6 2.3050 0.0401
0 8 7 -2.1778 -0.0407
0 8 8 2.0045 0.0307
0 8 9 -1.7864 -0.0134
0 8 10 1.5292 -0.0053
0 8 11 -1.2445 0.0195
0 9 1 -0.9412 -0.0067
0 9 2 1.0181 -0.0027
0 9 3 -1.0482 0.0044
0 9 4 1.0362 0.0027
0 9 5 -0.9901 -0.0162
0 9 6 0.9186 0.0307
0 9 7 -0.8297 -0.0403
0 9 8 0.7307 0.0412
0 9 9 -0.6278 -0.0332
0 9 10 0.5264 0.0197
0 10 3 0.0011 0.0030
0 10 4 -0.0433 -0.0034
0 10 5 0.0879 -0.0045
0 10 6 -0.1261 0.0176
0 10 7 0.1491 -0.0308
1 -8 0 0.6273 0.0464
1 -8 1 -0.5484 -0.0384
1 -8 2 0.4836 0.0330
1 -8 3 -0.4392 -0.0318
1 -8 4 0.4129 0.0339
1 -8 5 -0.3935 -0.0366
1 -8 6 0.3650 0.0371
1 -7 0 -0.8530 0.0699
1 -7 1 0.7529 -0.0550
1 -7 2 -0.6250 0.0382
1 -7 3 0.4718 -0.0247
1 -7 4 -0.3038 0.0170
1 -7 5 0.1390 -0.0146
1 -7 6 0.0008 0.0147
1 -7 7 -0.0959 -0.0147
1 -7 8 0.1348 0.0128
1 -6 0 -3.5356 0.0945
1 -6 1 3.2104 -0.0799
1 -6 2 -2.8308 0.0573
1 -6 3 2.4257 -0.0334
1 -6 4 -2.0235 0.0134
1 -6 5 1.6464 0.0007
1 -6 6 -1.3077 -0.0097
1 -6 7 1.0124 0.0154
1 -6 8 -0.7597 -0.0196
1 -6 9 0.5467 0.0227
1 -5 0 -5.7864 0.0972
1 -5 1 5.2145 -0.0880
1 -5 2 -4.5495 0.0678
1 -5 3 3.8773 -0.0437
1 -5 4 -3.2688 0.0217
1 -5 5 2.7621 -0.0054
1 -5 6 -2.3571 -0.0048
1 -5 7 2.0234 0.0111
1 -5 8 -1.7191 -0.0155
1 -5 9 1.4097 0.0193
1 -5 10 -1.0827 -0.0221
1 -5 11 0.7498 0.0223
1 -4 0 -4.4145 0.0841
1 -4 1 3.7855 -0.0743
1 -4 2 -3.0780 0.0524
1 -4 3 2.4120 -0.0260
1 -4 4 -1.8827 0.0028
1 -4 5 1.5345 0.0117
1 -4 6 -1.3534 -0.0164
1 -4 7 1.2785 0.0140
1 -4 8 -1.2293 -0.0087
1 -4 9 1.1367 0.0045
1 -4 10 -0.9660 -0.0030
1 -4 11 0.7246 0.0038
1 -3 0 2.5438 0.0746
1 -3 1 -2.7850 -0.0634
1 -3 2 2.9341 0.0379
1 -3 3 -2.9368 -0.0060
1 -3 4 2.7655 -0.0229
1 -3 5 -2.4301 0.0412
1 -3 6 1.9785 -0.0455
1 -3 7 -1.4846 0.0377
1 -3 8 1.0274 -0.0231
1 -3 9 -0.6687 0.0081
1 -3 10 0.4359 0.0029
1 -3 11 -0.3184 -0.0082
1 -3 12 0.2770 0.0091
1 -2 0 11.4610 0.0449
1 -2 1 -11.0093 -0.0411
1 -2 2 10.2153 0.0230
1 -2 3 -9.1749 0.0037
1 -2 4 7.9993 -0.0304
1 -2 5 -6.7932 0.0486
1 -2 6 5.6406 -0.0535
1 -2 7 -4.5982 0.0453
1 -2 8 3.6958 -0.0288
1 -2 9 -2.9393 0.0107
1 -2 10 2.3172 0.0032
1 -2 11 -1.8066 -0.0102
1 -2 12 1.3802 0.0110
1 -2 13 -1.0140 -0.0086
1 -1 0 14.1945 -0.0228
1 -1 1 -13.2227 0.0134
1 -1 2 11.8580 -0.0148
1 -1 3 -10.3146 0.0254
1 -1 4 8.7911 -0.0395
1 -1 5 -7.4264 0.0499
1 -1 6 6.2803 -0.0514
1 -1 7 -5.3405 0.0430
1 -1 8 4.5513 -0.0279
1 -1 9 -3.8466 0.0122
1 -1 10 3.1788 -0.0015
1 -1 11 -2.5309 -0.0012
1 -1 12 1.9149 -0.0033
1 -1 13 -1.3585 0.0114
1 -1 14 0.8896 -0.0182
1 0 0 6.5872 -0.0914
1 0 1 -5.6111 0.0697
1 0 2 4.5218 -0.0539
1 0 3 -3.5209 0.0469
1 0 4 2.7601 -0.0473
1 0 5 -2.3022 0.0499
1 0 6 2.1136 -0.0494
1 0 7 -2.0878 0.0426
1 0 8 2.0910 -0.0304
1 0 10 1.7930 -0.0060
1 0 11 -1.4468 0.0022
1 0 12 1.0342 -0.0057
1 0 13 -0.6368 0.0138
1 0 14 0.3238 -0.0222
1 1 0 -5.5650 -0.1206
1 1 1 6.1401 0.0925
1 1 2 -6.4484 -0.0651
1 1 3 6.4129 0.0454
1 1 4 -6.0153 -0.0359
1 1 5 5.3070 0.0341
1 1 6 -4.4006 -0.0347
1 1 7 3.4423 0.0325
1 1 8 -2.5735 -0.0245
1 1 9 1.8939 0.0118
1 1 10 -1.4397 0.0025
1 1 11 1.1827 -0.0143
1 1 12 -1.0504 0.0209
1 1 13 0.9577 -0.0220
1 1 14 -0.8381 0.0194
1 1 15 0.6626 -0.0156
1 2 0 -12.2062 -0.1180
1 2 1 12.3499 0.0910
1 2 2 -12.0844 -0.0607
1 2 3 11.4611 0.0361
1 2 4 -10.5622 -0.0223
1 2 5 9.4856 0.0189
1 2 6 -8.3303 -0.0213
1 2 7 7.1836 0.0232
1 2 8 -6.1105 -0.0199
1 2 9 5.1480 0.0097
1 2 10 -4.3042 0.0056
1 2 11 3.5644 -0.0219
1 2 12 -2.9028 0.0354
1 2 13 2.2949 -0.0436
1 2 14 -1.7292 0.0462
1 2 15 1.2108 -0.0447
1 3 0 -9.6053 -0.1145
1 3 1 9.4596 0.0920
1 3 2 -9.0739 -0.0643
1 3 3 8.5522 0.0399
1 3 4 -7.9855 -0.0247
1 3 5 7.4293 0.0197
1 3 6 -6.8967 -0.0212
1 3 7 6.3677 0.0235
1 3 8 -5.8081 -0.0215
1 3 9 5.1890 0.0131
1 3 10 -4.5007 0.0002
1 3 11 3.7583 -0.0143
1 3 12 -2.9966 0.0250
1 3 13 2.2616 -0.0297
1 3 14 -1.5986 0.0286
1 3 15 1.0435 -0.0240
1 4 0 -2.5050 -0.1076
1 4 1 2.1816 0.0927
1 4 2 -1.8679 -0.0702
1 4 3 1.6520 0.0476
1 4 4 -1.5824 -0.0309
1 4 5 1.6535 0.0220
1 4 6 -1.8103 -0.0188
1 4 7 1.9704 0.0166
1 4 8 -2.0527 -0.0110
1 4 9 2.0041 0.0004
1 4 10 -1.8132 0.0134
1 4 11 1.5091 -0.0258
1 4 12 -1.1474 0.0321
1 4 13 0.7904 -0.0299
1 4 14 -0.4888 0.0201
1 4 15 0.2709 -0.0068
1 5 0 2.8122 -0.0790
1 5 1 -3.1580 0.0738
1 5 2 3.3833 -0.0586
1 5 3 -3.4450 0.0394
1 5 4 3.3329 -0.0223
1 5 5 -3.0731 0.0109
1 5 6 2.7192 -0.0049
1 5 7 -2.3356 0.0012
1 5 8 1.9782 0.0045
1 5 9 -1.6791 -0.0145
1 5 10 1.4428 0.0274
1 5 11 -1.2513 -0.0394
1 5 12 1.0770 0.0454
1 5 13 -0.8965 -0.0420
1 6 0 4.2264 -0.0494
1 6 1 -4.4605 0.0502
1 6 2 4.5844 -0.0396
1 6 3 -4.5994 0.0221
1 6 4 4.5174 -0.0044
1 6 5 -4.3563 -0.0080
1 6 6 4.1346 0.0126
1 6 7 -3.8663 -0.0111
1 6 8 3.5582 0.0077
1 6 9 -3.2111 -0.0066
1 6 10 2.8238 0.0095
1 6 11 -2.3990 -0.0148
1 6 12 1.9478 0.0188
1 6 13 -1.4918 -0.0176
1 6 14 1.0598 0.0095
1 7 0 3.0191 -0.0346
1 7 1 -3.1524 0.0403
1 7 2 3.2026 -0.0333
1 7 3 -3.1916 0.0165
1 7 4 3.1407 0.0035
1 7 5 -3.0629 -0.0195
1 7 6 2.9597 0.0263
1 7 7 -2.8223 -0.0231
1 7 8 2.6377 0.0129
1 7 9 -2.3952 -0.0010
1 7 10 2.0934 -0.0081
1 7 11 -1.7436 0.0125
1 7 12 1.3688 -0.0137
1 7 13 -1.0001 0.0146
1 8 0 1.0289 -0.0080
1 8 1 -1.0720 0.0228
1 8 2 1.0633 -0.0257
1 8 3 -1.0203 0.0163
1 8 4 0.9614 0.0012
1 8 5 -0.9000 -0.0199
1 8 6 0.8418 0.0331
1 8 7 -0.7860 -0.0367
1 8 8 0.7276 0.0311
1 8 9 -0.6615 -0.0201
1 8 10 0.5848 0.0088
1 8 11 -0.4982 -0.0010
1 8 12 0.4058 -0.0022
1 9 0 -0.2908 0.0283
1 9 1 0.3694 -0.0085
1 9 2 -0.4562 -0.0045
1 9 3 0.5404 0.0067
1 9 4 -0.6109 0.0017
1 9 5 0.6575 -0.0165
1 9 6 -0.6722 0.0314
1 9 7 0.6493 -0.0407
1 9 8 -0.5870 0.0417
1 9 9 0.4882 -0.0357
1 9 10 -0.3616 0.0267
1 10 2 -0.6147 0.0111
1 10 3 0.6960 -0.0042
1 10 4 -0.7457 0.0052
1 10 5 0.7592 -0.0128
1 10 6 -0.7340 0.0229
1 10 7 0.6698 -0.0304
1 10 8 -0.5694 0.0316
2 -8 0 -0.8047 0.0554
2 -8 1 0.6335 -0.0391
2 -8 2 -0.4542 0.0259
2 -8 3 0.2800 -0.0177
2 -8 4 -0.1271 0.0137
2 -8 5 0.0118 -0.0118
2 -7 0 -2.1427 0.0829
2 -7 1 1.8884 -0.0576
2 -7 2 -1.6233 0.0320
2 -7 3 1.3583 -0.0110
2 -7 4 -1.1032 -0.0038
2 -7 5 0.8666 0.0133
2 -7 6 -0.6553 -0.0196
2 -7 7 0.4735 0.0243
2 -6 0 -2.6194 0.1129
2 -6 1 2.3663 -0.0891
2 -6 2 -2.1189 0.0614
2 -6 3 1.8958 -0.0362
2 -6 4 -1.6997 0.0168
2 -6 5 1.5194 -0.0032
2 -6 6 -1.3363 -0.0065
2 -6 7 1.1342 0.0144
2 -6 8 -0.9075 -0.0216
2 -6 9 0.6645 0.0273
2 -5 0 -0.5948 0.1235
2 -5 1 0.4148 -0.1042
2 -5 2 -0.2886 0.0785
2 -5 3 0.2490 -0.0537
2 -5 4 -0.2964 0.0348
2 -5 5 0.3987 -0.0232
2 -5 6 -0.5050 0.0169
2 -5 7 0.5651 -0.0129
2 -5 8 -0.5482 0.0084
2 -5 9 0.4529 -0.0027
2 -5 10 -0.3052 -0.0033
2 -4 0 4.2481 0.1151
2 -4 1 -4.1803 -0.0989
2 -4 2 3.9721 0.0732
2 -4 3 -3.6117 -0.0460
2 -4 4 3.1231 0.0240
2 -4 5 -2.5624 -0.0109
2 -4 6 2.0027 0.0061
2 -4 7 -1.5123 -0.0062
2 -4 8 1.1345 0.0076
2 -4 9 -0.8772 -0.0074
2 -4 10 0.7147 0.0051
2 -4 11 -0.6031 -0.0019
2 -3 0 8.9383 0.0879
2 -3 1 -8.4606 -0.0788
2 -3 2 7.7819 0.0579
2 -3 3 -6.9577 -0.0327
2 -3 4 6.0543 0.0107
2 -3 5 -5.1398 0.0034
2 -3 6 4.2754 -0.0085
2 -3 7 -3.5057 0.0074
2 -3 8 2.8528 -0.0041
2 -3 9 -2.3146 0.0021
2 -3 10 1.8693 -0.0026
2 -3 11 -1.4859 0.0045
2 -3 12 1.1369 -0.0054
2 -2 0 8.2735 0.0441
2 -2 1 -7.4994 -0.0457
2 -2 2 6.6360 0.0353
2 -2 3 -5.7922 -0.0182
2 -2 4 5.0360 0.0016
2 -2 5 -4.3893 0.0091
2 -2 6 3.8364 -0.0123
2 -2 7 -3.3429 0.0100
2 -2 8 2.8754 -0.0065
2 -2 9 -2.4144 0.0055
2 -2 10 1.9585 -0.0087
2 -2 11 -1.5202 0.0147
2 -2 12 1.1183 -0.0201
2 -2 13 -0.7701 0.0215
2 -1 0 0.3575 0.0054
2 -1 1 0.3440 -0.0189
2 -1 2 -0.8389 0.0192
2 -1 3 1.0366 -0.0093
2 -1 4 -0.9343 -0.0046
2 -1 5 0.6109 0.0161
2 -1 6 -0.1958 -0.0215
2 -1 7 -0.1770 0.0209
2 -1 8 0.4111 -0.0175
2 -1 9 -0.4718 0.0152
2 -1 10 0.3858 -0.0169
2 -1 11 -0.2206 0.0224
2 -1 12 0.0529 -0.0290
2 -1 13 0.0599 0.0331
2 -1 14 -0.0945 -0.0320
2 0 0 -9.4010 -0.0196
2 0 1 9.7299 -0.0058
2 0 2 -9.6120 0.0176
2 0 3 9.0298 -0.0152
2 0 4 -8.0554 0.0029
2 0 5 6.8351 0.0124
2 0 6 -5.5511 -0.0242
2 0 7 4.3730 0.0291
2 0 8 -3.4154 -0.0271
2 0 9 2.7158 0.0212
2 0 10 -2.2385 -0.0150
2 0 11 1.9021 0.0109
2 0 12 -1.6170 -0.0092
2 0 13 1.3188 0.0084
2 0 14 -0.9862 -0.0067
2 1 0 -12.7976 -0.0467
2 1 1 12.7653 0.0143
2 1 2 -12.3376 0.0077
2 1 3 11.5599 -0.0148
2 1 4 -10.5162 0.0085
2 1 5 9.3160 0.0050
2 1 6 -8.0743 -0.0184
2 1 7 6.8891 0.0254
2 1 8 -5.8235 -0.0238
2 1 9 4.8983 0.0147
2 1 10 -4.0970 -0.0019
2 1 11 3.3825 -0.0106
2 1 12 -2.7183 0.0202
2 1 13 2.0859 -0.0261
2 1 14 -1.4920 0.0290
2 1 15 0.9637 -0.0298
2 2 0 -7.5791 -0.0831
2 2 1 7.3444 0.0513
2 2 2 -7.0163 -0.0253
2 2 3 6.6545 0.0109
2 2 4 -6.2902 -0.0088
2 2 5 5.9259 0.0149
2 2 6 -5.5438 -0.0224
2 2 7 5.1199 0.0253
2 2 8 -4.6356 -0.0205
2 2 9 4.0862 0.0091
2 2 10 -3.4826 0.0052
2 2 11 2.8493 -0.0178
2 2 12 -2.2197 0.0259
2 2 13 1.6304 -0.0287
2 2 14 -1.1153 0.0277
2 2 15 0.7001 -0.0249
2 3 0 0.7954 -0.1125
2 3 1 -1.1623 0.0875
2 3 2 1.3351 -0.0629
2 3 3 -1.2710 0.0450
2 3 4 0.9929 -0.0358
2 3 5 -0.5786 0.0329
2 3 6 0.1342 -0.0311
2 3 7 0.2405 0.0258
2 3 8 -0.4788 -0.0147
2 3 9 0.5609 -0.0004
2 3 10 -0.5105 0.0154
2 3 11 0.3790 -0.0255
2 3 12 -0.2245 0.0280
2 3 13 0.0942 -0.0233
2 3 14 -0.0146 0.0144
2 4 0 5.8296 -0.1195
2 4 1 -6.2194 0.1039
2 4 2 6.3492 -0.0835
2 4 3 -6.1998 0.0644
2 4 4 5.8064 -0.0499
2 4 5 -5.2472 0.0398
2 4 6 4.6178 -0.0309
2 4 7 -4.0032 0.0197
2 4 8 3.4564 -0.0045
2 4 9 -2.9906 -0.0132
2 4 10 2.5868 0.0292
2 4 11 -2.2111 -0.0390
2 4 12 1.8344 0.0395
2 4 13 -1.4451 -0.0311
2 4 14 1.0531 0.0173
2 4 15 -0.6835 -0.0035
2 5 0 5.8103 -0.1204
2 5 1 -6.0182 0.1107
2 5 2 6.0732 -0.0916
2 5 3 -5.9850 0.0695
2 5 4 5.7796 -0.0498
2 5 5 -5.4909 0.0351
2 5 6 5.1505 -0.0245
2 5 7 -4.7781 0.0151
2 5 8 4.3783 -0.0043
2 5 9 -3.9439 -0.0082
2 5 10 3.4648 0.0200
2 5 11 -2.9386 -0.0276
2 5 12 2.3780 0.0277
2 5 13 -1.8117 -0.0198
2 5 14 1.2782 0.0066
2 6 0 3.0672 -0.1305
2 6 1 -3.0553 0.1231
2 6 2 2.9944 -0.1019
2 6 3 -2.9174 0.0739
2 6 4 2.8461 -0.0471
2 6 5 -2.7860 0.0270
2 6 6 2.7262 -0.0152
2 6 7 -2.6440 0.0097
2 6 8 2.5135 -0.0068
2 6 9 -2.3152 0.0036
2 6 10 2.0437 0.0003
2 6 11 -1.7114 -0.0031
2 6 12 1.3461 0.0020
2 6 13 -0.9850 0.0046
2 6 14 0.6644 -0.0158
2 7 0 0.2523 -0.1179
2 7 1 -0.1410 0.1183
2 7 2 0.0264 -0.1016
2 7 3 0.0616 0.0739
2 7 4 -0.1052 -0.0435
2 7 5 0.1023 0.0182
2 7 6 -0.0645 -0.0022
2 7 7 0.0112 -0.0047
2 7 8 0.0376 0.0059
2 7 9 -0.0674 -0.0056
2 7 10 0.0726 0.0066
2 7 11 -0.0570 -0.0086
2 7 12 0.0312 0.0094
2 7 13 -0.0081 -0.0061
2 8 0 -1.2534 -0.0629
2 8 1 1.4174 0.0760
2 8 2 -1.5516 -0.0732
2 8 3 1.6424 0.0567
2 8 4 -1.6823 -0.0326
2 8 5 1.6693 0.0085
2 8 6 -1.6056 0.0095
2 8 7 1.4956 -0.0188
2 8 8 -1.3455 0.0213
2 8 9 1.1630 -0.0209
2 8 10 -0.9584 0.0214
2 8 11 0.7445 -0.0245
2 9 0 -1.1775 -0.0055
2 9 1 1.3582 0.0242
2 9 2 -1.4894 -0.0327
2 9 3 1.5646 0.0290
2 9 4 -1.5834 -0.0158
2 9 5 1.5481 -0.0009
2 9 6 -1.4625 0.0149
2 9 7 1.3311 -0.0218
2 9 8 -1.1599 0.0212
2 9 9 0.9587 -0.0160
2 10 1 0.4882 -0.0086
2 10 2 -0.5528 -0.0008
2 10 3 0.5780 0.0032
2 10 4 -0.5646 0.0014
2 10 5 0.5178 -0.0097
2 10 6 -0.4451 0.0171
2 10 7 0.3560 -0.0193
2 10 8 -0.2610 0.0147
3 -9 0 -0.2625 -0.0085
3 -8 0 -0.9588 -0.0061
3 -8 1 0.8188 0.0229
3 -8 2 -0.6769 -0.0328
3 -8 3 0.5397 0.0359
3 -8 4 -0.4137 -0.0343
3 -7 0 -0.9928 0.0293
3 -7 1 0.9727 -0.0050
3 -7 2 -0.9418 -0.0124
3 -7 3 0.8925 0.0213
3 -7 4 -0.8177 -0.0233
3 -7 5 0.7142 0.0219
3 -7 6 -0.5841 -0.0203
3 -7 7 0.4359 0.0202
3 -6 0 0.6787 0.0772
3 -6 1 -0.5182 -0.0523
3 -6 2 0.3370 0.0317
3 -6 3 -0.1551 -0.0190
3 -6 4 -0.0013 0.0140
3 -6 5 0.1081 -0.0139
3 -6 6 -0.1522 0.0145
3 -6 7 0.1361 -0.0130
3 -6 8 -0.0781 0.0085
3 -5 0 3.6984 0.1096
3 -5 1 -3.4058 -0.0870
3 -5 2 3.0278 0.0636
3 -5 3 -2.5945 -0.0448
3 -5 4 2.1508 0.0333
3 -5 5 -1.7431 -0.0281
3 -5 6 1.4050 0.0261
3 -5 7 -1.1474 -0.0239
3 -5 8 0.9570 0.0197
3 -5 9 -0.8046 -0.0134
3 -5 10 0.6587 0.0063
3 -4 0 5.6714 0.1214
3 -4 1 -5.3249 -0.1031
3 -4 2 4.8609 0.0790
3 -4 3 -4.3182 -0.0557
3 -4 4 3.7459 0.0377
3 -4 5 -3.1929 -0.0262
3 -4 6 2.6957 0.0195
3 -4 7 -2.2697 -0.0148
3 -4 8 1.9081 0.0096
3 -4 9 -1.5886 -0.0035
3 -4 10 1.2852 -0.0026
3 -4 11 -0.9817 0.0069
3 -3 0 3.5105 0.1248
3 -3 1 -3.2436 -0.1119
3 -3 2 2.9663 0.0900
3 -3 3 -2.6987 -0.0663
3 -3 4 2.4464 0.0463
3 -3 5 -2.2053 -0.0327
3 -3 6 1.9674 0.0243
3 -3 7 -1.7258 -0.0182
3 -3 8 1.4780 0.0115
3 -3 9 -1.2258 -0.0033
3 -3 10 0.9749 -0.0054
3 -3 11 -0.7339 0.0120
3 -3 12 0.5133 -0.0140
3 -2 0 -3.1792 0.1332
3 -2 1 3.2190 -0.1254
3 -2 2 -3.0224 0.1046
3 -2 3 2.6242 -0.0782
3 -2 4 -2.1075 0.0533
3 -2 5 1.5762 -0.0345
3 -2 6 -1.1218 0.0224
3 -2 7 0.7985 -0.0146
3 -2 8 -0.6130 0.0077
3 -2 9 0.5323 0.0003
3 -2 10 -0.5024 -0.0094
3 -2 12 -0.4087 -0.0212
3 -1 0 -9.9455 0.1360
3 -1 1 9.7545 -0.1364
3 -1 2 -9.1443 0.1189
3 -1 3 8.1969 -0.0896
3 -1 4 -7.0551 0.0569
3 -1 5 5.8829 -0.0281
3 -1 6 -4.8211 0.0071
3 -1 7 3.9529 0.0058
3 -1 8 -3.2914 -0.0130
3 -1 9 2.7911 0.0174
3 -1 10 -2.3779 -0.0206
3 -1 11 1.9824 0.0226
3 -1 12 -1.5667 -0.0224
3 -1 13 1.1329 0.0186
3 0 0 -10.7702 0.1101
3 0 1 10.5360 -0.1214
3 0 2 -9.9640 0.1132
3 0 3 9.1269 -0.0889
3 0 4 -8.1325 0.0563
3 0 5 7.0974 -0.0239
3 0 6 -6.1184 -0.0015
3 0 7 5.2510 0.0171
3 0 8 -4.5030 -0.0234
3 0 9 3.8442 0.0234
3 0 10 -3.2292 -0.0202
3 0 11 2.6220 0.0160
3 0 12 -2.0141 -0.0112
3 0 13 1.4276 0.0058
3 0 14 -0.9047 0.0006
3 1 0 -4.5245 0.0604
3 1 1 4.4101 -0.0796
3 1 2 -4.2530 0.0815
3 1 3 4.0687 -0.0671
3 1 4 -3.8629 0.0423
3 1 5 3.6343 -0.0156
3 1 6 -3.3780 -0.0057
3 1 7 3.0874 0.0176
3 1 8 -2.7572 -0.0203
3 1 9 2.3858 0.0170
3 1 10 -1.9786 -0.0117
3 1 11 1.5515 0.0074
3 1 12 -1.1303 -0.0051
3 1 13 0.7481 0.0038
3 1 14 -0.4368 -0.0020
3 2 0 3.5828 0.0101
3 2 1 -3.6619 -0.0318
3 2 2 3.5100 0.0402
3 2 3 -3.1615 -0.0345
3 2 4 2.6915 0.0191
3 2 5 -2.1911 -0.0011
3 2 6 1.7401 -0.0127
3 2 7 -1.3873 0.0184
3 2 8 1.1442 -0.0165
3 2 9 -0.9913 0.0105
3 2 10 0.8921 -0.0051
3 2 11 -0.8087 0.0034
3 2 12 0.7134 -0.0060
3 2 13 -0.5938 0.0109
3 2 14 0.4520 -0.0148
3 3 0 7.5956 -0.0337
3 3 1 -7.7639 0.0132
3 3 2 7.6375 -0.0004
3 3 3 -7.2583 -0.0025
3 3 4 6.7089 -0.0027
3 3 5 -6.0848 0.0109
3 3 6 5.4651 -0.0166
3 3 7 -4.8925 0.0166
3 3 8 4.3700 -0.0110
3 3 9 -3.8722 0.0029
3 3 10 3.3661 0.0032
3 3 11 -2.8302 -0.0043
3 3 12 2.2664 -0.0000
3 3 13 -1.6999 0.0075
3 3 14 1.1696 -0.0142
3 4 0 6.1155 -0.0808
3 4 1 -6.2415 0.0610
3 4 2 6.2060 -0.0421
3 4 3 -6.0397 0.0287
3 4 4 5.7872 -0.0219
3 4 5 -5.4902 0.0197
3 4 6 5.1735 -0.0183
3 4 7 -4.8383 0.0148
3 4 8 4.4663 -0.0081
3 4 9 -4.0328 0.0003
3 4 10 3.5224 0.0054
3 4 11 -2.9414 -0.0064
3 4 12 2.3204 0.0021
3 4 13 -1.7077 0.0056
3 4 14 1.1547 -0.0130
3 5 0 1.9882 -0.1340
3 5 1 -1.9093 0.1112
3 5 2 1.8282 -0.0831
3 5 3 -1.7725 0.0572
3 5 4 1.7562 -0.0381
3 5 5 -1.7746 0.0265
3 5 6 1.8060 -0.0202
3 5 7 -1.8175 0.0156
3 5 8 1.7755 -0.0104
3 5 9 -1.6569 0.0045
3 5 10 1.4578 0.0002
3 5 11 -1.1955 -0.0010
3 5 12 0.9043 -0.0032
3 5 13 -0.6252 0.0112
3 5 14 0.3936 -0.0199
3 6 0 -1.3855 -0.1662
3 6 1 1.5914 0.1425
3 6 2 -1.7303 -0.1087
3 6 3 1.7808 0.0739
3 6 4 -1.7411 -0.0455
3 6 5 1.6273 0.0268
3 6 6 -1.4667 -0.0167
3 6 7 1.2896 0.0113
3 6 8 -1.1211 -0.0065
3 6 9 0.9754 0.0004
3 6 10 -0.8543 0.0063
3 6 11 0.7492 -0.0107
3 6 12 -0.6461 0.0101
3 6 13 0.5324 -0.0039
3 6 14 -0.4022 -0.0058
3 7 0 -2.5475 -0.1514
3 7 1 2.7542 0.1367
3 7 2 -2.8843 -0.1083
3 7 3 2.9331 0.0744
3 7 4 -2.9060 -0.0436
3 7 5 2.8148 0.0213
3 7 6 -2.6722 -0.0085
3 7 7 2.4886 0.0021
3 7 8 -2.2709 0.0024
3 7 9 2.0238 -0.0089
3 7 10 -1.7521 0.0180
3 7 11 1.4625 -0.0275
3 7 12 -1.1642 0.0337
3 7 13 0.8693 -0.0338
3 8 0 -1.8744 -0.1074
3 8 1 2.0390 0.1074
3 8 2 -2.1338 -0.0922
3 8 3 2.1630 0.0670
3 8 4 -2.1356 -0.0396
3 8 5 2.0606 0.0171
3 8 6 -1.9445 -0.0033
3 8 7 1.7914 -0.0024
3 8 8 -1.6049 0.0036
3 8 9 1.3909 -0.0051
3 8 10 -1.1593 0.0098
3 8 11 0.9234 -0.0175
3 9 0 -0.6379 -0.0599
3 9 1 0.7017 0.0700
3 9 2 -0.7216 -0.0666
3 9 3 0.7025 0.0517
3 9 4 -0.6519 -0.0308
3 9 5 0.5778 0.0112
3 9 6 -0.4884 0.0017
3 9 7 0.3917 -0.0057
3 9 8 -0.2965 0.0027
3 9 9 0.2126 0.0031
3 9 10 -0.1487 -0.0073
3 10 1 -0.0164 0.0235
3 10 2 0.0729 -0.0270
3 10 3 -0.1357 0.0221
3 10 4 0.1968 -0.0110
3 10 5 -0.2492 -0.0015
3 10 6 0.2867 0.0108
3 10 7 -0.3034 -0.0138
4 -8 0 -0.4062 -0.0639
4 -8 1 0.4071 0.0661
4 -8 2 -0.3840 -0.0589
4 -8 3 0.3374 0.0457
4 -7 0 0.4368 -0.0359
4 -7 1 -0.2994 0.0434
4 -7 2 0.1925 -0.0396
4 -7 3 -0.1242 0.0272
4 -7 4 0.0949 -0.0115
4 -7 5 -0.0970 -0.0025
4 -7 6 0.1169 0.0111
4 -6 0 2.0286 0.0004
4 -6 1 -1.8085 0.0119
4 -6 2 1.5890 -0.0153
4 -6 3 -1.3872 0.0100
4 -6 4 1.2136 0.0007
4 -6 5 -1.0683 -0.0121
4 -6 6 0.9407 0.0203
4 -6 7 -0.8137 -0.0231
4 -5 0 2.7849 0.0343
4 -5 1 -2.6125 -0.0160
4 -5 2 2.4015 0.0025
4 -5 3 -2.1734 0.0036
4 -5 4 1.9478 -0.0029
4 -5 5 -1.7354 -0.0016
4 -5 6 1.5344 0.0063
4 -5 7 -1.3329 -0.0085
4 -5 8 1.1163 0.0074
4 -5 9 -0.8772 -0.0039
4 -4 0 0.9509 0.0765
4 -4 1 -0.9598 -0.0530
4 -4 2 0.9469 0.0307
4 -4 3 -0.9149 -0.0146
4 -4 4 0.8673 0.0067
4 -4 5 -0.8069 -0.0051
4 -4 6 0.7344 0.0063
4 -4 7 -0.6483 -0.0068
4 -4 8 0.5471 0.0048
4 -4 9 -0.4315 -0.0006
4 -4 10 0.3076 -0.0041
4 -3 0 -3.3671 0.1285
4 -3 1 3.1102 -0.1025
4 -3 2 -2.7662 0.0735
4 -3 3 2.3840 -0.0486
4 -3 4 -2.0144 0.0319
4 -3 5 1.6947 -0.0235
4 -3 6 -1.4406 0.0203
4 -3 7 1.2453 -0.0182
4 -3 8 -1.0870 0.0145
4 -3 9 0.9397 -0.0085
4 -3 10 -0.7843 0.0017
4 -3 11 0.6135 0.0035
4 -2 0 -7.2189 0.1674
4 -2 1 6.8147 -0.1431
4 -2 2 -6.2129 0.1101
4 -2 3 5.5076 -0.0766
4 -2 4 -4.7969 0.0489
4 -2 5 4.1553 -0.0298
4 -2 6 -3.6149 0.0183
4 -2 7 3.1648 -0.0113
4 -2 8 -2.7653 0.0059
4 -2 9 2.3708 -0.0003
4 -2 10 -1.9515 -0.0050
4 -2 11 1.5059 0.0087
4 -2 12 -1.0594 -0.0093
4 -1 0 -6.8011 0.1727
4 -1 1 6.4931 -0.1547
4 -1 2 -6.0093 0.1235
4 -1 3 5.4314 -0.0869
4 -1 4 -4.8423 0.0527
4 -1 5 4.3018 -0.0259
4 -1 6 -3.8310 0.0081
4 -1 7 3.4131 0.0023
4 -1 8 -3.0085 -0.0080
4 -1 9 2.5777 0.0115
4 -1 10 -2.1027 -0.0140
4 -1 11 1.5970 0.0150
4 -1 12 -1.1016 -0.0137
4 -1 13 0.6690 0.0098
4 0 0 -1.5245 0.1590
4 0 1 1.4864 -0.1487
4 0 2 -1.4215 0.1225
4 0 3 1.3463 -0.0876
4 0 4 -1.2742 0.0527
4 0 5 1.2102 -0.0243
4 0 6 -1.1477 0.0057
4 0 7 1.0703 0.0039
4 0 8 -0.9587 -0.0077
4 0 9 0.8012 0.0095
4 0 10 -0.6014 -0.0115
4 0 11 0.3810 0.0142
4 0 12 -0.1749 -0.0161
4 0 13 0.0192 0.0157
4 1 0 4.7014 0.1466
4 1 1 -4.5754 -0.1428
4 1 2 4.3228 0.1212
4 1 3 -3.9902 -0.0883
4 1 4 3.6272 0.0531
4 1 5 -3.2728 -0.0236
4 1 6 2.9475 0.0042
4 1 7 -2.6534 0.0052
4 1 8 2.3800 -0.0081
4 1 9 -2.1124 0.0093
4 1 10 1.8381 -0.0121
4 1 11 -1.5513 0.0174
4 1 12 1.2534 -0.0234
4 1 13 -0.9523 0.0273
4 1 14 0.6612 -0.0266
4 2 0 7.2560 0.1229
4 2 1 -7.2162 -0.1251
4 2 2 6.9967 0.1101
4 2 3 -6.6597 -0.0827
4 2 4 6.2684 0.0506
4 2 5 -5.8654 -0.0218
4 2 6 5.4625 0.0013
4 2 7 -5.0437 0.0098
4 2 8 4.5803 -0.0143
4 2 9 -4.0493 0.0163
4 2 10 3.4477 -0.0194
4 2 11 -2.7975 0.0246
4 2 12 2.1406 -0.0305
4 2 13 -1.5260 0.0341
4 2 14 0.9962 -0.0329
4 3 0 4.9809 0.0733
4 3 1 -5.0392 -0.0818
4 3 2 4.9927 0.0774
4 3 3 -4.8824 -0.0618
4 3 4 4.7435 0.0399
4 3 5 -4.5906 -0.0178
4 3 6 4.4122 0.0005
4 3 7 -4.1783 0.0103
4 3 8 3.8561 -0.0156
4 3 9 -3.4279 0.0185
4 3 10 2.9034 -0.0216
4 3 11 -2.3203 0.0261
4 3 12 1.7345 -0.0307
4 3 13 -1.2034 0.0330
4 3 14 0.7696 -0.0308
4 4 0 0.3809 0.0125
4 4 1 -0.3333 -0.0291
4 4 2 0.3125 0.0373
4 4 3 -0.3383 -0.0352
4 4 4 0.4148 0.0249
4 4 5 -0.5269 -0.0109
4 4 6 0.6431 -0.0019
4 4 7 -0.7256 0.0104
4 4 8 0.7428 -0.0144
4 4 9 -0.6816 0.0158
4 4 10 0.5526 -0.0173
4 4 11 -0.3864 0.0204
4 4 12 0.2231 -0.0246
4 4 13 -0.0982 0.0278
4 4 14 0.0310 -0.0274
4 5 0 -3.0506 -0.0361
4 5 1 3.2414 0.0099
4 5 2 -3.3284 0.0101
4 5 3 3.3052 -0.0190
4 5 4 -3.1828 0.0165
4 5 5 2.9850 -0.0066
4 5 6 -2.7421 -0.0048
4 5 7 2.4826 0.0127
4 5 8 -2.2270 -0.0149
4 5 9 1.9832 0.0125
4 5 10 -1.7475 -0.0087
4 5 11 1.5089 0.0068
4 5 12 -1.2565 -0.0082
4 5 13 0.9862 0.0116
4 5 14 -0.7059 -0.0144
4 6 0 -3.5914 -0.0677
4 6 1 3.7846 0.0362
4 6 2 -3.8760 -0.0079
4 6 3 3.8735 -0.0098
4 6 4 -3.7936 0.0143
4 6 5 3.6537 -0.0081
4 6 6 -3.4677 -0.0028
4 6 7 3.2434 0.0115
4 6 8 -2.9831 -0.0137
4 6 9 2.6866 0.0089
4 6 10 -2.3547 -0.0000
4 6 11 1.9920 -0.0084
4 6 12 -1.6090 0.0127
4 6 13 1.2219 -0.0121
4 7 0 -2.0534 -0.0942
4 7 1 2.1663 0.0670
4 7 2 -2.2118 -0.0366
4 7 3 2.2037 0.0114
4 7 4 -2.1566 0.0030
4 7 5 2.0808 -0.0056
4 7 6 -1.9808 0.0001
4 7 7 1.8556 0.0075
4 7 8 -1.7034 -0.0114
4 7 9 1.5240 0.0088
4 7 10 -1.3215 -0.0006
4 7 11 1.1038 -0.0094
4 8 0 -0.3307 -0.1111
4 8 1 0.3265 0.0954
4 8 2 -0.2975 -0.0692
4 8 3 0.2524 0.0404
4 8 4 -0.1985 -0.0166
4 8 5 0.1409 0.0028
4 8 6 -0.0836 0.0006
4 8 7 0.0311 0.0028
4 8 8 0.0102 -0.0078
4 8 9 -0.0333 0.0098
4 8 10 0.0327 -0.0072
4 9 0 0.3339 -0.0919
4 9 1 -0.4601 0.0878
4 9 2 0.5778 -0.0708
4 9 3 -0.6770 0.0464
4 9 4 0.7525 -0.0217
4 9 5 -0.8015 0.0030
4 9 6 0.8219 0.0064
4 9 7 -0.8098 -0.0073
4 9 8 0.7598 0.0032
4 9 9 -0.6678 0.0014
4 10 3 -0.4549 0.0272
4 10 4 0.5214 -0.0111
4 10 5 -0.5482 -0.0038
5 -8 0 0.2095 -0.0671
5 -8 1 -0.1971 0.0534
5 -7 0 0.9020 -0.0736
5 -7 1 -0.8630 0.0620
5 -7 2 0.8284 -0.0420
5 -7 3 -0.7890 0.0191
5 -7 4 0.7335 0.0011
5 -6 0 1.0860 -0.0771
5 -6 1 -1.0836 0.0749
5 -6 2 1.0711 -0.0631
5 -6 3 -1.0421 0.0448
5 -6 4 0.9878 -0.0248
5 -6 5 -0.8989 0.0078
5 -6 6 0.7695 0.0036
5 -5 0 -0.1421 -0.0587
5 -5 1 0.0620 0.0709
5 -5 2 0.0047 -0.0723
5 -5 3 -0.0571 0.0632
5 -5 4 0.0931 -0.0472
5 -5 5 -0.1094 0.0294
5 -5 6 0.1023 -0.0142
5 -5 7 -0.0712 0.0043
5 -5 8 0.0209 0.0003
5 -4 0 -2.4708 -0.0126
5 -4 1 2.3010 0.0345
5 -4 2 -2.1186 -0.0465
5 -4 3 1.9337 0.0464
5 -4 4 -1.7513 -0.0362
5 -4 5 1.5714 0.0207
5 -4 6 -1.3907 -0.0056
5 -4 7 1.2050 -0.0049
5 -4 8 -1.0119 0.0094
5 -4 9 0.8126 -0.0088
5 -3 0 -4.1147 0.0335
5 -3 1 3.9150 -0.0092
5 -3 2 -3.6688 -0.0086
5 -3 3 3.4054 0.0163
5 -3 4 -3.1409 -0.0139
5 -3 5 2.8749 0.0049
5 -3 6 -2.5938 0.0055
5 -3 7 2.2814 -0.0128
5 -3 8 -1.9289 0.0151
5 -3 9 1.5430 -0.0128
5 -3 10 -1.1464 0.0080
5 -2 0 -3.0730 0.0591
5 -2 1 2.9528 -0.0352
5 -2 2 -2.7970 0.0140
5 -2 3 2.6385 -0.0003
5 -2 4 -2.4920 -0.0046
5 -2 5 2.3494 0.0023
5 -2 6 -2.1850 0.0032
5 -2 7 1.9701 -0.0079
5 -2 8 -1.6890 0.0092
5 -2 9 1.3494 -0.0069
5 -2 10 -0.9834 0.0026
5 -2 11 0.6373 0.0017
5 -1 0 0.7386 0.0834
5 -1 1 -0.7155 -0.0592
5 -1 2 0.6765 0.0342
5 -1 3 -0.6080 -0.0144
5 -1 4 0.5092 0.0035
5 -1 5 -0.3945 -0.0015
5 -1 6 0.2891 0.0053
5 -1 7 -0.2189 -0.0103
5 -1 8 0.1987 0.0128
5 -1 9 -0.2246 -0.0111
5 -1 10 0.2735 0.0058
5 -1 11 -0.3119 0.0006
5 -1 12 0.3091 -0.0057
5 0 0 4.7010 0.1238
5 0 1 -4.5994 -0.0994
5 0 2 4.4423 0.0688
5 0 3 -4.2408 -0.0403
5 0 4 4.0023 0.0202
5 0 5 -3.7309 -0.0109
5 0 6 3.4288 0.0106
5 0 7 -3.0986 -0.0145
5 0 8 2.7439 0.0172
5 0 9 -2.3695 -0.0154
5 0 10 1.9809 0.0086
5 0 11 -1.5852 0.0008
5 0 12 1.1927 -0.0093
5 1 0 5.7424 0.1544
5 1 1 -5.7157 -0.1320
5 1 2 5.6242 0.0989
5 1 3 -5.4894 -0.0637
5 1 4 5.3162 0.0346
5 1 5 -5.0921 -0.0159
5 1 6 4.7942 0.0074
5 1 7 -4.4026 -0.0056
5 1 8 3.9116 0.0051
5 1 9 -3.3366 -0.0020
5 1 10 2.7121 -0.0047
5 1 11 -2.0842 0.0133
5 1 12 1.4992 -0.0205
5 2 0 3.1851 0.1494
5 2 1 -3.2648 -0.1322
5 2 2 3.3076 0.1034
5 2 3 -3.3293 -0.0699
5 2 4 3.3275 0.0394
5 2 5 -3.2802 -0.0167
5 2 6 3.1561 0.0030
5 2 7 -2.9289 0.0039
5 2 8 2.5927 -0.0079
5 2 9 -2.1683 0.0123
5 2 10 1.6995 -0.0183
5 2 11 -1.2410 0.0247
5 2 12 0.8420 -0.0288
5 2 13 -0.5328 0.0283
5 3 0 -1.0067 0.1308
5 3 1 0.9881 -0.1205
5 3 2 -0.9339 0.0982
5 3 3 0.8372 -0.0693
5 3 4 -0.7073 0.0402
5 3 5 0.5687 -0.0164
5 3 6 -0.4525 0.0006
5 3 7 0.3833 0.0078
5 3 8 -0.3690 -0.0118
5 3 9 0.3963 0.0147
5 3 10 -0.4351 -0.0184
5 3 11 0.4511 0.0227
5 3 12 -0.4189 -0.0258
5 3 13 0.3326 0.0255
5 4 0 -3.9247 0.1260
5 4 1 4.0577 -0.1241
5 4 2 -4.0921 0.1071
5 4 3 4.0283 -0.0786
5 4 4 -3.8791 0.0454
5 4 5 3.6657 -0.0153
5 4 6 -3.4117 -0.0062
5 4 7 3.1358 0.0174
5 4 8 -2.8470 -0.0202
5 4 9 2.5435 0.0185
5 4 10 -2.2170 -0.0164
5 4 11 1.8606 0.0159
5 4 12 -1.4764 -0.0167
5 4 13 1.0797 0.0169
5 5 0 -3.8476 0.1174
5 5 1 4.0030 -0.1270
5 5 2 -4.0632 0.1182
5 5 3 4.0396 -0.0924
5 5 4 -3.9476 0.0564
5 5 5 3.8005 -0.0194
5 5 6 -3.6070 -0.0100
5 5 7 3.3708 0.0269
5 5 8 -3.0913 -0.0314
5 5 9 2.7676 0.0272
5 5 10 -2.4011 -0.0198
5 5 11 1.9995 0.0138
5 5 12 -1.5783 -0.0108
5 5 13 1.1606 0.0099
5 6 0 -1.6287 0.0721
5 6 1 1.6832 -0.0932
5 6 2 -1.6887 0.0984
5 6 3 1.6627 -0.0859
5 6 4 -1.6200 0.0595
5 6 5 1.5681 -0.0269
5 6 6 -1.5073 -0.0027
5 6 7 1.4329 0.0226
5 6 8 -1.3391 -0.0303
5 6 9 1.2218 0.0281
5 6 10 -1.0808 -0.0207
5 6 11 0.9199 0.0134
5 6 12 -0.7463 -0.0091
5 7 0 0.4272 -0.0016
5 7 1 -0.4890 -0.0249
5 7 2 0.5521 0.0443
5 7 3 -0.6073 -0.0510
5 7 4 0.6480 0.0440
5 7 5 -0.6704 -0.0269
5 7 6 0.6715 0.0065
5 7 7 -0.6481 0.0103
5 7 8 0.5967 -0.0192
5 7 9 -0.5156 0.0197
5 7 10 0.4076 -0.0148
5 8 0 1.0057 -0.0554
5 8 1 -1.1718 0.0304
5 8 2 1.3054 -0.0041
5 8 3 -1.4030 -0.0161
5 8 4 1.4648 0.0254
5 8 5 -1.4909 -0.0232
5 8 6 1.4781 0.0133
5 8 7 -1.4193 -0.0015
5 8 8 1.3063 -0.0067
5 8 9 -1.1355 0.0089
5 9 0 0.5188 -0.0611
5 9 1 -0.7149 0.0441
5 9 2 0.8751 -0.0213
5 9 3 -0.9885 -0.0009
5 9 4 1.0515 0.0167
5 9 5 -1.0653 -0.0229
5 9 6 1.0325 0.0203
5 9 7 -0.9554 -0.0127
5 9 8 0.8372 0.0051
6 -7 0 0.4571 -0.0682
6 -7 1 -0.4825 0.0501
6 -7 2 0.4819 -0.0294
6 -6 0 -0.3502 -0.1004
6 -6 1 0.2840 0.0909
6 -6 2 -0.2277 -0.0727
6 -6 3 0.1873 0.0504
6 -6 4 -0.1668 -0.0292
6 -6 5 0.1663 0.0126
6 -5 0 -1.6738 -0.1077
6 -5 1 1.6023 0.1066
6 -5 2 -1.5120 -0.0924
6 -5 3 1.4009 0.0688
6 -5 4 -1.2690 -0.0418
6 -5 5 1.1189 0.0176
6 -5 6 -0.9550 -0.0003
6 -5 7 0.7828 -0.0088
6 -4 0 -2.2962 -0.0992
6 -4 1 2.2757 0.0998
6 -4 2 -2.2167 -0.0868
6 -4 3 2.1122 0.0631
6 -4 4 -1.9570 -0.0345
6 -4 5 1.7500 0.0080
6 -4 6 -1.4973 0.0113
6 -4 7 1.2126 -0.0210
6 -4 8 -0.9169 0.0222
6 -3 0 -1.1131 -0.0923
6 -3 1 1.1712 0.0946
6 -3 2 -1.2086 -0.0841
6 -3 3 1.2178 0.0631
6 -3 4 -1.1863 -0.0368
6 -3 5 1.1024 0.0113
6 -3 6 -0.9621 0.0080
6 -3 7 0.7742 -0.0184
6 -3 8 -0.5614 0.0203
6 -3 9 0.3550 -0.0163
6 -2 0 1.6206 -0.0733
6 -2 1 -1.5317 0.0817
6 -2 2 1.4161 -0.0784
6 -2 3 -1.2784 0.0638
6 -2 4 1.1318 -0.0416
6 -2 5 -0.9942 0.0172
6 -2 6 0.8802 0.0035
6 -2 7 -0.7934 -0.0166
6 -2 8 0.7239 0.0211
6 -2 9 -0.6520 -0.0184
6 -2 10 0.5569 0.0118
6 -1 0 4.0178 -0.0278
6 -1 1 -3.9772 0.0435
6 -1 2 3.8836 -0.0505
6 -1 3 -3.7320 0.0459
6 -1 4 3.5225 -0.0307
6 -1 5 -3.2604 0.0096
6 -1 6 2.9545 0.0113
6 -1 7 -2.6141 -0.0263
6 -1 8 2.2475 0.0322
6 -1 9 -1.8613 -0.0291
6 -1 10 1.4637 0.0201
6 -1 11 -1.0676 -0.0094
6 0 0 4.0481 0.0207
6 0 1 -4.0965 0.0011
6 0 2 4.0984 -0.0177
6 0 3 -4.0414 0.0238
6 0 4 3.9097 -0.0183
6 0 5 -3.6901 0.0042
6 0 6 3.3782 0.0125
6 0 7 -2.9826 -0.0253
6 0 8 2.5252 0.0302
6 0 9 -2.0370 -0.0263
6 0 10 1.5523 0.0165
6 0 11 -1.1033 -0.0050
6 1 0 1.5243 0.0464
6 1 1 -1.6302 -0.0216
6 1 2 1.7106 -0.0002
6 1 3 -1.7542 0.0130
6 1 4 1.7421 -0.0147
6 1 5 -1.6561 0.0071
6 1 6 1.4884 0.0046
6 1 7 -1.2491 -0.0143
6 1 8 0.9658 0.0180
6 1 9 -0.6774 -0.0145
6 1 10 0.4225 0.0061
6 1 11 -0.2286 0.0030
6 1 12 0.1055 -0.0090
6 2 0 -1.8230 0.0691
6 2 1 1.7791 -0.0433
6 2 2 -1.7139 0.0179
6 2 3 1.6327 0.0008
6 2 4 -1.5492 -0.0093
6 2 5 1.4784 0.0079
6 2 6 -1.4282 -0.0003
6 2 7 1.3923 -0.0084
6 2 8 -1.3506 0.0135
6 2 9 1.2761 -0.0130
6 2 10 -1.1464 0.0076
6 2 11 0.9549 -0.0005
6 2 12 -0.7154 -0.0049
6 3 0 -3.7981 0.1165
6 3 1 3.8950 -0.0897
6 3 2 -3.9173 0.0566
6 3 3 3.8661 -0.0251
6 3 4 -3.7509 0.0017
6 3 5 3.5841 0.0101
6 3 6 -3.3754 -0.0109
6 3 7 3.1276 0.0046
6 3 8 -2.8361 0.0034
6 3 9 2.4942 -0.0086
6 3 10 -2.1005 0.0093
6 3 11 1.6659 -0.0060
6 4 0 -3.1523 0.1664
6 4 1 3.2803 -0.1417
6 4 2 -3.3357 0.1025
6 4 3 3.3250 -0.0575
6 4 4 -3.2567 0.0167
6 4 5 3.1379 0.0122
6 4 6 -2.9728 -0.0259
6 4 7 2.7616 0.0264
6 4 8 -2.5029 -0.0190
6 4 9 2.1966 0.0098
6 4 10 -1.8483 -0.0037
6 4 11 1.4722 0.0021
6 4 12 -1.0912 -0.0038
6 5 0 -0.6990 0.1738
6 5 1 0.7060 -0.1592
6 5 2 -0.6923 0.1258
6 5 3 0.6734 -0.0810
6 5 4 -0.6597 0.0354
6 5 5 0.6545 0.0016
6 5 6 -0.6550 -0.0241
6 5 7 0.6536 0.0317
6 5 8 -0.6416 -0.0286
6 5 9 0.6110 0.0211
6 5 10 -0.5575 -0.0148
6 5 11 0.4814 0.0125
6 5 12 -0.3884 -0.0140
6 6 0 1.2887 0.1340
6 6 1 -1.4065 -0.1341
6 6 2 1.5029 0.1166
6 6 3 -1.5653 -0.0856
6 6 4 1.5850 0.0488
6 6 5 -1.5565 -0.0152
6 6 6 1.4777 -0.0085
6 6 7 -1.3493 0.0196
6 6 8 1.1761 -0.0201
6 6 9 -0.9684 0.0150
6 6 10 0.7420 -0.0099
6 6 11 -0.5171 0.0085
6 7 0 1.5665 0.0799
6 7 1 -1.7414 -0.0934
6 7 2 1.8782 0.0931
6 7 3 -1.9737 -0.0785
6 7 4 2.0253 0.0536
6 7 5 -2.0274 -0.0256
6 7 6 1.9711 0.0023
6 7 7 -1.8472 0.0114
6 7 8 1.6513 -0.0144
6 7 9 -1.3893 0.0098
6 7 10 1.0806 -0.0028
6 8 0 0.8487 0.0356
6 8 1 -1.0256 -0.0569
6 8 2 1.1616 0.0691
6 8 3 -1.2535 -0.0682
6 8 4 1.3010 0.0546
6 8 5 -1.3027 -0.0329
6 8 6 1.2555 0.0104
6 8 7 -1.1562 0.0064
6 8 8 1.0051 -0.0137
6 9 2 0.4838 0.0348
6 9 3 -0.5316 -0.0432
6 9 5 -0.5119 -0.0312
7 -6 0 -0.9467 -0.0643
7 -6 1 0.9026 0.0504
7 -6 2 -0.8383 -0.0316
7 -6 3 0.7549 0.0131
7 -5 0 -1.2007 -0.0910
7 -5 1 1.1767 0.0720
7 -5 2 -1.1099 -0.0451
7 -5 3 1.0012 0.0165
7 -5 4 -0.8577 0.0076
7 -5 5 0.6913 -0.0228
7 -4 0 -0.3031 -0.1140
7 -4 1 0.3436 0.0934
7 -4 2 -0.3481 -0.0634
7 -4 3 0.3154 0.0305
7 -4 4 -0.2508 -0.0014
7 -4 5 0.1660 -0.0186
7 -4 6 -0.0769 0.0279
7 -4 7 0.0007 -0.0278
7 -3 0 1.4966 -0.1266
7 -3 1 -1.4251 0.1122
7 -3 2 1.3460 -0.0869
7 -3 3 -1.2613 0.0561
7 -3 4 1.1721 -0.0260
7 -3 5 -1.0764 0.0021
7 -3 6 0.9684 0.0125
7 -3 7 -0.8401 -0.0178
7 -3 8 0.6853 0.0160
7 -2 0 2.8430 -0.1194
7 -2 1 -2.8207 0.1121
7 -2 2 2.7485 -0.0929
7 -2 3 -2.6239 0.0652
7 -2 4 2.4490 -0.0345
7 -2 5 -2.2286 0.0068
7 -2 6 1.9681 0.0129
7 -2 7 -1.6732 -0.0224
7 -2 8 1.3513 0.0227
7 -2 9 -1.0144 -0.0168
7 -1 0 2.3544 -0.1068
7 -1 1 -2.3964 0.1051
7 -1 2 2.3837 -0.0904
7 -1 3 -2.3084 0.0647
7 -1 4 2.1688 -0.0333
7 -1 5 -1.9705 0.0032
7 -1 6 1.7247 0.0193
7 -1 7 -1.4470 -0.0303
7 -1 8 1.1547 0.0300
7 -1 9 -0.8658 -0.0214
7 0 0 0.1154 -0.1015
7 0 1 -0.1711 0.1061
7 0 2 0.1947 -0.0962
7 0 3 -0.1800 0.0729
7 0 4 0.1264 -0.0417
7 0 5 -0.0411 0.0103
7 0 6 -0.0596 0.0140
7 0 7 0.1548 -0.0264
7 0 8 -0.2240 0.0268
7 0 9 0.2538 -0.0183
7 0 10 -0.2411 0.0064
7 1 0 -2.2508 -0.0833
7 1 1 2.2444 0.0947
7 1 2 -2.2291 -0.0916
7 1 3 2.2064 0.0740
7 1 4 -2.1756 -0.0462
7 1 5 2.1293 0.0154
7 1 6 -2.0534 0.0108
7 1 7 1.9293 -0.0271
7 1 8 -1.7422 0.0317
7 1 9 1.4885 -0.0268
7 1 10 -1.1812 0.0169
7 1 11 0.8491 -0.0071
7 2 0 -3.0949 -0.0305
7 2 1 3.1776 0.0501
7 2 2 -3.2074 -0.0600
7 2 3 3.1838 0.0569
7 2 4 -3.1085 -0.0413
7 2 5 2.9812 0.0177
7 2 6 -2.7980 0.0075
7 2 7 2.5526 -0.0278
7 2 8 -2.2414 0.0391
7 2 9 1.8702 -0.0405
7 2 10 -1.4588 0.0344
7 2 11 1.0398 -0.0246
7 3 0 -1.8943 0.0369
7 3 1 1.9999 -0.0079
7 3 2 -2.0580 -0.0186
7 3 3 2.0707 0.0353
7 3 4 -2.0411 -0.0382
7 3 5 1.9711 0.0277
7 3 6 -1.8593 -0.0086
7 3 7 1.7031 -0.0122
7 3 8 -1.5010 0.0283
7 3 9 1.2576 -0.0358
7 3 10 -0.9862 0.0343
7 3 11 0.7091 -0.0265
7 4 0 0.4159 0.0807
7 4 1 -0.4250 -0.0485
7 4 2 0.4233 0.0133
7 4 3 -0.4010 0.0154
7 4 4 0.3536 -0.0308
7 4 5 -0.2833 0.0306
7 4 6 0.1983 -0.0181
7 4 7 -0.1110 -0.0000
7 4 8 0.0349 0.0161
7 4 9 0.0191 -0.0247
7 4 10 -0.0461 0.0240
7 4 11 0.0482 -0.0164
7 5 0 1.9528 0.0983
7 5 1 -2.0989 -0.0717
7 5 2 2.1949 0.0386
7 5 3 -2.2266 -0.0079
7 5 4 2.1857 -0.0124
7 5 5 -2.0707 0.0186
7 5 6 1.8869 -0.0119
7 5 7 -1.6465 -0.0021
7 5 8 1.3682 0.0161
7 5 9 -1.0753 -0.0238
7 5 10 0.7925 0.0227
7 6 0 1.7669 0.1101
7 6 1 -1.9468 -0.0936
7 6 2 2.0841 0.0661
7 6 3 -2.1696 -0.0347
7 6 4 2.1938 0.0076
7 6 5 -2.1475 0.0088
7 6 6 2.0236 -0.0123
7 6 7 -1.8217 0.0053
7 6 8 1.5515 0.0065
7 6 9 -1.2351 -0.0167
7 6 10 0.9040 0.0207
7 7 0 0.8009 0.1104
7 7 1 -0.9361 -0.1067
7 7 2 1.0445 0.0879
7 7 3 -1.1219 -0.0582
7 7 4 1.1622 0.0254
7 7 5 -1.1573 0.0024
7 7 6 1.0989 -0.0189
7 7 7 -0.9839 0.0223
7 7 8 0.8181 -0.0154
7 8 0 0.2661 0.0803
7 8 2 0.3773 0.0811
7 8 3 -0.3961 -0.0622
7 8 4 0.3893 0.0354
7 8 5 -0.3575 -0.0078
8 -5 0 0.1474 -0.0336
8 -5 1 -0.1527 0.0120
8 -5 2 0.1680 0.0095
8 -4 0 1.1196 -0.0538
8 -4 1 -1.0837 0.0354
8 -4 2 1.0344 -0.0151
8 -4 3 -0.9642 -0.0023
8 -4 4 0.8662 0.0131
8 -3 0 1.6753 -0.0710
8 -3 1 -1.6505 0.0559
8 -3 2 1.5867 -0.0365
8 -3 3 -1.4812 0.0169
8 -3 4 1.3338 -0.0012
8 -3 5 -1.1476 -0.0081
8 -3 6 0.9293 0.0106
8 -2 0 0.9647 -0.0935
8 -2 1 -0.9768 0.0765
8 -2 2 0.9528 -0.0521
8 -2 3 -0.8949 0.0251
8 -2 4 0.8087 -0.0011
8 -2 5 -0.7014 -0.0153
8 -2 6 0.5800 0.0220
8 -2 7 -0.4516 -0.0197
8 -1 0 -0.8265 -0.1248
8 -1 1 0.8123 0.1076
8 -1 2 -0.8043 -0.0789
8 -1 3 0.7950 0.0447
8 -1 4 -0.7742 -0.0129
8 -1 5 0.7321 -0.0102
8 -1 6 -0.6625 0.0208
8 -1 7 0.5651 -0.0194
8 0 0 -2.3221 -0.1420
8 0 1 2.3340 0.1290
8 0 2 -2.3193 -0.1009
8 0 3 2.2693 0.0645
8 0 4 -2.1742 -0.0279
8 0 5 2.0246 -0.0009
8 0 6 -1.8152 0.0173
8 0 7 1.5492 -0.0208
8 0 8 -1.2403 0.0146
8 1 0 -2.2719 -0.1263
8 1 1 2.3193 0.1198
8 1 2 -2.3215 -0.0984
8 1 3 2.2747 0.0661
8 1 4 -2.1755 -0.0298
8 1 5 2.0202 -0.0030
8 1 6 -1.8073 0.0264
8 1 7 1.5409 -0.0377
8 1 8 -1.2341 0.0379
8 1 9 0.9101 -0.0306
8 2 0 -0.7303 -0.0925
8 2 1 0.7960 0.0969
8 2 2 -0.8376 -0.0879
8 2 3 0.8552 0.0659
8 2 4 -0.8481 -0.0347
8 2 5 0.8133 0.0009
8 2 6 -0.7470 0.0283
8 2 7 0.6475 -0.0475
8 2 8 -0.5187 0.0546
8 2 9 0.3724 -0.0507
8 3 0 1.1776 -0.0683
8 3 1 -1.1743 0.0831
8 3 2 1.1350 -0.0853
8 3 3 -1.0563 0.0719
8 3 4 0.9420 -0.0449
8 3 5 -0.8022 0.0106
8 3 6 0.6526 0.0227
8 3 7 -0.5101 -0.0471
8 3 8 0.3883 0.0583
8 3 9 -0.2944 -0.0560
8 4 0 2.1002 -0.0484
8 4 1 -2.2096 0.0675
8 4 2 2.2461 -0.0752
8 4 3 -2.2010 0.0672
8 4 4 2.0747 -0.0439
8 4 5 -1.8765 0.0110
8 4 6 1.6244 0.0230
8 4 7 -1.3423 -0.0490
8 4 8 1.0566 0.0615
8 4 9 -0.7916 -0.0593
8 5 0 1.5512 -0.0062
8 5 1 -1.7026 0.0269
8 5 2 1.8028 -0.0421
8 5 3 -1.8404 0.0459
8 5 4 1.8074 -0.0360
8 5 5 -1.7008 0.0148
8 5 6 1.5253 0.0114
8 5 7 -1.2944 -0.0348
8 5 9 -0.7632 -0.0510
8 6 0 0.4864 0.0468
8 6 1 -0.5893 -0.0262
8 6 2 0.6758 0.0020
8 6 3 -0.7370 0.0186
8 6 4 0.7626 -0.0297
8 6 5 -0.7434 0.0287
8 6 6 0.6751 -0.0172
8 6 7 -0.5622 0.0003
8 7 0 0.0308 0.0687
8 7 1 -0.0637 -0.0543
8 7 2 0.0894 0.0305
8 7 3 -0.1044 -0.0038
9 -3 0 0.2182 -0.0092
9 -3 1 -0.2143 -0.0009
9 -2 0 -0.8896 -0.0410
9 -2 1 0.8600 0.0240
9 -2 2 -0.8115 -0.0047
9 -2 3 0.7389 -0.0119
9 -1 0 -1.7102 -0.0729
9 -1 1 1.6784 0.0538
9 -1 2 -1.6014 -0.0299
9 -1 3 1.4750 0.0079
9 -1 4 -1.3004 0.0068
9 -1 5 1.0855 -0.0116
9 0 0 -1.3537 -0.0891
9 0 1 1.3365 0.0694
9 0 2 -1.2780 -0.0431
9 0 3 1.1776 0.0167
9 0 4 -1.0381 0.0039
9 0 5 0.8661 -0.0153
9 0 6 -0.6727 0.0171
9 1 0 -0.0036 -0.0963
9 1 1 0.0176 0.0796
9 1 2 -0.0264 -0.0537
9 1 3 0.0293 0.0237
9 1 4 -0.0245 0.0044
9 1 5 0.0093 -0.0254
9 1 6 0.0172 0.0366
9 1 7 -0.0521 -0.0378
9 2 0 1.2696 -0.1095
9 2 1 -1.2483 0.1000
9 2 2 1.1803 -0.0767
9 2 3 -1.0701 0.0437
9 2 4 0.9296 -0.0077
9 2 5 -0.7754 -0.0238
9 2 6 0.6249 0.0447
9 2 7 -0.4919 -0.0524
9 3 0 1.6021 -0.1213
9 3 1 -1.6340 0.1163
9 3 2 1.5941 -0.0944
9 3 3 -1.4850 0.0586
9 3 4 1.3187 -0.0167
9 3 5 -1.1150 -0.0222
9 3 6 0.8980 0.0498
9 3 7 -0.6908 -0.0615
9 4 0 0.9607 -0.1023
9 4 1 -1.0434 0.1012
9 4 2 1.0789 -0.0852
9 4 3 -1.0617 0.0557
9 4 4 0.9922 -0.0185
9 4 5 -0.8776 -0.0179
9 4 6 0.7311 0.0454
9 4 7 -0.5713 -0.0587
9 5 0 0.1182 -0.0514
9 5 1 -0.1904 0.0591
9 5 2 0.2517 -0.0583
9 5 3 -0.2923 0.0471
9 5 4 0.3041 -0.0271
9 5 5 -0.2827 0.0030
9 5 6 0.2308 0.0191
10 -1 0 -0.4264 -0.0094
10 -1 1 0.3806 -0.0014
10 0 2 0.3262 0.0055
10 0 3 -0.3186 -0.0160
10 1 0 0.8918 -0.0509
10 1 1 -0.8585 0.0353
10 1 2 0.7853 -0.0151
10 1 3 -0.6820 -0.0048
10 2 0 0.8068 -0.0806
10 2 1 -0.7764 0.0654
10 2 2 0.6993 -0.0404
10 2 3 -0.5875 0.0119
10 3 2 0.2819 -0.0459
10 3 3 -0.2482 0.0148
0 0 0 0.0 0.0
;
_olex2_submission_special_instructions 'No special instructions were received'
_oxdiff_exptl_absorpt_empirical_details
;
Empirical correction (ABSPACK) includes:
- Absorption correction using spherical harmonics
- Frame scaling
;
_oxdiff_exptl_absorpt_empirical_full_max 12.416
_oxdiff_exptl_absorpt_empirical_full_min 0.585
loop_
_space_group_symop_operation_xyz
'x, y, z'
'-x, -y, -z'
loop_
_atom_site_label
_atom_site_type_symbol
_atom_site_fract_x
_atom_site_fract_y
_atom_site_fract_z
_atom_site_U_iso_or_equiv
_atom_site_adp_type
_atom_site_occupancy
_atom_site_site_symmetry_order
_atom_site_calc_flag
_atom_site_refinement_flags_posn
S1 S 0.86728(5) 1.04665(5) 0.88163(3) 0.02000(14) Uani 1 1 d .
O2 O 0.52368(17) 0.15218(17) 0.57480(11) 0.0275(3) Uani 1 1 d .
O1 O 0.37581(17) -0.03383(17) 0.73210(12) 0.0281(3) Uani 1 1 d .
O3 O 0.72683(18) 0.77637(17) 0.88977(11) 0.0288(3) Uani 1 1 d .
N1 N 0.82368(18) 0.89052(19) 0.71908(12) 0.0208(3) Uani 1 1 d .
H1 H 0.836386 0.882488 0.652054 0.025 Uiso 1 1 calc R
N2 N 0.95220(18) 1.13256(19) 0.67329(12) 0.0214(3) Uani 1 1 d .
C5 C 0.5751(2) 0.3395(2) 0.68762(15) 0.0203(4) Uani 1 1 d .
H5 H 0.632403 0.405421 0.631257 0.024 Uiso 1 1 calc R
C4 C 0.5128(2) 0.2025(2) 0.67096(15) 0.0210(4) Uani 1 1 d .
C12 C 0.9645(2) 1.2251(2) 0.83491(15) 0.0207(4) Uani 1 1 d .
C3 C 0.4289(2) 0.0997(2) 0.75728(16) 0.0214(4) Uani 1 1 d .
C13 C 1.0069(2) 1.3327(2) 0.89542(16) 0.0239(4) Uani 1 1 d .
H13 H 0.985797 1.312907 0.971047 0.029 Uiso 1 1 calc R
C2 C 0.4065(2) 0.1389(2) 0.85762(15) 0.0233(4) Uani 1 1 d .
H2 H 0.351315 0.071795 0.914667 0.028 Uiso 1 1 calc R
C9 C 0.7459(2) 0.7718(2) 0.79292(15) 0.0216(4) Uani 1 1 d .
C11 C 0.9984(2) 1.2520(2) 0.72166(15) 0.0213(4) Uani 1 1 d .
C1 C 0.4669(2) 0.2788(2) 0.87292(15) 0.0230(4) Uani 1 1 d .
H1A H 0.449996 0.305321 0.940279 0.028 Uiso 1 1 calc R
C15 C 1.1123(2) 1.4993(2) 0.72563(18) 0.0299(4) Uani 1 1 d .
H15 H 1.160333 1.593418 0.689348 0.036 Uiso 1 1 calc R
C6 C 0.5520(2) 0.3801(2) 0.78990(15) 0.0205(4) Uani 1 1 d .
C16 C 1.0730(2) 1.3915(2) 0.66612(17) 0.0267(4) Uani 1 1 d .
H16 H 1.095681 1.411300 0.590709 0.032 Uiso 1 1 calc R
C10 C 0.8821(2) 1.0211(2) 0.74670(14) 0.0194(4) Uani 1 1 d .
C14 C 1.0811(2) 1.4694(2) 0.83918(17) 0.0277(4) Uani 1 1 d .
H14 H 1.110746 1.542726 0.877599 0.033 Uiso 1 1 calc R
C7 C 0.6148(2) 0.5225(2) 0.81349(15) 0.0223(4) Uani 1 1 d .
H7 H 0.599203 0.531359 0.885803 0.027 Uiso 1 1 calc R
C8 C 0.6911(2) 0.6420(2) 0.74697(16) 0.0221(4) Uani 1 1 d .
H8 H 0.709420 0.643581 0.672923 0.026 Uiso 1 1 calc R
C17 C 0.3023(3) -0.1476(3) 0.81991(18) 0.0319(5) Uani 1 1 d .
H17A H 0.277841 -0.240533 0.794780 0.048 Uiso 1 1 calc GR
H17B H 0.203929 -0.095365 0.841701 0.048 Uiso 1 1 calc GR
H17C H 0.375509 -0.183387 0.882317 0.048 Uiso 1 1 calc GR
C18 C 0.6139(3) 0.2457(2) 0.48563(16) 0.0288(4) Uani 1 1 d .
H18A H 0.609058 0.201642 0.422361 0.043 Uiso 1 1 calc GR
H18B H 0.724867 0.240294 0.508579 0.043 Uiso 1 1 calc GR
H18C H 0.568339 0.357938 0.466114 0.043 Uiso 1 1 calc GR
loop_
_atom_site_aniso_label
_atom_site_aniso_U_11
_atom_site_aniso_U_22
_atom_site_aniso_U_33
_atom_site_aniso_U_23
_atom_site_aniso_U_13
_atom_site_aniso_U_12
S1 0.0235(2) 0.0194(2) 0.0183(2) -0.00626(17) 0.00138(16) -0.00446(16)
O2 0.0360(7) 0.0270(7) 0.0227(7) -0.0109(5) 0.0031(6) -0.0074(6)
O1 0.0329(7) 0.0247(7) 0.0298(7) -0.0095(6) 0.0019(6) -0.0113(6)
O3 0.0399(8) 0.0277(7) 0.0219(7) -0.0091(5) 0.0045(6) -0.0119(6)
N1 0.0254(8) 0.0206(8) 0.0186(7) -0.0078(6) 0.0011(6) -0.0054(6)
N2 0.0218(7) 0.0227(8) 0.0208(7) -0.0068(6) 0.0010(6) -0.0052(6)
C5 0.0207(8) 0.0175(8) 0.0214(9) -0.0028(7) 0.0001(7) -0.0012(6)
C4 0.0206(8) 0.0214(9) 0.0213(9) -0.0071(7) -0.0021(7) 0.0010(7)
C12 0.0186(8) 0.0198(9) 0.0241(9) -0.0066(7) 0.0004(7) -0.0014(7)
C3 0.0190(8) 0.0193(9) 0.0268(9) -0.0069(7) -0.0032(7) -0.0025(7)
C13 0.0254(9) 0.0240(9) 0.0246(9) -0.0107(7) 0.0009(7) -0.0021(7)
C2 0.0213(9) 0.0222(9) 0.0252(9) -0.0037(7) 0.0029(7) -0.0042(7)
C9 0.0206(8) 0.0206(9) 0.0234(9) -0.0054(7) -0.0005(7) -0.0017(7)
C11 0.0201(8) 0.0206(9) 0.0238(9) -0.0073(7) -0.0002(7) -0.0012(7)
C1 0.0232(9) 0.0245(9) 0.0222(9) -0.0077(7) 0.0019(7) -0.0019(7)
C15 0.0317(10) 0.0247(10) 0.0349(11) -0.0083(8) 0.0043(8) -0.0102(8)
C6 0.0193(8) 0.0181(9) 0.0236(9) -0.0051(7) -0.0015(7) 0.0004(7)
C16 0.0291(10) 0.0257(10) 0.0261(9) -0.0063(8) 0.0033(7) -0.0078(8)
C10 0.0190(8) 0.0203(9) 0.0187(8) -0.0052(7) -0.0024(6) -0.0005(7)
C14 0.0284(10) 0.0237(10) 0.0349(11) -0.0135(8) 0.0002(8) -0.0062(8)
C7 0.0239(9) 0.0209(9) 0.0230(9) -0.0080(7) -0.0001(7) -0.0009(7)
C8 0.0233(9) 0.0209(9) 0.0237(9) -0.0088(7) -0.0016(7) -0.0017(7)
C17 0.0327(10) 0.0267(10) 0.0378(11) -0.0083(9) 0.0045(8) -0.0123(8)
C18 0.0364(11) 0.0290(10) 0.0205(9) -0.0059(8) 0.0024(8) -0.0020(8)
loop_
_atom_type_symbol
_atom_type_description
_atom_type_scat_dispersion_real
_atom_type_scat_dispersion_imag
_atom_type_scat_source
C C 0.0181 0.0091 'International Tables Vol C Tables 4.2.6.8 and 6.1.1.4'
H H 0.0000 0.0000 'International Tables Vol C Tables 4.2.6.8 and 6.1.1.4'
N N 0.0311 0.0180 'International Tables Vol C Tables 4.2.6.8 and 6.1.1.4'
O O 0.0492 0.0322 'International Tables Vol C Tables 4.2.6.8 and 6.1.1.4'
S S 0.3331 0.5567 'International Tables Vol C Tables 4.2.6.8 and 6.1.1.4'
loop_
_geom_angle_atom_site_label_1
_geom_angle_atom_site_label_2
_geom_angle_atom_site_label_3
_geom_angle
C12 S1 C10 88.20(8)
C4 O2 C18 117.21(15)
C3 O1 C17 116.60(15)
C9 N1 H1 118.3
C10 N1 H1 118.3
C10 N1 C9 123.50(15)
C10 N2 C11 110.08(15)
C4 C5 H5 119.9
C4 C5 C6 120.19(17)
C6 C5 H5 119.9
O2 C4 C5 125.77(17)
O2 C4 C3 114.08(16)
C5 C4 C3 120.15(17)
C13 C12 S1 128.34(15)
C11 C12 S1 110.11(14)
C11 C12 C13 121.55(17)
O1 C3 C4 114.95(16)
O1 C3 C2 125.29(17)
C2 C3 C4 119.75(17)
C12 C13 H13 121.1
C14 C13 C12 117.81(18)
C14 C13 H13 121.1
C3 C2 H2 120.1
C3 C2 C1 119.70(17)
C1 C2 H2 120.1
O3 C9 N1 120.79(17)
O3 C9 C8 123.92(17)
N1 C9 C8 115.29(16)
N2 C11 C12 114.98(16)
N2 C11 C16 125.26(17)
C16 C11 C12 119.77(17)
C2 C1 H1A 119.2
C2 C1 C6 121.51(17)
C6 C1 H1A 119.2
C16 C15 H15 119.4
C16 C15 C14 121.17(18)
C14 C15 H15 119.4
C5 C6 C7 123.21(16)
C1 C6 C5 118.67(17)
C1 C6 C7 118.12(16)
C11 C16 H16 120.7
C15 C16 C11 118.61(18)
C15 C16 H16 120.7
N1 C10 S1 122.04(13)
N2 C10 S1 116.61(14)
N2 C10 N1 121.34(16)
C13 C14 C15 121.07(18)
C13 C14 H14 119.5
C15 C14 H14 119.5
C6 C7 H7 115.1
C8 C7 C6 129.71(17)
C8 C7 H7 115.1
C9 C8 H8 120.6
C7 C8 C9 118.82(17)
C7 C8 H8 120.6
O1 C17 H17A 109.5
O1 C17 H17B 109.5
O1 C17 H17C 109.5
H17A C17 H17B 109.5
H17A C17 H17C 109.5
H17B C17 H17C 109.5
O2 C18 H18A 109.5
O2 C18 H18B 109.5
O2 C18 H18C 109.5
H18A C18 H18B 109.5
H18A C18 H18C 109.5
H18B C18 H18C 109.5
loop_
_geom_bond_atom_site_label_1
_geom_bond_atom_site_label_2
_geom_bond_distance
S1 C12 1.7400(19)
S1 C10 1.7522(18)
O2 C4 1.373(2)
O2 C18 1.430(2)
O1 C3 1.363(2)
O1 C17 1.427(2)
O3 C9 1.225(2)
N1 H1 0.8600
N1 C9 1.376(2)
N1 C10 1.373(2)
N2 C11 1.392(2)
N2 C10 1.304(2)
C5 H5 0.9300
C5 C4 1.379(3)
C5 C6 1.411(3)
C4 C3 1.414(3)
C12 C13 1.398(3)
C12 C11 1.398(3)
C3 C2 1.381(3)
C13 H13 0.9300
C13 C14 1.381(3)
C2 H2 0.9300
C2 C1 1.388(3)
C9 C8 1.476(3)
C11 C16 1.398(3)
C1 H1A 0.9300
C1 C6 1.390(3)
C15 H15 0.9300
C15 C16 1.382(3)
C15 C14 1.395(3)
C6 C7 1.457(3)
C16 H16 0.9300
C14 H14 0.9300
C7 H7 0.9300
C7 C8 1.333(3)
C8 H8 0.9300
C17 H17A 0.9600
C17 H17B 0.9600
C17 H17C 0.9600
C18 H18A 0.9600
C18 H18B 0.9600
C18 H18C 0.9600
loop_
_smtbx_masks_void_nr
_smtbx_masks_void_average_x
_smtbx_masks_void_average_y
_smtbx_masks_void_average_z
_smtbx_masks_void_volume
_smtbx_masks_void_count_electrons
1 0.000 0.000 0.500 31.8 17.9
