#------------------------------------------------------------------------------
#$Date: 2019-11-17 09:14:47 +0200 (Sun, 17 Nov 2019) $
#$Revision: 229045 $
#$URL: file:///home/coder/svn-repositories/cod/cif/7/23/05/7230525.cif $
#------------------------------------------------------------------------------
#
# This file is available in the Crystallography Open Database (COD),
# http://www.crystallography.net/
#
# All data on this site have been placed in the public domain by the
# contributors.
#
data_7230525
loop_
_publ_author_name
'Chakraborty, Shaunak'
'Desiraju, Gautam R.'
_publ_section_title
;
 Exploring the structural landscape with &#x2018;partial&#x2019;
 fluoro-substitution as a probe
;
_journal_issue                   20
_journal_name_full               CrystEngComm
_journal_page_first              2793
_journal_paper_doi               10.1039/C8CE00336J
_journal_volume                  20
_journal_year                    2018
_chemical_formula_moiety         'C9 H6.47 F1.54 O2'
_chemical_formula_sum            'C9 H6.47 F1.54 O2'
_chemical_formula_weight         175.77
_space_group_crystal_system      monoclinic
_space_group_IT_number           14
_space_group_name_Hall           '-P 2yn'
_space_group_name_H-M_alt        'P 1 21/n 1'
_symmetry_space_group_name_Hall  '-P 2yn'
_symmetry_space_group_name_H-M   'P 1 21/n 1'
_atom_sites_solution_hydrogens   geom
_audit_creation_method           SHELXL-2014/7
_audit_update_record
;
2018-04-14 deposited with the CCDC.
2018-04-18 downloaded from the CCDC.
;
_cell_angle_alpha                90
_cell_angle_beta                 90.852(19)
_cell_angle_gamma                90
_cell_formula_units_Z            4
_cell_length_a                   3.7384(13)
_cell_length_b                   6.621(3)
_cell_length_c                   31.171(10)
_cell_measurement_reflns_used    1773
_cell_measurement_temperature    100(2)
_cell_measurement_theta_max      27.5
_cell_measurement_theta_min      3.1
_cell_volume                     771.5(5)
_computing_structure_refinement  'SHELXL-2014/7 (Sheldrick, 2014)'
_diffrn_ambient_temperature      100(2)
_diffrn_measured_fraction_theta_full 0.982
_diffrn_measured_fraction_theta_max 0.979
_diffrn_measurement_device_type  CCD
_diffrn_radiation_type           MoK\a
_diffrn_radiation_wavelength     0.71073
_diffrn_reflns_av_R_equivalents  0.0992
_diffrn_reflns_av_unetI/netI     0.0775
_diffrn_reflns_Laue_measured_fraction_full 0.982
_diffrn_reflns_Laue_measured_fraction_max 0.979
_diffrn_reflns_limit_h_max       4
_diffrn_reflns_limit_h_min       -4
_diffrn_reflns_limit_k_max       8
_diffrn_reflns_limit_k_min       -8
_diffrn_reflns_limit_l_max       40
_diffrn_reflns_limit_l_min       -40
_diffrn_reflns_number            5055
_diffrn_reflns_point_group_measured_fraction_full 0.982
_diffrn_reflns_point_group_measured_fraction_max 0.979
_diffrn_reflns_theta_full        25.242
_diffrn_reflns_theta_max         27.472
_diffrn_reflns_theta_min         3.146
_exptl_absorpt_coefficient_mu    0.130
_exptl_crystal_colour            colourless
_exptl_crystal_density_diffrn    1.513
_exptl_crystal_description       plate
_exptl_crystal_F_000             361.1
_exptl_crystal_size_max          0.7
_exptl_crystal_size_mid          0.5
_exptl_crystal_size_min          0.2
_refine_diff_density_max         0.233
_refine_diff_density_min         -0.370
_refine_diff_density_rms         0.075
_refine_ls_extinction_method     none
_refine_ls_goodness_of_fit_ref   0.983
_refine_ls_hydrogen_treatment    constr
_refine_ls_matrix_type           full
_refine_ls_number_parameters     120
_refine_ls_number_reflns         1718
_refine_ls_number_restraints     0
_refine_ls_restrained_S_all      0.983
_refine_ls_R_factor_all          0.0728
_refine_ls_R_factor_gt           0.0591
_refine_ls_shift/su_max          0.000
_refine_ls_shift/su_mean         0.000
_refine_ls_structure_factor_coef Fsqd
_refine_ls_weighting_details
'w=1/[\s^2^(Fo^2^)+(0.0799P)^2^+0.1654P] where P=(Fo^2^+2Fc^2^)/3'
_refine_ls_weighting_scheme      calc
_refine_ls_wR_factor_gt          0.1490
_refine_ls_wR_factor_ref         0.1592
_reflns_Friedel_coverage         0.000
_reflns_number_gt                1361
_reflns_number_total             1718
_reflns_threshold_expression     'I > 2\s(I)'
_cod_data_source_file            c8ce00336j2.cif
_cod_data_source_block           6
_cod_depositor_comments
'Adding full bibliography for 7230514--7230540.cif.'
_cod_original_cell_volume        771.4(5)
_cod_database_code               7230525
_shelx_shelxl_version_number     2014/7
_shelx_space_group_comment
;
The symmetry employed for this shelxl refinement is uniquely defined
by the following loop, which should always be used as a source of
symmetry information in preference to the above space-group names.
They are only intended as comments.
;
_shelx_res_file
;

    shelx.res created by SHELXL-2014/7

TITL datam in P2(1)/n
CELL  0.71073   3.7384   6.6205  31.1711   90.000   90.852   90.000
ZERR    18.00   0.0013   0.0027   0.0101    0.000    0.019    0.000
LATT   1
SYMM  1/2 - X, 1/2 + Y, 1/2 - Z
SFAC  C    H    O    F
UNIT  18 18 18 18
MERG   2
OMIT    -2.00  55.00
EQIV $1 -x+1, -y+1, -z
HTAB C2 O2_$1
EQIV $2 -x, -y+2, -z
HTAB O2 O1_$2
OMIT     0   1  25
OMIT     0   0   2
OMIT     0   0   4
FMAP   2
PLAN   20
ACTA
HTAB    2.00000
BOND
BOND   $H
CONF
L.S.  50
TEMP  -173.00
WGHT    0.079900    0.165400
FVAR       0.77968   0.46491
MOLE    1
C1    1    0.152798    0.775082    0.034673    11.00000    0.02286    0.02391 =
         0.02042   -0.00111    0.00004    0.00076
C2    1    0.271094    0.601158    0.060053    11.00000    0.02397    0.02025 =
         0.02373   -0.00128   -0.00083    0.00401
AFIX  43
H2    2    0.387620    0.492384    0.046124    11.00000   -1.20000
AFIX   0
C3    1    0.219721    0.591166    0.102260    11.00000    0.01877    0.02002 =
         0.02178   -0.00271    0.00012    0.00114
AFIX  43
H3    2    0.100419    0.702184    0.115016    11.00000   -1.20000
AFIX   0
C4    1    0.328574    0.426527    0.130858    11.00000    0.01734    0.02197 =
         0.02090   -0.00146   -0.00101   -0.00065
C5    1    0.286435    0.446142    0.175066    11.00000    0.02498    0.02458 =
         0.02130   -0.00339    0.00153   -0.00015
PART    1
AFIX  43
H5    2    0.186144    0.567435    0.185867    21.00000   -1.20000
AFIX   0
PART    2
F1    4    0.144677    0.619918    0.190118   -21.00000    0.04506    0.02372 =
         0.02088   -0.00839    0.00524    0.00553
PART    0
C6    1    0.385013    0.295755    0.203890    11.00000    0.02818    0.03405 =
         0.01887    0.00271    0.00008   -0.00191
AFIX  43
H6    2    0.355837    0.312309    0.233909    11.00000   -1.20000
AFIX   0
C7    1    0.527004    0.121430    0.187088    11.00000    0.02538    0.02817 =
         0.02665    0.01062   -0.00217   -0.00016
C8    1    0.571864    0.090929    0.143708    11.00000    0.02275    0.02131 =
         0.03229    0.00170    0.00190    0.00367
AFIX  43
H8    2    0.668411   -0.032063    0.133278    11.00000   -1.20000
AFIX   0
C9    1    0.472770    0.243826    0.115865    11.00000    0.02388    0.02387 =
         0.01973   -0.00159    0.00253    0.00178
AFIX  43
H9    2    0.502604    0.225271    0.085910    11.00000   -1.20000
AFIX   0
O1    3   -0.014436    0.919996    0.051669    11.00000    0.03378    0.02501 =
         0.02203   -0.00114    0.00285    0.00877
O2    3    0.229920    0.771193   -0.005538    11.00000    0.04314    0.02922 =
         0.01816    0.00205    0.00265    0.01256
AFIX 147
H2A   2    0.141394    0.872967   -0.017789    11.00000   -1.50000
AFIX   0
F2    4    0.628455   -0.028308    0.214684    11.00000    0.04502    0.03931 =
         0.03635    0.01865   -0.00133    0.00694
HKLF    4

REM  datam in P2(1)/n
REM R1 =  0.0591 for    1361 Fo > 4sig(Fo)  and  0.0728 for all    1718 data
REM    120 parameters refined using      0 restraints

END

WGHT      0.0821      0.0000

REM Instructions for potential hydrogen bonds
HTAB C2 O2_$1
HTAB O2 O1_$2

REM Highest difference peak  0.233,  deepest hole -0.370,  1-sigma level  0.075
Q1    1   0.5612  0.9223 -0.0036  11.00000  0.05    0.23
Q2    1   0.0427  0.2061  0.1914  11.00000  0.05    0.23
Q3    1   0.5885  0.5083  0.1483  11.00000  0.05    0.22
Q4    1   0.2663  0.3380  0.1201  11.00000  0.05    0.22
Q5    1  -0.0048  0.5201  0.1820  11.00000  0.05    0.21
Q6    1   0.2772  0.8096  0.1881  11.00000  0.05    0.20
Q7    1  -0.1926  1.0144  0.0463  11.00000  0.05    0.20
Q8    1   0.0015  0.5011  0.0519  11.00000  0.05    0.20
Q9    1   0.3004  0.0597  0.0707  11.00000  0.05    0.20
Q10   1  -0.2422  0.4995  0.1824  11.00000  0.05    0.19
Q11   1  -0.3117  0.8269  0.0582  11.00000  0.05    0.19
Q12   1   0.1032  0.9637 -0.0392  11.00000  0.05    0.19
Q13   1   0.1845  0.6820  0.0480  11.00000  0.05    0.18
Q14   1  -0.2813  0.7097  0.1180  11.00000  0.05    0.18
Q15   1   0.0915  0.2242  0.1423  11.00000  0.05    0.18
Q16   1   0.0166  0.2219  0.1265  11.00000  0.05    0.18
Q17   1   0.1847  1.0338 -0.0095  11.00000  0.05    0.18
Q18   1   0.6552  0.6950  0.0745  11.00000  0.05    0.17
Q19   1   0.6893  0.4750  0.1104  11.00000  0.05    0.17
Q20   1   0.9014 -0.0824  0.1803  11.00000  0.05    0.17
;
_shelx_res_checksum              80348
loop_
_space_group_symop_operation_xyz
'x, y, z'
'-x+1/2, y+1/2, -z+1/2'
'-x, -y, -z'
'x-1/2, -y-1/2, z-1/2'
loop_
_atom_site_label
_atom_site_type_symbol
_atom_site_fract_x
_atom_site_fract_y
_atom_site_fract_z
_atom_site_U_iso_or_equiv
_atom_site_adp_type
_atom_site_occupancy
_atom_site_site_symmetry_order
_atom_site_calc_flag
_atom_site_refinement_flags_posn
_atom_site_refinement_flags_adp
_atom_site_refinement_flags_occupancy
_atom_site_disorder_assembly
_atom_site_disorder_group
C1 C 0.1528(4) 0.7751(3) 0.03467(6) 0.0224(4) Uani 1 1 d . . . . .
C2 C 0.2711(5) 0.6012(3) 0.06005(6) 0.0227(4) Uani 1 1 d . . . . .
H2 H 0.3876 0.4924 0.0461 0.027 Uiso 1 1 calc R U . . .
C3 C 0.2197(4) 0.5912(3) 0.10226(6) 0.0202(4) Uani 1 1 d . . . . .
H3 H 0.1004 0.7022 0.1150 0.024 Uiso 1 1 calc R U . . .
C4 C 0.3286(4) 0.4265(3) 0.13086(6) 0.0201(4) Uani 1 1 d . . . . .
C5 C 0.2864(5) 0.4461(3) 0.17507(6) 0.0236(4) Uani 1 1 d . . . . .
H5 H 0.1861 0.5674 0.1859 0.028 Uiso 0.465(5) 1 calc R U P A 1
F1 F 0.1447(6) 0.6199(3) 0.19012(6) 0.0298(8) Uani 0.535(5) 1 d . . P A 2
C6 C 0.3850(5) 0.2958(3) 0.20389(6) 0.0270(5) Uani 1 1 d . . . . .
H6 H 0.3558 0.3123 0.2339 0.032 Uiso 1 1 calc R U . . .
C7 C 0.5270(5) 0.1214(3) 0.18709(6) 0.0268(5) Uani 1 1 d . . . . .
C8 C 0.5719(5) 0.0909(3) 0.14371(6) 0.0254(4) Uani 1 1 d . . . . .
H8 H 0.6684 -0.0321 0.1333 0.031 Uiso 1 1 calc R U . . .
C9 C 0.4728(5) 0.2438(3) 0.11587(6) 0.0225(4) Uani 1 1 d . . . . .
H9 H 0.5026 0.2253 0.0859 0.027 Uiso 1 1 calc R U . . .
O1 O -0.0144(4) 0.9200(2) 0.05167(4) 0.0269(4) Uani 1 1 d . . . . .
O2 O 0.2299(4) 0.7712(2) -0.00554(4) 0.0302(4) Uani 1 1 d . . . . .
H2A H 0.1414 0.8730 -0.0178 0.045 Uiso 1 1 calc R U . . .
F2 F 0.6285(3) -0.0283(2) 0.21468(4) 0.0402(4) Uani 1 1 d . . . . .
loop_
_atom_site_aniso_label
_atom_site_aniso_U_11
_atom_site_aniso_U_22
_atom_site_aniso_U_33
_atom_site_aniso_U_23
_atom_site_aniso_U_13
_atom_site_aniso_U_12
C1 0.0229(8) 0.0239(9) 0.0204(8) -0.0011(7) 0.0000(7) 0.0008(7)
C2 0.0240(9) 0.0202(9) 0.0237(9) -0.0013(7) -0.0008(7) 0.0040(7)
C3 0.0188(8) 0.0200(9) 0.0218(9) -0.0027(7) 0.0001(7) 0.0011(7)
C4 0.0173(8) 0.0220(9) 0.0209(9) -0.0015(7) -0.0010(7) -0.0007(7)
C5 0.0250(9) 0.0246(10) 0.0213(9) -0.0034(7) 0.0015(7) -0.0002(7)
F1 0.0451(15) 0.0237(13) 0.0209(11) -0.0084(8) 0.0052(9) 0.0055(9)
C6 0.0282(9) 0.0340(11) 0.0189(9) 0.0027(7) 0.0001(7) -0.0019(8)
C7 0.0254(9) 0.0282(11) 0.0266(10) 0.0106(8) -0.0022(7) -0.0002(8)
C8 0.0227(9) 0.0213(9) 0.0323(10) 0.0017(8) 0.0019(7) 0.0037(7)
C9 0.0239(9) 0.0239(9) 0.0197(8) -0.0016(7) 0.0025(6) 0.0018(7)
O1 0.0338(7) 0.0250(7) 0.0220(7) -0.0011(5) 0.0028(5) 0.0088(6)
O2 0.0431(8) 0.0292(8) 0.0182(7) 0.0020(5) 0.0026(6) 0.0126(6)
F2 0.0450(8) 0.0393(8) 0.0363(7) 0.0187(6) -0.0013(6) 0.0069(6)
loop_
_atom_type_symbol
_atom_type_description
_atom_type_scat_dispersion_real
_atom_type_scat_dispersion_imag
_atom_type_scat_source
C C 0.0033 0.0016 'International Tables Vol C Tables 4.2.6.8 and 6.1.1.4'
H H 0.0000 0.0000 'International Tables Vol C Tables 4.2.6.8 and 6.1.1.4'
O O 0.0106 0.0060 'International Tables Vol C Tables 4.2.6.8 and 6.1.1.4'
F F 0.0171 0.0103 'International Tables Vol C Tables 4.2.6.8 and 6.1.1.4'
loop_
_geom_angle_atom_site_label_1
_geom_angle_atom_site_label_2
_geom_angle_atom_site_label_3
_geom_angle
O1 C1 O2 122.72(17)
O1 C1 C2 121.19(16)
O2 C1 C2 116.09(16)
C3 C2 C1 121.73(17)
C3 C2 H2 119.1
C1 C2 H2 119.1
C2 C3 C4 126.54(16)
C2 C3 H3 116.7
C4 C3 H3 116.7
C5 C4 C9 117.22(17)
C5 C4 C3 119.89(16)
C9 C4 C3 122.88(16)
F1 C5 C6 119.15(18)
F1 C5 C4 118.16(18)
C6 C5 C4 122.68(17)
C6 C5 H5 118.7
C4 C5 H5 118.7
C7 C6 C5 117.09(17)
C7 C6 H6 121.5
C5 C6 H6 121.5
F2 C7 C6 118.35(18)
F2 C7 C8 118.39(18)
C6 C7 C8 123.26(17)
C9 C8 C7 118.26(18)
C9 C8 H8 120.9
C7 C8 H8 120.9
C8 C9 C4 121.48(17)
C8 C9 H9 119.3
C4 C9 H9 119.3
C1 O2 H2A 109.5
loop_
_geom_bond_atom_site_label_1
_geom_bond_atom_site_label_2
_geom_bond_distance
C1 O1 1.266(2)
C1 O2 1.291(2)
C1 C2 1.462(3)
C2 C3 1.334(3)
C2 H2 0.9500
C3 C4 1.462(3)
C3 H3 0.9500
C4 C5 1.395(2)
C4 C9 1.407(2)
C5 F1 1.353(3)
C5 C6 1.387(3)
C5 H5 0.9500
C6 C7 1.377(3)
C6 H6 0.9500
C7 F2 1.363(2)
C7 C8 1.380(3)
C8 C9 1.380(3)
C8 H8 0.9500
C9 H9 0.9500
O2 H2A 0.8400
loop_
_geom_hbond_atom_site_label_D
_geom_hbond_atom_site_label_H
_geom_hbond_atom_site_label_A
_geom_hbond_distance_DH
_geom_hbond_distance_HA
_geom_hbond_distance_DA
_geom_hbond_angle_DHA
_geom_hbond_site_symmetry_A
C2 H2 O2 0.95 2.60 3.541(2) 172.6 3_665
O2 H2A O1 0.84 1.79 2.620(2) 169.0 3_575
loop_
_geom_torsion_atom_site_label_1
_geom_torsion_atom_site_label_2
_geom_torsion_atom_site_label_3
_geom_torsion_atom_site_label_4
_geom_torsion
O1 C1 C2 C3 -2.5(3)
O2 C1 C2 C3 177.35(17)
C1 C2 C3 C4 -179.45(16)
C2 C3 C4 C5 173.92(17)
C2 C3 C4 C9 -6.9(3)
C9 C4 C5 F1 -179.32(17)
C3 C4 C5 F1 -0.1(3)
C9 C4 C5 C6 1.0(3)
C3 C4 C5 C6 -179.87(16)
F1 C5 C6 C7 179.81(18)
C4 C5 C6 C7 -0.5(3)
C5 C6 C7 F2 179.56(16)
C5 C6 C7 C8 -0.4(3)
F2 C7 C8 C9 -179.25(15)
C6 C7 C8 C9 0.7(3)
C7 C8 C9 C4 -0.2(3)
C5 C4 C9 C8 -0.6(3)
C3 C4 C9 C8 -179.77(16)
