#------------------------------------------------------------------------------
#$Date: 2019-11-17 09:14:47 +0200 (Sun, 17 Nov 2019) $
#$Revision: 229045 $
#$URL: file:///home/coder/svn-repositories/cod/cif/7/23/05/7230530.cif $
#------------------------------------------------------------------------------
#
# This file is available in the Crystallography Open Database (COD),
# http://www.crystallography.net/
#
# All data on this site have been placed in the public domain by the
# contributors.
#
data_7230530
loop_
_publ_author_name
'Chakraborty, Shaunak'
'Desiraju, Gautam R.'
_publ_section_title
;
 Exploring the structural landscape with &#x2018;partial&#x2019;
 fluoro-substitution as a probe
;
_journal_issue                   20
_journal_name_full               CrystEngComm
_journal_page_first              2793
_journal_paper_doi               10.1039/C8CE00336J
_journal_volume                  20
_journal_year                    2018
_chemical_formula_moiety         'C9 H6.50 F1.51 O2'
_chemical_formula_sum            'C9 H6.5 F1.51 O2'
_chemical_formula_weight         175.23
_space_group_crystal_system      triclinic
_space_group_IT_number           2
_space_group_name_Hall           '-P 1'
_space_group_name_H-M_alt        'P -1'
_symmetry_space_group_name_Hall  '-P 1'
_symmetry_space_group_name_H-M   'P -1'
_atom_sites_solution_hydrogens   geom
_audit_creation_method           SHELXL-2014
_audit_update_record
;
2018-04-14 deposited with the CCDC.
2018-04-18 downloaded from the CCDC.
;
_cell_angle_alpha                86.25(2)
_cell_angle_beta                 85.69(4)
_cell_angle_gamma                87.28(3)
_cell_formula_units_Z            2
_cell_length_a                   3.783(6)
_cell_length_b                   6.316(10)
_cell_length_c                   16.16(3)
_cell_measurement_reflns_used    812
_cell_measurement_temperature    293(2)
_cell_measurement_theta_max      27.5
_cell_measurement_theta_min      3.2
_cell_volume                     383.9(11)
_computing_structure_refinement  'SHELXL-2014 (Sheldrick, 2014)'
_diffrn_ambient_temperature      293(2)
_diffrn_measured_fraction_theta_full 0.996
_diffrn_measured_fraction_theta_max 0.994
_diffrn_measurement_device_type  CCD
_diffrn_radiation_type           MoK\a
_diffrn_radiation_wavelength     0.71073
_diffrn_reflns_av_R_equivalents  0.0832
_diffrn_reflns_av_unetI/netI     0.0786
_diffrn_reflns_Laue_measured_fraction_full 0.996
_diffrn_reflns_Laue_measured_fraction_max 0.994
_diffrn_reflns_limit_h_max       4
_diffrn_reflns_limit_h_min       -4
_diffrn_reflns_limit_k_max       8
_diffrn_reflns_limit_k_min       -8
_diffrn_reflns_limit_l_max       20
_diffrn_reflns_limit_l_min       -20
_diffrn_reflns_number            4059
_diffrn_reflns_point_group_measured_fraction_full 0.996
_diffrn_reflns_point_group_measured_fraction_max 0.994
_diffrn_reflns_theta_full        25.242
_diffrn_reflns_theta_max         27.497
_diffrn_reflns_theta_min         2.533
_exptl_absorpt_coefficient_mu    0.130
_exptl_crystal_colour            colourless
_exptl_crystal_density_diffrn    1.516
_exptl_crystal_description       plate
_exptl_crystal_F_000             180.1
_exptl_crystal_size_max          0.7
_exptl_crystal_size_mid          0.5
_exptl_crystal_size_min          0.2
_refine_diff_density_max         0.379
_refine_diff_density_min         -0.244
_refine_diff_density_rms         0.057
_refine_ls_extinction_method     none
_refine_ls_goodness_of_fit_ref   1.036
_refine_ls_hydrogen_treatment    constr
_refine_ls_matrix_type           full
_refine_ls_number_parameters     129
_refine_ls_number_reflns         1739
_refine_ls_number_restraints     0
_refine_ls_restrained_S_all      1.036
_refine_ls_R_factor_all          0.0900
_refine_ls_R_factor_gt           0.0622
_refine_ls_shift/su_max          0.000
_refine_ls_shift/su_mean         0.000
_refine_ls_structure_factor_coef Fsqd
_refine_ls_weighting_details
'w=1/[\s^2^(Fo^2^)+(0.0689P)^2^+0.0877P] where P=(Fo^2^+2Fc^2^)/3'
_refine_ls_weighting_scheme      calc
_refine_ls_wR_factor_gt          0.1487
_refine_ls_wR_factor_ref         0.1701
_reflns_Friedel_coverage         0.000
_reflns_number_gt                1207
_reflns_number_total             1739
_reflns_threshold_expression     'I > 2\s(I)'
_cod_data_source_file            c8ce00336j2.cif
_cod_data_source_block           23
_cod_depositor_comments
'Adding full bibliography for 7230514--7230540.cif.'
_cod_original_cell_volume        383.8(10)
_cod_original_formula_sum        'C9 H6.50 F1.51 O2'
_cod_database_code               7230530
_shelx_space_group_comment
;
The symmetry employed for this shelxl refinement is uniquely defined
by the following loop, which should always be used as a source of
symmetry information in preference to the above space-group names.
They are only intended as comments.
;
_shelxl_version_number           2014-3
_shelx_res_file
;

TITL shelx in P-1
CELL  0.71073   3.7825   6.3161  16.1612   86.253   85.691   87.285
ZERR     9.00   0.0057   0.0100   0.0252    0.024    0.035    0.033
LATT   1
SFAC  C    H    O    F
UNIT  9 9 9 9
MERG   2
OMIT    -2.00  55.00
EQIV $1 -x, -y+1, -z+1
HTAB C2 O2_$1
EQIV $2 -x+1, -y+2, -z+1
HTAB O2 O1_$2
OMIT     0   0   1
OMIT     1   0   4
FMAP   2
PLAN   20
ACTA
HTAB    2.00000
BOND
BOND   $H
CONF
L.S.  50
WGHT    0.068900    0.087700
FVAR       0.80928   0.50506
MOLE    1
C1    1    0.311762    0.768177    0.569318    11.00000    0.02670    0.02664 =
         0.02953   -0.00209    0.00080   -0.00063
C2    1    0.167398    0.588574    0.619989    11.00000    0.03010    0.02630 =
         0.03052   -0.00245    0.00029   -0.00360
AFIX  43
H2    2    0.072110    0.479343    0.594099    11.00000   -1.20000
AFIX   0
C3    1    0.168997    0.577506    0.702586    11.00000    0.02369    0.02565 =
         0.03373   -0.00426   -0.00086   -0.00170
AFIX  43
H3    2    0.269666    0.689178    0.725811    11.00000   -1.20000
AFIX   0
C4    1    0.030597    0.409951    0.760474    11.00000    0.02433    0.02848 =
         0.02924    0.00132    0.00077    0.00227
C5    1    0.021236    0.434001    0.845625    11.00000    0.03730    0.03151 =
         0.03224   -0.00293   -0.00179    0.00197
PART    1
AFIX  43
H5    2    0.103141    0.557295    0.864608    21.00000   -1.20000
AFIX   0
PART    2
F1    4    0.146711    0.605627    0.873547   -21.00000    0.07909    0.03839 =
         0.03104   -0.00709   -0.00896   -0.00726
PART    0
C6    1   -0.107513    0.278090    0.902545    11.00000    0.05183    0.04682 =
         0.02668    0.00263    0.00146    0.00299
PART    1
AFIX  43
H6    2   -0.112415    0.296656    0.959240   -21.00000   -1.20000
AFIX   0
PART    2
F2    4   -0.099050    0.306382    0.982729    21.00000    0.11614    0.06622 =
         0.02795    0.00322   -0.00053    0.00031
PART    0
C7    1   -0.226786    0.097595    0.875023    11.00000    0.03402    0.04245 =
         0.04304    0.01325    0.00441    0.00129
PART    1
AFIX  43
H7    2   -0.313586   -0.007027    0.913365   -21.00000   -1.20000
AFIX   0
PART    2
F3    4   -0.360427   -0.053044    0.929586    21.00000    0.06494    0.05689 =
         0.05893    0.02320    0.01617   -0.00509
PART    0
C8    1   -0.221407    0.066883    0.791430    11.00000    0.03035    0.02889 =
         0.04673    0.00104    0.00006   -0.00049
AFIX  43
H8    2   -0.302850   -0.057721    0.773461    11.00000   -1.20000
AFIX   0
C9    1   -0.094314    0.222300    0.734502    11.00000    0.02631    0.02972 =
         0.03764   -0.00272   -0.00124   -0.00026
AFIX  43
H9    2   -0.091703    0.201913    0.677983    11.00000   -1.20000
AFIX   0
O1    3    0.449764    0.916268    0.600854    11.00000    0.04222    0.03118 =
         0.03218   -0.00250   -0.00248   -0.00995
O2    3    0.282210    0.764386    0.489987    11.00000    0.05227    0.03484 =
         0.02721   -0.00001   -0.00038   -0.01269
AFIX 147
H2A   2    0.391267    0.861778    0.465544    11.00000   -1.50000
AFIX   0
HKLF    4

REM  shelx in P-1
REM R1 =  0.0622 for    1207 Fo > 4sig(Fo)  and  0.0900 for all    1739 data
REM    129 parameters refined using      0 restraints

END

WGHT      0.0660      0.0396

REM Instructions for potential hydrogen bonds
HTAB C2 O2_$1
HTAB O2 O1_$2

REM Highest difference peak  0.379,  deepest hole -0.244,  1-sigma level  0.057
Q1    1  -0.3447 -0.0983  0.7941  11.00000  0.05    0.33
Q2    1  -0.2679  0.1740  1.0514  11.00000  0.05    0.17
Q3    1   0.0817  0.6090  0.6474  11.00000  0.05    0.16
Q4    1  -0.3463  0.3560  0.9593  11.00000  0.05    0.15
Q5    1   0.2252  0.6847  0.5979  11.00000  0.05    0.15
Q6    1   0.3169  0.5477  0.6579  11.00000  0.05    0.15
Q7    1   0.1715 -0.0462  0.9030  11.00000  0.05    0.15
Q8    1  -0.1098  0.1022  1.0345  11.00000  0.05    0.14
Q9    1   0.1259  0.4004  0.8007  11.00000  0.05    0.14
Q10   1   0.3435  1.1329  0.6154  11.00000  0.05    0.14
Q11   1   0.7299  0.7750  0.5931  11.00000  0.05    0.14
Q12   1   0.5362  1.0329  0.5738  11.00000  0.05    0.14
Q13   1  -0.0499  0.9162  0.4595  11.00000  0.05    0.14
Q14   1   0.0053  0.7430  0.9221  11.00000  0.05    0.14
Q15   1   0.6630  0.6115  0.5410  11.00000  0.05    0.13
Q16   1   0.4486  0.6988  0.5249  11.00000  0.05    0.13
Q17   1   0.2043  0.1241  0.9351  11.00000  0.05    0.13
Q18   1  -0.5660 -0.2202  0.8953  11.00000  0.05    0.13
Q19   1  -0.1391  0.6987  0.5834  11.00000  0.05    0.13
Q20   1   0.4613  0.6247  0.7243  11.00000  0.05    0.13
;
_shelx_res_checksum              47003
loop_
_space_group_symop_operation_xyz
'x, y, z'
'-x, -y, -z'
loop_
_atom_site_label
_atom_site_type_symbol
_atom_site_fract_x
_atom_site_fract_y
_atom_site_fract_z
_atom_site_U_iso_or_equiv
_atom_site_adp_type
_atom_site_occupancy
_atom_site_site_symmetry_order
_atom_site_calc_flag
_atom_site_refinement_flags_posn
_atom_site_refinement_flags_adp
_atom_site_refinement_flags_occupancy
_atom_site_disorder_assembly
_atom_site_disorder_group
C1 C 0.3118(5) 0.7682(3) 0.56932(13) 0.0278(5) Uani 1 1 d . . . . .
C2 C 0.1674(5) 0.5886(3) 0.61999(13) 0.0290(5) Uani 1 1 d . . . . .
H2 H 0.0721 0.4793 0.5941 0.035 Uiso 1 1 calc R U . . .
C3 C 0.1690(5) 0.5775(3) 0.70259(14) 0.0276(5) Uani 1 1 d . . . . .
H3 H 0.2697 0.6892 0.7258 0.033 Uiso 1 1 calc R U . . .
C4 C 0.0306(5) 0.4100(3) 0.76047(13) 0.0277(5) Uani 1 1 d . . . . .
C5 C 0.0212(6) 0.4340(4) 0.84562(14) 0.0338(5) Uani 1 1 d . . . . .
H5 H 0.1031 0.5573 0.8646 0.041 Uiso 0.505(3) 1 calc R U P A 1
F1 F 0.1467(9) 0.6056(5) 0.87355(17) 0.0489(9) Uani 0.495(3) 1 d . . P A 2
C6 C -0.1075(7) 0.2781(4) 0.90255(15) 0.0424(6) Uani 1 1 d . . . . .
H6 H -0.1124 0.2967 0.9592 0.051 Uiso 0.495(3) 1 calc R U P A 1
F2 F -0.0991(11) 0.3064(6) 0.98273(19) 0.0707(12) Uani 0.505(3) 1 d . . P A 2
C7 C -0.2268(6) 0.0976(4) 0.87502(16) 0.0410(6) Uani 1 1 d . . . . .
H7 H -0.3136 -0.0070 0.9134 0.049 Uiso 0.495(3) 1 calc R U P A 1
F3 F -0.3604(9) -0.0530(5) 0.9296(2) 0.0624(11) Uani 0.505(3) 1 d . . P A 2
C8 C -0.2214(6) 0.0669(4) 0.79143(15) 0.0356(6) Uani 1 1 d . . . . .
H8 H -0.3029 -0.0577 0.7735 0.043 Uiso 1 1 calc R U . . .
C9 C -0.0943(5) 0.2223(3) 0.73450(14) 0.0313(5) Uani 1 1 d . . . . .
H9 H -0.0917 0.2019 0.6780 0.038 Uiso 1 1 calc R U . . .
O1 O 0.4498(4) 0.9163(2) 0.60085(10) 0.0349(4) Uani 1 1 d . . . . .
O2 O 0.2822(4) 0.7644(3) 0.48999(9) 0.0380(5) Uani 1 1 d . . . . .
H2A H 0.3913 0.8618 0.4655 0.057 Uiso 1 1 calc R U . . .
loop_
_atom_site_aniso_label
_atom_site_aniso_U_11
_atom_site_aniso_U_22
_atom_site_aniso_U_33
_atom_site_aniso_U_23
_atom_site_aniso_U_13
_atom_site_aniso_U_12
C1 0.0267(10) 0.0266(11) 0.0295(12) -0.0021(9) 0.0008(8) -0.0006(8)
C2 0.0301(11) 0.0263(11) 0.0305(12) -0.0024(9) 0.0003(9) -0.0036(8)
C3 0.0237(10) 0.0257(11) 0.0337(12) -0.0043(9) -0.0009(8) -0.0017(8)
C4 0.0243(10) 0.0285(11) 0.0292(12) 0.0013(9) 0.0008(8) 0.0023(8)
C5 0.0373(12) 0.0315(12) 0.0322(13) -0.0029(9) -0.0018(9) 0.0020(9)
F1 0.079(2) 0.0384(17) 0.0310(16) -0.0071(13) -0.0090(14) -0.0073(14)
C6 0.0518(15) 0.0468(16) 0.0267(13) 0.0026(11) 0.0015(11) 0.0030(11)
F2 0.116(3) 0.066(2) 0.0280(18) 0.0032(16) -0.0005(18) 0.000(2)
C7 0.0340(12) 0.0425(15) 0.0430(15) 0.0133(11) 0.0044(10) 0.0013(10)
F3 0.065(2) 0.057(2) 0.059(2) 0.0232(16) 0.0162(16) -0.0051(16)
C8 0.0303(11) 0.0289(12) 0.0467(15) 0.0010(10) 0.0001(10) -0.0005(9)
C9 0.0263(11) 0.0297(12) 0.0376(13) -0.0027(10) -0.0012(9) -0.0003(8)
O1 0.0422(9) 0.0312(9) 0.0322(9) -0.0025(7) -0.0025(7) -0.0099(7)
O2 0.0523(11) 0.0348(10) 0.0272(9) 0.0000(7) -0.0004(7) -0.0127(7)
loop_
_atom_type_symbol
_atom_type_description
_atom_type_scat_dispersion_real
_atom_type_scat_dispersion_imag
_atom_type_scat_source
C C 0.0033 0.0016 'International Tables Vol C Tables 4.2.6.8 and 6.1.1.4'
H H 0.0000 0.0000 'International Tables Vol C Tables 4.2.6.8 and 6.1.1.4'
O O 0.0106 0.0060 'International Tables Vol C Tables 4.2.6.8 and 6.1.1.4'
F F 0.0171 0.0103 'International Tables Vol C Tables 4.2.6.8 and 6.1.1.4'
loop_
_geom_angle_atom_site_label_1
_geom_angle_atom_site_label_2
_geom_angle_atom_site_label_3
_geom_angle
O1 C1 O2 122.7(2)
O1 C1 C2 121.8(2)
O2 C1 C2 115.55(19)
C3 C2 C1 121.4(2)
C3 C2 H2 119.3
C1 C2 H2 119.3
C2 C3 C4 127.2(2)
C2 C3 H3 116.4
C4 C3 H3 116.4
C5 C4 C9 117.6(2)
C5 C4 C3 119.6(2)
C9 C4 C3 122.8(2)
F1 C5 C6 118.7(3)
F1 C5 C4 120.0(2)
C6 C5 C4 121.3(2)
C6 C5 H5 119.4
C4 C5 H5 119.4
F2 C6 C7 121.8(3)
F2 C6 C5 118.7(3)
C7 C6 C5 119.5(2)
C7 C6 H6 120.2
C5 C6 H6 120.2
F3 C7 C6 120.1(3)
F3 C7 C8 118.7(3)
C6 C7 C8 121.2(2)
C6 C7 H7 119.4
C8 C7 H7 119.4
C7 C8 C9 119.5(2)
C7 C8 H8 120.3
C9 C8 H8 120.3
C8 C9 C4 121.0(2)
C8 C9 H9 119.5
C4 C9 H9 119.5
C1 O2 H2A 109.5
loop_
_geom_bond_atom_site_label_1
_geom_bond_atom_site_label_2
_geom_bond_distance
C1 O1 1.247(3)
C1 O2 1.297(3)
C1 C2 1.458(3)
C2 C3 1.333(4)
C2 H2 0.9300
C3 C4 1.456(3)
C3 H3 0.9300
C4 C5 1.392(4)
C4 C9 1.397(3)
C5 F1 1.322(4)
C5 C6 1.383(4)
C5 H5 0.9300
C6 F2 1.323(4)
C6 C7 1.359(4)
C6 H6 0.9300
C7 F3 1.344(4)
C7 C8 1.376(4)
C7 H7 0.9300
C8 C9 1.379(3)
C8 H8 0.9300
C9 H9 0.9300
O2 H2A 0.8200
loop_
_geom_hbond_atom_site_label_D
_geom_hbond_atom_site_label_H
_geom_hbond_atom_site_label_A
_geom_hbond_distance_DH
_geom_hbond_distance_HA
_geom_hbond_distance_DA
_geom_hbond_angle_DHA
_geom_hbond_site_symmetry_A
C2 H2 O2 0.93 2.60 3.515(4) 168.2 2_566
O2 H2A O1 0.82 1.81 2.614(4) 167.9 2_676
loop_
_geom_torsion_atom_site_label_1
_geom_torsion_atom_site_label_2
_geom_torsion_atom_site_label_3
_geom_torsion_atom_site_label_4
_geom_torsion
O1 C1 C2 C3 1.7(3)
O2 C1 C2 C3 -177.43(19)
C1 C2 C3 C4 179.16(19)
C2 C3 C4 C5 -173.5(2)
C2 C3 C4 C9 6.8(3)
C9 C4 C5 F1 177.9(2)
C3 C4 C5 F1 -1.9(3)
C9 C4 C5 C6 -0.1(3)
C3 C4 C5 C6 -179.8(2)
F1 C5 C6 F2 -0.2(4)
C4 C5 C6 F2 177.8(3)
F1 C5 C6 C7 -177.9(2)
C4 C5 C6 C7 0.1(4)
F2 C6 C7 F3 4.0(4)
C5 C6 C7 F3 -178.4(2)
F2 C6 C7 C8 -177.5(3)
C5 C6 C7 C8 0.1(4)
F3 C7 C8 C9 178.2(2)
C6 C7 C8 C9 -0.3(4)
C7 C8 C9 C4 0.3(3)
C5 C4 C9 C8 -0.1(3)
C3 C4 C9 C8 179.61(18)
