#------------------------------------------------------------------------------
#$Date: 2018-05-29 15:22:31 +0300 (Tue, 29 May 2018) $
#$Revision: 208015 $
#$URL: file:///home/coder/svn-repositories/cod/cif/7/23/07/7230786.cif $
#------------------------------------------------------------------------------
#
# This file is available in the Crystallography Open Database (COD),
# http://www.crystallography.net/
#
# All data on this site have been placed in the public domain by the
# contributors.
#
data_7230786
loop_
_publ_author_name
'Collings, Ines'
'Bykov, Maxim'
'Bykova, Elena'
'Hanfland, Michael'
'van Smaalen, Sander'
'Dubrovinsky, Leonid'
'Dubrovinskaia, Natalia'
_publ_section_title
;
 Disorder--order transitions in the perovskite metal--organic frameworks
 [(CH3)2NH2][M(HCOO)3] at high pressure
;
_journal_name_full               CrystEngComm
_journal_paper_doi               10.1039/C8CE00617B
_journal_year                    2018
_chemical_formula_moiety         'C3 H3 Cu O6, C2 H8 N'
_chemical_formula_sum            'C5 H11 Cu N O6'
_chemical_formula_weight         244.69
_space_group_crystal_system      triclinic
_space_group_IT_number           2
_space_group_name_Hall           '-P 1'
_space_group_name_H-M_alt        'P -1'
_symmetry_space_group_name_Hall  '-P 1'
_symmetry_space_group_name_H-M   'P -1'
_audit_creation_method           SHELXL-2016/6
_audit_update_record
;
2018-04-17 deposited with the CCDC.
2018-05-29 downloaded from the CCDC.
;
_cell_angle_alpha                95.95(5)
_cell_angle_beta                 88.82(4)
_cell_angle_gamma                96.958(16)
_cell_formula_units_Z            1
_cell_length_a                   5.3901(9)
_cell_length_b                   5.8969(14)
_cell_length_c                   5.720(4)
_cell_measurement_reflns_used    121
_cell_measurement_temperature    293(2)
_cell_measurement_theta_max      14.1380
_cell_measurement_theta_min      2.2010
_cell_volume                     179.49(14)
_computing_cell_refinement       'CrysAlisPro (Agilent Technologies, 2013)'
_computing_data_reduction        'CrysAlisPro (Agilent Technologies, 2013)'
_computing_molecular_graphics    'SHELXLE-2011 (Huebschle, 2011)'
_computing_structure_refinement  'SHELXL-2016/6 (Sheldrick, 2016)'
_computing_structure_solution    'SHELXT-2015 (Sheldrick, 2015)'
_diffrn_ambient_pressure         '7.54 GPa'
_diffrn_ambient_temperature      293(2)
_diffrn_detector_area_resol_mean 7
_diffrn_measured_fraction_theta_full 0.538
_diffrn_measured_fraction_theta_max 0.369
_diffrn_measurement_device_type  'ID15B beamline, ESRF'
_diffrn_measurement_method       'omega scans'
_diffrn_radiation_type           synchrotron
_diffrn_radiation_wavelength     0.41108
_diffrn_reflns_av_unetI/netI     0.0840
_diffrn_reflns_Laue_measured_fraction_full 0.538
_diffrn_reflns_Laue_measured_fraction_max 0.369
_diffrn_reflns_limit_h_max       8
_diffrn_reflns_limit_h_min       -8
_diffrn_reflns_limit_k_max       9
_diffrn_reflns_limit_k_min       -9
_diffrn_reflns_limit_l_max       9
_diffrn_reflns_limit_l_min       -9
_diffrn_reflns_number            632
_diffrn_reflns_point_group_measured_fraction_full 0.538
_diffrn_reflns_point_group_measured_fraction_max 0.369
_diffrn_reflns_theta_full        14.279
_diffrn_reflns_theta_max         19.599
_diffrn_reflns_theta_min         2.202
_diffrn_source                   synchrotron
_exptl_absorpt_coefficient_mu    0.685
_exptl_absorpt_correction_T_max  1.00000
_exptl_absorpt_correction_T_min  0.19374
_exptl_absorpt_correction_type   multi-scan
_exptl_absorpt_process_details
;
CrysAlisPro 1.171.38.46 (Rigaku Oxford Diffraction, 2015)
Empirical absorption correction using spherical harmonics,
 implemented in SCALE3 ABSPACK scaling algorithm.
;
_exptl_crystal_colour            blue
_exptl_crystal_density_diffrn    2.264
_exptl_crystal_description       block
_exptl_crystal_F_000             125
_exptl_crystal_size_max          0.070
_exptl_crystal_size_mid          0.045
_exptl_crystal_size_min          0.020
_refine_diff_density_max         1.137
_refine_diff_density_min         -0.951
_refine_diff_density_rms         0.155
_refine_ls_extinction_method     none
_refine_ls_goodness_of_fit_ref   1.058
_refine_ls_hydrogen_treatment    undef
_refine_ls_matrix_type           full
_refine_ls_number_parameters     52
_refine_ls_number_reflns         632
_refine_ls_number_restraints     0
_refine_ls_restrained_S_all      1.058
_refine_ls_R_factor_all          0.0983
_refine_ls_R_factor_gt           0.0743
_refine_ls_shift/su_max          0.000
_refine_ls_shift/su_mean         0.000
_refine_ls_structure_factor_coef Fsqd
_refine_ls_weighting_details
'w=1/[\s^2^(Fo^2^)+(0.1356P)^2^] where P=(Fo^2^+2Fc^2^)/3'
_refine_ls_weighting_scheme      calc
_refine_ls_wR_factor_gt          0.1968
_refine_ls_wR_factor_ref         0.2072
_reflns_Friedel_coverage         0.000
_reflns_number_gt                414
_reflns_number_total             632
_reflns_threshold_expression     'I > 2\s(I)'
_cod_data_source_file            c8ce00617b2.cif
_cod_data_source_block           DMACuF_c2_p11
_cod_original_cell_volume        179.49(15)
_cod_database_code               7230786
_shelx_shelxl_version_number     2016/6
_shelx_space_group_comment
;
The symmetry employed for this shelxl refinement is uniquely defined
by the following loop, which should always be used as a source of
symmetry information in preference to the above space-group names.
They are only intended as comments.
;
_shelx_estimated_absorpt_t_min   0.954
_shelx_estimated_absorpt_t_max   0.986
_shelx_res_file
;
TITL DMACuF_c2_p10_s_twin in P-1
    DMACuF_c2_p11_s_mask1p5_twin1_hklf5.res
    created by SHELXL-2016/6 at 16:33:32 on 21-Mar-2018
REM P-1 (#2 in standard setting)
CELL 0.41108    5.390062 5.896905  5.720088    95.9475  88.8175  96.9576
ZERR    1.00    0.000899 0.001375  0.004414    0.0525   0.0397   0.0164
LATT  1
SFAC C H N O Cu
DISP $C -0.00006  0.00048  5.14091!source kissel
DISP $H -0.00003  0.00000  0.64127!source kissel
DISP $N  0.00062  0.00099  7.19030!source kissel
DISP $O  0.00180  0.00183 10.15475!source kissel
DISP $Cu  0.24634  0.46870 1129.00277!source kissel
UNIT 5.00 11.00 1.00 6.00 1.00
LIST 4 ! automatically inserted. Change 6 to 4 for CHECKCIF!!
L.S. 50
SIZE 0.07 0.045 0.02
ACTA
BOND
FMAP 2
PLAN 20
MERG 0
WGHT    0.135600
BASF   0.60155
FVAR      27.31672
MOLE   1
CU1   5    0.500000    0.500000    0.500000    10.50000    0.02397    0.03888 =
         0.02648   -0.00810   -0.00802   -0.00507
O1    4    0.638979    0.640377    0.802317    10.50000    0.03100
O2    4    0.710523    0.581203    1.164778    10.50000    0.03266
O3    4   -0.188052    0.607456    0.354111    10.50000    0.03144
O4    4    0.219997    0.606170    0.358407    10.50000    0.03240
O5    4    0.333599   -0.186017    0.406734    10.50000    0.04121
O6    4    0.367330    0.184978    0.388148    10.50000    0.04537
C1    1    0.589483    0.536327    0.979309    10.50000    0.02164
C3    1    0.433839    0.007065    0.459690    10.50000    0.03494
C2    1    0.005209    0.547203    0.438844    10.50000    0.01624
C4    1    0.169852   -0.099594    0.937651    11.00000    0.06431
N1    3   -0.002055   -0.015630    1.088709    10.50000    0.03764
MOLE   2
HKLF 5 1 0 1 0 1 0 0 0 0 1 1 0




REM  DMACuF_c2_p10_s_twin in P-1
REM R1 =  0.0743 for     414 Fo > 4sig(Fo)  and  0.0983 for all     632 data
REM     52 parameters refined using      0 restraints

END

WGHT      0.1360      0.0000

REM Highest difference peak  1.137,  deepest hole -0.951,  1-sigma level  0.155
Q1    1   0.3482  0.5147  0.5081  11.00000  0.05    1.14
Q2    1   0.4968  0.3030  0.4831  11.00000  0.05    0.72
Q3    1  -0.2824  0.6322  0.5241  11.00000  0.05    0.71
Q4    1   0.1550 -0.0158  0.8702  11.00000  0.05    0.70
Q5    1   0.1746 -0.1931  0.9787  11.00000  0.05    0.56
Q6    1   0.1882  0.5349  0.4606  11.00000  0.05    0.50
Q7    1  -0.2030  0.4007  0.3373  11.00000  0.05    0.49
Q8    1   0.5467  0.4842  1.2759  11.00000  0.05    0.46
Q9    1   0.4020  0.0145  0.3867  11.00000  0.05    0.44
Q10   1   0.0655 -0.0191  0.5526  11.00000  0.05    0.43
Q11   1   0.0250  0.5949  0.3754  11.00000  0.05    0.41
Q12   1  -0.1520  0.7466  0.5256  11.00000  0.05    0.40
Q13   1   0.4894  0.5330  0.8700  11.00000  0.05    0.40
Q14   1   0.7721  0.7074  1.1400  11.00000  0.05    0.39
Q15   1   0.1949 -0.1809  0.4084  11.00000  0.05    0.39
Q16   1   0.3350  0.5038  0.3198  11.00000  0.05    0.39
Q17   1   0.3607 -0.0140  0.8563  11.00000  0.05    0.38
Q18   1  -0.1672  0.5185  0.3562  11.00000  0.05    0.38
Q19   1   1.0000  0.5000  1.0000  10.50000  0.05    0.37
Q20   1   0.0907  0.5150  0.1871  11.00000  0.05    0.37
;
_shelx_res_checksum              60270
loop_
_space_group_symop_operation_xyz
'x, y, z'
'-x, -y, -z'
loop_
_atom_site_label
_atom_site_type_symbol
_atom_site_fract_x
_atom_site_fract_y
_atom_site_fract_z
_atom_site_U_iso_or_equiv
_atom_site_adp_type
_atom_site_occupancy
_atom_site_site_symmetry_order
_atom_site_calc_flag
_atom_site_refinement_flags_posn
_atom_site_refinement_flags_occupancy
Cu1 Cu 0.500000 0.500000 0.500000 0.0312(7) Uani 1 2 d S P
O1 O 0.6390(19) 0.640(3) 0.802(2) 0.031(3) Uiso 0.5 1 d . P
O2 O 0.7105(19) 0.581(3) 1.165(3) 0.033(3) Uiso 0.5 1 d . P
O3 O -0.1881(19) 0.607(3) 0.354(3) 0.031(3) Uiso 0.5 1 d . P
O4 O 0.220(2) 0.606(3) 0.358(3) 0.032(3) Uiso 0.5 1 d . P
O5 O 0.334(2) -0.186(4) 0.407(3) 0.041(3) Uiso 0.5 1 d . P
O6 O 0.367(2) 0.185(3) 0.388(3) 0.045(3) Uiso 0.5 1 d . P
C1 C 0.589(2) 0.536(3) 0.979(3) 0.022(3) Uiso 0.5 1 d . P
C3 C 0.434(3) 0.007(5) 0.460(3) 0.035(4) Uiso 0.5 1 d . P
C2 C 0.005(2) 0.547(3) 0.439(2) 0.016(3) Uiso 0.5 1 d . P
C4 C 0.170(2) -0.100(3) 0.938(3) 0.064(3) Uiso 1 1 d . .
N1 N -0.002(3) -0.016(4) 1.089(3) 0.038(3) Uiso 0.5 1 d . P
loop_
_atom_site_aniso_label
_atom_site_aniso_U_11
_atom_site_aniso_U_22
_atom_site_aniso_U_33
_atom_site_aniso_U_23
_atom_site_aniso_U_13
_atom_site_aniso_U_12
Cu1 0.0240(7) 0.0389(14) 0.0265(9) -0.0081(11) -0.0080(5) -0.0051(7)
loop_
_atom_type_symbol
_atom_type_description
_atom_type_scat_dispersion_real
_atom_type_scat_dispersion_imag
_atom_type_scat_source
C C -0.0001 0.0005 'International Tables Vol C Tables 4.2.6.8 and 6.1.1.4'
H H 0.0000 0.0000 'International Tables Vol C Tables 4.2.6.8 and 6.1.1.4'
N N 0.0006 0.0010 'International Tables Vol C Tables 4.2.6.8 and 6.1.1.4'
O O 0.0018 0.0018 'International Tables Vol C Tables 4.2.6.8 and 6.1.1.4'
Cu Cu 0.2463 0.4687 'International Tables Vol C Tables 4.2.6.8 and 6.1.1.4'
loop_
_geom_angle_atom_site_label_1
_geom_angle_atom_site_label_2
_geom_angle_atom_site_label_3
_geom_angle
_geom_angle_site_symmetry_1
_geom_angle_site_symmetry_3
O4 Cu1 O4 180.0 . 2_666
O4 Cu1 O3 68.3(6) . 2_566
O4 Cu1 O3 111.7(6) 2_666 2_566
O4 Cu1 O3 111.7(6) . 1_655
O4 Cu1 O3 68.3(6) 2_666 1_655
O3 Cu1 O3 180.0 2_566 1_655
O4 Cu1 O6 89.0(7) . .
O4 Cu1 O6 91.0(7) 2_666 .
O3 Cu1 O6 65.9(7) 2_566 .
O3 Cu1 O6 114.1(7) 1_655 .
O4 Cu1 O6 91.0(7) . 2_666
O4 Cu1 O6 89.0(7) 2_666 2_666
O3 Cu1 O6 114.1(7) 2_566 2_666
O3 Cu1 O6 65.9(7) 1_655 2_666
O6 Cu1 O6 180.0 . 2_666
O4 Cu1 O1 57.5(6) . 2_666
O4 Cu1 O1 122.5(6) 2_666 2_666
O3 Cu1 O1 88.2(5) 2_566 2_666
O3 Cu1 O1 91.8(5) 1_655 2_666
O6 Cu1 O1 47.5(7) . 2_666
O6 Cu1 O1 132.5(7) 2_666 2_666
O4 Cu1 O1 122.5(6) . .
O4 Cu1 O1 57.5(6) 2_666 .
O3 Cu1 O1 91.8(5) 2_566 .
O3 Cu1 O1 88.2(5) 1_655 .
O6 Cu1 O1 132.5(7) . .
O6 Cu1 O1 47.5(7) 2_666 .
O1 Cu1 O1 180.0 2_666 .
O4 Cu1 O5 144.9(6) . 2_656
O4 Cu1 O5 35.1(6) 2_666 2_656
O3 Cu1 O5 90.1(6) 2_566 2_656
O3 Cu1 O5 89.9(6) 1_655 2_656
O6 Cu1 O5 56.3(6) . 2_656
O6 Cu1 O5 123.7(6) 2_666 2_656
O1 Cu1 O5 96.0(6) 2_666 2_656
O1 Cu1 O5 84.0(6) . 2_656
O4 Cu1 O5 35.1(6) . 1_565
O4 Cu1 O5 144.9(6) 2_666 1_565
O3 Cu1 O5 89.9(6) 2_566 1_565
O3 Cu1 O5 90.1(6) 1_655 1_565
O6 Cu1 O5 123.7(6) . 1_565
O6 Cu1 O5 56.3(6) 2_666 1_565
O1 Cu1 O5 84.0(6) 2_666 1_565
O1 Cu1 O5 96.0(6) . 1_565
O5 Cu1 O5 180.0 2_656 1_565
O4 Cu1 O2 94.5(5) . 2_667
O4 Cu1 O2 85.5(5) 2_666 2_667
O3 Cu1 O2 32.2(5) 2_566 2_667
O3 Cu1 O2 147.8(5) 1_655 2_667
O6 Cu1 O2 83.5(7) . 2_667
O6 Cu1 O2 96.5(7) 2_666 2_667
O1 Cu1 O2 118.7(5) 2_666 2_667
O1 Cu1 O2 61.3(5) . 2_667
O5 Cu1 O2 77.6(5) 2_656 2_667
O5 Cu1 O2 102.4(5) 1_565 2_667
O4 Cu1 O2 85.5(5) . 1_554
O4 Cu1 O2 94.5(5) 2_666 1_554
O3 Cu1 O2 147.8(5) 2_566 1_554
O3 Cu1 O2 32.2(5) 1_655 1_554
O6 Cu1 O2 96.5(7) . 1_554
O6 Cu1 O2 83.5(7) 2_666 1_554
O1 Cu1 O2 61.3(5) 2_666 1_554
O1 Cu1 O2 118.7(5) . 1_554
O5 Cu1 O2 102.4(5) 2_656 1_554
O5 Cu1 O2 77.6(5) 1_565 1_554
O2 Cu1 O2 180.0 2_667 1_554
C1 O1 O6 161.8(14) . 2_666
C1 O1 Cu1 118.2(12) . .
O6 O1 Cu1 66.0(8) 2_666 .
O3 O2 C1 173(2) 1_656 .
O3 O2 C1 141.7(13) 1_656 2_667
C1 O2 C1 32.2(12) . 2_667
O3 O2 Cu1 58.1(9) 1_656 1_556
C1 O2 Cu1 116.1(11) . 1_556
C1 O2 Cu1 83.9(6) 2_667 1_556
O2 O3 C2 136.3(15) 1_454 .
O2 O3 C2 142.3(17) 1_454 2_566
C2 O3 C2 24.5(10) . 2_566
O2 O3 Cu1 89.7(9) 1_454 1_455
C2 O3 Cu1 115.6(11) . 1_455
C2 O3 Cu1 91.1(8) 2_566 1_455
C2 O4 O5 121.5(18) . 1_565
C2 O4 C2 26.3(10) . 2_566
O5 O4 C2 124.7(13) 1_565 2_566
C2 O4 Cu1 117.7(11) . .
O5 O4 Cu1 86.9(9) 1_565 .
C2 O4 Cu1 91.4(8) 2_566 .
C3 O5 O4 177(2) . 1_545
C3 O5 C3 30.0(17) . 2_656
O4 O5 C3 149.8(14) 1_545 2_656
C3 O5 Cu1 122.1(14) . 1_545
O4 O5 Cu1 58.0(10) 1_545 1_545
C3 O5 Cu1 92.1(9) 2_656 1_545
C3 O6 O1 152.3(18) . 2_666
C3 O6 Cu1 125.2(14) . .
O1 O6 Cu1 66.4(9) 2_666 .
C1 C1 O2 108(2) 2_667 .
C1 C1 O1 123(2) 2_667 .
O2 C1 O1 122.9(16) . .
C1 C1 O2 39.6(15) 2_667 2_667
O2 C1 O2 147.8(12) . 2_667
O1 C1 O2 86.8(9) . 2_667
C3 C3 O5 106(5) 2_656 .
C3 C3 O6 129(4) 2_656 .
O5 C3 O6 124.7(17) . .
C3 C3 O5 44(3) 2_656 2_656
O5 C3 O5 150.0(17) . 2_656
O6 C3 O5 85.2(16) . 2_656
C2 C2 O4 117.0(19) 2_566 .
C2 C2 O3 121.4(19) 2_566 .
O4 C2 O3 121.6(13) . .
C2 C2 O4 36.7(13) 2_566 2_566
O4 C2 O4 153.7(10) . 2_566
O3 C2 O4 84.7(9) . 2_566
C2 C2 O3 34.1(12) 2_566 2_566
O4 C2 O3 82.9(9) . 2_566
O3 C2 O3 155.5(10) . 2_566
O4 C2 O3 70.8(8) 2_566 2_566
N1 C4 N1 47.8(15) 2_557 .
N1 N1 C4 73(2) 2_557 2_557
N1 N1 C4 59(2) 2_557 .
C4 N1 C4 132.2(15) 2_557 .
loop_
_geom_bond_atom_site_label_1
_geom_bond_atom_site_label_2
_geom_bond_distance
_geom_bond_site_symmetry_2
Cu1 O4 1.926(12) .
Cu1 O4 1.926(12) 2_666
Cu1 O3 1.928(12) 2_566
Cu1 O3 1.928(12) 1_655
Cu1 O6 1.955(19) .
Cu1 O6 1.955(19) 2_666
Cu1 O1 1.960(13) 2_666
Cu1 O1 1.960(13) .
Cu1 O5 2.268(19) 2_656
Cu1 O5 2.268(19) 1_565
Cu1 O2 2.272(14) 2_667
Cu1 O2 2.272(14) 1_554
O1 C1 1.25(2) .
O1 O6 1.58(2) 2_666
O2 O3 1.21(2) 1_656
O2 C1 1.24(2) .
O2 C1 1.855(18) 2_667
O3 C2 1.262(18) .
O3 C2 1.922(18) 2_566
O4 C2 1.260(19) .
O4 O5 1.31(3) 1_565
O4 C2 1.879(18) 2_566
O5 C3 1.21(3) .
O5 C3 1.68(3) 2_656
O6 C3 1.26(3) .
C1 C1 1.04(3) 2_667
C3 C3 0.87(3) 2_656
C2 C2 0.93(3) 2_566
C4 N1 1.22(2) 2_557
C4 N1 1.36(2) .
N1 N1 1.05(4) 2_557
