#------------------------------------------------------------------------------
#$Date: 2019-11-17 09:14:47 +0200 (Sun, 17 Nov 2019) $
#$Revision: 229045 $
#$URL: file:///home/coder/svn-repositories/cod/cif/7/23/05/7230535.cif $
#------------------------------------------------------------------------------
#
# This file is available in the Crystallography Open Database (COD),
# http://www.crystallography.net/
#
# All data on this site have been placed in the public domain by the
# contributors.
#
data_7230535
loop_
_publ_author_name
'Chakraborty, Shaunak'
'Desiraju, Gautam R.'
_publ_section_title
;
 Exploring the structural landscape with &#x2018;partial&#x2019;
 fluoro-substitution as a probe
;
_journal_issue                   20
_journal_name_full               CrystEngComm
_journal_page_first              2793
_journal_paper_doi               10.1039/C8CE00336J
_journal_volume                  20
_journal_year                    2018
_chemical_formula_moiety         'C9 H6.31 F1.69 O2'
_chemical_formula_sum            'C9 H6.31 F1.69 O2'
_chemical_formula_weight         178.60
_space_group_crystal_system      monoclinic
_space_group_IT_number           14
_space_group_name_Hall           '-P 2yn'
_space_group_name_H-M_alt        'P 1 21/n 1'
_symmetry_space_group_name_Hall  '-P 2yn'
_symmetry_space_group_name_H-M   'P 1 21/n 1'
_atom_sites_solution_hydrogens   geom
_audit_creation_method           SHELXL-2014/7
_audit_update_record
;
2018-04-14 deposited with the CCDC.
2018-04-18 downloaded from the CCDC.
;
_cell_angle_alpha                90
_cell_angle_beta                 90.93(2)
_cell_angle_gamma                90
_cell_formula_units_Z            4
_cell_length_a                   3.735(4)
_cell_length_b                   6.614(8)
_cell_length_c                   31.11(3)
_cell_measurement_reflns_used    1590
_cell_measurement_temperature    293(2)
_cell_measurement_theta_max      27.5
_cell_measurement_theta_min      3.1
_cell_volume                     768.4(14)
_computing_structure_refinement  'SHELXL-2014/7 (Sheldrick, 2014)'
_diffrn_ambient_temperature      293(2)
_diffrn_measured_fraction_theta_full 0.985
_diffrn_measured_fraction_theta_max 0.981
_diffrn_measurement_device_type  CCD
_diffrn_radiation_type           MoK\a
_diffrn_radiation_wavelength     0.71073
_diffrn_reflns_av_R_equivalents  0.1710
_diffrn_reflns_av_unetI/netI     0.1509
_diffrn_reflns_Laue_measured_fraction_full 0.985
_diffrn_reflns_Laue_measured_fraction_max 0.981
_diffrn_reflns_limit_h_max       4
_diffrn_reflns_limit_h_min       -4
_diffrn_reflns_limit_k_max       8
_diffrn_reflns_limit_k_min       -8
_diffrn_reflns_limit_l_max       40
_diffrn_reflns_limit_l_min       -40
_diffrn_reflns_number            5366
_diffrn_reflns_point_group_measured_fraction_full 0.985
_diffrn_reflns_point_group_measured_fraction_max 0.981
_diffrn_reflns_theta_full        25.242
_diffrn_reflns_theta_max         27.489
_diffrn_reflns_theta_min         1.309
_exptl_absorpt_coefficient_mu    0.135
_exptl_crystal_colour            colourless
_exptl_crystal_density_diffrn    1.544
_exptl_crystal_description       plate
_exptl_crystal_F_000             366.1
_exptl_crystal_size_max          0.6
_exptl_crystal_size_mid          0.5
_exptl_crystal_size_min          0.3
_refine_diff_density_max         0.380
_refine_diff_density_min         -0.558
_refine_diff_density_rms         0.098
_refine_ls_extinction_method     none
_refine_ls_goodness_of_fit_ref   0.969
_refine_ls_hydrogen_treatment    constr
_refine_ls_matrix_type           full
_refine_ls_number_parameters     120
_refine_ls_number_reflns         1719
_refine_ls_number_restraints     0
_refine_ls_restrained_S_all      0.969
_refine_ls_R_factor_all          0.0959
_refine_ls_R_factor_gt           0.0781
_refine_ls_shift/su_max          0.000
_refine_ls_shift/su_mean         0.000
_refine_ls_structure_factor_coef Fsqd
_refine_ls_weighting_details
'w=1/[\s^2^(Fo^2^)+(0.0649P)^2^] where P=(Fo^2^+2Fc^2^)/3'
_refine_ls_weighting_scheme      calc
_refine_ls_wR_factor_gt          0.1698
_refine_ls_wR_factor_ref         0.1836
_reflns_Friedel_coverage         0.000
_reflns_number_gt                1142
_reflns_number_total             1719
_reflns_threshold_expression     'I > 2\s(I)'
_cod_data_source_file            c8ce00336j2.cif
_cod_data_source_block           7
_cod_depositor_comments
'Adding full bibliography for 7230514--7230540.cif.'
_cod_original_cell_volume        768.5(15)
_cod_database_code               7230535
_shelx_shelxl_version_number     2014/7
_shelx_space_group_comment
;
The symmetry employed for this shelxl refinement is uniquely defined
by the following loop, which should always be used as a source of
symmetry information in preference to the above space-group names.
They are only intended as comments.
;
_shelx_res_file
;

    shelx.res created by SHELXL-2014/7

TITL datam in P2(1)/n
CELL  0.71073   3.7350   6.6143  31.1125   90.000   90.928   90.000
ZERR    17.00   0.0042   0.0076   0.0345    0.000    0.022    0.000
LATT   1
SYMM  1/2 - X, 1/2 + Y, 1/2 - Z
SFAC  C    H    O    F
UNIT  17 17 17 17
MERG   2
OMIT    -2.00  55.00
OMIT     0   0  10
OMIT     0   0   8
OMIT     0   2   7
EQIV $1 -x+1, -y+1, -z
HTAB C2 O2_$1
EQIV $2 -x, -y+2, -z
HTAB O2 O1_$2
HTAB C2 O2_$1
HTAB O2 O1_$2
OMIT    -2   4  21
FMAP   2
PLAN   20
ACTA
BOND
BOND   $H
CONF
L.S.  50
WGHT    0.064900
FVAR       0.84394   0.30798
MOLE    1
C1    1    0.152180    0.776096    0.034738    11.00000    0.02073    0.01650 =
         0.02078   -0.00180    0.00378    0.00079
C2    1    0.271690    0.600319    0.060093    11.00000    0.02165    0.01569 =
         0.02034   -0.00147    0.00454    0.00482
AFIX  43
H2    2    0.385798    0.493801    0.046419    11.00000   -1.20000
AFIX   0
C3    1    0.219230    0.590846    0.102492    11.00000    0.01803    0.01420 =
         0.02128   -0.00248    0.00296    0.00131
AFIX  43
H3    2    0.102031    0.699662    0.114931    11.00000   -1.20000
AFIX   0
C4    1    0.328067    0.426333    0.131114    11.00000    0.01629    0.01596 =
         0.02014   -0.00029    0.00309   -0.00079
C5    1    0.285816    0.445335    0.175482    11.00000    0.02334    0.01721 =
         0.01990   -0.00423    0.00582    0.00033
PART    1
AFIX  43
H5    2    0.186755    0.563901    0.186095    21.00000   -1.20000
AFIX   0
PART    2
F1    4    0.143531    0.618098    0.190384   -21.00000    0.06814    0.03372 =
         0.03693   -0.00695    0.00802    0.00635
PART    0
C6    1    0.384884    0.295550    0.204261    11.00000    0.02732    0.02787 =
         0.01742    0.00179    0.00393   -0.00231
AFIX  43
H6    2    0.357013    0.311661    0.233712    11.00000   -1.20000
AFIX   0
C7    1    0.526774    0.121344    0.187310    11.00000    0.02292    0.02226 =
         0.02570    0.00987    0.00206   -0.00088
C8    1    0.571846    0.091137    0.144095    11.00000    0.02269    0.01489 =
         0.03136    0.00160    0.00564    0.00316
AFIX  43
H8    2    0.666618   -0.029416    0.133923    11.00000   -1.20000
AFIX   0
C9    1    0.473336    0.243698    0.116107    11.00000    0.02225    0.01629 =
         0.02013   -0.00181    0.00668    0.00154
AFIX  43
H9    2    0.503496    0.225527    0.086747    11.00000   -1.20000
AFIX   0
O1    3   -0.014324    0.920192    0.051802    11.00000    0.03228    0.01935 =
         0.01952   -0.00108    0.00752    0.00890
O2    3    0.231067    0.771600   -0.005586    11.00000    0.04252    0.02162 =
         0.01809    0.00121    0.00776    0.01225
AFIX 147
H2A   2    0.175877    0.879600   -0.016810    11.00000   -1.50000
AFIX   0
F2    4    0.627572   -0.028488    0.214686    11.00000    0.04376    0.03038 =
         0.03474    0.01731    0.00303    0.00698
HKLF    4

REM  datam in P2(1)/n
REM R1 =  0.0781 for    1142 Fo > 4sig(Fo)  and  0.0959 for all    1719 data
REM    120 parameters refined using      0 restraints

END

WGHT      0.0596      0.0000

REM Highest difference peak  0.380,  deepest hole -0.558,  1-sigma level  0.098
Q1    1   0.5116  0.7999  0.0125  11.00000  0.05    0.38
Q2    1   0.9050 -0.0273  0.2264  11.00000  0.05    0.32
Q3    1   0.6189  0.4624  0.1490  11.00000  0.05    0.31
Q4    1   0.4618  0.6421  0.2101  11.00000  0.05    0.31
Q5    1   0.3455 -0.0430  0.1975  11.00000  0.05    0.29
Q6    1  -0.1997  0.7433  0.0216  11.00000  0.05    0.29
Q7    1   0.1820  0.1178  0.1694  11.00000  0.05    0.29
Q8    1   0.4072  0.1159  0.1756  11.00000  0.05    0.28
Q9    1   0.1087  0.2577  0.1004  11.00000  0.05    0.28
Q10   1   0.8884  0.1044  0.1666  11.00000  0.05    0.27
Q11   1   0.2315  0.4293  0.1663  11.00000  0.05    0.27
Q12   1   0.4284  0.1907  0.0380  11.00000  0.05    0.25
Q13   1   0.2724  1.0148  0.0785  11.00000  0.05    0.24
Q14   1   0.9641  0.0306  0.1897  11.00000  0.05    0.24
Q15   1   0.6164  0.4879  0.1887  11.00000  0.05    0.24
Q16   1   0.2763 -0.0428  0.1511  11.00000  0.05    0.23
Q17   1   0.2049  0.6391  0.0512  11.00000  0.05    0.23
Q18   1  -0.2949  0.6771  0.1647  11.00000  0.05    0.22
Q19   1   0.3566  0.6027  0.0617  11.00000  0.05    0.22
Q20   1   0.2366  0.9596  0.0703  11.00000  0.05    0.21
;
_shelx_res_checksum              18808
loop_
_space_group_symop_operation_xyz
'x, y, z'
'-x+1/2, y+1/2, -z+1/2'
'-x, -y, -z'
'x-1/2, -y-1/2, z-1/2'
loop_
_atom_site_label
_atom_site_type_symbol
_atom_site_fract_x
_atom_site_fract_y
_atom_site_fract_z
_atom_site_U_iso_or_equiv
_atom_site_adp_type
_atom_site_occupancy
_atom_site_site_symmetry_order
_atom_site_calc_flag
_atom_site_refinement_flags_posn
_atom_site_refinement_flags_adp
_atom_site_refinement_flags_occupancy
_atom_site_disorder_assembly
_atom_site_disorder_group
C1 C 0.1522(6) 0.7761(3) 0.03474(8) 0.0193(5) Uani 1 1 d . . . . .
C2 C 0.2717(6) 0.6003(4) 0.06009(8) 0.0192(5) Uani 1 1 d . . . . .
H2 H 0.3858 0.4938 0.0464 0.023 Uiso 1 1 calc R U . . .
C3 C 0.2192(6) 0.5908(3) 0.10249(8) 0.0178(5) Uani 1 1 d . . . . .
H3 H 0.1020 0.6997 0.1149 0.021 Uiso 1 1 calc R U . . .
C4 C 0.3281(5) 0.4263(4) 0.13111(8) 0.0174(5) Uani 1 1 d . . . . .
C5 C 0.2858(6) 0.4453(4) 0.17548(8) 0.0201(5) Uani 1 1 d . . . . .
H5 H 0.1868 0.5639 0.1861 0.024 Uiso 0.308(4) 1 calc R U P A 1
F1 F 0.1435(7) 0.6181(4) 0.19038(9) 0.0462(9) Uani 0.692(4) 1 d . . P A 2
C6 C 0.3849(6) 0.2956(4) 0.20426(8) 0.0242(6) Uani 1 1 d . . . . .
H6 H 0.3570 0.3117 0.2337 0.029 Uiso 1 1 calc R U . . .
C7 C 0.5268(6) 0.1213(4) 0.18731(9) 0.0236(6) Uani 1 1 d . . . . .
C8 C 0.5718(6) 0.0911(4) 0.14410(9) 0.0229(6) Uani 1 1 d . . . . .
H8 H 0.6666 -0.0294 0.1339 0.028 Uiso 1 1 calc R U . . .
C9 C 0.4733(6) 0.2437(3) 0.11611(8) 0.0195(5) Uani 1 1 d . . . . .
H9 H 0.5035 0.2255 0.0867 0.023 Uiso 1 1 calc R U . . .
O1 O -0.0143(4) 0.9202(2) 0.05180(6) 0.0236(4) Uani 1 1 d . . . . .
O2 O 0.2311(5) 0.7716(3) -0.00559(6) 0.0273(5) Uani 1 1 d . . . . .
H2A H 0.1759 0.8796 -0.0168 0.041 Uiso 1 1 calc R U . . .
F2 F 0.6276(4) -0.0285(3) 0.21469(6) 0.0363(5) Uani 1 1 d . . . . .
loop_
_atom_site_aniso_label
_atom_site_aniso_U_11
_atom_site_aniso_U_22
_atom_site_aniso_U_33
_atom_site_aniso_U_23
_atom_site_aniso_U_13
_atom_site_aniso_U_12
C1 0.0207(11) 0.0165(12) 0.0208(12) -0.0018(10) 0.0038(9) 0.0008(9)
C2 0.0216(11) 0.0157(13) 0.0203(12) -0.0015(10) 0.0045(10) 0.0048(9)
C3 0.0180(11) 0.0142(12) 0.0213(13) -0.0025(10) 0.0030(10) 0.0013(9)
C4 0.0163(11) 0.0160(12) 0.0201(13) -0.0003(10) 0.0031(10) -0.0008(9)
C5 0.0233(11) 0.0172(12) 0.0199(13) -0.0042(10) 0.0058(10) 0.0003(9)
F1 0.0681(18) 0.0337(16) 0.0369(16) -0.0069(12) 0.0080(13) 0.0063(12)
C6 0.0273(12) 0.0279(15) 0.0174(12) 0.0018(11) 0.0039(10) -0.0023(10)
C7 0.0229(12) 0.0223(14) 0.0257(14) 0.0099(11) 0.0021(10) -0.0009(10)
C8 0.0227(12) 0.0149(12) 0.0314(15) 0.0016(11) 0.0056(11) 0.0032(9)
C9 0.0223(11) 0.0163(12) 0.0201(12) -0.0018(10) 0.0067(9) 0.0015(9)
O1 0.0323(9) 0.0193(9) 0.0195(9) -0.0011(8) 0.0075(8) 0.0089(7)
O2 0.0425(11) 0.0216(10) 0.0181(10) 0.0012(8) 0.0078(8) 0.0123(8)
F2 0.0438(10) 0.0304(10) 0.0347(10) 0.0173(8) 0.0030(8) 0.0070(7)
loop_
_atom_type_symbol
_atom_type_description
_atom_type_scat_dispersion_real
_atom_type_scat_dispersion_imag
_atom_type_scat_source
C C 0.0033 0.0016 'International Tables Vol C Tables 4.2.6.8 and 6.1.1.4'
H H 0.0000 0.0000 'International Tables Vol C Tables 4.2.6.8 and 6.1.1.4'
O O 0.0106 0.0060 'International Tables Vol C Tables 4.2.6.8 and 6.1.1.4'
F F 0.0171 0.0103 'International Tables Vol C Tables 4.2.6.8 and 6.1.1.4'
loop_
_geom_angle_atom_site_label_1
_geom_angle_atom_site_label_2
_geom_angle_atom_site_label_3
_geom_angle
O1 C1 O2 123.2(2)
O1 C1 C2 121.3(2)
O2 C1 C2 115.5(2)
C3 C2 C1 121.2(2)
C3 C2 H2 119.4
C1 C2 H2 119.4
C2 C3 C4 126.3(2)
C2 C3 H3 116.8
C4 C3 H3 116.8
C5 C4 C9 117.1(2)
C5 C4 C3 120.0(2)
C9 C4 C3 122.9(2)
F1 C5 C6 119.3(3)
F1 C5 C4 117.9(2)
C6 C5 C4 122.8(2)
C6 C5 H5 118.6
C4 C5 H5 118.6
C7 C6 C5 116.9(3)
C7 C6 H6 121.5
C5 C6 H6 121.5
F2 C7 C8 118.1(2)
F2 C7 C6 118.4(3)
C8 C7 C6 123.4(2)
C7 C8 C9 118.5(2)
C7 C8 H8 120.8
C9 C8 H8 120.8
C8 C9 C4 121.3(2)
C8 C9 H9 119.4
C4 C9 H9 119.4
C1 O2 H2A 109.5
loop_
_geom_bond_atom_site_label_1
_geom_bond_atom_site_label_2
_geom_bond_distance
C1 O1 1.260(3)
C1 O2 1.294(3)
C1 C2 1.470(4)
C2 C3 1.338(4)
C2 H2 0.9300
C3 C4 1.460(3)
C3 H3 0.9300
C4 C5 1.398(3)
C4 C9 1.407(3)
C5 F1 1.346(3)
C5 C6 1.382(4)
C5 H5 0.9300
C6 C7 1.377(4)
C6 H6 0.9300
C7 F2 1.356(3)
C7 C8 1.372(4)
C8 C9 1.379(3)
C8 H8 0.9300
C9 H9 0.9300
O2 H2A 0.8200
loop_
_geom_hbond_atom_site_label_D
_geom_hbond_atom_site_label_H
_geom_hbond_atom_site_label_A
_geom_hbond_distance_DH
_geom_hbond_distance_HA
_geom_hbond_distance_DA
_geom_hbond_angle_DHA
_geom_hbond_site_symmetry_A
C2 H2 O2 0.93 2.61 3.533(4) 172.7 3_665
O2 H2A O1 0.82 1.81 2.616(3) 166.3 3_575
C2 H2 O2 0.93 2.61 3.533(4) 172.7 3_665
O2 H2A O1 0.82 1.81 2.616(3) 166.3 3_575
loop_
_geom_torsion_atom_site_label_1
_geom_torsion_atom_site_label_2
_geom_torsion_atom_site_label_3
_geom_torsion_atom_site_label_4
_geom_torsion
O1 C1 C2 C3 -2.5(3)
O2 C1 C2 C3 177.3(2)
C1 C2 C3 C4 -179.4(2)
C2 C3 C4 C5 173.9(2)
C2 C3 C4 C9 -6.8(4)
C9 C4 C5 F1 -179.3(2)
C3 C4 C5 F1 0.0(3)
C9 C4 C5 C6 1.0(3)
C3 C4 C5 C6 -179.7(2)
F1 C5 C6 C7 179.6(2)
C4 C5 C6 C7 -0.7(3)
C5 C6 C7 F2 179.84(19)
C5 C6 C7 C8 -0.1(4)
F2 C7 C8 C9 -179.34(19)
C6 C7 C8 C9 0.6(4)
C7 C8 C9 C4 -0.3(3)
C5 C4 C9 C8 -0.5(3)
C3 C4 C9 C8 -179.72(19)
