#------------------------------------------------------------------------------
#$Date: 2019-11-17 15:38:49 +0200 (Sun, 17 Nov 2019) $
#$Revision: 230933 $
#$URL: file:///home/coder/svn-repositories/cod/cif/7/23/00/7230040.cif $
#------------------------------------------------------------------------------
#
# This file is available in the Crystallography Open Database (COD),
# http://www.crystallography.net/
#
# All data on this site have been placed in the public domain by the
# contributors.
#
data_7230040
loop_
_publ_author_name
'Wang, Hui'
'Liu, Ju'
'Wang, Weizhou'
_publ_section_title
;
 Intermolecular and very strong intramolecular C-SeO/N chalcogen bonds in
 nitrophenyl selenocyanate crystals.
;
_journal_issue                   7
_journal_name_full               'Physical chemistry chemical physics : PCCP'
_journal_page_first              5227
_journal_page_last               5234
_journal_paper_doi               10.1039/c7cp08215k
_journal_volume                  20
_journal_year                    2018
_chemical_formula_moiety         'C7 H4 N2 O2 Se'
_chemical_formula_sum            'C7 H4 N2 O2 Se'
_chemical_formula_weight         227.08
_space_group_crystal_system      monoclinic
_space_group_IT_number           14
_space_group_name_Hall           '-P 2ybc'
_space_group_name_H-M_alt        'P 1 21/c 1'
_symmetry_space_group_name_Hall  '-P 2ybc'
_symmetry_space_group_name_H-M   'P 1 21/c 1'
_atom_sites_solution_hydrogens   geom
_atom_sites_solution_primary     direct
_atom_sites_solution_secondary   difmap
_audit_creation_date             2017-11-30
_audit_creation_method
;
Olex2 1.2
(compiled 2017.08.10 svn.r3458 for OlexSys, GUI svn.r5381)
;
_audit_update_record
;
2017-11-30 deposited with the CCDC.
2018-01-25 downloaded from the CCDC.
;
_cell_angle_alpha                90.00
_cell_angle_beta                 90.639(3)
_cell_angle_gamma                90.00
_cell_formula_units_Z            4
_cell_length_a                   7.9873(10)
_cell_length_b                   7.9532(10)
_cell_length_c                   12.6983(16)
_cell_measurement_reflns_used    5856
_cell_measurement_temperature    273(2)
_cell_measurement_theta_max      28.18
_cell_measurement_theta_min      2.55
_cell_volume                     806.60(18)
_computing_cell_refinement       'SAINT v8.37A (Bruker, 2015)'
_computing_data_reduction        'SAINT v8.37A (Bruker, 2015)'
_computing_molecular_graphics    'Olex2 (Dolomanov et al., 2009)'
_computing_publication_material  'Olex2 (Dolomanov et al., 2009)'
_computing_structure_refinement  'XL (Sheldrick, 2008)'
_computing_structure_solution    'XS (Sheldrick, 2008)'
_diffrn_ambient_temperature      273.15
_diffrn_measured_fraction_theta_full 0.997
_diffrn_measured_fraction_theta_max 0.997
_diffrn_measurement_device_type  'CCD area detector'
_diffrn_measurement_method       'phi and omega scans'
_diffrn_radiation_monochromator  graphite
_diffrn_radiation_type           MoK\a
_diffrn_radiation_wavelength     0.71073
_diffrn_reflns_av_R_equivalents  0.0300
_diffrn_reflns_av_unetI/netI     0.0208
_diffrn_reflns_limit_h_max       10
_diffrn_reflns_limit_h_min       -10
_diffrn_reflns_limit_k_max       10
_diffrn_reflns_limit_k_min       -10
_diffrn_reflns_limit_l_max       16
_diffrn_reflns_limit_l_min       -16
_diffrn_reflns_number            10960
_diffrn_reflns_theta_full        28.26
_diffrn_reflns_theta_max         28.26
_diffrn_reflns_theta_min         2.55
_diffrn_source                   'fine-focus sealed tube'
_exptl_absorpt_coefficient_mu    4.611
_exptl_absorpt_correction_T_max  0.7457
_exptl_absorpt_correction_T_min  0.3132
_exptl_absorpt_correction_type   multi-scan
_exptl_absorpt_process_details
'SADABS-2016/2 (Bruker,2016/2) was used for absorption correction. wR2(int) was 0.1176 before and 0.0453 after correction. The Ratio of minimum to maximum transmission is 0.4200. The \l/2 correction factor is Not present.'
_exptl_crystal_colour            yellow
_exptl_crystal_colour_primary    yellow
_exptl_crystal_density_diffrn    1.870
_exptl_crystal_density_method    'not measured'
_exptl_crystal_description       block
_exptl_crystal_F_000             440
_exptl_crystal_size_max          0.3
_exptl_crystal_size_mid          0.12
_exptl_crystal_size_min          0.05
_refine_diff_density_max         0.339
_refine_diff_density_min         -0.371
_refine_diff_density_rms         0.049
_refine_ls_extinction_method     none
_refine_ls_goodness_of_fit_ref   1.059
_refine_ls_hydrogen_treatment    constr
_refine_ls_matrix_type           full
_refine_ls_number_parameters     109
_refine_ls_number_reflns         1986
_refine_ls_number_restraints     0
_refine_ls_restrained_S_all      1.059
_refine_ls_R_factor_all          0.0340
_refine_ls_R_factor_gt           0.0240
_refine_ls_shift/su_max          0.000
_refine_ls_shift/su_mean         0.000
_refine_ls_structure_factor_coef Fsqd
_refine_ls_weighting_details
'calc w=1/[\s^2^(Fo^2^)+(0.0250P)^2^+0.3220P] where P=(Fo^2^+2Fc^2^)/3'
_refine_ls_weighting_scheme      calc
_refine_ls_wR_factor_gt          0.0560
_refine_ls_wR_factor_ref         0.0602
_reflns_number_gt                1633
_reflns_number_total             1986
_reflns_threshold_expression     >2sigma(I)
_iucr_refine_instructions_details
;
TITL W in P21/c #14
REM reset to P21/c #14
CELL 0.71073 7.9873 7.9532 12.6983 90 90.639 90
ZERR 4 0.001 0.001 0.0016 0 0.003 0
LATT 1
SYMM -X,0.5+Y,0.5-Z
SFAC C H N O Se
UNIT 28 16 8 8 4
 
L.S. 4
PLAN  20
TEMP 0
BOND
fmap 2
acta
REM <olex2.extras>
REM <HklSrc "%.\\W.hkl">
REM </olex2.extras>
 
WGHT    0.025000    0.322000
FVAR       0.25221
SE1   5    0.158656    0.132661    0.100118    11.00000    0.07009    0.03315 =
         0.04995    0.00331    0.01860   -0.00235
C6    1    0.227189    0.333319    0.028789    11.00000    0.04092    0.03100 =
         0.04022    0.00128    0.00629   -0.00110
C7    1    0.053281    0.243312    0.210384    11.00000    0.05844    0.04971 =
         0.04860    0.00799    0.01213   -0.00059
C2    1    0.363947    0.463276   -0.121193    11.00000    0.05351    0.04762 =
         0.04232    0.00631    0.00752   -0.00512
AFIX  43
H2    2    0.422174    0.451907   -0.183807    11.00000   -1.20000
AFIX   0
C5    1    0.190961    0.493509    0.065810    11.00000    0.04971    0.03738 =
         0.04775   -0.00306    0.01397   -0.00019
AFIX  43
H5    2    0.133508    0.506158    0.128615    11.00000   -1.20000
AFIX   0
N2    3   -0.012205    0.302902    0.279529    11.00000    0.08769    0.07070 =
         0.05658    0.00443    0.02879    0.00742
C1    1    0.315018    0.322581   -0.065113    11.00000    0.04535    0.03406 =
         0.03921   -0.00242    0.00663    0.00225
C3    1    0.325162    0.619815   -0.082918    11.00000    0.05715    0.03849 =
         0.05693    0.00862    0.00518   -0.00502
AFIX  43
H3    2    0.356506    0.715792   -0.119599    11.00000   -1.20000
AFIX   0
C4    1    0.239406    0.633607    0.010295    11.00000    0.05830    0.02936 =
         0.06433   -0.00104    0.00572    0.00097
AFIX  43
H4    2    0.213753    0.739788    0.036207    11.00000   -1.20000
AFIX   0
N1    3    0.360000    0.159133   -0.106961    11.00000    0.06926    0.04328 =
         0.05038   -0.00666    0.01760    0.00464
O2    4    0.315762    0.034671   -0.059029    11.00000    0.12172    0.03405 =
         0.07734   -0.00244    0.04030    0.00541
O1    4    0.438977    0.152328   -0.188146    11.00000    0.12439    0.06403 =
         0.07078   -0.01055    0.05504    0.01157
HKLF 4
 
REM  W in P21/c #14
REM R1 =  0.0240 for   1633 Fo > 4sig(Fo)  and  0.0340 for all   1986 data
REM    109 parameters refined using      0 restraints
 
END  
     
WGHT      0.0245      0.3224 
REM Highest difference peak  0.339,  deepest hole -0.371,  1-sigma level  0.049
Q1    1   0.2624  0.1704  0.1216  11.00000  0.05    0.34
Q2    1   0.0771  0.1433  0.0440  11.00000  0.05    0.27
Q3    1   0.2356  0.5519  0.0336  11.00000  0.05    0.21
Q4    1   0.1859  0.2740  0.0551  11.00000  0.05    0.21
Q5    1   0.2550  0.6141 -0.0390  11.00000  0.05    0.20
Q6    1   0.4999  0.1439 -0.1373  11.00000  0.05    0.18
Q7    1   0.2321  0.0539 -0.0592  11.00000  0.05    0.17
Q8    1   0.2451  0.6741  0.0183  11.00000  0.05    0.17
Q9    1   0.3565  0.5453 -0.1011  11.00000  0.05    0.16
Q10   1   0.0786  0.2050  0.1810  11.00000  0.05    0.16
Q11   1   0.0469  0.0241  0.0878  11.00000  0.05    0.16
Q12   1   0.2465  0.3255 -0.0210  11.00000  0.05    0.15
Q13   1   0.2128  0.4116  0.0498  11.00000  0.05    0.14
Q14   1   0.3374  0.2419 -0.0805  11.00000  0.05    0.14
Q15   1   0.3805  0.1028 -0.1979  11.00000  0.05    0.14
Q16   1   0.3044  0.1367  0.0183  11.00000  0.05    0.14
Q17   1   0.4601  0.0863 -0.0028  11.00000  0.05    0.14
Q18   1   0.2718  0.7561  0.0681  11.00000  0.05    0.14
Q19   1   0.3414  0.3882 -0.0934  11.00000  0.05    0.14
Q20   1   0.3786  0.1824 -0.1976  11.00000  0.05    0.14

  REM The information below was added by Olex2.
  REM
  REM R1 = 0.0240 for 1633 Fo > 4sig(Fo) and 0.0340 for all 11505 data
  REM n/a parameters refined using n/a restraints
  REM Highest difference peak 0.34, deepest hole -0.37
  REM Mean Shift 0, Max Shift 0.000.

  REM +++ Tabular Listing of Refinement Information +++
  REM R1_all = 0.0340
  REM R1_gt = 0.0240
  REM wR_ref = 0.0602
  REM GOOF = 1.059
  REM Shift_max = 0.000
  REM Shift_mean = 0
  REM Reflections_all = 11505
  REM Reflections_gt = 1633
  REM Parameters = n/a
  REM Hole = -0.37
  REM Peak = 0.34
  REM Flack = n/a

  
;
_cod_data_source_file            c7cp08215k2.cif
_cod_data_source_block           w
_cod_depositor_comments
'Adding full bibliography for 7230040--7230042.cif.'
_cod_database_code               7230040
_olex2_refinement_description
;
1. Fixed Uiso
 At 1.2 times of:
  All C(H) groups
2.a Aromatic/amide H refined with riding coordinates:
 C2(H2), C5(H5), C3(H3), C4(H4)
;
_olex2_submission_special_instructions 'No special instructions were received'
loop_
_space_group_symop_id
_space_group_symop_operation_xyz
1 'x, y, z'
2 '-x, y+1/2, -z+1/2'
3 '-x, -y, -z'
4 'x, -y-1/2, z-1/2'
loop_
_atom_site_label
_atom_site_type_symbol
_atom_site_fract_x
_atom_site_fract_y
_atom_site_fract_z
_atom_site_U_iso_or_equiv
_atom_site_adp_type
_atom_site_occupancy
_atom_site_calc_flag
_atom_site_refinement_flags_posn
Se1 Se 0.15866(3) 0.13266(3) 0.100118(16) 0.05093(9) Uani 1 d .
C6 C 0.2272(2) 0.3333(2) 0.02879(15) 0.0373(4) Uani 1 d .
C7 C 0.0533(3) 0.2433(3) 0.21038(17) 0.0522(5) Uani 1 d .
C2 C 0.3639(3) 0.4633(3) -0.12119(16) 0.0478(5) Uani 1 d .
H2 H 0.4222 0.4519 -0.1838 0.057 Uiso 1 calc R
C5 C 0.1910(3) 0.4935(3) 0.06581(16) 0.0448(5) Uani 1 d .
H5 H 0.1335 0.5062 0.1286 0.054 Uiso 1 calc R
N2 N -0.0122(3) 0.3029(3) 0.27953(17) 0.0714(6) Uani 1 d .
C1 C 0.3150(2) 0.3226(2) -0.06511(16) 0.0395(4) Uani 1 d .
C3 C 0.3252(3) 0.6198(3) -0.08292(18) 0.0508(5) Uani 1 d .
H3 H 0.3565 0.7158 -0.1196 0.061 Uiso 1 calc R
C4 C 0.2394(3) 0.6336(2) 0.01030(18) 0.0506(5) Uani 1 d .
H4 H 0.2138 0.7398 0.0362 0.061 Uiso 1 calc R
N1 N 0.3600(3) 0.1591(2) -0.10696(14) 0.0542(5) Uani 1 d .
O2 O 0.3158(3) 0.0347(2) -0.05903(15) 0.0774(6) Uani 1 d .
O1 O 0.4390(3) 0.1523(2) -0.18815(16) 0.0860(7) Uani 1 d .
loop_
_atom_site_aniso_label
_atom_site_aniso_U_11
_atom_site_aniso_U_22
_atom_site_aniso_U_33
_atom_site_aniso_U_23
_atom_site_aniso_U_13
_atom_site_aniso_U_12
Se1 0.07009(16) 0.03315(12) 0.04995(14) 0.00331(9) 0.01860(10) -0.00235(9)
C6 0.0409(9) 0.0310(9) 0.0402(9) 0.0013(7) 0.0063(8) -0.0011(7)
C7 0.0584(13) 0.0497(12) 0.0486(12) 0.0080(10) 0.0121(10) -0.0006(10)
C2 0.0535(12) 0.0476(11) 0.0423(10) 0.0063(9) 0.0075(9) -0.0051(9)
C5 0.0497(11) 0.0374(10) 0.0478(11) -0.0031(8) 0.0140(9) -0.0002(8)
N2 0.0877(15) 0.0707(14) 0.0566(12) 0.0044(11) 0.0288(11) 0.0074(12)
C1 0.0453(10) 0.0341(9) 0.0392(9) -0.0024(8) 0.0066(8) 0.0022(8)
C3 0.0571(12) 0.0385(11) 0.0569(13) 0.0086(9) 0.0052(10) -0.0050(9)
C4 0.0583(12) 0.0294(9) 0.0643(13) -0.0010(9) 0.0057(10) 0.0010(9)
N1 0.0693(12) 0.0433(10) 0.0504(11) -0.0067(8) 0.0176(9) 0.0046(8)
O2 0.1217(15) 0.0340(8) 0.0773(12) -0.0024(8) 0.0403(11) 0.0054(9)
O1 0.1244(17) 0.0640(12) 0.0708(12) -0.0105(9) 0.0550(12) 0.0116(11)
loop_
_atom_type_symbol
_atom_type_description
_atom_type_scat_dispersion_real
_atom_type_scat_dispersion_imag
_atom_type_scat_source
C C 0.0033 0.0016 'International Tables Vol C Tables 4.2.6.8 and 6.1.1.4'
H H 0.0000 0.0000 'International Tables Vol C Tables 4.2.6.8 and 6.1.1.4'
N N 0.0061 0.0033 'International Tables Vol C Tables 4.2.6.8 and 6.1.1.4'
O O 0.0106 0.0060 'International Tables Vol C Tables 4.2.6.8 and 6.1.1.4'
Se Se -0.0929 2.2259 'International Tables Vol C Tables 4.2.6.8 and 6.1.1.4'
loop_
_geom_angle_atom_site_label_1
_geom_angle_atom_site_label_2
_geom_angle_atom_site_label_3
_geom_angle
C7 Se1 C6 95.49(8)
C5 C6 Se1 122.79(14)
C5 C6 C1 117.04(17)
C1 C6 Se1 120.16(14)
N2 C7 Se1 176.6(2)
C3 C2 C1 119.0(2)
C4 C5 C6 120.54(18)
C6 C1 N1 119.84(17)
C2 C1 C6 122.57(19)
C2 C1 N1 117.58(18)
C2 C3 C4 119.5(2)
C5 C4 C3 121.37(19)
O2 N1 C1 118.11(17)
O1 N1 C1 118.90(19)
O1 N1 O2 123.0(2)
loop_
_geom_bond_atom_site_label_1
_geom_bond_atom_site_label_2
_geom_bond_distance
Se1 C6 1.9178(18)
Se1 C7 1.863(2)
C6 C5 1.390(3)
C6 C1 1.393(3)
C7 N2 1.131(3)
C2 C1 1.385(3)
C2 C3 1.373(3)
C5 C4 1.376(3)
C1 N1 1.451(3)
C3 C4 1.379(3)
N1 O2 1.217(3)
N1 O1 1.216(2)
