#------------------------------------------------------------------------------
#$Date: 2019-11-17 09:14:47 +0200 (Sun, 17 Nov 2019) $
#$Revision: 229045 $
#$URL: file:///home/coder/svn-repositories/cod/cif/7/23/05/7230532.cif $
#------------------------------------------------------------------------------
#
# This file is available in the Crystallography Open Database (COD),
# http://www.crystallography.net/
#
# All data on this site have been placed in the public domain by the
# contributors.
#
data_7230532
loop_
_publ_author_name
'Chakraborty, Shaunak'
'Desiraju, Gautam R.'
_publ_section_title
;
 Exploring the structural landscape with &#x2018;partial&#x2019;
 fluoro-substitution as a probe
;
_journal_issue                   20
_journal_name_full               CrystEngComm
_journal_page_first              2793
_journal_paper_doi               10.1039/C8CE00336J
_journal_volume                  20
_journal_year                    2018
_chemical_formula_moiety         'C9 H6 F2 O2'
_chemical_formula_sum            'C9 H6 F2 O2'
_chemical_formula_weight         184.14
_space_group_crystal_system      monoclinic
_space_group_IT_number           14
_space_group_name_Hall           '-P 2yn'
_space_group_name_H-M_alt        'P 1 21/n 1'
_symmetry_space_group_name_Hall  '-P 2yn'
_symmetry_space_group_name_H-M   'P 1 21/n 1'
_atom_sites_solution_hydrogens   geom
_audit_creation_method           SHELXL-2014/7
_audit_update_record
;
2018-04-14 deposited with the CCDC.
2018-04-18 downloaded from the CCDC.
;
_cell_angle_alpha                90
_cell_angle_beta                 90.551(4)
_cell_angle_gamma                90
_cell_formula_units_Z            4
_cell_length_a                   3.8093(5)
_cell_length_b                   6.5708(9)
_cell_length_c                   31.453(4)
_cell_measurement_reflns_used    6199
_cell_measurement_temperature    296(2)
_cell_measurement_theta_max      25.26
_cell_measurement_theta_min      3.17
_cell_volume                     787.24(18)
_computing_structure_refinement  'SHELXL-2014/7 (Sheldrick, 2014)'
_diffrn_ambient_temperature      296(2)
_diffrn_measured_fraction_theta_full 0.996
_diffrn_measured_fraction_theta_max 0.993
_diffrn_measurement_device_type  CCD
_diffrn_radiation_type           MoK\a
_diffrn_radiation_wavelength     0.71073
_diffrn_reflns_av_R_equivalents  0.2494
_diffrn_reflns_av_unetI/netI     0.0876
_diffrn_reflns_Laue_measured_fraction_full 0.996
_diffrn_reflns_Laue_measured_fraction_max 0.993
_diffrn_reflns_limit_h_max       4
_diffrn_reflns_limit_h_min       -4
_diffrn_reflns_limit_k_max       8
_diffrn_reflns_limit_k_min       -8
_diffrn_reflns_limit_l_max       40
_diffrn_reflns_limit_l_min       -40
_diffrn_reflns_number            18601
_diffrn_reflns_point_group_measured_fraction_full 0.996
_diffrn_reflns_point_group_measured_fraction_max 0.993
_diffrn_reflns_theta_full        25.242
_diffrn_reflns_theta_max         27.462
_diffrn_reflns_theta_min         3.167
_exptl_absorpt_coefficient_mu    0.140
_exptl_crystal_colour            colourless
_exptl_crystal_density_diffrn    1.554
_exptl_crystal_description       plate
_exptl_crystal_F_000             376
_exptl_crystal_size_max          0.8
_exptl_crystal_size_mid          0.7
_exptl_crystal_size_min          0.4
_refine_diff_density_max         0.317
_refine_diff_density_min         -0.281
_refine_diff_density_rms         0.075
_refine_ls_extinction_method     none
_refine_ls_goodness_of_fit_ref   0.974
_refine_ls_hydrogen_treatment    constr
_refine_ls_matrix_type           full
_refine_ls_number_parameters     118
_refine_ls_number_reflns         1770
_refine_ls_number_restraints     0
_refine_ls_restrained_S_all      0.974
_refine_ls_R_factor_all          0.1455
_refine_ls_R_factor_gt           0.0981
_refine_ls_shift/su_max          0.000
_refine_ls_shift/su_mean         0.000
_refine_ls_structure_factor_coef Fsqd
_refine_ls_weighting_details
'w=1/[\s^2^(Fo^2^)+(0.1573P)^2^+1.6669P] where P=(Fo^2^+2Fc^2^)/3'
_refine_ls_weighting_scheme      calc
_refine_ls_wR_factor_gt          0.2675
_refine_ls_wR_factor_ref         0.3211
_reflns_Friedel_coverage         0.000
_reflns_number_gt                1158
_reflns_number_total             1770
_reflns_threshold_expression     'I > 2\s(I)'
_cod_data_source_file            c8ce00336j2.cif
_cod_data_source_block           24DFCA
_cod_depositor_comments
'Adding full bibliography for 7230514--7230540.cif.'
_cod_original_cell_volume        787.23(18)
_cod_database_code               7230532
_shelx_shelxl_version_number     2014/7
_shelx_space_group_comment
;
The symmetry employed for this shelxl refinement is uniquely defined
by the following loop, which should always be used as a source of
symmetry information in preference to the above space-group names.
They are only intended as comments.
;
_shelx_res_file
;

    shelx.res created by SHELXL-2014/7


TITL datam in P2(1)/n
CELL  0.71073   3.8093   6.5708  31.4529   90.000   90.551   90.000
ZERR    18.00   0.0005   0.0009   0.0037    0.000    0.004    0.000
LATT   1
SYMM  1/2 - X, 1/2 + Y, 1/2 - Z
SFAC  C    H    O    F
UNIT  18 18 18 18
MERG   2
OMIT     -4.00 180.00
ACTA
HTAB
BOND $H
CONF
FMAP   2
PLAN   20
BOND
L.S.  50
TEMP    23.00
WGHT    0.157300    1.666900
FVAR       0.62067
MOLE    1
C1    1    0.843823    0.720329    0.034746    11.00000    0.05473    0.06196 =
         0.04540   -0.00197   -0.00053    0.00650
C2    1    0.724049    0.890447    0.060137    11.00000    0.05981    0.06070 =
         0.05421    0.00483    0.00126    0.01156
AFIX  43
H2    2    0.617148    1.000337    0.046610    11.00000   -1.20000
AFIX   0
C3    1    0.762315    0.893936    0.101927    11.00000    0.04197    0.05960 =
         0.05022    0.00743   -0.00089    0.00585
AFIX  43
H3    2    0.871029    0.781675    0.114338    11.00000   -1.20000
AFIX   0
C4    1    0.652454    1.054534    0.130415    11.00000    0.03531    0.05361 =
         0.04576    0.00108    0.00089   -0.00060
C5    1    0.690830    1.031000    0.174329    11.00000    0.05062    0.05488 =
         0.05347    0.00432   -0.00209    0.00041
C6    1    0.594780    1.175411    0.203238    11.00000    0.05697    0.07673 =
         0.04687   -0.00120    0.00727   -0.00634
AFIX  43
H6    2    0.624111    1.154809    0.232309    11.00000   -1.20000
AFIX   0
C7    1    0.455390    1.349323    0.187681    11.00000    0.04488    0.06841 =
         0.06464   -0.01333    0.00506   -0.00291
C8    1    0.408485    1.385825    0.145127    11.00000    0.04869    0.05925 =
         0.07431    0.00094   -0.00632    0.00714
AFIX  43
H8    2    0.312040    1.507720    0.135560    11.00000   -1.20000
AFIX   0
C9    1    0.507547    1.237878    0.117113    11.00000    0.04565    0.06473 =
         0.05383    0.00542   -0.00526    0.00148
AFIX  43
H9    2    0.476755    1.260910    0.088143    11.00000   -1.20000
AFIX   0
O1    3    0.995022    0.571700    0.051723    11.00000    0.08100    0.06944 =
         0.05223   -0.00088   -0.00239    0.02585
O2    3    0.783939    0.730121   -0.005213    11.00000    0.10724    0.08254 =
         0.04772   -0.00432   -0.00411    0.03665
AFIX  83
H2A   2    0.861174    0.627825   -0.016764    11.00000   -1.50000
AFIX   0
F1    4    0.835237    0.857060    0.188599    11.00000    0.11253    0.07309 =
         0.05678    0.01239   -0.00481    0.01575
F2    4    0.353640    1.494143    0.215432    11.00000    0.09174    0.09368 =
         0.08369   -0.03048    0.01449    0.01324
HKLF    4

REM  datam in P2(1)/n
REM R1 =  0.0981 for    1158 Fo > 4sig(Fo)  and  0.1455 for all    1770 data
REM    118 parameters refined using      0 restraints

END

WGHT      0.0569      0.9366

REM Instructions for potential hydrogen bonds
EQIV $1 -x+2, -y+1, -z
HTAB O2 O1_$1

REM Highest difference peak  0.317,  deepest hole -0.281,  1-sigma level  0.075
Q1    1   0.7278  1.1282  0.1916  11.00000  0.05    0.32
Q2    1   1.0435  0.4332  0.0460  11.00000  0.05    0.29
Q3    1   0.7273  0.7068  0.1915  11.00000  0.05    0.27
Q4    1   0.6142  0.8390  0.1910  11.00000  0.05    0.26
Q5    1   0.4009  1.6611  0.1977  11.00000  0.05    0.23
Q6    1   0.9412  1.1428  0.0534  11.00000  0.05    0.23
Q7    1   0.6092  1.2228  0.0722  11.00000  0.05    0.22
Q8    1   0.4991  1.1205  0.1289  11.00000  0.05    0.21
Q9    1   0.4362  1.6885  0.2185  11.00000  0.05    0.21
Q10   1   0.8195  0.5868  0.0461  11.00000  0.05    0.20
Q11   1   0.6589  1.3040  0.1987  11.00000  0.05    0.20
Q12   1   0.7767  0.8876 -0.0060  11.00000  0.05    0.19
Q13   1   0.9181  0.8141  0.0528  11.00000  0.05    0.19
Q14   1   1.0241  0.7089  0.0471  11.00000  0.05    0.19
Q15   1   0.8156  1.0083  0.0472  11.00000  0.05    0.19
Q16   1   0.2762  1.6927  0.2049  11.00000  0.05    0.18
Q17   1   0.4115  0.7707  0.1878  11.00000  0.05    0.18
Q18   1   0.4152  1.2944  0.0442  11.00000  0.05    0.18
Q19   1   0.4780  1.2341  0.1972  11.00000  0.05    0.17
Q20   1   0.8837  1.0382  0.0520  11.00000  0.05    0.17
;
_shelx_res_checksum              64276
loop_
_space_group_symop_operation_xyz
'x, y, z'
'-x+1/2, y+1/2, -z+1/2'
'-x, -y, -z'
'x-1/2, -y-1/2, z-1/2'
loop_
_atom_site_label
_atom_site_type_symbol
_atom_site_fract_x
_atom_site_fract_y
_atom_site_fract_z
_atom_site_U_iso_or_equiv
_atom_site_adp_type
_atom_site_occupancy
_atom_site_site_symmetry_order
_atom_site_calc_flag
_atom_site_refinement_flags_posn
_atom_site_refinement_flags_adp
C1 C 0.8438(12) 0.7203(7) 0.03475(14) 0.0540(12) Uani 1 1 d . .
C2 C 0.7240(13) 0.8904(8) 0.06014(16) 0.0582(12) Uani 1 1 d . .
H2 H 0.6171 1.0003 0.0466 0.070 Uiso 1 1 calc R U
C3 C 0.7623(11) 0.8939(7) 0.10193(14) 0.0506(11) Uani 1 1 d . .
H3 H 0.8710 0.7817 0.1143 0.061 Uiso 1 1 calc R U
C4 C 0.6525(10) 1.0545(7) 0.13042(13) 0.0449(10) Uani 1 1 d . .
C5 C 0.6908(12) 1.0310(7) 0.17433(15) 0.0530(11) Uani 1 1 d . .
C6 C 0.5948(13) 1.1754(8) 0.20324(15) 0.0601(13) Uani 1 1 d . .
H6 H 0.6241 1.1548 0.2323 0.072 Uiso 1 1 calc R U
C7 C 0.4554(12) 1.3493(8) 0.18768(17) 0.0593(13) Uani 1 1 d . .
C8 C 0.4085(12) 1.3858(8) 0.14513(18) 0.0608(13) Uani 1 1 d . .
H8 H 0.3120 1.5077 0.1356 0.073 Uiso 1 1 calc R U
C9 C 0.5075(12) 1.2379(7) 0.11711(15) 0.0548(12) Uani 1 1 d . .
H9 H 0.4768 1.2609 0.0881 0.066 Uiso 1 1 calc R U
O1 O 0.9950(10) 0.5717(5) 0.05172(11) 0.0676(11) Uani 1 1 d . .
O2 O 0.7839(11) 0.7301(6) -0.00521(11) 0.0792(13) Uani 1 1 d . .
H2A H 0.8612 0.6278 -0.0168 0.119 Uiso 1 1 calc R U
F1 F 0.8352(9) 0.8571(5) 0.18860(9) 0.0808(11) Uani 1 1 d . .
F2 F 0.3536(9) 1.4941(6) 0.21543(11) 0.0896(12) Uani 1 1 d . .
loop_
_atom_site_aniso_label
_atom_site_aniso_U_11
_atom_site_aniso_U_22
_atom_site_aniso_U_33
_atom_site_aniso_U_23
_atom_site_aniso_U_13
_atom_site_aniso_U_12
C1 0.055(3) 0.062(3) 0.045(3) -0.002(2) -0.0005(19) 0.006(2)
C2 0.060(3) 0.061(3) 0.054(3) 0.005(2) 0.001(2) 0.012(2)
C3 0.042(2) 0.060(3) 0.050(2) 0.007(2) -0.0009(18) 0.006(2)
C4 0.035(2) 0.054(2) 0.046(2) 0.0011(19) 0.0009(16) -0.0006(18)
C5 0.051(2) 0.055(3) 0.053(3) 0.004(2) -0.0021(19) 0.000(2)
C6 0.057(3) 0.077(3) 0.047(3) -0.001(2) 0.007(2) -0.006(2)
C7 0.045(2) 0.068(3) 0.065(3) -0.013(2) 0.005(2) -0.003(2)
C8 0.049(3) 0.059(3) 0.074(3) 0.001(2) -0.006(2) 0.007(2)
C9 0.046(2) 0.065(3) 0.054(3) 0.005(2) -0.0053(19) 0.001(2)
O1 0.081(2) 0.069(2) 0.052(2) -0.0009(16) -0.0024(17) 0.0258(19)
O2 0.107(3) 0.083(3) 0.048(2) -0.0043(18) -0.0041(19) 0.037(2)
F1 0.113(3) 0.073(2) 0.0568(18) 0.0124(15) -0.0048(17) 0.0157(18)
F2 0.092(2) 0.094(3) 0.084(2) -0.0305(19) 0.0145(18) 0.013(2)
loop_
_atom_type_symbol
_atom_type_description
_atom_type_scat_dispersion_real
_atom_type_scat_dispersion_imag
_atom_type_scat_source
C C 0.0033 0.0016 'International Tables Vol C Tables 4.2.6.8 and 6.1.1.4'
H H 0.0000 0.0000 'International Tables Vol C Tables 4.2.6.8 and 6.1.1.4'
O O 0.0106 0.0060 'International Tables Vol C Tables 4.2.6.8 and 6.1.1.4'
F F 0.0171 0.0103 'International Tables Vol C Tables 4.2.6.8 and 6.1.1.4'
loop_
_geom_angle_atom_site_label_1
_geom_angle_atom_site_label_2
_geom_angle_atom_site_label_3
_geom_angle
O1 C1 O2 122.5(4)
O1 C1 C2 120.9(4)
O2 C1 C2 116.7(4)
C3 C2 C1 121.9(4)
C3 C2 H2 119.0
C1 C2 H2 119.0
C2 C3 C4 126.7(4)
C2 C3 H3 116.6
C4 C3 H3 116.6
C9 C4 C5 115.6(4)
C9 C4 C3 124.2(4)
C5 C4 C3 120.2(4)
F1 C5 C6 118.7(4)
F1 C5 C4 117.6(4)
C6 C5 C4 123.7(4)
C7 C6 C5 117.0(5)
C7 C6 H6 121.5
C5 C6 H6 121.5
C6 C7 F2 118.5(5)
C6 C7 C8 123.3(5)
F2 C7 C8 118.2(5)
C9 C8 C7 118.1(5)
C9 C8 H8 121.0
C7 C8 H8 121.0
C8 C9 C4 122.3(4)
C8 C9 H9 118.9
C4 C9 H9 118.9
C1 O2 H2A 109.5
loop_
_geom_bond_atom_site_label_1
_geom_bond_atom_site_label_2
_geom_bond_distance
C1 O1 1.251(5)
C1 O2 1.277(6)
C1 C2 1.450(7)
C2 C3 1.321(7)
C2 H2 0.9300
C3 C4 1.449(6)
C3 H3 0.9300
C4 C9 1.388(6)
C4 C5 1.396(6)
C5 F1 1.344(6)
C5 C6 1.367(7)
C6 C7 1.350(7)
C6 H6 0.9300
C7 F2 1.351(6)
C7 C8 1.370(8)
C8 C9 1.368(7)
C8 H8 0.9300
C9 H9 0.9300
O2 H2A 0.8200
loop_
_geom_torsion_atom_site_label_1
_geom_torsion_atom_site_label_2
_geom_torsion_atom_site_label_3
_geom_torsion_atom_site_label_4
_geom_torsion
O1 C1 C2 C3 -1.4(8)
O2 C1 C2 C3 177.9(5)
C1 C2 C3 C4 -179.8(4)
C2 C3 C4 C9 -4.4(7)
C2 C3 C4 C5 175.9(5)
C9 C4 C5 F1 -179.0(4)
C3 C4 C5 F1 0.8(6)
C9 C4 C5 C6 0.1(7)
C3 C4 C5 C6 179.8(4)
F1 C5 C6 C7 179.1(4)
C4 C5 C6 C7 0.0(7)
C5 C6 C7 F2 179.2(4)
C5 C6 C7 C8 -0.1(7)
C6 C7 C8 C9 0.2(7)
F2 C7 C8 C9 -179.2(4)
C7 C8 C9 C4 -0.1(7)
C5 C4 C9 C8 0.0(7)
C3 C4 C9 C8 -179.8(4)
