#------------------------------------------------------------------------------
#$Date: 2019-11-17 08:42:31 +0200 (Sun, 17 Nov 2019) $
#$Revision: 228912 $
#$URL: file:///home/coder/svn-repositories/cod/cif/7/23/08/7230845.cif $
#------------------------------------------------------------------------------
#
# This file is available in the Crystallography Open Database (COD),
# http://www.crystallography.net/
#
# All data on this site have been placed in the public domain by the
# contributors.
#
data_7230845
loop_
_publ_author_name
'Ate\,s, \"Ozge Dilara'
'Zorlu, Yunus'
'Kanmazalp, Sibel Demir'
'Chumakov, Yurii'
'G\"urek, Ay\,se G\"ul'
'Ayhan, Mehmet Menaf'
_publ_section_title
;
 Halogen bonding driven crystal engineering of iodophthalonitrile
 derivatives
;
_journal_issue                   27
_journal_name_full               CrystEngComm
_journal_page_first              3858
_journal_paper_doi               10.1039/C8CE00594J
_journal_volume                  20
_journal_year                    2018
_chemical_formula_moiety         'C8 H2 I2 N2'
_chemical_formula_sum            'C8 H2 I2 N2'
_chemical_formula_weight         379.92
_chemical_name_common            Phthalonitrile
_space_group_crystal_system      triclinic
_space_group_IT_number           2
_space_group_name_Hall           '-P 1'
_space_group_name_H-M_alt        'P -1'
_symmetry_space_group_name_Hall  '-P 1'
_symmetry_space_group_name_H-M   'P -1'
_atom_sites_solution_hydrogens   geom
_audit_update_record
;
2017-11-30 deposited with the CCDC.
2018-06-07 downloaded from the CCDC.
;
_cell_angle_alpha                93.192(3)
_cell_angle_beta                 110.609(4)
_cell_angle_gamma                94.050(3)
_cell_formula_units_Z            2
_cell_length_a                   6.9085(6)
_cell_length_b                   7.7205(5)
_cell_length_c                   9.6719(7)
_cell_measurement_reflns_used    150
_cell_measurement_temperature    173.(2)
_cell_measurement_theta_max      25.9156
_cell_measurement_theta_min      4.3187
_cell_volume                     479.86(6)
_computing_cell_refinement       'APEX2 v2014.11-0 (Bruker AXS)'
_computing_data_collection
'Bruker Instrument Service v2013.12.0.0 (Bruker AXS)'
_computing_data_reduction        'SAINT V8.34A (Bruker AXS)'
_computing_molecular_graphics    'MERCURY (Macrae et al., 2006)'
_computing_publication_material
'PLATON V1.16 (Spek, 2009), SHELXTL V6.14 (Bruker AXS)'
_computing_structure_refinement  'SHELXTL V6.14 (Bruker AXS)'
_computing_structure_solution    'SHELXTL V6.14 (Bruker AXS)'
_diffrn_ambient_temperature      173.(2)
_diffrn_detector_area_resol_mean 8.3333
_diffrn_measured_fraction_theta_full 0.963
_diffrn_measured_fraction_theta_max 0.963
_diffrn_measurement_device_type
'Bruker APEX II QUAZAR three-circle diffractometer'
_diffrn_measurement_method       '\f and \w scans'
_diffrn_radiation_monochromator  'multilayer QUAZAR mirrors'
_diffrn_radiation_type           MoK\a
_diffrn_radiation_wavelength     0.71073
_diffrn_reflns_av_R_equivalents  0.0411
_diffrn_reflns_av_unetI/netI     0.0556
_diffrn_reflns_limit_h_max       8
_diffrn_reflns_limit_h_min       -8
_diffrn_reflns_limit_k_max       9
_diffrn_reflns_limit_k_min       -9
_diffrn_reflns_limit_l_max       9
_diffrn_reflns_limit_l_min       -11
_diffrn_reflns_number            4147
_diffrn_reflns_theta_full        25.00
_diffrn_reflns_theta_max         25.00
_diffrn_reflns_theta_min         3.16
_diffrn_source                   'microfocus sealed tube'
_diffrn_source_type              ImuS
_exptl_absorpt_coefficient_mu    6.499
_exptl_absorpt_correction_T_max  0.60
_exptl_absorpt_correction_T_min  0.33
_exptl_absorpt_correction_type   multi-scan
_exptl_absorpt_process_details   'SADABS V2014/5 (Bruker AXS)'
_exptl_crystal_colour            colourless
_exptl_crystal_density_diffrn    2.629
_exptl_crystal_density_method    'not measured'
_exptl_crystal_description       plate
_exptl_crystal_F_000             340
_exptl_crystal_size_max          0.389
_exptl_crystal_size_mid          0.173
_exptl_crystal_size_min          0.088
_refine_diff_density_max         3.116
_refine_diff_density_min         -2.003
_refine_ls_extinction_method     none
_refine_ls_goodness_of_fit_ref   1.159
_refine_ls_hydrogen_treatment    constr
_refine_ls_matrix_type           full
_refine_ls_number_parameters     109
_refine_ls_number_reflns         1629
_refine_ls_number_restraints     24
_refine_ls_restrained_S_all      1.152
_refine_ls_R_factor_all          0.0617
_refine_ls_R_factor_gt           0.0586
_refine_ls_shift/su_max          0.000
_refine_ls_shift/su_mean         0.000
_refine_ls_structure_factor_coef Fsqd
_refine_ls_weighting_details
'w=1/[\s^2^(Fo^2^)+39.8578P] where P=(Fo^2^+2Fc^2^)/3'
_refine_ls_weighting_scheme      calc
_refine_ls_wR_factor_gt          0.1776
_refine_ls_wR_factor_ref         0.1784
_reflns_number_gt                1490
_reflns_number_total             1629
_reflns_threshold_expression     'I > 2\s(I)'
_cod_data_source_file            c8ce00594j2.cif
_cod_data_source_block           I_CCDC1
_cod_depositor_comments
'Adding full bibliography for 7230844--7230847.cif.'
_cod_database_code               7230845
_shelx_res_file
;
16gtu122_O_D_A_1a_a.res created by SHELXL-2014/7


TITL 16gtu122_O_D_A_1a_a.res in P-1
CELL  0.71073   6.9085   7.7205   9.6719   93.192  110.609   94.050
ZERR    2.000   0.0006   0.0005   0.0007    0.003    0.004    0.003
LATT 1
SFAC C  H  I  N
UNIT 16  4  4  4
L.S. 20
OMIT 0 50
OMIT  -2   3   1
OMIT    -3   3   5
OMIT    -3  -3   1
OMIT    -5   3   5
OMIT     2   3   3
OMIT     1   6   0
OMIT    -3   6   2
OMIT     3   3   3
OMIT     1  -7   4
OMIT    -4   3   1
OMIT     2  -6   2
OMIT     1   0   2
OMIT -1   3   5
OMIT    -1   6   0
OMIT     1   3   3
OMIT    -6   3   5
OMIT    -2   6   4
OMIT     4  -3   3
OMIT    -5  -3   1
OMIT     4  -6   2
OMIT    -5   3   1
OMIT    -7   3   1
OMIT     0   6   4
OMIT    -4  -3   1
SIMU 0.005 C6 C7 C1 N1 C8 N2
SHEL 7 0.84
ACTA
BOND $H
FMAP 2
PLAN 20
SIZE 0.088 0.173 0.389
TEMP -100.360
HTAB
EQIV $1 -x, -y, -z
HTAB C6 N2_$1
CONF
WGHT    0.000000   39.857800
FVAR       0.40244
C1    1    0.689810    0.332443    0.105564    11.00000    0.04588    0.06574 =
         0.02648    0.01180    0.01301   -0.02052
C2    1    0.592897    0.285448    0.211394    11.00000    0.02894    0.02019 =
         0.02996    0.00107    0.02204   -0.00583
C3    1    0.699670    0.333808    0.359138    11.00000    0.02637    0.02044 =
         0.01323   -0.00149    0.00952    0.00398
AFIX  43
H3    2    0.834807    0.393784    0.389975    11.00000   -1.20000
AFIX   0
C4    1    0.610458    0.295204    0.464482    11.00000    0.02047    0.01875 =
         0.01919    0.00249    0.00753    0.00477
C5    1    0.410760    0.214439    0.419374    11.00000    0.02011    0.01876 =
         0.01959    0.00286    0.00765    0.00228
C6    1    0.299933    0.161541    0.265758    11.00000    0.02178    0.02365 =
         0.02332   -0.00655    0.00146    0.00030
AFIX  43
H6    2    0.164008    0.102934    0.234190    11.00000   -1.20000
AFIX   0
C7    1    0.393111    0.196777    0.163846    11.00000    0.02008    0.02352 =
         0.02203   -0.00570    0.00079    0.00025
C8    1    0.281739    0.135832    0.010475    11.00000    0.02209    0.02705 =
         0.02465   -0.00485    0.00033    0.00012
I1    3    0.790400    0.359586    0.687689    11.00000    0.02367    0.02750 =
         0.01457    0.00156    0.00421    0.00269
I2    3    0.258473    0.166263    0.567048    11.00000    0.02685    0.02590 =
         0.03441    0.00469    0.01942    0.00115
N1    4    0.769210    0.377983    0.026282    11.00000    0.05015    0.07313 =
         0.03898    0.00795    0.01659   -0.02262
N2    4    0.198403    0.089478   -0.114726    11.00000    0.02851    0.03986 =
         0.02615   -0.01158   -0.00461    0.00613
HKLF 4

REM  16gtu122_O_D_A_1a_a.res in P-1
REM R1 =  0.0586 for    1490 Fo > 4sig(Fo)  and  0.0617 for all    1629 data
REM    109 parameters refined using     24 restraints

END

WGHT      0.0000     39.8509

REM Instructions for potential hydrogen bonds
HTAB C6 N2_$1

REM Highest difference peak  3.116,  deepest hole -2.003,  1-sigma level  0.358
Q1    1   0.7892  0.5272  0.1936  11.00000  0.05    3.12
Q2    1   0.7781  0.2026  0.1785  11.00000  0.05    3.01
Q3    1   0.2204 -0.0374  0.3303  11.00000  0.05    2.57
Q4    1   0.2425  0.3163  0.0673  11.00000  0.05    2.44
Q5    1   0.2509 -0.0097  0.0592  11.00000  0.05    2.38
Q6    1   0.7549  0.5334  0.4417  11.00000  0.05    2.36
Q7    1   0.7538  0.1804  0.4512  11.00000  0.05    2.09
Q8    1   0.2141  0.3060  0.3010  11.00000  0.05    2.01
Q9    1   0.7467  0.3670 -0.0618  11.00000  0.05    1.97
Q10   1   0.2148  0.1210 -0.2018  11.00000  0.05    1.59
Q11   1   0.2618 -0.0448  0.5810  11.00000  0.05    1.49
Q12   1   0.6662  0.3559  0.6583  11.00000  0.05    1.24
Q13   1   0.2705  0.1290  0.0944  11.00000  0.05    1.23
Q14   1   0.7373  0.2217 -0.0629  11.00000  0.05    1.17
Q15   1   0.7271  0.4036  0.4472  11.00000  0.05    1.17
Q16   1   0.2192 -0.0495 -0.2127  11.00000  0.05    1.16
Q17   1   0.2648  0.2955  0.6016  11.00000  0.05    1.11
Q18   1   0.7937  0.3463  0.2147  11.00000  0.05    1.09
Q19   1   0.7434  0.5484 -0.0639  11.00000  0.05    1.08
Q20   1   0.3376  0.2341 -0.1522  11.00000  0.05    1.06
;
_shelx_res_checksum              66190
loop_
_space_group_symop_operation_xyz
'x, y, z'
'-x, -y, -z'
loop_
_atom_site_type_symbol
_atom_site_label
_atom_site_fract_x
_atom_site_fract_y
_atom_site_fract_z
_atom_site_U_iso_or_equiv
_atom_site_adp_type
_atom_site_calc_flag
_atom_site_refinement_flags_adp
_atom_site_refinement_flags_posn
_atom_site_occupancy
C C1 0.690(4) 0.332(3) 0.106(2) 0.047(5) Uani d U . 1
C C2 0.593(3) 0.285(2) 0.211(2) 0.024(4) Uani d . . 1
C C3 0.700(3) 0.334(2) 0.3591(18) 0.019(4) Uani d . . 1
H H3 0.8348 0.3938 0.39 0.023 Uiso calc U R 1
C C4 0.610(3) 0.295(2) 0.4645(19) 0.019(3) Uani d . . 1
C C5 0.411(3) 0.214(2) 0.4194(19) 0.019(3) Uani d . . 1
C C6 0.300(3) 0.162(2) 0.266(2) 0.025(3) Uani d U . 1
H H6 0.164 0.1029 0.2342 0.03 Uiso calc U R 1
C C7 0.393(3) 0.197(2) 0.164(2) 0.024(3) Uani d U . 1
C C8 0.282(3) 0.136(2) 0.010(2) 0.027(3) Uani d U . 1
I I1 0.79040(17) 0.35959(15) 0.68769(12) 0.0226(4) Uani d . . 1
I I2 0.25847(19) 0.16626(15) 0.56705(14) 0.0268(4) Uani d . . 1
N N1 0.769(3) 0.378(3) 0.026(2) 0.055(5) Uani d U . 1
N N2 0.198(3) 0.089(2) -0.1147(19) 0.036(4) Uani d U . 1
loop_
_atom_site_aniso_label
_atom_site_aniso_U_11
_atom_site_aniso_U_22
_atom_site_aniso_U_33
_atom_site_aniso_U_12
_atom_site_aniso_U_13
_atom_site_aniso_U_23
C1 0.046(10) 0.066(12) 0.026(9) -0.021(9) 0.013(8) 0.012(9)
C2 0.029(10) 0.020(8) 0.030(10) -0.006(7) 0.022(8) 0.001(7)
C3 0.026(9) 0.020(8) 0.013(8) 0.004(7) 0.010(7) -0.001(6)
C4 0.020(8) 0.019(8) 0.019(9) 0.005(7) 0.008(7) 0.002(7)
C5 0.020(8) 0.019(8) 0.020(9) 0.002(7) 0.008(7) 0.003(7)
C6 0.022(6) 0.024(6) 0.023(6) 0.000(5) 0.001(5) -0.007(5)
C7 0.020(5) 0.024(5) 0.022(6) 0.000(5) 0.001(5) -0.006(5)
C8 0.022(6) 0.027(6) 0.025(6) 0.000(5) 0.000(5) -0.005(5)
I1 0.0237(6) 0.0275(6) 0.0146(6) 0.0027(5) 0.0042(5) 0.0016(4)
I2 0.0269(7) 0.0259(6) 0.0344(7) 0.0011(5) 0.0194(5) 0.0047(5)
N1 0.050(10) 0.073(12) 0.039(9) -0.023(9) 0.017(8) 0.008(8)
N2 0.029(7) 0.040(8) 0.026(7) 0.006(6) -0.005(6) -0.012(6)
loop_
_atom_type_symbol
_atom_type_description
_atom_type_scat_dispersion_real
_atom_type_scat_dispersion_imag
_atom_type_scat_source
C C 0.0033 0.0016 'International Tables Vol C Tables 4.2.6.8 and 6.1.1.4'
H H 0.0000 0.0000 'International Tables Vol C Tables 4.2.6.8 and 6.1.1.4'
I I -0.4742 1.8119 'International Tables Vol C Tables 4.2.6.8 and 6.1.1.4'
N N 0.0061 0.0033 'International Tables Vol C Tables 4.2.6.8 and 6.1.1.4'
loop_
_geom_angle_atom_site_label_1
_geom_angle_atom_site_label_2
_geom_angle_atom_site_label_3
_geom_angle
N1 C1 C2 176.(3)
C3 C2 C7 120.6(17)
C3 C2 C1 118.3(17)
C7 C2 C1 121.0(18)
C2 C3 C4 120.3(16)
C2 C3 H3 119.8
C4 C3 H3 119.8
C5 C4 C3 119.9(16)
C5 C4 I1 122.2(13)
C3 C4 I1 117.8(12)
C4 C5 C6 119.9(16)
C4 C5 I2 122.6(13)
C6 C5 I2 117.5(13)
C7 C6 C5 119.2(16)
C7 C6 H6 120.4
C5 C6 H6 120.4
C6 C7 C2 120.0(16)
C6 C7 C8 118.1(16)
C2 C7 C8 121.9(18)
N2 C8 C7 177.(2)
loop_
_geom_bond_atom_site_label_1
_geom_bond_atom_site_label_2
_geom_bond_distance
C1 N1 1.15(3)
C1 C2 1.46(3)
C2 C3 1.37(3)
C2 C7 1.40(2)
C3 C4 1.40(2)
C3 H3 0.95
C4 C5 1.38(2)
C4 I1 2.087(17)
C5 C6 1.43(2)
C5 I2 2.085(17)
C6 C7 1.38(3)
C6 H6 0.95
C7 C8 1.44(2)
C8 N2 1.17(2)
loop_
_geom_hbond_atom_site_label_D
_geom_hbond_atom_site_label_H
_geom_hbond_atom_site_label_A
_geom_hbond_site_symmetry_A
_geom_hbond_distance_DH
_geom_hbond_distance_HA
_geom_hbond_distance_DA
_geom_hbond_angle_DHA
C6 H6 N2 2 0.95 2.66 3.60(2) 170.9
loop_
_geom_torsion_atom_site_label_1
_geom_torsion_atom_site_label_2
_geom_torsion_atom_site_label_3
_geom_torsion_atom_site_label_4
_geom_torsion
C7 C2 C3 C4 0.(3)
C1 C2 C3 C4 178.4(19)
C2 C3 C4 C5 -3.(3)
C2 C3 C4 I1 176.3(13)
C3 C4 C5 C6 4.(2)
I1 C4 C5 C6 -175.4(12)
C3 C4 C5 I2 -176.0(12)
I1 C4 C5 I2 5.(2)
C4 C5 C6 C7 -2.(3)
I2 C5 C6 C7 177.8(13)
C5 C6 C7 C2 -1.(3)
C5 C6 C7 C8 177.5(16)
C3 C2 C7 C6 2.(3)
C1 C2 C7 C6 -177.(2)
C3 C2 C7 C8 -176.5(17)
C1 C2 C7 C8 5.(3)
