#------------------------------------------------------------------------------
#$Date: 2018-06-14 18:06:48 +0300 (Thu, 14 Jun 2018) $
#$Revision: 208385 $
#$URL: file:///home/coder/svn-repositories/cod/cif/7/23/08/7230891.cif $
#------------------------------------------------------------------------------
#
# This file is available in the Crystallography Open Database (COD),
# http://www.crystallography.net/
#
# All data on this site have been placed in the public domain by the
# contributors.
#
data_7230891
loop_
_publ_author_name
'Mir, Sajjad Husain'
'Takasaki, Yuichi'
'Engel, Emile R.'
'Takamizawa, Satoshi'
_publ_section_title
;
 Enhancement of dissipated energy by large bending of an organic single
 crystal undergoing twinning deformation
;
_journal_issue                   39
_journal_name_full               'RSC Advances'
_journal_page_first              21933
_journal_paper_doi               10.1039/C8RA02499E
_journal_volume                  8
_journal_year                    2018
_chemical_formula_sum            'C8 H7 N O4'
_chemical_formula_weight         181.15
_space_group_crystal_system      triclinic
_space_group_IT_number           2
_space_group_name_Hall           '-P 1'
_space_group_name_H-M_alt        'P -1'
_symmetry_space_group_name_Hall  '-P 1'
_symmetry_space_group_name_H-M   'P -1'
_atom_sites_solution_hydrogens   geom
_audit_creation_method           SHELXL-2014/7
_audit_update_record
;
2018-03-20 deposited with the CCDC.
2018-06-10 downloaded from the CCDC.
;
_cell_angle_alpha                89.28(3)
_cell_angle_beta                 81.80(3)
_cell_angle_gamma                76.32(3)
_cell_formula_units_Z            4
_cell_length_a                   7.636(13)
_cell_length_b                   10.426(19)
_cell_length_c                   10.520(18)
_cell_measurement_reflns_used    859
_cell_measurement_temperature    298
_cell_measurement_theta_max      21.9785
_cell_measurement_theta_min      2.774
_cell_volume                     805(2)
_computing_structure_refinement  'SHELXL-2014/7 (Sheldrick, 2014)'
_diffrn_ambient_temperature      298
_diffrn_measured_fraction_theta_full 0.969
_diffrn_measured_fraction_theta_max 0.969
_diffrn_measurement_device_type  'Bruker SMART Breeze'
_diffrn_radiation_type           MoK\a
_diffrn_radiation_wavelength     0.71073
_diffrn_reflns_av_R_equivalents  0.0488
_diffrn_reflns_av_unetI/netI     0.0999
_diffrn_reflns_Laue_measured_fraction_full 0.969
_diffrn_reflns_Laue_measured_fraction_max 0.969
_diffrn_reflns_limit_h_max       9
_diffrn_reflns_limit_h_min       -9
_diffrn_reflns_limit_k_max       12
_diffrn_reflns_limit_k_min       -6
_diffrn_reflns_limit_l_max       12
_diffrn_reflns_limit_l_min       -11
_diffrn_reflns_number            3821
_diffrn_reflns_point_group_measured_fraction_full 0.969
_diffrn_reflns_point_group_measured_fraction_max 0.969
_diffrn_reflns_theta_full        25.025
_diffrn_reflns_theta_max         25.025
_diffrn_reflns_theta_min         1.956
_exptl_absorpt_coefficient_mu    0.122
_exptl_absorpt_correction_type   multi-scan
_exptl_crystal_colour            colorless
_exptl_crystal_density_diffrn    1.494
_exptl_crystal_description       rod
_exptl_crystal_F_000             376
_exptl_crystal_size_max          0.269
_exptl_crystal_size_mid          0.215
_exptl_crystal_size_min          0.120
_exptl_transmission_factor_max   0.7454
_exptl_transmission_factor_min   0.5913
_refine_diff_density_max         0.428
_refine_diff_density_min         -0.447
_refine_diff_density_rms         0.121
_refine_ls_extinction_method     none
_refine_ls_goodness_of_fit_ref   1.161
_refine_ls_hydrogen_treatment    constr
_refine_ls_matrix_type           full
_refine_ls_number_parameters     237
_refine_ls_number_reflns         2769
_refine_ls_number_restraints     0
_refine_ls_restrained_S_all      1.161
_refine_ls_R_factor_all          0.1523
_refine_ls_R_factor_gt           0.1016
_refine_ls_shift/su_max          0.000
_refine_ls_shift/su_mean         0.000
_refine_ls_structure_factor_coef Fsqd
_refine_ls_weighting_details
'w=1/[\s^2^(Fo^2^)+(0.2000P)^2^] where P=(Fo^2^+2Fc^2^)/3'
_refine_ls_weighting_scheme      calc
_refine_ls_wR_factor_gt          0.3201
_refine_ls_wR_factor_ref         0.3546
_reflns_Friedel_coverage         0.000
_reflns_number_gt                1500
_reflns_number_total             2769
_reflns_threshold_expression     'I > 2\s(I)'
_cod_data_source_file            c8ra02499e3.cif
_cod_data_source_block           twinned
_cod_database_code               7230891
_shelx_shelxl_version_number     2014/7
_shelx_space_group_comment
;
The symmetry employed for this shelxl refinement is uniquely defined
by the following loop, which should always be used as a source of
symmetry information in preference to the above space-group names.
They are only intended as comments.
;
_shelx_res_file
;

    h0623t1_0_a.res created by SHELXL-2014/7

TITL h0623t1_0_a.res in P-1
CELL  0.71073   7.6359  10.4257  10.5202   89.280   81.801   76.324
ZERR    4.000   0.0131   0.0187   0.0181    0.030    0.026    0.026
LATT 1
SFAC C  H  N  O
UNIT 32  28  4  16
L.S. 10
ACTA
BOND $H
FMAP 2
PLAN 20
TEMP 25.000
WGHT    0.200000
FVAR       0.47261
O5    4    0.721103    0.479315    0.431806    11.00000    0.04427    0.09296 =
         0.03893   -0.01954    0.00565   -0.02283
AFIX  83
H5    2    0.639639    0.503654    0.492261    11.00000   -1.50000
AFIX   0
O6    4    0.481595    0.469137    0.340720    11.00000    0.03566    0.10404 =
         0.04466   -0.02538    0.00556   -0.01713
O1    4    0.326335    0.983510    0.925002    11.00000    0.04849    0.11263 =
         0.04296   -0.02414   -0.00062   -0.01900
O3    4    0.879768    0.775927    0.439151    11.00000    0.04538    0.09025 =
         0.05285   -0.01372    0.00373   -0.01443
O2    4    0.619078    0.942059    0.850161    11.00000    0.04741    0.13385 =
         0.04559   -0.03672   -0.00701   -0.01847
AFIX  83
H2    2    0.623533    0.966130    0.923292    11.00000   -1.50000
AFIX   0
O4    4    0.716443    0.755625    0.292882    11.00000    0.07827    0.09975 =
         0.03319   -0.02400    0.00578   -0.02229
N1    3    0.732095    0.781449    0.403642    11.00000    0.04845    0.05491 =
         0.03751   -0.00918    0.00229   -0.01117
O8    4    0.769343    0.250751   -0.200777    11.00000    0.08173    0.12812 =
         0.04444   -0.04417   -0.00202   -0.01300
N2    3    0.681284    0.291552   -0.098439    11.00000    0.05799    0.07464 =
         0.03616   -0.01504   -0.00954   -0.00760
O7    4    0.516530    0.301369   -0.072460    11.00000    0.05785    0.14913 =
         0.06647   -0.02863   -0.01468   -0.02309
C5    1    0.564213    0.822628    0.497530    11.00000    0.04370    0.03846 =
         0.03317   -0.00529   -0.00127   -0.01189
C15   1    0.654287    0.456886    0.336601    11.00000    0.03317    0.04767 =
         0.03758   -0.00598   -0.00355   -0.00761
C10   1    0.960612    0.398289    0.190526    11.00000    0.03502    0.04330 =
         0.04022   -0.00095    0.00042   -0.01037
C9    1    0.769428    0.411319    0.212800    11.00000    0.03232    0.04206 =
         0.03519   -0.00052   -0.00197   -0.00524
C7    1    0.453313    0.946491    0.837216    11.00000    0.03488    0.05831 =
         0.03175   -0.00725   -0.00045   -0.01149
C13   1    0.778051    0.329832    0.000673    11.00000    0.04703    0.04749 =
         0.03972   -0.00476   -0.00736   -0.00833
C1    1    0.426332    0.904747    0.707168    11.00000    0.03906    0.04184 =
         0.03067   -0.00067   -0.00596   -0.01443
C2    1    0.252201    0.906411    0.673234    11.00000    0.03626    0.04563 =
         0.04156    0.00274   -0.00454   -0.01690
C6    1    0.580837    0.862030    0.618264    11.00000    0.03848    0.04536 =
         0.03623   -0.00612   -0.00802   -0.01099
AFIX  43
H6    2    0.695209    0.860027    0.640169    11.00000   -1.20000
AFIX   0
C14   1    0.680682    0.376796    0.115583    11.00000    0.03311    0.05217 =
         0.03954   -0.00788   -0.00090   -0.00498
AFIX  43
H14   2    0.555250    0.386019    0.129695    11.00000   -1.20000
AFIX   0
C12   1    0.964539    0.313248   -0.024836    11.00000    0.04866    0.05579 =
         0.03757   -0.00521    0.00687   -0.00950
AFIX  43
H12   2    1.029083    0.279827   -0.103875    11.00000   -1.20000
AFIX   0
C11   1    1.051453    0.347660    0.070160    11.00000    0.03272    0.05201 =
         0.05258   -0.00155    0.00446   -0.00723
AFIX  43
H11   2    1.177093    0.336804    0.053766    11.00000   -1.20000
AFIX   0
C3    1    0.247495    0.864235    0.550488    11.00000    0.04067    0.05681 =
         0.05346    0.00053   -0.01432   -0.01909
AFIX  43
H3    2    0.134807    0.863826    0.526871    11.00000   -1.20000
AFIX   0
C8    1    0.074610    0.953644    0.762384    11.00000    0.03533    0.06599 =
         0.06541   -0.00243   -0.00463   -0.01507
AFIX 137
H8A   2    0.056718    1.045862    0.782273    11.00000   -1.50000
H8B   2    0.078863    0.904611    0.840190    11.00000   -1.50000
H8C   2   -0.024310    0.940395    0.721193    11.00000   -1.50000
AFIX   0
C4    1    0.400181    0.822652    0.460788    11.00000    0.05812    0.05475 =
         0.04225   -0.00235   -0.01114   -0.01716
AFIX  43
H4    2    0.391698    0.795663    0.378425    11.00000   -1.20000
AFIX   0
C16   1    1.067308    0.435241    0.287081    11.00000    0.04200    0.07316 =
         0.05377   -0.01036   -0.00832   -0.01583
AFIX 137
H16A  2    1.194670    0.412093    0.253592    11.00000   -1.50000
H16B  2    1.046529    0.388726    0.365000    11.00000   -1.50000
H16C  2    1.029187    0.528614    0.304608    11.00000   -1.50000
AFIX   0
HKLF 4

REM  h0623t1_0_a.res in P-1
REM R1 =  0.1016 for    1500 Fo > 4sig(Fo)  and  0.1523 for all    2769 data
REM    237 parameters refined using      0 restraints

END

WGHT      0.2000      0.0000

REM Highest difference peak  0.428,  deepest hole -0.447,  1-sigma level  0.121
Q1    1   0.5311  1.0363  0.8340  11.00000  0.05    0.43
Q2    1   0.5552  0.8765  0.9230  11.00000  0.05    0.42
Q3    1   0.0587  0.8158  0.5712  11.00000  0.05    0.42
Q4    1   1.1187  0.4270  0.0455  11.00000  0.05    0.41
Q5    1   0.7285  0.8688  0.5217  11.00000  0.05    0.39
Q6    1   0.1829  1.0175  0.5202  11.00000  0.05    0.39
Q7    1   0.6564  0.2372  0.0616  11.00000  0.05    0.37
Q8    1   0.5021  0.4598  0.3862  11.00000  0.05    0.36
Q9    1   0.6210  0.6744  0.2941  11.00000  0.05    0.36
Q10   1   0.6515  0.4253 -0.0199  11.00000  0.05    0.36
Q11   1   1.1558  0.5082  0.3330  11.00000  0.05    0.35
Q12   1   0.7605  0.3873 -0.1344  11.00000  0.05    0.34
Q13   1   0.7208  0.3189 -0.2443  11.00000  0.05    0.34
Q14   1   0.7706  0.1688 -0.2445  11.00000  0.05    0.33
Q15   1   1.0949  0.3761  0.3885  11.00000  0.05    0.33
Q16   1   0.5725  0.2846  0.0564  11.00000  0.05    0.33
Q17   1   0.6125  0.1677 -0.2189  11.00000  0.05    0.33
Q18   1   0.5826  1.0613  0.9586  11.00000  0.05    0.33
Q19   1   0.5311  0.5645  0.3062  11.00000  0.05    0.32
Q20   1   0.7850  0.1866 -0.0346  11.00000  0.05    0.32
;
_shelx_res_checksum              5991
loop_
_space_group_symop_operation_xyz
'x, y, z'
'-x, -y, -z'
loop_
_atom_site_label
_atom_site_type_symbol
_atom_site_fract_x
_atom_site_fract_y
_atom_site_fract_z
_atom_site_U_iso_or_equiv
_atom_site_adp_type
_atom_site_occupancy
_atom_site_site_symmetry_order
_atom_site_calc_flag
_atom_site_refinement_flags_posn
_atom_site_refinement_flags_adp
O5 O 0.7211(6) 0.4793(5) 0.4318(4) 0.0586(13) Uani 1 1 d . .
H5 H 0.6396 0.5037 0.4923 0.088 Uiso 1 1 calc R U
O6 O 0.4816(5) 0.4691(5) 0.3407(4) 0.0623(14) Uani 1 1 d . .
O1 O 0.3263(6) 0.9835(5) 0.9250(4) 0.0684(15) Uani 1 1 d . .
O3 O 0.8798(6) 0.7759(5) 0.4392(4) 0.0641(14) Uani 1 1 d . .
O2 O 0.6191(6) 0.9421(6) 0.8502(4) 0.0758(17) Uani 1 1 d . .
H2 H 0.6235 0.9661 0.9233 0.114 Uiso 1 1 calc R U
O4 O 0.7164(7) 0.7556(5) 0.2929(4) 0.0714(15) Uani 1 1 d . .
N1 N 0.7321(7) 0.7814(5) 0.4036(5) 0.0479(13) Uani 1 1 d . .
O8 O 0.7693(7) 0.2508(6) -0.2008(4) 0.0871(19) Uani 1 1 d . .
N2 N 0.6813(8) 0.2916(6) -0.0984(5) 0.0572(15) Uani 1 1 d . .
O7 O 0.5165(7) 0.3014(6) -0.0725(5) 0.0905(19) Uani 1 1 d . .
C5 C 0.5642(8) 0.8226(5) 0.4975(5) 0.0385(13) Uani 1 1 d . .
C15 C 0.6543(7) 0.4569(6) 0.3366(5) 0.0399(14) Uani 1 1 d . .
C10 C 0.9606(7) 0.3983(6) 0.1905(5) 0.0399(14) Uani 1 1 d . .
C9 C 0.7694(7) 0.4113(5) 0.2128(5) 0.0374(13) Uani 1 1 d . .
C7 C 0.4533(8) 0.9465(6) 0.8372(5) 0.0419(15) Uani 1 1 d . .
C13 C 0.7781(8) 0.3298(6) 0.0007(5) 0.0451(15) Uani 1 1 d . .
C1 C 0.4263(7) 0.9047(5) 0.7072(5) 0.0363(13) Uani 1 1 d . .
C2 C 0.2522(7) 0.9064(6) 0.6732(5) 0.0401(14) Uani 1 1 d . .
C6 C 0.5808(8) 0.8620(5) 0.6183(5) 0.0395(14) Uani 1 1 d . .
H6 H 0.6952 0.8600 0.6402 0.047 Uiso 1 1 calc R U
C14 C 0.6807(8) 0.3768(6) 0.1156(5) 0.0428(15) Uani 1 1 d . .
H14 H 0.5552 0.3860 0.1297 0.051 Uiso 1 1 calc R U
C12 C 0.9645(8) 0.3132(6) -0.0248(5) 0.0491(16) Uani 1 1 d . .
H12 H 1.0291 0.2798 -0.1039 0.059 Uiso 1 1 calc R U
C11 C 1.0515(8) 0.3477(6) 0.0702(5) 0.0473(16) Uani 1 1 d . .
H11 H 1.1771 0.3368 0.0538 0.057 Uiso 1 1 calc R U
C3 C 0.2475(8) 0.8642(6) 0.5505(6) 0.0483(16) Uani 1 1 d . .
H3 H 0.1348 0.8638 0.5269 0.058 Uiso 1 1 calc R U
C8 C 0.0746(8) 0.9536(7) 0.7624(6) 0.0553(17) Uani 1 1 d . .
H8A H 0.0567 1.0459 0.7823 0.083 Uiso 1 1 calc R U
H8B H 0.0789 0.9046 0.8402 0.083 Uiso 1 1 calc R U
H8C H -0.0243 0.9404 0.7212 0.083 Uiso 1 1 calc R U
C4 C 0.4002(9) 0.8227(6) 0.4608(6) 0.0506(16) Uani 1 1 d . .
H4 H 0.3917 0.7957 0.3784 0.061 Uiso 1 1 calc R U
C16 C 1.0673(9) 0.4352(7) 0.2871(6) 0.0557(17) Uani 1 1 d . .
H16A H 1.1947 0.4121 0.2536 0.084 Uiso 1 1 calc R U
H16B H 1.0465 0.3887 0.3650 0.084 Uiso 1 1 calc R U
H16C H 1.0292 0.5286 0.3046 0.084 Uiso 1 1 calc R U
loop_
_atom_site_aniso_label
_atom_site_aniso_U_11
_atom_site_aniso_U_22
_atom_site_aniso_U_33
_atom_site_aniso_U_23
_atom_site_aniso_U_13
_atom_site_aniso_U_12
O5 0.044(2) 0.093(3) 0.039(2) -0.020(2) 0.006(2) -0.023(2)
O6 0.036(2) 0.104(4) 0.045(2) -0.025(2) 0.0056(19) -0.017(2)
O1 0.048(3) 0.113(4) 0.043(2) -0.024(3) -0.001(2) -0.019(3)
O3 0.045(3) 0.090(4) 0.053(3) -0.014(2) 0.004(2) -0.014(2)
O2 0.047(3) 0.134(5) 0.046(3) -0.037(3) -0.007(2) -0.018(3)
O4 0.078(3) 0.100(4) 0.033(2) -0.024(2) 0.006(2) -0.022(3)
N1 0.048(3) 0.055(3) 0.038(3) -0.009(2) 0.002(2) -0.011(2)
O8 0.082(4) 0.128(5) 0.044(3) -0.044(3) -0.002(3) -0.013(3)
N2 0.058(4) 0.075(4) 0.036(3) -0.015(3) -0.010(3) -0.008(3)
O7 0.058(3) 0.149(6) 0.066(3) -0.029(3) -0.015(3) -0.023(3)
C5 0.044(3) 0.038(3) 0.033(3) -0.005(2) -0.001(3) -0.012(3)
C15 0.033(3) 0.048(3) 0.038(3) -0.006(3) -0.004(3) -0.008(3)
C10 0.035(3) 0.043(3) 0.040(3) -0.001(3) 0.000(3) -0.010(3)
C9 0.032(3) 0.042(3) 0.035(3) -0.001(3) -0.002(2) -0.005(2)
C7 0.035(3) 0.058(4) 0.032(3) -0.007(3) 0.000(3) -0.011(3)
C13 0.047(4) 0.047(4) 0.040(3) -0.005(3) -0.007(3) -0.008(3)
C1 0.039(3) 0.042(3) 0.031(3) -0.001(2) -0.006(2) -0.014(3)
C2 0.036(3) 0.046(3) 0.042(3) 0.003(3) -0.005(3) -0.017(3)
C6 0.038(3) 0.045(3) 0.036(3) -0.006(3) -0.008(3) -0.011(3)
C14 0.033(3) 0.052(4) 0.040(3) -0.008(3) -0.001(3) -0.005(3)
C12 0.049(4) 0.056(4) 0.038(3) -0.005(3) 0.007(3) -0.010(3)
C11 0.033(3) 0.052(4) 0.053(4) -0.002(3) 0.004(3) -0.007(3)
C3 0.041(3) 0.057(4) 0.053(4) 0.001(3) -0.014(3) -0.019(3)
C8 0.035(3) 0.066(4) 0.065(4) -0.002(4) -0.005(3) -0.015(3)
C4 0.058(4) 0.055(4) 0.042(3) -0.002(3) -0.011(3) -0.017(3)
C16 0.042(3) 0.073(5) 0.054(4) -0.010(3) -0.008(3) -0.016(3)
loop_
_atom_type_symbol
_atom_type_description
_atom_type_scat_dispersion_real
_atom_type_scat_dispersion_imag
_atom_type_scat_source
C C 0.0033 0.0016 'International Tables Vol C Tables 4.2.6.8 and 6.1.1.4'
H H 0.0000 0.0000 'International Tables Vol C Tables 4.2.6.8 and 6.1.1.4'
N N 0.0061 0.0033 'International Tables Vol C Tables 4.2.6.8 and 6.1.1.4'
O O 0.0106 0.0060 'International Tables Vol C Tables 4.2.6.8 and 6.1.1.4'
loop_
_geom_angle_atom_site_label_1
_geom_angle_atom_site_label_2
_geom_angle_atom_site_label_3
_geom_angle
C15 O5 H5 109.5
C7 O2 H2 109.5
O3 N1 O4 123.0(5)
O3 N1 C5 118.9(5)
O4 N1 C5 118.1(5)
O8 N2 O7 123.7(6)
O8 N2 C13 117.9(6)
O7 N2 C13 118.4(5)
C4 C5 C6 122.6(5)
C4 C5 N1 119.4(5)
C6 C5 N1 118.0(5)
O5 C15 O6 121.9(5)
O5 C15 C9 121.5(5)
O6 C15 C9 116.6(5)
C11 C10 C9 116.8(5)
C11 C10 C16 119.3(5)
C9 C10 C16 124.0(5)
C14 C9 C10 119.9(5)
C14 C9 C15 116.4(5)
C10 C9 C15 123.7(5)
O1 C7 O2 122.3(5)
O1 C7 C1 122.8(5)
O2 C7 C1 114.8(5)
C14 C13 C12 122.4(5)
C14 C13 N2 118.5(5)
C12 C13 N2 119.1(5)
C6 C1 C2 119.9(5)
C6 C1 C7 117.0(5)
C2 C1 C7 123.1(5)
C3 C2 C1 117.0(5)
C3 C2 C8 119.0(5)
C1 C2 C8 124.1(5)
C5 C6 C1 119.5(5)
C5 C6 H6 120.2
C1 C6 H6 120.2
C13 C14 C9 119.8(5)
C13 C14 H14 120.1
C9 C14 H14 120.1
C11 C12 C13 117.8(5)
C11 C12 H12 121.1
C13 C12 H12 121.1
C12 C11 C10 123.3(6)
C12 C11 H11 118.4
C10 C11 H11 118.4
C4 C3 C2 123.7(5)
C4 C3 H3 118.1
C2 C3 H3 118.1
C2 C8 H8A 109.5
C2 C8 H8B 109.5
H8A C8 H8B 109.5
C2 C8 H8C 109.5
H8A C8 H8C 109.5
H8B C8 H8C 109.5
C5 C4 C3 117.3(6)
C5 C4 H4 121.3
C3 C4 H4 121.3
C10 C16 H16A 109.5
C10 C16 H16B 109.5
H16A C16 H16B 109.5
C10 C16 H16C 109.5
H16A C16 H16C 109.5
H16B C16 H16C 109.5
loop_
_geom_bond_atom_site_label_1
_geom_bond_atom_site_label_2
_geom_bond_distance
O5 C15 1.235(7)
O5 H5 0.8200
O6 C15 1.289(7)
O1 C7 1.232(7)
O3 N1 1.226(7)
O2 C7 1.282(7)
O2 H2 0.8200
O4 N1 1.228(6)
N1 C5 1.481(8)
O8 N2 1.209(7)
N2 O7 1.229(7)
N2 C13 1.470(8)
C5 C4 1.362(9)
C5 C6 1.372(8)
C15 C9 1.479(8)
C10 C11 1.399(8)
C10 C9 1.419(8)
C10 C16 1.496(8)
C9 C14 1.399(8)
C7 C1 1.497(8)
C13 C14 1.357(8)
C13 C12 1.380(9)
C1 C6 1.383(8)
C1 C2 1.421(8)
C2 C3 1.377(8)
C2 C8 1.515(8)
C6 H6 0.9300
C14 H14 0.9300
C12 C11 1.371(8)
C12 H12 0.9300
C11 H11 0.9300
C3 C4 1.377(9)
C3 H3 0.9300
C8 H8A 0.9600
C8 H8B 0.9600
C8 H8C 0.9600
C4 H4 0.9300
C16 H16A 0.9600
C16 H16B 0.9600
C16 H16C 0.9600
