#------------------------------------------------------------------------------
#$Date: 2019-11-17 13:18:41 +0200 (Sun, 17 Nov 2019) $
#$Revision: 230113 $
#$URL: file:///home/coder/svn-repositories/cod/cif/7/23/09/7230904.cif $
#------------------------------------------------------------------------------
#
# This file is available in the Crystallography Open Database (COD),
# http://www.crystallography.net/
#
# All data on this site have been placed in the public domain by the
# contributors.
#
data_7230904
loop_
_publ_author_name
'Senadi, Gopal Chandru'
'Wang, Jeh-Jeng'
_publ_section_title
;
 p-TsOH promoted synthesis of benzo-fused O-heterocycles from
 alkynolsviaring contraction and C--O scission strategy
;
_journal_issue                   15
_journal_name_full               'Green Chemistry'
_journal_page_first              3420
_journal_paper_doi               10.1039/C8GC00749G
_journal_volume                  20
_journal_year                    2018
_chemical_formula_moiety         'C19 H16 O2'
_chemical_formula_sum            'C19 H16 O2'
_chemical_formula_weight         276.32
_space_group_crystal_system      triclinic
_space_group_IT_number           2
_space_group_name_Hall           '-P 1'
_space_group_name_H-M_alt        'P -1'
_symmetry_cell_setting           triclinic
_symmetry_space_group_name_Hall  '-P 1'
_symmetry_space_group_name_H-M   'P -1'
_atom_sites_solution_hydrogens   geom
_audit_creation_method           SHELXL-2014/7
_audit_update_record
;
2018-01-03 deposited with the CCDC.
2018-06-18 downloaded from the CCDC.
;
_cell_angle_alpha                104.198(14)
_cell_angle_beta                 100.779(12)
_cell_angle_gamma                97.652(12)
_cell_formula_units_Z            2
_cell_length_a                   6.3828(8)
_cell_length_b                   10.3101(16)
_cell_length_c                   11.896(2)
_cell_measurement_reflns_used    809
_cell_measurement_temperature    297(2)
_cell_measurement_theta_max      22.9470
_cell_measurement_theta_min      3.5330
_cell_volume                     732.2(2)
_computing_cell_refinement
; 
CrysAlis RED, Oxford Diffraction Ltd., 
Version 1.171.32.29 (release 10-06-2008 CrysAlis171 .NET) 
(compiled Jun 10 2008,16:49:55) 
;
_computing_data_collection
; 
CrysAlis CCD, Oxford Diffraction Ltd., 
Version 1.171.32.29 (release 10-06-2008 CrysAlis171 .NET) 
(compiled Jun 10 2008,16:49:55) 
;
_computing_data_reduction
; 
CrysAlis RED, Oxford Diffraction Ltd., 
Version 1.171.32.29 (release 10-06-2008 CrysAlis171 .NET) 
(compiled Jun 10 2008,16:49:55) 
;
_computing_molecular_graphics    'Bruker SHELXTL'
_computing_publication_material  'Bruker SHELXTL'
_computing_structure_refinement  'SHELXL-2014/7 (Sheldrick, 2014)'
_computing_structure_solution    'SHELXS-97 (Sheldrick 2008)'
_diffrn_ambient_temperature      297(2)
_diffrn_measured_fraction_theta_full 0.999
_diffrn_measured_fraction_theta_max 0.843
_diffrn_measurement_device_type  'CCD detector'
_diffrn_measurement_method       '\w scans'
_diffrn_radiation_probe          x-ray
_diffrn_radiation_type           MoK\a
_diffrn_radiation_wavelength     0.71073
_diffrn_reflns_av_R_equivalents  0.0253
_diffrn_reflns_av_unetI/netI     0.0708
_diffrn_reflns_Laue_measured_fraction_full 0.999
_diffrn_reflns_Laue_measured_fraction_max 0.843
_diffrn_reflns_limit_h_max       8
_diffrn_reflns_limit_h_min       -8
_diffrn_reflns_limit_k_max       13
_diffrn_reflns_limit_k_min       -14
_diffrn_reflns_limit_l_max       15
_diffrn_reflns_limit_l_min       -14
_diffrn_reflns_number            5260
_diffrn_reflns_point_group_measured_fraction_full 0.999
_diffrn_reflns_point_group_measured_fraction_max 0.843
_diffrn_reflns_theta_full        25.242
_diffrn_reflns_theta_max         29.156
_diffrn_reflns_theta_min         3.113
_exptl_absorpt_coefficient_mu    0.080
_exptl_absorpt_correction_T_max  1.00000
_exptl_absorpt_correction_T_min  0.92914
_exptl_absorpt_correction_type   multi-scan
_exptl_absorpt_process_details
; 
CrysAlisPro, Agilent Technologies, 
Version 1.171.36.24 (release 03-12-2012 CrysAlis171 .NET) 
(compiled Dec  3 2012,18:21:49) 
Empirical absorption correction using spherical harmonics, 
 implemented in SCALE3 ABSPACK scaling algorithm. 
;
_exptl_crystal_colour            yellow
_exptl_crystal_density_diffrn    1.253
_exptl_crystal_description       parallelepiped
_exptl_crystal_F_000             292
_exptl_crystal_size_max          0.63
_exptl_crystal_size_mid          0.43
_exptl_crystal_size_min          0.20
_refine_diff_density_max         0.153
_refine_diff_density_min         -0.201
_refine_diff_density_rms         0.044
_refine_ls_extinction_method     none
_refine_ls_goodness_of_fit_ref   0.867
_refine_ls_hydrogen_treatment    constr
_refine_ls_matrix_type           full
_refine_ls_number_parameters     191
_refine_ls_number_reflns         3328
_refine_ls_number_restraints     0
_refine_ls_restrained_S_all      0.867
_refine_ls_R_factor_all          0.1215
_refine_ls_R_factor_gt           0.0636
_refine_ls_shift/su_max          0.000
_refine_ls_shift/su_mean         0.000
_refine_ls_structure_factor_coef Fsqd
_refine_ls_weighting_details
'w=1/[\s^2^(Fo^2^)+(0.1743P)^2^] where P=(Fo^2^+2Fc^2^)/3'
_refine_ls_weighting_scheme      calc
_refine_ls_wR_factor_gt          0.1820
_refine_ls_wR_factor_ref         0.2617
_reflns_Friedel_coverage         0.000
_reflns_number_gt                1834
_reflns_number_total             3328
_reflns_threshold_expression     'I > 2\s(I)'
_cod_data_source_file            c8gc00749g2.cif
_cod_data_source_block           pmeint
_cod_depositor_comments
;
The following automatic conversions were performed:

'_symmetry_cell_setting' value 'Triclinic' changed to 'triclinic'
according to
/home/data/users/saulius/crontab/automatic-downloads/rss-feeds/RSC/lib/dictionaries/cif_core.dic
dictionary named 'cif_core.dic' version 2.4.2 from 2011-04-26.

Automatic conversion script
Id: cif_fix_values 4973 2017-02-22 13:04:09Z antanas 

 Adding full bibliography for 7230903--7230905.cif.
;
_cod_original_sg_symbol_H-M      P-1
_cod_database_code               7230904
_shelx_shelxl_version_number     2014/7
_shelx_space_group_comment
; 
The symmetry employed for this shelxl refinement is uniquely defined 
by the following loop, which should always be used as a source of 
symmetry information in preference to the above space-group names. 
They are only intended as comments. 
;
_shelx_res_file
; 
  
    pmeint.res created by SHELXL-2014/7 
  
TITL pmeint in P-1 
CELL 0.71073   6.38277  10.31009  11.89587 104.1984 100.7790  97.6522 
ZERR    2.00   0.00080   0.00161   0.00197   0.0139   0.0122   0.0116 
LATT 1 
SFAC C  H  O 
UNIT 38  32  4 
L.S. 8 
ACTA 
BOND 
FMAP 2 
PLAN 0 
TEMP 24 
WGHT    0.174300 
FVAR       0.30436 
O1    3    0.199986    0.431403    0.725085    11.00000    0.04326    0.04567 = 
         0.05573    0.01584    0.01262    0.01685 
O2    3   -0.298501    0.473966    0.892711    11.00000    0.06522    0.05534 = 
         0.05935    0.01674    0.03393    0.01667 
C1    1   -0.003053    0.352555    0.666175    11.00000    0.04420    0.04092 = 
         0.04607    0.01959    0.01418    0.01731 
C2    1   -0.022225    0.248138    0.565018    11.00000    0.06046    0.04912 = 
         0.05292    0.01610    0.02461    0.02225 
AFIX  43 
H2    2    0.097248    0.236531    0.531874    11.00000   -1.20000 
AFIX   0 
C3    1   -0.218683    0.160762    0.512860    11.00000    0.07368    0.04465 = 
         0.05219    0.00932    0.01978    0.01291 
AFIX  43 
H3    2   -0.231250    0.089981    0.444790    11.00000   -1.20000 
AFIX   0 
C4    1   -0.396771    0.178116    0.561459    11.00000    0.05852    0.03976 = 
         0.07033    0.01069    0.01348    0.00772 
AFIX  43 
H4    2   -0.529251    0.119286    0.526157    11.00000   -1.20000 
AFIX   0 
C5    1   -0.377346    0.283104    0.662616    11.00000    0.04756    0.04263 = 
         0.06620    0.01510    0.02240    0.01256 
AFIX  43 
H5    2   -0.497465    0.293832    0.695357    11.00000   -1.20000 
AFIX   0 
C6    1   -0.182142    0.372901    0.716368    11.00000    0.04826    0.04036 = 
         0.04825    0.01858    0.01811    0.01615 
C7    1   -0.158469    0.488455    0.819774    11.00000    0.04310    0.05006 = 
         0.04394    0.01924    0.01896    0.01894 
C8    1   -0.272006    0.606876    0.976410    11.00000    0.07051    0.05652 = 
         0.04621    0.01586    0.02885    0.02329 
AFIX  23 
H8A   2   -0.252464    0.598802    1.057094    11.00000   -1.20000 
H8B   2   -0.399575    0.646639    0.959141    11.00000   -1.20000 
AFIX   0 
C9    1   -0.073072    0.695888    0.963595    11.00000    0.06820    0.05555 = 
         0.04808    0.01001    0.02282    0.01995 
AFIX  23 
H9A   2   -0.103992    0.782925    0.954763    11.00000   -1.20000 
H9B   2    0.047862    0.711312    1.031244    11.00000   -1.20000 
AFIX   0 
C10   1   -0.027759    0.610164    0.850535    11.00000    0.04832    0.04579 = 
         0.04145    0.01272    0.01382    0.01747 
C11   1    0.127726    0.654741    0.784891    11.00000    0.04450    0.04760 = 
         0.04275    0.01489    0.00992    0.01209 
C12   1    0.225889    0.567756    0.719937    11.00000    0.03910    0.04565 = 
         0.04778    0.01400    0.01069    0.01192 
C13   1    0.369137    0.592660    0.639432    11.00000    0.05478    0.07093 = 
         0.07157    0.03063    0.03369    0.02189 
AFIX 137 
H13A  2    0.383209    0.685991    0.637735    11.00000   -1.50000 
H13B  2    0.307068    0.534066    0.560547    11.00000   -1.50000 
H13C  2    0.509750    0.574023    0.667963    11.00000   -1.50000 
AFIX   0 
C14   1    0.165503    0.803156    0.789860    11.00000    0.05430    0.04393 = 
         0.04140    0.01117    0.01564    0.01100 
C15   1   -0.009551    0.863567    0.754058    11.00000    0.06298    0.05509 = 
         0.06361    0.02155    0.02583    0.02039 
AFIX  43 
H15   2   -0.148859    0.811287    0.727112    11.00000   -1.20000 
AFIX   0 
C16   1    0.022095    1.000198    0.758257    11.00000    0.09073    0.06196 = 
         0.07289    0.02798    0.03887    0.03322 
AFIX  43 
H16   2   -0.096022    1.038772    0.733947    11.00000   -1.20000 
AFIX   0 
C17   1    0.224824    1.078839    0.797702    11.00000    0.12110    0.04314 = 
         0.06558    0.01236    0.04301    0.02173 
AFIX  43 
H17   2    0.244670    1.170608    0.800221    11.00000   -1.20000 
AFIX   0 
C18   1    0.398521    1.022651    0.833470    11.00000    0.08795    0.06207 = 
         0.06730    0.00965    0.01889   -0.01358 
AFIX  43 
H18   2    0.536870    1.076237    0.859984    11.00000   -1.20000 
AFIX   0 
C19   1    0.369556    0.884808    0.830462    11.00000    0.06214    0.06550 = 
         0.06084    0.01801    0.00899    0.00576 
AFIX  43 
H19   2    0.488728    0.847751    0.856025    11.00000   -1.20000 
AFIX   0 
HKLF 4 
  
REM  pmeint in P-1 
REM R1 =  0.0636 for    1834 Fo > 4sig(Fo)  and  0.1215 for all    3328 data 
REM    191 parameters refined using      0 restraints 
  
END 
  
WGHT      0.0606      0.0228 
  
REM Highest difference peak  0.153,  deepest hole -0.201,  1-sigma level  0.044 
Q1    1  -0.1109  0.5587  1.1133  11.00000  0.05    0.14 
Q2    1  -0.0226  0.6609  0.9143  11.00000  0.05    0.14 
Q3    1  -0.0328  1.1834  0.8253  11.00000  0.05    0.14 
Q4    1  -0.2456  0.5452  1.0542  11.00000  0.05    0.13 
Q5    1   0.1818  0.3560  0.4244  11.00000  0.05    0.13 
Q6    1   0.5256  0.6768  0.5566  11.00000  0.05    0.13 
Q7    1  -0.4110  0.1423  0.6589  11.00000  0.05    0.13 
Q8    1   0.0494  0.3967  0.4876  11.00000  0.05    0.12 
Q9    1   0.0042  0.5359  0.8629  11.00000  0.05    0.12 
Q10   1  -0.2970  0.5452  1.0456  11.00000  0.05    0.12 
Q11   1   0.3515  0.5884  0.4785  11.00000  0.05    0.12 
Q12   1   0.0615  0.5826  0.6994  11.00000  0.05    0.12 
Q13   1  -0.3232  0.0630  0.6167  11.00000  0.05    0.12 
Q14   1   0.4333  0.5110  0.5949  11.00000  0.05    0.12 
Q15   1  -0.2484  0.9801  0.6458  11.00000  0.05    0.12 
Q16   1  -0.5710  0.3142  0.7008  11.00000  0.05    0.12 
Q17   1   0.5975  1.0804  0.9457  11.00000  0.05    0.12 
Q18   1   0.4134  0.6428  0.7852  11.00000  0.05    0.12 
Q19   1   0.1805  0.1964  0.5488  11.00000  0.05    0.12 
Q20   1  -0.2787  0.4196  1.0567  11.00000  0.05    0.11 
;
_shelx_res_checksum              10089
loop_
_space_group_symop_operation_xyz
'x, y, z'
'-x, -y, -z'
loop_
_atom_site_label
_atom_site_type_symbol
_atom_site_fract_x
_atom_site_fract_y
_atom_site_fract_z
_atom_site_U_iso_or_equiv
_atom_site_adp_type
_atom_site_occupancy
_atom_site_site_symmetry_order
_atom_site_calc_flag
_atom_site_refinement_flags_posn
_atom_site_refinement_flags_adp
O1 O 0.2000(3) 0.43140(19) 0.72509(17) 0.0469(5) Uani 1 1 d . .
O2 O -0.2985(3) 0.4740(2) 0.89271(18) 0.0566(6) Uani 1 1 d . .
C1 C -0.0031(4) 0.3526(3) 0.6662(2) 0.0409(6) Uani 1 1 d . .
C2 C -0.0222(5) 0.2481(3) 0.5650(3) 0.0511(7) Uani 1 1 d . .
H2 H 0.0972 0.2365 0.5319 0.061 Uiso 1 1 calc R U
C3 C -0.2187(5) 0.1608(3) 0.5129(3) 0.0567(8) Uani 1 1 d . .
H3 H -0.2313 0.0900 0.4448 0.068 Uiso 1 1 calc R U
C4 C -0.3968(5) 0.1781(3) 0.5615(3) 0.0574(8) Uani 1 1 d . .
H4 H -0.5293 0.1193 0.5262 0.069 Uiso 1 1 calc R U
C5 C -0.3773(4) 0.2831(3) 0.6626(3) 0.0505(7) Uani 1 1 d . .
H5 H -0.4975 0.2938 0.6954 0.061 Uiso 1 1 calc R U
C6 C -0.1821(4) 0.3729(3) 0.7164(2) 0.0428(7) Uani 1 1 d . .
C7 C -0.1585(4) 0.4885(3) 0.8198(2) 0.0424(7) Uani 1 1 d . .
C8 C -0.2720(5) 0.6069(3) 0.9764(3) 0.0542(8) Uani 1 1 d . .
H8A H -0.2525 0.5988 1.0571 0.065 Uiso 1 1 calc R U
H8B H -0.3996 0.6466 0.9591 0.065 Uiso 1 1 calc R U
C9 C -0.0731(5) 0.6959(3) 0.9636(3) 0.0560(8) Uani 1 1 d . .
H9A H -0.1040 0.7829 0.9548 0.067 Uiso 1 1 calc R U
H9B H 0.0479 0.7113 1.0312 0.067 Uiso 1 1 calc R U
C10 C -0.0278(4) 0.6102(3) 0.8505(2) 0.0438(7) Uani 1 1 d . .
C11 C 0.1277(4) 0.6547(3) 0.7849(2) 0.0442(7) Uani 1 1 d . .
C12 C 0.2259(4) 0.5678(3) 0.7199(2) 0.0435(7) Uani 1 1 d . .
C13 C 0.3691(5) 0.5927(4) 0.6394(3) 0.0602(9) Uani 1 1 d . .
H13A H 0.3832 0.6860 0.6377 0.090 Uiso 1 1 calc R U
H13B H 0.3071 0.5341 0.5605 0.090 Uiso 1 1 calc R U
H13C H 0.5098 0.5740 0.6680 0.090 Uiso 1 1 calc R U
C14 C 0.1655(4) 0.8032(3) 0.7899(2) 0.0459(7) Uani 1 1 d . .
C15 C -0.0096(5) 0.8636(3) 0.7541(3) 0.0572(8) Uani 1 1 d . .
H15 H -0.1489 0.8113 0.7271 0.069 Uiso 1 1 calc R U
C16 C 0.0221(6) 1.0002(4) 0.7583(3) 0.0689(10) Uani 1 1 d . .
H16 H -0.0960 1.0388 0.7339 0.083 Uiso 1 1 calc R U
C17 C 0.2248(7) 1.0788(4) 0.7977(3) 0.0735(11) Uani 1 1 d . .
H17 H 0.2447 1.1706 0.8002 0.088 Uiso 1 1 calc R U
C18 C 0.3985(7) 1.0227(4) 0.8335(3) 0.0765(11) Uani 1 1 d . .
H18 H 0.5369 1.0762 0.8600 0.092 Uiso 1 1 calc R U
C19 C 0.3696(5) 0.8848(4) 0.8305(3) 0.0640(9) Uani 1 1 d . .
H19 H 0.4887 0.8478 0.8560 0.077 Uiso 1 1 calc R U
loop_
_atom_site_aniso_label
_atom_site_aniso_U_11
_atom_site_aniso_U_22
_atom_site_aniso_U_33
_atom_site_aniso_U_23
_atom_site_aniso_U_13
_atom_site_aniso_U_12
O1 0.0433(10) 0.0457(12) 0.0557(12) 0.0158(9) 0.0126(9) 0.0169(8)
O2 0.0652(12) 0.0553(13) 0.0594(13) 0.0167(11) 0.0339(11) 0.0167(10)
C1 0.0442(14) 0.0409(15) 0.0461(15) 0.0196(12) 0.0142(12) 0.0173(12)
C2 0.0605(17) 0.0491(18) 0.0529(18) 0.0161(14) 0.0246(14) 0.0222(14)
C3 0.074(2) 0.0446(17) 0.0522(18) 0.0093(14) 0.0198(15) 0.0129(15)
C4 0.0585(17) 0.0398(17) 0.070(2) 0.0107(15) 0.0135(16) 0.0077(13)
C5 0.0476(15) 0.0426(16) 0.066(2) 0.0151(14) 0.0224(14) 0.0126(13)
C6 0.0483(15) 0.0404(15) 0.0483(16) 0.0186(13) 0.0181(12) 0.0161(12)
C7 0.0431(14) 0.0501(17) 0.0439(15) 0.0192(13) 0.0190(12) 0.0189(12)
C8 0.0705(19) 0.0565(19) 0.0462(16) 0.0159(14) 0.0289(14) 0.0233(15)
C9 0.0682(18) 0.056(2) 0.0481(17) 0.0100(15) 0.0228(15) 0.0200(15)
C10 0.0483(14) 0.0458(16) 0.0414(15) 0.0127(12) 0.0138(12) 0.0175(13)
C11 0.0445(13) 0.0476(16) 0.0428(15) 0.0149(13) 0.0099(12) 0.0121(12)
C12 0.0391(13) 0.0456(16) 0.0478(16) 0.0140(13) 0.0107(12) 0.0119(12)
C13 0.0548(17) 0.071(2) 0.072(2) 0.0306(18) 0.0337(16) 0.0219(15)
C14 0.0543(15) 0.0439(16) 0.0414(15) 0.0112(12) 0.0156(12) 0.0110(13)
C15 0.0630(18) 0.055(2) 0.064(2) 0.0215(16) 0.0258(15) 0.0204(15)
C16 0.091(3) 0.062(2) 0.073(2) 0.0280(19) 0.039(2) 0.033(2)
C17 0.121(3) 0.0431(19) 0.066(2) 0.0124(17) 0.043(2) 0.022(2)
C18 0.088(2) 0.062(2) 0.067(2) 0.0096(19) 0.019(2) -0.014(2)
C19 0.0621(18) 0.066(2) 0.061(2) 0.0180(17) 0.0090(15) 0.0058(16)
loop_
_atom_type_symbol
_atom_type_description
_atom_type_scat_dispersion_real
_atom_type_scat_dispersion_imag
_atom_type_scat_source
C C 0.0033 0.0016 'International Tables Vol C Tables 4.2.6.8 and 6.1.1.4'
H H 0.0000 0.0000 'International Tables Vol C Tables 4.2.6.8 and 6.1.1.4'
O O 0.0106 0.0060 'International Tables Vol C Tables 4.2.6.8 and 6.1.1.4'
loop_
_geom_angle_atom_site_label_1
_geom_angle_atom_site_label_2
_geom_angle_atom_site_label_3
_geom_angle
C1 O1 C12 114.63(18)
C7 O2 C8 106.3(2)
C2 C1 O1 119.6(2)
C2 C1 C6 120.8(3)
O1 C1 C6 119.4(2)
C1 C2 C3 120.0(3)
C2 C3 C4 120.2(3)
C5 C4 C3 119.7(3)
C4 C5 C6 121.3(3)
C5 C6 C1 118.0(3)
C5 C6 C7 122.7(2)
C1 C6 C7 119.3(2)
C10 C7 O2 115.0(2)
C10 C7 C6 129.1(2)
O2 C7 C6 115.8(2)
O2 C8 C9 107.5(2)
C10 C9 C8 101.8(2)
C7 C10 C11 126.1(3)
C7 C10 C9 108.0(2)
C11 C10 C9 125.9(3)
C12 C11 C10 122.2(3)
C12 C11 C14 121.1(3)
C10 C11 C14 116.7(2)
C11 C12 O1 119.3(2)
C11 C12 C13 129.2(3)
O1 C12 C13 111.5(2)
C19 C14 C15 117.8(3)
C19 C14 C11 122.3(3)
C15 C14 C11 120.0(3)
C16 C15 C14 120.8(3)
C17 C16 C15 120.6(3)
C16 C17 C18 119.9(3)
C17 C18 C19 120.3(3)
C14 C19 C18 120.6(3)
loop_
_geom_bond_atom_site_label_1
_geom_bond_atom_site_label_2
_geom_bond_distance
O1 C1 1.390(3)
O1 C12 1.411(3)
O2 C7 1.376(3)
O2 C8 1.450(4)
C1 C2 1.377(4)
C1 C6 1.402(3)
C2 C3 1.379(4)
C3 C4 1.381(4)
C4 C5 1.380(4)
C5 C6 1.387(4)
C6 C7 1.456(4)
C7 C10 1.337(4)
C8 C9 1.519(4)
C9 C10 1.518(4)
C10 C11 1.466(4)
C11 C12 1.336(4)
C11 C14 1.502(4)
C12 C13 1.485(4)
C14 C19 1.383(4)
C14 C15 1.398(4)
C15 C16 1.383(5)
C16 C17 1.363(5)
C17 C18 1.364(5)
C18 C19 1.399(5)
