#------------------------------------------------------------------------------
#$Date: 2019-11-17 09:23:07 +0200 (Sun, 17 Nov 2019) $
#$Revision: 229082 $
#$URL: file:///home/coder/svn-repositories/cod/cif/7/23/09/7230991.cif $
#------------------------------------------------------------------------------
#
# This file is available in the Crystallography Open Database (COD),
# http://www.crystallography.net/
#
# All data on this site have been placed in the public domain by the
# contributors.
#
data_7230991
loop_
_publ_author_name
'Pinter, Emily N.'
'Cantrell, Lee S.'
'Day, Graeme M.'
'Wheeler, Kraig A.'
_publ_section_title
;
 Pasteur's tartaramide/malamide quasiracemates: new entries and departures
 from near inversion symmetry
;
_journal_issue                   30
_journal_name_full               CrystEngComm
_journal_page_first              4213
_journal_paper_doi               10.1039/C8CE00791H
_journal_volume                  20
_journal_year                    2018
_chemical_formula_moiety         'C4 H8 N2 O3'
_chemical_formula_sum            'C4 H8 N2 O3'
_chemical_formula_weight         132.12
_space_group_crystal_system      monoclinic
_space_group_IT_number           14
_space_group_name_Hall           '-P 2ybc'
_space_group_name_H-M_alt        'P 1 21/c 1'
_symmetry_space_group_name_Hall  '-P 2ybc'
_symmetry_space_group_name_H-M   'P 1 21/c 1'
_atom_sites_solution_hydrogens   mixed
_audit_creation_method           SHELXL-2014/7
_audit_update_record
;
2018-03-24 deposited with the CCDC.
2018-06-18 downloaded from the CCDC.
;
_cell_angle_alpha                90
_cell_angle_beta                 101.659(1)
_cell_angle_gamma                90
_cell_formula_units_Z            4
_cell_length_a                   9.4044(2)
_cell_length_b                   8.2033(2)
_cell_length_c                   7.7750(2)
_cell_measurement_reflns_used    6297
_cell_measurement_temperature    100(2)
_cell_measurement_theta_max      68.30
_cell_measurement_theta_min      4.80
_cell_volume                     587.44(2)
_computing_cell_refinement       APEX2
_computing_data_collection       'APEX2 (Bruker, 2013)'
_computing_data_reduction
;
SADABS (Bruker, 2013) and XPREP (Bruker, 2013)
;
_computing_molecular_graphics    'XSEED (Barbour, 2001)'
_computing_publication_material  'XSEED (Barbour, 2001)'
_computing_structure_refinement  'SHELXL-2014/7 (Sheldrick, 2014)'
_computing_structure_solution    'SHELXS-2014/7 (Sheldrick, 2014)'
_diffrn_ambient_temperature      100(2)
_diffrn_detector_area_resol_mean 8.33
_diffrn_measured_fraction_theta_full 0.997
_diffrn_measured_fraction_theta_max 0.997
_diffrn_measurement_device_type  'Bruker APEXII CCD'
_diffrn_measurement_method       'phi and omega scans'
_diffrn_radiation_type           CuK\a
_diffrn_radiation_wavelength     1.54178
_diffrn_reflns_av_R_equivalents  0.0227
_diffrn_reflns_av_unetI/netI     0.0125
_diffrn_reflns_Laue_measured_fraction_full 0.997
_diffrn_reflns_Laue_measured_fraction_max 0.997
_diffrn_reflns_limit_h_max       11
_diffrn_reflns_limit_h_min       -11
_diffrn_reflns_limit_k_max       9
_diffrn_reflns_limit_k_min       -9
_diffrn_reflns_limit_l_max       9
_diffrn_reflns_limit_l_min       -9
_diffrn_reflns_number            8515
_diffrn_reflns_point_group_measured_fraction_full 0.997
_diffrn_reflns_point_group_measured_fraction_max 0.997
_diffrn_reflns_theta_full        67.679
_diffrn_reflns_theta_max         68.209
_diffrn_reflns_theta_min         4.801
_diffrn_source                   'fine-focus sealed tube'
_exptl_absorpt_coefficient_mu    1.105
_exptl_absorpt_correction_T_max  0.753
_exptl_absorpt_correction_T_min  0.677
_exptl_absorpt_correction_type   multi-scan
_exptl_absorpt_process_details   'SADABS-2014/7, Bruker AXS'
_exptl_crystal_colour            colourless
_exptl_crystal_density_diffrn    1.494
_exptl_crystal_description       block
_exptl_crystal_F_000             280
_exptl_crystal_size_max          0.274
_exptl_crystal_size_mid          0.265
_exptl_crystal_size_min          0.136
_refine_diff_density_max         0.457
_refine_diff_density_min         -0.251
_refine_diff_density_rms         0.070
_refine_ls_extinction_method     none
_refine_ls_goodness_of_fit_ref   1.009
_refine_ls_hydrogen_treatment    mixed
_refine_ls_matrix_type           full
_refine_ls_number_parameters     97
_refine_ls_number_reflns         1067
_refine_ls_number_restraints     5
_refine_ls_restrained_S_all      1.008
_refine_ls_R_factor_all          0.0332
_refine_ls_R_factor_gt           0.0329
_refine_ls_shift/su_max          0.000
_refine_ls_shift/su_mean         0.000
_refine_ls_structure_factor_coef Fsqd
_refine_ls_weighting_details
'w=1/[\s^2^(Fo^2^)+(0.0555P)^2^+0.3136P] where P=(Fo^2^+2Fc^2^)/3'
_refine_ls_weighting_scheme      calc
_refine_ls_wR_factor_gt          0.0882
_refine_ls_wR_factor_ref         0.0885
_reflns_Friedel_coverage         0.000
_reflns_number_gt                1049
_reflns_number_total             1067
_reflns_threshold_expression     'I > 2\s(I)'
_cod_data_source_file            c8ce00791h2.cif
_cod_data_source_block           16kaw53
_cod_depositor_comments
'Adding full bibliography for 7230989--7230996.cif.'
_cod_database_code               7230991
_shelx_shelxl_version_number     2014/7
_shelx_space_group_comment
;
The symmetry employed for this shelxl refinement is uniquely defined
by the following loop, which should always be used as a source of
symmetry information in preference to the above space-group names.
They are only intended as comments.
;
_shelx_estimated_absorpt_t_min   0.739
_shelx_estimated_absorpt_t_max   0.860
_shelx_res_file
;

    M:\CHM\CHM_X_Ray\kaw\16kaw53\work\16kaw53.res created by SHELXL-2014/7

REM  16kaw53 in P2(1)/c
REM R1 =  0.0358 for    1050 Fo > 4sig(Fo)  and  0.0361 for all    1068 data
REM    102 parameters refined using      0 restraints
REM Highest difference peak  0.446,  deepest hole -0.316,  1-sigma level  0.074
TITL 16kaw53 in P2(1)/c
CELL 1.54178 9.4044 8.2033 7.7750 90.000 101.659 90.000
ZERR 4.0000 0.0002 0.0002 0.0002 0.000 0.001 0.000
LATT 1
SYMM -X, 0.5+Y, 0.5-Z
SFAC C H N O
UNIT 16 32 8 12
MERG 2
SHEL 99999.00 0.83
FMAP 2
GRID
PLAN 20
TEMP -173
DFIX 0.85 0.02 O2 H5
DFIX 0.85 0.02 N1 H4B
DFIX 0.85 0.02 N1 H4A
DFIX 0.85 0.02 N2 H7A
DFIX 0.85 0.02 N2 H7B
BOND $H
CONF

EQIV $1 1-X, 0.5+Y, 0.5-Z
EQIV $2 1-X, Y-.5, 0.5-Z
EQIV $3 2-X, 0.5+Y, 0.5-Z
EQIV $4 2-X, Y-0.5, 0.5-Z
EQIV $5 X, 0.5-Y, 0.5+Z

HTAB N1 O1_$1
HTAB N1 O2_$2
HTAB N2 O1_$3
HTAB N2 O3_$4
HTAB O2 O3_$5
L.S. 10
ACTA
WGHT    0.055500    0.313600
FVAR       0.32784
O1    4    0.663710   -0.292078    0.236994    11.00000    0.01437    0.01148 =
         0.02891   -0.00079    0.00410    0.00020
O2    4    0.700832    0.130741    0.346807    11.00000    0.01484    0.01511 =
         0.02715   -0.00636    0.00206    0.00105
H5    2    0.769390    0.177586    0.421628    11.00000   -1.20000
O3    4    0.926223    0.246403    0.076957    11.00000    0.01935    0.01192 =
         0.02121    0.00148    0.00068   -0.00130
N1    3    0.501350   -0.103237    0.286004    11.00000    0.01374    0.01161 =
         0.03215   -0.00215    0.00599   -0.00098
H4B   2    0.483949   -0.005057    0.304986    11.00000   -1.20000
H4A   2    0.434776   -0.176924    0.269866    11.00000   -1.20000
N2    3    1.060524    0.051814    0.236639    11.00000    0.01471    0.01148 =
         0.01916    0.00174    0.00271   -0.00262
H7B   2    1.139573    0.112397    0.247497    11.00000   -1.20000
H7A   2    1.062179   -0.044768    0.279431    11.00000   -1.20000
C1    1    0.632834   -0.150247    0.271701    11.00000    0.01435    0.01449 =
         0.01518    0.00178    0.00180   -0.00012
C2    1    0.752291   -0.021166    0.297301    11.00000    0.01252    0.01257 =
         0.01777   -0.00108    0.00176    0.00130
AFIX  13
H2    2    0.834512   -0.058270    0.391717    11.00000   -1.20000
AFIX   0
C3    1    0.806540   -0.005014    0.124616    11.00000    0.01611    0.01456 =
         0.01664   -0.00088    0.00186   -0.00253
AFIX  23
H3A   2    0.833769   -0.114008    0.087134    11.00000   -1.20000
H3B   2    0.727214    0.037815    0.032145    11.00000   -1.20000
AFIX   0
C4    1    0.936441    0.107892    0.144561    11.00000    0.01678    0.01225 =
         0.01396   -0.00213    0.00426   -0.00092
HKLF 4

REM  16kaw53 in P2(1)/c
REM R1 =  0.0329 for    1049 Fo > 4sig(Fo)  and  0.0332 for all    1067 data
REM     97 parameters refined using      5 restraints

END

WGHT      0.0461      0.2981

REM Highest difference peak  0.457,  deepest hole -0.251,  1-sigma level  0.070
Q1    1   0.6767  0.0650  0.0165  11.00000  0.05    0.46
Q2    1   0.8707  0.0510  0.1330  11.00000  0.05    0.24
Q3    1   0.6911 -0.0828  0.2872  11.00000  0.05    0.20
Q4    1   0.8508  0.2587  0.0035  11.00000  0.05    0.20
Q5    1   0.7861 -0.0078  0.2086  11.00000  0.05    0.19
Q6    1   1.0021  0.3287  0.0381  11.00000  0.05    0.15
Q7    1   0.9393  0.1828  0.0592  11.00000  0.05    0.14
Q8    1   0.7983 -0.0820  0.4393  11.00000  0.05    0.13
Q9    1   0.9176  0.3517 -0.0231  11.00000  0.05    0.13
Q10   1   0.5635  0.1210 -0.0114  11.00000  0.05    0.13
Q11   1   0.6956 -0.0737 -0.0164  11.00000  0.05    0.13
Q12   1   1.0000  0.0000  0.5000  10.50000  0.05    0.12
Q13   1   0.6906  0.1573  0.5131  11.00000  0.05    0.12
Q14   1   0.6644 -0.0808  0.5079  11.00000  0.05    0.12
Q15   1   0.7460 -0.0361 -0.0113  11.00000  0.05    0.12
Q16   1   0.6757  0.2019  0.0565  11.00000  0.05    0.12
Q17   1   0.5746 -0.1340  0.3616  11.00000  0.05    0.11
Q18   1   0.7345 -0.0450  0.5482  11.00000  0.05    0.11
Q19   1   0.7902 -0.1869  0.5369  11.00000  0.05    0.11
Q20   1   0.6543 -0.3208  0.0925  11.00000  0.05    0.11
;
_shelx_res_checksum              52023
loop_
_space_group_symop_operation_xyz
'x, y, z'
'-x, y+1/2, -z+1/2'
'-x, -y, -z'
'x, -y-1/2, z-1/2'
loop_
_atom_site_label
_atom_site_type_symbol
_atom_site_fract_x
_atom_site_fract_y
_atom_site_fract_z
_atom_site_U_iso_or_equiv
_atom_site_adp_type
_atom_site_occupancy
_atom_site_site_symmetry_order
_atom_site_calc_flag
_atom_site_refinement_flags_posn
_atom_site_refinement_flags_adp
O1 O 0.66371(9) -0.29208(11) 0.23699(13) 0.0183(3) Uani 1 1 d . .
O2 O 0.70083(10) 0.13074(11) 0.34681(13) 0.0193(3) Uani 1 1 d D .
H5 H 0.7694(17) 0.178(2) 0.422(2) 0.023 Uiso 1 1 d D U
O3 O 0.92622(10) 0.24640(11) 0.07696(12) 0.0180(3) Uani 1 1 d . .
N1 N 0.50135(12) -0.10324(15) 0.28600(15) 0.0190(3) Uani 1 1 d D .
H4B H 0.4839(18) -0.0051(19) 0.305(2) 0.023 Uiso 1 1 d D U
H4A H 0.4348(17) -0.177(2) 0.270(2) 0.023 Uiso 1 1 d D U
N2 N 1.06052(11) 0.05181(14) 0.23664(14) 0.0152(3) Uani 1 1 d D .
H7B H 1.1396(16) 0.1124(18) 0.247(2) 0.018 Uiso 1 1 d D U
H7A H 1.0622(17) -0.0448(18) 0.279(2) 0.018 Uiso 1 1 d D U
C1 C 0.63283(13) -0.15025(15) 0.27170(16) 0.0148(3) Uani 1 1 d . .
C2 C 0.75229(13) -0.02117(15) 0.29730(16) 0.0145(3) Uani 1 1 d . .
H2 H 0.8345 -0.0583 0.3917 0.017 Uiso 1 1 calc R U
C3 C 0.80654(13) -0.00501(16) 0.12462(16) 0.0160(3) Uani 1 1 d . .
H3A H 0.8338 -0.1140 0.0871 0.019 Uiso 1 1 calc R U
H3B H 0.7272 0.0378 0.0321 0.019 Uiso 1 1 calc R U
C4 C 0.93644(13) 0.10789(15) 0.14456(16) 0.0142(3) Uani 1 1 d . .
loop_
_atom_site_aniso_label
_atom_site_aniso_U_11
_atom_site_aniso_U_22
_atom_site_aniso_U_33
_atom_site_aniso_U_23
_atom_site_aniso_U_13
_atom_site_aniso_U_12
O1 0.0144(5) 0.0115(5) 0.0289(5) -0.0008(4) 0.0041(4) 0.0002(3)
O2 0.0148(5) 0.0151(5) 0.0271(5) -0.0064(4) 0.0021(4) 0.0010(3)
O3 0.0194(5) 0.0119(5) 0.0212(5) 0.0015(3) 0.0007(4) -0.0013(3)
N1 0.0137(5) 0.0116(6) 0.0322(7) -0.0021(5) 0.0060(5) -0.0010(4)
N2 0.0147(5) 0.0115(5) 0.0192(5) 0.0017(4) 0.0027(4) -0.0026(4)
C1 0.0144(6) 0.0145(6) 0.0152(6) 0.0018(5) 0.0018(5) -0.0001(5)
C2 0.0125(6) 0.0126(6) 0.0178(6) -0.0011(5) 0.0018(5) 0.0013(5)
C3 0.0161(6) 0.0146(6) 0.0166(6) -0.0009(5) 0.0019(5) -0.0025(5)
C4 0.0168(6) 0.0122(6) 0.0140(6) -0.0021(5) 0.0043(5) -0.0009(5)
loop_
_atom_type_symbol
_atom_type_description
_atom_type_scat_dispersion_real
_atom_type_scat_dispersion_imag
_atom_type_scat_source
C C 0.0181 0.0091 'International Tables Vol C Tables 4.2.6.8 and 6.1.1.4'
H H 0.0000 0.0000 'International Tables Vol C Tables 4.2.6.8 and 6.1.1.4'
N N 0.0311 0.0180 'International Tables Vol C Tables 4.2.6.8 and 6.1.1.4'
O O 0.0492 0.0322 'International Tables Vol C Tables 4.2.6.8 and 6.1.1.4'
loop_
_geom_angle_atom_site_label_1
_geom_angle_atom_site_label_2
_geom_angle_atom_site_label_3
_geom_angle
C2 O2 H5 108.9(11)
C1 N1 H4B 120.9(12)
C1 N1 H4A 116.6(12)
H4B N1 H4A 122.4(16)
C4 N2 H7B 119.3(11)
C4 N2 H7A 118.4(11)
H7B N2 H7A 122.2(15)
O1 C1 N1 123.75(12)
O1 C1 C2 118.67(11)
N1 C1 C2 117.58(11)
O2 C2 C1 111.24(10)
O2 C2 C3 110.70(10)
C1 C2 C3 108.15(10)
O2 C2 H2 108.9
C1 C2 H2 108.9
C3 C2 H2 108.9
C4 C3 C2 111.51(10)
C4 C3 H3A 109.3
C2 C3 H3A 109.3
C4 C3 H3B 109.3
C2 C3 H3B 109.3
H3A C3 H3B 108.0
O3 C4 N2 121.97(12)
O3 C4 C3 121.44(11)
N2 C4 C3 116.59(11)
loop_
_geom_bond_atom_site_label_1
_geom_bond_atom_site_label_2
_geom_bond_distance
O1 C1 1.2420(16)
O2 C2 1.4179(15)
O2 H5 0.866(14)
O3 C4 1.2475(16)
N1 C1 1.3212(17)
N1 H4B 0.841(15)
N1 H4A 0.861(14)
N2 C4 1.3222(17)
N2 H7B 0.884(13)
N2 H7A 0.858(14)
C1 C2 1.5273(17)
C2 C3 1.5354(17)
C2 H2 1.0000
C3 C4 1.5158(17)
C3 H3A 0.9900
C3 H3B 0.9900
loop_
_geom_hbond_atom_site_label_D
_geom_hbond_atom_site_label_H
_geom_hbond_atom_site_label_A
_geom_hbond_distance_DH
_geom_hbond_distance_HA
_geom_hbond_distance_DA
_geom_hbond_angle_DHA
_geom_hbond_site_symmetry_A
N1 H4B O1 0.841(15) 2.215(15) 2.9740(15) 150.3(15) 2_655
N1 H4A O2 0.861(14) 2.115(15) 2.9411(15) 160.8(16) 2_645
N2 H7B O1 0.884(13) 1.990(14) 2.8623(14) 168.7(15) 2_755
N2 H7A O3 0.858(14) 2.036(14) 2.8844(14) 169.8(16) 2_745
O2 H5 O3 0.866(14) 1.817(15) 2.6791(13) 173.0(16) 4_566
loop_
_geom_torsion_atom_site_label_1
_geom_torsion_atom_site_label_2
_geom_torsion_atom_site_label_3
_geom_torsion_atom_site_label_4
_geom_torsion
O1 C1 C2 O2 -176.29(10)
N1 C1 C2 O2 4.48(16)
O1 C1 C2 C3 61.94(14)
N1 C1 C2 C3 -117.29(12)
O2 C2 C3 C4 63.95(13)
C1 C2 C3 C4 -173.94(10)
C2 C3 C4 O3 -107.97(13)
C2 C3 C4 N2 72.17(14)
