#------------------------------------------------------------------------------
#$Date: 2019-11-17 09:14:47 +0200 (Sun, 17 Nov 2019) $
#$Revision: 229045 $
#$URL: file:///home/coder/svn-repositories/cod/cif/7/23/05/7230526.cif $
#------------------------------------------------------------------------------
#
# This file is available in the Crystallography Open Database (COD),
# http://www.crystallography.net/
#
# All data on this site have been placed in the public domain by the
# contributors.
#
data_7230526
loop_
_publ_author_name
'Chakraborty, Shaunak'
'Desiraju, Gautam R.'
_publ_section_title
;
 Exploring the structural landscape with &#x2018;partial&#x2019;
 fluoro-substitution as a probe
;
_journal_issue                   20
_journal_name_full               CrystEngComm
_journal_page_first              2793
_journal_paper_doi               10.1039/C8CE00336J
_journal_volume                  20
_journal_year                    2018
_chemical_formula_moiety         'C9 H6.43 F1.57 O2'
_chemical_formula_sum            'C9 H6.43 F1.57 O2'
_chemical_formula_weight         176.37
_space_group_crystal_system      monoclinic
_space_group_IT_number           14
_space_group_name_Hall           '-P 2ybc'
_space_group_name_H-M_alt        'P 1 21/c 1'
_symmetry_space_group_name_Hall  '-P 2ybc'
_symmetry_space_group_name_H-M   'P 1 21/c 1'
_atom_sites_solution_hydrogens   geom
_audit_creation_method           SHELXL-2014/7
_audit_update_record
;
2018-04-14 deposited with the CCDC.
2018-04-18 downloaded from the CCDC.
;
_cell_angle_alpha                90
_cell_angle_beta                 91.57(2)
_cell_angle_gamma                90
_cell_formula_units_Z            4
_cell_length_a                   6.322(3)
_cell_length_b                   3.7467(16)
_cell_length_c                   32.162(13)
_cell_measurement_reflns_used    1037
_cell_measurement_temperature    100(2)
_cell_measurement_theta_max      27.4
_cell_measurement_theta_min      2.5
_cell_volume                     761.5(6)
_computing_structure_refinement  'SHELXL-2014/7 (Sheldrick, 2014)'
_diffrn_ambient_temperature      100(2)
_diffrn_measured_fraction_theta_full 0.953
_diffrn_measured_fraction_theta_max 0.956
_diffrn_measurement_device_type  CCD
_diffrn_radiation_type           MoK\a
_diffrn_radiation_wavelength     0.71073
_diffrn_reflns_av_R_equivalents  0.1492
_diffrn_reflns_av_unetI/netI     0.1484
_diffrn_reflns_Laue_measured_fraction_full 0.953
_diffrn_reflns_Laue_measured_fraction_max 0.956
_diffrn_reflns_limit_h_max       8
_diffrn_reflns_limit_h_min       -8
_diffrn_reflns_limit_k_max       4
_diffrn_reflns_limit_k_min       -4
_diffrn_reflns_limit_l_max       41
_diffrn_reflns_limit_l_min       -41
_diffrn_reflns_number            4204
_diffrn_reflns_point_group_measured_fraction_full 0.953
_diffrn_reflns_point_group_measured_fraction_max 0.956
_diffrn_reflns_theta_full        25.242
_diffrn_reflns_theta_max         27.495
_diffrn_reflns_theta_min         1.267
_exptl_absorpt_coefficient_mu    0.133
_exptl_crystal_colour            colourless
_exptl_crystal_density_diffrn    1.538
_exptl_crystal_description       plate
_exptl_crystal_F_000             362.2
_exptl_crystal_size_max          0.8
_exptl_crystal_size_mid          0.6
_exptl_crystal_size_min          0.4
_refine_diff_density_max         0.365
_refine_diff_density_min         -0.463
_refine_diff_density_rms         0.109
_refine_ls_extinction_method     none
_refine_ls_goodness_of_fit_ref   1.068
_refine_ls_hydrogen_treatment    constr
_refine_ls_matrix_type           full
_refine_ls_number_parameters     120
_refine_ls_number_reflns         1669
_refine_ls_number_restraints     0
_refine_ls_restrained_S_all      1.068
_refine_ls_R_factor_all          0.1457
_refine_ls_R_factor_gt           0.1032
_refine_ls_shift/su_max          0.000
_refine_ls_shift/su_mean         0.000
_refine_ls_structure_factor_coef Fsqd
_refine_ls_weighting_details
'w=1/[\s^2^(Fo^2^)+(0.1330P)^2^+0.3629P] where P=(Fo^2^+2Fc^2^)/3'
_refine_ls_weighting_scheme      calc
_refine_ls_wR_factor_gt          0.2698
_refine_ls_wR_factor_ref         0.3042
_reflns_Friedel_coverage         0.000
_reflns_number_gt                957
_reflns_number_total             1669
_reflns_threshold_expression     'I > 2\s(I)'
_cod_data_source_file            c8ce00336j2.cif
_cod_data_source_block           12
_cod_depositor_comments
'Adding full bibliography for 7230514--7230540.cif.'
_cod_database_code               7230526
_shelx_shelxl_version_number     2014/7
_shelx_space_group_comment
;
The symmetry employed for this shelxl refinement is uniquely defined
by the following loop, which should always be used as a source of
symmetry information in preference to the above space-group names.
They are only intended as comments.
;
_shelx_res_file
;

    shelx.res created by SHELXL-2014/7

TITL datam in P2(1)/c
CELL  0.71073   6.3215   3.7467  32.1619   90.000   91.573   90.000
ZERR    17.00   0.0030   0.0016   0.0132    0.000    0.022    0.000
LATT   1
SYMM  - X, 1/2 + Y, 1/2 - Z
SFAC  C    H    O    F
UNIT  17 17 17 17
MERG   2
OMIT    -2.00  55.00
EQIV $1 -x, -y+3, -z+1
HTAB C2 O2_$1
EQIV $2 -x-1, y+1/2, -z+1/2
HTAB C7 F2_$2
EQIV $3 -x+1, -y+2, -z+1
HTAB O2 O1_$3
OMIT     5   1   1
OMIT     1   1   2
OMIT     2   1   6
FMAP   2
PLAN   20
ACTA
HTAB    2.00000
BOND
BOND   $H
CONF
L.S.  50
TEMP  -173.00
WGHT    0.133000    0.362900
FVAR       0.43339   0.43183
MOLE    1
C1    1    0.268832    1.149366    0.464640    11.00000    0.02632    0.02654 =
         0.02728    0.00081    0.00377    0.00377
C2    1    0.086702    1.263683    0.438748    11.00000    0.02266    0.02910 =
         0.02899   -0.00066    0.00511    0.00672
AFIX  43
H2    2   -0.029366    1.380415    0.451065    11.00000   -1.20000
AFIX   0
C3    1    0.084336    1.203420    0.397860    11.00000    0.02168    0.02434 =
         0.03246    0.00223    0.00282    0.00617
AFIX  43
H3    2    0.203340    1.082765    0.387179    11.00000   -1.20000
AFIX   0
C4    1   -0.084632    1.305338    0.367511    11.00000    0.02302    0.01830 =
         0.03853    0.00049    0.00065   -0.00146
C5    1   -0.054189    1.249981    0.325435    11.00000    0.02004    0.03086 =
         0.03807   -0.00420    0.00298   -0.00138
C6    1   -0.211885    1.334267    0.295451    11.00000    0.03831    0.04213 =
         0.03305   -0.00259   -0.00642   -0.00758
PART    1
AFIX  43
H6    2   -0.188228    1.288767    0.266895    21.00000   -1.20000
AFIX   0
PART    2
F2    4   -0.181541    1.245488    0.259241   -21.00000    0.06895    0.12363 =
         0.04427    0.00434   -0.00267   -0.01447
PART    0
C7    1   -0.395975    1.478755    0.306823    11.00000    0.02948    0.03367 =
         0.04952    0.00640   -0.01505   -0.00390
AFIX  43
H7    2   -0.501206    1.539992    0.286403    11.00000   -1.20000
AFIX   0
C8    1   -0.431841    1.539097    0.349617    11.00000    0.02095    0.02317 =
         0.07120   -0.00089   -0.00142    0.00360
AFIX  43
H8    2   -0.562233    1.638633    0.357952    11.00000   -1.20000
AFIX   0
C9    1   -0.277697    1.453469    0.379128    11.00000    0.02441    0.02538 =
         0.04212   -0.00050    0.00621    0.00190
AFIX  43
H9    2   -0.302792    1.495499    0.407701    11.00000   -1.20000
AFIX   0
O1    3    0.419058    0.979017    0.450193    11.00000    0.02891    0.03780 =
         0.02912   -0.00078    0.00574    0.01084
O2    3    0.257793    1.237308    0.503631    11.00000    0.03506    0.04531 =
         0.02379   -0.00307    0.00352    0.01340
AFIX 147
H2A   2    0.360203    1.146873    0.517078    11.00000   -1.50000
AFIX   0
F1    4    0.126972    1.101142    0.313185    11.00000    0.02472    0.06362 =
         0.03231   -0.00513    0.00389    0.00519
HKLF    4

REM  datam in P2(1)/c
REM R1 =  0.1032 for     957 Fo > 4sig(Fo)  and  0.1457 for all    1669 data
REM    120 parameters refined using      0 restraints

END

WGHT      0.1347      0.1593

REM Instructions for potential hydrogen bonds
HTAB C2 O2_$1
HTAB C7 F2_$2
HTAB O2 O1_$3

REM Highest difference peak  0.365,  deepest hole -0.463,  1-sigma level  0.109
Q1    1   0.5000  1.5000  0.5000  10.50000  0.05    0.36
Q2    1  -0.3702  1.5136  0.3181  11.00000  0.05    0.32
Q3    1   0.3963  1.1639  0.4400  11.00000  0.05    0.32
Q4    1  -0.0350  1.4981  0.3257  11.00000  0.05    0.31
Q5    1  -0.2750  1.5409  0.2872  11.00000  0.05    0.31
Q6    1  -0.1616  1.7474  0.3398  11.00000  0.05    0.31
Q7    1  -0.5005  1.1274  0.3301  11.00000  0.05    0.31
Q8    1   0.3431  1.4536  0.4299  11.00000  0.05    0.30
Q9    1   0.2882  0.6465  0.4679  11.00000  0.05    0.30
Q10   1   0.4331  1.1703  0.5327  11.00000  0.05    0.29
Q11   1  -0.0450  1.7061  0.3281  11.00000  0.05    0.28
Q12   1   0.4285  1.3403  0.4897  11.00000  0.05    0.28
Q13   1   0.3092  0.9567  0.4684  11.00000  0.05    0.27
Q14   1  -0.2854  1.9362  0.3331  11.00000  0.05    0.27
Q15   1  -0.4859  1.9214  0.3408  11.00000  0.05    0.26
Q16   1  -0.2375  1.7778  0.2977  11.00000  0.05    0.26
Q17   1   0.2986  1.4199  0.4693  11.00000  0.05    0.26
Q18   1  -0.0712  0.8305  0.2779  11.00000  0.05    0.25
Q19   1  -0.4528  1.1319  0.4087  11.00000  0.05    0.25
Q20   1  -0.1134  0.9844  0.4125  11.00000  0.05    0.25
;
_shelx_res_checksum              87479
loop_
_space_group_symop_operation_xyz
'x, y, z'
'-x, y+1/2, -z+1/2'
'-x, -y, -z'
'x, -y-1/2, z-1/2'
loop_
_atom_site_label
_atom_site_type_symbol
_atom_site_fract_x
_atom_site_fract_y
_atom_site_fract_z
_atom_site_U_iso_or_equiv
_atom_site_adp_type
_atom_site_occupancy
_atom_site_site_symmetry_order
_atom_site_calc_flag
_atom_site_refinement_flags_posn
_atom_site_refinement_flags_adp
_atom_site_refinement_flags_occupancy
_atom_site_disorder_assembly
_atom_site_disorder_group
C1 C 0.2688(7) 1.1494(11) 0.46464(13) 0.0267(10) Uani 1 1 d . . . . .
C2 C 0.0867(7) 1.2637(11) 0.43875(13) 0.0268(9) Uani 1 1 d . . . . .
H2 H -0.0294 1.3804 0.4511 0.032 Uiso 1 1 calc R U . . .
C3 C 0.0843(7) 1.2034(11) 0.39786(13) 0.0261(9) Uani 1 1 d . . . . .
H3 H 0.2033 1.0828 0.3872 0.031 Uiso 1 1 calc R U . . .
C4 C -0.0846(7) 1.3053(11) 0.36751(14) 0.0266(10) Uani 1 1 d . . . . .
C5 C -0.0542(7) 1.2500(12) 0.32543(15) 0.0296(10) Uani 1 1 d . . . . .
C6 C -0.2119(9) 1.3343(13) 0.29545(15) 0.0380(12) Uani 1 1 d . . . . .
H6 H -0.1882 1.2888 0.2669 0.046 Uiso 0.432(8) 1 calc R U P A 1
F2 F -0.1815(12) 1.245(2) 0.2592(2) 0.079(3) Uani 0.568(8) 1 d . . P A 2
C7 C -0.3960(8) 1.4788(13) 0.30682(16) 0.0379(12) Uani 1 1 d . . . . .
H7 H -0.5012 1.5400 0.2864 0.045 Uiso 1 1 calc R U . . .
C8 C -0.4318(8) 1.5391(12) 0.34962(18) 0.0385(12) Uani 1 1 d . . . . .
H8 H -0.5622 1.6386 0.3580 0.046 Uiso 1 1 calc R U . . .
C9 C -0.2777(7) 1.4535(11) 0.37913(15) 0.0305(10) Uani 1 1 d . . . . .
H9 H -0.3028 1.4955 0.4077 0.037 Uiso 1 1 calc R U . . .
O1 O 0.4191(5) 0.9790(9) 0.45019(9) 0.0319(8) Uani 1 1 d . . . . .
O2 O 0.2578(6) 1.2373(9) 0.50363(9) 0.0347(9) Uani 1 1 d . . . . .
H2A H 0.3602 1.1469 0.5171 0.052 Uiso 1 1 calc R U . . .
F1 F 0.1270(4) 1.1011(9) 0.31318(8) 0.0402(8) Uani 1 1 d . . . . .
loop_
_atom_site_aniso_label
_atom_site_aniso_U_11
_atom_site_aniso_U_22
_atom_site_aniso_U_33
_atom_site_aniso_U_23
_atom_site_aniso_U_13
_atom_site_aniso_U_12
C1 0.026(2) 0.027(2) 0.027(2) 0.0008(16) 0.0038(16) 0.0038(17)
C2 0.023(2) 0.029(2) 0.029(2) -0.0007(17) 0.0051(16) 0.0067(17)
C3 0.022(2) 0.024(2) 0.032(2) 0.0022(16) 0.0028(16) 0.0062(17)
C4 0.023(2) 0.0183(19) 0.039(2) 0.0005(16) 0.0007(17) -0.0015(16)
C5 0.020(2) 0.031(2) 0.038(2) -0.0042(18) 0.0030(17) -0.0014(18)
C6 0.038(3) 0.042(3) 0.033(2) -0.003(2) -0.006(2) -0.008(2)
F2 0.069(5) 0.124(7) 0.044(4) 0.004(4) -0.003(3) -0.014(5)
C7 0.029(3) 0.034(2) 0.050(3) 0.006(2) -0.015(2) -0.004(2)
C8 0.021(2) 0.023(2) 0.071(4) -0.001(2) -0.001(2) 0.0036(18)
C9 0.024(2) 0.025(2) 0.042(2) -0.0005(18) 0.0062(18) 0.0019(18)
O1 0.0289(18) 0.0378(18) 0.0291(16) -0.0008(13) 0.0057(12) 0.0108(14)
O2 0.035(2) 0.0453(19) 0.0238(15) -0.0031(14) 0.0035(13) 0.0134(16)
F1 0.0247(15) 0.0636(19) 0.0323(14) -0.0051(13) 0.0039(11) 0.0052(13)
loop_
_atom_type_symbol
_atom_type_description
_atom_type_scat_dispersion_real
_atom_type_scat_dispersion_imag
_atom_type_scat_source
C C 0.0033 0.0016 'International Tables Vol C Tables 4.2.6.8 and 6.1.1.4'
H H 0.0000 0.0000 'International Tables Vol C Tables 4.2.6.8 and 6.1.1.4'
O O 0.0106 0.0060 'International Tables Vol C Tables 4.2.6.8 and 6.1.1.4'
F F 0.0171 0.0103 'International Tables Vol C Tables 4.2.6.8 and 6.1.1.4'
loop_
_geom_angle_atom_site_label_1
_geom_angle_atom_site_label_2
_geom_angle_atom_site_label_3
_geom_angle
O1 C1 O2 123.5(4)
O1 C1 C2 122.2(4)
O2 C1 C2 114.3(4)
C3 C2 C1 119.9(4)
C3 C2 H2 120.1
C1 C2 H2 120.1
C2 C3 C4 126.6(4)
C2 C3 H3 116.7
C4 C3 H3 116.7
C5 C4 C9 117.7(4)
C5 C4 C3 119.2(4)
C9 C4 C3 123.1(4)
F1 C5 C4 119.4(4)
F1 C5 C6 119.2(4)
C4 C5 C6 121.4(4)
F2 C6 C7 121.7(6)
F2 C6 C5 117.6(6)
C7 C6 C5 120.5(4)
C7 C6 H6 119.7
C5 C6 H6 119.7
C6 C7 C8 119.4(4)
C6 C7 H7 120.3
C8 C7 H7 120.3
C9 C8 C7 120.1(5)
C9 C8 H8 119.9
C7 C8 H8 119.9
C8 C9 C4 120.9(5)
C8 C9 H9 119.6
C4 C9 H9 119.6
C1 O2 H2A 109.5
loop_
_geom_bond_atom_site_label_1
_geom_bond_atom_site_label_2
_geom_bond_distance
C1 O1 1.245(5)
C1 O2 1.300(5)
C1 C2 1.466(6)
C2 C3 1.334(6)
C2 H2 0.9500
C3 C4 1.477(6)
C3 H3 0.9500
C4 C5 1.388(6)
C4 C9 1.401(6)
C5 F1 1.343(5)
C5 C6 1.404(7)
C6 F2 1.231(8)
C6 C7 1.343(7)
C6 H6 0.9500
C7 C8 1.419(8)
C7 H7 0.9500
C8 C9 1.379(7)
C8 H8 0.9500
C9 H9 0.9500
O2 H2A 0.8400
loop_
_geom_hbond_atom_site_label_D
_geom_hbond_atom_site_label_H
_geom_hbond_atom_site_label_A
_geom_hbond_distance_DH
_geom_hbond_distance_HA
_geom_hbond_distance_DA
_geom_hbond_angle_DHA
_geom_hbond_site_symmetry_A
C2 H2 O2 0.95 2.52 3.449(5) 164.2 3_586
C7 H7 F2 0.95 2.57 3.512(9) 171.0 2_455
O2 H2A O1 0.84 1.79 2.621(5) 170.9 3_676
loop_
_geom_torsion_atom_site_label_1
_geom_torsion_atom_site_label_2
_geom_torsion_atom_site_label_3
_geom_torsion_atom_site_label_4
_geom_torsion
O1 C1 C2 C3 -3.9(7)
O2 C1 C2 C3 176.9(4)
C1 C2 C3 C4 -179.1(4)
C2 C3 C4 C5 174.5(4)
C2 C3 C4 C9 -6.3(7)
C9 C4 C5 F1 -178.5(4)
C3 C4 C5 F1 0.8(6)
C9 C4 C5 C6 -0.9(7)
C3 C4 C5 C6 178.4(4)
F1 C5 C6 F2 4.6(8)
C4 C5 C6 F2 -173.0(6)
F1 C5 C6 C7 179.1(4)
C4 C5 C6 C7 1.4(7)
F2 C6 C7 C8 172.9(6)
C5 C6 C7 C8 -1.3(7)
C6 C7 C8 C9 0.7(7)
C7 C8 C9 C4 -0.2(7)
C5 C4 C9 C8 0.3(6)
C3 C4 C9 C8 -179.0(4)
