#------------------------------------------------------------------------------
#$Date: 2019-11-17 09:14:47 +0200 (Sun, 17 Nov 2019) $
#$Revision: 229045 $
#$URL: file:///home/coder/svn-repositories/cod/cif/7/23/05/7230539.cif $
#------------------------------------------------------------------------------
#
# This file is available in the Crystallography Open Database (COD),
# http://www.crystallography.net/
#
# All data on this site have been placed in the public domain by the
# contributors.
#
data_7230539
loop_
_publ_author_name
'Chakraborty, Shaunak'
'Desiraju, Gautam R.'
_publ_section_title
;
 Exploring the structural landscape with &#x2018;partial&#x2019;
 fluoro-substitution as a probe
;
_journal_issue                   20
_journal_name_full               CrystEngComm
_journal_page_first              2793
_journal_paper_doi               10.1039/C8CE00336J
_journal_volume                  20
_journal_year                    2018
_chemical_formula_moiety         'C9 H6.26 F1.74 O2'
_chemical_formula_sum            'C9 H6.26 F1.74 O2'
_chemical_formula_weight         179.39
_space_group_crystal_system      monoclinic
_space_group_IT_number           14
_space_group_name_Hall           '-P 2yn'
_space_group_name_H-M_alt        'P 1 21/n 1'
_symmetry_space_group_name_Hall  '-P 2yn'
_symmetry_space_group_name_H-M   'P 1 21/n 1'
_atom_sites_solution_hydrogens   geom
_audit_creation_method           SHELXL-2014/7
_audit_update_record
;
2018-04-14 deposited with the CCDC.
2018-04-18 downloaded from the CCDC.
;
_cell_angle_alpha                90
_cell_angle_beta                 91.27(3)
_cell_angle_gamma                90
_cell_formula_units_Z            4
_cell_length_a                   3.769(9)
_cell_length_b                   6.599(15)
_cell_length_c                   31.60(7)
_cell_measurement_reflns_used    1327
_cell_measurement_temperature    293(2)
_cell_measurement_theta_max      27.5
_cell_measurement_theta_min      3.2
_cell_volume                     786(3)
_computing_structure_refinement  'SHELXL-2014/7 (Sheldrick, 2014)'
_diffrn_ambient_temperature      293(2)
_diffrn_measured_fraction_theta_full 0.922
_diffrn_measured_fraction_theta_max 0.928
_diffrn_measurement_device_type  CCD
_diffrn_radiation_type           MoK\a
_diffrn_radiation_wavelength     0.71073
_diffrn_reflns_av_R_equivalents  0.2255
_diffrn_reflns_av_unetI/netI     0.1764
_diffrn_reflns_Laue_measured_fraction_full 0.922
_diffrn_reflns_Laue_measured_fraction_max 0.928
_diffrn_reflns_limit_h_max       4
_diffrn_reflns_limit_h_min       -4
_diffrn_reflns_limit_k_max       8
_diffrn_reflns_limit_k_min       -8
_diffrn_reflns_limit_l_max       40
_diffrn_reflns_limit_l_min       -40
_diffrn_reflns_number            4352
_diffrn_reflns_point_group_measured_fraction_full 0.922
_diffrn_reflns_point_group_measured_fraction_max 0.928
_diffrn_reflns_theta_full        25.242
_diffrn_reflns_theta_max         27.470
_diffrn_reflns_theta_min         1.289
_exptl_absorpt_coefficient_mu    0.133
_exptl_crystal_colour            colourless
_exptl_crystal_density_diffrn    1.516
_exptl_crystal_description       plate
_exptl_crystal_F_000             367.6
_exptl_crystal_size_max          0.6
_exptl_crystal_size_mid          0.6
_exptl_crystal_size_min          0.2
_refine_diff_density_max         0.470
_refine_diff_density_min         -0.477
_refine_diff_density_rms         0.129
_refine_ls_extinction_method     none
_refine_ls_goodness_of_fit_ref   0.958
_refine_ls_hydrogen_treatment    constr
_refine_ls_matrix_type           full
_refine_ls_number_parameters     120
_refine_ls_number_reflns         1658
_refine_ls_number_restraints     0
_refine_ls_restrained_S_all      0.958
_refine_ls_R_factor_all          0.1139
_refine_ls_R_factor_gt           0.0957
_refine_ls_shift/su_max          0.000
_refine_ls_shift/su_mean         0.000
_refine_ls_structure_factor_coef Fsqd
_refine_ls_weighting_details
'w=1/[\s^2^(Fo^2^)+(0.1198P)^2^] where P=(Fo^2^+2Fc^2^)/3'
_refine_ls_weighting_scheme      calc
_refine_ls_wR_factor_gt          0.2303
_refine_ls_wR_factor_ref         0.2547
_reflns_Friedel_coverage         0.000
_reflns_number_gt                1053
_reflns_number_total             1658
_reflns_threshold_expression     'I > 2\s(I)'
_cod_data_source_file            c8ce00336j2.cif
_cod_data_source_block           5
_cod_depositor_comments
'Adding full bibliography for 7230514--7230540.cif.'
_cod_database_code               7230539
_shelx_shelxl_version_number     2014/7
_shelx_space_group_comment
;
The symmetry employed for this shelxl refinement is uniquely defined
by the following loop, which should always be used as a source of
symmetry information in preference to the above space-group names.
They are only intended as comments.
;
_shelx_res_file
;

    shelx.res created by SHELXL-2014/7

TITL shelx in P2(1)/n
CELL  0.71073   3.7691   6.5987  31.6021   90.000   91.273   90.000
ZERR    18.00   0.0088   0.0153   0.0728    0.000    0.028    0.000
LATT   1
SYMM  1/2 - X, 1/2 + Y, 1/2 - Z
SFAC  C    H    O    F
UNIT  18 18 18 18
MERG   2
OMIT    -2.00  55.00
EQIV $1 -x+2, -y+2, -z
HTAB C2 O2_$1
EQIV $2 -x+1, -y+1, -z
HTAB O2 O1_$2
OMIT     1   2  21
OMIT     3   3   6
OMIT     0   4  17
FMAP   2
PLAN   20
ACTA
HTAB    2.00000
BOND
BOND   $H
CONF
L.S. 100
WGHT    0.119800
FVAR       0.77411   0.26371
MOLE    1
C1    1    0.654718    0.723629    0.034587    11.00000    0.02528    0.02923 =
         0.02400    0.00253    0.00472   -0.00132
C2    1    0.778092    0.898593    0.060044    11.00000    0.02423    0.03035 =
         0.02565    0.00130    0.00505   -0.00509
AFIX  43
H2    2    0.892352    1.005500    0.046852    11.00000   -1.20000
AFIX   0
C3    1    0.727325    0.905820    0.102405    11.00000    0.01831    0.02909 =
         0.02477    0.00373    0.00410   -0.00115
AFIX  43
H3    2    0.611358    0.796078    0.114334    11.00000   -1.20000
AFIX   0
C4    1    0.836925    1.069128    0.131171    11.00000    0.01705    0.03029 =
         0.02235    0.00082    0.00507    0.00146
C5    1    0.793729    1.049219    0.175568    11.00000    0.02548    0.02860 =
         0.02523    0.00425    0.00644   -0.00069
C6    1    0.891130    1.196966    0.204848    11.00000    0.03012    0.03954 =
         0.02143   -0.00155    0.00256    0.00504
AFIX  43
H6    2    0.861389    1.177772    0.233707    11.00000   -1.20000
AFIX   0
C7    1    1.034109    1.373666    0.189227    11.00000    0.02575    0.03452 =
         0.03456   -0.01101    0.00240   -0.00040
PART    1
AFIX  43
H7    2    1.100882    1.475219    0.208192    21.00000   -1.20000
AFIX   0
PART    2
F2    4    1.138092    1.519123    0.216330   -21.00000    0.04745    0.04214 =
         0.03605   -0.01758    0.00020   -0.00629
PART    0
C8    1    1.082951    1.406272    0.145590    11.00000    0.02322    0.03006 =
         0.03952   -0.00128    0.00744   -0.00334
AFIX  43
H8    2    1.179443    1.527256    0.136074    11.00000   -1.20000
AFIX   0
C9    1    0.984656    1.254800    0.117015    11.00000    0.02410    0.03077 =
         0.02406    0.00360    0.00756   -0.00041
AFIX  43
H9    2    1.016059    1.275315    0.088225    11.00000   -1.20000
AFIX   0
O1    3    0.491913    0.578540    0.051427    11.00000    0.03746    0.03385 =
         0.02705    0.00107    0.00873   -0.01253
O2    3    0.728610    0.730430   -0.005352    11.00000    0.04881    0.04036 =
         0.01972   -0.00320    0.00787   -0.01453
AFIX 147
H2A   2    0.699337    0.617938   -0.015888    11.00000   -1.50000
AFIX   0
F1    4    0.651021    0.874812    0.190159    11.00000    0.05446    0.03568 =
         0.02668    0.00616    0.01035   -0.00746
HKLF    4

REM  shelx in P2(1)/n
REM R1 =  0.0957 for    1053 Fo > 4sig(Fo)  and  0.1139 for all    1658 data
REM    120 parameters refined using      0 restraints

END

WGHT      0.1125      0.0000

REM Instructions for potential hydrogen bonds
HTAB C2 O2_$1
HTAB O2 O1_$2

REM Highest difference peak  0.470,  deepest hole -0.477,  1-sigma level  0.129
Q1    1   0.5461  1.1434  0.1803  11.00000  0.05    0.47
Q2    1   0.8833  0.7397  0.1918  11.00000  0.05    0.44
Q3    1   0.3407  0.9637  0.1841  11.00000  0.05    0.41
Q4    1   0.4560  0.4603  0.0384  11.00000  0.05    0.38
Q5    1   0.3875  0.6219  0.0454  11.00000  0.05    0.36
Q6    1   0.3602  0.8226  0.1753  11.00000  0.05    0.36
Q7    1   1.4095  1.4930  0.1507  11.00000  0.05    0.36
Q8    1   0.9624  0.9226 -0.0021  11.00000  0.05    0.35
Q9    1   1.1296  1.6630  0.1912  11.00000  0.05    0.35
Q10   1   0.7580  1.4515  0.1770  11.00000  0.05    0.35
Q11   1   1.1192  0.7995  0.1898  11.00000  0.05    0.34
Q12   1   1.4544  1.3141  0.1607  11.00000  0.05    0.34
Q13   1   0.7325  0.5377 -0.0448  11.00000  0.05    0.33
Q14   1   0.6149  0.7319  0.1683  11.00000  0.05    0.32
Q15   1   0.8137  0.9169  0.1888  11.00000  0.05    0.32
Q16   1   0.8499  1.1833  0.1950  11.00000  0.05    0.32
Q17   1   0.9172  1.5245  0.0908  11.00000  0.05    0.32
Q18   1   1.1058  0.7564  0.0049  11.00000  0.05    0.31
Q19   1   0.8506  1.2824  0.1969  11.00000  0.05    0.31
Q20   1   1.1064  0.6554  0.0086  11.00000  0.05    0.30
;
_shelx_res_checksum              63889
loop_
_space_group_symop_operation_xyz
'x, y, z'
'-x+1/2, y+1/2, -z+1/2'
'-x, -y, -z'
'x-1/2, -y-1/2, z-1/2'
loop_
_atom_site_label
_atom_site_type_symbol
_atom_site_fract_x
_atom_site_fract_y
_atom_site_fract_z
_atom_site_U_iso_or_equiv
_atom_site_adp_type
_atom_site_occupancy
_atom_site_site_symmetry_order
_atom_site_calc_flag
_atom_site_refinement_flags_posn
_atom_site_refinement_flags_adp
_atom_site_refinement_flags_occupancy
_atom_site_disorder_assembly
_atom_site_disorder_group
C1 C 0.6547(8) 0.7236(5) 0.03459(9) 0.0261(7) Uani 1 1 d . . . . .
C2 C 0.7781(8) 0.8986(5) 0.06004(9) 0.0267(7) Uani 1 1 d . . . . .
H2 H 0.8924 1.0055 0.0469 0.032 Uiso 1 1 calc R U . . .
C3 C 0.7273(7) 0.9058(5) 0.10240(8) 0.0240(7) Uani 1 1 d . . . . .
H3 H 0.6114 0.7961 0.1143 0.029 Uiso 1 1 calc R U . . .
C4 C 0.8369(8) 1.0691(5) 0.13117(9) 0.0232(7) Uani 1 1 d . . . . .
C5 C 0.7937(8) 1.0492(5) 0.17557(9) 0.0264(7) Uani 1 1 d . . . . .
C6 C 0.8911(8) 1.1970(5) 0.20485(9) 0.0303(8) Uani 1 1 d . . . . .
H6 H 0.8614 1.1778 0.2337 0.036 Uiso 1 1 calc R U . . .
C7 C 1.0341(9) 1.3737(5) 0.18923(10) 0.0316(8) Uani 1 1 d . . . . .
H7 H 1.1009 1.4752 0.2082 0.038 Uiso 0.264(4) 1 calc R U P A 1
F2 F 1.1381(8) 1.5191(4) 0.21633(9) 0.0419(9) Uani 0.736(4) 1 d . . P A 2
C8 C 1.0830(8) 1.4063(5) 0.14559(10) 0.0308(8) Uani 1 1 d . . . . .
H8 H 1.1794 1.5273 0.1361 0.037 Uiso 1 1 calc R U . . .
C9 C 0.9847(8) 1.2548(4) 0.11702(9) 0.0262(7) Uani 1 1 d . . . . .
H9 H 1.0161 1.2753 0.0882 0.031 Uiso 1 1 calc R U . . .
O1 O 0.4919(6) 0.5785(3) 0.05143(6) 0.0327(6) Uani 1 1 d . . . . .
O2 O 0.7286(7) 0.7304(4) -0.00535(7) 0.0362(7) Uani 1 1 d . . . . .
H2A H 0.6993 0.6179 -0.0159 0.054 Uiso 1 1 calc R U . . .
F1 F 0.6510(5) 0.8748(3) 0.19016(5) 0.0388(6) Uani 1 1 d . . . . .
loop_
_atom_site_aniso_label
_atom_site_aniso_U_11
_atom_site_aniso_U_22
_atom_site_aniso_U_33
_atom_site_aniso_U_23
_atom_site_aniso_U_13
_atom_site_aniso_U_12
C1 0.0253(16) 0.0292(16) 0.0240(13) 0.0025(12) 0.0047(12) -0.0013(12)
C2 0.0242(16) 0.0304(16) 0.0256(14) 0.0013(12) 0.0050(12) -0.0051(13)
C3 0.0183(14) 0.0291(15) 0.0248(14) 0.0037(12) 0.0041(11) -0.0011(12)
C4 0.0171(14) 0.0303(16) 0.0223(13) 0.0008(11) 0.0051(11) 0.0015(11)
C5 0.0255(16) 0.0286(17) 0.0252(14) 0.0043(12) 0.0064(12) -0.0007(12)
C6 0.0301(17) 0.0395(18) 0.0214(13) -0.0015(13) 0.0026(12) 0.0050(14)
C7 0.0257(16) 0.0345(18) 0.0346(16) -0.0110(13) 0.0024(13) -0.0004(13)
F2 0.0474(18) 0.0421(16) 0.0360(14) -0.0176(12) 0.0002(13) -0.0063(13)
C8 0.0232(16) 0.0301(17) 0.0395(17) -0.0013(14) 0.0074(13) -0.0033(13)
C9 0.0241(15) 0.0308(17) 0.0241(13) 0.0036(11) 0.0076(11) -0.0004(12)
O1 0.0375(14) 0.0339(13) 0.0271(11) 0.0011(9) 0.0087(10) -0.0125(10)
O2 0.0488(15) 0.0404(14) 0.0197(10) -0.0032(9) 0.0079(10) -0.0145(11)
F1 0.0545(14) 0.0357(12) 0.0267(9) 0.0062(8) 0.0103(9) -0.0075(9)
loop_
_atom_type_symbol
_atom_type_description
_atom_type_scat_dispersion_real
_atom_type_scat_dispersion_imag
_atom_type_scat_source
C C 0.0033 0.0016 'International Tables Vol C Tables 4.2.6.8 and 6.1.1.4'
H H 0.0000 0.0000 'International Tables Vol C Tables 4.2.6.8 and 6.1.1.4'
O O 0.0106 0.0060 'International Tables Vol C Tables 4.2.6.8 and 6.1.1.4'
F F 0.0171 0.0103 'International Tables Vol C Tables 4.2.6.8 and 6.1.1.4'
loop_
_geom_angle_atom_site_label_1
_geom_angle_atom_site_label_2
_geom_angle_atom_site_label_3
_geom_angle
O1 C1 O2 123.6(3)
O1 C1 C2 120.9(3)
O2 C1 C2 115.5(3)
C3 C2 C1 121.0(3)
C3 C2 H2 119.5
C1 C2 H2 119.5
C2 C3 C4 126.5(3)
C2 C3 H3 116.8
C4 C3 H3 116.8
C9 C4 C5 116.4(3)
C9 C4 C3 123.1(3)
C5 C4 C3 120.5(3)
F1 C5 C6 118.1(3)
F1 C5 C4 118.0(3)
C6 C5 C4 123.9(3)
C7 C6 C5 117.0(3)
C7 C6 H6 121.5
C5 C6 H6 121.5
F2 C7 C6 119.2(3)
F2 C7 C8 118.2(3)
C6 C7 C8 122.6(3)
C6 C7 H7 118.7
C8 C7 H7 118.7
C9 C8 C7 119.1(3)
C9 C8 H8 120.5
C7 C8 H8 120.5
C8 C9 C4 121.0(3)
C8 C9 H9 119.5
C4 C9 H9 119.5
C1 O2 H2A 109.5
loop_
_geom_bond_atom_site_label_1
_geom_bond_atom_site_label_2
_geom_bond_distance
C1 O1 1.261(4)
C1 O2 1.299(4)
C1 C2 1.476(5)
C2 C3 1.357(5)
C2 H2 0.9300
C3 C4 1.463(5)
C3 H3 0.9300
C4 C9 1.422(5)
C4 C5 1.422(5)
C5 F1 1.356(4)
C5 C6 1.388(5)
C6 C7 1.380(5)
C6 H6 0.9300
C7 F2 1.339(4)
C7 C8 1.412(5)
C7 H7 0.9300
C8 C9 1.392(5)
C8 H8 0.9300
C9 H9 0.9300
O2 H2A 0.8200
loop_
_geom_hbond_atom_site_label_D
_geom_hbond_atom_site_label_H
_geom_hbond_atom_site_label_A
_geom_hbond_distance_DH
_geom_hbond_distance_HA
_geom_hbond_distance_DA
_geom_hbond_angle_DHA
_geom_hbond_site_symmetry_A
C2 H2 O2 0.93 2.62 3.547(6) 172.2 3_775
O2 H2A O1 0.82 1.85 2.629(5) 158.1 3_665
loop_
_geom_torsion_atom_site_label_1
_geom_torsion_atom_site_label_2
_geom_torsion_atom_site_label_3
_geom_torsion_atom_site_label_4
_geom_torsion
O1 C1 C2 C3 1.6(5)
O2 C1 C2 C3 -177.8(3)
C1 C2 C3 C4 179.8(2)
C2 C3 C4 C9 6.4(5)
C2 C3 C4 C5 -174.6(3)
C9 C4 C5 F1 179.5(3)
C3 C4 C5 F1 0.4(4)
C9 C4 C5 C6 -1.0(5)
C3 C4 C5 C6 180.0(3)
F1 C5 C6 C7 -179.7(3)
C4 C5 C6 C7 0.8(5)
C5 C6 C7 F2 -178.8(3)
C5 C6 C7 C8 -0.2(5)
F2 C7 C8 C9 178.4(3)
C6 C7 C8 C9 -0.2(5)
C7 C8 C9 C4 0.0(5)
C5 C4 C9 C8 0.6(4)
C3 C4 C9 C8 179.6(3)
