#------------------------------------------------------------------------------
#$Date: 2019-11-17 09:14:47 +0200 (Sun, 17 Nov 2019) $
#$Revision: 229045 $
#$URL: file:///home/coder/svn-repositories/cod/cif/7/23/05/7230522.cif $
#------------------------------------------------------------------------------
#
# This file is available in the Crystallography Open Database (COD),
# http://www.crystallography.net/
#
# All data on this site have been placed in the public domain by the
# contributors.
#
data_7230522
loop_
_publ_author_name
'Chakraborty, Shaunak'
'Desiraju, Gautam R.'
_publ_section_title
;
 Exploring the structural landscape with &#x2018;partial&#x2019;
 fluoro-substitution as a probe
;
_journal_issue                   20
_journal_name_full               CrystEngComm
_journal_page_first              2793
_journal_paper_doi               10.1039/C8CE00336J
_journal_volume                  20
_journal_year                    2018
_chemical_formula_moiety         'C9 H7 F O2'
_chemical_formula_sum            'C9 H7 F O2'
_chemical_formula_weight         166.15
_space_group_crystal_system      monoclinic
_space_group_IT_number           14
_space_group_name_Hall           '-P 2yn'
_space_group_name_H-M_alt        'P 1 21/n 1'
_symmetry_space_group_name_Hall  '-P 2yn'
_symmetry_space_group_name_H-M   'P 1 21/n 1'
_atom_sites_solution_hydrogens   geom
_audit_creation_method           SHELXL-2014/7
_audit_update_record
;
2018-04-14 deposited with the CCDC.
2018-04-18 downloaded from the CCDC.
;
_cell_angle_alpha                90
_cell_angle_beta                 92.54(3)
_cell_angle_gamma                90
_cell_formula_units_Z            4
_cell_length_a                   3.886(10)
_cell_length_b                   6.464(16)
_cell_length_c                   31.73(8)
_cell_measurement_reflns_used    925
_cell_measurement_temperature    100(2)
_cell_measurement_theta_max      27.5
_cell_measurement_theta_min      1.3
_cell_volume                     796(3)
_computing_structure_refinement  'SHELXL-2014/7 (Sheldrick, 2014)'
_diffrn_ambient_temperature      100(2)
_diffrn_measured_fraction_theta_full 0.907
_diffrn_measured_fraction_theta_max 0.921
_diffrn_measurement_device_type  CCD
_diffrn_radiation_type           MoK\a
_diffrn_radiation_wavelength     0.71073
_diffrn_reflns_av_R_equivalents  0.0986
_diffrn_reflns_av_unetI/netI     0.0854
_diffrn_reflns_Laue_measured_fraction_full 0.907
_diffrn_reflns_Laue_measured_fraction_max 0.921
_diffrn_reflns_limit_h_max       5
_diffrn_reflns_limit_h_min       -5
_diffrn_reflns_limit_k_max       8
_diffrn_reflns_limit_k_min       -8
_diffrn_reflns_limit_l_max       41
_diffrn_reflns_limit_l_min       -40
_diffrn_reflns_number            4653
_diffrn_reflns_point_group_measured_fraction_full 0.907
_diffrn_reflns_point_group_measured_fraction_max 0.921
_diffrn_reflns_theta_full        25.242
_diffrn_reflns_theta_max         27.382
_diffrn_reflns_theta_min         3.216
_exptl_absorpt_coefficient_mu    0.113
_exptl_crystal_colour            colourless
_exptl_crystal_density_diffrn    1.386
_exptl_crystal_description       plate
_exptl_crystal_F_000             344
_exptl_crystal_size_max          0.6
_exptl_crystal_size_mid          0.5
_exptl_crystal_size_min          0.2
_refine_diff_density_max         0.201
_refine_diff_density_min         -0.231
_refine_diff_density_rms         0.061
_refine_ls_extinction_method     none
_refine_ls_goodness_of_fit_ref   1.055
_refine_ls_hydrogen_treatment    constr
_refine_ls_matrix_type           full
_refine_ls_number_parameters     120
_refine_ls_number_reflns         1653
_refine_ls_number_restraints     0
_refine_ls_restrained_S_all      1.055
_refine_ls_R_factor_all          0.1260
_refine_ls_R_factor_gt           0.0901
_refine_ls_shift/su_max          0.000
_refine_ls_shift/su_mean         0.000
_refine_ls_structure_factor_coef Fsqd
_refine_ls_weighting_details
'w=1/[\s^2^(Fo^2^)+(0.1810P)^2^+0.0354P] where P=(Fo^2^+2Fc^2^)/3'
_refine_ls_weighting_scheme      calc
_refine_ls_wR_factor_gt          0.2832
_refine_ls_wR_factor_ref         0.3283
_reflns_Friedel_coverage         0.000
_reflns_number_gt                990
_reflns_number_total             1653
_reflns_threshold_expression     'I > 2\s(I)'
_cod_data_source_file            c8ce00336j2.cif
_cod_data_source_block           2
_cod_depositor_comments
'Adding full bibliography for 7230514--7230540.cif.'
_cod_database_code               7230522
_shelx_shelxl_version_number     2014/7
_shelx_space_group_comment
;
The symmetry employed for this shelxl refinement is uniquely defined
by the following loop, which should always be used as a source of
symmetry information in preference to the above space-group names.
They are only intended as comments.
;
_shelx_res_file
;

    shelx.res created by SHELXL-2014/7

TITL datam in P2(1)/n
CELL  0.71073   3.8860   6.4639  31.7330   90.000   92.538   90.000
ZERR    18.00   0.0097   0.0163   0.0790    0.000    0.026    0.000
LATT   1
SYMM  1/2 - X, 1/2 + Y, 1/2 - Z
SFAC  C    H    O    F
UNIT  36 28 8 4
MERG   2
OMIT    -2.00  55.00
EQIV $1 -x, -y+1, -z
HTAB C2 O2_$1
EQIV $2 -x+1, -y+2, -z
HTAB O2 O1_$2
OMIT     0   0   2
OMIT     0   0   4
FMAP   2
PLAN   20
ACTA
HTAB    2.00000
BOND
BOND   $H
CONF
L.S.  50
TEMP  -173.00
WGHT    0.181000    0.035400
FVAR       0.80310   0.82992
MOLE    1
C1    1    0.345243    0.778807    0.034945    11.00000    0.06545    0.06476 =
         0.06121   -0.00133    0.00216   -0.01183
C2    1    0.226121    0.608663    0.060604    11.00000    0.06911    0.05934 =
         0.05742   -0.00353    0.00198   -0.01308
AFIX  43
H2    2    0.116853    0.493904    0.046931    11.00000   -1.20000
AFIX   0
C3    1    0.264503    0.607839    0.102460    11.00000    0.05942    0.05615 =
         0.06257   -0.00458    0.00360   -0.00719
AFIX  43
H3    2    0.374617    0.725238    0.115011    11.00000   -1.20000
AFIX   0
C4    1    0.156115    0.446350    0.131342    11.00000    0.04755    0.06445 =
         0.05572   -0.00117    0.00148   -0.00324
C5    1    0.193613    0.477437    0.174813    11.00000    0.07660    0.07844 =
         0.05778   -0.01049    0.00086   -0.00255
PART    1
AFIX  43
H5    2    0.288978    0.603763    0.185229    21.00000   -1.20000
AFIX   0
PART    2
F1    4    0.359699    0.648015    0.190482   -21.00000    0.16006    0.06901 =
         0.08827   -0.03151   -0.00599   -0.02217
PART    0
C6    1    0.095340    0.328942    0.202885    11.00000    0.09325    0.09991 =
         0.05873    0.01122    0.00220    0.00373
AFIX  43
H6    2    0.125600    0.350806    0.232421    11.00000   -1.20000
AFIX   0
C7    1   -0.046073    0.150086    0.187555    11.00000    0.06865    0.08536 =
         0.07824    0.02321    0.00977    0.00043
PART    1
AFIX  43
H7    2   -0.118224    0.048733    0.206965   -21.00000   -1.20000
AFIX   0
PART    2
F2    4   -0.148109    0.003251    0.214766    21.00000    0.12051    0.11843 =
         0.10583    0.05443    0.01514   -0.00915
PART    0
C8    1   -0.088485    0.110423    0.145267    11.00000    0.07030    0.06624 =
         0.08417    0.00942   -0.00219   -0.00916
AFIX  43
H8    2   -0.184557   -0.016597    0.135330    11.00000   -1.20000
AFIX   0
C9    1    0.012536    0.260506    0.117571    11.00000    0.06451    0.07231 =
         0.06258   -0.00016    0.00037   -0.01339
AFIX  43
H9    2   -0.017077    0.235930    0.088117    11.00000   -1.20000
AFIX   0
O1    3    0.497509    0.930949    0.051923    11.00000    0.10317    0.07022 =
         0.06318   -0.00253   -0.00091   -0.03464
O2    3    0.284330    0.765298   -0.004650    11.00000    0.13061    0.08328 =
         0.05712    0.00333   -0.00248   -0.04396
AFIX 147
H2A   2    0.360503    0.870943   -0.016516    11.00000   -1.50000
AFIX   0
HKLF    4

REM  datam in P2(1)/n
REM R1 =  0.0901 for     990 Fo > 4sig(Fo)  and  0.1260 for all    1653 data
REM    120 parameters refined using      0 restraints

END

WGHT      0.1111      0.0825

REM Instructions for potential hydrogen bonds
HTAB C2 O2_$1
HTAB O2 O1_$2

REM Highest difference peak  0.201,  deepest hole -0.231,  1-sigma level  0.061
Q1    1  -0.1104  0.7615  0.0459  11.00000  0.05    0.20
Q2    1   0.8421  0.8491  0.0605  11.00000  0.05    0.18
Q3    1   0.5437  0.3745  0.1833  11.00000  0.05    0.17
Q4    1   0.1168  1.1171 -0.0170  11.00000  0.05    0.17
Q5    1   0.4028  0.1765  0.2558  11.00000  0.05    0.16
Q6    1   0.8073  0.8770  0.0214  11.00000  0.05    0.16
Q7    1   0.8300  0.6778  0.1146  11.00000  0.05    0.16
Q8    1  -0.1465  0.6143  0.0681  11.00000  0.05    0.16
Q9    1  -0.4215  0.3017  0.1574  11.00000  0.05    0.16
Q10   1  -0.5675  0.0732  0.1905  11.00000  0.05    0.15
Q11   1   0.0967  0.2173  0.0393  11.00000  0.05    0.15
Q12   1   0.1726  1.0783  0.0437  11.00000  0.05    0.14
Q13   1   0.1591  0.7863  0.1673  11.00000  0.05    0.14
Q14   1   0.6234  0.6291  0.1540  11.00000  0.05    0.14
Q15   1  -0.0600  0.5369  0.0432  11.00000  0.05    0.14
Q16   1   0.8229  0.7495  0.0813  11.00000  0.05    0.14
Q17   1   0.5481  0.4193  0.0452  11.00000  0.05    0.14
Q18   1   0.5590  0.4772  0.0522  11.00000  0.05    0.14
Q19   1   0.1481 -0.0218  0.0969  11.00000  0.05    0.14
Q20   1   0.4060  0.3048  0.0502  11.00000  0.05    0.13
;
_shelx_res_checksum              35162
loop_
_space_group_symop_operation_xyz
'x, y, z'
'-x+1/2, y+1/2, -z+1/2'
'-x, -y, -z'
'x-1/2, -y-1/2, z-1/2'
loop_
_atom_site_label
_atom_site_type_symbol
_atom_site_fract_x
_atom_site_fract_y
_atom_site_fract_z
_atom_site_U_iso_or_equiv
_atom_site_adp_type
_atom_site_occupancy
_atom_site_site_symmetry_order
_atom_site_calc_flag
_atom_site_refinement_flags_posn
_atom_site_refinement_flags_adp
_atom_site_refinement_flags_occupancy
_atom_site_disorder_assembly
_atom_site_disorder_group
C1 C 0.3452(9) 0.7788(6) 0.03495(11) 0.0638(9) Uani 1 1 d . . . . .
C2 C 0.2261(9) 0.6087(6) 0.06060(10) 0.0620(9) Uani 1 1 d . . . . .
H2 H 0.1169 0.4939 0.0469 0.074 Uiso 1 1 calc R U . . .
C3 C 0.2645(8) 0.6078(6) 0.10246(10) 0.0594(9) Uani 1 1 d . . . . .
H3 H 0.3746 0.7252 0.1150 0.071 Uiso 1 1 calc R U . . .
C4 C 0.1561(7) 0.4464(6) 0.13134(9) 0.0559(8) Uani 1 1 d . . . . .
C5 C 0.1936(10) 0.4774(7) 0.17481(11) 0.0710(10) Uani 1 1 d . . . . .
H5 H 0.2890 0.6038 0.1852 0.085 Uiso 0.830(9) 1 calc R U P A 1
F1 F 0.360(5) 0.648(3) 0.1905(5) 0.106(8) Uani 0.170(9) 1 d . . P A 2
C6 C 0.0953(12) 0.3289(9) 0.20289(12) 0.0840(13) Uani 1 1 d . . . . .
H6 H 0.1256 0.3508 0.2324 0.101 Uiso 1 1 calc R U . . .
C7 C -0.0461(10) 0.1501(8) 0.18755(13) 0.0772(11) Uani 1 1 d . . . . .
H7 H -0.1182 0.0487 0.2070 0.093 Uiso 0.170(9) 1 calc R U P A 1
F2 F -0.1481(10) 0.0033(7) 0.21477(12) 0.1146(17) Uani 0.830(9) 1 d . . P A 2
C8 C -0.0885(10) 0.1104(7) 0.14527(13) 0.0737(11) Uani 1 1 d . . . . .
H8 H -0.1846 -0.0166 0.1353 0.088 Uiso 1 1 calc R U . . .
C9 C 0.0125(9) 0.2605(7) 0.11757(11) 0.0665(10) Uani 1 1 d . . . . .
H9 H -0.0171 0.2359 0.0881 0.080 Uiso 1 1 calc R U . . .
O1 O 0.4975(7) 0.9309(4) 0.05192(8) 0.0790(9) Uani 1 1 d . . . . .
O2 O 0.2843(10) 0.7653(5) -0.00465(7) 0.0905(11) Uani 1 1 d . . . . .
H2A H 0.3605 0.8709 -0.0165 0.136 Uiso 1 1 calc R U . . .
loop_
_atom_site_aniso_label
_atom_site_aniso_U_11
_atom_site_aniso_U_22
_atom_site_aniso_U_33
_atom_site_aniso_U_23
_atom_site_aniso_U_13
_atom_site_aniso_U_12
C1 0.0655(19) 0.065(2) 0.0612(17) -0.0013(15) 0.0022(14) -0.0118(17)
C2 0.0691(19) 0.059(2) 0.0574(17) -0.0035(14) 0.0020(14) -0.0131(16)
C3 0.0594(17) 0.056(2) 0.0626(17) -0.0046(14) 0.0036(13) -0.0072(15)
C4 0.0475(15) 0.064(2) 0.0557(16) -0.0012(14) 0.0015(12) -0.0032(13)
C5 0.077(2) 0.078(3) 0.0578(18) -0.0105(16) 0.0009(15) -0.0026(19)
F1 0.160(17) 0.069(10) 0.088(10) -0.032(8) -0.006(10) -0.022(10)
C6 0.093(3) 0.100(4) 0.0587(19) 0.011(2) 0.0022(18) 0.004(2)
C7 0.069(2) 0.085(3) 0.078(2) 0.023(2) 0.0098(17) 0.000(2)
F2 0.121(3) 0.118(4) 0.106(2) 0.054(2) 0.0151(19) -0.009(2)
C8 0.070(2) 0.066(2) 0.084(2) 0.0094(18) -0.0022(18) -0.0092(18)
C9 0.0645(18) 0.072(2) 0.0626(18) -0.0002(16) 0.0004(15) -0.0134(16)
O1 0.103(2) 0.0702(17) 0.0632(15) -0.0025(12) -0.0009(13) -0.0346(15)
O2 0.131(3) 0.083(2) 0.0571(15) 0.0033(13) -0.0025(15) -0.0440(19)
loop_
_atom_type_symbol
_atom_type_description
_atom_type_scat_dispersion_real
_atom_type_scat_dispersion_imag
_atom_type_scat_source
C C 0.0033 0.0016 'International Tables Vol C Tables 4.2.6.8 and 6.1.1.4'
H H 0.0000 0.0000 'International Tables Vol C Tables 4.2.6.8 and 6.1.1.4'
O O 0.0106 0.0060 'International Tables Vol C Tables 4.2.6.8 and 6.1.1.4'
F F 0.0171 0.0103 'International Tables Vol C Tables 4.2.6.8 and 6.1.1.4'
loop_
_geom_angle_atom_site_label_1
_geom_angle_atom_site_label_2
_geom_angle_atom_site_label_3
_geom_angle
O1 C1 O2 122.8(3)
O1 C1 C2 120.4(3)
O2 C1 C2 116.8(3)
C3 C2 C1 122.5(3)
C3 C2 H2 118.8
C1 C2 H2 118.8
C2 C3 C4 127.3(3)
C2 C3 H3 116.4
C4 C3 H3 116.4
C9 C4 C5 117.3(3)
C9 C4 C3 122.9(3)
C5 C4 C3 119.7(4)
F1 C5 C6 118.0(8)
F1 C5 C4 120.3(9)
C6 C5 C4 121.3(4)
C6 C5 H5 119.3
C4 C5 H5 119.3
C7 C6 C5 118.7(4)
C7 C6 H6 120.6
C5 C6 H6 120.6
F2 C7 C6 119.5(4)
F2 C7 C8 117.9(5)
C6 C7 C8 122.6(4)
C6 C7 H7 118.7
C8 C7 H7 118.7
C7 C8 C9 117.9(4)
C7 C8 H8 121.0
C9 C8 H8 121.0
C8 C9 C4 122.1(4)
C8 C9 H9 119.0
C4 C9 H9 119.0
C1 O2 H2A 109.5
loop_
_geom_bond_atom_site_label_1
_geom_bond_atom_site_label_2
_geom_bond_distance
C1 O1 1.257(5)
C1 O2 1.271(5)
C1 C2 1.456(5)
C2 C3 1.330(6)
C2 H2 0.9500
C3 C4 1.463(5)
C3 H3 0.9500
C4 C9 1.387(6)
C4 C5 1.395(6)
C5 F1 1.361(15)
C5 C6 1.375(6)
C5 H5 0.9500
C6 C7 1.361(7)
C6 H6 0.9500
C7 F2 1.354(6)
C7 C8 1.369(7)
C7 H7 0.9500
C8 C9 1.378(6)
C8 H8 0.9500
C9 H9 0.9500
O2 H2A 0.8400
loop_
_geom_hbond_atom_site_label_D
_geom_hbond_atom_site_label_H
_geom_hbond_atom_site_label_A
_geom_hbond_distance_DH
_geom_hbond_distance_HA
_geom_hbond_distance_DA
_geom_hbond_angle_DHA
_geom_hbond_site_symmetry_A
C2 H2 O2 0.95 2.62 3.552(7) 167.9 3_565
O2 H2A O1 0.84 1.81 2.634(6) 168.2 3_675
loop_
_geom_torsion_atom_site_label_1
_geom_torsion_atom_site_label_2
_geom_torsion_atom_site_label_3
_geom_torsion_atom_site_label_4
_geom_torsion
O1 C1 C2 C3 1.6(6)
O2 C1 C2 C3 -177.8(4)
C1 C2 C3 C4 -179.9(3)
C2 C3 C4 C9 4.3(6)
C2 C3 C4 C5 -175.2(4)
C9 C4 C5 F1 174.2(10)
C3 C4 C5 F1 -6.2(11)
C9 C4 C5 C6 0.6(6)
C3 C4 C5 C6 -179.8(3)
F1 C5 C6 C7 -174.8(10)
C4 C5 C6 C7 -1.1(6)
C5 C6 C7 F2 -179.2(4)
C5 C6 C7 C8 1.3(7)
F2 C7 C8 C9 179.4(4)
C6 C7 C8 C9 -1.0(7)
C7 C8 C9 C4 0.6(6)
C5 C4 C9 C8 -0.4(5)
C3 C4 C9 C8 -179.9(3)
