#------------------------------------------------------------------------------
#$Date: 2019-11-17 08:42:31 +0200 (Sun, 17 Nov 2019) $
#$Revision: 228912 $
#$URL: file:///home/coder/svn-repositories/cod/cif/7/23/08/7230844.cif $
#------------------------------------------------------------------------------
#
# This file is available in the Crystallography Open Database (COD),
# http://www.crystallography.net/
#
# All data on this site have been placed in the public domain by the
# contributors.
#
data_7230844
loop_
_publ_author_name
'Ate\,s, \"Ozge Dilara'
'Zorlu, Yunus'
'Kanmazalp, Sibel Demir'
'Chumakov, Yurii'
'G\"urek, Ay\,se G\"ul'
'Ayhan, Mehmet Menaf'
_publ_section_title
;
 Halogen bonding driven crystal engineering of iodophthalonitrile
 derivatives
;
_journal_issue                   27
_journal_name_full               CrystEngComm
_journal_page_first              3858
_journal_paper_doi               10.1039/C8CE00594J
_journal_volume                  20
_journal_year                    2018
_chemical_formula_moiety         'C8 H3 I N2'
_chemical_formula_sum            'C8 H3 I N2'
_chemical_formula_weight         254.02
_chemical_name_common            phthalonitrile
_space_group_crystal_system      triclinic
_space_group_IT_number           2
_space_group_name_Hall           '-P 1'
_space_group_name_H-M_alt        'P -1'
_symmetry_space_group_name_Hall  '-P 1'
_symmetry_space_group_name_H-M   'P -1'
_atom_sites_solution_hydrogens   geom
_audit_update_record
;
2017-11-30 deposited with the CCDC.
2018-06-07 downloaded from the CCDC.
;
_cell_angle_alpha                109.201(4)
_cell_angle_beta                 105.966(4)
_cell_angle_gamma                109.054(4)
_cell_formula_units_Z            2
_cell_length_a                   7.6381(5)
_cell_length_b                   8.0021(5)
_cell_length_c                   8.1572(5)
_cell_measurement_reflns_used    2997
_cell_measurement_temperature    173.(2)
_cell_measurement_theta_max      27.3975
_cell_measurement_theta_min      2.9264
_cell_volume                     402.13(5)
_computing_cell_refinement       'APEX2 v2014.11-0 (Bruker AXS)'
_computing_data_collection
'Bruker Instrument Service v2013.12.0.0 (Bruker AXS)'
_computing_data_reduction        'SAINT V8.34A (Bruker AXS)'
_computing_molecular_graphics    'MERCURY (Macrae et al., 2006)'
_computing_publication_material
'PLATON V1.16 (Spek, 2009), SHELXTL V6.14 (Bruker AXS)'
_computing_structure_refinement  'SHELXTL V6.14 (Bruker AXS)'
_computing_structure_solution    'SHELXTL V6.14 (Bruker AXS)'
_diffrn_ambient_temperature      173.(2)
_diffrn_detector_area_resol_mean 8.3333
_diffrn_measured_fraction_theta_full 0.976
_diffrn_measured_fraction_theta_max 0.976
_diffrn_measurement_device_type
'Bruker APEX II QUAZAR three-circle diffractometer'
_diffrn_measurement_method       '\f and \w scans'
_diffrn_radiation_monochromator  'multilayer QUAZAR mirrors'
_diffrn_radiation_type           MoK\a
_diffrn_radiation_wavelength     0.71073
_diffrn_reflns_av_R_equivalents  0.0513
_diffrn_reflns_av_unetI/netI     0.0477
_diffrn_reflns_limit_h_max       9
_diffrn_reflns_limit_h_min       -9
_diffrn_reflns_limit_k_max       9
_diffrn_reflns_limit_k_min       -9
_diffrn_reflns_limit_l_max       9
_diffrn_reflns_limit_l_min       -9
_diffrn_reflns_number            4550
_diffrn_reflns_theta_full        24.99
_diffrn_reflns_theta_max         24.99
_diffrn_reflns_theta_min         2.93
_diffrn_source                   'microfocus sealed tube'
_diffrn_source_type              ImuS
_exptl_absorpt_coefficient_mu    3.911
_exptl_absorpt_correction_T_max  0.61
_exptl_absorpt_correction_T_min  0.24
_exptl_absorpt_correction_type   multi-scan
_exptl_absorpt_process_details   'SADABS V2014/5 (Bruker AXS)'
_exptl_crystal_colour            colourless
_exptl_crystal_density_diffrn    2.098
_exptl_crystal_density_method    'not measured'
_exptl_crystal_description       Block
_exptl_crystal_F_000             236
_exptl_crystal_size_max          0.550
_exptl_crystal_size_mid          0.312
_exptl_crystal_size_min          0.142
_refine_diff_density_max         1.949
_refine_diff_density_min         -1.292
_refine_ls_extinction_method     none
_refine_ls_goodness_of_fit_ref   1.059
_refine_ls_hydrogen_treatment    constr
_refine_ls_matrix_type           full
_refine_ls_number_parameters     100
_refine_ls_number_reflns         1377
_refine_ls_number_restraints     0
_refine_ls_restrained_S_all      1.059
_refine_ls_R_factor_all          0.0382
_refine_ls_R_factor_gt           0.0368
_refine_ls_shift/su_max          0.000
_refine_ls_shift/su_mean         0.000
_refine_ls_structure_factor_coef Fsqd
_refine_ls_weighting_details
'w=1/[\s^2^(Fo^2^)+(0.0609P)^2^] where P=(Fo^2^+2Fc^2^)/3'
_refine_ls_weighting_scheme      calc
_refine_ls_wR_factor_gt          0.0918
_refine_ls_wR_factor_ref         0.0928
_reflns_number_gt                1296
_reflns_number_total             1377
_reflns_threshold_expression     'I > 2\s(I)'
_cod_data_source_file            c8ce00594j2.cif
_cod_data_source_block           I
_cod_depositor_comments
'Adding full bibliography for 7230844--7230847.cif.'
_cod_database_code               7230844
_shelx_res_file
;
16gtu172_I_PN_0m_a.res created by SHELXL-2014/7


TITL 16gtu172_I_PN_0m_a.res in P-1
CELL  0.71073   7.6381   8.0021   8.1572  109.201  105.966  109.054
ZERR    2.000   0.0005   0.0005   0.0005    0.004    0.004    0.004
LATT 1
SFAC C  H  I  N
UNIT 16  6  2  4
L.S. 30
ACTA
BOND $H
HTAB
EQIV $1 x, y-1, z
HTAB C3 N2_$1
CONF
OMIT 0 50
SHEL 7 0.84
FMAP 2
PLAN 20
SIZE 0.142 0.312 0.55
TEMP -100.150
WGHT    0.060900
FVAR       0.65741
C1    1    0.236274    0.805596    0.659215    11.00000    0.03226    0.02208 =
         0.02863    0.01236    0.01336    0.01759
C2    1    0.241534    0.753852    0.476639    11.00000    0.02202    0.02192 =
         0.01774    0.00961    0.00767    0.01125
C3    1    0.255945    0.578817    0.387086    11.00000    0.02524    0.02202 =
         0.01995    0.01366    0.00681    0.01293
AFIX  43
H3    2    0.258312    0.494475    0.445928    11.00000   -1.20000
AFIX   0
C4    1    0.266680    0.530926    0.211276    11.00000    0.02375    0.02495 =
         0.01837    0.00903    0.00849    0.01190
C5    1    0.260796    0.651899    0.122831    11.00000    0.02676    0.03136 =
         0.02161    0.01392    0.01097    0.01576
AFIX  43
H5    2    0.268315    0.617583    0.002750    11.00000   -1.20000
AFIX   0
C6    1    0.244033    0.821657    0.209771    11.00000    0.02679    0.02167 =
         0.02374    0.01455    0.01109    0.01370
AFIX  43
H6    2    0.237855    0.902949    0.147942    11.00000   -1.20000
AFIX   0
C7    1    0.236040    0.875611    0.386502    11.00000    0.01840    0.01806 =
         0.02126    0.00916    0.00571    0.00897
C8    1    0.222973    1.057358    0.476261    11.00000    0.02782    0.02359 =
         0.02049    0.01310    0.01091    0.01323
I1    3    0.290893    0.274248    0.076416    11.00000    0.04441    0.02799 =
         0.02449    0.01250    0.01814    0.02467
N1    4    0.236420    0.847596    0.809482    11.00000    0.06326    0.03906 =
         0.02221    0.01691    0.02323    0.03390
N2    4    0.214119    1.203231    0.542156    11.00000    0.03910    0.03069 =
         0.03148    0.01453    0.01627    0.01867
HKLF 4

REM  16gtu172_I_PN_0m_a.res in P-1
REM R1 =  0.0368 for    1296 Fo > 4sig(Fo)  and  0.0382 for all    1377 data
REM    100 parameters refined using      0 restraints

END

WGHT      0.0609      0.0000

REM Instructions for potential hydrogen bonds
HTAB C3 N2_$1

REM Highest difference peak  1.949,  deepest hole -1.292,  1-sigma level  0.175
Q1    1   0.1781  0.2005  0.1026  11.00000  0.05    1.95
Q2    1   0.3962  0.3336  0.0417  11.00000  0.05    1.93
Q3    1   0.4097  0.3275  0.1930  11.00000  0.05    0.81
Q4    1   0.4518  0.5939 -0.0265  11.00000  0.05    0.61
Q5    1   0.0194  0.1677  0.1041  11.00000  0.05    0.57
Q6    1   0.1791  0.2311 -0.0378  11.00000  0.05    0.54
Q7    1   0.4068  0.3201  0.2758  11.00000  0.05    0.51
Q8    1   0.3262  0.1782  0.1985  11.00000  0.05    0.50
Q9    1   0.1723  0.9034  0.9016  11.00000  0.05    0.49
Q10   1   0.2316  0.3492 -0.0656  11.00000  0.05    0.46
Q11   1   0.0000  0.0000  0.0000  10.50000  0.05    0.45
Q12   1   0.3481  0.9240  0.1588  11.00000  0.05    0.42
Q13   1   0.3471  0.9060  0.3377  11.00000  0.05    0.41
Q14   1   0.1719  0.2477 -0.1075  11.00000  0.05    0.40
Q15   1   0.2677  1.0262  0.0549  11.00000  0.05    0.38
Q16   1   0.5095  0.9384  0.1885  11.00000  0.05    0.37
Q17   1   0.4772  0.7131 -0.0008  11.00000  0.05    0.36
Q18   1   0.1498  0.9791  0.0483  11.00000  0.05    0.36
Q19   1   0.1218  0.1527  0.1854  11.00000  0.05    0.35
Q20   1   0.5039  0.2508  0.2463  11.00000  0.05    0.35
;
_shelx_res_checksum              29657
loop_
_space_group_symop_operation_xyz
'x, y, z'
'-x, -y, -z'
loop_
_atom_site_type_symbol
_atom_site_label
_atom_site_fract_x
_atom_site_fract_y
_atom_site_fract_z
_atom_site_U_iso_or_equiv
_atom_site_adp_type
_atom_site_calc_flag
_atom_site_refinement_flags_adp
_atom_site_refinement_flags_posn
_atom_site_occupancy
C C1 0.2363(8) 0.8056(8) 0.6592(7) 0.0258(11) Uani d . . 1
C C2 0.2415(7) 0.7539(7) 0.4766(7) 0.0203(10) Uani d . . 1
C C3 0.2559(7) 0.5788(7) 0.3871(6) 0.0213(10) Uani d . . 1
H H3 0.2583 0.4945 0.4459 0.026 Uiso calc U R 1
C C4 0.2667(7) 0.5309(7) 0.2113(6) 0.0226(10) Uani d . . 1
C C5 0.2608(8) 0.6519(8) 0.1228(7) 0.0252(11) Uani d . . 1
H H5 0.2683 0.6176 0.0027 0.03 Uiso calc U R 1
C C6 0.2440(7) 0.8217(7) 0.2098(6) 0.0220(10) Uani d . . 1
H H6 0.2379 0.9029 0.1479 0.026 Uiso calc U R 1
C C7 0.2360(7) 0.8756(7) 0.3865(6) 0.0197(10) Uani d . . 1
C C8 0.2230(7) 1.0574(7) 0.4763(6) 0.0225(10) Uani d . . 1
I I1 0.29089(5) 0.27425(4) 0.07642(4) 0.02887(19) Uani d . . 1
N N1 0.2364(8) 0.8476(8) 0.8095(6) 0.0363(12) Uani d . . 1
N N2 0.2141(7) 1.2032(7) 0.5422(6) 0.0326(10) Uani d . . 1
loop_
_atom_site_aniso_label
_atom_site_aniso_U_11
_atom_site_aniso_U_22
_atom_site_aniso_U_33
_atom_site_aniso_U_12
_atom_site_aniso_U_13
_atom_site_aniso_U_23
C1 0.032(3) 0.022(3) 0.029(3) 0.018(2) 0.013(2) 0.012(2)
C2 0.022(2) 0.022(3) 0.018(2) 0.011(2) 0.0077(17) 0.0096(18)
C3 0.025(2) 0.022(3) 0.020(2) 0.013(2) 0.0068(19) 0.014(2)
C4 0.024(2) 0.025(3) 0.018(2) 0.012(2) 0.0085(18) 0.0090(19)
C5 0.027(3) 0.031(3) 0.022(2) 0.016(2) 0.011(2) 0.014(2)
C6 0.027(2) 0.022(3) 0.024(2) 0.014(2) 0.0111(19) 0.015(2)
C7 0.018(2) 0.018(3) 0.021(2) 0.0090(19) 0.0057(18) 0.0092(19)
C8 0.028(3) 0.024(3) 0.020(2) 0.013(2) 0.0109(19) 0.013(2)
I1 0.0444(3) 0.0280(3) 0.0245(2) 0.0247(2) 0.01814(19) 0.01250(18)
N1 0.063(3) 0.039(3) 0.022(2) 0.034(3) 0.023(2) 0.017(2)
N2 0.039(3) 0.031(3) 0.031(2) 0.019(2) 0.016(2) 0.015(2)
loop_
_atom_type_symbol
_atom_type_description
_atom_type_scat_dispersion_real
_atom_type_scat_dispersion_imag
_atom_type_scat_source
C C 0.0033 0.0016 'International Tables Vol C Tables 4.2.6.8 and 6.1.1.4'
H H 0.0000 0.0000 'International Tables Vol C Tables 4.2.6.8 and 6.1.1.4'
I I -0.4742 1.8119 'International Tables Vol C Tables 4.2.6.8 and 6.1.1.4'
N N 0.0061 0.0033 'International Tables Vol C Tables 4.2.6.8 and 6.1.1.4'
loop_
_geom_angle_atom_site_label_1
_geom_angle_atom_site_label_2
_geom_angle_atom_site_label_3
_geom_angle
N1 C1 C2 178.4(5)
C7 C2 C3 119.6(4)
C7 C2 C1 121.3(4)
C3 C2 C1 119.1(4)
C4 C3 C2 119.1(4)
C4 C3 H3 120.4
C2 C3 H3 120.4
C5 C4 C3 120.9(5)
C5 C4 I1 119.1(3)
C3 C4 I1 120.0(4)
C6 C5 C4 119.8(4)
C6 C5 H5 120.1
C4 C5 H5 120.1
C5 C6 C7 120.9(5)
C5 C6 H6 119.6
C7 C6 H6 119.6
C6 C7 C2 119.7(4)
C6 C7 C8 119.6(4)
C2 C7 C8 120.8(4)
N2 C8 C7 177.4(5)
loop_
_geom_bond_atom_site_label_1
_geom_bond_atom_site_label_2
_geom_bond_distance
C1 N1 1.159(7)
C1 C2 1.425(7)
C2 C7 1.405(7)
C2 C3 1.407(7)
C3 C4 1.391(6)
C3 H3 0.95
C4 C5 1.389(7)
C4 I1 2.083(5)
C5 C6 1.376(7)
C5 H5 0.95
C6 C7 1.387(6)
C6 H6 0.95
C7 C8 1.448(7)
C8 N2 1.147(6)
loop_
_geom_hbond_atom_site_label_D
_geom_hbond_atom_site_label_H
_geom_hbond_atom_site_label_A
_geom_hbond_site_symmetry_A
_geom_hbond_distance_DH
_geom_hbond_distance_HA
_geom_hbond_distance_DA
_geom_hbond_angle_DHA
C3 H3 N2 1_545 0.95 2.65 3.582(7) 168.9
loop_
_geom_torsion_atom_site_label_1
_geom_torsion_atom_site_label_2
_geom_torsion_atom_site_label_3
_geom_torsion_atom_site_label_4
_geom_torsion
C7 C2 C3 C4 0.7(7)
C1 C2 C3 C4 -178.3(4)
C2 C3 C4 C5 -0.8(7)
C2 C3 C4 I1 179.4(3)
C3 C4 C5 C6 0.0(7)
I1 C4 C5 C6 179.8(3)
C4 C5 C6 C7 1.0(7)
C5 C6 C7 C2 -1.1(7)
C5 C6 C7 C8 178.6(4)
C3 C2 C7 C6 0.3(7)
C1 C2 C7 C6 179.2(4)
C3 C2 C7 C8 -179.5(4)
C1 C2 C7 C8 -0.6(7)
