#------------------------------------------------------------------------------
#$Date: 2019-11-17 09:14:47 +0200 (Sun, 17 Nov 2019) $
#$Revision: 229045 $
#$URL: file:///home/coder/svn-repositories/cod/cif/7/23/05/7230520.cif $
#------------------------------------------------------------------------------
#
# This file is available in the Crystallography Open Database (COD),
# http://www.crystallography.net/
#
# All data on this site have been placed in the public domain by the
# contributors.
#
data_7230520
loop_
_publ_author_name
'Chakraborty, Shaunak'
'Desiraju, Gautam R.'
_publ_section_title
;
 Exploring the structural landscape with &#x2018;partial&#x2019;
 fluoro-substitution as a probe
;
_journal_issue                   20
_journal_name_full               CrystEngComm
_journal_page_first              2793
_journal_paper_doi               10.1039/C8CE00336J
_journal_volume                  20
_journal_year                    2018
_chemical_formula_moiety         'C9 H6.10 F1.90 O2'
_chemical_formula_sum            'C9 H6.1 F1.9 O2'
_chemical_formula_weight         182.34
_space_group_crystal_system      monoclinic
_space_group_IT_number           14
_space_group_name_Hall           '-P 2yn'
_space_group_name_H-M_alt        'P 1 21/n 1'
_symmetry_space_group_name_Hall  '-P 2yn'
_symmetry_space_group_name_H-M   'P 1 21/n 1'
_atom_sites_solution_hydrogens   geom
_audit_creation_method           SHELXL-2014/7
_audit_update_record
;
2018-04-14 deposited with the CCDC.
2018-04-18 downloaded from the CCDC.
;
_cell_angle_alpha                90
_cell_angle_beta                 92.075(15)
_cell_angle_gamma                90
_cell_formula_units_Z            4
_cell_length_a                   3.7401(11)
_cell_length_b                   6.5015(18)
_cell_length_c                   32.588(9)
_cell_measurement_reflns_used    1095
_cell_measurement_temperature    293(2)
_cell_measurement_theta_max      27.5
_cell_measurement_theta_min      3.1
_cell_volume                     791.9(4)
_computing_structure_refinement  'SHELXL-2014/7 (Sheldrick, 2014)'
_diffrn_ambient_temperature      293(2)
_diffrn_measured_fraction_theta_full 0.973
_diffrn_measured_fraction_theta_max 0.973
_diffrn_measurement_device_type  CCD
_diffrn_radiation_type           MoK\a
_diffrn_radiation_wavelength     0.71073
_diffrn_reflns_av_R_equivalents  0.1264
_diffrn_reflns_av_unetI/netI     0.1000
_diffrn_reflns_Laue_measured_fraction_full 0.973
_diffrn_reflns_Laue_measured_fraction_max 0.973
_diffrn_reflns_limit_h_max       4
_diffrn_reflns_limit_h_min       -4
_diffrn_reflns_limit_k_max       8
_diffrn_reflns_limit_k_min       -8
_diffrn_reflns_limit_l_max       42
_diffrn_reflns_limit_l_min       -42
_diffrn_reflns_number            5476
_diffrn_reflns_point_group_measured_fraction_full 0.973
_diffrn_reflns_point_group_measured_fraction_max 0.973
_diffrn_reflns_theta_full        25.242
_diffrn_reflns_theta_max         27.498
_diffrn_reflns_theta_min         1.251
_exptl_absorpt_coefficient_mu    0.136
_exptl_crystal_colour            colourless
_exptl_crystal_density_diffrn    1.529
_exptl_crystal_description       plate
_exptl_crystal_F_000             372.8
_exptl_crystal_size_max          0.7
_exptl_crystal_size_mid          0.6
_exptl_crystal_size_min          0.2
_refine_diff_density_max         0.429
_refine_diff_density_min         -0.534
_refine_diff_density_rms         0.077
_refine_ls_extinction_method     none
_refine_ls_goodness_of_fit_ref   1.007
_refine_ls_hydrogen_treatment    constr
_refine_ls_matrix_type           full
_refine_ls_number_parameters     130
_refine_ls_number_reflns         1763
_refine_ls_number_restraints     0
_refine_ls_restrained_S_all      1.007
_refine_ls_R_factor_all          0.1121
_refine_ls_R_factor_gt           0.0920
_refine_ls_shift/su_max          0.000
_refine_ls_shift/su_mean         0.000
_refine_ls_structure_factor_coef Fsqd
_refine_ls_weighting_details
'w=1/[\s^2^(Fo^2^)+(0.1135P)^2^+0.9551P] where P=(Fo^2^+2Fc^2^)/3'
_refine_ls_weighting_scheme      calc
_refine_ls_wR_factor_gt          0.2456
_refine_ls_wR_factor_ref         0.2681
_reflns_Friedel_coverage         0.000
_reflns_number_gt                1338
_reflns_number_total             1763
_reflns_threshold_expression     'I > 2\s(I)'
_cod_data_source_file            c8ce00336j2.cif
_cod_data_source_block           20
_cod_depositor_comments
'Adding full bibliography for 7230514--7230540.cif.'
_cod_original_formula_sum        'C9 H6.10 F1.90 O2'
_cod_database_code               7230520
_shelx_shelxl_version_number     2014/7
_shelx_space_group_comment
;
The symmetry employed for this shelxl refinement is uniquely defined
by the following loop, which should always be used as a source of
symmetry information in preference to the above space-group names.
They are only intended as comments.
;
_shelx_res_file
;

    shelx.res created by SHELXL-2014/7

TITL datam in P2(1)/n
CELL  0.71073   3.7401   6.5015  32.5880   90.000   92.075   90.000
ZERR    18.00   0.0011   0.0018   0.0089    0.000    0.015    0.000
LATT   1
SYMM  1/2 - X, 1/2 + Y, 1/2 - Z
SFAC  C    H    O    F
UNIT  18 18 18 18
MERG   2
OMIT    -2.00  55.00
EQIV $1 -x+1, -y+2, -z
HTAB C2 O2_$1
EQIV $2 -x, -y+1, -z
HTAB O2 O1_$2
OMIT     0   0   4
OMIT     3   3   6
OMIT     1   5   2
FMAP   2
PLAN   20
ACTA
HTAB    2.00000
BOND
BOND   $H
CONF
L.S.  50
WGHT    0.113500    0.955100
FVAR       7.25059   0.38305   0.10000
C1    1    0.157274    0.722271    0.034527    11.00000    0.02910    0.04128 =
         0.03482    0.00799    0.00088   -0.00429
C2    1    0.276940    0.898399    0.059925    11.00000    0.02870    0.03575 =
         0.04388    0.00902    0.00000   -0.00584
AFIX  43
H2    2    0.389061    1.009681    0.047895    11.00000   -1.20000
AFIX   0
C3    1    0.224696    0.898161    0.099941    11.00000    0.02567    0.03463 =
         0.04254    0.00639   -0.00016   -0.00371
AFIX  43
H3    2    0.106242    0.784347    0.110138    11.00000   -1.20000
AFIX   0
C4    1    0.331856    1.056398    0.130014    11.00000    0.02141    0.04004 =
         0.04849   -0.00336    0.00180    0.00264
C5    1    0.472866    1.245134    0.118833    11.00000    0.02916    0.04108 =
         0.07822   -0.00313    0.00628    0.00130
AFIX  43
H5    2    0.502711    1.277456    0.091369    11.00000   -1.20000
AFIX   0
C6    1    0.569014    1.385581    0.149910    11.00000    0.02460    0.04199 =
         0.16816   -0.03920    0.00146   -0.00192
PART    1
AFIX  43
H6    2    0.663475    1.512765    0.143009    21.00000   -1.20000
AFIX   0
PART    2
F1A   4    0.706405    1.559914    0.145654   -21.00000    0.05533    0.03429 =
         0.07217    0.00059    0.01205   -0.00815
PART    0
C7    1    0.525070    1.337246    0.190673    11.00000    0.03887    0.11517 =
         0.10858   -0.07530   -0.00410    0.01084
PART    1
AFIX  43
H7    2    0.592243    1.431436    0.211001    31.00000   -1.20000
AFIX   0
PART    2
F2    4    0.629824    1.483245    0.216717   -31.00000    0.06688    0.17617 =
         0.20310   -0.15230   -0.00543    0.00180
PART    0
C8    1    0.387003    1.156470    0.201065    11.00000    0.03893    0.11207 =
         0.07959   -0.05264   -0.00561    0.00959
PART    1
AFIX  43
H8    2    0.355535    1.126556    0.228607   -21.00000   -1.20000
AFIX   0
PART    2
F1B   4    0.376799    1.184699    0.235527    21.00000    0.09490    0.07260 =
         0.03269   -0.00388    0.00104   -0.00530
PART    0
C9    1    0.290445    1.013568    0.171597    11.00000    0.03484    0.06217 =
         0.04659   -0.00518   -0.00061    0.00472
AFIX  43
H9    2    0.196918    0.887523    0.179393    11.00000   -1.20000
AFIX   0
O1    3   -0.000333    0.573168    0.048570    11.00000    0.04586    0.04736 =
         0.03713    0.00659    0.00186   -0.01383
O2    3    0.231268    0.738899   -0.004299    11.00000    0.05100    0.05098 =
         0.03321    0.00796    0.00194   -0.01430
AFIX 147
H2A   2    0.138938    0.643253   -0.017209    11.00000   -1.50000
AFIX   0
HKLF    4

REM  datam in P2(1)/n
REM R1 =  0.0920 for    1338 Fo > 4sig(Fo)  and  0.1121 for all    1763 data
REM    130 parameters refined using      0 restraints

END

WGHT      0.0900      0.8478

REM Instructions for potential hydrogen bonds
HTAB C2 O2_$1
HTAB O2 O1_$2

REM Highest difference peak  0.429,  deepest hole -0.534,  1-sigma level  0.077
Q1    1   0.6458  1.4483  0.2260  11.00000  0.05    0.43
Q2    1   0.6913  1.5475  0.1973  11.00000  0.05    0.29
Q3    1   0.5646  1.4489  0.1330  11.00000  0.05    0.24
Q4    1   0.9496  1.4347  0.1435  11.00000  0.05    0.21
Q5    1   0.1532  1.3654  0.1549  11.00000  0.05    0.21
Q6    1   0.5361  1.4053  0.1692  11.00000  0.05    0.20
Q7    1  -0.1271  1.0977  0.1851  11.00000  0.05    0.20
Q8    1   0.4801  1.2551  0.1906  11.00000  0.05    0.20
Q9    1  -0.0469  1.0090  0.1395  11.00000  0.05    0.20
Q10   1   1.0419  1.4004  0.1616  11.00000  0.05    0.19
Q11   1   0.3529  1.3871  0.0505  11.00000  0.05    0.19
Q12   1  -0.0224  1.1980  0.2148  11.00000  0.05    0.19
Q13   1   0.0541  1.0853  0.0488  11.00000  0.05    0.19
Q14   1   0.0871  1.3571  0.2278  11.00000  0.05    0.18
Q15   1   0.2331  1.4279  0.1478  11.00000  0.05    0.18
Q16   1   0.5322  0.8026  0.0225  11.00000  0.05    0.18
Q17   1   0.5166  1.3609  0.2050  11.00000  0.05    0.18
Q18   1   0.1909  1.4849  0.1823  11.00000  0.05    0.18
Q19   1   0.5800  1.0879  0.1868  11.00000  0.05    0.17
Q20   1  -0.0789  0.9608  0.2064  11.00000  0.05    0.17
;
_shelx_res_checksum              971
loop_
_space_group_symop_operation_xyz
'x, y, z'
'-x+1/2, y+1/2, -z+1/2'
'-x, -y, -z'
'x-1/2, -y-1/2, z-1/2'
loop_
_atom_site_label
_atom_site_type_symbol
_atom_site_fract_x
_atom_site_fract_y
_atom_site_fract_z
_atom_site_U_iso_or_equiv
_atom_site_adp_type
_atom_site_occupancy
_atom_site_site_symmetry_order
_atom_site_calc_flag
_atom_site_refinement_flags_posn
_atom_site_refinement_flags_adp
_atom_site_refinement_flags_occupancy
_atom_site_disorder_assembly
_atom_site_disorder_group
C1 C 0.1573(7) 0.7223(5) 0.03453(9) 0.0351(7) Uani 1 1 d . . . . .
C2 C 0.2769(7) 0.8984(5) 0.05993(9) 0.0361(7) Uani 1 1 d . . . . .
H2 H 0.3891 1.0097 0.0479 0.043 Uiso 1 1 calc R U . . .
C3 C 0.2247(7) 0.8982(5) 0.09994(9) 0.0343(7) Uani 1 1 d . . . . .
H3 H 0.1062 0.7843 0.1101 0.041 Uiso 1 1 calc R U . . .
C4 C 0.3319(7) 1.0564(5) 0.13001(10) 0.0366(7) Uani 1 1 d . . . . .
C5 C 0.4729(8) 1.2451(5) 0.11883(13) 0.0494(9) Uani 1 1 d . . . . .
H5 H 0.5027 1.2775 0.0914 0.059 Uiso 1 1 calc R U . . .
C6 C 0.5690(9) 1.3856(6) 0.1499(2) 0.0783(18) Uani 1 1 d . . . . .
H6 H 0.6635 1.5128 0.1430 0.094 Uiso 0.383(6) 1 calc R U P A 1
F1A F 0.7064(9) 1.5599(5) 0.14565(11) 0.0537(12) Uani 0.617(6) 1 d . . P A 2
C7 C 0.5251(11) 1.3372(10) 0.1907(2) 0.088(2) Uani 1 1 d . . . . .
H7 H 0.5922 1.4314 0.2110 0.105 Uiso 0.100(10) 1 calc R U P A 1
F2 F 0.6298(9) 1.4832(8) 0.21672(16) 0.149(3) Uani 0.900(10) 1 d . . P A 2
C8 C 0.3870(10) 1.1565(10) 0.20106(15) 0.0770(16) Uani 1 1 d . . . . .
H8 H 0.3555 1.1266 0.2286 0.092 Uiso 0.617(6) 1 calc R U P A 1
F1B F 0.3768(19) 1.1847(11) 0.23553(16) 0.067(2) Uani 0.383(6) 1 d . . P A 2
C9 C 0.2904(8) 1.0136(6) 0.17160(11) 0.0479(9) Uani 1 1 d . . . . .
H9 H 0.1969 0.8875 0.1794 0.057 Uiso 1 1 calc R U . . .
O1 O -0.0003(6) 0.5732(4) 0.04857(7) 0.0434(6) Uani 1 1 d . . . . .
O2 O 0.2313(6) 0.7389(4) -0.00430(7) 0.0451(7) Uani 1 1 d . . . . .
H2A H 0.1389 0.6433 -0.0172 0.068 Uiso 1 1 calc R U . . .
loop_
_atom_site_aniso_label
_atom_site_aniso_U_11
_atom_site_aniso_U_22
_atom_site_aniso_U_33
_atom_site_aniso_U_23
_atom_site_aniso_U_13
_atom_site_aniso_U_12
C1 0.0291(14) 0.0413(17) 0.0348(15) 0.0080(12) 0.0009(11) -0.0043(12)
C2 0.0287(14) 0.0357(16) 0.0439(17) 0.0090(12) 0.0000(12) -0.0058(12)
C3 0.0257(13) 0.0346(15) 0.0425(16) 0.0064(12) -0.0002(11) -0.0037(12)
C4 0.0214(12) 0.0400(17) 0.0485(18) -0.0034(12) 0.0018(11) 0.0026(11)
C5 0.0292(15) 0.0411(19) 0.078(3) -0.0031(17) 0.0063(15) 0.0013(14)
C6 0.0246(17) 0.042(2) 0.168(6) -0.039(3) 0.001(2) -0.0019(15)
F1A 0.055(2) 0.0343(19) 0.072(2) 0.0006(14) 0.0120(17) -0.0082(14)
C7 0.039(2) 0.115(5) 0.109(4) -0.075(4) -0.004(2) 0.011(2)
F2 0.067(2) 0.176(5) 0.203(5) -0.152(4) -0.005(2) 0.002(2)
C8 0.039(2) 0.112(4) 0.080(3) -0.053(3) -0.0056(19) 0.010(2)
F1B 0.095(5) 0.073(4) 0.033(3) -0.004(3) 0.001(3) -0.005(4)
C9 0.0348(15) 0.062(2) 0.047(2) -0.0052(16) -0.0006(14) 0.0047(15)
O1 0.0459(12) 0.0474(14) 0.0371(12) 0.0066(9) 0.0019(9) -0.0138(11)
O2 0.0510(14) 0.0510(15) 0.0332(12) 0.0080(10) 0.0019(9) -0.0143(11)
loop_
_atom_type_symbol
_atom_type_description
_atom_type_scat_dispersion_real
_atom_type_scat_dispersion_imag
_atom_type_scat_source
C C 0.0033 0.0016 'International Tables Vol C Tables 4.2.6.8 and 6.1.1.4'
H H 0.0000 0.0000 'International Tables Vol C Tables 4.2.6.8 and 6.1.1.4'
O O 0.0106 0.0060 'International Tables Vol C Tables 4.2.6.8 and 6.1.1.4'
F F 0.0171 0.0103 'International Tables Vol C Tables 4.2.6.8 and 6.1.1.4'
loop_
_geom_angle_atom_site_label_1
_geom_angle_atom_site_label_2
_geom_angle_atom_site_label_3
_geom_angle
O1 C1 O2 123.0(3)
O1 C1 C2 122.9(3)
O2 C1 C2 114.1(3)
C3 C2 C1 120.0(3)
C3 C2 H2 120.0
C1 C2 H2 120.0
C2 C3 C4 127.6(3)
C2 C3 H3 116.2
C4 C3 H3 116.2
C5 C4 C9 119.1(3)
C5 C4 C3 122.8(3)
C9 C4 C3 118.1(3)
C4 C5 C6 118.4(4)
C4 C5 H5 120.8
C6 C5 H5 120.8
F1A C6 C7 112.1(5)
F1A C6 C5 127.2(6)
C7 C6 C5 120.7(4)
C7 C6 H6 119.6
C5 C6 H6 119.6
F2 C7 C8 125.3(6)
F2 C7 C6 114.3(7)
C8 C7 C6 120.4(4)
F2 C7 F1B 88.2(5)
C8 C7 F1B 37.2(3)
C6 C7 F1B 157.4(4)
C8 C7 H7 119.8
C6 C7 H7 119.8
F1B C8 C7 97.8(6)
F1B C8 C9 141.2(7)
C7 C8 C9 120.9(5)
C7 C8 H8 119.6
C9 C8 H8 119.6
C8 F1B C7 45.0(4)
C8 C9 C4 120.5(4)
C8 C9 H9 119.8
C4 C9 H9 119.8
C1 O2 H2A 109.5
loop_
_geom_bond_atom_site_label_1
_geom_bond_atom_site_label_2
_geom_bond_distance
C1 O1 1.231(3)
C1 O2 1.309(3)
C1 C2 1.473(4)
C2 C3 1.326(4)
C2 H2 0.9300
C3 C4 1.467(4)
C3 H3 0.9300
C4 C5 1.389(5)
C4 C9 1.398(5)
C5 C6 1.401(6)
C5 H5 0.9300
C6 F1A 1.254(5)
C6 C7 1.381(8)
C6 H6 0.9300
C7 F2 1.323(5)
C7 C8 1.332(9)
C7 F1B 1.867(10)
C7 H7 0.9300
C8 F1B 1.140(7)
C8 C9 1.375(6)
C8 H8 0.9300
C9 H9 0.9300
O2 H2A 0.8200
loop_
_geom_hbond_atom_site_label_D
_geom_hbond_atom_site_label_H
_geom_hbond_atom_site_label_A
_geom_hbond_distance_DH
_geom_hbond_distance_HA
_geom_hbond_distance_DA
_geom_hbond_angle_DHA
_geom_hbond_site_symmetry_A
C2 H2 O2 0.93 2.62 3.531(4) 167.5 3_675
O2 H2A O1 0.82 1.80 2.618(3) 171.5 3_565
loop_
_geom_torsion_atom_site_label_1
_geom_torsion_atom_site_label_2
_geom_torsion_atom_site_label_3
_geom_torsion_atom_site_label_4
_geom_torsion
O1 C1 C2 C3 1.8(4)
O2 C1 C2 C3 -178.6(3)
C1 C2 C3 C4 178.5(3)
C2 C3 C4 C5 7.7(5)
C2 C3 C4 C9 -172.1(3)
C9 C4 C5 C6 0.1(4)
C3 C4 C5 C6 -179.6(3)
C4 C5 C6 F1A 178.3(3)
C4 C5 C6 C7 0.1(5)
F1A C6 C7 F2 1.0(6)
C5 C6 C7 F2 179.4(3)
F1A C6 C7 C8 -179.1(4)
C5 C6 C7 C8 -0.6(6)
F1A C6 C7 F1B 174.0(10)
C5 C6 C7 F1B -7.5(13)
F2 C7 C8 F1B 4.3(7)
C6 C7 C8 F1B -175.6(5)
F2 C7 C8 C9 -179.1(4)
C6 C7 C8 C9 0.9(7)
F1B C7 C8 C9 176.6(7)
C9 C8 F1B C7 -175.3(10)
F2 C7 F1B C8 -176.5(6)
C6 C7 F1B C8 9.8(12)
F1B C8 C9 C4 173.9(8)
C7 C8 C9 C4 -0.7(6)
C5 C4 C9 C8 0.2(5)
C3 C4 C9 C8 179.9(3)
