#------------------------------------------------------------------------------
#$Date: 2019-11-17 09:23:07 +0200 (Sun, 17 Nov 2019) $
#$Revision: 229082 $
#$URL: file:///home/coder/svn-repositories/cod/cif/7/23/09/7230996.cif $
#------------------------------------------------------------------------------
#
# This file is available in the Crystallography Open Database (COD),
# http://www.crystallography.net/
#
# All data on this site have been placed in the public domain by the
# contributors.
#
data_7230996
loop_
_publ_author_name
'Pinter, Emily N.'
'Cantrell, Lee S.'
'Day, Graeme M.'
'Wheeler, Kraig A.'
_publ_section_title
;
 Pasteur's tartaramide/malamide quasiracemates: new entries and departures
 from near inversion symmetry
;
_journal_issue                   30
_journal_name_full               CrystEngComm
_journal_page_first              4213
_journal_paper_doi               10.1039/C8CE00791H
_journal_volume                  20
_journal_year                    2018
_chemical_formula_moiety         'C4 H8 N2 O4'
_chemical_formula_sum            'C4 H8 N2 O4'
_chemical_formula_weight         148.12
_space_group_crystal_system      monoclinic
_space_group_IT_number           14
_space_group_name_Hall           '-P 2ybc'
_space_group_name_H-M_alt        'P 1 21/c 1'
_symmetry_space_group_name_Hall  '-P 2ybc'
_symmetry_space_group_name_H-M   'P 1 21/c 1'
_atom_sites_solution_hydrogens   mixed
_audit_creation_method           SHELXL-2014/7
_audit_update_record
;
2018-03-24 deposited with the CCDC.
2018-06-18 downloaded from the CCDC.
;
_cell_angle_alpha                90
_cell_angle_beta                 95.619(2)
_cell_angle_gamma                90
_cell_formula_units_Z            4
_cell_length_a                   8.0175(4)
_cell_length_b                   8.1062(4)
_cell_length_c                   9.2562(4)
_cell_measurement_reflns_used    6566
_cell_measurement_temperature    100(2)
_cell_measurement_theta_max      68.23
_cell_measurement_theta_min      4.80
_cell_volume                     598.68(5)
_computing_cell_refinement       APEX2
_computing_data_collection       'APEX2 (Bruker, 2013)'
_computing_data_reduction
;
SADABS (Bruker, 2013) and XPREP (Bruker, 2013)
;
_computing_molecular_graphics    'XSEED (Barbour, 2001)'
_computing_publication_material  'XSEED (Barbour, 2001)'
_computing_structure_refinement  'SHELXL-2014/7 (Sheldrick, 2014)'
_computing_structure_solution    'SHELXS-2014/7 (Sheldrick, 2014)'
_diffrn_ambient_temperature      100(2)
_diffrn_detector_area_resol_mean 8.33
_diffrn_measured_fraction_theta_full 0.984
_diffrn_measured_fraction_theta_max 0.984
_diffrn_measurement_device_type  'Bruker APEXII CCD'
_diffrn_measurement_method       'phi and omega scans'
_diffrn_radiation_type           CuK\a
_diffrn_radiation_wavelength     1.54178
_diffrn_reflns_av_R_equivalents  0.0292
_diffrn_reflns_av_unetI/netI     0.0150
_diffrn_reflns_Laue_measured_fraction_full 0.984
_diffrn_reflns_Laue_measured_fraction_max 0.984
_diffrn_reflns_limit_h_max       9
_diffrn_reflns_limit_h_min       -9
_diffrn_reflns_limit_k_max       9
_diffrn_reflns_limit_k_min       -9
_diffrn_reflns_limit_l_max       9
_diffrn_reflns_limit_l_min       -11
_diffrn_reflns_number            8705
_diffrn_reflns_point_group_measured_fraction_full 0.984
_diffrn_reflns_point_group_measured_fraction_max 0.984
_diffrn_reflns_theta_full        67.679
_diffrn_reflns_theta_max         68.228
_diffrn_reflns_theta_min         5.544
_diffrn_source                   'fine-focus sealed tube'
_exptl_absorpt_coefficient_mu    1.287
_exptl_absorpt_correction_T_max  0.753
_exptl_absorpt_correction_T_min  0.657
_exptl_absorpt_correction_type   multi-scan
_exptl_absorpt_process_details   'SADABS-2014/7, Bruker AXS'
_exptl_crystal_colour            colourless
_exptl_crystal_density_diffrn    1.643
_exptl_crystal_description       block
_exptl_crystal_F_000             312
_exptl_crystal_size_max          0.395
_exptl_crystal_size_mid          0.341
_exptl_crystal_size_min          0.200
_refine_diff_density_max         0.275
_refine_diff_density_min         -0.314
_refine_diff_density_rms         0.076
_refine_ls_extinction_method     none
_refine_ls_goodness_of_fit_ref   1.180
_refine_ls_hydrogen_treatment    mixed
_refine_ls_matrix_type           full
_refine_ls_number_parameters     109
_refine_ls_number_reflns         1082
_refine_ls_number_restraints     6
_refine_ls_restrained_S_all      1.180
_refine_ls_R_factor_all          0.0333
_refine_ls_R_factor_gt           0.0330
_refine_ls_shift/su_max          0.000
_refine_ls_shift/su_mean         0.000
_refine_ls_structure_factor_coef Fsqd
_refine_ls_weighting_details
'w=1/[\s^2^(Fo^2^)+(0.0466P)^2^+0.2565P] where P=(Fo^2^+2Fc^2^)/3'
_refine_ls_weighting_scheme      calc
_refine_ls_wR_factor_gt          0.0857
_refine_ls_wR_factor_ref         0.0860
_reflns_Friedel_coverage         0.000
_reflns_number_gt                1067
_reflns_number_total             1082
_reflns_threshold_expression     'I > 2\s(I)'
_cod_data_source_file            c8ce00791h2.cif
_cod_data_source_block           16kaw57
_cod_depositor_comments
'Adding full bibliography for 7230989--7230996.cif.'
_cod_database_code               7230996
_shelx_shelxl_version_number     2014/7
_shelx_space_group_comment
;
The symmetry employed for this shelxl refinement is uniquely defined
by the following loop, which should always be used as a source of
symmetry information in preference to the above space-group names.
They are only intended as comments.
;
_shelx_estimated_absorpt_t_min   0.630
_shelx_estimated_absorpt_t_max   0.783
_shelx_res_file
;

    M:\CHM\CHM_X_Ray\kaw\16kaw57\work\16kaw57.res created by SHELXL-2014/7

REM  16kaw57 in P2(1)/c
REM R1 =  0.0495 for    1067 Fo > 4sig(Fo)  and  0.0498 for all    1082 data
REM     65 parameters refined using      0 restraints
REM Highest difference peak  0.500,  deepest hole -0.461,  1-sigma level  0.092
TITL 16kaw57 in P2(1)/c
CELL 1.54178 8.0175 8.1062 9.2562 90.000 95.619 90.000
ZERR 4.0000 0.0004 0.0004 0.0004 0.000 0.002 0.000
LATT 1
SYMM -X, 0.5+Y, 0.5-Z
SFAC C H N O
UNIT 16 32 8 16
MERG 2
SHEL 99999.00 0.83
FMAP 2
GRID
PLAN 20
TEMP -173
SIZE 0.2 0.341 0.395

BOND $H
CONF
DFIX 0.85 0.02 O2 H5
DFIX 0.85 0.02 O3 H6
DFIX 0.85 0.02 N1 H4A
DFIX 0.85 0.02 N1 H4B
DFIX 0.85 0.02 N2 H7A
DFIX 0.85 0.02 N2 H7B

EQIV $1 -X, Y-.5, 0.5-Z
EQIV $2 X, 0.5-Y, 0.5+Z
EQIV $3 X, 0.5-Y, Z-0.5
EQIV $4 1+X, Y, Z
EQIV $5 -X, 1-Y, -Z
EQIV $6 1-X, Y-.5, 0.5-Z
HTAB N1 O2_$1
HTAB N1 O3_$2
HTAB N2 O4_$3
HTAB N2 O1_$4
HTAB O2 O1_$5
HTAB O3 O4_$6
L.S. 10
ACTA
WGHT    0.046600    0.256500
FVAR       0.38043
O1    4   -0.063299    0.391303    0.140289    11.00000    0.01095    0.02071 =
         0.01200    0.00153   -0.00033   -0.00158
O4    4    0.571918    0.386724    0.361162    11.00000    0.01164    0.01143 =
         0.01105   -0.00033   -0.00079   -0.00158
O2    4    0.240538    0.524184    0.127467    11.00000    0.01168    0.01203 =
         0.01357    0.00389   -0.00011   -0.00109
H5    2    0.163934    0.501898    0.062918    11.00000   -1.20000
O3    4    0.267425    0.175342    0.116262    11.00000    0.01296    0.00917 =
         0.01379   -0.00258   -0.00278    0.00201
H6    2    0.310998    0.084750    0.126316    11.00000   -1.20000
N1    3   -0.010166    0.323256    0.377738    11.00000    0.00913    0.01827 =
         0.01215    0.00190   -0.00033   -0.00239
H4A   2   -0.108593    0.285506    0.382462    11.00000   -1.20000
H4B   2    0.061818    0.315472    0.451852    11.00000   -1.20000
N2    3    0.586744    0.293966    0.131903    11.00000    0.00930    0.01747 =
         0.01158   -0.00150    0.00030   -0.00130
H7A   2    0.689379    0.328186    0.134728    11.00000   -1.20000
H7B   2    0.536383    0.247050    0.054529    11.00000   -1.20000
C1    1    0.033978    0.377733    0.252438    11.00000    0.01102    0.00833 =
         0.01281   -0.00163    0.00061    0.00125
C2    1    0.218683    0.422978    0.248153    11.00000    0.01084    0.00975 =
         0.01089    0.00051    0.00087   -0.00050
AFIX  13
H2    2    0.257195    0.485022    0.338696    11.00000   -1.20000
AFIX   0
C3    1    0.324683    0.264635    0.242886    11.00000    0.01119    0.01042 =
         0.00931   -0.00015   -0.00039   -0.00008
AFIX  13
H3    2    0.309731    0.195701    0.330282    11.00000   -1.20000
AFIX   0
C4    1    0.507850    0.318963    0.247456    11.00000    0.01170    0.00727 =
         0.01105    0.00315   -0.00107    0.00194
HKLF 4

REM  16kaw57 in P2(1)/c
REM R1 =  0.0330 for    1067 Fo > 4sig(Fo)  and  0.0333 for all    1082 data
REM    109 parameters refined using      6 restraints

END

WGHT      0.0466      0.2565

REM Highest difference peak  0.275,  deepest hole -0.314,  1-sigma level  0.076
Q1    1   0.4196  0.2808  0.2407  11.00000  0.05    0.27
Q2    1   0.1301  0.3945  0.2480  11.00000  0.05    0.26
Q3    1   0.3680  0.1741  0.0534  11.00000  0.05    0.22
Q4    1   0.2725  0.3408  0.2495  11.00000  0.05    0.21
Q5    1   0.3485  0.5560  0.1172  11.00000  0.05    0.21
Q6    1   0.3378  0.5060  0.0745  11.00000  0.05    0.20
Q7    1   0.1385  0.1791  0.0742  11.00000  0.05    0.20
Q8    1   0.3028  0.5551  0.0184  11.00000  0.05    0.17
Q9    1   0.4113  0.2747 -0.0045  11.00000  0.05    0.16
Q10   1   0.3401  0.2217  0.3213  11.00000  0.05    0.16
Q11   1   0.3922  0.1383 -0.0146  11.00000  0.05    0.15
Q12   1   0.5589  0.3670  0.4689  11.00000  0.05    0.15
Q13   1   0.0600  0.1585  0.3902  11.00000  0.05    0.14
Q14   1  -0.0021  0.3899  0.0511  11.00000  0.05    0.14
Q15   1   0.2139  0.6444  0.4479  11.00000  0.05    0.13
Q16   1   0.1069  0.1180  0.1988  11.00000  0.05    0.13
Q17   1  -0.0924  0.3647  0.5929  11.00000  0.05    0.13
Q18   1   0.0802  0.1658  0.2827  11.00000  0.05    0.13
Q19   1   0.4365  0.4533 -0.0058  11.00000  0.05    0.12
Q20   1   0.3726  0.0798  0.4745  11.00000  0.05    0.12
;
_shelx_res_checksum              73933
loop_
_space_group_symop_operation_xyz
'x, y, z'
'-x, y+1/2, -z+1/2'
'-x, -y, -z'
'x, -y-1/2, z-1/2'
loop_
_atom_site_label
_atom_site_type_symbol
_atom_site_fract_x
_atom_site_fract_y
_atom_site_fract_z
_atom_site_U_iso_or_equiv
_atom_site_adp_type
_atom_site_occupancy
_atom_site_site_symmetry_order
_atom_site_calc_flag
_atom_site_refinement_flags_posn
_atom_site_refinement_flags_adp
O1 O -0.06330(11) 0.39130(12) 0.14029(10) 0.0146(3) Uani 1 1 d . .
O4 O 0.57192(11) 0.38672(11) 0.36116(10) 0.0115(2) Uani 1 1 d . .
O2 O 0.24054(11) 0.52418(11) 0.12747(10) 0.0125(2) Uani 1 1 d D .
H5 H 0.1639(19) 0.502(2) 0.0629(16) 0.015 Uiso 1 1 d D U
O3 O 0.26742(11) 0.17534(11) 0.11626(10) 0.0122(2) Uani 1 1 d D .
H6 H 0.311(2) 0.0848(19) 0.1263(17) 0.015 Uiso 1 1 d D U
N1 N -0.01017(14) 0.32326(14) 0.37774(13) 0.0133(3) Uani 1 1 d D .
H4A H -0.1086(18) 0.286(2) 0.3825(18) 0.016 Uiso 1 1 d D U
H4B H 0.062(2) 0.315(2) 0.4519(16) 0.016 Uiso 1 1 d D U
N2 N 0.58674(14) 0.29397(14) 0.13190(12) 0.0128(3) Uani 1 1 d D .
H7A H 0.6894(18) 0.328(2) 0.1347(18) 0.015 Uiso 1 1 d D U
H7B H 0.536(2) 0.247(2) 0.0545(16) 0.015 Uiso 1 1 d D U
C1 C 0.03398(15) 0.37773(15) 0.25244(14) 0.0108(3) Uani 1 1 d . .
C2 C 0.21868(15) 0.42298(16) 0.24815(13) 0.0105(3) Uani 1 1 d . .
H2 H 0.2572 0.4850 0.3387 0.013 Uiso 1 1 calc R U
C3 C 0.32468(15) 0.26463(15) 0.24289(13) 0.0104(3) Uani 1 1 d . .
H3 H 0.3097 0.1957 0.3303 0.012 Uiso 1 1 calc R U
C4 C 0.50785(16) 0.31896(15) 0.24746(14) 0.0101(3) Uani 1 1 d . .
loop_
_atom_site_aniso_label
_atom_site_aniso_U_11
_atom_site_aniso_U_22
_atom_site_aniso_U_33
_atom_site_aniso_U_23
_atom_site_aniso_U_13
_atom_site_aniso_U_12
O1 0.0109(5) 0.0207(5) 0.0120(5) 0.0015(4) -0.0003(4) -0.0016(4)
O4 0.0116(5) 0.0114(5) 0.0110(5) -0.0003(3) -0.0008(3) -0.0016(3)
O2 0.0117(5) 0.0120(5) 0.0136(5) 0.0039(3) -0.0001(4) -0.0011(3)
O3 0.0130(5) 0.0092(5) 0.0138(5) -0.0026(3) -0.0028(4) 0.0020(3)
N1 0.0091(5) 0.0183(6) 0.0121(6) 0.0019(4) -0.0003(4) -0.0024(4)
N2 0.0093(5) 0.0175(6) 0.0116(6) -0.0015(4) 0.0003(4) -0.0013(4)
C1 0.0110(6) 0.0083(6) 0.0128(7) -0.0016(4) 0.0006(5) 0.0012(4)
C2 0.0108(6) 0.0098(6) 0.0109(6) 0.0005(5) 0.0009(5) -0.0005(5)
C3 0.0112(6) 0.0104(6) 0.0093(6) -0.0001(5) -0.0004(5) -0.0001(5)
C4 0.0117(6) 0.0073(6) 0.0110(6) 0.0032(4) -0.0011(5) 0.0019(4)
loop_
_atom_type_symbol
_atom_type_description
_atom_type_scat_dispersion_real
_atom_type_scat_dispersion_imag
_atom_type_scat_source
C C 0.0181 0.0091 'International Tables Vol C Tables 4.2.6.8 and 6.1.1.4'
H H 0.0000 0.0000 'International Tables Vol C Tables 4.2.6.8 and 6.1.1.4'
N N 0.0311 0.0180 'International Tables Vol C Tables 4.2.6.8 and 6.1.1.4'
O O 0.0492 0.0322 'International Tables Vol C Tables 4.2.6.8 and 6.1.1.4'
loop_
_geom_angle_atom_site_label_1
_geom_angle_atom_site_label_2
_geom_angle_atom_site_label_3
_geom_angle
C2 O2 H5 107.6(11)
C3 O3 H6 105.4(11)
C1 N1 H4A 119.6(11)
C1 N1 H4B 120.8(11)
H4A N1 H4B 119.3(16)
C4 N2 H7A 117.3(11)
C4 N2 H7B 121.0(11)
H7A N2 H7B 121.7(15)
O1 C1 N1 124.30(11)
O1 C1 C2 119.20(11)
N1 C1 C2 116.49(11)
O2 C2 C1 110.83(10)
O2 C2 C3 110.32(10)
C1 C2 C3 109.81(10)
O2 C2 H2 108.6
C1 C2 H2 108.6
C3 C2 H2 108.6
O3 C3 C4 113.75(10)
O3 C3 C2 108.46(10)
C4 C3 C2 106.85(10)
O3 C3 H3 109.2
C4 C3 H3 109.2
C2 C3 H3 109.2
O4 C4 N2 124.25(12)
O4 C4 C3 117.60(11)
N2 C4 C3 118.14(11)
loop_
_geom_bond_atom_site_label_1
_geom_bond_atom_site_label_2
_geom_bond_distance
O1 C1 1.2407(16)
O4 C4 1.2520(16)
O2 C2 1.4107(15)
O2 H5 0.834(14)
O3 C3 1.4153(15)
O3 H6 0.815(14)
N1 C1 1.3213(18)
N1 H4A 0.851(14)
N1 H4B 0.854(14)
N2 C4 1.3106(18)
N2 H7A 0.866(14)
N2 H7B 0.874(13)
C1 C2 1.5299(17)
C2 C3 1.5428(17)
C2 H2 1.0000
C3 C4 1.5298(17)
C3 H3 1.0000
loop_
_geom_hbond_atom_site_label_D
_geom_hbond_atom_site_label_H
_geom_hbond_atom_site_label_A
_geom_hbond_distance_DH
_geom_hbond_distance_HA
_geom_hbond_distance_DA
_geom_hbond_angle_DHA
_geom_hbond_site_symmetry_A
N1 H4A O2 0.851(14) 2.366(16) 3.0453(14) 137.1(15) 2_545
N1 H4B O3 0.854(14) 2.133(15) 2.9775(15) 169.9(16) 4_566
N2 H7B O4 0.874(13) 2.136(15) 2.8951(15) 145.0(14) 4_565
N2 H7A O1 0.866(14) 2.044(14) 2.9083(14) 175.8(16) 1_655
O2 H5 O1 0.834(14) 2.154(15) 2.8181(13) 136.5(15) 3_565
O3 H6 O4 0.815(14) 1.857(15) 2.6690(13) 174.1(17) 2_645
loop_
_geom_torsion_atom_site_label_1
_geom_torsion_atom_site_label_2
_geom_torsion_atom_site_label_3
_geom_torsion_atom_site_label_4
_geom_torsion
O1 C1 C2 O2 19.12(16)
N1 C1 C2 O2 -162.00(11)
O1 C1 C2 C3 -103.02(13)
N1 C1 C2 C3 75.85(14)
O2 C2 C3 O3 -62.34(12)
C1 C2 C3 O3 60.11(13)
O2 C2 C3 C4 60.68(12)
C1 C2 C3 C4 -176.88(10)
O3 C3 C4 O4 -174.27(10)
C2 C3 C4 O4 66.08(14)
O3 C3 C4 N2 6.71(16)
C2 C3 C4 N2 -112.95(13)
