#------------------------------------------------------------------------------
#$Date: 2019-11-17 09:17:04 +0200 (Sun, 17 Nov 2019) $
#$Revision: 229056 $
#$URL: file:///home/coder/svn-repositories/cod/cif/7/23/01/7230109.cif $
#------------------------------------------------------------------------------
#
# This file is available in the Crystallography Open Database (COD),
# http://www.crystallography.net/
#
# All data on this site have been placed in the public domain by the
# contributors.
#
data_7230109
loop_
_publ_author_name
'Ovens, Jeffrey S.'
'Leznoff, Daniel B.'
_publ_section_title
;
 Probing halogen&#x22EF;halogen interactions via thermal expansion
 analysis
;
_journal_issue                   13
_journal_name_full               CrystEngComm
_journal_page_first              1769
_journal_paper_doi               10.1039/C7CE02167D
_journal_volume                  20
_journal_year                    2018
_chemical_formula_sum            'C6 H6 Au Br2 Cu N4'
_chemical_formula_weight         554.47
_space_group_crystal_system      monoclinic
_space_group_IT_number           15
_space_group_name_Hall           '-C 2yc'
_space_group_name_H-M_alt        'C 1 2/c 1'
_symmetry_space_group_name_Hall  '-C 2yc'
_symmetry_space_group_name_H-M   'C 1 2/c 1'
_atom_sites_solution_hydrogens   geom
_atom_sites_solution_primary     direct
_audit_update_record
;
2017-09-13 deposited with the CCDC.
2018-02-08 downloaded from the CCDC.
;
_cell_angle_alpha                90
_cell_angle_beta                 112.7690(10)
_cell_angle_gamma                90
_cell_formula_units_Z            4
_cell_length_a                   15.5179(11)
_cell_length_b                   5.9393(4)
_cell_length_c                   14.8526(10)
_cell_measurement_reflns_used    5369
_cell_measurement_temperature    150(2)
_cell_measurement_theta_max      30.52
_cell_measurement_theta_min      2.85
_cell_volume                     1262.22(15)
_computing_cell_refinement       'Bruker SAINT'
_computing_data_collection       'Bruker APEX3'
_computing_data_reduction        'Bruker SAINT'
_computing_structure_refinement  'SHELXL-2013 (Sheldrick, 2013)'
_computing_structure_solution
; 
 SHELXT 2014/4 (Sheldrick, 2014)
;
_diffrn_ambient_temperature      150(2)
_diffrn_measured_fraction_theta_full 0.999
_diffrn_measured_fraction_theta_max 1.001
_diffrn_measurement_device_type  'Bruker APEX-II DUO CCD'
_diffrn_measurement_method       '\w scans'
_diffrn_radiation_monochromator  graphite
_diffrn_radiation_type           MoK\a
_diffrn_radiation_wavelength     0.71073
_diffrn_reflns_av_R_equivalents  0.0239
_diffrn_reflns_av_unetI/netI     0.0211
_diffrn_reflns_Laue_measured_fraction_full 0.999
_diffrn_reflns_Laue_measured_fraction_max 1.001
_diffrn_reflns_limit_h_max       22
_diffrn_reflns_limit_h_min       -21
_diffrn_reflns_limit_k_max       8
_diffrn_reflns_limit_k_min       -8
_diffrn_reflns_limit_l_max       21
_diffrn_reflns_limit_l_min       -21
_diffrn_reflns_number            8073
_diffrn_reflns_point_group_measured_fraction_full 0.999
_diffrn_reflns_point_group_measured_fraction_max 1.001
_diffrn_reflns_theta_full        25.242
_diffrn_reflns_theta_max         30.506
_diffrn_reflns_theta_min         2.847
_exptl_absorpt_coefficient_mu    19.594
_exptl_absorpt_correction_T_max  0.7461
_exptl_absorpt_correction_T_min  0.3508
_exptl_absorpt_correction_type   multi-scan
_exptl_absorpt_process_details   SADABS
_exptl_crystal_colour            red
_exptl_crystal_density_diffrn    2.918
_exptl_crystal_description       block
_exptl_crystal_F_000             992
_exptl_crystal_size_max          0.210
_exptl_crystal_size_mid          0.181
_exptl_crystal_size_min          0.153
_refine_diff_density_max         1.005
_refine_diff_density_min         -0.806
_refine_diff_density_rms         0.124
_refine_ls_extinction_method     none
_refine_ls_goodness_of_fit_ref   1.040
_refine_ls_hydrogen_treatment    constr
_refine_ls_matrix_type           full
_refine_ls_number_parameters     67
_refine_ls_number_reflns         1930
_refine_ls_number_restraints     0
_refine_ls_restrained_S_all      1.040
_refine_ls_R_factor_all          0.0202
_refine_ls_R_factor_gt           0.0158
_refine_ls_shift/su_max          0.002
_refine_ls_shift/su_mean         0.000
_refine_ls_structure_factor_coef Fsqd
_refine_ls_weighting_details
;
 w=1/[\s^2^(Fo^2^)+(0.0181P)^2^]
 where P=(Fo^2^+2Fc^2^)/3
;
_refine_ls_weighting_scheme      calc
_refine_ls_wR_factor_gt          0.0352
_refine_ls_wR_factor_ref         0.0363
_reflns_number_gt                1735
_reflns_number_total             1930
_reflns_threshold_expression     'I > 2\s(I)'
_cod_data_source_file            c7ce02167d2.cif
_cod_data_source_block           Cu_MeCN_Au3Br
_cod_depositor_comments
'Adding full bibliography for 7230108--7230110.cif.'
_cod_database_code               7230109
_shelx_space_group_comment
;
The symmetry employed for this shelxl refinement is uniquely defined
by the following loop, which should always be used as a source of
symmetry information in preference to the above space-group names.
They are only intended as comments.
;
_shelxl_version_number           2013-2
_shelx_res_file
;
TITL mo_Cu1_Au3Br_150K_0m_a.res in C2/c
REM Old TITL mo_Cu1_Au3Br_150K_0m in C2/c
REM SHELXT solution in C2/c
REM R1 0.054,  Rweak 0.003,  Alpha 0.012,  Orientation as input
REM Formula found by SHELXT:  C8 N2 Cu Br2 Au
CELL  0.71073  15.5179   5.9393  14.8526   90.000  112.769   90.000
ZERR    4.000   0.0011   0.0004   0.0010    0.000    0.001    0.000
LATT  7
SYMM -X, Y, 1/2-Z
SFAC C H N CU BR AU
UNIT 24 24 16 4 8 4
SHEL 999 0.7
L.S. 10
BOND $H
LIST 4
EQIV $1 3/2-x, 3/2-y, 1-z
BIND Br1 Br1_$1
ACTA
FMAP 2
PLAN 20
WGHT    0.018100
FVAR       0.17930
AU1   6    0.500000    1.000000    0.500000    10.50000    0.02137    0.01770 =
         0.01637    0.00253    0.00566   -0.00204
BR1   5    0.659761    0.881083    0.538489    11.00000    0.02392    0.03376 =
         0.03022    0.00422    0.00919    0.00258
CU1   4    0.500000    0.417895    0.750000    10.50000    0.02901    0.01585 =
         0.02219    0.00000    0.01189    0.00000
N1    3    0.484834    0.620082    0.639175    11.00000    0.03432    0.02303 =
         0.02454    0.00285    0.01101   -0.00046
N2    3    0.395263    0.200519    0.727191    11.00000    0.02758    0.02661 =
         0.02640    0.00332    0.01321   -0.00149
C1    1    0.488022    0.756223    0.586456    11.00000    0.02563    0.02262 =
         0.02358    0.00179    0.00858   -0.00089
C21   1    0.347676    0.050370    0.705835    11.00000    0.02461    0.02797 =
         0.02826    0.00258    0.01308   -0.00015
C22   1    0.286194   -0.145162    0.675864    11.00000    0.03820    0.03423 =
         0.04671   -0.00215    0.02035   -0.01181
AFIX 137
H22A  2    0.269228   -0.171812    0.607384    11.00000   -1.50000
H22B  2    0.230852   -0.117542    0.688318    11.00000   -1.50000
H22C  2    0.318045   -0.274801    0.712169    11.00000   -1.50000
AFIX   0
HKLF 4

REM  mo_Cu1_Au3Br_150K_0m_a.res in C2/c
REM R1 =  0.0158 for    1735 Fo > 4sig(Fo)  and  0.0202 for all    1930 data
REM     67 parameters refined using      0 restraints

END

WGHT      0.0181      0.0000

REM Highest difference peak  1.005,  deepest hole -0.806,  1-sigma level  0.124
Q1    1   0.4983  0.9593  0.4465  11.00000  0.05    1.01
Q2    1   0.4434  1.0254  0.4903  11.00000  0.05    0.67
Q3    1   0.4481  0.9343  0.4748  11.00000  0.05    0.61
Q4    1   0.6628  0.8729  0.5904  11.00000  0.05    0.61
Q5    1   0.4627  1.0989  0.4653  11.00000  0.05    0.58
Q6    1   0.5980  0.8802  0.5317  11.00000  0.05    0.55
Q7    1   0.6604  1.1270  0.5390  11.00000  0.05    0.54
Q8    1   0.5000  0.5541  0.7500  10.50000  0.05    0.50
Q9    1   0.7199  0.8859  0.5601  11.00000  0.05    0.46
Q10   1   0.6238  0.9986  0.5235  11.00000  0.05    0.46
Q11   1   0.3115 -0.2448  0.6403  11.00000  0.05    0.43
Q12   1   0.6352  0.7667  0.5147  11.00000  0.05    0.41
Q13   1   0.5521  0.5011  0.8027  11.00000  0.05    0.41
Q14   1   0.6568  0.9398  0.4782  11.00000  0.05    0.40
Q15   1   0.3321 -0.0439  0.5650  11.00000  0.05    0.37
Q16   1   0.3812 -0.2644  0.8139  11.00000  0.05    0.37
Q17   1   0.2821 -0.1948  0.7072  11.00000  0.05    0.34
Q18   1   0.5027  0.4633  0.8103  11.00000  0.05    0.34
Q19   1   0.2808 -0.2283  0.7500  11.00000  0.05    0.34
Q20   1   0.4404  0.8949  0.5673  11.00000  0.05    0.34
;
_shelx_res_checksum              60644
loop_
_space_group_symop_operation_xyz
'x, y, z'
'-x, y, -z+1/2'
'x+1/2, y+1/2, z'
'-x+1/2, y+1/2, -z+1/2'
'-x, -y, -z'
'x, -y, z-1/2'
'-x+1/2, -y+1/2, -z'
'x+1/2, -y+1/2, z-1/2'
loop_
_atom_site_label
_atom_site_type_symbol
_atom_site_fract_x
_atom_site_fract_y
_atom_site_fract_z
_atom_site_U_iso_or_equiv
_atom_site_adp_type
_atom_site_occupancy
_atom_site_site_symmetry_order
_atom_site_calc_flag
_atom_site_refinement_flags_posn
_atom_site_refinement_flags_adp
_atom_site_refinement_flags_occupancy
Au1 Au 0.5000 1.0000 0.5000 0.01898(4) Uani 1 2 d S . P
Br1 Br 0.65976(2) 0.88108(4) 0.53849(2) 0.02969(7) Uani 1 1 d . . .
Cu1 Cu 0.5000 0.41790(7) 0.7500 0.02175(9) Uani 1 2 d S T P
N1 N 0.48483(16) 0.6201(3) 0.63917(15) 0.0274(5) Uani 1 1 d . . .
N2 N 0.39526(15) 0.2005(3) 0.72719(15) 0.0260(4) Uani 1 1 d . . .
C1 C 0.48802(18) 0.7562(4) 0.58646(17) 0.0242(5) Uani 1 1 d . . .
C21 C 0.3477(2) 0.0504(4) 0.7058(2) 0.0261(5) Uani 1 1 d . . .
C22 C 0.2862(2) -0.1452(5) 0.6759(2) 0.0385(7) Uani 1 1 d . . .
H22A H 0.2692 -0.1718 0.6074 0.058 Uiso 1 1 calc R U .
H22B H 0.2309 -0.1175 0.6883 0.058 Uiso 1 1 calc R U .
H22C H 0.3180 -0.2748 0.7122 0.058 Uiso 1 1 calc R U .
loop_
_atom_site_aniso_label
_atom_site_aniso_U_11
_atom_site_aniso_U_22
_atom_site_aniso_U_33
_atom_site_aniso_U_23
_atom_site_aniso_U_13
_atom_site_aniso_U_12
Au1 0.02137(7) 0.01770(6) 0.01637(7) 0.00253(4) 0.00566(5) -0.00204(5)
Br1 0.02392(13) 0.03376(14) 0.03022(13) 0.00422(10) 0.00919(11) 0.00258(11)
Cu1 0.0290(2) 0.01585(18) 0.0222(2) 0.000 0.01189(18) 0.000
N1 0.0343(13) 0.0230(10) 0.0245(10) 0.0029(8) 0.0110(10) -0.0005(9)
N2 0.0276(11) 0.0266(10) 0.0264(11) 0.0033(9) 0.0132(9) -0.0015(9)
C1 0.0256(13) 0.0226(11) 0.0236(12) 0.0018(9) 0.0086(10) -0.0009(10)
C21 0.0246(13) 0.0280(12) 0.0283(13) 0.0026(10) 0.0131(11) -0.0001(10)
C22 0.0382(17) 0.0342(15) 0.0467(17) -0.0021(13) 0.0204(15) -0.0118(13)
loop_
_atom_type_symbol
_atom_type_description
_atom_type_scat_dispersion_real
_atom_type_scat_dispersion_imag
_atom_type_scat_source
C C 0.0033 0.0016 'International Tables Vol C Tables 4.2.6.8 and 6.1.1.4'
H H 0.0000 0.0000 'International Tables Vol C Tables 4.2.6.8 and 6.1.1.4'
N N 0.0061 0.0033 'International Tables Vol C Tables 4.2.6.8 and 6.1.1.4'
Cu Cu 0.3201 1.2651 'International Tables Vol C Tables 4.2.6.8 and 6.1.1.4'
Br Br -0.2901 2.4595 'International Tables Vol C Tables 4.2.6.8 and 6.1.1.4'
Au Au -2.0133 8.8022 'International Tables Vol C Tables 4.2.6.8 and 6.1.1.4'
loop_
_geom_angle_atom_site_label_1
_geom_angle_atom_site_label_2
_geom_angle_atom_site_label_3
_geom_angle
_geom_angle_site_symmetry_1
_geom_angle_site_symmetry_3
C1 Au1 C1 180.0 5_676 .
C1 Au1 Br1 88.75(7) 5_676 5_676
C1 Au1 Br1 91.25(7) . 5_676
C1 Au1 Br1 91.25(7) 5_676 .
C1 Au1 Br1 88.75(7) . .
Br1 Au1 Br1 180.0 5_676 .
Au1 Br1 Br1 149.970(14) . 7_666
N1 Cu1 N1 105.18(12) 2_656 .
N1 Cu1 N2 115.10(9) 2_656 2_656
N1 Cu1 N2 111.13(9) . 2_656
N1 Cu1 N2 111.13(9) 2_656 .
N1 Cu1 N2 115.10(9) . .
N2 Cu1 N2 99.55(13) 2_656 .
C1 N1 Cu1 168.6(2) . .
C21 N2 Cu1 164.5(2) . .
N1 C1 Au1 176.9(2) . .
N2 C21 C22 178.6(3) . .
C21 C22 H22A 109.5 . .
C21 C22 H22B 109.5 . .
H22A C22 H22B 109.5 . .
C21 C22 H22C 109.5 . .
H22A C22 H22C 109.5 . .
H22B C22 H22C 109.5 . .
loop_
_geom_bond_atom_site_label_1
_geom_bond_atom_site_label_2
_geom_bond_distance
_geom_bond_site_symmetry_2
Au1 C1 1.991(2) 5_676
Au1 C1 1.991(2) .
Au1 Br1 2.4238(3) 5_676
Au1 Br1 2.4238(3) .
Br1 Br1 3.7489(5) 7_666
Cu1 N1 1.977(2) 2_656
Cu1 N1 1.977(2) .
Cu1 N2 1.999(2) 2_656
Cu1 N2 1.999(2) .
N1 C1 1.140(3) .
N2 C21 1.122(3) .
C21 C22 1.459(4) .
C22 H22A 0.9600 .
C22 H22B 0.9600 .
C22 H22C 0.9600 .
