#------------------------------------------------------------------------------
#$Date: 2018-06-14 18:06:48 +0300 (Thu, 14 Jun 2018) $
#$Revision: 208385 $
#$URL: file:///home/coder/svn-repositories/cod/cif/7/23/08/7230890.cif $
#------------------------------------------------------------------------------
#
# This file is available in the Crystallography Open Database (COD),
# http://www.crystallography.net/
#
# All data on this site have been placed in the public domain by the
# contributors.
#
data_7230890
loop_
_publ_author_name
'Mir, Sajjad Husain'
'Takasaki, Yuichi'
'Engel, Emile R.'
'Takamizawa, Satoshi'
_publ_section_title
;
 Enhancement of dissipated energy by large bending of an organic single
 crystal undergoing twinning deformation
;
_journal_issue                   39
_journal_name_full               'RSC Advances'
_journal_page_first              21933
_journal_paper_doi               10.1039/C8RA02499E
_journal_volume                  8
_journal_year                    2018
_chemical_formula_sum            'C8 H7 N O4'
_chemical_formula_weight         181.15
_space_group_crystal_system      triclinic
_space_group_IT_number           2
_space_group_name_Hall           '-P 1'
_space_group_name_H-M_alt        'P -1'
_symmetry_space_group_name_Hall  '-P 1'
_symmetry_space_group_name_H-M   'P -1'
_atom_sites_solution_hydrogens   geom
_audit_creation_method           SHELXL-2014/7
_audit_update_record
;
2018-03-20 deposited with the CCDC.
2018-06-10 downloaded from the CCDC.
;
_cell_angle_alpha                89.45(3)
_cell_angle_beta                 81.87(3)
_cell_angle_gamma                76.75(3)
_cell_formula_units_Z            4
_cell_length_a                   7.611(15)
_cell_length_b                   10.47(2)
_cell_length_c                   10.55(2)
_cell_measurement_reflns_used    1148
_cell_measurement_temperature    298
_cell_measurement_theta_max      23.494
_cell_measurement_theta_min      2.7595
_cell_volume                     810(3)
_computing_structure_refinement  'SHELXL-2014/7 (Sheldrick, 2014)'
_diffrn_ambient_temperature      298(2)
_diffrn_measured_fraction_theta_full 0.961
_diffrn_measured_fraction_theta_max 0.961
_diffrn_measurement_device_type  'Bruker SMART Breeze'
_diffrn_radiation_type           MoK\a
_diffrn_radiation_wavelength     0.71073
_diffrn_reflns_av_R_equivalents  0.0177
_diffrn_reflns_av_unetI/netI     0.0510
_diffrn_reflns_Laue_measured_fraction_full 0.961
_diffrn_reflns_Laue_measured_fraction_max 0.961
_diffrn_reflns_limit_h_max       7
_diffrn_reflns_limit_h_min       -9
_diffrn_reflns_limit_k_max       10
_diffrn_reflns_limit_k_min       -12
_diffrn_reflns_limit_l_max       8
_diffrn_reflns_limit_l_min       -12
_diffrn_reflns_number            3745
_diffrn_reflns_point_group_measured_fraction_full 0.961
_diffrn_reflns_point_group_measured_fraction_max 0.961
_diffrn_reflns_theta_full        25.021
_diffrn_reflns_theta_max         25.021
_diffrn_reflns_theta_min         1.999
_exptl_absorpt_coefficient_mu    0.121
_exptl_absorpt_correction_type   multi-scan
_exptl_crystal_colour            colorless
_exptl_crystal_density_diffrn    1.485
_exptl_crystal_description       rod
_exptl_crystal_F_000             376
_exptl_crystal_size_max          0.430
_exptl_crystal_size_mid          0.269
_exptl_crystal_size_min          0.120
_exptl_transmission_factor_max   0.7454
_exptl_transmission_factor_min   0.6492
_refine_diff_density_max         0.233
_refine_diff_density_min         -0.243
_refine_diff_density_rms         0.056
_refine_ls_extinction_method     none
_refine_ls_goodness_of_fit_ref   1.071
_refine_ls_hydrogen_treatment    constr
_refine_ls_matrix_type           full
_refine_ls_number_parameters     237
_refine_ls_number_reflns         2755
_refine_ls_number_restraints     0
_refine_ls_restrained_S_all      1.071
_refine_ls_R_factor_all          0.1034
_refine_ls_R_factor_gt           0.0601
_refine_ls_shift/su_max          0.000
_refine_ls_shift/su_mean         0.000
_refine_ls_structure_factor_coef Fsqd
_refine_ls_weighting_details
'w=1/[\s^2^(Fo^2^)+(0.0863P)^2^+0.2473P] where P=(Fo^2^+2Fc^2^)/3'
_refine_ls_weighting_scheme      calc
_refine_ls_wR_factor_gt          0.1588
_refine_ls_wR_factor_ref         0.1786
_reflns_Friedel_coverage         0.000
_reflns_number_gt                1670
_reflns_number_total             2755
_reflns_threshold_expression     'I > 2\s(I)'
_cod_data_source_file            c8ra02499e3.cif
_cod_data_source_block           mother
_cod_database_code               7230890
_shelx_shelxl_version_number     2014/7
_shelx_space_group_comment
;
The symmetry employed for this shelxl refinement is uniquely defined
by the following loop, which should always be used as a source of
symmetry information in preference to the above space-group names.
They are only intended as comments.
;
_shelx_res_file
;

    h0623t1_0_a.res created by SHELXL-2014/7

TITL h0623t1_0_a.res in P-1
CELL  0.71073   7.6107  10.4703  10.5533   89.447   81.870   76.755
ZERR    4.000   0.0150   0.0204   0.0202    0.029    0.025    0.028
LATT 1
SFAC C  H  N  O
UNIT 32  28  4  16
L.S. 10
ACTA
BOND $H
FMAP 2
PLAN 20
TEMP 25.000
WGHT    0.086300    0.247300
FVAR       0.45772
O5    4    0.721888    0.479376    0.432676    11.00000    0.04426    0.08841 =
         0.03752   -0.01677    0.00463   -0.02019
AFIX  83
H5    2    0.640707    0.503861    0.493030    11.00000   -1.50000
AFIX   0
O6    4    0.481672    0.469328    0.341046    11.00000    0.03269    0.09642 =
         0.04799   -0.02102    0.00299   -0.01284
O1    4    0.325434    0.983859    0.924158    11.00000    0.04676    0.11136 =
         0.04038   -0.02616    0.00194   -0.01860
O3    4    0.879715    0.775676    0.438918    11.00000    0.04378    0.08799 =
         0.05210   -0.01629    0.00270   -0.01143
O2    4    0.619116    0.941468    0.849686    11.00000    0.04212    0.12999 =
         0.04626   -0.03405   -0.00900   -0.01700
AFIX  83
H2    2    0.623867    0.965725    0.922517    11.00000   -1.50000
AFIX   0
O4    4    0.716201    0.755842    0.293477    11.00000    0.08068    0.09473 =
         0.03229   -0.01905    0.00120   -0.01821
N1    3    0.732398    0.781905    0.403536    11.00000    0.05021    0.04825 =
         0.03572   -0.00602    0.00050   -0.01094
O8    4    0.769488    0.251382   -0.201668    11.00000    0.07859    0.12668 =
         0.04501   -0.03717   -0.00699   -0.00998
N2    3    0.681249    0.291533   -0.098037    11.00000    0.05402    0.06778 =
         0.03967   -0.01258   -0.01047   -0.00563
O7    4    0.516647    0.302475   -0.072564    11.00000    0.05215    0.14091 =
         0.06889   -0.02791   -0.01305   -0.02189
C5    1    0.565869    0.822227    0.497811    11.00000    0.04088    0.03829 =
         0.03373   -0.00523   -0.00460   -0.00869
C15   1    0.654066    0.457785    0.337961    11.00000    0.03512    0.04259 =
         0.03237   -0.00417   -0.00344   -0.00721
C10   1    0.959680    0.398430    0.190728    11.00000    0.03245    0.03959 =
         0.04009    0.00210   -0.00266   -0.00587
C9    1    0.769901    0.411912    0.212536    11.00000    0.03282    0.03461 =
         0.03496   -0.00306    0.00056   -0.00359
C7    1    0.452833    0.946782    0.836470    11.00000    0.03313    0.04806 =
         0.03570   -0.00625   -0.00386   -0.00695
C13   1    0.778309    0.329199   -0.000083    11.00000    0.04400    0.04134 =
         0.03367   -0.00267   -0.00512   -0.00555
C1    1    0.426200    0.904478    0.707533    11.00000    0.03586    0.03590 =
         0.03468   -0.00018   -0.00720   -0.00902
C2    1    0.251785    0.906403    0.673399    11.00000    0.03683    0.03917 =
         0.04220    0.00203   -0.00793   -0.01188
C6    1    0.580928    0.861878    0.617794    11.00000    0.03453    0.03805 =
         0.03738   -0.00306   -0.00515   -0.00840
AFIX  43
H6    2    0.695489    0.860408    0.639731    11.00000   -1.20000
AFIX   0
C14   1    0.680388    0.377317    0.116780    11.00000    0.03343    0.04764 =
         0.03742   -0.00698   -0.00307   -0.00574
AFIX  43
H14   2    0.554660    0.386540    0.131329    11.00000   -1.20000
AFIX   0
C12   1    0.964152    0.313388   -0.024934    11.00000    0.04402    0.05017 =
         0.03492   -0.00786    0.00625   -0.00294
AFIX  43
H12   2    1.029017    0.280325   -0.103651    11.00000   -1.20000
AFIX   0
C11   1    1.051714    0.348354    0.071219    11.00000    0.02922    0.05133 =
         0.05036   -0.00196    0.00804   -0.00376
AFIX  43
H11   2    1.177590    0.338016    0.055487    11.00000   -1.20000
AFIX   0
C3    1    0.246686    0.864329    0.549646    11.00000    0.03810    0.05694 =
         0.04961   -0.00209   -0.01601   -0.01493
AFIX  43
H3    2    0.133715    0.864380    0.525630    11.00000   -1.20000
AFIX   0
C8    1    0.075853    0.953515    0.761113    11.00000    0.03743    0.06324 =
         0.05990   -0.00107   -0.00643   -0.01126
AFIX 137
H8A   2    0.062501    1.043952    0.784579    11.00000   -1.50000
H8B   2    0.076538    0.901797    0.836730    11.00000   -1.50000
H8C   2   -0.024111    0.944955    0.718185    11.00000   -1.50000
AFIX   0
C4    1    0.400014    0.822590    0.460757    11.00000    0.05862    0.05109 =
         0.03505   -0.00544   -0.01290   -0.01695
AFIX  43
H4    2    0.391458    0.795627    0.378595    11.00000   -1.20000
AFIX   0
C16   1    1.066944    0.435302    0.287393    11.00000    0.04117    0.07442 =
         0.05414   -0.01007   -0.00824   -0.01471
AFIX 137
H16A  2    1.193889    0.416578    0.252467    11.00000   -1.50000
H16B  2    1.050548    0.385662    0.363347    11.00000   -1.50000
H16C  2    1.025140    0.527298    0.308318    11.00000   -1.50000
AFIX   0
HKLF 4

REM  h0623t1_0_a.res in P-1
REM R1 =  0.0601 for    1670 Fo > 4sig(Fo)  and  0.1034 for all    2755 data
REM    237 parameters refined using      0 restraints

END

WGHT      0.0863      0.2474

REM Highest difference peak  0.233,  deepest hole -0.243,  1-sigma level  0.056
Q1    1   0.3993  0.4832  0.4116  11.00000  0.05    0.23
Q2    1   0.0650  0.8219  0.7339  11.00000  0.05    0.21
Q3    1   0.5432  0.8613  0.9258  11.00000  0.05    0.21
Q4    1   0.5414  1.0371  0.8404  11.00000  0.05    0.19
Q5    1  -0.0136  1.0066  0.7406  11.00000  0.05    0.18
Q6    1   0.0626  1.0900  0.7456  11.00000  0.05    0.17
Q7    1   1.1941  0.2748  0.0850  11.00000  0.05    0.17
Q8    1   1.0268  0.2790  0.2849  11.00000  0.05    0.16
Q9    1   1.1199  0.6160  0.2438  11.00000  0.05    0.16
Q10   1   0.6701  0.6455  0.3607  11.00000  0.05    0.16
Q11   1   0.6908  1.0843  0.8423  11.00000  0.05    0.15
Q12   1   0.8371  0.6842  0.4977  11.00000  0.05    0.15
Q13   1   1.1230  0.2254  0.1625  11.00000  0.05    0.15
Q14   1   0.4961  0.5402  0.3243  11.00000  0.05    0.15
Q15   1   0.1644  0.9794  0.6798  11.00000  0.05    0.15
Q16   1   0.9221  0.8943  0.3838  11.00000  0.05    0.15
Q17   1   0.5623  0.3471  0.4164  11.00000  0.05    0.15
Q18   1   0.3808  1.0634  0.8952  11.00000  0.05    0.15
Q19   1   0.1600  1.0213  0.8929  11.00000  0.05    0.15
Q20   1   0.6090  0.4193 -0.0021  11.00000  0.05    0.15
;
_shelx_res_checksum              91922
loop_
_space_group_symop_operation_xyz
'x, y, z'
'-x, -y, -z'
loop_
_atom_site_label
_atom_site_type_symbol
_atom_site_fract_x
_atom_site_fract_y
_atom_site_fract_z
_atom_site_U_iso_or_equiv
_atom_site_adp_type
_atom_site_occupancy
_atom_site_site_symmetry_order
_atom_site_calc_flag
_atom_site_refinement_flags_posn
_atom_site_refinement_flags_adp
O5 O 0.7219(3) 0.4794(3) 0.4327(2) 0.0568(7) Uani 1 1 d . .
H5 H 0.6407 0.5039 0.4930 0.085 Uiso 1 1 calc R U
O6 O 0.4817(3) 0.4693(3) 0.3410(2) 0.0601(8) Uani 1 1 d . .
O1 O 0.3254(3) 0.9839(3) 0.9242(2) 0.0667(8) Uani 1 1 d . .
O3 O 0.8797(4) 0.7757(3) 0.4389(2) 0.0627(8) Uani 1 1 d . .
O2 O 0.6191(3) 0.9415(3) 0.8497(2) 0.0727(9) Uani 1 1 d . .
H2 H 0.6239 0.9657 0.9225 0.109 Uiso 1 1 calc R U
O4 O 0.7162(4) 0.7558(3) 0.2935(2) 0.0703(9) Uani 1 1 d . .
N1 N 0.7324(4) 0.7819(3) 0.4035(3) 0.0454(8) Uani 1 1 d . .
O8 O 0.7695(4) 0.2514(3) -0.2017(3) 0.0856(10) Uani 1 1 d . .
N2 N 0.6812(5) 0.2915(3) -0.0980(3) 0.0547(8) Uani 1 1 d . .
O7 O 0.5166(4) 0.3025(3) -0.0726(3) 0.0867(10) Uani 1 1 d . .
C5 C 0.5659(4) 0.8222(3) 0.4978(3) 0.0377(8) Uani 1 1 d . .
C15 C 0.6541(4) 0.4578(3) 0.3380(3) 0.0371(8) Uani 1 1 d . .
C10 C 0.9597(4) 0.3984(3) 0.1907(3) 0.0380(8) Uani 1 1 d . .
C9 C 0.7699(4) 0.4119(3) 0.2125(3) 0.0353(8) Uani 1 1 d . .
C7 C 0.4528(4) 0.9468(3) 0.8365(3) 0.0394(8) Uani 1 1 d . .
C13 C 0.7783(5) 0.3292(3) -0.0001(3) 0.0404(8) Uani 1 1 d . .
C1 C 0.4262(4) 0.9045(3) 0.7075(3) 0.0351(8) Uani 1 1 d . .
C2 C 0.2518(4) 0.9064(3) 0.6734(3) 0.0387(8) Uani 1 1 d . .
C6 C 0.5809(4) 0.8619(3) 0.6178(3) 0.0366(8) Uani 1 1 d . .
H6 H 0.6955 0.8604 0.6397 0.044 Uiso 1 1 calc R U
C14 C 0.6804(5) 0.3773(3) 0.1168(3) 0.0402(8) Uani 1 1 d . .
H14 H 0.5547 0.3865 0.1313 0.048 Uiso 1 1 calc R U
C12 C 0.9642(5) 0.3134(3) -0.0249(3) 0.0454(9) Uani 1 1 d . .
H12 H 1.0290 0.2803 -0.1037 0.055 Uiso 1 1 calc R U
C11 C 1.0517(5) 0.3484(3) 0.0712(3) 0.0459(9) Uani 1 1 d . .
H11 H 1.1776 0.3380 0.0555 0.055 Uiso 1 1 calc R U
C3 C 0.2467(5) 0.8643(3) 0.5496(3) 0.0466(9) Uani 1 1 d . .
H3 H 0.1337 0.8644 0.5256 0.056 Uiso 1 1 calc R U
C8 C 0.0759(5) 0.9535(4) 0.7611(3) 0.0536(10) Uani 1 1 d . .
H8A H 0.0625 1.0440 0.7846 0.080 Uiso 1 1 calc R U
H8B H 0.0765 0.9018 0.8367 0.080 Uiso 1 1 calc R U
H8C H -0.0241 0.9450 0.7182 0.080 Uiso 1 1 calc R U
C4 C 0.4000(5) 0.8226(3) 0.4608(3) 0.0469(9) Uani 1 1 d . .
H4 H 0.3915 0.7956 0.3786 0.056 Uiso 1 1 calc R U
C16 C 1.0669(5) 0.4353(4) 0.2874(3) 0.0561(10) Uani 1 1 d . .
H16A H 1.1939 0.4166 0.2525 0.084 Uiso 1 1 calc R U
H16B H 1.0505 0.3857 0.3633 0.084 Uiso 1 1 calc R U
H16C H 1.0251 0.5273 0.3083 0.084 Uiso 1 1 calc R U
loop_
_atom_site_aniso_label
_atom_site_aniso_U_11
_atom_site_aniso_U_22
_atom_site_aniso_U_33
_atom_site_aniso_U_23
_atom_site_aniso_U_13
_atom_site_aniso_U_12
O5 0.0443(15) 0.088(2) 0.0375(14) -0.0168(13) 0.0046(11) -0.0202(13)
O6 0.0327(15) 0.096(2) 0.0480(15) -0.0210(13) 0.0030(11) -0.0128(13)
O1 0.0468(17) 0.111(2) 0.0404(14) -0.0262(14) 0.0019(12) -0.0186(15)
O3 0.0438(17) 0.088(2) 0.0521(15) -0.0163(14) 0.0027(13) -0.0114(14)
O2 0.0421(17) 0.130(3) 0.0463(15) -0.0341(15) -0.0090(12) -0.0170(16)
O4 0.081(2) 0.095(2) 0.0323(14) -0.0191(13) 0.0012(13) -0.0182(16)
N1 0.050(2) 0.0483(19) 0.0357(17) -0.0060(13) 0.0005(14) -0.0109(14)
O8 0.079(2) 0.127(3) 0.0450(16) -0.0372(16) -0.0070(15) -0.0100(19)
N2 0.054(2) 0.068(2) 0.0397(17) -0.0126(15) -0.0105(15) -0.0056(17)
O7 0.052(2) 0.141(3) 0.0689(19) -0.0279(18) -0.0130(15) -0.0219(19)
C5 0.041(2) 0.0383(19) 0.0337(17) -0.0052(14) -0.0046(14) -0.0087(15)
C15 0.035(2) 0.043(2) 0.0324(17) -0.0042(14) -0.0034(14) -0.0072(15)
C10 0.0325(19) 0.040(2) 0.0401(18) 0.0021(15) -0.0027(14) -0.0059(15)
C9 0.0328(18) 0.0346(18) 0.0350(17) -0.0031(14) 0.0006(14) -0.0036(14)
C7 0.033(2) 0.048(2) 0.0357(18) -0.0063(15) -0.0039(15) -0.0069(16)
C13 0.044(2) 0.041(2) 0.0337(17) -0.0027(15) -0.0051(15) -0.0056(16)
C1 0.0359(19) 0.0359(19) 0.0347(17) -0.0002(14) -0.0072(14) -0.0090(15)
C2 0.0368(19) 0.039(2) 0.0422(19) 0.0020(15) -0.0079(15) -0.0119(15)
C6 0.0345(19) 0.0380(19) 0.0374(18) -0.0031(15) -0.0051(14) -0.0084(15)
C14 0.0334(19) 0.048(2) 0.0374(18) -0.0070(15) -0.0031(14) -0.0057(15)
C12 0.044(2) 0.050(2) 0.0349(18) -0.0079(16) 0.0062(16) -0.0029(17)
C11 0.0292(19) 0.051(2) 0.050(2) -0.0020(17) 0.0080(16) -0.0038(16)
C3 0.038(2) 0.057(2) 0.050(2) -0.0021(18) -0.0160(17) -0.0149(17)
C8 0.037(2) 0.063(3) 0.060(2) -0.0011(19) -0.0064(17) -0.0113(18)
C4 0.059(3) 0.051(2) 0.0350(18) -0.0054(16) -0.0129(18) -0.0170(18)
C16 0.041(2) 0.074(3) 0.054(2) -0.010(2) -0.0082(17) -0.0147(19)
loop_
_atom_type_symbol
_atom_type_description
_atom_type_scat_dispersion_real
_atom_type_scat_dispersion_imag
_atom_type_scat_source
C C 0.0033 0.0016 'International Tables Vol C Tables 4.2.6.8 and 6.1.1.4'
H H 0.0000 0.0000 'International Tables Vol C Tables 4.2.6.8 and 6.1.1.4'
N N 0.0061 0.0033 'International Tables Vol C Tables 4.2.6.8 and 6.1.1.4'
O O 0.0106 0.0060 'International Tables Vol C Tables 4.2.6.8 and 6.1.1.4'
loop_
_geom_angle_atom_site_label_1
_geom_angle_atom_site_label_2
_geom_angle_atom_site_label_3
_geom_angle
C15 O5 H5 109.5
C7 O2 H2 109.5
O3 N1 O4 123.0(3)
O3 N1 C5 118.5(3)
O4 N1 C5 118.5(3)
O7 N2 O8 123.6(3)
O7 N2 C13 118.4(3)
O8 N2 C13 117.9(4)
C6 C5 C4 122.0(3)
C6 C5 N1 119.1(3)
C4 C5 N1 118.9(3)
O5 C15 O6 122.6(3)
O5 C15 C9 121.5(3)
O6 C15 C9 115.9(3)
C11 C10 C9 117.4(3)
C11 C10 C16 118.8(3)
C9 C10 C16 123.8(3)
C14 C9 C10 120.1(3)
C14 C9 C15 116.3(3)
C10 C9 C15 123.5(3)
O1 C7 O2 122.4(3)
O1 C7 C1 123.0(3)
O2 C7 C1 114.6(3)
C12 C13 C14 121.7(3)
C12 C13 N2 119.5(3)
C14 C13 N2 118.8(3)
C6 C1 C2 119.5(3)
C6 C1 C7 117.6(3)
C2 C1 C7 123.0(3)
C3 C2 C1 117.0(3)
C3 C2 C8 119.0(3)
C1 C2 C8 124.0(3)
C5 C6 C1 120.5(3)
C5 C6 H6 119.8
C1 C6 H6 119.8
C13 C14 C9 120.0(3)
C13 C14 H14 120.0
C9 C14 H14 120.0
C13 C12 C11 117.7(3)
C13 C12 H12 121.1
C11 C12 H12 121.1
C12 C11 C10 123.0(3)
C12 C11 H11 118.5
C10 C11 H11 118.5
C4 C3 C2 123.5(3)
C4 C3 H3 118.2
C2 C3 H3 118.2
C2 C8 H8A 109.5
C2 C8 H8B 109.5
H8A C8 H8B 109.5
C2 C8 H8C 109.5
H8A C8 H8C 109.5
H8B C8 H8C 109.5
C5 C4 C3 117.6(3)
C5 C4 H4 121.2
C3 C4 H4 121.2
C10 C16 H16A 109.5
C10 C16 H16B 109.5
H16A C16 H16B 109.5
C10 C16 H16C 109.5
H16A C16 H16C 109.5
H16B C16 H16C 109.5
loop_
_geom_bond_atom_site_label_1
_geom_bond_atom_site_label_2
_geom_bond_distance
O5 C15 1.233(4)
O5 H5 0.8200
O6 C15 1.285(5)
O1 C7 1.236(4)
O3 N1 1.219(4)
O2 C7 1.281(5)
O2 H2 0.8200
O4 N1 1.225(4)
N1 C5 1.477(5)
O8 N2 1.223(4)
N2 O7 1.222(5)
N2 C13 1.458(5)
C5 C6 1.364(5)
C5 C4 1.372(5)
C15 C9 1.499(5)
C10 C11 1.397(5)
C10 C9 1.404(5)
C10 C16 1.498(5)
C9 C14 1.390(5)
C7 C1 1.490(5)
C13 C12 1.373(5)
C13 C14 1.382(5)
C1 C6 1.391(5)
C1 C2 1.420(5)
C2 C3 1.391(5)
C2 C8 1.500(5)
C6 H6 0.9300
C14 H14 0.9300
C12 C11 1.385(5)
C12 H12 0.9300
C11 H11 0.9300
C3 C4 1.377(5)
C3 H3 0.9300
C8 H8A 0.9600
C8 H8B 0.9600
C8 H8C 0.9600
C4 H4 0.9300
C16 H16A 0.9600
C16 H16B 0.9600
C16 H16C 0.9600
