#------------------------------------------------------------------------------
#$Date: 2019-11-17 09:20:35 +0200 (Sun, 17 Nov 2019) $
#$Revision: 229068 $
#$URL: file:///home/coder/svn-repositories/cod/cif/7/23/01/7230182.cif $
#------------------------------------------------------------------------------
#
# This file is available in the Crystallography Open Database (COD),
# http://www.crystallography.net/
#
# All data on this site have been placed in the public domain by the
# contributors.
#
data_7230182
loop_
_publ_author_name
'Zhang, Xiu-Mei'
'Liu, Feng'
'Gao, Wei'
'Huang, Hong'
'Liu, Jie-Ping'
_publ_section_title
;
 Six novel coordination polymers based on the
 5-(1H-tetrazol-5-yl)isophthalic acid ligand: structures, luminescence,
 and magnetic properties
;
_journal_issue                   14
_journal_name_full               CrystEngComm
_journal_page_first              1985
_journal_paper_doi               10.1039/C8CE00030A
_journal_volume                  20
_journal_year                    2018
_chemical_formula_sum            'C14 H8 N5 O5 Zn2'
_chemical_formula_weight         457.03
_space_group_crystal_system      triclinic
_space_group_IT_number           2
_space_group_name_Hall           '-P 1'
_space_group_name_H-M_alt        'P -1'
_symmetry_space_group_name_Hall  '-P 1'
_symmetry_space_group_name_H-M   'P -1'
_atom_sites_solution_hydrogens   mixed
_audit_creation_method           SHELXL-2014/7
_audit_update_record
;
2017-12-22 deposited with the CCDC.
2018-02-22 downloaded from the CCDC.
;
_cell_angle_alpha                105.314(5)
_cell_angle_beta                 105.849(6)
_cell_angle_gamma                94.385(6)
_cell_formula_units_Z            2
_cell_length_a                   7.9093(14)
_cell_length_b                   8.4758(14)
_cell_length_c                   11.879(2)
_cell_measurement_reflns_used    8388
_cell_measurement_temperature    293(2)
_cell_measurement_theta_max      27.50
_cell_measurement_theta_min      2.78
_cell_volume                     729.3(2)
_computing_cell_refinement       'Bruker SMART'
_computing_data_collection       'Bruker SMART'
_computing_data_reduction        'Bruker SAINT'
_computing_molecular_graphics    'Bruker SHELXTL'
_computing_publication_material  'Bruker SHELXTL'
_computing_structure_refinement  'SHELXL-2014/7 (Sheldrick, 2014)'
_computing_structure_solution    'Bruker SHELXTL'
_diffrn_ambient_temperature      293(2)
_diffrn_measured_fraction_theta_full 0.998
_diffrn_measured_fraction_theta_max 0.996
_diffrn_measurement_device_type  'CCD area detector'
_diffrn_measurement_method       'phi and omega scans'
_diffrn_radiation_type           MoK\a
_diffrn_radiation_wavelength     0.71073
_diffrn_reflns_av_R_equivalents  0.0251
_diffrn_reflns_av_unetI/netI     0.0222
_diffrn_reflns_Laue_measured_fraction_full 0.998
_diffrn_reflns_Laue_measured_fraction_max 0.996
_diffrn_reflns_limit_h_max       10
_diffrn_reflns_limit_h_min       -10
_diffrn_reflns_limit_k_max       11
_diffrn_reflns_limit_k_min       -10
_diffrn_reflns_limit_l_max       15
_diffrn_reflns_limit_l_min       -15
_diffrn_reflns_number            13714
_diffrn_reflns_point_group_measured_fraction_full 0.998
_diffrn_reflns_point_group_measured_fraction_max 0.996
_diffrn_reflns_theta_full        25.242
_diffrn_reflns_theta_max         27.502
_diffrn_reflns_theta_min         2.784
_diffrn_source                   'fine-focus sealed tube'
_exptl_absorpt_coefficient_mu    3.331
_exptl_absorpt_correction_type   none
_exptl_crystal_colour            colorless
_exptl_crystal_density_diffrn    2.081
_exptl_crystal_density_method    'not measured'
_exptl_crystal_description       block
_exptl_crystal_F_000             454
_exptl_crystal_size_max          0.100
_exptl_crystal_size_mid          0.100
_exptl_crystal_size_min          0.080
_refine_diff_density_max         0.575
_refine_diff_density_min         -0.491
_refine_diff_density_rms         0.088
_refine_ls_extinction_method     none
_refine_ls_goodness_of_fit_ref   1.056
_refine_ls_hydrogen_treatment    mixed
_refine_ls_matrix_type           full
_refine_ls_number_parameters     238
_refine_ls_number_reflns         3334
_refine_ls_number_restraints     6
_refine_ls_restrained_S_all      1.077
_refine_ls_R_factor_all          0.0329
_refine_ls_R_factor_gt           0.0267
_refine_ls_shift/su_max          0.000
_refine_ls_shift/su_mean         0.000
_refine_ls_structure_factor_coef Fsqd
_refine_ls_weighting_details
'w=1/[\s^2^(Fo^2^)+(0.0298P)^2^+0.8964P] where P=(Fo^2^+2Fc^2^)/3'
_refine_ls_weighting_scheme      calc
_refine_ls_wR_factor_gt          0.0634
_refine_ls_wR_factor_ref         0.0662
_reflns_Friedel_coverage         0.000
_reflns_number_gt                2943
_reflns_number_total             3334
_reflns_threshold_expression     'I > 2\s(I)'
_cod_data_source_file            c8ce00030a2.cif
_cod_data_source_block           4_CCDC1
_cod_depositor_comments
'Adding full bibliography for 7230178--7230183.cif.'
_cod_database_code               7230182
_shelx_shelxl_version_number     2014/7
_shelx_space_group_comment
;
The symmetry employed for this shelxl refinement is uniquely defined
by the following loop, which should always be used as a source of
symmetry information in preference to the above space-group names.
They are only intended as comments.
;
_shelx_estimated_absorpt_t_min   0.732
_shelx_estimated_absorpt_t_max   0.776
_shelx_res_file
;

    4.res created by SHELXL-2014/7


TITL 3 in P1                     New: P-1
CELL  0.71073    7.9093    8.4758   11.8790   105.314   105.849    94.385
ZERR  2           0.0014    0.0014    0.0020     0.005     0.006     0.006
LATT   1
SFAC  C   2.31000  20.84392   1.02000  10.20751   1.58860   0.56870   0.86500 =
         51.65125   0.21560   0.00330   0.00160    11.500   0.68000  12.01000
SFAC  H   0.49300  10.51091   0.32291  26.12573   0.14019   3.14236   0.04081 =
         57.79977   0.00304   0.00000   0.00000     0.624   0.35000   1.00800
SFAC  N  12.21261   0.00570   3.13220   9.89331   2.01250  28.99754   1.16630 =
          0.58260 -11.52901   0.00610   0.00330    19.600   0.68000  14.01000
SFAC  O   3.04850  13.27711   2.28680   5.70111   1.54630   0.32390   0.86700 =
         32.90894   0.25080   0.01060   0.00600    32.500   0.68000  16.00000
SFAC Zn  14.07431   3.26550   7.03181   0.23330   5.16521  10.31631   2.41000 =
         58.70976   1.30410   0.28390   1.43010  5860.000   1.45000  65.39000
UNIT    28    16  10  10   4
L.S. 20
SIZE 0.1 0.08 0.1
isor 0.01 c13
FMAP 2
PLAN 20
ACTA
BOND $H
CONF
WGHT    0.029800    0.896400
FVAR       0.25737
ZN1   5    0.301049    0.615446    0.219512    11.00000    0.02196    0.02037 =
         0.01590    0.00821    0.00586   -0.00043
ZN2   5   -0.071915    0.299657    0.125668    11.00000    0.02120    0.01841 =
         0.01691    0.00742    0.00461   -0.00196
O1    4    0.532527    0.799744    0.415486    11.00000    0.06822    0.04199 =
         0.02309    0.01508    0.02029    0.00641
O2    4    0.291231    0.627077    0.386675    11.00000    0.06048    0.03583 =
         0.01601    0.00711    0.00286   -0.00285
O3    4    0.789456    1.206656    0.845631    11.00000    0.02858    0.02109 =
         0.03392    0.01587    0.00615   -0.00076
O4    4    0.791446    1.098612    0.995578    11.00000    0.04762    0.02409 =
         0.01718    0.00553    0.00129   -0.01220
O5    4    0.135178    0.415423    0.116982    11.00000    0.02724    0.02352 =
         0.01714    0.00337    0.00888   -0.00561
H5    2    0.130464    0.394710    0.053057    11.00000   -1.50000
N1    3    0.247294    0.539749    0.856632    11.00000    0.02199    0.02099 =
         0.02090    0.01001    0.00782    0.00081
N2    3    0.251335    0.405421    0.899189    11.00000    0.02650    0.02201 =
         0.02125    0.00897    0.00916   -0.00028
N3    3    0.387363    0.336891    0.884345    11.00000    0.02620    0.01993 =
         0.02027    0.00718    0.00810   -0.00182
N4    3    0.476162    0.424566    0.831798    11.00000    0.02280    0.01774 =
         0.01653    0.00606    0.00679   -0.00109
N5    3   -0.039190    0.193396    0.265325    11.00000    0.02424    0.02268 =
         0.01780    0.01015    0.00415   -0.00074
C1    1    0.430990    0.729683    0.455777    11.00000    0.05325    0.02131 =
         0.01662    0.00764    0.00689    0.00864
C2    1    0.470362    0.762260    0.591935    11.00000    0.03593    0.02111 =
         0.01425    0.00728    0.00668    0.00484
C3    1    0.581623    0.905928    0.671417    11.00000    0.03265    0.01927 =
         0.01856    0.01026    0.00862    0.00250
AFIX  43
H3B   2    0.629970    0.981780    0.640067    11.00000   -1.20000
AFIX   0
C4    1    0.621505    0.937543    0.797519    11.00000    0.02236    0.01651 =
         0.01754    0.00685    0.00559    0.00228
C5    1    0.553162    0.821413    0.844507    11.00000    0.02492    0.01947 =
         0.01356    0.00682    0.00521    0.00159
AFIX  43
H5A   2    0.579952    0.841553    0.928797    11.00000   -1.20000
AFIX   0
C6    1    0.445329    0.676058    0.765377    11.00000    0.01938    0.01828 =
         0.01836    0.00860    0.00607    0.00146
C7    1    0.401835    0.647302    0.639227    11.00000    0.02880    0.02009 =
         0.01590    0.00488    0.00321   -0.00117
AFIX  43
H7A   2    0.326745    0.550955    0.586410    11.00000   -1.20000
AFIX   0
C8    1    0.740166    1.092501    0.883931    11.00000    0.02350    0.01737 =
         0.01977    0.00708    0.00626    0.00389
C9    1    0.387267    0.547835    0.816390    11.00000    0.01939    0.01803 =
         0.01190    0.00314    0.00191   -0.00246
C10   1    0.043971    0.275194    0.381693    11.00000    0.07008    0.02700 =
         0.02414    0.01259   -0.00716   -0.02134
AFIX  43
H10A  2    0.094042    0.385582    0.401106    11.00000   -1.20000
AFIX   0
C11   1    0.060047    0.204706    0.475691    11.00000    0.07620    0.03148 =
         0.01692    0.00967   -0.00878   -0.01870
AFIX  43
H11A  2    0.117750    0.268372    0.556166    11.00000   -1.20000
AFIX   0
C12   1   -0.008514    0.041464    0.451137    11.00000    0.02668    0.02370 =
         0.01675    0.01063    0.00123   -0.00137
C13   1   -0.096366   -0.040263    0.331583    11.00000    0.14801    0.03010 =
         0.02202    0.01447   -0.01331   -0.03837
AFIX  43
H13A  2   -0.149179   -0.150291    0.309731    11.00000   -1.20000
AFIX   0
C14   1   -0.108133    0.038311    0.242041    11.00000    0.13120    0.02832 =
         0.01569    0.01002   -0.00956   -0.02818
AFIX  43
H14A  2   -0.168082   -0.022043    0.161110    11.00000   -1.20000

AFIX   0
HKLF 4

REM  3 in P1                     New: P-1
REM R1 =  0.0267 for    2943 Fo > 4sig(Fo)  and  0.0329 for all    3334 data
REM    238 parameters refined using      6 restraints

END

WGHT      0.0299      0.8858

REM Highest difference peak  0.575,  deepest hole -0.491,  1-sigma level  0.088
Q1    1  -0.0267 -0.0474  0.3269  11.00000  0.05    0.58
Q2    1  -0.1460 -0.0026  0.3422  11.00000  0.05    0.52
Q3    1   0.1871  0.6317  0.4030  11.00000  0.05    0.48
Q4    1   0.0000  0.0000  0.5000  10.50000  0.05    0.38
Q5    1   0.4285  0.7365  0.3827  11.00000  0.05    0.35
Q6    1   0.4215  0.6171  0.7944  11.00000  0.05    0.33
Q7    1  -0.1635  0.0635  0.2456  11.00000  0.05    0.32
Q8    1   0.4902  0.8423  0.6281  11.00000  0.05    0.32
Q9    1   0.6701  1.0169  0.8337  11.00000  0.05    0.31
Q10   1   0.0136  0.3462  0.1959  11.00000  0.05    0.31
Q11   1   0.1138  0.1350  0.4570  11.00000  0.05    0.30
Q12   1   0.2181  0.3418  0.3981  11.00000  0.05    0.29
Q13   1   0.5233  0.7272  0.8011  11.00000  0.05    0.29
Q14   1  -0.0296  0.1720  0.4690  11.00000  0.05    0.29
Q15   1  -0.1472  0.0131  0.2887  11.00000  0.05    0.29
Q16   1   0.3288  0.6910  0.4295  11.00000  0.05    0.29
Q17   1   0.5823  0.9382  0.7418  11.00000  0.05    0.29
Q18   1   0.5855  0.8842  0.8164  11.00000  0.05    0.28
Q19   1  -0.0036 -0.1685  0.3176  11.00000  0.05    0.27
Q20   1  -0.0277  0.0665  0.2505  11.00000  0.05    0.26
;
_shelx_res_checksum              4067
loop_
_space_group_symop_operation_xyz
'x, y, z'
'-x, -y, -z'
loop_
_atom_site_label
_atom_site_type_symbol
_atom_site_fract_x
_atom_site_fract_y
_atom_site_fract_z
_atom_site_U_iso_or_equiv
_atom_site_adp_type
_atom_site_occupancy
_atom_site_site_symmetry_order
_atom_site_calc_flag
_atom_site_refinement_flags_posn
_atom_site_refinement_flags_adp
Zn1 Zn 0.30105(4) 0.61545(3) 0.21951(2) 0.01904(8) Uani 1 1 d . .
Zn2 Zn -0.07191(4) 0.29966(3) 0.12567(2) 0.01895(8) Uani 1 1 d . .
O1 O 0.5325(3) 0.7997(3) 0.41549(18) 0.0421(5) Uani 1 1 d . .
O2 O 0.2912(3) 0.6271(3) 0.38667(17) 0.0400(5) Uani 1 1 d . .
O3 O 0.7895(2) 1.2067(2) 0.84563(17) 0.0273(4) Uani 1 1 d . .
O4 O 0.7914(3) 1.0986(2) 0.99558(16) 0.0326(4) Uani 1 1 d . .
O5 O 0.1352(2) 0.4154(2) 0.11698(16) 0.0233(4) Uani 1 1 d . .
H5 H 0.130(5) 0.395(4) 0.053(3) 0.035 Uiso 1 1 d . U
N1 N 0.2473(3) 0.5397(2) 0.85663(18) 0.0204(4) Uani 1 1 d . .
N2 N 0.2513(3) 0.4054(3) 0.89919(19) 0.0226(4) Uani 1 1 d . .
N3 N 0.3874(3) 0.3369(2) 0.88434(18) 0.0220(4) Uani 1 1 d . .
N4 N 0.4762(3) 0.4246(2) 0.83180(17) 0.0189(4) Uani 1 1 d . .
N5 N -0.0392(3) 0.1934(2) 0.26532(18) 0.0215(4) Uani 1 1 d . .
C1 C 0.4310(4) 0.7297(3) 0.4558(2) 0.0306(6) Uani 1 1 d . .
C2 C 0.4704(4) 0.7623(3) 0.5919(2) 0.0235(5) Uani 1 1 d . .
C3 C 0.5816(3) 0.9059(3) 0.6714(2) 0.0225(5) Uani 1 1 d . .
H3B H 0.6300 0.9818 0.6401 0.027 Uiso 1 1 calc R U
C4 C 0.6215(3) 0.9375(3) 0.7975(2) 0.0186(4) Uani 1 1 d . .
C5 C 0.5532(3) 0.8214(3) 0.8445(2) 0.0192(5) Uani 1 1 d . .
H5A H 0.5800 0.8416 0.9288 0.023 Uiso 1 1 calc R U
C6 C 0.4453(3) 0.6761(3) 0.7654(2) 0.0181(4) Uani 1 1 d . .
C7 C 0.4018(3) 0.6473(3) 0.6392(2) 0.0227(5) Uani 1 1 d . .
H7A H 0.3267 0.5510 0.5864 0.027 Uiso 1 1 calc R U
C8 C 0.7402(3) 1.0925(3) 0.8839(2) 0.0199(5) Uani 1 1 d . .
C9 C 0.3873(3) 0.5478(3) 0.81639(19) 0.0176(4) Uani 1 1 d . .
C10 C 0.0440(5) 0.2752(4) 0.3817(3) 0.0455(9) Uani 1 1 d . .
H10A H 0.0940 0.3856 0.4011 0.055 Uiso 1 1 calc R U
C11 C 0.0600(5) 0.2047(4) 0.4757(3) 0.0474(9) Uani 1 1 d . .
H11A H 0.1178 0.2684 0.5562 0.057 Uiso 1 1 calc R U
C12 C -0.0085(3) 0.0415(3) 0.4511(2) 0.0229(5) Uani 1 1 d . .
C13 C -0.0964(7) -0.0403(4) 0.3316(3) 0.0765(16) Uani 1 1 d . U
H13A H -0.1492 -0.1503 0.3097 0.092 Uiso 1 1 calc R U
C14 C -0.1081(6) 0.0383(4) 0.2420(3) 0.0667(14) Uani 1 1 d . .
H14A H -0.1681 -0.0220 0.1611 0.080 Uiso 1 1 calc R U
loop_
_atom_site_aniso_label
_atom_site_aniso_U_11
_atom_site_aniso_U_22
_atom_site_aniso_U_33
_atom_site_aniso_U_23
_atom_site_aniso_U_13
_atom_site_aniso_U_12
Zn1 0.02196(15) 0.02037(14) 0.01590(14) 0.00821(11) 0.00586(10) -0.00043(11)
Zn2 0.02120(15) 0.01841(14) 0.01691(14) 0.00742(11) 0.00461(10) -0.00196(10)
O1 0.0682(15) 0.0420(12) 0.0231(10) 0.0151(9) 0.0203(10) 0.0064(11)
O2 0.0605(14) 0.0358(11) 0.0160(9) 0.0071(8) 0.0029(9) -0.0029(10)
O3 0.0286(9) 0.0211(8) 0.0339(10) 0.0159(8) 0.0061(8) -0.0008(7)
O4 0.0476(12) 0.0241(9) 0.0172(8) 0.0055(7) 0.0013(8) -0.0122(8)
O5 0.0272(9) 0.0235(9) 0.0171(8) 0.0034(7) 0.0089(7) -0.0056(7)
N1 0.0220(10) 0.0210(10) 0.0209(10) 0.0100(8) 0.0078(8) 0.0008(8)
N2 0.0265(10) 0.0220(10) 0.0212(10) 0.0090(8) 0.0092(8) -0.0003(8)
N3 0.0262(10) 0.0199(10) 0.0203(10) 0.0072(8) 0.0081(8) -0.0018(8)
N4 0.0228(10) 0.0177(9) 0.0165(9) 0.0061(8) 0.0068(8) -0.0011(8)
N5 0.0242(10) 0.0227(10) 0.0178(9) 0.0101(8) 0.0042(8) -0.0007(8)
C1 0.0533(17) 0.0213(12) 0.0166(12) 0.0076(10) 0.0069(11) 0.0086(12)
C2 0.0359(14) 0.0211(11) 0.0142(11) 0.0073(9) 0.0067(10) 0.0048(10)
C3 0.0326(13) 0.0193(11) 0.0186(11) 0.0103(9) 0.0086(10) 0.0025(10)
C4 0.0224(11) 0.0165(10) 0.0175(11) 0.0069(9) 0.0056(9) 0.0023(9)
C5 0.0249(12) 0.0195(11) 0.0136(10) 0.0068(9) 0.0052(9) 0.0016(9)
C6 0.0194(11) 0.0183(10) 0.0184(11) 0.0086(9) 0.0061(9) 0.0015(9)
C7 0.0288(13) 0.0201(11) 0.0159(11) 0.0049(9) 0.0032(9) -0.0012(10)
C8 0.0235(12) 0.0174(11) 0.0198(11) 0.0071(9) 0.0063(9) 0.0039(9)
C9 0.0194(11) 0.0180(11) 0.0119(10) 0.0031(8) 0.0019(8) -0.0025(9)
C10 0.070(2) 0.0270(14) 0.0241(14) 0.0126(12) -0.0072(14) -0.0213(14)
C11 0.076(2) 0.0315(15) 0.0169(13) 0.0097(12) -0.0088(14) -0.0187(15)
C12 0.0267(12) 0.0237(12) 0.0168(11) 0.0106(10) 0.0012(9) -0.0014(10)
C13 0.148(4) 0.0301(16) 0.0220(15) 0.0145(13) -0.0133(19) -0.038(2)
C14 0.131(4) 0.0283(16) 0.0157(14) 0.0100(12) -0.0096(17) -0.028(2)
loop_
_atom_type_symbol
_atom_type_description
_atom_type_scat_dispersion_real
_atom_type_scat_dispersion_imag
_atom_type_scat_source
C C 0.0033 0.0016 'International Tables Vol C Tables 4.2.6.8 and 6.1.1.4'
H H 0.0000 0.0000 'International Tables Vol C Tables 4.2.6.8 and 6.1.1.4'
N N 0.0061 0.0033 'International Tables Vol C Tables 4.2.6.8 and 6.1.1.4'
O O 0.0106 0.0060 'International Tables Vol C Tables 4.2.6.8 and 6.1.1.4'
Zn Zn 0.2839 1.4301 'International Tables Vol C Tables 4.2.6.8 and 6.1.1.4'
loop_
_geom_angle_atom_site_label_1
_geom_angle_atom_site_label_2
_geom_angle_atom_site_label_3
_geom_angle
_geom_angle_site_symmetry_1
_geom_angle_site_symmetry_3
O5 Zn1 O3 105.07(8) . 2_676
O5 Zn1 O2 103.15(8) . .
O3 Zn1 O2 116.10(9) 2_676 .
O5 Zn1 N4 101.86(8) . 2_666
O3 Zn1 N4 105.87(8) 2_676 2_666
O2 Zn1 N4 122.42(9) . 2_666
O5 Zn1 O1 155.15(7) . .
O3 Zn1 O1 97.42(7) 2_676 .
O2 Zn1 O1 56.39(8) . .
N4 Zn1 O1 81.63(8) 2_666 .
O5 Zn1 C1 130.41(8) . .
O3 Zn1 C1 109.11(8) 2_676 .
O2 Zn1 C1 28.74(9) . .
N4 Zn1 C1 102.07(9) 2_666 .
O1 Zn1 C1 27.66(8) . .
O5 Zn2 O4 122.11(8) . 1_444
O5 Zn2 N1 107.88(8) . 2_566
O4 Zn2 N1 105.79(9) 1_444 2_566
O5 Zn2 N5 116.47(8) . .
O4 Zn2 N5 95.27(8) 1_444 .
N1 Zn2 N5 108.04(8) 2_566 .
O5 Zn2 H5 18.2(9) . .
O4 Zn2 H5 105.1(9) 1_444 .
N1 Zn2 H5 110.1(9) 2_566 .
N5 Zn2 H5 129.2(9) . .
C1 O1 Zn1 77.77(16) . .
C1 O2 Zn1 102.92(17) . .
C8 O3 Zn1 141.01(17) . 2_676
C8 O4 Zn2 122.60(16) . 1_666
Zn2 O5 Zn1 135.17(10) . .
Zn2 O5 H5 107(3) . .
Zn1 O5 H5 114(3) . .
C9 N1 N2 105.76(19) . .
C9 N1 Zn2 130.00(16) . 2_566
N2 N1 Zn2 123.89(15) . 2_566
N3 N2 N1 109.21(18) . .
N2 N3 N4 108.63(19) . .
C9 N4 N3 106.26(19) . .
C9 N4 Zn1 124.09(15) . 2_666
N3 N4 Zn1 129.64(16) . 2_666
C14 N5 C10 116.4(2) . .
C14 N5 Zn2 120.07(18) . .
C10 N5 Zn2 123.48(17) . .
O1 C1 O2 122.9(2) . .
O1 C1 C2 119.9(3) . .
O2 C1 C2 117.2(2) . .
O1 C1 Zn1 74.57(15) . .
O2 C1 Zn1 48.34(12) . .
C2 C1 Zn1 165.3(2) . .
C3 C2 C7 119.5(2) . .
C3 C2 C1 119.6(2) . .
C7 C2 C1 120.8(2) . .
C2 C3 C4 120.6(2) . .
C2 C3 H3B 119.7 . .
C4 C3 H3B 119.7 . .
C3 C4 C5 119.7(2) . .
C3 C4 C8 121.0(2) . .
C5 C4 C8 119.3(2) . .
C6 C5 C4 119.9(2) . .
C6 C5 H5A 120.1 . .
C4 C5 H5A 120.1 . .
C5 C6 C7 120.2(2) . .
C5 C6 C9 119.2(2) . .
C7 C6 C9 120.5(2) . .
C2 C7 C6 120.2(2) . .
C2 C7 H7A 119.9 . .
C6 C7 H7A 119.9 . .
O3 C8 O4 122.6(2) . .
O3 C8 C4 121.0(2) . .
O4 C8 C4 116.4(2) . .
N1 C9 N4 110.1(2) . .
N1 C9 C6 126.7(2) . .
N4 C9 C6 123.1(2) . .
N5 C10 C11 123.2(3) . .
N5 C10 H10A 118.4 . .
C11 C10 H10A 118.4 . .
C12 C11 C10 120.4(3) . .
C12 C11 H11A 119.8 . .
C10 C11 H11A 119.8 . .
C13 C12 C11 115.7(2) . .
C13 C12 C12 121.7(3) . 2_556
C11 C12 C12 122.5(3) . 2_556
C12 C13 C14 120.8(3) . .
C12 C13 H13A 119.6 . .
C14 C13 H13A 119.6 . .
N5 C14 C13 123.4(3) . .
N5 C14 H14A 118.3 . .
C13 C14 H14A 118.3 . .
loop_
_geom_bond_atom_site_label_1
_geom_bond_atom_site_label_2
_geom_bond_distance
_geom_bond_site_symmetry_2
Zn1 O5 1.9430(18) .
Zn1 O3 1.9656(17) 2_676
Zn1 O2 1.9852(19) .
Zn1 N4 2.040(2) 2_666
Zn1 O1 2.554(2) .
Zn1 C1 2.590(3) .
Zn2 O5 1.8858(17) .
Zn2 O4 1.9685(18) 1_444
Zn2 N1 2.029(2) 2_566
Zn2 N5 2.0544(19) .
Zn2 H5 2.21(3) .
O1 C1 1.230(3) .
O2 C1 1.278(4) .
O3 C8 1.252(3) .
O3 Zn1 1.9656(17) 2_676
O4 C8 1.262(3) .
O4 Zn2 1.9685(18) 1_666
O5 H5 0.72(3) .
N1 C9 1.324(3) .
N1 N2 1.361(3) .
N1 Zn2 2.029(2) 2_566
N2 N3 1.293(3) .
N3 N4 1.356(3) .
N4 C9 1.328(3) .
N4 Zn1 2.040(2) 2_666
N5 C14 1.311(4) .
N5 C10 1.323(3) .
C1 C2 1.505(3) .
C2 C3 1.387(4) .
C2 C7 1.390(3) .
C3 C4 1.390(3) .
C3 H3B 0.9300 .
C4 C5 1.395(3) .
C4 C8 1.494(3) .
C5 C6 1.385(3) .
C5 H5A 0.9300 .
C6 C7 1.391(3) .
C6 C9 1.477(3) .
C7 H7A 0.9300 .
C10 C11 1.381(4) .
C10 H10A 0.9300 .
C11 C12 1.371(4) .
C11 H11A 0.9300 .
C12 C13 1.359(4) .
C12 C12 1.490(4) 2_556
C13 C14 1.383(4) .
C13 H13A 0.9300 .
C14 H14A 0.9300 .
loop_
_geom_torsion_atom_site_label_1
_geom_torsion_atom_site_label_2
_geom_torsion_atom_site_label_3
_geom_torsion_atom_site_label_4
_geom_torsion
_geom_torsion_site_symmetry_1
_geom_torsion_site_symmetry_4
O4 Zn2 O5 Zn1 178.14(12) 1_444 .
N1 Zn2 O5 Zn1 55.46(16) 2_566 .
N5 Zn2 O5 Zn1 -66.16(16) . .
C9 N1 N2 N3 -0.2(3) . .
Zn2 N1 N2 N3 -174.07(15) 2_566 .
N1 N2 N3 N4 0.1(3) . .
N2 N3 N4 C9 0.1(2) . .
N2 N3 N4 Zn1 -178.95(16) . 2_666
Zn1 O1 C1 O2 -1.7(3) . .
Zn1 O1 C1 C2 177.7(2) . .
Zn1 O2 C1 O1 2.1(3) . .
Zn1 O2 C1 C2 -177.23(19) . .
O1 C1 C2 C3 21.3(4) . .
O2 C1 C2 C3 -159.3(2) . .
Zn1 C1 C2 C3 -167.5(6) . .
O1 C1 C2 C7 -156.3(3) . .
O2 C1 C2 C7 23.0(4) . .
Zn1 C1 C2 C7 14.8(9) . .
C7 C2 C3 C4 -1.6(4) . .
C1 C2 C3 C4 -179.2(2) . .
C2 C3 C4 C5 1.9(4) . .
C2 C3 C4 C8 -179.6(2) . .
C3 C4 C5 C6 -0.4(4) . .
C8 C4 C5 C6 -179.0(2) . .
C4 C5 C6 C7 -1.4(4) . .
C4 C5 C6 C9 174.6(2) . .
C3 C2 C7 C6 -0.3(4) . .
C1 C2 C7 C6 177.4(2) . .
C5 C6 C7 C2 1.8(4) . .
C9 C6 C7 C2 -174.2(2) . .
Zn1 O3 C8 O4 -108.5(3) 2_676 .
Zn1 O3 C8 C4 73.9(3) 2_676 .
Zn2 O4 C8 O3 8.5(4) 1_666 .
Zn2 O4 C8 C4 -173.72(16) 1_666 .
C3 C4 C8 O3 8.6(4) . .
C5 C4 C8 O3 -172.8(2) . .
C3 C4 C8 O4 -169.1(2) . .
C5 C4 C8 O4 9.4(3) . .
N2 N1 C9 N4 0.3(3) . .
Zn2 N1 C9 N4 173.62(16) 2_566 .
N2 N1 C9 C6 -177.6(2) . .
Zn2 N1 C9 C6 -4.3(3) 2_566 .
N3 N4 C9 N1 -0.2(3) . .
Zn1 N4 C9 N1 178.89(15) 2_666 .
N3 N4 C9 C6 177.7(2) . .
Zn1 N4 C9 C6 -3.1(3) 2_666 .
C5 C6 C9 N1 85.6(3) . .
C7 C6 C9 N1 -98.4(3) . .
C5 C6 C9 N4 -92.0(3) . .
C7 C6 C9 N4 84.0(3) . .
C14 N5 C10 C11 0.1(6) . .
Zn2 N5 C10 C11 177.6(3) . .
N5 C10 C11 C12 1.3(6) . .
C10 C11 C12 C13 -2.4(6) . .
C10 C11 C12 C12 178.7(4) . 2_556
C11 C12 C13 C14 2.1(7) . .
C12 C12 C13 C14 -178.9(4) 2_556 .
C10 N5 C14 C13 -0.4(7) . .
Zn2 N5 C14 C13 -178.0(4) . .
C12 C13 C14 N5 -0.8(8) . .
