#------------------------------------------------------------------------------
#$Date: 2018-01-26 09:01:03 +0200 (Fri, 26 Jan 2018) $
#$Revision: 205690 $
#$URL: file:///home/coder/svn-repositories/cod/cif/7/23/00/7230044.cif $
#------------------------------------------------------------------------------
#
# This file is available in the Crystallography Open Database (COD),
# http://www.crystallography.net/
#
# All data on this site have been placed in the public domain by the
# contributors.
#
data_7230044
loop_
_publ_author_name
'Silva, Ra\'i G. M.'
'da Silva, Michael J. V.'
'Jacomini, Andrey P.'
'Moura, Sidnei'
'Back, Davi F.'
'Basso, Ernani A.'
'Rosa, Fernanda A.'
_publ_section_title
;
 Development of methodologies for the regioselective synthesis of four
 series of regioisomer isoxazoles from \b-enamino diketones
;
_journal_issue                   9
_journal_name_full               'RSC Advances'
_journal_page_first              4773
_journal_paper_doi               10.1039/C7RA13343J
_journal_volume                  8
_journal_year                    2018
_chemical_formula_moiety         'C13 H10 N2 O6'
_chemical_formula_sum            'C13 H10 N2 O6'
_chemical_formula_weight         290.23
_chemical_melting_point          ?
_chemical_name_common
'ethyl 4-formyl-5-(4-nitrophenyl)isozaxole-3-carboxylate'
_chemical_name_systematic
;
        ethyl 4-formyl-5-(4-nitrophenyl)isozaxole-3-carboxylate
;
_space_group_IT_number           2
_symmetry_cell_setting           triclinic
_symmetry_space_group_name_Hall  '-P 1'
_symmetry_space_group_name_H-M   'P -1'
_atom_sites_solution_hydrogens   geom
_atom_sites_solution_primary     direct
_atom_sites_solution_secondary   difmap
_audit_conform_dict_location     ftp://ftp.iucr.org/pub/cif_core.dic
_audit_conform_dict_name         cif_core.dic
_audit_conform_dict_version      2.3
_audit_creation_date             2016-03-16T17:29:23-00:00
_audit_creation_method           'WinGX routine CIF_UPDATE'
_audit_update_record
;
2017-12-06 deposited with the CCDC.
2018-01-22 downloaded from the CCDC.
;
_cell_angle_alpha                89.312(3)
_cell_angle_beta                 82.695(3)
_cell_angle_gamma                85.322(3)
_cell_formula_units_Z            2
_cell_length_a                   5.8104(5)
_cell_length_b                   8.2881(8)
_cell_length_c                   13.1190(12)
_cell_measurement_reflns_used    7233
_cell_measurement_temperature    100(2)
_cell_measurement_theta_max      30.346
_cell_measurement_theta_min      2.464
_cell_volume                     624.56(10)
_computing_cell_refinement       'SAINT V8.34A (Bruker AXS Inc., 2013)'
_computing_data_collection       'Bruker Instrument Service v4.2.7'
_computing_data_reduction        'SAINT V8.34A (Bruker AXS Inc., 2013)'
_computing_molecular_graphics    'Diamond (version 3.2i; Crystal Impact G'
_computing_structure_refinement  'SHELXL-97 (Sheldrick, 1997)'
_computing_structure_solution    'SHELXL97 (Sheldrick, 1997)'
_diffrn_ambient_temperature      100(2)
_diffrn_detector_area_resol_mean 10.4167
_diffrn_measured_fraction_theta_full 0.997
_diffrn_measured_fraction_theta_max 0.997
_diffrn_measurement_device_type  'Bruker D8 Venture Photon 100 diffractometer'
_diffrn_measurement_method       '2\% \f & \w scans'
_diffrn_radiation_monochromator  'Montel type 2-dim beam shaping X ray optics'
_diffrn_radiation_type           MoK\a
_diffrn_radiation_wavelength     0.71073
_diffrn_reflns_av_R_equivalents  0.0482
_diffrn_reflns_av_unetI/netI     0.1047
_diffrn_reflns_limit_h_max       7
_diffrn_reflns_limit_h_min       -8
_diffrn_reflns_limit_k_max       10
_diffrn_reflns_limit_k_min       -11
_diffrn_reflns_limit_l_max       18
_diffrn_reflns_limit_l_min       -18
_diffrn_reflns_number            6648
_diffrn_reflns_theta_full        29.98
_diffrn_reflns_theta_max         29.98
_diffrn_reflns_theta_min         2.47
_diffrn_source                   'micro-focus tube'
_diffrn_standards_decay_%        none
_diffrn_standards_interval_count none
_diffrn_standards_interval_time  none
_diffrn_standards_number         none
_exptl_absorpt_coefficient_mu    0.125
_exptl_absorpt_correction_T_max  0.9691
_exptl_absorpt_correction_T_min  0.9348
_exptl_absorpt_correction_type   multi-scan
_exptl_absorpt_process_details
;
SADABS (version 2012/1; Bruker, 2012) was used to perform the numerical
        absorption correction based on the indexed faces of the crystal.
;
_exptl_crystal_colour            yellow
_exptl_crystal_density_diffrn    1.543
_exptl_crystal_density_meas      ?
_exptl_crystal_density_method    'not measured'
_exptl_crystal_description       block
_exptl_crystal_F_000             300
_exptl_crystal_size_max          0.46
_exptl_crystal_size_mid          0.25
_exptl_crystal_size_min          0.17
_refine_diff_density_max         0.287
_refine_diff_density_min         -0.294
_refine_diff_density_rms         0.069
_refine_ls_extinction_coef       none
_refine_ls_extinction_method     none
_refine_ls_goodness_of_fit_ref   1.045
_refine_ls_hydrogen_treatment    constr
_refine_ls_matrix_type           full
_refine_ls_number_parameters     190
_refine_ls_number_reflns         3625
_refine_ls_number_restraints     0
_refine_ls_restrained_S_all      1.045
_refine_ls_R_factor_all          0.1191
_refine_ls_R_factor_gt           0.056
_refine_ls_shift/su_max          0
_refine_ls_shift/su_mean         0
_refine_ls_structure_factor_coef Fsqd
_refine_ls_weighting_details
'calc w=1/[\s^2^(Fo^2^)+(0.0564P)^2^+0.0840P] where P=(Fo^2^+2Fc^2^)/3'
_refine_ls_weighting_scheme      calc
_refine_ls_wR_factor_gt          0.1229
_refine_ls_wR_factor_ref         0.1556
_reflns_number_gt                2149
_reflns_number_total             3625
_reflns_threshold_expression     >2sigma(I)
_cod_data_source_file            c7ra13343j2.cif
_cod_data_source_block           p-1
_cod_depositor_comments
;
The following automatic conversions were performed:

'_chemical_melting_point' value 'none' was changed to '?' - the value
is undefined or not given.

'_exptl_crystal_density_meas' value 'none' was changed to '?' - the
value is perceived as not measured.

Automatic conversion script
Id: cif_fix_values 4973 2017-02-22 13:04:09Z antanas 
;
_cod_original_sg_symbol_Hall     -P1
_cod_original_sg_symbol_H-M      P-1
_cod_database_code               7230044
loop_
_symmetry_equiv_pos_as_xyz
'x, y, z'
'-x, -y, -z'
loop_
_atom_site_label
_atom_site_type_symbol
_atom_site_fract_x
_atom_site_fract_y
_atom_site_fract_z
_atom_site_U_iso_or_equiv
_atom_site_adp_type
_atom_site_occupancy
_atom_site_symmetry_multiplicity
_atom_site_calc_flag
_atom_site_refinement_flags
O1 O 0.8431(2) 0.65307(16) 0.44238(10) 0.0233(3) Uani 1 1 d .
O32 O 1.1222(2) 0.80434(17) 0.16572(11) 0.0282(4) Uani 1 1 d .
O42 O 0.2463(2) 0.99076(16) 0.39248(11) 0.0282(4) Uani 1 1 d .
O31 O 0.7960(3) 0.96750(19) 0.16051(12) 0.0360(4) Uani 1 1 d .
O542 O 0.1631(3) 0.4726(2) 0.88019(12) 0.0382(4) Uani 1 1 d .
O541 O -0.1005(3) 0.6623(2) 0.85223(13) 0.0457(5) Uani 1 1 d .
N2 N 0.9688(3) 0.6922(2) 0.34828(13) 0.0239(4) Uani 1 1 d .
N541 N 0.0872(3) 0.5855(2) 0.82968(13) 0.0295(4) Uani 1 1 d .
C51 C 0.4891(3) 0.7034(2) 0.55103(15) 0.0188(4) Uani 1 1 d .
C53 C 0.1322(3) 0.7360(2) 0.66725(16) 0.0234(4) Uani 1 1 d .
H53 H -0.022 0.7837 0.6845 0.028 Uiso 1 1 calc R
C5 C 0.6322(3) 0.7390(2) 0.45429(15) 0.0194(4) Uani 1 1 d .
C56 C 0.5861(3) 0.5972(2) 0.62112(15) 0.0207(4) Uani 1 1 d .
H56 H 0.7414 0.5508 0.6053 0.025 Uiso 1 1 calc R
C4 C 0.6137(3) 0.8349(2) 0.36860(15) 0.0198(4) Uani 1 1 d .
C3 C 0.8323(3) 0.7987(2) 0.30629(15) 0.0213(4) Uani 1 1 d .
C52 C 0.2616(3) 0.7726(2) 0.57482(15) 0.0214(4) Uani 1 1 d .
H52 H 0.1954 0.8448 0.5277 0.026 Uiso 1 1 calc R
C55 C 0.4568(3) 0.5594(2) 0.71350(15) 0.0225(4) Uani 1 1 d .
H55 H 0.5213 0.4877 0.7614 0.027 Uiso 1 1 calc R
C54 C 0.2315(3) 0.6291(2) 0.73371(15) 0.0221(4) Uani 1 1 d .
C31 C 0.9127(3) 0.8680(2) 0.20270(15) 0.0238(4) Uani 1 1 d .
C41 C 0.4261(3) 0.9494(2) 0.33969(16) 0.0251(5) Uani 1 1 d .
H41 H 0.4488 0.9953 0.2728 0.03 Uiso 1 1 calc R
C33 C 1.2008(4) 0.8516(3) 0.05982(16) 0.0328(5) Uani 1 1 d .
H33A H 1.2362 0.9665 0.0573 0.039 Uiso 1 1 calc R
H33B H 1.0778 0.8381 0.0156 0.039 Uiso 1 1 calc R
C34 C 1.4132(4) 0.7458(3) 0.02328(18) 0.0396(6) Uani 1 1 d .
H34A H 1.4699 0.7748 -0.0476 0.059 Uiso 1 1 calc R
H34B H 1.3761 0.6325 0.0259 0.059 Uiso 1 1 calc R
H34C H 1.5339 0.7604 0.0674 0.059 Uiso 1 1 calc R
loop_
_atom_site_aniso_label
_atom_site_aniso_U_11
_atom_site_aniso_U_22
_atom_site_aniso_U_33
_atom_site_aniso_U_23
_atom_site_aniso_U_13
_atom_site_aniso_U_12
O1 0.0206(7) 0.0227(7) 0.0255(8) 0.0060(6) -0.0030(5) 0.0042(5)
O32 0.0260(7) 0.0330(8) 0.0235(8) 0.0054(6) 0.0003(6) 0.0035(6)
O42 0.0235(7) 0.0233(8) 0.0370(9) 0.0047(6) -0.0055(6) 0.0046(6)
O31 0.0368(9) 0.0358(9) 0.0318(9) 0.0133(7) 0.0001(7) 0.0096(7)
O542 0.0372(9) 0.0488(11) 0.0287(9) 0.0131(8) -0.0072(7) -0.0007(7)
O541 0.0305(9) 0.0625(12) 0.0384(10) 0.0073(9) 0.0083(7) 0.0102(8)
N2 0.0224(8) 0.0257(9) 0.0228(9) 0.0052(7) -0.0018(7) 0.0002(7)
N541 0.0272(9) 0.0402(11) 0.0215(9) 0.0002(8) -0.0043(7) -0.0037(8)
C51 0.0198(9) 0.0147(9) 0.0227(10) 0.0000(7) -0.0061(7) -0.0014(7)
C53 0.0200(9) 0.0211(10) 0.0293(11) -0.0013(8) -0.0042(8) -0.0003(7)
C5 0.0187(9) 0.0153(9) 0.0248(10) -0.0002(8) -0.0069(7) 0.0013(7)
C56 0.0179(9) 0.0178(9) 0.0269(11) 0.0001(8) -0.0060(8) 0.0009(7)
C4 0.0201(9) 0.0176(9) 0.0228(10) -0.0016(8) -0.0070(7) -0.0014(7)
C3 0.0238(9) 0.0153(9) 0.0253(10) 0.0010(8) -0.0058(8) -0.0011(7)
C52 0.0235(9) 0.0162(10) 0.0255(10) 0.0022(8) -0.0084(8) -0.0002(7)
C55 0.0255(10) 0.0208(10) 0.0228(10) 0.0028(8) -0.0097(8) -0.0012(8)
C54 0.0221(9) 0.0234(10) 0.0209(10) 0.0008(8) -0.0035(8) -0.0023(8)
C31 0.0260(10) 0.0207(10) 0.0246(11) 0.0012(8) -0.0044(8) 0.0009(8)
C41 0.0266(10) 0.0238(11) 0.0257(11) 0.0058(8) -0.0076(8) -0.0007(8)
C33 0.0341(12) 0.0375(13) 0.0242(11) 0.0054(10) 0.0021(9) 0.0026(10)
C34 0.0309(12) 0.0498(15) 0.0349(13) 0.0011(11) 0.0025(10) 0.0055(10)
loop_
_atom_type_symbol
_atom_type_description
_atom_type_scat_dispersion_real
_atom_type_scat_dispersion_imag
_atom_type_scat_source
C C 0.0033 0.0016 'International Tables Vol C Tables 4.2.6.8 and 6.1.1.4'
H H 0 0 'International Tables Vol C Tables 4.2.6.8 and 6.1.1.4'
N N 0.0061 0.0033 'International Tables Vol C Tables 4.2.6.8 and 6.1.1.4'
O O 0.0106 0.006 'International Tables Vol C Tables 4.2.6.8 and 6.1.1.4'
loop_
_geom_angle_atom_site_label_1
_geom_angle_atom_site_label_2
_geom_angle_atom_site_label_3
_geom_angle
C5 O1 N2 109.98(14)
C31 O32 C33 114.59(16)
C3 N2 O1 105.15(15)
O541 N541 O542 124.55(17)
O541 N541 C54 117.97(18)
O542 N541 C54 117.47(17)
C52 C51 C56 119.70(17)
C52 C51 C5 121.85(18)
C56 C51 C5 118.46(17)
C54 C53 C52 118.79(18)
O1 C5 C4 108.73(15)
O1 C5 C51 113.20(16)
C4 C5 C51 138.06(18)
C55 C56 C51 120.49(17)
C5 C4 C3 103.30(17)
C5 C4 C41 132.28(17)
C3 C4 C41 124.42(18)
N2 C3 C4 112.84(17)
N2 C3 C31 119.62(17)
C4 C3 C31 127.53(18)
C53 C52 C51 120.05(19)
C54 C55 C56 118.05(18)
C53 C54 C55 122.91(17)
C53 C54 N541 118.06(17)
C55 C54 N541 119.02(18)
O31 C31 O32 125.72(18)
O31 C31 C3 122.77(18)
O32 C31 C3 111.51(18)
O42 C41 C4 126.39(19)
O32 C33 C34 107.65(18)
loop_
_geom_bond_atom_site_label_1
_geom_bond_atom_site_label_2
_geom_bond_distance
O1 C5 1.358(2)
O1 N2 1.4009(19)
O32 C31 1.322(2)
O32 C33 1.465(2)
O42 C41 1.205(2)
O31 C31 1.200(2)
O542 N541 1.225(2)
O541 N541 1.221(2)
N2 C3 1.303(3)
N541 C54 1.479(2)
C51 C52 1.396(3)
C51 C56 1.404(3)
C51 C5 1.467(3)
C53 C54 1.380(3)
C53 C52 1.387(3)
C5 C4 1.380(3)
C56 C55 1.389(3)
C4 C3 1.432(3)
C4 C41 1.469(3)
C3 C31 1.503(3)
C55 C54 1.382(3)
C33 C34 1.485(3)
