#------------------------------------------------------------------------------
#$Date: 2019-11-17 09:14:47 +0200 (Sun, 17 Nov 2019) $
#$Revision: 229045 $
#$URL: file:///home/coder/svn-repositories/cod/cif/7/23/05/7230523.cif $
#------------------------------------------------------------------------------
#
# This file is available in the Crystallography Open Database (COD),
# http://www.crystallography.net/
#
# All data on this site have been placed in the public domain by the
# contributors.
#
data_7230523
loop_
_publ_author_name
'Chakraborty, Shaunak'
'Desiraju, Gautam R.'
_publ_section_title
;
 Exploring the structural landscape with &#x2018;partial&#x2019;
 fluoro-substitution as a probe
;
_journal_issue                   20
_journal_name_full               CrystEngComm
_journal_page_first              2793
_journal_paper_doi               10.1039/C8CE00336J
_journal_volume                  20
_journal_year                    2018
_chemical_formula_moiety         'C9 H7 F O2'
_chemical_formula_sum            'C9 H7 F O2'
_chemical_formula_weight         166.15
_space_group_crystal_system      triclinic
_space_group_IT_number           2
_space_group_name_Hall           '-P 1'
_space_group_name_H-M_alt        'P -1'
_symmetry_space_group_name_Hall  '-P 1'
_symmetry_space_group_name_H-M   'P -1'
_atom_sites_solution_hydrogens   geom
_audit_creation_method           SHELXL-2014
_audit_update_record
;
2018-04-14 deposited with the CCDC.
2018-04-18 downloaded from the CCDC.
;
_cell_angle_alpha                84.53(2)
_cell_angle_beta                 85.150(19)
_cell_angle_gamma                87.11(3)
_cell_formula_units_Z            2
_cell_length_a                   3.789(4)
_cell_length_b                   6.337(6)
_cell_length_c                   15.846(16)
_cell_measurement_reflns_used    1136
_cell_measurement_temperature    373(2)
_cell_measurement_theta_max      27.5
_cell_measurement_theta_min      3.2
_cell_volume                     377.0(7)
_computing_structure_refinement  'SHELXL-2014 (Sheldrick, 2014)'
_diffrn_ambient_temperature      373(2)
_diffrn_measured_fraction_theta_full 0.988
_diffrn_measured_fraction_theta_max 0.989
_diffrn_measurement_device_type  CCD
_diffrn_radiation_type           MoK\a
_diffrn_radiation_wavelength     0.71073
_diffrn_reflns_av_R_equivalents  0.1729
_diffrn_reflns_av_unetI/netI     0.1457
_diffrn_reflns_Laue_measured_fraction_full 0.988
_diffrn_reflns_Laue_measured_fraction_max 0.989
_diffrn_reflns_limit_h_max       4
_diffrn_reflns_limit_h_min       -4
_diffrn_reflns_limit_k_max       8
_diffrn_reflns_limit_k_min       -8
_diffrn_reflns_limit_l_max       20
_diffrn_reflns_limit_l_min       -20
_diffrn_reflns_number            3851
_diffrn_reflns_point_group_measured_fraction_full 0.988
_diffrn_reflns_point_group_measured_fraction_max 0.989
_diffrn_reflns_theta_full        25.242
_diffrn_reflns_theta_max         27.476
_diffrn_reflns_theta_min         3.232
_exptl_absorpt_coefficient_mu    0.119
_exptl_crystal_colour            colourless
_exptl_crystal_density_diffrn    1.464
_exptl_crystal_description       plate
_exptl_crystal_F_000             172.0
_exptl_crystal_size_max          0.9
_exptl_crystal_size_mid          0.7
_exptl_crystal_size_min          0.6
_refine_diff_density_max         0.347
_refine_diff_density_min         -0.338
_refine_diff_density_rms         0.081
_refine_ls_extinction_method     none
_refine_ls_goodness_of_fit_ref   0.999
_refine_ls_hydrogen_treatment    constr
_refine_ls_matrix_type           full
_refine_ls_number_parameters     125
_refine_ls_number_reflns         1704
_refine_ls_number_restraints     1
_refine_ls_restrained_S_all      1.000
_refine_ls_R_factor_all          0.0702
_refine_ls_R_factor_gt           0.0647
_refine_ls_shift/su_max          0.000
_refine_ls_shift/su_mean         0.000
_refine_ls_structure_factor_coef Fsqd
_refine_ls_weighting_details
'w=1/[\s^2^(Fo^2^)+(0.0862P)^2^+0.0492P] where P=(Fo^2^+2Fc^2^)/3'
_refine_ls_weighting_scheme      calc
_refine_ls_wR_factor_gt          0.1767
_refine_ls_wR_factor_ref         0.1834
_reflns_Friedel_coverage         0.000
_reflns_number_gt                1472
_reflns_number_total             1704
_reflns_threshold_expression     'I > 2\s(I)'
_cod_data_source_file            c8ce00336j2.cif
_cod_data_source_block           10
_cod_depositor_comments
'Adding full bibliography for 7230514--7230540.cif.'
_cod_original_cell_volume        377.1(7)
_cod_database_code               7230523
_shelx_space_group_comment
;
The symmetry employed for this shelxl refinement is uniquely defined
by the following loop, which should always be used as a source of
symmetry information in preference to the above space-group names.
They are only intended as comments.
;
_shelxl_version_number           2014-3
_shelx_res_file
;
TITL SIR2004 run in space group P -1
CELL  0.71073   3.7895   6.3368  15.8458   84.529   85.150   87.115
ZERR     2.00   0.0039   0.0062   0.0164    0.021    0.019    0.027
LATT   1
SFAC  C    H    O    F
UNIT  18 12 4 2
MERG   2
OMIT    -2.00  55.00
OMIT     0   0   1
OMIT     1   1   5
OMIT     0   0   2
DFIX  1.300 0.020 F2B C8
SUMP 1.0 0.01 2 1.0 3 1.0 4 1.0
EQIV $1 -x, -y+1, -z+1
HTAB C2 O2_$1
EQIV $2 -x-1, -y, -z+2
HTAB C7 F2A_$2
EADP F2A F2B
FMAP   2
PLAN   25
ACTA
BOND   $H
CONF
L.S.  50
TEMP   100.10
WGHT    0.086200    0.049200
FVAR       2.25093   0.29994   0.72692   0.97291
C1    1    0.307906    0.762969    0.570627    11.00000    0.02276    0.02162 =
         0.01916   -0.00591   -0.00407    0.00169
C2    1    0.160799    0.579687    0.622614    11.00000    0.02517    0.02058 =
         0.02150   -0.00536   -0.00394   -0.00233
AFIX  43
H2    2    0.069155    0.472002    0.596165    11.00000   -1.20000
AFIX   0
C3    1    0.155877    0.564400    0.707292    11.00000    0.02131    0.01845 =
         0.02220   -0.00521   -0.00502    0.00044
AFIX  43
H3    2    0.254192    0.673919    0.731261    11.00000   -1.20000
AFIX   0
C4    1    0.011196    0.392501    0.765996    11.00000    0.01942    0.02024 =
         0.02051   -0.00418   -0.00482    0.00264
C5    1   -0.011319    0.408638    0.853396    11.00000    0.03393    0.02342 =
         0.02143   -0.00730   -0.00504   -0.00148
PART    1
AFIX  43
H5    2    0.067150    0.530381    0.873032    21.00000   -1.20000
AFIX   0
PART    2
F1    4    0.112308    0.582519    0.882931   -21.00000    0.06426    0.02493 =
         0.02100   -0.01114   -0.00937   -0.00619
PART    0
C6    1   -0.144573    0.252293    0.911853    11.00000    0.04326    0.03250 =
         0.02083   -0.00448   -0.00062   -0.00023
PART    1
AFIX  43
H6    2   -0.157582    0.269960    0.969643    31.00000   -1.20000
AFIX   0
PART    2
F2A   4   -0.203283    0.283311    0.990259   -31.00000    0.08180    0.04713 =
         0.01313   -0.00148   -0.00314   -0.02121
PART    0
C7    1   -0.259717    0.067769    0.884189    11.00000    0.03215    0.02613 =
         0.02968    0.00237    0.00001   -0.00001
AFIX  43
H7    2   -0.348664   -0.039588    0.923121    11.00000   -1.20000
AFIX   0
C8    1   -0.239875    0.046169    0.797436    11.00000    0.02560    0.02086 =
         0.03379   -0.00460   -0.00579   -0.00063
PART    1
AFIX  43
H8    2   -0.317427   -0.076395    0.778265    41.00000   -1.20000
AFIX   0
PART    2
F2B   4   -0.360696   -0.131989    0.790714   -41.00000    0.08180    0.04713 =
         0.01313   -0.00148   -0.00314   -0.02121
PART    0
C9    1   -0.106309    0.204633    0.739369    11.00000    0.02350    0.02304 =
         0.02287   -0.00665   -0.00452    0.00140
AFIX  43
H9    2   -0.093915    0.186680    0.681608    11.00000   -1.20000
AFIX   0
O1    3    0.443875    0.909363    0.603044    11.00000    0.03715    0.02473 =
         0.02175   -0.00546   -0.00722   -0.00689
O2    3    0.283049    0.765223    0.489464    11.00000    0.04691    0.02891 =
         0.01689   -0.00335   -0.00543   -0.01096
AFIX 147
H2A   2    0.367020    0.873719    0.465232    11.00000   -1.50000
AFIX   0
HKLF    4

REM  SIR2004 run in space group P -1
REM R1 =  0.0647 for    1472 Fo > 4sig(Fo)  and  0.0702 for all    1704 data
REM    125 parameters refined using      1 restraints

END

WGHT      0.0759      0.0338

REM Highest difference peak  0.347,  deepest hole -0.338,  1-sigma level  0.081
Q1    1   0.1704  0.6868  0.6070  11.00000  0.05    0.35
Q2    1   0.6584  0.9736  0.5827  11.00000  0.05    0.30
Q3    1  -0.1747  0.3327  0.7444  11.00000  0.05    0.27
Q4    1   0.5144  0.9423  0.4240  11.00000  0.05    0.27
Q5    1   0.0543  0.2663  0.7562  11.00000  0.05    0.25
Q6    1  -0.2416  0.3632  0.8777  11.00000  0.05    0.25
Q7    1   0.4064  0.6296  0.5983  11.00000  0.05    0.25
Q8    1   0.6489  0.9244  0.4613  11.00000  0.05    0.23
Q9    1  -0.3002  0.1971  0.8852  11.00000  0.05    0.23
Q10   1  -0.3374  0.1592  0.7629  11.00000  0.05    0.23
Q11   1  -0.5204 -0.0397  0.8998  11.00000  0.05    0.21
Q12   1   0.0602  0.7153  0.5033  11.00000  0.05    0.21
Q13   1  -0.4024  0.2758  0.8991  11.00000  0.05    0.21
Q14   1  -0.4940 -0.0429  0.8007  11.00000  0.05    0.20
Q15   1   0.2431  0.8990  0.6006  11.00000  0.05    0.20
Q16   1  -0.1345  0.5646  0.8757  11.00000  0.05    0.19
Q17   1   0.6107  0.8164  0.6211  11.00000  0.05    0.19
Q18   1   0.3093  0.8838  0.3973  11.00000  0.05    0.18
Q19   1  -0.4485  0.1707  0.8463  11.00000  0.05    0.18
Q20   1   0.0383  0.0801  0.7906  11.00000  0.05    0.17
Q21   1  -0.6759 -0.0535  0.9433  11.00000  0.05    0.17
Q22   1   0.3615  0.6422  0.8627  11.00000  0.05    0.17
Q23   1   0.1451  0.9553  0.4519  11.00000  0.05    0.17
Q24   1   0.1561  0.9225  0.4820  11.00000  0.05    0.17
Q25   1  -0.0583  0.4995  0.7413  11.00000  0.05    0.17
;
_shelx_res_checksum              86674
loop_
_space_group_symop_operation_xyz
'x, y, z'
'-x, -y, -z'
loop_
_atom_site_label
_atom_site_type_symbol
_atom_site_fract_x
_atom_site_fract_y
_atom_site_fract_z
_atom_site_U_iso_or_equiv
_atom_site_adp_type
_atom_site_occupancy
_atom_site_site_symmetry_order
_atom_site_calc_flag
_atom_site_refinement_flags_posn
_atom_site_refinement_flags_adp
_atom_site_refinement_flags_occupancy
_atom_site_disorder_assembly
_atom_site_disorder_group
C1 C 0.3079(4) 0.7630(2) 0.57063(9) 0.0209(4) Uani 1 1 d . . . . .
C2 C 0.1608(4) 0.5797(2) 0.62261(9) 0.0220(4) Uani 1 1 d . . . . .
H2 H 0.0692 0.4720 0.5962 0.026 Uiso 1 1 calc R U . . .
C3 C 0.1559(4) 0.5644(2) 0.70729(9) 0.0203(4) Uani 1 1 d . . . . .
H3 H 0.2542 0.6739 0.7313 0.024 Uiso 1 1 calc R U . . .
C4 C 0.0112(4) 0.3925(2) 0.76600(9) 0.0198(4) Uani 1 1 d . . . . .
C5 C -0.0113(4) 0.4086(3) 0.85340(10) 0.0258(4) Uani 1 1 d . . . . .
H5 H 0.0671 0.5304 0.8730 0.031 Uiso 0.300(5) 1 calc R U P A 1
F1 F 0.1123(4) 0.5825(2) 0.88293(8) 0.0357(6) Uani 0.700(5) 1 d . . P A 2
C6 C -0.1446(5) 0.2523(3) 0.91185(10) 0.0322(4) Uani 1 1 d . . . . .
H6 H -0.1576 0.2700 0.9696 0.039 Uiso 0.727(6) 1 calc R U P B 1
F2A F -0.2033(13) 0.2833(7) 0.9903(2) 0.0468(18) Uani 0.273(6) 1 d . . P B 2
C7 C -0.2597(5) 0.0678(3) 0.88419(11) 0.0298(4) Uani 1 1 d . . . . .
H7 H -0.3487 -0.0396 0.9231 0.036 Uiso 1 1 calc R U . . .
C8 C -0.2399(4) 0.0462(2) 0.79744(10) 0.0264(4) Uani 1 1 d D . . . .
H8 H -0.3174 -0.0764 0.7783 0.032 Uiso 0.973(3) 1 calc R U P C 1
F2B F -0.361(13) -0.132(5) 0.791(2) 0.0468(18) Uani 0.027(3) 1 d D . P C 2
C9 C -0.1063(4) 0.2046(2) 0.73937(10) 0.0228(4) Uani 1 1 d . . . . .
H9 H -0.0939 0.1867 0.6816 0.027 Uiso 1 1 calc R U . . .
O1 O 0.4439(3) 0.90936(17) 0.60304(7) 0.0272(3) Uani 1 1 d . . . . .
O2 O 0.2830(3) 0.76522(19) 0.48946(7) 0.0303(4) Uani 1 1 d . . . . .
H2A H 0.3670 0.8737 0.4652 0.046 Uiso 1 1 calc R U . . .
loop_
_atom_site_aniso_label
_atom_site_aniso_U_11
_atom_site_aniso_U_22
_atom_site_aniso_U_33
_atom_site_aniso_U_23
_atom_site_aniso_U_13
_atom_site_aniso_U_12
C1 0.0228(7) 0.0216(8) 0.0192(7) -0.0059(5) -0.0041(5) 0.0017(5)
C2 0.0252(7) 0.0206(8) 0.0215(7) -0.0054(6) -0.0039(5) -0.0023(6)
C3 0.0213(7) 0.0185(7) 0.0222(7) -0.0052(5) -0.0050(5) 0.0004(5)
C4 0.0194(7) 0.0202(8) 0.0205(7) -0.0042(5) -0.0048(5) 0.0026(5)
C5 0.0339(8) 0.0234(8) 0.0214(8) -0.0073(6) -0.0050(6) -0.0015(6)
F1 0.0643(11) 0.0249(9) 0.0210(7) -0.0111(6) -0.0094(6) -0.0062(7)
C6 0.0433(10) 0.0325(10) 0.0208(7) -0.0045(7) -0.0006(6) -0.0002(7)
F2A 0.082(4) 0.047(3) 0.0131(19) -0.0015(15) -0.0031(17) -0.021(2)
C7 0.0321(9) 0.0261(9) 0.0297(9) 0.0024(6) 0.0000(6) 0.0000(6)
C8 0.0256(8) 0.0209(8) 0.0338(9) -0.0046(6) -0.0058(6) -0.0006(6)
F2B 0.082(4) 0.047(3) 0.0131(19) -0.0015(15) -0.0031(17) -0.021(2)
C9 0.0235(7) 0.0230(8) 0.0229(7) -0.0067(6) -0.0045(5) 0.0014(6)
O1 0.0372(7) 0.0247(7) 0.0218(6) -0.0055(4) -0.0072(4) -0.0069(5)
O2 0.0469(8) 0.0289(7) 0.0169(6) -0.0033(4) -0.0054(5) -0.0110(5)
loop_
_atom_type_symbol
_atom_type_description
_atom_type_scat_dispersion_real
_atom_type_scat_dispersion_imag
_atom_type_scat_source
C C 0.0033 0.0016 'International Tables Vol C Tables 4.2.6.8 and 6.1.1.4'
H H 0.0000 0.0000 'International Tables Vol C Tables 4.2.6.8 and 6.1.1.4'
O O 0.0106 0.0060 'International Tables Vol C Tables 4.2.6.8 and 6.1.1.4'
F F 0.0171 0.0103 'International Tables Vol C Tables 4.2.6.8 and 6.1.1.4'
loop_
_geom_angle_atom_site_label_1
_geom_angle_atom_site_label_2
_geom_angle_atom_site_label_3
_geom_angle
O1 C1 O2 122.48(14)
O1 C1 C2 121.88(15)
O2 C1 C2 115.63(13)
C3 C2 C1 121.17(13)
C3 C2 H2 119.4
C1 C2 H2 119.4
C2 C3 C4 126.37(14)
C2 C3 H3 116.8
C4 C3 H3 116.8
C5 C4 C9 116.56(14)
C5 C4 C3 120.07(14)
C9 C4 C3 123.36(14)
F1 C5 C6 118.02(15)
F1 C5 C4 119.13(15)
C6 C5 C4 122.82(15)
C6 C5 H5 118.6
C4 C5 H5 118.6
F2A C6 C5 121.0(2)
F2A C6 C7 118.8(2)
C5 C6 C7 119.70(16)
C5 C6 H6 120.1
C7 C6 H6 120.1
C6 C7 C8 118.97(15)
C6 C7 H7 120.5
C8 C7 H7 120.5
F2B C8 C9 133.7(15)
F2B C8 C7 105.5(15)
C9 C8 C7 120.75(15)
C9 C8 H8 119.6
C7 C8 H8 119.6
C8 C9 C4 121.18(15)
C8 C9 H9 119.4
C4 C9 H9 119.4
C1 O2 H2A 109.5
loop_
_geom_bond_atom_site_label_1
_geom_bond_atom_site_label_2
_geom_bond_distance
C1 O1 1.2544(19)
C1 O2 1.296(2)
C1 C2 1.464(2)
C2 C3 1.335(2)
C2 H2 0.9300
C3 C4 1.461(2)
C3 H3 0.9300
C4 C5 1.394(2)
C4 C9 1.405(2)
C5 F1 1.356(2)
C5 C6 1.375(2)
C5 H5 0.9300
C6 F2A 1.276(4)
C6 C7 1.390(3)
C6 H6 0.9300
C7 C8 1.390(3)
C7 H7 0.9300
C8 F2B 1.256(19)
C8 C9 1.381(2)
C8 H8 0.9300
C9 H9 0.9300
O2 H2A 0.8200
loop_
_geom_hbond_atom_site_label_D
_geom_hbond_atom_site_label_H
_geom_hbond_atom_site_label_A
_geom_hbond_distance_DH
_geom_hbond_distance_HA
_geom_hbond_distance_DA
_geom_hbond_angle_DHA
_geom_hbond_site_symmetry_A
C2 H2 O2 0.93 2.60 3.518(3) 167.7 2_566
C7 H7 F2A 0.93 2.57 3.461(5) 159.9 2_457
loop_
_geom_torsion_atom_site_label_1
_geom_torsion_atom_site_label_2
_geom_torsion_atom_site_label_3
_geom_torsion_atom_site_label_4
_geom_torsion
O1 C1 C2 C3 2.1(2)
O2 C1 C2 C3 -176.86(14)
C1 C2 C3 C4 178.77(13)
C2 C3 C4 C5 -172.91(15)
C2 C3 C4 C9 8.0(3)
C9 C4 C5 F1 177.21(14)
C3 C4 C5 F1 -2.0(2)
C9 C4 C5 C6 -0.8(3)
C3 C4 C5 C6 -179.95(15)
F1 C5 C6 F2A 11.0(4)
C4 C5 C6 F2A -171.0(3)
F1 C5 C6 C7 -177.27(15)
C4 C5 C6 C7 0.7(3)
F2A C6 C7 C8 171.4(3)
C5 C6 C7 C8 -0.5(3)
C6 C7 C8 F2B -180(3)
C6 C7 C8 C9 0.3(3)
F2B C8 C9 C4 180(3)
C7 C8 C9 C4 -0.4(2)
C5 C4 C9 C8 0.6(2)
C3 C4 C9 C8 179.74(13)
