#------------------------------------------------------------------------------
#$Date: 2019-11-17 09:14:47 +0200 (Sun, 17 Nov 2019) $
#$Revision: 229045 $
#$URL: file:///home/coder/svn-repositories/cod/cif/7/23/05/7230517.cif $
#------------------------------------------------------------------------------
#
# This file is available in the Crystallography Open Database (COD),
# http://www.crystallography.net/
#
# All data on this site have been placed in the public domain by the
# contributors.
#
data_7230517
loop_
_publ_author_name
'Chakraborty, Shaunak'
'Desiraju, Gautam R.'
_publ_section_title
;
 Exploring the structural landscape with &#x2018;partial&#x2019;
 fluoro-substitution as a probe
;
_journal_issue                   20
_journal_name_full               CrystEngComm
_journal_page_first              2793
_journal_paper_doi               10.1039/C8CE00336J
_journal_volume                  20
_journal_year                    2018
_chemical_formula_moiety         'C9 H6.39 F1.62 O2'
_chemical_formula_sum            'C9 H6.39 F1.62 O2'
_chemical_formula_weight         177.21
_space_group_crystal_system      monoclinic
_space_group_IT_number           14
_space_group_name_Hall           '-P 2yn'
_space_group_name_H-M_alt        'P 1 21/n 1'
_symmetry_space_group_name_Hall  '-P 2yn'
_symmetry_space_group_name_H-M   'P 1 21/n 1'
_atom_sites_solution_hydrogens   geom
_audit_creation_method           SHELXL-2014/7
_audit_update_record
;
2018-04-14 deposited with the CCDC.
2018-04-18 downloaded from the CCDC.
;
_cell_angle_alpha                90
_cell_angle_beta                 92.317(2)
_cell_angle_gamma                90
_cell_formula_units_Z            4
_cell_length_a                   3.7371(2)
_cell_length_b                   6.3196(3)
_cell_length_c                   32.5261(14)
_cell_measurement_reflns_used    752
_cell_measurement_temperature    100(2)
_cell_measurement_theta_max      27.5
_cell_measurement_theta_min      3.1
_cell_volume                     767.54(6)
_computing_structure_refinement  'SHELXL-2014/7 (Sheldrick, 2014)'
_diffrn_ambient_temperature      100(2)
_diffrn_measured_fraction_theta_full 0.996
_diffrn_measured_fraction_theta_max 0.997
_diffrn_measurement_device_type  CCD
_diffrn_radiation_type           MoK\a
_diffrn_radiation_wavelength     0.71073
_diffrn_reflns_av_R_equivalents  0.0507
_diffrn_reflns_av_unetI/netI     0.0252
_diffrn_reflns_Laue_measured_fraction_full 0.996
_diffrn_reflns_Laue_measured_fraction_max 0.997
_diffrn_reflns_limit_h_max       4
_diffrn_reflns_limit_h_min       -4
_diffrn_reflns_limit_k_max       8
_diffrn_reflns_limit_k_min       -8
_diffrn_reflns_limit_l_max       42
_diffrn_reflns_limit_l_min       -42
_diffrn_reflns_number            18678
_diffrn_reflns_point_group_measured_fraction_full 0.996
_diffrn_reflns_point_group_measured_fraction_max 0.997
_diffrn_reflns_theta_full        25.242
_diffrn_reflns_theta_max         27.495
_diffrn_reflns_theta_min         3.284
_exptl_absorpt_coefficient_mu    0.133
_exptl_crystal_colour            colourless
_exptl_crystal_density_diffrn    1.534
_exptl_crystal_description       plate
_exptl_crystal_F_000             363.7
_exptl_crystal_size_max          0.6
_exptl_crystal_size_mid          0.5
_exptl_crystal_size_min          0.2
_refine_diff_density_max         0.342
_refine_diff_density_min         -0.256
_refine_diff_density_rms         0.070
_refine_ls_extinction_method     none
_refine_ls_goodness_of_fit_ref   1.092
_refine_ls_hydrogen_treatment    constr
_refine_ls_matrix_type           full
_refine_ls_number_parameters     120
_refine_ls_number_reflns         1753
_refine_ls_number_restraints     0
_refine_ls_restrained_S_all      1.092
_refine_ls_R_factor_all          0.0831
_refine_ls_R_factor_gt           0.0681
_refine_ls_shift/su_max          0.000
_refine_ls_shift/su_mean         0.000
_refine_ls_structure_factor_coef Fsqd
_refine_ls_weighting_details
'w=1/[\s^2^(Fo^2^)+(0.0537P)^2^+1.7339P] where P=(Fo^2^+2Fc^2^)/3'
_refine_ls_weighting_scheme      calc
_refine_ls_wR_factor_gt          0.1698
_refine_ls_wR_factor_ref         0.1765
_reflns_Friedel_coverage         0.000
_reflns_number_gt                1436
_reflns_number_total             1753
_reflns_threshold_expression     'I > 2\s(I)'
_cod_data_source_file            c8ce00336j2.cif
_cod_data_source_block           14
_cod_depositor_comments
'Adding full bibliography for 7230514--7230540.cif.'
_cod_database_code               7230517
_shelx_shelxl_version_number     2014/7
_shelx_space_group_comment
;
The symmetry employed for this shelxl refinement is uniquely defined
by the following loop, which should always be used as a source of
symmetry information in preference to the above space-group names.
They are only intended as comments.
;
_shelx_res_file
;

    shelx.res created by SHELXL-2014/7

TITL datam in P2(1)/n
CELL  0.71073   3.7371   6.3196  32.5261   90.000   92.317   90.000
ZERR    17.00   0.0002   0.0003   0.0014    0.000    0.002    0.000
LATT   1
SYMM  1/2 - X, 1/2 + Y, 1/2 - Z
SFAC  C    H    O    F
UNIT  17 17 17 17
MERG   2
OMIT    -2.00  55.00
EQIV $1 -x+1, -y+1, -z
HTAB C2 O2_$1
EQIV $2 -x, -y+2, -z
HTAB O2 O1_$2
OMIT     2   2   5
OMIT     2   1   1
OMIT     4   3   3
FMAP   2
PLAN   20
ACTA
HTAB    2.00000
BOND
BOND   $H
CONF
L.S.  50
TEMP  -173.00
WGHT    0.053700    1.733900
FVAR       0.23791   0.38467
MOLE    1
C1    1    0.162890    0.773824    0.034831    11.00000    0.02187    0.02657 =
         0.03057   -0.00633    0.00138    0.00038
C2    1    0.286364    0.597086    0.060838    11.00000    0.02456    0.02316 =
         0.03439   -0.00593    0.00080    0.00437
AFIX  43
H2    2    0.400102    0.479473    0.048702    11.00000   -1.20000
AFIX   0
C3    1    0.241888    0.598765    0.100976    11.00000    0.01718    0.02253 =
         0.03814   -0.00532    0.00152    0.00153
AFIX  43
H3    2    0.122674    0.718225    0.111694    11.00000   -1.20000
AFIX   0
C4    1    0.357087    0.435941    0.130548    11.00000    0.01470    0.01949 =
         0.03849   -0.00030    0.00030   -0.00243
C5    1    0.318842    0.468507    0.172168    11.00000    0.01812    0.02149 =
         0.04345   -0.00404    0.00172   -0.00340
C6    1    0.419304    0.320140    0.201359    11.00000    0.02974    0.03374 =
         0.03964    0.00479   -0.00093   -0.01037
PART    1
AFIX  43
H6    2    0.389213    0.348741    0.229685    21.00000   -1.20000
AFIX   0
PART    2
F2    4    0.376300    0.362484    0.239118   -21.00000    0.06930    0.03998 =
         0.02741    0.00316    0.00183   -0.00341
PART    0
C7    1    0.563474    0.130176    0.189525    11.00000    0.02216    0.02891 =
         0.06124    0.01429   -0.00362   -0.00297
AFIX  43
H7    2    0.632852    0.026634    0.209467    11.00000   -1.20000
AFIX   0
C8    1    0.605368    0.092872    0.148248    11.00000    0.02307    0.02199 =
         0.06142    0.00174    0.00216    0.00051
AFIX  43
H8    2    0.705834   -0.037413    0.139812    11.00000   -1.20000
AFIX   0
C9    1    0.504581    0.240504    0.119165    11.00000    0.01900    0.02416 =
         0.04812   -0.00360    0.00349    0.00030
AFIX  43
H9    2    0.534687    0.210526    0.090894    11.00000   -1.20000
AFIX   0
O1    3   -0.000628    0.927657    0.049253    11.00000    0.03590    0.02830 =
         0.03396   -0.00391    0.00462    0.01220
O2    3    0.232528    0.758315   -0.003723    11.00000    0.04072    0.03311 =
         0.03230   -0.00315    0.00290    0.01273
AFIX 147
H2A   2    0.148969    0.864009   -0.016489    11.00000   -1.50000
AFIX   0
F1    4    0.172514    0.651334    0.184903    11.00000    0.05232    0.02573 =
         0.03741   -0.00615    0.00624    0.00371
HKLF    4

REM  datam in P2(1)/n
REM R1 =  0.0681 for    1436 Fo > 4sig(Fo)  and  0.0831 for all    1753 data
REM    120 parameters refined using      0 restraints

END

WGHT      0.0539      1.5565

REM Instructions for potential hydrogen bonds
HTAB C2 O2_$1
HTAB O2 O1_$2

REM Highest difference peak  0.342,  deepest hole -0.256,  1-sigma level  0.070
Q1    1  -0.0484  1.0194  0.0308  11.00000  0.05    0.32
Q2    1   0.2969  0.4931  0.1153  11.00000  0.05    0.29
Q3    1   0.2637  0.4190  0.1497  11.00000  0.05    0.29
Q4    1   0.0843  0.9608  0.0767  11.00000  0.05    0.26
Q5    1   0.2258  0.3651  0.1830  11.00000  0.05    0.25
Q6    1   0.5103  0.3915  0.1294  11.00000  0.05    0.24
Q7    1   0.2952  0.3340  0.1262  11.00000  0.05    0.23
Q8    1   0.3192  0.4634  0.2078  11.00000  0.05    0.23
Q9    1   0.4776  0.1583  0.1326  11.00000  0.05    0.22
Q10   1   0.1811  0.6535  0.0458  11.00000  0.05    0.22
Q11   1  -0.2571  0.9141  0.0861  11.00000  0.05    0.21
Q12   1   0.3804  0.3997  0.1847  11.00000  0.05    0.21
Q13   1   0.4048  0.4510  0.0000  11.00000  0.05    0.20
Q14   1   0.2567  0.7051  0.0501  11.00000  0.05    0.19
Q15   1   0.1197  0.7854 -0.0312  11.00000  0.05    0.19
Q16   1  -0.0447  0.9287  0.0200  11.00000  0.05    0.19
Q17   1   0.6742  0.4415  0.2384  11.00000  0.05    0.19
Q18   1   0.5991  0.6786  0.0066  11.00000  0.05    0.19
Q19   1   0.7357 -0.0754  0.1509  11.00000  0.05    0.18
Q20   1   0.5212  0.5520  0.0518  11.00000  0.05    0.18
;
_shelx_res_checksum              76814
loop_
_space_group_symop_operation_xyz
'x, y, z'
'-x+1/2, y+1/2, -z+1/2'
'-x, -y, -z'
'x-1/2, -y-1/2, z-1/2'
loop_
_atom_site_label
_atom_site_type_symbol
_atom_site_fract_x
_atom_site_fract_y
_atom_site_fract_z
_atom_site_U_iso_or_equiv
_atom_site_adp_type
_atom_site_occupancy
_atom_site_site_symmetry_order
_atom_site_calc_flag
_atom_site_refinement_flags_posn
_atom_site_refinement_flags_adp
_atom_site_refinement_flags_occupancy
_atom_site_disorder_assembly
_atom_site_disorder_group
C1 C 0.1629(7) 0.7738(5) 0.03483(9) 0.0263(6) Uani 1 1 d . . . . .
C2 C 0.2864(8) 0.5971(5) 0.06084(9) 0.0274(6) Uani 1 1 d . . . . .
H2 H 0.4001 0.4795 0.0487 0.033 Uiso 1 1 calc R U . . .
C3 C 0.2419(7) 0.5988(5) 0.10098(9) 0.0259(6) Uani 1 1 d . . . . .
H3 H 0.1227 0.7182 0.1117 0.031 Uiso 1 1 calc R U . . .
C4 C 0.3571(7) 0.4359(4) 0.13055(9) 0.0242(6) Uani 1 1 d . . . . .
C5 C 0.3188(7) 0.4685(4) 0.17217(9) 0.0277(6) Uani 1 1 d . . . . .
C6 C 0.4193(8) 0.3201(5) 0.20136(10) 0.0344(7) Uani 1 1 d . . . . .
H6 H 0.3892 0.3487 0.2297 0.041 Uiso 0.385(9) 1 calc R U P A 1
F2 F 0.3763(10) 0.3625(5) 0.23912(9) 0.0456(13) Uani 0.615(9) 1 d . . P A 2
C7 C 0.5635(8) 0.1302(5) 0.18953(11) 0.0376(8) Uani 1 1 d . . . . .
H7 H 0.6329 0.0266 0.2095 0.045 Uiso 1 1 calc R U . . .
C8 C 0.6054(8) 0.0929(5) 0.14825(11) 0.0355(7) Uani 1 1 d . . . . .
H8 H 0.7058 -0.0374 0.1398 0.043 Uiso 1 1 calc R U . . .
C9 C 0.5046(7) 0.2405(5) 0.11916(10) 0.0304(7) Uani 1 1 d . . . . .
H9 H 0.5347 0.2105 0.0909 0.036 Uiso 1 1 calc R U . . .
O1 O -0.0006(6) 0.9277(3) 0.04925(6) 0.0326(5) Uani 1 1 d . . . . .
O2 O 0.2325(6) 0.7583(4) -0.00372(6) 0.0353(6) Uani 1 1 d . . . . .
H2A H 0.1490 0.8640 -0.0165 0.053 Uiso 1 1 calc R U . . .
F1 F 0.1725(5) 0.6513(3) 0.18490(5) 0.0384(5) Uani 1 1 d . . . . .
loop_
_atom_site_aniso_label
_atom_site_aniso_U_11
_atom_site_aniso_U_22
_atom_site_aniso_U_33
_atom_site_aniso_U_23
_atom_site_aniso_U_13
_atom_site_aniso_U_12
C1 0.0219(14) 0.0266(14) 0.0306(15) -0.0063(12) 0.0014(11) 0.0004(11)
C2 0.0246(14) 0.0232(14) 0.0344(15) -0.0059(12) 0.0008(11) 0.0044(11)
C3 0.0172(13) 0.0225(13) 0.0381(16) -0.0053(12) 0.0015(11) 0.0015(11)
C4 0.0147(12) 0.0195(13) 0.0385(16) -0.0003(11) 0.0003(11) -0.0024(10)
C5 0.0181(13) 0.0215(13) 0.0435(17) -0.0040(12) 0.0017(11) -0.0034(11)
C6 0.0297(16) 0.0337(17) 0.0396(18) 0.0048(14) -0.0009(13) -0.0104(13)
F2 0.069(3) 0.040(2) 0.0274(19) 0.0032(13) 0.0018(14) -0.0034(16)
C7 0.0222(15) 0.0289(16) 0.061(2) 0.0143(15) -0.0036(14) -0.0030(12)
C8 0.0231(15) 0.0220(14) 0.061(2) 0.0017(14) 0.0022(13) 0.0005(12)
C9 0.0190(13) 0.0242(14) 0.0481(18) -0.0036(13) 0.0035(12) 0.0003(11)
O1 0.0359(12) 0.0283(11) 0.0340(11) -0.0039(9) 0.0046(9) 0.0122(9)
O2 0.0407(13) 0.0331(12) 0.0323(12) -0.0032(9) 0.0029(9) 0.0127(10)
F1 0.0523(12) 0.0257(9) 0.0374(10) -0.0061(8) 0.0062(8) 0.0037(8)
loop_
_atom_type_symbol
_atom_type_description
_atom_type_scat_dispersion_real
_atom_type_scat_dispersion_imag
_atom_type_scat_source
C C 0.0033 0.0016 'International Tables Vol C Tables 4.2.6.8 and 6.1.1.4'
H H 0.0000 0.0000 'International Tables Vol C Tables 4.2.6.8 and 6.1.1.4'
O O 0.0106 0.0060 'International Tables Vol C Tables 4.2.6.8 and 6.1.1.4'
F F 0.0171 0.0103 'International Tables Vol C Tables 4.2.6.8 and 6.1.1.4'
loop_
_geom_angle_atom_site_label_1
_geom_angle_atom_site_label_2
_geom_angle_atom_site_label_3
_geom_angle
O1 C1 O2 122.9(3)
O1 C1 C2 121.6(3)
O2 C1 C2 115.5(2)
C3 C2 C1 121.0(3)
C3 C2 H2 119.5
C1 C2 H2 119.5
C2 C3 C4 126.8(3)
C2 C3 H3 116.6
C4 C3 H3 116.6
C5 C4 C9 116.4(3)
C5 C4 C3 120.0(2)
C9 C4 C3 123.5(3)
F1 C5 C6 118.3(3)
F1 C5 C4 119.1(3)
C6 C5 C4 122.6(3)
F2 C6 C7 121.3(3)
F2 C6 C5 118.7(3)
C7 C6 C5 120.0(3)
C7 C6 H6 120.0
C5 C6 H6 120.0
C8 C7 C6 118.9(3)
C8 C7 H7 120.6
C6 C7 H7 120.6
C9 C8 C7 121.1(3)
C9 C8 H8 119.4
C7 C8 H8 119.4
C8 C9 C4 121.0(3)
C8 C9 H9 119.5
C4 C9 H9 119.5
C1 O2 H2A 109.5
loop_
_geom_bond_atom_site_label_1
_geom_bond_atom_site_label_2
_geom_bond_distance
C1 O1 1.250(3)
C1 O2 1.295(3)
C1 C2 1.464(4)
C2 C3 1.323(4)
C2 H2 0.9500
C3 C4 1.461(4)
C3 H3 0.9500
C4 C5 1.382(4)
C4 C9 1.408(4)
C5 F1 1.351(3)
C5 C6 1.376(4)
C6 F2 1.273(4)
C6 C7 1.377(5)
C6 H6 0.9500
C7 C8 1.378(5)
C7 H7 0.9500
C8 C9 1.371(4)
C8 H8 0.9500
C9 H9 0.9500
O2 H2A 0.8400
loop_
_geom_hbond_atom_site_label_D
_geom_hbond_atom_site_label_H
_geom_hbond_atom_site_label_A
_geom_hbond_distance_DH
_geom_hbond_distance_HA
_geom_hbond_distance_DA
_geom_hbond_angle_DHA
_geom_hbond_site_symmetry_A
C2 H2 O2 0.95 2.54 3.464(3) 164.6 3_665
O2 H2A O1 0.84 1.77 2.604(3) 172.3 3_575
loop_
_geom_torsion_atom_site_label_1
_geom_torsion_atom_site_label_2
_geom_torsion_atom_site_label_3
_geom_torsion_atom_site_label_4
_geom_torsion
O1 C1 C2 C3 -2.9(4)
O2 C1 C2 C3 177.6(3)
C1 C2 C3 C4 -178.8(3)
C2 C3 C4 C5 174.4(3)
C2 C3 C4 C9 -6.5(4)
C9 C4 C5 F1 -178.7(2)
C3 C4 C5 F1 0.4(4)
C9 C4 C5 C6 0.3(4)
C3 C4 C5 C6 179.4(3)
F1 C5 C6 F2 -1.2(4)
C4 C5 C6 F2 179.8(3)
F1 C5 C6 C7 178.8(3)
C4 C5 C6 C7 -0.2(4)
F2 C6 C7 C8 -179.8(3)
C5 C6 C7 C8 0.2(4)
C6 C7 C8 C9 -0.3(5)
C7 C8 C9 C4 0.4(4)
C5 C4 C9 C8 -0.4(4)
C3 C4 C9 C8 -179.5(3)
