#------------------------------------------------------------------------------
#$Date: 2019-11-17 09:04:08 +0200 (Sun, 17 Nov 2019) $
#$Revision: 229000 $
#$URL: file:///home/coder/svn-repositories/cod/cif/7/23/03/7230398.cif $
#------------------------------------------------------------------------------
#
# This file is available in the Crystallography Open Database (COD),
# http://www.crystallography.net/
#
# All data on this site have been placed in the public domain by the
# contributors.
#
data_7230398
loop_
_publ_author_name
'Singh, Ashutosh S.'
'Ali, Amjad'
'Tiwari, Ranjay K.'
'Behera, Jogendra N.'
'Sun, Shih-Sheng'
'Chandrasekhar, Vadapalli'
_publ_section_title
;
 Thermally induced 1D to 2D polymer conversion accompanied by major
 packing changes in single-crystal-to-single-crystal transformation
;
_journal_issue                   17
_journal_name_full               CrystEngComm
_journal_page_first              2346
_journal_paper_doi               10.1039/C8CE00089A
_journal_volume                  20
_journal_year                    2018
_chemical_formula_moiety         'C12 H14 N2 O8 S2'
_chemical_formula_sum            'C12 H14 N2 O8 S2'
_chemical_formula_weight         378.37
_space_group_IT_number           2
_space_group_name_Hall           '-P 1'
_space_group_name_H-M_alt        'P -1'
_symmetry_cell_setting           triclinic
_symmetry_space_group_name_Hall  '-P 1'
_symmetry_space_group_name_H-M   'P -1'
_atom_sites_solution_hydrogens   geom
_atom_sites_solution_primary     direct
_atom_sites_solution_secondary   difmap
_audit_update_record
;
2016-09-19 deposited with the CCDC.
2018-04-03 downloaded from the CCDC.
;
_cell_angle_alpha                94.987(2)
_cell_angle_beta                 109.996(2)
_cell_angle_gamma                90.045(2)
_cell_formula_units_Z            2
_cell_length_a                   8.6740(4)
_cell_length_b                   9.2402(4)
_cell_length_c                   9.7072(4)
_cell_measurement_reflns_used    5096
_cell_measurement_temperature    100.00(10)
_cell_measurement_theta_max      29.62
_cell_measurement_theta_min      2.5
_cell_volume                     727.97(6)
_computing_cell_refinement       'Bruker APEX2'
_computing_data_collection       'Bruker APEX2'
_computing_data_reduction        'Bruker SAINT'
_computing_molecular_graphics    'Ortep-3 for Windows (Farrugia, 1997)'
_computing_publication_material  'WinGX publication routines (Farrugia, 1999)'
_computing_structure_refinement  'SHELXL-97 (Sheldrick, 1997)'
_computing_structure_solution    'SHELXS-97 (Sheldrick, 1997)'
_diffrn_ambient_temperature      100.00(10)
_diffrn_measured_fraction_theta_full 0.974
_diffrn_measured_fraction_theta_max 0.966
_diffrn_measurement_device_type  'CCD area detector'
_diffrn_measurement_method       'phi and omega scans'
_diffrn_radiation_monochromator  graphite
_diffrn_radiation_type           MoK\a
_diffrn_radiation_wavelength     0.71073
_diffrn_reflns_av_R_equivalents  0.0205
_diffrn_reflns_av_unetI/netI     0.022
_diffrn_reflns_limit_h_max       10
_diffrn_reflns_limit_h_min       -10
_diffrn_reflns_limit_k_max       11
_diffrn_reflns_limit_k_min       -10
_diffrn_reflns_limit_l_max       12
_diffrn_reflns_limit_l_min       -11
_diffrn_reflns_number            10417
_diffrn_reflns_theta_full        25
_diffrn_reflns_theta_max         26.37
_diffrn_reflns_theta_min         2.21
_exptl_absorpt_coefficient_mu    0.415
_exptl_absorpt_correction_T_max  0.959
_exptl_absorpt_correction_T_min  0.9362
_exptl_absorpt_correction_type   multi-scan
_exptl_absorpt_process_details   'Bruker SADABS, 1996'
_exptl_crystal_colour            colourless
_exptl_crystal_density_diffrn    1.726
_exptl_crystal_density_method    'not measured'
_exptl_crystal_description       rod
_exptl_crystal_F_000             392
_exptl_crystal_size_max          0.19
_exptl_crystal_size_mid          0.16
_exptl_crystal_size_min          0.12
_refine_diff_density_max         0.584
_refine_diff_density_min         -0.391
_refine_diff_density_rms         0.066
_refine_ls_extinction_method     none
_refine_ls_goodness_of_fit_ref   1.042
_refine_ls_hydrogen_treatment    mixed
_refine_ls_matrix_type           full
_refine_ls_number_parameters     225
_refine_ls_number_reflns         2875
_refine_ls_number_restraints     0
_refine_ls_restrained_S_all      1.042
_refine_ls_R_factor_all          0.043
_refine_ls_R_factor_gt           0.0353
_refine_ls_shift/su_max          0
_refine_ls_shift/su_mean         0
_refine_ls_structure_factor_coef Fsqd
_refine_ls_weighting_details
'calc w=1/[\s^2^(Fo^2^)+(0.0513P)^2^+0.5551P] where P=(Fo^2^+2Fc^2^)/3'
_refine_ls_weighting_scheme      calc
_refine_ls_wR_factor_gt          0.0925
_refine_ls_wR_factor_ref         0.0986
_reflns_number_gt                2449
_reflns_number_total             2875
_reflns_threshold_expression     >2sigma(I)
_cod_data_source_file            c8ce00089a2.cif
_cod_data_source_block           crystal_1p
_cod_depositor_comments
;
The following automatic conversions were performed:

'_symmetry_cell_setting' value 'Triclinic' changed to 'triclinic'
according to
/home/data/users/saulius/crontab/automatic-downloads/rss-feeds/RSC/lib/dictionaries/cif_core.dic
dictionary named 'cif_core.dic' version 2.4.2 from 2011-04-26.

Automatic conversion script
Id: cif_fix_values 4973 2017-02-22 13:04:09Z antanas 

 Adding full bibliography for 7230398--7230403.cif.
;
_cod_original_sg_symbol_H-M      P-1
_cod_database_code               7230398
loop_
_symmetry_equiv_pos_as_xyz
'x, y, z'
'-x, -y, -z'
loop_
_atom_site_label
_atom_site_type_symbol
_atom_site_fract_x
_atom_site_fract_y
_atom_site_fract_z
_atom_site_U_iso_or_equiv
_atom_site_adp_type
_atom_site_occupancy
_atom_site_symmetry_multiplicity
_atom_site_calc_flag
_atom_site_refinement_flags
S1 S 0.23558(6) 0.20175(5) 0.83023(5) 0.01821(15) Uani 1 1 d .
S2 S 0.20240(6) 0.70723(5) 0.78436(5) 0.01841(15) Uani 1 1 d .
O1 O 0.11634(17) 0.23952(16) 0.90194(16) 0.0232(3) Uani 1 1 d .
O2 O 0.37729(18) 0.32085(17) 0.88769(17) 0.0245(3) Uani 1 1 d .
O3 O 0.32124(19) 0.07194(16) 0.88369(18) 0.0290(4) Uani 1 1 d .
O4 O 0.16829(19) 0.20172(18) 0.67335(16) 0.0310(4) Uani 1 1 d .
O5 O 0.11354(18) 0.74210(16) 0.88520(16) 0.0254(3) Uani 1 1 d .
O6 O 0.11576(17) 0.74878(16) 0.63862(16) 0.0240(3) Uani 1 1 d .
O7 O 0.36928(17) 0.79594(18) 0.84559(17) 0.0245(3) Uani 1 1 d .
O8 O 0.25290(19) 0.55838(16) 0.78255(19) 0.0320(4) Uani 1 1 d .
N1 N 0.8680(2) -0.06536(18) 0.75880(18) 0.0200(4) Uani 1 1 d .
H1A H 0.9425 -0.1278 0.8 0.024 Uiso 1 1 calc R
N2 N 0.1246(2) 0.57863(18) 0.23085(19) 0.0200(4) Uani 1 1 d .
H2A H 0.0523 0.6418 0.1873 0.024 Uiso 1 1 calc R
C1 C 0.7714(3) -0.0109(2) 0.8316(2) 0.0233(4) Uani 1 1 d .
H1 H 0.7852 -0.0392 0.9268 0.028 Uiso 1 1 calc R
C2 C 0.6534(3) 0.0849(2) 0.7702(2) 0.0223(4) Uani 1 1 d .
H2 H 0.5851 0.1227 0.8222 0.027 Uiso 1 1 calc R
C3 C 0.6332(2) 0.1275(2) 0.6297(2) 0.0191(4) Uani 1 1 d .
C4 C 0.7378(2) 0.0686(2) 0.5581(2) 0.0207(4) Uani 1 1 d .
H4 H 0.7278 0.0954 0.4632 0.025 Uiso 1 1 calc R
C5 C 0.8540(2) -0.0272(2) 0.6243(2) 0.0203(4) Uani 1 1 d .
H5 H 0.9247 -0.0667 0.5756 0.024 Uiso 1 1 calc R
C6 C 0.5044(2) 0.2294(2) 0.5648(2) 0.0204(4) Uani 1 1 d .
H6 H 0.4358 0.2609 0.619 0.025 Uiso 1 1 calc R
C7 C 0.4775(2) 0.2805(2) 0.4344(2) 0.0207(4) Uani 1 1 d .
H7 H 0.5463 0.2478 0.3809 0.025 Uiso 1 1 calc R
C8 C 0.3510(2) 0.3829(2) 0.3669(2) 0.0187(4) Uani 1 1 d .
C9 C 0.3381(2) 0.4236(2) 0.2275(2) 0.0204(4) Uani 1 1 d .
H9 H 0.4087 0.3836 0.1788 0.024 Uiso 1 1 calc R
C10 C 0.2236(2) 0.5213(2) 0.1621(2) 0.0216(4) Uani 1 1 d .
H10 H 0.2143 0.5485 0.0675 0.026 Uiso 1 1 calc R
C11 C 0.1324(2) 0.5427(2) 0.3641(2) 0.0203(4) Uani 1 1 d .
H11 H 0.0604 0.5854 0.4099 0.024 Uiso 1 1 calc R
C12 C 0.2438(2) 0.4447(2) 0.4341(2) 0.0204(4) Uani 1 1 d .
H12 H 0.2485 0.4187 0.5279 0.025 Uiso 1 1 calc R
H2B H 0.341(4) 0.396(4) 0.857(3) 0.056(10) Uiso 1 1 d .
H7A H 0.353(3) 0.880(3) 0.855(3) 0.036(8) Uiso 1 1 d .
loop_
_atom_site_aniso_label
_atom_site_aniso_U_11
_atom_site_aniso_U_22
_atom_site_aniso_U_33
_atom_site_aniso_U_23
_atom_site_aniso_U_13
_atom_site_aniso_U_12
S1 0.0190(3) 0.0169(3) 0.0219(3) 0.00299(18) 0.0108(2) 0.00047(19)
S2 0.0185(3) 0.0158(3) 0.0232(3) 0.00404(18) 0.0095(2) 0.00108(18)
O1 0.0239(8) 0.0265(8) 0.0252(8) 0.0075(6) 0.0146(6) 0.0069(6)
O2 0.0200(8) 0.0204(8) 0.0308(8) 0.0077(6) 0.0044(6) -0.0019(6)
O3 0.0290(8) 0.0181(8) 0.0469(10) 0.0078(7) 0.0207(8) 0.0054(6)
O4 0.0315(9) 0.0404(10) 0.0224(8) -0.0001(7) 0.0117(7) -0.0078(7)
O5 0.0268(8) 0.0313(9) 0.0240(8) 0.0105(6) 0.0144(7) 0.0065(6)
O6 0.0234(8) 0.0282(8) 0.0219(8) 0.0039(6) 0.0092(6) 0.0008(6)
O7 0.0164(7) 0.0195(9) 0.0352(9) -0.0003(6) 0.0066(6) 0.0018(6)
O8 0.0343(9) 0.0176(8) 0.0456(10) 0.0072(7) 0.0145(8) 0.0036(6)
N1 0.0189(9) 0.0174(9) 0.0228(9) 0.0051(7) 0.0053(7) 0.0007(7)
N2 0.0175(8) 0.0170(9) 0.0251(9) 0.0035(7) 0.0063(7) 0.0012(7)
C1 0.0268(11) 0.0239(11) 0.0218(11) 0.0058(8) 0.0107(9) -0.0013(9)
C2 0.0226(10) 0.0244(11) 0.0240(11) 0.0034(8) 0.0130(9) -0.0002(8)
C3 0.0161(9) 0.0167(10) 0.0241(10) 0.0031(8) 0.0060(8) -0.0034(7)
C4 0.0201(10) 0.0238(11) 0.0193(10) 0.0056(8) 0.0073(8) -0.0032(8)
C5 0.0181(10) 0.0209(11) 0.0236(11) 0.0011(8) 0.0096(8) -0.0034(8)
C6 0.0180(10) 0.0203(11) 0.0259(11) 0.0035(8) 0.0110(8) -0.0001(8)
C7 0.0189(10) 0.0202(11) 0.0246(11) 0.0017(8) 0.0098(8) -0.0016(8)
C8 0.0170(9) 0.0168(10) 0.0213(10) 0.0012(7) 0.0054(8) -0.0030(7)
C9 0.0193(10) 0.0221(11) 0.0220(10) 0.0015(8) 0.0100(8) -0.0002(8)
C10 0.0222(10) 0.0213(11) 0.0225(10) 0.0042(8) 0.0088(8) -0.0001(8)
C11 0.0160(9) 0.0215(11) 0.0251(11) -0.0018(8) 0.0100(8) -0.0032(8)
C12 0.0186(10) 0.0226(11) 0.0205(10) 0.0022(8) 0.0073(8) -0.0042(8)
loop_
_atom_type_symbol
_atom_type_description
_atom_type_scat_dispersion_real
_atom_type_scat_dispersion_imag
_atom_type_scat_source
S S 0.1246 0.1234 'International Tables Vol C Tables 4.2.6.8 and 6.1.1.4'
O O 0.0106 0.006 'International Tables Vol C Tables 4.2.6.8 and 6.1.1.4'
N N 0.0061 0.0033 'International Tables Vol C Tables 4.2.6.8 and 6.1.1.4'
C C 0.0033 0.0016 'International Tables Vol C Tables 4.2.6.8 and 6.1.1.4'
H H 0 0 'International Tables Vol C Tables 4.2.6.8 and 6.1.1.4'
loop_
_geom_angle_atom_site_label_1
_geom_angle_atom_site_label_2
_geom_angle_atom_site_label_3
_geom_angle
O4 S1 O3 115.42(10)
O4 S1 O1 112.81(9)
O3 S1 O1 111.15(9)
O4 S1 O2 107.35(9)
O3 S1 O2 101.88(9)
O1 S1 O2 107.24(9)
O6 S2 O8 112.41(9)
O6 S2 O5 112.28(9)
O8 S2 O5 113.34(9)
O6 S2 O7 107.55(9)
O8 S2 O7 103.06(9)
O5 S2 O7 107.49(9)
S1 O2 H2B 108(2)
S2 O7 H7A 110(2)
C1 N1 C5 121.82(17)
C1 N1 H1A 119.1
C5 N1 H1A 119.1
C10 N2 C11 122.02(17)
C10 N2 H2A 119
C11 N2 H2A 119
N1 C1 C2 120.55(18)
N1 C1 H1 119.7
C2 C1 H1 119.7
C1 C2 C3 119.82(19)
C1 C2 H2 120.1
C3 C2 H2 120.1
C4 C3 C2 117.65(18)
C4 C3 C6 123.34(18)
C2 C3 C6 119.01(18)
C5 C4 C3 120.28(18)
C5 C4 H4 119.9
C3 C4 H4 119.9
N1 C5 C4 119.88(18)
N1 C5 H5 120.1
C4 C5 H5 120.1
C7 C6 C3 124.11(19)
C7 C6 H6 117.9
C3 C6 H6 117.9
C6 C7 C8 125.56(19)
C6 C7 H7 117.2
C8 C7 H7 117.2
C12 C8 C9 117.93(18)
C12 C8 C7 124.01(18)
C9 C8 C7 118.04(18)
C10 C9 C8 119.78(18)
C10 C9 H9 120.1
C8 C9 H9 120.1
N2 C10 C9 120.28(18)
N2 C10 H10 119.9
C9 C10 H10 119.9
N2 C11 C12 120.12(18)
N2 C11 H11 119.9
C12 C11 H11 119.9
C11 C12 C8 119.87(18)
C11 C12 H12 120.1
C8 C12 H12 120.1
loop_
_geom_bond_atom_site_label_1
_geom_bond_atom_site_label_2
_geom_bond_distance
S1 O4 1.4324(16)
S1 O3 1.4513(15)
S1 O1 1.4583(14)
S1 O2 1.5670(15)
S2 O6 1.4427(15)
S2 O8 1.4443(16)
S2 O5 1.4553(15)
S2 O7 1.5638(15)
O2 H2B 0.80(3)
O7 H7A 0.79(3)
N1 C1 1.341(3)
N1 C5 1.347(3)
N1 H1A 0.88
N2 C10 1.340(3)
N2 C11 1.343(3)
N2 H2A 0.88
C1 C2 1.365(3)
C1 H1 0.95
C2 C3 1.405(3)
C2 H2 0.95
C3 C4 1.403(3)
C3 C6 1.468(3)
C4 C5 1.367(3)
C4 H4 0.95
C5 H5 0.95
C6 C7 1.335(3)
C6 H6 0.95
C7 C8 1.465(3)
C7 H7 0.95
C8 C12 1.403(3)
C8 C9 1.403(3)
C9 C10 1.369(3)
C9 H9 0.95
C10 H10 0.95
C11 C12 1.369(3)
C11 H11 0.95
C12 H12 0.95
loop_
_geom_torsion_atom_site_label_1
_geom_torsion_atom_site_label_2
_geom_torsion_atom_site_label_3
_geom_torsion_atom_site_label_4
_geom_torsion
C5 N1 C1 C2 0.7(3)
N1 C1 C2 C3 -0.3(3)
C1 C2 C3 C4 -0.2(3)
C1 C2 C3 C6 179.32(19)
C2 C3 C4 C5 0.3(3)
C6 C3 C4 C5 -179.21(19)
C1 N1 C5 C4 -0.6(3)
C3 C4 C5 N1 0.1(3)
C4 C3 C6 C7 -2.6(3)
C2 C3 C6 C7 177.9(2)
C3 C6 C7 C8 -179.59(18)
C6 C7 C8 C12 2.2(3)
C6 C7 C8 C9 -179.0(2)
C12 C8 C9 C10 0.2(3)
C7 C8 C9 C10 -178.69(18)
C11 N2 C10 C9 -0.5(3)
C8 C9 C10 N2 0.4(3)
C10 N2 C11 C12 0.0(3)
N2 C11 C12 C8 0.6(3)
C9 C8 C12 C11 -0.7(3)
C7 C8 C12 C11 178.11(18)
