#------------------------------------------------------------------------------
#$Date: 2018-08-03 04:37:34 +0300 (Fri, 03 Aug 2018) $
#$Revision: 209377 $
#$URL: file:///home/coder/svn-repositories/cod/cif/7/23/12/7231281.cif $
#------------------------------------------------------------------------------
#
# This file is available in the Crystallography Open Database (COD),
# http://www.crystallography.net/
#
# All data on this site have been placed in the public domain by the
# contributors.
#
data_7231281
loop_
_publ_author_name
'Shi, Ting'
'Hou, Xue-Mei'
'Li, Zhi-Yong'
'Cao, Fei'
'Zhang, Ya-Hui'
'Yu, Jia-Yin'
'Zhao, Dong-Lin'
'Shao, Chang-Lun'
'Wang, Chang-Yun'
_publ_section_title
;
 Harzianumnones A and B: two hydroxyanthraquinones from the coral-derived
 fungus Trichoderma harzianum
;
_journal_issue                   49
_journal_name_full               'RSC Advances'
_journal_page_first              27596
_journal_paper_doi               10.1039/C8RA04865G
_journal_volume                  8
_journal_year                    2018
_chemical_absolute_configuration rm
_chemical_formula_sum            'C15 H16 O5'
_chemical_formula_weight         276.28
_space_group_crystal_system      monoclinic
_space_group_IT_number           4
_space_group_name_Hall           'P 2yb'
_space_group_name_H-M_alt        'P 1 21 1'
_symmetry_space_group_name_Hall  'P 2yb'
_symmetry_space_group_name_H-M   'P 1 21 1'
_atom_sites_solution_hydrogens   geom
_audit_creation_method           SHELXL-2014/7
_audit_update_record
;
2018-01-23 deposited with the CCDC.
2018-07-23 downloaded from the CCDC.
;
_cell_angle_alpha                90
_cell_angle_beta                 94.465(6)
_cell_angle_gamma                90
_cell_formula_units_Z            2
_cell_length_a                   5.8641(4)
_cell_length_b                   9.4679(6)
_cell_length_c                   11.6419(7)
_cell_measurement_reflns_used    868
_cell_measurement_temperature    293(2)
_cell_measurement_theta_max      71.1220
_cell_measurement_theta_min      3.7880
_cell_volume                     644.40(7)
_computing_structure_refinement  'SHELXL-2014/7 (Sheldrick, 2014)'
_diffrn_ambient_temperature      293(2)
_diffrn_measured_fraction_theta_full 0.999
_diffrn_measured_fraction_theta_max 0.998
_diffrn_measurement_device_type  'Enhance (Cu) X-ray Source'
_diffrn_radiation_type           CuK\a
_diffrn_radiation_wavelength     1.54184
_diffrn_reflns_av_R_equivalents  0.0266
_diffrn_reflns_av_unetI/netI     0.0428
_diffrn_reflns_Laue_measured_fraction_full 0.999
_diffrn_reflns_Laue_measured_fraction_max 0.998
_diffrn_reflns_limit_h_max       6
_diffrn_reflns_limit_h_min       -7
_diffrn_reflns_limit_k_max       11
_diffrn_reflns_limit_k_min       -11
_diffrn_reflns_limit_l_max       13
_diffrn_reflns_limit_l_min       -9
_diffrn_reflns_number            2258
_diffrn_reflns_point_group_measured_fraction_full 0.681
_diffrn_reflns_point_group_measured_fraction_max 0.681
_diffrn_reflns_theta_full        67.247
_diffrn_reflns_theta_max         67.247
_diffrn_reflns_theta_min         3.808
_diffrn_source                   'fine-focus sealed X-ray tube'
_exptl_absorpt_coefficient_mu    0.894
_exptl_absorpt_correction_T_max  1.00000
_exptl_absorpt_correction_T_min  0.96271
_exptl_absorpt_correction_type   multi-scan
_exptl_absorpt_process_details   sadabs
_exptl_crystal_colour            white
_exptl_crystal_density_diffrn    1.424
_exptl_crystal_description       block
_exptl_crystal_F_000             292
_exptl_crystal_size_max          0.080
_exptl_crystal_size_mid          0.070
_exptl_crystal_size_min          0.070
_refine_diff_density_max         0.161
_refine_diff_density_min         -0.172
_refine_diff_density_rms         0.037
_refine_ls_abs_structure_details
;
 Flack x determined using 252 quotients [(I+)-(I-)]/[(I+)+(I-)]
 (Parsons, Flack and Wagner, Acta Cryst. B69 (2013) 249-259).
;
_refine_ls_abs_structure_Flack   0.0(3)
_refine_ls_extinction_method     none
_refine_ls_goodness_of_fit_ref   1.041
_refine_ls_hydrogen_treatment    constr
_refine_ls_matrix_type           full
_refine_ls_number_parameters     186
_refine_ls_number_reflns         1563
_refine_ls_number_restraints     1
_refine_ls_restrained_S_all      1.041
_refine_ls_R_factor_all          0.0516
_refine_ls_R_factor_gt           0.0424
_refine_ls_shift/su_max          0.000
_refine_ls_shift/su_mean         0.000
_refine_ls_structure_factor_coef Fsqd
_refine_ls_weighting_details
'w=1/[\s^2^(Fo^2^)+(0.0506P)^2^+0.0929P] where P=(Fo^2^+2Fc^2^)/3'
_refine_ls_weighting_scheme      calc
_refine_ls_wR_factor_gt          0.0997
_refine_ls_wR_factor_ref         0.1107
_reflns_Friedel_coverage         0.280
_reflns_Friedel_fraction_full    0.319
_reflns_Friedel_fraction_max     0.319
_reflns_number_gt                1341
_reflns_number_total             1563
_reflns_threshold_expression     'I > 2\s(I)'
_cod_data_source_file            c8ra04865g2.cif
_cod_data_source_block           exp_8770
_cod_original_cell_volume        644.39(7)
_cod_database_code               7231281
_shelx_shelxl_version_number     2014/7
_shelx_space_group_comment
;
The symmetry employed for this shelxl refinement is uniquely defined
by the following loop, which should always be used as a source of
symmetry information in preference to the above space-group names.
They are only intended as comments.
;
_shelx_estimated_absorpt_t_max   0.940
_shelx_estimated_absorpt_t_min   0.932
_shelx_res_file
;
    exp_8770.res created by SHELXL-2014/7

TITL CF solution in P21
CELL 1.54184 5.86405 9.467864 11.64186 90 94.4654 90
ZERR 2 0.000368 0.000573 0.000727 0 0.0063 0
LATT -1
SYMM -X,0.5+Y,-Z
SFAC C  H  O
UNIT 30 32 10
OMIT  -3.00 134.50
L.S. 10
ACTA
BOND
FMAP 2
PLAN 5
size 0.07 0.07 0.08
WGHT    0.050600    0.092900
FVAR      15.73862
O1    3    0.443853    0.292107   -0.041003    11.00000    0.07852    0.06713 =
         0.03432   -0.00553   -0.00262   -0.03252
AFIX 147
H1    2    0.375072    0.271584    0.015372    11.00000   -1.50000
AFIX   0
O2    3    0.351870    0.295608    0.170242    11.00000    0.06043    0.07112 =
         0.04472    0.00260   -0.00024   -0.03114
O3    3    0.732288    0.699367    0.267766    11.00000    0.08594    0.03327 =
         0.03272   -0.00093    0.00566    0.00620
AFIX 147
H3    2    0.694648    0.734124    0.204607    11.00000   -1.50000
AFIX   0
O4    3    0.704461    0.187267    0.382146    11.00000    0.06821    0.03221 =
         0.06437    0.00811    0.02220    0.01019
AFIX 147
H4    2    0.654491    0.109487    0.398357    11.00000   -1.50000
AFIX   0
O5    3    0.365241    0.404150    0.563072    11.00000    0.07519    0.03875 =
         0.06163    0.00205    0.03211    0.00305
AFIX 147
H5    2    0.307624    0.349035    0.606800    11.00000   -1.50000
AFIX   0
C1    1    1.092931    0.564188   -0.156077    11.00000    0.07061    0.05538 =
         0.03671    0.00440    0.01290   -0.00092
AFIX 137
H1A   2    1.095374    0.493892   -0.215395    11.00000   -1.50000
H1B   2    1.245121    0.578133   -0.121293    11.00000   -1.50000
H1C   2    1.035974    0.651458   -0.189042    11.00000   -1.50000
AFIX   0
C2    1    0.939393    0.515584   -0.065689    11.00000    0.05440    0.03605 =
         0.03336    0.00648    0.00777    0.00467
C3    1    0.757642    0.426972   -0.092689    11.00000    0.06447    0.04582 =
         0.02874   -0.00203    0.00348    0.00300
AFIX  43
H3A   2    0.728062    0.396373   -0.168291    11.00000   -1.20000
AFIX   0
C4    1    0.617014    0.382180   -0.008961    11.00000    0.05282    0.03711 =
         0.03413    0.00102   -0.00220   -0.00426
C5    1    0.657805    0.426242    0.105996    11.00000    0.04460    0.02707 =
         0.02867    0.00264    0.00212   -0.00224
C6    1    0.840896    0.520820    0.131950    11.00000    0.03888    0.03062 =
         0.03087   -0.00024    0.00015    0.00118
C7    1    0.977234    0.562570    0.048596    11.00000    0.04222    0.03335 =
         0.03867    0.00383    0.00537   -0.00331
AFIX  43
H7    2    1.098333    0.623697    0.067903    11.00000   -1.20000
AFIX   0
C8    1    0.518187    0.372195    0.194858    11.00000    0.04340    0.03367 =
         0.03378   -0.00134    0.00291   -0.00115
C9    1    0.578933    0.413077    0.319175    11.00000    0.03657    0.03531 =
         0.02968    0.00356    0.00237   -0.00052
AFIX  13
H9    2    0.477577    0.490851    0.337444    11.00000   -1.20000
AFIX   0
C10   1    0.825723    0.466603    0.339945    11.00000    0.03522    0.03764 =
         0.03354    0.00519   -0.00093    0.00078
AFIX  13
H10   2    0.927564    0.386505    0.328861    11.00000   -1.20000
AFIX   0
C11   1    0.878435    0.579641    0.253424    11.00000    0.04574    0.04051 =
         0.02947    0.00045    0.00313   -0.00853
AFIX  13
H11   2    1.038434    0.608910    0.267688    11.00000   -1.20000
AFIX   0
C12   1    0.540325    0.292911    0.403113    11.00000    0.04472    0.03574 =
         0.03999    0.00753    0.00865    0.00272
AFIX  13
H12   2    0.385475    0.254848    0.388039    11.00000   -1.20000
AFIX   0
C13   1    0.574736    0.344884    0.527297    11.00000    0.05867    0.04410 =
         0.03446    0.01165    0.01145    0.01245
AFIX  13
H13   2    0.617243    0.264054    0.577020    11.00000   -1.20000
AFIX   0
C14   1    0.754294    0.455633    0.546477    11.00000    0.05912    0.06248 =
         0.02834    0.00262   -0.00650    0.00107
AFIX  43
H14   2    0.790465    0.486433    0.621544    11.00000   -1.20000
AFIX   0
C15   1    0.865071    0.512695    0.463836    11.00000    0.04722    0.05610 =
         0.03668    0.00319   -0.00897   -0.00552
AFIX  43
H15   2    0.971013    0.583741    0.482573    11.00000   -1.20000
AFIX   0
HKLF 4

REM  CF solution in P21
REM R1 =  0.0424 for    1341 Fo > 4sig(Fo)  and  0.0516 for all    1563 data
REM    186 parameters refined using      1 restraints

END

WGHT      0.0505      0.0932

REM Highest difference peak  0.161,  deepest hole -0.172,  1-sigma level  0.037
Q1    1   1.1293  0.4958  0.4227  11.00000  0.05    0.16
Q2    1   0.5272  0.4148  0.2545  11.00000  0.05    0.15
Q3    1   0.8478  0.5281  0.3003  11.00000  0.05    0.15
Q4    1   0.4205  0.2757 -0.1289  11.00000  0.05    0.15
Q5    1   0.5809  0.4412  0.0438  11.00000  0.05    0.15
;
_shelx_res_checksum              35764
loop_
_space_group_symop_operation_xyz
'x, y, z'
'-x, y+1/2, -z'
loop_
_atom_site_label
_atom_site_type_symbol
_atom_site_fract_x
_atom_site_fract_y
_atom_site_fract_z
_atom_site_U_iso_or_equiv
_atom_site_adp_type
_atom_site_occupancy
_atom_site_site_symmetry_order
_atom_site_calc_flag
_atom_site_refinement_flags_posn
_atom_site_refinement_flags_adp
O1 O 0.4439(6) 0.2921(4) -0.0410(2) 0.0604(9) Uani 1 1 d . .
H1 H 0.3751 0.2716 0.0154 0.091 Uiso 1 1 calc R U
O2 O 0.3519(5) 0.2956(4) 0.1702(2) 0.0590(9) Uani 1 1 d . .
O3 O 0.7323(5) 0.6994(3) 0.2678(2) 0.0506(8) Uani 1 1 d . .
H3 H 0.6946 0.7341 0.2046 0.076 Uiso 1 1 calc R U
O4 O 0.7045(5) 0.1873(3) 0.3821(3) 0.0540(8) Uani 1 1 d . .
H4 H 0.6545 0.1095 0.3984 0.081 Uiso 1 1 calc R U
O5 O 0.3652(5) 0.4041(4) 0.5631(3) 0.0571(8) Uani 1 1 d . .
H5 H 0.3076 0.3490 0.6068 0.086 Uiso 1 1 calc R U
C1 C 1.0929(8) 0.5642(5) -0.1561(4) 0.0538(12) Uani 1 1 d . .
H1A H 1.0954 0.4939 -0.2154 0.081 Uiso 1 1 calc R U
H1B H 1.2451 0.5781 -0.1213 0.081 Uiso 1 1 calc R U
H1C H 1.0360 0.6515 -0.1890 0.081 Uiso 1 1 calc R U
C2 C 0.9394(7) 0.5156(4) -0.0657(3) 0.0410(9) Uani 1 1 d . .
C3 C 0.7576(7) 0.4270(5) -0.0927(3) 0.0463(10) Uani 1 1 d . .
H3A H 0.7281 0.3964 -0.1683 0.056 Uiso 1 1 calc R U
C4 C 0.6170(6) 0.3822(5) -0.0090(3) 0.0416(9) Uani 1 1 d . .
C5 C 0.6578(6) 0.4262(4) 0.1060(3) 0.0335(8) Uani 1 1 d . .
C6 C 0.8409(6) 0.5208(4) 0.1320(3) 0.0336(8) Uani 1 1 d . .
C7 C 0.9772(6) 0.5626(4) 0.0486(3) 0.0380(9) Uani 1 1 d . .
H7 H 1.0983 0.6237 0.0679 0.046 Uiso 1 1 calc R U
C8 C 0.5182(6) 0.3722(4) 0.1949(3) 0.0370(9) Uani 1 1 d . .
C9 C 0.5789(6) 0.4131(4) 0.3192(3) 0.0339(8) Uani 1 1 d . .
H9 H 0.4776 0.4909 0.3374 0.041 Uiso 1 1 calc R U
C10 C 0.8257(6) 0.4666(4) 0.3399(3) 0.0357(8) Uani 1 1 d . .
H10 H 0.9276 0.3865 0.3289 0.043 Uiso 1 1 calc R U
C11 C 0.8784(7) 0.5796(4) 0.2534(3) 0.0386(9) Uani 1 1 d . .
H11 H 1.0384 0.6089 0.2677 0.046 Uiso 1 1 calc R U
C12 C 0.5403(7) 0.2929(4) 0.4031(3) 0.0399(9) Uani 1 1 d . .
H12 H 0.3855 0.2548 0.3880 0.048 Uiso 1 1 calc R U
C13 C 0.5747(7) 0.3449(5) 0.5273(3) 0.0453(10) Uani 1 1 d . .
H13 H 0.6172 0.2641 0.5770 0.054 Uiso 1 1 calc R U
C14 C 0.7543(7) 0.4556(5) 0.5465(3) 0.0505(11) Uani 1 1 d . .
H14 H 0.7905 0.4864 0.6215 0.061 Uiso 1 1 calc R U
C15 C 0.8651(7) 0.5127(5) 0.4638(3) 0.0473(10) Uani 1 1 d . .
H15 H 0.9710 0.5837 0.4826 0.057 Uiso 1 1 calc R U
loop_
_atom_site_aniso_label
_atom_site_aniso_U_11
_atom_site_aniso_U_22
_atom_site_aniso_U_33
_atom_site_aniso_U_23
_atom_site_aniso_U_13
_atom_site_aniso_U_12
O1 0.079(2) 0.067(2) 0.0343(15) -0.0055(16) -0.0026(14) -0.033(2)
O2 0.0604(18) 0.071(2) 0.0447(17) 0.0026(16) -0.0002(14) -0.0311(18)
O3 0.086(2) 0.0333(15) 0.0327(14) -0.0009(13) 0.0057(14) 0.0062(16)
O4 0.0682(19) 0.0322(15) 0.0644(19) 0.0081(15) 0.0222(15) 0.0102(15)
O5 0.075(2) 0.0387(16) 0.062(2) 0.0020(15) 0.0321(16) 0.0031(16)
C1 0.071(3) 0.055(3) 0.037(2) 0.004(2) 0.0129(19) -0.001(2)
C2 0.054(2) 0.036(2) 0.0334(19) 0.0065(18) 0.0078(16) 0.0047(19)
C3 0.064(2) 0.046(2) 0.029(2) -0.0020(18) 0.0035(18) 0.003(2)
C4 0.053(2) 0.037(2) 0.034(2) 0.0010(17) -0.0022(17) -0.0043(18)
C5 0.0446(19) 0.0271(18) 0.0287(18) 0.0026(15) 0.0021(15) -0.0022(15)
C6 0.0389(18) 0.0306(19) 0.0309(18) -0.0002(17) 0.0002(14) 0.0012(16)
C7 0.042(2) 0.033(2) 0.039(2) 0.0038(17) 0.0054(16) -0.0033(17)
C8 0.043(2) 0.034(2) 0.034(2) -0.0013(17) 0.0029(15) -0.0012(18)
C9 0.0366(18) 0.035(2) 0.0297(19) 0.0036(17) 0.0024(14) -0.0005(17)
C10 0.0352(18) 0.038(2) 0.034(2) 0.0052(17) -0.0009(15) 0.0008(16)
C11 0.046(2) 0.041(2) 0.029(2) 0.0005(18) 0.0031(16) -0.0085(19)
C12 0.045(2) 0.036(2) 0.040(2) 0.0075(18) 0.0087(16) 0.0027(18)
C13 0.059(2) 0.044(2) 0.034(2) 0.0116(18) 0.0115(17) 0.0124(19)
C14 0.059(3) 0.062(3) 0.028(2) 0.003(2) -0.0065(18) 0.001(2)
C15 0.047(2) 0.056(3) 0.037(2) 0.003(2) -0.0090(17) -0.006(2)
loop_
_atom_type_symbol
_atom_type_description
_atom_type_scat_dispersion_real
_atom_type_scat_dispersion_imag
_atom_type_scat_source
C C 0.0181 0.0091 'International Tables Vol C Tables 4.2.6.8 and 6.1.1.4'
H H 0.0000 0.0000 'International Tables Vol C Tables 4.2.6.8 and 6.1.1.4'
O O 0.0492 0.0322 'International Tables Vol C Tables 4.2.6.8 and 6.1.1.4'
loop_
_geom_angle_atom_site_label_1
_geom_angle_atom_site_label_2
_geom_angle_atom_site_label_3
_geom_angle
C3 C2 C1 121.4(4)
C3 C2 C7 118.2(3)
C7 C2 C1 120.4(4)
C2 C3 C4 121.2(4)
O1 C4 C3 118.1(4)
O1 C4 C5 121.2(3)
C3 C4 C5 120.7(4)
C4 C5 C6 117.5(3)
C4 C5 C8 120.5(3)
C6 C5 C8 121.9(3)
C5 C6 C11 118.9(3)
C7 C6 C5 120.6(3)
C7 C6 C11 120.4(3)
C6 C7 C2 121.6(4)
O2 C8 C5 121.3(3)
O2 C8 C9 119.8(3)
C5 C8 C9 119.0(3)
C8 C9 C10 112.6(3)
C8 C9 C12 112.7(3)
C12 C9 C10 109.3(3)
C11 C10 C9 111.5(3)
C15 C10 C9 108.6(3)
C15 C10 C11 114.0(3)
O3 C11 C6 110.6(3)
O3 C11 C10 108.9(3)
C10 C11 C6 109.7(3)
O4 C12 C9 106.1(3)
O4 C12 C13 110.4(3)
C13 C12 C9 110.5(3)
O5 C13 C12 110.3(3)
O5 C13 C14 106.9(4)
C14 C13 C12 114.1(3)
C15 C14 C13 124.2(4)
C14 C15 C10 122.2(4)
loop_
_geom_bond_atom_site_label_1
_geom_bond_atom_site_label_2
_geom_bond_distance
O1 C4 1.356(5)
O2 C8 1.231(5)
O3 C11 1.439(5)
O4 C12 1.422(5)
O5 C13 1.441(4)
C1 C2 1.509(6)
C2 C3 1.373(6)
C2 C7 1.404(5)
C3 C4 1.391(5)
C4 C5 1.404(5)
C5 C6 1.413(5)
C5 C8 1.461(5)
C6 C7 1.363(5)
C6 C11 1.520(5)
C8 C9 1.514(5)
C9 C10 1.535(5)
C9 C12 1.528(5)
C10 C11 1.518(5)
C10 C15 1.507(5)
C12 C13 1.526(6)
C13 C14 1.490(6)
C14 C15 1.318(6)
