#------------------------------------------------------------------------------
#$Date: 2019-11-17 09:34:59 +0200 (Sun, 17 Nov 2019) $
#$Revision: 229133 $
#$URL: file:///home/coder/svn-repositories/cod/cif/7/23/14/7231465.cif $
#------------------------------------------------------------------------------
#
# This file is available in the Crystallography Open Database (COD),
# http://www.crystallography.net/
#
# All data on this site have been placed in the public domain by the
# contributors.
#
data_7231465
loop_
_publ_author_name
'Hutchins, Kristin M.'
'Unruh, Daniel K.'
'Carpenter, Dontrell D.'
'Groeneman, Ryan H.'
_publ_section_title
;
 Thermal expansion along one-dimensional chains and two-dimensional sheets
 within co-crystals based on halogen or hydrogen bonds
;
_journal_issue                   45
_journal_name_full               CrystEngComm
_journal_page_first              7232
_journal_paper_doi               10.1039/C8CE01090K
_journal_volume                  20
_journal_year                    2018
_chemical_formula_sum            'C18 H10 Br4 N2'
_chemical_formula_weight         573.92
_space_group_IT_number           2
_space_group_name_Hall           '-P 1'
_space_group_name_H-M_alt        'P -1'
_symmetry_cell_setting           triclinic
_symmetry_Int_Tables_number      2
_symmetry_space_group_name_Hall  '-P 1'
_symmetry_space_group_name_H-M   'P -1'
_atom_sites_solution_hydrogens   geom
_atom_sites_solution_primary     dual
_atom_sites_solution_secondary   difmap
_audit_creation_date             2018-04-23T11:02:27-00:00
_audit_creation_method           'WinGX routine CIF_UPDATE'
_audit_update_record
;
2018-06-18 deposited with the CCDC.
2018-08-30 downloaded from the CCDC.
;
_cell_angle_alpha                72.682(2)
_cell_angle_beta                 85.789(2)
_cell_angle_gamma                83.900(2)
_cell_formula_units_Z            2
_cell_length_a                   3.9272(3)
_cell_length_b                   13.2313(11)
_cell_length_c                   18.2212(16)
_cell_measurement_reflns_used    4749
_cell_measurement_temperature    189(2)
_cell_measurement_theta_max      28.21
_cell_measurement_theta_min      2.26
_cell_volume                     897.90(13)
_computing_cell_refinement       'Bruker SAINT'
_computing_data_collection       'Bruker APEX2'
_computing_data_reduction        'Bruker SAINT'
_computing_structure_refinement  'SHELXL-2016/6 (Sheldrick, 2016)'
_computing_structure_solution    'SHELXT 2014/5 (Sheldrick, 2014)'
_diffrn_ambient_temperature      189(2)
_diffrn_measured_fraction_theta_full 0.997
_diffrn_measured_fraction_theta_max 0.991
_diffrn_measurement_device_type  'Bruker APEX-II CCD'
_diffrn_measurement_method       '\f and \w scans'
_diffrn_radiation_monochromator  graphite
_diffrn_radiation_source         'fine-focus sealed tube'
_diffrn_radiation_type           MoK\a
_diffrn_radiation_wavelength     0.71073
_diffrn_reflns_av_R_equivalents  0.0852
_diffrn_reflns_av_unetI/netI     0.0711
_diffrn_reflns_Laue_measured_fraction_full 0.997
_diffrn_reflns_Laue_measured_fraction_max 0.991
_diffrn_reflns_limit_h_max       3
_diffrn_reflns_limit_h_min       -5
_diffrn_reflns_limit_k_max       17
_diffrn_reflns_limit_k_min       -17
_diffrn_reflns_limit_l_max       24
_diffrn_reflns_limit_l_min       -24
_diffrn_reflns_number            10236
_diffrn_reflns_point_group_measured_fraction_full 0.997
_diffrn_reflns_point_group_measured_fraction_max 0.991
_diffrn_reflns_theta_full        25.242
_diffrn_reflns_theta_max         28.37
_diffrn_reflns_theta_min         1.619
_exptl_absorpt_coefficient_mu    8.966
_exptl_absorpt_correction_T_max  0.1256
_exptl_absorpt_correction_T_min  0.0679
_exptl_absorpt_correction_type   multi-scan
_exptl_absorpt_process_details   SADABS
_exptl_crystal_colour            colourless
_exptl_crystal_density_diffrn    2.123
_exptl_crystal_description       rod
_exptl_crystal_F_000             544
_exptl_crystal_size_max          0.498
_exptl_crystal_size_mid          0.221
_exptl_crystal_size_min          0.092
_refine_diff_density_max         1.719
_refine_diff_density_min         -2.174
_refine_diff_density_rms         0.224
_refine_ls_extinction_method     none
_refine_ls_goodness_of_fit_ref   0.965
_refine_ls_hydrogen_treatment    constr
_refine_ls_matrix_type           full
_refine_ls_number_parameters     217
_refine_ls_number_reflns         4453
_refine_ls_number_restraints     0
_refine_ls_restrained_S_all      0.965
_refine_ls_R_factor_all          0.0625
_refine_ls_R_factor_gt           0.0507
_refine_ls_shift/su_max          0.001
_refine_ls_shift/su_mean         0
_refine_ls_structure_factor_coef Fsqd
_refine_ls_weighting_details
'w=1/[\s^2^(Fo^2^)+(0.0788P)^2^] where P=(Fo^2^+2Fc^2^)/3'
_refine_ls_weighting_scheme      calc
_refine_ls_wR_factor_gt          0.1258
_refine_ls_wR_factor_ref         0.1298
_reflns_number_gt                3418
_reflns_number_total             4453
_reflns_threshold_expression     'I > 2\s(I)'
_cod_data_source_file            c8ce01090k2.cif
_cod_data_source_block           TBrB_BPA_190k
_cod_depositor_comments
'Adding full bibliography for 7231456--7231470.cif.'
_cod_database_code               7231465
_shelx_estimated_absorpt_t_min   0.095
_shelx_estimated_absorpt_t_max   0.493
_shelx_res_file
;
TITL r3518-190K in P-1
    r3518-190k.res
    created by SHELXL-2016/6 at 09:22:55 on 23-Apr-2018
CELL  0.71073   3.9272  13.2313  18.2212   72.682   85.789   83.900
ZERR  2.00   0.0003   0.0011   0.0016    0.002    0.002    0.002
LATT  1
SFAC  C H N BR
UNIT  36 20 4 8
ACTA
LIST 4
MERG  2
FMAP  2
PLAN  20
L.S.  10
TEMP  -84.13
SIZE  0.092 0.221 0.498
HTAB
BOND  $H
OMIT  0 0 1
OMIT  0 2 2
WGHT    0.078800
FVAR       0.12125
BR1   4    0.845399    0.805708    0.138047    11.00000    0.04010    0.02289 =
         0.03362   -0.00126   -0.00934    0.00488
BR2   4    0.715022    0.771300   -0.033093    11.00000    0.04594    0.02030 =
         0.04486   -0.01586   -0.00101    0.00476
BR3   4    0.273465    0.277581    0.481633    11.00000    0.03786    0.02172 =
         0.04074   -0.01351   -0.00525   -0.00496
BR4   4    0.289176    0.315649    0.656342    11.00000    0.04116    0.02561 =
         0.03010   -0.00385    0.00116   -0.00573
N1    3    0.118411   -0.039801    0.769362    11.00000    0.04735    0.03747 =
         0.03089   -0.00771   -0.00643   -0.01118
N2    3    0.263617    0.452929    0.264508    11.00000    0.04474    0.03383 =
         0.03051   -0.01108   -0.00923    0.00234
C1    1    0.264995   -0.111455    0.736389    11.00000    0.04750    0.02756 =
         0.03992   -0.00411   -0.01208   -0.00342
AFIX  43
H1    2    0.396118   -0.171272    0.767531    11.00000   -1.20000
AFIX   0
C2    1    0.239726   -0.104892    0.660027    11.00000    0.03532    0.02650 =
         0.04133   -0.01082   -0.00248   -0.00197
AFIX  43
H2    2    0.347503   -0.159265    0.639814    11.00000   -1.20000
AFIX   0
C3    1    0.053401   -0.017133    0.613140    11.00000    0.02810    0.02938 =
         0.03251   -0.01046   -0.00280   -0.00961
C4    1   -0.100364    0.059127    0.646883    11.00000    0.03495    0.02666 =
         0.04011   -0.01289   -0.00526   -0.00373
AFIX  43
H4    2   -0.230167    0.120350    0.617037    11.00000   -1.20000
AFIX   0
C5    1   -0.061895    0.044664    0.723859    11.00000    0.04132    0.03378 =
         0.03330   -0.01486   -0.00318   -0.00624
AFIX  43
H5    2   -0.168537    0.097218    0.746025    11.00000   -1.20000
AFIX   0
C6    1    0.017714   -0.005442    0.533353    11.00000    0.03379    0.03157 =
         0.03856   -0.01439   -0.00178   -0.00452
C7    1    0.561257    1.014980    0.070237    11.00000    0.03035    0.02195 =
         0.02490   -0.00857   -0.00153    0.00045
AFIX  43
H7    2    0.605194    1.025099    0.118031    11.00000   -1.20000
AFIX   0
C8    1    0.648178    0.917215    0.057006    11.00000    0.02650    0.01637 =
         0.02465   -0.00242   -0.00413    0.00017
C9    1    0.590493    0.902441   -0.012705    11.00000    0.02589    0.01900 =
         0.03362   -0.01142    0.00025   -0.00424
C10   1    0.126835    0.377061    0.243620    11.00000    0.04499    0.02373 =
         0.03694   -0.00641   -0.00351    0.00314
AFIX  43
H10   2    0.080071    0.313592    0.282633    11.00000   -1.20000
AFIX   0
C11   1    0.050393    0.385549    0.169365    11.00000    0.03956    0.01992 =
         0.03419   -0.01055   -0.00262   -0.00310
AFIX  43
H11   2   -0.046679    0.329210    0.158320    11.00000   -1.20000
AFIX   0
C12   1    0.116237    0.477202    0.110577    11.00000    0.02579    0.02256 =
         0.03135   -0.01367   -0.00583    0.00496
C13   1    0.263164    0.557248    0.131222    11.00000    0.03933    0.01957 =
         0.02970   -0.00736   -0.00420    0.00216
AFIX  43
H13   2    0.316732    0.620996    0.093303    11.00000   -1.20000
AFIX   0
C14   1    0.327497    0.541124    0.207546    11.00000    0.03884    0.03175 =
         0.04264   -0.01905   -0.00915    0.00006
AFIX  43
H14   2    0.423366    0.596089    0.220653    11.00000   -1.20000
AFIX   0
C15   1    0.034547    0.492973    0.032156    11.00000    0.02865    0.02244 =
         0.03530   -0.01130   -0.00268    0.00272
C16   1    0.492086    0.484880    0.427616    11.00000    0.03081    0.02332 =
         0.02614   -0.01072   -0.00789    0.00355
AFIX  43
H16   2    0.485620    0.474332    0.378413    11.00000   -1.20000
AFIX   0
C17   1    0.403524    0.405952    0.493400    11.00000    0.02360    0.02001 =
         0.03727   -0.01293   -0.00906   -0.00039
C18   1    0.410161    0.421000    0.565948    11.00000    0.02431    0.01753 =
         0.02533   -0.00226   -0.00012    0.00189
HKLF    4




REM  r3518-190K in P-1
REM R1 =  0.0507 for    3418 Fo > 4sig(Fo)  and  0.0625 for all    4453 data
REM    217 parameters refined using      0 restraints

END

WGHT      0.0739      0.0000

REM Instructions for potential hydrogen bonds
EQIV $4 -x+1, -y+1, -z+1
HTAB C7 N1_$4
EQIV $5 -x+1, -y+1, -z
HTAB C11 Br2_$5
HTAB C13 Br2
HTAB C16 N2

REM Highest difference peak  1.719,  deepest hole -2.174,  1-sigma level  0.224
Q1    1   0.3171  0.3588  0.6059  11.00000  0.05    1.72
Q2    1   0.2983  0.3155  0.4315  11.00000  0.05    1.50
Q3    1   0.8546  0.8536  0.0896  11.00000  0.05    1.48
Q4    1   0.8395  0.7556  0.1892  11.00000  0.05    1.48
Q5    1   0.2645  0.2745  0.7054  11.00000  0.05    1.41
Q6    1   0.2711  0.2277  0.5306  11.00000  0.05    1.36
Q7    1   0.7076  0.8167 -0.0831  11.00000  0.05    1.31
Q8    1   0.7931  0.7833 -0.0852  11.00000  0.05    1.27
Q9    1   0.7407  0.7958  0.1908  11.00000  0.05    1.21
Q10   1   0.6993  0.7235  0.0196  11.00000  0.05    1.19
Q11   1   0.3751  0.3458  0.5571  11.00000  0.05    0.77
Q12   1   0.7820  0.7467  0.2398  11.00000  0.05    0.76
Q13   1   0.9375  0.8320  0.0405  11.00000  0.05    0.60
Q14   1   0.3691  0.3234  0.3844  11.00000  0.05    0.59
Q15   1   1.0200  0.7469  0.0735  11.00000  0.05    0.58
Q16   1   0.1276  0.2392  0.1330  11.00000  0.05    0.56
Q17   1   0.0628  0.2277  0.7233  11.00000  0.05    0.54
Q18   1   0.7975  0.8174 -0.1328  11.00000  0.05    0.54
Q19   1   0.2014 -0.1383  0.6969  11.00000  0.05    0.53
Q20   1   0.3169  0.5314  0.1688  11.00000  0.05    0.48
;
_shelx_res_checksum              48898
loop_
_symmetry_equiv_pos_as_xyz
'x, y, z'
'-x, -y, -z'
loop_
_atom_site_label
_atom_site_type_symbol
_atom_site_fract_x
_atom_site_fract_y
_atom_site_fract_z
_atom_site_U_iso_or_equiv
_atom_site_adp_type
_atom_site_occupancy
_atom_site_calc_flag
Br1 Br 0.84540(13) 0.80571(4) 0.13805(3) 0.03391(15) Uani 1 d
Br2 Br 0.71502(14) 0.77130(4) -0.03309(3) 0.03628(16) Uani 1 d
Br3 Br 0.27347(12) 0.27758(4) 0.48163(3) 0.03212(15) Uani 1 d
Br4 Br 0.28918(13) 0.31565(4) 0.65634(3) 0.03316(15) Uani 1 d
N1 N 0.1184(12) -0.0398(3) 0.7694(2) 0.0383(10) Uani 1 d
N2 N 0.2636(11) 0.4529(3) 0.2645(2) 0.0360(10) Uani 1 d
C1 C 0.2650(14) -0.1115(4) 0.7364(3) 0.0391(12) Uani 1 d
H1 H 0.396118 -0.171272 0.767531 0.047 Uiso 1 calc
C2 C 0.2397(12) -0.1049(4) 0.6600(3) 0.0342(11) Uani 1 d
H2 H 0.347503 -0.159265 0.639814 0.041 Uiso 1 calc
C3 C 0.0534(11) -0.0171(4) 0.6131(3) 0.0291(10) Uani 1 d
C4 C -0.1004(12) 0.0591(4) 0.6469(3) 0.0330(11) Uani 1 d
H4 H -0.230167 0.12035 0.617037 0.04 Uiso 1 calc
C5 C -0.0619(13) 0.0447(4) 0.7239(3) 0.0347(11) Uani 1 d
H5 H -0.168537 0.097218 0.746025 0.042 Uiso 1 calc
C6 C 0.0177(12) -0.0054(4) 0.5334(3) 0.0336(11) Uani 1 d
C7 C 0.5613(11) 1.0150(3) 0.0702(3) 0.0255(9) Uani 1 d
H7 H 0.605194 1.025099 0.118031 0.031 Uiso 1 calc
C8 C 0.6482(11) 0.9172(3) 0.0570(3) 0.0233(9) Uani 1 d
C9 C 0.5905(11) 0.9024(3) -0.0127(3) 0.0253(9) Uani 1 d
C10 C 0.1268(13) 0.3771(4) 0.2436(3) 0.0361(11) Uani 1 d
H10 H 0.080071 0.313592 0.282633 0.043 Uiso 1 calc
C11 C 0.0504(12) 0.3855(4) 0.1694(3) 0.0306(10) Uani 1 d
H11 H -0.046679 0.32921 0.15832 0.037 Uiso 1 calc
C12 C 0.1162(11) 0.4772(3) 0.1106(3) 0.0256(9) Uani 1 d
C13 C 0.2632(12) 0.5572(4) 0.1312(3) 0.0297(10) Uani 1 d
H13 H 0.316732 0.620996 0.093303 0.036 Uiso 1 calc
C14 C 0.3275(13) 0.5411(4) 0.2075(3) 0.0358(12) Uani 1 d
H14 H 0.423366 0.596089 0.220653 0.043 Uiso 1 calc
C15 C 0.0345(11) 0.4930(4) 0.0322(3) 0.0285(10) Uani 1 d
C16 C 0.4921(11) 0.4849(3) 0.4276(3) 0.0261(9) Uani 1 d
H16 H 0.48562 0.474332 0.378413 0.031 Uiso 1 calc
C17 C 0.4035(11) 0.4060(3) 0.4934(3) 0.0257(9) Uani 1 d
C18 C 0.4102(11) 0.4210(3) 0.5659(3) 0.0236(9) Uani 1 d
loop_
_atom_site_aniso_label
_atom_site_aniso_U_11
_atom_site_aniso_U_22
_atom_site_aniso_U_33
_atom_site_aniso_U_23
_atom_site_aniso_U_13
_atom_site_aniso_U_12
Br1 0.0401(3) 0.0229(3) 0.0336(3) -0.0013(2) -0.0093(2) 0.00488(19)
Br2 0.0459(3) 0.0203(3) 0.0449(3) -0.0159(2) -0.0010(2) 0.0048(2)
Br3 0.0379(3) 0.0217(3) 0.0407(3) -0.0135(2) -0.0052(2) -0.00496(19)
Br4 0.0412(3) 0.0256(3) 0.0301(3) -0.0038(2) 0.00116(19) -0.0057(2)
N1 0.047(2) 0.037(3) 0.031(2) -0.008(2) -0.0064(19) -0.011(2)
N2 0.045(2) 0.034(2) 0.031(2) -0.011(2) -0.0092(18) 0.0023(19)
C1 0.047(3) 0.028(3) 0.040(3) -0.004(2) -0.012(2) -0.003(2)
C2 0.035(3) 0.026(3) 0.041(3) -0.011(2) -0.002(2) -0.002(2)
C3 0.028(2) 0.029(3) 0.033(3) -0.010(2) -0.0028(18) -0.0096(19)
C4 0.035(2) 0.027(3) 0.040(3) -0.013(2) -0.005(2) -0.004(2)
C5 0.041(3) 0.034(3) 0.033(3) -0.015(2) -0.003(2) -0.006(2)
C6 0.034(2) 0.032(3) 0.039(3) -0.014(2) -0.002(2) -0.005(2)
C7 0.030(2) 0.022(2) 0.025(2) -0.0086(19) -0.0015(17) 0.0005(18)
C8 0.026(2) 0.016(2) 0.025(2) -0.0024(18) -0.0041(16) 0.0002(16)
C9 0.026(2) 0.019(2) 0.034(3) -0.0114(19) 0.0003(18) -0.0042(17)
C10 0.045(3) 0.024(3) 0.037(3) -0.006(2) -0.004(2) 0.003(2)
C11 0.040(3) 0.020(2) 0.034(3) -0.011(2) -0.003(2) -0.0031(19)
C12 0.026(2) 0.023(2) 0.031(2) -0.014(2) -0.0058(17) 0.0050(17)
C13 0.039(2) 0.020(2) 0.030(3) -0.007(2) -0.0042(19) 0.0022(19)
C14 0.039(3) 0.032(3) 0.043(3) -0.019(2) -0.009(2) 0.000(2)
C15 0.029(2) 0.022(2) 0.035(3) -0.011(2) -0.0027(19) 0.0027(18)
C16 0.031(2) 0.023(2) 0.026(2) -0.011(2) -0.0079(18) 0.0036(18)
C17 0.024(2) 0.020(2) 0.037(3) -0.013(2) -0.0091(18) -0.0004(17)
C18 0.024(2) 0.018(2) 0.025(2) -0.0023(18) -0.0001(16) 0.0019(16)
loop_
_atom_type_symbol
_atom_type_description
_atom_type_scat_dispersion_real
_atom_type_scat_dispersion_imag
_atom_type_scat_source
C C 0.0033 0.0016 'International Tables Vol C Tables 4.2.6.8 and 6.1.1.4'
H H 0 0 'International Tables Vol C Tables 4.2.6.8 and 6.1.1.4'
N N 0.0061 0.0033 'International Tables Vol C Tables 4.2.6.8 and 6.1.1.4'
Br Br -0.2901 2.4595 'International Tables Vol C Tables 4.2.6.8 and 6.1.1.4'
loop_
_geom_angle_atom_site_label_1
_geom_angle_atom_site_label_2
_geom_angle_atom_site_label_3
_geom_angle
_geom_angle_site_symmetry_1
_geom_angle_site_symmetry_3
C1 N1 C5 116.6(4) . .
C14 N2 C10 116.0(4) . .
N1 C1 C2 124.4(5) . .
N1 C1 H1 117.8 . .
C2 C1 H1 117.8 . .
C1 C2 C3 118.7(5) . .
C1 C2 H2 120.6 . .
C3 C2 H2 120.6 . .
C2 C3 C4 117.5(5) . .
C2 C3 C6 121.5(4) . .
C4 C3 C6 121.0(5) . .
C5 C4 C3 119.2(5) . .
C5 C4 H4 120.4 . .
C3 C4 H4 120.4 . .
N1 C5 C4 123.5(5) . .
N1 C5 H5 118.3 . .
C4 C5 H5 118.3 . .
C6 C6 C3 178.8(7) 2_556 .
C9 C7 C8 119.0(4) 2_675 .
C9 C7 H7 120.5 2_675 .
C8 C7 H7 120.5 . .
C9 C8 C7 120.8(4) . .
C9 C8 Br1 121.6(3) . .
C7 C8 Br1 117.6(3) . .
C8 C9 C7 120.2(4) . 2_675
C8 C9 Br2 121.7(3) . .
C7 C9 Br2 118.1(3) 2_675 .
N2 C10 C11 124.2(5) . .
N2 C10 H10 117.9 . .
C11 C10 H10 117.9 . .
C10 C11 C12 119.6(4) . .
C10 C11 H11 120.2 . .
C12 C11 H11 120.2 . .
C11 C12 C13 117.0(4) . .
C11 C12 C15 122.7(4) . .
C13 C12 C15 120.2(4) . .
C14 C13 C12 118.8(5) . .
C14 C13 H13 120.6 . .
C12 C13 H13 120.6 . .
N2 C14 C13 124.4(4) . .
N2 C14 H14 117.8 . .
C13 C14 H14 117.8 . .
C15 C15 C12 179.2(6) 2_565 .
C18 C16 C17 119.5(4) 2_666 .
C18 C16 H16 120.2 2_666 .
C17 C16 H16 120.2 . .
C16 C17 C18 120.6(4) . .
C16 C17 Br3 118.0(3) . .
C18 C17 Br3 121.4(4) . .
C16 C18 C17 119.8(4) 2_666 .
C16 C18 Br4 118.5(3) 2_666 .
C17 C18 Br4 121.7(3) . .
loop_
_geom_bond_atom_site_label_1
_geom_bond_atom_site_label_2
_geom_bond_distance
_geom_bond_site_symmetry_2
Br1 C8 1.893(4) .
Br2 C9 1.888(4) .
Br3 C17 1.900(4) .
Br4 C18 1.882(4) .
N1 C1 1.328(7) .
N1 C5 1.343(6) .
N2 C14 1.343(7) .
N2 C10 1.347(6) .
C1 C2 1.378(7) .
C1 H1 0.95 .
C2 C3 1.391(7) .
C2 H2 0.95 .
C3 C4 1.395(6) .
C3 C6 1.431(7) .
C4 C5 1.375(7) .
C4 H4 0.95 .
C5 H5 0.95 .
C6 C6 1.197(10) 2_556
C7 C9 1.385(6) 2_675
C7 C8 1.388(6) .
C7 H7 0.95 .
C8 C9 1.379(6) .
C10 C11 1.377(7) .
C10 H10 0.95 .
C11 C12 1.392(6) .
C11 H11 0.95 .
C12 C13 1.412(6) .
C12 C15 1.437(6) .
C13 C14 1.381(7) .
C13 H13 0.95 .
C14 H14 0.95 .
C15 C15 1.178(9) 2_565
C16 C18 1.381(6) 2_666
C16 C17 1.385(6) .
C16 H16 0.95 .
C17 C18 1.397(6) .
