#------------------------------------------------------------------------------
#$Date: 2019-11-17 13:17:02 +0200 (Sun, 17 Nov 2019) $
#$Revision: 230101 $
#$URL: file:///home/coder/svn-repositories/cod/cif/7/23/12/7231208.cif $
#------------------------------------------------------------------------------
#
# This file is available in the Crystallography Open Database (COD),
# http://www.crystallography.net/
#
# All data on this site have been placed in the public domain by the
# contributors.
#
data_7231208
loop_
_publ_author_name
'Chen, En'
'Shao, Jiaan'
'Tang, Pai'
'Shu, Ke'
'Chen, Wenteng'
'Yu, Yongping'
_publ_section_title
;
 Catalyst-free three-component sequencing for efficient assembly of [1,3]
 oxazine N-fused imidazole-2-thiones
;
_journal_issue                   16
_journal_name_full               'Green Chemistry'
_journal_page_first              3696
_journal_paper_doi               10.1039/C8GC01766B
_journal_volume                  20
_journal_year                    2018
_chemical_formula_moiety         'C17 H14 N2 O2 S'
_chemical_formula_sum            'C17 H14 N2 O2 S'
_chemical_formula_weight         310.36
_space_group_crystal_system      triclinic
_space_group_IT_number           2
_space_group_name_Hall           '-P 1'
_space_group_name_H-M_alt        'P -1'
_symmetry_space_group_name_Hall  '-P 1'
_symmetry_space_group_name_H-M   'P -1'
_atom_sites_solution_hydrogens   geom
_atom_sites_solution_primary     direct
_audit_creation_date             2017-03-08
_audit_creation_method
;
Olex2 1.2
(compiled 2017.03.02 svn.r3394 for OlexSys, GUI svn.r5324)
;
_audit_update_record
;
2017-08-30 deposited with the CCDC.
2018-07-19 downloaded from the CCDC.
;
_cell_angle_alpha                74.013(7)
_cell_angle_beta                 72.640(9)
_cell_angle_gamma                69.444(9)
_cell_formula_units_Z            2
_cell_length_a                   8.4181(10)
_cell_length_b                   9.1433(7)
_cell_length_c                   10.4688(9)
_cell_measurement_reflns_used    1613
_cell_measurement_temperature    170
_cell_measurement_theta_max      29.5627
_cell_measurement_theta_min      3.0043
_cell_volume                     706.85(13)
_computing_cell_refinement
;
CrysAlisPro, Agilent Technologies,
Version 1.171.35.11 (release 16-05-2011 CrysAlis171 .NET)
(compiled May 16 2011,17:55:39)
;
_computing_data_collection
;
CrysAlisPro, Agilent Technologies,
Version 1.171.35.11 (release 16-05-2011 CrysAlis171 .NET)
(compiled May 16 2011,17:55:39)
;
_computing_data_reduction
;
CrysAlisPro, Agilent Technologies,
Version 1.171.35.11 (release 16-05-2011 CrysAlis171 .NET)
(compiled May 16 2011,17:55:39)
;
_computing_molecular_graphics    'Olex2 (Dolomanov et al., 2009)'
_computing_publication_material  'Olex2 (Dolomanov et al., 2009)'
_computing_structure_refinement  'ShelXL (Sheldrick, 2015)'
_computing_structure_solution    'ShelXS (Sheldrick, 2008)'
_diffrn_ambient_temperature      170
_diffrn_detector_area_resol_mean 10.3592
_diffrn_measured_fraction_theta_full 0.996
_diffrn_measured_fraction_theta_max 0.997
_diffrn_measurement_details
;
#__ type_ start__ end____ width___ exp.time_
  1 omega  -78.00    7.00   1.0000    1.5000
omega____ theta____ kappa____ phi______ frames
    -      -12.7183  -38.0000   30.0000 85

#__ type_ start__ end____ width___ exp.time_
  2 omega  -37.00   55.00   1.0000    1.5000
omega____ theta____ kappa____ phi______ frames
    -      -12.7183   77.0000  -30.0000 92

#__ type_ start__ end____ width___ exp.time_
  3 omega  -79.00   16.00   1.0000    1.5000
omega____ theta____ kappa____ phi______ frames
    -      -12.7183  -77.0000 -150.0000 95
;
_diffrn_measurement_device_type  'Xcalibur, Atlas, Gemini ultra'
_diffrn_measurement_method       '\w scans'
_diffrn_orient_matrix_UB_11      -0.0750080000
_diffrn_orient_matrix_UB_12      0.0349433000
_diffrn_orient_matrix_UB_13      -0.0279051000
_diffrn_orient_matrix_UB_21      -0.0412421000
_diffrn_orient_matrix_UB_22      0.0444521000
_diffrn_orient_matrix_UB_23      0.0529453000
_diffrn_orient_matrix_UB_31      0.0346255000
_diffrn_orient_matrix_UB_32      0.0626658000
_diffrn_orient_matrix_UB_33      -0.0405956000
_diffrn_radiation_monochromator  graphite
_diffrn_radiation_type           MoK\a
_diffrn_radiation_wavelength     0.71073
_diffrn_reflns_av_R_equivalents  0.0372
_diffrn_reflns_av_unetI/netI     0.0593
_diffrn_reflns_Laue_measured_fraction_full 0.996
_diffrn_reflns_Laue_measured_fraction_max 0.997
_diffrn_reflns_limit_h_max       7
_diffrn_reflns_limit_h_min       -10
_diffrn_reflns_limit_k_max       9
_diffrn_reflns_limit_k_min       -10
_diffrn_reflns_limit_l_max       12
_diffrn_reflns_limit_l_min       -12
_diffrn_reflns_number            4356
_diffrn_reflns_point_group_measured_fraction_full 0.996
_diffrn_reflns_point_group_measured_fraction_max 0.997
_diffrn_reflns_theta_full        25.242
_diffrn_reflns_theta_max         25.349
_diffrn_reflns_theta_min         3.010
_diffrn_source                   'Enhance (Mo) X-ray Source'
_exptl_absorpt_coefficient_mu    0.238
_exptl_absorpt_correction_T_max  1.00000
_exptl_absorpt_correction_T_min  0.95040
_exptl_absorpt_correction_type   multi-scan
_exptl_absorpt_process_details
;
CrysAlisPro, Agilent Technologies,
Version 1.171.35.11 (release 16-05-2011 CrysAlis171 .NET)
(compiled May 16 2011,17:55:39)
Empirical absorption correction using spherical harmonics,
 implemented in SCALE3 ABSPACK scaling algorithm.
;
_exptl_crystal_colour            yellow
_exptl_crystal_colour_primary    yellow
_exptl_crystal_density_diffrn    1.458
_exptl_crystal_description       plate
_exptl_crystal_F_000             324
_exptl_crystal_recrystallization_method
'Re-crystallisation from solvent: acetone'
_exptl_crystal_size_max          0.4
_exptl_crystal_size_mid          0.38
_exptl_crystal_size_min          0.26
_refine_diff_density_max         0.228
_refine_diff_density_min         -0.353
_refine_diff_density_rms         0.071
_refine_ls_extinction_method     none
_refine_ls_goodness_of_fit_ref   1.063
_refine_ls_hydrogen_treatment    constr
_refine_ls_matrix_type           full
_refine_ls_number_parameters     200
_refine_ls_number_reflns         2579
_refine_ls_number_restraints     0
_refine_ls_restrained_S_all      1.063
_refine_ls_R_factor_all          0.0622
_refine_ls_R_factor_gt           0.0480
_refine_ls_shift/su_max          0.000
_refine_ls_shift/su_mean         0.000
_refine_ls_structure_factor_coef Fsqd
_refine_ls_weighting_details
'w=1/[\s^2^(Fo^2^)+(0.0492P)^2^+0.1682P] where P=(Fo^2^+2Fc^2^)/3'
_refine_ls_weighting_scheme      calc
_refine_ls_wR_factor_gt          0.1078
_refine_ls_wR_factor_ref         0.1218
_reflns_Friedel_coverage         0.000
_reflns_number_gt                2059
_reflns_number_total             2579
_reflns_threshold_expression     'I > 2\s(I)'
_cod_data_source_file            c8gc01766b3.cif
_cod_data_source_block           170308_cc20170308
_cod_depositor_comments          'Adding full bibliography for 7231208.cif.'
_cod_database_code               7231208
_shelx_shelxl_version_number     2016/6
_chemical_oxdiff_formula         'c10 h10 n2 o8 s1'
_shelx_space_group_comment
;
The symmetry employed for this shelxl refinement is uniquely defined
by the following loop, which should always be used as a source of
symmetry information in preference to the above space-group names.
They are only intended as comments.
;
_shelx_estimated_absorpt_t_max   0.941
_shelx_estimated_absorpt_t_min   0.911
_reflns_odcompleteness_completeness 99.58
_reflns_odcompleteness_iscentric 1
_reflns_odcompleteness_theta     26.32
_olex2_refinement_description
;
1. Fixed Uiso
 At 1.2 times of:
  All C(H) groups, All C(H,H) groups, All N(H) groups
 At 1.5 times of:
  All C(H,H,H) groups
2.a Secondary CH2 refined with riding coordinates:
 C8(H8A,H8B)
2.b Aromatic/amide H refined with riding coordinates:
 N2(H2), C1(H1), C2(H2A), C3(H3), C4(H4), C12(H12), C13(H13), C14(H14), C16(H16)
2.c Idealised Me refined as rotating group:
 C17(H17A,H17B,H17C)
;
_shelx_res_file
;
TITL 170308_cc20170308 in P-1 #2
    170308_cc20170308.res
    created by SHELXL-2016/6 at 16:11:38 on 08-Mar-2017
REM reset to P-1 #2
CELL 0.71073 8.41806 9.14334 10.46877 74.0134 72.64 69.4436
ZERR 2 0.00096 0.00069 0.00093 0.0072 0.009 0.0087
LATT 1
SFAC C H N O S
UNIT 34 28 4 4 2

L.S. 4
PLAN  20
SIZE 0.4 0.38 0.26
TEMP -103.15
BOND $h
htab
fmap 2
acta
SHEL 999 0.83
REM <olex2.extras>
REM <HklSrc "%.\\170308_cc20170308.hkl">
REM </olex2.extras>

WGHT    0.049200    0.168200
FVAR       7.07553
S1    5    0.428359    0.091866    0.680311    11.00000    0.02821    0.03069 =
         0.02729   -0.00876    0.00125   -0.01514
O1    4    0.904379    0.364684    0.469037    11.00000    0.02396    0.02824 =
         0.04097   -0.00633   -0.00828   -0.01134
O2    4    1.148211   -0.204016    0.076531    11.00000    0.03819    0.06048 =
         0.03639   -0.02476    0.00004   -0.00371
N1    3    0.669534    0.259788    0.586672    11.00000    0.02112    0.02447 =
         0.02417   -0.00723   -0.00354   -0.00759
N2    3    0.720980    0.071178    0.480520    11.00000    0.02504    0.02124 =
         0.02432   -0.00739   -0.00214   -0.00751
AFIX  43
H2    2    0.713525   -0.011594    0.457829    11.00000   -1.20000
AFIX   0
C1    1    0.482167    0.366295    0.792001    11.00000    0.03814    0.02973 =
         0.02757   -0.00781   -0.01031   -0.00956
AFIX  43
H1    2    0.449750    0.271149    0.830960    11.00000   -1.20000
AFIX   0
C2    1    0.414452    0.493589    0.859361    11.00000    0.04322    0.03871 =
         0.03010   -0.01411   -0.00538   -0.00832
AFIX  43
H2A   2    0.333851    0.485952    0.944836    11.00000   -1.20000
AFIX   0
C3    1    0.462797    0.631021    0.803673    11.00000    0.05475    0.03299 =
         0.04078   -0.01656   -0.01583   -0.00609
AFIX  43
H3    2    0.412543    0.718845    0.849168    11.00000   -1.20000
AFIX   0
C4    1    0.583843    0.641028    0.682189    11.00000    0.04415    0.02579 =
         0.04268   -0.00615   -0.01897   -0.01136
AFIX  43
H4    2    0.620786    0.734132    0.646363    11.00000   -1.20000
AFIX   0
C5    1    0.652593    0.516441    0.611379    11.00000    0.02768    0.02487 =
         0.03083   -0.00485   -0.01537   -0.00552
C6    1    0.597319    0.380545    0.667529    11.00000    0.02377    0.02407 =
         0.02746   -0.00656   -0.01148   -0.00407
C7    1    0.817295    0.260668    0.482566    11.00000    0.02134    0.02703 =
         0.02679   -0.00146   -0.00804   -0.00992
C8    1    0.782162    0.522509    0.478595    11.00000    0.03174    0.02420 =
         0.04230   -0.00293   -0.01349   -0.01204
AFIX  23
H8A   2    0.721314    0.560502    0.402705    11.00000   -1.20000
H8B   2    0.846188    0.598093    0.470991    11.00000   -1.20000
AFIX   0
C9    1    0.607420    0.140804    0.583350    11.00000    0.02446    0.02055 =
         0.02227   -0.00253   -0.00644   -0.00570
C10   1    0.851840    0.144383    0.413749    11.00000    0.02202    0.02668 =
         0.02327   -0.00094   -0.00462   -0.00770
C11   1    0.987601    0.096010    0.295511    11.00000    0.02090    0.03356 =
         0.02256   -0.00038   -0.00605   -0.00528
C12   1    1.106328    0.181565    0.230942    11.00000    0.03358    0.03902 =
         0.03325   -0.00167   -0.00201   -0.01216
AFIX  43
H12   2    1.100332    0.270840    0.263796    11.00000   -1.20000
AFIX   0
C13   1    1.233818    0.135954    0.118141    11.00000    0.03048    0.05004 =
         0.03753    0.00385    0.00565   -0.01448
AFIX  43
H13   2    1.315313    0.194528    0.074457    11.00000   -1.20000
AFIX   0
C14   1    1.244779    0.008227    0.068333    11.00000    0.03070    0.05500 =
         0.02578   -0.00265    0.00349   -0.00249
AFIX  43
H14   2    1.332297   -0.021037   -0.009555    11.00000   -1.20000
AFIX   0
C15   1    1.126961   -0.077578    0.132769    11.00000    0.02836    0.04243 =
         0.02550   -0.00724   -0.00832    0.00057
C16   1    0.999535   -0.035601    0.246881    11.00000    0.02252    0.03612 =
         0.02501   -0.00550   -0.00405   -0.00547
AFIX  43
H16   2    0.920553   -0.096511    0.291777    11.00000   -1.20000
AFIX   0
C17   1    1.039049   -0.303289    0.143484    11.00000    0.03994    0.05591 =
         0.05072   -0.03176   -0.00390   -0.00566
AFIX 137
H17A  2    1.064033   -0.385246    0.090617    11.00000   -1.50000
H17B  2    0.916926   -0.239088    0.151455    11.00000   -1.50000
H17C  2    1.060740   -0.354143    0.234652    11.00000   -1.50000
AFIX   0
HKLF 4




REM  170308_cc20170308 in P-1 #2
REM R1 =  0.0480 for    2059 Fo > 4sig(Fo)  and  0.0622 for all    2579 data
REM    200 parameters refined using      0 restraints

END

WGHT      0.0492      0.1682

REM Instructions for potential hydrogen bonds
EQIV $1 -x+1, -y, -z+1
HTAB N2 S1_$1
HTAB C1 S1
EQIV $2 -x+1, -y+1, -z+1
HTAB C8 S1_$2
EQIV $3 -x+2, -y+1, -z+1
HTAB C8 O1_$3
HTAB C16 S1_$1
HTAB C17 S1_$1

REM Highest difference peak  0.228,  deepest hole -0.353,  1-sigma level  0.071
Q1    1   0.3175  0.1483  0.6332  11.00000  0.05    0.23
Q2    1   0.6527  0.0306  0.4313  11.00000  0.05    0.21
Q3    1   0.8941  0.1407  0.4812  11.00000  0.05    0.21
Q4    1   0.8967 -0.0318  0.5048  11.00000  0.05    0.21
Q5    1   1.1213  0.0223  0.3729  11.00000  0.05    0.21
Q6    1   0.3190  0.5241  1.0795  11.00000  0.05    0.21
Q7    1   0.8229  0.0624  0.5716  11.00000  0.05    0.20
Q8    1   0.5534  0.0871  0.6474  11.00000  0.05    0.20
Q9    1   0.6090  0.3969  0.8596  11.00000  0.05    0.19
Q10   1   0.9227 -0.0825  0.0363  11.00000  0.05    0.19
Q11   1   0.3105  0.0531  0.7431  11.00000  0.05    0.19
Q12   1   0.7188  0.3505  0.7755  11.00000  0.05    0.19
Q13   1   0.7469  0.7841  0.5051  11.00000  0.05    0.19
Q14   1   0.5033  0.6156  0.5357  11.00000  0.05    0.19
Q15   1   0.4951  0.2987  0.9614  11.00000  0.05    0.19
Q16   1   0.3379  0.7115  0.7193  11.00000  0.05    0.19
Q17   1   1.3405 -0.0346  0.2406  11.00000  0.05    0.19
Q18   1   0.3436  0.6191  0.6998  11.00000  0.05    0.19
Q19   1   0.1580  0.7767  0.8560  11.00000  0.05    0.19
Q20   1   0.5515  0.0386  0.7375  11.00000  0.05    0.18
;
_shelx_res_checksum              63385
_olex2_submission_special_instructions 'No special instructions were received'
loop_
_space_group_symop_operation_xyz
'x, y, z'
'-x, -y, -z'
loop_
_atom_site_label
_atom_site_type_symbol
_atom_site_fract_x
_atom_site_fract_y
_atom_site_fract_z
_atom_site_U_iso_or_equiv
_atom_site_adp_type
_atom_site_occupancy
_atom_site_site_symmetry_order
_atom_site_calc_flag
_atom_site_refinement_flags_posn
S1 S 0.42836(8) 0.09187(6) 0.68031(6) 0.0280(2) Uani 1 1 d .
O1 O 0.9044(2) 0.36468(17) 0.46904(17) 0.0299(4) Uani 1 1 d .
O2 O 1.1482(2) -0.2040(2) 0.07653(19) 0.0467(5) Uani 1 1 d .
N1 N 0.6695(2) 0.2598(2) 0.58667(18) 0.0228(4) Uani 1 1 d .
N2 N 0.7210(2) 0.0712(2) 0.48052(18) 0.0235(4) Uani 1 1 d .
H2 H 0.713525 -0.011594 0.457829 0.028 Uiso 1 1 calc R
C1 C 0.4822(3) 0.3663(3) 0.7920(2) 0.0307(6) Uani 1 1 d .
H1 H 0.449750 0.271149 0.830960 0.037 Uiso 1 1 calc R
C2 C 0.4145(4) 0.4936(3) 0.8594(3) 0.0374(6) Uani 1 1 d .
H2A H 0.333851 0.485952 0.944836 0.045 Uiso 1 1 calc R
C3 C 0.4628(4) 0.6310(3) 0.8037(3) 0.0415(7) Uani 1 1 d .
H3 H 0.412543 0.718845 0.849168 0.050 Uiso 1 1 calc R
C4 C 0.5838(3) 0.6410(3) 0.6822(3) 0.0352(6) Uani 1 1 d .
H4 H 0.620786 0.734132 0.646363 0.042 Uiso 1 1 calc R
C5 C 0.6526(3) 0.5164(3) 0.6114(2) 0.0265(5) Uani 1 1 d .
C6 C 0.5973(3) 0.3805(2) 0.6675(2) 0.0242(5) Uani 1 1 d .
C7 C 0.8173(3) 0.2607(3) 0.4826(2) 0.0244(5) Uani 1 1 d .
C8 C 0.7822(3) 0.5225(3) 0.4786(3) 0.0312(6) Uani 1 1 d .
H8A H 0.721314 0.560502 0.402705 0.037 Uiso 1 1 calc R
H8B H 0.846188 0.598093 0.470991 0.037 Uiso 1 1 calc R
C9 C 0.6074(3) 0.1408(2) 0.5834(2) 0.0227(5) Uani 1 1 d .
C10 C 0.8518(3) 0.1444(3) 0.4137(2) 0.0248(5) Uani 1 1 d .
C11 C 0.9876(3) 0.0960(3) 0.2955(2) 0.0272(5) Uani 1 1 d .
C12 C 1.1063(3) 0.1816(3) 0.2309(3) 0.0373(6) Uani 1 1 d .
H12 H 1.100332 0.270840 0.263796 0.045 Uiso 1 1 calc R
C13 C 1.2338(4) 0.1360(3) 0.1181(3) 0.0443(7) Uani 1 1 d .
H13 H 1.315313 0.194528 0.074457 0.053 Uiso 1 1 calc R
C14 C 1.2448(4) 0.0082(3) 0.0683(3) 0.0433(7) Uani 1 1 d .
H14 H 1.332297 -0.021037 -0.009555 0.052 Uiso 1 1 calc R
C15 C 1.1270(3) -0.0776(3) 0.1328(2) 0.0345(6) Uani 1 1 d .
C16 C 0.9995(3) -0.0356(3) 0.2469(2) 0.0291(6) Uani 1 1 d .
H16 H 0.920553 -0.096511 0.291777 0.035 Uiso 1 1 calc R
C17 C 1.0390(4) -0.3033(3) 0.1435(3) 0.0481(8) Uani 1 1 d .
H17A H 1.064033 -0.385246 0.090617 0.072 Uiso 1 1 calc GR
H17B H 0.916926 -0.239088 0.151455 0.072 Uiso 1 1 calc GR
H17C H 1.060740 -0.354143 0.234652 0.072 Uiso 1 1 calc GR
loop_
_atom_site_aniso_label
_atom_site_aniso_U_11
_atom_site_aniso_U_22
_atom_site_aniso_U_33
_atom_site_aniso_U_23
_atom_site_aniso_U_13
_atom_site_aniso_U_12
S1 0.0282(4) 0.0307(3) 0.0273(4) -0.0088(3) 0.0013(3) -0.0151(3)
O1 0.0240(9) 0.0282(8) 0.0410(10) -0.0063(7) -0.0083(8) -0.0113(7)
O2 0.0382(12) 0.0605(12) 0.0364(11) -0.0248(9) 0.0000(9) -0.0037(9)
N1 0.0211(11) 0.0245(9) 0.0242(11) -0.0072(8) -0.0035(8) -0.0076(8)
N2 0.0250(11) 0.0212(9) 0.0243(11) -0.0074(8) -0.0021(8) -0.0075(8)
C1 0.0381(15) 0.0297(12) 0.0276(14) -0.0078(11) -0.0103(11) -0.0096(11)
C2 0.0432(17) 0.0387(14) 0.0301(14) -0.0141(12) -0.0054(12) -0.0083(12)
C3 0.0548(19) 0.0330(14) 0.0408(16) -0.0166(12) -0.0158(14) -0.0061(13)
C4 0.0442(17) 0.0258(12) 0.0427(16) -0.0062(11) -0.0190(13) -0.0114(11)
C5 0.0277(13) 0.0249(12) 0.0308(14) -0.0049(10) -0.0154(11) -0.0055(10)
C6 0.0238(13) 0.0241(11) 0.0275(13) -0.0066(10) -0.0115(10) -0.0041(10)
C7 0.0213(13) 0.0270(12) 0.0268(13) -0.0015(10) -0.0080(10) -0.0099(10)
C8 0.0317(14) 0.0242(12) 0.0423(16) -0.0029(11) -0.0135(12) -0.0120(10)
C9 0.0245(13) 0.0206(11) 0.0223(12) -0.0025(9) -0.0064(10) -0.0057(9)
C10 0.0220(13) 0.0267(12) 0.0233(12) -0.0009(10) -0.0046(10) -0.0077(10)
C11 0.0209(13) 0.0336(12) 0.0226(13) -0.0004(10) -0.0060(10) -0.0053(10)
C12 0.0336(16) 0.0390(14) 0.0333(15) -0.0017(12) -0.0020(12) -0.0122(12)
C13 0.0305(16) 0.0500(16) 0.0375(16) 0.0038(13) 0.0057(13) -0.0145(13)
C14 0.0307(16) 0.0550(17) 0.0258(14) -0.0026(13) 0.0035(12) -0.0025(13)
C15 0.0284(14) 0.0424(14) 0.0255(14) -0.0072(12) -0.0083(11) 0.0006(11)
C16 0.0225(13) 0.0361(13) 0.0250(13) -0.0055(11) -0.0041(10) -0.0055(10)
C17 0.0399(18) 0.0559(17) 0.0507(19) -0.0318(15) -0.0039(14) -0.0057(14)
loop_
_atom_type_symbol
_atom_type_description
_atom_type_scat_dispersion_real
_atom_type_scat_dispersion_imag
_atom_type_scat_source
C C 0.0033 0.0016 'International Tables Vol C Tables 4.2.6.8 and 6.1.1.4'
H H 0.0000 0.0000 'International Tables Vol C Tables 4.2.6.8 and 6.1.1.4'
N N 0.0061 0.0033 'International Tables Vol C Tables 4.2.6.8 and 6.1.1.4'
O O 0.0106 0.0060 'International Tables Vol C Tables 4.2.6.8 and 6.1.1.4'
S S 0.1246 0.1234 'International Tables Vol C Tables 4.2.6.8 and 6.1.1.4'
loop_
_geom_angle_atom_site_label_1
_geom_angle_atom_site_label_2
_geom_angle_atom_site_label_3
_geom_angle
C7 O1 C8 109.85(17)
C15 O2 C17 117.93(19)
C7 N1 C6 120.50(17)
C9 N1 C6 130.41(19)
C9 N1 C7 108.77(17)
C9 N2 H2 123.6
C9 N2 C10 112.79(18)
C10 N2 H2 123.6
C2 C1 H1 120.7
C6 C1 H1 120.7
C6 C1 C2 118.7(2)
C1 C2 H2A 119.6
C3 C2 C1 120.7(2)
C3 C2 H2A 119.6
C2 C3 H3 120.0
C4 C3 C2 120.0(2)
C4 C3 H3 120.0
C3 C4 H4 119.7
C3 C4 C5 120.7(2)
C5 C4 H4 119.7
C4 C5 C6 118.3(2)
C4 C5 C8 122.7(2)
C6 C5 C8 119.05(19)
C1 C6 N1 123.47(19)
C1 C6 C5 121.5(2)
C5 C6 N1 115.0(2)
O1 C7 N1 119.26(19)
C10 C7 O1 131.0(2)
C10 C7 N1 109.70(19)
O1 C8 C5 109.92(18)
O1 C8 H8A 109.7
O1 C8 H8B 109.7
C5 C8 H8A 109.7
C5 C8 H8B 109.7
H8A C8 H8B 108.2
N1 C9 S1 129.13(16)
N2 C9 S1 126.19(17)
N2 C9 N1 104.66(19)
N2 C10 C11 123.9(2)
C7 C10 N2 104.04(18)
C7 C10 C11 132.1(2)
C12 C11 C10 119.8(2)
C12 C11 C16 119.4(2)
C16 C11 C10 120.7(2)
C11 C12 H12 120.2
C13 C12 C11 119.5(3)
C13 C12 H12 120.2
C12 C13 H13 119.3
C14 C13 C12 121.4(3)
C14 C13 H13 119.3
C13 C14 H14 120.4
C13 C14 C15 119.2(2)
C15 C14 H14 120.4
O2 C15 C14 115.2(2)
O2 C15 C16 124.2(2)
C14 C15 C16 120.5(2)
C11 C16 H16 120.1
C15 C16 C11 119.9(2)
C15 C16 H16 120.1
O2 C17 H17A 109.5
O2 C17 H17B 109.5
O2 C17 H17C 109.5
H17A C17 H17B 109.5
H17A C17 H17C 109.5
H17B C17 H17C 109.5
loop_
_geom_bond_atom_site_label_1
_geom_bond_atom_site_label_2
_geom_bond_distance
S1 C9 1.677(2)
O1 C7 1.347(3)
O1 C8 1.458(3)
O2 C15 1.372(3)
O2 C17 1.418(3)
N1 C6 1.429(3)
N1 C7 1.389(3)
N1 C9 1.375(3)
N2 H2 0.8800
N2 C9 1.347(3)
N2 C10 1.397(3)
C1 H1 0.9500
C1 C2 1.387(3)
C1 C6 1.377(3)
C2 H2A 0.9500
C2 C3 1.378(4)
C3 H3 0.9500
C3 C4 1.376(4)
C4 H4 0.9500
C4 C5 1.389(3)
C5 C6 1.395(3)
C5 C8 1.490(3)
C7 C10 1.347(3)
C8 H8A 0.9900
C8 H8B 0.9900
C10 C11 1.462(3)
C11 C12 1.387(3)
C11 C16 1.393(3)
C12 H12 0.9500
C12 C13 1.386(4)
C13 H13 0.9500
C13 C14 1.369(4)
C14 H14 0.9500
C14 C15 1.382(4)
C15 C16 1.387(3)
C16 H16 0.9500
C17 H17A 0.9800
C17 H17B 0.9800
C17 H17C 0.9800
