#------------------------------------------------------------------------------
#$Date: 2019-11-17 15:32:33 +0200 (Sun, 17 Nov 2019) $
#$Revision: 230902 $
#$URL: file:///home/coder/svn-repositories/cod/cif/7/23/14/7231418.cif $
#------------------------------------------------------------------------------
#
# This file is available in the Crystallography Open Database (COD),
# http://www.crystallography.net/
#
# All data on this site have been placed in the public domain by the
# contributors.
#
data_7231418
loop_
_publ_author_name
'Collings, Ines E.'
'Manna, Rudra Sekhar'
'Tsirlin, Alexander A.'
'Bykov, Maxim'
'Bykova, Elena'
'Hanfland, Michael'
'Gegenwart, Philipp'
'van Smaalen, Sander'
'Dubrovinsky, Leonid'
'Dubrovinskaia, Natalia'
_publ_section_title
;
 Pressure dependence of spin canting in ammonium metal formate
 antiferromagnets.
;
_journal_issue                   37
_journal_name_full               'Physical chemistry chemical physics : PCCP'
_journal_page_first              24465
_journal_page_last               24476
_journal_paper_doi               10.1039/c8cp03761b
_journal_volume                  20
_journal_year                    2018
_chemical_formula_moiety         'C3 H3 Ni O6, N H4'
_chemical_formula_sum            'C3 H7 N Ni O6'
_chemical_formula_weight         211.81
_space_group_crystal_system      hexagonal
_space_group_IT_number           182
_space_group_name_Hall           'P 6c 2c'
_space_group_name_H-M_alt        'P 63 2 2'
_symmetry_space_group_name_Hall  'P 6c 2c'
_symmetry_space_group_name_H-M   'P 63 2 2'
_atom_sites_solution_hydrogens   mixed
_audit_creation_method           SHELXL-2016/6
_audit_update_record
;
2018-08-09 deposited with the CCDC.
2018-08-22 downloaded from the CCDC.
;
_cell_angle_alpha                90
_cell_angle_beta                 90
_cell_angle_gamma                120
_cell_formula_units_Z            2
_cell_length_a                   7.24917(9)
_cell_length_b                   7.24917(9)
_cell_length_c                   8.04612(12)
_cell_measurement_reflns_used    334
_cell_measurement_temperature    293(2)
_cell_measurement_theta_max      18.8010
_cell_measurement_theta_min      1.8750
_cell_volume                     366.179(8)
_computing_cell_refinement       'CrysAlisPro (Agilent Technologies, 2013)'
_computing_data_reduction        'CrysAlisPro (Agilent Technologies, 2013)'
_computing_molecular_graphics    'SHELXLE-2011 (Huebschle, 2011)'
_computing_structure_refinement  'SHELXL-2016/6 (Sheldrick, 2016)'
_computing_structure_solution    'SHELXT-2015 (Sheldrick, 2015)'
_diffrn_ambient_pressure         '0.29 GPa'
_diffrn_ambient_temperature      293(2)
_diffrn_detector_area_resol_mean 7
_diffrn_measured_fraction_theta_full 0.939
_diffrn_measured_fraction_theta_max 0.728
_diffrn_measurement_device_type  'ID15B beamline, ESRF'
_diffrn_measurement_method       'omega scans'
_diffrn_radiation_type           synchrotron
_diffrn_radiation_wavelength     0.41128
_diffrn_reflns_av_R_equivalents  0.0336
_diffrn_reflns_av_unetI/netI     0.0337
_diffrn_reflns_Laue_measured_fraction_full 0.939
_diffrn_reflns_Laue_measured_fraction_max 0.728
_diffrn_reflns_limit_h_max       9
_diffrn_reflns_limit_h_min       -6
_diffrn_reflns_limit_k_max       7
_diffrn_reflns_limit_k_min       -8
_diffrn_reflns_limit_l_max       11
_diffrn_reflns_limit_l_min       -12
_diffrn_reflns_number            1068
_diffrn_reflns_point_group_measured_fraction_full 0.956
_diffrn_reflns_point_group_measured_fraction_max 0.672
_diffrn_reflns_theta_full        14.286
_diffrn_reflns_theta_max         20.061
_diffrn_reflns_theta_min         1.877
_diffrn_source                   synchrotron
_exptl_absorpt_coefficient_mu    0.588
_exptl_absorpt_correction_T_max  1.00000
_exptl_absorpt_correction_T_min  0.61786
_exptl_absorpt_correction_type   multi-scan
_exptl_absorpt_process_details
;
CrysAlisPro 1.171.38.43 (Rigaku Oxford Diffraction, 2015)
Empirical absorption correction using spherical harmonics,
 implemented in SCALE3 ABSPACK scaling algorithm.
;
_exptl_crystal_colour            green
_exptl_crystal_density_diffrn    1.921
_exptl_crystal_description       'hexagonal bipyramid'
_exptl_crystal_F_000             216
_exptl_crystal_size_max          0.075
_exptl_crystal_size_mid          0.060
_exptl_crystal_size_min          0.050
_refine_diff_density_max         0.321
_refine_diff_density_min         -0.282
_refine_diff_density_rms         0.064
_refine_ls_abs_structure_details
;
 Flack x determined using 101 quotients [(I+)-(I-)]/[(I+)+(I-)]
 (Parsons, Flack and Wagner, Acta Cryst. B69 (2013) 249-259).
;
_refine_ls_abs_structure_Flack   0.00(7)
_refine_ls_extinction_method     none
_refine_ls_goodness_of_fit_ref   1.221
_refine_ls_hydrogen_treatment    mixed
_refine_ls_matrix_type           full
_refine_ls_number_parameters     22
_refine_ls_number_reflns         403
_refine_ls_number_restraints     1
_refine_ls_restrained_S_all      1.220
_refine_ls_R_factor_all          0.0299
_refine_ls_R_factor_gt           0.0249
_refine_ls_shift/su_max          0.000
_refine_ls_shift/su_mean         0.000
_refine_ls_structure_factor_coef Fsqd
_refine_ls_weighting_details
'w=1/[\s^2^(Fo^2^)+(0.0162P)^2^+0.1633P] where P=(Fo^2^+2Fc^2^)/3'
_refine_ls_weighting_scheme      calc
_refine_ls_wR_factor_gt          0.0556
_refine_ls_wR_factor_ref         0.0628
_reflns_Friedel_coverage         0.388
_reflns_Friedel_fraction_full    1.000
_reflns_Friedel_fraction_max     0.562
_reflns_number_gt                374
_reflns_number_total             404
_reflns_threshold_expression     'I > 2\s(I)'
_cod_data_source_file            c8cp03761b2.cif
_cod_data_source_block           ANiF_c2_p02
_cod_depositor_comments
'Adding full bibliography for 7231402--7231432.cif.'
_cod_original_cell_volume        366.179(11)
_cod_database_code               7231418
_shelx_shelxl_version_number     2016/6
_shelx_space_group_comment
;
The symmetry employed for this shelxl refinement is uniquely defined
by the following loop, which should always be used as a source of
symmetry information in preference to the above space-group names.
They are only intended as comments.
;
_shelx_res_file
;
TITL ANiF_c2_p02_s in P6(3)22
    ANiF_c2_p02_s.res
    created by SHELXL-2016/6 at 13:30:42 on 06-Aug-2018
REM P6(3)22 (#182 in standard setting)
CELL 0.41128   7.249166   7.249166   8.046122  90.0000  90.0000 120.0000
ZERR    2.00   0.000092   0.000092   0.000118   0.0000   0.0000   0.0000
LATT -1
SYMM -y, x-y, z
SYMM -x+y,-x, z
SYMM -x,-y, z+1/2
SYMM  y,-x+y, z+1/2
SYMM  x-y, x, z+1/2
SYMM  y, x,-z
SYMM  x-y,-y,-z
SYMM -x,-x+y,-z
SYMM -y,-x,-z+1/2
SYMM -x+y, y,-z+1/2
SYMM  x, x-y,-z+1/2
SFAC C H N O Ni
DISP $C -0.00005  0.00048  5.14312!source kissel
DISP $H -0.00003  0.00000  0.64132!source kissel
DISP $N  0.00062  0.00099  7.19459!source kissel
DISP $O  0.00180  0.00183 10.16238!source kissel
DISP $Ni  0.23093  0.40937 987.78852!source kissel
UNIT 6.00 14.00 2.00 12.00 2.00

OMIT -3 10 4
OMIT 0 1 1
LIST 4 ! automatically inserted. Change 6 to 4 for CHECKCIF!!
L.S. 10
ACTA
BOND
FMAP 2
PLAN 20
WGHT    0.016200    0.163300
FVAR       9.31005
MOLE   1
NI1   5    0.333333    0.666667    0.250000    10.16667    0.02154    0.02154 =
         0.01408    0.00000    0.00000    0.01077
O1    4    0.309312    0.888765    0.106330    11.00000    0.03470    0.03081 =
         0.02784    0.01079    0.00794    0.01785
C1    1    0.441988    1.000000    0.000000    10.50000    0.02783    0.03897 =
         0.03912    0.01814    0.00907    0.01948
AFIX  43
H1    2    0.570278    1.000000    0.000000    10.50000   -1.20000
MOLE   2
REM #####
AFIX   0
N1    3    0.000000    1.000000    0.250000    10.16667    0.03793    0.03793 =
         0.10503    0.00000    0.00000    0.01896
DFIX 0.9 0.1 N1 H2
H2    2    0.092357    1.121592    0.308368    10.66667   -1.20000
HKLF 4




REM  ANiF_c2_p02_s in P6(3)22
REM R1 =  0.0249 for     373 Fo > 4sig(Fo)  and  0.0299 for all     403 data
REM     22 parameters refined using      0 restraints

END

WGHT      0.0163      0.1627

REM Highest difference peak  0.321,  deepest hole -0.282,  1-sigma level  0.064
Q1    1   0.2767  0.7659  0.1756  11.00000  0.05    0.24
Q2    1   0.2834  1.0000  0.0000  10.50000  0.05    0.21
Q3    1   0.1459  0.7915 -0.0112  11.00000  0.05    0.19
Q4    1   0.1965  1.0632  0.3877  11.00000  0.05    0.18
Q5    1   0.4377  0.8753  0.2500  10.50000  0.05    0.18
Q6    1   0.7635  1.2046  0.0991  11.00000  0.05    0.17
Q7    1   0.1196  1.0598  0.2500  10.50000  0.05    0.17
Q8    1   0.1643  0.8876  0.0252  11.00000  0.05    0.17
Q9    1   0.2282  0.9401  0.0994  11.00000  0.05    0.16
Q10   1   0.2886  0.7256  0.0822  11.00000  0.05    0.16
Q11   1   0.6854  1.1282  0.1083  11.00000  0.05    0.16
Q12   1   0.5354  1.0684  0.1623  11.00000  0.05    0.16
Q13   1   0.7699  1.0000  0.0000  10.50000  0.05    0.15
Q14   1   0.1315  1.2629  0.2500  10.50000  0.05    0.15
Q15   1   0.3412  0.9579  0.0950  11.00000  0.05    0.15
Q16   1   0.4019  0.8374  0.1724  11.00000  0.05    0.15
Q17   1   0.4899  0.9797  0.2500  10.50000  0.05    0.15
Q18   1   0.2000  0.8000  0.2500  10.50000  0.05    0.14
Q19   1   0.3921  0.9268  0.1307  11.00000  0.05    0.14
Q20   1   0.2431  1.1519  0.4642  11.00000  0.05    0.14
;
_shelx_res_checksum              6245
loop_
_space_group_symop_operation_xyz
'x, y, z'
'-y, x-y, z'
'-x+y, -x, z'
'-x, -y, z+1/2'
'y, -x+y, z+1/2'
'x-y, x, z+1/2'
'y, x, -z'
'x-y, -y, -z'
'-x, -x+y, -z'
'-y, -x, -z+1/2'
'-x+y, y, -z+1/2'
'x, x-y, -z+1/2'
loop_
_atom_site_label
_atom_site_type_symbol
_atom_site_fract_x
_atom_site_fract_y
_atom_site_fract_z
_atom_site_U_iso_or_equiv
_atom_site_adp_type
_atom_site_occupancy
_atom_site_site_symmetry_order
_atom_site_calc_flag
_atom_site_refinement_flags_posn
_atom_site_refinement_flags_adp
_atom_site_refinement_flags_occupancy
Ni1 Ni 0.333333 0.666667 0.250000 0.01905(19) Uani 1 6 d S T P
O1 O 0.3093(3) 0.8888(3) 0.1063(2) 0.0305(4) Uani 1 1 d . . .
C1 C 0.4420(5) 1.000000 0.000000 0.0341(9) Uani 1 2 d S T P
H1 H 0.570278 1.000000 0.000000 0.041 Uiso 1 2 calc R U P
N1 N 0.000000 1.000000 0.250000 0.060(2) Uani 1 6 d DS T P
H2 H 0.092(11) 1.122(7) 0.308(7) 0.072 Uiso 0.6667 1 d D U P
loop_
_atom_site_aniso_label
_atom_site_aniso_U_11
_atom_site_aniso_U_22
_atom_site_aniso_U_33
_atom_site_aniso_U_23
_atom_site_aniso_U_13
_atom_site_aniso_U_12
Ni1 0.0215(2) 0.0215(2) 0.0141(3) 0.000 0.000 0.01077(12)
O1 0.0347(10) 0.0308(9) 0.0278(10) 0.0108(8) 0.0079(8) 0.0179(8)
C1 0.0278(12) 0.0390(19) 0.039(2) 0.0181(18) 0.0091(9) 0.0195(10)
N1 0.038(2) 0.038(2) 0.105(7) 0.000 0.000 0.0190(10)
loop_
_atom_type_symbol
_atom_type_description
_atom_type_scat_dispersion_real
_atom_type_scat_dispersion_imag
_atom_type_scat_source
C C -0.0001 0.0005 'International Tables Vol C Tables 4.2.6.8 and 6.1.1.4'
H H 0.0000 0.0000 'International Tables Vol C Tables 4.2.6.8 and 6.1.1.4'
N N 0.0006 0.0010 'International Tables Vol C Tables 4.2.6.8 and 6.1.1.4'
O O 0.0018 0.0018 'International Tables Vol C Tables 4.2.6.8 and 6.1.1.4'
Ni Ni 0.2309 0.4094 'International Tables Vol C Tables 4.2.6.8 and 6.1.1.4'
loop_
_geom_angle_atom_site_label_1
_geom_angle_atom_site_label_2
_geom_angle_atom_site_label_3
_geom_angle
_geom_angle_site_symmetry_1
_geom_angle_site_symmetry_3
O1 Ni1 O1 94.75(11) 10_665 2_665
O1 Ni1 O1 91.56(8) 10_665 11
O1 Ni1 O1 171.60(11) 2_665 11
O1 Ni1 O1 91.56(8) 10_665 12_565
O1 Ni1 O1 82.74(11) 2_665 12_565
O1 Ni1 O1 91.56(8) 11 12_565
O1 Ni1 O1 171.60(11) 10_665 3_565
O1 Ni1 O1 91.56(8) 2_665 3_565
O1 Ni1 O1 82.74(11) 11 3_565
O1 Ni1 O1 94.75(11) 12_565 3_565
O1 Ni1 O1 82.74(11) 10_665 .
O1 Ni1 O1 91.56(8) 2_665 .
O1 Ni1 O1 94.75(11) 11 .
O1 Ni1 O1 171.60(11) 12_565 .
O1 Ni1 O1 91.56(8) 3_565 .
C1 O1 Ni1 123.75(19) . .
O1 C1 O1 126.3(3) . 8_675
loop_
_geom_bond_atom_site_label_1
_geom_bond_atom_site_label_2
_geom_bond_distance
_geom_bond_site_symmetry_2
Ni1 O1 2.0589(18) 10_665
Ni1 O1 2.0589(18) 2_665
Ni1 O1 2.0589(18) 11
Ni1 O1 2.0589(18) 12_565
Ni1 O1 2.0589(18) 3_565
Ni1 O1 2.0589(18) .
O1 C1 1.238(2) .
