#------------------------------------------------------------------------------
#$Date: 2019-11-17 15:32:33 +0200 (Sun, 17 Nov 2019) $
#$Revision: 230902 $
#$URL: file:///home/coder/svn-repositories/cod/cif/7/23/14/7231425.cif $
#------------------------------------------------------------------------------
#
# This file is available in the Crystallography Open Database (COD),
# http://www.crystallography.net/
#
# All data on this site have been placed in the public domain by the
# contributors.
#
data_7231425
loop_
_publ_author_name
'Collings, Ines E.'
'Manna, Rudra Sekhar'
'Tsirlin, Alexander A.'
'Bykov, Maxim'
'Bykova, Elena'
'Hanfland, Michael'
'Gegenwart, Philipp'
'van Smaalen, Sander'
'Dubrovinsky, Leonid'
'Dubrovinskaia, Natalia'
_publ_section_title
;
 Pressure dependence of spin canting in ammonium metal formate
 antiferromagnets.
;
_journal_issue                   37
_journal_name_full               'Physical chemistry chemical physics : PCCP'
_journal_page_first              24465
_journal_page_last               24476
_journal_paper_doi               10.1039/c8cp03761b
_journal_volume                  20
_journal_year                    2018
_chemical_formula_moiety         'C3 H3 Mn O6, N H4'
_chemical_formula_sum            'C3 H7 Mn N O6'
_chemical_formula_weight         208
_space_group_IT_number           4
_space_group_name_Hall           'P 2yb'
_space_group_name_H-M_alt        'P 1 21 1'
_symmetry_cell_setting           monoclinic
_symmetry_Int_Tables_number      4
_symmetry_space_group_name_Hall  'P 2yb'
_symmetry_space_group_name_H-M   'P 1 21 1'
_audit_creation_method           'Jana2006 Version : 25/10/2015'
_audit_update_record
;
2018-08-09 deposited with the CCDC.
2018-08-22 downloaded from the CCDC.
;
_cell_angle_alpha                90
_cell_angle_beta                 116.87(5)
_cell_angle_gamma                90
_cell_formula_units_Z            2
_cell_length_a                   6.741(3)
_cell_length_b                   8.486(3)
_cell_length_c                   7.440(3)
_cell_measurement_reflns_used    174
_cell_measurement_temperature    293
_cell_measurement_theta_max      13.03
_cell_measurement_theta_min      1.78
_cell_volume                     379.6(3)
_computing_cell_refinement       'CrysAlisPro 1.171.38.46 (Rigaku OD, 2015)'
_computing_data_collection       'CrysAlisPro 1.171.38.46 (Rigaku OD, 2015)'
_computing_data_reduction        'CrysAlisPro 1.171.38.46 (Rigaku OD, 2015)'
_diffrn_ambient_pressure         '0.45 GPa'
_diffrn_ambient_temperature      293
_diffrn_detector                 'CCD plate'
_diffrn_measured_fraction_theta_full 0.94
_diffrn_measured_fraction_theta_max 0.93
_diffrn_measurement_device       'ID15B beamline, ESRF'
_diffrn_measurement_device_type
'esperanto-CrysAlisPro-abstract goniometer imported esperanto images'
_diffrn_measurement_method       '\w scans'
_diffrn_measurement_specimen_support 'diamond-anvil cell'
_diffrn_radiation_monochromator  synchrotron
_diffrn_radiation_probe          x-ray
_diffrn_radiation_source         synchrotron
_diffrn_radiation_type           synchrotron
_diffrn_radiation_wavelength     0.41111
_diffrn_reflns_av_R_equivalents  0.033
_diffrn_reflns_av_unetI/netI     0.0459
_diffrn_reflns_limit_h_max       7
_diffrn_reflns_limit_h_min       -7
_diffrn_reflns_limit_k_max       8
_diffrn_reflns_limit_k_min       -8
_diffrn_reflns_limit_l_max       8
_diffrn_reflns_limit_l_min       -8
_diffrn_reflns_number            3084
_diffrn_reflns_theta_full        12.75
_diffrn_reflns_theta_max         13.21
_diffrn_reflns_theta_min         1.77
_diffrn_source                   synchrotron
_exptl_absorpt_coefficient_mu    0.369
_exptl_absorpt_correction_T_max  1
_exptl_absorpt_correction_T_min  0.923
_exptl_absorpt_correction_type   multi-scan
_exptl_absorpt_process_details
;
CrysAlisPro 1.171.38.46 (Rigaku Oxford Diffraction, 2015)
Empirical absorption correction using spherical harmonics,
implemented in SCALE3 ABSPACK scaling algorithm.
;
_exptl_crystal_colour            colourless
_exptl_crystal_density_diffrn    1.8198
_exptl_crystal_description       block
_exptl_crystal_F_000             202
_exptl_crystal_size_max          0.130
_exptl_crystal_size_mid          0.110
_exptl_crystal_size_min          0.050
_refine_diff_density_max         0.33
_refine_diff_density_min         -0.31
_refine_ls_abs_structure_details
'  547 of Friedel pairs used in the refinement'
_refine_ls_extinction_method     none
_refine_ls_goodness_of_fit_gt    2.58
_refine_ls_goodness_of_fit_ref   2.36
_refine_ls_hydrogen_treatment    constr
_refine_ls_number_constraints    31
_refine_ls_number_parameters     86
_refine_ls_number_reflns         2531
_refine_ls_number_restraints     0
_refine_ls_R_factor_all          0.0816
_refine_ls_R_factor_gt           0.0660
_refine_ls_shift/su_max          0.0364
_refine_ls_shift/su_mean         0.0033
_refine_ls_structure_factor_coef F
_refine_ls_weighting_details     w=1/(\s^2^(F)+0.0001F^2^)
_refine_ls_weighting_scheme      sigma
_refine_ls_wR_factor_gt          0.0759
_refine_ls_wR_factor_ref         0.0792
_reflns_number_gt                1961
_reflns_number_total             2531
_reflns_threshold_expression     I>3\s(I)
_cod_data_source_file            c8cp03761b2.cif
_cod_data_source_block           AMnF_c1_p05
_cod_depositor_comments
;
The following automatic conversions were performed:

'_diffrn_radiation_probe' value 'X-ray' changed to 'x-ray' according
to
/home/data/users/saulius/crontab/automatic-downloads/rss-feeds/RSC/lib/dictionaries/cif_core.dic
dictionary named 'cif_core.dic' version 2.4.2 from 2011-04-26.

Automatic conversion script
Id: cif_fix_values 4973 2017-02-22 13:04:09Z antanas 

 Adding full bibliography for 7231402--7231432.cif.
;
_cod_original_formula_sum        'C3 H7 Mn1 N1 O6'
_cod_database_code               7231425
loop_
_space_group_symop_id
_space_group_symop_operation_xyz
1 x,y,z
2 -x,y+1/2,-z
loop_
_atom_site_label
_atom_site_type_symbol
_atom_site_fract_x
_atom_site_fract_y
_atom_site_fract_z
_atom_site_adp_type
_atom_site_U_iso_or_equiv
_atom_site_site_symmetry_multiplicity
_atom_site_occupancy
_atom_site_calc_flag
Mn1 Mn 0.6622(2) 0.25 0.32421(13) Uani 0.0410(5) 2 1 d
O1 O 0.8806(10) 0.1018(8) 0.5720(7) Uani 0.055(3) 2 1 d
O2 O 0.3756(10) 0.1108(8) 0.2922(8) Uani 0.053(3) 2 1 d
O3 O 0.7023(10) 0.1013(8) 0.1037(7) Uani 0.053(3) 2 1 d
O4 O 0.9172(10) 0.3867(8) 0.2944(8) Uani 0.053(3) 2 1 d
O5 O 0.6903(10) 0.3975(8) 0.5720(7) Uani 0.055(3) 2 1 d
O6 O 0.4013(9) 0.3966(8) 0.1028(7) Uani 0.052(2) 2 1 d
C1 C 0.9435(16) -0.0330(11) 0.5666(13) Uani 0.055(3) 2 1 d
C2 C 0.6176(15) 0.5326(11) 0.5625(12) Uani 0.055(3) 2 1 d
C3 C 0.4317(16) 0.4984(12) -0.0016(14) Uani 0.052(2) 2 1 d
N1 N -0.0222(10) 0.2517(13) -0.0476(8) Uani 0.052(3) 2 1 d
H1c1 H 0.875497 -0.083206 0.436996 Uiso 0.0665 2 1 d
H1c2 H 0.549833 0.581711 0.43222 Uiso 0.0655 2 1 d
H1c3 H 0.573138 0.497524 -0.003528 Uiso 0.0619 2 1 d
loop_
_atom_site_aniso_label
_atom_site_aniso_type_symbol
_atom_site_aniso_U_11
_atom_site_aniso_U_22
_atom_site_aniso_U_33
_atom_site_aniso_U_12
_atom_site_aniso_U_13
_atom_site_aniso_U_23
Mn1 Mn 0.0656(8) 0.0145(6) 0.0379(6) 0.0011(7) 0.0190(5) 0.0013(7)
O1 O 0.077(4) 0.031(3) 0.050(3) 0.012(3) 0.022(3) -0.006(2)
O2 O 0.074(5) 0.035(4) 0.055(4) -0.003(3) 0.033(3) 0.018(3)
O3 O 0.082(5) 0.029(4) 0.050(3) -0.017(3) 0.032(3) -0.015(3)
O4 O 0.064(4) 0.040(4) 0.046(3) -0.018(3) 0.016(3) -0.016(3)
O5 O 0.080(4) 0.033(3) 0.048(3) 0.014(3) 0.026(3) 0.005(2)
O6 O 0.060(4) 0.043(4) 0.046(3) 0.002(3) 0.019(3) 0.018(2)
C1 C 0.077(4) 0.031(3) 0.050(3) 0.012(3) 0.022(3) -0.006(2)
C2 C 0.080(4) 0.033(3) 0.048(3) 0.014(3) 0.026(3) 0.005(2)
C3 C 0.060(4) 0.043(4) 0.046(3) 0.002(3) 0.019(3) 0.018(2)
N1 N 0.048(4) 0.048(5) 0.060(4) -0.010(5) 0.024(3) -0.003(6)
loop_
_atom_type_symbol
_atom_type_scat_dispersion_real
_atom_type_scat_dispersion_imag
_atom_type_scat_source
C -0.0001 0.0005 'International Tables Vol C tables 4.2.6.8 and 6.1.1.1'
H 0.0000 0.0000 'International Tables Vol C tables 4.2.6.8 and 6.1.1.1'
Mn 0.1790 0.2615 'International Tables Vol C tables 4.2.6.8 and 6.1.1.1'
N 0.0006 0.0010 'International Tables Vol C tables 4.2.6.8 and 6.1.1.1'
O 0.0018 0.0018 'International Tables Vol C tables 4.2.6.8 and 6.1.1.1'
loop_
_geom_angle_atom_site_label_1
_geom_angle_atom_site_label_2
_geom_angle_atom_site_label_3
_geom_angle_site_symmetry_1
_geom_angle_site_symmetry_3
_geom_angle
O1 Mn1 O2 . . 90.4(2)
O1 Mn1 O3 . . 92.1(2)
O1 Mn1 O4 . . 97.6(2)
O1 Mn1 O5 . . 81.2(2)
O1 Mn1 O6 . . 169.1(3)
O2 Mn1 O3 . . 90.5(3)
O2 Mn1 O4 . . 169.2(2)
O2 Mn1 O5 . . 97.9(3)
O2 Mn1 O6 . . 81.6(2)
O3 Mn1 O4 . . 81.9(3)
O3 Mn1 O5 . . 169.2(2)
O3 Mn1 O6 . . 95.4(2)
O4 Mn1 O5 . . 90.5(3)
O4 Mn1 O6 . . 91.3(2)
O5 Mn1 O6 . . 92.5(2)
Mn1 O1 C1 . . 128.7(5)
Mn1 O2 C2 . 2_646 120.5(5)
Mn1 O3 C3 . 2_645 124.4(8)
Mn1 O4 C1 . 2_756 123.1(7)
Mn1 O5 C2 . . 127.4(5)
Mn1 O6 C3 . . 124.5(6)
O1 C1 O4 . 2_746 128.9(8)
O1 C1 H1c1 . . 115.56
O4 C1 H1c1 2_746 . 115.56
O2 C2 O5 2_656 . 125.7(8)
O2 C2 H1c2 2_656 . 117.15
O5 C2 H1c2 . . 117.15
O3 C3 O6 2_655 . 126.5(11)
O3 C3 H1c3 2_655 . 116.77
O6 C3 H1c3 . . 116.77
loop_
_geom_bond_atom_site_label_1
_geom_bond_atom_site_label_2
_geom_bond_site_symmetry_2
_geom_bond_distance
Mn1 O1 . 2.166(6)
Mn1 O2 . 2.184(7)
Mn1 O3 . 2.181(7)
Mn1 O4 . 2.167(7)
Mn1 O5 . 2.165(6)
Mn1 O6 . 2.176(6)
O1 C1 . 1.227(12)
O2 C2 2_646 1.251(12)
O3 C3 2_645 1.239(11)
O4 C1 2_756 1.240(10)
O5 C2 . 1.236(11)
O6 C3 . 1.240(13)
C1 H1c1 . 0.96
C2 H1c2 . 0.96
C3 H1c3 . 0.96
loop_
_twin_individual_id
_twin_individual_mass_fraction_refined
_twin_individual_twin_matrix_11
_twin_individual_twin_matrix_12
_twin_individual_twin_matrix_13
_twin_individual_twin_matrix_21
_twin_individual_twin_matrix_22
_twin_individual_twin_matrix_23
_twin_individual_twin_matrix_31
_twin_individual_twin_matrix_32
_twin_individual_twin_matrix_33
1 0.153(3) 1 0 0 0 1 0 0 0 1
2 0.1550(14) 1 0 0 0 -1 0 0.819 0 -1
3 0.1419(14) -0.0612 0 -1.0715 0 1 0 0.8796 0 -0.9388
4 0.1282(14) -0.9388 0 1.0715 0 -1 0 0.1107 0 0.9388
5 0.2192(14) -0.9388 0 1.0715 0 1 0 -0.8796 0 -0.0612
6 0.2028(13) -0.0612 0 -1.0715 0 -1 0 -0.9297 0 0.0612
loop_
_twin_refln_datum_id
_twin_refln_individual_id
_twin_refln_index_h
_twin_refln_index_k
_twin_refln_index_l
_twin_refln_f_squared_calc
_twin_refln_f_squared_meas
_twin_refln_f_squared_sigma
_twin_refln_include_status
1 2 1 0 0 259.89 206.24 5.06 o
1 1 1 0 0 259.89 206.24 5.06 o
2 2 2 0 0 0.53 0.03 0.17 <
2 1 2 0 0 0.53 0.03 0.17 <
3 2 2 -1 0 71.19 64.91 2.35 o
3 1 2 1 0 71.19 64.91 2.35 o
4 2 2 1 0 71.22 64.76 2.28 o
4 1 2 -1 0 71.22 64.76 2.28 o
5 2 3 -1 0 3.13 1.27 0.32 o
5 1 3 1 0 3.13 1.27 0.32 o
6 2 4 -1 0 177.14 213.24 6.90 o
6 1 4 1 0 177.14 213.24 6.90 o
7 2 5 -1 0 19.66 34.53 2.56 o
7 1 5 1 0 19.66 34.53 2.56 o
8 2 6 -1 0 1.00 1.10 0.54 <
8 1 6 1 0 1.00 1.10 0.54 <
9 2 2 -2 0 76.64 76.49 2.38 o
9 1 2 2 0 76.64 76.49 2.38 o
10 2 2 2 0 76.63 74.44 2.35 o
10 1 2 -2 0 76.63 74.44 2.35 o
11 2 3 -2 0 191.30 215.44 6.03 o
11 1 3 2 0 191.30 215.44 6.03 o
12 2 3 2 0 191.30 213.49 5.95 o
12 1 3 -2 0 191.30 213.49 5.95 o
13 2 4 -2 0 2.79 4.88 0.72 o
13 1 4 2 0 2.79 4.88 0.72 o
14 2 5 -2 0 2.42 2.91 0.73 o
14 1 5 2 0 2.42 2.91 0.73 o
15 2 6 -2 0 24.05 34.72 2.75 o
15 1 6 2 0 24.05 34.72 2.75 o
16 2 2 3 0 581.17 601.65 13.53 o
16 1 2 -3 0 581.17 601.65 13.53 o
17 2 3 -3 0 53.35 53.60 2.08 o
17 1 3 3 0 53.35 53.60 2.08 o
18 2 3 3 0 53.35 54.47 2.13 o
18 1 3 -3 0 53.35 54.47 2.13 o
19 2 4 -3 0 8.31 6.89 0.77 o
19 1 4 3 0 8.31 6.89 0.77 o
20 2 4 3 0 8.32 6.36 0.82 o
20 1 4 -3 0 8.32 6.36 0.82 o
21 2 5 -3 0 21.39 28.68 2.01 o
21 1 5 3 0 21.39 28.68 2.01 o
22 2 6 -3 0 12.41 15.29 1.72 o
22 1 6 3 0 12.41 15.29 1.72 o
23 2 3 4 0 79.65 71.25 2.45 o
23 1 3 -4 0 79.65 71.25 2.45 o
24 2 4 -4 0 0.24 1.05 0.34 o
24 1 4 4 0 0.24 1.05 0.34 o
25 2 4 4 0 0.24 0.34 0.21 <
25 1 4 -4 0 0.24 0.34 0.21 <
26 2 5 -4 0 1.02 -0.01 0.22 <
26 1 5 4 0 1.02 -0.01 0.22 <
27 2 6 -4 0 11.66 12.85 1.27 o
27 1 6 4 0 11.66 12.85 1.27 o
28 2 3 5 0 2.87 1.95 0.32 o
28 1 3 -5 0 2.87 1.95 0.32 o
29 2 4 5 0 20.48 17.97 1.16 o
29 1 4 -5 0 20.48 17.97 1.16 o
30 2 4 6 0 19.82 19.70 1.11 o
30 1 4 -6 0 19.82 19.70 1.11 o
31 2 4 7 0 67.26 49.76 1.93 o
31 1 4 -7 0 67.26 49.76 1.93 o
32 1 -7 0 1 0.01 0.72 0.72 <
33 1 -6 0 1 0.45 0.47 0.48 <
34 1 -5 0 1 36.83 39.80 1.99 o
35 1 -4 0 1 2.60 3.57 0.50 o
36 1 -3 0 1 0.08 0.09 0.10 <
37 1 -2 0 1 88.20 103.04 2.50 o
38 1 -1 0 1 127.00 94.73 1.99 o
39 1 -7 1 1 1.45 1.04 0.59 <
40 1 -6 1 1 5.19 5.46 1.20 o
41 1 -5 1 1 2.28 1.36 0.47 <
42 1 -5 -1 1 2.29 0.24 0.19 <
43 1 -4 1 1 57.38 60.32 2.29 o
44 1 -4 -1 1 57.43 56.88 2.23 o
45 1 -3 1 1 109.74 108.55 2.93 o
46 1 -3 -1 1 111.97 115.70 3.06 o
47 1 -2 1 1 474.02 482.62 8.30 o
48 1 -2 -1 1 474.03 486.35 8.42 o
49 1 -1 1 1 388.04 444.24 10.47 o
50 1 -1 -1 1 387.60 444.30 10.50 o
51 1 -6 2 1 2.52 2.61 0.77 o
52 1 -6 -2 1 2.36 2.54 0.64 o
53 1 -5 2 1 31.73 35.45 2.46 o
54 1 -5 -2 1 30.83 34.30 2.31 o
55 1 -4 2 1 20.22 21.51 1.65 o
56 1 -4 -2 1 19.43 17.53 1.49 o
57 1 -3 2 1 86.18 94.43 3.38 o
58 1 -3 -2 1 83.51 88.86 2.60 o
59 1 -2 2 1 323.19 358.02 9.44 o
60 1 -2 -2 1 323.05 356.78 6.48 o
61 1 -1 2 1 9.40 8.84 0.72 o
62 1 -1 -2 1 8.26 8.03 0.70 o
63 1 3 2 1 0.84 0.13 0.11 <
64 1 -6 3 1 7.58 6.72 1.14 o
65 1 -6 -3 1 7.73 7.01 1.08 o
66 1 -5 3 1 0.11 0.11 0.16 <
67 1 -5 -3 1 0.11 -0.38 0.24 <
68 1 -4 3 1 22.24 26.34 1.75 o
69 1 -4 -3 1 21.27 23.56 1.73 o
70 1 -3 -3 1 54.87 61.59 2.66 o
71 1 -1 -3 1 61.34 58.30 2.42 o
72 1 0 -3 1 10.12 8.37 0.63 o
73 1 3 3 1 8.68 9.65 0.74 o
74 1 4 3 1 2.19 1.90 0.43 o
75 1 5 3 1 8.14 9.53 1.23 o
76 1 -6 4 1 1.54 1.89 0.57 o
77 1 -6 -4 1 1.55 0.96 0.23 o
78 1 -5 4 1 25.22 25.15 1.98 o
79 1 -5 -4 1 25.85 24.55 1.81 o
80 1 -4 -4 1 2.64 1.65 0.53 o
81 1 3 4 1 7.13 6.17 0.45 o
82 1 4 4 1 14.87 19.45 1.19 o
83 1 5 4 1 10.20 13.17 1.18 o
84 1 -6 -5 1 6.75 4.20 0.78 o
85 1 -5 -5 1 0.83 0.35 0.17 <
86 1 -4 -5 1 24.85 19.50 1.57 o
87 1 5 5 1 6.84 9.04 0.79 o
88 1 -5 -6 1 14.75 12.24 1.18 o
89 1 -4 -6 1 3.04 2.09 0.49 o
90 1 -7 0 2 6.98 7.26 1.11 o
91 1 -6 0 2 0.01 0.03 0.17 <
92 1 -5 0 2 0.20 0.21 0.19 <
93 1 -4 0 2 29.37 29.06 1.60 o
94 1 -3 0 2 0.40 0.18 0.14 <
95 1 -2 0 2 0.61 0.00 0.14 <
96 1 -7 1 2 1.00 0.27 0.28 <
97 1 -7 -1 2 1.00 0.59 0.37 <
98 1 -6 1 2 6.83 6.38 0.88 o
99 1 -6 -1 2 6.84 5.68 0.86 o
100 1 -5 1 2 10.22 8.52 0.89 o
101 1 -5 -1 2 9.61 7.38 0.84 o
102 1 -4 1 2 4.16 0.97 0.25 o
103 1 -4 -1 2 4.16 0.97 0.28 o
104 1 -3 1 2 114.11 109.83 3.05 o
105 1 -3 -1 2 112.01 113.12 3.16 o
106 1 -2 1 2 33.68 31.36 1.91 o
107 1 -2 -1 2 36.01 31.69 1.88 o
108 1 -1 1 2 264.00 280.49 7.24 o
109 1 -1 -1 2 262.98 274.47 7.22 o
110 1 -7 2 2 3.97 2.42 0.66 o
111 1 -7 -2 2 4.10 3.71 1.07 o
112 1 -6 2 2 0.38 -0.22 0.32 <
113 1 -6 -2 2 0.46 0.44 0.27 <
114 1 -5 2 2 4.29 4.88 0.68 o
115 1 -5 -2 2 4.50 4.78 0.70 o
116 1 -4 2 2 115.56 109.64 3.34 o
117 1 -4 -2 2 115.64 110.57 3.48 o
118 1 -3 2 2 87.02 89.74 3.97 o
119 1 -3 -2 2 89.81 88.53 2.71 o
120 1 -2 2 2 38.98 38.90 2.20 o
121 1 -2 -2 2 37.97 37.14 2.18 o
122 1 -1 2 2 551.07 666.68 15.69 o
123 1 -1 -2 2 550.53 666.96 15.66 o
124 1 0 2 2 155.55 150.11 4.06 o
125 1 -6 3 2 4.29 3.49 0.77 o
126 1 -6 -3 2 4.21 3.13 0.67 o
127 1 -5 3 2 41.55 50.09 2.33 o
128 1 -5 -3 2 41.03 40.54 2.15 o
129 1 -4 3 2 0.35 0.00 0.27 <
130 1 -4 -3 2 0.35 0.00 0.24 <
131 1 -3 3 2 58.02 67.38 3.43 o
132 1 -3 -3 2 57.85 62.07 3.45 o
133 1 -2 3 2 295.45 329.96 9.29 o
134 1 -2 -3 2 294.96 312.64 9.03 o
135 1 -1 3 2 16.16 19.58 1.23 o
136 1 -1 -3 2 15.96 21.80 1.40 o
137 1 0 3 2 342.20 367.32 8.84 o
138 1 0 -3 2 342.26 369.43 8.83 o
139 1 -6 4 2 6.34 3.46 0.89 o
140 1 -6 -4 2 6.36 3.28 0.91 o
141 1 -5 -4 2 2.22 1.42 0.56 <
142 1 -3 4 2 35.60 41.35 2.69 o
143 1 -3 -4 2 34.88 40.29 2.78 o
144 1 -2 4 2 1.48 1.86 0.47 o
145 1 -2 -4 2 1.86 1.72 0.46 o
146 1 -1 4 2 249.07 285.26 7.91 o
147 1 -1 -4 2 250.39 293.36 8.12 o
148 1 0 4 2 4.15 4.14 0.49 o
149 1 0 -4 2 4.15 4.91 0.55 o
150 1 3 4 2 1.34 0.74 0.24 o
151 1 4 4 2 5.77 4.61 0.73 o
152 1 5 4 2 12.49 16.02 1.48 o
153 1 -6 -5 2 5.32 4.25 0.93 o
154 1 -5 -5 2 18.80 18.11 1.75 o
155 1 -2 -5 2 67.68 70.43 3.54 o
156 1 -1 -5 2 40.70 46.26 2.40 o
157 1 0 -5 2 93.73 91.98 3.28 o
158 1 4 5 2 11.37 12.98 0.78 o
159 1 -1 -6 2 77.90 79.03 3.50 o
160 1 0 -6 2 28.43 27.07 1.63 o
161 1 1 -6 2 26.22 23.69 1.14 o
162 1 0 -7 2 3.75 2.17 0.48 o
163 1 1 -7 2 8.58 8.59 0.78 o
164 1 1 -8 2 14.73 17.20 1.17 o
165 1 -7 0 3 1.36 1.44 0.56 <
166 1 -6 0 3 11.60 10.18 1.15 o
167 1 -5 0 3 0.40 0.48 0.34 <
168 1 -4 0 3 2.92 2.26 0.43 o
169 1 -3 0 3 346.16 332.52 6.85 o
170 1 -7 1 3 3.31 2.91 0.74 o
171 1 -7 -1 3 3.38 3.01 0.67 o
172 1 -6 1 3 0.03 -0.19 0.26 <
173 1 -6 -1 3 0.03 0.09 0.30 <
174 1 -5 1 3 8.82 9.55 0.96 o
175 1 -5 -1 3 9.38 9.26 1.02 o
176 1 -4 1 3 54.81 54.64 2.34 o
177 1 -4 -1 3 54.88 56.12 2.36 o
178 1 -3 1 3 1.56 0.74 0.39 <
179 1 -3 -1 3 1.49 1.63 0.59 <
180 1 -2 1 3 129.77 129.24 4.73 o
181 1 -2 -1 3 133.67 137.33 4.95 o
182 1 -7 2 3 0.33 0.74 0.50 <
183 1 -7 -2 3 0.34 1.26 0.54 <
184 1 -6 2 3 13.61 12.20 1.22 o
185 1 -6 -2 3 13.58 10.63 1.24 o
186 1 -5 2 3 4.95 4.76 0.71 o
187 1 -5 -2 3 4.72 3.58 0.63 o
188 1 -4 2 3 20.36 16.03 1.83 o
189 1 -4 -2 3 21.19 18.00 1.31 o
190 1 -3 2 3 91.76 101.24 4.46 o
191 1 -3 -2 3 91.97 98.17 4.40 o
192 1 -2 2 3 107.22 115.78 4.50 o
193 1 -2 -2 3 104.14 109.24 4.26 o
194 1 -1 2 3 154.08 154.05 4.93 o
195 1 -7 3 3 2.24 1.94 0.63 o
196 1 -7 -3 3 2.25 1.80 0.71 <
197 1 -6 3 3 0.07 0.11 0.30 <
198 1 -6 -3 3 0.07 0.17 0.34 <
199 1 -5 3 3 43.11 49.00 3.58 o
200 1 -5 -3 3 43.65 41.89 2.27 o
201 1 -4 3 3 21.49 23.69 2.19 o
202 1 -4 -3 3 22.46 24.29 2.37 o
203 1 -3 3 3 27.20 29.00 2.28 o
204 1 -3 -3 3 27.30 29.08 2.36 o
205 1 -2 3 3 144.46 170.48 5.80 o
206 1 -2 -3 3 143.78 163.69 5.73 o
207 1 -1 3 3 179.65 192.98 5.88 o
208 1 -1 -3 3 180.03 175.75 5.51 o
209 1 0 3 3 1.01 0.70 0.24 <
210 1 -6 4 3 15.46 18.49 2.30 o
211 1 -6 -4 3 15.46 14.08 1.41 o
212 1 -5 4 3 2.15 2.47 0.81 o
213 1 -5 -4 3 2.09 3.27 1.04 o
214 1 -4 4 3 3.50 1.84 0.71 <
215 1 -4 -4 3 3.17 0.56 0.52 <
216 1 -3 4 3 40.98 43.81 2.87 o
217 1 -3 -4 3 40.70 40.32 2.89 o
218 1 -2 4 3 65.34 71.46 3.37 o
219 1 -2 -4 3 66.33 68.07 3.46 o
220 1 -1 4 3 40.42 45.62 2.34 o
221 1 -1 -4 3 39.77 43.20 2.28 o
222 1 0 4 3 99.53 92.97 3.24 o
223 1 1 4 3 33.68 29.85 1.37 o
224 1 -6 -5 3 0.42 -0.08 0.34 <
225 1 -5 5 3 21.52 21.29 2.36 o
226 1 -5 -5 3 20.84 18.11 2.30 o
227 1 -4 5 3 26.94 26.31 2.53 o
228 1 -4 -5 3 25.62 21.48 2.39 o
229 1 -3 5 3 0.85 1.00 0.51 <
230 1 -3 -5 3 0.82 1.21 0.65 <
231 1 -2 5 3 63.36 63.91 3.29 o
232 1 -2 -5 3 62.94 67.07 3.53 o
233 1 -1 5 3 80.55 81.79 3.35 o
234 1 -1 -5 3 81.18 78.15 3.42 o
235 1 0 5 3 0.47 0.24 0.13 <
236 1 0 -5 3 0.47 0.40 0.23 <
237 1 1 5 3 46.85 32.68 1.38 o
238 1 -4 -6 3 3.48 3.03 0.99 o
239 1 -3 -6 3 60.05 61.63 3.94 o
240 1 -2 -6 3 20.42 18.49 1.84 o
241 1 -1 -6 3 27.54 24.76 1.86 o
242 1 0 -6 3 41.24 35.45 1.84 o
243 1 -3 -7 3 1.23 0.71 0.62 <
244 1 -2 -7 3 24.34 19.47 1.95 o
245 1 -1 -7 3 8.40 7.60 1.01 o
246 1 0 -7 3 18.74 16.51 1.21 o
247 1 -2 -8 3 14.15 13.09 1.60 o
248 1 -1 -8 3 14.43 15.98 1.59 o
249 1 0 -8 3 51.02 50.48 2.58 o
250 1 -7 0 4 1.43 1.12 0.49 <
251 1 -6 0 4 0.05 0.85 0.53 <
252 1 -5 0 4 34.60 38.29 2.14 o
253 1 -4 0 4 70.29 76.80 2.93 o
254 1 -7 1 4 3.95 3.53 0.82 o
255 1 -7 -1 4 3.88 1.99 0.56 o
256 1 -6 1 4 6.88 5.24 0.87 o
257 1 -6 -1 4 6.84 5.65 0.95 o
258 1 -5 1 4 2.19 0.70 0.28 <
259 1 -5 -1 4 2.17 1.10 0.37 <
260 1 -4 1 4 93.36 95.42 4.90 o
261 1 -4 -1 4 93.86 107.46 5.03 o
262 1 -3 1 4 113.99 101.70 4.70 o
263 1 -3 -1 4 112.74 102.94 4.72 o
264 1 -7 2 4 0.44 0.81 0.48 <
265 1 -7 -2 4 0.42 0.61 0.48 <
266 1 -6 2 4 0.26 0.73 0.43 <
267 1 -6 -2 4 0.21 0.35 0.33 <
268 1 -5 2 4 30.96 24.43 2.53 o
269 1 -5 -2 4 31.88 31.78 2.02 o
270 1 -4 2 4 1.99 1.40 0.62 <
271 1 -4 -2 4 1.83 0.94 0.46 <
272 1 -3 2 4 1.29 -0.01 0.17 <
273 1 -3 -2 4 1.08 0.17 0.27 <
274 1 -2 2 4 82.05 81.28 3.91 o
275 1 -7 3 4 2.24 1.39 0.54 <
276 1 -7 -3 4 2.23 1.66 0.68 <
277 1 -6 3 4 3.70 4.94 1.35 o
278 1 -6 -3 4 3.78 2.46 0.62 o
279 1 -5 3 4 0.02 -0.40 0.52 <
280 1 -5 -3 4 0.02 0.20 0.54 <
281 1 -4 3 4 3.67 2.10 0.78 <
282 1 -4 -3 4 3.94 2.22 0.74 <
283 1 -3 3 4 9.62 8.71 1.22 o
284 1 -3 -3 4 8.82 8.64 1.22 o
285 1 -2 3 4 4.63 4.47 0.80 o
286 1 -2 -3 4 4.60 2.57 0.62 o
287 1 -1 3 4 49.98 45.86 2.57 o
288 1 -6 4 4 7.25 4.69 1.24 o
289 1 -6 -4 4 7.24 3.73 1.30 <
290 1 -5 4 4 27.01 27.50 2.72 o
291 1 -5 -4 4 26.35 25.67 2.79 o
292 1 -4 4 4 0.04 -0.15 0.35 <
293 1 -4 -4 4 0.10 0.19 0.28 <
294 1 -3 4 4 7.99 6.11 1.10 o
295 1 -3 -4 4 8.08 5.26 1.05 o
296 1 -2 4 4 142.70 160.03 5.92 o
297 1 -2 -4 4 142.23 151.54 5.68 o
298 1 -1 4 4 35.55 35.63 2.18 o
299 1 0 4 4 0.40 0.05 0.16 <
300 1 -6 5 4 6.06 4.22 1.23 o
301 1 -6 -5 4 5.99 4.63 1.25 o
302 1 -5 5 4 1.05 1.82 0.88 <
303 1 -5 -5 4 1.05 1.47 0.91 <
304 1 -4 5 4 10.27 10.34 1.60 o
305 1 -4 -5 4 9.94 7.52 1.46 o
306 1 -3 5 4 21.90 24.40 2.21 o
307 1 -3 -5 4 23.29 25.60 2.37 o
308 1 -2 5 4 12.19 11.74 1.27 o
309 1 -2 -5 4 12.32 12.98 1.41 o
310 1 -1 5 4 54.49 54.81 2.70 o
311 1 -1 -5 4 52.89 45.76 2.53 o
312 1 0 5 4 5.69 5.46 0.68 o
313 1 1 5 4 6.13 3.16 0.44 o
314 1 -5 6 4 16.23 15.14 2.02 o
315 1 -5 -6 4 16.21 15.34 2.31 o
316 1 -4 6 4 11.37 12.17 1.61 o
317 1 -4 -6 4 11.35 13.06 1.85 o
318 1 -3 6 4 1.18 0.99 0.51 <
319 1 -3 -6 4 1.21 0.69 0.33 <
320 1 -2 6 4 35.34 32.64 2.36 o
321 1 -2 -6 4 36.07 32.53 2.46 o
322 1 -1 6 4 14.66 14.03 1.25 o
323 1 -1 -6 4 14.52 13.17 1.33 o
324 1 0 6 4 12.01 11.80 1.01 o
325 1 1 6 4 52.77 38.35 1.65 o
326 1 -4 -7 4 38.35 37.67 3.47 o
327 1 -3 7 4 47.07 41.66 3.27 o
328 1 -3 -7 4 46.51 47.38 3.55 o
329 1 -2 7 4 1.29 0.63 0.34 <
330 1 -2 -7 4 1.20 0.82 0.25 o
331 1 -1 7 4 33.36 23.89 2.04 o
332 1 -1 -7 4 33.59 32.96 2.18 o
333 1 -3 -8 4 2.15 1.37 0.61 <
334 1 -2 -8 4 20.09 18.54 2.02 o
335 1 -1 -8 4 13.42 8.39 1.15 o
336 1 -7 0 5 6.92 4.11 0.87 o
337 1 -6 0 5 0.41 1.08 0.60 <
338 1 -5 0 5 4.31 1.31 0.42 o
339 1 -7 1 5 1.16 0.38 0.23 <
340 1 -7 -1 5 1.17 0.05 0.34 <
341 1 -6 1 5 5.73 3.16 0.67 o
342 1 -6 -1 5 5.60 3.91 0.74 o
343 1 -5 1 5 10.72 10.52 1.79 o
344 1 -5 -1 5 11.09 12.16 1.84 o
345 1 -4 1 5 10.26 9.80 1.48 o
346 1 -4 -1 5 10.33 7.44 1.34 o
347 1 -7 2 5 4.20 2.18 0.58 o
348 1 -7 -2 5 4.08 2.84 0.84 o
349 1 -6 2 5 3.19 2.89 1.04 <
350 1 -6 -2 5 3.37 3.01 1.09 <
351 1 -5 2 5 1.23 0.30 0.26 <
352 1 -5 -2 5 1.22 1.79 0.79 <
353 1 -4 2 5 34.40 31.29 2.79 o
354 1 -4 -2 5 33.50 34.22 2.85 o
355 1 -3 2 5 21.79 24.93 2.26 o
356 1 -6 3 5 8.67 4.21 1.19 o
357 1 -6 -3 5 8.51 5.04 1.32 o
358 1 -5 3 5 12.28 9.71 1.60 o
359 1 -5 -3 5 11.94 9.55 1.63 o
360 1 -4 3 5 2.54 1.60 0.80 <
361 1 -4 -3 5 2.43 0.86 0.36 <
362 1 -3 3 5 58.84 59.45 3.63 o
363 1 -3 -3 5 58.54 56.44 3.64 o
364 1 -2 3 5 51.16 58.16 3.65 o
365 1 -6 4 5 2.08 2.17 1.08 <
366 1 -6 -4 5 2.08 0.97 0.57 <
367 1 -5 4 5 0.53 0.89 0.81 <
368 1 -5 -4 5 0.53 -0.03 0.33 <
369 1 -4 4 5 13.93 15.71 1.95 o
370 1 -4 -4 5 14.65 16.12 1.94 o
371 1 -3 4 5 1.87 1.38 0.54 <
372 1 -3 -4 5 1.89 0.94 0.49 <
373 1 -2 4 5 0.22 -0.04 0.29 <
374 1 -1 4 5 15.33 11.36 1.31 o
375 1 -6 5 5 6.87 4.67 1.38 o
376 1 -6 -5 5 7.05 4.17 1.15 o
377 1 -5 5 5 8.37 7.09 1.38 o
378 1 -5 -5 5 8.56 6.68 1.45 o
379 1 -4 5 5 3.71 2.29 0.69 o
380 1 -4 -5 5 3.76 1.61 0.56 <
381 1 -3 5 5 26.30 25.36 2.37 o
382 1 -3 -5 5 27.19 27.01 2.41 o
383 1 -2 5 5 45.67 61.79 3.41 o
384 1 -2 -5 5 44.57 58.55 3.49 o
385 1 -1 5 5 6.33 5.93 1.06 o
386 1 0 5 5 12.16 8.93 1.03 o
387 1 -5 6 5 4.03 2.50 0.78 o
388 1 -5 -6 5 4.06 1.87 0.81 <
389 1 -4 6 5 24.82 28.76 2.73 o
390 1 -4 -6 5 24.62 24.83 2.67 o
391 1 -3 6 5 17.52 23.50 2.38 o
392 1 -3 -6 5 17.26 20.71 2.40 o
393 1 -2 6 5 16.32 22.06 1.93 o
394 1 -2 -6 5 16.81 22.59 2.07 o
395 1 -1 6 5 55.25 51.81 2.96 o
396 1 0 6 5 24.05 20.92 1.55 o
397 1 1 6 5 2.37 0.60 0.16 o
398 1 -3 7 5 6.67 5.17 1.04 o
399 1 -3 -7 5 6.65 5.70 1.29 o
400 1 -2 7 5 9.06 9.10 1.26 o
401 1 -2 -7 5 9.52 9.09 1.30 o
402 1 -1 7 5 2.57 1.37 0.59 <
403 1 -1 -7 5 2.67 1.26 0.65 <
404 1 -7 0 6 0.00 -0.51 0.44 <
405 1 -6 0 6 2.25 1.78 0.94 <
406 1 -7 1 6 1.52 0.55 0.71 <
407 1 -7 -1 6 1.54 1.55 0.55 <
408 1 -6 1 6 0.75 -0.48 0.66 <
409 1 -6 -1 6 0.78 -0.86 0.71 <
410 1 -5 1 6 10.27 4.87 1.22 o
411 1 -6 2 6 12.26 10.29 1.80 o
412 1 -6 -2 6 12.08 14.15 2.15 o
413 1 -5 2 6 7.94 3.39 0.83 o
414 1 -5 -2 6 7.67 5.47 1.27 o
415 1 -6 3 6 7.66 4.28 1.31 o
416 1 -6 -3 6 7.67 4.99 1.33 o
417 1 -5 3 6 8.00 7.61 1.51 o
418 1 -5 -3 6 8.02 9.47 1.62 o
419 1 -4 3 6 13.05 14.68 1.96 o
420 1 -4 -3 6 13.28 11.09 1.87 o
421 1 -6 4 6 6.30 3.11 0.96 o
422 1 -6 -4 6 6.38 6.38 1.53 o
423 1 -5 4 6 11.42 7.37 1.30 o
424 1 -5 -4 6 11.52 9.14 1.58 o
425 1 -4 4 6 6.46 4.28 1.08 o
426 1 -4 -4 6 6.55 5.59 1.27 o
427 1 -3 4 6 26.79 37.07 2.98 o
428 1 -5 5 6 7.76 4.16 1.14 o
429 1 -5 -5 6 7.77 7.37 1.59 o
430 1 -4 5 6 13.81 15.98 2.01 o
431 1 -4 -5 6 13.70 14.39 1.99 o
432 1 -3 5 6 8.47 15.12 1.80 o
433 1 -3 -5 6 8.20 12.91 1.91 o
434 1 -2 5 6 19.00 17.37 1.91 o
435 1 -1 5 6 22.42 14.30 1.63 o
436 1 -4 6 6 0.77 -0.20 0.54 <
437 1 -4 -6 6 0.70 1.80 0.95 <
438 1 -3 6 6 9.93 10.89 1.58 o
439 1 -3 -6 6 10.21 6.93 1.31 o
440 1 -2 6 6 5.15 4.61 0.98 o
441 1 -1 6 6 3.60 0.93 0.22 o
442 1 -6 2 7 0.01 0.17 0.52 <
443 1 -6 -2 7 0.01 0.01 0.48 <
444 1 -5 3 7 1.29 1.69 0.90 <
445 1 -5 -3 7 1.30 -0.12 0.84 <
446 1 -5 4 7 14.60 12.56 1.97 o
447 1 -5 -4 7 14.41 16.19 2.27 o
448 1 -4 4 7 4.53 1.87 0.78 <
449 1 -3 5 7 4.13 0.84 0.43 <
450 2 0 0 1 141.21 91.40 1.92 o
451 3 -1 0 -1 45.61 44.64 1.88 o
451 2 1 0 1 45.61 44.64 1.88 o
452 2 2 0 1 4.08 3.81 0.66 o
453 2 3 0 1 21.90 36.02 2.21 o
454 2 4 0 1 82.53 109.57 4.20 o
455 2 5 0 1 0.19 0.05 0.38 <
456 2 6 0 1 1.69 1.62 0.98 <
457 2 0 1 1 517.78 529.73 7.22 o
458 2 0 -1 1 517.83 532.52 7.21 o
459 3 -1 -1 -1 500.92 568.53 6.52 o
459 2 1 1 1 500.92 568.53 6.52 o
460 3 -1 1 -1 501.00 569.40 6.23 o
460 2 1 -1 1 501.00 569.40 6.23 o
461 2 2 1 1 135.30 144.39 3.98 o
462 2 2 -1 1 131.41 138.59 3.60 o
463 2 3 1 1 106.04 118.09 4.10 o
464 2 3 -1 1 107.05 115.36 3.73 o
465 2 4 1 1 9.95 9.78 1.25 o
466 2 4 -1 1 9.87 8.98 1.77 o
467 2 5 1 1 9.37 12.76 1.82 o
468 2 5 -1 1 9.33 9.83 2.18 o
469 2 6 -1 1 1.37 1.48 1.08 <
470 2 -4 -2 1 19.68 20.04 1.83 o
471 2 -3 -2 1 84.61 85.95 2.69 o
472 2 0 2 1 0.29 0.24 0.16 <
473 2 0 -2 1 0.31 0.43 0.14 <
474 3 -1 -2 -1 1049.21 1115.63 13.73 o
474 2 1 2 1 1049.21 1115.63 13.73 o
475 3 -1 2 -1 1049.26 1113.26 12.11 o
475 2 1 -2 1 1049.26 1113.26 12.11 o
476 2 2 2 1 100.62 104.45 3.36 o
477 2 2 -2 1 103.70 106.25 2.97 o
478 2 3 2 1 0.85 0.00 0.23 <
479 2 3 -2 1 1.03 0.61 0.27 <
480 2 4 2 1 31.61 35.77 3.14 o
481 2 4 -2 1 32.36 31.35 3.17 o
482 2 5 2 1 6.40 8.66 1.59 o
483 2 5 -2 1 6.63 6.66 1.69 o
484 2 6 -2 1 0.05 0.16 0.46 <
485 2 -6 -3 1 7.83 7.61 1.55 o
486 2 -5 -3 1 0.11 0.25 0.24 <
487 2 -4 -3 1 21.56 26.62 1.95 o
488 2 -1 3 1 61.69 69.17 2.11 o
489 2 0 3 1 10.30 9.22 0.99 o
490 2 2 3 1 139.80 146.02 4.88 o
491 2 3 3 1 8.80 8.52 1.45 o
492 2 3 -3 1 9.60 9.03 1.42 o
493 2 4 3 1 2.22 1.99 0.69 <
494 2 4 -3 1 2.32 0.70 0.38 <
495 2 5 3 1 8.25 13.56 1.94 o
496 2 5 -3 1 8.20 7.00 1.54 o
497 2 -6 -4 1 1.57 0.88 0.53 <
498 2 -5 -4 1 26.19 25.95 2.10 o
499 2 -4 -4 1 2.67 1.36 0.34 o
500 2 3 4 1 7.22 3.81 0.89 o
501 2 4 4 1 15.06 16.83 2.01 o
502 2 4 -4 1 14.43 13.54 2.09 o
503 2 5 4 1 10.34 15.12 2.04 o
504 2 5 -4 1 10.26 10.96 2.02 o
505 2 -6 -5 1 6.84 6.07 1.16 o
506 2 3 5 1 22.62 16.75 1.84 o
507 2 4 5 1 3.64 1.74 0.49 o
508 2 5 5 1 6.93 7.69 1.36 o
509 2 4 6 1 24.85 24.75 2.31 o
510 2 0 0 2 8.20 9.25 0.94 o
511 2 1 0 2 3.24 4.42 0.77 o
512 3 -2 0 -2 185.53 176.33 5.10 o
512 2 2 0 2 185.53 176.33 5.10 o
513 2 3 0 2 27.06 29.98 2.39 o
514 2 4 0 2 1.00 0.37 0.47 <
515 2 5 0 2 5.90 6.24 1.30 o
516 2 0 1 2 73.48 79.31 3.90 o
517 2 0 -1 2 73.27 74.84 3.70 o
518 2 1 1 2 50.94 42.85 2.33 o
519 2 1 -1 2 53.86 46.35 2.38 o
520 3 -2 -1 -2 24.14 28.69 2.08 o
520 2 2 1 2 24.14 28.69 2.08 o
521 3 -2 1 -2 24.15 27.16 1.98 o
521 2 2 -1 2 24.15 27.16 1.98 o
522 2 3 1 2 48.51 67.50 3.68 o
523 2 3 -1 2 50.34 64.91 3.31 o
524 2 4 1 2 10.91 16.67 1.98 o
525 2 4 -1 2 11.19 17.12 1.81 o
526 2 5 1 2 4.19 4.34 1.05 o
527 2 5 -1 2 4.31 5.39 1.12 o
528 2 -1 2 2 558.36 598.50 8.73 o
529 2 -1 -2 2 557.81 598.87 8.67 o
530 2 0 2 2 157.60 151.47 5.52 o
531 2 0 -2 2 157.65 147.39 5.29 o
532 2 1 2 2 158.45 169.67 7.14 o
533 2 1 -2 2 155.39 163.30 6.45 o
534 3 -2 -2 -2 156.07 165.89 5.11 o
534 2 2 2 2 156.07 165.89 5.11 o
535 3 -2 2 -2 156.09 160.48 4.59 o
535 2 2 -2 2 156.09 160.48 4.59 o
536 2 3 2 2 19.55 30.34 2.50 o
537 2 3 -2 2 19.13 28.81 2.14 o
538 2 4 2 2 2.31 2.36 0.72 o
539 2 4 -2 2 2.32 3.39 0.74 o
540 2 5 2 2 6.34 7.89 1.39 o
541 2 5 -2 2 6.10 4.81 1.42 o
542 2 -2 -3 2 298.86 274.18 4.69 o
543 2 -1 3 2 16.37 21.24 1.80 o
544 2 -1 -3 2 16.17 20.33 1.59 o
545 2 0 3 2 346.73 400.48 9.57 o
546 2 0 -3 2 346.79 400.38 8.81 o
547 2 1 3 2 184.53 187.08 7.58 o
548 2 1 -3 2 184.32 193.48 6.77 o
549 3 -2 -3 -2 8.46 7.42 1.03 o
549 2 2 3 2 8.46 7.42 1.03 o
550 3 -2 3 -2 8.46 7.33 1.46 o
550 2 2 -3 2 8.46 7.33 1.46 o
551 2 3 3 2 55.82 73.07 3.79 o
552 2 3 -3 2 56.17 67.32 3.09 o
553 2 4 3 2 11.94 13.17 2.17 o
554 2 4 -3 2 11.75 11.44 2.07 o
555 2 5 3 2 1.80 1.23 0.73 <
556 2 5 -3 2 1.78 1.00 0.65 <
557 2 -6 -4 2 6.44 4.38 1.06 o
558 2 -5 -4 2 2.25 2.23 0.56 o
559 2 -2 4 2 1.50 2.01 0.44 o
560 2 -2 -4 2 1.89 2.84 0.47 o
561 2 -1 4 2 252.37 309.39 7.69 o
562 2 -1 -4 2 253.71 301.69 6.24 o
563 2 0 4 2 4.21 4.34 0.98 o
564 2 0 -4 2 4.20 4.82 0.86 o
565 2 1 4 2 38.86 45.49 3.91 o
566 2 1 -4 2 39.56 42.89 3.05 o
567 3 -2 -4 -2 270.69 299.98 10.94 o
567 2 2 4 2 270.69 299.98 10.94 o
568 2 3 4 2 1.36 0.80 0.21 o
569 2 4 4 2 5.85 5.77 1.40 o
570 2 5 4 2 12.66 15.66 2.48 o
571 2 5 -4 2 12.79 13.05 2.59 o
572 2 -6 -5 2 5.39 3.76 0.71 o
573 2 -2 5 2 68.76 72.77 3.02 o
574 2 -1 5 2 40.91 47.74 3.10 o
575 2 0 5 2 94.91 99.05 5.30 o
576 2 3 5 2 28.03 21.76 2.42 o
577 2 4 5 2 11.52 13.75 2.13 o
578 2 -2 6 2 23.86 31.84 2.27 o
579 2 -1 6 2 80.23 91.41 4.60 o
580 2 4 6 2 0.62 0.46 0.41 <
581 2 -3 7 2 10.38 8.39 0.85 o
582 2 -2 7 2 11.20 16.41 1.76 o
583 2 -3 8 2 8.83 11.58 1.20 o
584 2 -2 8 2 1.47 1.13 0.56 <
585 2 0 0 3 241.35 172.11 7.02 o
586 2 1 0 3 108.49 95.22 3.91 o
587 2 2 0 3 2.73 2.40 0.68 o
588 3 -3 0 -3 5.63 5.01 1.01 o
588 2 3 0 3 5.63 5.01 1.01 o
589 2 4 0 3 11.35 14.02 1.91 o
590 2 0 1 3 40.80 30.65 3.04 o
591 2 0 -1 3 40.79 34.60 3.25 o
592 2 1 1 3 116.70 106.73 4.20 o
593 2 1 -1 3 116.32 110.03 4.08 o
594 2 2 1 3 24.91 25.58 2.32 o
595 2 2 -1 3 24.11 26.05 2.23 o
596 3 -3 -1 -3 18.77 21.20 2.32 o
596 2 3 1 3 18.77 21.20 2.32 o
597 3 -3 1 -3 18.75 21.24 2.27 o
597 2 3 -1 3 18.75 21.24 2.27 o
598 2 4 1 3 10.21 10.09 1.76 o
599 2 4 -1 3 9.86 10.18 1.66 o
600 2 -1 2 3 156.12 145.44 5.77 o
601 2 -1 -2 3 159.22 142.45 5.89 o
602 2 0 2 3 163.28 157.64 7.12 o
603 2 0 -2 3 163.11 147.30 6.70 o
604 2 1 2 3 11.15 9.29 1.89 o
605 2 1 -2 3 10.31 7.10 1.47 o
606 2 2 2 3 22.53 22.20 2.18 o
607 2 2 -2 3 23.19 24.89 2.10 o
608 3 -3 -2 -3 101.30 122.01 5.50 o
608 2 3 2 3 101.30 122.01 5.50 o
609 3 -3 2 -3 101.34 112.66 5.00 o
609 2 3 -2 3 101.34 112.66 5.00 o
610 2 4 2 3 4.96 3.62 1.07 o
611 2 4 -2 3 4.76 5.99 1.18 o
612 2 -2 -3 3 145.68 139.11 5.04 o
613 2 -1 3 3 182.03 174.03 6.60 o
614 2 -1 -3 3 182.41 178.43 6.09 o
615 2 0 3 3 1.02 0.32 0.42 <
616 2 0 -3 3 1.02 0.68 0.44 <
617 2 1 3 3 56.66 56.04 4.69 o
618 2 1 -3 3 54.90 56.14 4.42 o
619 2 2 3 3 46.36 55.29 5.26 o
620 2 2 -3 3 45.84 57.29 4.66 o
621 3 -3 -3 -3 13.09 7.77 1.38 o
621 2 3 3 3 13.09 7.77 1.38 o
622 3 -3 3 -3 13.07 11.27 2.20 o
622 2 3 -3 3 13.07 11.27 2.20 o
623 2 4 3 3 10.95 12.91 2.01 o
624 2 4 -3 3 10.86 14.05 1.74 o
625 2 -3 -4 3 41.24 31.61 1.95 o
626 2 -2 4 3 66.20 61.66 3.28 o
627 2 -2 -4 3 67.21 72.19 3.39 o
628 2 -1 4 3 40.96 42.65 3.34 o
629 2 -1 -4 3 40.30 43.59 3.09 o
630 2 0 4 3 100.85 100.41 5.87 o
631 2 0 -4 3 100.92 109.87 5.64 o
632 2 1 4 3 34.12 39.14 4.14 o
633 2 1 -4 3 34.68 38.49 3.46 o
634 2 2 4 3 0.59 -0.10 0.33 <
635 2 2 -4 3 0.52 -0.22 0.36 <
636 3 -3 -4 -3 48.87 81.29 4.45 o
636 2 3 4 3 48.87 81.29 4.45 o
637 3 -3 4 -3 48.87 50.47 4.38 o
637 2 3 -4 3 48.87 50.47 4.38 o
638 2 4 4 3 3.44 4.45 1.24 o
639 2 -6 -5 3 0.43 -0.03 0.11 <
640 2 -3 -5 3 0.83 0.84 0.35 <
641 2 -2 5 3 64.20 61.63 3.64 o
642 2 -2 -5 3 63.77 70.93 3.41 o
643 2 -1 5 3 81.61 78.33 4.55 o
644 2 -1 -5 3 82.25 85.81 4.21 o
645 2 0 5 3 0.47 -0.16 0.37 <
646 2 0 -5 3 0.48 0.29 0.26 <
647 2 1 5 3 47.47 49.00 4.68 o
648 2 1 -5 3 49.00 59.22 4.24 o
649 2 2 5 3 43.44 47.71 5.23 o
650 2 2 -5 3 44.53 55.63 4.09 o
651 3 -3 -5 -3 16.48 18.62 3.66 o
651 2 3 5 3 16.48 18.62 3.66 o
652 2 -2 6 3 19.33 19.34 2.00 o
653 2 -1 6 3 29.11 25.77 2.76 o
654 2 0 6 3 41.82 35.90 3.79 o
655 2 1 6 3 12.59 14.69 2.57 o
656 2 -3 7 3 1.25 0.52 0.32 <
657 2 -2 7 3 24.80 21.89 2.36 o
658 2 -1 7 3 8.64 7.40 1.70 o
659 2 0 7 3 19.02 17.25 2.84 o
660 2 -3 8 3 35.79 30.60 2.33 o
661 2 -2 8 3 15.40 16.13 2.13 o
662 2 -1 8 3 13.98 16.57 2.56 o
663 2 1 0 4 145.40 125.86 5.12 o
664 2 2 0 4 0.22 0.40 0.37 <
665 2 3 0 4 0.50 0.50 0.69 <
666 2 4 0 4 14.43 40.78 3.90 o
667 2 0 1 4 188.50 145.62 7.27 o
668 2 0 -1 4 188.44 147.78 7.68 o
669 2 1 1 4 19.77 15.82 1.93 o
670 2 1 -1 4 19.26 17.14 2.84 o
671 2 2 1 4 28.91 27.45 2.64 o
672 2 2 -1 4 28.87 26.05 2.51 o
673 2 3 1 4 10.11 9.36 1.58 o
674 2 3 -1 4 10.09 11.07 1.72 o
675 2 4 1 4 3.18 2.59 1.01 <
676 2 4 -1 4 3.12 3.48 1.08 o
677 2 -1 2 4 9.26 8.62 1.71 o
678 2 -1 -2 4 10.10 6.92 1.58 o
679 2 0 2 4 6.12 3.43 1.20 <
680 2 0 -2 4 6.10 2.55 1.00 <
681 2 1 2 4 49.77 40.51 4.55 o
682 2 1 -2 4 48.42 39.90 4.23 o
683 2 2 2 4 25.08 25.34 2.65 o
684 2 2 -2 4 24.77 30.35 3.89 o
685 2 3 2 4 1.40 0.77 0.66 <
686 2 3 -2 4 1.40 1.44 0.71 <
687 2 4 2 4 5.46 7.84 1.82 o
688 2 4 -2 4 5.20 9.24 1.71 o
689 2 -2 -3 4 4.66 3.22 1.05 o
690 2 -1 3 4 50.64 46.78 3.97 o
691 2 -1 -3 4 52.25 44.39 3.76 o
692 2 0 3 4 0.61 0.45 0.56 <
693 2 0 -3 4 0.52 -0.39 0.71 <
694 2 1 3 4 14.56 12.62 2.50 o
695 2 1 -3 4 14.62 11.54 2.30 o
696 2 2 3 4 12.53 11.25 2.58 o
697 2 2 -3 4 12.99 14.39 2.62 o
698 2 3 3 4 14.21 13.58 2.03 o
699 2 3 -3 4 14.42 18.07 3.09 o
700 2 -3 -4 4 8.19 3.57 0.84 o
701 2 -2 4 4 144.59 115.18 5.71 o
702 2 -2 -4 4 144.11 127.96 5.65 o
703 2 -1 4 4 36.02 32.65 3.57 o
704 2 -1 -4 4 35.49 34.84 3.28 o
705 2 0 4 4 0.41 -0.05 0.54 <
706 2 0 -4 4 0.38 0.16 0.09 <
707 2 1 4 4 13.44 15.29 2.80 o
708 2 1 -4 4 13.97 16.58 2.64 o
709 2 2 4 4 30.23 31.74 4.41 o
710 2 2 -4 4 30.29 33.86 4.04 o
711 2 3 4 4 0.01 0.82 0.90 <
712 2 3 -4 4 0.02 0.45 0.73 <
713 2 -4 -5 4 10.08 8.14 1.09 o
714 2 -3 -5 4 23.60 22.63 2.18 o
715 2 -2 5 4 12.35 8.30 1.50 o
716 2 -2 -5 4 12.48 12.27 1.72 o
717 2 -1 5 4 55.21 48.17 4.19 o
718 2 -1 -5 4 53.59 47.12 3.73 o
719 2 0 5 4 5.76 4.00 1.48 <
720 2 0 -5 4 5.80 4.76 1.20 o
721 2 1 5 4 6.21 3.38 1.44 <
722 2 1 -5 4 6.40 4.94 1.47 o
723 2 2 5 4 20.97 20.80 3.82 o
724 2 2 -5 4 20.58 26.04 3.35 o
725 2 3 5 4 3.82 2.31 1.09 <
726 2 3 -5 4 3.59 3.01 1.22 <
727 2 -4 -6 4 11.50 12.53 1.34 o
728 2 -3 -6 4 1.23 1.19 0.36 o
729 2 -2 6 4 35.81 29.11 3.07 o
730 2 -2 -6 4 36.55 37.87 3.03 o
731 2 -1 6 4 14.85 12.45 2.09 o
732 2 -1 -6 4 14.71 15.40 1.99 o
733 2 0 6 4 12.17 9.12 1.98 o
734 2 0 -6 4 12.18 12.96 2.07 o
735 2 1 6 4 53.46 57.44 5.92 o
736 2 1 -6 4 54.02 67.34 5.05 o
737 2 2 6 4 4.59 4.27 1.96 <
738 2 2 -6 4 4.82 5.71 1.38 o
739 2 -3 7 4 47.69 36.91 2.90 o
740 2 -2 7 4 1.30 0.61 0.23 <
741 2 -2 -7 4 1.22 2.24 0.70 o
742 2 -1 7 4 33.80 31.21 3.74 o
743 2 -1 -7 4 34.04 30.48 2.88 o
744 2 0 7 4 97.82 88.30 7.11 o
745 2 0 -7 4 97.88 97.31 5.37 o
746 2 1 7 4 2.16 1.30 1.00 <
747 2 -3 8 4 2.15 0.80 0.26 o
748 2 -2 8 4 20.87 17.30 2.52 o
749 2 -1 8 4 13.31 7.78 2.11 o
750 2 1 0 5 7.76 3.77 0.98 o
751 2 2 0 5 18.50 14.07 2.06 o
752 2 3 0 5 12.73 13.26 2.09 o
753 2 0 1 5 46.04 40.14 4.45 o
754 2 0 -1 5 45.98 34.32 4.28 o
755 2 1 1 5 21.88 17.40 3.08 o
756 2 1 -1 5 21.04 16.87 3.00 o
757 2 2 1 5 5.17 2.57 0.87 <
758 2 2 -1 5 5.44 3.08 0.98 o
759 2 3 1 5 6.15 4.65 1.36 o
760 2 3 -1 5 6.27 5.10 1.32 o
761 2 -1 -2 5 48.55 32.41 4.21 o
762 2 0 2 5 35.61 22.75 3.44 o
763 2 0 -2 5 35.56 26.65 3.60 o
764 2 1 2 5 1.56 0.64 0.78 <
765 2 1 -2 5 1.44 0.34 0.54 <
766 2 2 2 5 9.68 5.74 2.11 <
767 2 2 -2 5 10.02 6.90 2.03 o
768 2 3 2 5 5.48 3.45 1.29 <
769 2 3 -2 5 5.78 4.36 1.15 o
770 2 -2 -3 5 52.47 67.91 5.69 o
771 2 -1 3 5 13.19 14.80 3.03 o
772 2 -1 -3 5 13.09 12.35 2.76 o
773 2 0 3 5 18.38 11.91 2.64 o
774 2 0 -3 5 18.40 12.68 2.53 o
775 2 1 3 5 23.59 18.12 3.66 o
776 2 1 -3 5 23.98 18.11 3.20 o
777 2 2 3 5 12.89 11.30 3.04 o
778 2 2 -3 5 12.97 8.18 2.18 o
779 2 -3 -4 5 1.92 1.48 0.83 <
780 2 -2 -4 5 0.26 0.32 0.39 <
781 2 -1 4 5 15.53 10.85 2.23 o
782 2 -1 -4 5 14.94 11.18 2.21 o
783 2 0 4 5 0.17 0.14 0.51 <
784 2 0 -4 5 0.14 0.31 0.37 <
785 2 1 4 5 3.65 2.45 1.27 <
786 2 1 -4 5 3.59 1.76 1.11 <
787 2 2 4 5 18.04 16.06 3.59 o
788 2 2 -4 5 17.77 17.45 3.18 o
789 2 -4 -5 5 3.81 1.66 0.65 <
790 2 -3 -5 5 27.55 19.63 2.32 o
791 2 -2 5 5 46.28 65.34 5.02 o
792 2 -2 -5 5 45.16 57.85 4.58 o
793 2 -1 5 5 6.41 2.24 1.46 <
794 2 -1 -5 5 6.20 4.53 1.55 <
795 2 0 5 5 12.32 10.87 2.35 o
796 2 0 -5 5 12.31 12.18 2.26 o
797 2 1 5 5 20.93 16.88 3.50 o
798 2 1 -5 5 20.86 19.04 3.00 o
799 2 -5 -6 5 4.12 1.87 0.59 o
800 2 -4 -6 5 24.94 22.50 2.30 o
801 2 -3 -6 5 17.49 16.70 2.15 o
802 2 -2 6 5 16.53 22.11 2.95 o
803 2 -2 -6 5 17.03 24.01 2.85 o
804 2 -1 6 5 55.98 49.71 5.15 o
805 2 -1 -6 5 55.47 58.69 4.75 o
806 2 0 6 5 24.37 25.20 3.93 o
807 2 0 -6 5 24.38 26.80 3.29 o
808 2 1 6 5 2.40 0.47 0.43 <
809 2 1 -6 5 2.53 2.68 1.40 <
810 2 -3 7 5 6.76 7.87 1.42 o
811 2 -3 -7 5 6.74 8.56 1.43 o
812 2 -2 7 5 9.18 11.91 2.21 o
813 2 -2 -7 5 9.65 10.51 1.80 o
814 2 -1 7 5 2.61 1.16 1.06 <
815 2 -1 -7 5 2.71 0.92 0.64 <
816 2 1 0 6 8.16 5.09 1.72 <
817 2 2 0 6 1.49 0.74 0.52 <
818 2 1 1 6 7.17 1.41 0.67 <
819 2 1 -1 6 6.83 2.79 1.44 <
820 2 2 1 6 9.14 4.82 1.43 o
821 2 2 -1 6 9.65 5.54 2.17 <
822 2 0 2 6 31.07 21.55 3.79 o
823 2 0 -2 6 31.08 20.65 3.93 o
824 2 1 2 6 9.16 5.24 1.96 <
825 2 1 -2 6 9.35 5.43 1.87 <
826 2 -1 3 6 24.23 18.72 3.22 o
827 2 -1 -3 6 23.93 18.12 3.46 o
828 2 0 3 6 0.09 0.05 0.61 <
829 2 0 -3 6 0.09 0.36 0.60 <
830 2 1 3 6 16.65 9.95 2.85 o
831 2 1 -3 6 16.45 13.09 3.12 o
832 2 -2 -4 6 32.15 25.92 3.82 o
833 2 -1 4 6 4.56 2.14 0.89 <
834 2 -1 -4 6 4.63 1.74 1.15 <
835 2 0 4 6 35.76 19.82 3.66 o
836 2 0 -4 6 35.79 21.02 3.68 o
837 2 1 4 6 14.68 13.06 3.43 o
838 2 1 -4 6 14.68 8.12 2.26 o
839 2 -4 -5 6 13.88 12.95 2.76 o
840 2 -3 -5 6 8.30 8.94 2.02 o
841 2 -2 5 6 19.25 16.46 2.88 o
842 2 -2 -5 6 19.65 16.80 2.91 o
843 2 -1 5 6 22.72 16.94 2.91 o
844 2 -1 -5 6 22.78 14.19 2.79 o
845 2 0 5 6 5.53 3.43 1.84 <
846 2 0 -5 6 5.52 2.03 1.06 <
847 2 -4 -6 6 0.71 0.21 0.43 <
848 2 -3 -6 6 10.35 7.49 1.78 o
849 2 -2 6 6 5.22 4.03 1.65 <
850 2 -2 -6 6 4.93 3.14 1.12 <
851 2 -1 6 6 3.65 1.87 1.07 <
852 2 -1 -6 6 3.50 0.69 0.79 <
853 2 0 2 7 6.05 2.20 1.21 <
854 2 0 -2 7 6.06 1.76 1.21 <
855 2 -1 -3 7 17.88 7.25 2.69 <
856 2 -2 -4 7 18.98 10.88 2.87 o
857 2 -1 4 7 15.06 8.87 2.50 o
858 2 -1 -4 7 15.06 7.26 2.54 <
859 2 -3 -5 7 4.48 1.13 1.13 <
860 4 1 0 0 227.96 161.39 2.39 o
860 3 1 0 0 227.96 161.39 2.39 o
861 4 2 0 0 0.47 0.03 0.14 <
861 3 2 0 0 0.47 0.03 0.14 <
862 4 3 0 0 586.99 542.75 8.05 o
862 3 3 0 0 586.99 542.75 8.05 o
863 4 1 -1 0 674.93 726.34 8.18 o
863 3 1 1 0 674.93 726.34 8.18 o
864 4 1 1 0 674.98 720.12 8.62 o
864 3 1 -1 0 674.98 720.12 8.62 o
865 4 2 -1 0 62.56 52.89 3.17 o
865 3 2 1 0 62.56 52.89 3.17 o
866 4 2 1 0 62.35 48.53 2.89 o
866 3 2 -1 0 62.35 48.53 2.89 o
867 4 3 -1 0 2.75 0.80 0.59 <
867 3 3 1 0 2.75 0.80 0.59 <
868 4 3 1 0 2.75 2.11 0.76 <
868 3 3 -1 0 2.75 2.11 0.76 <
869 4 4 -1 0 155.41 156.18 8.31 o
869 3 4 1 0 155.41 156.18 8.31 o
870 4 4 1 0 155.36 170.91 6.79 o
870 3 4 -1 0 155.36 170.91 6.79 o
871 4 5 -1 0 17.26 24.03 3.88 o
871 3 5 1 0 17.26 24.03 3.88 o
872 4 5 1 0 17.23 28.56 3.06 o
872 3 5 -1 0 17.23 28.56 3.06 o
873 4 6 -1 0 0.87 0.53 0.62 <
873 3 6 1 0 0.87 0.53 0.62 <
874 4 1 -2 0 15.05 13.61 1.19 o
874 3 1 2 0 15.05 13.61 1.19 o
875 4 1 2 0 15.15 13.15 1.25 o
875 3 1 -2 0 15.15 13.15 1.25 o
876 4 2 -2 0 67.18 57.61 3.39 o
876 3 2 2 0 67.18 57.61 3.39 o
877 4 2 2 0 67.27 58.45 3.44 o
877 3 2 -2 0 67.27 58.45 3.44 o
878 4 3 -2 0 167.82 151.03 7.00 o
878 3 3 2 0 167.82 151.03 7.00 o
879 4 3 2 0 167.79 147.75 6.63 o
879 3 3 -2 0 167.79 147.75 6.63 o
880 4 4 -2 0 2.44 2.25 1.08 <
880 3 4 2 0 2.44 2.25 1.08 <
881 4 4 2 0 2.45 3.13 1.05 <
881 3 4 -2 0 2.45 3.13 1.05 <
882 4 5 -2 0 2.12 1.68 1.06 <
882 3 5 2 0 2.12 1.68 1.06 <
883 4 5 2 0 2.12 1.33 0.79 <
883 3 5 -2 0 2.12 1.33 0.79 <
884 4 6 -2 0 21.09 22.79 4.30 o
884 3 6 2 0 21.09 22.79 4.30 o
885 4 6 2 0 21.10 36.93 3.98 o
885 3 6 -2 0 21.10 36.93 3.98 o
886 4 1 3 0 103.06 138.67 4.86 o
886 3 1 -3 0 103.06 138.67 4.86 o
887 4 2 -3 0 509.75 535.53 10.63 o
887 3 2 3 0 509.75 535.53 10.63 o
888 4 2 3 0 509.82 533.76 11.08 o
888 3 2 -3 0 509.82 533.76 11.08 o
889 4 3 -3 0 46.80 37.20 3.62 o
889 3 3 3 0 46.80 37.20 3.62 o
890 4 3 3 0 46.79 48.39 3.97 o
890 3 3 -3 0 46.79 48.39 3.97 o
891 4 4 -3 0 7.31 4.16 1.30 o
891 3 4 3 0 7.31 4.16 1.30 o
892 4 4 3 0 7.28 4.76 1.11 o
892 3 4 -3 0 7.28 4.76 1.11 o
893 4 5 -3 0 18.74 15.46 2.90 o
893 3 5 3 0 18.74 15.46 2.90 o
894 4 5 3 0 18.77 19.68 3.00 o
894 3 5 -3 0 18.77 19.68 3.00 o
895 4 6 -3 0 10.88 6.76 2.34 <
895 3 6 3 0 10.88 6.76 2.34 <
896 4 6 3 0 10.88 13.50 2.48 o
896 3 6 -3 0 10.88 13.50 2.48 o
897 4 2 -4 0 3.81 3.56 0.80 o
897 3 2 4 0 3.81 3.56 0.80 o
898 4 2 4 0 3.77 4.88 1.15 o
898 3 2 -4 0 3.77 4.88 1.15 o
899 4 3 -4 0 69.86 66.09 4.58 o
899 3 3 4 0 69.86 66.09 4.58 o
900 4 3 4 0 69.87 74.40 5.21 o
900 3 3 -4 0 69.87 74.40 5.21 o
901 4 4 -4 0 0.21 0.16 0.23 <
901 3 4 4 0 0.21 0.16 0.23 <
902 4 4 4 0 0.21 0.05 0.44 <
902 3 4 -4 0 0.21 0.05 0.44 <
903 4 5 -4 0 0.89 0.22 0.53 <
903 3 5 4 0 0.89 0.22 0.53 <
904 4 5 4 0 0.89 -0.25 0.32 <
904 3 5 -4 0 0.89 -0.25 0.32 <
905 4 6 -4 0 10.23 7.10 2.25 o
905 3 6 4 0 10.23 7.10 2.25 o
906 4 6 4 0 10.23 11.76 2.48 o
906 3 6 -4 0 10.23 11.76 2.48 o
907 4 2 5 0 125.48 150.80 7.02 o
907 3 2 -5 0 125.48 150.80 7.02 o
908 4 3 -5 0 2.51 1.82 0.85 <
908 3 3 5 0 2.51 1.82 0.85 <
909 4 3 5 0 2.52 1.65 0.80 <
909 3 3 -5 0 2.52 1.65 0.80 <
910 4 4 -5 0 17.95 19.32 2.89 o
910 3 4 5 0 17.95 19.32 2.89 o
911 4 4 5 0 17.98 22.21 3.33 o
911 3 4 -5 0 17.98 22.21 3.33 o
912 4 5 -5 0 15.11 18.70 3.21 o
912 3 5 5 0 15.11 18.70 3.21 o
913 4 5 5 0 15.10 16.41 3.15 o
913 3 5 -5 0 15.10 16.41 3.15 o
914 4 3 -6 0 104.70 103.54 6.33 o
914 3 3 6 0 104.70 103.54 6.33 o
915 4 3 6 0 104.71 119.30 7.16 o
915 3 3 -6 0 104.71 119.30 7.16 o
916 4 4 -6 0 17.39 23.55 3.28 o
916 3 4 6 0 17.39 23.55 3.28 o
917 4 4 6 0 17.39 24.77 3.71 o
917 3 4 -6 0 17.39 24.77 3.71 o
918 4 5 -6 0 5.93 2.96 1.45 <
918 3 5 6 0 5.93 2.96 1.45 <
919 4 5 6 0 5.92 3.11 1.41 <
919 3 5 -6 0 5.92 3.11 1.41 <
920 4 3 7 0 2.08 0.92 0.86 <
920 3 3 -7 0 2.08 0.92 0.86 <
921 4 4 -7 0 58.99 73.36 6.24 o
921 3 4 7 0 58.99 73.36 6.24 o
922 4 4 7 0 59.00 74.53 6.92 o
922 3 4 -7 0 59.00 74.53 6.92 o
923 3 1 0 1 45.61 42.65 1.77 o
923 2 -1 0 -1 45.61 42.65 1.77 o
924 3 2 0 1 3.73 3.09 0.60 o
925 3 3 0 1 20.06 27.52 2.11 o
926 3 4 0 1 75.58 79.70 3.94 o
927 3 5 0 1 0.17 -0.64 0.73 <
928 3 6 0 1 1.55 0.98 1.49 <
929 3 -2 1 1 439.85 507.16 8.68 o
930 3 1 1 1 501.00 461.31 5.20 o
930 2 -1 -1 -1 501.00 461.31 5.20 o
931 3 1 -1 1 500.92 461.58 5.50 o
931 2 -1 1 -1 500.92 461.58 5.50 o
932 3 2 1 1 123.90 120.47 3.50 o
933 3 2 -1 1 120.34 109.20 3.57 o
934 3 3 1 1 97.11 93.58 3.63 o
935 3 3 -1 1 98.04 92.51 3.88 o
936 3 4 1 1 9.12 4.90 1.63 o
937 3 4 -1 1 9.04 7.45 1.23 o
938 3 5 1 1 8.58 4.73 1.88 <
939 3 5 -1 1 8.54 7.54 1.96 o
940 3 6 1 1 1.14 2.35 1.78 <
941 3 6 -1 1 1.26 0.52 0.43 <
942 3 -5 2 1 29.44 26.73 4.09 o
943 3 -5 -2 1 28.61 33.16 3.09 o
944 3 -4 2 1 18.76 15.42 2.41 o
945 3 -4 -2 1 18.03 19.01 2.14 o
946 3 -3 2 1 79.96 70.91 4.25 o
947 3 -3 -2 1 77.49 79.96 3.86 o
948 3 -2 2 1 299.89 290.39 6.59 o
949 3 -2 -2 1 299.76 285.98 6.02 o
950 3 -1 2 1 8.72 7.77 0.69 o
951 3 -1 -2 1 7.66 7.11 0.67 o
952 3 1 2 1 1049.26 1333.76 14.55 o
952 2 -1 -2 -1 1049.26 1333.76 14.55 o
953 3 1 -2 1 1049.21 1322.65 16.44 o
953 2 -1 2 -1 1049.21 1322.65 16.44 o
954 3 2 2 1 92.15 92.43 4.83 o
955 3 2 -2 1 94.96 90.99 4.98 o
956 3 3 2 1 0.78 0.13 0.36 <
957 3 3 -2 1 0.94 0.16 0.16 <
958 3 4 2 1 28.95 22.70 3.37 o
959 3 4 -2 1 29.63 23.46 3.17 o
960 3 5 2 1 5.86 2.96 1.51 <
961 3 5 -2 1 6.07 4.96 1.56 o
962 3 6 2 1 0.05 2.85 2.04 <
963 3 6 -2 1 0.04 0.07 0.38 <
964 3 -6 3 1 7.03 4.06 1.85 <
965 3 -6 -3 1 7.17 10.53 1.98 o
966 3 -5 3 1 0.10 -0.18 0.33 <
967 3 -5 -3 1 0.10 0.00 0.08 <
968 3 -4 3 1 20.64 17.72 2.60 o
969 3 -4 -3 1 19.74 22.57 2.64 o
970 3 -3 3 1 50.78 49.13 3.63 o
971 3 -3 -3 1 50.92 49.83 3.38 o
972 3 -2 3 1 2.12 1.24 0.32 o
973 3 -2 -3 1 2.12 2.01 0.59 o
974 3 -1 -3 1 56.91 56.40 2.32 o
975 3 2 3 1 128.02 137.10 6.01 o
976 3 2 -3 1 128.66 147.51 6.91 o
977 3 3 3 1 8.06 4.98 1.35 o
978 3 3 -3 1 8.79 5.40 1.41 o
979 3 4 3 1 2.03 0.91 0.60 <
980 3 4 -3 1 2.12 1.44 1.01 <
981 3 5 3 1 7.55 3.22 1.66 <
982 3 5 -3 1 7.51 6.38 1.92 o
983 3 -6 4 1 1.43 1.40 0.98 <
984 3 -6 -4 1 1.44 2.24 1.16 <
985 3 -5 4 1 23.40 17.63 2.89 o
986 3 -5 -4 1 23.99 25.71 3.23 o
987 3 -4 4 1 2.18 1.06 0.67 <
988 3 -4 -4 1 2.45 1.69 0.81 <
989 3 -3 4 1 33.46 33.28 3.06 o
990 3 -3 -4 1 34.25 35.11 3.27 o
991 3 -2 4 1 282.50 290.83 7.01 o
992 3 -2 -4 1 282.69 293.29 7.85 o
993 3 -1 -4 1 19.60 24.39 1.90 o
994 3 2 4 1 58.34 59.19 4.27 o
995 3 2 -4 1 57.47 80.24 5.67 o
996 3 3 4 1 6.62 3.83 1.18 o
997 3 3 -4 1 6.59 4.64 1.45 o
998 3 4 4 1 13.79 11.02 2.24 o
999 3 4 -4 1 13.21 10.09 2.25 o
1000 3 5 4 1 9.47 6.60 2.13 o
1001 3 5 -4 1 9.39 7.32 2.07 o
1002 3 -6 5 1 6.44 2.32 1.31 <
1003 3 -6 -5 1 6.26 6.21 1.76 o
1004 3 -5 5 1 0.78 0.30 0.77 <
1005 3 -5 -5 1 0.77 0.92 0.60 <
1006 3 -4 5 1 21.88 14.94 2.45 o
1007 3 -4 -5 1 23.06 21.50 2.97 o
1008 3 -3 5 1 60.00 57.17 4.00 o
1009 3 -3 -5 1 59.52 62.23 4.55 o
1010 3 -2 -5 1 41.14 54.99 3.49 o
1011 3 3 5 1 20.71 24.06 3.06 o
1012 3 3 -5 1 19.46 22.10 3.22 o
1013 3 4 5 1 3.33 1.11 0.61 <
1014 3 4 -5 1 3.27 1.10 0.50 <
1015 3 5 5 1 6.35 3.67 1.48 <
1016 3 5 -5 1 6.34 4.84 2.01 <
1017 3 -5 6 1 13.67 11.86 2.58 o
1018 3 -5 -6 1 13.68 14.53 2.80 o
1019 3 -4 6 1 2.64 2.38 1.07 <
1020 3 -4 -6 1 2.82 2.32 1.28 <
1021 3 -3 6 1 9.96 8.48 1.65 o
1022 3 -3 -6 1 10.80 8.12 1.75 o
1023 3 -2 -6 1 57.23 64.08 4.51 o
1024 3 3 -6 1 1.39 1.28 0.71 <
1025 3 4 6 1 22.76 22.51 3.32 o
1026 3 4 -6 1 22.91 26.26 4.36 o
1027 3 -4 7 1 22.16 23.37 3.20 o
1028 3 -4 -7 1 21.75 22.30 3.52 o
1029 3 -3 -7 1 10.44 6.59 1.55 o
1030 3 -2 -7 1 0.09 -0.38 0.76 <
1031 3 -3 -8 1 8.13 8.65 2.01 o
1032 3 1 0 2 2.97 4.20 0.62 o
1033 3 2 0 2 185.53 160.59 4.76 o
1033 2 -2 0 -2 185.53 160.59 4.76 o
1034 3 3 0 2 24.78 26.40 2.27 o
1035 3 4 0 2 0.91 0.50 0.46 <
1036 3 5 0 2 5.40 2.42 0.69 o
1037 3 0 1 2 67.29 60.98 2.42 o
1038 3 0 -1 2 67.10 64.02 2.35 o
1039 3 1 1 2 46.65 38.96 1.89 o
1040 3 1 -1 2 49.32 41.37 2.05 o
1041 3 2 1 2 24.15 23.74 1.81 o
1041 2 -2 -1 -2 24.15 23.74 1.81 o
1042 3 2 -1 2 24.14 25.47 1.98 o
1042 2 -2 1 -2 24.14 25.47 1.98 o
1043 3 3 1 2 44.42 53.07 3.13 o
1044 3 3 -1 2 46.10 53.67 3.36 o
1045 3 4 1 2 10.00 12.63 1.57 o
1046 3 4 -1 2 10.25 11.74 1.63 o
1047 3 5 1 2 3.84 4.24 1.01 o
1048 3 5 -1 2 3.94 2.32 0.90 <
1049 3 0 2 2 144.33 130.25 2.71 o
1050 3 0 -2 2 144.38 124.98 2.98 o
1051 3 1 2 2 145.10 154.24 4.35 o
1052 3 1 -2 2 142.31 154.45 4.24 o
1053 3 2 2 2 156.09 141.77 4.07 o
1053 2 -2 -2 -2 156.09 141.77 4.07 o
1054 3 2 -2 2 156.07 141.43 4.60 o
1054 2 -2 2 -2 156.07 141.43 4.60 o
1055 3 3 2 2 17.91 24.86 2.01 o
1056 3 3 -2 2 17.52 21.17 2.12 o
1057 3 4 2 2 2.12 1.73 1.21 <
1058 3 4 -2 2 2.13 1.48 0.72 <
1059 3 5 2 2 5.81 4.93 2.03 <
1060 3 5 -2 2 5.59 4.38 1.48 <
1061 3 -6 3 2 3.98 2.42 1.23 <
1062 3 -5 3 2 38.56 36.84 4.44 o
1063 3 -4 3 2 0.33 -0.23 0.41 <
1064 3 -3 3 2 53.84 53.71 3.37 o
1065 3 -3 -3 2 53.67 52.41 2.63 o
1066 3 -2 3 2 274.15 286.40 5.64 o
1067 3 -2 -3 2 273.69 285.13 4.63 o
1068 3 1 -3 2 168.79 159.69 4.64 o
1069 3 2 3 2 8.46 8.92 1.68 o
1069 2 -2 -3 -2 8.46 8.92 1.68 o
1070 3 2 -3 2 8.46 5.95 1.01 o
1070 2 -2 3 -2 8.46 5.95 1.01 o
1071 3 3 3 2 51.12 58.35 4.87 o
1072 3 3 -3 2 51.44 61.49 5.41 o
1073 3 4 3 2 10.93 9.96 2.18 o
1074 3 4 -3 2 10.76 11.18 2.56 o
1075 3 5 3 2 1.65 0.58 0.46 <
1076 3 5 -3 2 1.63 1.28 1.36 <
1077 3 -6 4 2 5.89 4.47 1.66 <
1078 3 -5 4 2 1.98 1.69 1.01 <
1079 3 -5 -4 2 2.06 2.94 1.07 <
1080 3 -4 4 2 61.68 53.88 4.43 o
1081 3 -4 -4 2 61.60 67.14 4.08 o
1082 3 -3 4 2 33.03 34.43 2.77 o
1083 3 -3 -4 2 32.37 37.36 2.71 o
1084 3 -2 4 2 1.38 2.01 0.50 o
1085 3 -2 -4 2 1.73 2.49 0.52 o
1086 3 2 -4 2 270.69 395.69 14.25 o
1086 2 -2 4 -2 270.69 395.69 14.25 o
1087 3 3 4 2 1.25 0.99 0.30 o
1088 3 3 -4 2 1.23 1.37 0.78 <
1089 3 4 4 2 5.36 4.66 1.80 <
1090 3 4 -4 2 5.28 2.05 0.99 <
1091 3 5 4 2 11.59 8.71 2.53 o
1092 3 5 -4 2 11.72 8.32 2.57 o
1093 3 -6 5 2 4.85 3.41 1.46 <
1094 3 -6 -5 2 4.93 9.39 1.89 o
1095 3 -5 5 2 16.81 13.55 2.67 o
1096 3 -5 -5 2 17.45 23.77 2.95 o
1097 3 -4 5 2 0.61 -0.08 0.46 <
1098 3 -4 -5 2 0.61 0.13 0.42 <
1099 3 -3 5 2 61.18 60.42 3.83 o
1100 3 -3 -5 2 61.61 68.58 4.35 o
1101 3 -2 -5 2 62.80 74.98 3.95 o
1102 3 -1 -5 2 37.76 35.66 2.30 o
1103 3 3 5 2 25.67 24.64 3.38 o
1104 3 3 -5 2 24.88 36.05 4.81 o
1105 3 4 5 2 10.55 9.93 2.27 o
1106 3 4 -5 2 10.67 13.42 3.16 o
1107 3 -5 6 2 5.15 2.62 1.16 <
1108 3 -5 -6 2 4.90 5.54 1.55 o
1109 3 -4 6 2 21.76 16.17 2.53 o
1110 3 -4 -6 2 21.74 21.25 2.88 o
1111 3 -3 6 2 12.06 8.05 1.49 o
1112 3 -3 -6 2 11.18 9.45 1.68 o
1113 3 -2 -6 2 21.98 31.99 2.50 o
1114 3 4 6 2 0.57 -0.15 0.34 <
1115 3 4 -6 2 0.62 1.58 1.52 <
1116 3 -4 7 2 0.12 -0.08 0.42 <
1117 3 -4 -7 2 0.12 0.05 0.61 <
1118 3 -3 -7 2 9.90 9.72 1.91 o
1119 3 -2 -7 2 10.33 15.65 1.85 o
1120 3 -3 -8 2 8.57 9.83 2.16 o
1121 3 -2 -8 2 1.38 0.90 0.32 <
1122 3 1 0 3 99.35 93.08 3.35 o
1123 3 2 0 3 2.50 2.40 0.71 o
1124 3 3 0 3 5.63 4.46 1.02 o
1124 2 -3 0 -3 5.63 4.46 1.02 o
1125 3 4 0 3 10.40 11.40 1.71 o
1126 3 0 1 3 37.36 35.39 2.45 o
1127 3 1 1 3 106.87 101.43 3.52 o
1128 3 1 -1 3 106.52 96.62 3.64 o
1129 3 2 1 3 22.81 24.41 1.99 o
1130 3 2 -1 3 22.08 24.91 2.13 o
1131 3 3 1 3 18.75 18.78 2.00 o
1131 2 -3 -1 -3 18.75 18.78 2.00 o
1132 3 3 -1 3 18.77 19.89 2.20 o
1132 2 -3 1 -3 18.77 19.89 2.20 o
1133 3 4 1 3 9.35 7.86 1.40 o
1134 3 4 -1 3 9.03 5.90 1.31 o
1135 3 0 2 3 149.53 153.77 4.35 o
1136 3 0 -2 3 149.37 147.33 4.12 o
1137 3 1 2 3 10.21 8.73 1.29 o
1138 3 1 -2 3 9.44 7.44 1.36 o
1139 3 2 2 3 20.63 20.56 1.74 o
1140 3 2 -2 3 21.23 21.69 2.02 o
1141 3 3 2 3 101.34 121.79 4.94 o
1141 2 -3 -2 -3 101.34 121.79 4.94 o
1142 3 3 -2 3 101.30 110.16 5.26 o
1142 2 -3 2 -3 101.30 110.16 5.26 o
1143 3 4 2 3 4.54 4.62 0.97 o
1144 3 4 -2 3 4.36 2.47 0.79 o
1145 3 0 3 3 0.93 0.62 0.19 o
1146 3 0 -3 3 0.93 0.39 0.22 <
1147 3 1 3 3 51.88 56.77 2.93 o
1148 3 1 -3 3 50.28 51.35 3.36 o
1149 3 2 3 3 42.46 48.42 2.59 o
1150 3 2 -3 3 41.98 47.08 3.29 o
1151 3 3 3 3 13.07 12.71 2.36 o
1151 2 -3 -3 -3 13.07 12.71 2.36 o
1152 3 3 -3 3 13.09 7.24 1.32 o
1152 2 -3 3 -3 13.09 7.24 1.32 o
1153 3 4 3 3 10.03 9.05 2.56 o
1154 3 4 -3 3 9.94 8.58 1.65 o
1155 3 -6 4 3 14.34 14.56 3.10 o
1156 3 -5 4 3 1.99 2.10 1.17 <
1157 3 -4 4 3 3.25 1.05 0.53 <
1158 3 -3 4 3 38.02 38.03 2.57 o
1159 3 -2 4 3 60.63 53.33 2.11 o
1160 3 0 -4 3 92.42 80.57 2.90 o
1161 3 1 -4 3 31.76 30.58 2.61 o
1162 3 2 -4 3 0.47 -0.24 0.31 <
1163 3 3 4 3 48.87 63.61 5.59 o
1163 2 -3 -4 -3 48.87 63.61 5.59 o
1164 3 3 -4 3 48.87 58.27 4.36 o
1164 2 -3 4 -3 48.87 58.27 4.36 o
1165 3 4 4 3 3.15 1.94 1.28 <
1166 3 4 -4 3 3.27 2.08 1.39 <
1167 3 -6 5 3 0.39 0.01 0.11 <
1168 3 -5 5 3 19.96 14.58 2.70 o
1169 3 -4 5 3 25.00 17.84 2.41 o
1170 3 -3 5 3 0.79 0.98 0.44 <
1171 3 0 -5 3 0.44 0.22 0.15 <
1172 3 1 -5 3 44.88 33.10 2.27 o
1173 3 3 -5 3 16.48 23.97 4.70 o
1173 2 -3 5 -3 16.48 23.97 4.70 o
1174 3 -5 6 3 5.40 2.12 0.98 <
1175 3 -5 -6 3 5.67 6.78 1.32 o
1176 3 -4 6 3 3.37 3.40 0.95 o
1177 3 -4 -6 3 3.23 2.93 0.68 o
1178 3 -3 6 3 55.83 65.76 3.60 o
1179 3 -3 -6 3 55.72 64.52 3.15 o
1180 3 -2 -6 3 18.95 20.09 1.46 o
1181 3 -4 7 3 22.34 26.55 3.03 o
1182 3 -4 -7 3 22.82 29.08 2.87 o
1183 3 -3 -7 3 1.14 0.78 0.31 <
1184 3 -2 -7 3 22.59 28.09 2.23 o
1185 3 -3 -8 3 32.91 42.50 3.56 o
1186 3 -2 -8 3 13.13 18.95 2.03 o
1187 3 1 0 4 133.15 134.90 4.68 o
1188 3 2 0 4 0.20 0.43 0.29 <
1189 3 3 0 4 0.46 0.73 0.60 <
1190 3 4 0 4 13.22 39.00 3.61 o
1191 3 0 1 4 172.63 153.83 6.48 o
1192 3 1 1 4 18.10 17.25 2.24 o
1193 3 1 -1 4 17.64 15.55 1.71 o
1194 3 2 1 4 26.47 27.41 2.39 o
1195 3 2 -1 4 26.44 26.38 2.45 o
1196 3 3 1 4 9.26 10.88 1.67 o
1197 3 3 -1 4 9.24 10.44 1.76 o
1198 3 4 1 4 2.91 3.02 0.91 o
1199 3 4 -1 4 2.86 3.09 1.06 <
1200 3 0 2 4 5.60 3.67 0.84 o
1201 3 1 2 4 45.58 42.57 3.49 o
1202 3 1 -2 4 44.34 34.43 3.22 o
1203 3 2 2 4 22.96 27.38 2.33 o
1204 3 2 -2 4 22.69 26.26 2.44 o
1205 3 3 2 4 1.28 0.72 0.60 <
1206 3 3 -2 4 1.28 0.53 0.65 <
1207 3 4 2 4 5.00 10.31 1.70 o
1208 3 4 -2 4 4.76 8.23 1.81 o
1209 3 -1 3 4 46.37 39.96 2.14 o
1210 3 0 3 4 0.56 0.63 0.43 <
1211 3 1 3 4 13.34 14.14 1.77 o
1212 3 1 -3 4 13.39 11.30 1.86 o
1213 3 2 3 4 11.47 16.39 2.04 o
1214 3 2 -3 4 11.90 11.09 2.25 o
1215 3 3 3 4 13.01 15.54 1.74 o
1216 3 3 -3 4 13.21 12.48 1.92 o
1217 3 -3 4 4 7.41 6.92 0.97 o
1218 3 0 -4 4 0.35 -0.03 0.13 <
1219 3 1 -4 4 12.79 14.45 2.03 o
1220 3 2 -4 4 27.74 28.69 3.58 o
1221 3 3 -4 4 0.02 -1.21 0.67 <
1222 3 -6 5 4 5.62 3.95 1.67 <
1223 3 -5 5 4 0.97 0.48 0.61 <
1224 3 -4 5 4 9.53 10.13 1.72 o
1225 3 -3 5 4 20.32 22.07 1.70 o
1226 3 0 -5 4 5.32 2.72 0.61 o
1227 3 1 -5 4 5.86 3.67 1.01 o
1228 3 2 -5 4 18.85 21.52 2.79 o
1229 3 3 -5 4 3.29 2.07 0.67 o
1230 3 -5 6 4 15.06 13.37 2.33 o
1231 3 -4 6 4 10.55 13.25 1.92 o
1232 3 -3 6 4 1.10 0.80 0.27 <
1233 3 0 -6 4 11.16 6.28 0.87 o
1234 3 1 -6 4 49.47 46.23 3.35 o
1235 3 2 -6 4 4.42 2.78 0.54 o
1236 3 -4 7 4 35.65 46.38 3.64 o
1237 3 0 -7 4 89.63 60.48 2.65 o
1238 3 1 -7 4 1.87 0.42 0.31 <
1239 3 1 0 5 7.11 4.77 1.58 o
1240 3 2 0 5 16.95 14.14 1.86 o
1241 3 3 0 5 11.66 14.68 2.13 o
1242 3 0 1 5 42.17 43.64 4.09 o
1243 3 1 1 5 20.03 19.75 2.85 o
1244 3 1 -1 5 19.27 20.68 2.78 o
1245 3 2 1 5 4.73 2.92 0.82 o
1246 3 2 -1 5 4.99 2.58 0.88 <
1247 3 3 1 5 5.63 5.78 1.41 o
1248 3 3 -1 5 5.74 5.68 1.57 o
1249 3 0 2 5 32.61 33.00 3.10 o
1250 3 1 2 5 1.42 0.74 0.31 <
1251 3 1 -2 5 1.32 1.03 0.62 <
1252 3 2 2 5 8.86 10.61 2.19 o
1253 3 2 -2 5 9.17 9.45 1.73 o
1254 3 3 2 5 5.02 4.45 1.13 o
1255 3 3 -2 5 5.29 5.06 1.48 o
1256 3 -1 3 5 12.08 15.66 1.67 o
1257 3 0 3 5 16.83 15.78 1.92 o
1258 3 1 3 5 21.60 26.73 2.89 o
1259 3 1 -3 5 21.96 24.51 3.02 o
1260 3 2 3 5 11.80 11.97 2.08 o
1261 3 2 -3 5 11.88 10.60 2.21 o
1262 3 -1 4 5 14.22 16.36 1.45 o
1263 3 0 4 5 0.16 0.16 0.24 <
1264 3 1 4 5 3.34 4.42 1.01 o
1265 3 1 -4 5 3.29 1.97 0.72 <
1266 3 2 4 5 16.52 27.60 2.81 o
1267 3 2 -4 5 16.27 15.52 2.81 o
1268 3 -4 5 5 3.44 1.83 0.69 <
1269 3 -3 5 5 24.40 21.01 1.50 o
1270 3 1 -5 5 19.10 18.53 2.43 o
1271 3 -5 6 5 3.73 1.82 0.79 <
1272 3 -4 6 5 23.03 26.99 2.53 o
1273 3 1 -6 5 2.32 1.62 0.74 <
1274 3 1 0 6 7.47 5.45 1.97 <
1275 3 2 0 6 1.37 2.29 1.46 <
1276 3 1 1 6 6.56 3.24 1.20 <
1277 3 2 1 6 8.37 5.78 2.04 <
1278 3 2 -1 6 8.84 5.92 1.41 o
1279 3 0 2 6 28.45 27.03 3.59 o
1280 3 1 2 6 8.39 7.98 2.02 o
1281 3 -1 3 6 22.19 27.89 3.02 o
1282 3 0 3 6 0.08 0.23 0.18 <
1283 3 1 3 6 15.25 20.40 3.03 o
1284 3 -1 4 6 4.18 1.92 0.60 o
1285 3 0 4 6 32.75 40.53 3.47 o
1286 3 1 4 6 13.44 22.49 2.67 o
1287 3 1 -4 6 13.44 13.23 2.23 o
1288 3 -1 5 6 20.80 32.82 1.97 o
1289 3 0 5 6 5.06 7.37 1.24 o
1290 3 -4 6 6 0.72 0.33 0.12 <
1291 3 0 2 7 5.54 3.58 1.45 <
1292 3 -1 4 7 13.79 20.37 2.84 o
1293 4 -6 0 1 0.38 0.26 0.25 <
1294 4 -5 0 1 30.86 31.27 2.58 o
1295 4 -4 0 1 2.18 1.77 0.54 o
1296 4 -3 0 1 0.07 0.05 0.09 <
1297 4 -2 0 1 73.92 61.65 2.26 o
1298 4 -1 0 1 106.43 76.84 1.59 o
1299 4 -6 1 1 4.35 4.92 1.39 o
1300 4 -6 -1 1 4.47 1.52 1.49 <
1301 4 -5 1 1 1.91 0.41 0.29 <
1302 4 -5 -1 1 1.92 1.40 0.93 <
1303 4 -4 1 1 48.09 40.93 2.71 o
1304 4 -4 -1 1 48.13 45.87 2.70 o
1305 4 -3 1 1 91.96 90.07 3.33 o
1306 4 -3 -1 1 93.84 92.67 3.31 o
1307 4 -2 1 1 397.25 373.39 5.44 o
1308 4 -2 -1 1 397.26 374.42 5.07 o
1309 5 -1 1 -1 585.80 735.03 10.62 o
1309 4 1 -1 1 585.80 735.03 10.62 o
1310 4 2 -1 1 108.69 160.79 7.10 o
1311 4 -6 2 1 2.11 1.93 0.89 <
1312 4 -6 -2 1 1.97 0.90 1.11 <
1313 4 -5 2 1 26.59 24.80 3.38 o
1314 4 -5 -2 1 25.84 19.55 3.55 o
1315 4 -4 2 1 16.95 11.10 2.26 o
1316 4 -4 -2 1 16.28 11.36 2.31 o
1317 4 -3 2 1 72.22 70.04 4.64 o
1318 4 -3 -2 1 69.98 73.20 4.65 o
1319 4 -2 2 1 270.85 305.63 8.07 o
1320 4 -2 -2 1 270.74 309.07 7.57 o
1321 5 -1 -2 -1 1227.73 1292.51 12.68 o
1321 4 1 2 1 1227.73 1292.51 12.68 o
1322 5 -1 2 -1 1227.37 1249.65 12.70 o
1322 4 1 -2 1 1227.37 1249.65 12.70 o
1323 4 2 2 1 83.22 90.41 4.25 o
1324 4 2 -2 1 85.77 104.81 5.18 o
1325 4 3 2 1 0.71 0.28 0.38 <
1326 4 3 -2 1 0.85 0.78 0.58 <
1327 4 4 2 1 26.15 33.62 3.06 o
1328 4 4 -2 1 26.76 35.47 4.73 o
1329 4 5 -2 1 5.48 7.46 3.01 <
1330 4 -6 3 1 6.35 6.41 1.77 o
1331 4 -6 -3 1 6.48 3.29 1.63 <
1332 4 -5 3 1 0.09 -0.53 0.67 <
1333 4 -5 -3 1 0.09 0.01 0.15 <
1334 4 -4 3 1 18.64 14.72 2.56 o
1335 4 -4 -3 1 17.83 15.63 2.64 o
1336 4 -3 3 1 45.87 48.80 4.24 o
1337 4 -3 -3 1 45.99 53.40 4.01 o
1338 4 -2 3 1 1.91 2.97 0.99 o
1339 4 0 3 1 8.52 10.54 0.97 o
1340 5 -1 -3 -1 33.10 41.98 2.52 o
1340 4 1 3 1 33.10 41.98 2.52 o
1341 5 -1 3 -1 32.99 43.82 2.50 o
1341 4 1 -3 1 32.99 43.82 2.50 o
1342 4 2 3 1 115.63 141.35 5.74 o
1343 4 2 -3 1 116.20 142.18 5.99 o
1344 4 3 3 1 7.28 7.01 1.41 o
1345 4 3 -3 1 7.94 5.60 1.36 o
1346 4 4 3 1 1.83 1.33 0.64 <
1347 4 4 -3 1 1.92 0.85 0.54 <
1348 4 5 3 1 6.82 11.53 2.02 o
1349 4 5 -3 1 6.78 7.89 2.46 o
1350 4 -6 4 1 1.29 -0.17 0.87 <
1351 4 -6 -4 1 1.30 0.78 0.87 <
1352 4 -5 4 1 21.14 18.12 3.07 o
1353 4 -5 -4 1 21.66 18.75 3.05 o
1354 4 -4 4 1 1.97 1.20 0.87 <
1355 4 -4 -4 1 2.21 1.38 0.85 <
1356 4 -3 4 1 30.22 37.16 4.00 o
1357 4 -3 -4 1 30.93 38.65 3.66 o
1358 5 -1 -4 -1 568.67 648.00 10.93 o
1358 4 1 4 1 568.67 648.00 10.93 o
1359 5 -1 4 -1 569.51 641.39 10.65 o
1359 4 1 -4 1 569.51 641.39 10.65 o
1360 4 2 4 1 52.69 62.06 4.08 o
1361 4 2 -4 1 51.90 63.06 3.97 o
1362 4 3 4 1 5.98 5.54 1.30 o
1363 4 3 -4 1 5.95 3.98 1.15 o
1364 4 4 4 1 12.46 14.69 2.33 o
1365 4 4 -4 1 11.93 12.70 2.49 o
1366 4 5 4 1 8.55 11.11 2.11 o
1367 4 5 -4 1 8.48 6.88 2.22 o
1368 4 -6 5 1 5.81 2.98 1.27 <
1369 4 -6 -5 1 5.65 3.26 1.62 <
1370 4 -5 5 1 0.70 0.50 0.45 <
1371 4 -5 -5 1 0.69 -0.14 0.39 <
1372 4 -4 5 1 19.76 19.71 3.32 o
1373 4 -4 -5 1 20.82 19.21 2.84 o
1374 4 -3 5 1 54.19 88.59 7.28 o
1375 5 -1 -5 -1 95.38 100.77 4.64 o
1375 4 1 5 1 95.38 100.77 4.64 o
1376 4 2 5 1 49.76 56.21 4.05 o
1377 4 2 -5 1 50.04 64.57 4.01 o
1378 4 3 5 1 18.71 20.59 2.80 o
1379 4 3 -5 1 17.57 17.75 2.32 o
1380 4 4 5 1 3.01 2.00 0.94 <
1381 4 4 -5 1 2.95 0.88 0.61 <
1382 4 5 5 1 5.73 6.04 1.54 o
1383 4 5 -5 1 5.73 2.18 0.88 <
1384 4 -5 6 1 12.35 8.91 2.52 o
1385 4 -5 -6 1 12.36 10.93 2.32 o
1386 4 -4 6 1 2.39 2.45 1.23 <
1387 4 -4 -6 1 2.54 1.78 0.94 <
1388 5 -1 -6 -1 185.36 271.69 9.67 o
1388 4 1 6 1 185.36 271.69 9.67 o
1389 4 2 6 1 14.96 19.66 2.55 o
1390 4 2 -6 1 13.97 20.26 2.55 o
1391 4 3 6 1 1.32 0.51 0.28 <
1392 4 3 -6 1 1.26 1.32 0.70 <
1393 4 4 6 1 20.56 21.81 3.09 o
1394 4 4 -6 1 20.69 21.53 3.07 o
1395 4 -4 7 1 20.01 41.68 6.61 o
1396 4 2 7 1 19.48 24.61 3.20 o
1397 4 3 7 1 38.36 40.28 4.01 o
1398 4 3 -7 1 38.90 44.55 4.01 o
1399 4 2 8 1 10.31 21.92 3.61 o
1400 4 3 8 1 1.34 0.33 4.35 <
1401 4 -7 0 2 5.85 5.65 1.24 o
1402 4 -6 0 2 0.00 0.51 0.57 <
1403 4 -5 0 2 0.17 0.34 0.35 <
1404 4 -4 0 2 24.62 20.92 2.02 o
1405 4 -3 0 2 0.34 0.05 0.14 <
1406 4 -2 0 2 0.51 0.00 0.15 <
1407 4 -7 1 2 0.84 0.17 0.47 <
1408 4 -7 -1 2 0.83 0.36 0.29 <
1409 4 -6 1 2 5.72 3.97 0.98 o
1410 4 -6 -1 2 5.73 6.03 1.09 o
1411 4 -5 1 2 8.56 5.43 1.06 o
1412 4 -5 -1 2 8.06 5.61 1.12 o
1413 4 -4 1 2 3.49 0.37 0.23 <
1414 4 -4 -1 2 3.49 1.12 0.46 <
1415 4 -3 1 2 95.63 93.86 3.45 o
1416 4 -3 -1 2 93.87 90.07 3.07 o
1417 4 -2 1 2 28.23 22.25 1.52 o
1418 4 -2 -1 2 30.18 28.22 1.83 o
1419 4 -7 2 2 3.33 3.20 1.48 <
1420 4 -7 -2 2 3.43 0.94 1.00 <
1421 4 -6 2 2 0.32 -0.14 0.36 <
1422 4 -6 -2 2 0.38 -0.84 0.70 <
1423 4 -5 2 2 3.59 1.79 0.54 o
1424 4 -5 -2 2 3.77 4.94 0.87 o
1425 4 -4 2 2 96.85 90.25 4.06 o
1426 4 -4 -2 2 96.91 93.34 3.54 o
1427 4 -3 2 2 72.93 74.59 3.16 o
1428 4 -3 -2 2 75.26 73.70 2.74 o
1429 4 -2 2 2 32.67 34.44 1.92 o
1430 4 -2 -2 2 31.82 30.83 1.51 o
1431 4 -6 3 2 3.59 1.58 0.99 <
1432 4 -6 -3 2 3.53 4.15 1.74 <
1433 4 -5 3 2 34.82 31.25 4.05 o
1434 4 -5 -3 2 34.39 36.51 4.29 o
1435 4 -4 3 2 0.30 0.19 0.22 <
1436 4 -4 -3 2 0.30 0.48 0.53 <
1437 4 -3 3 2 48.63 50.11 2.91 o
1438 4 -2 3 2 247.60 259.29 4.78 o
1439 4 0 3 2 286.78 318.99 4.19 o
1440 4 0 -3 2 286.83 320.08 5.19 o
1441 4 1 3 2 152.62 158.05 4.40 o
1442 4 1 -3 2 152.45 155.17 5.05 o
1443 5 -2 -3 -2 9.90 9.11 1.29 o
1443 4 2 3 2 9.90 9.11 1.29 o
1444 5 -2 3 -2 9.89 10.45 1.78 o
1444 4 2 -3 2 9.89 10.45 1.78 o
1445 4 3 -3 2 46.45 81.20 6.88 o
1446 4 4 -3 2 9.72 22.39 4.80 o
1447 4 -6 4 2 5.32 1.84 1.22 <
1448 4 -6 -4 2 5.33 1.91 1.24 <
1449 4 -5 4 2 1.79 1.66 1.18 <
1450 4 -5 -4 2 1.86 1.72 0.95 <
1451 4 -4 4 2 55.70 68.13 6.17 o
1452 4 -4 -4 2 55.64 61.48 5.12 o
1453 4 0 4 2 3.48 3.98 0.68 o
1454 4 0 -4 2 3.48 4.37 0.64 o
1455 4 1 4 2 32.14 36.54 2.56 o
1456 4 1 -4 2 32.72 36.60 2.51 o
1457 5 -2 -4 -2 316.86 301.87 8.62 o
1457 4 2 4 2 316.86 301.87 8.62 o
1458 5 -2 4 -2 316.57 314.48 9.26 o
1458 4 2 -4 2 316.57 314.48 9.26 o
1459 4 3 4 2 1.13 1.68 0.64 <
1460 4 3 -4 2 1.11 2.62 1.16 <
1461 4 4 4 2 4.84 9.14 1.72 o
1462 4 4 -4 2 4.77 2.92 1.27 <
1463 4 5 -4 2 10.58 19.17 4.53 o
1464 4 -6 5 2 4.38 2.68 1.50 <
1465 4 -6 -5 2 4.45 3.03 1.32 <
1466 4 -5 5 2 15.18 20.49 4.02 o
1467 4 -5 -5 2 15.76 16.51 2.93 o
1468 4 0 5 2 78.50 74.23 3.32 o
1469 4 1 5 2 64.03 65.34 3.77 o
1470 4 1 -5 2 63.68 72.36 3.63 o
1471 5 -2 -5 -2 27.05 27.56 2.70 o
1471 4 2 5 2 27.05 27.56 2.70 o
1472 5 -2 5 -2 27.15 23.58 2.39 o
1472 4 2 -5 2 27.15 23.58 2.39 o
1473 4 3 5 2 23.18 24.82 2.91 o
1474 4 3 -5 2 22.47 25.99 3.19 o
1475 4 4 5 2 9.53 16.18 2.36 o
1476 4 4 -5 2 9.64 12.07 2.84 o
1477 4 -5 6 2 4.65 4.60 2.38 <
1478 4 0 6 2 23.80 23.63 2.01 o
1479 4 1 6 2 21.03 19.74 2.06 o
1480 5 -2 -6 -2 76.33 72.75 4.68 o
1480 4 2 6 2 76.33 72.75 4.68 o
1481 5 -2 6 -2 76.77 61.76 4.00 o
1481 4 2 -6 2 76.77 61.76 4.00 o
1482 4 3 6 2 12.99 15.04 2.39 o
1483 4 3 -6 2 13.15 14.03 2.11 o
1484 4 4 6 2 0.52 0.43 0.37 <
1485 4 4 -6 2 0.56 0.10 0.36 <
1486 4 0 7 2 3.25 2.68 0.81 o
1487 4 1 7 2 7.07 6.38 1.28 o
1488 5 -2 -7 -2 3.59 3.39 0.93 o
1488 4 2 7 2 3.59 3.39 0.93 o
1489 5 -2 7 -2 3.54 3.07 0.96 o
1489 4 2 -7 2 3.54 3.07 0.96 o
1490 4 3 7 2 6.05 6.01 1.59 o
1491 4 3 -7 2 6.00 7.00 1.47 o
1492 4 1 8 2 12.86 15.24 2.09 o
1493 5 -2 -8 -2 43.85 41.91 3.71 o
1493 4 2 8 2 43.85 41.91 3.71 o
1494 4 -7 0 3 1.14 1.12 0.63 <
1495 4 -6 0 3 9.72 7.34 1.38 o
1496 4 -5 0 3 0.34 1.62 1.00 <
1497 4 -4 0 3 2.45 2.23 0.59 o
1498 4 -3 0 3 290.10 293.39 5.80 o
1499 4 -7 1 3 2.78 1.61 0.76 <
1500 4 -7 -1 3 2.84 3.20 0.93 o
1501 4 -6 1 3 0.03 0.05 0.31 <
1502 4 -6 -1 3 0.03 -0.11 0.36 <
1503 4 -5 1 3 7.39 5.77 1.20 o
1504 4 -5 -1 3 7.86 6.55 1.13 o
1505 4 -4 1 3 45.93 40.83 2.70 o
1506 4 -4 -1 3 45.99 39.80 2.41 o
1507 4 -3 1 3 1.30 0.34 0.15 <
1508 4 -3 -1 3 1.25 0.68 0.39 <
1509 4 -7 2 3 0.28 0.46 0.62 <
1510 4 -7 -2 3 0.28 0.32 0.34 <
1511 4 -6 2 3 11.41 8.75 1.61 o
1512 4 -6 -2 3 11.38 9.25 1.31 o
1513 4 -5 2 3 4.15 2.62 0.86 o
1514 4 -5 -2 3 3.96 2.73 0.73 o
1515 4 -4 2 3 17.07 12.91 1.59 o
1516 4 -4 -2 3 17.76 13.86 1.44 o
1517 4 -3 2 3 76.90 73.96 3.34 o
1518 4 -3 -2 3 77.08 74.70 3.25 o
1519 4 -2 -2 3 87.27 95.26 2.91 o
1520 4 -7 3 3 1.88 1.19 0.70 <
1521 4 -7 -3 3 1.88 0.58 1.00 <
1522 4 -6 3 3 0.06 0.08 0.66 <
1523 4 -6 -3 3 0.06 0.01 0.64 <
1524 4 -5 3 3 36.13 33.59 3.07 o
1525 4 -5 -3 3 36.58 35.89 4.08 o
1526 4 -4 3 3 18.01 21.83 2.45 o
1527 4 -4 -3 3 18.83 21.82 1.79 o
1528 4 -3 3 3 22.80 23.27 2.01 o
1529 4 -3 -3 3 22.88 25.82 1.63 o
1530 4 -6 4 3 12.95 7.83 1.52 o
1531 4 -6 -4 3 12.95 9.29 2.24 o
1532 4 -5 4 3 1.80 -2.97 0.98 <
1533 4 -5 -4 3 1.75 1.10 0.96 <
1534 4 -4 4 3 2.93 1.40 0.57 <
1535 4 -3 4 3 34.34 35.97 2.39 o
1536 4 0 -4 3 83.47 69.97 2.69 o
1537 4 1 -4 3 28.68 26.39 2.36 o
1538 4 2 -4 3 0.43 0.01 0.59 <
1539 5 -3 4 -3 57.18 99.20 8.49 o
1539 4 3 -4 3 57.18 99.20 8.49 o
1540 4 -6 5 3 0.35 0.67 1.02 <
1541 4 -6 -5 3 0.35 0.01 0.22 <
1542 4 -4 5 3 22.58 17.71 2.03 o
1543 4 -3 5 3 0.71 0.94 0.37 <
1544 4 0 -5 3 0.39 0.07 0.06 <
1545 4 1 -5 3 40.53 36.51 2.54 o
1546 4 2 -5 3 36.83 31.60 2.93 o
1547 5 -3 5 -3 19.22 19.02 2.86 o
1547 4 3 -5 3 19.22 19.02 2.86 o
1548 4 0 6 3 34.59 32.69 2.06 o
1549 4 1 6 3 10.41 12.47 1.57 o
1550 4 1 -6 3 10.51 10.40 1.42 o
1551 4 2 6 3 14.33 16.39 2.00 o
1552 4 2 -6 3 13.96 8.84 1.52 o
1553 5 -3 -6 -3 22.33 23.03 2.73 o
1553 4 3 6 3 22.33 23.03 2.73 o
1554 5 -3 6 -3 22.47 18.98 2.67 o
1554 4 3 -6 3 22.47 18.98 2.67 o
1555 4 -1 7 3 7.15 5.22 0.82 o
1556 4 0 7 3 15.73 14.90 1.53 o
1557 4 1 7 3 26.09 28.12 2.47 o
1558 4 2 7 3 6.48 7.29 1.48 o
1559 4 2 -7 3 6.12 3.17 0.88 o
1560 4 -1 8 3 11.57 13.84 1.55 o
1561 4 0 8 3 42.73 40.06 2.70 o
1562 4 1 8 3 10.89 9.14 1.45 o
1563 4 -7 0 4 1.20 0.96 0.64 <
1564 4 -6 0 4 0.05 0.21 0.23 <
1565 4 -5 0 4 29.00 28.69 2.37 o
1566 4 -4 0 4 58.91 63.75 4.54 o
1567 4 -7 1 4 3.31 3.23 1.25 <
1568 4 -7 -1 4 3.25 2.57 0.97 <
1569 4 -6 1 4 5.77 3.51 0.94 o
1570 4 -6 -1 4 5.73 4.26 1.02 o
1571 4 -5 1 4 1.83 0.50 0.29 <
1572 4 -5 -1 4 1.82 0.57 0.36 <
1573 4 -4 1 4 78.24 85.33 4.52 o
1574 4 -4 -1 4 78.66 83.52 4.96 o
1575 4 -7 2 4 0.36 -0.05 0.38 <
1576 4 -7 -2 4 0.35 0.94 0.48 <
1577 4 -6 2 4 0.22 -0.27 0.49 <
1578 4 -6 -2 4 0.18 0.23 0.25 <
1579 4 -5 2 4 25.95 22.82 2.33 o
1580 4 -5 -2 4 26.72 22.32 2.21 o
1581 4 -4 2 4 1.67 1.18 0.53 <
1582 4 -4 -2 4 1.54 1.64 0.63 <
1583 4 -3 -2 4 0.90 0.41 0.32 <
1584 4 -7 3 4 1.88 2.05 1.08 <
1585 4 -7 -3 4 1.87 1.46 0.53 <
1586 4 -6 3 4 3.10 2.69 1.08 <
1587 4 -6 -3 4 3.16 3.30 0.94 o
1588 4 -5 3 4 0.02 -0.37 0.49 <
1589 4 -5 -3 4 0.02 -0.33 0.39 <
1590 4 -4 3 4 3.08 1.19 0.59 <
1591 4 -4 -3 4 3.30 1.79 0.52 o
1592 4 -3 -3 4 7.39 5.89 0.78 o
1593 4 -2 -3 4 3.86 2.28 0.42 o
1594 4 -6 4 4 6.08 3.15 1.48 <
1595 4 -5 4 4 22.63 25.39 3.15 o
1596 4 -4 4 4 0.03 -0.26 0.39 <
1597 4 -1 -4 4 29.36 24.68 1.23 o
1598 4 0 -4 4 0.32 0.02 0.16 <
1599 4 -6 5 4 5.08 2.59 0.98 <
1600 4 -5 5 4 0.88 0.24 0.26 <
1601 4 -4 5 4 8.61 7.78 1.37 o
1602 4 -3 5 4 18.35 11.53 1.22 o
1603 4 0 -5 4 4.80 3.73 0.68 o
1604 4 1 -5 4 5.29 2.74 0.85 o
1605 4 2 -5 4 17.02 15.88 2.51 o
1606 4 3 -5 4 2.97 2.29 1.57 <
1607 4 -5 6 4 13.60 9.77 1.98 o
1608 4 -4 6 4 9.52 9.96 1.40 o
1609 4 0 -6 4 10.08 6.83 0.91 o
1610 4 1 -6 4 44.68 29.83 2.42 o
1611 4 2 -6 4 3.99 2.56 0.84 o
1612 4 -4 7 4 32.19 30.94 2.49 o
1613 4 1 -7 4 1.69 0.87 0.50 <
1614 4 -3 8 4 1.77 0.77 0.29 <
1615 4 -7 0 5 5.80 2.62 0.97 <
1616 4 -6 0 5 0.35 0.10 0.29 <
1617 4 -5 0 5 3.61 1.51 0.83 <
1618 4 -7 1 5 0.98 -0.17 0.24 <
1619 4 -7 -1 5 0.98 0.31 0.66 <
1620 4 -6 1 5 4.80 3.81 1.13 o
1621 4 -6 -1 5 4.69 2.86 0.88 o
1622 4 -5 -1 5 9.30 10.85 2.21 o
1623 4 -7 2 5 3.52 1.96 0.89 <
1624 4 -7 -2 5 3.42 2.30 0.81 <
1625 4 -6 2 5 2.67 1.96 0.80 <
1626 4 -6 -2 5 2.82 1.44 0.74 <
1627 4 -5 2 5 1.03 1.12 0.68 <
1628 4 -5 -2 5 1.02 0.17 0.30 <
1629 4 -4 -2 5 28.08 25.90 2.63 o
1630 4 -6 3 5 7.26 5.62 1.56 o
1631 4 -6 -3 5 7.13 6.20 1.27 o
1632 4 -5 3 5 10.29 6.92 1.30 o
1633 4 -5 -3 5 10.01 8.98 1.39 o
1634 4 -4 -3 5 2.03 1.43 0.63 <
1635 4 -3 -3 5 49.06 54.90 2.72 o
1636 4 -6 4 5 1.74 0.44 0.53 <
1637 4 -6 -4 5 1.74 2.08 0.66 o
1638 4 -5 4 5 0.45 -0.13 0.34 <
1639 4 -5 -4 5 0.45 -0.17 0.20 <
1640 4 -4 -4 5 12.28 9.87 1.08 o
1641 4 -3 -4 5 1.59 1.21 0.33 o
1642 4 -6 5 5 5.75 2.93 1.32 <
1643 4 -5 5 5 7.01 6.21 1.11 o
1644 4 -1 -5 5 5.13 2.62 0.45 o
1645 4 0 -5 5 10.18 10.03 1.41 o
1646 4 -5 6 5 3.37 1.06 0.58 <
1647 4 0 -6 5 20.17 11.86 1.23 o
1648 4 1 -6 5 2.10 0.66 0.46 <
1649 4 -7 0 6 0.00 0.37 0.51 <
1650 4 -6 0 6 1.89 0.95 0.76 <
1651 4 -6 -1 6 0.65 0.47 0.54 <
1652 4 -6 -2 6 10.12 8.89 1.79 o
1653 4 -5 -2 6 6.43 3.68 1.16 o
1654 4 -6 3 6 6.42 1.58 0.97 <
1655 4 -6 -3 6 6.43 3.31 1.05 o
1656 4 -5 -3 6 6.72 6.74 1.27 o
1657 4 -4 -3 6 11.13 12.69 1.60 o
1658 4 -6 4 6 5.28 2.27 1.81 <
1659 4 -6 -4 6 5.35 5.31 1.37 o
1660 4 -5 -4 6 9.65 7.72 1.09 o
1661 4 -4 -4 6 5.49 4.96 0.79 o
1662 4 -3 -4 6 22.48 19.92 1.52 o
1663 4 -5 -5 6 6.51 6.03 0.82 o
1664 4 -4 -5 6 11.48 12.19 0.88 o
1665 4 -1 -6 6 2.89 0.57 0.20 <
1666 4 -6 -2 7 0.01 0.49 0.58 <
1667 4 -5 -3 7 1.09 0.95 0.55 <
1668 4 -4 -4 7 3.66 1.77 0.57 o
1669 6 1 3 0 160.99 168.52 2.79 o
1669 5 1 -3 0 160.99 168.52 2.79 o
1670 6 2 -3 0 796.30 854.82 6.74 o
1670 5 2 3 0 796.30 854.82 6.74 o
1671 6 2 -4 0 5.95 6.43 0.68 o
1671 5 2 4 0 5.95 6.43 0.68 o
1672 6 2 4 0 5.90 7.87 0.66 o
1672 5 2 -4 0 5.90 7.87 0.66 o
1673 6 3 -4 0 109.13 112.94 2.95 o
1673 5 3 4 0 109.13 112.94 2.95 o
1674 6 2 5 0 196.01 209.21 3.86 o
1674 5 2 -5 0 196.01 209.21 3.86 o
1675 6 3 -5 0 3.93 4.12 0.57 o
1675 5 3 5 0 3.93 4.12 0.57 o
1676 6 4 -5 0 28.05 33.78 1.80 o
1676 5 4 5 0 28.05 33.78 1.80 o
1677 6 2 6 0 69.88 81.19 2.64 o
1677 5 2 -6 0 69.88 81.19 2.64 o
1678 6 3 6 0 163.56 171.21 3.74 o
1678 5 3 -6 0 163.56 171.21 3.74 o
1679 6 4 -6 0 27.16 36.46 1.73 o
1679 5 4 6 0 27.16 36.46 1.73 o
1680 6 5 -6 0 9.25 9.70 1.06 o
1680 5 5 6 0 9.25 9.70 1.06 o
1681 6 2 7 0 34.44 40.66 2.09 o
1681 5 2 -7 0 34.44 40.66 2.09 o
1682 6 3 7 0 3.25 1.89 0.49 o
1682 5 3 -7 0 3.25 1.89 0.49 o
1683 6 4 -7 0 92.16 83.19 2.82 o
1683 5 4 7 0 92.16 83.19 2.82 o
1684 6 2 8 0 4.47 3.74 0.83 o
1684 5 2 -8 0 4.47 3.74 0.83 o
1685 6 3 8 0 100.44 108.83 3.26 o
1685 5 3 -8 0 100.44 108.83 3.26 o
1686 5 0 0 1 199.71 129.71 1.61 o
1687 5 0 1 1 732.28 672.53 5.74 o
1688 5 0 -1 1 732.34 679.76 5.73 o
1689 5 1 1 1 585.80 615.68 6.38 o
1689 4 -1 -1 -1 585.80 615.68 6.38 o
1690 5 0 2 1 0.42 0.06 0.20 <
1691 5 0 -2 1 0.44 0.26 0.19 <
1692 5 1 2 1 1227.37 1293.74 9.45 o
1692 4 -1 -2 -1 1227.37 1293.74 9.45 o
1693 5 1 -2 1 1227.73 1330.81 9.46 o
1693 4 -1 2 -1 1227.73 1330.81 9.46 o
1694 5 1 3 1 32.99 45.18 1.88 o
1694 4 -1 -3 -1 32.99 45.18 1.88 o
1695 5 1 -3 1 33.10 42.97 1.83 o
1695 4 -1 3 -1 33.10 42.97 1.83 o
1696 5 2 3 1 197.71 214.31 4.57 o
1697 5 2 -3 1 198.69 209.17 4.62 o
1698 5 1 4 1 569.51 685.30 8.60 o
1698 4 -1 -4 -1 569.51 685.30 8.60 o
1699 5 1 -4 1 568.67 679.09 8.16 o
1699 4 -1 4 -1 568.67 679.09 8.16 o
1700 5 2 4 1 90.10 108.14 3.26 o
1701 5 2 -4 1 88.75 97.65 3.14 o
1702 5 3 4 1 10.22 8.50 1.12 o
1703 5 -4 5 1 33.79 24.98 1.15 o
1704 5 -2 -5 1 63.53 57.03 1.91 o
1705 5 1 -5 1 95.38 103.89 3.46 o
1705 4 -1 5 -1 95.38 103.89 3.46 o
1706 5 2 5 1 85.09 98.34 3.50 o
1707 5 2 -5 1 85.56 95.98 3.20 o
1708 5 3 5 1 31.99 34.76 2.05 o
1709 5 4 5 1 5.14 4.29 0.95 o
1710 5 -5 6 1 21.12 18.42 1.06 o
1711 5 -3 -6 1 16.67 11.12 0.67 o
1712 5 1 -6 1 185.36 212.11 5.38 o
1712 4 -1 6 -1 185.36 212.11 5.38 o
1713 5 2 -6 1 23.88 27.54 1.87 o
1714 5 3 6 1 2.25 2.00 0.66 o
1715 5 3 -6 1 2.15 1.29 0.57 <
1716 5 4 6 1 35.15 43.96 2.40 o
1717 5 -3 -7 1 16.12 13.64 0.84 o
1718 5 2 -7 1 33.47 31.48 2.27 o
1719 5 3 7 1 65.59 62.87 3.02 o
1720 5 3 -7 1 66.51 68.10 3.02 o
1721 5 -3 -8 1 12.55 12.95 1.06 o
1722 5 2 -8 1 18.98 26.46 2.06 o
1723 5 3 -8 1 2.26 1.49 0.69 <
1724 5 -1 0 2 31.39 43.77 1.23 o
1725 5 0 0 2 11.60 13.70 0.76 o
1726 5 -2 1 2 48.27 38.98 1.55 o
1727 5 -1 1 2 378.30 384.56 3.74 o
1728 5 -1 -1 2 376.85 388.12 3.69 o
1729 5 0 1 2 103.92 104.11 3.08 o
1730 5 0 -1 2 103.62 111.53 3.07 o
1731 5 1 1 2 72.04 61.15 2.65 o
1732 5 -2 2 2 55.86 50.88 1.35 o
1733 5 -2 -2 2 54.41 48.52 1.45 o
1734 5 -1 -2 2 788.90 933.07 10.27 o
1735 5 0 2 2 222.90 202.17 4.53 o
1736 5 0 -2 2 222.96 203.30 4.55 o
1737 5 1 2 2 224.09 217.57 5.02 o
1738 5 1 -2 2 219.77 218.55 4.98 o
1739 5 0 3 2 490.36 519.62 8.24 o
1740 5 0 -3 2 490.45 523.12 7.76 o
1741 5 1 3 2 260.97 248.91 5.48 o
1742 5 1 -3 2 260.67 245.73 5.38 o
1743 5 2 3 2 9.89 8.54 1.11 o
1743 4 -2 -3 -2 9.89 8.54 1.11 o
1744 5 2 -3 2 9.90 10.96 1.34 o
1744 4 -2 3 -2 9.90 10.96 1.34 o
1745 5 0 4 2 5.95 5.30 0.97 o
1746 5 0 -4 2 5.94 6.66 1.03 o
1747 5 1 4 2 54.95 56.62 2.80 o
1748 5 1 -4 2 55.94 55.99 2.69 o
1749 5 2 4 2 316.57 330.49 6.83 o
1749 4 -2 -4 -2 316.57 330.49 6.83 o
1750 5 2 -4 2 316.86 336.04 6.99 o
1750 4 -2 4 -2 316.86 336.04 6.99 o
1751 5 3 4 2 1.92 1.80 0.68 <
1752 5 -5 5 2 25.96 19.51 0.86 o
1753 5 0 -5 2 134.31 131.80 4.66 o
1754 5 1 5 2 109.48 115.74 4.18 o
1755 5 1 -5 2 108.88 111.47 4.04 o
1756 5 2 5 2 27.15 29.17 2.09 o
1756 4 -2 -5 -2 27.15 29.17 2.09 o
1757 5 2 -5 2 27.05 29.06 2.01 o
1757 4 -2 5 -2 27.05 29.06 2.01 o
1758 5 3 5 2 39.64 42.87 2.77 o
1759 5 4 5 2 16.29 19.17 1.88 o
1760 5 1 -6 2 37.57 33.19 2.42 o
1761 5 2 6 2 76.77 88.58 3.91 o
1761 4 -2 -6 -2 76.77 88.58 3.91 o
1762 5 2 -6 2 76.33 79.68 3.57 o
1762 4 -2 6 -2 76.33 79.68 3.57 o
1763 5 3 6 2 22.20 27.59 2.21 o
1764 5 3 -6 2 22.49 21.64 2.08 o
1765 5 4 6 2 0.88 1.07 0.82 <
1766 5 1 -7 2 12.30 11.77 1.51 o
1767 5 2 7 2 3.54 3.90 0.99 o
1767 4 -2 -7 -2 3.54 3.90 0.99 o
1768 5 2 -7 2 3.59 3.58 0.85 o
1768 4 -2 7 -2 3.59 3.58 0.85 o
1769 5 3 7 2 10.35 16.21 1.70 o
1770 5 3 -7 2 10.25 9.89 1.45 o
1771 5 -3 -8 2 13.24 11.44 0.98 o
1772 5 1 -8 2 21.11 20.89 2.14 o
1773 5 2 -8 2 43.85 48.44 3.05 o
1773 4 -2 8 -2 43.85 48.44 3.05 o
1774 5 -2 0 3 4.48 4.01 0.52 o
1775 5 -1 0 3 7.47 7.32 0.67 o
1776 5 0 0 3 341.34 295.35 4.32 o
1777 5 -3 1 3 2.23 1.35 0.47 <
1778 5 -2 1 3 185.96 183.72 3.28 o
1779 5 -2 -1 3 191.55 179.91 3.22 o
1780 5 -1 1 3 79.63 67.94 1.95 o
1781 5 -1 -1 3 75.41 65.99 1.94 o
1782 5 0 1 3 57.70 57.00 2.77 o
1783 5 0 -1 3 57.68 54.58 2.73 o
1784 5 1 1 3 165.05 155.57 4.91 o
1785 5 -3 2 3 131.49 131.14 3.08 o
1786 5 -2 2 3 153.64 150.66 3.32 o
1787 5 -2 -2 3 149.23 149.40 3.43 o
1788 5 -1 2 3 220.79 234.25 5.70 o
1789 5 -1 -2 3 225.18 227.70 3.69 o
1790 5 0 2 3 230.93 243.85 5.93 o
1791 5 0 -2 3 230.68 231.62 5.82 o
1792 5 1 2 3 15.77 12.88 1.48 o
1793 5 1 -2 3 14.58 11.41 1.40 o
1794 5 -4 3 3 30.80 28.77 1.46 o
1795 5 -3 3 3 38.98 39.63 1.43 o
1796 5 -3 -3 3 39.11 33.28 1.50 o
1797 5 -2 -3 3 206.03 232.74 4.04 o
1798 5 -1 3 3 257.44 261.83 6.65 o
1799 5 -1 -3 3 257.98 260.16 6.44 o
1800 5 0 3 3 1.44 0.76 0.49 <
1801 5 0 -3 3 1.44 0.28 0.41 <
1802 5 1 3 3 80.13 79.49 3.70 o
1803 5 1 -3 3 77.64 72.89 3.47 o
1804 5 2 3 3 65.57 69.07 3.61 o
1805 5 -3 -4 3 58.32 40.97 1.43 o
1806 5 -2 -4 3 95.05 98.21 2.63 o
1807 5 -1 -4 3 56.99 60.70 3.46 o
1808 5 0 4 3 142.63 144.28 5.11 o
1809 5 0 -4 3 142.72 135.16 4.93 o
1810 5 1 4 3 48.26 46.70 2.88 o
1811 5 1 -4 3 49.05 47.84 2.88 o
1812 5 2 4 3 0.84 0.68 0.75 <
1813 5 2 -4 3 0.73 0.38 0.52 <
1814 5 3 4 3 57.18 55.58 3.64 o
1814 4 -3 -4 -3 57.18 55.58 3.64 o
1815 5 -3 -5 3 1.18 1.04 0.24 o
1816 5 0 5 3 0.67 0.00 0.60 <
1817 5 0 -5 3 0.67 0.33 0.54 <
1818 5 1 5 3 67.14 63.88 3.53 o
1819 5 1 -5 3 69.31 63.04 3.42 o
1820 5 2 5 3 61.43 62.89 3.50 o
1821 5 2 -5 3 62.98 64.40 3.56 o
1822 5 3 5 3 19.22 22.38 2.31 o
1822 4 -3 -5 -3 19.22 22.38 2.31 o
1823 5 -3 -6 3 86.04 71.47 1.64 o
1824 5 0 -6 3 59.09 48.92 3.31 o
1825 5 1 6 3 17.80 17.22 2.01 o
1826 5 1 -6 3 17.96 19.38 2.03 o
1827 5 2 6 3 24.51 23.79 2.32 o
1828 5 2 -6 3 23.87 23.59 2.21 o
1829 5 3 6 3 22.47 24.28 2.44 o
1829 4 -3 -6 -3 22.47 24.28 2.44 o
1830 5 3 -6 3 22.33 33.33 2.80 o
1830 4 -3 6 -3 22.33 33.33 2.80 o
1831 5 0 -7 3 26.85 20.61 2.32 o
1832 5 1 7 3 44.61 33.75 3.08 o
1833 5 1 -7 3 44.30 42.02 3.22 o
1834 5 2 7 3 11.08 11.14 1.82 o
1835 5 2 -7 3 10.47 10.00 1.60 o
1836 5 1 -8 3 18.23 14.58 1.98 o
1837 5 -3 0 4 36.45 41.74 1.91 o
1838 5 -2 0 4 132.66 126.47 3.02 o
1839 5 -1 0 4 169.91 156.40 3.45 o
1840 5 0 0 4 18.90 19.47 1.37 o
1841 5 -3 1 4 163.34 143.07 4.22 o
1842 5 -3 -1 4 161.55 142.28 4.59 o
1843 5 -2 1 4 18.85 20.34 1.25 o
1844 5 -2 -1 4 18.58 18.76 1.22 o
1845 5 -1 1 4 163.60 155.32 3.45 o
1846 5 -1 -1 4 164.29 153.54 3.45 o
1847 5 0 1 4 266.59 242.68 6.65 o
1848 5 0 -1 4 266.50 245.89 6.69 o
1849 5 -4 2 4 2.86 2.52 0.59 o
1850 5 -3 2 4 1.85 0.30 0.35 <
1851 5 -3 -2 4 1.54 0.58 0.45 <
1852 5 -2 2 4 117.57 114.29 3.01 o
1853 5 -2 -2 4 117.46 114.14 2.94 o
1854 5 -1 2 4 13.10 10.66 1.52 o
1855 5 -1 -2 4 14.29 12.49 1.04 o
1856 5 0 2 4 8.65 7.59 1.25 o
1857 5 0 -2 4 8.63 7.89 1.25 o
1858 5 1 2 4 70.39 62.91 3.65 o
1859 5 1 -2 4 68.47 59.78 3.65 o
1860 5 -5 3 4 0.03 0.24 0.40 <
1861 5 -4 3 4 5.26 4.26 0.67 o
1862 5 -3 3 4 13.78 15.34 1.20 o
1863 5 -3 -3 4 12.64 11.72 1.12 o
1864 5 -2 3 4 6.63 3.02 1.00 o
1865 5 -2 -3 4 6.59 5.67 0.70 o
1866 5 -1 3 4 71.61 72.75 3.89 o
1867 5 -1 -3 4 73.90 73.28 3.88 o
1868 5 0 3 4 0.87 0.10 0.60 <
1869 5 0 -3 4 0.74 0.35 0.56 <
1870 5 1 3 4 20.60 18.36 2.04 o
1871 5 1 -3 4 20.68 19.50 2.07 o
1872 5 2 3 4 17.72 19.14 2.18 o
1873 5 -5 4 4 38.70 39.50 1.65 o
1874 5 -4 4 4 0.06 0.05 0.24 <
1875 5 -3 -4 4 11.58 10.40 1.02 o
1876 5 -2 -4 4 203.81 204.63 4.80 o
1877 5 -1 4 4 50.94 49.87 3.45 o
1878 5 -1 -4 4 50.20 49.39 3.37 o
1879 5 0 4 4 0.58 0.27 0.70 <
1880 5 0 -4 4 0.54 -0.22 0.60 <
1881 5 1 4 4 19.00 19.74 2.20 o
1882 5 1 -4 4 19.75 20.55 2.21 o
1883 5 2 4 4 42.75 48.55 3.43 o
1884 5 2 -4 4 42.84 45.56 3.44 o
1885 5 -6 5 4 8.69 5.15 0.59 o
1886 5 -3 -5 4 33.38 37.53 1.77 o
1887 5 -1 5 4 78.09 62.25 4.14 o
1888 5 -1 -5 4 75.79 66.59 4.05 o
1889 5 0 5 4 8.15 7.43 1.44 o
1890 5 0 -5 4 8.21 8.16 1.45 o
1891 5 1 5 4 8.78 5.74 1.23 o
1892 5 1 -5 4 9.05 6.06 1.24 o
1893 5 2 5 4 29.65 28.99 2.62 o
1894 5 2 -5 4 29.11 29.83 2.73 o
1895 5 3 5 4 5.40 4.81 1.26 o
1896 5 -3 -6 4 1.74 1.60 0.44 o
1897 5 0 6 4 17.22 12.14 1.85 o
1898 5 0 -6 4 17.23 14.12 1.97 o
1899 5 1 6 4 75.61 81.33 4.56 o
1900 5 1 -6 4 76.40 70.05 4.20 o
1901 5 2 6 4 6.49 3.77 1.15 o
1902 5 2 -6 4 6.82 6.19 1.40 o
1903 5 0 -7 4 138.43 142.10 6.47 o
1904 5 1 7 4 3.05 0.65 0.86 <
1905 5 1 -7 4 2.89 1.04 0.82 <
1906 5 -4 0 5 128.36 123.41 4.98 o
1907 5 -3 0 5 40.76 43.52 2.13 o
1908 5 -2 0 5 5.90 6.68 0.82 o
1909 5 -1 0 5 214.98 222.42 4.70 o
1910 5 0 0 5 70.27 80.17 3.01 o
1911 5 -4 1 5 14.70 12.93 1.49 o
1912 5 -3 1 5 76.82 84.76 2.90 o
1913 5 -3 -1 5 74.04 76.45 2.72 o
1914 5 -2 1 5 38.23 49.92 2.22 o
1915 5 -2 -1 5 39.81 52.25 2.25 o
1916 5 -1 1 5 29.39 28.65 1.76 o
1917 5 -1 -1 5 30.13 28.49 1.74 o
1918 5 0 1 5 65.12 66.67 3.90 o
1919 5 0 -1 5 65.02 66.76 3.88 o
1920 5 -5 2 5 1.77 2.07 0.79 <
1921 5 -4 2 5 49.29 47.60 2.64 o
1922 5 -4 -2 5 48.01 35.24 2.65 o
1923 5 -3 2 5 31.23 34.14 1.88 o
1924 5 -3 -2 5 31.84 36.17 1.91 o
1925 5 -2 2 5 35.90 44.65 2.15 o
1926 5 -2 -2 5 34.94 44.96 2.13 o
1927 5 -1 2 5 66.66 61.14 3.83 o
1928 5 -1 -2 5 68.66 61.31 3.74 o
1929 5 0 2 5 50.36 45.43 3.38 o
1930 5 0 -2 5 50.29 48.07 3.41 o
1931 5 1 2 5 2.20 0.81 0.69 <
1932 5 1 -2 5 2.03 1.84 1.01 <
1933 5 -5 3 5 17.60 18.08 1.51 o
1934 5 -4 3 5 3.63 2.42 0.59 o
1935 5 -4 -3 5 3.48 1.98 0.79 <
1936 5 -3 3 5 84.32 84.96 3.39 o
1937 5 -3 -3 5 83.88 80.38 3.41 o
1938 5 -2 3 5 73.32 97.09 5.19 o
1939 5 -2 -3 5 74.20 93.72 3.17 o
1940 5 -1 3 5 18.65 20.79 2.38 o
1941 5 -1 -3 5 18.52 21.19 2.38 o
1942 5 0 3 5 25.99 21.60 2.39 o
1943 5 0 -3 5 26.03 23.32 2.39 o
1944 5 1 3 5 33.36 36.49 3.19 o
1945 5 1 -3 5 33.92 38.79 3.18 o
1946 5 2 3 5 18.23 19.67 2.37 o
1947 5 -6 4 5 2.98 2.29 0.63 o
1948 5 -5 4 5 0.77 0.03 0.40 <
1949 5 -4 4 5 19.96 23.97 1.63 o
1950 5 -4 -4 5 21.00 22.91 1.79 o
1951 5 -3 -4 5 2.71 3.54 0.89 o
1952 5 -2 4 5 0.32 -0.53 0.74 <
1953 5 -2 -4 5 0.36 0.02 0.69 <
1954 5 -1 4 5 21.96 21.86 2.54 o
1955 5 -1 -4 5 21.12 21.29 2.38 o
1956 5 0 4 5 0.25 0.35 0.63 <
1957 5 0 -4 5 0.20 -0.77 0.82 <
1958 5 1 4 5 5.16 3.72 1.17 o
1959 5 1 -4 5 5.08 5.15 1.40 o
1960 5 2 4 5 25.51 26.59 2.84 o
1961 5 2 -4 5 25.13 30.05 3.07 o
1962 5 -6 5 5 9.84 10.46 0.83 o
1963 5 -4 -5 5 5.39 3.53 0.67 o
1964 5 -3 -5 5 38.97 34.72 2.14 o
1965 5 -1 5 5 9.07 4.81 1.51 o
1966 5 -1 -5 5 8.77 8.01 1.65 o
1967 5 0 5 5 17.43 21.78 2.54 o
1968 5 0 -5 5 17.41 18.69 2.34 o
1969 5 1 5 5 29.60 31.00 3.02 o
1970 5 1 -5 5 29.50 32.69 3.04 o
1971 5 -4 -6 5 35.28 34.41 1.83 o
1972 5 -3 -6 5 24.74 29.40 1.96 o
1973 5 -1 6 5 79.18 68.64 4.97 o
1974 5 -1 -6 5 78.45 80.65 5.15 o
1975 5 0 6 5 34.46 37.51 3.60 o
1976 5 0 -6 5 34.48 42.27 3.65 o
1977 5 1 6 5 3.40 3.46 1.36 <
1978 5 1 -6 5 3.58 2.23 1.02 <
1979 5 -1 -7 5 3.83 2.29 1.19 <
1980 5 -4 0 6 2.30 -0.12 0.53 <
1981 5 -3 0 6 3.99 3.98 0.81 o
1982 5 -2 0 6 0.22 1.58 0.60 <
1983 5 -1 0 6 9.44 8.90 1.09 o
1984 5 -5 1 6 14.71 12.26 1.70 o
1985 5 -4 1 6 19.18 23.77 2.24 o
1986 5 -4 -1 6 18.79 20.53 1.64 o
1987 5 -3 1 6 14.61 25.48 1.90 o
1988 5 -3 -1 6 14.95 25.61 1.87 o
1989 5 -2 1 6 43.56 50.31 2.48 o
1990 5 -2 -1 6 43.63 50.34 2.48 o
1991 5 -1 1 6 31.46 33.58 2.16 o
1992 5 -1 -1 6 32.59 33.26 2.10 o
1993 5 0 1 6 20.95 19.18 2.49 o
1994 5 0 -1 6 20.93 20.06 2.33 o
1995 5 -5 2 6 11.38 10.48 1.45 o
1996 5 -4 2 6 4.68 4.05 0.95 o
1997 5 -4 -2 6 4.69 1.38 0.76 <
1998 5 -3 2 6 82.15 107.68 3.71 o
1999 5 -3 -2 6 81.53 102.12 3.51 o
2000 5 -2 2 6 41.45 64.35 2.98 o
2001 5 -2 -2 6 42.02 72.67 3.20 o
2002 5 -1 2 6 1.72 0.41 0.70 <
2003 5 -1 -2 6 1.87 0.76 0.81 <
2004 5 0 2 6 43.94 42.64 3.72 o
2005 5 0 -2 6 43.96 49.26 3.80 o
2006 5 1 2 6 12.96 13.71 2.13 o
2007 5 -6 3 6 10.98 7.50 1.28 o
2008 5 -5 3 6 11.47 16.26 1.61 o
2009 5 -4 3 6 18.70 23.92 2.00 o
2010 5 -4 -3 6 19.02 19.94 1.99 o
2011 5 -3 3 6 10.98 8.16 1.15 o
2012 5 -3 -3 6 11.28 13.49 1.48 o
2013 5 -2 3 6 20.28 21.84 2.74 o
2014 5 -2 -3 6 19.54 21.60 1.72 o
2015 5 -1 3 6 34.26 34.13 3.35 o
2016 5 -1 -3 6 33.84 36.50 3.26 o
2017 5 0 3 6 0.12 -0.29 0.98 <
2018 5 0 -3 6 0.12 0.55 0.87 <
2019 5 1 3 6 23.55 28.28 3.12 o
2020 5 1 -3 6 23.27 30.29 3.08 o
2021 5 -6 4 6 9.03 9.60 1.14 o
2022 5 -5 4 6 16.37 20.03 1.68 o
2023 5 -4 4 6 9.26 11.06 1.33 o
2024 5 -4 -4 6 9.39 7.24 1.19 o
2025 5 -3 -4 6 38.44 49.54 3.24 o
2026 5 -2 4 6 45.59 60.00 4.73 o
2027 5 -2 -4 6 45.46 62.80 4.58 o
2028 5 -1 4 6 6.45 3.95 1.42 <
2029 5 -1 -4 6 6.55 3.28 1.11 <
2030 5 0 4 6 50.57 43.95 3.89 o
2031 5 0 -4 6 50.62 49.43 3.89 o
2032 5 1 4 6 20.76 17.98 2.49 o
2033 5 1 -4 6 20.76 23.82 2.84 o
2034 5 -5 -5 6 11.13 6.94 1.17 o
2035 5 -4 -5 6 19.63 19.32 1.85 o
2036 5 -3 -5 6 11.74 19.01 1.99 o
2037 5 -2 5 6 27.23 30.95 3.53 o
2038 5 -2 -5 6 27.79 39.69 3.79 o
2039 5 -1 5 6 32.13 31.44 3.50 o
2040 5 -1 -5 6 32.21 39.34 3.70 o
2041 5 0 5 6 7.81 4.97 1.49 o
2042 5 0 -5 6 7.80 5.61 1.46 o
2043 5 -4 -6 6 1.00 0.74 0.67 <
2044 5 -2 -6 6 6.98 9.18 2.26 o
2045 5 -1 6 6 5.17 2.44 1.49 <
2046 5 -1 -6 6 4.95 2.32 1.29 <
2047 5 -5 0 7 7.72 5.93 1.44 o
2048 5 -4 0 7 18.94 19.69 1.77 o
2049 5 -3 0 7 1.62 0.69 0.48 <
2050 5 -2 0 7 27.95 25.76 2.01 o
2051 5 -1 0 7 12.46 11.33 1.43 o
2052 5 -5 1 7 7.65 6.41 1.48 o
2053 5 -5 -1 7 7.44 2.32 1.21 <
2054 5 -4 1 7 13.66 12.74 1.43 o
2055 5 -4 -1 7 14.23 11.45 1.39 o
2056 5 -3 1 7 17.35 17.13 1.56 o
2057 5 -3 -1 7 17.36 17.41 1.63 o
2058 5 -2 1 7 8.82 5.69 1.05 o
2059 5 -2 -1 7 8.38 3.94 0.97 o
2060 5 -1 1 7 8.87 5.93 1.81 o
2061 5 -1 -1 7 9.41 8.87 1.31 o
2062 5 0 1 7 11.17 9.41 1.98 o
2063 5 0 -1 7 11.22 13.52 2.30 o
2064 5 -6 2 7 0.01 0.26 0.65 <
2065 5 -5 2 7 10.37 12.14 1.67 o
2066 5 -5 -2 7 10.82 7.54 1.63 o
2067 5 -4 2 7 7.83 6.54 1.12 o
2068 5 -4 -2 7 8.15 7.87 1.16 o
2069 5 -3 2 7 1.97 1.21 0.62 <
2070 5 -3 -2 7 1.95 1.21 0.68 <
2071 5 -2 2 7 15.91 15.07 1.54 o
2072 5 -2 -2 7 15.43 14.47 1.58 o
2073 5 -1 2 7 13.86 13.72 2.39 o
2074 5 -1 -2 7 13.58 16.27 2.45 o
2075 5 0 2 7 8.56 5.36 1.73 o
2076 5 0 -2 7 8.57 7.03 1.78 o
2077 5 -5 3 7 1.85 1.04 0.71 <
2078 5 -5 -3 7 1.86 1.44 0.76 <
2079 5 -4 3 7 17.16 20.97 2.05 o
2080 5 -4 -3 7 17.30 15.75 1.92 o
2081 5 -3 3 7 24.33 24.50 1.96 o
2082 5 -3 -3 7 23.97 23.01 1.94 o
2083 5 -2 3 7 17.46 18.22 2.67 o
2084 5 -2 -3 7 17.33 15.33 1.58 o
2085 5 -1 3 7 24.97 18.27 2.74 o
2086 5 -1 -3 7 25.29 26.96 3.12 o
2087 5 -5 4 7 20.92 27.65 2.34 o
2088 5 -5 -4 7 20.66 21.27 2.42 o
2089 5 -4 4 7 6.49 8.46 1.30 o
2090 5 -4 -4 7 6.26 4.96 1.27 o
2091 5 -3 4 7 0.06 -0.21 0.99 <
2092 5 -3 -4 7 0.04 0.22 0.63 <
2093 5 -2 4 7 26.40 23.02 3.20 o
2094 5 -2 -4 7 26.85 28.85 3.42 o
2095 5 -1 4 7 21.30 16.31 2.66 o
2096 5 -1 -4 7 21.30 20.69 2.90 o
2097 5 -3 -5 7 6.33 2.29 0.94 <
2098 5 -4 0 8 25.34 27.25 2.22 o
2099 5 -3 0 8 21.74 24.04 2.05 o
2100 5 -2 0 8 1.55 1.90 0.86 <
2101 5 -4 1 8 4.35 3.23 1.02 o
2102 5 -4 -1 8 4.44 2.61 0.86 o
2103 5 -3 1 8 10.46 9.22 1.41 o
2104 5 -3 -1 8 10.28 7.52 1.25 o
2105 5 -2 1 8 15.24 15.76 1.73 o
2106 5 -2 -1 8 14.48 12.24 1.56 o
2107 5 -4 2 8 7.12 6.11 1.21 o
2108 5 -4 -2 8 7.48 4.98 1.15 o
2109 5 -3 2 8 9.69 6.53 1.14 o
2110 5 -3 -2 8 9.17 6.98 1.26 o
2111 6 -1 0 1 168.35 112.21 1.36 o
2112 6 0 0 1 184.74 117.55 1.39 o
2113 6 -1 1 1 514.39 524.10 4.34 o
2114 6 -1 -1 1 513.81 524.03 4.42 o
2115 6 -2 2 1 428.42 444.89 4.77 o
2116 6 -2 -2 1 428.24 446.39 4.80 o
2117 6 -1 2 1 12.46 11.21 0.76 o
2118 6 -1 -2 1 10.95 9.84 0.74 o
2119 6 -3 -3 1 72.74 80.04 2.43 o
2120 6 -2 3 1 3.03 3.42 0.47 o
2121 6 -2 -3 1 3.03 3.61 0.54 o
2122 6 -1 3 1 80.70 85.74 2.45 o
2123 6 -4 -4 1 3.49 2.11 0.63 o
2124 6 -3 4 1 47.80 46.71 1.96 o
2125 6 -3 -4 1 48.93 48.72 2.06 o
2126 6 -2 4 1 403.59 427.53 5.48 o
2127 6 -2 -4 1 403.85 422.73 5.87 o
2128 6 3 -4 1 9.41 8.33 0.61 o
2129 6 -5 -5 1 1.10 0.14 0.55 <
2130 6 -4 -5 1 32.94 31.63 1.81 o
2131 6 -3 5 1 85.71 86.64 2.59 o
2132 6 -3 -5 1 85.03 88.52 2.93 o
2133 6 -2 5 1 58.77 73.05 2.52 o
2134 6 3 -5 1 27.80 20.81 0.88 o
2135 6 4 -5 1 4.67 3.42 0.48 o
2136 6 -5 -6 1 19.55 21.74 1.58 o
2137 6 -4 -6 1 4.02 3.40 0.70 o
2138 6 -3 6 1 14.23 11.34 1.09 o
2139 6 -3 -6 1 15.42 11.76 1.24 o
2140 6 -2 6 1 81.94 79.73 2.87 o
2141 6 2 6 1 23.67 22.75 0.81 o
2142 6 4 -6 1 32.73 25.89 1.13 o
2143 6 -4 7 1 31.66 32.84 1.84 o
2144 6 -4 -7 1 31.07 30.08 1.92 o
2145 6 -3 7 1 15.49 13.39 1.16 o
2146 6 -2 7 1 0.12 0.12 0.57 <
2147 6 2 7 1 30.81 29.86 1.21 o
2148 6 -3 8 1 12.31 15.17 1.40 o
2149 6 2 8 1 16.31 18.81 1.16 o
2150 6 -1 0 2 29.04 40.28 1.04 o
2151 6 0 0 2 10.73 12.98 0.71 o
2152 6 -2 1 2 44.65 36.53 1.58 o
2153 6 -2 -1 2 47.73 40.56 1.68 o
2154 6 -1 1 2 349.96 376.95 3.20 o
2155 6 -1 -1 2 348.61 374.56 3.28 o
2156 6 0 1 2 96.13 101.99 2.22 o
2157 6 0 -1 2 95.85 103.68 2.04 o
2158 6 -3 2 2 115.36 112.29 3.28 o
2159 6 -3 -2 2 119.05 114.37 3.27 o
2160 6 -2 2 2 51.67 47.63 1.89 o
2161 6 -2 -2 2 50.33 43.40 1.95 o
2162 6 -1 2 2 730.50 830.32 8.12 o
2163 6 -1 -2 2 729.78 826.21 8.39 o
2164 6 0 2 2 206.19 191.71 2.50 o
2165 6 0 -2 2 206.25 195.02 2.29 o
2166 6 1 -2 2 203.30 185.12 2.73 o
2167 6 -4 -3 2 0.47 0.50 0.51 <
2168 6 -3 3 2 76.91 76.79 2.65 o
2169 6 -3 -3 2 76.68 80.21 2.79 o
2170 6 -2 3 2 391.65 399.83 6.04 o
2171 6 -2 -3 2 390.99 403.12 6.14 o
2172 6 -1 3 2 21.42 26.19 1.69 o
2173 6 0 3 2 453.62 446.11 3.55 o
2174 6 -5 -4 2 2.94 1.94 0.77 <
2175 6 -4 4 2 88.11 87.30 3.29 o
2176 6 -4 -4 2 88.00 88.48 3.32 o
2177 6 -3 4 2 47.19 52.78 2.29 o
2178 6 -3 -4 2 46.24 49.78 2.32 o
2179 6 -2 4 2 1.97 2.93 0.66 o
2180 6 -2 -4 2 2.47 3.54 0.72 o
2181 6 -5 -5 2 24.92 22.11 1.95 o
2182 6 -4 5 2 0.87 0.19 0.55 <
2183 6 -4 -5 2 0.87 0.22 0.61 <
2184 6 -3 5 2 87.40 88.12 3.08 o
2185 6 -3 -5 2 88.02 89.28 3.28 o
2186 6 -2 5 2 89.96 99.20 3.42 o
2187 6 -5 -6 2 7.00 5.79 1.15 o
2188 6 -4 6 2 31.08 27.90 1.79 o
2189 6 -4 -6 2 31.06 23.85 1.88 o
2190 6 -3 6 2 17.22 12.75 1.35 o
2191 6 -3 -6 2 15.97 10.48 1.39 o
2192 6 -2 6 2 31.21 36.24 2.27 o
2193 6 -4 7 2 0.17 0.24 0.63 <
2194 6 -4 -7 2 0.17 0.00 0.74 <
2195 6 -3 7 2 13.57 13.68 1.44 o
2196 6 -3 8 2 11.55 13.95 1.51 o
2197 6 -2 0 3 4.15 4.48 0.49 o
2198 6 -1 0 3 6.91 6.92 0.58 o
2199 6 0 0 3 315.76 264.94 5.15 o
2200 6 -3 1 3 2.06 1.26 0.52 <
2201 6 -3 -1 3 1.98 1.19 0.49 <
2202 6 -2 1 3 172.03 172.52 2.72 o
2203 6 -2 -1 3 177.20 174.45 2.85 o
2204 6 -1 1 3 73.66 62.40 1.66 o
2205 6 -1 -1 3 69.76 57.76 1.60 o
2206 6 0 1 3 53.38 46.92 2.05 o
2207 6 0 -1 3 53.36 54.82 1.98 o
2208 6 -4 -2 3 28.09 25.79 1.89 o
2209 6 -3 2 3 121.64 120.26 3.65 o
2210 6 -3 -2 3 121.92 118.26 3.89 o
2211 6 -2 2 3 142.13 137.69 3.87 o
2212 6 -2 -2 3 138.04 141.74 3.97 o
2213 6 -1 2 3 204.25 211.49 3.06 o
2214 6 -1 -2 3 208.30 213.76 3.21 o
2215 6 0 2 3 213.62 214.34 3.76 o
2216 6 0 -2 3 213.39 215.48 3.27 o
2217 6 1 -2 3 13.48 10.09 0.93 o
2218 6 -4 3 3 28.49 32.73 2.13 o
2219 6 -4 -3 3 29.78 33.68 2.21 o
2220 6 -3 3 3 36.06 39.08 2.13 o
2221 6 -3 -3 3 36.18 37.13 2.18 o
2222 6 -2 3 3 191.50 206.88 5.05 o
2223 6 -2 -3 3 190.59 217.85 5.45 o
2224 6 0 3 3 1.33 0.58 0.33 <
2225 6 0 -3 3 1.33 0.96 0.31 o
2226 6 1 -3 3 71.83 67.87 1.67 o
2227 6 -5 -4 3 2.77 3.36 1.03 o
2228 6 -4 4 3 4.64 4.22 0.87 o
2229 6 -4 -4 3 4.20 2.23 0.78 <
2230 6 -3 4 3 54.32 51.32 2.60 o
2231 6 -3 -4 3 53.95 54.80 2.77 o
2232 6 -2 4 3 86.61 91.38 3.60 o
2233 6 -2 -4 3 87.93 96.58 3.86 o
2234 6 0 4 3 131.94 118.28 2.21 o
2235 6 2 -4 3 0.67 0.06 0.17 <
2236 6 -6 -5 3 0.56 1.38 1.03 <
2237 6 -5 5 3 28.52 31.50 2.30 o
2238 6 -5 -5 3 27.62 25.70 2.10 o
2239 6 -4 5 3 35.72 35.72 2.21 o
2240 6 -4 -5 3 33.96 29.84 2.17 o
2241 6 -3 5 3 1.13 1.28 0.70 <
2242 6 -3 -5 3 1.09 0.95 0.70 <
2243 6 -2 5 3 83.99 86.52 3.69 o
2244 6 0 5 3 0.62 0.30 0.25 <
2245 6 -5 6 3 7.71 6.72 1.16 o
2246 6 -5 -6 3 8.10 4.82 1.21 o
2247 6 -4 6 3 4.81 3.81 0.97 o
2248 6 -4 -6 3 4.62 2.80 1.03 <
2249 6 -3 6 3 79.76 87.67 3.75 o
2250 6 -3 -6 3 79.60 74.90 3.92 o
2251 6 -4 7 3 31.92 35.17 2.39 o
2252 6 -4 -7 3 32.60 30.25 2.60 o
2253 6 -3 7 3 1.64 0.33 0.77 <
2254 6 -3 8 3 46.83 45.25 3.04 o
2255 6 -3 0 4 33.72 41.73 1.64 o
2256 6 -2 0 4 122.72 122.62 2.61 o
2257 6 -1 0 4 157.18 147.52 2.94 o
2258 6 0 0 4 17.49 18.37 1.65 o
2259 6 -4 1 4 123.76 134.05 4.45 o
2260 6 -4 -1 4 124.43 128.05 4.35 o
2261 6 -3 1 4 151.10 147.00 4.17 o
2262 6 -3 -1 4 149.45 142.42 4.44 o
2263 6 -2 1 4 17.43 19.40 1.09 o
2264 6 -2 -1 4 17.19 18.96 1.07 o
2265 6 -1 1 4 151.34 148.49 2.92 o
2266 6 -1 -1 4 151.98 153.60 2.99 o
2267 6 0 1 4 246.62 220.57 5.38 o
2268 6 0 -1 4 246.53 220.11 4.63 o
2269 6 -4 2 4 2.64 2.65 0.80 o
2270 6 -4 -2 4 2.43 2.48 0.79 o
2271 6 -3 2 4 1.71 0.46 0.56 <
2272 6 -3 -2 4 1.43 0.27 0.56 <
2273 6 -2 2 4 108.76 113.18 2.57 o
2274 6 -2 -2 4 108.66 116.43 4.09 o
2275 6 -1 2 4 12.11 10.65 0.85 o
2276 6 -1 -2 4 13.22 12.60 1.00 o
2277 6 0 2 4 8.00 5.21 0.88 o
2278 6 0 -2 4 7.98 6.93 0.80 o
2279 6 1 -2 4 63.34 55.47 2.36 o
2280 6 -5 3 4 0.03 -0.94 0.81 <
2281 6 -5 -3 4 0.03 0.10 0.70 <
2282 6 -4 3 4 4.87 5.43 1.00 o
2283 6 -4 -3 4 5.22 4.15 1.05 o
2284 6 -3 3 4 12.75 12.59 1.40 o
2285 6 -3 -3 4 11.70 11.61 1.50 o
2286 6 -2 3 4 6.14 6.37 1.09 o
2287 6 -2 -3 4 6.10 4.89 1.10 o
2288 6 -1 3 4 66.25 63.77 2.32 o
2289 6 0 3 4 0.80 -0.11 0.45 <
2290 6 0 -3 4 0.68 0.32 0.35 <
2291 6 1 -3 4 19.13 21.04 1.20 o
2292 6 -6 -4 4 9.60 6.84 1.49 o
2293 6 -5 4 4 35.80 39.87 2.70 o
2294 6 -5 -4 4 34.93 32.94 2.65 o
2295 6 -4 4 4 0.05 0.08 0.62 <
2296 6 -4 -4 4 0.14 0.39 0.78 <
2297 6 -3 4 4 10.59 7.79 1.25 o
2298 6 -3 -4 4 10.71 8.45 1.45 o
2299 6 -2 4 4 189.17 214.25 6.04 o
2300 6 -2 -4 4 188.53 212.01 6.54 o
2301 6 -1 4 4 47.13 43.86 1.89 o
2302 6 0 4 4 0.53 0.19 0.42 <
2303 6 1 -4 4 18.27 22.41 0.99 o
2304 6 2 -4 4 39.63 43.22 1.61 o
2305 6 -6 -5 4 7.94 8.41 1.62 o
2306 6 -5 5 4 1.39 0.29 0.72 <
2307 6 -5 -5 4 1.40 0.27 0.79 <
2308 6 -4 5 4 13.62 16.17 1.67 o
2309 6 -4 -5 4 13.18 10.86 1.53 o
2310 6 -3 5 4 29.03 32.43 2.48 o
2311 6 -3 -5 4 30.88 35.79 2.82 o
2312 6 -2 5 4 16.15 19.38 2.02 o
2313 6 0 5 4 7.54 7.41 0.73 o
2314 6 3 -5 4 4.69 2.86 0.49 o
2315 6 -5 6 4 21.51 26.61 2.24 o
2316 6 -5 -6 4 21.48 19.75 2.09 o
2317 6 -4 6 4 15.07 18.74 1.92 o
2318 6 -4 -6 4 15.05 14.92 1.93 o
2319 6 -3 6 4 1.57 1.31 0.95 <
2320 6 -3 -6 4 1.61 1.73 1.17 <
2321 6 0 6 4 15.93 12.57 0.83 o
2322 6 -4 7 4 50.92 55.41 3.29 o
2323 6 -4 -7 4 50.84 46.92 3.48 o
2324 6 -3 7 4 62.40 69.78 3.88 o
2325 6 0 7 4 127.97 104.96 2.25 o
2326 6 -4 0 5 118.75 131.09 3.26 o
2327 6 -3 0 5 37.70 42.14 1.82 o
2328 6 -2 0 5 5.45 7.28 0.80 o
2329 6 -1 0 5 198.87 201.97 3.90 o
2330 6 0 0 5 65.01 66.00 3.30 o
2331 6 -4 1 5 13.60 13.51 1.56 o
2332 6 -4 -1 5 13.69 12.97 1.63 o
2333 6 -3 1 5 71.07 81.40 2.42 o
2334 6 -3 -1 5 68.49 76.69 2.44 o
2335 6 -2 1 5 35.37 50.78 1.99 o
2336 6 -2 -1 5 36.83 51.56 1.95 o
2337 6 -1 1 5 27.19 23.46 1.47 o
2338 6 -1 -1 5 27.87 27.14 1.60 o
2339 6 0 -1 5 60.15 59.56 2.77 o
2340 6 -5 2 5 1.63 1.26 0.77 <
2341 6 -5 -2 5 1.62 1.74 1.01 <
2342 6 -4 2 5 45.60 46.95 2.80 o
2343 6 -4 -2 5 44.41 40.90 2.82 o
2344 6 -3 2 5 28.89 36.67 1.68 o
2345 6 -3 -2 5 29.45 32.19 2.54 o
2346 6 -2 2 5 33.21 44.95 1.86 o
2347 6 -2 -2 5 32.32 44.34 1.92 o
2348 6 -1 2 5 61.67 57.68 2.13 o
2349 6 -1 -2 5 63.51 60.45 2.48 o
2350 6 0 2 5 46.59 38.59 2.42 o
2351 6 0 -2 5 46.52 44.51 2.22 o
2352 6 1 -2 5 1.88 1.66 0.74 <
2353 6 -6 -3 5 11.28 10.61 1.84 o
2354 6 -5 3 5 16.28 17.18 1.91 o
2355 6 -5 -3 5 15.83 14.35 1.90 o
2356 6 -4 3 5 3.36 2.59 0.90 <
2357 6 -4 -3 5 3.22 1.69 1.03 <
2358 6 -3 3 5 78.00 75.29 3.78 o
2359 6 -3 -3 5 77.60 75.83 3.92 o
2360 6 -2 3 5 67.82 92.99 2.68 o
2361 6 -2 -3 5 68.64 107.11 4.89 o
2362 6 -1 3 5 17.25 19.36 1.61 o
2363 6 -1 -3 5 17.13 19.73 1.45 o
2364 6 0 3 5 24.04 15.21 1.53 o
2365 6 0 -3 5 24.08 23.48 1.39 o
2366 6 1 -3 5 31.38 33.70 1.78 o
2367 6 -6 4 5 2.75 3.83 1.37 <
2368 6 -6 -4 5 2.76 3.26 1.32 <
2369 6 -5 4 5 0.71 -0.12 0.76 <
2370 6 -5 -4 5 0.71 0.86 1.03 <
2371 6 -4 4 5 18.47 23.57 2.14 o
2372 6 -4 -4 5 19.43 18.53 2.11 o
2373 6 -3 4 5 2.48 2.73 1.12 <
2374 6 -3 -4 5 2.51 2.19 1.13 <
2375 6 -2 4 5 0.29 0.55 0.49 <
2376 6 -2 -4 5 0.33 -0.18 1.01 <
2377 6 -1 4 5 20.32 21.77 1.55 o
2378 6 0 4 5 0.23 -0.16 0.56 <
2379 6 0 -4 5 0.18 0.68 0.49 <
2380 6 1 -4 5 4.70 5.64 0.67 o
2381 6 2 -4 5 23.25 26.21 1.51 o
2382 6 -6 5 5 9.10 9.56 1.73 o
2383 6 -6 -5 5 9.35 4.82 1.47 o
2384 6 -5 5 5 11.09 16.86 1.94 o
2385 6 -5 -5 5 11.35 13.09 1.90 o
2386 6 -4 5 5 4.91 2.72 1.01 <
2387 6 -4 -5 5 4.98 2.47 1.21 <
2388 6 -3 5 5 34.86 33.86 2.82 o
2389 6 -3 -5 5 36.05 33.78 3.00 o
2390 6 -1 5 5 8.39 9.21 1.02 o
2391 6 0 5 5 16.12 13.48 1.17 o
2392 6 -5 6 5 5.34 4.49 1.24 o
2393 6 -5 -6 5 5.39 2.09 1.25 <
2394 6 -4 6 5 32.90 43.09 3.20 o
2395 6 -4 -6 5 32.64 35.35 3.25 o
2396 6 -3 6 5 23.23 32.44 3.05 o
2397 6 -3 -6 5 22.89 31.84 3.97 o
2398 6 -1 6 5 73.24 66.96 2.46 o
2399 6 0 6 5 31.88 24.99 1.41 o
2400 6 -4 0 6 2.12 0.61 0.54 <
2401 6 -3 0 6 3.69 2.36 0.64 o
2402 6 -2 0 6 0.20 1.16 0.58 <
2403 6 -1 0 6 8.73 7.05 0.96 o
2404 6 -5 1 6 13.61 16.25 1.99 o
2405 6 -5 -1 6 13.69 12.95 1.86 o
2406 6 -4 1 6 17.75 21.67 1.46 o
2407 6 -4 -1 6 17.39 20.83 1.53 o
2408 6 -3 1 6 13.51 19.99 1.46 o
2409 6 -3 -1 6 13.83 22.52 1.53 o
2410 6 -2 1 6 40.30 45.32 2.07 o
2411 6 -2 -1 6 40.36 49.49 2.16 o
2412 6 -1 1 6 29.10 28.17 1.73 o
2413 6 -1 -1 6 30.15 32.08 1.87 o
2414 6 0 -1 6 19.36 18.48 1.81 o
2415 6 -6 -2 6 16.01 16.08 2.21 o
2416 6 -5 2 6 10.52 9.14 1.55 o
2417 6 -5 -2 6 10.17 7.48 1.63 o
2418 6 -4 2 6 4.33 3.52 1.06 o
2419 6 -4 -2 6 4.34 3.01 1.21 <
2420 6 -3 2 6 76.00 94.29 3.01 o
2421 6 -3 -2 6 75.42 92.67 3.03 o
2422 6 -2 2 6 38.34 59.78 2.45 o
2423 6 -2 -2 6 38.88 62.69 2.57 o
2424 6 -1 2 6 1.59 1.59 0.96 <
2425 6 -1 -2 6 1.73 1.27 0.69 <
2426 6 0 -2 6 40.67 44.90 2.50 o
2427 6 1 -2 6 12.23 10.74 1.44 o
2428 6 -6 3 6 10.16 9.52 1.84 o
2429 6 -6 -3 6 10.17 5.20 1.59 o
2430 6 -5 3 6 10.61 15.69 1.95 o
2431 6 -5 -3 6 10.63 11.77 1.93 o
2432 6 -4 3 6 17.29 19.96 2.21 o
2433 6 -4 -3 6 17.60 19.14 2.31 o
2434 6 -3 3 6 10.15 10.93 1.16 o
2435 6 -3 -3 6 10.43 9.99 1.92 o
2436 6 -2 3 6 18.76 19.01 1.42 o
2437 6 -2 -3 6 18.08 17.87 1.48 o
2438 6 -1 3 6 31.70 30.70 2.22 o
2439 6 -1 -3 6 31.30 34.18 1.97 o
2440 6 0 -3 6 0.11 0.15 0.55 <
2441 6 1 -3 6 21.52 25.41 1.79 o
2442 6 -6 4 6 8.35 10.07 1.73 o
2443 6 -6 -4 6 8.46 7.75 1.78 o
2444 6 -5 4 6 15.14 17.46 2.11 o
2445 6 -5 -4 6 15.27 13.89 2.07 o
2446 6 -4 4 6 8.56 5.45 1.32 o
2447 6 -4 -4 6 8.69 6.07 1.60 o
2448 6 -3 4 6 35.51 49.14 3.60 o
2449 6 -3 -4 6 35.56 43.63 3.65 o
2450 6 -2 4 6 42.17 53.99 2.35 o
2451 6 -1 4 6 5.97 3.78 0.97 o
2452 6 -1 -4 6 6.06 5.81 0.99 o
2453 6 0 4 6 46.78 31.13 2.49 o
2454 6 0 -4 6 46.82 44.13 2.05 o
2455 6 1 -4 6 19.20 22.05 1.43 o
2456 6 -5 5 6 10.29 11.60 1.85 o
2457 6 -5 -5 6 10.30 7.60 1.72 o
2458 6 -4 5 6 18.31 24.24 2.56 o
2459 6 -4 -5 6 18.16 14.35 2.30 o
2460 6 -3 5 6 11.22 19.49 2.42 o
2461 6 -3 -5 6 10.86 11.67 2.35 o
2462 6 -2 5 6 25.19 33.02 2.08 o
2463 6 -1 5 6 29.72 23.31 1.90 o
2464 6 0 5 6 7.23 2.77 0.90 o
2465 6 -4 6 6 1.02 0.94 1.14 <
2466 6 -4 -6 6 0.93 1.84 1.52 <
2467 6 -3 6 6 13.16 16.12 2.32 o
2468 6 -1 6 6 4.78 1.79 0.75 <
2469 6 -5 0 7 7.14 5.66 1.04 o
2470 6 -4 0 7 17.52 20.08 1.56 o
2471 6 -3 0 7 1.50 1.05 0.72 <
2472 6 -2 0 7 25.86 25.05 1.75 o
2473 6 -1 0 7 11.53 7.17 1.17 o
2474 6 -5 1 7 7.08 5.65 1.37 o
2475 6 -5 -1 7 6.89 4.55 1.57 <
2476 6 -4 1 7 12.64 12.64 1.30 o
2477 6 -4 -1 7 13.16 13.76 1.36 o
2478 6 -3 1 7 16.05 17.79 1.49 o
2479 6 -3 -1 7 16.06 19.82 1.54 o
2480 6 -2 1 7 8.16 5.51 1.03 o
2481 6 -2 -1 7 7.75 4.40 0.93 o
2482 6 -1 1 7 8.21 5.15 1.05 o
2483 6 -1 -1 7 8.70 6.34 1.27 o
2484 6 0 -1 7 10.38 6.80 1.43 o
2485 6 -6 2 7 0.01 -0.13 1.03 <
2486 6 -6 -2 7 0.01 -0.84 1.32 <
2487 6 -5 2 7 9.59 10.74 1.69 o
2488 6 -5 -2 7 10.01 8.46 1.91 o
2489 6 -4 2 7 7.25 7.49 1.05 o
2490 6 -4 -2 7 7.54 6.69 1.68 o
2491 6 -3 2 7 1.82 1.37 0.70 <
2492 6 -3 -2 7 1.80 2.70 0.94 <
2493 6 -2 2 7 14.72 13.78 1.38 o
2494 6 -2 -2 7 14.27 12.88 1.38 o
2495 6 -1 2 7 12.82 13.52 1.86 o
2496 6 -1 -2 7 12.56 15.57 1.63 o
2497 6 0 -2 7 7.93 6.21 1.22 o
2498 6 -5 3 7 1.71 1.01 1.03 <
2499 6 -5 -3 7 1.72 0.67 1.09 <
2500 6 -4 3 7 15.87 20.91 2.38 o
2501 6 -4 -3 7 16.01 15.08 2.42 o
2502 6 -3 3 7 22.50 23.26 1.69 o
2503 6 -3 -3 7 22.17 18.21 2.68 o
2504 6 -2 3 7 16.15 13.31 1.36 o
2505 6 -2 -3 7 16.03 13.81 1.53 o
2506 6 -1 3 7 23.10 19.09 2.19 o
2507 6 -1 -3 7 23.40 28.21 1.98 o
2508 6 -5 4 7 19.35 24.35 2.69 o
2509 6 -5 -4 7 19.11 17.94 2.64 o
2510 6 -4 4 7 6.00 5.16 1.52 o
2511 6 -4 -4 7 5.79 3.34 1.60 <
2512 6 -3 4 7 0.06 -0.77 0.83 <
2513 6 -3 -4 7 0.04 0.01 1.39 <
2514 6 -2 4 7 24.42 21.75 2.08 o
2515 6 -1 4 7 19.70 17.76 1.95 o
2516 6 -1 -4 7 19.70 18.92 1.70 o
2517 6 -3 5 7 5.48 6.58 1.78 o
2518 6 -3 -5 7 5.86 2.65 1.81 <
2519 6 -4 0 8 23.44 26.82 1.96 o
2520 6 -3 0 8 20.11 24.97 1.93 o
2521 6 -2 0 8 1.44 -0.19 0.89 <
2522 6 -4 1 8 4.03 2.49 0.92 <
2523 6 -4 -1 8 4.10 3.22 1.02 o
2524 6 -3 1 8 9.68 8.76 1.26 o
2525 6 -3 -1 8 9.51 8.33 1.25 o
2526 6 -2 1 8 14.10 11.75 1.50 o
2527 6 -2 -1 8 13.39 10.89 1.44 o
2528 6 -4 2 8 6.59 5.06 1.08 o
2529 6 -4 -2 8 6.92 4.93 1.07 o
2530 6 -3 2 8 8.97 6.46 1.15 o
2531 6 -3 -2 8 8.48 7.30 1.23 o
