#------------------------------------------------------------------------------
#$Date: 2019-11-08 04:14:27 +0200 (Fri, 08 Nov 2019) $
#$Revision: 225332 $
#$URL: file:///home/coder/svn-repositories/cod/cif/7/23/19/7231995.cif $
#------------------------------------------------------------------------------
#
# This file is available in the Crystallography Open Database (COD),
# http://www.crystallography.net/
#
# All data on this site have been placed in the public domain by the
# contributors.
#
data_7231995
loop_
_publ_author_name
'Huddart, Benjamin M.'
'Brambleby, Jamie'
'Lancaster, Tom'
'Goddard, Paul A.'
'Xiao, Fan'
'Blundell, Stephen J.'
'Pratt, Francis L.'
'Singleton, John'
'Macchi, Piero'
'Scatena, Rebecca'
'Barton, Alyssa M.'
'Manson, Jamie L.'
_publ_section_title
;
 Magnetic order and enhanced exchange in the quasi-one-dimensional
 molecule-based antiferromagnet
 Cu(NO<sub>3</sub>)<sub>2</sub>(pyz)<sub>3</sub>.
;
_journal_issue                   3
_journal_name_full               'Physical chemistry chemical physics : PCCP'
_journal_page_first              1014
_journal_page_last               1018
_journal_paper_doi               10.1039/c8cp07160h
_journal_volume                  21
_journal_year                    2019
_chemical_formula_moiety         'C12 H12 Cu1 N8 O6'
_chemical_formula_sum            'C12 H12 Cu N8 O6'
_chemical_formula_weight         427.85
_space_group_crystal_system      triclinic
_space_group_IT_number           2
_space_group_name_Hall           '-P 1'
_space_group_name_H-M_alt        'P -1'
_symmetry_space_group_name_Hall  '-P 1'
_symmetry_space_group_name_H-M   'P -1'
_atom_sites_solution_hydrogens   geom
_audit_creation_method           SHELXL-2013
_audit_update_record
;
2018-12-11 deposited with the CCDC.
2018-12-14 downloaded from the CCDC.
;
_cell_angle_alpha                93.815(4)
_cell_angle_beta                 111.477(5)
_cell_angle_gamma                112.513(5)
_cell_formula_units_Z            1
_cell_length_a                   6.8023(3)
_cell_length_b                   7.2850(4)
_cell_length_c                   9.2846(5)
_cell_measurement_reflns_used    5258
_cell_measurement_temperature    173.00(10)
_cell_measurement_theta_max      28.0650
_cell_measurement_theta_min      2.4080
_cell_volume                     383.91(4)
_computing_cell_refinement
;
CrysAlisPro, Agilent Technologies,
Version 1.171.37.35 (release 13-08-2014 CrysAlis171 .NET)
(compiled Aug 13 2014,18:06:01)
;
_computing_data_collection
;
CrysAlisPro, Agilent Technologies,
Version 1.171.37.35 (release 13-08-2014 CrysAlis171 .NET)
(compiled Aug 13 2014,18:06:01)
;
_computing_data_reduction
;
CrysAlisPro, Agilent Technologies,
Version 1.171.37.35 (release 13-08-2014 CrysAlis171 .NET)
(compiled Aug 13 2014,18:06:01)
;
_computing_structure_refinement  'SHELXL-2013 (Sheldrick, 2013)'
_diffrn_ambient_temperature      173.00(10)
_diffrn_detector                 'CCD plate'
_diffrn_detector_area_resol_mean 16.0965
_diffrn_detector_type            Eos
_diffrn_measured_fraction_theta_full 1.000
_diffrn_measured_fraction_theta_max 0.922
_diffrn_measurement_device_type  'SuperNova, Single source at offset, Eos'
_diffrn_measurement_method       '\w scans'
_diffrn_radiation_monochromator  mirror
_diffrn_radiation_type           MoK\a
_diffrn_radiation_wavelength     0.71073
_diffrn_reflns_av_R_equivalents  0.0191
_diffrn_reflns_av_unetI/netI     0.0158
_diffrn_reflns_Laue_measured_fraction_full 1.000
_diffrn_reflns_Laue_measured_fraction_max 0.922
_diffrn_reflns_limit_h_max       8
_diffrn_reflns_limit_h_min       -9
_diffrn_reflns_limit_k_max       9
_diffrn_reflns_limit_k_min       -9
_diffrn_reflns_limit_l_max       12
_diffrn_reflns_limit_l_min       -12
_diffrn_reflns_number            6378
_diffrn_reflns_point_group_measured_fraction_full 1.000
_diffrn_reflns_point_group_measured_fraction_max 0.922
_diffrn_reflns_theta_full        25.242
_diffrn_reflns_theta_max         28.148
_diffrn_reflns_theta_min         2.429
_diffrn_source                   'SuperNova (Mo) X-ray Source'
_exptl_absorpt_coefficient_mu    1.479
_exptl_absorpt_correction_T_max  0.814
_exptl_absorpt_correction_T_min  0.374
_exptl_absorpt_correction_type   gaussian
_exptl_absorpt_process_details
;
CrysAlisPro 1.171.39.43c (Rigaku Oxford Diffraction, 2018)
Numerical absorption correction based on gaussian integration over
            a multifaceted crystal model
Empirical absorption correction using spherical harmonics,
 implemented in SCALE3 ABSPACK scaling algorithm.
;
_exptl_crystal_colour            blue
_exptl_crystal_density_diffrn    1.851
_exptl_crystal_description       prism
_exptl_crystal_F_000             217
_exptl_crystal_size_max          0.516
_exptl_crystal_size_mid          0.214
_exptl_crystal_size_min          0.177
_refine_diff_density_max         0.360
_refine_diff_density_min         -0.333
_refine_diff_density_rms         0.059
_refine_ls_extinction_coef       0.059(4)
_refine_ls_extinction_expression Fc^*^=kFc[1+0.001xFc^2^\l^3^/sin(2\q)]^-1/4^
_refine_ls_extinction_method     SHELXL
_refine_ls_goodness_of_fit_ref   1.103
_refine_ls_hydrogen_treatment    constr
_refine_ls_matrix_type           full
_refine_ls_number_parameters     125
_refine_ls_number_reflns         1737
_refine_ls_number_restraints     0
_refine_ls_restrained_S_all      1.103
_refine_ls_R_factor_all          0.0204
_refine_ls_R_factor_gt           0.0203
_refine_ls_shift/su_max          0.000
_refine_ls_shift/su_mean         0.000
_refine_ls_structure_factor_coef Fsqd
_refine_ls_weighting_details
'w=1/[\s^2^(Fo^2^)+(0.0235P)^2^+0.2767P] where P=(Fo^2^+2Fc^2^)/3'
_refine_ls_weighting_scheme      calc
_refine_ls_wR_factor_gt          0.0542
_refine_ls_wR_factor_ref         0.0543
_reflns_Friedel_coverage         0.000
_reflns_number_gt                1723
_reflns_number_total             1737
_reflns_threshold_expression     'I > 2\s(I)'
_cod_data_source_file            c8cp07160h2.cif
_cod_data_source_block           shelx
_cod_depositor_comments          'Adding full bibliography for 7231995.cif.'
_cod_original_formula_sum        'C12 H12 Cu1 N8 O6'
_cod_database_code               7231995
_shelx_space_group_comment
;
The symmetry employed for this shelxl refinement is uniquely defined
by the following loop, which should always be used as a source of
symmetry information in preference to the above space-group names.
They are only intended as comments.
;
_oxdiff_exptl_absorpt_empirical_full_min 0.682
_oxdiff_exptl_absorpt_empirical_full_max 1.596
_shelxl_version_number           2013-4
_shelx_res_file
;
TITL cuno32pyz3 in P-1
CELL  0.71073   6.8023   7.2850   9.2846   93.815  111.477  112.513
ZERR     2.00   0.0003   0.0004   0.0005    0.004    0.005    0.005
LATT   1
SFAC  C    H    N    O    CU
UNIT  12 12 8 6 1
MERG   2
FMAP   2
PLAN   20
ACTA
BOND   $H
L.S.  20
WGHT    0.023500    0.276700
EXTI    0.059242
FVAR      10.96114
CU1   5    1.000000    0.500000    0.500000    10.50000    0.00841    0.01339 =
         0.00806    0.00420    0.00485    0.00639
N3    3    0.702875    0.496803    0.500789    11.00000    0.01035    0.01078 =
         0.00965    0.00403    0.00537    0.00555
O1    4    0.814453    0.149875    0.360978    11.00000    0.01739    0.01306 =
         0.01697    0.00127    0.00631    0.00272
N1    3    0.919904    0.582847    0.284090    11.00000    0.01086    0.01532 =
         0.01106    0.00465    0.00600    0.00717
O2    4    0.462057   -0.015797    0.171805    11.00000    0.02573    0.02467 =
         0.02651    0.00209   -0.00404    0.00763
O3    4    0.583655   -0.150564    0.364675    11.00000    0.04865    0.02134 =
         0.03591    0.01738    0.01339    0.00231
N2    3    0.826876    0.703705   -0.003801    11.00000    0.02719    0.01819 =
         0.01263    0.00550    0.00795    0.00938
N4    3    0.616445   -0.007802    0.298763    11.00000    0.01957    0.01211 =
         0.01673    0.00234    0.00875    0.00573
C6    1    0.708624    0.610079    0.622816    11.00000    0.01025    0.01271 =
         0.00974    0.00211    0.00387    0.00468
AFIX  43
H6    2    0.851740    0.688248    0.710072    11.00000   -1.20000
AFIX   0
C5    1    0.493885    0.386213    0.377628    11.00000    0.01248    0.01263 =
         0.00973    0.00236    0.00577    0.00619
AFIX  43
H5    2    0.484196    0.305616    0.290986    11.00000   -1.20000
AFIX   0
C1    1    0.802277    0.445531    0.142805    11.00000    0.01523    0.01359 =
         0.01410    0.00383    0.00664    0.00623
AFIX  43
H1    2    0.749504    0.306669    0.140140    11.00000   -1.20000
AFIX   0
C2    1    0.758305    0.507481    0.000948    11.00000    0.01863    0.01687 =
         0.01133    0.00193    0.00465    0.00625
AFIX  43
H2    2    0.677851    0.408275   -0.094583    11.00000   -1.20000
AFIX   0
C4    1    0.987479    0.780512    0.280629    11.00000    0.02664    0.01538 =
         0.01253    0.00291    0.00705    0.00789
AFIX  43
H4    2    1.067161    0.880426    0.375710    11.00000   -1.20000
AFIX   0
C3    1    0.939745    0.837693    0.136516    11.00000    0.03858    0.01377 =
         0.01585    0.00572    0.00993    0.00955
AFIX  43
H3    2    0.989084    0.976173    0.138353    11.00000   -1.20000
AFIX   0
HKLF    4

REM  cuno32pyz3 in P-1
REM R1 =  0.0203 for    1723 Fo > 4sig(Fo)  and  0.0204 for all    1737 data
REM    125 parameters refined using      0 restraints

END

WGHT      0.0235      0.2759

REM Highest difference peak  0.360,  deepest hole -0.333,  1-sigma level  0.059
Q1    1   0.3974  0.4014  0.3723  11.00000  0.05    0.36
Q2    1   0.9697  0.5572  0.3558  11.00000  0.05    0.32
Q3    1   0.9752  0.7991  0.2037  11.00000  0.05    0.31
Q4    1   0.8821  0.5234  0.2163  11.00000  0.05    0.31
Q5    1   0.8235  0.4946  0.0802  11.00000  0.05    0.30
Q6    1   0.8120  0.4908  0.4973  11.00000  0.05    0.30
Q7    1   0.5939  0.4355  0.4380  11.00000  0.05    0.28
Q8    1   0.9670  0.6756  0.2783  11.00000  0.05    0.28
Q9    1   0.6993  0.5392  0.5569  11.00000  0.05    0.24
Q10   1   0.8831  0.7602  0.0638  11.00000  0.05    0.23
Q11   1   0.5383 -0.0869  0.3634  11.00000  0.05    0.22
Q12   1   0.4176 -0.0643  0.2371  11.00000  0.05    0.21
Q13   1   0.8222  0.6151  0.0059  11.00000  0.05    0.21
Q14   1   1.0999  0.6395  0.4813  11.00000  0.05    0.20
Q15   1   0.5481 -0.0384  0.1601  11.00000  0.05    0.18
Q16   1   0.7250  0.1120  0.3621  11.00000  0.05    0.18
Q17   1   0.8675  0.7581 -0.0665  11.00000  0.05    0.17
Q18   1   0.8809  0.2282  0.4326  11.00000  0.05    0.15
Q19   1   0.6636  0.3051  0.1403  11.00000  0.05    0.14
Q20   1   1.1395  0.7216  0.4667  11.00000  0.05    0.14
;
_shelx_res_checksum              13303
loop_
_space_group_symop_operation_xyz
'x, y, z'
'-x, -y, -z'
loop_
_atom_site_label
_atom_site_type_symbol
_atom_site_fract_x
_atom_site_fract_y
_atom_site_fract_z
_atom_site_U_iso_or_equiv
_atom_site_adp_type
_atom_site_occupancy
_atom_site_site_symmetry_order
_atom_site_calc_flag
_atom_site_refinement_flags_posn
_atom_site_refinement_flags_adp
_atom_site_refinement_flags_occupancy
Cu1 Cu 1.0000 0.5000 0.5000 0.00888(10) Uani 1 2 d S . P
N3 N 0.7029(2) 0.49680(17) 0.50079(14) 0.0095(2) Uani 1 1 d . . .
O1 O 0.81445(19) 0.14988(16) 0.36098(13) 0.0176(2) Uani 1 1 d . . .
N1 N 0.9199(2) 0.58285(18) 0.28409(14) 0.0114(2) Uani 1 1 d . . .
O2 O 0.4621(2) -0.0158(2) 0.17181(16) 0.0319(3) Uani 1 1 d . . .
O3 O 0.5837(3) -0.1506(2) 0.36468(18) 0.0406(4) Uani 1 1 d . . .
N2 N 0.8269(2) 0.7037(2) -0.00380(16) 0.0196(3) Uani 1 1 d . . .
N4 N 0.6164(2) -0.00780(19) 0.29876(16) 0.0163(3) Uani 1 1 d . . .
C6 C 0.7086(2) 0.6101(2) 0.62282(17) 0.0112(3) Uani 1 1 d . . .
H6 H 0.8517 0.6882 0.7101 0.013 Uiso 1 1 calc R U .
C5 C 0.4939(2) 0.3862(2) 0.37763(16) 0.0111(3) Uani 1 1 d . . .
H5 H 0.4842 0.3056 0.2910 0.013 Uiso 1 1 calc R U .
C1 C 0.8023(3) 0.4455(2) 0.14281(17) 0.0142(3) Uani 1 1 d . . .
H1 H 0.7495 0.3067 0.1401 0.017 Uiso 1 1 calc R U .
C2 C 0.7583(3) 0.5075(2) 0.00095(18) 0.0168(3) Uani 1 1 d . . .
H2 H 0.6779 0.4083 -0.0946 0.020 Uiso 1 1 calc R U .
C4 C 0.9875(3) 0.7805(2) 0.28063(18) 0.0191(3) Uani 1 1 d . . .
H4 H 1.0672 0.8804 0.3757 0.023 Uiso 1 1 calc R U .
C3 C 0.9397(3) 0.8377(2) 0.13652(19) 0.0238(4) Uani 1 1 d . . .
H3 H 0.9891 0.9762 0.1384 0.029 Uiso 1 1 calc R U .
loop_
_atom_site_aniso_label
_atom_site_aniso_U_11
_atom_site_aniso_U_22
_atom_site_aniso_U_33
_atom_site_aniso_U_23
_atom_site_aniso_U_13
_atom_site_aniso_U_12
Cu1 0.00841(13) 0.01339(14) 0.00806(14) 0.00420(9) 0.00485(9) 0.00639(9)
N3 0.0103(5) 0.0108(5) 0.0097(5) 0.0040(4) 0.0054(4) 0.0056(4)
O1 0.0174(5) 0.0131(5) 0.0170(5) 0.0013(4) 0.0063(4) 0.0027(4)
N1 0.0109(5) 0.0153(6) 0.0111(6) 0.0047(5) 0.0060(4) 0.0072(5)
O2 0.0257(6) 0.0247(6) 0.0265(7) 0.0021(5) -0.0040(5) 0.0076(5)
O3 0.0486(9) 0.0213(6) 0.0359(8) 0.0174(6) 0.0134(7) 0.0023(6)
N2 0.0272(7) 0.0182(6) 0.0126(6) 0.0055(5) 0.0079(5) 0.0094(5)
N4 0.0196(6) 0.0121(6) 0.0167(6) 0.0023(5) 0.0087(5) 0.0057(5)
C6 0.0102(6) 0.0127(6) 0.0097(6) 0.0021(5) 0.0039(5) 0.0047(5)
C5 0.0125(6) 0.0126(6) 0.0097(6) 0.0024(5) 0.0058(5) 0.0062(5)
C1 0.0152(7) 0.0136(7) 0.0141(7) 0.0038(5) 0.0066(6) 0.0062(5)
C2 0.0186(7) 0.0169(7) 0.0113(7) 0.0019(6) 0.0047(6) 0.0063(6)
C4 0.0266(8) 0.0154(7) 0.0125(7) 0.0029(6) 0.0071(6) 0.0079(6)
C3 0.0386(10) 0.0138(7) 0.0158(8) 0.0057(6) 0.0099(7) 0.0095(7)
loop_
_atom_type_symbol
_atom_type_description
_atom_type_scat_dispersion_real
_atom_type_scat_dispersion_imag
_atom_type_scat_source
C C 0.0033 0.0016 'International Tables Vol C Tables 4.2.6.8 and 6.1.1.4'
H H 0.0000 0.0000 'International Tables Vol C Tables 4.2.6.8 and 6.1.1.4'
N N 0.0061 0.0033 'International Tables Vol C Tables 4.2.6.8 and 6.1.1.4'
O O 0.0106 0.0060 'International Tables Vol C Tables 4.2.6.8 and 6.1.1.4'
Cu Cu 0.3201 1.2651 'International Tables Vol C Tables 4.2.6.8 and 6.1.1.4'
loop_
_geom_angle_atom_site_label_1
_geom_angle_atom_site_label_2
_geom_angle_atom_site_label_3
_geom_angle
_geom_angle_site_symmetry_1
_geom_angle_site_symmetry_3
N3 Cu1 N3 180.0 2_766 .
N3 Cu1 N1 90.68(5) 2_766 .
N3 Cu1 N1 89.32(5) . .
N3 Cu1 N1 89.33(5) 2_766 2_766
N3 Cu1 N1 90.68(5) . 2_766
N1 Cu1 N1 180.0 . 2_766
N3 Cu1 O1 85.97(4) 2_766 .
N3 Cu1 O1 94.03(4) . .
N1 Cu1 O1 89.73(4) . .
N1 Cu1 O1 90.27(4) 2_766 .
N3 Cu1 O1 94.03(4) 2_766 2_766
N3 Cu1 O1 85.97(4) . 2_766
N1 Cu1 O1 90.27(4) . 2_766
N1 Cu1 O1 89.73(4) 2_766 2_766
O1 Cu1 O1 180.00(6) . 2_766
C6 N3 C5 117.51(12) . .
C6 N3 Cu1 121.06(9) . .
C5 N3 Cu1 121.40(9) . .
N4 O1 Cu1 142.42(9) . .
C4 N1 C1 116.87(12) . .
C4 N1 Cu1 120.32(10) . .
C1 N1 Cu1 122.81(10) . .
C3 N2 C2 115.80(14) . .
O3 N4 O2 121.24(14) . .
O3 N4 O1 119.36(14) . .
O2 N4 O1 119.40(13) . .
N3 C6 C5 121.52(13) . 2_666
N3 C6 H6 119.2 . .
C5 C6 H6 119.2 2_666 .
N3 C5 C6 120.97(13) . 2_666
N3 C5 H5 119.5 . .
C6 C5 H5 119.5 2_666 .
N1 C1 C2 121.08(13) . .
N1 C1 H1 119.5 . .
C2 C1 H1 119.5 . .
N2 C2 C1 122.53(14) . .
N2 C2 H2 118.7 . .
C1 C2 H2 118.7 . .
N1 C4 C3 120.68(14) . .
N1 C4 H4 119.7 . .
C3 C4 H4 119.7 . .
N2 C3 C4 123.02(15) . .
N2 C3 H3 118.5 . .
C4 C3 H3 118.5 . .
loop_
_geom_bond_atom_site_label_1
_geom_bond_atom_site_label_2
_geom_bond_distance
_geom_bond_site_symmetry_2
Cu1 N3 2.0150(11) 2_766
Cu1 N3 2.0150(11) .
Cu1 N1 2.0719(12) .
Cu1 N1 2.0719(12) 2_766
Cu1 O1 2.3809(11) .
Cu1 O1 2.3809(11) 2_766
N3 C6 1.3359(18) .
N3 C5 1.3370(18) .
O1 N4 1.2746(16) .
N1 C4 1.3401(19) .
N1 C1 1.3437(19) .
O2 N4 1.2383(18) .
O3 N4 1.2300(18) .
N2 C3 1.328(2) .
N2 C2 1.333(2) .
C6 C5 1.3866(19) 2_666
C6 H6 0.9300 .
C5 C6 1.3866(19) 2_666
C5 H5 0.9300 .
C1 C2 1.386(2) .
C1 H1 0.9300 .
C2 H2 0.9300 .
C4 C3 1.389(2) .
C4 H4 0.9300 .
C3 H3 0.9300 .
