#------------------------------------------------------------------------------
#$Date: 2019-11-17 15:40:06 +0200 (Sun, 17 Nov 2019) $
#$Revision: 230941 $
#$URL: file:///home/coder/svn-repositories/cod/cif/7/23/13/7231349.cif $
#------------------------------------------------------------------------------
#
# This file is available in the Crystallography Open Database (COD),
# http://www.crystallography.net/
#
# All data on this site have been placed in the public domain by the
# contributors.
#
data_7231349
loop_
_publ_author_name
'Dixit, Manish Kumar'
'Dubey, Mrigendra'
_publ_section_title
;
 Li<sup>+</sup>-Induced fluorescent metallogel: a case of ESIPT-CHEF and
 ICT phenomenon.
;
_journal_issue                   36
_journal_name_full               'Physical chemistry chemical physics : PCCP'
_journal_page_first              23762
_journal_page_last               23772
_journal_paper_doi               10.1039/c8cp04579h
_journal_volume                  20
_journal_year                    2018
_chemical_compound_source        synthesized
_chemical_formula_moiety         'C14 H12 N2 O2 '
_chemical_formula_sum            'C14 H12 N2 O2'
_chemical_formula_weight         240.26
_space_group_crystal_system      monoclinic
_space_group_IT_number           14
_space_group_name_Hall           '-P 2yn'
_space_group_name_H-M_alt        'P 1 21/n 1'
_symmetry_cell_setting           monoclinic
_symmetry_Int_Tables_number      14
_symmetry_space_group_name_Hall  '-P 2yn'
_symmetry_space_group_name_H-M   'P 1 21/n 1'
_atom_sites_solution_primary     dual
_audit_creation_date             2018-03-02
_audit_creation_method
;
Olex2 1.2-ac3
(compiled 2017.01.05 svn.r3372 for Rigaku Oxford Diffraction, GUI svn.r5289)
;
_audit_update_record
;
2018-03-03 deposited with the CCDC.
2018-08-10 downloaded from the CCDC.
;
_cell_angle_alpha                90
_cell_angle_beta                 107.898(7)
_cell_angle_gamma                90
_cell_formula_units_Z            2
_cell_length_a                   8.5166(6)
_cell_length_b                   6.3092(4)
_cell_length_c                   11.8280(8)
_cell_measurement_reflns_used    2765
_cell_measurement_temperature    293(2)
_cell_measurement_theta_max      27.0970
_cell_measurement_theta_min      3.6060
_cell_volume                     604.80(7)
_computing_cell_refinement       'CrysAlisPro 1.171.39.31d (Rigaku OD, 2017)'
_computing_data_collection       'CrysAlisPro 1.171.39.31d (Rigaku OD, 2017)'
_computing_data_reduction        'CrysAlisPro 1.171.39.31d (Rigaku OD, 2017)'
_computing_molecular_graphics    'Olex2 (Dolomanov et al., 2009)'
_computing_publication_material  'Olex2 (Dolomanov et al., 2009)'
_computing_structure_refinement  'olex2.refine (Bourhis et al., 2015)'
_computing_structure_solution    'ShelXT (Sheldrick, 2015)'
_diffrn_ambient_temperature      293
_diffrn_detector                 'CCD plate'
_diffrn_detector_type            HyPix3000
_diffrn_measured_fraction_theta_full 0.99
_diffrn_measured_fraction_theta_max 0.99
_diffrn_measurement_details
;
List of Runs (angles in degrees, time in seconds):

  # Type    Start    End  Width  t~exp~   \w     \q     \k     \f   Frames
#--------------------------------------------------------------------------
  1  \w    -71.00 -36.00   0.50   20.00    --   -9.95 -39.00 -63.00   70
  2  \w     23.00  52.00   0.50   20.00    --   -9.95  39.00  91.00   58
  3  \w     20.00  73.00   0.50   20.00    --   10.22  39.00  91.00  106
  4  \w    -53.00   0.00   0.50   20.00    --   10.22 -39.00 -63.00  106
  5  \w    -38.00  -4.00   0.50   20.00    --   -9.95 125.00-180.00   68
  6  \w    -55.00 -30.00   0.50   20.00    --   -9.95 125.00 120.00   50
  7  \w    -17.00  54.00   0.50   20.00    --   -9.95  38.00-150.00  142
  8  \w     -2.00  65.00   0.50   20.00    --   10.22  38.00-180.00  134
  9  \w    -52.00  -9.00   0.50   20.00    --   10.22 -38.00   0.00   86
;
_diffrn_measurement_device       'four-circle diffractometer'
_diffrn_measurement_device_type
'SuperNova, Single source at offset/far, HyPix3000'
_diffrn_measurement_method       '\w scans'
_diffrn_orient_matrix_type
'CrysAlisPro convention (1999,Acta A55,543-557)'
_diffrn_orient_matrix_UB_11      -0.0744033000
_diffrn_orient_matrix_UB_12      0.0572104000
_diffrn_orient_matrix_UB_13      -0.0247612000
_diffrn_orient_matrix_UB_21      0.0216196000
_diffrn_orient_matrix_UB_22      0.0174880000
_diffrn_orient_matrix_UB_23      -0.0525774000
_diffrn_orient_matrix_UB_31      -0.0406476000
_diffrn_orient_matrix_UB_32      -0.0951606000
_diffrn_orient_matrix_UB_33      -0.0244960000
_diffrn_radiation_monochromator  mirror
_diffrn_radiation_probe          x-ray
_diffrn_radiation_type           'Mo K\a'
_diffrn_radiation_wavelength     0.71073
_diffrn_reflns_av_R_equivalents  0.0970
_diffrn_reflns_av_unetI/netI     0.0536
_diffrn_reflns_limit_h_max       10
_diffrn_reflns_limit_h_min       -10
_diffrn_reflns_limit_k_max       7
_diffrn_reflns_limit_k_min       -8
_diffrn_reflns_limit_l_max       15
_diffrn_reflns_limit_l_min       -14
_diffrn_reflns_number            4207
_diffrn_reflns_theta_full        26.8133
_diffrn_reflns_theta_max         26.81
_diffrn_reflns_theta_min         3.52
_diffrn_source                   'micro-focus sealed X-ray tube'
_diffrn_source_type              'SuperNova (Mo) X-ray Source'
_exptl_absorpt_coefficient_mu    0.090
_exptl_absorpt_correction_T_max  1.00000
_exptl_absorpt_correction_T_min  0.56270
_exptl_absorpt_correction_type   multi-scan
_exptl_absorpt_process_details
;
CrysAlisPro 1.171.39.31d (Rigaku Oxford Diffraction, 2017)
Empirical absorption correction using spherical harmonics,
 implemented in SCALE3 ABSPACK scaling algorithm.
;
_exptl_crystal_colour            yellow
_exptl_crystal_density_diffrn    1.3192
_exptl_crystal_description       block
_exptl_crystal_F_000             252.1220
_exptl_crystal_size_max          0.32
_exptl_crystal_size_mid          0.30
_exptl_crystal_size_min          0.22
_refine_diff_density_max         0.2242
_refine_diff_density_min         -0.3563
_refine_diff_density_rms         0.0855
_refine_ls_d_res_high            0.7752
_refine_ls_d_res_low             5.7874
_refine_ls_goodness_of_fit_ref   1.0311
_refine_ls_hydrogen_treatment    mixed
_refine_ls_matrix_type           full
_refine_ls_number_constraints    11
_refine_ls_number_parameters     84
_refine_ls_number_reflns         1278
_refine_ls_number_restraints     0
_refine_ls_restrained_S_all      1.0311
_refine_ls_R_factor_all          0.0791
_refine_ls_R_factor_gt           0.0693
_refine_ls_shift/su_max          0.0000
_refine_ls_shift/su_mean         0.0000
_refine_ls_structure_factor_coef Fsqd
_refine_ls_weighting_details
'w=1/[\s^2^(Fo^2^)+(0.1574P)^2^] where P=(Fo^2^+2Fc^2^)/3'
_refine_ls_weighting_scheme      calc
_refine_ls_wR_factor_gt          0.2005
_refine_ls_wR_factor_ref         0.2152
_reflns_Friedel_coverage         0.0
_reflns_limit_h_max              7
_reflns_limit_h_min              -10
_reflns_limit_k_max              8
_reflns_limit_k_min              0
_reflns_limit_l_max              15
_reflns_limit_l_min              -6
_reflns_number_gt                995
_reflns_number_total             1278
_reflns_threshold_expression     I>=2u(I)
_iucr_refine_instructions_details
;
TITL dubey-1_a.res in P2(1)/n
REM Old TITL dubey-1 in P2(1)/n
REM SHELXT solution in P2(1)/n
REM R1 0.227, Rweak 0.015, Alpha 0.024, Orientation as input
REM Formula found by SHELXT: C7 N2
CELL 0.71073 8.5166 6.3092 11.828 90 107.898 90
ZERR 4 0.0006 0.0004 0.0008 0 0.007 0
LATT 1
SYMM 0.5-X,0.5+Y,0.5-Z
SFAC C H N O
UNIT 28 28 4 4
RIGU N9

L.S. 4
PLAN  5
BOND $H
LIST 6
fmap 2
ACTA 
WGHT 0.157402 0
FVAR 2.6846
REM <olex2.extras>
REM <HklSrc "%.\\dubey-1.hkl">
REM </olex2.extras>

N9    3     0.49722  0.08489  0.46131  11.00000  0.04783  0.04298  0.02971 =
 0.00402  0.00335  0.00158 
H7    2     0.38281  0.22341  0.32012  11.00000 -1.50000 
O7    4     0.38028  0.32480  0.27429  11.00000  0.06292  0.08339  0.04554 =
 0.02409 -0.01410 -0.01883 
C6    1     0.63381  0.39671  0.42906  11.00000  0.04190  0.04295  0.03162 =
 -0.00039  0.00723  0.00376 
C8    1     0.61879  0.21240  0.49766  11.00000  0.04251  0.04523  0.02777 =
 0.00014  0.00084  0.00409 
AFIX 43
H8    2     0.69931  0.18619  0.56972  11.00000 -1.20000 
AFIX 0
C1    1     0.51366  0.44779  0.32128  11.00000  0.04459  0.05349  0.03482 =
 0.00460  0.00594  0.00216 
C5    1     0.76852  0.53159  0.47060  11.00000  0.04875  0.05347  0.04214 =
 -0.00342  0.00598 -0.00191 
AFIX 43
H5    2     0.84871  0.50060  0.54211  11.00000 -1.20000 
AFIX 0
C2    1     0.53109  0.62896  0.26057  11.00000  0.06034  0.06159  0.04411 =
 0.01623  0.01235  0.00805 
AFIX 43
H2    2     0.45077  0.66351  0.18975  11.00000 -1.20000 
AFIX 0
C3    1     0.66533  0.75796  0.30363  11.00000  0.07270  0.05003  0.05825 =
 0.01018  0.03071  0.00544 
AFIX 43
H3    2     0.67544  0.87942  0.26186  11.00000 -1.20000 
AFIX 0
C4    1     0.78593  0.70941  0.40856  11.00000  0.06173  0.05219  0.06543 =
 -0.00505  0.02373 -0.01067 
AFIX 43
H4    2     0.87796  0.79617  0.43692  11.00000 -1.20000 
AFIX 0
HKLF 4

END
Q1 1 0.296296 0.833333 0.15 11 0.05 0.22
Q2 1 0.722222 0.458333 0.625 11 0.05 0.2
Q3 1 1.037037 0.75 0.4 11 0.05 0.2
Q4 1 0.407407 0.125 0.475 11 0.05 0.19
Q5 1 0.314815 0.333333 0.425 11 0.05 0.19
Q6 1 0.407407 0.666667 0.275 11 0.05 0.18
Q7 1 0.518519 0.208333 0.5 11 0.05 0.17
Q8 1 0.796296 0.166667 0.35 11 0.05 0.17
Q9 1 0.388889 -0.083333 0.325 11 0.05 0.17
Q10 1 0.592593 0.041667 0.45 11 0.05 0.17
Q11 1 0.685185 0.291667 0.275 11 0.05 0.17
Q12 1 0.833333 0.458333 0.6 11 0.05 0.16
Q13 1 0.925926 0.5 0.475 11 0.05 0.16
Q14 1 0.5 0.5 0.5 11 0.05 0.16
Q15 1 0.203704 0.125 0.2 11 0.05 0.16
Q16 1 0.407407 0.75 0.2 11 0.05 0.16
Q17 1 0.537037 0.208333 0.2 11 0.05 0.15
Q18 1 0.277778 0.166667 0.425 11 0.05 0.15
Q19 1 0.444444 0.333333 0.55 11 0.05 0.15
Q20 1 0.907407 1.041667 0.4 11 0.05 0.15

  REM The information below was added by Olex2.
  REM
  REM R1 = 0.0693 for 995 Fo > 4sig(Fo) and 0.0791 for all 1278 data
  REM 84 parameters refined using 0 restraints
  REM Highest difference peak 0.2242, deepest hole -0.3563
  REM Mean Shift 0.0000, Max Shift 0.0000.

  REM +++ Tabular Listing of Refinement Information +++
  REM R1_all = 0.0791
  REM R1_gt = 0.0693
  REM wR_ref = 0.2152
  REM GOOF = 1.0311
  REM Shift_max = 0.0000
  REM Shift_mean = 0.0000
  REM Reflections_all = 1278
  REM Reflections_gt = 995
  REM Parameters = 84
  REM Hole = -0.3563
  REM Peak = 0.2242
  REM Flack = n/a

  
;
_cod_data_source_file            c8cp04579h2.cif
_cod_data_source_block           dubey-1
_cod_depositor_comments          'Adding full bibliography for 7231349.cif.'
_cod_original_sg_symbol_H-M      'P 21/n'
_cod_original_formula_sum        'C14 H12 N2 O2 '
_cod_database_code               7231349
_chemical_oxdiff_formula         'C H N O'
_diffrn_oxdiff_ac3_digest_frames
;
016f1b56786edf3446322b430c91b81c8400820a667
;
_diffrn_oxdiff_ac3_digest_hkl
;
011a296485bf3ed68f1fd11ceeb04352a18b2c
;
_reflns_odcompleteness_completeness 99.48
_reflns_odcompleteness_iscentric 1
_reflns_odcompleteness_theta     26.32
_olex2_refinement_description
;
1. Fixed Uiso
 At 1.2 times of:
  All H(C) groups, All C(H) groups, All C(C) groups
 At 1.5 times of:
  All H(O) groups, All N(H) groups
2. Rigid body (RIGU) restrains
 N9
 with sigma for 1-2 distances of 0.004 and sigma for 1-3 distances of 0.004
3.a Aromatic/amide H refined with riding coordinates:
 C8(H8), C5(H5), C2(H2), C3(H3), C4(H4)
;
_iucr_refine_fcf_details
;
data_dubey-1_CCDC1
_computing_structure_refinement   'olex2.refine (Bourhis et al., 2015)'
_shelx_refln_list_code            4
loop_
  _space_group_symop_id
  _space_group_symop_operation_xyz
  1  x,y,z
  2  -x+1/2,y+1/2,-z+1/2
  3  -x,-y,-z
  4  x-1/2,-y-1/2,z-1/2

_space_group_crystal_system       monoclinic
_space_group_IT_number            14
_space_group_name_H-M_alt         'P 1 21/n 1'
_space_group_name_Hall            '-P 2ybc (x-z,y,z)'
_symmetry_space_group_name_H-M    'P 1 21/n 1'
_symmetry_space_group_name_Hall   '-P 2ybc (x-z,y,z)'
_symmetry_Int_Tables_number       14
_cell_length_a                    8.5166(6)
_cell_length_b                    6.3092(4)
_cell_length_c                    11.8280(8)
_cell_angle_alpha                 90
_cell_angle_beta                  107.898(7)
_cell_angle_gamma                 90
_cell_volume                      604.80(7)
loop_
  _refln_index_h
  _refln_index_k
  _refln_index_l
  _refln_F_squared_calc
  _refln_F_squared_meas
  _refln_F_squared_sigma
  _refln_F_squared_weight
  _refln_observed_status
-10 0 0 4.036 4.757 1.108 10.766 o
-10 0 2 0.773 0.979 0.661 39.803 o
-10 0 4 0.363 0.480 0.458 84.641 o
-10 0 6 4.463 6.665 0.995 10.910 o
-10 0 8 0.030 -0.147 0.468 82.503 o
-10 1 -1 0.533 0.891 0.833 25.702 o
-10 1 0 6.636 5.994 0.739 11.549 o
-10 1 1 13.511 13.858 1.051 3.172 o
-10 1 2 11.196 15.649 1.107 3.475 o
-10 1 3 7.484 8.728 0.728 8.721 o
-10 1 4 3.573 3.813 0.593 26.509 o
-10 1 5 0.019 -0.315 0.360 139.319 o
-10 1 6 9.826 14.700 0.950 4.360 o
-10 1 7 0.460 0.183 0.349 144.416 o
-10 1 8 0.044 -0.024 0.385 122.302 o
-10 2 0 0.062 -0.085 0.627 46.087 o
-10 2 1 2.912 3.213 0.590 31.622 o
-10 2 2 8.861 8.508 0.827 7.018 o
-10 2 3 5.641 5.414 0.947 10.881 o
-10 2 4 2.283 3.078 0.498 44.300 o
-10 2 5 11.494 14.555 1.315 3.227 o
-10 2 6 1.497 0.946 0.421 82.171 o
-10 2 7 2.400 2.106 0.534 43.445 o
-10 2 8 0.421 0.184 0.408 106.784 o
-10 3 4 0.408 -0.080 0.657 41.717 o
-10 3 5 4.870 2.685 1.246 9.156 o
-10 3 7 0.569 0.316 0.684 38.161 o
-9 0 -3 4.003 2.912 1.010 13.430 o
-9 0 -1 27.768 28.112 2.613 0.694 o
-9 0 1 0.092 -0.248 0.383 123.587 o
-9 0 3 1.085 1.023 0.419 89.011 o
-9 0 5 0.802 1.056 0.459 78.765 o
-9 0 7 0.200 0.001 0.333 162.145 o
-9 0 9 0.710 0.079 0.551 58.495 o
-9 0 11 2.828 3.585 0.946 16.007 o
-9 1 -3 0.772 0.656 0.695 36.466 o
-9 1 -2 4.319 2.836 0.973 13.834 o
-9 1 -1 4.731 5.006 1.207 8.904 o
-9 1 0 3.092 2.936 0.505 37.406 o
-9 1 1 46.193 65.127 2.921 0.236 o
-9 1 2 57.529 70.487 3.364 0.171 o
-9 1 3 2.456 3.180 0.426 50.069 o
-9 1 4 12.596 15.963 1.280 2.873 o
-9 1 5 1.949 1.667 0.498 54.279 o
-9 1 6 7.399 9.035 0.672 8.979 o
-9 1 7 1.969 2.074 0.443 61.155 o
-9 1 8 5.314 1.116 0.558 26.201 o
-9 1 9 5.665 2.769 1.354 7.602 o
-9 1 10 4.787 4.820 0.761 15.753 o
-9 1 11 11.864 18.141 2.676 1.510 o
-9 2 -2 1.517 1.922 0.917 19.907 o
-9 2 -1 0.848 1.096 0.732 32.456 o
-9 2 0 0.424 0.065 0.346 148.476 o
-9 2 1 3.681 5.247 0.638 21.418 o
-9 2 2 15.582 19.695 1.362 2.017 o
-9 2 3 25.366 27.240 1.166 1.000 o
-9 2 4 19.547 23.735 1.214 1.467 o
-9 2 5 3.025 3.021 0.719 24.360 o
-9 2 6 0.547 0.380 0.273 224.258 o
-9 2 7 17.213 18.798 1.009 2.053 o
-9 2 8 32.712 24.021 5.757 0.328 o
-9 2 9 1.380 1.389 0.448 72.927 o
-9 2 10 0.542 0.330 0.343 146.916 o
-9 3 -1 0.035 0.188 0.421 102.097 o
-9 3 0 0.015 0.256 0.430 97.926 o
-9 3 1 0.060 -0.025 0.417 104.275 o
-9 3 2 0.056 0.069 0.489 75.637 o
-9 3 3 0.009 -0.126 0.478 79.258 o
-9 3 4 0.206 0.130 0.312 184.473 o
-9 3 5 0.034 -0.005 0.289 217.363 o
-9 3 6 0.326 0.136 0.274 235.515 o
-9 3 7 1.182 2.311 0.423 75.775 o
-9 3 8 0.000 -0.073 0.552 59.390 o
-9 3 9 0.021 0.508 0.596 50.816 o
-9 4 1 1.789 1.937 0.681 33.050 o
-9 4 2 0.555 0.482 0.487 74.026 o
-9 4 3 0.526 0.825 0.512 66.671 o
-9 4 4 1.433 0.953 0.555 51.947 o
-9 4 6 0.329 0.183 0.740 32.955 o
-8 0 -6 17.602 17.022 2.343 1.393 o
-8 0 -4 33.125 39.742 3.439 0.423 o
-8 0 -2 100.379 90.917 5.338 0.069 o
-8 0 0 196.221 207.443 9.887 0.017 o
-8 0 2 1.917 2.967 0.891 19.660 o
-8 0 4 47.930 54.134 2.510 0.265 o
-8 0 6 9.469 8.635 0.891 6.271 o
-8 0 8 2.007 2.283 0.706 29.759 o
-8 0 10 0.011 -0.067 0.507 70.502 o
-8 0 12 0.074 -0.307 0.543 61.282 o
-8 1 -5 8.618 8.639 1.636 4.004 o
-8 1 -4 1.844 1.435 0.826 23.985 o
-8 1 -3 4.704 5.078 1.156 9.458 o
-8 1 -2 16.633 15.110 1.912 1.792 o
-8 1 -1 25.217 22.209 2.191 0.936 o
-8 1 0 18.441 21.178 2.292 1.245 o
-8 1 1 8.435 9.365 0.859 6.876 o
-8 1 2 18.383 21.674 0.973 1.749 o
-8 1 3 22.019 22.858 0.962 1.367 o
-8 1 4 0.867 1.399 0.346 123.146 o
-8 1 5 7.158 7.480 0.525 11.432 o
-8 1 6 31.598 31.190 3.153 0.525 o
-8 1 7 18.704 12.521 1.954 1.694 o
-8 1 8 2.781 4.628 0.648 25.658 o
-8 1 9 5.220 5.058 0.525 19.321 o
-8 1 10 8.983 9.471 0.832 6.547 o
-8 1 11 5.104 6.918 0.823 12.185 o
-8 1 12 0.128 -0.081 0.438 94.251 o
-8 2 -5 0.276 0.629 0.781 29.524 o
-8 2 -4 1.807 2.231 0.879 20.871 o
-8 2 -3 1.138 0.641 0.611 45.597 o
-8 2 -2 0.021 0.108 0.579 53.964 o
-8 2 -1 6.072 7.216 1.279 6.784 o
-8 2 0 5.147 5.110 1.495 6.266 o
-8 2 1 16.719 15.842 1.131 2.273 o
-8 2 2 1.156 1.099 0.299 148.743 o
-8 2 3 0.777 0.808 0.211 301.379 o
-8 2 4 7.976 9.613 0.518 8.753 o
-8 2 5 0.029 0.142 0.195 474.007 o
-8 2 6 0.262 0.233 0.204 420.242 o
-8 2 7 3.469 0.661 0.442 51.141 o
-8 2 8 82.516 86.287 4.022 0.095 o
-8 2 9 37.846 48.414 2.261 0.381 o
-8 2 10 2.822 3.249 0.453 42.845 o
-8 2 11 1.575 1.739 0.392 82.436 o
-8 2 12 2.299 3.140 0.482 45.565 o
-8 3 -4 15.384 18.101 2.266 1.546 o
-8 3 -3 8.188 7.244 1.466 4.910 o
-8 3 -2 5.101 6.772 1.366 6.807 o
-8 3 -1 1.079 0.922 0.491 67.694 o
-8 3 0 3.793 2.915 0.413 38.152 o
-8 3 1 10.020 7.584 0.640 7.211 o
-8 3 2 12.604 10.435 0.762 4.438 o
-8 3 3 1.912 2.389 0.305 90.859 o
-8 3 4 0.140 -0.239 0.209 414.144 o
-8 3 5 7.917 7.936 0.577 9.584 o
-8 3 6 9.518 9.286 0.790 6.390 o
-8 3 7 0.774 0.647 0.314 161.782 o
-8 3 8 6.129 5.509 0.716 13.100 o
-8 3 9 0.042 -0.094 0.309 189.294 o
-8 3 10 2.694 3.617 0.620 29.766 o
-8 3 11 0.256 0.104 0.359 139.182 o
-8 4 -3 3.311 3.227 0.890 17.088 o
-8 4 -2 2.444 2.533 0.625 33.396 o
-8 4 -1 0.845 0.920 0.544 57.416 o
-8 4 0 1.850 3.305 0.717 27.877 o
-8 4 1 0.056 -0.066 0.516 68.088 o
-8 4 2 1.145 0.528 0.463 76.485 o
-8 4 3 5.072 4.388 0.782 15.181 o
-8 4 4 1.859 1.389 0.560 46.956 o
-8 4 5 24.858 28.749 2.442 0.790 o
-8 4 6 1.510 1.757 0.705 32.323 o
-8 4 7 2.194 0.354 0.614 41.233 o
-8 4 8 5.934 7.177 1.246 7.094 o
-8 4 9 11.848 13.566 1.623 2.803 o
-8 5 0 0.049 0.229 0.599 50.351 o
-8 5 1 1.534 2.053 0.751 28.483 o
-8 5 2 1.569 2.600 0.704 30.857 o
-8 5 3 1.488 3.252 0.736 27.939 o
-8 5 4 1.388 2.380 0.705 31.767 o
-8 5 5 1.207 0.105 0.852 24.344 o
-7 0 -5 21.134 14.985 2.131 1.334 o
-7 0 -3 57.032 55.622 3.833 0.193 o
-7 0 -1 593.997 648.426 27.189 0.002 o
-7 0 1 52.139 57.322 2.469 0.232 o
-7 0 3 191.412 180.460 51.598 0.005 o
-7 0 5 36.927 30.664 1.435 0.563 o
-7 0 7 9.253 8.858 0.879 6.388 o
-7 0 9 0.214 0.361 0.383 122.099 o
-7 0 11 7.818 7.978 1.147 6.352 o
-7 0 13 1.509 0.110 0.765 29.590 o
-7 1 -6 0.109 0.069 0.689 38.136 o
-7 1 -5 15.470 12.476 1.967 1.998 o
-7 1 -4 21.911 15.313 3.959 0.715 o
-7 1 -3 10.027 10.950 1.106 4.679 o
-7 1 -2 2.980 3.899 1.023 13.767 o
-7 1 -1 23.182 24.303 1.566 1.117 o
-7 1 0 42.770 46.516 2.278 0.340 o
-7 1 1 7.440 7.259 0.416 11.892 o
-7 1 2 12.600 12.135 0.699 4.183 o
-7 1 3 4.676 5.605 0.403 23.249 o
-7 1 4 15.349 18.986 0.605 2.527 o
-7 1 5 0.725 0.376 0.157 536.162 o
-7 1 6 2.820 1.583 0.487 47.532 o
-7 1 7 8.207 8.860 0.599 8.551 o
-7 1 8 1.185 1.047 0.254 186.945 o
-7 1 9 0.005 -0.094 0.208 420.045 o
-7 1 10 2.599 2.450 0.365 61.453 o
-7 1 11 15.365 15.555 1.029 2.602 o
-7 1 12 11.252 12.184 0.799 4.580 o
-7 1 13 4.077 4.518 0.515 25.601 o
-7 1 14 0.101 0.054 0.480 78.445 o
-7 2 -6 11.765 9.916 1.765 2.921 o
-7 2 -5 4.770 3.616 1.095 10.801 o
-7 2 -4 24.379 25.853 2.589 0.822 o
-7 2 -3 4.262 5.242 0.734 17.066 o
-7 2 -2 0.213 0.284 0.420 101.811 o
-7 2 -1 1.337 1.539 0.493 62.003 o
-7 2 0 4.608 2.401 0.695 21.169 o
-7 2 1 22.264 23.871 1.125 1.280 o
-7 2 2 3.936 3.440 0.283 41.856 o
-7 2 3 0.008 -0.086 0.130 1065.420 o
-7 2 4 5.954 5.720 0.345 18.576 o
-7 2 5 27.506 31.834 1.342 0.802 o
-7 2 6 25.801 22.017 1.728 1.011 o
-7 2 7 3.532 4.479 0.541 27.441 o
-7 2 8 12.295 15.042 0.798 3.649 o
-7 2 9 20.397 26.630 1.150 1.308 o
-7 2 10 2.892 2.775 0.410 48.940 o
-7 2 11 0.216 -0.037 0.265 256.629 o
-7 2 12 7.767 9.548 0.713 8.080 o
-7 2 13 6.040 7.466 0.567 13.184 o
-7 3 -6 2.800 4.888 0.874 16.980 o
-7 3 -5 1.982 0.995 0.498 57.349 o
-7 3 -4 1.238 0.848 0.502 64.027 o
-7 3 -3 11.874 12.692 1.171 3.600 o
-7 3 -2 1.871 2.857 0.550 42.873 o
-7 3 -1 7.242 7.096 0.800 9.414 o
-7 3 0 0.344 0.373 0.361 135.296 o
-7 3 1 58.758 59.216 1.986 0.201 o
-7 3 2 4.011 4.222 0.384 32.316 o
-7 3 3 22.953 23.744 0.809 1.292 o
-7 3 4 5.407 4.631 0.412 21.890 o
-7 3 5 68.302 65.522 9.184 0.092 o
-7 3 6 69.977 77.439 4.534 0.120 o
-7 3 7 31.590 28.355 2.614 0.605 o
-7 3 8 0.260 0.407 0.284 218.672 o
-7 3 9 10.717 11.503 0.739 5.123 o
-7 3 10 13.064 15.493 1.058 3.074 o
-7 3 11 5.548 7.321 0.756 12.021 o
-7 3 12 1.432 1.553 0.396 85.842 o
-7 4 -5 0.069 1.022 0.739 32.947 o
-7 4 -4 0.767 0.846 0.740 32.115 o
-7 4 -3 0.598 1.106 0.503 67.599 o
-7 4 -2 2.509 1.171 0.447 59.247 o
-7 4 -1 0.206 0.089 0.368 132.871 o
-7 4 0 1.074 -0.078 0.619 45.737 o
-7 4 1 0.003 -0.251 0.492 74.868 o
-7 4 2 7.745 7.158 0.970 7.694 o
-7 4 3 2.907 2.371 0.582 34.601 o
-7 4 4 10.852 10.566 1.662 3.215 o
-7 4 5 13.979 13.539 2.497 1.649 o
-7 4 6 3.981 3.544 0.862 16.342 o
-7 4 7 0.085 0.267 0.555 58.623 o
-7 4 8 27.528 28.327 2.290 0.742 o
-7 4 9 25.101 30.839 2.323 0.771 o
-7 4 10 28.532 37.032 2.583 0.583 o
-7 5 -3 0.289 0.329 0.434 94.772 o
-7 5 -2 2.215 1.813 0.559 43.119 o
-7 5 -1 1.300 1.026 0.855 23.604 o
-7 5 0 0.529 0.296 0.488 74.360 o
-7 5 1 0.182 -0.203 0.556 58.438 o
-7 5 2 0.574 0.489 0.489 73.547 o
-7 5 3 0.187 0.049 0.382 123.609 o
-7 5 4 0.361 0.508 0.408 106.319 o
-7 5 5 4.149 4.821 0.646 20.320 o
-7 5 6 0.000 -0.204 0.516 67.891 o
-7 5 7 1.360 0.233 0.628 43.307 o
-7 5 8 2.577 4.703 1.047 13.270 o
-6 0 -4 187.777 201.940 10.014 0.018 o
-6 0 -2 50.561 51.719 2.625 0.254 o
-6 0 0 126.711 110.257 11.314 0.037 o
-6 0 2 0.002 0.077 0.098 1867.340 o
-6 0 4 414.129 438.579 13.249 0.004 o
-6 0 6 0.000 -0.009 0.115 1376.920 o
-6 0 8 56.170 50.290 2.085 0.235 o
-6 0 10 20.686 23.616 1.625 1.269 o
-6 0 12 0.022 0.018 0.307 191.511 o
-6 0 14 5.386 4.025 1.160 9.292 o
-6 1 -5 4.397 5.372 0.871 13.808 o
-6 1 -4 62.709 58.471 2.535 0.182 o
-6 1 -3 291.134 301.699 12.049 0.008 o
-6 1 -2 82.215 88.523 2.345 0.100 o
-6 1 -1 0.045 -0.074 0.155 748.575 o
-6 1 0 0.468 0.250 0.146 716.706 o
-6 1 1 88.136 92.545 2.996 0.087 o
-6 1 2 46.929 50.412 1.200 0.308 o
-6 1 3 2.346 2.517 0.149 109.589 o
-6 1 4 6.573 7.343 0.530 12.603 o
-6 1 5 3.068 2.635 0.208 70.922 o
-6 1 6 24.483 23.411 0.852 1.195 o
-6 1 7 0.516 0.361 0.147 672.841 o
-6 1 8 0.693 0.968 0.259 219.169 o
-6 1 9 3.803 3.561 0.384 36.892 o
-6 1 10 0.675 0.912 0.420 94.897 o
-6 1 11 20.655 22.573 1.665 1.292 o
-6 1 12 7.077 7.937 0.707 9.820 o
-6 1 13 2.947 2.596 0.502 40.167 o
-6 1 14 2.209 1.693 0.436 61.700 o
-6 2 -5 75.168 76.803 5.342 0.106 o
-6 2 -4 0.713 0.217 0.370 125.722 o
-6 2 -3 0.259 0.672 0.359 136.571 o
-6 2 -2 0.706 0.426 0.364 127.664 o
-6 2 -1 1.121 1.595 0.287 147.120 o
-6 2 0 12.066 12.909 0.806 4.088 o
-6 2 1 8.881 9.339 0.452 8.128 o
-6 2 2 0.516 0.530 0.106 1013.130 o
-6 2 3 0.217 0.264 0.091 1869.700 o
-6 2 4 0.224 0.261 0.107 1413.220 o
-6 2 5 0.475 0.744 0.145 623.691 o
-6 2 6 9.660 9.901 0.592 6.701 o
-6 2 7 15.337 16.082 0.781 2.731 o
-6 2 8 4.747 4.625 0.419 24.983 o
-6 2 9 1.782 1.621 0.292 113.828 o
-6 2 10 1.088 0.954 0.331 132.369 o
-6 2 11 0.574 0.814 0.417 97.885 o
-6 2 12 0.135 0.209 0.274 238.392 o
-6 2 13 1.261 0.797 0.370 108.471 o
-6 2 14 0.732 1.372 0.825 25.730 o
-6 3 -5 16.034 13.453 1.218 2.518 o
-6 3 -4 3.310 2.788 0.597 30.165 o
-6 3 -3 5.202 4.831 0.701 16.021 o
-6 3 -2 15.497 13.403 1.629 2.240 o
-6 3 -1 22.925 22.698 5.002 0.477 o
-6 3 0 8.314 5.715 0.596 10.465 o
-6 3 1 1.963 1.834 0.329 90.728 o
-6 3 2 84.227 87.682 1.911 0.098 o
-6 3 3 136.575 144.497 3.565 0.037 o
-6 3 4 4.900 5.446 0.819 13.808 o
-6 3 5 19.893 18.393 1.225 1.673 o
-6 3 6 405.220 350.422 14.994 0.005 o
-6 3 7 2.330 0.960 0.296 103.658 o
-6 3 8 32.533 34.435 1.564 0.609 o
-6 3 9 14.064 13.944 0.776 3.306 o
-6 3 10 6.432 8.685 0.699 10.240 o
-6 3 11 7.893 10.597 0.932 6.498 o
-6 3 12 1.685 0.969 0.414 81.057 o
-6 3 13 0.327 0.630 0.618 46.775 o
-6 4 -5 2.355 2.953 1.151 12.169 o
-6 4 -4 0.656 0.803 0.490 71.692 o
-6 4 -3 0.026 0.005 0.369 132.667 o
-6 4 -2 11.977 9.064 0.996 4.532 o
-6 4 -1 28.528 23.955 4.924 0.428 o
-6 4 0 14.193 9.828 1.337 3.117 o
-6 4 1 2.721 4.004 0.852 18.646 o
-6 4 2 18.880 22.659 1.770 1.373 o
-6 4 3 11.142 9.007 0.774 5.495 o
-6 4 4 21.101 21.956 1.665 1.283 o
-6 4 5 0.050 0.062 0.438 94.292 o
-6 4 6 15.039 18.519 1.756 1.888 o
-6 4 7 3.302 2.326 0.754 22.952 o
-6 4 8 10.713 12.441 1.299 3.736 o
-6 4 9 21.468 22.435 1.765 1.216 o
-6 4 10 40.070 47.928 2.945 0.336 o
-6 4 11 5.886 8.436 1.121 7.601 o
-6 5 -5 1.869 0.908 0.848 23.229 o
-6 5 -4 3.679 3.692 0.931 15.047 o
-6 5 -3 4.988 4.022 0.728 16.919 o
-6 5 -2 6.729 5.846 0.793 10.944 o
-6 5 -1 0.746 1.245 0.528 60.475 o
-6 5 0 2.860 2.560 0.893 18.341 o
-6 5 1 0.753 0.709 0.573 52.945 o
-6 5 2 1.993 1.758 0.566 44.040 o
-6 5 3 5.846 5.105 1.726 4.819 o
-6 5 4 3.439 4.210 0.884 16.158 o
-6 5 5 0.019 0.109 0.277 235.550 o
-6 5 6 0.156 -0.070 0.467 82.836 o
-6 5 7 1.030 0.624 0.608 46.403 o
-6 5 8 2.790 3.897 0.997 14.580 o
-6 5 9 0.190 -0.064 0.505 70.892 o
-6 5 10 0.651 0.935 0.575 52.639 o
-6 6 -1 12.005 7.575 1.610 3.391 o
-6 6 0 18.642 24.604 2.258 1.157 o
-6 6 1 45.393 56.906 3.524 0.250 o
-6 6 2 4.060 4.913 0.885 14.472 o
-6 6 3 3.304 3.970 0.795 19.267 o
-6 6 4 5.254 6.600 2.476 2.610 o
-6 6 5 0.432 0.069 0.490 74.628 o
-6 6 6 5.584 6.618 1.122 8.500 o
-6 6 7 1.651 2.011 0.839 23.173 o
-5 0 -3 168.465 158.667 4.335 0.026 o
-5 0 -1 6.089 6.002 0.370 17.294 o
-5 0 1 160.446 151.492 2.940 0.029 o
-5 0 3 0.020 0.074 0.068 3894.660 o
-5 0 5 0.480 0.882 0.169 479.585 o
-5 0 7 10.538 13.887 1.434 3.339 o
-5 0 9 352.402 407.316 16.710 0.005 o
-5 0 11 17.328 19.889 1.277 1.843 o
-5 0 13 122.908 172.373 22.917 0.018 o
-5 0 15 4.696 4.367 1.261 8.575 o
-5 1 -4 61.283 60.807 2.250 0.185 o
-5 1 -3 378.869 396.201 12.879 0.005 o
-5 1 -2 72.707 69.468 1.566 0.140 o
-5 1 -1 0.278 0.192 0.110 1316.920 o
-5 1 0 84.666 88.942 3.945 0.091 o
-5 1 1 262.853 274.045 10.347 0.010 o
-5 1 2 307.006 310.650 5.967 0.008 o
-5 1 3 10.252 7.213 0.277 8.258 o
-5 1 4 0.103 0.070 0.059 4920.300 o
-5 1 5 8.576 7.170 0.339 10.380 o
-5 1 6 0.537 0.390 0.100 1143.850 o
-5 1 7 0.045 0.069 0.075 3161.520 o
-5 1 8 1.570 1.808 0.188 176.024 o
-5 1 9 1.044 1.207 0.268 178.291 o
-5 1 10 4.457 3.851 2.044 3.913 o
-5 1 11 0.513 0.302 0.256 256.716 o
-5 1 12 3.670 3.857 0.492 30.838 o
-5 1 13 5.122 4.654 0.589 18.884 o
-5 1 14 2.525 3.048 0.562 36.459 o
-5 2 -4 19.050 15.671 1.293 1.879 o
-5 2 -3 0.886 0.597 0.219 285.728 o
-5 2 -2 5.645 6.822 0.415 16.836 o
-5 2 -1 104.368 130.215 3.222 0.055 o
-5 2 0 22.335 25.846 1.092 1.216 o
-5 2 1 34.981 31.844 1.051 0.611 o
-5 2 2 18.433 22.326 0.450 1.838 o
-5 2 3 2.153 2.617 0.150 117.135 o
-5 2 4 23.202 19.854 1.526 1.256 o
-5 2 5 13.706 13.197 0.641 3.656 o
-5 2 6 0.947 0.902 0.131 467.362 o
-5 2 7 66.036 62.452 1.344 0.171 o
-5 2 8 1.325 0.638 0.373 107.187 o
-5 2 9 2.393 3.670 0.627 30.697 o
-5 2 10 1.566 1.334 0.378 91.520 o
-5 2 11 0.928 1.003 0.322 143.380 o
-5 2 12 3.347 3.248 0.484 35.733 o
-5 2 13 0.485 1.286 0.402 103.058 o
-5 2 14 0.046 0.166 0.343 153.885 o
-5 3 -4 1.052 0.960 0.426 87.282 o
-5 3 -3 0.065 -0.035 0.246 298.768 o
-5 3 -2 34.095 43.934 1.943 0.472 o
-5 3 -1 46.453 45.534 1.956 0.320 o
-5 3 0 28.023 29.059 0.858 0.875 o
-5 3 1 0.623 0.498 0.108 898.625 o
-5 3 2 44.986 43.079 1.320 0.359 o
-5 3 3 0.738 0.603 0.107 778.616 o
-5 3 4 93.644 91.869 2.779 0.081 o
-5 3 5 0.317 0.221 0.136 886.977 o
-5 3 6 25.196 19.401 0.849 1.281 o
-5 3 7 296.969 298.982 8.342 0.008 o
-5 3 8 101.500 92.791 3.776 0.071 o
-5 3 9 30.916 31.060 1.470 0.698 o
-5 3 10 4.331 4.350 0.521 24.552 o
-5 3 11 31.615 33.426 1.866 0.620 o
-5 3 12 1.369 2.515 0.539 49.353 o
-5 3 13 1.988 1.740 0.515 50.933 o
-5 4 -4 13.533 10.575 1.044 3.628 o
-5 4 -3 7.341 7.071 0.978 8.012 o
-5 4 -2 3.785 3.485 0.614 25.354 o
-5 4 -1 46.828 44.171 2.783 0.301 o
-5 4 0 13.599 11.924 1.204 3.196 o
-5 4 1 0.547 -0.350 0.627 45.605 o
-5 4 2 30.780 34.237 1.155 0.681 o
-5 4 3 237.364 255.205 7.106 0.012 o
-5 4 4 179.089 153.599 32.768 0.010 o
-5 4 5 4.993 3.505 0.490 24.424 o
-5 4 6 1.335 0.786 0.288 156.408 o
-5 4 7 19.016 20.533 2.014 1.341 o
-5 4 8 5.457 6.702 0.608 14.788 o
-5 4 9 4.423 5.341 0.824 14.672 o
-5 4 10 0.825 1.562 0.545 55.635 o
-5 4 11 6.801 6.478 0.936 9.109 o
-5 4 12 0.326 0.484 0.460 83.990 o
-5 5 -4 16.773 14.381 1.241 2.302 o
-5 5 -3 18.875 23.165 1.586 1.422 o
-5 5 -2 89.911 90.073 13.569 0.047 o
-5 5 -1 33.345 42.049 4.573 0.339 o
-5 5 0 0.153 -0.160 0.607 49.143 o
-5 5 1 2.996 1.578 0.627 32.834 o
-5 5 2 9.315 8.518 1.038 5.826 o
-5 5 3 14.150 12.338 1.470 2.698 o
-5 5 4 1.709 0.861 0.305 126.419 o
-5 5 5 13.492 11.870 1.395 2.966 o
-5 5 6 4.375 2.399 1.395 7.912 o
-5 5 7 0.046 0.127 0.294 209.502 o
-5 5 8 0.001 0.144 0.288 217.818 o
-5 5 9 0.000 0.264 0.421 102.238 o
-5 5 10 0.967 0.389 0.469 77.160 o
-5 6 -4 0.277 0.080 0.618 47.274 o
-5 6 -3 0.156 0.358 0.534 63.131 o
-5 6 -2 17.791 23.235 1.999 1.339 o
-5 6 -1 0.017 0.459 0.709 35.950 o
-5 6 0 2.843 2.904 0.913 17.451 o
-5 6 1 27.651 26.154 2.114 0.796 o
-5 6 2 10.300 11.920 1.258 4.027 o
-5 6 3 0.000 0.004 0.339 157.309 o
-5 6 4 5.050 5.353 0.681 16.142 o
-5 6 5 26.224 35.966 2.612 0.639 o
-5 6 6 0.792 0.222 0.543 59.492 o
-5 6 7 0.110 0.102 0.378 126.160 o
-5 6 8 0.798 0.621 0.371 119.628 o
-5 7 1 3.203 4.203 0.861 17.233 o
-5 7 2 0.288 0.252 0.420 101.567 o
-5 7 3 0.198 0.149 0.420 101.991 o
-5 7 4 0.292 0.365 0.476 78.940 o
-5 7 5 4.246 3.290 1.105 11.285 o
-4 0 -2 166.561 190.534 4.916 0.023 o
-4 0 0 0.377 0.448 0.098 1323.910 o
-4 0 2 15.041 13.175 0.489 3.358 o
-4 0 4 191.558 155.908 3.408 0.022 o
-4 0 6 57.195 65.774 7.018 0.131 o
-4 0 8 7.453 6.700 0.692 10.263 o
-4 0 10 81.487 65.251 16.232 0.044 o
-4 0 12 21.087 19.197 2.284 1.161 o
-4 0 14 208.609 57.627 5.371 0.028 o
-4 1 -3 49.019 59.772 3.782 0.218 o
-4 1 -2 5.892 10.804 0.533 10.719 o
-4 1 -1 15.248 18.437 0.506 2.643 o
-4 1 0 28.922 31.672 1.889 0.706 o
-4 1 1 137.961 145.762 5.762 0.035 o
-4 1 2 139.567 142.007 4.603 0.036 o
-4 1 3 13.079 11.330 0.290 4.579 o
-4 1 4 7.647 8.743 0.230 11.013 o
-4 1 5 21.878 19.922 0.439 1.594 o
-4 1 6 164.018 157.828 7.887 0.025 o
-4 1 7 76.063 81.927 7.432 0.088 o
-4 1 8 32.770 31.660 0.983 0.671 o
-4 1 9 0.322 0.557 0.261 251.791 o
-4 1 10 3.711 3.381 0.562 28.389 o
-4 1 11 26.534 24.631 1.806 0.910 o
-4 1 12 3.740 2.081 1.550 6.823 o
-4 1 13 10.089 10.694 1.328 4.126 o
-4 1 14 10.674 2.282 1.043 6.896 o
-4 2 -3 7.657 8.101 0.626 9.521 o
-4 2 -2 2.585 2.655 0.244 79.419 o
-4 2 -1 118.041 135.004 7.483 0.042 o
-4 2 0 724.388 730.814 19.268 0.001 o
-4 2 1 476.933 464.134 6.360 0.003 o
-4 2 2 0.049 -0.031 0.063 4538.080 o
-4 2 3 24.562 24.780 0.467 1.187 o
-4 2 4 898.263 808.317 16.520 0.001 o
-4 2 5 572.010 483.335 12.427 0.002 o
-4 2 6 46.415 48.387 1.051 0.323 o
-4 2 7 20.393 19.769 0.686 1.713 o
-4 2 8 3.663 4.016 0.319 39.730 o
-4 2 9 41.683 47.296 2.163 0.350 o
-4 2 10 0.114 0.002 0.211 405.926 o
-4 2 11 3.668 3.196 0.456 35.276 o
-4 2 12 6.160 6.612 0.678 12.517 o
-4 2 13 0.139 0.548 0.397 113.263 o
-4 2 14 0.254 0.063 0.397 114.063 o
-4 3 -3 11.525 14.770 0.718 4.065 o
-4 3 -2 2.913 3.372 0.339 52.058 o
-4 3 -1 0.075 0.091 0.131 1038.540 o
-4 3 0 12.855 12.725 0.445 4.244 o
-4 3 1 24.426 24.335 0.510 1.206 o
-4 3 2 12.001 10.725 0.331 5.278 o
-4 3 3 28.775 29.153 1.423 0.797 o
-4 3 4 34.171 32.093 1.005 0.629 o
-4 3 5 31.393 31.175 0.932 0.719 o
-4 3 6 2.069 1.885 0.159 144.497 o
-4 3 7 86.587 82.132 2.770 0.097 o
-4 3 8 40.497 34.221 3.158 0.389 o
-4 3 9 14.584 15.263 0.877 2.918 o
-4 3 10 3.217 2.909 0.422 43.292 o
-4 3 11 12.870 16.263 1.468 2.581 o
-4 3 12 18.678 21.682 1.767 1.423 o
-4 3 13 1.073 0.669 0.689 36.472 o
-4 3 14 0.089 -0.257 0.736 33.395 o
-4 4 -3 33.019 38.572 2.125 0.523 o
-4 4 -2 3.555 3.286 0.440 36.859 o
-4 4 -1 13.839 13.091 0.781 3.490 o
-4 4 0 0.049 0.048 0.125 1155.520 o
-4 4 1 76.311 74.998 1.896 0.124 o
-4 4 2 5.958 6.218 0.308 18.100 o
-4 4 3 166.991 165.953 12.887 0.021 o
-4 4 4 163.082 145.034 6.199 0.028 o
-4 4 5 30.109 33.092 1.482 0.692 o
-4 4 6 0.722 0.474 0.235 277.351 o
-4 4 7 38.035 37.768 1.598 0.473 o
-4 4 8 43.272 41.107 1.686 0.379 o
-4 4 9 12.701 11.903 0.799 4.050 o
-4 4 10 0.772 0.922 0.309 161.133 o
-4 4 11 0.541 0.327 0.309 179.832 o
-4 4 12 0.000 -0.222 0.456 86.956 o
-4 5 -3 115.030 125.695 8.241 0.043 o
-4 5 -2 55.765 71.316 5.381 0.150 o
-4 5 -1 134.512 118.733 5.812 0.040 o
-4 5 0 6.216 5.124 1.045 9.327 o
-4 5 1 134.352 154.387 7.301 0.033 o
-4 5 2 1.280 1.440 0.553 51.740 o
-4 5 3 9.307 10.369 0.756 6.277 o
-4 5 4 24.252 19.961 3.626 0.695 o
-4 5 5 1.191 0.805 0.333 130.466 o
-4 5 6 26.580 32.035 1.579 0.805 o
-4 5 7 0.391 0.033 0.234 321.149 o
-4 5 8 9.954 9.618 0.667 6.363 o
-4 5 9 0.841 1.462 0.372 109.400 o
-4 5 10 0.026 0.030 0.289 217.215 o
-4 5 11 1.922 1.465 0.525 51.273 o
-4 6 -3 0.062 -0.137 0.485 76.776 o
-4 6 -2 4.886 4.283 0.885 13.630 o
-4 6 -1 16.025 18.509 1.933 1.680 o
-4 6 0 2.298 2.996 0.877 19.492 o
-4 6 1 0.002 0.231 0.495 73.947 o
-4 6 2 1.707 1.250 0.482 61.949 o
-4 6 3 4.677 4.370 1.137 9.996 o
-4 6 4 0.749 0.775 0.333 144.850 o
-4 6 5 0.000 -0.020 0.360 139.769 o
-4 6 6 6.107 9.977 2.046 3.266 o
-4 6 7 0.685 0.274 0.280 210.680 o
-4 6 8 0.068 0.158 0.262 263.483 o
-4 6 9 3.590 4.567 0.911 14.953 o
-4 7 -2 0.392 0.873 0.757 31.191 o
-4 7 -1 1.017 1.737 0.793 27.125 o
-4 7 0 0.873 1.128 0.646 41.179 o
-4 7 1 0.607 0.678 0.566 54.826 o
-4 7 2 0.508 0.231 0.369 129.053 o
-4 7 3 5.771 7.220 0.975 9.430 o
-4 7 4 0.003 -0.103 0.626 46.193 o
-4 7 5 4.658 4.254 1.409 7.267 o
-3 0 -1 3.221 2.390 0.237 66.865 o
-3 0 1 479.258 420.477 8.863 0.003 o
-3 0 3 105.814 70.844 1.416 0.082 o
-3 0 5 0.405 0.171 0.122 1037.020 o
-3 0 7 53.911 61.822 9.872 0.102 o
-3 0 9 30.129 35.191 1.790 0.640 o
-3 0 11 4.938 9.784 1.528 5.326 o
-3 0 13 25.353 20.176 2.627 0.873 o
-3 1 -2 263.527 267.251 6.071 0.010 o
-3 1 -1 578.518 589.417 11.600 0.002 o
-3 1 0 10.371 9.616 0.309 6.875 o
-3 1 1 112.205 101.626 3.490 0.059 o
-3 1 2 383.588 319.378 9.742 0.005 o
-3 1 3 253.314 205.219 3.941 0.013 o
-3 1 4 19.528 14.028 1.085 2.026 o
-3 1 5 365.961 393.139 27.906 0.004 o
-3 1 6 181.575 199.389 10.209 0.019 o
-3 1 7 586.936 657.615 11.669 0.002 o
-3 1 8 48.128 46.516 1.889 0.303 o
-3 1 9 4.571 5.534 0.451 22.731 o
-3 1 10 91.013 92.871 7.295 0.069 o
-3 1 11 170.579 216.187 9.522 0.019 o
-3 1 12 57.803 35.100 8.514 0.134 o
-3 1 13 0.112 -0.138 0.526 65.399 o
-3 1 14 2.743 2.264 0.741 25.326 o
-3 2 -2 715.525 797.908 25.001 0.001 o
-3 2 -1 683.186 781.605 44.752 0.001 o
-3 2 0 0.495 0.494 0.092 1239.870 o
-3 2 1 31.343 29.940 0.541 0.757 o
-3 2 2 8.026 7.512 0.239 11.413 o
-3 2 3 1.512 1.322 0.092 299.405 o
-3 2 4 902.621 764.662 36.307 0.001 o
-3 2 5 778.397 710.270 27.358 0.001 o
-3 2 6 218.972 200.527 16.030 0.013 o
-3 2 7 89.240 90.854 6.384 0.075 o
-3 2 8 30.169 31.169 0.863 0.761 o
-3 2 9 22.190 23.146 2.083 1.072 o
-3 2 10 24.996 32.452 2.379 0.743 o
-3 2 11 24.809 35.988 3.547 0.553 o
-3 2 12 15.685 10.397 4.020 0.864 o
-3 2 13 9.297 8.269 1.108 5.631 o
-3 2 14 2.893 2.582 1.104 12.827 o
-3 3 -2 0.623 0.388 0.127 772.616 o
-3 3 -1 7.105 10.393 0.494 9.475 o
-3 3 0 6.711 9.259 0.411 11.417 o
-3 3 1 4.978 4.864 0.161 28.710 o
-3 3 2 21.795 22.747 0.459 1.469 o
-3 3 3 36.781 32.107 1.301 0.558 o
-3 3 4 19.724 19.067 0.607 1.848 o
-3 3 5 0.355 0.245 0.077 2154.420 o
-3 3 6 13.201 14.563 0.439 3.761 o
-3 3 7 4.693 3.721 0.218 34.793 o
-3 3 8 1.651 1.616 0.218 158.733 o
-3 3 9 0.012 -0.146 0.210 409.425 o
-3 3 10 0.300 0.107 0.254 274.538 o
-3 3 11 0.170 -0.015 0.326 169.981 o
-3 3 12 1.653 1.393 0.439 71.289 o
-3 3 13 2.567 1.764 0.535 43.361 o
-3 4 -2 3.259 3.539 0.273 51.281 o
-3 4 -1 15.214 15.412 0.523 2.988 o
-3 4 0 115.486 117.805 3.696 0.052 o
-3 4 1 16.109 12.864 0.749 2.941 o
-3 4 2 12.058 11.277 0.526 4.859 o
-3 4 3 15.519 17.811 0.714 2.557 o
-3 4 4 2.027 2.846 0.224 99.969 o
-3 4 5 3.406 3.697 0.311 45.162 o
-3 4 6 1.165 1.038 0.256 186.642 o
-3 4 7 12.586 11.604 0.642 4.377 o
-3 4 8 10.809 9.738 0.597 5.908 o
-3 4 9 1.728 0.965 0.290 131.161 o
-3 4 10 7.260 6.326 0.881 9.172 o
-3 4 11 0.604 0.204 0.381 120.223 o
-3 4 12 1.378 1.701 0.617 41.541 o
-3 5 -2 42.708 47.011 1.986 0.347 o
-3 5 -1 22.390 22.085 2.342 1.017 o
-3 5 0 102.060 83.400 3.103 0.076 o
-3 5 1 212.780 230.375 10.165 0.014 o
-3 5 2 283.269 283.345 9.787 0.009 o
-3 5 3 17.773 13.731 4.119 0.765 o
-3 5 4 21.662 22.018 1.023 1.414 o
-3 5 5 25.657 27.825 2.900 0.706 o
-3 5 6 17.605 16.139 0.956 2.215 o
-3 5 7 10.691 10.310 0.946 4.946 o
-3 5 8 31.608 31.481 1.447 0.676 o
-3 5 9 0.063 0.191 0.251 286.413 o
-3 5 10 2.205 1.845 0.397 68.164 o
-3 5 11 0.010 -0.158 0.316 180.995 o
-3 6 -2 3.520 2.185 0.437 42.593 o
-3 6 -1 3.466 4.056 0.837 17.522 o
-3 6 0 2.024 2.328 0.720 28.719 o
-3 6 1 1.478 0.990 0.497 62.444 o
-3 6 2 0.138 0.002 0.267 253.958 o
-3 6 3 3.046 3.303 0.457 40.052 o
-3 6 4 9.543 7.766 0.626 7.616 o
-3 6 5 1.134 0.728 0.312 148.229 o
-3 6 6 0.151 0.074 0.227 350.079 o
-3 6 7 0.859 0.154 0.247 256.304 o
-3 6 8 0.592 0.073 0.333 156.624 o
-3 6 9 0.464 0.286 0.341 150.080 o
-3 7 -2 2.207 2.242 0.843 21.739 o
-3 7 -1 0.586 0.794 0.634 43.872 o
-3 7 0 0.582 0.906 0.569 53.868 o
-3 7 1 0.154 -0.047 0.408 108.506 o
-3 7 2 0.020 0.005 0.410 107.823 o
-3 7 3 3.262 5.322 0.746 19.192 o
-3 7 4 0.123 -0.204 0.695 37.492 o
-3 7 5 0.315 0.162 0.454 87.098 o
-3 7 6 2.891 2.312 1.096 13.096 o
-2 0 0 173.177 172.370 5.946 0.023 o
-2 0 2 1238.000 891.355 15.780 0.001 o
-2 0 4 223.363 220.836 9.272 0.014 o
-2 0 6 11.963 9.816 0.891 4.608 o
-2 0 8 12.808 10.223 0.854 4.244 o
-2 0 10 0.023 -0.143 0.329 167.208 o
-2 0 12 0.048 -0.062 0.429 98.311 o
-2 0 14 3.985 3.049 1.127 11.289 o
-2 1 -1 849.398 841.452 31.806 0.001 o
-2 1 0 17.963 15.409 0.532 2.401 o
-2 1 1 842.332 721.182 12.514 0.001 o
-2 1 2 8094.160 5784.870 132.353 0.000 o
-2 1 3 2893.360 2495.680 42.452 0.000 o
-2 1 4 24.716 22.469 5.270 0.431 o
-2 1 5 3.755 6.519 1.391 7.304 o
-2 1 6 216.286 216.794 5.364 0.015 o
-2 1 7 5.042 4.102 0.254 29.251 o
-2 1 8 11.169 9.088 0.569 5.948 o
-2 1 9 19.064 22.694 0.996 1.620 o
-2 1 10 1.319 1.855 0.360 97.611 o
-2 1 11 126.574 144.625 8.418 0.036 o
-2 1 12 118.037 125.677 4.240 0.048 o
-2 1 13 15.863 15.135 1.328 2.318 o
-2 1 14 5.831 5.633 0.953 10.458 o
-2 2 -1 147.908 178.683 4.858 0.028 o
-2 2 0 310.341 303.654 7.975 0.007 o
-2 2 1 4.318 3.657 0.129 41.836 o
-2 2 2 190.445 156.810 4.309 0.022 o
-2 2 3 70.065 52.779 1.172 0.174 o
-2 2 4 382.312 387.184 18.946 0.005 o
-2 2 5 1105.470 956.396 76.202 0.001 o
-2 2 6 0.777 0.963 0.184 353.375 o
-2 2 7 1.888 1.754 0.170 160.223 o
-2 2 8 16.042 14.632 1.101 2.507 o
-2 2 9 325.407 279.300 19.861 0.007 o
-2 2 10 11.648 12.448 0.879 4.219 o
-2 2 11 17.288 18.826 1.009 2.041 o
-2 2 12 24.840 24.000 2.108 0.934 o
-2 2 13 0.049 0.096 0.387 120.857 o
-2 2 14 13.363 9.660 3.599 1.091 o
-2 3 -1 90.338 93.503 2.404 0.085 o
-2 3 0 55.671 51.813 1.837 0.236 o
-2 3 1 136.861 114.948 4.212 0.042 o
-2 3 2 33.350 25.751 0.488 0.762 o
-2 3 3 2.208 2.098 0.108 140.762 o
-2 3 4 0.371 0.140 0.058 3271.610 o
-2 3 5 39.986 36.157 1.422 0.462 o
-2 3 6 22.513 23.424 0.640 1.360 o
-2 3 7 3.719 3.766 0.265 43.543 o
-2 3 8 7.915 6.171 1.171 6.695 o
-2 3 9 2.491 1.753 0.316 80.466 o
-2 3 10 0.003 0.038 0.238 320.719 o
-2 3 11 8.508 10.568 2.519 2.144 o
-2 3 12 1.715 1.184 1.052 15.528 o
-2 3 13 0.085 -0.011 0.477 79.501 o
-2 4 -1 36.747 39.425 1.359 0.490 o
-2 4 0 231.371 235.100 4.435 0.013 o
-2 4 1 120.545 121.137 3.816 0.048 o
-2 4 2 1.896 1.785 0.126 178.542 o
-2 4 3 9.497 11.999 0.451 6.355 o
-2 4 4 9.768 11.734 0.406 6.335 o
-2 4 5 0.595 0.556 0.140 649.123 o
-2 4 6 0.076 0.372 0.141 879.579 o
-2 4 7 7.876 6.375 0.664 10.120 o
-2 4 8 1.197 1.244 0.316 132.997 o
-2 4 9 4.814 5.536 0.777 14.644 o
-2 4 10 1.400 1.238 0.505 60.314 o
-2 4 11 0.120 -0.210 0.411 106.971 o
-2 4 12 1.130 0.544 0.506 65.097 o
-2 5 -1 34.571 36.482 1.239 0.561 o
-2 5 0 8.427 9.771 0.655 7.605 o
-2 5 1 42.745 37.697 1.329 0.416 o
-2 5 2 63.311 65.820 1.953 0.171 o
-2 5 3 14.175 13.727 0.796 3.286 o
-2 5 4 4.379 4.438 0.564 22.704 o
-2 5 5 62.805 57.429 2.135 0.187 o
-2 5 6 41.932 35.544 1.336 0.441 o
-2 5 7 2.562 3.053 0.502 41.471 o
-2 5 8 26.637 24.869 1.072 1.008 o
-2 5 9 13.463 11.579 0.940 3.646 o
-2 5 10 0.732 0.382 0.319 163.221 o
-2 5 11 19.715 18.101 9.117 0.196 o
-2 5 12 5.471 6.498 1.036 9.474 o
-2 6 -1 69.371 70.923 17.026 0.044 o
-2 6 0 11.232 11.686 1.263 3.767 o
-2 6 1 8.242 9.731 1.018 6.181 o
-2 6 2 0.257 -0.088 0.506 70.551 o
-2 6 3 11.978 11.643 0.985 4.060 o
-2 6 4 8.213 9.312 1.689 3.871 o
-2 6 5 4.746 4.263 0.609 20.309 o
-2 6 6 5.992 4.303 1.434 6.493 o
-2 6 7 0.520 1.158 0.421 94.847 o
-2 6 8 3.144 3.275 0.561 31.938 o
-2 6 9 0.050 -0.023 0.325 171.497 o
-2 7 -1 10.217 13.232 3.177 1.370 o
-2 7 0 0.049 0.338 1.021 17.353 o
-2 7 1 3.335 1.816 0.893 18.172 o
-2 7 2 0.069 -0.176 0.546 60.705 o
-2 7 3 5.188 4.477 1.050 10.590 o
-2 7 4 0.235 1.129 0.754 31.454 o
-2 7 5 3.224 2.814 0.723 23.834 o
-2 7 6 6.426 6.542 0.857 10.222 o
-2 7 7 0.478 -0.089 0.551 59.139 o
-1 0 3 2016.210 1644.760 43.096 0.000 o
-1 0 5 688.324 596.341 44.112 0.001 o
-1 0 7 408.764 536.942 23.024 0.003 o
-1 0 9 36.902 40.430 2.610 0.424 o
-1 0 11 9.590 10.179 1.659 3.532 o
-1 0 13 0.495 0.132 0.658 41.515 o
-1 1 0 463.564 386.498 6.475 0.004 o
-1 1 1 0.943 1.059 0.042 706.782 o
-1 1 2 4088.010 2839.110 350.627 0.000 o
-1 1 3 2613.430 2657.160 53.999 0.000 o
-1 1 4 582.701 606.224 25.776 0.002 o
-1 1 5 29.846 33.132 1.852 0.667 o
-1 1 6 141.065 174.422 3.981 0.031 o
-1 1 7 424.355 418.249 48.321 0.003 o
-1 1 8 61.230 76.163 4.351 0.142 o
-1 1 9 11.110 13.838 0.634 4.546 o
-1 1 10 7.426 7.597 0.935 8.005 o
-1 1 11 9.554 13.984 1.389 3.662 o
-1 1 12 25.330 19.258 5.980 0.368 o
-1 1 13 6.626 2.638 1.018 10.456 o
-1 1 14 0.025 0.357 0.540 61.920 o
-1 2 0 249.779 208.893 5.671 0.013 o
-1 2 1 55.282 49.657 1.806 0.245 o
-1 2 2 201.864 200.220 15.930 0.014 o
-1 2 3 0.024 0.005 0.043 9850.920 o
-1 2 4 623.599 551.774 17.845 0.002 o
-1 2 5 365.361 421.439 25.894 0.004 o
-1 2 6 1.899 2.623 0.266 98.116 o
-1 2 7 17.600 20.788 1.069 1.852 o
-1 2 8 230.356 241.046 4.905 0.013 o
-1 2 9 372.266 404.653 9.716 0.005 o
-1 2 10 95.412 86.233 10.277 0.057 o
-1 2 11 1.896 0.844 0.660 36.621 o
-1 2 12 0.049 0.420 0.501 71.969 o
-1 2 13 18.168 21.761 1.839 1.428 o
-1 2 14 0.083 -0.272 0.477 79.653 o
-1 3 0 72.948 68.490 1.408 0.141 o
-1 3 1 133.576 126.245 2.577 0.042 o
-1 3 2 263.028 245.345 5.129 0.011 o
-1 3 3 0.327 0.687 0.077 1674.770 o
-1 3 4 2.547 1.849 0.224 99.040 o
-1 3 5 26.463 25.598 2.116 0.844 o
-1 3 6 26.341 29.552 0.811 0.939 o
-1 3 7 33.662 34.079 2.534 0.521 o
-1 3 8 28.007 32.270 5.615 0.342 o
-1 3 9 48.991 60.514 6.157 0.169 o
-1 3 10 2.881 1.099 1.078 14.008 o
-1 3 11 15.659 17.384 1.434 2.108 o
-1 3 12 0.990 1.132 0.613 45.040 o
-1 3 13 0.954 1.015 0.615 45.076 o
-1 4 0 131.507 140.453 5.149 0.038 o
-1 4 1 123.085 115.878 3.522 0.048 o
-1 4 2 0.005 -0.002 0.069 3846.750 o
-1 4 3 7.532 7.260 0.255 12.596 o
-1 4 4 23.830 25.579 1.348 1.091 o
-1 4 5 17.383 21.262 1.073 1.848 o
-1 4 6 92.590 103.928 3.847 0.074 o
-1 4 7 3.617 3.780 0.350 39.656 o
-1 4 8 2.023 1.939 0.494 52.890 o
-1 4 9 2.075 2.285 0.555 42.930 o
-1 4 10 7.216 7.789 0.968 7.880 o
-1 4 11 0.700 1.224 0.564 53.712 o
-1 4 12 18.370 19.803 1.747 1.527 o
-1 5 0 8.013 12.271 0.749 6.545 o
-1 5 1 0.176 0.179 0.131 1009.540 o
-1 5 2 1.784 1.584 0.152 188.227 o
-1 5 3 0.218 0.473 0.114 1188.030 o
-1 5 4 0.764 1.073 0.188 336.073 o
-1 5 5 1.436 1.139 0.221 194.553 o
-1 5 6 5.713 4.324 0.365 22.171 o
-1 5 7 10.159 7.519 0.883 6.213 o
-1 5 8 2.351 3.073 0.397 55.889 o
-1 5 9 14.492 9.373 4.139 0.854 o
-1 5 10 16.761 27.902 2.904 0.962 o
-1 5 11 3.162 5.233 1.495 6.953 o
-1 6 0 58.798 77.418 2.886 0.160 o
-1 6 1 2.995 2.304 0.362 56.495 o
-1 6 2 25.738 23.660 1.826 0.959 o
-1 6 3 10.053 8.034 0.681 6.848 o
-1 6 4 31.652 31.111 4.331 0.418 o
-1 6 5 0.016 -0.192 0.304 195.647 o
-1 6 6 6.354 5.556 0.874 10.756 o
-1 6 7 0.318 0.119 0.286 216.771 o
-1 6 8 1.025 0.507 0.449 82.359 o
-1 6 9 0.729 0.654 0.522 63.477 o
-1 7 0 15.905 18.075 1.344 2.091 o
-1 7 1 0.008 -0.178 0.398 114.361 o
-1 7 2 16.612 21.737 2.191 1.380 o
-1 7 3 45.357 43.868 3.503 0.291 o
-1 7 4 20.620 18.872 8.097 0.240 o
-1 7 5 0.015 0.245 0.380 125.391 o
-1 7 6 0.098 -0.055 0.390 119.120 o
-1 8 0 0.826 0.870 0.770 29.641 o
0 0 2 37.865 48.215 1.214 0.414 o
0 0 4 3201.410 3273.680 81.092 0.000 o
0 0 6 48.253 72.880 6.123 0.155 o
0 0 8 37.247 52.387 2.370 0.362 o
0 0 10 1.022 2.134 0.745 30.035 o
0 0 12 9.235 11.762 1.792 3.160 o
0 0 14 1.884 1.145 0.953 18.570 o
0 1 1 590.268 490.429 13.387 0.002 o
0 1 2 27.084 27.008 1.292 0.914 o
0 1 3 351.562 372.700 9.422 0.006 o
0 1 4 0.513 0.216 0.068 2038.810 o
0 1 5 44.409 49.826 2.020 0.318 o
0 1 6 105.465 127.889 5.620 0.052 o
0 1 7 123.188 149.152 3.434 0.041 o
0 1 8 20.647 24.481 1.049 1.391 o
0 1 9 0.056 0.103 0.249 290.255 o
0 1 10 6.728 9.017 0.981 7.691 o
0 1 11 4.963 6.840 0.931 11.031 o
0 1 12 10.220 13.036 1.864 2.759 o
0 1 13 10.940 11.203 1.458 3.522 o
0 1 14 0.444 0.837 0.929 20.796 o
0 2 0 423.713 334.685 10.791 0.005 o
0 2 1 99.701 88.182 2.095 0.078 o
0 2 2 465.626 467.682 14.466 0.003 o
0 2 3 60.481 66.387 2.838 0.173 o
0 2 4 27.988 34.352 1.410 0.740 o
0 2 5 76.437 75.715 2.102 0.122 o
0 2 6 49.960 59.342 2.304 0.241 o
0 2 7 3.229 3.927 0.342 43.757 o
0 2 8 68.141 73.906 2.207 0.143 o
0 2 9 165.325 181.148 12.154 0.021 o
0 2 10 90.851 100.866 6.011 0.071 o
0 2 11 12.841 11.564 1.191 3.455 o
0 2 12 14.475 16.311 1.532 2.267 o
0 2 13 10.310 11.753 1.471 3.585 o
0 3 1 105.342 100.448 3.145 0.065 o
0 3 2 761.219 778.411 17.218 0.001 o
0 3 3 158.579 171.267 6.617 0.026 o
0 3 4 25.090 25.575 1.258 1.041 o
0 3 5 81.493 91.619 6.052 0.084 o
0 3 6 135.135 126.067 5.917 0.039 o
0 3 7 228.047 222.762 7.494 0.014 o
0 3 8 0.360 0.179 0.319 174.411 o
0 3 9 29.176 31.189 2.356 0.655 o
0 3 10 49.069 53.718 2.761 0.255 o
0 3 11 35.438 47.668 3.854 0.338 o
0 3 12 3.401 5.752 1.448 7.156 o
0 3 13 13.572 14.148 2.390 1.739 o
0 4 0 1.466 1.312 0.134 268.087 o
0 4 1 0.224 0.153 0.057 4227.250 o
0 4 2 20.465 21.868 0.522 1.626 o
0 4 3 21.106 19.438 0.777 1.636 o
0 4 4 4.720 4.347 0.303 29.415 o
0 4 5 126.222 131.042 9.976 0.036 o
0 4 6 125.678 133.527 7.633 0.039 o
0 4 7 7.135 8.680 0.802 8.647 o
0 4 8 1.240 1.443 0.475 67.531 o
0 4 9 85.065 117.706 5.974 0.069 o
0 4 10 37.311 63.851 4.013 0.263 o
0 4 11 8.447 22.206 2.322 1.886 o
0 4 12 0.711 0.509 1.037 16.661 o
0 5 1 1.946 1.741 0.176 152.949 o
0 5 2 1.581 1.908 0.196 165.957 o
0 5 3 0.523 0.188 0.182 487.191 o
0 5 4 0.000 0.162 0.196 470.897 o
0 5 5 1.212 1.046 0.277 164.557 o
0 5 6 4.093 3.903 0.664 21.449 o
0 5 7 2.234 1.995 0.450 57.002 o
0 5 8 7.319 7.046 3.309 1.478 o
0 5 9 0.000 0.314 0.795 28.627 o
0 5 10 4.450 7.266 1.576 5.653 o
0 5 11 23.527 31.284 3.303 0.651 o
0 6 0 44.071 51.969 3.558 0.271 o
0 6 1 8.438 9.209 1.303 5.068 o
0 6 2 11.796 11.206 0.936 4.300 o
0 6 3 80.660 89.015 3.247 0.099 o
0 6 4 0.023 0.113 0.302 198.677 o
0 6 5 7.146 7.053 2.036 3.351 o
0 6 6 0.638 0.563 0.449 85.660 o
0 6 7 0.243 0.300 0.352 144.184 o
0 6 8 15.058 19.695 3.550 0.931 o
0 6 9 1.662 1.454 0.597 43.211 o
0 7 1 8.098 5.922 0.936 8.142 o
0 7 2 0.864 0.550 0.467 77.742 o
0 7 3 13.786 12.196 7.304 0.314 o
0 7 4 55.446 50.060 9.065 0.118 o
0 7 5 21.655 30.777 2.333 0.881 o
0 7 6 0.900 1.007 0.654 40.255 o
0 8 0 0.187 0.102 0.635 44.840 o
0 8 1 0.101 -0.320 0.628 45.871 o
1 0 1 6769.340 6217.780 172.087 0.000 o
1 0 3 833.572 858.130 240.208 0.000 o
1 0 5 1740.200 2063.760 116.254 0.000 o
1 0 7 12.083 14.283 1.139 3.372 o
1 0 9 3.606 2.515 0.794 20.321 o
1 0 11 0.364 0.220 0.550 59.453 o
1 0 13 21.207 17.060 2.234 1.229 o
1 1 1 222.391 219.373 7.153 0.014 o
1 1 2 860.762 1062.200 35.441 0.001 o
1 1 3 141.602 99.034 3.680 0.044 o
1 1 4 245.283 325.985 11.966 0.009 o
1 1 5 223.824 274.865 23.097 0.009 o
1 1 6 1.749 0.985 0.219 175.189 o
1 1 7 60.292 69.491 1.797 0.176 o
1 1 8 4.217 3.946 0.363 32.683 o
1 1 9 15.845 16.967 1.342 2.176 o
1 1 10 0.024 -0.043 0.430 97.744 o
1 1 11 8.074 7.904 1.017 6.893 o
1 1 12 45.913 47.809 2.678 0.297 o
1 1 13 5.473 4.390 0.899 12.430 o
1 2 1 3.141 2.405 0.136 80.040 o
1 2 2 40.784 39.433 1.228 0.433 o
1 2 3 61.279 80.833 6.126 0.120 o
1 2 4 0.606 0.508 0.142 641.204 o
1 2 5 1.020 0.980 0.164 347.559 o
1 2 6 0.282 0.246 0.137 884.512 o
1 2 7 1.224 1.219 0.214 218.330 o
1 2 8 1.355 1.235 0.262 162.160 o
1 2 9 8.818 10.394 1.064 5.493 o
1 2 10 20.143 24.003 1.695 1.270 o
1 2 11 0.126 -0.156 0.428 98.663 o
1 2 12 2.887 2.701 0.716 25.479 o
1 2 13 12.617 18.313 1.663 2.266 o
1 3 1 8.584 9.930 0.348 8.448 o
1 3 2 132.082 121.492 4.972 0.042 o
1 3 3 726.416 842.252 88.003 0.001 o
1 3 4 219.825 292.868 17.173 0.010 o
1 3 5 79.219 88.528 5.018 0.094 o
1 3 6 380.975 423.503 13.719 0.004 o
1 3 7 618.408 664.346 21.663 0.002 o
1 3 8 0.846 0.508 0.440 87.539 o
1 3 9 1.825 1.802 0.529 50.094 o
1 3 10 81.879 91.487 3.843 0.093 o
1 3 11 0.876 1.675 0.905 21.241 o
1 3 12 7.312 8.738 1.624 4.372 o
1 3 13 2.437 2.185 1.186 11.728 o
1 4 1 0.056 0.065 0.063 4518.480 o
1 4 2 1.830 2.586 0.160 136.082 o
1 4 3 26.059 27.127 1.530 0.922 o
1 4 4 46.796 42.153 1.299 0.345 o
1 4 5 4.292 4.529 0.427 27.593 o
1 4 6 4.893 4.021 0.456 24.712 o
1 4 7 86.249 114.447 17.730 0.033 o
1 4 8 3.282 3.011 1.112 12.149 o
1 4 9 0.386 1.187 0.961 19.389 o
1 5 1 54.680 58.634 4.824 0.179 o
1 5 2 0.238 0.128 0.170 602.854 o
1 5 3 1.440 1.345 0.313 122.913 o
1 5 4 3.903 4.588 0.526 25.859 o
1 5 5 1.350 2.065 0.460 65.979 o
1 5 6 1.992 2.185 1.020 15.819 o
1 5 7 3.826 2.836 1.339 8.640 o
1 5 8 0.022 -0.196 0.636 44.733 o
1 5 9 0.026 0.212 0.721 34.842 o
1 5 10 2.665 3.034 1.130 12.316 o
1 6 1 103.719 105.301 3.179 0.065 o
1 6 2 68.634 87.376 2.912 0.123 o
1 6 3 2.509 3.186 0.531 38.777 o
1 6 4 2.311 1.616 0.417 64.423 o
1 6 5 4.097 4.240 0.595 23.199 o
1 6 6 0.052 -0.308 0.358 141.193 o
1 6 7 0.311 0.454 0.348 145.888 o
1 6 8 2.543 2.918 0.604 33.429 o
1 6 9 28.185 37.768 3.230 0.520 o
1 7 1 30.539 29.403 3.441 0.526 o
1 7 2 1.428 0.907 0.513 59.831 o
1 7 3 2.148 1.816 0.665 33.197 o
1 7 4 2.874 2.992 0.765 22.754 o
1 7 5 5.498 5.381 0.993 10.494 o
1 7 6 0.472 0.128 0.524 65.069 o
1 8 1 0.289 0.526 0.772 30.168 o
2 0 2 251.656 274.575 8.196 0.010 o
2 0 4 295.140 393.364 153.580 0.001 o
2 0 6 14.293 26.873 1.363 1.753 o
2 0 8 10.288 19.740 2.138 2.001 o
2 0 10 188.483 168.407 8.928 0.020 o
2 0 12 3.064 2.111 0.993 15.432 o
2 1 2 930.198 986.002 26.167 0.001 o
2 1 3 289.747 324.867 10.133 0.008 o
2 1 4 235.793 246.576 8.040 0.012 o
2 1 5 7.144 15.153 0.780 6.044 o
2 1 6 0.014 0.019 0.178 568.868 o
2 1 7 0.018 0.261 0.222 364.724 o
2 1 8 2.354 2.677 0.580 37.234 o
2 1 9 2.240 1.904 0.527 46.426 o
2 1 10 17.599 15.020 1.385 2.043 o
2 1 11 1.181 0.625 0.437 84.051 o
2 1 12 3.134 2.283 0.729 24.718 o
2 2 2 3.815 4.022 0.350 36.451 o
2 2 3 1.409 2.052 0.326 105.615 o
2 2 4 11.895 14.880 2.344 1.883 o
2 2 5 0.775 1.206 0.188 322.196 o
2 2 6 0.685 0.388 0.184 428.944 o
2 2 7 6.054 6.954 1.382 6.217 o
2 2 8 103.663 109.692 6.368 0.057 o
2 2 9 8.051 6.991 0.881 8.066 o
2 2 10 0.613 0.652 0.421 96.688 o
2 2 11 3.357 2.396 0.797 20.938 o
2 2 12 4.219 3.928 0.828 16.354 o
2 3 2 119.863 135.972 3.547 0.045 o
2 3 3 235.536 269.981 11.634 0.011 o
2 3 4 57.116 66.234 4.598 0.163 o
2 3 5 5.182 6.090 0.858 12.219 o
2 3 6 179.467 203.817 6.775 0.020 o
2 3 7 1.529 2.003 0.382 83.638 o
2 3 8 319.441 314.477 15.463 0.007 o
2 3 9 4.149 5.304 0.803 15.690 o
2 3 10 17.740 20.629 2.384 1.261 o
2 3 11 29.500 34.502 3.193 0.528 o
2 3 12 11.457 16.042 2.203 2.004 o
2 4 2 14.118 13.818 0.696 3.381 o
2 4 3 94.400 110.173 2.991 0.071 o
2 4 4 238.849 230.737 7.963 0.013 o
2 4 5 158.868 146.914 11.566 0.025 o
2 4 6 16.318 19.994 2.060 1.525 o
2 4 7 25.905 34.925 5.421 0.361 o
2 4 8 2.499 2.077 1.278 10.225 o
2 4 9 27.750 36.843 3.316 0.525 o
2 4 10 11.505 11.312 2.008 2.488 o
2 5 2 44.181 47.427 2.516 0.317 o
2 5 3 0.402 0.203 0.225 338.119 o
2 5 4 20.016 19.257 2.400 1.173 o
2 5 5 11.630 9.607 1.925 2.710 o
2 5 6 36.991 34.493 11.734 0.106 o
2 5 7 1.075 0.855 0.746 31.124 o
2 5 8 0.283 0.099 0.673 39.798 o
2 5 9 2.417 2.324 0.976 16.550 o
2 6 2 56.446 65.938 7.443 0.126 o
2 6 3 22.083 25.622 2.723 0.869 o
2 6 4 2.462 1.912 0.588 38.120 o
2 6 5 12.767 13.549 1.012 3.462 o
2 6 6 17.005 17.141 2.457 1.367 o
2 6 7 2.808 2.397 0.540 38.674 o
2 6 8 6.924 6.726 3.583 1.293 o
2 7 2 3.984 2.030 1.201 10.543 o
2 7 3 3.435 3.384 0.545 30.841 o
2 7 4 0.132 0.244 0.354 143.240 o
2 7 5 1.037 1.669 0.492 64.443 o
2 7 6 4.645 7.240 1.341 7.096 o
3 0 3 69.186 76.249 11.771 0.068 o
3 0 5 92.854 81.669 3.939 0.085 o
3 0 7 16.504 19.748 2.441 1.329 o
3 0 9 123.965 121.400 7.446 0.042 o
3 0 11 43.884 32.282 3.073 0.368 o
3 1 3 134.116 164.248 5.289 0.033 o
3 1 4 14.516 18.771 1.238 2.314 o
3 1 5 11.328 11.046 0.813 4.779 o
3 1 6 7.204 6.231 0.903 9.100 o
3 1 7 19.325 17.327 1.575 1.630 o
3 1 8 0.744 0.191 0.496 71.191 o
3 1 9 0.303 1.439 0.587 50.776 o
3 1 10 6.547 4.305 0.842 11.742 o
3 1 11 10.403 9.361 1.153 4.720 o
3 1 12 6.436 6.295 1.017 8.852 o
3 2 3 43.181 52.342 3.012 0.292 o
3 2 4 1.381 1.278 0.282 145.246 o
3 2 5 270.999 300.915 16.476 0.008 o
3 2 6 125.234 121.985 5.206 0.044 o
3 2 7 25.469 30.998 2.279 0.764 o
3 2 8 86.531 94.150 23.848 0.024 o
3 2 9 14.094 12.687 1.269 2.914 o
3 2 10 10.427 9.476 1.410 4.003 o
3 2 11 3.681 2.938 0.741 21.502 o
3 2 12 14.408 12.864 1.963 2.096 o
3 3 3 52.648 53.413 2.343 0.242 o
3 3 4 11.883 14.209 0.855 3.850 o
3 3 5 0.215 0.903 0.295 196.442 o
3 3 6 0.018 -0.091 0.291 214.382 o
3 3 7 82.346 120.076 4.564 0.074 o
3 3 8 61.313 63.159 2.965 0.174 o
3 3 9 48.951 44.937 3.467 0.265 o
3 3 10 1.104 0.208 0.501 67.650 o
3 3 11 16.485 18.815 1.797 1.706 o
3 4 3 22.954 27.603 1.170 1.114 o
3 4 4 372.865 414.334 12.637 0.005 o
3 4 5 115.238 116.129 4.430 0.052 o
3 4 6 16.698 16.721 1.380 2.053 o
3 4 7 1.542 0.993 0.557 50.839 o
3 4 8 40.754 48.172 2.733 0.337 o
3 4 9 10.247 8.843 1.623 3.618 o
3 4 10 3.955 4.175 1.256 9.139 o
3 5 3 21.899 20.521 1.157 1.422 o
3 5 4 14.162 13.242 0.931 3.219 o
3 5 5 4.908 3.197 0.514 24.764 o
3 5 6 0.954 0.679 0.677 37.971 o
3 5 7 10.281 7.904 1.372 4.401 o
3 5 8 2.796 2.594 1.012 14.967 o
3 6 3 2.390 2.402 0.483 48.220 o
3 6 4 0.077 0.349 0.329 165.994 o
3 6 5 5.439 4.669 0.636 16.918 o
3 6 6 5.558 3.421 0.587 19.530 o
3 6 7 1.543 0.778 0.428 80.617 o
3 7 3 0.229 0.251 0.469 81.747 o
3 7 4 2.786 2.887 0.813 21.083 o
4 0 4 1.746 1.638 0.615 40.146 o
4 0 6 17.552 9.644 1.624 2.221 o
4 0 8 13.336 12.465 2.104 2.094 o
4 0 10 27.147 28.572 3.164 0.626 o
4 1 4 2.367 3.351 0.391 54.374 o
4 1 5 58.111 54.907 2.989 0.202 o
4 1 6 96.509 116.344 6.965 0.058 o
4 1 7 76.500 69.999 3.845 0.119 o
4 1 8 94.252 94.159 4.605 0.075 o
4 1 9 5.870 4.644 1.375 6.882 o
4 1 10 17.729 17.468 1.677 1.720 o
4 1 11 25.748 27.480 2.079 0.842 o
4 2 4 72.943 79.524 2.185 0.125 o
4 2 5 313.695 311.159 9.773 0.007 o
4 2 6 160.130 180.112 6.471 0.025 o
4 2 7 1.339 2.536 0.534 50.339 o
4 2 8 15.848 14.909 1.248 2.402 o
4 2 9 2.498 2.933 1.047 14.265 o
4 2 10 1.804 2.477 0.621 37.126 o
4 2 11 0.014 -0.137 0.480 78.484 o
4 3 4 6.019 7.437 0.755 11.211 o
4 3 5 6.796 7.107 0.838 9.618 o
4 3 6 2.606 2.599 0.482 45.235 o
4 3 7 2.464 3.342 0.568 35.432 o
4 3 8 14.611 14.868 1.419 2.457 o
4 3 9 0.613 -0.079 0.516 66.952 o
4 3 10 0.796 0.726 0.578 51.926 o
4 4 4 1.217 1.292 0.567 50.355 o
4 4 5 37.902 37.327 2.619 0.430 o
4 4 6 15.991 15.384 1.727 1.977 o
4 4 7 8.383 5.674 2.931 1.814 o
4 4 8 7.118 7.429 1.099 7.243 o
4 4 9 18.001 21.137 6.983 0.313 o
4 5 4 28.960 29.717 1.774 0.745 o
4 5 5 0.085 -0.417 0.601 50.137 o
4 5 6 10.489 10.289 1.513 3.635 o
4 5 7 2.522 2.935 0.972 16.163 o
4 6 4 2.618 2.832 0.866 19.469 o
4 6 5 0.383 0.337 0.607 48.757 o
5 0 5 24.837 22.162 1.538 1.092 o
5 0 7 0.662 -0.197 1.125 14.254 o
5 0 9 11.899 11.075 2.229 2.176 o
5 1 5 46.546 37.886 2.375 0.342 o
5 1 6 78.788 80.956 15.036 0.047 o
5 1 7 37.230 40.801 2.965 0.399 o
5 1 8 9.716 6.672 1.682 3.845 o
5 1 9 0.069 0.857 0.716 35.105 o
5 1 10 36.072 37.432 2.972 0.432 o
5 2 5 9.045 12.034 1.107 4.861 o
5 2 6 109.517 104.260 4.276 0.059 o
5 2 7 32.761 27.381 3.705 0.483 o
5 2 8 0.012 0.315 0.415 104.909 o
5 2 9 7.258 6.114 0.962 8.630 o
5 2 10 31.918 39.467 4.649 0.355 o
5 3 5 0.252 0.267 0.366 133.510 o
5 3 6 14.866 12.826 1.243 2.771 o
5 3 7 10.420 11.475 1.323 3.914 o
5 3 8 0.520 0.311 0.511 68.056 o
5 3 9 0.324 0.096 0.536 62.767 o
5 4 5 0.729 0.702 0.467 78.358 o
5 4 6 0.031 0.161 0.410 107.572 o
5 4 7 0.641 0.189 0.513 67.269 o
5 4 8 0.006 0.223 0.522 66.463 o
5 5 5 2.308 3.597 0.719 25.776 o
5 5 6 21.074 21.489 1.670 1.299 o
6 0 6 5.498 5.019 1.248 7.994 o
6 0 8 69.300 77.607 6.369 0.107 o
6 1 6 15.476 14.307 2.091 1.808 o
6 1 7 4.414 6.157 1.465 6.546 o
6 1 8 19.024 17.099 3.260 0.953 o
6 1 9 0.418 0.175 1.083 15.408 o
6 2 6 11.189 11.507 2.387 2.043 o
6 2 7 1.537 0.690 0.550 52.951 o
6 2 8 0.107 0.326 0.527 64.965 o
6 3 6 1.466 1.444 0.562 49.133 o
6 3 7 0.100 0.144 0.452 88.343 o
6 3 8 1.564 0.802 0.637 40.326 o
6 4 6 0.155 0.322 0.455 86.966 o
7 0 7 31.934 13.102 3.125 0.694 o
7 1 7 17.547 17.310 2.358 1.380 o
;
_olex2_submission_special_instructions 'No special instructions were received'
_oxdiff_exptl_absorpt_empirical_details
;
Empirical correction (ABSPACK) includes:
- Absorption correction using spherical harmonics
- Frame scaling
;
_oxdiff_exptl_absorpt_empirical_full_max 2.957
_oxdiff_exptl_absorpt_empirical_full_min 0.463
loop_
_space_group_symop_id
_space_group_symop_operation_xyz
1 x,y,z
2 -x+1/2,y+1/2,-z+1/2
3 -x,-y,-z
4 x-1/2,-y-1/2,z-1/2
loop_
_atom_site_label
_atom_site_type_symbol
_atom_site_fract_x
_atom_site_fract_y
_atom_site_fract_z
_atom_site_U_iso_or_equiv
_atom_site_adp_type
_atom_site_occupancy
_atom_site_refinement_flags_posn
_atom_site_refinement_flags_adp
N9 N 0.49722(14) 0.08489(18) 0.46131(10) 0.0421(5) Uani 1.000000 . U
H7 H 0.383(2) 0.223(3) 0.320(2) 0.0632(7) Uiso 1.000000 . .
O7 O 0.38028(15) 0.3248(2) 0.27429(11) 0.0709(5) Uani 1.000000 . .
C6 C 0.63381(17) 0.3967(2) 0.42906(12) 0.0397(5) Uani 1.000000 . .
C8 C 0.61879(17) 0.2124(2) 0.49766(12) 0.0408(5) Uani 1.000000 . .
H8 H 0.69931(17) 0.1862(2) 0.56972(12) 0.0489(6) Uiso 1.000000 R .
C1 C 0.51366(19) 0.4478(2) 0.32128(14) 0.0457(5) Uani 1.000000 . .
C5 C 0.76852(19) 0.5316(2) 0.47060(15) 0.0499(5) Uani 1.000000 . .
H5 H 0.84871(19) 0.5006(2) 0.54211(15) 0.0599(6) Uiso 1.000000 R .
C2 C 0.5311(2) 0.6290(3) 0.26057(15) 0.0562(6) Uani 1.000000 . .
H2 H 0.4508(2) 0.6635(3) 0.18975(15) 0.0674(7) Uiso 1.000000 R .
C3 C 0.6653(2) 0.7580(3) 0.30363(17) 0.0579(6) Uani 1.000000 . .
H3 H 0.6754(2) 0.8794(3) 0.26186(17) 0.0695(7) Uiso 1.000000 R .
C4 C 0.7859(2) 0.7094(3) 0.40856(17) 0.0588(6) Uani 1.000000 . .
H4 H 0.8780(2) 0.7962(3) 0.43692(17) 0.0706(7) Uiso 1.000000 R .
loop_
_atom_site_aniso_label
_atom_site_aniso_U_11
_atom_site_aniso_U_22
_atom_site_aniso_U_33
_atom_site_aniso_U_12
_atom_site_aniso_U_13
_atom_site_aniso_U_23
N9 0.0478(8) 0.0430(8) 0.0297(7) 0.0016(5) 0.0033(6) 0.0040(5)
O7 0.0629(9) 0.0834(10) 0.0455(8) -0.0188(6) -0.0141(6) 0.0241(6)
C6 0.0419(9) 0.0430(9) 0.0316(9) 0.0038(6) 0.0072(6) -0.0004(6)
C8 0.0425(8) 0.0452(9) 0.0278(8) 0.0041(6) 0.0008(6) 0.0001(6)
C1 0.0446(9) 0.0535(10) 0.0348(9) 0.0022(7) 0.0059(7) 0.0046(6)
C5 0.0487(10) 0.0535(11) 0.0421(10) -0.0019(7) 0.0060(7) -0.0034(7)
C2 0.0603(11) 0.0616(11) 0.0441(10) 0.0080(8) 0.0123(8) 0.0162(8)
C3 0.0727(13) 0.0500(10) 0.0583(12) 0.0054(8) 0.0307(10) 0.0102(8)
C4 0.0617(11) 0.0522(11) 0.0654(13) -0.0107(8) 0.0237(10) -0.0051(8)
loop_
_atom_type_symbol
_atom_type_scat_dispersion_real
_atom_type_scat_dispersion_imag
_atom_type_scat_Cromer_Mann_a1
_atom_type_scat_Cromer_Mann_a2
_atom_type_scat_Cromer_Mann_a3
_atom_type_scat_Cromer_Mann_a4
_atom_type_scat_Cromer_Mann_b1
_atom_type_scat_Cromer_Mann_b2
_atom_type_scat_Cromer_Mann_b3
_atom_type_scat_Cromer_Mann_b4
_atom_type_scat_Cromer_Mann_c
_atom_type_scat_source
_atom_type_scat_dispersion_source
H 0.00000 0.00000 0.49300 0.32291 0.14019 0.04081 10.51090 26.12570 3.14236
57.79970 0.0030380000826
'International Tables Volume C Table 6.1.1.4 (pp. 500-502)'
'Henke, Gullikson and Davis, At. Data and Nucl. Data Tables, 1993, 54, 2'
C 0.00347 0.00161 2.31000 1.02000 1.58860 0.86500 20.84390 10.20750 0.56870
51.65120 0.215599998832
'International Tables Volume C Table 6.1.1.4 (pp. 500-502)'
'Henke, Gullikson and Davis, At. Data and Nucl. Data Tables, 1993, 54, 2'
O 0.01158 0.00611 3.04850 2.28680 1.54630 0.86700 13.27710 5.70110 0.32390
32.90890 0.250800013542
'International Tables Volume C Table 6.1.1.4 (pp. 500-502)'
'Henke, Gullikson and Davis, At. Data and Nucl. Data Tables, 1993, 54, 2'
N 0.00653 0.00323 12.21260 3.13220 2.01250 1.16630 0.00570 9.89330 28.99750
0.58260 -11.5290002823
'International Tables Volume C Table 6.1.1.4 (pp. 500-502)'
'Henke, Gullikson and Davis, At. Data and Nucl. Data Tables, 1993, 54, 2'
loop_
_geom_angle_atom_site_label_1
_geom_angle_atom_site_label_2
_geom_angle_atom_site_label_3
_geom_angle
C1 O7 H7 108.9(15)
C1 C6 C8 121.88(14)
C5 C6 C8 119.95(14)
C5 C6 C1 118.15(14)
C6 C8 N9 121.34(14)
H8 C8 N9 119.33(8)
H8 C8 C6 119.33(8)
C6 C1 O7 121.94(14)
C2 C1 O7 118.28(15)
C2 C1 C6 119.77(15)
H5 C5 C6 119.21(9)
C4 C5 C6 121.58(16)
C4 C5 H5 119.21(10)
H2 C2 C1 119.68(10)
C3 C2 C1 120.64(16)
C3 C2 H2 119.68(9)
H3 C3 C2 119.71(9)
C4 C3 C2 120.57(15)
C4 C3 H3 119.71(10)
C3 C4 C5 119.28(15)
H4 C4 C5 120.36(10)
H4 C4 C3 120.36(10)
loop_
_geom_bond_atom_site_label_1
_geom_bond_atom_site_label_2
_geom_bond_distance
_geom_bond_site_symmetry_2
N9 N9 1.400(2) 3_656
N9 C8 1.2769(18) .
H7 O7 0.83(2) .
O7 C1 1.3466(18) .
C6 C8 1.446(2) .
C6 C1 1.405(2) .
C6 C5 1.391(2) .
C8 H8 0.9300 .
C1 C2 1.382(2) .
C5 H5 0.9300 .
C5 C4 1.373(2) .
C2 H2 0.9300 .
C2 C3 1.368(2) .
C3 H3 0.9300 .
C3 C4 1.380(3) .
C4 H4 0.9300 .
