#------------------------------------------------------------------------------
#$Date: 2019-11-17 15:32:33 +0200 (Sun, 17 Nov 2019) $
#$Revision: 230902 $
#$URL: file:///home/coder/svn-repositories/cod/cif/7/23/14/7231402.cif $
#------------------------------------------------------------------------------
#
# This file is available in the Crystallography Open Database (COD),
# http://www.crystallography.net/
#
# All data on this site have been placed in the public domain by the
# contributors.
#
data_7231402
loop_
_publ_author_name
'Collings, Ines E.'
'Manna, Rudra Sekhar'
'Tsirlin, Alexander A.'
'Bykov, Maxim'
'Bykova, Elena'
'Hanfland, Michael'
'Gegenwart, Philipp'
'van Smaalen, Sander'
'Dubrovinsky, Leonid'
'Dubrovinskaia, Natalia'
_publ_section_title
;
 Pressure dependence of spin canting in ammonium metal formate
 antiferromagnets.
;
_journal_issue                   37
_journal_name_full               'Physical chemistry chemical physics : PCCP'
_journal_page_first              24465
_journal_page_last               24476
_journal_paper_doi               10.1039/c8cp03761b
_journal_volume                  20
_journal_year                    2018
_chemical_formula_moiety         'C3 H3 Mn O6, N H4'
_chemical_formula_sum            'C3 H7 Mn N O6'
_chemical_formula_weight         208.04
_space_group_crystal_system      hexagonal
_space_group_IT_number           182
_space_group_name_Hall           'P 6c 2c'
_space_group_name_H-M_alt        'P 63 2 2'
_symmetry_space_group_name_Hall  'P 6c 2c'
_symmetry_space_group_name_H-M   'P 63 2 2'
_atom_sites_solution_hydrogens   mixed
_audit_creation_method           SHELXL-2016/6
_audit_update_record
;
2018-08-09 deposited with the CCDC.
2018-08-22 downloaded from the CCDC.
;
_cell_angle_alpha                90
_cell_angle_beta                 90
_cell_angle_gamma                120
_cell_formula_units_Z            2
_cell_length_a                   7.3678(7)
_cell_length_b                   7.3678(7)
_cell_length_c                   8.4912(9)
_cell_measurement_reflns_used    137
_cell_measurement_temperature    293(2)
_cell_measurement_theta_max      17.4670
_cell_measurement_theta_min      2.3050
_cell_volume                     399.19(7)
_computing_cell_refinement       'CrysAlisPro (Agilent Technologies, 2013)'
_computing_data_reduction        'CrysAlisPro (Agilent Technologies, 2013)'
_computing_molecular_graphics    'SHELXLE-2011 (Huebschle, 2011)'
_computing_structure_refinement  'SHELXL-2016/6 (Sheldrick, 2016)'
_computing_structure_solution    'SHELXT-2015 (Sheldrick, 2015)'
_diffrn_ambient_pressure         '0 GPa'
_diffrn_ambient_temperature      293(2)
_diffrn_detector_area_resol_mean 7
_diffrn_measured_fraction_theta_full 0.756
_diffrn_measured_fraction_theta_max 0.493
_diffrn_measurement_device_type  'ID15B beamline, ESRF'
_diffrn_measurement_method       'omega scans'
_diffrn_radiation_type           synchrotron
_diffrn_radiation_wavelength     0.41111
_diffrn_reflns_av_R_equivalents  0.0398
_diffrn_reflns_av_unetI/netI     0.0461
_diffrn_reflns_Laue_measured_fraction_full 0.756
_diffrn_reflns_Laue_measured_fraction_max 0.493
_diffrn_reflns_limit_h_max       10
_diffrn_reflns_limit_h_min       -9
_diffrn_reflns_limit_k_max       9
_diffrn_reflns_limit_k_min       -8
_diffrn_reflns_limit_l_max       9
_diffrn_reflns_limit_l_min       -9
_diffrn_reflns_number            779
_diffrn_reflns_point_group_measured_fraction_full 0.768
_diffrn_reflns_point_group_measured_fraction_max 0.469
_diffrn_reflns_theta_full        14.273
_diffrn_reflns_theta_max         19.892
_diffrn_reflns_theta_min         2.308
_diffrn_source                   synchrotron
_exptl_absorpt_coefficient_mu    0.362
_exptl_absorpt_correction_T_max  1.00000
_exptl_absorpt_correction_T_min  0.94778
_exptl_absorpt_correction_type   multi-scan
_exptl_absorpt_process_details
;
CrysAlisPro 1.171.38.43 (Rigaku Oxford Diffraction, 2015)
Empirical absorption correction using spherical harmonics,
 implemented in SCALE3 ABSPACK scaling algorithm.
;
_exptl_crystal_colour            colourless
_exptl_crystal_density_diffrn    1.731
_exptl_crystal_description       block
_exptl_crystal_F_000             210
_exptl_crystal_size_max          0.130
_exptl_crystal_size_mid          0.110
_exptl_crystal_size_min          0.050
_refine_diff_density_max         0.261
_refine_diff_density_min         -0.538
_refine_diff_density_rms         0.085
_refine_ls_abs_structure_details
;
 Flack x determined using 73 quotients [(I+)-(I-)]/[(I+)+(I-)]
 (Parsons, Flack and Wagner, Acta Cryst. B69 (2013) 249-259).
;
_refine_ls_abs_structure_Flack   0.00(16)
_refine_ls_extinction_method     none
_refine_ls_goodness_of_fit_ref   1.193
_refine_ls_hydrogen_treatment    mixed
_refine_ls_matrix_type           full
_refine_ls_number_parameters     22
_refine_ls_number_reflns         304
_refine_ls_number_restraints     4
_refine_ls_restrained_S_all      1.187
_refine_ls_R_factor_all          0.0489
_refine_ls_R_factor_gt           0.0413
_refine_ls_shift/su_max          0.000
_refine_ls_shift/su_mean         0.000
_refine_ls_structure_factor_coef Fsqd
_refine_ls_weighting_details
'w=1/[\s^2^(Fo^2^)+(0.0391P)^2^+0.2577P] where P=(Fo^2^+2Fc^2^)/3'
_refine_ls_weighting_scheme      calc
_refine_ls_wR_factor_gt          0.0987
_refine_ls_wR_factor_ref         0.1120
_reflns_Friedel_coverage         0.434
_reflns_Friedel_fraction_full    0.800
_reflns_Friedel_fraction_max     0.422
_reflns_number_gt                262
_reflns_number_total             304
_reflns_threshold_expression     'I > 2\s(I)'
_cod_data_source_file            c8cp03761b2.cif
_cod_data_source_block           AMnF_c1_p0
_cod_depositor_comments
'Adding full bibliography for 7231402--7231432.cif.'
_cod_original_cell_volume        399.19(8)
_cod_database_code               7231402
_shelx_shelxl_version_number     2016/6
_shelx_space_group_comment
;
The symmetry employed for this shelxl refinement is uniquely defined
by the following loop, which should always be used as a source of
symmetry information in preference to the above space-group names.
They are only intended as comments.
;
_shelx_res_file
;
TITL AMnF_c1_s_ModelR in P6(3)22
    AMnF_c1_s_ModelR.res
    created by SHELXL-2016/6 at 17:35:06 on 30-Mar-2017
REM P6(3)22 (#182 in standard setting)
CELL 0.41090   7.367828   7.367828   8.491205  90.0000  90.0000 120.0000
ZERR    2.00   0.000664   0.000664   0.000942   0.0000   0.0000   0.0000
LATT -1
SYMM -y, x-y, z
SYMM -x+y,-x, z
SYMM -x,-y, z+1/2
SYMM  y,-x+y, z+1/2
SYMM  x-y, x, z+1/2
SYMM  y, x,-z
SYMM  x-y,-y,-z
SYMM -x,-x+y,-z
SYMM -y,-x,-z+1/2
SYMM -x+y, y,-z+1/2
SYMM  x, x-y,-z+1/2
SFAC C H N O Mn
DISP $C -0.00006  0.00048  5.13891!source kissel
DISP $H -0.00003  0.00000  0.64123!source kissel
DISP $N  0.00062  0.00099  7.18643!source kissel
DISP $O  0.00179  0.00182 10.14789!source kissel
DISP $Mn  0.17888  0.26125 635.04629!source kissel
UNIT 6.00 14.00 2.00 12.00 2.00
OMIT -1 2 0
LIST 4 ! automatically inserted. Change 6 to 4 for CHECKCIF!!
RIGU C1 O1
ACTA
L.S. 10
BOND
FMAP 2
PLAN 20
WGHT    0.039100    0.257700
FVAR       6.29233
MOLE   1
MN1   5    0.333333    0.666667    0.250000    10.16667    0.02447    0.02447 =
         0.01205    0.00000    0.00000    0.01224
N1    3    1.000000    1.000000    0.250000    10.16667    0.03528    0.03528 =
         0.15774    0.00000    0.00000    0.01764
DFIX 0.9 0.05 N1 H2
H2    2    1.070490    1.109813    0.175042    10.66667   -1.20000
O1    4    0.591216    0.894657    0.103219    11.00000    0.03385    0.03849 =
         0.02912    0.01362    0.00397    0.01680
C1    1    0.570997    1.000000    0.000000    10.50000    0.03728    0.06180 =
         0.04583    0.03207    0.01604    0.03090
AFIX  43
H1    2    0.444770    0.999996    0.000000    10.50000   -1.20000
MOLE   2
AFIX   0
HKLF 4




REM  AMnF_c1_s_ModelR in P6(3)22
REM R1 =  0.0413 for     262 Fo > 4sig(Fo)  and  0.0489 for all     304 data
REM     22 parameters refined using      4 restraints

END

WGHT      0.0391      0.2577

REM Highest difference peak  0.261,  deepest hole -0.538,  1-sigma level  0.085
Q1    1   0.4429  0.7006  0.0146  11.00000  0.05    0.26
Q2    1   0.3333  0.6667 -0.0266  10.33333  0.05    0.26
Q3    1   0.5582  0.7775  0.0346  11.00000  0.05    0.24
Q4    1   0.6363  0.8181  0.2500  10.50000  0.05    0.23
Q5    1   0.3385  1.0771  0.1446  11.00000  0.05    0.23
Q6    1   0.4482  1.2128  0.1008  11.00000  0.05    0.23
Q7    1   1.0598  1.1196  0.2500  10.50000  0.05    0.22
Q8    1   0.6667  1.3333  0.1508  10.33333  0.05    0.21
Q9    1   1.1273  1.2547  0.2500  10.50000  0.05    0.20
Q10   1   1.0000  1.0756  0.0000  10.50000  0.05    0.20
Q11   1   1.0864  1.0864  0.0000  10.50000  0.05    0.20
Q12   1   0.3333  0.6667  0.0635  10.33333  0.05    0.19
Q13   1   1.0758  1.0350  0.0832  11.00000  0.05    0.19
Q14   1   1.3397  1.1599  0.1398  11.00000  0.05    0.19
Q15   1   0.4621  1.0985  0.0482  11.00000  0.05    0.19
Q16   1   0.4683  1.1257  0.1844  11.00000  0.05    0.18
Q17   1   0.5261  0.9758  0.2497  11.00000  0.05    0.18
Q18   1   0.5529  1.1058  0.2500  10.50000  0.05    0.18
Q19   1   0.5201  1.2422  0.1700  11.00000  0.05    0.18
Q20   1   0.6010  0.9759  0.2301  11.00000  0.05    0.18
;
_shelx_res_checksum              64967
loop_
_space_group_symop_operation_xyz
'x, y, z'
'-y, x-y, z'
'-x+y, -x, z'
'-x, -y, z+1/2'
'y, -x+y, z+1/2'
'x-y, x, z+1/2'
'y, x, -z'
'x-y, -y, -z'
'-x, -x+y, -z'
'-y, -x, -z+1/2'
'-x+y, y, -z+1/2'
'x, x-y, -z+1/2'
loop_
_atom_site_label
_atom_site_type_symbol
_atom_site_fract_x
_atom_site_fract_y
_atom_site_fract_z
_atom_site_U_iso_or_equiv
_atom_site_adp_type
_atom_site_occupancy
_atom_site_site_symmetry_order
_atom_site_calc_flag
_atom_site_refinement_flags_posn
_atom_site_refinement_flags_adp
_atom_site_refinement_flags_occupancy
Mn1 Mn 0.333333 0.666667 0.250000 0.0203(4) Uani 1 6 d S T P
N1 N 1.000000 1.000000 0.250000 0.076(5) Uani 1 6 d DS T P
H2 H 1.07(3) 1.110(16) 0.175(9) 0.091 Uiso 0.6667 1 d D U P
O1 O 0.5912(5) 0.8947(6) 0.1032(4) 0.0344(9) Uani 1 1 d . . .
C1 C 0.5710(11) 1.000000 0.000000 0.046(2) Uani 1 2 d S T P
H1 H 0.444770 0.999996 0.000000 0.055 Uiso 1 2 calc R U P
loop_
_atom_site_aniso_label
_atom_site_aniso_U_11
_atom_site_aniso_U_22
_atom_site_aniso_U_33
_atom_site_aniso_U_23
_atom_site_aniso_U_13
_atom_site_aniso_U_12
Mn1 0.0245(6) 0.0245(6) 0.0120(9) 0.000 0.000 0.0122(3)
N1 0.035(5) 0.035(5) 0.158(19) 0.000 0.000 0.018(3)
O1 0.034(2) 0.038(2) 0.029(2) 0.0136(13) 0.0040(13) 0.0168(17)
C1 0.037(3) 0.062(5) 0.046(5) 0.032(4) 0.0160(18) 0.031(3)
loop_
_atom_type_symbol
_atom_type_description
_atom_type_scat_dispersion_real
_atom_type_scat_dispersion_imag
_atom_type_scat_source
C C -0.0001 0.0005 'International Tables Vol C Tables 4.2.6.8 and 6.1.1.4'
H H 0.0000 0.0000 'International Tables Vol C Tables 4.2.6.8 and 6.1.1.4'
N N 0.0006 0.0010 'International Tables Vol C Tables 4.2.6.8 and 6.1.1.4'
O O 0.0018 0.0018 'International Tables Vol C Tables 4.2.6.8 and 6.1.1.4'
Mn Mn 0.1789 0.2612 'International Tables Vol C Tables 4.2.6.8 and 6.1.1.4'
loop_
_geom_angle_atom_site_label_1
_geom_angle_atom_site_label_2
_geom_angle_atom_site_label_3
_geom_angle
_geom_angle_site_symmetry_1
_geom_angle_site_symmetry_3
O1 Mn1 O1 82.55(16) 11 2_665
O1 Mn1 O1 90.80(12) 11 10_665
O1 Mn1 O1 96.7(2) 2_665 10_665
O1 Mn1 O1 96.7(2) 11 .
O1 Mn1 O1 90.80(12) 2_665 .
O1 Mn1 O1 170.00(18) 10_665 .
O1 Mn1 O1 170.01(19) 11 3_565
O1 Mn1 O1 90.80(12) 2_665 3_565
O1 Mn1 O1 82.55(16) 10_665 3_565
O1 Mn1 O1 90.80(12) . 3_565
O1 Mn1 O1 90.80(12) 11 12_565
O1 Mn1 O1 170.01(18) 2_665 12_565
O1 Mn1 O1 90.80(12) 10_665 12_565
O1 Mn1 O1 82.55(16) . 12_565
O1 Mn1 O1 96.7(2) 3_565 12_565
C1 O1 Mn1 123.9(4) . .
O1 C1 O1 128.1(8) 8_675 .
loop_
_geom_bond_atom_site_label_1
_geom_bond_atom_site_label_2
_geom_bond_distance
_geom_bond_site_symmetry_2
Mn1 O1 2.189(3) 11
Mn1 O1 2.189(3) 2_665
Mn1 O1 2.189(3) 10_665
Mn1 O1 2.189(3) .
Mn1 O1 2.189(3) 3_565
Mn1 O1 2.189(3) 12_565
O1 C1 1.228(5) .
