#------------------------------------------------------------------------------
#$Date: 2019-11-17 09:15:29 +0200 (Sun, 17 Nov 2019) $
#$Revision: 229048 $
#$URL: file:///home/coder/svn-repositories/cod/cif/7/23/17/7231738.cif $
#------------------------------------------------------------------------------
#
# This file is available in the Crystallography Open Database (COD),
# http://www.crystallography.net/
#
# All data on this site have been placed in the public domain by the
# contributors.
#
data_7231738
loop_
_publ_author_name
'Braun, Doris E.'
'Lampl, Martin'
'Wurst, Klaus'
'Kahlenberg, Volker'
'Griesser, Ulrich J.'
'Schottenberger, Herwig'
_publ_section_title
;
 Computational and analytical approaches for investigating hydrates: the
 neat and hydrated solid-state forms of
 3-(3-methylimidazolium-1-yl)propanoate
;
_journal_issue                   48
_journal_name_full               CrystEngComm
_journal_page_first              7826
_journal_paper_doi               10.1039/C8CE01565A
_journal_volume                  20
_journal_year                    2018
_chemical_formula_moiety         'C7 H10 N2 O2, 2(H2 O)'
_chemical_formula_sum            'C7 H14 N2 O4'
_chemical_formula_weight         190.2
_chemical_melting_point          334
_chemical_name_systematic
;
 3-(3-methylimidazolium-1-yl)propanoate dihydrate
;
_chemical_properties_physical    Hygroscopic
_space_group_IT_number           2
_space_group_name_Hall           '-P 1'
_space_group_name_H-M_alt        'P -1'
_symmetry_cell_setting           triclinic
_symmetry_Int_Tables_number      2
_symmetry_space_group_name_Hall  '-P 1'
_symmetry_space_group_name_H-M   'P -1'
_atom_sites_solution_hydrogens   mixed
_audit_conform_dict_location     ftp://ftp.iucr.org/pub/cif_core.dic
_audit_conform_dict_name         cif_core.dic
_audit_conform_dict_version      2.4.3
_audit_creation_date             2017-12-23T17:14:16-00:00
_audit_creation_method           'WinGX routine CIF_UPDATE'
_audit_update_record
;
2018-09-12 deposited with the CCDC.
2018-10-30 downloaded from the CCDC.
;
_cell_angle_alpha                113.2550(10)
_cell_angle_beta                 105.1800(10)
_cell_angle_gamma                95.990(2)
_cell_formula_units_Z            2
_cell_length_a                   7.3825(4)
_cell_length_b                   8.4170(4)
_cell_length_c                   8.8371(4)
_cell_measurement_reflns_used    13851
_cell_measurement_temperature    183(2)
_cell_measurement_theta_max      25.7
_cell_measurement_theta_min      2.6
_cell_measurement_wavelength     0.71073
_cell_volume                     473.36(4)
_computing_cell_refinement       'Bruker SAINT-V 8.34A'
_computing_data_collection       'Bruker Apex II'
_computing_data_reduction        'Bruker SAINT-V 8.34A'
_computing_molecular_graphics    'Ortep for Windows (Farrugia, 2012)'
_computing_publication_material  'WinGX publication routines (Farrugia, 2012)'
_computing_structure_refinement  'SHELXL-2013 (Sheldrick, 2013)'
_diffrn_ambient_temperature      183(2)
_diffrn_detector_area_resol_mean 10.4
_diffrn_measured_fraction_theta_full 1
_diffrn_measured_fraction_theta_max 1
_diffrn_measurement_device_type  'Bruker D8 QUEST PHOTON 100'
_diffrn_measurement_method       '\f and \w scans'
_diffrn_radiation_monochromator  'multi layered optics'
_diffrn_radiation_probe          x-ray
_diffrn_radiation_type           MoK\a
_diffrn_radiation_wavelength     0.71073
_diffrn_reflns_av_R_equivalents  0.0307
_diffrn_reflns_av_unetI/netI     0.0103
_diffrn_reflns_Laue_measured_fraction_full 1
_diffrn_reflns_Laue_measured_fraction_max 1
_diffrn_reflns_limit_h_max       9
_diffrn_reflns_limit_h_min       -9
_diffrn_reflns_limit_k_max       10
_diffrn_reflns_limit_k_min       -10
_diffrn_reflns_limit_l_max       10
_diffrn_reflns_limit_l_min       -10
_diffrn_reflns_number            13851
_diffrn_reflns_point_group_measured_fraction_full 1
_diffrn_reflns_point_group_measured_fraction_max 1
_diffrn_reflns_theta_full        25.242
_diffrn_reflns_theta_max         25.737
_diffrn_reflns_theta_min         2.659
_diffrn_source                   'Incoatec Microfocus'
_exptl_absorpt_coefficient_mu    0.109
_exptl_absorpt_correction_type   none
_exptl_crystal_colour            colourless
_exptl_crystal_density_diffrn    1.334
_exptl_crystal_density_method    'not measured'
_exptl_crystal_description       prism
_exptl_crystal_F_000             204
_exptl_crystal_recrystallization_method
'Re-crystallisation from solvent: methanol/diethyl ether'
_exptl_crystal_size_max          0.18
_exptl_crystal_size_mid          0.16
_exptl_crystal_size_min          0.12
_refine_diff_density_max         0.255
_refine_diff_density_min         -0.2
_refine_diff_density_rms         0.04
_refine_ls_extinction_coef       0.159(12)
_refine_ls_extinction_expression Fc^*^=kFc[1+0.001xFc^2^\l^3^/sin(2\q)]^-1/4^
_refine_ls_extinction_method     SHELXL
_refine_ls_goodness_of_fit_ref   1.073
_refine_ls_hydrogen_treatment    mixed
_refine_ls_matrix_type           full
_refine_ls_number_constraints    0
_refine_ls_number_parameters     136
_refine_ls_number_reflns         1801
_refine_ls_number_restraints     4
_refine_ls_restrained_S_all      1.074
_refine_ls_R_factor_all          0.0373
_refine_ls_R_factor_gt           0.0342
_refine_ls_shift/su_max          0
_refine_ls_shift/su_mean         0
_refine_ls_structure_factor_coef Fsqd
_refine_ls_weighting_details
'w=1/[\s^2^(Fo^2^)+(0.0439P)^2^+0.1858P] where P=(Fo^2^+2Fc^2^)/3'
_refine_ls_weighting_scheme      calc
_refine_ls_wR_factor_gt          0.0911
_refine_ls_wR_factor_ref         0.0937
_reflns_number_gt                1662
_reflns_number_total             1801
_reflns_threshold_expression     'I > 2\s(I)'
_iucr_refine_instructions_details
;
CELL  0.71073   7.3825   8.4170   8.8371  113.255  105.180   95.990
ZERR    2.000   0.0004   0.0004   0.0004    0.001    0.001    0.002
LATT  1
SFAC C H N O
UNIT 14 28 4 8
TEMP -90.150
SIZE 0.12 0.16 0.18
L.S. 25
ACTA
BOND $H
CONF
LIST 4
ACTA
FMAP 2
PLAN 10
OMIT -1 53
DFIX 0.86 O3 H31 O3 H32 O4 H41 O4 H42
WGHT    0.043900    0.185800
EXTI    0.159247
FVAR       1.43158
O1    4    0.236044    0.450464    0.063919    11.00000    0.02262    0.03285 =
         0.03573    0.01526    0.00004    0.00213
O2    4    0.347372    0.324969    0.235935    11.00000    0.03288    0.03478 =
         0.03606    0.02104    0.00674   -0.00481
O3    4    0.134989    0.726193    0.001124    11.00000    0.03173    0.03465 =
         0.04292    0.02210    0.00821    0.00082
H31   2    0.185341    0.646758    0.025524    11.00000    0.05951
H32   2    0.009945    0.685674   -0.021581    11.00000    0.05919
O4    4    0.367233    0.028689    0.305292    11.00000    0.04280    0.03943 =
         0.03777    0.02111    0.00889    0.00615
H41   2    0.283063   -0.061898    0.211176    11.00000    0.06321
H42   2    0.375663    0.119393    0.281373    11.00000    0.05589
N1    3    1.128613    0.877027    0.658121    11.00000    0.02159    0.02285 =
         0.02082    0.00980    0.00542    0.00363
N2    3    0.897099    0.662523    0.450353    11.00000    0.01903    0.02552 =
         0.02305    0.01184    0.00462    0.00299
C1    1    0.968371    0.761689    0.621779    11.00000    0.02127    0.02650 =
         0.02328    0.01348    0.00796    0.00637
AFIX  43
H1    2    0.913744    0.751749    0.704685    11.00000   -1.20000
AFIX   0
C2    1    1.161057    0.851543    0.504769    11.00000    0.02400    0.03200 =
         0.02638    0.01382    0.01065    0.00298
AFIX  43
H2    2    1.265575    0.916030    0.492729    11.00000   -1.20000
AFIX   0
C3    1    1.016093    0.717471    0.374720    11.00000    0.02665    0.03422 =
         0.02200    0.01159    0.00929    0.00322
AFIX  43
H3    2    0.999180    0.669821    0.253610    11.00000   -1.20000
AFIX   0
C4    1    1.246907    1.010906    0.834152    11.00000    0.03473    0.02947 =
         0.02309    0.00640    0.00337   -0.00301
AFIX 137
H4A   2    1.200921    1.120712    0.860813    11.00000   -1.50000
H4B   2    1.381920    1.035301    0.839969    11.00000   -1.50000
H4C   2    1.236918    0.966156    0.919289    11.00000   -1.50000
AFIX   0
C5    1    0.717496    0.522128    0.358990    11.00000    0.02130    0.02397 =
         0.03044    0.01301    0.00307   -0.00053
AFIX  23
H5A   2    0.680367    0.488780    0.444213    11.00000   -1.20000
H5B   2    0.740141    0.415466    0.271809    11.00000   -1.20000
AFIX   0
C6    1    0.554144    0.581291    0.268038    11.00000    0.02214    0.02367 =
         0.02757    0.01228    0.00423    0.00100
AFIX  23
H6A   2    0.587870    0.607331    0.177589    11.00000   -1.20000
H6B   2    0.536968    0.692293    0.353907    11.00000   -1.20000
AFIX   0
C7    1    0.365273    0.440345    0.183069    11.00000    0.02137    0.02247 =
         0.02135    0.00644    0.00865    0.00345
HKLF 4
REM
REM R1 =  0.0342 for    1662 Fo > 4sig(Fo)  and  0.0373 for all    1801 data
REM    136 parameters refined using      4 restraints
END
;
_cod_data_source_file            c8ce01565a2.cif
_cod_data_source_block           shelx
_cod_depositor_comments
'Adding full bibliography for 7231738--7231741.cif.'
_cod_database_code               7231738
_shelx_estimated_absorpt_t_min   0.981
_shelx_estimated_absorpt_t_max   0.987
loop_
_symmetry_equiv_pos_as_xyz
'x, y, z'
'-x, -y, -z'
loop_
_atom_site_label
_atom_site_type_symbol
_atom_site_fract_x
_atom_site_fract_y
_atom_site_fract_z
_atom_site_U_iso_or_equiv
_atom_site_adp_type
_atom_site_occupancy
_atom_site_calc_flag
O1 O 0.23604(13) 0.45046(13) 0.06392(13) 0.0328(3) Uani 1 d
O2 O 0.34737(14) 0.32497(13) 0.23593(13) 0.0348(3) Uani 1 d
O3 O 0.13499(16) 0.72619(14) 0.00112(14) 0.0362(3) Uani 1 d
H31 H 0.185(3) 0.647(2) 0.026(3) 0.060(6) Uiso 1 d
H32 H 0.010(2) 0.686(3) -0.022(3) 0.059(6) Uiso 1 d
O4 O 0.36723(17) 0.02869(16) 0.30529(15) 0.0398(3) Uani 1 d
H41 H 0.283(3) -0.062(2) 0.211(2) 0.063(6) Uiso 1 d
H42 H 0.376(3) 0.119(2) 0.281(3) 0.056(6) Uiso 1 d
N1 N 1.12861(15) 0.87703(14) 0.65812(13) 0.0222(3) Uani 1 d
N2 N 0.89710(15) 0.66252(14) 0.45035(14) 0.0228(3) Uani 1 d
C1 C 0.96837(18) 0.76169(16) 0.62178(16) 0.0226(3) Uani 1 d
H1 H 0.9137 0.7517 0.7047 0.027 Uiso 1 calc
C2 C 1.16106(19) 0.85154(18) 0.50477(17) 0.0269(3) Uani 1 d
H2 H 1.2656 0.916 0.4927 0.032 Uiso 1 calc
C3 C 1.01609(19) 0.71747(18) 0.37472(17) 0.0279(3) Uani 1 d
H3 H 0.9992 0.6698 0.2536 0.034 Uiso 1 calc
C4 C 1.2469(2) 1.01091(19) 0.83415(17) 0.0331(3) Uani 1 d
H4A H 1.2009 1.1207 0.8608 0.05 Uiso 1 calc
H4B H 1.3819 1.0353 0.84 0.05 Uiso 1 calc
H4C H 1.2369 0.9662 0.9193 0.05 Uiso 1 calc
C5 C 0.71750(18) 0.52213(17) 0.35899(17) 0.0265(3) Uani 1 d
H5A H 0.6804 0.4888 0.4442 0.032 Uiso 1 calc
H5B H 0.7401 0.4155 0.2718 0.032 Uiso 1 calc
C6 C 0.55414(18) 0.58129(17) 0.26804(17) 0.0253(3) Uani 1 d
H6A H 0.5879 0.6073 0.1776 0.03 Uiso 1 calc
H6B H 0.537 0.6923 0.3539 0.03 Uiso 1 calc
C7 C 0.36527(18) 0.44035(16) 0.18307(16) 0.0226(3) Uani 1 d
loop_
_atom_site_aniso_label
_atom_site_aniso_U_11
_atom_site_aniso_U_22
_atom_site_aniso_U_33
_atom_site_aniso_U_23
_atom_site_aniso_U_13
_atom_site_aniso_U_12
O1 0.0226(5) 0.0329(5) 0.0357(6) 0.0153(4) 0.0000(4) 0.0021(4)
O2 0.0329(6) 0.0348(5) 0.0361(6) 0.0210(5) 0.0067(4) -0.0048(4)
O3 0.0317(6) 0.0347(6) 0.0429(6) 0.0221(5) 0.0082(5) 0.0008(5)
O4 0.0428(7) 0.0394(6) 0.0378(6) 0.0211(5) 0.0089(5) 0.0061(5)
N1 0.0216(5) 0.0228(5) 0.0208(5) 0.0098(4) 0.0054(4) 0.0036(4)
N2 0.0190(5) 0.0255(5) 0.0230(5) 0.0118(4) 0.0046(4) 0.0030(4)
C1 0.0213(6) 0.0265(6) 0.0233(6) 0.0135(5) 0.0080(5) 0.0064(5)
C2 0.0240(7) 0.0320(7) 0.0264(7) 0.0138(6) 0.0107(5) 0.0030(5)
C3 0.0267(7) 0.0342(7) 0.0220(6) 0.0116(5) 0.0093(5) 0.0032(6)
C4 0.0347(8) 0.0295(7) 0.0231(7) 0.0064(6) 0.0034(6) -0.0030(6)
C5 0.0213(6) 0.0240(6) 0.0304(7) 0.0130(5) 0.0031(5) -0.0005(5)
C6 0.0221(7) 0.0237(6) 0.0276(7) 0.0123(5) 0.0042(5) 0.0010(5)
C7 0.0214(6) 0.0225(6) 0.0213(6) 0.0064(5) 0.0086(5) 0.0034(5)
loop_
_atom_type_symbol
_atom_type_description
_atom_type_scat_dispersion_real
_atom_type_scat_dispersion_imag
_atom_type_scat_source
C C 0.0033 0.0016 'International Tables Vol C Tables 4.2.6.8 and 6.1.1.4'
H H 0 0 'International Tables Vol C Tables 4.2.6.8 and 6.1.1.4'
N N 0.0061 0.0033 'International Tables Vol C Tables 4.2.6.8 and 6.1.1.4'
O O 0.0106 0.006 'International Tables Vol C Tables 4.2.6.8 and 6.1.1.4'
loop_
_geom_angle_atom_site_label_1
_geom_angle_atom_site_label_2
_geom_angle_atom_site_label_3
_geom_angle
H31 O3 H32 102.1(19)
H41 O4 H42 106.9(19)
C1 N1 C2 108.81(10)
C1 N1 C4 124.59(11)
C2 N1 C4 126.59(11)
C1 N2 C3 108.46(11)
C1 N2 C5 124.88(11)
C3 N2 C5 126.64(11)
N1 C1 N2 108.65(11)
N1 C1 H1 125.7
N2 C1 H1 125.7
C3 C2 N1 106.88(11)
C3 C2 H2 126.6
N1 C2 H2 126.6
C2 C3 N2 107.20(11)
C2 C3 H3 126.4
N2 C3 H3 126.4
N1 C4 H4A 109.5
N1 C4 H4B 109.5
H4A C4 H4B 109.5
N1 C4 H4C 109.5
H4A C4 H4C 109.5
H4B C4 H4C 109.5
N2 C5 C6 111.91(10)
N2 C5 H5A 109.2
C6 C5 H5A 109.2
N2 C5 H5B 109.2
C6 C5 H5B 109.2
H5A C5 H5B 107.9
C5 C6 C7 111.90(10)
C5 C6 H6A 109.2
C7 C6 H6A 109.2
C5 C6 H6B 109.2
C7 C6 H6B 109.2
H6A C6 H6B 107.9
O2 C7 O1 124.36(11)
O2 C7 C6 118.53(11)
O1 C7 C6 117.10(11)
loop_
_geom_bond_atom_site_label_1
_geom_bond_atom_site_label_2
_geom_bond_distance
O1 C7 1.2601(16)
O2 C7 1.2420(16)
O3 H31 0.869(15)
O3 H32 0.890(15)
O4 H41 0.888(16)
O4 H42 0.869(15)
N1 C1 1.3267(16)
N1 C2 1.3752(16)
N1 C4 1.4667(16)
N2 C1 1.3270(17)
N2 C3 1.3781(17)
N2 C5 1.4715(16)
C1 H1 0.95
C2 C3 1.3488(19)
C2 H2 0.95
C3 H3 0.95
C4 H4A 0.98
C4 H4B 0.98
C4 H4C 0.98
C5 C6 1.5107(17)
C5 H5A 0.99
C5 H5B 0.99
C6 C7 1.5226(17)
C6 H6A 0.99
C6 H6B 0.99
loop_
_geom_torsion_atom_site_label_1
_geom_torsion_atom_site_label_2
_geom_torsion_atom_site_label_3
_geom_torsion_atom_site_label_4
_geom_torsion
C2 N1 C1 N2 0.22(14)
C4 N1 C1 N2 179.08(11)
C3 N2 C1 N1 -0.29(14)
C5 N2 C1 N1 -178.50(11)
C1 N1 C2 C3 -0.06(15)
C4 N1 C2 C3 -178.90(12)
N1 C2 C3 N2 -0.11(15)
C1 N2 C3 C2 0.25(15)
C5 N2 C3 C2 178.41(12)
C1 N2 C5 C6 104.23(14)
C3 N2 C5 C6 -73.65(16)
N2 C5 C6 C7 -176.44(10)
C5 C6 C7 O2 20.80(17)
C5 C6 C7 O1 -159.94(12)
