#------------------------------------------------------------------------------
#$Date: 2019-11-17 09:34:59 +0200 (Sun, 17 Nov 2019) $
#$Revision: 229133 $
#$URL: file:///home/coder/svn-repositories/cod/cif/7/23/14/7231469.cif $
#------------------------------------------------------------------------------
#
# This file is available in the Crystallography Open Database (COD),
# http://www.crystallography.net/
#
# All data on this site have been placed in the public domain by the
# contributors.
#
data_7231469
loop_
_publ_author_name
'Hutchins, Kristin M.'
'Unruh, Daniel K.'
'Carpenter, Dontrell D.'
'Groeneman, Ryan H.'
_publ_section_title
;
 Thermal expansion along one-dimensional chains and two-dimensional sheets
 within co-crystals based on halogen or hydrogen bonds
;
_journal_issue                   45
_journal_name_full               CrystEngComm
_journal_page_first              7232
_journal_paper_doi               10.1039/C8CE01090K
_journal_volume                  20
_journal_year                    2018
_chemical_formula_sum            'C18 H8 F4 I2 N2'
_chemical_formula_weight         582.06
_space_group_IT_number           58
_space_group_name_Hall           '-P 2 2n'
_space_group_name_H-M_alt        'P n n m'
_symmetry_cell_setting           orthorhombic
_symmetry_Int_Tables_number      58
_symmetry_space_group_name_Hall  '-P 2 2n'
_symmetry_space_group_name_H-M   'P n n m'
_atom_sites_solution_hydrogens   geom
_atom_sites_solution_primary     dual
_atom_sites_solution_secondary   difmap
_audit_creation_date             2018-05-08T15:00:55-00:00
_audit_creation_method           'WinGX routine CIF_UPDATE'
_audit_update_record
;
2018-06-18 deposited with the CCDC.
2018-08-30 downloaded from the CCDC.
;
_cell_angle_alpha                90
_cell_angle_beta                 90
_cell_angle_gamma                90
_cell_formula_units_Z            2
_cell_length_a                   15.6785(6)
_cell_length_b                   5.2396(2)
_cell_length_c                   11.0860(4)
_cell_measurement_reflns_used    6164
_cell_measurement_temperature    231(2)
_cell_measurement_theta_max      31.49
_cell_measurement_theta_min      3.68
_cell_volume                     910.70(6)
_computing_cell_refinement       'Bruker SAINT'
_computing_data_collection       'Bruker APEX2'
_computing_data_reduction        'Bruker SAINT'
_computing_structure_refinement  'SHELXL-2016/6 (Sheldrick, 2016)'
_computing_structure_solution    'SHELXT 2014/4 (Sheldrick, 2014)'
_diffrn_ambient_temperature      231(2)
_diffrn_measured_fraction_theta_full 1
_diffrn_measured_fraction_theta_max 0.996
_diffrn_measurement_device_type  'Bruker APEX-II CCD'
_diffrn_measurement_method       '\f and \w scans'
_diffrn_radiation_monochromator  graphite
_diffrn_radiation_source         'fine-focus sealed tube'
_diffrn_radiation_type           MoK\a
_diffrn_radiation_wavelength     0.71073
_diffrn_reflns_av_R_equivalents  0.0300
_diffrn_reflns_av_unetI/netI     0.0181
_diffrn_reflns_Laue_measured_fraction_full 1
_diffrn_reflns_Laue_measured_fraction_max 0.996
_diffrn_reflns_limit_h_max       23
_diffrn_reflns_limit_h_min       -23
_diffrn_reflns_limit_k_max       4
_diffrn_reflns_limit_k_min       -7
_diffrn_reflns_limit_l_max       16
_diffrn_reflns_limit_l_min       -13
_diffrn_reflns_number            9756
_diffrn_reflns_point_group_measured_fraction_full 1
_diffrn_reflns_point_group_measured_fraction_max 0.996
_diffrn_reflns_theta_full        25.242
_diffrn_reflns_theta_max         31.507
_diffrn_reflns_theta_min         2.25
_exptl_absorpt_coefficient_mu    3.496
_exptl_absorpt_correction_T_max  0.8623
_exptl_absorpt_correction_T_min  0.7287
_exptl_absorpt_correction_type   multi-scan
_exptl_absorpt_process_details   SADABS
_exptl_crystal_colour            colourless
_exptl_crystal_density_diffrn    2.123
_exptl_crystal_description       plate
_exptl_crystal_F_000             544
_exptl_crystal_size_max          0.419
_exptl_crystal_size_mid          0.353
_exptl_crystal_size_min          0.067
_refine_diff_density_max         0.475
_refine_diff_density_min         -0.419
_refine_diff_density_rms         0.09
_refine_ls_extinction_method     none
_refine_ls_goodness_of_fit_ref   1.125
_refine_ls_hydrogen_treatment    constr
_refine_ls_matrix_type           full
_refine_ls_number_parameters     67
_refine_ls_number_reflns         1589
_refine_ls_number_restraints     0
_refine_ls_restrained_S_all      1.125
_refine_ls_R_factor_all          0.0191
_refine_ls_R_factor_gt           0.0174
_refine_ls_shift/su_max          0.001
_refine_ls_shift/su_mean         0
_refine_ls_structure_factor_coef Fsqd
_refine_ls_weighting_details
'w=1/[\s^2^(Fo^2^)+(0.0176P)^2^+0.3640P] where P=(Fo^2^+2Fc^2^)/3'
_refine_ls_weighting_scheme      calc
_refine_ls_wR_factor_gt          0.0428
_refine_ls_wR_factor_ref         0.0435
_reflns_number_gt                1483
_reflns_number_total             1589
_reflns_threshold_expression     'I > 2\s(I)'
_cod_data_source_file            c8ce01090k2.cif
_cod_data_source_block           diIBPA_230k
_cod_depositor_comments
'Adding full bibliography for 7231456--7231470.cif.'
_cod_database_code               7231469
_shelx_estimated_absorpt_t_min   0.322
_shelx_estimated_absorpt_t_max   0.8
_shelx_res_file
;

    r16417-230k.res created by SHELXL-2014/7


TITL file  DDJOB.res = = DIRDIF output for SHELX
CELL  0.71073  15.6785   5.2396  11.0860   90.000   90.000   90.000
ZERR     2.00   0.0006   0.0002   0.0004    0.000    0.000    0.000
LATT   1
SYMM  1/2 - X, 1/2 + Y, 1/2 + Z
SYMM  1/2 + X, 1/2 - Y, 1/2 + Z
SYMM  - X, - Y,   Z
SFAC  C H N F I
UNIT  36 16 4 8 4
SIZE  0.067 0.353 0.419
MERG  2
FMAP  2
PLAN  20
BOND  $H
L.S.  10
ACTA
LIST  4
TEMP  -42.30

WGHT    0.017600    0.364000
FVAR       0.11630
I1    5    0.158889    0.973472    0.000000    10.50000    0.02030    0.02058 =
         0.04121    0.00000    0.00000   -0.00382
F1    4    0.060104    0.677978   -0.212138    11.00000    0.07315    0.07344 =
         0.02905    0.00575    0.00471   -0.04531
N1    3    0.284360    0.345572    0.000000    10.50000    0.02736    0.02646 =
         0.05711    0.00000    0.00000   -0.00839
C5    1    0.408920    0.724713    0.000000    10.50000    0.02049    0.02286 =
         0.04405    0.00000    0.00000   -0.00383
C2    1    0.031435    0.592651   -0.105377    11.00000    0.03091    0.03105 =
         0.02746    0.00247    0.00255   -0.01154
C1    1    0.064102    0.689884    0.000000    10.50000    0.01974    0.01957 =
         0.03158    0.00000    0.00000   -0.00374
C4    1    0.376972    0.627310    0.107041    11.00000    0.03454    0.03782 =
         0.03987    0.00664   -0.00877   -0.01290
AFIX  43
H4    2    0.397066    0.687902    0.181619    11.00000   -1.20000
AFIX   0
C3    1    0.314930    0.439161    0.102458    11.00000    0.03408    0.03736 =
         0.04981    0.01412   -0.00411   -0.01204
AFIX  43
H3    2    0.293453    0.374689    0.175523    11.00000   -1.20000
AFIX   0
C6    1    0.473341    0.919465    0.000000    10.50000    0.02627    0.02951 =
         0.03934    0.00000    0.00000   -0.00104
HKLF    4

REM  file  DDJOB.res = = DIRDIF output for SHELX
REM R1 =  0.0174 for    1483 Fo > 4sig(Fo)  and  0.0191 for all    1589 data
REM     67 parameters refined using      0 restraints

END

WGHT      0.0176      0.3640

REM Highest difference peak  0.475,  deepest hole -0.419,  1-sigma level  0.090
Q1    1   0.0341  0.7790 -0.1845  11.00000  0.05    0.48
Q2    1   0.5000  1.0000  0.0000  10.25000  0.05    0.40
Q3    1   0.1962  0.9668  0.0470  11.00000  0.05    0.36
Q4    1   0.0526  0.6448  0.0514  11.00000  0.05    0.32
Q5    1   0.0637  0.9855  0.0000  10.50000  0.05    0.32
Q6    1   0.0833  0.5851 -0.1778  11.00000  0.05    0.30
Q7    1   0.2575  0.9673  0.0000  10.50000  0.05    0.29
Q8    1   0.3837  0.7269  0.0508  11.00000  0.05    0.29
Q9    1   0.0896  0.7025  0.0000  10.50000  0.05    0.28
Q10   1   0.4264  0.7998  0.0000  10.50000  0.05    0.27
Q11   1   0.4056  0.6556  0.0457  11.00000  0.05    0.27
Q12   1   0.0000  0.5000 -0.1079  10.50000  0.05    0.27
Q13   1   0.3433  0.5585  0.1042  11.00000  0.05    0.25
Q14   1   0.2293  0.2963  0.0000  10.50000  0.05    0.25
Q15   1   0.3823  0.6723  0.1354  11.00000  0.05    0.22
Q16   1   0.2869  0.3968  0.0457  11.00000  0.05    0.22
Q17   1   0.1147  0.9789  0.0597  11.00000  0.05    0.21
Q18   1   0.3243  0.9790  0.2141  11.00000  0.05    0.21
Q19   1   0.1494  0.5042 -0.2137  11.00000  0.05    0.21
Q20   1   0.1768  0.6094 -0.2074  11.00000  0.05    0.21
;
_shelx_res_checksum              7665
loop_
_symmetry_equiv_pos_as_xyz
'x, y, z'
'-x+1/2, y+1/2, z+1/2'
'x+1/2, -y+1/2, z+1/2'
'-x, -y, z'
'-x, -y, -z'
'x-1/2, -y-1/2, -z-1/2'
'-x-1/2, y-1/2, -z-1/2'
'x, y, -z'
loop_
_atom_site_label
_atom_site_type_symbol
_atom_site_fract_x
_atom_site_fract_y
_atom_site_fract_z
_atom_site_U_iso_or_equiv
_atom_site_adp_type
_atom_site_occupancy
_atom_site_calc_flag
I1 I 0.15889(2) 0.97347(3) 0 0.02736(5) Uani 1 d
F1 F 0.06010(9) 0.6780(3) -0.21214(10) 0.0585(4) Uani 1 d
N1 N 0.28436(13) 0.3456(4) 0 0.0370(5) Uani 1 d
C5 C 0.40892(13) 0.7247(4) 0 0.0291(4) Uani 1 d
C2 C 0.03144(10) 0.5927(3) -0.10538(14) 0.0298(3) Uani 1 d
C1 C 0.06410(12) 0.6899(4) 0 0.0236(4) Uani 1 d
C4 C 0.37697(11) 0.6273(4) 0.10704(17) 0.0374(4) Uani 1 d
H4 H 0.3971 0.6879 0.1816 0.045 Uiso 1 calc
C3 C 0.31493(13) 0.4392(4) 0.1025(2) 0.0404(4) Uani 1 d
H3 H 0.2935 0.3747 0.1755 0.049 Uiso 1 calc
C6 C 0.47334(16) 0.9195(5) 0 0.0317(4) Uani 1 d
loop_
_atom_site_aniso_label
_atom_site_aniso_U_11
_atom_site_aniso_U_22
_atom_site_aniso_U_33
_atom_site_aniso_U_23
_atom_site_aniso_U_13
_atom_site_aniso_U_12
I1 0.02030(7) 0.02058(7) 0.04121(10) 0 0 -0.00382(4)
F1 0.0732(8) 0.0734(9) 0.0291(5) 0.0057(6) 0.0047(5) -0.0453(8)
N1 0.0274(9) 0.0265(9) 0.0571(13) 0 0 -0.0084(8)
C5 0.0205(9) 0.0229(9) 0.0441(12) 0 0 -0.0038(7)
C2 0.0309(8) 0.0311(7) 0.0275(7) 0.0025(6) 0.0026(6) -0.0115(6)
C1 0.0197(8) 0.0196(8) 0.0316(10) 0 0 -0.0037(7)
C4 0.0345(9) 0.0378(9) 0.0399(9) 0.0066(7) -0.0088(7) -0.0129(7)
C3 0.0341(9) 0.0374(9) 0.0498(11) 0.0141(8) -0.0041(8) -0.0120(8)
C6 0.0263(10) 0.0295(10) 0.0393(12) 0 0 -0.0010(9)
loop_
_atom_type_symbol
_atom_type_description
_atom_type_scat_dispersion_real
_atom_type_scat_dispersion_imag
_atom_type_scat_source
C C 0.0033 0.0016 'International Tables Vol C Tables 4.2.6.8 and 6.1.1.4'
H H 0 0 'International Tables Vol C Tables 4.2.6.8 and 6.1.1.4'
N N 0.0061 0.0033 'International Tables Vol C Tables 4.2.6.8 and 6.1.1.4'
F F 0.0171 0.0103 'International Tables Vol C Tables 4.2.6.8 and 6.1.1.4'
I I -0.4742 1.8119 'International Tables Vol C Tables 4.2.6.8 and 6.1.1.4'
loop_
_geom_angle_atom_site_label_1
_geom_angle_atom_site_label_2
_geom_angle_atom_site_label_3
_geom_angle
_geom_angle_site_symmetry_1
_geom_angle_site_symmetry_3
C3 N1 C3 117.8(2) 8 .
C4 C5 C4 117.9(2) . 8
C4 C5 C6 121.07(10) . .
C4 C5 C6 121.07(10) 8 .
F1 C2 C1 120.09(13) . .
F1 C2 C2 118.18(8) . 4_565
C1 C2 C2 121.73(9) . 4_565
C2 C1 C2 116.54(18) . 8
C2 C1 I1 121.73(9) . .
C2 C1 I1 121.73(9) 8 .
C5 C4 C3 118.97(17) . .
C5 C4 H4 120.5 . .
C3 C4 H4 120.5 . .
N1 C3 C4 123.22(18) . .
N1 C3 H3 118.4 . .
C4 C3 H3 118.4 . .
C6 C6 C5 180.0(4) 5_675 .
loop_
_geom_bond_atom_site_label_1
_geom_bond_atom_site_label_2
_geom_bond_distance
_geom_bond_site_symmetry_2
I1 C1 2.1015(19) .
F1 C2 1.3427(18) .
N1 C3 1.327(2) 8
N1 C3 1.327(2) .
C5 C4 1.385(2) .
C5 C4 1.385(2) 8
C5 C6 1.436(3) .
C2 C1 1.3735(18) .
C2 C2 1.384(3) 4_565
C1 C2 1.3735(18) 8
C4 C3 1.386(3) .
C4 H4 0.94 .
C3 H3 0.94 .
C6 C6 1.188(5) 5_675
