#------------------------------------------------------------------------------
#$Date: 2019-11-17 15:32:33 +0200 (Sun, 17 Nov 2019) $
#$Revision: 230902 $
#$URL: file:///home/coder/svn-repositories/cod/cif/7/23/14/7231407.cif $
#------------------------------------------------------------------------------
#
# This file is available in the Crystallography Open Database (COD),
# http://www.crystallography.net/
#
# All data on this site have been placed in the public domain by the
# contributors.
#
data_7231407
loop_
_publ_author_name
'Collings, Ines E.'
'Manna, Rudra Sekhar'
'Tsirlin, Alexander A.'
'Bykov, Maxim'
'Bykova, Elena'
'Hanfland, Michael'
'Gegenwart, Philipp'
'van Smaalen, Sander'
'Dubrovinsky, Leonid'
'Dubrovinskaia, Natalia'
_publ_section_title
;
 Pressure dependence of spin canting in ammonium metal formate
 antiferromagnets.
;
_journal_issue                   37
_journal_name_full               'Physical chemistry chemical physics : PCCP'
_journal_page_first              24465
_journal_page_last               24476
_journal_paper_doi               10.1039/c8cp03761b
_journal_volume                  20
_journal_year                    2018
_chemical_formula_moiety         'C6 H6 Mn2 O12, N2 H8'
_chemical_formula_sum            'C6 H14 Mn2 N2 O12'
_chemical_formula_weight         416.1
_space_group_IT_number           4
_space_group_name_Hall           'P 2yb'
_space_group_name_H-M_alt        'P 1 21 1'
_symmetry_cell_setting           monoclinic
_symmetry_Int_Tables_number      4
_symmetry_space_group_name_Hall  'P 2yb'
_symmetry_space_group_name_H-M   'P 1 21 1'
_audit_creation_method           'Jana2006 Version : 25/10/2015'
_audit_update_record
;
2018-08-09 deposited with the CCDC.
2018-08-22 downloaded from the CCDC.
;
_cell_angle_alpha                90
_cell_angle_beta                 89.98(3)
_cell_angle_gamma                90
_cell_formula_units_Z            2
_cell_length_a                   6.680(3)
_cell_length_b                   7.097(3)
_cell_length_c                   13.944(5)
_cell_measurement_reflns_used    180
_cell_measurement_temperature    293
_cell_measurement_theta_max      11.55
_cell_measurement_theta_min      1.69
_cell_volume                     661.1(5)
_computing_cell_refinement       'CrysAlisPro 1.171.38.43 (Rigaku OD, 2015)'
_computing_data_collection       'CrysAlisPro 1.171.38.43 (Rigaku OD, 2015)'
_computing_data_reduction        'CrysAlisPro 1.171.38.43 (Rigaku OD, 2015)'
_diffrn_ambient_pressure         '1.54 GPa'
_diffrn_ambient_temperature      293
_diffrn_detector                 'CCD plate'
_diffrn_measured_fraction_theta_full 0.83
_diffrn_measured_fraction_theta_max 0.81
_diffrn_measurement_device       'ID15B beamline, ESRF'
_diffrn_measurement_device_type
'esperanto-CrysAlisPro-abstract goniometer imported esperanto images'
_diffrn_measurement_method       '\w scans'
_diffrn_measurement_specimen_support 'diamond-anvil cell'
_diffrn_radiation_monochromator  synchrotron
_diffrn_radiation_probe          x-ray
_diffrn_radiation_source         synchrotron
_diffrn_radiation_type           synchrotron
_diffrn_radiation_wavelength     0.41111
_diffrn_reflns_av_R_equivalents  0.051
_diffrn_reflns_av_unetI/netI     0.085
_diffrn_reflns_limit_h_max       6
_diffrn_reflns_limit_h_min       -6
_diffrn_reflns_limit_k_max       6
_diffrn_reflns_limit_k_min       -6
_diffrn_reflns_limit_l_max       13
_diffrn_reflns_limit_l_min       -13
_diffrn_reflns_number            1964
_diffrn_reflns_theta_full        10.57
_diffrn_reflns_theta_max         11.88
_diffrn_reflns_theta_min         1.68
_diffrn_source                   synchrotron
_exptl_absorpt_coefficient_mu    0.424
_exptl_absorpt_correction_T_max  1
_exptl_absorpt_correction_T_min  0.873
_exptl_absorpt_correction_type   multi-scan
_exptl_absorpt_process_details
;
CrysAlisPro 1.171.38.43 (Rigaku Oxford Diffraction, 2015)
Empirical absorption correction using spherical harmonics,
 implemented in SCALE3 ABSPACK scaling algorithm.
;
_exptl_crystal_colour            colourless
_exptl_crystal_density_diffrn    2.0901
_exptl_crystal_description       'hexagonal bipyramid'
_exptl_crystal_F_000             404
_exptl_crystal_size_max          0.090
_exptl_crystal_size_mid          0.070
_exptl_crystal_size_min          0.050
_refine_diff_density_max         1.42
_refine_diff_density_min         -1.45
_refine_ls_abs_structure_details
'  731 of Friedel pairs used in the refinement'
_refine_ls_extinction_method     none
_refine_ls_goodness_of_fit_gt    4.30
_refine_ls_goodness_of_fit_ref   3.46
_refine_ls_hydrogen_treatment    constr
_refine_ls_number_constraints    49
_refine_ls_number_parameters     87
_refine_ls_number_reflns         1964
_refine_ls_number_restraints     0
_refine_ls_R_factor_all          0.1947
_refine_ls_R_factor_gt           0.1350
_refine_ls_shift/su_max          0.0499
_refine_ls_shift/su_mean         0.0078
_refine_ls_structure_factor_coef F
_refine_ls_weighting_details     w=1/(\s^2^(F)+0.0001F^2^)
_refine_ls_weighting_scheme      sigma
_refine_ls_wR_factor_gt          0.1583
_refine_ls_wR_factor_ref         0.1706
_reflns_number_gt                1125
_reflns_number_total             1964
_reflns_threshold_expression     I>3\s(I)
_cod_data_source_file            c8cp03761b2.cif
_cod_data_source_block           AMnF_c2_p03
_cod_depositor_comments
;
The following automatic conversions were performed:

'_diffrn_radiation_probe' value 'X-ray' changed to 'x-ray' according
to
/home/data/users/saulius/crontab/automatic-downloads/rss-feeds/RSC/lib/dictionaries/cif_core.dic
dictionary named 'cif_core.dic' version 2.4.2 from 2011-04-26.

Automatic conversion script
Id: cif_fix_values 4973 2017-02-22 13:04:09Z antanas 

 Adding full bibliography for 7231402--7231432.cif.
;
_cod_database_code               7231407
loop_
_space_group_symop_id
_space_group_symop_operation_xyz
1 x,y,z
2 -x,y+1/2,-z
loop_
_atom_site_label
_atom_site_type_symbol
_atom_site_fract_x
_atom_site_fract_y
_atom_site_fract_z
_atom_site_adp_type
_atom_site_U_iso_or_equiv
_atom_site_site_symmetry_multiplicity
_atom_site_occupancy
_atom_site_calc_flag
Mn1 Mn 0.6330(7) 0.7082(7) 0.8503(3) Uani 0.0528(13) 2 1 d
Mn2 Mn 1.1345(7) 0.2206(8) 0.6498(3) Uani 0.0528(13) 2 1 d
C1 C 0.904(6) -0.132(6) 0.551(2) Uiso 0.084(5) 2 1 d
C2 C 0.526(6) 1.010(6) 0.707(2) Uiso 0.074(4) 2 1 d
C3 C 1.015(5) 0.922(5) 0.7967(19) Uiso 0.057(4) 2 1 d
C4 C 0.248(5) 0.481(5) 0.811(2) Uiso 0.075(5) 2 1 d
C5 C 0.739(5) 0.425(5) 0.6847(18) Uiso 0.060(4) 2 1 d
C6 C 0.614(5) 0.598(5) 1.047(2) Uiso 0.066(4) 2 1 d
O1 O 1.072(3) 1.084(3) 0.7839(12) Uiso 0.057(4) 2 1 d
O2 O 0.492(3) 0.945(3) 0.9288(13) Uiso 0.066(4) 2 1 d
O3 O 0.360(4) 0.574(4) 0.8685(14) Uiso 0.075(5) 2 1 d
O4 O 0.730(3) 0.597(3) 0.9837(13) Uiso 0.066(4) 2 1 d
O5 O 0.773(3) 0.471(3) 0.7733(12) Uiso 0.060(4) 2 1 d
O6 O 0.428(4) 1.079(4) 0.6381(14) Uiso 0.074(4) 2 1 d
O7 O 0.918(3) 0.848(3) 0.8615(12) Uiso 0.057(4) 2 1 d
O8 O 0.265(3) 0.456(4) 0.7279(14) Uiso 0.075(5) 2 1 d
O9 O 0.849(3) 0.347(3) 0.6357(13) Uiso 0.060(4) 2 1 d
O10 O 0.993(4) 0.002(4) 0.5661(15) Uiso 0.084(5) 2 1 d
O11 O 0.570(4) 0.849(4) 0.7187(14) Uiso 0.074(4) 2 1 d
O12 O 1.235(4) 0.346(4) 0.5120(15) Uiso 0.084(5) 2 1 d
N1 N 0.637(3) 0.216(4) 0.4755(14) Uani 0.054(7) 2 1 d
N2 N 0.121(3) 0.710(5) 1.0295(14) Uani 0.054(7) 2 1 d
H1c1 H 0.935935 -0.239897 0.590113 Uiso 0.1012 2 1 d
H1c2 H 0.570024 1.097548 0.754788 Uiso 0.0887 2 1 d
H1c6 H 0.594763 0.711771 1.082565 Uiso 0.0792 2 1 d
H1c5 H 0.610967 0.458315 0.65818 Uiso 0.0722 2 1 d
H1c3 H 1.05293 0.836911 0.746532 Uiso 0.0686 2 1 d
H1c4 H 0.133468 0.423312 0.839423 Uiso 0.09 2 1 d
loop_
_atom_site_aniso_label
_atom_site_aniso_type_symbol
_atom_site_aniso_U_11
_atom_site_aniso_U_22
_atom_site_aniso_U_33
_atom_site_aniso_U_12
_atom_site_aniso_U_13
_atom_site_aniso_U_23
Mn1 Mn 0.061(3) 0.028(2) 0.0687(19) 0.0026(18) -0.0035(14) -0.0051(19)
Mn2 Mn 0.061(3) 0.028(2) 0.0687(19) 0.0026(18) -0.0035(14) -0.0051(19)
N1 N 0.047(13) 0.045(13) 0.070(10) 0.001(9) 0.003(8) 0.014(10)
N2 N 0.047(13) 0.045(13) 0.070(10) 0.001(9) 0.003(8) 0.014(10)
loop_
_atom_type_symbol
_atom_type_scat_dispersion_real
_atom_type_scat_dispersion_imag
_atom_type_scat_source
C -0.0001 0.0005 'International Tables Vol C tables 4.2.6.8 and 6.1.1.1'
H 0.0000 0.0000 'International Tables Vol C tables 4.2.6.8 and 6.1.1.1'
Mn 0.1790 0.2615 'International Tables Vol C tables 4.2.6.8 and 6.1.1.1'
N 0.0006 0.0010 'International Tables Vol C tables 4.2.6.8 and 6.1.1.1'
O 0.0018 0.0018 'International Tables Vol C tables 4.2.6.8 and 6.1.1.1'
loop_
_geom_angle_atom_site_label_1
_geom_angle_atom_site_label_2
_geom_angle_atom_site_label_3
_geom_angle_site_symmetry_1
_geom_angle_site_symmetry_3
_geom_angle
O2 Mn1 O3 . . 85.1(9)
O2 Mn1 O4 . . 88.7(8)
O2 Mn1 O5 . . 179.4(7)
O2 Mn1 O7 . . 89.5(8)
O2 Mn1 O11 . . 89.2(9)
O3 Mn1 O4 . . 89.5(9)
O3 Mn1 O5 . . 94.7(9)
O3 Mn1 O7 . . 168.8(7)
O3 Mn1 O11 . . 98.4(9)
O4 Mn1 O5 . . 90.8(8)
O4 Mn1 O7 . . 80.6(8)
O4 Mn1 O11 . . 171.6(10)
O5 Mn1 O7 . . 90.7(8)
O5 Mn1 O11 . . 91.4(8)
O7 Mn1 O11 . . 91.2(9)
O1 Mn2 O6 1_545 1_645 91.7(8)
O1 Mn2 O8 1_545 1_655 89.4(8)
O1 Mn2 O9 1_545 . 95.7(8)
O1 Mn2 O10 1_545 . 93.5(9)
O1 Mn2 O12 1_545 . 173.0(9)
O6 Mn2 O8 1_645 1_655 91.8(9)
O6 Mn2 O9 1_645 . 170.3(7)
O6 Mn2 O10 1_645 . 91.2(10)
O6 Mn2 O12 1_645 . 81.4(9)
O8 Mn2 O9 1_655 . 94.7(9)
O8 Mn2 O10 1_655 . 175.7(9)
O8 Mn2 O12 1_655 . 90.3(9)
O9 Mn2 O10 . . 82.0(9)
O9 Mn2 O12 . . 91.3(9)
O10 Mn2 O12 . . 87.2(9)
O10 C1 O12 . 2_746 127(4)
O10 C1 H1c1 . . 116.58
O12 C1 H1c1 2_746 . 116.58
O6 C2 O11 . . 127(3)
O6 C2 H1c2 . . 116.31
O11 C2 H1c2 . . 116.31
O1 C3 O7 . . 132(3)
O1 C3 H1c3 . . 113.78
O7 C3 H1c3 . . 113.78
O3 C4 O8 . . 130(3)
O3 C4 H1c4 . . 114.98
O8 C4 H1c4 . . 114.98
O5 C5 O9 . . 125(3)
O5 C5 H1c5 . . 117.53
O9 C5 H1c5 . . 117.53
O2 C6 O4 2_647 . 123(3)
O2 C6 H1c6 2_647 . 118.7
O4 C6 H1c6 . . 118.7
Mn2 O1 C3 1_565 . 127.8(17)
Mn1 O2 C6 . 2_657 164.6(18)
Mn1 O3 C4 . . 132(2)
Mn1 O4 C6 . . 117(2)
Mn1 O5 C5 . . 125(2)
Mn2 O6 C2 1_465 . 126(2)
Mn1 O7 C3 . . 127.5(18)
Mn2 O8 C4 1_455 . 125(2)
Mn2 O9 C5 . . 137(2)
Mn2 O10 C1 . . 158(2)
Mn1 O11 C2 . . 128(2)
Mn2 O12 C1 . 2_756 115(2)
loop_
_geom_bond_atom_site_label_1
_geom_bond_atom_site_label_2
_geom_bond_site_symmetry_2
_geom_bond_distance
Mn1 O2 . 2.22(2)
Mn1 O3 . 2.07(3)
Mn1 O4 . 2.12(2)
Mn1 O5 . 2.21(2)
Mn1 O7 . 2.16(2)
Mn1 O11 . 2.13(2)
Mn2 O1 1_545 2.148(19)
Mn2 O6 1_645 2.21(3)
Mn2 O8 1_655 2.18(2)
Mn2 O9 . 2.12(2)
Mn2 O10 . 2.16(3)
Mn2 O12 . 2.22(2)
C1 O10 . 1.15(5)
C1 O12 2_746 1.29(4)
C1 H1c1 . 0.96
C2 O6 . 1.26(4)
C2 O11 . 1.19(5)
C2 H1c2 . 0.96
C3 O1 . 1.22(4)
C3 O7 . 1.23(3)
C3 H1c3 . 0.96
C4 O3 . 1.28(4)
C4 O8 . 1.17(3)
C4 H1c4 . 0.96
C5 O5 . 1.30(3)
C5 O9 . 1.15(4)
C5 H1c5 . 0.96
C6 O2 2_647 1.34(4)
C6 O4 . 1.17(4)
C6 H1c6 . 0.96
loop_
_twin_individual_id
_twin_individual_mass_fraction_refined
_twin_individual_twin_matrix_11
_twin_individual_twin_matrix_12
_twin_individual_twin_matrix_13
_twin_individual_twin_matrix_21
_twin_individual_twin_matrix_22
_twin_individual_twin_matrix_23
_twin_individual_twin_matrix_31
_twin_individual_twin_matrix_32
_twin_individual_twin_matrix_33
1 0.278(6) 1 0 0 0 1 0 0 0 1
2 0.357(4) 0.991 0 -0.2787 0 -1 0 -0.0643 0 -0.991
3 0.365(4) -0.6111 0 -1.6522 0 -1 0 -0.379 0 0.6117
loop_
_twin_refln_datum_id
_twin_refln_individual_id
_twin_refln_index_h
_twin_refln_index_k
_twin_refln_index_l
_twin_refln_f_squared_calc
_twin_refln_f_squared_meas
_twin_refln_f_squared_sigma
_twin_refln_include_status
1 1 0 -5 -6 20.76 1.35 1.20 <
2 1 0 -5 -7 0.42 8.99 13.69 <
3 1 0 -5 -8 32.48 16.49 16.75 <
4 1 0 -5 -9 4.66 3.41 2.53 <
5 1 0 -4 -4 150.47 155.20 32.31 o
6 1 0 -4 -5 3.90 68.82 29.04 <
7 1 0 -4 -6 110.05 78.06 24.36 o
8 1 0 -4 -7 4.37 27.39 16.57 <
9 1 0 -4 -8 6.04 7.73 8.20 <
10 1 0 -4 -9 0.28 -2.79 5.41 <
11 1 0 -4 -10 74.46 25.45 12.38 <
12 1 0 -4 -11 1.36 2.04 4.25 <
13 1 0 -3 -3 330.87 611.84 57.73 o
14 1 0 -3 -4 357.74 438.51 47.66 o
15 1 0 -3 -5 13.31 97.01 52.26 <
16 1 0 -3 -6 109.83 125.12 24.19 o
17 1 0 -3 -7 4.41 0.52 9.07 <
18 1 0 -3 -8 83.80 74.45 22.16 o
19 1 0 -3 -9 0.98 -3.57 6.33 <
20 1 0 -3 -10 12.49 6.74 7.94 <
21 1 0 -3 -11 0.59 -6.09 13.22 <
22 1 0 -3 -12 78.34 65.60 29.43 <
23 1 0 -2 -2 193.20 392.83 35.43 o
24 1 0 -2 -3 35.47 41.10 14.63 <
25 1 0 -2 -4 821.37 898.55 58.32 o
26 1 0 -2 -5 193.57 202.00 27.13 o
27 1 0 -2 -6 902.99 1024.83 68.72 o
28 1 0 -2 -7 1.82 101.18 25.91 o
29 1 0 -2 -8 157.07 134.59 29.43 o
30 1 0 -2 -9 30.38 9.30 7.18 <
31 1 0 -2 -10 214.13 180.96 39.49 o
32 1 0 -2 -11 5.70 -5.10 11.93 <
33 1 0 -2 -12 9.61 22.62 18.08 <
34 1 0 -2 -13 0.38 -10.51 17.89 <
35 1 0 -1 -1 10.82 17.99 4.69 o
36 1 0 -1 -2 3136.92 3628.59 81.53 o
37 1 0 -1 -3 201.78 272.51 25.09 o
38 1 0 -1 -4 960.49 1226.88 62.33 o
39 1 0 -1 -5 139.04 119.38 19.65 o
40 1 0 -1 -6 1282.95 1176.37 74.99 o
41 1 0 -1 -7 3.88 38.14 16.08 <
42 1 0 -1 -8 581.07 569.25 67.99 o
43 1 0 -1 -9 42.84 1.75 4.24 <
44 1 0 -1 -10 1.32 4.67 5.61 <
45 1 0 -1 -11 4.10 -7.14 13.73 <
46 1 0 -1 -12 100.79 63.79 30.58 <
47 1 0 0 2 420.49 361.28 22.14 o
48 1 0 0 -2 420.49 374.98 23.94 o
49 1 0 0 -3 0.50 1.95 5.15 <
50 1 0 0 3 0.50 -1.26 2.11 <
51 1 0 0 4 192.60 126.68 24.30 o
52 1 0 0 -4 192.60 124.51 25.68 o
53 1 0 0 -5 0.17 0.74 2.42 <
54 1 0 0 5 0.17 -0.06 2.04 <
55 1 0 0 6 848.12 645.31 64.57 o
56 1 0 0 7 5.20 411.99 57.81 o
57 1 0 0 8 113.19 35.52 15.69 <
58 1 0 0 9 0.44 0.37 2.95 <
59 1 0 0 10 275.39 104.04 33.18 o
60 1 0 0 11 0.40 -1.97 4.30 <
61 1 0 1 1 10.68 17.50 4.66 o
62 1 0 1 2 3136.59 3628.13 81.65 o
63 1 0 1 3 201.78 272.69 24.57 o
64 1 0 1 4 962.18 1218.88 61.05 o
65 1 0 1 5 139.08 118.36 18.36 o
66 1 0 1 6 1284.06 1168.49 70.09 o
67 1 0 1 7 3.89 49.83 18.67 <
68 1 0 1 8 581.62 511.26 58.11 o
69 1 0 1 9 42.86 6.68 2.41 <
70 1 0 1 10 1.30 0.62 5.11 <
71 1 0 1 11 4.09 2.51 3.82 <
72 1 0 1 12 100.83 46.30 23.93 <
73 1 0 1 13 16.20 11.84 16.77 <
74 1 0 2 3 35.12 46.31 16.37 <
75 1 0 2 4 823.61 903.59 59.32 o
76 1 0 2 5 193.56 208.28 28.25 o
77 1 0 2 6 904.72 1017.56 66.91 o
78 1 0 2 7 1.89 97.26 24.19 o
79 1 0 2 8 157.30 120.44 23.84 o
80 1 0 2 9 30.39 2.59 3.12 <
81 1 0 2 10 214.47 143.04 30.26 o
82 1 0 2 11 5.74 4.32 9.84 <
83 1 0 2 12 9.78 12.19 12.32 <
84 1 0 2 13 0.36 0.20 7.07 <
85 1 0 3 4 358.99 454.66 51.87 o
86 1 0 3 5 13.46 132.18 56.72 <
87 1 0 3 6 109.15 132.15 26.57 o
88 1 0 3 7 4.41 7.71 7.93 <
89 1 0 3 8 84.28 88.38 23.23 o
90 1 0 3 9 0.92 -4.28 5.84 <
91 1 0 3 10 12.50 3.31 5.19 <
92 1 0 3 11 0.59 -7.63 11.23 <
93 1 0 3 12 78.96 55.23 29.50 <
94 1 0 4 6 108.62 103.31 27.90 o
95 1 0 4 7 4.09 31.97 17.09 <
96 1 0 4 8 6.27 5.19 8.37 <
97 1 0 4 9 0.29 2.06 7.13 <
98 1 0 4 10 74.56 24.48 14.96 <
99 1 0 4 11 1.34 -2.48 3.40 <
100 1 0 5 8 32.48 14.14 13.01 <
101 1 0 5 9 4.64 0.51 12.85 <
102 1 -1 -6 -5 7.98 143.85 43.12 o
103 1 -1 -6 -6 22.14 55.45 25.19 <
104 1 -1 -6 -7 58.10 25.02 14.01 <
105 1 1 -5 -9 53.53 17.82 10.95 <
106 1 1 -5 -8 21.77 -1.84 2.96 <
107 1 -1 -5 -3 171.50 370.77 46.74 o
108 1 -1 -5 -4 248.13 442.85 57.20 o
109 1 -1 -5 -5 98.99 96.13 24.78 o
110 1 -1 -5 -6 40.18 25.67 12.81 <
111 1 -1 -5 -7 24.50 15.27 12.64 <
112 1 -1 -5 -8 8.99 8.54 2.73 o
113 1 -1 -5 -9 53.65 32.43 16.87 <
114 1 1 -4 -11 11.91 13.54 15.35 <
115 1 1 -4 -10 19.78 69.25 23.86 <
116 1 1 -4 -9 14.72 7.10 5.16 <
117 1 1 -4 -8 56.48 30.89 13.16 <
118 3 2 4 -6 63.57 45.83 17.31 <
118 1 1 -4 -7 63.57 45.83 17.31 <
119 1 -1 -4 -2 477.11 894.80 66.24 o
120 1 -1 -4 -3 500.55 800.67 63.37 o
121 1 -1 -4 -4 130.73 147.57 28.43 o
122 1 -1 -4 -5 22.92 21.47 12.12 <
123 1 -1 -4 -6 36.55 70.82 33.90 <
124 1 -1 -4 -7 54.18 37.85 15.20 <
125 1 -1 -4 -8 56.59 27.00 15.99 <
126 1 -1 -4 -9 23.61 8.21 5.36 <
127 1 -1 -4 -10 15.12 8.36 21.04 <
128 1 -1 -4 -11 14.40 2.93 4.70 <
129 1 1 -3 -12 14.97 -19.53 21.68 <
130 1 1 -3 -11 18.23 22.81 15.53 <
131 1 1 -3 -10 73.24 36.55 18.69 <
132 1 1 -3 -9 139.93 77.55 23.82 o
133 1 1 -3 -8 7.57 5.05 8.14 <
134 3 2 3 -6 99.83 72.00 17.91 o
134 1 1 -3 -7 99.83 72.00 17.91 o
135 1 1 -3 -6 139.93 254.88 40.64 o
136 1 1 -3 -5 344.49 257.76 41.68 o
137 3 1 3 1 758.70 737.27 51.07 o
137 1 -1 -3 -1 758.70 737.27 51.07 o
138 1 -1 -3 -2 455.98 856.02 54.77 o
139 1 -1 -3 -3 66.38 181.09 24.86 o
140 1 -1 -3 -4 861.75 1419.99 79.17 o
141 1 -1 -3 -5 330.51 407.72 42.76 o
142 1 -1 -3 -6 145.51 187.32 32.37 o
143 1 -1 -3 -7 81.59 64.90 20.17 o
144 1 -1 -3 -8 3.11 5.82 3.52 <
145 1 -1 -3 -9 103.88 66.35 22.63 <
146 1 -1 -3 -10 78.12 40.78 21.84 <
147 1 -1 -3 -11 28.38 27.69 11.28 <
148 1 -1 -3 -12 12.54 3.99 3.11 <
149 1 1 -2 -13 24.49 14.38 8.88 <
150 1 1 -2 -12 9.01 5.51 10.89 <
151 1 1 -2 -11 20.65 10.09 12.63 <
152 1 1 -2 -10 25.34 22.59 15.28 <
153 1 1 -2 -9 4.82 17.01 14.19 <
154 1 1 -2 -8 419.93 345.31 44.33 o
155 3 2 2 -6 219.57 228.65 33.84 o
155 1 1 -2 -7 219.57 228.65 33.84 o
156 1 1 -2 -6 170.49 255.17 38.26 o
157 1 1 -2 -5 92.28 119.70 23.75 o
158 1 1 -2 -4 396.54 580.44 56.08 o
159 3 1 2 1 408.11 250.58 23.95 o
159 1 -1 -2 -1 408.11 250.58 23.95 o
160 1 -1 -2 -2 1175.31 1394.27 58.11 o
161 1 -1 -2 -3 1374.08 1942.86 75.16 o
162 1 -1 -2 -4 383.48 648.83 48.79 o
163 1 -1 -2 -5 79.07 121.74 21.40 o
164 1 -1 -2 -6 147.85 242.79 37.46 o
165 1 -1 -2 -7 217.28 194.34 36.81 o
166 1 -1 -2 -8 449.31 262.71 43.44 o
167 1 -1 -2 -9 5.93 6.54 10.73 <
168 1 -1 -2 -10 28.67 13.99 12.42 <
169 1 -1 -2 -11 16.96 14.92 14.68 <
170 1 -1 -2 -12 11.63 -12.43 18.92 <
171 1 -1 -2 -13 22.98 42.04 25.51 <
172 1 1 -1 -13 6.12 2.21 8.09 <
173 1 1 -1 -12 8.19 8.07 12.54 <
174 1 -1 -1 12 8.19 11.44 15.06 <
175 1 1 -1 -11 18.94 30.22 20.50 <
176 1 -1 -1 11 18.94 8.79 7.69 <
177 1 1 -1 -10 140.55 119.23 34.15 o
178 1 -1 -1 10 140.55 59.07 23.46 <
179 1 -1 -1 9 138.15 91.53 27.92 o
180 1 1 -1 -9 138.15 165.51 35.21 o
181 1 1 -1 -8 24.71 14.17 1.43 o
182 1 -1 -1 8 24.71 5.44 6.17 <
183 3 2 1 -6 149.62 119.72 22.97 o
183 1 1 -1 -7 149.62 119.72 22.97 o
184 3 -2 1 6 149.62 76.35 19.24 o
184 1 -1 -1 7 149.62 76.35 19.24 o
185 1 1 -1 -6 305.91 463.23 46.00 o
186 1 -1 -1 6 305.91 423.00 46.99 o
187 1 1 -1 -5 334.92 358.18 34.71 o
188 1 -1 -1 5 334.92 330.63 33.50 o
189 1 1 -1 -4 1026.30 1087.74 64.85 o
190 1 -1 -1 4 1026.30 1132.38 50.38 o
191 1 1 -1 -3 438.38 618.76 48.12 o
192 1 -1 -1 3 438.38 655.62 31.57 o
193 3 1 1 1 1455.62 1179.43 40.15 o
193 1 -1 -1 -1 1455.62 1179.43 40.15 o
194 1 -1 -1 -2 156.33 189.50 21.01 o
195 1 -1 -1 -3 344.55 404.91 36.76 o
196 1 -1 -1 -4 916.06 1311.64 82.46 o
197 1 -1 -1 -5 462.63 372.07 44.85 o
198 1 -1 -1 -6 330.74 486.32 60.35 o
199 1 -1 0 13 24.26 16.50 17.37 <
200 1 -1 0 12 49.60 8.34 7.28 <
201 1 1 0 -11 2.95 11.58 16.75 <
202 1 -1 0 11 2.95 0.70 6.91 <
203 1 -1 0 10 44.12 23.74 12.86 <
204 1 1 0 -10 44.12 19.88 15.05 <
205 1 1 0 -9 291.61 248.99 49.97 o
206 1 -1 0 9 291.61 225.80 40.32 o
207 1 1 0 -8 269.11 215.22 38.77 o
208 1 -1 0 8 269.11 241.39 33.52 o
209 3 2 0 -6 387.35 137.58 31.99 o
209 1 1 0 -7 387.35 137.58 31.99 o
210 3 -2 0 6 387.35 162.68 26.82 o
210 1 -1 0 7 387.35 162.68 26.82 o
211 1 1 0 -6 31.35 38.06 14.03 <
212 1 -1 0 6 31.35 45.00 13.76 o
213 1 1 0 -5 516.89 515.15 41.90 o
214 1 -1 0 5 516.89 519.29 38.17 o
215 1 -1 0 4 35.27 33.54 7.43 o
216 1 1 0 -4 35.27 35.05 8.72 o
217 1 -1 0 3 30.88 57.78 10.07 o
218 1 1 0 -3 30.88 45.88 9.75 o
219 1 -1 0 2 435.84 383.51 27.83 o
220 1 1 0 -2 435.84 382.38 26.62 o
221 1 -1 1 13 6.43 -4.90 12.33 <
222 1 -1 1 12 8.17 -2.37 11.08 <
223 1 -1 1 11 18.21 16.95 12.08 <
224 1 -1 1 10 146.30 117.73 30.17 o
225 1 -1 1 9 134.02 112.95 27.18 o
226 1 -1 1 8 25.38 20.57 7.57 <
227 3 -2 -1 6 152.84 131.46 23.42 o
227 1 -1 1 7 152.84 131.46 23.42 o
228 1 -1 1 6 310.41 543.79 50.05 o
229 1 -1 1 5 349.48 378.23 35.45 o
230 1 -1 1 4 995.37 1138.74 69.52 o
231 1 -1 1 3 429.78 637.30 49.07 o
232 3 -1 -1 -1 1454.14 1177.34 38.15 o
232 1 1 1 1 1454.14 1177.34 38.15 o
233 1 1 1 2 152.24 186.59 19.96 o
234 1 1 1 3 352.07 421.07 35.76 o
235 1 1 1 4 945.98 1307.32 76.71 o
236 1 1 1 5 447.37 363.49 40.24 o
237 1 1 1 6 324.97 461.42 53.72 o
238 1 1 1 7 146.52 73.66 23.47 o
239 1 1 1 8 34.29 14.38 11.24 <
240 1 1 1 9 143.12 70.18 24.87 <
241 1 1 1 10 162.05 37.46 20.28 <
242 1 1 1 11 23.94 10.50 11.14 <
243 1 -1 2 13 25.93 22.72 16.39 <
244 1 -1 2 12 10.25 3.82 8.97 <
245 1 -1 2 11 20.25 15.75 16.15 <
246 1 -1 2 10 25.19 26.38 16.01 <
247 1 -1 2 9 4.88 6.69 9.00 <
248 1 -1 2 8 423.24 309.42 42.17 o
249 3 -2 -2 6 221.55 214.24 33.14 o
249 1 -1 2 7 221.55 214.24 33.14 o
250 1 -1 2 6 165.75 258.66 40.10 o
251 1 -1 2 5 92.76 118.78 25.16 o
252 3 -1 -2 -1 404.84 267.89 25.70 o
252 1 1 2 1 404.84 267.89 25.70 o
253 1 1 2 2 1166.14 1390.86 58.52 o
254 1 1 2 3 1368.81 1938.44 73.69 o
255 1 1 2 4 371.75 607.93 45.41 o
256 1 1 2 5 78.54 123.42 19.85 o
257 1 1 2 6 153.02 231.41 32.49 o
258 1 1 2 7 214.77 198.76 30.84 o
259 1 1 2 8 444.06 270.51 42.00 o
260 1 1 2 9 5.45 -0.25 7.74 <
261 1 1 2 10 28.81 2.11 4.17 <
262 1 1 2 11 17.25 16.99 15.23 <
263 1 1 2 12 10.82 -4.50 8.48 <
264 1 1 2 13 21.72 15.86 13.02 <
265 1 -1 3 12 15.37 -4.60 14.27 <
266 1 -1 3 11 19.64 17.74 14.23 <
267 1 -1 3 10 73.83 31.54 13.75 <
268 1 -1 3 9 141.69 86.13 29.34 <
269 1 -1 3 8 7.68 -0.64 8.90 <
270 3 -2 -3 6 100.26 78.40 21.18 o
270 1 -1 3 7 100.26 78.40 21.18 o
271 1 -1 3 6 141.11 226.95 39.54 o
272 1 1 3 3 69.20 207.21 28.73 o
273 1 1 3 4 860.69 1414.87 77.10 o
274 1 1 3 5 325.37 417.95 43.20 o
275 1 1 3 6 143.14 199.74 30.86 o
276 1 1 3 7 81.55 67.17 17.51 o
277 1 1 3 8 3.17 3.06 5.54 <
278 1 1 3 9 102.76 67.23 19.88 o
279 1 1 3 10 77.34 26.16 13.53 <
280 1 1 3 11 26.73 20.15 15.78 <
281 1 1 3 12 12.26 8.60 11.16 <
282 1 -1 4 11 11.75 -3.47 14.91 <
283 1 -1 4 10 20.08 88.35 29.90 <
284 1 -1 4 9 14.49 9.96 11.52 <
285 1 -1 4 8 55.72 40.58 18.16 <
286 1 1 4 4 131.57 167.21 31.98 o
287 1 1 4 5 23.20 29.76 14.45 <
288 1 1 4 6 34.71 115.14 40.95 <
289 1 1 4 7 53.26 79.61 23.83 o
290 1 1 4 8 57.47 17.06 16.60 <
291 1 1 4 9 23.57 3.94 4.38 <
292 1 1 4 10 14.78 19.63 13.96 <
293 1 1 4 11 14.48 12.90 13.76 <
294 1 1 5 6 40.98 43.62 20.64 <
295 1 1 5 7 24.32 25.57 15.35 <
296 1 1 5 8 9.09 3.59 10.61 <
297 1 1 5 9 53.98 27.57 19.02 <
298 3 2 6 2 39.36 25.24 14.68 <
298 1 -2 -6 -2 39.36 25.24 14.68 <
299 1 -2 -6 -3 11.71 20.64 12.94 <
300 1 -2 -6 -4 9.77 10.30 20.62 <
301 1 -2 -6 -5 118.67 163.55 34.50 o
302 1 -2 -6 -6 6.46 9.40 0.87 o
303 1 -2 -5 -1 202.33 272.04 34.48 o
304 3 2 5 2 9.57 16.60 6.69 <
304 1 -2 -5 -2 9.57 16.60 6.69 <
305 1 -2 -5 -3 312.23 609.66 55.55 o
306 1 -2 -5 -4 18.12 11.63 7.20 <
307 1 -2 -5 -5 7.71 5.00 4.60 <
308 1 -2 -5 -6 22.94 16.99 9.53 <
309 1 -2 -5 -7 141.21 138.22 35.25 o
310 1 -2 -5 -8 6.14 11.48 9.70 <
311 1 2 -4 -10 4.00 8.64 13.29 <
312 1 2 -4 -9 113.96 122.32 54.23 <
313 1 -2 -4 0 33.78 55.69 15.35 o
314 1 -2 -4 -1 507.76 636.61 46.91 o
315 3 2 4 2 435.35 384.20 35.01 o
315 1 -2 -4 -2 435.35 384.20 35.01 o
316 1 -2 -4 -3 230.77 398.32 40.53 o
317 1 -2 -4 -4 5.47 2.40 2.82 <
318 1 -2 -4 -5 796.79 795.16 72.20 o
319 1 -2 -4 -6 6.68 6.60 9.45 <
320 1 -2 -4 -7 18.12 17.76 12.78 <
321 1 -2 -4 -8 3.71 4.39 8.44 <
322 1 -2 -4 -9 100.28 99.01 34.50 <
323 1 -2 -4 -10 3.48 -8.23 13.11 <
324 3 3 3 -10 98.89 50.37 24.00 <
324 1 2 -3 -11 98.89 50.37 24.00 <
325 1 2 -3 -10 8.47 11.98 11.96 <
326 1 2 -3 -9 50.47 36.54 20.38 <
327 1 2 -3 -8 2.44 0.72 4.15 <
328 1 2 -3 -7 396.79 262.02 52.36 o
329 1 -2 -3 1 796.79 1255.38 43.68 o
330 1 -2 -3 0 21.29 23.22 8.25 <
331 1 -2 -3 -1 824.25 844.78 47.01 o
332 3 2 3 2 47.39 42.81 9.59 o
332 1 -2 -3 -2 47.39 42.81 9.59 o
333 1 -2 -3 -3 1083.23 1853.75 89.10 o
334 1 -2 -3 -4 0.28 -3.24 6.69 <
335 1 -2 -3 -5 26.50 13.41 7.12 <
336 1 -2 -3 -6 32.61 23.58 16.83 <
337 1 -2 -3 -7 472.02 462.54 63.55 o
338 1 -2 -3 -8 6.11 -4.79 5.60 <
339 1 -2 -3 -9 40.38 33.84 21.06 <
340 1 -2 -3 -10 5.23 0.21 6.79 <
341 1 -2 -3 -11 67.47 46.21 25.98 <
342 1 -2 -2 12 1.08 -2.58 6.10 <
343 1 2 -2 -12 1.08 3.92 7.58 <
344 3 3 2 -10 101.25 56.94 22.01 <
344 1 2 -2 -11 101.25 56.94 22.01 <
345 3 -3 2 10 101.25 23.39 13.18 <
345 1 -2 -2 11 101.25 23.39 13.18 <
346 1 2 -2 -10 3.80 -0.69 7.76 <
347 1 -2 -2 10 3.80 -0.40 6.76 <
348 1 2 -2 -9 93.27 114.94 25.70 o
349 1 -2 -2 9 93.27 39.00 16.08 <
350 1 -2 -2 8 16.84 -2.59 7.09 <
351 1 2 -2 -8 16.84 1.32 1.56 <
352 1 2 -2 -7 49.79 61.20 14.96 o
353 1 -2 -2 7 49.79 32.73 9.61 o
354 3 1 2 -7 290.88 13.76 10.49 <
354 1 2 -2 -6 290.88 13.76 10.49 <
355 3 -1 2 7 290.88 9.23 7.62 <
355 1 -2 -2 6 290.88 9.23 7.62 <
356 1 -2 -2 5 845.01 563.24 37.81 o
357 1 -2 -2 4 133.05 70.76 10.22 o
358 1 -2 -1 13 21.57 7.95 10.08 <
359 1 2 -1 -13 21.57 26.49 20.04 <
360 1 -2 -1 12 1.07 -0.09 7.87 <
361 1 2 -1 -12 1.07 -1.02 7.55 <
362 3 -3 1 10 83.71 10.88 11.38 <
362 1 -2 -1 11 83.71 10.88 11.38 <
363 3 3 1 -10 83.71 14.77 11.35 <
363 1 2 -1 -11 83.71 14.77 11.35 <
364 1 -2 -1 10 17.32 3.74 2.84 <
365 1 2 -1 -10 17.32 -1.88 8.20 <
366 1 -2 -1 9 142.80 60.69 18.71 o
367 1 2 -1 -9 142.80 118.35 27.22 o
368 1 -2 -1 8 4.71 -1.83 7.24 <
369 1 2 -1 -8 4.71 3.65 2.50 <
370 1 2 -1 -7 279.64 365.26 41.30 o
371 1 -2 -1 7 279.64 251.81 32.39 o
372 3 1 1 -7 182.96 32.65 14.20 <
372 1 2 -1 -6 182.96 32.65 14.20 <
373 3 -1 1 7 182.96 19.77 8.68 <
373 1 -2 -1 6 182.96 19.77 8.68 <
374 1 2 -1 -5 135.92 139.02 21.70 o
375 1 -2 -1 5 135.92 104.91 15.94 o
376 1 -2 -1 4 23.19 19.67 5.63 o
377 1 2 -1 -4 23.19 2.25 7.13 <
378 1 2 0 -13 0.49 -0.86 6.47 <
379 1 -2 0 13 0.49 -4.34 10.26 <
380 1 2 0 -12 7.08 2.22 1.08 <
381 1 -2 0 12 7.08 -3.16 10.85 <
382 3 3 0 -10 86.56 21.50 15.33 <
382 1 2 0 -11 86.56 21.50 15.33 <
383 3 -3 0 10 86.56 21.29 13.76 <
383 1 -2 0 11 86.56 21.29 13.76 <
384 1 -2 0 10 0.37 6.33 8.86 <
385 1 2 0 -10 0.37 7.94 9.18 <
386 1 2 0 -9 3.07 4.90 14.15 <
387 1 -2 0 9 3.07 1.31 3.46 <
388 1 -2 0 8 69.85 37.50 11.44 o
389 1 2 0 -8 69.85 41.35 17.64 <
390 1 -2 0 7 10.09 13.58 3.73 o
391 1 2 0 -7 10.09 15.40 5.11 o
392 3 -1 0 7 401.14 273.33 32.42 o
392 1 -2 0 6 401.14 273.33 32.42 o
393 3 1 0 -7 401.14 272.31 32.92 o
393 1 2 0 -6 401.14 272.31 32.92 o
394 1 -2 0 5 543.26 526.29 47.99 o
395 1 2 0 -5 543.26 579.48 40.68 o
396 1 2 0 -4 96.32 86.44 14.44 o
397 1 2 0 -3 224.28 75.91 18.18 o
398 1 -2 1 13 20.35 8.03 7.08 <
399 1 -2 1 12 1.01 9.63 14.08 <
400 3 -3 -1 10 81.51 7.94 4.87 <
400 1 -2 1 11 81.51 7.94 4.87 <
401 1 -2 1 10 17.41 3.72 10.84 <
402 1 -2 1 9 143.43 103.43 23.45 o
403 1 2 1 -9 143.43 68.67 26.75 <
404 1 2 1 -8 4.59 -2.21 6.54 <
405 1 -2 1 8 4.59 -0.47 6.78 <
406 1 -2 1 7 282.13 379.39 47.62 o
407 1 2 1 -7 282.13 231.13 40.14 o
408 3 1 -1 -7 179.02 15.46 10.04 <
408 1 2 1 -6 179.02 15.46 10.04 <
409 3 -1 -1 7 179.02 40.70 15.68 <
409 1 -2 1 6 179.02 40.70 15.68 <
410 1 2 1 -5 135.62 125.67 18.89 o
411 1 2 1 -4 23.42 21.01 5.29 o
412 1 2 1 -3 109.87 84.94 9.57 o
413 1 -2 2 12 1.09 -5.84 13.43 <
414 3 -3 -2 10 101.92 45.91 21.14 <
414 1 -2 2 11 101.92 45.91 21.14 <
415 1 -2 2 10 3.90 -0.48 9.20 <
416 1 -2 2 9 92.80 107.11 27.76 o
417 1 -2 2 8 16.67 2.99 6.36 <
418 1 -2 2 7 47.23 51.05 14.73 o
419 1 2 2 1 966.53 921.42 41.97 o
420 3 -2 -2 -2 315.93 168.34 20.20 o
420 1 2 2 2 315.93 168.34 20.20 o
421 1 2 2 3 55.49 57.71 15.48 o
422 1 2 2 4 111.75 103.58 21.02 o
423 1 2 2 5 804.30 770.85 67.45 o
424 1 2 2 6 3.38 23.51 14.62 <
425 1 2 2 7 54.60 36.05 14.82 <
426 1 2 2 8 10.36 -0.56 5.00 <
427 1 2 2 9 116.33 62.25 27.22 <
428 1 2 2 10 5.99 -2.22 1.63 <
429 1 2 2 11 115.42 31.23 20.57 <
430 3 -3 -3 10 99.60 32.38 21.55 <
430 1 -2 3 11 99.60 32.38 21.55 <
431 1 -2 3 10 8.30 9.38 11.29 <
432 1 -2 3 9 47.43 40.47 17.06 <
433 1 2 3 1 831.23 847.75 51.62 o
434 3 -2 -3 -2 47.56 41.51 7.85 o
434 1 2 3 2 47.56 41.51 7.85 o
435 1 2 3 3 1090.33 1868.96 79.19 o
436 1 2 3 4 0.27 -1.77 1.08 <
437 1 2 3 5 26.52 21.03 6.18 o
438 1 2 3 6 32.29 22.16 12.64 <
439 1 2 3 7 471.17 552.47 57.87 o
440 1 2 3 8 5.85 0.83 6.60 <
441 1 2 3 9 43.00 24.88 13.67 <
442 1 2 3 10 5.43 1.95 2.16 <
443 1 2 3 11 67.68 26.36 16.97 <
444 1 2 4 3 232.90 423.52 42.98 o
445 1 2 4 4 5.53 4.08 6.43 <
446 1 2 4 5 797.66 892.89 63.93 o
447 1 2 4 6 6.44 3.21 5.21 <
448 1 2 4 7 19.36 20.60 12.06 <
449 1 2 4 8 3.70 -1.54 7.72 <
450 1 2 4 9 100.64 68.69 23.12 <
451 1 2 4 10 3.52 -7.28 3.35 <
452 1 2 5 5 7.65 6.12 7.76 <
453 1 2 5 6 22.51 26.74 16.31 <
454 1 2 5 7 142.07 157.52 36.16 o
455 1 2 5 8 6.20 12.75 13.77 <
456 1 -3 -6 1 56.65 128.99 24.11 o
457 1 -3 -6 0 0.21 22.41 11.77 <
458 1 -3 -6 -1 62.69 107.40 21.38 o
459 1 -3 -6 -2 49.22 89.98 24.19 o
460 1 -3 -6 -3 129.43 107.82 22.68 o
461 1 -3 -6 -4 17.24 17.77 8.22 <
462 1 -3 -5 2 10.98 1.96 2.31 <
463 1 -3 -5 1 134.53 135.51 19.20 o
464 1 -3 -5 0 42.76 52.64 12.82 o
465 1 -3 -5 -1 106.80 131.19 22.08 o
466 1 -3 -5 -2 3.14 -6.05 8.55 <
467 1 -3 -5 -3 7.13 2.84 1.28 <
468 1 -3 -5 -4 53.07 39.83 17.80 <
469 1 -3 -5 -5 91.46 51.29 18.35 <
470 1 -3 -5 -6 46.23 27.18 13.48 <
471 1 -3 -5 -7 54.99 41.26 21.28 <
472 1 -3 -4 2 118.65 142.64 16.25 o
473 1 -3 -4 1 4.67 25.56 8.11 o
474 1 -3 -4 0 2.89 -6.94 5.14 <
475 1 -3 -4 -1 1.04 -7.35 6.92 <
476 1 -3 -4 -2 161.22 444.43 54.49 o
477 1 -3 -4 -3 222.92 157.99 28.24 o
478 1 -3 -4 -4 10.70 4.52 6.42 <
479 1 -3 -4 -5 3.34 -1.13 5.79 <
480 1 -3 -4 -6 8.53 3.48 5.85 <
481 1 -3 -4 -7 61.75 43.44 22.87 <
482 1 -3 -4 -8 48.42 27.62 22.04 <
483 1 -3 -4 -9 28.92 24.28 18.66 <
484 1 -3 -3 11 40.95 22.04 14.90 <
485 3 2 3 -11 113.22 18.45 14.73 <
485 1 3 -3 -10 113.22 18.45 14.73 <
486 3 -2 3 11 113.22 7.41 5.07 <
486 1 -3 -3 10 113.22 7.41 5.07 <
487 1 -3 -3 9 45.62 20.10 10.57 <
488 1 -3 -3 8 13.74 9.89 11.06 <
489 1 -3 -3 7 64.95 10.43 5.57 <
490 1 -3 -3 6 61.51 14.92 8.85 <
491 1 -3 -3 5 52.19 10.77 4.22 <
492 1 -3 -2 11 15.08 11.31 14.77 <
493 1 3 -2 -11 15.08 14.75 14.41 <
494 3 -2 2 11 115.71 11.52 13.04 <
494 1 -3 -2 10 115.71 11.52 13.04 <
495 3 2 2 -11 115.71 14.62 10.56 <
495 1 3 -2 -10 115.71 14.62 10.56 <
496 1 3 -2 -9 66.58 97.96 28.95 o
497 1 -3 -2 9 66.58 35.13 13.39 <
498 1 -3 -2 8 41.36 10.93 4.46 <
499 1 3 -2 -8 41.36 40.60 17.41 <
500 1 -3 -2 7 68.90 35.34 15.51 <
501 1 -3 -2 6 3.61 6.80 6.66 <
502 1 3 -1 -12 1.49 1.86 2.93 <
503 1 -3 -1 12 1.49 -5.85 8.97 <
504 1 -3 -1 11 13.63 12.94 12.93 <
505 1 3 -1 -11 13.63 15.93 14.79 <
506 3 -2 1 11 72.55 30.62 17.60 <
506 1 -3 -1 10 72.55 30.62 17.60 <
507 3 2 1 -11 72.55 52.99 18.97 <
507 1 3 -1 -10 72.55 52.99 18.97 <
508 1 -3 -1 9 143.79 181.81 33.72 o
509 1 3 -1 -9 143.79 273.47 44.65 o
510 1 -3 -1 8 12.68 2.71 6.53 <
511 1 3 -1 -8 12.68 8.32 5.68 <
512 1 -3 -1 7 98.97 75.30 17.42 o
513 1 3 -1 -7 98.97 125.93 24.38 o
514 1 -3 -1 6 61.61 68.97 21.64 o
515 1 3 -1 -6 61.61 22.23 19.92 <
516 1 3 0 -12 2.35 -0.78 8.02 <
517 1 -3 0 12 2.35 2.88 8.63 <
518 1 3 0 -11 39.06 12.29 12.51 <
519 1 -3 0 11 39.06 12.80 10.69 <
520 3 -2 0 11 103.35 4.71 5.17 <
520 1 -3 0 10 103.35 4.71 5.17 <
521 3 2 0 -11 103.35 9.10 8.64 <
521 1 3 0 -10 103.35 9.10 8.64 <
522 1 -3 0 9 3.91 12.47 11.16 <
523 1 3 0 -9 3.91 11.75 7.98 <
524 1 -3 0 8 220.40 210.03 33.96 o
525 1 3 0 -8 220.40 218.41 31.50 o
526 1 -3 0 7 337.70 444.72 48.06 o
527 1 3 0 -7 337.70 414.07 41.01 o
528 1 3 0 -6 328.78 361.10 36.74 o
529 1 3 0 -5 3.75 1.19 5.74 <
530 1 3 1 -12 1.38 -4.69 11.61 <
531 1 -3 1 12 1.38 0.64 6.73 <
532 1 3 1 -11 12.57 15.68 17.02 <
533 1 -3 1 11 12.57 16.20 13.50 <
534 3 -2 -1 11 74.72 62.03 23.50 <
534 1 -3 1 10 74.72 62.03 23.50 <
535 3 2 -1 -11 74.72 29.01 18.12 <
535 1 3 1 -10 74.72 29.01 18.12 <
536 1 -3 1 9 141.91 300.29 50.76 o
537 1 3 1 -9 141.91 177.01 43.52 o
538 1 -3 1 8 13.35 13.47 6.67 <
539 1 3 1 -8 13.35 0.95 6.26 <
540 1 3 1 -7 96.64 82.71 18.98 o
541 1 3 1 -6 58.24 73.95 19.25 o
542 1 3 1 -5 390.59 483.07 33.16 o
543 1 3 1 -4 394.72 503.90 35.39 o
544 1 -3 2 11 14.62 13.70 17.14 <
545 3 -2 -2 11 114.94 23.00 19.01 <
545 1 -3 2 10 114.94 23.00 19.01 <
546 1 3 3 0 33.63 11.83 7.33 <
547 1 3 3 1 189.05 150.40 19.42 o
548 1 3 3 2 8.15 5.28 3.51 <
549 1 3 3 3 53.35 46.19 13.33 o
550 1 3 3 4 129.16 105.34 22.46 o
551 1 3 3 5 82.04 37.05 14.62 <
552 1 3 3 6 48.33 29.43 14.45 <
553 1 3 3 7 65.22 17.84 11.04 <
554 1 3 3 8 13.95 7.51 6.92 <
555 1 3 3 9 40.08 16.22 11.84 <
556 1 3 3 10 20.89 24.15 19.18 <
557 1 3 3 11 28.74 29.46 21.19 <
558 1 3 4 2 158.94 422.47 48.62 o
559 1 3 4 3 223.16 170.39 24.09 o
560 1 3 4 4 9.89 3.00 3.84 <
561 1 3 4 5 3.22 0.64 2.13 <
562 1 3 4 6 7.52 -0.98 5.15 <
563 1 3 4 7 60.99 44.68 18.48 <
564 1 3 4 8 48.27 19.53 12.12 <
565 1 3 4 9 28.30 15.98 15.43 <
566 1 3 5 3 7.22 6.57 6.23 <
567 1 3 5 4 53.79 40.12 13.61 <
568 1 3 5 5 89.85 63.73 18.06 o
569 1 3 5 6 45.48 27.22 12.18 <
570 1 3 5 7 54.13 36.70 15.41 <
571 1 -4 -4 8 16.25 6.07 3.77 <
572 1 -4 -4 7 6.60 1.07 0.65 <
573 1 -4 -3 9 7.38 2.02 1.49 <
574 1 -4 -3 8 26.79 1.49 5.95 <
575 1 4 -2 -10 46.86 21.83 15.99 <
576 1 -4 -2 10 46.86 13.83 8.89 <
577 1 -4 -2 9 4.87 6.99 7.65 <
578 1 -4 -1 11 4.36 -4.07 8.24 <
579 1 4 -1 -10 5.20 5.33 5.89 <
580 1 -4 -1 10 5.20 6.95 9.53 <
581 1 4 -1 -9 2.77 2.11 7.44 <
582 1 4 -1 -8 69.54 30.52 17.47 <
583 1 -4 0 11 3.99 1.68 3.18 <
584 1 4 0 -11 3.99 2.36 0.49 o
585 1 4 0 -10 141.20 167.79 37.49 o
586 1 4 0 -9 15.39 8.38 15.59 <
587 1 4 0 -8 40.15 27.27 8.55 o
588 1 4 0 -7 6.17 9.33 8.24 <
589 1 4 0 -6 219.26 26.94 18.13 <
590 1 4 1 -11 4.28 9.14 11.65 <
591 1 4 1 -10 5.15 3.12 4.98 <
592 1 4 1 -9 2.64 1.49 3.00 <
593 1 4 1 -8 71.68 56.42 15.36 o
594 1 4 1 -7 5.87 10.61 6.09 <
595 1 4 1 -6 284.63 355.15 35.98 o
596 1 4 1 -5 14.89 7.16 2.63 <
597 1 4 2 -7 3.66 5.48 1.33 o
598 1 4 2 -6 70.28 66.20 13.37 o
599 1 4 2 -5 13.12 8.53 2.80 o
600 1 4 2 -4 66.52 21.41 7.46 <
601 1 4 3 0 6.25 -10.94 7.06 <
602 1 4 3 1 9.92 -7.18 8.89 <
603 1 4 3 2 251.95 52.84 17.49 o
604 1 4 3 3 16.53 -5.30 6.71 <
605 1 4 3 4 115.94 35.49 18.31 <
606 1 4 3 5 24.56 5.53 7.37 <
607 1 4 4 1 3.24 15.04 6.50 <
608 1 4 4 2 6.25 -2.42 6.36 <
609 1 4 4 3 4.30 0.41 3.98 <
610 1 4 4 4 36.56 12.91 9.21 <
611 1 4 4 5 6.17 1.91 2.48 <
612 1 4 4 6 148.59 65.79 22.09 <
613 1 4 4 7 10.12 6.82 9.56 <
614 1 4 5 3 9.55 3.83 1.79 <
615 1 4 5 4 46.85 12.92 7.14 <
616 1 4 5 5 2.72 5.79 9.97 <
617 1 5 0 -9 1.89 0.32 6.51 <
618 1 5 0 -8 17.08 11.26 14.87 <
619 1 5 1 -9 11.85 1.44 7.63 <
620 1 5 1 -8 1.96 -3.88 6.25 <
621 1 5 1 -7 4.81 2.42 4.46 <
622 1 5 1 -6 24.06 10.39 15.53 <
623 1 5 2 -8 46.77 35.05 13.06 <
624 1 5 2 -7 17.26 15.43 8.25 <
625 1 5 2 -6 18.21 13.90 6.60 <
626 1 5 2 -5 12.33 1.59 2.42 <
627 1 5 4 0 0.04 -2.89 2.86 <
628 1 5 4 1 5.87 -6.94 5.84 <
629 1 5 4 2 113.98 21.53 11.82 <
630 1 5 4 3 53.93 -2.54 4.24 <
631 1 5 4 4 9.71 0.96 4.25 <
632 1 5 4 5 5.57 2.76 6.90 <
633 2 0 -5 8 41.71 16.31 6.92 <
634 2 0 -5 9 5.98 -6.19 5.48 <
635 2 0 -4 6 141.35 130.26 14.82 o
636 2 0 -4 7 5.61 133.53 21.41 o
637 2 0 -4 8 7.75 10.67 5.17 <
638 2 0 -4 9 0.36 2.38 2.63 <
639 2 0 -4 10 95.64 95.98 15.53 o
640 2 0 -4 11 1.75 1.11 0.99 <
641 2 0 -3 4 459.49 461.39 24.87 o
642 2 0 -3 5 17.09 23.87 8.40 <
643 2 0 -3 6 141.07 149.64 14.98 o
644 2 0 -3 7 5.66 27.98 9.34 <
645 2 0 -3 8 107.64 156.19 16.93 o
646 2 0 -3 9 1.25 0.21 2.75 <
647 2 0 -3 10 16.04 27.56 9.37 <
648 2 0 -3 11 0.76 1.76 1.41 <
649 3 5 -3 -6 149.06 174.50 22.18 o
649 2 0 -3 12 149.06 174.50 22.18 o
650 2 0 -2 3 45.57 44.83 8.96 o
651 2 0 -2 4 1055.00 903.95 30.95 o
652 2 0 -2 5 248.63 240.97 17.24 o
653 2 0 -2 6 1159.84 1248.17 40.83 o
654 2 0 -2 7 2.34 173.19 22.65 o
655 2 0 -2 8 201.74 205.53 17.33 o
656 2 0 -2 9 39.03 18.48 5.01 o
657 2 0 -2 10 275.03 417.31 29.62 o
658 2 0 -2 11 7.32 -0.42 0.43 <
659 3 5 -2 -6 36.48 27.40 8.91 o
659 2 0 -2 12 36.48 27.40 8.91 o
660 2 0 -2 13 0.48 2.09 2.54 <
661 2 0 -1 1 13.90 16.98 2.22 o
662 2 0 -1 3 259.18 243.07 12.13 o
663 2 0 -1 4 1233.69 1219.30 31.53 o
664 2 0 -1 5 178.59 124.49 10.45 o
665 2 0 -1 6 1647.88 1490.24 41.11 o
666 2 0 -1 7 4.99 47.62 11.36 o
667 2 0 -1 8 746.35 915.16 37.44 o
668 2 0 -1 9 55.03 32.61 7.58 o
669 2 0 -1 10 1.70 -5.29 4.08 <
670 2 0 -1 11 5.27 -1.33 4.22 <
671 3 5 -1 -6 160.63 174.63 20.68 o
671 2 0 -1 12 160.63 174.63 20.68 o
672 2 0 -1 13 20.83 7.68 3.69 <
673 2 0 0 -2 540.09 336.70 12.27 o
674 2 0 0 2 540.09 341.05 11.83 o
675 2 0 0 -3 0.64 0.54 0.82 <
676 2 0 0 3 0.64 -0.84 1.34 <
677 2 0 0 -4 247.39 172.56 14.10 o
678 2 0 0 4 247.39 161.49 12.50 o
679 2 0 0 -5 0.22 -0.85 3.07 <
680 2 0 0 5 0.22 -2.17 1.41 <
681 2 0 0 6 1089.36 934.54 33.11 o
682 2 0 0 -6 1089.36 921.82 38.86 o
683 2 0 0 7 6.68 352.22 33.47 o
684 2 0 0 -7 6.68 404.83 42.24 o
685 2 0 0 8 145.38 89.99 11.80 o
686 2 0 0 -8 145.38 73.83 12.27 o
687 2 0 0 -9 0.56 -7.75 7.39 <
688 2 0 0 9 0.56 -2.15 2.06 <
689 2 0 0 -10 353.72 267.74 28.08 o
690 2 0 0 10 353.72 343.10 27.05 o
691 2 0 0 11 0.52 8.96 5.47 <
692 3 5 0 -6 15.75 8.70 5.88 <
692 2 0 0 12 15.75 8.70 5.88 <
693 2 0 0 13 0.28 -7.90 5.92 <
694 2 0 1 -1 13.72 16.52 2.40 o
695 2 0 1 -2 4028.76 3193.71 38.56 o
696 2 0 1 -3 259.17 246.29 12.60 o
697 2 0 1 -4 1235.86 1237.63 32.10 o
698 2 0 1 -5 178.63 129.47 11.21 o
699 2 0 1 -6 1649.30 1475.10 43.37 o
700 2 0 1 -7 4.99 53.53 12.02 o
701 2 0 1 -8 747.06 910.68 41.14 o
702 2 0 1 -9 55.06 29.39 7.50 o
703 2 0 1 -10 1.67 -4.15 5.01 <
704 2 0 1 -11 5.26 5.71 3.84 <
705 3 -5 1 6 161.18 129.35 20.71 o
705 2 0 1 -12 161.18 129.35 20.71 o
706 2 0 1 -13 20.81 11.57 7.87 <
707 2 0 2 -2 250.24 365.15 17.45 o
708 2 0 2 -3 45.11 41.88 8.55 o
709 2 0 2 -4 1057.87 802.21 27.50 o
710 2 0 2 -5 248.62 206.46 15.44 o
711 2 0 2 -6 1162.07 1157.54 38.81 o
712 2 0 2 -7 2.42 187.85 24.55 o
713 2 0 2 -8 202.04 222.32 19.32 o
714 2 0 2 -9 39.03 13.58 4.74 <
715 2 0 2 -10 275.47 391.71 30.75 o
716 2 0 2 -11 7.37 -0.35 3.09 <
717 3 -5 2 6 36.68 20.49 5.64 o
717 2 0 2 -12 36.68 20.49 5.64 o
718 2 0 2 -13 0.46 3.81 2.65 <
719 2 0 3 -3 424.82 552.35 26.64 o
720 2 0 3 -4 461.10 476.02 25.31 o
721 2 0 3 -5 17.29 24.55 8.78 <
722 2 0 3 -6 140.20 142.63 14.42 o
723 2 0 3 -7 5.66 21.15 7.36 <
724 2 0 3 -8 108.25 121.77 14.32 o
725 2 0 3 -9 1.18 7.40 4.46 <
726 2 0 3 -10 16.06 18.53 5.94 o
727 2 0 3 -11 0.76 -10.07 7.25 <
728 3 -5 3 6 150.96 149.81 21.30 o
728 2 0 3 -12 150.96 149.81 21.30 o
729 2 0 4 -5 5.06 -0.30 3.63 <
730 2 0 4 -6 139.52 123.52 14.48 o
731 2 0 4 -7 5.26 119.82 18.14 o
732 2 0 4 -8 8.05 9.59 3.91 <
733 2 0 4 -9 0.38 -2.20 4.61 <
734 2 0 4 -10 95.77 73.38 12.99 o
735 2 0 4 -11 1.71 4.77 4.16 <
736 2 0 5 -6 26.47 0.30 3.83 <
737 2 0 5 -7 0.54 4.48 4.75 <
738 2 0 5 -8 41.71 3.38 8.32 <
739 2 0 5 -9 5.96 0.00 3.18 <
740 2 -1 -5 9 68.76 89.50 15.16 o
741 2 -1 -5 8 27.97 30.29 8.57 o
742 2 -1 -5 7 28.99 30.98 8.75 o
743 2 -1 -5 6 42.40 55.82 12.29 o
744 2 -1 -4 11 15.30 19.20 6.93 <
745 2 -1 -4 10 25.40 24.85 9.88 <
746 2 -1 -4 9 18.91 15.85 6.53 <
747 2 -1 -4 8 72.55 62.15 11.52 o
748 2 -1 -4 7 75.05 69.19 11.04 o
749 2 -1 -4 6 30.42 32.78 11.33 <
750 2 -1 -4 5 39.53 32.21 7.02 o
751 2 -1 -4 4 113.85 169.92 16.05 o
752 2 1 -4 8 72.68 71.97 12.26 o
753 2 1 -4 9 30.33 3.49 2.90 <
754 2 1 -4 10 19.41 50.19 13.23 o
755 2 1 -4 11 18.49 21.13 7.78 <
756 2 -1 -3 12 19.23 8.89 4.48 <
757 2 -1 -3 11 23.42 47.92 11.65 o
758 2 -1 -3 10 94.07 81.34 12.99 o
759 2 -1 -3 9 179.73 160.69 17.74 o
760 2 -1 -3 8 9.73 7.09 3.94 <
761 2 -1 -3 7 93.55 92.58 11.79 o
762 2 -1 -3 6 179.73 227.15 19.14 o
763 2 -1 -3 5 442.47 467.51 26.27 o
764 2 -1 -3 4 1026.34 1400.99 43.57 o
765 2 -1 -3 3 213.68 191.18 14.56 o
766 2 -1 -3 2 660.78 803.88 28.37 o
767 2 1 -3 6 186.90 256.12 21.75 o
768 2 1 -3 7 104.80 102.14 13.16 o
769 2 1 -3 8 3.99 6.61 3.92 <
770 2 1 -3 9 133.43 151.19 17.36 o
771 2 1 -3 10 100.34 102.43 15.61 o
772 2 1 -3 11 36.45 67.46 14.40 o
773 2 1 -3 12 16.10 8.74 3.54 <
774 2 -1 -2 13 31.46 52.10 12.76 o
775 2 -1 -2 12 11.57 9.27 2.76 o
776 2 -1 -2 11 26.52 21.68 7.07 o
777 2 -1 -2 10 32.55 31.35 8.84 o
778 2 -1 -2 9 6.20 13.78 5.70 <
779 2 -1 -2 8 539.38 549.77 30.56 o
780 2 -1 -2 7 281.17 302.80 21.26 o
781 2 -1 -2 6 218.98 239.07 18.58 o
782 2 -1 -2 5 118.53 124.23 11.48 o
783 2 -1 -2 4 509.33 540.22 23.55 o
784 2 -1 -2 3 1713.97 1834.77 40.56 o
785 2 -1 -2 2 1355.77 1505.96 32.51 o
786 2 -1 -2 1 332.59 292.55 13.28 o
787 2 1 -2 5 101.56 138.96 12.92 o
788 2 1 -2 6 189.90 284.44 21.28 o
789 2 1 -2 7 279.09 318.47 21.81 o
790 2 1 -2 8 577.11 621.69 32.47 o
791 2 1 -2 9 7.61 5.73 2.37 <
792 2 1 -2 10 36.83 58.31 11.50 o
793 2 1 -2 11 21.78 30.25 9.17 o
794 2 1 -2 12 14.94 14.92 6.84 <
795 2 1 -2 13 29.52 46.98 11.91 o
796 2 -1 -1 13 7.87 7.28 4.82 <
797 2 -1 -1 12 10.53 9.76 5.32 <
798 2 -1 -1 11 24.33 16.86 6.73 <
799 2 -1 -1 10 180.54 210.73 22.81 o
800 2 -1 -1 9 177.45 227.05 21.45 o
801 2 -1 -1 8 31.74 34.10 6.61 o
802 2 -1 -1 7 151.71 165.42 16.46 o
803 2 -1 -1 6 392.92 547.52 30.58 o
804 2 -1 -1 5 430.19 391.64 21.45 o
805 2 -1 -1 4 1318.22 1161.82 35.32 o
806 2 -1 -1 3 563.08 410.23 18.59 o
807 2 -1 -1 2 174.77 188.81 10.69 o
808 2 -1 -1 1 1196.80 1378.19 24.78 o
809 2 1 -1 3 442.56 385.82 17.35 o
810 2 1 -1 4 1176.63 1121.98 32.85 o
811 2 1 -1 5 594.22 474.77 21.51 o
812 2 1 -1 6 424.82 636.27 29.01 o
813 2 1 -1 7 192.69 195.66 15.32 o
814 2 1 -1 8 44.55 32.77 5.58 o
815 2 1 -1 9 178.54 190.60 16.25 o
816 2 1 -1 10 216.42 271.04 21.96 o
817 2 1 -1 11 28.88 27.23 8.21 o
818 2 1 -1 12 7.18 13.33 5.35 <
819 2 1 -1 13 13.10 31.26 11.91 <
820 2 -1 0 -2 552.82 537.16 14.25 o
821 2 -1 0 -3 31.09 38.59 4.05 o
822 2 1 0 3 31.09 48.53 4.52 o
823 2 -1 0 -4 71.46 39.94 4.83 o
824 2 1 0 4 71.46 40.71 4.47 o
825 2 1 0 5 760.14 653.92 22.09 o
826 2 -1 0 -5 760.14 661.60 23.17 o
827 2 1 0 6 64.97 48.11 7.07 o
828 2 -1 0 -6 64.97 49.62 7.88 o
829 2 -1 0 -7 312.95 281.41 19.11 o
830 2 1 0 7 312.95 285.68 17.58 o
831 2 -1 0 -8 438.31 446.78 26.90 o
832 2 1 0 8 438.31 454.10 23.73 o
833 2 -1 0 -9 297.76 306.18 24.34 o
834 2 1 0 9 297.76 338.69 21.57 o
835 2 1 0 10 70.45 88.18 12.79 o
836 2 -1 0 -10 70.45 125.02 18.55 o
837 2 -1 0 -11 7.78 9.62 7.60 <
838 2 1 0 11 7.78 5.51 4.45 <
839 2 -1 0 -12 36.78 40.11 11.87 o
840 2 1 0 12 36.78 49.24 10.49 o
841 2 1 0 13 34.99 44.00 10.93 o
842 2 -1 0 -13 34.99 24.13 10.05 <
843 2 1 1 -11 23.39 18.29 8.29 <
844 2 1 1 -10 187.92 141.54 23.22 o
845 2 1 1 -9 172.14 173.93 21.92 o
846 2 1 1 -8 32.61 22.02 5.60 o
847 2 1 1 -7 155.17 155.68 17.94 o
848 2 1 1 -6 398.71 525.18 33.76 o
849 2 1 1 -5 448.88 414.41 25.16 o
850 2 1 1 -4 1278.50 1213.03 41.18 o
851 2 1 1 -3 552.03 437.56 21.60 o
852 2 1 1 -2 179.74 206.03 12.58 o
853 2 1 1 -1 1190.01 1510.18 27.76 o
854 2 -1 1 -3 452.21 414.02 18.27 o
855 2 1 1 3 452.21 420.33 11.79 o
856 2 -1 1 -4 1215.05 1244.74 35.66 o
857 2 1 1 4 1215.05 1265.70 26.04 o
858 2 -1 1 -5 574.62 400.48 18.81 o
859 2 1 1 5 574.62 381.58 16.51 o
860 2 -1 1 -6 417.40 547.18 25.63 o
861 2 1 1 6 417.40 533.24 23.41 o
862 2 1 1 7 188.20 157.49 13.56 o
863 2 -1 1 -7 188.20 177.40 14.68 o
864 2 -1 1 -8 44.05 34.89 5.96 o
865 2 1 1 8 44.05 28.90 5.56 o
866 2 -1 1 -9 183.83 205.73 18.54 o
867 2 1 1 9 183.83 186.04 17.36 o
868 2 1 1 10 208.15 258.75 22.66 o
869 2 -1 1 -10 208.15 294.88 25.76 o
870 2 1 1 11 30.75 21.99 7.52 <
871 2 -1 1 -11 30.75 23.31 8.02 <
872 2 1 1 12 7.22 12.51 6.29 <
873 2 -1 1 -12 7.22 11.25 5.11 <
874 2 1 1 13 12.58 7.32 3.11 <
875 2 -1 1 -13 12.58 0.60 2.86 <
876 2 1 2 -13 33.30 44.04 12.74 o
877 2 1 2 -12 13.17 10.89 8.12 <
878 2 1 2 -11 26.01 11.37 5.40 <
879 2 1 2 -10 32.35 20.43 8.36 <
880 2 1 2 -9 6.27 17.61 6.69 <
881 2 1 2 -8 543.63 488.54 31.26 o
882 2 1 2 -7 283.77 296.59 23.10 o
883 2 1 2 -6 212.89 237.91 20.28 o
884 2 1 2 -5 119.14 124.00 12.20 o
885 2 1 2 -4 522.49 558.66 24.61 o
886 2 1 2 -3 1722.76 1849.85 41.02 o
887 2 1 2 -2 1363.82 1423.17 30.81 o
888 2 1 2 -1 316.49 257.52 11.61 o
889 2 1 2 0 371.27 349.45 12.45 o
890 2 -1 2 -4 477.49 521.17 24.75 o
891 2 -1 2 -5 100.87 138.18 13.13 o
892 2 -1 2 -6 196.54 294.10 20.20 o
893 2 -1 2 -7 275.86 305.71 21.14 o
894 2 -1 2 -8 570.37 539.86 29.93 o
895 2 -1 2 -9 6.99 8.53 4.25 <
896 2 -1 2 -10 37.01 39.31 9.13 o
897 2 -1 2 -11 22.15 28.22 9.16 o
898 2 -1 2 -12 13.90 8.79 5.25 <
899 2 -1 2 -13 27.90 39.55 12.16 o
900 2 1 3 -12 19.74 7.22 1.50 o
901 2 1 3 -11 25.23 43.67 12.07 o
902 2 1 3 -10 94.82 82.57 14.38 o
903 2 1 3 -9 181.99 146.46 17.69 o
904 2 1 3 -8 9.87 0.28 2.83 <
905 2 1 3 -7 94.40 82.23 11.86 o
906 2 1 3 -6 181.25 216.82 19.35 o
907 2 1 3 -5 450.03 417.72 23.31 o
908 2 1 3 -4 1029.90 1180.38 37.55 o
909 2 1 3 -3 208.94 169.21 12.81 o
910 2 1 3 -2 665.08 787.63 27.11 o
911 2 1 3 -1 471.25 611.14 23.27 o
912 2 -1 3 -6 183.85 285.75 23.28 o
913 2 -1 3 -7 104.75 101.26 13.42 o
914 2 -1 3 -8 4.07 6.63 3.15 <
915 2 -1 3 -9 131.99 140.15 16.71 o
916 2 -1 3 -10 99.34 81.45 14.06 o
917 2 -1 3 -11 34.33 47.82 11.63 o
918 2 -1 3 -12 15.75 11.48 5.07 <
919 2 1 4 -11 15.09 24.02 10.53 <
920 2 1 4 -10 25.79 0.86 8.86 <
921 2 1 4 -9 18.61 11.40 6.17 <
922 2 1 4 -8 71.57 51.93 10.27 o
923 2 1 4 -7 76.24 65.11 10.18 o
924 2 1 4 -6 31.94 27.35 9.41 <
925 2 1 4 -5 38.84 26.56 6.19 o
926 2 1 4 -4 114.10 130.61 13.06 o
927 2 1 4 -3 583.68 803.14 34.13 o
928 2 1 4 -2 625.91 772.44 31.05 o
929 2 -1 4 -7 68.41 70.63 12.98 o
930 2 -1 4 -8 73.82 63.91 11.64 o
931 2 -1 4 -9 30.28 12.91 6.56 <
932 2 -1 4 -10 18.99 36.44 11.10 o
933 2 -1 4 -11 18.60 12.05 6.46 <
934 2 1 5 -9 67.95 1.82 11.46 <
935 2 1 5 -8 27.80 0.26 6.87 <
936 2 1 5 -7 29.03 1.10 6.74 <
937 2 1 5 -6 42.08 7.71 9.31 <
938 2 1 5 -5 132.95 75.11 13.14 o
939 2 1 5 -4 270.78 435.42 26.91 o
940 2 1 5 -3 211.56 350.10 23.49 o
941 2 1 6 -7 56.35 4.08 11.13 <
942 2 1 6 -6 38.56 5.06 10.64 <
943 2 1 6 -5 17.15 3455.05 85.20 o
944 2 -2 -6 6 18.51 9.72 5.34 <
945 2 -2 -5 8 13.60 11.58 4.96 <
946 2 -2 -5 7 212.04 255.35 24.64 o
947 2 -2 -5 6 14.10 28.06 7.98 o
948 2 -2 -5 5 9.40 7.94 5.03 <
949 2 -2 -5 4 24.17 11.33 4.19 <
950 2 -2 -4 10 5.14 3.81 2.85 <
951 2 -2 -4 9 146.37 171.67 18.84 o
952 2 -2 -4 8 5.39 1.94 2.09 <
953 2 -2 -4 7 17.33 34.36 7.90 o
954 2 -2 -4 6 4.59 -0.02 2.50 <
955 2 -2 -4 5 919.22 1224.51 46.32 o
956 2 -2 -4 4 0.34 3.81 2.70 <
957 2 -2 -4 3 193.65 336.93 19.96 o
958 2 -2 -4 2 284.98 422.94 21.72 o
959 2 -2 -3 11 89.94 134.13 18.64 o
960 2 -2 -3 10 10.88 8.46 5.25 <
961 2 -2 -3 9 64.83 91.35 13.28 o
962 2 -2 -3 8 3.13 1.67 1.62 <
963 2 -2 -3 7 509.65 797.05 39.02 o
964 2 -2 -3 6 26.10 25.60 6.27 o
965 2 -2 -3 5 46.74 32.52 5.23 o
966 2 -2 -3 4 4.61 -1.74 2.71 <
967 2 -2 -3 3 1279.65 1480.62 37.44 o
968 2 -2 -3 2 58.50 47.30 5.77 o
969 2 -2 -3 1 1023.43 1032.41 26.81 o
970 2 2 -3 9 51.86 78.99 12.93 o
971 2 2 -3 10 6.72 12.01 4.84 <
972 2 2 -3 11 86.66 126.28 17.64 o
973 2 -2 -2 12 1.38 -3.69 3.62 <
974 2 -2 -2 11 89.31 169.78 19.95 o
975 2 -2 -2 10 4.88 6.98 3.87 <
976 2 -2 -2 9 119.80 197.32 20.07 o
977 2 -2 -2 8 21.63 3.79 4.47 <
978 2 -2 -2 7 63.95 76.28 10.18 o
979 2 -2 -2 6 0.60 2.39 4.08 <
980 2 -2 -2 5 1085.36 1155.95 41.26 o
981 2 -2 -2 4 170.89 153.85 13.52 o
982 2 -2 -2 3 67.03 62.17 7.50 o
983 2 -2 -2 2 187.42 215.04 13.10 o
984 2 -2 -2 1 1286.69 1258.20 26.99 o
985 2 -2 -2 0 26.61 14.32 3.54 o
986 2 2 -2 7 66.39 89.30 11.39 o
987 2 2 -2 8 13.17 5.35 3.60 <
988 2 2 -2 9 149.18 213.75 20.51 o
989 2 2 -2 10 7.84 2.79 2.59 <
990 2 2 -2 11 148.99 198.52 21.09 o
991 2 2 -2 12 1.59 28.83 15.99 <
992 2 -2 -1 -3 109.71 104.53 5.49 o
993 2 -2 -1 -4 32.23 30.05 3.48 o
994 2 -2 -1 -5 219.57 180.16 11.43 o
995 2 2 -1 6 43.23 35.97 6.93 o
996 2 -2 -1 -6 43.23 27.61 5.07 o
997 2 -2 -1 -7 484.23 477.70 25.82 o
998 2 2 -1 7 484.23 500.88 26.92 o
999 2 2 -1 8 12.34 6.29 2.90 <
1000 2 -2 -1 -8 12.34 5.12 3.29 <
1001 2 2 -1 9 180.69 270.96 20.86 o
1002 2 -2 -1 -9 180.69 214.17 20.61 o
1003 2 2 -1 10 10.46 15.59 4.59 o
1004 2 -2 -1 -10 10.46 0.21 2.11 <
1005 2 2 -1 11 13.55 33.07 8.67 o
1006 2 -2 -1 -11 13.55 24.61 10.37 <
1007 2 2 -1 12 2.06 8.54 6.14 <
1008 2 -2 -1 -12 2.06 3.60 3.19 <
1009 2 -2 -1 -13 37.15 71.37 19.04 o
1010 2 2 -1 13 37.15 49.52 11.20 o
1011 2 -2 0 -4 138.76 108.08 8.76 o
1012 2 -2 0 -5 730.03 764.63 23.87 o
1013 2 2 0 5 730.03 756.69 25.64 o
1014 2 -2 0 -6 216.62 271.74 15.88 o
1015 2 2 0 6 216.62 278.01 16.13 o
1016 2 2 0 7 37.79 31.21 5.30 o
1017 2 -2 0 -7 37.79 30.13 5.45 o
1018 2 2 0 8 85.83 114.08 12.32 o
1019 2 -2 0 -8 85.83 88.12 11.01 o
1020 2 2 0 9 5.59 8.08 1.94 o
1021 2 -2 0 -9 5.59 6.29 2.74 <
1022 2 2 0 10 1.01 0.19 2.06 <
1023 2 -2 0 -10 1.01 1.04 1.11 <
1024 2 2 0 11 66.04 72.76 10.93 o
1025 2 -2 0 -11 66.04 56.28 10.60 o
1026 2 2 0 12 6.84 5.97 2.88 <
1027 2 -2 0 -12 6.84 4.75 4.81 <
1028 2 2 0 13 0.47 -1.69 2.28 <
1029 2 -2 0 -13 0.47 -1.82 2.08 <
1030 2 2 1 4 31.70 31.95 3.55 o
1031 2 2 1 5 219.48 193.17 12.16 o
1032 2 -2 1 -5 219.48 182.01 14.63 o
1033 2 2 1 6 44.00 28.85 4.35 o
1034 2 -2 1 -6 44.00 35.75 7.16 o
1035 2 2 1 7 477.25 458.32 20.46 o
1036 2 -2 1 -7 477.25 482.86 25.09 o
1037 2 -2 1 -8 12.88 5.07 2.23 <
1038 2 2 1 8 12.88 5.09 2.06 <
1039 2 -2 1 -9 179.10 238.04 19.41 o
1040 2 2 1 9 179.10 224.60 16.54 o
1041 2 -2 1 -10 10.41 6.91 0.95 o
1042 2 2 1 10 10.41 8.70 2.67 o
1043 2 -2 1 -11 14.33 35.35 9.97 o
1044 2 2 1 11 14.33 32.27 7.48 o
1045 2 2 1 12 2.19 1.74 0.96 <
1046 2 -2 1 -12 2.19 6.98 4.53 <
1047 2 -2 1 -13 38.74 42.88 10.91 o
1048 2 2 1 13 38.74 65.50 14.83 o
1049 2 2 2 -11 89.92 97.50 20.41 o
1050 2 2 2 -10 5.01 3.35 3.16 <
1051 2 2 2 -9 119.19 135.99 18.53 o
1052 2 2 2 -8 21.41 6.11 5.30 <
1053 2 2 2 -7 60.66 54.62 9.63 o
1054 2 2 2 -6 0.64 2.06 3.92 <
1055 2 2 2 -5 1088.27 1063.58 44.66 o
1056 2 2 2 -4 170.02 136.02 14.28 o
1057 2 2 2 -3 66.58 55.10 7.99 o
1058 2 2 2 -2 189.76 210.86 15.02 o
1059 2 2 2 -1 1256.36 1227.48 31.35 o
1060 2 2 2 5 1033.07 1017.53 22.22 o
1061 2 2 2 6 4.35 14.59 3.83 o
1062 2 -2 2 -7 70.13 101.20 12.42 o
1063 2 2 2 7 70.13 79.72 7.56 o
1064 2 2 2 8 13.30 0.43 1.00 <
1065 2 -2 2 -8 13.30 -2.42 3.77 <
1066 2 -2 2 -9 149.41 209.35 19.99 o
1067 2 2 2 9 149.41 164.42 13.82 o
1068 2 2 2 10 7.69 -1.06 3.56 <
1069 2 -2 2 -10 7.69 3.20 0.93 o
1070 2 2 2 11 148.25 151.33 15.95 o
1071 2 -2 2 -11 148.25 155.01 18.32 o
1072 2 2 2 12 1.55 6.44 4.59 <
1073 2 -2 2 -12 1.55 -1.84 2.01 <
1074 2 2 3 -11 88.84 97.45 18.35 o
1075 2 2 3 -10 10.67 7.69 1.28 o
1076 2 2 3 -9 60.92 54.63 11.14 o
1077 2 2 3 -8 2.98 -1.30 6.81 <
1078 2 2 3 -7 508.69 747.27 42.14 o
1079 2 2 3 -6 26.32 24.95 7.29 o
1080 2 2 3 -5 46.91 23.61 4.66 o
1081 2 2 3 -4 5.08 -1.93 3.63 <
1082 2 2 3 -3 1272.13 1471.93 40.13 o
1083 2 2 3 -2 59.76 47.19 5.97 o
1084 2 2 3 -1 1009.06 1003.09 25.68 o
1085 2 2 3 0 27.82 39.87 5.53 o
1086 2 2 3 1 1067.66 899.08 18.28 o
1087 2 -2 3 -8 7.52 5.23 4.15 <
1088 2 -2 3 -9 55.24 77.00 12.53 o
1089 2 -2 3 -10 6.98 5.14 4.27 <
1090 2 -2 3 -11 86.94 96.90 15.56 o
1091 2 2 4 -10 5.07 -0.26 3.54 <
1092 2 2 4 -9 146.25 56.75 19.50 <
1093 2 2 4 -8 5.55 -0.28 5.34 <
1094 2 2 4 -7 16.36 9.27 8.48 <
1095 2 2 4 -6 5.02 0.57 1.90 <
1096 2 2 4 -5 914.55 1035.26 41.37 o
1097 2 2 4 -4 0.29 2.78 2.12 <
1098 2 2 4 -3 191.69 300.86 18.13 o
1099 2 2 4 -2 280.85 378.59 19.13 o
1100 2 2 4 -1 499.43 629.53 22.68 o
1101 2 2 4 0 42.90 56.48 7.56 o
1102 2 2 4 1 644.76 614.71 19.95 o
1103 2 -2 4 -10 4.52 -2.93 3.66 <
1104 2 2 5 -8 13.59 1.25 6.36 <
1105 2 2 5 -7 212.27 119.27 20.82 o
1106 2 2 5 -6 14.52 3.87 7.19 <
1107 2 2 5 -5 9.44 2.04 2.98 <
1108 2 2 5 -4 23.68 9.73 3.12 o
1109 2 2 5 -3 438.20 509.76 26.26 o
1110 2 2 5 -2 19.22 14.43 3.39 o
1111 2 2 5 -1 313.52 262.21 16.94 o
1112 2 2 5 0 27.79 19.33 5.77 o
1113 2 2 6 -6 18.47 1.24 4.86 <
1114 2 2 6 -5 216.89 105.56 18.63 o
1115 2 2 6 -4 7.95 0.99 3.83 <
1116 2 2 6 -3 12.91 3.02 4.80 <
1117 2 2 6 -2 20.42 2.38 5.58 <
1118 2 -3 -5 7 52.60 110.68 15.34 o
1119 2 -3 -5 6 46.84 79.99 12.77 o
1120 2 -3 -5 5 100.12 132.39 14.72 o
1121 2 -3 -5 4 66.28 67.20 10.24 o
1122 2 -3 -5 3 13.88 11.41 3.49 o
1123 2 -3 -5 2 14.10 1.42 1.32 <
1124 2 -3 -4 9 27.98 48.85 11.17 o
1125 2 -3 -4 8 81.25 69.63 11.46 o
1126 2 -3 -4 7 109.98 139.54 16.22 o
1127 2 -3 -4 6 8.94 7.36 3.66 <
1128 2 -3 -4 5 1.26 1.38 0.79 <
1129 2 -3 -4 4 25.05 3.98 1.03 o
1130 2 -3 -4 3 270.24 279.90 18.42 o
1131 2 -3 -4 2 152.40 276.25 19.11 o
1132 2 -3 -4 1 6.00 -1.48 2.96 <
1133 2 -3 -3 10 29.52 20.54 8.38 <
1134 2 -3 -3 9 58.59 76.66 13.67 o
1135 2 -3 -3 8 17.65 15.68 4.10 o
1136 2 -3 -3 7 83.42 77.55 11.08 o
1137 2 -3 -3 6 79.00 71.53 10.99 o
1138 2 -3 -3 5 67.03 79.19 10.70 o
1139 2 -3 -3 4 150.22 154.68 15.50 o
1140 2 -3 -3 3 83.82 68.84 9.97 o
1141 2 -3 -3 2 14.81 6.52 2.63 <
1142 2 -3 -3 1 224.15 252.30 13.52 o
1143 2 -3 -3 0 43.08 40.95 5.84 o
1144 2 -3 -3 -1 236.55 179.52 9.05 o
1145 2 -3 -2 -5 28.68 20.67 3.45 o
1146 2 -3 -2 -6 4.43 -2.81 1.03 <
1147 2 -3 -2 -7 109.31 117.32 12.02 o
1148 2 -3 -2 -8 49.24 21.77 5.85 o
1149 2 3 -2 11 21.77 18.03 7.81 <
1150 2 -3 -1 -4 545.15 657.48 19.99 o
1151 2 -3 -1 -5 538.01 689.46 20.44 o
1152 2 -3 -1 -6 93.24 114.40 9.13 o
1153 2 -3 -1 -7 145.68 161.59 12.03 o
1154 2 -3 -1 -8 12.83 16.07 4.02 o
1155 2 3 -1 9 216.45 311.95 23.52 o
1156 2 -3 -1 -9 216.45 266.24 20.08 o
1157 2 3 -1 10 82.75 155.26 17.76 o
1158 2 -3 -1 -10 82.75 174.58 18.44 o
1159 2 -3 -1 -11 25.52 29.34 8.76 o
1160 2 3 -1 11 25.52 40.51 9.59 o
1161 2 3 -1 12 1.52 -2.71 4.26 <
1162 2 -3 -1 -12 1.52 -1.26 0.70 <
1163 2 -3 0 -6 539.37 550.88 24.60 o
1164 2 -3 0 -7 494.50 651.38 27.28 o
1165 2 -3 0 -8 362.73 406.05 22.77 o
1166 2 3 0 8 362.73 411.17 23.46 o
1167 2 -3 0 -9 14.46 8.61 4.41 <
1168 2 3 0 9 14.46 3.85 1.38 <
1169 2 -3 0 -10 36.29 22.86 7.30 o
1170 2 3 0 10 36.29 22.55 6.39 o
1171 2 -3 0 -11 36.86 49.12 10.20 o
1172 2 3 0 11 36.86 57.36 10.00 o
1173 2 3 0 12 1.91 4.43 3.27 <
1174 2 -3 0 -12 1.91 4.76 3.04 <
1175 2 -3 1 -7 149.52 188.51 16.68 o
1176 2 3 1 7 149.52 190.50 13.05 o
1177 2 -3 1 -8 12.04 11.49 2.43 o
1178 2 3 1 8 12.04 12.33 2.93 o
1179 2 -3 1 -9 219.69 277.83 21.12 o
1180 2 3 1 9 219.69 297.42 18.57 o
1181 2 3 1 10 81.98 151.78 14.73 o
1182 2 -3 1 -10 81.98 132.31 16.32 o
1183 2 -3 1 -11 26.81 26.53 8.05 o
1184 2 3 1 11 26.81 40.19 8.64 o
1185 2 -3 1 -12 1.67 0.52 0.72 <
1186 2 3 1 12 1.67 0.33 0.91 <
1187 2 3 2 6 3.57 1.11 0.39 <
1188 2 3 2 7 108.56 145.73 9.92 o
1189 2 3 2 8 50.99 55.38 6.58 o
1190 2 3 2 9 101.51 80.31 9.13 o
1191 2 -3 2 -9 101.51 97.91 13.63 o
1192 2 3 2 10 21.45 32.88 7.05 o
1193 2 -3 2 -10 21.45 38.89 10.44 o
1194 2 3 2 11 22.49 15.36 4.63 o
1195 2 -3 2 -11 22.49 22.57 8.45 <
1196 2 3 3 -8 17.68 1.62 6.39 <
1197 2 3 3 -7 81.12 26.81 10.28 <
1198 2 3 3 -6 78.76 54.89 12.18 o
1199 2 3 3 -5 66.24 48.03 10.06 o
1200 2 3 3 -4 155.50 132.21 18.42 o
1201 2 3 3 6 62.07 37.89 3.63 o
1202 2 3 3 7 83.77 55.38 5.14 o
1203 2 3 3 8 17.92 12.41 2.59 o
1204 2 3 3 9 51.48 52.63 6.90 o
1205 2 3 3 10 26.83 26.16 5.79 o
1206 2 3 4 -9 28.63 5.82 12.24 <
1207 2 3 4 -8 81.96 7.96 12.45 <
1208 2 3 4 -7 111.66 42.79 16.90 <
1209 2 3 4 -6 9.79 0.14 0.19 <
1210 2 3 4 -5 1.20 -2.03 3.07 <
1211 2 3 4 -4 24.90 2.91 2.56 <
1212 2 3 4 -3 271.56 241.95 18.69 o
1213 2 3 4 -2 155.21 219.29 19.37 o
1214 2 3 4 -1 4.51 -5.29 2.35 <
1215 2 3 4 0 3.62 -3.66 3.68 <
1216 2 3 4 1 2.32 22.51 8.42 <
1217 2 3 4 2 204.15 148.79 8.01 o
1218 2 3 4 6 9.66 5.62 1.57 o
1219 2 3 4 7 78.34 65.48 6.53 o
1220 2 3 4 8 61.99 35.90 5.26 o
1221 2 3 4 9 36.35 27.51 5.27 o
1222 2 3 5 -7 53.56 20.16 12.60 <
1223 2 3 5 -6 47.73 7.88 9.96 <
1224 2 3 5 -5 102.63 23.28 11.36 <
1225 2 3 5 -4 64.45 17.37 8.76 <
1226 2 3 5 -3 12.95 10.22 3.81 <
1227 2 3 5 -2 14.40 1.76 1.30 <
1228 2 3 5 -1 174.72 134.06 11.35 o
1229 2 3 5 0 54.32 47.37 6.60 o
1230 2 3 5 1 135.00 141.81 9.08 o
1231 2 3 5 2 4.15 -0.08 1.06 <
1232 2 3 5 3 9.28 5.84 1.66 o
1233 2 3 6 -3 129.48 62.41 14.38 o
1234 2 3 6 -2 70.51 46.56 7.96 o
1235 2 3 6 -1 70.23 45.61 10.86 o
1236 2 3 6 0 0.40 12.42 4.99 <
1237 2 3 6 1 83.52 125.10 10.55 o
1238 2 3 6 2 63.97 50.59 6.49 o
1239 2 -4 -5 5 1.35 5.93 3.34 <
1240 2 -4 -5 4 54.49 56.58 9.25 o
1241 2 -4 -5 3 18.63 21.23 4.41 o
1242 2 -4 -5 2 75.02 82.37 9.35 o
1243 2 -4 -5 1 2.49 -4.89 3.67 <
1244 2 -4 -4 7 8.48 15.41 5.94 <
1245 2 -4 -4 6 130.30 199.39 19.32 o
1246 2 -4 -4 5 4.14 12.55 4.19 <
1247 2 -4 -4 4 61.43 47.29 7.76 o
1248 2 -4 -4 3 6.68 8.13 3.04 <
1249 2 -4 -4 2 10.16 2.62 1.34 <
1250 2 -4 -4 1 18.06 10.67 2.92 o
1251 2 -4 -4 0 96.68 70.56 6.60 o
1252 2 -4 -3 6 19.27 8.45 5.15 <
1253 2 -4 -3 5 17.23 15.63 6.12 <
1254 2 -4 -3 4 122.82 124.86 14.14 o
1255 2 -4 -3 3 29.28 26.42 5.76 o
1256 2 -4 -3 2 260.08 251.41 18.01 o
1257 2 -4 -3 1 18.79 6.24 2.98 <
1258 2 -4 -3 0 8.07 -3.48 2.98 <
1259 2 -4 -3 -1 12.42 10.76 2.00 o
1260 2 -4 -2 -4 99.86 97.60 6.57 o
1261 2 -4 -2 -5 23.51 18.78 3.04 o
1262 2 -4 -2 -6 158.77 144.20 9.20 o
1263 2 -4 -2 -7 7.37 3.80 1.72 <
1264 2 -4 -2 -8 1.56 -1.13 2.21 <
1265 2 -4 -2 -9 2.01 1.23 2.64 <
1266 2 -4 -2 -10 56.18 77.88 11.96 o
1267 2 -4 -1 -6 367.78 544.96 23.02 o
1268 2 -4 -1 -7 23.75 20.53 4.03 o
1269 2 -4 -1 -8 104.98 161.59 13.28 o
1270 2 -4 -1 -9 2.25 -0.76 1.23 <
1271 2 -4 -1 -10 22.35 10.73 3.02 o
1272 2 -4 0 -7 17.62 13.15 4.30 o
1273 2 -4 0 -8 103.69 45.55 7.56 o
1274 2 -4 0 -9 12.17 17.00 5.46 o
1275 2 -4 0 -10 173.92 416.92 27.12 o
1276 2 -4 0 -11 14.85 11.83 5.63 <
1277 2 -4 1 -9 2.37 1.70 1.51 <
1278 2 -4 1 -10 22.33 12.15 4.69 <
1279 2 4 2 10 54.55 81.64 9.62 o
1280 2 4 3 9 6.85 6.01 1.98 o
1281 2 4 5 -5 1.52 1.25 4.31 <
1282 2 4 5 -4 52.44 14.00 9.33 <
1283 2 4 5 -3 19.45 16.02 3.53 o
1284 2 4 5 -2 72.86 47.51 9.42 o
1285 2 4 5 -1 2.78 -2.47 3.00 <
1286 2 -5 -4 4 11.99 11.90 4.60 <
1287 2 -5 -4 3 78.44 48.56 8.35 o
1288 2 -5 -4 2 205.43 208.40 15.55 o
1289 2 -5 -4 1 7.12 2.67 1.59 <
1290 2 -5 -4 0 0.03 -2.19 1.89 <
1291 2 -5 -4 -1 7.82 3.84 1.29 <
1292 3 0 -2 12 47.63 25.39 4.15 o
1292 2 -5 -2 -6 47.63 25.39 4.15 o
1293 2 -5 -2 -7 20.43 30.63 5.15 o
1294 2 -5 -2 -8 57.80 102.08 9.45 o
1295 2 -5 -1 -7 12.34 6.07 3.26 <
1296 2 -5 -1 -8 3.18 2.88 1.51 <
1297 2 -5 -1 -9 22.74 18.86 5.47 o
1298 3 0 -2 9 39.97 6.68 1.87 o
1299 3 0 -2 10 281.72 246.96 14.68 o
1300 3 0 -2 11 7.49 -4.52 2.90 <
1301 3 0 -2 12 48.00 18.27 4.97 o
1301 2 -5 -2 -6 48.00 18.27 4.97 o
1302 3 0 4 -6 142.91 52.41 6.91 o
1303 3 0 5 -7 0.55 6.80 2.52 <
1304 3 0 5 -8 42.73 14.91 3.46 o
1305 3 1 -3 5 434.84 352.28 17.43 o
1306 3 1 -3 6 191.45 223.68 13.53 o
1307 3 -1 -2 13 32.22 67.80 9.52 o
1308 3 -1 -2 12 11.86 9.57 3.25 <
1309 3 -1 -2 11 27.17 16.11 3.73 o
1310 3 -1 -2 10 33.35 78.44 9.55 o
1311 3 -1 -2 9 6.35 24.34 4.14 o
1312 3 -1 -2 8 552.50 521.13 16.48 o
1313 3 1 -2 -1 340.68 526.46 28.57 o
1314 3 1 -2 0 380.41 486.67 23.89 o
1315 3 1 -2 1 404.85 332.59 18.95 o
1315 1 -1 2 -1 404.85 332.59 18.95 o
1316 3 1 -2 2 1546.33 1453.23 36.18 o
1317 3 1 -2 3 1807.85 1724.05 37.26 o
1318 3 1 -2 4 504.54 650.99 19.26 o
1319 3 1 -2 5 104.03 109.25 6.73 o
1320 3 -1 -1 13 8.06 -8.27 5.39 <
1321 3 -1 -1 12 10.78 7.65 2.92 <
1322 3 -1 -1 11 24.92 34.35 8.31 o
1323 3 -1 -1 10 184.93 373.58 30.37 o
1324 3 -1 -1 9 181.76 301.94 21.65 o
1325 3 -1 -1 8 32.52 22.00 4.43 o
1326 3 -1 -1 7 179.35 144.02 11.79 o
1326 1 -2 1 6 179.35 144.02 11.79 o
1327 3 -1 -1 6 402.48 509.35 19.76 o
1328 3 -1 -1 5 440.65 430.98 15.69 o
1329 3 -1 -1 4 1350.28 1294.53 26.34 o
1330 3 1 -1 -3 576.77 745.77 32.64 o
1331 3 1 -1 -2 179.02 208.29 15.32 o
1332 3 1 -1 -1 1225.90 1951.88 42.78 o
1333 3 1 -1 0 2046.22 1914.75 38.32 o
1334 3 1 -1 1 1454.14 1132.38 26.73 o
1334 1 -1 1 -1 1454.14 1132.38 26.73 o
1335 3 1 -1 2 205.68 213.71 10.16 o
1336 3 -1 0 9 383.66 405.42 33.41 o
1337 3 -1 0 8 354.06 380.01 27.54 o
1338 3 -1 0 7 401.59 255.80 20.97 o
1338 1 -2 0 6 401.59 255.80 20.97 o
1339 3 -1 0 6 41.25 18.67 3.98 o
1340 3 1 0 -5 680.07 602.87 29.12 o
1341 3 -1 0 5 680.07 611.33 27.34 o
1342 3 1 0 -4 46.40 34.24 5.55 o
1343 3 -1 0 4 46.40 33.77 5.57 o
1344 3 1 0 -3 40.63 69.98 7.60 o
1345 3 -1 0 3 40.63 71.03 7.45 o
1346 3 1 0 -2 573.43 597.02 19.92 o
1347 3 -1 0 2 573.43 592.85 19.40 o
1348 3 1 0 -1 781.90 758.44 20.28 o
1349 3 -1 0 1 781.90 755.76 20.30 o
1350 3 1 1 -6 408.41 459.01 22.32 o
1351 3 1 1 -5 459.80 413.67 18.06 o
1352 3 1 1 -4 1309.59 1218.17 27.44 o
1353 3 -1 1 4 1309.59 1216.54 44.43 o
1354 3 -1 1 3 565.46 737.93 32.29 o
1355 3 1 1 -3 565.46 742.68 19.85 o
1356 3 -1 1 2 184.11 206.69 14.78 o
1357 3 -1 1 1 1218.95 1892.08 42.73 o
1358 3 -1 1 0 2048.48 1829.39 36.24 o
1359 3 -1 1 -1 1455.63 1119.74 25.15 o
1359 1 1 -1 1 1455.63 1119.74 25.15 o
1360 3 1 2 -7 291.14 199.34 11.78 o
1360 1 2 -2 -6 291.14 199.34 11.78 o
1361 3 1 2 -6 218.07 151.09 8.89 o
1362 3 1 2 -5 122.04 111.93 7.48 o
1363 3 -1 2 2 1396.99 1209.81 44.80 o
1364 3 -1 2 1 324.19 525.82 28.07 o
1365 3 -1 2 0 380.30 448.83 22.77 o
1366 3 -1 2 -1 408.11 304.52 18.00 o
1366 1 1 -2 1 408.11 304.52 18.00 o
1367 3 -1 2 -2 1534.26 1377.91 34.78 o
1368 3 -1 2 -3 1800.92 1859.43 34.18 o
1369 3 1 3 -7 117.04 47.14 4.84 o
1369 1 2 -3 -6 117.04 47.14 4.84 o
1370 3 -1 3 -1 758.70 698.62 32.55 o
1370 1 1 -3 1 758.70 698.62 32.55 o
1371 3 -1 3 -2 596.35 829.77 34.02 o
1372 3 -1 3 -3 91.04 160.76 13.24 o
1373 3 -1 3 -4 1132.39 1598.57 38.06 o
1374 3 -1 3 -5 428.08 411.75 15.92 o
1375 3 1 4 -8 73.31 33.31 3.75 o
1376 3 -1 4 -2 623.34 665.30 34.30 o
1377 3 -1 4 -3 660.37 711.74 34.25 o
1378 3 -1 4 -4 173.11 156.74 14.45 o
1379 3 -1 4 -5 30.52 13.71 3.70 o
1380 3 -1 4 -6 45.67 9.60 1.34 o
1381 3 -1 5 -4 324.09 437.27 29.51 o
1382 3 -1 5 -5 133.18 87.65 11.50 o
1383 3 -1 5 -6 53.91 73.01 11.50 o
1384 3 -1 5 -7 32.00 20.72 4.98 o
1385 3 -1 5 -8 11.95 13.06 2.87 o
1386 3 -1 6 -5 10.72 9.02 5.91 <
1387 3 -1 6 -6 29.22 69.76 13.88 o
1388 3 -1 6 -7 78.13 26.34 6.66 o
1389 3 2 -4 0 44.44 55.65 14.29 o
1390 3 2 -4 1 668.04 815.33 41.92 o
1391 3 2 -4 2 434.45 493.64 31.12 o
1391 1 -2 4 -2 434.45 493.64 31.12 o
1392 3 2 -4 3 303.61 508.09 31.39 o
1393 3 2 -4 4 7.20 5.25 5.07 <
1394 3 2 -4 5 1048.32 1013.87 41.74 o
1395 3 2 -4 6 8.79 19.78 6.51 o
1396 3 2 -4 7 23.84 19.72 4.52 o
1397 3 2 -4 8 4.87 -4.78 4.06 <
1398 3 2 -4 9 131.94 86.45 9.39 o
1399 3 2 -4 10 4.58 -0.99 1.30 <
1400 3 2 -3 -3 1310.77 1985.11 71.47 o
1401 3 2 -3 -2 59.93 81.95 13.55 o
1402 3 2 -3 -1 1048.32 1331.02 52.20 o
1403 3 2 -3 0 28.01 39.38 13.52 <
1404 3 2 -3 1 1084.45 1219.39 46.19 o
1405 3 2 -3 2 47.56 41.88 6.47 o
1405 1 -2 3 -2 47.56 41.88 6.47 o
1406 3 2 -3 3 1425.18 2224.44 58.99 o
1407 3 2 -3 4 0.37 -1.94 3.03 <
1408 3 2 -3 5 34.86 11.08 2.68 o
1409 3 2 -3 6 42.90 32.65 6.16 o
1410 3 2 -3 7 621.02 625.44 25.18 o
1411 3 2 -3 8 8.04 2.84 1.63 <
1412 3 2 -3 9 53.12 51.87 6.54 o
1413 3 -2 -2 12 1.42 4.33 1.81 <
1414 3 -2 -2 11 115.59 156.09 12.32 o
1414 1 -3 2 10 115.59 156.09 12.32 o
1415 3 -2 -2 10 4.99 7.94 2.80 <
1416 3 2 -2 -6 221.35 38.48 10.31 o
1416 1 1 2 -7 221.35 38.48 10.31 o
1417 3 2 -2 -5 1111.76 1373.72 59.18 o
1418 3 2 -2 -4 175.05 183.81 20.36 o
1419 3 2 -2 -3 68.66 58.76 10.74 o
1420 3 2 -2 -2 191.98 345.50 25.53 o
1421 3 2 -2 -1 1317.99 1375.14 48.48 o
1422 3 2 -2 0 27.26 14.05 7.50 <
1423 3 2 -2 1 1242.86 1148.11 41.43 o
1424 3 2 -2 2 315.93 193.24 14.95 o
1424 1 -2 2 -2 315.93 193.24 14.95 o
1425 3 2 -2 3 72.16 63.88 7.47 o
1426 3 2 -2 4 145.67 132.55 10.90 o
1427 3 2 -2 5 1064.77 1015.42 32.52 o
1428 3 -2 -1 13 28.38 35.82 9.02 o
1429 3 -2 -1 12 1.41 -5.88 3.19 <
1430 3 -2 -1 11 75.06 26.92 6.71 o
1430 1 -3 1 10 75.06 26.92 6.71 o
1431 3 -2 -1 10 22.79 13.13 4.79 <
1432 3 -2 -1 9 187.87 222.42 16.52 o
1433 3 -2 -1 8 6.20 3.36 2.03 <
1434 3 2 -1 -7 367.92 662.05 42.80 o
1435 3 -2 -1 7 367.92 655.55 28.10 o
1436 3 -2 -1 6 152.55 30.20 5.93 o
1436 1 -1 1 7 152.55 30.20 5.93 o
1437 3 2 -1 -6 152.55 53.53 11.59 o
1437 1 1 1 -7 152.55 53.53 11.59 o
1438 3 2 -1 -5 178.83 166.98 16.86 o
1439 3 -2 -1 5 178.83 165.97 11.83 o
1440 3 2 -1 -4 30.51 24.99 6.67 o
1441 3 2 -1 -3 134.74 94.36 12.23 o
1442 3 2 -1 -2 317.16 404.84 25.44 o
1443 3 2 -1 -1 3230.07 2939.88 63.30 o
1444 3 2 -1 0 3.12 0.55 4.39 <
1445 3 2 -1 1 3141.92 2892.96 56.63 o
1446 3 -2 0 13 0.64 -10.44 6.82 <
1447 3 -2 0 12 9.31 -0.54 2.36 <
1448 3 -2 0 11 103.95 50.64 11.40 o
1448 1 -3 0 10 103.95 50.64 11.40 o
1449 3 -2 0 10 0.49 10.46 6.22 <
1450 3 -2 0 9 4.04 -3.71 4.40 <
1451 3 2 0 -9 4.04 5.88 3.45 <
1452 3 2 0 -8 91.90 49.90 10.62 o
1453 3 -2 0 8 91.90 54.68 9.44 o
1454 3 -2 0 7 13.28 36.70 7.08 o
1455 3 2 0 -7 13.28 30.28 6.88 o
1456 3 -2 0 6 386.82 384.02 23.96 o
1456 1 -1 0 7 386.82 384.02 23.96 o
1457 3 2 0 -6 386.82 399.85 26.47 o
1457 1 1 0 -7 386.82 399.85 26.47 o
1458 3 -2 0 5 714.75 771.51 32.11 o
1459 3 2 0 -5 714.75 772.65 34.49 o
1460 3 -2 0 4 126.72 97.80 10.25 o
1461 3 2 0 -4 126.72 90.24 10.63 o
1462 3 -2 0 3 295.08 328.66 18.60 o
1463 3 2 0 -3 295.08 328.49 19.92 o
1464 3 -2 0 2 5.20 0.69 2.09 <
1465 3 2 0 -2 5.20 -1.02 1.73 <
1466 3 2 0 -1 551.93 393.42 21.07 o
1467 3 -2 1 11 72.87 12.06 7.70 <
1467 1 -3 -1 10 72.87 12.06 7.70 <
1468 3 2 1 -10 22.91 -0.88 0.89 <
1469 3 -2 1 10 22.91 6.66 4.07 <
1470 3 2 1 -9 188.71 217.14 20.60 o
1471 3 -2 1 9 188.71 192.87 23.16 o
1472 3 2 1 -8 6.04 4.23 2.50 <
1473 3 -2 1 8 6.04 2.96 0.76 o
1474 3 2 1 -7 371.19 610.68 33.54 o
1475 3 -2 1 7 371.19 634.74 41.33 o
1476 3 2 1 -6 149.34 34.52 7.38 o
1476 1 1 -1 -7 149.34 34.52 7.38 o
1477 3 -2 1 6 149.34 43.57 10.21 o
1477 1 -1 -1 7 149.34 43.57 10.21 o
1478 3 -2 1 5 178.44 158.99 16.20 o
1479 3 2 1 -5 178.44 144.03 12.60 o
1480 3 -2 1 4 30.82 27.57 6.27 o
1481 3 2 1 -4 30.82 27.64 5.30 o
1482 3 -2 1 3 144.55 95.78 11.45 o
1483 3 -2 1 2 321.09 387.12 23.20 o
1484 3 -2 1 1 3289.45 2884.73 60.35 o
1485 3 -2 1 0 3.17 0.35 1.95 <
1486 3 -2 1 -1 3084.22 3034.82 59.10 o
1487 3 2 2 -10 5.13 2.22 1.60 <
1488 3 2 2 -9 122.09 125.78 13.27 o
1489 3 2 2 -8 21.93 -0.14 1.21 <
1490 3 2 2 -7 62.14 92.43 8.93 o
1491 3 -2 2 7 62.14 72.47 14.73 o
1492 3 2 2 -6 219.37 12.09 4.17 <
1492 1 1 -2 -7 219.37 12.09 4.17 <
1493 3 -2 2 6 219.37 20.27 7.15 <
1493 1 -1 -2 7 219.37 20.27 7.15 <
1494 3 -2 2 5 1114.74 1240.51 55.12 o
1495 3 -2 2 4 174.15 152.45 19.05 o
1496 3 -2 2 3 68.20 51.44 9.94 o
1497 3 -2 2 2 194.38 322.93 25.40 o
1498 3 -2 2 1 1286.92 1252.51 45.91 o
1499 3 -2 2 0 27.78 11.54 7.65 <
1500 3 -2 2 -1 1271.65 1209.29 40.00 o
1501 3 -2 2 -2 315.42 195.98 14.61 o
1501 1 2 -2 2 315.42 195.98 14.61 o
1502 3 -2 2 -3 73.01 79.35 8.97 o
1503 3 2 3 -11 114.13 55.91 9.04 o
1503 1 3 -3 -10 114.13 55.91 9.04 o
1504 3 2 3 -10 10.93 17.59 5.56 o
1505 3 2 3 -9 62.40 48.17 7.31 o
1506 3 2 3 -8 3.05 -0.98 1.49 <
1507 3 -2 3 4 5.20 5.21 2.99 <
1508 3 -2 3 3 1303.07 1832.86 67.26 o
1509 3 -2 3 2 61.21 81.44 13.27 o
1510 3 -2 3 1 1033.60 1169.44 48.73 o
1511 3 -2 3 0 28.50 32.21 12.38 <
1512 3 -2 3 -1 1093.63 1040.60 41.68 o
1513 3 -2 3 -2 47.39 42.39 6.63 o
1513 1 2 -3 2 47.39 42.39 6.63 o
1514 3 -2 3 -3 1434.52 2151.18 54.16 o
1515 3 -2 3 -4 0.35 0.46 1.33 <
1516 3 2 4 -10 5.19 17.54 4.76 o
1517 3 2 4 -9 149.81 93.34 9.29 o
1518 3 -2 4 2 287.68 652.55 42.17 o
1519 3 -2 4 1 511.58 759.59 42.69 o
1520 3 -2 4 0 43.94 50.60 14.24 o
1521 3 -2 4 -1 660.44 666.69 37.40 o
1522 3 -2 4 -2 435.35 400.11 27.25 o
1522 1 2 -4 2 435.35 400.11 27.25 o
1523 3 -2 4 -3 306.42 439.34 27.24 o
1524 3 -2 4 -4 7.27 3.17 2.62 <
1525 3 -2 4 -5 1049.46 1033.02 36.47 o
1526 3 -2 4 -6 8.48 13.69 5.31 <
1527 3 -2 5 0 28.46 19.86 8.95 <
1528 3 -2 5 -1 264.67 244.96 26.73 o
1529 3 -2 5 -2 9.57 21.96 6.22 o
1529 1 2 -5 2 9.57 21.96 6.22 o
1530 3 -2 5 -3 408.62 652.78 38.76 o
1531 3 -2 5 -4 24.49 1.79 2.05 <
1532 3 -2 5 -5 10.06 -2.56 4.17 <
1533 3 -2 5 -6 29.61 23.67 6.67 o
1534 3 -2 5 -7 186.92 206.31 14.87 o
1535 3 -2 6 -2 39.36 11.07 2.06 o
1535 1 2 -6 2 39.36 11.07 2.06 o
1536 3 -2 6 -3 14.09 17.94 7.89 <
1537 3 -2 6 -4 12.21 13.43 6.50 <
1538 3 -2 6 -5 154.68 163.24 19.32 o
1539 3 -2 6 -6 8.34 16.86 7.17 <
1540 3 3 -5 -1 177.00 164.21 24.03 o
1541 3 3 -5 0 56.26 31.80 11.39 <
1542 3 3 -5 1 140.52 165.06 22.33 o
1543 3 3 -5 2 4.14 1.51 3.11 <
1544 3 3 -5 3 9.38 13.77 6.69 <
1545 3 3 -5 4 69.82 94.69 17.65 o
1546 3 3 -5 5 120.33 70.89 12.79 o
1547 3 3 -5 6 60.82 25.30 3.93 o
1548 3 3 -5 7 72.35 60.19 10.56 o
1549 3 3 -4 -5 1.29 2.27 1.98 <
1550 3 3 -4 -4 25.66 6.75 8.26 <
1551 3 3 -4 -3 276.82 448.67 39.17 o
1552 3 3 -4 -2 156.11 261.85 27.68 o
1553 3 3 -4 -1 6.15 -16.16 17.18 <
1554 3 3 -4 0 3.80 -10.78 8.82 <
1555 3 3 -4 1 1.37 -4.32 3.84 <
1556 3 3 -4 2 212.12 681.30 46.33 o
1557 3 3 -4 3 293.29 255.75 24.13 o
1558 3 3 -4 4 14.07 7.09 3.42 <
1559 3 3 -4 5 4.39 6.01 4.41 <
1560 3 3 -4 6 11.22 1.73 3.24 <
1561 3 3 -4 7 81.24 73.53 10.38 o
1562 3 3 -4 8 63.70 34.14 7.62 o
1563 3 3 -4 9 38.05 11.35 3.49 o
1564 3 3 -3 -7 85.45 53.40 13.38 o
1565 3 3 -3 -6 80.92 80.74 18.92 o
1566 3 3 -3 -5 68.66 87.43 17.91 o
1567 3 3 -3 -4 153.87 121.10 18.19 o
1568 3 3 -3 -3 85.86 96.40 17.11 o
1569 3 3 -3 -2 15.17 13.36 6.62 <
1570 3 3 -3 -1 229.60 368.17 31.84 o
1571 3 3 -3 0 44.12 29.77 13.17 <
1572 3 3 -3 1 242.31 270.66 24.50 o
1573 3 3 -3 2 10.29 5.68 4.58 <
1574 3 3 -3 3 69.62 45.89 7.96 o
1575 3 3 -3 4 174.75 235.97 21.46 o
1576 3 3 -3 5 106.78 81.03 12.09 o
1577 3 3 -3 6 62.44 43.20 7.05 o
1578 3 3 -3 7 83.19 45.84 7.60 o
1579 3 3 -2 -9 87.59 108.35 22.45 o
1580 3 3 -2 -8 54.41 29.60 9.95 <
1581 3 3 -2 -7 90.65 125.09 20.15 o
1582 3 3 -2 -6 4.75 1.93 0.55 o
1583 3 3 -2 -5 45.70 28.35 7.88 o
1584 3 3 -2 -4 48.39 55.19 11.84 o
1585 3 3 -2 -3 477.90 890.06 48.53 o
1586 3 3 -2 -2 386.87 307.43 26.46 o
1587 3 3 -2 -1 366.74 437.72 32.26 o
1588 3 3 -2 0 176.78 191.02 20.65 o
1589 3 3 -2 1 424.82 336.74 24.47 o
1590 3 3 -2 2 325.48 534.08 39.72 o
1591 3 3 -2 3 539.31 539.67 29.20 o
1592 3 -3 -1 12 1.96 4.30 4.31 <
1593 3 -3 -1 11 17.93 39.08 8.69 o
1594 3 3 -1 -10 81.05 287.24 32.39 o
1594 1 2 1 -11 81.05 287.24 32.39 o
1595 3 -3 -1 10 81.05 228.36 19.59 o
1595 1 -2 1 11 81.05 228.36 19.59 o
1596 3 3 -1 -9 189.18 394.91 38.32 o
1597 3 -3 -1 9 189.18 389.99 24.98 o
1598 3 -3 -1 8 16.68 4.30 2.37 <
1599 3 3 -1 -8 16.68 15.87 7.37 <
1600 3 3 -1 -7 130.21 134.65 19.59 o
1601 3 -3 -1 7 130.21 169.83 15.07 o
1602 3 -3 -1 6 81.06 95.68 10.70 o
1603 3 3 -1 -6 81.06 86.19 16.58 o
1604 3 3 -1 -5 518.62 683.93 41.49 o
1605 3 3 -1 -4 528.16 536.84 35.01 o
1606 3 3 -1 -3 168.70 253.27 23.14 o
1607 3 3 -1 -2 339.36 271.01 22.72 o
1608 3 3 -1 -1 755.61 842.48 41.64 o
1609 3 3 -1 0 465.30 338.06 25.42 o
1610 3 -3 0 12 3.09 9.28 5.97 <
1611 3 3 0 -11 51.38 46.88 14.51 o
1612 3 -3 0 11 51.38 63.69 13.79 o
1613 3 3 0 -10 85.93 43.41 12.03 o
1613 1 2 0 -11 85.93 43.41 12.03 o
1614 3 -3 0 10 85.93 31.57 8.95 o
1614 1 -2 0 11 85.93 31.57 8.95 o
1615 3 3 0 -9 5.14 13.99 8.23 <
1616 3 -3 0 9 5.14 3.73 3.66 <
1617 3 3 0 -8 289.98 324.32 28.36 o
1618 3 -3 0 8 289.98 334.39 25.26 o
1619 3 -3 0 7 444.31 609.20 32.96 o
1620 3 3 0 -7 444.31 576.45 37.82 o
1621 3 -3 0 6 432.57 438.62 26.93 o
1622 3 3 0 -6 432.57 426.93 30.76 o
1623 3 3 0 -5 4.93 6.95 3.97 <
1624 3 -3 0 5 4.93 4.29 0.72 o
1625 3 -3 0 4 53.10 74.54 10.11 o
1626 3 3 0 -4 53.10 61.85 10.34 o
1627 3 -3 0 3 1349.69 1452.72 50.27 o
1628 3 3 0 -3 1349.69 1455.64 51.35 o
1629 3 3 0 -2 350.95 215.82 18.63 o
1630 3 3 1 -12 1.81 -0.60 2.68 <
1631 3 -3 1 12 1.81 6.43 7.38 <
1632 3 3 1 -11 16.54 27.51 8.57 o
1633 3 -3 1 11 16.54 19.24 9.90 <
1634 3 3 1 -10 83.24 282.23 26.06 o
1634 1 2 -1 -11 83.24 282.23 26.06 o
1635 3 -3 1 10 83.24 204.24 27.00 o
1635 1 -2 -1 11 83.24 204.24 27.00 o
1636 3 3 1 -9 186.71 317.88 28.26 o
1637 3 -3 1 9 186.71 358.04 34.65 o
1638 3 -3 1 8 17.57 7.04 4.69 <
1639 3 3 1 -8 17.57 6.26 1.24 o
1640 3 -3 1 7 127.15 132.14 17.95 o
1641 3 3 1 -7 127.15 125.84 15.21 o
1642 3 3 1 -6 76.62 77.90 11.66 o
1643 3 -3 1 6 76.62 88.84 13.58 o
1644 3 -3 1 5 513.89 610.66 35.60 o
1645 3 3 1 -5 513.89 580.50 30.79 o
1646 3 -3 1 4 519.32 510.66 31.60 o
1647 3 -3 1 3 167.71 214.30 19.47 o
1648 3 -3 1 2 338.26 273.12 21.54 o
1649 3 -3 1 1 750.11 826.79 39.66 o
1650 3 -3 1 0 466.90 375.98 27.71 o
1651 3 3 2 -11 19.23 16.82 6.80 <
1652 3 -3 2 11 19.23 24.37 10.90 <
1653 3 -3 2 10 100.59 60.51 18.44 o
1653 1 -2 -2 11 100.59 60.51 18.44 o
1654 3 3 2 -10 100.59 72.80 13.31 o
1654 1 2 -2 -11 100.59 72.80 13.31 o
1655 3 3 2 -9 84.78 77.96 12.93 o
1656 3 -3 2 9 84.78 84.32 19.97 o
1657 3 3 2 -8 53.39 36.68 8.34 o
1658 3 -3 2 8 53.39 36.49 11.04 o
1659 3 -3 2 7 91.33 114.77 18.71 o
1660 3 3 2 -7 91.33 116.24 13.21 o
1661 3 -3 2 6 4.77 6.89 5.06 <
1662 3 -3 2 5 46.10 15.93 5.99 <
1663 3 -3 2 4 46.89 41.58 9.12 o
1664 3 -3 2 3 472.46 804.40 43.28 o
1665 3 -3 2 2 383.43 319.23 25.97 o
1666 3 -3 2 1 378.91 431.93 29.35 o
1667 3 -3 2 0 177.16 212.64 20.79 o
1668 3 -3 2 -1 411.65 368.76 24.90 o
1669 3 -3 2 -2 332.49 599.02 40.44 o
1670 3 3 3 -10 98.13 40.75 9.88 o
1670 1 2 -3 -11 98.13 40.75 9.88 o
1671 3 -3 3 9 60.98 51.92 16.79 o
1672 3 3 3 -9 60.98 61.16 11.10 o
1673 3 -3 3 8 18.11 14.99 8.88 <
1674 3 3 3 -8 18.11 4.95 3.92 <
1675 3 -3 3 7 83.10 37.82 11.32 o
1676 3 -3 3 6 80.68 48.43 14.59 o
1677 3 -3 3 5 67.85 80.79 17.42 o
1678 3 -3 3 4 159.28 133.96 19.35 o
1679 3 -3 3 3 86.79 81.55 15.60 o
1680 3 -3 3 2 14.34 7.38 4.27 <
1681 3 -3 3 1 224.01 363.55 30.62 o
1682 3 -3 3 0 44.25 39.58 13.90 <
1683 3 -3 3 -1 248.73 373.07 27.46 o
1684 3 -3 3 -2 10.72 6.36 1.58 o
1685 3 -3 3 -3 70.19 57.47 9.17 o
1686 3 -3 3 -4 169.94 196.37 18.72 o
1687 3 -3 4 6 10.03 19.87 10.78 <
1688 3 -3 4 5 1.23 1.18 1.38 <
1689 3 -3 4 4 25.50 0.97 3.22 <
1690 3 -3 4 3 278.16 413.23 37.26 o
1691 3 -3 4 2 158.98 233.55 26.79 o
1692 3 -3 4 1 4.62 -6.49 13.58 <
1693 3 -3 4 0 3.71 -0.57 4.21 <
1694 3 -3 4 -1 2.38 4.78 2.03 <
1695 3 -3 4 -2 209.12 707.69 43.26 o
1696 3 -3 4 -3 293.60 245.82 21.78 o
1697 3 -3 4 -4 13.01 4.41 2.77 <
1698 3 -3 4 -5 4.23 -0.19 1.99 <
1699 3 -3 5 3 13.26 13.28 7.39 <
1700 3 -3 5 2 14.75 6.96 5.16 <
1701 3 -3 5 1 178.96 136.82 21.11 o
1702 3 -3 5 0 55.64 29.89 11.19 <
1703 3 -3 5 -1 138.29 122.01 18.51 o
1704 3 -3 5 -2 4.25 0.40 3.59 <
1705 3 -3 5 -3 9.50 4.70 3.69 <
1706 3 -3 5 -4 70.77 66.05 12.95 o
1707 3 -3 5 -5 118.21 104.79 13.38 o
1708 3 -3 5 -6 59.84 55.34 8.46 o
1709 3 -3 6 1 71.94 96.03 19.29 o
1710 3 -3 6 0 0.41 7.05 5.69 <
1711 3 -3 6 -1 85.55 85.72 16.83 o
1712 3 -3 6 -2 65.52 147.67 21.97 o
1713 3 -3 6 -3 169.40 126.15 17.59 o
1714 3 4 -5 -5 1.38 6.42 3.83 <
1715 3 4 -5 -4 55.82 74.04 18.32 o
1716 3 4 -5 -3 19.09 -5.31 11.08 <
1717 3 4 -5 -2 76.84 72.33 19.51 o
1718 3 4 -5 -1 2.55 -5.61 7.41 <
1719 3 4 -5 0 2.39 -18.00 11.17 <
1720 3 4 -5 1 2.43 -11.68 9.14 <
1721 3 4 -5 2 80.71 52.70 13.51 o
1722 3 4 -5 3 13.16 15.66 8.69 <
1723 3 4 -5 4 58.88 41.59 11.88 o
1724 3 4 -5 5 3.96 -6.01 6.40 <
1725 3 4 -4 -7 8.69 53.90 20.95 <
1726 3 4 -4 -6 133.47 237.83 34.62 o
1727 3 4 -4 -5 4.24 4.97 4.52 <
1728 3 4 -4 -4 62.92 50.98 14.10 o
1729 3 4 -4 -3 6.84 11.00 6.74 <
1730 3 4 -4 -2 10.41 -0.50 5.09 <
1731 3 4 -4 -1 18.50 -3.01 0.29 <
1732 3 4 -4 0 99.03 50.29 13.35 o
1733 3 4 -4 1 4.04 10.47 6.02 <
1734 3 4 -4 2 7.29 -4.35 4.39 <
1735 3 4 -4 3 5.39 3.92 1.39 <
1736 3 4 -4 4 47.93 34.78 10.76 o
1737 3 4 -4 5 7.82 12.16 6.80 <
1738 3 4 -4 6 194.21 174.71 20.16 o
1739 3 4 -4 7 13.44 7.62 4.88 <
1740 3 4 -3 -9 9.71 19.51 12.37 <
1741 3 4 -3 -8 35.25 28.42 10.25 <
1742 3 4 -3 -7 14.37 37.93 16.69 <
1743 3 4 -3 -6 19.73 84.70 20.14 o
1744 3 4 -3 -5 17.65 13.59 4.71 <
1745 3 4 -3 -4 125.81 190.75 26.70 o
1746 3 4 -3 -3 29.99 29.81 10.04 <
1747 3 4 -3 -2 266.41 249.06 28.47 o
1748 3 4 -3 -1 19.25 5.36 1.04 o
1749 3 4 -3 0 8.27 -10.06 6.69 <
1750 3 4 -3 1 12.72 12.55 5.48 <
1751 3 4 -3 2 331.24 245.12 24.62 o
1752 3 4 -3 3 20.43 21.05 6.87 o
1753 3 4 -3 4 157.68 126.77 17.15 o
1754 3 4 -3 5 32.53 17.24 6.85 <
1755 3 4 -2 -10 61.65 49.06 16.01 o
1756 3 4 -2 -9 6.41 11.73 8.39 <
1757 3 4 -2 -8 4.04 -3.58 8.58 <
1758 3 4 -2 -7 5.05 11.63 10.12 <
1759 3 4 -2 -6 89.79 143.46 24.12 o
1760 3 4 -2 -5 16.44 14.94 8.56 <
1761 3 4 -2 -4 92.32 128.40 20.11 o
1762 3 4 -2 -3 35.24 18.85 8.77 <
1763 3 4 -2 -2 95.59 80.99 14.99 o
1764 3 4 -2 -1 47.49 21.47 1.61 o
1765 3 4 -2 0 1519.69 1158.34 56.09 o
1766 3 4 -2 1 62.05 147.60 22.52 o
1767 3 4 -2 2 104.83 86.86 12.33 o
1768 3 -4 -1 10 6.84 2.89 1.50 <
1769 3 4 -1 -10 6.84 -1.20 5.02 <
1770 3 -4 -1 9 3.65 4.11 3.09 <
1771 3 4 -1 -9 3.65 3.70 4.80 <
1772 3 -4 -1 8 91.49 140.19 16.03 o
1773 3 4 -1 -8 91.49 128.78 24.67 o
1774 3 4 -1 -7 7.45 10.45 5.75 <
1775 3 4 -1 -6 374.40 497.75 41.02 o
1776 3 4 -1 -5 19.70 4.41 4.85 <
1777 3 4 -1 -4 342.06 481.83 37.61 o
1778 3 4 -1 -3 119.08 28.10 7.69 o
1779 3 4 -1 -2 396.13 323.94 27.66 o
1780 3 4 -1 -1 39.12 25.44 6.31 o
1781 3 4 0 -11 5.25 2.26 3.74 <
1782 3 -4 0 11 5.25 16.69 8.70 <
1783 3 4 0 -10 185.77 300.68 32.11 o
1784 3 -4 0 10 185.77 355.53 29.94 o
1785 3 4 0 -9 20.24 -0.40 1.74 <
1786 3 -4 0 9 20.24 16.26 6.52 <
1787 3 -4 0 8 52.83 26.89 7.42 o
1788 3 4 0 -8 52.83 21.59 6.98 o
1789 3 4 0 -7 8.12 36.46 16.83 <
1790 3 -4 0 7 8.12 23.74 12.30 <
1791 3 -4 0 6 288.47 276.38 24.10 o
1792 3 4 0 -6 288.47 252.30 25.39 o
1793 3 -4 0 5 60.73 60.62 10.52 o
1794 3 4 0 -5 60.73 38.47 8.54 o
1795 3 -4 0 4 706.64 951.22 46.69 o
1796 3 4 0 -4 706.64 947.96 49.61 o
1797 3 4 0 -3 183.27 78.78 11.33 o
1798 3 -4 1 10 6.78 17.55 9.82 <
1799 3 4 1 -10 6.78 7.84 2.09 o
1800 3 4 1 -9 3.47 1.79 4.61 <
1801 3 -4 1 9 3.47 -5.43 5.18 <
1802 3 4 1 -8 94.31 95.80 15.53 o
1803 3 -4 1 8 94.31 106.84 17.64 o
1804 3 -4 1 7 7.72 11.53 2.60 o
1805 3 4 1 -7 7.72 20.32 7.16 <
1806 3 -4 1 6 374.48 431.55 33.90 o
1807 3 4 1 -6 374.48 374.31 30.04 o
1808 3 -4 1 5 19.58 17.14 6.61 <
1809 3 -4 1 4 347.68 443.94 32.58 o
1810 3 -4 1 3 121.44 39.69 8.70 o
1811 3 -4 1 2 399.36 386.37 28.95 o
1812 3 -4 1 1 39.68 34.39 6.53 o
1813 3 -4 2 10 63.88 51.77 15.18 o
1814 3 4 2 -10 63.88 49.79 12.26 o
1815 3 -4 2 9 6.16 5.24 6.97 <
1816 3 4 2 -9 6.16 10.68 6.19 <
1817 3 4 2 -8 4.68 -5.56 5.30 <
1818 3 -4 2 8 4.68 -10.29 8.07 <
1819 3 -4 2 7 4.81 10.24 6.59 <
1820 3 -4 2 6 92.47 115.19 19.15 o
1821 3 -4 2 5 17.26 11.72 6.91 <
1822 3 -4 2 4 87.52 113.49 17.82 o
1823 3 -4 2 3 34.50 11.61 4.70 <
1824 3 -4 2 2 98.41 107.64 15.49 o
1825 3 -4 2 1 47.76 22.99 2.43 o
1826 3 -4 2 0 1519.26 1311.22 56.57 o
1827 3 -4 2 -1 61.90 165.33 24.56 o
1828 3 -4 3 9 9.66 3.14 4.11 <
1829 3 -4 3 8 35.88 26.18 8.89 <
1830 3 -4 3 7 14.92 15.00 10.07 <
1831 3 -4 3 6 17.94 66.34 18.88 o
1832 3 -4 3 5 17.80 25.05 10.01 <
1833 3 -4 3 4 129.06 154.18 21.57 o
1834 3 -4 3 3 28.42 28.33 9.33 o
1835 3 -4 3 2 270.55 265.55 26.46 o
1836 3 -4 3 1 18.47 4.07 4.77 <
1837 3 -4 3 0 8.22 -18.17 9.69 <
1838 3 -4 3 -1 13.05 10.53 1.38 o
1839 3 -4 3 -2 331.48 285.32 25.09 o
1840 3 -4 3 -3 21.75 32.58 7.53 o
1841 3 -4 4 7 8.98 17.59 10.88 <
1842 3 -4 4 6 133.41 186.35 29.66 o
1843 3 -4 4 5 4.16 5.20 3.26 <
1844 3 -4 4 4 62.70 36.38 12.30 <
1845 3 -4 4 3 6.44 7.05 4.27 <
1846 3 -4 4 2 10.07 -0.39 3.91 <
1847 3 -4 4 1 17.81 3.01 4.56 <
1848 3 -4 4 0 99.39 50.98 10.60 o
1849 3 -4 4 -1 4.26 7.69 6.02 <
1850 3 -4 4 -2 8.22 2.35 4.20 <
1851 3 -4 4 -3 5.66 7.92 2.51 o
1852 3 -4 4 -4 48.10 50.66 9.96 o
1853 3 -4 5 5 1.55 -0.45 1.03 <
1854 3 -4 5 4 53.71 57.67 18.53 o
1855 3 -4 5 3 19.92 6.29 3.17 <
1856 3 -4 5 2 74.63 46.21 13.66 o
1857 3 -4 5 1 2.85 -2.19 5.95 <
1858 3 -4 5 0 2.32 -12.09 9.05 <
1859 3 -4 5 -1 2.52 122.09 27.71 o
1860 3 -4 5 -2 81.90 44.10 9.87 o
1861 3 -4 5 -3 12.56 9.34 4.36 <
1862 3 -4 5 -4 61.64 56.93 12.61 o
1863 3 -4 5 -5 3.58 8.08 4.73 <
1864 3 5 -4 -4 12.28 16.70 9.93 <
1865 3 5 -4 -3 80.35 52.57 20.69 <
1866 3 5 -4 -2 210.43 174.42 28.54 o
1867 3 5 -4 -1 7.29 -6.09 11.55 <
1868 3 5 -4 0 0.03 1.03 3.75 <
1869 3 5 -4 1 8.01 1.78 2.70 <
1870 3 5 -4 2 148.99 145.32 21.79 o
1871 3 5 -4 3 71.08 32.99 11.90 <
1872 3 5 -4 4 12.73 6.14 2.75 <
1873 3 5 -3 -7 6.90 -1.56 4.23 <
1874 3 5 -3 -6 148.22 71.63 18.20 o
1874 2 0 -3 12 148.22 71.63 18.20 o
1875 3 5 -3 -5 21.72 0.72 7.87 <
1876 3 5 -3 -4 125.20 85.81 19.78 o
1877 3 5 -3 -3 51.55 41.04 13.03 o
1878 3 5 -3 -2 27.81 5.14 2.46 <
1879 3 5 -3 -1 23.66 26.91 12.29 <
1880 3 5 -3 0 209.21 142.44 22.33 o
1881 3 5 -3 1 25.31 21.47 7.93 <
1882 3 5 -3 2 30.92 3.91 4.50 <
1883 3 5 -3 3 47.33 25.58 7.06 o
1884 3 5 -3 4 129.32 100.80 16.71 o
1885 3 5 -2 -8 61.52 86.02 22.09 o
1886 3 5 -2 -7 23.18 17.36 8.95 <
1887 3 5 -2 -6 36.20 19.87 10.58 <
1887 2 0 -2 12 36.20 19.87 10.58 <
1888 3 5 -2 -5 16.48 3.53 4.40 <
1889 3 5 -2 -4 28.31 22.57 9.57 <
1890 3 5 -2 -3 31.33 18.28 9.34 <
1891 3 5 -2 -2 141.26 113.92 17.76 o
1892 3 5 -2 -1 20.06 -4.89 6.25 <
1893 3 5 -2 0 4.17 0.71 5.21 <
1894 3 5 -2 1 21.36 10.10 4.20 <
1895 3 5 -1 -9 14.74 1.42 8.86 <
1896 3 5 -1 -8 2.29 2.29 4.10 <
1897 3 5 -1 -7 6.40 13.07 9.32 <
1898 3 5 -1 -6 159.99 46.67 14.30 o
1898 2 0 -1 12 159.99 46.67 14.30 o
1899 3 5 -1 -5 34.87 18.47 9.84 <
1900 3 5 -1 -4 120.21 86.64 16.90 o
1901 3 5 -1 -3 0.09 9.87 7.64 <
1902 3 5 -1 -2 56.79 27.32 6.73 o
1903 3 -5 0 9 2.48 -1.73 3.01 <
1904 3 5 0 -9 2.48 2.74 4.44 <
1905 3 -5 0 8 22.48 51.26 13.69 o
1906 3 5 0 -8 22.48 57.60 16.74 o
1907 3 5 0 -7 9.54 12.64 7.96 <
1908 3 -5 0 7 9.54 -2.73 4.05 <
1909 3 -5 0 6 15.27 -5.23 3.00 <
1909 2 0 0 -12 15.27 -5.23 3.00 <
1910 3 5 0 -6 15.27 -5.00 3.67 <
1910 2 0 0 12 15.27 -5.00 3.67 <
1911 3 5 0 -5 3.63 0.13 2.70 <
1912 3 5 1 -9 15.60 5.41 4.83 <
1913 3 -5 1 9 15.60 10.25 5.26 <
1914 3 -5 1 8 2.58 7.84 6.52 <
1915 3 5 1 -8 2.58 13.87 8.90 <
1916 3 -5 1 7 6.33 9.20 7.78 <
1917 3 5 1 -7 6.33 -6.47 5.47 <
1918 3 -5 1 6 160.54 58.57 13.17 o
1918 2 0 1 -12 160.54 58.57 13.17 o
1919 3 -5 1 5 33.46 31.43 10.57 <
1920 3 -5 1 4 120.06 120.77 17.93 o
1921 3 -5 1 3 0.05 6.93 5.62 <
1922 3 -5 2 8 61.53 64.56 16.43 o
1923 3 -5 2 7 22.70 7.44 3.54 <
1924 3 -5 2 6 36.39 23.18 9.28 <
1924 2 0 2 -12 36.39 23.18 9.28 <
1925 3 -5 2 5 16.22 14.25 6.85 <
1926 3 -5 2 4 30.30 24.29 8.51 <
1927 3 -5 2 3 32.46 19.41 6.79 <
1928 3 -5 2 2 143.47 150.18 19.76 o
1929 3 -5 2 1 20.43 0.13 5.99 <
1930 3 -5 2 0 4.11 3.80 4.70 <
1931 3 -5 3 7 7.20 1.93 3.48 <
1932 3 -5 3 6 150.11 99.01 21.68 o
1932 2 0 3 -12 150.11 99.01 21.68 o
1933 3 -5 3 5 20.47 12.94 7.23 <
1934 3 -5 3 4 122.47 109.95 18.07 o
1935 3 -5 3 3 51.26 38.27 10.88 o
1936 3 -5 3 2 27.63 17.82 8.01 <
1937 3 -5 3 1 24.12 22.35 8.98 <
1938 3 -5 3 0 208.93 200.86 22.99 o
1939 3 -5 3 -1 24.66 33.76 11.00 o
1940 3 -5 3 -2 31.23 20.85 9.24 <
1941 3 -5 4 4 11.96 23.61 16.68 <
1942 3 -5 4 3 80.66 46.45 12.96 o
1943 3 -5 4 2 208.88 186.20 25.15 o
1944 3 -5 4 1 7.29 3.37 4.71 <
1945 3 -5 4 0 0.05 -10.85 9.78 <
1946 3 -5 4 -1 7.73 -4.18 6.83 <
1947 3 -5 4 -2 149.96 219.36 24.63 o
1948 3 -5 4 -3 70.96 48.79 9.55 o
1949 3 6 -3 -1 76.54 47.00 15.44 o
1950 3 6 -3 0 0.20 6.57 8.64 <
1951 3 6 -3 1 81.39 40.92 13.54 o
1952 3 6 -2 -4 1.82 43.69 17.60 <
1953 3 6 -2 -3 10.45 9.17 8.54 <
1954 3 6 -2 -2 13.83 -2.50 6.96 <
1955 3 6 -2 -1 30.32 23.27 4.64 o
1956 3 6 -1 -5 11.70 10.59 7.51 <
1957 3 6 -1 -4 12.03 6.56 6.02 <
1958 3 6 0 -6 0.29 -15.03 5.37 <
1959 3 -6 1 5 11.80 11.21 7.47 <
1960 3 -6 2 4 1.67 25.46 12.79 <
1961 3 -6 2 3 11.18 10.31 5.98 <
1962 3 -6 2 2 13.49 10.71 8.19 <
1963 3 -6 3 1 78.70 56.56 13.75 o
1964 3 -6 3 0 0.22 11.49 7.90 <
