#------------------------------------------------------------------------------
#$Date: 2023-12-01 15:23:56 +0200 (Fri, 01 Dec 2023) $
#$Revision: 287932 $
#$URL: file:///home/coder/svn-repositories/cod/cif/7/23/18/7231808.cif $
#------------------------------------------------------------------------------
#
# This file is available in the Crystallography Open Database (COD),
# http://www.crystallography.net/
#
# All data on this site have been placed in the public domain by the
# contributors.
#
data_7231808
loop_
_publ_author_name
'Heine, Miriam'
'Fink, Lothar'
'Schmidt, Martin U.'
_publ_section_title
;
 3-Cyanopyridine as a bridging and terminal ligand in coordination
 polymers
;
_journal_issue                   46
_journal_name_full               CrystEngComm
_journal_page_first              7556
_journal_paper_doi               10.1039/C8CE01568F
_journal_volume                  20
_journal_year                    2018
_chemical_formula_iupac          'C6 H4 Br2 Fe N2'
_chemical_formula_moiety         'C6 H4 Br2 Fe N2'
_chemical_formula_structural     'C6 H4 Br2 Fe N2'
_chemical_formula_sum            'C6 H4 Br2 Fe N2'
_chemical_formula_weight         319.76
_chemical_name_common            catena-dibromo-bis(3-cyanopyridine)ferrat
_chemical_name_systematic
; 
catena-dibromo-(3-cyanopyridine)ferrat
;
_space_group_IT_number           26
_space_group_name_Hall           'P 2c -2'
_space_group_name_H-M_alt        'P m c 21'
_symmetry_cell_setting           orthorhombic
_symmetry_space_group_name_Hall  'P 2c -2'
_symmetry_space_group_name_H-M   'P m c 21'
_cell_angle_alpha                90
_cell_angle_beta                 90
_cell_angle_gamma                90
_cell_formula_units_Z            2
_cell_length_a                   3.772(2)
_cell_length_b                   7.251(2)
_cell_length_c                   16.310(8)
_cell_measurement_temperature    298
_cell_volume                     446.1(3)
_computing_cell_refinement       'DASH (David <i> et al.</i> , 2004)'
_computing_data_collection       'STOE WINXPOW (STOE & Cie GmbH, 2004)'
_computing_data_reduction        'DASH (David <i>et al.</i>, 2004)'
_computing_molecular_graphics    'MERCURY (Macrea <i>et al.</i>)'
_computing_structure_refinement  'TOPAS (Coelho, 2007)'
_computing_structure_solution    'DASH (David <i>et al.</i>, 2004)'
_diffrn_ambient_temperature      298
_diffrn_detector_type            'lin psd'
_diffrn_measurement_device_type  'STOE Stadi-P'
_diffrn_radiation_monochromator  'primary focussing, Ge 111'
_diffrn_radiation_source         'X-ray tube'
_diffrn_radiation_type           'Cu K\a~1~'
_diffrn_radiation_wavelength     1.540598
_exptl_crystal_colour            brown-red
_exptl_crystal_density_diffrn    2.381
_pd_instr_location               ' ?'
_pd_meas_2theta_range_max        80
_pd_meas_2theta_range_min        4
_pd_meas_number_of_points        7600
_pd_meas_scan_method             step
_pd_proc_2theta_range_max        80
_pd_proc_2theta_range_min        4
_pd_proc_info_excluded_regions   '11.51-11.85; 12.40-12.71; 24.30-24.54'
_pd_proc_ls_background_function  'Chebychev polynomial'
_pd_proc_ls_pref_orient_corr     'no correction'
_pd_proc_ls_profile_function
;
modified spherical harmonics(Coelho, 2007)
;
_pd_proc_ls_prof_R_factor        0.01633
_pd_proc_ls_prof_wR_expected     0.01714
_pd_proc_ls_prof_wR_factor       0.02077
_pd_spec_mounting
;
Specimen was sealed in a 0.7 mm diameter borosilicate glass capillary. 
;
_pd_spec_mount_mode              transmission
_pd_spec_shape                   cylinder
_pd_spec_size_axial              12
_pd_spec_size_equat              0.7
_pd_spec_size_thick              0.7
_refine_ls_extinction_method     none
_refine_ls_goodness_of_fit_all   1.218
_refine_ls_hydrogen_treatment    mixed
_refine_ls_matrix_type           fullcycle
_refine_ls_number_constraints    1
_refine_ls_number_parameters     71
_refine_ls_number_restraints     28
_refine_ls_R_I_factor            0.01075
_refine_ls_weighting_details     w=1/\s(Y~obs~)^2^
_refine_ls_weighting_scheme      sigma
_cod_data_source_file            c8ce01568f5.cif
_cod_data_source_block           FeBr2(3-cypy)1
_cod_depositor_comments
'Adding full bibliography for 7231797--7231808.cif.'
_cod_original_cell_volume        446.18(4)
_cod_original_sg_symbol_Hall     'P 2 c -2'
_cod_original_sg_symbol_H-M      'P  m c 21'
_cod_database_code               7231808
loop_
_symmetry_equiv_pos_as_xyz
'-x, -y, z+1/2'
'-x, y, z'
'x, -y, z+1/2'
'x, y, z'
loop_
_atom_site_label
_atom_site_type_symbol
_atom_site_symmetry_multiplicity
_atom_site_fract_x
_atom_site_fract_y
_atom_site_fract_z
_atom_site_occupancy
_atom_site_B_iso_or_equiv
_atom_site_U_iso_or_equiv
N1 N 0 0 0.2381(1) 0.9806(1) 1 3.19139 0.04042
Fe2 Fe 0 0 0.3932(5) 0.8640(5) 1 3.19139 0.04042
C3 C 0 0 0.3316(6) 1.0503(1) 1 3.19139 0.04042
C4 C 0 0 0.0530(1) 0.9814(1) 1 3.19139 0.04042
Br5 Br 0 0.5 0.6134(8) 0.9225(9) 1 3.19139 0.04042
Br6 Br 0 -0.5 0.1846(1) 0.8003(9) 1 3.19139 0.04042
H7 H 0 0 0.4639(2) 1.0484(1) 1 3.829668 0.04850
C8 C 0 0 0.2468(1) 1.1251(1) 1 3.19139 0.04042
C9 C 0 0 -0.0385(3) 1.0552(3) 1 3.19139 0.04042
H10 H 0 0 -0.0194(9) 0.9305(7) 1 3.829668 0.04850
C11 C 0 0 0.0613(2) 1.1270(7) 1 3.19139 0.04042
C12 C 0 0 0.3437(3) 1.2020(1) 1 3.19139 0.04042
H13 H 0 0 -0.1742(8) 1.0568(8) 1 3.829668 0.04850
H14 H 0 0 0.0047(3) 1.1806(5) 1 3.829668 0.04850
N15 N 0 0 0.4283(5) 1.2615(1) 1 3.19139 0.04042
loop_
_atom_type_symbol
_atom_type_description
_atom_type_scat_source
C C 'International Tables Vol C Table 6.1.1.4'
H H 'International Tables Vol C Table 6.1.1.4'
Fe Fe 'International Tables Vol C Table 6.1.1.4'
Br Br 'International Tables Vol C Table 6.1.1.4'
N N 'International Tables Vol C Table 6.1.1.4'
loop_
_geom_angle_atom_site_label_1
_geom_angle_atom_site_label_2
_geom_angle_atom_site_label_3
_geom_angle
Fe2 N1 C3 118.6292(7)
Fe2 N1 C4 121.1618(8)
C3 N1 C4 120.2669(8)
N1 Fe2 Br5 89.8420(7)
N1 Fe2 Br6 92.7317(5)
Br5 Fe2 Br6 177.4512(6)
N1 C3 H7 118.9731(4)
N1 C3 C8 122.4117(2)
H7 C3 C8 118.6151(4)
N1 C4 C9 119.4181(1)
N1 C4 H10 121.8179(5)
C9 C4 H10 118.7639(5)
C3 C8 C11 118.1329(2)
C3 C8 C12 123.9743(3)
C11 C8 C12 117.8927(5)
C4 C9 C11 119.4270(4)
C4 C9 H13 120.4272(4)
C11 C9 H13 120.1457(2)
C8 C11 C9 120.3432(5)
C8 C11 H14 116.5205(1)
C9 C11 H14 123.1362(5)
C8 C12 N15 176.9537(3)
loop_
_geom_bond_atom_site_label_1
_geom_bond_atom_site_label_2
_geom_bond_distance
N1 Fe2 2.2098(2)
N1 C3 1.3238(7)
N1 C4 1.3423(4)
Fe2 Br5 2.6498(9)
Fe2 Br6 2.6318(5)
C3 H7 0.9595(5)
C3 C8 1.3664(4)
C4 C9 1.3750(2)
C4 H10 0.9816(7)
C8 C11 1.3453(4)
C8 C12 1.4379(5)
C9 C11 1.3774(2)
C9 H13 0.9847(2)
C11 H14 0.9654(8)
C12 N15 1.1480(6)
