#------------------------------------------------------------------------------
#$Date: 2019-11-17 15:32:33 +0200 (Sun, 17 Nov 2019) $
#$Revision: 230902 $
#$URL: file:///home/coder/svn-repositories/cod/cif/7/23/14/7231427.cif $
#------------------------------------------------------------------------------
#
# This file is available in the Crystallography Open Database (COD),
# http://www.crystallography.net/
#
# All data on this site have been placed in the public domain by the
# contributors.
#
data_7231427
loop_
_publ_author_name
'Collings, Ines E.'
'Manna, Rudra Sekhar'
'Tsirlin, Alexander A.'
'Bykov, Maxim'
'Bykova, Elena'
'Hanfland, Michael'
'Gegenwart, Philipp'
'van Smaalen, Sander'
'Dubrovinsky, Leonid'
'Dubrovinskaia, Natalia'
_publ_section_title
;
 Pressure dependence of spin canting in ammonium metal formate
 antiferromagnets.
;
_journal_issue                   37
_journal_name_full               'Physical chemistry chemical physics : PCCP'
_journal_page_first              24465
_journal_page_last               24476
_journal_paper_doi               10.1039/c8cp03761b
_journal_volume                  20
_journal_year                    2018
_chemical_formula_moiety         'C3 H3 Ni O6, N H4'
_chemical_formula_sum            'C3 H7 N Ni O6'
_chemical_formula_weight         211.81
_space_group_crystal_system      hexagonal
_space_group_IT_number           182
_space_group_name_Hall           'P 6c 2c'
_space_group_name_H-M_alt        'P 63 2 2'
_symmetry_space_group_name_Hall  'P 6c 2c'
_symmetry_space_group_name_H-M   'P 63 2 2'
_atom_sites_solution_hydrogens   mixed
_audit_creation_method           SHELXL-2016/6
_audit_update_record
;
2018-08-09 deposited with the CCDC.
2018-08-22 downloaded from the CCDC.
;
_cell_angle_alpha                90
_cell_angle_beta                 90
_cell_angle_gamma                120
_cell_formula_units_Z            2
_cell_length_a                   7.15551(17)
_cell_length_b                   7.15551(17)
_cell_length_c                   8.05112(17)
_cell_measurement_reflns_used    339
_cell_measurement_temperature    293(2)
_cell_measurement_theta_max      16.2570
_cell_measurement_theta_min      1.9020
_cell_volume                     357.000(14)
_computing_cell_refinement       'CrysAlisPro (Agilent Technologies, 2013)'
_computing_data_reduction        'CrysAlisPro (Agilent Technologies, 2013)'
_computing_molecular_graphics    'SHELXLE-2011 (Huebschle, 2011)'
_computing_structure_refinement  'SHELXL-2016/6 (Sheldrick, 2016)'
_computing_structure_solution    'SHELXT-2015 (Sheldrick, 2015)'
_diffrn_ambient_pressure         '1.03 GPa'
_diffrn_ambient_temperature      293(2)
_diffrn_detector_area_resol_mean 7
_diffrn_measured_fraction_theta_full 0.939
_diffrn_measured_fraction_theta_max 0.767
_diffrn_measurement_device_type  'ID15B beamline, ESRF'
_diffrn_measurement_method       'omega scans'
_diffrn_radiation_type           synchrotron
_diffrn_radiation_wavelength     0.41128
_diffrn_reflns_av_R_equivalents  0.0253
_diffrn_reflns_av_unetI/netI     0.0290
_diffrn_reflns_Laue_measured_fraction_full 0.939
_diffrn_reflns_Laue_measured_fraction_max 0.767
_diffrn_reflns_limit_h_max       9
_diffrn_reflns_limit_h_min       -6
_diffrn_reflns_limit_k_max       7
_diffrn_reflns_limit_k_min       -8
_diffrn_reflns_limit_l_max       10
_diffrn_reflns_limit_l_min       -12
_diffrn_reflns_number            1034
_diffrn_reflns_point_group_measured_fraction_full 0.956
_diffrn_reflns_point_group_measured_fraction_max 0.710
_diffrn_reflns_theta_full        14.286
_diffrn_reflns_theta_max         19.629
_diffrn_reflns_theta_min         1.902
_diffrn_source                   synchrotron
_exptl_absorpt_coefficient_mu    0.603
_exptl_absorpt_correction_T_max  1.00000
_exptl_absorpt_correction_T_min  0.79313
_exptl_absorpt_correction_type   multi-scan
_exptl_absorpt_process_details
;
CrysAlisPro 1.171.38.43 (Rigaku Oxford Diffraction, 2015)
Empirical absorption correction using spherical harmonics,
 implemented in SCALE3 ABSPACK scaling algorithm.
;
_exptl_crystal_colour            green
_exptl_crystal_density_diffrn    1.970
_exptl_crystal_description       'hexagonal bipyramid'
_exptl_crystal_F_000             216
_exptl_crystal_size_max          0.075
_exptl_crystal_size_mid          0.060
_exptl_crystal_size_min          0.050
_refine_diff_density_max         0.475
_refine_diff_density_min         -0.563
_refine_diff_density_rms         0.078
_refine_ls_abs_structure_details
;
 Flack x determined using 85 quotients [(I+)-(I-)]/[(I+)+(I-)]
 (Parsons, Flack and Wagner, Acta Cryst. B69 (2013) 249-259).
;
_refine_ls_abs_structure_Flack   -0.04(12)
_refine_ls_extinction_method     none
_refine_ls_goodness_of_fit_ref   1.214
_refine_ls_hydrogen_treatment    mixed
_refine_ls_matrix_type           full
_refine_ls_number_parameters     22
_refine_ls_number_reflns         396
_refine_ls_number_restraints     2
_refine_ls_restrained_S_all      1.214
_refine_ls_R_factor_all          0.0539
_refine_ls_R_factor_gt           0.0395
_refine_ls_shift/su_max          0.000
_refine_ls_shift/su_mean         0.000
_refine_ls_structure_factor_coef Fsqd
_refine_ls_weighting_details
'w=1/[\s^2^(Fo^2^)+0.5918P] where P=(Fo^2^+2Fc^2^)/3'
_refine_ls_weighting_scheme      calc
_refine_ls_wR_factor_gt          0.0706
_refine_ls_wR_factor_ref         0.0858
_reflns_Friedel_coverage         0.383
_reflns_Friedel_fraction_full    1.000
_reflns_Friedel_fraction_max     0.595
_reflns_number_gt                326
_reflns_number_total             397
_reflns_threshold_expression     'I > 2\s(I)'
_cod_data_source_file            c8cp03761b2.cif
_cod_data_source_block           ANiF_c2_p05
_cod_depositor_comments
'Adding full bibliography for 7231402--7231432.cif.'
_cod_original_cell_volume        357.000(19)
_cod_database_code               7231427
_shelx_shelxl_version_number     2016/6
_shelx_space_group_comment
;
The symmetry employed for this shelxl refinement is uniquely defined
by the following loop, which should always be used as a source of
symmetry information in preference to the above space-group names.
They are only intended as comments.
;
_shelx_res_file
;
TITL ANiF_c2_p05_s in P6(3)22
    ANiF_c2_p05_s.res
    created by SHELXL-2016/6 at 14:28:01 on 06-Aug-2018
REM P6(3)22 (#182 in standard setting)
CELL 0.41128   7.155514   7.155514   8.051124  90.0000  90.0000 120.0000
ZERR    2.00   0.000170   0.000170   0.000168   0.0000   0.0000   0.0000
LATT -1
SYMM -y, x-y, z
SYMM -x+y,-x, z
SYMM -x,-y, z+1/2
SYMM  y,-x+y, z+1/2
SYMM  x-y, x, z+1/2
SYMM  y, x,-z
SYMM  x-y,-y,-z
SYMM -x,-x+y,-z
SYMM -y,-x,-z+1/2
SYMM -x+y, y,-z+1/2
SYMM  x, x-y,-z+1/2
SFAC C H N O Ni
DISP $C -0.00005  0.00048  5.14312!source kissel
DISP $H -0.00003  0.00000  0.64132!source kissel
DISP $N  0.00062  0.00099  7.19459!source kissel
DISP $O  0.00180  0.00183 10.16238!source kissel
DISP $Ni  0.23093  0.40937 987.78852!source kissel
UNIT 6.00 14.00 2.00 12.00 2.00
OMIT -3 10 4
OMIT -1 2 2
OMIT 0 1 1
LIST 4 ! automatically inserted. Change 6 to 4 for CHECKCIF!!
L.S. 10
ACTA
EQIV $3 -1-x+y, 1-x, +z
BOND
FMAP 2
PLAN 20
WGHT    0.000000    0.591800
FVAR       9.08142
MOLE   1
NI1   5    0.333333    0.666667    0.250000    10.16667    0.03723    0.03723 =
         0.01819    0.00000    0.00000    0.01862
O1    4    0.308852    0.890635    0.107259    11.00000    0.05092    0.04515 =
         0.03073    0.01361    0.01238    0.02649
C1    1    0.440917    1.000000    0.000000    10.50000    0.04231    0.05683 =
         0.04771    0.02383    0.01191    0.02842
AFIX  43
H1    2    0.570887    1.000001    0.000001    10.50000   -1.20000
MOLE   2
REM #####
AFIX   0
N1    3    0.000000    1.000000    0.250000    10.16667    0.04198    0.04198 =
         0.08915    0.00000    0.00000    0.02099
DFIX 0.9 0.1 N1 H2
DFIX 1.3 0.1 H2 H2_$3
H2    2    0.090800    1.131795    0.306355    10.66667   -1.20000
HKLF 4




REM  ANiF_c2_p05_s in P6(3)22
REM R1 =  0.0395 for     326 Fo > 4sig(Fo)  and  0.0539 for all     396 data
REM     22 parameters refined using      2 restraints

END

WGHT      0.0050      0.5930

REM Highest difference peak  0.475,  deepest hole -0.563,  1-sigma level  0.078
Q1    1   0.3333  0.6667  0.1120  10.33333  0.05    0.48
Q2    1   0.2624  0.7398  0.1572  11.00000  0.05    0.32
Q3    1   0.4279  0.8558  0.2500  10.50000  0.05    0.29
Q4    1   0.7943  1.1346  0.0068  11.00000  0.05    0.28
Q5    1   0.4046  0.8236  0.1648  11.00000  0.05    0.28
Q6    1   0.0385  1.2358  0.3927  11.00000  0.05    0.24
Q7    1   0.1429  0.8632  0.0323  11.00000  0.05    0.24
Q8    1   0.1416  1.2832  0.2500  10.50000  0.05    0.23
Q9    1   0.5726  0.8840  0.1139  11.00000  0.05    0.23
Q10   1   0.1449  1.0659  0.2842  11.00000  0.05    0.22
Q11   1   0.3525  1.0448  0.1192  11.00000  0.05    0.22
Q12   1   0.6845  1.3007  0.1999  11.00000  0.05    0.21
Q13   1   0.2406  1.2196  0.3317  11.00000  0.05    0.21
Q14   1   0.6513  1.1482  0.1654  11.00000  0.05    0.21
Q15   1   0.2328  1.2950  0.2535  11.00000  0.05    0.20
Q16   1   0.6641  1.0961  0.0792  11.00000  0.05    0.20
Q17   1   0.3013  1.1630  0.4276  11.00000  0.05    0.20
Q18   1   0.0000  1.0000  0.1443  10.33333  0.05    0.19
Q19   1   0.7548  1.1726  0.1025  11.00000  0.05    0.19
Q20   1   0.6703  0.9813  0.0530  11.00000  0.05    0.19
;
_shelx_res_checksum              99085
loop_
_space_group_symop_operation_xyz
'x, y, z'
'-y, x-y, z'
'-x+y, -x, z'
'-x, -y, z+1/2'
'y, -x+y, z+1/2'
'x-y, x, z+1/2'
'y, x, -z'
'x-y, -y, -z'
'-x, -x+y, -z'
'-y, -x, -z+1/2'
'-x+y, y, -z+1/2'
'x, x-y, -z+1/2'
loop_
_atom_site_label
_atom_site_type_symbol
_atom_site_fract_x
_atom_site_fract_y
_atom_site_fract_z
_atom_site_U_iso_or_equiv
_atom_site_adp_type
_atom_site_occupancy
_atom_site_site_symmetry_order
_atom_site_calc_flag
_atom_site_refinement_flags_posn
_atom_site_refinement_flags_adp
_atom_site_refinement_flags_occupancy
Ni1 Ni 0.333333 0.666667 0.250000 0.0309(3) Uani 1 6 d S T P
O1 O 0.3089(5) 0.8906(5) 0.1073(4) 0.0412(8) Uani 1 1 d . . .
C1 C 0.4409(9) 1.000000 0.000000 0.0473(17) Uani 1 2 d S T P
H1 H 0.570887 1.000001 0.000001 0.057 Uiso 1 2 calc R U P
N1 N 0.000000 1.000000 0.250000 0.058(3) Uani 1 6 d DS T P
H2 H 0.091(14) 1.132(7) 0.306(9) 0.069 Uiso 0.6667 1 d D U P
loop_
_atom_site_aniso_label
_atom_site_aniso_U_11
_atom_site_aniso_U_22
_atom_site_aniso_U_33
_atom_site_aniso_U_23
_atom_site_aniso_U_13
_atom_site_aniso_U_12
Ni1 0.0372(4) 0.0372(4) 0.0182(5) 0.000 0.000 0.0186(2)
O1 0.0509(19) 0.0451(17) 0.0307(16) 0.0136(13) 0.0124(14) 0.0265(16)
C1 0.042(2) 0.057(4) 0.048(4) 0.024(3) 0.0119(17) 0.028(2)
N1 0.042(3) 0.042(3) 0.089(9) 0.000 0.000 0.0210(15)
loop_
_atom_type_symbol
_atom_type_description
_atom_type_scat_dispersion_real
_atom_type_scat_dispersion_imag
_atom_type_scat_source
C C -0.0001 0.0005 'International Tables Vol C Tables 4.2.6.8 and 6.1.1.4'
H H 0.0000 0.0000 'International Tables Vol C Tables 4.2.6.8 and 6.1.1.4'
N N 0.0006 0.0010 'International Tables Vol C Tables 4.2.6.8 and 6.1.1.4'
O O 0.0018 0.0018 'International Tables Vol C Tables 4.2.6.8 and 6.1.1.4'
Ni Ni 0.2309 0.4094 'International Tables Vol C Tables 4.2.6.8 and 6.1.1.4'
loop_
_geom_angle_atom_site_label_1
_geom_angle_atom_site_label_2
_geom_angle_atom_site_label_3
_geom_angle
_geom_angle_site_symmetry_1
_geom_angle_site_symmetry_3
O1 Ni1 O1 82.61(17) . 10_665
O1 Ni1 O1 91.63(12) . 2_665
O1 Ni1 O1 94.75(19) 10_665 2_665
O1 Ni1 O1 94.75(19) . 11
O1 Ni1 O1 91.63(12) 10_665 11
O1 Ni1 O1 171.51(18) 2_665 11
O1 Ni1 O1 91.63(12) . 3_565
O1 Ni1 O1 171.51(19) 10_665 3_565
O1 Ni1 O1 91.63(12) 2_665 3_565
O1 Ni1 O1 82.61(17) 11 3_565
O1 Ni1 O1 171.51(19) . 12_565
O1 Ni1 O1 91.63(12) 10_665 12_565
O1 Ni1 O1 82.61(17) 2_665 12_565
O1 Ni1 O1 91.63(12) 11 12_565
O1 Ni1 O1 94.75(19) 3_565 12_565
C1 O1 Ni1 123.5(3) . .
O1 C1 O1 126.5(6) 8_675 .
loop_
_geom_bond_atom_site_label_1
_geom_bond_atom_site_label_2
_geom_bond_distance
_geom_bond_site_symmetry_2
Ni1 O1 2.050(3) .
Ni1 O1 2.050(3) 10_665
Ni1 O1 2.050(3) 2_665
Ni1 O1 2.050(3) 11
Ni1 O1 2.050(3) 3_565
Ni1 O1 2.050(3) 12_565
O1 C1 1.229(4) .
