#------------------------------------------------------------------------------
#$Date: 2019-11-17 08:54:41 +0200 (Sun, 17 Nov 2019) $
#$Revision: 228965 $
#$URL: file:///home/coder/svn-repositories/cod/cif/7/23/15/7231569.cif $
#------------------------------------------------------------------------------
#
# This file is available in the Crystallography Open Database (COD),
# http://www.crystallography.net/
#
# All data on this site have been placed in the public domain by the
# contributors.
#
data_7231569
loop_
_publ_author_name
'Arenaza-Corona, Antonino'
'Morales-Morales, David'
'Hern\'andez-Ahuactzi, Iran F.'
'Barba, Victor'
_publ_section_title
;
 Structural and conformational changes in [M(1,10-diaza-18-crown-6)Cl2] (M
 = Pd, Pb) complexes: a crystallographic and theoretical study
;
_journal_issue                   42
_journal_name_full               CrystEngComm
_journal_page_first              6733
_journal_paper_doi               10.1039/C8CE01478G
_journal_volume                  20
_journal_year                    2018
_chemical_formula_moiety         'C12 H26 Cl2 N2 O4 Pd'
_chemical_formula_sum            'C12 H26 Cl2 N2 O4 Pd'
_chemical_formula_weight         439.65
_space_group_crystal_system      triclinic
_space_group_IT_number           2
_space_group_name_Hall           '-P 1'
_space_group_name_H-M_alt        'P -1'
_symmetry_space_group_name_Hall  '-P 1'
_symmetry_space_group_name_H-M   'P -1'
_atom_sites_solution_hydrogens   geom
_audit_creation_date             2015-12-10
_audit_creation_method
;
Olex2 1.2
(compiled 2015.09.30 svn.r3233 for OlexSys, GUI svn.r5103)
;
_audit_update_record
;
2018-07-10 deposited with the CCDC.
2018-09-25 downloaded from the CCDC.
;
_cell_angle_alpha                83.909(3)
_cell_angle_beta                 81.020(3)
_cell_angle_gamma                87.767(3)
_cell_formula_units_Z            1
_cell_length_a                   6.5577(3)
_cell_length_b                   7.8482(3)
_cell_length_c                   7.8785(3)
_cell_measurement_reflns_used    5580
_cell_measurement_temperature    100.00(10)
_cell_measurement_theta_max      28.9800
_cell_measurement_theta_min      3.1330
_cell_volume                     398.14(3)
_computing_cell_refinement
;
CrysAlisPro, Agilent Technologies,
Version 1.171.37.35 (release 13-08-2014 CrysAlis171 .NET)
(compiled Aug 13 2014,18:06:01)
;
_computing_data_collection
;
CrysAlisPro, Agilent Technologies,
Version 1.171.37.35 (release 13-08-2014 CrysAlis171 .NET)
(compiled Aug 13 2014,18:06:01)
;
_computing_data_reduction
;
CrysAlisPro, Agilent Technologies,
Version 1.171.37.35 (release 13-08-2014 CrysAlis171 .NET)
(compiled Aug 13 2014,18:06:01)
;
_computing_molecular_graphics    'Olex2 (Dolomanov et al., 2009)'
_computing_publication_material  'Olex2 (Dolomanov et al., 2009)'
_computing_structure_refinement  'ShelXL (Sheldrick, 2015)'
_computing_structure_solution
;
Superflip (Palatinus & Chapuis, 2007;Palatinus & van der Lee, 2008;
Palatinus et al., 2012)
;
_diffrn_ambient_environment      N~2~
_diffrn_ambient_temperature      100.00(10)
_diffrn_detector                 'CCD plate'
_diffrn_detector_area_resol_mean 8.0769
_diffrn_detector_type            EosS2
_diffrn_measured_fraction_theta_full 1.000
_diffrn_measured_fraction_theta_max 0.903
_diffrn_measurement_details
;
#__ type_ start__ end____ width___ exp.time_
  1 omega   -1.00   83.00   1.0000    3.3700
omega____ theta____ kappa____ phi______ frames
    -       15.2374   57.0000    0.0000 84

#__ type_ start__ end____ width___ exp.time_
  2 omega  -52.00   42.00   1.0000    3.3700
omega____ theta____ kappa____ phi______ frames
    -       15.2374  -77.0000 -120.0000 94

#__ type_ start__ end____ width___ exp.time_
  3 omega   -4.00   84.00   1.0000    3.3700
omega____ theta____ kappa____ phi______ frames
    -       15.2374   38.0000 -180.0000 88

#__ type_ start__ end____ width___ exp.time_
  4 omega   -1.00   83.00   1.0000    3.3700
omega____ theta____ kappa____ phi______ frames
    -       15.2374   57.0000   30.0000 84

#__ type_ start__ end____ width___ exp.time_
  5 omega  -83.00    1.00   1.0000    3.3700
omega____ theta____ kappa____ phi______ frames
    -      -16.0187  -57.0000   30.0000 84

#__ type_ start__ end____ width___ exp.time_
  6 omega  -27.00   20.00   1.0000    3.3700
omega____ theta____ kappa____ phi______ frames
    -      -16.0187  -93.0000  135.0000 47

#__ type_ start__ end____ width___ exp.time_
  7 omega  -20.00   54.00   1.0000    3.3700
omega____ theta____ kappa____ phi______ frames
    -       15.2374  -99.0000    0.0000 74

#__ type_ start__ end____ width___ exp.time_
  8 omega   34.00   88.00   1.0000    3.3700
omega____ theta____ kappa____ phi______ frames
    -       15.2374 -178.0000 -120.0000 54

#__ type_ start__ end____ width___ exp.time_
  9 omega   -1.00   83.00   1.0000    3.3700
omega____ theta____ kappa____ phi______ frames
    -       15.2374   57.0000  -90.0000 84

#__ type_ start__ end____ width___ exp.time_
 10 omega  -20.00   54.00   1.0000    3.3700
omega____ theta____ kappa____ phi______ frames
    -       15.2374  -99.0000  150.0000 74

#__ type_ start__ end____ width___ exp.time_
 11 omega  -54.00   34.00   1.0000    3.3700
omega____ theta____ kappa____ phi______ frames
    -       15.2374  -38.0000   30.0000 88

#__ type_ start__ end____ width___ exp.time_
 12 omega  -54.00   34.00   1.0000    3.3700
omega____ theta____ kappa____ phi______ frames
    -       15.2374  -38.0000    0.0000 88

#__ type_ start__ end____ width___ exp.time_
 13 omega  -52.00  -12.00   1.0000    3.3700
omega____ theta____ kappa____ phi______ frames
    -      -16.0187   93.0000 -112.0000 40
;
_diffrn_measurement_device       'four-circle diffractometer'
_diffrn_measurement_device_type  'SuperNova, Dual, Cu at zero, EosS2'
_diffrn_measurement_method       '\w scans'
_diffrn_orient_matrix_UB_11      -0.0419045000
_diffrn_orient_matrix_UB_12      0.0820995000
_diffrn_orient_matrix_UB_13      0.0175739000
_diffrn_orient_matrix_UB_21      0.0891408000
_diffrn_orient_matrix_UB_22      0.0172042000
_diffrn_orient_matrix_UB_23      0.0354556000
_diffrn_orient_matrix_UB_31      0.0479106000
_diffrn_orient_matrix_UB_32      0.0350578000
_diffrn_orient_matrix_UB_33      -0.0826315000
_diffrn_radiation_monochromator  mirror
_diffrn_radiation_probe          x-ray
_diffrn_radiation_type           MoK\a
_diffrn_radiation_wavelength     0.71073
_diffrn_reflns_av_R_equivalents  0.0406
_diffrn_reflns_av_unetI/netI     0.0366
_diffrn_reflns_Laue_measured_fraction_full 1.000
_diffrn_reflns_Laue_measured_fraction_max 0.903
_diffrn_reflns_limit_h_max       8
_diffrn_reflns_limit_h_min       -8
_diffrn_reflns_limit_k_max       10
_diffrn_reflns_limit_k_min       -10
_diffrn_reflns_limit_l_max       10
_diffrn_reflns_limit_l_min       -10
_diffrn_reflns_number            8570
_diffrn_reflns_point_group_measured_fraction_full 1.000
_diffrn_reflns_point_group_measured_fraction_max 0.903
_diffrn_reflns_theta_full        25.242
_diffrn_reflns_theta_max         29.147
_diffrn_reflns_theta_min         2.611
_diffrn_source                   'SuperNova (Mo) X-ray Source'
_exptl_absorpt_coefficient_mu    1.517
_exptl_absorpt_correction_T_max  1.00000
_exptl_absorpt_correction_T_min  0.77552
_exptl_absorpt_correction_type   multi-scan
_exptl_absorpt_process_details
;
CrysAlisPro, Agilent Technologies,
Version 1.171.37.35 (release 13-08-2014 CrysAlis171 .NET)
(compiled Aug 13 2014,18:06:01)
Empirical absorption correction using spherical harmonics,
 implemented in SCALE3 ABSPACK scaling algorithm.
;
_exptl_crystal_colour            'clear yellowish yellow'
_exptl_crystal_colour_lustre     clear
_exptl_crystal_colour_modifier   yellowish
_exptl_crystal_colour_primary    yellow
_exptl_crystal_density_diffrn    1.834
_exptl_crystal_description       prism
_exptl_crystal_F_000             224
_exptl_crystal_size_max          0.4
_exptl_crystal_size_mid          0.34
_exptl_crystal_size_min          0.23
_refine_diff_density_max         0.496
_refine_diff_density_min         -0.954
_refine_diff_density_rms         0.132
_refine_ls_extinction_method     none
_refine_ls_goodness_of_fit_ref   1.080
_refine_ls_hydrogen_treatment    constr
_refine_ls_matrix_type           full
_refine_ls_number_parameters     97
_refine_ls_number_reflns         1929
_refine_ls_number_restraints     0
_refine_ls_restrained_S_all      1.080
_refine_ls_R_factor_all          0.0264
_refine_ls_R_factor_gt           0.0242
_refine_ls_shift/su_max          0.000
_refine_ls_shift/su_mean         0.000
_refine_ls_structure_factor_coef Fsqd
_refine_ls_weighting_details
'w=1/[\s^2^(Fo^2^)+(0.0167P)^2^+0.2810P] where P=(Fo^2^+2Fc^2^)/3'
_refine_ls_weighting_scheme      calc
_refine_ls_wR_factor_gt          0.0498
_refine_ls_wR_factor_ref         0.0508
_reflns_Friedel_coverage         0.000
_reflns_number_gt                1859
_reflns_number_total             1929
_reflns_threshold_expression     'I > 2\s(I)'
_iucr_refine_instructions_details
;

    e55vb.res created by SHELXL-2014/7

TITL CF solution in P-1
CELL 0.71073 6.557739 7.848212 7.878546 83.9093 81.0196 87.7671
ZERR 1 0.000261 0.000285 0.000267 0.0029 0.0031 0.0031
LATT 1
SFAC C H Cl N O Pd
UNIT 12 26 2 2 4 1
 
L.S. 4
PLAN  25
BOND
MORE -1
BOND $H
CONF
fmap 2
acta
REM <olex2.extras>
REM <HklSrc "%.\\e55VB.hkl">
REM </olex2.extras>
 
WGHT    0.016700    0.281000
FVAR      10.69711
PD1   6    0.500000    1.000000    0.500000    10.50000    0.00510    0.00734 =
         0.00679   -0.00152    0.00010    0.00078
CL1   3    0.280047    0.826917    0.393089    11.00000    0.00893    0.01263 =
         0.01162   -0.00389   -0.00160   -0.00159
O2    5    0.601313    0.732676    0.793168    11.00000    0.00989    0.01183 =
         0.01112   -0.00276    0.00071   -0.00005
O1    5    0.164939    0.855434    0.857950    11.00000    0.00959    0.01102 =
         0.01364    0.00067   -0.00268   -0.00035
C4    1    0.426576    0.627977    0.803224    11.00000    0.01201    0.01024 =
         0.01222   -0.00077   -0.00247   -0.00131
AFIX  23
H4A   2    0.460376    0.511052    0.844646    11.00000   -1.20000
H4B   2    0.387526    0.627668    0.689473    11.00000   -1.20000
AFIX   0
C6    1    0.767551    0.681693    0.495576    11.00000    0.00991    0.00884 =
         0.01248   -0.00022    0.00089    0.00231
AFIX  23
H6A   2    0.887610    0.622205    0.439270    11.00000   -1.20000
H6B   2    0.646540    0.619737    0.482980    11.00000   -1.20000
AFIX   0
C1    1    0.210283    1.157659    0.785466    11.00000    0.00947    0.01322 =
         0.00964   -0.00483    0.00150    0.00086
AFIX  23
H1A   2    0.064775    1.181890    0.821863    11.00000   -1.20000
H1B   2    0.286636    1.254160    0.807857    11.00000   -1.20000
AFIX   0
C3    1    0.249175    0.697092    0.925104    11.00000    0.01128    0.01147 =
         0.01213    0.00220    0.00094   -0.00174
AFIX  23
H3B   2    0.141059    0.613141    0.950336    11.00000   -1.20000
H3A   2    0.296687    0.712972    1.032824    11.00000   -1.20000
AFIX   0
C2    1    0.273685    1.000179    0.892823    11.00000    0.00862    0.01445 =
         0.00904   -0.00236    0.00033   -0.00068
AFIX  23
H2A   2    0.421381    0.979716    0.865075    11.00000   -1.20000
H2B   2    0.241664    1.016772    1.014456    11.00000   -1.20000
AFIX   0
C5    1    0.782137    0.676033    0.687103    11.00000    0.00785    0.01417 =
         0.01313   -0.00051   -0.00159    0.00414
AFIX  23
H5A   2    0.814753    0.559098    0.729359    11.00000   -1.20000
H5B   2    0.896147    0.746266    0.700012    11.00000   -1.20000
AFIX   0
N1    4    0.245378    1.142925    0.595244    11.00000    0.00730    0.00866 =
         0.00841   -0.00134    0.00066    0.00113
AFIX  13
H1    2    0.125522    1.083115    0.572569    11.00000   -1.20000
AFIX   0
HKLF 4
 
REM  CF solution in P-1
REM R1 =  0.0242 for    1859 Fo > 4sig(Fo)  and  0.0264 for all    1929 data
REM     97 parameters refined using      0 restraints
 
END  
     
WGHT      0.0167      0.2810 

REM Highest difference peak  0.496,  deepest hole -0.954,  1-sigma level  0.132
Q1    1   0.2265  0.9257  0.8699  11.00000  0.05    0.50
Q2    1   0.1388  0.6546  0.9544  11.00000  0.05    0.41
Q3    1   0.3359  0.6513  0.8784  11.00000  0.05    0.41
Q4    1   0.3932  1.3327  0.8214  11.00000  0.05    0.41
Q5    1   0.2221  0.7797  0.8831  11.00000  0.05    0.41
Q6    1   0.2205  0.7011  1.0377  11.00000  0.05    0.40
Q7    1   0.5966  0.7308  0.8641  11.00000  0.05    0.38
Q8    1   0.0570  0.5120  0.9451  11.00000  0.05    0.37
Q9    1   0.0696  0.8564  0.8809  11.00000  0.05    0.37
Q10   1   0.1002  0.5217  1.0759  11.00000  0.05    0.37
Q11   1   0.2051  1.0781  0.8431  11.00000  0.05    0.37
Q12   1   0.7328  0.6052  0.9514  11.00000  0.05    0.37
Q13   1   0.8416  0.5011  0.7170  11.00000  0.05    0.36
Q14   1   0.0186  0.6391  0.9344  11.00000  0.05    0.36
Q15   1   0.2016  0.4827  0.9772  11.00000  0.05    0.36
Q16   1   0.2313  1.2934  0.8966  11.00000  0.05    0.35
Q17   1   0.1371  1.3622  0.9785  11.00000  0.05    0.35
Q18   1   0.7370  0.5208  0.8160  11.00000  0.05    0.35
Q19   1   0.4011  0.5818  1.0226  11.00000  0.05    0.35
Q20   1   0.3276  0.9134  0.4139  11.00000  0.05    0.34
Q21   1   0.4677  0.6635  1.1186  11.00000  0.05    0.34
Q22   1   0.8282  0.7772  0.8557  11.00000  0.05    0.34
Q23   1   0.2315  0.5624  0.7457  11.00000  0.05    0.34
Q24   1   0.3722  0.5438  0.7047  11.00000  0.05    0.34
Q25   1   0.2665  0.5147  0.8815  11.00000  0.05    0.34

  REM The information below was added by Olex2.
  REM
  REM R1 = 0.0242 for 1859 Fo > 4sig(Fo) and 0.0264 for all 8570 data
  REM n/a parameters refined using n/a restraints
  REM Highest difference peak 0.50, deepest hole -0.95
  REM Mean Shift 0, Max Shift 0.000.
  
  REM +++ Tabular Listing of Refinement Information +++
  REM R1_all = 0.0264
  REM R1_gt = 0.0242
  REM wR_ref = 0.0508
  REM GOOF = 1.080
  REM Shift_max = 0.000
  REM Shift_mean = 0
  REM Reflections_all = 8570
  REM Reflections_gt = 1859
  REM Parameters = n/a
  REM Hole = -0.95
  REM Peak = 0.50
  REM Flack = n/a
  
  
;
_cod_data_source_file            c8ce01478g1.cif
_cod_data_source_block           e55vb
_cod_depositor_comments
'Adding full bibliography for 7231567--7231569.cif.'
_cod_original_cell_volume        398.15(3)
_cod_database_code               7231569
_chemical_oxdiff_formula         'C H O N S Rb'
_shelx_space_group_comment
;
The symmetry employed for this shelxl refinement is uniquely defined
by the following loop, which should always be used as a source of
symmetry information in preference to the above space-group names.
They are only intended as comments.
;
_reflns_odcompleteness_completeness 100.00
_reflns_odcompleteness_iscentric 1
_reflns_odcompleteness_theta     26.32
_olex2_refinement_description
;
1. Fixed Uiso
 At 1.2 times of:
  All C(H,H) groups, All N(H) groups
2.a Ternary CH refined with riding coordinates:
 N1(H1)
2.b Secondary CH2 refined with riding coordinates:
 C4(H4A,H4B), C6(H6A,H6B), C1(H1A,H1B), C3(H3B,H3A), C2(H2A,H2B), C5(H5A,H5B)
;
_shelx_shelxl_version_number     2014/7
_olex2_date_sample_data_collection 2015-12-09
_olex2_submission_special_instructions 'No special instructions were received'
loop_
_space_group_symop_operation_xyz
'x, y, z'
'-x, -y, -z'
loop_
_atom_site_label
_atom_site_type_symbol
_atom_site_fract_x
_atom_site_fract_y
_atom_site_fract_z
_atom_site_U_iso_or_equiv
_atom_site_adp_type
_atom_site_occupancy
_atom_site_site_symmetry_order
_atom_site_calc_flag
_atom_site_refinement_flags_posn
_atom_site_refinement_flags_adp
_atom_site_refinement_flags_occupancy
Pd1 Pd 0.5000 1.0000 0.5000 0.00649(7) Uani 1 2 d S T P
Cl1 Cl 0.28005(8) 0.82692(6) 0.39309(6) 0.01083(11) Uani 1 1 d . . .
O2 O 0.6013(2) 0.73268(18) 0.79317(18) 0.0111(3) Uani 1 1 d . . .
O1 O 0.1649(2) 0.85543(18) 0.85795(18) 0.0115(3) Uani 1 1 d . . .
C4 C 0.4266(3) 0.6280(3) 0.8032(3) 0.0114(4) Uani 1 1 d . . .
H4A H 0.4604 0.5111 0.8446 0.014 Uiso 1 1 calc R . .
H4B H 0.3875 0.6277 0.6895 0.014 Uiso 1 1 calc R . .
C6 C 0.7676(3) 0.6817(3) 0.4956(3) 0.0108(4) Uani 1 1 d . . .
H6A H 0.8876 0.6222 0.4393 0.013 Uiso 1 1 calc R . .
H6B H 0.6465 0.6197 0.4830 0.013 Uiso 1 1 calc R . .
C1 C 0.2103(3) 1.1577(3) 0.7855(3) 0.0109(4) Uani 1 1 d . . .
H1A H 0.0648 1.1819 0.8219 0.013 Uiso 1 1 calc R . .
H1B H 0.2866 1.2542 0.8079 0.013 Uiso 1 1 calc R . .
C3 C 0.2492(3) 0.6971(3) 0.9251(3) 0.0121(4) Uani 1 1 d . . .
H3B H 0.1411 0.6131 0.9503 0.015 Uiso 1 1 calc R . .
H3A H 0.2967 0.7130 1.0328 0.015 Uiso 1 1 calc R . .
C2 C 0.2737(3) 1.0002(3) 0.8928(3) 0.0108(4) Uani 1 1 d . . .
H2A H 0.4214 0.9797 0.8651 0.013 Uiso 1 1 calc R . .
H2B H 0.2417 1.0168 1.0145 0.013 Uiso 1 1 calc R . .
C5 C 0.7821(3) 0.6760(3) 0.6871(3) 0.0119(4) Uani 1 1 d . . .
H5A H 0.8148 0.5591 0.7294 0.014 Uiso 1 1 calc R . .
H5B H 0.8961 0.7463 0.7000 0.014 Uiso 1 1 calc R . .
N1 N 0.2454(3) 1.1429(2) 0.5952(2) 0.0083(3) Uani 1 1 d . . .
H1 H 0.1255 1.0831 0.5726 0.010 Uiso 1 1 calc R . .
loop_
_atom_site_aniso_label
_atom_site_aniso_U_11
_atom_site_aniso_U_22
_atom_site_aniso_U_33
_atom_site_aniso_U_23
_atom_site_aniso_U_13
_atom_site_aniso_U_12
Pd1 0.00510(12) 0.00734(11) 0.00679(12) -0.00152(8) 0.00010(8) 0.00078(8)
Cl1 0.0089(3) 0.0126(2) 0.0116(2) -0.00389(18) -0.00160(19) -0.00159(19)
O2 0.0099(8) 0.0118(7) 0.0111(7) -0.0028(6) 0.0007(6) -0.0001(6)
O1 0.0096(8) 0.0110(7) 0.0136(8) 0.0007(6) -0.0027(6) -0.0004(6)
C4 0.0120(11) 0.0102(10) 0.0122(10) -0.0008(8) -0.0025(8) -0.0013(8)
C6 0.0099(11) 0.0088(9) 0.0125(10) -0.0002(8) 0.0009(8) 0.0023(8)
C1 0.0095(11) 0.0132(10) 0.0096(10) -0.0048(8) 0.0015(8) 0.0009(8)
C3 0.0113(11) 0.0115(10) 0.0121(10) 0.0022(8) 0.0009(8) -0.0017(8)
C2 0.0086(11) 0.0145(10) 0.0090(10) -0.0024(8) 0.0003(8) -0.0007(8)
C5 0.0078(10) 0.0142(10) 0.0131(11) -0.0005(8) -0.0016(8) 0.0041(8)
N1 0.0073(9) 0.0087(8) 0.0084(8) -0.0013(6) 0.0007(7) 0.0011(7)
loop_
_atom_type_symbol
_atom_type_description
_atom_type_scat_dispersion_real
_atom_type_scat_dispersion_imag
_atom_type_scat_source
C C 0.0033 0.0016 'International Tables Vol C Tables 4.2.6.8 and 6.1.1.4'
H H 0.0000 0.0000 'International Tables Vol C Tables 4.2.6.8 and 6.1.1.4'
Cl Cl 0.1484 0.1585 'International Tables Vol C Tables 4.2.6.8 and 6.1.1.4'
N N 0.0061 0.0033 'International Tables Vol C Tables 4.2.6.8 and 6.1.1.4'
O O 0.0106 0.0060 'International Tables Vol C Tables 4.2.6.8 and 6.1.1.4'
Pd Pd -0.9988 1.0072 'International Tables Vol C Tables 4.2.6.8 and 6.1.1.4'
loop_
_geom_angle_atom_site_label_1
_geom_angle_atom_site_label_2
_geom_angle_atom_site_label_3
_geom_angle
_geom_angle_site_symmetry_1
_geom_angle_site_symmetry_3
Cl1 Pd1 Cl1 180.0 2_676 .
N1 Pd1 Cl1 91.44(5) 2_676 .
N1 Pd1 Cl1 91.44(5) . 2_676
N1 Pd1 Cl1 88.56(5) . .
N1 Pd1 Cl1 88.56(5) 2_676 2_676
N1 Pd1 N1 180.0 . 2_676
C4 O2 C5 114.61(16) . .
C3 O1 C2 112.18(16) . .
O2 C4 H4A 109.8 . .
O2 C4 H4B 109.8 . .
O2 C4 C3 109.31(17) . .
H4A C4 H4B 108.3 . .
C3 C4 H4A 109.8 . .
C3 C4 H4B 109.8 . .
H6A C6 H6B 107.5 . .
C5 C6 H6A 108.6 . .
C5 C6 H6B 108.6 . .
N1 C6 H6A 108.6 2_676 .
N1 C6 H6B 108.6 2_676 .
N1 C6 C5 114.80(17) 2_676 .
H1A C1 H1B 107.6 . .
C2 C1 H1A 108.7 . .
C2 C1 H1B 108.7 . .
N1 C1 H1A 108.7 . .
N1 C1 H1B 108.7 . .
N1 C1 C2 114.19(16) . .
O1 C3 C4 113.28(17) . .
O1 C3 H3B 108.9 . .
O1 C3 H3A 108.9 . .
C4 C3 H3B 108.9 . .
C4 C3 H3A 108.9 . .
H3B C3 H3A 107.7 . .
O1 C2 C1 109.26(17) . .
O1 C2 H2A 109.8 . .
O1 C2 H2B 109.8 . .
C1 C2 H2A 109.8 . .
C1 C2 H2B 109.8 . .
H2A C2 H2B 108.3 . .
O2 C5 C6 115.44(17) . .
O2 C5 H5A 108.4 . .
O2 C5 H5B 108.4 . .
C6 C5 H5A 108.4 . .
C6 C5 H5B 108.4 . .
H5A C5 H5B 107.5 . .
Pd1 N1 H1 105.6 . .
C6 N1 Pd1 114.17(12) 2_676 .
C6 N1 C1 108.06(15) 2_676 .
C6 N1 H1 105.6 2_676 .
C1 N1 Pd1 116.80(13) . .
C1 N1 H1 105.6 . .
loop_
_geom_bond_atom_site_label_1
_geom_bond_atom_site_label_2
_geom_bond_distance
_geom_bond_site_symmetry_2
Pd1 Cl1 2.3259(5) .
Pd1 Cl1 2.3259(5) 2_676
Pd1 N1 2.0618(17) 2_676
Pd1 N1 2.0618(17) .
O2 C4 1.423(2) .
O2 C5 1.425(2) .
O1 C3 1.424(2) .
O1 C2 1.437(2) .
C4 H4A 0.9700 .
C4 H4B 0.9700 .
C4 C3 1.511(3) .
C6 H6A 0.9700 .
C6 H6B 0.9700 .
C6 C5 1.523(3) .
C6 N1 1.488(2) 2_676
C1 H1A 0.9700 .
C1 H1B 0.9700 .
C1 C2 1.505(3) .
C1 N1 1.496(3) .
C3 H3B 0.9700 .
C3 H3A 0.9700 .
C2 H2A 0.9700 .
C2 H2B 0.9700 .
C5 H5A 0.9700 .
C5 H5B 0.9700 .
N1 C6 1.488(2) 2_676
N1 H1 0.9800 .
loop_
_geom_torsion_atom_site_label_1
_geom_torsion_atom_site_label_2
_geom_torsion_atom_site_label_3
_geom_torsion_atom_site_label_4
_geom_torsion
_geom_torsion_site_symmetry_1
_geom_torsion_site_symmetry_4
O2 C4 C3 O1 70.4(2) . .
C4 O2 C5 C6 65.3(2) . .
C3 O1 C2 C1 167.15(16) . .
C2 O1 C3 C4 -86.2(2) . .
C2 C1 N1 Pd1 -34.2(2) . .
C2 C1 N1 C6 -164.49(17) . 2_676
C5 O2 C4 C3 177.50(16) . .
N1 C6 C5 O2 68.4(2) 2_676 .
N1 C1 C2 O1 -57.2(2) . .
