#------------------------------------------------------------------------------
#$Date: 2023-12-01 15:23:56 +0200 (Fri, 01 Dec 2023) $
#$Revision: 287932 $
#$URL: file:///home/coder/svn-repositories/cod/cif/7/23/18/7231802.cif $
#------------------------------------------------------------------------------
#
# This file is available in the Crystallography Open Database (COD),
# http://www.crystallography.net/
#
# All data on this site have been placed in the public domain by the
# contributors.
#
data_7231802
loop_
_publ_author_name
'Heine, Miriam'
'Fink, Lothar'
'Schmidt, Martin U.'
_publ_section_title
;
 3-Cyanopyridine as a bridging and terminal ligand in coordination
 polymers
;
_journal_issue                   46
_journal_name_full               CrystEngComm
_journal_page_first              7556
_journal_paper_doi               10.1039/C8CE01568F
_journal_volume                  20
_journal_year                    2018
_chemical_formula_iupac          'C12 H8 Br2 Mn N4'
_chemical_formula_moiety         'C12 H8 Br2 Mn N4'
_chemical_formula_structural     'C12 H8 Br2 Mn N4'
_chemical_formula_sum            'C12 H8 Br2 Mn N4'
_chemical_formula_weight         422.96
_chemical_name_common            Dibromo-di(3-cyanopyridine)manganat
_chemical_name_systematic
; 
Catena-dibromo-di(3-cyanopyridine)manganat
;
_space_group_IT_number           58
_space_group_name_Hall           '-P 2 2n'
_space_group_name_H-M_alt        'P n n m'
_symmetry_cell_setting           orthorhombic
_symmetry_space_group_name_Hall  '-P 2 2n'
_symmetry_space_group_name_H-M   'P n n m'
_cell_angle_alpha                90
_cell_angle_beta                 90
_cell_angle_gamma                90
_cell_formula_units_Z            2
_cell_length_a                   27.30464(39)
_cell_length_b                   7.221904(94)
_cell_length_c                   3.829715(43)
_cell_measurement_temperature    298
_cell_volume                     755.187(17)
_computing_cell_refinement       'DASH (David <i> et al.</i> , 2004)'
_computing_data_collection       'STOE WINXPOW (STOE & Cie GmbH, 2004)'
_computing_data_reduction        'DASH (David <i>et al.</i>, 2004)'
_computing_molecular_graphics    'MERCURY (Macrea <i>et al.</i>)'
_computing_structure_refinement  'TOPAS (Coelho, 2007)'
_computing_structure_solution    'DASH (David <i>et al.</i>, 2004)'
_diffrn_ambient_temperature      298
_diffrn_detector_type            'lin psd'
_diffrn_measurement_device_type  'STOE Stadi-P'
_diffrn_radiation_monochromator  'primary focussing, Ge 111'
_diffrn_radiation_source         'X-ray tube'
_diffrn_radiation_type           'Cu K\a~1~'
_diffrn_radiation_wavelength     1.540598
_exptl_crystal_colour            colorless
_exptl_crystal_density_diffrn    1.860
_pd_instr_location               ' ?'
_pd_meas_2theta_range_max        100
_pd_meas_2theta_range_min        4
_pd_meas_number_of_points        4960
_pd_meas_scan_method             step
_pd_proc_2theta_range_max        100
_pd_proc_2theta_range_min        4
_pd_proc_info_excluded_regions   none
_pd_proc_ls_background_function  'Chebychev polynomial'
_pd_proc_ls_pref_orient_corr     'no correction'
_pd_proc_ls_profile_function
;
modified spherical harmonics(Coelho, 2007)
;
_pd_proc_ls_prof_R_factor        0.02095
_pd_proc_ls_prof_wR_expected     0.02231
_pd_proc_ls_prof_wR_factor       0.02694
_pd_spec_mounting
;
Specimen was sealed in a 0.5 mm diameter borosilicate glass capillary. 
;
_pd_spec_mount_mode              transmission
_pd_spec_shape                   cylinder
_pd_spec_size_axial              12
_pd_spec_size_equat              0.7
_pd_spec_size_thick              0.7
_refine_ls_extinction_method     none
_refine_ls_goodness_of_fit_all   1.208
_refine_ls_hydrogen_treatment    mixed
_refine_ls_matrix_type           fullcycle
_refine_ls_number_constraints    1
_refine_ls_number_parameters     67
_refine_ls_number_restraints     29
_refine_ls_R_I_factor            0.01039
_refine_ls_weighting_details     w=1/\s(Y~obs~)^2^
_refine_ls_weighting_scheme      sigma
_cod_data_source_file            c8ce01568f9.cif
_cod_data_source_block           MnBr2(3-cypy)2
_cod_depositor_comments
'Adding full bibliography for 7231797--7231808.cif.'
_cod_original_cell_volume        755.188(17)
_cod_original_sg_symbol_H-M      'P  n n m'
_cod_database_code               7231802
loop_
_symmetry_equiv_pos_as_xyz
'-x, -y, -z'
'-x, -y, z'
'-x+1/2, y+1/2, -z+1/2'
'-x+1/2, y+1/2, z+1/2'
'x, y, -z'
'x, y, z'
'x+1/2, -y+1/2, -z+1/2'
'x+1/2, -y+1/2, z+1/2'
loop_
_atom_site_label
_atom_site_type_symbol
_atom_site_symmetry_multiplicity
_atom_site_fract_x
_atom_site_fract_y
_atom_site_fract_z
_atom_site_occupancy
_atom_site_B_iso_or_equiv
_atom_site_U_iso_or_equiv
C1 C 0 0.3878(1) 0.4478(3) 0.5 1 3.3007 0.04180
C2 C 0 0.3418(2) 0.3677(4) 0.5 1 3.3007 0.04180
H3 H 0 0.3911(7) 0.5868(2) 0.5 1 3.96084 0.05016
N4 N 0 0.4278(9) 0.3420(4) 0.5 1 3.3007 0.04180
C5 C 0 0.3364(7) 0.1791(2) 0.5 1 3.3007 0.04180
C6 C 0 0.2988(1) 0.4835(5) 0.5 1 3.3007 0.04180
C7 C 0 0.4238(9) 0.1574(7) 0.5 1 3.3007 0.04180
Mn8 Mn 0 0.5 0.5 0.5 1 3.3007 0.04180
C9 C 0 0.378(4) 0.0712(7) 0.5 1 3.3007 0.04180
H10 H 0 0.3026(5) 0.1239(5) 0.5 1 3.96084 0.05016
N11 N 0 0.2649(9) 0.5769(3) 0.5 1 3.3007 0.04180
H12 H 0 0.4545(5) 0.0817(5) 0.5 1 3.96084 0.05016
Br13 Br 0 0.5335(2) 0.2712(5) 1.0 1 3.3007 0.04180
H14 H 0 0.3749(4) -0.0686(2) 0.5 1 3.96084 0.05016
loop_
_atom_type_symbol
_atom_type_description
_atom_type_scat_source
C C 'International Tables Vol C Table 6.1.1.4'
H H 'International Tables Vol C Table 6.1.1.4'
Fe Fe 'International Tables Vol C Table 6.1.1.4'
Br Br 'International Tables Vol C Table 6.1.1.4'
N N 'International Tables Vol C Table 6.1.1.4'
loop_
_geom_angle_atom_site_label_1
_geom_angle_atom_site_label_2
_geom_angle_atom_site_label_3
_geom_angle
C2 C1 H3 119.7616(2)
C2 C1 N4 120.2404(4)
H3 C1 N4 119.9979(4)
C1 C2 C5 120.9628(2)
C1 C2 C6 119.8072(1)
C5 C2 C6 119.2299(8)
C1 N4 C7 120.3498(2)
C1 N4 Mn8 114.8697(4)
C7 N4 Mn8 124.8170(5)
C2 C5 C9 118.2086(4)
C2 C5 H10 119.6215(5)
C9 C5 H10 122.1698(2)
C2 C6 N11 179.4250(2)
N4 C7 C9 121.1719(2)
N4 C7 H12 118.3881(2)
C9 C7 H12 120.4399(8)
N4 Mn8 Br13 89.1654(4)
C5 C9 C7 119.0664(1)
C5 C9 H14 119.6503(5)
C7 C9 H14 121.2832(4)
loop_
_geom_bond_atom_site_label_1
_geom_bond_atom_site_label_2
_geom_bond_distance
C1 C2 1.3831(2)
C1 H3 1.0080(9)
C1 N4 1.3311(8)
C2 C5 1.3700(1)
C2 C6 1.4412(3)
N4 C7 1.3378(5)
N4 Mn8 2.2820(4)
C5 C9 1.3783(5)
C5 H10 1.0049(2)
C6 N11 1.1474(3)
C7 C9 1.3957(1)
C7 H12 1.0016(1)
Mn8 Br13 2.6903(1)
C9 H14 1.0128(2)
