#------------------------------------------------------------------------------
#$Date: 2019-11-17 15:32:48 +0200 (Sun, 17 Nov 2019) $
#$Revision: 230903 $
#$URL: file:///home/coder/svn-repositories/cod/cif/7/23/14/7231472.cif $
#------------------------------------------------------------------------------
#
# This file is available in the Crystallography Open Database (COD),
# http://www.crystallography.net/
#
# All data on this site have been placed in the public domain by the
# contributors.
#
data_7231472
loop_
_publ_author_name
'Escudero-Ad\'an, Eduardo C'
'Bauz\'a, Antonio'
'Lecomte, Claude'
'Frontera, Antonio'
'Ballester, Pablo'
_publ_section_title
;
 Boron triel bonding: a weak electrostatic interaction lacking
 electron-density descriptors.
;
_journal_issue                   37
_journal_name_full               'Physical chemistry chemical physics : PCCP'
_journal_page_first              24192
_journal_page_last               24200
_journal_paper_doi               10.1039/c8cp04401e
_journal_volume                  20
_journal_year                    2018
_chemical_formula_sum            'C5 H7 B Cl N O2'
_chemical_formula_weight         159.38
_space_group_IT_number           7
_space_group_name_Hall           'P -2yc'
_space_group_name_H-M_alt        'P 1 c 1'
_symmetry_cell_setting           monoclinic
_symmetry_space_group_name_Hall  'P -2yc'
_symmetry_space_group_name_H-M   'P 1 c 1'
_atom_sites_solution_hydrogens   difmap
_atom_sites_solution_primary     direct
_atom_sites_solution_secondary   difmap
_audit_creation_method           'MoPro v16                '
_audit_update_record
;
2018-06-05 deposited with the CCDC.
2018-08-30 downloaded from the CCDC.
;
_cell_angle_alpha                90
_cell_angle_beta                 105.5034(8)
_cell_angle_gamma                90
_cell_formula_units_Z            2
_cell_length_a                   6.20620(5)
_cell_length_b                   5.25334(4)
_cell_length_c                   11.18373(9)
_cell_measurement_reflns_used    25830
_cell_measurement_temperature    90(2)
_cell_measurement_theta_max      65.0110
_cell_measurement_theta_min      3.3830
_cell_volume                     351.359(5)
_computing_structure_refinement  'MoPro (J. Appl. Cryst. 2005, 38, 38-54)'
_diffrn_ambient_temperature      90(2)
_diffrn_detector_area_resol_mean 5.8140
_diffrn_detector_type            'PILATUS 200K'
_diffrn_measured_fraction_theta_full 1.000
_diffrn_measured_fraction_theta_max 0.949
_diffrn_measurement_device_type  '1/4chi goniometer'
_diffrn_measurement_method
;
 Fullsphere data collection, phi and omega scans
;
_diffrn_radiation_monochromator  'Confocal Max Flux optic'
_diffrn_radiation_type           MoK\a
_diffrn_radiation_wavelength     0.7107
_diffrn_reflns_av_R_equivalents  0.0121
_diffrn_reflns_av_sigmaI/netI    0.00878
_diffrn_reflns_av_unetI/netI     0.0090
_diffrn_reflns_limit_h_max       10
_diffrn_reflns_limit_h_min       -14
_diffrn_reflns_limit_k_max       12
_diffrn_reflns_limit_k_min       0
_diffrn_reflns_limit_l_max       26
_diffrn_reflns_limit_l_min       -26
_diffrn_reflns_number            31805
_diffrn_reflns_theta_full        25.242
_diffrn_reflns_theta_max         58.52
_diffrn_reflns_theta_min         3.41
_diffrn_source                   'Microfocus rotating anode X-ray tube'
_diffrn_source_current           24
_diffrn_source_power             50
_diffrn_source_size              '0.2 mm x 0.2 mm fine focus'
_diffrn_source_type              'Rigaku MicroMax-007HF'
_exptl_absorpt_coefficient_mu    0.467
_exptl_absorpt_correction_T_max  0.892
_exptl_absorpt_correction_T_min  0.686
_exptl_absorpt_correction_type   multi-scan
_exptl_absorpt_process_details   'SADABS 2014/5'
_exptl_crystal_colour            block
_exptl_crystal_density_diffrn    1.506
_exptl_crystal_description       colourless
_exptl_crystal_F_000             164
_exptl_crystal_size_max          0.3
_exptl_crystal_size_mid          0.3
_exptl_crystal_size_min          0.25
_refine_ls_abs_structure_details 'Rogers (1981),  2660 Friedel pairs'
_refine_ls_abs_structure_Rogers  1.
_refine_ls_extinction_coef       0.06130
_refine_ls_extinction_method     'Isotropic Gaussian'
_refine_ls_goodness_of_fit_ref   0.989
_refine_ls_hydrogen_treatment    refxyz
_refine_ls_matrix_type           full
_refine_ls_number_parameters     334
_refine_ls_number_reflns         7501
_refine_ls_number_restraints     154
_refine_ls_restrained_S_all      127.046
_refine_ls_R_factor_all          0.0063
_refine_ls_R_factor_gt           0.0063
_refine_ls_shift/su_max          -0.088
_refine_ls_shift/su_mean         -0.001
_refine_ls_structure_factor_coef Fsqd
_refine_ls_weighting_details     'calc w =1/[2.25*\s^2^(Fo^2^)]'
_refine_ls_weighting_scheme      calc
_refine_ls_wR_factor_gt          0.0139
_refine_ls_wR_factor_ref         0.0139
_reflns_number_gt                7480
_reflns_number_total             7501
_reflns_threshold_expression     >2.0sigma(I)
_iucr_refine_instructions_details
; 
! MoPro v16 17/11/2017 22:36:04 D:\0-FRAMES\MOPRO\BOH2N_Cl_2\R-Free\BOH2N_Cl_2_
#Mg_48.par
! reflections hkl file : D:\0-FRAMES\MOPRO\BOH2N_Cl_2\BOH2N_Cl_2_Mg.hkl refin. 
#vs. F^2
! atomic table file : D:\0-FRAMES\MOPRO\MoProSuite_1704_win\MoProSuite_1704_win
#\LibMoPro\mopro.tab
! wave functions file : D:\0-FRAMES\MOPRO\MoProSuite_1704_win\MoProSuite_1704_w
#in\LibMoPro\WAVEF
! Constraints file : D:\0-FRAMES\MOPRO\BOH2N_Cl_2\CONSTRAIN.txt
! Restraints file : D:\0-FRAMES\MOPRO\BOH2N_Cl_2\RESTRAIN.txt
! RF factor = 0.631 % RI factor = 0.970%
! wR2F factor = 0.702 % wR2I factor = 1.392%
! g.o.f.(F**2) = 0.997 Nvar= 334 Nref= 7501 Nfree= 0 0.08<sinT/l< 1.20

! P00 Dip Qua Oct Hex l=5 l=6
! Cl- nl = 4 4 4 6 8 8 8
! Cl- zeta= 4.259 4.259 4.259 4.259 4.259 4.259 4.259
! O nl = 2 2 2 3 4 4 4
! O zeta= 4.466 4.466 4.466 4.466 4.466 4.466 4.466
! N nl = 2 2 2 3 4 4 4
! N zeta= 3.839 3.839 3.839 3.839 3.839 3.839 3.839
! C nl = 2 2 2 3 4 4 4
! C zeta= 3.176 3.176 3.176 3.176 3.176 3.176 3.176
! B nl = 2 2 2 3 4 4 4
! B zeta= 2.525 2.525 2.525 2.525 2.525 2.525 2.525
! H nl = 1 1 2 2 2 2 2
! H zeta= 2.000 2.000 2.000 2.000 2.000 2.000 2.000

WSIG 2.25000 ! weighting scheme
 ! SPACE GROUP P ?

CELL 6.2062 5.2533 11.1837 90.0000 105.5030 90.0000 0.71073
ZERR 0.0000 0.0000 0.0001 0.0000 0.0010 0.0000

SYMM 2 P
 X , Y, Z
 X , -Y, Z+1/2

SCALE 1 1.339340

FMULT 1.00000

UOVER 0.00000 0.00000 0.00000 0.00000 0.00000 0.00000 ANI

SOLVT 0.00000 50.00000

EXTIN 0.06130 GAUSSIAN ISOT TYP1 ! G*10^4


DUMMY 0

KAPPA 17
 1.016850 0.592942 ! # 1 1 MOL CL1 1X Cl-
 0.987817 1.149269 ! # 2 1 MOL O1 1X O
 0.987635 1.047461 ! # 3 1 MOL O2 1X O
 0.995030 0.832906 ! # 4 1 MOL N1 1X N
 0.999245 0.980833 ! # 5 1 MOL C1 1X C
 1.013250 0.898132 ! # 6 1 MOL C2 1X C
 0.993906 0.907561 ! # 7 1 MOL C3 1X C
 0.986934 0.893888 ! # 8 1 MOL C4 1X C
 1.011774 0.984808 ! # 9 1 MOL C5 1X C
 1.041868 0.954862 ! # 10 1 MOL B1 1X B
 1.284698 1.413400 ! # 11 1 MOL H1 1X H
 1.173632 1.195520 ! # 12 1 MOL H2 1X H
 1.195919 1.187938 ! # 13 1 MOL H3 1X H
 1.182347 1.188280 ! # 14 1 MOL H4 1X H
 1.167855 1.186062 ! # 15 1 MOL H5 1X H
 1.130314 1.509244 ! # 16 1 MOL H1O 1X H
 1.130537 1.515140 ! # 17 1 MOL H2O 1X H


ATOMS 17

ATOM 1 CL1 MOL 1 0.065373 -0.325320 0.314079 1.0000 1 Cl-
bZX N1 C4 OCT K1 V0 M0 Q0
UANI 0.012202 0.010523 0.010209 -.000508 0.003091 -.000177
 8.00051 0. -.045 0.045 0.076 0.061 -.029 0.015 -.036 0.012
 -.028 0.001 -.015 -.027 0.002 -.020 0.022

ATOM 2 O1 MOL 1 0.964309 0.806572 0.562254 1.0000 1 O
bXY B1 H1O OCT K2 V0 M0 Q0
UANI 0.015405 0.015118 0.016960 -.006328 0.009346 -.004020
 6.29024 0. -.027 -.010 -.029 0.001 0.003 -.001 0.019 -.012
 -.012 -.027 -.008 -.006 0.007 -.063 -.002

ATOM 3 O2 MOL 1 0.745178 0.879040 0.701749 1.0000 1 O
bXY B1 H2O OCT K3 V0 M0 Q0
UANI 0.013829 0.012111 0.013531 -.002680 0.006232 -.003075
 6.25191 0. -.059 -.005 -.004 -.004 0.006 -.002 0.023 -.024
 0. -.008 -.019 0.001 0.003 -.053 0.013

ATOM 4 N1 MOL 1 0.333871 0.118455 0.464909 1.0000 1 N
bXY C4 C3 OCT K4 V0 M0 Q0
UANI 0.011987 0.011400 0.011714 -.003480 0.003497 -.001236
 5.03629 0. -.089 0.003 0.004 -.143 -.001 0.008 0.012 0.014
 0.001 0.023 0.005 -.009 -.002 -.233 0.011

ATOM 5 C1 MOL 1 0.626474 0.510485 0.555719 1.0000 1 C
bXY C2 C5 OCT K5 V0 M0 Q0
UANI 0.009945 0.009963 0.010199 -.001939 0.003737 -.000754
 4.04020 0. -.004 -.012 -.016 -.215 0.008 0.005 0.036 0.010
 0. 0.002 0.001 -.007 -.003 -.235 0.006

ATOM 6 C2 MOL 1 0.453967 0.448015 0.609843 1.0000 1 C
bXY C3 C1 OCT K6 V0 M0 Q0
UANI 0.011579 0.012555 0.011502 -.003041 0.005344 -.002135
 3.94743 0. -.004 0.024 0. -.225 0.009 -.007 0.031 0.013
 0.013 0.017 -.015 0.005 0.002 -.301 0.051

ATOM 7 C3 MOL 1 0.308880 0.249901 0.563274 1.0000 1 C
bXY N1 C2 OCT K7 V0 M0 Q0
UANI 0.011750 0.013482 0.012986 -.003977 0.005423 -.001521
 4.21814 0. -.044 0.053 0.013 -.263 -.001 -.002 0.003 0.108
 -.001 0.019 0.035 0.002 0.008 -.344 0.081

ATOM 8 C4 MOL 1 0.494641 0.171341 0.408859 1.0000 1 C
bXY N1 C5 OCT K8 V0 M0 Q0
UANI 0.014170 0.012485 0.011688 -.003372 0.005168 -.002774
 4.19257 0. -.042 0.118 -.009 -.256 -.010 0.008 0.030 0.085
 -.002 0.022 0.019 -.003 -.013 -.380 0.080

ATOM 9 C5 MOL 1 0.644255 0.366673 0.453113 1.0000 1 C
bXY C4 C1 OCT K9 V0 M0 Q0
UANI 0.012527 0.012539 0.011837 -.003184 0.005880 -.002267
 3.96342 0. -.021 0.045 -.003 -.186 0.002 -.005 0.021 0.043
 0.009 0.034 0.012 -.003 0.013 -.250 0.043

ATOM 10 B1 MOL 1 0.791944 0.739803 0.609708 1.0000 1 B
bXY O2 O1 OCT K10 V0 M0 Q0
UANI 0.010872 0.010392 0.011394 -.002208 0.004412 -.001080
 2.70134 0. 0.016 -.020 0.006 -.367 -.014 -.013 -.050 -.027
 -.010 0.033 0.030 0.003 -.004 -.465 0.085

ATOM 11 H1 MOL 1 0.224221 -0.028432 0.430356 1.0000 1 H
 ZX N1 C4 DIP K11 V0 M0 Q0
UANI 0.023109 0.023114 0.023950 -.007377 0.006302 -.006023
 0.56075 0. 0. 0. 0.092

ATOM 12 H2 MOL 1 0.435633 0.553962 0.690230 1.0000 1 H
 ZX C2 C3 DIP K12 V0 M0 Q0
UANI 0.029993 0.029492 0.029350 -.007238 0.016054 -.013201
 0.86469 0. 0. 0. 0.164

ATOM 13 H3 MOL 1 0.174882 0.201798 0.605297 1.0000 1 H
 ZX C3 N1 DIP K13 V0 M0 Q0
UANI 0.024639 0.032476 0.033507 -.012203 0.016301 -.008862
 0.70916 0. 0. 0. 0.141

ATOM 14 H4 MOL 1 0.507156 0.059453 0.329002 1.0000 1 H
 ZX C4 N1 DIP K14 V0 M0 Q0
UANI 0.033675 0.030066 0.024025 -.008541 0.014114 -.011301
 0.72186 0. 0. 0. 0.120

ATOM 15 H5 MOL 1 0.773856 0.410214 0.407137 1.0000 1 H
 ZX C5 C4 DIP K15 V0 M0 Q0
UANI 0.033120 0.035281 0.029133 -.012970 0.020396 -.007213
 0.88833 0. 0. 0. 0.167

ATOM 16 H1O MOL 1 0.977931 0.717970 0.486344 1.0000 1 H
 ZX O1 B1 DIP K16 V0 M0 Q0
UANI 0.033288 0.033787 0.025834 -.012923 0.017141 -.011176
 0.81198 0. 0. 0. 0.139

ATOM 17 H2O MOL 1 0.850643 1.019836 0.730019 1.0000 1 H
 ZX O2 B1 DIP K17 V0 M0 Q0
UANI 0.022136 0.020957 0.027113 -.007192 0.010091 -.005212
 0.80119 0. 0. 0. 0.118

ANHAR 2 4 ! number_of_anharmonic_atoms max_order
 1 ! CL1 1 ! atom_number
 0. 0. 0. 4.36E-04 0. 0. 0. 0.
-4.56E-05-2.05E-04
 1.32E-04 1.25E-04 0. 0. 0. 3.40E-04 0. 0.
 0. 1.20E-04 0. 0. 0. 0. 0.
 2 ! O1 1 ! atom_number
 0. 0. 0. 1.65E-03-4.13E-04-6.30E-04-1.65E-04 0.
 3.70E-04 1.05E-03
 0. 0. 0. 0. 0. 0. 0. 0.
 0. 0. 0. 0. 0. 0. 0.


STOP
;
_cod_data_source_file            c8cp04401e2.cif
_cod_data_source_block           I_CCDC1
_cod_depositor_comments
;
The following automatic conversions were performed:

'_symmetry_cell_setting' value 'Monoclinic' changed to 'monoclinic'
according to
/home/data/users/saulius/crontab/automatic-downloads/rss-feeds/RSC/lib/dictionaries/cif_core.dic
dictionary named 'cif_core.dic' version 2.4.2 from 2011-04-26.

'_exptl_absorpt_correction_type' value 'Multi-scan' changed to
'multi-scan' according to
/home/data/users/saulius/crontab/automatic-downloads/rss-feeds/RSC/lib/dictionaries/cif_core.dic
dictionary named 'cif_core.dic' version 2.4.2 from 2011-04-26.

Automatic conversion script
Id: cif_fix_values 4973 2017-02-22 13:04:09Z antanas 

 Adding full bibliography for 7231471--7231476.cif.
;
_cod_original_sg_symbol_H-M      Pc
_cod_database_code               7231472
_shelx_space_group_comment
;
The symmetry employed for this shelxl refinement is uniquely defined
by the following loop, which should always be used as a source of
symmetry information in preference to the above space-group names.
They are only intended as comments.
;
_shelx_estimated_absorpt_t_min   0.873
_shelx_estimated_absorpt_t_max   0.892
loop_
_space_group_symop_operation_xyz
'x, y, z'
'x, -y, z+1/2'
loop_
_atom_site_type_symbol
_atom_site_label
_atom_site_fract_x
_atom_site_fract_y
_atom_site_fract_z
_atom_site_U_iso_or_equiv
_atom_site_adp_type
_atom_site_occupancy
_atom_site_calc_flag
_atom_site_refinement_flags_posn
_atom_site_refinement_flags_adp
Cl CL1 0.0654(6) -0.325320(6) 0.3141(3) 0.010959(10) Uani 1 d . .
O O1 0.9643(6) 0.80657(5) 0.5623(3) 0.014864(17) Uani 1 d . .
O O2 0.7452(6) 0.87904(2) 0.7017(3) 0.012663(14) Uani 1 d . .
N N1 0.3339(6) 0.118455(16) 0.4649(3) 0.011637(12) Uani 1 d . .
C C1 0.6265(6) 0.510485(16) 0.5557(3) 0.009835(12) Uani 1 d . .
C C2 0.4540(6) 0.448015(18) 0.6098(3) 0.011445(13) Uani 1 d . .
C C3 0.3089(6) 0.249901(18) 0.5633(3) 0.012333(13) Uani 1 d . .
C C4 0.4946(6) 0.171341(18) 0.4089(3) 0.012453(14) Uani 1 d . .
C C5 0.6443(6) 0.36667(2) 0.4531(3) 0.011797(13) Uani 1 d . .
B B1 0.7919(6) 0.73980(2) 0.6097(3) 0.010610(15) Uani 1 d . .
H H1 0.2242(9) -0.0284(8) 0.4304(5) 0.02339 Uani 1 d D U
H H2 0.4356(8) 0.5540(8) 0.6902(5) 0.02805 Uani 1 d D U
H H3 0.1749(9) 0.2018(9) 0.6053(5) 0.02857 Uani 1 d D U
H H4 0.5072(9) 0.0595(8) 0.3290(5) 0.02803 Uani 1 d D U
H H5 0.7739(8) 0.4102(8) 0.4071(5) 0.03019 Uani 1 d D U
H H1O 0.9779(12) 0.7180(12) 0.4863(6) 0.02920 Uani 1 d D U
H H2O 0.8506(11) 1.0198(10) 0.7300(6) 0.02273 Uani 1 d D U
loop_
_atom_site_aniso_label
_atom_site_aniso_U_11
_atom_site_aniso_U_22
_atom_site_aniso_U_33
_atom_site_aniso_U_12
_atom_site_aniso_U_13
_atom_site_aniso_U_23
CL1 0.012202(17) 0.01052(2) 0.010209(6) -0.000508(4) 0.003091(5) -0.000177(5)
O1 0.01541(3) 0.01512(3) 0.01696(4) -0.00633(2) 0.00935(3) -0.00402(3)
O2 0.01383(3) 0.01211(3) 0.01353(3) -0.00268(2) 0.00623(2) -0.00307(2)
N1 0.01199(2) 0.01140(2) 0.01171(2) -0.003480(16) 0.003497(18) -0.00124(2)
C1 0.00994(2) 0.00996(2) 0.01020(2) -0.001939(16) 0.003737(18) -0.00075(2)
C2 0.01158(2) 0.01255(3) 0.01150(3) -0.003041(17) 0.005344(19) -0.00214(2)
C3 0.01175(2) 0.01348(3) 0.01299(3) -0.003977(19) 0.005423(19) -0.00152(2)
C4 0.01417(3) 0.01249(3) 0.01169(3) -0.003372(18) 0.00517(2) -0.00277(2)
C5 0.01253(2) 0.01254(3) 0.01184(3) -0.003184(19) 0.00588(2) -0.00227(2)
B1 0.01087(3) 0.01039(3) 0.01139(3) -0.002208(18) 0.00441(2) -0.00108(2)
H1 0.02311 0.02311 0.02395 -0.00738 0.00630 -0.00602
H2 0.02999 0.02949 0.02935 -0.00724 0.01605 -0.01320
H3 0.02464 0.03248 0.03351 -0.01220 0.01630 -0.00886
H4 0.03368 0.03007 0.02403 -0.00854 0.01411 -0.01130
H5 0.03312 0.03528 0.02913 -0.01297 0.02040 -0.00721
H1O 0.03329 0.03379 0.02583 -0.01292 0.01714 -0.01118
H2O 0.02214 0.02096 0.02711 -0.00719 0.01009 -0.00521
loop_
_atom_type_symbol
_atom_type_description
_atom_type_scat_dispersion_real
_atom_type_scat_dispersion_imag
_atom_type_scat_source
C C 0.0034 0.0017 'International Tables Vol C Tables 4.2.6.8 and 6.1.1.4'
H H 0.0000 0.0000 'International Tables Vol C Tables 4.2.6.8 and 6.1.1.4'
N N 0.0066 0.0034 'International Tables Vol C Tables 4.2.6.8 and 6.1.1.4'
O O 0.0114 0.0062 'International Tables Vol C Tables 4.2.6.8 and 6.1.1.4'
Cl Cl 0.1507 0.1611 'International Tables Vol C Tables 4.2.6.8 and 6.1.1.4'
B B 0.0014 0.0007 'International Tables Vol C Tables 4.2.6.8 and 6.1.1.4'
loop_
_geom_angle_atom_site_label_1
_geom_angle_atom_site_label_2
_geom_angle_atom_site_label_3
_geom_angle
B1 O1 H1O 117.9(3)
B1 O2 H2O 113.0(3)
C4 N1 C3 122.655(8)
C4 N1 H1 118.54(10)
C3 N1 H1 118.81(10)
C2 C1 C5 117.590(7)
C2 C1 B1 120.160(7)
C5 C1 B1 122.246(7)
C3 C2 C1 120.573(7)
C3 C2 H2 119.61(10)
C1 C2 H2 119.81(10)
N1 C3 C2 119.290(8)
N1 C3 H3 120.21(10)
C2 C3 H3 120.49(10)
N1 C4 C5 119.883(7)
N1 C4 H4 119.76(10)
C5 C4 H4 120.36(10)
C4 C5 C1 120.005(8)
C4 C5 H5 119.79(10)
C1 C5 H5 120.19(10)
O2 B1 O1 120.465(13)
O2 B1 C1 116.645(8)
O1 B1 C1 122.765(12)
loop_
_geom_bond_atom_site_label_1
_geom_bond_atom_site_label_2
_geom_bond_distance
O1 B1 1.3611(3)
O1 H1O 0.991(5)
O2 B1 1.35593(16)
O2 H2O 0.982(5)
N1 C4 1.34164(13)
N1 C3 1.34250(14)
N1 H1 1.033(2)
C1 C2 1.40240(11)
C1 C5 1.40265(14)
C1 B1 1.59341(13)
C2 C3 1.38366(12)
C2 H2 1.089(2)
C3 H3 1.089(2)
C4 C5 1.38362(12)
C4 H4 1.089(2)
C5 H5 1.088(2)
loop_
_geom_hbond_atom_site_label_D
_geom_hbond_atom_site_label_H
_geom_hbond_atom_site_label_A
_geom_hbond_distance_DH
_geom_hbond_distance_HA
_geom_hbond_distance_DA
_geom_hbond_angle_DHA
_geom_hbond_site_symmetry_A
N1 H1 O1 1.033(2) 2.608(2) 3.2350(3) 118.81(13) 1_445
C3 H3 O1 1.089(2) 2.432(2) 3.1598(3) 123.01(13) 1_445
N1 H1 CL1 1.033(2) 2.100(2) 3.09102(9) 159.99(6) 1
O1 H1O C5 0.991(5) 2.724(6) 3.0789(2) 101.5(4) 1
C3 H3 CL1 1.089(2) 2.680(2) 3.54605(11) 136.11(12) 2
C4 H4 O2 1.089(2) 2.331(2) 3.12699(17) 128.42(11) 2_564
O1 H1O CL1 0.991(5) 2.149(5) 3.0834(3) 156.5(3) 1_665
O2 H2O CL1 0.982(5) 2.137(5) 3.11272(10) 172.21(9) 2_665
loop_
_geom_torsion_atom_site_label_1
_geom_torsion_atom_site_label_2
_geom_torsion_atom_site_label_3
_geom_torsion_atom_site_label_4
_geom_torsion
O1 B1 O2 H2O -2.7(7)
O1 B1 C1 C2 179.0(6)
O1 B1 C1 C5 -1.8(6)
O2 B1 O1 H1O -170.2(8)
O2 B1 C1 C2 -5.1(6)
O2 B1 C1 C5 174.1(6)
N1 C4 C5 C1 -0.6(5)
N1 C4 C5 H5 -179.6(7)
N1 C3 C2 C1 -0.4(5)
N1 C3 C2 H2 -179.3(7)
C1 C2 C3 H3 -179.9(8)
C1 C5 C4 H4 179.8(7)
C1 B1 O2 H2O -178.7(7)
C1 B1 O1 H1O 5.6(8)
C2 C3 N1 C4 -0.2(6)
C2 C3 N1 H1 -179.6(7)
C2 C1 C5 C4 0.0(6)
C2 C1 C5 H5 179.0(7)
C3 N1 C4 C5 0.7(5)
C3 N1 C4 H4 -179.7(7)
C3 C2 C1 C5 0.5(5)
C3 C2 C1 B1 179.7(5)
C4 N1 C3 H3 179.3(7)
C4 C5 C1 B1 -179.2(6)
C5 C4 N1 H1 -179.9(7)
C5 C1 C2 H2 179.4(7)
B1 C1 C2 H2 -1.4(7)
B1 C1 C5 H5 -0.2(7)
H1 N1 C4 H4 -0.2(8)
H1 N1 C3 H3 -0.1(9)
H2 C2 C3 H3 1.2(9)
H4 C4 C5 H5 0.8(9)
