#------------------------------------------------------------------------------
#$Date: 2019-11-17 15:32:33 +0200 (Sun, 17 Nov 2019) $
#$Revision: 230902 $
#$URL: file:///home/coder/svn-repositories/cod/cif/7/23/14/7231414.cif $
#------------------------------------------------------------------------------
#
# This file is available in the Crystallography Open Database (COD),
# http://www.crystallography.net/
#
# All data on this site have been placed in the public domain by the
# contributors.
#
data_7231414
loop_
_publ_author_name
'Collings, Ines E.'
'Manna, Rudra Sekhar'
'Tsirlin, Alexander A.'
'Bykov, Maxim'
'Bykova, Elena'
'Hanfland, Michael'
'Gegenwart, Philipp'
'van Smaalen, Sander'
'Dubrovinsky, Leonid'
'Dubrovinskaia, Natalia'
_publ_section_title
;
 Pressure dependence of spin canting in ammonium metal formate
 antiferromagnets.
;
_journal_issue                   37
_journal_name_full               'Physical chemistry chemical physics : PCCP'
_journal_page_first              24465
_journal_page_last               24476
_journal_paper_doi               10.1039/c8cp03761b
_journal_volume                  20
_journal_year                    2018
_chemical_formula_moiety         'C6 H6 Mn2 O12, N2 H8'
_chemical_formula_sum            'C6 H14 Mn2 N2 O12'
_chemical_formula_weight         416.1
_space_group_IT_number           4
_space_group_name_Hall           'P 2yb'
_space_group_name_H-M_alt        'P 1 21 1'
_symmetry_cell_setting           monoclinic
_symmetry_Int_Tables_number      4
_symmetry_space_group_name_Hall  'P 2yb'
_symmetry_space_group_name_H-M   'P 1 21 1'
_audit_creation_method           'Jana2006 Version : 25/10/2015'
_audit_update_record
;
2018-08-09 deposited with the CCDC.
2018-08-22 downloaded from the CCDC.
;
_cell_angle_alpha                90
_cell_angle_beta                 89.96(3)
_cell_angle_gamma                90
_cell_formula_units_Z            2
_cell_length_a                   6.651(3)
_cell_length_b                   7.067(3)
_cell_length_c                   13.839(4)
_cell_measurement_reflns_used    114
_cell_measurement_temperature    293
_cell_measurement_theta_max      11.28
_cell_measurement_theta_min      1.96
_cell_volume                     650.5(4)
_computing_cell_refinement       'CrysAlisPro 1.171.38.43 (Rigaku OD, 2015)'
_computing_data_collection       'CrysAlisPro 1.171.38.43 (Rigaku OD, 2015)'
_computing_data_reduction        'CrysAlisPro 1.171.38.43 (Rigaku OD, 2015)'
_diffrn_ambient_pressure         '1.98 GPa'
_diffrn_ambient_temperature      293
_diffrn_detector                 'CCD plate'
_diffrn_measured_fraction_theta_full 0.84
_diffrn_measured_fraction_theta_max 0.81
_diffrn_measurement_device       'ID15B beamline, ESRF'
_diffrn_measurement_device_type
'esperanto-CrysAlisPro-abstract goniometer imported esperanto images'
_diffrn_measurement_method       '\w scans'
_diffrn_measurement_specimen_support 'diamond-anvil cell'
_diffrn_radiation_monochromator  synchrotron
_diffrn_radiation_probe          x-ray
_diffrn_radiation_source         synchrotron
_diffrn_radiation_type           synchrotron
_diffrn_radiation_wavelength     0.41111
_diffrn_reflns_av_R_equivalents  0.0673
_diffrn_reflns_av_unetI/netI     0.0791
_diffrn_reflns_limit_h_max       6
_diffrn_reflns_limit_h_min       -6
_diffrn_reflns_limit_k_max       6
_diffrn_reflns_limit_k_min       -6
_diffrn_reflns_limit_l_max       13
_diffrn_reflns_limit_l_min       -13
_diffrn_reflns_number            1960
_diffrn_reflns_theta_full        8.26
_diffrn_reflns_theta_max         11.89
_diffrn_reflns_theta_min         1.7
_diffrn_source                   synchrotron
_exptl_absorpt_coefficient_mu    0.43
_exptl_absorpt_correction_T_max  1
_exptl_absorpt_correction_T_min  0.866
_exptl_absorpt_correction_type   multi-scan
_exptl_absorpt_process_details
;
CrysAlisPro 1.171.38.43 (Rigaku Oxford Diffraction, 2015)
Empirical absorption correction using spherical harmonics,
 implemented in SCALE3 ABSPACK scaling algorithm.
;
_exptl_crystal_colour            colourless
_exptl_crystal_density_diffrn    2.1242
_exptl_crystal_description       'hexagonal bipyramid'
_exptl_crystal_F_000             404
_exptl_crystal_size_max          0.090
_exptl_crystal_size_mid          0.070
_exptl_crystal_size_min          0.050
_refine_diff_density_max         1.42
_refine_diff_density_min         -1.45
_refine_ls_abs_structure_details
'  730 of Friedel pairs used in the refinement'
_refine_ls_extinction_method     none
_refine_ls_goodness_of_fit_gt    4.69
_refine_ls_goodness_of_fit_ref   3.76
_refine_ls_hydrogen_treatment    constr
_refine_ls_number_constraints    49
_refine_ls_number_parameters     87
_refine_ls_number_reflns         1960
_refine_ls_number_restraints     0
_refine_ls_R_factor_all          0.2059
_refine_ls_R_factor_gt           0.1587
_refine_ls_shift/su_max          0.0425
_refine_ls_shift/su_mean         0.0086
_refine_ls_structure_factor_coef F
_refine_ls_weighting_details     w=1/(\s^2^(F)+0.0001F^2^)
_refine_ls_weighting_scheme      sigma
_refine_ls_wR_factor_gt          0.1768
_refine_ls_wR_factor_ref         0.1856
_reflns_number_gt                1168
_reflns_number_total             1960
_reflns_threshold_expression     I>3\s(I)
_cod_data_source_file            c8cp03761b2.cif
_cod_data_source_block           AMnF_c2_p04
_cod_depositor_comments
;
The following automatic conversions were performed:

'_diffrn_radiation_probe' value 'X-ray' changed to 'x-ray' according
to
/home/data/users/saulius/crontab/automatic-downloads/rss-feeds/RSC/lib/dictionaries/cif_core.dic
dictionary named 'cif_core.dic' version 2.4.2 from 2011-04-26.

Automatic conversion script
Id: cif_fix_values 4973 2017-02-22 13:04:09Z antanas 

 Adding full bibliography for 7231402--7231432.cif.
;
_cod_database_code               7231414
loop_
_space_group_symop_id
_space_group_symop_operation_xyz
1 x,y,z
2 -x,y+1/2,-z
loop_
_atom_site_label
_atom_site_type_symbol
_atom_site_fract_x
_atom_site_fract_y
_atom_site_fract_z
_atom_site_adp_type
_atom_site_U_iso_or_equiv
_atom_site_site_symmetry_multiplicity
_atom_site_occupancy
_atom_site_calc_flag
Mn1 Mn 0.6355(8) 0.7099(9) 0.8505(3) Uani 0.0518(15) 2 1 d
Mn2 Mn 1.1352(8) 0.2200(9) 0.6489(3) Uani 0.0518(15) 2 1 d
C1 C 0.892(6) -0.139(6) 0.552(2) Uiso 0.062(4) 2 1 d
C2 C 0.528(7) 1.009(7) 0.709(3) Uiso 0.085(6) 2 1 d
C3 C 1.041(5) 0.906(5) 0.8000(19) Uiso 0.049(4) 2 1 d
C4 C 0.240(6) 0.483(5) 0.8162(18) Uiso 0.056(4) 2 1 d
C5 C 0.759(5) 0.445(5) 0.6856(18) Uiso 0.055(4) 2 1 d
C6 C 0.618(6) 0.584(6) 1.046(2) Uiso 0.054(4) 2 1 d
O1 O 1.068(3) 1.080(3) 0.7806(13) Uiso 0.049(4) 2 1 d
O2 O 0.497(4) 0.949(4) 0.9306(13) Uiso 0.054(4) 2 1 d
O3 O 0.357(4) 0.574(4) 0.8666(13) Uiso 0.056(4) 2 1 d
O4 O 0.735(4) 0.592(3) 0.9872(14) Uiso 0.054(4) 2 1 d
O5 O 0.782(3) 0.470(4) 0.7739(13) Uiso 0.055(4) 2 1 d
O6 O 0.427(5) 1.083(5) 0.6316(16) Uiso 0.085(6) 2 1 d
O7 O 0.928(3) 0.854(4) 0.8619(12) Uiso 0.049(4) 2 1 d
O8 O 0.264(4) 0.457(4) 0.7242(13) Uiso 0.056(4) 2 1 d
O9 O 0.848(3) 0.352(4) 0.6287(13) Uiso 0.055(4) 2 1 d
O10 O 1.006(4) 0.000(4) 0.5665(14) Uiso 0.062(4) 2 1 d
O11 O 0.564(5) 0.857(5) 0.7129(18) Uiso 0.085(6) 2 1 d
O12 O 1.243(4) 0.341(4) 0.5075(15) Uiso 0.062(4) 2 1 d
N1 N 0.634(4) 0.208(5) 0.4667(15) Uani 0.051(8) 2 1 d
N2 N 0.122(4) 0.704(5) 1.0306(15) Uani 0.051(8) 2 1 d
H1c1 H 0.914807 -0.246315 0.593338 Uiso 0.0746 2 1 d
H1c2 H 0.568794 1.09138 0.760932 Uiso 0.1017 2 1 d
H1c6 H 0.60277 0.696516 1.083716 Uiso 0.0642 2 1 d
H1c5 H 0.648938 0.514821 0.658528 Uiso 0.0654 2 1 d
H1c3 H 1.114067 0.81304 0.763668 Uiso 0.0582 2 1 d
H1c4 H 0.124696 0.427067 0.846709 Uiso 0.0675 2 1 d
loop_
_atom_site_aniso_label
_atom_site_aniso_type_symbol
_atom_site_aniso_U_11
_atom_site_aniso_U_22
_atom_site_aniso_U_33
_atom_site_aniso_U_12
_atom_site_aniso_U_13
_atom_site_aniso_U_23
Mn1 Mn 0.070(3) 0.017(2) 0.068(2) 0.001(2) -0.0074(16) -0.002(2)
Mn2 Mn 0.070(3) 0.017(2) 0.068(2) 0.001(2) -0.0074(16) -0.002(2)
N1 N 0.048(15) 0.052(15) 0.053(10) 0.007(12) 0.005(8) 0.042(11)
N2 N 0.048(15) 0.052(15) 0.053(10) 0.007(12) 0.005(8) 0.042(11)
loop_
_atom_type_symbol
_atom_type_scat_dispersion_real
_atom_type_scat_dispersion_imag
_atom_type_scat_source
C -0.0001 0.0005 'International Tables Vol C tables 4.2.6.8 and 6.1.1.1'
H 0.0000 0.0000 'International Tables Vol C tables 4.2.6.8 and 6.1.1.1'
Mn 0.1790 0.2615 'International Tables Vol C tables 4.2.6.8 and 6.1.1.1'
N 0.0006 0.0010 'International Tables Vol C tables 4.2.6.8 and 6.1.1.1'
O 0.0018 0.0018 'International Tables Vol C tables 4.2.6.8 and 6.1.1.1'
loop_
_geom_angle_atom_site_label_1
_geom_angle_atom_site_label_2
_geom_angle_atom_site_label_3
_geom_angle_site_symmetry_1
_geom_angle_site_symmetry_3
_geom_angle
O2 Mn1 O3 . . 86.0(9)
O2 Mn1 O4 . . 89.0(8)
O2 Mn1 O5 . . 178.1(8)
O2 Mn1 O7 . . 88.7(9)
O2 Mn1 O11 . . 89.0(10)
O3 Mn1 O4 . . 90.1(9)
O3 Mn1 O5 . . 95.0(9)
O3 Mn1 O7 . . 169.8(7)
O3 Mn1 O11 . . 96.7(10)
O4 Mn1 O5 . . 89.4(8)
O4 Mn1 O7 . . 81.1(8)
O4 Mn1 O11 . . 172.8(11)
O5 Mn1 O7 . . 90.0(9)
O5 Mn1 O11 . . 92.4(10)
O7 Mn1 O11 . . 91.9(10)
O1 Mn2 O6 1_545 1_645 94.2(9)
O1 Mn2 O8 1_545 1_655 91.7(8)
O1 Mn2 O9 1_545 . 97.4(8)
O1 Mn2 O10 1_545 . 92.0(9)
O1 Mn2 O12 1_545 . 171.9(10)
O6 Mn2 O8 1_645 1_655 92.6(10)
O6 Mn2 O9 1_645 . 166.2(8)
O6 Mn2 O10 1_645 . 88.6(11)
O6 Mn2 O12 1_645 . 77.9(10)
O8 Mn2 O9 1_655 . 94.6(9)
O8 Mn2 O10 1_655 . 176.0(9)
O8 Mn2 O12 1_655 . 89.9(8)
O9 Mn2 O10 . . 83.4(10)
O9 Mn2 O12 . . 90.3(9)
O10 Mn2 O12 . . 86.6(9)
O10 C1 O12 . 2_746 130(4)
O10 C1 H1c1 . . 115.2
O12 C1 H1c1 2_746 . 115.2
O6 C2 O11 . . 121(4)
O6 C2 H1c2 . . 119.61
O11 C2 H1c2 . . 119.61
O1 C3 O7 . . 123(3)
O1 C3 H1c3 . . 118.74
O7 C3 H1c3 . . 118.74
O3 C4 O8 . . 124(3)
O3 C4 H1c4 . . 118.16
O8 C4 H1c4 . . 118.16
O5 C5 O9 . . 132(3)
O5 C5 H1c5 . . 113.96
O9 C5 H1c5 . . 113.96
O2 C6 O4 2_647 . 130(4)
O2 C6 H1c6 2_647 . 114.9
O4 C6 H1c6 . . 114.9
Mn2 O1 C3 1_565 . 131.5(18)
Mn1 O2 C6 . 2_657 162(2)
Mn1 O3 C4 . . 138(2)
Mn1 O4 C6 . . 116(2)
Mn1 O5 C5 . . 121(2)
Mn2 O6 C2 1_465 . 121(2)
Mn1 O7 C3 . . 130.3(19)
Mn2 O8 C4 1_455 . 122(2)
Mn2 O9 C5 . . 127(2)
Mn2 O10 C1 . . 155(2)
Mn1 O11 C2 . . 123(3)
Mn2 O12 C1 . 2_756 113(2)
loop_
_geom_bond_atom_site_label_1
_geom_bond_atom_site_label_2
_geom_bond_site_symmetry_2
_geom_bond_distance
Mn1 O2 . 2.22(2)
Mn1 O3 . 2.10(3)
Mn1 O4 . 2.17(2)
Mn1 O5 . 2.23(2)
Mn1 O7 . 2.20(2)
Mn1 O11 . 2.22(3)
Mn2 O1 1_545 2.12(2)
Mn2 O6 1_645 2.18(3)
Mn2 O8 1_655 2.15(2)
Mn2 O9 . 2.15(2)
Mn2 O10 . 2.11(3)
Mn2 O12 . 2.25(2)
C1 O10 . 1.26(5)
C1 O12 2_746 1.23(4)
C1 H1c1 . 0.96
C2 O6 . 1.37(5)
C2 O11 . 1.10(6)
C2 H1c2 . 0.96
C3 O1 . 1.27(4)
C3 O7 . 1.20(4)
C3 H1c3 . 0.96
C4 O3 . 1.23(4)
C4 O8 . 1.30(3)
C4 H1c4 . 0.96
C5 O5 . 1.24(3)
C5 O9 . 1.18(4)
C5 H1c5 . 0.96
C6 O2 2_647 1.26(5)
C6 O4 . 1.13(4)
C6 H1c6 . 0.96
loop_
_twin_individual_id
_twin_individual_mass_fraction_refined
_twin_individual_twin_matrix_11
_twin_individual_twin_matrix_12
_twin_individual_twin_matrix_13
_twin_individual_twin_matrix_21
_twin_individual_twin_matrix_22
_twin_individual_twin_matrix_23
_twin_individual_twin_matrix_31
_twin_individual_twin_matrix_32
_twin_individual_twin_matrix_33
1 0.240(7) 1 0 0 0 1 0 0 0 1
2 0.379(5) -1 0 -0.0975 0 -1 0 -0.02 0 1
3 0.380(5) 0.4617 0 1.8584 0 -1 0 0.4244 0 -0.4617
loop_
_twin_refln_datum_id
_twin_refln_individual_id
_twin_refln_index_h
_twin_refln_index_k
_twin_refln_index_l
_twin_refln_f_squared_calc
_twin_refln_f_squared_meas
_twin_refln_f_squared_sigma
_twin_refln_include_status
1 1 0 -5 -6 40.47 5.30 2.62 <
2 1 0 -5 -7 1.65 1.44 5.99 <
3 1 0 -5 -8 43.56 13.49 4.59 <
4 1 0 -5 -9 0.44 -0.96 1.80 <
5 1 0 -4 -4 190.43 114.51 19.51 o
6 1 0 -4 -5 4.75 70.57 20.39 o
7 1 0 -4 -6 95.90 77.29 13.94 o
8 1 0 -4 -7 5.00 16.14 6.94 <
9 1 0 -4 -8 14.46 6.56 6.75 <
10 1 0 -4 -9 0.53 1.25 3.31 <
11 1 0 -4 -10 104.76 19.76 7.95 <
12 1 0 -4 -11 2.88 3.54 1.23 <
13 1 0 -3 -3 295.66 725.68 40.55 o
14 1 0 -3 -4 355.72 539.18 34.00 o
15 1 0 -3 -5 9.59 130.95 39.69 o
16 1 0 -3 -6 91.25 97.24 12.94 o
17 1 0 -3 -7 3.89 6.80 3.69 <
18 1 0 -3 -8 88.80 54.08 11.70 o
19 1 0 -3 -9 0.38 -3.21 1.98 <
20 1 0 -3 -10 14.09 16.31 9.36 <
21 1 0 -3 -11 4.29 3.94 6.50 <
22 1 0 -3 -12 80.26 60.82 17.46 o
23 2 0 2 -2 394.32 504.08 26.70 o
23 1 0 -2 -2 394.32 504.08 26.70 o
24 1 0 -2 -3 59.62 48.84 10.91 o
25 1 0 -2 -4 753.42 893.00 37.00 o
26 1 0 -2 -5 186.04 148.47 15.50 o
27 1 0 -2 -6 721.94 842.64 40.75 o
28 1 0 -2 -7 9.83 59.84 14.53 o
29 1 0 -2 -8 153.03 118.53 17.14 o
30 1 0 -2 -9 38.68 6.01 3.40 <
31 1 0 -2 -10 206.67 201.44 26.07 o
32 1 0 -2 -11 1.45 8.82 9.14 <
33 1 0 -2 -12 4.00 14.75 6.83 <
34 1 0 -2 -13 0.72 -6.19 8.00 <
35 2 0 1 -1 16.82 20.99 3.76 o
35 1 0 -1 -1 16.82 20.99 3.76 o
36 2 0 1 -2 6606.48 4024.36 59.31 o
36 1 0 -1 -2 6606.48 4024.36 59.31 o
37 1 0 -1 -3 193.40 262.18 15.81 o
38 1 0 -1 -4 857.30 1158.64 38.97 o
39 1 0 -1 -5 162.18 106.88 12.35 o
40 1 0 -1 -6 1244.11 1150.26 47.55 o
41 1 0 -1 -7 8.59 22.53 7.82 <
42 1 0 -1 -8 396.67 577.13 39.72 o
43 1 0 -1 -9 30.53 7.64 0.94 o
44 1 0 -1 -10 1.27 -1.46 3.27 <
45 1 0 -1 -11 6.07 3.47 2.52 <
46 1 0 -1 -12 82.18 81.09 19.88 o
47 1 0 -1 -13 14.21 17.25 11.32 <
48 2 0 0 -2 744.94 321.56 13.30 o
48 1 0 0 -2 744.94 321.56 13.30 o
49 2 0 0 2 744.94 321.81 12.98 o
49 1 0 0 2 744.94 321.81 12.98 o
50 1 0 0 -3 1.03 0.88 2.01 <
51 1 0 0 3 1.03 0.21 1.16 <
52 1 0 0 4 216.39 157.39 15.20 o
53 1 0 0 -4 216.39 153.37 16.09 o
54 1 0 0 -5 5.33 -2.18 3.39 <
55 1 0 0 5 5.33 -1.88 3.02 <
56 1 0 0 6 673.62 547.27 34.25 o
57 1 0 0 7 0.80 247.96 30.04 o
58 1 0 0 8 93.57 34.44 9.33 o
59 1 0 0 9 0.41 -4.03 5.27 <
60 1 0 0 10 215.99 129.59 21.18 o
61 1 0 0 11 1.05 -3.56 6.97 <
62 2 0 -1 1 16.81 19.48 3.16 o
62 1 0 1 1 16.81 19.48 3.16 o
63 2 0 -1 2 6606.27 4145.16 59.81 o
63 1 0 1 2 6606.27 4145.16 59.81 o
64 1 0 1 3 193.26 284.80 16.82 o
65 1 0 1 4 858.55 1180.80 38.11 o
66 1 0 1 5 162.26 110.05 11.56 o
67 1 0 1 6 1243.99 1095.79 44.45 o
68 1 0 1 7 8.63 32.70 9.88 o
69 1 0 1 8 395.86 522.76 37.92 o
70 1 0 1 9 30.58 4.82 2.22 <
71 1 0 1 10 1.28 -2.05 2.31 <
72 1 0 1 11 6.10 -0.67 5.51 <
73 1 0 1 12 82.38 52.96 16.21 o
74 1 0 1 13 14.16 4.44 3.23 <
75 1 0 2 3 59.52 53.51 12.45 o
76 1 0 2 4 756.67 1076.75 43.44 o
77 1 0 2 5 185.83 198.10 18.78 o
78 1 0 2 6 723.93 1062.13 47.63 o
79 1 0 2 7 9.78 66.00 15.26 o
80 1 0 2 8 152.92 103.54 14.88 o
81 1 0 2 9 38.77 2.85 4.30 <
82 1 0 2 10 205.86 151.47 21.98 o
83 1 0 2 11 1.47 7.78 7.82 <
84 1 0 2 12 4.04 0.41 7.35 <
85 1 0 2 13 0.71 0.27 2.10 <
86 1 0 3 4 356.32 576.22 36.21 o
87 1 0 3 5 9.21 123.79 40.30 o
88 1 0 3 6 90.39 155.87 18.96 o
89 1 0 3 7 3.85 -0.36 3.63 <
90 1 0 3 8 89.07 72.15 14.41 o
91 1 0 3 9 0.35 -3.71 6.30 <
92 1 0 3 10 14.15 -6.25 8.13 <
93 1 0 3 11 4.27 6.78 3.43 <
94 1 0 3 12 80.77 60.88 18.49 o
95 1 0 4 6 94.42 113.14 18.20 o
96 1 0 4 7 4.92 33.41 10.88 o
97 1 0 4 8 14.60 2.78 3.64 <
98 1 0 4 9 0.56 0.62 5.40 <
99 1 0 4 10 105.12 17.19 9.02 <
100 1 0 4 11 2.75 3.33 6.98 <
101 1 0 5 8 44.18 26.85 14.35 <
102 1 0 5 9 0.39 -6.26 4.03 <
103 1 -1 -6 -5 10.29 54.35 18.51 <
104 3 -3 6 1 130.52 42.86 14.80 <
104 1 -1 -6 -6 130.52 42.86 14.80 <
105 1 1 -5 -9 53.03 36.71 13.64 <
106 1 -1 -5 -3 161.20 331.78 29.36 o
107 1 -1 -5 -4 264.45 491.23 38.72 o
108 1 -1 -5 -5 104.34 87.30 14.25 o
109 3 -3 5 1 258.06 23.48 8.79 <
109 1 -1 -5 -6 258.06 23.48 8.79 <
110 1 -1 -5 -7 16.01 9.04 3.95 <
111 1 -1 -5 -8 15.70 7.17 3.93 <
112 1 -1 -5 -9 59.02 20.25 9.90 <
113 1 1 -4 -11 5.61 10.03 8.12 <
114 1 1 -4 -10 31.37 27.65 8.61 o
115 1 1 -4 -9 11.26 6.23 3.21 <
116 1 1 -4 -8 60.22 20.78 5.51 o
117 1 1 -4 -7 51.79 43.83 13.06 o
118 1 -1 -4 -2 481.42 1050.75 48.20 o
119 1 -1 -4 -3 499.96 863.09 42.98 o
120 1 -1 -4 -4 82.93 135.65 16.63 o
121 1 -1 -4 -5 20.09 12.70 3.72 o
122 3 -3 4 1 52.26 72.81 24.59 <
122 1 -1 -4 -6 52.26 72.81 24.59 <
123 1 -1 -4 -7 51.61 29.77 9.41 o
124 1 -1 -4 -8 60.25 21.74 9.21 <
125 1 -1 -4 -9 19.83 5.32 5.58 <
126 1 -1 -4 -10 24.39 12.16 5.25 <
127 1 -1 -4 -11 11.03 6.69 4.97 <
128 1 1 -3 -12 12.45 -0.31 3.12 <
129 1 1 -3 -11 15.43 18.64 9.33 <
130 1 1 -3 -10 69.53 19.93 7.68 <
131 1 1 -3 -9 111.55 55.00 14.82 o
132 1 1 -3 -8 16.89 4.55 1.57 <
133 1 1 -3 -7 66.71 64.52 12.19 o
134 1 1 -3 -6 124.56 282.04 27.70 o
135 1 1 -3 -5 255.49 254.61 28.35 o
136 2 1 3 -1 829.04 851.43 36.44 o
136 1 -1 -3 -1 829.04 851.43 36.44 o
137 1 -1 -3 -2 507.19 1020.75 40.48 o
138 1 -1 -3 -3 128.88 200.00 16.66 o
139 1 -1 -3 -4 782.67 1275.31 46.61 o
140 1 -1 -3 -5 291.85 328.74 23.87 o
141 3 -3 3 1 366.94 176.48 19.92 o
141 1 -1 -3 -6 366.94 176.48 19.92 o
142 1 -1 -3 -7 83.93 48.41 9.61 o
143 1 -1 -3 -8 7.44 4.51 1.92 <
144 1 -1 -3 -9 142.91 54.31 13.03 o
145 1 -1 -3 -10 58.17 30.23 8.29 o
146 1 -1 -3 -11 32.60 33.81 12.13 <
147 1 -1 -3 -12 6.87 -1.34 7.16 <
148 1 1 -2 -13 27.21 15.09 4.20 o
149 1 1 -2 -12 15.28 -0.12 6.51 <
150 1 1 -2 -11 11.99 9.67 6.51 <
151 1 1 -2 -10 21.63 22.97 9.86 <
152 1 1 -2 -9 0.52 11.83 5.86 <
153 1 1 -2 -8 427.59 266.26 25.53 o
154 1 1 -2 -7 197.51 168.04 18.36 o
155 1 1 -2 -6 131.80 254.81 23.52 o
156 1 1 -2 -5 56.76 106.96 14.85 o
157 1 1 -2 -4 386.61 608.08 36.35 o
158 2 1 2 -1 404.56 314.10 17.66 o
158 1 -1 -2 -1 404.56 314.10 17.66 o
159 1 -1 -2 -2 1058.27 1435.78 36.61 o
160 1 -1 -2 -3 1248.57 1768.23 45.50 o
161 1 -1 -2 -4 325.86 669.94 31.50 o
162 1 -1 -2 -5 60.70 98.33 12.30 o
163 3 -3 2 1 541.10 220.19 22.22 o
163 1 -1 -2 -6 541.10 220.19 22.22 o
164 1 -1 -2 -7 249.30 186.50 20.89 o
165 1 -1 -2 -8 410.60 290.23 27.81 o
166 1 -1 -2 -9 7.48 -2.26 4.52 <
167 1 -1 -2 -10 21.29 -0.66 6.87 <
168 1 -1 -2 -11 13.09 23.86 11.69 <
169 1 -1 -2 -12 8.68 7.64 6.56 <
170 1 -1 -2 -13 28.48 28.92 13.18 <
171 1 1 -1 -13 7.64 3.69 3.36 <
172 1 -1 -1 12 11.57 8.62 5.04 <
173 1 1 -1 -12 11.57 -6.89 8.64 <
174 1 1 -1 -11 22.20 16.28 9.16 <
175 1 -1 -1 11 22.20 13.89 5.67 <
176 1 -1 -1 10 114.04 102.62 16.91 o
177 1 1 -1 -10 114.04 144.59 22.66 o
178 1 1 -1 -9 139.94 158.43 21.44 o
179 1 -1 -1 9 139.94 140.72 18.45 o
180 1 -1 -1 8 31.10 6.67 4.16 <
181 1 1 -1 -8 31.10 15.32 3.57 o
182 1 -1 -1 7 102.69 74.93 11.96 o
183 1 1 -1 -7 102.69 90.83 13.29 o
184 1 1 -1 -6 328.77 433.00 29.20 o
185 1 -1 -1 6 328.77 409.48 26.54 o
186 1 1 -1 -5 359.24 292.07 20.03 o
187 1 -1 -1 5 359.25 276.07 17.39 o
188 1 -1 -1 4 824.26 1025.94 28.99 o
189 1 1 -1 -4 824.26 1011.10 42.27 o
190 1 1 -1 -3 382.88 504.86 28.92 o
191 1 -1 -1 3 382.88 515.47 16.62 o
192 2 1 1 -1 1658.99 1025.14 22.80 o
192 1 -1 -1 -1 1658.99 1025.14 22.80 o
193 1 -1 -1 -2 106.89 140.63 10.90 o
194 1 -1 -1 -3 283.68 298.10 18.87 o
195 1 -1 -1 -4 879.20 1077.10 43.85 o
196 1 -1 -1 -5 437.29 286.73 23.52 o
197 3 -3 1 1 1111.24 446.78 33.04 o
197 1 -1 -1 -6 1111.24 446.78 33.04 o
198 1 -1 -1 -7 154.10 70.29 14.24 o
199 1 -1 0 13 19.31 18.05 8.15 <
200 1 -1 0 12 45.73 17.67 8.26 <
201 1 1 0 -12 45.73 19.72 7.98 <
202 1 -1 0 11 3.78 5.92 5.38 <
203 1 1 0 -11 3.78 13.45 8.67 <
204 1 -1 0 10 45.32 35.38 10.37 o
205 1 1 0 -10 45.32 30.74 9.22 o
206 1 1 0 -9 235.61 283.21 29.62 o
207 1 -1 0 9 235.61 252.12 25.56 o
208 1 1 0 -8 217.57 225.66 23.47 o
209 1 -1 0 8 217.57 223.10 21.19 o
210 1 1 0 -7 174.89 132.18 18.35 o
211 1 -1 0 7 174.89 146.51 16.11 o
212 1 -1 0 6 23.51 44.70 8.75 o
213 1 1 0 -6 23.51 38.04 9.62 o
214 1 1 0 -5 451.32 497.47 26.22 o
215 1 -1 0 5 451.32 494.80 24.00 o
216 1 -1 0 4 28.08 27.77 4.60 o
217 1 1 0 -4 28.08 32.25 5.72 o
218 1 -1 0 3 23.33 52.02 6.61 o
219 1 1 0 -3 23.33 34.52 5.43 o
220 1 1 0 -2 295.63 342.38 17.03 o
221 1 -1 0 2 295.63 339.35 18.14 o
222 1 -1 1 13 7.96 0.70 3.81 <
223 1 -1 1 12 11.43 7.04 6.43 <
224 1 -1 1 11 21.22 14.20 7.50 <
225 1 -1 1 10 119.93 107.90 17.48 o
226 1 -1 1 9 135.68 115.79 16.91 o
227 1 -1 1 8 31.73 13.57 2.98 o
228 1 -1 1 7 104.88 99.57 13.77 o
229 1 -1 1 6 335.43 542.86 34.48 o
230 1 -1 1 5 373.32 396.30 25.53 o
231 1 -1 1 4 797.78 1064.20 45.00 o
232 1 -1 1 3 375.61 521.18 29.82 o
233 2 -1 -1 1 1669.69 1168.95 24.81 o
233 1 1 1 1 1669.69 1168.95 24.81 o
234 1 1 1 2 103.23 161.95 12.17 o
235 1 1 1 3 290.29 368.94 21.86 o
236 1 1 1 4 907.15 1242.79 48.58 o
237 1 1 1 5 420.72 337.92 25.35 o
238 3 3 -1 -1 1112.12 465.51 34.73 o
238 1 1 1 6 1112.12 465.51 34.73 o
239 1 1 1 7 151.15 69.81 14.97 o
240 1 1 1 8 50.11 12.79 6.42 <
241 1 1 1 9 133.96 65.14 13.30 o
242 1 1 1 10 127.49 51.86 15.57 o
243 1 1 1 11 15.07 7.30 5.55 <
244 1 -1 2 13 28.59 25.25 13.30 <
245 1 -1 2 12 17.14 9.04 8.79 <
246 1 -1 2 11 11.75 4.20 2.59 <
247 1 -1 2 10 21.42 23.19 9.60 <
248 1 -1 2 9 0.29 11.01 8.08 <
249 1 -1 2 8 431.08 301.60 29.81 o
250 1 -1 2 7 199.01 206.39 22.82 o
251 1 -1 2 6 128.75 287.73 26.63 o
252 1 -1 2 5 57.12 118.33 15.70 o
253 2 -1 -2 1 428.49 321.84 19.45 o
253 1 1 2 1 428.49 321.84 19.45 o
254 1 1 2 2 1050.10 1701.14 43.90 o
255 1 1 2 3 1238.68 1954.69 48.43 o
256 1 1 2 4 316.67 644.68 30.20 o
257 1 1 2 5 60.49 107.46 12.67 o
258 3 3 -2 -1 532.23 203.12 19.67 o
258 1 1 2 6 532.23 203.12 19.67 o
259 1 1 2 7 246.12 185.64 19.84 o
260 1 1 2 8 407.03 246.13 27.50 o
261 1 1 2 9 6.44 -2.32 2.49 <
262 1 1 2 10 21.52 12.91 8.57 <
263 1 1 2 11 13.42 9.31 5.68 <
264 1 1 2 12 7.91 2.43 3.68 <
265 1 1 2 13 27.12 25.04 10.48 <
266 1 -1 3 12 12.69 -2.50 8.93 <
267 1 -1 3 11 16.74 9.25 2.43 o
268 1 -1 3 10 70.34 18.47 7.72 <
269 1 -1 3 9 113.44 65.30 16.35 o
270 1 -1 3 8 17.16 8.05 10.20 <
271 1 -1 3 7 66.84 78.08 12.94 o
272 1 -1 3 6 125.98 272.60 28.28 o
273 1 1 3 3 132.24 247.76 20.19 o
274 1 1 3 4 780.45 1689.54 59.32 o
275 1 1 3 5 288.54 430.93 29.22 o
276 3 3 -3 -1 373.45 204.73 20.86 o
276 1 1 3 6 373.45 204.73 20.86 o
277 1 1 3 7 83.84 59.64 11.70 o
278 1 1 3 8 7.11 -3.59 5.70 <
279 1 1 3 9 140.67 42.87 10.54 o
280 1 1 3 10 57.52 21.83 7.42 <
281 1 1 3 11 30.74 17.58 9.24 <
282 1 1 3 12 6.65 7.15 8.48 <
283 1 -1 4 11 5.46 7.39 7.05 <
284 1 -1 4 10 31.63 52.09 17.42 <
285 1 -1 4 9 11.01 12.78 11.09 <
286 1 -1 4 8 58.37 40.88 11.62 o
287 1 1 4 4 83.47 178.11 21.14 o
288 1 1 4 5 20.22 26.86 6.45 o
289 3 3 -4 -1 52.01 97.02 29.36 o
289 1 1 4 6 52.01 97.02 29.36 o
290 1 1 4 7 51.10 68.64 16.14 o
291 1 1 4 8 61.37 22.05 13.03 <
292 1 1 4 9 20.29 -0.47 5.35 <
293 1 1 4 10 24.08 16.41 9.00 <
294 1 1 4 11 11.23 -7.84 8.78 <
295 3 3 -5 -1 255.97 44.90 14.17 o
295 1 1 5 6 255.97 44.90 14.17 o
296 1 1 5 7 15.67 26.15 10.77 <
297 1 1 5 8 16.13 -2.70 5.49 <
298 1 1 5 9 59.51 27.49 14.68 <
299 1 -2 -6 -2 29.91 25.82 8.32 o
300 1 -2 -6 -3 10.09 13.44 9.57 <
301 1 -2 -6 -4 12.55 12.31 8.76 <
302 1 -2 -6 -5 157.86 102.35 18.16 o
303 1 -2 -5 -1 210.18 336.65 27.12 o
304 1 -2 -5 -2 10.10 21.95 2.13 o
305 1 -2 -5 -3 291.07 502.06 32.28 o
306 1 -2 -5 -4 12.34 8.83 3.50 <
307 1 -2 -5 -5 9.31 -0.79 5.01 <
308 1 -2 -5 -6 18.43 12.57 5.52 <
309 1 -2 -5 -7 151.92 93.89 17.50 o
310 1 -2 -5 -8 9.47 1.19 5.47 <
311 1 2 -4 -10 5.14 2.59 4.70 <
312 1 2 -4 -9 105.55 298.66 46.26 o
313 1 -2 -4 0 35.42 83.48 14.93 o
314 1 -2 -4 -1 450.12 731.69 34.11 o
315 1 -2 -4 -2 245.17 364.81 21.24 o
316 1 -2 -4 -3 247.45 307.18 22.86 o
317 1 -2 -4 -4 3.53 2.73 0.22 o
318 1 -2 -4 -5 717.71 612.56 38.85 o
319 1 -2 -4 -6 1.24 8.17 4.97 <
320 1 -2 -4 -7 8.79 13.31 6.01 <
321 1 -2 -4 -8 6.00 6.97 7.41 <
322 1 -2 -4 -9 98.19 65.57 14.89 o
323 1 -2 -4 -10 1.01 -3.21 6.66 <
324 1 2 -3 -11 76.96 31.27 11.93 <
325 1 2 -3 -10 3.86 3.35 2.12 <
326 1 2 -3 -9 37.96 24.00 8.37 <
327 1 2 -3 -8 1.45 3.56 5.35 <
328 3 -2 3 7 912.28 338.76 38.27 o
328 1 2 -3 -7 912.28 338.76 38.27 o
329 1 -2 -3 1 692.36 715.98 32.45 o
330 1 -2 -3 0 25.02 28.26 7.78 o
331 1 -2 -3 -1 725.87 908.71 29.13 o
332 1 -2 -3 -2 24.01 44.23 6.23 o
333 1 -2 -3 -3 1010.29 1549.69 48.92 o
334 1 -2 -3 -4 0.25 0.54 1.07 <
335 1 -2 -3 -5 33.98 15.11 4.79 o
336 1 -2 -3 -6 32.95 17.55 7.32 <
337 1 -2 -3 -7 454.89 364.18 35.61 o
338 1 -2 -3 -8 4.89 3.33 5.33 <
339 1 -2 -3 -9 39.07 29.93 10.82 <
340 1 -2 -3 -10 10.23 10.00 7.21 <
341 1 -2 -3 -11 72.95 61.01 16.86 o
342 1 2 -2 -12 1.57 -7.60 7.09 <
343 1 -2 -2 12 1.57 1.11 0.89 <
344 1 2 -2 -11 59.86 47.69 15.06 o
345 1 -2 -2 11 59.86 34.24 10.08 o
346 1 2 -2 -10 3.74 2.64 3.84 <
347 1 -2 -2 10 3.74 0.73 1.97 <
348 1 2 -2 -9 88.23 69.58 13.90 o
349 1 -2 -2 9 88.23 56.35 10.40 o
350 1 -2 -2 8 17.66 -0.48 2.08 <
351 1 2 -2 -8 17.66 -1.76 4.22 <
352 3 -2 2 7 106.12 50.82 8.31 o
352 1 2 -2 -7 106.12 50.82 8.31 o
353 3 2 2 -7 106.12 47.83 7.27 o
353 1 -2 -2 7 106.12 47.83 7.27 o
354 1 2 -2 -6 5.98 14.17 7.43 <
355 1 -2 -2 6 5.98 5.13 3.31 <
356 1 -2 -2 5 744.96 601.31 23.76 o
357 1 -2 -2 4 106.52 81.07 6.64 o
358 1 -2 -2 -2 129.82 129.92 12.25 o
359 1 -2 -2 -3 59.06 41.46 9.28 o
360 1 -2 -2 -4 84.48 72.63 12.30 o
361 1 -2 -2 -5 781.02 574.97 40.50 o
362 1 -2 -2 -6 2.15 37.62 12.05 o
363 1 -2 -1 13 11.64 10.61 6.53 <
364 1 2 -1 -13 11.64 22.29 10.94 <
365 1 -2 -1 12 2.22 6.22 5.23 <
366 1 2 -1 -12 2.22 9.99 8.78 <
367 1 -2 -1 11 19.91 4.83 2.92 <
368 1 2 -1 -11 19.91 14.39 5.24 <
369 1 -2 -1 10 8.26 0.64 4.61 <
370 1 2 -1 -10 8.26 0.10 5.14 <
371 1 -2 -1 9 145.02 73.50 12.43 o
372 1 2 -1 -9 145.02 92.26 15.79 o
373 1 -2 -1 8 5.55 -0.61 1.79 <
374 1 2 -1 -8 5.55 4.39 3.58 <
375 3 2 1 -7 498.57 254.73 19.43 o
375 1 -2 -1 7 498.57 254.73 19.43 o
376 3 -2 1 7 498.57 288.19 23.58 o
376 1 2 -1 -7 498.57 288.19 23.58 o
377 1 2 -1 -6 16.07 26.47 8.67 o
378 1 -2 -1 6 16.07 15.73 4.46 o
379 1 2 -1 -5 96.35 101.53 13.06 o
380 1 -2 -1 5 96.35 77.42 8.85 o
381 1 2 -1 -4 25.84 2.88 3.96 <
382 1 -2 -1 4 25.84 14.68 3.44 o
383 1 2 0 -13 0.31 -13.57 9.91 <
384 1 -2 0 13 0.31 -7.17 7.33 <
385 1 2 0 -12 11.77 0.13 1.04 <
386 1 -2 0 12 11.77 -1.00 5.29 <
387 1 -2 0 11 52.37 21.77 7.54 <
388 1 2 0 -11 52.37 26.81 9.57 <
389 1 2 0 -10 2.69 9.45 7.08 <
390 1 -2 0 10 2.69 3.32 4.94 <
391 1 -2 0 9 0.44 0.32 4.05 <
392 1 2 0 -9 0.44 0.27 4.13 <
393 1 -2 0 8 48.98 33.97 8.07 o
394 1 2 0 -8 48.98 51.13 11.43 o
395 3 2 0 -7 26.33 16.30 4.40 o
395 1 -2 0 7 26.33 16.30 4.40 o
396 3 -2 0 7 26.33 13.32 4.04 o
396 1 2 0 -7 26.33 13.32 4.04 o
397 1 -2 0 6 204.93 269.31 22.26 o
398 1 2 0 -6 204.93 258.80 19.81 o
399 1 -2 0 5 534.41 459.97 29.21 o
400 1 2 0 -5 534.41 479.83 23.26 o
401 1 2 0 -4 89.19 78.48 8.86 o
402 1 -2 0 4 89.19 49.88 9.34 o
403 1 2 0 -3 212.77 102.97 13.27 o
404 1 -2 1 13 10.77 15.62 7.87 <
405 1 -2 1 12 2.09 -0.89 7.15 <
406 1 -2 1 11 19.47 5.32 7.43 <
407 1 -2 1 10 8.27 5.09 6.33 <
408 1 2 1 -9 145.59 102.40 16.95 o
409 1 -2 1 9 145.59 101.54 17.21 o
410 1 -2 1 8 5.29 1.97 1.17 <
411 1 2 1 -8 5.29 0.67 3.44 <
412 3 2 -1 -7 497.67 335.13 29.62 o
412 1 -2 1 7 497.67 335.13 29.62 o
413 3 -2 -1 7 497.67 237.25 24.20 o
413 1 2 1 -7 497.67 237.25 24.20 o
414 1 2 1 -6 15.63 16.41 5.33 o
415 1 -2 1 6 15.63 35.08 10.79 o
416 1 -2 1 5 96.06 86.15 13.31 o
417 1 2 1 -5 96.06 92.47 10.71 o
418 1 2 1 -4 26.14 19.69 3.37 o
419 1 2 1 -3 99.18 87.96 6.23 o
420 1 -2 2 12 1.62 -1.73 5.36 <
421 1 -2 2 11 60.32 47.97 15.58 o
422 1 -2 2 10 3.74 0.01 2.80 <
423 1 -2 2 9 86.91 90.52 19.00 o
424 1 -2 2 8 17.65 -2.37 6.99 <
425 3 2 -2 -7 107.33 45.68 7.62 o
425 1 -2 2 7 107.33 45.68 7.62 o
426 1 2 2 1 842.98 913.12 27.39 o
427 1 2 2 2 128.69 170.68 13.98 o
428 1 2 2 3 60.32 45.61 9.34 o
429 1 2 2 4 85.10 85.79 13.09 o
430 1 2 2 5 777.94 669.36 44.46 o
431 1 2 2 6 1.96 27.60 11.76 <
432 1 2 2 7 79.05 39.53 9.45 o
433 1 2 2 8 7.44 -3.62 5.96 <
434 1 2 2 9 113.70 68.69 18.09 o
435 1 2 2 10 8.57 -8.07 7.51 <
436 1 2 2 11 91.94 47.58 16.04 <
437 1 -2 3 11 76.06 26.30 11.59 <
438 1 -2 3 10 3.79 6.54 8.12 <
439 1 -2 3 9 35.48 28.21 12.27 <
440 1 2 3 1 733.67 931.14 37.26 o
441 1 2 3 2 23.47 52.94 5.76 o
442 1 2 3 3 1017.47 2006.52 56.83 o
443 1 2 3 4 0.22 1.03 0.63 <
444 1 2 3 5 33.83 24.36 6.21 o
445 1 2 3 6 32.86 19.17 7.28 <
446 1 2 3 7 455.29 544.47 38.93 o
447 1 2 3 8 4.85 4.01 4.58 <
448 1 2 3 9 41.70 25.09 9.19 <
449 1 2 3 10 10.49 4.61 5.88 <
450 1 2 3 11 73.60 28.89 11.05 <
451 1 2 4 3 249.54 447.57 29.88 o
452 1 2 4 4 3.53 4.89 4.74 <
453 1 2 4 5 717.63 905.79 45.72 o
454 1 2 4 6 1.38 8.40 2.29 o
455 1 2 4 7 9.66 24.88 9.65 <
456 1 2 4 8 6.29 -1.45 6.90 <
457 1 2 4 9 99.19 57.04 14.97 o
458 1 2 4 10 1.02 3.76 5.58 <
459 1 2 5 5 9.39 1.48 0.65 <
460 1 2 5 6 18.16 23.02 10.59 <
461 1 2 5 7 152.37 127.03 23.14 o
462 1 2 5 8 9.26 8.75 9.03 <
463 3 -1 6 -6 113.14 136.55 18.89 o
463 1 -3 -6 1 113.14 136.55 18.89 o
464 1 -3 -6 0 2.20 32.51 10.62 o
465 1 -3 -6 -1 84.40 94.69 13.63 o
466 1 -3 -6 -2 47.32 52.96 11.23 o
467 1 -3 -6 -3 150.56 68.32 12.65 o
468 1 -3 -5 2 5.49 11.86 4.84 <
469 3 -1 5 -6 208.52 126.96 13.08 o
469 1 -3 -5 1 208.52 126.96 13.08 o
470 1 -3 -5 0 49.83 48.31 9.17 o
471 1 -3 -5 -1 112.17 104.13 12.11 o
472 1 -3 -5 -2 2.27 -4.62 4.64 <
473 1 -3 -5 -3 7.66 2.40 3.09 <
474 1 -3 -5 -4 40.42 18.13 6.79 <
475 1 -3 -5 -5 106.37 39.39 9.99 o
476 1 -3 -5 -6 49.04 23.86 8.74 <
477 1 -3 -5 -7 57.80 18.59 6.65 <
478 1 -3 -4 2 139.16 122.31 8.46 o
479 3 -1 4 -6 75.48 -8.10 3.37 <
479 1 -3 -4 1 75.48 -8.10 3.37 <
480 1 -3 -4 0 4.43 -12.01 6.12 <
481 1 -3 -4 -1 1.74 -5.24 4.36 <
482 1 -3 -4 -2 133.36 343.43 26.22 o
483 1 -3 -4 -3 171.79 102.22 13.36 o
484 1 -3 -4 -4 6.12 -0.48 3.15 <
485 1 -3 -4 -5 3.23 -0.91 2.98 <
486 1 -3 -4 -6 6.30 2.11 2.17 <
487 1 -3 -4 -7 99.73 39.37 11.25 o
488 1 -3 -4 -8 61.52 17.87 7.03 <
489 1 -3 -4 -9 27.85 17.35 9.49 <
490 1 3 -3 -10 12.88 24.23 12.60 <
491 1 -3 -3 10 12.88 15.94 6.71 <
492 1 3 -3 -9 40.41 41.93 16.30 <
493 1 -3 -3 9 40.41 33.80 8.87 o
494 1 -3 -3 8 18.39 5.04 3.18 <
495 1 -3 -3 7 99.47 21.24 5.11 o
496 1 -3 -3 6 64.81 11.63 4.76 <
497 1 -3 -3 5 25.87 11.50 2.44 o
498 1 -3 -2 11 9.65 6.12 5.14 <
499 1 3 -2 -11 9.65 5.90 3.43 <
500 1 -3 -2 10 35.53 13.69 7.52 <
501 1 3 -2 -10 35.53 24.01 9.03 <
502 1 3 -2 -9 49.68 55.99 15.00 o
503 1 -3 -2 9 49.68 31.76 7.63 o
504 1 -3 -2 8 13.93 9.88 3.63 <
505 1 3 -2 -8 13.93 15.28 7.04 <
506 1 -3 -2 7 50.54 52.05 8.65 o
507 1 -3 -2 6 0.08 0.90 2.05 <
508 1 -3 -2 5 18.35 5.86 1.90 o
509 1 3 -1 -12 0.50 -5.90 6.12 <
510 1 -3 -1 12 0.50 2.71 3.44 <
511 1 -3 -1 11 8.72 20.20 9.88 <
512 1 3 -1 -11 8.72 14.96 5.96 <
513 1 -3 -1 10 39.74 34.07 10.20 o
514 1 3 -1 -10 39.74 44.72 12.64 o
515 1 -3 -1 9 136.50 195.89 22.23 o
516 1 3 -1 -9 136.50 224.59 24.04 o
517 1 -3 -1 8 9.48 -1.50 2.59 <
518 1 3 -1 -8 9.48 -3.77 6.71 <
519 1 -3 -1 7 85.79 56.36 10.75 o
520 1 3 -1 -7 85.79 82.01 13.93 o
521 1 3 -1 -6 32.98 36.12 14.56 <
522 1 -3 -1 6 32.98 48.32 13.12 o
523 1 3 0 -12 0.65 3.68 3.99 <
524 1 -3 0 12 0.65 -12.64 8.10 <
525 1 3 0 -11 29.53 27.29 10.30 <
526 1 -3 0 11 29.53 19.98 8.70 <
527 1 -3 0 10 26.93 14.08 8.68 <
528 1 3 0 -10 26.93 10.56 7.34 <
529 1 -3 0 9 0.38 0.75 5.33 <
530 1 3 0 -9 0.38 2.62 3.00 <
531 1 -3 0 8 190.85 171.39 21.44 o
532 1 3 0 -8 190.85 165.77 18.82 o
533 1 -3 0 7 332.34 371.66 30.57 o
534 1 3 0 -7 332.34 362.15 24.58 o
535 1 3 0 -6 238.69 250.86 20.50 o
536 1 3 0 -5 0.53 2.58 2.67 <
537 1 3 1 -12 0.45 6.14 0.88 o
538 1 -3 1 12 0.45 -2.62 3.88 <
539 1 3 1 -11 7.79 21.92 10.53 <
540 1 -3 1 11 7.79 18.51 10.55 <
541 1 -3 1 10 40.88 44.69 14.95 <
542 1 3 1 -10 40.88 26.63 10.72 <
543 1 -3 1 9 133.89 300.59 32.96 o
544 1 3 1 -9 133.89 254.13 24.47 o
545 1 -3 1 8 10.00 -2.33 7.41 <
546 1 3 1 -8 10.00 2.47 2.62 <
547 1 3 1 -7 83.84 63.21 10.06 o
548 1 3 1 -6 30.76 53.76 10.95 o
549 1 3 1 -5 348.07 414.04 19.69 o
550 1 3 1 -4 299.98 481.52 22.19 o
551 1 -3 2 11 9.20 8.96 6.27 <
552 1 -3 2 10 35.43 26.15 13.21 <
553 1 3 3 0 32.09 14.49 6.22 <
554 1 3 3 1 163.53 180.55 14.28 o
555 1 3 3 2 6.32 2.73 1.06 <
556 1 3 3 3 53.53 31.96 7.75 o
557 1 3 3 4 107.24 96.13 14.15 o
558 1 3 3 5 47.47 50.06 12.84 o
559 1 3 3 6 68.43 26.58 10.39 <
560 1 3 3 7 67.09 21.81 10.87 <
561 1 3 3 8 15.38 9.40 8.12 <
562 1 3 3 9 37.69 14.47 7.36 <
563 1 3 3 10 15.85 15.67 10.67 <
564 1 3 4 2 131.42 398.95 31.88 o
565 1 3 4 3 170.62 175.34 16.75 o
566 1 3 4 4 6.04 -2.83 3.78 <
567 1 3 4 5 3.12 -0.14 3.72 <
568 1 3 4 6 5.35 5.08 5.12 <
569 1 3 4 7 99.17 35.84 11.17 o
570 1 3 4 8 60.86 13.73 5.97 <
571 1 3 4 9 27.10 7.59 4.51 <
572 1 3 5 4 40.65 25.51 8.20 o
573 1 3 5 5 105.03 50.71 11.97 o
574 1 3 5 6 47.82 20.06 8.76 <
575 1 3 5 7 56.99 30.72 8.20 o
576 1 -4 -4 7 9.19 5.20 1.36 o
577 1 -4 -3 9 6.44 6.85 4.58 <
578 1 -4 -3 8 16.00 5.65 2.75 <
579 1 4 -2 -10 44.19 17.57 8.05 <
580 1 -4 -2 10 44.19 20.69 8.55 <
581 1 -4 -2 9 2.54 -0.09 1.90 <
582 1 4 -1 -10 5.46 4.12 2.57 <
583 1 -4 -1 10 5.46 7.87 6.69 <
584 1 -4 -1 9 0.55 4.14 6.55 <
585 1 4 -1 -9 0.55 -3.72 5.00 <
586 1 4 -1 -8 47.41 38.57 12.42 o
587 1 -4 0 11 4.10 4.25 4.91 <
588 1 4 0 -11 4.10 0.60 1.99 <
589 1 -4 0 10 103.29 110.36 20.38 o
590 1 4 0 -10 103.29 83.47 17.58 o
591 1 4 0 -9 10.97 5.68 6.55 <
592 1 4 0 -8 14.89 9.87 4.12 <
593 1 4 0 -7 2.67 3.57 2.74 <
594 1 4 0 -6 129.34 44.36 12.66 o
595 1 4 1 -10 5.41 3.55 0.59 o
596 1 4 1 -9 0.49 -2.13 5.14 <
597 1 4 1 -8 49.77 34.21 7.92 o
598 1 4 1 -7 14.52 10.86 3.28 o
599 1 4 1 -6 227.63 265.71 19.78 o
600 1 4 1 -5 5.15 14.33 4.64 o
601 1 4 2 -8 1.35 5.78 2.32 <
602 1 4 2 -7 5.34 4.47 2.04 <
603 1 4 2 -6 41.43 56.47 7.97 o
604 1 4 2 -5 14.93 14.24 2.59 o
605 1 4 2 -4 44.11 26.81 5.44 o
606 1 4 2 -3 29.95 1.35 1.00 <
607 1 4 3 0 4.74 -12.87 4.71 <
608 1 4 3 1 17.52 -8.52 4.98 <
609 1 4 3 2 202.86 52.03 13.01 o
610 1 4 3 3 31.18 -3.03 1.27 <
611 1 4 3 4 84.79 28.25 12.57 <
612 1 4 3 5 18.78 2.41 4.05 <
613 1 4 3 6 8.99 -2.06 4.85 <
614 1 4 4 1 5.69 18.58 6.18 o
615 1 4 4 2 8.32 -2.13 2.69 <
616 1 4 4 3 1.47 1.08 1.41 <
617 1 4 4 4 34.49 9.86 4.24 <
618 1 4 4 5 9.62 3.55 2.57 <
619 1 4 4 6 157.95 67.38 16.65 o
620 1 4 4 7 6.28 5.69 2.42 <
621 1 4 5 3 20.78 3.88 3.86 <
622 1 4 5 4 49.09 17.37 7.09 <
623 1 4 5 5 7.23 -1.93 3.40 <
624 1 5 0 -9 0.43 1.33 2.76 <
625 1 5 0 -8 13.88 27.46 12.50 <
626 1 5 1 -8 4.19 4.09 3.29 <
627 1 5 1 -7 1.72 -3.67 3.55 <
628 1 5 1 -6 14.40 13.93 8.72 <
629 1 5 2 -8 30.88 33.83 8.80 o
630 1 5 2 -7 9.11 5.38 4.19 <
631 1 5 2 -6 10.72 15.29 5.03 o
632 1 5 2 -5 6.18 0.77 1.85 <
633 1 5 2 -4 9.33 1.46 2.27 <
634 1 5 3 -1 19.37 9.66 3.05 o
635 1 5 4 0 0.92 2.69 2.39 <
636 1 5 4 1 2.03 -1.62 1.15 <
637 1 5 4 2 109.73 19.53 9.36 <
638 1 5 4 3 37.65 -11.21 4.37 <
639 1 5 4 4 5.10 -0.66 4.22 <
640 2 0 -5 8 68.75 25.52 9.45 <
641 2 0 -5 9 0.69 -7.81 6.43 <
642 2 0 -4 6 151.34 148.79 17.24 o
643 2 0 -4 7 7.90 118.24 23.48 o
644 2 0 -4 8 22.82 10.33 4.70 <
645 2 0 -4 9 0.83 1.12 1.79 <
646 2 0 -4 10 165.32 148.18 21.93 o
647 2 0 -4 11 4.55 5.44 4.80 <
648 2 0 -3 4 561.37 577.41 30.35 o
649 2 0 -3 5 15.14 30.17 11.99 <
650 2 0 -3 6 144.01 183.90 18.25 o
651 2 0 -3 7 6.15 14.24 7.55 <
652 2 0 -3 8 140.13 201.34 21.97 o
653 2 0 -3 9 0.60 0.87 2.37 <
654 2 0 -3 10 22.23 24.14 8.59 <
655 2 0 -3 11 6.77 -0.61 6.65 <
656 3 5 -3 -6 173.88 239.21 30.36 o
656 2 0 -3 12 173.88 239.21 30.36 o
657 2 0 -2 3 94.09 52.59 10.36 o
658 2 0 -2 4 1188.99 1107.95 37.78 o
659 2 0 -2 5 293.60 257.81 20.14 o
660 2 0 -2 6 1139.31 1541.63 51.70 o
661 2 0 -2 7 15.51 178.54 28.03 o
662 2 0 -2 8 241.50 261.90 22.40 o
663 2 0 -2 9 61.04 26.72 7.70 o
664 2 0 -2 10 326.15 560.84 39.90 o
665 2 0 -2 11 2.29 0.51 2.37 <
666 3 5 -2 -6 23.18 24.81 9.52 <
666 2 0 -2 12 23.18 24.81 9.52 <
667 2 0 -2 13 1.14 0.07 1.49 <
668 2 0 -1 1 16.81 19.36 2.57 o
668 1 0 1 1 16.81 19.36 2.57 o
669 2 0 -1 2 6606.27 4098.80 51.07 o
669 1 0 1 2 6606.27 4098.80 51.07 o
670 2 0 -1 3 305.21 293.58 15.03 o
671 2 0 -1 4 1352.92 1577.65 41.75 o
672 2 0 -1 5 255.94 174.83 14.86 o
673 2 0 -1 6 1963.36 1887.76 53.66 o
674 2 0 -1 7 13.55 44.49 13.67 o
675 2 0 -1 8 626.00 1098.81 48.23 o
676 2 0 -1 9 48.17 31.92 8.19 o
677 2 0 -1 10 2.00 1.36 1.51 <
678 2 0 -1 11 9.58 8.96 5.07 <
679 3 5 -1 -6 152.78 191.88 25.43 o
679 2 0 -1 12 152.78 191.88 25.43 o
680 2 0 -1 13 22.43 10.82 7.11 <
681 2 0 0 2 744.94 389.52 14.64 o
681 1 0 0 2 744.94 389.52 14.64 o
682 2 0 0 -2 744.94 389.82 15.39 o
682 1 0 0 -2 744.94 389.82 15.39 o
683 2 0 0 3 1.62 -0.05 0.67 <
684 2 0 0 -3 1.62 0.37 1.00 <
685 2 0 0 4 341.49 248.55 18.03 o
686 2 0 0 -4 341.49 250.51 20.43 o
687 2 0 0 -5 8.41 -1.83 4.82 <
688 2 0 0 5 8.41 -1.27 2.02 <
689 2 0 0 -6 1063.05 1064.03 51.65 o
690 2 0 0 6 1063.05 1079.04 42.33 o
691 2 0 0 -7 1.26 507.05 56.73 o
692 2 0 0 7 1.26 403.22 46.21 o
693 2 0 0 8 147.66 108.13 15.67 o
694 2 0 0 -8 147.66 78.33 15.83 o
695 2 0 0 -9 0.65 -8.19 8.87 <
696 2 0 0 9 0.65 -9.82 8.38 <
697 2 0 0 -10 340.87 279.07 35.24 o
698 2 0 0 10 340.87 406.16 35.48 o
699 2 0 0 -11 1.66 47.01 20.82 <
700 2 0 0 11 1.66 35.16 13.98 <
701 3 5 0 -6 37.72 5.50 4.54 <
701 2 0 0 12 37.72 5.50 4.54 <
702 2 0 0 13 1.51 -0.03 3.38 <
703 2 0 1 -1 16.82 20.24 3.06 o
703 1 0 -1 -1 16.82 20.24 3.06 o
704 2 0 1 -3 304.99 316.25 16.63 o
705 2 0 1 -4 1354.89 1500.18 40.89 o
706 2 0 1 -5 256.07 164.27 14.90 o
707 2 0 1 -6 1963.17 1896.22 58.60 o
708 2 0 1 -7 13.62 61.07 15.55 o
709 2 0 1 -8 624.72 996.33 50.04 o
710 2 0 1 -9 48.26 29.77 9.95 <
711 2 0 1 -10 2.02 1.75 3.99 <
712 2 0 1 -11 9.63 -3.77 6.86 <
713 3 -5 1 6 152.76 141.65 25.82 o
713 2 0 1 -12 152.76 141.65 25.82 o
714 2 0 1 -13 22.35 15.89 11.37 <
715 2 0 2 -2 394.32 459.55 21.31 o
715 1 0 -2 -2 394.32 459.55 21.31 o
716 2 0 2 -3 93.92 51.01 10.08 o
717 2 0 2 -4 1194.11 962.71 33.81 o
718 2 0 2 -5 293.27 217.60 18.09 o
719 2 0 2 -6 1142.46 1319.24 47.32 o
720 2 0 2 -7 15.43 179.38 27.88 o
721 2 0 2 -8 241.32 256.17 23.86 o
722 2 0 2 -9 61.18 24.50 7.90 o
723 2 0 2 -10 324.87 502.18 41.58 o
724 2 0 2 -11 2.32 6.92 4.44 <
725 3 -5 2 6 23.37 19.04 10.17 <
725 2 0 2 -12 23.37 19.04 10.17 <
726 2 0 2 -13 1.13 2.60 3.54 <
727 2 0 3 -3 466.78 619.69 30.74 o
728 2 0 3 -4 562.31 584.10 31.25 o
729 2 0 3 -5 14.53 25.39 11.23 <
730 2 0 3 -6 142.64 171.14 17.53 o
731 2 0 3 -7 6.07 18.71 8.33 <
732 2 0 3 -8 140.57 152.39 18.45 o
733 2 0 3 -9 0.55 2.24 1.90 <
734 2 0 3 -10 22.34 15.94 7.54 <
735 2 0 3 -11 6.74 4.72 4.90 <
736 3 -5 3 6 176.08 189.50 26.73 o
736 2 0 3 -12 176.08 189.50 26.73 o
737 2 0 4 -5 7.61 -6.24 2.53 <
738 2 0 4 -6 149.01 146.22 18.09 o
739 2 0 4 -7 7.77 116.78 20.51 o
740 2 0 4 -8 23.04 16.19 8.36 <
741 2 0 4 -9 0.89 2.24 2.68 <
742 2 0 4 -10 165.90 94.90 16.87 o
743 2 0 4 -11 4.34 -0.12 1.52 <
744 2 0 5 -7 2.57 5.85 4.31 <
745 2 0 5 -8 69.73 24.90 9.18 <
746 2 0 5 -9 0.62 -2.44 6.70 <
747 2 -1 -5 9 83.69 120.26 19.87 o
748 2 -1 -5 8 40.04 35.03 10.13 o
749 2 -1 -5 7 34.46 34.62 9.23 o
750 2 -1 -5 6 46.75 59.24 14.03 o
751 2 -1 -4 11 8.85 17.58 8.99 <
752 2 -1 -4 10 49.51 32.73 13.41 <
753 2 -1 -4 9 17.77 13.53 4.44 o
754 2 -1 -4 8 95.04 87.71 15.99 o
755 2 -1 -4 7 81.72 90.63 13.91 o
756 2 -1 -4 6 33.01 33.17 11.82 <
757 2 -1 -4 5 27.83 34.00 8.12 o
758 2 -1 -4 4 114.33 173.60 17.80 o
759 2 1 -4 8 95.09 84.00 14.80 o
760 2 1 -4 9 31.29 10.52 4.73 <
761 2 1 -4 10 38.48 58.38 14.71 o
762 2 1 -4 11 17.41 22.96 9.67 <
763 2 -1 -3 12 19.64 12.89 4.08 o
764 2 -1 -3 11 24.34 68.15 14.94 o
765 2 -1 -3 10 109.73 111.36 18.46 o
766 2 -1 -3 9 176.04 176.51 20.56 o
767 2 -1 -3 8 26.65 11.57 4.11 <
768 2 -1 -3 7 105.28 116.94 15.65 o
769 2 -1 -3 6 196.57 303.67 25.80 o
770 2 -1 -3 5 403.20 572.36 32.73 o
771 2 -1 -3 4 1297.35 1618.84 51.40 o
772 2 -1 -3 3 181.92 246.38 18.21 o
773 2 -1 -3 2 582.65 1061.38 35.90 o
774 2 1 -3 6 174.26 306.52 26.30 o
775 2 1 -3 7 132.44 137.90 17.17 o
776 2 1 -3 8 11.74 13.57 6.19 <
777 2 1 -3 9 225.53 177.59 21.47 o
778 2 1 -3 10 91.79 127.78 19.51 o
779 2 1 -3 11 51.45 78.49 16.88 o
780 2 1 -3 12 10.84 8.17 0.39 o
781 2 -1 -2 13 42.95 61.80 17.66 o
782 2 -1 -2 12 24.11 20.91 8.71 <
783 2 -1 -2 11 18.92 22.15 8.50 <
784 2 -1 -2 10 34.13 39.24 12.53 o
785 2 -1 -2 9 0.83 12.05 5.74 <
786 2 -1 -2 8 674.79 681.05 40.03 o
787 2 -1 -2 7 311.70 364.63 27.22 o
788 2 -1 -2 6 207.99 289.81 23.77 o
789 2 -1 -2 5 89.58 152.68 15.45 o
790 2 -1 -2 4 610.11 708.96 31.35 o
791 2 -1 -2 3 1828.78 2065.17 48.01 o
792 2 -1 -2 2 1651.17 2030.95 42.74 o
793 2 -1 -2 1 428.41 372.68 16.51 o
793 1 1 2 1 428.41 372.68 16.51 o
794 2 1 -2 5 95.79 147.41 14.80 o
795 2 1 -2 6 189.37 335.45 25.53 o
796 2 1 -2 7 393.43 394.81 26.62 o
797 2 1 -2 8 647.97 763.22 40.48 o
798 2 1 -2 9 11.81 7.68 4.62 <
799 2 1 -2 10 33.59 65.71 13.38 o
800 2 1 -2 11 20.67 30.52 10.84 <
801 2 1 -2 12 13.70 25.83 10.83 <
802 2 1 -2 13 44.95 60.97 16.54 o
803 2 -1 -1 13 12.05 15.59 9.90 <
804 2 -1 -1 12 18.25 13.17 6.17 <
805 2 -1 -1 11 35.04 25.83 10.35 <
806 2 -1 -1 10 179.96 292.45 33.39 o
807 2 -1 -1 9 220.84 277.13 28.93 o
808 2 -1 -1 8 49.08 54.27 10.56 o
809 2 -1 -1 7 162.06 212.52 23.61 o
810 2 -1 -1 6 518.84 767.99 45.34 o
811 2 -1 -1 5 566.93 567.27 33.18 o
812 2 -1 -1 4 1300.78 1439.78 47.57 o
813 2 -1 -1 3 604.23 482.18 24.10 o
814 2 -1 -1 2 181.17 246.35 15.63 o
815 2 -1 -1 1 1669.51 1899.06 35.93 o
815 1 1 1 1 1669.51 1899.06 35.93 o
816 2 1 -1 4 1387.49 1295.15 39.11 o
817 2 1 -1 5 690.09 561.00 26.14 o
818 2 1 -1 6 548.29 810.08 36.94 o
819 2 1 -1 7 243.18 221.72 18.60 o
820 2 1 -1 8 80.25 54.21 8.89 o
821 2 1 -1 9 205.75 219.75 20.29 o
822 2 1 -1 10 209.95 300.47 26.48 o
823 2 1 -1 11 22.24 25.16 9.76 <
824 2 1 -1 12 22.44 13.29 6.33 <
825 2 1 -1 13 26.00 6.50 3.72 <
826 2 -1 0 -2 628.32 635.61 16.86 o
827 2 -1 0 -3 26.68 43.86 4.74 o
828 2 1 0 3 26.68 50.99 5.25 o
829 2 1 0 4 70.05 58.55 6.32 o
830 2 -1 0 -4 70.05 49.96 6.37 o
831 2 1 0 5 773.25 843.84 28.69 o
832 2 -1 0 -5 773.25 852.76 30.96 o
833 2 -1 0 -6 58.17 62.71 11.07 o
834 2 1 0 6 58.17 61.79 9.82 o
835 2 -1 0 -7 317.19 314.05 23.92 o
836 2 1 0 7 317.19 356.39 23.71 o
837 2 1 0 8 350.13 511.83 29.11 o
838 2 -1 0 -8 350.13 475.75 32.54 o
839 2 -1 0 -9 329.89 285.60 26.40 o
840 2 1 0 9 329.89 327.15 24.52 o
841 2 -1 0 -10 83.70 113.44 20.94 o
842 2 1 0 10 83.70 84.87 14.13 o
843 2 -1 0 -11 5.38 10.25 9.66 <
844 2 1 0 11 5.38 2.89 4.52 <
845 2 -1 0 -12 56.15 42.82 13.67 o
846 2 1 0 12 56.15 63.70 13.25 o
847 2 -1 0 -13 53.30 47.15 17.39 <
848 2 1 0 13 53.30 42.42 11.93 o
849 2 1 1 -12 18.04 5.23 4.19 <
850 2 1 1 -11 33.49 9.76 6.13 <
851 2 1 1 -10 189.26 186.48 32.76 o
852 2 1 1 -9 214.12 204.15 27.81 o
853 2 1 1 -8 50.07 30.03 9.78 o
854 2 1 1 -7 165.51 156.47 21.25 o
855 2 1 1 -6 529.34 645.38 45.95 o
856 2 1 1 -5 589.14 442.59 30.54 o
857 2 1 1 -4 1258.98 1374.20 51.09 o
858 2 1 1 -3 592.77 432.79 24.15 o
859 2 1 1 -2 186.47 212.02 14.33 o
860 2 1 1 -1 1658.82 1706.93 33.41 o
860 1 -1 -1 -1 1658.82 1706.93 33.41 o
861 2 -1 1 -3 458.11 434.62 20.44 o
862 2 1 1 3 458.11 452.61 14.42 o
863 2 -1 1 -4 1431.58 1497.51 43.71 o
864 2 1 1 4 1431.58 1540.98 33.61 o
865 2 -1 1 -5 663.95 481.18 23.27 o
866 2 1 1 5 663.95 454.40 21.02 o
867 2 1 1 6 541.23 673.59 33.38 o
868 2 -1 1 -6 541.23 740.85 35.31 o
869 2 1 1 7 238.53 180.35 17.89 o
870 2 -1 1 -7 238.53 190.68 17.36 o
871 2 -1 1 -8 79.08 54.95 9.47 o
872 2 1 1 8 79.08 35.89 6.97 o
873 2 1 1 9 211.41 211.42 21.83 o
874 2 -1 1 -9 211.41 227.30 22.66 o
875 2 -1 1 -10 201.20 347.60 33.72 o
876 2 1 1 10 201.20 290.25 27.26 o
877 2 1 1 11 23.79 25.93 9.98 <
878 2 -1 1 -11 23.79 27.12 10.39 <
879 2 1 1 12 22.84 16.78 7.24 <
880 2 -1 1 -12 22.84 14.35 8.42 <
881 2 1 1 13 25.07 12.85 8.21 <
882 2 -1 1 -13 25.07 13.51 9.08 <
883 2 1 2 -13 45.12 45.18 18.06 <
884 2 1 2 -12 27.04 21.82 11.05 <
885 2 1 2 -11 18.54 25.31 12.66 <
886 2 1 2 -10 33.81 46.95 14.66 o
887 2 1 2 -9 0.45 17.05 8.37 <
888 2 1 2 -8 680.30 544.17 38.14 o
889 2 1 2 -7 314.07 293.70 25.13 o
890 2 1 2 -6 203.18 280.35 26.15 o
891 2 1 2 -5 90.15 135.30 15.23 o
892 2 1 2 -4 627.66 691.46 31.70 o
893 2 1 2 -3 1839.13 2079.98 49.55 o
894 2 1 2 -2 1659.65 1949.30 41.55 o
895 2 1 2 -1 404.48 353.49 15.64 o
895 1 -1 -2 -1 404.48 353.49 15.64 o
896 2 1 2 0 684.28 482.54 16.05 o
896 1 -1 -2 0 684.28 482.54 16.05 o
897 2 -1 2 -4 499.75 611.03 29.41 o
898 2 -1 2 -5 95.45 151.14 15.42 o
899 2 -1 2 -6 195.66 353.27 25.18 o
900 2 -1 2 -7 388.42 363.25 26.11 o
901 2 -1 2 -8 642.34 702.29 39.78 o
902 2 -1 2 -9 10.16 0.24 4.18 <
903 2 -1 2 -10 33.95 61.34 14.12 o
904 2 -1 2 -11 21.19 20.82 8.97 <
905 2 -1 2 -12 12.48 13.42 7.38 <
906 2 -1 2 -13 42.81 46.69 16.18 <
907 2 1 3 -12 20.03 6.91 5.17 <
908 2 1 3 -11 26.42 50.09 13.96 o
909 2 1 3 -10 111.00 83.31 16.27 o
910 2 1 3 -9 179.02 177.81 22.62 o
911 2 1 3 -8 27.08 10.78 6.17 <
912 2 1 3 -7 105.48 111.07 16.19 o
913 2 1 3 -6 198.81 256.50 23.74 o
914 2 1 3 -5 412.30 453.93 27.51 o
915 2 1 3 -4 1300.74 1490.02 48.91 o
916 2 1 3 -3 177.59 210.35 15.83 o
917 2 1 3 -2 587.21 1104.64 36.98 o
918 2 1 3 -1 828.97 762.15 28.50 o
918 1 -1 -3 -1 828.97 762.15 28.50 o
919 2 -1 3 -6 172.65 354.37 29.07 o
920 2 -1 3 -7 132.32 130.54 16.62 o
921 2 -1 3 -8 11.23 9.65 4.01 <
922 2 -1 3 -9 221.99 184.51 22.04 o
923 2 -1 3 -10 90.78 104.62 17.45 o
924 2 -1 3 -11 48.51 54.42 14.54 o
925 2 -1 3 -12 10.49 11.47 3.83 <
926 2 1 4 -11 8.62 17.08 7.71 <
927 2 1 4 -10 49.92 22.46 11.19 <
928 2 1 4 -9 17.38 13.37 7.50 <
929 2 1 4 -8 92.12 55.78 11.89 o
930 2 1 4 -7 82.57 79.15 13.90 o
931 2 1 4 -6 35.99 25.57 10.10 <
932 2 1 4 -5 27.38 26.84 6.79 o
933 2 1 4 -4 113.80 153.25 16.33 o
934 2 1 4 -3 604.91 1021.07 42.94 o
935 2 1 4 -2 826.23 991.84 38.90 o
936 2 -1 4 -8 96.84 78.33 15.56 o
937 2 -1 4 -9 32.02 11.13 5.28 <
938 2 -1 4 -10 38.00 43.30 12.53 o
939 2 -1 4 -11 17.72 17.42 8.47 <
940 2 1 5 -9 82.49 65.86 15.03 o
941 2 1 5 -8 39.43 15.56 7.38 <
942 2 1 5 -7 34.89 26.77 9.12 <
943 2 1 5 -6 46.15 47.10 11.44 o
944 2 1 5 -5 162.28 146.85 17.13 o
945 2 1 5 -4 359.97 558.06 36.88 o
946 2 1 6 -7 100.71 58.26 13.19 o
947 2 1 6 -6 60.42 36.13 11.97 o
948 2 1 6 -5 14.95 39.59 47.74 <
949 2 -2 -6 6 12.08 10.79 7.00 <
950 2 -2 -5 8 21.77 16.15 8.09 <
951 2 -2 -5 7 212.74 283.85 29.48 o
952 2 -2 -5 6 31.11 50.98 11.41 o
953 2 -2 -5 5 5.66 7.94 5.45 <
954 2 -2 -5 4 44.65 19.45 7.06 <
955 2 -2 -4 10 8.11 1.54 2.81 <
956 2 -2 -4 9 166.57 210.63 23.81 o
957 2 -2 -4 8 8.46 7.80 3.44 <
958 2 -2 -4 7 13.81 48.08 11.40 o
959 2 -2 -4 6 5.53 4.10 4.03 <
960 2 -2 -4 5 965.18 1423.90 55.13 o
961 2 -2 -4 4 7.87 10.07 4.20 <
962 2 -2 -4 3 247.71 402.37 24.22 o
963 2 -2 -4 2 407.75 537.46 27.17 o
964 2 -2 -3 11 121.45 162.60 24.02 o
965 2 -2 -3 10 6.09 17.50 9.25 <
966 2 -2 -3 9 59.91 115.82 18.24 o
967 2 -2 -3 8 2.30 2.75 0.78 o
968 2 -2 -3 7 559.37 1080.61 55.11 o
969 2 -2 -3 6 24.99 37.21 9.06 o
970 2 -2 -3 5 60.50 51.02 8.79 o
971 2 -2 -3 4 4.05 1.73 2.51 <
972 2 -2 -3 3 1418.20 1862.12 49.27 o
973 2 -2 -3 2 58.29 70.77 8.32 o
974 2 -2 -3 1 1092.62 1231.84 32.14 o
975 2 2 -3 9 61.66 99.45 16.18 o
976 2 2 -3 10 16.14 3.48 3.33 <
977 2 2 -3 11 115.12 180.47 23.82 o
978 2 -2 -2 12 2.48 6.56 10.53 <
979 2 -2 -2 11 94.46 227.82 29.60 o
980 2 -2 -2 10 5.91 9.20 6.33 <
981 2 -2 -2 9 139.23 289.91 29.87 o
982 2 -2 -2 8 27.87 1.13 1.79 <
983 2 -2 -2 7 66.88 121.02 18.18 o
984 2 -2 -2 6 9.43 5.51 4.72 <
985 2 -2 -2 5 1175.63 1575.96 59.19 o
986 2 -2 -2 4 168.10 211.63 19.45 o
987 2 -2 -2 3 44.50 74.23 10.35 o
988 2 -2 -2 2 222.82 300.91 18.42 o
989 2 -2 -2 1 1392.71 1470.70 34.07 o
990 2 -2 -2 0 25.81 22.75 4.73 o
991 2 2 -2 7 119.94 123.06 14.46 o
992 2 2 -2 8 11.60 6.08 4.08 <
993 2 2 -2 9 177.68 276.05 25.60 o
994 2 2 -2 10 13.56 2.09 2.66 <
995 2 2 -2 11 146.63 215.02 23.96 o
996 2 2 -2 12 2.68 -1.68 6.62 <
997 2 -2 -1 -3 143.98 126.05 6.65 o
998 2 -2 -1 -4 28.88 34.88 4.19 o
999 2 -2 -1 -5 191.99 201.89 14.11 o
1000 2 -2 -1 -6 34.52 28.57 6.39 o
1001 2 2 -1 6 34.52 38.72 7.88 o
1002 2 2 -1 7 441.14 558.10 31.58 o
1003 2 -2 -1 -7 441.14 497.34 31.42 o
1004 2 2 -1 8 3.58 4.69 1.69 <
1005 2 -2 -1 -8 3.58 1.87 1.39 <
1006 2 2 -1 9 228.12 315.33 25.01 o
1007 2 -2 -1 -9 228.12 249.29 27.22 o
1008 2 2 -1 10 25.94 11.46 3.42 o
1009 2 -2 -1 -10 25.94 13.41 5.39 <
1010 2 2 -1 11 37.38 43.13 10.90 o
1011 2 -2 -1 -11 37.38 21.29 10.85 <
1012 2 2 -1 12 3.16 12.25 7.57 <
1013 2 -2 -1 -12 3.16 -6.93 7.08 <
1014 2 -2 -1 -13 44.52 48.20 20.72 <
1015 2 2 -1 13 44.52 53.75 13.41 o
1016 2 -2 0 -4 147.12 137.88 10.86 o
1017 2 -2 0 -5 845.94 934.50 30.33 o
1018 2 2 0 5 845.94 922.96 31.28 o
1019 2 2 0 6 261.68 331.68 19.44 o
1020 2 -2 0 -6 261.68 335.62 20.47 o
1021 2 2 0 7 30.16 31.65 5.17 o
1022 2 -2 0 -7 30.16 28.30 6.05 o
1023 2 2 0 8 170.58 129.63 14.45 o
1024 2 -2 0 -8 170.58 111.95 14.63 o
1025 2 2 0 9 8.70 13.46 4.90 <
1026 2 -2 0 -9 8.70 10.49 3.76 <
1027 2 2 0 10 5.73 -1.86 1.28 <
1028 2 -2 0 -10 5.73 2.48 4.01 <
1029 2 2 0 11 113.67 72.56 12.45 o
1030 2 -2 0 -11 113.67 58.87 12.93 o
1031 2 2 0 12 5.19 4.48 0.79 o
1032 2 -2 0 -12 5.19 2.13 1.21 <
1033 2 2 0 13 0.21 3.54 2.86 <
1034 2 -2 0 -13 0.21 -2.16 3.90 <
1035 2 2 1 4 28.40 34.73 3.95 o
1036 2 2 1 5 192.53 186.24 12.45 o
1037 2 -2 1 -5 192.53 188.02 16.36 o
1038 2 2 1 6 35.27 25.35 4.78 o
1039 2 -2 1 -6 35.27 36.71 7.80 o
1040 2 2 1 7 432.30 485.15 23.78 o
1041 2 -2 1 -7 432.30 515.87 29.39 o
1042 2 -2 1 -8 3.70 6.70 3.61 <
1043 2 2 1 8 3.70 3.43 1.02 o
1044 2 -2 1 -9 225.35 278.15 24.06 o
1045 2 2 1 9 225.35 260.97 20.36 o
1046 2 -2 1 -10 25.84 9.19 5.00 <
1047 2 2 1 10 25.84 7.95 1.81 o
1048 2 -2 1 -11 38.78 45.33 11.76 o
1049 2 2 1 11 38.78 48.16 10.24 o
1050 2 2 1 12 3.33 3.49 3.51 <
1051 2 -2 1 -12 3.33 9.77 7.51 <
1052 2 2 1 13 46.96 51.98 14.21 o
1053 2 -2 1 -13 46.96 45.71 13.84 o
1054 2 2 2 -12 2.55 5.66 11.67 <
1055 2 2 2 -11 95.19 103.92 25.85 o
1056 2 2 2 -10 5.90 -4.53 5.52 <
1057 2 2 2 -9 137.16 147.69 23.53 o
1058 2 2 2 -8 27.85 7.48 7.91 <
1059 2 2 2 -7 63.61 69.10 14.13 o
1060 2 2 2 -6 9.07 2.81 2.20 <
1061 2 2 2 -5 1179.70 1198.25 55.76 o
1062 2 2 2 -4 166.54 164.09 19.26 o
1063 2 2 2 -3 43.14 59.62 11.00 o
1064 2 2 2 -2 224.62 264.57 20.33 o
1065 2 2 2 -1 1358.66 1332.22 38.76 o
1066 2 2 2 0 26.20 13.95 4.25 o
1067 2 2 2 5 1227.69 1202.85 28.29 o
1068 2 2 2 6 3.09 19.48 4.99 o
1069 2 -2 2 -7 124.75 145.10 17.13 o
1070 2 2 2 7 124.75 108.43 10.35 o
1071 2 2 2 8 11.74 2.64 2.52 <
1072 2 -2 2 -8 11.74 4.99 3.49 <
1073 2 -2 2 -9 179.43 256.83 25.04 o
1074 2 2 2 9 179.43 195.14 17.94 o
1075 2 2 2 10 13.53 1.32 1.26 <
1076 2 -2 2 -10 13.53 -4.04 5.32 <
1077 2 2 2 11 145.10 150.91 18.89 o
1078 2 -2 2 -11 145.10 161.80 21.75 o
1079 2 2 2 12 2.71 1.32 5.06 <
1080 2 -2 2 -12 2.71 5.61 7.38 <
1081 2 2 3 -11 120.03 100.67 22.75 o
1082 2 2 3 -10 5.98 9.66 7.44 <
1083 2 2 3 -9 55.98 61.14 14.90 o
1084 2 2 3 -8 2.35 3.90 4.54 <
1085 2 2 3 -7 556.66 766.98 47.51 o
1086 2 2 3 -6 25.28 23.21 7.69 o
1087 2 2 3 -5 60.79 25.77 5.70 o
1088 2 2 3 -4 3.97 -0.81 3.39 <
1089 2 2 3 -3 1413.74 1658.20 48.69 o
1090 2 2 3 -2 59.43 66.17 8.17 o
1091 2 2 3 -1 1076.74 1151.23 31.39 o
1092 2 2 3 0 39.65 53.44 7.04 o
1093 2 2 3 1 1157.83 1101.35 22.94 o
1094 2 -2 3 -8 7.65 4.26 3.96 <
1095 2 -2 3 -9 65.80 104.40 16.93 o
1096 2 -2 3 -10 16.55 9.59 6.34 <
1097 2 -2 3 -11 116.15 135.26 20.86 o
1098 2 2 4 -10 7.92 3.60 4.12 <
1099 2 2 4 -9 166.70 151.32 21.31 o
1100 2 2 4 -8 8.63 5.67 5.40 <
1101 2 2 4 -7 12.93 29.93 9.12 o
1102 2 2 4 -6 5.97 2.64 2.39 <
1103 2 2 4 -5 961.58 1181.91 49.52 o
1104 2 2 4 -4 8.16 6.37 3.68 <
1105 2 2 4 -3 246.20 331.00 21.13 o
1106 2 2 4 -2 403.81 506.26 25.50 o
1107 2 2 4 -1 612.76 703.41 26.42 o
1108 2 2 4 0 55.78 84.76 9.93 o
1109 2 2 4 1 702.68 660.26 22.98 o
1110 2 2 5 -8 22.05 16.69 8.64 <
1111 2 2 5 -7 214.35 249.49 26.98 o
1112 2 2 5 -6 31.40 37.37 9.72 o
1113 2 2 5 -5 5.63 4.06 1.72 <
1114 2 2 5 -4 44.35 18.38 6.23 <
1115 2 2 5 -3 538.88 594.96 31.49 o
1116 2 2 5 -2 19.87 23.53 5.32 o
1117 2 2 5 -1 356.95 326.40 22.72 o
1118 2 2 5 0 17.99 16.13 4.48 o
1119 2 2 6 -6 12.19 7.80 3.17 <
1120 2 2 6 -5 267.95 254.81 25.38 o
1121 2 2 6 -4 18.40 17.00 4.80 o
1122 2 2 6 -3 16.31 12.84 5.63 <
1123 2 2 6 -2 27.55 31.95 8.60 o
1124 2 -3 -5 7 64.15 138.03 19.72 o
1125 2 -3 -5 6 52.09 85.02 14.02 o
1126 2 -3 -5 5 120.45 140.89 16.93 o
1127 2 -3 -5 4 77.06 59.22 11.07 o
1128 2 -3 -5 3 19.37 11.54 4.72 <
1129 2 -3 -4 9 24.48 60.94 14.92 o
1130 2 -3 -4 8 97.60 97.16 16.94 o
1131 2 -3 -4 7 138.50 195.31 23.23 o
1132 2 -3 -4 6 5.11 8.93 4.54 <
1133 2 -3 -4 5 2.29 0.78 2.25 <
1134 2 -3 -4 4 18.70 4.50 3.03 <
1135 2 -3 -4 3 305.42 349.30 23.92 o
1136 2 -3 -4 2 219.60 312.11 22.08 o
1137 2 -3 -4 1 7.38 -10.79 2.72 <
1138 2 -3 -3 10 20.33 25.88 12.29 <
1139 2 -3 -3 9 63.78 105.51 20.19 o
1140 2 -3 -3 8 29.03 37.83 11.04 o
1141 2 -3 -3 7 156.98 122.78 18.79 o
1142 2 -3 -3 6 102.28 93.25 15.32 o
1143 2 -3 -3 5 40.83 104.79 15.71 o
1144 2 -3 -3 4 141.29 178.84 19.36 o
1145 2 -3 -3 3 73.48 82.46 13.09 o
1146 2 -3 -3 2 5.58 5.68 1.08 o
1147 2 -3 -3 1 264.04 363.05 19.23 o
1148 2 -3 -3 0 49.70 47.64 7.38 o
1149 2 -3 -3 -1 252.42 207.18 10.33 o
1150 2 -3 -2 -5 41.06 27.27 4.83 o
1151 2 -3 -2 -6 0.89 0.64 2.85 <
1152 2 -3 -2 -7 96.82 152.58 17.33 o
1153 2 -3 -2 -8 53.02 -15.44 9.11 <
1154 2 3 -2 11 26.14 19.92 9.86 <
1155 2 -3 -1 -4 661.73 709.09 22.37 o
1156 2 -3 -1 -5 632.40 845.86 26.05 o
1157 2 -3 -1 -6 96.40 115.13 10.49 o
1158 2 -3 -1 -7 143.96 168.38 13.96 o
1159 2 -3 -1 -8 7.13 5.26 0.95 o
1160 2 3 -1 9 265.13 383.29 28.75 o
1161 2 -3 -1 -9 265.13 326.95 27.28 o
1162 2 3 -1 10 96.76 153.38 18.81 o
1163 2 -3 -1 -10 96.76 146.38 19.98 o
1164 2 -3 -1 -11 26.39 14.63 7.30 <
1165 2 3 -1 11 26.39 48.26 12.30 o
1166 2 3 -1 12 1.35 0.29 2.62 <
1167 2 -3 -1 -12 1.35 0.39 0.23 <
1168 2 -3 0 -6 627.86 608.49 28.61 o
1169 2 -3 0 -7 608.35 767.25 32.65 o
1170 2 3 0 8 380.39 496.06 28.44 o
1171 2 -3 0 -8 380.39 498.43 28.79 o
1172 2 -3 0 -9 5.92 6.11 3.23 <
1173 2 3 0 9 5.92 8.36 3.61 <
1174 2 3 0 10 24.73 28.75 8.40 o
1175 2 -3 0 -10 24.73 15.34 7.46 <
1176 2 -3 0 -11 35.25 67.40 14.30 o
1177 2 3 0 11 35.25 70.27 12.22 o
1178 2 3 0 12 1.52 4.36 3.06 <
1179 2 -3 0 -12 1.52 3.36 3.04 <
1180 2 -3 1 -7 147.51 198.41 18.43 o
1181 2 3 1 7 147.51 180.36 14.21 o
1182 2 -3 1 -8 6.52 6.53 2.19 <
1183 2 3 1 8 6.52 5.97 2.61 <
1184 2 -3 1 -9 269.80 343.22 26.16 o
1185 2 3 1 9 269.80 340.32 22.23 o
1186 2 3 1 10 96.06 148.09 16.36 o
1187 2 -3 1 -10 96.06 151.34 19.92 o
1188 2 -3 1 -11 27.45 32.61 10.16 o
1189 2 3 1 11 27.45 40.71 10.12 o
1190 2 -3 1 -12 1.48 -2.16 0.71 <
1191 2 3 1 12 1.48 -0.44 3.11 <
1192 2 3 2 6 1.31 0.57 1.29 <
1193 2 3 2 7 95.94 176.42 12.00 o
1194 2 3 2 8 54.69 47.52 6.37 o
1195 2 3 2 9 90.52 81.43 10.26 o
1196 2 -3 2 -9 90.52 106.17 16.83 o
1197 2 3 2 10 37.53 35.35 7.72 o
1198 2 -3 2 -10 37.53 38.77 11.76 o
1199 2 3 2 11 26.74 12.34 4.76 <
1200 2 -3 2 -11 26.74 22.10 9.83 <
1201 2 3 3 -10 18.64 18.56 11.49 <
1202 2 3 3 -9 64.14 36.14 15.19 <
1203 2 3 3 -8 28.69 4.26 1.76 <
1204 2 3 3 -7 153.99 51.99 13.69 o
1205 2 3 3 -6 101.66 51.20 13.39 o
1206 2 3 3 -5 42.10 50.49 12.15 o
1207 2 3 3 -4 147.05 137.39 22.44 o
1208 2 3 3 -3 74.25 42.44 11.47 o
1209 2 3 3 6 108.00 46.68 4.51 o
1210 2 3 3 7 105.88 71.07 6.64 o
1211 2 3 3 8 24.27 15.17 3.44 o
1212 2 3 3 9 59.48 56.08 7.73 o
1213 2 3 3 10 25.02 18.69 5.10 o
1214 2 3 4 -9 25.34 29.36 11.53 <
1215 2 3 4 -8 97.83 54.20 15.13 o
1216 2 3 4 -7 140.52 108.67 18.71 o
1217 2 3 4 -6 5.61 0.83 2.92 <
1218 2 3 4 -5 2.15 -2.03 4.32 <
1219 2 3 4 -4 19.25 3.87 3.56 <
1220 2 3 4 -3 305.79 237.24 20.46 o
1221 2 3 4 -2 222.40 205.45 19.53 o
1222 2 3 4 -1 5.37 -14.16 5.48 <
1223 2 3 4 0 6.54 -4.78 4.89 <
1224 2 3 4 1 3.89 2.51 7.77 <
1225 2 3 4 2 207.39 164.53 9.56 o
1226 2 3 4 6 8.45 2.40 1.03 <
1227 2 3 4 7 156.51 82.03 8.57 o
1228 2 3 4 8 96.04 32.19 5.47 o
1229 2 3 4 9 42.77 28.76 6.04 o
1230 2 3 5 -7 65.43 81.08 15.36 o
1231 2 3 5 -6 53.46 48.61 10.73 o
1232 2 3 5 -5 123.89 99.97 15.11 o
1233 2 3 5 -4 74.39 42.00 9.85 o
1234 2 3 5 -3 18.18 11.65 4.96 <
1235 2 3 5 -2 8.54 2.91 2.25 <
1236 2 3 5 -1 209.56 147.04 13.32 o
1237 2 3 5 0 78.64 41.13 7.28 o
1238 2 3 5 1 174.16 166.21 11.42 o
1239 2 3 5 2 3.90 6.06 2.56 <
1240 2 3 5 3 12.14 6.47 2.58 <
1241 2 3 6 -3 169.32 156.31 17.66 o
1242 2 3 6 -2 60.61 37.57 8.15 o
1243 2 3 6 -1 100.64 126.98 14.51 o
1244 2 3 6 0 3.92 12.33 5.54 <
1245 2 3 6 1 137.13 154.76 13.98 o
1246 2 3 6 2 74.61 38.01 6.66 o
1247 2 -4 -5 5 1.69 8.94 5.79 <
1248 2 -4 -5 4 82.45 79.67 13.03 o
1249 2 -4 -5 3 20.76 27.55 7.10 o
1250 2 -4 -5 2 95.35 96.23 11.05 o
1251 2 -4 -5 1 5.00 -3.02 2.79 <
1252 2 -4 -4 7 14.50 17.13 8.48 <
1253 2 -4 -4 6 127.27 257.67 26.28 o
1254 2 -4 -4 5 14.53 19.18 6.80 <
1255 2 -4 -4 4 42.08 63.77 11.22 o
1256 2 -4 -4 3 7.41 6.00 3.28 <
1257 2 -4 -4 2 6.08 2.97 2.29 <
1258 2 -4 -4 1 16.48 11.38 3.16 o
1259 2 -4 -4 0 89.75 86.18 7.93 o
1260 2 -4 -3 6 15.77 12.70 8.11 <
1261 2 -4 -3 5 29.51 25.25 10.76 <
1262 2 -4 -3 4 100.03 198.38 24.31 o
1263 2 -4 -3 3 43.48 41.62 8.86 o
1264 2 -4 -3 2 246.50 351.55 27.86 o
1265 2 -4 -3 1 31.74 6.85 5.78 <
1266 2 -4 -3 0 7.58 -7.21 3.34 <
1267 2 -4 -3 -1 27.02 20.42 3.40 o
1268 2 -4 -2 -4 111.24 112.85 7.38 o
1269 2 -4 -2 -5 41.03 34.58 4.74 o
1270 2 -4 -2 -6 151.44 169.71 12.11 o
1271 2 -4 -2 -7 2.06 10.02 3.77 <
1272 2 -4 -2 -8 2.09 0.66 1.76 <
1273 2 -4 -2 -9 8.57 7.33 3.66 <
1274 2 -4 -2 -10 72.18 81.08 14.95 o
1275 2 -4 -1 -6 392.64 577.72 26.99 o
1276 2 -4 -1 -7 24.74 28.00 5.70 o
1277 2 -4 -1 -8 76.31 177.03 16.53 o
1278 2 -4 -1 -9 2.74 2.24 1.84 <
1279 2 -4 -1 -10 17.98 8.54 1.71 o
1280 2 -4 0 -7 7.08 13.26 4.85 <
1281 2 -4 0 -8 131.90 40.28 8.25 o
1282 2 -4 0 -9 35.80 24.51 7.31 o
1283 2 -4 0 -10 244.23 472.25 33.25 o
1284 2 -4 0 -11 23.01 14.97 6.23 <
1285 2 -4 1 -9 2.94 0.22 1.94 <
1286 2 -4 1 -10 18.17 8.32 4.15 <
1287 2 4 2 10 69.53 96.27 11.58 o
1288 2 4 3 9 8.05 2.52 0.72 o
1289 2 4 5 -5 1.83 8.19 4.10 <
1290 2 4 5 -4 79.67 28.74 10.08 <
1291 2 4 5 -3 21.92 17.83 5.99 <
1292 2 4 5 -2 92.28 42.04 11.15 o
1293 2 4 5 -1 5.53 -12.47 5.85 <
1294 2 4 5 0 1.26 -6.46 4.54 <
1295 2 -5 -4 4 14.00 28.96 9.56 o
1296 2 -5 -4 3 69.70 44.88 9.16 o
1297 2 -5 -4 2 240.98 254.46 20.53 o
1298 2 -5 -4 1 2.68 0.34 2.38 <
1299 2 -5 -4 0 1.42 -1.64 2.01 <
1300 2 -5 -4 -1 3.41 9.59 2.87 o
1301 3 0 -2 12 53.20 36.20 5.62 o
1301 2 -5 -2 -6 53.20 36.20 5.62 o
1302 2 -5 -2 -7 11.93 24.52 5.39 o
1303 2 -5 -2 -8 68.00 119.94 12.19 o
1304 2 -5 -1 -7 7.87 4.52 3.59 <
1305 2 -5 -1 -8 12.94 -0.76 1.13 <
1306 3 0 -2 9 61.17 4.06 1.76 <
1307 3 0 -2 10 326.83 291.98 18.36 o
1308 3 0 -2 11 2.30 -6.50 3.69 <
1309 3 0 -2 12 53.27 7.66 3.64 <
1309 2 -5 -2 -6 53.27 7.66 3.64 <
1310 3 0 -2 13 1.14 -19.44 6.79 <
1311 3 0 4 -6 149.32 39.11 6.93 o
1312 3 0 5 -7 2.58 8.87 4.39 <
1313 3 0 5 -8 69.87 21.97 5.62 o
1314 3 1 -3 6 336.83 283.63 18.24 o
1314 1 3 3 -1 336.83 283.63 18.24 o
1315 3 -1 -2 13 43.04 77.79 12.14 o
1316 3 -1 -2 12 24.16 3.63 1.76 <
1317 3 -1 -2 11 18.96 23.09 6.07 o
1318 3 -1 -2 10 34.20 127.19 12.78 o
1319 3 -1 -2 9 0.83 13.54 3.99 o
1320 3 1 -2 -1 298.63 564.69 34.73 o
1321 3 1 -2 0 419.68 552.25 29.85 o
1322 3 1 -2 1 193.12 354.14 23.08 o
1323 3 1 -2 2 1673.59 1645.38 46.73 o
1324 3 1 -2 3 1974.53 1697.86 44.51 o
1325 3 1 -2 4 515.33 768.99 25.93 o
1326 3 1 -2 5 95.99 100.69 8.04 o
1327 3 -1 -1 13 12.08 2.54 3.83 <
1328 3 -1 -1 12 18.29 2.70 2.32 <
1329 3 -1 -1 11 35.11 26.42 9.03 <
1330 3 -1 -1 10 180.34 548.04 42.60 o
1331 3 -1 -1 9 221.30 366.18 28.63 o
1332 3 -1 -1 8 49.18 24.52 5.66 o
1333 3 -1 -1 7 162.40 130.87 13.72 o
1334 3 -1 -1 6 519.93 568.25 26.18 o
1335 3 -1 -1 5 568.12 446.60 19.39 o
1336 3 -1 -1 4 1303.51 1358.01 33.02 o
1337 3 1 -1 -3 605.50 744.65 38.29 o
1338 3 1 -1 -2 181.55 189.49 17.18 o
1339 3 1 -1 -1 1056.21 2107.01 54.17 o
1340 3 1 -1 0 2179.94 2014.50 47.85 o
1341 3 1 -1 1 965.30 1165.77 32.28 o
1342 3 1 -1 2 169.04 199.96 12.01 o
1343 3 -1 0 9 372.61 445.24 42.05 o
1344 3 -1 0 8 344.07 389.96 32.89 o
1345 3 -1 0 7 276.57 269.90 25.06 o
1346 3 -1 0 6 37.17 22.40 4.53 o
1347 3 1 0 -5 713.72 654.11 34.82 o
1348 3 -1 0 5 713.72 660.63 34.54 o
1349 3 1 0 -4 44.40 32.51 6.23 o
1350 3 -1 0 4 44.40 33.50 6.10 o
1351 3 1 0 -3 36.90 74.79 9.72 o
1352 3 -1 0 3 36.90 76.33 9.48 o
1353 3 1 0 -2 467.52 581.27 24.44 o
1354 3 -1 0 2 467.52 591.65 23.06 o
1355 3 1 0 -1 824.92 874.85 26.75 o
1356 3 -1 0 1 824.92 874.65 26.59 o
1357 3 1 1 -6 530.46 515.71 28.25 o
1358 3 1 1 -5 590.38 422.50 22.03 o
1359 3 -1 1 4 1261.63 1252.78 53.22 o
1360 3 1 1 -4 1261.63 1258.30 34.39 o
1361 3 1 1 -3 594.01 777.38 24.62 o
1362 3 -1 1 3 594.01 775.70 39.22 o
1363 3 -1 1 2 186.86 192.77 16.84 o
1364 3 -1 1 1 1050.69 2034.66 53.77 o
1365 3 -1 1 0 2179.21 1887.84 45.66 o
1366 3 -1 1 -1 973.51 1133.51 31.00 o
1367 3 1 2 -7 314.73 195.13 14.70 o
1368 3 1 2 -6 203.60 175.02 12.74 o
1369 3 1 2 -5 90.34 102.71 9.16 o
1370 3 -1 2 1 282.98 600.79 36.19 o
1371 3 -1 2 0 419.78 538.95 29.94 o
1372 3 -1 2 -1 206.27 340.34 22.65 o
1373 3 -1 2 -2 1660.66 1571.51 45.58 o
1374 3 -1 2 -3 1958.89 1751.66 39.84 o
1375 3 1 3 -7 105.71 55.34 6.47 o
1376 3 -1 3 -1 433.97 754.29 40.39 o
1377 3 -1 3 -2 797.69 949.23 44.19 o
1378 3 -1 3 -3 209.14 177.98 16.76 o
1379 3 -1 3 -4 1234.23 1759.80 50.36 o
1380 3 -1 3 -5 456.31 423.71 19.71 o
1381 3 1 4 -8 92.31 36.05 5.01 o
1382 3 -1 4 -3 792.90 778.53 43.00 o
1383 3 -1 4 -4 132.00 148.11 16.74 o
1384 3 -1 4 -5 31.98 18.62 6.01 o
1385 3 -1 4 -6 75.27 7.81 9.26 <
1385 1 -3 -4 1 75.27 7.81 9.26 <
1386 3 -1 5 -4 414.15 545.08 38.81 o
1387 3 -1 5 -5 171.71 94.67 15.54 o
1388 3 -1 5 -6 208.20 107.61 18.28 o
1388 1 -3 -5 1 208.20 107.61 18.28 o
1389 3 -1 5 -7 24.79 25.40 6.72 o
1390 3 -1 5 -8 25.50 19.81 4.58 o
1391 3 -1 6 -6 112.82 89.38 21.09 o
1391 1 -3 -6 1 112.82 89.38 21.09 o
1392 3 2 -4 1 711.84 777.61 47.02 o
1393 3 2 -4 2 387.72 525.69 37.34 o
1394 3 2 -4 3 391.33 592.15 39.83 o
1395 3 2 -4 4 5.58 5.96 5.57 <
1396 3 2 -4 5 1135.01 1075.17 51.09 o
1397 3 2 -4 6 1.96 14.94 12.96 <
1398 3 2 -4 7 13.90 10.72 2.48 o
1399 3 2 -4 8 9.49 -3.82 4.75 <
1400 3 2 -4 9 155.27 118.63 14.15 o
1401 3 2 -4 10 1.60 -2.69 3.55 <
1402 3 2 -3 -3 1421.18 1828.80 78.81 o
1403 3 2 -3 -2 58.41 86.75 15.83 o
1404 3 2 -3 -1 1094.92 1357.22 61.66 o
1405 3 2 -3 0 39.57 48.30 21.63 <
1406 3 2 -3 1 1147.92 1295.23 56.86 o
1407 3 2 -3 2 37.97 46.99 8.80 o
1408 3 2 -3 3 1597.71 2502.06 75.19 o
1409 3 2 -3 4 0.40 0.97 2.56 <
1410 3 2 -3 5 53.73 15.13 2.73 o
1411 3 2 -3 6 52.11 47.49 10.39 o
1412 3 2 -3 7 719.38 621.76 30.82 o
1413 3 2 -3 8 7.73 -2.58 3.43 <
1414 3 2 -3 9 61.79 53.74 8.45 o
1415 3 -2 -2 12 2.48 11.19 5.53 <
1416 3 -2 -2 11 94.66 158.96 16.09 o
1417 3 -2 -2 10 5.92 -39.31 9.03 <
1418 3 2 -2 -6 9.45 43.56 13.10 o
1419 3 2 -2 -5 1178.10 1358.28 67.42 o
1420 3 2 -2 -4 168.45 198.08 24.39 o
1421 3 2 -2 -3 44.59 52.59 12.00 o
1422 3 2 -2 -2 223.29 417.51 34.48 o
1423 3 2 -2 -1 1395.63 1346.44 57.77 o
1424 3 2 -2 0 25.87 15.20 13.40 <
1425 3 2 -2 1 1300.56 1120.97 49.87 o
1426 3 2 -2 2 205.30 196.31 18.73 o
1427 3 2 -2 3 93.40 61.89 9.06 o
1428 3 2 -2 4 133.60 127.33 13.15 o
1429 3 2 -2 5 1235.14 1016.02 41.59 o
1430 3 -2 -1 13 18.40 37.65 11.14 o
1431 3 -2 -1 12 3.50 7.51 6.13 <
1432 3 -2 -1 11 31.48 17.84 4.70 o
1433 3 -2 -1 10 13.07 8.47 4.49 <
1434 3 -2 -1 9 229.34 214.65 19.85 o
1435 3 -2 -1 8 8.78 6.61 4.05 <
1436 3 -2 -1 7 497.67 696.78 35.75 o
1436 1 2 1 -7 497.67 696.78 35.75 o
1437 3 2 -1 -7 497.67 715.03 51.44 o
1437 1 -2 1 7 497.67 715.03 51.44 o
1438 3 -2 -1 6 25.42 30.65 6.65 o
1439 3 2 -1 -6 25.42 65.13 15.63 o
1440 3 2 -1 -5 152.38 137.93 18.27 o
1441 3 -2 -1 5 152.38 131.54 12.14 o
1442 3 2 -1 -4 40.86 17.89 5.36 o
1443 3 2 -1 -3 147.58 100.93 14.60 o
1444 3 2 -1 -2 357.52 441.76 31.99 o
1445 3 2 -1 -1 3128.91 2866.55 76.29 o
1446 3 2 -1 0 47.36 2.19 8.80 <
1447 3 2 -1 1 3525.79 2940.14 70.33 o
1448 3 -2 0 13 0.49 9.34 6.27 <
1449 3 -2 0 12 18.61 6.03 4.50 <
1450 3 -2 0 11 82.81 61.48 15.37 o
1451 3 -2 0 10 4.25 11.07 5.89 <
1452 3 -2 0 9 0.70 -6.55 8.39 <
1453 3 2 0 -9 0.70 -7.01 9.39 <
1454 3 2 0 -8 77.46 43.99 10.04 o
1455 3 -2 0 8 77.46 54.00 11.33 o
1456 3 -2 0 7 26.33 34.20 7.31 o
1456 1 2 0 -7 26.33 34.20 7.31 o
1457 3 2 0 -7 26.33 31.33 8.69 o
1457 1 -2 0 7 26.33 31.33 8.69 o
1458 3 2 0 -6 324.09 430.55 34.78 o
1459 3 -2 0 6 324.09 444.24 32.43 o
1460 3 -2 0 5 845.13 808.39 39.94 o
1461 3 2 0 -5 845.13 815.38 42.47 o
1462 3 2 0 -4 141.05 113.73 14.79 o
1463 3 -2 0 4 141.05 103.11 12.61 o
1464 3 2 0 -3 336.49 348.39 24.48 o
1465 3 -2 0 3 336.49 372.86 24.33 o
1466 3 -2 0 2 0.04 -1.34 1.64 <
1467 3 2 0 -2 0.04 -2.25 3.43 <
1468 3 2 0 -1 520.40 449.13 27.14 o
1469 3 -2 1 11 30.79 11.00 7.66 <
1470 3 -2 1 10 13.08 3.53 2.57 <
1471 3 2 1 -10 13.08 0.04 5.03 <
1472 3 -2 1 9 230.24 215.25 28.48 o
1473 3 2 1 -9 230.24 202.13 22.85 o
1474 3 -2 1 8 8.37 1.03 2.46 <
1475 3 2 1 -8 8.37 -3.28 5.22 <
1476 3 -2 1 7 498.57 728.94 52.71 o
1476 1 2 -1 -7 498.57 728.94 52.71 o
1477 3 2 1 -7 498.57 687.58 43.55 o
1477 1 -2 -1 7 498.57 687.58 43.55 o
1478 3 2 1 -6 24.73 24.87 6.85 o
1479 3 -2 1 6 24.73 49.00 13.20 o
1480 3 2 1 -5 151.91 101.18 10.90 o
1481 3 -2 1 5 151.91 121.42 16.37 o
1482 3 -2 1 4 41.34 23.96 8.13 <
1483 3 2 1 -4 41.34 24.28 6.02 o
1484 3 -2 1 3 156.85 101.20 14.15 o
1485 3 -2 1 2 362.61 382.15 27.89 o
1486 3 -2 1 1 3186.90 2923.31 73.17 o
1487 3 -2 1 0 47.42 2.16 6.22 <
1488 3 -2 1 -1 3462.32 3059.78 72.30 o
1489 3 2 2 -10 5.91 5.12 4.49 <
1490 3 2 2 -9 137.45 115.26 14.43 o
1491 3 2 2 -8 27.91 2.48 2.50 <
1492 3 -2 2 7 106.12 126.86 22.41 o
1492 1 2 -2 -7 106.12 126.86 22.41 o
1493 3 2 2 -7 106.12 116.47 12.24 o
1493 1 -2 -2 7 106.12 116.47 12.24 o
1494 3 2 2 -6 9.09 7.20 2.96 <
1495 3 -2 2 6 9.09 23.28 10.29 <
1496 3 -2 2 5 1182.18 1288.33 67.61 o
1497 3 -2 2 4 166.89 178.57 24.02 o
1498 3 -2 2 3 43.23 45.51 11.11 o
1499 3 -2 2 2 225.09 366.95 32.31 o
1500 3 -2 2 1 1361.51 1211.51 54.81 o
1501 3 -2 2 0 26.26 16.47 11.44 <
1502 3 -2 2 -1 1333.12 1164.62 47.18 o
1503 3 -2 2 -2 203.52 223.68 19.29 o
1504 3 -2 2 -3 95.39 84.46 11.41 o
1505 3 2 3 -11 120.28 58.52 10.67 o
1506 3 2 3 -10 5.99 12.61 5.17 <
1507 3 2 3 -9 56.10 46.42 9.37 o
1508 3 2 3 -8 2.36 8.81 4.37 <
1509 3 -2 3 4 3.97 1.34 4.78 <
1510 3 -2 3 3 1416.71 1761.31 79.47 o
1511 3 -2 3 2 59.56 79.88 14.68 o
1512 3 -2 3 1 1079.00 1193.43 57.82 o
1513 3 -2 3 0 39.73 48.89 19.12 <
1514 3 -2 3 -1 1160.26 1118.95 52.42 o
1515 3 -2 3 -2 37.12 29.29 4.17 o
1516 3 -2 3 -3 1609.07 2306.48 68.17 o
1517 3 -2 3 -4 0.34 0.04 2.83 <
1518 3 2 4 -10 7.94 13.86 5.15 <
1519 3 2 4 -9 167.05 94.83 10.24 o
1520 3 -2 4 2 404.66 712.59 52.73 o
1521 3 -2 4 1 614.05 823.93 52.58 o
1522 3 -2 4 0 55.90 62.38 17.77 o
1523 3 -2 4 -1 704.15 703.24 45.29 o
1524 3 -2 4 -2 391.78 433.85 33.75 o
1525 3 -2 4 -3 394.63 500.27 35.40 o
1526 3 -2 4 -4 5.58 4.41 3.19 <
1527 3 -2 4 -5 1134.89 1057.19 45.23 o
1528 3 -2 4 -6 2.19 19.97 7.24 <
1529 3 -2 5 0 18.03 9.45 4.99 <
1530 3 -2 5 -1 329.61 260.14 31.62 o
1531 3 -2 5 -2 16.91 9.89 5.54 <
1532 3 -2 5 -3 458.12 841.65 53.05 o
1533 3 -2 5 -4 20.24 17.50 8.22 <
1534 3 -2 5 -5 14.86 -3.02 5.11 <
1535 3 -2 5 -6 28.73 34.87 8.98 o
1536 3 -2 5 -7 240.96 232.59 19.76 o
1537 3 -2 6 -2 45.56 10.18 4.03 <
1538 3 -2 6 -3 14.06 15.54 8.29 <
1539 3 -2 6 -4 18.96 17.04 9.52 <
1540 3 -2 6 -5 247.50 171.51 24.76 o
1541 3 3 -5 -1 256.44 182.18 29.32 o
1541 1 1 5 6 256.44 182.18 29.32 o
1542 3 3 -5 0 78.80 32.59 14.63 <
1543 3 3 -5 1 177.38 134.56 22.21 o
1544 3 3 -5 2 3.60 -3.20 3.95 <
1545 3 3 -5 3 12.11 8.46 3.90 <
1546 3 3 -5 4 63.93 94.26 20.25 o
1547 3 3 -5 5 168.22 76.98 16.95 o
1548 3 3 -5 6 77.55 44.55 11.01 o
1549 3 3 -5 7 91.41 59.11 14.87 o
1550 3 3 -4 -4 18.74 14.68 14.63 <
1551 3 3 -4 -3 306.07 448.75 46.19 o
1552 3 3 -4 -2 220.07 232.49 30.16 o
1553 3 3 -4 -1 52.16 -46.58 26.25 <
1553 1 1 4 6 52.16 -46.58 26.25 <
1554 3 3 -4 0 7.01 2.32 5.07 <
1555 3 3 -4 1 2.76 -6.22 1.84 <
1556 3 3 -4 2 210.90 867.76 63.06 o
1557 3 3 -4 3 271.67 249.26 28.98 o
1558 3 3 -4 4 9.67 2.33 2.46 <
1559 3 3 -4 5 5.11 -5.34 5.97 <
1560 3 3 -4 6 9.97 10.16 5.82 <
1561 3 3 -4 7 157.71 81.96 13.90 o
1562 3 3 -4 8 97.29 35.19 9.63 o
1563 3 3 -4 9 44.04 15.43 6.47 <
1564 3 3 -3 -7 157.30 66.79 16.25 o
1565 3 3 -3 -6 102.49 81.11 22.12 o
1566 3 3 -3 -5 40.92 97.70 21.55 o
1567 3 3 -3 -4 141.59 124.29 21.60 o
1568 3 3 -3 -3 73.63 81.69 17.53 o
1569 3 3 -3 -2 5.59 0.55 3.30 <
1570 3 3 -3 -1 374.10 448.49 42.91 o
1570 1 1 3 6 374.10 448.49 42.91 o
1571 3 3 -3 0 49.80 41.03 19.39 <
1572 3 3 -3 1 252.95 284.23 30.58 o
1573 3 3 -3 2 10.47 12.30 3.62 o
1574 3 3 -3 3 83.91 44.13 11.51 o
1575 3 3 -3 4 175.28 244.98 25.91 o
1576 3 3 -3 5 76.08 72.54 13.83 o
1577 3 3 -3 6 106.11 43.24 10.40 o
1578 3 3 -3 7 103.37 42.90 9.82 o
1579 3 3 -2 -9 78.57 109.76 24.59 o
1580 3 3 -2 -8 22.03 40.02 13.84 <
1581 3 3 -2 -7 79.93 134.24 24.69 o
1582 3 3 -2 -6 0.12 2.52 7.34 <
1583 3 3 -2 -5 29.02 33.68 10.53 o
1584 3 3 -2 -4 48.18 45.95 13.42 o
1585 3 3 -2 -3 468.14 1009.39 62.74 o
1586 3 3 -2 -2 265.15 319.74 32.74 o
1587 3 3 -2 -1 535.56 546.54 42.81 o
1587 1 1 2 6 535.56 546.54 42.81 o
1588 3 3 -2 0 228.31 195.01 27.49 o
1589 3 3 -2 1 414.81 349.35 30.50 o
1590 3 3 -2 2 364.19 795.38 54.52 o
1591 3 3 -2 3 592.02 559.64 36.54 o
1592 3 3 -2 4 108.40 97.25 15.52 o
1593 3 -3 -1 12 0.79 -11.04 7.16 <
1594 3 -3 -1 11 13.79 51.02 12.52 o
1595 3 3 -1 -10 62.84 316.10 37.77 o
1596 3 -3 -1 10 62.84 202.87 22.46 o
1597 3 3 -1 -9 215.86 477.38 47.71 o
1598 3 -3 -1 9 215.86 489.69 34.95 o
1599 3 -3 -1 8 14.99 0.85 2.95 <
1600 3 3 -1 -8 14.99 -5.23 5.01 <
1601 3 -3 -1 7 135.67 165.87 18.19 o
1602 3 3 -1 -7 135.67 129.15 22.34 o
1603 3 -3 -1 6 52.16 80.53 11.20 o
1604 3 3 -1 -6 52.16 83.55 21.35 o
1605 3 3 -1 -5 555.44 721.65 50.69 o
1606 3 3 -1 -4 481.62 535.04 42.60 o
1607 3 3 -1 -3 201.67 300.70 30.59 o
1608 3 3 -1 -2 353.40 253.33 26.56 o
1609 3 3 -1 -1 1117.63 1035.10 55.45 o
1609 1 1 1 6 1117.63 1035.10 55.45 o
1610 3 3 -1 0 356.41 358.44 35.14 o
1611 3 -3 0 12 1.03 -7.35 8.12 <
1612 3 3 0 -11 46.70 49.31 16.10 o
1613 3 -3 0 11 46.70 58.32 15.78 o
1614 3 3 0 -10 42.58 69.63 19.65 o
1615 3 -3 0 10 42.58 29.77 9.69 o
1616 3 -3 0 9 0.60 2.85 4.72 <
1617 3 3 0 -9 0.60 -2.24 5.99 <
1618 3 3 0 -8 301.82 371.49 36.41 o
1619 3 -3 0 8 301.82 384.94 32.03 o
1620 3 -3 0 7 525.58 697.88 42.89 o
1621 3 3 0 -7 525.58 664.91 48.55 o
1622 3 -3 0 6 377.47 460.93 33.18 o
1623 3 3 0 -6 377.47 448.44 37.75 o
1624 3 3 0 -5 0.84 0.33 5.85 <
1625 3 -3 0 5 0.84 1.66 1.80 <
1626 3 -3 0 4 26.61 37.47 8.06 o
1627 3 3 0 -4 26.61 26.18 7.66 o
1628 3 -3 0 3 1398.45 1708.69 66.54 o
1629 3 3 0 -3 1398.45 1720.75 68.16 o
1630 3 3 0 -2 390.64 191.43 21.34 o
1631 3 3 1 -12 0.72 -0.10 3.97 <
1632 3 -3 1 12 0.72 -7.69 8.95 <
1633 3 3 1 -11 12.33 33.88 11.78 <
1634 3 -3 1 11 12.33 31.83 12.60 <
1635 3 3 1 -10 64.64 325.94 34.31 o
1636 3 -3 1 10 64.64 249.20 35.49 o
1637 3 3 1 -9 211.74 409.77 37.50 o
1638 3 -3 1 9 211.74 434.05 44.42 o
1639 3 -3 1 8 15.81 -10.40 8.54 <
1640 3 3 1 -8 15.81 4.87 1.27 o
1641 3 -3 1 7 132.59 119.91 20.14 o
1642 3 3 1 -7 132.59 114.52 18.48 o
1643 3 3 1 -6 48.65 74.79 12.94 o
1644 3 -3 1 6 48.65 65.57 13.46 o
1645 3 3 1 -5 550.46 616.18 38.60 o
1646 3 -3 1 5 550.46 649.76 44.10 o
1647 3 -3 1 4 474.40 506.04 37.67 o
1648 3 -3 1 3 199.44 286.61 27.72 o
1649 3 -3 1 2 351.90 275.58 25.98 o
1650 3 -3 1 1 1116.74 973.56 52.27 o
1650 1 -1 -1 -6 1116.74 973.56 52.27 o
1651 3 -3 1 0 355.98 384.71 35.35 o
1652 3 3 2 -11 14.54 34.53 13.44 <
1653 3 -3 2 11 14.54 18.64 12.88 <
1654 3 3 2 -10 56.03 82.92 17.60 o
1655 3 -3 2 10 56.03 86.12 24.81 o
1656 3 3 2 -9 76.03 87.35 17.10 o
1657 3 -3 2 9 76.03 103.17 26.03 o
1658 3 -3 2 8 21.79 19.99 9.48 <
1659 3 3 2 -8 21.79 14.77 4.00 o
1660 3 3 2 -7 79.51 131.96 17.24 o
1661 3 -3 2 7 79.51 133.74 24.94 o
1662 3 -3 2 6 0.17 4.01 6.30 <
1663 3 -3 2 5 29.24 9.49 3.02 o
1664 3 -3 2 4 46.74 43.90 12.58 o
1665 3 -3 2 3 461.66 860.77 55.25 o
1666 3 -3 2 2 261.52 307.33 30.38 o
1667 3 -3 2 1 544.47 495.46 38.41 o
1667 1 -1 -2 -6 544.47 495.46 38.41 o
1668 3 -3 2 0 228.61 217.64 26.53 o
1669 3 -3 2 -1 402.77 392.29 31.72 o
1670 3 -3 2 -2 369.05 959.43 58.65 o
1671 3 3 3 -10 18.68 28.81 8.25 o
1672 3 -3 3 9 64.27 65.83 22.16 <
1673 3 3 3 -9 64.27 81.66 14.91 o
1674 3 -3 3 8 28.75 7.19 2.57 <
1675 3 3 3 -8 28.75 17.40 6.14 <
1676 3 -3 3 7 154.32 45.51 14.16 o
1677 3 -3 3 6 101.87 42.21 15.80 <
1678 3 -3 3 5 42.19 80.81 19.81 o
1679 3 -3 3 4 147.36 105.43 21.59 o
1680 3 -3 3 3 74.40 74.71 17.58 o
1681 3 -3 3 2 5.15 4.40 2.30 <
1682 3 -3 3 1 367.56 388.77 39.10 o
1682 1 -1 -3 -6 367.56 388.77 39.10 o
1683 3 -3 3 0 50.75 35.26 16.64 <
1684 3 -3 3 -1 258.62 337.60 33.63 o
1685 3 -3 3 -2 10.00 12.34 2.99 o
1686 3 -3 3 -3 84.65 59.00 11.86 o
1687 3 -3 3 -4 169.60 184.04 22.52 o
1688 3 -3 4 6 5.62 -1.05 9.92 <
1689 3 -3 4 5 2.15 3.71 3.41 <
1690 3 -3 4 4 19.29 2.46 5.29 <
1691 3 -3 4 3 306.43 429.84 45.25 o
1692 3 -3 4 2 222.87 205.51 28.73 o
1693 3 -3 4 1 52.41 -6.95 18.79 <
1693 1 -1 -4 -6 52.41 -6.95 18.79 <
1694 3 -3 4 0 6.55 -12.11 11.51 <
1695 3 -3 4 -1 3.90 -3.20 3.09 <
1696 3 -3 4 -2 207.82 890.33 57.57 o
1697 3 -3 4 -3 269.82 238.08 26.39 o
1698 3 -3 4 -4 9.55 6.11 3.88 <
1699 3 -3 4 -5 4.93 4.68 2.21 <
1700 3 -3 5 3 18.21 16.94 10.80 <
1701 3 -3 5 2 8.56 -0.33 1.85 <
1702 3 -3 5 1 258.54 128.72 24.12 o
1702 1 -1 -5 -6 258.54 128.72 24.12 o
1703 3 -3 5 0 78.81 22.99 11.96 <
1704 3 -3 5 -1 174.53 123.87 22.73 o
1705 3 -3 5 -2 3.90 -7.16 10.06 <
1706 3 -3 5 -3 12.17 7.94 4.52 <
1707 3 -3 5 -4 64.28 55.58 14.20 o
1708 3 -3 5 -5 166.10 98.89 17.22 o
1709 3 -3 5 -6 75.62 43.37 8.63 o
1710 3 -3 6 1 130.93 123.30 27.36 o
1710 1 -1 -6 -6 130.93 123.30 27.36 o
1711 3 -3 6 0 3.93 4.50 3.48 <
1712 3 -3 6 -1 137.42 97.83 23.92 o
1713 3 -3 6 -2 74.76 186.30 32.14 o
1714 3 -3 6 -3 237.15 104.78 20.54 o
1715 3 4 -5 -5 1.69 -1.65 1.23 <
1716 3 4 -5 -4 82.63 71.85 23.24 o
1717 3 4 -5 -3 20.80 7.20 6.67 <
1718 3 4 -5 -2 95.55 132.70 32.25 o
1719 3 4 -5 -1 5.01 -15.97 13.43 <
1720 3 4 -5 0 1.32 -12.78 12.43 <
1721 3 4 -5 1 0.80 -38.83 20.13 <
1722 3 4 -5 2 91.74 39.39 11.26 o
1723 3 4 -5 3 34.31 11.18 7.51 <
1724 3 4 -5 4 74.30 46.09 16.03 <
1725 3 4 -5 5 11.91 10.77 7.29 <
1726 3 4 -4 -7 14.53 15.22 10.59 <
1727 3 4 -4 -6 127.54 239.65 38.37 o
1728 3 4 -4 -5 14.56 24.14 14.96 <
1729 3 4 -4 -4 42.17 54.18 19.64 <
1730 3 4 -4 -3 7.42 15.99 11.33 <
1731 3 4 -4 -2 6.10 7.65 8.16 <
1732 3 4 -4 -1 16.51 7.94 16.38 <
1733 3 4 -4 0 89.93 46.00 14.15 o
1734 3 4 -4 1 8.32 -1.91 11.97 <
1735 3 4 -4 2 11.97 4.90 2.62 <
1736 3 4 -4 3 2.10 -2.27 3.11 <
1737 3 4 -4 4 54.40 38.23 15.02 <
1738 3 4 -4 5 14.58 18.65 10.32 <
1739 3 4 -4 6 248.36 178.37 26.69 o
1740 3 4 -4 7 10.15 4.58 1.40 o
1741 3 4 -3 -9 10.18 -10.99 13.52 <
1742 3 4 -3 -8 25.30 44.70 16.60 <
1743 3 4 -3 -7 14.46 9.35 5.89 <
1744 3 4 -3 -6 15.80 154.27 31.07 o
1745 3 4 -3 -5 29.57 29.04 11.22 <
1746 3 4 -3 -4 100.24 202.12 33.96 o
1747 3 4 -3 -3 43.57 23.26 9.32 <
1748 3 4 -3 -2 247.02 250.36 35.35 o
1749 3 4 -3 -1 31.80 7.49 4.88 <
1750 3 4 -3 0 7.60 -33.93 16.21 <
1751 3 4 -3 1 27.08 2.18 8.33 <
1752 3 4 -3 2 322.43 215.82 28.19 o
1753 3 4 -3 3 47.08 16.34 4.55 o
1754 3 4 -3 4 139.13 118.95 20.40 o
1755 3 4 -3 5 29.78 21.83 10.31 <
1756 3 4 -3 6 14.18 -0.49 5.11 <
1757 3 4 -2 -10 69.89 48.70 17.57 <
1758 3 4 -2 -9 4.02 -6.58 11.08 <
1759 3 4 -2 -8 1.81 -25.31 14.99 <
1760 3 4 -2 -7 8.67 27.92 15.76 <
1761 3 4 -2 -6 63.18 158.88 28.50 o
1762 3 4 -2 -5 22.23 22.00 11.65 <
1763 3 4 -2 -4 73.71 126.16 24.88 o
1764 3 4 -2 -3 48.29 19.11 10.87 <
1765 3 4 -2 -2 87.60 64.82 15.58 o
1766 3 4 -2 -1 99.05 22.70 9.27 <
1767 3 4 -2 0 1483.75 1140.69 69.24 o
1768 3 4 -2 1 104.97 230.91 33.40 o
1769 3 4 -2 2 106.08 64.32 10.69 o
1770 3 -4 -1 10 8.63 31.46 11.48 <
1771 3 4 -1 -10 8.63 8.64 10.41 <
1772 3 -4 -1 9 0.87 -2.11 3.34 <
1773 3 4 -1 -9 0.87 2.32 4.22 <
1774 3 -4 -1 8 74.97 119.37 18.04 o
1775 3 4 -1 -8 74.97 120.10 28.95 o
1776 3 4 -1 -7 22.06 24.69 11.60 <
1777 3 4 -1 -6 360.15 574.65 54.46 o
1778 3 4 -1 -5 8.23 16.22 9.68 <
1779 3 4 -1 -4 331.10 465.73 46.21 o
1780 3 4 -1 -3 126.24 39.31 11.84 o
1781 3 4 -1 -2 317.52 294.86 32.34 o
1782 3 4 -1 -1 37.74 20.38 7.12 <
1783 3 4 0 -11 6.48 -1.46 7.55 <
1784 3 -4 0 11 6.48 8.33 2.67 o
1785 3 4 0 -10 163.35 288.63 37.97 o
1786 3 -4 0 10 163.35 330.97 34.99 o
1787 3 4 0 -9 17.34 12.43 6.99 <
1788 3 -4 0 9 17.34 6.82 5.34 <
1789 3 -4 0 8 23.55 17.49 5.59 o
1790 3 4 0 -8 23.55 13.46 0.66 o
1791 3 -4 0 7 4.23 178.53 39.30 o
1792 3 4 0 -7 4.23 276.49 51.64 o
1793 3 -4 0 6 204.54 254.96 27.67 o
1794 3 4 0 -6 204.54 214.20 28.68 o
1795 3 -4 0 5 138.05 85.52 15.37 o
1796 3 4 0 -5 138.05 69.67 16.61 o
1797 3 -4 0 4 688.35 1017.24 58.78 o
1798 3 4 0 -4 688.35 977.42 61.96 o
1799 3 4 0 -3 190.13 75.87 14.73 o
1800 3 4 1 -10 8.56 11.85 7.67 <
1801 3 -4 1 10 8.56 13.34 5.47 <
1802 3 4 1 -9 0.77 -3.52 7.91 <
1803 3 -4 1 9 0.77 2.64 3.18 <
1804 3 4 1 -8 78.71 92.71 20.43 o
1805 3 -4 1 8 78.71 96.81 19.27 o
1806 3 -4 1 7 22.97 36.82 12.12 o
1807 3 4 1 -7 22.97 18.51 6.16 o
1808 3 -4 1 6 359.99 477.75 43.18 o
1809 3 4 1 -6 359.99 416.44 39.47 o
1810 3 -4 1 5 8.14 14.72 6.38 <
1811 3 -4 1 4 335.92 488.25 42.36 o
1812 3 -4 1 3 129.17 53.73 12.22 o
1813 3 -4 1 2 319.42 365.22 34.19 o
1814 3 -4 1 1 38.42 32.00 6.40 o
1815 3 -4 2 10 72.11 63.87 20.23 o
1816 3 4 2 -10 72.11 50.64 12.88 o
1817 3 -4 2 9 3.83 1.04 3.53 <
1818 3 4 2 -9 3.83 9.03 5.81 <
1819 3 4 2 -8 2.13 -6.99 2.83 <
1820 3 -4 2 8 2.13 -22.27 14.84 <
1821 3 -4 2 7 8.45 20.65 7.55 <
1822 3 -4 2 6 65.51 123.40 22.93 o
1823 3 -4 2 5 23.62 18.58 8.96 <
1824 3 -4 2 4 69.76 105.71 20.43 o
1825 3 -4 2 3 47.36 25.44 10.97 <
1826 3 -4 2 2 90.72 100.41 17.99 o
1827 3 -4 2 1 99.42 47.60 13.73 o
1828 3 -4 2 0 1482.61 1312.92 69.40 o
1829 3 -4 2 -1 104.84 235.57 34.62 o
1830 3 -4 3 9 10.17 -2.97 9.32 <
1831 3 -4 3 8 25.44 37.13 16.07 <
1832 3 -4 3 7 15.14 8.71 8.81 <
1833 3 -4 3 6 14.02 86.31 25.47 o
1834 3 -4 3 5 29.63 4.42 4.70 <
1835 3 -4 3 4 103.50 181.05 31.58 o
1836 3 -4 3 3 41.60 20.13 5.78 o
1837 3 -4 3 2 251.70 276.64 33.83 o
1838 3 -4 3 1 30.83 9.38 6.24 <
1839 3 -4 3 0 7.49 -36.35 16.16 <
1840 3 -4 3 -1 27.71 18.29 5.80 o
1841 3 -4 3 -2 320.81 277.59 29.99 o
1842 3 -4 3 -3 49.32 32.12 9.36 o
1843 3 -4 4 7 14.75 14.31 11.25 <
1844 3 -4 4 6 126.84 174.23 33.16 o
1845 3 -4 4 5 14.16 12.01 6.10 <
1846 3 -4 4 4 42.46 48.09 18.10 <
1847 3 -4 4 3 7.14 11.32 8.91 <
1848 3 -4 4 2 5.95 1.85 5.08 <
1849 3 -4 4 1 15.87 1.11 4.37 <
1850 3 -4 4 0 88.90 41.90 12.87 o
1851 3 -4 4 -1 9.00 6.13 5.36 <
1852 3 -4 4 -2 13.16 2.88 3.63 <
1853 3 -4 4 -3 2.32 3.70 6.31 <
1854 3 -4 4 -4 54.54 46.75 14.45 o
1855 3 -4 5 5 1.84 16.16 15.09 <
1856 3 -4 5 4 79.84 47.42 17.65 <
1857 3 -4 5 3 21.96 29.66 15.14 <
1858 3 -4 5 2 92.47 57.42 19.25 <
1859 3 -4 5 1 5.54 15.81 12.36 <
1860 3 -4 5 0 1.26 -13.92 8.68 <
1861 3 -4 5 -1 0.62 74.85 28.69 <
1862 3 -4 5 -2 94.26 46.05 15.22 o
1863 3 -4 5 -3 32.87 9.02 4.44 <
1864 3 -4 5 -4 77.63 54.14 15.68 o
1865 3 -4 5 -5 11.44 2.40 4.15 <
1866 3 5 -4 -4 14.03 4.65 2.13 <
1867 3 5 -4 -3 69.84 63.41 30.79 <
1868 3 5 -4 -2 241.48 161.15 31.92 o
1869 3 5 -4 -1 2.69 72.01 50.66 <
1870 3 5 -4 0 1.42 -31.58 17.35 <
1871 3 5 -4 1 3.42 22.33 14.03 <
1872 3 5 -4 2 172.40 148.48 29.41 o
1873 3 5 -4 3 59.67 26.45 12.39 <
1874 3 5 -4 4 8.12 6.15 4.42 <
1875 3 5 -3 -6 173.54 90.26 24.83 o
1875 2 0 -3 12 173.54 90.26 24.83 o
1876 3 5 -3 -5 12.72 14.49 5.84 <
1877 3 5 -3 -4 122.05 99.38 28.07 o
1878 3 5 -3 -3 44.21 20.90 11.04 <
1879 3 5 -3 -2 26.17 -4.76 10.69 <
1880 3 5 -3 -1 29.47 8.26 8.56 <
1881 3 5 -3 0 238.24 118.48 25.95 o
1882 3 5 -3 1 26.26 20.44 8.19 <
1883 3 5 -3 2 21.21 -14.80 11.07 <
1884 3 5 -3 3 54.19 28.84 10.59 <
1885 3 5 -3 4 136.70 80.71 17.89 o
1886 3 5 -2 -8 49.11 95.18 26.84 o
1887 3 5 -2 -7 14.97 17.19 13.84 <
1888 3 5 -2 -6 23.11 36.74 18.63 <
1888 2 0 -2 12 23.11 36.74 18.63 <
1889 3 5 -2 -5 9.92 27.58 14.57 <
1890 3 5 -2 -4 13.11 4.47 7.85 <
1891 3 5 -2 -3 28.00 7.77 8.82 <
1892 3 5 -2 -2 123.68 92.55 22.40 o
1893 3 5 -2 -1 30.55 -0.25 5.47 <
1894 3 5 -2 0 9.70 1.80 3.60 <
1895 3 5 -2 1 12.11 4.78 4.60 <
1896 3 5 -1 -8 6.34 10.78 7.50 <
1897 3 5 -1 -7 2.78 13.38 11.54 <
1898 3 5 -1 -6 152.58 63.18 21.04 o
1898 2 0 -1 12 152.58 63.18 21.04 o
1899 3 5 -1 -5 33.01 25.17 13.63 <
1900 3 5 -1 -4 97.22 60.29 16.65 o
1901 3 5 -1 -3 0.29 6.60 9.95 <
1902 3 5 -1 -2 58.39 33.43 11.09 o
1903 3 -5 0 9 0.69 21.36 12.44 <
1904 3 5 0 -9 0.69 21.61 14.08 <
1905 3 -5 0 8 21.96 58.12 17.40 o
1906 3 5 0 -8 21.96 51.28 17.28 <
1907 3 5 0 -7 9.14 -4.81 7.58 <
1908 3 -5 0 7 9.14 -1.75 4.15 <
1909 3 -5 0 6 37.42 -1.87 2.26 <
1909 2 0 0 -12 37.42 -1.87 2.26 <
1910 3 5 0 -6 37.42 3.83 2.88 <
1910 2 0 0 12 37.42 3.83 2.88 <
1911 3 5 0 -5 0.30 -1.60 5.58 <
1912 3 -5 1 8 6.62 -3.18 5.35 <
1913 3 5 1 -8 6.62 28.99 15.69 <
1914 3 -5 1 7 2.72 6.83 7.23 <
1915 3 5 1 -7 2.72 2.66 6.33 <
1916 3 -5 1 6 152.56 75.60 19.86 o
1916 2 0 1 -12 152.56 75.60 19.86 o
1917 3 -5 1 5 31.40 22.47 7.72 <
1918 3 -5 1 4 96.82 109.64 20.61 o
1919 3 -5 1 3 0.37 12.13 10.00 <
1920 3 -5 2 8 48.84 56.99 17.71 o
1921 3 -5 2 7 14.40 19.39 12.42 <
1922 3 -5 2 6 23.30 24.02 9.51 <
1922 2 0 2 -12 23.30 24.02 9.51 <
1923 3 -5 2 5 9.78 12.96 9.95 <
1924 3 -5 2 4 14.75 10.15 5.83 <
1925 3 -5 2 3 28.78 13.31 3.28 o
1926 3 -5 2 2 125.69 154.04 24.58 o
1927 3 -5 2 1 30.80 0.38 7.73 <
1928 3 -5 2 0 9.68 0.04 5.75 <
1929 3 -5 3 6 175.74 96.47 24.38 o
1929 2 0 3 -12 175.74 96.47 24.38 o
1930 3 -5 3 5 11.84 5.79 4.35 <
1931 3 -5 3 4 119.31 93.06 20.53 o
1932 3 -5 3 3 43.90 26.28 9.81 <
1933 3 -5 3 2 25.86 3.65 1.78 <
1934 3 -5 3 1 30.63 18.14 11.45 <
1935 3 -5 3 0 238.26 213.04 29.83 o
1936 3 -5 3 -1 25.71 44.03 17.94 <
1937 3 -5 3 -2 21.96 10.24 6.88 <
1938 3 -5 4 4 13.86 15.75 6.40 <
1939 3 -5 4 3 70.30 21.60 10.84 <
1940 3 -5 4 2 239.72 181.37 30.16 o
1941 3 -5 4 1 3.06 -1.48 8.42 <
1942 3 -5 4 0 1.46 -5.21 10.92 <
1943 3 -5 4 -1 3.21 14.71 10.05 <
1944 3 -5 4 -2 173.53 230.66 31.58 o
1945 3 -5 4 -3 59.54 33.37 11.36 <
1946 3 6 -3 -1 55.13 32.11 16.77 <
1947 3 6 -3 0 3.18 -4.42 10.31 <
1948 3 6 -3 1 79.70 27.21 9.30 <
1949 3 6 -2 -4 5.57 44.95 20.06 <
1950 3 6 -2 -3 21.11 3.69 5.25 <
1951 3 6 -2 -2 21.29 13.65 12.32 <
1952 3 6 -2 -1 28.27 28.62 11.08 <
1953 3 6 -1 -5 15.71 -12.21 13.67 <
1954 3 6 -1 -4 29.57 -9.97 8.17 <
1955 3 -6 1 5 15.75 6.07 6.63 <
1956 3 -6 2 4 5.28 29.49 17.07 <
1957 3 -6 2 3 21.98 14.18 9.81 <
1958 3 -6 2 2 20.93 -2.30 6.06 <
1959 3 -6 3 1 56.87 73.26 22.80 o
1960 3 -6 3 0 3.20 12.13 5.80 <
