#------------------------------------------------------------------------------
#$Date: 2023-12-01 15:23:56 +0200 (Fri, 01 Dec 2023) $
#$Revision: 287932 $
#$URL: file:///home/coder/svn-repositories/cod/cif/7/23/18/7231800.cif $
#------------------------------------------------------------------------------
#
# This file is available in the Crystallography Open Database (COD),
# http://www.crystallography.net/
#
# All data on this site have been placed in the public domain by the
# contributors.
#
data_7231800
loop_
_publ_author_name
'Heine, Miriam'
'Fink, Lothar'
'Schmidt, Martin U.'
_publ_section_title
;
 3-Cyanopyridine as a bridging and terminal ligand in coordination
 polymers
;
_journal_issue                   46
_journal_name_full               CrystEngComm
_journal_page_first              7556
_journal_paper_doi               10.1039/C8CE01568F
_journal_volume                  20
_journal_year                    2018
_chemical_formula_iupac          'C12 H8 Br2 Co N4'
_chemical_formula_moiety         'C12 H8 Br2 Co N4'
_chemical_formula_structural     'C12 H8 Br2 Co N4'
_chemical_formula_sum            'C12 H8 Br2 Co N4'
_chemical_formula_weight         426.95
_chemical_name_common            Dibromo-bis(3-cyanopyridine)cobaltat
_chemical_name_systematic
; 
alpha-Catena-dibromo-di(3-cyanopyridine)cobaltat
;
_space_group_IT_number           58
_space_group_name_Hall           '-P 2 2n'
_space_group_name_H-M_alt        'P n n m'
_symmetry_cell_setting           orthorhombic
_symmetry_space_group_name_Hall  '-P 2 2n'
_symmetry_space_group_name_H-M   'P n n m'
_cell_angle_alpha                90
_cell_angle_beta                 90
_cell_angle_gamma                90
_cell_formula_units_Z            2
_cell_length_a                   27.0190(16)
_cell_length_b                   7.1242(9)
_cell_length_c                   3.7597(5)
_cell_measurement_temperature    298
_cell_volume                     723.70(14)
_computing_cell_refinement       'DASH (David <i> et al.</i> , 2004)'
_computing_data_collection       'STOE WINXPOW (STOE & Cie GmbH, 2004)'
_computing_data_reduction        'DASH (David <i>et al.</i>, 2004)'
_computing_molecular_graphics    'MERCURY (Macrea <i>et al.</i>)'
_computing_structure_refinement  'TOPAS (Coelho, 2007)'
_computing_structure_solution    'DASH (David <i>et al.</i>, 2004)'
_diffrn_ambient_temperature      298
_diffrn_detector_type            'lin psd'
_diffrn_measurement_device_type  'STOE Stadi-P'
_diffrn_radiation_monochromator  'primary focussing, Ge 111'
_diffrn_radiation_source         'X-ray tube'
_diffrn_radiation_type           'Cu K\a~1~'
_diffrn_radiation_wavelength     1.540598
_exptl_crystal_colour            colorless
_exptl_crystal_density_diffrn    1.941
_pd_instr_location               ' ?'
_pd_meas_2theta_range_max        85
_pd_meas_2theta_range_min        3
_pd_meas_number_of_points        4960
_pd_meas_scan_method             step
_pd_proc_2theta_range_max        85
_pd_proc_2theta_range_min        3
_pd_proc_info_excluded_regions   none
_pd_proc_ls_background_function  'Chebychev polynomial'
_pd_proc_ls_pref_orient_corr     'no correction'
_pd_proc_ls_profile_function
;
modified spherical harmonics(Coelho, 2007)
;
_pd_proc_ls_prof_R_factor        0.01388
_pd_proc_ls_prof_wR_expected     0.01286
_pd_proc_ls_prof_wR_factor       0.01823
_pd_spec_mounting
;
Specimen was sealed in a 0.5 mm diameter borosilicate glass capillary. 
;
_pd_spec_mount_mode              transmission
_pd_spec_shape                   cylinder
_pd_spec_size_axial              12
_pd_spec_size_equat              0.7
_pd_spec_size_thick              0.7
_refine_ls_extinction_method     none
_refine_ls_goodness_of_fit_all   1.417
_refine_ls_hydrogen_treatment    mixed
_refine_ls_matrix_type           fullcycle
_refine_ls_number_constraints    1
_refine_ls_number_parameters     70
_refine_ls_number_restraints     34
_refine_ls_R_I_factor            0.00780
_refine_ls_weighting_details     w=1/\s(Y~obs~)^2^
_refine_ls_weighting_scheme      sigma
_cod_data_source_file            c8ce01568f2.cif
_cod_data_source_block           CoBr2(3-cypy)2-alpha
_cod_depositor_comments
'Adding full bibliography for 7231797--7231808.cif.'
_cod_original_sg_symbol_H-M      'P  n n m'
_cod_database_code               7231800
loop_
_symmetry_equiv_pos_as_xyz
'-x, -y, -z'
'-x, -y, z'
'-x+1/2, y+1/2, -z+1/2'
'-x+1/2, y+1/2, z+1/2'
'x, y, -z'
'x, y, z'
'x+1/2, -y+1/2, -z+1/2'
'x+1/2, -y+1/2, z+1/2'
loop_
_atom_site_label
_atom_site_type_symbol
_atom_site_symmetry_multiplicity
_atom_site_fract_x
_atom_site_fract_y
_atom_site_fract_z
_atom_site_occupancy
_atom_site_B_iso_or_equiv
_atom_site_U_iso_or_equiv
C1 C 0 0.665(7) 0.394(6) 0.5 1 3.30105 0.04181
C2 C 0 0.708(1) 0.519(5) 0.5 1 3.30105 0.04181
C3 C 0 0.618(6) 0.469(8) 0.5 1 3.30105 0.04181
C4 C 0 0.671(5) 0.201(5) 0.5 1 3.30105 0.04181
N5 N 0 0.741(4) 0.618(6) 0.5 1 3.30105 0.04181
N6 N 0 0.578(5) 0.362(4) 0.5 1 3.30105 0.04181
H7 H 0 0.614(3) 0.607(1) 0.5 1 3.96126 0.05017
C8 C 0 0.629(1) 0.091(9) 0.5 1 3.30105 0.04181
H9 H 0 0.705(4) 0.142(6) 0.5 1 3.96126 0.05017
Co10 Co 0 0.5 0.5 0.5 1 3.30105 0.04181
C11 C 0 0.582(3) 0.171(4) 0.5 1 3.30105 0.04181
H12 H 0 0.632(3) -0.045(4) 0.5 1 3.96126 0.05017
Br13 Br 0 0.530(1) 0.723(3) 1.0 1 3.30105 0.04181
H14 H 0 0.551(6) 0.095(6) 0.5 1 3.96126 0.05017
loop_
_atom_type_symbol
_atom_type_description
_atom_type_scat_source
C C 'International Tables Vol C Table 6.1.1.4'
H H 'International Tables Vol C Table 6.1.1.4'
Co Co 'International Tables Vol C Table 6.1.1.4'
Br Br 'International Tables Vol C Table 6.1.1.4'
N N 'International Tables Vol C Table 6.1.1.4'
loop_
_geom_angle_atom_site_label_1
_geom_angle_atom_site_label_2
_geom_angle_atom_site_label_3
_geom_angle
C2 C1 C3 119.3738(9)
C2 C1 C4 121.2710(3)
C3 C1 C4 119.3550(9)
C1 C2 N5 179.6226(6)
C1 C3 N6 121.9437(1)
C1 C3 H7 119.6116(6)
N6 C3 H7 118.4445(3)
C1 C4 C8 117.7380(9)
C1 C4 H9 121.1127(1)
C8 C4 H9 121.1492(1)
C3 N6 Co10 119.9657(9)
C3 N6 C11 120.8599(7)
Co10 N6 C11 119.1743(5)
C4 C8 C11 121.5547(8)
C4 C8 H12 119.1705(8)
C11 C8 H12 119.2747(4)
N6 Co10 Br13 88.4748(6)
N6 C11 C8 118.5484(8)
N6 C11 H14 118.6554(1)
C8 C11 H14 122.7961(2)
loop_
_geom_bond_atom_site_label_1
_geom_bond_atom_site_label_2
_geom_bond_distance
C1 C2 1.4521(1)
C1 C3 1.3808(6)
C1 C4 1.3850(6)
C2 N5 1.1416(9)
C3 N6 1.3259(4)
C3 H7 0.9854(8)
C4 C8 1.3870(9)
C4 H9 1.0074(9)
N6 Co10 2.3366(2)
N6 C11 1.3648(4)
C8 C11 1.3844(6)
C8 H12 0.9791(1)
Co10 Br13 2.5933(6)
C11 H14 0.9921(1)
