#------------------------------------------------------------------------------
#$Date: 2019-11-17 08:58:42 +0200 (Sun, 17 Nov 2019) $
#$Revision: 228982 $
#$URL: file:///home/coder/svn-repositories/cod/cif/7/23/12/7231260.cif $
#------------------------------------------------------------------------------
#
# This file is available in the Crystallography Open Database (COD),
# http://www.crystallography.net/
#
# All data on this site have been placed in the public domain by the
# contributors.
#
data_7231260
loop_
_publ_author_name
'Lestari, Monica'
'Lusi, Matteo'
'O'Leary, Aoife'
'O'Nolan, Daniel'
'Zaworotko, Michael J.'
_publ_section_title
;
 Hygroscopicity of lithium coordination polymers and their solid solutions
;
_journal_issue                   39
_journal_name_full               CrystEngComm
_journal_page_first              5940
_journal_paper_doi               10.1039/C8CE00905H
_journal_volume                  20
_journal_year                    2018
_chemical_absolute_configuration rm
_chemical_formula_sum            'C6.47 H7.93 Li0.5 N0.5 O2.47'
_chemical_formula_weight         135.63
_space_group_crystal_system      monoclinic
_space_group_IT_number           4
_space_group_name_Hall           'P 2yb'
_space_group_name_H-M_alt        'P 1 21 1'
_symmetry_space_group_name_Hall  'P 2yb'
_symmetry_space_group_name_H-M   'P 1 21 1'
_atom_sites_solution_hydrogens   geom
_audit_creation_method           SHELXL-2014/7
_audit_update_record
;
2018-05-28 deposited with the CCDC.
2018-07-27 downloaded from the CCDC.
;
_cell_angle_alpha                90
_cell_angle_beta                 99.500(4)
_cell_angle_gamma                90
_cell_formula_units_Z            4
_cell_length_a                   5.4205(7)
_cell_length_b                   10.3464(13)
_cell_length_c                   11.5006(15)
_cell_measurement_reflns_used    432
_cell_measurement_temperature    100(2)
_cell_measurement_theta_max      20
_cell_measurement_theta_min      2
_cell_volume                     636.14(14)
_computing_structure_refinement  'SHELXL-2014/7 (Sheldrick, 2014)'
_diffrn_ambient_temperature      100(2)
_diffrn_measured_fraction_theta_full 0.997
_diffrn_measured_fraction_theta_max 0.857
_diffrn_measurement_device_type  'Bruker D8 Quest'
_diffrn_radiation_type           MoK\a
_diffrn_radiation_wavelength     0.71073
_diffrn_reflns_av_R_equivalents  0.0480
_diffrn_reflns_av_unetI/netI     0.0464
_diffrn_reflns_Laue_measured_fraction_full 0.997
_diffrn_reflns_Laue_measured_fraction_max 0.857
_diffrn_reflns_number            1761
_diffrn_reflns_point_group_measured_fraction_full 0.529
_diffrn_reflns_point_group_measured_fraction_max 0.450
_diffrn_reflns_theta_full        25.242
_diffrn_reflns_theta_max         30.578
_diffrn_reflns_theta_min         3.592
_exptl_absorpt_coefficient_mu    0.107
_exptl_absorpt_correction_T_max  0.746082
_exptl_absorpt_correction_T_min  0.616614
_exptl_absorpt_correction_type   multi-scan
_exptl_absorpt_process_details   twinabs
_exptl_crystal_colour            colourless
_exptl_crystal_density_diffrn    1.416
_exptl_crystal_description       prism
_exptl_crystal_F_000             286
_exptl_crystal_size_max          0.5
_exptl_crystal_size_mid          0.3
_exptl_crystal_size_min          0.2
_refine_diff_density_max         0.255
_refine_diff_density_min         -0.244
_refine_diff_density_rms         0.055
_refine_ls_abs_structure_details
;
No quotients, so Flack parameter determined by classical intensity fit
;
_refine_ls_abs_structure_Flack   -0.7(11)
_refine_ls_extinction_coef       0.041(6)
_refine_ls_extinction_expression Fc^*^=kFc[1+0.001xFc^2^\l^3^/sin(2\q)]^-1/4^
_refine_ls_extinction_method     'SHELXL-2014/7 (Sheldrick 2014'
_refine_ls_goodness_of_fit_ref   1.073
_refine_ls_hydrogen_treatment    constr
_refine_ls_matrix_type           full
_refine_ls_number_parameters     184
_refine_ls_number_reflns         1761
_refine_ls_number_restraints     1
_refine_ls_restrained_S_all      1.073
_refine_ls_R_factor_all          0.0503
_refine_ls_R_factor_gt           0.0400
_refine_ls_shift/su_max          0.000
_refine_ls_shift/su_mean         0.000
_refine_ls_structure_factor_coef Fsqd
_refine_ls_weighting_details
'w=1/[\s^2^(Fo^2^)+(0.0316P)^2^+0.1668P] where P=(Fo^2^+2Fc^2^)/3'
_refine_ls_weighting_scheme      calc
_refine_ls_wR_factor_gt          0.0767
_refine_ls_wR_factor_ref         0.0787
_reflns_Friedel_coverage         0.000
_reflns_Friedel_fraction_full    0.000
_reflns_Friedel_fraction_max     0.000
_reflns_number_gt                1547
_reflns_number_total             1761
_reflns_threshold_expression     'I > 2\s(I)'
_cod_data_source_file            c8ce00905h2.cif
_cod_data_source_block           1_007
_cod_depositor_comments
'Adding full bibliography for 7231259--7231264.cif.'
_cod_original_formula_sum        'C6.47 H7.93 Li0.50 N0.50 O2.47'
_cod_database_code               7231260
_shelx_shelxl_version_number     2014/7
_shelx_space_group_comment
;
The symmetry employed for this shelxl refinement is uniquely defined
by the following loop, which should always be used as a source of
symmetry information in preference to the above space-group names.
They are only intended as comments.
;
_shelx_res_file
;

    C:\Frames\AL103b\work\DOMAIN~1\AL103b_0m_4.res created by SHELXL-2014/7

REM  AL103b_0m_4_a.res in P2(1)
REM R1 =  0.0400 for    1547 Fo > 4sig(Fo)  and  0.0503 for all    1761 data
REM    184 parameters refined using      1 restraints
REM Highest difference peak  0.255,  deepest hole -0.244,  1-sigma level  0.055
REM  AL103b_0m_4_a.res in P2(1)
REM R1 =  0.0400 for    1547 Fo > 4sig(Fo)  and  0.0503 for all    1761 data
REM    184 parameters refined using      1 restraints
REM Highest difference peak  0.255,  deepest hole -0.244,  1-sigma level  0.055
TITL AL103b_0m_4_a.res in P2(1)
CELL 0.71073 5.4205 10.3464 11.5006 90.000 99.500 90.000
ZERR 4.0000 0.0007 0.0013 0.0015 0.000 0.004 0.000
LATT -1
SYMM -X, 0.5+Y, -Z
SFAC C H LI N O
UNIT 25.87 31.73 2 2 9.87
MERG 2
FMAP 2
GRID
PLAN 5
TEMP -173
BOND $H
L.S. 20
ACTA
WGHT    0.031600    0.166800
EXTI    0.040660
FVAR       1.61730   0.93289
PART 1
LI1   3    0.027177    0.663222    0.644452    11.00000    0.01200    0.01657 =
         0.01584   -0.00216    0.00353   -0.00123
O2    5   -0.036335    0.521853    0.531353    11.00000    0.01135    0.01325 =
         0.01671   -0.00221    0.00344    0.00105
C3    1    0.091737    0.442297    0.485235    11.00000    0.00939    0.01266 =
         0.00972    0.00210    0.00200    0.00145
O4    5    0.015376    0.334247    0.444384    11.00000    0.01388    0.01119 =
         0.01702   -0.00288    0.00460   -0.00307
C5    1    0.363849    0.482511    0.479343    11.00000    0.01176    0.01091 =
         0.00948   -0.00306    0.00307    0.00039
AFIX  13
H5    2    0.466512    0.477388    0.559868    11.00000   -1.20000
AFIX   0
N6    4    0.477073    0.396561    0.395939    11.00000    0.00789    0.00935 =
         0.01267   -0.00054    0.00272   -0.00047
AFIX  23
H6A   2    0.378060    0.326245    0.376374    11.00000   -1.20000
H6B   2    0.630674    0.368713    0.431015    11.00000   -1.20000
AFIX   0
C7    1    0.499562    0.473993    0.286540    11.00000    0.01683    0.01447 =
         0.01192    0.00052    0.00370    0.00052
AFIX  23
H7A   2    0.435152    0.424355    0.214303    11.00000   -1.20000
H7B   2    0.675780    0.498135    0.285143    11.00000   -1.20000
AFIX   0
C8    1    0.340738    0.592967    0.296329    11.00000    0.01524    0.01434 =
         0.01607    0.00246    0.00394    0.00272
AFIX  23
H8A   2    0.162122    0.575865    0.265724    11.00000   -1.20000
H8B   2    0.397815    0.666990    0.253109    11.00000   -1.20000
AFIX   0
C9    1    0.383175    0.618151    0.429475    11.00000    0.01379    0.01034 =
         0.01504   -0.00193    0.00325   -0.00133
AFIX  23
H9A   2    0.550104    0.656376    0.456817    11.00000   -1.20000
H9B   2    0.253077    0.676047    0.451600    11.00000   -1.20000
AFIX   0
O10   5    0.353661    0.670652    0.725904    11.00000    0.01156    0.01714 =
         0.01903    0.00130   -0.00036    0.00090
C11   1    0.572906    0.636477    0.762357    11.00000    0.01430    0.00978 =
         0.00837   -0.00313    0.00237   -0.00013
O12   5    0.761105    0.687820    0.729005    11.00000    0.01580    0.01501 =
         0.02140    0.00536    0.00930    0.00212
C13   1    0.623553    0.531319    0.854483    11.00000    0.01330    0.01166 =
         0.01001   -0.00097    0.00367    0.00243
C14   1    0.838043    0.539622    0.939372    11.00000    0.01727    0.01753 =
         0.01665   -0.00095    0.00110    0.00007
AFIX  43
H14   2    0.952327    0.608640    0.936185    11.00000   -1.20000
AFIX   0
C15   1    0.887119    0.448118    1.028806    11.00000    0.02261    0.02856 =
         0.01366    0.00072   -0.00316    0.00728
AFIX  43
H15   2    1.033427    0.455105    1.086645    11.00000   -1.20000
AFIX   0
C16   1    0.723031    0.347429    1.033232    11.00000    0.03349    0.02257 =
         0.01382    0.00616    0.01106    0.01199
AFIX  43
H16   2    0.755378    0.285718    1.095037    11.00000   -1.20000
AFIX   0
C17   1    0.510851    0.335297    0.948220    11.00000    0.02646    0.01558 =
         0.02159    0.00338    0.01172   -0.00033
AFIX  43
H17   2    0.400137    0.264583    0.950900    11.00000   -1.20000
AFIX   0
C18   1    0.460549    0.427258    0.858778    11.00000    0.01667    0.01512 =
         0.01653    0.00072    0.00535   -0.00101
AFIX  43
H18   2    0.315088    0.419198    0.800573   -21.00000   -1.20000
PART 2
AFIX   0
O19   5    0.262328    0.418230    0.767465    21.00000    0.02179    0.02153 =
         0.01989    0.00393   -0.00108   -0.01312
C20   1    0.094549    0.312344    0.766437    21.00000    0.02186    0.01787 =
         0.02628   -0.00298    0.00755   -0.00950
AFIX 137
H20A  2    0.185081    0.231237    0.760601    21.00000   -1.50000
H20B  2   -0.040194    0.320306    0.698626    21.00000   -1.50000
H20C  2    0.023183    0.312548    0.839375    21.00000   -1.50000
AFIX   0
HKLF 4

REM  AL103b_0m_4_a.res in P2(1)
REM R1 =  0.0400 for    1547 Fo > 4sig(Fo)  and  0.0503 for all    1761 data
REM    184 parameters refined using      1 restraints

END

WGHT      0.0316      0.1668

REM Highest difference peak  0.255,  deepest hole -0.244,  1-sigma level  0.055
Q1    1   0.8438  0.4800  0.9757  11.00000  0.05    0.26
Q2    1   0.5850  0.5873  0.8205  11.00000  0.05    0.25
Q3    1   0.8153  0.5218  1.0040  11.00000  0.05    0.24
Q4    1  -0.1185  0.3574  0.3721  11.00000  0.05    0.23
Q5    1   0.2313  0.4412  0.4823  11.00000  0.05    0.23
;
_shelx_res_checksum              70497
loop_
_space_group_symop_operation_xyz
'x, y, z'
'-x, y+1/2, -z'
loop_
_atom_site_label
_atom_site_type_symbol
_atom_site_fract_x
_atom_site_fract_y
_atom_site_fract_z
_atom_site_U_iso_or_equiv
_atom_site_adp_type
_atom_site_occupancy
_atom_site_site_symmetry_order
_atom_site_calc_flag
_atom_site_refinement_flags_posn
_atom_site_refinement_flags_adp
_atom_site_refinement_flags_occupancy
_atom_site_disorder_assembly
_atom_site_disorder_group
Li1 Li 0.0272(6) 0.6632(4) 0.6445(3) 0.0147(8) Uani 1 1 d . . . A 1
O2 O -0.0363(3) 0.52185(15) 0.53135(13) 0.0136(3) Uani 1 1 d . . . A 1
C3 C 0.0917(4) 0.4423(2) 0.48524(17) 0.0105(4) Uani 1 1 d . . . A 1
O4 O 0.0154(3) 0.33425(15) 0.44438(13) 0.0138(3) Uani 1 1 d . . . A 1
C5 C 0.3638(4) 0.4825(2) 0.47934(17) 0.0106(4) Uani 1 1 d . . . A 1
H5 H 0.4665 0.4774 0.5599 0.013 Uiso 1 1 calc R U . A 1
N6 N 0.4771(3) 0.39656(17) 0.39594(15) 0.0099(4) Uani 1 1 d . . . A 1
H6A H 0.3781 0.3262 0.3764 0.012 Uiso 1 1 calc R U . A 1
H6B H 0.6307 0.3687 0.4310 0.012 Uiso 1 1 calc R U . A 1
C7 C 0.4996(4) 0.4740(2) 0.28654(18) 0.0143(4) Uani 1 1 d . . . A 1
H7A H 0.4352 0.4244 0.2143 0.017 Uiso 1 1 calc R U . A 1
H7B H 0.6758 0.4981 0.2851 0.017 Uiso 1 1 calc R U . A 1
C8 C 0.3407(4) 0.5930(2) 0.29633(18) 0.0151(5) Uani 1 1 d . . . A 1
H8A H 0.1621 0.5759 0.2657 0.018 Uiso 1 1 calc R U . A 1
H8B H 0.3978 0.6670 0.2531 0.018 Uiso 1 1 calc R U . A 1
C9 C 0.3832(4) 0.6182(2) 0.42948(18) 0.0130(4) Uani 1 1 d . . . A 1
H9A H 0.5501 0.6564 0.4568 0.016 Uiso 1 1 calc R U . A 1
H9B H 0.2531 0.6760 0.4516 0.016 Uiso 1 1 calc R U . A 1
O10 O 0.3537(3) 0.67065(17) 0.72590(13) 0.0162(3) Uani 1 1 d . . . A 1
C11 C 0.5729(4) 0.6365(2) 0.76236(17) 0.0108(4) Uani 1 1 d . . . A 1
O12 O 0.7611(3) 0.68782(17) 0.72901(13) 0.0167(4) Uani 1 1 d . . . A 1
C13 C 0.6236(4) 0.5313(2) 0.85448(18) 0.0115(4) Uani 1 1 d . . . A 1
C14 C 0.8380(4) 0.5396(2) 0.9394(2) 0.0173(5) Uani 1 1 d . . . A 1
H14 H 0.9523 0.6086 0.9362 0.021 Uiso 1 1 calc R U . A 1
C15 C 0.8871(4) 0.4481(3) 1.02881(19) 0.0223(5) Uani 1 1 d . . . A 1
H15 H 1.0334 0.4551 1.0866 0.027 Uiso 1 1 calc R U . A 1
C16 C 0.7230(5) 0.3474(3) 1.0332(2) 0.0225(5) Uani 1 1 d . . . A 1
H16 H 0.7554 0.2857 1.0950 0.027 Uiso 1 1 calc R U . A 1
C17 C 0.5109(5) 0.3353(3) 0.9482(2) 0.0203(5) Uani 1 1 d . . . A 1
H17 H 0.4001 0.2646 0.9509 0.024 Uiso 1 1 calc R U . A 1
C18 C 0.4605(4) 0.4273(2) 0.85878(19) 0.0158(4) Uani 1 1 d . . . A 1
H18 H 0.3151 0.4192 0.8006 0.019 Uiso 0.067(5) 1 calc R U P B 1
O19 O 0.2623(3) 0.41823(18) 0.76747(15) 0.0216(5) Uani 0.933(5) 1 d . . P B 2
C20 C 0.0945(5) 0.3123(3) 0.7664(2) 0.0216(6) Uani 0.933(5) 1 d . . P B 2
H20A H 0.1851 0.2312 0.7606 0.032 Uiso 0.933(5) 1 calc R U P B 2
H20B H -0.0402 0.3203 0.6986 0.032 Uiso 0.933(5) 1 calc R U P B 2
H20C H 0.0232 0.3125 0.8394 0.032 Uiso 0.933(5) 1 calc R U P B 2
loop_
_atom_site_aniso_label
_atom_site_aniso_U_11
_atom_site_aniso_U_22
_atom_site_aniso_U_33
_atom_site_aniso_U_23
_atom_site_aniso_U_13
_atom_site_aniso_U_12
Li1 0.0120(16) 0.017(2) 0.0158(17) -0.0022(16) 0.0035(13) -0.0012(16)
O2 0.0113(7) 0.0132(8) 0.0167(8) -0.0022(7) 0.0034(6) 0.0011(6)
C3 0.0094(8) 0.0127(11) 0.0097(9) 0.0021(8) 0.0020(7) 0.0015(8)
O4 0.0139(8) 0.0112(8) 0.0170(7) -0.0029(6) 0.0046(6) -0.0031(6)
C5 0.0118(9) 0.0109(11) 0.0095(9) -0.0031(8) 0.0031(7) 0.0004(8)
N6 0.0079(7) 0.0094(9) 0.0127(8) -0.0005(7) 0.0027(6) -0.0005(7)
C7 0.0168(10) 0.0145(11) 0.0119(10) 0.0005(9) 0.0037(7) 0.0005(9)
C8 0.0152(10) 0.0143(12) 0.0161(10) 0.0025(9) 0.0039(8) 0.0027(9)
C9 0.0138(10) 0.0103(11) 0.0150(10) -0.0019(9) 0.0032(8) -0.0013(8)
O10 0.0116(7) 0.0171(8) 0.0190(8) 0.0013(7) -0.0004(6) 0.0009(7)
C11 0.0143(10) 0.0098(11) 0.0084(9) -0.0031(8) 0.0024(7) -0.0001(8)
O12 0.0158(7) 0.0150(8) 0.0214(8) 0.0054(7) 0.0093(6) 0.0021(7)
C13 0.0133(10) 0.0117(11) 0.0100(9) -0.0010(9) 0.0037(7) 0.0024(9)
C14 0.0173(11) 0.0175(12) 0.0167(11) -0.0010(9) 0.0011(8) 0.0001(10)
C15 0.0226(11) 0.0286(14) 0.0137(10) 0.0007(10) -0.0032(8) 0.0073(11)
C16 0.0335(13) 0.0226(14) 0.0138(10) 0.0062(10) 0.0111(9) 0.0120(11)
C17 0.0265(13) 0.0156(12) 0.0216(11) 0.0034(10) 0.0117(9) -0.0003(10)
C18 0.0167(10) 0.0151(11) 0.0165(10) 0.0007(9) 0.0053(8) -0.0010(9)
O19 0.0218(9) 0.0215(11) 0.0199(9) 0.0039(8) -0.0011(7) -0.0131(8)
C20 0.0219(13) 0.0179(14) 0.0263(14) -0.0030(11) 0.0076(10) -0.0095(11)
loop_
_atom_type_symbol
_atom_type_description
_atom_type_scat_dispersion_real
_atom_type_scat_dispersion_imag
_atom_type_scat_source
C C 0.0033 0.0016 'International Tables Vol C Tables 4.2.6.8 and 6.1.1.4'
H H 0.0000 0.0000 'International Tables Vol C Tables 4.2.6.8 and 6.1.1.4'
Li Li -0.0003 0.0001 'International Tables Vol C Tables 4.2.6.8 and 6.1.1.4'
N N 0.0061 0.0033 'International Tables Vol C Tables 4.2.6.8 and 6.1.1.4'
O O 0.0106 0.0060 'International Tables Vol C Tables 4.2.6.8 and 6.1.1.4'
loop_
_geom_angle_atom_site_label_1
_geom_angle_atom_site_label_2
_geom_angle_atom_site_label_3
_geom_angle
_geom_angle_site_symmetry_1
_geom_angle_site_symmetry_3
O10 Li1 O12 118.6(2) . 1_455
O10 Li1 O2 114.5(2) . .
O12 Li1 O2 112.30(19) 1_455 .
O10 Li1 O4 103.65(18) . 2_556
O12 Li1 O4 96.23(18) 1_455 2_556
O2 Li1 O4 108.91(18) . 2_556
C3 O2 Li1 136.70(18) . .
O2 C3 O4 124.96(19) . .
O2 C3 C5 116.26(19) . .
O4 C3 C5 118.78(18) . .
C3 O4 Li1 164.52(17) . 2_546
N6 C5 C9 104.03(15) . .
N6 C5 C3 111.11(16) . .
C9 C5 C3 112.92(17) . .
N6 C5 H5 109.5 . .
C9 C5 H5 109.5 . .
C3 C5 H5 109.5 . .
C5 N6 C7 108.25(15) . .
C5 N6 H6A 110.0 . .
C7 N6 H6A 110.0 . .
C5 N6 H6B 110.0 . .
C7 N6 H6B 110.0 . .
H6A N6 H6B 108.4 . .
N6 C7 C8 104.08(16) . .
N6 C7 H7A 110.9 . .
C8 C7 H7A 110.9 . .
N6 C7 H7B 110.9 . .
C8 C7 H7B 110.9 . .
H7A C7 H7B 109.0 . .
C7 C8 C9 102.63(17) . .
C7 C8 H8A 111.2 . .
C9 C8 H8A 111.2 . .
C7 C8 H8B 111.2 . .
C9 C8 H8B 111.2 . .
H8A C8 H8B 109.2 . .
C5 C9 C8 102.17(18) . .
C5 C9 H9A 111.3 . .
C8 C9 H9A 111.3 . .
C5 C9 H9B 111.3 . .
C8 C9 H9B 111.3 . .
H9A C9 H9B 109.2 . .
C11 O10 Li1 158.9(2) . .
O10 C11 O12 123.5(2) . .
O10 C11 C13 119.57(18) . .
O12 C11 C13 116.91(18) . .
C11 O12 Li1 145.5(2) . 1_655
C14 C13 C18 118.8(2) . .
C14 C13 C11 118.8(2) . .
C18 C13 C11 122.41(18) . .
C15 C14 C13 120.8(2) . .
C15 C14 H14 119.6 . .
C13 C14 H14 119.6 . .
C16 C15 C14 119.8(2) . .
C16 C15 H15 120.1 . .
C14 C15 H15 120.1 . .
C15 C16 C17 120.6(2) . .
C15 C16 H16 119.7 . .
C17 C16 H16 119.7 . .
C16 C17 C18 119.8(2) . .
C16 C17 H17 120.1 . .
C18 C17 H17 120.1 . .
C17 C18 C13 120.2(2) . .
C17 C18 H18 119.9 . .
C13 C18 H18 119.9 . .
O19 C20 H20A 109.5 . .
O19 C20 H20B 109.5 . .
H20A C20 H20B 109.5 . .
O19 C20 H20C 109.5 . .
H20A C20 H20C 109.5 . .
H20B C20 H20C 109.5 . .
loop_
_geom_bond_atom_site_label_1
_geom_bond_atom_site_label_2
_geom_bond_distance
_geom_bond_site_symmetry_2
Li1 O10 1.862(4) .
Li1 O12 1.885(4) 1_455
Li1 O2 1.950(4) .
Li1 O4 2.037(4) 2_556
O2 C3 1.250(3) .
C3 O4 1.256(3) .
C3 C5 1.545(3) .
O4 Li1 2.037(4) 2_546
C5 N6 1.511(2) .
C5 C9 1.526(3) .
C5 H5 1.0000 .
N6 C7 1.513(3) .
N6 H6A 0.9100 .
N6 H6B 0.9100 .
C7 C8 1.517(3) .
C7 H7A 0.9900 .
C7 H7B 0.9900 .
C8 C9 1.533(3) .
C8 H8A 0.9900 .
C8 H8B 0.9900 .
C9 H9A 0.9900 .
C9 H9B 0.9900 .
O10 C11 1.244(3) .
C11 O12 1.265(3) .
C11 C13 1.512(3) .
O12 Li1 1.885(4) 1_655
C13 C14 1.392(3) .
C13 C18 1.399(3) .
C14 C15 1.391(3) .
C14 H14 0.9500 .
C15 C16 1.376(4) .
C15 H15 0.9500 .
C16 C17 1.387(4) .
C16 H16 0.9500 .
C17 C18 1.395(3) .
C17 H17 0.9500 .
C18 H18 0.9500 .
O19 C20 1.423(3) .
C20 H20A 0.9800 .
C20 H20B 0.9800 .
C20 H20C 0.9800 .
