#------------------------------------------------------------------------------
#$Date: 2019-11-17 15:32:48 +0200 (Sun, 17 Nov 2019) $
#$Revision: 230903 $
#$URL: file:///home/coder/svn-repositories/cod/cif/7/23/14/7231474.cif $
#------------------------------------------------------------------------------
#
# This file is available in the Crystallography Open Database (COD),
# http://www.crystallography.net/
#
# All data on this site have been placed in the public domain by the
# contributors.
#
data_7231474
loop_
_publ_author_name
'Escudero-Ad\'an, Eduardo C'
'Bauz\'a, Antonio'
'Lecomte, Claude'
'Frontera, Antonio'
'Ballester, Pablo'
_publ_section_title
;
 Boron triel bonding: a weak electrostatic interaction lacking
 electron-density descriptors.
;
_journal_issue                   37
_journal_name_full               'Physical chemistry chemical physics : PCCP'
_journal_page_first              24192
_journal_page_last               24200
_journal_paper_doi               10.1039/c8cp04401e
_journal_volume                  20
_journal_year                    2018
_chemical_absolute_configuration ad
_chemical_formula_sum            'C5 H7 B Cl N O2'
_chemical_formula_weight         159.38
_space_group_IT_number           7
_space_group_name_Hall           'P -2yc'
_space_group_name_H-M_alt        'P 1 c 1'
_symmetry_cell_setting           monoclinic
_symmetry_space_group_name_Hall  'P -2yc'
_symmetry_space_group_name_H-M   'P 1 c 1'
_atom_sites_solution_hydrogens   difmap
_audit_creation_method           SHELXL-2018/3
_audit_update_record
;
2018-06-05 deposited with the CCDC.
2018-08-30 downloaded from the CCDC.
;
_cell_angle_alpha                90
_cell_angle_beta                 105.5034(8)
_cell_angle_gamma                90
_cell_formula_units_Z            2
_cell_length_a                   6.20620(5)
_cell_length_b                   5.25334(4)
_cell_length_c                   11.18373(9)
_cell_measurement_reflns_used    25830
_cell_measurement_temperature    90(2)
_cell_measurement_theta_max      65.0110
_cell_measurement_theta_min      3.3830
_cell_volume                     351.359(5)
_computing_cell_refinement
'CrystalClear-SM Expert 2.1 b29 (Rigaku, 2013)'
_computing_data_collection
'CrystalClear-SM Expert 2.1 b29 (Rigaku, 2013)'
_computing_data_reduction
'CrystalClear-SM Expert 2.1 b29 (Rigaku, 2013)'
_computing_molecular_graphics    'SHELXL-2018/3 (Sheldrick, 2018)'
_computing_publication_material  'SHELXL-2018/3 (Sheldrick, 2018)'
_computing_structure_refinement  'SHELXL-2018/3 (Sheldrick, 2018)'
_computing_structure_solution    Sir2014
_diffrn_ambient_temperature      90(2)
_diffrn_detector_area_resol_mean 5.8140
_diffrn_detector_type            'PILATUS 200K'
_diffrn_measured_fraction_theta_full 1.000
_diffrn_measured_fraction_theta_max 0.949
_diffrn_measurement_device_type  '1/4chi goniometer'
_diffrn_measurement_method
;
 Fullsphere data collection, phi and omega scans
;
_diffrn_radiation_monochromator  'Confocal Max Flux optic'
_diffrn_radiation_type           MoK\a
_diffrn_radiation_wavelength     0.7107
_diffrn_reflns_av_R_equivalents  0.0121
_diffrn_reflns_av_unetI/netI     0.0090
_diffrn_reflns_Laue_measured_fraction_full 1.000
_diffrn_reflns_Laue_measured_fraction_max 0.949
_diffrn_reflns_limit_h_max       10
_diffrn_reflns_limit_h_min       -14
_diffrn_reflns_limit_k_max       12
_diffrn_reflns_limit_k_min       -12
_diffrn_reflns_limit_l_max       26
_diffrn_reflns_limit_l_min       -26
_diffrn_reflns_number            31805
_diffrn_reflns_point_group_measured_fraction_full 0.980
_diffrn_reflns_point_group_measured_fraction_max 0.736
_diffrn_reflns_theta_full        25.242
_diffrn_reflns_theta_max         58.524
_diffrn_reflns_theta_min         3.407
_diffrn_source                   'Microfocus rotating anode X-ray tube'
_diffrn_source_current           24
_diffrn_source_power             50
_diffrn_source_size              '0.2 mm x 0.2 mm fine focus'
_diffrn_source_type              'Rigaku MicroMax-007HF'
_exptl_absorpt_coefficient_mu    0.467
_exptl_absorpt_correction_T_max  0.892
_exptl_absorpt_correction_T_min  0.686
_exptl_absorpt_correction_type   multi-scan
_exptl_absorpt_process_details   'SADABS 2014/5'
_exptl_crystal_colour            block
_exptl_crystal_density_diffrn    1.506
_exptl_crystal_description       colourless
_exptl_crystal_F_000             164
_exptl_crystal_size_max          0.3
_exptl_crystal_size_mid          0.3
_exptl_crystal_size_min          0.25
_refine_diff_density_max         0.391
_refine_diff_density_min         -0.209
_refine_diff_density_rms         0.051
_refine_ls_abs_structure_details
;
 Flack x determined using 2637 quotients [(I+)-(I-)]/[(I+)+(I-)]
 (Parsons, Flack and Wagner, Acta Cryst. B69 (2013) 249-259).
;
_refine_ls_abs_structure_Flack   0.010(6)
_refine_ls_extinction_method     none
_refine_ls_goodness_of_fit_ref   0.450
_refine_ls_hydrogen_treatment    refall
_refine_ls_matrix_type           full
_refine_ls_number_parameters     119
_refine_ls_number_reflns         7501
_refine_ls_number_restraints     2
_refine_ls_restrained_S_all      0.450
_refine_ls_R_factor_all          0.0136
_refine_ls_R_factor_gt           0.0135
_refine_ls_shift/su_max          0.001
_refine_ls_shift/su_mean         0.000
_refine_ls_structure_factor_coef Fsqd
_refine_ls_weighting_details
'w=1/[\s^2^(Fo^2^)+(0.1000P)^2^] where P=(Fo^2^+2Fc^2^)/3'
_refine_ls_weighting_scheme      calc
_refine_ls_wR_factor_gt          0.0457
_refine_ls_wR_factor_ref         0.0459
_reflns_Friedel_coverage         0.549
_reflns_Friedel_fraction_full    0.961
_reflns_Friedel_fraction_max     0.523
_reflns_number_gt                7484
_reflns_number_total             7501
_reflns_threshold_expression     'I > 2\s(I)'
_cod_data_source_file            c8cp04401e2.cif
_cod_data_source_block           BOH2N_Cl_2
_cod_depositor_comments
;
The following automatic conversions were performed:

'_symmetry_cell_setting' value 'Monoclinic' changed to 'monoclinic'
according to
/home/data/users/saulius/crontab/automatic-downloads/rss-feeds/RSC/lib/dictionaries/cif_core.dic
dictionary named 'cif_core.dic' version 2.4.2 from 2011-04-26.

'_exptl_absorpt_correction_type' value 'Multi-scan' changed to
'multi-scan' according to
/home/data/users/saulius/crontab/automatic-downloads/rss-feeds/RSC/lib/dictionaries/cif_core.dic
dictionary named 'cif_core.dic' version 2.4.2 from 2011-04-26.

Automatic conversion script
Id: cif_fix_values 4973 2017-02-22 13:04:09Z antanas 

 Adding full bibliography for 7231471--7231476.cif.
;
_cod_original_sg_symbol_H-M      Pc
_cod_database_code               7231474
_shelx_shelxl_version_number     2018/3
_shelx_space_group_comment
;
The symmetry employed for this shelxl refinement is uniquely defined
by the following loop, which should always be used as a source of
symmetry information in preference to the above space-group names.
They are only intended as comments.
;
_shelx_estimated_absorpt_t_min   0.873
_shelx_estimated_absorpt_t_max   0.892
_shelx_res_file
;
TITL BOH2N_Cl_2 in Pc
    BOH2N_Cl_2.res
    created by SHELXL-2018/3 at 13:03:28 on 25-May-2018
REM Pc (#7 in standard setting)
CELL 0.71073   6.206203   5.253341  11.183731  90.0000 105.5034  90.0000
ZERR    2.00   0.000046   0.000037   0.000091   0.0000   0.0008   0.0000
LATT -1
SYMM  x,-y, z+1/2
SFAC C H N O CL B
DISP $C  0.00341  0.00169 11.32113!source kissel
DISP $H -0.00002  0.00000  0.66638!source kissel
DISP $N  0.00664  0.00342 19.38436!source kissel
DISP $O  0.01140  0.00623 32.03669!source kissel
DISP $Cl  0.15068  0.16112 668.70837!source kissel
DISP $B  0.00141  0.00072  6.50254!source kissel
UNIT 10 14 2 4 2 2
L.S. 10
BOND $H
LIST 4
acta
conf
FMAP 2
PLAN 20
shel 99 0.41661
size 0.3 0.3 0.25
REM AFIX 1
WGHT    0.100000
FVAR       1.31691
CL1   5    0.049865   -0.325351    0.305796    11.00000    0.01196    0.01043 =
         0.01032   -0.00017    0.00310   -0.00052
O1    4    0.948587    0.806286    0.553987    11.00000    0.01530    0.01528 =
         0.01688   -0.00403    0.00919   -0.00643
O2    4    0.729546    0.878929    0.693463    11.00000    0.01380    0.01204 =
         0.01355   -0.00310    0.00614   -0.00275
H2O   2    0.829105    0.998624    0.725583    11.00000    0.03815
N1    3    0.318364    0.118511    0.456565    11.00000    0.01189    0.01136 =
         0.01173   -0.00114    0.00334   -0.00339
C1    1    0.610907    0.510589    0.547374    11.00000    0.00984    0.00999 =
         0.01016   -0.00067    0.00366   -0.00183
C2    1    0.438522    0.447913    0.601579    11.00000    0.01155    0.01255 =
         0.01157   -0.00208    0.00518   -0.00295
C3    1    0.293351    0.249775    0.554973    11.00000    0.01148    0.01343 =
         0.01297   -0.00130    0.00522   -0.00371
C4    1    0.479025    0.171445    0.400556    11.00000    0.01405    0.01241 =
         0.01173   -0.00258    0.00504   -0.00325
C5    1    0.628797    0.366649    0.444843    11.00000    0.01241    0.01251 =
         0.01191   -0.00215    0.00571   -0.00312
B1    6    0.776459    0.739965    0.601406    11.00000    0.01073    0.01042 =
         0.01143   -0.00106    0.00423   -0.00212
H1    2    0.233878   -0.006606    0.429458    11.00000    0.03488
H2    2    0.425325    0.543879    0.670004    11.00000    0.02903
H1O   2    0.972264    0.734122    0.481468    11.00000    0.04296
H3    2    0.186927    0.192343    0.581898    11.00000    0.01939
H4    2    0.488990    0.067901    0.338297    11.00000    0.02829
H5    2    0.742568    0.407426    0.408937    11.00000    0.02863
HKLF 4
REM  BOH2N_Cl_2 in Pc
REM wR2 = 0.0459, GooF = S = 0.450, Restrained GooF = 0.450 for all data
REM R1 = 0.0135 for 7484 Fo > 4sig(Fo) and 0.0136 for all 7501 data
REM 119 parameters refined using 2 restraints
END
WGHT      0.0321      0.0000
REM Highest difference peak  0.391,  deepest hole -0.209,  1-sigma level  0.051
Q1    1   0.5541  0.4934  0.5676  11.00000  0.05    0.39
Q2    1   0.4067  0.1440  0.4303  11.00000  0.05    0.38
Q3    1   0.3634  0.3505  0.5723  11.00000  0.05    0.33
Q4    1   0.5418  0.2412  0.4207  11.00000  0.05    0.33
Q5    1  -0.0026 -0.2857  0.3114  11.00000  0.05    0.32
Q6    1   0.1058 -0.2982  0.2920  11.00000  0.05    0.32
Q7    1   0.3074  0.1836  0.4939  11.00000  0.05    0.30
Q8    1   0.6805  0.8600  0.6985  11.00000  0.05    0.30
Q9    1   0.6251  0.4433  0.4923  11.00000  0.05    0.29
Q10   1   0.6697  0.5806  0.5658  11.00000  0.05    0.27
Q11   1   0.9949  0.8348  0.5671  11.00000  0.05    0.25
Q12   1   0.7776  0.8155  0.6358  11.00000  0.05    0.22
Q13   1   0.8783  0.7713  0.5751  11.00000  0.05    0.20
Q14   1   0.1672  0.2107  0.6100  11.00000  0.05    0.17
Q15   1   0.9597  0.7273  0.5072  11.00000  0.05    0.17
Q16   1   0.2400  0.2359  0.5696  11.00000  0.05    0.17
Q17   1   0.6898  0.3803  0.4270  11.00000  0.05    0.16
Q18   1   0.3959  0.5959  0.6818  11.00000  0.05    0.15
Q19   1   0.4354  0.5073  0.6345  11.00000  0.05    0.14
Q20   1   0.9590  0.8806  0.5323  11.00000  0.05    0.14
;
_shelx_res_checksum              56289
loop_
_space_group_symop_operation_xyz
'x, y, z'
'x, -y, z+1/2'
loop_
_atom_site_label
_atom_site_type_symbol
_atom_site_fract_x
_atom_site_fract_y
_atom_site_fract_z
_atom_site_U_iso_or_equiv
_atom_site_adp_type
_atom_site_occupancy
_atom_site_site_symmetry_order
_atom_site_calc_flag
Cl1 Cl 0.04986(2) -0.32535(2) 0.30580(2) 0.01088(1) Uani 1 1 d
O1 O 0.94859(4) 0.80629(4) 0.55399(3) 0.01488(3) Uani 1 1 d
O2 O 0.72955(3) 0.87893(3) 0.69346(2) 0.01265(2) Uani 1 1 d
H2O H 0.829(3) 0.999(3) 0.7256(16) 0.038(4) Uiso 1 1 d
N1 N 0.31836(3) 0.11851(3) 0.45657(2) 0.01163(2) Uani 1 1 d
C1 C 0.61091(3) 0.51059(4) 0.54737(2) 0.00981(2) Uani 1 1 d
C2 C 0.43852(4) 0.44791(4) 0.60158(2) 0.01149(2) Uani 1 1 d
C3 C 0.29335(4) 0.24978(4) 0.55497(2) 0.01225(2) Uani 1 1 d
C4 C 0.47902(5) 0.17144(4) 0.40056(3) 0.01242(3) Uani 1 1 d
C5 C 0.62880(4) 0.36665(5) 0.44484(2) 0.01180(2) Uani 1 1 d
B1 B 0.77646(4) 0.73996(5) 0.60141(2) 0.01062(3) Uani 1 1 d
H1 H 0.234(3) -0.007(3) 0.4295(15) 0.035(4) Uiso 1 1 d
H2 H 0.425(3) 0.544(3) 0.6700(16) 0.029(3) Uiso 1 1 d
H1O H 0.972(3) 0.734(4) 0.4815(17) 0.043(5) Uiso 1 1 d
H3 H 0.187(3) 0.192(2) 0.5819(15) 0.019(3) Uiso 1 1 d
H4 H 0.489(3) 0.068(3) 0.3383(15) 0.028(3) Uiso 1 1 d
H5 H 0.743(3) 0.407(3) 0.4089(14) 0.029(3) Uiso 1 1 d
loop_
_atom_site_aniso_label
_atom_site_aniso_U_11
_atom_site_aniso_U_22
_atom_site_aniso_U_33
_atom_site_aniso_U_23
_atom_site_aniso_U_13
_atom_site_aniso_U_12
Cl1 0.01196(2) 0.01043(2) 0.01032(2) -0.00017(1) 0.00310(1) -0.00052(1)
O1 0.01530(6) 0.01528(5) 0.01688(7) -0.00403(5) 0.00919(6) -0.00643(5)
O2 0.01380(5) 0.01204(4) 0.01355(5) -0.00310(4) 0.00614(4) -0.00275(3)
N1 0.01189(5) 0.01136(5) 0.01173(5) -0.00114(4) 0.00334(4) -0.00339(4)
C1 0.00984(5) 0.00999(4) 0.01016(5) -0.00067(4) 0.00366(4) -0.00183(3)
C2 0.01155(5) 0.01255(5) 0.01157(6) -0.00208(4) 0.00518(4) -0.00295(4)
C3 0.01148(5) 0.01343(5) 0.01297(6) -0.00130(5) 0.00522(5) -0.00371(4)
C4 0.01405(7) 0.01241(6) 0.01173(7) -0.00258(4) 0.00504(6) -0.00325(4)
C5 0.01241(6) 0.01251(5) 0.01191(6) -0.00215(5) 0.00571(5) -0.00312(5)
B1 0.01073(6) 0.01042(5) 0.01143(7) -0.00106(5) 0.00423(5) -0.00212(5)
loop_
_atom_type_symbol
_atom_type_description
_atom_type_scat_dispersion_real
_atom_type_scat_dispersion_imag
_atom_type_scat_source
C C 0.0034 0.0017 'International Tables Vol C Tables 4.2.6.8 and 6.1.1.4'
H H 0.0000 0.0000 'International Tables Vol C Tables 4.2.6.8 and 6.1.1.4'
N N 0.0066 0.0034 'International Tables Vol C Tables 4.2.6.8 and 6.1.1.4'
O O 0.0114 0.0062 'International Tables Vol C Tables 4.2.6.8 and 6.1.1.4'
Cl Cl 0.1507 0.1611 'International Tables Vol C Tables 4.2.6.8 and 6.1.1.4'
B B 0.0014 0.0007 'International Tables Vol C Tables 4.2.6.8 and 6.1.1.4'
loop_
_geom_angle_atom_site_label_1
_geom_angle_atom_site_label_2
_geom_angle_atom_site_label_3
_geom_angle
B1 O1 H1O 123.6(13)
B1 O2 H2O 114.9(12)
C4 N1 C3 122.674(18)
C4 N1 H1 117.5(12)
C3 N1 H1 119.8(12)
C5 C1 C2 117.583(18)
C5 C1 B1 122.252(18)
C2 C1 B1 120.162(18)
C3 C2 C1 120.58(2)
C3 C2 H2 121.4(10)
C1 C2 H2 118.0(10)
N1 C3 C2 119.258(19)
N1 C3 H3 112.3(10)
C2 C3 H3 128.5(10)
N1 C4 C5 119.92(2)
N1 C4 H4 116.8(10)
C5 C4 H4 123.2(10)
C4 C5 C1 119.99(2)
C4 C5 H5 122.2(10)
C1 C5 H5 117.8(10)
O2 B1 O1 120.60(2)
O2 B1 C1 116.580(19)
O1 B1 C1 122.69(2)
loop_
_geom_bond_atom_site_label_1
_geom_bond_atom_site_label_2
_geom_bond_distance
O1 B1 1.3589(3)
O1 H1O 0.942(19)
O2 B1 1.3557(3)
O2 H2O 0.887(18)
N1 C4 1.3408(4)
N1 C3 1.3425(3)
N1 H1 0.845(17)
C1 C5 1.4025(3)
C1 C2 1.4026(3)
C1 B1 1.5940(3)
C2 C3 1.3841(3)
C2 H2 0.938(16)
C3 H3 0.851(18)
C4 C5 1.3838(3)
C4 H4 0.899(15)
C5 H5 0.926(17)
loop_
_geom_torsion_atom_site_label_1
_geom_torsion_atom_site_label_2
_geom_torsion_atom_site_label_3
_geom_torsion_atom_site_label_4
_geom_torsion
C5 C1 C2 C3 0.35(4)
B1 C1 C2 C3 179.72(2)
C4 N1 C3 C2 -0.14(4)
C1 C2 C3 N1 -0.38(4)
C3 N1 C4 C5 0.68(4)
N1 C4 C5 C1 -0.69(4)
C2 C1 C5 C4 0.18(4)
B1 C1 C5 C4 -179.18(2)
C5 C1 B1 O2 174.19(2)
C2 C1 B1 O2 -5.15(3)
C5 C1 B1 O1 -1.82(4)
C2 C1 B1 O1 178.84(3)
