#------------------------------------------------------------------------------
#$Date: 2019-11-17 15:32:33 +0200 (Sun, 17 Nov 2019) $
#$Revision: 230902 $
#$URL: file:///home/coder/svn-repositories/cod/cif/7/23/14/7231405.cif $
#------------------------------------------------------------------------------
#
# This file is available in the Crystallography Open Database (COD),
# http://www.crystallography.net/
#
# All data on this site have been placed in the public domain by the
# contributors.
#
data_7231405
loop_
_publ_author_name
'Collings, Ines E.'
'Manna, Rudra Sekhar'
'Tsirlin, Alexander A.'
'Bykov, Maxim'
'Bykova, Elena'
'Hanfland, Michael'
'Gegenwart, Philipp'
'van Smaalen, Sander'
'Dubrovinsky, Leonid'
'Dubrovinskaia, Natalia'
_publ_section_title
;
 Pressure dependence of spin canting in ammonium metal formate
 antiferromagnets.
;
_journal_issue                   37
_journal_name_full               'Physical chemistry chemical physics : PCCP'
_journal_page_first              24465
_journal_page_last               24476
_journal_paper_doi               10.1039/c8cp03761b
_journal_volume                  20
_journal_year                    2018
_chemical_formula_moiety         'C6 H6 Mn2 O12, N2 H8'
_chemical_formula_sum            'C6 H14 Mn2 N2 O12'
_chemical_formula_weight         416
_space_group_IT_number           4
_space_group_name_Hall           'P 2yb'
_space_group_name_H-M_alt        'P 1 21 1'
_symmetry_cell_setting           monoclinic
_symmetry_Int_Tables_number      4
_symmetry_space_group_name_Hall  'P 2yb'
_symmetry_space_group_name_H-M   'P 1 21 1'
_audit_creation_method           'Jana2006 Version : 25/10/2015'
_audit_update_record
;
2018-08-09 deposited with the CCDC.
2018-08-22 downloaded from the CCDC.
;
_cell_angle_alpha                90
_cell_angle_beta                 89.99(4)
_cell_angle_gamma                90
_cell_formula_units_Z            2
_cell_length_a                   6.714(5)
_cell_length_b                   7.119(4)
_cell_length_c                   14.031(5)
_cell_measurement_reflns_used    132
_cell_measurement_temperature    293
_cell_measurement_theta_max      10.97
_cell_measurement_theta_min      1.95
_cell_volume                     670.6(7)
_computing_cell_refinement       'CrysAlisPro 1.171.38.46 (Rigaku OD, 2015)'
_computing_data_collection       'CrysAlisPro 1.171.38.46 (Rigaku OD, 2015)'
_computing_data_reduction        'CrysAlisPro 1.171.38.46 (Rigaku OD, 2015)'
_diffrn_ambient_pressure         '1.38 GPa'
_diffrn_ambient_temperature      293
_diffrn_detector                 'CCD plate'
_diffrn_measured_fraction_theta_full 0.84
_diffrn_measured_fraction_theta_max 0.82
_diffrn_measurement_device       'ID15B beamline, ESRF'
_diffrn_measurement_device_type
'esperanto-CrysAlisPro-abstract goniometer imported esperanto images'
_diffrn_measurement_method       '\w scans'
_diffrn_measurement_specimen_support 'diamond-anvil cell'
_diffrn_radiation_monochromator  synchrotron
_diffrn_radiation_probe          x-ray
_diffrn_radiation_source         synchrotron
_diffrn_radiation_type           synchrotron
_diffrn_radiation_wavelength     0.41111
_diffrn_reflns_av_R_equivalents  0.0421
_diffrn_reflns_av_unetI/netI     0.0982
_diffrn_reflns_limit_h_max       6
_diffrn_reflns_limit_h_min       -6
_diffrn_reflns_limit_k_max       6
_diffrn_reflns_limit_k_min       -6
_diffrn_reflns_limit_l_max       13
_diffrn_reflns_limit_l_min       -13
_diffrn_reflns_number            1974
_diffrn_reflns_theta_full        10.18
_diffrn_reflns_theta_max         11.9
_diffrn_reflns_theta_min         1.68
_diffrn_source                   synchrotron
_exptl_absorpt_coefficient_mu    0.418
_exptl_absorpt_correction_T_max  1
_exptl_absorpt_correction_T_min  0.381
_exptl_absorpt_correction_type   multi-scan
_exptl_absorpt_process_details
;
CrysAlisPro 1.171.38.46 (Rigaku Oxford Diffraction, 2015)
Empirical absorption correction using spherical harmonics,
 implemented in SCALE3 ABSPACK scaling algorithm.
;
_exptl_crystal_colour            colourless
_exptl_crystal_density_diffrn    2.0604
_exptl_crystal_description       'hexagonal bipyramid'
_exptl_crystal_F_000             404
_exptl_crystal_size_max          0.090
_exptl_crystal_size_mid          0.070
_exptl_crystal_size_min          0.050
_refine_diff_density_max         1.30
_refine_diff_density_min         -1.20
_refine_ls_abs_structure_details
'  714 of Friedel pairs used in the refinement'
_refine_ls_extinction_method     none
_refine_ls_goodness_of_fit_gt    3.74
_refine_ls_goodness_of_fit_ref   2.97
_refine_ls_hydrogen_treatment    constr
_refine_ls_number_constraints    49
_refine_ls_number_parameters     87
_refine_ls_number_reflns         1974
_refine_ls_number_restraints     0
_refine_ls_R_factor_all          0.1952
_refine_ls_R_factor_gt           0.1402
_refine_ls_shift/su_max          0.0167
_refine_ls_shift/su_mean         0.0020
_refine_ls_structure_factor_coef F
_refine_ls_weighting_details     w=1/(\s^2^(F)+0.0001F^2^)
_refine_ls_weighting_scheme      sigma
_refine_ls_wR_factor_gt          0.1499
_refine_ls_wR_factor_ref         0.1631
_reflns_number_gt                1076
_reflns_number_total             1974
_reflns_threshold_expression     I>3\s(I)
_cod_data_source_file            c8cp03761b2.cif
_cod_data_source_block           AMnF_c2_p01
_cod_depositor_comments
;
The following automatic conversions were performed:

'_diffrn_radiation_probe' value 'X-ray' changed to 'x-ray' according
to
/home/data/users/saulius/crontab/automatic-downloads/rss-feeds/RSC/lib/dictionaries/cif_core.dic
dictionary named 'cif_core.dic' version 2.4.2 from 2011-04-26.

Automatic conversion script
Id: cif_fix_values 4973 2017-02-22 13:04:09Z antanas 

 Adding full bibliography for 7231402--7231432.cif.
;
_cod_database_code               7231405
loop_
_space_group_symop_id
_space_group_symop_operation_xyz
1 x,y,z
2 -x,y+1/2,-z
loop_
_atom_site_label
_atom_site_type_symbol
_atom_site_fract_x
_atom_site_fract_y
_atom_site_fract_z
_atom_site_adp_type
_atom_site_U_iso_or_equiv
_atom_site_site_symmetry_multiplicity
_atom_site_occupancy
_atom_site_calc_flag
Mn1 Mn 0.6340(7) 0.7078(8) 0.8501(3) Uani 0.0488(13) 2 1 d
Mn2 Mn 0.1336(7) 0.2202(8) 0.6501(3) Uani 0.0488(13) 2 1 d
C1 C 0.906(5) -0.138(6) 0.551(2) Uiso 0.078(5) 2 1 d
C2 C 0.523(6) 1.014(6) 0.705(3) Uiso 0.078(5) 2 1 d
C3 C 1.019(5) 0.913(5) 0.801(2) Uiso 0.057(4) 2 1 d
C4 C 0.253(5) 0.473(5) 0.816(2) Uiso 0.063(4) 2 1 d
C5 C 0.762(5) 0.423(4) 0.6920(18) Uiso 0.052(4) 2 1 d
C6 C 0.616(5) 0.583(5) 1.040(2) Uiso 0.056(4) 2 1 d
O1 O 1.069(3) 1.075(3) 0.7819(13) Uiso 0.057(4) 2 1 d
O2 O 0.488(3) 0.948(3) 0.9280(13) Uiso 0.056(4) 2 1 d
O3 O 0.362(3) 0.576(4) 0.8644(14) Uiso 0.063(4) 2 1 d
O4 O 0.729(3) 0.596(3) 0.9835(13) Uiso 0.056(4) 2 1 d
O5 O 0.776(3) 0.474(3) 0.7700(13) Uiso 0.052(4) 2 1 d
O6 O 0.419(4) 1.087(4) 0.6337(16) Uiso 0.078(5) 2 1 d
O7 O 0.912(3) 0.854(3) 0.8574(13) Uiso 0.057(4) 2 1 d
O8 O 0.276(3) 0.452(3) 0.7297(13) Uiso 0.063(4) 2 1 d
O9 O 0.842(3) 0.333(3) 0.6328(13) Uiso 0.052(4) 2 1 d
O10 O 0.986(4) 0.018(4) 0.5663(16) Uiso 0.078(5) 2 1 d
O11 O 0.570(4) 0.861(4) 0.7182(16) Uiso 0.078(5) 2 1 d
O12 O 0.235(4) 0.352(4) 0.5122(15) Uiso 0.078(5) 2 1 d
N1 N 0.637(3) 0.213(5) 0.4741(15) Uani 0.061(8) 2 1 d
N2 N 0.117(3) 0.708(5) 1.0230(15) Uani 0.061(8) 2 1 d
H1c1 H 0.948229 -0.248111 0.585849 Uiso 0.0932 2 1 d
H1c2 H 0.565061 1.101996 0.753067 Uiso 0.0937 2 1 d
H1c6 H 0.590086 0.699329 1.072711 Uiso 0.0672 2 1 d
H1c5 H 0.638901 0.469569 0.666221 Uiso 0.062 2 1 d
H1c3 H 1.080374 0.818581 0.761125 Uiso 0.069 2 1 d
H1c4 H 0.146152 0.406806 0.847244 Uiso 0.0756 2 1 d
loop_
_atom_site_aniso_label
_atom_site_aniso_type_symbol
_atom_site_aniso_U_11
_atom_site_aniso_U_22
_atom_site_aniso_U_33
_atom_site_aniso_U_12
_atom_site_aniso_U_13
_atom_site_aniso_U_23
Mn1 Mn 0.063(3) 0.019(2) 0.065(2) 0.002(2) 0.0024(15) -0.001(2)
Mn2 Mn 0.063(3) 0.019(2) 0.065(2) 0.002(2) 0.0024(15) -0.001(2)
N1 N 0.045(13) 0.059(14) 0.079(12) -0.005(12) 0.029(9) 0.032(13)
N2 N 0.045(13) 0.059(14) 0.079(12) -0.005(12) 0.029(9) 0.032(13)
loop_
_atom_type_symbol
_atom_type_scat_dispersion_real
_atom_type_scat_dispersion_imag
_atom_type_scat_source
C -0.0001 0.0005 'International Tables Vol C tables 4.2.6.8 and 6.1.1.1'
H 0.0000 0.0000 'International Tables Vol C tables 4.2.6.8 and 6.1.1.1'
Mn 0.1790 0.2615 'International Tables Vol C tables 4.2.6.8 and 6.1.1.1'
N 0.0006 0.0010 'International Tables Vol C tables 4.2.6.8 and 6.1.1.1'
O 0.0018 0.0018 'International Tables Vol C tables 4.2.6.8 and 6.1.1.1'
loop_
_geom_angle_atom_site_label_1
_geom_angle_atom_site_label_2
_geom_angle_atom_site_label_3
_geom_angle_site_symmetry_1
_geom_angle_site_symmetry_3
_geom_angle
O2 Mn1 O3 . . 85.0(9)
O2 Mn1 O4 . . 89.4(8)
O2 Mn1 O5 . . 178.6(7)
O2 Mn1 O7 . . 89.3(8)
O2 Mn1 O11 . . 86.9(9)
O3 Mn1 O4 . . 90.6(8)
O3 Mn1 O5 . . 95.1(9)
O3 Mn1 O7 . . 171.5(8)
O3 Mn1 O11 . . 97.8(9)
O4 Mn1 O5 . . 92.0(8)
O4 Mn1 O7 . . 83.0(8)
O4 Mn1 O11 . . 170.5(9)
O5 Mn1 O7 . . 90.8(8)
O5 Mn1 O11 . . 91.7(8)
O7 Mn1 O11 . . 88.1(9)
O1 Mn2 O6 1_445 1_545 93.4(9)
O1 Mn2 O8 1_445 . 90.7(8)
O1 Mn2 O9 1_445 1_455 95.4(8)
O1 Mn2 O10 1_445 1_455 93.2(9)
O1 Mn2 O12 1_445 . 173.1(9)
O6 Mn2 O8 1_545 . 89.8(9)
O6 Mn2 O9 1_545 1_455 166.8(8)
O6 Mn2 O10 1_545 1_455 93.4(10)
O6 Mn2 O12 1_545 . 79.8(9)
O8 Mn2 O9 . 1_455 99.9(8)
O8 Mn2 O10 . 1_455 174.8(9)
O8 Mn2 O12 . . 89.5(8)
O9 Mn2 O10 1_455 1_455 76.3(9)
O9 Mn2 O12 1_455 . 91.3(8)
O10 Mn2 O12 1_455 . 87.0(9)
O10 C1 O12 . 2_646 118(3)
O10 C1 H1c1 . . 120.99
O12 C1 H1c1 2_646 . 120.99
O6 C2 O11 . . 130(4)
O6 C2 H1c2 . . 115.23
O11 C2 H1c2 . . 115.23
O1 C3 O7 . . 131(3)
O1 C3 H1c3 . . 114.53
O7 C3 H1c3 . . 114.53
O3 C4 O8 . . 122(3)
O3 C4 H1c4 . . 118.95
O8 C4 H1c4 . . 118.95
O5 C5 O9 . . 143(3)
O5 C5 H1c5 . . 108.5
O9 C5 H1c5 . . 108.5
O2 C6 O4 2_647 . 134(3)
O2 C6 H1c6 2_647 . 113.1
O4 C6 H1c6 . . 113.1
Mn2 O1 C3 1_665 . 133.3(19)
Mn1 O2 C6 . 2_657 169.9(19)
Mn1 O3 C4 . . 138(2)
Mn1 O4 C6 . . 117(2)
Mn1 O5 C5 . . 133(2)
Mn2 O6 C2 1_565 . 124(2)
Mn1 O7 C3 . . 133(2)
Mn2 O8 C4 . . 122(2)
Mn2 O9 C5 1_655 . 123.2(19)
Mn2 O10 C1 1_655 . 154(2)
Mn1 O11 C2 . . 131(3)
Mn2 O12 C1 . 2_656 113(2)
loop_
_geom_bond_atom_site_label_1
_geom_bond_atom_site_label_2
_geom_bond_site_symmetry_2
_geom_bond_distance
Mn1 O2 . 2.25(2)
Mn1 O3 . 2.06(2)
Mn1 O4 . 2.13(2)
Mn1 O5 . 2.22(2)
Mn1 O7 . 2.14(2)
Mn1 O11 . 2.19(2)
Mn2 O1 1_445 2.16(2)
Mn2 O6 1_545 2.15(3)
Mn2 O8 . 2.21(2)
Mn2 O9 1_455 2.13(2)
Mn2 O10 1_455 2.11(3)
Mn2 O12 . 2.25(2)
C1 O10 . 1.25(5)
C1 O12 2_646 1.31(4)
C1 H1c1 . 0.96
C2 O6 . 1.33(4)
C2 O11 . 1.15(5)
C2 H1c2 . 0.96
C3 O1 . 1.23(4)
C3 O7 . 1.15(4)
C3 H1c3 . 0.96
C4 O3 . 1.24(4)
C4 O8 . 1.23(3)
C4 H1c4 . 0.96
C5 O5 . 1.16(3)
C5 O9 . 1.18(3)
C5 H1c5 . 0.96
C6 O2 2_647 1.26(4)
C6 O4 . 1.11(4)
C6 H1c6 . 0.96
loop_
_twin_individual_id
_twin_individual_mass_fraction_refined
_twin_individual_twin_matrix_11
_twin_individual_twin_matrix_12
_twin_individual_twin_matrix_13
_twin_individual_twin_matrix_21
_twin_individual_twin_matrix_22
_twin_individual_twin_matrix_23
_twin_individual_twin_matrix_31
_twin_individual_twin_matrix_32
_twin_individual_twin_matrix_33
1 0.264(6) 1 0 0 0 1 0 0 0 1
2 0.301(4) 0.991 0 -0.2787 0 -1 0 -0.064 0 -0.991
3 0.435(4) -0.611 0 -1.6542 0 -1 0 -0.3787 0 0.6113
loop_
_twin_refln_datum_id
_twin_refln_individual_id
_twin_refln_index_h
_twin_refln_index_k
_twin_refln_index_l
_twin_refln_f_squared_calc
_twin_refln_f_squared_meas
_twin_refln_f_squared_sigma
_twin_refln_include_status
1 2 0 -5 8 61.04 25.58 11.99 <
2 2 0 -5 9 5.39 -9.44 12.08 <
3 2 0 -4 6 137.91 153.65 24.06 o
4 2 0 -4 7 15.33 210.72 35.85 o
5 2 0 -4 8 3.71 13.01 7.27 <
6 2 0 -4 9 4.41 -9.98 11.44 <
7 2 0 -4 10 102.37 67.43 17.12 o
8 2 0 -4 11 1.07 4.15 8.22 <
9 2 0 -3 4 428.97 501.15 38.76 o
10 2 0 -3 5 33.77 31.84 39.34 <
11 2 0 -3 6 143.73 140.87 20.88 o
12 2 0 -3 7 9.81 41.40 15.24 <
13 2 0 -3 8 130.29 122.55 22.20 o
14 2 0 -3 9 1.76 1.04 4.67 <
15 2 0 -3 10 10.62 17.52 9.11 <
16 2 0 -3 11 1.90 -8.20 10.83 <
17 3 5 -3 -6 179.27 147.01 30.56 o
17 2 0 -3 12 179.27 147.01 30.56 o
18 2 0 -2 3 67.43 48.05 16.33 <
19 2 0 -2 4 1081.54 843.17 42.48 o
20 2 0 -2 5 253.60 214.16 22.72 o
21 2 0 -2 6 1096.18 1073.16 55.22 o
22 2 0 -2 7 10.63 282.50 40.21 o
23 2 0 -2 8 186.21 195.56 25.49 o
24 2 0 -2 9 43.42 13.97 7.92 <
25 2 0 -2 10 247.02 373.64 40.66 o
26 2 0 -2 11 7.95 2.16 3.67 <
27 3 5 -2 -6 31.79 24.98 12.97 <
27 2 0 -2 12 31.79 24.98 12.97 <
28 2 0 -2 13 0.70 -5.32 9.66 <
29 2 0 -1 1 14.32 18.88 3.86 o
30 2 0 -1 2 3721.08 3484.05 61.96 o
31 2 0 -1 3 239.16 244.76 19.21 o
32 2 0 -1 4 1075.91 1078.77 45.34 o
33 2 0 -1 5 123.53 108.36 14.67 o
34 2 0 -1 6 1324.20 1249.00 58.92 o
35 2 0 -1 7 5.89 92.71 21.39 o
36 2 0 -1 8 655.82 753.94 52.63 o
37 2 0 -1 9 62.39 14.18 5.35 <
38 2 0 -1 10 0.60 -3.71 7.24 <
39 2 0 -1 11 4.20 1.68 1.00 <
40 3 5 -1 -6 170.30 144.01 30.24 o
40 2 0 -1 12 170.30 144.01 30.24 o
41 2 0 -1 13 17.75 15.14 9.69 <
42 2 0 0 -2 451.20 314.16 18.27 o
43 2 0 0 2 451.20 303.89 18.08 o
44 2 0 0 -3 1.87 -0.90 2.62 <
45 2 0 0 3 1.87 -0.03 3.46 <
46 2 0 0 4 170.88 126.51 17.42 o
47 2 0 0 -4 170.88 129.45 19.09 o
48 2 0 0 -5 6.05 -1.20 1.87 <
49 2 0 0 5 6.05 0.68 4.69 <
50 2 0 0 -6 1007.06 703.81 52.37 o
51 2 0 0 6 1007.06 720.73 46.00 o
52 2 0 0 7 2.44 860.12 71.77 o
53 2 0 0 -7 2.44 952.39 75.94 o
54 2 0 0 -8 156.53 40.68 13.13 o
55 2 0 0 8 156.53 61.68 15.49 o
56 2 0 0 9 1.58 -11.31 13.13 <
57 2 0 0 10 340.12 257.54 36.21 o
58 2 0 0 11 0.01 10.65 15.09 <
59 3 5 0 -6 7.47 6.77 8.10 <
59 2 0 0 12 7.47 6.77 8.10 <
60 2 0 0 13 1.68 -4.75 6.15 <
61 2 0 1 -1 14.14 18.86 3.80 o
62 2 0 1 -2 3720.39 3482.72 63.26 o
63 2 0 1 -3 239.16 245.78 19.73 o
64 2 0 1 -4 1077.86 1066.70 46.41 o
65 2 0 1 -5 123.57 108.90 15.83 o
66 2 0 1 -6 1323.57 1294.64 65.31 o
67 2 0 1 -7 5.90 117.64 24.58 o
68 2 0 1 -8 654.91 739.95 58.97 o
69 2 0 1 -9 62.38 5.46 4.97 <
70 2 0 1 -10 0.60 -10.14 10.43 <
71 2 0 1 -11 4.21 -2.57 6.45 <
72 3 -5 1 6 170.84 89.76 30.89 <
72 2 0 1 -12 170.84 89.76 30.89 <
73 2 0 1 -13 17.75 11.82 17.01 <
74 2 0 2 -2 231.37 404.85 28.59 o
75 2 0 2 -3 66.74 47.13 15.62 o
76 2 0 2 -4 1084.77 844.06 44.75 o
77 2 0 2 -5 253.65 213.84 23.67 o
78 2 0 2 -6 1098.89 1083.61 58.49 o
79 2 0 2 -7 10.57 312.69 47.09 o
80 2 0 2 -8 186.02 183.30 26.91 o
81 2 0 2 -9 43.35 15.16 8.07 <
82 2 0 2 -10 246.68 336.67 43.12 o
83 2 0 2 -11 7.94 -0.62 6.22 <
84 3 -5 2 6 32.15 14.12 12.08 <
84 2 0 2 -12 32.15 14.12 12.08 <
85 2 0 2 -13 0.67 0.60 9.08 <
86 2 0 3 -3 368.52 630.76 46.12 o
87 2 0 3 -4 432.37 479.67 38.22 o
88 2 0 3 -5 33.17 28.70 36.69 <
89 2 0 3 -6 143.83 134.43 21.76 o
90 2 0 3 -7 9.84 45.12 14.86 o
91 2 0 3 -8 131.34 117.61 23.12 o
92 2 0 3 -9 1.63 -6.26 7.45 <
93 2 0 3 -10 10.62 14.82 6.06 <
94 2 0 3 -11 1.82 -11.18 14.52 <
95 3 -5 3 6 182.14 143.64 37.97 o
95 2 0 3 -12 182.14 143.64 37.97 o
96 2 0 4 -4 201.96 263.25 31.92 o
97 2 0 4 -5 17.08 16.78 16.37 <
98 2 0 4 -6 134.99 137.29 23.71 o
99 2 0 4 -7 14.98 211.85 36.87 o
100 2 0 4 -8 3.90 16.00 10.22 <
101 2 0 4 -9 4.45 -6.99 8.29 <
102 2 0 4 -10 103.53 72.63 23.27 o
103 2 0 4 -11 0.98 -0.76 7.05 <
104 2 0 5 -6 28.65 11.56 9.31 <
105 2 0 5 -7 2.48 8.57 9.87 <
106 2 0 5 -8 60.31 34.86 16.19 <
107 2 0 5 -9 5.52 -7.91 8.79 <
108 2 -1 -5 9 58.04 77.95 21.19 o
109 2 -1 -5 8 38.34 24.71 5.47 o
110 2 -1 -5 7 17.16 31.14 12.43 <
111 2 -1 -5 6 44.91 54.18 17.06 o
112 2 -1 -4 11 14.53 8.86 6.72 <
113 2 -1 -4 10 36.33 35.46 15.12 <
114 2 -1 -4 9 22.75 14.29 10.02 <
115 2 -1 -4 8 111.37 56.46 14.51 o
116 2 -1 -4 7 85.19 87.82 21.24 o
117 2 -1 -4 6 27.05 74.68 40.38 <
118 2 -1 -4 5 35.73 24.79 8.95 <
119 2 -1 -4 4 121.27 166.04 23.61 o
120 2 1 -4 8 52.50 77.82 23.47 o
121 2 1 -4 9 27.07 23.48 16.50 <
122 2 1 -4 10 16.79 88.96 28.02 o
123 2 1 -4 11 12.43 18.25 10.92 <
124 2 -1 -3 12 19.84 9.85 7.38 <
125 2 -1 -3 11 23.27 38.91 14.58 <
126 2 -1 -3 10 106.54 72.41 18.03 o
127 2 -1 -3 9 177.31 155.45 24.41 o
128 2 -1 -3 8 7.42 6.31 6.95 <
129 2 -1 -3 7 104.45 80.39 15.59 o
130 2 -1 -3 6 182.80 238.19 27.51 o
131 2 -1 -3 5 503.46 407.73 32.71 o
132 2 -1 -3 4 969.35 1307.48 58.15 o
133 2 -1 -3 3 178.92 155.21 19.09 o
134 2 -1 -3 2 508.68 754.66 42.40 o
135 2 1 -3 6 155.48 304.26 38.21 o
136 2 1 -3 7 81.45 88.91 17.70 o
137 2 1 -3 8 0.67 8.32 4.70 <
138 2 1 -3 9 131.37 166.72 28.57 o
139 2 1 -3 10 84.70 73.19 18.75 o
140 2 1 -3 11 46.36 56.93 20.12 <
141 2 1 -3 12 12.81 11.92 7.23 <
142 2 -1 -2 13 30.13 41.87 15.57 <
143 2 -1 -2 12 13.70 23.11 16.49 <
144 2 -1 -2 11 28.75 13.93 7.36 <
145 2 -1 -2 10 34.08 34.09 16.46 <
146 2 -1 -2 9 11.83 6.97 6.30 <
147 2 -1 -2 8 494.08 417.56 40.37 o
148 2 -1 -2 7 231.04 247.48 27.50 o
149 2 -1 -2 6 205.74 261.74 32.41 o
150 2 -1 -2 5 107.91 115.61 16.26 o
151 2 -1 -2 4 439.83 526.59 34.15 o
152 2 -1 -2 3 1645.39 1816.18 62.23 o
153 2 -1 -2 2 1220.91 1284.55 43.46 o
154 2 -1 -2 1 290.56 268.32 18.96 o
155 2 1 -2 5 104.52 136.58 21.04 o
156 2 1 -2 6 164.15 333.58 35.79 o
157 2 1 -2 7 254.61 266.83 29.84 o
158 2 1 -2 8 437.30 482.48 40.87 o
159 2 1 -2 9 13.67 7.82 4.14 <
160 2 1 -2 10 30.98 62.17 20.43 o
161 2 1 -2 11 28.22 18.05 8.09 <
162 2 1 -2 12 13.40 14.26 9.04 <
163 2 1 -2 13 38.47 55.68 20.77 <
164 2 -1 -1 13 10.53 -8.51 14.00 <
165 2 -1 -1 12 12.68 7.54 7.28 <
166 2 -1 -1 11 42.12 33.17 19.71 <
167 2 -1 -1 10 173.68 153.49 34.39 o
168 2 -1 -1 9 178.38 149.37 26.38 o
169 2 -1 -1 8 18.93 15.87 6.62 <
170 2 -1 -1 7 112.46 113.28 21.40 o
171 2 -1 -1 6 337.10 539.91 47.76 o
172 2 -1 -1 5 376.95 333.11 32.20 o
173 2 -1 -1 4 1112.67 1114.98 57.94 o
174 2 -1 -1 3 516.05 430.81 31.53 o
175 2 -1 -1 2 167.21 186.11 17.67 o
176 2 -1 -1 1 1047.21 1260.14 36.31 o
177 2 1 -1 3 474.70 458.74 34.64 o
178 2 1 -1 4 1154.56 1121.12 52.59 o
179 2 1 -1 5 561.38 401.77 28.87 o
180 2 1 -1 6 391.83 612.50 42.27 o
181 2 1 -1 7 177.04 158.67 20.06 o
182 2 1 -1 8 41.52 20.49 4.44 o
183 2 1 -1 9 150.15 163.86 23.69 o
184 2 1 -1 10 177.17 301.49 41.17 o
185 2 1 -1 11 24.24 22.61 10.95 <
186 2 1 -1 12 10.51 10.17 7.09 <
187 2 1 -1 13 15.92 26.52 23.11 <
188 2 -1 0 -2 441.14 492.95 21.73 o
189 2 -1 0 -3 40.41 44.38 7.28 o
190 2 1 0 3 40.41 46.72 6.79 o
191 2 -1 0 -4 60.10 32.88 6.85 o
192 2 1 0 4 60.10 39.75 6.99 o
193 2 1 0 5 576.59 585.14 32.28 o
194 2 -1 0 -5 576.59 590.87 34.47 o
195 2 1 0 6 89.90 54.22 12.54 o
196 2 -1 0 -6 89.90 60.56 15.15 o
197 2 -1 0 -7 240.18 212.05 25.64 o
198 2 1 0 7 240.18 245.27 25.52 o
199 2 1 0 8 372.67 386.44 33.46 o
200 2 -1 0 -8 372.67 343.64 36.05 o
201 2 -1 0 -9 303.25 264.13 35.16 o
202 2 1 0 9 303.25 329.50 33.32 o
203 2 -1 0 -10 54.85 188.43 37.51 o
204 2 1 0 10 54.85 119.48 26.01 o
205 2 1 0 11 6.43 4.58 2.65 <
206 2 -1 0 -11 6.43 0.43 2.53 <
207 2 1 0 12 48.84 37.18 13.38 <
208 2 -1 0 -12 48.84 18.88 9.16 <
209 2 1 0 13 24.63 45.05 19.11 <
210 2 -1 0 -13 24.63 29.01 22.97 <
211 2 1 1 -10 180.92 112.24 34.99 o
212 2 1 1 -9 173.11 89.73 20.99 o
213 2 1 1 -8 19.35 6.61 5.43 <
214 2 1 1 -7 115.40 93.60 22.51 o
215 2 1 1 -6 344.13 540.83 51.39 o
216 2 1 1 -5 391.70 318.10 33.71 o
217 2 1 1 -4 1079.13 1094.34 60.70 o
218 2 1 1 -3 506.51 401.53 31.73 o
219 2 1 1 -2 171.62 183.58 18.05 o
220 2 1 1 -1 1040.07 1271.72 38.02 o
221 2 -1 1 -3 483.92 468.14 32.57 o
222 2 1 1 3 483.92 482.80 20.50 o
223 2 -1 1 -4 1190.57 1113.03 50.34 o
224 2 1 1 4 1190.57 1166.78 39.36 o
225 2 -1 1 -5 543.77 408.67 30.33 o
226 2 1 1 5 543.77 369.29 26.79 o
227 2 1 1 6 387.89 517.41 38.95 o
228 2 -1 1 -6 387.89 613.00 42.88 o
229 2 -1 1 -7 172.95 149.95 20.55 o
230 2 1 1 7 172.95 131.43 20.54 o
231 2 1 1 8 40.92 7.80 9.83 <
232 2 -1 1 -8 40.92 19.93 4.33 o
233 2 1 1 9 154.48 136.96 24.23 o
234 2 -1 1 -9 154.48 168.60 27.08 o
235 2 -1 1 -10 171.35 345.70 49.55 o
236 2 1 1 10 171.35 269.20 40.03 o
237 2 -1 1 -11 25.47 24.05 11.16 <
238 2 1 1 11 25.47 28.02 14.90 <
239 2 -1 1 -12 10.83 13.74 10.12 <
240 2 1 1 12 10.83 14.30 11.25 <
241 2 -1 1 -13 15.38 -7.83 14.87 <
242 2 1 1 13 15.38 6.19 5.95 <
243 2 1 2 -13 32.00 29.98 14.99 <
244 2 1 2 -12 15.72 9.05 12.36 <
245 2 1 2 -11 28.33 12.73 10.00 <
246 2 1 2 -10 33.95 27.99 18.43 <
247 2 1 2 -9 11.55 6.20 4.52 <
248 2 1 2 -8 499.04 386.49 44.85 o
249 2 1 2 -7 232.95 218.78 29.02 o
250 2 1 2 -6 199.55 261.47 34.03 o
251 2 1 2 -5 108.69 121.38 18.59 o
252 2 1 2 -4 451.70 556.34 38.07 o
253 2 1 2 -3 1653.22 1852.07 61.75 o
254 2 1 2 -2 1225.70 1280.54 45.91 o
255 2 1 2 -1 276.63 252.86 18.22 o
256 2 1 2 0 324.96 355.78 20.10 o
257 2 -1 2 -4 436.66 504.12 41.89 o
258 2 -1 2 -5 104.02 122.64 18.59 o
259 2 -1 2 -6 170.91 332.11 35.98 o
260 2 -1 2 -7 251.52 279.35 31.12 o
261 2 -1 2 -8 433.10 483.64 43.43 o
262 2 -1 2 -9 12.17 8.93 6.98 <
263 2 -1 2 -10 31.17 79.05 22.40 o
264 2 -1 2 -11 28.53 12.69 2.78 o
265 2 -1 2 -12 12.54 12.47 11.52 <
266 2 -1 2 -13 36.61 43.38 22.02 <
267 2 1 3 -12 20.41 10.43 13.74 <
268 2 1 3 -11 24.92 52.03 22.88 <
269 2 1 3 -10 107.37 58.15 20.99 <
270 2 1 3 -9 180.28 124.73 25.74 o
271 2 1 3 -8 7.24 3.19 8.04 <
272 2 1 3 -7 105.22 61.30 13.63 o
273 2 1 3 -6 184.59 226.83 29.99 o
274 2 1 3 -5 512.61 401.01 34.58 o
275 2 1 3 -4 971.22 1297.39 61.91 o
276 2 1 3 -3 174.62 163.56 20.36 o
277 2 1 3 -2 512.70 758.43 41.42 o
278 2 1 3 -1 368.88 657.89 38.63 o
279 2 -1 3 -6 150.99 297.29 36.33 o
280 2 -1 3 -7 81.06 81.85 18.81 o
281 2 -1 3 -8 0.48 3.54 2.97 <
282 2 -1 3 -9 130.23 149.88 27.57 o
283 2 -1 3 -10 83.77 66.37 20.25 o
284 2 -1 3 -11 43.66 43.83 17.89 <
285 2 -1 3 -12 12.36 12.59 12.34 <
286 2 1 4 -11 14.43 16.54 14.68 <
287 2 1 4 -10 36.85 32.63 15.20 <
288 2 1 4 -9 23.09 8.58 11.68 <
289 2 1 4 -8 109.36 40.11 14.31 <
290 2 1 4 -7 86.98 50.76 14.99 o
291 2 1 4 -6 28.73 58.59 39.73 <
292 2 1 4 -5 35.06 24.25 9.36 <
293 2 1 4 -4 121.97 160.19 23.69 o
294 2 1 4 -3 532.84 783.67 52.30 o
295 2 1 4 -2 557.82 799.00 51.95 o
296 2 -1 4 -7 54.00 59.17 17.03 o
297 2 -1 4 -8 52.16 47.66 15.37 o
298 2 -1 4 -9 26.97 7.75 1.78 o
299 2 -1 4 -10 16.40 86.69 28.68 o
300 2 -1 4 -11 12.73 24.52 14.28 <
301 2 1 5 -9 57.29 63.35 20.82 o
302 2 1 5 -8 37.99 20.26 7.20 <
303 2 1 5 -7 17.17 31.30 14.55 <
304 2 1 5 -6 44.99 50.47 18.31 <
305 2 1 5 -5 128.72 123.32 22.00 o
306 2 1 5 -4 280.35 469.92 46.41 o
307 2 1 5 -3 190.13 381.44 39.96 o
308 2 -1 5 -9 63.63 61.65 24.90 <
309 2 1 6 -7 67.08 46.65 18.71 <
310 2 1 6 -6 59.60 86.02 31.36 <
311 2 1 6 -5 16.89 190.69 61.29 o
312 2 -2 -6 6 17.61 14.82 13.48 <
313 2 -2 -5 8 11.82 5.09 1.66 o
314 2 -2 -5 7 277.39 203.43 30.80 o
315 2 -2 -5 6 9.39 15.53 6.48 <
316 2 -2 -5 5 3.85 9.10 7.15 <
317 2 -2 -5 4 41.53 8.80 4.90 <
318 2 -2 -4 10 5.75 5.46 6.42 <
319 2 -2 -4 9 157.99 135.32 21.94 o
320 2 -2 -4 8 7.80 -0.99 3.65 <
321 2 -2 -4 7 29.11 35.88 14.51 <
322 2 -2 -4 6 1.69 1.91 3.53 <
323 2 -2 -4 5 882.40 954.16 56.39 o
324 2 -2 -4 4 0.60 2.89 2.94 <
325 2 -2 -4 3 156.88 309.76 28.52 o
326 2 -2 -4 2 262.67 366.98 29.10 o
327 2 -2 -3 11 93.85 80.07 20.85 o
328 2 -2 -3 10 11.92 9.78 6.98 <
329 2 -2 -3 9 59.50 56.69 15.82 o
330 2 -2 -3 8 1.41 1.56 2.10 <
331 2 -2 -3 7 464.35 757.51 56.05 o
332 2 -2 -3 6 35.33 20.86 8.82 <
333 2 -2 -3 5 51.01 17.92 6.17 <
334 2 -2 -3 4 9.11 -3.98 5.58 <
335 2 -2 -3 3 1193.58 1361.55 54.63 o
336 2 -2 -3 2 53.37 33.24 5.49 o
337 2 -2 -3 1 848.72 829.82 35.33 o
338 2 2 -3 9 48.38 73.33 21.07 o
339 2 2 -3 10 15.27 12.42 8.42 <
340 2 2 -3 11 66.72 104.22 25.20 o
341 2 -2 -2 12 0.85 3.84 22.28 <
342 2 -2 -2 11 115.56 104.50 24.00 o
343 2 -2 -2 10 0.68 6.29 10.01 <
344 2 -2 -2 9 119.22 106.02 23.89 o
345 2 -2 -2 8 16.74 -4.34 4.53 <
346 2 -2 -2 7 42.27 30.33 3.83 o
347 2 -2 -2 6 4.03 6.10 6.80 <
348 2 -2 -2 5 945.25 813.47 58.64 o
349 2 -2 -2 4 124.79 93.36 16.77 o
350 2 -2 -2 3 55.83 44.50 10.42 o
351 2 -2 -2 2 177.45 153.25 16.78 o
352 2 -2 -2 1 1238.03 1040.85 36.04 o
353 2 -2 -2 0 25.72 8.96 7.36 <
354 2 2 -2 7 55.32 63.20 13.94 o
355 2 2 -2 8 20.37 1.89 3.88 <
356 2 2 -2 9 127.26 182.98 29.55 o
357 2 2 -2 10 4.89 -0.36 8.73 <
358 2 2 -2 11 130.38 181.10 30.60 o
359 2 2 -2 12 2.79 4.34 16.35 <
360 2 -2 -1 -3 79.88 83.14 7.09 o
361 2 -2 -1 -4 37.44 24.13 4.40 o
362 2 -2 -1 -5 267.16 187.50 22.03 o
363 2 2 -1 6 31.39 40.99 13.66 o
364 2 -2 -1 -6 31.39 19.88 7.65 <
365 2 -2 -1 -7 376.83 373.98 39.90 o
366 2 2 -1 7 376.83 508.48 43.70 o
367 2 -2 -1 -8 13.58 6.15 5.58 <
368 2 2 -1 8 13.58 4.96 1.93 <
369 2 2 -1 9 133.57 224.95 27.65 o
370 2 -2 -1 -9 133.57 119.80 24.75 o
371 2 2 -1 10 25.56 14.68 17.03 <
372 2 -2 -1 -10 25.56 5.21 9.41 <
373 2 -2 -1 -11 9.00 6.07 6.62 <
374 2 2 -1 11 9.00 29.11 12.29 <
375 2 2 -1 12 2.19 4.74 6.66 <
376 2 2 -1 13 35.67 49.59 18.38 <
377 2 -2 0 -4 81.14 75.85 9.95 o
378 2 -2 0 -5 541.29 693.71 34.83 o
379 2 2 0 5 541.29 654.49 41.93 o
380 2 2 0 6 171.71 260.95 24.41 o
381 2 -2 0 -6 171.71 274.58 24.22 o
382 2 -2 0 -7 27.04 22.74 4.98 o
383 2 2 0 7 27.04 27.47 7.02 o
384 2 2 0 8 153.08 104.73 17.47 o
385 2 -2 0 -8 153.08 77.49 23.05 o
386 2 2 0 9 10.03 -3.59 10.00 <
387 2 -2 0 -9 10.03 -1.77 8.84 <
388 2 2 0 10 0.02 -0.82 4.82 <
389 2 -2 0 -10 0.02 1.05 9.45 <
390 2 2 0 11 56.21 60.49 14.89 o
391 2 -2 0 -11 56.21 38.39 12.43 o
392 2 2 0 12 3.72 1.28 2.95 <
393 2 -2 0 -12 3.72 -4.29 8.32 <
394 2 2 0 13 0.02 -2.95 8.29 <
395 2 -2 0 -13 0.02 5.95 10.54 <
396 2 2 1 4 36.83 23.97 4.22 o
397 2 2 1 5 267.17 186.78 18.96 o
398 2 -2 1 -5 267.17 162.07 22.93 o
399 2 2 1 6 32.04 28.55 7.98 o
400 2 -2 1 -6 32.04 31.20 10.02 o
401 2 -2 1 -7 371.22 499.10 40.84 o
402 2 2 1 7 371.22 454.56 32.54 o
403 2 2 1 8 13.90 -1.49 4.84 <
404 2 -2 1 -8 13.90 2.86 1.53 <
405 2 -2 1 -9 132.42 205.45 26.94 o
406 2 2 1 9 132.42 193.88 23.11 o
407 2 -2 1 -10 25.44 13.67 13.23 <
408 2 2 1 10 25.44 10.93 5.92 <
409 2 2 1 11 9.62 24.70 9.02 <
410 2 -2 1 -11 9.62 27.67 10.62 <
411 2 2 1 12 2.31 0.94 3.40 <
412 2 -2 1 -12 2.31 -1.82 3.09 <
413 2 -2 1 -13 36.85 24.60 11.64 <
414 2 2 1 13 36.85 109.83 28.80 o
415 2 2 2 -9 118.73 56.63 18.71 o
416 2 2 2 -8 16.51 1.46 5.13 <
417 2 2 2 -7 39.48 30.64 11.57 <
418 2 2 2 -6 3.86 14.57 11.66 <
419 2 2 2 -5 949.02 732.85 64.04 o
420 2 2 2 -4 124.47 78.46 17.77 o
421 2 2 2 -3 55.64 37.06 11.97 o
422 2 2 2 -2 179.52 140.49 19.51 o
423 2 2 2 4 129.22 106.88 8.58 o
424 2 2 2 5 771.38 862.32 33.74 o
425 2 -2 2 -6 1.67 11.80 8.25 <
426 2 2 2 6 1.67 18.00 7.50 <
427 2 2 2 7 58.12 61.51 11.10 o
428 2 -2 2 -7 58.12 56.21 13.63 o
429 2 -2 2 -8 20.68 1.84 3.63 <
430 2 2 2 8 20.68 1.04 2.22 <
431 2 2 2 9 128.21 140.03 20.77 o
432 2 -2 2 -9 128.21 193.09 29.12 o
433 2 -2 2 -10 4.79 -3.30 6.75 <
434 2 2 2 10 4.79 -1.17 6.61 <
435 2 -2 2 -11 129.35 146.92 28.42 o
436 2 2 2 11 129.35 137.29 26.67 o
437 2 2 2 12 2.76 24.42 14.28 <
438 2 -2 2 -12 2.76 -3.62 7.77 <
439 2 2 3 -11 92.69 60.42 23.57 <
440 2 2 3 -10 11.62 15.22 13.48 <
441 2 2 3 -9 55.79 34.71 16.18 <
442 2 2 3 -8 1.45 0.97 4.01 <
443 2 2 3 -7 463.09 705.30 64.98 o
444 2 2 3 -6 35.83 12.73 6.36 <
445 2 2 3 -5 51.04 17.43 5.49 o
446 2 2 3 -4 9.33 -1.25 5.23 <
447 2 2 3 -3 1186.14 1336.28 62.36 o
448 2 2 3 -2 54.52 30.22 6.81 o
449 2 2 3 -1 836.39 806.87 36.75 o
450 2 2 3 0 33.36 44.24 12.70 o
451 2 2 3 1 948.12 973.54 31.10 o
452 2 -2 3 -8 5.06 -1.47 6.70 <
453 2 -2 3 -9 51.40 68.90 19.82 o
454 2 -2 3 -10 15.71 6.94 1.81 o
455 2 -2 3 -11 67.42 87.16 23.52 o
456 2 2 4 -10 5.73 2.47 2.32 <
457 2 2 4 -9 157.45 97.80 23.87 o
458 2 2 4 -8 8.02 -1.12 6.24 <
459 2 2 4 -7 28.01 22.86 13.64 <
460 2 2 4 -6 1.95 7.75 8.64 <
461 2 2 4 -5 878.58 886.86 61.98 o
462 2 2 4 -4 0.75 0.26 4.81 <
463 2 2 4 -3 155.33 283.01 27.92 o
464 2 2 4 -2 258.95 347.95 28.08 o
465 2 2 4 -1 446.84 688.68 37.63 o
466 2 2 4 0 41.88 67.39 15.36 o
467 2 2 4 1 637.12 812.49 37.01 o
468 2 -2 4 -10 4.36 -13.16 8.27 <
469 2 2 5 -8 11.94 8.54 10.22 <
470 2 2 5 -7 277.02 199.04 36.35 o
471 2 2 5 -6 9.70 21.30 10.79 <
472 2 2 5 -5 3.89 8.42 7.80 <
473 2 2 5 -4 40.84 4.24 3.81 <
474 2 2 5 -3 472.21 524.42 43.24 o
475 2 2 5 -2 26.29 11.44 7.95 <
476 2 2 5 -1 302.36 322.66 30.58 o
477 2 2 5 0 17.95 34.50 27.63 <
478 2 2 6 -6 17.47 16.67 9.35 <
479 2 2 6 -5 277.03 195.22 34.21 o
480 2 2 6 -4 7.46 11.99 21.44 <
481 2 2 6 -3 14.43 17.44 11.93 <
482 2 2 6 -2 23.54 24.23 7.96 o
483 2 2 6 -1 222.22 153.29 22.45 o
484 2 -3 -5 7 50.85 61.71 15.76 o
485 2 -3 -5 6 60.88 37.12 9.45 o
486 2 -3 -5 5 110.21 79.23 16.97 o
487 2 -3 -5 4 68.76 50.33 12.34 o
488 2 -3 -5 3 17.04 8.87 4.29 <
489 2 -3 -4 9 34.65 38.36 15.92 <
490 2 -3 -4 8 115.34 46.06 12.59 o
491 2 -3 -4 7 116.03 81.81 16.84 o
492 2 -3 -4 6 6.57 5.59 7.70 <
493 2 -3 -4 5 0.46 -1.94 2.69 <
494 2 -3 -4 4 34.33 5.06 5.09 <
495 2 -3 -4 3 265.85 216.52 22.88 o
496 2 -3 -4 2 138.86 221.79 25.68 o
497 2 -3 -4 1 11.90 18.79 17.19 <
498 2 -3 -3 11 56.27 78.22 25.29 o
499 2 -3 -3 10 37.79 25.06 18.07 <
500 2 -3 -3 9 72.26 41.02 17.12 <
501 2 -3 -3 8 16.07 9.19 3.19 <
502 2 -3 -3 7 90.36 34.12 11.61 <
503 2 -3 -3 6 74.05 41.62 13.50 o
504 2 -3 -3 5 61.84 36.02 9.74 o
505 2 -3 -3 4 137.21 122.42 20.50 o
506 2 -3 -3 3 98.18 64.23 14.43 o
507 2 -3 -3 2 25.72 5.51 2.69 <
508 2 -3 -3 1 243.05 216.63 18.77 o
509 2 -3 -3 0 47.63 43.12 9.61 o
510 2 3 -2 11 30.88 23.47 16.95 <
511 2 -3 -1 -4 444.76 613.98 29.04 o
512 2 -3 -1 -5 489.20 640.34 29.52 o
513 2 -3 -1 -6 80.98 116.41 14.98 o
514 2 -3 -1 -7 140.27 130.35 16.79 o
515 2 -3 -1 -8 13.70 10.42 2.29 o
516 2 3 -1 9 146.87 344.10 41.41 o
517 2 -3 -1 -9 146.87 189.80 27.64 o
518 2 3 -1 10 80.37 180.33 31.26 o
519 2 -3 -1 -10 80.37 106.72 25.74 o
520 2 3 -1 11 21.42 36.66 14.17 <
521 2 -3 -1 -11 21.42 14.66 11.32 <
522 2 3 -1 12 0.75 -5.20 11.43 <
523 2 -3 -1 -12 0.75 -13.00 10.23 <
524 2 -3 0 -5 17.99 5.51 3.43 <
525 2 -3 0 -6 505.40 434.92 31.39 o
526 2 -3 0 -7 390.67 550.24 37.39 o
527 2 3 0 8 261.69 398.88 37.84 o
528 2 -3 0 -8 261.69 365.72 31.68 o
529 2 -3 0 -9 9.06 5.21 2.33 <
530 2 3 0 9 9.06 9.80 4.08 <
531 2 3 0 10 29.89 25.53 10.40 <
532 2 -3 0 -10 29.89 10.47 4.57 <
533 2 3 0 11 14.82 50.62 14.96 o
534 2 -3 0 -11 14.82 31.55 14.63 <
535 2 3 0 12 0.83 15.61 10.15 <
536 2 -3 0 -12 0.83 4.06 7.03 <
537 2 -3 1 -7 143.74 135.93 20.36 o
538 2 3 1 7 143.74 174.74 21.76 o
539 2 -3 1 -8 12.95 12.51 2.62 o
540 2 3 1 8 12.95 12.43 2.12 o
541 2 3 1 9 149.65 278.18 28.03 o
542 2 -3 1 -9 149.65 277.93 33.88 o
543 2 3 1 10 79.68 142.82 22.10 o
544 2 -3 1 -10 79.68 133.74 25.33 o
545 2 -3 1 -11 22.20 27.88 13.72 <
546 2 3 1 11 22.20 43.86 16.10 <
547 2 -3 1 -12 0.86 4.69 9.09 <
548 2 3 1 12 0.86 -2.19 2.00 <
549 2 3 2 6 7.63 5.37 2.00 <
550 2 3 2 7 103.37 131.60 14.19 o
551 2 -3 2 -8 52.37 33.21 12.58 <
552 2 3 2 8 52.37 49.20 10.01 o
553 2 -3 2 -9 82.48 76.58 18.51 o
554 2 3 2 9 82.48 79.73 13.12 o
555 2 3 2 10 17.92 32.57 11.34 <
556 2 -3 2 -10 17.92 36.24 16.49 <
557 2 -3 2 -11 31.36 38.53 21.85 <
558 2 3 2 11 31.36 12.14 7.89 <
559 2 3 3 6 69.62 45.51 6.42 o
560 2 3 3 7 37.49 46.08 6.79 o
561 2 3 3 8 15.00 12.13 4.52 <
562 2 3 3 9 49.73 45.55 11.42 o
563 2 3 3 10 25.75 28.54 10.89 <
564 2 -3 3 -10 25.75 29.49 15.69 <
565 2 -3 3 -11 40.54 98.85 28.21 o
566 2 3 4 -9 35.39 10.57 5.23 <
567 2 3 4 -8 115.81 36.91 25.52 <
568 2 3 4 -7 118.30 42.08 17.11 <
569 2 3 4 -6 7.45 3.47 6.18 <
570 2 3 4 -5 0.54 -3.19 2.85 <
571 2 3 4 -4 33.87 6.87 5.83 <
572 2 3 4 -3 265.50 180.66 25.88 o
573 2 3 4 -2 140.65 221.20 36.44 o
574 2 3 4 -1 10.09 49.28 23.22 <
575 2 3 4 0 3.61 -1.25 3.96 <
576 2 3 4 1 7.13 170.51 27.57 o
577 2 3 4 2 213.14 118.56 11.78 o
578 2 3 4 6 9.00 6.41 4.20 <
579 2 3 4 7 77.17 54.03 9.84 o
580 2 3 4 8 54.49 26.46 5.40 o
581 2 3 4 9 49.21 21.79 6.51 o
582 2 3 5 -7 51.76 42.28 16.38 <
583 2 3 5 -6 61.61 28.21 12.11 <
584 2 3 5 -5 113.92 69.56 20.62 o
585 2 3 5 -4 66.77 48.86 17.09 <
586 2 3 5 -3 15.90 8.10 4.66 <
587 2 3 5 -2 22.31 -3.28 7.29 <
588 2 3 5 -1 140.56 111.01 17.51 o
589 2 3 5 0 68.22 55.72 13.19 o
590 2 3 5 1 142.48 158.12 15.18 o
591 2 3 5 2 3.45 -1.27 2.61 <
592 2 3 5 3 8.28 13.06 4.08 o
593 2 3 6 -3 137.32 109.95 21.36 o
594 2 3 6 -2 72.41 78.94 15.72 o
595 2 3 6 -1 63.64 128.85 22.18 o
596 2 3 6 0 3.96 30.12 13.27 <
597 2 3 6 1 85.44 176.56 23.52 o
598 2 3 6 2 53.42 64.67 10.70 o
599 2 -4 -5 5 1.70 2.49 5.91 <
600 2 -4 -5 4 55.97 44.11 11.65 o
601 2 -4 -5 3 19.27 6.08 6.09 <
602 2 -4 -5 2 67.77 50.19 10.15 o
603 2 -4 -4 7 18.29 13.40 9.10 <
604 2 -4 -4 6 129.84 110.66 21.67 o
605 2 -4 -4 5 12.34 5.31 4.78 <
606 2 -4 -4 4 53.51 21.08 6.94 o
607 2 -4 -4 3 7.55 3.36 1.78 <
608 2 -4 -4 2 5.53 4.70 2.78 <
609 2 -4 -4 1 18.09 6.13 3.06 <
610 2 -4 -4 0 88.35 49.21 9.17 o
611 2 -4 -3 6 22.40 10.13 12.23 <
612 2 -4 -3 5 18.62 6.05 5.22 <
613 2 -4 -3 4 118.73 57.13 18.08 o
614 2 -4 -3 3 31.79 1.93 2.39 <
615 2 -4 -3 2 261.74 133.14 21.50 o
616 2 -4 -3 1 35.65 -5.97 6.89 <
617 2 -4 -3 0 10.57 -13.19 8.24 <
618 2 -4 -3 -1 13.43 1.04 0.81 <
619 2 -4 -2 -4 79.17 63.99 7.81 o
620 2 -4 -2 -5 18.91 6.27 1.40 o
621 2 -4 -2 -6 115.26 114.96 13.51 o
622 2 -4 -2 -7 6.94 5.66 3.45 <
623 2 -4 -2 -8 3.51 -6.55 7.32 <
624 2 -4 -2 -9 2.44 2.91 3.25 <
625 2 -4 -2 -10 40.11 27.06 9.14 <
626 2 -4 -1 -5 22.27 7.91 4.76 <
627 2 -4 -1 -6 314.48 437.73 30.07 o
628 2 -4 -1 -7 11.41 20.60 7.60 <
629 2 -4 -1 -8 86.64 122.03 16.75 o
630 2 -4 -1 -9 7.71 0.98 1.09 <
631 2 -4 -1 -10 17.78 -1.60 9.45 <
632 2 -4 -1 -11 2.35 -0.84 12.87 <
633 2 -4 0 -7 25.25 13.05 6.13 <
634 2 -4 0 -8 102.26 37.38 8.77 o
635 2 -4 0 -9 10.57 12.03 16.37 <
636 2 -4 0 -10 147.73 358.06 35.61 o
637 2 -4 0 -11 15.16 11.77 8.35 <
638 2 -4 1 -9 7.98 -1.19 3.31 <
639 2 -4 1 -10 17.80 9.15 4.38 <
640 2 -4 1 -11 2.47 8.26 8.69 <
641 2 4 1 11 2.47 6.28 2.20 <
642 2 4 2 10 38.97 79.94 17.87 o
643 2 4 3 9 6.54 10.87 3.67 <
644 2 4 5 -5 1.96 2.41 6.40 <
645 2 4 5 -4 54.31 26.39 13.70 <
646 2 4 5 -3 20.12 0.72 10.62 <
647 2 -5 -4 4 15.54 3.76 2.20 <
648 2 -5 -4 3 78.63 19.13 7.64 <
649 2 -5 -4 2 208.17 113.68 15.12 o
650 2 -5 -4 1 6.63 8.36 7.31 <
651 2 -5 -4 0 1.00 -3.25 4.97 <
652 2 -5 -4 -1 6.66 10.91 4.50 <
653 2 -5 -2 -5 13.78 5.80 2.31 <
654 3 0 -2 12 61.26 23.49 7.13 o
654 2 -5 -2 -6 61.26 23.49 7.13 o
655 2 -5 -2 -7 11.82 22.97 7.23 o
656 2 -5 -2 -8 43.60 61.06 12.00 o
657 2 -5 -1 -7 5.41 -2.46 1.87 <
658 2 -5 -1 -8 4.78 -1.77 2.35 <
659 2 -5 -1 -9 13.58 11.21 5.20 <
660 2 -5 0 -9 5.81 -12.50 10.33 <
661 3 0 -2 9 62.77 9.79 2.50 o
662 3 0 -2 10 357.11 451.52 21.99 o
663 3 0 -2 11 11.49 12.94 3.50 o
664 3 0 -2 12 61.87 56.89 11.70 o
664 2 -5 -2 -6 61.87 56.89 11.70 o
665 3 0 4 -6 195.14 77.42 6.62 o
666 3 0 5 -7 3.58 13.74 3.66 o
667 3 1 -3 6 224.78 291.56 16.13 o
668 3 -1 -2 13 43.56 129.74 15.61 o
669 3 -1 -2 12 19.81 14.03 3.94 o
670 3 -1 -2 11 41.56 28.70 5.15 o
671 3 -1 -2 10 49.27 132.76 13.26 o
672 3 -1 -2 9 17.11 41.64 6.38 o
673 3 1 -2 -1 420.05 544.82 29.71 o
674 3 1 -2 0 469.93 473.61 22.73 o
675 3 1 -2 1 343.71 330.27 18.39 o
675 1 -1 2 -1 343.71 330.27 18.39 o
676 3 1 -2 2 1802.12 1586.87 37.48 o
677 3 1 -2 3 2125.91 2066.61 41.43 o
678 3 1 -2 4 648.72 796.88 22.25 o
679 3 1 -2 5 151.10 147.45 8.35 o
680 3 -1 -1 13 15.22 27.65 10.90 <
681 3 -1 -1 12 18.33 4.97 4.20 <
682 3 -1 -1 11 60.89 92.19 15.01 o
683 3 -1 -1 10 251.09 562.71 45.14 o
684 3 -1 -1 9 257.87 506.36 31.13 o
685 3 -1 -1 8 27.37 20.13 1.65 o
686 3 -1 -1 7 186.82 173.08 14.41 o
686 1 -2 1 6 186.82 173.08 14.41 o
687 3 -1 -1 6 487.34 622.81 22.82 o
688 3 -1 -1 5 544.95 511.88 17.27 o
689 3 -1 -1 4 1608.56 1448.93 27.70 o
690 3 1 -1 -3 746.04 849.21 38.49 o
691 3 1 -1 -2 241.74 237.02 16.20 o
692 3 1 -1 -1 1513.93 2308.95 47.68 o
693 3 1 -1 0 2392.98 2116.32 39.53 o
694 3 1 -1 1 1497.61 1242.36 28.48 o
694 1 -1 1 -1 1497.61 1242.36 28.48 o
695 3 1 -1 2 239.51 241.09 12.28 o
696 3 -1 0 8 459.04 503.17 32.91 o
697 3 -1 0 7 534.56 299.05 23.46 o
697 1 -2 0 6 534.56 299.05 23.46 o
698 3 -1 0 6 51.15 33.97 5.30 o
699 3 -1 0 5 860.76 733.84 30.15 o
700 3 1 0 -5 860.76 759.03 31.51 o
701 3 1 0 -4 54.04 38.67 5.21 o
702 3 -1 0 4 54.04 42.88 6.31 o
703 3 1 0 -3 46.11 88.94 8.88 o
704 3 -1 0 3 46.11 90.24 9.24 o
705 3 1 0 -2 648.03 668.91 21.07 o
706 3 -1 0 2 648.03 649.09 20.38 o
707 3 -1 0 1 941.84 903.48 22.54 o
708 3 1 0 -1 941.84 906.74 22.44 o
709 3 1 1 -6 497.50 587.20 24.54 o
710 3 1 1 -5 566.27 506.03 19.67 o
711 3 1 1 -4 1560.06 1441.64 29.66 o
712 3 -1 1 4 1560.06 1413.30 50.48 o
713 3 -1 1 3 732.25 902.56 38.03 o
714 3 1 1 -3 732.25 869.66 21.28 o
715 3 -1 1 2 248.10 244.12 16.12 o
716 3 -1 1 1 1503.61 2313.18 47.95 o
717 3 -1 1 0 2396.01 2108.86 39.86 o
718 3 -1 1 -1 1500.72 1227.47 27.11 o
718 1 1 -1 1 1500.72 1227.47 27.11 o
719 3 1 2 -7 340.31 273.75 13.67 o
719 1 2 -2 -6 340.31 273.75 13.67 o
720 3 1 2 -6 288.48 234.07 13.72 o
721 3 1 2 -5 157.13 159.90 8.27 o
722 3 -1 2 2 1771.97 1540.15 50.94 o
723 3 -1 2 1 399.92 551.20 29.60 o
724 3 -1 2 0 469.78 472.64 23.09 o
725 3 -1 2 -1 349.44 353.22 19.65 o
725 1 1 -2 1 349.44 353.22 19.65 o
726 3 -1 2 -2 1787.27 1588.51 38.17 o
727 3 -1 2 -3 2115.45 2084.84 35.75 o
728 3 -1 3 0 258.90 173.84 16.55 o
729 3 -1 3 -1 773.26 800.42 35.35 o
729 1 1 -3 1 773.26 800.42 35.35 o
730 3 -1 3 -2 736.91 983.84 39.05 o
731 3 -1 3 -3 121.37 182.29 14.29 o
732 3 -1 3 -4 1461.16 1953.58 44.59 o
733 3 -1 3 -5 554.32 488.12 17.26 o
734 3 -1 4 -2 804.18 750.13 34.65 o
735 3 -1 4 -3 909.05 845.37 36.10 o
736 3 -1 4 -4 219.56 216.66 18.24 o
737 3 -1 4 -5 27.21 33.50 6.28 o
738 3 -1 4 -6 132.27 58.83 18.66 o
739 3 -1 5 -4 421.70 487.37 30.17 o
740 3 -1 5 -5 180.90 118.61 13.46 o
741 3 -1 5 -6 92.16 135.84 16.09 o
742 3 -1 5 -7 52.00 36.91 5.50 o
743 3 -1 6 -5 28.02 1.55 2.92 <
744 3 -1 6 -6 68.20 126.38 18.62 o
745 3 -1 6 -7 124.71 42.58 7.42 o
746 3 2 -4 1 931.13 899.23 41.64 o
747 3 2 -4 2 492.51 507.56 29.24 o
747 1 -2 4 -2 492.51 507.56 29.24 o
748 3 2 -4 3 474.13 610.73 32.76 o
749 3 2 -4 4 13.00 -1.03 3.11 <
750 3 2 -4 5 1383.68 1288.11 46.82 o
751 3 2 -4 6 2.74 17.66 24.53 <
752 3 2 -4 7 30.78 50.08 9.60 o
753 3 2 -4 8 17.30 0.95 5.04 <
754 3 2 -4 9 204.79 170.29 14.67 o
755 3 2 -4 10 6.20 -0.89 1.95 <
756 3 2 -3 -3 1725.53 2132.43 72.74 o
757 3 2 -3 -2 77.15 92.78 13.14 o
758 3 2 -3 -1 1226.97 1478.58 51.45 o
759 3 2 -3 0 47.75 44.24 18.22 <
760 3 2 -3 1 1357.66 1418.03 49.21 o
761 3 2 -3 2 44.56 44.73 6.28 o
761 1 -2 3 -2 44.56 44.73 6.28 o
762 3 2 -3 3 1993.49 2773.78 66.50 o
763 3 2 -3 4 0.98 -2.27 2.27 <
764 3 2 -3 5 44.17 14.93 4.10 o
765 3 2 -3 6 53.57 42.95 7.20 o
766 3 2 -3 7 763.33 778.35 27.33 o
767 3 2 -3 8 7.46 3.74 1.21 o
768 3 2 -3 9 69.94 72.48 6.68 o
769 3 -2 -2 12 1.23 4.54 3.22 <
770 3 -2 -2 11 167.07 218.71 14.67 o
771 3 2 -2 -5 1366.52 1479.45 62.38 o
772 3 2 -2 -4 180.41 182.04 19.39 o
773 3 2 -2 -3 80.71 65.66 10.70 o
774 3 2 -2 -2 256.53 405.59 27.50 o
775 3 2 -2 -1 1789.78 1613.77 51.10 o
776 3 2 -2 0 37.18 26.06 17.80 <
777 3 2 -2 1 1534.35 1427.44 45.57 o
778 3 2 -2 2 229.31 209.72 15.68 o
778 1 -2 2 -2 229.31 209.72 15.68 o
779 3 2 -2 3 91.38 82.75 11.11 o
780 3 2 -2 4 185.85 147.33 11.23 o
781 3 2 -2 5 1123.91 1096.38 33.02 o
782 3 -2 -1 13 39.27 79.36 13.58 o
783 3 -2 -1 12 3.37 -7.18 1.05 <
784 3 -2 -1 11 29.58 20.00 4.28 o
785 3 -2 -1 10 12.79 21.77 14.63 <
786 3 -2 -1 9 249.59 285.51 18.95 o
787 3 -2 -1 8 7.41 -2.70 4.89 <
788 3 2 -1 -7 524.89 833.62 47.93 o
789 3 -2 -1 7 524.89 804.64 32.31 o
790 3 2 -1 -6 141.52 67.95 13.84 o
790 1 1 1 -7 141.52 67.95 13.84 o
791 3 -2 -1 6 141.52 47.78 6.94 o
791 1 -1 1 7 141.52 47.78 6.94 o
792 3 2 -1 -5 219.67 224.58 19.72 o
793 3 -2 -1 5 219.67 203.40 12.85 o
794 3 2 -1 -4 40.92 28.47 5.06 o
795 3 2 -1 -3 155.11 105.69 12.07 o
796 3 2 -1 -2 506.35 569.51 29.94 o
797 3 2 -1 -1 3750.52 3408.51 68.61 o
798 3 2 -1 0 11.71 2.39 11.68 <
799 3 2 -1 1 3804.49 3239.12 60.83 o
800 3 -2 0 13 1.49 -44.81 19.28 <
801 3 -2 0 12 10.39 8.79 7.41 <
802 3 -2 0 11 144.46 111.73 19.61 o
803 3 -2 0 10 0.50 42.29 10.48 o
804 3 -2 0 9 1.34 -6.85 9.10 <
805 3 -2 0 8 102.96 67.29 10.69 o
806 3 2 0 -8 102.96 53.44 9.75 o
807 3 -2 0 7 23.40 43.43 7.52 o
808 3 2 0 -7 23.40 43.69 7.62 o
809 3 -2 0 6 487.09 471.63 28.10 o
809 1 -1 0 7 487.09 471.63 28.10 o
810 3 2 0 -6 487.09 501.02 30.78 o
810 1 1 0 -7 487.09 501.02 30.78 o
811 3 2 0 -5 1038.79 948.45 37.60 o
812 3 -2 0 5 1038.79 966.88 36.59 o
813 3 -2 0 4 193.26 107.34 10.68 o
814 3 2 0 -4 193.26 104.07 10.73 o
815 3 2 0 -3 310.92 371.34 20.29 o
816 3 -2 0 3 310.92 366.97 19.64 o
817 3 -2 0 2 2.46 0.45 2.93 <
818 3 2 0 -2 2.46 0.77 1.43 <
819 3 2 0 -1 495.59 401.76 21.36 o
820 3 -2 1 11 28.44 33.02 12.18 <
821 3 -2 1 10 12.93 4.36 6.30 <
822 3 2 1 -9 250.66 252.40 21.66 o
823 3 -2 1 9 250.66 289.13 30.52 o
824 3 -2 1 8 7.03 1.26 6.74 <
825 3 2 1 -8 7.03 -6.90 7.73 <
826 3 -2 1 7 529.18 810.80 46.02 o
827 3 2 1 -7 529.18 788.06 36.53 o
828 3 2 1 -6 138.13 42.46 8.58 o
828 1 1 -1 -7 138.13 42.46 8.58 o
829 3 -2 1 6 138.14 43.01 9.99 o
829 1 -1 -1 7 138.14 43.01 9.99 o
830 3 2 1 -5 219.74 176.64 12.89 o
831 3 -2 1 5 219.74 225.24 18.89 o
832 3 2 1 -4 41.39 32.20 5.86 o
833 3 -2 1 4 41.39 33.04 6.41 o
834 3 -2 1 3 167.27 102.33 11.49 o
835 3 -2 1 2 511.86 526.14 28.99 o
836 3 -2 1 1 3819.85 3417.09 66.89 o
837 3 -2 1 0 11.88 3.02 11.98 <
838 3 -2 1 -1 3733.20 3238.78 60.74 o
839 3 2 2 -10 1.00 4.44 2.39 <
840 3 2 2 -9 171.64 191.15 15.16 o
841 3 2 2 -8 23.87 -3.03 2.62 <
842 3 2 2 -7 57.07 120.61 10.80 o
843 3 -2 2 7 57.07 94.07 15.31 o
844 3 2 2 -6 207.67 7.70 3.48 <
844 1 1 -2 -7 207.67 7.70 3.48 <
845 3 -2 2 6 207.67 26.33 10.08 <
845 1 -1 -2 7 207.67 26.33 10.08 <
846 3 -2 2 5 1371.97 1451.37 62.79 o
847 3 -2 2 4 179.95 181.52 25.34 o
848 3 -2 2 3 80.44 79.24 13.60 o
849 3 -2 2 2 259.53 410.97 28.80 o
850 3 -2 2 1 1750.96 1576.72 51.65 o
851 3 -2 2 0 38.34 22.00 15.72 <
852 3 -2 2 -1 1570.48 1407.36 42.80 o
853 3 -2 2 -2 228.51 210.31 14.61 o
853 1 2 -2 2 228.51 210.31 14.61 o
854 3 2 3 -10 16.81 20.50 4.87 o
855 3 2 3 -9 80.65 67.18 7.61 o
856 3 2 3 -8 2.10 -2.33 2.12 <
857 3 2 3 -7 669.47 1060.31 36.47 o
858 3 -2 3 4 13.49 -0.18 0.72 <
859 3 -2 3 3 1714.78 2149.49 74.12 o
860 3 -2 3 2 78.82 100.71 13.70 o
861 3 -2 3 1 1209.15 1395.06 51.64 o
862 3 -2 3 0 48.22 48.81 17.20 <
863 3 -2 3 -1 1370.67 1374.36 49.39 o
864 3 -2 3 -2 44.61 42.28 3.70 o
864 1 2 -3 2 44.61 42.28 3.70 o
865 3 -2 3 -3 2009.06 2713.87 61.53 o
866 3 -2 3 -4 1.21 -6.11 3.47 <
867 3 2 4 -10 8.29 11.53 3.17 o
868 3 2 4 -9 227.62 172.46 11.89 o
869 3 -2 4 2 374.36 838.74 48.20 o
870 3 -2 4 1 645.99 915.03 46.43 o
871 3 -2 4 0 60.55 57.42 14.57 o
872 3 -2 4 -1 921.07 832.13 42.15 o
873 3 -2 4 -2 494.44 492.60 30.37 o
873 1 2 -4 2 494.44 492.60 30.37 o
874 3 -2 4 -3 476.53 576.86 32.31 o
875 3 -2 4 -4 13.60 6.25 4.78 <
876 3 -2 4 -5 1387.03 1342.22 41.38 o
877 3 -2 5 0 25.94 10.45 7.07 <
878 3 -2 5 -1 342.54 346.08 34.13 o
879 3 -2 5 -2 13.24 17.01 5.77 <
879 1 2 -5 2 13.24 17.01 5.77 <
880 3 -2 5 -3 551.91 802.62 41.83 o
881 3 -2 5 -4 18.76 8.01 2.83 <
882 3 -2 5 -5 2.39 6.03 3.97 <
883 3 -2 5 -6 29.96 34.40 5.64 o
884 3 -2 5 -7 300.51 292.02 17.66 o
885 3 -2 6 -2 87.26 22.15 12.30 <
885 1 2 -6 2 87.26 22.15 12.30 <
886 3 -2 6 -3 18.63 18.51 4.26 o
887 3 -2 6 -4 21.80 6.67 5.46 <
888 3 -2 6 -5 207.41 239.37 22.37 o
889 3 -2 6 -6 5.71 15.33 6.56 <
890 3 3 -5 -1 201.12 219.66 25.16 o
891 3 3 -5 0 100.21 53.03 14.44 o
892 3 3 -5 1 209.37 193.14 23.00 o
893 3 3 -5 2 5.01 9.26 8.37 <
894 3 3 -5 3 11.98 8.12 1.27 o
895 3 3 -5 4 89.98 116.56 19.15 o
896 3 3 -5 5 199.24 106.57 14.02 o
897 3 3 -5 6 69.79 55.61 10.41 o
898 3 3 -5 7 105.19 84.07 11.42 o
899 3 3 -4 -4 49.62 9.76 14.83 <
900 3 3 -4 -3 384.33 571.07 42.48 o
901 3 3 -4 -2 200.75 346.11 31.38 o
902 3 3 -4 -1 17.20 31.20 19.26 <
903 3 3 -4 0 5.60 -11.94 8.56 <
904 3 3 -4 1 7.73 16.07 17.42 <
905 3 3 -4 2 313.33 930.83 61.53 o
906 3 3 -4 3 361.54 309.14 25.44 o
907 3 3 -4 4 18.31 9.69 7.36 <
908 3 3 -4 5 3.31 11.05 7.69 <
909 3 3 -4 6 14.70 7.45 2.16 o
910 3 3 -4 7 112.03 101.55 11.82 o
911 3 3 -4 8 78.59 54.18 7.71 o
912 3 3 -4 9 72.38 46.46 8.83 o
913 3 3 -3 -7 130.62 83.28 19.16 o
914 3 3 -3 -6 107.05 159.42 28.87 o
915 3 3 -3 -5 89.40 105.36 17.93 o
916 3 3 -3 -4 198.36 170.98 21.88 o
917 3 3 -3 -3 141.93 132.86 16.72 o
918 3 3 -3 -2 37.18 11.00 4.12 <
919 3 3 -3 -1 351.37 487.36 35.58 o
920 3 3 -3 0 68.85 76.80 20.94 o
921 3 3 -3 1 321.52 383.91 29.21 o
922 3 3 -3 2 14.01 7.43 5.88 <
923 3 3 -3 3 72.79 74.80 13.50 o
924 3 3 -3 4 223.74 239.01 22.68 o
925 3 3 -3 5 130.39 114.24 14.52 o
926 3 3 -3 6 97.85 61.22 9.30 o
927 3 3 -3 7 51.91 55.29 9.08 o
928 3 3 -2 -8 62.26 55.44 13.59 o
929 3 3 -2 -7 116.30 152.92 23.46 o
930 3 3 -2 -6 4.93 15.03 8.11 <
931 3 3 -2 -5 49.74 24.14 4.99 o
932 3 3 -2 -4 57.99 68.68 15.62 o
933 3 3 -2 -3 692.70 1189.16 54.80 o
934 3 3 -2 -2 510.37 376.47 28.24 o
935 3 3 -2 -1 444.02 558.83 34.69 o
936 3 3 -2 0 306.90 274.21 26.37 o
937 3 3 -2 1 497.66 463.06 28.99 o
938 3 3 -2 2 398.79 708.55 47.60 o
939 3 3 -2 3 592.79 606.91 31.03 o
940 3 -3 -1 12 2.23 -1.57 2.10 <
941 3 -3 -1 11 27.59 47.65 8.06 o
942 3 3 -1 -10 92.43 338.45 35.82 o
943 3 -3 -1 10 92.43 246.96 21.25 o
944 3 3 -1 -9 305.03 546.77 45.29 o
945 3 -3 -1 9 305.03 565.87 30.75 o
946 3 -3 -1 8 22.41 11.90 3.37 o
947 3 3 -1 -8 22.41 7.74 1.29 o
948 3 -3 -1 7 209.75 209.77 16.66 o
949 3 3 -1 -7 209.75 194.79 22.89 o
950 3 3 -1 -6 112.31 160.32 28.94 o
951 3 3 -1 -5 676.52 803.03 42.34 o
952 3 3 -1 -4 662.88 682.02 37.83 o
953 3 3 -1 -3 188.70 321.48 25.52 o
954 3 3 -1 -2 414.26 344.81 25.94 o
955 3 3 -1 -1 1004.18 926.49 42.53 o
956 3 3 -1 0 497.20 437.08 32.68 o
957 3 -3 0 12 4.40 21.67 7.83 <
958 3 3 0 -11 79.76 71.18 16.67 o
959 3 -3 0 11 79.76 78.67 15.10 o
960 3 -3 0 10 37.33 35.48 8.68 o
961 3 3 0 -10 37.33 61.99 16.47 o
962 3 3 0 -9 25.73 15.04 7.91 <
963 3 -3 0 9 25.73 18.47 6.82 <
964 3 -3 0 8 371.09 445.04 29.91 o
965 3 3 0 -8 371.09 453.78 34.62 o
966 3 -3 0 7 665.78 789.41 41.52 o
967 3 3 0 -7 665.78 729.39 41.82 o
968 3 -3 0 6 519.96 580.11 31.54 o
969 3 3 0 -6 519.96 584.98 34.14 o
970 3 3 0 -5 8.72 7.53 5.05 <
971 3 -3 0 5 8.72 1.41 6.41 <
972 3 -3 0 4 90.51 94.54 11.27 o
973 3 3 0 -4 90.51 86.62 11.32 o
974 3 -3 0 3 1688.83 1893.20 58.47 o
975 3 3 0 -3 1688.83 1933.07 59.56 o
976 3 3 0 -2 436.52 266.91 20.97 o
977 3 -3 1 12 2.01 -13.20 14.51 <
978 3 3 1 -12 2.01 11.05 7.32 <
979 3 -3 1 11 25.24 43.18 13.29 o
980 3 3 1 -11 25.24 40.41 11.26 o
981 3 3 1 -10 94.77 275.06 26.68 o
982 3 -3 1 10 94.77 245.36 30.70 o
983 3 3 1 -9 301.24 477.67 35.52 o
984 3 -3 1 9 301.24 534.41 44.15 o
985 3 -3 1 8 23.58 -0.92 8.16 <
986 3 3 1 -8 23.58 0.82 8.41 <
987 3 -3 1 7 205.06 190.20 21.96 o
988 3 3 1 -7 205.06 181.63 17.50 o
989 3 3 1 -6 106.12 140.13 16.31 o
990 3 -3 1 6 106.12 132.73 19.57 o
991 3 -3 1 5 671.21 766.76 39.71 o
992 3 3 1 -5 671.20 723.60 33.46 o
993 3 3 1 -4 652.81 649.37 32.08 o
994 3 -3 1 4 652.81 634.04 35.22 o
995 3 -3 1 3 187.23 281.80 23.32 o
996 3 -3 1 2 412.46 322.90 22.61 o
997 3 -3 1 1 999.39 846.62 39.57 o
998 3 -3 1 0 499.96 462.39 33.38 o
999 3 -3 2 11 33.78 37.50 19.95 <
1000 3 3 2 -11 33.78 34.22 10.98 o
1001 3 3 2 -10 57.48 78.43 13.97 o
1002 3 -3 2 10 57.48 81.54 24.86 o
1003 3 3 2 -9 128.67 155.09 17.44 o
1004 3 -3 2 9 128.67 163.54 30.36 o
1005 3 -3 2 8 61.47 37.34 5.76 o
1006 3 3 2 -8 61.47 42.45 6.72 o
1007 3 3 2 -7 116.93 157.36 15.24 o
1008 3 -3 2 7 116.93 168.91 24.06 o
1009 3 3 2 -6 5.10 -2.29 6.00 <
1010 3 -3 2 6 5.10 9.56 4.28 <
1011 3 -3 2 5 50.29 25.25 6.44 o
1012 3 -3 2 4 55.58 55.51 10.64 o
1013 3 -3 2 3 686.55 1179.87 54.07 o
1014 3 -3 2 2 506.73 390.39 29.35 o
1015 3 -3 2 1 459.22 532.96 32.43 o
1016 3 -3 2 0 307.12 298.22 26.84 o
1017 3 -3 2 -1 482.84 459.22 27.21 o
1018 3 -3 2 -2 407.99 730.41 46.17 o
1019 3 3 3 -10 52.10 66.83 11.93 o
1020 3 -3 3 9 105.45 91.41 26.61 o
1021 3 3 3 -9 105.45 111.87 15.67 o
1022 3 -3 3 8 23.02 8.26 8.80 <
1023 3 3 3 -8 23.02 0.87 5.94 <
1024 3 -3 3 7 127.07 70.94 16.92 o
1025 3 -3 3 6 106.45 122.72 29.59 o
1026 3 -3 3 5 89.12 95.74 18.05 o
1027 3 -3 3 4 205.06 159.49 21.72 o
1028 3 -3 3 3 143.96 131.21 17.03 o
1029 3 -3 3 2 35.27 19.06 8.43 <
1030 3 -3 3 1 344.42 470.59 34.44 o
1031 3 -3 3 0 69.41 99.22 23.54 o
1032 3 -3 3 -1 331.77 576.59 34.60 o
1033 3 -3 3 -2 14.62 8.50 4.17 <
1034 3 -3 3 -3 73.42 81.45 11.63 o
1035 3 -3 4 6 10.77 11.60 13.01 <
1036 3 -3 4 5 0.78 1.33 3.24 <
1037 3 -3 4 4 48.97 34.76 17.16 <
1038 3 -3 4 3 383.82 594.96 44.79 o
1039 3 -3 4 2 203.33 321.83 31.46 o
1040 3 -3 4 1 14.59 9.12 9.87 <
1041 3 -3 4 0 5.22 -3.18 6.57 <
1042 3 -3 4 -1 10.31 16.15 17.72 <
1043 3 -3 4 -2 308.13 1046.53 54.92 o
1044 3 -3 4 -3 363.78 347.76 25.45 o
1045 3 -3 4 -4 17.28 9.36 1.70 o
1046 3 -3 4 -5 3.22 -0.70 2.29 <
1047 3 -3 5 4 96.52 41.32 13.18 o
1048 3 -3 5 3 22.99 21.21 11.09 <
1049 3 -3 5 2 32.25 3.12 1.73 <
1050 3 -3 5 1 203.21 183.10 23.72 o
1051 3 -3 5 0 98.62 51.02 14.07 o
1052 3 -3 5 -1 205.98 185.42 23.64 o
1053 3 -3 5 -2 4.98 8.57 5.71 <
1054 3 -3 5 -3 11.97 14.66 4.43 o
1055 3 -3 5 -4 89.91 79.65 15.89 o
1056 3 -3 5 -5 198.20 154.03 16.68 o
1057 3 -3 5 -6 68.08 82.10 9.66 o
1058 3 -3 6 1 92.01 114.01 24.58 o
1059 3 -3 6 0 5.73 23.66 13.19 <
1060 3 -3 6 -1 123.52 115.24 22.51 o
1061 3 -3 6 -2 77.22 268.50 29.49 o
1062 3 -3 6 -3 228.97 135.24 19.05 o
1063 3 -3 6 -4 23.44 29.84 6.46 o
1064 3 4 -5 -5 2.46 24.82 10.92 <
1065 3 4 -5 -4 80.91 89.16 20.19 o
1066 3 4 -5 -3 27.85 30.46 13.79 <
1067 3 4 -5 -2 97.97 80.47 14.43 o
1068 3 4 -5 -1 6.72 -20.80 14.41 <
1069 3 4 -5 0 3.27 -28.31 11.64 <
1070 3 4 -5 1 2.82 -21.68 7.71 <
1071 3 4 -5 2 119.09 63.15 13.22 o
1072 3 4 -5 3 27.27 8.87 7.50 <
1073 3 4 -5 4 82.84 58.63 15.62 o
1074 3 4 -5 5 8.38 5.74 6.35 <
1075 3 4 -4 -8 31.32 18.07 8.40 <
1076 3 4 -4 -7 26.44 52.00 18.83 <
1077 3 4 -4 -6 187.71 289.94 36.21 o
1078 3 4 -4 -5 17.84 21.31 8.88 <
1079 3 4 -4 -4 77.35 86.89 18.65 o
1080 3 4 -4 -3 10.92 3.21 4.25 <
1081 3 4 -4 -2 7.99 -4.63 5.75 <
1082 3 4 -4 -1 26.15 -10.01 15.41 <
1083 3 4 -4 0 127.72 67.88 13.83 o
1084 3 4 -4 1 1.08 5.19 3.37 <
1085 3 4 -4 2 11.62 -5.36 6.73 <
1086 3 4 -4 3 9.02 1.49 5.47 <
1087 3 4 -4 4 61.06 38.44 11.51 o
1088 3 4 -4 5 13.90 14.16 4.35 o
1089 3 4 -4 6 233.78 247.30 24.80 o
1090 3 4 -4 7 13.34 12.11 6.83 <
1091 3 4 -3 -9 12.94 5.99 3.50 <
1092 3 4 -3 -8 52.85 22.07 6.63 o
1093 3 4 -3 -7 14.44 37.65 16.94 <
1094 3 4 -3 -6 32.38 73.62 17.93 o
1095 3 4 -3 -5 26.93 40.62 15.24 <
1096 3 4 -3 -4 171.64 276.98 31.74 o
1097 3 4 -3 -3 45.96 49.46 13.30 o
1098 3 4 -3 -2 378.39 367.59 34.18 o
1099 3 4 -3 -1 51.54 1.58 7.34 <
1100 3 4 -3 0 15.28 -28.21 14.23 <
1101 3 4 -3 1 19.42 -10.13 13.86 <
1102 3 4 -3 2 405.76 343.89 28.61 o
1103 3 4 -3 3 36.18 19.80 3.07 o
1104 3 4 -3 4 182.60 181.72 22.06 o
1105 3 4 -3 5 24.51 17.96 7.97 <
1106 3 4 -2 -10 100.57 79.12 19.14 o
1107 3 4 -2 -9 8.85 21.12 12.62 <
1108 3 4 -2 -8 5.13 -33.19 17.14 <
1109 3 4 -2 -7 3.33 6.47 6.03 <
1110 3 4 -2 -6 160.70 174.29 24.43 o
1111 3 4 -2 -5 11.89 9.88 2.19 o
1112 3 4 -2 -4 134.22 231.00 27.62 o
1113 3 4 -2 -3 62.78 26.36 9.13 <
1114 3 4 -2 -2 116.23 117.55 19.12 o
1115 3 4 -2 -1 92.36 43.10 16.51 <
1116 3 4 -2 0 1846.37 1572.25 65.95 o
1117 3 4 -2 1 107.70 266.81 32.92 o
1118 3 4 -2 2 142.07 86.57 10.95 o
1119 3 4 -1 -11 12.11 1.20 1.87 <
1120 3 -4 -1 11 12.11 6.98 5.78 <
1121 3 -4 -1 10 15.07 14.52 3.35 o
1122 3 4 -1 -10 15.07 41.22 14.96 <
1123 3 4 -1 -9 6.08 -11.56 8.19 <
1124 3 -4 -1 9 6.08 -8.80 9.39 <
1125 3 4 -1 -8 125.62 148.44 21.60 o
1126 3 4 -1 -7 14.54 19.00 7.50 <
1127 3 4 -1 -6 533.73 638.67 49.58 o
1128 3 4 -1 -5 19.69 19.87 1.56 o
1129 3 4 -1 -4 484.60 705.07 45.82 o
1130 3 4 -1 -3 112.62 32.59 6.89 o
1131 3 4 -1 -2 485.11 410.58 31.78 o
1132 3 4 -1 -1 44.22 21.15 4.84 o
1133 3 4 0 -11 7.30 15.01 7.22 <
1134 3 -4 0 11 7.30 13.89 5.04 <
1135 3 4 0 -10 286.96 458.68 40.76 o
1136 3 -4 0 10 286.96 528.50 37.95 o
1137 3 4 0 -9 15.19 -3.09 10.16 <
1138 3 -4 0 9 15.19 12.05 3.64 o
1139 3 -4 0 8 76.21 68.95 14.71 o
1140 3 4 0 -8 76.21 40.50 5.48 o
1141 3 -4 0 7 9.19 7.76 4.39 <
1142 3 4 0 -7 9.19 18.59 14.83 <
1143 3 -4 0 6 451.17 387.72 29.73 o
1144 3 4 0 -6 451.17 378.81 30.23 o
1145 3 -4 0 5 81.39 48.72 6.28 o
1146 3 4 0 -5 81.39 44.83 9.75 o
1147 3 4 0 -4 793.13 1367.00 59.21 o
1148 3 4 0 -3 278.53 128.30 15.91 o
1149 3 4 1 -11 11.92 3.96 9.67 <
1150 3 -4 1 11 11.92 1.27 4.55 <
1151 3 -4 1 10 15.09 15.02 3.68 o
1152 3 4 1 -10 15.09 8.47 4.53 <
1153 3 4 1 -9 5.74 13.57 10.04 <
1154 3 -4 1 9 5.74 -1.08 7.11 <
1155 3 4 1 -8 129.57 148.56 19.45 o
1156 3 -4 1 8 129.57 187.28 24.51 o
1157 3 -4 1 7 15.15 30.59 11.08 <
1158 3 4 1 -7 15.15 20.29 6.29 o
1159 3 -4 1 6 534.42 555.90 41.20 o
1160 3 4 1 -6 534.42 578.39 37.73 o
1161 3 4 1 -5 19.57 30.72 10.23 o
1162 3 -4 1 5 19.57 17.16 6.12 <
1163 3 -4 1 4 490.98 644.35 40.91 o
1164 3 -4 1 3 115.40 35.90 6.75 o
1165 3 -4 1 2 486.42 489.65 32.29 o
1166 3 -4 2 10 103.58 85.83 20.91 o
1167 3 4 2 -10 103.58 79.05 15.23 o
1168 3 -4 2 9 8.57 5.44 7.46 <
1169 3 4 2 -9 8.57 7.09 1.61 o
1170 3 -4 2 8 5.90 -21.27 14.30 <
1171 3 4 2 -8 5.90 -14.42 10.20 <
1172 3 4 2 -7 3.10 1.96 4.84 <
1173 3 -4 2 7 3.10 10.31 2.43 o
1174 3 -4 2 6 163.41 166.16 23.91 o
1175 3 -4 2 5 12.70 7.56 8.40 <
1176 3 -4 2 4 127.88 172.50 22.67 o
1177 3 -4 2 3 61.59 22.07 7.82 <
1178 3 -4 2 2 120.19 129.92 18.37 o
1179 3 -4 2 1 92.21 45.01 13.50 o
1180 3 -4 2 0 1845.53 1649.65 61.40 o
1181 3 -4 2 -1 107.45 222.03 30.77 o
1182 3 -4 3 9 12.95 6.51 4.31 <
1183 3 4 3 -9 12.95 -5.01 9.50 <
1184 3 -4 3 8 53.70 16.59 11.01 <
1185 3 -4 3 7 15.01 22.10 8.13 <
1186 3 -4 3 6 29.59 30.08 13.61 <
1187 3 -4 3 5 27.00 34.57 13.54 <
1188 3 -4 3 4 175.90 261.77 30.12 o
1189 3 -4 3 3 43.90 39.60 13.23 <
1190 3 -4 3 2 384.05 366.09 31.70 o
1191 3 -4 3 1 50.00 8.39 6.49 <
1192 3 -4 3 0 15.14 -28.81 14.96 <
1193 3 -4 3 -1 19.64 8.28 10.05 <
1194 3 -4 3 -2 404.84 404.89 27.97 o
1195 3 -4 4 8 31.08 24.72 10.12 <
1196 3 -4 4 7 27.01 39.55 19.53 <
1197 3 -4 4 6 189.24 267.52 36.32 o
1198 3 -4 4 5 17.22 6.12 2.79 <
1199 3 -4 4 4 77.70 65.87 17.54 o
1200 3 -4 4 3 10.54 10.60 6.14 <
1201 3 -4 4 2 7.39 11.73 7.86 <
1202 3 -4 4 1 25.34 3.38 2.54 <
1203 3 -4 4 0 129.10 67.80 13.83 o
1204 3 -4 4 -1 1.24 8.84 3.38 <
1205 3 -4 4 -2 12.89 3.66 4.22 <
1206 3 -4 4 -3 8.98 15.17 7.43 <
1207 3 -4 4 -4 60.21 69.80 13.21 o
1208 3 -4 5 5 2.83 11.72 10.58 <
1209 3 -4 5 4 78.52 78.14 15.36 o
1210 3 -4 5 3 29.08 27.12 11.69 <
1211 3 -4 5 2 94.23 85.70 20.94 o
1212 3 -4 5 1 7.26 2.37 7.19 <
1213 3 -4 5 0 3.19 -6.21 5.85 <
1214 3 -4 5 -1 2.90 147.21 34.87 o
1215 3 -4 5 -2 121.82 78.88 14.70 o
1216 3 -4 5 -3 26.22 14.63 6.70 <
1217 3 -4 5 -4 87.46 91.41 15.47 o
1218 3 -4 5 -5 7.75 16.12 9.72 <
1219 3 5 -4 -4 22.46 29.24 9.94 <
1220 3 5 -4 -3 113.67 121.49 26.27 o
1221 3 5 -4 -2 300.95 227.49 31.10 o
1222 3 5 -4 -1 9.58 -7.23 15.17 <
1223 3 5 -4 0 1.45 -20.70 13.28 <
1224 3 5 -4 1 9.63 13.57 8.65 <
1225 3 5 -4 2 192.69 221.51 26.80 o
1226 3 5 -4 3 73.96 68.72 16.54 o
1227 3 5 -4 4 13.84 16.87 7.07 <
1228 3 5 -3 -7 22.56 11.39 9.60 <
1229 3 5 -3 -6 177.96 147.35 26.35 o
1229 2 0 -3 12 177.96 147.35 26.35 o
1230 3 5 -3 -5 29.49 38.34 15.11 <
1231 3 5 -3 -4 150.88 146.68 25.18 o
1232 3 5 -3 -3 64.04 53.90 11.37 o
1233 3 5 -3 -2 52.77 28.18 13.00 <
1234 3 5 -3 -1 44.01 14.61 6.09 <
1235 3 5 -3 0 254.44 220.77 27.67 o
1236 3 5 -3 1 32.25 48.14 13.13 o
1237 3 5 -3 2 24.90 -6.01 9.38 <
1238 3 5 -3 3 74.90 51.07 11.51 o
1239 3 5 -3 4 129.59 126.75 19.58 o
1240 3 5 -2 -8 114.10 132.07 24.73 o
1241 3 5 -2 -7 35.73 34.88 11.71 <
1242 3 5 -2 -6 31.53 26.45 7.39 o
1242 2 0 -2 12 31.53 26.45 7.39 o
1243 3 5 -2 -5 16.73 17.05 7.44 <
1244 3 5 -2 -4 35.72 35.70 11.77 o
1245 3 5 -2 -3 55.36 13.27 7.32 <
1246 3 5 -2 -2 155.47 171.45 21.49 o
1247 3 5 -2 -1 18.45 11.86 2.13 o
1248 3 5 -2 0 6.02 4.04 1.02 o
1249 3 5 -2 1 28.07 21.71 10.36 <
1250 3 5 -1 -9 26.65 17.53 11.06 <
1251 3 5 -1 -8 7.81 -3.65 8.43 <
1252 3 5 -1 -7 10.77 13.65 11.35 <
1253 3 5 -1 -6 169.46 81.09 20.47 o
1253 2 0 -1 12 169.46 81.09 20.47 o
1254 3 5 -1 -5 46.68 47.67 14.82 o
1255 3 5 -1 -4 163.59 124.58 19.45 o
1256 3 5 -1 -3 0.19 7.23 8.59 <
1257 3 5 -1 -2 73.10 52.55 13.31 o
1258 3 -5 0 9 2.10 6.53 4.89 <
1259 3 5 0 -9 2.10 -4.05 3.97 <
1260 3 -5 0 8 45.55 60.05 14.35 o
1261 3 5 0 -8 45.55 74.08 19.00 o
1262 3 5 0 -7 14.64 7.48 2.14 o
1263 3 -5 0 7 14.64 3.14 3.99 <
1264 3 -5 0 6 7.09 -13.05 10.99 <
1264 2 0 0 -12 7.09 -13.05 10.99 <
1265 3 5 0 -6 7.09 -11.31 8.36 <
1265 2 0 0 12 7.09 -11.31 8.36 <
1266 3 5 0 -5 6.85 4.48 3.39 <
1267 3 5 0 -4 62.92 64.80 13.61 o
1268 3 5 1 -9 27.99 0.35 9.29 <
1269 3 -5 1 9 27.99 17.19 8.39 <
1270 3 -5 1 8 8.37 11.49 10.25 <
1271 3 5 1 -8 8.37 -7.39 8.88 <
1272 3 -5 1 7 10.72 13.21 8.45 <
1273 3 5 1 -7 10.72 11.66 9.03 <
1274 3 -5 1 6 170.01 66.05 16.37 o
1274 2 0 1 -12 170.01 66.05 16.37 o
1275 3 -5 1 5 44.79 40.58 10.52 o
1276 3 -5 1 4 163.25 155.54 20.25 o
1277 3 -5 1 3 0.13 -0.51 2.53 <
1278 3 -5 2 8 114.12 121.68 22.94 o
1279 3 -5 2 7 34.77 32.81 14.05 <
1280 3 -5 2 6 31.88 25.27 6.67 o
1280 2 0 2 -12 31.88 25.27 6.67 o
1281 3 -5 2 5 16.42 24.36 3.87 o
1282 3 -5 2 4 38.66 25.94 5.88 o
1283 3 -5 2 3 56.83 44.05 13.02 o
1284 3 -5 2 2 158.08 210.15 23.92 o
1285 3 -5 2 1 18.39 8.67 12.07 <
1286 3 -5 3 7 23.32 5.81 4.49 <
1287 3 -5 3 6 180.80 143.33 26.33 o
1287 2 0 3 -12 180.80 143.33 26.33 o
1288 3 -5 3 5 27.66 32.92 11.49 <
1289 3 -5 3 4 147.27 157.82 24.32 o
1290 3 -5 3 3 63.51 69.24 16.32 o
1291 3 -5 3 2 52.36 19.76 7.31 <
1292 3 -5 3 1 45.05 27.54 9.09 o
1293 3 -5 3 0 254.27 265.98 26.31 o
1294 3 -5 3 -1 31.42 64.86 16.70 o
1295 3 -5 4 4 21.93 21.97 4.37 o
1296 3 -5 4 3 114.09 66.93 13.19 o
1297 3 -5 4 2 297.95 268.32 29.95 o
1298 3 -5 4 1 9.64 6.72 20.71 <
1299 3 -5 4 0 1.34 -3.43 8.92 <
1300 3 -5 4 -1 9.57 5.40 5.77 <
1301 3 -5 4 -2 194.06 294.20 27.43 o
1302 3 -5 4 -3 74.32 115.11 18.84 o
1303 3 6 -3 -2 10.02 3.44 5.99 <
1304 3 6 -3 -1 85.91 97.46 23.62 o
1305 3 6 -3 0 2.11 14.64 11.44 <
1306 3 6 -3 1 99.22 78.45 20.65 o
1307 3 6 -3 2 6.63 78.14 22.71 o
1308 3 6 -2 -4 5.18 55.47 19.95 <
1309 3 6 -2 -3 15.23 14.93 5.03 <
1310 3 6 -2 -2 13.99 31.18 15.24 <
1311 3 6 -2 -1 24.43 146.06 50.09 <
1312 3 6 -1 -5 14.21 1.23 6.55 <
1313 3 6 -1 -4 23.10 12.59 7.06 <
1314 3 6 -1 -3 45.02 65.59 17.41 o
1315 3 6 0 -6 0.02 -4.41 6.48 <
1316 3 -6 1 5 14.21 19.40 11.24 <
1317 3 -6 2 4 4.89 44.60 16.43 <
1318 3 -6 2 3 16.19 19.51 3.67 o
1319 3 -6 2 2 13.64 19.93 11.57 <
1320 3 -6 3 2 10.64 -3.17 10.36 <
1321 3 -6 3 1 88.40 109.29 16.60 o
1322 3 -6 3 0 2.19 26.25 14.68 <
1323 1 0 -5 -6 25.06 14.19 17.31 <
1324 1 0 -5 -7 2.23 12.10 12.58 <
1325 1 0 -5 -8 53.44 33.30 19.65 <
1326 1 0 -5 -9 4.72 2.69 5.65 <
1327 1 0 -4 -4 174.32 282.06 43.31 o
1328 1 0 -4 -5 14.92 16.09 19.08 <
1329 1 0 -4 -6 120.75 129.75 31.82 o
1330 1 0 -4 -7 13.42 117.81 33.99 o
1331 1 0 -4 -8 3.25 10.54 11.68 <
1332 1 0 -4 -9 3.86 -4.11 8.34 <
1333 1 0 -4 -10 89.63 36.69 16.90 <
1334 1 0 -4 -11 0.94 11.70 18.74 <
1335 1 0 -3 -3 322.70 726.78 66.52 o
1336 1 0 -3 -4 375.60 493.22 50.14 o
1337 1 0 -3 -5 29.57 36.62 39.52 <
1338 1 0 -3 -6 125.85 122.60 25.18 o
1339 1 0 -3 -7 8.59 18.47 9.85 <
1340 1 0 -3 -8 114.08 83.68 27.15 o
1341 1 0 -3 -9 1.54 0.88 5.39 <
1342 1 0 -3 -10 9.30 6.31 6.18 <
1343 1 0 -3 -11 1.67 -3.69 8.10 <
1344 1 0 -3 -12 89.37 82.82 34.18 <
1345 1 0 -2 -2 199.93 431.56 37.79 o
1346 1 0 -2 -3 59.04 50.56 22.78 <
1347 1 0 -2 -4 946.97 869.64 58.67 o
1348 1 0 -2 -5 222.05 213.59 30.07 o
1349 1 0 -2 -6 959.79 1003.14 72.12 o
1350 1 0 -2 -7 9.31 224.39 45.94 o
1351 1 0 -2 -8 163.04 137.21 31.06 o
1352 1 0 -2 -9 38.02 11.24 10.86 <
1353 1 0 -2 -10 216.29 193.01 44.47 o
1354 1 0 -2 -11 6.96 -3.45 6.80 <
1355 1 0 -2 -12 9.25 12.66 12.08 <
1356 1 0 -2 -13 0.61 -4.16 13.22 <
1357 1 0 -1 -1 12.54 19.82 4.88 o
1358 1 0 -1 -2 3258.10 3484.05 83.02 o
1359 1 0 -1 -3 209.40 245.12 25.21 o
1360 1 0 -1 -4 942.05 1079.02 61.69 o
1361 1 0 -1 -5 108.16 106.83 20.32 o
1362 1 0 -1 -6 1159.44 1063.50 74.66 o
1363 1 0 -1 -7 5.16 67.06 25.01 <
1364 1 0 -1 -8 574.22 548.80 67.61 o
1365 1 0 -1 -9 54.62 17.21 16.86 <
1366 1 0 -1 -10 0.52 -2.46 7.05 <
1367 1 0 -1 -11 3.68 4.35 7.28 <
1368 1 0 -1 -12 114.41 58.67 26.07 <
1369 1 0 -1 -13 15.54 -1.65 15.69 <
1370 1 0 0 -2 395.07 317.48 23.57 o
1371 1 0 0 2 395.07 309.81 22.46 o
1372 1 0 0 3 1.64 0.41 5.54 <
1373 1 0 0 -3 1.64 2.15 7.46 <
1374 1 0 0 4 149.62 95.82 21.89 o
1375 1 0 0 -4 149.62 112.08 24.12 o
1376 1 0 0 5 5.30 -0.19 3.43 <
1377 1 0 0 -5 5.30 0.30 1.93 <
1378 1 0 0 6 881.76 643.89 65.02 o
1379 1 0 0 -6 881.76 617.00 65.22 o
1380 1 0 0 7 2.13 585.15 70.37 o
1381 1 0 0 8 137.06 28.20 14.71 <
1382 1 0 0 9 1.39 7.21 18.18 <
1383 1 0 0 10 297.80 109.48 33.93 o
1384 1 0 0 11 0.01 2.27 10.09 <
1385 1 0 1 1 12.38 18.28 5.08 o
1386 1 0 1 2 3257.50 3481.37 81.08 o
1387 1 0 1 3 209.41 246.23 24.70 o
1388 1 0 1 4 943.76 1090.11 60.35 o
1389 1 0 1 5 108.20 100.99 17.89 o
1390 1 0 1 6 1158.89 1047.48 71.13 o
1391 1 0 1 7 5.17 93.44 28.91 o
1392 1 0 1 8 573.43 522.62 62.73 o
1393 1 0 1 9 54.61 9.45 9.06 <
1394 1 0 1 10 0.52 -0.28 3.45 <
1395 1 0 1 11 3.69 9.77 11.59 <
1396 1 0 1 12 114.31 51.36 26.53 <
1397 1 0 1 13 15.54 4.57 4.88 <
1398 1 0 2 3 58.44 50.20 23.38 <
1399 1 0 2 4 949.80 876.12 57.20 o
1400 1 0 2 5 222.09 222.10 29.42 o
1401 1 0 2 6 962.17 1038.28 69.46 o
1402 1 0 2 7 9.25 226.32 41.38 o
1403 1 0 2 8 162.87 128.93 28.50 o
1404 1 0 2 9 37.95 2.77 5.05 <
1405 1 0 2 10 215.98 185.70 38.27 o
1406 1 0 2 11 6.95 -5.30 10.25 <
1407 1 0 2 12 9.40 8.97 12.54 <
1408 1 0 2 13 0.59 1.52 12.77 <
1409 1 0 3 4 378.57 502.57 50.54 o
1410 1 0 3 5 29.05 36.54 39.70 <
1411 1 0 3 6 125.93 144.28 27.98 o
1412 1 0 3 7 8.61 22.93 10.90 <
1413 1 0 3 8 115.00 87.41 24.08 o
1414 1 0 3 9 1.43 -1.86 3.33 <
1415 1 0 3 10 9.30 1.72 7.73 <
1416 1 0 3 11 1.59 -7.98 10.48 <
1417 1 0 3 12 89.87 61.01 26.81 <
1418 1 0 4 6 118.19 150.37 32.02 o
1419 1 0 4 7 13.12 134.35 31.89 o
1420 1 0 4 8 3.42 11.47 10.74 <
1421 1 0 4 9 3.89 -1.29 5.11 <
1422 1 0 4 10 90.65 30.49 13.82 <
1423 1 0 4 11 0.86 4.24 6.83 <
1424 1 0 5 8 52.80 32.52 23.19 <
1425 1 0 5 9 4.84 -3.45 10.46 <
1426 1 -1 -6 -5 16.61 32.10 19.66 <
1427 1 -1 -6 -6 41.05 73.39 34.38 <
1428 1 -1 -6 -7 73.66 39.09 22.00 <
1429 1 1 -5 -9 50.82 68.60 30.71 <
1430 1 1 -5 -8 33.57 13.13 12.75 <
1431 1 -1 -5 -3 151.84 395.88 50.07 o
1432 1 -1 -5 -4 258.68 506.76 64.72 o
1433 1 -1 -5 -5 106.39 121.78 31.11 o
1434 1 -1 -5 -6 55.34 49.22 23.69 <
1435 1 -1 -5 -7 31.86 28.89 16.64 <
1436 1 -1 -5 -8 17.64 15.16 10.58 <
1437 1 -1 -5 -9 55.45 44.98 23.60 <
1438 1 1 -4 -11 12.73 13.81 11.92 <
1439 1 1 -4 -10 31.81 23.83 17.87 <
1440 1 1 -4 -9 19.92 8.19 6.86 <
1441 1 1 -4 -8 97.52 39.41 16.13 <
1442 3 2 4 -6 77.41 49.64 19.54 <
1442 1 1 -4 -7 77.41 49.64 19.54 <
1443 1 -1 -4 -2 490.69 877.33 70.03 o
1444 1 -1 -4 -3 549.41 827.41 66.96 o
1445 1 -1 -4 -4 131.68 184.18 33.32 o
1446 1 -1 -4 -5 16.25 24.87 14.96 <
1447 1 -1 -4 -6 83.40 56.34 37.83 <
1448 1 -1 -4 -7 48.17 40.08 16.42 <
1449 1 -1 -4 -8 45.97 33.76 17.57 <
1450 1 -1 -4 -9 23.70 -1.54 14.52 <
1451 1 -1 -4 -10 14.70 13.50 14.53 <
1452 1 -1 -4 -11 10.88 6.91 6.70 <
1453 1 1 -3 -12 17.37 7.36 17.39 <
1454 1 1 -3 -11 20.38 44.52 25.26 <
1455 1 1 -3 -10 93.28 47.53 22.12 <
1456 1 1 -3 -9 155.25 107.03 30.34 o
1457 1 1 -3 -8 6.49 7.47 11.42 <
1458 3 2 3 -6 143.35 76.26 24.21 o
1458 1 1 -3 -7 143.35 76.26 24.21 o
1459 1 1 -3 -6 160.05 324.14 46.67 o
1460 1 1 -3 -5 440.82 390.45 54.93 o
1461 3 1 3 1 773.26 773.34 55.49 o
1461 1 -1 -3 -1 773.26 773.34 55.49 o
1462 1 -1 -3 -2 448.63 808.47 55.69 o
1463 1 -1 -3 -3 70.59 159.93 24.78 o
1464 1 -1 -3 -4 887.47 1502.76 87.76 o
1465 1 -1 -3 -5 339.61 391.88 44.91 o
1466 1 -1 -3 -6 136.14 208.32 37.80 o
1467 1 -1 -3 -7 71.32 49.53 16.64 <
1468 1 -1 -3 -8 0.59 4.12 8.05 <
1469 1 -1 -3 -9 115.03 75.28 26.48 <
1470 1 -1 -3 -10 74.16 48.35 25.04 <
1471 1 -1 -3 -11 40.59 23.19 14.53 <
1472 1 -1 -3 -12 11.22 20.32 21.01 <
1473 1 1 -2 -13 26.38 31.23 26.27 <
1474 1 1 -2 -12 12.00 3.07 5.02 <
1475 1 1 -2 -11 25.17 19.40 14.65 <
1476 1 1 -2 -10 29.84 17.06 13.54 <
1477 1 1 -2 -9 10.36 13.00 11.99 <
1478 1 1 -2 -8 432.60 352.81 48.23 o
1479 3 2 2 -6 207.89 231.20 36.39 o
1479 1 1 -2 -7 207.89 231.20 36.39 o
1480 1 1 -2 -6 180.14 330.89 45.74 o
1481 1 1 -2 -5 94.48 125.66 24.27 o
1482 1 1 -2 -4 385.11 587.08 56.75 o
1483 1 -1 -2 0 284.62 369.51 28.49 o
1484 3 1 2 1 349.44 255.24 23.88 o
1484 1 -1 -2 -1 349.44 255.24 23.88 o
1485 1 -1 -2 -2 1091.46 1273.63 58.61 o
1486 1 -1 -2 -3 1287.57 1781.32 77.33 o
1487 1 -1 -2 -4 392.90 623.13 52.01 o
1488 1 -1 -2 -5 91.52 116.78 22.65 o
1489 1 -1 -2 -6 143.73 267.60 44.74 o
1490 1 -1 -2 -7 222.93 216.42 39.53 o
1491 1 -1 -2 -8 382.89 276.70 46.43 o
1492 1 -1 -2 -9 11.97 -1.83 3.93 <
1493 1 -1 -2 -10 27.12 14.36 9.26 <
1494 1 -1 -2 -11 24.71 4.74 5.57 <
1495 1 -1 -2 -12 11.73 3.88 11.22 <
1496 1 -1 -2 -13 33.68 36.06 22.54 <
1497 1 1 -1 -13 9.22 1.10 11.17 <
1498 1 1 -1 -12 11.10 15.87 16.98 <
1499 1 -1 -1 12 11.10 13.10 20.35 <
1500 1 -1 -1 11 36.88 10.44 12.55 <
1501 1 1 -1 -11 36.88 27.18 20.49 <
1502 1 1 -1 -10 152.07 106.67 30.42 o
1503 1 -1 -1 10 152.07 44.80 20.98 <
1504 1 1 -1 -9 156.18 132.82 31.14 o
1505 1 -1 -1 9 156.18 60.00 24.05 <
1506 1 1 -1 -8 16.57 7.76 9.35 <
1507 1 -1 -1 8 16.57 3.30 5.85 <
1508 3 -2 1 6 138.49 63.75 20.41 o
1508 1 -1 -1 7 138.49 63.75 20.41 o
1509 3 2 1 -6 138.48 109.46 23.35 o
1509 1 1 -1 -7 138.48 109.46 23.35 o
1510 1 1 -1 -6 295.16 530.77 51.14 o
1511 1 -1 -1 6 295.16 426.36 50.25 o
1512 1 -1 -1 5 330.05 282.47 32.68 o
1513 1 1 -1 -5 330.05 337.61 35.37 o
1514 1 1 -1 -4 974.23 1006.70 62.78 o
1515 1 -1 -1 4 974.23 1035.83 51.48 o
1516 1 -1 -1 3 451.84 642.64 32.69 o
1517 1 1 -1 -3 451.85 617.65 48.19 o
1518 3 1 1 1 1500.71 1133.87 42.93 o
1518 1 -1 -1 -1 1500.71 1133.87 42.93 o
1519 1 -1 -1 -2 145.06 181.54 21.88 o
1520 1 -1 -1 -3 415.64 383.31 37.14 o
1521 1 -1 -1 -4 1010.91 1317.22 83.60 o
1522 1 -1 -1 -5 491.53 364.22 45.08 o
1523 1 -1 -1 -6 343.08 506.98 65.31 o
1524 1 -1 -1 -7 155.01 102.25 27.63 o
1525 1 -1 0 13 30.87 10.70 9.75 <
1526 1 -1 0 12 47.36 5.65 7.37 <
1527 1 1 0 -12 47.36 13.62 13.45 <
1528 1 1 0 -11 9.93 12.73 14.11 <
1529 1 -1 0 11 9.93 7.61 8.43 <
1530 1 1 0 -10 42.87 21.68 9.73 <
1531 1 -1 0 10 42.87 10.20 6.11 <
1532 1 1 0 -9 292.23 235.07 47.25 o
1533 1 -1 0 9 292.23 186.38 36.80 o
1534 1 -1 0 8 278.02 227.66 35.00 o
1535 1 1 0 -8 278.02 241.90 39.34 o
1536 3 -2 0 6 487.99 141.56 25.62 o
1536 1 -1 0 7 487.99 141.56 25.62 o
1537 3 2 0 -6 487.99 150.62 32.96 o
1537 1 1 0 -7 487.99 150.62 32.96 o
1538 1 -1 0 6 30.98 58.79 15.01 o
1539 1 1 0 -6 30.98 51.87 15.36 o
1540 1 -1 0 5 521.32 466.48 38.06 o
1541 1 1 0 -5 521.32 471.12 42.04 o
1542 1 -1 0 4 32.73 30.92 7.88 o
1543 1 1 0 -4 32.73 30.44 8.50 o
1544 1 -1 0 3 27.93 53.20 9.64 o
1545 1 1 0 -3 27.93 47.13 9.99 o
1546 1 -1 0 2 392.48 351.90 27.08 o
1547 1 1 0 -2 392.48 350.90 25.12 o
1548 1 -1 1 13 9.56 7.11 11.55 <
1549 1 -1 1 12 11.19 6.91 13.12 <
1550 1 -1 1 11 35.42 30.38 19.26 <
1551 1 -1 1 10 158.41 100.99 26.93 o
1552 1 -1 1 9 151.57 114.34 27.10 o
1553 1 -1 1 8 16.94 8.84 7.13 <
1554 3 -2 -1 6 141.88 122.19 22.77 o
1554 1 -1 1 7 141.88 122.19 22.77 o
1555 1 -1 1 6 301.31 526.84 48.92 o
1556 1 -1 1 5 342.96 352.29 35.32 o
1557 1 -1 1 4 944.86 1021.86 65.80 o
1558 1 -1 1 3 443.49 604.98 47.06 o
1559 3 -1 -1 -1 1497.61 1122.02 41.02 o
1559 1 1 1 1 1497.61 1122.02 41.02 o
1560 1 1 1 2 141.02 176.88 21.16 o
1561 1 1 1 3 423.71 396.71 37.13 o
1562 1 1 1 4 1042.44 1317.47 80.79 o
1563 1 1 1 5 476.12 352.94 42.13 o
1564 1 1 1 6 339.63 498.80 62.66 o
1565 1 1 1 7 151.43 91.14 25.97 o
1566 1 1 1 8 35.83 7.19 3.55 <
1567 1 1 1 9 135.26 79.03 29.31 <
1568 1 1 1 10 150.03 53.81 26.45 <
1569 1 1 1 11 22.30 11.02 12.93 <
1570 1 -1 2 13 28.02 11.92 12.11 <
1571 1 -1 2 12 13.76 3.00 7.40 <
1572 1 -1 2 11 24.81 14.19 14.15 <
1573 1 -1 2 10 29.73 13.67 6.48 <
1574 1 -1 2 9 10.12 9.21 8.77 <
1575 1 -1 2 8 436.95 347.27 44.49 o
1576 3 -2 -2 6 209.81 220.84 35.65 o
1576 1 -1 2 7 209.81 220.84 35.65 o
1577 1 -1 2 6 174.72 343.97 44.87 o
1578 1 -1 2 5 95.17 141.83 26.98 o
1579 1 -1 2 4 395.50 593.60 55.02 o
1580 3 -1 -2 -1 343.71 287.92 27.10 o
1580 1 1 2 1 343.71 287.92 27.10 o
1581 1 1 2 2 1082.47 1280.12 55.94 o
1582 1 1 2 3 1281.24 1772.21 72.89 o
1583 1 1 2 4 382.33 605.71 48.27 o
1584 1 1 2 5 91.08 119.76 21.83 o
1585 1 1 2 6 149.64 228.04 36.94 o
1586 1 1 2 7 220.23 184.37 31.29 o
1587 1 1 2 8 379.21 264.90 43.84 o
1588 1 1 2 9 10.65 3.60 3.83 <
1589 1 1 2 10 27.29 7.44 5.14 <
1590 1 1 2 11 24.98 5.01 4.40 <
1591 1 1 2 12 10.98 21.04 21.97 <
1592 1 1 2 13 32.05 26.70 19.06 <
1593 1 -1 3 12 17.87 6.55 12.61 <
1594 1 -1 3 11 21.82 37.63 23.94 <
1595 1 -1 3 10 94.01 43.27 19.53 <
1596 1 -1 3 9 157.85 124.00 32.81 o
1597 1 -1 3 8 6.34 8.55 7.46 <
1598 3 -2 -3 6 143.30 75.47 21.45 o
1598 1 -1 3 7 143.30 75.47 21.45 o
1599 1 -1 3 6 161.62 308.21 46.51 o
1600 1 1 3 2 446.32 839.15 58.31 o
1601 1 1 3 3 73.51 183.08 27.32 o
1602 1 1 3 4 884.96 1518.93 82.05 o
1603 1 1 3 5 335.73 417.87 44.28 o
1604 1 1 3 6 132.21 203.65 32.41 o
1605 1 1 3 7 70.98 65.03 19.51 o
1606 1 1 3 8 0.42 10.63 12.42 <
1607 1 1 3 9 114.03 65.04 21.42 o
1608 1 1 3 10 73.35 20.57 11.89 <
1609 1 1 3 11 38.22 29.22 17.97 <
1610 1 1 3 12 10.82 14.97 14.73 <
1611 1 -1 4 11 12.63 13.10 12.45 <
1612 1 -1 4 10 32.27 39.51 24.43 <
1613 1 -1 4 9 20.22 16.67 14.98 <
1614 1 -1 4 8 95.76 68.18 25.37 <
1615 1 1 4 4 132.98 200.04 34.00 o
1616 1 1 4 5 16.48 27.87 12.79 <
1617 1 1 4 6 80.11 62.43 38.34 <
1618 1 1 4 7 47.28 96.07 28.91 o
1619 1 1 4 8 45.67 40.68 24.71 <
1620 1 1 4 9 23.62 4.89 6.41 <
1621 1 1 4 10 14.36 11.93 14.40 <
1622 1 1 4 11 11.15 1.65 9.09 <
1623 1 1 5 6 55.82 51.72 20.76 <
1624 1 1 5 7 31.50 33.10 17.52 <
1625 1 1 5 8 17.74 25.86 17.89 <
1626 1 1 5 9 55.71 44.96 21.77 <
1627 3 2 6 2 87.26 27.22 13.26 <
1627 1 -2 -6 -2 87.26 27.22 13.26 <
1628 1 -2 -6 -3 12.45 23.52 14.64 <
1629 1 -2 -6 -4 13.96 11.96 18.79 <
1630 1 -2 -6 -5 127.01 190.73 41.93 o
1631 1 -2 -6 -6 3.57 16.05 12.74 <
1632 1 -2 -5 -1 208.71 314.19 40.19 o
1633 3 2 5 2 13.24 14.26 5.39 <
1633 1 -2 -5 -2 13.24 14.26 5.39 <
1634 1 -2 -5 -3 336.65 633.16 61.57 o
1635 1 -2 -5 -4 10.95 3.66 7.72 <
1636 1 -2 -5 -5 1.45 5.44 7.13 <
1637 1 -2 -5 -6 18.49 24.92 16.43 <
1638 1 -2 -5 -7 180.39 177.79 45.60 o
1639 1 -2 -5 -8 1.23 9.08 11.00 <
1640 1 -2 -5 -9 19.46 32.31 22.09 <
1641 1 2 -4 -10 5.04 -8.26 10.93 <
1642 1 2 -4 -9 138.34 145.74 50.02 <
1643 1 -2 -4 0 37.13 57.25 18.28 o
1644 1 -2 -4 -1 563.94 680.07 49.24 o
1645 3 2 4 2 494.44 370.30 36.14 o
1645 1 -2 -4 -2 494.44 370.30 36.14 o
1646 1 -2 -4 -3 287.16 389.93 42.50 o
1647 1 -2 -4 -4 7.88 0.85 6.09 <
1648 1 -2 -4 -5 838.03 835.38 78.78 o
1649 1 -2 -4 -6 1.66 8.03 10.36 <
1650 1 -2 -4 -7 18.64 18.82 15.44 <
1651 1 -2 -4 -8 10.48 2.44 6.25 <
1652 1 -2 -4 -9 124.03 97.84 32.72 <
1653 1 -2 -4 -10 3.75 -1.91 7.11 <
1654 1 2 -3 -11 82.17 54.72 23.51 <
1655 1 2 -3 -10 10.44 7.78 8.79 <
1656 1 2 -3 -9 52.10 48.05 20.52 <
1657 1 2 -3 -8 1.24 -2.29 3.19 <
1658 1 2 -3 -7 406.57 358.72 58.66 o
1659 1 -2 -3 1 743.12 713.74 40.00 o
1660 1 -2 -3 0 28.92 35.30 13.72 <
1661 1 -2 -3 -1 822.28 863.57 46.63 o
1662 3 2 3 2 44.61 28.77 8.67 o
1662 1 -2 -3 -2 44.61 28.77 8.67 o
1663 1 -2 -3 -3 1207.37 1921.44 95.02 o
1664 1 -2 -3 -4 0.59 -0.26 3.02 <
1665 1 -2 -3 -5 26.75 17.56 9.26 <
1666 1 -2 -3 -6 32.45 19.68 10.92 <
1667 1 -2 -3 -7 462.31 568.86 72.78 o
1668 1 -2 -3 -8 4.52 -6.04 12.94 <
1669 1 -2 -3 -9 42.36 39.35 22.00 <
1670 1 -2 -3 -10 13.37 -4.03 3.96 <
1671 1 -2 -3 -11 58.42 58.92 28.71 <
1672 1 -2 -2 12 0.74 8.51 11.81 <
1673 1 2 -2 -12 0.74 -0.24 7.91 <
1674 1 2 -2 -11 101.18 77.75 28.78 <
1675 1 -2 -2 11 101.18 16.31 15.32 <
1676 1 2 -2 -10 0.59 -0.68 6.25 <
1677 1 -2 -2 10 0.59 -1.20 3.48 <
1678 1 -2 -2 9 104.39 30.03 18.54 <
1679 1 2 -2 -9 104.39 128.04 30.63 o
1680 1 -2 -2 8 14.66 -0.79 2.82 <
1681 1 2 -2 -8 14.66 6.46 7.21 <
1682 1 2 -2 -7 37.01 49.03 12.78 o
1683 1 -2 -2 7 37.01 27.55 5.99 o
1684 3 1 2 -7 339.97 14.98 12.17 <
1684 1 2 -2 -6 339.97 14.98 12.17 <
1685 3 -1 2 7 339.97 9.39 8.03 <
1685 1 -2 -2 6 339.97 9.39 8.03 <
1686 1 -2 -2 5 827.64 660.65 41.13 o
1687 1 -2 -2 4 109.26 83.06 10.87 o
1688 3 2 2 2 228.51 152.26 21.15 o
1688 1 -2 -2 -2 228.51 152.26 21.15 o
1689 1 -2 -2 -3 55.34 71.69 18.27 o
1690 1 -2 -2 -4 112.56 106.49 23.16 o
1691 1 -2 -2 -5 680.70 962.88 79.46 o
1692 1 -2 -2 -6 1.33 45.06 22.10 <
1693 1 -2 -1 13 23.79 6.21 9.57 <
1694 1 2 -1 -13 23.79 11.89 10.82 <
1695 1 -2 -1 12 2.04 5.86 10.60 <
1696 1 2 -1 -12 2.04 8.36 8.48 <
1697 1 -2 -1 11 17.92 7.17 12.23 <
1698 1 2 -1 -11 17.92 21.01 16.22 <
1699 1 -2 -1 10 7.75 -0.86 7.61 <
1700 1 2 -1 -10 7.75 -5.01 4.97 <
1701 1 2 -1 -9 151.16 117.54 26.33 o
1702 1 -2 -1 9 151.16 65.35 19.51 o
1703 1 -2 -1 8 4.49 -1.74 6.67 <
1704 1 2 -1 -8 4.49 3.60 4.69 <
1705 1 -2 -1 7 317.90 272.14 34.68 o
1706 1 2 -1 -7 317.90 375.80 44.94 o
1707 3 1 1 -7 191.14 30.17 12.45 <
1707 1 2 -1 -6 191.14 30.17 12.45 <
1708 3 -1 1 7 191.14 24.91 8.93 <
1708 1 -2 -1 6 191.14 24.91 8.93 <
1709 1 2 -1 -5 133.05 146.32 25.32 o
1710 1 -2 -1 5 133.05 117.52 18.82 o
1711 1 -2 -1 4 24.78 16.48 4.69 o
1712 1 2 0 -13 0.90 -3.46 3.53 <
1713 1 -2 0 13 0.90 -0.70 7.21 <
1714 1 2 0 -12 6.29 2.69 5.58 <
1715 1 -2 0 12 6.29 1.27 6.65 <
1716 1 2 0 -11 87.50 14.14 10.13 <
1717 1 -2 0 11 87.50 16.21 11.56 <
1718 1 2 0 -10 0.30 7.81 11.28 <
1719 1 -2 0 10 0.30 1.25 4.78 <
1720 1 2 0 -9 0.81 -8.55 11.52 <
1721 1 -2 0 9 0.81 -1.68 6.61 <
1722 1 -2 0 8 62.36 31.91 9.77 o
1723 1 2 0 -8 62.36 44.89 23.37 <
1724 1 -2 0 7 14.17 16.72 3.36 o
1725 1 2 0 -7 14.17 13.65 0.89 o
1726 3 -1 0 7 533.81 252.55 32.21 o
1726 1 -2 0 6 533.81 252.55 32.21 o
1727 3 1 0 -7 533.81 276.61 33.46 o
1727 1 2 0 -6 533.81 276.61 33.46 o
1728 1 -2 0 5 629.15 508.71 47.67 o
1729 1 2 0 -5 629.15 557.34 41.28 o
1730 1 2 0 -4 117.05 63.96 11.85 o
1731 1 2 0 -3 188.31 83.93 17.10 o
1732 1 -2 1 13 22.88 10.22 12.51 <
1733 1 -2 1 12 1.94 3.92 9.99 <
1734 1 -2 1 11 17.22 14.08 14.32 <
1735 1 2 1 -10 7.83 -0.86 7.41 <
1736 1 -2 1 10 7.83 4.19 7.37 <
1737 1 -2 1 9 151.81 121.13 25.59 o
1738 1 2 1 -9 151.81 82.52 27.74 <
1739 1 2 1 -8 4.26 -2.37 7.90 <
1740 1 -2 1 8 4.26 4.31 3.82 <
1741 1 -2 1 7 320.50 415.40 51.16 o
1742 1 2 1 -7 320.50 249.33 44.63 o
1743 3 1 -1 -7 186.40 27.19 12.28 <
1743 1 2 1 -6 186.40 27.19 12.28 <
1744 3 -1 -1 7 186.40 44.82 17.34 <
1744 1 -2 1 6 186.40 44.82 17.34 <
1745 1 2 1 -5 133.09 160.85 22.66 o
1746 1 2 1 -4 25.07 20.82 6.17 o
1747 1 2 1 -3 101.31 70.99 8.59 o
1748 1 -2 2 12 0.79 2.45 9.82 <
1749 1 -2 2 11 101.58 90.29 28.84 o
1750 1 -2 2 10 0.61 -5.25 13.27 <
1751 1 -2 2 9 103.95 134.08 32.40 o
1752 1 -2 2 8 14.46 -0.48 3.00 <
1753 1 -2 2 7 34.57 54.23 16.99 o
1754 1 2 2 1 951.17 954.48 43.11 o
1755 3 -2 -2 -2 229.31 153.35 20.35 o
1755 1 2 2 2 229.31 153.35 20.35 o
1756 1 2 2 3 56.34 65.19 16.34 o
1757 1 2 2 4 113.15 108.30 21.36 o
1758 1 2 2 5 675.40 902.80 75.70 o
1759 1 2 2 6 1.46 24.30 17.14 <
1760 1 2 2 7 50.89 37.75 15.63 <
1761 1 2 2 8 18.10 -0.15 1.74 <
1762 1 2 2 9 112.26 78.03 29.12 <
1763 1 2 2 10 4.20 -8.72 13.30 <
1764 1 2 2 11 113.26 57.78 27.91 <
1765 1 -2 3 11 81.15 55.09 21.94 <
1766 1 -2 3 10 10.18 8.39 9.90 <
1767 1 -2 3 9 48.84 62.14 27.47 <
1768 1 2 3 1 830.15 820.43 52.78 o
1769 3 -2 -3 -2 44.56 34.40 7.53 o
1769 1 2 3 2 44.56 34.40 7.53 o
1770 1 2 3 3 1216.80 1903.24 85.06 o
1771 1 2 3 4 0.74 -2.36 4.62 <
1772 1 2 3 5 26.74 13.59 1.89 o
1773 1 2 3 6 32.31 18.24 10.73 <
1774 1 2 3 7 460.42 646.63 69.06 o
1775 1 2 3 8 4.43 0.68 2.59 <
1776 1 2 3 9 45.00 28.17 16.03 <
1777 1 2 3 10 13.75 2.98 7.02 <
1778 1 2 3 11 59.03 36.55 22.37 <
1779 1 2 4 3 288.61 423.01 44.01 o
1780 1 2 4 4 8.24 0.54 4.86 <
1781 1 2 4 5 840.06 902.09 69.82 o
1782 1 2 4 6 1.45 8.21 7.49 <
1783 1 2 4 7 19.87 19.71 13.24 <
1784 1 2 4 8 10.74 2.69 9.34 <
1785 1 2 4 9 124.23 64.64 22.38 <
1786 1 2 4 10 3.82 -12.21 14.07 <
1787 1 2 5 4 11.36 12.20 5.22 <
1788 1 2 5 5 1.45 8.58 12.11 <
1789 1 2 5 6 18.15 14.64 11.34 <
1790 1 2 5 7 182.01 183.88 41.40 o
1791 1 2 5 8 1.13 14.65 15.45 <
1792 1 2 5 9 18.66 32.85 20.25 <
1793 1 2 6 6 3.46 12.68 11.54 <
1794 1 -3 -6 1 57.35 143.62 28.38 o
1795 1 -3 -6 0 3.04 37.41 15.31 <
1796 1 -3 -6 -1 72.37 136.04 26.96 o
1797 1 -3 -6 -2 46.31 120.32 25.64 o
1798 1 -3 -6 -3 139.88 83.98 22.23 o
1799 1 -3 -6 -4 13.85 16.66 9.17 <
1800 1 -3 -5 2 19.17 -0.57 1.37 <
1801 1 -3 -5 1 121.81 129.16 20.50 o
1802 1 -3 -5 0 60.69 67.00 17.68 o
1803 1 -3 -5 -1 126.81 129.97 21.70 o
1804 1 -3 -5 -2 3.03 -0.96 5.03 <
1805 1 -3 -5 -3 7.25 6.87 7.33 <
1806 1 -3 -5 -4 54.50 46.94 20.53 <
1807 1 -3 -5 -5 120.67 59.43 20.14 <
1808 1 -3 -5 -6 42.27 27.83 18.23 <
1809 1 -3 -5 -7 63.71 43.31 24.20 <
1810 1 -3 -4 1 10.42 97.58 21.92 o
1811 1 -3 -4 0 3.39 -3.81 3.31 <
1812 1 -3 -4 -1 4.68 36.24 19.76 <
1813 1 -3 -4 -2 189.77 195.94 59.52 o
1814 1 -3 -4 -3 218.97 147.74 25.51 o
1815 1 -3 -4 -4 11.09 9.02 8.64 <
1816 1 -3 -4 -5 2.00 1.82 6.94 <
1817 1 -3 -4 -6 8.90 3.33 8.27 <
1818 1 -3 -4 -7 67.85 60.34 24.75 <
1819 1 -3 -4 -8 47.60 32.80 19.80 <
1820 1 -3 -4 -9 43.84 29.12 18.79 <
1821 1 3 -3 -11 49.27 66.35 29.97 <
1822 1 -3 -3 11 49.27 26.18 18.02 <
1823 1 3 -3 -10 33.09 33.78 22.94 <
1824 1 -3 -3 10 33.09 10.15 8.49 <
1825 1 -3 -3 9 63.27 20.67 11.69 <
1826 1 -3 -3 8 14.07 -1.69 8.77 <
1827 1 -3 -3 7 79.11 17.34 8.60 <
1828 1 -3 -3 6 64.83 21.84 10.21 <
1829 1 -3 -3 5 54.14 13.67 4.50 o
1830 1 -3 -2 11 21.06 11.54 15.18 <
1831 1 3 -2 -11 21.06 28.95 25.69 <
1832 1 -3 -2 10 35.06 13.37 11.76 <
1833 1 3 -2 -10 35.06 25.50 17.47 <
1834 1 3 -2 -9 80.67 96.40 29.71 o
1835 1 -3 -2 9 80.67 38.53 14.18 <
1836 1 -3 -2 8 37.71 16.30 6.39 <
1837 1 3 -2 -8 37.71 45.56 17.95 <
1838 1 -3 -2 7 70.44 64.19 20.30 o
1839 1 -3 -2 6 2.99 4.66 2.64 <
1840 1 3 -1 -12 1.35 -0.48 3.88 <
1841 1 -3 -1 12 1.35 -4.60 9.99 <
1842 1 3 -1 -11 16.71 29.76 20.00 <
1843 1 -3 -1 11 16.71 17.37 16.26 <
1844 1 -3 -1 10 55.98 33.58 17.71 <
1845 1 3 -1 -10 55.98 67.70 24.67 <
1846 1 -3 -1 9 184.74 225.94 44.64 o
1847 1 3 -1 -9 184.74 316.60 47.18 o
1848 1 -3 -1 8 13.57 5.81 5.76 <
1849 1 3 -1 -8 13.57 13.37 6.18 <
1850 1 3 -1 -7 127.04 129.34 26.68 o
1851 1 -3 -1 7 127.04 113.55 20.98 o
1852 1 3 -1 -6 68.02 37.52 25.63 <
1853 1 -3 -1 6 68.02 87.46 23.95 o
1854 1 3 0 -12 2.67 1.36 1.70 <
1855 1 -3 0 12 2.67 2.42 5.05 <
1856 1 -3 0 11 48.31 16.76 14.96 <
1857 1 3 0 -11 48.31 28.11 18.58 <
1858 1 -3 0 10 22.61 10.12 10.97 <
1859 1 3 0 -10 22.61 9.49 11.05 <
1860 1 -3 0 9 15.58 8.30 7.29 <
1861 1 3 0 -9 15.58 6.04 1.26 o
1862 1 -3 0 8 224.75 277.22 38.30 o
1863 1 3 0 -8 224.75 245.20 34.83 o
1864 1 -3 0 7 403.23 472.92 50.47 o
1865 1 3 0 -7 403.23 438.09 43.07 o
1866 1 3 0 -6 314.92 369.63 37.06 o
1867 1 3 0 -5 5.28 1.85 6.81 <
1868 1 3 1 -12 1.22 -5.56 13.69 <
1869 1 -3 1 12 1.22 -1.30 9.66 <
1870 1 3 1 -11 15.29 12.87 16.12 <
1871 1 -3 1 11 15.29 22.28 20.96 <
1872 1 -3 1 10 57.40 88.18 29.15 o
1873 1 3 1 -10 57.40 35.76 20.68 <
1874 1 -3 1 9 182.45 312.06 52.95 o
1875 1 3 1 -9 182.45 208.19 46.33 o
1876 1 -3 1 8 14.28 27.06 4.41 o
1877 1 3 1 -8 14.28 3.40 5.90 <
1878 1 3 1 -7 124.20 91.40 20.21 o
1879 1 3 1 -6 64.27 90.09 20.49 o
1880 1 3 1 -5 406.52 497.68 34.42 o
1881 1 3 1 -4 395.38 508.32 35.75 o
1882 1 -3 2 11 20.46 18.47 18.32 <
1883 1 -3 2 10 34.81 28.98 23.45 <
1884 1 3 3 0 42.04 36.10 12.45 <
1885 1 3 3 1 200.94 169.11 21.49 o
1886 1 3 3 2 8.85 3.53 2.81 <
1887 1 3 3 3 44.47 49.88 12.69 o
1888 1 3 3 4 132.19 110.71 25.57 o
1889 1 3 3 5 79.01 41.14 16.65 <
1890 1 3 3 6 60.96 27.42 12.86 <
1891 1 3 3 7 32.83 21.34 10.59 <
1892 1 3 3 8 13.13 5.31 7.89 <
1893 1 3 3 9 43.54 23.94 14.75 <
1894 1 3 3 10 22.55 22.97 20.84 <
1895 1 3 3 11 35.49 56.07 35.34 <
1896 1 3 4 2 186.62 261.51 43.28 o
1897 1 3 4 3 220.33 158.14 23.34 o
1898 1 3 4 4 10.46 6.93 7.87 <
1899 1 3 4 5 1.95 0.49 4.77 <
1900 1 3 4 6 7.88 1.50 3.24 <
1901 1 3 4 7 67.56 38.49 17.72 <
1902 1 3 4 8 47.71 20.40 12.03 <
1903 1 3 4 9 43.09 18.24 11.43 <
1904 1 3 5 3 7.25 9.70 5.67 <
1905 1 3 5 4 54.45 37.62 11.81 o
1906 1 3 5 5 120.04 56.52 17.49 o
1907 1 3 5 6 41.23 21.16 11.10 <
1908 1 3 5 7 62.86 30.23 14.28 <
1909 1 -4 -4 7 16.01 9.05 4.23 <
1910 1 -4 -3 9 7.83 4.41 2.47 <
1911 1 -4 -3 8 32.01 8.28 5.69 <
1912 1 -4 -2 10 60.91 19.03 12.59 <
1913 1 4 -2 -10 60.91 28.76 20.11 <
1914 1 -4 -2 9 5.36 7.74 6.76 <
1915 1 4 -1 -11 7.33 4.31 10.26 <
1916 1 -4 -1 11 7.33 9.89 16.59 <
1917 1 -4 -1 10 9.12 5.40 7.87 <
1918 1 4 -1 -10 9.12 6.74 5.74 <
1919 1 4 -1 -9 3.68 -5.86 8.91 <
1920 1 -4 -1 9 3.68 -1.18 4.90 <
1921 1 4 -1 -8 76.08 42.51 17.48 <
1922 1 4 0 -11 4.42 7.68 11.94 <
1923 1 -4 0 11 4.42 3.73 6.48 <
1924 1 4 0 -10 173.80 235.32 43.06 o
1925 1 4 0 -9 9.20 8.95 23.69 <
1926 1 4 0 -8 46.15 33.09 7.89 o
1927 1 4 0 -7 5.56 9.79 7.56 <
1928 1 4 0 -6 273.25 46.90 20.94 <
1929 1 4 1 -11 7.22 12.49 10.80 <
1930 1 4 1 -10 9.14 5.56 8.87 <
1931 1 4 1 -9 3.48 -4.64 10.00 <
1932 1 4 1 -8 78.48 89.36 20.07 o
1933 1 4 1 -7 9.17 15.49 7.26 <
1934 1 4 1 -6 323.68 376.86 37.41 o
1935 1 4 1 -5 11.85 12.29 8.23 <
1936 1 4 2 -9 5.19 3.64 7.87 <
1937 1 4 2 -8 3.57 -6.76 8.65 <
1938 1 4 2 -7 1.88 -1.35 3.98 <
1939 1 4 2 -6 98.97 96.88 17.27 o
1940 1 4 2 -5 7.69 5.96 2.42 <
1941 1 4 2 -4 77.45 34.49 9.20 o
1942 1 4 3 0 9.17 -4.85 6.10 <
1943 1 4 3 1 11.89 -3.48 8.28 <
1944 1 4 3 2 245.20 124.44 26.18 o
1945 1 4 3 3 23.00 2.50 6.76 <
1946 1 4 3 4 106.18 51.00 22.95 <
1947 1 4 3 5 14.66 13.80 11.97 <
1948 1 4 4 0 78.19 27.51 10.23 <
1949 1 4 4 1 0.75 0.69 2.51 <
1950 1 4 4 2 7.81 2.57 1.84 <
1951 1 4 4 3 5.44 -8.63 9.68 <
1952 1 4 4 4 36.47 12.21 6.64 <
1953 1 4 4 5 8.52 -0.78 5.35 <
1954 1 4 4 6 141.99 90.03 28.57 o
1955 1 4 4 7 7.97 13.45 9.00 <
1956 1 4 5 2 73.78 25.94 10.68 <
1957 1 4 5 3 15.88 0.83 4.92 <
1958 1 4 5 4 52.97 24.38 12.25 <
1959 1 4 5 5 4.69 1.00 5.66 <
1960 1 5 0 -9 1.27 -4.72 12.61 <
1961 1 5 0 -8 27.59 10.24 16.03 <
1962 1 5 1 -9 16.95 8.66 8.43 <
1963 1 5 1 -8 5.07 -1.69 3.55 <
1964 1 5 1 -7 6.49 -0.36 3.76 <
1965 1 5 1 -6 24.40 5.60 11.03 <
1966 1 5 2 -8 69.12 58.21 17.48 o
1967 1 5 2 -7 21.06 22.50 8.94 <
1968 1 5 2 -6 12.87 17.62 7.33 <
1969 1 5 2 -5 9.94 3.47 3.14 <
1970 1 5 4 0 0.81 0.00 1.84 <
1971 1 5 4 1 5.79 5.32 7.31 <
1972 1 5 4 2 117.53 38.81 11.93 o
1973 1 5 4 3 45.01 4.94 2.73 <
1974 1 5 4 4 8.28 4.25 2.33 <
