#------------------------------------------------------------------------------
#$Date: 2019-11-17 09:34:59 +0200 (Sun, 17 Nov 2019) $
#$Revision: 229133 $
#$URL: file:///home/coder/svn-repositories/cod/cif/7/23/14/7231464.cif $
#------------------------------------------------------------------------------
#
# This file is available in the Crystallography Open Database (COD),
# http://www.crystallography.net/
#
# All data on this site have been placed in the public domain by the
# contributors.
#
data_7231464
loop_
_publ_author_name
'Hutchins, Kristin M.'
'Unruh, Daniel K.'
'Carpenter, Dontrell D.'
'Groeneman, Ryan H.'
_publ_section_title
;
 Thermal expansion along one-dimensional chains and two-dimensional sheets
 within co-crystals based on halogen or hydrogen bonds
;
_journal_issue                   45
_journal_name_full               CrystEngComm
_journal_page_first              7232
_journal_paper_doi               10.1039/C8CE01090K
_journal_volume                  20
_journal_year                    2018
_chemical_formula_sum            'C18 H10 Br4 N2'
_chemical_formula_weight         573.92
_space_group_IT_number           2
_space_group_name_Hall           '-P 1'
_space_group_name_H-M_alt        'P -1'
_symmetry_cell_setting           triclinic
_symmetry_Int_Tables_number      2
_symmetry_space_group_name_Hall  '-P 1'
_symmetry_space_group_name_H-M   'P -1'
_atom_sites_solution_hydrogens   geom
_atom_sites_solution_primary     dual
_atom_sites_solution_secondary   difmap
_audit_creation_date             2018-04-23T11:02:57-00:00
_audit_creation_method           'WinGX routine CIF_UPDATE'
_audit_update_record
;
2018-06-18 deposited with the CCDC.
2018-08-30 downloaded from the CCDC.
;
_cell_angle_alpha                72.763(2)
_cell_angle_beta                 85.794(2)
_cell_angle_gamma                83.955(2)
_cell_formula_units_Z            2
_cell_length_a                   3.9366(3)
_cell_length_b                   13.2445(10)
_cell_length_c                   18.2177(16)
_cell_measurement_reflns_used    4480
_cell_measurement_temperature    209(2)
_cell_measurement_theta_max      28.12
_cell_measurement_theta_min      2.26
_cell_volume                     901.25(13)
_computing_cell_refinement       'Bruker SAINT'
_computing_data_collection       'Bruker APEX2'
_computing_data_reduction        'Bruker SAINT'
_computing_structure_refinement  'SHELXL-2016/6 (Sheldrick, 2016)'
_computing_structure_solution    'SHELXT 2014/5 (Sheldrick, 2014)'
_diffrn_ambient_temperature      209(2)
_diffrn_measured_fraction_theta_full 0.997
_diffrn_measured_fraction_theta_max 0.994
_diffrn_measurement_device_type  'Bruker APEX-II CCD'
_diffrn_measurement_method       '\f and \w scans'
_diffrn_radiation_monochromator  graphite
_diffrn_radiation_source         'fine-focus sealed tube'
_diffrn_radiation_type           MoK\a
_diffrn_radiation_wavelength     0.71073
_diffrn_reflns_av_R_equivalents  0.0865
_diffrn_reflns_av_unetI/netI     0.0736
_diffrn_reflns_Laue_measured_fraction_full 0.997
_diffrn_reflns_Laue_measured_fraction_max 0.994
_diffrn_reflns_limit_h_max       3
_diffrn_reflns_limit_h_min       -5
_diffrn_reflns_limit_k_max       17
_diffrn_reflns_limit_k_min       -17
_diffrn_reflns_limit_l_max       24
_diffrn_reflns_limit_l_min       -24
_diffrn_reflns_number            10293
_diffrn_reflns_point_group_measured_fraction_full 0.997
_diffrn_reflns_point_group_measured_fraction_max 0.994
_diffrn_reflns_theta_full        25.242
_diffrn_reflns_theta_max         28.337
_diffrn_reflns_theta_min         1.616
_exptl_absorpt_coefficient_mu    8.933
_exptl_absorpt_correction_T_max  0.1256
_exptl_absorpt_correction_T_min  0.0679
_exptl_absorpt_correction_type   multi-scan
_exptl_absorpt_process_details   SADABS
_exptl_crystal_colour            colourless
_exptl_crystal_density_diffrn    2.115
_exptl_crystal_description       rod
_exptl_crystal_F_000             544
_exptl_crystal_size_max          0.498
_exptl_crystal_size_mid          0.221
_exptl_crystal_size_min          0.092
_refine_diff_density_max         1.471
_refine_diff_density_min         -2.15
_refine_diff_density_rms         0.23
_refine_ls_extinction_method     none
_refine_ls_goodness_of_fit_ref   0.994
_refine_ls_hydrogen_treatment    constr
_refine_ls_matrix_type           full
_refine_ls_number_parameters     217
_refine_ls_number_reflns         4471
_refine_ls_number_restraints     0
_refine_ls_restrained_S_all      0.994
_refine_ls_R_factor_all          0.0664
_refine_ls_R_factor_gt           0.0527
_refine_ls_shift/su_max          0.001
_refine_ls_shift/su_mean         0
_refine_ls_structure_factor_coef Fsqd
_refine_ls_weighting_details
'w=1/[\s^2^(Fo^2^)+(0.0718P)^2^] where P=(Fo^2^+2Fc^2^)/3'
_refine_ls_weighting_scheme      calc
_refine_ls_wR_factor_gt          0.1264
_refine_ls_wR_factor_ref         0.1303
_reflns_number_gt                3312
_reflns_number_total             4471
_reflns_threshold_expression     'I > 2\s(I)'
_cod_data_source_file            c8ce01090k2.cif
_cod_data_source_block           TBrB_BPA_210k
_cod_depositor_comments
'Adding full bibliography for 7231456--7231470.cif.'
_cod_database_code               7231464
_shelx_estimated_absorpt_t_min   0.095
_shelx_estimated_absorpt_t_max   0.494
_shelx_res_file
;
TITL r3518-210K in P-1
    r3518-210K.res
    created by SHELXL-2016/6 at 09:25:31 on 23-Apr-2018
CELL 0.71073   3.93660  13.24450  18.21770  72.7628  85.7942  83.9551
ZERR    2.00   0.00030   0.00100   0.00160   0.0022   0.0022   0.0020
LATT  1
SFAC  C H N BR
UNIT  36 20 4 8
ACTA
LIST 4
MERG  2
FMAP  2
PLAN  20
L.S.  10
TEMP  -64.010
SIZE  0.092 0.221 0.498
HTAB
BOND  $H
OMIT 0 0 1
OMIT 0 2 2
WGHT    0.071800
FVAR       0.38421
BR1   4    0.843418    0.805658    0.137688    11.00000    0.04502    0.02599 =
         0.03788   -0.00071   -0.01066    0.00567
BR2   4    0.710631    0.771662   -0.033450    11.00000    0.05248    0.02312 =
         0.05083   -0.01781   -0.00113    0.00538
BR3   4    0.273906    0.277856    0.481488    11.00000    0.04236    0.02470 =
         0.04659   -0.01517   -0.00595   -0.00548
BR4   4    0.289437    0.315999    0.656184    11.00000    0.04662    0.02906 =
         0.03422   -0.00410    0.00102   -0.00646
N1    3    0.118987   -0.039350    0.769236    11.00000    0.05276    0.04531 =
         0.03702   -0.01257   -0.00564   -0.01315
N2    3    0.262375    0.453074    0.264498    11.00000    0.04861    0.03566 =
         0.03315   -0.01108   -0.00998    0.00271
C1    1    0.262114   -0.111118    0.736283    11.00000    0.04883    0.03331 =
         0.04613   -0.00547   -0.01269   -0.00206
AFIX  43
H1    2    0.388279   -0.170833    0.767190    11.00000   -1.20000
AFIX   0
C2    1    0.238548   -0.104155    0.659686    11.00000    0.04248    0.02920 =
         0.04392   -0.01202   -0.00653   -0.00128
AFIX  43
H2    2    0.346824   -0.157488    0.639492    11.00000   -1.20000
AFIX   0
C3    1    0.052534   -0.017189    0.613154    11.00000    0.03155    0.03269 =
         0.03860   -0.01092   -0.00561   -0.01016
C4    1   -0.100730    0.059103    0.647137    11.00000    0.03345    0.03305 =
         0.04158   -0.01367   -0.00597   -0.00516
AFIX  43
H4    2   -0.229141    0.119559    0.617757    11.00000   -1.20000
AFIX   0
C5    1   -0.061504    0.044676    0.723600    11.00000    0.04344    0.03749 =
         0.03936   -0.01698   -0.00140   -0.00540
AFIX  43
H5    2   -0.166983    0.096582    0.745560    11.00000   -1.20000
AFIX   0
C6    1    0.017817   -0.005847    0.533332    11.00000    0.03741    0.03104 =
         0.04216   -0.01409   -0.00192   -0.00501
C7    1    0.561448    1.014674    0.070064    11.00000    0.03392    0.02180 =
         0.02806   -0.00741   -0.00337    0.00146
AFIX  43
H7    2    0.605105    1.024696    0.117352    11.00000   -1.20000
AFIX   0
C8    1    0.646935    0.916873    0.057256    11.00000    0.02862    0.01988 =
         0.02827   -0.00223   -0.00440   -0.00019
C9    1    0.589174    0.902187   -0.012581    11.00000    0.02892    0.02230 =
         0.03640   -0.01375    0.00023   -0.00207
C10   1    0.124979    0.377314    0.243045    11.00000    0.05013    0.02521 =
         0.03914   -0.00518   -0.00403    0.00109
AFIX  43
H10   2    0.078473    0.314558    0.281519    11.00000   -1.20000
AFIX   0
C11   1    0.048848    0.385615    0.169195    11.00000    0.04092    0.02342 =
         0.03951   -0.01233   -0.00321   -0.00223
AFIX  43
H11   2   -0.048228    0.330195    0.158124    11.00000   -1.20000
AFIX   0
C12   1    0.116767    0.476738    0.111037    11.00000    0.02972    0.02636 =
         0.03392   -0.01404   -0.00499    0.00447
C13   1    0.260557    0.556944    0.131525    11.00000    0.04387    0.02326 =
         0.03719   -0.00945   -0.00452    0.00182
AFIX  43
H13   2    0.309863    0.620342    0.094075    11.00000   -1.20000
AFIX   0
C14   1    0.327526    0.540809    0.207346    11.00000    0.04646    0.03580 =
         0.04763   -0.02239   -0.01184   -0.00212
AFIX  43
H14   2    0.425531    0.594796    0.220089    11.00000   -1.20000
AFIX   0
C15   1    0.034408    0.492928    0.032266    11.00000    0.03297    0.02463 =
         0.03724   -0.01406   -0.00107    0.00436
C16   1    0.491962    0.484892    0.427394    11.00000    0.03532    0.02596 =
         0.02804   -0.01076   -0.01005    0.00403
AFIX  43
H16   2    0.485162    0.474373    0.378728    11.00000   -1.20000
AFIX   0
C17   1    0.402815    0.406087    0.493678    11.00000    0.02358    0.02134 =
         0.03763   -0.01128   -0.00815   -0.00053
C18   1    0.409163    0.420979    0.565906    11.00000    0.02734    0.01982 =
         0.03019   -0.00380   -0.00205    0.00337
HKLF    4




REM  r3518-210K in P-1
REM R1 =  0.0527 for    3312 Fo > 4sig(Fo)  and  0.0664 for all    4471 data
REM    217 parameters refined using      0 restraints

END

WGHT      0.0719      0.0000

REM Instructions for potential hydrogen bonds
EQIV $4 -x+1, -y+1, -z+1
HTAB C7 N1_$4
EQIV $5 -x+1, -y+1, -z
HTAB C11 Br2_$5
HTAB C13 Br2
HTAB C16 N2

REM Highest difference peak  1.471,  deepest hole -2.150,  1-sigma level  0.230
Q1    1   0.3170  0.3637  0.6039  11.00000  0.05    1.47
Q2    1   0.8284  0.7563  0.1907  11.00000  0.05    1.45
Q3    1   0.2564  0.2764  0.7065  11.00000  0.05    1.44
Q4    1   0.2986  0.3190  0.4306  11.00000  0.05    1.38
Q5    1   0.2683  0.2289  0.5331  11.00000  0.05    1.34
Q6    1   0.7265  0.8150 -0.0837  11.00000  0.05    1.26
Q7    1   0.8589  0.8544  0.0895  11.00000  0.05    1.24
Q8    1   0.9217  0.8064  0.0874  11.00000  0.05    1.23
Q9    1   0.1895  0.2714  0.5325  11.00000  0.05    1.22
Q10   1   0.7004  0.7194  0.0206  11.00000  0.05    1.22
Q11   1   0.2201  0.2670  0.7605  11.00000  0.05    0.72
Q12   1   0.4303  0.3255  0.5597  11.00000  0.05    0.66
Q13   1   0.5888  0.7598  0.0602  11.00000  0.05    0.63
Q14   1   0.1464  0.2619  0.5825  11.00000  0.05    0.62
Q15   1   0.2893  0.3653  0.3913  11.00000  0.05    0.58
Q16   1   0.7889  0.8169 -0.1325  11.00000  0.05    0.55
Q17   1   0.9512  0.8357  0.0392  11.00000  0.05    0.54
Q18   1   0.3769  0.3010  0.3908  11.00000  0.05    0.52
Q19   1   0.0239  0.6396  0.2127  11.00000  0.05    0.50
Q20   1  -0.5425  0.1322  0.7366  11.00000  0.05    0.49
;
_shelx_res_checksum              61458
loop_
_symmetry_equiv_pos_as_xyz
'x, y, z'
'-x, -y, -z'
loop_
_atom_site_label
_atom_site_type_symbol
_atom_site_fract_x
_atom_site_fract_y
_atom_site_fract_z
_atom_site_U_iso_or_equiv
_atom_site_adp_type
_atom_site_occupancy
_atom_site_calc_flag
Br1 Br 0.84342(13) 0.80566(4) 0.13769(3) 0.03836(16) Uani 1 d
Br2 Br 0.71063(14) 0.77166(4) -0.03345(3) 0.04131(16) Uani 1 d
Br3 Br 0.27391(13) 0.27786(4) 0.48149(3) 0.03645(16) Uani 1 d
Br4 Br 0.28944(13) 0.31600(4) 0.65618(3) 0.03766(16) Uani 1 d
N1 N 0.1190(12) -0.0393(4) 0.7692(3) 0.0441(11) Uani 1 d
N2 N 0.2624(11) 0.4531(3) 0.2645(3) 0.0390(10) Uani 1 d
C1 C 0.2621(14) -0.1111(4) 0.7363(3) 0.0436(13) Uani 1 d
H1 H 0.388279 -0.170833 0.76719 0.052 Uiso 1 calc
C2 C 0.2385(13) -0.1042(4) 0.6597(3) 0.0381(12) Uani 1 d
H2 H 0.346824 -0.157488 0.639492 0.046 Uiso 1 calc
C3 C 0.0525(11) -0.0172(4) 0.6132(3) 0.0334(11) Uani 1 d
C4 C -0.1007(12) 0.0591(4) 0.6471(3) 0.0350(11) Uani 1 d
H4 H -0.229141 0.119559 0.617757 0.042 Uiso 1 calc
C5 C -0.0615(13) 0.0447(4) 0.7236(3) 0.0387(12) Uani 1 d
H5 H -0.166983 0.096582 0.74556 0.046 Uiso 1 calc
C6 C 0.0178(13) -0.0058(4) 0.5333(3) 0.0360(11) Uani 1 d
C7 C 0.5614(11) 1.0147(3) 0.0701(3) 0.0281(10) Uani 1 d
H7 H 0.605105 1.024696 0.117352 0.034 Uiso 1 calc
C8 C 0.6469(11) 0.9169(3) 0.0573(3) 0.0266(9) Uani 1 d
C9 C 0.5892(11) 0.9022(3) -0.0126(3) 0.0282(10) Uani 1 d
C10 C 0.1250(14) 0.3773(4) 0.2430(3) 0.0393(12) Uani 1 d
H10 H 0.078473 0.314558 0.281519 0.047 Uiso 1 calc
C11 C 0.0488(12) 0.3856(4) 0.1692(3) 0.0339(11) Uani 1 d
H11 H -0.048228 0.330195 0.158124 0.041 Uiso 1 calc
C12 C 0.1168(11) 0.4767(4) 0.1110(3) 0.0292(10) Uani 1 d
C13 C 0.2606(12) 0.5569(4) 0.1315(3) 0.0348(11) Uani 1 d
H13 H 0.309863 0.620342 0.094075 0.042 Uiso 1 calc
C14 C 0.3275(13) 0.5408(4) 0.2073(3) 0.0407(13) Uani 1 d
H14 H 0.425531 0.594796 0.220089 0.049 Uiso 1 calc
C15 C 0.0344(12) 0.4929(4) 0.0323(3) 0.0310(10) Uani 1 d
C16 C 0.4920(11) 0.4849(3) 0.4274(3) 0.0292(10) Uani 1 d
H16 H 0.485162 0.474373 0.378728 0.035 Uiso 1 calc
C17 C 0.4028(10) 0.4061(3) 0.4937(3) 0.0267(10) Uani 1 d
C18 C 0.4092(11) 0.4210(3) 0.5659(3) 0.0269(9) Uani 1 d
loop_
_atom_site_aniso_label
_atom_site_aniso_U_11
_atom_site_aniso_U_22
_atom_site_aniso_U_33
_atom_site_aniso_U_23
_atom_site_aniso_U_13
_atom_site_aniso_U_12
Br1 0.0450(3) 0.0260(3) 0.0379(3) -0.0007(2) -0.0107(2) 0.0057(2)
Br2 0.0525(3) 0.0231(3) 0.0508(4) -0.0178(2) -0.0011(2) 0.0054(2)
Br3 0.0424(3) 0.0247(3) 0.0466(3) -0.0152(2) -0.0060(2) -0.0055(2)
Br4 0.0466(3) 0.0291(3) 0.0342(3) -0.0041(2) 0.0010(2) -0.0065(2)
N1 0.053(3) 0.045(3) 0.037(3) -0.013(2) -0.006(2) -0.013(2)
N2 0.049(2) 0.036(3) 0.033(2) -0.011(2) -0.0100(19) 0.003(2)
C1 0.049(3) 0.033(3) 0.046(3) -0.005(3) -0.013(2) -0.002(2)
C2 0.042(3) 0.029(3) 0.044(3) -0.012(2) -0.007(2) -0.001(2)
C3 0.032(2) 0.033(3) 0.039(3) -0.011(2) -0.006(2) -0.010(2)
C4 0.033(2) 0.033(3) 0.042(3) -0.014(2) -0.006(2) -0.005(2)
C5 0.043(3) 0.037(3) 0.039(3) -0.017(3) -0.001(2) -0.005(2)
C6 0.037(3) 0.031(3) 0.042(3) -0.014(2) -0.002(2) -0.005(2)
C7 0.034(2) 0.022(2) 0.028(2) -0.007(2) -0.0034(18) 0.0015(18)
C8 0.029(2) 0.020(2) 0.028(2) -0.0022(19) -0.0044(18) -0.0002(17)
C9 0.029(2) 0.022(2) 0.036(3) -0.014(2) 0.0002(19) -0.0021(18)
C10 0.050(3) 0.025(3) 0.039(3) -0.005(2) -0.004(2) 0.001(2)
C11 0.041(3) 0.023(3) 0.040(3) -0.012(2) -0.003(2) -0.002(2)
C12 0.030(2) 0.026(2) 0.034(3) -0.014(2) -0.0050(19) 0.0045(18)
C13 0.044(3) 0.023(3) 0.037(3) -0.009(2) -0.005(2) 0.002(2)
C14 0.046(3) 0.036(3) 0.048(3) -0.022(3) -0.012(2) -0.002(2)
C15 0.033(2) 0.025(2) 0.037(3) -0.014(2) -0.001(2) 0.0044(19)
C16 0.035(2) 0.026(3) 0.028(3) -0.011(2) -0.0101(19) 0.0040(19)
C17 0.024(2) 0.021(2) 0.038(3) -0.011(2) -0.0081(18) -0.0005(17)
C18 0.027(2) 0.020(2) 0.030(3) -0.0038(19) -0.0020(18) 0.0034(17)
loop_
_atom_type_symbol
_atom_type_description
_atom_type_scat_dispersion_real
_atom_type_scat_dispersion_imag
_atom_type_scat_source
C C 0.0033 0.0016 'International Tables Vol C Tables 4.2.6.8 and 6.1.1.4'
H H 0 0 'International Tables Vol C Tables 4.2.6.8 and 6.1.1.4'
N N 0.0061 0.0033 'International Tables Vol C Tables 4.2.6.8 and 6.1.1.4'
Br Br -0.2901 2.4595 'International Tables Vol C Tables 4.2.6.8 and 6.1.1.4'
loop_
_geom_angle_atom_site_label_1
_geom_angle_atom_site_label_2
_geom_angle_atom_site_label_3
_geom_angle
_geom_angle_site_symmetry_1
_geom_angle_site_symmetry_3
C1 N1 C5 116.3(5) . .
C14 N2 C10 115.5(4) . .
N1 C1 C2 124.5(5) . .
N1 C1 H1 117.8 . .
C2 C1 H1 117.8 . .
C1 C2 C3 118.8(5) . .
C1 C2 H2 120.6 . .
C3 C2 H2 120.6 . .
C2 C3 C4 117.4(5) . .
C2 C3 C6 121.3(5) . .
C4 C3 C6 121.3(5) . .
C5 C4 C3 119.2(5) . .
C5 C4 H4 120.4 . .
C3 C4 H4 120.4 . .
N1 C5 C4 123.9(5) . .
N1 C5 H5 118.1 . .
C4 C5 H5 118.1 . .
C6 C6 C3 178.2(7) 2_556 .
C8 C7 C9 119.6(4) . 2_675
C8 C7 H7 120.2 . .
C9 C7 H7 120.2 2_675 .
C9 C8 C7 120.5(4) . .
C9 C8 Br1 121.5(3) . .
C7 C8 Br1 118.1(3) . .
C8 C9 C7 119.9(4) . 2_675
C8 C9 Br2 122.0(4) . .
C7 C9 Br2 118.1(3) 2_675 .
N2 C10 C11 124.6(5) . .
N2 C10 H10 117.7 . .
C11 C10 H10 117.7 . .
C10 C11 C12 119.1(4) . .
C10 C11 H11 120.4 . .
C12 C11 H11 120.4 . .
C11 C12 C13 117.6(4) . .
C11 C12 C15 122.5(4) . .
C13 C12 C15 119.9(5) . .
C14 C13 C12 118.7(5) . .
C14 C13 H13 120.6 . .
C12 C13 H13 120.6 . .
N2 C14 C13 124.4(5) . .
N2 C14 H14 117.8 . .
C13 C14 H14 117.8 . .
C15 C15 C12 179.4(7) 2_565 .
C17 C16 C18 119.1(4) . 2_666
C17 C16 H16 120.4 . .
C18 C16 H16 120.4 2_666 .
C18 C17 C16 121.0(4) . .
C18 C17 Br3 121.5(4) . .
C16 C17 Br3 117.5(3) . .
C17 C18 C16 119.9(4) . 2_666
C17 C18 Br4 121.8(3) . .
C16 C18 Br4 118.3(4) 2_666 .
loop_
_geom_bond_atom_site_label_1
_geom_bond_atom_site_label_2
_geom_bond_distance
_geom_bond_site_symmetry_2
Br1 C8 1.887(4) .
Br2 C9 1.884(4) .
Br3 C17 1.901(4) .
Br4 C18 1.879(5) .
N1 C1 1.326(7) .
N1 C5 1.344(7) .
N2 C14 1.344(7) .
N2 C10 1.353(6) .
C1 C2 1.380(7) .
C1 H1 0.94 .
C2 C3 1.384(7) .
C2 H2 0.94 .
C3 C4 1.399(7) .
C3 C6 1.432(7) .
C4 C5 1.367(7) .
C4 H4 0.94 .
C5 H5 0.94 .
C6 C6 1.195(10) 2_556
C7 C8 1.386(6) .
C7 C9 1.390(6) 2_675
C7 H7 0.94 .
C8 C9 1.381(6) .
C10 C11 1.370(7) .
C10 H10 0.94 .
C11 C12 1.385(7) .
C11 H11 0.94 .
C12 C13 1.407(6) .
C12 C15 1.443(6) .
C13 C14 1.375(7) .
C13 H13 0.94 .
C14 H14 0.94 .
C15 C15 1.182(9) 2_565
C16 C17 1.392(6) .
C16 C18 1.386(6) 2_666
C16 H16 0.94 .
C17 C18 1.389(6) .
