#------------------------------------------------------------------------------
#$Date: 2019-11-17 15:32:33 +0200 (Sun, 17 Nov 2019) $
#$Revision: 230902 $
#$URL: file:///home/coder/svn-repositories/cod/cif/7/23/14/7231417.cif $
#------------------------------------------------------------------------------
#
# This file is available in the Crystallography Open Database (COD),
# http://www.crystallography.net/
#
# All data on this site have been placed in the public domain by the
# contributors.
#
data_7231417
loop_
_publ_author_name
'Collings, Ines E.'
'Manna, Rudra Sekhar'
'Tsirlin, Alexander A.'
'Bykov, Maxim'
'Bykova, Elena'
'Hanfland, Michael'
'Gegenwart, Philipp'
'van Smaalen, Sander'
'Dubrovinsky, Leonid'
'Dubrovinskaia, Natalia'
_publ_section_title
;
 Pressure dependence of spin canting in ammonium metal formate
 antiferromagnets.
;
_journal_issue                   37
_journal_name_full               'Physical chemistry chemical physics : PCCP'
_journal_page_first              24465
_journal_page_last               24476
_journal_paper_doi               10.1039/c8cp03761b
_journal_volume                  20
_journal_year                    2018
_chemical_formula_moiety         'C3 H3 Ni O6, N H4'
_chemical_formula_sum            'C3 H7 N Ni O6'
_chemical_formula_weight         211.81
_space_group_crystal_system      hexagonal
_space_group_IT_number           182
_space_group_name_Hall           'P 6c 2c'
_space_group_name_H-M_alt        'P 63 2 2'
_symmetry_space_group_name_Hall  'P 6c 2c'
_symmetry_space_group_name_H-M   'P 63 2 2'
_atom_sites_solution_hydrogens   mixed
_audit_creation_method           SHELXL-2016/6
_audit_update_record
;
2018-08-09 deposited with the CCDC.
2018-08-22 downloaded from the CCDC.
;
_cell_angle_alpha                90
_cell_angle_beta                 90
_cell_angle_gamma                120
_cell_formula_units_Z            2
_cell_length_a                   7.1272(3)
_cell_length_b                   7.1272(3)
_cell_length_c                   8.0615(3)
_cell_measurement_reflns_used    287
_cell_measurement_temperature    293(2)
_cell_measurement_theta_max      14.7660
_cell_measurement_theta_min      1.9110
_cell_volume                     354.64(2)
_computing_cell_refinement       'CrysAlisPro (Agilent Technologies, 2013)'
_computing_data_reduction        'CrysAlisPro (Agilent Technologies, 2013)'
_computing_molecular_graphics    'SHELXLE-2011 (Huebschle, 2011)'
_computing_structure_refinement  'SHELXL-2016/6 (Sheldrick, 2016)'
_computing_structure_solution    'SHELXT-2015 (Sheldrick, 2015)'
_diffrn_ambient_pressure         '1.26 GPa'
_diffrn_ambient_temperature      293(2)
_diffrn_detector_area_resol_mean 7
_diffrn_measured_fraction_theta_full 0.939
_diffrn_measured_fraction_theta_max 0.770
_diffrn_measurement_device_type  'ID15B beamline, ESRF'
_diffrn_measurement_method       'omega scans'
_diffrn_radiation_type           synchrotron
_diffrn_radiation_wavelength     0.41128
_diffrn_reflns_av_R_equivalents  0.0392
_diffrn_reflns_av_unetI/netI     0.0525
_diffrn_reflns_Laue_measured_fraction_full 0.939
_diffrn_reflns_Laue_measured_fraction_max 0.770
_diffrn_reflns_limit_h_max       6
_diffrn_reflns_limit_h_min       -9
_diffrn_reflns_limit_k_max       11
_diffrn_reflns_limit_k_min       -11
_diffrn_reflns_limit_l_max       12
_diffrn_reflns_limit_l_min       -10
_diffrn_reflns_number            1040
_diffrn_reflns_point_group_measured_fraction_full 0.951
_diffrn_reflns_point_group_measured_fraction_max 0.716
_diffrn_reflns_theta_full        14.286
_diffrn_reflns_theta_max         19.503
_diffrn_reflns_theta_min         1.909
_diffrn_source                   synchrotron
_exptl_absorpt_coefficient_mu    0.607
_exptl_absorpt_correction_T_max  1.00000
_exptl_absorpt_correction_T_min  0.17410
_exptl_absorpt_correction_type   multi-scan
_exptl_absorpt_process_details
;
CrysAlisPro 1.171.38.43 (Rigaku Oxford Diffraction, 2015)
Empirical absorption correction using spherical harmonics,
 implemented in SCALE3 ABSPACK scaling algorithm.
;
_exptl_crystal_colour            green
_exptl_crystal_density_diffrn    1.983
_exptl_crystal_description       'hexagonal bipyramid'
_exptl_crystal_F_000             216
_exptl_crystal_size_max          0.075
_exptl_crystal_size_mid          0.060
_exptl_crystal_size_min          0.050
_refine_diff_density_max         0.430
_refine_diff_density_min         -0.472
_refine_diff_density_rms         0.081
_refine_ls_abs_structure_details
;
 Flack x determined using 67 quotients [(I+)-(I-)]/[(I+)+(I-)]
 (Parsons, Flack and Wagner, Acta Cryst. B69 (2013) 249-259).
;
_refine_ls_abs_structure_Flack   0.00(9)
_refine_ls_extinction_method     none
_refine_ls_goodness_of_fit_ref   1.123
_refine_ls_hydrogen_treatment    mixed
_refine_ls_matrix_type           full
_refine_ls_number_parameters     22
_refine_ls_number_reflns         390
_refine_ls_number_restraints     2
_refine_ls_restrained_S_all      1.124
_refine_ls_R_factor_all          0.0631
_refine_ls_R_factor_gt           0.0476
_refine_ls_shift/su_max          0.000
_refine_ls_shift/su_mean         0.000
_refine_ls_structure_factor_coef Fsqd
_refine_ls_weighting_details
'w=1/[\s^2^(Fo^2^)+(0.0272P)^2^+0.1969P] where P=(Fo^2^+2Fc^2^)/3'
_refine_ls_weighting_scheme      calc
_refine_ls_wR_factor_gt          0.0871
_refine_ls_wR_factor_ref         0.0976
_reflns_Friedel_coverage         0.388
_reflns_Friedel_fraction_full    0.984
_reflns_Friedel_fraction_max     0.606
_reflns_number_gt                288
_reflns_number_total             390
_reflns_threshold_expression     'I > 2\s(I)'
_cod_data_source_file            c8cp03761b2.cif
_cod_data_source_block           ANiF_c2_p06
_cod_depositor_comments
'Adding full bibliography for 7231402--7231432.cif.'
_cod_original_cell_volume        354.64(3)
_cod_database_code               7231417
_shelx_shelxl_version_number     2016/6
_shelx_space_group_comment
;
The symmetry employed for this shelxl refinement is uniquely defined
by the following loop, which should always be used as a source of
symmetry information in preference to the above space-group names.
They are only intended as comments.
;
_shelx_res_file
;
TITL ANiF_c2_p06_s in P6(3)22
    ANiF_c2_p06_s.res
    created by SHELXL-2016/6 at 14:29:39 on 06-Aug-2018
REM P6(3)22 (#182 in standard setting)
CELL 0.41128   7.127210   7.127210   8.061522  90.0000  90.0000 120.0000
ZERR    2.00   0.000268   0.000268   0.000263   0.0000   0.0000   0.0000
LATT -1
SYMM -y, x-y, z
SYMM -x+y,-x, z
SYMM -x,-y, z+1/2
SYMM  y,-x+y, z+1/2
SYMM  x-y, x, z+1/2
SYMM  y, x,-z
SYMM  x-y,-y,-z
SYMM -x,-x+y,-z
SYMM -y,-x,-z+1/2
SYMM -x+y, y,-z+1/2
SYMM  x, x-y,-z+1/2
SFAC C H N O Ni
DISP $C -0.00005  0.00048  5.14312!source kissel
DISP $H -0.00003  0.00000  0.64132!source kissel
DISP $N  0.00062  0.00099  7.19459!source kissel
DISP $O  0.00180  0.00183 10.16238!source kissel
DISP $Ni  0.23093  0.40937 987.78852!source kissel
UNIT 6.00 14.00 2.00 12.00 2.00
OMIT -1 2 2
OMIT 0 1 1
LIST 4 ! automatically inserted. Change 6 to 4 for CHECKCIF!!
L.S. 10
ACTA
EQIV $3 -1-x+y, 1-x, +z
BOND
FMAP 2
PLAN 20
WGHT    0.027200    0.196900
FVAR       8.46401
MOLE   1
NI1   5    0.333333    0.666667    0.250000    10.16667    0.04300    0.04300 =
         0.01473    0.00000    0.00000    0.02150
O1    4    0.309419    0.892130    0.107781    11.00000    0.06006    0.05575 =
         0.03001    0.01451    0.01196    0.03210
C1    1    0.439208    1.000000    0.000000    10.50000    0.04858    0.06971 =
         0.04713    0.02448    0.01224    0.03485
AFIX  43
H1    2    0.569693    0.999999   -0.000001    10.50000   -1.20000
MOLE   2
REM #####
AFIX   0
N1    3    0.000000    1.000000    0.250000    10.16667    0.04320    0.04320 =
         0.09827    0.00000    0.00000    0.02160
DFIX 0.9 0.1 N1 H2
DFIX 1.3 0.1 H2 H2_$3
H2    2    0.097506    1.131413    0.304827    10.66667   -1.20000
HKLF 4




REM  ANiF_c2_p06_s in P6(3)22
REM R1 =  0.0476 for     288 Fo > 4sig(Fo)  and  0.0631 for all     390 data
REM     22 parameters refined using      2 restraints

END

WGHT      0.0287      0.1931

REM Highest difference peak  0.430,  deepest hole -0.472,  1-sigma level  0.081
Q1    1   0.4279  0.8558  0.2500  10.50000  0.05    0.43
Q2    1   0.3333  0.6667  0.1108  10.33333  0.05    0.41
Q3    1   0.3506  0.8828  0.2513  11.00000  0.05    0.32
Q4    1   0.2012  0.9005  0.1118  11.00000  0.05    0.26
Q5    1   0.7193  1.2807  0.2500  10.50000  0.05    0.26
Q6    1   0.2582  0.7614  0.1706  11.00000  0.05    0.25
Q7    1   0.5776  0.9060  0.1178  11.00000  0.05    0.23
Q8    1   0.7253  1.1571  0.0858  11.00000  0.05    0.23
Q9    1   0.0805  1.2845  0.3813  11.00000  0.05    0.23
Q10   1   0.1926  0.6368  0.1929  11.00000  0.05    0.23
Q11   1   0.1621  1.0811  0.2500  10.50000  0.05    0.22
Q12   1   0.3599  1.0454  0.1136  11.00000  0.05    0.22
Q13   1   0.3324  0.8498  0.0786  11.00000  0.05    0.22
Q14   1   0.4329  0.9609  0.1478  11.00000  0.05    0.21
Q15   1   0.5076  1.0735  0.1963  11.00000  0.05    0.20
Q16   1   0.1794  0.8206  0.2500  10.50000  0.05    0.20
Q17   1   0.2810  1.1488  0.3402  11.00000  0.05    0.20
Q18   1   0.4133  1.1335  0.0930  11.00000  0.05    0.19
Q19   1   0.6667  1.3333  0.1787  10.33333  0.05    0.18
Q20   1   0.3333  0.6667  0.0150  10.33333  0.05    0.18
;
_shelx_res_checksum              66992
loop_
_space_group_symop_operation_xyz
'x, y, z'
'-y, x-y, z'
'-x+y, -x, z'
'-x, -y, z+1/2'
'y, -x+y, z+1/2'
'x-y, x, z+1/2'
'y, x, -z'
'x-y, -y, -z'
'-x, -x+y, -z'
'-y, -x, -z+1/2'
'-x+y, y, -z+1/2'
'x, x-y, -z+1/2'
loop_
_atom_site_label
_atom_site_type_symbol
_atom_site_fract_x
_atom_site_fract_y
_atom_site_fract_z
_atom_site_U_iso_or_equiv
_atom_site_adp_type
_atom_site_occupancy
_atom_site_site_symmetry_order
_atom_site_calc_flag
_atom_site_refinement_flags_posn
_atom_site_refinement_flags_adp
_atom_site_refinement_flags_occupancy
Ni1 Ni 0.333333 0.666667 0.250000 0.0336(4) Uani 1 6 d S T P
O1 O 0.3094(5) 0.8921(5) 0.1078(4) 0.0472(8) Uani 1 1 d . . .
C1 C 0.4392(9) 1.000000 0.000000 0.0528(18) Uani 1 2 d S T P
H1 H 0.569693 0.999999 -0.000001 0.063 Uiso 1 2 calc R U P
N1 N 0.000000 1.000000 0.250000 0.062(3) Uani 1 6 d DS T P
H2 H 0.098(12) 1.131(7) 0.305(9) 0.074 Uiso 0.6667 1 d D U P
loop_
_atom_site_aniso_label
_atom_site_aniso_U_11
_atom_site_aniso_U_22
_atom_site_aniso_U_33
_atom_site_aniso_U_23
_atom_site_aniso_U_13
_atom_site_aniso_U_12
Ni1 0.0430(5) 0.0430(5) 0.0147(6) 0.000 0.000 0.0215(3)
O1 0.060(2) 0.0558(19) 0.0300(18) 0.0145(13) 0.0120(15) 0.0321(18)
C1 0.049(3) 0.070(4) 0.047(4) 0.024(4) 0.0122(18) 0.035(2)
N1 0.043(3) 0.043(3) 0.098(9) 0.000 0.000 0.0216(15)
loop_
_atom_type_symbol
_atom_type_description
_atom_type_scat_dispersion_real
_atom_type_scat_dispersion_imag
_atom_type_scat_source
C C -0.0001 0.0005 'International Tables Vol C Tables 4.2.6.8 and 6.1.1.4'
H H 0.0000 0.0000 'International Tables Vol C Tables 4.2.6.8 and 6.1.1.4'
N N 0.0006 0.0010 'International Tables Vol C Tables 4.2.6.8 and 6.1.1.4'
O O 0.0018 0.0018 'International Tables Vol C Tables 4.2.6.8 and 6.1.1.4'
Ni Ni 0.2309 0.4094 'International Tables Vol C Tables 4.2.6.8 and 6.1.1.4'
loop_
_geom_angle_atom_site_label_1
_geom_angle_atom_site_label_2
_geom_angle_atom_site_label_3
_geom_angle
_geom_angle_site_symmetry_1
_geom_angle_site_symmetry_3
O1 Ni1 O1 91.75(12) 10_665 11
O1 Ni1 O1 94.46(19) 10_665 2_665
O1 Ni1 O1 171.74(18) 11 2_665
O1 Ni1 O1 82.63(17) 10_665 .
O1 Ni1 O1 94.46(19) 11 .
O1 Ni1 O1 91.75(12) 2_665 .
O1 Ni1 O1 91.75(12) 10_665 12_565
O1 Ni1 O1 91.75(12) 11 12_565
O1 Ni1 O1 82.63(17) 2_665 12_565
O1 Ni1 O1 171.74(18) . 12_565
O1 Ni1 O1 171.74(18) 10_665 3_565
O1 Ni1 O1 82.63(17) 11 3_565
O1 Ni1 O1 91.75(12) 2_665 3_565
O1 Ni1 O1 91.75(12) . 3_565
O1 Ni1 O1 94.46(19) 12_565 3_565
C1 O1 Ni1 123.9(3) . .
O1 C1 O1 127.4(6) . 8_675
loop_
_geom_bond_atom_site_label_1
_geom_bond_atom_site_label_2
_geom_bond_distance
_geom_bond_site_symmetry_2
Ni1 O1 2.049(3) 10_665
Ni1 O1 2.049(3) 11
Ni1 O1 2.049(3) 2_665
Ni1 O1 2.049(3) .
Ni1 O1 2.049(3) 12_565
Ni1 O1 2.049(3) 3_565
O1 C1 1.221(4) .
