#------------------------------------------------------------------------------
#$Date: 2019-11-07 21:58:40 +0200 (Thu, 07 Nov 2019) $
#$Revision: 223668 $
#$URL: file:///home/coder/svn-repositories/cod/cif/7/23/27/7232750.cif $
#------------------------------------------------------------------------------
#
# This file is available in the Crystallography Open Database (COD),
# http://www.crystallography.net/
#
# All data on this site have been placed in the public domain by the
# contributors.
#
data_7232750
loop_
_publ_author_name
'Giordano, Nico'
'Beavers, Christine M.'
'Kamenev, Konstantin V.'
'Marshall, William G.'
'Moggach, Stephen A.'
'Patterson, Simon D.'
'Teat, Simon J.'
'Warren, John E.'
'Wood, Peter A.'
'Parsons, Simon'
_publ_section_title
;
 High-pressure polymorphism in l-threonine between ambient pressure and 22
 GPa
;
_journal_issue                   30
_journal_name_full               CrystEngComm
_journal_page_first              4444
_journal_paper_doi               10.1039/C9CE00388F
_journal_volume                  21
_journal_year                    2019
_chemical_absolute_configuration syn
_chemical_formula_sum            'C4 H9 N O3'
_chemical_formula_weight         119.12
_chemical_name_common            L-threonine
_chemical_name_systematic        '(2S,3R)-2-amino-3-hydroxybutanoic acid'
_space_group_crystal_system      monoclinic
_space_group_IT_number           4
_space_group_name_Hall           'P 2yb'
_space_group_name_H-M_alt        'P 1 21 1'
_symmetry_space_group_name_Hall  'P 2yb'
_symmetry_space_group_name_H-M   'P 1 21 1'
_atom_sites_solution_hydrogens   geom
_audit_creation_method           SHELXL-2014/7
_audit_update_record
;
2019-03-15 deposited with the CCDC.    2019-05-09 downloaded from the CCDC.
;
_cell_angle_alpha                90
_cell_angle_beta                 91.42(3)
_cell_angle_gamma                90
_cell_formula_units_Z            4
_cell_length_a                   4.679(6)
_cell_length_b                   12.659(13)
_cell_length_c                   6.143(9)
_cell_measurement_reflns_used    1058
_cell_measurement_temperature    298(2)
_cell_measurement_theta_max      16.98
_cell_measurement_theta_min      3.24
_cell_volume                     363.7(8)
_computing_cell_refinement       'Bruker SAINT'
_computing_data_collection       'Bruker APEX2'
_computing_data_reduction        'Bruker SAINT'
_computing_molecular_graphics    'Bruker SHELXTL'
_computing_publication_material  'Bruker SHELXTL'
_computing_structure_refinement  'SHELXL-2014 (Sheldrick 2014)'
_computing_structure_solution    'SHELXS-97 (Sheldrick 2008)'
_diffrn_ambient_pressure         20.62
_diffrn_ambient_temperature      298(2)
_diffrn_measured_fraction_theta_full 0.351
_diffrn_measured_fraction_theta_max 0.344
_diffrn_measurement_device_type  'Perkin-Elmer a-Si Detector'
_diffrn_measurement_method       '\f shutterless scan'
_diffrn_radiation_monochromator  silicon(111)
_diffrn_radiation_source         'Advanced Light Source Beamline 12.2.2'
_diffrn_radiation_type           synchrotron
_diffrn_radiation_wavelength     0.49594
_diffrn_reflns_av_R_equivalents  0.0934
_diffrn_reflns_av_unetI/netI     0.0896
_diffrn_reflns_Laue_measured_fraction_full 0.351
_diffrn_reflns_Laue_measured_fraction_max 0.344
_diffrn_reflns_limit_h_max       5
_diffrn_reflns_limit_h_min       -5
_diffrn_reflns_limit_k_max       12
_diffrn_reflns_limit_k_min       -12
_diffrn_reflns_limit_l_max       3
_diffrn_reflns_limit_l_min       -4
_diffrn_reflns_number            649
_diffrn_reflns_point_group_measured_fraction_full 0.307
_diffrn_reflns_point_group_measured_fraction_max 0.300
_diffrn_reflns_theta_full        16.970
_diffrn_reflns_theta_max         16.970
_diffrn_reflns_theta_min         3.039
_exptl_absorpt_coefficient_mu    0.091
_exptl_absorpt_correction_T_max  0.7441
_exptl_absorpt_correction_T_min  0.2526
_exptl_absorpt_correction_type   multi-scan
_exptl_absorpt_process_details   'SADABS-2014/5 (Sheldrick, 2015)'
_exptl_crystal_colour            colourless
_exptl_crystal_density_diffrn    2.176
_exptl_crystal_description       blade
_exptl_crystal_F_000             256
_exptl_crystal_size_max          0.060
_exptl_crystal_size_mid          0.050
_exptl_crystal_size_min          0.040
_refine_diff_density_max         0.432
_refine_diff_density_min         -0.464
_refine_diff_density_rms         0.106
_refine_ls_abs_structure_details
;
 Flack x determined using 59 quotients [(I+)-(I-)]/[(I+)+(I-)]
 (Parsons, Flack and Wagner, Acta Cryst. B69 (2013) 249-259).
;
_refine_ls_abs_structure_Flack   1.1(10)
_refine_ls_extinction_coef       0.2(3)
_refine_ls_extinction_expression Fc^*^=kFc[1+0.001xFc^2^\l^3^/sin(2\q)]^-1/4^
_refine_ls_extinction_method     'SHELXL-2014/7 (Sheldrick 2014'
_refine_ls_goodness_of_fit_ref   1.180
_refine_ls_hydrogen_treatment    constr
_refine_ls_matrix_type           full
_refine_ls_number_parameters     67
_refine_ls_number_reflns         310
_refine_ls_number_restraints     51
_refine_ls_restrained_S_all      1.147
_refine_ls_R_factor_all          0.1445
_refine_ls_R_factor_gt           0.1115
_refine_ls_shift/su_max          0.000
_refine_ls_shift/su_mean         0.000
_refine_ls_structure_factor_coef Fsqd
_refine_ls_weighting_details
'w=1/[\s^2^(Fo^2^)+(0.2000P)^2^] where P=(Fo^2^+2Fc^2^)/3'
_refine_ls_weighting_scheme      calc
_refine_ls_wR_factor_gt          0.2730
_refine_ls_wR_factor_ref         0.2952
_reflns_Friedel_coverage         0.665
_reflns_Friedel_fraction_full    0.258
_reflns_Friedel_fraction_max     0.253
_reflns_number_gt                205
_reflns_number_total             310
_reflns_threshold_expression     'I > 2\s(I)'
_cod_data_source_file            c9ce00388f5.cif
_cod_data_source_block           20_62GPa
_cod_depositor_comments
'Adding full bibliography for 7232730--7232750.cif.'
_cod_database_code               7232750
_shelx_shelxl_version_number     2014/7
_shelx_space_group_comment
;
The symmetry employed for this shelxl refinement is uniquely defined
by the following loop, which should always be used as a source of
symmetry information in preference to the above space-group names.
They are only intended as comments.
;
_shelx_estimated_absorpt_t_min   0.995
_shelx_estimated_absorpt_t_max   0.996
_shelx_res_file
;

    THRE13.res created by SHELXL-2014/7


TITL THRE13 in P2(1)
CELL 0.49594   4.67850  12.65900   6.14280  90.0000  91.4171  90.0000
ZERR    4.00   0.00550   0.01340   0.00930   0.0000   0.0305   0.0000
LATT -1
SYMM -X, 1/2+Y, -Z
SFAC C H N O
DISP $C  0.00086  0.00074  6.27610!source kissel
DISP $H -0.00003  0.00000  0.65340!source kissel
DISP $N  0.00207  0.00152  9.39816!source kissel
DISP $O  0.00413  0.00279 14.09704!source kissel
UNIT 16 36 4 12
OMIT -2 -5 2
OMIT -2 -4 2
OMIT 1 7 0
OMIT 1 -7 0
OMIT -2 4 2
OMIT -2 5 2
OMIT -4 -1 3
OMIT 2 7 0
OMIT -2 -7 0
OMIT 4 -5 -2
OMIT -5 -1 0
OMIT 5 1 0
OMIT 1 6 2
OMIT -4 8 2
OMIT -4 9 2
TEMP 25
SIZE 0.04 0.05 0.06 !colourless blade
L.S. 10
BOND $H
DFIX 1.24 0.02 O1A C1A
DFIX 1.25 0.02 C1A O2A
DFIX 1.54 0.02 C1A C2A
DFIX 1.42 0.02 C3A O3A
DFIX 1.52 0.02 C3A C4A
DFIX 1.53 0.02 C3A C2A
DFIX 1.49 0.02 C2A N1A
DFIX 1.24 0.02 O1B C1B
DFIX 1.25 0.02 C1B O2B
DFIX 1.54 0.02 C1B C2B
DFIX 1.43 0.02 C3B O3B
DFIX 1.52 0.02 C3B C4B
DFIX 1.53 0.02 C3B C2B
DFIX 1.49 0.02 C2B N1B
DFIX 2.23 0.04 O1A O2A
DFIX 2.36 0.04 O1A C2A
DFIX 2.37 0.04 O2A C2A
DFIX 2.47 0.04 C1A N1A
DFIX 2.55 0.04 C1A C3A
DFIX 2.45 0.04 N1A C3A
DFIX 2.33 0.04 C2A O3A
DFIX 2.54 0.04 C2A C4A
DFIX 2.33 0.04 O3A C2A
DFIX 2.42 0.04 O3A C4A
DFIX 2.23 0.04 O1B O2B
DFIX 2.36 0.04 O1B C2B
DFIX 2.37 0.04 O2B C2B
DFIX 2.47 0.04 C1B N1B
DFIX 2.55 0.04 C1B C3B
DFIX 2.45 0.04 N1B C3B
DFIX 2.33 0.04 C2B O3B
DFIX 2.54 0.04 C2B C4B
DFIX 2.33 0.04 O3B C2B
DFIX 2.42 0.04 O3B C4B
ACTA
LIST 6
FMAP 2
PLAN 2
TWIN -1 0 0 0 -1 0 0 0 1
WGHT    0.200000
EXTI    0.226765
BASF  -0.00617
FVAR       0.63683
C1A   1    0.857465    0.485876    0.613969    11.00000    0.02446
O1A   4    1.046674    0.420830    0.627383    11.00000    0.02151
O2A   4    0.596498    0.465940    0.585592    11.00000    0.04551
C2A   1    0.938090    0.596914    0.685479    11.00000    0.01957
AFIX  13
H4A   2    0.809601    0.621815    0.798159    11.00000   -1.20000
AFIX   0
N1A   3    1.232734    0.592962    0.769919    11.00000    0.02836
AFIX  33
H2A   2    1.286701    0.657153    0.813411    11.00000   -1.50000
H3A   2    1.243915    0.548559    0.882139    11.00000   -1.50000
H1A   2    1.346994    0.570767    0.665623    11.00000   -1.50000
AFIX   0
C3A   1    0.921959    0.669854    0.486873    11.00000    0.03129
AFIX  13
H5A   2    0.995356    0.636454    0.355624    11.00000   -1.20000
AFIX   0
C4A   1    0.617956    0.709552    0.455232    11.00000    0.03880
AFIX  33
H8A   2    0.496936    0.652370    0.407712    11.00000   -1.50000
H9A   2    0.551115    0.736948    0.590525    11.00000   -1.50000
H7A   2    0.613362    0.764471    0.347430    11.00000   -1.50000
AFIX   0
O3A   4    1.090162    0.757907    0.557025    11.00000    0.03416
AFIX  83
H6A   2    1.088389    0.803102    0.461371    11.00000   -1.50000
AFIX   0
SAME 0.01 C1A > O3A
C1B   1    0.643868    0.503403    0.125469    11.00000    0.02466
O1B   4    0.456625    0.568774    0.140335    11.00000    0.03026
O2B   4    0.894293    0.520852    0.068354    11.00000    0.02980
C2B   1    0.559021    0.390820    0.178101    11.00000    0.03435
AFIX  13
H4B   2    0.694967    0.359607    0.283620    11.00000   -1.20000
AFIX   0
N1B   3    0.272768    0.395487    0.268318    11.00000    0.02527
AFIX  33
H2B   2    0.215360    0.330537    0.301379    11.00000   -1.50000
H3B   2    0.277090    0.435138    0.387999    11.00000   -1.50000
H1B   2    0.151736    0.423626    0.170451    11.00000   -1.50000
AFIX   0
C3B   1    0.546415    0.325698   -0.031774    11.00000    0.03622
AFIX  13
H5B   2    0.452808    0.363324   -0.153370    11.00000   -1.20000
AFIX   0
C4B   1    0.840246    0.285065   -0.086402    11.00000    0.03415
AFIX  33
H8B   2    0.956960    0.342831   -0.132734    11.00000   -1.50000
H9B   2    0.926927    0.252694    0.040202    11.00000   -1.50000
H7B   2    0.823261    0.233891   -0.201330    11.00000   -1.50000
AFIX   0
O3B   4    0.390327    0.234872    0.034712    11.00000    0.03170
AFIX  83
H6B   2    0.340557    0.200546   -0.072900    11.00000   -1.50000

AFIX   0
HKLF 4

REM  THRE13 in P2(1)
REM R1 =  0.1115 for     205 Fo > 4sig(Fo)  and  0.1445 for all     310 data
REM     67 parameters refined using     51 restraints

END

WGHT      0.2000      0.0000

REM Highest difference peak  0.432,  deepest hole -0.464,  1-sigma level  0.106
Q1    1   1.3517  0.5257  0.5915  11.00000  0.05    0.43
Q2    1   0.1296  0.4462  0.4541  11.00000  0.05    0.36
;
_shelx_res_checksum              1278
loop_
_space_group_symop_operation_xyz
'x, y, z'
'-x, y+1/2, -z'
loop_
_atom_site_label
_atom_site_type_symbol
_atom_site_fract_x
_atom_site_fract_y
_atom_site_fract_z
_atom_site_U_iso_or_equiv
_atom_site_adp_type
_atom_site_occupancy
_atom_site_site_symmetry_order
_atom_site_calc_flag
_atom_site_refinement_flags_posn
_atom_site_refinement_flags_adp
C1A C 0.857(3) 0.4859(12) 0.614(8) 0.024(6) Uiso 1 1 d D .
O1A O 1.047(2) 0.4208(12) 0.627(6) 0.022(4) Uiso 1 1 d D .
O2A O 0.596(2) 0.4659(17) 0.586(8) 0.046(7) Uiso 1 1 d D .
C2A C 0.938(3) 0.5969(11) 0.685(5) 0.020(6) Uiso 1 1 d D .
H4A H 0.8096 0.6218 0.7982 0.023 Uiso 1 1 calc R U
N1A N 1.233(2) 0.5930(17) 0.770(5) 0.028(6) Uiso 1 1 d D .
H2A H 1.2867 0.6572 0.8134 0.043 Uiso 1 1 calc R U
H3A H 1.2439 0.5486 0.8821 0.043 Uiso 1 1 calc R U
H1A H 1.3470 0.5708 0.6656 0.043 Uiso 1 1 calc R U
C3A C 0.922(3) 0.6699(15) 0.487(5) 0.031(7) Uiso 1 1 d D .
H5A H 0.9954 0.6365 0.3556 0.038 Uiso 1 1 calc R U
C4A C 0.618(3) 0.710(2) 0.455(7) 0.039(7) Uiso 1 1 d D .
H8A H 0.4969 0.6524 0.4077 0.058 Uiso 1 1 calc R U
H9A H 0.5511 0.7369 0.5905 0.058 Uiso 1 1 calc R U
H7A H 0.6134 0.7645 0.3474 0.058 Uiso 1 1 calc R U
O3A O 1.090(3) 0.7579(11) 0.557(6) 0.034(6) Uiso 1 1 d D .
H6A H 1.0884 0.8031 0.4614 0.051 Uiso 1 1 calc R U
C1B C 0.644(3) 0.5034(12) 0.125(8) 0.025(6) Uiso 1 1 d D .
O1B O 0.457(3) 0.5688(13) 0.140(7) 0.030(5) Uiso 1 1 d D .
O2B O 0.894(3) 0.5209(14) 0.068(7) 0.030(5) Uiso 1 1 d D .
C2B C 0.559(4) 0.3908(12) 0.178(6) 0.034(8) Uiso 1 1 d D .
H4B H 0.6950 0.3596 0.2836 0.041 Uiso 1 1 calc R U
N1B N 0.273(3) 0.3955(16) 0.268(5) 0.025(6) Uiso 1 1 d D .
H2B H 0.2154 0.3305 0.3014 0.038 Uiso 1 1 calc R U
H3B H 0.2771 0.4351 0.3880 0.038 Uiso 1 1 calc R U
H1B H 0.1517 0.4236 0.1705 0.038 Uiso 1 1 calc R U
C3B C 0.546(3) 0.3257(16) -0.032(6) 0.036(8) Uiso 1 1 d D .
H5B H 0.4528 0.3633 -0.1534 0.043 Uiso 1 1 calc R U
C4B C 0.840(4) 0.285(2) -0.086(8) 0.034(7) Uiso 1 1 d D .
H8B H 0.9570 0.3428 -0.1327 0.051 Uiso 1 1 calc R U
H9B H 0.9269 0.2527 0.0402 0.051 Uiso 1 1 calc R U
H7B H 0.8233 0.2339 -0.2013 0.051 Uiso 1 1 calc R U
O3B O 0.390(3) 0.2349(12) 0.035(6) 0.032(5) Uiso 1 1 d D .
H6B H 0.3406 0.2005 -0.0729 0.048 Uiso 1 1 calc R U
loop_
_atom_type_symbol
_atom_type_description
_atom_type_scat_dispersion_real
_atom_type_scat_dispersion_imag
_atom_type_scat_source
C C 0.0009 0.0007 'International Tables Vol C Tables 4.2.6.8 and 6.1.1.4'
H H 0.0000 0.0000 'International Tables Vol C Tables 4.2.6.8 and 6.1.1.4'
N N 0.0021 0.0015 'International Tables Vol C Tables 4.2.6.8 and 6.1.1.4'
O O 0.0041 0.0028 'International Tables Vol C Tables 4.2.6.8 and 6.1.1.4'
loop_
_geom_angle_atom_site_label_1
_geom_angle_atom_site_label_2
_geom_angle_atom_site_label_3
_geom_angle
O1A C1A O2A 125.5(17)
O1A C1A C2A 115.7(16)
O2A C1A C2A 117.4(14)
N1A C2A C1A 107.2(12)
N1A C2A C3A 109.3(15)
C1A C2A C3A 108.7(19)
N1A C2A H4A 110.5
C1A C2A H4A 110.5
C3A C2A H4A 110.5
C2A N1A H2A 109.5
C2A N1A H3A 109.5
H2A N1A H3A 109.5
C2A N1A H1A 109.5
H2A N1A H1A 109.5
H3A N1A H1A 109.5
O3A C3A C4A 106.8(16)
O3A C3A C2A 102.4(16)
C4A C3A C2A 109.3(18)
O3A C3A H5A 112.6
C4A C3A H5A 112.6
C2A C3A H5A 112.6
C3A C4A H8A 109.5
C3A C4A H9A 109.5
H8A C4A H9A 109.5
C3A C4A H7A 109.5
H8A C4A H7A 109.5
H9A C4A H7A 109.5
C3A O3A H6A 109.5
O1B C1B O2B 125.8(16)
O1B C1B C2B 115.6(13)
O2B C1B C2B 118.5(12)
N1B C2B C1B 106.8(12)
N1B C2B C3B 108.9(15)
C1B C2B C3B 109(2)
N1B C2B H4B 110.5
C1B C2B H4B 110.5
C3B C2B H4B 110.5
C2B N1B H2B 109.5
C2B N1B H3B 109.5
H2B N1B H3B 109.5
C2B N1B H1B 109.5
H2B N1B H1B 109.5
H3B N1B H1B 109.5
O3B C3B C4B 105.3(16)
O3B C3B C2B 101.7(15)
C4B C3B C2B 110.7(19)
O3B C3B H5B 112.8
C4B C3B H5B 112.8
C2B C3B H5B 112.8
C3B C4B H8B 109.5
C3B C4B H9B 109.5
H8B C4B H9B 109.5
C3B C4B H7B 109.5
H8B C4B H7B 109.5
H9B C4B H7B 109.5
C3B O3B H6B 109.5
loop_
_geom_bond_atom_site_label_1
_geom_bond_atom_site_label_2
_geom_bond_distance
C1A O1A 1.210(14)
C1A O2A 1.255(13)
C1A C2A 1.518(16)
C2A N1A 1.462(14)
C2A C3A 1.530(18)
C2A H4A 0.9800
N1A H2A 0.8900
N1A H3A 0.8900
N1A H1A 0.8900
C3A O3A 1.425(16)
C3A C4A 1.516(15)
C3A H5A 0.9800
C4A H8A 0.9600
C4A H9A 0.9600
C4A H7A 0.9600
O3A H6A 0.8200
C1B O1B 1.210(14)
C1B O2B 1.251(14)
C1B C2B 1.516(15)
C2B N1B 1.463(15)
C2B C3B 1.530(18)
C2B H4B 0.9800
N1B H2B 0.8900
N1B H3B 0.8900
N1B H1B 0.8900
C3B O3B 1.427(16)
C3B C4B 1.513(15)
C3B H5B 0.9800
C4B H8B 0.9600
C4B H9B 0.9600
C4B H7B 0.9600
O3B H6B 0.8200
