#------------------------------------------------------------------------------
#$Date: 2023-12-01 15:23:56 +0200 (Fri, 01 Dec 2023) $
#$Revision: 287932 $
#$URL: file:///home/coder/svn-repositories/cod/cif/7/23/29/7232984.cif $
#------------------------------------------------------------------------------
#
# This file is available in the Crystallography Open Database (COD),
# http://www.crystallography.net/
#
# All data on this site have been placed in the public domain by the
# contributors.
#
data_7232984
loop_
_publ_author_name
'Heine, Miriam'
'Fink, Lothar'
'Schmidt, Martin U.'
_publ_section_title
;
 Coordination compounds built up from MIICl2 and 3-cyanopyridine: double
 chains, single chains and isolated complexes
;
_journal_issue                   29
_journal_name_full               CrystEngComm
_journal_page_first              4305
_journal_paper_doi               10.1039/C9CE00412B
_journal_volume                  21
_journal_year                    2019
_chemical_formula_iupac          'C6 H4 Cl2 Mn N2 '
_chemical_formula_moiety         'C6 H4 Cl2 Mn N2 '
_chemical_formula_structural     'C6 H4 Cl2 Mn N2 '
_chemical_formula_sum            'C6 H4 Cl2 Mn N2'
_chemical_formula_weight         229.95
_chemical_name_common            Catena-bis-chloro-(3-cyanopyridine)manganat(II)
_chemical_name_systematic
; 
catena-bis-chloro-(3-cyanopyridine)manganat(II)
;
_space_group_IT_number           62
_space_group_name_Hall           '-P 2ac 2n'
_space_group_name_H-M_alt        'P n m a'
_symmetry_cell_setting           orthorhombic
_symmetry_space_group_name_Hall  '-P 2ac 2n'
_symmetry_space_group_name_H-M   'P n m a'
_cell_angle_alpha                90
_cell_angle_beta                 90
_cell_angle_gamma                90
_cell_formula_units_Z            4
_cell_length_a                   16.53381(94)
_cell_length_b                   3.69328(12)
_cell_length_c                   14.45964(92)
_cell_measurement_temperature    298
_cell_volume                     882.96(8)
_computing_cell_refinement       'DASH (David <i> et al.</i> , 2004)'
_computing_data_collection       'STOE WINXPOW (STOE & Cie GmbH, 2004)'
_computing_data_reduction        'DASH (David <i>et al.</i>, 2004)'
_computing_molecular_graphics    'MERCURY (Macrea <i>et al.</i>)'
_computing_structure_refinement  'TOPAS (Coelho, 2018)'
_computing_structure_solution    'DASH (David <i>et al.</i>, 2004)'
_diffrn_ambient_temperature      298
_diffrn_detector                 Dectris
_diffrn_detector_type            'Mythen silicon strip detector'
_diffrn_measurement_device_type  'STOE Stadi-P'
_diffrn_radiation_monochromator  'primary focussing, Ge 111'
_diffrn_radiation_source         'X-ray tube'
_diffrn_radiation_type           'Mo K\a~1~'
_diffrn_radiation_wavelength     0.70930
_diffrn_source_target            STOE
_diffrn_source_type              STOE
_exptl_crystal_colour            colorless
_exptl_crystal_density_diffrn    1.730
_pd_instr_location               ' ?'
_pd_meas_2theta_range_inc        0.015
_pd_meas_2theta_range_max        60.075
_pd_meas_2theta_range_min        1.5
_pd_meas_number_of_points        3906
_pd_meas_scan_method             step
_pd_proc_2theta_range_inc        0.015
_pd_proc_2theta_range_max        60.075
_pd_proc_2theta_range_min        1.5
_pd_proc_info_excluded_regions   none
_pd_proc_ls_background_function  'Chebychev polynomial'
_pd_proc_ls_pref_orient_corr     none
_pd_proc_ls_profile_function
;
modified spherical harmonics(Coelho, 2018)
;
_pd_proc_ls_prof_R_factor        0.02919
_pd_proc_ls_prof_wR_expected     0.03038
_pd_proc_ls_prof_wR_factor       0.03846
_pd_spec_mounting
;
Specimen was measured in a boro silicate glass capillary (Hilgenberg).
;
_pd_spec_mount_mode              transmission
_refine_ls_extinction_method     none
_refine_ls_goodness_of_fit_all   1.266
_refine_ls_hydrogen_treatment    mixed
_refine_ls_matrix_type           fullcycle
_refine_ls_number_constraints    1
_refine_ls_number_parameters     72
_refine_ls_number_restraints     29
_refine_ls_R_I_factor            1.3538
_refine_ls_weighting_details     w=1/\s(Y~obs~)^2^
_refine_ls_weighting_scheme      sigma
_cod_data_source_file            c9ce00412b7.cif
_cod_data_source_block           MnCl2(3-cypy)1
_cod_depositor_comments
'Adding full bibliography for 7232977--7232987.cif.'
_cod_original_cell_volume        882.964(81)
_cod_original_sg_symbol_H-M      'P  n m a'
_cod_original_formula_sum        'C6 H4 Cl2 Mn N2 '
_cod_database_code               7232984
loop_
_symmetry_equiv_pos_as_xyz
'-x, -y, -z'
'-x, y+1/2, -z'
'-x+1/2, -y, z+1/2'
'-x+1/2, y+1/2, z+1/2'
'x, -y+1/2, z'
'x, y, z'
'x+1/2, -y+1/2, -z+1/2'
'x+1/2, y, -z+1/2'
loop_
_atom_site_label
_atom_site_type_symbol
_atom_site_symmetry_multiplicity
_atom_site_fract_x
_atom_site_fract_y
_atom_site_fract_z
_atom_site_occupancy
_atom_site_B_iso_or_equiv
_atom_site_U_iso_or_equiv
N1 N 0 0.62512(46) 0.25 0.293582(51) 1 1.35358 0.01714
Mn2 Mn 0 0.51561(23) 0.25 0.385091(25) 1 1.35358 0.01714
C3 C 0 0.60671(38) 0.25 0.205037(43) 1 1.35358 0.01714
C4 C 0 0.70095(38) 0.25 0.325419(44) 1 1.35358 0.01714
Cl5 Cl 0 0.59015(30) 0.75 0.480319(39) 1 1.35358 0.01714
Cl6 Cl 0 0.44729(32) 0.75 0.298128(42) 1 1.35358 0.01714
H7 H 0 0.5484(15) 0.25 0.1849(16) 1 1.624296 0.02057
C8 C 0 0.67056(39) 0.25 0.141082(43) 1 1.35358 0.01714
C9 C 0 0.76700(38) 0.25 0.264446(43) 1 1.35358 0.01714
H10 H 0 0.7107(13) 0.25 0.3942(19) 1 1.624296 0.02057
C11 C 0 0.65154(62) 0.25 0.042582(45) 1 1.35358 0.01714
C12 C 0 0.75139(37) 0.25 0.170255(43) 1 1.35358 0.01714
H13 H 0 0.8240(15) 0.25 0.2865(19) 1 1.624296 0.02057
N14 N 0 0.63662(70) 0.25 -0.037177(60) 1 1.35358 0.01714
H15 H 0 0.7971(13) 0.25 0.1235(20) 1 1.624296 0.02057
loop_
_atom_type_symbol
_atom_type_description
_atom_type_scat_source
C C 'International Tables Vol C Table 6.1.1.4'
H H 'International Tables Vol C Table 6.1.1.4'
Mn Mn 'International Tables Vol C Table 6.1.1.4'
Cl Cl 'International Tables Vol C Table 6.1.1.4'
N N 'International Tables Vol C Table 6.1.1.4'
loop_
_geom_angle_atom_site_label_1
_geom_angle_atom_site_label_2
_geom_angle_atom_site_label_3
_geom_angle
Mn2 N1 C3 112.8(6)
Mn2 N1 C4 123.69(12)
C3 N1 C4 123.53(69)
N1 Mn2 Cl5 86.0(2)
N1 Mn2 Cl6 93.9(2)
Cl5 Mn2 Cl6 87.50(12)
N1 C3 H7 120.2(15)
N1 C3 C8 117.84(62)
H7 C3 C8 122.1(14)
N1 C4 C9 120.9(2)
N1 C4 H10 119.4(14)
C9 C4 H10 119.7(14)
C3 C8 C11 118.77(65)
C3 C8 C12 121.3(2)
C11 C8 C12 119.97(65)
C4 C9 C12 118.18(56)
C4 C9 H13 122.4(17)
C12 C9 H13 119.4(16)
C8 C11 N14 179.6(10)
C8 C12 C9 118.25(57)
C8 C12 H15 120.7(16)
C9 C12 H15 121.1(16)
loop_
_geom_bond_atom_site_label_1
_geom_bond_atom_site_label_2
_geom_bond_distance
N1 Mn2 2.2426(84)
N1 C3 1.316(3)
N1 C4 1.3355(98)
Mn2 Cl5 2.6125(47)
Mn2 Cl6 2.5035(45)
C3 H7 1.007(25)
C3 C8 1.4033(89)
C4 C9 1.4035(88)
C4 H10 1.007(28)
C8 C11 1.459(3)
C8 C12 1.4014(89)
C9 C12 1.3862(19)
C9 H13 0.995(27)
C11 N14 1.179(3)
C12 H15 1.014(26)
