#------------------------------------------------------------------------------
#$Date: 2019-11-07 21:57:30 +0200 (Thu, 07 Nov 2019) $
#$Revision: 223661 $
#$URL: file:///home/coder/svn-repositories/cod/cif/7/23/22/7232226.cif $
#------------------------------------------------------------------------------
#
# This file is available in the Crystallography Open Database (COD),
# http://www.crystallography.net/
#
# All data on this site have been placed in the public domain by the
# contributors.
#
data_7232226
loop_
_publ_author_name
'Lodochnikova, Olga A.'
'Latypova, Liliya Z.'
'Madzhidov, Timur I.'
'Chmutova, Galina A.'
'Voronina, Julia K.'
'Gubaidullin, Aidar T.'
'Kurbangalieva, Almira R.'
_publ_section_title
;
 &#x201C;Lp&#x22EF;synthon&#x201D; interaction as a reason for the strong
 amplification of synthon-forming hydrogen bonds
;
_journal_issue                   9
_journal_name_full               CrystEngComm
_journal_page_first              1499
_journal_paper_doi               10.1039/C8CE01982G
_journal_volume                  21
_journal_year                    2019
_chemical_formula_moiety         'C6 H4 Cl2 O6 S'
_chemical_formula_sum            'C6 H4 Cl2 O6 S'
_chemical_formula_weight         275.05
_chemical_melting_point          417
_chemical_name_systematic
'2-oxo-3,4-dichloro-2,5-dihydrofuran-5-ylsulfonyl) ethanoic acid'
_space_group_crystal_system      monoclinic
_space_group_IT_number           14
_space_group_name_Hall           '-P 2ybc'
_space_group_name_H-M_alt        'P 1 21/c 1'
_symmetry_space_group_name_Hall  '-P 2ybc'
_symmetry_space_group_name_H-M   'P 1 21/c 1'
_atom_sites_solution_hydrogens   mixed
_audit_creation_method           SHELXL-2017/1
_audit_update_record
;
2018-07-02 deposited with the CCDC.
2019-01-25 downloaded from the CCDC.
;
_cell_angle_alpha                90
_cell_angle_beta                 96.761(2)
_cell_angle_gamma                90
_cell_formula_units_Z            4
_cell_length_a                   7.7319(5)
_cell_length_b                   9.6130(7)
_cell_length_c                   13.2774(9)
_cell_measurement_reflns_used    7769
_cell_measurement_temperature    150(2)
_cell_measurement_theta_max      30.51
_cell_measurement_theta_min      2.65
_cell_volume                     980.00(12)
_computing_cell_refinement       'Bruker SAINT'
_computing_data_collection       'Bruker APEX2'
_computing_data_reduction        'Bruker SAINT'
_computing_structure_refinement  'SHELXL-2017/1 (Sheldrick, 2017)'
_computing_structure_solution    SHELXT-2014/5
_diffrn_ambient_temperature      150(2)
_diffrn_measured_fraction_theta_full 0.998
_diffrn_measured_fraction_theta_max 0.998
_diffrn_measurement_device_type  'Bruker APEX-II CCD'
_diffrn_measurement_method       '\f and \w scans'
_diffrn_radiation_probe          x-ray
_diffrn_radiation_type           MoK\a
_diffrn_radiation_wavelength     0.71073
_diffrn_reflns_av_R_equivalents  0.0157
_diffrn_reflns_av_unetI/netI     0.0126
_diffrn_reflns_Laue_measured_fraction_full 0.998
_diffrn_reflns_Laue_measured_fraction_max 0.998
_diffrn_reflns_limit_h_max       9
_diffrn_reflns_limit_h_min       -10
_diffrn_reflns_limit_k_max       12
_diffrn_reflns_limit_k_min       -5
_diffrn_reflns_limit_l_max       17
_diffrn_reflns_limit_l_min       -17
_diffrn_reflns_number            9338
_diffrn_reflns_point_group_measured_fraction_full 0.998
_diffrn_reflns_point_group_measured_fraction_max 0.998
_diffrn_reflns_theta_full        25.242
_diffrn_reflns_theta_max         28.000
_diffrn_reflns_theta_min         2.622
_exptl_absorpt_coefficient_mu    0.879
_exptl_absorpt_correction_T_max  0.758
_exptl_absorpt_correction_T_min  0.679
_exptl_absorpt_correction_type   multi-scan
_exptl_absorpt_process_details   SADABS
_exptl_crystal_colour            colorless
_exptl_crystal_density_diffrn    1.864
_exptl_crystal_description       prismatic
_exptl_crystal_F_000             552
_exptl_crystal_size_max          0.460
_exptl_crystal_size_mid          0.320
_exptl_crystal_size_min          0.300
_refine_diff_density_max         0.417
_refine_diff_density_min         -0.392
_refine_diff_density_rms         0.058
_refine_ls_extinction_method     none
_refine_ls_goodness_of_fit_ref   1.082
_refine_ls_hydrogen_treatment    mixed
_refine_ls_matrix_type           full
_refine_ls_number_parameters     139
_refine_ls_number_reflns         2364
_refine_ls_number_restraints     0
_refine_ls_restrained_S_all      1.082
_refine_ls_R_factor_all          0.0238
_refine_ls_R_factor_gt           0.0226
_refine_ls_shift/su_max          0.000
_refine_ls_shift/su_mean         0.000
_refine_ls_structure_factor_coef Fsqd
_refine_ls_weighting_details
'w=1/[\s^2^(Fo^2^)+(0.0271P)^2^+0.5584P] where P=(Fo^2^+2Fc^2^)/3'
_refine_ls_weighting_scheme      calc
_refine_ls_wR_factor_gt          0.0574
_refine_ls_wR_factor_ref         0.0585
_reflns_Friedel_coverage         0.000
_reflns_number_gt                2254
_reflns_number_total             2364
_reflns_threshold_expression     'I > 2\s(I)'
_cod_data_source_file            c8ce01982g2.cif
_cod_data_source_block           shelx_CCDC1
_cod_depositor_comments
'Adding full bibliography for 7232225--7232227.cif.'
_cod_database_code               7232226
_shelx_shelxl_version_number     2017/1
_shelx_space_group_comment
;
The symmetry employed for this shelxl refinement is uniquely defined
by the following loop, which should always be used as a source of
symmetry information in preference to the above space-group names.
They are only intended as comments.
;
_shelx_estimated_absorpt_t_min   0.688
_shelx_estimated_absorpt_t_max   0.778
_shelx_res_file
;
TITL mo_kur147_0m in P2(1)/c
    shelx.res
    created by SHELXL-2017/1 at 12:05:09 on 02-Jul-2018
CELL  0.71073   7.7319   9.6130  13.2774   90.000   96.761   90.000
ZERR     4.00   0.0005   0.0007   0.0009    0.000    0.002    0.000
LATT   1
SYMM  - X, 1/2 + Y, 1/2 - Z
SFAC  C    H    O    S    CL
UNIT  24 16 24 4 8
MERG   2
OMIT    -3.00  56.00
OMIT    -2   0   6
OMIT     1   2   4
OMIT     0   3   4
FMAP   2
PLAN   20
SIZE     0.300   0.320   0.460
ACTA
BOND   $H
CONF
L.S.  14
TEMP  -123.00
WGHT    0.027100    0.558400
FVAR       0.23698
MOLE    1
C5    1    0.721565    0.666430    0.223839    11.00000    0.01356    0.01663 =
         0.01269   -0.00021   -0.00028    0.00017
AFIX  13
H50   2    0.741580    0.576128    0.260764    11.00000   -1.20000
AFIX   0
C4    1    0.796123    0.663143    0.124512    11.00000    0.01511    0.01714 =
         0.01382    0.00069    0.00117    0.00209
C3    1    0.912771    0.764198    0.123988    11.00000    0.01375    0.02381 =
         0.01895    0.00220    0.00208   -0.00057
C2    1    0.925756    0.837710    0.222164    11.00000    0.01513    0.02925 =
         0.02379   -0.00292   -0.00021   -0.00506
C6    1    0.437237    0.759349    0.325740    11.00000    0.01905    0.01338 =
         0.01459    0.00000    0.00385    0.00246
AFIX  23
H62H  2    0.512305    0.838338    0.350998    11.00000   -1.20000
H61A  2    0.314772    0.791437    0.319450    11.00000   -1.20000
AFIX   0
C7    1    0.460640    0.641940    0.401799    11.00000    0.01890    0.01342 =
         0.00981   -0.00286    0.00395    0.00074
CL2   5    0.736666    0.546300    0.031756    11.00000    0.02680    0.02011 =
         0.01654   -0.00424    0.00483   -0.00222
CL1   5    1.039317    0.807805    0.033539    11.00000    0.01996    0.03678 =
         0.02878    0.00482    0.01020   -0.00553
O1    3    0.809295    0.777245    0.279379    11.00000    0.01684    0.02655 =
         0.01669   -0.00582   -0.00024   -0.00575
O2    3    1.019518    0.929956    0.253945    11.00000    0.03045    0.04633 =
         0.03924   -0.01471    0.00369   -0.02234
O6    3    0.329296    0.580362    0.425421    11.00000    0.01728    0.02145 =
         0.01685    0.00181    0.00553   -0.00059
O5    3    0.618118    0.616094    0.435954    11.00000    0.01756    0.01878 =
         0.01725    0.00438   -0.00006   -0.00056
O3    3    0.468799    0.830442    0.140722    11.00000    0.02197    0.02163 =
         0.01937    0.00998    0.00105    0.00239
O4    3    0.400697    0.582450    0.172891    11.00000    0.02050    0.01945 =
         0.01855   -0.00371    0.00080   -0.00611
S1    4    0.490121    0.709178    0.203847    11.00000    0.01288    0.01285 =
         0.01107    0.00176    0.00029   -0.00059
H5    2    0.629192    0.556621    0.472802    11.00000   -1.20000
HKLF    4




REM  mo_kur147_0m in P2(1)/c
REM R1 =  0.0226 for    2254 Fo > 4sig(Fo)  and  0.0238 for all    2364 data
REM    139 parameters refined using      0 restraints

END

WGHT      0.0271      0.5584

REM Highest difference peak  0.417,  deepest hole -0.392,  1-sigma level  0.058
Q1    1   0.7590  0.6639  0.1736  11.00000  0.05    0.42
Q2    1   0.9177  0.8022  0.1685  11.00000  0.05    0.34
Q3    1   0.4442  0.6992  0.3618  11.00000  0.05    0.34
Q4    1   0.8610  0.7072  0.1234  11.00000  0.05    0.33
Q5    1   0.6067  0.6898  0.2161  11.00000  0.05    0.31
Q6    1   0.4603  0.7320  0.2684  11.00000  0.05    0.30
Q7    1   0.3528  0.5183  0.4726  11.00000  0.05    0.29
Q8    1   0.8565  0.8128  0.2491  11.00000  0.05    0.22
Q9    1   0.3478  0.7674  0.2975  11.00000  0.05    0.22
Q10   1   0.4731  0.7825  0.1715  11.00000  0.05    0.20
Q11   1   0.6990  0.6087  0.2643  11.00000  0.05    0.19
Q12   1   0.4619  0.7987  0.3409  11.00000  0.05    0.17
Q13   1   0.4382  0.6399  0.1825  11.00000  0.05    0.17
Q14   1   0.3843  0.5899  0.4002  11.00000  0.05    0.17
Q15   1   0.7609  0.7234  0.2479  11.00000  0.05    0.16
Q16   1   0.9422  0.7771  0.0965  11.00000  0.05    0.14
Q17   1   1.1958  0.6912  0.0026  11.00000  0.05    0.14
Q18   1   0.3705  0.9735  0.3477  11.00000  0.05    0.13
Q19   1   0.3924  0.5436  0.2168  11.00000  0.05    0.13
Q20   1   0.7945  0.6826  0.4019  11.00000  0.05    0.12
;
_shelx_res_checksum              84373
loop_
_space_group_symop_operation_xyz
'x, y, z'
'-x, y+1/2, -z+1/2'
'-x, -y, -z'
'x, -y-1/2, z-1/2'
loop_
_atom_site_label
_atom_site_type_symbol
_atom_site_fract_x
_atom_site_fract_y
_atom_site_fract_z
_atom_site_U_iso_or_equiv
_atom_site_adp_type
_atom_site_occupancy
_atom_site_site_symmetry_order
_atom_site_calc_flag
_atom_site_refinement_flags_posn
_atom_site_refinement_flags_adp
C5 C 0.72156(15) 0.66643(13) 0.22384(9) 0.0144(2) Uani 1 1 d . .
H50 H 0.741580 0.576128 0.260764 0.017 Uiso 1 1 calc R U
C4 C 0.79612(16) 0.66314(13) 0.12451(9) 0.0154(2) Uani 1 1 d . .
C3 C 0.91277(16) 0.76420(15) 0.12399(10) 0.0188(2) Uani 1 1 d . .
C2 C 0.92576(17) 0.83771(16) 0.22216(11) 0.0229(3) Uani 1 1 d . .
C6 C 0.43724(16) 0.75935(13) 0.32574(9) 0.0155(2) Uani 1 1 d . .
H62H H 0.512305 0.838338 0.350998 0.019 Uiso 1 1 calc R U
H61A H 0.314772 0.791437 0.319450 0.019 Uiso 1 1 calc R U
C7 C 0.46064(16) 0.64194(12) 0.40180(8) 0.0139(2) Uani 1 1 d . .
Cl2 Cl 0.73667(4) 0.54630(3) 0.03176(2) 0.02097(9) Uani 1 1 d . .
Cl1 Cl 1.03932(4) 0.80781(4) 0.03354(3) 0.02793(9) Uani 1 1 d . .
O1 O 0.80930(12) 0.77724(10) 0.27938(7) 0.0202(2) Uani 1 1 d . .
O2 O 1.01952(15) 0.92996(14) 0.25394(9) 0.0387(3) Uani 1 1 d . .
O6 O 0.32930(11) 0.58036(10) 0.42542(7) 0.01825(19) Uani 1 1 d . .
O5 O 0.61812(12) 0.61609(10) 0.43595(7) 0.01803(19) Uani 1 1 d . .
O3 O 0.46880(12) 0.83044(10) 0.14072(7) 0.0211(2) Uani 1 1 d . .
O4 O 0.40070(12) 0.58245(10) 0.17289(7) 0.01962(19) Uani 1 1 d . .
S1 S 0.49012(4) 0.70918(3) 0.20385(2) 0.01235(8) Uani 1 1 d . .
H5 H 0.629(2) 0.5566(18) 0.4728(13) 0.015 Uiso 1 1 d . U
loop_
_atom_site_aniso_label
_atom_site_aniso_U_11
_atom_site_aniso_U_22
_atom_site_aniso_U_33
_atom_site_aniso_U_23
_atom_site_aniso_U_13
_atom_site_aniso_U_12
C5 0.0136(5) 0.0166(6) 0.0127(5) -0.0002(4) -0.0003(4) 0.0002(4)
C4 0.0151(5) 0.0171(6) 0.0138(5) 0.0007(4) 0.0012(4) 0.0021(4)
C3 0.0137(5) 0.0238(6) 0.0189(6) 0.0022(5) 0.0021(4) -0.0006(5)
C2 0.0151(6) 0.0293(7) 0.0238(6) -0.0029(6) -0.0002(5) -0.0051(5)
C6 0.0190(6) 0.0134(5) 0.0146(5) 0.0000(4) 0.0039(4) 0.0025(5)
C7 0.0189(6) 0.0134(5) 0.0098(5) -0.0029(4) 0.0040(4) 0.0007(4)
Cl2 0.02680(17) 0.02011(16) 0.01654(15) -0.00424(11) 0.00483(11) -0.00222(12)
Cl1 0.01996(16) 0.0368(2) 0.02878(18) 0.00482(14) 0.01020(13) -0.00553(13)
O1 0.0168(4) 0.0265(5) 0.0167(4) -0.0058(4) -0.0002(3) -0.0057(4)
O2 0.0304(6) 0.0463(7) 0.0392(6) -0.0147(6) 0.0037(5) -0.0223(5)
O6 0.0173(4) 0.0214(4) 0.0169(4) 0.0018(3) 0.0055(3) -0.0006(4)
O5 0.0176(4) 0.0188(4) 0.0172(4) 0.0044(4) -0.0001(3) -0.0006(3)
O3 0.0220(5) 0.0216(5) 0.0194(4) 0.0100(4) 0.0010(4) 0.0024(4)
O4 0.0205(4) 0.0195(5) 0.0186(4) -0.0037(4) 0.0008(3) -0.0061(4)
S1 0.01288(14) 0.01285(14) 0.01107(13) 0.00176(10) 0.00029(10) -0.00059(10)
loop_
_atom_type_symbol
_atom_type_description
_atom_type_scat_dispersion_real
_atom_type_scat_dispersion_imag
_atom_type_scat_source
C C 0.0033 0.0016 'International Tables Vol C Tables 4.2.6.8 and 6.1.1.4'
H H 0.0000 0.0000 'International Tables Vol C Tables 4.2.6.8 and 6.1.1.4'
O O 0.0106 0.0060 'International Tables Vol C Tables 4.2.6.8 and 6.1.1.4'
S S 0.1246 0.1234 'International Tables Vol C Tables 4.2.6.8 and 6.1.1.4'
Cl Cl 0.1484 0.1585 'International Tables Vol C Tables 4.2.6.8 and 6.1.1.4'
loop_
_geom_angle_atom_site_label_1
_geom_angle_atom_site_label_2
_geom_angle_atom_site_label_3
_geom_angle
O1 C5 C4 105.22(10)
O1 C5 S1 107.85(8)
C4 C5 S1 110.40(8)
O1 C5 H50 111.1
C4 C5 H50 111.1
S1 C5 H50 111.1
C3 C4 C5 108.73(11)
C3 C4 Cl2 127.58(10)
C5 C4 Cl2 123.69(9)
C4 C3 C2 108.77(11)
C4 C3 Cl1 129.56(11)
C2 C3 Cl1 121.63(10)
O2 C2 O1 122.04(13)
O2 C2 C3 130.16(13)
O1 C2 C3 107.76(11)
C7 C6 S1 112.50(8)
C7 C6 H62H 109.1
S1 C6 H62H 109.1
C7 C6 H61A 109.1
S1 C6 H61A 109.1
H62H C6 H61A 107.8
O6 C7 O5 126.22(11)
O6 C7 C6 119.05(11)
O5 C7 C6 114.72(11)
C2 O1 C5 109.51(10)
C7 O5 H5 114.3(13)
O3 S1 O4 120.25(6)
O3 S1 C6 106.74(6)
O4 S1 C6 109.58(6)
O3 S1 C5 108.14(6)
O4 S1 C5 106.34(6)
C6 S1 C5 104.76(6)
loop_
_geom_bond_atom_site_label_1
_geom_bond_atom_site_label_2
_geom_bond_distance
C5 O1 1.4216(15)
C5 C4 1.5005(16)
C5 S1 1.8248(12)
C5 H50 1.0000
C4 C3 1.3261(18)
C4 Cl2 1.6901(13)
C3 C2 1.4757(19)
C3 Cl1 1.6888(13)
C2 O2 1.1908(17)
C2 O1 1.3736(16)
C6 C7 1.5111(16)
C6 S1 1.7818(12)
C6 H62H 0.9900
C6 H61A 0.9900
C7 O6 1.2470(15)
C7 O5 1.2728(15)
O5 H5 0.751(17)
O3 S1 1.4339(9)
O4 S1 1.4367(9)
loop_
_geom_torsion_atom_site_label_1
_geom_torsion_atom_site_label_2
_geom_torsion_atom_site_label_3
_geom_torsion_atom_site_label_4
_geom_torsion
O1 C5 C4 C3 -0.89(14)
S1 C5 C4 C3 115.22(10)
O1 C5 C4 Cl2 178.73(9)
S1 C5 C4 Cl2 -65.16(12)
C5 C4 C3 C2 1.25(15)
Cl2 C4 C3 C2 -178.35(10)
C5 C4 C3 Cl1 178.84(10)
Cl2 C4 C3 Cl1 -0.8(2)
C4 C3 C2 O2 176.41(16)
Cl1 C3 C2 O2 -1.4(2)
C4 C3 C2 O1 -1.19(15)
Cl1 C3 C2 O1 -179.01(9)
S1 C6 C7 O6 -103.97(11)
S1 C6 C7 O5 76.11(12)
O2 C2 O1 C5 -177.24(14)
C3 C2 O1 C5 0.60(14)
C4 C5 O1 C2 0.12(13)
S1 C5 O1 C2 -117.72(10)
C7 C6 S1 O3 -177.87(9)
C7 C6 S1 O4 50.42(10)
C7 C6 S1 C5 -63.32(10)
O1 C5 S1 O3 64.71(9)
C4 C5 S1 O3 -49.75(10)
O1 C5 S1 O4 -164.86(8)
C4 C5 S1 O4 80.68(10)
O1 C5 S1 C6 -48.86(9)
C4 C5 S1 C6 -163.31(9)
