#------------------------------------------------------------------------------
#$Date: 2019-11-07 21:58:40 +0200 (Thu, 07 Nov 2019) $
#$Revision: 223668 $
#$URL: file:///home/coder/svn-repositories/cod/cif/7/23/27/7232739.cif $
#------------------------------------------------------------------------------
#
# This file is available in the Crystallography Open Database (COD),
# http://www.crystallography.net/
#
# All data on this site have been placed in the public domain by the
# contributors.
#
data_7232739
loop_
_publ_author_name
'Giordano, Nico'
'Beavers, Christine M.'
'Kamenev, Konstantin V.'
'Marshall, William G.'
'Moggach, Stephen A.'
'Patterson, Simon D.'
'Teat, Simon J.'
'Warren, John E.'
'Wood, Peter A.'
'Parsons, Simon'
_publ_section_title
;
 High-pressure polymorphism in l-threonine between ambient pressure and 22
 GPa
;
_journal_issue                   30
_journal_name_full               CrystEngComm
_journal_page_first              4444
_journal_paper_doi               10.1039/C9CE00388F
_journal_volume                  21
_journal_year                    2019
_chemical_formula_sum            'C4 H9 N O3'
_chemical_formula_weight         119.12
_space_group_crystal_system      orthorhombic
_space_group_IT_number           19
_space_group_name_Hall           'P 2ac 2ab'
_space_group_name_H-M_alt        'P 21 21 21'
_symmetry_space_group_name_Hall  'P 2ac 2ab'
_symmetry_space_group_name_H-M   'P 21 21 21'
_atom_sites_solution_hydrogens   geom
_audit_creation_method           SHELXL-2014/7
_audit_update_record
;
2019-03-15 deposited with the CCDC.    2019-05-09 downloaded from the CCDC.
;
_cell_angle_alpha                90
_cell_angle_beta                 90
_cell_angle_gamma                90
_cell_formula_units_Z            4
_cell_length_a                   4.9154(9)
_cell_length_b                   13.230(5)
_cell_length_c                   6.7665(14)
_cell_measurement_reflns_used    714
_cell_measurement_temperature    296(2)
_cell_measurement_theta_max      16.675
_cell_measurement_theta_min      2.896
_cell_volume                     440.0(2)
_computing_cell_refinement       'SAINT v7.68A (Bruker, 2009)'
_computing_data_reduction        'SAINT v7.68A (Bruker, 2009)'
_computing_structure_refinement  'SHELXL-2014/7 (Sheldrick, 2014)'
_computing_structure_solution    'SHELXT 2014/5 (Sheldrick, 2014)'
_diffrn_ambient_pressure         6.67
_diffrn_ambient_temperature      296(2)
_diffrn_measured_fraction_theta_full 0.613
_diffrn_measured_fraction_theta_max 0.599
_diffrn_measurement_device_type  'Bruker-Nonius APEX II'
_diffrn_measurement_method       '\f and \w scans'
_diffrn_radiation_type           synchrotron
_diffrn_radiation_wavelength     0.478
_diffrn_reflns_av_R_equivalents  0.0938
_diffrn_reflns_av_unetI/netI     0.0918
_diffrn_reflns_Laue_measured_fraction_full 0.613
_diffrn_reflns_Laue_measured_fraction_max 0.599
_diffrn_reflns_limit_h_max       6
_diffrn_reflns_limit_h_min       -6
_diffrn_reflns_limit_k_max       12
_diffrn_reflns_limit_k_min       -12
_diffrn_reflns_limit_l_max       8
_diffrn_reflns_limit_l_min       -8
_diffrn_reflns_number            2302
_diffrn_reflns_point_group_measured_fraction_full 0.632
_diffrn_reflns_point_group_measured_fraction_max 0.617
_diffrn_reflns_theta_full        16.666
_diffrn_reflns_theta_max         17.450
_diffrn_reflns_theta_min         2.274
_exptl_absorpt_coefficient_mu    0.071
_exptl_absorpt_correction_T_max  0.7441
_exptl_absorpt_correction_T_min  0.5601
_exptl_absorpt_correction_type   multi-scan
_exptl_absorpt_process_details
'SADABS-2008/1 (Bruker,2008) was used for absorption correction. wR2(int) was 0.1510 before and 0.0806 after correction. The Ratio of minimum to maximum transmission is 0.7527. The \l/2 correction factor is 0.0000.'
_exptl_crystal_colour            colourless
_exptl_crystal_density_diffrn    1.798
_exptl_crystal_description       blade
_exptl_crystal_F_000             256
_exptl_crystal_size_max          0.100
_exptl_crystal_size_mid          0.100
_exptl_crystal_size_min          0.100
_refine_diff_density_max         0.304
_refine_diff_density_min         -0.279
_refine_diff_density_rms         0.071
_refine_ls_abs_structure_details
;
 Flack x determined using 141 quotients [(I+)-(I-)]/[(I+)+(I-)]
 (Parsons, Flack and Wagner, Acta Cryst. B69 (2013) 249-259).
;
_refine_ls_abs_structure_Flack   -6.2(10)
_refine_ls_extinction_method     none
_refine_ls_goodness_of_fit_ref   1.106
_refine_ls_hydrogen_treatment    constr
_refine_ls_matrix_type           full
_refine_ls_number_parameters     33
_refine_ls_number_reflns         561
_refine_ls_number_restraints     17
_refine_ls_restrained_S_all      1.097
_refine_ls_R_factor_all          0.0936
_refine_ls_R_factor_gt           0.0669
_refine_ls_shift/su_max          0.000
_refine_ls_shift/su_mean         0.000
_refine_ls_structure_factor_coef Fsqd
_refine_ls_weighting_details
'w=1/[\s^2^(Fo^2^)+(0.0583P)^2^+0.5464P] where P=(Fo^2^+2Fc^2^)/3'
_refine_ls_weighting_scheme      calc
_refine_ls_wR_factor_gt          0.1462
_refine_ls_wR_factor_ref         0.1583
_reflns_Friedel_coverage         0.665
_reflns_Friedel_fraction_full    0.664
_reflns_Friedel_fraction_max     0.647
_reflns_number_gt                431
_reflns_number_total             561
_reflns_threshold_expression     'I > 2\s(I)'
_cod_data_source_file            c9ce00388f5.cif
_cod_data_source_block           6_67GPa
_cod_depositor_comments
'Adding full bibliography for 7232730--7232750.cif.'
_cod_original_cell_volume        440.04(19)
_cod_database_code               7232739
_shelx_shelxl_version_number     2014/7
_shelx_space_group_comment
;
The symmetry employed for this shelxl refinement is uniquely defined
by the following loop, which should always be used as a source of
symmetry information in preference to the above space-group names.
They are only intended as comments.
;
_shelx_estimated_absorpt_t_min   0.993
_shelx_estimated_absorpt_t_max   0.993
_shelx_res_file
;

    sample6_a.res created by SHELXL-2014/7


TITL sample6_a.res in P2(1)2(1)2(1)
REM Old TITL sample6 in P2(1)2(1)2(1)

REM SHELXT solution in P2(1)2(1)2(1)
REM R1 0.189,  Rweak 0.086,  Alpha 0.042,  Orientation as input
REM Flack x = -2.312 ( 2.100 ) from Parsons' quotients
REM Formula found by SHELXT:  C4 O4

CELL  0.4780   4.9154  13.2303   6.7665   90.000   90.000   90.000
ZERR    4.000   0.0009   0.0045   0.0014    0.000    0.000    0.000
LATT -1
SYMM 1/2-X, -Y, 1/2+Z
SYMM -X, 1/2+Y, 1/2-Z
SYMM 1/2+X, 1/2-Y, -Z
SFAC C H N O
DISP $C  0.00066  0.00068  6.00319!source kissel
DISP $H -0.00003  0.00000  0.65141!source kissel
DISP $N  0.00177  0.00140  8.86248!source kissel
DISP $O  0.00365  0.00257 13.13813!source kissel
UNIT 16 36 4 12
TEMP 23.000
L.S. 10
BOND $H
LIST 6
FMAP 2
PLAN 20
OMIT 3 11 4
OMIT -2 1 1
OMIT 4 5 3
OMIT -2 11 5
OMIT 3 2 3
OMIT 5 8 1
OMIT 4 6 5
OMIT 2 11 5
OMIT 2 1 1
OMIT -3 11 4
OMIT 1 12 5
OMIT 2 8 2
OMIT -5 2 4
OMIT -4 6 5
OMIT -3 2 3
OMIT -1 10 6
OMIT -5 7 2
OMIT 2 0 1
OMIT -1 8 3
OMIT 1 8 3
OMIT -4 5 3
OMIT -2 5 7
OMIT 2 4 4
OMIT 2 2 1
OMIT 5 2 4
OMIT -2 2 1
OMIT 3 9 3
OMIT 3 5 2
OMIT -2 4 4
OMIT -3 6 1
OMIT 4 1 4
OMIT 3 6 1
OMIT -1 2 8
OMIT 2 2 0
OMIT -2 6 1
OMIT -3 5 2
OMIT 3 0 2
OMIT 0 3 1
SIZE 0.1 0.1 0.1
DFIX 1.241 C1 O1
DFIX 1.249 C1 O2
DFIX 1.536 C1 C2
DFIX 1.489 C2 N1
DFIX 1.53 C2 C3
DFIX 1.424 C3 O3
DFIX 1.513 C3 C4
DFIX 2.229 0.04 O1 O2
DFIX 2.368 0.04 O1 C2
DFIX 2.37 0.04 O2 C2
DFIX 2.477 0.04 C1 N1
DFIX 2.553 0.04 C1 C3
DFIX 2.453 0.04 N1 C3
DFIX 2.332 0.04 C2 O3
DFIX 2.543 0.04 C2 C4
DFIX 2.332 0.04 O3 C2
DFIX 2.421 0.04 O3 C4
RIGU
FMAP 2
ACTA
WGHT    0.058300    0.546400
FVAR       2.61942
C1    1    0.319394    0.505760    0.641636    11.00000    0.01820
O1    4    0.506874    0.568674    0.672299    11.00000    0.02748
O2    4    0.070756    0.523329    0.657879    11.00000    0.02748
C2    1    0.405144    0.401224    0.579522    11.00000    0.01800
AFIX  13
H4    2    0.275644    0.375552    0.481507    11.00000   -1.20000
AFIX   0
N1    3    0.677295    0.406513    0.489125    11.00000    0.02217
AFIX  33
H2    2    0.729098    0.344902    0.452088    11.00000   -1.50000
H3    2    0.671881    0.446896    0.384005    11.00000   -1.50000
H1    2    0.795385    0.430939    0.576648    11.00000   -1.50000
AFIX   0
C3    1    0.418225    0.327087    0.753689    11.00000    0.01948
AFIX  13
H5    2    0.523323    0.356426    0.862576    11.00000   -1.20000
AFIX   0
O3    4    0.555739    0.242782    0.674512    11.00000    0.02475
AFIX  83
H6    2    0.557941    0.197064    0.756322    11.00000   -1.50000
AFIX   0
C4    1    0.138774    0.298618    0.823241    11.00000    0.02754
AFIX  33
H8    2    0.049533    0.357161    0.876375    11.00000   -1.50000
H9    2    0.035255    0.272779    0.714057    11.00000   -1.50000
H7    2    0.152694    0.247695    0.923802    11.00000   -1.50000
AFIX   0
HKLF 4

REM  sample6_a.res in P2(1)2(1)2(1)
REM R1 =  0.0669 for     431 Fo > 4sig(Fo)  and  0.0936 for all     561 data
REM     33 parameters refined using     17 restraints

END

WGHT      0.0750      0.5030

REM Highest difference peak  0.304,  deepest hole -0.279,  1-sigma level  0.071
Q1    1   0.4895  0.5529  0.7407  11.00000  0.05    0.30
Q2    1   0.0942  0.5176  0.7371  11.00000  0.05    0.29
Q3    1   0.5488  0.5759  0.5936  11.00000  0.05    0.29
Q4    1   0.0684  0.5516  0.6015  11.00000  0.05    0.24
Q5    1   0.8145  0.4523  0.5053  11.00000  0.05    0.24
Q6    1   0.3289  0.4067  0.8047  11.00000  0.05    0.23
Q7    1  -0.0340  0.2496  0.9629  11.00000  0.05    0.23
Q8    1   0.0712  0.2586  0.7492  11.00000  0.05    0.23
Q9    1  -0.0867  0.1759  0.7631  11.00000  0.05    0.22
Q10   1  -0.1469  0.2395  0.8166  11.00000  0.05    0.20
Q11   1   0.9154  0.3756  0.5169  11.00000  0.05    0.19
Q12   1   0.2110  0.2362  0.9999  11.00000  0.05    0.19
Q13   1   0.0682  0.4632  0.4561  11.00000  0.05    0.19
Q14   1  -0.1641  0.2965  0.8811  11.00000  0.05    0.18
Q15   1   0.8347  0.5021  0.5747  11.00000  0.05    0.18
Q16   1   0.0763  0.3278  0.4854  11.00000  0.05    0.18
Q17   1   0.3418  0.4323  0.6499  11.00000  0.05    0.17
Q18   1   0.2460  0.2018  0.9638  11.00000  0.05    0.17
Q19   1   0.9447  0.4314  0.6717  11.00000  0.05    0.17
Q20   1   0.0802  0.3887  0.3621  11.00000  0.05    0.16
;
_shelx_res_checksum              21280
loop_
_space_group_symop_operation_xyz
'x, y, z'
'-x+1/2, -y, z+1/2'
'-x, y+1/2, -z+1/2'
'x+1/2, -y+1/2, -z'
loop_
_atom_site_label
_atom_site_type_symbol
_atom_site_fract_x
_atom_site_fract_y
_atom_site_fract_z
_atom_site_U_iso_or_equiv
_atom_site_adp_type
_atom_site_occupancy
_atom_site_site_symmetry_order
_atom_site_calc_flag
_atom_site_refinement_flags_posn
_atom_site_refinement_flags_adp
C1 C 0.3194(13) 0.5058(7) 0.6416(9) 0.0182(14) Uiso 1 1 d D .
O1 O 0.5069(9) 0.5687(5) 0.6723(6) 0.0275(12) Uiso 1 1 d D .
O2 O 0.0708(10) 0.5233(5) 0.6579(7) 0.0275(13) Uiso 1 1 d D .
C2 C 0.4051(13) 0.4012(7) 0.5795(9) 0.0180(15) Uiso 1 1 d D .
H4 H 0.2756 0.3756 0.4815 0.022 Uiso 1 1 calc R U
N1 N 0.6773(13) 0.4065(6) 0.4891(7) 0.0222(14) Uiso 1 1 d D .
H2 H 0.7291 0.3449 0.4521 0.033 Uiso 1 1 calc R U
H3 H 0.6719 0.4469 0.3840 0.033 Uiso 1 1 calc R U
H1 H 0.7954 0.4309 0.5766 0.033 Uiso 1 1 calc R U
C3 C 0.4182(14) 0.3271(7) 0.7537(9) 0.0195(16) Uiso 1 1 d D .
H5 H 0.5233 0.3564 0.8626 0.023 Uiso 1 1 calc R U
O3 O 0.5557(9) 0.2428(5) 0.6745(6) 0.0247(13) Uiso 1 1 d D .
H6 H 0.5579 0.1971 0.7563 0.037 Uiso 1 1 calc R U
C4 C 0.1388(14) 0.2986(7) 0.8232(11) 0.0275(19) Uiso 1 1 d D .
H8 H 0.0495 0.3572 0.8764 0.041 Uiso 1 1 calc R U
H9 H 0.0353 0.2728 0.7141 0.041 Uiso 1 1 calc R U
H7 H 0.1527 0.2477 0.9238 0.041 Uiso 1 1 calc R U
loop_
_atom_type_symbol
_atom_type_description
_atom_type_scat_dispersion_real
_atom_type_scat_dispersion_imag
_atom_type_scat_source
C C 0.0007 0.0007 'International Tables Vol C Tables 4.2.6.8 and 6.1.1.4'
H H 0.0000 0.0000 'International Tables Vol C Tables 4.2.6.8 and 6.1.1.4'
N N 0.0018 0.0014 'International Tables Vol C Tables 4.2.6.8 and 6.1.1.4'
O O 0.0036 0.0026 'International Tables Vol C Tables 4.2.6.8 and 6.1.1.4'
loop_
_geom_angle_atom_site_label_1
_geom_angle_atom_site_label_2
_geom_angle_atom_site_label_3
_geom_angle
O1 C1 O2 125.4(8)
O1 C1 C2 116.6(6)
O2 C1 C2 118.0(7)
N1 C2 C1 109.1(6)
N1 C2 C3 108.1(6)
C1 C2 C3 112.6(6)
N1 C2 H4 109.0
C1 C2 H4 109.0
C3 C2 H4 109.0
C2 N1 H2 109.5
C2 N1 H3 109.5
H2 N1 H3 109.5
C2 N1 H1 109.5
H2 N1 H1 109.5
H3 N1 H1 109.5
O3 C3 C4 111.1(7)
O3 C3 C2 103.5(5)
C4 C3 C2 111.3(6)
O3 C3 H5 110.3
C4 C3 H5 110.3
C2 C3 H5 110.3
C3 O3 H6 109.5
C3 C4 H8 109.5
C3 C4 H9 109.5
H8 C4 H9 109.5
C3 C4 H7 109.5
H8 C4 H7 109.5
H9 C4 H7 109.5
loop_
_geom_bond_atom_site_label_1
_geom_bond_atom_site_label_2
_geom_bond_distance
C1 O1 1.259(8)
C1 O2 1.249(8)
C1 C2 1.506(11)
C2 N1 1.473(9)
C2 C3 1.535(9)
C2 H4 0.9800
N1 H2 0.8900
N1 H3 0.8900
N1 H1 0.8900
C3 O3 1.410(10)
C3 C4 1.500(9)
C3 H5 0.9800
O3 H6 0.8200
C4 H8 0.9600
C4 H9 0.9600
C4 H7 0.9600
