#------------------------------------------------------------------------------
#$Date: 2019-11-07 21:25:06 +0200 (Thu, 07 Nov 2019) $
#$Revision: 223504 $
#$URL: file:///home/coder/svn-repositories/cod/cif/7/23/28/7232849.cif $
#------------------------------------------------------------------------------
#
# This file is available in the Crystallography Open Database (COD),
# http://www.crystallography.net/
#
# All data on this site have been placed in the public domain by the
# contributors.
#
data_7232849
loop_
_publ_author_name
'Mocilac, Pavle'
'Gallagher, John F.'
_publ_section_title
;
 Monohalogenated carbamates where hydrogen bonding rules without halogen
 bonding: is there a link between poor carbamate crystal growth and
 Z&#x2032; &gt; 1?
;
_journal_issue                   27
_journal_name_full               CrystEngComm
_journal_page_first              4048
_journal_paper_doi               10.1039/C9CE00318E
_journal_volume                  21
_journal_year                    2019
_chemical_formula_moiety         'C12 H9 Cl N2 O2'
_chemical_formula_sum            'C12 H9 Cl N2 O2'
_chemical_formula_weight         248.66
_chemical_melting_point          472
_chemical_name_common            CopCl
_chemical_name_systematic        4-Chlorophenyl-N-2-pyridylcarbamate
_chemical_properties_physical    Moisture-sensitive
_space_group_crystal_system      triclinic
_space_group_IT_number           2
_space_group_name_Hall           '-P 1'
_space_group_name_H-M_alt        'P -1'
_symmetry_space_group_name_Hall  '-P 1'
_symmetry_space_group_name_H-M   'P -1'
_atom_sites_solution_hydrogens   mixed
_audit_creation_method           SHELXL-2014/7
_audit_update_record
;
2018-03-12 deposited with the CCDC.    2019-05-29 downloaded from the CCDC.
;
_cell_angle_alpha                105.84(3)
_cell_angle_beta                 90.64(2)
_cell_angle_gamma                92.82(2)
_cell_formula_units_Z            2
_cell_length_a                   3.8776(9)
_cell_length_b                   11.481(4)
_cell_length_c                   13.085(5)
_cell_measurement_reflns_used    415
_cell_measurement_temperature    294(2)
_cell_measurement_theta_max      21.79
_cell_measurement_theta_min      2.76
_cell_volume                     559.5(3)
_computing_cell_refinement       'CrysAlisPro 1.171.38.41 (Rigaku OD, 2015)'
_computing_data_collection       'CrysAlisPro 1.171.38.41 (Rigaku OD, 2015)'
_computing_data_reduction        'CrysAlisPro 1.171.38.41 (Rigaku OD, 2015)'
_computing_molecular_graphics    'PLATON (Spek, 2009)'
_computing_publication_material  SHELXL-14/7
_computing_structure_refinement  'SHELXL-2014/7 (Sheldrick, 2014)'
_computing_structure_solution    'SHELXS-14/7 (Sheldrick, 2014)'
_diffrn_ambient_temperature      294(1)
_diffrn_detector_area_resol_mean 16.056
_diffrn_measured_fraction_theta_full 0.990
_diffrn_measured_fraction_theta_max 0.972
_diffrn_measurement_device       'Xcalibur, Sapphire3, Gemini Ultra'
_diffrn_measurement_method       '\w scans'
_diffrn_radiation_monochromator  graphite
_diffrn_radiation_source         'Enhance (Mo) X-ray Source'
_diffrn_radiation_type           MoK\a
_diffrn_radiation_wavelength     0.71073
_diffrn_reflns_av_R_equivalents  0.0815
_diffrn_reflns_av_unetI/netI     0.1144
_diffrn_reflns_Laue_measured_fraction_full 0.990
_diffrn_reflns_Laue_measured_fraction_max 0.972
_diffrn_reflns_limit_h_max       4
_diffrn_reflns_limit_h_min       -4
_diffrn_reflns_limit_k_max       13
_diffrn_reflns_limit_k_min       -13
_diffrn_reflns_limit_l_max       14
_diffrn_reflns_limit_l_min       -15
_diffrn_reflns_number            4234
_diffrn_reflns_point_group_measured_fraction_full 0.990
_diffrn_reflns_point_group_measured_fraction_max 0.972
_diffrn_reflns_theta_full        25.000
_diffrn_reflns_theta_max         25.188
_diffrn_reflns_theta_min         2.769
_diffrn_standards_decay_%        1
_diffrn_standards_interval_time  60
_diffrn_standards_number         4262
_exptl_absorpt_coefficient_mu    0.331
_exptl_absorpt_correction_T_max  1.000
_exptl_absorpt_correction_T_min  0.585
_exptl_absorpt_correction_type   multi-scan
_exptl_absorpt_process_details   'Empirical SCALE3 ABSPACK'
_exptl_crystal_colour            colourless
_exptl_crystal_density_diffrn    1.476
_exptl_crystal_description       Needle
_exptl_crystal_F_000             256
_exptl_crystal_recrystallization_method
'Re-crystallisation from solvent: Chloroform:acetone'
_exptl_crystal_size_max          0.530
_exptl_crystal_size_mid          0.052
_exptl_crystal_size_min          0.026
_refine_diff_density_max         0.308
_refine_diff_density_min         -0.260
_refine_diff_density_rms         0.071
_refine_ls_extinction_method     none
_refine_ls_goodness_of_fit_ref   0.998
_refine_ls_hydrogen_treatment    mixed
_refine_ls_matrix_type           full
_refine_ls_number_parameters     158
_refine_ls_number_reflns         1972
_refine_ls_number_restraints     0
_refine_ls_restrained_S_all      0.998
_refine_ls_R_factor_all          0.1604
_refine_ls_R_factor_gt           0.0787
_refine_ls_shift/su_max          0.000
_refine_ls_shift/su_mean         0.000
_refine_ls_structure_factor_coef Fsqd
_refine_ls_weighting_details
'w=1/[\s^2^(Fo^2^)+(0.0845P)^2^] where P=(Fo^2^+2Fc^2^)/3'
_refine_ls_weighting_scheme      calc
_refine_ls_wR_factor_gt          0.1726
_refine_ls_wR_factor_ref         0.2243
_reflns_Friedel_coverage         0.000
_reflns_number_gt                930
_reflns_number_total             1972
_reflns_threshold_expression     I>2\s(I)
_cod_data_source_file            c9ce00318e2.cif
_cod_data_source_block           CopCl_[11-016]
_cod_depositor_comments
'Adding full bibliography for 7232844--7232852.cif.'
_cod_database_code               7232849
_shelx_shelxl_version_number     2014/7
_shelx_space_group_comment
;
The symmetry employed for this shelxl refinement is uniquely defined
by the following loop, which should always be used as a source of
symmetry information in preference to the above space-group names.
They are only intended as comments.
;
_shelx_estimated_absorpt_t_min   0.844
_shelx_estimated_absorpt_t_max   0.991
_shelx_res_file
;

    11-016.res created by SHELXL-2014/7

TITL  11-016 is CopCl in P-1 at RT with Mo @ 45kV35mA to 0.85\%A
CELL  0.71073   3.8776  11.481  13.085  105.84   90.64  92.82
ZERR  2         0.0009   0.004   0.005    0.03    0.02   0.02
LATT  1
SFAC  C H N O CL
UNIT  24 18 4 4 2
MERG  2
MORE  1
FMAP  2
L.S.  8 3
LIST  4
ACTA  50
CONF
BOND $H
HTAB
EQIV  $2 2-X,1-Y,-Z
EQIV  $3 2-X,1-Y,1-Z
HTAB  N1 N22_$2
HTAB  C23 O2_$2
HTAB  C26 O1
HTAB  C13 O1_$3
RTAB  XC CL14 C14
RTAB  XC CL14 C24
RTAB  OC O1 C1
RTAB  OC O2 C1
RTAB  OC O2 C11
RTAB  NC N1 C1
RTAB  NC N1 C21
RTAB  NC N22 C21
RTAB  NC N22 C23
RTAB  OCO O1 C1 O2
RTAB  OCN O1 C1 N1
RTAB  OCN O2 C1 N1
RTAB  OCC O2 C11 C12
RTAB  OCC O2 C11 C16
RTAB  NCN N1 C21 N22
RTAB  NCC N1 C21 C26
RTAB  COC C1 O2 C11
RTAB  CNC C1 N1 C21
RTAB  CNC C21 N22 C23
RTAB  XCC CL14 C14 C13
RTAB  XCC CL14 C14 C15
RTAB  OCOC O1 C1 O2 C11
RTAB  COCC C1 O2 C11 C12
RTAB  COCC C1 O2 C11 C16
RTAB  OCNC O1 C1 N1 C21
RTAB  CNCN C1 N1 C21 N22
RTAB  CNCC C1 N1 C21 C26
SIZE  0.026 0.052 0.53
TEMP  21
PLAN  10
MPLA  6  C11 C12 C13 C14 C15 C16 CL14
MPLA  6  O1 O2 N1 C1 C11 C21 CL14
MPLA  6  C21 N22 C23 C24 C25 C26 CL14
MPLA  6  C11 C12 C13 C14 C15 C16
MPLA  4  O1 O2 N1 C1 C11 C21
MPLA  6  C21 N22 C23 C24 C25 C26
WGHT    0.084500
FVAR       5.55621
MOLE  1
CL14  5    0.924510    0.901600    0.723592    11.00000    0.09249    0.10022 =
         0.05885   -0.01183   -0.00037   -0.01439
O1    4    0.602870    0.469121    0.292409    11.00000    0.07387    0.06466 =
         0.05652    0.01273    0.01136   -0.01015
O2    4    0.924602    0.632587    0.273877    11.00000    0.08349    0.05667 =
         0.04769    0.00476    0.00357   -0.01518
C1    1    0.757555    0.518737    0.238021    11.00000    0.05907    0.05478 =
         0.05123    0.01273   -0.00131   -0.00466
N1    3    0.816292    0.477520    0.132442    11.00000    0.06784    0.05055 =
         0.03983    0.01199    0.00318   -0.00913
H1    2    0.924823    0.520716    0.097506    11.00000    0.02628
C11   1    0.911382    0.691090    0.382098    11.00000    0.05024    0.04945 =
         0.04581    0.00144    0.00215   -0.01446
C12   1    1.043760    0.641121    0.457361    11.00000    0.06461    0.05176 =
         0.05353    0.01062    0.00308   -0.00294
AFIX  43
H12   2    1.132130    0.564553    0.437131    11.00000   -1.20000
AFIX   0
C13   1    1.044543    0.705576    0.563410    11.00000    0.05513    0.06336 =
         0.05269    0.01627   -0.00291   -0.00981
AFIX  43
H13   2    1.127375    0.672168    0.615505    11.00000   -1.20000
AFIX   0
C14   1    0.922158    0.818616    0.590217    11.00000    0.04597    0.06482 =
         0.05571    0.00717    0.00400   -0.00887
C15   1    0.789577    0.869823    0.516111    11.00000    0.06204    0.04735 =
         0.07202    0.00292    0.00021   -0.00249
AFIX  43
H15   2    0.703408    0.946713    0.536895    11.00000   -1.20000
AFIX   0
C16   1    0.785863    0.805051    0.409359    11.00000    0.05439    0.05474 =
         0.06104    0.01245   -0.01053   -0.01171
AFIX  43
H16   2    0.700127    0.838234    0.357488    11.00000   -1.20000
AFIX   0
C21   1    0.698616    0.366236    0.064902    11.00000    0.05120    0.05143 =
         0.04537    0.00645   -0.00774    0.00134
N22   3    0.773714    0.352838   -0.035714    11.00000    0.05926    0.06325 =
         0.04769    0.00621   -0.00503   -0.01003
C23   1    0.670100    0.247483   -0.106507    11.00000    0.07209    0.06320 =
         0.04920    0.00331   -0.00123   -0.00352
AFIX  43
H23   2    0.719024    0.237429   -0.177716    11.00000   -1.20000
AFIX   0
C24   1    0.497192    0.155028   -0.078789    11.00000    0.05988    0.05914 =
         0.06111   -0.00388   -0.00455   -0.01173
AFIX  43
H24   2    0.431779    0.083251   -0.129849    11.00000   -1.20000
AFIX   0
C25   1    0.422682    0.169672    0.024280    11.00000    0.05943    0.06083 =
         0.07355    0.01426    0.00046   -0.00954
AFIX  43
H25   2    0.304779    0.107387    0.044559    11.00000   -1.20000
AFIX   0
C26   1    0.519591    0.275891    0.099568    11.00000    0.06266    0.05978 =
         0.05483    0.01026   -0.00171   -0.00475
AFIX  43
H26   2    0.468145    0.287239    0.170756    11.00000   -1.20000
AFIX   0
HKLF  4

REM   11-016 is CopCl in P-1 at RT with Mo @ 45kV35mA to 0.85\%A
REM R1 =  0.0787 for     930 Fo > 4sig(Fo)  and  0.1604 for all    1972 data
REM    158 parameters refined using      0 restraints

END

WGHT      0.0847      0.0000

REM Instructions for potential hydrogen bonds
HTAB N1 N22_$2
HTAB C13 O1_$3
HTAB C23 O2_$2
HTAB C26 O1

REM Highest difference peak  0.308,  deepest hole -0.260,  1-sigma level  0.071
Q1    1   0.9396  0.8352  0.8069  11.00000  0.05    0.31
Q2    1   1.0122  0.8016  0.7018  11.00000  0.05    0.29
Q3    1   0.8869  0.9420  0.8219  11.00000  0.05    0.24
Q4    1   0.8063  1.0160  0.7416  11.00000  0.05    0.24
Q5    1   0.9192  0.8730  0.6261  11.00000  0.05    0.24
Q6    1   0.9527  0.7744  0.5933  11.00000  0.05    0.24
Q7    1   0.7291  0.2213 -0.2055  11.00000  0.05    0.24
Q8    1   0.7451  0.3797  0.2785  11.00000  0.05    0.23
Q9    1   0.8786  0.7615  0.4862  11.00000  0.05    0.23
Q10   1   0.9607  0.8368  0.5578  11.00000  0.05    0.23
;
_shelx_res_checksum              73616
loop_
_space_group_symop_operation_xyz
'x, y, z'
'-x, -y, -z'
loop_
_atom_site_label
_atom_site_type_symbol
_atom_site_fract_x
_atom_site_fract_y
_atom_site_fract_z
_atom_site_U_iso_or_equiv
_atom_site_adp_type
_atom_site_occupancy
_atom_site_site_symmetry_order
_atom_site_calc_flag
_atom_site_refinement_flags_posn
_atom_site_refinement_flags_adp
Cl14 Cl 0.9245(5) 0.90160(19) 0.72359(13) 0.0912(8) Uani 1 1 d . .
O1 O 0.6029(10) 0.4691(4) 0.2924(3) 0.0662(12) Uani 1 1 d . .
O2 O 0.9246(10) 0.6326(4) 0.2739(3) 0.0651(11) Uani 1 1 d . .
C1 C 0.7576(15) 0.5187(6) 0.2380(5) 0.0557(15) Uani 1 1 d . .
N1 N 0.8163(12) 0.4775(5) 0.1324(4) 0.0532(12) Uani 1 1 d . .
H1 H 0.925(11) 0.521(4) 0.098(3) 0.026(12) Uiso 1 1 d . .
C11 C 0.9114(13) 0.6911(5) 0.3821(4) 0.0514(14) Uani 1 1 d . .
C12 C 1.0438(14) 0.6411(5) 0.4574(4) 0.0576(15) Uani 1 1 d . .
H12 H 1.1321 0.5646 0.4371 0.069 Uiso 1 1 calc R U
C13 C 1.0445(13) 0.7056(6) 0.5634(5) 0.0575(15) Uani 1 1 d . .
H13 H 1.1274 0.6722 0.6155 0.069 Uiso 1 1 calc R U
C14 C 0.9222(13) 0.8186(6) 0.5902(5) 0.0577(16) Uani 1 1 d . .
C15 C 0.7896(15) 0.8698(6) 0.5161(5) 0.0633(16) Uani 1 1 d . .
H15 H 0.7034 0.9467 0.5369 0.076 Uiso 1 1 calc R U
C16 C 0.7859(14) 0.8051(5) 0.4094(5) 0.0580(15) Uani 1 1 d . .
H16 H 0.7001 0.8382 0.3575 0.070 Uiso 1 1 calc R U
C21 C 0.6986(13) 0.3662(5) 0.0649(4) 0.0508(14) Uani 1 1 d . .
N22 N 0.7737(11) 0.3528(5) -0.0357(4) 0.0590(13) Uani 1 1 d . .
C23 C 0.6701(15) 0.2475(6) -0.1065(5) 0.0641(17) Uani 1 1 d . .
H23 H 0.7190 0.2374 -0.1777 0.077 Uiso 1 1 calc R U
C24 C 0.4972(14) 0.1550(6) -0.0788(5) 0.0646(17) Uani 1 1 d . .
H24 H 0.4318 0.0833 -0.1298 0.078 Uiso 1 1 calc R U
C25 C 0.4227(15) 0.1697(6) 0.0243(5) 0.0659(17) Uani 1 1 d . .
H25 H 0.3048 0.1074 0.0446 0.079 Uiso 1 1 calc R U
C26 C 0.5196(14) 0.2759(6) 0.0996(5) 0.0605(16) Uani 1 1 d . .
H26 H 0.4681 0.2872 0.1708 0.073 Uiso 1 1 calc R U
loop_
_atom_site_aniso_label
_atom_site_aniso_U_11
_atom_site_aniso_U_22
_atom_site_aniso_U_33
_atom_site_aniso_U_23
_atom_site_aniso_U_13
_atom_site_aniso_U_12
Cl14 0.0925(13) 0.1002(15) 0.0589(11) -0.0118(10) -0.0004(9) -0.0144(10)
O1 0.074(3) 0.065(3) 0.057(3) 0.013(2) 0.011(2) -0.010(2)
O2 0.083(3) 0.057(3) 0.048(2) 0.0048(19) 0.0036(19) -0.015(2)
C1 0.059(3) 0.055(4) 0.051(4) 0.013(3) -0.001(3) -0.005(3)
N1 0.068(3) 0.051(3) 0.040(3) 0.012(2) 0.003(2) -0.009(2)
C11 0.050(3) 0.049(4) 0.046(3) 0.001(3) 0.002(3) -0.014(3)
C12 0.065(4) 0.052(4) 0.054(4) 0.011(3) 0.003(3) -0.003(3)
C13 0.055(3) 0.063(4) 0.053(4) 0.016(3) -0.003(3) -0.010(3)
C14 0.046(3) 0.065(4) 0.056(4) 0.007(3) 0.004(3) -0.009(3)
C15 0.062(4) 0.047(4) 0.072(4) 0.003(3) 0.000(3) -0.002(3)
C16 0.054(3) 0.055(4) 0.061(4) 0.012(3) -0.011(3) -0.012(3)
C21 0.051(3) 0.051(4) 0.045(3) 0.006(3) -0.008(3) 0.001(3)
N22 0.059(3) 0.063(3) 0.048(3) 0.006(2) -0.005(2) -0.010(2)
C23 0.072(4) 0.063(4) 0.049(4) 0.003(3) -0.001(3) -0.004(3)
C24 0.060(4) 0.059(4) 0.061(4) -0.004(3) -0.005(3) -0.012(3)
C25 0.059(4) 0.061(4) 0.074(5) 0.014(4) 0.000(3) -0.010(3)
C26 0.063(4) 0.060(4) 0.055(4) 0.010(3) -0.002(3) -0.005(3)
loop_
_atom_type_symbol
_atom_type_description
_atom_type_scat_dispersion_real
_atom_type_scat_dispersion_imag
_atom_type_scat_source
C C 0.0033 0.0016 'International Tables Vol C Tables 4.2.6.8 and 6.1.1.4'
H H 0.0000 0.0000 'International Tables Vol C Tables 4.2.6.8 and 6.1.1.4'
N N 0.0061 0.0033 'International Tables Vol C Tables 4.2.6.8 and 6.1.1.4'
O O 0.0106 0.0060 'International Tables Vol C Tables 4.2.6.8 and 6.1.1.4'
Cl Cl 0.1484 0.1585 'International Tables Vol C Tables 4.2.6.8 and 6.1.1.4'
loop_
_geom_angle_atom_site_label_1
_geom_angle_atom_site_label_2
_geom_angle_atom_site_label_3
_geom_angle
C1 O2 C11 117.4(4)
O1 C1 N1 128.3(6)
O1 C1 O2 124.5(5)
N1 C1 O2 107.2(5)
C1 N1 C21 126.5(5)
C1 N1 H1 123(3)
C21 N1 H1 111(3)
C16 C11 C12 121.6(5)
C16 C11 O2 116.8(5)
C12 C11 O2 121.4(5)
C11 C12 C13 119.5(6)
C11 C12 H12 120.3
C13 C12 H12 120.3
C14 C13 C12 118.9(6)
C14 C13 H13 120.6
C12 C13 H13 120.6
C13 C14 C15 122.3(6)
C13 C14 Cl14 119.4(5)
C15 C14 Cl14 118.2(5)
C14 C15 C16 119.0(6)
C14 C15 H15 120.5
C16 C15 H15 120.5
C11 C16 C15 118.7(6)
C11 C16 H16 120.7
C15 C16 H16 120.7
N22 C21 N1 113.8(5)
N22 C21 C26 122.6(5)
N1 C21 C26 123.6(5)
C21 N22 C23 117.7(5)
N22 C23 C24 123.1(6)
N22 C23 H23 118.4
C24 C23 H23 118.4
C25 C24 C23 118.6(6)
C25 C24 H24 120.7
C23 C24 H24 120.7
C24 C25 C26 120.5(6)
C24 C25 H25 119.7
C26 C25 H25 119.7
C25 C26 C21 117.4(6)
C25 C26 H26 121.3
C21 C26 H26 121.3
loop_
_geom_bond_atom_site_label_1
_geom_bond_atom_site_label_2
_geom_bond_distance
Cl14 C14 1.745(6)
O1 C1 1.178(7)
O2 C1 1.387(7)
O2 C11 1.395(6)
C1 N1 1.358(7)
N1 C21 1.392(7)
N1 H1 0.86(5)
C11 C16 1.374(8)
C11 C12 1.374(8)
C12 C13 1.383(8)
C12 H12 0.9300
C13 C14 1.360(8)
C13 H13 0.9300
C14 C15 1.371(9)
C15 C16 1.391(8)
C15 H15 0.9300
C16 H16 0.9300
C21 N22 1.321(7)
C21 C26 1.399(8)
N22 C23 1.347(7)
C23 C24 1.361(8)
C23 H23 0.9300
C24 C25 1.349(8)
C24 H24 0.9300
C25 C26 1.375(8)
C25 H25 0.9300
C26 H26 0.9300
loop_
_geom_hbond_atom_site_label_D
_geom_hbond_atom_site_label_H
_geom_hbond_atom_site_label_A
_geom_hbond_distance_DH
_geom_hbond_distance_HA
_geom_hbond_distance_DA
_geom_hbond_angle_DHA
_geom_hbond_site_symmetry_A
_geom_hbond_publ_flag
N1 H1 N22 0.86(5) 2.15(5) 3.001(7) 170(4) 2_765 yes
C23 H23 O2 0.93 2.57 3.267(8) 133 2_765 yes
C26 H26 O1 0.93 2.29 2.872(7) 121 . yes
C13 H13 O1 0.93 2.53 3.425(8) 163 2_766 yes
loop_
_geom_torsion_atom_site_label_1
_geom_torsion_atom_site_label_2
_geom_torsion_atom_site_label_3
_geom_torsion_atom_site_label_4
_geom_torsion
C11 O2 C1 O1 0.9(8)
C11 O2 C1 N1 -177.5(5)
O1 C1 N1 C21 1.0(10)
O2 C1 N1 C21 179.4(5)
C1 O2 C11 C16 -124.8(5)
C1 O2 C11 C12 60.4(7)
C16 C11 C12 C13 1.4(8)
O2 C11 C12 C13 176.0(4)
C11 C12 C13 C14 -1.8(8)
C12 C13 C14 C15 1.7(8)
C12 C13 C14 Cl14 -179.5(4)
C13 C14 C15 C16 -1.3(8)
Cl14 C14 C15 C16 179.9(4)
C12 C11 C16 C15 -1.0(8)
O2 C11 C16 C15 -175.8(4)
C14 C15 C16 C11 0.9(8)
C1 N1 C21 N22 175.6(5)
C1 N1 C21 C26 -4.9(9)
N1 C21 N22 C23 179.8(5)
C26 C21 N22 C23 0.3(8)
C21 N22 C23 C24 -0.8(9)
N22 C23 C24 C25 0.6(9)
C23 C24 C25 C26 0.0(9)
C24 C25 C26 C21 -0.5(9)
N22 C21 C26 C25 0.3(8)
N1 C21 C26 C25 -179.1(5)
