#------------------------------------------------------------------------------
#$Date: 2019-11-07 22:12:39 +0200 (Thu, 07 Nov 2019) $
#$Revision: 223730 $
#$URL: file:///home/coder/svn-repositories/cod/cif/7/23/24/7232423.cif $
#------------------------------------------------------------------------------
#
# This file is available in the Crystallography Open Database (COD),
# http://www.crystallography.net/
#
# All data on this site have been placed in the public domain by the
# contributors.
#
data_7232423
loop_
_publ_author_name
'Hearne, Neil'
'Turnbull, Mark M.'
'Landee, Christopher P.'
'van der Merwe, Elizabet M.'
'Rademeyer, Melanie'
_publ_section_title
;
 Halide-bi-bridged polymers of amide substituted pyridines and -pyrazines:
 polymorphism, structures, thermal stability and magnetism
;
_journal_issue                   12
_journal_name_full               CrystEngComm
_journal_page_first              1910
_journal_paper_doi               10.1039/C9CE00071B
_journal_volume                  21
_journal_year                    2019
_chemical_formula_moiety         'C10 H10 Cl2 Cu N6 O2'
_chemical_formula_sum            'C10 H10 Cl2 Cu N6 O2'
_chemical_formula_weight         380.69
_space_group_crystal_system      triclinic
_space_group_IT_number           2
_space_group_name_Hall           '-P 1'
_space_group_name_H-M_alt        'P -1'
_symmetry_space_group_name_Hall  '-P 1'
_symmetry_space_group_name_H-M   'P -1'
_atom_sites_solution_hydrogens   difmap
_audit_creation_method           SHELXL-2013
_audit_update_record
;
2018-12-12 deposited with the CCDC.    2019-02-20 downloaded from the CCDC.
;
_cell_angle_alpha                76.315(3)
_cell_angle_beta                 89.743(3)
_cell_angle_gamma                85.572(3)
_cell_formula_units_Z            1
_cell_length_a                   3.6610(4)
_cell_length_b                   6.6260(7)
_cell_length_c                   13.7328(15)
_cell_measurement_reflns_used    5528
_cell_measurement_temperature    150(2)
_cell_measurement_theta_max      28.61
_cell_measurement_theta_min      3.05
_cell_volume                     322.67(6)
_computing_cell_refinement       'SAINT (Bruker, 2014)'
_computing_data_collection       'APEX2 (Bruker, 2014)'
_computing_data_reduction        'SAINT (Bruker, 2014)'
_computing_molecular_graphics
;
ORTEP-3 for Windows (Farrugia, 1997), POV-RAY (Cason, 2004),
 Mercury (Macrae <i>et al</i>., 2008)
;
_computing_publication_material  'SHELXL-2014, PLATON (Spek, 2009)'
_computing_structure_refinement  'SHELXTL, SHELXL-2014/7 (Sheldrick, 2015)'
_computing_structure_solution    'SHELXTS (Sheldrick, 2015)'
_diffrn_ambient_temperature      150(2)
_diffrn_measured_fraction_theta_full 0.998
_diffrn_measured_fraction_theta_max 0.994
_diffrn_measurement_device_type  'Bruker APEX-II CCD'
_diffrn_measurement_method       '\f and \w scans'
_diffrn_radiation_type           MoK\a
_diffrn_radiation_wavelength     0.71073
_diffrn_reflns_av_R_equivalents  0.0335
_diffrn_reflns_av_unetI/netI     0.0260
_diffrn_reflns_Laue_measured_fraction_full 0.998
_diffrn_reflns_Laue_measured_fraction_max 0.994
_diffrn_reflns_limit_h_max       4
_diffrn_reflns_limit_h_min       -4
_diffrn_reflns_limit_k_max       8
_diffrn_reflns_limit_k_min       -8
_diffrn_reflns_limit_l_max       18
_diffrn_reflns_limit_l_min       -18
_diffrn_reflns_number            10015
_diffrn_reflns_point_group_measured_fraction_full 0.998
_diffrn_reflns_point_group_measured_fraction_max 0.994
_diffrn_reflns_theta_full        25.242
_diffrn_reflns_theta_max         28.635
_diffrn_reflns_theta_min         3.054
_exptl_absorpt_coefficient_mu    2.120
_exptl_absorpt_correction_T_max  0.9281
_exptl_absorpt_correction_T_min  0.8011
_exptl_absorpt_correction_type   multi-scan
_exptl_absorpt_process_details   'SADABS (Bruker, 2014)'
_exptl_crystal_colour            green
_exptl_crystal_density_diffrn    1.959
_exptl_crystal_description       needle
_exptl_crystal_F_000             191
_exptl_crystal_size_max          0.460
_exptl_crystal_size_mid          0.040
_exptl_crystal_size_min          0.020
_refine_diff_density_max         2.406
_refine_diff_density_min         -0.643
_refine_diff_density_rms         0.136
_refine_ls_extinction_method     none
_refine_ls_goodness_of_fit_ref   1.083
_refine_ls_hydrogen_treatment    refall
_refine_ls_matrix_type           full
_refine_ls_number_parameters     117
_refine_ls_number_reflns         1628
_refine_ls_number_restraints     0
_refine_ls_restrained_S_all      1.083
_refine_ls_R_factor_all          0.0503
_refine_ls_R_factor_gt           0.0422
_refine_ls_shift/su_max          0.000
_refine_ls_shift/su_mean         0.000
_refine_ls_structure_factor_coef Fsqd
_refine_ls_weighting_details
;
 w=1/[\s^2^(Fo^2^)+(0.0716P)^2^+0.4447P]
 where P=(Fo^2^+2Fc^2^)/3
;
_refine_ls_weighting_scheme      calc
_refine_ls_wR_factor_gt          0.1097
_refine_ls_wR_factor_ref         0.1140
_reflns_Friedel_coverage         0.000
_reflns_number_gt                1409
_reflns_number_total             1628
_reflns_threshold_expression     'I > 2\s(I)'
_cod_data_source_file            c9ce00071b2.cif
_cod_data_source_block           pyrCuCl
_cod_depositor_comments
'Adding full bibliography for 7232418--7232424.cif.'
_cod_database_code               7232423
_shelx_space_group_comment
;
The symmetry employed for this shelxl refinement is uniquely defined
by the following loop, which should always be used as a source of
symmetry information in preference to the above space-group names.
They are only intended as comments.
;
_shelx_estimated_absorpt_t_min   0.442
_shelx_estimated_absorpt_t_max   0.959
_shelxl_version_number           2013-2
_shelx_res_file
;
TITL mo_NLH27_0m_a.res in P-1
CELL  0.71073   3.6610   6.6260  13.7328   76.315   89.743   85.572
ZERR     1.00   0.0004   0.0007   0.0015    0.003    0.003    0.003
LATT   1
SFAC  C    H    N    O    CL   CU
UNIT  10 10 6 2 2 1
MERG   2
EQIV $1 -x, -y+1, -z+1
HTAB C4 Cl1_$1
EQIV $2 x+1, y, z
HTAB C1 Cl1_$2
EQIV $3 -x+1, -y+2, -z+1
HTAB C1 Cl1_$3
EQIV $4 -x, -y+1, -z
HTAB N3 O1_$4
EQIV $5 -x+1, -y+2, -z
HTAB N3 N2_$5
FMAP   2
PLAN   20
SIZE     0.020   0.040   0.460
ACTA
BOND   $H
CONF
LIST   6
L.S.  10
TEMP  -123.15
WGHT    0.071600    0.444700
FVAR       1.15677
CU1   6    0.500000    0.500000    0.500000    10.50000    0.01486    0.00998 =
         0.00698   -0.00093   -0.00140    0.00086
CL1   5    0.081469    0.723985    0.550164    11.00000    0.01330    0.01133 =
         0.01272   -0.00315   -0.00032   -0.00077
O1    4    0.081212    0.454213    0.132742    11.00000    0.02887    0.01463 =
         0.00954   -0.00256   -0.00113   -0.00976
N1    3    0.476985    0.686604    0.358444    11.00000    0.01162    0.01124 =
         0.00816   -0.00187   -0.00051   -0.00118
N2    3    0.451972    0.920374    0.159892    11.00000    0.01442    0.01111 =
         0.01143   -0.00224   -0.00116   -0.00181
N3    3    0.220982    0.733394    0.011721    11.00000    0.03053    0.01713 =
         0.00728   -0.00196   -0.00512   -0.01224
C3    1    0.354988    0.723422    0.185155    11.00000    0.00969    0.01102 =
         0.00973   -0.00365    0.00031   -0.00167
C2    1    0.552363    0.999468    0.236307    11.00000    0.01449    0.01032 =
         0.01470   -0.00269   -0.00245   -0.00295
C1    1    0.557627    0.886797    0.335348    11.00000    0.01425    0.01304 =
         0.01239   -0.00694   -0.00146   -0.00173
C4    1    0.375792    0.604349    0.283064    11.00000    0.01054    0.01068 =
         0.01075   -0.00324   -0.00079   -0.00295
C5    1    0.211451    0.625016    0.106185    11.00000    0.01357    0.01233 =
         0.00972   -0.00352   -0.00097   -0.00139
H4    2    0.327689    0.461634    0.298335    11.00000    0.01625
H1    2    0.604293    0.950540    0.385765    11.00000    0.02079
H2    2    0.628366    1.130866    0.224325    11.00000    0.03794
H3A   2    0.151435    0.684402   -0.027669    11.00000    0.01447
H3B   2    0.323184    0.826137    0.000593    11.00000    0.03386
HKLF    4

REM  mo_NLH27_0m_a.res in P-1
REM R1 =  0.0422 for    1409 Fo > 4sig(Fo)  and  0.0503 for all    1628 data
REM    117 parameters refined using      0 restraints

END

WGHT      0.0716      0.4447

REM Highest difference peak  2.406,  deepest hole -0.643,  1-sigma level  0.136
Q1    1   0.2347  0.4993  0.5006  11.00000  0.05    2.41
Q2    1   0.0000  0.5000  0.5000  10.50000  0.05    2.24
Q3    1  -0.1516  0.7156  0.5505  11.00000  0.05    1.15
Q4    1   0.3596  0.7230  0.5538  11.00000  0.05    1.14
Q5    1  -0.3863  0.7296  0.5475  11.00000  0.05    1.13
Q6    1   0.2567  0.6769  0.3626  11.00000  0.05    0.46
Q7    1   0.5000  1.0000  0.0000  10.50000  0.05    0.45
Q8    1  -0.2858  0.4618  0.1305  11.00000  0.05    0.45
Q9    1   0.4491  0.4627  0.1360  11.00000  0.05    0.41
Q10   1   0.2887  0.6846  0.1416  11.00000  0.05    0.40
Q11   1   0.4795  0.7914  0.3387  11.00000  0.05    0.40
Q12   1   0.4276  0.8409  0.1635  11.00000  0.05    0.40
Q13   1   0.7063  0.6836  0.3555  11.00000  0.05    0.39
Q14   1   0.7097  0.7197  0.0158  11.00000  0.05    0.37
Q15   1   0.0480  0.4745  0.1583  11.00000  0.05    0.36
Q16   1  -0.2240  0.6346  0.0979  11.00000  0.05    0.36
Q17   1   0.9582  0.6861  0.3627  11.00000  0.05    0.36
Q18   1  -0.0478  0.4419  0.1244  11.00000  0.05    0.34
Q19   1   0.4137  0.9855  0.2268  11.00000  0.05    0.34
Q20   1   0.5506  0.6079  0.1152  11.00000  0.05    0.34
;
_shelx_res_checksum              73293
loop_
_space_group_symop_operation_xyz
'x, y, z'
'-x, -y, -z'
loop_
_atom_site_label
_atom_site_type_symbol
_atom_site_fract_x
_atom_site_fract_y
_atom_site_fract_z
_atom_site_U_iso_or_equiv
_atom_site_adp_type
_atom_site_occupancy
_atom_site_site_symmetry_order
_atom_site_calc_flag
_atom_site_refinement_flags_posn
_atom_site_refinement_flags_occupancy
Cu1 Cu 0.5000 0.5000 0.5000 0.01088(18) Uani 1 2 d S P
Cl1 Cl 0.08147(18) 0.72398(10) 0.55016(5) 0.01241(19) Uani 1 1 d . .
O1 O 0.0812(6) 0.4542(3) 0.13274(16) 0.0173(5) Uani 1 1 d . .
N1 N 0.4770(6) 0.6866(4) 0.35844(17) 0.0104(5) Uani 1 1 d . .
N2 N 0.4520(7) 0.9204(4) 0.15989(18) 0.0123(5) Uani 1 1 d . .
N3 N 0.2210(8) 0.7334(5) 0.01172(19) 0.0179(6) Uani 1 1 d . .
C3 C 0.3550(7) 0.7234(4) 0.1852(2) 0.0099(5) Uani 1 1 d . .
C2 C 0.5524(8) 0.9995(4) 0.2363(2) 0.0131(6) Uani 1 1 d . .
C1 C 0.5576(8) 0.8868(4) 0.3353(2) 0.0125(5) Uani 1 1 d . .
C4 C 0.3758(8) 0.6043(4) 0.2831(2) 0.0104(5) Uani 1 1 d . .
C5 C 0.2115(8) 0.6250(4) 0.1062(2) 0.0117(5) Uani 1 1 d . .
H4 H 0.328(10) 0.462(6) 0.298(3) 0.016(9) Uiso 1 1 d . .
H1 H 0.604(11) 0.951(6) 0.386(3) 0.021(10) Uiso 1 1 d . .
H2 H 0.628(13) 1.131(8) 0.224(3) 0.038(12) Uiso 1 1 d . .
H3A H 0.151(11) 0.684(6) -0.028(3) 0.014(9) Uiso 1 1 d . .
H3B H 0.323(13) 0.826(8) 0.001(3) 0.034(13) Uiso 1 1 d . .
loop_
_atom_site_aniso_label
_atom_site_aniso_U_11
_atom_site_aniso_U_22
_atom_site_aniso_U_33
_atom_site_aniso_U_23
_atom_site_aniso_U_13
_atom_site_aniso_U_12
Cu1 0.0149(3) 0.0100(3) 0.0070(3) -0.00093(17) -0.00140(17) 0.00086(18)
Cl1 0.0133(4) 0.0113(3) 0.0127(3) -0.0031(2) -0.0003(3) -0.0008(2)
O1 0.0289(12) 0.0146(10) 0.0095(9) -0.0026(8) -0.0011(8) -0.0098(9)
N1 0.0116(11) 0.0112(11) 0.0082(10) -0.0019(8) -0.0005(8) -0.0012(9)
N2 0.0144(12) 0.0111(11) 0.0114(11) -0.0022(9) -0.0012(9) -0.0018(9)
N3 0.0305(16) 0.0171(13) 0.0073(11) -0.0020(10) -0.0051(10) -0.0122(12)
C3 0.0097(13) 0.0110(12) 0.0097(12) -0.0036(10) 0.0003(10) -0.0017(10)
C2 0.0145(14) 0.0103(13) 0.0147(14) -0.0027(10) -0.0025(11) -0.0029(10)
C1 0.0142(14) 0.0130(13) 0.0124(13) -0.0069(10) -0.0015(10) -0.0017(10)
C4 0.0105(13) 0.0107(12) 0.0108(12) -0.0032(10) -0.0008(10) -0.0030(10)
C5 0.0136(13) 0.0123(13) 0.0097(13) -0.0035(10) -0.0010(10) -0.0014(10)
loop_
_atom_type_symbol
_atom_type_description
_atom_type_scat_dispersion_real
_atom_type_scat_dispersion_imag
_atom_type_scat_source
C C 0.0033 0.0016 'International Tables Vol C Tables 4.2.6.8 and 6.1.1.4'
H H 0.0000 0.0000 'International Tables Vol C Tables 4.2.6.8 and 6.1.1.4'
N N 0.0061 0.0033 'International Tables Vol C Tables 4.2.6.8 and 6.1.1.4'
O O 0.0106 0.0060 'International Tables Vol C Tables 4.2.6.8 and 6.1.1.4'
Cl Cl 0.1484 0.1585 'International Tables Vol C Tables 4.2.6.8 and 6.1.1.4'
Cu Cu 0.3201 1.2651 'International Tables Vol C Tables 4.2.6.8 and 6.1.1.4'
loop_
_geom_angle_atom_site_label_1
_geom_angle_atom_site_label_2
_geom_angle_atom_site_label_3
_geom_angle
_geom_angle_site_symmetry_1
_geom_angle_site_symmetry_3
N1 Cu1 N1 180.0 . 2_666
N1 Cu1 Cl1 90.01(7) . 2_666
N1 Cu1 Cl1 89.99(7) 2_666 2_666
N1 Cu1 Cl1 89.99(7) . .
N1 Cu1 Cl1 90.01(7) 2_666 .
Cl1 Cu1 Cl1 180.0 2_666 .
C4 N1 C1 117.7(2) . .
C4 N1 Cu1 118.04(18) . .
C1 N1 Cu1 124.30(19) . .
C2 N2 C3 115.7(2) . .
C5 N3 H3A 117(3) . .
C5 N3 H3B 118(4) . .
H3A N3 H3B 124(5) . .
N2 C3 C4 122.5(3) . .
N2 C3 C5 120.1(2) . .
C4 C3 C5 117.5(2) . .
N2 C2 C1 122.8(3) . .
N2 C2 H2 120(3) . .
C1 C2 H2 117(3) . .
N1 C1 C2 120.5(3) . .
N1 C1 H1 119(3) . .
C2 C1 H1 120(3) . .
N1 C4 C3 120.7(2) . .
N1 C4 H4 118(2) . .
C3 C4 H4 121(2) . .
O1 C5 N3 124.1(3) . .
O1 C5 C3 118.8(2) . .
N3 C5 C3 117.0(3) . .
loop_
_geom_bond_atom_site_label_1
_geom_bond_atom_site_label_2
_geom_bond_distance
_geom_bond_site_symmetry_2
Cu1 N1 2.040(2) .
Cu1 N1 2.040(2) 2_666
Cu1 Cl1 2.2689(7) 2_666
Cu1 Cl1 2.2689(7) .
O1 C5 1.236(3) .
N1 C4 1.344(4) .
N1 C1 1.345(4) .
N2 C2 1.343(4) .
N2 C3 1.344(4) .
N3 C5 1.328(4) .
N3 H3A 0.75(4) .
N3 H3B 0.73(5) .
C3 C4 1.388(4) .
C3 C5 1.507(4) .
C2 C1 1.388(4) .
C2 H2 0.91(5) .
C1 H1 0.92(4) .
C4 H4 0.95(4) .
loop_
_geom_hbond_atom_site_label_D
_geom_hbond_atom_site_label_H
_geom_hbond_atom_site_label_A
_geom_hbond_distance_DH
_geom_hbond_distance_HA
_geom_hbond_distance_DA
_geom_hbond_angle_DHA
_geom_hbond_site_symmetry_A
C4 H4 Cl1 0.95(4) 2.67(4) 3.309(3) 125(3) 2_566
C1 H1 Cl1 0.92(4) 2.90(4) 3.431(3) 118(3) 1_655
C1 H1 Cl1 0.92(4) 2.84(4) 3.651(3) 149(3) 2_676
N3 H3A O1 0.75(4) 2.10(4) 2.847(4) 176(4) 2_565
N3 H3B N2 0.73(5) 2.61(5) 3.177(4) 136(4) 2_675
loop_
_geom_torsion_atom_site_label_1
_geom_torsion_atom_site_label_2
_geom_torsion_atom_site_label_3
_geom_torsion_atom_site_label_4
_geom_torsion
C2 N2 C3 C4 -3.4(4)
C2 N2 C3 C5 175.5(3)
C3 N2 C2 C1 0.1(4)
C4 N1 C1 C2 -3.0(4)
Cu1 N1 C1 C2 176.8(2)
N2 C2 C1 N1 3.2(5)
C1 N1 C4 C3 -0.2(4)
Cu1 N1 C4 C3 180.0(2)
N2 C3 C4 N1 3.6(4)
C5 C3 C4 N1 -175.4(2)
N2 C3 C5 O1 -171.0(3)
C4 C3 C5 O1 8.0(4)
N2 C3 C5 N3 6.4(4)
C4 C3 C5 N3 -174.6(3)
