#------------------------------------------------------------------------------
#$Date: 2019-11-07 21:34:52 +0200 (Thu, 07 Nov 2019) $
#$Revision: 223549 $
#$URL: file:///home/coder/svn-repositories/cod/cif/7/23/20/7232016.cif $
#------------------------------------------------------------------------------
#
# This file is available in the Crystallography Open Database (COD),
# http://www.crystallography.net/
#
# All data on this site have been placed in the public domain by the
# contributors.
#
data_7232016
loop_
_publ_author_name
'Adonin, Sergey A.'
'Bondarenko, Mikhail A.'
'Novikov, Alexander S.'
'Abramov, Pavel A.'
'Plyusnin, Pavel E.'
'Sokolov, Maxim N.'
'Fedin, Vladimir P.'
_publ_section_title
;
 Halogen bonding-assisted assembly of bromoantimonate(v) and
 polybromide-bromoantimonate-based frameworks
;
_journal_issue                   5
_journal_name_full               CrystEngComm
_journal_page_first              850
_journal_paper_doi               10.1039/C8CE01944D
_journal_volume                  21
_journal_year                    2019
_chemical_formula_sum            'C16 H24 Br9 N2 Sb'
_chemical_formula_weight         1085.31
_space_group_crystal_system      triclinic
_space_group_IT_number           2
_space_group_name_Hall           '-P 1'
_space_group_name_H-M_alt        'P -1'
_symmetry_space_group_name_Hall  '-P 1'
_symmetry_space_group_name_H-M   'P -1'
_atom_sites_solution_hydrogens   geom
_atom_sites_solution_primary     direct
_atom_sites_solution_secondary   difmap
_audit_creation_method           SHELXL-2017/1
_audit_update_record
;
2018-10-27 deposited with the CCDC.
2018-12-17 downloaded from the CCDC.
;
_cell_angle_alpha                69.263(4)
_cell_angle_beta                 81.162(4)
_cell_angle_gamma                71.303(4)
_cell_formula_units_Z            1
_cell_length_a                   7.2472(3)
_cell_length_b                   9.4088(5)
_cell_length_c                   11.5541(5)
_cell_measurement_reflns_used    2446
_cell_measurement_temperature    130(2)
_cell_measurement_theta_max      28.2570
_cell_measurement_theta_min      3.7590
_cell_volume                     697.20(6)
_computing_cell_refinement       'CrysAlisPro 1.171.38.41 (Rigaku OD, 2015)'
_computing_data_collection       'CrysAlisPro 1.171.38.41 (Rigaku OD, 2015)'
_computing_data_reduction        'CrysAlisPro 1.171.38.41 (Rigaku OD, 2015)'
_computing_molecular_graphics    'ShelXle (H\"ubschle, 2011)'
_computing_publication_material  'CIFTAB-2014 (Sheldrick, 2014)'
_computing_structure_refinement  'SHELXL-2014 (Sheldrick, 2014)'
_computing_structure_solution    'SHELXS-2014 (Sheldrick, 2014)'
_diffrn_ambient_temperature      130(2)
_diffrn_detector                 'CCD plate'
_diffrn_detector_area_resol_mean 10.6168
_diffrn_detector_type            AtlasS2
_diffrn_measured_fraction_theta_full 0.993
_diffrn_measured_fraction_theta_max 0.819
_diffrn_measurement_device       'four-circle diffractometer'
_diffrn_measurement_device_type  'New Xcalibur, AtlasS2'
_diffrn_measurement_method       '\w scans'
_diffrn_radiation_monochromator  graphite
_diffrn_radiation_probe          x-ray
_diffrn_radiation_source         'fine-focus sealed tube'
_diffrn_radiation_type           MoK\a
_diffrn_radiation_wavelength     0.71073
_diffrn_reflns_av_R_equivalents  0.0321
_diffrn_reflns_av_unetI/netI     0.0585
_diffrn_reflns_Laue_measured_fraction_full 0.993
_diffrn_reflns_Laue_measured_fraction_max 0.819
_diffrn_reflns_limit_h_max       7
_diffrn_reflns_limit_h_min       -9
_diffrn_reflns_limit_k_max       10
_diffrn_reflns_limit_k_min       -11
_diffrn_reflns_limit_l_max       13
_diffrn_reflns_limit_l_min       -15
_diffrn_reflns_number            5318
_diffrn_reflns_point_group_measured_fraction_full 0.993
_diffrn_reflns_point_group_measured_fraction_max 0.819
_diffrn_reflns_theta_full        25.500
_diffrn_reflns_theta_max         28.896
_diffrn_reflns_theta_min         3.447
_diffrn_source                   'sealed X-ray tube'
_exptl_absorpt_coefficient_mu    13.892
_exptl_absorpt_correction_T_max  1.00000
_exptl_absorpt_correction_T_min  0.40844
_exptl_absorpt_correction_type   multi-scan
_exptl_absorpt_process_details
;
CrysAlisPro 1.171.38.41 (Rigaku Oxford Diffraction, 2015)
Empirical absorption correction using spherical harmonics,
implemented in SCALE3 ABSPACK scaling algorithm.
;
_exptl_crystal_colour            orange
_exptl_crystal_density_diffrn    2.585
_exptl_crystal_description       block
_exptl_crystal_F_000             500
_exptl_crystal_size_max          0.180
_exptl_crystal_size_mid          0.180
_exptl_crystal_size_min          0.080
_refine_diff_density_max         0.797
_refine_diff_density_min         -1.104
_refine_diff_density_rms         0.177
_refine_ls_extinction_method     none
_refine_ls_goodness_of_fit_ref   0.991
_refine_ls_hydrogen_treatment    constr
_refine_ls_matrix_type           full
_refine_ls_number_parameters     130
_refine_ls_number_reflns         3012
_refine_ls_number_restraints     0
_refine_ls_restrained_S_all      0.991
_refine_ls_R_factor_all          0.0449
_refine_ls_R_factor_gt           0.0338
_refine_ls_shift/su_max          0.000
_refine_ls_shift/su_mean         0.000
_refine_ls_structure_factor_coef Fsqd
_refine_ls_weighting_details
'w=1/[\s^2^(Fo^2^)+(0.0179P)^2^] where P=(Fo^2^+2Fc^2^)/3'
_refine_ls_weighting_scheme      calc
_refine_ls_wR_factor_gt          0.0615
_refine_ls_wR_factor_ref         0.0662
_reflns_Friedel_coverage         0.000
_reflns_number_gt                2526
_reflns_number_total             3012
_reflns_threshold_expression     >2\s(I)
_cod_data_source_file            c8ce01944d2.cif
_cod_data_source_block           6_a
_cod_depositor_comments
'Adding full bibliography for 7232009--7232019.cif.'
_cod_database_code               7232016
_shelx_shelxl_version_number     2017/1
_shelx_space_group_comment
;
The symmetry employed for this shelxl refinement is uniquely defined
by the following loop, which should always be used as a source of
symmetry information in preference to the above space-group names.
They are only intended as comments.
;
_shelx_estimated_absorpt_t_min   0.189
_shelx_estimated_absorpt_t_max   0.403
_shelx_res_file
;
TITL 1_a.res in P-1
    1_a.res
    created by SHELXL-2017/1 at 18:41:12 on 04-Sep-2018
REM Old TITL BM86 in P-1
REM SHELXT solution in P-1
REM R1 0.074,  Rweak 0.005,  Alpha 0.031,  Orientation as input
REM Formula found by SHELXT:  C16 N2 Br9 Sb
CELL  0.71073   7.2472   9.4088  11.5541   69.263   81.162   71.303
ZERR   1.000   0.0003   0.0005   0.0005    0.004    0.004    0.004
LATT  1
SFAC C N BR SB H
UNIT 16 2 9 1 24
TEMP -143
L.S. 10
BOND $H
LIST 4
ACTA 51
OMIT 6 9 0
OMIT -7 2 3
OMIT -4 -7 5
OMIT 7 4 9
OMIT 4 -3 8
OMIT -8 -1 6
OMIT -6 -4 4
OMIT 2 -8 5
OMIT 4 4 13
OMIT -3 -2 5
OMIT -1 10 8
OMIT 1 -8 5
OMIT 7 10 5
OMIT 1 -2 11
OMIT 5 -2 8

FMAP 2
PLAN 20
SIZE 0.18 0.18 0.08
WGHT    0.017900
FVAR       0.39224
C1    1    0.298779    0.058313    0.426758    11.00000    0.03112    0.02064 =
         0.01534   -0.00529   -0.00081   -0.01096
AFIX 133
H1A   5    0.377173   -0.012585    0.381086    11.00000   -1.50000
H1B   5    0.267134   -0.004955    0.510847    11.00000   -1.50000
H1C   5    0.372845    0.126984    0.430946    11.00000   -1.50000
AFIX   0
C2    1    0.114173    0.158390    0.361656    11.00000    0.02361    0.02912 =
         0.01742   -0.00861    0.00439   -0.00922
AFIX  23
H2A   5    0.046964    0.089373    0.348251    11.00000   -1.20000
H2B   5    0.026250    0.218523    0.413720    11.00000   -1.20000
AFIX   0
C3    1    0.128231    0.422741    0.226906    11.00000    0.01800    0.02962 =
         0.02748   -0.01780   -0.00499    0.00365
AFIX  43
H3    5    0.073069    0.460780    0.294212    11.00000   -1.20000
AFIX   0
C4    1    0.175837    0.524809    0.117630    11.00000    0.03005    0.02310 =
         0.02754   -0.00664   -0.01256   -0.00264
AFIX  43
H4    5    0.153150    0.633517    0.107949    11.00000   -1.20000
AFIX   0
C5    1    0.257133    0.467539    0.021911    11.00000    0.02601    0.03003 =
         0.01991    0.00004   -0.00850   -0.01089
AFIX  43
H5    5    0.292152    0.537413   -0.054453    11.00000   -1.20000
AFIX   0
C6    1    0.383370    0.242325   -0.068016    11.00000    0.04325    0.03701 =
         0.02178   -0.00904   -0.00110   -0.01408
AFIX 133
H6A   5    0.525503    0.210736   -0.063904    11.00000   -1.50000
H6B   5    0.344584    0.323134   -0.148250    11.00000   -1.50000
H6C   5    0.341244    0.149541   -0.058573    11.00000   -1.50000
AFIX   0
C7    1    0.289211    0.309324    0.034535    11.00000    0.01891    0.02616 =
         0.02315   -0.00925   -0.00374   -0.00767
C8    1    0.234855    0.214140    0.147047    11.00000    0.02238    0.01908 =
         0.02311   -0.01043   -0.00099   -0.00525
AFIX  43
H8    5    0.252390    0.105603    0.158558    11.00000   -1.20000
AFIX   0
N1    2    0.157790    0.270253    0.240969    11.00000    0.01556    0.02201 =
         0.01454   -0.00449   -0.00178   -0.00466
BR1   3    0.604422    0.364836    0.334149    11.00000    0.01897    0.01959 =
         0.01514   -0.01052    0.00215   -0.00492
BR2   3    0.237604    0.719067    0.358494    11.00000    0.01766    0.01991 =
         0.01969   -0.00815   -0.00307   -0.00243
BR3   3    0.255543    0.342686    0.592589    11.00000    0.01947    0.02396 =
         0.02107   -0.01176    0.00643   -0.01214
BR4   3    0.783740    0.086381    0.173115    11.00000    0.03079    0.03825 =
         0.02956   -0.02072    0.00287   -0.00956
BR5   3    1.000000    0.000000    0.000000    10.50000    0.02381    0.02122 =
         0.02313   -0.00998   -0.00313   -0.00577
SB1   4    0.500000    0.500000    0.500000    10.50000    0.01233    0.01593 =
         0.01342   -0.00791    0.00159   -0.00428
HKLF 4




REM  1_a.res in P-1
REM R1 =  0.0338 for    2526 Fo > 4sig(Fo)  and  0.0449 for all    3012 data
REM    130 parameters refined using      0 restraints

END

WGHT      0.0170      0.0000

REM Highest difference peak  0.797,  deepest hole -1.104,  1-sigma level  0.177
Q1    1   0.4941  0.6140  0.4369  11.00000  0.05    0.80
Q2    1   0.2551  0.4607  0.5415  11.00000  0.05    0.74
Q3    1   0.5775  0.4820  0.2733  11.00000  0.05    0.68
Q4    1   0.3682  0.7024  0.3871  11.00000  0.05    0.67
Q5    1   0.2481  0.6068  0.4246  11.00000  0.05    0.63
Q6    1   0.3670  0.0336 -0.0840  11.00000  0.05    0.62
Q7    1   0.7369  0.3321  0.3636  11.00000  0.05    0.61
Q8    1   0.8869  0.0053  0.2265  11.00000  0.05    0.61
Q9    1   0.2630  0.4203  0.2222  11.00000  0.05    0.61
Q10   1   0.3633  0.5094  0.4799  11.00000  0.05    0.60
Q11   1   0.3143  0.7581  0.3628  11.00000  0.05    0.60
Q12   1   0.2883  0.2969  0.7007  11.00000  0.05    0.60
Q13   1   0.3053  0.6822  0.4774  11.00000  0.05    0.60
Q14   1   0.2146  0.4297  0.3093  11.00000  0.05    0.59
Q15   1   0.8180  0.1889  0.0971  11.00000  0.05    0.59
Q16   1   0.7581 -0.0139  0.2652  11.00000  0.05    0.58
Q17   1   0.2447  0.2490  0.6591  11.00000  0.05    0.58
Q18   1   0.3978  0.5850  0.4388  11.00000  0.05    0.58
Q19   1   0.5235  0.0307  0.3828  11.00000  0.05    0.58
Q20   1   0.2187  0.2093  0.4677  11.00000  0.05    0.57
;
_shelx_res_checksum              40236
loop_
_space_group_symop_operation_xyz
'x, y, z'
'-x, -y, -z'
loop_
_atom_site_label
_atom_site_type_symbol
_atom_site_fract_x
_atom_site_fract_y
_atom_site_fract_z
_atom_site_U_iso_or_equiv
_atom_site_adp_type
_atom_site_occupancy
_atom_site_site_symmetry_order
_atom_site_calc_flag
_atom_site_refinement_flags_posn
_atom_site_refinement_flags_adp
_atom_site_refinement_flags_occupancy
C1 C 0.2988(7) 0.0583(6) 0.4268(5) 0.0217(12) Uani 1 1 d . . .
H1A H 0.377173 -0.012585 0.381086 0.033 Uiso 1 1 calc R U .
H1B H 0.267134 -0.004955 0.510847 0.033 Uiso 1 1 calc R U .
H1C H 0.372845 0.126984 0.430946 0.033 Uiso 1 1 calc R U .
C2 C 0.1142(7) 0.1584(6) 0.3617(5) 0.0233(12) Uani 1 1 d . . .
H2A H 0.046964 0.089373 0.348251 0.028 Uiso 1 1 calc R U .
H2B H 0.026250 0.218523 0.413720 0.028 Uiso 1 1 calc R U .
C3 C 0.1282(7) 0.4227(6) 0.2269(5) 0.0248(13) Uani 1 1 d . . .
H3 H 0.073069 0.460780 0.294212 0.030 Uiso 1 1 calc R U .
C4 C 0.1758(7) 0.5248(7) 0.1176(5) 0.0273(13) Uani 1 1 d . . .
H4 H 0.153150 0.633517 0.107949 0.033 Uiso 1 1 calc R U .
C5 C 0.2571(7) 0.4675(6) 0.0219(5) 0.0260(13) Uani 1 1 d . . .
H5 H 0.292152 0.537413 -0.054453 0.031 Uiso 1 1 calc R U .
C6 C 0.3834(8) 0.2423(7) -0.0680(5) 0.0336(14) Uani 1 1 d . . .
H6A H 0.525503 0.210736 -0.063904 0.050 Uiso 1 1 calc R U .
H6B H 0.344584 0.323134 -0.148250 0.050 Uiso 1 1 calc R U .
H6C H 0.341244 0.149541 -0.058573 0.050 Uiso 1 1 calc R U .
C7 C 0.2892(7) 0.3093(6) 0.0345(5) 0.0218(12) Uani 1 1 d . . .
C8 C 0.2349(7) 0.2141(6) 0.1470(5) 0.0207(12) Uani 1 1 d . . .
H8 H 0.252390 0.105603 0.158558 0.025 Uiso 1 1 calc R U .
N1 N 0.1578(5) 0.2703(5) 0.2410(4) 0.0178(9) Uani 1 1 d . . .
Br1 Br 0.60442(6) 0.36484(6) 0.33415(5) 0.01702(12) Uani 1 1 d . . .
Br2 Br 0.23760(6) 0.71907(6) 0.35849(5) 0.01910(13) Uani 1 1 d . . .
Br3 Br 0.25554(6) 0.34269(6) 0.59259(5) 0.01962(13) Uani 1 1 d . . .
Br4 Br 0.78374(8) 0.08638(7) 0.17312(6) 0.03072(15) Uani 1 1 d . . .
Br5 Br 1.000000 0.000000 0.000000 0.02189(17) Uani 1 2 d S . P
Sb1 Sb 0.500000 0.500000 0.500000 0.01321(12) Uani 1 2 d S . P
loop_
_atom_site_aniso_label
_atom_site_aniso_U_11
_atom_site_aniso_U_22
_atom_site_aniso_U_33
_atom_site_aniso_U_23
_atom_site_aniso_U_13
_atom_site_aniso_U_12
C1 0.031(3) 0.021(3) 0.015(3) -0.005(2) -0.001(2) -0.011(2)
C2 0.024(3) 0.029(3) 0.017(3) -0.009(3) 0.004(2) -0.009(2)
C3 0.018(3) 0.030(3) 0.027(3) -0.018(3) -0.005(2) 0.004(2)
C4 0.030(3) 0.023(3) 0.028(4) -0.007(3) -0.013(3) -0.003(2)
C5 0.026(3) 0.030(3) 0.020(3) 0.000(3) -0.008(2) -0.011(2)
C6 0.043(3) 0.037(4) 0.022(3) -0.009(3) -0.001(3) -0.014(3)
C7 0.019(3) 0.026(3) 0.023(3) -0.009(3) -0.004(2) -0.008(2)
C8 0.022(3) 0.019(3) 0.023(3) -0.010(2) -0.001(2) -0.005(2)
N1 0.016(2) 0.022(2) 0.015(2) -0.0045(19) -0.0018(17) -0.0047(17)
Br1 0.0190(3) 0.0196(3) 0.0151(3) -0.0105(2) 0.0022(2) -0.00492(19)
Br2 0.0177(3) 0.0199(3) 0.0197(3) -0.0082(2) -0.0031(2) -0.00243(19)
Br3 0.0195(3) 0.0240(3) 0.0211(3) -0.0118(2) 0.0064(2) -0.0121(2)
Br4 0.0308(3) 0.0382(4) 0.0296(4) -0.0207(3) 0.0029(3) -0.0096(2)
Br5 0.0238(4) 0.0212(4) 0.0231(4) -0.0100(3) -0.0031(3) -0.0058(3)
Sb1 0.0123(2) 0.0159(2) 0.0134(3) -0.0079(2) 0.00159(18) -0.00428(17)
loop_
_atom_type_symbol
_atom_type_description
_atom_type_scat_dispersion_real
_atom_type_scat_dispersion_imag
_atom_type_scat_source
C C 0.0033 0.0016 'International Tables Vol C Tables 4.2.6.8 and 6.1.1.4'
N N 0.0061 0.0033 'International Tables Vol C Tables 4.2.6.8 and 6.1.1.4'
Br Br -0.2901 2.4595 'International Tables Vol C Tables 4.2.6.8 and 6.1.1.4'
Sb Sb -0.5866 1.5461 'International Tables Vol C Tables 4.2.6.8 and 6.1.1.4'
H H 0.0000 0.0000 'International Tables Vol C Tables 4.2.6.8 and 6.1.1.4'
loop_
_geom_angle_atom_site_label_1
_geom_angle_atom_site_label_2
_geom_angle_atom_site_label_3
_geom_angle
_geom_angle_site_symmetry_1
_geom_angle_site_symmetry_3
C2 C1 H1A 109.5 . .
C2 C1 H1B 109.5 . .
H1A C1 H1B 109.5 . .
C2 C1 H1C 109.5 . .
H1A C1 H1C 109.5 . .
H1B C1 H1C 109.5 . .
N1 C2 C1 110.2(4) . .
N1 C2 H2A 109.6 . .
C1 C2 H2A 109.6 . .
N1 C2 H2B 109.6 . .
C1 C2 H2B 109.6 . .
H2A C2 H2B 108.1 . .
N1 C3 C4 121.1(5) . .
N1 C3 H3 119.5 . .
C4 C3 H3 119.5 . .
C3 C4 C5 118.7(5) . .
C3 C4 H4 120.7 . .
C5 C4 H4 120.7 . .
C4 C5 C7 121.2(5) . .
C4 C5 H5 119.4 . .
C7 C5 H5 119.4 . .
C7 C6 H6A 109.5 . .
C7 C6 H6B 109.5 . .
H6A C6 H6B 109.5 . .
C7 C6 H6C 109.5 . .
H6A C6 H6C 109.5 . .
H6B C6 H6C 109.5 . .
C8 C7 C5 116.7(5) . .
C8 C7 C6 121.0(5) . .
C5 C7 C6 122.3(5) . .
N1 C8 C7 121.8(5) . .
N1 C8 H8 119.1 . .
C7 C8 H8 119.1 . .
C3 N1 C8 120.5(5) . .
C3 N1 C2 120.8(5) . .
C8 N1 C2 118.7(4) . .
Br4 Br5 Br4 180.0 2_755 .
Br3 Sb1 Br3 180.0 2_666 .
Br3 Sb1 Br1 90.206(16) 2_666 .
Br3 Sb1 Br1 89.793(16) . .
Br3 Sb1 Br1 89.794(16) 2_666 2_666
Br3 Sb1 Br1 90.207(16) . 2_666
Br1 Sb1 Br1 180.0 . 2_666
Br3 Sb1 Br2 90.623(16) 2_666 .
Br3 Sb1 Br2 89.377(16) . .
Br1 Sb1 Br2 89.516(16) . .
Br1 Sb1 Br2 90.484(16) 2_666 .
Br3 Sb1 Br2 89.378(16) 2_666 2_666
Br3 Sb1 Br2 90.623(16) . 2_666
Br1 Sb1 Br2 90.484(16) . 2_666
Br1 Sb1 Br2 89.516(16) 2_666 2_666
Br2 Sb1 Br2 180.0 . 2_666
loop_
_geom_bond_atom_site_label_1
_geom_bond_atom_site_label_2
_geom_bond_distance
C1 C2 1.497(6)
C1 H1A 0.9800
C1 H1B 0.9800
C1 H1C 0.9800
C2 N1 1.480(6)
C2 H2A 0.9900
C2 H2B 0.9900
C3 N1 1.334(6)
C3 C4 1.362(8)
C3 H3 0.9500
C4 C5 1.371(7)
C4 H4 0.9500
C5 C7 1.388(7)
C5 H5 0.9500
C6 C7 1.507(8)
C6 H6A 0.9800
C6 H6B 0.9800
C6 H6C 0.9800
C7 C8 1.375(7)
C8 N1 1.341(6)
C8 H8 0.9500
Br1 Sb1 2.5544(5)
Br2 Sb1 2.5678(5)
Br3 Sb1 2.5400(5)
Br4 Br5 2.5473(6)
