#------------------------------------------------------------------------------
#$Date: 2019-11-07 21:34:52 +0200 (Thu, 07 Nov 2019) $
#$Revision: 223549 $
#$URL: file:///home/coder/svn-repositories/cod/cif/7/23/20/7232018.cif $
#------------------------------------------------------------------------------
#
# This file is available in the Crystallography Open Database (COD),
# http://www.crystallography.net/
#
# All data on this site have been placed in the public domain by the
# contributors.
#
data_7232018
loop_
_publ_author_name
'Adonin, Sergey A.'
'Bondarenko, Mikhail A.'
'Novikov, Alexander S.'
'Abramov, Pavel A.'
'Plyusnin, Pavel E.'
'Sokolov, Maxim N.'
'Fedin, Vladimir P.'
_publ_section_title
;
 Halogen bonding-assisted assembly of bromoantimonate(v) and
 polybromide-bromoantimonate-based frameworks
;
_journal_issue                   5
_journal_name_full               CrystEngComm
_journal_page_first              850
_journal_paper_doi               10.1039/C8CE01944D
_journal_volume                  21
_journal_year                    2019
_chemical_formula_sum            'C10 H10 Br9 I2 N2 Sb'
_chemical_formula_weight         1252.94
_space_group_crystal_system      monoclinic
_space_group_IT_number           14
_space_group_name_Hall           '-P 2yn'
_space_group_name_H-M_alt        'P 1 21/n 1'
_symmetry_space_group_name_Hall  '-P 2yn'
_symmetry_space_group_name_H-M   'P 1 21/n 1'
_atom_sites_solution_hydrogens   geom
_atom_sites_solution_primary     direct
_atom_sites_solution_secondary   difmap
_audit_creation_method           SHELXL-2017/1
_audit_update_record
;
2018-10-27 deposited with the CCDC.
2018-12-17 downloaded from the CCDC.
;
_cell_angle_alpha                90
_cell_angle_beta                 105.412(7)
_cell_angle_gamma                90
_cell_formula_units_Z            2
_cell_length_a                   8.1800(5)
_cell_length_b                   12.9394(8)
_cell_length_c                   12.5865(7)
_cell_measurement_reflns_used    1623
_cell_measurement_temperature    130(2)
_cell_measurement_theta_max      28.8370
_cell_measurement_theta_min      4.6260
_cell_volume                     1284.30(14)
_computing_cell_refinement       'CrysAlisPro 1.171.38.41 (Rigaku OD, 2015)'
_computing_data_collection       'CrysAlisPro 1.171.38.41 (Rigaku OD, 2015)'
_computing_data_reduction        'CrysAlisPro 1.171.38.41 (Rigaku OD, 2015)'
_computing_molecular_graphics    'ShelXle (H\"ubschle, 2011)'
_computing_publication_material  'CIFTAB-2014 (Sheldrick, 2014)'
_computing_structure_refinement  'SHELXL-2014 (Sheldrick, 2014)'
_computing_structure_solution    'SHELXS-2014 (Sheldrick, 2014)'
_diffrn_ambient_temperature      130(2)
_diffrn_detector                 'CCD plate'
_diffrn_detector_area_resol_mean 10.6168
_diffrn_detector_type            AtlasS2
_diffrn_measured_fraction_theta_full 0.994
_diffrn_measured_fraction_theta_max 0.823
_diffrn_measurement_device       'four-circle diffractometer'
_diffrn_measurement_device_type  'New Xcalibur, AtlasS2'
_diffrn_measurement_method       '\w scans'
_diffrn_radiation_monochromator  graphite
_diffrn_radiation_probe          x-ray
_diffrn_radiation_source         'fine-focus sealed tube'
_diffrn_radiation_type           MoK\a
_diffrn_radiation_wavelength     0.71073
_diffrn_reflns_av_R_equivalents  0.0372
_diffrn_reflns_av_unetI/netI     0.0620
_diffrn_reflns_Laue_measured_fraction_full 0.994
_diffrn_reflns_Laue_measured_fraction_max 0.823
_diffrn_reflns_limit_h_max       10
_diffrn_reflns_limit_h_min       -11
_diffrn_reflns_limit_k_max       13
_diffrn_reflns_limit_k_min       -17
_diffrn_reflns_limit_l_max       12
_diffrn_reflns_limit_l_min       -17
_diffrn_reflns_number            5485
_diffrn_reflns_point_group_measured_fraction_full 0.994
_diffrn_reflns_point_group_measured_fraction_max 0.823
_diffrn_reflns_theta_full        25.500
_diffrn_reflns_theta_max         29.015
_diffrn_reflns_theta_min         3.358
_diffrn_source                   'sealed X-ray tube'
_exptl_absorpt_coefficient_mu    17.479
_exptl_absorpt_correction_T_max  1.00000
_exptl_absorpt_correction_T_min  0.36090
_exptl_absorpt_correction_type   multi-scan
_exptl_absorpt_process_details
;
CrysAlisPro 1.171.38.41 (Rigaku Oxford Diffraction, 2015)
Empirical absorption correction using spherical harmonics,
implemented in SCALE3 ABSPACK scaling algorithm.
;
_exptl_crystal_colour            orange
_exptl_crystal_density_diffrn    3.240
_exptl_crystal_description       block
_exptl_crystal_F_000             1112
_exptl_crystal_size_max          0.500
_exptl_crystal_size_mid          0.400
_exptl_crystal_size_min          0.400
_refine_diff_density_max         1.283
_refine_diff_density_min         -1.580
_refine_diff_density_rms         0.280
_refine_ls_extinction_method     none
_refine_ls_goodness_of_fit_ref   1.017
_refine_ls_hydrogen_treatment    constr
_refine_ls_matrix_type           full
_refine_ls_number_parameters     112
_refine_ls_number_reflns         2811
_refine_ls_number_restraints     0
_refine_ls_restrained_S_all      1.017
_refine_ls_R_factor_all          0.0546
_refine_ls_R_factor_gt           0.0407
_refine_ls_shift/su_max          0.000
_refine_ls_shift/su_mean         0.000
_refine_ls_structure_factor_coef Fsqd
_refine_ls_weighting_details
'w=1/[\s^2^(Fo^2^)+(0.0280P)^2^] where P=(Fo^2^+2Fc^2^)/3'
_refine_ls_weighting_scheme      calc
_refine_ls_wR_factor_gt          0.0769
_refine_ls_wR_factor_ref         0.0829
_reflns_Friedel_coverage         0.000
_reflns_number_gt                2293
_reflns_number_total             2811
_reflns_threshold_expression     >2\s(I)
_cod_data_source_file            c8ce01944d2.cif
_cod_data_source_block           4_a
_cod_depositor_comments
'Adding full bibliography for 7232009--7232019.cif.'
_cod_database_code               7232018
_shelx_shelxl_version_number     2017/1
_shelx_space_group_comment
;
The symmetry employed for this shelxl refinement is uniquely defined
by the following loop, which should always be used as a source of
symmetry information in preference to the above space-group names.
They are only intended as comments.
;
_shelx_estimated_absorpt_t_min   0.042
_shelx_estimated_absorpt_t_max   0.054
_shelx_res_file
;
TITL 1_a.res in P2(1)/n
    1_a.res
    created by SHELXL-2017/1 at 15:57:43 on 04-Sep-2018
REM Old TITL BM59 in P2(1)/n
REM SHELXT solution in P2(1)/n
REM R1 0.128,  Rweak 0.007,  Alpha 0.014,  Orientation as input
REM Formula found by SHELXT:  C10 N2 Br11 Sb
CELL  0.71073   8.1800  12.9394  12.5865   90.000  105.412   90.000
ZERR   2.000   0.0005   0.0008   0.0007    0.000    0.007    0.000
LATT  1
SYMM 1/2-X, 1/2+Y, 1/2-Z
SFAC C N BR SB I H
UNIT 20 4 18 2 4 20
TEMP -143
L.S. 10
BOND $H
LIST 1
FMAP 2
PLAN 20
OMIT 1 1 5
OMIT -2 13 7
OMIT -5 1 6
OMIT -2 7 9
OMIT -5 2 14
OMIT 2 1 15
OMIT 3 13 3
OMIT 6 11 2
OMIT -4 2 15
OMIT 2 4 6
OMIT 3 10 4
ACTA 51
SIZE 0.50 0.40 0.40
WGHT    0.028000
FVAR       0.21650
C1    1    0.380148    0.654582    0.628111    11.00000    0.01264    0.02793 =
         0.02546    0.01068    0.00687   -0.00089
AFIX  43
H1    6    0.322298    0.600755    0.654466    11.00000   -1.20000
AFIX   0
C2    1    0.447326    0.736108    0.695618    11.00000    0.01509    0.02645 =
         0.01407    0.00015    0.00356    0.00347
AFIX  43
H2    6    0.436271    0.739787    0.768773    11.00000   -1.20000
AFIX   0
C3    1    0.533087    0.814182    0.653621    11.00000    0.01522    0.01884 =
         0.01827   -0.00493   -0.00964    0.00907
AFIX  43
H3    6    0.582417    0.871003    0.698603    11.00000   -1.20000
AFIX   0
C4    1    0.544571    0.807044    0.545909    11.00000    0.01890    0.01000 =
         0.02282    0.00486    0.00310    0.00196
AFIX  43
H4    6    0.599813    0.860002    0.516272    11.00000   -1.20000
AFIX   0
C5    1    0.476176    0.723477    0.481864    11.00000    0.01429    0.01647 =
         0.01129    0.00311   -0.00020    0.00181
N1    2    0.396541    0.651195    0.524490    11.00000    0.01450    0.01258 =
         0.01651    0.00425   -0.00463    0.00030
AFIX  43
H1A   6    0.352220    0.598348    0.482695    11.00000   -1.20000
AFIX   0
BR1   3    0.186874    0.961256    0.371842    11.00000    0.01354    0.01611 =
         0.01575   -0.00284    0.00595   -0.00060
BR2   3   -0.011437    0.806032    0.539224    11.00000    0.01950    0.00942 =
         0.01924    0.00156    0.00440    0.00087
BR3   3    0.264851    1.018862    0.660503    11.00000    0.01135    0.01877 =
         0.01403   -0.00280   -0.00160    0.00146
BR4   3    0.187612    0.456120    0.374133    11.00000    0.01689    0.01913 =
         0.02087   -0.00227    0.00591   -0.00179
BR5   3    0.000000    0.500000    0.500000    10.50000    0.01155    0.01477 =
         0.01838   -0.00019    0.00096   -0.00364
SB1   4    0.000000    1.000000    0.500000    10.50000    0.00880    0.00829 =
         0.01004   -0.00023    0.00091    0.00019
I1    5    0.496894    0.701994    0.322888    11.00000    0.02551    0.02620 =
         0.01624   -0.00495    0.00604   -0.01002
HKLF 4




REM  1_a.res in P2(1)/n
REM R1 =  0.0407 for    2293 Fo > 4sig(Fo)  and  0.0546 for all    2811 data
REM    112 parameters refined using      0 restraints

END

WGHT      0.0280      0.0000

REM Highest difference peak  1.283,  deepest hole -1.580,  1-sigma level  0.280
Q1    1   0.1450  0.9749  0.5875  11.00000  0.05    1.28
Q2    1   0.0696  1.0596  0.6355  11.00000  0.05    1.25
Q3    1   0.0448  0.9493  0.2865  11.00000  0.05    1.11
Q4    1   0.1266  1.0299  0.5796  11.00000  0.05    1.10
Q5    1   0.0803  1.0804  0.4677  11.00000  0.05    1.09
Q6    1   0.0520  1.1062  0.5824  11.00000  0.05    1.03
Q7    1   0.0525  0.8990  0.5840  11.00000  0.05    0.97
Q8    1   0.1093  0.9315  0.4504  11.00000  0.05    0.96
Q9    1   0.7420  0.7401  0.3395  11.00000  0.05    0.96
Q10   1  -0.2253  0.7985  0.4205  11.00000  0.05    0.92
Q11   1   0.4878  0.8086  0.2181  11.00000  0.05    0.92
Q12   1   0.0461  0.9816  0.6525  11.00000  0.05    0.90
Q13   1   0.6088  0.6901  0.7156  11.00000  0.05    0.90
Q14   1  -0.0266  0.9083  0.6158  11.00000  0.05    0.90
Q15   1   0.0012  1.0013  0.5734  11.00000  0.05    0.89
Q16   1   0.1902  0.8962  0.5950  11.00000  0.05    0.88
Q17   1   0.0423  0.6922  0.6218  11.00000  0.05    0.88
Q18   1   0.6221  0.9009  0.7946  11.00000  0.05    0.85
Q19   1   0.2470  1.0081  0.5960  11.00000  0.05    0.84
Q20   1   0.4176  0.6208  0.3597  11.00000  0.05    0.83
;
_shelx_res_checksum              19740
loop_
_space_group_symop_operation_xyz
'x, y, z'
'-x+1/2, y+1/2, -z+1/2'
'-x, -y, -z'
'x-1/2, -y-1/2, z-1/2'
loop_
_atom_site_label
_atom_site_type_symbol
_atom_site_fract_x
_atom_site_fract_y
_atom_site_fract_z
_atom_site_U_iso_or_equiv
_atom_site_adp_type
_atom_site_occupancy
_atom_site_site_symmetry_order
_atom_site_calc_flag
_atom_site_refinement_flags_posn
_atom_site_refinement_flags_adp
_atom_site_refinement_flags_occupancy
C1 C 0.3801(10) 0.6546(6) 0.6281(6) 0.0217(18) Uani 1 1 d . . .
H1 H 0.322298 0.600755 0.654466 0.026 Uiso 1 1 calc R U .
C2 C 0.4473(10) 0.7361(6) 0.6956(6) 0.0186(17) Uani 1 1 d . . .
H2 H 0.436271 0.739787 0.768773 0.022 Uiso 1 1 calc R U .
C3 C 0.5331(10) 0.8142(5) 0.6536(6) 0.0201(17) Uani 1 1 d . . .
H3 H 0.582417 0.871003 0.698603 0.024 Uiso 1 1 calc R U .
C4 C 0.5446(10) 0.8070(5) 0.5459(6) 0.0177(17) Uani 1 1 d . . .
H4 H 0.599813 0.860002 0.516272 0.021 Uiso 1 1 calc R U .
C5 C 0.4762(9) 0.7235(5) 0.4819(5) 0.0147(16) Uani 1 1 d . . .
N1 N 0.3965(8) 0.6512(4) 0.5245(5) 0.0162(13) Uani 1 1 d . . .
H1A H 0.352220 0.598348 0.482695 0.019 Uiso 1 1 calc R U .
Br1 Br 0.18687(9) 0.96126(5) 0.37184(6) 0.01474(17) Uani 1 1 d . . .
Br2 Br -0.01144(10) 0.80603(5) 0.53922(6) 0.01620(18) Uani 1 1 d . . .
Br3 Br 0.26485(10) 1.01886(5) 0.66050(6) 0.01566(17) Uani 1 1 d . . .
Br4 Br 0.18761(10) 0.45612(5) 0.37413(6) 0.01880(18) Uani 1 1 d . . .
Br5 Br 0.000000 0.500000 0.500000 0.0155(2) Uani 1 2 d S . P
Sb1 Sb 0.000000 1.000000 0.500000 0.00935(16) Uani 1 2 d S . P
I1 I 0.49689(7) 0.70199(4) 0.32289(4) 0.02256(15) Uani 1 1 d . . .
loop_
_atom_site_aniso_label
_atom_site_aniso_U_11
_atom_site_aniso_U_22
_atom_site_aniso_U_33
_atom_site_aniso_U_23
_atom_site_aniso_U_13
_atom_site_aniso_U_12
C1 0.013(4) 0.028(4) 0.025(4) 0.011(4) 0.007(3) -0.001(4)
C2 0.015(4) 0.026(4) 0.014(4) 0.000(3) 0.004(3) 0.003(4)
C3 0.015(4) 0.019(4) 0.018(4) -0.005(3) -0.010(3) 0.009(3)
C4 0.019(5) 0.010(3) 0.023(4) 0.005(3) 0.003(3) 0.002(3)
C5 0.014(4) 0.016(3) 0.011(3) 0.003(3) 0.000(3) 0.002(3)
N1 0.014(4) 0.013(3) 0.017(3) 0.004(3) -0.005(3) 0.000(3)
Br1 0.0135(4) 0.0161(4) 0.0157(3) -0.0028(3) 0.0060(3) -0.0006(3)
Br2 0.0195(5) 0.0094(3) 0.0192(4) 0.0016(3) 0.0044(3) 0.0009(3)
Br3 0.0113(4) 0.0188(4) 0.0140(3) -0.0028(3) -0.0016(3) 0.0015(3)
Br4 0.0169(4) 0.0191(4) 0.0209(4) -0.0023(3) 0.0059(3) -0.0018(3)
Br5 0.0116(6) 0.0148(5) 0.0184(5) -0.0002(4) 0.0010(4) -0.0036(4)
Sb1 0.0088(4) 0.0083(3) 0.0100(3) -0.0002(3) 0.0009(3) 0.0002(3)
I1 0.0255(3) 0.0262(3) 0.0162(3) -0.0049(2) 0.0060(2) -0.0100(2)
loop_
_atom_type_symbol
_atom_type_description
_atom_type_scat_dispersion_real
_atom_type_scat_dispersion_imag
_atom_type_scat_source
C C 0.0033 0.0016 'International Tables Vol C Tables 4.2.6.8 and 6.1.1.4'
N N 0.0061 0.0033 'International Tables Vol C Tables 4.2.6.8 and 6.1.1.4'
Br Br -0.2901 2.4595 'International Tables Vol C Tables 4.2.6.8 and 6.1.1.4'
Sb Sb -0.5866 1.5461 'International Tables Vol C Tables 4.2.6.8 and 6.1.1.4'
I I -0.4742 1.8119 'International Tables Vol C Tables 4.2.6.8 and 6.1.1.4'
H H 0.0000 0.0000 'International Tables Vol C Tables 4.2.6.8 and 6.1.1.4'
loop_
_geom_angle_atom_site_label_1
_geom_angle_atom_site_label_2
_geom_angle_atom_site_label_3
_geom_angle
_geom_angle_site_symmetry_1
_geom_angle_site_symmetry_3
N1 C1 C2 119.8(6) . .
N1 C1 H1 120.1 . .
C2 C1 H1 120.1 . .
C1 C2 C3 118.4(6) . .
C1 C2 H2 120.8 . .
C3 C2 H2 120.8 . .
C4 C3 C2 119.2(7) . .
C4 C3 H3 120.4 . .
C2 C3 H3 120.4 . .
C5 C4 C3 120.2(7) . .
C5 C4 H4 119.9 . .
C3 C4 H4 119.9 . .
N1 C5 C4 118.8(6) . .
N1 C5 I1 118.0(5) . .
C4 C5 I1 123.1(5) . .
C5 N1 C1 123.5(6) . .
C5 N1 H1A 118.2 . .
C1 N1 H1A 118.2 . .
Br4 Br5 Br4 180.0 . 3_566
Br1 Sb1 Br1 180.0 . 3_576
Br1 Sb1 Br3 90.34(2) . 3_576
Br1 Sb1 Br3 89.66(2) 3_576 3_576
Br1 Sb1 Br3 89.66(2) . .
Br1 Sb1 Br3 90.34(2) 3_576 .
Br3 Sb1 Br3 180.0 3_576 .
Br1 Sb1 Br2 89.31(2) . .
Br1 Sb1 Br2 90.68(2) 3_576 .
Br3 Sb1 Br2 89.55(2) 3_576 .
Br3 Sb1 Br2 90.45(2) . .
Br1 Sb1 Br2 90.69(2) . 3_576
Br1 Sb1 Br2 89.31(2) 3_576 3_576
Br3 Sb1 Br2 90.45(2) 3_576 3_576
Br3 Sb1 Br2 89.55(2) . 3_576
Br2 Sb1 Br2 180.0 . 3_576
loop_
_geom_bond_atom_site_label_1
_geom_bond_atom_site_label_2
_geom_bond_distance
C1 N1 1.347(8)
C1 C2 1.374(10)
C1 H1 0.9500
C2 C3 1.410(10)
C2 H2 0.9500
C3 C4 1.387(10)
C3 H3 0.9500
C4 C5 1.376(10)
C4 H4 0.9500
C5 N1 1.331(8)
C5 I1 2.071(6)
N1 H1A 0.8800
Br1 Sb1 2.5496(6)
Br2 Sb1 2.5644(6)
Br3 Sb1 2.5511(8)
Br4 Br5 2.5455(7)
