#------------------------------------------------------------------------------
#$Date: 2019-11-07 21:19:25 +0200 (Thu, 07 Nov 2019) $
#$Revision: 223478 $
#$URL: file:///home/coder/svn-repositories/cod/cif/7/23/23/7232330.cif $
#------------------------------------------------------------------------------
#
# This file is available in the Crystallography Open Database (COD),
# http://www.crystallography.net/
#
# All data on this site have been placed in the public domain by the
# contributors.
#
data_7232330
loop_
_publ_author_name
'Jones, Charlotte L.'
'Skelton, Jonathan M.'
'Parker, Stephen C.'
'Raithby, Paul R.'
'Walsh, Aron'
'Wilson, Chick C.'
'Thomas, Lynne H.'
_publ_section_title
;
 Living in the salt-cocrystal continuum: indecisive organic complexes with
 thermochromic behaviour
;
_journal_issue                   10
_journal_name_full               CrystEngComm
_journal_page_first              1626
_journal_paper_doi               10.1039/C8CE02066C
_journal_volume                  21
_journal_year                    2019
_chemical_formula_moiety         'C6N1I1H6, C7N2O6H4'
_chemical_formula_sum            'C13 H10 I N3 O6'
_chemical_formula_weight         431.14
_chemical_name_systematic        '4-iodoaniline 3,5-dinitrobenzoic acid'
_space_group_crystal_system      triclinic
_space_group_IT_number           2
_space_group_name_Hall           '-P 1'
_space_group_name_H-M_alt        'P -1'
_symmetry_space_group_name_Hall  '-P 1'
_symmetry_space_group_name_H-M   'P -1'
_atom_sites_solution_hydrogens   mixed
_audit_creation_method           SHELXL-2014/7
_audit_update_record
;
2017-06-16 deposited with the CCDC.
2019-02-07 downloaded from the CCDC.
;
_cell_angle_alpha                99.348(3)
_cell_angle_beta                 103.715(4)
_cell_angle_gamma                90.271(3)
_cell_formula_units_Z            2
_cell_length_a                   7.2766(3)
_cell_length_b                   7.3862(3)
_cell_length_c                   14.2883(5)
_cell_measurement_reflns_used    4413
_cell_measurement_temperature    150.00(10)
_cell_measurement_theta_max      28.7910
_cell_measurement_theta_min      3.5490
_cell_volume                     735.39(5)
_computing_structure_refinement  'SHELXL-2014/7 (Sheldrick, 2014)'
_diffrn_ambient_temperature      150.00(10)
_diffrn_measured_fraction_theta_full 0.999
_diffrn_measured_fraction_theta_max 0.999
_diffrn_measurement_device_type  'Gemini ultra'
_diffrn_radiation_type           MoK\a
_diffrn_radiation_wavelength     0.71073
_diffrn_reflns_av_R_equivalents  0.0574
_diffrn_reflns_av_unetI/netI     0.0619
_diffrn_reflns_Laue_measured_fraction_full 0.999
_diffrn_reflns_Laue_measured_fraction_max 0.999
_diffrn_reflns_limit_h_max       9
_diffrn_reflns_limit_h_min       -9
_diffrn_reflns_limit_k_max       9
_diffrn_reflns_limit_k_min       -9
_diffrn_reflns_limit_l_max       18
_diffrn_reflns_limit_l_min       -18
_diffrn_reflns_number            10639
_diffrn_reflns_point_group_measured_fraction_full 0.999
_diffrn_reflns_point_group_measured_fraction_max 0.999
_diffrn_reflns_theta_full        25.242
_diffrn_reflns_theta_max         27.484
_diffrn_reflns_theta_min         2.798
_exptl_absorpt_coefficient_mu    2.214
_exptl_absorpt_correction_T_max  1.00000
_exptl_absorpt_correction_T_min  0.84943
_exptl_absorpt_correction_type   multi-scan
_exptl_absorpt_process_details
;
CrysAlisPro, Agilent Technologies,
Version 1.171.37.31 (release 14-01-2014 CrysAlis171 .NET)
(compiled Jan 14 2014,18:38:05)
Empirical absorption correction using spherical harmonics,
 implemented in SCALE3 ABSPACK scaling algorithm.
;
_exptl_crystal_colour            red
_exptl_crystal_density_diffrn    1.947
_exptl_crystal_description       block
_exptl_crystal_F_000             420
_exptl_crystal_recrystallization_method
'Re-crystallisation from solvent: ethyl acetate'
_exptl_crystal_size_max          0.25
_exptl_crystal_size_mid          0.2
_exptl_crystal_size_min          0.2
_refine_diff_density_max         0.876
_refine_diff_density_min         -0.585
_refine_diff_density_rms         0.147
_refine_ls_extinction_method     none
_refine_ls_goodness_of_fit_ref   1.081
_refine_ls_hydrogen_treatment    mixed
_refine_ls_matrix_type           full
_refine_ls_number_parameters     217
_refine_ls_number_reflns         3391
_refine_ls_number_restraints     1
_refine_ls_restrained_S_all      6.278
_refine_ls_R_factor_all          0.0633
_refine_ls_R_factor_gt           0.0460
_refine_ls_shift/su_max          0.025
_refine_ls_shift/su_mean         0.001
_refine_ls_structure_factor_coef Fsqd
_refine_ls_weighting_details
'w=1/[\s^2^(Fo^2^)+(0.0450P)^2^+0.8439P] where P=(Fo^2^+2Fc^2^)/3'
_refine_ls_weighting_scheme      calc
_refine_ls_wR_factor_gt          0.1018
_refine_ls_wR_factor_ref         0.1099
_reflns_Friedel_coverage         0.000
_reflns_number_gt                2740
_reflns_number_total             3391
_reflns_threshold_expression     'I > 2\s(I)'
_cod_data_source_file            c8ce02066c2.cif
_cod_data_source_block           4IA_35DNBA_16
_cod_depositor_comments
'Adding full bibliography for 7232328--7232334.cif.'
_cod_database_code               7232330
_shelx_shelxl_version_number     2014/7
_shelx_space_group_comment
;
The symmetry employed for this shelxl refinement is uniquely defined
by the following loop, which should always be used as a source of
symmetry information in preference to the above space-group names.
They are only intended as comments.
;
_shelx_res_file
;

    shelx.res created by SHELXL-2014/7


TITL 4IA 35DNBA neutral red
CELL  0.71073   7.2766   7.3862  14.2883   99.348  103.715   90.271
ZERR     2.00   0.0003   0.0003   0.0005    0.003    0.004    0.003
LATT   1
SFAC  C    H    N    O    I
UNIT  26 20 6 12 2
MERG   2
FMAP   2
PLAN   25
OMIT -4 -3 2
DFIX 0.9 O5 H6
HTAB
EQIV $1 -x, -y, -z+1
HTAB N1 O6_$1
EQIV $2 x-1, y-1, z
HTAB N1 O5_$2
HTAB N1 O6_$2
EQIV $3 -x-1, -y, -z
HTAB C5 I1_$3
EQIV $4 x, y-1, z
HTAB C9 I1_$4
EQIV $5 -x, -y, -z
HTAB C11 O4_$5
EQIV $6 -x, -y-1, -z+1
HTAB O1 O2_$6
ACTA
L.S.   4
WGHT    0.045000    0.843900
FVAR       1.48932
I1    5   -0.391860    0.197173    0.127998    11.00000    0.04058    0.03112 =
         0.04084    0.01147    0.00850   -0.00134
N1    3   -0.521800   -0.366625    0.391783    11.00000    0.05294    0.05354 =
         0.04730    0.01945    0.00503   -0.01436
H1B   2   -0.475809   -0.336722    0.450373    11.00000   -1.50000
H1A   2   -0.572983   -0.473319    0.365316    11.00000   -1.50000

C1    1   -0.491848   -0.245068    0.332231    11.00000    0.01853    0.03553 =
         0.04114    0.01091    0.00726    0.00291
C2    1   -0.411710   -0.071530    0.372841    11.00000    0.02882    0.04144 =
         0.03511    0.01235    0.00738   -0.00021
AFIX  43
H2    2   -0.376306   -0.038787    0.440504    11.00000   -1.20000
AFIX   0
C3    1   -0.383037    0.053618    0.315993    11.00000    0.02747    0.02736 =
         0.03774    0.00498    0.00546   -0.00225
AFIX  43
H3    2   -0.328908    0.169638    0.344926    11.00000   -1.20000
AFIX   0
C4    1   -0.435253    0.005989    0.215230    11.00000    0.02386    0.02363 =
         0.03693    0.00808    0.00640    0.00272
C5    1   -0.515515   -0.167622    0.172918    11.00000    0.02600    0.03230 =
         0.03560    0.00183    0.01050    0.00034
AFIX  43
H5    2   -0.552805   -0.200410    0.105295    11.00000   -1.20000
AFIX   0
C6    1   -0.539153   -0.290137    0.231976    11.00000    0.02634    0.02596 =
         0.05424    0.00385    0.01825   -0.00050
AFIX  43
H6    2   -0.588875   -0.407785    0.203312    11.00000   -1.20000
AFIX   0

C7    1   -0.006664   -0.361181    0.398935    11.00000    0.02586    0.02964 =
         0.02805    0.00921    0.00909    0.00436
C8    1    0.005151   -0.251520    0.321258    11.00000    0.02045    0.02611 =
         0.02493    0.00909    0.00342    0.00191
C9    1   -0.059816   -0.328433    0.223020    11.00000    0.02268    0.02667 =
         0.03083    0.01328    0.00917    0.00190
AFIX  43
H9    2   -0.114800   -0.446744    0.204778    11.00000   -1.20000
AFIX   0
C10   1   -0.040762   -0.225364    0.153642    11.00000    0.02656    0.03268 =
         0.02503    0.00974    0.00968    0.00788
C11   1    0.044330   -0.049584    0.177614    11.00000    0.01963    0.02804 =
         0.03344    0.01889    0.00947    0.00377
AFIX  43
H11   2    0.060461    0.016228    0.129679    11.00000   -1.20000
AFIX   0
C12   1    0.102862    0.021738    0.274207    11.00000    0.01903    0.02640 =
         0.04014    0.01363    0.01187    0.00439
C13   1    0.086424   -0.075329    0.346620    11.00000    0.02751    0.02675 =
         0.02679    0.00695    0.00875    0.00187
AFIX  43
H13   2    0.129638   -0.022791    0.412042    11.00000   -1.20000
AFIX   0

O1    4    0.055881   -0.280925    0.486482    11.00000    0.06915    0.03655 =
         0.02620    0.01056    0.01096   -0.01475
H1    2    0.046268   -0.345527    0.529803    11.00000   -1.50000
O2    4   -0.072913   -0.522018    0.374523    11.00000    0.04452    0.03273 =
         0.02957    0.01053    0.00681   -0.00760
O3    4   -0.206588   -0.449607    0.029302    11.00000    0.05847    0.03893 =
         0.02888    0.00557    0.00261   -0.01514
O4    4   -0.066731   -0.224856   -0.010449    11.00000    0.07800    0.04670 =
         0.02988    0.01569    0.01443   -0.00852
O5    4    0.195336    0.295502    0.239977    11.00000    0.05582    0.03249 =
         0.03951    0.01595    0.01807   -0.00349
O6    4    0.266522    0.259163    0.390800    11.00000    0.04632    0.03385 =
         0.03555    0.00628    0.00214   -0.00828
N2    3   -0.109840   -0.305964    0.049624    11.00000    0.04124    0.03494 =
         0.03207    0.01261    0.00847    0.00264
N3    3    0.195793    0.205355    0.303797    11.00000    0.03058    0.02415 =
         0.03840    0.00711    0.01347   -0.00048
HKLF    4

REM  4IA 35DNBA neutral red
REM R1 =  0.0460 for    2740 Fo > 4sig(Fo)  and  0.0633 for all    3391 data
REM    217 parameters refined using      1 restraints

END

WGHT      0.0450      0.8442

REM Instructions for potential hydrogen bonds
HTAB N1 O6_$1
HTAB N1 O5_$2
HTAB N1 O6_$2
HTAB C5 I1_$3
HTAB C9 I1_$4
HTAB C11 O4_$5
HTAB O1 O2_$6

REM Highest difference peak  0.876,  deepest hole -0.585,  1-sigma level  0.147
Q1    1  -0.3274  0.2243  0.1977  11.00000  0.05    0.88
Q2    1  -0.5893 -0.1924  0.0795  11.00000  0.05    0.86
Q3    1   0.2737  0.3907  0.2686  11.00000  0.05    0.82
Q4    1  -0.5719 -0.3265  0.2263  11.00000  0.05    0.82
Q5    1  -0.0662  0.0171 -0.0009  11.00000  0.05    0.76
Q6    1  -0.4678  0.2974  0.1158  11.00000  0.05    0.69
Q7    1  -0.2598 -0.3969 -0.0407  11.00000  0.05    0.68
Q8    1  -0.1643 -0.4129  0.1701  11.00000  0.05    0.64
Q9    1  -0.4069 -0.2533  0.5225  11.00000  0.05    0.62
Q10   1  -0.3354  0.1825  0.1196  11.00000  0.05    0.60
Q11   1  -0.1450 -0.4134  0.3812  11.00000  0.05    0.56
Q12   1  -0.3245  0.3183  0.1637  11.00000  0.05    0.56
Q13   1  -0.3669  0.0772  0.1597  11.00000  0.05    0.55
Q14   1  -0.4128 -0.4135  0.5006  11.00000  0.05    0.54
Q15   1  -0.5099 -0.2005  0.3020  11.00000  0.05    0.54
Q16   1  -0.4361  0.2119  0.0589  11.00000  0.05    0.52
Q17   1   0.1443  0.1171  0.2918  11.00000  0.05    0.52
Q18   1  -0.0639 -0.5201  0.4212  11.00000  0.05    0.51
Q19   1   0.2048  0.2600  0.1673  11.00000  0.05    0.50
Q20   1   0.1034 -0.0218  0.2374  11.00000  0.05    0.50
Q21   1   0.0089 -0.4814  0.3858  11.00000  0.05    0.49
Q22   1   0.2603  0.3824  0.3824  11.00000  0.05    0.46
Q23   1  -0.4345 -0.0929  0.1820  11.00000  0.05    0.46
Q24   1  -0.4072  0.1045  0.0620  11.00000  0.05    0.46
Q25   1  -0.1104  0.1075  0.3571  11.00000  0.05    0.45
;
_shelx_res_checksum              57639
loop_
_space_group_symop_operation_xyz
'x, y, z'
'-x, -y, -z'
loop_
_atom_site_label
_atom_site_type_symbol
_atom_site_fract_x
_atom_site_fract_y
_atom_site_fract_z
_atom_site_U_iso_or_equiv
_atom_site_adp_type
_atom_site_occupancy
_atom_site_site_symmetry_order
_atom_site_calc_flag
_atom_site_refinement_flags_posn
_atom_site_refinement_flags_adp
I1 I -0.39186(5) 0.19717(5) 0.12800(3) 0.03712(14) Uani 1 1 d . .
N1 N -0.5218(8) -0.3666(8) 0.3918(4) 0.0513(14) Uani 1 1 d . .
H1B H -0.476(11) -0.337(11) 0.450(6) 0.077 Uiso 1 1 d . U
H1A H -0.573(11) -0.473(11) 0.365(6) 0.077 Uiso 1 1 d . U
C1 C -0.4918(7) -0.2451(7) 0.3322(4) 0.0312(11) Uani 1 1 d . .
C2 C -0.4117(7) -0.0715(7) 0.3728(4) 0.0345(12) Uani 1 1 d . .
H2 H -0.3763 -0.0388 0.4405 0.041 Uiso 1 1 calc R U
C3 C -0.3830(7) 0.0536(7) 0.3160(4) 0.0313(11) Uani 1 1 d . .
H3 H -0.3289 0.1696 0.3449 0.038 Uiso 1 1 calc R U
C4 C -0.4353(7) 0.0060(6) 0.2152(4) 0.0280(10) Uani 1 1 d . .
C5 C -0.5155(7) -0.1676(7) 0.1729(4) 0.0312(11) Uani 1 1 d . .
H5 H -0.5528 -0.2004 0.1053 0.037 Uiso 1 1 calc R U
C6 C -0.5392(7) -0.2901(7) 0.2320(4) 0.0344(12) Uani 1 1 d . .
H6 H -0.5889 -0.4078 0.2033 0.041 Uiso 1 1 calc DR U
C7 C -0.0067(7) -0.3612(7) 0.3989(3) 0.0269(10) Uani 1 1 d . .
C8 C 0.0052(6) -0.2515(6) 0.3213(3) 0.0236(9) Uani 1 1 d . .
C9 C -0.0598(6) -0.3284(6) 0.2230(3) 0.0253(10) Uani 1 1 d . .
H9 H -0.1148 -0.4467 0.2048 0.030 Uiso 1 1 calc R U
C10 C -0.0408(7) -0.2254(7) 0.1536(3) 0.0269(10) Uani 1 1 d . .
C11 C 0.0443(6) -0.0496(6) 0.1776(3) 0.0249(10) Uani 1 1 d . .
H11 H 0.0605 0.0162 0.1297 0.030 Uiso 1 1 calc R U
C12 C 0.1029(6) 0.0217(6) 0.2742(4) 0.0268(10) Uani 1 1 d . .
C13 C 0.0864(7) -0.0753(6) 0.3466(3) 0.0264(10) Uani 1 1 d . .
H13 H 0.1296 -0.0228 0.4120 0.032 Uiso 1 1 calc R U
O1 O 0.0559(6) -0.2809(5) 0.4865(3) 0.0435(10) Uani 1 1 d . .
H1 H 0.046(10) -0.346(9) 0.530(5) 0.065 Uiso 1 1 d . U
O2 O -0.0729(5) -0.5220(5) 0.3745(2) 0.0354(8) Uani 1 1 d . .
O3 O -0.2066(6) -0.4496(5) 0.0293(3) 0.0435(10) Uani 1 1 d . .
O4 O -0.0667(7) -0.2249(6) -0.0104(3) 0.0503(11) Uani 1 1 d . .
O5 O 0.1953(6) 0.2955(5) 0.2400(3) 0.0404(9) Uani 1 1 d D .
O6 O 0.2665(5) 0.2592(5) 0.3908(3) 0.0399(9) Uani 1 1 d . .
N2 N -0.1098(6) -0.3060(6) 0.0496(3) 0.0353(10) Uani 1 1 d . .
N3 N 0.1958(6) 0.2054(5) 0.3038(3) 0.0300(9) Uani 1 1 d . .
loop_
_atom_site_aniso_label
_atom_site_aniso_U_11
_atom_site_aniso_U_22
_atom_site_aniso_U_33
_atom_site_aniso_U_23
_atom_site_aniso_U_13
_atom_site_aniso_U_12
I1 0.0406(2) 0.0311(2) 0.0408(2) 0.01147(15) 0.00850(16) -0.00134(14)
N1 0.053(3) 0.054(3) 0.047(3) 0.019(3) 0.005(3) -0.014(3)
C1 0.019(2) 0.036(3) 0.041(3) 0.011(2) 0.007(2) 0.003(2)
C2 0.029(3) 0.041(3) 0.035(3) 0.012(2) 0.007(2) 0.000(2)
C3 0.027(3) 0.027(3) 0.038(3) 0.005(2) 0.005(2) -0.002(2)
C4 0.024(2) 0.024(2) 0.037(3) 0.008(2) 0.006(2) 0.0027(19)
C5 0.026(2) 0.032(3) 0.036(3) 0.002(2) 0.010(2) 0.000(2)
C6 0.026(3) 0.026(3) 0.054(3) 0.004(2) 0.018(2) 0.000(2)
C7 0.026(2) 0.030(3) 0.028(3) 0.009(2) 0.009(2) 0.004(2)
C8 0.020(2) 0.026(2) 0.025(2) 0.0091(19) 0.0034(19) 0.0019(18)
C9 0.023(2) 0.027(2) 0.031(2) 0.013(2) 0.009(2) 0.0019(18)
C10 0.027(2) 0.033(3) 0.025(2) 0.010(2) 0.010(2) 0.008(2)
C11 0.020(2) 0.028(2) 0.033(3) 0.019(2) 0.009(2) 0.0038(18)
C12 0.019(2) 0.026(3) 0.040(3) 0.014(2) 0.012(2) 0.0044(18)
C13 0.028(2) 0.027(3) 0.027(2) 0.007(2) 0.009(2) 0.0019(19)
O1 0.069(3) 0.037(2) 0.0262(19) 0.0106(17) 0.0110(19) -0.0148(19)
O2 0.045(2) 0.033(2) 0.0296(18) 0.0105(15) 0.0068(16) -0.0076(16)
O3 0.058(3) 0.039(2) 0.0289(19) 0.0056(16) 0.0026(18) -0.0151(19)
O4 0.078(3) 0.047(2) 0.030(2) 0.0157(18) 0.014(2) -0.009(2)
O5 0.056(2) 0.032(2) 0.040(2) 0.0160(17) 0.0181(19) -0.0035(17)
O6 0.046(2) 0.034(2) 0.036(2) 0.0063(17) 0.0021(18) -0.0083(17)
N2 0.041(3) 0.035(3) 0.032(2) 0.013(2) 0.008(2) 0.003(2)
N3 0.031(2) 0.024(2) 0.038(2) 0.0071(19) 0.013(2) -0.0005(17)
loop_
_atom_type_symbol
_atom_type_description
_atom_type_scat_dispersion_real
_atom_type_scat_dispersion_imag
_atom_type_scat_source
C C 0.0033 0.0016 'International Tables Vol C Tables 4.2.6.8 and 6.1.1.4'
H H 0.0000 0.0000 'International Tables Vol C Tables 4.2.6.8 and 6.1.1.4'
N N 0.0061 0.0033 'International Tables Vol C Tables 4.2.6.8 and 6.1.1.4'
O O 0.0106 0.0060 'International Tables Vol C Tables 4.2.6.8 and 6.1.1.4'
I I -0.4742 1.8119 'International Tables Vol C Tables 4.2.6.8 and 6.1.1.4'
loop_
_geom_angle_atom_site_label_1
_geom_angle_atom_site_label_2
_geom_angle_atom_site_label_3
_geom_angle
C6 C1 C2 117.6(5)
C6 C1 N1 122.2(5)
C2 C1 N1 120.2(5)
C3 C2 C1 121.7(5)
C2 C3 C4 119.5(5)
C3 C4 C5 119.7(4)
C3 C4 I1 119.6(3)
C5 C4 I1 120.7(4)
C6 C5 C4 119.2(5)
C5 C6 C1 122.2(5)
O2 C7 O1 124.8(4)
O2 C7 C8 119.1(4)
O1 C7 C8 116.1(4)
C13 C8 C9 119.7(4)
C13 C8 C7 120.1(4)
C9 C8 C7 120.2(4)
C10 C9 C8 118.5(4)
C9 C10 C11 122.7(4)
C9 C10 N2 118.6(4)
C11 C10 N2 118.7(4)
C12 C11 C10 117.0(4)
C11 C12 C13 122.6(4)
C11 C12 N3 119.4(4)
C13 C12 N3 117.9(4)
C12 C13 C8 119.5(4)
O4 N2 O3 124.4(4)
O4 N2 C10 117.6(4)
O3 N2 C10 117.9(4)
O5 N3 O6 124.2(4)
O5 N3 C12 117.3(4)
O6 N3 C12 118.5(4)
loop_
_geom_bond_atom_site_label_1
_geom_bond_atom_site_label_2
_geom_bond_distance
I1 C4 2.098(5)
N1 C1 1.383(7)
C1 C6 1.375(7)
C1 C2 1.382(7)
C2 C3 1.371(7)
C3 C4 1.384(7)
C4 C5 1.387(7)
C5 C6 1.370(7)
C7 O2 1.243(6)
C7 O1 1.269(6)
C7 C8 1.494(6)
C8 C13 1.383(6)
C8 C9 1.393(7)
C9 C10 1.375(6)
C10 C11 1.391(7)
C10 N2 1.474(6)
C11 C12 1.359(7)
C12 C13 1.378(6)
C12 N3 1.465(6)
O3 N2 1.225(5)
O4 N2 1.219(5)
O5 N3 1.213(5)
O6 N3 1.226(5)
loop_
_geom_hbond_atom_site_label_D
_geom_hbond_atom_site_label_H
_geom_hbond_atom_site_label_A
_geom_hbond_distance_DH
_geom_hbond_distance_HA
_geom_hbond_distance_DA
_geom_hbond_angle_DHA
_geom_hbond_site_symmetry_A
N1 H1B O6 0.82(8) 2.39(8) 3.191(7) 165(7) 2_556
N1 H1A O5 0.86(8) 2.55(8) 3.353(7) 156(7) 1_445
N1 H1A O6 0.86(8) 2.41(8) 3.154(6) 145(7) 1_445
C5 H5 I1 0.93 3.27 4.160(5) 162.1 2_455
C9 H9 I1 0.93 3.19 4.096(5) 166.6 1_545
C11 H11 O4 0.93 2.48 3.405(5) 171.0 2
O1 H1 O2 0.86(7) 1.78(7) 2.627(5) 169(7) 2_546
