#------------------------------------------------------------------------------
#$Date: 2019-11-07 21:58:40 +0200 (Thu, 07 Nov 2019) $
#$Revision: 223668 $
#$URL: file:///home/coder/svn-repositories/cod/cif/7/23/27/7232741.cif $
#------------------------------------------------------------------------------
#
# This file is available in the Crystallography Open Database (COD),
# http://www.crystallography.net/
#
# All data on this site have been placed in the public domain by the
# contributors.
#
data_7232741
loop_
_publ_author_name
'Giordano, Nico'
'Beavers, Christine M.'
'Kamenev, Konstantin V.'
'Marshall, William G.'
'Moggach, Stephen A.'
'Patterson, Simon D.'
'Teat, Simon J.'
'Warren, John E.'
'Wood, Peter A.'
'Parsons, Simon'
_publ_section_title
;
 High-pressure polymorphism in l-threonine between ambient pressure and 22
 GPa
;
_journal_issue                   30
_journal_name_full               CrystEngComm
_journal_page_first              4444
_journal_paper_doi               10.1039/C9CE00388F
_journal_volume                  21
_journal_year                    2019
_chemical_absolute_configuration syn
_chemical_formula_sum            'C4 H9 N O3'
_chemical_formula_weight         119.12
_chemical_name_common            L-threonine
_chemical_name_systematic        '(2S,3R)-2-amino-3-hydroxybutanoic acid'
_space_group_crystal_system      orthorhombic
_space_group_IT_number           19
_space_group_name_Hall           'P 2ac 2ab'
_space_group_name_H-M_alt        'P 21 21 21'
_symmetry_space_group_name_Hall  'P 2ac 2ab'
_symmetry_space_group_name_H-M   'P 21 21 21'
_atom_sites_solution_hydrogens   geom
_audit_creation_method           SHELXL-2014/7
_audit_update_record
;
2019-03-15 deposited with the CCDC.    2019-05-09 downloaded from the CCDC.
;
_cell_angle_alpha                90
_cell_angle_beta                 90
_cell_angle_gamma                90
_cell_formula_units_Z            4
_cell_length_a                   4.773(3)
_cell_length_b                   12.910(8)
_cell_length_c                   6.363(6)
_cell_measurement_reflns_used    901
_cell_measurement_temperature    298(2)
_cell_measurement_theta_max      17.98
_cell_measurement_theta_min      3.17
_cell_volume                     392.1(5)
_computing_structure_refinement  'SHELXL-2014/7 (Sheldrick, 2014)'
_diffrn_ambient_pressure         15.78
_diffrn_ambient_temperature      298(2)
_diffrn_measured_fraction_theta_full 0.465
_diffrn_measured_fraction_theta_max 0.457
_diffrn_measurement_device_type  'Perkin-Elmer a-Si Detector'
_diffrn_measurement_method       '\f shutterless scan'
_diffrn_radiation_monochromator  silicon(111)
_diffrn_radiation_source         'Advanced Light Source Beamline 12.2.2'
_diffrn_radiation_type           synchrotron
_diffrn_radiation_wavelength     0.49594
_diffrn_reflns_av_R_equivalents  0.0620
_diffrn_reflns_av_unetI/netI     0.0830
_diffrn_reflns_Laue_measured_fraction_full 0.465
_diffrn_reflns_Laue_measured_fraction_max 0.457
_diffrn_reflns_limit_h_max       5
_diffrn_reflns_limit_h_min       -5
_diffrn_reflns_limit_k_max       15
_diffrn_reflns_limit_k_min       -15
_diffrn_reflns_limit_l_max       4
_diffrn_reflns_limit_l_min       -4
_diffrn_reflns_number            1245
_diffrn_reflns_point_group_measured_fraction_full 0.469
_diffrn_reflns_point_group_measured_fraction_max 0.460
_diffrn_reflns_theta_full        17.311
_diffrn_reflns_theta_max         18.125
_diffrn_reflns_theta_min         3.175
_exptl_absorpt_coefficient_mu    0.084
_exptl_absorpt_correction_T_max  0.7442
_exptl_absorpt_correction_T_min  0.4454
_exptl_absorpt_correction_type   multi-scan
_exptl_absorpt_process_details   'SADABS-2014/5 (Sheldrick, 2015)'
_exptl_crystal_colour            colourless
_exptl_crystal_density_diffrn    2.018
_exptl_crystal_description       blade
_exptl_crystal_F_000             256
_exptl_crystal_size_max          0.060
_exptl_crystal_size_mid          0.050
_exptl_crystal_size_min          0.040
_refine_diff_density_max         0.359
_refine_diff_density_min         -0.269
_refine_diff_density_rms         0.080
_refine_ls_abs_structure_details
;
 Flack x determined using 72 quotients [(I+)-(I-)]/[(I+)+(I-)]
 (Parsons, Flack and Wagner, Acta Cryst. B69 (2013) 249-259).
;
_refine_ls_extinction_method     none
_refine_ls_goodness_of_fit_ref   1.004
_refine_ls_hydrogen_treatment    constr
_refine_ls_matrix_type           full
_refine_ls_number_parameters     33
_refine_ls_number_reflns         366
_refine_ls_number_restraints     17
_refine_ls_restrained_S_all      1.001
_refine_ls_R_factor_all          0.0926
_refine_ls_R_factor_gt           0.0667
_refine_ls_shift/su_max          0.000
_refine_ls_shift/su_mean         0.000
_refine_ls_structure_factor_coef Fsqd
_refine_ls_weighting_details
'w=1/[\s^2^(Fo^2^)+(0.1115P)^2^] where P=(Fo^2^+2Fc^2^)/3'
_refine_ls_weighting_scheme      calc
_refine_ls_wR_factor_gt          0.1607
_refine_ls_wR_factor_ref         0.1757
_reflns_Friedel_coverage         0.619
_reflns_Friedel_fraction_full    0.476
_reflns_Friedel_fraction_max     0.467
_reflns_number_gt                253
_reflns_number_total             366
_reflns_threshold_expression     'I > 2\s(I)'
_cod_data_source_file            c9ce00388f5.cif
_cod_data_source_block           15_78GPa
_cod_depositor_comments
'Adding full bibliography for 7232730--7232750.cif.'
_cod_original_cell_volume        392.0(5)
_cod_database_code               7232741
_shelx_shelxl_version_number     2014/7
_shelx_space_group_comment
;
The symmetry employed for this shelxl refinement is uniquely defined
by the following loop, which should always be used as a source of
symmetry information in preference to the above space-group names.
They are only intended as comments.
;
_shelx_estimated_absorpt_t_min   0.995
_shelx_estimated_absorpt_t_max   0.997
_shelx_res_file
;

    THRE10.res created by SHELXL-2014/7


TITL THRE10 in P2(1)2(1)2(1)
CELL 0.49594   4.77290  12.90970   6.36260  90.0000  90.0000  90.0000
ZERR    4.00   0.00340   0.00810   0.00570   0.0000   0.0000   0.0000
LATT -1
SYMM 1/2-X, -Y, 1/2+Z
SYMM -X, 1/2+Y, 1/2-Z
SYMM 1/2+X, 1/2-Y, -Z
SFAC C H N O
DISP $C  0.00086  0.00074  6.27610!source kissel
DISP $H -0.00003  0.00000  0.65340!source kissel
DISP $N  0.00207  0.00152  9.39816!source kissel
DISP $O  0.00413  0.00279 14.09704!source kissel
UNIT 16 36 4 12
OMIT 0 5 1
OMIT 5 1 3
DFIX 1.241 C1 O1
DFIX 1.249 C1 O2
DFIX 1.536 C1 C2
DFIX 1.489 C2 N1
DFIX 1.53 C2 C3
DFIX 1.424 C3 O3
DFIX 1.513 C3 C4
DFIX 2.229 0.04 O1 O2
DFIX 2.368 0.04 O1 C2
DFIX 2.37 0.04 O2 C2
DFIX 2.477 0.04 C1 N1
DFIX 2.553 0.04 C1 C3
DFIX 2.453 0.04 N1 C3
DFIX 2.332 0.04 C2 O3
DFIX 2.543 0.04 C2 C4
DFIX 2.332 0.04 O3 C2
DFIX 2.421 0.04 O3 C4
RIGU
L.S. 10
PLAN 5
SIZE 0.04 0.05 0.06 !colourless blade
TEMP 25
ACTA
BOND $H
LIST 6
fmap 2
REM EXTI    0.007353
WGHT    0.111500
FVAR       0.67125
C1    1    0.339537    0.509265    0.626074    11.00000    0.02562
O1    4    0.531784    0.572028    0.636608    11.00000    0.02529
O2    4    0.088408    0.526434    0.660091    11.00000    0.02751
C2    1    0.425683    0.399574    0.566706    11.00000    0.02000
AFIX  13
H4    2    0.296790    0.372305    0.460340    11.00000   -1.20000
AFIX   0
N1    3    0.708185    0.403867    0.480862    11.00000    0.02483
AFIX  33
H2    2    0.762977    0.340387    0.444982    11.00000   -1.50000
H3    2    0.709777    0.444521    0.367898    11.00000   -1.50000
H1    2    0.824504    0.429317    0.577227    11.00000   -1.50000
AFIX   0
C3    1    0.425311    0.328145    0.759831    11.00000    0.02470
AFIX  13
H5    2    0.511416    0.362022    0.881597    11.00000   -1.20000
AFIX   0
O3    4    0.584073    0.241973    0.693252    11.00000    0.02446
AFIX  83
H6    2    0.561211    0.193887    0.775690    11.00000   -1.50000
AFIX   0
C4    1    0.136765    0.291599    0.808788    11.00000    0.02990
AFIX  33
H8    2    0.024791    0.349113    0.854529    11.00000   -1.50000
H9    2    0.054794    0.261619    0.685160    11.00000   -1.50000
H7    2    0.144641    0.240500    0.918246    11.00000   -1.50000
AFIX   0
HKLF 4

REM  THRE10 in P2(1)2(1)2(1)
REM R1 =  0.0667 for     253 Fo > 4sig(Fo)  and  0.0926 for all     366 data
REM     33 parameters refined using     17 restraints

END

WGHT      0.1113      0.0000

REM Highest difference peak  0.359,  deepest hole -0.269,  1-sigma level  0.080
Q1    1   0.2124  0.5223  0.6497  11.00000  0.05    0.36
Q2    1   0.0798  0.5136  0.7813  11.00000  0.05    0.29
Q3    1   0.5642  0.3868  0.8708  11.00000  0.05    0.29
Q4    1   0.0778  0.5079  0.4768  11.00000  0.05    0.26
Q5    1   0.0074  0.3538  0.9138  11.00000  0.05    0.25
;
_shelx_res_checksum              42924
loop_
_space_group_symop_operation_xyz
'x, y, z'
'-x+1/2, -y, z+1/2'
'-x, y+1/2, -z+1/2'
'x+1/2, -y+1/2, -z'
loop_
_atom_site_label
_atom_site_type_symbol
_atom_site_fract_x
_atom_site_fract_y
_atom_site_fract_z
_atom_site_U_iso_or_equiv
_atom_site_adp_type
_atom_site_occupancy
_atom_site_site_symmetry_order
_atom_site_calc_flag
_atom_site_refinement_flags_posn
_atom_site_refinement_flags_adp
C1 C 0.3395(13) 0.5093(7) 0.626(3) 0.026(2) Uiso 1 1 d D .
O1 O 0.5318(10) 0.5720(5) 0.637(2) 0.0253(18) Uiso 1 1 d D .
O2 O 0.0884(10) 0.5264(5) 0.660(2) 0.0275(18) Uiso 1 1 d D .
C2 C 0.4257(14) 0.3996(6) 0.567(3) 0.020(2) Uiso 1 1 d D .
H4 H 0.2968 0.3723 0.4603 0.024 Uiso 1 1 calc R U
N1 N 0.7082(12) 0.4039(5) 0.481(2) 0.025(2) Uiso 1 1 d D .
H2 H 0.7630 0.3404 0.4450 0.037 Uiso 1 1 calc R U
H3 H 0.7098 0.4445 0.3679 0.037 Uiso 1 1 calc R U
H1 H 0.8245 0.4293 0.5772 0.037 Uiso 1 1 calc R U
C3 C 0.4253(15) 0.3281(7) 0.760(2) 0.025(2) Uiso 1 1 d D .
H5 H 0.5114 0.3620 0.8816 0.030 Uiso 1 1 calc R U
O3 O 0.5841(10) 0.2420(4) 0.693(2) 0.0245(18) Uiso 1 1 d D .
H6 H 0.5612 0.1939 0.7757 0.037 Uiso 1 1 calc R U
C4 C 0.1368(14) 0.2916(8) 0.809(3) 0.030(3) Uiso 1 1 d D .
H8 H 0.0248 0.3491 0.8545 0.045 Uiso 1 1 calc R U
H9 H 0.0548 0.2616 0.6852 0.045 Uiso 1 1 calc R U
H7 H 0.1446 0.2405 0.9182 0.045 Uiso 1 1 calc R U
loop_
_atom_type_symbol
_atom_type_description
_atom_type_scat_dispersion_real
_atom_type_scat_dispersion_imag
_atom_type_scat_source
C C 0.0009 0.0007 'International Tables Vol C Tables 4.2.6.8 and 6.1.1.4'
H H 0.0000 0.0000 'International Tables Vol C Tables 4.2.6.8 and 6.1.1.4'
N N 0.0021 0.0015 'International Tables Vol C Tables 4.2.6.8 and 6.1.1.4'
O O 0.0041 0.0028 'International Tables Vol C Tables 4.2.6.8 and 6.1.1.4'
loop_
_geom_angle_atom_site_label_1
_geom_angle_atom_site_label_2
_geom_angle_atom_site_label_3
_geom_angle
O1 C1 O2 126.6(9)
O1 C1 C2 115.2(7)
O2 C1 C2 118.1(6)
N1 C2 C1 107.9(6)
N1 C2 C3 108.9(8)
C1 C2 C3 111.1(12)
N1 C2 H4 109.6
C1 C2 H4 109.6
C3 C2 H4 109.6
C2 N1 H2 109.5
C2 N1 H3 109.5
H2 N1 H3 109.5
C2 N1 H1 109.5
H2 N1 H1 109.5
H3 N1 H1 109.5
O3 C3 C4 108.0(8)
O3 C3 C2 103.4(10)
C4 C3 C2 111.0(9)
O3 C3 H5 111.3
C4 C3 H5 111.3
C2 C3 H5 111.3
C3 O3 H6 109.5
C3 C4 H8 109.5
C3 C4 H9 109.5
H8 C4 H9 109.5
C3 C4 H7 109.5
H8 C4 H7 109.5
H9 C4 H7 109.5
loop_
_geom_bond_atom_site_label_1
_geom_bond_atom_site_label_2
_geom_bond_distance
C1 O1 1.226(9)
C1 O2 1.238(8)
C1 C2 1.522(12)
C2 N1 1.456(11)
C2 C3 1.536(16)
C2 H4 0.9800
N1 H2 0.8900
N1 H3 0.8900
N1 H1 0.8900
C3 O3 1.411(11)
C3 C4 1.489(10)
C3 H5 0.9800
O3 H6 0.8200
C4 H8 0.9600
C4 H9 0.9600
C4 H7 0.9600
