#------------------------------------------------------------------------------
#$Date: 2019-11-07 21:58:40 +0200 (Thu, 07 Nov 2019) $
#$Revision: 223668 $
#$URL: file:///home/coder/svn-repositories/cod/cif/7/23/27/7232744.cif $
#------------------------------------------------------------------------------
#
# This file is available in the Crystallography Open Database (COD),
# http://www.crystallography.net/
#
# All data on this site have been placed in the public domain by the
# contributors.
#
data_7232744
loop_
_publ_author_name
'Giordano, Nico'
'Beavers, Christine M.'
'Kamenev, Konstantin V.'
'Marshall, William G.'
'Moggach, Stephen A.'
'Patterson, Simon D.'
'Teat, Simon J.'
'Warren, John E.'
'Wood, Peter A.'
'Parsons, Simon'
_publ_section_title
;
 High-pressure polymorphism in l-threonine between ambient pressure and 22
 GPa
;
_journal_issue                   30
_journal_name_full               CrystEngComm
_journal_page_first              4444
_journal_paper_doi               10.1039/C9CE00388F
_journal_volume                  21
_journal_year                    2019
_chemical_absolute_configuration syn
_chemical_formula_sum            'C4 H9 N O3'
_chemical_formula_weight         119.12
_chemical_name_common            L-threonine
_chemical_name_systematic        '(2S,3R)-2-amino-3-hydroxybutanoic acid'
_space_group_crystal_system      orthorhombic
_space_group_IT_number           19
_space_group_name_Hall           'P 2ac 2ab'
_space_group_name_H-M_alt        'P 21 21 21'
_symmetry_space_group_name_Hall  'P 2ac 2ab'
_symmetry_space_group_name_H-M   'P 21 21 21'
_atom_sites_solution_hydrogens   geom
_audit_creation_method           SHELXL-2014/7
_audit_update_record
;
2019-03-15 deposited with the CCDC.    2019-05-09 downloaded from the CCDC.
;
_cell_angle_alpha                90
_cell_angle_beta                 90
_cell_angle_gamma                90
_cell_formula_units_Z            4
_cell_length_a                   4.771(3)
_cell_length_b                   12.903(6)
_cell_length_c                   6.361(4)
_cell_measurement_reflns_used    1108
_cell_measurement_temperature    298(2)
_cell_measurement_theta_max      17.99
_cell_measurement_theta_min      3.18
_cell_volume                     391.6(4)
_computing_cell_refinement       'Bruker SAINT'
_computing_data_collection       'Bruker APEX2'
_computing_data_reduction        'Bruker SAINT'
_computing_molecular_graphics    'Bruker SHELXTL'
_computing_publication_material  'Bruker SHELXTL'
_computing_structure_refinement  'SHELXL-2014 (Sheldrick 2014)'
_computing_structure_solution    'SHELXS-97 (Sheldrick 2008)'
_diffrn_ambient_pressure         15.20
_diffrn_ambient_temperature      298(2)
_diffrn_measured_fraction_theta_full 0.464
_diffrn_measured_fraction_theta_max 0.457
_diffrn_measurement_device_type  'Perkin-Elmer a-Si Detector'
_diffrn_measurement_method       '\f shutterless scan'
_diffrn_radiation_monochromator  silicon(111)
_diffrn_radiation_source         'Advanced Light Source Beamline 12.2.2'
_diffrn_radiation_type           synchrotron
_diffrn_radiation_wavelength     0.49594
_diffrn_reflns_av_R_equivalents  0.0663
_diffrn_reflns_av_unetI/netI     0.1018
_diffrn_reflns_Laue_measured_fraction_full 0.464
_diffrn_reflns_Laue_measured_fraction_max 0.457
_diffrn_reflns_limit_h_max       5
_diffrn_reflns_limit_h_min       -5
_diffrn_reflns_limit_k_max       15
_diffrn_reflns_limit_k_min       -15
_diffrn_reflns_limit_l_max       4
_diffrn_reflns_limit_l_min       -4
_diffrn_reflns_number            1196
_diffrn_reflns_point_group_measured_fraction_full 0.478
_diffrn_reflns_point_group_measured_fraction_max 0.465
_diffrn_reflns_theta_full        17.311
_diffrn_reflns_theta_max         18.134
_diffrn_reflns_theta_min         3.176
_exptl_absorpt_coefficient_mu    0.084
_exptl_absorpt_correction_T_max  0.7442
_exptl_absorpt_correction_T_min  0.2833
_exptl_absorpt_correction_type   multi-scan
_exptl_absorpt_process_details   'SADABS-2014/5 (Sheldrick, 2015)'
_exptl_crystal_colour            colourless
_exptl_crystal_density_diffrn    2.020
_exptl_crystal_description       blade
_exptl_crystal_F_000             256
_exptl_crystal_size_max          0.060
_exptl_crystal_size_mid          0.050
_exptl_crystal_size_min          0.040
_refine_diff_density_max         0.275
_refine_diff_density_min         -0.306
_refine_diff_density_rms         0.079
_refine_ls_abs_structure_details
;
 Flack x determined using 66 quotients [(I+)-(I-)]/[(I+)+(I-)]
 (Parsons, Flack and Wagner, Acta Cryst. B69 (2013) 249-259).
;
_refine_ls_extinction_coef       0.11(16)
_refine_ls_extinction_expression Fc^*^=kFc[1+0.001xFc^2^\l^3^/sin(2\q)]^-1/4^
_refine_ls_extinction_method     'SHELXL-2014/7 (Sheldrick 2014'
_refine_ls_goodness_of_fit_ref   0.948
_refine_ls_hydrogen_treatment    constr
_refine_ls_matrix_type           full
_refine_ls_number_parameters     34
_refine_ls_number_reflns         370
_refine_ls_number_restraints     17
_refine_ls_restrained_S_all      0.950
_refine_ls_R_factor_all          0.0862
_refine_ls_R_factor_gt           0.0653
_refine_ls_shift/su_max          0.000
_refine_ls_shift/su_mean         0.000
_refine_ls_structure_factor_coef Fsqd
_refine_ls_weighting_details
'w=1/[\s^2^(Fo^2^)+(0.0984P)^2^] where P=(Fo^2^+2Fc^2^)/3'
_refine_ls_weighting_scheme      calc
_refine_ls_wR_factor_gt          0.1512
_refine_ls_wR_factor_ref         0.1613
_reflns_Friedel_coverage         0.637
_reflns_Friedel_fraction_full    0.500
_reflns_Friedel_fraction_max     0.480
_reflns_number_gt                246
_reflns_number_total             370
_reflns_threshold_expression     'I > 2\s(I)'
_cod_data_source_file            c9ce00388f5.cif
_cod_data_source_block           15_20GPa
_cod_depositor_comments
'Adding full bibliography for 7232730--7232750.cif.'
_cod_database_code               7232744
_shelx_shelxl_version_number     2014/7
_shelx_space_group_comment
;
The symmetry employed for this shelxl refinement is uniquely defined
by the following loop, which should always be used as a source of
symmetry information in preference to the above space-group names.
They are only intended as comments.
;
_shelx_estimated_absorpt_t_min   0.995
_shelx_estimated_absorpt_t_max   0.997
_shelx_res_file
;

    THRE09.res created by SHELXL-2014/7


TITL THRE09 in P2(1)2(1)2(1)
CELL 0.49594   4.77130  12.90330   6.36120  90.0000  90.0000  90.0000
ZERR    4.00   0.00260   0.00640   0.00440   0.0000   0.0000   0.0000
LATT -1
SYMM 1/2-X, -Y, 1/2+Z
SYMM -X, 1/2+Y, 1/2-Z
SYMM 1/2+X, 1/2-Y, -Z
SFAC C H N O
DISP $C  0.00086  0.00074  6.27610!source kissel
DISP $H -0.00003  0.00000  0.65340!source kissel
DISP $N  0.00207  0.00152  9.39816!source kissel
DISP $O  0.00413  0.00279 14.09704!source kissel
UNIT 16 36 4 12
OMIT 3 0 2
DFIX 1.241 C1 O1
DFIX 1.249 C1 O2
DFIX 1.536 C1 C2
DFIX 1.489 C2 N1
DFIX 1.53 C2 C3
DFIX 1.424 C3 O3
DFIX 1.513 C3 C4
DFIX 2.229 0.04 O1 O2
DFIX 2.368 0.04 O1 C2
DFIX 2.37 0.04 O2 C2
DFIX 2.477 0.04 C1 N1
DFIX 2.553 0.04 C1 C3
DFIX 2.453 0.04 N1 C3
DFIX 2.332 0.04 C2 O3
DFIX 2.543 0.04 C2 C4
DFIX 2.332 0.04 O3 C2
DFIX 2.421 0.04 O3 C4
RIGU
L.S. 10
PLAN 5
SIZE 0.04 0.05 0.06 !colourless blade
TEMP 25
BOND $H
LIST 6
fmap 2
ACTA
WGHT    0.098400
EXTI    0.111385
FVAR       0.69192
C1    1    0.338845    0.509003    0.629704    11.00000    0.02387
O1    4    0.528145    0.571780    0.640581    11.00000    0.02528
O2    4    0.086476    0.526473    0.661348    11.00000    0.03044
C2    1    0.424243    0.399944    0.572462    11.00000    0.02086
AFIX  13
H4    2    0.293981    0.373101    0.466522    11.00000   -1.20000
AFIX   0
N1    3    0.705265    0.404007    0.482016    11.00000    0.02336
AFIX  33
H2    2    0.759725    0.340324    0.447094    11.00000   -1.50000
H3    2    0.703465    0.443908    0.367898    11.00000   -1.50000
H1    2    0.823912    0.430268    0.575919    11.00000   -1.50000
AFIX   0
C3    1    0.422302    0.328297    0.760539    11.00000    0.02714
AFIX  13
H5    2    0.511411    0.361284    0.882152    11.00000   -1.20000
AFIX   0
O3    4    0.581813    0.242141    0.690178    11.00000    0.02572
AFIX  83
H6    2    0.560467    0.193520    0.771626    11.00000   -1.50000
AFIX   0
C4    1    0.134534    0.291655    0.814184    11.00000    0.03244
AFIX  33
H8    2    0.023998    0.349158    0.862102    11.00000   -1.50000
H9    2    0.048860    0.261846    0.691751    11.00000   -1.50000
H7    2    0.145549    0.240380    0.923222    11.00000   -1.50000
AFIX   0
HKLF 4

REM  THRE09 in P2(1)2(1)2(1)
REM R1 =  0.0653 for     246 Fo > 4sig(Fo)  and  0.0862 for all     370 data
REM     34 parameters refined using     17 restraints

END

WGHT      0.0986      0.0000

REM Highest difference peak  0.275,  deepest hole -0.306,  1-sigma level  0.079
Q1    1   0.0443  0.4860  0.4393  11.00000  0.05    0.27
Q2    1   0.5466  0.3800  0.8553  11.00000  0.05    0.24
Q3    1   0.1888  0.5307  0.6589  11.00000  0.05    0.23
Q4    1  -0.0330  0.4769  0.6470  11.00000  0.05    0.23
Q5    1   0.0718  0.5121  0.7853  11.00000  0.05    0.22
;
_shelx_res_checksum              35181
loop_
_space_group_symop_operation_xyz
'x, y, z'
'-x+1/2, -y, z+1/2'
'-x, y+1/2, -z+1/2'
'x+1/2, -y+1/2, -z'
loop_
_atom_site_label
_atom_site_type_symbol
_atom_site_fract_x
_atom_site_fract_y
_atom_site_fract_z
_atom_site_U_iso_or_equiv
_atom_site_adp_type
_atom_site_occupancy
_atom_site_site_symmetry_order
_atom_site_calc_flag
_atom_site_refinement_flags_posn
_atom_site_refinement_flags_adp
C1 C 0.3388(13) 0.5090(7) 0.630(3) 0.024(2) Uiso 1 1 d D .
O1 O 0.5281(10) 0.5718(5) 0.641(2) 0.0253(19) Uiso 1 1 d D .
O2 O 0.0865(10) 0.5265(5) 0.661(2) 0.0304(19) Uiso 1 1 d D .
C2 C 0.4242(14) 0.3999(6) 0.572(2) 0.021(2) Uiso 1 1 d D .
H4 H 0.2940 0.3731 0.4665 0.025 Uiso 1 1 calc R U
N1 N 0.7053(11) 0.4040(5) 0.482(2) 0.023(2) Uiso 1 1 d D .
H2 H 0.7597 0.3403 0.4471 0.035 Uiso 1 1 calc R U
H3 H 0.7035 0.4439 0.3679 0.035 Uiso 1 1 calc R U
H1 H 0.8239 0.4303 0.5759 0.035 Uiso 1 1 calc R U
C3 C 0.4223(14) 0.3283(7) 0.761(2) 0.027(2) Uiso 1 1 d D .
H5 H 0.5114 0.3613 0.8822 0.033 Uiso 1 1 calc R U
O3 O 0.5818(9) 0.2421(4) 0.690(2) 0.0257(19) Uiso 1 1 d D .
H6 H 0.5605 0.1935 0.7716 0.039 Uiso 1 1 calc R U
C4 C 0.1345(14) 0.2917(8) 0.814(3) 0.032(3) Uiso 1 1 d D .
H8 H 0.0240 0.3492 0.8621 0.049 Uiso 1 1 calc R U
H9 H 0.0489 0.2618 0.6918 0.049 Uiso 1 1 calc R U
H7 H 0.1455 0.2404 0.9232 0.049 Uiso 1 1 calc R U
loop_
_atom_type_symbol
_atom_type_description
_atom_type_scat_dispersion_real
_atom_type_scat_dispersion_imag
_atom_type_scat_source
C C 0.0009 0.0007 'International Tables Vol C Tables 4.2.6.8 and 6.1.1.4'
H H 0.0000 0.0000 'International Tables Vol C Tables 4.2.6.8 and 6.1.1.4'
N N 0.0021 0.0015 'International Tables Vol C Tables 4.2.6.8 and 6.1.1.4'
O O 0.0041 0.0028 'International Tables Vol C Tables 4.2.6.8 and 6.1.1.4'
loop_
_geom_angle_atom_site_label_1
_geom_angle_atom_site_label_2
_geom_angle_atom_site_label_3
_geom_angle
O1 C1 O2 126.2(9)
O1 C1 C2 115.8(7)
O2 C1 C2 118.0(6)
N1 C2 C1 108.0(6)
N1 C2 C3 109.8(7)
C1 C2 C3 112.2(12)
N1 C2 H4 108.9
C1 C2 H4 108.9
C3 C2 H4 108.9
C2 N1 H2 109.5
C2 N1 H3 109.5
H2 N1 H3 109.5
C2 N1 H1 109.5
H2 N1 H1 109.5
H3 N1 H1 109.5
O3 C3 C4 108.5(8)
O3 C3 C2 103.1(10)
C4 C3 C2 112.4(9)
O3 C3 H5 110.9
C4 C3 H5 110.9
C2 C3 H5 110.9
C3 O3 H6 109.5
C3 C4 H8 109.5
C3 C4 H9 109.5
H8 C4 H9 109.5
C3 C4 H7 109.5
H8 C4 H7 109.5
H9 C4 H7 109.5
loop_
_geom_bond_atom_site_label_1
_geom_bond_atom_site_label_2
_geom_bond_distance
C1 O1 1.215(9)
C1 O2 1.241(8)
C1 C2 1.510(12)
C2 N1 1.460(10)
C2 C3 1.512(16)
C2 H4 0.9800
N1 H2 0.8900
N1 H3 0.8900
N1 H1 0.8900
C3 O3 1.420(11)
C3 C4 1.492(11)
C3 H5 0.9800
O3 H6 0.8200
C4 H8 0.9600
C4 H9 0.9600
C4 H7 0.9600
