#------------------------------------------------------------------------------
#$Date: 2019-11-07 21:34:52 +0200 (Thu, 07 Nov 2019) $
#$Revision: 223549 $
#$URL: file:///home/coder/svn-repositories/cod/cif/7/23/20/7232017.cif $
#------------------------------------------------------------------------------
#
# This file is available in the Crystallography Open Database (COD),
# http://www.crystallography.net/
#
# All data on this site have been placed in the public domain by the
# contributors.
#
data_7232017
loop_
_publ_author_name
'Adonin, Sergey A.'
'Bondarenko, Mikhail A.'
'Novikov, Alexander S.'
'Abramov, Pavel A.'
'Plyusnin, Pavel E.'
'Sokolov, Maxim N.'
'Fedin, Vladimir P.'
_publ_section_title
;
 Halogen bonding-assisted assembly of bromoantimonate(v) and
 polybromide-bromoantimonate-based frameworks
;
_journal_issue                   5
_journal_name_full               CrystEngComm
_journal_page_first              850
_journal_paper_doi               10.1039/C8CE01944D
_journal_volume                  21
_journal_year                    2019
_chemical_formula_sum            'C26 H28 Br9 N2 Sb'
_chemical_formula_weight         1209.44
_space_group_crystal_system      triclinic
_space_group_IT_number           2
_space_group_name_Hall           '-P 1'
_space_group_name_H-M_alt        'P -1'
_symmetry_space_group_name_Hall  '-P 1'
_symmetry_space_group_name_H-M   'P -1'
_atom_sites_solution_hydrogens   geom
_atom_sites_solution_primary     direct
_atom_sites_solution_secondary   difmap
_audit_creation_method           SHELXL-2017/1
_audit_update_record
;
2018-10-27 deposited with the CCDC.
2018-12-17 downloaded from the CCDC.
;
_cell_angle_alpha                94.223(4)
_cell_angle_beta                 102.737(4)
_cell_angle_gamma                111.846(4)
_cell_formula_units_Z            1
_cell_length_a                   8.9834(4)
_cell_length_b                   10.2599(5)
_cell_length_c                   10.3601(5)
_cell_measurement_reflns_used    2711
_cell_measurement_temperature    130(2)
_cell_measurement_theta_max      28.6360
_cell_measurement_theta_min      3.9320
_cell_volume                     851.62(8)
_computing_cell_refinement       'CrysAlisPro 1.171.38.41 (Rigaku OD, 2015)'
_computing_data_collection       'CrysAlisPro 1.171.38.41 (Rigaku OD, 2015)'
_computing_data_reduction        'CrysAlisPro 1.171.38.41 (Rigaku OD, 2015)'
_computing_molecular_graphics    'ShelXle (H\"ubschle, 2011)'
_computing_publication_material  'CIFTAB-2014 (Sheldrick, 2014)'
_computing_structure_refinement  'SHELXL-2014 (Sheldrick, 2014)'
_computing_structure_solution    'SHELXS-2014 (Sheldrick, 2014)'
_diffrn_ambient_temperature      130(2)
_diffrn_detector                 'CCD plate'
_diffrn_detector_area_resol_mean 10.6168
_diffrn_detector_type            AtlasS2
_diffrn_measured_fraction_theta_full 0.992
_diffrn_measured_fraction_theta_max 0.818
_diffrn_measurement_device       'four-circle diffractometer'
_diffrn_measurement_device_type  'New Xcalibur, AtlasS2'
_diffrn_measurement_method       '\w scans'
_diffrn_radiation_monochromator  graphite
_diffrn_radiation_probe          x-ray
_diffrn_radiation_source         'fine-focus sealed tube'
_diffrn_radiation_type           MoK\a
_diffrn_radiation_wavelength     0.71073
_diffrn_reflns_av_R_equivalents  0.0269
_diffrn_reflns_av_unetI/netI     0.0553
_diffrn_reflns_Laue_measured_fraction_full 0.992
_diffrn_reflns_Laue_measured_fraction_max 0.818
_diffrn_reflns_limit_h_max       10
_diffrn_reflns_limit_h_min       -10
_diffrn_reflns_limit_k_max       12
_diffrn_reflns_limit_k_min       -9
_diffrn_reflns_limit_l_max       12
_diffrn_reflns_limit_l_min       -10
_diffrn_reflns_number            6184
_diffrn_reflns_point_group_measured_fraction_full 0.992
_diffrn_reflns_point_group_measured_fraction_max 0.818
_diffrn_reflns_theta_full        25.500
_diffrn_reflns_theta_max         28.847
_diffrn_reflns_theta_min         3.491
_diffrn_source                   'sealed X-ray tube'
_exptl_absorpt_coefficient_mu    11.387
_exptl_absorpt_correction_T_max  1.00000
_exptl_absorpt_correction_T_min  0.55206
_exptl_absorpt_correction_type   multi-scan
_exptl_absorpt_process_details
;
CrysAlisPro 1.171.38.41 (Rigaku Oxford Diffraction, 2015)
Empirical absorption correction using spherical harmonics,
implemented in SCALE3 ABSPACK scaling algorithm.
;
_exptl_crystal_colour            orange
_exptl_crystal_density_diffrn    2.358
_exptl_crystal_description       block
_exptl_crystal_F_000             564
_exptl_crystal_size_max          0.200
_exptl_crystal_size_mid          0.150
_exptl_crystal_size_min          0.100
_refine_diff_density_max         0.658
_refine_diff_density_min         -0.726
_refine_diff_density_rms         0.145
_refine_ls_extinction_method     none
_refine_ls_goodness_of_fit_ref   1.021
_refine_ls_hydrogen_treatment    constr
_refine_ls_matrix_type           full
_refine_ls_number_parameters     175
_refine_ls_number_reflns         3645
_refine_ls_number_restraints     0
_refine_ls_restrained_S_all      1.021
_refine_ls_R_factor_all          0.0469
_refine_ls_R_factor_gt           0.0329
_refine_ls_shift/su_max          0.001
_refine_ls_shift/su_mean         0.000
_refine_ls_structure_factor_coef Fsqd
_refine_ls_weighting_details
'w=1/[\s^2^(Fo^2^)+(0.0139P)^2^] where P=(Fo^2^+2Fc^2^)/3'
_refine_ls_weighting_scheme      calc
_refine_ls_wR_factor_gt          0.0539
_refine_ls_wR_factor_ref         0.0590
_reflns_Friedel_coverage         0.000
_reflns_number_gt                2988
_reflns_number_total             3645
_reflns_threshold_expression     >2\s(I)
_cod_data_source_file            c8ce01944d2.cif
_cod_data_source_block           7_a
_cod_depositor_comments
'Adding full bibliography for 7232009--7232019.cif.'
_cod_original_cell_volume        851.62(7)
_cod_database_code               7232017
_shelx_shelxl_version_number     2017/1
_shelx_space_group_comment
;
The symmetry employed for this shelxl refinement is uniquely defined
by the following loop, which should always be used as a source of
symmetry information in preference to the above space-group names.
They are only intended as comments.
;
_shelx_estimated_absorpt_t_min   0.209
_shelx_estimated_absorpt_t_max   0.396
_shelx_res_file
;
TITL 1_a.res in P-1
    1_a.res
    created by SHELXL-2017/1 at 18:53:40 on 04-Sep-2018
REM Old TITL BM90 in P-1
REM SHELXT solution in P-1
REM R1 0.081,  Rweak 0.006,  Alpha 0.030,  Orientation as input
REM Formula found by SHELXT:  C26 N2 Br9 Sb
CELL  0.71073   8.9834  10.2599  10.3601   94.223  102.737  111.846
ZERR   1.000   0.0004   0.0005   0.0005    0.004    0.004    0.004
LATT  1
SFAC C N BR SB H
UNIT 26 2 9 1 28
TEMP -143
L.S. 10
BOND $H
LIST 4
ACTA 51
FMAP 2
PLAN 20
OMIT 8 -7 5
OMIT -4 -3 6
OMIT 1 -1 9
OMIT -4 -5 9
OMIT -3 9 3
OMIT 8 -9 6
OMIT -4 8 2
OMIT -8 -2 9
OMIT -6 -2 10
OMIT 3 -12 5
OMIT -1 -1 11
OMIT -5 0 12
OMIT -7 -2 5
OMIT 10 -4 3
OMIT -8 -4 7
OMIT -9 4 8
OMIT 6 -11 7
OMIT 0 -7 10
OMIT 5 2 7
OMIT -1 -1 10
OMIT -8 7 5
OMIT 4 8 1
SIZE 0.20 0.15 0.10
WGHT    0.013900
FVAR       0.40941
C1    1    0.863155    0.937515    0.223080    11.00000    0.01992    0.02228 =
         0.02736    0.00455    0.00648    0.00403
AFIX 133
H1A   5    0.905579    0.863777    0.209372    11.00000   -1.50000
H1B   5    0.956756    1.029091    0.262410    11.00000   -1.50000
H1C   5    0.798907    0.945446    0.136582    11.00000   -1.50000
AFIX   0
C2    1    0.754297    0.898436    0.315404    11.00000    0.01486    0.01817 =
         0.02400    0.00678    0.00535    0.00981
C3    1    0.788934    0.983506    0.437005    11.00000    0.01909    0.02433 =
         0.02240   -0.00102   -0.00194    0.00630
AFIX  43
H3    5    0.885761    1.069883    0.463400    11.00000   -1.20000
AFIX   0
C4    1    0.685601    0.945454    0.520904    11.00000    0.03177    0.02715 =
         0.01332   -0.00437    0.00182    0.01085
AFIX  43
H4    5    0.711798    1.004594    0.604652    11.00000   -1.20000
AFIX   0
C5    1    0.545996    0.822609    0.482677    11.00000    0.03662    0.02801 =
         0.02009    0.00322    0.01279    0.01639
AFIX  43
H5    5    0.473497    0.794869    0.539177    11.00000   -1.20000
AFIX   0
C6    1    0.511394    0.739003    0.360634    11.00000    0.01941    0.02607 =
         0.02299    0.00340    0.00637    0.00660
AFIX  43
H6    5    0.413433    0.653584    0.332871    11.00000   -1.20000
AFIX   0
C7    1    0.569968    0.681767    0.147660    11.00000    0.02462    0.02563 =
         0.02188   -0.00234    0.00980    0.00864
AFIX  23
H7A   5    0.540976    0.732322    0.074673    11.00000   -1.20000
H7B   5    0.669673    0.665959    0.138636    11.00000   -1.20000
AFIX   0
C8    1    0.428800    0.539961    0.129671    11.00000    0.02347    0.02058 =
         0.01340   -0.00211    0.00598    0.00796
C9    1    0.268319    0.519076    0.061190    11.00000    0.02248    0.02502 =
         0.02057    0.00099    0.00511    0.01128
AFIX  43
H9    5    0.247187    0.594921    0.025147    11.00000   -1.20000
AFIX   0
C10   1    0.138823    0.387217    0.045477    11.00000    0.02232    0.04286 =
         0.02240   -0.00328    0.00409    0.01036
AFIX  43
H10   5    0.028531    0.372930   -0.000290    11.00000   -1.20000
AFIX   0
C11   1    0.170407    0.276796    0.096419    11.00000    0.03731    0.03121 =
         0.01946   -0.00574    0.01212   -0.00347
AFIX  43
H11   5    0.081258    0.186583    0.085003    11.00000   -1.20000
AFIX   0
C12   1    0.329662    0.295482    0.163738    11.00000    0.05258    0.02386 =
         0.02039    0.00294    0.01164    0.01469
AFIX  43
H12   5    0.350742    0.218960    0.198282    11.00000   -1.20000
AFIX   0
C13   1    0.458022    0.427709    0.179978    11.00000    0.03194    0.03022 =
         0.01525   -0.00362   -0.00290    0.01644
AFIX  43
H13   5    0.568006    0.441756    0.226389    11.00000   -1.20000
AFIX   0
N1    2    0.612931    0.775743    0.280614    11.00000    0.01604    0.01726 =
         0.01711   -0.00119    0.00479    0.00474
BR1   3    0.769266    0.580063    0.526297    11.00000    0.02616    0.03177 =
         0.02374    0.00340    0.00686    0.01803
BR2   3    0.796738    0.299152    0.307784    11.00000    0.02697    0.02169 =
         0.01869   -0.00069    0.00057    0.00957
BR3   3    0.933115    0.335470    0.671525    11.00000    0.03297    0.02322 =
         0.01863    0.00816    0.00808    0.01091
BR4   3    0.715995    0.097106    0.871011    11.00000    0.03386    0.02581 =
         0.03137    0.00464    0.01655    0.00835
BR5   3    0.500000    0.000000    1.000000    10.50000    0.02261    0.01970 =
         0.01746    0.00271    0.00351    0.00836
SB1   4    1.000000    0.500000    0.500000    10.50000    0.01934    0.01726 =
         0.01371    0.00350    0.00391    0.00909
HKLF 4




REM  1_a.res in P-1
REM R1 =  0.0329 for    2988 Fo > 4sig(Fo)  and  0.0469 for all    3645 data
REM    175 parameters refined using      0 restraints

END

WGHT      0.0139      0.0000

REM Highest difference peak  0.658,  deepest hole -0.726,  1-sigma level  0.145
Q1    1   0.7453  0.2047  0.9735  11.00000  0.05    0.66
Q2    1   1.0026  0.5606  0.4211  11.00000  0.05    0.63
Q3    1   0.8138  0.2107  0.3445  11.00000  0.05    0.62
Q4    1   0.7606  0.3790  0.2761  11.00000  0.05    0.61
Q5    1   0.5932  0.0413  0.7983  11.00000  0.05    0.61
Q6    1   0.8462  0.5421  0.5732  11.00000  0.05    0.58
Q7    1   0.7407  0.6792  0.5018  11.00000  0.05    0.58
Q8    1   1.0392  0.4208  0.5282  11.00000  0.05    0.56
Q9    1   0.1525  0.3380  0.1340  11.00000  0.05    0.56
Q10   1   0.3657  0.7639  0.4786  11.00000  0.05    0.55
Q11   1   0.3192  0.2481  0.0616  11.00000  0.05    0.55
Q12   1   0.9163  0.4046  0.6241  11.00000  0.05    0.55
Q13   1   0.8492  0.6166  0.1961  11.00000  0.05    0.54
Q14   1   0.9729  0.4060  0.7461  11.00000  0.05    0.52
Q15   1   0.7662  0.0203  0.8756  11.00000  0.05    0.52
Q16   1   0.7896  0.6581  0.4814  11.00000  0.05    0.50
Q17   1   0.3434  0.6257  0.4986  11.00000  0.05    0.49
Q18   1   0.0352  0.3862 -0.0742  11.00000  0.05    0.49
Q19   1   0.1482  0.3146  0.2459  11.00000  0.05    0.49
Q20   1   0.8770  1.1343  0.4004  11.00000  0.05    0.48
;
_shelx_res_checksum              8954
loop_
_space_group_symop_operation_xyz
'x, y, z'
'-x, -y, -z'
loop_
_atom_site_label
_atom_site_type_symbol
_atom_site_fract_x
_atom_site_fract_y
_atom_site_fract_z
_atom_site_U_iso_or_equiv
_atom_site_adp_type
_atom_site_occupancy
_atom_site_site_symmetry_order
_atom_site_calc_flag
_atom_site_refinement_flags_posn
_atom_site_refinement_flags_adp
_atom_site_refinement_flags_occupancy
C1 C 0.8632(6) 0.9375(5) 0.2231(4) 0.0245(11) Uani 1 1 d . . .
H1A H 0.905579 0.863777 0.209372 0.037 Uiso 1 1 calc R U .
H1B H 0.956756 1.029091 0.262410 0.037 Uiso 1 1 calc R U .
H1C H 0.798907 0.945446 0.136582 0.037 Uiso 1 1 calc R U .
C2 C 0.7543(6) 0.8984(5) 0.3154(4) 0.0178(10) Uani 1 1 d . . .
C3 C 0.7889(6) 0.9835(5) 0.4370(4) 0.0242(11) Uani 1 1 d . . .
H3 H 0.885761 1.069883 0.463400 0.029 Uiso 1 1 calc R U .
C4 C 0.6856(6) 0.9455(5) 0.5209(4) 0.0255(12) Uani 1 1 d . . .
H4 H 0.711798 1.004594 0.604652 0.031 Uiso 1 1 calc R U .
C5 C 0.5460(6) 0.8226(5) 0.4827(4) 0.0263(12) Uani 1 1 d . . .
H5 H 0.473497 0.794869 0.539177 0.032 Uiso 1 1 calc R U .
C6 C 0.5114(6) 0.7390(5) 0.3606(4) 0.0235(11) Uani 1 1 d . . .
H6 H 0.413433 0.653584 0.332871 0.028 Uiso 1 1 calc R U .
C7 C 0.5700(6) 0.6818(5) 0.1477(4) 0.0242(11) Uani 1 1 d . . .
H7A H 0.540976 0.732322 0.074673 0.029 Uiso 1 1 calc R U .
H7B H 0.669673 0.665959 0.138636 0.029 Uiso 1 1 calc R U .
C8 C 0.4288(6) 0.5400(5) 0.1297(4) 0.0195(10) Uani 1 1 d . . .
C9 C 0.2683(6) 0.5191(5) 0.0612(4) 0.0224(11) Uani 1 1 d . . .
H9 H 0.247187 0.594921 0.025147 0.027 Uiso 1 1 calc R U .
C10 C 0.1388(6) 0.3872(5) 0.0455(4) 0.0308(12) Uani 1 1 d . . .
H10 H 0.028531 0.372930 -0.000290 0.037 Uiso 1 1 calc R U .
C11 C 0.1704(7) 0.2768(5) 0.0964(4) 0.0343(13) Uani 1 1 d . . .
H11 H 0.081258 0.186583 0.085003 0.041 Uiso 1 1 calc R U .
C12 C 0.3297(7) 0.2955(5) 0.1637(4) 0.0322(13) Uani 1 1 d . . .
H12 H 0.350742 0.218960 0.198282 0.039 Uiso 1 1 calc R U .
C13 C 0.4580(6) 0.4277(5) 0.1800(4) 0.0266(12) Uani 1 1 d . . .
H13 H 0.568006 0.441756 0.226389 0.032 Uiso 1 1 calc R U .
N1 N 0.6129(4) 0.7757(4) 0.2806(3) 0.0176(8) Uani 1 1 d . . .
Br1 Br 0.76927(6) 0.58006(5) 0.52630(4) 0.02531(12) Uani 1 1 d . . .
Br2 Br 0.79674(6) 0.29915(5) 0.30778(4) 0.02367(12) Uani 1 1 d . . .
Br3 Br 0.93311(6) 0.33547(5) 0.67153(4) 0.02458(12) Uani 1 1 d . . .
Br4 Br 0.71600(7) 0.09711(5) 0.87101(4) 0.03011(13) Uani 1 1 d . . .
Br5 Br 0.500000 0.000000 1.000000 0.02029(15) Uani 1 2 d S . P
Sb1 Sb 1.000000 0.500000 0.500000 0.01627(11) Uani 1 2 d S . P
loop_
_atom_site_aniso_label
_atom_site_aniso_U_11
_atom_site_aniso_U_22
_atom_site_aniso_U_33
_atom_site_aniso_U_23
_atom_site_aniso_U_13
_atom_site_aniso_U_12
C1 0.020(3) 0.022(3) 0.027(3) 0.0046(19) 0.006(2) 0.004(2)
C2 0.015(3) 0.018(2) 0.024(2) 0.0068(18) 0.0054(19) 0.010(2)
C3 0.019(3) 0.024(3) 0.022(2) -0.0010(19) -0.002(2) 0.006(2)
C4 0.032(3) 0.027(3) 0.013(2) -0.0044(18) 0.002(2) 0.011(2)
C5 0.037(3) 0.028(3) 0.020(2) 0.0032(19) 0.013(2) 0.016(3)
C6 0.019(3) 0.026(3) 0.023(2) 0.0034(19) 0.006(2) 0.007(2)
C7 0.025(3) 0.026(3) 0.022(2) -0.0023(18) 0.010(2) 0.009(2)
C8 0.023(3) 0.021(3) 0.013(2) -0.0021(17) 0.0060(18) 0.008(2)
C9 0.022(3) 0.025(3) 0.021(2) 0.0010(18) 0.005(2) 0.011(2)
C10 0.022(3) 0.043(3) 0.022(3) -0.003(2) 0.004(2) 0.010(3)
C11 0.037(4) 0.031(3) 0.019(3) -0.006(2) 0.012(2) -0.003(3)
C12 0.053(4) 0.024(3) 0.020(3) 0.0029(19) 0.012(2) 0.015(3)
C13 0.032(3) 0.030(3) 0.015(2) -0.0036(19) -0.003(2) 0.016(3)
N1 0.016(2) 0.017(2) 0.0171(18) -0.0012(14) 0.0048(15) 0.0047(18)
Br1 0.0262(3) 0.0318(3) 0.0237(2) 0.00340(19) 0.0069(2) 0.0180(2)
Br2 0.0270(3) 0.0217(3) 0.0187(2) -0.00069(17) 0.00057(19) 0.0096(2)
Br3 0.0330(3) 0.0232(3) 0.0186(2) 0.00816(17) 0.0081(2) 0.0109(2)
Br4 0.0339(3) 0.0258(3) 0.0314(3) 0.00464(19) 0.0166(2) 0.0083(2)
Br5 0.0226(4) 0.0197(3) 0.0175(3) 0.0027(2) 0.0035(3) 0.0084(3)
Sb1 0.0193(3) 0.0173(2) 0.0137(2) 0.00350(15) 0.00391(16) 0.00909(19)
loop_
_atom_type_symbol
_atom_type_description
_atom_type_scat_dispersion_real
_atom_type_scat_dispersion_imag
_atom_type_scat_source
C C 0.0033 0.0016 'International Tables Vol C Tables 4.2.6.8 and 6.1.1.4'
N N 0.0061 0.0033 'International Tables Vol C Tables 4.2.6.8 and 6.1.1.4'
Br Br -0.2901 2.4595 'International Tables Vol C Tables 4.2.6.8 and 6.1.1.4'
Sb Sb -0.5866 1.5461 'International Tables Vol C Tables 4.2.6.8 and 6.1.1.4'
H H 0.0000 0.0000 'International Tables Vol C Tables 4.2.6.8 and 6.1.1.4'
loop_
_geom_angle_atom_site_label_1
_geom_angle_atom_site_label_2
_geom_angle_atom_site_label_3
_geom_angle
_geom_angle_site_symmetry_1
_geom_angle_site_symmetry_3
C2 C1 H1A 109.5 . .
C2 C1 H1B 109.5 . .
H1A C1 H1B 109.5 . .
C2 C1 H1C 109.5 . .
H1A C1 H1C 109.5 . .
H1B C1 H1C 109.5 . .
N1 C2 C3 117.5(4) . .
N1 C2 C1 120.2(4) . .
C3 C2 C1 122.3(4) . .
C4 C3 C2 121.3(4) . .
C4 C3 H3 119.4 . .
C2 C3 H3 119.4 . .
C5 C4 C3 119.5(4) . .
C5 C4 H4 120.3 . .
C3 C4 H4 120.3 . .
C4 C5 C6 118.9(5) . .
C4 C5 H5 120.5 . .
C6 C5 H5 120.5 . .
N1 C6 C5 121.3(4) . .
N1 C6 H6 119.4 . .
C5 C6 H6 119.4 . .
C8 C7 N1 114.2(3) . .
C8 C7 H7A 108.7 . .
N1 C7 H7A 108.7 . .
C8 C7 H7B 108.7 . .
N1 C7 H7B 108.7 . .
H7A C7 H7B 107.6 . .
C13 C8 C9 119.4(4) . .
C13 C8 C7 120.1(4) . .
C9 C8 C7 120.5(4) . .
C10 C9 C8 119.8(4) . .
C10 C9 H9 120.1 . .
C8 C9 H9 120.1 . .
C11 C10 C9 119.9(5) . .
C11 C10 H10 120.1 . .
C9 C10 H10 120.1 . .
C10 C11 C12 121.0(5) . .
C10 C11 H11 119.5 . .
C12 C11 H11 119.5 . .
C11 C12 C13 118.8(5) . .
C11 C12 H12 120.6 . .
C13 C12 H12 120.6 . .
C12 C13 C8 121.1(5) . .
C12 C13 H13 119.5 . .
C8 C13 H13 119.5 . .
C6 N1 C2 121.5(4) . .
C6 N1 C7 119.6(4) . .
C2 N1 C7 118.9(4) . .
Br4 Br5 Br4 180.0 . 2_657
Br3 Sb1 Br3 179.999(11) 2_766 .
Br3 Sb1 Br1 89.993(16) 2_766 .
Br3 Sb1 Br1 90.008(16) . .
Br3 Sb1 Br1 90.007(16) 2_766 2_766
Br3 Sb1 Br1 89.993(16) . 2_766
Br1 Sb1 Br1 180.0 . 2_766
Br3 Sb1 Br2 89.149(15) 2_766 .
Br3 Sb1 Br2 90.851(15) . .
Br1 Sb1 Br2 91.055(15) . .
Br1 Sb1 Br2 88.945(15) 2_766 .
Br3 Sb1 Br2 90.850(15) 2_766 2_766
Br3 Sb1 Br2 89.150(15) . 2_766
Br1 Sb1 Br2 88.945(15) . 2_766
Br1 Sb1 Br2 91.055(16) 2_766 2_766
Br2 Sb1 Br2 180.00(2) . 2_766
loop_
_geom_bond_atom_site_label_1
_geom_bond_atom_site_label_2
_geom_bond_distance
C1 C2 1.486(6)
C1 H1A 0.9800
C1 H1B 0.9800
C1 H1C 0.9800
C2 N1 1.367(5)
C2 C3 1.382(6)
C3 C4 1.380(7)
C3 H3 0.9500
C4 C5 1.360(6)
C4 H4 0.9500
C5 C6 1.378(5)
C5 H5 0.9500
C6 N1 1.336(6)
C6 H6 0.9500
C7 C8 1.497(6)
C7 N1 1.506(5)
C7 H7A 0.9900
C7 H7B 0.9900
C8 C13 1.386(6)
C8 C9 1.387(6)
C9 C10 1.387(6)
C9 H9 0.9500
C10 C11 1.380(7)
C10 H10 0.9500
C11 C12 1.381(7)
C11 H11 0.9500
C12 C13 1.384(6)
C12 H12 0.9500
C13 H13 0.9500
Br1 Sb1 2.5551(5)
Br2 Sb1 2.5570(4)
Br3 Sb1 2.5546(4)
Br4 Br5 2.5385(5)
