#------------------------------------------------------------------------------
#$Date: 2019-11-07 22:03:39 +0200 (Thu, 07 Nov 2019) $
#$Revision: 223692 $
#$URL: file:///home/coder/svn-repositories/cod/cif/7/23/25/7232580.cif $
#------------------------------------------------------------------------------
#
# This file is available in the Crystallography Open Database (COD),
# http://www.crystallography.net/
#
# All data on this site have been placed in the public domain by the
# contributors.
#
data_7232580
loop_
_publ_author_name
'Nemec, Vinko'
'Fotovi\'c, Luka'
'Vitasovi\'c, Toni'
'Cin\<ci\'c, Dominik'
_publ_section_title
;
 Halogen bonding of the aldehyde oxygen atom in cocrystals of aromatic
 aldehydes and 1,4-diiodotetrafluorobenzene
;
_journal_issue                   21
_journal_name_full               CrystEngComm
_journal_page_first              3251
_journal_paper_doi               10.1039/C9CE00340A
_journal_volume                  21
_journal_year                    2019
_chemical_formula_moiety         'C6 F4 I2, 2(C9 H11 N O)'
_chemical_formula_sum            'C24 H22 F4 I2 N2 O2'
_chemical_formula_weight         700.23
_space_group_crystal_system      triclinic
_space_group_IT_number           2
_space_group_name_Hall           '-P 1'
_space_group_name_H-M_alt        'P -1'
_symmetry_space_group_name_Hall  '-P 1'
_symmetry_space_group_name_H-M   'P -1'
_atom_sites_solution_hydrogens   geom
_audit_creation_method           SHELXL-2014/7
_audit_update_record
;
2019-03-08 deposited with the CCDC.    2019-04-08 downloaded from the CCDC.
;
_cell_angle_alpha                100.288(5)
_cell_angle_beta                 105.696(5)
_cell_angle_gamma                110.297(6)
_cell_formula_units_Z            1
_cell_length_a                   8.1668(5)
_cell_length_b                   8.4423(6)
_cell_length_c                   10.8612(5)
_cell_measurement_reflns_used    2371
_cell_measurement_temperature    295
_cell_measurement_theta_max      36.3640
_cell_measurement_theta_min      3.7384
_cell_volume                     644.64(8)
_computing_structure_refinement  'SHELXL-2014/7 (Sheldrick, 2014)'
_diffrn_ambient_temperature      295
_diffrn_detector_area_resol_mean 16.3426
_diffrn_measured_fraction_theta_full 0.994
_diffrn_measured_fraction_theta_max 0.995
_diffrn_measurement_device_type  'Xcalibur, Sapphire3'
_diffrn_radiation_type           MoK\a
_diffrn_radiation_wavelength     0.71073
_diffrn_reflns_av_R_equivalents  0.0240
_diffrn_reflns_av_unetI/netI     0.0319
_diffrn_reflns_Laue_measured_fraction_full 0.994
_diffrn_reflns_Laue_measured_fraction_max 0.995
_diffrn_reflns_limit_h_max       10
_diffrn_reflns_limit_h_min       -10
_diffrn_reflns_limit_k_max       10
_diffrn_reflns_limit_k_min       -10
_diffrn_reflns_limit_l_max       13
_diffrn_reflns_limit_l_min       -13
_diffrn_reflns_number            6447
_diffrn_reflns_point_group_measured_fraction_full 0.994
_diffrn_reflns_point_group_measured_fraction_max 0.995
_diffrn_reflns_theta_full        25.242
_diffrn_reflns_theta_max         26.998
_diffrn_reflns_theta_min         4.301
_diffrn_source                   'Enhance (Mo) X-ray Source'
_exptl_absorpt_coefficient_mu    2.491
_exptl_absorpt_correction_T_max  1.00000
_exptl_absorpt_correction_T_min  0.59223
_exptl_absorpt_correction_type   multi-scan
_exptl_absorpt_process_details
;
CrysAlis RED, Oxford Diffraction Ltd.,
Version 1.171.32.29 (release 10-06-2008 CrysAlis171 .NET)
(compiled Jun 10 2008,16:49:55)
Empirical absorption correction using spherical harmonics,
 implemented in SCALE3 ABSPACK scaling algorithm.
;
_exptl_crystal_colour            colorless
_exptl_crystal_density_diffrn    1.804
_exptl_crystal_description       block
_exptl_crystal_F_000             338
_exptl_crystal_size_max          0.51
_exptl_crystal_size_mid          0.49
_exptl_crystal_size_min          0.16
_refine_diff_density_max         0.471
_refine_diff_density_min         -0.453
_refine_diff_density_rms         0.059
_refine_ls_extinction_method     none
_refine_ls_goodness_of_fit_ref   1.143
_refine_ls_hydrogen_treatment    constr
_refine_ls_matrix_type           full
_refine_ls_number_parameters     156
_refine_ls_number_reflns         2799
_refine_ls_number_restraints     0
_refine_ls_restrained_S_all      1.143
_refine_ls_R_factor_all          0.0402
_refine_ls_R_factor_gt           0.0308
_refine_ls_shift/su_max          0.001
_refine_ls_shift/su_mean         0.000
_refine_ls_structure_factor_coef Fsqd
_refine_ls_weighting_details
'w=1/[\s^2^(Fo^2^)+(0.0312P)^2^+0.0112P] where P=(Fo^2^+2Fc^2^)/3'
_refine_ls_weighting_scheme      calc
_refine_ls_wR_factor_gt          0.0723
_refine_ls_wR_factor_ref         0.0773
_reflns_Friedel_coverage         0.000
_reflns_number_gt                2327
_reflns_number_total             2799
_reflns_threshold_expression     'I > 2\s(I)'
_cod_data_source_file            c9ce00340a2.cif
_cod_data_source_block           dmab_2_14tfib
_cod_depositor_comments
'Adding full bibliography for 7232576--7232580.cif.'
_cod_original_cell_volume        644.64(7)
_cod_database_code               7232580
_shelx_shelxl_version_number     2014/7
_shelx_space_group_comment
;
The symmetry employed for this shelxl refinement is uniquely defined
by the following loop, which should always be used as a source of
symmetry information in preference to the above space-group names.
They are only intended as comments.
;
_shelx_res_file
;

    shelx.res created by SHELXL-2014/7

TITL shelxt_a.res in P-1
CELL  0.71073   8.1668   8.4423  10.8612  100.288  105.696  110.297
ZERR     1.00   0.0005   0.0006   0.0005    0.005    0.005    0.006
LATT   1
SFAC  C    H    N    O    F    I
UNIT  24 22 2 2 4 2
MERG   2
OMIT    -4.00  54.00
FMAP   2
PLAN   20
ACTA
BOND   $H
LIST   6
L.S.  10
WGHT    0.031200    0.011200
FVAR       6.58491
I1    6    0.742313    0.747085    0.160104    11.00000    0.06944    0.06778 =
         0.06458    0.02729    0.03490    0.02020
F2    5    1.050959    1.340639    0.033600    11.00000    0.15106    0.05942 =
         0.11539    0.03530    0.08973    0.04667
F1    5    0.856959    1.151013    0.158534    11.00000    0.14512    0.07903 =
         0.12255    0.03851    0.10132    0.05856
O1    4    0.556401    0.511629    0.291394    11.00000    0.11510    0.07194 =
         0.11180    0.04546    0.06871    0.03481
N1    3    0.196434   -0.225547    0.409247    11.00000    0.06703    0.05314 =
         0.07968    0.02384    0.03512    0.02402
C6    1    0.372265    0.225777    0.388431    11.00000    0.06455    0.05543 =
         0.06758    0.02106    0.03034    0.02828
AFIX  43
H6    2    0.379631    0.335669    0.429959    11.00000   -1.20000
AFIX   0
C4    1    0.275573   -0.085054    0.368224    11.00000    0.04661    0.05516 =
         0.05569    0.01778    0.01890    0.02177
C1    1    0.443315    0.209955    0.286102    11.00000    0.05087    0.06866 =
         0.05699    0.02533    0.02258    0.02245
C10   1    0.895841    0.899578    0.065268    11.00000    0.06004    0.05452 =
         0.04652    0.01782    0.02516    0.02029
C5    1    0.292296    0.084250    0.429124    11.00000    0.06018    0.05902 =
         0.06490    0.02006    0.03403    0.02973
AFIX  43
H5    2    0.247820    0.099851    0.498612    11.00000   -1.20000
AFIX   0
C7    1    0.532414    0.360016    0.243904    11.00000    0.07292    0.08292 =
         0.07457    0.03717    0.04108    0.03129
AFIX  43
H7    2    0.575158    0.338608    0.174237    11.00000   -1.20000
AFIX   0
C9    1    0.111332   -0.214389    0.509939    11.00000    0.07910    0.07940 =
         0.08769    0.04099    0.04601    0.03167
AFIX 137
H9A   2    0.185242   -0.103035    0.579153    11.00000   -1.50000
H9B   2    0.105255   -0.309404    0.548233    11.00000   -1.50000
H9C   2   -0.012773   -0.223350    0.469013    11.00000   -1.50000
AFIX   0
C11   1    0.927572    1.072958    0.080391    11.00000    0.07195    0.06224 =
         0.05437    0.01728    0.03768    0.02893
C3    1    0.348974   -0.099566    0.265797    11.00000    0.06979    0.05815 =
         0.06778    0.01487    0.03252    0.02960
AFIX  43
H3    2    0.343060   -0.208789    0.224251    11.00000   -1.20000
AFIX   0
C12   1    1.028072    1.171600    0.016215    11.00000    0.07675    0.04784 =
         0.06200    0.01782    0.03254    0.02337
C2    1    0.428142    0.042497    0.226469    11.00000    0.06203    0.07678 =
         0.05915    0.01920    0.03197    0.02890
AFIX  43
H2    2    0.473798    0.027852    0.157532    11.00000   -1.20000
AFIX   0
C8    1    0.169455   -0.401597    0.341448    11.00000    0.11002    0.05678 =
         0.12771    0.02925    0.05997    0.03371
AFIX 137
H8A   2    0.067425   -0.447705    0.256958    11.00000   -1.50000
H8B   2    0.141527   -0.477539    0.396007    11.00000   -1.50000
H8C   2    0.281516   -0.396343    0.326399    11.00000   -1.50000
AFIX   0
HKLF    4

REM  shelxt_a.res in P-1
REM R1 =  0.0308 for    2327 Fo > 4sig(Fo)  and  0.0402 for all    2799 data
REM    156 parameters refined using      0 restraints

END

WGHT      0.0308      0.0168

REM Highest difference peak  0.471,  deepest hole -0.453,  1-sigma level  0.059
Q1    1   0.2262  0.2424  0.4878  11.00000  0.05    0.47
Q2    1   0.7618  0.6556  0.1102  11.00000  0.05    0.38
Q3    1   0.1235 -0.4214  0.2171  11.00000  0.05    0.27
Q4    1   0.6243  0.7241  0.1292  11.00000  0.05    0.23
Q5    1   0.7194  0.5953  0.1967  11.00000  0.05    0.21
Q6    1  -0.0320 -0.4880  0.3254  11.00000  0.05    0.21
Q7    1   0.4690  0.2881  0.2797  11.00000  0.05    0.21
Q8    1   0.8982  0.8573  0.0076  11.00000  0.05    0.21
Q9    1   0.1742 -0.2010  0.6268  11.00000  0.05    0.20
Q10   1   0.3505  0.1810  0.2783  11.00000  0.05    0.20
Q11   1   0.9119  0.7412  0.1788  11.00000  0.05    0.19
Q12   1   1.0136  1.1242  0.0640  11.00000  0.05    0.19
Q13   1   0.5874  0.5957  0.2639  11.00000  0.05    0.18
Q14   1   0.5104  0.5942  0.0726  11.00000  0.05    0.18
Q15   1   0.4288  0.3542  0.5064  11.00000  0.05    0.18
Q16   1   1.1261  1.3421  0.1001  11.00000  0.05    0.17
Q17   1   0.8004  1.0911  0.0860  11.00000  0.05    0.17
Q18   1   0.0556 -0.0994  0.5015  11.00000  0.05    0.17
Q19   1   0.2638  0.0008  0.3817  11.00000  0.05    0.17
Q20   1   0.8360  0.8469  0.0929  11.00000  0.05    0.17
;
_shelx_res_checksum              83701
loop_
_space_group_symop_operation_xyz
'x, y, z'
'-x, -y, -z'
loop_
_atom_site_label
_atom_site_type_symbol
_atom_site_fract_x
_atom_site_fract_y
_atom_site_fract_z
_atom_site_U_iso_or_equiv
_atom_site_adp_type
_atom_site_occupancy
_atom_site_site_symmetry_order
_atom_site_calc_flag
_atom_site_refinement_flags_posn
_atom_site_refinement_flags_adp
I1 I 0.74231(3) 0.74708(3) 0.16010(2) 0.06628(12) Uani 1 1 d . .
F2 F 1.0510(4) 1.3406(3) 0.0336(3) 0.0971(8) Uani 1 1 d . .
F1 F 0.8570(4) 1.1510(4) 0.1585(3) 0.0990(9) Uani 1 1 d . .
O1 O 0.5564(5) 0.5116(4) 0.2914(3) 0.0920(9) Uani 1 1 d . .
N1 N 0.1964(4) -0.2255(4) 0.4092(3) 0.0644(8) Uani 1 1 d . .
C6 C 0.3723(5) 0.2258(5) 0.3884(4) 0.0597(9) Uani 1 1 d . .
H6 H 0.3796 0.3357 0.4300 0.072 Uiso 1 1 calc R U
C4 C 0.2756(4) -0.0851(5) 0.3682(3) 0.0521(8) Uani 1 1 d . .
C1 C 0.4433(5) 0.2100(5) 0.2861(4) 0.0579(9) Uani 1 1 d . .
C10 C 0.8958(5) 0.8996(5) 0.0653(3) 0.0530(8) Uani 1 1 d . .
C5 C 0.2923(5) 0.0843(5) 0.4291(4) 0.0572(8) Uani 1 1 d . .
H5 H 0.2478 0.0999 0.4986 0.069 Uiso 1 1 calc R U
C7 C 0.5324(6) 0.3600(6) 0.2439(4) 0.0720(11) Uani 1 1 d . .
H7 H 0.5752 0.3386 0.1742 0.086 Uiso 1 1 calc R U
C9 C 0.1113(6) -0.2144(6) 0.5099(4) 0.0766(11) Uani 1 1 d . .
H9A H 0.1852 -0.1030 0.5792 0.115 Uiso 1 1 calc R U
H9B H 0.1053 -0.3094 0.5482 0.115 Uiso 1 1 calc R U
H9C H -0.0128 -0.2234 0.4690 0.115 Uiso 1 1 calc R U
C11 C 0.9276(5) 1.0730(5) 0.0804(4) 0.0593(9) Uani 1 1 d . .
C3 C 0.3490(5) -0.0996(5) 0.2658(4) 0.0632(9) Uani 1 1 d . .
H3 H 0.3431 -0.2088 0.2243 0.076 Uiso 1 1 calc R U
C12 C 1.0281(5) 1.1716(5) 0.0162(4) 0.0611(9) Uani 1 1 d . .
C2 C 0.4281(5) 0.0425(6) 0.2265(4) 0.0639(10) Uani 1 1 d . .
H2 H 0.4738 0.0279 0.1575 0.077 Uiso 1 1 calc R U
C8 C 0.1695(7) -0.4016(6) 0.3414(6) 0.0944(15) Uani 1 1 d . .
H8A H 0.0674 -0.4477 0.2570 0.142 Uiso 1 1 calc R U
H8B H 0.1415 -0.4775 0.3960 0.142 Uiso 1 1 calc R U
H8C H 0.2815 -0.3963 0.3264 0.142 Uiso 1 1 calc R U
loop_
_atom_site_aniso_label
_atom_site_aniso_U_11
_atom_site_aniso_U_22
_atom_site_aniso_U_33
_atom_site_aniso_U_23
_atom_site_aniso_U_13
_atom_site_aniso_U_12
I1 0.06944(19) 0.06778(19) 0.06458(19) 0.02729(14) 0.03490(13) 0.02020(13)
F2 0.151(2) 0.0594(15) 0.115(2) 0.0353(15) 0.0897(19) 0.0467(16)
F1 0.145(2) 0.0790(17) 0.123(2) 0.0385(15) 0.1013(19) 0.0586(17)
O1 0.115(3) 0.072(2) 0.112(3) 0.0455(19) 0.069(2) 0.0348(19)
N1 0.0670(19) 0.0531(18) 0.080(2) 0.0238(16) 0.0351(16) 0.0240(15)
C6 0.065(2) 0.055(2) 0.068(2) 0.0211(18) 0.0303(18) 0.0283(17)
C4 0.0466(17) 0.055(2) 0.0557(19) 0.0178(16) 0.0189(15) 0.0218(15)
C1 0.0509(19) 0.069(2) 0.057(2) 0.0253(19) 0.0226(16) 0.0225(17)
C10 0.060(2) 0.055(2) 0.0465(18) 0.0178(16) 0.0252(15) 0.0203(16)
C5 0.060(2) 0.059(2) 0.065(2) 0.0201(18) 0.0340(17) 0.0297(17)
C7 0.073(3) 0.083(3) 0.075(3) 0.037(2) 0.041(2) 0.031(2)
C9 0.079(3) 0.079(3) 0.088(3) 0.041(2) 0.046(2) 0.032(2)
C11 0.072(2) 0.062(2) 0.054(2) 0.0173(18) 0.0377(18) 0.0289(19)
C3 0.070(2) 0.058(2) 0.068(2) 0.0149(19) 0.0325(19) 0.0296(19)
C12 0.077(2) 0.048(2) 0.062(2) 0.0178(17) 0.0325(19) 0.0234(18)
C2 0.062(2) 0.077(3) 0.059(2) 0.019(2) 0.0320(18) 0.0289(19)
C8 0.110(4) 0.057(3) 0.128(4) 0.029(3) 0.060(3) 0.034(3)
loop_
_atom_type_symbol
_atom_type_description
_atom_type_scat_dispersion_real
_atom_type_scat_dispersion_imag
_atom_type_scat_source
C C 0.0033 0.0016 'International Tables Vol C Tables 4.2.6.8 and 6.1.1.4'
H H 0.0000 0.0000 'International Tables Vol C Tables 4.2.6.8 and 6.1.1.4'
N N 0.0061 0.0033 'International Tables Vol C Tables 4.2.6.8 and 6.1.1.4'
O O 0.0106 0.0060 'International Tables Vol C Tables 4.2.6.8 and 6.1.1.4'
F F 0.0171 0.0103 'International Tables Vol C Tables 4.2.6.8 and 6.1.1.4'
I I -0.4742 1.8119 'International Tables Vol C Tables 4.2.6.8 and 6.1.1.4'
loop_
_geom_angle_atom_site_label_1
_geom_angle_atom_site_label_2
_geom_angle_atom_site_label_3
_geom_angle
_geom_angle_site_symmetry_1
_geom_angle_site_symmetry_3
C4 N1 C8 121.1(3) . .
C4 N1 C9 122.6(3) . .
C8 N1 C9 115.8(3) . .
C5 C6 C1 121.6(4) . .
C5 C6 H6 119.2 . .
C1 C6 H6 119.2 . .
N1 C4 C3 122.1(3) . .
N1 C4 C5 121.2(3) . .
C3 C4 C5 116.7(3) . .
C6 C1 C2 117.1(3) . .
C6 C1 C7 122.2(4) . .
C2 C1 C7 120.7(4) . .
C11 C10 C12 116.6(3) . 2_775
C11 C10 I1 122.7(2) . .
C12 C10 I1 120.7(3) 2_775 .
C6 C5 C4 121.3(3) . .
C6 C5 H5 119.3 . .
C4 C5 H5 119.3 . .
O1 C7 C1 125.8(4) . .
O1 C7 H7 117.1 . .
C1 C7 H7 117.1 . .
N1 C9 H9A 109.5 . .
N1 C9 H9B 109.5 . .
H9A C9 H9B 109.5 . .
N1 C9 H9C 109.5 . .
H9A C9 H9C 109.5 . .
H9B C9 H9C 109.5 . .
F1 C11 C10 119.7(3) . .
F1 C11 C12 118.3(3) . .
C10 C11 C12 122.0(3) . .
C2 C3 C4 121.2(4) . .
C2 C3 H3 119.4 . .
C4 C3 H3 119.4 . .
F2 C12 C10 119.7(3) . 2_775
F2 C12 C11 118.8(3) . .
C10 C12 C11 121.4(3) 2_775 .
C3 C2 C1 122.0(3) . .
C3 C2 H2 119.0 . .
C1 C2 H2 119.0 . .
N1 C8 H8A 109.5 . .
N1 C8 H8B 109.5 . .
H8A C8 H8B 109.5 . .
N1 C8 H8C 109.5 . .
H8A C8 H8C 109.5 . .
H8B C8 H8C 109.5 . .
loop_
_geom_bond_atom_site_label_1
_geom_bond_atom_site_label_2
_geom_bond_distance
_geom_bond_site_symmetry_2
I1 C10 2.084(3) .
F2 C12 1.344(4) .
F1 C11 1.348(4) .
O1 C7 1.216(5) .
N1 C4 1.355(4) .
N1 C8 1.447(5) .
N1 C9 1.452(5) .
C6 C5 1.361(5) .
C6 C1 1.393(5) .
C6 H6 0.9300 .
C4 C3 1.405(5) .
C4 C5 1.406(5) .
C1 C2 1.393(5) .
C1 C7 1.447(5) .
C10 C11 1.365(5) .
C10 C12 1.377(5) 2_775
C5 H5 0.9300 .
C7 H7 0.9300 .
C9 H9A 0.9600 .
C9 H9B 0.9600 .
C9 H9C 0.9600 .
C11 C12 1.377(5) .
C3 C2 1.354(5) .
C3 H3 0.9300 .
C12 C10 1.377(5) 2_775
C2 H2 0.9300 .
C8 H8A 0.9600 .
C8 H8B 0.9600 .
C8 H8C 0.9600 .
