#------------------------------------------------------------------------------
#$Date: 2019-11-07 22:12:39 +0200 (Thu, 07 Nov 2019) $
#$Revision: 223730 $
#$URL: file:///home/coder/svn-repositories/cod/cif/7/23/24/7232418.cif $
#------------------------------------------------------------------------------
#
# This file is available in the Crystallography Open Database (COD),
# http://www.crystallography.net/
#
# All data on this site have been placed in the public domain by the
# contributors.
#
data_7232418
loop_
_publ_author_name
'Hearne, Neil'
'Turnbull, Mark M.'
'Landee, Christopher P.'
'van der Merwe, Elizabet M.'
'Rademeyer, Melanie'
_publ_section_title
;
 Halide-bi-bridged polymers of amide substituted pyridines and -pyrazines:
 polymorphism, structures, thermal stability and magnetism
;
_journal_issue                   12
_journal_name_full               CrystEngComm
_journal_page_first              1910
_journal_paper_doi               10.1039/C9CE00071B
_journal_volume                  21
_journal_year                    2019
_chemical_formula_moiety         'C12 H12 Cl2 Cu N4 O2'
_chemical_formula_sum            'C12 H12 Cl2 Cu N4 O2'
_chemical_formula_weight         378.71
_space_group_crystal_system      monoclinic
_space_group_IT_number           14
_space_group_name_Hall           '-P 2yn'
_space_group_name_H-M_alt        'P 1 21/n 1'
_symmetry_space_group_name_Hall  '-P 2yn'
_symmetry_space_group_name_H-M   'P 1 21/n 1'
_atom_sites_solution_hydrogens   geom
_audit_creation_method           SHELXL-2018/3
_audit_update_record
;
2018-12-12 deposited with the CCDC.    2019-02-20 downloaded from the CCDC.
;
_cell_angle_alpha                90
_cell_angle_beta                 96.548(4)
_cell_angle_gamma                90
_cell_formula_units_Z            2
_cell_length_a                   3.7235(2)
_cell_length_b                   23.3797(10)
_cell_length_c                   7.9055(3)
_cell_measurement_reflns_used    6114
_cell_measurement_temperature    150(2)
_cell_measurement_theta_max      31.1290
_cell_measurement_theta_min      3.1330
_cell_volume                     683.72(5)
_computing_cell_refinement       'CrysAlisPro 1.171.40.23a (Rigaku OD, 2018)'
_computing_data_collection       'CrysAlisPro 1.171.40.23a (Rigaku OD, 2018)'
_computing_data_reduction        'CrysAlisPro 1.171.40.23a (Rigaku OD, 2018)'
_computing_molecular_graphics    'Olex2 (Dolomanov et al., 2009)'
_computing_publication_material  'Olex2 (Dolomanov et al., 2009)'
_computing_structure_refinement  'ShelXL (Sheldrick, 2015)'
_computing_structure_solution    'ShelXT (Sheldrick, 2015)'
_diffrn_ambient_temperature      150(2)
_diffrn_detector                 'CCD plate'
_diffrn_detector_type            HyPix
_diffrn_measured_fraction_theta_full 0.982
_diffrn_measured_fraction_theta_max 0.782
_diffrn_measurement_device       'four-circle diffractometer'
_diffrn_measurement_device_type  'XtaLAB Synergy R, DW system, HyPix'
_diffrn_measurement_method       '\w scans'
_diffrn_radiation_monochromator  mirror
_diffrn_radiation_probe          x-ray
_diffrn_radiation_type           MoK\a
_diffrn_radiation_wavelength     0.71073
_diffrn_reflns_av_unetI/netI     0.0140
_diffrn_reflns_Laue_measured_fraction_full 0.982
_diffrn_reflns_Laue_measured_fraction_max 0.782
_diffrn_reflns_limit_h_max       4
_diffrn_reflns_limit_h_min       -4
_diffrn_reflns_limit_k_max       32
_diffrn_reflns_limit_k_min       -33
_diffrn_reflns_limit_l_max       10
_diffrn_reflns_limit_l_min       -10
_diffrn_reflns_number            2607
_diffrn_reflns_point_group_measured_fraction_full 0.982
_diffrn_reflns_point_group_measured_fraction_max 0.782
_diffrn_reflns_theta_full        25.242
_diffrn_reflns_theta_max         31.076
_diffrn_reflns_theta_min         1.742
_diffrn_source                   'Rotating-anode X-ray tube'
_diffrn_source_type              'Rigaku (Mo) X-ray Source'
_exptl_absorpt_coefficient_mu    1.996
_exptl_absorpt_correction_T_max  1.00000
_exptl_absorpt_correction_T_min  0.62736
_exptl_absorpt_correction_type   multi-scan
_exptl_absorpt_process_details
;
CrysAlisPro 1.171.40.23a (Rigaku Oxford Diffraction, 2018)
Empirical absorption correction using spherical harmonics,
 implemented in SCALE3 ABSPACK scaling algorithm.
;
_exptl_crystal_colour            blue
_exptl_crystal_density_diffrn    1.839
_exptl_crystal_description       'thick needle'
_exptl_crystal_F_000             617
_exptl_crystal_size_max          0.075
_exptl_crystal_size_mid          0.017
_exptl_crystal_size_min          0.013
_refine_diff_density_max         0.811
_refine_diff_density_min         -0.521
_refine_diff_density_rms         0.091
_refine_ls_extinction_method     none
_refine_ls_goodness_of_fit_ref   1.067
_refine_ls_hydrogen_treatment    constr
_refine_ls_matrix_type           full
_refine_ls_number_parameters     98
_refine_ls_number_reflns         2607
_refine_ls_number_restraints     0
_refine_ls_restrained_S_all      1.067
_refine_ls_R_factor_all          0.0351
_refine_ls_R_factor_gt           0.0324
_refine_ls_shift/su_max          0.001
_refine_ls_shift/su_mean         0.000
_refine_ls_structure_factor_coef Fsqd
_refine_ls_weighting_details
'w=1/[\s^2^(Fo^2^)+(0.0623P)^2^+0.2566P] where P=(Fo^2^+2Fc^2^)/3'
_refine_ls_weighting_scheme      calc
_refine_ls_wR_factor_gt          0.0900
_refine_ls_wR_factor_ref         0.0915
_reflns_Friedel_coverage         0.000
_reflns_number_gt                2425
_reflns_number_total             2607
_reflns_threshold_expression     'I > 2\s(I)'
_cod_data_source_file            c9ce00071b2.cif
_cod_data_source_block           inicCuClb
_cod_depositor_comments
'Adding full bibliography for 7232418--7232424.cif.'
_cod_database_code               7232418
_shelx_shelxl_version_number     2018/3
_shelx_space_group_comment
;
The symmetry employed for this shelxl refinement is uniquely defined
by the following loop, which should always be used as a source of
symmetry information in preference to the above space-group names.
They are only intended as comments.
;
_shelx_res_file
;
TITL exp_3_twin1_hklf4_a.res in P2(1)/n
    shelx.res
    created by SHELXL-2018/3 at 16:44:21 on 27-Nov-2018
CELL  0.71073   3.7235  23.3797   7.9055   90.000   96.548   90.000
ZERR     2.00   0.0002   0.0010   0.0003    0.000    0.004    0.000
LATT   1
SYMM  1/2 - X, 1/2 + Y, 1/2 - Z
SFAC  C    H    O    CL   CU   N
UNIT  10 10 10 10 10 1
MERG   2
EQIV $2 x-1/2, -y+1/2, z-1/2
HTAB N2 O1_$2
EQIV $3 -x, -y+1, -z+1
HTAB N2 Cl1_$3
EQIV $4 x+1, y, z
HTAB C1 Cl1_$4
EQIV $5 -x+1, -y+1, -z+1
HTAB C2 Cl1_$5
EQIV $6 -x, -y+1, -z+2
HTAB C5 Cl1_$6
EQIV $7 x-1/2, -y+1/2, z+1/2
HTAB C4 O1_$7
FMAP   2   53   53
PLAN   20
ACTA
HTAB    2.00000
BOND   $H
CONF
LIST   4
L.S.  10
WGHT    0.062300    0.256600
BASF   0.41256
FVAR       1.15911
CU1   5    0.500000    0.500000    1.000000    10.50000    0.02085    0.01111 =
         0.01101   -0.00277   -0.00329    0.00371
CL1   4    0.078910    0.550616    0.825131    11.00000    0.01566    0.01411 =
         0.01398    0.00031   -0.00045    0.00159
O1    3    0.382422    0.249828    0.507437    11.00000    0.03702    0.01301 =
         0.01511   -0.00044   -0.00225    0.00420
N1    6    0.459882    0.434591    0.832463    11.00000    0.01739    0.01245 =
         0.01232   -0.00091    0.00003    0.00153
N2    6    0.153778    0.314270    0.309100    11.00000    0.03010    0.01254 =
         0.01277   -0.00175   -0.00348    0.00052
AFIX  93
H2A   2    0.113701    0.288715    0.230981    11.00000   -1.20000
H2B   2    0.100587    0.349465    0.286727    11.00000   -1.20000
AFIX   0
C1    1    0.516864    0.443878    0.669521    11.00000    0.01833    0.01159 =
         0.01278    0.00024   -0.00084   -0.00126
AFIX  43
H1    2    0.590519    0.480026    0.638508    11.00000   -1.20000
AFIX   0
C2    1    0.469653    0.401472    0.546304    11.00000    0.01599    0.01374 =
         0.01106    0.00041    0.00177    0.00029
AFIX  43
H2    2    0.511350    0.409068    0.434729    11.00000   -1.20000
AFIX   0
C5    1    0.363711    0.381801    0.877371    11.00000    0.02029    0.01390 =
         0.01176    0.00001    0.00334    0.00069
AFIX  43
H5    2    0.332174    0.374876    0.990577    11.00000   -1.20000
AFIX   0
C4    1    0.309802    0.337348    0.761634    11.00000    0.01782    0.01215 =
         0.01324    0.00092    0.00211    0.00000
AFIX  43
H4    2    0.241823    0.301337    0.796521    11.00000   -1.20000
AFIX   0
C3    1    0.358842    0.347354    0.592353    11.00000    0.01236    0.01289 =
         0.01139   -0.00099    0.00059    0.00161
C6    1    0.298761    0.299284    0.465308    11.00000    0.01736    0.01388 =
         0.01253   -0.00166    0.00202   -0.00084
HKLF    5




REM  exp_3_twin1_hklf4_a.res in P2(1)/n
REM wR2 = 0.0915, GooF = S = 1.067, Restrained GooF = 1.067 for all data
REM R1 = 0.0324 for 2425 Fo > 4sig(Fo) and 0.0351 for all 2607 data
REM 98 parameters refined using 0 restraints

END

WGHT      0.0623      0.2566

REM Instructions for potential hydrogen bonds
HTAB N2 O1_$2
HTAB N2 Cl1_$3
HTAB C1 Cl1_$4
HTAB C2 Cl1_$5
HTAB C5 Cl1_$6
HTAB C4 O1_$7

REM Highest difference peak  0.811,  deepest hole -0.521,  1-sigma level  0.091
Q1    1   0.9091  0.5000  0.9786  11.00000  0.05    0.81
Q2    1   0.4790  0.4223  0.6119  11.00000  0.05    0.52
Q3    1   0.3513  0.3212  0.5275  11.00000  0.05    0.47
Q4    1   0.5008  0.4603  0.8952  11.00000  0.05    0.41
Q5    1   0.3941  0.3395  0.6798  11.00000  0.05    0.41
Q6    1   0.3468  0.3583  0.8140  11.00000  0.05    0.36
Q7    1   0.3887  0.4997  0.9520  11.00000  0.05    0.34
Q8    1   0.4700  0.4404  0.7567  11.00000  0.05    0.34
Q9    1   0.4882  0.5467  0.8061  11.00000  0.05    0.34
Q10   1  -0.3745  0.5475  0.8431  11.00000  0.05    0.32
Q11   1  -0.0321  0.5454  0.7665  11.00000  0.05    0.28
Q12   1   0.1590  0.5208  0.7532  11.00000  0.05    0.27
Q13   1   0.2308  0.3032  0.3930  11.00000  0.05    0.26
Q14   1   0.4038  0.3778  0.5527  11.00000  0.05    0.26
Q15   1   0.3087  0.2562  0.4515  11.00000  0.05    0.26
Q16   1   0.5020  0.3770  0.5987  11.00000  0.05    0.24
Q17   1   0.1102  0.5861  0.9320  11.00000  0.05    0.23
Q18   1   0.7880  0.4590  0.8786  11.00000  0.05    0.23
Q19   1   0.0735  0.5246  0.8949  11.00000  0.05    0.23
Q20   1   0.1757  0.5426  0.7035  11.00000  0.05    0.23
;
_shelx_res_checksum              62168
loop_
_space_group_symop_operation_xyz
'x, y, z'
'-x+1/2, y+1/2, -z+1/2'
'-x, -y, -z'
'x-1/2, -y-1/2, z-1/2'
loop_
_atom_site_label
_atom_site_type_symbol
_atom_site_fract_x
_atom_site_fract_y
_atom_site_fract_z
_atom_site_U_iso_or_equiv
_atom_site_adp_type
_atom_site_occupancy
_atom_site_site_symmetry_order
_atom_site_calc_flag
_atom_site_refinement_flags_posn
_atom_site_refinement_flags_adp
_atom_site_refinement_flags_occupancy
Cu1 Cu 0.500000 0.500000 1.000000 0.01472(13) Uani 1 2 d S . P
Cl1 Cl 0.07891(14) 0.55062(2) 0.82513(6) 0.01475(14) Uani 1 1 d . . .
O1 O 0.3824(5) 0.24983(7) 0.50744(19) 0.0221(4) Uani 1 1 d . . .
N1 N 0.4599(5) 0.43459(7) 0.8325(2) 0.0142(3) Uani 1 1 d . . .
N2 N 0.1538(6) 0.31427(7) 0.3091(2) 0.0189(4) Uani 1 1 d . . .
H2A H 0.113701 0.288715 0.230981 0.023 Uiso 1 1 calc R U .
H2B H 0.100587 0.349465 0.286727 0.023 Uiso 1 1 calc R U .
C1 C 0.5169(6) 0.44388(8) 0.6695(2) 0.0144(4) Uani 1 1 d . . .
H1 H 0.590519 0.480026 0.638508 0.017 Uiso 1 1 calc R U .
C2 C 0.4697(5) 0.40147(8) 0.5463(3) 0.0136(4) Uani 1 1 d . . .
H2 H 0.511350 0.409068 0.434729 0.016 Uiso 1 1 calc R U .
C5 C 0.3637(6) 0.38180(8) 0.8774(2) 0.0152(4) Uani 1 1 d . . .
H5 H 0.332174 0.374876 0.990577 0.018 Uiso 1 1 calc R U .
C4 C 0.3098(6) 0.33735(8) 0.7616(2) 0.0144(4) Uani 1 1 d . . .
H4 H 0.241823 0.301337 0.796521 0.017 Uiso 1 1 calc R U .
C3 C 0.3588(5) 0.34735(8) 0.5924(2) 0.0123(4) Uani 1 1 d . . .
C6 C 0.2988(6) 0.29928(8) 0.4653(2) 0.0146(4) Uani 1 1 d . . .
loop_
_atom_site_aniso_label
_atom_site_aniso_U_11
_atom_site_aniso_U_22
_atom_site_aniso_U_33
_atom_site_aniso_U_23
_atom_site_aniso_U_13
_atom_site_aniso_U_12
Cu1 0.0208(2) 0.01111(19) 0.0110(2) -0.00277(10) -0.00329(15) 0.00371(12)
Cl1 0.0157(3) 0.0141(2) 0.0140(2) 0.00031(14) -0.00045(19) 0.00159(16)
O1 0.0370(9) 0.0130(7) 0.0151(8) -0.0004(5) -0.0023(7) 0.0042(6)
N1 0.0174(8) 0.0124(8) 0.0123(8) -0.0009(6) 0.0000(7) 0.0015(6)
N2 0.0301(11) 0.0125(8) 0.0128(8) -0.0018(6) -0.0035(7) 0.0005(7)
C1 0.0183(10) 0.0116(9) 0.0128(9) 0.0002(6) -0.0008(8) -0.0013(7)
C2 0.0160(10) 0.0137(9) 0.0111(8) 0.0004(6) 0.0018(7) 0.0003(7)
C5 0.0203(10) 0.0139(9) 0.0118(9) 0.0000(6) 0.0033(8) 0.0007(7)
C4 0.0178(9) 0.0122(8) 0.0132(9) 0.0009(6) 0.0021(7) 0.0000(7)
C3 0.0124(9) 0.0129(9) 0.0114(9) -0.0010(6) 0.0006(7) 0.0016(7)
C6 0.0174(10) 0.0139(9) 0.0125(9) -0.0017(6) 0.0020(7) -0.0008(7)
loop_
_atom_type_symbol
_atom_type_description
_atom_type_scat_dispersion_real
_atom_type_scat_dispersion_imag
_atom_type_scat_source
C C 0.0033 0.0016 'International Tables Vol C Tables 4.2.6.8 and 6.1.1.4'
H H 0.0000 0.0000 'International Tables Vol C Tables 4.2.6.8 and 6.1.1.4'
O O 0.0106 0.0060 'International Tables Vol C Tables 4.2.6.8 and 6.1.1.4'
Cl Cl 0.1484 0.1585 'International Tables Vol C Tables 4.2.6.8 and 6.1.1.4'
Cu Cu 0.3201 1.2651 'International Tables Vol C Tables 4.2.6.8 and 6.1.1.4'
N N 0.0061 0.0033 'International Tables Vol C Tables 4.2.6.8 and 6.1.1.4'
loop_
_geom_angle_atom_site_label_1
_geom_angle_atom_site_label_2
_geom_angle_atom_site_label_3
_geom_angle
_geom_angle_site_symmetry_1
_geom_angle_site_symmetry_3
N1 Cu1 N1 180.0 3_667 .
N1 Cu1 Cl1 90.06(5) 3_667 3_667
N1 Cu1 Cl1 89.94(5) . 3_667
N1 Cu1 Cl1 89.94(5) 3_667 .
N1 Cu1 Cl1 90.06(5) . .
Cl1 Cu1 Cl1 180.0 3_667 .
C5 N1 C1 118.45(17) . .
C5 N1 Cu1 121.65(13) . .
C1 N1 Cu1 119.85(13) . .
C6 N2 H2A 120.0 . .
C6 N2 H2B 120.0 . .
H2A N2 H2B 120.0 . .
N1 C1 C2 122.37(18) . .
N1 C1 H1 118.8 . .
C2 C1 H1 118.8 . .
C1 C2 C3 118.92(18) . .
C1 C2 H2 120.5 . .
C3 C2 H2 120.5 . .
N1 C5 C4 122.54(18) . .
N1 C5 H5 118.7 . .
C4 C5 H5 118.7 . .
C5 C4 C3 118.99(18) . .
C5 C4 H4 120.5 . .
C3 C4 H4 120.5 . .
C4 C3 C2 118.67(17) . .
C4 C3 C6 119.34(17) . .
C2 C3 C6 121.97(17) . .
O1 C6 N2 123.92(19) . .
O1 C6 C3 120.36(18) . .
N2 C6 C3 115.71(17) . .
loop_
_geom_bond_atom_site_label_1
_geom_bond_atom_site_label_2
_geom_bond_distance
_geom_bond_site_symmetry_2
Cu1 N1 2.0174(17) 3_667
Cu1 N1 2.0174(17) .
Cu1 Cl1 2.2968(5) 3_667
Cu1 Cl1 2.2969(5) .
O1 C6 1.233(3) .
N1 C5 1.344(3) .
N1 C1 1.347(2) .
N2 C6 1.337(3) .
N2 H2A 0.8600 .
N2 H2B 0.8600 .
C1 C2 1.387(3) .
C1 H1 0.9300 .
C2 C3 1.392(3) .
C2 H2 0.9300 .
C5 C4 1.384(3) .
C5 H5 0.9300 .
C4 C3 1.391(3) .
C4 H4 0.9300 .
C3 C6 1.507(3) .
loop_
_geom_hbond_atom_site_label_D
_geom_hbond_atom_site_label_H
_geom_hbond_atom_site_label_A
_geom_hbond_distance_DH
_geom_hbond_distance_HA
_geom_hbond_distance_DA
_geom_hbond_angle_DHA
_geom_hbond_site_symmetry_A
_geom_hbond_publ_flag
N2 H2A O1 0.86 2.08 2.899(2) 158.7 4_565 yes
N2 H2B Cl1 0.86 2.56 3.4126(18) 171.6 3_566 yes
C1 H1 Cl1 0.93 2.76 3.396(2) 126.8 1_655 yes
C2 H2 Cl1 0.93 2.86 3.719(2) 155.0 3_666 yes
C5 H5 Cl1 0.93 2.83 3.410(2) 121.6 3_567 yes
C4 H4 O1 0.93 2.55 3.342(3) 143.0 4_566 yes
loop_
_geom_torsion_atom_site_label_1
_geom_torsion_atom_site_label_2
_geom_torsion_atom_site_label_3
_geom_torsion_atom_site_label_4
_geom_torsion
C5 N1 C1 C2 1.9(3)
Cu1 N1 C1 C2 -175.63(16)
N1 C1 C2 C3 0.1(3)
C1 N1 C5 C4 -2.2(3)
Cu1 N1 C5 C4 175.32(17)
N1 C5 C4 C3 0.4(3)
C5 C4 C3 C2 1.6(3)
C5 C4 C3 C6 -179.7(2)
C1 C2 C3 C4 -1.9(3)
C1 C2 C3 C6 179.46(19)
C4 C3 C6 O1 -36.0(3)
C2 C3 C6 O1 142.6(2)
C4 C3 C6 N2 144.2(2)
C2 C3 C6 N2 -37.2(3)
