#------------------------------------------------------------------------------
#$Date: 2019-11-07 21:58:40 +0200 (Thu, 07 Nov 2019) $
#$Revision: 223668 $
#$URL: file:///home/coder/svn-repositories/cod/cif/7/23/27/7232747.cif $
#------------------------------------------------------------------------------
#
# This file is available in the Crystallography Open Database (COD),
# http://www.crystallography.net/
#
# All data on this site have been placed in the public domain by the
# contributors.
#
data_7232747
loop_
_publ_author_name
'Giordano, Nico'
'Beavers, Christine M.'
'Kamenev, Konstantin V.'
'Marshall, William G.'
'Moggach, Stephen A.'
'Patterson, Simon D.'
'Teat, Simon J.'
'Warren, John E.'
'Wood, Peter A.'
'Parsons, Simon'
_publ_section_title
;
 High-pressure polymorphism in l-threonine between ambient pressure and 22
 GPa
;
_journal_issue                   30
_journal_name_full               CrystEngComm
_journal_page_first              4444
_journal_paper_doi               10.1039/C9CE00388F
_journal_volume                  21
_journal_year                    2019
_chemical_absolute_configuration syn
_chemical_formula_sum            'C4 H9 N O3'
_chemical_formula_weight         119.12
_chemical_name_common            L-threonine
_chemical_name_systematic        '(2S,3R)-2-amino-3-hydroxybutanoic acid'
_space_group_crystal_system      monoclinic
_space_group_IT_number           4
_space_group_name_Hall           'P 2yb'
_space_group_name_H-M_alt        'P 1 21 1'
_symmetry_space_group_name_Hall  'P 2yb'
_symmetry_space_group_name_H-M   'P 1 21 1'
_atom_sites_solution_hydrogens   geom
_audit_creation_method           SHELXL-2014/7
_audit_update_record
;
2019-03-15 deposited with the CCDC.    2019-05-09 downloaded from the CCDC.
;
_cell_angle_alpha                90
_cell_angle_beta                 92.54(4)
_cell_angle_gamma                90
_cell_formula_units_Z            4
_cell_length_a                   4.620(9)
_cell_length_b                   12.52(2)
_cell_length_c                   6.037(14)
_cell_measurement_reflns_used    340
_cell_measurement_temperature    298(2)
_cell_measurement_theta_max      14.32
_cell_measurement_theta_min      3.08
_cell_volume                     348.9(12)
_computing_structure_refinement  'SHELXL-2014/7 (Sheldrick, 2014)'
_diffrn_ambient_pressure         22.31
_diffrn_ambient_temperature      298(2)
_diffrn_measured_fraction_theta_full 0.344
_diffrn_measured_fraction_theta_max 0.322
_diffrn_measurement_device_type  'Perkin-Elmer a-Si Detector'
_diffrn_measurement_method       '\f shutterless scan'
_diffrn_radiation_monochromator  silicon(111)
_diffrn_radiation_source         'Advanced Light Source Beamline 12.2.2'
_diffrn_radiation_type           synchrotron
_diffrn_radiation_wavelength     0.49594
_diffrn_reflns_av_R_equivalents  0.0608
_diffrn_reflns_av_unetI/netI     0.0714
_diffrn_reflns_Laue_measured_fraction_full 0.344
_diffrn_reflns_Laue_measured_fraction_max 0.322
_diffrn_reflns_limit_h_max       4
_diffrn_reflns_limit_h_min       -4
_diffrn_reflns_limit_k_max       8
_diffrn_reflns_limit_k_min       -7
_diffrn_reflns_limit_l_max       3
_diffrn_reflns_limit_l_min       -3
_diffrn_reflns_number            334
_diffrn_reflns_point_group_measured_fraction_full 0.324
_diffrn_reflns_point_group_measured_fraction_max 0.303
_diffrn_reflns_theta_full        14.324
_diffrn_reflns_theta_max         14.324
_diffrn_reflns_theta_min         3.080
_exptl_absorpt_coefficient_mu    0.095
_exptl_absorpt_correction_T_max  0.7438
_exptl_absorpt_correction_T_min  0.6096
_exptl_absorpt_correction_type   multi-scan
_exptl_absorpt_process_details   'SADABS-2014/5 (Sheldrick, 2015)'
_exptl_crystal_colour            colourless
_exptl_crystal_density_diffrn    2.268
_exptl_crystal_description       blade
_exptl_crystal_F_000             256
_exptl_crystal_size_max          0.060
_exptl_crystal_size_mid          0.050
_exptl_crystal_size_min          0.040
_refine_diff_density_max         0.240
_refine_diff_density_min         -0.299
_refine_diff_density_rms         0.076
_refine_ls_abs_structure_details
;
 Flack x determined using 56 quotients [(I+)-(I-)]/[(I+)+(I-)]
 (Parsons, Flack and Wagner, Acta Cryst. B69 (2013) 249-259).
;
_refine_ls_abs_structure_Flack   2.6(10)
_refine_ls_extinction_method     none
_refine_ls_goodness_of_fit_ref   1.148
_refine_ls_hydrogen_treatment    constr
_refine_ls_matrix_type           full
_refine_ls_number_parameters     66
_refine_ls_number_reflns         183
_refine_ls_number_restraints     51
_refine_ls_restrained_S_all      1.079
_refine_ls_R_factor_all          0.0917
_refine_ls_R_factor_gt           0.0785
_refine_ls_shift/su_max          0.000
_refine_ls_shift/su_mean         0.000
_refine_ls_structure_factor_coef Fsqd
_refine_ls_weighting_details
'w=1/[\s^2^(Fo^2^)+(0.1638P)^2^+0.1674P] where P=(Fo^2^+2Fc^2^)/3'
_refine_ls_weighting_scheme      calc
_refine_ls_wR_factor_gt          0.1805
_refine_ls_wR_factor_ref         0.1960
_reflns_Friedel_coverage         0.779
_reflns_Friedel_fraction_full    0.302
_reflns_Friedel_fraction_max     0.282
_reflns_number_gt                156
_reflns_number_total             183
_reflns_threshold_expression     'I > 2\s(I)'
_cod_data_source_file            c9ce00388f5.cif
_cod_data_source_block           22_31GPa
_cod_depositor_comments
'Adding full bibliography for 7232730--7232750.cif.'
_cod_database_code               7232747
_shelx_shelxl_version_number     2014/7
_shelx_space_group_comment
;
The symmetry employed for this shelxl refinement is uniquely defined
by the following loop, which should always be used as a source of
symmetry information in preference to the above space-group names.
They are only intended as comments.
;
_shelx_estimated_absorpt_t_min   0.994
_shelx_estimated_absorpt_t_max   0.996
_shelx_res_file
;

    THRE15.res created by SHELXL-2014/7


TITL THRE15 in P2(1)
CELL 0.49594   4.61950  12.52470   6.03650  90.0000  92.5428  90.0000
ZERR    4.00   0.00890   0.02280   0.01430   0.0000   0.0436   0.0000
LATT -1
SYMM -X, 1/2+Y, -Z
SFAC C H N O
DISP $C  0.00086  0.00074  6.27610!source kissel
DISP $H -0.00003  0.00000  0.65340!source kissel
DISP $N  0.00207  0.00152  9.39816!source kissel
DISP $O  0.00413  0.00279 14.09704!source kissel
UNIT 16 36 4 12
OMIT -3 0 2
OMIT 2 5 1
OMIT -2 -5 -1
OMIT 4 -1 -3
TEMP 25
SIZE 0.04 0.05 0.06 !colourless blade
L.S. 10
DFIX 1.24 0.02 O1A C1A
DFIX 1.25 0.02 C1A O2A
DFIX 1.54 0.02 C1A C2A
DFIX 1.42 0.02 C3A O3A
DFIX 1.52 0.02 C3A C4A
DFIX 1.53 0.02 C3A C2A
DFIX 1.49 0.02 C2A N1A
DFIX 1.24 0.02 O1B C1B
DFIX 1.25 0.02 C1B O2B
DFIX 1.54 0.02 C1B C2B
DFIX 1.43 0.02 C3B O3B
DFIX 1.52 0.02 C3B C4B
DFIX 1.53 0.02 C3B C2B
DFIX 1.49 0.02 C2B N1B
DFIX 2.23 0.04 O1A O2A
DFIX 2.36 0.04 O1A C2A
DFIX 2.37 0.04 O2A C2A
DFIX 2.47 0.04 C1A N1A
DFIX 2.55 0.04 C1A C3A
DFIX 2.45 0.04 N1A C3A
DFIX 2.33 0.04 C2A O3A
DFIX 2.54 0.04 C2A C4A
DFIX 2.33 0.04 O3A C2A
DFIX 2.42 0.04 O3A C4A
DFIX 2.23 0.04 O1B O2B
DFIX 2.36 0.04 O1B C2B
DFIX 2.37 0.04 O2B C2B
DFIX 2.47 0.04 C1B N1B
DFIX 2.55 0.04 C1B C3B
DFIX 2.45 0.04 N1B C3B
DFIX 2.33 0.04 C2B O3B
DFIX 2.54 0.04 C2B C4B
DFIX 2.33 0.04 O3B C2B
DFIX 2.42 0.04 O3B C4B
BOND $H
ACTA
LIST 6
FMAP 2
PLAN 2
TWIN -1 0 0 0 -1 0 0 0 1
REM EXTI 0.000000
WGHT    0.163800    0.167400
BASF  -0.06406
FVAR       0.59232
C1A   1    0.850600    0.481853    0.639404    11.00000    0.01610
O1A   4    1.051348    0.422444    0.629070    11.00000    0.00831
O2A   4    0.595079    0.466225    0.579576    11.00000    0.05507
C2A   1    0.930154    0.597519    0.700086    11.00000    0.03750
AFIX  13
H4A   2    0.800005    0.626383    0.809110    11.00000   -1.20000
AFIX   0
N1A   3    1.230759    0.594984    0.789120    11.00000    0.01703
AFIX  33
H2A   2    1.286750    0.660755    0.826840    11.00000   -1.50000
H3A   2    1.242931    0.552986    0.908099    11.00000   -1.50000
H1A   2    1.344973    0.569672    0.686437    11.00000   -1.50000
AFIX   0
C3A   1    0.919813    0.665083    0.487252    11.00000    0.00848
AFIX  13
H5A   2    0.995125    0.628309    0.358586    11.00000   -1.20000
AFIX   0
C4A   1    0.614753    0.710498    0.446613    11.00000    0.01884
AFIX  33
H8A   2    0.485825    0.654530    0.396504    11.00000   -1.50000
H9A   2    0.548483    0.740081    0.582047    11.00000   -1.50000
H7A   2    0.618463    0.765390    0.335779    11.00000   -1.50000
AFIX   0
O3A   4    1.090847    0.755419    0.560777    11.00000    0.02885
AFIX  83
H6A   2    1.088077    0.800896    0.462985    11.00000   -1.50000
AFIX   0
SAME 0.01 C1A > O3A
C1B   1    0.641370    0.508259    0.121265    11.00000    0.00904
O1B   4    0.455416    0.571763    0.157853    11.00000    0.02678
O2B   4    0.887830    0.522214    0.055277    11.00000    0.01995
C2B   1    0.560124    0.392962    0.179811    11.00000    0.03208
AFIX  13
H4B   2    0.704314    0.362876    0.286234    11.00000   -1.20000
AFIX   0
N1B   3    0.275748    0.396436    0.276596    11.00000    0.02194
AFIX  33
H3B   2    0.286178    0.435733    0.399531    11.00000   -1.50000
H1B   2    0.147507    0.425241    0.179757    11.00000   -1.50000
H2B   2    0.220429    0.330450    0.309423    11.00000   -1.50000
AFIX   0
C3B   1    0.540728    0.325070   -0.032165    11.00000    0.03029
AFIX  13
H5B   2    0.444257    0.361006   -0.159365    11.00000   -1.20000
AFIX   0
C4B   1    0.839364    0.280598   -0.078913    11.00000    0.03252
AFIX  33
H8B   2    0.958882    0.336785   -0.132751    11.00000   -1.50000
H9B   2    0.927231    0.251758    0.055212    11.00000   -1.50000
H7B   2    0.819893    0.225267   -0.188617    11.00000   -1.50000
AFIX   0
O3B   4    0.385341    0.233907    0.046431    11.00000    0.04312
AFIX  83
H6B   2    0.330845    0.196794   -0.059281    11.00000   -1.50000
AFIX   0
HKLF 4

REM  THRE15 in P2(1)
REM R1 =  0.0785 for     156 Fo > 4sig(Fo)  and  0.0917 for all     183 data
REM     66 parameters refined using     51 restraints

END

WGHT      0.1895      0.0777

REM Highest difference peak  0.240,  deepest hole -0.299,  1-sigma level  0.076
Q1    1   0.1776  0.4327  0.1284  11.00000  0.05    0.24
Q2    1   1.3302  0.5981  1.0195  11.00000  0.05    0.23
;
_shelx_res_checksum              45396
loop_
_space_group_symop_operation_xyz
'x, y, z'
'-x, y+1/2, -z'
loop_
_atom_site_label
_atom_site_type_symbol
_atom_site_fract_x
_atom_site_fract_y
_atom_site_fract_z
_atom_site_U_iso_or_equiv
_atom_site_adp_type
_atom_site_occupancy
_atom_site_site_symmetry_order
_atom_site_calc_flag
_atom_site_refinement_flags_posn
_atom_site_refinement_flags_adp
C1A C 0.851(3) 0.4819(16) 0.639(8) 0.016(8) Uiso 1 1 d D .
O1A O 1.051(3) 0.4224(15) 0.629(6) 0.008(5) Uiso 1 1 d D .
O2A O 0.595(3) 0.466(2) 0.580(8) 0.055(9) Uiso 1 1 d D .
C2A C 0.930(4) 0.5975(17) 0.700(6) 0.037(11) Uiso 1 1 d D .
H4A H 0.8000 0.6264 0.8091 0.045 Uiso 1 1 calc R U
N1A N 1.231(3) 0.595(2) 0.789(6) 0.017(7) Uiso 1 1 d D .
H2A H 1.2867 0.6608 0.8268 0.026 Uiso 1 1 calc R U
H3A H 1.2429 0.5530 0.9081 0.026 Uiso 1 1 calc R U
H1A H 1.3450 0.5697 0.6864 0.026 Uiso 1 1 calc R U
C3A C 0.920(3) 0.6651(19) 0.487(6) 0.008(7) Uiso 1 1 d D .
H5A H 0.9951 0.6283 0.3586 0.010 Uiso 1 1 calc R U
C4A C 0.615(4) 0.710(3) 0.447(8) 0.019(10) Uiso 1 1 d D .
H8A H 0.4858 0.6545 0.3965 0.028 Uiso 1 1 calc R U
H9A H 0.5485 0.7401 0.5820 0.028 Uiso 1 1 calc R U
H7A H 0.6185 0.7654 0.3358 0.028 Uiso 1 1 calc R U
O3A O 1.091(3) 0.7554(17) 0.561(7) 0.029(7) Uiso 1 1 d D .
H6A H 1.0881 0.8009 0.4630 0.043 Uiso 1 1 calc R U
C1B C 0.641(4) 0.5083(15) 0.121(9) 0.009(8) Uiso 1 1 d D .
O1B O 0.455(3) 0.5718(16) 0.158(7) 0.027(6) Uiso 1 1 d D .
O2B O 0.888(3) 0.5222(19) 0.055(9) 0.020(8) Uiso 1 1 d D .
C2B C 0.560(4) 0.3930(17) 0.180(7) 0.032(10) Uiso 1 1 d D .
H4B H 0.7043 0.3629 0.2862 0.038 Uiso 1 1 calc R U
N1B N 0.276(3) 0.3964(19) 0.277(6) 0.022(8) Uiso 1 1 d D .
H3B H 0.2862 0.4357 0.3995 0.033 Uiso 1 1 calc R U
H1B H 0.1475 0.4252 0.1798 0.033 Uiso 1 1 calc R U
H2B H 0.2204 0.3304 0.3094 0.033 Uiso 1 1 calc R U
C3B C 0.541(4) 0.325(2) -0.032(6) 0.030(9) Uiso 1 1 d D .
H5B H 0.4443 0.3610 -0.1594 0.036 Uiso 1 1 calc R U
C4B C 0.839(4) 0.281(3) -0.079(9) 0.033(11) Uiso 1 1 d D .
H8B H 0.9589 0.3368 -0.1328 0.049 Uiso 1 1 calc R U
H9B H 0.9272 0.2518 0.0552 0.049 Uiso 1 1 calc R U
H7B H 0.8199 0.2253 -0.1886 0.049 Uiso 1 1 calc R U
O3B O 0.385(4) 0.2339(19) 0.046(7) 0.043(9) Uiso 1 1 d D .
H6B H 0.3308 0.1968 -0.0593 0.065 Uiso 1 1 calc R U
loop_
_atom_type_symbol
_atom_type_description
_atom_type_scat_dispersion_real
_atom_type_scat_dispersion_imag
_atom_type_scat_source
C C 0.0009 0.0007 'International Tables Vol C Tables 4.2.6.8 and 6.1.1.4'
H H 0.0000 0.0000 'International Tables Vol C Tables 4.2.6.8 and 6.1.1.4'
N N 0.0021 0.0015 'International Tables Vol C Tables 4.2.6.8 and 6.1.1.4'
O O 0.0041 0.0028 'International Tables Vol C Tables 4.2.6.8 and 6.1.1.4'
loop_
_geom_angle_atom_site_label_1
_geom_angle_atom_site_label_2
_geom_angle_atom_site_label_3
_geom_angle
O1A C1A O2A 128(2)
O1A C1A C2A 115.0(16)
O2A C1A C2A 115.8(18)
N1A C2A C1A 106.2(17)
N1A C2A C3A 108(2)
C1A C2A C3A 109(2)
N1A C2A H4A 111.2
C1A C2A H4A 111.2
C3A C2A H4A 111.2
C2A N1A H2A 109.5
C2A N1A H3A 109.5
H2A N1A H3A 109.5
C2A N1A H1A 109.5
H2A N1A H1A 109.5
H3A N1A H1A 109.5
O3A C3A C4A 104.3(19)
O3A C3A C2A 100.3(19)
C4A C3A C2A 109(2)
O3A C3A H5A 113.9
C4A C3A H5A 113.9
C2A C3A H5A 113.9
C3A C4A H8A 109.5
C3A C4A H9A 109.5
H8A C4A H9A 109.5
C3A C4A H7A 109.5
H8A C4A H7A 109.5
H9A C4A H7A 109.5
C3A O3A H6A 109.5
O1B C1B O2B 130(2)
O1B C1B C2B 113.4(17)
O2B C1B C2B 116.4(16)
N1B C2B C3B 109.2(19)
N1B C2B C1B 107.3(17)
C3B C2B C1B 110(3)
N1B C2B H4B 110.3
C3B C2B H4B 110.3
C1B C2B H4B 110.3
C2B N1B H3B 109.5
C2B N1B H1B 109.5
H3B N1B H1B 109.5
C2B N1B H2B 109.5
H3B N1B H2B 109.5
H1B N1B H2B 109.5
O3B C3B C4B 103.9(19)
O3B C3B C2B 100.1(19)
C4B C3B C2B 110(2)
O3B C3B H5B 114.0
C4B C3B H5B 114.0
C2B C3B H5B 114.0
C3B C4B H8B 109.5
C3B C4B H9B 109.5
H8B C4B H9B 109.5
C3B C4B H7B 109.5
H8B C4B H7B 109.5
H9B C4B H7B 109.5
C3B O3B H6B 109.5
loop_
_geom_bond_atom_site_label_1
_geom_bond_atom_site_label_2
_geom_bond_distance
C1A O1A 1.193(17)
C1A O2A 1.235(17)
C1A C2A 1.53(2)
C2A N1A 1.467(18)
C2A C3A 1.54(2)
C2A H4A 0.9800
N1A H2A 0.8900
N1A H3A 0.8900
N1A H1A 0.8900
C3A O3A 1.439(19)
C3A C4A 1.529(17)
C3A H5A 0.9800
C4A H8A 0.9600
C4A H9A 0.9600
C4A H7A 0.9600
O3A H6A 0.8200
C1B O1B 1.198(18)
C1B O2B 1.235(16)
C1B C2B 1.54(2)
C2B N1B 1.462(18)
C2B C3B 1.54(2)
C2B H4B 0.9800
N1B H3B 0.8900
N1B H1B 0.8900
N1B H2B 0.8900
C3B O3B 1.44(2)
C3B C4B 1.526(18)
C3B H5B 0.9800
C4B H8B 0.9600
C4B H9B 0.9600
C4B H7B 0.9600
O3B H6B 0.8200
