#------------------------------------------------------------------------------
#$Date: 2019-11-07 21:34:52 +0200 (Thu, 07 Nov 2019) $
#$Revision: 223549 $
#$URL: file:///home/coder/svn-repositories/cod/cif/7/23/20/7232013.cif $
#------------------------------------------------------------------------------
#
# This file is available in the Crystallography Open Database (COD),
# http://www.crystallography.net/
#
# All data on this site have been placed in the public domain by the
# contributors.
#
data_7232013
loop_
_publ_author_name
'Adonin, Sergey A.'
'Bondarenko, Mikhail A.'
'Novikov, Alexander S.'
'Abramov, Pavel A.'
'Plyusnin, Pavel E.'
'Sokolov, Maxim N.'
'Fedin, Vladimir P.'
_publ_section_title
;
 Halogen bonding-assisted assembly of bromoantimonate(v) and
 polybromide-bromoantimonate-based frameworks
;
_journal_issue                   5
_journal_name_full               CrystEngComm
_journal_page_first              850
_journal_paper_doi               10.1039/C8CE01944D
_journal_volume                  21
_journal_year                    2019
_chemical_formula_sum            'C14 H20 Br9 N2 Sb'
_chemical_formula_weight         1057.26
_space_group_crystal_system      triclinic
_space_group_IT_number           2
_space_group_name_Hall           '-P 1'
_space_group_name_H-M_alt        'P -1'
_symmetry_space_group_name_Hall  '-P 1'
_symmetry_space_group_name_H-M   'P -1'
_atom_sites_solution_hydrogens   geom
_atom_sites_solution_primary     direct
_atom_sites_solution_secondary   difmap
_audit_creation_method           SHELXL-2017/1
_audit_update_record
;
2018-10-27 deposited with the CCDC.
2018-12-17 downloaded from the CCDC.
;
_cell_angle_alpha                67.617(9)
_cell_angle_beta                 87.457(8)
_cell_angle_gamma                72.163(10)
_cell_formula_units_Z            1
_cell_length_a                   7.2611(8)
_cell_length_b                   9.0862(10)
_cell_length_c                   11.1895(9)
_cell_measurement_reflns_used    1367
_cell_measurement_temperature    130(2)
_cell_measurement_theta_max      28.2350
_cell_measurement_theta_min      4.3760
_cell_volume                     647.61(13)
_computing_cell_refinement       'CrysAlisPro 1.171.38.41 (Rigaku OD, 2015)'
_computing_data_collection       'CrysAlisPro 1.171.38.41 (Rigaku OD, 2015)'
_computing_data_reduction        'CrysAlisPro 1.171.38.41 (Rigaku OD, 2015)'
_computing_molecular_graphics    'ShelXle (H\"ubschle, 2011)'
_computing_publication_material  'CIFTAB-2014 (Sheldrick, 2014)'
_computing_structure_refinement  'SHELXL-2014 (Sheldrick, 2014)'
_computing_structure_solution    'SHELXS-2014 (Sheldrick, 2014)'
_diffrn_ambient_temperature      130(2)
_diffrn_detector                 'CCD plate'
_diffrn_detector_area_resol_mean 10.6168
_diffrn_detector_type            AtlasS2
_diffrn_measured_fraction_theta_full 0.994
_diffrn_measured_fraction_theta_max 0.819
_diffrn_measurement_device       'four-circle diffractometer'
_diffrn_measurement_device_type  'New Xcalibur, AtlasS2'
_diffrn_measurement_method       '\w scans'
_diffrn_radiation_monochromator  graphite
_diffrn_radiation_probe          x-ray
_diffrn_radiation_source         'fine-focus sealed tube'
_diffrn_radiation_type           MoK\a
_diffrn_radiation_wavelength     0.71073
_diffrn_reflns_av_R_equivalents  0.0311
_diffrn_reflns_av_unetI/netI     0.0614
_diffrn_reflns_Laue_measured_fraction_full 0.994
_diffrn_reflns_Laue_measured_fraction_max 0.819
_diffrn_reflns_limit_h_max       9
_diffrn_reflns_limit_h_min       -9
_diffrn_reflns_limit_k_max       11
_diffrn_reflns_limit_k_min       -9
_diffrn_reflns_limit_l_max       14
_diffrn_reflns_limit_l_min       -13
_diffrn_reflns_number            4812
_diffrn_reflns_point_group_measured_fraction_full 0.994
_diffrn_reflns_point_group_measured_fraction_max 0.819
_diffrn_reflns_theta_full        25.500
_diffrn_reflns_theta_max         28.890
_diffrn_reflns_theta_min         3.391
_diffrn_source                   'sealed X-ray tube'
_exptl_absorpt_coefficient_mu    14.952
_exptl_absorpt_correction_T_max  1.00000
_exptl_absorpt_correction_T_min  0.12768
_exptl_absorpt_correction_type   multi-scan
_exptl_absorpt_process_details
;
CrysAlisPro 1.171.38.41 (Rigaku Oxford Diffraction, 2015)
Empirical absorption correction using spherical harmonics,
implemented in SCALE3 ABSPACK scaling algorithm.
;
_exptl_crystal_colour            orange
_exptl_crystal_density_diffrn    2.711
_exptl_crystal_description       block
_exptl_crystal_F_000             484
_exptl_crystal_size_max          0.500
_exptl_crystal_size_mid          0.200
_exptl_crystal_size_min          0.080
_refine_diff_density_max         1.865
_refine_diff_density_min         -2.545
_refine_diff_density_rms         0.296
_refine_ls_extinction_method     none
_refine_ls_goodness_of_fit_ref   1.015
_refine_ls_hydrogen_treatment    constr
_refine_ls_matrix_type           full
_refine_ls_number_parameters     121
_refine_ls_number_reflns         2792
_refine_ls_number_restraints     0
_refine_ls_restrained_S_all      1.015
_refine_ls_R_factor_all          0.0678
_refine_ls_R_factor_gt           0.0531
_refine_ls_shift/su_max          0.000
_refine_ls_shift/su_mean         0.000
_refine_ls_structure_factor_coef Fsqd
_refine_ls_weighting_details
'w=1/[\s^2^(Fo^2^)+(0.0781P)^2^] where P=(Fo^2^+2Fc^2^)/3'
_refine_ls_weighting_scheme      calc
_refine_ls_wR_factor_gt          0.1248
_refine_ls_wR_factor_ref         0.1371
_reflns_Friedel_coverage         0.000
_reflns_number_gt                2244
_reflns_number_total             2792
_reflns_threshold_expression     >2\s(I)
_cod_data_source_file            c8ce01944d2.cif
_cod_data_source_block           5_a
_cod_depositor_comments
'Adding full bibliography for 7232009--7232019.cif.'
_cod_original_cell_volume        647.61(12)
_cod_database_code               7232013
_shelx_shelxl_version_number     2017/1
_shelx_space_group_comment
;
The symmetry employed for this shelxl refinement is uniquely defined
by the following loop, which should always be used as a source of
symmetry information in preference to the above space-group names.
They are only intended as comments.
;
_shelx_estimated_absorpt_t_min   0.050
_shelx_estimated_absorpt_t_max   0.381
_shelx_res_file
;
TITL 1_a.res in P-1
    1_a.res
    created by SHELXL-2017/1 at 17:31:11 on 04-Sep-2018
REM Old TITL BM75 in P-1
REM SHELXT solution in P-1
REM R1 0.104,  Rweak 0.005,  Alpha 0.037,  Orientation as input
REM Formula found by SHELXT:  C14 N2 Br9 Sb
CELL  0.71073   7.2611   9.0862  11.1895   67.617   87.457   72.163
ZERR    1.000   0.0008   0.0010   0.0009    0.009    0.008    0.010
LATT  1
SFAC C N BR SB H
UNIT 14 2 9 1 20
TEMP -143
L.S. 10
BOND $H
LIST 4
FMAP 2
ACTA 51
PLAN 20
OMIT 4 9 1
OMIT 0 0 2
OMIT 9 3 1
OMIT -1 10 6
OMIT 3 11 11
OMIT -1 -3 11
OMIT -3 4 5
OMIT 1 2 0
OMIT 1 10 1
OMIT -4 7 6
OMIT 7 5 0

SIZE 0.50 0.20 0.08
WGHT    0.078100
FVAR       0.38856
C1    1    0.780709    0.483581    0.925306    11.00000    0.05682    0.03685 =
         0.01517   -0.00102   -0.00863   -0.02271
AFIX 133
H1A   5    0.685156    0.432864    0.973827    11.00000   -1.50000
H1B   5    0.748094    0.599188    0.919456    11.00000   -1.50000
H1C   5    0.910279    0.418941    0.970092    11.00000   -1.50000
AFIX   0
C2    1    0.872527    0.347402    0.771708    11.00000    0.02607    0.01885 =
         0.02271    0.00249   -0.00664   -0.00937
AFIX  43
H2    5    0.944928    0.248794    0.841357    11.00000   -1.20000
AFIX   0
C3    1    0.865548    0.348652    0.647738    11.00000    0.04483    0.02891 =
         0.03749   -0.01703    0.00759   -0.01499
AFIX  43
H3    5    0.931818    0.251207    0.631478    11.00000   -1.20000
AFIX   0
C4    1    0.760558    0.494067    0.548456    11.00000    0.03435    0.03980 =
         0.02088   -0.01028    0.00434   -0.01704
AFIX  43
H4    5    0.754650    0.496629    0.463014    11.00000   -1.20000
AFIX   0
C5    1    0.665102    0.634238    0.571300    11.00000    0.02968    0.02469 =
         0.01961   -0.00576    0.00035   -0.00846
C6    1    0.672995    0.627045    0.695878    11.00000    0.01690    0.01904 =
         0.02611   -0.00729    0.00162   -0.00253
AFIX  43
H6    5    0.604852    0.722339    0.714390    11.00000   -1.20000
AFIX   0
C7    1    0.550006    0.794894    0.465548    11.00000    0.04594    0.02390 =
         0.02530   -0.00301   -0.00492   -0.00671
AFIX 133
H7A   5    0.444833    0.857386    0.502402    11.00000   -1.50000
H7B   5    0.494930    0.769617    0.400044    11.00000   -1.50000
H7C   5    0.635131    0.862539    0.425176    11.00000   -1.50000
AFIX   0
N1    2    0.778582    0.483198    0.792772    11.00000    0.02821    0.01844 =
         0.01572   -0.00077   -0.00480   -0.01046
BR1   3    0.783551   -0.060602    0.864931    11.00000    0.02459    0.02292 =
         0.02348   -0.00243    0.00564   -0.00541
BR2   3    0.382244    0.308094    0.844604    11.00000    0.02642    0.01669 =
         0.01633    0.00127   -0.00331   -0.00496
BR3   3    0.296644   -0.072882    0.864124    11.00000    0.02778    0.02459 =
         0.02218   -0.00351   -0.00816   -0.00993
BR4   3    0.129114    0.718742    0.688939    11.00000    0.03459    0.02331 =
         0.02193   -0.00405   -0.00171   -0.00415
BR5   3    0.000000    1.000000    0.500000    10.50000    0.02663    0.02325 =
         0.01977   -0.00709   -0.00121   -0.00433
SB1   4    0.500000    0.000000    1.000000    10.50000    0.01737    0.01623 =
         0.01321   -0.00049   -0.00217   -0.00500
HKLF 4




REM  1_a.res in P-1
REM R1 =  0.0531 for    2244 Fo > 4sig(Fo)  and  0.0678 for all    2792 data
REM    121 parameters refined using      0 restraints

END

WGHT      0.0790      0.0000

REM Highest difference peak  1.865,  deepest hole -2.545,  1-sigma level  0.296
Q1    1   0.3851  0.0623  1.0416  11.00000  0.05    1.87
Q2    1   0.1892 -0.0206  0.8995  11.00000  0.05    1.62
Q3    1   0.4229 -0.1494  0.8333  11.00000  0.05    1.43
Q4    1   0.4979  0.2264  0.8242  11.00000  0.05    1.39
Q5    1   0.2614  0.3628  0.8823  11.00000  0.05    1.31
Q6    1   0.4744  0.1323  0.8784  11.00000  0.05    1.28
Q7    1   0.0168  0.7863  0.7280  11.00000  0.05    1.24
Q8    1   0.5243  0.3203  0.8753  11.00000  0.05    1.23
Q9    1   0.1117  0.9187  0.4758  11.00000  0.05    1.21
Q10   1   0.2439  0.6777  0.6571  11.00000  0.05    1.20
Q11   1   0.9146 -0.1104  0.8238  11.00000  0.05    1.20
Q12   1   0.8631 -0.0338  0.9031  11.00000  0.05    1.19
Q13   1   0.6822  0.0048  0.8980  11.00000  0.05    1.10
Q14   1   0.7507 -0.1785  0.9233  11.00000  0.05    1.10
Q15   1   0.9496 -0.0599  0.9018  11.00000  0.05    1.07
Q16   1   0.4057 -0.0324  0.9227  11.00000  0.05    1.04
Q17   1   0.4032  0.1893  0.9647  11.00000  0.05    1.00
Q18   1   0.1755  0.5834  0.8370  11.00000  0.05    0.98
Q19   1   0.3286  0.1636  0.8032  11.00000  0.05    0.94
Q20   1   0.6114 -0.0601  0.8272  11.00000  0.05    0.91
;
_shelx_res_checksum              71442
loop_
_space_group_symop_operation_xyz
'x, y, z'
'-x, -y, -z'
loop_
_atom_site_label
_atom_site_type_symbol
_atom_site_fract_x
_atom_site_fract_y
_atom_site_fract_z
_atom_site_U_iso_or_equiv
_atom_site_adp_type
_atom_site_occupancy
_atom_site_site_symmetry_order
_atom_site_calc_flag
_atom_site_refinement_flags_posn
_atom_site_refinement_flags_adp
_atom_site_refinement_flags_occupancy
C1 C 0.7807(15) 0.4836(12) 0.9253(8) 0.037(2) Uani 1 1 d . . .
H1A H 0.685156 0.432864 0.973827 0.055 Uiso 1 1 calc R U .
H1B H 0.748094 0.599188 0.919456 0.055 Uiso 1 1 calc R U .
H1C H 0.910279 0.418941 0.970092 0.055 Uiso 1 1 calc R U .
C2 C 0.8725(12) 0.3474(10) 0.7717(8) 0.0250(18) Uani 1 1 d . . .
H2 H 0.944928 0.248794 0.841357 0.030 Uiso 1 1 calc R U .
C3 C 0.8655(14) 0.3487(12) 0.6477(9) 0.035(2) Uani 1 1 d . . .
H3 H 0.931818 0.251207 0.631478 0.042 Uiso 1 1 calc R U .
C4 C 0.7606(13) 0.4941(11) 0.5485(8) 0.031(2) Uani 1 1 d . . .
H4 H 0.754650 0.496629 0.463014 0.037 Uiso 1 1 calc R U .
C5 C 0.6651(12) 0.6342(10) 0.5713(8) 0.0255(18) Uani 1 1 d . . .
C6 C 0.6730(11) 0.6270(10) 0.6959(8) 0.0219(17) Uani 1 1 d . . .
H6 H 0.604852 0.722339 0.714390 0.026 Uiso 1 1 calc R U .
C7 C 0.5500(14) 0.7949(11) 0.4655(8) 0.035(2) Uani 1 1 d . . .
H7A H 0.444833 0.857386 0.502402 0.052 Uiso 1 1 calc R U .
H7B H 0.494930 0.769617 0.400044 0.052 Uiso 1 1 calc R U .
H7C H 0.635131 0.862539 0.425176 0.052 Uiso 1 1 calc R U .
N1 N 0.7786(10) 0.4832(8) 0.7928(6) 0.0216(14) Uani 1 1 d . . .
Br1 Br 0.78355(12) -0.06060(10) 0.86493(7) 0.0263(2) Uani 1 1 d . . .
Br2 Br 0.38224(12) 0.30809(10) 0.84460(7) 0.0225(2) Uani 1 1 d . . .
Br3 Br 0.29664(12) -0.07288(10) 0.86412(7) 0.0258(2) Uani 1 1 d . . .
Br4 Br 0.12911(13) 0.71874(10) 0.68894(8) 0.0291(2) Uani 1 1 d . . .
Br5 Br 0.000000 1.000000 0.500000 0.0243(3) Uani 1 2 d S . P
Sb1 Sb 0.500000 0.000000 1.000000 0.0172(2) Uani 1 2 d S . P
loop_
_atom_site_aniso_label
_atom_site_aniso_U_11
_atom_site_aniso_U_22
_atom_site_aniso_U_33
_atom_site_aniso_U_23
_atom_site_aniso_U_13
_atom_site_aniso_U_12
C1 0.057(7) 0.037(5) 0.015(4) -0.001(4) -0.009(4) -0.023(5)
C2 0.026(5) 0.019(4) 0.023(4) 0.002(3) -0.007(3) -0.009(4)
C3 0.045(6) 0.029(5) 0.037(5) -0.017(4) 0.008(4) -0.015(5)
C4 0.034(6) 0.040(5) 0.021(4) -0.010(4) 0.004(4) -0.017(5)
C5 0.030(5) 0.025(4) 0.020(4) -0.006(3) 0.000(3) -0.008(4)
C6 0.017(4) 0.019(4) 0.026(4) -0.007(3) 0.002(3) -0.003(3)
C7 0.046(6) 0.024(5) 0.025(5) -0.003(4) -0.005(4) -0.007(4)
N1 0.028(4) 0.018(3) 0.016(3) -0.001(3) -0.005(3) -0.010(3)
Br1 0.0246(5) 0.0229(4) 0.0235(4) -0.0024(3) 0.0056(3) -0.0054(4)
Br2 0.0264(5) 0.0167(4) 0.0163(4) 0.0013(3) -0.0033(3) -0.0050(4)
Br3 0.0278(5) 0.0246(5) 0.0222(4) -0.0035(3) -0.0082(3) -0.0099(4)
Br4 0.0346(5) 0.0233(4) 0.0219(4) -0.0041(3) -0.0017(4) -0.0041(4)
Br5 0.0266(7) 0.0232(6) 0.0198(6) -0.0071(5) -0.0012(5) -0.0043(5)
Sb1 0.0174(4) 0.0162(4) 0.0132(4) -0.0005(3) -0.0022(3) -0.0050(3)
loop_
_atom_type_symbol
_atom_type_description
_atom_type_scat_dispersion_real
_atom_type_scat_dispersion_imag
_atom_type_scat_source
C C 0.0033 0.0016 'International Tables Vol C Tables 4.2.6.8 and 6.1.1.4'
N N 0.0061 0.0033 'International Tables Vol C Tables 4.2.6.8 and 6.1.1.4'
Br Br -0.2901 2.4595 'International Tables Vol C Tables 4.2.6.8 and 6.1.1.4'
Sb Sb -0.5866 1.5461 'International Tables Vol C Tables 4.2.6.8 and 6.1.1.4'
H H 0.0000 0.0000 'International Tables Vol C Tables 4.2.6.8 and 6.1.1.4'
loop_
_geom_angle_atom_site_label_1
_geom_angle_atom_site_label_2
_geom_angle_atom_site_label_3
_geom_angle
_geom_angle_site_symmetry_1
_geom_angle_site_symmetry_3
N1 C1 H1A 109.5 . .
N1 C1 H1B 109.5 . .
H1A C1 H1B 109.5 . .
N1 C1 H1C 109.5 . .
H1A C1 H1C 109.5 . .
H1B C1 H1C 109.5 . .
N1 C2 C3 119.9(8) . .
N1 C2 H2 120.1 . .
C3 C2 H2 120.1 . .
C4 C3 C2 118.7(9) . .
C4 C3 H3 120.6 . .
C2 C3 H3 120.6 . .
C5 C4 C3 120.9(8) . .
C5 C4 H4 119.6 . .
C3 C4 H4 119.6 . .
C4 C5 C6 118.6(8) . .
C4 C5 C7 122.3(8) . .
C6 C5 C7 119.0(8) . .
N1 C6 C5 119.9(8) . .
N1 C6 H6 120.0 . .
C5 C6 H6 120.0 . .
C5 C7 H7A 109.5 . .
C5 C7 H7B 109.5 . .
H7A C7 H7B 109.5 . .
C5 C7 H7C 109.5 . .
H7A C7 H7C 109.5 . .
H7B C7 H7C 109.5 . .
C2 N1 C6 122.0(7) . .
C2 N1 C1 120.8(7) . .
C6 N1 C1 117.2(7) . .
Br4 Br5 Br4 180.0 . 2_576
Br1 Sb1 Br1 180.00(3) . 2_657
Br1 Sb1 Br3 89.00(3) . .
Br1 Sb1 Br3 91.00(3) 2_657 .
Br1 Sb1 Br3 91.01(3) . 2_657
Br1 Sb1 Br3 88.99(3) 2_657 2_657
Br3 Sb1 Br3 180.0 . 2_657
Br1 Sb1 Br2 89.01(3) . 2_657
Br1 Sb1 Br2 90.99(3) 2_657 2_657
Br3 Sb1 Br2 89.55(3) . 2_657
Br3 Sb1 Br2 90.45(3) 2_657 2_657
Br1 Sb1 Br2 90.99(3) . .
Br1 Sb1 Br2 89.01(3) 2_657 .
Br3 Sb1 Br2 90.45(3) . .
Br3 Sb1 Br2 89.55(3) 2_657 .
Br2 Sb1 Br2 180.00(4) 2_657 .
loop_
_geom_bond_atom_site_label_1
_geom_bond_atom_site_label_2
_geom_bond_distance
C1 N1 1.485(10)
C1 H1A 0.9800
C1 H1B 0.9800
C1 H1C 0.9800
C2 N1 1.317(11)
C2 C3 1.386(12)
C2 H2 0.9500
C3 C4 1.379(13)
C3 H3 0.9500
C4 C5 1.364(12)
C4 H4 0.9500
C5 C6 1.373(11)
C5 C7 1.501(12)
C6 N1 1.361(10)
C6 H6 0.9500
C7 H7A 0.9800
C7 H7B 0.9800
C7 H7C 0.9800
Br1 Sb1 2.5475(8)
Br2 Sb1 2.5592(8)
Br3 Sb1 2.5486(7)
Br4 Br5 2.5442(9)
