#------------------------------------------------------------------------------
#$Date: 2019-11-07 21:19:25 +0200 (Thu, 07 Nov 2019) $
#$Revision: 223478 $
#$URL: file:///home/coder/svn-repositories/cod/cif/7/23/23/7232328.cif $
#------------------------------------------------------------------------------
#
# This file is available in the Crystallography Open Database (COD),
# http://www.crystallography.net/
#
# All data on this site have been placed in the public domain by the
# contributors.
#
data_7232328
loop_
_publ_author_name
'Jones, Charlotte L.'
'Skelton, Jonathan M.'
'Parker, Stephen C.'
'Raithby, Paul R.'
'Walsh, Aron'
'Wilson, Chick C.'
'Thomas, Lynne H.'
_publ_section_title
;
 Living in the salt-cocrystal continuum: indecisive organic complexes with
 thermochromic behaviour
;
_journal_issue                   10
_journal_name_full               CrystEngComm
_journal_page_first              1626
_journal_paper_doi               10.1039/C8CE02066C
_journal_volume                  21
_journal_year                    2019
_chemical_formula_moiety         'C7N1Br1H9 1+, C7N2O6H3 1-'
_chemical_formula_sum            'C14 H12 Br N3 O6'
_chemical_formula_weight         398.18
_chemical_name_systematic
'4-bromo-2-methylanilinium 3,5-dinitrobenzoate'
_space_group_crystal_system      monoclinic
_space_group_IT_number           4
_space_group_name_Hall           'P 2yb'
_space_group_name_H-M_alt        'P 1 21 1'
_symmetry_space_group_name_Hall  'P 2yb'
_symmetry_space_group_name_H-M   'P 1 21 1'
_atom_sites_solution_hydrogens   mixed
_audit_creation_method           SHELXL-2014/7
_audit_update_record
;
2017-06-16 deposited with the CCDC.
2019-02-07 downloaded from the CCDC.
;
_cell_angle_alpha                90
_cell_angle_beta                 107.035(4)
_cell_angle_gamma                90
_cell_formula_units_Z            2
_cell_length_a                   10.4081(4)
_cell_length_b                   5.8338(2)
_cell_length_c                   13.2672(5)
_cell_measurement_reflns_used    3371
_cell_measurement_temperature    150.2(3)
_cell_measurement_theta_max      28.1620
_cell_measurement_theta_min      3.8350
_cell_volume                     770.22(5)
_computing_structure_refinement  'SHELXL-2014/7 (Sheldrick, 2014)'
_diffrn_ambient_temperature      150.2(3)
_diffrn_measured_fraction_theta_full 0.998
_diffrn_measured_fraction_theta_max 0.914
_diffrn_measurement_device_type  'Gemini ultra'
_diffrn_radiation_type           MoK\a
_diffrn_radiation_wavelength     0.71073
_diffrn_reflns_av_R_equivalents  0.0361
_diffrn_reflns_av_unetI/netI     0.0608
_diffrn_reflns_Laue_measured_fraction_full 0.998
_diffrn_reflns_Laue_measured_fraction_max 0.914
_diffrn_reflns_limit_h_max       14
_diffrn_reflns_limit_h_min       -13
_diffrn_reflns_limit_k_max       7
_diffrn_reflns_limit_k_min       -7
_diffrn_reflns_limit_l_max       18
_diffrn_reflns_limit_l_min       -17
_diffrn_reflns_number            7649
_diffrn_reflns_point_group_measured_fraction_full 0.988
_diffrn_reflns_point_group_measured_fraction_max 0.842
_diffrn_reflns_theta_full        25.242
_diffrn_reflns_theta_max         29.514
_diffrn_reflns_theta_min         2.949
_exptl_absorpt_coefficient_mu    2.706
_exptl_absorpt_correction_T_max  1.00000
_exptl_absorpt_correction_T_min  0.94588
_exptl_absorpt_correction_type   multi-scan
_exptl_absorpt_process_details
;
CrysAlisPro, Agilent Technologies,
Version 1.171.37.31 (release 14-01-2014 CrysAlis171 .NET)
(compiled Jan 14 2014,18:38:05)
Empirical absorption correction using spherical harmonics,
 implemented in SCALE3 ABSPACK scaling algorithm.
;
_exptl_crystal_colour            colourless
_exptl_crystal_density_diffrn    1.717
_exptl_crystal_description       block
_exptl_crystal_F_000             400
_exptl_crystal_recrystallization_method
'Re-crystallisation from solvent: methanol'
_exptl_crystal_size_max          0.2
_exptl_crystal_size_mid          0.2
_exptl_crystal_size_min          0.2
_refine_diff_density_max         0.405
_refine_diff_density_min         -0.376
_refine_diff_density_rms         0.078
_refine_ls_abs_structure_details
;
 Flack x determined using 1096 quotients [(I+)-(I-)]/[(I+)+(I-)]
 (Parsons, Flack and Wagner, Acta Cryst. B69 (2013) 249-259).
;
_refine_ls_abs_structure_Flack   0.003(7)
_refine_ls_extinction_method     none
_refine_ls_goodness_of_fit_ref   1.033
_refine_ls_hydrogen_treatment    mixed
_refine_ls_matrix_type           full
_refine_ls_number_parameters     230
_refine_ls_number_reflns         3622
_refine_ls_number_restraints     1
_refine_ls_restrained_S_all      1.033
_refine_ls_R_factor_all          0.0488
_refine_ls_R_factor_gt           0.0385
_refine_ls_shift/su_max          0.000
_refine_ls_shift/su_mean         0.000
_refine_ls_structure_factor_coef Fsqd
_refine_ls_weighting_details
'w=1/[\s^2^(Fo^2^)+(0.0175P)^2^] where P=(Fo^2^+2Fc^2^)/3'
_refine_ls_weighting_scheme      calc
_refine_ls_wR_factor_gt          0.0565
_refine_ls_wR_factor_ref         0.0613
_reflns_Friedel_coverage         0.685
_reflns_Friedel_fraction_full    0.976
_reflns_Friedel_fraction_max     0.755
_reflns_number_gt                3192
_reflns_number_total             3622
_reflns_threshold_expression     'I > 2\s(I)'
_cod_data_source_file            c8ce02066c2.cif
_cod_data_source_block           4Br2MA_35DNBA_22
_cod_depositor_comments
'Adding full bibliography for 7232328--7232334.cif.'
_cod_original_cell_volume        770.23(5)
_cod_database_code               7232328
_shelx_shelxl_version_number     2014/7
_shelx_space_group_comment
;
The symmetry employed for this shelxl refinement is uniquely defined
by the following loop, which should always be used as a source of
symmetry information in preference to the above space-group names.
They are only intended as comments.
;
_shelx_res_file
;

    shelx.res created by SHELXL-2014/7


TITL p14ccw101 in P2(1)
CELL  0.71073  10.4080   5.8340  13.2670   90.000  107.035   90.000
ZERR     2.00   0.0050   0.0050   0.0050    0.005    0.005    0.005
LATT  -1
SYMM  - X, 1/2 + Y, - Z
SFAC  C    H    N    O    BR
UNIT  28 24 6 12 2
MERG   2
HTAB
EQIV $1 x, y+1, z
HTAB C6 O2_$1
HTAB N1 O2_$1
HTAB N1 O1
EQIV $2 -x+1, y+1/2, -z+2
HTAB N1 O1_$2
FMAP   2
PLAN   25
ACTA
HTAB    2.00000
L.S.  10
WGHT    0.017500
FVAR       3.84460
BR1   5   -0.211463    0.765901    0.800234    11.00000    0.02009    0.03601 =
         0.03575   -0.00685    0.00781   -0.00943
C1    1    0.211514    1.092613    0.907647    11.00000    0.01791    0.01426 =
         0.01707   -0.00137    0.00181   -0.00113
C2    1    0.188784    0.896664    0.959094    11.00000    0.01864    0.01684 =
         0.01981    0.00107    0.00649    0.00288
C3    1    0.060156    0.803294    0.926973    11.00000    0.02219    0.02076 =
         0.02367   -0.00069    0.01014   -0.00171
AFIX  43
H3    2    0.041249    0.670954    0.959042    11.00000   -1.20000
AFIX   0
C4    1   -0.039428    0.906436    0.847690    11.00000    0.01557    0.02350 =
         0.02374   -0.00800    0.00605   -0.00472
C5    1   -0.017313    1.105601    0.801198    11.00000    0.02005    0.03320 =
         0.01896    0.00395   -0.00179   -0.00249
AFIX  43
H5    2   -0.087114    1.177473    0.750896    11.00000   -1.20000
AFIX   0
C6    1    0.110863    1.198893    0.830202    11.00000    0.02265    0.02584 =
         0.02206    0.00529    0.00217   -0.00330
AFIX  43
H6    2    0.128831    1.331534    0.797860    11.00000   -1.20000
AFIX   0
C7    1    0.298240    0.781493    1.044190    11.00000    0.02273    0.02876 =
         0.03291    0.01450    0.00783    0.00459
AFIX 137
H7A   2    0.356470    0.698883    1.012754    11.00000   -1.50000
H7B   2    0.258784    0.676903    1.082501    11.00000   -1.50000
H7C   2    0.349206    0.895315    1.091531    11.00000   -1.50000
AFIX   0
N1    3    0.348460    1.182598    0.930949    11.00000    0.01758    0.01680 =
         0.01851    0.00169    0.00070   -0.00144
C8    1    0.402283    0.725325    0.797578    11.00000    0.01684    0.02304 =
         0.01960    0.00011    0.00819    0.00190
O1    4    0.484519    0.817273    0.877088    11.00000    0.01903    0.02523 =
         0.01799    0.00193    0.00003    0.00138
O2    4    0.355509    0.527262    0.793413    11.00000    0.03157    0.01807 =
         0.02728    0.00546    0.00385   -0.00574
C9    1    0.357020    0.870878    0.698923    11.00000    0.01397    0.01653 =
         0.01707   -0.00233    0.00547    0.00060
C10   1    0.243888    0.809807    0.617703    11.00000    0.01779    0.02298 =
         0.01905   -0.00285    0.00810   -0.00397
AFIX  43
H10   2    0.194877    0.679105    0.622534    11.00000   -1.20000
AFIX   0
C11   1    0.206195    0.948969    0.529414    11.00000    0.01610    0.02176 =
         0.01444   -0.00052    0.00277    0.00090
C12   1    0.274431    1.142705    0.517062    11.00000    0.01984    0.01970 =
         0.01815    0.00357    0.00607    0.00261
AFIX  43
H12   2    0.246337    1.233417    0.456952    11.00000   -1.20000
AFIX   0
C13   1    0.387687    1.195867    0.599199    11.00000    0.02043    0.01494 =
         0.01921   -0.00078    0.00877   -0.00113
C14   1    0.429893    1.063288    0.688921    11.00000    0.01824    0.01996 =
         0.01424   -0.00465    0.00231    0.00092
AFIX  43
H14   2    0.506847    1.103024    0.742339    11.00000   -1.20000
AFIX   0
N2    3    0.086896    0.885185    0.442482    11.00000    0.02010    0.04181 =
         0.01611   -0.00621    0.00312   -0.00827
O3    4    0.038082    0.695871    0.445127    11.00000    0.04576    0.06157 =
         0.02578    0.00306   -0.00110   -0.03562
O4    4    0.044365    1.023765    0.370762    11.00000    0.02819    0.04694 =
         0.02009    0.00262   -0.00047    0.00369
N3    3    0.464714    1.399492    0.588292    11.00000    0.03127    0.01854 =
         0.02573   -0.00284    0.01482   -0.00587
O5    4    0.417900    1.525444    0.512924    11.00000    0.03727    0.02447 =
         0.03499    0.00933    0.01787   -0.00003
O6    4    0.572432    1.433101    0.655614    11.00000    0.03635    0.04153 =
         0.03209    0.00076    0.00411   -0.02189
H1B   2    0.352221    1.298477    0.896156    11.00000    0.03936
H1A   2    0.406265    1.070444    0.912226    11.00000    0.05079
H1C   2    0.387845    1.219498    0.999382    11.00000    0.05819
HKLF    4

REM  p14ccw101 in P2(1)
REM R1 =  0.0385 for    3192 Fo > 4sig(Fo)  and  0.0488 for all    3622 data
REM    230 parameters refined using      1 restraints

END

WGHT      0.0174      0.0000

REM Instructions for potential hydrogen bonds
HTAB C6 O2_$1
HTAB N1 O2_$1
HTAB N1 O1
HTAB N1 O1_$2

REM Highest difference peak  0.405,  deepest hole -0.376,  1-sigma level  0.078
Q1    1   0.1336  1.1664  0.2999  11.00000  0.05    0.36
Q2    1  -0.0368  1.2680  0.3194  11.00000  0.05    0.34
Q3    1   0.3929  0.9045  1.1772  11.00000  0.05    0.31
Q4    1   0.3622  1.2660  0.9207  11.00000  0.05    0.31
Q5    1   0.4786  0.5762  0.8804  11.00000  0.05    0.29
Q6    1  -0.1101  0.7589  0.7810  11.00000  0.05    0.29
Q7    1   0.2418  0.7698  1.1520  11.00000  0.05    0.28
Q8    1  -0.2222  0.5780  0.7863  11.00000  0.05    0.28
Q9    1  -0.2282  0.9755  0.8038  11.00000  0.05    0.28
Q10   1   0.4068  1.1717  0.6547  11.00000  0.05    0.28
Q11   1  -0.1982  1.2699  0.7658  11.00000  0.05    0.27
Q12   1  -0.1927  1.1353  0.6795  11.00000  0.05    0.27
Q13   1  -0.2004  0.5797  0.8588  11.00000  0.05    0.27
Q14   1  -0.3396  0.7289  0.6759  11.00000  0.05    0.27
Q15   1   0.2845  0.9712  1.1334  11.00000  0.05    0.26
Q16   1   0.3600  1.2518  0.4064  11.00000  0.05    0.26
Q17   1  -0.0865  0.7897  1.0199  11.00000  0.05    0.26
Q18   1   0.3370  1.2091  1.1021  11.00000  0.05    0.26
Q19   1   0.2985  0.5977  0.7551  11.00000  0.05    0.26
Q20   1   0.5643  1.2620  0.6621  11.00000  0.05    0.26
Q21   1  -0.3060  0.7644  0.8198  11.00000  0.05    0.26
Q22   1   0.3633  1.0066  0.6946  11.00000  0.05    0.25
Q23   1  -0.0901  1.2090  0.8180  11.00000  0.05    0.25
Q24   1   0.4695  0.7632  0.9769  11.00000  0.05    0.25
Q25   1   0.1624  0.6433  0.6553  11.00000  0.05    0.25
;
_shelx_res_checksum              26468
loop_
_space_group_symop_operation_xyz
'x, y, z'
'-x, y+1/2, -z'
loop_
_atom_site_label
_atom_site_type_symbol
_atom_site_fract_x
_atom_site_fract_y
_atom_site_fract_z
_atom_site_U_iso_or_equiv
_atom_site_adp_type
_atom_site_occupancy
_atom_site_site_symmetry_order
_atom_site_calc_flag
_atom_site_refinement_flags_posn
_atom_site_refinement_flags_adp
Br1 Br -0.21146(4) 0.76590(9) 0.80023(3) 0.03070(12) Uani 1 1 d . .
C1 C 0.2115(4) 1.0926(6) 0.9076(3) 0.0171(9) Uani 1 1 d . .
C2 C 0.1888(4) 0.8967(6) 0.9591(3) 0.0182(8) Uani 1 1 d . .
C3 C 0.0602(4) 0.8033(8) 0.9270(3) 0.0215(10) Uani 1 1 d . .
H3 H 0.0412 0.6710 0.9590 0.026 Uiso 1 1 calc R U
C4 C -0.0394(4) 0.9064(7) 0.8477(3) 0.0209(9) Uani 1 1 d . .
C5 C -0.0173(4) 1.1056(7) 0.8012(3) 0.0257(10) Uani 1 1 d . .
H5 H -0.0871 1.1775 0.7509 0.031 Uiso 1 1 calc R U
C6 C 0.1109(4) 1.1989(7) 0.8302(3) 0.0245(10) Uani 1 1 d . .
H6 H 0.1288 1.3315 0.7979 0.029 Uiso 1 1 calc R U
C7 C 0.2982(4) 0.7815(10) 1.0442(3) 0.0282(9) Uani 1 1 d . .
H7A H 0.3565 0.6989 1.0128 0.042 Uiso 1 1 calc R U
H7B H 0.2588 0.6769 1.0825 0.042 Uiso 1 1 calc R U
H7C H 0.3492 0.8953 1.0915 0.042 Uiso 1 1 calc R U
N1 N 0.3485(4) 1.1826(7) 0.9309(3) 0.0186(8) Uani 1 1 d . .
C8 C 0.4023(4) 0.7253(7) 0.7976(3) 0.0192(10) Uani 1 1 d . .
O1 O 0.4845(3) 0.8173(4) 0.8771(2) 0.0219(7) Uani 1 1 d . .
O2 O 0.3555(3) 0.5273(5) 0.7934(2) 0.0267(7) Uani 1 1 d . .
C9 C 0.3570(4) 0.8709(6) 0.6989(3) 0.0157(8) Uani 1 1 d . .
C10 C 0.2439(4) 0.8098(7) 0.6177(3) 0.0194(10) Uani 1 1 d . .
H10 H 0.1949 0.6791 0.6225 0.023 Uiso 1 1 calc R U
C11 C 0.2062(4) 0.9490(6) 0.5294(3) 0.0178(9) Uani 1 1 d . .
C12 C 0.2744(4) 1.1427(6) 0.5171(3) 0.0191(9) Uani 1 1 d . .
H12 H 0.2463 1.2334 0.4570 0.023 Uiso 1 1 calc R U
C13 C 0.3877(4) 1.1959(6) 0.5992(3) 0.0176(9) Uani 1 1 d . .
C14 C 0.4299(4) 1.0633(6) 0.6889(3) 0.0180(9) Uani 1 1 d . .
H14 H 0.5068 1.1030 0.7423 0.022 Uiso 1 1 calc R U
N2 N 0.0869(4) 0.8852(7) 0.4425(3) 0.0265(9) Uani 1 1 d . .
O3 O 0.0381(4) 0.6959(7) 0.4451(3) 0.0468(12) Uani 1 1 d . .
O4 O 0.0444(3) 1.0238(5) 0.3708(2) 0.0334(8) Uani 1 1 d . .
N3 N 0.4647(4) 1.3995(6) 0.5883(3) 0.0238(8) Uani 1 1 d . .
O5 O 0.4179(3) 1.5254(5) 0.5129(2) 0.0307(7) Uani 1 1 d . .
O6 O 0.5724(3) 1.4331(5) 0.6556(2) 0.0379(8) Uani 1 1 d . .
H1B H 0.352(5) 1.298(10) 0.896(4) 0.039(16) Uiso 1 1 d . .
H1A H 0.406(5) 1.070(8) 0.912(4) 0.051(16) Uiso 1 1 d . .
H1C H 0.388(5) 1.219(10) 0.999(4) 0.058(16) Uiso 1 1 d . .
loop_
_atom_site_aniso_label
_atom_site_aniso_U_11
_atom_site_aniso_U_22
_atom_site_aniso_U_33
_atom_site_aniso_U_23
_atom_site_aniso_U_13
_atom_site_aniso_U_12
Br1 0.02009(19) 0.0360(2) 0.0357(2) -0.0068(3) 0.00781(15) -0.0094(2)
C1 0.018(2) 0.014(2) 0.017(2) -0.0014(16) 0.0018(16) -0.0011(16)
C2 0.019(2) 0.017(2) 0.020(2) 0.0011(17) 0.0065(16) 0.0029(17)
C3 0.022(2) 0.021(3) 0.0237(19) -0.0007(18) 0.0101(15) -0.0017(18)
C4 0.016(2) 0.024(2) 0.024(2) -0.0080(18) 0.0061(17) -0.0047(18)
C5 0.020(2) 0.033(3) 0.019(2) 0.0040(19) -0.0018(18) -0.0025(19)
C6 0.023(2) 0.026(3) 0.022(2) 0.0053(16) 0.0022(17) -0.0033(16)
C7 0.0227(19) 0.029(2) 0.033(2) 0.015(3) 0.0078(16) 0.005(3)
N1 0.0176(19) 0.0168(18) 0.019(2) 0.0017(15) 0.0007(15) -0.0014(14)
C8 0.0168(18) 0.023(3) 0.0196(18) 0.0001(18) 0.0082(15) 0.0019(18)
O1 0.0190(13) 0.0252(19) 0.0180(13) 0.0019(11) 0.0000(11) 0.0014(11)
O2 0.0316(17) 0.0181(15) 0.0273(16) 0.0055(13) 0.0038(13) -0.0057(13)
C9 0.0140(19) 0.0165(19) 0.0171(19) -0.0023(15) 0.0055(15) 0.0006(15)
C10 0.0178(19) 0.023(3) 0.0191(18) -0.0028(16) 0.0081(14) -0.0040(16)
C11 0.016(2) 0.022(2) 0.0144(19) -0.0005(16) 0.0028(16) 0.0009(17)
C12 0.020(2) 0.020(2) 0.018(2) 0.0036(16) 0.0061(17) 0.0026(17)
C13 0.020(2) 0.015(2) 0.0192(19) -0.0008(15) 0.0088(16) -0.0011(15)
C14 0.018(2) 0.020(2) 0.0142(19) -0.0046(16) 0.0023(16) 0.0009(17)
N2 0.020(2) 0.042(2) 0.0161(19) -0.0062(18) 0.0031(16) -0.0083(18)
O3 0.046(2) 0.062(3) 0.0258(17) 0.0031(16) -0.0011(16) -0.036(2)
O4 0.0282(18) 0.0469(19) 0.0201(16) 0.0026(15) -0.0005(13) 0.0037(15)
N3 0.031(2) 0.0185(18) 0.026(2) -0.0028(16) 0.0148(17) -0.0059(17)
O5 0.0373(18) 0.0245(16) 0.0350(18) 0.0093(14) 0.0179(15) 0.0000(14)
O6 0.036(2) 0.0415(19) 0.0321(19) 0.0008(15) 0.0041(15) -0.0219(16)
loop_
_atom_type_symbol
_atom_type_description
_atom_type_scat_dispersion_real
_atom_type_scat_dispersion_imag
_atom_type_scat_source
C C 0.0033 0.0016 'International Tables Vol C Tables 4.2.6.8 and 6.1.1.4'
H H 0.0000 0.0000 'International Tables Vol C Tables 4.2.6.8 and 6.1.1.4'
N N 0.0061 0.0033 'International Tables Vol C Tables 4.2.6.8 and 6.1.1.4'
O O 0.0106 0.0060 'International Tables Vol C Tables 4.2.6.8 and 6.1.1.4'
Br Br -0.2901 2.4595 'International Tables Vol C Tables 4.2.6.8 and 6.1.1.4'
loop_
_geom_angle_atom_site_label_1
_geom_angle_atom_site_label_2
_geom_angle_atom_site_label_3
_geom_angle
C6 C1 C2 122.3(4)
C6 C1 N1 118.4(4)
C2 C1 N1 119.2(3)
C1 C2 C3 117.4(3)
C1 C2 C7 122.4(4)
C3 C2 C7 120.2(4)
C4 C3 C2 120.2(4)
C5 C4 C3 121.8(4)
C5 C4 Br1 119.0(3)
C3 C4 Br1 119.3(3)
C4 C5 C6 119.0(4)
C1 C6 C5 119.3(4)
O2 C8 O1 126.0(4)
O2 C8 C9 117.5(3)
O1 C8 C9 116.5(4)
C14 C9 C10 119.9(3)
C14 C9 C8 119.8(3)
C10 C9 C8 120.3(3)
C11 C10 C9 118.1(4)
C12 C11 C10 123.8(3)
C12 C11 N2 117.5(3)
C10 C11 N2 118.6(4)
C11 C12 C13 116.2(3)
C14 C13 C12 122.4(4)
C14 C13 N3 119.7(3)
C12 C13 N3 117.9(3)
C13 C14 C9 119.6(3)
O3 N2 O4 124.0(4)
O3 N2 C11 117.9(4)
O4 N2 C11 118.0(4)
O5 N3 O6 124.1(4)
O5 N3 C13 118.1(3)
O6 N3 C13 117.9(3)
loop_
_geom_bond_atom_site_label_1
_geom_bond_atom_site_label_2
_geom_bond_distance
Br1 C4 1.901(4)
C1 C6 1.381(5)
C1 C2 1.387(5)
C1 N1 1.464(5)
C2 C3 1.392(5)
C2 C7 1.507(5)
C3 C4 1.380(5)
C4 C5 1.366(6)
C5 C6 1.387(6)
C8 O2 1.249(5)
C8 O1 1.267(4)
C8 C9 1.515(5)
C9 C14 1.383(5)
C9 C10 1.390(5)
C10 C11 1.384(5)
C11 C12 1.370(5)
C11 N2 1.474(5)
C12 C13 1.386(5)
C13 C14 1.379(5)
C13 N3 1.464(5)
N2 O3 1.220(5)
N2 O4 1.228(5)
N3 O5 1.221(4)
N3 O6 1.227(4)
loop_
_geom_hbond_atom_site_label_D
_geom_hbond_atom_site_label_H
_geom_hbond_atom_site_label_A
_geom_hbond_distance_DH
_geom_hbond_distance_HA
_geom_hbond_distance_DA
_geom_hbond_angle_DHA
_geom_hbond_site_symmetry_A
C6 H6 O2 0.93 2.64 3.335(5) 132.3 1_565
N1 H1B O2 0.83(6) 1.92(6) 2.731(5) 169(4) 1_565
N1 H1A O1 0.97(5) 1.81(5) 2.766(5) 167(4) .
N1 H1C O1 0.91(5) 1.87(5) 2.744(4) 161(5) 2_657
