#------------------------------------------------------------------------------
#$Date: 2019-11-07 21:58:40 +0200 (Thu, 07 Nov 2019) $
#$Revision: 223668 $
#$URL: file:///home/coder/svn-repositories/cod/cif/7/23/27/7232732.cif $
#------------------------------------------------------------------------------
#
# This file is available in the Crystallography Open Database (COD),
# http://www.crystallography.net/
#
# All data on this site have been placed in the public domain by the
# contributors.
#
data_7232732
loop_
_publ_author_name
'Giordano, Nico'
'Beavers, Christine M.'
'Kamenev, Konstantin V.'
'Marshall, William G.'
'Moggach, Stephen A.'
'Patterson, Simon D.'
'Teat, Simon J.'
'Warren, John E.'
'Wood, Peter A.'
'Parsons, Simon'
_publ_section_title
;
 High-pressure polymorphism in l-threonine between ambient pressure and 22
 GPa
;
_journal_issue                   30
_journal_name_full               CrystEngComm
_journal_page_first              4444
_journal_paper_doi               10.1039/C9CE00388F
_journal_volume                  21
_journal_year                    2019
_chemical_absolute_configuration ,
_chemical_formula_sum            'C4 H9 N O3'
_chemical_formula_weight         119.12
_space_group_crystal_system      orthorhombic
_space_group_IT_number           19
_space_group_name_Hall           'P 2ac 2ab'
_space_group_name_H-M_alt        'P 21 21 21'
_symmetry_space_group_name_Hall  'P 2ac 2ab'
_symmetry_space_group_name_H-M   'P 21 21 21'
_atom_sites_solution_hydrogens   geom
_audit_creation_method           SHELXL-2014/7
_audit_update_record
;
2019-03-15 deposited with the CCDC.    2019-05-09 downloaded from the CCDC.
;
_cell_angle_alpha                90
_cell_angle_beta                 90
_cell_angle_gamma                90
_cell_formula_units_Z            4
_cell_length_a                   5.0359(6)
_cell_length_b                   13.462(3)
_cell_length_c                   7.2375(16)
_cell_measurement_reflns_used    1244
_cell_measurement_temperature    296(2)
_cell_measurement_theta_max      17.360
_cell_measurement_theta_min      2.780
_cell_volume                     490.65(16)
_computing_cell_refinement       'SAINT v7.60A (Bruker, 2009)'
_computing_data_reduction        'SAINT v7.60A (Bruker, 2009)'
_computing_structure_refinement  'SHELXL-2014/7 (Sheldrick, 2014)'
_computing_structure_solution    'SHELXT-2014/7 (Sheldrick, 2014)'
_diffrn_ambient_pressure         2.05
_diffrn_ambient_temperature      296(2)
_diffrn_measured_fraction_theta_full 0.590
_diffrn_measured_fraction_theta_max 0.604
_diffrn_measurement_device_type  'Bruker-Nonius APEX II''
_diffrn_measurement_method       '\f and \w scans'
_diffrn_radiation_type           synchrotron
_diffrn_radiation_wavelength     0.478
_diffrn_reflns_av_R_equivalents  0.0547
_diffrn_reflns_av_unetI/netI     0.0562
_diffrn_reflns_Laue_measured_fraction_full 0.590
_diffrn_reflns_Laue_measured_fraction_max 0.604
_diffrn_reflns_limit_h_max       6
_diffrn_reflns_limit_h_min       -6
_diffrn_reflns_limit_k_max       14
_diffrn_reflns_limit_k_min       -15
_diffrn_reflns_limit_l_max       8
_diffrn_reflns_limit_l_min       -8
_diffrn_reflns_number            2455
_diffrn_reflns_point_group_measured_fraction_full 0.613
_diffrn_reflns_point_group_measured_fraction_max 0.620
_diffrn_reflns_theta_full        16.666
_diffrn_reflns_theta_max         17.472
_diffrn_reflns_theta_min         2.779
_exptl_absorpt_coefficient_mu    0.065
_exptl_absorpt_correction_T_max  0.7441
_exptl_absorpt_correction_T_min  0.6039
_exptl_absorpt_correction_type   multi-scan
_exptl_absorpt_process_details
;
SADABS-2008/1 (Bruker,2008) was used for absorption correction.
wR2(int) was 0.1462 before and 0.0589 after correction.
The Ratio of minimum to maximum transmission is 0.8116.
The \l/2 correction factor is 0.0000.
;
_exptl_crystal_colour            colourless
_exptl_crystal_density_diffrn    1.613
_exptl_crystal_description       blade
_exptl_crystal_F_000             256
_exptl_crystal_size_max          0.100
_exptl_crystal_size_mid          0.100
_exptl_crystal_size_min          0.100
_refine_diff_density_max         0.330
_refine_diff_density_min         -0.267
_refine_diff_density_rms         0.073
_refine_ls_abs_structure_details
;
 Flack x determined using 192 quotients [(I+)-(I-)]/[(I+)+(I-)]
 (Parsons, Flack and Wagner, Acta Cryst. B69 (2013) 249-259).
;
_refine_ls_abs_structure_Flack   0.5(10)
_refine_ls_extinction_method     none
_refine_ls_goodness_of_fit_ref   1.089
_refine_ls_hydrogen_treatment    constr
_refine_ls_matrix_type           full
_refine_ls_number_parameters     33
_refine_ls_number_reflns         627
_refine_ls_number_restraints     17
_refine_ls_restrained_S_all      1.075
_refine_ls_R_factor_all          0.0810
_refine_ls_R_factor_gt           0.0640
_refine_ls_shift/su_max          0.000
_refine_ls_shift/su_mean         0.000
_refine_ls_structure_factor_coef Fsqd
_refine_ls_weighting_details
'w=1/[\s^2^(Fo^2^)+1.3848P] where P=(Fo^2^+2Fc^2^)/3'
_refine_ls_weighting_scheme      calc
_refine_ls_wR_factor_gt          0.1350
_refine_ls_wR_factor_ref         0.1506
_reflns_Friedel_coverage         0.668
_reflns_Friedel_fraction_full    0.651
_reflns_Friedel_fraction_max     0.647
_reflns_number_gt                542
_reflns_number_total             627
_reflns_threshold_expression     'I > 2\s(I)'
_cod_data_source_file            c9ce00388f5.cif
_cod_data_source_block           2_05GPa
_cod_depositor_comments
'Adding full bibliography for 7232730--7232750.cif.'
_cod_original_cell_volume        490.67(16)
_cod_database_code               7232732
_shelx_shelxl_version_number     2014/7
_shelx_space_group_comment
;
The symmetry employed for this shelxl refinement is uniquely defined
by the following loop, which should always be used as a source of
symmetry information in preference to the above space-group names.
They are only intended as comments.
;
_shelx_estimated_absorpt_t_min   0.993
_shelx_estimated_absorpt_t_max   0.993
_shelx_res_file
;

    sample2_a.res created by SHELXL-2014/7


TITL sample2_a.res in P2(1)2(1)2(1)
REM Old TITL sample2 in P2(1)2(1)2(1)

REM SHELXT solution in P2(1)2(1)2(1)
REM R1 0.169,  Rweak 0.013,  Alpha 0.016,  Orientation as input
REM Flack x = -0.111 ( 1.008 ) from Parsons' quotients
REM Formula found by SHELXT:  C5 O3

CELL  0.4780   5.0359  13.4625   7.2375   90.000   90.000   90.000
ZERR    4.000   0.0006   0.0030   0.0016    0.000    0.000    0.000
LATT -1
SYMM 1/2-X, -Y, 1/2+Z
SYMM -X, 1/2+Y, 1/2-Z
SYMM 1/2+X, 1/2-Y, -Z
SFAC C H N O
DISP $C  0.00075  0.00071  6.12991!source kissel
DISP $H -0.00003  0.00000  0.65236!source kissel
DISP $N  0.00191  0.00145  9.11183!source kissel
DISP $O  0.00388  0.00267 13.58435!source kissel
UNIT 16 36 4 12
TEMP 23.000
L.S. 10
BOND $H
LIST 6
ACTA
OMIT 5 0 1
OMIT 2 10 4
OMIT -1 2 5
OMIT -1 2 1
OMIT -3 12 2
OMIT -1 7 1
OMIT -1 3 6
OMIT 4 6 3
OMIT 2 2 1
OMIT 3 8 6
OMIT 1 6 3
OMIT 5 1 0
OMIT -5 1 1
OMIT 4 4 2
OMIT 4 0 5
OMIT 5 1 1
OMIT 5 2 0
OMIT 3 1 5
OMIT 4 7 5
OMIT 3 2 6
OMIT -1 4 2
OMIT 3 4 3
OMIT 2 2 0
DFIX 1.241 C1 O1
DFIX 1.249 C1 O2
DFIX 1.536 C1 C2
DFIX 1.489 C2 N1
DFIX 1.53 C2 C3
DFIX 1.424 C3 O3
DFIX 1.513 C3 C4
DFIX 2.229 0.04 O1 O2
DFIX 2.368 0.04 O1 C2
DFIX 2.37 0.04 O2 C2
DFIX 2.477 0.04 C1 N1
DFIX 2.553 0.04 C1 C3
DFIX 2.453 0.04 N1 C3
DFIX 2.332 0.04 C2 O3
DFIX 2.543 0.04 C2 C4
DFIX 2.332 0.04 O3 C2
DFIX 2.421 0.04 O3 C4
SIZE 0.1 0.1 0.1
RIGU
FMAP 2
PLAN 20
WGHT    0.000000    1.384800
FVAR       3.77875
C1    1    0.312032    0.501212    0.662145    11.00000    0.01293
O1    4    0.489718    0.563743    0.693556    11.00000    0.02370
O2    4    0.068040    0.514942    0.680388    11.00000    0.02391
C2    1    0.403471    0.400103    0.592893    11.00000    0.01376
AFIX  13
H4    2    0.272246    0.375423    0.504066    11.00000   -1.20000
AFIX   0
N1    3    0.663326    0.409288    0.496918    11.00000    0.01781
AFIX  33
H3    2    0.649718    0.453503    0.405990    11.00000   -1.50000
H1    2    0.786326    0.429253    0.577031    11.00000   -1.50000
H2    2    0.709496    0.350607    0.450279    11.00000   -1.50000
AFIX   0
C3    1    0.429988    0.324424    0.747581    11.00000    0.01833
AFIX  13
H5    2    0.549054    0.350491    0.843080    11.00000   -1.20000
AFIX   0
O3    4    0.551089    0.240685    0.660261    11.00000    0.02406
AFIX  83
H6    2    0.558404    0.194331    0.733582    11.00000   -1.50000
AFIX   0
C4    1    0.167636    0.297345    0.833292    11.00000    0.02733
AFIX  33
H8    2    0.091484    0.354981    0.890672    11.00000   -1.50000
H9    2    0.049676    0.273175    0.739291    11.00000   -1.50000
H7    2    0.194333    0.246598    0.924608    11.00000   -1.50000
AFIX   0
HKLF 4

REM  sample2_a.res in P2(1)2(1)2(1)
REM R1 =  0.0640 for     542 Fo > 4sig(Fo)  and  0.0810 for all     627 data
REM     33 parameters refined using     17 restraints

END

WGHT      0.0000      1.3897

REM Highest difference peak  0.330,  deepest hole -0.267,  1-sigma level  0.073
Q1    1   0.0805  0.4955  0.7737  11.00000  0.05    0.33
Q2    1   0.0773  0.5386  0.6185  11.00000  0.05    0.32
Q3    1   0.4845  0.5372  0.7673  11.00000  0.05    0.32
Q4    1   0.4769  0.3797  0.8363  11.00000  0.05    0.27
Q5    1   0.4351  0.3639  0.6652  11.00000  0.05    0.25
Q6    1   0.5001  0.5758  0.6013  11.00000  0.05    0.25
Q7    1   0.7198  0.4766  0.5868  11.00000  0.05    0.23
Q8    1   0.3331  0.2975  0.4236  11.00000  0.05    0.23
Q9    1   0.6191  0.2565  0.7274  11.00000  0.05    0.22
Q10   1   0.5817  0.2998  0.7976  11.00000  0.05    0.22
Q11   1   0.6341  0.1077  0.6623  11.00000  0.05    0.22
Q12   1   0.5999  0.2780  0.7641  11.00000  0.05    0.21
Q13   1   0.4658  0.2290  0.6172  11.00000  0.05    0.21
Q14   1   0.1970  0.2018  0.9252  11.00000  0.05    0.20
Q15   1   0.8360  0.3800  0.6780  11.00000  0.05    0.19
Q16   1   0.0622  0.3736  0.7284  11.00000  0.05    0.19
Q17   1   0.6413  0.4265  0.4156  11.00000  0.05    0.19
Q18   1   0.6193  0.1365  0.8232  11.00000  0.05    0.19
Q19   1   0.5627  0.4272  0.6897  11.00000  0.05    0.19
Q20   1   0.5287  0.2408  0.4598  11.00000  0.05    0.19
;
_shelx_res_checksum              33834
loop_
_space_group_symop_operation_xyz
'x, y, z'
'-x+1/2, -y, z+1/2'
'-x, y+1/2, -z+1/2'
'x+1/2, -y+1/2, -z'
loop_
_atom_site_label
_atom_site_type_symbol
_atom_site_fract_x
_atom_site_fract_y
_atom_site_fract_z
_atom_site_U_iso_or_equiv
_atom_site_adp_type
_atom_site_occupancy
_atom_site_site_symmetry_order
_atom_site_calc_flag
_atom_site_refinement_flags_posn
_atom_site_refinement_flags_adp
C1 C 0.3120(9) 0.5012(5) 0.6621(8) 0.0129(11) Uiso 1 1 d D .
O1 O 0.4897(7) 0.5637(3) 0.6936(7) 0.0237(11) Uiso 1 1 d D .
O2 O 0.0680(7) 0.5149(3) 0.6804(7) 0.0239(11) Uiso 1 1 d D .
C2 C 0.4035(10) 0.4001(5) 0.5929(8) 0.0138(13) Uiso 1 1 d D .
H4 H 0.2722 0.3754 0.5041 0.017 Uiso 1 1 calc R U
N1 N 0.6633(9) 0.4093(4) 0.4969(7) 0.0178(12) Uiso 1 1 d D .
H3 H 0.6497 0.4535 0.4060 0.027 Uiso 1 1 calc R U
H1 H 0.7863 0.4293 0.5770 0.027 Uiso 1 1 calc R U
H2 H 0.7095 0.3506 0.4503 0.027 Uiso 1 1 calc R U
C3 C 0.4300(11) 0.3244(5) 0.7476(9) 0.0183(14) Uiso 1 1 d D .
H5 H 0.5491 0.3505 0.8431 0.022 Uiso 1 1 calc R U
O3 O 0.5511(7) 0.2407(3) 0.6603(7) 0.0241(12) Uiso 1 1 d D .
H6 H 0.5584 0.1943 0.7336 0.036 Uiso 1 1 calc R U
C4 C 0.1676(12) 0.2973(5) 0.8333(11) 0.0273(15) Uiso 1 1 d D .
H8 H 0.0915 0.3550 0.8907 0.041 Uiso 1 1 calc R U
H9 H 0.0497 0.2732 0.7393 0.041 Uiso 1 1 calc R U
H7 H 0.1943 0.2466 0.9246 0.041 Uiso 1 1 calc R U
loop_
_atom_type_symbol
_atom_type_description
_atom_type_scat_dispersion_real
_atom_type_scat_dispersion_imag
_atom_type_scat_source
C C 0.0008 0.0007 'International Tables Vol C Tables 4.2.6.8 and 6.1.1.4'
H H 0.0000 0.0000 'International Tables Vol C Tables 4.2.6.8 and 6.1.1.4'
N N 0.0019 0.0015 'International Tables Vol C Tables 4.2.6.8 and 6.1.1.4'
O O 0.0039 0.0027 'International Tables Vol C Tables 4.2.6.8 and 6.1.1.4'
loop_
_geom_angle_atom_site_label_1
_geom_angle_atom_site_label_2
_geom_angle_atom_site_label_3
_geom_angle
O1 C1 O2 125.8(6)
O1 C1 C2 116.5(4)
O2 C1 C2 117.7(5)
N1 C2 C3 108.8(4)
N1 C2 C1 110.2(5)
C3 C2 C1 112.6(5)
N1 C2 H4 108.4
C3 C2 H4 108.4
C1 C2 H4 108.4
C2 N1 H3 109.5
C2 N1 H1 109.5
H3 N1 H1 109.5
C2 N1 H2 109.5
H3 N1 H2 109.5
H1 N1 H2 109.5
O3 C3 C4 111.5(5)
O3 C3 C2 103.9(5)
C4 C3 C2 112.9(5)
O3 C3 H5 109.5
C4 C3 H5 109.5
C2 C3 H5 109.5
C3 O3 H6 109.5
C3 C4 H8 109.5
C3 C4 H9 109.5
H8 C4 H9 109.5
C3 C4 H7 109.5
H8 C4 H7 109.5
H9 C4 H7 109.5
loop_
_geom_bond_atom_site_label_1
_geom_bond_atom_site_label_2
_geom_bond_distance
C1 O1 1.249(7)
C1 O2 1.250(6)
C1 C2 1.522(8)
C2 N1 1.487(7)
C2 C3 1.520(8)
C2 H4 0.9800
N1 H3 0.8900
N1 H1 0.8900
N1 H2 0.8900
C3 O3 1.429(8)
C3 C4 1.504(8)
C3 H5 0.9800
O3 H6 0.8200
C4 H8 0.9600
C4 H9 0.9600
C4 H7 0.9600
