#------------------------------------------------------------------------------
#$Date: 2019-11-07 21:58:40 +0200 (Thu, 07 Nov 2019) $
#$Revision: 223668 $
#$URL: file:///home/coder/svn-repositories/cod/cif/7/23/27/7232738.cif $
#------------------------------------------------------------------------------
#
# This file is available in the Crystallography Open Database (COD),
# http://www.crystallography.net/
#
# All data on this site have been placed in the public domain by the
# contributors.
#
data_7232738
loop_
_publ_author_name
'Giordano, Nico'
'Beavers, Christine M.'
'Kamenev, Konstantin V.'
'Marshall, William G.'
'Moggach, Stephen A.'
'Patterson, Simon D.'
'Teat, Simon J.'
'Warren, John E.'
'Wood, Peter A.'
'Parsons, Simon'
_publ_section_title
;
 High-pressure polymorphism in l-threonine between ambient pressure and 22
 GPa
;
_journal_issue                   30
_journal_name_full               CrystEngComm
_journal_page_first              4444
_journal_paper_doi               10.1039/C9CE00388F
_journal_volume                  21
_journal_year                    2019
_chemical_absolute_configuration syn
_chemical_formula_sum            'C4 H9 N O3'
_chemical_formula_weight         119.12
_chemical_name_common            L-threonine
_chemical_name_systematic        '2S,3R)-2-amino-3-hydroxybutanoic acid'
_space_group_crystal_system      orthorhombic
_space_group_IT_number           19
_space_group_name_Hall           'P 2ac 2ab'
_space_group_name_H-M_alt        'P 21 21 21'
_symmetry_space_group_name_Hall  'P 2ac 2ab'
_symmetry_space_group_name_H-M   'P 21 21 21'
_atom_sites_solution_hydrogens   geom
_audit_creation_method           SHELXL-2014/7
_audit_update_record
;
2019-03-15 deposited with the CCDC.    2019-05-09 downloaded from the CCDC.
;
_cell_angle_alpha                90
_cell_angle_beta                 90
_cell_angle_gamma                90
_cell_formula_units_Z            4
_cell_length_a                   4.9715(14)
_cell_length_b                   13.236(7)
_cell_length_c                   7.042(2)
_cell_measurement_reflns_used    1368
_cell_measurement_temperature    298(2)
_cell_measurement_theta_max      18.04
_cell_measurement_theta_min      2.29
_cell_volume                     463.4(3)
_computing_cell_refinement       'Bruker SAINT'
_computing_data_collection       'Bruker APEX2'
_computing_data_reduction        'Bruker SAINT'
_computing_molecular_graphics    'Bruker SHELXTL'
_computing_publication_material  'Bruker SHELXTL'
_computing_structure_refinement  'SHELXL-2014 (Sheldrick 2014)'
_computing_structure_solution    'SHELXS-97 (Sheldrick 2008)'
_diffrn_ambient_pressure         3.97
_diffrn_ambient_temperature      298(2)
_diffrn_measured_fraction_theta_full 0.493
_diffrn_measured_fraction_theta_max 0.486
_diffrn_measurement_device_type  'Perkin-Elmer a-Si Detector'
_diffrn_measurement_method       '\f shutterless scan'
_diffrn_radiation_monochromator  silicon(111)
_diffrn_radiation_source         'Advanced Light Source Beamline 12.2.2'
_diffrn_radiation_type           synchrotron
_diffrn_radiation_wavelength     0.49594
_diffrn_reflns_av_R_equivalents  0.1165
_diffrn_reflns_av_unetI/netI     0.1072
_diffrn_reflns_Laue_measured_fraction_full 0.493
_diffrn_reflns_Laue_measured_fraction_max 0.486
_diffrn_reflns_limit_h_max       6
_diffrn_reflns_limit_h_min       -6
_diffrn_reflns_limit_k_max       8
_diffrn_reflns_limit_k_min       -8
_diffrn_reflns_limit_l_max       8
_diffrn_reflns_limit_l_min       -8
_diffrn_reflns_number            1670
_diffrn_reflns_point_group_measured_fraction_full 0.490
_diffrn_reflns_point_group_measured_fraction_max 0.479
_diffrn_reflns_theta_full        17.311
_diffrn_reflns_theta_max         18.028
_diffrn_reflns_theta_min         2.286
_exptl_absorpt_coefficient_mu    0.071
_exptl_absorpt_correction_T_max  0.7442
_exptl_absorpt_correction_T_min  0.4236
_exptl_absorpt_correction_type   multi-scan
_exptl_absorpt_process_details   'SADABS-2014/5 (Sheldrick, 2015)'
_exptl_crystal_colour            colourless
_exptl_crystal_density_diffrn    1.707
_exptl_crystal_description       blade
_exptl_crystal_F_000             256
_exptl_crystal_size_max          0.060
_exptl_crystal_size_mid          0.040
_exptl_crystal_size_min          0.020
_refine_diff_density_max         0.350
_refine_diff_density_min         -0.271
_refine_diff_density_rms         0.068
_refine_ls_abs_structure_details
;
 Flack x determined using 81 quotients [(I+)-(I-)]/[(I+)+(I-)]
 (Parsons, Flack and Wagner, Acta Cryst. B69 (2013) 249-259).
;
_refine_ls_extinction_coef       0.17(8)
_refine_ls_extinction_expression Fc^*^=kFc[1+0.001xFc^2^\l^3^/sin(2\q)]^-1/4^
_refine_ls_extinction_method     'SHELXL-2014/7 (Sheldrick 2014'
_refine_ls_goodness_of_fit_ref   1.006
_refine_ls_hydrogen_treatment    constr
_refine_ls_matrix_type           full
_refine_ls_number_parameters     34
_refine_ls_number_reflns         453
_refine_ls_number_restraints     17
_refine_ls_restrained_S_all      1.004
_refine_ls_R_factor_all          0.0886
_refine_ls_R_factor_gt           0.0573
_refine_ls_shift/su_max          0.000
_refine_ls_shift/su_mean         0.000
_refine_ls_structure_factor_coef Fsqd
_refine_ls_weighting_details
'w=1/[\s^2^(Fo^2^)+(0.0701P)^2^] where P=(Fo^2^+2Fc^2^)/3'
_refine_ls_weighting_scheme      calc
_refine_ls_wR_factor_gt          0.1360
_refine_ls_wR_factor_ref         0.1447
_reflns_Friedel_coverage         0.595
_reflns_Friedel_fraction_full    0.484
_reflns_Friedel_fraction_max     0.467
_reflns_number_gt                318
_reflns_number_total             453
_reflns_threshold_expression     'I > 2\s(I)'
_cod_data_source_file            c9ce00388f5.cif
_cod_data_source_block           3_97GPa
_cod_depositor_comments
'Adding full bibliography for 7232730--7232750.cif.'
_cod_database_code               7232738
_shelx_shelxl_version_number     2014/7
_shelx_space_group_comment
;
The symmetry employed for this shelxl refinement is uniquely defined
by the following loop, which should always be used as a source of
symmetry information in preference to the above space-group names.
They are only intended as comments.
;
_shelx_estimated_absorpt_t_min   0.996
_shelx_estimated_absorpt_t_max   0.999
_shelx_res_file
;

    APTH02.res created by SHELXL-2014/7


TITL APTH02 in P2(1)2(1)2(1)
CELL 0.49594   4.97150  13.23590   7.04220  90.0000  90.0000  90.0000
ZERR    4.00   0.00140   0.00650   0.00210   0.0000   0.0000   0.0000
LATT -1
SYMM 1/2-X, -Y, 1/2+Z
SYMM -X, 1/2+Y, 1/2-Z
SYMM 1/2+X, 1/2-Y, -Z
SFAC C H N O
DISP $C  0.00086  0.00074  6.27610!source kissel
DISP $H -0.00003  0.00000  0.65340!source kissel
DISP $N  0.00207  0.00152  9.39816!source kissel
DISP $O  0.00413  0.00279 14.09704!source kissel
UNIT 16 36 4 12
OMIT 0 6 8
OMIT 1 5 8
OMIT 4 1 6
OMIT 4 3 2
OMIT 3 7 6
OMIT 6 2 2
OMIT 5 6 1
OMIT 0 5 8
OMIT 3 6 7
OMIT 2 7 6
OMIT 2 4 8
OMIT 0 3 8
DFIX 1.241 C1 O1
DFIX 1.249 C1 O2
DFIX 1.536 C1 C2
DFIX 1.489 C2 N1
DFIX 1.53 C2 C3
DFIX 1.424 C3 O3
DFIX 1.513 C3 C4
DFIX 2.229 0.04 O1 O2
DFIX 2.368 0.04 O1 C2
DFIX 2.37 0.04 O2 C2
DFIX 2.477 0.04 C1 N1
DFIX 2.553 0.04 C1 C3
DFIX 2.453 0.04 N1 C3
DFIX 2.332 0.04 C2 O3
DFIX 2.543 0.04 C2 C4
DFIX 2.332 0.04 O3 C2
DFIX 2.421 0.04 O3 C4
RIGU
L.S. 10
ACTA
PLAN 5
SIZE 0.02 0.04 0.06 !colourless blade
TEMP 25
BOND $H
LIST 6
fmap 2
WGHT    0.070100
EXTI    0.165328
FVAR       0.60020
C1    1    0.315297    0.503667    0.652934    11.00000    0.01693
O1    4    0.495488    0.564686    0.686073    11.00000    0.02786
O2    4    0.067739    0.519167    0.669225    11.00000    0.02482
C2    1    0.403627    0.402381    0.586618    11.00000    0.01525
AFIX  13
H4    2    0.272788    0.376880    0.494221    11.00000   -1.20000
AFIX   0
N1    3    0.668990    0.408416    0.495109    11.00000    0.01939
AFIX  33
H2    2    0.718565    0.347181    0.456366    11.00000   -1.50000
H3    2    0.660052    0.449810    0.395713    11.00000   -1.50000
H1    2    0.788971    0.431911    0.577860    11.00000   -1.50000
AFIX   0
C3    1    0.424745    0.327508    0.749907    11.00000    0.02001
AFIX  13
H5    2    0.539335    0.355520    0.850155    11.00000   -1.20000
AFIX   0
O3    4    0.552912    0.241426    0.666450    11.00000    0.02776
AFIX  83
H6    2    0.539271    0.192913    0.738227    11.00000   -1.50000
AFIX   0
C4    1    0.157882    0.298440    0.831004    11.00000    0.02601
AFIX  33
H8    2    0.074147    0.356758    0.886453    11.00000   -1.50000
H9    2    0.045173    0.272217    0.731892    11.00000   -1.50000
H7    2    0.182937    0.247676    0.926750    11.00000   -1.50000
AFIX   0
HKLF 4

REM  APTH02 in P2(1)2(1)2(1)
REM R1 =  0.0573 for     318 Fo > 4sig(Fo)  and  0.0886 for all     453 data
REM     34 parameters refined using     17 restraints

END

WGHT      0.0702      0.0000

REM Highest difference peak  0.350,  deepest hole -0.271,  1-sigma level  0.068
Q1    1   0.4995  0.5411  0.7567  11.00000  0.05    0.35
Q2    1   0.0753  0.5138  0.7460  11.00000  0.05    0.33
Q3    1   0.0670  0.5472  0.6077  11.00000  0.05    0.29
Q4    1   0.5103  0.5717  0.6180  11.00000  0.05    0.26
Q5    1  -0.0024  0.4052  0.8228  11.00000  0.05    0.23
;
_shelx_res_checksum              7693
loop_
_space_group_symop_operation_xyz
'x, y, z'
'-x+1/2, -y, z+1/2'
'-x, y+1/2, -z+1/2'
'x+1/2, -y+1/2, -z'
loop_
_atom_site_label
_atom_site_type_symbol
_atom_site_fract_x
_atom_site_fract_y
_atom_site_fract_z
_atom_site_U_iso_or_equiv
_atom_site_adp_type
_atom_site_occupancy
_atom_site_site_symmetry_order
_atom_site_calc_flag
_atom_site_refinement_flags_posn
_atom_site_refinement_flags_adp
C1 C 0.3153(11) 0.5037(10) 0.6529(8) 0.0169(13) Uiso 1 1 d D .
O1 O 0.4955(8) 0.5647(8) 0.6861(5) 0.0279(13) Uiso 1 1 d D .
O2 O 0.0677(7) 0.5192(8) 0.6692(6) 0.0248(13) Uiso 1 1 d D .
C2 C 0.4036(11) 0.4024(10) 0.5866(7) 0.0153(15) Uiso 1 1 d D .
H4 H 0.2728 0.3769 0.4942 0.018 Uiso 1 1 calc R U
N1 N 0.6690(9) 0.4084(10) 0.4951(6) 0.0194(15) Uiso 1 1 d D .
H2 H 0.7186 0.3472 0.4564 0.029 Uiso 1 1 calc R U
H3 H 0.6601 0.4498 0.3957 0.029 Uiso 1 1 calc R U
H1 H 0.7890 0.4319 0.5779 0.029 Uiso 1 1 calc R U
C3 C 0.4247(11) 0.3275(10) 0.7499(9) 0.0200(15) Uiso 1 1 d D .
H5 H 0.5393 0.3555 0.8502 0.024 Uiso 1 1 calc R U
O3 O 0.5529(8) 0.2414(8) 0.6665(6) 0.0278(14) Uiso 1 1 d D .
H6 H 0.5393 0.1929 0.7382 0.042 Uiso 1 1 calc R U
C4 C 0.1579(11) 0.2984(13) 0.8310(9) 0.0260(16) Uiso 1 1 d D .
H8 H 0.0741 0.3568 0.8865 0.039 Uiso 1 1 calc R U
H9 H 0.0452 0.2722 0.7319 0.039 Uiso 1 1 calc R U
H7 H 0.1829 0.2477 0.9268 0.039 Uiso 1 1 calc R U
loop_
_atom_type_symbol
_atom_type_description
_atom_type_scat_dispersion_real
_atom_type_scat_dispersion_imag
_atom_type_scat_source
C C 0.0009 0.0007 'International Tables Vol C Tables 4.2.6.8 and 6.1.1.4'
H H 0.0000 0.0000 'International Tables Vol C Tables 4.2.6.8 and 6.1.1.4'
N N 0.0021 0.0015 'International Tables Vol C Tables 4.2.6.8 and 6.1.1.4'
O O 0.0041 0.0028 'International Tables Vol C Tables 4.2.6.8 and 6.1.1.4'
loop_
_geom_angle_atom_site_label_1
_geom_angle_atom_site_label_2
_geom_angle_atom_site_label_3
_geom_angle
O1 C1 O2 126.2(12)
O1 C1 C2 115.9(6)
O2 C1 C2 117.8(9)
N1 C2 C1 110.7(9)
N1 C2 C3 107.7(6)
C1 C2 C3 111.7(6)
N1 C2 H4 108.9
C1 C2 H4 108.9
C3 C2 H4 108.9
C2 N1 H2 109.5
C2 N1 H3 109.5
H2 N1 H3 109.5
C2 N1 H1 109.5
H2 N1 H1 109.5
H3 N1 H1 109.5
O3 C3 C4 110.3(10)
O3 C3 C2 103.8(5)
C4 C3 C2 113.3(7)
O3 C3 H5 109.8
C4 C3 H5 109.8
C2 C3 H5 109.8
C3 O3 H6 109.5
C3 C4 H8 109.5
C3 C4 H9 109.5
H8 C4 H9 109.5
C3 C4 H7 109.5
H8 C4 H7 109.5
H9 C4 H7 109.5
loop_
_geom_bond_atom_site_label_1
_geom_bond_atom_site_label_2
_geom_bond_distance
C1 O1 1.229(12)
C1 O2 1.253(7)
C1 C2 1.486(15)
C2 N1 1.470(7)
C2 C3 1.522(12)
C2 H4 0.9800
N1 H2 0.8900
N1 H3 0.8900
N1 H1 0.8900
C3 O3 1.432(12)
C3 C4 1.495(9)
C3 H5 0.9800
O3 H6 0.8200
C4 H8 0.9600
C4 H9 0.9600
C4 H7 0.9600
