#------------------------------------------------------------------------------
#$Date: 2019-11-07 21:17:31 +0200 (Thu, 07 Nov 2019) $
#$Revision: 223471 $
#$URL: file:///home/coder/svn-repositories/cod/cif/7/23/29/7232956.cif $
#------------------------------------------------------------------------------
#
# This file is available in the Crystallography Open Database (COD),
# http://www.crystallography.net/
#
# All data on this site have been placed in the public domain by the
# contributors.
#
data_7232956
loop_
_publ_author_name
'Jin, Tong'
'Zhang, Wen'
_publ_section_title
;
 Geometric H/D isotope effect in a series of organic salts involving short
 O--H&#x22EF;O hydrogen bonds between carboxyl and carboxylate groups
;
_journal_issue                   29
_journal_name_full               CrystEngComm
_journal_page_first              4238
_journal_paper_doi               10.1039/C9CE00734B
_journal_volume                  21
_journal_year                    2019
_chemical_formula_moiety         'C8 D F4 O4, C5 H13 D N'
_chemical_formula_sum            'C13 H13 D2 F4 N O4'
_chemical_formula_weight         327.26
_space_group_crystal_system      triclinic
_space_group_IT_number           2
_space_group_name_Hall           '-P 1'
_space_group_name_H-M_alt        'P -1'
_symmetry_space_group_name_Hall  '-P 1'
_symmetry_space_group_name_H-M   'P -1'
_atom_sites_solution_hydrogens   mixed
_audit_creation_method           SHELXL-2014/7
_audit_update_record
;
2019-06-13 deposited with the CCDC.    2019-06-26 downloaded from the CCDC.
;
_cell_angle_alpha                104.72(2)
_cell_angle_beta                 90.99(2)
_cell_angle_gamma                102.03(2)
_cell_formula_units_Z            2
_cell_length_a                   8.534(2)
_cell_length_b                   9.250(2)
_cell_length_c                   9.752(2)
_cell_measurement_reflns_used    7529
_cell_measurement_temperature    293(2)
_cell_measurement_theta_max      29.312
_cell_measurement_theta_min      2.165
_cell_volume                     726.2(3)
_computing_structure_refinement  'SHELXL-2014/7 (Sheldrick, 2014)'
_diffrn_ambient_temperature      293(2)
_diffrn_measured_fraction_theta_full 1.000
_diffrn_measured_fraction_theta_max 0.855
_diffrn_measurement_device_type  'SuperNova, Dual, Cu at zero, AtlasS2'
_diffrn_radiation_type           MoK\a
_diffrn_radiation_wavelength     0.71073
_diffrn_reflns_av_R_equivalents  0.0615
_diffrn_reflns_av_unetI/netI     0.0783
_diffrn_reflns_Laue_measured_fraction_full 1.000
_diffrn_reflns_Laue_measured_fraction_max 0.855
_diffrn_reflns_limit_h_max       11
_diffrn_reflns_limit_h_min       -9
_diffrn_reflns_limit_k_max       12
_diffrn_reflns_limit_k_min       -12
_diffrn_reflns_limit_l_max       12
_diffrn_reflns_limit_l_min       -13
_diffrn_reflns_number            7529
_diffrn_reflns_point_group_measured_fraction_full 1.000
_diffrn_reflns_point_group_measured_fraction_max 0.855
_diffrn_reflns_theta_full        25.242
_diffrn_reflns_theta_max         29.312
_diffrn_reflns_theta_min         2.165
_exptl_absorpt_coefficient_mu    0.142
_exptl_absorpt_correction_T_max  0.987
_exptl_absorpt_correction_T_min  0.983
_exptl_absorpt_correction_type   multi-scan
_exptl_absorpt_process_details
'CrysAlisPro 1.171.38.43f (Rigaku Oxford Diffraction, 2015)'
_exptl_crystal_colour            colorless
_exptl_crystal_density_diffrn    1.497
_exptl_crystal_description       BLOCK
_exptl_crystal_F_000             336.0
_exptl_crystal_size_max          0.120
_exptl_crystal_size_mid          0.110
_exptl_crystal_size_min          0.090
_refine_diff_density_max         0.702
_refine_diff_density_min         -0.496
_refine_diff_density_rms         0.114
_refine_ls_extinction_method     none
_refine_ls_goodness_of_fit_ref   1.025
_refine_ls_hydrogen_treatment    mixed
_refine_ls_matrix_type           full
_refine_ls_number_parameters     210
_refine_ls_number_reflns         3393
_refine_ls_number_restraints     0
_refine_ls_restrained_S_all      1.025
_refine_ls_R_factor_all          0.1399
_refine_ls_R_factor_gt           0.0886
_refine_ls_shift/su_max          0.000
_refine_ls_shift/su_mean         0.000
_refine_ls_structure_factor_coef Fsqd
_refine_ls_weighting_details
'w=1/[\s^2^(Fo^2^)+(0.1864P)^2^] where P=(Fo^2^+2Fc^2^)/3'
_refine_ls_weighting_scheme      calc
_refine_ls_wR_factor_gt          0.2482
_refine_ls_wR_factor_ref         0.3181
_reflns_Friedel_coverage         0.000
_reflns_number_gt                1785
_reflns_number_total             3968
_reflns_threshold_expression     'I > 2\s(I)'
_cod_data_source_file            c9ce00734b2.cif
_cod_data_source_block           1-D
_cod_depositor_comments
'Adding full bibliography for 7232953--7232976.cif.'
_cod_database_code               7232956
_shelx_shelxl_version_number     2014/7
_shelx_space_group_comment
;
The symmetry employed for this shelxl refinement is uniquely defined
by the following loop, which should always be used as a source of
symmetry information in preference to the above space-group names.
They are only intended as comments.
;
_shelx_res_file
;

    1-D.res created by SHELXL-2014/7

TITL 1-D in P-1
CELL 0.71073   8.5341   9.2502   9.7522 104.724  90.995 102.030
ZERR   2   0.0024   0.0024   0.0020   0.020   0.020   0.023
LATT 1
SFAC C  H  N  O  F
UNIT 26 30 2  8  8
REM  The D atom was not counted in SFAC and UNIT to prevent XL failure.
L.S. 20
ACTA
BOND
FMAP 2
PLAN 3
HTAB O1 O3_$6
EQIV $6 x, y, z-1
HTAB N1 O4_$5
EQIV $5 x+1, y, z
HTAB C13 O4_$4
HTAB C12 O2_$3
HTAB C11 O4_$4
EQIV $4 -x+1, -y, -z+1
HTAB C11 O2_$3
EQIV $3 x, y, z+1
HTAB C10 F4_$2
EQIV $2 x+1, y, z+1
HTAB C9 F3_$1
EQIV $1 -x+1, -y+1, -z+1
CONF
WGHT    0.186400
FVAR       1.07734
MOLE 1
C1    1    0.518789    0.266735   -0.034415    11.00000    0.04322    0.06830 =
         0.03377    0.02518    0.01079    0.01963
C2    1    0.473862    0.258721    0.112724    11.00000    0.03419    0.06108 =
         0.02619    0.02004    0.00407    0.01054
C3    1    0.544582    0.172976    0.183591    11.00000    0.04143    0.05599 =
         0.03081    0.01478    0.01191    0.02119
C4    1    0.514182    0.169411    0.321505    11.00000    0.04387    0.05771 =
         0.03074    0.01961    0.00213    0.01559
C5    1    0.412381    0.250817    0.394997    11.00000    0.03547    0.05938 =
         0.02471    0.01814    0.00109    0.00482
C6    1    0.371352    0.244688    0.545238    11.00000    0.04854    0.06291 =
         0.02666    0.02190    0.01012    0.01724
C7    1    0.342838    0.338629    0.326604    11.00000    0.03882    0.06578 =
         0.03238    0.02068    0.00599    0.01463
C8    1    0.371174    0.341432    0.188440    11.00000    0.04108    0.06298 =
         0.03287    0.02615    0.00207    0.01268
MOLE 2
C9    1    1.102524    0.510403    0.745860    11.00000    0.08180    0.07304 =
         0.10723    0.00464    0.00768    0.01426
AFIX 137
H9A   2    1.022672    0.507083    0.673894    11.00000   -1.50000
H9B   2    1.197917    0.488652    0.702160    11.00000   -1.50000
H9C   2    1.127459    0.610505    0.811155    11.00000   -1.50000
AFIX   0
C10   1    1.039215    0.393050    0.824644    11.00000    0.06376    0.11040 =
         0.04813   -0.00920    0.00140    0.03473
AFIX  23
H10A  2    1.118170    0.401947    0.900807    11.00000   -1.20000
H10B  2    0.942602    0.415919    0.867763    11.00000   -1.20000
AFIX   0
C11   1    0.866749    0.205519    0.632800    11.00000    0.05986    0.12510 =
         0.06649   -0.00009    0.00088    0.00980
AFIX 137
H11A  2    0.893762    0.266335    0.566635    11.00000   -1.50000
H11B  2    0.774510    0.230579    0.680236    11.00000   -1.50000
H11C  2    0.842923    0.098862    0.582642    11.00000   -1.50000
AFIX   0
C12   1    0.984497    0.133102    0.838568    11.00000    0.10331    0.15344 =
         0.08969    0.06803    0.05189    0.05276
AFIX  23
H12A  2    1.059595    0.181825    0.921245    11.00000   -1.20000
H12B  2    0.876883    0.122305    0.870936    11.00000   -1.20000
AFIX   0
C13   1    1.012422   -0.017895    0.774777    11.00000    0.09945    0.11437 =
         0.11049    0.06551    0.02499    0.03410
AFIX 137
H13A  2    1.119791   -0.008591    0.744815    11.00000   -1.50000
H13B  2    0.937029   -0.068023    0.694023    11.00000   -1.50000
H13C  2    0.998958   -0.077176    0.843204    11.00000   -1.50000
AFIX   0
MOLE 1
F1    5    0.642728    0.086404    0.117462    11.00000    0.06895    0.09265 =
         0.04297    0.03063    0.02015    0.04563
F2    5    0.583350    0.079881    0.379723    11.00000    0.08493    0.09865 =
         0.04448    0.04168    0.01642    0.05286
F3    5    0.241061    0.420779    0.393629    11.00000    0.07120    0.08916 =
         0.04157    0.02612    0.02393    0.04760
F4    5    0.297808    0.428450    0.130660    11.00000    0.07338    0.08250 =
         0.03901    0.03111    0.01101    0.04441
MOLE 2
D1A   2    1.085961    0.217181    0.692651    11.00000    0.05368
N1    3    1.002515    0.237201    0.737821    11.00000    0.04910    0.08154 =
         0.05578    0.02095    0.02336    0.02682
MOLE 1
O1    4    0.402883    0.283594   -0.113287    11.00000    0.04421    0.10875 =
         0.02925    0.03553    0.00596    0.01718
O2    4    0.649683    0.258011   -0.070078    11.00000    0.05253    0.13091 =
         0.04869    0.04887    0.02282    0.04209
O3    4    0.479444    0.307051    0.641334    11.00000    0.05560    0.09877 =
         0.02851    0.02600    0.00013   -0.00270
O4    4    0.231299    0.179900    0.555487    11.00000    0.04557    0.08910 =
         0.03550    0.02310    0.01377    0.00958
D1    2    0.444083    0.292126   -0.198003    11.00000    0.07312
HKLF 4

REM  1-D in P-1
REM R1 =  0.0886 for    1785 Fo > 4sig(Fo)  and  0.1399 for all    3393 data
REM    210 parameters refined using      0 restraints

END

WGHT      0.1864      0.0000

REM Highest difference peak  0.702,  deepest hole -0.496,  1-sigma level  0.114
Q1    1   0.9014  0.0793  0.7471  11.00000  0.05    0.70
Q2    1   0.4335 -0.0438  0.2740  11.00000  0.05    0.39
Q3    1   0.3560  0.0207  0.1412  11.00000  0.05    0.37
;
_shelx_res_checksum              65664
loop_
_space_group_symop_operation_xyz
'x, y, z'
'-x, -y, -z'
loop_
_atom_site_label
_atom_site_type_symbol
_atom_site_fract_x
_atom_site_fract_y
_atom_site_fract_z
_atom_site_U_iso_or_equiv
_atom_site_adp_type
_atom_site_occupancy
_atom_site_site_symmetry_order
_atom_site_calc_flag
_atom_site_refinement_flags_posn
_atom_site_refinement_flags_adp
C1 C 0.5188(4) 0.2667(4) -0.0344(3) 0.0450(8) Uani 1 1 d . .
C2 C 0.4739(3) 0.2587(4) 0.1127(3) 0.0389(7) Uani 1 1 d . .
C3 C 0.5446(4) 0.1730(4) 0.1836(3) 0.0404(7) Uani 1 1 d . .
C4 C 0.5142(4) 0.1694(4) 0.3215(3) 0.0420(8) Uani 1 1 d . .
C5 C 0.4124(3) 0.2508(4) 0.3950(3) 0.0394(8) Uani 1 1 d . .
C6 C 0.3714(4) 0.2447(4) 0.5452(3) 0.0433(8) Uani 1 1 d . .
C7 C 0.3428(4) 0.3386(4) 0.3266(3) 0.0437(8) Uani 1 1 d . .
C8 C 0.3712(4) 0.3414(4) 0.1884(3) 0.0430(8) Uani 1 1 d . .
C9 C 1.1025(6) 0.5104(6) 0.7459(6) 0.0913(15) Uani 1 1 d . .
H9A H 1.0227 0.5071 0.6739 0.137 Uiso 1 1 calc R U
H9B H 1.1979 0.4887 0.7022 0.137 Uiso 1 1 calc R U
H9C H 1.1275 0.6105 0.8112 0.137 Uiso 1 1 calc R U
C10 C 1.0392(5) 0.3930(6) 0.8246(4) 0.0774(14) Uani 1 1 d . .
H10A H 1.1182 0.4019 0.9008 0.093 Uiso 1 1 calc R U
H10B H 0.9426 0.4159 0.8678 0.093 Uiso 1 1 calc R U
C11 C 0.8667(5) 0.2055(7) 0.6328(5) 0.0902(15) Uani 1 1 d . .
H11A H 0.8938 0.2663 0.5666 0.135 Uiso 1 1 calc R U
H11B H 0.7745 0.2306 0.6802 0.135 Uiso 1 1 calc R U
H11C H 0.8429 0.0989 0.5826 0.135 Uiso 1 1 calc R U
C12 C 0.9845(7) 0.1331(8) 0.8386(6) 0.1045(19) Uani 1 1 d . .
H12A H 1.0596 0.1818 0.9212 0.125 Uiso 1 1 calc R U
H12B H 0.8769 0.1223 0.8709 0.125 Uiso 1 1 calc R U
C13 C 1.0124(7) -0.0179(7) 0.7748(6) 0.0996(17) Uani 1 1 d . .
H13A H 1.1198 -0.0086 0.7448 0.149 Uiso 1 1 calc R U
H13B H 0.9370 -0.0680 0.6940 0.149 Uiso 1 1 calc R U
H13C H 0.9990 -0.0772 0.8432 0.149 Uiso 1 1 calc R U
F1 F 0.6427(3) 0.0864(3) 0.1175(2) 0.0614(7) Uani 1 1 d . .
F2 F 0.5833(3) 0.0799(3) 0.3797(2) 0.0667(7) Uani 1 1 d . .
F3 F 0.2411(3) 0.4208(3) 0.3936(2) 0.0609(7) Uani 1 1 d . .
F4 F 0.2978(2) 0.4285(3) 0.13066(19) 0.0580(6) Uani 1 1 d . .
D1A D 1.086(4) 0.217(4) 0.693(4) 0.054(10) Uiso 1 1 d . .
N1 N 1.0025(4) 0.2372(4) 0.7378(3) 0.0595(9) Uani 1 1 d . .
O1 O 0.4029(3) 0.2836(3) -0.1133(2) 0.0574(8) Uani 1 1 d . .
O2 O 0.6497(3) 0.2580(4) -0.0701(3) 0.0691(9) Uani 1 1 d . .
O3 O 0.4794(3) 0.3071(3) 0.6413(2) 0.0623(8) Uani 1 1 d . .
O4 O 0.2313(3) 0.1799(3) 0.5555(2) 0.0561(7) Uani 1 1 d . .
D1 D 0.444(5) 0.292(5) -0.198(5) 0.073(12) Uiso 1 1 d . .
loop_
_atom_site_aniso_label
_atom_site_aniso_U_11
_atom_site_aniso_U_22
_atom_site_aniso_U_33
_atom_site_aniso_U_23
_atom_site_aniso_U_13
_atom_site_aniso_U_12
C1 0.0432(18) 0.068(2) 0.0338(15) 0.0252(15) 0.0108(13) 0.0196(16)
C2 0.0342(15) 0.0611(19) 0.0262(13) 0.0200(13) 0.0041(11) 0.0105(14)
C3 0.0414(16) 0.0560(18) 0.0308(14) 0.0148(13) 0.0119(12) 0.0212(14)
C4 0.0439(17) 0.0577(19) 0.0307(14) 0.0196(13) 0.0021(12) 0.0156(15)
C5 0.0355(15) 0.0594(19) 0.0247(13) 0.0181(13) 0.0011(11) 0.0048(14)
C6 0.0485(18) 0.063(2) 0.0267(14) 0.0219(14) 0.0101(13) 0.0172(16)
C7 0.0388(16) 0.066(2) 0.0324(15) 0.0207(14) 0.0060(13) 0.0146(15)
C8 0.0411(16) 0.063(2) 0.0329(15) 0.0261(14) 0.0021(12) 0.0127(15)
C9 0.082(3) 0.073(3) 0.107(4) 0.005(3) 0.008(3) 0.014(3)
C10 0.064(3) 0.110(4) 0.048(2) -0.009(2) 0.0014(18) 0.035(3)
C11 0.060(3) 0.125(4) 0.066(3) 0.000(3) 0.001(2) 0.010(3)
C12 0.103(4) 0.153(5) 0.090(4) 0.068(4) 0.052(3) 0.053(4)
C13 0.099(4) 0.114(4) 0.110(4) 0.066(4) 0.025(3) 0.034(3)
F1 0.0690(14) 0.0926(16) 0.0430(11) 0.0306(11) 0.0202(9) 0.0456(12)
F2 0.0849(15) 0.0987(17) 0.0445(12) 0.0417(11) 0.0164(10) 0.0529(14)
F3 0.0712(14) 0.0892(16) 0.0416(11) 0.0261(10) 0.0239(10) 0.0476(12)
F4 0.0734(14) 0.0825(15) 0.0390(10) 0.0311(10) 0.0110(9) 0.0444(12)
N1 0.0491(18) 0.082(2) 0.0558(19) 0.0209(17) 0.0234(15) 0.0268(17)
O1 0.0442(13) 0.109(2) 0.0293(11) 0.0355(13) 0.0060(10) 0.0172(13)
O2 0.0525(15) 0.131(3) 0.0487(14) 0.0489(16) 0.0228(11) 0.0421(16)
O3 0.0556(15) 0.099(2) 0.0285(11) 0.0260(12) 0.0001(10) -0.0027(14)
O4 0.0456(13) 0.0891(18) 0.0355(12) 0.0231(12) 0.0138(10) 0.0096(12)
loop_
_atom_type_symbol
_atom_type_description
_atom_type_scat_dispersion_real
_atom_type_scat_dispersion_imag
_atom_type_scat_source
C C 0.0033 0.0016 'International Tables Vol C Tables 4.2.6.8 and 6.1.1.4'
H H 0.0000 0.0000 'International Tables Vol C Tables 4.2.6.8 and 6.1.1.4'
N N 0.0061 0.0033 'International Tables Vol C Tables 4.2.6.8 and 6.1.1.4'
O O 0.0106 0.0060 'International Tables Vol C Tables 4.2.6.8 and 6.1.1.4'
F F 0.0171 0.0103 'International Tables Vol C Tables 4.2.6.8 and 6.1.1.4'
loop_
_geom_angle_atom_site_label_1
_geom_angle_atom_site_label_2
_geom_angle_atom_site_label_3
_geom_angle
O2 C1 O1 125.4(3)
O2 C1 C2 120.8(3)
O1 C1 C2 113.8(3)
C8 C2 C3 116.2(2)
C8 C2 C1 123.4(2)
C3 C2 C1 120.3(3)
F1 C3 C4 117.3(3)
F1 C3 C2 120.4(2)
C4 C3 C2 122.3(3)
F2 C4 C5 120.7(2)
F2 C4 C3 118.2(3)
C5 C4 C3 121.1(3)
C4 C5 C7 117.3(2)
C4 C5 C6 122.4(3)
C7 C5 C6 120.3(3)
O4 C6 O3 128.2(3)
O4 C6 C5 115.0(2)
O3 C6 C5 116.8(3)
F3 C7 C8 118.1(3)
F3 C7 C5 120.0(2)
C8 C7 C5 121.9(3)
F4 C8 C7 117.8(3)
F4 C8 C2 121.0(2)
C7 C8 C2 121.2(3)
N1 C10 C9 114.4(3)
C13 C12 N1 113.7(4)
C10 N1 C11 113.0(4)
C10 N1 C12 107.2(4)
C11 N1 C12 115.1(4)
loop_
_geom_bond_atom_site_label_1
_geom_bond_atom_site_label_2
_geom_bond_distance
C1 O2 1.188(4)
C1 O1 1.301(4)
C1 C2 1.508(4)
C2 C8 1.383(4)
C2 C3 1.391(4)
C3 F1 1.340(3)
C3 C4 1.381(4)
C4 F2 1.337(3)
C4 C5 1.362(4)
C5 C7 1.385(4)
C5 C6 1.525(4)
C6 O4 1.238(4)
C6 O3 1.239(4)
C7 F3 1.342(4)
C7 C8 1.379(4)
C8 F4 1.336(4)
C9 C10 1.502(7)
C10 N1 1.441(5)
C11 N1 1.464(6)
C12 C13 1.448(8)
C12 N1 1.530(6)
loop_
_geom_hbond_atom_site_label_D
_geom_hbond_atom_site_label_H
_geom_hbond_atom_site_label_A
_geom_hbond_distance_DH
_geom_hbond_distance_HA
_geom_hbond_distance_DA
_geom_hbond_angle_DHA
_geom_hbond_site_symmetry_A
O1 D1 O3 0.92(4) 1.64(4) 2.542(3) 168(4) 1_554
N1 D1A O4 0.87(4) 1.86(4) 2.707(4) 165(3) 1_655
C13 H13B O4 0.96 2.65 3.600(7) 169.3 2_656
C12 H12B O2 0.97 2.52 3.352(6) 143.7 1_556
C11 H11C O4 0.96 2.53 3.487(6) 177.3 2_656
C11 H11B O2 0.96 2.65 3.451(5) 141.3 1_556
C10 H10A F4 0.97 2.62 3.586(5) 171.8 1_656
C9 H9A F3 0.96 2.60 3.454(6) 148.9 2_666
loop_
_geom_torsion_atom_site_label_1
_geom_torsion_atom_site_label_2
_geom_torsion_atom_site_label_3
_geom_torsion_atom_site_label_4
_geom_torsion
O2 C1 C2 C8 144.9(4)
O1 C1 C2 C8 -35.1(5)
O2 C1 C2 C3 -30.7(5)
O1 C1 C2 C3 149.3(3)
C8 C2 C3 F1 178.4(3)
C1 C2 C3 F1 -5.7(5)
C8 C2 C3 C4 0.3(5)
C1 C2 C3 C4 176.2(3)
F1 C3 C4 F2 -0.3(5)
C2 C3 C4 F2 177.8(3)
F1 C3 C4 C5 -178.2(3)
C2 C3 C4 C5 0.0(5)
F2 C4 C5 C7 -178.7(3)
C3 C4 C5 C7 -0.9(5)
F2 C4 C5 C6 -0.2(5)
C3 C4 C5 C6 177.6(3)
C4 C5 C6 O4 -111.0(4)
C7 C5 C6 O4 67.5(4)
C4 C5 C6 O3 70.5(4)
C7 C5 C6 O3 -111.0(4)
C4 C5 C7 F3 179.7(3)
C6 C5 C7 F3 1.2(5)
C4 C5 C7 C8 1.7(5)
C6 C5 C7 C8 -176.9(3)
F3 C7 C8 F4 1.3(5)
C5 C7 C8 F4 179.4(3)
F3 C7 C8 C2 -179.6(3)
C5 C7 C8 C2 -1.5(5)
C3 C2 C8 F4 179.5(3)
C1 C2 C8 F4 3.8(5)
C3 C2 C8 C7 0.5(5)
C1 C2 C8 C7 -175.3(3)
C9 C10 N1 C11 -67.2(5)
C9 C10 N1 C12 165.0(4)
C13 C12 N1 C10 -156.2(5)
C13 C12 N1 C11 77.2(6)
