#------------------------------------------------------------------------------
#$Date: 2019-11-07 21:58:40 +0200 (Thu, 07 Nov 2019) $
#$Revision: 223668 $
#$URL: file:///home/coder/svn-repositories/cod/cif/7/23/27/7232748.cif $
#------------------------------------------------------------------------------
#
# This file is available in the Crystallography Open Database (COD),
# http://www.crystallography.net/
#
# All data on this site have been placed in the public domain by the
# contributors.
#
data_7232748
loop_
_publ_author_name
'Giordano, Nico'
'Beavers, Christine M.'
'Kamenev, Konstantin V.'
'Marshall, William G.'
'Moggach, Stephen A.'
'Patterson, Simon D.'
'Teat, Simon J.'
'Warren, John E.'
'Wood, Peter A.'
'Parsons, Simon'
_publ_section_title
;
 High-pressure polymorphism in l-threonine between ambient pressure and 22
 GPa
;
_journal_issue                   30
_journal_name_full               CrystEngComm
_journal_page_first              4444
_journal_paper_doi               10.1039/C9CE00388F
_journal_volume                  21
_journal_year                    2019
_chemical_absolute_configuration syn
_chemical_formula_sum            'C4 H9 N O3'
_chemical_formula_weight         119.12
_chemical_name_common            L-threonine
_chemical_name_systematic        '(2S,3R)-2-amino-3-hydroxybutanoic acid'
_space_group_crystal_system      orthorhombic
_space_group_IT_number           19
_space_group_name_Hall           'P 2ac 2ab'
_space_group_name_H-M_alt        'P 21 21 21'
_symmetry_space_group_name_Hall  'P 2ac 2ab'
_symmetry_space_group_name_H-M   'P 21 21 21'
_atom_sites_solution_hydrogens   geom
_audit_creation_method           SHELXL-2014/7
_audit_update_record
;
2019-03-15 deposited with the CCDC.    2019-05-09 downloaded from the CCDC.
;
_cell_angle_alpha                90
_cell_angle_beta                 90
_cell_angle_gamma                90
_cell_formula_units_Z            4
_cell_length_a                   4.823(5)
_cell_length_b                   13.025(12)
_cell_length_c                   6.457(8)
_cell_measurement_reflns_used    1053
_cell_measurement_temperature    298(2)
_cell_measurement_theta_max      14.3585
_cell_measurement_theta_min      3.1425
_cell_volume                     405.6(8)
_computing_structure_refinement  'SHELXL-2014/7 (Sheldrick, 2014)'
_diffrn_ambient_pressure         13.00
_diffrn_ambient_temperature      298(2)
_diffrn_measured_fraction_theta_full 0.518
_diffrn_measured_fraction_theta_max 0.518
_diffrn_measurement_device_type  'Perkin-Elmer a-Si Detector'
_diffrn_measurement_method       '\f shutterless scan'
_diffrn_radiation_monochromator  silicon(111)
_diffrn_radiation_source         'Advanced Light Source Beamline 12.2.2'
_diffrn_radiation_type           synchrotron
_diffrn_radiation_wavelength     0.49594
_diffrn_reflns_av_R_equivalents  0.0500
_diffrn_reflns_av_unetI/netI     0.0449
_diffrn_reflns_Laue_measured_fraction_full 0.518
_diffrn_reflns_Laue_measured_fraction_max 0.518
_diffrn_reflns_limit_h_max       4
_diffrn_reflns_limit_h_min       -4
_diffrn_reflns_limit_k_max       11
_diffrn_reflns_limit_k_min       -12
_diffrn_reflns_limit_l_max       3
_diffrn_reflns_limit_l_min       -3
_diffrn_reflns_number            836
_diffrn_reflns_point_group_measured_fraction_full 0.513
_diffrn_reflns_point_group_measured_fraction_max 0.513
_diffrn_reflns_theta_full        14.362
_diffrn_reflns_theta_max         14.362
_diffrn_reflns_theta_min         3.143
_exptl_absorpt_coefficient_mu    0.082
_exptl_absorpt_correction_T_max  0.7438
_exptl_absorpt_correction_T_min  0.4857
_exptl_absorpt_correction_type   multi-scan
_exptl_absorpt_process_details   'SADABS-2014/5 (Sheldrick, 2015)'
_exptl_crystal_colour            colourless
_exptl_crystal_density_diffrn    1.950
_exptl_crystal_description       blade
_exptl_crystal_F_000             256
_exptl_crystal_size_max          0.060
_exptl_crystal_size_mid          0.050
_exptl_crystal_size_min          0.040
_refine_diff_density_max         0.298
_refine_diff_density_min         -0.221
_refine_diff_density_rms         0.071
_refine_ls_abs_structure_details
;
 Flack x determined using 58 quotients [(I+)-(I-)]/[(I+)+(I-)]
 (Parsons, Flack and Wagner, Acta Cryst. B69 (2013) 249-259).
;
_refine_ls_abs_structure_Flack   -1.4(10)
_refine_ls_extinction_method     none
_refine_ls_goodness_of_fit_ref   1.266
_refine_ls_hydrogen_treatment    constr
_refine_ls_matrix_type           full
_refine_ls_number_parameters     33
_refine_ls_number_reflns         220
_refine_ls_number_restraints     17
_refine_ls_restrained_S_all      1.260
_refine_ls_R_factor_all          0.0649
_refine_ls_R_factor_gt           0.0584
_refine_ls_shift/su_max          0.000
_refine_ls_shift/su_mean         0.000
_refine_ls_structure_factor_coef Fsqd
_refine_ls_weighting_details
'w=1/[\s^2^(Fo^2^)+(0.0967P)^2^] where P=(Fo^2^+2Fc^2^)/3'
_refine_ls_weighting_scheme      calc
_refine_ls_wR_factor_gt          0.1492
_refine_ls_wR_factor_ref         0.1559
_reflns_Friedel_coverage         0.528
_reflns_Friedel_fraction_full    0.503
_reflns_Friedel_fraction_max     0.503
_reflns_number_gt                199
_reflns_number_total             220
_reflns_threshold_expression     'I > 2\s(I)'
_cod_data_source_file            c9ce00388f5.cif
_cod_data_source_block           13_00GPa_decompression
_cod_depositor_comments
'Adding full bibliography for 7232730--7232750.cif.'
_cod_original_cell_volume        405.7(7)
_cod_database_code               7232748
_shelx_shelxl_version_number     2014/7
_shelx_space_group_comment
;
The symmetry employed for this shelxl refinement is uniquely defined
by the following loop, which should always be used as a source of
symmetry information in preference to the above space-group names.
They are only intended as comments.
;
_shelx_estimated_absorpt_t_min   0.995
_shelx_estimated_absorpt_t_max   0.997
_shelx_res_file
;

    THRE16.res created by SHELXL-2014/7


TITL test_8 in P2(1)2(1)2(1)
CELL 0.49594   4.82320  13.02530   6.45720  90.0000  90.0000  90.0000
ZERR    4.00   0.00500   0.01240   0.00760   0.0000   0.0000   0.0000
LATT -1
SYMM 1/2-X, -Y, 1/2+Z
SYMM -X, 1/2+Y, 1/2-Z
SYMM 1/2+X, 1/2-Y, -Z
SFAC C H N O
DISP $C  0.00086  0.00074  6.27610!source kissel
DISP $H -0.00003  0.00000  0.65340!source kissel
DISP $N  0.00207  0.00152  9.39816!source kissel
DISP $O  0.00413  0.00279 14.09704!source kissel
UNIT 16 36 4 12
OMIT 4 6 3
OMIT 0 7 1
DFIX 1.241 C1 O1
DFIX 1.249 C1 O2
DFIX 1.536 C1 C2
DFIX 1.489 C2 N1
DFIX 1.53 C2 C3
DFIX 1.424 C3 O3
DFIX 1.513 C3 C4
DFIX 2.229 0.04 O1 O2
DFIX 2.368 0.04 O1 C2
DFIX 2.37 0.04 O2 C2
DFIX 2.477 0.04 C1 N1
DFIX 2.553 0.04 C1 C3
DFIX 2.453 0.04 N1 C3
DFIX 2.332 0.04 C2 O3
DFIX 2.543 0.04 C2 C4
DFIX 2.332 0.04 O3 C2
DFIX 2.421 0.04 O3 C4
RIGU
L.S. 10
PLAN 5
SIZE 0.04 0.05 0.06 !colourless blade
ACTA
HTAB
EQIV $1 x-1/2, -y+1/2, -z+1
HTAB C2 O3_$1
EQIV $2 x+1/2, -y+1/2, -z+1
HTAB N1 O3_$2
EQIV $3 -x+3/2, -y+1, z-1/2
HTAB N1 O1_$3
EQIV $4 -x+1/2, -y+1, z-1/2
HTAB N1 O2_$4
EQIV $5 x+1, y, z
HTAB N1 O2_$5
EQIV $6 -x+1/2, -y+1, z+1/2
HTAB C3 O2_$6
EQIV $7 -x+1, y-1/2, -z+3/2
HTAB O3 O1_$7
HTAB O3 O2_$7
HTAB C4 O1_$6
HTAB C4 O2
HTAB C4 N1_$1
EQIV $8 x-1, y, z
HTAB C4 O3_$8
HTAB C4 O3_$1
EQIV $9 x-1/2, -y+1/2, -z+2
HTAB C4 O3_$9
TEMP 25
BOND $H
LIST 6
fmap 2
REM EXTI    0.000000
WGHT    0.096700
FVAR       0.64146
C1    1    0.332244    0.507867    0.631683    11.00000    0.02857
O1    4    0.520796    0.570041    0.651410    11.00000    0.03623
O2    4    0.081056    0.524526    0.657882    11.00000    0.03853
C2    1    0.416911    0.400177    0.572018    11.00000    0.03111
AFIX  13
H4    2    0.288431    0.373504    0.467476    11.00000   -1.20000
AFIX   0
N1    3    0.698237    0.403606    0.485715    11.00000    0.03425
AFIX  33
H2    2    0.750668    0.340546    0.449891    11.00000   -1.50000
H3    2    0.700060    0.444010    0.374572    11.00000   -1.50000
H1    2    0.814593    0.428339    0.580342    11.00000   -1.50000
AFIX   0
C3    1    0.417918    0.329204    0.759251    11.00000    0.03703
AFIX  13
H5    2    0.508316    0.361792    0.878218    11.00000   -1.20000
AFIX   0
O3    4    0.573064    0.242648    0.688015    11.00000    0.03666
AFIX  83
H6    2    0.570582    0.197528    0.776554    11.00000   -1.50000
AFIX   0
C4    1    0.135867    0.293546    0.813085    11.00000    0.03896
AFIX  33
H8    2    0.027701    0.350580    0.861452    11.00000   -1.50000
H9    2    0.049443    0.264403    0.692752    11.00000   -1.50000
H7    2    0.147371    0.242509    0.919998    11.00000   -1.50000
AFIX   0
HKLF 4

REM  test_8 in P2(1)2(1)2(1)
REM R1 =  0.0584 for     199 Fo > 4sig(Fo)  and  0.0649 for all     220 data
REM     33 parameters refined using     17 restraints

END

WGHT      0.1185      0.0000

REM Instructions for potential hydrogen bonds
HTAB C2 O1_$4
HTAB C2 O3_$1
HTAB N1 O3_$2
HTAB N1 O1_$3
HTAB N1 O2_$4
HTAB N1 O2_$5
HTAB C3 O2_$6
HTAB O3 O1_$7
HTAB C4 O1_$6
HTAB C4 O2
HTAB C4 N1_$1
HTAB C4 O3_$8
HTAB C4 O3_$1
HTAB C4 O3_$9

REM Highest difference peak  0.298,  deepest hole -0.221,  1-sigma level  0.071
Q1    1   0.4624  0.5354  0.8219  11.00000  0.05    0.30
Q2    1   0.5429  0.3871  0.8564  11.00000  0.05    0.23
Q3    1   0.0703  0.5717  0.6062  11.00000  0.05    0.22
Q4    1   0.0879  0.4957  0.7873  11.00000  0.05    0.21
Q5    1   0.0681  0.2362  0.6970  11.00000  0.05    0.21
;
_shelx_res_checksum              94502
loop_
_space_group_symop_operation_xyz
'x, y, z'
'-x+1/2, -y, z+1/2'
'-x, y+1/2, -z+1/2'
'x+1/2, -y+1/2, -z'
loop_
_atom_site_label
_atom_site_type_symbol
_atom_site_fract_x
_atom_site_fract_y
_atom_site_fract_z
_atom_site_U_iso_or_equiv
_atom_site_adp_type
_atom_site_occupancy
_atom_site_site_symmetry_order
_atom_site_calc_flag
_atom_site_refinement_flags_posn
_atom_site_refinement_flags_adp
C1 C 0.3322(16) 0.5079(9) 0.632(4) 0.029(3) Uiso 1 1 d D .
O1 O 0.5208(13) 0.5700(6) 0.651(3) 0.036(2) Uiso 1 1 d D .
O2 O 0.0811(13) 0.5245(6) 0.658(3) 0.039(3) Uiso 1 1 d D .
C2 C 0.4169(19) 0.4002(8) 0.572(3) 0.031(3) Uiso 1 1 d D .
H4 H 0.2884 0.3735 0.4675 0.037 Uiso 1 1 calc R U
N1 N 0.6982(15) 0.4036(7) 0.486(2) 0.034(3) Uiso 1 1 d D .
H2 H 0.7507 0.3405 0.4499 0.051 Uiso 1 1 calc R U
H3 H 0.7001 0.4440 0.3746 0.051 Uiso 1 1 calc R U
H1 H 0.8146 0.4283 0.5803 0.051 Uiso 1 1 calc R U
C3 C 0.4179(19) 0.3292(9) 0.759(3) 0.037(4) Uiso 1 1 d D .
H5 H 0.5083 0.3618 0.8782 0.044 Uiso 1 1 calc R U
O3 O 0.5731(12) 0.2426(5) 0.688(2) 0.037(3) Uiso 1 1 d D .
H6 H 0.5706 0.1975 0.7766 0.055 Uiso 1 1 calc R U
C4 C 0.1359(17) 0.2935(9) 0.813(3) 0.039(4) Uiso 1 1 d D .
H8 H 0.0277 0.3506 0.8615 0.058 Uiso 1 1 calc R U
H9 H 0.0494 0.2644 0.6928 0.058 Uiso 1 1 calc R U
H7 H 0.1474 0.2425 0.9200 0.058 Uiso 1 1 calc R U
loop_
_atom_type_symbol
_atom_type_description
_atom_type_scat_dispersion_real
_atom_type_scat_dispersion_imag
_atom_type_scat_source
C C 0.0009 0.0007 'International Tables Vol C Tables 4.2.6.8 and 6.1.1.4'
H H 0.0000 0.0000 'International Tables Vol C Tables 4.2.6.8 and 6.1.1.4'
N N 0.0021 0.0015 'International Tables Vol C Tables 4.2.6.8 and 6.1.1.4'
O O 0.0041 0.0028 'International Tables Vol C Tables 4.2.6.8 and 6.1.1.4'
loop_
_geom_angle_atom_site_label_1
_geom_angle_atom_site_label_2
_geom_angle_atom_site_label_3
_geom_angle
O1 C1 O2 126.5(11)
O1 C1 C2 116.1(9)
O2 C1 C2 117.4(8)
N1 C2 C1 108.6(7)
N1 C2 C3 108.5(9)
C1 C2 C3 111.2(14)
N1 C2 H4 109.5
C1 C2 H4 109.5
C3 C2 H4 109.5
C2 N1 H2 109.5
C2 N1 H3 109.5
H2 N1 H3 109.5
C2 N1 H1 109.5
H2 N1 H1 109.5
H3 N1 H1 109.5
O3 C3 C4 108.0(10)
O3 C3 C2 103.0(12)
C4 C3 C2 112.0(11)
O3 C3 H5 111.2
C4 C3 H5 111.2
C2 C3 H5 111.2
C3 O3 H6 109.5
C3 C4 H8 109.5
C3 C4 H9 109.5
H8 C4 H9 109.5
C3 C4 H7 109.5
H8 C4 H7 109.5
H9 C4 H7 109.5
loop_
_geom_bond_atom_site_label_1
_geom_bond_atom_site_label_2
_geom_bond_distance
C1 O1 1.224(12)
C1 O2 1.242(10)
C1 C2 1.511(14)
C2 N1 1.468(13)
C2 C3 1.522(17)
C2 H4 0.9800
N1 H2 0.8900
N1 H3 0.8900
N1 H1 0.8900
C3 O3 1.429(14)
C3 C4 1.479(13)
C3 H5 0.9800
O3 H6 0.8200
C4 H8 0.9600
C4 H9 0.9600
C4 H7 0.9600
loop_
_geom_hbond_atom_site_label_D
_geom_hbond_atom_site_label_H
_geom_hbond_atom_site_label_A
_geom_hbond_distance_DH
_geom_hbond_distance_HA
_geom_hbond_distance_DA
_geom_hbond_angle_DHA
_geom_hbond_site_symmetry_A
C2 H4 O3 0.98 2.09 3.005(17) 154.3 4_456
N1 H2 O3 0.89 2.09 2.856(12) 143.0 4_556
N1 H3 O1 0.89 1.98 2.57(2) 122.6 2_664
N1 H3 O2 0.89 1.99 2.68(2) 133.0 2_564
N1 H1 O2 0.89 1.86 2.669(15) 149.6 1_655
C3 H5 O2 0.98 2.37 3.20(2) 141.8 2_565
O3 H6 O1 0.82 1.78 2.517(13) 148.7 3_646
O3 H6 O2 0.82 2.84 3.442(12) 131.6 3_646
C4 H8 O1 0.96 2.15 2.92(2) 135.6 2_565
C4 H8 O2 0.96 2.63 3.182(18) 116.8 .
C4 H9 N1 0.96 2.58 3.23(2) 125.3 4_456
C4 H9 O3 0.96 2.32 2.909(13) 119.3 1_455
C4 H9 O3 0.96 2.46 3.28(2) 143.4 4_456
C4 H7 O3 0.96 2.56 3.27(2) 130.5 4_457
