#------------------------------------------------------------------------------
#$Date: 2019-11-07 21:56:27 +0200 (Thu, 07 Nov 2019) $
#$Revision: 223656 $
#$URL: file:///home/coder/svn-repositories/cod/cif/7/23/20/7232080.cif $
#------------------------------------------------------------------------------
#
# This file is available in the Crystallography Open Database (COD),
# http://www.crystallography.net/
#
# All data on this site have been placed in the public domain by the
# contributors.
#
data_7232080
loop_
_publ_author_name
'Sharara, Kudzaishe N.'
'Nyamayaro, Kudzanai'
'Wicht, Merrill M.'
'Venter, Gerhard A.'
'B\'athori, Nikoletta B.'
_publ_section_title
;
 Multicomponent crystals of nitrofurazone -- when more is less
;
_journal_issue                   7
_journal_name_full               CrystEngComm
_journal_page_first              1091
_journal_paper_doi               10.1039/C8CE01911H
_journal_volume                  21
_journal_year                    2019
_chemical_formula_sum            'C6 H6 N4 O4'
_chemical_formula_weight         198.15
_space_group_crystal_system      monoclinic
_space_group_IT_number           4
_space_group_name_Hall           'P 2yb'
_space_group_name_H-M_alt        'P 1 21 1'
_symmetry_space_group_name_Hall  'P 2yb'
_symmetry_space_group_name_H-M   'P 1 21 1'
_atom_sites_solution_hydrogens   difmap
_audit_creation_method           SHELXL-2016/4
_audit_update_record
;
2018-11-06 deposited with the CCDC.
2019-01-03 downloaded from the CCDC.
;
_cell_angle_alpha                90
_cell_angle_beta                 92.360(3)
_cell_angle_gamma                90
_cell_formula_units_Z            2
_cell_length_a                   4.2098(5)
_cell_length_b                   6.9632(9)
_cell_length_c                   14.2021(18)
_cell_measurement_reflns_used    1746
_cell_measurement_temperature    173(2)
_cell_measurement_theta_max      28.033
_cell_measurement_theta_min      1.435
_cell_volume                     415.96(9)
_computing_structure_refinement  'SHELXL-2016/4 (Sheldrick, 2016)'
_diffrn_ambient_temperature      173(2)
_diffrn_measured_fraction_theta_full 0.996
_diffrn_measured_fraction_theta_max 0.992
_diffrn_measurement_device_type  'Bruker APEX II'
_diffrn_radiation_type           MoK\a
_diffrn_radiation_wavelength     0.71073
_diffrn_reflns_av_R_equivalents  0.0222
_diffrn_reflns_av_unetI/netI     0.0268
_diffrn_reflns_Laue_measured_fraction_full 0.996
_diffrn_reflns_Laue_measured_fraction_max 0.992
_diffrn_reflns_limit_h_max       5
_diffrn_reflns_limit_h_min       -5
_diffrn_reflns_limit_k_max       9
_diffrn_reflns_limit_k_min       -9
_diffrn_reflns_limit_l_max       18
_diffrn_reflns_limit_l_min       -18
_diffrn_reflns_number            5583
_diffrn_reflns_point_group_measured_fraction_full 0.996
_diffrn_reflns_point_group_measured_fraction_max 0.989
_diffrn_reflns_theta_full        25.242
_diffrn_reflns_theta_max         28.033
_diffrn_reflns_theta_min         1.435
_exptl_absorpt_coefficient_mu    0.135
_exptl_absorpt_correction_T_max  1.000
_exptl_absorpt_correction_T_min  0.920
_exptl_absorpt_correction_type   multi-scan
_exptl_absorpt_process_details   'SADABS, Bruker ASX'
_exptl_crystal_colour            yellow
_exptl_crystal_density_diffrn    1.582
_exptl_crystal_description       prism
_exptl_crystal_F_000             204
_exptl_crystal_recrystallization_method 'Re-crystallisation from solvent'
_exptl_crystal_size_max          0.410
_exptl_crystal_size_mid          0.170
_exptl_crystal_size_min          0.080
_refine_diff_density_max         0.123
_refine_diff_density_min         -0.198
_refine_diff_density_rms         0.038
_refine_ls_abs_structure_details
;
 Flack x determined using 704 quotients [(I+)-(I-)]/[(I+)+(I-)]
 (Parsons, Flack and Wagner, Acta Cryst. B69 (2013) 249-259).
;
_refine_ls_abs_structure_Flack   -0.5(6)
_refine_ls_extinction_method     none
_refine_ls_goodness_of_fit_ref   1.038
_refine_ls_hydrogen_treatment    refall
_refine_ls_matrix_type           full
_refine_ls_number_parameters     151
_refine_ls_number_reflns         1996
_refine_ls_number_restraints     1
_refine_ls_restrained_S_all      1.038
_refine_ls_R_factor_all          0.0397
_refine_ls_R_factor_gt           0.0331
_refine_ls_shift/su_max          0.000
_refine_ls_shift/su_mean         0.000
_refine_ls_structure_factor_coef Fsqd
_refine_ls_weighting_details
'w=1/[\s^2^(Fo^2^)+(0.0455P)^2^+0.0059P] where P=(Fo^2^+2Fc^2^)/3'
_refine_ls_weighting_scheme      calc
_refine_ls_wR_factor_gt          0.0770
_refine_ls_wR_factor_ref         0.0806
_reflns_Friedel_coverage         0.845
_reflns_Friedel_fraction_full    0.996
_reflns_Friedel_fraction_max     0.986
_reflns_number_gt                1746
_reflns_number_total             1996
_reflns_threshold_expression     'I > 2\s(I)'
_cod_data_source_file            c8ce01911h2.cif
_cod_data_source_block           beta_LT
_cod_depositor_comments
'Adding full bibliography for 7232079--7232083.cif.'
_cod_database_code               7232080
_shelx_shelxl_version_number     2016/4
_shelx_space_group_comment
;
The symmetry employed for this shelxl refinement is uniquely defined
by the following loop, which should always be used as a source of
symmetry information in preference to the above space-group names.
They are only intended as comments.
;
_shelx_estimated_absorpt_t_min   0.947
_shelx_estimated_absorpt_t_max   0.989
_shelx_res_file
;
TITL beta_LT
 C:\Students\NIGEL_~1\NS0707~1\final\beta_LT.res created by SHELXL-2016/4 at 17:16:33 on 11-Jun-2017
CELL 0.71073 4.2098 6.9632 14.2021 90.000 92.360 90.000
ZERR 2.0000 0.0005 0.0009 0.0018 0.000 0.003 0.000
LATT -1
SYMM -X, 0.5+Y, -Z
SFAC C H N O
UNIT 12 12 8 8
MERG 2
FMAP 2
GRID
PLAN 20
TEMP -100
SIZE 0.08 0.17 0.41
BOND
CONF
HTAB
L.S. 20
ACTA
WGHT    0.045500    0.005900
FVAR       0.32207
N1    3    0.202921    0.020118    0.380549    11.00000    0.03107    0.03876 =
         0.02702    0.00983    0.00842    0.00333
O2    4    0.199182   -0.126595    0.332156    11.00000    0.05948    0.03826 =
         0.04885   -0.00018    0.02339   -0.00894
O3    4    0.047669    0.042356    0.451381    11.00000    0.03985    0.05695 =
         0.03292    0.01062    0.01755    0.00127
C4    1    0.393304    0.177717    0.353873    11.00000    0.01927    0.03705 =
         0.02206    0.00464    0.00588    0.00434
O5    4    0.561145    0.153817    0.275497    11.00000    0.02478    0.02867 =
         0.02360    0.00251    0.00765    0.00032
C6    1    0.710754    0.326931    0.263784    11.00000    0.01839    0.02690 =
         0.02683    0.00135    0.00155    0.00044
C7    1    0.636640    0.452376    0.333274    11.00000    0.02474    0.03506 =
         0.02811   -0.00380    0.00552    0.00069
H7    2    0.719547    0.582745    0.342730    11.00000    0.04494
C8    1    0.428955    0.353866    0.392115    11.00000    0.02276    0.04534 =
         0.02474   -0.00402    0.00581    0.00629
H8    2    0.320469    0.404546    0.444216    11.00000    0.04382
C9    1    0.909823    0.337179    0.183380    11.00000    0.02155    0.02793 =
         0.02100    0.00030    0.00286    0.00228
H9    2    0.931179    0.223118    0.146785    11.00000    0.01881
N10   3    1.036555    0.498551    0.163900    11.00000    0.02137    0.02814 =
         0.02271    0.00099    0.00537    0.00374
N11   3    1.221137    0.501162    0.087479    11.00000    0.02777    0.02255 =
         0.02360   -0.00046    0.00862    0.00134
H11   2    1.272074    0.388267    0.056541    11.00000    0.03398
C12   1    1.356797    0.668847    0.060049    11.00000    0.02867    0.02313 =
         0.02397    0.00180    0.00353    0.00268
O13   4    1.511456    0.668689   -0.012478    11.00000    0.04202    0.02280 =
         0.02700    0.00234    0.01376    0.00073
N14   3    1.311694    0.824374    0.112233    11.00000    0.06373    0.02292 =
         0.03562   -0.00226    0.02644   -0.00290
H15   2    1.397456    0.935783    0.090335    11.00000    0.04562
H14   2    1.215759    0.820088    0.162351    11.00000    0.03722
HKLF 4




REM  beta_LT
REM R1 =  0.0331 for    1746 Fo > 4sig(Fo)  and  0.0397 for all    1996 data
REM    151 parameters refined using      1 restraints

END

WGHT      0.0456      0.0059

REM Instructions for potential hydrogen bonds
EQIV $1 -x, y+1/2, -z+
HTAB C8 O3_$1
EQIV $2 -x+2, y-1/2, -
HTAB C9 O13_$2
EQIV $3 -x+3, y-1/2, -
HTAB N11 O13_$3
EQIV $4 -x+3, y+1/2, -
HTAB N14 O13_$4
EQIV $5 x+1, y+1,
HTAB N14 O2_$5

REM Highest difference peak  0.123,  deepest hole -0.198,  1-sigma level  0.038
Q1    1   1.5167  0.3405  0.1185  11.00000  0.05    0.12
Q2    1   0.7911  0.3346  0.2220  11.00000  0.05    0.12
Q3    1   1.7093  0.7047 -0.0073  11.00000  0.05    0.12
Q4    1   0.3139  0.1444  0.2566  11.00000  0.05    0.12
Q5    1   0.9330  0.4427  0.4022  11.00000  0.05    0.11
Q6    1   0.9900  0.4977  0.0184  11.00000  0.05    0.11
Q7    1   1.1002  0.6713 -0.0211  11.00000  0.05    0.10
Q8    1   0.9777  0.6184  0.3807  11.00000  0.05    0.10
Q9    1   1.8518  0.6706  0.0452  11.00000  0.05    0.10
Q10   1   1.3582  0.8522  0.2027  11.00000  0.05    0.10
Q11   1   0.6579  0.7928  0.3052  11.00000  0.05    0.10
Q12   1   0.4002  0.0885  0.3861  11.00000  0.05    0.10
Q13   1   1.3021  0.6867 -0.0735  11.00000  0.05    0.10
Q14   1   0.2979  0.4033  0.2924  11.00000  0.05    0.10
Q15   1   1.5118  0.7630  0.1221  11.00000  0.05    0.10
Q16   1  -0.0426 -0.1562  0.2604  11.00000  0.05    0.10
Q17   1   1.1153  0.8470  0.0183  11.00000  0.05    0.09
Q18   1   0.5198  0.2421  0.3850  11.00000  0.05    0.09
Q19   1  -0.2056  0.2247  0.5368  11.00000  0.05    0.09
Q20   1   0.8915  0.2832  0.0620  11.00000  0.05    0.09
;
_shelx_res_checksum              46353
loop_
_space_group_symop_operation_xyz
'x, y, z'
'-x, y+1/2, -z'
loop_
_atom_site_label
_atom_site_type_symbol
_atom_site_fract_x
_atom_site_fract_y
_atom_site_fract_z
_atom_site_U_iso_or_equiv
_atom_site_adp_type
_atom_site_occupancy
_atom_site_site_symmetry_order
_atom_site_calc_flag
N1 N 0.2029(5) 0.0201(3) 0.38055(13) 0.0321(5) Uani 1 1 d
O2 O 0.1992(5) -0.1266(3) 0.33216(13) 0.0483(5) Uani 1 1 d
O3 O 0.0477(4) 0.0424(3) 0.45138(12) 0.0428(5) Uani 1 1 d
C4 C 0.3933(5) 0.1777(4) 0.35387(14) 0.0260(5) Uani 1 1 d
O5 O 0.5611(3) 0.1538(2) 0.27550(10) 0.0255(3) Uani 1 1 d
C6 C 0.7108(5) 0.3269(3) 0.26378(15) 0.0240(4) Uani 1 1 d
C7 C 0.6366(5) 0.4524(4) 0.33327(15) 0.0292(5) Uani 1 1 d
H7 H 0.720(6) 0.583(5) 0.3427(18) 0.045(8) Uiso 1 1 d
C8 C 0.4290(5) 0.3539(4) 0.39212(15) 0.0308(5) Uani 1 1 d
H8 H 0.320(7) 0.405(4) 0.4442(19) 0.044(8) Uiso 1 1 d
C9 C 0.9098(5) 0.3372(3) 0.18338(14) 0.0234(4) Uani 1 1 d
H9 H 0.931(5) 0.223(4) 0.1468(15) 0.019(6) Uiso 1 1 d
N10 N 1.0366(4) 0.4986(3) 0.16390(12) 0.0240(4) Uani 1 1 d
N11 N 1.2211(5) 0.5012(3) 0.08748(13) 0.0244(4) Uani 1 1 d
H11 H 1.272(6) 0.388(4) 0.0565(18) 0.034(7) Uiso 1 1 d
C12 C 1.3568(5) 0.6688(3) 0.06005(14) 0.0252(4) Uani 1 1 d
O13 O 1.5115(4) 0.6687(2) -0.01248(10) 0.0303(4) Uani 1 1 d
N14 N 1.3117(6) 0.8244(3) 0.11223(15) 0.0401(6) Uani 1 1 d
H15 H 1.397(7) 0.936(5) 0.090(2) 0.046(8) Uiso 1 1 d
H14 H 1.216(6) 0.820(4) 0.162(2) 0.037(7) Uiso 1 1 d
loop_
_atom_site_aniso_label
_atom_site_aniso_U_11
_atom_site_aniso_U_22
_atom_site_aniso_U_33
_atom_site_aniso_U_23
_atom_site_aniso_U_13
_atom_site_aniso_U_12
N1 0.0311(10) 0.0388(12) 0.0270(9) 0.0098(8) 0.0084(8) 0.0033(9)
O2 0.0595(12) 0.0383(11) 0.0488(10) -0.0002(9) 0.0234(9) -0.0089(9)
O3 0.0399(10) 0.0569(12) 0.0329(9) 0.0106(8) 0.0175(8) 0.0013(9)
C4 0.0193(10) 0.0370(12) 0.0221(10) 0.0046(10) 0.0059(8) 0.0043(10)
O5 0.0248(7) 0.0287(8) 0.0236(7) 0.0025(6) 0.0077(6) 0.0003(6)
C6 0.0184(9) 0.0269(11) 0.0268(10) 0.0014(9) 0.0015(8) 0.0004(9)
C7 0.0247(11) 0.0351(13) 0.0281(11) -0.0038(10) 0.0055(9) 0.0007(10)
C8 0.0228(10) 0.0453(14) 0.0247(10) -0.0040(11) 0.0058(9) 0.0063(10)
C9 0.0215(10) 0.0279(11) 0.0210(9) 0.0003(9) 0.0029(8) 0.0023(9)
N10 0.0214(9) 0.0281(9) 0.0227(8) 0.0010(8) 0.0054(7) 0.0037(8)
N11 0.0278(9) 0.0225(9) 0.0236(8) -0.0005(8) 0.0086(7) 0.0013(7)
C12 0.0287(11) 0.0231(10) 0.0240(10) 0.0018(9) 0.0035(9) 0.0027(9)
O13 0.0420(9) 0.0228(8) 0.0270(8) 0.0023(7) 0.0138(7) 0.0007(8)
N14 0.0637(15) 0.0229(10) 0.0356(11) -0.0023(9) 0.0264(11) -0.0029(10)
loop_
_atom_type_symbol
_atom_type_description
_atom_type_scat_dispersion_real
_atom_type_scat_dispersion_imag
_atom_type_scat_source
C C 0.0033 0.0016 'International Tables Vol C Tables 4.2.6.8 and 6.1.1.4'
H H 0.0000 0.0000 'International Tables Vol C Tables 4.2.6.8 and 6.1.1.4'
N N 0.0061 0.0033 'International Tables Vol C Tables 4.2.6.8 and 6.1.1.4'
O O 0.0106 0.0060 'International Tables Vol C Tables 4.2.6.8 and 6.1.1.4'
loop_
_geom_angle_atom_site_label_1
_geom_angle_atom_site_label_2
_geom_angle_atom_site_label_3
_geom_angle
O2 N1 O3 124.4(2)
O2 N1 C4 119.14(18)
O3 N1 C4 116.4(2)
C8 C4 O5 113.0(2)
C8 C4 N1 130.61(19)
O5 C4 N1 116.4(2)
C4 O5 C6 104.44(18)
C7 C6 O5 110.78(19)
C7 C6 C9 134.2(2)
O5 C6 C9 115.00(18)
C6 C7 C8 106.4(2)
C4 C8 C7 105.4(2)
N10 C9 C6 118.34(19)
C9 N10 N11 116.18(17)
N10 N11 C12 119.93(18)
O13 C12 N14 123.7(2)
O13 C12 N11 118.5(2)
N14 C12 N11 117.83(18)
loop_
_geom_bond_atom_site_label_1
_geom_bond_atom_site_label_2
_geom_bond_distance
N1 O2 1.231(3)
N1 O3 1.232(2)
N1 C4 1.420(3)
C4 C8 1.347(4)
C4 O5 1.353(2)
O5 C6 1.373(3)
C6 C7 1.364(3)
C6 C9 1.446(3)
C7 C8 1.412(3)
C9 N10 1.279(3)
N10 N11 1.361(2)
N11 C12 1.364(3)
C12 O13 1.241(2)
C12 N14 1.330(3)
loop_
_geom_torsion_atom_site_label_1
_geom_torsion_atom_site_label_2
_geom_torsion_atom_site_label_3
_geom_torsion_atom_site_label_4
_geom_torsion
O2 N1 C4 C8 177.2(2)
O3 N1 C4 C8 -1.9(4)
O2 N1 C4 O5 -0.2(3)
O3 N1 C4 O5 -179.33(18)
C8 C4 O5 C6 -0.2(2)
N1 C4 O5 C6 177.63(18)
C4 O5 C6 C7 0.2(2)
C4 O5 C6 C9 179.67(17)
O5 C6 C7 C8 -0.1(2)
C9 C6 C7 C8 -179.4(2)
O5 C4 C8 C7 0.2(3)
N1 C4 C8 C7 -177.3(2)
C6 C7 C8 C4 -0.1(2)
C7 C6 C9 N10 -6.1(4)
O5 C6 C9 N10 174.61(17)
C6 C9 N10 N11 -179.83(18)
C9 N10 N11 C12 177.9(2)
N10 N11 C12 O13 -176.64(18)
N10 N11 C12 N14 2.5(3)
