#------------------------------------------------------------------------------
#$Date: 2019-11-07 21:58:40 +0200 (Thu, 07 Nov 2019) $
#$Revision: 223668 $
#$URL: file:///home/coder/svn-repositories/cod/cif/7/23/27/7232736.cif $
#------------------------------------------------------------------------------
#
# This file is available in the Crystallography Open Database (COD),
# http://www.crystallography.net/
#
# All data on this site have been placed in the public domain by the
# contributors.
#
data_7232736
loop_
_publ_author_name
'Giordano, Nico'
'Beavers, Christine M.'
'Kamenev, Konstantin V.'
'Marshall, William G.'
'Moggach, Stephen A.'
'Patterson, Simon D.'
'Teat, Simon J.'
'Warren, John E.'
'Wood, Peter A.'
'Parsons, Simon'
_publ_section_title
;
 High-pressure polymorphism in l-threonine between ambient pressure and 22
 GPa
;
_journal_issue                   30
_journal_name_full               CrystEngComm
_journal_page_first              4444
_journal_paper_doi               10.1039/C9CE00388F
_journal_volume                  21
_journal_year                    2019
_chemical_absolute_configuration syn
_chemical_formula_sum            'C4 H9 N O3'
_chemical_formula_weight         119.12
_chemical_name_common            L-threonine
_chemical_name_systematic        '2S,3R)-2-amino-3-hydroxybutanoic acid'
_space_group_crystal_system      orthorhombic
_space_group_IT_number           19
_space_group_name_Hall           'P 2ac 2ab'
_space_group_name_H-M_alt        'P 21 21 21'
_symmetry_space_group_name_Hall  'P 2ac 2ab'
_symmetry_space_group_name_H-M   'P 21 21 21'
_atom_sites_solution_hydrogens   geom
_audit_creation_method           SHELXL-2014/7
_audit_update_record
;
2019-03-15 deposited with the CCDC.    2019-05-09 downloaded from the CCDC.
;
_cell_angle_alpha                90
_cell_angle_beta                 90
_cell_angle_gamma                90
_cell_formula_units_Z            4
_cell_length_a                   4.933(2)
_cell_length_b                   13.248(9)
_cell_length_c                   6.841(3)
_cell_measurement_reflns_used    1808
_cell_measurement_temperature    298(2)
_cell_measurement_theta_max      18.07
_cell_measurement_theta_min      2.34
_cell_volume                     447.1(4)
_computing_structure_refinement  'SHELXL-2014/7 (Sheldrick, 2014)'
_diffrn_ambient_pressure         5.91
_diffrn_ambient_temperature      298(2)
_diffrn_measured_fraction_theta_full 0.519
_diffrn_measured_fraction_theta_max 0.514
_diffrn_measurement_device_type  'Perkin-Elmer a-Si Detector'
_diffrn_measurement_method       '\f shutterless scan'
_diffrn_radiation_monochromator  silicon(111)
_diffrn_radiation_source         'Advanced Light Source Beamline 12.2.2'
_diffrn_radiation_type           synchrotron
_diffrn_radiation_wavelength     0.49594
_diffrn_reflns_av_R_equivalents  0.0790
_diffrn_reflns_av_unetI/netI     0.0697
_diffrn_reflns_Laue_measured_fraction_full 0.519
_diffrn_reflns_Laue_measured_fraction_max 0.514
_diffrn_reflns_limit_h_max       6
_diffrn_reflns_limit_h_min       -6
_diffrn_reflns_limit_k_max       8
_diffrn_reflns_limit_k_min       -8
_diffrn_reflns_limit_l_max       8
_diffrn_reflns_limit_l_min       -8
_diffrn_reflns_number            1638
_diffrn_reflns_point_group_measured_fraction_full 0.516
_diffrn_reflns_point_group_measured_fraction_max 0.509
_diffrn_reflns_theta_full        17.311
_diffrn_reflns_theta_max         18.051
_diffrn_reflns_theta_min         2.338
_exptl_absorpt_coefficient_mu    0.074
_exptl_absorpt_correction_T_max  0.7442
_exptl_absorpt_correction_T_min  0.5807
_exptl_absorpt_correction_type   multi-scan
_exptl_absorpt_process_details   'SADABS-2014/5 (Sheldrick, 2015)'
_exptl_crystal_colour            colourless
_exptl_crystal_density_diffrn    1.770
_exptl_crystal_description       blade
_exptl_crystal_F_000             256
_exptl_crystal_size_max          0.060
_exptl_crystal_size_mid          0.040
_exptl_crystal_size_min          0.020
_refine_diff_density_max         0.396
_refine_diff_density_min         -0.278
_refine_diff_density_rms         0.080
_refine_ls_abs_structure_details
;
 Flack x determined using 112 quotients [(I+)-(I-)]/[(I+)+(I-)]
 (Parsons, Flack and Wagner, Acta Cryst. B69 (2013) 249-259).
;
_refine_ls_extinction_coef       0.50(13)
_refine_ls_extinction_expression Fc^*^=kFc[1+0.001xFc^2^\l^3^/sin(2\q)]^-1/4^
_refine_ls_extinction_method     'SHELXL-2014/7 (Sheldrick 2014'
_refine_ls_goodness_of_fit_ref   1.126
_refine_ls_hydrogen_treatment    constr
_refine_ls_matrix_type           full
_refine_ls_number_parameters     34
_refine_ls_number_reflns         465
_refine_ls_number_restraints     17
_refine_ls_restrained_S_all      1.114
_refine_ls_R_factor_all          0.0753
_refine_ls_R_factor_gt           0.0572
_refine_ls_shift/su_max          0.000
_refine_ls_shift/su_mean         0.000
_refine_ls_structure_factor_coef Fsqd
_refine_ls_weighting_details
'w=1/[\s^2^(Fo^2^)+(0.0747P)^2^+0.1609P] where P=(Fo^2^+2Fc^2^)/3'
_refine_ls_weighting_scheme      calc
_refine_ls_wR_factor_gt          0.1389
_refine_ls_wR_factor_ref         0.1561
_reflns_Friedel_coverage         0.598
_reflns_Friedel_fraction_full    0.511
_reflns_Friedel_fraction_max     0.500
_reflns_number_gt                357
_reflns_number_total             465
_reflns_threshold_expression     'I > 2\s(I)'
_cod_data_source_file            c9ce00388f5.cif
_cod_data_source_block           5_91GPa
_cod_depositor_comments
'Adding full bibliography for 7232730--7232750.cif.'
_cod_database_code               7232736
_shelx_shelxl_version_number     2014/7
_shelx_space_group_comment
;
The symmetry employed for this shelxl refinement is uniquely defined
by the following loop, which should always be used as a source of
symmetry information in preference to the above space-group names.
They are only intended as comments.
;
_shelx_estimated_absorpt_t_min   0.996
_shelx_estimated_absorpt_t_max   0.999
_shelx_res_file
;

    APTH03.res created by SHELXL-2014/7


TITL APTH03 in P2(1)2(1)2(1)
CELL 0.49594   4.93320  13.24800   6.84080  90.0000  90.0000  90.0000
ZERR    4.00   0.00200   0.00900   0.00280   0.0000   0.0000   0.0000
LATT -1
SYMM 1/2-X, -Y, 1/2+Z
SYMM -X, 1/2+Y, 1/2-Z
SYMM 1/2+X, 1/2-Y, -Z
SFAC C H N O
DISP $C  0.00086  0.00074  6.27610!source kissel
DISP $H -0.00003  0.00000  0.65340!source kissel
DISP $N  0.00207  0.00152  9.39816!source kissel
DISP $O  0.00413  0.00279 14.09704!source kissel
UNIT 16 36 4 12
OMIT 0 7 6
OMIT 4 8 4
OMIT 4 6 0
DFIX 1.241 C1 O1
DFIX 1.249 C1 O2
DFIX 1.536 C1 C2
DFIX 1.489 C2 N1
DFIX 1.53 C2 C3
DFIX 1.424 C3 O3
DFIX 1.513 C3 C4
DFIX 2.229 0.04 O1 O2
DFIX 2.368 0.04 O1 C2
DFIX 2.37 0.04 O2 C2
DFIX 2.477 0.04 C1 N1
DFIX 2.553 0.04 C1 C3
DFIX 2.453 0.04 N1 C3
DFIX 2.332 0.04 C2 O3
DFIX 2.543 0.04 C2 C4
DFIX 2.332 0.04 O3 C2
DFIX 2.421 0.04 O3 C4
RIGU
L.S. 10
PLAN 5
SIZE 0.02 0.04 0.06 !colourless blade
ACTA
TEMP 25
BOND $H
LIST 6
fmap 2
WGHT    0.074700    0.160900
EXTI    0.500353
FVAR       0.58795
C1    1    0.317548    0.505438    0.644548    11.00000    0.01738
O1    4    0.502097    0.566426    0.675954    11.00000    0.02827
O2    4    0.069184    0.521466    0.660527    11.00000    0.02720
C2    1    0.404310    0.400721    0.581341    11.00000    0.01750
AFIX  13
H4    2    0.274855    0.375024    0.484743    11.00000   -1.20000
AFIX   0
N1    3    0.675465    0.406105    0.491334    11.00000    0.01934
AFIX  33
H2    2    0.726781    0.344637    0.454101    11.00000   -1.50000
H3    2    0.669784    0.446660    0.387694    11.00000   -1.50000
H1    2    0.793520    0.430269    0.577871    11.00000   -1.50000
AFIX   0
C3    1    0.419643    0.326971    0.752178    11.00000    0.02163
AFIX  13
H5    2    0.527865    0.356251    0.858087    11.00000   -1.20000
AFIX   0
O3    4    0.556110    0.241154    0.672588    11.00000    0.02510
AFIX  83
H6    2    0.539860    0.193150    0.747346    11.00000   -1.50000
AFIX   0
C4    1    0.146536    0.299005    0.826382    11.00000    0.02561
AFIX  33
H8    2    0.059061    0.357758    0.878995    11.00000   -1.50000
H9    2    0.039692    0.272290    0.721119    11.00000   -1.50000
H7    2    0.164495    0.248910    0.926950    11.00000   -1.50000
AFIX   0
HKLF 4

REM  APTH03 in P2(1)2(1)2(1)
REM R1 =  0.0572 for     357 Fo > 4sig(Fo)  and  0.0753 for all     465 data
REM     34 parameters refined using     17 restraints

END

WGHT      0.0744      0.1591

REM Highest difference peak  0.396,  deepest hole -0.278,  1-sigma level  0.080
Q1    1   0.0786  0.5649  0.6153  11.00000  0.05    0.40
Q2    1   0.0784  0.4975  0.7301  11.00000  0.05    0.35
Q3    1  -0.2064  0.5478  0.5753  11.00000  0.05    0.24
Q4    1   0.8332  0.2923  0.5968  11.00000  0.05    0.24
Q5    1   0.2938  0.2202  0.9795  11.00000  0.05    0.22
;
_shelx_res_checksum              52315
loop_
_space_group_symop_operation_xyz
'x, y, z'
'-x+1/2, -y, z+1/2'
'-x, y+1/2, -z+1/2'
'x+1/2, -y+1/2, -z'
loop_
_atom_site_label
_atom_site_type_symbol
_atom_site_fract_x
_atom_site_fract_y
_atom_site_fract_z
_atom_site_U_iso_or_equiv
_atom_site_adp_type
_atom_site_occupancy
_atom_site_site_symmetry_order
_atom_site_calc_flag
_atom_site_refinement_flags_posn
_atom_site_refinement_flags_adp
C1 C 0.3175(11) 0.5054(9) 0.6445(8) 0.0174(13) Uiso 1 1 d D .
O1 O 0.5021(8) 0.5664(8) 0.6760(6) 0.0283(14) Uiso 1 1 d D .
O2 O 0.0692(8) 0.5215(8) 0.6605(6) 0.0272(13) Uiso 1 1 d D .
C2 C 0.4043(11) 0.4007(9) 0.5813(8) 0.0175(15) Uiso 1 1 d D .
H4 H 0.2749 0.3750 0.4847 0.021 Uiso 1 1 calc R U
N1 N 0.6755(10) 0.4061(10) 0.4913(6) 0.0193(14) Uiso 1 1 d D .
H2 H 0.7268 0.3446 0.4541 0.029 Uiso 1 1 calc R U
H3 H 0.6698 0.4467 0.3877 0.029 Uiso 1 1 calc R U
H1 H 0.7935 0.4303 0.5779 0.029 Uiso 1 1 calc R U
C3 C 0.4196(12) 0.3270(9) 0.7522(9) 0.0216(15) Uiso 1 1 d D .
H5 H 0.5279 0.3563 0.8581 0.026 Uiso 1 1 calc R U
O3 O 0.5561(8) 0.2412(7) 0.6726(6) 0.0251(13) Uiso 1 1 d D .
H6 H 0.5399 0.1932 0.7473 0.038 Uiso 1 1 calc R U
C4 C 0.1465(11) 0.2990(13) 0.8264(9) 0.0256(17) Uiso 1 1 d D .
H8 H 0.0591 0.3578 0.8790 0.038 Uiso 1 1 calc R U
H9 H 0.0397 0.2723 0.7211 0.038 Uiso 1 1 calc R U
H7 H 0.1645 0.2489 0.9269 0.038 Uiso 1 1 calc R U
loop_
_atom_type_symbol
_atom_type_description
_atom_type_scat_dispersion_real
_atom_type_scat_dispersion_imag
_atom_type_scat_source
C C 0.0009 0.0007 'International Tables Vol C Tables 4.2.6.8 and 6.1.1.4'
H H 0.0000 0.0000 'International Tables Vol C Tables 4.2.6.8 and 6.1.1.4'
N N 0.0021 0.0015 'International Tables Vol C Tables 4.2.6.8 and 6.1.1.4'
O O 0.0041 0.0028 'International Tables Vol C Tables 4.2.6.8 and 6.1.1.4'
loop_
_geom_angle_atom_site_label_1
_geom_angle_atom_site_label_2
_geom_angle_atom_site_label_3
_geom_angle
O1 C1 O2 126.6(11)
O1 C1 C2 116.1(6)
O2 C1 C2 117.3(9)
N1 C2 C1 109.3(8)
N1 C2 C3 107.8(6)
C1 C2 C3 112.5(6)
N1 C2 H4 109.1
C1 C2 H4 109.1
C3 C2 H4 109.1
C2 N1 H2 109.5
C2 N1 H3 109.5
H2 N1 H3 109.5
C2 N1 H1 109.5
H2 N1 H1 109.5
H3 N1 H1 109.5
O3 C3 C4 111.0(10)
O3 C3 C2 103.9(5)
C4 C3 C2 112.1(6)
O3 C3 H5 109.9
C4 C3 H5 109.9
C2 C3 H5 109.9
C3 O3 H6 109.5
C3 C4 H8 109.5
C3 C4 H9 109.5
H8 C4 H9 109.5
C3 C4 H7 109.5
H8 C4 H7 109.5
H9 C4 H7 109.5
loop_
_geom_bond_atom_site_label_1
_geom_bond_atom_site_label_2
_geom_bond_distance
C1 O1 1.236(11)
C1 O2 1.248(7)
C1 C2 1.515(14)
C2 N1 1.474(7)
C2 C3 1.525(11)
C2 H4 0.9800
N1 H2 0.8900
N1 H3 0.8900
N1 H1 0.8900
C3 O3 1.429(12)
C3 C4 1.487(9)
C3 H5 0.9800
O3 H6 0.8200
C4 H8 0.9600
C4 H9 0.9600
C4 H7 0.9600
