#------------------------------------------------------------------------------
#$Date: 2019-11-07 21:58:40 +0200 (Thu, 07 Nov 2019) $
#$Revision: 223668 $
#$URL: file:///home/coder/svn-repositories/cod/cif/7/23/27/7232746.cif $
#------------------------------------------------------------------------------
#
# This file is available in the Crystallography Open Database (COD),
# http://www.crystallography.net/
#
# All data on this site have been placed in the public domain by the
# contributors.
#
data_7232746
loop_
_publ_author_name
'Giordano, Nico'
'Beavers, Christine M.'
'Kamenev, Konstantin V.'
'Marshall, William G.'
'Moggach, Stephen A.'
'Patterson, Simon D.'
'Teat, Simon J.'
'Warren, John E.'
'Wood, Peter A.'
'Parsons, Simon'
_publ_section_title
;
 High-pressure polymorphism in l-threonine between ambient pressure and 22
 GPa
;
_journal_issue                   30
_journal_name_full               CrystEngComm
_journal_page_first              4444
_journal_paper_doi               10.1039/C9CE00388F
_journal_volume                  21
_journal_year                    2019
_chemical_absolute_configuration syn
_chemical_formula_sum            'C4 H9 N O3'
_chemical_formula_weight         119.12
_chemical_name_common            L-threonine
_chemical_name_systematic        '(2S,3R)-2-amino-3-hydroxybutanoic acid'
_space_group_crystal_system      orthorhombic
_space_group_IT_number           19
_space_group_name_Hall           'P 2ac 2ab'
_space_group_name_H-M_alt        'P 21 21 21'
_symmetry_space_group_name_Hall  'P 2ac 2ab'
_symmetry_space_group_name_H-M   'P 21 21 21'
_atom_sites_solution_hydrogens   geom
_audit_creation_method           SHELXL-2014/7
_audit_update_record
;
2019-03-15 deposited with the CCDC.    2019-05-09 downloaded from the CCDC.
;
_cell_angle_alpha                90
_cell_angle_beta                 90
_cell_angle_gamma                90
_cell_formula_units_Z            4
_cell_length_a                   4.823(4)
_cell_length_b                   13.027(10)
_cell_length_c                   6.481(7)
_cell_measurement_reflns_used    588
_cell_measurement_temperature    298(2)
_cell_measurement_theta_max      17.99
_cell_measurement_theta_min      3.14
_cell_volume                     407.2(6)
_computing_structure_refinement  'SHELXL-2014/7 (Sheldrick, 2014)'
_diffrn_ambient_pressure         11.19
_diffrn_ambient_temperature      298(2)
_diffrn_measured_fraction_theta_full 0.464
_diffrn_measured_fraction_theta_max 0.448
_diffrn_measurement_device_type  'Perkin-Elmer a-Si Detector'
_diffrn_measurement_method       '\f shutterless scan'
_diffrn_radiation_monochromator  silicon(111)
_diffrn_radiation_source         'Advanced Light Source Beamline 12.2.2'
_diffrn_radiation_type           synchrotron
_diffrn_radiation_wavelength     0.49594
_diffrn_reflns_av_R_equivalents  0.0673
_diffrn_reflns_av_unetI/netI     0.0637
_diffrn_reflns_Laue_measured_fraction_full 0.464
_diffrn_reflns_Laue_measured_fraction_max 0.448
_diffrn_reflns_limit_h_max       5
_diffrn_reflns_limit_h_min       -6
_diffrn_reflns_limit_k_max       15
_diffrn_reflns_limit_k_min       -14
_diffrn_reflns_limit_l_max       3
_diffrn_reflns_limit_l_min       -4
_diffrn_reflns_number            831
_diffrn_reflns_point_group_measured_fraction_full 0.424
_diffrn_reflns_point_group_measured_fraction_max 0.405
_diffrn_reflns_theta_full        17.311
_diffrn_reflns_theta_max         18.136
_diffrn_reflns_theta_min         3.143
_exptl_absorpt_coefficient_mu    0.081
_exptl_absorpt_correction_T_max  0.7442
_exptl_absorpt_correction_T_min  0.5614
_exptl_absorpt_correction_type   multi-scan
_exptl_absorpt_process_details   'SADABS-2014/5 (Sheldrick, 2015)'
_exptl_crystal_colour            colourless
_exptl_crystal_density_diffrn    1.943
_exptl_crystal_description       blade
_exptl_crystal_F_000             256
_exptl_crystal_size_max          0.060
_exptl_crystal_size_mid          0.050
_exptl_crystal_size_min          0.040
_refine_diff_density_max         0.226
_refine_diff_density_min         -0.210
_refine_diff_density_rms         0.062
_refine_ls_abs_structure_details
;
 Flack x determined using 69 quotients [(I+)-(I-)]/[(I+)+(I-)]
 (Parsons, Flack and Wagner, Acta Cryst. B69 (2013) 249-259).
;
_refine_ls_extinction_coef       0.02(14)
_refine_ls_extinction_expression Fc^*^=kFc[1+0.001xFc^2^\l^3^/sin(2\q)]^-1/4^
_refine_ls_extinction_method     'SHELXL-2014/7 (Sheldrick 2014'
_refine_ls_goodness_of_fit_ref   1.037
_refine_ls_hydrogen_treatment    constr
_refine_ls_matrix_type           full
_refine_ls_number_parameters     34
_refine_ls_number_reflns         341
_refine_ls_number_restraints     17
_refine_ls_restrained_S_all      1.035
_refine_ls_R_factor_all          0.0790
_refine_ls_R_factor_gt           0.0533
_refine_ls_shift/su_max          0.000
_refine_ls_shift/su_mean         0.000
_refine_ls_structure_factor_coef Fsqd
_refine_ls_weighting_details
'w=1/[\s^2^(Fo^2^)+(0.1000P)^2^] where P=(Fo^2^+2Fc^2^)/3'
_refine_ls_weighting_scheme      calc
_refine_ls_wR_factor_gt          0.1332
_refine_ls_wR_factor_ref         0.1416
_reflns_Friedel_coverage         0.451
_reflns_Friedel_fraction_full    0.359
_reflns_Friedel_fraction_max     0.335
_reflns_number_gt                279
_reflns_number_total             341
_reflns_threshold_expression     'I > 2\s(I)'
_cod_data_source_file            c9ce00388f5.cif
_cod_data_source_block           11_19GPa
_cod_depositor_comments
'Adding full bibliography for 7232730--7232750.cif.'
_cod_original_cell_volume        407.2(7)
_cod_database_code               7232746
_shelx_shelxl_version_number     2014/7
_shelx_space_group_comment
;
The symmetry employed for this shelxl refinement is uniquely defined
by the following loop, which should always be used as a source of
symmetry information in preference to the above space-group names.
They are only intended as comments.
;
_shelx_estimated_absorpt_t_min   0.995
_shelx_estimated_absorpt_t_max   0.997
_shelx_res_file
;

    THRE06.res created by SHELXL-2014/7


TITL THRE06 in P2(1)2(1)2(1)
CELL 0.49594   4.82340  13.02670   6.48130  90.0000  90.0000  90.0000
ZERR    4.00   0.00440   0.01000   0.00740   0.0000   0.0000   0.0000
LATT -1
SYMM 1/2-X, -Y, 1/2+Z
SYMM -X, 1/2+Y, 1/2-Z
SYMM 1/2+X, 1/2-Y, -Z
SFAC C H N O
DISP $C  0.00086  0.00074  6.27610!source kissel
DISP $H -0.00003  0.00000  0.65340!source kissel
DISP $N  0.00207  0.00152  9.39816!source kissel
DISP $O  0.00413  0.00279 14.09704!source kissel
UNIT 16 36 4 12
OMIT 5 9 1
OMIT 0 8 0
OMIT 4 10 1
OMIT 3 13 2
OMIT 2 14 3
OMIT 2 13 2
OMIT 3 12 2
OMIT 2 12 2
OMIT 5 3 2
OMIT 4 2 2
OMIT 5 1 2
SIZE 0.04 0.05 0.06 !colourless blade
DFIX 1.241 C1 O1
DFIX 1.249 C1 O2
DFIX 1.536 C1 C2
DFIX 1.489 C2 N1
DFIX 1.53 C2 C3
DFIX 1.424 C3 O3
DFIX 1.513 C3 C4
DFIX 2.229 0.04 O1 O2
DFIX 2.368 0.04 O1 C2
DFIX 2.37 0.04 O2 C2
DFIX 2.477 0.04 C1 N1
DFIX 2.553 0.04 C1 C3
DFIX 2.453 0.04 N1 C3
DFIX 2.332 0.04 C2 O3
DFIX 2.543 0.04 C2 C4
DFIX 2.332 0.04 O3 C2
DFIX 2.421 0.04 O3 C4
RIGU
ACTA
L.S. 10
PLAN 5
TEMP 25
BOND $H
LIST 6
fmap 2
WGHT    0.100000
EXTI    0.015115
FVAR       0.74315
C1    1    0.328094    0.507222    0.635173    11.00000    0.02555
O1    4    0.516480    0.569735    0.654488    11.00000    0.02462
O2    4    0.076508    0.525583    0.660108    11.00000    0.02947
C2    1    0.413421    0.400174    0.573711    11.00000    0.02169
AFIX  13
H4    2    0.283141    0.374053    0.470240    11.00000   -1.20000
AFIX   0
N1    3    0.691612    0.404383    0.483414    11.00000    0.02344
AFIX  33
H2    2    0.744085    0.341505    0.446537    11.00000   -1.50000
H3    2    0.689521    0.444932    0.372908    11.00000   -1.50000
H1    2    0.810240    0.429268    0.575938    11.00000   -1.50000
AFIX   0
C3    1    0.416773    0.327969    0.756541    11.00000    0.02465
AFIX  13
H5    2    0.512846    0.360036    0.873146    11.00000   -1.20000
AFIX   0
O3    4    0.568802    0.242604    0.684900    11.00000    0.02491
AFIX  83
H6    2    0.548387    0.194398    0.764827    11.00000   -1.50000
AFIX   0
C4    1    0.135461    0.294218    0.820198    11.00000    0.02948
AFIX  33
H8    2    0.031957    0.352300    0.868959    11.00000   -1.50000
H9    2    0.041722    0.264243    0.704254    11.00000   -1.50000
H7    2    0.150822    0.244288    0.928538    11.00000   -1.50000
AFIX   0
HKLF 4

REM  THRE06 in P2(1)2(1)2(1)
REM R1 =  0.0533 for     279 Fo > 4sig(Fo)  and  0.0790 for all     341 data
REM     34 parameters refined using     17 restraints

END

WGHT      0.0995      0.0000

REM Highest difference peak  0.226,  deepest hole -0.210,  1-sigma level  0.062
Q1    1   0.0600  0.5268  0.5056  11.00000  0.05    0.23
Q2    1   0.9420  0.4449  0.3790  11.00000  0.05    0.21
Q3    1   0.5358  0.5472  0.8230  11.00000  0.05    0.21
Q4    1   0.6235  0.5651  0.6420  11.00000  0.05    0.19
Q5    1   0.5395  0.2326  0.5424  11.00000  0.05    0.19
;
_shelx_res_checksum              35422
loop_
_space_group_symop_operation_xyz
'x, y, z'
'-x+1/2, -y, z+1/2'
'-x, y+1/2, -z+1/2'
'x+1/2, -y+1/2, -z'
loop_
_atom_site_label
_atom_site_type_symbol
_atom_site_fract_x
_atom_site_fract_y
_atom_site_fract_z
_atom_site_U_iso_or_equiv
_atom_site_adp_type
_atom_site_occupancy
_atom_site_site_symmetry_order
_atom_site_calc_flag
_atom_site_refinement_flags_posn
_atom_site_refinement_flags_adp
C1 C 0.3281(9) 0.5072(5) 0.635(2) 0.0256(16) Uiso 1 1 d D .
O1 O 0.5165(7) 0.5697(3) 0.6545(17) 0.0246(13) Uiso 1 1 d D .
O2 O 0.0765(7) 0.5256(3) 0.6601(16) 0.0295(12) Uiso 1 1 d D .
C2 C 0.4134(10) 0.4002(4) 0.5737(17) 0.0217(15) Uiso 1 1 d D .
H4 H 0.2831 0.3741 0.4702 0.026 Uiso 1 1 calc R U
N1 N 0.6916(9) 0.4044(4) 0.4834(14) 0.0234(14) Uiso 1 1 d D .
H2 H 0.7441 0.3415 0.4465 0.035 Uiso 1 1 calc R U
H3 H 0.6895 0.4449 0.3729 0.035 Uiso 1 1 calc R U
H1 H 0.8102 0.4293 0.5759 0.035 Uiso 1 1 calc R U
C3 C 0.4168(11) 0.3280(4) 0.7565(15) 0.0246(16) Uiso 1 1 d D .
H5 H 0.5128 0.3600 0.8731 0.030 Uiso 1 1 calc R U
O3 O 0.5688(7) 0.2426(3) 0.6849(14) 0.0249(12) Uiso 1 1 d D .
H6 H 0.5484 0.1944 0.7648 0.037 Uiso 1 1 calc R U
C4 C 0.1355(10) 0.2942(5) 0.820(2) 0.0295(18) Uiso 1 1 d D .
H8 H 0.0320 0.3523 0.8690 0.044 Uiso 1 1 calc R U
H9 H 0.0417 0.2642 0.7043 0.044 Uiso 1 1 calc R U
H7 H 0.1508 0.2443 0.9285 0.044 Uiso 1 1 calc R U
loop_
_atom_type_symbol
_atom_type_description
_atom_type_scat_dispersion_real
_atom_type_scat_dispersion_imag
_atom_type_scat_source
C C 0.0009 0.0007 'International Tables Vol C Tables 4.2.6.8 and 6.1.1.4'
H H 0.0000 0.0000 'International Tables Vol C Tables 4.2.6.8 and 6.1.1.4'
N N 0.0021 0.0015 'International Tables Vol C Tables 4.2.6.8 and 6.1.1.4'
O O 0.0041 0.0028 'International Tables Vol C Tables 4.2.6.8 and 6.1.1.4'
loop_
_geom_angle_atom_site_label_1
_geom_angle_atom_site_label_2
_geom_angle_atom_site_label_3
_geom_angle
O2 C1 O1 125.5(6)
O2 C1 C2 118.5(5)
O1 C1 C2 116.0(5)
N1 C2 C1 108.7(4)
N1 C2 C3 109.0(5)
C1 C2 C3 111.8(9)
N1 C2 H4 109.1
C1 C2 H4 109.1
C3 C2 H4 109.1
C2 N1 H2 109.5
C2 N1 H3 109.5
H2 N1 H3 109.5
C2 N1 H1 109.5
H2 N1 H1 109.5
H3 N1 H1 109.5
O3 C3 C4 109.5(5)
O3 C3 C2 103.8(7)
C4 C3 C2 113.1(6)
O3 C3 H5 110.1
C4 C3 H5 110.1
C2 C3 H5 110.1
C3 O3 H6 109.5
C3 C4 H8 109.5
C3 C4 H9 109.5
H8 C4 H9 109.5
C3 C4 H7 109.5
H8 C4 H7 109.5
H9 C4 H7 109.5
loop_
_geom_bond_atom_site_label_1
_geom_bond_atom_site_label_2
_geom_bond_distance
C1 O2 1.247(6)
C1 O1 1.227(7)
C1 C2 1.508(8)
C2 N1 1.465(8)
C2 C3 1.513(12)
C2 H4 0.9800
N1 H2 0.8900
N1 H3 0.8900
N1 H1 0.8900
C3 O3 1.411(8)
C3 C4 1.485(8)
C3 H5 0.9800
O3 H6 0.8200
C4 H8 0.9600
C4 H9 0.9600
C4 H7 0.9600
