#------------------------------------------------------------------------------
#$Date: 2019-11-07 21:58:40 +0200 (Thu, 07 Nov 2019) $
#$Revision: 223668 $
#$URL: file:///home/coder/svn-repositories/cod/cif/7/23/27/7232745.cif $
#------------------------------------------------------------------------------
#
# This file is available in the Crystallography Open Database (COD),
# http://www.crystallography.net/
#
# All data on this site have been placed in the public domain by the
# contributors.
#
data_7232745
loop_
_publ_author_name
'Giordano, Nico'
'Beavers, Christine M.'
'Kamenev, Konstantin V.'
'Marshall, William G.'
'Moggach, Stephen A.'
'Patterson, Simon D.'
'Teat, Simon J.'
'Warren, John E.'
'Wood, Peter A.'
'Parsons, Simon'
_publ_section_title
;
 High-pressure polymorphism in l-threonine between ambient pressure and 22
 GPa
;
_journal_issue                   30
_journal_name_full               CrystEngComm
_journal_page_first              4444
_journal_paper_doi               10.1039/C9CE00388F
_journal_volume                  21
_journal_year                    2019
_chemical_absolute_configuration syn
_chemical_formula_sum            'C4 H9 N O3'
_chemical_formula_weight         119.12
_chemical_name_common            L-threonine
_chemical_name_systematic        '(2S,3R)-2-amino-3-hydroxybutanoic acid'
_space_group_crystal_system      orthorhombic
_space_group_IT_number           19
_space_group_name_Hall           'P 2ac 2ab'
_space_group_name_H-M_alt        'P 21 21 21'
_symmetry_space_group_name_Hall  'P 2ac 2ab'
_symmetry_space_group_name_H-M   'P 21 21 21'
_atom_sites_solution_hydrogens   geom
_audit_creation_method           SHELXL-2014/7
_audit_update_record
;
2019-03-15 deposited with the CCDC.    2019-05-09 downloaded from the CCDC.
;
_cell_angle_alpha                90
_cell_angle_beta                 90
_cell_angle_gamma                90
_cell_formula_units_Z            4
_cell_length_a                   4.842(6)
_cell_length_b                   13.025(17)
_cell_length_c                   6.589(12)
_cell_measurement_reflns_used    142
_cell_measurement_temperature    298(2)
_cell_measurement_theta_max      17.33
_cell_measurement_theta_min      3.13
_cell_volume                     415.5(11)
_computing_cell_refinement       'Bruker SAINT'
_computing_data_collection       'Bruker APEX2'
_computing_data_reduction        'Bruker SAINT'
_computing_molecular_graphics    'Bruker SHELXTL'
_computing_publication_material  'Bruker SHELXTL'
_computing_structure_refinement  'SHELXL-2014 (Sheldrick 2014)'
_computing_structure_solution    'SHELXS-97 (Sheldrick 2008)'
_diffrn_ambient_pressure         9.82
_diffrn_ambient_temperature      298(2)
_diffrn_measured_fraction_theta_full 0.448
_diffrn_measured_fraction_theta_max 0.438
_diffrn_measurement_device_type  'Perkin-Elmer a-Si Detector'
_diffrn_measurement_method       '\f shutterless scan'
_diffrn_radiation_monochromator  silicon(111)
_diffrn_radiation_source         'Advanced Light Source Beamline 12.2.2'
_diffrn_radiation_type           synchrotron
_diffrn_radiation_wavelength     0.49594
_diffrn_reflns_av_R_equivalents  0.1004
_diffrn_reflns_av_unetI/netI     0.1278
_diffrn_reflns_Laue_measured_fraction_full 0.448
_diffrn_reflns_Laue_measured_fraction_max 0.438
_diffrn_reflns_limit_h_max       6
_diffrn_reflns_limit_h_min       -6
_diffrn_reflns_limit_k_max       14
_diffrn_reflns_limit_k_min       -15
_diffrn_reflns_limit_l_max       3
_diffrn_reflns_limit_l_min       -4
_diffrn_reflns_number            711
_diffrn_reflns_point_group_measured_fraction_full 0.403
_diffrn_reflns_point_group_measured_fraction_max 0.389
_diffrn_reflns_theta_full        17.311
_diffrn_reflns_theta_max         18.058
_diffrn_reflns_theta_min         3.132
_exptl_absorpt_coefficient_mu    0.080
_exptl_absorpt_correction_T_max  0.7442
_exptl_absorpt_correction_T_min  0.5550
_exptl_absorpt_correction_type   multi-scan
_exptl_absorpt_process_details   'SADABS-2014/5 (Sheldrick, 2015)'
_exptl_crystal_colour            colourless
_exptl_crystal_density_diffrn    1.904
_exptl_crystal_description       blade
_exptl_crystal_F_000             256
_exptl_crystal_size_max          0.060
_exptl_crystal_size_mid          0.050
_exptl_crystal_size_min          0.040
_refine_diff_density_max         0.358
_refine_diff_density_min         -0.359
_refine_diff_density_rms         0.111
_refine_ls_abs_structure_details
;
 Flack x determined using 40 quotients [(I+)-(I-)]/[(I+)+(I-)]
 (Parsons, Flack and Wagner, Acta Cryst. B69 (2013) 249-259).
;
_refine_ls_extinction_coef       0.2(3)
_refine_ls_extinction_expression Fc^*^=kFc[1+0.001xFc^2^\l^3^/sin(2\q)]^-1/4^
_refine_ls_extinction_method     'SHELXL-2014/7 (Sheldrick 2014'
_refine_ls_goodness_of_fit_ref   1.051
_refine_ls_hydrogen_treatment    constr
_refine_ls_matrix_type           full
_refine_ls_number_parameters     34
_refine_ls_number_reflns         329
_refine_ls_number_restraints     17
_refine_ls_restrained_S_all      1.050
_refine_ls_R_factor_all          0.1438
_refine_ls_R_factor_gt           0.0914
_refine_ls_shift/su_max          0.000
_refine_ls_shift/su_mean         0.000
_refine_ls_structure_factor_coef Fsqd
_refine_ls_weighting_details
'w=1/[\s^2^(Fo^2^)+(0.1428P)^2^] where P=(Fo^2^+2Fc^2^)/3'
_refine_ls_weighting_scheme      calc
_refine_ls_wR_factor_gt          0.2197
_refine_ls_wR_factor_ref         0.2450
_reflns_Friedel_coverage         0.424
_reflns_Friedel_fraction_full    0.326
_reflns_Friedel_fraction_max     0.308
_reflns_number_gt                194
_reflns_number_total             329
_reflns_threshold_expression     'I > 2\s(I)'
_cod_data_source_file            c9ce00388f5.cif
_cod_data_source_block           9_82GPa
_cod_depositor_comments
'Adding full bibliography for 7232730--7232750.cif.'
_cod_database_code               7232745
_shelx_shelxl_version_number     2014/7
_shelx_space_group_comment
;
The symmetry employed for this shelxl refinement is uniquely defined
by the following loop, which should always be used as a source of
symmetry information in preference to the above space-group names.
They are only intended as comments.
;
_shelx_estimated_absorpt_t_min   0.995
_shelx_estimated_absorpt_t_max   0.997
_shelx_res_file
;

    THRE05.res created by SHELXL-2014/7


TITL THRE05 in P2(1)2(1)2(1)
CELL 0.49594   4.84170  13.02500   6.58870  90.0000  90.0000  90.0000
ZERR    4.00   0.00640   0.01700   0.01220   0.0000   0.0000   0.0000
LATT -1
SYMM 1/2-X, -Y, 1/2+Z
SYMM -X, 1/2+Y, 1/2-Z
SYMM 1/2+X, 1/2-Y, -Z
SFAC C H N O
DISP $C  0.00086  0.00074  6.27610!source kissel
DISP $H -0.00003  0.00000  0.65340!source kissel
DISP $N  0.00207  0.00152  9.39816!source kissel
DISP $O  0.00413  0.00279 14.09704!source kissel
UNIT 16 36 4 12
OMIT 5 3 4
OMIT 5 2 4
OMIT 2 1 2
OMIT 3 11 3
OMIT 4 10 3
OMIT 2 14 2
OMIT 4 8 2
OMIT 3 14 1
OMIT 5 0 1
OMIT 2 13 0
OMIT 3 11 0
OMIT 6 0 0
OMIT 4 3 3
OMIT 0 6 0
DFIX 1.241 C1 O1
DFIX 1.249 C1 O2
DFIX 1.536 C1 C2
DFIX 1.489 C2 N1
DFIX 1.53 C2 C3
DFIX 1.424 C3 O3
DFIX 1.513 C3 C4
DFIX 2.229 0.04 O1 O2
DFIX 2.368 0.04 O1 C2
DFIX 2.37 0.04 O2 C2
DFIX 2.477 0.04 C1 N1
DFIX 2.553 0.04 C1 C3
DFIX 2.453 0.04 N1 C3
DFIX 2.332 0.04 C2 O3
DFIX 2.543 0.04 C2 C4
DFIX 2.332 0.04 O3 C2
DFIX 2.421 0.04 O3 C4
RIGU
L.S. 10
ACTA
PLAN 5
SIZE 0.04 0.05 0.06 !colourless blade
TEMP 25
BOND $H
LIST 6
ACTA
fmap 2
WGHT    0.142800
EXTI    0.211410
FVAR       0.78817
C1    1    0.320866    0.507615    0.631686    11.00000    0.02876
O1    4    0.514697    0.568702    0.664742    11.00000    0.03446
O2    4    0.076499    0.524917    0.661504    11.00000    0.02901
C2    1    0.410376    0.400746    0.575014    11.00000    0.02336
AFIX  13
H4    2    0.282470    0.373629    0.472959    11.00000   -1.20000
AFIX   0
N1    3    0.686151    0.404138    0.488231    11.00000    0.02709
AFIX  33
H2    2    0.738955    0.340917    0.454752    11.00000   -1.50000
H3    2    0.685043    0.443575    0.377923    11.00000   -1.50000
H1    2    0.803353    0.430001    0.578867    11.00000   -1.50000
AFIX   0
C3    1    0.412025    0.328556    0.757416    11.00000    0.02645
AFIX  13
H5    2    0.509947    0.360739    0.870985    11.00000   -1.20000
AFIX   0
O3    4    0.565328    0.242798    0.684666    11.00000    0.03257
AFIX  83
H6    2    0.546516    0.194387    0.763016    11.00000   -1.50000
AFIX   0
C4    1    0.134257    0.295189    0.823637    11.00000    0.03635
AFIX  33
H8    2    0.032458    0.353430    0.872396    11.00000   -1.50000
H9    2    0.038111    0.264994    0.711053    11.00000   -1.50000
H7    2    0.151927    0.245485    0.930439    11.00000   -1.50000
AFIX   0
HKLF 4

REM  THRE05 in P2(1)2(1)2(1)
REM R1 =  0.0914 for     194 Fo > 4sig(Fo)  and  0.1438 for all     329 data
REM     34 parameters refined using     17 restraints

END

WGHT      0.1462      0.0000

REM Highest difference peak  0.358,  deepest hole -0.359,  1-sigma level  0.111
Q1    1   0.5174  0.5015  0.8507  11.00000  0.05    0.36
Q2    1   0.3299  0.4561  0.6295  11.00000  0.05    0.33
Q3    1   0.5278  0.3875  0.8787  11.00000  0.05    0.28
Q4    1   0.7210  0.4692  0.6313  11.00000  0.05    0.27
Q5    1   0.0074  0.4376  0.8593  11.00000  0.05    0.27
;
_shelx_res_checksum              91761
loop_
_space_group_symop_operation_xyz
'x, y, z'
'-x+1/2, -y, z+1/2'
'-x, y+1/2, -z+1/2'
'x+1/2, -y+1/2, -z'
loop_
_atom_site_label
_atom_site_type_symbol
_atom_site_fract_x
_atom_site_fract_y
_atom_site_fract_z
_atom_site_U_iso_or_equiv
_atom_site_adp_type
_atom_site_occupancy
_atom_site_site_symmetry_order
_atom_site_calc_flag
_atom_site_refinement_flags_posn
_atom_site_refinement_flags_adp
C1 C 0.321(2) 0.5076(10) 0.632(5) 0.029(4) Uiso 1 1 d D .
O1 O 0.5147(15) 0.5687(7) 0.665(4) 0.034(3) Uiso 1 1 d D .
O2 O 0.0765(15) 0.5249(7) 0.662(3) 0.029(3) Uiso 1 1 d D .
C2 C 0.410(2) 0.4007(9) 0.575(3) 0.023(3) Uiso 1 1 d D .
H4 H 0.2825 0.3736 0.4730 0.028 Uiso 1 1 calc R U
N1 N 0.6862(17) 0.4041(7) 0.488(3) 0.027(3) Uiso 1 1 d D .
H2 H 0.7390 0.3409 0.4548 0.041 Uiso 1 1 calc R U
H3 H 0.6850 0.4436 0.3779 0.041 Uiso 1 1 calc R U
H1 H 0.8034 0.4300 0.5789 0.041 Uiso 1 1 calc R U
C3 C 0.412(2) 0.3286(10) 0.757(3) 0.026(4) Uiso 1 1 d D .
H5 H 0.5099 0.3607 0.8710 0.032 Uiso 1 1 calc R U
O3 O 0.5653(15) 0.2428(6) 0.685(3) 0.033(3) Uiso 1 1 d D .
H6 H 0.5465 0.1944 0.7630 0.049 Uiso 1 1 calc R U
C4 C 0.134(2) 0.2952(11) 0.824(4) 0.036(4) Uiso 1 1 d D .
H8 H 0.0325 0.3534 0.8724 0.055 Uiso 1 1 calc R U
H9 H 0.0381 0.2650 0.7111 0.055 Uiso 1 1 calc R U
H7 H 0.1519 0.2455 0.9304 0.055 Uiso 1 1 calc R U
loop_
_atom_type_symbol
_atom_type_description
_atom_type_scat_dispersion_real
_atom_type_scat_dispersion_imag
_atom_type_scat_source
C C 0.0009 0.0007 'International Tables Vol C Tables 4.2.6.8 and 6.1.1.4'
H H 0.0000 0.0000 'International Tables Vol C Tables 4.2.6.8 and 6.1.1.4'
N N 0.0021 0.0015 'International Tables Vol C Tables 4.2.6.8 and 6.1.1.4'
O O 0.0041 0.0028 'International Tables Vol C Tables 4.2.6.8 and 6.1.1.4'
loop_
_geom_angle_atom_site_label_1
_geom_angle_atom_site_label_2
_geom_angle_atom_site_label_3
_geom_angle
O1 C1 O2 125.6(14)
O1 C1 C2 114.6(10)
O2 C1 C2 119.3(9)
N1 C2 C1 109.5(9)
N1 C2 C3 108.9(10)
C1 C2 C3 112.1(17)
N1 C2 H4 108.8
C1 C2 H4 108.8
C3 C2 H4 108.8
C2 N1 H2 109.5
C2 N1 H3 109.5
H2 N1 H3 109.5
C2 N1 H1 109.5
H2 N1 H1 109.5
H3 N1 H1 109.5
O3 C3 C4 110.0(12)
O3 C3 C2 102.8(14)
C4 C3 C2 114.1(12)
O3 C3 H5 109.9
C4 C3 H5 109.9
C2 C3 H5 109.9
C3 O3 H6 109.5
C3 C4 H8 109.5
C3 C4 H9 109.5
H8 C4 H9 109.5
C3 C4 H7 109.5
H8 C4 H7 109.5
H9 C4 H7 109.5
loop_
_geom_bond_atom_site_label_1
_geom_bond_atom_site_label_2
_geom_bond_distance
C1 O1 1.249(14)
C1 O2 1.220(12)
C1 C2 1.505(15)
C2 N1 1.453(14)
C2 C3 1.526(18)
C2 H4 0.9800
N1 H2 0.8900
N1 H3 0.8900
N1 H1 0.8900
C3 O3 1.424(15)
C3 C4 1.479(15)
C3 H5 0.9800
O3 H6 0.8200
C4 H8 0.9600
C4 H9 0.9600
C4 H7 0.9600
