#------------------------------------------------------------------------------
#$Date: 2019-11-07 21:58:40 +0200 (Thu, 07 Nov 2019) $
#$Revision: 223668 $
#$URL: file:///home/coder/svn-repositories/cod/cif/7/23/27/7232740.cif $
#------------------------------------------------------------------------------
#
# This file is available in the Crystallography Open Database (COD),
# http://www.crystallography.net/
#
# All data on this site have been placed in the public domain by the
# contributors.
#
data_7232740
loop_
_publ_author_name
'Giordano, Nico'
'Beavers, Christine M.'
'Kamenev, Konstantin V.'
'Marshall, William G.'
'Moggach, Stephen A.'
'Patterson, Simon D.'
'Teat, Simon J.'
'Warren, John E.'
'Wood, Peter A.'
'Parsons, Simon'
_publ_section_title
;
 High-pressure polymorphism in l-threonine between ambient pressure and 22
 GPa
;
_journal_issue                   30
_journal_name_full               CrystEngComm
_journal_page_first              4444
_journal_paper_doi               10.1039/C9CE00388F
_journal_volume                  21
_journal_year                    2019
_chemical_absolute_configuration syn
_chemical_formula_sum            'C4 H9 N O3'
_chemical_formula_weight         119.12
_chemical_name_common            L-threonine
_chemical_name_systematic        '2S,3R)-2-amino-3-hydroxybutanoic acid'
_space_group_crystal_system      orthorhombic
_space_group_IT_number           19
_space_group_name_Hall           'P 2ac 2ab'
_space_group_name_H-M_alt        'P 21 21 21'
_symmetry_space_group_name_Hall  'P 2ac 2ab'
_symmetry_space_group_name_H-M   'P 21 21 21'
_atom_sites_solution_hydrogens   geom
_audit_creation_method           SHELXL-2014/7
_audit_update_record
;
2019-03-15 deposited with the CCDC.    2019-05-09 downloaded from the CCDC.
;
_cell_angle_alpha                90
_cell_angle_beta                 90
_cell_angle_gamma                90
_cell_formula_units_Z            4
_cell_length_a                   4.9383(19)
_cell_length_b                   13.250(5)
_cell_length_c                   6.841(3)
_cell_measurement_reflns_used    888
_cell_measurement_temperature    298(2)
_cell_measurement_theta_max      17.91
_cell_measurement_theta_min      3.07
_cell_volume                     447.6(3)
_computing_structure_refinement  'SHELXL-2014/7 (Sheldrick, 2014)'
_diffrn_ambient_pressure         6.12
_diffrn_ambient_temperature      298(2)
_diffrn_measured_fraction_theta_full 0.523
_diffrn_measured_fraction_theta_max 0.518
_diffrn_measurement_device_type  'Perkin-Elmer a-Si Detector'
_diffrn_measurement_method       '\f shutterless scan'
_diffrn_radiation_monochromator  silicon(111)
_diffrn_radiation_source         'Advanced Light Source Beamline 12.2.2'
_diffrn_radiation_type           synchrotron
_diffrn_radiation_wavelength     0.49594
_diffrn_reflns_av_R_equivalents  0.0874
_diffrn_reflns_av_unetI/netI     0.0791
_diffrn_reflns_Laue_measured_fraction_full 0.523
_diffrn_reflns_Laue_measured_fraction_max 0.518
_diffrn_reflns_limit_h_max       6
_diffrn_reflns_limit_h_min       -6
_diffrn_reflns_limit_k_max       16
_diffrn_reflns_limit_k_min       -16
_diffrn_reflns_limit_l_max       5
_diffrn_reflns_limit_l_min       -5
_diffrn_reflns_number            1687
_diffrn_reflns_point_group_measured_fraction_full 0.541
_diffrn_reflns_point_group_measured_fraction_max 0.530
_diffrn_reflns_theta_full        17.311
_diffrn_reflns_theta_max         18.053
_diffrn_reflns_theta_min         3.072
_exptl_absorpt_coefficient_mu    0.074
_exptl_absorpt_correction_T_max  0.7442
_exptl_absorpt_correction_T_min  0.5494
_exptl_absorpt_correction_type   multi-scan
_exptl_absorpt_process_details   'SADABS-2014/5 (Sheldrick, 2015)'
_exptl_crystal_colour            colourless
_exptl_crystal_density_diffrn    1.768
_exptl_crystal_description       blade
_exptl_crystal_F_000             256
_exptl_crystal_size_max          0.060
_exptl_crystal_size_mid          0.050
_exptl_crystal_size_min          0.040
_refine_diff_density_max         0.301
_refine_diff_density_min         -0.245
_refine_diff_density_rms         0.084
_refine_ls_abs_structure_details
;
 Flack x determined using 119 quotients [(I+)-(I-)]/[(I+)+(I-)]
 (Parsons, Flack and Wagner, Acta Cryst. B69 (2013) 249-259).
;
_refine_ls_extinction_coef       0.20(15)
_refine_ls_extinction_expression Fc^*^=kFc[1+0.001xFc^2^\l^3^/sin(2\q)]^-1/4^
_refine_ls_extinction_method     'SHELXL-2014/7 (Sheldrick 2014'
_refine_ls_goodness_of_fit_ref   1.040
_refine_ls_hydrogen_treatment    constr
_refine_ls_matrix_type           full
_refine_ls_number_parameters     34
_refine_ls_number_reflns         486
_refine_ls_number_restraints     17
_refine_ls_restrained_S_all      1.028
_refine_ls_R_factor_all          0.0778
_refine_ls_R_factor_gt           0.0636
_refine_ls_shift/su_max          0.000
_refine_ls_shift/su_mean         0.000
_refine_ls_structure_factor_coef Fsqd
_refine_ls_weighting_details
'w=1/[\s^2^(Fo^2^)+(0.0970P)^2^] where P=(Fo^2^+2Fc^2^)/3'
_refine_ls_weighting_scheme      calc
_refine_ls_wR_factor_gt          0.1549
_refine_ls_wR_factor_ref         0.1613
_reflns_Friedel_coverage         0.653
_reflns_Friedel_fraction_full    0.570
_reflns_Friedel_fraction_max     0.550
_reflns_number_gt                367
_reflns_number_total             486
_reflns_threshold_expression     'I > 2\s(I)'
_cod_data_source_file            c9ce00388f5.cif
_cod_data_source_block           6_12GPa
_cod_depositor_comments
'Adding full bibliography for 7232730--7232750.cif.'
_cod_database_code               7232740
_shelx_shelxl_version_number     2014/7
_shelx_space_group_comment
;
The symmetry employed for this shelxl refinement is uniquely defined
by the following loop, which should always be used as a source of
symmetry information in preference to the above space-group names.
They are only intended as comments.
;
_shelx_estimated_absorpt_t_min   0.996
_shelx_estimated_absorpt_t_max   0.997
_shelx_res_file
;

    THRE03.res created by SHELXL-2014/7


TITL THRE03 in P2(1)2(1)2(1)
CELL 0.49594   4.93830  13.25030   6.84070  90.0000  90.0000  90.0000
ZERR    4.00   0.00190   0.00460   0.00330   0.0000   0.0000   0.0000
LATT -1
SYMM 1/2-X, -Y, 1/2+Z
SYMM -X, 1/2+Y, 1/2-Z
SYMM 1/2+X, 1/2-Y, -Z
SFAC C H N O
DISP $C  0.00086  0.00074  6.27610!source kissel
DISP $H -0.00003  0.00000  0.65340!source kissel
DISP $N  0.00207  0.00152  9.39816!source kissel
DISP $O  0.00413  0.00279 14.09704!source kissel
UNIT 16 36 4 12
DFIX 1.241 C1 O1
DFIX 1.249 C1 O2
DFIX 1.536 C1 C2
DFIX 1.489 C2 N1
DFIX 1.53 C2 C3
DFIX 1.424 C3 O3
DFIX 1.513 C3 C4
DFIX 2.229 0.04 O1 O2
DFIX 2.368 0.04 O1 C2
DFIX 2.37 0.04 O2 C2
DFIX 2.477 0.04 C1 N1
DFIX 2.553 0.04 C1 C3
DFIX 2.453 0.04 N1 C3
DFIX 2.332 0.04 C2 O3
DFIX 2.543 0.04 C2 C4
DFIX 2.332 0.04 O3 C2
DFIX 2.421 0.04 O3 C4
RIGU
SIZE 0.04 0.05 0.06 !colourless blade
L.S. 10
PLAN 5
ACTA
TEMP 25
BOND $H
LIST 6
fmap 2
WGHT    0.097000
EXTI    0.195759
FVAR       0.59893
C1    1    0.318196    0.506289    0.642084    11.00000    0.02121
O1    4    0.501840    0.566375    0.677891    11.00000    0.02573
O2    4    0.069121    0.522545    0.662623    11.00000    0.02807
C2    1    0.404916    0.401113    0.579950    11.00000    0.01985
AFIX  13
H4    2    0.275232    0.375149    0.483879    11.00000   -1.20000
AFIX   0
N1    3    0.674098    0.407017    0.488926    11.00000    0.02274
AFIX  33
H2    2    0.726330    0.345608    0.452096    11.00000   -1.50000
H3    2    0.666675    0.447259    0.384895    11.00000   -1.50000
H1    2    0.792266    0.431759    0.574677    11.00000   -1.50000
AFIX   0
C3    1    0.419706    0.327779    0.752557    11.00000    0.02424
AFIX  13
H5    2    0.527295    0.357446    0.858335    11.00000   -1.20000
AFIX   0
O3    4    0.556780    0.243126    0.673330    11.00000    0.02728
AFIX  83
H6    2    0.540986    0.194948    0.747698    11.00000   -1.50000
AFIX   0
C4    1    0.148668    0.297093    0.827936    11.00000    0.03070
AFIX  33
H8    2    0.057756    0.354934    0.881178    11.00000   -1.50000
H9    2    0.042955    0.269514    0.722975    11.00000   -1.50000
H7    2    0.170768    0.247070    0.928193    11.00000   -1.50000
AFIX   0
HKLF 4

REM  THRE03 in P2(1)2(1)2(1)
REM R1 =  0.0636 for     367 Fo > 4sig(Fo)  and  0.0778 for all     486 data
REM     34 parameters refined using     17 restraints

END

WGHT      0.0935      0.0000

REM Highest difference peak  0.301,  deepest hole -0.245,  1-sigma level  0.084
Q1    1   0.5344  0.5755  0.5858  11.00000  0.05    0.30
Q2    1   0.4735  0.5591  0.8043  11.00000  0.05    0.30
Q3    1   0.0729  0.5385  0.5795  11.00000  0.05    0.30
Q4    1   0.0917  0.5567  0.6411  11.00000  0.05    0.27
Q5    1   0.5176  0.2400  0.5618  11.00000  0.05    0.27
;
_shelx_res_checksum              27112
loop_
_space_group_symop_operation_xyz
'x, y, z'
'-x+1/2, -y, z+1/2'
'-x, y+1/2, -z+1/2'
'x+1/2, -y+1/2, -z'
loop_
_atom_site_label
_atom_site_type_symbol
_atom_site_fract_x
_atom_site_fract_y
_atom_site_fract_z
_atom_site_U_iso_or_equiv
_atom_site_adp_type
_atom_site_occupancy
_atom_site_site_symmetry_order
_atom_site_calc_flag
_atom_site_refinement_flags_posn
_atom_site_refinement_flags_adp
C1 C 0.3182(10) 0.5063(4) 0.642(2) 0.0212(15) Uiso 1 1 d D .
O1 O 0.5018(7) 0.5664(3) 0.6779(16) 0.0257(13) Uiso 1 1 d D .
O2 O 0.0691(7) 0.5225(3) 0.6626(14) 0.0281(13) Uiso 1 1 d D .
C2 C 0.4049(11) 0.4011(4) 0.5799(16) 0.0198(15) Uiso 1 1 d D .
H4 H 0.2752 0.3751 0.4839 0.024 Uiso 1 1 calc R U
N1 N 0.6741(9) 0.4070(4) 0.4889(13) 0.0227(15) Uiso 1 1 d D .
H2 H 0.7263 0.3456 0.4521 0.034 Uiso 1 1 calc R U
H3 H 0.6667 0.4473 0.3849 0.034 Uiso 1 1 calc R U
H1 H 0.7923 0.4318 0.5747 0.034 Uiso 1 1 calc R U
C3 C 0.4197(12) 0.3278(4) 0.7526(15) 0.0242(16) Uiso 1 1 d D .
H5 H 0.5273 0.3574 0.8583 0.029 Uiso 1 1 calc R U
O3 O 0.5568(7) 0.2431(3) 0.6733(15) 0.0273(13) Uiso 1 1 d D .
H6 H 0.5410 0.1949 0.7477 0.041 Uiso 1 1 calc R U
C4 C 0.1487(11) 0.2971(5) 0.828(2) 0.0307(18) Uiso 1 1 d D .
H8 H 0.0578 0.3549 0.8812 0.046 Uiso 1 1 calc R U
H9 H 0.0430 0.2695 0.7230 0.046 Uiso 1 1 calc R U
H7 H 0.1708 0.2471 0.9282 0.046 Uiso 1 1 calc R U
loop_
_atom_type_symbol
_atom_type_description
_atom_type_scat_dispersion_real
_atom_type_scat_dispersion_imag
_atom_type_scat_source
C C 0.0009 0.0007 'International Tables Vol C Tables 4.2.6.8 and 6.1.1.4'
H H 0.0000 0.0000 'International Tables Vol C Tables 4.2.6.8 and 6.1.1.4'
N N 0.0021 0.0015 'International Tables Vol C Tables 4.2.6.8 and 6.1.1.4'
O O 0.0041 0.0028 'International Tables Vol C Tables 4.2.6.8 and 6.1.1.4'
loop_
_geom_angle_atom_site_label_1
_geom_angle_atom_site_label_2
_geom_angle_atom_site_label_3
_geom_angle
O1 C1 O2 126.0(6)
O1 C1 C2 116.2(5)
O2 C1 C2 117.7(4)
N1 C2 C1 108.9(4)
N1 C2 C3 108.5(5)
C1 C2 C3 112.3(9)
N1 C2 H4 109.0
C1 C2 H4 109.0
C3 C2 H4 109.0
C2 N1 H2 109.5
C2 N1 H3 109.5
H2 N1 H3 109.5
C2 N1 H1 109.5
H2 N1 H1 109.5
H3 N1 H1 109.5
O3 C3 C4 110.2(5)
O3 C3 C2 103.3(7)
C4 C3 C2 113.4(6)
O3 C3 H5 109.9
C4 C3 H5 109.9
C2 C3 H5 109.9
C3 O3 H6 109.5
C3 C4 H8 109.5
C3 C4 H9 109.5
H8 C4 H9 109.5
C3 C4 H7 109.5
H8 C4 H7 109.5
H9 C4 H7 109.5
loop_
_geom_bond_atom_site_label_1
_geom_bond_atom_site_label_2
_geom_bond_distance
C1 O1 1.231(7)
C1 O2 1.257(6)
C1 C2 1.519(8)
C2 N1 1.470(8)
C2 C3 1.531(12)
C2 H4 0.9800
N1 H2 0.8900
N1 H3 0.8900
N1 H1 0.8900
C3 O3 1.418(8)
C3 C4 1.491(9)
C3 H5 0.9800
O3 H6 0.8200
C4 H8 0.9600
C4 H9 0.9600
C4 H7 0.9600
