#------------------------------------------------------------------------------
#$Date: 2019-11-07 21:52:49 +0200 (Thu, 07 Nov 2019) $
#$Revision: 223640 $
#$URL: file:///home/coder/svn-repositories/cod/cif/7/23/21/7232196.cif $
#------------------------------------------------------------------------------
#
# This file is available in the Crystallography Open Database (COD),
# http://www.crystallography.net/
#
# All data on this site have been placed in the public domain by the
# contributors.
#
data_7232196
loop_
_publ_author_name
'Ward, Martin R.'
'Younis, Shatha'
'Cruz-Cabeza, Aurora J.'
'Bull, Craig L.'
'Funnell, Nicholas P.'
'Oswald, Iain D. H.'
_publ_section_title
;
 Discovery and recovery of delta p-aminobenzoic acid
;
_journal_issue                   13
_journal_name_full               CrystEngComm
_journal_page_first              2058
_journal_paper_doi               10.1039/C8CE01882K
_journal_volume                  21
_journal_year                    2019
_chemical_formula_moiety         'C7 H7 N O2'
_chemical_formula_sum            'C7 H7 N O2'
_chemical_formula_weight         137.14
_chemical_name_systematic        'p-aminobenzoic acid'
_space_group_crystal_system      monoclinic
_space_group_IT_number           7
_space_group_name_Hall           'P -2yac'
_space_group_name_H-M_alt        'P 1 n 1'
_symmetry_space_group_name_Hall  'P -2yac'
_symmetry_space_group_name_H-M   'P 1 n 1'
_atom_sites_solution_hydrogens   mixed
_atom_sites_solution_primary     dual
_audit_creation_date             2018-11-01
_audit_creation_method
;
Olex2 1.2
(compiled 2018.05.29 svn.r3508 for OlexSys, GUI svn.r5506)
;
_audit_update_record
;
2018-11-01 deposited with the CCDC.
2019-01-21 downloaded from the CCDC.
;
_cell_angle_alpha                90
_cell_angle_beta                 100.748(14)
_cell_angle_gamma                90
_cell_formula_units_Z            2
_cell_length_a                   6.4003(11)
_cell_length_b                   4.5981(4)
_cell_length_c                   10.4452(15)
_cell_measurement_reflns_used    746
_cell_measurement_temperature    295.01
_cell_measurement_theta_max      25.105
_cell_measurement_theta_min      3.470
_cell_volume                     302.00(7)
_computing_cell_refinement       'SAINT v8.37A (Bruker, 2015)'
_computing_data_reduction        'SAINT v8.37A (Bruker, 2015)'
_computing_molecular_graphics    'Olex2 (Dolomanov et al., 2009)'
_computing_publication_material  'Olex2 (Dolomanov et al., 2009)'
_computing_structure_refinement  'XL (Sheldrick, 2008)'
_computing_structure_solution    'XT (Sheldrick, 2015)'
_diffrn_ambient_temperature      295.01
_diffrn_detector                 'Bruker APEX2 area detector'
_diffrn_detector_area_resol_mean 7.9
_diffrn_detector_type            'CCD area detector'
_diffrn_measured_fraction_theta_full 0.403
_diffrn_measured_fraction_theta_max 0.403
_diffrn_measurement_device       'three-circle diffractometer'
_diffrn_measurement_device_type  'Bruker SMART APEX2 area detector'
_diffrn_measurement_method       '\w scans'
_diffrn_radiation_monochromator  'mirror optics'
_diffrn_radiation_probe          x-ray
_diffrn_radiation_type           MoK\a
_diffrn_radiation_wavelength     0.71073
_diffrn_reflns_av_R_equivalents  0.0298
_diffrn_reflns_av_unetI/netI     0.0311
_diffrn_reflns_Laue_measured_fraction_full 0.403
_diffrn_reflns_Laue_measured_fraction_max 0.403
_diffrn_reflns_limit_h_max       5
_diffrn_reflns_limit_h_min       -6
_diffrn_reflns_limit_k_max       5
_diffrn_reflns_limit_k_min       -5
_diffrn_reflns_limit_l_max       10
_diffrn_reflns_limit_l_min       -10
_diffrn_reflns_number            1317
_diffrn_reflns_point_group_measured_fraction_full 0.381
_diffrn_reflns_point_group_measured_fraction_max 0.381
_diffrn_reflns_theta_full        23.253
_diffrn_reflns_theta_max         23.253
_diffrn_reflns_theta_min         3.470
_diffrn_source                   'microfocus sealed X-ray tube'
_diffrn_source_type              'Incoatec I\ms'
_diffrn_standards_number         0
_exptl_absorpt_coefficient_mu    0.112
_exptl_absorpt_correction_T_max  0.7454
_exptl_absorpt_correction_T_min  0.5291
_exptl_absorpt_correction_type   multi-scan
_exptl_absorpt_process_details
'SADABS-2016/2 (Bruker,2016/2) was used for absorption correction. wR2(int) was 0.0951 before and 0.0476 after correction. The Ratio of minimum to maximum transmission is 0.7098. The \l/2 correction factor is Not present.'
_exptl_crystal_colour            'clear colourless'
_exptl_crystal_colour_lustre     clear
_exptl_crystal_colour_primary    colourless
_exptl_crystal_density_diffrn    1.508
_exptl_crystal_description       block
_exptl_crystal_F_000             144
_exptl_crystal_recrystallization_method
'Crystals loaded into a diamond anvil cell and 1.3 GPa pressure applied. Growth of new solid form (not present form) was observed after 8 hours. Annealling this solid reduced the pressure to 0.8 GPa and the delta form.'
_exptl_crystal_size_max          0.2
_exptl_crystal_size_mid          0.15
_exptl_crystal_size_min          0.02
_refine_diff_density_max         0.091
_refine_diff_density_min         -0.073
_refine_diff_density_rms         0.020
_refine_ls_abs_structure_details
;
 Flack x determined using 129 quotients [(I+)-(I-)]/[(I+)+(I-)]
 (Parsons, Flack and Wagner, Acta Cryst. B69 (2013) 249-259).
;
_refine_ls_abs_structure_Flack   1.5(10)
_refine_ls_extinction_method     none
_refine_ls_goodness_of_fit_ref   1.039
_refine_ls_hydrogen_treatment    constr
_refine_ls_matrix_type           full
_refine_ls_number_parameters     81
_refine_ls_number_reflns         333
_refine_ls_number_restraints     71
_refine_ls_restrained_S_all      0.938
_refine_ls_R_factor_all          0.0334
_refine_ls_R_factor_gt           0.0276
_refine_ls_shift/su_max          0.000
_refine_ls_shift/su_mean         0.000
_refine_ls_structure_factor_coef Fsqd
_refine_ls_weighting_details
'w=1/[\s^2^(Fo^2^)+(0.0341P)^2^+0.0695P] where P=(Fo^2^+2Fc^2^)/3'
_refine_ls_weighting_scheme      calc
_refine_ls_wR_factor_gt          0.0628
_refine_ls_wR_factor_ref         0.0644
_reflns_Friedel_coverage         0.881
_reflns_Friedel_fraction_full    0.359
_reflns_Friedel_fraction_max     0.359
_reflns_number_gt                300
_reflns_number_total             333
_reflns_threshold_expression     'I > 2\s(I)'
_iucr_refine_instructions_details
;
TITL mo_paba_anneal_151018_0m_a.res in Pn
    mo_paba_anneal_151018_0m.res
    created by SHELXL-2016/6 at 14:52:24 on 01-Nov-2018
REM Old TITL mo_PABA_anneal_151018_0m in Pn
REM SHELXT solution in Pn
REM R1 0.130, Rweak 0.017, Alpha 0.024, Orientation as input
REM Flack x = -0.788 ( 1.695 ) from Parsons' quotients
REM Formula found by SHELXT: C7 N2 O
CELL 0.71073 6.4003 4.5981 10.4452 90 100.748 90
ZERR 2 0.0011 0.0004 0.0015 0 0.014 0
LATT -1
SYMM 0.5+X,-Y,0.5+Z
SFAC C H N O
UNIT 14 14 2 4
RIGU

L.S. 25
PLAN  10
SIZE 0.2 0.15 0.02
TEMP 21.88
BOND $H
list 4
fmap 2 53
acta
SHEL 10 0.9
OMIT -1 0 5
OMIT 1 -3 -7
OMIT -3 2 9
OMIT -1 -4 -4
REM <olex2.extras>
REM <HklSrc "%.\\mo_PABA_anneal_151018_0m.hkl">
REM </olex2.extras>

WGHT    0.034100    0.069500
FVAR       4.02917
O2    4    0.819049    0.697482    0.452056    11.00000    0.02470    0.05390 =
         0.06605    0.00952    0.00911   -0.00859
O1    4    0.499411    0.799023    0.325728    11.00000    0.03954    0.04160 =
         0.04090    0.01512    0.01241    0.00538
AFIX 147
H1    2    0.565053    0.925362    0.294392    11.00000   -1.50000
AFIX   0
C7    1    0.637509    0.656553    0.427121    11.00000    0.02610    0.02487 =
         0.03101   -0.00846    0.00446   -0.00234
N1    3    0.188627   -0.176443    0.677732    11.00000    0.04005    0.03047 =
         0.02328    0.00234    0.01450    0.00457
AFIX   7
H1A   2    0.221602   -0.358657    0.662403    11.00000   -1.20000
H1B   2    0.220097   -0.143978    0.761877    11.00000   -1.20000
AFIX  66
C2    1    0.289824    0.390399    0.443474    11.00000    0.02955    0.02630 =
         0.03266   -0.00573    0.00329   -0.00513
AFIX  43
H2    2    0.215865    0.490882    0.371868    11.00000   -1.20000
AFIX  65
C3    1    0.185580    0.184635    0.506168    11.00000    0.01104    0.03562 =
         0.02438   -0.00704   -0.00471   -0.00740
AFIX  43
H3    2    0.041873    0.147448    0.476508    11.00000   -1.20000
AFIX  65
C4    1    0.296121    0.034451    0.613191    11.00000    0.02406    0.02348 =
         0.01533   -0.00722    0.00218   -0.00305
C5    1    0.510907    0.090029    0.657521    11.00000    0.02675    0.03661 =
         0.01444    0.00007   -0.00380    0.00043
AFIX  43
H5    2    0.584865   -0.010454    0.729127    11.00000   -1.20000
AFIX  65
C6    1    0.615154    0.295792    0.594828    11.00000    0.03392    0.02536 =
         0.03617    0.00343    0.00312    0.00017
AFIX  43
H6    2    0.758861    0.332976    0.624488    11.00000   -1.20000
AFIX  65
C1    1    0.504616    0.445978    0.487805    11.00000    0.01906    0.02127 =
         0.03912   -0.00205    0.00769    0.00085
AFIX   0
HKLF 4




REM  mo_paba_anneal_151018_0m_a.res in Pn
REM R1 =  0.0276 for     300 Fo > 4sig(Fo)  and  0.0334 for all     333 data
REM     81 parameters refined using     71 restraints

END  
     
WGHT      0.0345      0.0691 

REM Highest difference peak  0.091,  deepest hole -0.073,  1-sigma level  0.020
Q1    1   0.8183  0.6766  0.2769  11.00000  0.05    0.09
Q2    1   0.1061 -0.3193  0.6815  11.00000  0.05    0.08
Q3    1  -0.1017 -0.1736  0.6218  11.00000  0.05    0.07
Q4    1   0.5817  0.8092  0.1973  11.00000  0.05    0.07
Q5    1   0.8192  0.2861  0.6423  11.00000  0.05    0.07
Q6    1   0.9220  0.3528  0.5979  11.00000  0.05    0.07
Q7    1   0.2984  0.0648  0.7779  11.00000  0.05    0.07
Q8    1   0.1884 -0.5809  0.6561  11.00000  0.05    0.07
Q9    1   0.3531 -0.1620  0.4657  11.00000  0.05    0.06
Q10   1   0.2583 -0.4269  0.7959  11.00000  0.05    0.06

  REM The information below was added by Olex2.
  REM
  REM R1 = 0.0276 for 300 Fo > 4sig(Fo) and 0.0334 for all 1623 data
  REM n/a parameters refined using n/a restraints
  REM Highest difference peak 0.09, deepest hole -0.07
  REM Mean Shift 0, Max Shift 0.000.

  REM +++ Tabular Listing of Refinement Information +++
  REM R1_all = 0.0334
  REM R1_gt = 0.0276
  REM wR_ref = 0.0644
  REM GOOF = 1.039
  REM Shift_max = 0.000
  REM Shift_mean = 0
  REM Reflections_all = 1623
  REM Reflections_gt = 300
  REM Parameters = n/a
  REM Hole = -0.07
  REM Peak = 0.09
  REM Flack = 1.5(10)

  
;
_cod_data_source_file            c8ce01882k2.cif
_cod_data_source_block           mo_paba_anneal_151018_0m
_cod_depositor_comments
'Adding full bibliography for 7232195--7232199.cif.'
_cod_database_code               7232196
_shelx_shelxl_version_number     2016/6
_shelx_space_group_comment
;
The symmetry employed for this shelxl refinement is uniquely defined
by the following loop, which should always be used as a source of
symmetry information in preference to the above space-group names.
They are only intended as comments.
;
_shelx_estimated_absorpt_t_max   0.998
_shelx_estimated_absorpt_t_min   0.978
_olex2_refinement_description
;
1. Fixed Uiso
 At 1.2 times of:
  All C(H) groups, All N(H,H) groups
 At 1.5 times of:
  All O(H) groups
2. Rigid body (RIGU) restrains
 All non-hydrogen atoms
 with sigma for 1-2 distances of 0.004 and sigma for 1-3 distances of 0.004
3.a Rotating group:
 N1(H1A,H1B)
3.b Aromatic/amide H refined with riding coordinates:
 C2(H2), C3(H3), C5(H5), C6(H6)
3.c Fitted hexagon refined as free rotating group:
 C2(C3,C4,C5,C6,C1)
3.d Idealised tetrahedral OH refined as rotating group:
 O1(H1)
;
_olex2_submission_special_instructions 'No special instructions were received'
loop_
_space_group_symop_operation_xyz
'x, y, z'
'x+1/2, -y, z+1/2'
loop_
_atom_site_label
_atom_site_type_symbol
_atom_site_fract_x
_atom_site_fract_y
_atom_site_fract_z
_atom_site_U_iso_or_equiv
_atom_site_adp_type
_atom_site_occupancy
_atom_site_site_symmetry_order
_atom_site_calc_flag
_atom_site_refinement_flags_posn
_atom_site_refinement_flags_adp
O2 O 0.8190(15) 0.6975(11) 0.4521(10) 0.048(5) Uani 1 1 d . U
O1 O 0.4994(14) 0.7990(11) 0.3257(8) 0.040(6) Uani 1 1 d . U
H1 H 0.565053 0.925362 0.294392 0.060 Uiso 1 1 calc GR .
C7 C 0.638(3) 0.6566(16) 0.4271(18) 0.027(5) Uani 1 1 d . U
N1 N 0.1886(16) -0.1764(11) 0.6777(11) 0.030(7) Uani 1 1 d . U
H1A H 0.221602 -0.358657 0.662403 0.036 Uiso 1 1 d GR .
H1B H 0.220097 -0.143978 0.761877 0.036 Uiso 1 1 d GR .
C2 C 0.2898(12) 0.3904(8) 0.4435(7) 0.030(5) Uani 1 1 d . U
H2 H 0.215865 0.490882 0.371868 0.036 Uiso 1 1 calc R .
C3 C 0.1856(12) 0.1846(8) 0.5062(7) 0.025(6) Uani 1 1 d G U
H3 H 0.041873 0.147448 0.476508 0.030 Uiso 1 1 calc R .
C4 C 0.2961(13) 0.0345(7) 0.6132(7) 0.021(6) Uani 1 1 d G U
C5 C 0.5109(13) 0.0900(8) 0.6575(7) 0.027(6) Uani 1 1 d G U
H5 H 0.584865 -0.010454 0.729127 0.032 Uiso 1 1 calc R .
C6 C 0.6152(12) 0.2958(9) 0.5948(7) 0.032(6) Uani 1 1 d G U
H6 H 0.758861 0.332976 0.624488 0.039 Uiso 1 1 calc R .
C1 C 0.5046(12) 0.4460(8) 0.4878(7) 0.026(5) Uani 1 1 d G U
loop_
_atom_site_aniso_label
_atom_site_aniso_U_11
_atom_site_aniso_U_22
_atom_site_aniso_U_33
_atom_site_aniso_U_23
_atom_site_aniso_U_13
_atom_site_aniso_U_12
O2 0.025(12) 0.054(3) 0.066(12) 0.010(4) 0.009(10) -0.009(5)
O1 0.040(13) 0.042(3) 0.041(11) 0.015(4) 0.012(11) 0.005(5)
C7 0.026(13) 0.025(3) 0.031(11) -0.008(5) 0.004(10) -0.002(6)
N1 0.040(15) 0.030(3) 0.023(13) 0.002(4) 0.014(14) 0.005(4)
C2 0.030(12) 0.026(3) 0.033(12) -0.006(5) 0.003(11) -0.005(5)
C3 0.011(13) 0.036(3) 0.024(13) -0.007(5) -0.005(12) -0.007(5)
C4 0.024(12) 0.023(3) 0.015(12) -0.007(5) 0.002(11) -0.003(5)
C5 0.027(14) 0.037(3) 0.014(12) 0.000(5) -0.004(11) 0.000(5)
C6 0.034(13) 0.025(3) 0.036(13) 0.003(5) 0.003(11) 0.000(5)
C1 0.019(11) 0.021(3) 0.039(11) -0.002(5) 0.008(10) 0.001(4)
loop_
_atom_type_symbol
_atom_type_description
_atom_type_scat_dispersion_real
_atom_type_scat_dispersion_imag
_atom_type_scat_source
C C 0.0033 0.0016 'International Tables Vol C Tables 4.2.6.8 and 6.1.1.4'
H H 0.0000 0.0000 'International Tables Vol C Tables 4.2.6.8 and 6.1.1.4'
N N 0.0061 0.0033 'International Tables Vol C Tables 4.2.6.8 and 6.1.1.4'
O O 0.0106 0.0060 'International Tables Vol C Tables 4.2.6.8 and 6.1.1.4'
loop_
_geom_angle_atom_site_label_1
_geom_angle_atom_site_label_2
_geom_angle_atom_site_label_3
_geom_angle
C7 O1 H1 109.5
O2 C7 O1 123.8(9)
O2 C7 C1 129.2(19)
O1 C7 C1 106.9(15)
H1A N1 H1B 108.9
C4 N1 H1A 113.9
C4 N1 H1B 108.5
C3 C2 H2 120.0
C3 C2 C1 120.0
C1 C2 H2 120.0
C2 C3 H3 120.0
C4 C3 C2 120.0
C4 C3 H3 120.0
C3 C4 N1 119.9(8)
C3 C4 C5 120.0
C5 C4 N1 120.1(8)
C4 C5 H5 120.0
C6 C5 C4 120.0
C6 C5 H5 120.0
C5 C6 H6 120.0
C5 C6 C1 120.0
C1 C6 H6 120.0
C2 C1 C7 125.4(10)
C6 C1 C7 114.6(10)
C6 C1 C2 120.0
loop_
_geom_bond_atom_site_label_1
_geom_bond_atom_site_label_2
_geom_bond_distance
O2 C7 1.16(3)
O1 H1 0.8200
O1 C7 1.41(3)
C7 C1 1.505(8)
N1 H1A 0.8859
N1 H1B 0.8771
N1 C4 1.429(6)
C2 H2 0.9300
C2 C3 1.3900
C2 C1 1.3900
C3 H3 0.9300
C3 C4 1.3900
C4 C5 1.3900
C5 H5 0.9300
C5 C6 1.3900
C6 H6 0.9300
C6 C1 1.3900
