#------------------------------------------------------------------------------
#$Date: 2019-11-07 21:34:04 +0200 (Thu, 07 Nov 2019) $
#$Revision: 223545 $
#$URL: file:///home/coder/svn-repositories/cod/cif/7/23/21/7232111.cif $
#------------------------------------------------------------------------------
#
# This file is available in the Crystallography Open Database (COD),
# http://www.crystallography.net/
#
# All data on this site have been placed in the public domain by the
# contributors.
#
data_7232111
loop_
_publ_author_name
'Dhami, Jaya K.'
'Idzorek, Kiersten M.'
'Johnson, Ryan B.'
'Van Auken, Kaitlyn S.'
'Ojala, William H.'
_publ_section_title
;
 Intramolecular geometry and intermolecular interactions of the CNO group
 of crystalline benzonitrile oxides: a comparison with phenyl cyanates,
 phenyl isocyanates, and phenyl azides
;
_journal_issue                   5
_journal_name_full               CrystEngComm
_journal_page_first              908
_journal_paper_doi               10.1039/C8CE02008F
_journal_volume                  21
_journal_year                    2019
_chemical_formula_sum            'C3.5 H2 Cl0.5 N0.5 O0.5'
_chemical_formula_weight         76.78
_chemical_melting_point          354.5(15)
_chemical_name_common            '4-chlorobenzonitrile oxide'
_chemical_name_systematic        4-chlorobenzonitrile-N-oxide
_space_group_crystal_system      monoclinic
_space_group_IT_number           11
_space_group_name_Hall           '-P 2yb'
_space_group_name_H-M_alt        'P 1 21/m 1'
_symmetry_space_group_name_Hall  '-P 2yb'
_symmetry_space_group_name_H-M   'P 1 21/m 1'
_atom_sites_solution_hydrogens   geom
_audit_creation_method           SHELXL-2014/7
_audit_update_record
;
2018-11-19 deposited with the CCDC.
2018-12-27 downloaded from the CCDC.
;
_cell_angle_alpha                90
_cell_angle_beta                 101.2010(10)
_cell_angle_gamma                90
_cell_formula_units_Z            4
_cell_length_a                   4.5995(4)
_cell_length_b                   7.7964(7)
_cell_length_c                   9.3711(8)
_cell_measurement_reflns_used    643
_cell_measurement_temperature    173(2)
_cell_measurement_theta_max      27.22
_cell_measurement_theta_min      3.43
_cell_volume                     329.64(5)
_computing_cell_refinement       'Bruker SAINT'
_computing_data_collection       'Bruker APEX2'
_computing_data_reduction        'Bruker SAINT'
_computing_molecular_graphics
'PLATON (Spek, 2009) Mercury (Allen et al, 2004)'
_computing_publication_material  'Bruker SHELXTL'
_computing_structure_refinement  'SHELXL-2014/7 (Sheldrick, 2014)'
_computing_structure_solution    'SHELXT-2014/4 (Sheldrick, 2014)'
_diffrn_ambient_temperature      173(2)
_diffrn_measured_fraction_theta_full 0.998
_diffrn_measured_fraction_theta_max 0.995
_diffrn_measurement_device_type  'Bruker APEX-II CCD'
_diffrn_measurement_method       '\f and \w scans'
_diffrn_radiation_type           MoK\a
_diffrn_radiation_wavelength     0.71073
_diffrn_reflns_av_R_equivalents  0.0152
_diffrn_reflns_av_unetI/netI     0.0131
_diffrn_reflns_Laue_measured_fraction_full 0.998
_diffrn_reflns_Laue_measured_fraction_max 0.995
_diffrn_reflns_limit_h_max       5
_diffrn_reflns_limit_h_min       -5
_diffrn_reflns_limit_k_max       10
_diffrn_reflns_limit_k_min       -8
_diffrn_reflns_limit_l_max       12
_diffrn_reflns_limit_l_min       -12
_diffrn_reflns_number            2880
_diffrn_reflns_point_group_measured_fraction_full 0.998
_diffrn_reflns_point_group_measured_fraction_max 0.995
_diffrn_reflns_theta_full        25.242
_diffrn_reflns_theta_max         27.343
_diffrn_reflns_theta_min         2.215
_diffrn_source                   'sealed tube'
_exptl_absorpt_coefficient_mu    0.493
_exptl_absorpt_correction_T_max  0.7455
_exptl_absorpt_correction_T_min  0.6579
_exptl_absorpt_correction_type   multi-scan
_exptl_absorpt_process_details   'SADABS 2012/1 (Sheldrick, 2012)'
_exptl_crystal_colour            colourless
_exptl_crystal_density_diffrn    1.547
_exptl_crystal_description       needle
_exptl_crystal_F_000             156
_exptl_crystal_recrystallization_method
'Re-crystallisation from solvent: diethyl ether'
_exptl_crystal_size_max          0.40
_exptl_crystal_size_mid          0.10
_exptl_crystal_size_min          0.10
_exptl_transmission_factor_max   0.7455
_exptl_transmission_factor_min   0.6579
_refine_diff_density_max         0.277
_refine_diff_density_min         -0.159
_refine_diff_density_rms         0.039
_refine_ls_extinction_method     none
_refine_ls_goodness_of_fit_ref   1.092
_refine_ls_hydrogen_treatment    constr
_refine_ls_matrix_type           full
_refine_ls_number_parameters     55
_refine_ls_number_reflns         792
_refine_ls_number_restraints     0
_refine_ls_restrained_S_all      1.092
_refine_ls_R_factor_all          0.0269
_refine_ls_R_factor_gt           0.0244
_refine_ls_shift/su_max          0.000
_refine_ls_shift/su_mean         0.000
_refine_ls_structure_factor_coef Fsqd
_refine_ls_weighting_details
'w=1/[\s^2^(Fo^2^)+(0.0341P)^2^+0.0940P] where P=(Fo^2^+2Fc^2^)/3'
_refine_ls_weighting_scheme      calc
_refine_ls_wR_factor_gt          0.0675
_refine_ls_wR_factor_ref         0.0698
_reflns_Friedel_coverage         0.000
_reflns_number_gt                740
_reflns_number_total             792
_reflns_threshold_expression     'I > 2\s(I)'
_cod_data_source_file            c8ce02008f2.cif
_cod_data_source_block           14141z4Cl
_cod_depositor_comments
;
The following automatic conversions were performed:

'_chemical_melting_point' value '353-356 K' was changed to
'354.5(15)' - the average value was taken and precision was
estimated.

Automatic conversion script
Id: cif_fix_values 4973 2017-02-22 13:04:09Z antanas 

 Adding full bibliography for 7232108--7232111.cif.
;
_cod_original_formula_sum        'C3.50 H2 Cl0.50 N0.50 O0.50'
_cod_database_code               7232111
_shelx_shelxl_version_number     2014/7
_shelx_space_group_comment
;
The symmetry employed for this shelxl refinement is uniquely defined
by the following loop, which should always be used as a source of
symmetry information in preference to the above space-group names.
They are only intended as comments.
;
_shelx_estimated_absorpt_t_min   0.6579
_shelx_estimated_absorpt_t_max   0.7455
_shelx_res_file
;

    14141z.res created by SHELXL-2014/7


TITL 14141a in P2(1)/m
CELL 0.71073 4.5995 7.7964 9.3711 90.000 101.201 90.000
ZERR 4.00    0.0004 0.0007 0.0008  0.000   0.001  0.000
LATT 1
SYMM -x, y+1/2, -z
SFAC C  H  N  O  Cl
UNIT 14 8 2 2 2
LIST 4 ! automatically inserted. Change 6 to 4 for CHECKCIF!!
L.S. 8
ACTA
BOND $H
FMAP 2
PLAN 0
CONF
HTAB
MPLA 4 C1 C2 C3 C4 Cl1 C7 N1 O1
TEMP -100
WGHT    0.034100    0.094000
FVAR       0.41740
C1    1    0.608820    0.250000    0.157824    10.50000    0.02180    0.03551 =
         0.02389    0.00000    0.00397    0.00000
C2    1    0.528591    0.405099    0.212780    11.00000    0.02905    0.02880 =
         0.02959    0.00405    0.00634   -0.00207
AFIX  43
H2    2    0.583206    0.510459    0.174375    11.00000   -1.20000
AFIX   0
C3    1    0.368876    0.405091    0.323638    11.00000    0.02847    0.02539 =
         0.02998   -0.00051    0.00671    0.00197
AFIX  43
H3    2    0.310897    0.510075    0.361343    11.00000   -1.20000
AFIX   0
C4    1    0.294942    0.250000    0.378705    10.50000    0.02008    0.02981 =
         0.02318    0.00000    0.00468    0.00000
C7    1    0.778729    0.250000    0.044665    10.50000    0.02959    0.04083 =
         0.02882    0.00000    0.00642    0.00000
CL1   5    0.113798    0.250000    0.524795    10.50000    0.03291    0.03630 =
         0.03267    0.00000    0.01577    0.00000
N1    3    0.912326    0.250000   -0.045718    10.50000    0.02982    0.03229 =
         0.02941    0.00000    0.00985    0.00000
O1    4    1.056608    0.250000   -0.143667    10.50000    0.04773    0.05024 =
         0.03788    0.00000    0.02576    0.00000
HKLF 4 1 1 0 0 0 1 0 0 0 1

REM  14141a in P2(1)/m
REM R1 =  0.0244 for     740 Fo > 4sig(Fo)  and  0.0269 for all     792 data
REM     55 parameters refined using      0 restraints

END

WGHT      0.0336      0.0975

REM No hydrogen bonds found for HTAB generation

REM Highest difference peak  0.277,  deepest hole -0.159,  1-sigma level  0.039
Q1    1   0.3533  0.3297  0.3575  11.00000  0.05    0.28
Q2    1   0.4850  0.3949  0.2822  11.00000  0.05    0.28
Q3    1   0.6077  0.1751  0.1935  11.00000  0.05    0.25
Q4    1   0.3796  0.3992  0.2418  11.00000  0.05    0.24
Q5    1   0.1925  0.2500  0.4386  10.50000  0.05    0.22
Q6    1   0.7129  0.2500  0.1211  10.50000  0.05    0.19
Q7    1   0.9157  0.1958  0.0193  11.00000  0.05    0.13
Q8    1   0.7855  0.2003 -0.0344  11.00000  0.05    0.12
Q9    1   0.5469  0.4386  0.1970  11.00000  0.05    0.12
Q10   1   0.3182  0.2500  0.5328  10.50000  0.05    0.11
Q11   1   0.3537  0.4372  0.3464  11.00000  0.05    0.11
Q12   1  -0.1247  0.2500  0.5179  10.50000  0.05    0.10
Q13   1   0.2015  0.2500  0.3432  10.50000  0.05    0.09
Q14   1   0.9337  0.2500 -0.2108  10.50000  0.05    0.09
Q15   1   0.8985  0.2500 -0.1661  10.50000  0.05    0.08
Q16   1   1.0514  0.2500 -0.0844  10.50000  0.05    0.08
Q17   1   0.8708  0.5235  0.0580  11.00000  0.05    0.08
Q18   1   0.0344  0.2500  0.2559  10.50000  0.05    0.07
Q19   1   0.6807  0.5343  0.2302  11.00000  0.05    0.07
Q20   1   1.0476  0.1682 -0.1159  11.00000  0.05    0.07
;
_shelx_res_checksum              28104
loop_
_space_group_symop_operation_xyz
'x, y, z'
'-x, y+1/2, -z'
'-x, -y, -z'
'x, -y-1/2, z'
loop_
_atom_site_label
_atom_site_type_symbol
_atom_site_fract_x
_atom_site_fract_y
_atom_site_fract_z
_atom_site_U_iso_or_equiv
_atom_site_adp_type
_atom_site_occupancy
_atom_site_site_symmetry_order
_atom_site_calc_flag
_atom_site_refinement_flags_posn
_atom_site_refinement_flags_adp
_atom_site_refinement_flags_occupancy
C1 C 0.6088(3) 0.2500 0.15782(17) 0.0271(4) Uani 1 2 d S T P
C2 C 0.5286(3) 0.40510(17) 0.21278(12) 0.0291(3) Uani 1 1 d . . .
H2 H 0.5832 0.5105 0.1744 0.035 Uiso 1 1 calc R U .
C3 C 0.3689(2) 0.40509(16) 0.32364(12) 0.0278(3) Uani 1 1 d . . .
H3 H 0.3109 0.5101 0.3613 0.033 Uiso 1 1 calc R U .
C4 C 0.2949(3) 0.2500 0.37870(17) 0.0243(3) Uani 1 2 d S T P
C7 C 0.7787(4) 0.2500 0.04467(19) 0.0330(4) Uani 1 2 d S T P
Cl1 Cl 0.11380(9) 0.2500 0.52480(5) 0.03269(16) Uani 1 2 d S T P
N1 N 0.9123(3) 0.2500 -0.04572(15) 0.0300(3) Uani 1 2 d S T P
O1 O 1.0566(3) 0.2500 -0.14367(15) 0.0429(4) Uani 1 2 d S T P
loop_
_atom_site_aniso_label
_atom_site_aniso_U_11
_atom_site_aniso_U_22
_atom_site_aniso_U_33
_atom_site_aniso_U_23
_atom_site_aniso_U_13
_atom_site_aniso_U_12
C1 0.0218(8) 0.0355(9) 0.0239(8) 0.000 0.0040(6) 0.000
C2 0.0290(6) 0.0288(6) 0.0296(6) 0.0040(5) 0.0063(5) -0.0021(5)
C3 0.0285(6) 0.0254(6) 0.0300(6) -0.0005(5) 0.0067(5) 0.0020(5)
C4 0.0201(7) 0.0298(9) 0.0232(7) 0.000 0.0047(6) 0.000
C7 0.0296(9) 0.0408(11) 0.0288(9) 0.000 0.0064(7) 0.000
Cl1 0.0329(3) 0.0363(3) 0.0327(2) 0.000 0.01577(17) 0.000
N1 0.0298(7) 0.0323(8) 0.0294(7) 0.000 0.0099(6) 0.000
O1 0.0477(8) 0.0502(9) 0.0379(7) 0.000 0.0258(6) 0.000
loop_
_atom_type_symbol
_atom_type_description
_atom_type_scat_dispersion_real
_atom_type_scat_dispersion_imag
_atom_type_scat_source
C C 0.0033 0.0016 'International Tables Vol C Tables 4.2.6.8 and 6.1.1.4'
H H 0.0000 0.0000 'International Tables Vol C Tables 4.2.6.8 and 6.1.1.4'
N N 0.0061 0.0033 'International Tables Vol C Tables 4.2.6.8 and 6.1.1.4'
O O 0.0106 0.0060 'International Tables Vol C Tables 4.2.6.8 and 6.1.1.4'
Cl Cl 0.1484 0.1585 'International Tables Vol C Tables 4.2.6.8 and 6.1.1.4'
loop_
_geom_angle_atom_site_label_1
_geom_angle_atom_site_label_2
_geom_angle_atom_site_label_3
_geom_angle
_geom_angle_site_symmetry_1
_geom_angle_site_symmetry_3
C2 C1 C2 120.62(15) . 4_565
C2 C1 C7 119.69(7) . .
C3 C2 C1 119.68(11) . .
C3 C2 H2 120.2 . .
C1 C2 H2 120.2 . .
C4 C3 C2 119.01(11) . .
C4 C3 H3 120.5 . .
C2 C3 H3 120.5 . .
C3 C4 C3 121.95(15) 4_565 .
C3 C4 Cl1 119.01(7) . .
N1 C7 C1 179.65(18) . .
C7 N1 O1 179.92(18) . .
loop_
_geom_bond_atom_site_label_1
_geom_bond_atom_site_label_2
_geom_bond_distance
C1 C2 1.3919(15)
C1 C7 1.434(2)
C2 C3 1.3840(16)
C2 H2 0.95
C3 C4 1.3828(14)
C3 H3 0.95
C4 Cl1 1.7354(16)
C7 N1 1.139(2)
N1 O1 1.2327(19)
loop_
_geom_torsion_atom_site_label_1
_geom_torsion_atom_site_label_2
_geom_torsion_atom_site_label_3
_geom_torsion_atom_site_label_4
_geom_torsion
C7 C1 C2 C3 -178.93(13)
C2 C3 C4 Cl1 176.25(9)
