#------------------------------------------------------------------------------
#$Date: 2019-11-08 01:52:49 +0200 (Fri, 08 Nov 2019) $
#$Revision: 224599 $
#$URL: file:///home/coder/svn-repositories/cod/cif/7/23/24/7232495.cif $
#------------------------------------------------------------------------------
#
# This file is available in the Crystallography Open Database (COD),
# http://www.crystallography.net/
#
# All data on this site have been placed in the public domain by the
# contributors.
#
data_7232495
loop_
_publ_author_name
'Benhamou, Laure'
'Foster, Robert W.'
'Ward, David P.'
'Wheelhouse, Katherine'
'Sloan, Lisa'
'Tame, Christopher J.'
'Bu\<car, Dejan-Kre\<simir'
'Lye, Gary J.'
'Hailes, Helen C.'
'Sheppard, Tom D.'
_publ_section_title
;
 Functionalised tetrahydrofuran fragments from carbohydrates or sugar beet
 pulp biomass
;
_journal_issue                   8
_journal_name_full               'Green Chemistry'
_journal_page_first              2035
_journal_paper_doi               10.1039/C9GC00448C
_journal_volume                  21
_journal_year                    2019
_chemical_absolute_configuration rmad
_chemical_formula_moiety         'C5 H10 O4'
_chemical_formula_sum            'C5 H10 O4'
_chemical_formula_weight         134.13
_space_group_IT_number           19
_space_group_name_Hall           'P 2ac 2ab'
_space_group_name_H-M_alt        'P 21 21 21'
_symmetry_cell_setting           orthorhombic
_symmetry_Int_Tables_number      19
_symmetry_space_group_name_Hall  'P 2ac 2ab'
_symmetry_space_group_name_H-M   'P 21 21 21'
_atom_sites_solution_hydrogens   geom
_audit_update_record
;
2018-11-09 deposited with the CCDC.    2019-03-14 downloaded from the CCDC.
;
_cell_angle_alpha                90
_cell_angle_beta                 90
_cell_angle_gamma                90
_cell_formula_units_Z            4
_cell_length_a                   5.01554(7)
_cell_length_b                   7.52021(7)
_cell_length_c                   15.90107(16)
_cell_measurement_reflns_used    16775
_cell_measurement_temperature    150(1)
_cell_measurement_theta_max      73.4800
_cell_measurement_theta_min      5.5350
_cell_volume                     599.755(12)
_computing_cell_refinement       'CrysAlisPro 1.171.38.43f (Rigaku OD, 2015)'
_computing_data_collection       'CrysAlisPro 1.171.38.43f (Rigaku OD, 2015)'
_computing_data_reduction        'CrysAlisPro 1.171.38.43f (Rigaku OD, 2015)'
_computing_structure_refinement  'SHELXL-2018/3 (Sheldrick, 2018)'
_computing_structure_solution    'SHELXT 2014/5 (Sheldrick, 2014)'
_diffrn_ambient_environment      N~2~
_diffrn_ambient_temperature      150(1)
_diffrn_detector                 'CCD plate'
_diffrn_detector_area_resol_mean 5.2031
_diffrn_detector_type            Atlas
_diffrn_measured_fraction_theta_full 0.994
_diffrn_measured_fraction_theta_max 0.98
_diffrn_measurement_device       'four-circle diffractometer'
_diffrn_measurement_device_type  'SuperNova, Dual, Cu at zero, Atlas'
_diffrn_measurement_method       '\w scans'
_diffrn_radiation_monochromator  mirror
_diffrn_radiation_probe          x-ray
_diffrn_radiation_type           'Cu K\a'
_diffrn_radiation_wavelength     1.54184
_diffrn_reflns_av_R_equivalents  0.044
_diffrn_reflns_av_unetI/netI     0.0127
_diffrn_reflns_Laue_measured_fraction_full 0.994
_diffrn_reflns_Laue_measured_fraction_max 0.98
_diffrn_reflns_limit_h_max       6
_diffrn_reflns_limit_h_min       -6
_diffrn_reflns_limit_k_max       9
_diffrn_reflns_limit_k_min       -9
_diffrn_reflns_limit_l_max       19
_diffrn_reflns_limit_l_min       -19
_diffrn_reflns_number            20216
_diffrn_reflns_point_group_measured_fraction_full 0.996
_diffrn_reflns_point_group_measured_fraction_max 0.98
_diffrn_reflns_theta_full        67.684
_diffrn_reflns_theta_max         73.599
_diffrn_reflns_theta_min         5.564
_diffrn_source                   'micro-focus sealed X-ray tube'
_diffrn_source_type              'SuperNova (Cu) X-ray Source'
_exptl_absorpt_coefficient_mu    1.115
_exptl_absorpt_correction_T_max  1.00000
_exptl_absorpt_correction_T_min  0.65035
_exptl_absorpt_correction_type   multi-scan
_exptl_absorpt_process_details
;
CrysAlisPro 1.171.38.43f (Rigaku Oxford Diffraction, 2015)
Empirical absorption correction using spherical harmonics,
implemented in SCALE3 ABSPACK scaling algorithm.
;
_exptl_crystal_colour            colourless
_exptl_crystal_density_diffrn    1.485
_exptl_crystal_description       prism
_exptl_crystal_F_000             288
_exptl_crystal_size_max          0.38
_exptl_crystal_size_mid          0.09
_exptl_crystal_size_min          0.05
_refine_diff_density_max         0.201
_refine_diff_density_min         -0.179
_refine_diff_density_rms         0.041
_refine_ls_abs_structure_details
;
 Flack x determined using 454 quotients [(I+)-(I-)]/[(I+)+(I-)]
 (Parsons, Flack and Wagner, Acta Cryst. B69 (2013) 249-259).
;
_refine_ls_abs_structure_Flack   0.01(6)
_refine_ls_extinction_method     none
_refine_ls_goodness_of_fit_ref   0.911
_refine_ls_hydrogen_treatment    mixed
_refine_ls_matrix_type           full
_refine_ls_number_parameters     88
_refine_ls_number_reflns         1192
_refine_ls_number_restraints     0
_refine_ls_restrained_S_all      0.911
_refine_ls_R_factor_all          0.0271
_refine_ls_R_factor_gt           0.0267
_refine_ls_shift/su_max          0
_refine_ls_shift/su_mean         0
_refine_ls_structure_factor_coef Fsqd
_refine_ls_weighting_details
'w=1/[\s^2^(Fo^2^)+(0.0378P)^2^+0.2837P] where P=(Fo^2^+2Fc^2^)/3'
_refine_ls_weighting_scheme      calc
_refine_ls_wR_factor_gt          0.0658
_refine_ls_wR_factor_ref         0.0662
_reflns_Friedel_coverage         0.635
_reflns_Friedel_fraction_full    1
_reflns_Friedel_fraction_max     0.981
_reflns_number_gt                1167
_reflns_number_total             1192
_reflns_threshold_expression     'I > 2\s(I)'
_cod_data_source_file            c9gc00448c2.cif
_cod_data_source_block           9b
_cod_depositor_comments
'Adding full bibliography for 7232495--7232496.cif.'
_cod_database_code               7232495
_shelx_space_group_comment
;
The symmetry employed for this shelxl refinement is uniquely defined
by the following loop, which should always be used as a source of
symmetry information in preference to the above space-group names.
They are only intended as comments.
;
_shelx_shelxl_version_number     2018/3
_shelx_res_file
;
TITL CF solution in P212121
    xstr0655.res
    created by SHELXL-2018/3 at 21:29:02 on 07-Nov-2018
CELL 1.54184 5.01554 7.52021 15.90107 90 90 90
ZERR 4 0.00007 0.00007 0.00016 0 0 0
LATT -1
SYMM 0.5-X,-Y,0.5+Z
SYMM 0.5+X,0.5-Y,-Z
SYMM -X,0.5+Y,0.5-Z

SFAC C H O
UNIT 20 40 16
LIST 6 ! automatically inserted. Change 6 to 4 for CHECKCIF!!
OMIT     6   0   3
OMIT     6   0   1
OMIT    -6   1   3
OMIT    -6   1   1
OMIT    -6   1   5
OMIT     6   0   2
OMIT    -6   1   4
OMIT    -6   1   2
OMIT     6   1   0
OMIT     1   0   2
OMIT    1   1   0
L.S. 14
PLAN  25
BOND
fmap 2
acta

WGHT    0.037800    0.283700
FVAR      12.49593
C1    1    0.820039    0.131222    0.378938    11.00000    0.01964    0.01614 =
         0.01854    0.00106    0.00063   -0.00177
AFIX  23
H1A   2    0.748657    0.063544    0.425734    11.00000   -1.20000
H1B   2    0.751348    0.079491    0.327428    11.00000   -1.20000
AFIX   0
C2    1    0.725049    0.321810    0.385595    11.00000    0.01463    0.01723 =
         0.01134    0.00054    0.00058   -0.00142
AFIX  13
H2    2    0.529677    0.323536    0.385969    11.00000   -1.20000
AFIX   0
C3    1    0.825619    0.445612    0.316817    11.00000    0.01417    0.01736 =
         0.01176    0.00145   -0.00087   -0.00112
AFIX  13
H3    2    1.009967    0.415368    0.302234    11.00000   -1.20000
AFIX   0

C4    1    0.817117    0.626771    0.360819    11.00000    0.02159    0.01547 =
         0.01708    0.00160    0.00095   -0.00268
AFIX  13
H4    2    0.930261    0.714603    0.332548    11.00000   -1.20000
AFIX   0
C5    1    0.926252    0.575372    0.445940    11.00000    0.02599    0.01867 =
         0.01739   -0.00143   -0.00306   -0.00422
AFIX  23
H5A   2    1.119619    0.574095    0.445022    11.00000   -1.20000
H5B   2    0.867444    0.658762    0.488623    11.00000   -1.20000
AFIX   0
O1    3    0.822483    0.398372    0.463107    11.00000    0.02627    0.01719 =
         0.01083    0.00012    0.00017   -0.00152
O2    3    0.660796    0.429884    0.244964    11.00000    0.02478    0.02612 =
         0.01182    0.00362   -0.00379   -0.00750
AFIX 148
H2O   2    0.728779    0.480237    0.206227    11.00000   -1.50000
AFIX   0
O3    3    0.552761    0.688644    0.371030    11.00000    0.02924    0.02389 =
         0.02076    0.00285    0.00225    0.00974
AFIX 148
H3O   2    0.499343    0.729602    0.326698    11.00000   -1.50000
AFIX   0
O4    3    1.102318    0.117220    0.379199    11.00000    0.02315    0.02581 =
         0.01281   -0.00275   -0.00246    0.00620
AFIX 148
H4O   2    1.154157    0.119105    0.425515    11.00000   -1.50000

AFIX   0
HKLF 4




REM  CF solution in P212121
REM wR2 = 0.0662, GooF = S = 0.911, Restrained GooF = 0.911 for all data
REM R1 = 0.0267 for 1167 Fo > 4sig(Fo) and 0.0271 for all 1192 data
REM 88 parameters refined using 0 restraints

END

WGHT      0.0441      0.1387

REM Highest difference peak  0.201,  deepest hole -0.179,  1-sigma level  0.041
Q1    1   0.8203  0.5435  0.3365  11.00000  0.05    0.20
Q2    1   0.7814  0.3720  0.3491  11.00000  0.05    0.17
Q3    1   0.5477  0.3577  0.3677  11.00000  0.05    0.16
Q4    1   0.8834  0.6184  0.4032  11.00000  0.05    0.14
Q5    1   0.5000  0.3635  0.2336  11.00000  0.05    0.13
Q6    1   1.0473  0.4634  0.4620  11.00000  0.05    0.12
Q7    1   0.6291  0.3983  0.4540  11.00000  0.05    0.11
Q8    1   0.9608  0.1816  0.5022  11.00000  0.05    0.11
Q9    1   1.0942  0.5220  0.2536  11.00000  0.05    0.11
Q10   1   1.0263  0.3311  0.3023  11.00000  0.05    0.11
Q11   1   0.9243 -0.0846  0.4676  11.00000  0.05    0.11
Q12   1   1.0479  0.7182  0.2447  11.00000  0.05    0.11
Q13   1   0.5732  0.1706  0.2627  11.00000  0.05    0.10
Q14   1   0.7741  0.1126  0.3006  11.00000  0.05    0.10
Q15   1   0.6013  0.7776  0.4326  11.00000  0.05    0.10
Q16   1   0.8757  0.4678  0.4602  11.00000  0.05    0.10
Q17   1   0.9726  0.6268  0.2384  11.00000  0.05    0.10
Q18   1   0.5900  0.5886  0.2390  11.00000  0.05    0.10
Q19   1   1.0657  0.2472  0.2616  11.00000  0.05    0.10
Q20   1   0.5075  0.2611  0.4062  11.00000  0.05    0.10
Q21   1   0.5454  0.6992  0.2500  11.00000  0.05    0.10
Q22   1   0.7455  0.3570  0.4238  11.00000  0.05    0.10
Q23   1   0.4898  0.6203  0.4161  11.00000  0.05    0.10
Q24   1   0.4999  0.4289  0.2771  11.00000  0.05    0.10
Q25   1   0.4667  0.4687  0.2364  11.00000  0.05    0.09
;
_shelx_res_checksum              90211
loop_
_symmetry_equiv_pos_as_xyz
'x, y, z'
'-x+1/2, -y, z+1/2'
'x+1/2, -y+1/2, -z'
'-x, y+1/2, -z+1/2'
loop_
_atom_site_label
_atom_site_type_symbol
_atom_site_fract_x
_atom_site_fract_y
_atom_site_fract_z
_atom_site_U_iso_or_equiv
_atom_site_adp_type
_atom_site_occupancy
_atom_site_site_symmetry_order
_atom_site_calc_flag
_atom_site_refinement_flags_posn
_atom_site_refinement_flags_adp
C1 C 0.8200(3) 0.1312(2) 0.37894(11) 0.0181(4) Uani 1 1 d . .
H1A H 0.748657 0.063544 0.425734 0.022 Uiso 1 1 calc R U
H1B H 0.751348 0.079491 0.327428 0.022 Uiso 1 1 calc R U
C2 C 0.7250(3) 0.3218(2) 0.38559(10) 0.0144(3) Uani 1 1 d . .
H2 H 0.529677 0.323536 0.385969 0.017 Uiso 1 1 calc R U
C3 C 0.8256(4) 0.4456(2) 0.31682(10) 0.0144(3) Uani 1 1 d . .
H3 H 1.009967 0.415368 0.302234 0.017 Uiso 1 1 calc R U
C4 C 0.8171(4) 0.6268(2) 0.36082(10) 0.0180(4) Uani 1 1 d . .
H4 H 0.930261 0.714603 0.332548 0.022 Uiso 1 1 calc R U
C5 C 0.9263(4) 0.5754(2) 0.44594(10) 0.0207(4) Uani 1 1 d . .
H5A H 1.119619 0.574095 0.445022 0.025 Uiso 1 1 calc R U
H5B H 0.867444 0.658762 0.488623 0.025 Uiso 1 1 calc R U
O1 O 0.8225(3) 0.39837(16) 0.46311(7) 0.0181(3) Uani 1 1 d . .
O2 O 0.6608(3) 0.42988(17) 0.24496(7) 0.0209(3) Uani 1 1 d . .
H2O H 0.729(3) 0.480(3) 0.2062(14) 0.031 Uiso 1 1 calc R U
O3 O 0.5528(3) 0.68864(18) 0.37103(8) 0.0246(3) Uani 1 1 d . .
H3O H 0.499(2) 0.730(4) 0.3267(15) 0.037 Uiso 1 1 calc R U
O4 O 1.1023(3) 0.11722(18) 0.37920(8) 0.0206(3) Uani 1 1 d . .
H4O H 1.1542(18) 0.119(3) 0.4255(16) 0.031 Uiso 1 1 calc R U
loop_
_atom_site_aniso_label
_atom_site_aniso_U_11
_atom_site_aniso_U_22
_atom_site_aniso_U_33
_atom_site_aniso_U_23
_atom_site_aniso_U_13
_atom_site_aniso_U_12
C1 0.0196(9) 0.0161(8) 0.0185(8) 0.0011(7) 0.0006(7) -0.0018(7)
C2 0.0146(8) 0.0172(7) 0.0113(7) 0.0005(6) 0.0006(6) -0.0014(6)
C3 0.0142(8) 0.0174(7) 0.0118(7) 0.0015(6) -0.0009(6) -0.0011(7)
C4 0.0216(9) 0.0155(7) 0.0171(8) 0.0016(6) 0.0009(7) -0.0027(7)
C5 0.0260(10) 0.0187(8) 0.0174(8) -0.0014(6) -0.0031(7) -0.0042(7)
O1 0.0263(7) 0.0172(6) 0.0108(5) 0.0001(4) 0.0002(5) -0.0015(6)
O2 0.0248(7) 0.0261(6) 0.0118(5) 0.0036(5) -0.0038(5) -0.0075(6)
O3 0.0292(7) 0.0239(6) 0.0208(6) 0.0028(5) 0.0023(5) 0.0097(6)
O4 0.0231(7) 0.0258(6) 0.0128(5) -0.0028(5) -0.0025(5) 0.0062(5)
loop_
_atom_type_symbol
_atom_type_description
_atom_type_scat_dispersion_real
_atom_type_scat_dispersion_imag
_atom_type_scat_source
C C 0.0181 0.0091 'International Tables Vol C Tables 4.2.6.8 and 6.1.1.4'
H H 0 0 'International Tables Vol C Tables 4.2.6.8 and 6.1.1.4'
O O 0.0492 0.0322 'International Tables Vol C Tables 4.2.6.8 and 6.1.1.4'
loop_
_geom_angle_atom_site_label_1
_geom_angle_atom_site_label_2
_geom_angle_atom_site_label_3
_geom_angle
O4 C1 C2 112.57(14)
O1 C2 C1 109.29(13)
O1 C2 C3 104.89(13)
C1 C2 C3 115.12(14)
O2 C3 C2 109.59(13)
O2 C3 C4 115.26(13)
C2 C3 C4 101.92(13)
O3 C4 C5 108.72(15)
O3 C4 C3 111.78(14)
C5 C4 C3 99.88(13)
O1 C5 C4 105.82(13)
C2 O1 C5 108.99(11)
loop_
_geom_bond_atom_site_label_1
_geom_bond_atom_site_label_2
_geom_bond_distance
C1 O4 1.420(2)
C1 C2 1.514(2)
C2 O1 1.4455(19)
C2 C3 1.522(2)
C3 O2 1.4152(19)
C3 C4 1.532(2)
C4 O3 1.415(2)
C4 C5 1.510(2)
C5 O1 1.455(2)
