#------------------------------------------------------------------------------
#$Date: 2019-11-07 22:10:49 +0200 (Thu, 07 Nov 2019) $
#$Revision: 223721 $
#$URL: file:///home/coder/svn-repositories/cod/cif/7/23/23/7232325.cif $
#------------------------------------------------------------------------------
#
# This file is available in the Crystallography Open Database (COD),
# http://www.crystallography.net/
#
# All data on this site have been placed in the public domain by the
# contributors.
#
data_7232325
loop_
_publ_author_name
'Andleeb, Hina'
'Khan, Imtiaz'
'Franconetti, Antonio'
'Tahir, Muhammad Nawaz'
'Simpson, Jim'
'Hameed, Shahid'
'Frontera, Antonio'
_publ_section_title
;
 Diverse structural assemblies of U-shaped hydrazinyl-sulfonamides:
 experimental and theoretical analysis of non-covalent interactions
 stabilizing solid state conformations
;
_journal_issue                   11
_journal_name_full               CrystEngComm
_journal_page_first              1780
_journal_paper_doi               10.1039/C8CE01917G
_journal_volume                  21
_journal_year                    2019
_chemical_absolute_configuration rmad
_chemical_formula_moiety         'C12 H19 N3 O4 S'
_chemical_formula_sum            'C12 H19 N3 O4 S'
_chemical_formula_weight         301.36
_space_group_crystal_system      monoclinic
_space_group_IT_number           4
_space_group_name_Hall           'P 2yb'
_space_group_name_H-M_alt        'P 1 21 1'
_symmetry_space_group_name_Hall  'P 2yb'
_symmetry_space_group_name_H-M   'P 1 21 1'
_atom_sites_solution_hydrogens   mixed
_audit_creation_method           SHELXL-2014/7
_audit_update_record
;
2018-02-27 deposited with the CCDC.
2019-02-07 downloaded from the CCDC.
;
_cell_angle_alpha                90
_cell_angle_beta                 113.332(4)
_cell_angle_gamma                90
_cell_formula_units_Z            2
_cell_length_a                   10.4333(7)
_cell_length_b                   6.8279(4)
_cell_length_c                   11.1774(7)
_cell_measurement_reflns_used    2730
_cell_measurement_temperature    296(2)
_cell_measurement_theta_max      27.267
_cell_measurement_theta_min      1.984
_cell_volume                     731.14(8)
_computing_cell_refinement       'SAINT (Bruker, 2007)'
_computing_data_collection       'APEX2 (Bruker, 2007)'
_computing_data_reduction        'SAINT (Bruker, 2007)'
_computing_molecular_graphics    'Mercury (Macrae et al., 2008)'
_computing_publication_material  'SHELXL-2014/7 (Sheldrick, 2014)'
_computing_structure_refinement  'SHELXL-2014/7 (Sheldrick, 2014)'
_computing_structure_solution    'SHELXT (Sheldrick, 2014)'
_diffrn_ambient_temperature      296(2)
_diffrn_detector_area_resol_mean 7.70
_diffrn_measured_fraction_theta_full 0.996
_diffrn_measured_fraction_theta_max 0.993
_diffrn_measurement_device_type  'Bruker Kappa APEXII CCD'
_diffrn_measurement_method       \w
_diffrn_radiation_monochromator  graphite
_diffrn_radiation_source         'fine-focus sealed tube'
_diffrn_radiation_type           MoK\a
_diffrn_radiation_wavelength     0.71073
_diffrn_reflns_av_R_equivalents  0.0226
_diffrn_reflns_av_unetI/netI     0.0353
_diffrn_reflns_Laue_measured_fraction_full 0.996
_diffrn_reflns_Laue_measured_fraction_max 0.993
_diffrn_reflns_limit_h_max       11
_diffrn_reflns_limit_h_min       -13
_diffrn_reflns_limit_k_max       8
_diffrn_reflns_limit_k_min       -8
_diffrn_reflns_limit_l_max       14
_diffrn_reflns_limit_l_min       -14
_diffrn_reflns_number            6469
_diffrn_reflns_point_group_measured_fraction_full 0.957
_diffrn_reflns_point_group_measured_fraction_max 0.932
_diffrn_reflns_theta_full        25.000
_diffrn_reflns_theta_max         27.267
_diffrn_reflns_theta_min         1.984
_exptl_absorpt_coefficient_mu    0.238
_exptl_absorpt_correction_T_max  0.942
_exptl_absorpt_correction_T_min  0.914
_exptl_absorpt_correction_type   multi-scan
_exptl_absorpt_process_details   '(SADABS; Bruker, 2005)'
_exptl_crystal_colour            colorless
_exptl_crystal_density_diffrn    1.369
_exptl_crystal_description       needle
_exptl_crystal_F_000             320
_exptl_crystal_size_max          0.38
_exptl_crystal_size_mid          0.30
_exptl_crystal_size_min          0.26
_refine_diff_density_max         0.185
_refine_diff_density_min         -0.200
_refine_diff_density_rms         0.034
_refine_ls_abs_structure_details
;
 Flack x determined using 1055 quotients [(I+)-(I-)]/[(I+)+(I-)]
 (Parsons, Flack and Wagner, Acta Cryst. B69 (2013) 249-259).
;
_refine_ls_abs_structure_Flack   0.07(3)
_refine_ls_extinction_method     none
_refine_ls_goodness_of_fit_ref   1.031
_refine_ls_hydrogen_treatment    mixed
_refine_ls_matrix_type           full
_refine_ls_number_parameters     224
_refine_ls_number_reflns         3061
_refine_ls_number_restraints     1
_refine_ls_restrained_S_all      1.031
_refine_ls_R_factor_all          0.0389
_refine_ls_R_factor_gt           0.0327
_refine_ls_shift/su_max          0.000
_refine_ls_shift/su_mean         0.000
_refine_ls_structure_factor_coef Fsqd
_refine_ls_weighting_details
'w=1/[\s^2^(Fo^2^)+(0.0404P)^2^] where P=(Fo^2^+2Fc^2^)/3'
_refine_ls_weighting_scheme      calc
_refine_ls_wR_factor_gt          0.0727
_refine_ls_wR_factor_ref         0.0762
_reflns_Friedel_coverage         0.729
_reflns_Friedel_fraction_full    0.910
_reflns_Friedel_fraction_max     0.860
_reflns_number_gt                2731
_reflns_number_total             3061
_reflns_threshold_expression     'I > 2\s(I)'
_cod_data_source_file            c8ce01917g2.cif
_cod_data_source_block           5c_LMOHQAU
_cod_depositor_comments
'Adding full bibliography for 7232323--7232327.cif.'
_cod_database_code               7232325
_shelx_shelxl_version_number     2014/7
_shelx_space_group_comment
;
The symmetry employed for this shelxl refinement is uniquely defined
by the following loop, which should always be used as a source of
symmetry information in preference to the above space-group names.
They are only intended as comments.
;
_shelx_estimated_absorpt_t_min   0.915
_shelx_estimated_absorpt_t_max   0.941
_shelx_res_file
;

    shelx.res created by SHELXL-2014/7


TITL LMOHQAU_0m in P2(1) COLOURLESS NEEDLE
CELL 0.71073 10.4333 6.8279 11.1774 90 113.332 90
ZERR 2 0.0007 0.0004 0.0007 0 0.004 0
LATT -1
SYMM -X,0.5+Y,-Z
SFAC C H N O S
UNIT 24 38 6 8 2

L.S. 20
PLAN -10
SIZE 0.38 0.3 0.26
TEMP 23
EQIV $1 -x, y-1/2, -z
HTAB N2 O8_$1
EQIV $2 -x+1, y-1/2, -z
HTAB N3 O1_$2
EQIV $3 x, y+1, z
HTAB N5 N3_$3

BOND $H
CONF
fmap
acta 50

WGHT    0.040400
FVAR       0.25511
C1    1    0.261098    0.927329   -0.104748    11.00000    0.03044    0.02965 =
         0.03977   -0.00235    0.01146   -0.00479
O1    4    0.368514    0.984507   -0.112907    11.00000    0.03339    0.03923 =
         0.08578    0.00447    0.02529   -0.00157
N2    3    0.242369    0.742706   -0.078948    11.00000    0.03392    0.02835 =
         0.05929    0.00405    0.02179    0.00138
H2    2    0.174179    0.706779   -0.072200    11.00000    0.04395
N3    3    0.342714    0.593235   -0.061333    11.00000    0.04713    0.03223 =
         0.07766    0.01037    0.02933    0.00999
H3A   2    0.376728    0.611512   -0.121145    11.00000    0.07500
H3B   2    0.400715    0.605954    0.012669    11.00000    0.10543
C4    1    0.137964    1.063594   -0.130966    11.00000    0.02939    0.02590 =
         0.03919   -0.00217    0.01247   -0.00265
rem AFIX  13
H4    2    0.071891    0.996804   -0.109382    11.00000    0.02638
rem AFIX   0
C41   1    0.074909    1.119483   -0.276250    11.00000    0.04017    0.04862 =
         0.03948    0.00285    0.01541    0.00730
rem AFIX  13
H41   2    0.151684    1.195119   -0.289570    11.00000    0.04086
rem AFIX   0
C42   1   -0.051132    1.250512   -0.307884    11.00000    0.06513    0.07657 =
         0.04839    0.01096    0.01825    0.03098
AFIX 137
H42A  2   -0.087737    1.284053   -0.398699    11.00000   -1.50000
H42B  2   -0.024348    1.367748   -0.256498    11.00000   -1.50000
H42C  2   -0.121331    1.182925   -0.288538    11.00000   -1.50000
AFIX   0
C43   1    0.036036    0.936188   -0.359728    11.00000    0.06456    0.07706 =
         0.04738   -0.01517    0.01115    0.00994
AFIX 137
H43A  2   -0.024843    0.856501   -0.334439    11.00000   -1.50000
H43B  2    0.119058    0.863741   -0.347869    11.00000   -1.50000
H43C  2   -0.010704    0.972336   -0.449700    11.00000   -1.50000
AFIX   0
N5    3    0.179129    1.241367   -0.051940    11.00000    0.04039    0.02550 =
         0.04099   -0.00084    0.01636   -0.00438
H5    2    0.235932    1.315635   -0.062604    11.00000    0.04195
S6    5    0.186175    1.253526    0.093895    11.00000    0.03253    0.02859 =
         0.04051   -0.00219    0.01407    0.00296
O7    4    0.211403    1.455259    0.132256    11.00000    0.05139    0.03062 =
         0.05489   -0.00943    0.01547    0.00677
O8    4    0.064601    1.157746    0.095169    11.00000    0.03323    0.04732 =
         0.05432    0.00030    0.02090    0.00185
C9    1    0.332170    1.120321    0.198160    11.00000    0.03434    0.03078 =
         0.03595    0.00104    0.01430    0.00034
C10   1    0.458722    1.216460    0.258051    11.00000    0.04197    0.03111 =
         0.06233    0.00297    0.01245   -0.00609
rem AFIX  43
H10   2    0.463126    1.345980    0.240655    11.00000    0.06940
rem AFIX   0
C11   1    0.572983    1.116291    0.341363    11.00000    0.03692    0.04114 =
         0.07024   -0.00045    0.00559   -0.00681
rem AFIX  43
H11   2    0.668050    1.173719    0.380927    11.00000    0.06986
rem AFIX   0
C12   1    0.563585    0.916118    0.362835    11.00000    0.03980    0.03727 =
         0.04732    0.00251    0.01227    0.00390
O12   4    0.682887    0.833447    0.447579    11.00000    0.04492    0.04976 =
         0.07507    0.01133   -0.00037    0.00533
C121  1    0.682245    0.630168    0.470574    11.00000    0.05804    0.05133 =
         0.07337    0.01796    0.01300    0.01340
AFIX 137
H12A  2    0.611558    0.600741    0.502604    11.00000   -1.50000
H12B  2    0.771796    0.591218    0.534001    11.00000   -1.50000
H12C  2    0.662944    0.560346    0.390748    11.00000   -1.50000
AFIX   0
C13   1    0.438002    0.820255    0.301148    11.00000    0.04703    0.02789 =
         0.04588    0.00240    0.01743   -0.00035
rem AFIX  43
H13   2    0.434289    0.685815    0.314398    11.00000    0.04041
rem AFIX   0
C14   1    0.322983    0.922975    0.218640    11.00000    0.03321    0.03168 =
         0.04136   -0.00179    0.01235   -0.00378
rem AFIX  43
H14   2    0.237707    0.863449    0.178201    11.00000    0.02642
rem AFIX   0
HKLF 4

REM  LMOHQAU_0m in P2(1) COLOURLESS NEEDLE
REM R1 =  0.0327 for    2731 Fo > 4sig(Fo)  and  0.0389 for all    3061 data
REM    224 parameters refined using      1 restraints

END

WGHT      0.0401      0.0000

REM Highest difference peak  0.185,  deepest hole -0.200,  1-sigma level  0.034
Q1    1   0.2716  1.1871  0.1585  11.00000  0.05    0.18
Q2    1   0.6476  1.1721  0.4349  11.00000  0.05    0.14
Q3    1   0.3258  1.0357  0.2174  11.00000  0.05    0.13
Q4    1   0.1197  1.5101  0.1204  11.00000  0.05    0.12
Q5    1  -0.0213  1.2363  0.0251  11.00000  0.05    0.11
Q6    1   0.5034  0.8774  0.2794  11.00000  0.05    0.11
Q7    1   0.5547  0.7703  0.2616  11.00000  0.05    0.11
Q8    1   0.0611  0.7511 -0.3721  11.00000  0.05    0.11
Q9    1   0.0236  1.3287 -0.2949  11.00000  0.05    0.11
Q10   1   0.1766  0.9807 -0.1413  11.00000  0.05    0.11
;
_shelx_res_checksum              41786
loop_
_space_group_symop_operation_xyz
'x, y, z'
'-x, y+1/2, -z'
loop_
_atom_site_label
_atom_site_type_symbol
_atom_site_fract_x
_atom_site_fract_y
_atom_site_fract_z
_atom_site_U_iso_or_equiv
_atom_site_adp_type
_atom_site_occupancy
_atom_site_site_symmetry_order
_atom_site_calc_flag
_atom_site_refinement_flags_posn
_atom_site_refinement_flags_adp
C1 C 0.2611(3) 0.9273(4) -0.1047(2) 0.0341(6) Uani 1 1 d . .
O1 O 0.3685(2) 0.9845(3) -0.1129(2) 0.0523(6) Uani 1 1 d . .
N2 N 0.2424(3) 0.7427(4) -0.0789(2) 0.0395(5) Uani 1 1 d . .
H2 H 0.174(3) 0.707(5) -0.072(3) 0.044(10) Uiso 1 1 d . .
N3 N 0.3427(3) 0.5932(4) -0.0613(4) 0.0509(7) Uani 1 1 d . .
H3A H 0.377(4) 0.612(6) -0.121(4) 0.075(13) Uiso 1 1 d . .
H3B H 0.401(5) 0.606(8) 0.013(5) 0.11(2) Uiso 1 1 d . .
C4 C 0.1380(3) 1.0636(4) -0.1310(2) 0.0318(6) Uani 1 1 d . .
H4 H 0.072(3) 0.997(4) -0.109(2) 0.026(7) Uiso 1 1 d . .
C41 C 0.0749(3) 1.1195(5) -0.2762(3) 0.0429(7) Uani 1 1 d . .
H41 H 0.152(3) 1.195(4) -0.290(3) 0.041(8) Uiso 1 1 d . .
C42 C -0.0511(4) 1.2505(6) -0.3079(3) 0.0647(9) Uani 1 1 d . .
H42A H -0.0877 1.2841 -0.3987 0.097 Uiso 1 1 calc R U
H42B H -0.0243 1.3677 -0.2565 0.097 Uiso 1 1 calc R U
H42C H -0.1213 1.1829 -0.2885 0.097 Uiso 1 1 calc R U
C43 C 0.0360(4) 0.9362(6) -0.3597(3) 0.0665(10) Uani 1 1 d . .
H43A H -0.0248 0.8565 -0.3344 0.100 Uiso 1 1 calc R U
H43B H 0.1191 0.8637 -0.3479 0.100 Uiso 1 1 calc R U
H43C H -0.0107 0.9723 -0.4497 0.100 Uiso 1 1 calc R U
N5 N 0.1791(2) 1.2414(3) -0.05194(19) 0.0356(5) Uani 1 1 d . .
H5 H 0.236(3) 1.316(5) -0.063(3) 0.042(9) Uiso 1 1 d . .
S6 S 0.18618(7) 1.25353(8) 0.09390(6) 0.03400(17) Uani 1 1 d . .
O7 O 0.2114(2) 1.4553(3) 0.13226(19) 0.0474(5) Uani 1 1 d . .
O8 O 0.0646(2) 1.1577(3) 0.09517(19) 0.0438(5) Uani 1 1 d . .
C9 C 0.3322(3) 1.1203(4) 0.1982(2) 0.0336(6) Uani 1 1 d . .
C10 C 0.4587(3) 1.2165(4) 0.2581(3) 0.0477(8) Uani 1 1 d . .
H10 H 0.463(4) 1.346(6) 0.241(3) 0.069(11) Uiso 1 1 d . .
C11 C 0.5730(4) 1.1163(5) 0.3414(3) 0.0543(8) Uani 1 1 d . .
H11 H 0.668(4) 1.174(5) 0.381(3) 0.070(11) Uiso 1 1 d . .
C12 C 0.5636(3) 0.9161(4) 0.3628(3) 0.0430(7) Uani 1 1 d . .
O12 O 0.6829(3) 0.8334(3) 0.4476(2) 0.0641(7) Uani 1 1 d . .
C121 C 0.6822(4) 0.6302(5) 0.4706(4) 0.0650(10) Uani 1 1 d . .
H12A H 0.6116 0.6007 0.5026 0.097 Uiso 1 1 calc R U
H12B H 0.7718 0.5912 0.5340 0.097 Uiso 1 1 calc R U
H12C H 0.6629 0.5603 0.3907 0.097 Uiso 1 1 calc R U
C13 C 0.4380(3) 0.8203(4) 0.3011(3) 0.0406(7) Uani 1 1 d . .
H13 H 0.434(3) 0.686(5) 0.314(3) 0.040(8) Uiso 1 1 d . .
C14 C 0.3230(3) 0.9230(4) 0.2186(2) 0.0362(6) Uani 1 1 d . .
H14 H 0.238(3) 0.863(4) 0.178(2) 0.026(7) Uiso 1 1 d . .
loop_
_atom_site_aniso_label
_atom_site_aniso_U_11
_atom_site_aniso_U_22
_atom_site_aniso_U_33
_atom_site_aniso_U_23
_atom_site_aniso_U_13
_atom_site_aniso_U_12
C1 0.0304(15) 0.0296(13) 0.0398(13) -0.0023(11) 0.0115(11) -0.0048(12)
O1 0.0334(13) 0.0392(11) 0.0858(16) 0.0045(10) 0.0253(11) -0.0016(9)
N2 0.0339(13) 0.0283(11) 0.0593(13) 0.0040(11) 0.0218(10) 0.0014(13)
N3 0.0471(18) 0.0322(14) 0.078(2) 0.0104(14) 0.0293(18) 0.0100(13)
C4 0.0294(14) 0.0259(12) 0.0392(13) -0.0022(10) 0.0125(11) -0.0026(11)
C41 0.0402(18) 0.0486(16) 0.0395(15) 0.0029(12) 0.0154(13) 0.0073(15)
C42 0.065(2) 0.077(2) 0.0484(16) 0.011(2) 0.0183(15) 0.031(2)
C43 0.065(3) 0.077(3) 0.0474(18) -0.0152(18) 0.0111(17) 0.010(2)
N5 0.0404(13) 0.0255(11) 0.0410(11) -0.0008(10) 0.0164(10) -0.0044(12)
S6 0.0325(3) 0.0286(3) 0.0405(3) -0.0022(3) 0.0141(2) 0.0030(3)
O7 0.0514(13) 0.0306(10) 0.0549(11) -0.0094(8) 0.0155(10) 0.0068(9)
O8 0.0332(12) 0.0473(12) 0.0543(11) 0.0003(9) 0.0209(9) 0.0018(9)
C9 0.0343(16) 0.0308(12) 0.0359(13) 0.0010(10) 0.0143(11) 0.0003(12)
C10 0.0420(18) 0.0311(18) 0.0623(18) 0.0030(12) 0.0124(14) -0.0061(13)
C11 0.0369(19) 0.0411(17) 0.070(2) -0.0005(15) 0.0056(15) -0.0068(15)
C12 0.0398(17) 0.0373(15) 0.0473(15) 0.0025(12) 0.0123(13) 0.0039(13)
O12 0.0449(15) 0.0498(13) 0.0751(15) 0.0113(11) -0.0004(12) 0.0053(11)
C121 0.058(3) 0.051(2) 0.073(2) 0.0180(17) 0.0130(18) 0.0134(18)
C13 0.047(2) 0.0279(13) 0.0459(16) 0.0024(11) 0.0174(14) -0.0003(12)
C14 0.0332(16) 0.0317(13) 0.0414(14) -0.0018(11) 0.0123(12) -0.0038(13)
loop_
_atom_type_symbol
_atom_type_description
_atom_type_scat_dispersion_real
_atom_type_scat_dispersion_imag
_atom_type_scat_source
C C 0.0033 0.0016 'International Tables Vol C Tables 4.2.6.8 and 6.1.1.4'
H H 0.0000 0.0000 'International Tables Vol C Tables 4.2.6.8 and 6.1.1.4'
N N 0.0061 0.0033 'International Tables Vol C Tables 4.2.6.8 and 6.1.1.4'
O O 0.0106 0.0060 'International Tables Vol C Tables 4.2.6.8 and 6.1.1.4'
S S 0.1246 0.1234 'International Tables Vol C Tables 4.2.6.8 and 6.1.1.4'
loop_
_geom_angle_atom_site_label_1
_geom_angle_atom_site_label_2
_geom_angle_atom_site_label_3
_geom_angle
O1 C1 N2 122.6(3)
O1 C1 C4 121.3(2)
N2 C1 C4 116.0(2)
C1 N2 N3 123.4(2)
C1 N2 H2 122(2)
N3 N2 H2 114(2)
N2 N3 H3A 107(3)
N2 N3 H3B 106(4)
H3A N3 H3B 113(4)
N5 C4 C1 111.6(2)
N5 C4 C41 109.4(2)
C1 C4 C41 109.3(2)
N5 C4 H4 108.6(16)
C1 C4 H4 107.8(16)
C41 C4 H4 110.0(15)
C42 C41 C43 110.4(3)
C42 C41 C4 111.2(2)
C43 C41 C4 110.0(3)
C42 C41 H41 109.2(16)
C43 C41 H41 111.4(16)
C4 C41 H41 104.4(16)
C41 C42 H42A 109.5
C41 C42 H42B 109.5
H42A C42 H42B 109.5
C41 C42 H42C 109.5
H42A C42 H42C 109.5
H42B C42 H42C 109.5
C41 C43 H43A 109.5
C41 C43 H43B 109.5
H43A C43 H43B 109.5
C41 C43 H43C 109.5
H43A C43 H43C 109.5
H43B C43 H43C 109.5
C4 N5 S6 122.75(19)
C4 N5 H5 119(2)
S6 N5 H5 111.7(19)
O8 S6 O7 119.57(13)
O8 S6 N5 107.58(13)
O7 S6 N5 106.40(12)
O8 S6 C9 107.16(12)
O7 S6 C9 106.84(13)
N5 S6 C9 108.98(12)
C14 C9 C10 119.9(3)
C14 C9 S6 121.1(2)
C10 C9 S6 118.9(2)
C11 C10 C9 119.9(3)
C11 C10 H10 122(2)
C9 C10 H10 118(2)
C10 C11 C12 120.2(3)
C10 C11 H11 124(2)
C12 C11 H11 116(2)
O12 C12 C13 125.4(3)
O12 C12 C11 114.9(3)
C13 C12 C11 119.7(3)
C12 O12 C121 117.9(3)
O12 C121 H12A 109.5
O12 C121 H12B 109.5
H12A C121 H12B 109.5
O12 C121 H12C 109.5
H12A C121 H12C 109.5
H12B C121 H12C 109.5
C12 C13 C14 119.7(3)
C12 C13 H13 119(2)
C14 C13 H13 122(2)
C9 C14 C13 120.6(3)
C9 C14 H14 118.0(17)
C13 C14 H14 121.4(16)
loop_
_geom_bond_atom_site_label_1
_geom_bond_atom_site_label_2
_geom_bond_distance
C1 O1 1.224(3)
C1 N2 1.325(4)
C1 C4 1.518(4)
N2 N3 1.419(4)
N2 H2 0.78(3)
N3 H3A 0.88(4)
N3 H3B 0.81(5)
C4 N5 1.462(3)
C4 C41 1.539(4)
C4 H4 0.93(3)
C41 C42 1.512(4)
C41 C43 1.517(5)
C41 H41 1.01(3)
C42 H42A 0.9600
C42 H42B 0.9600
C42 H42C 0.9600
C43 H43A 0.9600
C43 H43B 0.9600
C43 H43C 0.9600
N5 S6 1.605(2)
N5 H5 0.82(3)
S6 O8 1.432(2)
S6 O7 1.436(2)
S6 C9 1.761(3)
C9 C14 1.376(4)
C9 C10 1.386(4)
C10 C11 1.370(4)
C10 H10 0.91(4)
C11 C12 1.398(5)
C11 H11 0.99(4)
C12 O12 1.353(4)
C12 C13 1.380(4)
O12 C121 1.412(4)
C121 H12A 0.9600
C121 H12B 0.9600
C121 H12C 0.9600
C13 C14 1.381(4)
C13 H13 0.93(3)
C14 H14 0.92(3)
loop_
_geom_hbond_atom_site_label_D
_geom_hbond_atom_site_label_H
_geom_hbond_atom_site_label_A
_geom_hbond_distance_DH
_geom_hbond_distance_HA
_geom_hbond_distance_DA
_geom_hbond_angle_DHA
_geom_hbond_site_symmetry_A
N2 H2 O8 0.78(3) 2.42(3) 3.189(3) 165(3) 2_545
N3 H3B O1 0.81(5) 2.37(5) 2.962(4) 131(4) 2_645
N5 H5 N3 0.82(3) 2.20(3) 2.973(4) 157(3) 1_565
loop_
_geom_torsion_atom_site_label_1
_geom_torsion_atom_site_label_2
_geom_torsion_atom_site_label_3
_geom_torsion_atom_site_label_4
_geom_torsion
O1 C1 N2 N3 -1.5(5)
C4 C1 N2 N3 175.4(3)
O1 C1 C4 N5 -53.7(3)
N2 C1 C4 N5 129.4(2)
O1 C1 C4 C41 67.5(3)
N2 C1 C4 C41 -109.4(3)
N5 C4 C41 C42 -59.2(3)
C1 C4 C41 C42 178.3(3)
N5 C4 C41 C43 178.1(3)
C1 C4 C41 C43 55.6(3)
C1 C4 N5 S6 -85.7(3)
C41 C4 N5 S6 153.2(2)
C4 N5 S6 O8 -43.0(2)
C4 N5 S6 O7 -172.3(2)
C4 N5 S6 C9 72.8(2)
O8 S6 C9 C14 28.1(2)
O7 S6 C9 C14 157.4(2)
N5 S6 C9 C14 -88.0(2)
O8 S6 C9 C10 -153.2(2)
O7 S6 C9 C10 -23.9(3)
N5 S6 C9 C10 90.6(2)
C14 C9 C10 C11 -2.5(5)
S6 C9 C10 C11 178.8(3)
C9 C10 C11 C12 2.1(5)
C10 C11 C12 O12 -179.6(3)
C10 C11 C12 C13 -0.9(5)
C13 C12 O12 C121 3.5(5)
C11 C12 O12 C121 -177.9(3)
O12 C12 C13 C14 178.7(3)
C11 C12 C13 C14 0.1(4)
C10 C9 C14 C13 1.7(4)
S6 C9 C14 C13 -179.7(2)
C12 C13 C14 C9 -0.5(4)
