#------------------------------------------------------------------------------
#$Date: 2019-11-07 21:58:40 +0200 (Thu, 07 Nov 2019) $
#$Revision: 223668 $
#$URL: file:///home/coder/svn-repositories/cod/cif/7/23/27/7232730.cif $
#------------------------------------------------------------------------------
#
# This file is available in the Crystallography Open Database (COD),
# http://www.crystallography.net/
#
# All data on this site have been placed in the public domain by the
# contributors.
#
data_7232730
loop_
_publ_author_name
'Giordano, Nico'
'Beavers, Christine M.'
'Kamenev, Konstantin V.'
'Marshall, William G.'
'Moggach, Stephen A.'
'Patterson, Simon D.'
'Teat, Simon J.'
'Warren, John E.'
'Wood, Peter A.'
'Parsons, Simon'
_publ_section_title
;
 High-pressure polymorphism in l-threonine between ambient pressure and 22
 GPa
;
_journal_issue                   30
_journal_name_full               CrystEngComm
_journal_page_first              4444
_journal_paper_doi               10.1039/C9CE00388F
_journal_volume                  21
_journal_year                    2019
_chemical_absolute_configuration syn
_chemical_formula_sum            'C4 H9 N O3'
_chemical_formula_weight         119.12
_chemical_name_common            L-threonine
_chemical_name_systematic        '2S,3R)-2-amino-3-hydroxybutanoic acid'
_space_group_crystal_system      orthorhombic
_space_group_IT_number           19
_space_group_name_Hall           'P 2ac 2ab'
_space_group_name_H-M_alt        'P 21 21 21'
_symmetry_space_group_name_Hall  'P 2ac 2ab'
_symmetry_space_group_name_H-M   'P 21 21 21'
_atom_sites_solution_hydrogens   geom
_audit_creation_method           SHELXL-2014/7
_audit_update_record
;
2019-03-15 deposited with the CCDC.    2019-05-09 downloaded from the CCDC.
;
_cell_angle_alpha                90
_cell_angle_beta                 90
_cell_angle_gamma                90
_cell_formula_units_Z            4
_cell_length_a                   5.14810(10)
_cell_length_b                   13.6138(2)
_cell_length_c                   7.74260(10)
_cell_measurement_reflns_used    3880
_cell_measurement_temperature    298(2)
_cell_measurement_theta_max      26.35
_cell_measurement_theta_min      2.99
_cell_volume                     542.642(15)
_computing_cell_refinement       'Bruker SAINT'
_computing_data_collection       'Bruker APEX2'
_computing_data_reduction        'Bruker SAINT'
_computing_molecular_graphics    'Bruker SHELXTL'
_computing_publication_material  'Bruker SHELXTL'
_computing_structure_refinement  'SHELXL-2014 (Sheldrick 2014)'
_computing_structure_solution    'SHELXS-97 (Sheldrick 2008)'
_diffrn_ambient_pressure         0.00
_diffrn_ambient_temperature      298(2)
_diffrn_measured_fraction_theta_full 1.000
_diffrn_measured_fraction_theta_max 1.000
_diffrn_measurement_device_type  'Bruker APEX-II CCD'
_diffrn_measurement_method       '\f and \w scans'
_diffrn_radiation_type           MoK\a
_diffrn_radiation_wavelength     0.71073
_diffrn_reflns_av_R_equivalents  0.0248
_diffrn_reflns_av_unetI/netI     0.0167
_diffrn_reflns_Laue_measured_fraction_full 1.000
_diffrn_reflns_Laue_measured_fraction_max 1.000
_diffrn_reflns_limit_h_max       6
_diffrn_reflns_limit_h_min       -6
_diffrn_reflns_limit_k_max       17
_diffrn_reflns_limit_k_min       -16
_diffrn_reflns_limit_l_max       9
_diffrn_reflns_limit_l_min       -9
_diffrn_reflns_number            5775
_diffrn_reflns_point_group_measured_fraction_full 1.000
_diffrn_reflns_point_group_measured_fraction_max 1.000
_diffrn_reflns_theta_full        25.242
_diffrn_reflns_theta_max         26.353
_diffrn_reflns_theta_min         2.993
_exptl_absorpt_coefficient_mu    0.124
_exptl_absorpt_correction_T_max  0.7454
_exptl_absorpt_correction_T_min  0.6756
_exptl_absorpt_correction_type   multi-scan
_exptl_absorpt_process_details
;
SADABS-2016/2 (Bruker,2016/2) was used for absorption correction.
wR2(int) was 0.0477 before and 0.0406 after correction.
The Ratio of minimum to maximum transmission is 0.9064.
The \l/2 correction factor is Not present.
;
_exptl_crystal_colour            colourless
_exptl_crystal_density_diffrn    1.458
_exptl_crystal_description       blade
_exptl_crystal_F_000             256
_exptl_crystal_size_max          0.200
_exptl_crystal_size_mid          0.100
_exptl_crystal_size_min          0.100
_refine_diff_density_max         0.176
_refine_diff_density_min         -0.132
_refine_diff_density_rms         0.036
_refine_ls_abs_structure_details
;
 Flack x determined using 404 quotients [(I+)-(I-)]/[(I+)+(I-)]
 (Parsons, Flack and Wagner, Acta Cryst. B69 (2013) 249-259).
;
_refine_ls_extinction_method     none
_refine_ls_goodness_of_fit_ref   0.823
_refine_ls_hydrogen_treatment    constr
_refine_ls_matrix_type           full
_refine_ls_number_parameters     76
_refine_ls_number_reflns         1123
_refine_ls_number_restraints     0
_refine_ls_restrained_S_all      0.823
_refine_ls_R_factor_all          0.0287
_refine_ls_R_factor_gt           0.0263
_refine_ls_shift/su_max          0.000
_refine_ls_shift/su_mean         0.000
_refine_ls_structure_factor_coef Fsqd
_refine_ls_weighting_details
'w=1/[\s^2^(Fo^2^)+(0.0498P)^2^+0.1947P] where P=(Fo^2^+2Fc^2^)/3'
_refine_ls_weighting_scheme      calc
_refine_ls_wR_factor_gt          0.0676
_refine_ls_wR_factor_ref         0.0702
_reflns_Friedel_coverage         0.637
_reflns_Friedel_fraction_full    1.000
_reflns_Friedel_fraction_max     1.000
_reflns_number_gt                1065
_reflns_number_total             1123
_reflns_threshold_expression     'I > 2\s(I)'
_cod_data_source_file            c9ce00388f5.cif
_cod_data_source_block           0_00GPa
_cod_depositor_comments
'Adding full bibliography for 7232730--7232750.cif.'
_cod_database_code               7232730
_shelx_shelxl_version_number     2014/7
_shelx_space_group_comment
;
The symmetry employed for this shelxl refinement is uniquely defined
by the following loop, which should always be used as a source of
symmetry information in preference to the above space-group names.
They are only intended as comments.
;
_shelx_estimated_absorpt_t_min   0.976
_shelx_estimated_absorpt_t_max   0.988
_shelx_res_file
;

    ambient_a.res created by SHELXL-2014/7


TITL ambient_a.res in P2(1)2(1)2(1)
CELL  0.71073   5.1481  13.6138   7.7426   90.000   90.000   90.000
ZERR    4.000   0.0001   0.0002   0.0001    0.000    0.000    0.000
LATT -1
SYMM 1/2-X, -Y, 1/2+Z
SYMM -X, 1/2+Y, 1/2-Z
SYMM 1/2+X, 1/2-Y, -Z
SFAC C H N O
UNIT 16 36 4 12
TEMP 25
SIZE 0.1 0.1 0.2 !colourless blade
ACTA
L.S. 20
BOND $H
LIST 6
FMAP 2
PLAN 5
WGHT    0.049800    0.194700
FVAR       1.62038
C1    1    0.298011    0.495676    0.684458    11.00000    0.02198    0.01653 =
         0.01877   -0.00177   -0.00194    0.00336
O1    4    0.467246    0.557918    0.716827    11.00000    0.02890    0.02066 =
         0.05515   -0.01646    0.00050   -0.00080
O2    4    0.059519    0.502966    0.710937    11.00000    0.02113    0.03465 =
         0.03838   -0.01426   -0.00019    0.00641
C2    1    0.391775    0.398233    0.606301    11.00000    0.01647    0.01519 =
         0.01808   -0.00229   -0.00014    0.00021
AFIX  13
H4    2    0.261562    0.375485    0.523086    11.00000   -1.20000
AFIX   0
N1    3    0.641601    0.413615    0.513206    11.00000    0.02292    0.01559 =
         0.02007   -0.00059    0.00240    0.00148
AFIX 137
H3    2    0.611306    0.444421    0.413841    11.00000   -1.50000
H2    2    0.715456    0.355738    0.492101    11.00000   -1.50000
H1    2    0.747354    0.449880    0.578036    11.00000   -1.50000
AFIX   0
C3    1    0.430986    0.318006    0.742277    11.00000    0.02512    0.01730 =
         0.02084    0.00023    0.00125    0.00185
AFIX  13
H5    2    0.561949    0.339560    0.825954    11.00000   -1.20000
AFIX   0
O3    4    0.529036    0.236607    0.646935    11.00000    0.04477    0.01482 =
         0.02950    0.00514    0.01064    0.00815
AFIX 147
H6    2    0.541651    0.188789    0.710786    11.00000   -1.50000
AFIX   0
C4    1    0.183976    0.290765    0.836776    11.00000    0.03952    0.03119 =
         0.03794    0.00802    0.01619    0.00193
AFIX 137
H8    2    0.128167    0.345211    0.906287    11.00000   -1.50000
H9    2    0.216004    0.234968    0.909540    11.00000   -1.50000
H7    2    0.051052    0.274834    0.754450    11.00000   -1.50000
AFIX   0
HKLF 4

REM  ambient_a.res in P2(1)2(1)2(1)
REM R1 =  0.0263 for    1065 Fo > 4sig(Fo)  and  0.0287 for all    1123 data
REM     76 parameters refined using      0 restraints

END

WGHT      0.0367      0.0821

REM Highest difference peak  0.176,  deepest hole -0.132,  1-sigma level  0.036
Q1    1   0.4070  0.3620  0.6789  11.00000  0.05    0.18
Q2    1   0.3584  0.4465  0.6475  11.00000  0.05    0.17
Q3    1   0.3822  0.5472  0.6358  11.00000  0.05    0.13
Q4    1   0.4251  0.5201  0.7674  11.00000  0.05    0.13
Q5    1   0.0155  0.2610  0.6799  11.00000  0.05    0.11
;
_shelx_res_checksum              50277
loop_
_space_group_symop_operation_xyz
'x, y, z'
'-x+1/2, -y, z+1/2'
'-x, y+1/2, -z+1/2'
'x+1/2, -y+1/2, -z'
loop_
_atom_site_label
_atom_site_type_symbol
_atom_site_fract_x
_atom_site_fract_y
_atom_site_fract_z
_atom_site_U_iso_or_equiv
_atom_site_adp_type
_atom_site_occupancy
_atom_site_site_symmetry_order
_atom_site_calc_flag
_atom_site_refinement_flags_posn
_atom_site_refinement_flags_adp
C1 C 0.2980(3) 0.49568(12) 0.6845(2) 0.0191(3) Uani 1 1 d . .
O1 O 0.4672(3) 0.55792(9) 0.7168(2) 0.0349(4) Uani 1 1 d . .
O2 O 0.0595(2) 0.50297(10) 0.71094(17) 0.0314(3) Uani 1 1 d . .
C2 C 0.3918(3) 0.39823(11) 0.60630(19) 0.0166(3) Uani 1 1 d . .
H4 H 0.2616 0.3755 0.5231 0.020 Uiso 1 1 calc R U
N1 N 0.6416(3) 0.41362(10) 0.51321(17) 0.0195(3) Uani 1 1 d . .
H3 H 0.6113 0.4444 0.4138 0.029 Uiso 1 1 calc R U
H2 H 0.7155 0.3557 0.4921 0.029 Uiso 1 1 calc R U
H1 H 0.7474 0.4499 0.5780 0.029 Uiso 1 1 calc R U
C3 C 0.4310(3) 0.31801(11) 0.7423(2) 0.0211(4) Uani 1 1 d . .
H5 H 0.5619 0.3396 0.8260 0.025 Uiso 1 1 calc R U
O3 O 0.5290(3) 0.23661(8) 0.64693(16) 0.0297(3) Uani 1 1 d . .
H6 H 0.5417 0.1888 0.7108 0.045 Uiso 1 1 calc R U
C4 C 0.1840(4) 0.29076(14) 0.8368(3) 0.0362(5) Uani 1 1 d . .
H8 H 0.1282 0.3452 0.9063 0.054 Uiso 1 1 calc R U
H9 H 0.2160 0.2350 0.9095 0.054 Uiso 1 1 calc R U
H7 H 0.0511 0.2748 0.7545 0.054 Uiso 1 1 calc R U
loop_
_atom_site_aniso_label
_atom_site_aniso_U_11
_atom_site_aniso_U_22
_atom_site_aniso_U_33
_atom_site_aniso_U_23
_atom_site_aniso_U_13
_atom_site_aniso_U_12
C1 0.0220(8) 0.0165(7) 0.0188(7) -0.0018(6) -0.0019(6) 0.0034(7)
O1 0.0289(7) 0.0207(6) 0.0552(9) -0.0165(6) 0.0005(6) -0.0008(5)
O2 0.0211(6) 0.0346(7) 0.0384(7) -0.0143(7) -0.0002(5) 0.0064(6)
C2 0.0165(7) 0.0152(7) 0.0181(7) -0.0023(6) -0.0001(6) 0.0002(6)
N1 0.0229(7) 0.0156(6) 0.0201(6) -0.0006(5) 0.0024(5) 0.0015(5)
C3 0.0251(9) 0.0173(7) 0.0208(7) 0.0002(6) 0.0013(7) 0.0018(6)
O3 0.0448(8) 0.0148(5) 0.0295(6) 0.0051(5) 0.0106(6) 0.0081(5)
C4 0.0395(11) 0.0312(9) 0.0379(10) 0.0080(8) 0.0162(9) 0.0019(9)
loop_
_atom_type_symbol
_atom_type_description
_atom_type_scat_dispersion_real
_atom_type_scat_dispersion_imag
_atom_type_scat_source
C C 0.0033 0.0016 'International Tables Vol C Tables 4.2.6.8 and 6.1.1.4'
H H 0.0000 0.0000 'International Tables Vol C Tables 4.2.6.8 and 6.1.1.4'
N N 0.0061 0.0033 'International Tables Vol C Tables 4.2.6.8 and 6.1.1.4'
O O 0.0106 0.0060 'International Tables Vol C Tables 4.2.6.8 and 6.1.1.4'
loop_
_geom_angle_atom_site_label_1
_geom_angle_atom_site_label_2
_geom_angle_atom_site_label_3
_geom_angle
O1 C1 O2 127.08(17)
O1 C1 C2 116.66(14)
O2 C1 C2 116.25(15)
N1 C2 C3 108.63(12)
N1 C2 C1 109.92(12)
C3 C2 C1 112.76(12)
N1 C2 H4 108.5
C3 C2 H4 108.5
C1 C2 H4 108.5
C2 N1 H3 109.5
C2 N1 H2 109.5
H3 N1 H2 109.5
C2 N1 H1 109.5
H3 N1 H1 109.5
H2 N1 H1 109.5
O3 C3 C4 110.97(14)
O3 C3 C2 104.21(12)
C4 C3 C2 113.37(14)
O3 C3 H5 109.4
C4 C3 H5 109.4
C2 C3 H5 109.4
C3 O3 H6 109.5
C3 C4 H8 109.5
C3 C4 H9 109.5
H8 C4 H9 109.5
C3 C4 H7 109.5
H8 C4 H7 109.5
H9 C4 H7 109.5
loop_
_geom_bond_atom_site_label_1
_geom_bond_atom_site_label_2
_geom_bond_distance
C1 O1 1.241(2)
C1 O2 1.249(2)
C1 C2 1.536(2)
C2 N1 1.489(2)
C2 C3 1.530(2)
C2 H4 0.9800
N1 H3 0.8900
N1 H2 0.8900
N1 H1 0.8900
C3 O3 1.4240(18)
C3 C4 1.513(3)
C3 H5 0.9800
O3 H6 0.8200
C4 H8 0.9600
C4 H9 0.9600
C4 H7 0.9600
