#------------------------------------------------------------------------------
#$Date: 2019-11-07 21:56:05 +0200 (Thu, 07 Nov 2019) $
#$Revision: 223654 $
#$URL: file:///home/coder/svn-repositories/cod/cif/7/23/21/7232157.cif $
#------------------------------------------------------------------------------
#
# This file is available in the Crystallography Open Database (COD),
# http://www.crystallography.net/
#
# All data on this site have been placed in the public domain by the
# contributors.
#
data_7232157
loop_
_publ_author_name
'Ng, Chun-Fai'
'Chow, Hak-Fun'
'Mak, Thomas C. W.'
_publ_section_title
;
 Organic molecular tessellations and intertwined double helices assembled
 by halogen bonding
;
_journal_issue                   7
_journal_name_full               CrystEngComm
_journal_page_first              1130
_journal_paper_doi               10.1039/C8CE02133C
_journal_volume                  21
_journal_year                    2019
_chemical_formula_sum            'C9 H3 Cl3 I2 N2'
_chemical_formula_weight         499.28
_space_group_crystal_system      monoclinic
_space_group_IT_number           14
_space_group_name_Hall           '-P 2ybc'
_space_group_name_H-M_alt        'P 1 21/c 1'
_symmetry_space_group_name_Hall  '-P 2ybc'
_symmetry_space_group_name_H-M   'P 1 21/c 1'
_atom_sites_solution_hydrogens   geom
_audit_creation_method           SHELXL-2014/6
_audit_update_record
;
2018-08-10 deposited with the CCDC.
2019-01-09 downloaded from the CCDC.
;
_cell_angle_alpha                90
_cell_angle_beta                 91.705(7)
_cell_angle_gamma                90
_cell_formula_units_Z            4
_cell_length_a                   4.3380(10)
_cell_length_b                   18.327(4)
_cell_length_c                   18.018(4)
_cell_measurement_reflns_used    359
_cell_measurement_temperature    298(2)
_cell_measurement_theta_max      15
_cell_measurement_theta_min      15
_cell_volume                     1431.8(6)
_computing_cell_refinement       'BRUKER D8VENTURE DIFFRACTOMETER'
_computing_data_collection       'BRUKER D8VENTURE DIFFRACTOMETER'
_computing_data_reduction        'BRUKER D8VENTURE DIFFRACTOMETER'
_computing_structure_refinement  'SHELXL-2014/6 (Sheldrick, 2014)'
_diffrn_ambient_temperature      298(2)
_diffrn_measured_fraction_theta_full 0.995
_diffrn_measured_fraction_theta_max 0.995
_diffrn_measurement_device_type  'BRUKER D8VENTURE DIFFRACTOMETER'
_diffrn_measurement_method       'PHI & OMEGA SCAN'
_diffrn_radiation_type           MoK\a
_diffrn_radiation_wavelength     0.71073
_diffrn_reflns_av_R_equivalents  0.0676
_diffrn_reflns_av_unetI/netI     0.0437
_diffrn_reflns_Laue_measured_fraction_full 0.995
_diffrn_reflns_Laue_measured_fraction_max 0.995
_diffrn_reflns_limit_h_max       5
_diffrn_reflns_limit_h_min       -5
_diffrn_reflns_limit_k_max       21
_diffrn_reflns_limit_k_min       -21
_diffrn_reflns_limit_l_max       21
_diffrn_reflns_limit_l_min       -21
_diffrn_reflns_number            15630
_diffrn_reflns_point_group_measured_fraction_full 0.995
_diffrn_reflns_point_group_measured_fraction_max 0.995
_diffrn_reflns_theta_full        25.242
_diffrn_reflns_theta_max         25.249
_diffrn_reflns_theta_min         2.262
_exptl_absorpt_coefficient_mu    4.927
_exptl_absorpt_correction_T_max  0.7456
_exptl_absorpt_correction_T_min  0.4704
_exptl_absorpt_correction_type   multi-scan
_exptl_crystal_colour            colourless
_exptl_crystal_density_diffrn    2.316
_exptl_crystal_description       needle
_exptl_crystal_F_000             912
_exptl_crystal_recrystallization_method
'Re-crystallisation from solvent: chloroform'
_exptl_crystal_size_max          0.400
_exptl_crystal_size_mid          0.300
_exptl_crystal_size_min          0.300
_refine_diff_density_max         2.135
_refine_diff_density_min         -1.876
_refine_diff_density_rms         0.308
_refine_ls_extinction_method     none
_refine_ls_goodness_of_fit_ref   1.294
_refine_ls_hydrogen_treatment    constr
_refine_ls_matrix_type           full
_refine_ls_number_parameters     145
_refine_ls_number_reflns         2584
_refine_ls_number_restraints     0
_refine_ls_restrained_S_all      1.294
_refine_ls_R_factor_all          0.1155
_refine_ls_R_factor_gt           0.1024
_refine_ls_shift/su_max          0.000
_refine_ls_shift/su_mean         0.000
_refine_ls_structure_factor_coef Fsqd
_refine_ls_weighting_details
'w=1/[\s^2^(Fo^2^)+(0.0391P)^2^+88.8798P] where P=(Fo^2^+2Fc^2^)/3'
_refine_ls_weighting_scheme      calc
_refine_ls_wR_factor_gt          0.2611
_refine_ls_wR_factor_ref         0.2683
_reflns_Friedel_coverage         0.000
_reflns_number_gt                2150
_reflns_number_total             2584
_reflns_threshold_expression     'I > 2\s(I)'
_cod_data_source_file            c8ce02133c2.cif
_cod_data_source_block           L1b
_cod_depositor_comments
'Adding full bibliography for 7232153--7232157.cif.'
_cod_original_cell_volume        1431.9(6)
_cod_database_code               7232157
_shelx_space_group_comment
;
The symmetry employed for this shelxl refinement is uniquely defined
by the following loop, which should always be used as a source of
symmetry information in preference to the above space-group names.
They are only intended as comments.
;
_shelx_estimated_absorpt_t_min   0.243
_shelx_estimated_absorpt_t_max   0.320
_shelxl_version_number           2014/6
_shelx_res_file
;
TITL a in P2(1)/c
CELL 0.71073   4.33800  18.32750  18.01820  90.0000  91.7047  90.0000
ZERR   4   0.00100   0.00420   0.00430   0.0000   0.0070   0.0000
LATT  1
SYMM -X, 0.5+Y, 0.5-Z
SFAC C H N I Cl
UNIT 36 12 8 8 12
LIST 4 ! automatically inserted. Change 6 to 4 for CHECKCIF!!
TEMP 25
ACTA

L.S. 12
OMIT -3 50.5
BOND $H
CONF
SIZE 0.3 0.3 0.4
FMAP 2
PLAN 20

WGHT    0.039100   88.879807
FVAR       0.10468
I1    4    1.045734    0.546955    0.204525    11.00000    0.05625    0.04833 =
         0.05813    0.00455    0.01512   -0.00009
N1    3    0.317687    0.522714    0.058629    11.00000    0.03631    0.03031 =
         0.07046    0.00229    0.02155    0.00424
C1    1    0.844320    0.301774    0.003434    11.00000    0.02682    0.05340 =
         0.07219    0.00745   -0.00444    0.01372
I2    4    1.021534    0.200002    0.009494    11.00000    0.05616    0.03031 =
         0.07081    0.00130    0.00540    0.01653
N2    3    0.690991    0.558692    0.492544    11.00000    0.03973    0.02709 =
         0.06922   -0.00069    0.01590   -0.01219
C2    1    0.760308    0.360903    0.000764    11.00000    0.05247    0.03059 =
         0.06128   -0.00374    0.01053    0.01365
CL1   5    0.468930    0.234165    0.182046    11.00000    0.15934    0.16296 =
         0.08932   -0.04185    0.01628   -0.02617
CL2   5    0.462728    0.245298    0.337033    11.00000    0.13684    0.16606 =
         0.07666    0.00912    0.00123   -0.01009
CL3   5    0.734561    0.358328    0.252388    11.00000    0.19913    0.06676 =
         0.29154    0.01297    0.00213   -0.03338
C4    1    0.437475    0.456273    0.056855    11.00000    0.06273    0.03047 =
         0.05760    0.00547    0.02194    0.01825
AFIX  43
H4    2    0.396577    0.423931    0.095098    11.00000   -1.20000
AFIX   0
C5    1    0.862161    0.539654    0.306111    11.00000    0.02684    0.04214 =
         0.04726   -0.00615    0.00876   -0.01497
C6    1    0.755529    0.532106    0.366715    11.00000    0.02310    0.03825 =
         0.05895   -0.00321   -0.00622   -0.00040
C7    1    0.632659    0.516566    0.435542    11.00000    0.03372    0.02676 =
         0.05173    0.00192    0.00381   -0.00429
C8    1    0.430217    0.455882    0.443038    11.00000    0.04350    0.03527 =
         0.05968   -0.00545    0.01091   -0.01977
AFIX  43
H8    2    0.383613    0.426451    0.402181    11.00000   -1.20000
AFIX   0
C9    1    0.653157    0.266365    0.257744    11.00000    0.15948    0.05400 =
         0.11398   -0.01038    0.01210    0.01250
AFIX  13
H9    2    0.852060    0.241056    0.261247    11.00000   -1.20000
AFIX   0
C3    1    0.620877    0.433572    0.000089    11.00000    0.04863    0.01207 =
         0.06586    0.00148    0.00246    0.01274
HKLF 4

REM  a in P2(1)/c
REM R1 =  0.1024 for    2150 Fo > 4sig(Fo)  and  0.1155 for all    2584 data
REM    145 parameters refined using      0 restraints

END

WGHT      0.0391     88.8758

REM Highest difference peak  2.135,  deepest hole -1.876,  1-sigma level  0.308
Q1    1   0.7847  0.2027 -0.0024  11.00000  0.05    2.14
Q2    1   1.2751  0.5499  0.2165  11.00000  0.05    2.10
Q3    1   0.8147  0.5530  0.1942  11.00000  0.05    1.69
Q4    1   1.0777  0.2078  0.0652  11.00000  0.05    1.68
Q5    1   1.2280  0.1994  0.0316  11.00000  0.05    1.66
Q6    1   1.0803  0.5455  0.2602  11.00000  0.05    1.65
Q7    1   1.0491  0.5483  0.1539  11.00000  0.05    1.23
Q8    1   0.8125  0.0952 -0.0003  11.00000  0.05    1.12
Q9    1   1.2197  0.4545  0.2221  11.00000  0.05    1.11
Q10   1   1.1112  0.3519  0.2977  11.00000  0.05    1.04
Q11   1   1.1595  0.2883 -0.0234  11.00000  0.05    1.02
Q12   1   1.0307  0.2023 -0.0429  11.00000  0.05    0.98
Q13   1   0.8970  0.6127  0.5019  11.00000  0.05    0.97
Q14   1   0.2980  0.3671  0.2358  11.00000  0.05    0.93
Q15   1   0.8469  0.3887  0.1021  11.00000  0.05    0.92
Q16   1   0.9035  0.4411  0.2586  11.00000  0.05    0.90
Q17   1   0.7720  0.1982  0.0985  11.00000  0.05    0.86
Q18   1   0.7973  0.3528  0.2862  11.00000  0.05    0.84
Q19   1   0.8915  0.4590  0.2265  11.00000  0.05    0.84
Q20   1   0.9276  0.4475  0.2773  11.00000  0.05    0.80
;
_shelx_res_checksum              62422
loop_
_space_group_symop_operation_xyz
'x, y, z'
'-x, y+1/2, -z+1/2'
'-x, -y, -z'
'x, -y-1/2, z-1/2'
loop_
_atom_site_label
_atom_site_type_symbol
_atom_site_fract_x
_atom_site_fract_y
_atom_site_fract_z
_atom_site_U_iso_or_equiv
_atom_site_adp_type
_atom_site_occupancy
_atom_site_site_symmetry_order
_atom_site_calc_flag
_atom_site_refinement_flags_posn
_atom_site_refinement_flags_adp
I1 I 1.0457(4) 0.54696(9) 0.20452(9) 0.0540(5) Uani 1 1 d . .
N1 N 0.318(4) 0.5227(9) 0.0586(11) 0.045(5) Uani 1 1 d . .
C1 C 0.844(5) 0.3018(14) 0.0034(14) 0.051(6) Uani 1 1 d . .
I2 I 1.0215(4) 0.20000(8) 0.00949(10) 0.0524(5) Uani 1 1 d . .
N2 N 0.691(4) 0.5587(9) 0.4925(11) 0.045(5) Uani 1 1 d . .
C2 C 0.760(6) 0.3609(12) 0.0008(14) 0.048(6) Uani 1 1 d . .
Cl1 Cl 0.469(3) 0.2342(8) 0.1820(6) 0.137(5) Uani 1 1 d . .
Cl2 Cl 0.463(3) 0.2453(8) 0.3370(6) 0.127(4) Uani 1 1 d . .
Cl3 Cl 0.735(4) 0.3583(7) 0.2524(12) 0.186(7) Uani 1 1 d . .
C4 C 0.437(6) 0.4563(12) 0.0569(13) 0.050(6) Uani 1 1 d . .
H4 H 0.3966 0.4239 0.0951 0.060 Uiso 1 1 calc R U
C5 C 0.862(5) 0.5397(12) 0.3061(12) 0.039(5) Uani 1 1 d . .
C6 C 0.756(5) 0.5321(12) 0.3667(13) 0.040(5) Uani 1 1 d . .
C7 C 0.633(5) 0.5166(10) 0.4355(12) 0.037(5) Uani 1 1 d . .
C8 C 0.430(5) 0.4559(12) 0.4430(13) 0.046(6) Uani 1 1 d . .
H8 H 0.3836 0.4265 0.4022 0.055 Uiso 1 1 calc R U
C9 C 0.653(11) 0.2664(18) 0.258(2) 0.109(14) Uani 1 1 d . .
H9 H 0.8521 0.2411 0.2612 0.131 Uiso 1 1 calc R U
C3 C 0.621(5) 0.4336(10) 0.0001(13) 0.042(5) Uani 1 1 d . .
loop_
_atom_site_aniso_label
_atom_site_aniso_U_11
_atom_site_aniso_U_22
_atom_site_aniso_U_33
_atom_site_aniso_U_23
_atom_site_aniso_U_13
_atom_site_aniso_U_12
I1 0.0562(11) 0.0483(9) 0.0581(10) 0.0046(7) 0.0151(8) -0.0001(8)
N1 0.036(11) 0.030(9) 0.070(13) 0.002(8) 0.022(9) 0.004(8)
C1 0.027(11) 0.053(15) 0.072(16) 0.007(12) -0.004(11) 0.014(11)
I2 0.0562(10) 0.0303(7) 0.0708(11) 0.0013(7) 0.0054(8) 0.0165(7)
N2 0.040(11) 0.027(9) 0.069(13) -0.001(9) 0.016(9) -0.012(8)
C2 0.052(15) 0.031(12) 0.061(15) -0.004(10) 0.011(12) 0.014(11)
Cl1 0.159(12) 0.163(12) 0.089(7) -0.042(7) 0.016(7) -0.026(9)
Cl2 0.137(10) 0.166(11) 0.077(6) 0.009(7) 0.001(6) -0.010(9)
Cl3 0.199(16) 0.067(7) 0.29(2) 0.013(10) 0.002(15) -0.033(9)
C4 0.063(16) 0.030(11) 0.058(14) 0.005(10) 0.022(12) 0.018(11)
C5 0.027(11) 0.042(12) 0.047(12) -0.006(9) 0.009(9) -0.015(9)
C6 0.023(11) 0.038(11) 0.059(14) -0.003(10) -0.006(10) 0.000(9)
C7 0.034(12) 0.027(10) 0.052(13) 0.002(9) 0.004(10) -0.004(8)
C8 0.043(13) 0.035(12) 0.060(14) -0.005(10) 0.011(11) -0.020(10)
C9 0.16(4) 0.05(2) 0.11(3) -0.010(19) 0.01(3) 0.01(2)
C3 0.049(14) 0.012(9) 0.066(14) 0.001(9) 0.002(11) 0.013(9)
loop_
_atom_type_symbol
_atom_type_description
_atom_type_scat_dispersion_real
_atom_type_scat_dispersion_imag
_atom_type_scat_source
C C 0.0033 0.0016 'International Tables Vol C Tables 4.2.6.8 and 6.1.1.4'
H H 0.0000 0.0000 'International Tables Vol C Tables 4.2.6.8 and 6.1.1.4'
N N 0.0061 0.0033 'International Tables Vol C Tables 4.2.6.8 and 6.1.1.4'
I I -0.4742 1.8119 'International Tables Vol C Tables 4.2.6.8 and 6.1.1.4'
Cl Cl 0.1484 0.1585 'International Tables Vol C Tables 4.2.6.8 and 6.1.1.4'
loop_
_geom_angle_atom_site_label_1
_geom_angle_atom_site_label_2
_geom_angle_atom_site_label_3
_geom_angle
_geom_angle_site_symmetry_1
_geom_angle_site_symmetry_3
C4 N1 C3 115.9(18) . 3_665
C2 C1 I2 176(2) . .
C7 N2 C8 120.1(18) . 3_666
C1 C2 C3 174(3) . .
N1 C4 C3 122(2) . .
N1 C4 H4 119.0 . .
C3 C4 H4 119.0 . .
C6 C5 I1 177(2) . .
C5 C6 C7 175(2) . .
N2 C7 C6 120.6(19) . .
N2 C7 C8 120(2) . .
C6 C7 C8 120(2) . .
N2 C8 C7 120(2) 3_666 .
N2 C8 H8 119.8 3_666 .
C7 C8 H8 119.8 . .
Cl1 C9 Cl2 112(3) . .
Cl1 C9 Cl3 113(2) . .
Cl2 C9 Cl3 112(2) . .
Cl1 C9 H9 106.5 . .
Cl2 C9 H9 106.5 . .
Cl3 C9 H9 106.5 . .
N1 C3 C4 122.0(17) 3_665 .
N1 C3 C2 117(2) 3_665 .
C4 C3 C2 121(2) . .
loop_
_geom_bond_atom_site_label_1
_geom_bond_atom_site_label_2
_geom_bond_distance
_geom_bond_site_symmetry_2
I1 C5 2.02(2) .
N1 C4 1.32(3) .
N1 C3 1.36(3) 3_665
C1 C2 1.14(3) .
C1 I2 2.02(2) .
N2 C7 1.30(3) .
N2 C8 1.32(3) 3_666
C2 C3 1.46(3) .
Cl1 C9 1.67(4) .
Cl2 C9 1.72(4) .
Cl3 C9 1.73(4) .
C4 C3 1.38(3) .
C4 H4 0.9300 .
C5 C6 1.21(3) .
C6 C7 1.39(3) .
C7 C8 1.43(3) .
C8 N2 1.32(3) 3_666
C8 H8 0.9300 .
C9 H9 0.9800 .
C3 N1 1.36(3) 3_665
loop_
_geom_torsion_atom_site_label_1
_geom_torsion_atom_site_label_2
_geom_torsion_atom_site_label_3
_geom_torsion_atom_site_label_4
_geom_torsion
_geom_torsion_site_symmetry_1
_geom_torsion_site_symmetry_4
C3 N1 C4 C3 2(4) 3_665 .
C8 N2 C7 C6 179(2) 3_666 .
C8 N2 C7 C8 2(4) 3_666 .
N2 C7 C8 N2 -2(4) . 3_666
C6 C7 C8 N2 -179(2) . 3_666
N1 C4 C3 N1 -2(4) . 3_665
N1 C4 C3 C2 178(2) . .
