#------------------------------------------------------------------------------
#$Date: 2019-09-12 11:08:45 +0300 (Thu, 12 Sep 2019) $
#$Revision: 218226 $
#$URL: file:///home/coder/svn-repositories/cod/cif/7/23/38/7233807.cif $
#------------------------------------------------------------------------------
#
# This file is available in the Crystallography Open Database (COD),
# http://www.crystallography.net/
#
# All data on this site have been placed in the public domain by the
# contributors.
#
data_7233807
loop_
_publ_author_name
'Weizhao Cai'
'Jiangang He'
'Wei Li'
'Andrzej Katrusiak'
_publ_section_title
;
 Anomalous compression of a weakly CH...O bonded nonlinear optical
 molecular crystal
;
_journal_name_full               'Journal of Materials Chemistry C'
_journal_page_first              6471
_journal_page_last               6476
_journal_paper_doi               10.1039/C4TC00654B
_journal_volume                  2
_journal_year                    2014
_chemical_formula_moiety         'C6 H6 N2 O3'
_chemical_formula_sum            'C6 H6 N2 O3'
_chemical_formula_weight         154.13
_chemical_name_common            3-methyl-4-nitropyridine-N-oxide
_space_group_IT_number           19
_space_group_name_Hall           'P 2ac 2ab'
_space_group_name_H-M_alt        'P 21 21 21'
_symmetry_cell_setting           orthorhombic
_symmetry_space_group_name_Hall  'P 2ac 2ab'
_symmetry_space_group_name_H-M   'P 21 21 21'
_atom_sites_solution_hydrogens   geom
_atom_sites_solution_primary     direct
_atom_sites_solution_secondary   difmap
_cell_angle_alpha                90.00
_cell_angle_beta                 90.00
_cell_angle_gamma                90.00
_cell_formula_units_Z            4
_cell_length_a                   21.2598(9)
_cell_length_b                   6.1219(3)
_cell_length_c                   5.1391(3)
_cell_measurement_temperature    240(2)
_cell_volume                     668.86(6)
_computing_structure_refinement  'SHELXL-97 (Sheldrick, 1997)'
_computing_structure_solution    'SHELXS-97 (Sheldrick, 1990)'
_diffrn_ambient_temperature      240(2)
_diffrn_measured_fraction_theta_full 0.905
_diffrn_measured_fraction_theta_max 0.905
_diffrn_measurement_device_type  'Oxford Diffraction Xcalibur Eos'
_diffrn_measurement_method       'phi and omega scans'
_diffrn_radiation_monochromator  graphite
_diffrn_radiation_source         'fine-focus sealed tube'
_diffrn_radiation_type           MoK\a
_diffrn_radiation_wavelength     0.71073
_diffrn_reflns_av_R_equivalents  0.0143
_diffrn_reflns_av_sigmaI/netI    0.0186
_diffrn_reflns_limit_h_max       22
_diffrn_reflns_limit_h_min       -26
_diffrn_reflns_limit_k_max       7
_diffrn_reflns_limit_k_min       -8
_diffrn_reflns_limit_l_max       6
_diffrn_reflns_limit_l_min       -3
_diffrn_reflns_number            1876
_diffrn_reflns_theta_full        28.72
_diffrn_reflns_theta_max         28.72
_diffrn_reflns_theta_min         3.46
_exptl_absorpt_coefficient_mu    0.125
_exptl_absorpt_correction_T_max  0.9754
_exptl_absorpt_correction_T_min  0.9634
_exptl_absorpt_correction_type   multi-scan
_exptl_absorpt_process_details   '(CrysAlis Pro; Oxford Diffraction, 2010)'
_exptl_crystal_colour            'light yellow'
_exptl_crystal_density_diffrn    1.531
_exptl_crystal_density_method    'not measured'
_exptl_crystal_description       block
_exptl_crystal_F_000             320
_exptl_crystal_size_max          0.30
_exptl_crystal_size_mid          0.30
_exptl_crystal_size_min          0.20
_refine_diff_density_max         0.162
_refine_diff_density_min         -0.119
_refine_diff_density_rms         0.032
_refine_ls_abs_structure_details 'Flack H D (1983), Acta Cryst. A39, 876-881'
_refine_ls_abs_structure_Flack   0.0(4)
_refine_ls_extinction_coef       0.034(6)
_refine_ls_extinction_expression Fc^*^=kFc[1+0.001xFc^2^\l^3^/sin(2\q)]^-1/4^
_refine_ls_extinction_method     SHELXL
_refine_ls_goodness_of_fit_ref   1.130
_refine_ls_hydrogen_treatment    constr
_refine_ls_matrix_type           full
_refine_ls_number_parameters     102
_refine_ls_number_reflns         944
_refine_ls_number_restraints     0
_refine_ls_restrained_S_all      1.130
_refine_ls_R_factor_all          0.0364
_refine_ls_R_factor_gt           0.0311
_refine_ls_shift/su_max          0.000
_refine_ls_shift/su_mean         0.000
_refine_ls_structure_factor_coef Fsqd
_refine_ls_weighting_details
'calc w=1/[\s^2^(Fo^2^)+(0.0422P)^2^+0.0623P] where P=(Fo^2^+2Fc^2^)/3'
_refine_ls_weighting_scheme      calc
_refine_ls_wR_factor_gt          0.0804
_refine_ls_wR_factor_ref         0.0859
_reflns_number_gt                859
_reflns_number_total             944
_reflns_threshold_expression     >2sigma(I)
_cod_data_source_file            1000020.cif
_cod_data_source_block           PCOD1000020
_cod_depositor_comments
;
The following automatic conversions were performed:

data item '_symmetry_cell_setting' value 'Orthorhombic' was changed
to 'orthorhombic' in accordance with the built-in table derived from
the CIF Core dictionary named 'cif_core.dic' version 2.4.5 last
updated on 2014-11-21.

Automatic conversion script
Id: cif_fix_values 6909 2019-04-08 15:41:33Z antanas 
;
_cod_original_sg_symbol_Hall     'P 2ac 2ab '
_cod_original_sg_symbol_H-M      ' P 21 21 21'
_cod_database_code               7233807
loop_
_symmetry_equiv_pos_as_xyz
'x, y, z'
'-x+1/2, -y, z+1/2'
'-x, y+1/2, -z+1/2'
'x+1/2, -y+1/2, -z'
loop_
_atom_site_label
_atom_site_type_symbol
_atom_site_fract_x
_atom_site_fract_y
_atom_site_fract_z
_atom_site_U_iso_or_equiv
_atom_site_adp_type
_atom_site_occupancy
_atom_site_symmetry_multiplicity
_atom_site_calc_flag
_atom_site_refinement_flags
_atom_site_disorder_assembly
_atom_site_disorder_group
N1 N 0.15386(7) 0.0495(2) 0.5040(3) 0.0347(4) Uani 1 1 d . . .
C1 C 0.17903(8) 0.1787(3) 0.3165(4) 0.0330(4) Uani 1 1 d . . .
H1 H 0.2158 0.1331 0.2351 0.040 Uiso 1 1 calc R . .
C2 C 0.15246(8) 0.3754(3) 0.2407(3) 0.0289(4) Uani 1 1 d . . .
C3 C 0.09686(8) 0.4339(3) 0.3687(3) 0.0285(4) Uani 1 1 d . . .
C4 C 0.07166(8) 0.3045(3) 0.5632(3) 0.0332(4) Uani 1 1 d . . .
H2 H 0.0351 0.3479 0.6484 0.040 Uiso 1 1 calc R . .
C5 C 0.10048(9) 0.1128(3) 0.6304(4) 0.0365(4) Uani 1 1 d . . .
H3 H 0.0837 0.0260 0.7617 0.044 Uiso 1 1 calc R . .
O1 O 0.18059(7) -0.1345(2) 0.5635(3) 0.0511(4) Uani 1 1 d . . .
C6 C 0.18704(9) 0.5065(3) 0.0404(4) 0.0387(4) Uani 1 1 d . . .
H4 H 0.2235 0.4270 -0.0163 0.058 Uiso 1 1 calc R . .
H5 H 0.1999 0.6432 0.1148 0.058 Uiso 1 1 calc R . .
H6 H 0.1599 0.5331 -0.1055 0.058 Uiso 1 1 calc R . .
N2 N 0.06259(7) 0.6342(3) 0.3052(3) 0.0367(4) Uani 1 1 d . . .
O2 O 0.07500(8) 0.7279(3) 0.1014(3) 0.0606(5) Uani 1 1 d . . .
O3 O 0.02244(7) 0.6986(2) 0.4566(3) 0.0509(4) Uani 1 1 d . . .
loop_
_atom_site_aniso_label
_atom_site_aniso_U_11
_atom_site_aniso_U_22
_atom_site_aniso_U_33
_atom_site_aniso_U_23
_atom_site_aniso_U_13
_atom_site_aniso_U_12
N1 0.0353(8) 0.0274(7) 0.0415(8) 0.0063(7) -0.0070(7) 0.0002(6)
C1 0.0292(8) 0.0321(9) 0.0377(9) 0.0005(8) 0.0003(8) 0.0014(7)
C2 0.0286(8) 0.0302(8) 0.0280(8) 0.0020(7) -0.0034(7) -0.0036(7)
C3 0.0271(8) 0.0279(8) 0.0307(8) 0.0012(7) -0.0043(7) -0.0002(6)
C4 0.0302(8) 0.0355(8) 0.0340(9) 0.0013(8) 0.0017(8) -0.0037(7)
C5 0.0373(9) 0.0366(9) 0.0357(10) 0.0083(8) -0.0011(8) -0.0078(8)
O1 0.0512(8) 0.0340(7) 0.0682(10) 0.0165(8) -0.0073(8) 0.0101(6)
C6 0.0366(9) 0.0429(10) 0.0367(9) 0.0080(9) 0.0054(8) -0.0024(8)
N2 0.0332(8) 0.0336(8) 0.0433(9) 0.0039(7) -0.0040(7) 0.0024(7)
O2 0.0554(9) 0.0635(10) 0.0630(9) 0.0352(9) 0.0057(8) 0.0175(8)
O3 0.0479(8) 0.0466(8) 0.0583(9) -0.0031(9) 0.0068(8) 0.0158(6)
loop_
_atom_type_symbol
_atom_type_description
_atom_type_scat_dispersion_real
_atom_type_scat_dispersion_imag
_atom_type_scat_source
C C 0.0033 0.0016 'International Tables Vol C Tables 4.2.6.8 and 6.1.1.4'
H H 0.0000 0.0000 'International Tables Vol C Tables 4.2.6.8 and 6.1.1.4'
N N 0.0061 0.0033 'International Tables Vol C Tables 4.2.6.8 and 6.1.1.4'
O O 0.0106 0.0060 'International Tables Vol C Tables 4.2.6.8 and 6.1.1.4'
loop_
_geom_angle_atom_site_label_1
_geom_angle_atom_site_label_2
_geom_angle_atom_site_label_3
_geom_angle
_geom_angle_site_symmetry_1
_geom_angle_site_symmetry_3
O1 N1 C1 120.03(16) . .
O1 N1 C5 119.90(16) . .
C1 N1 C5 120.07(15) . .
N1 C1 C2 123.06(16) . .
C1 C2 C3 115.72(16) . .
C1 C2 C6 117.30(16) . .
C3 C2 C6 126.93(16) . .
C4 C3 C2 121.37(16) . .
C4 C3 N2 116.62(15) . .
C2 C3 N2 122.01(15) . .
C5 C4 C3 120.00(17) . .
N1 C5 C4 119.74(16) . .
O3 N2 O2 123.04(17) . .
O3 N2 C3 118.50(15) . .
O2 N2 C3 118.45(16) . .
loop_
_geom_bond_atom_site_label_1
_geom_bond_atom_site_label_2
_geom_bond_distance
_geom_bond_site_symmetry_2
N1 O1 1.2984(18) .
N1 C1 1.356(2) .
N1 C5 1.364(2) .
C1 C2 1.386(2) .
C2 C3 1.399(2) .
C2 C6 1.498(2) .
C3 C4 1.383(2) .
C3 N2 1.463(2) .
C4 C5 1.368(3) .
N2 O3 1.220(2) .
N2 O2 1.223(2) .
loop_
_geom_torsion_atom_site_label_1
_geom_torsion_atom_site_label_2
_geom_torsion_atom_site_label_3
_geom_torsion_atom_site_label_4
_geom_torsion
_geom_torsion_site_symmetry_1
_geom_torsion_site_symmetry_2
_geom_torsion_site_symmetry_3
_geom_torsion_site_symmetry_4
O1 N1 C1 C2 179.04(16) . . . .
C5 N1 C1 C2 -1.0(3) . . . .
N1 C1 C2 C3 -0.6(3) . . . .
N1 C1 C2 C6 177.06(16) . . . .
C1 C2 C3 C4 1.8(2) . . . .
C6 C2 C3 C4 -175.63(17) . . . .
C1 C2 C3 N2 -178.51(15) . . . .
C6 C2 C3 N2 4.1(3) . . . .
C2 C3 C4 C5 -1.4(3) . . . .
N2 C3 C4 C5 178.90(15) . . . .
O1 N1 C5 C4 -178.58(16) . . . .
C1 N1 C5 C4 1.5(3) . . . .
C3 C4 C5 N1 -0.3(3) . . . .
C4 C3 N2 O3 14.6(2) . . . .
C2 C3 N2 O3 -165.13(17) . . . .
C4 C3 N2 O2 -164.53(17) . . . .
C2 C3 N2 O2 15.7(2) . . . .
