#------------------------------------------------------------------------------
#$Date: 2019-11-07 22:06:50 +0200 (Thu, 07 Nov 2019) $
#$Revision: 223706 $
#$URL: file:///home/coder/svn-repositories/cod/cif/7/23/33/7233334.cif $
#------------------------------------------------------------------------------
#
# This file is available in the Crystallography Open Database (COD),
# http://www.crystallography.net/
#
# All data on this site have been placed in the public domain by the
# contributors.
#
data_7233334
loop_
_publ_author_name
'Prathap, Annamalai'
'Ravi, Arthi'
'Pathan, Javed R.'
'Sureshan, Kana M.'
_publ_section_title
;
 Halobenzyl alcohols as structurally simple organogelators
;
_journal_issue                   35
_journal_name_full               CrystEngComm
_journal_page_first              5310
_journal_paper_doi               10.1039/C9CE01008D
_journal_volume                  21
_journal_year                    2019
_chemical_formula_moiety         'C7 H6 Br2 O'
_chemical_formula_sum            'C7 H6 Br2 O'
_chemical_formula_weight         265.94
_space_group_crystal_system      monoclinic
_space_group_IT_number           14
_space_group_name_Hall           '-P 2ybc'
_space_group_name_H-M_alt        'P 1 21/c 1'
_symmetry_space_group_name_Hall  '-P 2ybc'
_symmetry_space_group_name_H-M   'P 1 21/c 1'
_atom_sites_solution_hydrogens   mixed
_audit_creation_method           SHELXL-2014/7
_audit_update_record
;
2019-06-28 deposited with the CCDC.    2019-08-02 downloaded from the CCDC.
;
_cell_angle_alpha                90
_cell_angle_beta                 97.411(8)
_cell_angle_gamma                90
_cell_formula_units_Z            4
_cell_length_a                   4.2512(9)
_cell_length_b                   14.458(3)
_cell_length_c                   13.500(3)
_cell_measurement_reflns_used    2312
_cell_measurement_temperature    296(2)
_cell_measurement_theta_max      22.28
_cell_measurement_theta_min      3.04
_cell_volume                     822.8(3)
_computing_cell_refinement       'APEX3/SAINT (Bruker, 2016)'
_computing_data_collection       'APEX3 (Bruker, 2016)'
_computing_data_reduction        'SAINT/XPREP (Bruker, 2016)'
_computing_molecular_graphics
'ORTEP3 (Farrugia, 1997) and Mercury (Bruno et al., 2002)'
_computing_publication_material  'SHELXL-2014 (Sheldrick, 2014)'
_computing_structure_refinement  'SHELXL-2014/7 (Sheldrick, 2014)'
_computing_structure_solution    'SHELXT 2014/5 (Sheldrick, 2014)'
_diffrn_ambient_temperature      296(2)
_diffrn_detector_area_resol_mean 0
_diffrn_measured_fraction_theta_full 0.999
_diffrn_measured_fraction_theta_max 0.999
_diffrn_measurement_device_type  'Bruker KAPPA APEX-II CCD'
_diffrn_measurement_method       '\f and \w scans'
_diffrn_radiation_type           MoK\a
_diffrn_radiation_wavelength     0.71073
_diffrn_reflns_av_R_equivalents  0.0470
_diffrn_reflns_av_unetI/netI     0.0353
_diffrn_reflns_Laue_measured_fraction_full 0.999
_diffrn_reflns_Laue_measured_fraction_max 0.999
_diffrn_reflns_limit_h_max       5
_diffrn_reflns_limit_h_min       -5
_diffrn_reflns_limit_k_max       17
_diffrn_reflns_limit_k_min       -17
_diffrn_reflns_limit_l_max       16
_diffrn_reflns_limit_l_min       -14
_diffrn_reflns_number            9356
_diffrn_reflns_point_group_measured_fraction_full 0.999
_diffrn_reflns_point_group_measured_fraction_max 0.999
_diffrn_reflns_theta_full        24.995
_diffrn_reflns_theta_max         24.995
_diffrn_reflns_theta_min         2.818
_diffrn_source                   'sealed tube'
_exptl_absorpt_coefficient_mu    9.779
_exptl_absorpt_correction_T_max  0.387
_exptl_absorpt_correction_T_min  0.245
_exptl_absorpt_correction_type   multi-scan
_exptl_absorpt_process_details   'SADABS (Bruker, 2016)'
_exptl_crystal_colour            colourless
_exptl_crystal_density_diffrn    2.147
_exptl_crystal_density_meas      2.148
_exptl_crystal_density_method    none
_exptl_crystal_description       needle
_exptl_crystal_F_000             504
_exptl_crystal_size_max          0.200
_exptl_crystal_size_mid          0.120
_exptl_crystal_size_min          0.120
_refine_diff_density_max         0.616
_refine_diff_density_min         -0.361
_refine_diff_density_rms         0.086
_refine_ls_extinction_method     none
_refine_ls_goodness_of_fit_ref   1.051
_refine_ls_hydrogen_treatment    mixed
_refine_ls_matrix_type           full
_refine_ls_number_parameters     107
_refine_ls_number_reflns         1435
_refine_ls_number_restraints     8
_refine_ls_restrained_S_all      1.052
_refine_ls_R_factor_all          0.0703
_refine_ls_R_factor_gt           0.0369
_refine_ls_shift/su_max          0.000
_refine_ls_shift/su_mean         0.000
_refine_ls_structure_factor_coef Fsqd
_refine_ls_weighting_details
'w=1/[\s^2^(Fo^2^)+(0.0311P)^2^+1.2801P] where P=(Fo^2^+2Fc^2^)/3'
_refine_ls_weighting_scheme      calc
_refine_ls_wR_factor_gt          0.0711
_refine_ls_wR_factor_ref         0.0817
_reflns_Friedel_coverage         0.000
_reflns_number_gt                987
_reflns_number_total             1435
_reflns_threshold_expression     'I > 2\s(I)'
_cod_data_source_file            c9ce01008d2.cif
_cod_data_source_block           24dibromobenzylalcohol
_cod_depositor_comments
'Adding full bibliography for 7233329--7233334.cif.'
_cod_database_code               7233334
_shelx_shelxl_version_number     2014/7
_shelx_space_group_comment
;
The symmetry employed for this shelxl refinement is uniquely defined
by the following loop, which should always be used as a source of
symmetry information in preference to the above space-group names.
They are only intended as comments.
;
_shelx_estimated_absorpt_t_min   0.245
_shelx_estimated_absorpt_t_max   0.387
_shelx_res_file
;

    shelx.res created by SHELXL-2014/7

TITL shelxt_a.res in P2(1)/c
CELL  0.71073   4.2512  14.4581  13.5000   90.000   97.411   90.000
ZERR     4.00   0.0009   0.0031   0.0032    0.000    0.008    0.000
LATT   1
SYMM  - X, 1/2 + Y, 1/2 - Z
SFAC  C    H    O    BR
UNIT  28 24 4 8
MERG   2
OMIT    -3.00  50.00
OMIT     0   1   1
DFIX 0.96 0.015 O1 H1 O1 H1'
DFIX 1.09 0.005 C7 H7A C7 H7B
DFIX 2.01 0.01 H1 H7A H1' H7B
DFIX 1.94 0.015 C2 BR2 C4 BR4
EQIV $1 -x+1, y+1/2, -z+3/2
HTAB C5 Br2_$1
EQIV $2 -x+1, -y+1, -z+1
HTAB O1 O1_$2
EQIV $3 -x, -y+1, -z+1
HTAB O1 O1_$3
FMAP   2
PLAN   20
SIZE     0.120   0.120   0.200
ACTA
HTAB    2.00000
BOND   $H
CONF
L.S.  10
TEMP    23.00
WGHT    0.031100    1.280100
FVAR       0.15717
C1    1    0.544920    0.559598    0.719481    11.00000    0.03607    0.04324 =
         0.03527   -0.00250   -0.00016    0.00938
C2    1    0.649665    0.540316    0.817805    11.00000    0.04308    0.04131 =
         0.03995    0.00205    0.00298   -0.00398
C3    1    0.824151    0.601081    0.881971    11.00000    0.05800    0.04649 =
         0.03655    0.00067   -0.00652   -0.00412
AFIX  43
H3    2    0.887474    0.585776    0.948465    11.00000   -1.20000
AFIX   0
C4    1    0.900728    0.685171    0.843718    11.00000    0.04819    0.03815 =
         0.05787   -0.00583   -0.00136   -0.00201
C5    1    0.816973    0.706746    0.745544    11.00000    0.07218    0.03952 =
         0.06213    0.01093   -0.00646   -0.00378
AFIX  43
H5    2    0.879193    0.762700    0.720194    11.00000   -1.20000
AFIX   0
C6    1    0.638289    0.644421    0.684039    11.00000    0.06924    0.05415 =
         0.04138    0.01053   -0.00919    0.01034
AFIX  43
H6    2    0.579024    0.659586    0.617293    11.00000   -1.20000
AFIX   0
C7    1    0.343402    0.492801    0.654344    11.00000    0.04792    0.06007 =
         0.03261   -0.00602   -0.00312    0.00354
O1    3    0.275116    0.526768    0.553086    11.00000    0.06461    0.08437 =
         0.03278   -0.00568   -0.00660   -0.00087
BR2   4    0.552130    0.423764    0.871731    11.00000    0.10979    0.05870 =
         0.05153    0.01189   -0.01189   -0.03461
BR4   4    1.120552    0.773246    0.932366    11.00000    0.08464    0.05036 =
         0.07810   -0.00846   -0.01827   -0.01516
H7A   2    0.460346    0.425747    0.656433    11.00000    0.07285
H7B   2    0.108090    0.479902    0.674891    11.00000    0.08452
PART    1
H1    2    0.444881    0.495317    0.527009    10.50000    0.09282
PART    2
H1'   2    0.132260    0.478967    0.527077    10.50000    0.10758
HKLF    4

REM  shelxt_a.res in P2(1)/c
REM R1 =  0.0369 for     987 Fo > 4sig(Fo)  and  0.0703 for all    1435 data
REM    107 parameters refined using      8 restraints

END

WGHT      0.0311      1.2801

REM Instructions for potential hydrogen bonds
HTAB C5 Br2_$1
HTAB O1 O1_$2
HTAB O1 O1_$3

REM Highest difference peak  0.616,  deepest hole -0.361,  1-sigma level  0.086
Q1    1   0.2869  0.4288  0.8666  11.00000  0.05    0.62
Q2    1   0.8450  0.7694  0.9381  11.00000  0.05    0.46
Q3    1   1.1405  0.7808  0.8642  11.00000  0.05    0.46
Q4    1   1.3939  0.7653  0.9364  11.00000  0.05    0.45
Q5    1   1.1477  0.7426  0.8774  11.00000  0.05    0.42
Q6    1   0.4563  0.5502  0.5637  11.00000  0.05    0.32
Q7    1   0.6005  0.4046  0.8043  11.00000  0.05    0.31
Q8    1   0.5424  0.3871  0.9079  11.00000  0.05    0.30
Q9    1   0.8202  0.4277  0.8760  11.00000  0.05    0.29
Q10   1   1.6024  0.7843  0.9718  11.00000  0.05    0.27
Q11   1   0.9057  0.4130  0.8693  11.00000  0.05    0.27
Q12   1   0.3879  0.3727  0.8261  11.00000  0.05    0.27
Q13   1   1.0429  0.4350  0.8374  11.00000  0.05    0.26
Q14   1   1.0050  0.4168  0.8634  11.00000  0.05    0.25
Q15   1   0.3243  0.4733  0.5578  11.00000  0.05    0.24
Q16   1   0.6572  0.6015  0.6824  11.00000  0.05    0.23
Q17   1   1.0216  0.8549  0.9338  11.00000  0.05    0.23
Q18   1   0.3232  0.3895  0.5204  11.00000  0.05    0.22
Q19   1   0.3249  0.5386  0.5002  11.00000  0.05    0.22
Q20   1   0.5493  0.5067  0.8432  11.00000  0.05    0.21
;
_shelx_res_checksum              43285
loop_
_space_group_symop_operation_xyz
'x, y, z'
'-x, y+1/2, -z+1/2'
'-x, -y, -z'
'x, -y-1/2, z-1/2'
loop_
_atom_site_label
_atom_site_type_symbol
_atom_site_fract_x
_atom_site_fract_y
_atom_site_fract_z
_atom_site_U_iso_or_equiv
_atom_site_adp_type
_atom_site_occupancy
_atom_site_site_symmetry_order
_atom_site_calc_flag
_atom_site_refinement_flags_posn
_atom_site_refinement_flags_adp
_atom_site_refinement_flags_occupancy
_atom_site_disorder_assembly
_atom_site_disorder_group
C1 C 0.5449(11) 0.5596(3) 0.7195(4) 0.0386(12) Uani 1 1 d . . . . .
C2 C 0.6497(12) 0.5403(3) 0.8178(4) 0.0417(12) Uani 1 1 d D . . . .
C3 C 0.8242(12) 0.6011(3) 0.8820(4) 0.0481(14) Uani 1 1 d . . . . .
H3 H 0.8875 0.5858 0.9485 0.058 Uiso 1 1 calc R U . . .
C4 C 0.9007(13) 0.6852(3) 0.8437(4) 0.0488(14) Uani 1 1 d D . . . .
C5 C 0.8170(14) 0.7067(4) 0.7455(5) 0.0593(16) Uani 1 1 d . . . . .
H5 H 0.8792 0.7627 0.7202 0.071 Uiso 1 1 calc R U . . .
C6 C 0.6383(13) 0.6444(4) 0.6840(4) 0.0563(16) Uani 1 1 d . . . . .
H6 H 0.5790 0.6596 0.6173 0.068 Uiso 1 1 calc R U . . .
C7 C 0.3434(13) 0.4928(4) 0.6543(4) 0.0476(14) Uani 1 1 d D . . . .
O1 O 0.2751(10) 0.5268(3) 0.5531(3) 0.0617(11) Uani 1 1 d D . . . .
Br2 Br 0.55213(18) 0.42376(4) 0.87173(5) 0.0753(3) Uani 1 1 d D . . . .
Br4 Br 1.12055(17) 0.77325(4) 0.93237(5) 0.0736(3) Uani 1 1 d D . . . .
H7A H 0.460(11) 0.4257(17) 0.656(4) 0.073(18) Uiso 1 1 d D . . . .
H7B H 0.108(6) 0.480(4) 0.675(4) 0.08(2) Uiso 1 1 d D . . . .
H1 H 0.44(3) 0.495(8) 0.527(6) 0.09(5) Uiso 0.5 1 d D . P A 1
H1' H 0.13(2) 0.479(6) 0.527(4) 0.11(6) Uiso 0.5 1 d D . P B 2
loop_
_atom_site_aniso_label
_atom_site_aniso_U_11
_atom_site_aniso_U_22
_atom_site_aniso_U_33
_atom_site_aniso_U_23
_atom_site_aniso_U_13
_atom_site_aniso_U_12
C1 0.036(3) 0.043(3) 0.035(3) -0.002(2) 0.000(2) 0.009(2)
C2 0.043(3) 0.041(3) 0.040(3) 0.002(2) 0.003(2) -0.004(2)
C3 0.058(4) 0.046(3) 0.037(3) 0.001(2) -0.007(3) -0.004(3)
C4 0.048(3) 0.038(3) 0.058(4) -0.006(3) -0.001(3) -0.002(2)
C5 0.072(4) 0.040(3) 0.062(4) 0.011(3) -0.006(3) -0.004(3)
C6 0.069(4) 0.054(4) 0.041(3) 0.011(3) -0.009(3) 0.010(3)
C7 0.048(4) 0.060(4) 0.033(3) -0.006(3) -0.003(3) 0.004(3)
O1 0.065(3) 0.084(3) 0.033(2) -0.006(2) -0.0066(19) -0.001(2)
Br2 0.1098(6) 0.0587(4) 0.0515(4) 0.0119(3) -0.0119(4) -0.0346(4)
Br4 0.0846(5) 0.0504(4) 0.0781(5) -0.0085(3) -0.0183(4) -0.0152(3)
loop_
_atom_type_symbol
_atom_type_description
_atom_type_scat_dispersion_real
_atom_type_scat_dispersion_imag
_atom_type_scat_source
C C 0.0033 0.0016 'International Tables Vol C Tables 4.2.6.8 and 6.1.1.4'
H H 0.0000 0.0000 'International Tables Vol C Tables 4.2.6.8 and 6.1.1.4'
O O 0.0106 0.0060 'International Tables Vol C Tables 4.2.6.8 and 6.1.1.4'
Br Br -0.2901 2.4595 'International Tables Vol C Tables 4.2.6.8 and 6.1.1.4'
loop_
_geom_angle_atom_site_label_1
_geom_angle_atom_site_label_2
_geom_angle_atom_site_label_3
_geom_angle
C2 C1 C6 116.1(5)
C2 C1 C7 121.7(5)
C6 C1 C7 122.2(5)
C1 C2 C3 123.9(5)
C1 C2 Br2 119.4(4)
C3 C2 Br2 116.7(4)
C4 C3 C2 117.4(5)
C4 C3 H3 121.3
C2 C3 H3 121.3
C5 C4 C3 121.5(5)
C5 C4 Br4 120.2(4)
C3 C4 Br4 118.3(4)
C4 C5 C6 119.2(5)
C4 C5 H5 120.4
C6 C5 H5 120.4
C5 C6 C1 121.7(5)
C5 C6 H6 119.1
C1 C6 H6 119.1
O1 C7 C1 111.4(5)
O1 C7 H7A 111(3)
C1 C7 H7A 110(3)
O1 C7 H7B 103(3)
C1 C7 H7B 116(3)
H7A C7 H7B 106(4)
C7 O1 H1 97(4)
C7 O1 H1' 98(4)
loop_
_geom_bond_atom_site_label_1
_geom_bond_atom_site_label_2
_geom_bond_distance
C1 C2 1.373(7)
C1 C6 1.393(7)
C1 C7 1.499(7)
C2 C3 1.381(7)
C2 Br2 1.902(5)
C3 C4 1.376(7)
C3 H3 0.9300
C4 C5 1.363(8)
C4 Br4 1.907(5)
C5 C6 1.384(8)
C5 H5 0.9300
C6 H6 0.9300
C7 O1 1.446(6)
C7 H7A 1.088(5)
C7 H7B 1.088(5)
O1 H1 0.958(16)
O1 H1' 0.956(16)
loop_
_geom_hbond_atom_site_label_D
_geom_hbond_atom_site_label_H
_geom_hbond_atom_site_label_A
_geom_hbond_distance_DH
_geom_hbond_distance_HA
_geom_hbond_distance_DA
_geom_hbond_angle_DHA
_geom_hbond_site_symmetry_A
C5 H5 Br2 0.93 3.12 3.765(5) 128.0 2_656
O1 H1 O1 0.958(16) 1.74(3) 2.649(8) 158(5) 3_666
O1 H1' O1 0.956(16) 1.92(8) 2.694(8) 136(10) 3_566
loop_
_geom_torsion_atom_site_label_1
_geom_torsion_atom_site_label_2
_geom_torsion_atom_site_label_3
_geom_torsion_atom_site_label_4
_geom_torsion
C6 C1 C2 C3 3.2(8)
C7 C1 C2 C3 -177.1(5)
C6 C1 C2 Br2 -177.0(4)
C7 C1 C2 Br2 2.7(7)
C1 C2 C3 C4 -1.2(8)
Br2 C2 C3 C4 179.1(4)
C2 C3 C4 C5 -2.1(8)
C2 C3 C4 Br4 176.5(4)
C3 C4 C5 C6 3.0(9)
Br4 C4 C5 C6 -175.5(4)
C4 C5 C6 C1 -0.8(9)
C2 C1 C6 C5 -2.2(8)
C7 C1 C6 C5 178.1(5)
C2 C1 C7 O1 -177.5(4)
C6 C1 C7 O1 2.2(7)
