#------------------------------------------------------------------------------
#$Date: 2019-09-12 11:08:10 +0300 (Thu, 12 Sep 2019) $
#$Revision: 218222 $
#$URL: file:///home/coder/svn-repositories/cod/cif/7/23/38/7233803.cif $
#------------------------------------------------------------------------------
#
# This file is available in the Crystallography Open Database (COD),
# http://www.crystallography.net/
#
# All data on this site have been placed in the public domain by the
# contributors.
#
data_7233803
loop_
_publ_author_name
'Weizhao Cai'
'Jiangang He'
'Wei Li'
'Andrzej Katrusiak'
_publ_section_title
;
 Anomalous compression of a weakly CH...O bonded nonlinear optical
 molecular crystal
;
_journal_name_full               'Journal of Materials Chemistry C'
_journal_page_first              6471
_journal_page_last               6476
_journal_paper_doi               10.1039/C4TC00654B
_journal_volume                  2
_journal_year                    2014
_chemical_formula_moiety         'C6 H6 N2 O3'
_chemical_formula_sum            'C6 H6 N2 O3'
_chemical_formula_weight         154.13
_chemical_name_common            3-methyl-4-nitropyridine-N-oxide
_space_group_IT_number           19
_space_group_name_Hall           'P 2ac 2ab'
_space_group_name_H-M_alt        'P 21 21 21'
_symmetry_cell_setting           orthorhombic
_symmetry_space_group_name_Hall  'P 2ac 2ab'
_symmetry_space_group_name_H-M   'P 21 21 21'
_atom_sites_solution_hydrogens   geom
_atom_sites_solution_primary     direct
_atom_sites_solution_secondary   difmap
_cell_angle_alpha                90.00
_cell_angle_beta                 90.00
_cell_angle_gamma                90.00
_cell_formula_units_Z            4
_cell_length_a                   21.0975(9)
_cell_length_b                   6.1157(3)
_cell_length_c                   5.1353(2)
_cell_measurement_temperature    180(2)
_cell_volume                     662.59(5)
_computing_structure_refinement  'SHELXL-97 (Sheldrick, 1997)'
_computing_structure_solution    'SHELXS-97 (Sheldrick, 1990)'
_diffrn_ambient_temperature      180(2)
_diffrn_measured_fraction_theta_full 0.897
_diffrn_measured_fraction_theta_max 0.897
_diffrn_measurement_device_type  'Oxford Diffraction Xcalibur Eos'
_diffrn_measurement_method       'phi and omega scans'
_diffrn_radiation_monochromator  graphite
_diffrn_radiation_source         'fine-focus sealed tube'
_diffrn_radiation_type           MoK\a
_diffrn_radiation_wavelength     0.71073
_diffrn_reflns_av_R_equivalents  0.0114
_diffrn_reflns_av_sigmaI/netI    0.0164
_diffrn_reflns_limit_h_max       21
_diffrn_reflns_limit_h_min       -26
_diffrn_reflns_limit_k_max       8
_diffrn_reflns_limit_k_min       -7
_diffrn_reflns_limit_l_max       3
_diffrn_reflns_limit_l_min       -6
_diffrn_reflns_number            1856
_diffrn_reflns_theta_full        28.84
_diffrn_reflns_theta_max         28.84
_diffrn_reflns_theta_min         3.47
_exptl_absorpt_coefficient_mu    0.126
_exptl_absorpt_correction_T_max  0.9752
_exptl_absorpt_correction_T_min  0.9631
_exptl_absorpt_correction_type   multi-scan
_exptl_absorpt_process_details   '(CrysAlis Pro; Oxford Diffraction, 2010)'
_exptl_crystal_colour            'light yellow'
_exptl_crystal_density_diffrn    1.545
_exptl_crystal_density_method    'not measured'
_exptl_crystal_description       block
_exptl_crystal_F_000             320
_exptl_crystal_size_max          0.30
_exptl_crystal_size_mid          0.30
_exptl_crystal_size_min          0.20
_refine_diff_density_max         0.197
_refine_diff_density_min         -0.129
_refine_diff_density_rms         0.035
_refine_ls_abs_structure_details 'Flack H D (1983), Acta Cryst. A39, 876-881'
_refine_ls_abs_structure_Flack   0.0(5)
_refine_ls_extinction_coef       0.031(6)
_refine_ls_extinction_expression Fc^*^=kFc[1+0.001xFc^2^\l^3^/sin(2\q)]^-1/4^
_refine_ls_extinction_method     SHELXL
_refine_ls_goodness_of_fit_ref   1.118
_refine_ls_hydrogen_treatment    constr
_refine_ls_matrix_type           full
_refine_ls_number_parameters     102
_refine_ls_number_reflns         938
_refine_ls_number_restraints     0
_refine_ls_restrained_S_all      1.118
_refine_ls_R_factor_all          0.0329
_refine_ls_R_factor_gt           0.0298
_refine_ls_shift/su_max          0.000
_refine_ls_shift/su_mean         0.000
_refine_ls_structure_factor_coef Fsqd
_refine_ls_weighting_details
'calc w=1/[\s^2^(Fo^2^)+(0.0374P)^2^+0.1334P] where P=(Fo^2^+2Fc^2^)/3'
_refine_ls_weighting_scheme      calc
_refine_ls_wR_factor_gt          0.0767
_refine_ls_wR_factor_ref         0.0794
_reflns_number_gt                881
_reflns_number_total             938
_reflns_threshold_expression     >2sigma(I)
_cod_data_source_file            1000016.cif
_cod_data_source_block           PCOD1000016
_cod_depositor_comments
;
The following automatic conversions were performed:

data item '_symmetry_cell_setting' value 'Orthorhombic' was changed
to 'orthorhombic' in accordance with the built-in table derived from
the CIF Core dictionary named 'cif_core.dic' version 2.4.5 last
updated on 2014-11-21.

Automatic conversion script
Id: cif_fix_values 6909 2019-04-08 15:41:33Z antanas 
;
_cod_original_sg_symbol_Hall     'P 2ac 2ab '
_cod_original_sg_symbol_H-M      ' P 21 21 21'
_cod_database_code               7233803
loop_
_symmetry_equiv_pos_as_xyz
'x, y, z'
'-x+1/2, -y, z+1/2'
'-x, y+1/2, -z+1/2'
'x+1/2, -y+1/2, -z'
loop_
_atom_site_label
_atom_site_type_symbol
_atom_site_fract_x
_atom_site_fract_y
_atom_site_fract_z
_atom_site_U_iso_or_equiv
_atom_site_adp_type
_atom_site_occupancy
_atom_site_symmetry_multiplicity
_atom_site_calc_flag
_atom_site_refinement_flags
_atom_site_disorder_assembly
_atom_site_disorder_group
N1 N 0.15352(7) 0.0506(2) 0.5002(3) 0.0260(3) Uani 1 1 d . . .
C1 C 0.17916(8) 0.1794(3) 0.3120(3) 0.0251(4) Uani 1 1 d . . .
H1 H 0.2161 0.1331 0.2301 0.030 Uiso 1 1 calc R . .
C2 C 0.15255(7) 0.3777(3) 0.2368(3) 0.0222(4) Uani 1 1 d . . .
C3 C 0.09681(7) 0.4375(3) 0.3667(3) 0.0222(4) Uani 1 1 d . . .
C4 C 0.07141(8) 0.3087(3) 0.5630(3) 0.0250(4) Uani 1 1 d . . .
H2 H 0.0350 0.3533 0.6500 0.030 Uiso 1 1 calc R . .
C5 C 0.10022(8) 0.1149(3) 0.6285(4) 0.0274(4) Uani 1 1 d . . .
H3 H 0.0834 0.0280 0.7600 0.033 Uiso 1 1 calc R . .
O1 O 0.18008(6) -0.1346(2) 0.5579(3) 0.0379(4) Uani 1 1 d . . .
C6 C 0.18741(8) 0.5090(3) 0.0364(3) 0.0287(4) Uani 1 1 d . . .
H4 H 0.2240 0.4293 -0.0209 0.043 Uiso 1 1 calc R . .
H5 H 0.2005 0.6457 0.1110 0.043 Uiso 1 1 calc R . .
H6 H 0.1600 0.5362 -0.1094 0.043 Uiso 1 1 calc R . .
N2 N 0.06272(7) 0.6393(2) 0.3041(3) 0.0276(3) Uani 1 1 d . . .
O2 O 0.07528(7) 0.7335(2) 0.1002(3) 0.0452(4) Uani 1 1 d . . .
O3 O 0.02226(6) 0.7041(2) 0.4570(3) 0.0374(4) Uani 1 1 d . . .
loop_
_atom_site_aniso_label
_atom_site_aniso_U_11
_atom_site_aniso_U_22
_atom_site_aniso_U_33
_atom_site_aniso_U_23
_atom_site_aniso_U_13
_atom_site_aniso_U_12
N1 0.0263(7) 0.0205(6) 0.0313(7) 0.0046(7) -0.0065(6) -0.0002(5)
C1 0.0219(8) 0.0258(8) 0.0275(8) 0.0006(7) -0.0001(7) 0.0003(6)
C2 0.0218(7) 0.0235(8) 0.0213(8) 0.0013(7) -0.0026(7) -0.0027(6)
C3 0.0214(7) 0.0214(7) 0.0237(8) 0.0008(7) -0.0040(6) -0.0008(6)
C4 0.0223(7) 0.0277(8) 0.0249(8) -0.0001(8) 0.0011(7) -0.0021(6)
C5 0.0270(8) 0.0275(8) 0.0276(8) 0.0051(8) -0.0008(7) -0.0065(7)
O1 0.0382(7) 0.0251(6) 0.0504(9) 0.0116(7) -0.0053(7) 0.0073(5)
C6 0.0275(8) 0.0317(9) 0.0267(8) 0.0059(8) 0.0034(7) -0.0014(7)
N2 0.0250(7) 0.0245(7) 0.0333(8) 0.0028(6) -0.0038(6) 0.0018(6)
O2 0.0411(8) 0.0470(8) 0.0473(8) 0.0255(8) 0.0034(7) 0.0120(7)
O3 0.0354(7) 0.0340(7) 0.0427(8) -0.0026(7) 0.0039(6) 0.0107(5)
loop_
_atom_type_symbol
_atom_type_description
_atom_type_scat_dispersion_real
_atom_type_scat_dispersion_imag
_atom_type_scat_source
C C 0.0033 0.0016 'International Tables Vol C Tables 4.2.6.8 and 6.1.1.4'
H H 0.0000 0.0000 'International Tables Vol C Tables 4.2.6.8 and 6.1.1.4'
N N 0.0061 0.0033 'International Tables Vol C Tables 4.2.6.8 and 6.1.1.4'
O O 0.0106 0.0060 'International Tables Vol C Tables 4.2.6.8 and 6.1.1.4'
loop_
_geom_angle_atom_site_label_1
_geom_angle_atom_site_label_2
_geom_angle_atom_site_label_3
_geom_angle
_geom_angle_site_symmetry_1
_geom_angle_site_symmetry_3
O1 N1 C1 119.77(15) . .
O1 N1 C5 119.89(15) . .
C1 N1 C5 120.34(14) . .
N1 C1 C2 122.84(15) . .
C1 C2 C3 115.74(15) . .
C1 C2 C6 117.39(15) . .
C3 C2 C6 126.81(15) . .
C4 C3 C2 121.48(15) . .
C4 C3 N2 116.67(14) . .
C2 C3 N2 121.85(15) . .
C5 C4 C3 119.80(16) . .
N1 C5 C4 119.76(16) . .
O2 N2 O3 123.13(16) . .
O2 N2 C3 118.60(15) . .
O3 N2 C3 118.27(15) . .
loop_
_geom_bond_atom_site_label_1
_geom_bond_atom_site_label_2
_geom_bond_distance
_geom_bond_site_symmetry_2
N1 O1 1.2979(18) .
N1 C1 1.359(2) .
N1 C5 1.361(2) .
C1 C2 1.391(2) .
C2 C3 1.401(2) .
C2 C6 1.498(2) .
C3 C4 1.387(2) .
C3 N2 1.464(2) .
C4 C5 1.374(2) .
N2 O2 1.224(2) .
N2 O3 1.2258(19) .
loop_
_geom_torsion_atom_site_label_1
_geom_torsion_atom_site_label_2
_geom_torsion_atom_site_label_3
_geom_torsion_atom_site_label_4
_geom_torsion
_geom_torsion_site_symmetry_1
_geom_torsion_site_symmetry_2
_geom_torsion_site_symmetry_3
_geom_torsion_site_symmetry_4
O1 N1 C1 C2 178.70(15) . . . .
C5 N1 C1 C2 -1.4(3) . . . .
N1 C1 C2 C3 -0.3(2) . . . .
N1 C1 C2 C6 176.98(15) . . . .
C1 C2 C3 C4 1.8(2) . . . .
C6 C2 C3 C4 -175.17(16) . . . .
C1 C2 C3 N2 -178.61(15) . . . .
C6 C2 C3 N2 4.4(3) . . . .
C2 C3 C4 C5 -1.7(2) . . . .
N2 C3 C4 C5 178.72(14) . . . .
O1 N1 C5 C4 -178.53(15) . . . .
C1 N1 C5 C4 1.5(2) . . . .
C3 C4 C5 N1 0.0(2) . . . .
C4 C3 N2 O2 -164.96(16) . . . .
C2 C3 N2 O2 15.5(2) . . . .
C4 C3 N2 O3 14.0(2) . . . .
C2 C3 N2 O3 -165.54(16) . . . .
