#------------------------------------------------------------------------------
#$Date: 2019-09-12 11:08:04 +0300 (Thu, 12 Sep 2019) $
#$Revision: 218221 $
#$URL: file:///home/coder/svn-repositories/cod/cif/7/23/38/7233802.cif $
#------------------------------------------------------------------------------
#
# This file is available in the Crystallography Open Database (COD),
# http://www.crystallography.net/
#
# All data on this site have been placed in the public domain by the
# contributors.
#
data_7233802
loop_
_publ_author_name
'Weizhao Cai'
'Jiangang He'
'Wei Li'
'Andrzej Katrusiak'
_publ_section_title
;
 Anomalous compression of a weakly CH...O bonded nonlinear optical
 molecular crystal
;
_journal_name_full               'Journal of Materials Chemistry C'
_journal_page_first              6471
_journal_page_last               6476
_journal_paper_doi               10.1039/C4TC00654B
_journal_volume                  2
_journal_year                    2014
_chemical_formula_moiety         'C6 H6 N2 O3'
_chemical_formula_sum            'C6 H6 N2 O3'
_chemical_formula_weight         154.13
_chemical_name_common            3-methyl-4-nitropyridine-N-oxide
_space_group_IT_number           19
_space_group_name_Hall           'P 2ac 2ab'
_space_group_name_H-M_alt        'P 21 21 21'
_symmetry_cell_setting           orthorhombic
_symmetry_space_group_name_Hall  'P 2ac 2ab'
_symmetry_space_group_name_H-M   'P 21 21 21'
_atom_sites_solution_hydrogens   geom
_atom_sites_solution_primary     direct
_atom_sites_solution_secondary   difmap
_cell_angle_alpha                90.00
_cell_angle_beta                 90.00
_cell_angle_gamma                90.00
_cell_formula_units_Z            4
_cell_length_a                   21.0588(8)
_cell_length_b                   6.1144(2)
_cell_length_c                   5.1343(2)
_cell_measurement_temperature    165(2)
_cell_volume                     661.10(4)
_computing_structure_refinement  'SHELXL-97 (Sheldrick, 1997)'
_computing_structure_solution    'SHELXS-97 (Sheldrick, 1990)'
_diffrn_ambient_temperature      165(2)
_diffrn_measured_fraction_theta_full 0.894
_diffrn_measured_fraction_theta_max 0.894
_diffrn_measurement_device_type  'Oxford Diffraction Xcalibur Eos'
_diffrn_measurement_method       'phi and omega scans'
_diffrn_radiation_monochromator  graphite
_diffrn_radiation_source         'fine-focus sealed tube'
_diffrn_radiation_type           MoK\a
_diffrn_radiation_wavelength     0.71073
_diffrn_reflns_av_R_equivalents  0.0122
_diffrn_reflns_av_sigmaI/netI    0.0166
_diffrn_reflns_limit_h_max       21
_diffrn_reflns_limit_h_min       -26
_diffrn_reflns_limit_k_max       7
_diffrn_reflns_limit_k_min       -8
_diffrn_reflns_limit_l_max       6
_diffrn_reflns_limit_l_min       -3
_diffrn_reflns_number            1857
_diffrn_reflns_theta_full        28.86
_diffrn_reflns_theta_max         28.86
_diffrn_reflns_theta_min         3.47
_exptl_absorpt_coefficient_mu    0.127
_exptl_absorpt_correction_T_max  0.9751
_exptl_absorpt_correction_T_min  0.9630
_exptl_absorpt_correction_type   multi-scan
_exptl_absorpt_process_details   '(CrysAlis Pro; Oxford Diffraction, 2010)'
_exptl_crystal_colour            'light yellow'
_exptl_crystal_density_diffrn    1.549
_exptl_crystal_density_method    'not measured'
_exptl_crystal_description       block
_exptl_crystal_F_000             320
_exptl_crystal_size_max          0.30
_exptl_crystal_size_mid          0.30
_exptl_crystal_size_min          0.20
_refine_diff_density_max         0.184
_refine_diff_density_min         -0.143
_refine_diff_density_rms         0.035
_refine_ls_abs_structure_details 'Flack H D (1983), Acta Cryst. A39, 876-881'
_refine_ls_abs_structure_Flack   0.0(4)
_refine_ls_extinction_coef       0.027(6)
_refine_ls_extinction_expression Fc^*^=kFc[1+0.001xFc^2^\l^3^/sin(2\q)]^-1/4^
_refine_ls_extinction_method     SHELXL
_refine_ls_goodness_of_fit_ref   1.118
_refine_ls_hydrogen_treatment    constr
_refine_ls_matrix_type           full
_refine_ls_number_parameters     102
_refine_ls_number_reflns         935
_refine_ls_number_restraints     0
_refine_ls_restrained_S_all      1.118
_refine_ls_R_factor_all          0.0313
_refine_ls_R_factor_gt           0.0281
_refine_ls_shift/su_max          0.000
_refine_ls_shift/su_mean         0.000
_refine_ls_structure_factor_coef Fsqd
_refine_ls_weighting_details
'calc w=1/[\s^2^(Fo^2^)+(0.0393P)^2^+0.1072P] where P=(Fo^2^+2Fc^2^)/3'
_refine_ls_weighting_scheme      calc
_refine_ls_wR_factor_gt          0.0748
_refine_ls_wR_factor_ref         0.0775
_reflns_number_gt                870
_reflns_number_total             935
_reflns_threshold_expression     >2sigma(I)
_cod_data_source_file            1000015.cif
_cod_data_source_block           PCOD1000015
_cod_depositor_comments
;
The following automatic conversions were performed:

data item '_symmetry_cell_setting' value 'Orthorhombic' was changed
to 'orthorhombic' in accordance with the built-in table derived from
the CIF Core dictionary named 'cif_core.dic' version 2.4.5 last
updated on 2014-11-21.

Automatic conversion script
Id: cif_fix_values 6909 2019-04-08 15:41:33Z antanas 
;
_cod_original_sg_symbol_Hall     'P 2ac 2ab '
_cod_original_sg_symbol_H-M      ' P 21 21 21'
_cod_database_code               7233802
loop_
_symmetry_equiv_pos_as_xyz
'x, y, z'
'-x+1/2, -y, z+1/2'
'-x, y+1/2, -z+1/2'
'x+1/2, -y+1/2, -z'
loop_
_atom_site_label
_atom_site_type_symbol
_atom_site_fract_x
_atom_site_fract_y
_atom_site_fract_z
_atom_site_U_iso_or_equiv
_atom_site_adp_type
_atom_site_occupancy
_atom_site_symmetry_multiplicity
_atom_site_calc_flag
_atom_site_refinement_flags
_atom_site_disorder_assembly
_atom_site_disorder_group
N1 N 0.15347(6) 0.0509(2) 0.4992(3) 0.0239(3) Uani 1 1 d . . .
C1 C 0.17902(7) 0.1799(3) 0.3104(3) 0.0233(4) Uani 1 1 d . . .
H1 H 0.2159 0.1331 0.2275 0.028 Uiso 1 1 calc R . .
C2 C 0.15255(7) 0.3784(3) 0.2359(3) 0.0209(3) Uani 1 1 d . . .
C3 C 0.09676(7) 0.4384(3) 0.3660(3) 0.0203(3) Uani 1 1 d . . .
C4 C 0.07134(7) 0.3096(3) 0.5630(3) 0.0229(3) Uani 1 1 d . . .
H2 H 0.0349 0.3545 0.6504 0.028 Uiso 1 1 calc R . .
C5 C 0.10018(8) 0.1155(3) 0.6282(3) 0.0251(4) Uani 1 1 d . . .
H3 H 0.0834 0.0287 0.7600 0.030 Uiso 1 1 calc R . .
O1 O 0.18003(6) -0.1348(2) 0.5568(3) 0.0346(3) Uani 1 1 d . . .
C6 C 0.18749(8) 0.5094(3) 0.0356(3) 0.0267(4) Uani 1 1 d . . .
H4 H 0.2242 0.4296 -0.0216 0.040 Uiso 1 1 calc R . .
H5 H 0.2006 0.6461 0.1102 0.040 Uiso 1 1 calc R . .
H6 H 0.1601 0.5367 -0.1103 0.040 Uiso 1 1 calc R . .
N2 N 0.06265(6) 0.6402(2) 0.3041(3) 0.0253(3) Uani 1 1 d . . .
O2 O 0.07529(6) 0.7343(2) 0.0999(3) 0.0412(4) Uani 1 1 d . . .
O3 O 0.02227(6) 0.7053(2) 0.4572(3) 0.0344(3) Uani 1 1 d . . .
loop_
_atom_site_aniso_label
_atom_site_aniso_U_11
_atom_site_aniso_U_22
_atom_site_aniso_U_33
_atom_site_aniso_U_23
_atom_site_aniso_U_13
_atom_site_aniso_U_12
N1 0.0240(6) 0.0190(6) 0.0287(7) 0.0036(6) -0.0061(6) -0.0003(5)
C1 0.0205(7) 0.0239(8) 0.0254(8) 0.0007(7) -0.0006(6) -0.0004(6)
C2 0.0206(7) 0.0225(7) 0.0196(7) 0.0009(7) -0.0027(6) -0.0035(6)
C3 0.0205(7) 0.0193(7) 0.0211(7) 0.0009(7) -0.0039(6) -0.0003(6)
C4 0.0201(7) 0.0251(7) 0.0237(7) -0.0007(7) 0.0010(7) -0.0025(6)
C5 0.0250(8) 0.0252(8) 0.0251(8) 0.0052(7) -0.0009(7) -0.0058(7)
O1 0.0350(6) 0.0229(6) 0.0458(8) 0.0102(6) -0.0050(6) 0.0064(5)
C6 0.0258(7) 0.0298(8) 0.0246(8) 0.0056(8) 0.0030(7) -0.0016(7)
N2 0.0233(6) 0.0226(6) 0.0300(7) 0.0027(6) -0.0035(6) 0.0014(6)
O2 0.0375(7) 0.0428(8) 0.0434(8) 0.0239(7) 0.0037(7) 0.0108(6)
O3 0.0331(6) 0.0316(6) 0.0385(7) -0.0033(7) 0.0035(6) 0.0101(5)
loop_
_atom_type_symbol
_atom_type_description
_atom_type_scat_dispersion_real
_atom_type_scat_dispersion_imag
_atom_type_scat_source
C C 0.0033 0.0016 'International Tables Vol C Tables 4.2.6.8 and 6.1.1.4'
H H 0.0000 0.0000 'International Tables Vol C Tables 4.2.6.8 and 6.1.1.4'
N N 0.0061 0.0033 'International Tables Vol C Tables 4.2.6.8 and 6.1.1.4'
O O 0.0106 0.0060 'International Tables Vol C Tables 4.2.6.8 and 6.1.1.4'
loop_
_geom_angle_atom_site_label_1
_geom_angle_atom_site_label_2
_geom_angle_atom_site_label_3
_geom_angle
_geom_angle_site_symmetry_1
_geom_angle_site_symmetry_3
O1 N1 C1 119.90(14) . .
O1 N1 C5 119.82(14) . .
C1 N1 C5 120.29(13) . .
N1 C1 C2 122.96(15) . .
C1 C2 C3 115.71(14) . .
C1 C2 C6 117.37(14) . .
C3 C2 C6 126.87(15) . .
C4 C3 C2 121.48(14) . .
C4 C3 N2 116.58(14) . .
C2 C3 N2 121.94(14) . .
C5 C4 C3 119.79(15) . .
N1 C5 C4 119.73(15) . .
O2 N2 O3 123.22(15) . .
O2 N2 C3 118.38(14) . .
O3 N2 C3 118.39(14) . .
loop_
_geom_bond_atom_site_label_1
_geom_bond_atom_site_label_2
_geom_bond_distance
_geom_bond_site_symmetry_2
N1 O1 1.2998(17) .
N1 C1 1.360(2) .
N1 C5 1.362(2) .
C1 C2 1.389(2) .
C2 C3 1.401(2) .
C2 C6 1.497(2) .
C3 C4 1.389(2) .
C3 N2 1.463(2) .
C4 C5 1.374(2) .
N2 O2 1.2250(19) .
N2 O3 1.2243(18) .
loop_
_geom_torsion_atom_site_label_1
_geom_torsion_atom_site_label_2
_geom_torsion_atom_site_label_3
_geom_torsion_atom_site_label_4
_geom_torsion
_geom_torsion_site_symmetry_1
_geom_torsion_site_symmetry_2
_geom_torsion_site_symmetry_3
_geom_torsion_site_symmetry_4
O1 N1 C1 C2 178.89(14) . . . .
C5 N1 C1 C2 -1.1(2) . . . .
N1 C1 C2 C3 -0.7(2) . . . .
N1 C1 C2 C6 176.79(14) . . . .
C1 C2 C3 C4 2.2(2) . . . .
C6 C2 C3 C4 -175.03(15) . . . .
C1 C2 C3 N2 -178.50(14) . . . .
C6 C2 C3 N2 4.3(2) . . . .
C2 C3 C4 C5 -1.9(2) . . . .
N2 C3 C4 C5 178.76(13) . . . .
O1 N1 C5 C4 -178.53(14) . . . .
C1 N1 C5 C4 1.5(2) . . . .
C3 C4 C5 N1 0.0(2) . . . .
C4 C3 N2 O2 -165.06(15) . . . .
C2 C3 N2 O2 15.6(2) . . . .
C4 C3 N2 O3 14.0(2) . . . .
C2 C3 N2 O3 -165.42(15) . . . .
