#------------------------------------------------------------------------------
#$Date: 2019-11-07 22:09:07 +0200 (Thu, 07 Nov 2019) $
#$Revision: 223714 $
#$URL: file:///home/coder/svn-repositories/cod/cif/7/23/32/7233265.cif $
#------------------------------------------------------------------------------
#
# This file is available in the Crystallography Open Database (COD),
# http://www.crystallography.net/
#
# All data on this site have been placed in the public domain by the
# contributors.
#
data_7233265
loop_
_publ_author_name
'Shikhaliyev, Namiq Q.'
'Kuznetsov, Maxim L.'
'Maharramov, Abel M.'
'Gurbanov, Atash V.'
'Ahmadova, Nigar E.'
'Nenajdenko, Valentine G.'
'Mahmudov, Kamran T.'
'Pombeiro, Armando J. L.'
_publ_section_title
;
 Noncovalent interactions in the design of bis-azo dyes
;
_journal_issue                   34
_journal_name_full               CrystEngComm
_journal_page_first              5032
_journal_paper_doi               10.1039/C9CE00956F
_journal_volume                  21
_journal_year                    2019
_chemical_formula_moiety         'C24 H14 Cl4 F4 N4 O2'
_chemical_formula_sum            'C24 H14 Cl4 F4 N4 O2'
_chemical_formula_weight         608.19
_space_group_crystal_system      triclinic
_space_group_IT_number           2
_space_group_name_Hall           '-P 1'
_space_group_name_H-M_alt        'P -1'
_symmetry_space_group_name_Hall  '-P 1'
_symmetry_space_group_name_H-M   'P -1'
_atom_sites_solution_hydrogens   geom
_atom_sites_solution_primary     direct
_atom_sites_solution_secondary   difmap
_audit_creation_method           SHELXL-2016/6
_audit_update_record
;
2019-06-19 deposited with the CCDC.    2019-07-25 downloaded from the CCDC.
;
_cell_angle_alpha                76.471(5)
_cell_angle_beta                 81.089(5)
_cell_angle_gamma                64.077(5)
_cell_formula_units_Z            1
_cell_length_a                   6.9129(9)
_cell_length_b                   7.2480(9)
_cell_length_c                   14.7369(19)
_cell_measurement_reflns_used    2876
_cell_measurement_temperature    150(2)
_cell_measurement_theta_max      26.57
_cell_measurement_theta_min      2.85
_cell_volume                     644.49(15)
_computing_cell_refinement       'Bruker SAINT'
_computing_data_collection       'Bruker APEX3'
_computing_data_reduction        'Bruker SAINT'
_computing_molecular_graphics    'Bruker SHELXTL'
_computing_publication_material  'Bruker SHELXTL'
_computing_structure_refinement  'SHELXL-2016/6 (Sheldrick, 2016)'
_computing_structure_solution    'SHELXT 2014/5 (Sheldrick, 2014)'
_diffrn_ambient_temperature      150(2)
_diffrn_measured_fraction_theta_full 1.000
_diffrn_measured_fraction_theta_max 0.999
_diffrn_measurement_device_type  'Bruker APEX-II CCD'
_diffrn_measurement_method       '\f and \w scans'
_diffrn_radiation_type           MoK\a
_diffrn_radiation_wavelength     0.71073
_diffrn_reflns_av_R_equivalents  0.0452
_diffrn_reflns_av_unetI/netI     0.0516
_diffrn_reflns_Laue_measured_fraction_full 1.000
_diffrn_reflns_Laue_measured_fraction_max 0.999
_diffrn_reflns_limit_h_max       6
_diffrn_reflns_limit_h_min       -8
_diffrn_reflns_limit_k_max       8
_diffrn_reflns_limit_k_min       -9
_diffrn_reflns_limit_l_max       18
_diffrn_reflns_limit_l_min       -19
_diffrn_reflns_number            11670
_diffrn_reflns_point_group_measured_fraction_full 1.000
_diffrn_reflns_point_group_measured_fraction_max 0.999
_diffrn_reflns_theta_full        25.242
_diffrn_reflns_theta_max         27.364
_diffrn_reflns_theta_min         1.424
_exptl_absorpt_coefficient_mu    0.519
_exptl_absorpt_correction_T_max  0.934
_exptl_absorpt_correction_T_min  0.901
_exptl_absorpt_correction_type   multi-scan
_exptl_absorpt_process_details   'SADABS (Bruker, 2003)'
_exptl_crystal_colour            orange
_exptl_crystal_density_diffrn    1.567
_exptl_crystal_description       prisme
_exptl_crystal_F_000             306
_exptl_crystal_size_max          0.190
_exptl_crystal_size_mid          0.150
_exptl_crystal_size_min          0.110
_refine_diff_density_max         0.507
_refine_diff_density_min         -0.305
_refine_diff_density_rms         0.073
_refine_ls_extinction_method     none
_refine_ls_goodness_of_fit_ref   1.007
_refine_ls_hydrogen_treatment    constr
_refine_ls_matrix_type           full
_refine_ls_number_parameters     173
_refine_ls_number_reflns         2908
_refine_ls_number_restraints     0
_refine_ls_restrained_S_all      1.007
_refine_ls_R_factor_all          0.0703
_refine_ls_R_factor_gt           0.0418
_refine_ls_shift/su_max          0.000
_refine_ls_shift/su_mean         0.000
_refine_ls_structure_factor_coef Fsqd
_refine_ls_weighting_details
'w=1/[\s^2^(Fo^2^)+(0.0556P)^2^+0.2695P] where P=(Fo^2^+2Fc^2^)/3'
_refine_ls_weighting_scheme      calc
_refine_ls_wR_factor_gt          0.0966
_refine_ls_wR_factor_ref         0.1113
_reflns_Friedel_coverage         0.000
_reflns_number_gt                2088
_reflns_number_total             2908
_reflns_threshold_expression     'I > 2\s(I)'
_cod_data_source_file            c9ce00956f2.cif
_cod_data_source_block           N6
_cod_depositor_comments
'Adding full bibliography for 7233265--7233268.cif.'
_cod_original_cell_volume        644.50(15)
_cod_database_code               7233265
_shelx_shelxl_version_number     2016/6
_shelx_space_group_comment
;
The symmetry employed for this shelxl refinement is uniquely defined
by the following loop, which should always be used as a source of
symmetry information in preference to the above space-group names.
They are only intended as comments.
;
_shelx_estimated_absorpt_t_min   0.908
_shelx_estimated_absorpt_t_max   0.945
_shelx_res_file
;
TITL N6_a.res in P-1
    N6.res
    created by SHELXL-2016/6 at 21:34:00 on 02-Oct-2018
CELL  0.71073   6.9129   7.2480  14.7369   76.471   81.089   64.077
ZERR     1.00   0.0009   0.0009   0.0019    0.005    0.005    0.005
LATT   1
SFAC  C    H    N    O    F    CL
UNIT  24   14    4    2    4    4
TEMP  -123.15
SIZE     0.110   0.150   0.190

FMAP   2
PLAN   20
L.S.  24
BOND   $H
CONF
ACTA

WGHT    0.055600    0.269500
FVAR       0.70899
CL1   6    0.746445   -0.178508    0.149133    11.00000    0.02793    0.02557 =
         0.01861   -0.01093    0.00344   -0.00847
CL2   6    0.786910   -0.421859    0.335148    11.00000    0.03476    0.01885 =
         0.02749   -0.00316   -0.00226   -0.00628
F1    5    0.913499   -0.128450    0.430161    11.00000    0.01911    0.04731 =
         0.02337   -0.01306    0.00553   -0.01035
F2    5    0.173159    0.120031    0.388578    11.00000    0.02188    0.04087 =
         0.02060   -0.00891   -0.00243   -0.00914
O1    4    0.105155    1.136360    0.064233    11.00000    0.03716    0.01883 =
         0.02380   -0.00502    0.00234   -0.00500
N1    3    0.521481    0.187602    0.237785    11.00000    0.02258    0.02032 =
         0.01747   -0.00523    0.00136   -0.00754
N2    3    0.431714    0.342730    0.278672    11.00000    0.02080    0.01909 =
         0.02008   -0.00699    0.00175   -0.00587
C1    1    0.546735   -0.007071    0.403482    11.00000    0.02323    0.01785 =
         0.01569   -0.00367    0.00109   -0.00780
C2    1    0.707025   -0.065225    0.463487    11.00000    0.01847    0.02170 =
         0.02071   -0.00637    0.00422   -0.00662
C3    1    0.338125    0.059200    0.442949    11.00000    0.02122    0.02061 =
         0.01967   -0.00296   -0.00407   -0.00735
C4    1    0.591153   -0.003549    0.301245    11.00000    0.01826    0.01929 =
         0.01641   -0.00291    0.00028   -0.00643
C5    1    0.694704   -0.178694    0.265949    11.00000    0.02017    0.02175 =
         0.01791   -0.00453    0.00117   -0.00824
C6    1    0.356436    0.538810    0.219218    11.00000    0.02073    0.02060 =
         0.01789   -0.00453    0.00068   -0.00726
C7    1    0.258737    0.706879    0.265288    11.00000    0.02212    0.02569 =
         0.01572   -0.00697    0.00090   -0.00802
AFIX  43
H7    2    0.250355    0.682132    0.331690    11.00000   -1.20000
AFIX   0
C8    1    0.173482    0.909616    0.216079    11.00000    0.02134    0.02143 =
         0.02507   -0.01265    0.00179   -0.00627
AFIX  43
H8    2    0.106310    1.023669    0.248205    11.00000   -1.20000
AFIX   0
C9    1    0.187296    0.944335    0.119188    11.00000    0.02157    0.01971 =
         0.02132   -0.00417   -0.00087   -0.00869
C10   1    0.287958    0.775610    0.072035    11.00000    0.02834    0.02393 =
         0.01620   -0.00651    0.00306   -0.00925
AFIX  43
H10   2    0.299254    0.800255    0.005627    11.00000   -1.20000
AFIX   0
C11   1    0.370003    0.575306    0.121652    11.00000    0.02250    0.02148 =
         0.01978   -0.00813    0.00090   -0.00611
AFIX  43
H11   2    0.436228    0.461071    0.089619    11.00000   -1.20000
AFIX   0
C12   1   -0.018270    1.310159    0.110192    11.00000    0.04364    0.01718 =
         0.03437   -0.00717    0.00616   -0.00433
AFIX 137
H12A  2   -0.081471    1.437189    0.063292    11.00000   -1.50000
H12B  2    0.075786    1.327671    0.147683    11.00000   -1.50000
H12C  2   -0.133524    1.284460    0.151027    11.00000   -1.50000

AFIX   0
HKLF    4




REM  N6_a.res in P-1
REM R1 =  0.0418 for    2088 Fo > 4sig(Fo)  and  0.0703 for all    2908 data
REM    173 parameters refined using      0 restraints

END

WGHT      0.0554      0.2728

REM Highest difference peak  0.507,  deepest hole -0.305,  1-sigma level  0.073
Q1    1   0.6275 -0.4232  0.3337  11.00000  0.05    0.51
Q2    1   0.5755 -0.1783  0.1494  11.00000  0.05    0.49
Q3    1   0.9098 -0.1769  0.1537  11.00000  0.05    0.43
Q4    1   0.2465  0.5809  0.3328  11.00000  0.05    0.42
Q5    1   0.9491 -0.4200  0.3378  11.00000  0.05    0.41
Q6    1   0.5359 -0.4227  0.3365  11.00000  0.05    0.40
Q7    1   1.0220 -0.4198  0.3347  11.00000  0.05    0.37
Q8    1   0.3866  0.5783  0.3382  11.00000  0.05    0.34
Q9    1   0.3520  0.5610  0.1726  11.00000  0.05    0.31
Q10   1   0.4170 -0.0689  0.4591  11.00000  0.05    0.30
Q11   1   0.4485  0.0783  0.4194  11.00000  0.05    0.29
Q12   1   0.6096  0.0245  0.4324  11.00000  0.05    0.29
Q13   1   0.1158  0.8264  0.1474  11.00000  0.05    0.28
Q14   1   0.6853  0.3506  0.2720  11.00000  0.05    0.28
Q15   1   0.2076 -0.0569  0.4292  11.00000  0.05    0.28
Q16   1   0.8462  0.0197  0.4187  11.00000  0.05    0.27
Q17   1   0.7811  0.1385  0.4061  11.00000  0.05    0.27
Q18   1   0.0599  1.2143  0.0871  11.00000  0.05    0.27
Q19   1   0.6091 -0.0993  0.2923  11.00000  0.05    0.26
Q20   1   0.4274  0.4201  0.1164  11.00000  0.05    0.24
;
_shelx_res_checksum              32075
loop_
_space_group_symop_operation_xyz
'x, y, z'
'-x, -y, -z'
loop_
_atom_site_label
_atom_site_type_symbol
_atom_site_fract_x
_atom_site_fract_y
_atom_site_fract_z
_atom_site_U_iso_or_equiv
_atom_site_adp_type
_atom_site_occupancy
_atom_site_site_symmetry_order
_atom_site_calc_flag
_atom_site_refinement_flags_posn
_atom_site_refinement_flags_adp
Cl1 Cl 0.74645(10) -0.17851(9) 0.14913(4) 0.02436(17) Uani 1 1 d . .
Cl2 Cl 0.78691(11) -0.42186(9) 0.33515(4) 0.02900(18) Uani 1 1 d . .
F1 F 0.9135(2) -0.1284(2) 0.43016(10) 0.0309(4) Uani 1 1 d . .
F2 F 0.1732(2) 0.1200(2) 0.38858(10) 0.0285(4) Uani 1 1 d . .
O1 O 0.1052(3) 1.1364(3) 0.06423(12) 0.0294(4) Uani 1 1 d . .
N1 N 0.5215(3) 0.1876(3) 0.23779(13) 0.0206(4) Uani 1 1 d . .
N2 N 0.4317(3) 0.3427(3) 0.27867(14) 0.0206(4) Uani 1 1 d . .
C1 C 0.5467(4) -0.0071(4) 0.40348(16) 0.0194(5) Uani 1 1 d . .
C2 C 0.7070(4) -0.0652(4) 0.46349(17) 0.0211(5) Uani 1 1 d . .
C3 C 0.3381(4) 0.0592(4) 0.44295(16) 0.0208(5) Uani 1 1 d . .
C4 C 0.5912(4) -0.0035(4) 0.30124(16) 0.0187(5) Uani 1 1 d . .
C5 C 0.6947(4) -0.1787(4) 0.26595(16) 0.0203(5) Uani 1 1 d . .
C6 C 0.3564(4) 0.5388(4) 0.21922(16) 0.0203(5) Uani 1 1 d . .
C7 C 0.2587(4) 0.7069(4) 0.26529(17) 0.0216(5) Uani 1 1 d . .
H7 H 0.250355 0.682132 0.331690 0.026 Uiso 1 1 calc R U
C8 C 0.1735(4) 0.9096(4) 0.21608(17) 0.0225(5) Uani 1 1 d . .
H8 H 0.106310 1.023669 0.248205 0.027 Uiso 1 1 calc R U
C9 C 0.1873(4) 0.9443(4) 0.11919(17) 0.0208(5) Uani 1 1 d . .
C10 C 0.2880(4) 0.7756(4) 0.07203(17) 0.0234(6) Uani 1 1 d . .
H10 H 0.299254 0.800255 0.005627 0.028 Uiso 1 1 calc R U
C11 C 0.3700(4) 0.5753(4) 0.12165(16) 0.0219(5) Uani 1 1 d . .
H11 H 0.436228 0.461071 0.089619 0.026 Uiso 1 1 calc R U
C12 C -0.0183(5) 1.3102(4) 0.1102(2) 0.0354(7) Uani 1 1 d . .
H12A H -0.081471 1.437189 0.063292 0.053 Uiso 1 1 calc R U
H12B H 0.075786 1.327671 0.147683 0.053 Uiso 1 1 calc R U
H12C H -0.133524 1.284460 0.151027 0.053 Uiso 1 1 calc R U
loop_
_atom_site_aniso_label
_atom_site_aniso_U_11
_atom_site_aniso_U_22
_atom_site_aniso_U_33
_atom_site_aniso_U_23
_atom_site_aniso_U_13
_atom_site_aniso_U_12
Cl1 0.0279(3) 0.0256(3) 0.0186(3) -0.0109(2) 0.0034(2) -0.0085(3)
Cl2 0.0348(4) 0.0188(3) 0.0275(3) -0.0032(2) -0.0023(3) -0.0063(3)
F1 0.0191(8) 0.0473(9) 0.0234(8) -0.0131(7) 0.0055(6) -0.0104(7)
F2 0.0219(8) 0.0409(9) 0.0206(7) -0.0089(6) -0.0024(6) -0.0091(7)
O1 0.0372(11) 0.0188(9) 0.0238(10) -0.0050(7) 0.0023(8) -0.0050(8)
N1 0.0226(11) 0.0203(10) 0.0175(10) -0.0052(8) 0.0014(8) -0.0075(9)
N2 0.0208(11) 0.0191(10) 0.0201(10) -0.0070(8) 0.0018(8) -0.0059(9)
C1 0.0232(13) 0.0179(11) 0.0157(11) -0.0037(9) 0.0011(10) -0.0078(10)
C2 0.0185(13) 0.0217(12) 0.0207(12) -0.0064(10) 0.0042(10) -0.0066(10)
C3 0.0212(13) 0.0206(12) 0.0197(12) -0.0030(10) -0.0041(10) -0.0073(10)
C4 0.0183(12) 0.0193(12) 0.0164(11) -0.0029(9) 0.0003(9) -0.0064(10)
C5 0.0202(13) 0.0218(12) 0.0179(12) -0.0045(10) 0.0012(10) -0.0082(10)
C6 0.0207(13) 0.0206(12) 0.0179(12) -0.0045(9) 0.0007(9) -0.0073(10)
C7 0.0221(13) 0.0257(13) 0.0157(12) -0.0070(10) 0.0009(10) -0.0080(11)
C8 0.0213(13) 0.0214(12) 0.0251(13) -0.0126(10) 0.0018(10) -0.0063(10)
C9 0.0216(13) 0.0197(12) 0.0213(12) -0.0042(10) -0.0009(10) -0.0087(10)
C10 0.0283(14) 0.0239(13) 0.0162(12) -0.0065(10) 0.0031(10) -0.0093(11)
C11 0.0225(13) 0.0215(12) 0.0198(12) -0.0081(10) 0.0009(10) -0.0061(11)
C12 0.0436(18) 0.0172(13) 0.0344(16) -0.0072(11) 0.0062(13) -0.0043(12)
loop_
_atom_type_symbol
_atom_type_description
_atom_type_scat_dispersion_real
_atom_type_scat_dispersion_imag
_atom_type_scat_source
C C 0.0033 0.0016 'International Tables Vol C Tables 4.2.6.8 and 6.1.1.4'
H H 0.0000 0.0000 'International Tables Vol C Tables 4.2.6.8 and 6.1.1.4'
N N 0.0061 0.0033 'International Tables Vol C Tables 4.2.6.8 and 6.1.1.4'
O O 0.0106 0.0060 'International Tables Vol C Tables 4.2.6.8 and 6.1.1.4'
F F 0.0171 0.0103 'International Tables Vol C Tables 4.2.6.8 and 6.1.1.4'
Cl Cl 0.1484 0.1585 'International Tables Vol C Tables 4.2.6.8 and 6.1.1.4'
loop_
_geom_angle_atom_site_label_1
_geom_angle_atom_site_label_2
_geom_angle_atom_site_label_3
_geom_angle
_geom_angle_site_symmetry_1
_geom_angle_site_symmetry_3
C9 O1 C12 117.14(19) . .
N2 N1 C4 112.28(19) . .
N1 N2 C6 115.21(19) . .
C2 C1 C3 116.2(2) . .
C2 C1 C4 122.7(2) . .
C3 C1 C4 121.0(2) . .
F1 C2 C3 118.4(2) . 2_656
F1 C2 C1 119.7(2) . .
C3 C2 C1 121.9(2) 2_656 .
F2 C3 C2 118.5(2) . 2_656
F2 C3 C1 119.5(2) . .
C2 C3 C1 122.0(2) 2_656 .
C5 C4 N1 117.6(2) . .
C5 C4 C1 122.2(2) . .
N1 C4 C1 120.2(2) . .
C4 C5 Cl1 123.03(19) . .
C4 C5 Cl2 122.48(18) . .
Cl1 C5 Cl2 114.49(14) . .
C7 C6 C11 119.5(2) . .
C7 C6 N2 114.4(2) . .
C11 C6 N2 126.2(2) . .
C8 C7 C6 121.0(2) . .
C8 C7 H7 119.5 . .
C6 C7 H7 119.5 . .
C7 C8 C9 119.1(2) . .
C7 C8 H8 120.5 . .
C9 C8 H8 120.5 . .
O1 C9 C8 123.9(2) . .
O1 C9 C10 115.8(2) . .
C8 C9 C10 120.3(2) . .
C11 C10 C9 120.0(2) . .
C11 C10 H10 120.0 . .
C9 C10 H10 120.0 . .
C10 C11 C6 120.1(2) . .
C10 C11 H11 120.0 . .
C6 C11 H11 120.0 . .
O1 C12 H12A 109.5 . .
O1 C12 H12B 109.5 . .
H12A C12 H12B 109.5 . .
O1 C12 H12C 109.5 . .
H12A C12 H12C 109.5 . .
H12B C12 H12C 109.5 . .
loop_
_geom_bond_atom_site_label_1
_geom_bond_atom_site_label_2
_geom_bond_distance
_geom_bond_site_symmetry_2
Cl1 C5 1.703(2) .
Cl2 C5 1.712(2) .
F1 C2 1.343(3) .
F2 C3 1.347(3) .
O1 C9 1.356(3) .
O1 C12 1.433(3) .
N1 N2 1.266(3) .
N1 C4 1.406(3) .
N2 C6 1.404(3) .
C1 C2 1.381(3) .
C1 C3 1.383(3) .
C1 C4 1.487(3) .
C2 C3 1.372(3) 2_656
C4 C5 1.339(3) .
C6 C7 1.388(3) .
C6 C11 1.396(3) .
C7 C8 1.382(3) .
C7 H7 0.9500 .
C8 C9 1.386(3) .
C8 H8 0.9500 .
C9 C10 1.402(3) .
C10 C11 1.370(3) .
C10 H10 0.9500 .
C11 H11 0.9500 .
C12 H12A 0.9800 .
C12 H12B 0.9800 .
C12 H12C 0.9800 .
loop_
_geom_torsion_atom_site_label_1
_geom_torsion_atom_site_label_2
_geom_torsion_atom_site_label_3
_geom_torsion_atom_site_label_4
_geom_torsion
_geom_torsion_site_symmetry_4
C4 N1 N2 C6 -179.44(19) .
C3 C1 C2 F1 -179.0(2) .
C4 C1 C2 F1 -2.3(4) .
C3 C1 C2 C3 0.5(4) 2_656
C4 C1 C2 C3 177.2(2) 2_656
C2 C1 C3 F2 179.5(2) .
C4 C1 C3 F2 2.7(3) .
C2 C1 C3 C2 -0.5(4) 2_656
C4 C1 C3 C2 -177.3(2) 2_656
N2 N1 C4 C5 -178.0(2) .
N2 N1 C4 C1 2.9(3) .
C2 C1 C4 C5 69.9(3) .
C3 C1 C4 C5 -113.5(3) .
C2 C1 C4 N1 -110.9(3) .
C3 C1 C4 N1 65.6(3) .
N1 C4 C5 Cl1 0.6(3) .
C1 C4 C5 Cl1 179.74(18) .
N1 C4 C5 Cl2 -179.64(17) .
C1 C4 C5 Cl2 -0.5(4) .
N1 N2 C6 C7 -179.9(2) .
N1 N2 C6 C11 0.8(4) .
C11 C6 C7 C8 0.4(4) .
N2 C6 C7 C8 -178.9(2) .
C6 C7 C8 C9 -0.3(4) .
C12 O1 C9 C8 -5.4(4) .
C12 O1 C9 C10 173.6(2) .
C7 C8 C9 O1 178.6(2) .
C7 C8 C9 C10 -0.5(4) .
O1 C9 C10 C11 -178.0(2) .
C8 C9 C10 C11 1.1(4) .
C9 C10 C11 C6 -0.9(4) .
C7 C6 C11 C10 0.2(4) .
N2 C6 C11 C10 179.5(2) .
