#------------------------------------------------------------------------------
#$Date: 2019-08-22 03:58:35 +0300 (Thu, 22 Aug 2019) $
#$Revision: 217643 $
#$URL: file:///home/coder/svn-repositories/cod/cif/7/23/34/7233412.cif $
#------------------------------------------------------------------------------
#
# This file is available in the Crystallography Open Database (COD),
# http://www.crystallography.net/
#
# All data on this site have been placed in the public domain by the
# contributors.
#
data_7233412
loop_
_publ_author_name
'Owczarzak, Agata'
'Dutkiewicz, Grzegorz'
'Kubicki, Maciej'
_publ_section_title
;
 Charge density distribution in the crystals of
 N-n-butyltetrachlorophthalimide. Atoms-In-Molecules analysis of different
 types of halogen interactions
;
_journal_name_full               CrystEngComm
_journal_paper_doi               10.1039/C9CE01120J
_journal_year                    2019
_chemical_formula_moiety         'C12 H9 Cl4 N O2'
_chemical_formula_sum            'C12 H9 Cl4 N O2'
_chemical_formula_weight         341.004
_chemical_name_systematic        N-n-butyltetrachlorophthalimide
_space_group_IT_number           2
_space_group_name_Hall           '-P 1'
_space_group_name_H-M_alt        'P -1'
_symmetry_cell_setting           triclinic
_symmetry_space_group_name_Hall  '-P 1'
_symmetry_space_group_name_H-M   'P -1'
_atom_sites_solution_hydrogens   difmap
_atom_sites_solution_primary     direct
_atom_sites_solution_secondary   difmap
_audit_creation_method           'MoPro v16                '
_audit_update_record
;
2019-07-18 deposited with the CCDC.    2019-08-21 downloaded from the CCDC.
;
_cell_angle_alpha                103.6423(8)
_cell_angle_beta                 98.8523(9)
_cell_angle_gamma                101.4977(9)
_cell_formula_units_Z            2
_cell_length_a                   5.19987(6)
_cell_length_b                   11.27107(12)
_cell_length_c                   12.08308(11)
_cell_measurement_reflns_used    47140
_cell_measurement_temperature    100
_cell_measurement_theta_max      57.5870
_cell_measurement_theta_min      3.5270
_cell_volume                     659.199(13)
_computing_cell_refinement       'CrysAlisPro 1.171.39.46 (Rigaku OD, 2018)'
_computing_data_collection       'CrysAlisPro 1.171.39.46 (Rigaku OD, 2018)'
_computing_data_reduction        'CrysAlisPro 1.171.39.46 (Rigaku OD, 2018)'
_computing_molecular_graphics    'Mercury (Macrae et al., 2008)'
_computing_publication_material  'MoPro (J. Appl. Cryst. 2005, 38, 38-54)'
_computing_structure_refinement  'MoPro (J. Appl. Cryst. 2005, 38, 38-54)'
_diffrn_ambient_temperature      100(1)
_diffrn_detector_area_resol_mean 16.1544
_diffrn_measured_fraction_theta_full 0.993
_diffrn_measured_fraction_theta_max 0.993
_diffrn_measurement_device_type  'Xcalibur, Eos'
_diffrn_measurement_method       '\w scans'
_diffrn_radiation_monochromator  graphite
_diffrn_radiation_source         'fine-focus sealed tube'
_diffrn_radiation_type           MoK\a
_diffrn_radiation_wavelength     0.71073
_diffrn_reflns_av_R_equivalents  0.0192
_diffrn_reflns_av_sigmaI/netI    0.0223
_diffrn_reflns_limit_h_max       12
_diffrn_reflns_limit_h_min       -12
_diffrn_reflns_limit_k_max       25
_diffrn_reflns_limit_k_min       -26
_diffrn_reflns_limit_l_max       28
_diffrn_reflns_limit_l_min       0
_diffrn_reflns_number            110748
_diffrn_reflns_theta_full        57.70
_diffrn_reflns_theta_max         57.70
_diffrn_reflns_theta_min         2.95
_exptl_absorpt_coefficient_mu    0.893
_exptl_absorpt_correction_T_max  0.875
_exptl_absorpt_correction_T_min  0.663
_exptl_absorpt_correction_type   analytical
_exptl_absorpt_process_details
;
CrysAlisPro 1.171.39.46 (Rigaku Oxford Diffraction, 2018)
Analytical numeric absorption correction using a multifaceted crystal
model based on expressions derived by R.C. Clark & J.S. Reid.
(Clark, R. C. & Reid, J. S. (1995). Acta Cryst. A51, 887-897)
Empirical absorption correction using spherical harmonics,
 implemented in SCALE3 ABSPACK scaling algorithm.
;
_exptl_crystal_colour            colourless
_exptl_crystal_density_diffrn    1.719
_exptl_crystal_density_method    'not measured'
_exptl_crystal_description       block
_exptl_crystal_F_000             344
_exptl_crystal_size_max          0.568
_exptl_crystal_size_mid          0.318
_exptl_crystal_size_min          0.160
_refine_ls_extinction_coef       0.07166
_refine_ls_extinction_method     'Isotropic Gaussian'
_refine_ls_goodness_of_fit_ref   0.926
_refine_ls_hydrogen_treatment    refall
_refine_ls_matrix_type           full
_refine_ls_number_parameters     627
_refine_ls_number_reflns         16010
_refine_ls_number_restraints     336
_refine_ls_restrained_S_all      0.627
_refine_ls_R_factor_all          0.0131
_refine_ls_R_factor_gt           0.0131
_refine_ls_shift/su_max          0.008
_refine_ls_shift/su_mean         0.000
_refine_ls_structure_factor_coef F
_refine_ls_weighting_scheme      sigma
_refine_ls_wR_factor_gt          0.0160
_refine_ls_wR_factor_ref         0.0160
_reflns_d_resolution_high        0.4204
_reflns_number_gt                16002
_reflns_number_total             16010
_reflns_threshold_expression     >2.0sigma(I)
_iucr_refine_instructions_details
; 
! MoPro v16 30/08/2018 03:19:54 C:\Users\Agata\Desktop\tetra_cl\3_mm_copy\40.pa
#r
! reflections hkl file : C:\Users\Agata\Desktop\tetra_cl\3_mm_copy\sortav.hkl r
#efin. vs. F^1
! atomic table file : C:\Program Files (x86)\MoProSuite\LibMoPro\mopro.tab
! wave functions file : C:\Program Files (x86)\MoProSuite\LibMoPro\WAVEF
! Restraints file : C:\Users\Agata\Desktop\tetra_cl\3_mm_copy\RESTRAIN_3.txt
! RF factor = 1.310 % RI factor = 1.439%
! wR2F factor = 1.600 % wR2I factor = 3.070%
! g.o.f.(F**1) = 0.926 Nvar= 627 Nref= 16010 Nfree= 0 0.07<sinT/l< 1.19

! P00 Dip Qua Oct Hex l=5 l=6
! Cl nl = 4 4 4 6 8 8 8
! Cl zeta= 4.259 4.259 4.259 4.259 4.259 4.259 4.259
! O nl = 2 2 2 3 4 4 4
! O zeta= 4.466 4.466 4.466 4.466 4.466 4.466 4.466
! N nl = 2 2 2 3 4 4 4
! N zeta= 3.839 3.839 3.839 3.839 3.839 3.839 3.839
! C nl = 2 2 2 3 4 4 4
! C zeta= 3.176 3.176 3.176 3.176 3.176 3.176 3.176
! H nl = 1 1 2 2 2 2 2
! H zeta= 2.000 2.000 2.000 2.000 2.000 2.000 2.000

WSIG 1.00000 ! weighting scheme
 ! SPACE GROUP P ?

CELL 5.1999 11.2711 12.0831 103.6420 98.8520 101.4980 0.71073
ZERR 0.0001 0.0001 0.0001 0.0010 0.0010 0.0010

SYMM 1 P CENTRO
 X , Y, Z

SCALE 1 0.523416

FMULT 1.00000

UOVER 0.00000 0.00000 0.00000 0.00000 0.00000 0.00000 ANI

SOLVT 0.00000 50.00000

EXTIN 0.07166 GAUSSIAN ISOT TYP1 ! G*10^4


DUMMY 0

KAPPA 16
 1.009290 1.044592 ! # 1 1 MOL CL7 2X Cl
 1.009232 1.111687 ! # 2 1 MOL CL5 2X Cl
 0.997904 0.972905 ! # 3 1 MOL O9 2X O
 0.993223 0.934835 ! # 4 1 MOL N1 1X N
 0.997886 1.002445 ! # 5 1 MOL C6 2X C
 1.014443 0.955152 ! # 6 1 MOL C3 2X C
 0.995590 0.991490 ! # 7 1 MOL C4 2X C
 1.000061 0.947905 ! # 8 1 MOL C9 2X C
 1.018650 0.970930 ! # 9 1 MOL C10 1X C
 1.182942 1.182429 ! # 10 1 MOL H10A 2X H
 1.014973 0.906520 ! # 11 1 MOL C11 1X C
 1.149278 1.186244 ! # 12 1 MOL H11A 2X H
 0.999304 0.947890 ! # 13 1 MOL C12 1X C
 1.164681 1.180257 ! # 14 1 MOL H12A 2X H
 1.014158 1.029718 ! # 15 1 MOL C13 1X C
 1.166543 1.159049 ! # 16 1 MOL H13A 3X H


ATOMS 28

ATOM 1 CL7 MOL 1 0.732712 0.495776 0.371973 1.0000 1 Cl
 ZX C7 C6 HEX K1 V0 M0 Q0
UANI 0.014425 0.010916 0.015632 0.005703 0.004626 0.003585
 7.01695 0. 0.001 0.005 -.008 -.148 -.001 0.002 0.011 0.008
 0.143 -.002 -.006 -.003 0.001 0.004 0.004
 0.035 0.001 0.005 -.004 0.003 0.001 0. -.013 -.003

ATOM 2 CL4 MOL 1 0.015820 0.882387 0.376639 1.0000 1 Cl
 ZX C4 C5 HEX K1 V0 M0 Q0
UANI 0.012866 0.014215 0.017441 0.006522 0.003242 0.007141
 7.01554 0. 0.014 0.013 0.010 -.143 0.010 0.008 0.016 0.002
 0.142 0.004 -.004 -.004 -.003 0.004 0.001
 0.034 0.003 -.001 -.005 -.001 -.003 -.004 -.009 -.003

ATOM 3 CL5 MOL 1 -0.050400 0.663766 0.153141 1.0000 1 Cl
 ZX C5 C6 HEX K2 V0 M0 Q0
UANI 0.017229 0.024068 0.012590 0.006763 -.000206 0.006074
 7.03951 0. 0. 0.023 -.008 -.114 -.003 0. 0.017 0.012
 0.131 0. -.014 -.014 0.002 0.009 0.002
 0.049 0.007 0.004 -.026 0.006 0.002 -.004 -.026 0.002

ATOM 4 CL6 MOL 1 0.297023 0.470596 0.149925 1.0000 1 Cl
 ZX C6 C5 HEX K2 V0 M0 Q0
UANI 0.024165 0.018752 0.013596 0.007628 0.000742 -.001653
 7.02742 0. -.008 -.015 -.016 -.116 0.005 0.010 0.014 0.010
 0.134 0. -.005 -.021 -.002 0.003 0.007
 0.054 0.007 -.001 -.023 0.003 0.005 -.005 -.029 0.004

ATOM 5 O9 MOL 1 0.903916 0.680677 0.624414 1.0000 1 O
 XY C9 N1 OCT K3 V0 M0 Q0
UANI 0.015634 0.017894 0.016257 0.009696 0.000402 0.003873
 6.04195 0. -.077 -.008 -.005 -.101 0.001 -.001 -.060 0.006
 0. -.005 -.006 0.004 -.005 0.021 -.012

ATOM 6 O2 MOL 1 0.359009 0.953226 0.633478 1.0000 1 O
 XY C2 N1 OCT K3 V0 M0 Q0
UANI 0.018536 0.015153 0.017338 0.009879 0.002193 0.000828
 6.04249 0. -.084 -.004 0.003 -.095 -.003 0.009 -.061 0.009
 0.001 -.009 -.023 0.001 -.003 0.023 -.006

ATOM 7 N1 MOL 1 0.656114 0.829528 0.657343 1.0000 1 N
bXY C2 C9 OCT K4 V0 M0 Q0
UANI 0.012808 0.013143 0.011488 0.005644 0.000917 0.001487
 5.18312 0. -.006 -.005 0. -.010 0.003 -.001 0.009 0.002
 -.007 0.012 0.004 0.007 0.008 -.197 0.003

ATOM 8 C6 MOL 1 0.343427 0.591217 0.273018 1.0000 1 C
bXY C5 C7 OCT K5 V0 M0 Q0
UANI 0.014266 0.012784 0.011234 0.004402 0.002261 0.002594
 4.09839 0. 0.077 0. -.002 -.125 0.001 -.003 -.087 -.001
 0.001 0.031 -.002 -.003 0.001 -.231 -.003

ATOM 9 C3 MOL 1 0.394668 0.782019 0.473383 1.0000 1 C
bXY C4 C2 OCT K6 V0 M0 Q0
UANI 0.011409 0.010700 0.011525 0.004560 0.001980 0.003365
 3.87873 0. -.032 0.015 -.007 -.166 -.003 0.002 -.011 -.048
 0. -.005 -.036 -.006 0.005 -.266 -.015

ATOM 10 C5 MOL 1 0.185849 0.679065 0.274126 1.0000 1 C
bXY C6 C4 OCT K5 V0 M0 Q0
UANI 0.013022 0.014156 0.011333 0.004452 0.001897 0.004456
 4.11054 0. 0.067 0.006 0.002 -.134 0.005 -.003 -.079 0.003
 0.002 0.023 -.004 0.005 -.005 -.229 -.004

ATOM 11 C8 MOL 1 0.554863 0.696398 0.471634 1.0000 1 C
bXY C7 C9 OCT K6 V0 M0 Q0
UANI 0.011637 0.010418 0.011133 0.004575 0.002340 0.003079
 3.88440 0. -.026 0.020 -.004 -.160 -.008 -.003 -.001 -.049
 -.004 -.003 -.031 -.002 0.008 -.263 -.023

ATOM 12 C4 MOL 1 0.211585 0.776844 0.375311 1.0000 1 C
bXY C5 C3 OCT K7 V0 M0 Q0
UANI 0.011579 0.011989 0.012402 0.004524 0.002281 0.004835
 4.10998 0. 0.086 -.007 0.006 -.143 0.001 -.001 -.076 0.006
 0. 0.015 0.001 0.002 0.001 -.253 0.009

ATOM 13 C9 MOL 1 0.730430 0.728790 0.590145 1.0000 1 C
bXY O9 N1 OCT K8 V0 M0 Q0
UANI 0.011326 0.011911 0.012200 0.005088 0.001799 0.003303
 4.03415 0. 0.036 -.099 0.003 -.271 0.005 -.009 -.074 -.114
 0.007 0.010 -.013 -.010 0.001 -.336 -.057

ATOM 14 C7 MOL 1 0.534384 0.600364 0.372765 1.0000 1 C
bXY C6 C8 OCT K7 V0 M0 Q0
UANI 0.012627 0.010522 0.011726 0.004302 0.003014 0.003006
 4.10310 0. 0.089 0.002 0.004 -.139 0.002 0.005 -.069 0.011
 0.001 0.015 -.001 -.007 -.003 -.241 0.004

ATOM 15 C2 MOL 1 0.456891 0.867862 0.594222 1.0000 1 C
bXY O2 N1 OCT K8 V0 M0 Q0
UANI 0.012324 0.011179 0.012958 0.005251 0.002081 0.002205
 4.03026 0. 0.040 -.102 0.004 -.267 -.006 0.001 -.079 -.123
 0.004 -.006 -.008 -.010 -.002 -.334 -.055

ATOM 16 C10 MOL 1 0.759619 0.881568 0.782340 1.0000 1 C
bZX N1 C11 OCT K9 V0 M0 Q0
UANI 0.012329 0.016242 0.012361 0.003090 0.001034 0.001438
 3.74805 0. 0.066 -.006 -.013 0.009 0.095 0.005 -.038 0.010
 -.025 -.023 0.007 0.266 -.010 0.017 -.001

ATOM 17 H10A MOL 1 0.812769 0.984078 0.801883 1.0000 1 H
 ZX C10 N1 DIP K10 V0 M0 Q0
UANI 0.033824 0.041013 0.020832 0.001917 0.003661 0.005479
 0.94926 0. 0. 0. 0.197

ATOM 18 H10B MOL 1 0.944609 0.852126 0.803242 1.0000 1 H
 ZX C10 N1 DIP K10 V0 M0 Q0
UANI 0.037994 0.039184 0.026258 0.005202 0.006856 0.010859
 0.95419 0. 0. 0. 0.192

ATOM 19 C11 MOL 1 0.557417 0.836078 0.851883 1.0000 1 C
bZX C10 C12 OCT K11 V0 M0 Q0
UANI 0.012941 0.015480 0.013240 0.003581 0.001291 0.002865
 3.86519 0. 0.004 -.008 0.005 0.007 0.003 0.004 0.013 -.002
 -.024 -.006 -.007 0.313 -.007 0.004 -.005

ATOM 20 H11A MOL 1 0.387971 0.878647 0.838794 1.0000 1 H
 ZX C11 C10 DIP K12 V0 M0 Q0
UANI 0.031275 0.046884 0.026908 0.007082 0.004517 0.012143
 1.02231 0. 0. 0. 0.164

ATOM 21 H11B MOL 1 0.480636 0.734203 0.818107 1.0000 1 H
 ZX C11 C10 DIP K12 V0 M0 Q0
UANI 0.037762 0.036858 0.032275 0.005326 0.003986 0.010298
 1.00956 0. 0. 0. 0.170

ATOM 22 C12 MOL 1 0.679953 0.867928 0.981476 1.0000 1 C
bZX C11 C13 OCT K13 V0 M0 Q0
UANI 0.014655 0.020423 0.013588 0.005646 0.001717 0.005205
 4.01729 0. -.006 -.003 -.001 0.027 0.008 -.002 0.026 0.007
 -.012 -.003 0. 0.302 -.008 -.002 0.003

ATOM 23 H12A MOL 1 0.750696 0.969945 1.016662 1.0000 1 H
 ZX C12 C11 DIP K14 V0 M0 Q0
UANI 0.041632 0.039596 0.029629 0.007674 0.008447 0.010734
 1.00515 0. 0. 0. 0.175

ATOM 24 H12B MOL 1 0.855824 0.829180 0.991646 1.0000 1 H
 ZX C12 C11 DIP K14 V0 M0 Q0
UANI 0.039480 0.049474 0.037129 0.014106 0.008822 0.020772
 1.00382 0. 0. 0. 0.175

ATOM 25 C13 MOL 1 0.482157 0.816786 1.049921 1.0000 1 C
 ZX C12 H13C OCT K15 V0 M0 Q0
UANI 0.020967 0.028597 0.021003 0.010439 0.008045 0.012692
 3.83832 0. -.023 0.012 0.012 0.008 -.001 0.002 0.004 -.003
 0.187 0.018 -.003 0.010 -.006 0.154 -.010

ATOM 26 H13A MOL 1 0.415258 0.715719 1.019096 1.0000 1 H
 ZX C13 C12 DIP K16 V0 M0 Q0
UANI 0.052093 0.045961 0.049258 0.013924 0.021017 0.021237
 0.98237 0. 0. 0. 0.170

ATOM 27 H13B MOL 1 0.303408 0.850828 1.037747 1.0000 1 H
 ZX C13 C12 DIP K16 V0 M0 Q0
UANI 0.040232 0.056631 0.054583 0.012317 0.020073 0.023656
 1.01042 0. 0. 0. 0.175

ATOM 28 H13C MOL 1 0.566051 0.841626 1.141925 1.0000 1 H
 ZX C13 C12 DIP K16 V0 M0 Q0
UANI 0.056148 0.060668 0.033166 0.026143 0.016747 0.021276
 0.97748 0. 0. 0. 0.172

ANHAR 4 3 ! number_of_anharmonic_atoms max_order
 1 ! CL7 1 ! atom_number
-5.87E-05 7.18E-06 3.83E-06 5.58E-05 1.05E-04-4.15E-05-3.70E-05 2.46E-05
 3.49E-05 1.19E-04
 2 ! CL4 1 ! atom_number
 6.18E-06-1.05E-05 7.53E-06 2.13E-04 2.15E-06 5.32E-05 1.30E-04-2.72E-05
-3.21E-05 1.25E-04
 3 ! CL5 1 ! atom_number
-9.33E-05 3.61E-05 1.26E-05 1.52E-05 2.31E-04-1.32E-04 3.45E-05 3.18E-05
 3.37E-06 3.13E-04
 4 ! CL6 1 ! atom_number
-9.30E-05 2.87E-05 1.83E-05-5.36E-04-8.43E-05 1.90E-04-4.44E-06-8.85E-05
 4.92E-06 1.10E-04


STOP
;
_cod_data_source_file            c9ce01120j2.cif
_cod_data_source_block           I
_cod_original_cell_volume        659.199(12)
_cod_database_code               7233412
loop_
_space_group_symop_operation_xyz
'x, y, z'
'-x, -y, -z'
loop_
_symmetry_equiv_pos_as_xyz
'x, y, z'
'-x, -y, -z'
loop_
_atom_site_type_symbol
_atom_site_label
_atom_site_fract_x
_atom_site_fract_y
_atom_site_fract_z
_atom_site_U_iso_or_equiv
_atom_site_adp_type
_atom_site_occupancy
_atom_site_calc_flag
_atom_site_refinement_flags_posn
Cl CL7 0.732712(8) 0.495776(4) 0.371973(4) 0.013124(6) Uani 1 d .
Cl CL4 0.015820(8) 0.882387(4) 0.376639(4) 0.013876(6) Uani 1 d .
Cl CL5 -0.050400(10) 0.663766(5) 0.153141(4) 0.017910(8) Uani 1 d .
Cl CL6 0.297023(11) 0.470596(5) 0.149925(4) 0.019928(9) Uani 1 d .
O O9 0.90392(4) 0.680677(18) 0.624414(16) 0.01625(2) Uani 1 d .
O O2 0.35901(4) 0.953226(18) 0.633478(17) 0.01698(3) Uani 1 d .
N N1 0.65611(3) 0.829528(15) 0.657343(13) 0.01264(2) Uani 1 d .
C C6 0.34343(3) 0.591217(16) 0.273018(13) 0.01278(2) Uani 1 d .
C C3 0.39467(3) 0.782019(14) 0.473383(13) 0.010935(19) Uani 1 d .
C C5 0.18585(3) 0.679065(16) 0.274126(14) 0.01258(2) Uani 1 d .
C C8 0.55486(3) 0.696398(14) 0.471634(13) 0.01077(2) Uani 1 d .
C C4 0.21158(3) 0.776844(15) 0.375311(13) 0.01152(2) Uani 1 d .
C C9 0.73043(3) 0.728790(15) 0.590145(13) 0.01156(2) Uani 1 d .
C C7 0.53438(3) 0.600364(14) 0.372765(13) 0.01137(2) Uani 1 d .
C C2 0.45689(3) 0.867862(15) 0.594222(14) 0.01207(2) Uani 1 d .
C C10 0.75962(4) 0.881568(19) 0.782340(15) 0.01432(2) Uani 1 d .
H H10A 0.8128(13) 0.98408(18) 0.8019(5) 0.0337(17) Uani 1 d D
H H10B 0.9446(7) 0.8521(6) 0.8032(5) 0.035(2) Uani 1 d D
C C11 0.55742(4) 0.836078(17) 0.851883(14) 0.01423(2) Uani 1 d .
H H11A 0.3880(8) 0.8786(5) 0.8388(5) 0.0352(17) Uani 1 d D
H H11B 0.4806(13) 0.73420(19) 0.8181(5) 0.0364(18) Uani 1 d D
C C12 0.67995(4) 0.86793(2) 0.981476(16) 0.01607(3) Uani 1 d .
H H12A 0.7507(13) 0.96995(19) 1.0167(5) 0.0370(19) Uani 1 d D
H H12B 0.8558(8) 0.8292(6) 0.9916(6) 0.040(2) Uani 1 d D
C C13 0.48216(5) 0.81679(3) 1.04992(2) 0.02144(4) Uani 1 d .
H H13A 0.4153(15) 0.71572(18) 1.0191(6) 0.046(2) Uani 1 d D
H H13B 0.3034(8) 0.8508(6) 1.0377(7) 0.048(2) Uani 1 d D
H H13C 0.5661(14) 0.8416(7) 1.1419(2) 0.046(2) Uani 1 d D
loop_
_atom_site_aniso_label
_atom_site_aniso_U_11
_atom_site_aniso_U_22
_atom_site_aniso_U_33
_atom_site_aniso_U_12
_atom_site_aniso_U_13
_atom_site_aniso_U_23
CL7 0.014425(13) 0.010916(12) 0.015632(13) 0.005703(10) 0.004626(10)
0.003585(9)
CL4 0.012866(13) 0.014215(14) 0.017441(14) 0.006522(10) 0.003242(10)
0.007141(11)
CL5 0.017229(16) 0.02407(2) 0.012590(13) 0.006763(14) -0.000206(11)
0.006074(12)
CL6 0.02417(2) 0.018752(18) 0.013596(14) 0.007628(15) 0.000742(13)
-0.001653(12)
O9 0.01563(5) 0.01789(6) 0.01626(5) 0.00970(5) 0.00040(4) 0.00387(4)
O2 0.01854(6) 0.01515(5) 0.01734(5) 0.00988(5) 0.00219(5) 0.00083(4)
N1 0.01281(4) 0.01314(5) 0.01149(4) 0.00564(4) 0.00092(3) 0.00149(3)
C6 0.01427(5) 0.01278(5) 0.01123(4) 0.00440(4) 0.00226(4) 0.00259(4)
C3 0.01141(4) 0.01070(4) 0.01152(4) 0.00456(3) 0.00198(3) 0.00336(3)
C5 0.01302(5) 0.01416(5) 0.01133(4) 0.00445(4) 0.00190(4) 0.00446(4)
C8 0.01164(4) 0.01042(4) 0.01113(4) 0.00457(3) 0.00234(3) 0.00308(3)
C4 0.01158(4) 0.01199(5) 0.01240(4) 0.00452(4) 0.00228(3) 0.00484(4)
C9 0.01133(4) 0.01191(5) 0.01220(4) 0.00509(4) 0.00180(3) 0.00330(3)
C7 0.01263(4) 0.01052(4) 0.01173(4) 0.00430(4) 0.00301(3) 0.00301(3)
C2 0.01232(4) 0.01118(4) 0.01296(4) 0.00525(4) 0.00208(3) 0.00220(4)
C10 0.01233(5) 0.01624(6) 0.01236(5) 0.00309(5) 0.00103(4) 0.00144(4)
H10A 0.034(3) 0.041(5) 0.021(3) 0.002(3) 0.004(2) 0.005(3)
H10B 0.038(4) 0.039(4) 0.026(3) 0.005(3) 0.007(3) 0.011(3)
C11 0.01294(5) 0.01548(6) 0.01324(5) 0.00358(4) 0.00129(4) 0.00287(4)
H11A 0.031(4) 0.047(4) 0.027(3) 0.007(3) 0.005(2) 0.012(3)
H11B 0.038(4) 0.037(4) 0.032(3) 0.005(3) 0.004(3) 0.010(3)
C12 0.01465(5) 0.02042(7) 0.01359(5) 0.00565(5) 0.00172(4) 0.00521(5)
H12A 0.042(4) 0.040(5) 0.030(3) 0.008(3) 0.008(3) 0.011(3)
H12B 0.039(4) 0.049(4) 0.037(4) 0.014(3) 0.009(3) 0.021(3)
C13 0.02097(7) 0.02860(10) 0.02100(7) 0.01044(7) 0.00805(6) 0.01269(7)
H13A 0.052(5) 0.046(5) 0.049(5) 0.014(4) 0.021(4) 0.021(4)
H13B 0.040(5) 0.057(5) 0.055(5) 0.012(4) 0.020(3) 0.024(4)
H13C 0.056(5) 0.061(5) 0.033(4) 0.026(4) 0.017(3) 0.021(4)
loop_
_atom_type_symbol
_atom_type_description
_atom_type_scat_dispersion_real
_atom_type_scat_dispersion_imag
_atom_type_scat_source
C C 0.0033 0.0016
'Clementi & Roetti 1974. Atomic Data & Nuclear Data Tables. 14, 177'
H H 0.0000 0.0000
'Clementi & Roetti 1974. Atomic Data & Nuclear Data Tables. 14, 177'
N N 0.0061 0.0033
'Clementi & Roetti 1974. Atomic Data & Nuclear Data Tables. 14, 177'
O O 0.0106 0.0060
'Clementi & Roetti 1974. Atomic Data & Nuclear Data Tables. 14, 177'
Cl Cl 0.1484 0.1585
'Clementi & Roetti 1974. Atomic Data & Nuclear Data Tables. 14, 177'
loop_
_geom_angle_atom_site_label_1
_geom_angle_atom_site_label_2
_geom_angle_atom_site_label_3
_geom_angle
C2 N1 C9 112.664(12)
C2 N1 C10 123.786(13)
C9 N1 C10 123.348(13)
CL6 C6 C5 119.380(11)
CL6 C6 C7 120.007(11)
C5 C6 C7 120.600(12)
C4 C3 C2 130.538(12)
C4 C3 C8 121.484(12)
C2 C3 C8 107.956(11)
CL5 C5 C6 119.746(10)
CL5 C5 C4 119.270(11)
C6 C5 C4 120.929(13)
C7 C8 C9 130.314(12)
C7 C8 C3 121.787(12)
C9 C8 C3 107.890(11)
CL4 C4 C5 120.692(10)
CL4 C4 C3 121.706(10)
C5 C4 C3 117.581(13)
O9 C9 N1 125.146(14)
O9 C9 C8 129.127(13)
N1 C9 C8 105.727(12)
CL7 C7 C6 121.178(10)
CL7 C7 C8 121.246(10)
C6 C7 C8 117.575(12)
O2 C2 N1 124.984(14)
O2 C2 C3 129.303(14)
N1 C2 C3 105.710(12)
N1 C10 C11 111.668(13)
N1 C10 H10A 108.3(3)
N1 C10 H10B 107.1(3)
C11 C10 H10A 111.5(3)
C11 C10 H10B 110.6(3)
H10A C10 H10B 107.5(5)
C10 C11 C12 112.501(14)
C10 C11 H11B 109.2(3)
C10 C11 H11A 108.6(3)
C12 C11 H11B 108.8(3)
C12 C11 H11A 110.0(3)
H11B C11 H11A 107.6(5)
C11 C12 C13 112.496(15)
C11 C12 H12A 109.3(3)
C11 C12 H12B 108.5(3)
C13 C12 H12A 109.6(3)
C13 C12 H12B 109.9(3)
H12A C12 H12B 107.0(5)
C12 C13 H13A 111.1(4)
C12 C13 H13B 110.9(4)
C12 C13 H13C 112.7(4)
H13A C13 H13B 105.5(6)
H13A C13 H13C 108.0(6)
H13B C13 H13C 108.4(6)
loop_
_geom_bond_atom_site_label_1
_geom_bond_atom_site_label_2
_geom_bond_distance
CL7 C7 1.71337(15)
CL4 C4 1.71184(15)
CL5 C5 1.70877(16)
CL6 C6 1.70987(17)
O9 C9 1.2105(2)
O2 C2 1.2100(2)
N1 C2 1.3901(2)
N1 C9 1.3908(2)
N1 C10 1.4564(2)
C6 C5 1.4045(2)
C6 C7 1.4077(2)
C3 C4 1.3828(2)
C3 C2 1.4954(2)
C3 C8 1.3935(2)
C5 C4 1.4080(2)
C8 C7 1.3838(2)
C8 C9 1.4952(2)
C10 C11 1.5280(3)
C10 H10A 1.0913(18)
C10 H10B 1.0914(18)
C11 C12 1.5243(2)
C11 H11B 1.0911(18)
C11 H11A 1.0922(18)
C12 C13 1.5246(3)
C12 H12A 1.0913(18)
C12 H12B 1.0918(18)
C13 H13A 1.0767(18)
C13 H13B 1.0768(19)
C13 H13C 1.0769(18)
loop_
_geom_hbond_atom_site_label_D
_geom_hbond_atom_site_label_H
_geom_hbond_atom_site_label_A
_geom_hbond_distance_DH
_geom_hbond_distance_HA
_geom_hbond_distance_DA
_geom_hbond_angle_DHA
_geom_hbond_site_symmetry_A
C10 H10B O9 1.0914(18) 2.485(6) 2.9002(2) 101.1(3) 1
loop_
_geom_torsion_atom_site_label_1
_geom_torsion_atom_site_label_2
_geom_torsion_atom_site_label_3
_geom_torsion_atom_site_label_4
_geom_torsion
CL7 C7 C6 CL6 2.554(13)
CL7 C7 C6 C5 -178.725(3)
CL7 C7 C8 C9 -1.197(15)
CL7 C7 C8 C3 -179.9720(9)
CL4 C4 C5 CL5 -1.851(13)
CL4 C4 C5 C6 -179.1448(16)
CL4 C4 C3 C2 2.391(15)
CL4 C4 C3 C8 -179.5590(8)
CL5 C5 C6 CL6 0.339(14)
CL5 C5 C6 C7 -178.391(3)
CL5 C5 C4 C3 176.520(6)
CL6 C6 C5 C4 177.620(5)
CL6 C6 C7 C8 -177.056(6)
O9 C9 N1 C2 178.07(2)
O9 C9 N1 C10 -6.93(2)
O9 C9 C8 C7 3.71(2)
O9 C9 C8 C3 -177.37(3)
O2 C2 N1 C9 179.84(2)
O2 C2 N1 C10 4.87(2)
O2 C2 C3 C4 -0.02(2)
O2 C2 C3 C8 -178.26(3)
N1 C2 C3 C4 179.40(2)
N1 C2 C3 C8 1.15(2)
N1 C9 C8 C7 -176.56(2)
N1 C9 C8 C3 2.35(2)
N1 C10 C11 C12 168.78(14)
N1 C10 C11 H11B 47.9(7)
N1 C10 C11 H11A -69.2(6)
C6 C5 C4 C3 -0.77(2)
C6 C7 C8 C9 178.41(2)
C6 C7 C8 C3 -0.37(2)
C3 C2 N1 C9 0.40(2)
C3 C2 N1 C10 -174.58(2)
C5 C6 C7 C8 1.67(2)
C5 C4 C3 C2 -175.96(2)
C5 C4 C3 C8 2.09(2)
C8 C9 N1 C2 -1.67(2)
C8 C9 N1 C10 173.33(2)
C4 C5 C6 C7 -1.11(2)
C4 C3 C8 C7 -1.55(2)
C4 C3 C8 C9 179.42(2)
C9 N1 C10 C11 -101.47(3)
C9 N1 C10 H10A 135.3(7)
C9 N1 C10 H10B 19.8(7)
C9 C8 C3 C2 -2.14(2)
C7 C8 C3 C2 176.89(2)
C2 N1 C10 C11 72.98(3)
C2 N1 C10 H10A -50.2(7)
C2 N1 C10 H10B -165.8(8)
C10 C11 C12 C13 -177.12(3)
C10 C11 C12 H12A 60.9(7)
C10 C11 C12 H12B -55.3(7)
H10A C10 C11 C12 -69.9(6)
H10A C10 C11 H11B 169.(2)
H10A C10 C11 H11A 52.2(10)
H10B C10 C11 C12 49.6(7)
H10B C10 C11 H11B -71.3(10)
H10B C10 C11 H11A 171.7(9)
C11 C12 C13 H13A 60.5(8)
C11 C12 C13 H13B -56.5(8)
C11 C12 C13 H13C -178.17(9)
H11A C11 C12 C13 61.6(6)
H11A C11 C12 H12A -60.3(10)
H11A C11 C12 H12B -176.6(9)
H11B C11 C12 C13 -56.0(7)
H11B C11 C12 H12A -178.(1)
H11B C11 C12 H12B 65.8(10)
H12A C12 C13 H13A -177.7(10)
H12A C12 C13 H13B 65.(1)
H12A C12 C13 H13C -56.(1)
H12B C12 C13 H13A -60.(1)
H12B C12 C13 H13B -177.5(10)
H12B C12 C13 H13C 61.(1)
