#------------------------------------------------------------------------------
#$Date: 2019-09-12 11:08:28 +0300 (Thu, 12 Sep 2019) $
#$Revision: 218224 $
#$URL: file:///home/coder/svn-repositories/cod/cif/7/23/38/7233805.cif $
#------------------------------------------------------------------------------
#
# This file is available in the Crystallography Open Database (COD),
# http://www.crystallography.net/
#
# All data on this site have been placed in the public domain by the
# contributors.
#
data_7233805
loop_
_publ_author_name
'Weizhao Cai'
'Jiangang He'
'Wei Li'
'Andrzej Katrusiak'
_publ_section_title
;
 Anomalous compression of a weakly CH...O bonded nonlinear optical
 molecular crystal
;
_journal_name_full               'Journal of Materials Chemistry C'
_journal_page_first              6471
_journal_page_last               6476
_journal_paper_doi               10.1039/C4TC00654B
_journal_volume                  2
_journal_year                    2014
_chemical_formula_moiety         'C6 H6 N2 O3'
_chemical_formula_sum            'C6 H6 N2 O3'
_chemical_formula_weight         154.13
_chemical_name_common            3-methyl-4-nitropyridine-N-oxide
_space_group_IT_number           19
_space_group_name_Hall           'P 2ac 2ab'
_space_group_name_H-M_alt        'P 21 21 21'
_symmetry_cell_setting           orthorhombic
_symmetry_space_group_name_Hall  'P 2ac 2ab'
_symmetry_space_group_name_H-M   'P 21 21 21'
_atom_sites_solution_hydrogens   geom
_atom_sites_solution_primary     direct
_atom_sites_solution_secondary   difmap
_cell_angle_alpha                90.00
_cell_angle_beta                 90.00
_cell_angle_gamma                90.00
_cell_formula_units_Z            4
_cell_length_a                   21.1719(9)
_cell_length_b                   6.1190(3)
_cell_length_c                   5.1373(3)
_cell_measurement_temperature    210(2)
_cell_volume                     665.54(6)
_computing_structure_refinement  'SHELXL-97 (Sheldrick, 1997)'
_computing_structure_solution    'SHELXS-97 (Sheldrick, 1990)'
_diffrn_ambient_temperature      210(2)
_diffrn_measured_fraction_theta_full 0.901
_diffrn_measured_fraction_theta_max 0.901
_diffrn_measurement_device_type  'Oxford Diffraction Xcalibur Eos'
_diffrn_measurement_method       'phi and omega scans'
_diffrn_radiation_monochromator  graphite
_diffrn_radiation_source         'fine-focus sealed tube'
_diffrn_radiation_type           MoK\a
_diffrn_radiation_wavelength     0.71073
_diffrn_reflns_av_R_equivalents  0.0119
_diffrn_reflns_av_sigmaI/netI    0.0161
_diffrn_reflns_limit_h_max       22
_diffrn_reflns_limit_h_min       -26
_diffrn_reflns_limit_k_max       8
_diffrn_reflns_limit_k_min       -7
_diffrn_reflns_limit_l_max       3
_diffrn_reflns_limit_l_min       -6
_diffrn_reflns_number            1869
_diffrn_reflns_theta_full        28.78
_diffrn_reflns_theta_max         28.78
_diffrn_reflns_theta_min         3.47
_exptl_absorpt_coefficient_mu    0.126
_exptl_absorpt_correction_T_max  0.9753
_exptl_absorpt_correction_T_min  0.9632
_exptl_absorpt_correction_type   multi-scan
_exptl_absorpt_process_details   '(CrysAlis Pro; Oxford Diffraction, 2010)'
_exptl_crystal_colour            'light yellow'
_exptl_crystal_density_diffrn    1.538
_exptl_crystal_density_method    'not measured'
_exptl_crystal_description       block
_exptl_crystal_F_000             320
_exptl_crystal_size_max          0.30
_exptl_crystal_size_mid          0.30
_exptl_crystal_size_min          0.20
_refine_diff_density_max         0.166
_refine_diff_density_min         -0.144
_refine_diff_density_rms         0.035
_refine_ls_abs_structure_details 'Flack H D (1983), Acta Cryst. A39, 876-881'
_refine_ls_abs_structure_Flack   0.0(4)
_refine_ls_extinction_coef       0.029(6)
_refine_ls_extinction_expression Fc^*^=kFc[1+0.001xFc^2^\l^3^/sin(2\q)]^-1/4^
_refine_ls_extinction_method     SHELXL
_refine_ls_goodness_of_fit_ref   1.152
_refine_ls_hydrogen_treatment    constr
_refine_ls_matrix_type           full
_refine_ls_number_parameters     102
_refine_ls_number_reflns         940
_refine_ls_number_restraints     0
_refine_ls_restrained_S_all      1.152
_refine_ls_R_factor_all          0.0347
_refine_ls_R_factor_gt           0.0307
_refine_ls_shift/su_max          0.000
_refine_ls_shift/su_mean         0.000
_refine_ls_structure_factor_coef Fsqd
_refine_ls_weighting_details
'calc w=1/[\s^2^(Fo^2^)+(0.0422P)^2^+0.0805P] where P=(Fo^2^+2Fc^2^)/3'
_refine_ls_weighting_scheme      calc
_refine_ls_wR_factor_gt          0.0811
_refine_ls_wR_factor_ref         0.0845
_reflns_number_gt                866
_reflns_number_total             940
_reflns_threshold_expression     >2sigma(I)
_cod_data_source_file            1000018.cif
_cod_data_source_block           PCOD1000018
_cod_depositor_comments
;
The following automatic conversions were performed:

data item '_symmetry_cell_setting' value 'Orthorhombic' was changed
to 'orthorhombic' in accordance with the built-in table derived from
the CIF Core dictionary named 'cif_core.dic' version 2.4.5 last
updated on 2014-11-21.

Automatic conversion script
Id: cif_fix_values 6909 2019-04-08 15:41:33Z antanas 
;
_cod_original_sg_symbol_Hall     'P 2ac 2ab '
_cod_original_sg_symbol_H-M      ' P 21 21 21'
_cod_database_code               7233805
loop_
_symmetry_equiv_pos_as_xyz
'x, y, z'
'-x+1/2, -y, z+1/2'
'-x, y+1/2, -z+1/2'
'x+1/2, -y+1/2, -z'
loop_
_atom_site_label
_atom_site_type_symbol
_atom_site_fract_x
_atom_site_fract_y
_atom_site_fract_z
_atom_site_U_iso_or_equiv
_atom_site_adp_type
_atom_site_occupancy
_atom_site_symmetry_multiplicity
_atom_site_calc_flag
_atom_site_refinement_flags
_atom_site_disorder_assembly
_atom_site_disorder_group
N1 N 0.15375(7) 0.0502(2) 0.5019(3) 0.0302(4) Uani 1 1 d . . .
C1 C 0.17901(8) 0.1794(3) 0.3141(4) 0.0289(4) Uani 1 1 d . . .
H1 H 0.2159 0.1335 0.2322 0.035 Uiso 1 1 calc R . .
C2 C 0.15251(7) 0.3766(3) 0.2386(3) 0.0256(4) Uani 1 1 d . . .
C3 C 0.09683(8) 0.4356(3) 0.3675(3) 0.0250(4) Uani 1 1 d . . .
C4 C 0.07154(8) 0.3068(3) 0.5636(3) 0.0288(4) Uani 1 1 d . . .
H2 H 0.0351 0.3511 0.6501 0.035 Uiso 1 1 calc R . .
C5 C 0.10036(8) 0.1140(3) 0.6295(4) 0.0313(4) Uani 1 1 d . . .
H3 H 0.0836 0.0270 0.7609 0.038 Uiso 1 1 calc R . .
O1 O 0.18034(6) -0.1347(2) 0.5605(3) 0.0437(4) Uani 1 1 d . . .
C6 C 0.18724(9) 0.5079(3) 0.0380(4) 0.0334(4) Uani 1 1 d . . .
H4 H 0.2238 0.4283 -0.0190 0.050 Uiso 1 1 calc R . .
H5 H 0.2002 0.6446 0.1124 0.050 Uiso 1 1 calc R . .
H6 H 0.1600 0.5347 -0.1079 0.050 Uiso 1 1 calc R . .
N2 N 0.06266(7) 0.6367(3) 0.3043(3) 0.0316(4) Uani 1 1 d . . .
O2 O 0.07517(7) 0.7306(3) 0.1007(3) 0.0523(5) Uani 1 1 d . . .
O3 O 0.02239(7) 0.7014(2) 0.4566(3) 0.0435(4) Uani 1 1 d . . .
loop_
_atom_site_aniso_label
_atom_site_aniso_U_11
_atom_site_aniso_U_22
_atom_site_aniso_U_33
_atom_site_aniso_U_23
_atom_site_aniso_U_13
_atom_site_aniso_U_12
N1 0.0291(7) 0.0240(7) 0.0374(8) 0.0052(7) -0.0074(7) -0.0001(5)
C1 0.0252(8) 0.0289(8) 0.0327(8) 0.0018(8) -0.0007(7) 0.0007(7)
C2 0.0240(8) 0.0277(8) 0.0249(8) 0.0004(7) -0.0033(7) -0.0031(7)
C3 0.0235(8) 0.0245(7) 0.0270(8) 0.0013(7) -0.0042(7) -0.0005(6)
C4 0.0252(8) 0.0315(8) 0.0298(8) -0.0003(8) 0.0020(7) -0.0038(7)
C5 0.0303(8) 0.0315(9) 0.0321(9) 0.0069(8) -0.0010(7) -0.0074(7)
O1 0.0440(7) 0.0285(6) 0.0587(9) 0.0135(7) -0.0066(8) 0.0081(6)
C6 0.0314(8) 0.0372(9) 0.0316(9) 0.0070(9) 0.0043(8) -0.0019(8)
N2 0.0276(7) 0.0292(7) 0.0379(8) 0.0040(7) -0.0036(7) 0.0017(6)
O2 0.0473(8) 0.0547(9) 0.0548(9) 0.0303(8) 0.0045(8) 0.0146(7)
O3 0.0409(7) 0.0404(7) 0.0492(8) -0.0033(8) 0.0043(7) 0.0130(6)
loop_
_atom_type_symbol
_atom_type_description
_atom_type_scat_dispersion_real
_atom_type_scat_dispersion_imag
_atom_type_scat_source
C C 0.0033 0.0016 'International Tables Vol C Tables 4.2.6.8 and 6.1.1.4'
H H 0.0000 0.0000 'International Tables Vol C Tables 4.2.6.8 and 6.1.1.4'
N N 0.0061 0.0033 'International Tables Vol C Tables 4.2.6.8 and 6.1.1.4'
O O 0.0106 0.0060 'International Tables Vol C Tables 4.2.6.8 and 6.1.1.4'
loop_
_geom_angle_atom_site_label_1
_geom_angle_atom_site_label_2
_geom_angle_atom_site_label_3
_geom_angle
_geom_angle_site_symmetry_1
_geom_angle_site_symmetry_3
O1 N1 C1 120.09(16) . .
O1 N1 C5 119.81(16) . .
C1 N1 C5 120.09(14) . .
N1 C1 C2 123.14(16) . .
C1 C2 C3 115.68(15) . .
C1 C2 C6 117.39(15) . .
C3 C2 C6 126.88(16) . .
C4 C3 C2 121.49(15) . .
C4 C3 N2 116.62(15) . .
C2 C3 N2 121.89(15) . .
C5 C4 C3 119.80(17) . .
N1 C5 C4 119.76(16) . .
O2 N2 O3 123.13(16) . .
O2 N2 C3 118.53(16) . .
O3 N2 C3 118.33(15) . .
loop_
_geom_bond_atom_site_label_1
_geom_bond_atom_site_label_2
_geom_bond_distance
_geom_bond_site_symmetry_2
N1 O1 1.2988(18) .
N1 C1 1.357(2) .
N1 C5 1.364(2) .
C1 C2 1.386(2) .
C2 C3 1.399(2) .
C2 C6 1.499(2) .
C3 C4 1.386(2) .
C3 N2 1.464(2) .
C4 C5 1.371(2) .
N2 O2 1.222(2) .
N2 O3 1.2231(19) .
loop_
_geom_torsion_atom_site_label_1
_geom_torsion_atom_site_label_2
_geom_torsion_atom_site_label_3
_geom_torsion_atom_site_label_4
_geom_torsion
_geom_torsion_site_symmetry_1
_geom_torsion_site_symmetry_2
_geom_torsion_site_symmetry_3
_geom_torsion_site_symmetry_4
O1 N1 C1 C2 178.82(15) . . . .
C5 N1 C1 C2 -1.1(3) . . . .
N1 C1 C2 C3 -0.6(3) . . . .
N1 C1 C2 C6 177.01(15) . . . .
C1 C2 C3 C4 2.0(2) . . . .
C6 C2 C3 C4 -175.28(17) . . . .
C1 C2 C3 N2 -178.54(15) . . . .
C6 C2 C3 N2 4.1(3) . . . .
C2 C3 C4 C5 -1.8(3) . . . .
N2 C3 C4 C5 178.73(14) . . . .
O1 N1 C5 C4 -178.55(16) . . . .
C1 N1 C5 C4 1.4(3) . . . .
C3 C4 C5 N1 0.0(3) . . . .
C4 C3 N2 O2 -164.93(16) . . . .
C2 C3 N2 O2 15.6(2) . . . .
C4 C3 N2 O3 14.2(2) . . . .
C2 C3 N2 O3 -165.24(16) . . . .
