#------------------------------------------------------------------------------
#$Date: 2019-07-13 06:41:50 +0300 (Sat, 13 Jul 2019) $
#$Revision: 217002 $
#$URL: file:///home/coder/svn-repositories/cod/cif/7/23/31/7233104.cif $
#------------------------------------------------------------------------------
#
# This file is available in the Crystallography Open Database (COD),
# http://www.crystallography.net/
#
# All data on this site have been placed in the public domain by the
# contributors.
#
data_7233104
loop_
_publ_author_name
'Vu\<sak, Darko'
'Smre\<cki, Neven'
'Prugove\<cki, Biserka'
'\/Dilovi\'c, Ivica'
'Kirasi\'c, Inka'
'\<Zili\'c, Dijana'
'Muratovi\'c, Senada'
'Matkovi\'c-\<Calogovi\'c, Dubravka'
_publ_section_title
;
 Cobalt, nickel and copper complexes with glycinamide: structural insights
 and magnetic properties
;
_journal_issue                   38
_journal_name_full               'RSC Advances'
_journal_page_first              21637
_journal_paper_doi               10.1039/C9RA03693H
_journal_volume                  9
_journal_year                    2019
_chemical_formula_moiety         'C2 H7 N2 O, Cl'
_chemical_formula_sum            'C2 H7 Cl N2 O'
_chemical_formula_weight         110.55
_chemical_name_systematic        'glycinamide hydrochloride'
_space_group_crystal_system      monoclinic
_space_group_IT_number           11
_space_group_name_Hall           '-P 2yb'
_space_group_name_H-M_alt        'P 1 21/m 1'
_symmetry_space_group_name_Hall  '-P 2yb'
_symmetry_space_group_name_H-M   'P 1 21/m 1'
_atom_sites_solution_hydrogens   difmap
_audit_creation_method           SHELXL-2014/7
_audit_update_record
;
2019-05-10 deposited with the CCDC.    2019-06-17 downloaded from the CCDC.
;
_cell_angle_alpha                90
_cell_angle_beta                 101.486(19)
_cell_angle_gamma                90
_cell_formula_units_Z            2
_cell_length_a                   4.6688(9)
_cell_length_b                   6.2057(13)
_cell_length_c                   8.898(2)
_cell_measurement_reflns_used    425
_cell_measurement_temperature    293(2)
_cell_measurement_theta_max      31.6830
_cell_measurement_theta_min      4.6600
_cell_volume                     252.64(9)
_computing_cell_refinement
;
CrysAlisPro, Agilent Technologies,
Version 1.171.37.35 (release 13-08-2014 CrysAlis171 .NET)
(compiled Aug 13 2014,18:06:01)
;
_computing_data_collection
;
CrysAlisPro, Agilent Technologies,
Version 1.171.37.35 (release 13-08-2014 CrysAlis171 .NET)
(compiled Aug 13 2014,18:06:01)
;
_computing_data_reduction
;
CrysAlisPro, Agilent Technologies,
Version 1.171.37.35 (release 13-08-2014 CrysAlis171 .NET)
(compiled Aug 13 2014,18:06:01)
;
_computing_molecular_graphics    'MERCURY (C.F. Macrae et al , 2008)'
_computing_publication_material  'SHELXL-2014/7 (Sheldrick, 2014)'
_computing_structure_refinement  'SHELXL-2014/7 (Sheldrick, 2014)'
_computing_structure_solution    'SHELXS-97 (Sheldrick, 1990)'
_diffrn_ambient_temperature      293(2)
_diffrn_detector_area_resol_mean 16.3426
_diffrn_measured_fraction_theta_full 0.992
_diffrn_measured_fraction_theta_max 0.993
_diffrn_measurement_device_type  'Xcalibur, Sapphire3'
_diffrn_measurement_method       '\w scans'
_diffrn_radiation_type           MoK\a
_diffrn_radiation_wavelength     0.71073
_diffrn_reflns_av_R_equivalents  0.0241
_diffrn_reflns_av_unetI/netI     0.0341
_diffrn_reflns_Laue_measured_fraction_full 0.992
_diffrn_reflns_Laue_measured_fraction_max 0.993
_diffrn_reflns_limit_h_max       5
_diffrn_reflns_limit_h_min       -5
_diffrn_reflns_limit_k_max       7
_diffrn_reflns_limit_k_min       -7
_diffrn_reflns_limit_l_max       10
_diffrn_reflns_limit_l_min       -10
_diffrn_reflns_number            1268
_diffrn_reflns_point_group_measured_fraction_full 0.992
_diffrn_reflns_point_group_measured_fraction_max 0.993
_diffrn_reflns_theta_full        25.242
_diffrn_reflns_theta_max         25.987
_diffrn_reflns_theta_min         4.600
_diffrn_source                   'Enhance (Mo) X-ray Source'
_exptl_absorpt_coefficient_mu    0.615
_exptl_absorpt_correction_T_max  1.00000
_exptl_absorpt_correction_T_min  0.68214
_exptl_absorpt_correction_type   multi-scan
_exptl_absorpt_process_details
;
CrysAlisPro, Agilent Technologies,
Version 1.171.37.35 (release 13-08-2014 CrysAlis171 .NET)
(compiled Aug 13 2014,18:06:01)
Empirical absorption correction using spherical harmonics,
 implemented in SCALE3 ABSPACK scaling algorithm.
;
_exptl_crystal_colour            colourless
_exptl_crystal_density_diffrn    1.453
_exptl_crystal_description       needle
_exptl_crystal_F_000             116
_exptl_crystal_recrystallization_method
'Re-crystallisation from solvent: water'
_exptl_crystal_size_max          0.770
_exptl_crystal_size_mid          0.210
_exptl_crystal_size_min          0.110
_refine_diff_density_max         0.241
_refine_diff_density_min         -0.445
_refine_diff_density_rms         0.072
_refine_ls_extinction_method     none
_refine_ls_goodness_of_fit_ref   1.085
_refine_ls_hydrogen_treatment    refall
_refine_ls_matrix_type           full
_refine_ls_number_parameters     54
_refine_ls_number_reflns         543
_refine_ls_number_restraints     0
_refine_ls_restrained_S_all      1.085
_refine_ls_R_factor_all          0.0450
_refine_ls_R_factor_gt           0.0369
_refine_ls_shift/su_max          0.002
_refine_ls_shift/su_mean         0.000
_refine_ls_structure_factor_coef Fsqd
_refine_ls_weighting_details
'w=1/[\s^2^(Fo^2^)+(0.0579P)^2^] where P=(Fo^2^+2Fc^2^)/3'
_refine_ls_weighting_scheme      calc
_refine_ls_wR_factor_gt          0.0921
_refine_ls_wR_factor_ref         0.0977
_reflns_Friedel_coverage         0.000
_reflns_number_gt                464
_reflns_number_total             543
_reflns_threshold_expression     'I > 2\s(I)'
_cod_data_source_file            c9ra03693h2.cif
_cod_data_source_block           shelx
_cod_original_cell_volume        252.65(10)
_cod_database_code               7233104
_shelx_shelxl_version_number     2014/7
_shelx_space_group_comment
;
The symmetry employed for this shelxl refinement is uniquely defined
by the following loop, which should always be used as a source of
symmetry information in preference to the above space-group names.
They are only intended as comments.
;
_shelx_estimated_absorpt_t_min   0.649
_shelx_estimated_absorpt_t_max   0.935
_shelx_res_file
;

    shelx.res created by SHELXL-2014/7

TITL exp_1408 in P2(1)/m
CELL  0.71073   4.6688   6.2057   8.8983   90.000  101.486   90.000
ZERR     2.00   0.0009   0.0013   0.0022    0.000    0.019    0.000
LATT   1
SYMM  - X, 1/2 + Y, - Z
SFAC  C    H    N    O    CL
UNIT  4 14 4 2 2
MERG   2
OMIT    -1.00 52
acta
FMAP   2
PLAN   50
BOND
size 0.11 0.21 0.77
L.S.   10
temp 20
WGHT    0.057900
FVAR      28.33895
H1A   2    0.527704    0.250000    0.470079    10.50000    0.02880
H1B   2    0.223573    0.250000    0.373314    10.50000    0.04227
H2B   2    0.453940    0.250000    0.965360    10.50000    0.07051
H2C   2    0.185855    0.136485    0.868836    11.00000    0.05145
H2A   2    0.570960    0.120425    0.751449    11.00000    0.04870
MOLE    1
CL1   5    0.877991    0.250000    0.127542    10.50000    0.04570    0.03790 =
         0.03357    0.00000   -0.00585    0.00000
MOLE    2
N2    3    0.300350    0.250000    0.870573    10.50000    0.03105    0.03726 =
         0.02841    0.00000    0.00300    0.00000
C2    1    0.452349    0.250000    0.739967    10.50000    0.02643    0.04449 =
         0.03070    0.00000    0.00097    0.00000
O1    4   -0.028622    0.250000    0.590758    10.50000    0.02010    0.06760 =
         0.03875    0.00000    0.00071    0.00000
N1    3    0.345387    0.250000    0.464905    10.50000    0.02332    0.04582 =
         0.02954    0.00000   -0.00097    0.00000
C1    1    0.233610    0.250000    0.589885    10.50000    0.02475    0.02819 =
         0.03082    0.00000    0.00053    0.00000
HKLF    4

REM  exp_1408 in P2(1)/m
REM R1 =  0.0369 for     464 Fo > 4sig(Fo)  and  0.0450 for all     543 data
REM     54 parameters refined using      0 restraints

END

WGHT      0.0552      0.0000

REM Highest difference peak  0.241,  deepest hole -0.445,  1-sigma level  0.072
Q1    1   0.1477  0.2500  0.2632  10.50000  0.05    0.24
Q2    1  -0.1154  0.2500  0.5351  10.50000  0.05    0.22
Q3    1   0.7827  0.2500  0.1963  10.50000  0.05    0.21
Q4    1   0.4731  0.1538  1.0847  11.00000  0.05    0.20
Q5    1   0.5905  0.2500  1.1054  10.50000  0.05    0.19
Q6    1   0.2828  0.2500  0.1787  10.50000  0.05    0.19
Q7    1   0.6368  0.2500  0.4949  10.50000  0.05    0.17
Q8    1  -0.0563  0.2500  0.7732  10.50000  0.05    0.17
Q9    1   0.5246  0.1837  0.1736  11.00000  0.05    0.17
Q10   1   0.6572  0.1797  0.4606  11.00000  0.05    0.16
Q11   1   0.3449  0.2500  1.1054  10.50000  0.05    0.16
Q12   1  -0.1504  0.2500  0.4399  10.50000  0.05    0.15
Q13   1   0.6983  0.1565  0.4344  11.00000  0.05    0.15
Q14   1   0.6716  0.2500  0.9786  10.50000  0.05    0.15
Q15   1   0.8060  0.1740  0.4398  11.00000  0.05    0.15
Q16   1   0.2784  0.2500  1.0411  10.50000  0.05    0.15
Q17   1   0.1045  0.2500  0.8413  10.50000  0.05    0.14
Q18   1   1.2065  0.2500  0.1348  10.50000  0.05    0.14
Q19   1   0.1236  0.0960  0.3165  11.00000  0.05    0.14
Q20   1   0.0327  0.1859  0.3626  11.00000  0.05    0.14
Q21   1   0.0601  0.1537  0.7025  11.00000  0.05    0.14
Q22   1   0.8704  0.1081  0.7644  11.00000  0.05    0.13
Q23   1   0.6715  0.2500  0.7417  10.50000  0.05    0.13
Q24   1   0.0350  0.1038  0.8336  11.00000  0.05    0.13
Q25   1   0.6420 -0.0743  0.8232  11.00000  0.05    0.12
Q26   1   0.0396  0.1754  0.5982  11.00000  0.05    0.12
Q27   1  -0.1156  0.2500  0.6630  10.50000  0.05    0.12
Q28   1  -0.2273  0.0844  0.5478  11.00000  0.05    0.12
Q29   1   0.8093  0.2500  0.8410  10.50000  0.05    0.12
Q30   1   0.9490  0.2500  0.1367  10.50000  0.05    0.12
Q31   1   0.3809  0.0996  0.9755  11.00000  0.05    0.11
Q32   1   0.8051  0.0663  0.6641  11.00000  0.05    0.11
Q33   1   0.6795  0.1870  0.5810  11.00000  0.05    0.11
Q34   1   0.0196  0.2500  0.4890  10.50000  0.05    0.10
Q35   1   0.6378  0.0085  0.9355  11.00000  0.05    0.10
Q36   1   0.7080  0.1051  0.8818  11.00000  0.05    0.09
Q37   1   0.6214  0.2500  0.3753  10.50000  0.05    0.09
Q38   1   0.2482  0.1069  1.0594  11.00000  0.05    0.09
Q39   1  -0.0313  0.2500  0.9176  10.50000  0.05    0.09
Q40   1  -0.1070 -0.0342  0.8023  11.00000  0.05    0.09
Q41   1   0.1697  0.1446  1.0598  11.00000  0.05    0.08
Q42   1  -0.0880  0.0805  0.4997  11.00000  0.05    0.08
Q43   1   0.8245  0.0356  0.8689  11.00000  0.05    0.07
Q44   1  -0.0761  0.1076  0.3636  11.00000  0.05    0.07
Q45   1   0.8293  0.1039  0.3224  11.00000  0.05    0.07
Q46   1   0.5648  0.0843  0.5643  11.00000  0.05    0.06
Q47   1   0.5281 -0.0058  0.8390  11.00000  0.05    0.06
Q48   1  -0.1366  0.0471  0.9562  11.00000  0.05    0.06
Q49   1   0.1944 -0.0344  1.0260  11.00000  0.05    0.06
Q50   1   0.6764  0.0119  0.6187  11.00000  0.05    0.06
;
_shelx_res_checksum              23860
loop_
_space_group_symop_operation_xyz
'x, y, z'
'-x, y+1/2, -z'
'-x, -y, -z'
'x, -y-1/2, z'
loop_
_atom_site_label
_atom_site_type_symbol
_atom_site_fract_x
_atom_site_fract_y
_atom_site_fract_z
_atom_site_U_iso_or_equiv
_atom_site_adp_type
_atom_site_occupancy
_atom_site_site_symmetry_order
_atom_site_calc_flag
_atom_site_refinement_flags_posn
_atom_site_refinement_flags_adp
_atom_site_refinement_flags_occupancy
H1A H 0.528(7) 0.2500 0.470(4) 0.029(8) Uiso 1 2 d S . P
H1B H 0.224(8) 0.2500 0.373(4) 0.042(9) Uiso 1 2 d S . P
H2B H 0.454(10) 0.2500 0.965(6) 0.071(13) Uiso 1 2 d S . P
H2C H 0.186(5) 0.136(4) 0.869(3) 0.051(7) Uiso 1 1 d . . .
H2A H 0.571(5) 0.120(4) 0.751(3) 0.049(6) Uiso 1 1 d . . .
Cl1 Cl 0.87799(15) 0.2500 0.12754(9) 0.0410(3) Uani 1 2 d S T P
N2 N 0.3004(6) 0.2500 0.8706(3) 0.0326(6) Uani 1 2 d S T P
C2 C 0.4523(6) 0.2500 0.7400(4) 0.0345(7) Uani 1 2 d S T P
O1 O -0.0286(4) 0.2500 0.5908(3) 0.0429(6) Uani 1 2 d S T P
N1 N 0.3454(5) 0.2500 0.4649(3) 0.0338(6) Uani 1 2 d S T P
C1 C 0.2336(5) 0.2500 0.5899(3) 0.0286(6) Uani 1 2 d S T P
loop_
_atom_site_aniso_label
_atom_site_aniso_U_11
_atom_site_aniso_U_22
_atom_site_aniso_U_33
_atom_site_aniso_U_23
_atom_site_aniso_U_13
_atom_site_aniso_U_12
Cl1 0.0457(5) 0.0379(5) 0.0336(5) 0.000 -0.0059(3) 0.000
N2 0.0311(12) 0.0373(14) 0.0284(14) 0.000 0.0030(11) 0.000
C2 0.0264(13) 0.0445(16) 0.0307(16) 0.000 0.0010(12) 0.000
O1 0.0201(9) 0.0676(14) 0.0388(13) 0.000 0.0007(9) 0.000
N1 0.0233(12) 0.0458(15) 0.0295(15) 0.000 -0.0010(11) 0.000
C1 0.0248(13) 0.0282(13) 0.0308(15) 0.000 0.0005(11) 0.000
loop_
_atom_type_symbol
_atom_type_description
_atom_type_scat_dispersion_real
_atom_type_scat_dispersion_imag
_atom_type_scat_source
C C 0.0033 0.0016 'International Tables Vol C Tables 4.2.6.8 and 6.1.1.4'
H H 0.0000 0.0000 'International Tables Vol C Tables 4.2.6.8 and 6.1.1.4'
N N 0.0061 0.0033 'International Tables Vol C Tables 4.2.6.8 and 6.1.1.4'
O O 0.0106 0.0060 'International Tables Vol C Tables 4.2.6.8 and 6.1.1.4'
Cl Cl 0.1484 0.1585 'International Tables Vol C Tables 4.2.6.8 and 6.1.1.4'
loop_
_geom_angle_atom_site_label_1
_geom_angle_atom_site_label_2
_geom_angle_atom_site_label_3
_geom_angle
N2 C2 C1 110.4(2)
O1 C1 N1 124.7(3)
O1 C1 C2 119.6(3)
N1 C1 C2 115.7(2)
loop_
_geom_bond_atom_site_label_1
_geom_bond_atom_site_label_2
_geom_bond_distance
N2 C2 1.477(4)
C2 C1 1.511(4)
O1 C1 1.226(3)
N1 C1 1.319(4)
