#------------------------------------------------------------------------------
#$Date: 2019-11-07 21:25:51 +0200 (Thu, 07 Nov 2019) $
#$Revision: 223508 $
#$URL: file:///home/coder/svn-repositories/cod/cif/7/23/42/7234213.cif $
#------------------------------------------------------------------------------
#
# This file is available in the Crystallography Open Database (COD),
# http://www.crystallography.net/
#
# All data on this site have been placed in the public domain by the
# contributors.
#
data_7234213
loop_
_publ_author_name
'Mandari\'c, Mirna'
'Prugove\<cki, Biserka'
'Cvijanovi\'c, Danijela'
'Vukovi\'c, Jelena Parlov'
'Lovri\'c, Jasna'
'Sko\<cibu\<si\'c, Mirjana'
'Od\<zak, Renata'
'Cindri\'c, Marina'
'Vrdoljak, Vi\<snja'
_publ_section_title
;
 Vapour- and solvent-mediated crystalline transformations in Mo(vi)
 hydrazone complexes controlled by noncovalent interactions
;
_journal_issue                   41
_journal_name_full               CrystEngComm
_journal_page_first              6281
_journal_paper_doi               10.1039/C9CE01273G
_journal_volume                  21
_journal_year                    2019
_chemical_formula_sum            'C14 H13 Mo N3 O6'
_chemical_formula_weight         415.21
_space_group_crystal_system      triclinic
_space_group_IT_number           2
_space_group_name_Hall           '-P 1'
_space_group_name_H-M_alt        'P -1'
_symmetry_space_group_name_Hall  '-P 1'
_symmetry_space_group_name_H-M   'P -1'
_atom_sites_solution_hydrogens   mixed
_audit_creation_method           SHELXL-2014
_audit_update_record
;
2019-07-29 deposited with the CCDC.    2019-09-27 downloaded from the CCDC.
;
_cell_angle_alpha                97.524(5)
_cell_angle_beta                 94.078(4)
_cell_angle_gamma                93.698(5)
_cell_formula_units_Z            2
_cell_length_a                   6.6377(4)
_cell_length_b                   10.1622(6)
_cell_length_c                   11.6931(6)
_cell_measurement_reflns_used    3423
_cell_measurement_temperature    293(2)
_cell_measurement_theta_max      28.955
_cell_measurement_theta_min      4.194
_cell_volume                     777.80(8)
_computing_cell_refinement
;
CrysAlisPro, Agilent Technologies,
Version 1.171.37.35 (release 13-08-2014 CrysAlis171 .NET)
(compiled Aug 13 2014,18:06:01)
;
_computing_data_collection
;
CrysAlisPro, Agilent Technologies,
Version 1.171.37.35 (release 13-08-2014 CrysAlis171 .NET)
(compiled Aug 13 2014,18:06:01)
;
_computing_data_reduction
;
CrysAlisPro, Agilent Technologies,
Version 1.171.37.35 (release 13-08-2014 CrysAlis171 .NET)
(compiled Aug 13 2014,18:06:01)
;
_computing_molecular_graphics    'MERCURY (C.F. Macrae et al , 2008)'
_computing_publication_material  'SHELXL-2017/1 (Sheldrick, 2017)'
_computing_structure_refinement  'SHELXL-2014 (Sheldrick, 2014)'
_computing_structure_solution    'SHELXS-2016/4 (Sheldrick, 2016)'
_diffrn_ambient_temperature      293(2)
_diffrn_measured_fraction_theta_full 0.991
_diffrn_measured_fraction_theta_max 0.993
_diffrn_measurement_device_type  'Xcalibur, Sapphire3'
_diffrn_measurement_method       '\w scans'
_diffrn_radiation_type           MoK\a
_diffrn_radiation_wavelength     0.71073
_diffrn_reflns_av_R_equivalents  0.0709
_diffrn_reflns_av_unetI/netI     0.0644
_diffrn_reflns_Laue_measured_fraction_full 0.991
_diffrn_reflns_Laue_measured_fraction_max 0.993
_diffrn_reflns_limit_h_max       8
_diffrn_reflns_limit_h_min       -8
_diffrn_reflns_limit_k_max       12
_diffrn_reflns_limit_k_min       -12
_diffrn_reflns_limit_l_max       14
_diffrn_reflns_limit_l_min       -14
_diffrn_reflns_number            12804
_diffrn_reflns_point_group_measured_fraction_full 0.991
_diffrn_reflns_point_group_measured_fraction_max 0.993
_diffrn_reflns_theta_full        25.242
_diffrn_reflns_theta_max         26.998
_diffrn_reflns_theta_min         4.302
_exptl_absorpt_coefficient_mu    0.880
_exptl_absorpt_correction_T_max  1.00000
_exptl_absorpt_correction_T_min  0.90699
_exptl_absorpt_correction_type   multi-scan
_exptl_crystal_colour            red
_exptl_crystal_density_diffrn    1.773
_exptl_crystal_description       prism
_exptl_crystal_F_000             416
_exptl_crystal_size_max          0.56
_exptl_crystal_size_mid          0.42
_exptl_crystal_size_min          0.20
_refine_diff_density_max         0.931
_refine_diff_density_min         -0.678
_refine_diff_density_rms         0.107
_refine_ls_extinction_method     none
_refine_ls_goodness_of_fit_ref   1.126
_refine_ls_hydrogen_treatment    mixed
_refine_ls_matrix_type           full
_refine_ls_number_parameters     223
_refine_ls_number_reflns         3364
_refine_ls_number_restraints     1
_refine_ls_restrained_S_all      1.125
_refine_ls_R_factor_all          0.0776
_refine_ls_R_factor_gt           0.0565
_refine_ls_shift/su_max          0.000
_refine_ls_shift/su_mean         0.000
_refine_ls_structure_factor_coef Fsqd
_refine_ls_weighting_details
'w=1/[\s^2^(Fo^2^)+(0.0576P)^2^+1.0896P] where P=(Fo^2^+2Fc^2^)/3'
_refine_ls_weighting_scheme      calc
_refine_ls_wR_factor_gt          0.1260
_refine_ls_wR_factor_ref         0.1319
_reflns_Friedel_coverage         0.000
_reflns_number_gt                2794
_reflns_number_total             3364
_reflns_threshold_expression     'I > 2\s(I)'
_cod_data_source_file            c9ce01273g2.cif
_cod_data_source_block           shelx_CCDC8
_cod_depositor_comments
'Adding full bibliography for 7234205--7234213.cif.'
_cod_database_code               7234213
_shelx_space_group_comment
;
The symmetry employed for this shelxl refinement is uniquely defined
by the following loop, which should always be used as a source of
symmetry information in preference to the above space-group names.
They are only intended as comments.
;
_shelxl_version_number           2014-3
_shelx_res_file
;
TITL exp_4511_a.res in P-1
CELL  0.71073   6.6377  10.1622  11.6931   97.524   94.078   93.698
ZERR     2.00   0.0004   0.0006   0.0006    0.005    0.004    0.005
LATT   1
SFAC  C    N    O    MO   H
UNIT  28   6    12   2    26
MERG   2
OMIT    -1.00  54.00
OMIT     2   0   1
OMIT     3   5   0
OMIT     1   4   0
OMIT     0   5   0
OMIT     5   4   0
OMIT    -3  -1   6
OMIT    -7   3   5
OMIT    -4   5   0
OMIT    -3  -6   1
DFIX  0.850 0.010 H2w O6
FMAP   2
PLAN  100
ACTA
LIST   4
L.S.  10
WGHT    0.057600    1.089600
FVAR       5.01504
MO1   4    0.873998    0.346238    0.286449    11.00000    0.02337    0.03258 =
         0.03814    0.00702    0.00010   -0.00228
O4    3    0.794354    0.174739    0.343223    11.00000    0.03452    0.02905 =
         0.05028    0.01023    0.00041   -0.00068
O2    3    0.946395    0.276114    0.158472    11.00000    0.03085    0.05313 =
         0.04840   -0.00112    0.00368   -0.00716
O1    3    1.091864    0.387872    0.372918    11.00000    0.03397    0.04680 =
         0.04648    0.00753   -0.00949   -0.00438
O3    3    0.813604    0.515797    0.243200    11.00000    0.02829    0.03584 =
         0.05891    0.01681   -0.00070   -0.00793
O6    3    0.713355    0.429800    0.447589    11.00000    0.05215    0.03849 =
         0.04123   -0.00058    0.00941   -0.01414
AFIX   7
H1W   5    0.663329    0.365280    0.478781    11.00000   -1.50000
AFIX   0
N1    2    0.546896    0.299385    0.236127    11.00000    0.02444    0.03188 =
         0.03653    0.00481    0.00490   -0.00256
N2    2    0.469953    0.173483    0.258786    11.00000    0.03248    0.03403 =
         0.04593    0.00794    0.00301   -0.00593
O15   3    0.571548    0.867500    0.053778    11.00000    0.06879    0.04387 =
         0.06644    0.02335    0.00648    0.00998
N3    2    0.474258   -0.255109    0.428442    11.00000    0.09090    0.03531 =
         0.04709    0.00495    0.01838   -0.00026
C8    1    0.466920    0.500016    0.163992    11.00000    0.02916    0.03820 =
         0.03350    0.00102    0.00729    0.00221
C1    1    0.419467    0.369302    0.191614    11.00000    0.02407    0.03858 =
         0.03802    0.00372    0.00557   -0.00280
AFIX  43
H1    5    0.286465    0.333261    0.175892    11.00000   -1.20000
AFIX   0
C13   1    0.661519    0.567233    0.186143    11.00000    0.02950    0.03347 =
         0.03519    0.00656    0.00497    0.00270
C2    1    0.609154    0.118119    0.313305    11.00000    0.03648    0.03039 =
         0.03279   -0.00020    0.00529   -0.00089
C12   1    0.701326    0.689575    0.148914    11.00000    0.04220    0.03226 =
         0.03749    0.00613    0.00606    0.00179
AFIX  43
H12   5    0.831125    0.731699    0.161198    11.00000   -1.20000
AFIX   0
C11   1    0.547960    0.748725    0.093593    11.00000    0.05337    0.03672 =
         0.03837    0.00872    0.00766    0.00907
C7    1    0.371095   -0.079638    0.327661    11.00000    0.05644    0.04090 =
         0.05358    0.00504    0.01203   -0.01207
AFIX  43
H7    5    0.269008   -0.043455    0.285903    11.00000   -1.20000
AFIX   0
C3    1    0.565147   -0.014452    0.348673    11.00000    0.04787    0.03157 =
         0.03825    0.00157    0.01207   -0.00069
C9    1    0.316456    0.565539    0.108343    11.00000    0.03349    0.04189 =
         0.04379    0.00265    0.00092    0.00363
AFIX  43
H9    5    0.186349    0.524060    0.094597    11.00000   -1.20000
AFIX   0
C10   1    0.351873    0.685460    0.074034    11.00000    0.04909    0.04623 =
         0.04892    0.00627   -0.00532    0.01168
AFIX  43
H10   5    0.247966    0.725967    0.037849    11.00000   -1.20000
AFIX   0
C4    1    0.710306   -0.076827    0.406294    11.00000    0.05542    0.03616 =
         0.04804    0.00704    0.00751    0.00081
AFIX  43
H4    5    0.842779   -0.039140    0.418849    11.00000   -1.20000
AFIX   0
C6    1    0.334758   -0.197027    0.369549    11.00000    0.07806    0.05411 =
         0.05481   -0.00523    0.01592   -0.02699
AFIX  43
H6    5    0.204908   -0.238957    0.356186    11.00000   -1.20000
AFIX   0
C5    1    0.658912   -0.195053    0.445259    11.00000    0.07494    0.04709 =
         0.05478    0.01138    0.01414    0.00599
AFIX  43
H5    5    0.758701   -0.234989    0.485472    11.00000   -1.20000
AFIX   0
C14   1    0.768393    0.931017    0.057202    11.00000    0.07611    0.05086 =
         0.07983    0.02461    0.01448   -0.00122
AFIX 137
H14A  5    0.852611    0.873745    0.013094    11.00000   -1.50000
H14B  5    0.825042    0.949569    0.135981    11.00000   -1.50000
H14C  5    0.761068    1.012829    0.024853    11.00000   -1.50000
AFIX   0
H2W   5    0.768709    0.493455    0.495781    11.00000    0.05792
HKLF    4

REM  exp_4511_a.res in P-1
REM R1 =  0.0565 for    2794 Fo > 4sig(Fo)  and  0.0776 for all    3364 data
REM    223 parameters refined using      1 restraints

END

WGHT      0.0587      1.0621

REM Highest difference peak  0.931,  deepest hole -0.678,  1-sigma level  0.107
Q1    1   0.8783  0.2737  0.2202  11.00000  0.05    0.93
Q2    1   0.8644  0.4321  0.2573  11.00000  0.05    0.89
Q3    1   0.8702  0.3989  0.3539  11.00000  0.05    0.73
Q4    1   0.8625  0.5688  0.3274  11.00000  0.05    0.72
Q5    1   0.8671  0.3460  0.1116  11.00000  0.05    0.68
Q6    1   0.8910  0.3470  0.4550  11.00000  0.05    0.67
Q7    1   0.8919  0.1008  0.2387  11.00000  0.05    0.62
Q8    1   0.3827 -0.1238  0.1636  11.00000  0.05    0.51
Q9    1   0.8846  0.1241  0.4030  11.00000  0.05    0.46
Q10   1   0.8708  0.2177  0.3812  11.00000  0.05    0.43
Q11   1   0.3818  0.8805  0.0138  11.00000  0.05    0.43
Q12   1   0.9170  0.0934  0.4254  11.00000  0.05    0.42
Q13   1   0.8646  0.5494  0.1654  11.00000  0.05    0.41
Q14   1   0.8820  0.4569  0.4310  11.00000  0.05    0.39
Q15   1   0.6155  0.8982 -0.0541  11.00000  0.05    0.37
Q16   1   0.5949  0.2532  0.1773  11.00000  0.05    0.37
Q17   1   0.6305  0.7026  0.1001  11.00000  0.05    0.34
Q18   1   0.8636  0.5576  0.5070  11.00000  0.05    0.34
Q19   1   0.6780  0.6243  0.1562  11.00000  0.05    0.32
Q20   1   0.3856  0.1014  0.2276  11.00000  0.05    0.32
Q21   1   1.1044  0.3830  0.3102  11.00000  0.05    0.32
Q22   1   0.8961  0.2795  0.3244  11.00000  0.05    0.32
Q23   1   0.4690  0.4320  0.1568  11.00000  0.05    0.31
Q24   1   1.1390  0.2034  0.2449  11.00000  0.05    0.31
Q25   1   0.4582  0.2212  0.3188  11.00000  0.05    0.31
Q26   1   0.7257  0.7461  0.2014  11.00000  0.05    0.31
Q27   1   0.2616 -0.0028  0.2845  11.00000  0.05    0.31
Q28   1   0.5471  0.0880  0.2218  11.00000  0.05    0.30
Q29   1   1.0859  0.2768  0.3349  11.00000  0.05    0.30
Q30   1   0.6809  0.4083  0.3764  11.00000  0.05    0.30
Q31   1   1.2385  0.3934  0.3448  11.00000  0.05    0.29
Q32   1   0.6407  0.3206  0.2542  11.00000  0.05    0.28
Q33   1   1.1399  0.4180  0.4202  11.00000  0.05    0.28
Q34   1   0.5855  0.3977  0.3675  11.00000  0.05    0.27
Q35   1   0.5828  0.5570  0.4766  11.00000  0.05    0.27
Q36   1   0.1435 -0.3787  0.3237  11.00000  0.05    0.27
Q37   1   0.8994  0.2260  0.0580  11.00000  0.05    0.27
Q38   1   0.9316  0.2428  0.1427  11.00000  0.05    0.27
Q39   1   0.6392  0.0977  0.4606  11.00000  0.05    0.26
Q40   1   1.0506  0.4406  0.3258  11.00000  0.05    0.26
Q41   1   1.0589  0.4748  0.4185  11.00000  0.05    0.26
Q42   1   0.5615  0.2929  0.4877  11.00000  0.05    0.26
Q43   1   0.8804 -0.2731  0.3534  11.00000  0.05    0.26
Q44   1   0.9021  0.9073  0.0582  11.00000  0.05    0.25
Q45   1   0.1267 -0.3725  0.3932  11.00000  0.05    0.25
Q46   1   0.9207 -0.1391  0.3465  11.00000  0.05    0.25
Q47   1   0.1402 -0.0403  0.1757  11.00000  0.05    0.25
Q48   1   0.7801  0.7005  0.1330  11.00000  0.05    0.25
Q49   1   0.5682 -0.2776  0.2939  11.00000  0.05    0.25
Q50   1   0.1522  0.4451  0.0054  11.00000  0.05    0.24
Q51   1   0.8783  0.8063 -0.0618  11.00000  0.05    0.24
Q52   1   0.2800 -0.2836  0.2240  11.00000  0.05    0.24
Q53   1   0.9865  0.3827  0.3745  11.00000  0.05    0.24
Q54   1   0.8325  0.4640  0.1825  11.00000  0.05    0.24
Q55   1   0.7141  0.1688  0.3790  11.00000  0.05    0.24
Q56   1   0.2557  0.7164 -0.0651  11.00000  0.05    0.24
Q57   1   1.1019  0.2019  0.3334  11.00000  0.05    0.24
Q58   1   0.4606  0.3739  0.2846  11.00000  0.05    0.24
Q59   1   0.1895 -0.1812  0.4230  11.00000  0.05    0.24
Q60   1   0.1829  0.4512  0.0371  11.00000  0.05    0.24
Q61   1   0.3418  0.6728 -0.0191  11.00000  0.05    0.24
Q62   1   1.0508 -0.0924  0.4352  11.00000  0.05    0.24
Q63   1   0.8609  0.5663  0.2427  11.00000  0.05    0.24
Q64   1   0.5979  0.0610  0.2617  11.00000  0.05    0.23
Q65   1   1.0755  0.2790  0.1907  11.00000  0.05    0.23
Q66   1   0.1519  0.5442  0.1452  11.00000  0.05    0.23
Q67   1   0.6878 -0.1517  0.5927  11.00000  0.05    0.23
Q68   1   0.8740  0.1435  0.0934  11.00000  0.05    0.23
Q69   1   0.5469  0.9711  0.0435  11.00000  0.05    0.23
Q70   1   0.1301  0.3010  0.0983  11.00000  0.05    0.23
Q71   1   0.5368  0.8135 -0.0056  11.00000  0.05    0.23
Q72   1   0.4056  0.5206  0.1343  11.00000  0.05    0.23
Q73   1   0.3281  0.6034  0.0555  11.00000  0.05    0.23
Q74   1   0.7139  0.4176  0.2567  11.00000  0.05    0.22
Q75   1   0.3206  0.3480  0.1952  11.00000  0.05    0.22
Q76   1   0.7832  1.0382  0.0612  11.00000  0.05    0.22
Q77   1   0.1147 -0.3346  0.2848  11.00000  0.05    0.22
Q78   1   0.5043  0.9084 -0.0586  11.00000  0.05    0.22
Q79   1   0.8461  0.8249  0.2045  11.00000  0.05    0.22
Q80   1   0.1544  0.6406  0.2202  11.00000  0.05    0.22
Q81   1   0.5733  0.0546  0.3530  11.00000  0.05    0.22
Q82   1   0.9943  0.3984  0.1997  11.00000  0.05    0.22
Q83   1   0.6376 -0.0417  0.3582  11.00000  0.05    0.22
Q84   1   0.8911  0.8646  0.2178  11.00000  0.05    0.22
Q85   1   0.7794  1.0103  0.2500  11.00000  0.05    0.22
Q86   1   0.1158  0.5629  0.0223  11.00000  0.05    0.22
Q87   1   0.4032 -0.0836  0.2577  11.00000  0.05    0.22
Q88   1   0.4224  0.1675  0.1485  11.00000  0.05    0.22
Q89   1   0.7721  0.2347  0.3000  11.00000  0.05    0.22
Q90   1   0.2055  0.1649  0.1756  11.00000  0.05    0.22
Q91   1   1.0331  0.1660  0.1405  11.00000  0.05    0.22
Q92   1   0.3475  0.7562  0.1591  11.00000  0.05    0.21
Q93   1   0.2799 -0.2245  0.2611  11.00000  0.05    0.21
Q94   1   0.2046  0.8495  0.0772  11.00000  0.05    0.21
Q95   1   0.6010  0.4831  0.4204  11.00000  0.05    0.21
Q96   1  -0.0117 -0.2208  0.3147  11.00000  0.05    0.21
Q97   1   0.4703 -0.0266  0.3607  11.00000  0.05    0.21
Q98   1   0.5489  0.5396  0.1776  11.00000  0.05    0.21
Q99   1   0.2658  0.2162  0.1805  11.00000  0.05    0.21
Q100  1   0.0401  0.6300  0.0747  11.00000  0.05    0.21
;
_shelx_res_checksum              61955
loop_
_space_group_symop_operation_xyz
'x, y, z'
'-x, -y, -z'
loop_
_atom_site_label
_atom_site_type_symbol
_atom_site_fract_x
_atom_site_fract_y
_atom_site_fract_z
_atom_site_U_iso_or_equiv
_atom_site_adp_type
_atom_site_occupancy
_atom_site_site_symmetry_order
_atom_site_calc_flag
_atom_site_refinement_flags_posn
_atom_site_refinement_flags_adp
Mo1 Mo 0.87400(6) 0.34624(5) 0.28645(4) 0.03147(16) Uani 1 1 d . .
O4 O 0.7944(5) 0.1747(4) 0.3432(3) 0.0378(8) Uani 1 1 d . .
O2 O 0.9464(5) 0.2761(4) 0.1585(3) 0.0453(10) Uani 1 1 d . .
O1 O 1.0919(5) 0.3879(4) 0.3729(3) 0.0432(9) Uani 1 1 d . .
O3 O 0.8136(5) 0.5158(4) 0.2432(3) 0.0407(9) Uani 1 1 d . .
O6 O 0.7134(6) 0.4298(4) 0.4476(4) 0.0450(10) Uani 1 1 d D .
H1W H 0.6633 0.3653 0.4788 0.067 Uiso 1 1 d R U
N1 N 0.5469(6) 0.2994(4) 0.2361(4) 0.0310(9) Uani 1 1 d . .
N2 N 0.4700(6) 0.1735(4) 0.2588(4) 0.0376(10) Uani 1 1 d . .
O15 O 0.5715(7) 0.8675(4) 0.0538(4) 0.0580(12) Uani 1 1 d . .
N3 N 0.4743(10) -0.2551(5) 0.4284(5) 0.0574(15) Uani 1 1 d . .
C8 C 0.4669(7) 0.5000(5) 0.1640(4) 0.0337(11) Uani 1 1 d . .
C1 C 0.4195(7) 0.3693(5) 0.1916(4) 0.0338(11) Uani 1 1 d . .
H1 H 0.2865 0.3333 0.1759 0.041 Uiso 1 1 calc R U
C13 C 0.6615(7) 0.5672(5) 0.1861(4) 0.0324(11) Uani 1 1 d . .
C2 C 0.6092(8) 0.1181(5) 0.3133(4) 0.0336(11) Uani 1 1 d . .
C12 C 0.7013(8) 0.6896(5) 0.1489(5) 0.0371(12) Uani 1 1 d . .
H12 H 0.8311 0.7317 0.1612 0.045 Uiso 1 1 calc R U
C11 C 0.5480(9) 0.7487(6) 0.0936(5) 0.0421(13) Uani 1 1 d . .
C7 C 0.3711(10) -0.0796(6) 0.3277(6) 0.0508(15) Uani 1 1 d . .
H7 H 0.2690 -0.0435 0.2859 0.061 Uiso 1 1 calc R U
C3 C 0.5651(9) -0.0145(5) 0.3487(5) 0.0393(13) Uani 1 1 d . .
C9 C 0.3165(8) 0.5655(6) 0.1083(5) 0.0401(13) Uani 1 1 d . .
H9 H 0.1863 0.5241 0.0946 0.048 Uiso 1 1 calc R U
C10 C 0.3519(9) 0.6855(6) 0.0740(5) 0.0482(15) Uani 1 1 d . .
H10 H 0.2480 0.7260 0.0378 0.058 Uiso 1 1 calc R U
C4 C 0.7103(10) -0.0768(6) 0.4063(5) 0.0464(14) Uani 1 1 d . .
H4 H 0.8428 -0.0391 0.4188 0.056 Uiso 1 1 calc R U
C6 C 0.3348(12) -0.1970(7) 0.3695(6) 0.064(2) Uani 1 1 d . .
H6 H 0.2049 -0.2390 0.3562 0.077 Uiso 1 1 calc R U
C5 C 0.6589(12) -0.1951(7) 0.4453(6) 0.0580(17) Uani 1 1 d . .
H5 H 0.7587 -0.2350 0.4855 0.070 Uiso 1 1 calc R U
C14 C 0.7684(12) 0.9310(7) 0.0572(7) 0.067(2) Uani 1 1 d . .
H14A H 0.8526 0.8737 0.0131 0.101 Uiso 1 1 calc R U
H14B H 0.8250 0.9496 0.1360 0.101 Uiso 1 1 calc R U
H14C H 0.7611 1.0128 0.0249 0.101 Uiso 1 1 calc R U
H2W H 0.769(9) 0.493(5) 0.496(5) 0.06(2) Uiso 1 1 d D .
loop_
_atom_site_aniso_label
_atom_site_aniso_U_11
_atom_site_aniso_U_22
_atom_site_aniso_U_33
_atom_site_aniso_U_23
_atom_site_aniso_U_13
_atom_site_aniso_U_12
Mo1 0.0234(2) 0.0326(3) 0.0381(3) 0.00702(18) 0.00010(16) -0.00228(16)
O4 0.0345(19) 0.0290(19) 0.050(2) 0.0102(17) 0.0004(16) -0.0007(15)
O2 0.0309(19) 0.053(3) 0.048(2) -0.001(2) 0.0037(17) -0.0072(17)
O1 0.034(2) 0.047(2) 0.046(2) 0.0075(19) -0.0095(17) -0.0044(17)
O3 0.0283(18) 0.036(2) 0.059(2) 0.0168(18) -0.0007(17) -0.0079(15)
O6 0.052(2) 0.038(2) 0.041(2) -0.0006(19) 0.0094(19) -0.0141(19)
N1 0.024(2) 0.032(2) 0.037(2) 0.0048(19) 0.0049(17) -0.0026(17)
N2 0.032(2) 0.034(2) 0.046(3) 0.008(2) 0.003(2) -0.0059(19)
O15 0.069(3) 0.044(3) 0.066(3) 0.023(2) 0.006(2) 0.010(2)
N3 0.091(4) 0.035(3) 0.047(3) 0.005(2) 0.018(3) 0.000(3)
C8 0.029(2) 0.038(3) 0.034(3) 0.001(2) 0.007(2) 0.002(2)
C1 0.024(2) 0.039(3) 0.038(3) 0.004(2) 0.006(2) -0.003(2)
C13 0.029(2) 0.033(3) 0.035(3) 0.007(2) 0.005(2) 0.003(2)
C2 0.036(3) 0.030(3) 0.033(3) 0.000(2) 0.005(2) -0.001(2)
C12 0.042(3) 0.032(3) 0.037(3) 0.006(2) 0.006(2) 0.002(2)
C11 0.053(3) 0.037(3) 0.038(3) 0.009(2) 0.008(3) 0.009(3)
C7 0.056(4) 0.041(3) 0.054(4) 0.005(3) 0.012(3) -0.012(3)
C3 0.048(3) 0.032(3) 0.038(3) 0.002(2) 0.012(2) -0.001(2)
C9 0.033(3) 0.042(3) 0.044(3) 0.003(3) 0.001(2) 0.004(2)
C10 0.049(3) 0.046(4) 0.049(4) 0.006(3) -0.005(3) 0.012(3)
C4 0.055(4) 0.036(3) 0.048(3) 0.007(3) 0.008(3) 0.001(3)
C6 0.078(5) 0.054(4) 0.055(4) -0.005(3) 0.016(4) -0.027(4)
C5 0.075(5) 0.047(4) 0.055(4) 0.011(3) 0.014(4) 0.006(3)
C14 0.076(5) 0.051(4) 0.080(5) 0.025(4) 0.014(4) -0.001(4)
loop_
_atom_type_symbol
_atom_type_description
_atom_type_scat_dispersion_real
_atom_type_scat_dispersion_imag
_atom_type_scat_source
C C 0.0033 0.0016 'International Tables Vol C Tables 4.2.6.8 and 6.1.1.4'
N N 0.0061 0.0033 'International Tables Vol C Tables 4.2.6.8 and 6.1.1.4'
O O 0.0106 0.0060 'International Tables Vol C Tables 4.2.6.8 and 6.1.1.4'
Mo Mo -1.6832 0.6857 'International Tables Vol C Tables 4.2.6.8 and 6.1.1.4'
H H 0.0000 0.0000 'International Tables Vol C Tables 4.2.6.8 and 6.1.1.4'
loop_
_geom_angle_atom_site_label_1
_geom_angle_atom_site_label_2
_geom_angle_atom_site_label_3
_geom_angle
O2 Mo1 O1 105.56(19)
O2 Mo1 O3 98.37(19)
O1 Mo1 O3 101.16(17)
O2 Mo1 O4 95.69(18)
O1 Mo1 O4 98.29(17)
O3 Mo1 O4 151.91(15)
O2 Mo1 N1 94.11(16)
O1 Mo1 N1 159.23(18)
O3 Mo1 N1 82.10(15)
O4 Mo1 N1 72.71(15)
O2 Mo1 O6 169.26(16)
O1 Mo1 O6 85.09(17)
O3 Mo1 O6 80.63(16)
O4 Mo1 O6 81.06(15)
N1 Mo1 O6 75.15(15)
C2 O4 Mo1 118.8(3)
C13 O3 Mo1 137.6(3)
C1 N1 N2 115.7(4)
C1 N1 Mo1 129.6(4)
N2 N1 Mo1 114.7(3)
C2 N2 N1 109.5(4)
C11 O15 C14 119.1(5)
C5 N3 C6 117.3(6)
C9 C8 C13 117.0(5)
C9 C8 C1 119.4(5)
C13 C8 C1 123.5(5)
N1 C1 C8 124.2(5)
O3 C13 C12 117.7(5)
O3 C13 C8 121.7(5)
C12 C13 C8 120.5(5)
N2 C2 O4 123.6(5)
N2 C2 C3 120.0(5)
O4 C2 C3 116.4(5)
C11 C12 C13 119.8(5)
O15 C11 C12 124.3(6)
O15 C11 C10 115.2(5)
C12 C11 C10 120.5(5)
C6 C7 C3 118.7(7)
C4 C3 C7 117.3(6)
C4 C3 C2 121.6(5)
C7 C3 C2 121.1(5)
C10 C9 C8 123.0(5)
C9 C10 C11 119.1(6)
C5 C4 C3 119.6(6)
N3 C6 C7 123.7(7)
N3 C5 C4 123.2(7)
loop_
_geom_bond_atom_site_label_1
_geom_bond_atom_site_label_2
_geom_bond_distance
Mo1 O2 1.687(4)
Mo1 O1 1.701(3)
Mo1 O3 1.917(4)
Mo1 O4 1.998(4)
Mo1 N1 2.213(4)
Mo1 O6 2.322(4)
O4 C2 1.326(6)
O3 C13 1.342(6)
N1 C1 1.266(6)
N1 N2 1.411(6)
N2 C2 1.286(7)
O15 C11 1.353(7)
O15 C14 1.415(8)
N3 C5 1.323(9)
N3 C6 1.329(10)
C8 C9 1.404(7)
C8 C13 1.412(7)
C8 C1 1.429(7)
C13 C12 1.386(7)
C2 C3 1.478(7)
C12 C11 1.380(8)
C11 C10 1.404(8)
C7 C6 1.362(9)
C7 C3 1.400(8)
C3 C4 1.372(8)
C9 C10 1.344(8)
C4 C5 1.371(9)
