#------------------------------------------------------------------------------
#$Date: 2019-11-05 05:18:22 +0200 (Tue, 05 Nov 2019) $
#$Revision: 223271 $
#$URL: file:///home/coder/svn-repositories/cod/cif/7/23/49/7234956.cif $
#------------------------------------------------------------------------------
#
# This file is available in the Crystallography Open Database (COD),
# http://www.crystallography.net/
#
# All data on this site have been placed in the public domain by the
# contributors.
#
data_7234956
loop_
_publ_author_name
'Lopes, Gon\,calo'
'Gama, Vasco Pires Silva da'
'Sim\~ao, Dulce'
'Santos, Isabel Cordeiro'
'Branco Lopes, Elsa'
'Pereira, Laura C. J.'
'Almeida, Manuel'
'Raba\,ca, Sandra'
_publ_section_title
;
 Structural relations in (1:1) and (2:1) Cyanobenzene-Ethylenedithio-TTF
 radical salts; The role of C\\tb N&#x2026;H interactions.
;
_journal_name_full               CrystEngComm
_journal_paper_doi               10.1039/C9CE01214A
_journal_year                    2019
_chemical_formula_moiety         'C13 H7 N S6, Cl O4'
_chemical_formula_sum            'C13 H7 Cl N O4 S6'
_chemical_formula_weight         469.01
_space_group_crystal_system      triclinic
_space_group_IT_number           2
_space_group_name_Hall           '-P 1'
_space_group_name_H-M_alt        'P -1'
_atom_sites_solution_hydrogens   geom
_audit_creation_method           SHELXL-2014/7
_audit_update_record
;
2019-10-02 deposited with the CCDC.	2019-11-01 downloaded from the CCDC.
;
_cell_angle_alpha                84.939(2)
_cell_angle_beta                 82.003(2)
_cell_angle_gamma                84.714(2)
_cell_formula_units_Z            2
_cell_length_a                   8.5243(4)
_cell_length_b                   9.5290(5)
_cell_length_c                   10.5733(5)
_cell_measurement_reflns_used    2695
_cell_measurement_temperature    150(2)
_cell_measurement_theta_max      27.04
_cell_measurement_theta_min      2.79
_cell_volume                     844.40(7)
_computing_cell_refinement       'Bruker SAINT'
_computing_data_collection       'Bruker APEX2'
_computing_data_reduction        'Bruker SAINT'
_computing_molecular_graphics    'Mercury Macrae et al,2008)'
_computing_publication_material  'WinGX (Farrugia, 2012)'
_computing_structure_refinement  'SHELXL-2014 (Sheldrick 2015)'
_computing_structure_solution    'SHELXS-97 (Sheldrick 2008)'
_diffrn_ambient_temperature      150(2)
_diffrn_measured_fraction_theta_full 0.987
_diffrn_measured_fraction_theta_max 0.988
_diffrn_measurement_device_type  'Bruker APEX-II CCD'
_diffrn_measurement_method       '\f and \w scans'
_diffrn_radiation_type           MoK\a
_diffrn_radiation_wavelength     0.71073
_diffrn_reflns_av_R_equivalents  0.0402
_diffrn_reflns_av_unetI/netI     0.0571
_diffrn_reflns_Laue_measured_fraction_full 0.987
_diffrn_reflns_Laue_measured_fraction_max 0.988
_diffrn_reflns_limit_h_max       10
_diffrn_reflns_limit_h_min       -9
_diffrn_reflns_limit_k_max       11
_diffrn_reflns_limit_k_min       -11
_diffrn_reflns_limit_l_max       12
_diffrn_reflns_limit_l_min       -10
_diffrn_reflns_number            6264
_diffrn_reflns_point_group_measured_fraction_full 0.987
_diffrn_reflns_point_group_measured_fraction_max 0.988
_diffrn_reflns_theta_full        25.242
_diffrn_reflns_theta_max         25.677
_diffrn_reflns_theta_min         3.014
_diffrn_source                   'fine-focus sealed tube'
_exptl_absorpt_coefficient_mu    0.989
_exptl_absorpt_correction_T_max  0.9615
_exptl_absorpt_correction_T_min  0.9076
_exptl_absorpt_correction_type   multi-scan
_exptl_absorpt_process_details   SADABS
_exptl_crystal_colour            black
_exptl_crystal_density_diffrn    1.845
_exptl_crystal_description       prism
_exptl_crystal_F_000             474
_exptl_crystal_size_max          0.100
_exptl_crystal_size_mid          0.080
_exptl_crystal_size_min          0.040
_refine_diff_density_max         0.401
_refine_diff_density_min         -0.452
_refine_diff_density_rms         0.086
_refine_ls_extinction_method     none
_refine_ls_goodness_of_fit_ref   1.013
_refine_ls_hydrogen_treatment    constr
_refine_ls_matrix_type           full
_refine_ls_number_parameters     226
_refine_ls_number_reflns         3176
_refine_ls_number_restraints     0
_refine_ls_restrained_S_all      1.013
_refine_ls_R_factor_all          0.0472
_refine_ls_R_factor_gt           0.0354
_refine_ls_shift/su_max          0.000
_refine_ls_shift/su_mean         0.000
_refine_ls_structure_factor_coef Fsqd
_refine_ls_weighting_details
'w=1/[\s^2^(Fo^2^)+(0.0432P)^2^] where P=(Fo^2^+2Fc^2^)/3'
_refine_ls_weighting_scheme      calc
_refine_ls_wR_factor_gt          0.0874
_refine_ls_wR_factor_ref         0.0930
_reflns_Friedel_coverage         0.000
_reflns_number_gt                2556
_reflns_number_total             3176
_reflns_threshold_expression     'I > 2\s(I)'
_cod_data_source_file            c9ce01214a3.cif
_cod_data_source_block           GL39ClO4
_cod_database_code               7234956
_shelx_shelxl_version_number     2014/7
_shelx_space_group_comment
;
The symmetry employed for this shelxl refinement is uniquely defined
by the following loop, which should always be used as a source of
symmetry information in preference to the above space-group names.
They are only intended as comments.
;
_shelx_estimated_absorpt_t_min   0.908
_shelx_estimated_absorpt_t_max   0.962
_shelx_res_file
;

    shelx.res created by SHELXL-2014/7

TITL CL39P in P-1
CELL  0.71073   8.5243   9.5290  10.5733   84.939   82.003   84.714
ZERR     2.00   0.0004   0.0005   0.0005    0.002    0.002    0.002
LATT   1
SFAC  C    H    N    O    S    CL
UNIT  26 14 2 8 12 2
MERG   2
OMIT     0.00 180.00
shel 7 0.82
FMAP   2
PLAN   20
SIZE     0.040   0.080   0.100
ACTA
BOND   $H
L.S.   4
TEMP  -123.00
WGHT    0.043200
FVAR       0.15502
CL1   6    0.296684    0.664998    0.212253    11.00000    0.02319    0.02444 =
         0.01826   -0.00724   -0.00477    0.00508
S1    5   -0.098463    0.342679    0.082177    11.00000    0.02678    0.02292 =
         0.01348   -0.00294   -0.00559   -0.00091
S2    5   -0.248479    0.524878    0.355331    11.00000    0.02139    0.01743 =
         0.01857   -0.00279   -0.00292    0.00199
S3    5    0.082184    0.163708    0.259950    11.00000    0.01667    0.01960 =
         0.01305   -0.00468   -0.00051    0.00032
S4    5   -0.037940    0.314577    0.485110    11.00000    0.01721    0.01637 =
         0.01328   -0.00355   -0.00269    0.00048
S5    5    0.284242   -0.061451    0.432102    11.00000    0.01503    0.01515 =
         0.01570   -0.00492   -0.00051   -0.00098
S6    5    0.170187    0.099888    0.657275    11.00000    0.02155    0.01565 =
         0.01410   -0.00454   -0.00294    0.00104
O1    4    0.379042    0.659831    0.323106    11.00000    0.03841    0.04689 =
         0.02722   -0.01592   -0.01918    0.01953
O2    4    0.408976    0.664533    0.099387    11.00000    0.03069    0.07356 =
         0.02496   -0.01149    0.00454   -0.00769
O3    4    0.186966    0.788170    0.208603    11.00000    0.05127    0.04027 =
         0.03446   -0.01402   -0.02147    0.02532
O4    4    0.207384    0.542039    0.221115    11.00000    0.03761    0.03923 =
         0.05792   -0.00071   -0.00769   -0.01349
N1    3    0.273239    0.081337    0.980632    11.00000    0.05831    0.03302 =
         0.02290   -0.00431   -0.00626   -0.00320
C1    1   -0.247353    0.490446    0.097549    11.00000    0.02439    0.02131 =
         0.02089   -0.00084   -0.00728   -0.00118
AFIX  23
H1B   2   -0.251707    0.540825    0.011965    11.00000   -1.20000
H1A   2   -0.352230    0.453222    0.125928    11.00000   -1.20000
AFIX   0
C2    1   -0.220265    0.595887    0.189889    11.00000    0.02711    0.01563 =
         0.02124    0.00084   -0.00688   -0.00172
AFIX  23
H2B   2   -0.294635    0.680959    0.179497    11.00000   -1.20000
H2A   2   -0.110706    0.625246    0.168316    11.00000   -1.20000
AFIX   0
C3    1   -0.054639    0.308887    0.238728    11.00000    0.01303    0.01562 =
         0.01895   -0.00088   -0.00321   -0.00119
C4    1   -0.110596    0.378545    0.344928    11.00000    0.01422    0.01625 =
         0.01531   -0.00069   -0.00375   -0.00384
C5    1    0.081696    0.176906    0.421117    11.00000    0.01141    0.01455 =
         0.01373   -0.00393    0.00092   -0.00356
C6    1    0.170536    0.081362    0.495903    11.00000    0.01442    0.01428 =
         0.01026   -0.00403    0.00182   -0.00510
C7    1    0.367170   -0.117828    0.572618    11.00000    0.01173    0.01677 =
         0.02001   -0.00097   -0.00183   -0.00516
C8    1    0.313805   -0.039202    0.678339    11.00000    0.01478    0.01201 =
         0.01999   -0.00221   -0.00262   -0.00437
C9    1    0.478197   -0.233641    0.581988    11.00000    0.01429    0.01651 =
         0.02630   -0.00378   -0.00023   -0.00337
AFIX  43
H9    2    0.512513   -0.288159    0.510752    11.00000   -1.20000
AFIX   0
C10   1    0.375314   -0.075417    0.794180    11.00000    0.02350    0.01747 =
         0.01835   -0.00009   -0.00419   -0.00809
C11   1    0.537731   -0.267875    0.697348    11.00000    0.01485    0.01318 =
         0.03457    0.00360   -0.00542   -0.00262
AFIX  43
H11   2    0.613741   -0.346591    0.704625    11.00000   -1.20000
AFIX   0
C12   1    0.488758   -0.189845    0.801903    11.00000    0.02129    0.01872 =
         0.02557    0.00627   -0.00774   -0.00695
AFIX  43
H12   2    0.532637   -0.214310    0.879474    11.00000   -1.20000
AFIX   0
C13   1    0.319319    0.008723    0.901164    11.00000    0.03557    0.02376 =
         0.01965    0.00359   -0.00873   -0.00463
HKLF    4  1.0  1.00  0.00  0.00  0.00  1.00  0.00  0.00  0.00  1.00

REM  CL39P in P-1
REM R1 =  0.0354 for    2556 Fo > 4sig(Fo)  and  0.0472 for all    3176 data
REM    226 parameters refined using      0 restraints

END

WGHT      0.0432      0.0000

REM Highest difference peak  0.401,  deepest hole -0.452,  1-sigma level  0.086
Q1    1   0.2943  0.8121  0.1544  11.00000  0.05    0.40
Q2    1   0.4072  0.5821  0.1535  11.00000  0.05    0.39
Q3    1   0.3241 -0.0582  0.7399  11.00000  0.05    0.39
Q4    1   0.2208  0.0111  0.4600  11.00000  0.05    0.37
Q5    1  -0.1639  0.4669  0.3366  11.00000  0.05    0.36
Q6    1   0.0251  0.2508  0.2402  11.00000  0.05    0.35
Q7    1   0.0362  0.2414  0.4671  11.00000  0.05    0.34
Q8    1   0.3284 -0.1038  0.4994  11.00000  0.05    0.33
Q9    1  -0.2793  0.5040  0.0753  11.00000  0.05    0.32
Q10   1   0.4798 -0.2517  0.7652  11.00000  0.05    0.32
Q11   1   0.3549  0.6610  0.2706  11.00000  0.05    0.31
Q12   1  -0.3084  0.6520  0.1985  11.00000  0.05    0.30
Q13   1  -0.1367  0.2469  0.5018  11.00000  0.05    0.30
Q14   1   0.3504 -0.0455  0.8577  11.00000  0.05    0.29
Q15   1  -0.2185  0.5415  0.1416  11.00000  0.05    0.29
Q16   1   0.1077  0.1905  0.3440  11.00000  0.05    0.29
Q17   1   0.0931  0.1065  1.0712  11.00000  0.05    0.29
Q18   1   0.2459  0.0245  0.6835  11.00000  0.05    0.28
Q19   1   0.4966 -0.2487  0.9031  11.00000  0.05    0.28
Q20   1   0.7782 -0.3260  0.6924  11.00000  0.05    0.27
;
_shelx_res_checksum              99817
loop_
_space_group_symop_operation_xyz
'x, y, z'
'-x, -y, -z'
loop_
_atom_site_label
_atom_site_type_symbol
_atom_site_fract_x
_atom_site_fract_y
_atom_site_fract_z
_atom_site_U_iso_or_equiv
_atom_site_adp_type
_atom_site_occupancy
_atom_site_site_symmetry_order
_atom_site_calc_flag
_atom_site_refinement_flags_posn
_atom_site_refinement_flags_adp
Cl1 Cl 0.29668(8) 0.66500(7) 0.21225(6) 0.02187(18) Uani 1 1 d . .
S1 S -0.09846(9) 0.34268(7) 0.08218(6) 0.02076(18) Uani 1 1 d . .
S2 S -0.24848(9) 0.52488(7) 0.35533(7) 0.01924(18) Uani 1 1 d . .
S3 S 0.08218(8) 0.16371(7) 0.25995(6) 0.01649(17) Uani 1 1 d . .
S4 S -0.03794(8) 0.31458(7) 0.48511(6) 0.01553(17) Uani 1 1 d . .
S5 S 0.28424(8) -0.06145(7) 0.43210(6) 0.01523(17) Uani 1 1 d . .
S6 S 0.17019(9) 0.09989(7) 0.65728(6) 0.01700(17) Uani 1 1 d . .
O1 O 0.3790(3) 0.6598(2) 0.3231(2) 0.0367(6) Uani 1 1 d . .
O2 O 0.4090(3) 0.6645(3) 0.0994(2) 0.0432(6) Uani 1 1 d . .
O3 O 0.1870(3) 0.7882(2) 0.2086(2) 0.0416(6) Uani 1 1 d . .
O4 O 0.2074(3) 0.5420(3) 0.2211(2) 0.0443(6) Uani 1 1 d . .
N1 N 0.2732(4) 0.0813(3) 0.9806(3) 0.0379(7) Uani 1 1 d . .
C1 C -0.2474(4) 0.4904(3) 0.0975(3) 0.0219(7) Uani 1 1 d . .
H1B H -0.2517 0.5408 0.0120 0.026 Uiso 1 1 calc R U
H1A H -0.3522 0.4532 0.1259 0.026 Uiso 1 1 calc R U
C2 C -0.2203(4) 0.5959(3) 0.1899(3) 0.0211(6) Uani 1 1 d . .
H2B H -0.2946 0.6810 0.1795 0.025 Uiso 1 1 calc R U
H2A H -0.1107 0.6252 0.1683 0.025 Uiso 1 1 calc R U
C3 C -0.0546(3) 0.3089(3) 0.2387(3) 0.0158(6) Uani 1 1 d . .
C4 C -0.1106(3) 0.3785(3) 0.3449(2) 0.0150(6) Uani 1 1 d . .
C5 C 0.0817(3) 0.1769(3) 0.4211(2) 0.0132(5) Uani 1 1 d . .
C6 C 0.1705(3) 0.0814(3) 0.4959(2) 0.0129(6) Uani 1 1 d . .
C7 C 0.3672(3) -0.1178(3) 0.5726(3) 0.0160(6) Uani 1 1 d . .
C8 C 0.3138(3) -0.0392(3) 0.6783(3) 0.0153(6) Uani 1 1 d . .
C9 C 0.4782(3) -0.2336(3) 0.5820(3) 0.0190(6) Uani 1 1 d . .
H9 H 0.5125 -0.2882 0.5108 0.023 Uiso 1 1 calc R U
C10 C 0.3753(3) -0.0754(3) 0.7942(3) 0.0193(6) Uani 1 1 d . .
C11 C 0.5377(3) -0.2679(3) 0.6973(3) 0.0209(6) Uani 1 1 d . .
H11 H 0.6137 -0.3466 0.7046 0.025 Uiso 1 1 calc R U
C12 C 0.4888(3) -0.1898(3) 0.8019(3) 0.0216(7) Uani 1 1 d . .
H12 H 0.5326 -0.2143 0.8795 0.026 Uiso 1 1 calc R U
C13 C 0.3193(4) 0.0087(3) 0.9012(3) 0.0260(7) Uani 1 1 d . .
loop_
_atom_site_aniso_label
_atom_site_aniso_U_11
_atom_site_aniso_U_22
_atom_site_aniso_U_33
_atom_site_aniso_U_23
_atom_site_aniso_U_13
_atom_site_aniso_U_12
Cl1 0.0232(4) 0.0244(4) 0.0183(4) -0.0072(3) -0.0048(3) 0.0051(3)
S1 0.0268(4) 0.0229(4) 0.0135(4) -0.0029(3) -0.0056(3) -0.0009(3)
S2 0.0214(4) 0.0174(4) 0.0186(4) -0.0028(3) -0.0029(3) 0.0020(3)
S3 0.0167(4) 0.0196(4) 0.0131(3) -0.0047(3) -0.0005(3) 0.0003(3)
S4 0.0172(4) 0.0164(3) 0.0133(3) -0.0035(3) -0.0027(3) 0.0005(3)
S5 0.0150(4) 0.0151(3) 0.0157(3) -0.0049(3) -0.0005(3) -0.0010(3)
S6 0.0216(4) 0.0157(3) 0.0141(3) -0.0045(3) -0.0029(3) 0.0010(3)
O1 0.0384(14) 0.0469(14) 0.0272(12) -0.0159(11) -0.0192(11) 0.0195(11)
O2 0.0307(14) 0.0736(18) 0.0250(12) -0.0115(12) 0.0045(10) -0.0077(13)
O3 0.0513(16) 0.0403(14) 0.0345(13) -0.0140(11) -0.0215(12) 0.0253(12)
O4 0.0376(15) 0.0392(14) 0.0579(16) -0.0007(12) -0.0077(13) -0.0135(12)
N1 0.058(2) 0.0330(16) 0.0229(15) -0.0043(13) -0.0063(14) -0.0032(15)
C1 0.0244(17) 0.0213(15) 0.0209(15) -0.0008(12) -0.0073(13) -0.0012(13)
C2 0.0271(17) 0.0156(14) 0.0212(15) 0.0008(11) -0.0069(13) -0.0017(12)
C3 0.0130(14) 0.0156(13) 0.0189(14) -0.0009(11) -0.0032(11) -0.0012(11)
C4 0.0142(14) 0.0163(13) 0.0153(14) -0.0007(11) -0.0038(11) -0.0038(11)
C5 0.0114(14) 0.0146(13) 0.0137(13) -0.0039(10) 0.0009(10) -0.0036(11)
C6 0.0144(14) 0.0143(13) 0.0103(13) -0.0040(10) 0.0018(10) -0.0051(11)
C7 0.0117(14) 0.0168(14) 0.0200(14) -0.0010(11) -0.0018(11) -0.0052(11)
C8 0.0148(15) 0.0120(13) 0.0200(14) -0.0022(11) -0.0026(11) -0.0044(11)
C9 0.0143(15) 0.0165(14) 0.0263(15) -0.0038(12) -0.0002(12) -0.0034(11)
C10 0.0235(16) 0.0175(14) 0.0183(15) -0.0001(11) -0.0042(12) -0.0081(12)
C11 0.0149(15) 0.0132(14) 0.0346(17) 0.0036(12) -0.0054(13) -0.0026(11)
C12 0.0213(16) 0.0187(15) 0.0256(16) 0.0063(12) -0.0077(13) -0.0069(12)
C13 0.0356(19) 0.0238(16) 0.0197(16) 0.0036(13) -0.0087(14) -0.0046(14)
loop_
_atom_type_symbol
_atom_type_description
_atom_type_scat_dispersion_real
_atom_type_scat_dispersion_imag
_atom_type_scat_source
C C 0.0033 0.0016 'International Tables Vol C Tables 4.2.6.8 and 6.1.1.4'
H H 0.0000 0.0000 'International Tables Vol C Tables 4.2.6.8 and 6.1.1.4'
N N 0.0061 0.0033 'International Tables Vol C Tables 4.2.6.8 and 6.1.1.4'
O O 0.0106 0.0060 'International Tables Vol C Tables 4.2.6.8 and 6.1.1.4'
S S 0.1246 0.1234 'International Tables Vol C Tables 4.2.6.8 and 6.1.1.4'
Cl Cl 0.1484 0.1585 'International Tables Vol C Tables 4.2.6.8 and 6.1.1.4'
loop_
_geom_angle_atom_site_label_1
_geom_angle_atom_site_label_2
_geom_angle_atom_site_label_3
_geom_angle
O2 Cl1 O3 110.81(15)
O2 Cl1 O1 109.56(14)
O3 Cl1 O1 110.21(13)
O2 Cl1 O4 109.22(15)
O3 Cl1 O4 108.09(15)
O1 Cl1 O4 108.92(14)
C3 S1 C1 101.99(13)
C4 S2 C2 99.26(13)
C5 S3 C3 95.52(13)
C5 S4 C4 96.08(13)
C6 S5 C7 95.02(13)
C6 S6 C8 94.90(13)
C2 C1 S1 115.07(19)
C2 C1 H1B 108.5
S1 C1 H1B 108.5
C2 C1 H1A 108.5
S1 C1 H1A 108.5
H1B C1 H1A 107.5
C1 C2 S2 112.64(19)
C1 C2 H2B 109.1
S2 C2 H2B 109.1
C1 C2 H2A 109.1
S2 C2 H2A 109.1
H2B C2 H2A 107.8
C4 C3 S1 129.7(2)
C4 C3 S3 116.15(19)
S1 C3 S3 114.10(16)
C3 C4 S4 116.6(2)
C3 C4 S2 127.1(2)
S4 C4 S2 116.20(16)
C6 C5 S4 121.8(2)
C6 C5 S3 122.6(2)
S4 C5 S3 115.59(15)
C5 C6 S5 121.5(2)
C5 C6 S6 121.3(2)
S5 C6 S6 117.13(15)
C9 C7 C8 120.7(2)
C9 C7 S5 123.5(2)
C8 C7 S5 115.8(2)
C7 C8 C10 119.7(3)
C7 C8 S6 116.84(19)
C10 C8 S6 123.4(2)
C11 C9 C7 118.7(3)
C11 C9 H9 120.6
C7 C9 H9 120.6
C12 C10 C8 119.1(3)
C12 C10 C13 122.4(2)
C8 C10 C13 118.5(3)
C12 C11 C9 121.3(3)
C12 C11 H11 119.3
C9 C11 H11 119.3
C11 C12 C10 120.4(3)
C11 C12 H12 119.8
C10 C12 H12 119.8
N1 C13 C10 176.1(3)
loop_
_geom_bond_atom_site_label_1
_geom_bond_atom_site_label_2
_geom_bond_distance
Cl1 O2 1.422(2)
Cl1 O3 1.433(2)
Cl1 O1 1.443(2)
Cl1 O4 1.444(2)
S1 C3 1.743(3)
S1 C1 1.809(3)
S2 C4 1.740(3)
S2 C2 1.811(3)
S3 C5 1.719(3)
S3 C3 1.745(3)
S4 C5 1.714(3)
S4 C4 1.726(2)
S5 C6 1.727(3)
S5 C7 1.754(3)
S6 C6 1.730(3)
S6 C8 1.741(3)
N1 C13 1.140(4)
C1 C2 1.515(4)
C1 H1B 0.9900
C1 H1A 0.9900
C2 H2B 0.9900
C2 H2A 0.9900
C3 C4 1.361(4)
C5 C6 1.393(4)
C7 C9 1.392(4)
C7 C8 1.400(4)
C8 C10 1.402(4)
C9 C11 1.387(4)
C9 H9 0.9500
C10 C12 1.394(4)
C10 C13 1.446(4)
C11 C12 1.382(4)
C11 H11 0.9500
C12 H12 0.9500
