#------------------------------------------------------------------------------
#$Date: 2019-10-09 10:50:07 +0300 (Wed, 09 Oct 2019) $
#$Revision: 219196 $
#$URL: file:///home/coder/svn-repositories/cod/cif/7/23/44/7234492.cif $
#------------------------------------------------------------------------------
#
# This file is available in the Crystallography Open Database (COD),
# http://www.crystallography.net/
#
# All data on this site have been placed in the public domain by the
# contributors.
#
data_7234492
loop_
_publ_author_name
'Takaaki Hiramatsu'
'Yukihiro Yoshida'
'Gunzi Saito'
'Akihiro Otsuka'
'Hideki Yamochi'
'Yasuhiro Shimizu'
'Yuma Hattori'
'Yuto Nakamura'
'Hideo Kishida'
'Hiroshi Ito'
'Kaplan Kirakci'
'Stephane Cordier'
'Christiane Perrin'
_publ_section_title
;
 Spin frustration in antiperovskite systems: (TTF.+ or
 TSF.+)3[(Mo6X14)2-Y-]
;
_journal_name_full               'Journal of Materials Chemistry C'
_journal_page_first              11046
_journal_page_last               11054
_journal_paper_doi               10.1039/C5TC02075A
_journal_volume                  3
_journal_year                    2015
_chemical_formula_moiety
;
(C6 H4 Se4 1+) 3,Br1 1-,Br14 Mo6 2-
;
_chemical_formula_sum            'C18 H12 Br15 Mo6 Se12'
_chemical_formula_weight         2950.09
_chemical_name_common
; 
(TSF)3[(Mo6Br14)Br]
;
_space_group_IT_number           148
_space_group_name_Hall           '-P 3*'
_space_group_name_H-M_alt        'R -3 :R'
_symmetry_cell_setting           rhombohedral
_symmetry_Int_Tables_number      148
_symmetry_space_group_name_Hall  '-P 3*'
_symmetry_space_group_name_H-M   'R -3 :R'
_atom_sites_solution_hydrogens   geom
_atom_sites_solution_primary     direct
_atom_sites_solution_secondary   difmap
_cell_angle_alpha                102.0577(4)
_cell_angle_beta                 102.0577(4)
_cell_angle_gamma                102.0577(4)
_cell_formula_units_Z            1
_cell_length_a                   11.0988(9)
_cell_length_b                   11.0988(9)
_cell_length_c                   11.0988(9)
_cell_measurement_reflns_used    3486
_cell_measurement_temperature    100(2)
_cell_measurement_theta_max      28.12
_cell_measurement_theta_min      2.36
_cell_volume                     1261.12(18)
_computing_cell_refinement       'APEX2 (Bruker AXS, 2006)'
_computing_data_collection       'APEX2 '
_computing_data_reduction        'SAINT (Bruker AXS, 2004)'
_computing_publication_material
'Yadokari-XG 2009 (Wakita, Nemoto et al., 2009)'
_computing_structure_refinement  'SHELXL-97 (Sheldrick, 1997)'
_computing_structure_solution    'SHELXS-97 (Sheldrick, 1990)'
_diffrn_ambient_temperature      100(2)
_diffrn_detector_area_resol_mean 8.333
_diffrn_measured_fraction_theta_full 0.982
_diffrn_measured_fraction_theta_max 0.982
_diffrn_measurement_device_type  'Bruker APEXII CCD area detector'
_diffrn_measurement_method       'phi and omega scans'
_diffrn_radiation_monochromator  graphite
_diffrn_radiation_source         'fine-focus sealed tube'
_diffrn_radiation_type           MoK\a
_diffrn_radiation_wavelength     0.71073
_diffrn_reflns_av_R_equivalents  0.0195
_diffrn_reflns_av_sigmaI/netI    0.0189
_diffrn_reflns_limit_h_max       10
_diffrn_reflns_limit_h_min       -14
_diffrn_reflns_limit_k_max       12
_diffrn_reflns_limit_k_min       -14
_diffrn_reflns_limit_l_max       14
_diffrn_reflns_limit_l_min       -13
_diffrn_reflns_number            7072
_diffrn_reflns_theta_full        27.45
_diffrn_reflns_theta_max         27.45
_diffrn_reflns_theta_min         1.95
_exptl_absorpt_coefficient_mu    22.007
_exptl_absorpt_correction_T_max  0.3830
_exptl_absorpt_correction_T_min  0.2589
_exptl_absorpt_correction_type   numerical
_exptl_absorpt_process_details
;
 APEX2 Software
;
_exptl_crystal_colour            black
_exptl_crystal_density_diffrn    3.884
_exptl_crystal_density_method    'not measured'
_exptl_crystal_description       rhombohedral
_exptl_crystal_F_000             1305
_exptl_crystal_size_max          0.13
_exptl_crystal_size_mid          0.10
_exptl_crystal_size_min          0.05
_refine_diff_density_max         0.536
_refine_diff_density_min         -0.491
_refine_diff_density_rms         0.116
_refine_ls_extinction_method     none
_refine_ls_goodness_of_fit_ref   1.013
_refine_ls_hydrogen_treatment    constr
_refine_ls_matrix_type           full
_refine_ls_number_parameters     78
_refine_ls_number_reflns         1903
_refine_ls_number_restraints     0
_refine_ls_restrained_S_all      1.013
_refine_ls_R_factor_all          0.0258
_refine_ls_R_factor_gt           0.0203
_refine_ls_shift/su_max          0.001
_refine_ls_shift/su_mean         0.000
_refine_ls_structure_factor_coef Fsqd
_refine_ls_weighting_details
'calc w=1/[\s^2^(Fo^2^)+(0.0213P)^2^+1.4033P] where P=(Fo^2^+2Fc^2^)/3'
_refine_ls_weighting_scheme      calc
_refine_ls_wR_factor_gt          0.0395
_refine_ls_wR_factor_ref         0.0409
_reflns_number_gt                1707
_reflns_number_total             1903
_reflns_threshold_expression     >2sigma(I)
_cod_data_source_file            J-Mater-Chem-C-2015-3-11046.cif
_cod_data_source_block           TSF3_Mo6Br14_Br_100K
_cod_depositor_comments
;
The following automatic conversions were performed:

data item '_symmetry_cell_setting' value 'Rhombohedral' was changed
to 'rhombohedral' in accordance with the built-in table derived from
the CIF Core dictionary named 'cif_core.dic' version 2.4.5 last
updated on 2014-11-21.

Automatic conversion script
Id: cif_fix_values 6909 2019-04-08 15:41:33Z antanas 
;
_cod_original_sg_symbol_H-M      'R -3'
_cod_database_code               7234492
loop_
_symmetry_equiv_pos_as_xyz
'x, y, z'
'z, x, y'
'y, z, x'
'-x, -y, -z'
'-z, -x, -y'
'-y, -z, -x'
loop_
_atom_site_label
_atom_site_type_symbol
_atom_site_fract_x
_atom_site_fract_y
_atom_site_fract_z
_atom_site_U_iso_or_equiv
_atom_site_adp_type
_atom_site_occupancy
_atom_site_symmetry_multiplicity
_atom_site_calc_flag
_atom_site_refinement_flags
_atom_site_disorder_assembly
_atom_site_disorder_group
C1 C 0.5145(3) 0.4558(3) 0.0315(3) 0.0147(7) Uani 1 1 d . . .
C2 C 0.5517(4) 0.3177(4) 0.2035(4) 0.0213(8) Uani 1 1 d . . .
H2 H 0.5585 0.2863 0.2821 0.026 Uiso 1 1 calc R . .
C3 C 0.5688(3) 0.2484(4) 0.0982(4) 0.0196(8) Uani 1 1 d . . .
H3 H 0.5886 0.1644 0.0970 0.024 Uiso 1 1 calc R . .
Se1 Se 0.51501(4) 0.47456(3) 0.20300(3) 0.01796(9) Uani 1 1 d . . .
Se2 Se 0.55529(3) 0.30947(3) -0.04760(3) 0.01693(9) Uani 1 1 d . . .
Br1 Br -0.10309(3) 0.24499(3) 0.07423(3) 0.01361(8) Uani 1 1 d . . .
Br2 Br 0.21713(4) 0.21713(4) 0.21713(4) 0.01229(12) Uani 1 3 d S . .
Br3 Br -0.03353(3) 0.17135(3) 0.38805(3) 0.01661(9) Uani 1 1 d . . .
Mo1 Mo -0.01414(3) 0.07207(3) 0.16205(3) 0.01035(7) Uani 1 1 d . . .
Br4 Br 0.5000 0.5000 0.5000 0.01580(17) Uani 1 6 d S . .
loop_
_atom_site_aniso_label
_atom_site_aniso_U_11
_atom_site_aniso_U_22
_atom_site_aniso_U_33
_atom_site_aniso_U_23
_atom_site_aniso_U_13
_atom_site_aniso_U_12
C1 0.0129(17) 0.0142(17) 0.0145(17) 0.0019(13) 0.0043(13) -0.0006(13)
C2 0.023(2) 0.0197(19) 0.025(2) 0.0129(16) 0.0052(16) 0.0059(15)
C3 0.0182(18) 0.0220(19) 0.0195(19) 0.0097(15) 0.0043(15) 0.0035(15)
Se1 0.02232(19) 0.01913(19) 0.01505(18) 0.00556(14) 0.00747(14) 0.00744(15)
Se2 0.01985(19) 0.01467(18) 0.01803(18) 0.00436(14) 0.00786(14) 0.00536(14)
Br1 0.01338(17) 0.01106(16) 0.01529(17) 0.00131(13) 0.00277(13) 0.00406(12)
Br2 0.01139(13) 0.01139(13) 0.01139(13) 0.00109(15) 0.00109(15) 0.00109(15)
Br3 0.01709(18) 0.01718(18) 0.01348(17) 0.00006(13) 0.00580(13) 0.00228(14)
Mo1 0.00999(14) 0.01030(14) 0.00961(14) 0.00139(10) 0.00231(10) 0.00175(11)
Br4 0.0171(2) 0.0171(2) 0.0171(2) 0.0073(2) 0.0073(2) 0.0073(2)
loop_
_atom_type_symbol
_atom_type_description
_atom_type_scat_dispersion_real
_atom_type_scat_dispersion_imag
_atom_type_scat_source
C C 0.0033 0.0016 'International Tables Vol C Tables 4.2.6.8 and 6.1.1.4'
H H 0.0000 0.0000 'International Tables Vol C Tables 4.2.6.8 and 6.1.1.4'
Se Se -0.0929 2.2259 'International Tables Vol C Tables 4.2.6.8 and 6.1.1.4'
Br Br -0.2901 2.4595 'International Tables Vol C Tables 4.2.6.8 and 6.1.1.4'
Mo Mo -1.6832 0.6857 'International Tables Vol C Tables 4.2.6.8 and 6.1.1.4'
loop_
_geom_angle_atom_site_label_1
_geom_angle_atom_site_label_2
_geom_angle_atom_site_label_3
_geom_angle
_geom_angle_site_symmetry_1
_geom_angle_site_symmetry_3
C1 C1 Se2 122.6(4) 4_665 .
C1 C1 Se1 121.7(4) 4_665 .
Se2 C1 Se1 115.76(18) . .
C3 C2 Se1 119.3(3) . .
C3 C2 H2 120.3 . .
Se1 C2 H2 120.3 . .
C2 C3 Se2 119.4(3) . .
C2 C3 H3 120.3 . .
Se2 C3 H3 120.3 . .
C2 Se1 C1 92.71(16) . .
C1 Se2 C3 92.67(16) . .
Mo1 Br1 Mo1 60.916(13) 5 3
Mo1 Br1 Mo1 60.859(13) 5 .
Mo1 Br1 Mo1 60.819(14) 3 .
Mo1 Br2 Mo1 60.850(15) 2 .
Mo1 Br2 Mo1 60.850(15) 2 3
Mo1 Br2 Mo1 60.851(15) . 3
Br3 Mo1 Br1 90.408(13) . 6
Br3 Mo1 Br1 90.196(14) . 2
Br1 Mo1 Br1 89.941(11) 6 2
Br3 Mo1 Br2 90.556(13) . .
Br1 Mo1 Br2 179.032(16) 6 .
Br1 Mo1 Br2 90.147(11) 2 .
Br3 Mo1 Br1 90.952(14) . .
Br1 Mo1 Br1 89.845(11) 6 .
Br1 Mo1 Br1 178.834(16) 2 .
Br2 Mo1 Br1 90.048(11) . .
Br3 Mo1 Mo1 134.805(14) . 2
Br1 Mo1 Mo1 119.695(11) 6 2
Br1 Mo1 Mo1 59.676(14) 2 2
Br2 Mo1 Mo1 59.574(8) . 2
Br1 Mo1 Mo1 119.505(14) . 2
Br3 Mo1 Mo1 135.243(14) . 3
Br1 Mo1 Mo1 119.583(11) 6 3
Br1 Mo1 Mo1 119.674(14) 2 3
Br2 Mo1 Mo1 59.575(8) . 3
Br1 Mo1 Mo1 59.507(14) . 3
Mo1 Mo1 Mo1 60.0 2 3
Br3 Mo1 Mo1 134.756(14) . 6
Br1 Mo1 Mo1 59.685(13) 6 6
Br1 Mo1 Mo1 59.509(10) 2 6
Br2 Mo1 Mo1 119.584(10) . 6
Br1 Mo1 Mo1 119.435(14) . 6
Mo1 Mo1 Mo1 60.011(7) 2 6
Mo1 Mo1 Mo1 90.0 3 6
Br3 Mo1 Mo1 135.194(14) . 5
Br1 Mo1 Mo1 59.575(13) 6 5
Br1 Mo1 Mo1 119.491(14) 2 5
Br2 Mo1 Mo1 119.582(10) . 5
Br1 Mo1 Mo1 59.454(10) . 5
Mo1 Mo1 Mo1 90.000(1) 2 5
Mo1 Mo1 Mo1 60.008(7) 3 5
Mo1 Mo1 Mo1 59.982(14) 6 5
loop_
_geom_bond_atom_site_label_1
_geom_bond_atom_site_label_2
_geom_bond_distance
_geom_bond_site_symmetry_2
C1 C1 1.370(7) 4_665
C1 Se2 1.868(4) .
C1 Se1 1.870(3) .
C2 C3 1.331(5) .
C2 Se1 1.870(4) .
C2 H2 1.0000 .
C3 Se2 1.871(4) .
C3 H3 1.0000 .
Br1 Mo1 2.5975(5) 5
Br1 Mo1 2.5992(5) 3
Br1 Mo1 2.6037(5) .
Br2 Mo1 2.6002(6) 2
Br2 Mo1 2.6002(6) .
Br2 Mo1 2.6002(6) 3
Br3 Mo1 2.5927(5) .
Mo1 Br1 2.5974(5) 6
Mo1 Br1 2.5992(5) 2
Mo1 Mo1 2.6335(5) 2
Mo1 Mo1 2.6336(5) 3
Mo1 Mo1 2.6342(5) 6
Mo1 Mo1 2.6343(5) 5
loop_
_geom_torsion_atom_site_label_1
_geom_torsion_atom_site_label_2
_geom_torsion_atom_site_label_3
_geom_torsion_atom_site_label_4
_geom_torsion
_geom_torsion_site_symmetry_1
_geom_torsion_site_symmetry_2
_geom_torsion_site_symmetry_3
_geom_torsion_site_symmetry_4
Se1 C2 C3 Se2 -0.1(4) . . . .
C3 C2 Se1 C1 1.8(3) . . . .
C1 C1 Se1 C2 176.9(4) 4_665 . . .
Se2 C1 Se1 C2 -2.9(2) . . . .
C1 C1 Se2 C3 -176.9(4) 4_665 . . .
Se1 C1 Se2 C3 2.9(2) . . . .
C2 C3 Se2 C1 -1.7(3) . . . .
Mo1 Br2 Mo1 Br3 144.251(18) 2 . . .
Mo1 Br2 Mo1 Br3 -144.869(18) 3 . . .
Mo1 Br2 Mo1 Br1 -41.2(9) 2 . . 6
Mo1 Br2 Mo1 Br1 29.7(9) 3 . . 6
Mo1 Br2 Mo1 Br1 54.053(14) 2 . . 2
Mo1 Br2 Mo1 Br1 124.933(12) 3 . . 2
Mo1 Br2 Mo1 Br1 -124.797(12) 2 . . .
Mo1 Br2 Mo1 Br1 -53.917(14) 3 . . .
Mo1 Br2 Mo1 Mo1 70.880(6) 3 . . 2
Mo1 Br2 Mo1 Mo1 -70.880(6) 2 . . 3
Mo1 Br2 Mo1 Mo1 -0.355(8) 2 . . 6
Mo1 Br2 Mo1 Mo1 70.525(6) 3 . . 6
Mo1 Br2 Mo1 Mo1 -70.525(6) 2 . . 5
Mo1 Br2 Mo1 Mo1 0.355(8) 3 . . 5
Mo1 Br1 Mo1 Br3 -144.503(14) 5 . . .
Mo1 Br1 Mo1 Br3 144.529(9) 3 . . .
Mo1 Br1 Mo1 Br1 -54.097(14) 5 . . 6
Mo1 Br1 Mo1 Br1 -125.066(11) 3 . . 6
Mo1 Br1 Mo1 Br1 25.3(8) 5 . . 2
Mo1 Br1 Mo1 Br1 -45.6(8) 3 . . 2
Mo1 Br1 Mo1 Br2 124.941(11) 5 . . .
Mo1 Br1 Mo1 Br2 53.972(12) 3 . . .
Mo1 Br1 Mo1 Mo1 70.491(9) 5 . . 2
Mo1 Br1 Mo1 Mo1 -0.478(10) 3 . . 2
Mo1 Br1 Mo1 Mo1 70.969(10) 5 . . 3
Mo1 Br1 Mo1 Mo1 0.375(16) 5 . . 6
Mo1 Br1 Mo1 Mo1 -70.593(14) 3 . . 6
Mo1 Br1 Mo1 Mo1 -70.969(10) 3 . . 5
