#------------------------------------------------------------------------------
#$Date: 2019-09-28 03:36:20 +0300 (Sat, 28 Sep 2019) $
#$Revision: 218890 $
#$URL: file:///home/coder/svn-repositories/cod/cif/7/23/42/7234219.cif $
#------------------------------------------------------------------------------
#
# This file is available in the Crystallography Open Database (COD),
# http://www.crystallography.net/
#
# All data on this site have been placed in the public domain by the
# contributors.
#
data_7234219
loop_
_publ_author_name
'Torubaev, Yury'
'Skabitskiy, Ivan V.'
_publ_section_title
;
 The Energy Frameworks of Aufbau Synthon Modules in 4-Cyanopyridine
 Co-crystals.
;
_journal_name_full               CrystEngComm
_journal_paper_doi               10.1039/C9CE01174A
_journal_year                    2019
_chemical_formula_moiety         '2(C3 F2 I), C6 H4 N2'
_chemical_formula_sum            'C12 H4 F4 I2 N2'
_chemical_formula_weight         505.97
_chemical_name_systematic
'1,4-diiodotetrafluorobenzene 4-cyanopyridine'
_space_group_crystal_system      triclinic
_space_group_IT_number           2
_space_group_name_Hall           '-P 1'
_space_group_name_H-M_alt        'P -1'
_symmetry_space_group_name_Hall  '-P 1'
_symmetry_space_group_name_H-M   'P -1'
_atom_sites_solution_hydrogens   geom
_atom_sites_solution_primary     direct
_audit_creation_date             2019-05-27
_audit_creation_method
;
Olex2 1.2
(compiled 2018.05.29 svn.r3508 for OlexSys, GUI svn.r5506)
;
_audit_update_record
;
2019-07-15 deposited with the CCDC.    2019-09-26 downloaded from the CCDC.
;
_cell_angle_alpha                88.445(4)
_cell_angle_beta                 87.480(4)
_cell_angle_gamma                82.788(4)
_cell_formula_units_Z            2
_cell_length_a                   4.3341(5)
_cell_length_b                   6.2294(6)
_cell_length_c                   26.005(3)
_cell_measurement_reflns_used    4852
_cell_measurement_temperature    150
_cell_measurement_theta_max      30.07
_cell_measurement_theta_min      2.35
_cell_volume                     695.71(13)
_computing_cell_refinement       'SAINT V8.38A (?, 2016)'
_computing_data_reduction        'SAINT V8.38A (?, 2016)'
_computing_molecular_graphics    'Olex2 (Dolomanov et al., 2009)'
_computing_publication_material  'Olex2 (Dolomanov et al., 2009)'
_computing_structure_refinement  'ShelXL (Sheldrick, 2015)'
_computing_structure_solution    'XS (Sheldrick, 2008)'
_diffrn_ambient_temperature      150
_diffrn_measured_fraction_theta_full 0.995
_diffrn_measured_fraction_theta_max 0.977
_diffrn_measurement_device_type  'Bruker APEX-II CCD'
_diffrn_measurement_method       '\f and \w scans'
_diffrn_radiation_type           MoK\a
_diffrn_radiation_wavelength     0.71073
_diffrn_reflns_av_R_equivalents  0.0544
_diffrn_reflns_av_unetI/netI     0.0496
_diffrn_reflns_Laue_measured_fraction_full 0.995
_diffrn_reflns_Laue_measured_fraction_max 0.977
_diffrn_reflns_limit_h_max       5
_diffrn_reflns_limit_h_min       -5
_diffrn_reflns_limit_k_max       8
_diffrn_reflns_limit_k_min       -8
_diffrn_reflns_limit_l_max       35
_diffrn_reflns_limit_l_min       -35
_diffrn_reflns_number            12332
_diffrn_reflns_point_group_measured_fraction_full 0.995
_diffrn_reflns_point_group_measured_fraction_max 0.977
_diffrn_reflns_theta_full        25.242
_diffrn_reflns_theta_max         28.996
_diffrn_reflns_theta_min         2.352
_diffrn_standards_number         0
_exptl_absorpt_coefficient_mu    4.555
_exptl_absorpt_correction_T_max  0.7461
_exptl_absorpt_correction_T_min  0.4169
_exptl_absorpt_correction_type   multi-scan
_exptl_absorpt_process_details
;
SADABS-2016/2 (Bruker,2016/2) was used for absorption correction.
wR2(int) was 0.1246 before and 0.0682 after correction.
The Ratio of minimum to maximum transmission is 0.5588.
The \l/2 correction factor is Not present.
;
_exptl_crystal_colour            colourless
_exptl_crystal_colour_primary    colourless
_exptl_crystal_density_diffrn    2.415
_exptl_crystal_description       prism
_exptl_crystal_F_000             464
_exptl_crystal_size_max          0.02
_exptl_crystal_size_mid          0.01
_exptl_crystal_size_min          0.01
_refine_diff_density_max         1.907
_refine_diff_density_min         -2.550
_refine_diff_density_rms         0.222
_refine_ls_extinction_method     none
_refine_ls_goodness_of_fit_ref   1.291
_refine_ls_hydrogen_treatment    constr
_refine_ls_matrix_type           full
_refine_ls_number_parameters     181
_refine_ls_number_reflns         3610
_refine_ls_number_restraints     0
_refine_ls_restrained_S_all      1.291
_refine_ls_R_factor_all          0.0720
_refine_ls_R_factor_gt           0.0643
_refine_ls_shift/su_max          0.001
_refine_ls_shift/su_mean         0.000
_refine_ls_structure_factor_coef Fsqd
_refine_ls_weighting_details
'w=1/[\s^2^(Fo^2^)+(0.0360P)^2^+5.4571P] where P=(Fo^2^+2Fc^2^)/3'
_refine_ls_weighting_scheme      calc
_refine_ls_wR_factor_gt          0.1335
_refine_ls_wR_factor_ref         0.1366
_reflns_Friedel_coverage         0.000
_reflns_number_gt                3246
_reflns_number_total             3610
_reflns_threshold_expression     'I > 2\s(I)'
_iucr_refine_instructions_details
;
TITL 1_a.res in P-1
    1.res
    created by SHELXL-2018/3 at 14:57:36 on 27-May-2019
REM Old TITL 1 in P1
REM SHELXT solution in P-1
REM R1 0.121, Rweak 0.013, Alpha 0.109, Orientation as input
REM Formula found by SHELXT: C12 F4 I2 N2
CELL 0.71073 4.3341 6.2294 26.0053 88.445 87.48 82.788
ZERR 2 0.0005 0.0006 0.0026 0.004 0.004 0.004
LATT 1
SFAC C H F I N
UNIT 24 8 8 4 4

L.S. 10 0 0
PLAN  20
SIZE 0.01 0.01 0.02
TEMP -123.15
BOND $H
list 4
fmap 2 53
ACTA
OMIT -4 58
OMIT 1 6 15
OMIT 4 6 8
REM <olex2.extras>
REM <HklSrc "%.\\1.hkl">
REM </olex2.extras>

WGHT    0.036000    5.457100
FVAR       0.49938
PART 1
I001  4    0.241078    0.201993    0.114056    11.00000    0.02698    0.03620 =
         0.03086   -0.00806   -0.00931   -0.00530

PART 0
I002  4    1.270329    1.204381    0.399329    11.00000    0.02787    0.02985 =
         0.02912   -0.00731   -0.00954   -0.00594
F003  3    1.201670    1.150020    0.521541    11.00000    0.04213    0.02928 =
         0.04029    0.00077   -0.00428   -0.02018

PART 1
F004  3   -0.287992   -0.361827    0.004082    11.00000    0.04741    0.02557 =
         0.04793   -0.00428   -0.00342   -0.02137

PART 0
F005  3    1.609653    1.633503    0.401454    11.00000    0.05300    0.03529 =
         0.02215   -0.00125   -0.00063   -0.01178

PART 1
F006  3   -0.088086   -0.216247    0.089827    11.00000    0.05372    0.04076 =
         0.02730    0.00809   -0.00333   -0.01735

PART 0
C007  1    1.401678    1.384333    0.459048    11.00000    0.02174    0.02534 =
         0.02321   -0.00449   -0.00573   -0.00116

N008  5    0.466639    0.419490    0.201725    11.00000    0.03401    0.03676 =
         0.03011   -0.00651   -0.00564   -0.00921
PART 1
C009  1    0.103726    0.079492    0.045895    11.00000    0.01953    0.02524 =
         0.02461   -0.00472   -0.00947   -0.00375
C00A  1   -0.044188   -0.105601    0.045576    11.00000    0.02512    0.03408 =
         0.02205    0.00335   -0.00375   -0.00136

PART 0
C00B  1    1.351748    1.321126    0.510027    11.00000    0.02613    0.01150 =
         0.03215   -0.00419   -0.00283   -0.00489

PART 1
C00C  1   -0.142107   -0.183343    0.001287    11.00000    0.02364    0.01598 =
         0.03718   -0.00020   -0.00136   -0.00939

PART 0
C00D  1    1.552650    1.565303    0.450087    11.00000    0.03140    0.02201 =
         0.01836   -0.00262   -0.00346    0.00144

C00E  1    0.777814    0.684880    0.258842    11.00000    0.03029    0.02760 =
         0.02981   -0.00804   -0.00506   -0.00665
N00F  5    1.073348    0.940807    0.309923    11.00000    0.04762    0.05132 =
         0.04816   -0.01712   -0.01692   -0.00736
C00G  1    0.695462    0.745828    0.209358    11.00000    0.03904    0.03232 =
         0.04026    0.00363   -0.00608   -0.01526
AFIX  43
H00G  2    0.744050    0.878950    0.194399    11.00000   -1.20000
AFIX   0
C00H  1    0.540495    0.607826    0.182228    11.00000    0.04038    0.04643 =
         0.02287   -0.00372   -0.00569   -0.01137
AFIX  43
H00H  2    0.483837    0.648742    0.148135    11.00000   -1.20000
AFIX   0
C00I  1    0.698857    0.490369    0.279777    11.00000    0.03585    0.03688 =
         0.02323   -0.00215   -0.00679   -0.00259
AFIX  43
H00I  2    0.749956    0.445516    0.313892    11.00000   -1.20000
AFIX   0
C00J  1    0.543422    0.364398    0.249260    11.00000    0.04050    0.03003 =
         0.03284   -0.00119   -0.00280   -0.01133
AFIX  43
H00J  2    0.489056    0.231134    0.263266    11.00000   -1.20000
AFIX   0
C00K  1    0.946773    0.825817    0.287870    11.00000    0.03385    0.04163 =
         0.03684   -0.00897   -0.00421   -0.00883
HKLF 4




REM  1_a.res in P-1
REM wR2 = 0.1366, GooF = S = 1.291, Restrained GooF = 1.291 for all data
REM R1 = 0.0643 for 3246 Fo > 4sig(Fo) and 0.0720 for all 3610 data
REM 181 parameters refined using 0 restraints

END  
     
WGHT      0.0360      5.5773 

REM Highest difference peak  1.907,  deepest hole -2.550,  1-sigma level  0.222
Q1    1   0.3136  0.0774  0.1033  11.00000  0.05    1.91
Q2    1   1.2861  1.3026  0.3779  11.00000  0.05    1.82
Q3    1   0.2259  0.3135  0.0998  11.00000  0.05    1.76
Q4    1   1.3261  1.0595  0.4024  11.00000  0.05    1.74
Q5    1   1.2298  1.3358  0.4049  11.00000  0.05    1.71
Q6    1   1.3615  1.0847  0.3868  11.00000  0.05    1.60
Q7    1   1.1818  1.3191  0.4142  11.00000  0.05    1.57
Q8    1   0.1684  0.3357  0.1194  11.00000  0.05    1.54
Q9    1   0.3209  0.1836  0.0791  11.00000  0.05    1.40
Q10   1   0.1539  0.2176  0.1413  11.00000  0.05    1.34
Q11   1   0.1447  0.2846  0.1381  11.00000  0.05    1.31
Q12   1   1.2217  1.1941  0.4365  11.00000  0.05    1.06
Q13   1   1.3495  1.1857  0.3623  11.00000  0.05    1.04
Q14   1   0.0982  0.4591  0.0968  11.00000  0.05    0.89
Q15   1   1.1318  1.4656  0.3831  11.00000  0.05    0.82
Q16   1   0.2516  0.4860  0.0820  11.00000  0.05    0.71
Q17   1   0.7067  0.5665  0.3467  11.00000  0.05    0.66
Q18   1  -0.0658 -0.3997  0.1150  11.00000  0.05    0.62
Q19   1   0.5661  0.4845  0.1778  11.00000  0.05    0.61
Q20   1   0.5766  0.1381  0.2768  11.00000  0.05    0.59

  REM The information below was added by Olex2.
  REM
  REM R1 = 0.0643 for 3246 Fo > 4sig(Fo) and 0.0720 for all 12839 data
  REM n/a parameters refined using n/a restraints
  REM Highest difference peak 1.91, deepest hole -2.55
  REM Mean Shift 0, Max Shift -0.001.

  REM +++ Tabular Listing of Refinement Information +++
  REM R1_all = 0.0720
  REM R1_gt = 0.0643
  REM wR_ref = 0.1366
  REM GOOF = 1.291
  REM Shift_max = -0.001
  REM Shift_mean = 0
  REM Reflections_all = 12839
  REM Reflections_gt = 3246
  REM Parameters = n/a
  REM Hole = -2.55
  REM Peak = 1.91
  REM Flack = n/a

  
;
_cod_data_source_file            c9ce01174a2.cif
_cod_data_source_block           1_CCDC5
_cod_original_cell_volume        695.72(13)
_cod_database_code               7234219
_shelx_shelxl_version_number     2018/3
_shelx_space_group_comment
;
The symmetry employed for this shelxl refinement is uniquely defined
by the following loop, which should always be used as a source of
symmetry information in preference to the above space-group names.
They are only intended as comments.
;
_shelx_estimated_absorpt_t_max   0.956
_shelx_estimated_absorpt_t_min   0.914
_olex2_refinement_description
;
1. Fixed Uiso
 At 1.2 times of:
  All C(H) groups
2.a Aromatic/amide H refined with riding coordinates:
 C00G(H00G), C00H(H00H), C00I(H00I), C00J(H00J)
;
_olex2_submission_special_instructions 'No special instructions were received'
loop_
_space_group_symop_operation_xyz
'x, y, z'
'-x, -y, -z'
loop_
_atom_site_label
_atom_site_type_symbol
_atom_site_fract_x
_atom_site_fract_y
_atom_site_fract_z
_atom_site_U_iso_or_equiv
_atom_site_adp_type
_atom_site_occupancy
_atom_site_site_symmetry_order
_atom_site_calc_flag
_atom_site_refinement_flags_posn
_atom_site_disorder_assembly
_atom_site_disorder_group
I001 I 0.24108(12) 0.20199(9) 0.11406(2) 0.03086(16) Uani 1 1 d . A 1
I002 I 1.27033(12) 1.20438(8) 0.39933(2) 0.02838(16) Uani 1 1 d . . .
F003 F 1.2017(12) 1.1500(8) 0.52154(19) 0.0358(11) Uani 1 1 d . . .
F004 F -0.2880(13) -0.3618(8) 0.0041(2) 0.0388(12) Uani 1 1 d . A 1
F005 F 1.6097(13) 1.6335(8) 0.40145(17) 0.0363(11) Uani 1 1 d . . .
F006 F -0.0881(13) -0.2162(8) 0.08983(19) 0.0397(12) Uani 1 1 d . A 1
C007 C 1.4017(17) 1.3843(12) 0.4590(3) 0.0234(14) Uani 1 1 d . . .
N008 N 0.4666(17) 0.4195(12) 0.2017(3) 0.0330(15) Uani 1 1 d . . .
C009 C 0.1037(16) 0.0795(12) 0.0459(3) 0.0227(14) Uani 1 1 d . A 1
C00A C -0.0442(18) -0.1056(13) 0.0456(3) 0.0273(16) Uani 1 1 d . A 1
C00B C 1.3517(17) 1.3211(11) 0.5100(3) 0.0229(14) Uani 1 1 d . . .
C00C C -0.1421(17) -0.1833(12) 0.0013(3) 0.0250(15) Uani 1 1 d . A 1
C00D C 1.5526(18) 1.5653(12) 0.4501(3) 0.0242(15) Uani 1 1 d . . .
C00E C 0.7778(19) 0.6849(13) 0.2588(3) 0.0287(16) Uani 1 1 d . . .
N00F N 1.073(2) 0.9408(15) 0.3099(3) 0.048(2) Uani 1 1 d . . .
C00G C 0.695(2) 0.7458(15) 0.2094(4) 0.0362(19) Uani 1 1 d . . .
H00G H 0.744050 0.878950 0.194399 0.043 Uiso 1 1 calc R . .
C00H C 0.540(2) 0.6078(15) 0.1822(3) 0.0359(19) Uani 1 1 d . . .
H00H H 0.483837 0.648742 0.148135 0.043 Uiso 1 1 calc R . .
C00I C 0.699(2) 0.4904(14) 0.2798(3) 0.0320(17) Uani 1 1 d . . .
H00I H 0.749956 0.445516 0.313892 0.038 Uiso 1 1 calc R . .
C00J C 0.543(2) 0.3644(14) 0.2493(3) 0.0338(18) Uani 1 1 d . . .
H00J H 0.489056 0.231134 0.263266 0.041 Uiso 1 1 calc R . .
C00K C 0.947(2) 0.8258(15) 0.2879(4) 0.0369(19) Uani 1 1 d . . .
loop_
_atom_site_aniso_label
_atom_site_aniso_U_11
_atom_site_aniso_U_22
_atom_site_aniso_U_33
_atom_site_aniso_U_23
_atom_site_aniso_U_13
_atom_site_aniso_U_12
I001 0.0270(3) 0.0362(3) 0.0309(3) -0.0081(2) -0.0093(2) -0.0053(2)
I002 0.0279(3) 0.0299(3) 0.0291(3) -0.00731(19) -0.0095(2) -0.0059(2)
F003 0.042(3) 0.029(3) 0.040(3) 0.001(2) -0.004(2) -0.020(2)
F004 0.047(3) 0.026(2) 0.048(3) -0.004(2) -0.003(2) -0.021(2)
F005 0.053(3) 0.035(3) 0.022(2) -0.0012(19) -0.001(2) -0.012(2)
F006 0.054(3) 0.041(3) 0.027(2) 0.008(2) -0.003(2) -0.017(2)
C007 0.022(3) 0.025(4) 0.023(3) -0.004(3) -0.006(3) -0.001(3)
N008 0.034(4) 0.037(4) 0.030(4) -0.007(3) -0.006(3) -0.009(3)
C009 0.020(3) 0.025(4) 0.025(4) -0.005(3) -0.009(3) -0.004(3)
C00A 0.025(4) 0.034(4) 0.022(4) 0.003(3) -0.004(3) -0.001(3)
C00B 0.026(4) 0.011(3) 0.032(4) -0.004(3) -0.003(3) -0.005(3)
C00C 0.024(4) 0.016(3) 0.037(4) 0.000(3) -0.001(3) -0.009(3)
C00D 0.031(4) 0.022(4) 0.018(3) -0.003(3) -0.003(3) 0.001(3)
C00E 0.030(4) 0.028(4) 0.030(4) -0.008(3) -0.005(3) -0.007(3)
N00F 0.048(5) 0.051(5) 0.048(5) -0.017(4) -0.017(4) -0.007(4)
C00G 0.039(5) 0.032(5) 0.040(5) 0.004(4) -0.006(4) -0.015(4)
C00H 0.040(5) 0.046(5) 0.023(4) -0.004(3) -0.006(3) -0.011(4)
C00I 0.036(4) 0.037(4) 0.023(4) -0.002(3) -0.007(3) -0.003(4)
C00J 0.041(5) 0.030(4) 0.033(4) -0.001(3) -0.003(4) -0.011(4)
C00K 0.034(4) 0.042(5) 0.037(5) -0.009(4) -0.004(4) -0.009(4)
loop_
_atom_type_symbol
_atom_type_description
_atom_type_scat_dispersion_real
_atom_type_scat_dispersion_imag
_atom_type_scat_source
C C 0.0033 0.0016 'International Tables Vol C Tables 4.2.6.8 and 6.1.1.4'
H H 0.0000 0.0000 'International Tables Vol C Tables 4.2.6.8 and 6.1.1.4'
F F 0.0171 0.0103 'International Tables Vol C Tables 4.2.6.8 and 6.1.1.4'
I I -0.4742 1.8119 'International Tables Vol C Tables 4.2.6.8 and 6.1.1.4'
N N 0.0061 0.0033 'International Tables Vol C Tables 4.2.6.8 and 6.1.1.4'
loop_
_geom_angle_atom_site_label_1
_geom_angle_atom_site_label_2
_geom_angle_atom_site_label_3
_geom_angle
_geom_angle_site_symmetry_1
_geom_angle_site_symmetry_3
C00B C007 I002 120.8(5) . .
C00D C007 I002 122.1(5) . .
C00D C007 C00B 117.1(7) . .
C00J N008 C00H 118.2(7) . .
C00A C009 I001 121.9(6) . .
C00C C009 I001 122.0(5) 2 .
C00C C009 C00A 116.1(7) 2 .
F006 C00A C009 119.6(7) . .
F006 C00A C00C 118.2(7) . .
C00C C00A C009 122.2(7) . .
F003 C00B C007 120.3(6) . .
F003 C00B C00D 118.3(7) . 2_886
C00D C00B C007 121.4(7) 2_886 .
F004 C00C C009 119.4(7) . 2
F004 C00C C00A 118.8(7) . .
C00A C00C C009 121.7(7) . 2
F005 C00D C007 119.8(7) . .
F005 C00D C00B 118.6(7) . 2_886
C00B C00D C007 121.5(7) 2_886 .
C00G C00E C00I 119.4(7) . .
C00G C00E C00K 119.1(8) . .
C00I C00E C00K 121.5(8) . .
C00E C00G H00G 120.9 . .
C00H C00G C00E 118.1(8) . .
C00H C00G H00G 120.9 . .
N008 C00H C00G 123.0(8) . .
N008 C00H H00H 118.5 . .
C00G C00H H00H 118.5 . .
C00E C00I H00I 121.1 . .
C00J C00I C00E 117.8(7) . .
C00J C00I H00I 121.1 . .
N008 C00J C00I 123.5(8) . .
N008 C00J H00J 118.3 . .
C00I C00J H00J 118.3 . .
N00F C00K C00E 178.0(11) . .
loop_
_geom_bond_atom_site_label_1
_geom_bond_atom_site_label_2
_geom_bond_distance
_geom_bond_site_symmetry_2
I001 C009 2.088(7) .
I002 C007 2.080(7) .
F003 C00B 1.337(8) .
F004 C00C 1.345(8) .
F005 C00D 1.346(8) .
F006 C00A 1.344(9) .
C007 C00B 1.388(11) .
C007 C00D 1.382(11) .
N008 C00H 1.336(12) .
N008 C00J 1.319(11) .
C009 C00A 1.388(11) .
C009 C00C 1.385(11) 2
C00A C00C 1.366(11) .
C00B C00D 1.378(10) 2_886
C00E C00G 1.381(12) .
C00E C00I 1.391(12) .
C00E C00K 1.457(11) .
N00F C00K 1.136(11) .
C00G H00G 0.9500 .
C00G C00H 1.381(12) .
C00H H00H 0.9500 .
C00I H00I 0.9500 .
C00I C00J 1.383(12) .
C00J H00J 0.9500 .
