#------------------------------------------------------------------------------
#$Date: 2019-11-05 00:48:22 +0200 (Tue, 05 Nov 2019) $
#$Revision: 223248 $
#$URL: file:///home/coder/svn-repositories/cod/cif/7/23/49/7234936.cif $
#------------------------------------------------------------------------------
#
# This file is available in the Crystallography Open Database (COD),
# http://www.crystallography.net/
#
# All data on this site have been placed in the public domain by the
# contributors.
#
data_7234936
loop_
_publ_author_name
'Oliveira, Willian X. C.'
'do Pim, Walace D.'
'Pinheiro, Carlos B.'
'Journaux, Yves'
'Julve, Miguel'
'Pereira, Cynthia L. M.'
_publ_section_title
;
 Monitoring the hydrogen bond net configuration and the dimensionality of
 aniline and phenyloxamate by adding 1H-pyrazole and isoxazole as
 substituents for molecular self-recognition
;
_journal_issue                   17
_journal_name_full               CrystEngComm
_journal_page_first              2818
_journal_paper_doi               10.1039/C9CE00215D
_journal_volume                  21
_journal_year                    2019
_chemical_formula_sum            'C9 H13 Cl4 N3 O Sn'
_chemical_formula_weight         439.71
_space_group_crystal_system      triclinic
_space_group_IT_number           2
_space_group_name_Hall           '-P 1'
_space_group_name_H-M_alt        'P -1'
_atom_sites_solution_hydrogens   mixed
_audit_creation_method           SHELXL-2018/1
_audit_update_record
;
2018-05-14 deposited with the CCDC.	2019-03-28 downloaded from the CCDC.
;
_cell_angle_alpha                69.910(5)
_cell_angle_beta                 89.440(5)
_cell_angle_gamma                84.970(5)
_cell_formula_units_Z            2
_cell_length_a                   7.006(5)
_cell_length_b                   9.684(5)
_cell_length_c                   11.987(5)
_cell_measurement_reflns_used    1388
_cell_measurement_temperature    150(2)
_cell_measurement_theta_max      58.8860
_cell_measurement_theta_min      9.2830
_cell_volume                     760.7(7)
_computing_cell_refinement       'CrysAlisPro 1.171.38.41 (Rigaku OD, 2015)'
_computing_data_collection       'CrysAlisPro 1.171.38.41 (Rigaku OD, 2015)'
_computing_data_reduction        'CrysAlisPro 1.171.38.41 (Rigaku OD, 2015)'
_computing_structure_refinement  'SHELXL-2018/1 (Sheldrick, 2018)'
_computing_structure_solution    superflip
_diffrn_ambient_temperature      150(2)
_diffrn_detector_area_resol_mean 10.4186
_diffrn_measured_fraction_theta_full 0.982
_diffrn_measured_fraction_theta_max 0.982
_diffrn_measurement_device_type  'Xcalibur, Atlas, Gemini ultra'
_diffrn_measurement_method       '\w scans'
_diffrn_radiation_type           CuK\a
_diffrn_radiation_wavelength     1.5418
_diffrn_reflns_av_R_equivalents  0.1217
_diffrn_reflns_av_unetI/netI     0.1403
_diffrn_reflns_Laue_measured_fraction_full 0.982
_diffrn_reflns_Laue_measured_fraction_max 0.982
_diffrn_reflns_limit_h_max       8
_diffrn_reflns_limit_h_min       -5
_diffrn_reflns_limit_k_max       11
_diffrn_reflns_limit_k_min       -11
_diffrn_reflns_limit_l_max       14
_diffrn_reflns_limit_l_min       -14
_diffrn_reflns_number            6229
_diffrn_reflns_point_group_measured_fraction_full 0.982
_diffrn_reflns_point_group_measured_fraction_max 0.982
_diffrn_reflns_theta_full        66.939
_diffrn_reflns_theta_max         66.939
_diffrn_reflns_theta_min         3.927
_diffrn_source                   'fine-focus sealed X-ray tube'
_exptl_absorpt_coefficient_mu    19.772
_exptl_absorpt_correction_T_max  0.773
_exptl_absorpt_correction_T_min  0.070
_exptl_absorpt_correction_type   analytical
_exptl_absorpt_process_details
;
CrysAlisPro 1.171.38.41 (Rigaku Oxford Diffraction, 2015)
Analytical numeric absorption correction using a multifaceted crystal
                        model based on expressions derived by R.C. Clark & J.S. Reid.
(Clark, R. C. & Reid, J. S. (1995). Acta Cryst. A51, 887-897)
Empirical absorption correction using spherical harmonics,
 implemented in SCALE3 ABSPACK scaling algorithm.
;
_exptl_crystal_colour            colorless
_exptl_crystal_density_diffrn    1.920
_exptl_crystal_description       plate
_exptl_crystal_F_000             428
_exptl_crystal_size_max          0.404
_exptl_crystal_size_mid          0.108
_exptl_crystal_size_min          0.012
_refine_diff_density_max         1.840
_refine_diff_density_min         -1.217
_refine_diff_density_rms         0.248
_refine_ls_extinction_method     none
_refine_ls_goodness_of_fit_ref   1.061
_refine_ls_hydrogen_treatment    mixed
_refine_ls_matrix_type           full
_refine_ls_number_parameters     170
_refine_ls_number_reflns         2666
_refine_ls_number_restraints     4
_refine_ls_restrained_S_all      1.060
_refine_ls_R_factor_all          0.1083
_refine_ls_R_factor_gt           0.0743
_refine_ls_shift/su_max          0.014
_refine_ls_shift/su_mean         0.000
_refine_ls_structure_factor_coef Fsqd
_refine_ls_weighting_details
'w=1/[\s^2^(Fo^2^)+(0.0895P)^2^+0.4421P] where P=(Fo^2^+2Fc^2^)/3'
_refine_ls_weighting_scheme      calc
_refine_ls_wR_factor_gt          0.1708
_refine_ls_wR_factor_ref         0.2040
_reflns_Friedel_coverage         0.000
_reflns_number_gt                1911
_reflns_number_total             2666
_reflns_threshold_expression     'I > 2\s(I)'
_cod_data_source_file            c9ce00215d2.cif
_cod_data_source_block           shelx
_cod_database_code               7234936
_shelx_shelxl_version_number     2018/1
_shelx_space_group_comment
;
The symmetry employed for this shelxl refinement is uniquely defined
by the following loop, which should always be used as a source of
symmetry information in preference to the above space-group names.
They are only intended as comments.
;
_shelx_res_file
;
TITL pynh2_hcl_2 in P-1
    shelx.res
    created by SHELXL-2018/1 at 16:31:11 on 07-Feb-2018
CELL  1.54180   7.0060   9.6840  11.9870   69.910   89.440   84.970
ZERR     2.00   0.0050   0.0050   0.0050    0.005    0.005    0.005
LATT   1
SFAC  C    H    N    O    CL   SN
UNIT  18 26 6 2 8 2
MERG   2
DFIX  0.9000 0.0001 HW2 O1 HW1 O1
DFIX  1.4000 0.0002 HW2 HW1
DFIX  2.4 0.1 HW1 Cl2
EQIV $8 x, y, -1+z
HTAB N1 Cl1_$8
EQIV $9 1-x, 2-y, -z
HTAB N1 Cl1_$9
EQIV $10 x, 1+y, -1+z
HTAB N1 Cl4_$10
HTAB O1 Cl3
HTAB O1 Cl2
EQIV $11 x, -1+y, z
HTAB N2 O1_$11
HTAB N3 Cl4
HTAB N3 Cl1_$11
FMAP   2
PLAN  100
ACTA
BOND   $H
LIST   4
L.S.  30
WGHT    0.089500    0.442100
FVAR       4.40693
SN1   6    0.250545    0.634390    0.427794    11.00000    0.04383    0.03444 =
         0.02552   -0.01302   -0.00690   -0.00119
CL1   5    0.245105    0.993577    0.379924    11.00000    0.04017    0.02375 =
         0.02058   -0.00260   -0.00286   -0.00086
CL2   5    0.475229    0.711140    0.252616    11.00000    0.03091    0.05040 =
         0.04544   -0.02498    0.00123   -0.00824
CL3   5   -0.026610    0.704229    0.279233    11.00000    0.02795    0.04982 =
         0.04878   -0.02828   -0.00739   -0.00217
CL4   5    0.287124    0.370369    0.425761    11.00000    0.14375    0.01920 =
         0.03000   -0.00320   -0.00605    0.00039
O1    4    0.166642    0.976796    0.090909    11.00000    0.09262    0.03028 =
         0.04074   -0.01291    0.00698   -0.01474
N2    3    0.219631    0.246192    0.092570    11.00000    0.03520    0.02321 =
         0.02784    0.00115   -0.00135   -0.00837
AFIX  43
H2    2    0.200736    0.155269    0.106524    11.00000   -1.20000
AFIX   0
N3    3    0.251783    0.306291    0.173450    11.00000    0.03335    0.02881 =
         0.02322   -0.00178   -0.00154   -0.00411
AFIX  43
H3    2    0.260163    0.258383    0.248616    11.00000   -1.20000
AFIX   0
N1    3    0.296927    1.048266   -0.370265    11.00000    0.04320    0.01922 =
         0.02054   -0.00502   -0.00002   -0.00110
AFIX 137
H1A   2    0.223813    1.120345   -0.356449    11.00000   -1.50000
H1B   2    0.261315    1.041670   -0.439194    11.00000   -1.50000
H1C   2    0.419000    1.067912   -0.373340    11.00000   -1.50000
AFIX   0
C4    1    0.255212    0.633991   -0.095655    11.00000    0.01606    0.01912 =
         0.03032   -0.00234   -0.00919    0.00154
C1    1    0.274839    0.907395   -0.273978    11.00000    0.02569    0.02015 =
         0.02696   -0.00129   -0.00927    0.00646
C7    1    0.221475    0.350860   -0.014715    11.00000    0.03010    0.02164 =
         0.01995   -0.00706   -0.00597    0.00122
AFIX  43
H7    2    0.206123    0.337426   -0.087179    11.00000   -1.20000
AFIX   0
C2    1    0.236341    0.784864   -0.302333    11.00000    0.03682    0.02827 =
         0.02576   -0.00360   -0.01082    0.00093
AFIX  43
H2A   2    0.218557    0.794519   -0.381534    11.00000   -1.20000
AFIX   0
C8    1    0.250756    0.485139    0.001208    11.00000    0.03058    0.01663 =
         0.02113    0.00191   -0.00937    0.00068
C6    1    0.306234    0.896902   -0.157462    11.00000    0.03910    0.02874 =
         0.02942   -0.00417    0.00165   -0.01257
AFIX  43
H6    2    0.332857    0.978997   -0.138881    11.00000   -1.20000
AFIX   0
C9    1    0.269583    0.450131    0.124157    11.00000    0.03629    0.02578 =
         0.03003   -0.00384   -0.00339   -0.00577
AFIX  43
H9    2    0.290528    0.515005    0.163815    11.00000   -1.20000
AFIX   0
C5    1    0.296611    0.756651   -0.066687    11.00000    0.04614    0.02668 =
         0.02515   -0.00491   -0.01572   -0.00542
AFIX  43
H5    2    0.317968    0.746546    0.012297    11.00000   -1.20000
AFIX   0
C3    1    0.223983    0.648417   -0.214545    11.00000    0.05334    0.02418 =
         0.02405   -0.00745   -0.00599   -0.00864
AFIX  43
H3A   2    0.195356    0.567612   -0.234343    11.00000   -1.20000
AFIX   0
HW2   2    0.079467    0.911791    0.096886    11.00000   -1.50000
HW1   2    0.272656    0.917010    0.122561    11.00000   -1.50000
HKLF    4
 
 
 
 
REM  pynh2_hcl_2 in P-1
REM R1 =  0.0743 for    1911 Fo > 4sig(Fo)  and  0.1083 for all    2666 data
REM    170 parameters refined using      4 restraints
 
END
 
WGHT      0.0890      0.5000
 
REM Highest difference peak  1.840,  deepest hole -1.217,  1-sigma level  0.248
Q1    1   0.1658  0.5864  0.4652  11.00000  0.05    1.84
Q2    1   0.1511  0.3579  0.4224  11.00000  0.05    1.84
Q3    1   0.4791  0.6308  0.3139  11.00000  0.05    1.51
Q4    1   0.4057  1.0389 -0.1107  11.00000  0.05    1.18
Q5    1   0.2539  0.2755  0.4735  11.00000  0.05    1.15
Q6    1   0.1229  0.6824  0.3541  11.00000  0.05    1.12
Q7    1   0.2592  0.5866  0.5208  11.00000  0.05    1.12
Q8    1   0.4028  0.6668  0.3789  11.00000  0.05    1.09
Q9    1   0.2108  0.6700  0.3571  11.00000  0.05    1.08
Q10   1   0.2826  0.7549  0.1921  11.00000  0.05    0.97
Q11   1   0.1898  0.7217  0.2006  11.00000  0.05    0.88
Q12   1   0.2196  0.4494  0.5805  11.00000  0.05    0.85
Q13   1   0.2243  0.4974  0.3645  11.00000  0.05    0.82
Q14   1   0.2163  0.4999 -0.3363  11.00000  0.05    0.82
Q15   1   0.3485  0.4119  0.3742  11.00000  0.05    0.80
Q16   1   0.5761  0.9820 -0.3575  11.00000  0.05    0.79
Q17   1   0.2551  0.8177  0.4003  11.00000  0.05    0.76
Q18   1  -0.0450  0.6816  0.3423  11.00000  0.05    0.75
Q19   1   0.3540  0.5972  0.4038  11.00000  0.05    0.74
Q20   1   0.4065  0.5948  0.4917  11.00000  0.05    0.74
Q21   1   0.1874  0.8916  0.4595  11.00000  0.05    0.69
Q22   1   0.1279  0.5480 -0.2783  11.00000  0.05    0.68
Q23   1   0.2450  0.8482 -0.4769  11.00000  0.05    0.68
Q24   1   0.5041  0.7385 -0.3599  11.00000  0.05    0.68
Q25   1   0.2555  0.8263 -0.1219  11.00000  0.05    0.67
Q26   1   0.4741  0.4397  0.4155  11.00000  0.05    0.65
Q27   1   0.2553  0.3591  0.5978  11.00000  0.05    0.65
Q28   1   0.2415  0.5936  0.1749  11.00000  0.05    0.65
Q29   1   0.2481  1.0988 -0.3114  11.00000  0.05    0.65
Q30   1   0.1778  0.0639  0.1798  11.00000  0.05    0.64
Q31   1   0.2248  0.9687 -0.3382  11.00000  0.05    0.64
Q32   1   0.6838  0.7481  0.1854  11.00000  0.05    0.62
Q33   1   0.2718  0.4099 -0.0488  11.00000  0.05    0.62
Q34   1   0.1337  0.9671  0.4824  11.00000  0.05    0.61
Q35   1   0.2351  1.1369 -0.5357  11.00000  0.05    0.60
Q36   1   0.3728  0.9182 -0.3342  11.00000  0.05    0.60
Q37   1   0.2903  1.0079  0.2385  11.00000  0.05    0.60
Q38   1  -0.0930  0.6338  0.4162  11.00000  0.05    0.60
Q39   1   0.2743  0.4744  0.4641  11.00000  0.05    0.59
Q40   1   0.0643  0.9372 -0.2568  11.00000  0.05    0.59
Q41   1   0.6139  0.6235  0.3773  11.00000  0.05    0.59
Q42   1   0.1771  0.9634 -0.0211  11.00000  0.05    0.59
Q43   1   0.3674  0.6575 -0.0974  11.00000  0.05    0.58
Q44   1   0.2422  0.7517 -0.1344  11.00000  0.05    0.58
Q45   1   0.1752  0.8062 -0.3367  11.00000  0.05    0.58
Q46   1   0.2579  0.8769  0.2779  11.00000  0.05    0.58
Q47   1   0.0212  0.1159  0.1151  11.00000  0.05    0.57
Q48   1   0.1020  0.2320 -0.0691  11.00000  0.05    0.57
Q49   1   0.3433  0.6705  0.2596  11.00000  0.05    0.57
Q50   1   0.1218  0.8095  0.1456  11.00000  0.05    0.57
Q51   1   0.4911  1.0547 -0.2261  11.00000  0.05    0.56
Q52   1   0.3162  0.7859  0.3029  11.00000  0.05    0.56
Q53   1   0.0606  0.8891  0.2240  11.00000  0.05    0.56
Q54   1   0.3907  0.5863  0.0485  11.00000  0.05    0.56
Q55   1   0.6112  0.5780  0.2888  11.00000  0.05    0.55
Q56   1   0.2777  0.9659  0.4438  11.00000  0.05    0.55
Q57   1   0.2614  0.3253  0.3581  11.00000  0.05    0.55
Q58   1   0.3077  0.2729 -0.0688  11.00000  0.05    0.54
Q59   1   0.0000  1.0000 -0.5000  10.50000  0.05    0.54
Q60   1   0.2832  1.2606 -0.3517  11.00000  0.05    0.54
Q61   1   0.3546  0.4433  0.2158  11.00000  0.05    0.53
Q62   1   0.2771  0.7644 -0.3143  11.00000  0.05    0.53
Q63   1  -0.1674  0.7495  0.3005  11.00000  0.05    0.53
Q64   1   0.0674  0.7967  0.3655  11.00000  0.05    0.53
Q65   1   0.1023  0.4191  0.4601  11.00000  0.05    0.53
Q66   1   0.2501  0.3967  0.3374  11.00000  0.05    0.52
Q67   1   0.5390  0.7187  0.0965  11.00000  0.05    0.51
Q68   1   0.2186  1.0592 -0.1734  11.00000  0.05    0.51
Q69   1   0.0983  0.5043  0.3616  11.00000  0.05    0.51
Q70   1   0.3685  0.9138  0.4583  11.00000  0.05    0.50
Q71   1   0.3476  0.4937  0.3595  11.00000  0.05    0.50
Q72   1   0.1945  0.4354  0.4735  11.00000  0.05    0.50
Q73   1   0.0941  0.7054 -0.1446  11.00000  0.05    0.50
Q74   1   0.4786  0.9158 -0.0370  11.00000  0.05    0.50
Q75   1   0.1525  0.3464  0.5321  11.00000  0.05    0.50
Q76   1   0.1850  1.1487 -0.2566  11.00000  0.05    0.49
Q77   1   0.0813  1.0037 -0.2804  11.00000  0.05    0.49
Q78   1   0.2441  0.9359 -0.4861  11.00000  0.05    0.49
Q79   1   0.0633  0.5402  0.5906  11.00000  0.05    0.49
Q80   1   0.1018  0.0809  0.2435  11.00000  0.05    0.49
Q81   1   0.2500  0.6715  0.1382  11.00000  0.05    0.49
Q82   1   0.3754  0.9201  0.2960  11.00000  0.05    0.48
Q83   1   0.0158  0.6467  0.4185  11.00000  0.05    0.48
Q84   1   0.5046  0.7009 -0.1018  11.00000  0.05    0.48
Q85   1   0.3090  0.9952 -0.2953  11.00000  0.05    0.47
Q86   1   0.0625  0.6223 -0.3749  11.00000  0.05    0.47
Q87   1   0.1208  0.8646 -0.3047  11.00000  0.05    0.46
Q88   1   0.4907  1.2161 -0.4996  11.00000  0.05    0.46
Q89   1   0.3682  0.9985  0.4153  11.00000  0.05    0.46
Q90   1  -0.0287  0.4200  0.4002  11.00000  0.05    0.46
Q91   1   0.3707  0.6068  0.2041  11.00000  0.05    0.45
Q92   1   0.2851  1.0199 -0.2612  11.00000  0.05    0.45
Q93   1   0.2637  0.9997 -0.2375  11.00000  0.05    0.45
Q94   1   0.4447  1.2605 -0.4211  11.00000  0.05    0.45
Q95   1   0.4948  0.3897  0.3852  11.00000  0.05    0.45
Q96   1   0.3821  1.0397 -0.2236  11.00000  0.05    0.45
Q97   1   0.5853  1.1193 -0.2843  11.00000  0.05    0.44
Q98   1   0.2828  0.1220  0.1337  11.00000  0.05    0.44
Q99   1   0.4400  0.5891 -0.1583  11.00000  0.05    0.44
Q100  1   0.3702  0.9523  0.4390  11.00000  0.05    0.44
;
_shelx_res_checksum              9692
loop_
_space_group_symop_operation_xyz
'x, y, z'
'-x, -y, -z'
loop_
_atom_site_label
_atom_site_type_symbol
_atom_site_fract_x
_atom_site_fract_y
_atom_site_fract_z
_atom_site_U_iso_or_equiv
_atom_site_adp_type
_atom_site_occupancy
_atom_site_site_symmetry_order
_atom_site_calc_flag
_atom_site_refinement_flags_posn
_atom_site_refinement_flags_adp
Sn1 Sn 0.25055(12) 0.63439(9) 0.42779(7) 0.0340(3) Uani 1 1 d . .
Cl1 Cl 0.2451(4) 0.9936(3) 0.3799(2) 0.0296(6) Uani 1 1 d . .
Cl2 Cl 0.4752(4) 0.7111(4) 0.2526(3) 0.0398(7) Uani 1 1 d D .
Cl3 Cl -0.0266(4) 0.7042(4) 0.2792(3) 0.0393(7) Uani 1 1 d . .
Cl4 Cl 0.2871(8) 0.3704(3) 0.4258(3) 0.0661(12) Uani 1 1 d . .
O1 O 0.1666(4) 0.9768(3) 0.0909(7) 0.054(3) Uani 1 1 d D .
N2 N 0.2196(13) 0.2462(11) 0.0926(9) 0.031(2) Uani 1 1 d . .
H2 H 0.200736 0.155269 0.106524 0.037 Uiso 1 1 calc R U
N3 N 0.2518(13) 0.3063(11) 0.1734(9) 0.030(2) Uani 1 1 d . .
H3 H 0.260163 0.258383 0.248616 0.036 Uiso 1 1 calc R U
N1 N 0.2969(14) 1.0483(10) -0.3703(8) 0.0282(19) Uani 1 1 d . .
H1A H 0.223813 1.120345 -0.356449 0.042 Uiso 1 1 calc R U
H1B H 0.261315 1.041670 -0.439194 0.042 Uiso 1 1 calc R U
H1C H 0.419000 1.067912 -0.373340 0.042 Uiso 1 1 calc R U
C4 C 0.2552(14) 0.6340(12) -0.0957(10) 0.024(2) Uani 1 1 d . .
C1 C 0.2748(15) 0.9074(12) -0.2740(10) 0.027(2) Uani 1 1 d . .
C7 C 0.2215(15) 0.3509(12) -0.0147(9) 0.024(2) Uani 1 1 d . .
H7 H 0.206123 0.337426 -0.087179 0.029 Uiso 1 1 calc R U
C2 C 0.2363(16) 0.7849(13) -0.3023(11) 0.032(2) Uani 1 1 d . .
H2A H 0.218557 0.794519 -0.381534 0.038 Uiso 1 1 calc R U
C8 C 0.2508(15) 0.4851(12) 0.0012(10) 0.025(2) Uani 1 1 d . .
C6 C 0.3062(17) 0.8969(14) -0.1575(11) 0.033(3) Uani 1 1 d . .
H6 H 0.332857 0.978997 -0.138881 0.040 Uiso 1 1 calc R U
C9 C 0.2696(16) 0.4501(13) 0.1242(11) 0.032(3) Uani 1 1 d . .
H9 H 0.290528 0.515005 0.163815 0.038 Uiso 1 1 calc R U
C5 C 0.2966(18) 0.7567(13) -0.0667(11) 0.033(3) Uani 1 1 d . .
H5 H 0.317968 0.746546 0.012297 0.040 Uiso 1 1 calc R U
C3 C 0.2240(18) 0.6484(13) -0.2145(11) 0.034(3) Uani 1 1 d . .
H3A H 0.195356 0.567612 -0.234343 0.040 Uiso 1 1 calc R U
HW2 H 0.0795(5) 0.9118(4) 0.0969(13) 0.051 Uiso 1 1 d D U
HW1 H 0.2727(5) 0.9170(6) 0.1226(11) 0.051 Uiso 1 1 d D U
loop_
_atom_site_aniso_label
_atom_site_aniso_U_11
_atom_site_aniso_U_22
_atom_site_aniso_U_33
_atom_site_aniso_U_23
_atom_site_aniso_U_13
_atom_site_aniso_U_12
Sn1 0.0438(5) 0.0344(5) 0.0255(4) -0.0130(3) -0.0069(3) -0.0012(3)
Cl1 0.0402(13) 0.0237(13) 0.0206(11) -0.0026(10) -0.0029(10) -0.0009(10)
Cl2 0.0309(13) 0.0504(18) 0.0454(17) -0.0250(14) 0.0012(12) -0.0082(13)
Cl3 0.0279(12) 0.0498(18) 0.0488(17) -0.0283(14) -0.0074(11) -0.0022(12)
Cl4 0.144(4) 0.0192(15) 0.0300(16) -0.0032(12) -0.006(2) 0.0004(19)
O1 0.093(8) 0.030(5) 0.041(5) -0.013(4) 0.007(5) -0.015(5)
N2 0.035(5) 0.023(5) 0.028(5) 0.001(4) -0.001(4) -0.008(4)
N3 0.033(5) 0.029(5) 0.023(5) -0.002(4) -0.002(4) -0.004(4)
N1 0.043(5) 0.019(4) 0.021(4) -0.005(4) 0.000(4) -0.001(4)
C4 0.016(4) 0.019(5) 0.030(6) -0.002(4) -0.009(4) 0.002(4)
C1 0.026(5) 0.020(5) 0.027(5) -0.001(4) -0.009(4) 0.006(4)
C7 0.030(5) 0.022(5) 0.020(5) -0.007(4) -0.006(4) 0.001(4)
C2 0.037(6) 0.028(6) 0.026(6) -0.004(5) -0.011(5) 0.001(5)
C8 0.031(5) 0.017(5) 0.021(5) 0.002(4) -0.009(4) 0.001(4)
C6 0.039(6) 0.029(6) 0.029(6) -0.004(5) 0.002(5) -0.013(5)
C9 0.036(6) 0.026(6) 0.030(6) -0.004(5) -0.003(5) -0.006(5)
C5 0.046(6) 0.027(6) 0.025(6) -0.005(5) -0.016(5) -0.005(5)
C3 0.053(7) 0.024(6) 0.024(6) -0.007(5) -0.006(5) -0.009(5)
loop_
_atom_type_symbol
_atom_type_description
_atom_type_scat_dispersion_real
_atom_type_scat_dispersion_imag
_atom_type_scat_source
C C 0.0181 0.0091 'International Tables Vol C Tables 4.2.6.8 and 6.1.1.4'
H H 0.0000 0.0000 'International Tables Vol C Tables 4.2.6.8 and 6.1.1.4'
N N 0.0311 0.0180 'International Tables Vol C Tables 4.2.6.8 and 6.1.1.4'
O O 0.0492 0.0322 'International Tables Vol C Tables 4.2.6.8 and 6.1.1.4'
Cl Cl 0.3639 0.7018 'International Tables Vol C Tables 4.2.6.8 and 6.1.1.4'
Sn Sn 0.0259 5.4591 'International Tables Vol C Tables 4.2.6.8 and 6.1.1.4'
loop_
_geom_angle_atom_site_label_1
_geom_angle_atom_site_label_2
_geom_angle_atom_site_label_3
_geom_angle
Cl3 Sn1 Cl2 88.03(11)
Cl3 Sn1 Cl4 91.58(13)
Cl2 Sn1 Cl4 89.56(13)
HW2 O1 HW1 102.12(5)
N3 N2 C7 108.3(9)
N3 N2 H2 125.8
C7 N2 H2 125.8
N2 N3 C9 111.6(10)
N2 N3 H3 124.2
C9 N3 H3 124.2
C1 N1 H1A 109.5
C1 N1 H1B 109.5
H1A N1 H1B 109.5
C1 N1 H1C 109.5
H1A N1 H1C 109.5
H1B N1 H1C 109.5
C5 C4 C3 120.0(10)
C5 C4 C8 119.8(10)
C3 C4 C8 120.1(10)
C6 C1 C2 121.2(11)
C6 C1 N1 119.3(10)
C2 C1 N1 119.3(10)
N2 C7 C8 108.1(10)
N2 C7 H7 126.0
C8 C7 H7 126.0
C3 C2 C1 121.1(11)
C3 C2 H2A 119.4
C1 C2 H2A 119.4
C9 C8 C7 105.2(10)
C9 C8 C4 128.5(11)
C7 C8 C4 126.3(10)
C1 C6 C5 118.1(11)
C1 C6 H6 120.9
C5 C6 H6 120.9
N3 C9 C8 106.8(11)
N3 C9 H9 126.6
C8 C9 H9 126.6
C4 C5 C6 120.4(11)
C4 C5 H5 119.8
C6 C5 H5 119.8
C2 C3 C4 119.1(11)
C2 C3 H3A 120.5
C4 C3 H3A 120.5
loop_
_geom_bond_atom_site_label_1
_geom_bond_atom_site_label_2
_geom_bond_distance
Sn1 Cl3 2.532(3)
Sn1 Cl2 2.551(3)
Sn1 Cl4 2.556(4)
O1 HW2 0.9000(4)
O1 HW1 0.9000(4)
N2 N3 1.321(15)
N2 C7 1.337(14)
N2 H2 0.8600
N3 C9 1.330(16)
N3 H3 0.8600
N1 C1 1.473(14)
N1 H1A 0.8900
N1 H1B 0.8900
N1 H1C 0.8900
C4 C5 1.401(17)
C4 C3 1.401(17)
C4 C8 1.511(15)
C1 C6 1.383(18)
C1 C2 1.390(17)
C7 C8 1.410(16)
C7 H7 0.9300
C2 C3 1.387(17)
C2 H2A 0.9300
C8 C9 1.399(17)
C6 C5 1.426(17)
C6 H6 0.9300
C9 H9 0.9300
C5 H5 0.9300
C3 H3A 0.9300
loop_
_geom_hbond_atom_site_label_D
_geom_hbond_atom_site_label_H
_geom_hbond_atom_site_label_A
_geom_hbond_distance_DH
_geom_hbond_distance_HA
_geom_hbond_distance_DA
_geom_hbond_angle_DHA
_geom_hbond_site_symmetry_A
_geom_hbond_publ_flag
N1 H1B Cl1 0.89 2.37 3.244(10) 165.5 1_554 yes
N1 H1C Cl1 0.89 2.38 3.205(10) 153.5 2_675 yes
N1 H1A Cl4 0.89 2.95 3.231(9) 100.4 1_564 yes
O1 HW2 Cl3 0.9000(4) 2.566(11) 3.220(6) 130.1(11) . yes
O1 HW1 Cl2 0.9000(4) 2.415(6) 3.276(5) 160.2(7) . yes
N2 H2 O1 0.86 1.84 2.674(11) 163.9 1_545 yes
N3 H3 Cl4 0.86 2.71 3.305(11) 127.5 . yes
N3 H3 Cl1 0.86 2.52 3.189(10) 135.7 1_545 yes
