#------------------------------------------------------------------------------
#$Date: 2019-10-28 11:45:53 +0200 (Mon, 28 Oct 2019) $
#$Revision: 220064 $
#$URL: file:///home/coder/svn-repositories/cod/cif/7/23/47/7234767.cif $
#------------------------------------------------------------------------------
#
# This file is available in the Crystallography Open Database (COD),
# http://www.crystallography.net/
#
# All data on this site have been placed in the public domain by the
# contributors.
#
data_7234767
loop_
_publ_author_name
'Fangyi Chen'
'Taiji Tian'
'Binglian Bai'
'Jian Wang'
'Haitao Wang'
'Min Li'
_publ_section_title
;
 Crystal structures, intermolecular interactions and fluorescence
 properties of a series of symmetrical bi-1,3,4-oxadiazole derivatives
;
_journal_name_full               'Journal of Materials Chemistry C'
_journal_page_first              4451
_journal_page_last               4458
_journal_paper_doi               10.1039/C6TC00324A
_journal_volume                  4
_journal_year                    2016
_chemical_formula_sum            'C16 H8 F2 N4 O2'
_chemical_formula_weight         326.26
_chemical_name_common            BOXD-m-F
_chemical_name_systematic        2,2-bis(3-fluorophenyl)-bi-1,3,4-oxadiazole
_space_group_IT_number           14
_space_group_name_Hall           '-P 2ybc'
_space_group_name_H-M_alt        'P 1 21/c 1'
_symmetry_cell_setting           monoclinic
_symmetry_space_group_name_H-M   'P 1 21/c 1'
_atom_sites_solution_hydrogens   geom
_atom_sites_solution_primary     direct
_atom_sites_solution_secondary   difmap
_cell_angle_alpha                90.00
_cell_angle_beta                 92.76(3)
_cell_angle_gamma                90.00
_cell_formula_units_Z            2
_cell_length_a                   6.7300(13)
_cell_length_b                   7.8225(16)
_cell_length_c                   13.239(3)
_cell_measurement_reflns_used    1591
_cell_measurement_temperature    293(2)
_cell_measurement_theta_max      27.47
_cell_measurement_theta_min      3.03
_cell_volume                     696.2(3)
_computing_cell_refinement       'Bruker XSCANS'
_computing_data_collection       'Bruker XSCANS'
_computing_data_reduction        'Bruker SHELXTL'
_computing_molecular_graphics    'Bruker SHELXTL'
_computing_publication_material  'Bruker SHELXTL'
_computing_structure_refinement  'SHELXL-97 (Sheldrick, 1997)'
_computing_structure_solution    'SHELXS-97 (Sheldrick, 1990)'
_diffrn_ambient_temperature      293(2)
_diffrn_measured_fraction_theta_full 0.996
_diffrn_measured_fraction_theta_max 0.996
_diffrn_measurement_device_type  'Bruker P4'
_diffrn_measurement_method       '\w scans'
_diffrn_radiation_monochromator  graphite
_diffrn_radiation_source         'fine-focus sealed tube'
_diffrn_radiation_type           MoK\a
_diffrn_radiation_wavelength     0.71073
_diffrn_reflns_av_R_equivalents  0.0732
_diffrn_reflns_av_sigmaI/netI    0.0598
_diffrn_reflns_limit_h_max       8
_diffrn_reflns_limit_h_min       -8
_diffrn_reflns_limit_k_max       10
_diffrn_reflns_limit_k_min       -10
_diffrn_reflns_limit_l_max       17
_diffrn_reflns_limit_l_min       -17
_diffrn_reflns_number            6630
_diffrn_reflns_theta_full        27.47
_diffrn_reflns_theta_max         27.47
_diffrn_reflns_theta_min         3.03
_exptl_absorpt_coefficient_mu    0.125
_exptl_absorpt_correction_type   none
_exptl_crystal_density_diffrn    1.556
_exptl_crystal_density_method    'not measured'
_exptl_crystal_description       needle
_exptl_crystal_F_000             332
_refine_diff_density_max         0.352
_refine_diff_density_min         -0.322
_refine_diff_density_rms         0.100
_refine_ls_extinction_method     none
_refine_ls_goodness_of_fit_ref   1.104
_refine_ls_hydrogen_treatment    constr
_refine_ls_matrix_type           full
_refine_ls_number_parameters     109
_refine_ls_number_reflns         1591
_refine_ls_number_restraints     0
_refine_ls_restrained_S_all      1.104
_refine_ls_R_factor_all          0.0546
_refine_ls_R_factor_gt           0.0477
_refine_ls_shift/su_max          0.000
_refine_ls_shift/su_mean         0.000
_refine_ls_structure_factor_coef Fsqd
_refine_ls_weighting_details
'calc w=1/[\s^2^(Fo^2^)+(0.0710P)^2^+0.0578P] where P=(Fo^2^+2Fc^2^)/3'
_refine_ls_weighting_scheme      calc
_refine_ls_wR_factor_gt          0.1208
_refine_ls_wR_factor_ref         0.1263
_reflns_number_gt                1306
_reflns_number_total             1591
_reflns_threshold_expression     >2sigma(I)
_iucr_refine_instructions_details
;
TITL boxd-m-f in P2(1)/c 
CELL 0.71073   6.7300   7.8225  13.2393  90.000  92.761  90.000 
ZERR    2.00   0.0013   0.0016   0.0026   0.000   0.030   0.000 
LATT 1 
SYMM -X, 0.5+Y, 0.5-Z 
SFAC C  H  N  O  F  
UNIT 32 16 8 4 4 
L.S. 4
ACTA
BOND 
FMAP 2
PLAN 20
FREE Q16  Q17 
FREE C3   Q16 
WGHT  0.070500  0.061500 
FVAR  0.817110
MOLE 1
C1     1   0.149977  0.252898  0.722192 11.000000  0.033130  0.060320 = 
           0.049030 -0.015460  0.018260 -0.001120
AFIX 43
H1     2   0.040832  0.271663  0.761237 11.000000 -1.200000
AFIX 0
C2     1   0.288651  0.130831  0.748743 11.000000  0.038380  0.057500 = 
           0.039590 -0.001800  0.014860 -0.004560
C3     1   0.454210  0.098818  0.694468 11.000000  0.033890  0.049250 = 
           0.044990  0.000960  0.012560  0.004770
AFIX 43
H3     2   0.546537  0.015982  0.715204 11.000000 -1.200000
AFIX 0
C4     1   0.478133  0.194595  0.607822 11.000000  0.029430  0.039630 = 
           0.038320 -0.006370  0.011040 -0.000370
C5     1   0.340033  0.319207  0.578092 11.000000  0.038520  0.046380 = 
           0.044960 -0.000100  0.012930  0.005740
AFIX 43
H5     2   0.357152  0.383140  0.519929 11.000000 -1.200000
AFIX 0
C6     1   0.176815  0.347431  0.635718 11.000000  0.036070  0.052440 = 
           0.057260 -0.006560  0.011960  0.011560
AFIX 43
H6     2   0.084364  0.430815  0.616030 11.000000 -1.200000
AFIX 0
C7     1   0.649068  0.166854  0.545724 11.000000  0.030040  0.038310 = 
           0.040010 -0.002840  0.010920  0.001860
C8     1   0.914607  0.056753  0.498413 11.000000  0.029020  0.041970 = 
           0.037710 -0.004890  0.014520 -0.002840
F1     5   0.261366  0.034553  0.831881 11.000000  0.059930  0.099710 = 
           0.059680  0.022510  0.029190  0.003740
N1     3   0.690759  0.244536  0.463628 11.000000  0.042750  0.053680 = 
           0.050470  0.008910  0.023370  0.012160
N2     3   0.867588  0.170936  0.432323 11.000000  0.039140  0.053280 = 
           0.047960  0.004590  0.022030  0.006320
O1     4   0.785259  0.044111  0.573062 11.000000  0.029350  0.043500 = 
           0.040050  0.000080  0.015300  0.003180

HKLF 4 
END  
;
_cod_data_source_file            J-Mater-Chem-C-2016-4-4451.cif
_cod_data_source_block           boxd-m-f
_cod_original_cell_volume        696.2(2)
_cod_original_sg_symbol_H-M      P21/c
_cod_database_code               7234767
loop_
_symmetry_equiv_pos_as_xyz
'x, y, z'
'-x, y+1/2, -z+1/2'
'-x, -y, -z'
'x, -y-1/2, z-1/2'
loop_
_atom_site_label
_atom_site_type_symbol
_atom_site_fract_x
_atom_site_fract_y
_atom_site_fract_z
_atom_site_U_iso_or_equiv
_atom_site_adp_type
_atom_site_occupancy
_atom_site_symmetry_multiplicity
_atom_site_calc_flag
_atom_site_refinement_flags
_atom_site_disorder_assembly
_atom_site_disorder_group
C1 C 0.14998(19) 0.2529(2) 0.72219(11) 0.0470(4) Uani 1 1 d . . .
H1 H 0.0408 0.2717 0.7612 0.056 Uiso 1 1 calc R . .
C2 C 0.2887(2) 0.1308(2) 0.74874(11) 0.0447(4) Uani 1 1 d . . .
C3 C 0.45421(19) 0.09882(18) 0.69447(10) 0.0424(3) Uani 1 1 d . . .
H3 H 0.5465 0.0160 0.7152 0.051 Uiso 1 1 calc R . .
C4 C 0.47813(17) 0.19459(16) 0.60782(10) 0.0355(3) Uani 1 1 d . . .
C5 C 0.3400(2) 0.31921(18) 0.57809(11) 0.0429(3) Uani 1 1 d . . .
H5 H 0.3572 0.3831 0.5199 0.052 Uiso 1 1 calc R . .
C6 C 0.1768(2) 0.34743(19) 0.63572(12) 0.0483(4) Uani 1 1 d . . .
H6 H 0.0844 0.4308 0.6160 0.058 Uiso 1 1 calc R . .
C7 C 0.64907(18) 0.16685(16) 0.54572(10) 0.0358(3) Uani 1 1 d . . .
C8 C 0.91461(18) 0.05675(16) 0.49841(10) 0.0358(3) Uani 1 1 d . . .
F1 F 0.26137(16) 0.03455(16) 0.83188(8) 0.0723(4) Uani 1 1 d . . .
N1 N 0.69076(17) 0.24454(16) 0.46363(10) 0.0483(3) Uani 1 1 d . . .
N2 N 0.86759(17) 0.17094(16) 0.43232(9) 0.0462(3) Uani 1 1 d . . .
O1 O 0.78526(13) 0.04411(11) 0.57306(7) 0.0372(3) Uani 1 1 d . . .
loop_
_atom_site_aniso_label
_atom_site_aniso_U_11
_atom_site_aniso_U_22
_atom_site_aniso_U_33
_atom_site_aniso_U_23
_atom_site_aniso_U_13
_atom_site_aniso_U_12
C1 0.0331(6) 0.0603(9) 0.0490(8) -0.0155(7) 0.0183(6) -0.0011(6)
C2 0.0384(7) 0.0575(8) 0.0396(7) -0.0018(6) 0.0149(6) -0.0046(6)
C3 0.0339(7) 0.0493(8) 0.0450(8) 0.0010(6) 0.0126(6) 0.0048(6)
C4 0.0294(6) 0.0396(6) 0.0383(7) -0.0064(5) 0.0110(5) -0.0004(5)
C5 0.0385(7) 0.0464(7) 0.0450(8) -0.0001(6) 0.0129(6) 0.0057(5)
C6 0.0361(7) 0.0524(8) 0.0573(9) -0.0066(7) 0.0120(6) 0.0116(6)
C7 0.0300(6) 0.0383(6) 0.0400(7) -0.0028(5) 0.0109(5) 0.0019(5)
C8 0.0290(6) 0.0420(7) 0.0377(6) -0.0049(5) 0.0145(5) -0.0028(5)
F1 0.0599(6) 0.0997(8) 0.0597(6) 0.0225(6) 0.0292(5) 0.0037(5)
N1 0.0428(7) 0.0537(7) 0.0505(7) 0.0089(6) 0.0234(5) 0.0122(6)
N2 0.0391(6) 0.0533(7) 0.0480(7) 0.0046(5) 0.0220(5) 0.0063(5)
O1 0.0294(5) 0.0435(5) 0.0401(5) 0.0001(4) 0.0153(4) 0.0032(3)
loop_
_atom_type_symbol
_atom_type_description
_atom_type_scat_dispersion_real
_atom_type_scat_dispersion_imag
_atom_type_scat_source
C C 0.0033 0.0016 'International Tables Vol C Tables 4.2.6.8 and 6.1.1.4'
H H 0.0000 0.0000 'International Tables Vol C Tables 4.2.6.8 and 6.1.1.4'
N N 0.0061 0.0033 'International Tables Vol C Tables 4.2.6.8 and 6.1.1.4'
O O 0.0106 0.0060 'International Tables Vol C Tables 4.2.6.8 and 6.1.1.4'
F F 0.0171 0.0103 'International Tables Vol C Tables 4.2.6.8 and 6.1.1.4'
loop_
_geom_angle_atom_site_label_1
_geom_angle_atom_site_label_2
_geom_angle_atom_site_label_3
_geom_angle
_geom_angle_site_symmetry_1
_geom_angle_site_symmetry_3
C2 C1 C6 118.11(12) . .
F1 C2 C1 118.64(12) . .
F1 C2 C3 117.90(13) . .
C1 C2 C3 123.46(14) . .
C2 C3 C4 117.55(13) . .
C3 C4 C5 120.70(12) . .
C3 C4 C7 120.74(12) . .
C5 C4 C7 118.57(12) . .
C6 C5 C4 119.53(13) . .
C1 C6 C5 120.65(13) . .
N1 C7 O1 112.65(11) . .
N1 C7 C4 127.87(12) . .
O1 C7 C4 119.48(11) . .
N2 C8 O1 113.85(11) . .
N2 C8 C8 128.05(15) . 3_756
O1 C8 C8 118.10(15) . 3_756
C7 N1 N2 106.15(11) . .
C8 N2 N1 105.66(11) . .
C8 O1 C7 101.69(10) . .
loop_
_geom_bond_atom_site_label_1
_geom_bond_atom_site_label_2
_geom_bond_distance
_geom_bond_site_symmetry_2
C1 C2 1.369(2) .
C1 C6 1.382(2) .
C2 F1 1.3535(17) .
C2 C3 1.3776(18) .
C3 C4 1.3860(19) .
C4 C5 1.3906(19) .
C4 C7 1.4620(17) .
C5 C6 1.3850(18) .
C7 N1 1.2879(18) .
C7 O1 1.3642(15) .
C8 N2 1.2794(18) .
C8 O1 1.3517(15) .
C8 C8 1.451(2) 3_756
N1 N2 1.4025(15) .
