#------------------------------------------------------------------------------
#$Date: 2019-11-19 11:04:42 +0200 (Tue, 19 Nov 2019) $
#$Revision: 231038 $
#$URL: file:///home/coder/svn-repositories/cod/cif/7/23/51/7235189.cif $
#------------------------------------------------------------------------------
#
# This file is available in the Crystallography Open Database (COD),
# http://www.crystallography.net/
#
# All data on this site have been placed in the public domain by the
# contributors.
#
data_7235189
loop_
_publ_author_name
'Xiaoyu Fang'
'Xiaogang Yang'
'Dongpeng Yan'
_publ_section_title
;
 Vapor-phase pi-pi molecular recognition: a fast and solvent-free strategy
 towards the formation of co-crystalline hollow microtube with 1D optical
 waveguide and up-conversion emission
;
_journal_name_full               'Journal of Materials Chemistry C'
_journal_page_first              1632
_journal_page_last               1637
_journal_paper_doi               10.1039/C6TC05048D
_journal_volume                  5
_journal_year                    2017
_chemical_formula_moiety         'C10 H2 N4, C12 H6 S'
_chemical_formula_sum            'C22 H10 N4 S'
_chemical_formula_weight         362.40
_space_group_crystal_system      monoclinic
_space_group_IT_number           12
_space_group_name_Hall           '-C 2y'
_space_group_name_H-M_alt        'C 1 2/m 1'
_atom_sites_solution_hydrogens   geom
_cell_angle_alpha                90
_cell_angle_beta                 93.021(9)
_cell_angle_gamma                90
_cell_formula_units_Z            2
_cell_length_a                   9.435(6)
_cell_length_b                   12.771(8)
_cell_length_c                   7.237(5)
_cell_measurement_reflns_used    1381
_cell_measurement_temperature    296(2)
_cell_measurement_theta_max      27.363
_cell_measurement_theta_min      2.687
_cell_volume                     870.8(10)
_computing_cell_refinement       'Bruker SAINT'
_computing_data_collection       'Bruker APEX2'
_computing_data_reduction        'Bruker SAINT'
_computing_molecular_graphics    'Bruker SHELXTL'
_computing_publication_material  'Bruker SHELXTL'
_computing_structure_refinement  'SHELXL-97 (Sheldrick, 1997)'
_computing_structure_solution    'SHELXS-97 (Sheldrick, 1990)'
_diffrn_ambient_temperature      296.15
_diffrn_measured_fraction_theta_full 0.983
_diffrn_measured_fraction_theta_max 0.982
_diffrn_measurement_device_type  'Bruker APEX-II CCD'
_diffrn_measurement_method       '\f and \w scans'
_diffrn_radiation_type           'MO K\a'
_diffrn_radiation_wavelength     0.71073
_diffrn_reflns_av_R_equivalents  0.0334
_diffrn_reflns_av_unetI/netI     0.0343
_diffrn_reflns_Laue_measured_fraction_full 0.983
_diffrn_reflns_Laue_measured_fraction_max 0.982
_diffrn_reflns_limit_h_max       11
_diffrn_reflns_limit_h_min       -8
_diffrn_reflns_limit_k_max       14
_diffrn_reflns_limit_k_min       -15
_diffrn_reflns_limit_l_max       8
_diffrn_reflns_limit_l_min       -8
_diffrn_reflns_number            2152
_diffrn_reflns_point_group_measured_fraction_full 0.983
_diffrn_reflns_point_group_measured_fraction_max 0.982
_diffrn_reflns_theta_full        25.242
_diffrn_reflns_theta_max         25.499
_diffrn_reflns_theta_min         2.687
_diffrn_source_current           30.0
_diffrn_source_power             1.5
_diffrn_source_voltage           50.0
_exptl_absorpt_coefficient_mu    0.200
_exptl_absorpt_correction_T_max  0.7456
_exptl_absorpt_correction_T_min  0.6232
_exptl_absorpt_correction_type   multi-scan
_exptl_absorpt_process_details
;
? was used for absorption correction.
R(int) was 0.0789 before and 0.0483 after correction.
The Ratio of minimum to maximum transmission is 0.8358.
The \l/2 correction factor is 0.00150.
;
_exptl_crystal_colour            yellow
_exptl_crystal_density_diffrn    1.382
_exptl_crystal_description       tube
_exptl_crystal_F_000             372
_exptl_crystal_size_max          0.290
_exptl_crystal_size_mid          0.270
_exptl_crystal_size_min          0.250
_refine_diff_density_max         0.265
_refine_diff_density_min         -0.399
_refine_diff_density_rms         0.058
_refine_ls_extinction_coef       .
_refine_ls_extinction_method     none
_refine_ls_goodness_of_fit_ref   1.019
_refine_ls_hydrogen_treatment    constr
_refine_ls_matrix_type           full
_refine_ls_number_parameters     71
_refine_ls_number_reflns         842
_refine_ls_number_restraints     6
_refine_ls_restrained_S_all      1.102
_refine_ls_R_factor_all          0.0659
_refine_ls_R_factor_gt           0.0596
_refine_ls_shift/su_max          0.000
_refine_ls_shift/su_mean         0.000
_refine_ls_structure_factor_coef Fsqd
_refine_ls_weighting_details
'w=1/[\s^2^(Fo^2^)+(0.1000P)^2^+1.0000P] where P=(Fo^2^+2Fc^2^)/3'
_refine_ls_weighting_scheme      calc
_refine_ls_wR_factor_gt          0.1679
_refine_ls_wR_factor_ref         0.1756
_reflns_Friedel_coverage         0.000
_reflns_Friedel_fraction_full    .
_reflns_Friedel_fraction_max     .
_reflns_number_gt                734
_reflns_number_total             842
_reflns_threshold_expression     'I > 2\s(I)'
_cod_data_source_file            J-Mater-Chem-C-2017-5-1632.cif
_cod_data_source_block           1
_cod_database_code               7235189
_shelx_estimated_absorpt_t_max   0.952
_shelx_estimated_absorpt_t_min   0.944
_shelx_hkl_checksum              71474
_shelx_hkl_file
;
   2   0   0   50.43    1.85
   2   0   0   44.19    1.83
   4   0   0    7.14    0.29
   4   0   0    7.20    0.30
   6   0   0   10.85    0.44
   8   0   0   32.68    1.29
  10   0   0    1.73    0.11
   1  -1   0  115.14    4.77
   1   1   0  117.93    4.50
   3  -1   0   29.48    1.31
   3   1   0   37.40    1.30
   5  -1   0   11.39    0.44
   5  -1   0   11.28    0.44
   5   1   0   10.17    0.44
   5   1   0   10.76    0.44
   7  -1   0    3.15    0.16
   7  -1   0    3.24    0.15
   7   1   0    3.54    0.16
   7   1   0    3.31    0.16
   9  -1   0    3.17    0.16
   9   1   0    3.46    0.17
  11  -1   0    0.49    0.06
  11   1   0    0.46    0.06
   0  -2   0  195.27    7.93
   0   2   0  188.12    7.39
   2  -2   0    6.62    0.27
   2   2   0    6.78    0.27
   4  -2   0   21.98    0.88
   4  -2   0   22.81    0.88
   4   2   0   22.57    0.88
   6  -2   0    5.10    0.23
   6  -2   0    5.71    0.24
   6   2   0    5.48    0.23
   8  -2   0    0.73    0.06
   8   2   0    0.86    0.07
  10  -2   0    0.15    0.03
  10   2   0    0.15    0.04
   1  -3   0    0.20    0.02
  -1  -3   0    0.16    0.02
   1   3   0    0.19    0.02
   3  -3   0   83.10    3.13
   3   3   0   78.09    3.11
   5  -3   0   25.12    0.96
   5  -3   0   22.41    0.95
   5   3   0   25.59    0.96
   7  -3   0    1.56    0.09
   7   3   0    1.58    0.09
   9  -3   0    0.36    0.05
   9   3   0    0.44    0.06
  11  -3   0    1.15    0.09
  11   3   0    1.14    0.09
   0  -4   0  301.80   12.49
   2  -4   0   37.69    1.52
   2   4   0   40.56    1.52
   4  -4   0   37.75    1.45
   4  -4   0   35.21    1.46
   4   4   0   38.90    1.45
   6  -4   0    2.43    0.13
   6  -4   0    2.29    0.12
   6   4   0    2.77    0.13
   8  -4   0    6.83    0.30
   8   4   0    7.06    0.31
  10  -4   0    0.18    0.04
  10   4   0    0.15    0.04
   1  -5   0    8.49    0.35
  -1  -5   0    8.28    0.35
   1   5   0    8.62    0.34
   3  -5   0    9.16    0.38
   3   5   0    8.83    0.37
   5  -5   0    0.98    0.07
   5  -5   0    0.99    0.06
   5   5   0    0.89    0.06
   7  -5   0    8.94    0.38
   7   5   0    9.17    0.38
   9   5   0    0.35    0.05
  11   5   0    0.02    0.03
   0  -6   0    0.23    0.03
   2  -6   0   25.60    1.00
  -2  -6   0   24.26    1.00
   2   6   0   25.90    0.99
   4  -6   0    2.77    0.13
   4  -6   0    2.70    0.14
   4   6   0    2.87    0.13
   6  -6   0   12.97    0.54
   6  -6   0   13.25    0.53
   6   6   0   12.91    0.54
   8  -6   0    0.11    0.04
   8   6   0    0.11    0.04
  10  -6   0    0.27    0.06
  10   6   0    0.23    0.05
  -1  -7   0    8.47    0.36
   1  -7   0    9.22    0.37
   1   7   0    8.10    0.35
  -3  -7   0   29.26    1.20
   3  -7   0   30.78    1.20
   3   7   0   30.96    1.19
   5  -7   0   11.36    0.48
   5  -7   0   10.84    0.46
   5   7   0   11.98    0.47
   7  -7   0    4.65    0.23
   7   7   0    4.54    0.22
   9  -7   0    0.02    0.03
   9   7   0    0.00    0.03
   0  -8   0    0.20    0.03
  -2  -8   0    5.98    0.27
   2  -8   0    6.46    0.28
   2   8   0    6.09    0.26
   4  -8   0   10.33    0.45
  -4  -8   0   10.44    0.44
   4   8   0   10.43    0.43
   6  -8   0    0.49    0.05
   6  -8   0    0.45    0.07
   8  -8   0    0.11    0.04
   8   8   0    0.04    0.03
  10  -8   0    0.84    0.10
  10   8   0    0.61    0.08
   1  -9   0    4.56    0.22
  -1  -9   0    4.61    0.22
  -3  -9   0    0.54    0.06
   3  -9   0    0.52    0.06
   3   9   0    0.53    0.05
   5  -9   0    1.04    0.08
  -5  -9   0    1.11    0.09
   5  -9   0    0.91    0.09
   5   9   0    1.08    0.08
   7  -9   0    0.05    0.04
  -7  -9   0    0.04    0.04
   7   9   0    0.07    0.04
   9  -9   0    2.52    0.17
   9   9   0    2.41    0.16
   0 -10   0    1.51    0.11
  -2 -10   0    5.68    0.27
   2 -10   0    5.50    0.27
   2  10   0    5.73    0.25
   4 -10   0   14.81    0.62
  -4 -10   0   14.60    0.61
   4  10   0   13.91    0.59
   6 -10   0    1.04    0.10
  -6 -10   0    1.21    0.10
   6  10   0    1.16    0.09
  -8 -10   0    0.43    0.07
   8 -10   0    0.41    0.07
   8  10   0    0.44    0.07
  -1 -11   0    0.40    0.06
   1 -11   0    0.26    0.05
   3 -11   0    4.54    0.24
  -3 -11   0    4.62    0.24
   3  11   0    4.95    0.23
   5 -11   0    0.76    0.09
   5 -11   0    0.78    0.07
  -5 -11   0    0.78    0.09
   5  11   0    0.73    0.08
   7 -11   0    0.07    0.05
  -7 -11   0    0.06    0.04
   7 -11   0    0.06    0.05
   7  11   0    0.02    0.04
   0 -12   0    0.40    0.06
   2 -12   0    0.72    0.08
  -2 -12   0    0.80    0.09
   4 -12   0    0.13    0.05
  -4 -12   0    0.26    0.06
   4  12   0    0.12    0.04
   6 -12   0    2.39    0.14
   6 -12   0    2.48    0.17
  -6 -12   0    2.50    0.16
   6  12   0    2.47    0.15
   1 -13   0    0.96    0.10
  -1 -13   0    0.95    0.10
   3 -13   0    1.16    0.11
  -3 -13   0    1.42    0.12
  -5 -13   0   -0.01    0.04
   5 -13   0    0.05    0.05
   5 -13   0   -0.01    0.03
   5  13   0    0.00    0.04
   0 -14   0    2.89    0.18
   2 -14   0    0.01    0.04
  -2 -14   0    0.01    0.04
   4 -14   0    4.64    0.27
  -4 -14   0    4.93    0.26
  -1 -15   0    0.40    0.08
   1 -15   0    0.34    0.07
  -3 -15   0    4.29    0.25
   3 -15   0    4.15    0.25
  10   0  -1    0.04    0.03
   8   0  -1    2.60    0.14
   8   0  -1    2.83    0.14
   6   0  -1    0.25    0.03
   6   0  -1    0.28    0.03
   4   0  -1    1.00    0.06
   4   0  -1    1.08    0.05
   2   0  -1   19.35    0.79
  -2   0   1   21.23    0.79
   2   0  -1   20.22    0.78
   0   0  -1    1.62    0.08
   0   0  -1    1.64    0.08
  -2   0  -1    1.63    0.07
   2   0   1    1.71    0.08
   2   0   1    1.58    0.07
   4   0   1    0.46    0.04
   4   0   1    0.43    0.03
   6   0   1    7.62    0.32
   8   0   1   16.92    0.69
  10   0   1    2.04    0.13
  11  -1  -1    0.27    0.05
  11   1  -1    0.30    0.05
   9  -1  -1    6.18    0.28
   9  -1  -1    6.42    0.28
   9   1  -1    6.08    0.28
   7  -1  -1    0.70    0.06
   7  -1  -1    0.69    0.06
   7   1  -1    0.92    0.06
   5  -1  -1    1.11    0.06
   5  -1  -1    1.19    0.06
   5   1  -1    1.07    0.06
   5   1  -1    1.21    0.06
   3  -1  -1    1.30    0.07
   3  -1  -1    1.37    0.07
   3   1  -1    1.59    0.07
   3   1  -1    1.52    0.07
   1  -1  -1    8.27    0.32
  -1  -1   1    7.89    0.32
   1  -1  -1    7.97    0.32
  -1   1   1    8.14    0.32
   1   1  -1    7.93    0.32
   1   1  -1    8.67    0.32
  -1  -1  -1    0.42    0.02
   1  -1   1    0.38    0.03
   3  -1   1    0.39    0.03
   3  -1   1    0.40    0.02
   3   1   1    0.53    0.04
   5  -1   1    0.23    0.03
   5  -1   1    0.23    0.02
   5   1   1    0.16    0.03
   7  -1   1    3.00    0.15
   7  -1   1    2.91    0.14
   7   1   1    2.68    0.13
   7   1   1    2.69    0.14
   9  -1   1    0.33    0.05
   9   1   1    0.32    0.06
   9   1   1    0.23    0.04
  11  -1   1    0.03    0.04
  11   1   1    0.00    0.04
  11   1   1    0.14    0.05
  10  -2  -1    1.22    0.09
  10   2  -1    1.36    0.10
   8  -2  -1    8.01    0.34
   8  -2  -1    8.08    0.34
   8   2  -1    7.91    0.34
   6  -2  -1    0.16    0.03
   6  -2  -1    0.14    0.03
   6   2  -1    0.21    0.03
   6   2  -1    0.22    0.03
   4  -2  -1    0.60    0.04
   4  -2  -1    0.58    0.04
   4   2  -1    0.63    0.04
  -2  -2   1   56.74    2.10
   2  -2  -1   53.62    2.09
   2   2  -1   52.02    2.09
   0   2  -1    3.80    0.15
   0   2  -1    3.88    0.15
   2  -2   1   10.50    0.41
   2   2   1    9.70    0.40
  -2   2  -1   10.29    0.40
   4  -2   1   15.97    0.62
   4  -2   1   16.30    0.63
   4   2   1   15.24    0.62
   4   2   1   15.86    0.63
   6  -2   1    2.44    0.11
   6  -2   1    2.47    0.12
   6   2   1    2.22    0.11
   6   2   1    2.24    0.12
   8  -2   1    1.17    0.09
   8  -2   1    1.25    0.07
   8   2   1    1.02    0.08
  10  -2   1    0.16    0.05
  10   2   1    0.02    0.04
  10   2   1    0.10    0.03
  11  -3  -1    0.14    0.04
  11   3  -1    0.15    0.04
   9  -3  -1    0.97    0.08
   9  -3  -1    1.02    0.08
   9   3  -1    0.94    0.08
   7  -3  -1   13.15    0.52
   7  -3  -1   11.35    0.51
   7   3  -1   13.52    0.52
   5  -3  -1    7.62    0.31
   5  -3  -1    7.71    0.31
   5   3  -1    6.75    0.31
   3  -3  -1   28.60    1.21
   3  -3  -1   32.58    1.21
   3   3  -1   32.36    1.21
   1  -3  -1   -0.01    0.01
   1   3  -1    0.02    0.01
   1  -3   1  138.14    5.48
   1   3   1  129.90    5.21
  -1   3  -1  136.35    5.21
   3  -3   1   10.49    0.40
   3  -3   1    9.88    0.41
   3   3   1   10.06    0.40
   5  -3   1    0.79    0.05
   5  -3   1    0.77    0.06
   5   3   1    0.75    0.05
   5   3   1    0.81    0.06
   7  -3   1   15.18    0.63
   7  -3   1   15.21    0.61
   7   3   1   14.18    0.62
   7   3   1   17.19    0.64
   9  -3   1    2.83    0.16
   9   3   1    2.89    0.15
  11  -3   1    2.61    0.16
  11   3   1    2.56    0.15
  10  -4  -1    0.86    0.08
  10   4  -1    1.03    0.09
   8  -4  -1    0.62    0.06
   8  -4  -1    0.68    0.07
   8   4  -1    0.69    0.07
   6  -4  -1    0.70    0.05
   6  -4  -1    0.67    0.06
   6   4  -1    0.54    0.05
   4  -4  -1    7.40    0.28
   4  -4  -1    7.15    0.29
   4   4  -1    6.74    0.27
   4   4  -1    5.95    0.28
   2  -4  -1   25.28    1.01
   2   4  -1   26.15    1.00
   2   4  -1   26.13    1.01
   0  -4  -1   15.09    0.57
   0  -4   1   14.63    0.57
   0   4  -1   13.74    0.56
   0   4  -1   13.93    0.56
   2  -4   1   20.73    0.82
   2   4   1   20.91    0.81
   4  -4   1    0.01    0.01
   4  -4   1    0.01    0.02
   4   4   1   -0.02    0.03
   4   4   1    0.04    0.02
   6  -4   1   13.27    0.57
   6  -4   1   13.58    0.55
   6   4   1   14.63    0.56
   8  -4   1    7.04    0.32
   8   4   1    7.10    0.31
  10  -4   1    0.62    0.08
  10   4   1    0.68    0.07
  11  -5  -1    0.01    0.03
  11   5  -1    0.01    0.03
   9  -5  -1    3.61    0.18
   9  -5  -1    3.69    0.20
   9   5  -1    3.59    0.19
   7  -5  -1    1.68    0.10
   7   5  -1    1.84    0.11
   5  -5  -1    9.91    0.40
   5  -5  -1    9.41    0.40
   5   5  -1    9.65    0.40
   3  -5  -1   13.25    0.53
   3   5  -1   12.91    0.51
   3   5  -1   13.13    0.52
   1  -5  -1   11.89    0.48
  -1  -5   1   11.59    0.48
   1   5  -1   12.01    0.47
   1  -5   1   15.55    0.62
  -1  -5  -1   16.44    0.62
  -1   5  -1   14.82    0.61
   3  -5   1   10.15    0.41
   3   5   1    9.74    0.40
   5  -5   1    1.36    0.07
   5  -5   1    1.40    0.09
   5   5   1    1.23    0.08
   7  -5   1    0.90    0.06
   7  -5   1    0.94    0.08
   7   5   1    0.86    0.07
   9  -5   1    0.06    0.04
   9   5   1   -0.05    0.05
   9   5   1    0.07    0.03
  11  -5   1    1.54    0.13
  11   5   1    1.53    0.12
  10  -6  -1    0.50    0.06
  10   6  -1    0.42    0.06
   8  -6  -1    2.41    0.14
   8  -6  -1    2.52    0.14
   8   6  -1    2.35    0.14
   6  -6  -1    0.17    0.03
   6   6  -1   -0.02    0.05
   6   6  -1    0.13    0.03
   4  -6  -1    3.66    0.17
  -4  -6   1    3.27    0.19
   4  -6  -1    3.61    0.16
   4   6  -1    3.38    0.16
   4   6  -1    3.47    0.14
   2  -6  -1   48.81    1.93
  -2  -6   1   44.54    1.92
   2   6  -1   50.53    1.92
   2   6  -1   53.72    1.91
   0  -6   1    6.43    0.26
   0  -6  -1    6.10    0.26
   0   6  -1    5.76    0.25
   0   6  -1    5.99    0.25
   2  -6   1    7.05    0.30
  -2  -6  -1    6.67    0.30
   2   6   1    7.48    0.29
   4  -6   1   21.05    0.88
   4   6   1   23.21    0.88
   6  -6   1    0.01    0.03
   6  -6   1    0.01    0.02
   6   6   1    0.01    0.02
   6   6   1    0.00    0.04
   8  -6   1    2.25    0.14
   8   6   1    2.39    0.13
  10  -6   1    0.26    0.06
  10   6   1    0.38    0.06
   9  -7  -1    0.02    0.03
   9   7  -1    0.05    0.04
   7  -7  -1    0.92    0.07
   7   7  -1    0.91    0.08
   5  -7  -1    0.49    0.05
   5  -7  -1    0.23    0.04
  -5  -7   1    0.36    0.07
   5   7  -1    0.37    0.05
   3  -7  -1    0.02    0.02
  -3  -7   1    0.01    0.02
   3   7  -1    0.00    0.02
   3   7  -1    0.01    0.01
   1  -7  -1    2.40    0.12
  -1  -7   1    2.31    0.12
   1   7  -1    2.30    0.11
   1   7  -1    2.49    0.11
  -1  -7  -1   24.82    1.00
   1  -7   1   25.73    1.01
   3  -7   1    2.33    0.13
  -3  -7  -1    2.49    0.13
   3   7   1    2.72    0.12
   5  -7   1    0.21    0.03
   5  -7   1    0.16    0.04
   5   7   1    0.25    0.04
   7  -7   1    0.57    0.07
   7   7   1    0.72    0.07
   9  -7   1    0.47    0.07
   9   7   1    0.53    0.07
  10  -8  -1    0.02    0.03
  10   8  -1    0.02    0.04
   8  -8  -1    1.08    0.08
   8   8  -1    0.96    0.09
   6  -8  -1    0.01    0.03
  -6  -8   1    0.10    0.04
   6   8  -1    0.06    0.03
  -4  -8   1   15.01    0.62
   4  -8  -1   15.48    0.62
   4   8  -1   14.73    0.61
   2  -8  -1    0.38    0.05
  -2  -8   1    0.27    0.04
   2   8  -1    0.29    0.04
   0  -8  -1    0.81    0.06
   0  -8   1    0.76    0.06
  -2  -8  -1    0.41    0.05
   2  -8   1    0.53    0.06
  -4  -8  -1   16.56    0.68
   4  -8   1   16.45    0.69
   4   8   1   16.86    0.67
   6  -8   1    0.18    0.05
   6  -8   1    0.16    0.03
   6   8   1    0.17    0.04
   6   8   1    0.01    0.05
   8  -8   1    0.50    0.08
   8   8   1    0.45    0.06
  10  -8   1    0.19    0.06
  10   8   1    0.14    0.05
   9  -9  -1    0.08    0.04
   9  -9  -1    0.06    0.04
   9   9  -1   -0.02    0.04
   7  -9  -1    0.08    0.04
  -7  -9   1    0.13    0.06
   7  -9  -1    0.11    0.03
   7   9  -1    0.02    0.03
   5  -9  -1   24.06    1.00
   5  -9  -1   25.81    0.98
  -5  -9   1   24.63    0.99
   5   9  -1   24.05    0.99
   3  -9  -1    1.79    0.11
  -3  -9   1    1.66    0.11
   3   9  -1    1.67    0.10
   1  -9  -1    1.77    0.11
  -1  -9   1    1.97    0.12
   1   9  -1    2.03    0.11
  -1  -9  -1   16.71    0.69
   1  -9   1   16.80    0.69
  -3  -9  -1   19.17    0.75
   3  -9   1   18.89    0.76
   3   9   1   16.69    0.73
  -5  -9  -1    0.05    0.03
   5  -9   1    0.02    0.04
   5  -9   1    0.13    0.03
   5   9   1    0.02    0.03
   7  -9   1    4.40    0.23
   7   9   1    4.35    0.22
   9  -9   1    0.25    0.07
   9   9   1    0.25    0.06
   9   9   1    0.01    0.07
   8 -10  -1    0.20    0.06
   8 -10  -1    0.24    0.05
   8  10  -1    0.31    0.06
   6 -10  -1    0.07    0.03
  -6 -10   1    0.05    0.04
   6 -10  -1    0.08    0.04
   6  10  -1    0.04    0.04
   4 -10  -1    9.57    0.43
  -4 -10   1   10.03    0.42
   4  10  -1    9.36    0.41
   2 -10  -1    8.26    0.38
  -2 -10   1    8.86    0.38
   2  10  -1    8.96    0.37
   0 -10  -1    0.02    0.03
   0 -10   1   -0.03    0.03
   2 -10   1    0.59    0.07
  -2 -10  -1    0.57    0.07
   4 -10   1   20.46    0.86
  -4 -10  -1   21.30    0.86
   4  10   1   20.85    0.84
   6 -10   1    0.02    0.03
  -6 -10  -1   -0.02    0.03
   6  10   1    0.00    0.03
  -8 -10  -1    0.07    0.05
   8 -10   1    0.10    0.05
   8  10   1    0.05    0.04
   7 -11  -1    0.26    0.06
  -7 -11   1    0.14    0.05
   7 -11  -1    0.21    0.05
   7  11  -1    0.18    0.05
   5 -11  -1    0.50    0.06
  -5 -11   1    0.63    0.08
   5 -11  -1    0.35    0.07
   5  11  -1    0.45    0.06
   3 -11  -1   -0.04    0.03
  -3 -11   1    0.01    0.03
   3  11  -1   -0.02    0.02
  -1 -11   1    1.69    0.12
   1 -11  -1    1.84    0.12
   1 -11   1    0.11    0.04
  -1 -11  -1    0.12    0.04
  -3 -11  -1    0.08    0.04
   3 -11   1    0.05    0.04
  -5 -11  -1    0.03    0.04
   5 -11   1    0.01    0.04
   5  11   1    0.01    0.03
   7 -11   1    1.27    0.12
  -7 -11  -1    1.11    0.11
   7  11   1    1.19    0.10
  -6 -12   1   -0.01    0.04
   6 -12  -1    0.02    0.03
   6 -12  -1    0.00    0.04
   6  12  -1   -0.01    0.03
   4 -12  -1    2.31    0.15
  -4 -12   1    2.40    0.15
   4  12  -1    2.11    0.14
   2 -12  -1    1.30    0.11
  -2 -12   1    1.32    0.11
   0 -12   1    4.38    0.23
   0 -12  -1    4.31    0.23
  -2 -12  -1    0.20    0.05
   2 -12   1    0.12    0.05
  -4 -12  -1    3.18    0.19
   4 -12   1    3.25    0.19
   6 -12   1    0.62    0.09
  -6 -12  -1    0.65    0.09
   6  12   1    0.58    0.07
   5 -13  -1    1.92    0.13
  -5 -13   1    2.00    0.15
   5 -13  -1    1.84    0.15
   5  13  -1    2.05    0.14
   3 -13  -1    0.02    0.04
  -3 -13   1    0.03    0.04
  -1 -13   1    2.33    0.15
   1 -13  -1    2.26    0.15
  -1 -13  -1    1.15    0.11
   1 -13   1    1.25    0.11
   3 -13   1    2.20    0.16
  -3 -13  -1    2.29    0.16
   5 -13   1    0.10    0.05
  -5 -13  -1    0.03    0.05
  -4 -14   1    0.55    0.09
   4 -14  -1    0.45    0.08
   4  14  -1    0.60    0.08
  -2 -14   1    0.27    0.06
   2 -14  -1    0.39    0.08
   0 -14   1    0.11    0.05
   0 -14  -1    0.06    0.04
   2 -14   1    0.29    0.07
  -2 -14  -1    0.25    0.06
   4 -14   1    0.41    0.09
  -4 -14  -1    0.48    0.08
  -3 -15   1    0.13    0.06
   3 -15  -1    0.12    0.06
  -1 -15   1    0.47    0.08
   1 -15  -1    0.53    0.09
  -1 -15  -1    2.21    0.16
   1 -15   1    1.95    0.16
   3 -15   1    0.06    0.06
  -3 -15  -1    0.05    0.05
  10   0  -2    1.44    0.10
   8   0  -2    4.90    0.22
   6   0  -2    1.32    0.07
   4   0  -2   36.87    1.50
   4   0  -2   40.89    1.51
   2   0  -2   19.08    0.75
   0   0  -2  225.18    9.05
   0   0  -2  233.01    8.76
   0   0   2  224.31    8.78
   2   0   2   94.59    3.53
  -2   0  -2   86.80    3.51
   4   0   2   10.45    0.42
   4   0   2   11.13    0.44
   6   0   2    5.76    0.23
   6   0   2    5.48    0.25
   8   0   2   14.89    0.63
   8   0   2   15.35    0.62
  10   0   2    1.20    0.10
  11  -1  -2    0.51    0.07
  11   1  -2    0.50    0.07
   9  -1  -2   10.14    0.45
   9   1  -2   10.94    0.45
   7  -1  -2    0.47    0.05
   7   1  -2    0.67    0.06
   5  -1  -2    6.45    0.27
   5  -1  -2    6.23    0.25
   5   1  -2    6.27    0.27
   3  -1  -2    8.02    0.32
   3  -1  -2    8.06    0.31
   3   1  -2    7.90    0.32
   1  -1  -2  918.68   37.94
  -1  -1   2  987.03   37.61
   1   1  -2 1000.00   37.81
  -1  -1  -2   27.16    1.13
   1  -1   2   30.60    1.13
  -1   1  -2   28.82    1.13
   1   1   2   30.00    1.13
   3  -1   2    4.85    0.20
   3  -1   2    4.53    0.18
   3   1   2    4.42    0.19
  -3   1  -2    4.51    0.19
   3   1   2    4.71    0.20
   5  -1   2    1.95    0.09
   5  -1   2    2.00    0.11
   5   1   2    2.29    0.11
   5   1   2    2.13    0.10
   7  -1   2   18.31    0.75
   7  -1   2   18.42    0.77
   7   1   2   18.80    0.75
   7   1   2   20.52    0.78
   9  -1   2    1.14    0.09
   9   1   2    1.11    0.10
  11  -1   2    0.29    0.06
  11   1   2    0.16    0.05
  10  -2  -2    0.05    0.03
  10   2  -2    0.03    0.03
   8  -2  -2    0.20    0.04
   8   2  -2    0.28    0.04
   6  -2  -2   12.10    0.48
   6  -2  -2   11.61    0.47
   6   2  -2   11.77    0.48
   4  -2  -2    8.55    0.33
   4  -2  -2    8.20    0.34
   4   2  -2    7.83    0.34
   2  -2  -2   10.29    0.41
   2  -2  -2   10.14    0.41
  -2  -2   2    9.83    0.40
   2   2  -2   11.00    0.41
   0   2  -2   15.19    0.67
   0   2  -2   19.49    0.67
   2  -2   2   16.32    0.62
   2   2   2   14.32    0.62
   2   2   2   16.27    0.61
  -2   2  -2   15.77    0.61
   4  -2   2   23.96    0.93
  -4  -2  -2   22.47    0.91
   4  -2   2   23.91    0.91
  -4   2  -2   23.88    0.92
   4   2   2   22.18    0.92
   4   2   2   24.57    0.93
   6  -2   2    0.02    0.01
   6  -2   2    0.03    0.02
   6   2   2    0.01    0.02
   6   2   2    0.03    0.02
   8  -2   2    0.04    0.03
   8   2   2   -0.01    0.03
  10  -2   2    0.12    0.05
  10   2   2    0.04    0.05
  11  -3  -2    0.03    0.03
  11   3  -2    0.02    0.03
   9  -3  -2    1.86    0.11
   9   3  -2    1.75    0.12
   7  -3  -2    3.67    0.18
   7   3  -2    3.71    0.18
   5  -3  -2   16.48    0.66
   5  -3  -2   16.77    0.65
   5   3  -2   16.16    0.66
   3  -3  -2    0.06    0.01
   3  -3  -2    0.07    0.02
  -3  -3   2    0.10    0.02
   3   3  -2    0.09    0.02
   1  -3  -2   59.71    2.23
  -1  -3   2   59.21    2.23
   1   3  -2   53.71    2.23
   1  -3   2   10.30    0.41
  -1   3  -2   10.02    0.40
   3  -3   2   43.72    1.72
  -3  -3  -2   45.56    1.72
   3  -3   2   45.65    1.74
  -3   3  -2   43.66    1.73
   5  -3   2   23.21    0.85
   5  -3   2   23.02    0.88
   5   3   2   19.39    0.88
   7  -3   2    3.37    0.17
   7  -3   2    3.37    0.15
   7   3   2    3.14    0.18
   9  -3   2    0.05    0.04
   9   3   2    0.03    0.04
  10  -4  -2    0.05    0.03
  10   4  -2    0.06    0.04
   8  -4  -2    5.02    0.23
   8  -4  -2    4.82    0.23
   8   4  -2    4.97    0.23
   6  -4  -2    2.72    0.13
   6  -4  -2    2.67    0.14
   6   4  -2    3.00    0.14
   4  -4  -2   12.65    0.55
  -4  -4   2   14.27    0.55
   4  -4  -2   13.45    0.55
   4   4  -2   14.56    0.56
   4   4  -2   14.05    0.54
   2  -4  -2    0.01    0.01
  -2  -4   2    0.02    0.01
   2   4  -2    0.02    0.01
   0  -4   2   12.97    0.53
   0   4  -2   13.09    0.52
   0   4  -2   13.41    0.52
   2  -4   2   13.09    0.53
  -2   4  -2   12.93    0.51
   4  -4   2    7.83    0.30
   4  -4   2    7.40    0.32
   4   4   2    7.38    0.31
   6  -4   2    5.71    0.26
   6  -4   2    5.75    0.24
   6   4   2    5.93    0.25
   8  -4   2    0.59    0.07
   8   4   2    0.76    0.06
  10  -4   2    0.60    0.08
  10   4   2    0.58    0.07
  11  -5  -2    0.00    0.03
  11   5  -2    0.04    0.04
   9  -5  -2    1.41    0.10
   9   5  -2    1.35    0.10
   7  -5  -2    1.50    0.09
   7  -5  -2    1.28    0.09
   7   5  -2    1.12    0.09
  -5  -5   2    9.82    0.41
   5  -5  -2    9.83    0.41
   5  -5  -2    9.87    0.41
   5   5  -2   10.52    0.40
   5   5  -2   10.12    0.42
  -3  -5   2   28.63    1.14
   3  -5  -2   28.90    1.14
   3  -5  -2   29.59    1.14
   3   5  -2   29.00    1.13
   3   5  -2   28.80    1.12
  -1  -5   2   28.64    1.27
   1  -5  -2   33.82    1.27
   1   5  -2   33.78    1.26
   1   5  -2   33.55    1.26
   1  -5   2   32.06    1.22
  -1   5  -2   30.18    1.21
   3  -5   2   15.81    0.61
   3  -5   2   15.37    0.64
   3   5   2   15.95    0.62
   5  -5   2    5.86    0.26
   5  -5   2    6.08    0.24
   5   5   2    5.30    0.25
   7  -5   2    3.57    0.19
   7   5   2    3.70    0.17
   9  -5   2    0.03    0.03
   9   5   2    0.00    0.03
   9   5   2   -0.04    0.06
  10  -6  -2    0.05    0.03
  10   6  -2    0.04    0.04
   8  -6  -2    6.15    0.28
   8  -6  -2    6.24    0.28
   8   6  -2    6.03    0.28
  -6  -6   2    8.74    0.37
   6  -6  -2    8.88    0.37
   6  -6  -2    9.06    0.37
   6   6  -2    8.52    0.37
   4  -6  -2   18.66    0.74
  -4  -6   2   18.37    0.74
   4   6  -2   18.46    0.74
   4   6  -2   18.65    0.72
   2  -6  -2    4.64    0.20
   2   6  -2    4.20    0.18
   2   6  -2    4.30    0.19
   0  -6   2    4.03    0.18
   0  -6  -2    3.76    0.18
   0   6  -2    3.98    0.17
   0   6  -2    3.96    0.17
   2  -6   2   52.31    2.02
  -2   6  -2   50.95    2.00
   4  -6   2    6.58    0.26
   4  -6   2    6.16    0.29
   4   6   2    6.53    0.27
   6  -6   2    5.66    0.27
   6   6   2    5.94    0.26
   8  -6   2    1.54    0.11
   8   6   2    1.49    0.10
  10  -6   2    0.91    0.10
  10   6   2    0.91    0.09
   9  -7  -2    0.00    0.03
   9   7  -2   -0.02    0.03
  -7  -7   2    0.83    0.07
   7  -7  -2    0.79    0.08
   7  -7  -2    0.79    0.07
   7   7  -2    0.89    0.08
  -5  -7   2    1.02    0.07
   5  -7  -2    0.95    0.08
   5   7  -2    0.97    0.07
   5   7  -2    1.08    0.08
   3  -7  -2    2.71    0.14
   3   7  -2    2.90    0.14
   3   7  -2    2.96    0.12
  -1  -7   2    1.60    0.09
   1  -7  -2    1.60    0.09
   1   7  -2    1.57    0.08
   1   7  -2    1.55    0.08
  -1  -7  -2   -0.01    0.02
   1  -7   2    0.01    0.02
  -1   7  -2   -0.01    0.01
   3  -7   2    2.39    0.14
   3   7   2    2.99    0.13
   5  -7   2    8.57    0.34
   5  -7   2    8.12    0.37
   5   7   2    8.65    0.36
   7  -7   2    0.05    0.04
   7   7   2    0.03    0.03
   7   7   2    0.00    0.05
   9  -7   2    1.29    0.12
   9   7   2    1.26    0.10
   8  -8  -2    0.49    0.06
   8   8  -2    0.50    0.07
  -6  -8   2    2.30    0.13
   6  -8  -2    2.04    0.13
   6   8  -2    2.21    0.13
   4  -8  -2    2.46    0.13
   4   8  -2    2.67    0.12
   4   8  -2    2.59    0.13
  -2  -8   2    5.35    0.25
   2  -8  -2    5.39    0.25
   2   8  -2    5.34    0.23
   2   8  -2    5.56    0.23
   0  -8   2    5.26    0.24
   0  -8  -2    5.21    0.24
   0   8  -2    5.15    0.22
   0   8  -2    5.08    0.22
   2  -8   2    0.80    0.07
  -2  -8  -2    0.74    0.07
   4  -8   2    3.87    0.17
   6  -8   2    2.10    0.14
   6   8   2    2.18    0.12
   8  -8   2    1.50    0.12
   8   8   2    1.42    0.10
   9  -9  -2    0.39    0.06
   9   9  -2    0.34    0.06
   7  -9  -2    1.46    0.10
   7   9  -2    1.39    0.11
   5  -9  -2   12.43    0.51
   5   9  -2   12.00    0.51
   3  -9  -2    9.18    0.40
  -3  -9   2    9.17    0.40
   3   9  -2    9.07    0.38
   1  -9  -2    2.43    0.14
  -1  -9   2    2.63    0.14
   1   9  -2    2.46    0.12
   1  -9   2    9.58    0.41
  -1  -9  -2    9.06    0.40
  -3  -9  -2   12.20    0.52
   3  -9   2   12.14    0.52
   5  -9   2    3.85    0.21
   5   9   2    4.18    0.20
   7  -9   2    0.38    0.07
   7   9   2    0.29    0.05
   9  -9   2    0.56    0.09
   9   9   2    0.52    0.07
   8 -10  -2    0.10    0.04
   8  10  -2    0.02    0.04
   6 -10  -2    0.07    0.04
   6 -10  -2    0.01    0.03
   6  10  -2    0.00    0.03
  -4 -10   2    0.81    0.08
   4 -10  -2    0.88    0.09
   4  10  -2    0.77    0.07
   2 -10  -2    1.10    0.10
  -2 -10   2    1.49    0.10
   2  10  -2    1.41    0.08
   2  10  -2    1.21    0.08
   0 -10   2    1.71    0.12
   0 -10  -2    1.99    0.12
  -2 -10  -2    0.08    0.04
   2 -10   2    0.11    0.05
   4 -10   2    1.60    0.12
  -4 -10  -2    1.79    0.12
   6 -10   2    0.08    0.04
   6  10   2    0.04    0.03
   8 -10   2    1.42    0.13
   8  10   2    1.54    0.12
   7 -11  -2    0.24    0.06
   7 -11  -2    0.26    0.05
   7  11  -2    0.17    0.05
   5 -11  -2    3.40    0.19
   5 -11  -2    3.54    0.18
  -5 -11   2    3.40    0.19
   5  11  -2    3.23    0.18
   3 -11  -2    0.03    0.04
  -3 -11   2    0.02    0.03
   3  11  -2    0.05    0.03
   1 -11  -2    0.05    0.04
  -1 -11   2    0.09    0.04
  -1 -11  -2    0.13    0.04
   1 -11   2    0.16    0.05
   3 -11   2    5.96    0.29
  -3 -11  -2    5.60    0.28
  -5 -11  -2    0.46    0.08
   5 -11   2    0.55    0.08
   7 -11   2    0.04    0.05
  -7 -11  -2    0.01    0.05
   7  11   2    0.08    0.04
   6 -12  -2    0.57    0.08
  -6 -12   2    0.46    0.09
   6 -12  -2    0.54    0.07
   6  12  -2    0.58    0.08
   4 -12  -2    3.73    0.21
  -4 -12   2    3.87    0.21
   4  12  -2    3.76    0.20
  -2 -12   2    0.43    0.07
   2 -12  -2    0.37    0.07
   2  12  -2    0.40    0.06
   0 -12   2    0.18    0.05
   0 -12  -2    0.19    0.05
   2 -12   2    7.24    0.35
  -2 -12  -2    7.19    0.34
   4 -12   2    0.30    0.07
  -4 -12  -2    0.26    0.06
   6 -12   2    0.06    0.05
  -6 -12  -2    0.00    0.04
  -5 -13   2    1.48    0.13
   5 -13  -2    1.80    0.12
   5 -13  -2    1.70    0.14
   5  13  -2    1.56    0.12
  -3 -13   2    0.65    0.09
   3 -13  -2    0.69    0.09
   3  13  -2    0.78    0.08
  -1 -13   2    0.25    0.06
   1 -13  -2    0.30    0.06
  -1 -13  -2    0.19    0.05
   1 -13   2    0.12    0.05
  -3 -13  -2    1.27    0.12
   3 -13   2    1.31    0.12
  -5 -13  -2    1.74    0.14
   5 -13   2    1.68    0.14
   4 -14  -2    1.22    0.12
  -4 -14   2    1.06    0.11
   4  14  -2    1.17    0.11
   2 -14  -2    0.78    0.10
  -2 -14   2    0.78    0.10
   0 -14  -2    1.42    0.12
   0 -14   2    1.18    0.12
   2 -14   2    0.62    0.10
  -2 -14  -2    0.49    0.08
   4 -14   2    0.81    0.11
  -4 -14  -2    0.63    0.10
  -3 -15   2    0.39    0.08
   3 -15  -2    0.49    0.09
  -1 -15   2    1.81    0.15
   1 -15  -2    1.90    0.15
   1 -15   2    0.27    0.07
  -1 -15  -2    0.20    0.06
  10   0  -3    3.79    0.20
   8   0  -3    0.75    0.07
   6   0  -3    0.11    0.03
   4   0  -3    0.03    0.02
   2   0  -3   15.32    0.60
   0   0  -3    2.08    0.09
   0   0   3    2.02    0.09
   0   0  -3    2.08    0.09
   2   0   3   -0.02    0.01
  -2   0  -3    0.00    0.01
  -4   0  -3    0.00    0.01
   4   0   3    0.01    0.01
   4   0   3    0.01    0.02
   6   0   3    0.16    0.04
   6   0   3    0.16    0.02
   8   0   3    0.57    0.07
  10   0   3    0.01    0.04
  11  -1  -3    0.00    0.04
  11   1  -3    0.06    0.04
   9  -1  -3    3.60    0.18
   9   1  -3    3.48    0.18
   7  -1  -3    0.00    0.02
   7   1  -3    0.00    0.02
   5  -1  -3    0.45    0.04
   5   1  -3    0.52    0.04
   3  -1  -3    0.14    0.02
   3   1  -3    0.20    0.03
   1  -1  -3    0.09    0.02
  -1  -1   3    0.12    0.02
   1   1  -3    0.13    0.02
   1   1  -3    0.13    0.02
   1  -1   3    3.46    0.15
  -1  -1  -3    3.48    0.14
  -1   1  -3    3.38    0.15
   1   1   3    3.57    0.15
   3  -1   3    0.67    0.05
   3   1   3    0.71    0.05
  -3   1  -3    0.72    0.04
  -5  -1  -3    2.37    0.10
   5  -1   3    2.00    0.12
   5   1   3    2.18    0.10
   5   1   3    2.25    0.12
  -5   1  -3    2.19    0.10
   7  -1   3   10.10    0.44
   7   1   3    9.85    0.44
   7   1   3   10.46    0.43
   9  -1   3    1.03    0.10
   9   1   3    0.92    0.09
  10  -2  -3    0.28    0.05
  10   2  -3    0.18    0.05
   8  -2  -3    2.51    0.13
   8   2  -3    2.24    0.13
   6  -2  -3    2.35    0.12
   6  -2  -3    2.24    0.11
   6   2  -3    2.24    0.12
   4  -2  -3    5.19    0.21
   4  -2  -3    5.24    0.23
   4   2  -3    5.47    0.23
   2  -2  -3    0.30    0.02
  -2  -2   3    0.23    0.02
   2   2  -3    0.21    0.03
   2   2  -3    0.24    0.02
   0  -2   3   30.94    1.12
   0   2  -3   24.54    1.11
   0   2  -3   30.92    1.12
   2  -2   3    3.37    0.15
  -2   2  -3    3.35    0.14
   2   2   3    3.30    0.16
  -4  -2  -3    0.02    0.01
   4  -2   3    0.03    0.02
   4   2   3    0.03    0.01
   4   2   3    0.01    0.02
  -4   2  -3    0.04    0.01
   6  -2   3   11.82    0.48
   6   2   3   11.11    0.48
   6   2   3   11.32    0.46
   8  -2   3    1.99    0.13
  10  -2   3    0.91    0.10
  11  -3  -3    0.89    0.09
  11   3  -3    1.00    0.10
   9  -3  -3    1.36    0.10
   9   3  -3    1.42    0.10
   7  -3  -3    0.08    0.03
   7   3  -3    0.05    0.03
   5  -3  -3    0.01    0.02
   5  -3  -3    0.06    0.02
   5   3  -3    0.06    0.02
   3  -3  -3   25.11    0.98
   3  -3  -3   24.81    0.99
   3   3  -3   25.79    0.98
   3   3  -3   25.01    0.99
  -1  -3   3    6.69    0.28
   1   3  -3    6.97    0.28
   1   3  -3    6.85    0.28
   1  -3   3    0.66    0.05
  -1   3  -3    0.67    0.04
  -3  -3  -3   10.40    0.41
   3  -3   3   10.44    0.44
  -3   3  -3   10.40    0.42
   3   3   3   11.06    0.44
   5  -3   3    8.24    0.36
   5   3   3    8.75    0.37
  -5   3  -3    8.41    0.35
   5   3   3    8.44    0.35
   7  -3   3    0.86    0.08
   7   3   3    0.77    0.09
   7   3   3    0.88    0.06
   9  -3   3    2.87    0.17
  10  -4  -3    1.08    0.09
  10   4  -3    0.99    0.10
   8  -4  -3    4.28    0.21
   8   4  -3    4.35    0.21
   6  -4  -3    0.08    0.03
   6   4  -3    0.01    0.02
  -4  -4   3   11.44    0.47
   4  -4  -3   12.24    0.49
   4  -4  -3   12.38    0.48
   4   4  -3   11.85    0.49
  -2  -4   3    0.16    0.02
   2  -4  -3    0.17    0.02
   2  -4  -3    0.17    0.03
   2   4  -3    0.23    0.03
   2   4  -3    0.21    0.02
   2  -4   3    8.41    0.35
  -2   4  -3    8.25    0.34
   4  -4   3    0.82    0.07
  -4  -4  -3    0.67    0.05
  -4   4  -3    0.84    0.05
   6  -4   3    5.58    0.27
   6   4   3    5.84    0.25
   8  -4   3    0.28    0.05
   8   4   3    0.02    0.05
   9  -5  -3    0.50    0.07
   9   5  -3    0.51    0.07
   7  -5  -3    0.08    0.03
   7   5  -3    0.04    0.03
   5  -5  -3    5.11    0.22
   5  -5  -3    5.06    0.23
   5   5  -3    4.93    0.21
   5   5  -3    4.94    0.23
   3  -5  -3    3.21    0.14
  -3  -5   3    2.97    0.14
   3  -5  -3    3.12    0.14
   3   5  -3    2.85    0.13
   3   5  -3    2.94    0.14
  -1  -5   3    6.80    0.28
   1  -5  -3    6.67    0.28
   1   5  -3    6.72    0.28
   1   5  -3    6.78    0.28
   1  -5   3    8.05    0.31
  -1   5  -3    6.31    0.29
  -1   5  -3    7.76    0.30
  -3  -5  -3   13.73    0.51
   3  -5   3   12.90    0.54
  -3   5  -3   12.82    0.53
   5  -5   3    3.37    0.18
   5   5   3    3.70    0.16
   9  -5   3    0.00    0.03
   9   5   3    0.05    0.06
  10  -6  -3    0.51    0.07
  10   6  -3    0.50    0.07
   8  -6  -3    0.35    0.06
   8   6  -3    0.16    0.05
   6  -6  -3    2.54    0.14
   6   6  -3    2.77    0.14
  -4  -6   3    1.08    0.07
   4  -6  -3    1.02    0.07
   4  -6  -3    1.02    0.08
   4   6  -3    0.99    0.06
   4   6  -3    1.00    0.07
   2  -6  -3    8.23    0.36
  -2  -6   3    8.13    0.35
   2   6  -3    8.38    0.34
   2   6  -3    8.52    0.34
   0  -6   3   29.27    1.17
   0  -6  -3   30.07    1.17
   0   6  -3   30.30    1.15
   0   6  -3   28.61    1.15
   2  -6   3    0.36    0.05
  -2   6  -3    0.34    0.03
   4  -6   3    2.25    0.13
  -4   6  -3    2.29    0.11
   6  -6   3    3.72    0.20
   6   6   3    4.06    0.18
   8  -6   3    0.78    0.09
   9  -7  -3    0.03    0.04
   9   7  -3    0.02    0.04
   7  -7  -3    0.07    0.03
   7   7  -3    0.11    0.04
   5  -7  -3    0.43    0.06
  -5  -7   3    0.36    0.05
   5  -7  -3    0.43    0.05
   5   7  -3    0.35    0.05
   3  -7  -3    5.98    0.28
  -3  -7   3    6.68    0.28
   3   7  -3    6.69    0.29
   3   7  -3    6.61    0.28
   1  -7  -3    0.02    0.02
  -1  -7   3    0.05    0.02
   1   7  -3    0.04    0.02
   1   7  -3    0.06    0.02
   1  -7   3    2.55    0.14
  -1  -7  -3    2.62    0.13
  -1   7  -3    2.43    0.12
   3  -7   3    0.44    0.06
  -3   7  -3    0.44    0.04
   5  -7   3    0.26    0.05
   5   7   3    0.26    0.04
   5   7   3    0.08    0.06
   7  -7   3    0.03    0.04
   7   7   3   -0.03    0.06
   7   7   3    0.05    0.03
   9  -7   3    0.35    0.07
   9   7   3    0.42    0.06
   8  -8  -3    0.03    0.04
   8   8  -3    0.05    0.04
   6  -8  -3    5.02    0.23
   6  -8  -3    4.96    0.23
   6   8  -3    4.40    0.23
  -4  -8   3    1.48    0.10
   4  -8  -3    1.58    0.10
   4   8  -3    1.45    0.10
   4   8  -3    1.53    0.08
   2  -8  -3    0.04    0.02
   2   8  -3    0.04    0.02
   2   8  -3    0.02    0.02
   0  -8  -3    0.77    0.06
   0  -8   3    0.67    0.07
   0   8  -3    0.60    0.05
   0   8  -3    0.63    0.05
   2  -8   3    8.14    0.35
  -2  -8  -3    7.74    0.34
  -2   8  -3    7.59    0.33
   4  -8   3    0.23    0.05
   4   8   3   -0.03    0.06
   6  -8   3    1.39    0.11
   6   8   3    1.41    0.10
   8  -8   3    0.01    0.04
   8   8   3   -0.03    0.03
   8   8   3    0.08    0.07
   9  -9  -3    0.51    0.07
   9   9  -3    0.47    0.07
   7  -9  -3    0.13    0.04
   7   9  -3    0.11    0.04
   5  -9  -3   13.76    0.61
  -5  -9   3   14.28    0.60
   5  -9  -3   15.55    0.61
   5   9  -3   14.44    0.60
   3   9  -3    5.45    0.23
   3   9  -3    5.29    0.24
   1  -9  -3    0.47    0.06
  -1  -9   3    0.43    0.06
   1   9  -3    0.43    0.04
   1  -9   3    1.52    0.11
  -1  -9  -3    1.45    0.10
  -1   9  -3    1.44    0.08
   3  -9   3   34.23    1.33
  -3  -9  -3   32.31    1.33
   5  -9   3    0.01    0.04
   7  -9   3    0.70    0.09
   7   9   3    0.67    0.08
   8 -10  -3    0.03    0.04
   8  10  -3   -0.06    0.03
   6 -10  -3    4.48    0.22
   6  10  -3    4.30    0.22
   4 -10  -3    0.26    0.05
   2 -10  -3    0.22    0.05
  -2 -10   3    0.29    0.06
   2  10  -3    0.35    0.05
   0 -10  -3    6.06    0.28
   0 -10   3    6.09    0.29
   0  10  -3    5.96    0.26
  -2 -10  -3    3.26    0.18
   2 -10   3    3.51    0.19
   4 -10   3    0.44    0.07
  -4 -10  -3    0.43    0.07
   8 -10   3    0.04    0.05
   8  10   3   -0.08    0.08
   8  10   3    0.01    0.04
   7 -11  -3    0.00    0.04
   7  11  -3   -0.01    0.04
   5 -11  -3    0.13    0.05
   5  11  -3    0.15    0.05
  -3 -11   3    0.23    0.05
   3 -11  -3    0.15    0.05
   3  11  -3    0.16    0.04
   3  11  -3    0.17    0.03
  -1 -11   3    1.76    0.12
   1 -11  -3    1.60    0.12
   1  11  -3    1.59    0.10
   1  11  -3    1.69    0.10
   1 -11   3    0.01    0.04
  -1 -11  -3    0.06    0.04
   3 -11   3    0.65    0.09
  -3 -11  -3    0.79    0.09
  -5 -11  -3    0.18    0.05
   5 -11   3    0.21    0.06
   7 -11   3    1.62    0.15
   6 -12  -3    0.40    0.07
   6 -12  -3    0.42    0.08
   6  12  -3    0.43    0.07
  -4 -12   3    0.05    0.06
   4 -12  -3    0.00    0.04
   4  12  -3    0.03    0.03
   2 -12  -3    2.60    0.16
  -2 -12   3    2.41    0.16
   2  12  -3    2.45    0.14
   0 -12   3    1.95    0.14
   0 -12  -3    1.87    0.14
   2 -12   3    1.00    0.11
  -2 -12  -3    1.08    0.10
  -4 -12  -3    0.09    0.05
   4 -12   3    0.07    0.05
   6 -12   3    5.37    0.29
  -6 -12  -3    5.23    0.29
   5 -13  -3    1.88    0.14
   5 -13  -3    1.74    0.13
   5  13  -3    1.94    0.14
  -3 -13   3    0.10    0.05
   3 -13  -3    0.05    0.04
   3  13  -3    0.08    0.04
   1 -13  -3    1.56    0.13
  -1 -13   3    1.57    0.13
   1 -13   3   -0.01    0.04
  -1 -13  -3    0.01    0.04
  -3 -13  -3    4.07    0.23
   3 -13   3    3.88    0.23
  -5 -13  -3    0.09    0.06
   5 -13   3    0.14    0.07
  -4 -14   3   -0.01    0.04
   4 -14  -3   -0.02    0.04
   4  14  -3   -0.01    0.04
   2 -14  -3   -0.01    0.04
  -2 -14   3    0.04    0.05
   0 -14  -3    0.08    0.05
   0 -14   3    0.08    0.05
   2 -14   3    0.16    0.06
  -2 -14  -3    0.10    0.05
   1 -15  -3    0.16    0.06
  -1 -15   3    0.18    0.06
  10   0  -4    7.20    0.34
   8   0  -4    0.55    0.06
   6   0  -4    1.69    0.10
   4   0  -4    0.30    0.04
   2   0  -4  306.04   11.81
   0   0   4    9.16    0.40
   0   0  -4   10.41    0.40
   0   0  -4   10.32    0.39
  -2   0  -4    0.35    0.03
   2   0   4    0.29    0.04
   4   0   4    6.84    0.30
  -4   0  -4    7.09    0.29
   6   0   4   19.87    0.83
  -6   0  -4   21.07    0.81
   8   0   4    0.69    0.08
  10   0   4    2.07    0.15
   9  -1  -4    1.86    0.13
   9   1  -4    2.22    0.13
   7  -1  -4    1.22    0.09
   7   1  -4    1.19    0.08
   5  -1  -4    1.39    0.09
   5   1  -4    1.65    0.09
   3  -1  -4    2.59    0.12
   3   1  -4    2.60    0.12
   1  -1  -4   49.40    2.09
  -1  -1   4   61.42    2.09
   1   1  -4   53.17    2.09
   1   1  -4   51.94    2.09
  -1  -1  -4    4.59    0.19
   1  -1   4    3.85    0.19
  -1  -1  -4    4.56    0.18
  -1   1  -4    4.67    0.19
   1   1   4    4.42    0.19
   3  -1   4    8.01    0.34
  -3  -1  -4    7.80    0.32
  -3   1  -4    8.14    0.32
   3   1   4    7.88    0.34
   5  -1   4    1.66    0.11
  -5  -1  -4    1.72    0.09
  -5   1  -4    1.73    0.09
   5   1   4    1.82    0.11
   7  -1   4    8.06    0.36
   7   1   4    8.05    0.37
   9  -1   4    0.15    0.05
   9   1   4    0.12    0.05
  10  -2  -4    0.31    0.06
  10   2  -4    0.36    0.07
   8  -2  -4    0.21    0.04
   8   2  -4    0.13    0.04
   6  -2  -4    4.58    0.21
   6   2  -4    4.36    0.21
   4  -2  -4    2.21    0.11
   4   2  -4    2.01    0.11
   2  -2  -4   25.64    1.02
   2  -2  -4   24.61    1.01
   2   2  -4   25.43    1.01
   2   2  -4   27.95    1.01
   0  -2   4    0.12    0.02
   0   2   4    0.01    0.03
   0   2  -4    0.08    0.02
   0   2  -4    0.12    0.02
   2  -2   4   11.48    0.49
  -2  -2  -4   11.89    0.48
  -2   2  -4   11.89    0.48
   2   2   4   13.05    0.50
  -4  -2  -4    6.74    0.27
   4  -2   4    6.46    0.29
   4   2   4    6.74    0.30
  -4   2  -4    6.54    0.28
  -6  -2  -4    1.05    0.08
   6  -2   4    0.98    0.09
   6   2   4    0.88    0.10
  -6   2  -4    0.98    0.07
   8  -2   4    0.15    0.05
   8   2   4    0.07    0.05
  10  -2   4    0.42    0.08
   9  -3  -4    0.68    0.08
   9   3  -4    0.62    0.07
   7  -3  -4    3.86    0.19
   7   3  -4    3.87    0.19
   5  -3  -4    7.61    0.33
   5   3  -4    7.63    0.33
   3  -3  -4    0.43    0.04
   3  -3  -4    0.45    0.04
   3   3  -4    0.47    0.04
   3   3  -4    0.39    0.04
   1  -3  -4    2.81    0.12
  -1  -3   4    2.62    0.12
   1   3  -4    2.54    0.12
   1   3  -4    2.52    0.12
   1  -3   4   14.20    0.57
  -1   3  -4   13.98    0.56
   3  -3   4   11.38    0.47
  -3  -3  -4   11.36    0.44
   3   3   4   11.04    0.47
  -3   3  -4   11.13    0.45
   5  -3   4    3.07    0.17
  -5  -3  -4    3.11    0.14
  -5   3  -4    3.27    0.15
   5   3   4    3.33    0.18
   7  -3   4    2.03    0.13
   7   3   4    1.92    0.14
   9  -3   4    0.47    0.08
  10  -4  -4    1.20    0.10
  10   4  -4    1.13    0.11
   8  -4  -4    0.09    0.04
   8   4  -4    0.15    0.04
   6  -4  -4    6.08    0.28
   6   4  -4    6.28    0.28
   4  -4  -4    1.27    0.08
   4  -4  -4    1.28    0.07
   4   4  -4    1.10    0.07
   4   4  -4    1.16    0.07
   2  -4  -4   29.45    1.13
   2  -4  -4   28.44    1.13
  -2  -4   4   27.29    1.12
   2   4  -4   28.89    1.12
   2   4  -4   29.96    1.13
   0  -4   4    9.64    0.40
   0   4  -4    9.74    0.40
   0   4  -4    9.95    0.39
   2  -4   4   19.97    0.85
  -2  -4  -4   23.45    0.84
  -2   4  -4   20.78    0.84
   4  -4   4    3.18    0.17
  -4  -4  -4    3.44    0.14
  -4   4  -4    3.31    0.15
   6  -4   4    4.44    0.22
  -6   4  -4    4.57    0.20
   8  -4   4    0.12    0.05
   8   4   4    0.09    0.06
   9  -5  -4    3.63    0.20
   9   5  -4    3.78    0.20
   7  -5  -4    1.02    0.08
   7   5  -4    0.89    0.06
   7   5  -4    0.90    0.08
   5  -5  -4    0.08    0.03
   5   5  -4    0.02    0.03
   3  -5  -4    0.10    0.03
   3  -5  -4    0.04    0.02
   3   5  -4    0.05    0.02
   3   5  -4    0.04    0.02
   1  -5  -4    4.12    0.19
  -1  -5   4    4.27    0.19
   1   5  -4    4.27    0.18
   1   5  -4    4.39    0.18
   1  -5   4    7.74    0.33
  -1   5  -4    7.46    0.31
  -3  -5  -4    0.08    0.02
   3  -5   4    0.17    0.04
  -3   5  -4    0.11    0.02
   3   5   4   -0.02    0.04
   5  -5   4    2.82    0.16
  -5   5  -4    3.14    0.15
   7  -5   4    0.11    0.04
   7   5   4    0.02    0.06
   9  -5   4    0.04    0.04
   9   5   4    0.03    0.07
   8  -6  -4    0.33    0.06
   8   6  -4    0.27    0.05
   6  -6  -4    0.18    0.04
   6   6  -4    0.20    0.04
   6   6  -4    0.22    0.03
   4  -6  -4    9.88    0.41
   4   6  -4    9.96    0.40
   4   6  -4    9.07    0.39
   2  -6  -4    0.28    0.04
  -2  -6   4    0.32    0.04
   2   6  -4    0.34    0.04
   2   6  -4    0.29    0.03
   0  -6  -4    2.37    0.13
   0   6  -4    2.46    0.11
   0   6  -4    2.52    0.12
   2  -6   4    0.05    0.03
  -2   6  -4    0.04    0.02
   2   6   4    0.00    0.04
   4  -6   4   13.39    0.56
  -4   6  -4   12.99    0.54
   8  -6   4    0.11    0.05
   8   6   4    0.01    0.07
   9  -7  -4    1.03    0.11
   9   7  -4    1.18    0.11
   7  -7  -4    2.99    0.17
   7   7  -4    3.17    0.17
   5  -7  -4    4.13    0.21
   5  -7  -4    4.43    0.21
   5   7  -4    4.38    0.19
   5   7  -4    4.40    0.21
   3  -7  -4    1.54    0.09
  -3  -7   4    1.35    0.09
   3  -7  -4    1.36    0.09
   3   7  -4    1.31    0.08
   3   7  -4    1.40    0.08
   1   7  -4    0.64    0.05
   1   7  -4    0.68    0.05
   1  -7   4   11.01    0.46
  -1   7  -4   10.64    0.44
   3  -7   4    5.62    0.27
  -3  -7  -4    6.32    0.24
  -3   7  -4    5.28    0.25
   5  -7   4    2.01    0.14
  -5   7  -4    2.18    0.12
   7  -7   4    0.20    0.05
   7   7   4   -0.08    0.06
   8  -8  -4    0.20    0.05
   8   8  -4    0.17    0.05
   6  -8  -4    3.86    0.20
   6   8  -4    3.78    0.20
   4  -8  -4    0.81    0.07
   4  -8  -4    0.72    0.07
   4   8  -4    0.49    0.06
  -2  -8   4    0.13    0.04
   2   8  -4    0.10    0.02
   0  -8   4    3.25    0.17
   0  -8  -4    3.19    0.17
   0   8  -4    3.34    0.15
   0   8  -4    3.25    0.16
   4  -8   4    0.07    0.04
  -4   8  -4    0.04    0.02
   4   8   4    0.01    0.07
   6  -8   4    0.36    0.07
   6   8   4   -0.02    0.07
   7  -9  -4   -0.01    0.03
   7   9  -4    0.00    0.04
   5  -9  -4    1.20    0.10
   5  -9  -4    1.12    0.09
   5   9  -4    1.20    0.10
  -3  -9   4    1.91    0.12
   3   9  -4    1.94    0.11
  -1  -9   4    3.11    0.17
   1  -9  -4    3.17    0.17
   1   9  -4    3.08    0.15
   1   9  -4    2.91    0.15
   1  -9   4    1.08    0.09
  -1  -9  -4    1.17    0.09
  -1   9  -4    1.24    0.08
   3  -9   4    3.74    0.20
  -3   9  -4    3.53    0.17
   6 -10  -4    4.72    0.23
   6  10  -4    4.21    0.23
   4 -10  -4    1.71    0.12
   4  10  -4    1.98    0.12
   4  10  -4    1.75    0.10
   2 -10  -4    0.27    0.05
   2  10  -4    0.35    0.05
   2  10  -4    0.35    0.04
   0 -10  -4    2.14    0.14
   0 -10   4    2.26    0.14
   0  10  -4    2.16    0.12
   2 -10   4    5.18    0.25
  -2 -10  -4    4.84    0.25
  -2  10  -4    5.03    0.23
   6 -10   4    0.12    0.05
   6  10   4   -0.06    0.08
   7 -11  -4    0.13    0.05
   7  11  -4    0.13    0.05
   5 -11  -4    2.58    0.16
   5  11  -4    2.67    0.16
   1 -11  -4    0.31    0.06
  -1 -11   4    0.25    0.06
   1  11  -4    0.25    0.04
   1  11  -4    0.24    0.04
   1 -11   4    1.55    0.12
  -1 -11  -4    1.61    0.12
  -1  11  -4    1.57    0.10
  -3 -11  -4    0.88    0.10
   3 -11   4    0.86    0.10
   5 -11   4    0.25    0.07
  -5 -11  -4    0.17    0.06
   6 -12  -4    0.00    0.04
   6  12  -4    0.04    0.04
   4 -12  -4    0.46    0.07
   4 -12  -4    0.52    0.08
   4  12  -4    0.55    0.07
   2 -12  -4    0.02    0.04
  -2 -12   4    0.02    0.04
   2  12  -4   -0.03    0.03
   0 -12  -4    0.04    0.04
   0 -12   4   -0.02    0.04
   0  12  -4   -0.01    0.02
  -2 -12  -4    0.78    0.09
   2 -12   4    0.62    0.09
  -4 -12  -4    2.27    0.16
   4 -12   4    2.17    0.17
   3 -13  -4    0.26    0.06
  -3 -13   4    0.28    0.07
   3  13  -4    0.24    0.05
   1 -13  -4    0.51    0.08
  -1 -13   4    0.42    0.08
   1  13  -4    0.38    0.05
   1 -13   4    1.09    0.12
  -1 -13  -4    1.03    0.11
  -3 -13  -4    0.21    0.06
   3 -13   4    0.16    0.06
   2 -14  -4    1.32    0.13
  -2 -14   4    1.13    0.12
   0 -14   4    0.01    0.05
   0 -14  -4    0.07    0.05
  10   0  -5    2.05    0.14
   8   0  -5    0.00    0.03
   6   0  -5    0.35    0.05
   4   0  -5    0.94    0.07
   2   0  -5    0.07    0.02
   0   0  -5    3.38    0.15
   0   0  -5    3.27    0.14
   0   0   5    3.26    0.15
  -2   0  -5    0.01    0.01
   2   0   5   -0.03    0.02
   4   0   5    3.05    0.16
  -4   0  -5    3.06    0.14
   6   0   5    7.81    0.36
   8   0   5    2.44    0.16
   9  -1  -5    0.18    0.05
   9   1  -5    0.13    0.05
   7  -1  -5    0.27    0.05
   7   1  -5    0.21    0.04
   5  -1  -5    0.37    0.05
   5   1  -5    0.41    0.05
   3  -1  -5    2.16    0.11
   3   1  -5    2.21    0.11
   1  -1  -5    1.09    0.06
  -1  -1   5    0.97    0.06
   1   1  -5    0.87    0.06
   1   1  -5    0.94    0.06
  -1  -1  -5    0.47    0.04
  -1  -1  -5    0.45    0.04
  -1   1  -5    0.44    0.04
   3  -1   5   -0.01    0.02
  -3  -1  -5    0.02    0.01
   3   1   5    0.03    0.03
  -3   1  -5    0.00    0.01
   5  -1   5    0.17    0.04
   5   1   5    0.14    0.05
  -5   1  -5    0.23    0.03
   7  -1   5    1.82    0.13
   7   1   5    1.70    0.13
   9  -1   5    0.27    0.07
   9   1   5    0.12    0.06
  10  -2  -5    1.04    0.10
  10   2  -5    0.93    0.10
   8  -2  -5   -0.02    0.03
   8   2  -5    0.04    0.03
   6  -2  -5   -0.04    0.02
   6   2  -5    0.00    0.02
   4  -2  -5    1.53    0.09
   4   2  -5    1.33    0.08
   2  -2  -5    0.49    0.05
   2   2  -5    0.53    0.04
   2   2  -5    0.54    0.04
   0  -2  -5    0.01    0.02
   0  -2   5    0.00    0.02
   0   2  -5    0.02    0.01
   0   2  -5    0.01    0.01
   0   2   5   -0.04    0.03
   2  -2   5    3.41    0.17
  -2  -2  -5    3.52    0.16
   2   2   5    3.99    0.18
  -2   2  -5    3.47    0.16
   4  -2   5    0.31    0.05
  -4   2  -5    0.31    0.04
   4   2   5    0.23    0.05
   6  -2   5    1.84    0.13
  -6   2  -5    1.78    0.10
   6   2   5    1.40    0.13
   8  -2   5    0.42    0.07
   8   2   5    0.28    0.07
   9  -3  -5    2.10    0.14
   9   3  -5    2.01    0.14
   7  -3  -5    0.14    0.04
   7   3  -5    0.15    0.04
   5  -3  -5    2.95    0.15
   5   3  -5    2.79    0.15
   5   3  -5    3.24    0.15
   3  -3  -5    2.02    0.11
   3   3  -5    2.05    0.10
  -1  -3   5    7.05    0.30
   1  -3  -5    7.40    0.30
   1   3  -5    7.21    0.30
   1   3  -5    7.38    0.30
  -1  -3  -5    2.14    0.10
  -1   3  -5    1.92    0.10
   3  -3   5    0.16    0.04
  -3   3  -5    0.14    0.03
   3   3   5    0.12    0.05
   5  -3   5   11.50    0.50
  -5  -3  -5   11.38    0.47
  -5   3  -5   12.23    0.48
   7  -3   5    0.51    0.07
   7   3   5    0.46    0.08
  -7   3  -5    0.54    0.06
   9  -3   5    0.97    0.11
   8  -4  -5   -0.01    0.03
   8   4  -5    0.00    0.03
   6  -4  -5    0.59    0.07
   6   4  -5    0.52    0.05
   6   4  -5    0.49    0.06
   4  -4  -5    0.68    0.06
   4   4  -5    0.66    0.06
   4   4  -5    0.75    0.06
   2  -4  -5    2.38    0.12
   2  -4  -5    2.43    0.12
   2   4  -5    2.47    0.12
   2   4  -5    2.30    0.12
   0  -4   5    0.08    0.03
   0   4  -5    0.10    0.02
  -2  -4  -5    0.07    0.03
   2  -4   5    0.03    0.03
  -2   4  -5    0.06    0.02
   2   4   5    0.01    0.04
   4  -4   5    4.50    0.22
  -4   4  -5    4.71    0.21
   6  -4   5    3.21    0.18
  -6   4  -5    3.24    0.16
   9  -5  -5    0.08    0.05
   9   5  -5    0.06    0.04
   7  -5  -5    0.45    0.06
   7   5  -5    0.49    0.07
   5  -5  -5    2.35    0.13
   5   5  -5    2.44    0.13
   5   5  -5    2.43    0.12
   3  -5  -5    0.76    0.07
   3   5  -5    0.75    0.05
  -1  -5   5    3.39    0.17
   1  -5  -5    3.92    0.17
   1  -5  -5    3.53    0.17
   1   5  -5    3.64    0.17
   1  -5   5    1.43    0.10
  -1   5  -5    1.48    0.08
   3  -5   5    2.43    0.14
  -3   5  -5    2.42    0.12
   5  -5   5   -0.01    0.03
   5   5   5   -0.11    0.06
  -5   5  -5    0.00    0.02
   7  -5   5    0.47    0.07
   7   5   5    0.06    0.08
   8  -6  -5    0.03    0.04
   8   6  -5    0.08    0.04
   6  -6  -5    0.63    0.07
   6   6  -5    0.72    0.08
   4  -6  -5    2.64    0.15
   4   6  -5    2.88    0.15
   4   6  -5    2.91    0.14
  -2  -6   5    0.90    0.09
   2  -6  -5    0.96    0.07
   2  -6  -5    1.00    0.07
   2   6  -5    1.06    0.07
   2   6  -5    1.00    0.07
   0  -6   5    5.46    0.26
   0   6  -5    5.56    0.24
   2  -6   5    5.87    0.27
  -2   6  -5    5.80    0.25
   4  -6   5    0.16    0.05
  -4   6  -5    0.16    0.03
   4   6   5   -0.06    0.06
   6  -6   5    2.83    0.17
  -6   6  -5    2.70    0.14
   8  -6   5    0.60    0.09
   7  -7  -5    0.08    0.04
   7   7  -5    0.03    0.04
   5  -7  -5    0.13    0.04
   5   7  -5    0.07    0.03
   5   7  -5    0.05    0.03
   3  -7  -5    1.53    0.10
   3  -7  -5    1.26    0.10
   3   7  -5    1.74    0.09
   3   7  -5    1.59    0.09
  -1  -7   5    2.44    0.13
   1   7  -5    2.46    0.12
   1   7  -5    2.41    0.12
   1  -7   5    0.52    0.07
  -1   7  -5    0.56    0.05
   3  -7   5    0.46    0.07
  -3   7  -5    0.49    0.05
   5  -7   5    0.44    0.07
  -5   7  -5    0.42    0.05
   7  -7   5    0.18    0.06
   7   7   5   -0.07    0.07
   8  -8  -5    0.05    0.05
   8   8  -5    0.05    0.04
   6  -8  -5    3.95    0.20
   6   8  -5    3.65    0.20
   4  -8  -5    0.21    0.05
   4   8  -5    0.16    0.03
   4   8  -5    0.11    0.04
   2  -8  -5    0.15    0.04
   2  -8  -5    0.02    0.03
  -2  -8   5    0.09    0.03
   2   8  -5    0.13    0.03
   2   8  -5    0.13    0.03
   0   8  -5    0.03    0.02
   2  -8   5    8.10    0.36
  -2   8  -5    7.89    0.34
   4  -8   5    0.12    0.05
   4   8   5   -0.02    0.07
  -4   8  -5    0.10    0.03
   6  -8   5    0.67    0.09
   7  -9  -5    1.91    0.14
   7   9  -5    2.09    0.14
   5  -9  -5    1.53    0.12
   5   9  -5    1.54    0.11
   3  -9  -5    0.47    0.06
   3  -9  -5    0.37    0.06
   3   9  -5    0.40    0.05
   1   9  -5    3.58    0.17
   1  -9   5    3.05    0.17
  -1  -9  -5    3.00    0.17
  -1   9  -5    2.96    0.15
   3  -9   5    1.87    0.13
  -3   9  -5    1.72    0.11
   6 -10  -5    2.56    0.17
   6  10  -5    3.00    0.17
   4 -10  -5    1.03    0.10
   2  10  -5    0.02    0.03
   0 -10  -5    0.38    0.06
   0 -10   5    0.43    0.07
   0  10  -5    0.46    0.05
   2 -10   5    9.78    0.44
  -2 -10  -5    9.60    0.43
  -2  10  -5    9.34    0.41
   4 -10   5    0.12    0.05
   4  10   5    0.07    0.08
  -4  10  -5    0.12    0.04
   6 -10   5   -0.04    0.04
   6  10   5   -0.07    0.08
   5 -11  -5    0.04    0.05
   5  11  -5    0.05    0.04
   3 -11  -5    0.27    0.06
   3  11  -5    0.21    0.04
   1 -11  -5    0.01    0.04
   1  11  -5   -0.03    0.02
   1 -11   5    0.01    0.04
  -1 -11  -5    0.00    0.04
  -1  11  -5    0.01    0.03
  -3 -11  -5   -0.02    0.04
   3 -11   5    0.00    0.04
  -3  11  -5   -0.04    0.03
  -5 -11  -5    0.57    0.09
   5 -11   5    0.64    0.10
   4 -12  -5   -0.04    0.04
   4  12  -5    0.03    0.04
   2 -12  -5    1.49    0.12
   2  12  -5    1.39    0.10
   0 -12  -5    0.25    0.06
   0 -12   5    0.12    0.05
   0  12  -5    0.19    0.04
  -2 -12  -5    1.35    0.12
   2 -12   5    1.14    0.12
  -2  12  -5    1.20    0.09
   1 -13  -5    0.40    0.08
  -1 -13   5    0.49    0.08
   1  13  -5    0.43    0.06
   1 -13   5    0.22    0.07
  -1 -13  -5    0.22    0.06
  -1  13  -5    0.18    0.05
   8   0  -6    0.35    0.06
   6   0  -6    0.59    0.07
   4   0  -6    0.70    0.07
   2   0  -6   38.62    1.33
   2   0  -6   29.03    1.32
   0   0  -6    2.13    0.11
   0   0   6    2.27    0.12
  -2   0  -6    1.84    0.10
   2   0   6    1.89    0.11
   4   0   6    2.35    0.14
  -4   0  -6    2.16    0.11
   6   0   6   10.35    0.46
   8   0   6    0.03    0.05
   9  -1  -6    0.01    0.04
   9   1  -6    0.03    0.04
   7  -1  -6    0.94    0.09
   7   1  -6    0.91    0.08
   5  -1  -6    0.12    0.03
   5   1  -6    0.12    0.03
   3  -1  -6   44.13    1.79
   3   1  -6   47.54    1.79
   1  -1  -6    0.31    0.04
   1  -1  -6    0.33    0.04
   1   1  -6    0.30    0.04
   1   1  -6    0.42    0.04
  -1  -1  -6    0.08    0.02
   1  -1   6    0.00    0.03
  -1   1  -6    0.05    0.02
   1   1   6    0.07    0.04
   3  -1   6    0.03    0.03
  -3  -1  -6    0.02    0.02
  -3   1  -6    0.06    0.02
   3   1   6   -0.02    0.03
   5  -1   6    4.82    0.26
  -5   1  -6    5.16    0.23
   5   1   6    5.52    0.27
   7  -1   6    0.09    0.05
  -7   1  -6    0.02    0.03
   7   1   6    0.03    0.05
   8  -2  -6    0.96    0.09
   8   2  -6    0.97    0.09
   6  -2  -6    0.50    0.06
   6   2  -6    0.42    0.06
   4  -2  -6    0.18    0.04
   4   2  -6    0.20    0.04
   4   2  -6    0.19    0.04
   2   2  -6    3.27    0.15
   2   2  -6    3.21    0.16
   0  -2  -6    0.59    0.05
   0  -2   6    0.61    0.06
   0  -2  -6    0.70    0.05
   0   2  -6    0.71    0.05
  -2  -2  -6    5.03    0.22
   2  -2   6    4.83    0.24
   2   2   6    5.50    0.25
  -2   2  -6    4.97    0.22
   4  -2   6    0.31    0.06
  -4   2  -6    0.31    0.04
   4   2   6    0.23    0.06
   6  -2   6    0.13    0.05
  -6   2  -6    0.11    0.03
   6   2   6   -0.03    0.05
   8  -2   6   -0.01    0.04
   8   2   6   -0.01    0.06
   7  -3  -6    2.39    0.15
   7   3  -6    2.51    0.13
   7   3  -6    2.36    0.14
   5  -3  -6    0.26    0.05
   5   3  -6    0.28    0.04
   5   3  -6    0.34    0.05
   3  -3  -6    0.62    0.06
   3   3  -6    0.37    0.05
   3   3  -6    0.40    0.05
  -1  -3  -6   10.47    0.42
  -1  -3  -6   10.28    0.42
   1  -3   6   10.28    0.44
  -1   3  -6   10.16    0.42
   3  -3   6    6.14    0.28
  -3   3  -6    5.86    0.26
   5  -3   6    0.48    0.07
  -5   3  -6    0.57    0.06
   5   3   6    0.30    0.08
   7  -3   6    0.05    0.04
   7   3   6    0.12    0.07
  -7   3  -6    0.00    0.03
   8  -4  -6    0.07    0.04
   8   4  -6    0.13    0.05
   8   4  -6    0.02    0.03
   6  -4  -6    0.97    0.09
   6   4  -6    0.99    0.09
   6   4  -6    1.04    0.08
   4  -4  -6    0.02    0.03
   4   4  -6    0.01    0.02
   4   4  -6    0.03    0.02
   2  -4  -6    3.18    0.15
   2   4  -6    3.09    0.15
   2   4  -6    3.10    0.15
   0  -4  -6    0.01    0.03
   0  -4   6    0.01    0.02
   0   4   6   -0.04    0.05
   0   4  -6    0.00    0.02
  -2  -4  -6    2.71    0.13
   2  -4   6    2.82    0.15
  -2   4  -6    2.66    0.14
   4  -4   6    2.38    0.15
  -4   4  -6    2.61    0.13
   6  -4   6    0.81    0.10
  -6   4  -6    0.93    0.08
   7  -5  -6    0.73    0.09
   7   5  -6    0.74    0.08
   7   5  -6    0.73    0.07
   5  -5  -6    2.17    0.13
   5   5  -6    2.13    0.13
   5   5  -6    2.15    0.12
   3  -5  -6    2.70    0.15
   3   5  -6    2.80    0.14
   3   5  -6    2.89    0.14
   1  -5  -6    1.82    0.11
   1   5  -6    1.75    0.10
  -1  -5  -6    0.92    0.06
  -1   5  -6    0.95    0.07
   3  -5   6    0.93    0.09
  -3   5  -6    0.86    0.07
   5  -5   6    1.87    0.13
  -5   5  -6    1.82    0.11
   7  -5   6    0.00    0.04
  -7   5  -6    0.00    0.03
   7   5   6    0.03    0.08
   8  -6  -6    1.09    0.11
   8   6  -6    1.05    0.10
   6  -6  -6    0.58    0.07
   6   6  -6    0.48    0.07
   6   6  -6    0.57    0.06
   4  -6  -6   -0.01    0.03
   4   6  -6    0.01    0.02
   2  -6  -6    0.32    0.05
   2   6  -6    0.40    0.05
   0  -6   6    6.23    0.28
   0   6  -6    6.22    0.27
   2  -6   6    0.75    0.08
  -2   6  -6    0.83    0.07
   4  -6   6    0.33    0.06
  -4   6  -6    0.53    0.06
   6  -6   6    0.33    0.07
  -6   6  -6    0.33    0.05
   7  -7  -6    0.52    0.07
   7   7  -6    0.49    0.07
   5  -7  -6    0.75    0.08
   5   7  -6    0.80    0.07
   3  -7  -6    0.00    0.03
   3   7  -6    0.03    0.02
   3   7  -6    0.07    0.03
   1  -7  -6    0.09    0.03
   1  -7  -6    0.08    0.03
   1   7  -6    0.08    0.03
   3  -7   6    3.63    0.20
  -3   7  -6    3.69    0.18
   5  -7   6    0.57    0.08
  -5   7  -6    0.68    0.07
   6  -8  -6    1.26    0.11
   6   8  -6    1.28    0.11
   4  -8  -6    0.64    0.08
   4   8  -6    0.67    0.07
   2  -8  -6    0.92    0.08
   2  -8  -6    0.84    0.08
   2   8  -6    0.87    0.07
   0  -8   6    0.04    0.04
   0   8  -6    0.04    0.03
   2  -8   6    3.13    0.18
  -2   8  -6    3.28    0.17
   4  -8   6    0.97    0.10
  -4   8  -6    1.09    0.09
   6  -8   6    0.44    0.08
  -6   8  -6    0.47    0.06
   5  -9  -6    0.68    0.08
   5   9  -6    0.63    0.07
   3  -9  -6    0.12    0.05
   3   9  -6    0.16    0.04
   1   9  -6    1.85    0.11
   1  -9   6    1.57    0.12
  -1  -9  -6    1.49    0.12
  -1   9  -6    1.61    0.10
   3  -9   6    0.13    0.05
  -3   9  -6    0.14    0.04
   3   9   6   -0.09    0.08
   5  -9   6    0.16    0.06
  -5   9  -6    0.20    0.05
   5   9   6   -0.12    0.08
   4 -10  -6    0.47    0.08
   4  10  -6    0.62    0.07
   2 -10  -6    0.89    0.09
   2  10  -6    0.84    0.08
   0 -10  -6    0.03    0.04
   0  10  -6    0.01    0.03
  -2 -10  -6    1.71    0.13
   2 -10   6    1.63    0.13
  -2  10  -6    1.52    0.11
   4 -10   6    0.01    0.05
  -4  10  -6    0.08    0.04
   4  10   6   -0.01    0.08
   3 -11  -6   -0.02    0.04
   3  11  -6   -0.03    0.03
   1 -11  -6    0.16    0.06
   1  11  -6    0.16    0.04
  -1 -11  -6    1.60    0.13
   1 -11   6    1.71    0.14
  -1  11  -6    1.64    0.11
   3 -11   6    0.23    0.07
  -3 -11  -6    0.23    0.07
  -3  11  -6    0.17    0.05
   6   0  -7    0.17    0.04
   4   0  -7    1.85    0.11
   2   0  -7    0.23    0.04
   2   0  -7    0.23    0.04
   0   0  -7    0.39    0.05
  -2   0  -7    0.11    0.03
   4   0   7    0.10    0.05
  -4   0  -7    0.22    0.04
   6   0   7    1.75    0.14
  -6   0  -7    1.76    0.11
   7  -1  -7    0.00    0.04
   7   1  -7    0.04    0.04
   5  -1  -7    0.00    0.03
   5   1  -7   -0.01    0.03
   5   1  -7    0.00    0.03
   3   1  -7    0.14    0.03
   3   1  -7    0.14    0.03
   1  -1  -7    0.25    0.04
   1   1  -7    0.22    0.04
  -1  -1  -7    0.28    0.04
   1  -1   7    0.16    0.04
   1   1   7    0.10    0.04
  -1   1  -7    0.17    0.03
  -3  -1  -7    0.36    0.04
   3  -1   7    0.28    0.06
  -3   1  -7    0.39    0.05
   3   1   7    0.23    0.06
   5  -1   7    2.51    0.16
  -5  -1  -7    2.17    0.13
  -5   1  -7    2.54    0.13
   5   1   7    2.39    0.17
   6  -2  -7    0.37    0.06
   6   2  -7    0.38    0.06
   6   2  -7    0.43    0.05
   4  -2  -7    0.04    0.03
   4   2  -7    0.04    0.03
   2  -2  -7    1.20    0.11
   2  -2  -7    1.23    0.08
   2   2  -7    1.21    0.09
   0  -2  -7    0.29    0.04
   0   2  -7    0.26    0.04
  -2  -2  -7    0.18    0.03
   2   2   7   -0.02    0.05
  -2   2  -7    0.16    0.03
   4  -2   7    2.23    0.15
  -4  -2  -7    2.12    0.12
  -4   2  -7    2.32    0.12
   4   2   7    1.73    0.15
   6  -2   7    0.68    0.09
   6   2   7    0.43    0.09
  -6   2  -7    0.85    0.08
   7  -3  -7    0.01    0.04
   7   3  -7    0.00    0.03
   7   3  -7   -0.01    0.03
   5  -3  -7    0.23    0.05
   5   3  -7    0.28    0.05
   3  -3  -7    0.22    0.05
   3   3  -7    0.25    0.05
   3   3  -7    0.19    0.04
   1  -3  -7    0.21    0.04
   1  -3  -7    0.21    0.04
   1   3  -7    0.28    0.04
  -1  -3  -7    0.47    0.05
   1  -3   7    0.35    0.05
  -1   3  -7    0.52    0.05
   3  -3   7    1.30    0.10
  -3  -3  -7    1.26    0.08
  -3   3  -7    1.30    0.09
   5  -3   7    0.02    0.04
  -5   3  -7    0.01    0.03
   5   3   7   -0.07    0.07
   6  -4  -7    1.23    0.10
   6   4  -7    1.08    0.10
   6   4  -7    1.17    0.09
   4  -4  -7    0.23    0.05
   4   4  -7    0.24    0.04
   2   4  -7    0.00    0.02
   0  -4  -7    0.42    0.05
   0  -4  -7    0.37    0.05
   0   4  -7    0.37    0.05
  -2  -4  -7    0.09    0.03
  -2   4  -7    0.13    0.03
   2   4   7    0.00    0.06
   4  -4   7    2.31    0.16
  -4   4  -7    2.49    0.14
   6  -4   7    0.06    0.05
   6   4   7    0.03    0.08
  -6   4  -7    0.03    0.03
   5  -5  -7    0.19    0.05
   5   5  -7    0.19    0.04
   3  -5  -7    0.55    0.07
   3   5  -7    0.64    0.06
   1   5  -7    1.08    0.08
  -1  -5  -7    1.81    0.13
  -1  -5  -7    1.54    0.09
   1  -5   7    1.43    0.12
  -1   5  -7    1.63    0.10
   3  -5   7    0.72    0.09
  -3   5  -7    0.79    0.07
   5  -5   7    2.51    0.17
  -5   5  -7    2.34    0.14
   6  -6  -7    0.19    0.05
   6   6  -7    0.19    0.05
   6   6  -7    0.16    0.04
   4  -6  -7    0.76    0.08
   4   6  -7    0.74    0.07
   2  -6  -7    1.96    0.12
   2   6  -7    1.90    0.11
   0   6  -7    0.09    0.03
   4  -6   7    0.29    0.06
  -4   6  -7    0.24    0.05
   4   6   7   -0.11    0.08
   5  -7  -7    0.09    0.04
   5   7  -7    0.10    0.03
   3  -7  -7    0.06    0.04
   3   7  -7    0.06    0.03
   1  -7  -7    0.87    0.08
   1   7  -7    0.77    0.07
  -1  -7  -7    0.03    0.03
  -1   7  -7    0.03    0.03
   1   7   7    0.00    0.08
   3  -7   7    0.00    0.04
   3   7   7    0.02    0.08
  -3   7  -7   -0.02    0.03
   4  -8  -7    0.02    0.04
   4   8  -7    0.04    0.03
   2  -8  -7    0.18    0.05
   2   8  -7    0.14    0.04
   0  -8  -7    0.66    0.07
   0   8  -7    0.56    0.07
   2  -8   7    0.35    0.07
  -2   8  -7    0.32    0.06
   4  -8   7    0.09    0.05
  -4   8  -7    0.07    0.04
   4   8   7   -0.12    0.08
   3  -9  -7    0.00    0.04
   3   9  -7    0.03    0.03
   1  -9  -7    0.23    0.05
   1   9  -7    0.24    0.05
  -1  -9  -7    6.06    0.30
  -1   9  -7    5.90    0.28
   0 -10  -7    0.21    0.06
   0  10  -7    0.24    0.05
   6   0  -8    0.00    0.03
   6   0  -8    0.01    0.04
   4   0  -8   14.15    0.59
   2   0  -8    0.00    0.03
   0   0  -8    0.03    0.03
  -2   0  -8    0.06    0.03
  -4   0  -8    2.35    0.14
   4   0   8    2.79    0.19
   5  -1  -8    0.11    0.04
   5  -1  -8    0.10    0.04
   5   1  -8    0.18    0.04
   3  -1  -8    7.13    0.32
   3   1  -8    7.44    0.33
   1  -1  -8    0.01    0.03
   1   1  -8    0.01    0.03
  -1  -1  -8    0.99    0.08
  -1   1  -8    1.04    0.08
   3  -1   8    0.07    0.05
  -3  -1  -8    0.12    0.03
  -3   1  -8    0.11    0.04
   3   1   8    0.09    0.06
   4   2  -8    2.57    0.15
   2  -2  -8    0.01    0.03
   2   2  -8   -0.07    0.03
   0  -2  -8    1.41    0.09
   0   2  -8    1.38    0.10
  -2  -2  -8    0.93    0.08
  -2   2  -8    1.03    0.08
  -4  -2  -8    0.14    0.04
   4  -2   8    0.11    0.06
   4   2   8   -0.03    0.07
  -4   2  -8    0.26    0.05
   5  -3  -8    0.01    0.04
   5   3  -8    0.01    0.03
   3   3  -8    0.02    0.04
   1  -3  -8    0.10    0.04
   1   3  -8    0.10    0.04
  -1  -3  -8    2.27    0.13
  -1   3  -8    2.39    0.14
   3  -3   8    1.08    0.11
  -3  -3  -8    1.17    0.08
  -3   3  -8    1.31    0.10
   4  -4  -8    0.57    0.07
   4   4  -8    0.52    0.06
   2  -4  -8    0.24    0.05
   2   4  -8    0.20    0.05
   0  -4  -8    1.79    0.11
   0   4  -8    1.79    0.12
  -2  -4  -8    0.46    0.05
  -2   4  -8    0.60    0.07
   4  -4   8    0.57    0.08
  -4   4  -8    0.53    0.07
   3  -5  -8    0.61    0.07
   3   5  -8    0.54    0.07
   1  -5  -8    0.89    0.08
   1   5  -8    0.80    0.08
  -1  -5  -8    0.06    0.03
  -1   5  -8    0.10    0.04
   3  -5   8    0.25    0.06
  -3   5  -8    0.41    0.06
   2  -6  -8    0.06    0.04
   2   6  -8    0.07    0.04
   0  -6  -8    0.24    0.05
   0   6  -8    0.22    0.05
  -2   6  -8    1.29    0.10
   1  -7  -8    0.44    0.07
   1   7  -8    0.48    0.06
  -1  -7  -8    1.07    0.08
  -1   7  -8    1.07    0.09
   0   0  -9    0.10    0.04
   1  -1  -9    0.13    0.04
   1   1  -9    0.13    0.04
   0   0   0    0.00    0.00
;
_shelx_res_checksum              8137
_shelx_res_file
;
TITL 1 in C2/m
CELL 0.71073   9.43470  12.77120   7.23680  90.0000  93.0209  90.0000
ZERR   2.00   0.00610   0.00840   0.00470   0.0000   0.0093   0.0000
LATT 7
SYMM -X, Y, -Z
SFAC C  H  N  S
UNIT 44  20  8  2
OMIT -3 51
L.S. 11
ACTA
BOND $H
FMAP 2
PLAN 5
SIZE 0.29 0.27 0.25
CONF
HTAB
ISOR 0.01 C6
TEMP 23.000
WGHT    0.100000    1.000000
FVAR       0.17884
MOLE 1
C1    1    0.876696    0.555047    0.947704    11.00000    0.03396    0.03534 =
         0.03675    0.00158    0.00312    0.00297
C2    1    1.000000    0.609937    1.000000    10.50000    0.03741    0.02969 =
         0.04817    0.00000   -0.00031    0.00000
AFIX  43
H2    2    1.000000    0.682757    1.000003    10.50000   -1.20000
AFIX   0
C3    1    0.748858    0.611913    0.893354    11.00000    0.03801    0.03844 =
         0.05238    0.00047   -0.00117    0.00004
C4    1    0.282982    0.406953    0.633746    11.00000    0.08506    0.08435 =
         0.05665   -0.00795    0.01360    0.01105
AFIX  43
H4    2    0.330642    0.344118    0.656216    11.00000   -1.20000
AFIX   0
C5    1    0.352295    0.500000    0.666566    10.50000    0.03783    0.10619 =
         0.05096    0.00000   -0.00029    0.00000
AFIX  43
H5    2    0.446553    0.500000    0.711199    10.50000   -1.20000
AFIX   0
C6    1    0.144872    0.405766    0.568491    11.00000    0.08592    0.19175 =
         0.05061   -0.03036    0.01325   -0.05839
C7    1    0.078334    0.464287    0.537262    10.50000    0.04542    0.06135 =
         0.02615   -0.00787    0.00843   -0.02044
N1    3    0.648753    0.657967    0.850439    11.00000    0.04612    0.05602 =
         0.08277    0.00253   -0.00888    0.01317
S1    4    0.000000    0.334956    0.500000    10.25000    0.06884    0.03826 =
         0.06056    0.00000   -0.00841    0.00000
HKLF 4

REM  1 in C2/m
REM R1 =  0.0596 for     734 Fo > 4sig(Fo)  and  0.0659 for all     842 data
REM     71 parameters refined using      6 restraints

END

WGHT      0.0898      0.8594

REM No hydrogen bonds found for HTAB generation

REM Highest difference peak  0.265,  deepest hole -0.399,  1-sigma level  0.058
Q1    1   0.1727  0.3703  0.6016  11.00000  0.05    0.26
Q2    1   0.0000  0.4513  0.5000  10.50000  0.05    0.25
Q3    1   0.1228  0.2896  0.5743  11.00000  0.05    0.22
Q4    1   0.0850  0.5000  0.4676  10.50000  0.05    0.20
Q5    1   0.0535  0.5000  0.6043  10.50000  0.05    0.18
;
loop_
_space_group_symop_operation_xyz
'x, y, z'
'-x, y, -z'
'x+1/2, y+1/2, z'
'-x+1/2, y+1/2, -z'
'-x, -y, -z'
'x, -y, z'
'-x+1/2, -y+1/2, -z'
'x+1/2, -y+1/2, z'
loop_
_atom_site_label
_atom_site_type_symbol
_atom_site_fract_x
_atom_site_fract_y
_atom_site_fract_z
_atom_site_U_iso_or_equiv
_atom_site_adp_type
_atom_site_occupancy
_atom_site_site_symmetry_order
_atom_site_calc_flag
_atom_site_refinement_flags_posn
_atom_site_refinement_flags_adp
_atom_site_refinement_flags_occupancy
_atom_site_disorder_assembly
_atom_site_disorder_group
C1 C 0.87670(18) 0.55505(15) 0.9477(2) 0.0353(5) Uani 1 1 d . . . . .
C2 C 1.0000 0.6099(2) 1.0000 0.0385(7) Uani 1 2 d S T P . .
H2 H 1.0000 0.6828 1.0000 0.046 Uiso 1 2 calc R U P . .
C3 C 0.7489(2) 0.61191(16) 0.8934(3) 0.0431(6) Uani 1 1 d . . . . .
C4 C 0.2830(3) 0.4070(3) 0.6337(4) 0.0750(9) Uani 1 1 d . . . . .
H4 H 0.3306 0.3441 0.6562 0.090 Uiso 1 1 calc R U . . .
C5 C 0.3523(4) 0.5000 0.6666(5) 0.0651(12) Uani 1 2 d S T P . .
H5 H 0.4466 0.5000 0.7112 0.078 Uiso 1 2 calc R U P . .
C6 C 0.1449(4) 0.4058(4) 0.5685(5) 0.1091(17) Uani 1 1 d . U . . .
C7 C 0.0783(5) 0.4643(4) 0.5373(6) 0.0441(12) Uani 0.5 1 d . . P . .
N1 N 0.6488(2) 0.65797(18) 0.8504(3) 0.0621(7) Uani 1 1 d . . . . .
S1 S 0.0000 0.33496(13) 0.5000 0.0563(6) Uani 0.5 2 d S T P . .
loop_
_atom_site_aniso_label
_atom_site_aniso_U_11
_atom_site_aniso_U_22
_atom_site_aniso_U_33
_atom_site_aniso_U_23
_atom_site_aniso_U_13
_atom_site_aniso_U_12
C1 0.0340(11) 0.0353(11) 0.0368(10) 0.0016(8) 0.0031(8) 0.0030(8)
C2 0.0374(15) 0.0297(13) 0.0482(15) 0.000 -0.0003(12) 0.000
C3 0.0380(11) 0.0384(11) 0.0524(12) 0.0005(9) -0.0012(9) 0.0000(9)
C4 0.085(2) 0.084(2) 0.0567(15) -0.0080(14) 0.0136(14) 0.0111(18)
C5 0.0378(17) 0.106(3) 0.0510(19) 0.000 -0.0003(14) 0.000
C6 0.086(3) 0.192(5) 0.0506(17) -0.030(3) 0.0132(17) -0.058(3)
C7 0.045(3) 0.061(3) 0.0262(18) -0.0079(16) 0.0084(17) -0.0204(19)
N1 0.0461(11) 0.0560(13) 0.0828(15) 0.0025(11) -0.0089(10) 0.0132(10)
S1 0.0688(12) 0.0383(9) 0.0606(10) 0.000 -0.0084(8) 0.000
loop_
_atom_type_symbol
_atom_type_description
_atom_type_scat_dispersion_real
_atom_type_scat_dispersion_imag
_atom_type_scat_source
C C 0.0033 0.0016 'International Tables Vol C Tables 4.2.6.8 and 6.1.1.4'
H H 0.0000 0.0000 'International Tables Vol C Tables 4.2.6.8 and 6.1.1.4'
N N 0.0061 0.0033 'International Tables Vol C Tables 4.2.6.8 and 6.1.1.4'
S S 0.1246 0.1234 'International Tables Vol C Tables 4.2.6.8 and 6.1.1.4'
loop_
_geom_angle_atom_site_label_1
_geom_angle_atom_site_label_2
_geom_angle_atom_site_label_3
_geom_angle
_geom_angle_site_symmetry_1
_geom_angle_site_symmetry_3
C1 C1 C3 120.18(11) 6_565 .
C2 C1 C1 120.21(13) . 6_565
C2 C1 C3 119.61(18) . .
C1 C2 C1 119.6(3) . 2_757
C1 C2 H2 120.2 2_757 .
C1 C2 H2 120.2 . .
N1 C3 C1 179.2(2) . .
C5 C4 H4 119.7 . .
C6 C4 H4 119.7 . .
C6 C4 C5 120.6(4) . .
C4 C5 C4 120.2(4) . 6_565
C4 C5 H5 119.9 6_565 .
C4 C5 H5 119.9 . .
C4 C6 C7 110.9(4) . 6_565
C4 C6 S1 148.3(5) . .
C7 C6 C4 130.6(6) . .
C7 C6 C7 19.7(3) . 6_565
C7 C6 S1 81.1(4) . .
S1 C6 C7 100.8(2) . 6_565
C6 C7 C6 117.2(5) . 6_565
C6 C7 C7 161.8(7) . 5_566
C6 C7 C7 81.0(3) 6_565 5_566
C6 C7 C7 131.3(4) . 2_556
C6 C7 S1 176.5(3) 6_565 .
C6 C7 S1 66.4(4) . .
C7 C7 C6 138.7(4) 6_565 .
C7 C7 C6 21.57(18) 6_565 6_565
C7 C7 C6 111.57(18) 2_556 6_565
C7 C7 C7 89.998(1) 6_565 2_556
C7 C7 C7 59.5(3) 6_565 5_566
C7 C7 C7 30.5(3) 2_556 5_566
C7 C7 S1 95.4(3) 5_566 .
C7 C7 S1 64.91(15) 2_556 .
C7 C7 S1 154.91(15) 6_565 .
C6 S1 C6 115.3(4) . 2_556
C6 S1 C7 82.8(3) 2_556 .
C6 S1 C7 32.6(2) . .
C6 S1 C7 82.8(3) . 2_556
C6 S1 C7 32.6(2) 2_556 2_556
C7 S1 C7 50.2(3) 2_556 .
loop_
_geom_bond_atom_site_label_1
_geom_bond_atom_site_label_2
_geom_bond_distance
_geom_bond_site_symmetry_2
C1 C1 1.406(4) 6_565
C1 C2 1.393(2) .
C1 C3 1.445(3) .
C2 C1 1.393(2) 2_757
C2 H2 0.9300 .
C3 N1 1.142(3) .
C4 H4 0.9300 .
C4 C5 1.371(4) .
C4 C6 1.362(5) .
C5 C4 1.371(4) 6_565
C5 H5 0.9300 .
C6 C7 1.784(7) 6_565
C6 C7 0.994(6) .
C6 S1 1.691(4) .
C7 C6 1.784(7) 6_565
C7 C7 1.795(10) 5_566
C7 C7 1.546(9) 2_556
C7 C7 0.912(10) 6_565
C7 S1 1.824(5) .
S1 C6 1.691(4) 2_556
S1 C7 1.824(5) 2_556
loop_
_geom_torsion_atom_site_label_1
_geom_torsion_atom_site_label_2
_geom_torsion_atom_site_label_3
_geom_torsion_atom_site_label_4
_geom_torsion
_geom_torsion_site_symmetry_1
_geom_torsion_site_symmetry_2
_geom_torsion_site_symmetry_3
_geom_torsion_site_symmetry_4
C1 C1 C2 C1 0.003(0) 6_565 . . 2_757
C3 C1 C2 C1 -179.96(18) . . . 2_757
C4 C6 C7 C6 0.2(9) . . . 6_565
C4 C6 C7 C7 0.2(9) . . . 6_565
C4 C6 C7 C7 179.8(4) . . . 2_556
C4 C6 C7 C7 179.5(16) . . . 5_566
C4 C6 C7 S1 -180.0(5) . . . .
C4 C6 S1 C6 -180.0(5) . . . 2_556
C4 C6 S1 C7 -179.9(5) . . . 2_556
C4 C6 S1 C7 179.9(8) . . . .
C5 C4 C6 C7 -0.1(7) . . . .
C5 C4 C6 C7 0.0(4) . . . 6_565
C5 C4 C6 S1 -180.0(4) . . . .
C6 C4 C5 C4 0.0(5) . . . 6_565
C6 C7 S1 C6 -179.9(3) . . . 2_556
C6 C7 S1 C7 -179.8(6) . . . 2_556
C7 C6 C7 C6 0.002(2) 6_565 . . 6_565
C7 C6 C7 C7 179(2) 6_565 . . 5_566
C7 C6 C7 C7 179.7(11) 6_565 . . 2_556
C7 C6 C7 S1 179.9(4) 6_565 . . .
C7 C6 S1 C6 0.05(17) 6_565 . . 2_556
C7 C6 S1 C6 0.1(3) . . . 2_556
C7 C6 S1 C7 0.1(3) 6_565 . . 2_556
C7 C6 S1 C7 -0.04(14) 6_565 . . .
C7 C6 S1 C7 0.1(5) . . . 2_556
C7 C7 S1 C6 -0.1(3) 6_565 . . 2_556
C7 C7 S1 C6 179.8(6) 5_566 . . .
C7 C7 S1 C6 -0.1(3) 2_556 . . 2_556
C7 C7 S1 C6 -0.1(3) 5_566 . . 2_556
C7 C7 S1 C6 179.8(6) 6_565 . . .
C7 C7 S1 C6 179.8(6) 2_556 . . .
C7 C7 S1 C7 0.002(2) 6_565 . . 2_556
C7 C7 S1 C7 0.000(1) 5_566 . . 2_556
S1 C6 C7 C6 -179.9(4) . . . 6_565
S1 C6 C7 C7 -0.2(7) . . . 2_556
S1 C6 C7 C7 -179.9(4) . . . 6_565
S1 C6 C7 C7 -1(2) . . . 5_566
