#------------------------------------------------------------------------------
#$Date: 2019-11-23 12:51:45 +0200 (Sat, 23 Nov 2019) $
#$Revision: 233355 $
#$URL: file:///home/coder/svn-repositories/cod/cif/7/23/58/7235822.cif $
#------------------------------------------------------------------------------
#
# This file is available in the Crystallography Open Database (COD),
# http://www.crystallography.net/
#
# All data on this site have been placed in the public domain by the
# contributors.
#
data_7235822
loop_
_publ_author_name
'Klap\"otke, Thomas M.'
'Schmid, Philipp. C.'
'Schnell, Simon'
'Stierstorfer, J\"org'
_publ_section_title
;
 Thermal stabilization of energetic materials by the aromatic
 nitrogen-rich
 4,4&#x2032;,5,5&#x2032;-tetraamino-3,3&#x2032;-bi-1,2,4-triazolium cation
;
_journal_issue                   6
_journal_name_full               'Journal of Materials Chemistry A'
_journal_page_first              2658
_journal_paper_doi               10.1039/C4TA05964F
_journal_volume                  3
_journal_year                    2015
_chemical_formula_moiety         'C4 H10 N10, 2(N3 O4)'
_chemical_formula_sum            'C4 H10 N16 O8'
_chemical_formula_weight         410.28
_chemical_name_common            '5,5-bis(3,4-diaminotriazolium) dinitramide'
_chemical_name_systematic        '5,5-bis(3,4-diaminotriazolium) dinitramide'
_space_group_IT_number           2
_space_group_name_Hall           '-P 1'
_space_group_name_H-M_alt        'P -1'
_symmetry_cell_setting           triclinic
_symmetry_Int_Tables_number      2
_symmetry_space_group_name_Hall  '-P 1'
_symmetry_space_group_name_H-M   'P -1'
_atom_sites_solution_hydrogens   difmap
_atom_sites_solution_primary     direct
_atom_sites_solution_secondary   difmap
_audit_creation_date
;
'Fri May 16 07:00:02 2014'
;
_audit_creation_method
;
CrysAlisPro, Oxford Diffraction Ltd.,
Version 1.171.35.11 (release 16-05-2011 CrysAlis171 .NET)
(compiled May 16 2011,17:55:39)
;
_audit_update_record
;
2014-10-14 deposited with the CCDC.
2014-12-17 downloaded from the CCDC.
;
_cell_angle_alpha                97.717(6)
_cell_angle_beta                 107.340(6)
_cell_angle_gamma                112.140(7)
_cell_formula_units_Z            1
_cell_length_a                   6.5168(5)
_cell_length_b                   7.7826(5)
_cell_length_c                   8.5072(6)
_cell_measurement_reflns_used    2333
_cell_measurement_temperature    173(2)
_cell_measurement_theta_max      31.6020
_cell_measurement_theta_min      5.1010
_cell_volume                     366.35(6)
_computing_cell_refinement
;
CrysAlisPro, Agilent Technologies,
Version 1.171.35.11 (release 16-05-2011 CrysAlis171 .NET)
(compiled May 16 2011,17:55:39)
;
_computing_data_collection
;
CrysAlisPro, Agilent Technologies,
Version 1.171.35.11 (release 16-05-2011 CrysAlis171 .NET)
(compiled May 16 2011,17:55:39)
;
_computing_data_reduction
;
CrysAlisPro, Agilent Technologies,
Version 1.171.35.11 (release 16-05-2011 CrysAlis171 .NET)
(compiled May 16 2011,17:55:39)
;
_computing_molecular_graphics
;
'ORTEP (M. N. Burnett, C. K. Johnson, ORTEP-III: Oak Ridge Thermal Ellipsoid
# Plot Program for Crystal Structure Illustrations, Oak Ridge National
# Laboratory Report ORNL-6895, 1996). Windows version (L. J. Farrugia, Univ.
# Glasgow) used --- SCHAKAL (E. Keller, University of  Freiburg (Breisgau),
# Germany, 1995)'
;
_computing_publication_material
;PLATON (A. L. Spek, Acta Crystallogr, Sect. A, 1990, 46, C34, 1995 version).
# --- T.B.Cohen, Pure Appl. Chem. 1996,68,2339-2359 (atomic masses).
;
_computing_structure_refinement  'SHELXL-97 (Sheldrick, 1997)'
_computing_structure_solution    SIR-92
_diffrn_ambient_temperature      173
_diffrn_detector_area_resol_mean 15.9809
_diffrn_measured_fraction_theta_full 0.995
_diffrn_measured_fraction_theta_max 0.995
_diffrn_measurement_device       'CCD camera on \k-goniostat'
_diffrn_measurement_device_type  'Xcalibur, Sapphire3'
_diffrn_measurement_method       '\w scans'
_diffrn_orient_matrix_UB_11      0.0240907000
_diffrn_orient_matrix_UB_12      0.0947826000
_diffrn_orient_matrix_UB_13      0.0414874000
_diffrn_orient_matrix_UB_21      0.0698157000
_diffrn_orient_matrix_UB_22      -0.0071659000
_diffrn_orient_matrix_UB_23      0.0783906000
_diffrn_orient_matrix_UB_31      0.1033489000
_diffrn_orient_matrix_UB_32      0.0382502000
_diffrn_orient_matrix_UB_33      -0.0201628000
_diffrn_radiation_collimation    0.5
_diffrn_radiation_monochromator  graphite
_diffrn_radiation_source         'Enhance (Mo) X-ray Source'
_diffrn_radiation_type           'Mo K\a'
_diffrn_radiation_wavelength     0.71073
_diffrn_reflns_av_R_equivalents  0.0258
_diffrn_reflns_av_sigmaI/netI    0.0231
_diffrn_reflns_limit_h_max       8
_diffrn_reflns_limit_h_min       -8
_diffrn_reflns_limit_k_max       9
_diffrn_reflns_limit_k_min       -9
_diffrn_reflns_limit_l_max       10
_diffrn_reflns_limit_l_min       -10
_diffrn_reflns_number            5373
_diffrn_reflns_theta_full        26.50
_diffrn_reflns_theta_max         26.50
_diffrn_reflns_theta_min         4.45
_diffrn_source_current           40
_diffrn_source_type              'Spellman generator'
_diffrn_source_voltage           50
_exptl_absorpt_coefficient_mu    0.171
_exptl_absorpt_correction_T_max  0.9999
_exptl_absorpt_correction_T_min  0.9500
_exptl_absorpt_correction_type   multi-scan
_exptl_absorpt_process_details
;
CrysAlisPro, Agilent Technologies,
Version 1.171.35.11 (release 16-05-2011 CrysAlis171 .NET)
(compiled May 16 2011,17:55:39)
Empirical absorption correction using spherical harmonics,
 implemented in SCALE3 ABSPACK scaling algorithm.
;
_exptl_crystal_colour            colorless
_exptl_crystal_density_diffrn    1.860
_exptl_crystal_density_method    'not measured'
_exptl_crystal_description       platelet
_exptl_crystal_F_000             210
_exptl_crystal_size_max          0.20
_exptl_crystal_size_mid          0.10
_exptl_crystal_size_min          0.03
_refine_diff_density_max         0.380
_refine_diff_density_min         -0.342
_refine_diff_density_rms         0.069
_refine_ls_extinction_method     none
_refine_ls_goodness_of_fit_ref   1.060
_refine_ls_hydrogen_treatment    refall
_refine_ls_matrix_type           full
_refine_ls_number_parameters     147
_refine_ls_number_reflns         1510
_refine_ls_number_restraints     0
_refine_ls_restrained_S_all      1.060
_refine_ls_R_factor_all          0.0398
_refine_ls_R_factor_gt           0.0336
_refine_ls_shift/su_max          0.000
_refine_ls_shift/su_mean         0.000
_refine_ls_structure_factor_coef Fsqd
_refine_ls_weighting_details
'calc w=1/[\s^2^(Fo^2^)+(0.0361P)^2^+0.1728P] where P=(Fo^2^+2Fc^2^)/3'
_refine_ls_weighting_scheme      calc
_refine_ls_wR_factor_gt          0.0803
_refine_ls_wR_factor_ref         0.0855
_reflns_number_gt                1320
_reflns_number_total             1510
_reflns_threshold_expression     >2sigma(I)
_iucr_refine_instructions_details
;
TITL v1 in P-1
CELL  0.71073   6.5168   7.7826   8.5072   97.717  107.340  112.140
ZERR     1.00   0.0005   0.0005   0.0006    0.006    0.006    0.007
LATT   1
SFAC  C    N    O    H
UNIT  4    16   8    10
MERG   2
OMIT    -2.00  53.00
EQIV $1 -x+1, -y, -z
EQIV $2 x+1, y, z+1
EQIV $3 -x+1, -y+1, -z+1
EQIV $4 -x+2, -y+1, -z+1
EQIV $5 x+1, y, z
HTAB N4 O4_$1
HTAB N5 O3_$2
HTAB N5 O2_$3
HTAB N5 O1_$4
HTAB N2 O1_$3
HTAB N4 O4_$5
HTAB N4 O2_$5
FMAP   2
PLAN   20
SIZE     0.03   0.10   0.20
ACTA
BOND   $H
CONF
L.S.   5
TEMP  -100.00
WGHT    0.036100    0.172800
FVAR       0.35142
N1    2    0.390965    0.085885    0.151281    11.00000    0.02056    0.02531 =
         0.01200    0.00081    0.00406    0.00954
N2    2    0.527679    0.168526    0.324115    11.00000    0.02193    0.02966 =
         0.01169   -0.00048    0.00546    0.01160
N3    2    0.750281    0.093468    0.216611    11.00000    0.01627    0.01715 =
         0.01134    0.00121    0.00294    0.00657
N4    2    0.951521    0.068835    0.214496    11.00000    0.01744    0.02387 =
         0.01805    0.00201    0.00471    0.01002
N5    2    0.920364    0.238698    0.515104    11.00000    0.02442    0.03552 =
         0.01240   -0.00304    0.00161    0.01322
C1    1    0.743315    0.173636    0.364409    11.00000    0.02104    0.01820 =
         0.01305    0.00212    0.00516    0.00672
C2    1    0.530944    0.043484    0.089437    11.00000    0.01667    0.01549 =
         0.01346    0.00290    0.00370    0.00496
O1    3    0.596035    0.756910    0.389300    11.00000    0.02339    0.02909 =
         0.01622   -0.00329    0.00297    0.00495
O2    3    0.259135    0.501854    0.299274    11.00000    0.04195    0.03974 =
         0.02640    0.00212    0.01819   -0.00613
O3    3    0.226044    0.525664   -0.161334    11.00000    0.04430    0.02816 =
         0.01553    0.00433    0.00355    0.01199
O4    3    0.099217    0.331078   -0.017456    11.00000    0.03040    0.02055 =
         0.02728   -0.00014    0.01111    0.00126
N6    2    0.419047    0.636957    0.113861    11.00000    0.02363    0.01990 =
         0.01482    0.00092    0.00453    0.00470
N7    2    0.416699    0.621470    0.269475    11.00000    0.01980    0.02162 =
         0.01688    0.00198    0.00617    0.00872
N8    2    0.233651    0.486792   -0.024889    11.00000    0.02034    0.01852 =
         0.01796    0.00119    0.00441    0.00911
H4A   4    0.899297   -0.056970    0.163533    11.00000    0.03583
H5A   4    0.919362    0.304996    0.601475    11.00000    0.03582
H5B   4    1.054016    0.236167    0.517171    11.00000    0.03328
H2    4    0.468939    0.199451    0.392024    11.00000    0.03299
H4B   4    1.017253    0.148026    0.154211    11.00000    0.03206
HKLF    4
 
REM  v1 in P-1
REM R1 =  0.0336 for   1320 Fo > 4sig(Fo)  and  0.0398 for all   1510 data
REM    147 parameters refined using      0 restraints
 
END
 
WGHT      0.0360      0.1728
REM Highest difference peak  0.380,  deepest hole -0.342,  1-sigma level  0.069
Q1    1   0.3352  0.4435  0.2898  11.00000  0.05    0.38
Q2    1   0.1911  0.2965  0.0431  11.00000  0.05    0.20
Q3    1   0.6292  0.0341  0.1548  11.00000  0.05    0.19
Q4    1   0.5975 -0.0769  0.2519  11.00000  0.05    0.18
Q5    1   0.6902  0.8482  0.3117  11.00000  0.05    0.17
Q6    1   0.0626  0.2258 -0.1206  11.00000  0.05    0.16
Q7    1   0.0887  0.5017 -0.1515  11.00000  0.05    0.16
Q8    1   0.5000  0.0000  0.0000  10.50000  0.05    0.16
Q9    1   0.7473  0.1252  0.2951  11.00000  0.05    0.16
Q10   1   0.3670 -0.0750  0.3212  11.00000  0.05    0.15
Q11   1   1.0863  0.0994  0.6281  11.00000  0.05    0.15
Q12   1   0.5870  0.4854  0.3404  11.00000  0.05    0.15
Q13   1   0.1035  0.5951 -0.2639  11.00000  0.05    0.15
Q14   1   0.5000  0.0000  0.5000  10.50000  0.05    0.15
Q15   1   1.0587 -0.0996  0.2422  11.00000  0.05    0.15
Q16   1   0.0961  0.3598  0.3312  11.00000  0.05    0.14
Q17   1   0.1212  0.6700 -0.1457  11.00000  0.05    0.14
Q18   1   0.9357  0.2822  0.0909  11.00000  0.05    0.14
Q19   1   0.3808  0.6520 -0.1763  11.00000  0.05    0.14
Q20   1   0.4973  0.9177  0.3925  11.00000  0.05    0.14


;
_cod_data_source_file            c4ta05964f2.cif
_cod_data_source_block           jx139
_cod_original_sg_symbol_Hall     -P1
_cod_database_code               7235822
loop_
_symmetry_equiv_pos_as_xyz
'x, y, z'
'-x, -y, -z'
loop_
_atom_site_label
_atom_site_type_symbol
_atom_site_fract_x
_atom_site_fract_y
_atom_site_fract_z
_atom_site_U_iso_or_equiv
_atom_site_adp_type
_atom_site_occupancy
_atom_site_symmetry_multiplicity
_atom_site_calc_flag
N1 N 0.3910(2) 0.08589(18) 0.15128(15) 0.0205(3) Uani 1 1 d
N2 N 0.5277(2) 0.16853(19) 0.32411(15) 0.0219(3) Uani 1 1 d
N3 N 0.7503(2) 0.09347(16) 0.21661(14) 0.0161(3) Uani 1 1 d
N4 N 0.9515(2) 0.0688(2) 0.21450(16) 0.0204(3) Uani 1 1 d
N5 N 0.9204(3) 0.2387(2) 0.51510(17) 0.0265(3) Uani 1 1 d
C1 C 0.7433(3) 0.1736(2) 0.36441(17) 0.0186(3) Uani 1 1 d
C2 C 0.5309(2) 0.0435(2) 0.08944(17) 0.0165(3) Uani 1 1 d
O1 O 0.59603(19) 0.75691(16) 0.38930(13) 0.0273(3) Uani 1 1 d
O2 O 0.2591(2) 0.50185(19) 0.29927(16) 0.0434(4) Uani 1 1 d
O3 O 0.2260(2) 0.52566(17) -0.16133(13) 0.0328(3) Uani 1 1 d
O4 O 0.0992(2) 0.33108(16) -0.01746(14) 0.0301(3) Uani 1 1 d
N6 N 0.4190(2) 0.63696(18) 0.11386(15) 0.0222(3) Uani 1 1 d
N7 N 0.4167(2) 0.62147(17) 0.26948(15) 0.0201(3) Uani 1 1 d
N8 N 0.2337(2) 0.48679(17) -0.02489(15) 0.0199(3) Uani 1 1 d
H4A H 0.899(4) -0.057(3) 0.164(3) 0.036(5) Uiso 1 1 d
H5A H 0.919(4) 0.305(3) 0.601(3) 0.036(5) Uiso 1 1 d
H5B H 1.054(4) 0.236(3) 0.517(2) 0.033(5) Uiso 1 1 d
H2 H 0.469(4) 0.199(3) 0.392(3) 0.033(5) Uiso 1 1 d
H4B H 1.017(3) 0.148(3) 0.154(2) 0.032(5) Uiso 1 1 d
loop_
_atom_site_aniso_label
_atom_site_aniso_U_11
_atom_site_aniso_U_22
_atom_site_aniso_U_33
_atom_site_aniso_U_23
_atom_site_aniso_U_13
_atom_site_aniso_U_12
N1 0.0206(6) 0.0253(7) 0.0120(6) 0.0008(5) 0.0041(5) 0.0095(5)
N2 0.0219(6) 0.0297(7) 0.0117(6) -0.0005(5) 0.0055(5) 0.0116(5)
N3 0.0163(6) 0.0172(6) 0.0113(5) 0.0012(4) 0.0029(4) 0.0066(5)
N4 0.0174(6) 0.0239(7) 0.0181(6) 0.0020(5) 0.0047(5) 0.0100(5)
N5 0.0244(7) 0.0355(8) 0.0124(6) -0.0030(5) 0.0016(5) 0.0132(6)
C1 0.0210(7) 0.0182(7) 0.0130(7) 0.0021(5) 0.0052(6) 0.0067(6)
C2 0.0167(7) 0.0155(6) 0.0135(7) 0.0029(5) 0.0037(5) 0.0050(5)
O1 0.0234(6) 0.0291(6) 0.0162(5) -0.0033(4) 0.0030(4) 0.0049(5)
O2 0.0419(7) 0.0397(7) 0.0264(6) 0.0021(5) 0.0182(6) -0.0061(6)
O3 0.0443(7) 0.0282(6) 0.0155(5) 0.0043(4) 0.0036(5) 0.0120(5)
O4 0.0304(6) 0.0205(6) 0.0273(6) -0.0001(4) 0.0111(5) 0.0013(5)
N6 0.0236(6) 0.0199(6) 0.0148(6) 0.0009(5) 0.0045(5) 0.0047(5)
N7 0.0198(6) 0.0216(6) 0.0169(6) 0.0020(5) 0.0062(5) 0.0087(5)
N8 0.0203(6) 0.0185(6) 0.0180(6) 0.0012(5) 0.0044(5) 0.0091(5)
loop_
_atom_type_symbol
_atom_type_description
_atom_type_scat_dispersion_real
_atom_type_scat_dispersion_imag
_atom_type_scat_source
C C 0.0033 0.0016 'International Tables Vol C Tables 4.2.6.8 and 6.1.1.4'
N N 0.0061 0.0033 'International Tables Vol C Tables 4.2.6.8 and 6.1.1.4'
O O 0.0106 0.0060 'International Tables Vol C Tables 4.2.6.8 and 6.1.1.4'
H H 0.0000 0.0000 'International Tables Vol C Tables 4.2.6.8 and 6.1.1.4'
loop_
_geom_angle_atom_site_label_1
_geom_angle_atom_site_label_2
_geom_angle_atom_site_label_3
_geom_angle
_geom_angle_site_symmetry_3
C2 N1 N2 103.99(11) .
C1 N2 N1 111.92(12) .
C1 N2 H2 127.0(13) .
N1 N2 H2 120.8(13) .
C1 N3 C2 106.57(12) .
C1 N3 N4 120.98(12) .
C2 N3 N4 132.41(12) .
N3 N4 H4A 106.7(13) .
N3 N4 H4B 106.7(12) .
H4A N4 H4B 112.6(17) .
C1 N5 H5A 121.7(14) .
C1 N5 H5B 117.0(13) .
H5A N5 H5B 119.5(19) .
N5 C1 N2 129.45(14) .
N5 C1 N3 124.47(14) .
N2 C1 N3 106.07(12) .
N1 C2 N3 111.44(12) .
N1 C2 C2 124.93(16) 2_655
N3 C2 C2 123.63(16) 2_655
N7 N6 N8 115.40(11) .
O2 N7 O1 120.96(12) .
O2 N7 N6 126.93(12) .
O1 N7 N6 111.97(11) .
O4 N8 O3 122.74(12) .
O4 N8 N6 125.83(12) .
O3 N8 N6 111.35(12) .
loop_
_geom_bond_atom_site_label_1
_geom_bond_atom_site_label_2
_geom_bond_distance
_geom_bond_site_symmetry_2
N1 C2 1.2978(19) .
N1 N2 1.3793(17) .
N2 C1 1.327(2) .
N2 H2 0.84(2) .
N3 C1 1.3479(18) .
N3 C2 1.3824(17) .
N3 N4 1.3999(17) .
N4 H4A 0.90(2) .
N4 H4B 0.92(2) .
N5 C1 1.3171(19) .
N5 H5A 0.84(2) .
N5 H5B 0.87(2) .
C2 C2 1.445(3) 2_655
O1 N7 1.2605(16) .
O2 N7 1.2179(17) .
O3 N8 1.2299(16) .
O4 N8 1.2221(16) .
N6 N7 1.3494(17) .
N6 N8 1.3907(17) .
loop_
_geom_hbond_atom_site_label_D
_geom_hbond_atom_site_label_H
_geom_hbond_atom_site_label_A
_geom_hbond_distance_DH
_geom_hbond_distance_HA
_geom_hbond_distance_DA
_geom_hbond_angle_DHA
_geom_hbond_site_symmetry_A
N4 H4A O4 0.90(2) 2.33(2) 3.1779(18) 158.2(17) 2_655
N5 H5A O3 0.84(2) 2.26(2) 2.8740(18) 130.2(18) 1_656
N5 H5A O2 0.84(2) 2.43(2) 3.157(2) 145.4(18) 2_666
N5 H5B O1 0.87(2) 2.16(2) 2.9964(19) 161.1(17) 2_766
N2 H2 O1 0.84(2) 2.04(2) 2.8417(17) 159.8(19) 2_666
N4 H4B O4 0.92(2) 2.21(2) 3.1175(18) 168.1(17) 1_655
N4 H4B O2 0.92(2) 2.499(19) 3.0478(19) 118.6(14) 1_655
loop_
_geom_torsion_atom_site_label_1
_geom_torsion_atom_site_label_2
_geom_torsion_atom_site_label_3
_geom_torsion_atom_site_label_4
_geom_torsion
_geom_torsion_site_symmetry_4
C2 N1 N2 C1 -0.54(16) .
N1 N2 C1 N5 -179.02(15) .
N1 N2 C1 N3 0.01(17) .
C2 N3 C1 N5 179.58(14) .
N4 N3 C1 N5 1.7(2) .
C2 N3 C1 N2 0.49(16) .
N4 N3 C1 N2 -177.38(12) .
N2 N1 C2 N3 0.85(15) .
N2 N1 C2 C2 -178.68(17) 2_655
C1 N3 C2 N1 -0.87(16) .
N4 N3 C2 N1 176.65(14) .
C1 N3 C2 C2 178.66(16) 2_655
N4 N3 C2 C2 -3.8(3) 2_655
N8 N6 N7 O2 -7.7(2) .
N8 N6 N7 O1 176.58(12) .
N7 N6 N8 O4 -13.8(2) .
N7 N6 N8 O3 169.29(12) .
