#------------------------------------------------------------------------------
#$Date: 2019-11-23 15:49:18 +0200 (Sat, 23 Nov 2019) $
#$Revision: 233894 $
#$URL: file:///home/coder/svn-repositories/cod/cif/7/23/60/7236067.cif $
#------------------------------------------------------------------------------
#
# This file is available in the Crystallography Open Database (COD),
# http://www.crystallography.net/
#
# All data on this site have been placed in the public domain by the
# contributors.
#
data_7236067
loop_
_publ_author_name
'Liu, Long'
'Zhang, Yanqiang'
'Li, Zhimin'
'Zhang, Suojiang'
_publ_section_title
;
 Nitrogen-rich energetic 4-R-5-nitro-1,2,3-triazolate salts (R = --CH3,
 --NH2, --N3, --NO2 and --NHNO2) as high performance energetic materials
;
_journal_issue                   28
_journal_name_full               'Journal of Materials Chemistry A'
_journal_page_first              14768
_journal_paper_doi               10.1039/C5TA01901J
_journal_volume                  3
_journal_year                    2015
_chemical_formula_sum            'C3 H8 N10 O4'
_chemical_formula_weight         248.19
_space_group_IT_number           2
_space_group_name_Hall           '-P 1'
_space_group_name_H-M_alt        'P -1'
_symmetry_cell_setting           triclinic
_symmetry_space_group_name_H-M   'P -1'
_atom_sites_solution_hydrogens   difmap
_atom_sites_solution_primary     direct
_atom_sites_solution_secondary   difmap
_audit_creation_method           SHELXL-97
_audit_update_record
;
2015-01-29 deposited with the CCDC.
2015-06-04 downloaded from the CCDC.
;
_cell_angle_alpha                93.386(5)
_cell_angle_beta                 91.224(7)
_cell_angle_gamma                98.007(5)
_cell_formula_units_Z            2
_cell_length_a                   6.553(2)
_cell_length_b                   8.471(3)
_cell_length_c                   9.078(3)
_cell_measurement_reflns_used    1940
_cell_measurement_temperature    163(2)
_cell_measurement_theta_max      31.502
_cell_measurement_theta_min      2.433
_cell_volume                     497.9(3)
_computing_cell_refinement       'CrystalClear (Rigaku Inc., 2008)'
_computing_data_collection       'CrystalClear (Rigaku Inc., 2008)'
_computing_data_reduction        'CrystalClear (Rigaku Inc., 2008)'
_computing_structure_refinement  'SHELXL-97 (Sheldrick, 1997)'
_computing_structure_solution    'SHELXS-97 (Sheldrick, 1990)'
_diffrn_ambient_temperature      163(2)
_diffrn_detector_area_resol_mean 28.5714
_diffrn_measured_fraction_theta_full 0.977
_diffrn_measured_fraction_theta_max 0.977
_diffrn_measurement_device_type  AFC10/Saturn724+
_diffrn_measurement_method       'phi and omega scans'
_diffrn_radiation_monochromator  graphite
_diffrn_radiation_source         'Rotating Anode'
_diffrn_radiation_type           MoK\a
_diffrn_radiation_wavelength     0.71073
_diffrn_reflns_av_R_equivalents  0.0198
_diffrn_reflns_av_sigmaI/netI    0.0278
_diffrn_reflns_limit_h_max       9
_diffrn_reflns_limit_h_min       -9
_diffrn_reflns_limit_k_max       12
_diffrn_reflns_limit_k_min       -12
_diffrn_reflns_limit_l_max       13
_diffrn_reflns_limit_l_min       -13
_diffrn_reflns_number            7378
_diffrn_reflns_theta_full        31.51
_diffrn_reflns_theta_max         31.51
_diffrn_reflns_theta_min         2.43
_diffrn_standards_decay_%        0
_diffrn_standards_interval_count 0
_diffrn_standards_interval_time  0
_diffrn_standards_number         0
_exptl_absorpt_coefficient_mu    0.147
_exptl_absorpt_correction_type   none
_exptl_crystal_colour            Yellow
_exptl_crystal_density_diffrn    1.655
_exptl_crystal_density_method    'not measured'
_exptl_crystal_description       Prism
_exptl_crystal_F_000             256
_exptl_crystal_size_max          0.56
_exptl_crystal_size_mid          0.35
_exptl_crystal_size_min          0.20
_refine_diff_density_max         0.325
_refine_diff_density_min         -0.231
_refine_diff_density_rms         0.043
_refine_ls_extinction_method     none
_refine_ls_goodness_of_fit_ref   1.001
_refine_ls_hydrogen_treatment    X,Y,Z,Ueq
_refine_ls_matrix_type           full
_refine_ls_number_parameters     186
_refine_ls_number_reflns         3255
_refine_ls_number_restraints     0
_refine_ls_restrained_S_all      1.001
_refine_ls_R_factor_all          0.0463
_refine_ls_R_factor_gt           0.0364
_refine_ls_shift/su_max          0.001
_refine_ls_shift/su_mean         0.000
_refine_ls_structure_factor_coef Fsqd
_refine_ls_weighting_details
'calc w=1/[\s^2^(Fo^2^)+(0.0438P)^2^+0.0860P] where P=(Fo^2^+2Fc^2^)/3'
_refine_ls_weighting_scheme      calc
_refine_ls_wR_factor_gt          0.0870
_refine_ls_wR_factor_ref         0.0925
_reflns_number_gt                2686
_reflns_number_total             3255
_reflns_threshold_expression     >2sigma(I)
_cod_data_source_file            c5ta01901j2.cif
_cod_data_source_block           bo3197
_cod_depositor_comments
;
The following automatic conversions were performed:

data item '_symmetry_cell_setting' value 'Triclinic' was changed to
'triclinic' in accordance with the
/home/saulius/struct/COD-crude-data/automatic-downloads/DataCite-retrospective/RSC/depositions/lib/dictionaries/cif_core.dic
dictionary named 'cif_core.dic' version 2.4.2 last updated on
2011-04-26.

Automatic conversion script
Id: cif_fix_values 6909 2019-04-08 15:41:33Z antanas 
;
_cod_original_sg_symbol_H-M      P-1
_cod_database_code               7236067
loop_
_symmetry_equiv_pos_as_xyz
'x, y, z'
'-x, -y, -z'
loop_
_atom_site_label
_atom_site_type_symbol
_atom_site_fract_x
_atom_site_fract_y
_atom_site_fract_z
_atom_site_U_iso_or_equiv
_atom_site_adp_type
_atom_site_occupancy
_atom_site_symmetry_multiplicity
_atom_site_calc_flag
O1 O 0.26876(15) 0.56606(9) 0.58630(9) 0.0407(2) Uani 1 1 d
O2 O 0.39678(12) 0.41188(9) 0.73289(8) 0.03112(17) Uani 1 1 d
O3 O 0.32266(15) 0.09075(9) 0.74977(8) 0.0392(2) Uani 1 1 d
O4 O 0.29167(13) -0.10522(9) 0.58511(9) 0.03434(19) Uani 1 1 d
N1 N 0.20419(13) 0.33876(11) 0.37125(9) 0.02563(18) Uani 1 1 d
N2 N 0.16778(14) 0.19870(12) 0.29205(9) 0.02897(19) Uani 1 1 d
N3 N 0.19664(13) 0.07669(11) 0.37362(9) 0.02575(18) Uani 1 1 d
N4 N 0.31029(12) 0.43564(10) 0.61643(9) 0.02328(17) Uani 1 1 d
N5 N 0.29275(12) 0.03604(9) 0.62202(9) 0.02250(16) Uani 1 1 d
N6 N 0.12728(13) 0.69371(12) 0.27844(9) 0.02574(18) Uani 1 1 d
N7 N 0.23393(13) 0.71364(11) 0.14641(8) 0.02420(17) Uani 1 1 d
N8 N 0.44616(14) 0.76177(14) -0.09788(10) 0.0314(2) Uani 1 1 d
N9 N 0.22988(13) 0.74975(13) -0.10186(9) 0.0318(2) Uani 1 1 d
N10 N -0.07381(14) 0.72126(14) 0.02096(10) 0.0342(2) Uani 1 1 d
C1 C 0.25785(13) 0.30535(11) 0.50726(10) 0.02046(17) Uani 1 1 d
C2 C 0.25381(13) 0.14098(11) 0.50864(9) 0.01999(17) Uani 1 1 d
C3 C 0.12919(14) 0.72930(11) 0.02306(10) 0.02236(18) Uani 1 1 d
H6A H 0.163(2) 0.6077(17) 0.3152(15) 0.032(3) Uiso 1 1 d
H6B H 0.170(2) 0.7830(17) 0.3411(16) 0.035(3) Uiso 1 1 d
H7 H 0.366(2) 0.7206(17) 0.1449(15) 0.037(4) Uiso 1 1 d
H8A H 0.495(2) 0.8565(19) -0.1338(17) 0.044(4) Uiso 1 1 d
H8B H 0.484(2) 0.683(2) -0.160(2) 0.057(5) Uiso 1 1 d
H9 H 0.167(2) 0.7632(17) -0.1839(16) 0.038(4) Uiso 1 1 d
H10A H -0.133(2) 0.7173(18) 0.1040(17) 0.041(4) Uiso 1 1 d
H10B H -0.134(2) 0.7504(19) -0.0541(18) 0.047(4) Uiso 1 1 d
loop_
_atom_site_aniso_label
_atom_site_aniso_U_11
_atom_site_aniso_U_22
_atom_site_aniso_U_33
_atom_site_aniso_U_23
_atom_site_aniso_U_13
_atom_site_aniso_U_12
O1 0.0655(6) 0.0226(4) 0.0359(4) 0.0066(3) -0.0069(4) 0.0127(4)
O2 0.0371(4) 0.0275(4) 0.0282(4) 0.0024(3) -0.0118(3) 0.0040(3)
O3 0.0700(6) 0.0272(4) 0.0199(3) 0.0026(3) -0.0097(4) 0.0057(4)
O4 0.0519(5) 0.0205(3) 0.0316(4) 0.0004(3) -0.0045(3) 0.0100(3)
N1 0.0248(4) 0.0326(4) 0.0207(4) 0.0093(3) 0.0003(3) 0.0048(3)
N2 0.0292(4) 0.0388(5) 0.0193(4) 0.0057(3) -0.0017(3) 0.0046(4)
N3 0.0268(4) 0.0316(4) 0.0188(3) 0.0008(3) -0.0012(3) 0.0048(3)
N4 0.0242(4) 0.0220(4) 0.0241(4) 0.0060(3) 0.0005(3) 0.0030(3)
N5 0.0254(4) 0.0211(4) 0.0211(3) 0.0029(3) -0.0019(3) 0.0036(3)
N6 0.0283(4) 0.0335(4) 0.0161(3) 0.0051(3) 0.0004(3) 0.0054(3)
N7 0.0207(4) 0.0360(4) 0.0168(3) 0.0053(3) -0.0012(3) 0.0060(3)
N8 0.0224(4) 0.0466(6) 0.0249(4) 0.0038(4) 0.0017(3) 0.0030(4)
N9 0.0231(4) 0.0550(6) 0.0185(4) 0.0104(4) -0.0010(3) 0.0068(4)
N10 0.0228(4) 0.0616(7) 0.0203(4) 0.0109(4) -0.0015(3) 0.0101(4)
C1 0.0187(4) 0.0241(4) 0.0193(4) 0.0055(3) 0.0011(3) 0.0035(3)
C2 0.0191(4) 0.0246(4) 0.0168(4) 0.0035(3) 0.0002(3) 0.0040(3)
C3 0.0233(4) 0.0266(4) 0.0178(4) 0.0041(3) -0.0015(3) 0.0050(3)
loop_
_atom_type_symbol
_atom_type_description
_atom_type_scat_dispersion_real
_atom_type_scat_dispersion_imag
_atom_type_scat_source
C C 0.0033 0.0016 'International Tables Vol C Tables 4.2.6.8 and 6.1.1.4'
H H 0.0000 0.0000 'International Tables Vol C Tables 4.2.6.8 and 6.1.1.4'
N N 0.0061 0.0033 'International Tables Vol C Tables 4.2.6.8 and 6.1.1.4'
O O 0.0106 0.0060 'International Tables Vol C Tables 4.2.6.8 and 6.1.1.4'
loop_
_geom_angle_atom_site_label_1
_geom_angle_atom_site_label_2
_geom_angle_atom_site_label_3
_geom_angle
C1 N1 N2 106.29(8)
N3 N2 N1 111.60(8)
C2 N3 N2 106.09(8)
O1 N4 O2 123.34(9)
O1 N4 C1 117.32(8)
O2 N4 C1 119.33(8)
O4 N5 O3 123.15(8)
O4 N5 C2 117.60(8)
O3 N5 C2 119.24(8)
N7 N6 H6A 106.4(9)
N7 N6 H6B 107.5(9)
H6A N6 H6B 110.8(12)
C3 N7 N6 119.16(8)
C3 N7 H7 119.3(9)
N6 N7 H7 121.5(9)
N9 N8 H8A 107.1(10)
N9 N8 H8B 108.9(10)
H8A N8 H8B 107.4(15)
C3 N9 N8 119.01(8)
C3 N9 H9 121.8(9)
N8 N9 H9 119.0(9)
C3 N10 H10A 117.3(10)
C3 N10 H10B 118.7(10)
H10A N10 H10B 120.8(14)
N1 C1 C2 107.90(8)
N1 C1 N4 118.36(8)
C2 C1 N4 133.72(8)
N3 C2 C1 108.12(8)
N3 C2 N5 118.45(9)
C1 C2 N5 133.42(8)
N10 C3 N7 121.21(9)
N10 C3 N9 119.45(9)
N7 C3 N9 119.33(9)
loop_
_geom_bond_atom_site_label_1
_geom_bond_atom_site_label_2
_geom_bond_distance
O1 N4 1.2189(11)
O2 N4 1.2291(11)
O3 N5 1.2246(11)
O4 N5 1.2224(12)
N1 C1 1.3337(12)
N1 N2 1.3395(13)
N2 N3 1.3384(12)
N3 C2 1.3356(13)
N4 C1 1.4383(13)
N5 C2 1.4404(12)
N6 N7 1.4073(11)
N6 H6A 0.877(14)
N6 H6B 0.926(15)
N7 C3 1.3239(12)
N7 H7 0.862(14)
N8 N9 1.4063(13)
N8 H8A 0.905(16)
N8 H8B 0.910(17)
N9 C3 1.3322(12)
N9 H9 0.865(15)
N10 C3 1.3221(14)
N10 H10A 0.856(16)
N10 H10B 0.845(16)
C1 C2 1.3897(14)
loop_
_geom_torsion_atom_site_label_1
_geom_torsion_atom_site_label_2
_geom_torsion_atom_site_label_3
_geom_torsion_atom_site_label_4
_geom_torsion
C1 N1 N2 N3 0.01(11)
N1 N2 N3 C2 -0.22(11)
N2 N1 C1 C2 0.19(10)
N2 N1 C1 N4 178.78(8)
O1 N4 C1 N1 12.43(13)
O2 N4 C1 N1 -166.31(9)
O1 N4 C1 C2 -169.44(10)
O2 N4 C1 C2 11.83(15)
N2 N3 C2 C1 0.33(10)
N2 N3 C2 N5 179.01(8)
N1 C1 C2 N3 -0.33(10)
N4 C1 C2 N3 -178.61(9)
N1 C1 C2 N5 -178.74(9)
N4 C1 C2 N5 2.98(18)
O4 N5 C2 N3 7.24(13)
O3 N5 C2 N3 -171.90(9)
O4 N5 C2 C1 -174.48(10)
O3 N5 C2 C1 6.38(16)
N6 N7 C3 N10 -2.25(15)
N6 N7 C3 N9 179.35(9)
N8 N9 C3 N10 178.58(10)
N8 N9 C3 N7 -3.00(16)
