#------------------------------------------------------------------------------
#$Date: 2019-11-24 03:06:11 +0200 (Sun, 24 Nov 2019) $
#$Revision: 236397 $
#$URL: file:///home/coder/svn-repositories/cod/cif/7/23/66/7236662.cif $
#------------------------------------------------------------------------------
#
# This file is available in the Crystallography Open Database (COD),
# http://www.crystallography.net/
#
# All data on this site have been placed in the public domain by the
# contributors.
#
data_7236662
loop_
_publ_author_name
'Xu, Zhen'
'Cheng, Guangbin'
'Zhu, Shunguan'
'Lin, Qiuhan'
'Yang, Hongwei'
_publ_section_title
;
 Nitrogen-rich salts based on the combination of 1,2,4-triazole and
 1,2,3-triazole rings: a facile strategy for fine tuning energetic
 properties
;
_journal_issue                   5
_journal_name_full               'Journal of Materials Chemistry A'
_journal_page_first              2239
_journal_paper_doi               10.1039/C7TA08941D
_journal_volume                  6
_journal_year                    2018
_chemical_formula_moiety         'C4 H2 N8 O4'
_chemical_formula_sum            'C4 H2 N8 O4'
_chemical_formula_weight         226.14
_space_group_crystal_system      orthorhombic
_space_group_IT_number           29
_space_group_name_Hall           'P 2c -2ac'
_space_group_name_H-M_alt        'P c a 21'
_atom_sites_solution_hydrogens   difmap
_audit_creation_method           SHELXL-2014/7
_audit_update_record
;
2017-06-28 deposited with the CCDC.
2017-12-21 downloaded from the CCDC.
;
_cell_angle_alpha                90
_cell_angle_beta                 90
_cell_angle_gamma                90
_cell_formula_units_Z            4
_cell_length_a                   12.9567(12)
_cell_length_b                   6.4248(8)
_cell_length_c                   9.6417(10)
_cell_measurement_reflns_used    1763
_cell_measurement_temperature    173(2)
_cell_measurement_theta_max      24.15
_cell_measurement_theta_min      3.14
_cell_volume                     802.62(15)
_computing_structure_refinement  'SHELXL-2014/7 (Sheldrick, 2014)'
_diffrn_ambient_temperature      173(2)
_diffrn_measured_fraction_theta_full 1.000
_diffrn_measured_fraction_theta_max 1.000
_diffrn_measurement_device_type  'PHOTON 100 CMOS detector'
_diffrn_measurement_method       'omega scan'
_diffrn_radiation_type           MoK\a
_diffrn_radiation_wavelength     0.71073
_diffrn_reflns_av_R_equivalents  0.0887
_diffrn_reflns_av_unetI/netI     0.0867
_diffrn_reflns_Laue_measured_fraction_full 1.000
_diffrn_reflns_Laue_measured_fraction_max 1.000
_diffrn_reflns_limit_h_max       16
_diffrn_reflns_limit_h_min       -15
_diffrn_reflns_limit_k_max       7
_diffrn_reflns_limit_k_min       -8
_diffrn_reflns_limit_l_max       12
_diffrn_reflns_limit_l_min       -11
_diffrn_reflns_number            7638
_diffrn_reflns_point_group_measured_fraction_full 0.974
_diffrn_reflns_point_group_measured_fraction_max 0.966
_diffrn_reflns_theta_full        25.242
_diffrn_reflns_theta_max         26.337
_diffrn_reflns_theta_min         3.144
_diffrn_source                   'fine-focus sealed tube'
_exptl_absorpt_coefficient_mu    0.166
_exptl_absorpt_correction_T_max  0.7454
_exptl_absorpt_correction_T_min  0.6931
_exptl_absorpt_correction_type   multi-scan
_exptl_absorpt_process_details   'SADABS (Bruker, 2014)'
_exptl_crystal_density_diffrn    1.871
_exptl_crystal_description       needle
_exptl_crystal_F_000             456
_exptl_crystal_size_max          0.260
_exptl_crystal_size_mid          0.060
_exptl_crystal_size_min          0.040
_refine_diff_density_max         0.272
_refine_diff_density_min         -0.316
_refine_diff_density_rms         0.071
_refine_ls_abs_structure_details
;
 Flack x determined using 404 quotients [(I+)-(I-)]/[(I+)+(I-)]
 (Parsons, Flack and Wagner, Acta Cryst. B69 (2013) 249-259).
;
_refine_ls_abs_structure_Flack   -1.3(10)
_refine_ls_extinction_method     none
_refine_ls_goodness_of_fit_ref   1.027
_refine_ls_hydrogen_treatment    refxyz
_refine_ls_matrix_type           full
_refine_ls_number_parameters     151
_refine_ls_number_reflns         1569
_refine_ls_number_restraints     1
_refine_ls_restrained_S_all      1.026
_refine_ls_R_factor_all          0.0964
_refine_ls_R_factor_gt           0.0498
_refine_ls_shift/su_max          0.000
_refine_ls_shift/su_mean         0.000
_refine_ls_structure_factor_coef Fsqd
_refine_ls_weighting_details
'w=1/[\s^2^(Fo^2^)+(0.0336P)^2^+0.3937P] where P=(Fo^2^+2Fc^2^)/3'
_refine_ls_weighting_scheme      calc
_refine_ls_wR_factor_gt          0.0801
_refine_ls_wR_factor_ref         0.0926
_reflns_Friedel_coverage         0.814
_reflns_Friedel_fraction_full    0.944
_reflns_Friedel_fraction_max     0.928
_reflns_number_gt                1151
_reflns_number_total             1569
_reflns_threshold_expression     'I > 2\s(I)'
_cod_data_source_file            c7ta08941d2.cif
_cod_data_source_block           1_CCDC1
_cod_database_code               7236662
_shelx_shelxl_version_number     2014/7
_shelx_space_group_comment
;
The symmetry employed for this shelxl refinement is uniquely defined
by the following loop, which should always be used as a source of
symmetry information in preference to the above space-group names.
They are only intended as comments.
;
_shelx_estimated_absorpt_t_min   0.958
_shelx_estimated_absorpt_t_max   0.993
_shelx_res_file
;

    1.res created by SHELXL-2014/7


TITL 1 in Pca2(1)
CELL 0.71073  12.9567   6.4248   9.6417  90.000  90.000  90.000
ZERR    4.00   0.0012   0.0008   0.0010   0.000   0.000   0.000
LATT -1
SYMM -X, -Y, 0.5+Z
SYMM 0.5+X, -Y, Z
SYMM 0.5-X, Y, 0.5+Z
SFAC C  H  N  O
UNIT 16 8 32 16
L.S. 10
BOND $h
size 0.26 0.06 0.04
acta
FMAP 2
PLAN 20
TEMP -100.150
WGHT    0.033600    0.393700
FVAR       0.27778
MOLE 1
C1    1    0.591983    0.389968    0.583838    11.00000    0.01537    0.01537 =
         0.01298    0.00275    0.00547    0.00254
C2    1    0.676044    0.499425    0.638625    11.00000    0.01991    0.01600 =
         0.01135    0.00200    0.00197    0.00251
C3    1    0.825268    0.949076    0.618499    11.00000    0.01547    0.01078 =
         0.01322   -0.00068    0.00100    0.00130
C4    1    0.729935    0.691687    0.604862    11.00000    0.01304    0.01624 =
         0.01029    0.00149    0.00235    0.00258
N1    3    0.706873    0.393727    0.751988    11.00000    0.02079    0.01642 =
         0.01564    0.00512    0.00421   -0.00193
N2    3    0.642710    0.233886    0.758047    11.00000    0.02460    0.01810 =
         0.01612    0.00876    0.00510   -0.00061
H2    2    0.642336    0.150952    0.822653    11.00000   -1.20000
N3    3    0.571599    0.221494    0.659092    11.00000    0.02139    0.01804 =
         0.01730    0.00321    0.00528   -0.00041
N4    3    0.528656    0.440026    0.466385    11.00000    0.01776    0.01887 =
         0.01780   -0.00440    0.00179    0.00366
N5    3    0.731627    0.791526    0.482779    11.00000    0.01874    0.01953 =
         0.00728    0.00054   -0.00329   -0.00140
H5    2    0.704208    0.765869    0.405871    11.00000   -1.20000
N6    3    0.793519    0.960290    0.490395    11.00000    0.01779    0.01401 =
         0.01497    0.00242    0.00059   -0.00367
N7    3    0.789016    0.790924    0.695650    11.00000    0.01710    0.01510 =
         0.00711   -0.00145    0.00064    0.00183
N8    3    0.896215    1.100976    0.676070    11.00000    0.02365    0.01740 =
         0.02549    0.00199   -0.00047   -0.00108
O1    4    0.444140    0.356647    0.455771    11.00000    0.01630    0.03348 =
         0.02637    0.00130   -0.00220   -0.00574
O2    4    0.564237    0.566777    0.383469    11.00000    0.02657    0.02809 =
         0.01710    0.00978   -0.00210   -0.00679
O3    4    0.933512    1.226485    0.596287    11.00000    0.05166    0.03078 =
         0.03373    0.00961   -0.00027   -0.01995
O4    4    0.914629    1.088733    0.800357    11.00000    0.04049    0.02850 =
         0.01528   -0.00245   -0.00618   -0.00548
HKLF 4

REM  1 in Pca2(1)
REM R1 =  0.0498 for    1151 Fo > 4sig(Fo)  and  0.0964 for all    1569 data
REM    151 parameters refined using      1 restraints

END

WGHT      0.0338      0.0000

REM Highest difference peak  0.272,  deepest hole -0.316,  1-sigma level  0.071
Q1    1   0.6116  0.7843  0.5395  11.00000  0.05    0.27
Q2    1   0.4782  0.1389  0.4331  11.00000  0.05    0.27
Q3    1   0.5626  0.6516  0.4854  11.00000  0.05    0.25
Q4    1   0.7350  0.4267  0.5860  11.00000  0.05    0.25
Q5    1   0.6270  0.7497  0.7374  11.00000  0.05    0.24
Q6    1   0.6264  0.1359  0.6369  11.00000  0.05    0.24
Q7    1   0.9303  0.8657  0.8351  11.00000  0.05    0.24
Q8    1   0.6308 -0.1419  0.8125  11.00000  0.05    0.23
Q9    1   0.7953  0.7182  0.6545  11.00000  0.05    0.23
Q10   1   0.9545  1.4677  0.6810  11.00000  0.05    0.23
Q11   1   0.7516  0.7155  0.5195  11.00000  0.05    0.23
Q12   1   0.7927  0.8594  0.6918  11.00000  0.05    0.23
Q13   1   0.5799  0.5840  0.7348  11.00000  0.05    0.22
Q14   1   1.0569  1.1273  0.7400  11.00000  0.05    0.22
Q15   1   0.5208  0.1493  0.6719  11.00000  0.05    0.21
Q16   1   0.8258  0.8134  0.7800  11.00000  0.05    0.21
Q17   1   0.7240  0.6064  0.6214  11.00000  0.05    0.21
Q18   1   0.8397  0.8946  0.4196  11.00000  0.05    0.21
Q19   1   0.6614  0.8540  0.4605  11.00000  0.05    0.21
Q20   1   0.7090  0.8046  0.6631  11.00000  0.05    0.21
;
_shelx_res_checksum              83771
loop_
_space_group_symop_operation_xyz
'x, y, z'
'-x, -y, z+1/2'
'x+1/2, -y, z'
'-x+1/2, y, z+1/2'
loop_
_atom_site_label
_atom_site_type_symbol
_atom_site_fract_x
_atom_site_fract_y
_atom_site_fract_z
_atom_site_U_iso_or_equiv
_atom_site_adp_type
_atom_site_occupancy
_atom_site_site_symmetry_order
_atom_site_calc_flag
_atom_site_refinement_flags_adp
C1 C 0.5920(4) 0.3900(8) 0.5838(5) 0.0146(12) Uani 1 1 d .
C2 C 0.6760(4) 0.4994(8) 0.6386(5) 0.0158(12) Uani 1 1 d .
C3 C 0.8253(4) 0.9491(7) 0.6185(5) 0.0132(12) Uani 1 1 d .
C4 C 0.7299(4) 0.6917(8) 0.6049(5) 0.0132(12) Uani 1 1 d .
N1 N 0.7069(3) 0.3937(6) 0.7520(5) 0.0176(9) Uani 1 1 d .
N2 N 0.6427(3) 0.2339(7) 0.7580(5) 0.0196(11) Uani 1 1 d .
H2 H 0.642(4) 0.151(8) 0.823(6) 0.024 Uiso 1 1 d U
N3 N 0.5716(3) 0.2215(7) 0.6591(4) 0.0189(11) Uani 1 1 d .
N4 N 0.5287(3) 0.4400(7) 0.4664(5) 0.0181(10) Uani 1 1 d .
N5 N 0.7316(3) 0.7915(6) 0.4828(4) 0.0152(10) Uani 1 1 d .
H5 H 0.704(4) 0.766(8) 0.406(6) 0.018 Uiso 1 1 d U
N6 N 0.7935(3) 0.9603(6) 0.4904(5) 0.0156(10) Uani 1 1 d .
N7 N 0.7890(3) 0.7909(6) 0.6956(4) 0.0131(10) Uani 1 1 d .
N8 N 0.8962(3) 1.1010(7) 0.6761(5) 0.0222(11) Uani 1 1 d .
O1 O 0.4441(3) 0.3566(6) 0.4558(4) 0.0254(10) Uani 1 1 d .
O2 O 0.5642(3) 0.5668(6) 0.3835(4) 0.0239(9) Uani 1 1 d .
O3 O 0.9335(4) 1.2265(6) 0.5963(5) 0.0387(12) Uani 1 1 d .
O4 O 0.9146(3) 1.0887(6) 0.8004(4) 0.0281(10) Uani 1 1 d .
loop_
_atom_site_aniso_label
_atom_site_aniso_U_11
_atom_site_aniso_U_22
_atom_site_aniso_U_33
_atom_site_aniso_U_23
_atom_site_aniso_U_13
_atom_site_aniso_U_12
C1 0.015(3) 0.015(3) 0.013(3) 0.003(3) 0.005(2) 0.003(2)
C2 0.020(3) 0.016(3) 0.011(3) 0.002(2) 0.002(3) 0.003(2)
C3 0.015(3) 0.011(3) 0.013(3) -0.001(2) 0.001(2) 0.001(2)
C4 0.013(3) 0.016(3) 0.010(3) 0.001(2) 0.002(2) 0.003(2)
N1 0.021(2) 0.016(2) 0.016(2) 0.005(2) 0.004(2) -0.002(2)
N2 0.025(2) 0.018(3) 0.016(3) 0.009(2) 0.005(2) -0.001(2)
N3 0.021(2) 0.018(3) 0.017(2) 0.003(2) 0.005(2) -0.0004(19)
N4 0.018(3) 0.019(3) 0.018(2) -0.004(2) 0.002(2) 0.004(2)
N5 0.019(2) 0.020(2) 0.007(2) 0.001(2) -0.003(2) -0.001(2)
N6 0.018(2) 0.014(2) 0.015(2) 0.002(2) 0.001(2) -0.0037(19)
N7 0.017(2) 0.015(2) 0.007(2) -0.0015(19) 0.0006(19) 0.0018(19)
N8 0.024(2) 0.017(3) 0.025(3) 0.002(2) 0.000(3) -0.001(2)
O1 0.016(2) 0.033(3) 0.026(2) 0.001(2) -0.0022(18) -0.0057(19)
O2 0.027(2) 0.028(2) 0.017(2) 0.0098(19) -0.0021(17) -0.0068(19)
O3 0.052(3) 0.031(3) 0.034(2) 0.010(2) 0.000(2) -0.020(2)
O4 0.040(2) 0.029(2) 0.015(2) -0.0025(18) -0.0062(19) -0.005(2)
loop_
_atom_type_symbol
_atom_type_description
_atom_type_scat_dispersion_real
_atom_type_scat_dispersion_imag
_atom_type_scat_source
C C 0.0033 0.0016 'International Tables Vol C Tables 4.2.6.8 and 6.1.1.4'
H H 0.0000 0.0000 'International Tables Vol C Tables 4.2.6.8 and 6.1.1.4'
N N 0.0061 0.0033 'International Tables Vol C Tables 4.2.6.8 and 6.1.1.4'
O O 0.0106 0.0060 'International Tables Vol C Tables 4.2.6.8 and 6.1.1.4'
loop_
_geom_angle_atom_site_label_1
_geom_angle_atom_site_label_2
_geom_angle_atom_site_label_3
_geom_angle
N3 C1 C2 111.0(5)
N3 C1 N4 120.0(4)
C2 C1 N4 129.1(4)
N1 C2 C1 106.5(4)
N1 C2 C4 117.8(4)
C1 C2 C4 135.6(5)
N6 C3 N7 117.1(4)
N6 C3 N8 121.7(4)
N7 C3 N8 121.2(4)
N7 C4 N5 109.9(4)
N7 C4 C2 122.5(4)
N5 C4 C2 127.6(4)
N2 N1 C2 103.9(4)
N1 N2 N3 116.8(4)
N1 N2 H2 123(4)
N3 N2 H2 120(4)
N2 N3 C1 101.8(4)
O1 N4 O2 124.8(4)
O1 N4 C1 118.7(4)
O2 N4 C1 116.5(4)
C4 N5 N6 110.2(4)
C4 N5 H5 132(4)
N6 N5 H5 117(4)
C3 N6 N5 101.2(4)
C4 N7 C3 101.5(4)
O3 N8 O4 125.8(5)
O3 N8 C3 117.1(5)
O4 N8 C3 117.0(4)
loop_
_geom_bond_atom_site_label_1
_geom_bond_atom_site_label_2
_geom_bond_distance
C1 N3 1.330(6)
C1 C2 1.400(7)
C1 N4 1.435(7)
C2 N1 1.347(6)
C2 C4 1.456(7)
C3 N6 1.304(6)
C3 N7 1.344(6)
C3 N8 1.451(6)
C4 N7 1.326(6)
C4 N5 1.341(7)
N1 N2 1.323(6)
N2 N3 1.329(6)
N2 H2 0.82(5)
N4 O1 1.223(5)
N4 O2 1.231(5)
N5 N6 1.351(5)
N5 H5 0.84(5)
N8 O3 1.215(6)
N8 O4 1.224(5)
