#------------------------------------------------------------------------------
#$Date: 2019-11-23 22:38:15 +0200 (Sat, 23 Nov 2019) $
#$Revision: 235384 $
#$URL: file:///home/coder/svn-repositories/cod/cif/7/23/63/7236305.cif $
#------------------------------------------------------------------------------
#
# This file is available in the Crystallography Open Database (COD),
# http://www.crystallography.net/
#
# All data on this site have been placed in the public domain by the
# contributors.
#
data_7236305
loop_
_publ_author_name
'Zhao, X. X.'
'Li, S. H.'
'Wang, Y.'
'Li, Y. C.'
'Zhao, F. Q.'
'Pang, S. P.'
_publ_section_title
;
 Design and synthesis of energetic materials towards high density and
 positive oxygen balance by N-dinitromethyl functionalization of
 nitroazoles
;
_journal_issue                   15
_journal_name_full               'Journal of Materials Chemistry A'
_journal_page_first              5495
_journal_paper_doi               10.1039/C6TA01501H
_journal_volume                  4
_journal_year                    2016
_chemical_formula_moiety         'C2 N7 O6, H4 N'
_chemical_formula_sum            'C2 H4 N8 O6'
_chemical_formula_weight         236.13
_space_group_crystal_system      monoclinic
_space_group_IT_number           14
_space_group_name_Hall           '-P 2ybc'
_space_group_name_H-M_alt        'P 1 21/c 1'
_atom_sites_solution_hydrogens   geom
_atom_sites_solution_primary     direct
_atom_sites_solution_secondary   difmap
_audit_creation_date             2014-06-25
_audit_creation_method
;

  Olex2 1.1

  (compiled 2011.02.15 svn.r1672, GUI svn.r3494)

;
_audit_update_record
;
2015-12-14 deposited with the CCDC.
2016-03-11 downloaded from the CCDC.
;
_cell_angle_alpha                90.00
_cell_angle_beta                 99.661(4)
_cell_angle_gamma                90.00
_cell_formula_units_Z            4
_cell_length_a                   8.0847(3)
_cell_length_b                   7.5557(3)
_cell_length_c                   14.1232(6)
_cell_measurement_reflns_used    1480
_cell_measurement_temperature    98.7
_cell_measurement_theta_max      29.4594
_cell_measurement_theta_min      2.9202
_cell_volume                     850.49(6)
_computing_cell_refinement
;

CrysAlisPro, Agilent Technologies,

Version 1.171.35.11 (release 16-05-2011 CrysAlis171 .NET)

(compiled May 16 2011,17:55:39)

;
_computing_data_collection
;

CrysAlisPro, Agilent Technologies,

Version 1.171.35.11 (release 16-05-2011 CrysAlis171 .NET)

(compiled May 16 2011,17:55:39)

;
_computing_data_reduction
;

CrysAlisPro, Agilent Technologies,

Version 1.171.35.11 (release 16-05-2011 CrysAlis171 .NET)

(compiled May 16 2011,17:55:39)

;
_computing_molecular_graphics
;

O. V. Dolomanov, L. J. Bourhis, R. J. Gildea, J. A. K. Howard and H. Puschmann,

OLEX2: a complete structure solution, refinement and analysis program.

J. Appl. Cryst. (2009). 42, 339-341.

;
_computing_publication_material
;

O. V. Dolomanov, L. J. Bourhis, R. J. Gildea, J. A. K. Howard and H. Puschmann,

OLEX2: a complete structure solution, refinement and analysis program.

J. Appl. Cryst. (2009). 42, 339-341.

;
_computing_structure_refinement  'SHELXL-97 (Sheldrick, 1997)'
_computing_structure_solution
'A short history of SHELX (Sheldrick, 2007)/Bruker'
_diffrn_ambient_temperature      98.7
_diffrn_detector_area_resol_mean 16.0971
_diffrn_measured_fraction_theta_full 0.999
_diffrn_measured_fraction_theta_max 0.999
_diffrn_measurement_details
;

#__ type_ start__ end____ width___ exp.time_

  1 omega   53.00   80.00   1.0000    3.3100

omega____ theta____ kappa____ phi______ frames

    -       18.7335   37.0000 -120.0000 27

 

#__ type_ start__ end____ width___ exp.time_

  2 omega  -49.00   36.00   1.0000    3.3100

omega____ theta____ kappa____ phi______ frames

    -       18.7335  -37.0000 -120.0000 85

 

#__ type_ start__ end____ width___ exp.time_

  3 omega  -30.00   13.00   1.0000    3.3100

omega____ theta____ kappa____ phi______ frames

    -       18.7335  -77.0000 -180.0000 43

 

#__ type_ start__ end____ width___ exp.time_

  4 omega   13.00   74.00   1.0000    3.3100

omega____ theta____ kappa____ phi______ frames

    -       18.7335   37.0000   30.0000 61

;
_diffrn_measurement_device_type  'Xcalibur, Eos, Gemini'
_diffrn_measurement_method       '\w scans'
_diffrn_orient_matrix_UB_11      -0.0203227000
_diffrn_orient_matrix_UB_12      -0.0488765000
_diffrn_orient_matrix_UB_13      0.0393466000
_diffrn_orient_matrix_UB_21      0.0521410000
_diffrn_orient_matrix_UB_22      0.0564357000
_diffrn_orient_matrix_UB_23      0.0322964000
_diffrn_orient_matrix_UB_31      -0.0692140000
_diffrn_orient_matrix_UB_32      0.0569020000
_diffrn_orient_matrix_UB_33      0.0018193000
_diffrn_radiation_monochromator  graphite
_diffrn_radiation_type           'Mo K\a'
_diffrn_radiation_wavelength     0.7107
_diffrn_reflns_av_R_equivalents  0.0192
_diffrn_reflns_av_unetI/netI     0.0303
_diffrn_reflns_limit_h_max       9
_diffrn_reflns_limit_h_min       -9
_diffrn_reflns_limit_k_max       9
_diffrn_reflns_limit_k_min       -8
_diffrn_reflns_limit_l_max       17
_diffrn_reflns_limit_l_min       -16
_diffrn_reflns_number            3503
_diffrn_reflns_theta_full        26.00
_diffrn_reflns_theta_max         26.00
_diffrn_reflns_theta_min         2.93
_diffrn_source                   'Enhance (Mo) X-ray Source'
_exptl_absorpt_coefficient_mu    0.177
_exptl_absorpt_correction_T_max  1.00000
_exptl_absorpt_correction_T_min  0.99506
_exptl_absorpt_correction_type   multi-scan
_exptl_absorpt_process_details
;

CrysAlisPro, Agilent Technologies,

Version 1.171.35.11 (release 16-05-2011 CrysAlis171 .NET)

(compiled May 16 2011,17:55:39)

Empirical absorption correction using spherical harmonics,

 implemented in SCALE3 ABSPACK scaling algorithm.

;
_exptl_crystal_density_diffrn    1.844
_exptl_crystal_density_method    'not measured'
_exptl_crystal_description       monoclinic
_exptl_crystal_F_000             480
_exptl_crystal_size_max          0.15
_exptl_crystal_size_mid          0.14
_exptl_crystal_size_min          0.12
_refine_diff_density_max         0.215
_refine_diff_density_min         -0.327
_refine_diff_density_rms         0.055
_refine_ls_extinction_method     none
_refine_ls_goodness_of_fit_ref   1.070
_refine_ls_hydrogen_treatment    mixed
_refine_ls_matrix_type           full
_refine_ls_number_parameters     145
_refine_ls_number_reflns         1669
_refine_ls_number_restraints     0
_refine_ls_restrained_S_all      1.070
_refine_ls_R_factor_all          0.0393
_refine_ls_R_factor_gt           0.0319
_refine_ls_shift/su_max          0.000
_refine_ls_shift/su_mean         0.000
_refine_ls_structure_factor_coef Fsqd
_refine_ls_weighting_details
'calc w=1/[\s^2^(Fo^2^)+(0.0333P)^2^+0.2399P] where P=(Fo^2^+2Fc^2^)/3'
_refine_ls_weighting_scheme      calc
_refine_ls_wR_factor_gt          0.0744
_refine_ls_wR_factor_ref         0.0786
_reflns_number_gt                1430
_reflns_number_total             1669
_reflns_threshold_expression     >2sigma(I)
_cod_data_source_file            c6ta01501h2.cif
_cod_data_source_block           exp_2303
_cod_database_code               7236305
_reflns_odcompleteness_completeness 99.73
_reflns_odcompleteness_iscentric 1
_reflns_odcompleteness_theta     26.32
loop_
_space_group_symop_id
_space_group_symop_operation_xyz
1 'x, y, z'
2 '-x, y+1/2, -z+1/2'
3 '-x, -y, -z'
4 'x, -y-1/2, z-1/2'
loop_
_atom_site_label
_atom_site_type_symbol
_atom_site_fract_x
_atom_site_fract_y
_atom_site_fract_z
_atom_site_U_iso_or_equiv
_atom_site_adp_type
_atom_site_occupancy
_atom_site_symmetry_multiplicity
_atom_site_calc_flag
_atom_site_refinement_flags
O4 O 0.33713(13) 0.22034(14) 0.48717(8) 0.0175(3) Uani 1 1 d .
O5 O 0.35914(14) -0.25181(14) 0.62942(8) 0.0205(3) Uani 1 1 d .
O6 O 0.46137(13) 0.01573(14) 0.63447(7) 0.0165(3) Uani 1 1 d .
O2 O 0.22785(15) -0.58259(14) 0.26472(9) 0.0236(3) Uani 1 1 d .
N5 N 0.10070(17) -0.56074(17) 0.30026(9) 0.0163(3) Uani 1 1 d .
O1 O -0.03020(14) -0.64330(15) 0.28089(8) 0.0209(3) Uani 1 1 d .
N3 N 0.17783(16) -0.21432(16) 0.46005(9) 0.0143(3) Uani 1 1 d .
O3 O 0.17609(14) 0.08174(15) 0.37185(8) 0.0217(3) Uani 1 1 d .
N6 N 0.26179(16) 0.08578(16) 0.45298(9) 0.0146(3) Uani 1 1 d .
N1 N -0.03267(16) -0.37335(16) 0.40633(9) 0.0156(3) Uani 1 1 d .
N7 N 0.36605(16) -0.10193(16) 0.59276(9) 0.0146(3) Uani 1 1 d .
N2 N 0.01473(16) -0.23918(17) 0.46321(9) 0.0165(3) Uani 1 1 d .
N4 N 0.23995(16) -0.32746(16) 0.40177(9) 0.0145(3) Uani 1 1 d .
C1 C 0.10516(19) -0.42133(19) 0.37132(11) 0.0129(3) Uani 1 1 d .
C2 C 0.26761(19) -0.0712(2) 0.50585(11) 0.0147(3) Uani 1 1 d .
N8 N 0.59279(16) -0.38743(16) 0.32676(9) 0.0167(3) Uani 1 1 d .
H8A H 0.5623 -0.3953 0.2634 0.020 Uiso 1 1 d R
H8B H 0.5701 -0.2796 0.3462 0.020 Uiso 1 1 d R
H8C H 0.7024 -0.4082 0.3423 0.020 Uiso 1 1 d R
H8D H 0.5366 -0.4672 0.3552 0.020 Uiso 1 1 d R
loop_
_atom_site_aniso_label
_atom_site_aniso_U_11
_atom_site_aniso_U_22
_atom_site_aniso_U_33
_atom_site_aniso_U_23
_atom_site_aniso_U_13
_atom_site_aniso_U_12
O4 0.0204(6) 0.0128(6) 0.0191(6) -0.0020(5) 0.0031(5) -0.0026(5)
O5 0.0256(6) 0.0140(6) 0.0220(6) 0.0064(5) 0.0042(5) -0.0006(5)
O6 0.0168(6) 0.0162(6) 0.0155(6) -0.0037(5) -0.0002(4) -0.0017(5)
O2 0.0276(7) 0.0206(6) 0.0258(7) -0.0047(5) 0.0138(5) -0.0029(5)
N5 0.0204(7) 0.0137(7) 0.0145(7) 0.0014(5) 0.0018(5) 0.0005(6)
O1 0.0199(6) 0.0191(6) 0.0210(6) -0.0031(5) -0.0045(5) -0.0030(5)
N3 0.0131(7) 0.0131(6) 0.0171(7) -0.0019(5) 0.0035(5) -0.0002(5)
O3 0.0239(6) 0.0228(6) 0.0156(6) 0.0008(5) -0.0051(5) 0.0006(5)
N6 0.0133(7) 0.0152(7) 0.0153(7) -0.0013(5) 0.0027(5) 0.0014(6)
N1 0.0162(7) 0.0140(6) 0.0163(7) -0.0007(5) 0.0019(5) -0.0008(5)
N7 0.0156(7) 0.0143(7) 0.0147(7) -0.0012(5) 0.0044(5) 0.0002(6)
N2 0.0130(7) 0.0165(7) 0.0200(7) -0.0013(6) 0.0025(5) -0.0013(6)
N4 0.0166(7) 0.0120(6) 0.0149(7) -0.0001(5) 0.0029(5) 0.0019(5)
C1 0.0151(8) 0.0105(7) 0.0129(8) 0.0017(6) 0.0017(6) -0.0004(6)
C2 0.0148(8) 0.0133(7) 0.0152(8) -0.0024(6) 0.0008(6) -0.0010(6)
N8 0.0174(7) 0.0150(7) 0.0169(7) -0.0014(5) 0.0005(5) -0.0007(6)
loop_
_atom_type_symbol
_atom_type_description
_atom_type_scat_dispersion_real
_atom_type_scat_dispersion_imag
_atom_type_scat_source
C C 0.0033 0.0016 'International Tables Vol C Tables 4.2.6.8 and 6.1.1.4'
H H 0.0000 0.0000 'International Tables Vol C Tables 4.2.6.8 and 6.1.1.4'
N N 0.0061 0.0033 'International Tables Vol C Tables 4.2.6.8 and 6.1.1.4'
O O 0.0106 0.0060 'International Tables Vol C Tables 4.2.6.8 and 6.1.1.4'
loop_
_geom_angle_atom_site_label_1
_geom_angle_atom_site_label_2
_geom_angle_atom_site_label_3
_geom_angle
O2 N5 C1 117.05(13)
O1 N5 O2 126.43(13)
O1 N5 C1 116.51(13)
N2 N3 N4 113.76(12)
N2 N3 C2 122.01(12)
N4 N3 C2 123.90(13)
O4 N6 C2 121.13(12)
O3 N6 O4 122.91(13)
O3 N6 C2 115.95(12)
N2 N1 C1 105.03(12)
O5 N7 O6 120.87(12)
O5 N7 C2 117.80(12)
O6 N7 C2 121.32(12)
N1 N2 N3 106.04(12)
C1 N4 N3 99.78(12)
N1 C1 N5 121.66(13)
N4 C1 N5 122.85(14)
N4 C1 N1 115.39(13)
N6 C2 N3 116.14(13)
N7 C2 N3 117.55(13)
N7 C2 N6 125.92(13)
H8A N8 H8B 109.6
H8A N8 H8C 109.4
H8A N8 H8D 109.4
H8B N8 H8C 109.5
H8B N8 H8D 109.5
H8C N8 H8D 109.4
loop_
_geom_bond_atom_site_label_1
_geom_bond_atom_site_label_2
_geom_bond_distance
O4 N6 1.2406(16)
O5 N7 1.2503(16)
O6 N7 1.2565(16)
O2 N5 1.2284(17)
N5 O1 1.2193(17)
N5 C1 1.451(2)
N3 N2 1.3400(17)
N3 N4 1.3414(18)
N3 C2 1.3991(19)
O3 N6 1.2359(17)
N6 C2 1.398(2)
N1 N2 1.3101(17)
N1 C1 1.343(2)
N7 C2 1.366(2)
N4 C1 1.3108(19)
N8 H8A 0.8895
N8 H8B 0.8887
N8 H8C 0.8902
N8 H8D 0.8903
loop_
_geom_torsion_atom_site_label_1
_geom_torsion_atom_site_label_2
_geom_torsion_atom_site_label_3
_geom_torsion_atom_site_label_4
_geom_torsion
O4 N6 C2 N3 179.96(13)
O4 N6 C2 N7 -7.4(2)
O5 N7 C2 N3 -5.7(2)
O5 N7 C2 N6 -178.26(13)
O6 N7 C2 N3 173.84(12)
O6 N7 C2 N6 1.3(2)
O2 N5 C1 N1 172.29(13)
O2 N5 C1 N4 -3.9(2)
O1 N5 C1 N1 -6.8(2)
O1 N5 C1 N4 177.03(13)
N3 N4 C1 N5 176.58(13)
N3 N4 C1 N1 0.21(16)
O3 N6 C2 N3 0.9(2)
O3 N6 C2 N7 173.52(14)
N2 N3 N4 C1 -0.50(16)
N2 N3 C2 N6 -86.84(17)
N2 N3 C2 N7 99.89(17)
N2 N1 C1 N5 -176.28(13)
N2 N1 C1 N4 0.14(17)
N4 N3 N2 N1 0.61(16)
N4 N3 C2 N6 86.13(17)
N4 N3 C2 N7 -87.14(18)
C1 N1 N2 N3 -0.43(15)
C2 N3 N2 N1 174.23(13)
C2 N3 N4 C1 -173.98(13)
