#------------------------------------------------------------------------------
#$Date: 2019-11-24 03:20:29 +0200 (Sun, 24 Nov 2019) $
#$Revision: 236462 $
#$URL: file:///home/coder/svn-repositories/cod/cif/7/23/67/7236725.cif $
#------------------------------------------------------------------------------
#
# This file is available in the Crystallography Open Database (COD),
# http://www.crystallography.net/
#
# All data on this site have been placed in the public domain by the
# contributors.
#
data_7236725
loop_
_publ_author_name
'Lei, Yunxiang'
'Zhou, Yibin'
'Qian, Lebin'
'Wang, Yuxiang'
'Liu, Miaochang'
'Huang, Xiaobo'
'Wu, Ge'
'Wu, Huayue'
'Ding, Jinchang'
'Cheng, Yixiang'
_publ_section_title
;
 Polymorphism and mechanochromism of N-alkylated 1,4-dihydropyridine
 derivatives containing different electron-withdrawing end groups
;
_journal_issue                   21
_journal_name_full               'Journal of Materials Chemistry C'
_journal_page_first              5183
_journal_paper_doi               10.1039/C7TC00362E
_journal_volume                  5
_journal_year                    2017
_chemical_formula_moiety         'C12 H13 N3'
_chemical_formula_sum            'C12 H13 N3'
_chemical_formula_weight         199.25
_space_group_IT_number           2
_space_group_name_Hall           '-P 1'
_space_group_name_H-M_alt        'P -1'
_symmetry_cell_setting           triclinic
_symmetry_space_group_name_Hall  '-P 1'
_symmetry_space_group_name_H-M   'P -1'
_atom_sites_solution_hydrogens   geom
_atom_sites_solution_primary     direct
_atom_sites_solution_secondary   difmap
_audit_creation_method           SHELXL-97
_audit_update_record
;
2016-08-08 deposited with the CCDC.
2017-05-09 downloaded from the CCDC.
;
_cell_angle_alpha                98.430(2)
_cell_angle_beta                 92.196(2)
_cell_angle_gamma                103.452(2)
_cell_formula_units_Z            2
_cell_length_a                   6.9599(7)
_cell_length_b                   7.5636(8)
_cell_length_c                   10.3122(10)
_cell_measurement_reflns_used    3892
_cell_measurement_temperature    298(2)
_cell_measurement_theta_max      28.27
_cell_measurement_theta_min      3.02
_cell_volume                     520.77(9)
_computing_cell_refinement       'SAINT (Bruker, 2002)'
_computing_data_collection       'SMART (Bruker, 2002)'
_computing_data_reduction        SAINT
_computing_molecular_graphics    'XP (Bruker, 2002)'
_computing_publication_material  'SHELXL-97 (Bruker, 2002)'
_computing_structure_refinement  'SHELXL-97 (Sheldrick, 1997)'
_computing_structure_solution    'SHELXS-97 (Sheldrick, 1997)'
_diffrn_ambient_temperature      298(2)
_diffrn_measured_fraction_theta_full 0.983
_diffrn_measured_fraction_theta_max 0.983
_diffrn_measurement_device_type  'Bruker APEX area-detector diffractometer'
_diffrn_measurement_method       '\f and \w scans'
_diffrn_radiation_monochromator  graphite
_diffrn_radiation_source         'fine-focus sealed tube'
_diffrn_radiation_type           MoK\a
_diffrn_radiation_wavelength     0.71073
_diffrn_reflns_av_R_equivalents  0.0182
_diffrn_reflns_av_sigmaI/netI    0.0249
_diffrn_reflns_limit_h_max       8
_diffrn_reflns_limit_h_min       -8
_diffrn_reflns_limit_k_max       9
_diffrn_reflns_limit_k_min       -9
_diffrn_reflns_limit_l_max       12
_diffrn_reflns_limit_l_min       -12
_diffrn_reflns_number            5014
_diffrn_reflns_theta_full        25.99
_diffrn_reflns_theta_max         25.99
_diffrn_reflns_theta_min         2.00
_exptl_absorpt_coefficient_mu    0.079
_exptl_absorpt_correction_T_max  0.9857
_exptl_absorpt_correction_T_min  0.9735
_exptl_absorpt_correction_type   multi-scan
_exptl_absorpt_process_details   'SADABS (Bruker, 2002)'
_exptl_crystal_density_diffrn    1.271
_exptl_crystal_density_method    'not measured'
_exptl_crystal_description       Block
_exptl_crystal_F_000             212
_exptl_crystal_size_max          0.29
_exptl_crystal_size_mid          0.23
_exptl_crystal_size_min          0.21
_refine_diff_density_max         0.192
_refine_diff_density_min         -0.281
_refine_diff_density_rms         0.054
_refine_ls_extinction_method     none
_refine_ls_goodness_of_fit_ref   1.065
_refine_ls_hydrogen_treatment    constr
_refine_ls_matrix_type           full
_refine_ls_number_parameters     139
_refine_ls_number_reflns         2018
_refine_ls_number_restraints     0
_refine_ls_restrained_S_all      1.065
_refine_ls_R_factor_all          0.0404
_refine_ls_R_factor_gt           0.0374
_refine_ls_shift/su_max          0.000
_refine_ls_shift/su_mean         0.000
_refine_ls_structure_factor_coef Fsqd
_refine_ls_weighting_details
'calc w=1/[\s^2^(Fo^2^)+(0.0739P)^2^+0.2131P] where P=(Fo^2^+2Fc^2^)/3'
_refine_ls_weighting_scheme      calc
_refine_ls_wR_factor_gt          0.1256
_refine_ls_wR_factor_ref         0.1281
_reflns_number_gt                1835
_reflns_number_total             2018
_reflns_threshold_expression     I>2\s(I)
_cod_data_source_file            c7tc00362e2.cif
_cod_data_source_block           mo_20150719a_0m
_cod_depositor_comments
;
The following automatic conversions were performed:

data item '_exptl_absorpt_correction_type' value 'Multi-scan' was
changed to 'multi-scan' in accordance with the
/home/saulius/struct/COD-crude-data/automatic-downloads/DataCite-retrospective/RSC/depositions/lib/dictionaries/cif_core.dic
dictionary named 'cif_core.dic' version 2.4.2 last updated on
2011-04-26.

data item '_symmetry_cell_setting' value 'Triclinic' was changed to
'triclinic' in accordance with the
/home/saulius/struct/COD-crude-data/automatic-downloads/DataCite-retrospective/RSC/depositions/lib/dictionaries/cif_core.dic
dictionary named 'cif_core.dic' version 2.4.2 last updated on
2011-04-26.

Automatic conversion script
Id: cif_fix_values 6909 2019-04-08 15:41:33Z antanas 
;
_cod_database_code               7236725
loop_
_symmetry_equiv_pos_as_xyz
'x, y, z'
'-x, -y, -z'
loop_
_atom_site_label
_atom_site_type_symbol
_atom_site_fract_x
_atom_site_fract_y
_atom_site_fract_z
_atom_site_U_iso_or_equiv
_atom_site_adp_type
_atom_site_occupancy
_atom_site_symmetry_multiplicity
_atom_site_calc_flag
_atom_site_refinement_flags
N1 N 0.29717(15) 0.68168(14) 0.24960(10) 0.0142(3) Uani 1 1 d .
N2 N 0.13093(19) 0.03659(17) -0.17885(13) 0.0271(3) Uani 1 1 d .
N3 N 0.30408(18) 0.56402(18) -0.33343(12) 0.0256(3) Uani 1 1 d .
C1 C 0.1912(2) 0.39267(18) 0.34245(13) 0.0186(3) Uani 1 1 d .
H1A H 0.1139 0.2696 0.3124 0.028 Uiso 1 1 calc R
H1B H 0.1198 0.4560 0.4038 0.028 Uiso 1 1 calc R
H1C H 0.3148 0.3882 0.3848 0.028 Uiso 1 1 calc R
C2 C 0.23015(18) 0.49308(17) 0.22732(13) 0.0148(3) Uani 1 1 d .
C3 C 0.20118(18) 0.39821(17) 0.10223(13) 0.0149(3) Uani 1 1 d .
H3 H 0.1554 0.2707 0.0892 0.018 Uiso 1 1 calc R
C4 C 0.23897(17) 0.48865(17) -0.00823(12) 0.0148(3) Uani 1 1 d .
C5 C 0.29085(18) 0.68323(18) 0.01902(13) 0.0153(3) Uani 1 1 d .
H5 H 0.3052 0.7495 -0.0506 0.018 Uiso 1 1 calc R
C6 C 0.32047(18) 0.77664(18) 0.14474(13) 0.0150(3) Uani 1 1 d .
C7 C 0.3787(2) 0.98309(18) 0.17073(13) 0.0190(3) Uani 1 1 d .
H7A H 0.3710 1.0295 0.0894 0.029 Uiso 1 1 calc R
H7B H 0.5119 1.0239 0.2102 0.029 Uiso 1 1 calc R
H7C H 0.2905 1.0280 0.2292 0.029 Uiso 1 1 calc R
C8 C 0.22298(18) 0.39107(18) -0.13734(13) 0.0163(3) Uani 1 1 d .
C9 C 0.17215(19) 0.19611(19) -0.16162(13) 0.0186(3) Uani 1 1 d .
C10 C 0.26746(19) 0.48510(19) -0.24610(13) 0.0184(3) Uani 1 1 d .
C11 C 0.34475(19) 0.78194(18) 0.38639(13) 0.0179(3) Uani 1 1 d .
H11A H 0.4541 0.8884 0.3871 0.021 Uiso 1 1 calc R
H11B H 0.3874 0.7021 0.4411 0.021 Uiso 1 1 calc R
C12 C 0.1700(2) 0.84556(19) 0.44514(13) 0.0216(3) Uani 1 1 d .
H12A H 0.1400 0.9392 0.3998 0.032 Uiso 1 1 calc R
H12B H 0.2031 0.8946 0.5366 0.032 Uiso 1 1 calc R
H12C H 0.0566 0.7430 0.4360 0.032 Uiso 1 1 calc R
loop_
_atom_site_aniso_label
_atom_site_aniso_U_11
_atom_site_aniso_U_22
_atom_site_aniso_U_33
_atom_site_aniso_U_23
_atom_site_aniso_U_13
_atom_site_aniso_U_12
N1 0.0145(5) 0.0145(6) 0.0128(5) 0.0007(4) 0.0014(4) 0.0031(4)
N2 0.0291(7) 0.0213(7) 0.0281(7) -0.0031(5) -0.0005(5) 0.0055(5)
N3 0.0274(7) 0.0323(7) 0.0161(6) 0.0044(5) 0.0018(5) 0.0050(5)
C1 0.0235(7) 0.0172(6) 0.0156(6) 0.0044(5) 0.0031(5) 0.0046(5)
C2 0.0120(6) 0.0159(6) 0.0169(6) 0.0030(5) 0.0010(5) 0.0039(5)
C3 0.0139(6) 0.0135(6) 0.0177(7) 0.0026(5) 0.0014(5) 0.0038(5)
C4 0.0101(6) 0.0184(7) 0.0164(7) 0.0026(5) 0.0009(5) 0.0047(5)
C5 0.0139(6) 0.0174(7) 0.0155(6) 0.0048(5) 0.0027(5) 0.0042(5)
C6 0.0114(6) 0.0165(6) 0.0179(6) 0.0043(5) 0.0029(5) 0.0041(5)
C7 0.0217(7) 0.0147(7) 0.0205(7) 0.0028(5) 0.0050(5) 0.0034(5)
C8 0.0152(6) 0.0188(7) 0.0145(6) 0.0011(5) 0.0007(5) 0.0043(5)
C9 0.0171(6) 0.0237(7) 0.0140(6) -0.0009(5) -0.0003(5) 0.0058(5)
C10 0.0160(6) 0.0230(7) 0.0151(7) -0.0016(5) -0.0002(5) 0.0055(5)
C11 0.0190(6) 0.0173(6) 0.0147(6) -0.0004(5) -0.0008(5) 0.0010(5)
C12 0.0253(7) 0.0212(7) 0.0168(6) -0.0007(5) 0.0044(5) 0.0042(6)
loop_
_atom_type_symbol
_atom_type_description
_atom_type_scat_dispersion_real
_atom_type_scat_dispersion_imag
_atom_type_scat_source
C C 0.0033 0.0016 'International Tables Vol C Tables 4.2.6.8 and 6.1.1.4'
H H 0.0000 0.0000 'International Tables Vol C Tables 4.2.6.8 and 6.1.1.4'
N N 0.0061 0.0033 'International Tables Vol C Tables 4.2.6.8 and 6.1.1.4'
loop_
_geom_angle_atom_site_label_1
_geom_angle_atom_site_label_2
_geom_angle_atom_site_label_3
_geom_angle
C2 N1 C6 119.74(11)
C2 N1 C11 119.92(11)
C6 N1 C11 120.34(11)
C2 C1 H1A 109.5
C2 C1 H1B 109.5
H1A C1 H1B 109.5
C2 C1 H1C 109.5
H1A C1 H1C 109.5
H1B C1 H1C 109.5
C3 C2 N1 120.44(11)
C3 C2 C1 120.38(11)
N1 C2 C1 119.18(11)
C2 C3 C4 121.73(12)
C2 C3 H3 119.1
C4 C3 H3 119.1
C8 C4 C5 122.19(12)
C8 C4 C3 122.20(12)
C5 C4 C3 115.60(12)
C6 C5 C4 121.87(12)
C6 C5 H5 119.1
C4 C5 H5 119.1
C5 C6 N1 120.18(12)
C5 C6 C7 120.71(11)
N1 C6 C7 119.12(11)
C6 C7 H7A 109.5
C6 C7 H7B 109.5
H7A C7 H7B 109.5
C6 C7 H7C 109.5
H7A C7 H7C 109.5
H7B C7 H7C 109.5
C4 C8 C9 120.96(12)
C4 C8 C10 121.05(12)
C9 C8 C10 117.91(12)
N2 C9 C8 178.66(14)
N3 C10 C8 179.02(14)
N1 C11 C12 113.02(11)
N1 C11 H11A 109.0
C12 C11 H11A 109.0
N1 C11 H11B 109.0
C12 C11 H11B 109.0
H11A C11 H11B 107.8
C11 C12 H12A 109.5
C11 C12 H12B 109.5
H12A C12 H12B 109.5
C11 C12 H12C 109.5
H12A C12 H12C 109.5
H12B C12 H12C 109.5
loop_
_geom_bond_atom_site_label_1
_geom_bond_atom_site_label_2
_geom_bond_distance
N1 C2 1.3753(17)
N1 C6 1.3778(16)
N1 C11 1.4861(16)
N2 C9 1.1584(19)
N3 C10 1.1562(19)
C1 C2 1.5010(17)
C1 H1A 0.9600
C1 H1B 0.9600
C1 H1C 0.9600
C2 C3 1.3642(19)
C3 C4 1.4150(17)
C3 H3 0.9300
C4 C8 1.4115(18)
C4 C5 1.4139(18)
C5 C6 1.3659(19)
C5 H5 0.9300
C6 C7 1.4996(18)
C7 H7A 0.9600
C7 H7B 0.9600
C7 H7C 0.9600
C8 C9 1.4158(19)
C8 C10 1.4203(18)
C11 C12 1.5238(18)
C11 H11A 0.9700
C11 H11B 0.9700
C12 H12A 0.9600
C12 H12B 0.9600
C12 H12C 0.9600
loop_
_geom_torsion_atom_site_label_1
_geom_torsion_atom_site_label_2
_geom_torsion_atom_site_label_3
_geom_torsion_atom_site_label_4
_geom_torsion
C6 N1 C2 C3 5.07(18)
C11 N1 C2 C3 -174.72(11)
C6 N1 C2 C1 -175.53(10)
C11 N1 C2 C1 4.69(17)
N1 C2 C3 C4 0.20(19)
C1 C2 C3 C4 -179.20(11)
C2 C3 C4 C8 175.42(11)
C2 C3 C4 C5 -5.50(18)
C8 C4 C5 C6 -175.04(11)
C3 C4 C5 C6 5.89(18)
C4 C5 C6 N1 -0.98(19)
C4 C5 C6 C7 178.98(11)
C2 N1 C6 C5 -4.68(18)
C11 N1 C6 C5 175.10(11)
C2 N1 C6 C7 175.37(11)
C11 N1 C6 C7 -4.85(17)
C5 C4 C8 C9 179.54(11)
C3 C4 C8 C9 -1.45(19)
C5 C4 C8 C10 2.88(19)
C3 C4 C8 C10 -178.11(11)
C4 C8 C9 N2 -9(6)
C10 C8 C9 N2 168(6)
C4 C8 C10 N3 -4(8)
C9 C8 C10 N3 179(100)
C2 N1 C11 C12 -91.99(14)
C6 N1 C11 C12 88.23(14)
