#------------------------------------------------------------------------------
#$Date: 2019-11-23 15:49:18 +0200 (Sat, 23 Nov 2019) $
#$Revision: 233894 $
#$URL: file:///home/coder/svn-repositories/cod/cif/7/23/60/7236069.cif $
#------------------------------------------------------------------------------
#
# This file is available in the Crystallography Open Database (COD),
# http://www.crystallography.net/
#
# All data on this site have been placed in the public domain by the
# contributors.
#
data_7236069
loop_
_publ_author_name
'Liu, Long'
'Zhang, Yanqiang'
'Li, Zhimin'
'Zhang, Suojiang'
_publ_section_title
;
 Nitrogen-rich energetic 4-R-5-nitro-1,2,3-triazolate salts (R = --CH3,
 --NH2, --N3, --NO2 and --NHNO2) as high performance energetic materials
;
_journal_issue                   28
_journal_name_full               'Journal of Materials Chemistry A'
_journal_page_first              14768
_journal_paper_doi               10.1039/C5TA01901J
_journal_volume                  3
_journal_year                    2015
_chemical_formula_sum            'C2 H5 N7 O4'
_chemical_formula_weight         191.13
_space_group_IT_number           14
_space_group_name_Hall           '-P 2ybc'
_space_group_name_H-M_alt        'P 1 21/c 1'
_symmetry_cell_setting           monoclinic
_symmetry_space_group_name_H-M   'P 1 21/c 1'
_atom_sites_solution_hydrogens   difmap
_atom_sites_solution_primary     direct
_atom_sites_solution_secondary   difmap
_audit_creation_method           SHELXL-97
_audit_update_record
;
2015-01-29 deposited with the CCDC.
2015-06-04 downloaded from the CCDC.
;
_cell_angle_alpha                90.00
_cell_angle_beta                 91.979(4)
_cell_angle_gamma                90.00
_cell_formula_units_Z            4
_cell_length_a                   7.9369(18)
_cell_length_b                   9.884(2)
_cell_length_c                   8.6066(19)
_cell_measurement_reflns_used    2465
_cell_measurement_temperature    153(2)
_cell_measurement_theta_max      29.101
_cell_measurement_theta_min      2.060
_cell_volume                     674.8(3)
_computing_cell_refinement       'CrystalClear (Rigaku Inc., 2008)'
_computing_data_collection       'CrystalClear (Rigaku Inc., 2008)'
_computing_data_reduction        'CrystalClear (Rigaku Inc., 2008)'
_computing_structure_refinement  'SHELXL-97 (Sheldrick, 1997)'
_computing_structure_solution    'SHELXS-97 (Sheldrick, 1990)'
_diffrn_ambient_temperature      153(2)
_diffrn_detector_area_resol_mean 28.5714
_diffrn_measured_fraction_theta_full 0.998
_diffrn_measured_fraction_theta_max 0.998
_diffrn_measurement_device_type  AFC10/Saturn724+
_diffrn_measurement_method       'phi and omega scans'
_diffrn_radiation_monochromator  graphite
_diffrn_radiation_source         'Rotating Anode'
_diffrn_radiation_type           MoK\a
_diffrn_radiation_wavelength     0.71073
_diffrn_reflns_av_R_equivalents  0.0233
_diffrn_reflns_av_sigmaI/netI    0.0236
_diffrn_reflns_limit_h_max       7
_diffrn_reflns_limit_h_min       -10
_diffrn_reflns_limit_k_max       13
_diffrn_reflns_limit_k_min       -13
_diffrn_reflns_limit_l_max       11
_diffrn_reflns_limit_l_min       -11
_diffrn_reflns_number            5842
_diffrn_reflns_theta_full        29.13
_diffrn_reflns_theta_max         29.13
_diffrn_reflns_theta_min         2.57
_diffrn_standards_decay_%        0
_diffrn_standards_interval_count 0
_diffrn_standards_interval_time  0
_diffrn_standards_number         0
_exptl_absorpt_coefficient_mu    0.174
_exptl_absorpt_correction_T_max  0.9719
_exptl_absorpt_correction_T_min  0.9259
_exptl_absorpt_correction_type   Multi-scans
_exptl_crystal_colour            Yellow
_exptl_crystal_density_diffrn    1.881
_exptl_crystal_density_method    'not measured'
_exptl_crystal_description       Prism
_exptl_crystal_F_000             392
_exptl_crystal_size_max          0.45
_exptl_crystal_size_mid          0.18
_exptl_crystal_size_min          0.16
_refine_diff_density_max         0.308
_refine_diff_density_min         -0.210
_refine_diff_density_rms         0.045
_refine_ls_extinction_coef       0.009(3)
_refine_ls_extinction_expression Fc^*^=kFc[1+0.001xFc^2^\l^3^/sin(2\q)]^-1/4^
_refine_ls_extinction_method     SHELXL
_refine_ls_goodness_of_fit_ref   0.999
_refine_ls_hydrogen_treatment    X,Y,Z,Ueq
_refine_ls_matrix_type           full
_refine_ls_number_parameters     139
_refine_ls_number_reflns         1810
_refine_ls_number_restraints     0
_refine_ls_restrained_S_all      0.999
_refine_ls_R_factor_all          0.0373
_refine_ls_R_factor_gt           0.0307
_refine_ls_shift/su_max          0.000
_refine_ls_shift/su_mean         0.000
_refine_ls_structure_factor_coef Fsqd
_refine_ls_weighting_details
'calc w=1/[\s^2^(Fo^2^)+(0.0239P)^2^+0.3560P] where P=(Fo^2^+2Fc^2^)/3'
_refine_ls_weighting_scheme      calc
_refine_ls_wR_factor_gt          0.0667
_refine_ls_wR_factor_ref         0.0702
_reflns_number_gt                1606
_reflns_number_total             1810
_reflns_threshold_expression     >2sigma(I)
_cod_data_source_file            c5ta01901j2.cif
_cod_data_source_block           bo2680
_cod_depositor_comments
;
The following automatic conversions were performed:

data item '_symmetry_cell_setting' value 'Monoclinic' was changed to
'monoclinic' in accordance with the
/home/saulius/struct/COD-crude-data/automatic-downloads/DataCite-retrospective/RSC/depositions/lib/dictionaries/cif_core.dic
dictionary named 'cif_core.dic' version 2.4.2 last updated on
2011-04-26.

Automatic conversion script
Id: cif_fix_values 6909 2019-04-08 15:41:33Z antanas 
;
_cod_original_sg_symbol_H-M      P2(1)/c
_cod_database_code               7236069
loop_
_symmetry_equiv_pos_as_xyz
'x, y, z'
'-x, y+1/2, -z+1/2'
'-x, -y, -z'
'x, -y-1/2, z-1/2'
loop_
_atom_site_label
_atom_site_type_symbol
_atom_site_fract_x
_atom_site_fract_y
_atom_site_fract_z
_atom_site_U_iso_or_equiv
_atom_site_adp_type
_atom_site_occupancy
_atom_site_symmetry_multiplicity
_atom_site_calc_flag
O1 O 0.30320(10) 0.46575(8) 0.54374(10) 0.01926(19) Uani 1 1 d
O2 O 0.10632(10) 0.48291(8) 0.36185(10) 0.0202(2) Uani 1 1 d
O3 O 0.13689(11) 0.94660(9) 0.40587(10) 0.0238(2) Uani 1 1 d
O4 O 0.27707(11) 1.09469(8) 0.54461(10) 0.0207(2) Uani 1 1 d
N1 N 0.42985(11) 0.68294(10) 0.67064(11) 0.0147(2) Uani 1 1 d
N2 N 0.51427(12) 0.78437(9) 0.74661(12) 0.0170(2) Uani 1 1 d
N3 N 0.45260(11) 0.89927(10) 0.69690(11) 0.0158(2) Uani 1 1 d
N4 N 0.19894(11) 0.67031(9) 0.46799(11) 0.0154(2) Uani 1 1 d
N5 N 0.20607(11) 0.53578(9) 0.46076(11) 0.0143(2) Uani 1 1 d
N6 N 0.24271(12) 0.97697(9) 0.50949(11) 0.0151(2) Uani 1 1 d
N7 N 0.09883(13) 0.21823(10) 0.23857(13) 0.0174(2) Uani 1 1 d
C1 C 0.31139(13) 0.73154(11) 0.56838(12) 0.0131(2) Uani 1 1 d
C2 C 0.32955(13) 0.87145(11) 0.58855(12) 0.0137(2) Uani 1 1 d
H1N H 0.457(2) 0.5969(18) 0.6900(19) 0.035(4) Uiso 1 1 d
H7A H 0.006(2) 0.2228(16) 0.1743(19) 0.030(4) Uiso 1 1 d
H7B H 0.107(2) 0.2993(17) 0.2940(19) 0.030(4) Uiso 1 1 d
H7C H 0.193(2) 0.2087(16) 0.183(2) 0.036(4) Uiso 1 1 d
H7D H 0.094(2) 0.148(2) 0.303(2) 0.043(5) Uiso 1 1 d
loop_
_atom_site_aniso_label
_atom_site_aniso_U_11
_atom_site_aniso_U_22
_atom_site_aniso_U_33
_atom_site_aniso_U_23
_atom_site_aniso_U_13
_atom_site_aniso_U_12
O1 0.0199(4) 0.0135(4) 0.0238(4) 0.0032(3) -0.0059(3) 0.0021(3)
O2 0.0219(4) 0.0152(4) 0.0230(4) -0.0049(3) -0.0074(3) -0.0018(3)
O3 0.0264(4) 0.0178(4) 0.0262(5) 0.0002(3) -0.0140(4) 0.0002(3)
O4 0.0275(4) 0.0100(4) 0.0243(4) -0.0016(3) -0.0015(3) -0.0011(3)
N1 0.0141(4) 0.0123(4) 0.0174(5) -0.0005(4) -0.0033(3) 0.0003(3)
N2 0.0163(4) 0.0142(5) 0.0203(5) -0.0022(4) -0.0042(4) -0.0012(3)
N3 0.0146(4) 0.0152(4) 0.0173(5) -0.0009(3) -0.0022(3) 0.0000(3)
N4 0.0167(4) 0.0100(4) 0.0192(5) -0.0012(3) -0.0043(4) -0.0004(3)
N5 0.0140(4) 0.0124(4) 0.0164(4) -0.0005(3) -0.0003(3) -0.0005(3)
N6 0.0163(4) 0.0128(4) 0.0161(4) 0.0000(4) 0.0000(3) 0.0000(3)
N7 0.0179(5) 0.0135(5) 0.0206(5) 0.0003(4) -0.0037(4) 0.0000(4)
C1 0.0120(4) 0.0131(5) 0.0141(5) 0.0000(4) 0.0000(4) -0.0001(4)
C2 0.0136(5) 0.0129(5) 0.0146(5) -0.0005(4) -0.0014(4) 0.0001(4)
loop_
_atom_type_symbol
_atom_type_description
_atom_type_scat_dispersion_real
_atom_type_scat_dispersion_imag
_atom_type_scat_source
C C 0.0033 0.0016 'International Tables Vol C Tables 4.2.6.8 and 6.1.1.4'
H H 0.0000 0.0000 'International Tables Vol C Tables 4.2.6.8 and 6.1.1.4'
N N 0.0061 0.0033 'International Tables Vol C Tables 4.2.6.8 and 6.1.1.4'
O O 0.0106 0.0060 'International Tables Vol C Tables 4.2.6.8 and 6.1.1.4'
loop_
_geom_angle_atom_site_label_1
_geom_angle_atom_site_label_2
_geom_angle_atom_site_label_3
_geom_angle
C1 N1 N2 111.74(9)
C1 N1 H1N 128.1(11)
N2 N1 H1N 120.2(11)
N3 N2 N1 108.13(9)
N2 N3 C2 107.62(9)
N5 N4 C1 116.42(9)
O1 N5 O2 121.43(9)
O1 N5 N4 123.73(9)
O2 N5 N4 114.84(9)
O4 N6 O3 122.97(9)
O4 N6 C2 118.67(9)
O3 N6 C2 118.34(9)
H7A N7 H7B 108.1(13)
H7A N7 H7C 110.6(14)
H7B N7 H7C 108.3(14)
H7A N7 H7D 111.5(15)
H7B N7 H7D 110.7(15)
H7C N7 H7D 107.7(15)
N1 C1 N4 132.83(10)
N1 C1 C2 101.75(9)
N4 C1 C2 125.42(10)
N3 C2 C1 110.76(9)
N3 C2 N6 120.66(10)
C1 C2 N6 128.55(10)
loop_
_geom_bond_atom_site_label_1
_geom_bond_atom_site_label_2
_geom_bond_distance
O1 N5 1.2432(12)
O2 N5 1.2561(12)
O3 N6 1.2406(12)
O4 N6 1.2304(12)
N1 C1 1.3536(14)
N1 N2 1.3606(13)
N1 H1N 0.891(17)
N2 N3 1.3031(13)
N3 C2 1.3550(14)
N4 N5 1.3325(13)
N4 C1 1.3624(14)
N6 C2 1.4120(14)
N7 H7A 0.907(17)
N7 H7B 0.934(17)
N7 H7C 0.909(18)
N7 H7D 0.89(2)
C1 C2 1.4005(15)
loop_
_geom_torsion_atom_site_label_1
_geom_torsion_atom_site_label_2
_geom_torsion_atom_site_label_3
_geom_torsion_atom_site_label_4
_geom_torsion
C1 N1 N2 N3 0.44(12)
N1 N2 N3 C2 -0.37(12)
C1 N4 N5 O1 2.99(16)
C1 N4 N5 O2 -176.75(9)
N2 N1 C1 N4 179.68(11)
N2 N1 C1 C2 -0.31(12)
N5 N4 C1 N1 -2.85(18)
N5 N4 C1 C2 177.14(10)
N2 N3 C2 C1 0.18(12)
N2 N3 C2 N6 -177.88(9)
N1 C1 C2 N3 0.08(12)
N4 C1 C2 N3 -179.91(10)
N1 C1 C2 N6 177.95(10)
N4 C1 C2 N6 -2.04(19)
O4 N6 C2 N3 -2.40(15)
O3 N6 C2 N3 176.50(10)
O4 N6 C2 C1 179.92(11)
O3 N6 C2 C1 -1.19(17)
