#------------------------------------------------------------------------------
#$Date: 2019-11-23 16:08:52 +0200 (Sat, 23 Nov 2019) $
#$Revision: 233946 $
#$URL: file:///home/coder/svn-repositories/cod/cif/7/23/61/7236131.cif $
#------------------------------------------------------------------------------
#
# This file is available in the Crystallography Open Database (COD),
# http://www.crystallography.net/
#
# All data on this site have been placed in the public domain by the
# contributors.
#
data_7236131
loop_
_publ_author_name
'Kitschke, Philipp'
'Walter, Marc'
'R\"uffer, Tobias'
'Seifert, Andreas'
'Speck, Florian'
'Seyller, Thomas'
'Spange, Stefan'
'Lang, Heinrich'
'Auer, Alexander A.'
'Kovalenko, Maksym V.'
'Mehring, Michael'
_publ_section_title
;
 Porous Ge@C materials via twin polymerization of germanium(ii) salicyl
 alcoholates for Li-ion batteries
;
_journal_issue                   7
_journal_name_full               'Journal of Materials Chemistry A'
_journal_page_first              2705
_journal_paper_doi               10.1039/C5TA09891B
_journal_volume                  4
_journal_year                    2016
_chemical_formula_moiety         'C16 H16 Ge2 O4'
_chemical_formula_sum            'C16 H16 Ge2 O4'
_chemical_formula_weight         417.47
_space_group_crystal_system      triclinic
_space_group_IT_number           2
_space_group_name_Hall           '-P 1'
_space_group_name_H-M_alt        'P -1'
_atom_sites_solution_hydrogens   geom
_audit_creation_method           SHELXL-2013
_audit_update_record
;
2015-11-23 deposited with the CCDC.
2016-01-21 downloaded from the CCDC.
;
_cell_angle_alpha                78.607(11)
_cell_angle_beta                 81.131(14)
_cell_angle_gamma                89.160(11)
_cell_formula_units_Z            1
_cell_length_a                   5.0400(8)
_cell_length_b                   5.7142(6)
_cell_length_c                   13.393(2)
_cell_measurement_reflns_used    1095
_cell_measurement_temperature    110
_cell_measurement_theta_max      27.7310
_cell_measurement_theta_min      4.0630
_cell_volume                     373.54(9)
_computing_cell_refinement
;
CrysAlisPro, Agilent Technologies,
Version 1.171.37.31 (release 14-01-2014 CrysAlis171 .NET)
(compiled Jan 14 2014,18:38:05)
;
_computing_data_collection
;
CrysAlisPro, Agilent Technologies,
Version 1.171.37.31 (release 14-01-2014 CrysAlis171 .NET)
(compiled Jan 14 2014,18:38:05)
;
_computing_data_reduction
;
CrysAlisPro, Agilent Technologies,
Version 1.171.37.31 (release 14-01-2014 CrysAlis171 .NET)
(compiled Jan 14 2014,18:38:05)
;
_computing_structure_refinement  'SHELXL-2013 (Sheldrick, 2013)'
_computing_structure_solution    'SHELXS-2013 (Sheldrick, 2013)'
_diffrn_ambient_temperature      110
_diffrn_measured_fraction_theta_full 0.998
_diffrn_measured_fraction_theta_max 0.998
_diffrn_measurement_device_type  'oxford gemini s'
_diffrn_measurement_method       '\w scans'
_diffrn_orient_matrix_UB_11      0.0252138000
_diffrn_orient_matrix_UB_12      0.0027629000
_diffrn_orient_matrix_UB_13      0.0504175000
_diffrn_orient_matrix_UB_21      0.1318722000
_diffrn_orient_matrix_UB_22      0.0445043000
_diffrn_orient_matrix_UB_23      -0.0205620000
_diffrn_orient_matrix_UB_31      -0.0476196000
_diffrn_orient_matrix_UB_32      0.1185313000
_diffrn_orient_matrix_UB_33      -0.0050018000
_diffrn_radiation_type           MoK\a
_diffrn_radiation_wavelength     0.71073
_diffrn_reflns_av_R_equivalents  0.0612
_diffrn_reflns_av_unetI/netI     0.0246
_diffrn_reflns_Laue_measured_fraction_full 0.998
_diffrn_reflns_Laue_measured_fraction_max 0.998
_diffrn_reflns_limit_h_max       5
_diffrn_reflns_limit_h_min       -5
_diffrn_reflns_limit_k_max       6
_diffrn_reflns_limit_k_min       -6
_diffrn_reflns_limit_l_max       15
_diffrn_reflns_limit_l_min       -15
_diffrn_reflns_number            1656
_diffrn_reflns_point_group_measured_fraction_full 0.998
_diffrn_reflns_point_group_measured_fraction_max 0.998
_diffrn_reflns_theta_full        25.000
_diffrn_reflns_theta_max         24.991
_diffrn_reflns_theta_min         3.141
_exptl_absorpt_coefficient_mu    4.019
_exptl_absorpt_correction_T_max  1.00000
_exptl_absorpt_correction_T_min  0.50052
_exptl_absorpt_correction_type   multi-scan
_exptl_absorpt_process_details
;
CrysAlisPro, Agilent Technologies,
Version 1.171.37.31 (release 14-01-2014 CrysAlis171 .NET)
(compiled Jan 14 2014,18:38:05)
Empirical absorption correction using spherical harmonics,
 implemented in SCALE3 ABSPACK scaling algorithm.
Empirical absorption correction using spherical harmonics,
 implemented in SCALE3 ABSPACK scaling algorithm.
;
_exptl_crystal_colour            colorless
_exptl_crystal_density_diffrn    1.856
_exptl_crystal_description       plate
_exptl_crystal_F_000             208
_exptl_crystal_size_max          0.4974
_exptl_crystal_size_mid          0.4881
_exptl_crystal_size_min          0.0897
_refine_diff_density_max         1.495
_refine_diff_density_min         -1.544
_refine_diff_density_rms         0.237
_refine_ls_extinction_method     none
_refine_ls_goodness_of_fit_ref   1.104
_refine_ls_hydrogen_treatment    constr
_refine_ls_matrix_type           full
_refine_ls_number_parameters     101
_refine_ls_number_reflns         1656
_refine_ls_number_restraints     0
_refine_ls_restrained_S_all      1.104
_refine_ls_R_factor_all          0.0620
_refine_ls_R_factor_gt           0.0597
_refine_ls_shift/su_max          0.014
_refine_ls_shift/su_mean         0.002
_refine_ls_structure_factor_coef Fsqd
_refine_ls_weighting_details
'w=1/[\s^2^(Fo^2^)+(0.1321P)^2^+2.0827P] where P=(Fo^2^+2Fc^2^)/3'
_refine_ls_weighting_scheme      calc
_refine_ls_wR_factor_gt          0.1783
_refine_ls_wR_factor_ref         0.1798
_reflns_Friedel_coverage         0.000
_reflns_number_gt                1558
_reflns_number_total             1656
_reflns_threshold_expression     'I > 2\s(I)'
_cod_data_source_file            c5ta09891b2.cif
_cod_data_source_block           shelx
_cod_database_code               7236131
_shelx_space_group_comment
;
The symmetry employed for this shelxl refinement is uniquely defined
by the following loop, which should always be used as a source of
symmetry information in preference to the above space-group names.
They are only intended as comments.
;
_cell_oxdiff_twin_number         2
_diffrn_oxdiff_twin_integration_method simultaneous
_shelxl_version_number           2013-4
_shelx_res_file
;
TITL pkv175 in P1
CELL  0.71073   5.0400   5.7142  13.393   78.607   81.131   89.160
ZERR     1.00   0.0008   0.0006   0.002    0.011    0.014    0.011
LATT   1
SFAC  C    O    GE   H
UNIT  16   4    2    16
MERG   2
OMIT     0.00  50.00
OMIT    -2  -5   6
OMIT    -1   6   9
OMIT    -2   6   6
OMIT    -1  -1  14
OMIT    -2   5  10
OMIT     1   3  -5
FMAP   2
PLAN   25
ACTA    50.00
BOND   $H
CONF
L.S.   4
WGHT    0.132100    2.082700
BASF   0.53233
FVAR      10.77313
C1    1   -0.005134    0.316938    0.314165    11.00000    0.01559    0.00786 =
         0.02350   -0.00554   -0.00374    0.00743
C2    1   -0.192550    0.224169    0.264484    11.00000    0.01952    0.00818 =
         0.02065   -0.00253   -0.00510    0.00153
AFIX  43
H2    4   -0.260182    0.069793    0.289987    11.00000   -1.20000
AFIX   0
C3    1   -0.277329    0.357437    0.179062    11.00000    0.01703    0.01645 =
         0.02537   -0.00822   -0.00554    0.00241
AFIX  43
H3    4   -0.399620    0.289547    0.147268    11.00000   -1.20000
AFIX   0
C4    1   -0.187731    0.590759    0.137834    11.00000    0.01756    0.01566 =
         0.01581   -0.00004    0.00003    0.00212
C5    1   -0.006932    0.682589    0.188765    11.00000    0.01863    0.00709 =
         0.01692    0.00116    0.00525   -0.00226
AFIX  43
H5    4    0.055591    0.838637    0.163552    11.00000   -1.20000
AFIX   0
C6    1    0.086103    0.553761    0.275644    11.00000    0.01397    0.01055 =
         0.01964   -0.00853    0.00205    0.00230
C7    1    0.275780    0.661983    0.330821    11.00000    0.01272    0.01402 =
         0.01696   -0.00424    0.00032   -0.00618
AFIX  23
H7A   4    0.452155    0.593399    0.318578    11.00000   -1.20000
H7B   4    0.292234    0.832639    0.304181    11.00000   -1.20000
AFIX   0
C8    1   -0.283473    0.737760    0.044059    11.00000    0.01969    0.01997 =
         0.02243    0.00146   -0.00410    0.00206
AFIX  33
H8A   4   -0.406601    0.644187    0.019481    11.00000   -1.50000
H8B   4   -0.132473    0.785816   -0.008983    11.00000   -1.50000
H8C   4   -0.372297    0.876859    0.061981    11.00000   -1.50000
AFIX   0
O1    2    0.086562    0.178328    0.395586    11.00000    0.02421    0.00809 =
         0.01521    0.00021   -0.00585    0.00433
O2    2    0.177567    0.617594    0.441404    11.00000    0.01356    0.01366 =
         0.01997   -0.00261   -0.00373    0.00007
GE1   3    0.183568    0.276316    0.509744    11.00000    0.01179    0.01330 =
         0.01783   -0.00288   -0.00259   -0.00041
HKLF    5

REM  pkv175 in P1
REM R1 =  0.0597 for    1558 Fo > 4sig(Fo)  and  0.0620 for all    1656 data
REM    101 parameters refined using      0 restraints

END

WGHT      0.1447      0.9957

REM Highest difference peak  1.495,  deepest hole -1.544,  1-sigma level  0.237
Q1    1   0.4197  0.2813  0.5066  11.00000  0.05    1.49
Q2    1   0.1217  0.5213  0.4970  11.00000  0.05    1.14
Q3    1   0.2696  0.4052  0.4313  11.00000  0.05    1.14
Q4    1   0.3938  0.4617  0.5455  11.00000  0.05    1.02
Q5    1   0.5000  0.0000  0.5000  10.50000  0.05    1.01
Q6    1   0.0577  0.1618  0.4974  11.00000  0.05    1.00
Q7    1   0.2321  0.3948  0.5180  11.00000  0.05    0.98
Q8    1   0.1114  0.1756  0.5821  11.00000  0.05    0.97
Q9    1  -0.0395  0.2465  0.5140  11.00000  0.05    0.96
Q10   1  -0.4947  0.7443  0.0471  11.00000  0.05    0.92
Q11   1   0.5491  0.5813  0.4406  11.00000  0.05    0.91
Q12   1   0.3358  0.7816  0.4434  11.00000  0.05    0.78
Q13   1  -0.0166  0.6522  0.4326  11.00000  0.05    0.77
Q14   1  -0.1347 -0.0268  0.4033  11.00000  0.05    0.74
Q15   1   0.0307  0.2642  0.4066  11.00000  0.05    0.70
Q16   1   0.3208  0.7169  0.5441  11.00000  0.05    0.68
Q17   1   0.0564  0.0567  0.4009  11.00000  0.05    0.68
Q18   1   0.3957  0.1999  0.6107  11.00000  0.05    0.67
Q19   1   0.3721 -0.0555  0.4627  11.00000  0.05    0.66
Q20   1   0.1274  0.4179  0.2854  11.00000  0.05    0.64
Q21   1   0.3911  0.1465  0.4629  11.00000  0.05    0.60
Q22   1   0.2813  0.9089  0.3231  11.00000  0.05    0.59
Q23   1   0.2456  0.6688  0.4199  11.00000  0.05    0.58
Q24   1  -0.3318  0.1605  0.3786  11.00000  0.05    0.58
Q25   1   0.1302  0.6768  0.2403  11.00000  0.05    0.56
;
_shelx_res_checksum              83349
loop_
_space_group_symop_operation_xyz
'x, y, z'
'-x, -y, -z'
loop_
_atom_site_label
_atom_site_type_symbol
_atom_site_fract_x
_atom_site_fract_y
_atom_site_fract_z
_atom_site_U_iso_or_equiv
_atom_site_adp_type
_atom_site_occupancy
_atom_site_site_symmetry_order
_atom_site_calc_flag
_atom_site_refinement_flags_posn
_atom_site_refinement_flags_adp
C1 C -0.005(2) 0.3169(16) 0.3142(8) 0.015(2) Uani 1 1 d . .
C2 C -0.193(2) 0.2242(16) 0.2645(7) 0.016(2) Uani 1 1 d . .
H2 H -0.2602 0.0698 0.2900 0.019 Uiso 1 1 calc R U
C3 C -0.277(2) 0.3574(18) 0.1791(8) 0.019(2) Uani 1 1 d . .
H3 H -0.3996 0.2895 0.1473 0.023 Uiso 1 1 calc R U
C4 C -0.188(2) 0.5908(17) 0.1378(7) 0.017(2) Uani 1 1 d . .
C5 C -0.0069(18) 0.6826(16) 0.1888(7) 0.016(2) Uani 1 1 d . .
H5 H 0.0556 0.8386 0.1636 0.019 Uiso 1 1 calc R U
C6 C 0.0861(19) 0.5538(17) 0.2756(7) 0.014(2) Uani 1 1 d . .
C7 C 0.276(2) 0.6620(17) 0.3308(7) 0.015(2) Uani 1 1 d . .
H7A H 0.4522 0.5934 0.3186 0.018 Uiso 1 1 calc R U
H7B H 0.2922 0.8326 0.3042 0.018 Uiso 1 1 calc R U
C8 C -0.283(2) 0.7378(18) 0.0441(8) 0.021(2) Uani 1 1 d . .
H8A H -0.4066 0.6442 0.0195 0.032 Uiso 1 1 calc R U
H8B H -0.1325 0.7858 -0.0090 0.032 Uiso 1 1 calc R U
H8C H -0.3723 0.8769 0.0620 0.032 Uiso 1 1 calc R U
O1 O 0.0866(14) 0.1783(11) 0.3956(5) 0.0159(14) Uani 1 1 d . .
O2 O 0.1776(14) 0.6176(11) 0.4414(5) 0.0157(14) Uani 1 1 d . .
Ge1 Ge 0.1836(2) 0.27632(18) 0.50974(8) 0.0143(4) Uani 1 1 d . .
loop_
_atom_site_aniso_label
_atom_site_aniso_U_11
_atom_site_aniso_U_22
_atom_site_aniso_U_33
_atom_site_aniso_U_23
_atom_site_aniso_U_13
_atom_site_aniso_U_12
C1 0.016(5) 0.008(5) 0.023(5) -0.006(4) -0.004(4) 0.007(4)
C2 0.020(6) 0.008(4) 0.021(5) -0.003(4) -0.005(4) 0.002(4)
C3 0.017(6) 0.016(5) 0.025(6) -0.008(4) -0.006(4) 0.002(4)
C4 0.018(5) 0.016(5) 0.016(5) 0.000(4) 0.000(4) 0.002(4)
C5 0.019(7) 0.007(4) 0.017(5) 0.001(4) 0.005(4) -0.002(4)
C6 0.014(5) 0.011(5) 0.020(5) -0.009(4) 0.002(4) 0.002(4)
C7 0.013(5) 0.014(5) 0.017(5) -0.004(4) 0.000(4) -0.006(4)
C8 0.020(6) 0.020(6) 0.022(5) 0.001(4) -0.004(4) 0.002(4)
O1 0.024(4) 0.008(3) 0.015(3) 0.000(3) -0.006(3) 0.004(3)
O2 0.014(4) 0.014(3) 0.020(3) -0.003(3) -0.004(3) 0.000(3)
Ge1 0.0118(6) 0.0133(5) 0.0178(5) -0.0029(3) -0.0026(5) -0.0004(5)
loop_
_atom_type_symbol
_atom_type_description
_atom_type_scat_dispersion_real
_atom_type_scat_dispersion_imag
_atom_type_scat_source
C C 0.0033 0.0016 'International Tables Vol C Tables 4.2.6.8 and 6.1.1.4'
O O 0.0106 0.0060 'International Tables Vol C Tables 4.2.6.8 and 6.1.1.4'
Ge Ge 0.1547 1.8001 'International Tables Vol C Tables 4.2.6.8 and 6.1.1.4'
H H 0.0000 0.0000 'International Tables Vol C Tables 4.2.6.8 and 6.1.1.4'
loop_
_exptl_crystal_face_index_h
_exptl_crystal_face_index_k
_exptl_crystal_face_index_l
_exptl_crystal_face_perp_dist
_exptl_oxdiff_crystal_face_indexfrac_h
_exptl_oxdiff_crystal_face_indexfrac_k
_exptl_oxdiff_crystal_face_indexfrac_l
_exptl_oxdiff_crystal_face_x
_exptl_oxdiff_crystal_face_y
_exptl_oxdiff_crystal_face_z
-7 0 2 0.2143 -6.9919 0.0021 1.5118 -0.1001 -0.9530 0.3256
0 0 18 0.0512 0.0236 -0.0097 18.0014 0.9082 -0.3675 -0.0923
0 0 -18 0.0385 -0.0236 0.0097 -18.0014 -0.9082 0.3675 0.0923
0 -8 0 0.2738 -0.1875 -7.9969 -0.0901 -0.0314 -0.3788 -0.9385
7 0 -2 0.2401 6.9919 -0.0021 -1.5118 0.1001 0.9530 -0.3256
0 8 0 0.1907 0.1875 7.9969 0.0901 0.0314 0.3788 0.9385
loop_
_geom_angle_atom_site_label_1
_geom_angle_atom_site_label_2
_geom_angle_atom_site_label_3
_geom_angle
_geom_angle_site_symmetry_1
_geom_angle_site_symmetry_3
O1 C1 C2 120.1(8) . .
O1 C1 C6 121.9(9) . .
C2 C1 C6 118.0(9) . .
C3 C2 C1 120.9(9) . .
C3 C2 H2 119.5 . .
C1 C2 H2 119.5 . .
C2 C3 C4 122.5(10) . .
C2 C3 H3 118.7 . .
C4 C3 H3 118.7 . .
C5 C4 C3 116.1(9) . .
C5 C4 C8 121.5(9) . .
C3 C4 C8 122.4(10) . .
C4 C5 C6 123.5(9) . .
C4 C5 H5 118.3 . .
C6 C5 H5 118.3 . .
C5 C6 C1 118.9(9) . .
C5 C6 C7 122.0(9) . .
C1 C6 C7 119.1(9) . .
O2 C7 C6 110.3(8) . .
O2 C7 H7A 109.6 . .
C6 C7 H7A 109.6 . .
O2 C7 H7B 109.6 . .
C6 C7 H7B 109.6 . .
H7A C7 H7B 108.1 . .
C4 C8 H8A 109.5 . .
C4 C8 H8B 109.5 . .
H8A C8 H8B 109.5 . .
C4 C8 H8C 109.5 . .
H8A C8 H8C 109.5 . .
H8B C8 H8C 109.5 . .
C1 O1 Ge1 127.1(6) . .
C7 O2 Ge1 119.1(6) . 2_566
C7 O2 Ge1 113.8(5) . .
Ge1 O2 Ge1 104.6(3) 2_566 .
O1 Ge1 O2 94.9(3) . 2_566
O1 Ge1 O2 91.6(3) . .
O2 Ge1 O2 75.4(3) 2_566 .
loop_
_geom_bond_atom_site_label_1
_geom_bond_atom_site_label_2
_geom_bond_distance
_geom_bond_site_symmetry_2
C1 O1 1.354(12) .
C1 C2 1.401(14) .
C1 C6 1.406(14) .
C2 C3 1.367(14) .
C2 H2 0.9300 .
C3 C4 1.392(14) .
C3 H3 0.9300 .
C4 C5 1.385(14) .
C4 C8 1.508(14) .
C5 C6 1.391(14) .
C5 H5 0.9300 .
C6 C7 1.503(13) .
C7 O2 1.460(12) .
C7 H7A 0.9700 .
C7 H7B 0.9700 .
C8 H8A 0.9600 .
C8 H8B 0.9600 .
C8 H8C 0.9600 .
O1 Ge1 1.862(7) .
O2 Ge1 1.966(7) 2_566
O2 Ge1 1.986(6) .
Ge1 O2 1.966(7) 2_566
loop_
_geom_torsion_atom_site_label_1
_geom_torsion_atom_site_label_2
_geom_torsion_atom_site_label_3
_geom_torsion_atom_site_label_4
_geom_torsion
_geom_torsion_site_symmetry_4
O1 C1 C2 C3 -176.7(9) .
C6 C1 C2 C3 2.1(15) .
C1 C2 C3 C4 -1.1(16) .
C2 C3 C4 C5 -0.3(15) .
C2 C3 C4 C8 -179.5(9) .
C3 C4 C5 C6 0.6(15) .
C8 C4 C5 C6 179.8(9) .
C4 C5 C6 C1 0.5(15) .
C4 C5 C6 C7 -178.1(9) .
O1 C1 C6 C5 177.0(8) .
C2 C1 C6 C5 -1.8(14) .
O1 C1 C6 C7 -4.4(14) .
C2 C1 C6 C7 176.8(9) .
C5 C6 C7 O2 130.6(9) .
C1 C6 C7 O2 -47.9(12) .
C2 C1 O1 Ge1 -146.7(8) .
C6 C1 O1 Ge1 34.5(13) .
C6 C7 O2 Ge1 -56.6(9) 2_566
C6 C7 O2 Ge1 67.5(9) .
C1 O1 Ge1 O2 63.3(8) 2_566
C1 O1 Ge1 O2 -12.2(8) .
loop_
_cell_oxdiff_twin_id
_cell_oxdiff_twin_matrix_11
_cell_oxdiff_twin_matrix_12
_cell_oxdiff_twin_matrix_13
_cell_oxdiff_twin_matrix_21
_cell_oxdiff_twin_matrix_22
_cell_oxdiff_twin_matrix_23
_cell_oxdiff_twin_matrix_31
_cell_oxdiff_twin_matrix_32
_cell_oxdiff_twin_matrix_33
1 1.0000 0.0000 0.0000 0.0000 1.0000 0.0000 0.0000 0.0000 1.0000
2 0.9991 -0.0238 -0.0014 0.0003 -0.9989 0.0002 0.7820 -0.0108 -0.9999
loop_
_diffrn_oxdiff_twin_id
_diffrn_oxdiff_twin_ratio
_diffrn_oxdiff_twin_reflns_isolated
_diffrn_oxdiff_twin_reflns_overlapped
1 0.4617 459 1705
2 0.5383 463 1705
