#------------------------------------------------------------------------------
#$Date: 2019-11-23 19:43:57 +0200 (Sat, 23 Nov 2019) $
#$Revision: 234705 $
#$URL: file:///home/coder/svn-repositories/cod/cif/7/23/61/7236168.cif $
#------------------------------------------------------------------------------
#
# This file is available in the Crystallography Open Database (COD),
# http://www.crystallography.net/
#
# All data on this site have been placed in the public domain by the
# contributors.
#
data_7236168
loop_
_publ_author_name
'Baaklini, G.'
'Gbabode, G.'
'Clevers, S.'
'N\'egrier, P.'
'Mondieig, D.'
'Coquerel, G.'
_publ_section_title
;
 Trimorphism of N-methylurea: crystal structures, phase transitions and
 thermodynamic stabilities
;
_journal_issue                   25
_journal_name_full               CrystEngComm
_journal_page_first              4772
_journal_paper_doi               10.1039/C6CE00652C
_journal_volume                  18
_journal_year                    2016
_chemical_formula_sum            'C2 H6 N2 O'
_chemical_formula_weight         74.09
_chemical_name_common            'methyl urea'
_space_group_IT_number           14
_space_group_name_Hall           '-P 2ybc'
_space_group_name_H-M_alt        'P 1 21/c 1'
_symmetry_cell_setting           monoclinic
_symmetry_Int_Tables_number      14
_symmetry_space_group_name_Hall  '-P 2ybc'
_symmetry_space_group_name_H-M   'P 1 21/c 1'
_audit_creation_date             'Feb 17 23:25:48 2016'
_audit_creation_method           'PLATON <TABLE ACC> option'
_audit_update_record
;
2016-03-11 deposited with the CCDC.
2016-05-05 downloaded from the CCDC.
;
_cell_angle_alpha                90
_cell_angle_beta                 92.007(4)
_cell_angle_gamma                90
_cell_formula_units_Z            4
_cell_length_a                   4.6604(3)
_cell_length_b                   7.4079(7)
_cell_length_c                   10.4566(6)
_cell_measurement_temperature    100(1)
_cell_measurement_theta_max      63
_cell_measurement_theta_min      12
_cell_volume                     360.78(5)
_diffrn_ambient_temperature      100(1)
_diffrn_measurement_device_type  'Inel CPS120'
_diffrn_radiation_monochromator  'curved quartz'
_diffrn_radiation_probe          x-ray
_diffrn_radiation_source         'fine focus sealed tube'
_diffrn_radiation_type           CuK\a~1~
_diffrn_radiation_wavelength     1.540562
_exptl_crystal_colour            white
_exptl_crystal_density_diffrn    1.364
_exptl_crystal_density_method    'Not Measured'
_exptl_crystal_description       'powder sample'
_exptl_crystal_recrystallization_method 'From the Melt'
_refine_ls_wR_factor_gt          0.1058
_cod_data_source_file            c6ce00652c2.cif
_cod_data_source_block           Rietveld100
_cod_depositor_comments
;
The following automatic conversions were performed:

data item '_symmetry_cell_setting' value 'Monoclinic' was changed to
'monoclinic' in accordance with the
/home/saulius/struct/COD-crude-data/automatic-downloads/DataCite-retrospective/RSC/depositions/lib/dictionaries/cif_core.dic
dictionary named 'cif_core.dic' version 2.4.2 last updated on
2011-04-26.

Automatic conversion script
Id: cif_fix_values 6909 2019-04-08 15:41:33Z antanas 
;
_cod_original_cell_volume        360.78(8)
_cod_original_sg_symbol_H-M      'P 21/c'
_cod_database_code               7236168
loop_
_symmetry_equiv_pos_site_id
_symmetry_equiv_pos_as_xyz
1 x,y,z
2 -x,1/2+y,1/2-z
3 -x,-y,-z
4 x,1/2-y,1/2+z
loop_
_atom_site_label
_atom_site_type_symbol
_atom_site_thermal_displace_type
_atom_site_fract_x
_atom_site_fract_y
_atom_site_fract_z
_atom_site_occupancy
_atom_site_U_iso_or_equiv
O1 O Uiso 0.4115(8) 0.4494(5) 0.3371(3) 1.000 0.0500
N1 N Uiso 0.8141(12) 0.5941(5) 0.2988(4) 1.000 0.0500
N2 N Uiso 0.8238(9) 0.3291(5) 0.4066(3) 1.000 0.0500
C1 C Uiso 0.6787(9) 0.4585(4) 0.3475(2) 1.000 0.0500
C2 C Uiso 0.7141(13) 0.1849(5) 0.4670(5) 1.000 0.0500
H1 H Uiso 0.7197(15) 0.6809(6) 0.2492(5) 1.000 0.0500
H2 H Uiso 1.0155(12) 0.5980(7) 0.3050(4) 1.000 0.0500
H3 H Uiso 0.8527(16) 0.0865(6) 0.4946(6) 1.000 0.0500
H4 H Uiso 0.6368(14) 0.2165(7) 0.5548(4) 1.000 0.0500
H5 H Uiso 0.5464(14) 0.1188(5) 0.4181(6) 1.000 0.0500
H6 H Uiso 1.0236(9) 0.3480(7) 0.4079(3) 1.000 0.0500
loop_
_geom_angle_atom_site_label_1
_geom_angle_atom_site_label_2
_geom_angle_atom_site_label_3
_geom_angle
_geom_angle_publ_flag
C1 N2 C2 126.8(4) yes
C1 N1 H1 121.9(7) no
C1 N1 H2 119.6(5) no
H1 N1 H2 118.1(7) no
C2 N2 H6 120.1(5) no
C1 N2 H6 113.0(5) no
O1 C1 N2 119.8(3) yes
N1 C1 N2 119.9(4) yes
O1 C1 N1 120.3(4) yes
N2 C2 H3 117.1(7) no
N2 C2 H4 112.9(5) no
N2 C2 H5 115.6(5) no
H3 C2 H4 98.6(6) no
H3 C2 H5 105.2(5) no
H4 C2 H5 105.4(7) no
loop_
_geom_bond_atom_site_label_1
_geom_bond_atom_site_label_2
_geom_bond_distance
_geom_bond_publ_flag
O1 C1 1.248(6) yes
N1 C1 1.300(5) yes
N2 C1 1.315(5) yes
N2 C2 1.351(6) yes
N1 H1 0.927(7) no
N1 H2 0.939(8) no
N2 H6 0.941(6) no
C2 H3 1.009(8) no
C2 H4 1.025(7) no
C2 H5 1.041(8) no
loop_
_geom_contact_atom_site_label_1
_geom_contact_atom_site_label_2
_geom_contact_distance
_geom_contact_site_symmetry_2
_geom_contact_publ_flag
O1 N1 2.997(7) 1_455 no
O1 N2 2.994(6) 1_455 no
O1 N1 3.154(5) 2_645 no
O1 C1 3.408(4) 3_666 no
O1 H5 2.660(6) . no
O1 H2 2.165(7) 1_455 no
O1 H1 2.260(6) 2_645 no
O1 H6 2.115(6) 1_455 no
O1 H4 2.733(6) 3_666 no
N1 O1 2.997(7) 1_655 no
N1 O1 3.154(5) 2_655 no
N1 N2 3.278(6) 2_755 no
N2 O1 2.994(6) 1_655 no
N2 N1 3.278(6) 2_745 no
N1 H5 2.781(8) 2_655 no
N2 H1 2.937(7) 2_745 no
N2 H2 2.916(6) 2_745 no
C1 O1 3.408(4) 3_666 no
C2 C2 3.473(7) 3_656 no
C1 H1 2.927(7) 2_645 no
C1 H4 3.018(6) 3_666 no
C2 H1 2.980(8) 2_645 no
C2 H3 2.868(8) 3_756 no
C2 H5 2.843(7) 3_656 no
H1 O1 2.260(6) 2_655 no
H1 N2 2.937(7) 2_755 no
H1 C1 2.927(7) 2_655 no
H1 C2 2.980(8) 2_655 no
H1 H5 2.158(9) 2_655 no
H1 H6 2.408(7) 2_755 no
H2 O1 2.165(7) 1_655 no
H2 H6 2.142(7) . no
H2 N2 2.916(6) 2_755 no
H2 H4 2.549(7) 3_766 no
H3 C2 2.868(8) 3_756 no
H3 H3 1.879(9) 3_756 no
H3 H5 2.593(9) 3_656 no
H4 O1 2.733(6) 3_666 no
H4 C1 3.018(6) 3_666 no
H4 H2 2.549(7) 3_766 no
H5 O1 2.660(6) . no
H5 N1 2.781(8) 2_645 no
H5 H1 2.158(9) 2_645 no
H5 C2 2.843(7) 3_656 no
H5 H3 2.593(9) 3_656 no
H5 H5 2.504(7) 3_656 no
H6 O1 2.115(6) 1_655 no
H6 H2 2.142(7) . no
H6 H1 2.408(7) 2_745 no
loop_
_geom_hbond_atom_site_label_D
_geom_hbond_atom_site_label_H
_geom_hbond_atom_site_label_A
_geom_hbond_distance_DH
_geom_hbond_distance_HA
_geom_hbond_distance_DA
_geom_hbond_angle_DHA
_geom_hbond_site_symmetry_A
_geom_hbond_publ_flag
N1 H1 O1 0.927(7) 2.260(6) 3.154(5) 161.8(6) 2_655 yes
N1 H2 O1 0.939(8) 2.165(7) 2.997(7) 147.1(5) 1_655 yes
N2 H6 O1 0.941(6) 2.115(6) 2.994(6) 154.8(4) 1_655 yes
loop_
_geom_torsion_atom_site_label_1
_geom_torsion_atom_site_label_2
_geom_torsion_atom_site_label_3
_geom_torsion_atom_site_label_4
_geom_torsion
_geom_torsion_publ_flag
C2 N2 C1 O1 -4.2(5) no
C2 N2 C1 N1 176.6(4) no
