#------------------------------------------------------------------------------
#$Date: 2019-11-24 02:58:32 +0200 (Sun, 24 Nov 2019) $
#$Revision: 236370 $
#$URL: file:///home/coder/svn-repositories/cod/cif/7/23/66/7236630.cif $
#------------------------------------------------------------------------------
#
# This file is available in the Crystallography Open Database (COD),
# http://www.crystallography.net/
#
# All data on this site have been placed in the public domain by the
# contributors.
#
data_7236630
loop_
_publ_author_name
'Wang, Binshen'
'Qi, Xiujuan'
'Zhang, Wenquan'
'Wang, Kangcai'
'Li, Wei'
'Zhang, Qinghua'
_publ_section_title
;
 Synthesis of 1-(2H-tetrazol-5-yl)-5-nitraminotetrazole and its
 derivatives from 5-aminotetrazole and cyanogen azide: a promising
 strategy towards the development of C--N linked bistetrazolate energetic
 materials
;
_journal_issue                   39
_journal_name_full               'J. Mater. Chem. A'
_journal_page_first              20867
_journal_paper_doi               10.1039/C7TA05905A
_journal_volume                  5
_journal_year                    2017
_chemical_absolute_configuration rmad
_chemical_formula_moiety         'C2 N10 O2, 2(H2 O), 2(H5 N2)'
_chemical_formula_sum            'C2 H14 N14 O4'
_chemical_formula_weight         298.27
_space_group_crystal_system      monoclinic
_space_group_IT_number           4
_space_group_name_Hall           'P 2yb'
_space_group_name_H-M_alt        'P 1 21 1'
_atom_sites_solution_hydrogens   difmap
_atom_sites_solution_primary     dual
_audit_creation_date             2016-12-15
_audit_creation_method
;
Olex2 1.2-beta
(compiled 2016.11.30 svn.r3356 for OlexSys, GUI svn.r5269)
;
_audit_update_record
;
2017-02-23 deposited with the CCDC.
2017-09-12 downloaded from the CCDC.
;
_cell_angle_alpha                90
_cell_angle_beta                 92.690(4)
_cell_angle_gamma                90
_cell_formula_units_Z            2
_cell_length_a                   3.6735(6)
_cell_length_b                   20.633(4)
_cell_length_c                   7.9016(13)
_cell_measurement_reflns_used    2346
_cell_measurement_temperature    170
_cell_measurement_theta_max      26.026
_cell_measurement_theta_min      2.580
_cell_volume                     598.24(18)
_computing_cell_refinement       'SAINT v7.68A (Bruker, 2009)'
_computing_data_reduction        'SAINT v7.68A (Bruker, 2009)'
_computing_molecular_graphics    'Olex2 (Dolomanov et al., 2009)'
_computing_publication_material  'Olex2 (Dolomanov et al., 2009)'
_computing_structure_refinement  'ShelXL (Sheldrick, 2015)'
_computing_structure_solution    'ShelXT (Sheldrick, 2015)'
_diffrn_ambient_temperature      170
_diffrn_measured_fraction_theta_full 0.997
_diffrn_measured_fraction_theta_max 0.996
_diffrn_measurement_device_type  'Bruker APEX-II CCD'
_diffrn_measurement_method       '\f and \w scans'
_diffrn_radiation_monochromator  graphite
_diffrn_radiation_type           MoK\a
_diffrn_radiation_wavelength     0.71073
_diffrn_reflns_av_R_equivalents  0.0323
_diffrn_reflns_av_unetI/netI     0.0292
_diffrn_reflns_Laue_measured_fraction_full 0.997
_diffrn_reflns_Laue_measured_fraction_max 0.996
_diffrn_reflns_limit_h_max       4
_diffrn_reflns_limit_h_min       -4
_diffrn_reflns_limit_k_max       26
_diffrn_reflns_limit_k_min       -26
_diffrn_reflns_limit_l_max       10
_diffrn_reflns_limit_l_min       -10
_diffrn_reflns_number            10026
_diffrn_reflns_point_group_measured_fraction_full 0.997
_diffrn_reflns_point_group_measured_fraction_max 0.996
_diffrn_reflns_theta_full        26.000
_diffrn_reflns_theta_max         27.467
_diffrn_reflns_theta_min         1.974
_diffrn_standards_number         0
_exptl_absorpt_coefficient_mu    0.146
_exptl_absorpt_correction_T_max  0.7456
_exptl_absorpt_correction_T_min  0.6643
_exptl_absorpt_correction_type   multi-scan
_exptl_absorpt_process_details
;
SADABS-2008/1 (Bruker,2008) was used for absorption correction.
wR2(int) was 0.0957 before and 0.0556 after correction.
The Ratio of minimum to maximum transmission is 0.8910.
The \l/2 correction factor is 0.0015.
;
_exptl_crystal_colour            'clear whiteish colourless'
_exptl_crystal_colour_lustre     clear
_exptl_crystal_colour_modifier   whiteish
_exptl_crystal_colour_primary    colourless
_exptl_crystal_density_diffrn    1.656
_exptl_crystal_description       block
_exptl_crystal_F_000             312
_exptl_crystal_size_max          0.24
_exptl_crystal_size_mid          0.22
_exptl_crystal_size_min          0.2
_refine_diff_density_max         0.185
_refine_diff_density_min         -0.257
_refine_diff_density_rms         0.070
_refine_ls_abs_structure_details
;
 Refined as an inversion twin.
;
_refine_ls_abs_structure_Flack   0.6(15)
_refine_ls_extinction_method     none
_refine_ls_goodness_of_fit_ref   1.105
_refine_ls_hydrogen_treatment    refall
_refine_ls_matrix_type           full
_refine_ls_number_parameters     238
_refine_ls_number_reflns         2724
_refine_ls_number_restraints     1
_refine_ls_restrained_S_all      1.105
_refine_ls_R_factor_all          0.0292
_refine_ls_R_factor_gt           0.0282
_refine_ls_shift/su_max          0.001
_refine_ls_shift/su_mean         0.000
_refine_ls_structure_factor_coef Fsqd
_refine_ls_weighting_details
'w=1/[\s^2^(Fo^2^)+(0.0404P)^2^] where P=(Fo^2^+2Fc^2^)/3'
_refine_ls_weighting_scheme      calc
_refine_ls_wR_factor_gt          0.0668
_refine_ls_wR_factor_ref         0.0674
_reflns_Friedel_coverage         0.946
_reflns_Friedel_fraction_full    0.997
_reflns_Friedel_fraction_max     0.996
_reflns_number_gt                2649
_reflns_number_total             2724
_reflns_threshold_expression     'I > 2\s(I)'
_cod_data_source_file            c7ta05905a2.cif
_cod_data_source_block           mo_2016827_0m
_cod_original_cell_volume        598.23(17)
_cod_database_code               7236630
_shelx_space_group_comment
;
The symmetry employed for this shelxl refinement is uniquely defined
by the following loop, which should always be used as a source of
symmetry information in preference to the above space-group names.
They are only intended as comments.
;
_olex2_refinement_description
;
1. Twinned data refinement
 Scales: 0.4(15) 0.6(15)
;
_shelx_res_file
;
    mo_2016827_0m.res created by SHELXL-2014/7

TITL mo_2016827_0m_a.res in P2(1)
REM Old TITL mo_2016827_0m in P2(1)
REM SHELXT solution in P2(1)
REM R1 0.091, Rweak 0.042, Alpha 0.001, Orientation as input
REM Flack x = -0.411 ( 0.726 ) from Parsons' quotients
REM Formula found by SHELXT: C15 N2 O3
CELL 0.71073 3.6735 20.6325 7.9016 90 92.69 90
ZERR 2 0.0006 0.0036 0.0013 0 0.004 0
LATT -1
SYMM -X,0.5+Y,-Z
SFAC C H N O
UNIT 4 28 28 8

L.S. 4
PLAN  20 0 0
TEMP -103.15
BOND $H
list 4
MORE -1
CONF
fmap 2
acta 52
TWIN -1 0 0 0 -1 0 0 0 -1 2
REM <olex2.extras>
REM <HklSrc "%.\\mo_2016827_0m.hkl">
REM </olex2.extras>

WGHT    0.040400
BASF   0.55870
FVAR       0.31455
O2    4    0.292626    0.665396    0.436573    11.00000    0.03766    0.01228 =
         0.02386   -0.00347    0.00600   -0.00439
O1    4    0.011129    0.595343    0.589104    11.00000    0.03957    0.01741 =
         0.02044    0.00014    0.01353    0.00263
O1W   4    0.941795    0.312899    0.513478    11.00000    0.02801    0.01805 =
         0.02004    0.00128    0.00108   -0.00060
O2W   4    0.660928    0.270438    0.807112    11.00000    0.05203    0.01926 =
         0.02689   -0.00018    0.01418   -0.00066
N1    3    0.181241    0.609176    0.458667    11.00000    0.02098    0.01264 =
         0.01784   -0.00076    0.00154    0.00217
N6    3    0.490489    0.526033    0.104716    11.00000    0.01793    0.01369 =
         0.01254    0.00098    0.00232    0.00028
N10   3    0.594276    0.429482    0.270912    11.00000    0.02141    0.01399 =
         0.01561    0.00019    0.00131    0.00172
N13   3    0.772524    0.717677    0.704251    11.00000    0.01458    0.01624 =
         0.01903   -0.00148    0.00182   -0.00110
N7    3    0.326288    0.418232    0.013978    11.00000    0.02430    0.01400 =
         0.01997   -0.00101   -0.00255   -0.00033
N14   3    1.048272    0.729589    0.838124    11.00000    0.01656    0.01352 =
         0.01842   -0.00013    0.00038   -0.00047
N11   3    0.166965    0.442275    0.574693    11.00000    0.01472    0.01909 =
         0.01545   -0.00034    0.00153   -0.00036
N12   3   -0.097087    0.460961    0.695973    11.00000    0.01642    0.01915 =
         0.01463   -0.00162    0.00247    0.00072
N2    3    0.228768    0.560649    0.352255    11.00000    0.02101    0.01284 =
         0.01608   -0.00167    0.00365   -0.00021
N9    3    0.523295    0.366488    0.239231    11.00000    0.02173    0.01358 =
         0.02066    0.00096    0.00378    0.00214
N3    3    0.484632    0.630871    0.130793    11.00000    0.02248    0.01409 =
         0.01997    0.00158    0.00454   -0.00083
N8    3    0.367313    0.359806    0.087255    11.00000    0.02532    0.01438 =
         0.02392   -0.00107   -0.00026   -0.00069
N5    3    0.634529    0.550832   -0.036713    11.00000    0.02445    0.01674 =
         0.01742    0.00287    0.00545    0.00033
N4    3    0.627362    0.612717   -0.019003    11.00000    0.02692    0.01694 =
         0.02155    0.00211    0.00628    0.00117
C1    1    0.398987    0.575810    0.207754    11.00000    0.01330    0.01299 =
         0.01698   -0.00194   -0.00165    0.00010
C2    1    0.468210    0.458389    0.130625    11.00000    0.01403    0.01292 =
         0.01403   -0.00050    0.00253    0.00106
H14A  2    0.995926    0.769724    0.878882    11.00000    0.01859
H14B  2    0.999667    0.699332    0.920274    11.00000    0.01952
H11A  2    0.404347    0.449877    0.612220    11.00000    0.03334
H12A  2   -0.074928    0.502024    0.705382    11.00000    0.01776
H13A  2    0.541562    0.720067    0.733119    11.00000    0.02066
H11B  2    0.126268    0.401795    0.539354    11.00000    0.02400
H13B  2    0.797123    0.743514    0.619951    11.00000    0.02765
H12B  2   -0.006032    0.445735    0.796526    11.00000    0.02908
H1WA  2    0.765871    0.320747    0.442003    11.00000    0.03971
H11C  2    0.143137    0.468535    0.488690    11.00000    0.02453
H13C  2    0.812416    0.677714    0.662854    11.00000    0.02311
H1WB  2    0.850875    0.299337    0.612231    11.00000    0.05039
H2WA  2    0.599724    0.233536    0.814248    11.00000    0.05450
H2WB  2    0.521327    0.294574    0.871285    11.00000    0.04218
HKLF 4

REM  mo_2016827_0m_a.res in P2(1)
REM R1 =  0.0282 for    2649 Fo > 4sig(Fo)  and  0.0292 for all    2724 data
REM    238 parameters refined using      1 restraints

END

WGHT      0.0402      0.0000

REM Highest difference peak  0.185,  deepest hole -0.257,  1-sigma level  0.070
Q1    1   0.1078  0.4271 -0.0203  11.00000  0.05    0.18
Q2    1   1.2711  0.7372  0.7945  11.00000  0.05    0.18
Q3    1  -0.0699  0.3691  0.1250  11.00000  0.05    0.18
Q4    1   0.9327  0.7202  1.1259  11.00000  0.05    0.18
Q5    1   0.3825  0.3845  0.7825  11.00000  0.05    0.17
Q6    1   0.6288  0.3358  0.3070  11.00000  0.05    0.17
Q7    1   1.0661  0.6765  1.0885  11.00000  0.05    0.17
Q8    1   0.8693  0.4276  0.2770  11.00000  0.05    0.16
Q9    1   0.1394  0.5953 -0.0940  11.00000  0.05    0.16
Q10   1   0.2135  0.1987  0.7384  11.00000  0.05    0.16
Q11   1   0.8657  0.3323  0.2111  11.00000  0.05    0.16
Q12   1   0.8469  0.6812  0.2162  11.00000  0.05    0.16
Q13   1   0.7530  0.3573  0.2826  11.00000  0.05    0.15
Q14   1   0.2686  0.5312  0.7781  11.00000  0.05    0.15
Q15   1   0.6401  0.4400  0.4978  11.00000  0.05    0.15
Q16   1   0.0567  0.5065  0.9488  11.00000  0.05    0.15
Q17   1  -0.3761  0.6062  0.5830  11.00000  0.05    0.15
Q18   1  -0.1355  0.5152  0.2675  11.00000  0.05    0.15
Q19   1   0.5612  0.3470  0.4090  11.00000  0.05    0.15
Q20   1   0.5142  0.2945  0.4405  11.00000  0.05    0.15
;
_shelx_res_checksum              24446
_shelx_shelxl_version_number     2014/7
_olex2_submission_special_instructions 'No special instructions were received'
loop_
_space_group_symop_operation_xyz
'x, y, z'
'-x, y+1/2, -z'
loop_
_atom_site_label
_atom_site_type_symbol
_atom_site_fract_x
_atom_site_fract_y
_atom_site_fract_z
_atom_site_U_iso_or_equiv
_atom_site_adp_type
_atom_site_occupancy
_atom_site_site_symmetry_order
_atom_site_calc_flag
O2 O 0.2926(5) 0.66540(7) 0.4366(2) 0.0245(4) Uani 1 1 d
O1 O 0.0111(5) 0.59534(7) 0.5891(2) 0.0254(4) Uani 1 1 d
O1W O 0.9418(4) 0.31290(7) 0.5135(2) 0.0220(3) Uani 1 1 d
O2W O 0.6609(6) 0.27044(10) 0.8071(2) 0.0323(4) Uani 1 1 d
N1 N 0.1812(5) 0.60918(8) 0.4587(2) 0.0171(3) Uani 1 1 d
N6 N 0.4905(4) 0.52603(8) 0.1047(2) 0.0147(3) Uani 1 1 d
N10 N 0.5943(5) 0.42948(8) 0.2709(2) 0.0170(4) Uani 1 1 d
N13 N 0.7725(5) 0.71768(9) 0.7043(2) 0.0166(3) Uani 1 1 d
N7 N 0.3263(5) 0.41823(8) 0.0140(2) 0.0195(4) Uani 1 1 d
N14 N 1.0483(4) 0.72959(8) 0.8381(2) 0.0162(3) Uani 1 1 d
N11 N 0.1670(5) 0.44228(9) 0.5747(2) 0.0164(3) Uani 1 1 d
N12 N -0.0971(4) 0.46096(9) 0.6960(2) 0.0167(3) Uani 1 1 d
N2 N 0.2288(5) 0.56065(8) 0.3523(2) 0.0166(3) Uani 1 1 d
N9 N 0.5233(5) 0.36649(8) 0.2392(2) 0.0186(4) Uani 1 1 d
N3 N 0.4846(5) 0.63087(9) 0.1308(2) 0.0187(4) Uani 1 1 d
N8 N 0.3673(5) 0.35981(9) 0.0873(2) 0.0213(4) Uani 1 1 d
N5 N 0.6345(5) 0.55083(9) -0.0367(2) 0.0194(4) Uani 1 1 d
N4 N 0.6274(5) 0.61272(8) -0.0190(2) 0.0216(4) Uani 1 1 d
C1 C 0.3990(5) 0.57581(9) 0.2078(3) 0.0145(4) Uani 1 1 d
C2 C 0.4682(5) 0.45839(9) 0.1306(2) 0.0136(4) Uani 1 1 d
H14A H 0.996(7) 0.7697(14) 0.879(3) 0.019(6) Uiso 1 1 d
H14B H 1.000(7) 0.6993(14) 0.920(4) 0.020(6) Uiso 1 1 d
H11A H 0.404(9) 0.4499(16) 0.612(4) 0.033(7) Uiso 1 1 d
H12A H -0.075(7) 0.5020(15) 0.705(3) 0.018(6) Uiso 1 1 d
H13A H 0.542(8) 0.7201(13) 0.733(3) 0.021(6) Uiso 1 1 d
H11B H 0.126(7) 0.4018(16) 0.539(4) 0.024(7) Uiso 1 1 d
H13B H 0.797(8) 0.7435(15) 0.620(4) 0.028(7) Uiso 1 1 d
H12B H -0.006(8) 0.4457(16) 0.797(4) 0.029(7) Uiso 1 1 d
H1WA H 0.766(9) 0.3207(17) 0.442(4) 0.040(9) Uiso 1 1 d
H11C H 0.143(7) 0.4685(14) 0.489(4) 0.025(7) Uiso 1 1 d
H13C H 0.812(8) 0.6777(15) 0.663(3) 0.023(7) Uiso 1 1 d
H1WB H 0.851(11) 0.2993(18) 0.612(5) 0.050(10) Uiso 1 1 d
H2WA H 0.600(10) 0.234(2) 0.814(5) 0.055(11) Uiso 1 1 d
H2WB H 0.521(9) 0.2946(19) 0.871(4) 0.042(9) Uiso 1 1 d
loop_
_atom_site_aniso_label
_atom_site_aniso_U_11
_atom_site_aniso_U_22
_atom_site_aniso_U_33
_atom_site_aniso_U_23
_atom_site_aniso_U_13
_atom_site_aniso_U_12
O2 0.0377(9) 0.0123(7) 0.0239(8) -0.0035(6) 0.0060(7) -0.0044(6)
O1 0.0396(9) 0.0174(7) 0.0204(8) 0.0001(6) 0.0135(7) 0.0026(6)
O1W 0.0280(8) 0.0181(7) 0.0200(8) 0.0013(6) 0.0011(7) -0.0006(6)
O2W 0.0520(11) 0.0193(8) 0.0269(9) -0.0002(7) 0.0142(8) -0.0007(8)
N1 0.0210(8) 0.0126(8) 0.0178(9) -0.0008(6) 0.0015(7) 0.0022(6)
N6 0.0179(8) 0.0137(7) 0.0125(7) 0.0010(6) 0.0023(6) 0.0003(6)
N10 0.0214(8) 0.0140(8) 0.0156(8) 0.0002(6) 0.0013(7) 0.0017(7)
N13 0.0146(8) 0.0162(9) 0.0190(9) -0.0015(7) 0.0018(6) -0.0011(6)
N7 0.0243(9) 0.0140(8) 0.0200(9) -0.0010(6) -0.0026(7) -0.0003(7)
N14 0.0166(8) 0.0135(8) 0.0184(8) -0.0001(7) 0.0004(6) -0.0005(6)
N11 0.0147(8) 0.0191(9) 0.0154(8) -0.0003(7) 0.0015(6) -0.0004(6)
N12 0.0164(8) 0.0192(9) 0.0146(8) -0.0016(6) 0.0025(6) 0.0007(7)
N2 0.0210(8) 0.0128(7) 0.0161(8) -0.0017(6) 0.0036(6) -0.0002(6)
N9 0.0217(8) 0.0136(8) 0.0207(8) 0.0010(7) 0.0038(7) 0.0021(7)
N3 0.0225(9) 0.0141(8) 0.0200(9) 0.0016(7) 0.0045(7) -0.0008(6)
N8 0.0253(9) 0.0144(8) 0.0239(9) -0.0011(7) -0.0003(7) -0.0007(7)
N5 0.0245(9) 0.0167(8) 0.0174(8) 0.0029(6) 0.0054(7) 0.0003(7)
N4 0.0269(9) 0.0169(8) 0.0215(9) 0.0021(7) 0.0063(7) 0.0012(7)
C1 0.0133(8) 0.0130(9) 0.0170(9) -0.0019(7) -0.0016(7) 0.0001(7)
C2 0.0140(8) 0.0129(9) 0.0140(9) -0.0005(7) 0.0025(7) 0.0011(7)
loop_
_atom_type_symbol
_atom_type_description
_atom_type_scat_dispersion_real
_atom_type_scat_dispersion_imag
_atom_type_scat_source
C C 0.0033 0.0016 'International Tables Vol C Tables 4.2.6.8 and 6.1.1.4'
H H 0.0000 0.0000 'International Tables Vol C Tables 4.2.6.8 and 6.1.1.4'
N N 0.0061 0.0033 'International Tables Vol C Tables 4.2.6.8 and 6.1.1.4'
O O 0.0106 0.0060 'International Tables Vol C Tables 4.2.6.8 and 6.1.1.4'
loop_
_geom_angle_atom_site_label_1
_geom_angle_atom_site_label_2
_geom_angle_atom_site_label_3
_geom_angle
H1WA O1W H1WB 109(3)
H2WA O2W H2WB 109(4)
O2 N1 O1 120.23(17)
O2 N1 N2 124.15(19)
O1 N1 N2 115.62(17)
N5 N6 C1 108.91(17)
N5 N6 C2 121.22(16)
C1 N6 C2 129.80(17)
C2 N10 N9 102.84(16)
N14 N13 H13A 116.4(18)
N14 N13 H13B 111.3(19)
N14 N13 H13C 107.4(18)
H13A N13 H13B 107(3)
H13A N13 H13C 108(3)
H13B N13 H13C 105(3)
C2 N7 N8 103.21(17)
N13 N14 H14A 105.0(15)
N13 N14 H14B 104.3(17)
H14A N14 H14B 108(2)
N12 N11 H11A 113.3(19)
N12 N11 H11B 110.4(19)
N12 N11 H11C 107.8(19)
H11A N11 H11B 114(3)
H11A N11 H11C 102(3)
H11B N11 H11C 109(3)
N11 N12 H12A 104.9(18)
N11 N12 H12B 104.9(19)
H12A N12 H12B 104(3)
N1 N2 C1 115.94(17)
N8 N9 N10 110.10(16)
C1 N3 N4 105.63(17)
N9 N8 N7 109.59(16)
N4 N5 N6 105.90(17)
N5 N4 N3 112.13(17)
N6 C1 N2 117.59(17)
N3 C1 N6 107.44(18)
N3 C1 N2 134.81(19)
N10 C2 N6 123.09(16)
N10 C2 N7 114.26(17)
N7 C2 N6 122.63(17)
loop_
_geom_bond_atom_site_label_1
_geom_bond_atom_site_label_2
_geom_bond_distance
O2 N1 1.245(2)
O1 N1 1.263(2)
O1W H1WA 0.85(3)
O1W H1WB 0.91(4)
O2W H2WA 0.80(4)
O2W H2WB 0.89(4)
N1 N2 1.324(2)
N6 N5 1.359(3)
N6 C1 1.362(3)
N6 C2 1.414(2)
N10 N9 1.347(2)
N10 C2 1.323(3)
N13 N14 1.451(2)
N13 H13A 0.89(3)
N13 H13B 0.86(3)
N13 H13C 0.90(3)
N7 N8 1.343(2)
N7 C2 1.328(3)
N14 H14A 0.91(3)
N14 H14B 0.92(3)
N11 N12 1.447(2)
N11 H11A 0.92(3)
N11 H11B 0.89(3)
N11 H11C 0.87(3)
N12 H12A 0.85(3)
N12 H12B 0.90(3)
N2 C1 1.364(3)
N9 N8 1.313(3)
N3 N4 1.369(3)
N3 C1 1.333(3)
N5 N4 1.285(2)
loop_
_geom_torsion_atom_site_label_1
_geom_torsion_atom_site_label_2
_geom_torsion_atom_site_label_3
_geom_torsion_atom_site_label_4
_geom_torsion
O2 N1 N2 C1 -2.7(3)
O1 N1 N2 C1 177.40(17)
N1 N2 C1 N6 172.57(17)
N1 N2 C1 N3 -12.9(3)
N6 N5 N4 N3 0.4(2)
N10 N9 N8 N7 -0.7(2)
N9 N10 C2 N6 -178.79(17)
N9 N10 C2 N7 -0.3(2)
N8 N7 C2 N6 178.42(17)
N8 N7 C2 N10 0.0(2)
N5 N6 C1 N2 176.10(16)
N5 N6 C1 N3 0.1(2)
N5 N6 C2 N10 128.0(2)
N5 N6 C2 N7 -50.3(3)
N4 N3 C1 N6 0.1(2)
N4 N3 C1 N2 -174.9(2)
C1 N6 N5 N4 -0.3(2)
C1 N6 C2 N10 -48.8(3)
C1 N6 C2 N7 132.9(2)
C1 N3 N4 N5 -0.3(2)
C2 N6 N5 N4 -177.72(16)
C2 N6 C1 N2 -6.8(3)
C2 N6 C1 N3 177.27(18)
C2 N10 N9 N8 0.6(2)
C2 N7 N8 N9 0.4(2)
loop_
_twin_individual_id
_twin_individual_mass_fraction_refined
1 0.4(15)
2 0.6(15)
