#------------------------------------------------------------------------------
#$Date: 2019-11-24 02:51:25 +0200 (Sun, 24 Nov 2019) $
#$Revision: 236343 $
#$URL: file:///home/coder/svn-repositories/cod/cif/7/23/65/7236599.cif $
#------------------------------------------------------------------------------
#
# This file is available in the Crystallography Open Database (COD),
# http://www.crystallography.net/
#
# All data on this site have been placed in the public domain by the
# contributors.
#
data_7236599
loop_
_publ_author_name
'Tathavadekar, Mukta'
'Krishnamurthy, Shrreya'
'Banerjee, Aparna'
'Nagane, Satyawan'
'Gawli, Yogesh'
'Suryawanshi, Anil'
'Bhat, Suresh'
'Puthusseri, Dhanya'
'Mohite, Aditya D.'
'Ogale, Satishchandra'
_publ_section_title
;
 Low-dimensional hybrid perovskites as high performance anodes for
 alkali-ion batteries
;
_journal_issue                   35
_journal_name_full               'Journal of Materials Chemistry A'
_journal_page_first              18634
_journal_paper_doi               10.1039/C7TA04529H
_journal_volume                  5
_journal_year                    2017
_chemical_formula_moiety         C6H9I3NOPb
_chemical_formula_sum            'C6 H9 I3 N O Pb'
_chemical_formula_weight         699.03
_chemical_name_systematic        Bz-Pb-I
_space_group_crystal_system      monoclinic
_space_group_IT_number           14
_space_group_name_Hall           '-P 2ybc'
_space_group_name_H-M_alt        'P 1 21/c 1'
_atom_sites_solution_hydrogens   geom
_audit_creation_method           SHELXL-2014/7
_audit_update_record
;
2017-02-24 deposited with the CCDC.
2017-07-24 downloaded from the CCDC.
;
_cell_angle_alpha                90
_cell_angle_beta                 89.879(13)
_cell_angle_gamma                90
_cell_formula_units_Z            4
_cell_length_a                   4.481(3)
_cell_length_b                   13.193(9)
_cell_length_c                   22.544(15)
_cell_measurement_reflns_used    8369
_cell_measurement_temperature    100(2)
_cell_measurement_theta_max      28.25
_cell_measurement_theta_min      2.38
_cell_volume                     1332.7(16)
_computing_cell_refinement       'Bruker SAINT'
_computing_data_collection       'Bruker APEX2'
_computing_data_reduction        'Bruker SAINT'
_computing_molecular_graphics    'Bruker SHELXTL'
_computing_publication_material  'Bruker SHELXTL'
_computing_structure_refinement  'SHELXL-2014 (Sheldrick 2014)'
_computing_structure_solution    'SHELXS-97 (Sheldrick 2008)'
_diffrn_ambient_temperature      100(2)
_diffrn_measured_fraction_theta_full 0.996
_diffrn_measured_fraction_theta_max 0.996
_diffrn_measurement_device_type  'Bruker APEX-II CCD'
_diffrn_measurement_method       'omega and phi scans'
_diffrn_radiation_source         'fine-focus sealed tube'
_diffrn_radiation_type           MoK\a
_diffrn_radiation_wavelength     0.71073
_diffrn_reflns_av_R_equivalents  0.0473
_diffrn_reflns_av_unetI/netI     0.0280
_diffrn_reflns_Laue_measured_fraction_full 0.996
_diffrn_reflns_Laue_measured_fraction_max 0.996
_diffrn_reflns_limit_h_max       5
_diffrn_reflns_limit_h_min       -5
_diffrn_reflns_limit_k_max       15
_diffrn_reflns_limit_k_min       -14
_diffrn_reflns_limit_l_max       26
_diffrn_reflns_limit_l_min       -26
_diffrn_reflns_number            17207
_diffrn_reflns_point_group_measured_fraction_full 0.996
_diffrn_reflns_point_group_measured_fraction_max 0.996
_diffrn_reflns_theta_full        25.009
_diffrn_reflns_theta_max         25.009
_diffrn_reflns_theta_min         4.111
_exptl_absorpt_coefficient_mu    19.573
_exptl_absorpt_correction_T_max  0.7457
_exptl_absorpt_correction_T_min  0.4076
_exptl_absorpt_correction_type   multi-scan
_exptl_absorpt_process_details   'SADABS;Universitat Gottingen,1997'
_exptl_crystal_colour            'yellow coloured'
_exptl_crystal_density_diffrn    3.484
_exptl_crystal_density_method    'not measured'
_exptl_crystal_description       needle
_exptl_crystal_F_000             1204
_exptl_crystal_size_max          0.14
_exptl_crystal_size_mid          0.06
_exptl_crystal_size_min          0.05
_refine_diff_density_max         2.536
_refine_diff_density_min         -4.152
_refine_diff_density_rms         0.465
_refine_ls_extinction_method     none
_refine_ls_goodness_of_fit_ref   1.387
_refine_ls_hydrogen_treatment    constr
_refine_ls_matrix_type           full
_refine_ls_number_parameters     81
_refine_ls_number_reflns         2353
_refine_ls_number_restraints     72
_refine_ls_restrained_S_all      1.367
_refine_ls_R_factor_all          0.0740
_refine_ls_R_factor_gt           0.0722
_refine_ls_shift/su_max          0.046
_refine_ls_shift/su_mean         0.001
_refine_ls_structure_factor_coef Fsqd
_refine_ls_weighting_details
'w=1/[\s^2^(Fo^2^)+205.0542P] where P=(Fo^2^+2Fc^2^)/3'
_refine_ls_weighting_scheme      calc
_refine_ls_wR_factor_gt          0.1792
_refine_ls_wR_factor_ref         0.1798
_reflns_Friedel_coverage         0.000
_reflns_number_gt                2277
_reflns_number_total             2353
_reflns_threshold_expression     'I > 2\s(I)'
_cod_data_source_file            c7ta04529h2.cif
_cod_data_source_block           Bz-Pb-I
_cod_original_cell_volume        1332.8(15)
_cod_original_sg_symbol_H-M      'P 21/c'
_cod_database_code               7236599
_shelx_shelxl_version_number     2014/7
_shelx_space_group_comment
;
The symmetry employed for this shelxl refinement is uniquely defined
by the following loop, which should always be used as a source of
symmetry information in preference to the above space-group names.
They are only intended as comments.
;
_shelx_res_file
;

    TR2_a.res created by SHELXL-2014/7


TITL TR2_a.res in P2(1)/c
CELL  0.71073   4.4811  13.1934  22.5436   90.000   89.879   90.000
ZERR   4.000   0.0029   0.0086   0.0145    0.000    0.013    0.000
LATT 1
SYMM -X, 1/2+Y, 1/2-Z
SFAC C  H  N  I  Pb O
UNIT 24  36  4  12  4  4
LIST 6 ! automatically inserted. Change 6 to 4 for CHECKCIF!!
L.S. 10
ACTA
SHEL 0.84 5
BOND $H
FMAP 2
PLAN 20
FLAT 0.1 C1A N1A C2A C6A
FLAT 0.1 C1B N1B C2B C6B
TEMP -173.000
WGHT    0.000000  205.054199
FVAR       0.14104   0.30083
PB1   5    0.744585    0.474708    0.408655    11.00000    0.01937    0.02183 =
         0.01985    0.00087    0.00007    0.00012
I2    4    0.749087    0.585490    0.288158    11.00000    0.02308    0.02035 =
         0.02166    0.00250   -0.00085   -0.00001
I1    4    1.243516    0.629795    0.456630    11.00000    0.02815    0.02002 =
         0.02206    0.00057    0.00065    0.00072
I3    4    1.239599    0.314845    0.367203    11.00000    0.02957    0.01991 =
         0.03109   -0.00055   -0.00121    0.00033
SIMU N1A > C6B
SAME N1A C1A C6A < C2A
SAME N1B > C6B
PART 1
N1A   3    0.685851    0.916444    0.296704    21.00000    0.03897
AFIX 137
H1A1  2    0.521858    0.875899    0.298722    21.00000   -1.50000
H1A2  2    0.833801    0.883722    0.276696    21.00000   -1.50000
H1A3  2    0.638761    0.974810    0.277358    21.00000   -1.50000
AFIX  66
C1A   1    0.785905    0.940058    0.355874    21.00000    0.02424
C2A   1    0.857709    1.039365    0.370686    21.00000    0.04888
AFIX  43
H2A   2    0.840191    1.091589    0.341891    21.00000   -1.20000
AFIX  65
C3A   1    0.955144    1.062259    0.427628    21.00000    0.05362
AFIX  43
H3A   2    1.004219    1.130131    0.437751    21.00000   -1.20000
AFIX  65
C4A   1    0.980776    0.985847    0.469759    21.00000    0.04767
C5A   1    0.908973    0.886540    0.454948    21.00000    0.05511
AFIX  43
H5A   2    0.926491    0.834316    0.483743    21.00000   -1.20000
AFIX  65
C6A   1    0.811537    0.863644    0.398006    21.00000    0.04793
AFIX  43
H6A   2    0.762462    0.795772    0.387884    21.00000   -1.20000
AFIX   0
PART 2
N1B   3    0.761646    0.911429    0.292782   -21.00000    0.02838
AFIX 137
H1B1  2    0.961728    0.912722    0.285834   -21.00000   -1.50000
H1B2  2    0.668996    0.955988    0.268119   -21.00000   -1.50000
H1B3  2    0.690629    0.847853    0.286045   -21.00000   -1.50000
AFIX  66
C1B   1    0.704071    0.939452    0.353417   -21.00000    0.03600
C2B   1    0.681809    0.864347    0.396439   -21.00000    0.05398
AFIX  43
H2B   2    0.712185    0.795352    0.385989   -21.00000   -1.20000
AFIX  65
C3B   1    0.615101    0.890192    0.454752   -21.00000    0.06976
AFIX  43
H3B   2    0.599886    0.838861    0.484156   -21.00000   -1.20000
AFIX  65
C4B   1    0.570656    0.991142    0.470043   -21.00000    0.05581
C5B   1    0.592917    1.066248    0.427021   -21.00000    0.07051
AFIX  43
H5B   2    0.562540    1.135243    0.437471   -21.00000   -1.20000
AFIX  65
C6B   1    0.659624    1.040404    0.368708   -21.00000    0.04687
AFIX  43
H6B   2    0.674839    1.091736    0.339304   -21.00000   -1.20000
PART 0
AFIX   0
O1S   6    0.255145    0.796342    0.263786    11.00000    0.03431    0.02086 =
         0.04243    0.00243   -0.00701    0.00148
HKLF 4

REM  TR2_a.res in P2(1)/c
REM R1 =  0.0722 for    2277 Fo > 4sig(Fo)  and  0.0740 for all    2353 data
REM     81 parameters refined using     72 restraints

END

WGHT      0.0000    205.0769

REM Highest difference peak  2.536,  deepest hole -4.152,  1-sigma level  0.465
Q1    1   0.2680  1.0764  0.3090  11.00000  0.05    2.54
Q2    1   0.7152  1.0453  0.4271  11.00000  0.05    2.52
Q3    1   0.2508  0.7601  0.2259  11.00000  0.05    2.45
Q4    1   1.4094  0.3121  0.3727  11.00000  0.05    2.38
Q5    1   0.9068  0.4702  0.4117  11.00000  0.05    2.29
Q6    1   0.7896  0.6913  0.5117  11.00000  0.05    1.93
Q7    1   1.2338  0.5420  0.3533  11.00000  0.05    1.84
Q8    1   0.2827  0.9760  0.4543  11.00000  0.05    1.80
Q9    1   1.1267  1.1955  0.3206  11.00000  0.05    1.72
Q10   1   0.4337  1.0459  0.4300  11.00000  0.05    1.71
Q11   1   0.6802  0.4712  0.2725  11.00000  0.05    1.69
Q12   1   0.7726  0.8121  0.4861  11.00000  0.05    1.67
Q13   1   0.6257  1.0344  0.2720  11.00000  0.05    1.65
Q14   1   0.7713  0.3617  0.4381  11.00000  0.05    1.62
Q15   1   0.1105  0.8585  0.2312  11.00000  0.05    1.62
Q16   1   0.6958  0.4569  0.4495  11.00000  0.05    1.57
Q17   1   0.3966  0.8393  0.2257  11.00000  0.05    1.54
Q18   1   1.4256  0.6217  0.4666  11.00000  0.05    1.53
Q19   1   0.7844  0.6978  0.3637  11.00000  0.05    1.52
Q20   1   1.2095  0.2002  0.3813  11.00000  0.05    1.49
;
_shelx_res_checksum              84617
loop_
_space_group_symop_operation_xyz
'x, y, z'
'-x, y+1/2, -z+1/2'
'-x, -y, -z'
'x, -y-1/2, z-1/2'
loop_
_atom_site_label
_atom_site_type_symbol
_atom_site_fract_x
_atom_site_fract_y
_atom_site_fract_z
_atom_site_U_iso_or_equiv
_atom_site_adp_type
_atom_site_occupancy
_atom_site_site_symmetry_order
_atom_site_calc_flag
_atom_site_refinement_flags_posn
_atom_site_refinement_flags_adp
_atom_site_refinement_flags_occupancy
_atom_site_disorder_assembly
_atom_site_disorder_group
Pb1 Pb 0.7446(2) 0.47471(8) 0.40866(4) 0.0203(3) Uani 1 1 d . . . . .
I2 I 0.7491(4) 0.58549(13) 0.28816(8) 0.0217(4) Uani 1 1 d . . . . .
I1 I 1.2435(4) 0.62980(13) 0.45663(8) 0.0234(4) Uani 1 1 d . . . . .
I3 I 1.2396(5) 0.31485(14) 0.36720(9) 0.0269(5) Uani 1 1 d . . . . .
N1A N 0.69(2) 0.916(7) 0.297(3) 0.04(3) Uiso 0.30(3) 1 d D U P A 1
H1A1 H 0.5219 0.8759 0.2987 0.058 Uiso 0.30(3) 1 calc R U P A 1
H1A2 H 0.8338 0.8837 0.2767 0.058 Uiso 0.30(3) 1 calc R U P A 1
H1A3 H 0.6388 0.9748 0.2774 0.058 Uiso 0.30(3) 1 calc R U P A 1
C1A C 0.786(14) 0.940(5) 0.356(2) 0.024(14) Uiso 0.30(3) 1 d DG U P A 1
C2A C 0.858(18) 1.039(4) 0.371(3) 0.049(17) Uiso 0.30(3) 1 d DG U P A 1
H2A H 0.8402 1.0916 0.3419 0.059 Uiso 0.30(3) 1 calc R U P A 1
C3A C 0.96(2) 1.062(5) 0.428(3) 0.054(19) Uiso 0.30(3) 1 d DG U P A 1
H3A H 1.0042 1.1301 0.4378 0.064 Uiso 0.30(3) 1 calc R U P A 1
C4A C 0.981(18) 0.986(6) 0.470(2) 0.05(2) Uiso 0.30(3) 1 d DG U P A 1
C5A C 0.91(2) 0.887(5) 0.455(3) 0.055(19) Uiso 0.30(3) 1 d DG U P A 1
H5A H 0.9265 0.8343 0.4837 0.066 Uiso 0.30(3) 1 calc R U P A 1
C6A C 0.812(19) 0.864(4) 0.398(3) 0.048(17) Uiso 0.30(3) 1 d DG U P A 1
H6A H 0.7625 0.7958 0.3879 0.058 Uiso 0.30(3) 1 calc R U P A 1
N1B N 0.762(10) 0.911(3) 0.2928(14) 0.028(11) Uiso 0.70(3) 1 d D U P A 2
H1B1 H 0.9617 0.9127 0.2858 0.043 Uiso 0.70(3) 1 calc R U P A 2
H1B2 H 0.6690 0.9560 0.2681 0.043 Uiso 0.70(3) 1 calc R U P A 2
H1B3 H 0.6906 0.8479 0.2860 0.043 Uiso 0.70(3) 1 calc R U P A 2
C1B C 0.704(7) 0.939(2) 0.3534(11) 0.036(10) Uiso 0.70(3) 1 d DG U P A 2
C2B C 0.682(9) 0.864(2) 0.3964(14) 0.054(12) Uiso 0.70(3) 1 d DG U P A 2
H2B H 0.7122 0.7954 0.3860 0.065 Uiso 0.70(3) 1 calc R U P A 2
C3B C 0.615(10) 0.890(3) 0.4548(13) 0.070(14) Uiso 0.70(3) 1 d DG U P A 2
H3B H 0.5999 0.8389 0.4842 0.084 Uiso 0.70(3) 1 calc R U P A 2
C4B C 0.571(9) 0.991(3) 0.4700(12) 0.056(13) Uiso 0.70(3) 1 d DG U P A 2
C5B C 0.593(10) 1.066(2) 0.4270(15) 0.071(14) Uiso 0.70(3) 1 d DG U P A 2
H5B H 0.5625 1.1352 0.4375 0.085 Uiso 0.70(3) 1 calc R U P A 2
C6B C 0.660(9) 1.040(2) 0.3687(13) 0.047(11) Uiso 0.70(3) 1 d DG U P A 2
H6B H 0.6748 1.0917 0.3393 0.056 Uiso 0.70(3) 1 calc R U P A 2
O1S O 0.255(5) 0.7963(15) 0.2638(10) 0.033(5) Uani 1 1 d . . . . .
loop_
_atom_site_aniso_label
_atom_site_aniso_U_11
_atom_site_aniso_U_22
_atom_site_aniso_U_33
_atom_site_aniso_U_23
_atom_site_aniso_U_13
_atom_site_aniso_U_12
Pb1 0.0194(5) 0.0218(6) 0.0198(5) 0.0009(4) 0.0001(4) 0.0001(4)
I2 0.0231(9) 0.0203(9) 0.0217(9) 0.0025(7) -0.0009(7) 0.0000(8)
I1 0.0282(10) 0.0200(9) 0.0221(9) 0.0006(7) 0.0006(7) 0.0007(8)
I3 0.0296(10) 0.0199(9) 0.0311(10) -0.0006(7) -0.0012(8) 0.0003(8)
O1S 0.034(12) 0.021(10) 0.042(12) 0.002(9) -0.007(10) 0.001(9)
loop_
_atom_type_symbol
_atom_type_description
_atom_type_scat_dispersion_real
_atom_type_scat_dispersion_imag
_atom_type_scat_source
C C 0.0033 0.0016 'International Tables Vol C Tables 4.2.6.8 and 6.1.1.4'
H H 0.0000 0.0000 'International Tables Vol C Tables 4.2.6.8 and 6.1.1.4'
N N 0.0061 0.0033 'International Tables Vol C Tables 4.2.6.8 and 6.1.1.4'
I I -0.4742 1.8119 'International Tables Vol C Tables 4.2.6.8 and 6.1.1.4'
Pb Pb -3.3944 10.1111 'International Tables Vol C Tables 4.2.6.8 and 6.1.1.4'
O O 0.0106 0.0060 'International Tables Vol C Tables 4.2.6.8 and 6.1.1.4'
loop_
_geom_angle_atom_site_label_1
_geom_angle_atom_site_label_2
_geom_angle_atom_site_label_3
_geom_angle
_geom_angle_site_symmetry_1
_geom_angle_site_symmetry_3
I2 Pb1 I3 92.98(6) . .
I2 Pb1 I1 89.51(6) . .
I3 Pb1 I1 92.04(7) . .
I2 Pb1 I1 89.88(6) . 1_455
I3 Pb1 I1 177.14(6) . 1_455
I1 Pb1 I1 88.14(7) . 1_455
I2 Pb1 I3 93.32(6) . 1_455
I3 Pb1 I3 88.32(7) . 1_455
I1 Pb1 I3 177.13(6) . 1_455
I1 Pb1 I3 91.35(7) 1_455 1_455
I2 Pb1 I1 175.92(6) . 3_766
I3 Pb1 I1 88.91(6) . 3_766
I1 Pb1 I1 86.81(6) . 3_766
I1 Pb1 I1 88.24(6) 1_455 3_766
I3 Pb1 I1 90.35(6) 1_455 3_766
Pb1 I1 Pb1 88.14(7) . 1_655
Pb1 I1 Pb1 93.19(6) . 3_766
Pb1 I1 Pb1 91.76(6) 1_655 3_766
Pb1 I3 Pb1 88.33(7) . 1_655
C1A N1A H1A1 109.5 . .
C1A N1A H1A2 109.5 . .
H1A1 N1A H1A2 109.5 . .
C1A N1A H1A3 109.5 . .
H1A1 N1A H1A3 109.5 . .
H1A2 N1A H1A3 109.5 . .
C2A C1A C6A 120.0 . .
C2A C1A N1A 119.9(16) . .
C6A C1A N1A 120.1(16) . .
C3A C2A C1A 120.0 . .
C3A C2A H2A 120.0 . .
C1A C2A H2A 120.0 . .
C4A C3A C2A 120.00(8) . .
C4A C3A H3A 120.0 . .
C2A C3A H3A 120.0 . .
C3A C4A C5A 120.0 . .
C3A C4A C4A 118(10) . 3_776
C5A C4A C4A 120(10) . 3_776
C6A C5A C4A 120.0 . .
C6A C5A H5A 120.0 . .
C4A C5A H5A 120.0 . .
C5A C6A C1A 120.00(7) . .
C5A C6A H6A 120.0 . .
C1A C6A H6A 120.0 . .
C1B N1B H1B1 109.5 . .
C1B N1B H1B2 109.5 . .
H1B1 N1B H1B2 109.5 . .
C1B N1B H1B3 109.5 . .
H1B1 N1B H1B3 109.5 . .
H1B2 N1B H1B3 109.5 . .
C2B C1B C6B 120.0 . .
C2B C1B N1B 119.5(14) . .
C6B C1B N1B 120.5(14) . .
C3B C2B C1B 120.0 . .
C3B C2B H2B 120.0 . .
C1B C2B H2B 120.0 . .
C2B C3B C4B 120.0 . .
C2B C3B H3B 120.0 . .
C4B C3B H3B 120.0 . .
C3B C4B C5B 120.0 . .
C3B C4B C4B 115(5) . 3_676
C5B C4B C4B 123(5) . 3_676
C6B C5B C4B 120.0 . .
C6B C5B H5B 120.0 . .
C4B C5B H5B 120.0 . .
C5B C6B C1B 120.0 . .
C5B C6B H6B 120.0 . .
C1B C6B H6B 120.0 . .
loop_
_geom_bond_atom_site_label_1
_geom_bond_atom_site_label_2
_geom_bond_distance
_geom_bond_site_symmetry_2
Pb1 I2 3.085(3) .
Pb1 I3 3.199(3) .
Pb1 I1 3.219(3) .
Pb1 I1 3.223(2) 1_455
Pb1 I3 3.233(3) 1_455
Pb1 I1 3.336(3) 3_766
I1 Pb1 3.223(3) 1_655
I1 Pb1 3.336(3) 3_766
I3 Pb1 3.233(3) 1_655
N1A C1A 1.44(4) .
N1A H1A1 0.9101 .
N1A H1A2 0.9101 .
N1A H1A3 0.9101 .
C1A C2A 1.3900 .
C1A C6A 1.3900 .
C2A C3A 1.3900 .
C2A H2A 0.9500 .
C3A C4A 1.3900 .
C3A H3A 0.9500 .
C4A C5A 1.3900(13) .
C4A C4A 1.42(10) 3_776
C5A C6A 1.3900 .
C5A H5A 0.9500 .
C6A H6A 0.9500 .
N1B C1B 1.44(3) .
N1B H1B1 0.9100 .
N1B H1B2 0.9100 .
N1B H1B3 0.9100 .
C1B C2B 1.3900 .
C1B C6B 1.3900 .
C2B C3B 1.3900 .
C2B H2B 0.9500 .
C3B C4B 1.3900 .
C3B H3B 0.9500 .
C4B C5B 1.3900 .
C4B C4B 1.51(5) 3_676
C5B C6B 1.3900 .
C5B H5B 0.9500 .
C6B H6B 0.9500 .
