#------------------------------------------------------------------------------
#$Date: 2020-10-06 10:58:35 +0300 (Tue, 06 Oct 2020) $
#$Revision: 257468 $
#$URL: file:///home/coder/svn-repositories/cod/cif/7/23/69/7236913.cif $
#------------------------------------------------------------------------------
#
# This file is available in the Crystallography Open Database (COD),
# http://www.crystallography.net/
#
# All data on this site have been placed in the public domain by the
# contributors.
#
data_7236913
loop_
_publ_author_name
'Gao, Wei'
'Huang, Hong'
'Zhou, Ai-Mei'
'Wei, Han'
'Liu, Jie-Ping'
'Zhang, Xiu-Mei'
_publ_section_title
;
 Three 3D LnIII-MOFs based on a nitro-functionalized
 biphenyltricarboxylate ligand: syntheses, structures, and magnetic
 properties
;
_journal_issue                   2
_journal_name_full               CrystEngComm
_journal_page_first              267
_journal_page_last               274
_journal_paper_doi               10.1039/C9CE01245A
_journal_volume                  22
_journal_year                    2020
_chemical_formula_sum            'C15 H12 Dy N O11'
_chemical_formula_weight         544.76
_space_group_crystal_system      triclinic
_space_group_IT_number           2
_space_group_name_Hall           '-P 1'
_space_group_name_H-M_alt        'P -1'
_atom_sites_solution_hydrogens   mixed
_audit_creation_method           SHELXL-2014/7
_audit_update_record
;
2019-10-18 deposited with the CCDC.	2019-11-21 downloaded from the CCDC.
;
_cell_angle_alpha                93.605(4)
_cell_angle_beta                 108.083(4)
_cell_angle_gamma                112.343(3)
_cell_formula_units_Z            2
_cell_length_a                   9.4885(11)
_cell_length_b                   9.5857(10)
_cell_length_c                   12.4176(14)
_cell_measurement_reflns_used    9978
_cell_measurement_temperature    293(2)
_cell_measurement_theta_max      27.50
_cell_measurement_theta_min      3.21
_cell_volume                     971.80(19)
_computing_cell_refinement       'Bruker SMART'
_computing_data_collection       'Bruker SMART'
_computing_data_reduction        'Bruker SAINT'
_computing_molecular_graphics    'Bruker SHELXTL'
_computing_publication_material  'Bruker SHELXTL'
_computing_structure_refinement  'SHELXL-2014/7 (Sheldrick, 2014)'
_computing_structure_solution    'Bruker SHELXTL'
_diffrn_ambient_temperature      293(2)
_diffrn_measured_fraction_theta_full 0.997
_diffrn_measured_fraction_theta_max 0.997
_diffrn_measurement_device_type  'CCD area detector'
_diffrn_measurement_method       'phi and omega scans'
_diffrn_radiation_type           MoK\a
_diffrn_radiation_wavelength     0.71073
_diffrn_reflns_av_R_equivalents  0.0307
_diffrn_reflns_av_unetI/netI     0.0200
_diffrn_reflns_Laue_measured_fraction_full 0.997
_diffrn_reflns_Laue_measured_fraction_max 0.997
_diffrn_reflns_limit_h_max       11
_diffrn_reflns_limit_h_min       -11
_diffrn_reflns_limit_k_max       11
_diffrn_reflns_limit_k_min       -11
_diffrn_reflns_limit_l_max       14
_diffrn_reflns_limit_l_min       -14
_diffrn_reflns_number            19762
_diffrn_reflns_point_group_measured_fraction_full 0.997
_diffrn_reflns_point_group_measured_fraction_max 0.997
_diffrn_reflns_theta_full        25.006
_diffrn_reflns_theta_max         25.006
_diffrn_reflns_theta_min         3.213
_diffrn_source                   'fine-focus sealed tube'
_exptl_absorpt_coefficient_mu    3.901
_exptl_absorpt_correction_type   none
_exptl_crystal_colour            colorless
_exptl_crystal_density_diffrn    1.862
_exptl_crystal_density_method    'not measured'
_exptl_crystal_description       block
_exptl_crystal_F_000             526
_exptl_crystal_size_max          0.100
_exptl_crystal_size_mid          0.100
_exptl_crystal_size_min          0.080
_refine_diff_density_max         1.803
_refine_diff_density_min         -1.371
_refine_diff_density_rms         0.168
_refine_ls_extinction_method     none
_refine_ls_goodness_of_fit_ref   1.044
_refine_ls_hydrogen_treatment    mixed
_refine_ls_matrix_type           full
_refine_ls_number_parameters     293
_refine_ls_number_reflns         3425
_refine_ls_number_restraints     781
_refine_ls_restrained_S_all      1.026
_refine_ls_R_factor_all          0.0368
_refine_ls_R_factor_gt           0.0342
_refine_ls_shift/su_max          0.002
_refine_ls_shift/su_mean         0.000
_refine_ls_structure_factor_coef Fsqd
_refine_ls_weighting_details
'w=1/[\s^2^(Fo^2^)+(0.0510P)^2^+8.8381P] where P=(Fo^2^+2Fc^2^)/3'
_refine_ls_weighting_scheme      calc
_refine_ls_wR_factor_gt          0.0954
_refine_ls_wR_factor_ref         0.0974
_reflns_Friedel_coverage         0.000
_reflns_number_gt                3239
_reflns_number_total             3425
_reflns_threshold_expression     'I > 2\s(I)'
_cod_data_source_file            c9ce01245a2.cif
_cod_data_source_block           4
_cod_depositor_comments
;Adding full bibliography for 7236911--7236913.cif.

 Adding full bibliography for 7236911--7236913.cif.
;
_cod_database_code               7236913
_shelx_shelxl_version_number     2014/7
_shelx_space_group_comment
;
The symmetry employed for this shelxl refinement is uniquely defined
by the following loop, which should always be used as a source of
symmetry information in preference to the above space-group names.
They are only intended as comments.
;
_shelx_estimated_absorpt_t_min   0.696
_shelx_estimated_absorpt_t_max   0.745
_shelx_res_file
;

    4.res created by SHELXL-2014/7

TITL 3 in P-1
CELL 0.71073   9.4885   9.5857  12.4176  93.605 108.083 112.343
ZERR  2           0.0011    0.0010    0.0014     0.004     0.004     0.003
LATT 1
SFAC C  H  O  N  Dy
UNIT 30 24 22 2 2
LIST 4
OMIT  -3.00  50.02
L.S. 25
size 0.1 0.08 0.1
dfix 1.5 0.01 c6 n1'
dfix 1.3 0.01 n1' o8' n1' o7'
dfix 2.0 0.02 o7' o8'
omit 0   0   4
omit    -1   1   1
omit     0  -1   2
omit     1  -1   1
omit    -1   1   2
dfix 0.95 0.01 o11 h1o o11 h2o o9 h9c o9 h9d
dfix 1.51 0.02 h1o h2o
ACTA
BOND
BOND $h
FMAP 2
PLAN 100
delu
simu
simu 0.01 0.02 3.8 $c $o
CONF
HTAB
WGHT    0.051000    8.838100
FVAR       0.17101   0.50812
DY1   5    0.551112   -0.726363    0.023235    11.00000    0.01839    0.01763 =
         0.02333   -0.00291    0.00656    0.00731
N1'   4    0.715875    0.017598    0.463142    10.50000    0.19917    0.07390 =
         0.05572   -0.00281    0.02599    0.07842
N1    4    0.758388   -0.433646    0.619260    10.50000    0.16353    0.07187 =
         0.03197   -0.00943   -0.00063    0.08204
PART   2
PART   0
O1    3    0.579826   -0.582223    0.191563    11.00000    0.05395    0.04070 =
         0.03242   -0.01280    0.00461    0.02660
O2    3    0.506884   -0.403865    0.120906    11.00000    0.05127    0.03846 =
         0.02549    0.00254    0.00705    0.01467
O3    3    0.669311    0.180699    0.912252    11.00000    0.03521    0.02933 =
         0.05033   -0.00686    0.02297    0.01252
O4    3    0.532750   -0.069500    0.889980    11.00000    0.03117    0.03284 =
         0.04444    0.01093    0.02143    0.01485
O5    3    1.295988    0.075061    0.874001    11.00000    0.02240    0.03080 =
         0.03640   -0.00690    0.00753    0.01264
O6    3    1.269935    0.241426    0.987712    11.00000    0.02280    0.02683 =
         0.03171   -0.00488    0.00656    0.01147
PART   1
O7    3    0.711803   -0.583453    0.592851    10.50000    0.12086    0.06374 =
         0.06232    0.00000    0.00331    0.03246
O8    3    0.775661   -0.395571    0.714192    10.50000    0.08290    0.05382 =
         0.03573    0.00210   -0.00115    0.02129
PART   2
PART   0
O9    3    0.785871   -0.751004    0.160692    11.00000    0.03150    0.03692 =
         0.05333    0.01014    0.00693    0.01447
H9D   2    0.779121   -0.737369    0.235023    11.00000   -1.20000
H9C   2    0.769032   -0.854620    0.163682    11.00000   -1.20000
O10   3    0.789859   -0.499003    0.051281    11.00000    0.03147    0.02748 =
         0.07664    0.00927    0.00870    0.01168
AFIX   3
H10C  2    0.772397   -0.419532    0.039631    11.00000   -1.20000
H10D  2    0.892198   -0.470314    0.084451    11.00000   -1.20000
AFIX   0
O11   3    1.105102   -0.421287    0.151516    11.00000    0.06018    0.10885 =
         0.13850    0.04510    0.02641    0.02387
H1O   2    1.116233   -0.510333    0.175363    11.00000   -1.50000
H2O   2    1.178507   -0.337986    0.215385    11.00000   -1.50000
C1    1    0.563086   -0.459134    0.202974    11.00000    0.04272    0.03607 =
         0.02523   -0.00272    0.01038    0.02079
C2    1    0.612550   -0.374488    0.324263    11.00000    0.04754    0.03959 =
         0.02710   -0.00313    0.01012    0.02167
C3    1    0.661540   -0.435348    0.416868    11.00000    0.06868    0.04492 =
         0.03435   -0.00552    0.00380    0.02802
AFIX  43
H3    2    0.658600   -0.533336    0.404984    11.00000   -1.20000
AFIX   0
C4    1    0.716331   -0.353608    0.529765    11.00000    0.06224    0.04714 =
         0.03363   -0.00623    0.00555    0.02560
C5    1    0.724170   -0.206816    0.551132    11.00000    0.04483    0.04550 =
         0.03126   -0.00574    0.01080    0.02318
C6    1    0.668776   -0.151393    0.455680    11.00000    0.06331    0.04971 =
         0.03634   -0.00715    0.00433    0.02775
C7    1    0.612898   -0.231010    0.343449    11.00000    0.06425    0.04545 =
         0.03456   -0.00557    0.00339    0.02953
AFIX  43
H7    2    0.575866   -0.188361    0.281408    11.00000   -1.20000
AFIX   0
O7'   3    0.736822    0.102531    0.387919    10.50000    0.12534    0.08982 =
         0.08967    0.01239    0.01938    0.01477
C8    1    0.791930   -0.111440    0.670472    11.00000    0.03766    0.04020 =
         0.02928   -0.00518    0.00885    0.02145
O8'   3    0.641414    0.071078    0.513853    10.50000    0.10376    0.07656 =
         0.08350   -0.00670    0.01108    0.03160
C9    1    0.960156   -0.041660    0.730521    11.00000    0.03351    0.03804 =
         0.02851   -0.00473    0.01167    0.01812
AFIX  43
H9    2    1.028782   -0.061608    0.698473    11.00000   -1.20000
AFIX   0
C10   1    1.027619    0.058084    0.838410    11.00000    0.02660    0.03001 =
         0.02657   -0.00014    0.00947    0.01507
C11   1    0.922282    0.089780    0.884139    11.00000    0.02769    0.02797 =
         0.02843   -0.00021    0.01149    0.01406
AFIX  43
H11   2    0.965214    0.160936    0.953199    11.00000   -1.20000
AFIX   0
C12   1    0.755287    0.015481    0.826720    11.00000    0.02831    0.02987 =
         0.02728    0.00170    0.01224    0.01519
C13   1    0.689726   -0.086638    0.721347    11.00000    0.03406    0.03825 =
         0.03133   -0.00373    0.01172    0.01700
AFIX  43
H13   2    0.576919   -0.138688    0.684631    11.00000   -1.20000
AFIX   0
C14   1    1.207230    0.129127    0.903193    11.00000    0.02399    0.02623 =
         0.02670    0.00005    0.00788    0.01420
C15   1    0.642651    0.043340    0.878443    11.00000    0.02632    0.02765 =
         0.02636    0.00083    0.01199    0.01457
HKLF 4

REM  3 in P-1
REM R1 =  0.0342 for    3239 Fo > 4sig(Fo)  and  0.0368 for all    3425 data
REM    293 parameters refined using    781 restraints

END

WGHT      0.0539      6.2127

REM Instructions for potential hydrogen bonds
EQIV $1 x, y-1, z
HTAB O9 O7'_$1
EQIV $2 -x+2, -y-1, -z+1
HTAB O9 O5_$2
EQIV $3 -x+2, -y, -z+1
HTAB O10 O6_$3
HTAB O10 O11
HTAB O11 N1_$2
HTAB O11 O8_$2
HTAB O11 O7_$2

REM Highest difference peak  1.803,  deepest hole -1.371,  1-sigma level  0.168
Q1    1   0.9082  0.2949  0.5044  11.00000  0.05    1.80
Q2    1   0.8775  0.3006  0.4148  11.00000  0.05    1.76
Q3    1   1.0265 -0.2990  0.3715  11.00000  0.05    1.58
Q4    1   0.8732 -0.3390  0.8334  11.00000  0.05    1.50
Q5    1   0.9355 -0.4362  0.6113  11.00000  0.05    1.25
Q6    1   0.5944 -0.2076  0.4530  11.00000  0.05    0.72
Q7    1   0.7958 -0.3012  0.5235  11.00000  0.05    0.68
Q8    1   0.5535 -0.0978  0.4737  11.00000  0.05    0.67
Q9    1   0.6173  0.1770  0.8536  11.00000  0.05    0.64
Q10   1   0.8591 -0.3762  0.6186  11.00000  0.05    0.63
Q11   1   0.5354 -0.2853  0.3422  11.00000  0.05    0.60
Q12   1   0.9598 -0.1797  0.5224  11.00000  0.05    0.57
Q13   1   0.6702 -0.0146  0.7454  11.00000  0.05    0.57
Q14   1   0.5732 -0.0360  0.9405  11.00000  0.05    0.57
Q15   1   0.7454 -0.3951  0.4221  11.00000  0.05    0.54
Q16   1   0.8202 -0.1746  0.4933  11.00000  0.05    0.53
Q17   1   0.8618  0.1219  0.4612  11.00000  0.05    0.52
Q18   1   0.7544  0.2456  0.5717  11.00000  0.05    0.52
Q19   1   0.7081 -0.1395  0.7710  11.00000  0.05    0.50
Q20   1   0.8808 -0.3310  0.3447  11.00000  0.05    0.49
Q21   1   0.7430 -0.3322  0.3228  11.00000  0.05    0.47
Q22   1   0.7299 -0.1087  0.4635  11.00000  0.05    0.46
Q23   1   0.5565 -0.6703 -0.0384  11.00000  0.05    0.45
Q24   1   0.6986  0.0804  0.6853  11.00000  0.05    0.45
Q25   1   0.7486  0.0328  0.5991  11.00000  0.05    0.44
Q26   1   0.5015 -0.7839  0.0947  11.00000  0.05    0.44
Q27   1   0.5882  0.1491  0.5468  11.00000  0.05    0.40
Q28   1   0.6869 -0.4323  0.6962  11.00000  0.05    0.40
Q29   1   0.7059 -0.2408  0.3820  11.00000  0.05    0.38
Q30   1   0.8646 -0.3549  0.7211  11.00000  0.05    0.38
Q31   1   0.7761  0.1220  0.5245  11.00000  0.05    0.38
Q32   1   0.8624  0.1343  0.5368  11.00000  0.05    0.37
Q33   1   0.7586 -0.1025  0.5790  11.00000  0.05    0.37
Q34   1   0.9924  0.2501  0.5441  11.00000  0.05    0.36
Q35   1   0.6972  0.1822  0.9614  11.00000  0.05    0.34
Q36   1   0.7444 -0.5122 -0.0191  11.00000  0.05    0.34
Q37   1   0.6804 -0.2023  0.3485  11.00000  0.05    0.34
Q38   1   0.5651 -0.8053  0.0612  11.00000  0.05    0.34
Q39   1   0.5348 -0.4939  0.4803  11.00000  0.05    0.33
Q40   1   0.5974 -0.6834 -0.0749  11.00000  0.05    0.33
Q41   1   0.6435 -0.4113  0.5016  11.00000  0.05    0.32
Q42   1   1.2722  0.2648  0.9381  11.00000  0.05    0.31
Q43   1   0.9933  0.0770  0.8609  11.00000  0.05    0.30
Q44   1   1.2098 -0.1654  0.2274  11.00000  0.05    0.30
Q45   1   0.5064 -0.3836  0.4999  11.00000  0.05    0.30
Q46   1   1.2003 -0.3374  0.1285  11.00000  0.05    0.30
Q47   1   1.3059  0.0940  0.8082  11.00000  0.05    0.29
Q48   1   1.2216  0.2488  1.0007  11.00000  0.05    0.29
Q49   1   0.9061 -0.2502  0.5825  11.00000  0.05    0.29
Q50   1   0.7044 -0.3863  0.6217  11.00000  0.05    0.29
Q51   1   0.5046 -0.3285  0.1423  11.00000  0.05    0.29
Q52   1   1.2887  0.0507  0.9219  11.00000  0.05    0.28
Q53   1   0.5400 -0.1359  0.8676  11.00000  0.05    0.28
Q54   1   0.9956 -0.5244  0.6534  11.00000  0.05    0.28
Q55   1   0.6619  0.2989  0.8593  11.00000  0.05    0.28
Q56   1   0.5614 -0.0404  0.2895  11.00000  0.05    0.27
Q57   1   0.5802 -0.4588  0.5671  11.00000  0.05    0.27
Q58   1   0.3898 -0.4517  0.0772  11.00000  0.05    0.27
Q59   1   0.5890 -0.4783  0.3984  11.00000  0.05    0.27
Q60   1   0.8428 -0.5069  0.0171  11.00000  0.05    0.27
Q61   1   0.6321 -0.5297  0.1637  11.00000  0.05    0.26
Q62   1   0.7681 -0.1784  0.6785  11.00000  0.05    0.26
Q63   1   0.5097 -0.0564  0.8268  11.00000  0.05    0.26
Q64   1   0.6855 -0.5798 -0.0375  11.00000  0.05    0.26
Q65   1   1.0014 -0.4036  0.2832  11.00000  0.05    0.24
Q66   1   0.4579 -0.2690  0.3836  11.00000  0.05    0.24
Q67   1   0.5042 -0.6085  0.1856  11.00000  0.05    0.24
Q68   1   1.4172  0.0545  0.8190  11.00000  0.05    0.24
Q69   1   0.6329  0.0471  0.3579  11.00000  0.05    0.24
Q70   1   0.5651  0.0584  0.7592  11.00000  0.05    0.23
Q71   1   0.4772 -0.2198  0.1797  11.00000  0.05    0.23
Q72   1   0.4478 -0.1286  0.8738  11.00000  0.05    0.23
Q73   1   0.4634 -0.5311  0.3784  11.00000  0.05    0.23
Q74   1   0.4646 -0.2445  0.2401  11.00000  0.05    0.22
Q75   1   0.6347 -0.3388  0.5335  11.00000  0.05    0.22
Q76   1   0.8714 -0.2436  0.4213  11.00000  0.05    0.22
Q77   1   0.5021  0.1593  0.8832  11.00000  0.05    0.22
Q78   1   0.6316 -0.1426  0.2790  11.00000  0.05    0.22
Q79   1   0.4363 -0.6642  0.3783  11.00000  0.05    0.21
Q80   1   1.3774  0.3198  1.0016  11.00000  0.05    0.21
Q81   1   0.8394 -0.4020 -0.0005  11.00000  0.05    0.21
Q82   1   0.6583 -0.0617  0.8835  11.00000  0.05    0.21
Q83   1   0.5266 -0.1462  0.2067  11.00000  0.05    0.20
Q84   1   0.5405 -0.5886  0.4170  11.00000  0.05    0.20
Q85   1   1.3807  0.1616  0.8895  11.00000  0.05    0.20
Q86   1   1.0493 -0.0368  0.5748  11.00000  0.05    0.20
Q87   1   0.8334  0.0201  0.9217  11.00000  0.05    0.20
Q88   1   0.6586  0.1204  0.7608  11.00000  0.05    0.20
Q89   1   0.6497 -0.8018  0.0954  11.00000  0.05    0.20
Q90   1   0.4304 -0.0719  0.9339  11.00000  0.05    0.20
Q91   1   0.7399 -0.4831  0.1457  11.00000  0.05    0.19
Q92   1   1.1233  0.1109  0.8709  11.00000  0.05    0.19
Q93   1   0.6804  0.2046  0.4818  11.00000  0.05    0.19
Q94   1   0.7317 -0.4387  0.7987  11.00000  0.05    0.19
Q95   1   0.7950  0.0617  0.9654  11.00000  0.05    0.19
Q96   1   0.4632 -0.6621  0.2695  11.00000  0.05    0.19
Q97   1   0.7533  0.2274  0.9035  11.00000  0.05    0.19
Q98   1   1.3146  0.2349  1.1601  11.00000  0.05    0.19
Q99   1   0.4836 -0.5017  0.0565  11.00000  0.05    0.19
Q100  1   0.6525 -0.5478  0.0528  11.00000  0.05    0.19
;
_shelx_res_checksum              36359
loop_
_space_group_symop_operation_xyz
'x, y, z'
'-x, -y, -z'
loop_
_atom_site_label
_atom_site_type_symbol
_atom_site_fract_x
_atom_site_fract_y
_atom_site_fract_z
_atom_site_U_iso_or_equiv
_atom_site_adp_type
_atom_site_occupancy
_atom_site_site_symmetry_order
_atom_site_calc_flag
_atom_site_refinement_flags_posn
_atom_site_refinement_flags_adp
_atom_site_refinement_flags_occupancy
_atom_site_disorder_assembly
_atom_site_disorder_group
Dy1 Dy 0.55111(3) -0.72636(3) 0.02324(2) 0.02048(12) Uani 1 1 d . U . . .
N1' N 0.716(3) 0.0176(15) 0.4631(16) 0.109(6) Uani 0.5 1 d D U P . .
N1 N 0.758(3) -0.434(2) 0.6193(14) 0.089(6) Uani 0.5 1 d . U P . .
O1 O 0.5798(7) -0.5822(6) 0.1916(5) 0.0441(12) Uani 1 1 d . U . . .
O2 O 0.5069(7) -0.4039(6) 0.1209(4) 0.0417(12) Uani 1 1 d . U . . .
O3 O 0.6693(6) 0.1807(6) 0.9123(5) 0.0375(11) Uani 1 1 d . U . . .
O4 O 0.5328(6) -0.0695(6) 0.8900(5) 0.0336(10) Uani 1 1 d . U . . .
O5 O 1.2960(5) 0.0751(5) 0.8740(4) 0.0309(10) Uani 1 1 d . U . . .
O6 O 1.2699(5) 0.2414(5) 0.9877(4) 0.0282(9) Uani 1 1 d . U . . .
O7 O 0.712(2) -0.5835(19) 0.5929(14) 0.093(4) Uani 0.5 1 d . U P A 1
O8 O 0.7757(19) -0.3956(16) 0.7142(11) 0.066(3) Uani 0.5 1 d . U P A 1
O9 O 0.7859(6) -0.7510(6) 0.1607(5) 0.0427(13) Uani 1 1 d D U . . .
H9D H 0.779(11) -0.737(11) 0.235(4) 0.051 Uiso 1 1 d D U . . .
H9C H 0.769(11) -0.855(4) 0.164(8) 0.051 Uiso 1 1 d D U . . .
O10 O 0.7899(7) -0.4990(6) 0.0513(6) 0.0483(14) Uani 1 1 d . U . . .
H10C H 0.7724 -0.4195 0.0396 0.058 Uiso 1 1 d R U . . .
H10D H 0.8922 -0.4703 0.0845 0.058 Uiso 1 1 d R U . . .
O11 O 1.1051(11) -0.4213(13) 0.1515(11) 0.108(3) Uani 1 1 d D U . . .
H1O H 1.12(2) -0.510(10) 0.175(13) 0.162 Uiso 1 1 d D U . . .
H2O H 1.179(19) -0.338(11) 0.215(9) 0.162 Uiso 1 1 d D U . . .
C1 C 0.5631(9) -0.4591(9) 0.2030(6) 0.0343(13) Uani 1 1 d . U . . .
C2 C 0.6125(10) -0.3745(9) 0.3243(6) 0.0384(14) Uani 1 1 d . U . . .
C3 C 0.6615(12) -0.4353(11) 0.4169(7) 0.0525(16) Uani 1 1 d . U . . .
H3 H 0.6586 -0.5333 0.4050 0.063 Uiso 1 1 calc R U . . .
C4 C 0.7163(12) -0.3536(10) 0.5298(7) 0.0506(15) Uani 1 1 d . U . . .
C5 C 0.7242(10) -0.2068(10) 0.5511(7) 0.0406(13) Uani 1 1 d . U . . .
C6 C 0.6688(12) -0.1514(10) 0.4557(7) 0.0528(16) Uani 1 1 d D U . . .
C7 C 0.6129(12) -0.2310(10) 0.3434(7) 0.0504(16) Uani 1 1 d . U . . .
H7 H 0.5759 -0.1884 0.2814 0.061 Uiso 1 1 calc R U . . .
O7' O 0.737(3) 0.103(2) 0.3879(15) 0.117(5) Uani 0.5 1 d D U P . .
C8 C 0.7919(9) -0.1114(9) 0.6705(6) 0.0355(13) Uani 1 1 d . U . . .
O8' O 0.641(2) 0.071(2) 0.5139(15) 0.097(4) Uani 0.5 1 d D U P . .
C9 C 0.9602(9) -0.0417(8) 0.7305(6) 0.0328(12) Uani 1 1 d . U . . .
H9 H 1.0288 -0.0616 0.6985 0.039 Uiso 1 1 calc R U . . .
C10 C 1.0276(8) 0.0581(8) 0.8384(6) 0.0270(11) Uani 1 1 d . U . . .
C11 C 0.9223(8) 0.0898(8) 0.8841(6) 0.0272(11) Uani 1 1 d . U . . .
H11 H 0.9652 0.1609 0.9532 0.033 Uiso 1 1 calc R U . . .
C12 C 0.7553(8) 0.0155(8) 0.8267(6) 0.0272(11) Uani 1 1 d . U . . .
C13 C 0.6897(9) -0.0866(9) 0.7213(6) 0.0345(12) Uani 1 1 d . U . . .
H13 H 0.5769 -0.1387 0.6846 0.041 Uiso 1 1 calc R U . . .
C14 C 1.2072(8) 0.1291(7) 0.9032(6) 0.0251(12) Uani 1 1 d . U . . .
C15 C 0.6427(8) 0.0433(8) 0.8784(6) 0.0253(11) Uani 1 1 d . U . . .
loop_
_atom_site_aniso_label
_atom_site_aniso_U_11
_atom_site_aniso_U_22
_atom_site_aniso_U_33
_atom_site_aniso_U_23
_atom_site_aniso_U_13
_atom_site_aniso_U_12
Dy1 0.01839(17) 0.01763(17) 0.02333(18) -0.00291(11) 0.00656(12) 0.00731(12)
N1' 0.20(2) 0.074(8) 0.056(10) -0.003(6) 0.026(11) 0.078(13)
N1 0.164(17) 0.072(9) 0.032(6) -0.009(7) -0.001(10) 0.082(11)
O1 0.054(3) 0.041(2) 0.032(2) -0.013(2) 0.005(2) 0.027(2)
O2 0.051(3) 0.038(2) 0.025(2) 0.0025(19) 0.007(2) 0.015(2)
O3 0.035(2) 0.029(2) 0.050(3) -0.007(2) 0.023(2) 0.0125(19)
O4 0.031(2) 0.033(2) 0.044(2) 0.0109(19) 0.0214(19) 0.0148(18)
O5 0.022(2) 0.031(2) 0.036(2) -0.0069(18) 0.0075(18) 0.0126(17)
O6 0.023(2) 0.027(2) 0.032(2) -0.0049(17) 0.0066(17) 0.0115(17)
O7 0.121(8) 0.064(6) 0.062(7) 0.000(5) 0.003(7) 0.032(7)
O8 0.083(6) 0.054(5) 0.036(4) 0.002(4) -0.001(5) 0.021(5)
O9 0.031(3) 0.037(3) 0.053(3) 0.010(3) 0.007(2) 0.014(2)
O10 0.031(3) 0.027(3) 0.077(4) 0.009(2) 0.009(3) 0.012(2)
O11 0.060(5) 0.109(7) 0.138(8) 0.045(6) 0.026(5) 0.024(5)
C1 0.043(3) 0.036(3) 0.025(2) -0.003(2) 0.010(2) 0.021(2)
C2 0.048(3) 0.040(3) 0.027(2) -0.003(2) 0.010(2) 0.022(2)
C3 0.069(3) 0.045(3) 0.034(3) -0.006(2) 0.004(3) 0.028(3)
C4 0.062(3) 0.047(3) 0.034(3) -0.006(2) 0.006(2) 0.026(2)
C5 0.045(3) 0.045(2) 0.031(2) -0.006(2) 0.011(2) 0.023(2)
C6 0.063(3) 0.050(3) 0.036(3) -0.007(2) 0.004(3) 0.028(2)
C7 0.064(3) 0.045(3) 0.035(3) -0.006(2) 0.003(2) 0.030(2)
O7' 0.125(9) 0.090(7) 0.090(8) 0.012(6) 0.019(7) 0.015(8)
C8 0.038(2) 0.040(2) 0.029(2) -0.005(2) 0.009(2) 0.021(2)
O8' 0.104(7) 0.077(6) 0.083(7) -0.007(6) 0.011(6) 0.032(6)
C9 0.034(2) 0.038(2) 0.029(2) -0.005(2) 0.0117(19) 0.018(2)
C10 0.027(2) 0.030(2) 0.027(2) 0.000(2) 0.0095(19) 0.0151(19)
C11 0.028(2) 0.028(2) 0.028(2) 0.000(2) 0.0115(19) 0.0141(19)
C12 0.028(2) 0.030(2) 0.027(2) 0.002(2) 0.0122(19) 0.0152(19)
C13 0.034(2) 0.038(2) 0.031(2) -0.004(2) 0.012(2) 0.017(2)
C14 0.024(2) 0.026(2) 0.027(2) 0.000(2) 0.008(2) 0.014(2)
C15 0.026(2) 0.028(2) 0.026(2) 0.001(2) 0.012(2) 0.015(2)
loop_
_atom_type_symbol
_atom_type_description
_atom_type_scat_dispersion_real
_atom_type_scat_dispersion_imag
_atom_type_scat_source
C C 0.0033 0.0016 'International Tables Vol C Tables 4.2.6.8 and 6.1.1.4'
H H 0.0000 0.0000 'International Tables Vol C Tables 4.2.6.8 and 6.1.1.4'
O O 0.0106 0.0060 'International Tables Vol C Tables 4.2.6.8 and 6.1.1.4'
N N 0.0061 0.0033 'International Tables Vol C Tables 4.2.6.8 and 6.1.1.4'
Dy Dy -0.1892 4.4098 'International Tables Vol C Tables 4.2.6.8 and 6.1.1.4'
loop_
_geom_angle_atom_site_label_1
_geom_angle_atom_site_label_2
_geom_angle_atom_site_label_3
_geom_angle
_geom_angle_site_symmetry_1
_geom_angle_site_symmetry_3
O4 Dy1 O2 149.66(19) 2_646 2_645
O4 Dy1 O1 84.1(2) 2_646 .
O2 Dy1 O1 106.5(2) 2_645 .
O4 Dy1 O3 99.58(18) 2_646 1_544
O2 Dy1 O3 85.6(2) 2_645 1_544
O1 Dy1 O3 149.43(19) . 1_544
O4 Dy1 O10 139.22(19) 2_646 .
O2 Dy1 O10 71.1(2) 2_645 .
O1 Dy1 O10 78.2(2) . .
O3 Dy1 O10 79.55(19) 1_544 .
O4 Dy1 O9 68.95(18) 2_646 .
O2 Dy1 O9 140.1(2) 2_645 .
O1 Dy1 O9 79.9(2) . .
O3 Dy1 O9 73.4(2) 1_544 .
O10 Dy1 O9 71.90(19) . .
O4 Dy1 O6 80.54(16) 2_646 1_444
O2 Dy1 O6 74.38(19) 2_645 1_444
O1 Dy1 O6 77.76(18) . 1_444
O3 Dy1 O6 132.81(17) 1_544 1_444
O10 Dy1 O6 129.62(17) . 1_444
O9 Dy1 O6 143.67(18) . 1_444
O4 Dy1 O5 74.40(18) 2_646 1_444
O2 Dy1 O5 76.89(18) 2_645 1_444
O1 Dy1 O5 128.18(18) . 1_444
O3 Dy1 O5 81.46(16) 1_544 1_444
O10 Dy1 O5 143.7(2) . 1_444
O9 Dy1 O5 130.59(17) . 1_444
O6 Dy1 O5 52.80(14) 1_444 1_444
O4 Dy1 C14 76.77(18) 2_646 1_444
O2 Dy1 C14 73.2(2) 2_645 1_444
O1 Dy1 C14 103.26(19) . 1_444
O3 Dy1 C14 107.14(18) 1_544 1_444
O10 Dy1 C14 142.97(19) . 1_444
O9 Dy1 C14 145.12(19) . 1_444
O6 Dy1 C14 26.34(17) 1_444 1_444
O5 Dy1 C14 26.47(17) 1_444 1_444
O7' N1' O8' 103.1(13) . .
O7' N1' C6 131.4(16) . .
O8' N1' C6 114.0(16) . .
O8 N1 O7 110.8(19) . .
O8 N1 C4 123.7(15) . .
O7 N1 C4 119.5(14) . .
C1 O1 Dy1 127.6(5) . .
C1 O2 Dy1 170.2(5) . 2_645
C15 O3 Dy1 128.6(4) . 1_566
C15 O4 Dy1 150.8(5) . 2_646
C14 O5 Dy1 92.5(4) . 1_666
C14 O6 Dy1 94.1(4) . 1_666
Dy1 O9 H9D 107(6) . .
Dy1 O9 H9C 114(6) . .
H9D O9 H9C 90(8) . .
Dy1 O10 H10C 114.5 . .
Dy1 O10 H10D 135.5 . .
H10C O10 H10D 108.3 . .
H1O O11 H2O 105(2) . .
O2 C1 O1 124.3(6) . .
O2 C1 C2 118.2(6) . .
O1 C1 C2 117.4(7) . .
C3 C2 C7 118.6(7) . .
C3 C2 C1 121.0(7) . .
C7 C2 C1 120.4(7) . .
C2 C3 C4 121.2(8) . .
C2 C3 H3 119.4 . .
C4 C3 H3 119.4 . .
C5 C4 C3 121.2(8) . .
C5 C4 N1 123.4(9) . .
C3 C4 N1 115.4(9) . .
C6 C5 C4 115.9(7) . .
C6 C5 C8 121.2(7) . .
C4 C5 C8 122.9(7) . .
C5 C6 C7 123.7(8) . .
C5 C6 N1' 120.8(10) . .
C7 C6 N1' 112.5(10) . .
C2 C7 C6 119.3(8) . .
C2 C7 H7 120.3 . .
C6 C7 H7 120.3 . .
C13 C8 C9 119.1(7) . .
C13 C8 C5 121.0(7) . .
C9 C8 C5 119.9(7) . .
C8 C9 C10 121.0(6) . .
C8 C9 H9 119.5 . .
C10 C9 H9 119.5 . .
C9 C10 C11 118.7(6) . .
C9 C10 C14 120.6(6) . .
C11 C10 C14 120.7(6) . .
C12 C11 C10 120.1(6) . .
C12 C11 H11 120.0 . .
C10 C11 H11 120.0 . .
C11 C12 C13 120.6(6) . .
C11 C12 C15 120.1(6) . .
C13 C12 C15 119.3(6) . .
C12 C13 C8 120.3(7) . .
C12 C13 H13 119.8 . .
C8 C13 H13 119.8 . .
O6 C14 O5 120.5(6) . .
O6 C14 C10 119.9(6) . .
O5 C14 C10 119.6(6) . .
O6 C14 Dy1 59.6(3) . 1_666
O5 C14 Dy1 61.0(3) . 1_666
C10 C14 Dy1 178.0(5) . 1_666
O4 C15 O3 123.5(6) . .
O4 C15 C12 118.3(6) . .
O3 C15 C12 118.1(6) . .
loop_
_geom_bond_atom_site_label_1
_geom_bond_atom_site_label_2
_geom_bond_distance
_geom_bond_site_symmetry_2
Dy1 O4 2.288(5) 2_646
Dy1 O2 2.293(5) 2_645
Dy1 O1 2.313(5) .
Dy1 O3 2.348(5) 1_544
Dy1 O10 2.380(5) .
Dy1 O9 2.454(5) .
Dy1 O6 2.456(4) 1_444
Dy1 O5 2.487(4) 1_444
Dy1 C14 2.841(6) 1_444
N1' O7' 1.289(10) .
N1' O8' 1.292(10) .
N1' C6 1.496(9) .
N1 O8 1.15(2) .
N1 O7 1.32(2) .
N1 C4 1.431(19) .
O1 C1 1.254(9) .
O2 C1 1.245(9) .
O2 Dy1 2.293(5) 2_645
O3 C15 1.259(8) .
O3 Dy1 2.349(5) 1_566
O4 C15 1.238(8) .
O4 Dy1 2.289(5) 2_646
O5 C14 1.268(8) .
O5 Dy1 2.487(4) 1_666
O6 C14 1.264(8) .
O6 Dy1 2.456(4) 1_666
O9 H9D 0.949(10) .
O9 H9C 0.949(10) .
O10 H10C 0.8507 .
O10 H10D 0.8501 .
O11 H1O 0.953(10) .
O11 H2O 0.952(10) .
C1 C2 1.505(10) .
C2 C3 1.356(12) .
C2 C7 1.380(11) .
C3 C4 1.396(11) .
C3 H3 0.9300 .
C4 C5 1.385(12) .
C5 C6 1.367(12) .
C5 C8 1.496(10) .
C6 C7 1.380(12) .
C7 H7 0.9300 .
C8 C13 1.390(10) .
C8 C9 1.392(10) .
C9 C10 1.400(9) .
C9 H9 0.9300 .
C10 C11 1.405(9) .
C10 C14 1.488(9) .
C11 C12 1.380(10) .
C11 H11 0.9300 .
C12 C13 1.389(10) .
C12 C15 1.499(9) .
C13 H13 0.9300 .
C14 Dy1 2.841(6) 1_666
loop_
_geom_torsion_atom_site_label_1
_geom_torsion_atom_site_label_2
_geom_torsion_atom_site_label_3
_geom_torsion_atom_site_label_4
_geom_torsion
_geom_torsion_site_symmetry_1
Dy1 O1 C1 O2 9.7(12) .
Dy1 O1 C1 C2 -171.1(5) .
O2 C1 C2 C3 174.4(8) .
O1 C1 C2 C3 -4.8(12) .
O2 C1 C2 C7 -7.3(12) .
O1 C1 C2 C7 173.5(8) .
C7 C2 C3 C4 -2.0(15) .
C1 C2 C3 C4 176.3(9) .
C2 C3 C4 C5 -0.7(16) .
C2 C3 C4 N1 177.7(15) .
O8 N1 C4 C5 14(3) .
O7 N1 C4 C5 163.9(18) .
O8 N1 C4 C3 -165(2) .
O7 N1 C4 C3 -14(3) .
C3 C4 C5 C6 2.7(14) .
N1 C4 C5 C6 -175.5(16) .
C3 C4 C5 C8 -176.0(9) .
N1 C4 C5 C8 5.7(19) .
C4 C5 C6 C7 -2.2(15) .
C8 C5 C6 C7 176.5(9) .
C4 C5 C6 N1' -161.2(13) .
C8 C5 C6 N1' 17.5(16) .
O7' N1' C6 C5 149(2) .
O8' N1' C6 C5 -75(2) .
O7' N1' C6 C7 -12(3) .
O8' N1' C6 C7 124.1(16) .
C3 C2 C7 C6 2.5(14) .
C1 C2 C7 C6 -175.8(9) .
C5 C6 C7 C2 -0.4(16) .
N1' C6 C7 C2 160.2(13) .
C6 C5 C8 C13 74.2(12) .
C4 C5 C8 C13 -107.2(10) .
C6 C5 C8 C9 -103.6(10) .
C4 C5 C8 C9 75.1(12) .
C13 C8 C9 C10 -2.9(12) .
C5 C8 C9 C10 174.8(7) .
C8 C9 C10 C11 -1.5(11) .
C8 C9 C10 C14 178.5(7) .
C9 C10 C11 C12 4.2(10) .
C14 C10 C11 C12 -175.8(6) .
C10 C11 C12 C13 -2.5(11) .
C10 C11 C12 C15 176.9(6) .
C11 C12 C13 C8 -2.1(11) .
C15 C12 C13 C8 178.5(7) .
C9 C8 C13 C12 4.8(12) .
C5 C8 C13 C12 -173.0(7) .
Dy1 O6 C14 O5 3.1(7) 1_666
Dy1 O6 C14 C10 -177.8(5) 1_666
Dy1 O5 C14 O6 -3.1(7) 1_666
Dy1 O5 C14 C10 177.8(5) 1_666
C9 C10 C14 O6 165.7(7) .
C11 C10 C14 O6 -14.3(10) .
C9 C10 C14 O5 -15.3(10) .
C11 C10 C14 O5 164.8(6) .
Dy1 O4 C15 O3 -108.3(9) 2_646
Dy1 O4 C15 C12 68.6(11) 2_646
Dy1 O3 C15 O4 7.7(10) 1_566
Dy1 O3 C15 C12 -169.2(4) 1_566
C11 C12 C15 O4 -126.7(7) .
C13 C12 C15 O4 52.7(9) .
C11 C12 C15 O3 50.3(9) .
C13 C12 C15 O3 -130.3(7) .
