#------------------------------------------------------------------------------
#$Date: 2019-11-24 10:29:40 +0200 (Sun, 24 Nov 2019) $
#$Revision: 237638 $
#$URL: file:///home/coder/svn-repositories/cod/cif/7/23/73/7237382.cif $
#------------------------------------------------------------------------------
#
# This file is available in the Crystallography Open Database (COD),
# http://www.crystallography.net/
#
# All data on this site have been placed in the public domain by the
# contributors.
#
data_7237382
loop_
_publ_author_name
'Paliwoda, Damian'
'Szafra\'nski, Marek'
'Hanfland, Michael'
'Katrusiak, Andrzej'
_publ_section_title
;
 A giant 2-dimensional dielectric response in a compressed hydrogen-bonded
 hybrid organic--inorganic salt
;
_journal_issue                   28
_journal_name_full               'Journal of Materials Chemistry C'
_journal_page_first              7689
_journal_paper_doi               10.1039/C8TC02464B
_journal_volume                  6
_journal_year                    2018
_chemical_formula_moiety         'C4 H5 N2 Au Cl4'
_chemical_formula_sum            'C4 H5 Au Cl4 N2'
_chemical_formula_weight         419.87
_chemical_name_common            'pyrazinium tetrachloroaurate'
_chemical_name_systematic
; 
pyrazinium tetrachloroaurate 
;
_space_group_IT_number           138
_space_group_name_Hall           '-P 4ac 2ac'
_space_group_name_H-M_alt        'P 42/n c m :2'
_symmetry_cell_setting           tetragonal
_symmetry_space_group_name_Hall  '-P 4ac 2ac'
_symmetry_space_group_name_H-M   'P 42/n c m :2'
_atom_sites_solution_hydrogens   geom
_atom_sites_solution_primary     direct
_atom_sites_solution_secondary   difmap
_audit_creation_method           SHELXL-97
_audit_update_record
;
2017-04-07 deposited with the CCDC.
2018-06-28 downloaded from the CCDC.
;
_cell_angle_alpha                90.00
_cell_angle_beta                 90.00
_cell_angle_gamma                90.00
_cell_formula_units_Z            4
_cell_length_a                   7.3190(2)
_cell_length_b                   7.3190(2)
_cell_length_c                   14.595(13)
_cell_measurement_reflns_used    1341
_cell_measurement_temperature    296(2)
_cell_measurement_theta_max      35.54
_cell_measurement_theta_min      4.18
_cell_volume                     781.8(7)
_computing_cell_refinement       'CrysAlisRED (Oxford Diffraction, 2004)'
_computing_data_collection       'CrysAlisCCD (Oxford Diffraction, 2004)'
_computing_data_reduction        'CrysAlisRED (Oxford Diffraction, 2004)'
_computing_molecular_graphics    'SHELXTL (Sheldrick, 1990)'
_computing_publication_material  'SHELXL--97 (Sheldrick, 1997)'
_computing_structure_refinement  'SHELXL--97 (Sheldrick, 1997)'
_computing_structure_solution    'SHELXS--97 (Sheldrick, 1997)'
_diffrn_ambient_environment      'diamond-anvil cell'
_diffrn_ambient_pressure         7850000
_diffrn_ambient_temperature      296(2)
_diffrn_measured_fraction_theta_full 0.274
_diffrn_measured_fraction_theta_max 0.274
_diffrn_measurement_device_type  Serial
_diffrn_measurement_method       \w/2\q
_diffrn_radiation_monochromator  Si(111)
_diffrn_radiation_source         synchrotron
_diffrn_radiation_type           synchrotron
_diffrn_radiation_wavelength     0.41438
_diffrn_reflns_av_R_equivalents  0.0420
_diffrn_reflns_av_sigmaI/netI    0.0416
_diffrn_reflns_limit_h_max       11
_diffrn_reflns_limit_h_min       -11
_diffrn_reflns_limit_k_max       11
_diffrn_reflns_limit_k_min       -11
_diffrn_reflns_limit_l_max       6
_diffrn_reflns_limit_l_min       -6
_diffrn_reflns_number            1341
_diffrn_reflns_theta_full        35.54
_diffrn_reflns_theta_max         35.54
_diffrn_reflns_theta_min         4.18
_diffrn_standards_decay_%        0
_diffrn_standards_interval_count 0
_diffrn_standards_number         0
_exptl_absorpt_coefficient_mu    20.107
_exptl_crystal_colour            orange
_exptl_crystal_density_diffrn    3.567
_exptl_crystal_density_method    'not measured'
_exptl_crystal_description       plate
_exptl_crystal_F_000             760
_exptl_crystal_size_max          0.05
_exptl_crystal_size_mid          0.04
_exptl_crystal_size_min          0.02
_refine_diff_density_max         1.126
_refine_diff_density_min         -0.823
_refine_diff_density_rms         0.180
_refine_ls_extinction_method     none
_refine_ls_goodness_of_fit_ref   1.139
_refine_ls_hydrogen_treatment    constr
_refine_ls_matrix_type           full
_refine_ls_number_parameters     33
_refine_ls_number_reflns         267
_refine_ls_number_restraints     52
_refine_ls_restrained_S_all      1.043
_refine_ls_R_factor_all          0.0691
_refine_ls_R_factor_gt           0.0577
_refine_ls_shift/su_max          0.000
_refine_ls_shift/su_mean         0.000
_refine_ls_structure_factor_coef Fsqd
_refine_ls_weighting_details
'calc w=1/[\s^2^(Fo^2^)+(0.0611P)^2^+12.9841P] where P=(Fo^2^+2Fc^2^)/3'
_refine_ls_weighting_scheme      calc
_refine_ls_wR_factor_gt          0.1382
_refine_ls_wR_factor_ref         0.1451
_reflns_number_gt                223
_reflns_number_total             267
_reflns_threshold_expression     >2sigma(I)
_cod_data_source_file            c8tc02464b2.cif
_cod_data_source_block           pyrazinium_tetrachloroaurate_78_50kbar
_cod_original_sg_symbol_H-M      'P 42/n c m'
_cod_database_code               7237382
loop_
_symmetry_equiv_pos_as_xyz
'x, y, z'
'-x+1/2, -y+1/2, z'
'-y+1/2, x, z+1/2'
'y, -x+1/2, z+1/2'
'-x, y+1/2, -z+1/2'
'x+1/2, -y, -z+1/2'
'y+1/2, x+1/2, -z'
'-y, -x, -z'
'-x, -y, -z'
'x-1/2, y-1/2, -z'
'y-1/2, -x, -z-1/2'
'-y, x-1/2, -z-1/2'
'x, -y-1/2, z-1/2'
'-x-1/2, y, z-1/2'
'-y-1/2, -x-1/2, z'
'y, x, z'
loop_
_atom_site_label
_atom_site_type_symbol
_atom_site_fract_x
_atom_site_fract_y
_atom_site_fract_z
_atom_site_U_iso_or_equiv
_atom_site_adp_type
_atom_site_occupancy
_atom_site_symmetry_multiplicity
_atom_site_calc_flag
_atom_site_refinement_flags
Au1 Au 0.2500 0.2500 0.2286(2) 0.0321(19) Uani 1 4 d SU
Cl3 Cl 0.2500 0.2500 0.3743(19) 0.037(2) Uani 1 4 d SU
Cl4 Cl 0.2500 0.2500 0.084(2) 0.041(2) Uani 1 4 d SU
N1 N 0.8769(5) 0.1231(5) 0.0000 0.038(4) Uani 1 2 d SDU
H1A H 0.9600 0.0400 0.0000 0.045 Uiso 0.50 2 calc SPR
C1 C 0.8175(11) 0.1821(11) 0.0806(7) 0.037(4) Uani 1 1 d DU
H1 H 0.8637 0.1351 0.1351 0.045 Uiso 1 1 calc R
Cl1 Cl 0.4683(5) 0.0317(5) 0.2203(8) 0.049(3) Uani 1 2 d SU
loop_
_atom_site_aniso_label
_atom_site_aniso_U_11
_atom_site_aniso_U_22
_atom_site_aniso_U_33
_atom_site_aniso_U_23
_atom_site_aniso_U_13
_atom_site_aniso_U_12
Au1 0.0272(4) 0.0272(4) 0.042(6) 0.000 0.000 0.0012(3)
Cl3 0.0328(14) 0.0328(14) 0.045(7) 0.000 0.000 0.0019(17)
Cl4 0.0392(16) 0.0392(16) 0.044(7) 0.000 0.000 -0.0009(19)
N1 0.037(3) 0.037(3) 0.040(9) -0.001(5) -0.001(5) 0.005(4)
C1 0.036(4) 0.036(4) 0.040(9) 0.000(6) 0.000(6) 0.001(4)
Cl1 0.0472(14) 0.0472(14) 0.053(9) -0.002(2) 0.002(2) 0.0164(18)
loop_
_atom_type_symbol
_atom_type_description
_atom_type_scat_dispersion_real
_atom_type_scat_dispersion_imag
_atom_type_scat_source
C C 0.0033 0.0016 'International Tables Vol C Tables 4.2.6.8 and 6.1.1.4'
H H 0.0000 0.0000 'International Tables Vol C Tables 4.2.6.8 and 6.1.1.4'
N N 0.0061 0.0033 'International Tables Vol C Tables 4.2.6.8 and 6.1.1.4'
Cl Cl 0.1484 0.1585 'International Tables Vol C Tables 4.2.6.8 and 6.1.1.4'
Au Au -2.0133 8.8022 'International Tables Vol C Tables 4.2.6.8 and 6.1.1.4'
loop_
_geom_angle_atom_site_label_1
_geom_angle_atom_site_label_2
_geom_angle_atom_site_label_3
_geom_angle
_geom_angle_site_symmetry_1
_geom_angle_site_symmetry_3
Cl4 Au1 Cl3 180.000(2) . .
Cl4 Au1 Cl1 86.9(3) . 2
Cl3 Au1 Cl1 93.1(3) . 2
Cl4 Au1 Cl1 86.9(3) . .
Cl3 Au1 Cl1 93.1(3) . .
Cl1 Au1 Cl1 173.8(6) 2 .
C1 N1 C1 125.0(7) 8_665 .
C1 C1 N1 117.5(4) 2_655 .
loop_
_geom_bond_atom_site_label_1
_geom_bond_atom_site_label_2
_geom_bond_distance
_geom_bond_site_symmetry_2
Au1 Cl4 2.11(3) .
Au1 Cl3 2.13(3) .
Au1 Cl1 2.263(5) 2
Au1 Cl1 2.263(5) .
N1 C1 1.327(8) 8_665
N1 C1 1.327(8) .
C1 C1 1.401(8) 2_655
loop_
_refln_index_h
_refln_index_k
_refln_index_l
_refln_F_squared_calc
_refln_F_squared_meas
_refln_F_squared_sigma
_refln_observed_status
3 5 0 29071.93 29326.26 474.90 o
5 5 0 23313.78 23210.76 685.48 o
0 6 0 23667.81 21436.39 357.36 o
2 6 0 28880.82 29042.39 505.14 o
4 6 0 19292.85 19027.13 331.60 o
6 6 0 11019.84 11501.94 493.46 o
1 7 0 21791.89 20405.98 372.64 o
3 7 0 21151.37 21247.38 356.54 o
5 7 0 7255.94 7341.89 217.62 o
0 8 0 12357.60 11797.43 260.90 o
2 8 0 10851.23 10468.47 212.42 o
4 8 0 7029.81 7457.26 392.99 o
6 8 0 6207.41 6742.98 601.80 o
1 9 0 9051.52 9568.36 201.10 o
3 9 0 5755.34 6309.20 262.98 o
5 9 0 4823.95 5532.56 309.44 o
0 10 0 4782.72 4467.47 488.39 o
2 10 0 3521.27 4011.77 171.50 o
4 10 0 3546.77 4564.31 346.86 o
3 11 0 2245.12 2767.19 220.60 o
1 1 1 477.02 235.73 16.31 o
1 2 1 1356.67 1938.13 35.75 o
2 2 1 4395.45 5898.39 82.80 o
1 3 1 1879.22 2701.48 48.63 o
2 3 1 652.96 727.83 28.46 o
3 3 1 921.28 831.89 38.47 o
1 4 1 1772.23 1770.09 40.70 o
2 4 1 281.62 278.16 17.97 o
3 4 1 784.16 870.73 35.74 o
4 4 1 445.73 467.07 29.63 o
1 5 1 27.65 39.58 5.91 o
2 5 1 120.21 89.87 10.45 o
3 5 1 87.03 83.94 11.54 o
4 5 1 364.39 342.20 20.33 o
5 5 1 158.00 113.58 22.92 o
1 6 1 904.48 838.71 29.84 o
2 6 1 5.62 22.15 10.02 o
3 6 1 634.89 644.60 36.70 o
4 6 1 16.97 34.54 10.55 o
5 6 1 101.60 47.99 14.39 o
6 6 1 117.94 74.62 18.81 o
1 7 1 7.29 17.88 8.47 o
2 7 1 44.29 20.97 5.76 o
3 7 1 2.25 13.22 9.97 o
4 7 1 17.75 39.46 12.92 o
5 7 1 8.03 24.85 10.08 o
6 7 1 50.56 68.67 19.79 o
1 8 1 334.52 333.00 22.12 o
2 8 1 6.10 23.08 11.47 o
3 8 1 124.03 82.72 15.44 o
4 8 1 0.54 34.47 22.54 o
5 8 1 77.59 44.51 13.36 o
6 8 1 7.87 169.89 109.97 o
1 9 1 1.17 24.32 11.99 o
2 9 1 0.06 43.35 27.18 o
3 9 1 6.21 47.64 23.33 o
4 9 1 10.28 14.05 10.02 o
5 9 1 12.52 21.81 24.62 o
1 10 1 47.52 69.71 22.59 o
2 10 1 0.22 10.32 10.59 o
3 10 1 41.19 56.90 17.45 o
4 10 1 22.59 73.39 37.31 o
5 10 1 0.15 5.16 9.87 o
2 11 1 0.47 20.73 29.33 o
3 11 1 3.76 19.91 24.98 o
4 11 1 4.15 9.41 179.12 o
0 2 2 16150.21 18364.29 273.60 o
1 2 2 3018.62 3688.88 77.50 o
0 3 2 1551.98 1783.80 70.94 o
2 3 2 4096.98 4361.14 79.39 o
1 4 2 2551.14 2726.40 53.03 o
2 4 2 18352.66 18019.79 181.21 o
3 4 2 1029.79 1158.21 37.98 o
4 4 2 18115.64 17175.37 221.97 o
0 5 2 2891.72 2881.93 87.38 o
1 5 2 19720.22 18052.35 150.94 o
2 5 2 631.77 690.89 34.31 o
3 5 2 14276.48 13365.45 156.17 o
4 5 2 1408.94 1477.11 38.24 o
5 5 2 14339.49 14506.34 280.93 o
0 6 2 14407.02 13288.51 211.34 o
1 6 2 928.97 968.18 38.88 o
2 6 2 16767.30 14969.82 160.55 o
3 6 2 1011.61 1052.32 47.55 o
4 6 2 9083.73 8533.00 148.41 o
5 6 2 332.08 350.37 24.37 o
6 6 2 4450.67 4404.69 156.40 o
0 7 2 300.25 278.98 31.87 o
1 7 2 8747.17 7758.27 116.83 o
2 7 2 1044.85 967.62 38.93 o
3 7 2 8791.71 8258.61 144.25 o
4 7 2 240.32 178.00 19.48 o
5 7 2 3478.26 3320.19 95.51 o
6 7 2 292.18 231.50 42.10 o
0 8 2 6529.10 6246.05 180.63 o
1 8 2 437.14 440.27 28.17 o
2 8 2 6701.27 6109.22 141.48 o
3 8 2 286.88 224.25 24.60 o
4 8 2 4286.25 4379.71 125.40 o
5 8 2 231.64 136.63 30.89 o
6 8 2 2670.18 2904.55 577.50 o
0 9 2 419.90 458.08 43.02 o
1 9 2 4192.65 4161.15 120.69 o
2 9 2 133.11 56.48 21.99 o
3 9 2 2334.25 2100.41 110.19 o
4 9 2 222.01 232.12 32.61 o
5 9 2 2850.75 3482.08 301.57 o
6 9 2 84.53 33.22 32.13 o
0 10 2 3005.61 3745.73 466.08 o
1 10 2 144.87 46.71 20.68 o
2 10 2 2035.88 2091.45 117.56 o
3 10 2 118.21 114.49 29.53 o
4 10 2 1906.63 2250.76 114.04 o
5 10 2 81.30 130.83 47.83 o
2 11 2 100.36 53.56 26.55 o
3 11 2 1433.69 1750.45 127.06 o
4 11 2 48.59 384.36 86.03 o
2 2 3 447.22 384.30 67.52 o
1 3 3 406.11 229.65 31.04 o
2 3 3 404.37 425.86 34.68 o
3 3 3 695.73 516.24 48.75 o
1 4 3 1142.79 1154.90 50.19 o
2 4 3 29.40 20.56 6.61 o
3 4 3 517.07 486.72 27.28 o
4 4 3 56.94 38.65 11.68 o
1 5 3 24.71 7.77 3.78 o
2 5 3 85.35 55.34 11.04 o
3 5 3 141.91 85.25 13.14 o
4 5 3 237.39 226.43 18.85 o
5 5 3 24.27 28.90 8.43 o
1 6 3 603.23 526.73 30.46 o
2 6 3 176.85 92.43 11.82 o
3 6 3 427.07 375.15 29.83 o
4 6 3 81.13 34.87 7.43 o
5 6 3 72.23 46.73 8.84 o
6 6 3 2.60 22.73 14.28 o
1 7 3 25.95 21.25 7.04 o
2 7 3 28.33 23.55 8.69 o
3 7 3 7.26 35.30 14.14 o
4 7 3 14.93 27.43 13.65 o
5 7 3 17.71 37.46 13.13 o
6 7 3 32.17 18.89 16.34 o
1 8 3 225.34 186.60 20.66 o
2 8 3 18.76 7.70 10.12 o
3 8 3 85.80 65.47 16.69 o
4 8 3 19.54 17.47 13.94 o
5 8 3 52.29 32.92 12.07 o
6 8 3 24.13 23.62 27.06 o
1 9 3 0.12 29.61 11.85 o
2 9 3 0.11 17.38 5.79 o
3 9 3 13.94 49.09 18.92 o
4 9 3 6.17 19.85 9.08 o
5 9 3 19.93 18.28 17.56 o
2 10 3 1.04 18.41 13.05 o
3 10 3 27.60 35.27 18.42 o
4 10 3 7.44 29.17 7.01 o
2 11 3 0.27 14.57 18.28 o
3 11 3 2.14 40.54 15.66 o
4 11 3 2.34 49.15 41.82 o
3 3 4 12531.19 13136.77 498.98 o
0 4 4 16583.83 17443.22 548.13 o
1 4 4 5569.14 6002.25 189.85 o
2 4 4 7606.42 6893.13 205.26 o
3 4 4 2208.98 2519.20 100.94 o
4 4 4 11786.26 12499.90 272.93 o
0 5 4 7069.00 7336.13 286.90 o
1 5 4 10219.42 10812.39 294.42 o
2 5 4 1355.53 1634.64 101.02 o
3 5 4 4996.19 5067.01 145.19 o
4 5 4 3661.05 3584.04 100.04 o
5 5 4 5932.62 6509.40 208.63 o
0 6 4 6693.23 6648.24 210.52 o
1 6 4 2241.77 2364.97 99.79 o
2 6 4 7851.02 8366.76 218.97 o
3 6 4 2602.12 2741.45 113.40 o
4 6 4 3967.06 3755.56 120.33 o
5 6 4 885.27 836.02 49.34 o
6 6 4 1974.45 2235.43 98.75 o
0 7 4 727.42 678.76 62.84 o
1 7 4 3121.81 3136.50 91.82 o
2 7 4 2846.79 2802.54 176.05 o
3 7 4 4799.77 5241.69 171.13 o
4 7 4 660.00 554.92 51.97 o
5 7 4 2012.10 1988.89 79.54 o
6 7 4 881.49 1015.23 76.51 o
7 7 4 1874.63 2175.40 182.02 o
0 8 4 4196.62 4475.48 165.25 o
1 8 4 1217.37 1197.94 59.70 o
2 8 4 3135.85 2990.93 122.98 o
3 8 4 816.03 601.72 68.05 o
4 8 4 1462.37 1751.47 126.12 o
5 8 4 699.08 778.50 73.91 o
6 8 4 1332.94 1694.41 117.17 o
0 9 4 1239.30 1312.57 93.97 o
1 9 4 1750.43 1779.75 78.05 o
2 9 4 396.54 218.90 31.21 o
3 9 4 1321.39 1307.68 114.51 o
4 9 4 691.16 640.20 93.82 o
5 9 4 1537.12 2125.46 276.33 o
0 10 4 1431.27 1594.23 133.27 o
1 10 4 460.53 341.40 44.46 o
2 10 4 983.82 934.52 94.53 o
3 10 4 384.85 183.09 47.86 o
4 10 4 989.36 934.75 149.53 o
5 10 4 271.94 450.38 101.73 o
1 11 4 729.60 723.08 123.55 o
2 11 4 331.82 251.15 91.60 o
3 11 4 643.22 560.08 214.33 o
4 11 4 170.16 81.01 44.08 o
4 4 5 23.90 9.78 30.95 o
1 5 5 754.80 672.94 131.87 o
2 5 5 33.21 17.47 23.52 o
3 5 5 39.30 15.84 25.70 o
4 5 5 97.47 134.37 38.71 o
5 5 5 10.56 9.86 4.64 o
1 6 5 242.28 103.88 38.78 o
2 6 5 56.25 38.20 19.83 o
3 6 5 168.61 122.84 30.68 o
4 6 5 305.87 164.69 37.53 o
5 6 5 32.29 50.84 16.22 o
6 6 5 110.15 99.66 37.12 o
1 7 5 0.80 20.27 31.14 o
2 7 5 12.18 37.99 16.95 o
3 7 5 4.86 44.00 30.27 o
4 7 5 6.46 28.24 18.32 o
5 7 5 0.35 9.43 28.83 o
6 7 5 14.63 73.47 48.20 o
1 8 5 91.96 69.90 17.28 o
2 8 5 14.46 33.52 13.95 o
3 8 5 37.08 14.66 31.59 o
4 8 5 61.22 122.28 86.62 o
5 8 5 21.51 34.07 177.53 o
6 8 5 63.32 40.82 22.08 o
1 9 5 40.12 33.79 10.30 o
2 9 5 0.08 14.65 13.31 o
3 9 5 11.47 54.78 41.98 o
4 9 5 3.15 61.73 50.50 o
1 10 5 13.99 39.46 32.58 o
2 10 5 55.45 34.82 37.88 o
3 10 5 11.64 35.84 36.57 o
5 10 5 0.12 39.46 44.08 o
4 11 5 0.89 35.12 15.84 o
4 6 6 5619.23 4726.78 440.15 o
5 6 6 3771.01 3281.07 406.84 o
6 6 6 3618.06 3965.96 278.14 o
0 7 6 4060.85 3437.74 354.71 o
1 7 6 7981.59 7174.93 361.90 o
2 7 6 8678.89 7971.81 520.48 o
3 7 6 5134.03 4823.34 244.49 o
4 7 6 2992.41 2788.90 191.97 o
5 7 6 1842.77 1725.22 171.92 o
6 7 6 2803.04 3219.70 356.34 o
0 8 6 2347.41 2281.66 329.37 o
1 8 6 4343.68 4421.35 321.75 o
2 8 6 2856.68 2709.07 200.19 o
3 8 6 3059.33 2940.88 248.83 o
4 8 6 2790.51 2513.00 307.10 o
5 8 6 2311.34 2867.53 318.23 o
6 8 6 1828.62 2462.14 262.57 o
0 9 6 3680.66 3850.29 451.10 o
1 9 6 3041.71 3285.14 394.89 o
2 9 6 1694.33 1175.81 241.93 o
3 9 6 1602.72 1334.66 249.54 o
4 9 6 2100.14 2266.18 320.13 o
5 9 6 1157.28 1602.93 255.06 o
3 10 6 1243.11 1007.65 224.37 o
4 10 6 974.41 1069.19 228.36 o
