#------------------------------------------------------------------------------
#$Date: 2019-11-24 10:29:40 +0200 (Sun, 24 Nov 2019) $
#$Revision: 237638 $
#$URL: file:///home/coder/svn-repositories/cod/cif/7/23/73/7237375.cif $
#------------------------------------------------------------------------------
#
# This file is available in the Crystallography Open Database (COD),
# http://www.crystallography.net/
#
# All data on this site have been placed in the public domain by the
# contributors.
#
data_7237375
loop_
_publ_author_name
'Paliwoda, Damian'
'Szafra\'nski, Marek'
'Hanfland, Michael'
'Katrusiak, Andrzej'
_publ_section_title
;
 A giant 2-dimensional dielectric response in a compressed hydrogen-bonded
 hybrid organic--inorganic salt
;
_journal_issue                   28
_journal_name_full               'Journal of Materials Chemistry C'
_journal_page_first              7689
_journal_paper_doi               10.1039/C8TC02464B
_journal_volume                  6
_journal_year                    2018
_chemical_formula_moiety         'C4 H5 N2 Au Cl4'
_chemical_formula_sum            'C4 H5 Au Cl4 N2'
_chemical_formula_weight         419.87
_chemical_name_common            'pyrazinium tetrachloroaurate'
_chemical_name_systematic
; 
pyrazinium tetrachloroaurate 
;
_space_group_IT_number           138
_space_group_name_Hall           '-P 4ac 2ac'
_space_group_name_H-M_alt        'P 42/n c m :2'
_symmetry_cell_setting           tetragonal
_symmetry_space_group_name_Hall  '-P 4ac 2ac'
_symmetry_space_group_name_H-M   'P 42/n c m :2'
_atom_sites_solution_hydrogens   geom
_atom_sites_solution_primary     direct
_atom_sites_solution_secondary   difmap
_audit_creation_method           SHELXL-97
_audit_update_record
;
2017-04-07 deposited with the CCDC.
2018-06-28 downloaded from the CCDC.
;
_cell_angle_alpha                90.00
_cell_angle_beta                 90.00
_cell_angle_gamma                90.00
_cell_formula_units_Z            4
_cell_length_a                   7.83920(10)
_cell_length_b                   7.83920(10)
_cell_length_c                   15.7523(3)
_cell_measurement_reflns_used    5914
_cell_measurement_temperature    130(2)
_cell_measurement_theta_max      28.93
_cell_measurement_theta_min      2.59
_cell_volume                     968.03(3)
_computing_cell_refinement       'CrysAlisRED (Oxford Diffraction, 2004)'
_computing_data_collection       'CrysAlisCCD (Oxford Diffraction, 2004)'
_computing_data_reduction        'CrysAlisRED (Oxford Diffraction, 2004)'
_computing_molecular_graphics    'SHELXTL (Sheldrick, 1990)'
_computing_publication_material  'SHELXL--97 (Sheldrick, 1997)'
_computing_structure_refinement  'SHELXL--97 (Sheldrick, 1997)'
_computing_structure_solution    'SHELXS--97 (Sheldrick, 1997)'
_diffrn_ambient_temperature      130(2)
_diffrn_measured_fraction_theta_full 0.982
_diffrn_measured_fraction_theta_max 0.982
_diffrn_measurement_device_type  'KM-4 CCD'
_diffrn_measurement_method       \w-scans
_diffrn_radiation_monochromator  graphite
_diffrn_radiation_source         'fine-focus sealed tube'
_diffrn_radiation_type           MoK\a
_diffrn_radiation_wavelength     0.71073
_diffrn_reflns_av_R_equivalents  0.0766
_diffrn_reflns_av_sigmaI/netI    0.0305
_diffrn_reflns_limit_h_max       10
_diffrn_reflns_limit_h_min       -9
_diffrn_reflns_limit_k_max       10
_diffrn_reflns_limit_k_min       -10
_diffrn_reflns_limit_l_max       20
_diffrn_reflns_limit_l_min       -21
_diffrn_reflns_number            5914
_diffrn_reflns_theta_full        28.93
_diffrn_reflns_theta_max         28.93
_diffrn_reflns_theta_min         2.59
_diffrn_standards_decay_%        0
_diffrn_standards_interval_count 0
_diffrn_standards_number         0
_exptl_absorpt_coefficient_mu    16.239
_exptl_absorpt_correction_T_max  0.039
_exptl_absorpt_correction_T_min  0.028
_exptl_absorpt_correction_type   numerical
_exptl_absorpt_process_details
; 
 Correction for absorption was made using XEMP (SHELXTL, 
 Sheldrick (1990)).
;
_exptl_crystal_colour            orange
_exptl_crystal_density_diffrn    2.881
_exptl_crystal_density_method    'not measured'
_exptl_crystal_description       plate
_exptl_crystal_F_000             760
_exptl_crystal_size_max          0.50
_exptl_crystal_size_mid          0.20
_exptl_crystal_size_min          0.20
_refine_diff_density_max         2.362
_refine_diff_density_min         -2.415
_refine_diff_density_rms         0.318
_refine_ls_extinction_method     none
_refine_ls_goodness_of_fit_ref   1.147
_refine_ls_hydrogen_treatment    mixed
_refine_ls_matrix_type           full
_refine_ls_number_parameters     37
_refine_ls_number_reflns         694
_refine_ls_number_restraints     0
_refine_ls_restrained_S_all      1.147
_refine_ls_R_factor_all          0.0398
_refine_ls_R_factor_gt           0.0353
_refine_ls_shift/su_max          0.000
_refine_ls_shift/su_mean         0.000
_refine_ls_structure_factor_coef Fsqd
_refine_ls_weighting_details
'calc w=1/[\s^2^(Fo^2^)+(0.0732P)^2^+0.0641P] where P=(Fo^2^+2Fc^2^)/3'
_refine_ls_weighting_scheme      calc
_refine_ls_wR_factor_gt          0.1110
_refine_ls_wR_factor_ref         0.1165
_reflns_number_gt                585
_reflns_number_total             694
_reflns_threshold_expression     >2sigma(I)
_cod_data_source_file            c8tc02464b2.cif
_cod_data_source_block           pyrazinium_tetrachloroaurate_130K
_cod_original_sg_symbol_H-M      'P 42/n c m'
_cod_database_code               7237375
loop_
_symmetry_equiv_pos_as_xyz
'x, y, z'
'-x+1/2, -y+1/2, z'
'-y+1/2, x, z+1/2'
'y, -x+1/2, z+1/2'
'-x, y+1/2, -z+1/2'
'x+1/2, -y, -z+1/2'
'y+1/2, x+1/2, -z'
'-y, -x, -z'
'-x, -y, -z'
'x-1/2, y-1/2, -z'
'y-1/2, -x, -z-1/2'
'-y, x-1/2, -z-1/2'
'x, -y-1/2, z-1/2'
'-x-1/2, y, z-1/2'
'-y-1/2, -x-1/2, z'
'y, x, z'
loop_
_atom_site_label
_atom_site_type_symbol
_atom_site_fract_x
_atom_site_fract_y
_atom_site_fract_z
_atom_site_U_iso_or_equiv
_atom_site_adp_type
_atom_site_occupancy
_atom_site_symmetry_multiplicity
_atom_site_calc_flag
_atom_site_refinement_flags
Au1 Au 1.2500 0.2500 0.26386(3) 0.0164(2) Uani 1 4 d S
Cl1 Cl 1.04385(14) 0.04385(14) 0.26616(10) 0.0263(4) Uani 1 2 d S
Cl2 Cl 1.2500 0.2500 0.4091(3) 0.0222(7) Uani 1 4 d S
Cl3 Cl 1.2500 0.2500 0.1188(3) 0.0231(7) Uani 1 4 d S
N1 N 0.8727(4) 0.1273(4) 0.0000 0.0220(11) Uani 1 2 d S
H1A H 0.9503 0.0497 0.0000 0.026 Uiso 0.50 2 calc SPR
C1 C 0.8121(7) 0.1876(7) 0.0734(3) 0.0247(10) Uani 1 1 d .
H1 H 0.859(7) 0.145(7) 0.118(4) 0.036(15) Uiso 1 1 d .
loop_
_atom_site_aniso_label
_atom_site_aniso_U_11
_atom_site_aniso_U_22
_atom_site_aniso_U_33
_atom_site_aniso_U_23
_atom_site_aniso_U_13
_atom_site_aniso_U_12
Au1 0.0160(3) 0.0160(3) 0.0173(4) 0.000 0.000 0.00002(8)
Cl1 0.0266(6) 0.0266(6) 0.0256(8) 0.0000(4) 0.0000(4) -0.0080(7)
Cl2 0.0249(11) 0.0249(11) 0.0168(18) 0.000 0.000 0.0011(6)
Cl3 0.0262(11) 0.0262(11) 0.0168(17) 0.000 0.000 -0.0012(6)
N1 0.0187(15) 0.0187(15) 0.029(3) 0.0002(16) 0.0002(16) 0.0032(19)
C1 0.024(2) 0.025(2) 0.025(2) 0.003(2) -0.001(2) 0.004(3)
loop_
_atom_type_symbol
_atom_type_description
_atom_type_scat_dispersion_real
_atom_type_scat_dispersion_imag
_atom_type_scat_source
C C 0.0033 0.0016 'International Tables Vol C Tables 4.2.6.8 and 6.1.1.4'
H H 0.0000 0.0000 'International Tables Vol C Tables 4.2.6.8 and 6.1.1.4'
N N 0.0061 0.0033 'International Tables Vol C Tables 4.2.6.8 and 6.1.1.4'
Cl Cl 0.1484 0.1585 'International Tables Vol C Tables 4.2.6.8 and 6.1.1.4'
Au Au -2.0133 8.8022 'International Tables Vol C Tables 4.2.6.8 and 6.1.1.4'
loop_
_geom_angle_atom_site_label_1
_geom_angle_atom_site_label_2
_geom_angle_atom_site_label_3
_geom_angle
_geom_angle_site_symmetry_1
_geom_angle_site_symmetry_3
Cl2 Au1 Cl3 180.0 . .
Cl2 Au1 Cl1 89.09(4) . 2_755
Cl3 Au1 Cl1 90.91(4) . 2_755
Cl2 Au1 Cl1 89.09(4) . .
Cl3 Au1 Cl1 90.91(4) . .
Cl1 Au1 Cl1 178.18(8) 2_755 .
C1 N1 C1 119.8(6) . 8_665
N1 C1 C1 120.1(3) . 2_655
loop_
_geom_bond_atom_site_label_1
_geom_bond_atom_site_label_2
_geom_bond_distance
_geom_bond_site_symmetry_2
Au1 Cl2 2.288(4) .
Au1 Cl3 2.285(4) .
Au1 Cl1 2.2858(15) 2_755
Au1 Cl1 2.2858(15) .
N1 C1 1.337(5) .
N1 C1 1.337(5) 8_665
C1 C1 1.380(12) 2_655
loop_
_refln_index_h
_refln_index_k
_refln_index_l
_refln_F_squared_calc
_refln_F_squared_meas
_refln_F_squared_sigma
_refln_observed_status
1 1 0 103066.27 98631.48 763.39 o
0 2 0 122674.35 119644.96 2545.99 o
2 2 0 204969.98 192906.45 2518.94 o
1 3 0 104196.78 102600.71 938.58 o
3 3 0 95531.11 93932.27 1291.80 o
0 4 0 91685.97 92343.07 962.70 o
2 4 0 64596.39 64401.18 655.23 o
4 4 0 68782.50 66129.77 647.87 o
1 5 0 87514.07 87838.45 822.40 o
3 5 0 35741.77 35005.76 370.86 o
5 5 0 48548.79 46031.28 591.50 o
0 6 0 43857.63 43909.59 600.49 o
2 6 0 39091.67 39057.36 615.39 o
4 6 0 37405.50 36315.30 592.44 o
6 6 0 23367.97 25052.17 691.60 o
1 7 0 36375.72 37358.09 566.87 o
3 7 0 45137.42 44734.93 653.32 o
5 7 0 14796.55 14995.53 494.57 o
7 7 0 16239.02 16974.54 752.27 o
0 8 0 19452.85 19930.16 799.79 o
2 8 0 27419.23 28915.53 569.23 o
4 8 0 14736.05 14850.48 533.73 o
6 8 0 16203.49 16853.20 734.07 o
1 9 0 22481.14 24181.18 860.46 o
3 9 0 15357.31 14530.68 2964.58 o
5 9 0 15501.73 15368.89 683.51 o
0 10 0 17203.39 18341.56 671.38 o
2 10 0 8311.67 7488.38 2198.16 o
1 1 1 885.28 991.81 40.55 o
1 2 1 2860.63 3043.31 50.31 o
2 2 1 5128.29 5496.52 90.88 o
1 3 1 1711.84 1850.95 35.05 o
2 3 1 897.16 954.75 21.12 o
3 3 1 1780.57 2020.54 58.77 o
1 4 1 3802.35 3848.43 52.75 o
2 4 1 473.54 541.58 17.47 o
3 4 1 1418.96 1424.03 33.25 o
4 4 1 820.42 856.44 33.48 o
1 5 1 1.09 13.62 3.38 o
2 5 1 62.76 67.25 6.83 o
3 5 1 112.37 119.90 9.83 o
4 5 1 101.04 101.38 10.43 o
5 5 1 379.27 353.42 22.54 o
1 6 1 2197.84 2282.11 41.67 o
2 6 1 5.04 4.42 3.57 o
3 6 1 855.05 885.99 37.58 o
4 6 1 57.84 48.54 6.28 o
5 6 1 40.79 36.48 8.37 o
6 6 1 386.73 430.40 54.61 o
1 7 1 35.68 33.70 6.33 o
2 7 1 24.78 26.49 8.47 o
3 7 1 0.07 3.48 8.94 o
4 7 1 72.77 55.21 16.79 o
5 7 1 63.52 49.94 22.25 o
6 7 1 95.96 71.57 27.99 o
7 7 1 17.87 16.18 20.88 o
1 8 1 666.33 695.85 44.87 o
2 8 1 5.00 7.31 11.46 o
3 8 1 225.93 224.43 29.41 o
4 8 1 11.35 56.73 16.79 o
5 8 1 0.92 7.51 45.24 o
6 8 1 1.14 11.24 17.62 o
1 9 1 15.41 46.60 17.29 o
2 9 1 91.76 82.43 16.71 o
3 9 1 2.37 15.12 14.80 o
4 9 1 227.80 345.51 62.87 o
5 9 1 34.15 78.87 52.58 o
1 10 1 57.52 33.32 9.59 o
2 10 1 11.91 27.81 11.12 o
3 10 1 9.07 34.98 24.37 o
0 0 2 78971.24 36376.82 1051.56 o
0 1 2 2732.79 2837.40 90.07 o
1 1 2 106706.74 108813.93 1930.07 o
0 2 2 16477.91 16996.79 382.35 o
1 2 2 1406.86 1418.52 28.64 o
2 2 2 75405.91 76482.71 991.91 o
0 3 2 694.65 688.73 25.46 o
1 3 2 39393.52 40901.55 581.35 o
2 3 2 2226.25 2215.90 37.49 o
3 3 2 60353.48 60517.75 683.30 o
0 4 2 67343.98 67537.47 790.62 o
1 4 2 1387.12 1483.82 27.90 o
2 4 2 28555.39 28618.40 522.59 o
3 4 2 754.42 734.98 24.21 o
4 4 2 24171.53 24808.46 682.13 o
0 5 2 1899.80 1881.78 52.28 o
1 5 2 30663.07 31254.02 388.56 o
2 5 2 444.02 455.99 19.56 o
3 5 2 17266.93 17218.66 524.29 o
4 5 2 948.08 942.90 35.64 o
5 5 2 33033.98 34153.21 387.97 o
0 6 2 29825.08 31143.71 415.56 o
1 6 2 762.39 791.17 28.36 o
2 6 2 23329.36 23813.15 306.23 o
3 6 2 655.15 655.18 30.58 o
4 6 2 19052.36 19438.38 459.12 o
5 6 2 496.28 483.68 29.00 o
6 6 2 10366.31 10729.16 334.24 o
0 7 2 288.81 298.80 32.02 o
1 7 2 14699.22 14806.78 281.79 o
2 7 2 881.39 896.26 40.45 o
3 7 2 20380.29 21032.87 779.65 o
4 7 2 344.28 329.06 32.25 o
5 7 2 6302.21 6389.57 176.72 o
6 7 2 288.83 321.38 46.35 o
7 7 2 13265.14 14758.18 770.47 o
0 8 2 9804.66 10317.78 285.89 o
1 8 2 412.22 419.36 35.45 o
2 8 2 18773.41 19852.28 272.18 o
3 8 2 480.78 499.59 42.10 o
4 8 2 10163.74 10114.76 230.50 o
5 8 2 209.16 128.97 35.12 o
6 8 2 7452.12 7297.66 364.87 o
0 9 2 468.18 458.97 54.00 o
1 9 2 10915.84 11429.20 329.26 o
2 9 2 231.69 199.75 32.80 o
3 9 2 5701.15 5862.76 259.01 o
4 9 2 283.76 193.01 61.91 o
5 9 2 8905.71 9250.53 427.37 o
0 10 2 12066.95 14102.98 659.24 o
1 10 2 280.10 281.44 64.49 o
2 10 2 5078.74 5390.35 260.80 o
3 10 2 148.80 126.00 31.99 o
1 1 3 2936.00 3367.77 106.98 o
1 2 3 2240.72 2400.59 35.82 o
2 2 3 767.07 848.36 27.05 o
1 3 3 0.10 16.03 2.95 o
2 3 3 732.38 775.04 21.60 o
3 3 3 652.75 727.89 34.40 o
1 4 3 3198.32 3365.58 54.64 o
2 4 3 160.65 150.09 9.17 o
3 4 3 1204.53 1232.57 29.59 o
4 4 3 61.53 67.26 13.26 o
1 5 3 10.74 6.16 4.34 o
2 5 3 55.14 64.26 5.47 o
3 5 3 22.91 18.59 9.53 o
4 5 3 87.72 97.85 11.46 o
5 5 3 47.71 54.15 18.58 o
1 6 3 1908.12 1946.90 49.92 o
2 6 3 344.76 329.84 19.47 o
3 6 3 743.23 745.63 36.66 o
4 6 3 135.53 139.37 14.21 o
5 6 3 35.65 29.65 13.10 o
6 6 3 0.45 22.25 14.23 o
1 7 3 1.74 8.48 7.78 o
2 7 3 20.27 16.66 7.34 o
3 7 3 60.11 57.26 8.91 o
4 7 3 65.39 65.97 14.05 o
5 7 3 61.24 30.85 19.78 o
6 7 3 83.64 61.19 15.86 o
7 7 3 12.37 119.31 103.13 o
1 8 3 579.14 640.93 44.21 o
2 8 3 10.81 19.83 13.70 o
3 8 3 201.80 217.23 24.98 o
4 8 3 38.01 31.17 12.47 o
5 8 3 0.77 -6.80 8.66 o
6 8 3 28.67 22.89 13.14 o
1 9 3 9.67 8.01 7.00 o
2 9 3 82.44 56.34 18.39 o
3 9 3 55.38 21.80 15.53 o
4 9 3 197.81 232.03 43.39 o
5 9 3 21.89 2.02 59.66 o
1 10 3 50.43 44.86 47.52 o
2 10 3 14.14 -2.12 13.11 o
3 10 3 8.07 -28.04 54.60 o
0 0 4 83975.02 55411.80 1542.96 o
0 1 4 5291.23 5918.08 117.53 o
1 1 4 30561.97 33268.07 439.24 o
0 2 4 6182.37 6387.55 94.31 o
1 2 4 2544.06 2578.61 49.96 o
2 2 4 42573.38 41901.26 1199.70 o
0 3 4 1112.96 1182.22 40.82 o
1 3 4 24836.04 25291.36 393.35 o
2 3 4 5187.95 5240.49 101.43 o
3 3 4 26799.77 27269.14 558.73 o
0 4 4 23395.69 23291.08 503.04 o
1 4 4 3075.17 2980.78 60.01 o
2 4 4 13899.98 13669.93 200.29 o
3 4 4 1552.97 1561.57 35.37 o
4 4 4 20414.62 20689.81 628.04 o
0 5 4 4744.15 4759.19 96.97 o
1 5 4 21996.30 22409.16 394.77 o
2 5 4 807.48 789.13 24.91 o
3 5 4 6594.28 6609.18 150.45 o
4 5 4 2318.95 2467.10 70.25 o
5 5 4 17186.16 17611.22 590.40 o
0 6 4 15577.19 14891.32 386.94 o
1 6 4 1752.16 1729.73 43.12 o
2 6 4 12525.14 12755.89 257.79 o
3 6 4 1507.25 1483.32 52.47 o
4 6 4 11386.46 11491.52 268.43 o
5 6 4 1168.89 1239.70 64.56 o
6 6 4 6118.08 6275.09 236.62 o
0 7 4 542.09 517.49 42.01 o
1 7 4 7102.42 6922.97 210.04 o
2 7 4 2244.50 2247.67 62.29 o
3 7 4 14535.56 14769.85 442.17 o
4 7 4 762.60 783.09 46.36 o
5 7 4 4196.90 4283.35 123.84 o
6 7 4 677.57 715.16 59.08 o
7 7 4 7427.08 8299.20 665.31 o
0 8 4 7474.52 7602.34 373.02 o
1 8 4 942.61 949.17 53.36 o
2 8 4 11234.21 11600.45 432.74 o
3 8 4 1188.11 1164.05 66.11 o
4 8 4 3973.59 4052.53 147.44 o
5 8 4 468.64 457.36 53.87 o
6 8 4 4753.90 4478.93 280.91 o
0 9 4 1215.13 1364.40 130.16 o
1 9 4 5798.40 6159.66 189.49 o
2 9 4 525.68 533.26 56.42 o
3 9 4 4279.59 4388.73 202.27 o
4 9 4 695.27 700.35 76.00 o
5 9 4 6610.15 6070.71 709.80 o
0 10 4 7922.93 9518.60 602.62 o
1 10 4 681.51 753.65 82.92 o
2 10 4 2832.18 2995.11 171.71 o
3 10 4 336.45 354.31 85.86 o
1 1 5 975.85 906.94 40.11 o
1 2 5 1436.63 1569.63 33.83 o
2 2 5 383.96 446.56 27.04 o
1 3 5 601.06 619.16 20.50 o
2 3 5 497.16 532.18 19.15 o
3 3 5 460.30 413.64 22.52 o
1 4 5 2256.25 2216.05 42.37 o
2 4 5 783.50 813.25 24.66 o
3 4 5 891.06 850.66 23.98 o
4 4 5 4.11 2.41 8.35 o
1 5 5 331.18 322.63 13.84 o
2 5 5 45.42 37.49 5.20 o
3 5 5 318.93 322.00 16.71 o
4 5 5 59.21 49.59 6.79 o
5 5 5 13.27 3.59 13.50 o
1 6 5 1426.35 1437.71 39.57 o
2 6 5 72.70 68.47 8.70 o
3 6 5 560.13 532.01 24.52 o
4 6 5 672.65 673.46 28.25 o
5 6 5 30.31 7.78 20.58 o
6 6 5 303.99 276.21 42.70 o
1 7 5 190.31 187.49 15.76 o
2 7 5 19.41 27.59 7.84 o
3 7 5 15.13 19.31 7.60 o
4 7 5 41.88 36.57 10.07 o
5 7 5 1.58 -3.81 9.18 o
6 7 5 71.98 109.01 24.36 o
7 7 5 23.89 12.54 24.80 o
1 8 5 443.60 484.79 45.61 o
2 8 5 73.19 86.15 26.80 o
3 8 5 154.05 152.49 25.80 o
4 8 5 89.62 86.64 23.35 o
5 8 5 0.31 -6.78 22.98 o
6 8 5 60.26 55.38 34.30 o
1 9 5 187.72 235.56 41.15 o
2 9 5 57.95 40.58 21.44 o
3 9 5 0.46 -14.16 14.94 o
4 9 5 163.55 178.93 65.66 o
5 9 5 11.77 -46.51 46.51 o
1 10 5 39.43 60.49 26.90 o
2 10 5 133.51 173.36 73.81 o
0 0 6 135248.14 117588.81 1603.63 o
0 1 6 28806.61 28172.69 971.35 o
1 1 6 60128.96 60624.93 1517.12 o
0 2 6 52576.35 54767.13 1143.36 o
1 2 6 17753.48 18003.60 320.97 o
2 2 6 88605.88 90757.97 1518.11 o
0 3 6 11034.12 10951.93 133.05 o
1 3 6 37962.19 37954.52 573.33 o
2 3 6 22472.21 22336.67 344.56 o
3 3 6 54845.58 53708.20 1313.86 o
0 4 6 63322.42 64754.76 1309.10 o
1 4 6 15264.72 15042.57 192.10 o
2 4 6 33148.41 33401.64 572.72 o
3 4 6 9225.83 9002.45 188.82 o
4 4 6 26108.67 26968.29 818.86 o
0 5 6 18576.45 18103.04 546.28 o
1 5 6 37862.06 37768.51 612.64 o
2 5 6 6217.19 5979.52 103.65 o
3 5 6 22823.93 22321.97 334.27 o
4 5 6 9957.35 9286.46 275.65 o
5 5 6 30373.74 31265.51 1416.39 o
0 6 6 23679.21 22730.71 792.53 o
1 6 6 8573.87 8052.83 191.59 o
2 6 6 20580.67 21183.21 280.41 o
3 6 6 7234.42 7207.87 115.27 o
4 6 6 19721.40 20661.36 381.06 o
5 6 6 5371.50 5444.73 135.78 o
6 6 6 13345.75 13332.23 643.24 o
0 7 6 3854.65 3622.53 162.22 o
1 7 6 22820.22 22269.83 776.17 o
2 7 6 8872.00 9163.44 200.25 o
3 7 6 22782.11 24425.62 516.74 o
4 7 6 3996.65 4013.43 122.75 o
5 7 6 6912.54 7156.61 161.76 o
6 7 6 3122.01 3062.70 116.00 o
7 7 6 9843.32 9361.09 424.43 o
0 8 6 7414.29 8202.40 357.67 o
1 8 6 4556.93 4464.63 159.40 o
2 8 6 14746.33 16889.92 386.84 o
3 8 6 4944.39 5382.11 174.52 o
4 8 6 11040.29 11584.61 320.99 o
5 8 6 2361.28 2384.88 158.78 o
6 8 6 9580.47 8669.76 698.68 o
0 9 6 4702.33 5312.56 315.47 o
1 9 6 14741.58 16938.70 355.32 o
2 9 6 2629.10 2725.25 175.25 o
3 9 6 7503.87 8191.73 356.02 o
4 9 6 2905.39 2745.07 236.12 o
0 10 6 9204.28 10234.47 679.47 o
1 10 6 2810.21 2920.34 221.78 o
2 10 6 4785.25 5282.07 308.94 o
1 1 7 3300.80 3257.41 93.73 o
1 2 7 776.23 787.10 29.93 o
2 2 7 11.62 18.79 8.57 o
1 3 7 746.21 767.90 25.90 o
2 3 7 299.52 326.93 18.73 o
3 3 7 12.03 21.91 13.02 o
1 4 7 1348.38 1395.17 36.20 o
2 4 7 2.59 9.13 4.51 o
3 4 7 553.05 536.72 23.64 o
4 4 7 1910.51 2032.18 115.52 o
1 5 7 90.29 93.34 8.81 o
2 5 7 23.81 24.66 4.56 o
3 5 7 687.92 733.95 34.31 o
4 5 7 43.44 46.79 14.40 o
5 5 7 137.57 179.68 32.29 o
1 6 7 920.39 958.88 35.91 o
2 6 7 1257.05 1270.71 44.55 o
3 6 7 357.16 339.93 22.62 o
4 6 7 59.00 65.34 14.32 o
5 6 7 18.23 25.63 11.57 o
6 6 7 237.95 255.76 45.01 o
1 7 7 0.26 0.86 11.74 o
2 7 7 9.48 33.83 14.43 o
3 7 7 309.48 363.67 41.26 o
4 7 7 33.99 34.55 12.86 o
5 7 7 18.17 24.01 13.75 o
6 7 7 41.57 50.42 20.61 o
7 7 7 4.73 14.16 30.33 o
1 8 7 286.83 371.68 51.72 o
2 8 7 46.17 56.70 16.57 o
3 8 7 103.05 93.21 21.29 o
4 8 7 144.94 146.79 23.01 o
5 8 7 0.24 8.07 28.02 o
6 8 7 137.96 186.04 74.82 o
1 9 7 57.62 97.71 25.44 o
2 9 7 42.19 44.73 16.58 o
3 9 7 230.02 233.53 52.35 o
4 9 7 97.21 129.42 56.62 o
0 0 8 64359.27 72781.46 1268.58 o
0 1 8 33387.18 32028.40 1667.73 o
1 1 8 45453.50 44432.09 1439.53 o
0 2 8 17257.68 17411.43 535.78 o
1 2 8 21557.72 21666.18 266.74 o
2 2 8 39474.62 38955.18 945.77 o
0 3 8 13620.29 13207.67 250.75 o
1 3 8 35066.88 36164.68 620.17 o
2 3 8 28028.30 27507.53 520.88 o
3 3 8 29311.71 31024.46 752.62 o
0 4 8 25693.20 24759.19 449.88 o
1 4 8 19548.76 18420.47 365.78 o
2 4 8 19902.35 19420.92 516.91 o
3 4 8 12020.76 11967.94 222.59 o
4 4 8 23247.80 24021.14 1002.10 o
0 5 8 24015.73 23425.83 622.60 o
1 5 8 23574.65 23779.07 420.25 o
2 5 8 8069.66 7777.35 163.23 o
3 5 8 10411.25 10687.30 248.43 o
4 5 8 13273.17 13149.91 391.59 o
5 5 8 16604.03 16995.55 720.64 o
0 6 8 19815.56 19542.05 780.91 o
1 6 8 11443.06 11244.07 212.39 o
2 6 8 16546.82 16129.96 387.78 o
3 6 8 9753.91 9922.69 254.22 o
4 6 8 13097.25 13319.79 369.38 o
5 6 8 7339.34 7225.96 285.47 o
6 6 8 6815.72 6724.72 347.33 o
0 7 8 5172.79 4950.83 183.92 o
1 7 8 8070.11 8321.89 243.27 o
2 7 8 11971.99 12303.34 366.29 o
3 7 8 13710.44 14317.33 499.97 o
4 7 8 5444.41 5516.46 186.12 o
5 7 8 6454.69 6583.42 179.44 o
6 7 8 4327.18 3808.76 194.57 o
0 8 8 11195.42 10510.61 676.43 o
1 8 8 6233.91 6357.46 195.80 o
2 8 8 12554.76 13380.53 407.77 o
3 8 8 6824.31 7074.34 228.90 o
4 8 8 5077.89 5342.38 153.00 o
5 8 8 3314.37 3238.66 433.77 o
0 9 8 6531.59 6452.65 291.64 o
1 9 8 5526.34 5741.65 191.56 o
2 9 8 3665.08 3752.63 165.95 o
3 9 8 5038.56 5349.98 575.32 o
1 1 9 1411.74 1276.14 70.70 o
1 2 9 354.50 366.25 23.10 o
2 2 9 635.04 664.77 38.01 o
1 3 9 1098.99 1056.07 36.52 o
2 3 9 150.50 153.46 13.21 o
3 3 9 340.04 348.12 30.79 o
1 4 9 683.64 663.55 26.55 o
2 4 9 584.32 588.37 29.46 o
3 4 9 276.62 261.81 18.60 o
4 4 9 235.38 203.99 20.98 o
1 5 9 258.39 239.78 15.06 o
2 5 9 11.58 19.48 5.53 o
3 5 9 145.85 121.93 20.03 o
4 5 9 26.06 27.00 13.28 o
5 5 9 1.21 18.14 20.63 o
1 6 9 479.04 494.55 24.26 o
2 6 9 0.12 -8.24 8.51 o
3 6 9 202.65 180.29 27.00 o
4 6 9 776.76 806.21 51.39 o
5 6 9 7.11 9.38 8.22 o
6 6 9 627.95 703.18 75.25 o
1 7 9 231.92 233.27 27.01 o
2 7 9 4.95 15.38 13.14 o
3 7 9 0.36 13.35 8.16 o
4 7 9 20.30 14.14 12.39 o
5 7 9 6.43 -1.84 12.55 o
6 7 9 18.87 102.57 42.76 o
1 8 9 159.85 163.28 26.06 o
2 8 9 104.44 106.83 20.74 o
3 8 9 48.32 100.53 22.56 o
4 8 9 219.80 243.30 36.73 o
5 8 9 0.77 72.80 66.73 o
1 9 9 275.38 284.97 46.36 o
2 9 9 23.04 22.13 25.29 o
3 9 9 21.48 24.27 32.36 o
0 0 10 10292.69 13477.90 552.82 o
0 1 10 13537.21 14268.12 700.48 o
1 1 10 9237.14 9053.94 371.41 o
0 2 10 3735.24 3829.04 149.59 o
1 2 10 7696.03 7708.39 237.79 o
2 2 10 10288.23 9980.13 427.73 o
0 3 10 3974.50 3948.40 118.43 o
1 3 10 4405.63 3969.07 114.38 o
2 3 10 13738.21 13145.22 336.57 o
3 3 10 8468.63 8388.75 444.95 o
0 4 10 9812.30 9480.30 181.44 o
1 4 10 8675.75 8312.90 206.08 o
2 4 10 4080.91 3880.47 86.10 o
3 4 10 4722.83 4816.42 108.71 o
4 4 10 3208.67 3194.53 167.31 o
0 5 10 13275.10 12118.85 311.10 o
1 5 10 4708.66 4503.43 128.11 o
2 5 10 2640.20 2467.67 78.30 o
3 5 10 3085.40 3171.00 98.41 o
4 5 10 6987.24 7148.20 309.00 o
5 5 10 5610.72 5876.16 237.74 o
0 6 10 3989.44 3737.74 144.45 o
1 6 10 5309.85 5056.84 173.18 o
2 6 10 3283.16 3189.64 95.96 o
3 6 10 4693.31 4533.14 141.43 o
4 6 10 3161.45 3296.95 150.51 o
5 6 10 3780.87 3924.76 149.58 o
6 6 10 2136.29 2113.54 156.69 o
0 7 10 1862.60 1856.39 118.13 o
1 7 10 3192.27 3239.03 108.33 o
2 7 10 6917.51 6896.87 207.86 o
3 7 10 3542.83 3517.09 139.78 o
4 7 10 2560.05 2551.87 108.59 o
5 7 10 987.07 914.11 77.30 o
6 7 10 2314.92 2163.45 495.44 o
0 8 10 1166.47 1131.98 94.17 o
1 8 10 3112.67 3075.17 155.95 o
2 8 10 2921.79 2984.32 116.06 o
3 8 10 3864.80 4050.03 188.11 o
4 8 10 2168.50 1969.92 183.17 o
0 9 10 3934.18 4432.71 394.33 o
1 9 10 2475.58 2797.85 222.94 o
2 9 10 1835.03 1806.77 136.40 o
1 1 11 2939.72 2931.36 148.30 o
1 2 11 130.82 104.12 12.86 o
2 2 11 36.46 12.27 12.99 o
1 3 11 355.42 322.93 22.25 o
2 3 11 53.12 65.00 10.20 o
3 3 11 799.46 703.60 54.21 o
1 4 11 266.12 260.94 20.96 o
2 4 11 473.15 393.55 26.04 o
3 4 11 114.97 93.67 18.09 o
4 4 11 363.33 297.31 32.40 o
1 5 11 13.06 0.82 6.98 o
2 5 11 6.96 20.60 9.73 o
3 5 11 4.62 12.37 9.60 o
4 5 11 6.95 12.23 21.38 o
5 5 11 27.44 18.00 22.63 o
1 6 11 195.16 175.36 20.04 o
2 6 11 426.45 426.70 38.27 o
3 6 11 78.12 26.19 21.06 o
4 6 11 664.49 640.84 56.30 o
5 6 11 4.77 -7.47 11.55 o
6 6 11 118.28 162.91 83.92 o
1 7 11 31.75 23.10 10.60 o
2 7 11 3.32 33.04 14.26 o
3 7 11 82.89 64.03 18.92 o
4 7 11 4.83 5.48 19.96 o
5 7 11 90.94 70.84 45.26 o
1 8 11 62.96 69.85 19.48 o
2 8 11 91.23 57.49 17.60 o
3 8 11 22.71 15.23 29.77 o
4 8 11 156.37 92.32 49.26 o
1 9 11 123.44 151.72 50.75 o
0 0 12 17806.68 24260.24 744.56 o
0 1 12 24851.21 28532.02 1096.29 o
1 1 12 4069.89 4581.85 241.04 o
0 2 12 6226.81 6319.42 353.89 o
1 2 12 16401.85 16318.38 893.90 o
2 2 12 9429.00 8719.85 708.34 o
0 3 12 10523.39 9781.30 530.44 o
1 3 12 5377.67 5282.57 261.62 o
2 3 12 23174.73 20698.11 1261.94 o
3 3 12 4991.55 4632.54 430.42 o
0 4 12 4720.19 4335.87 121.46 o
1 4 12 16122.45 14483.70 281.13 o
2 4 12 4115.06 3773.28 129.33 o
3 4 12 10059.79 9413.73 538.57 o
4 4 12 5021.88 5706.67 617.92 o
0 5 12 21253.42 18486.98 369.20 o
1 5 12 5851.70 5256.41 160.04 o
2 5 12 6745.35 5814.48 177.00 o
3 5 12 2541.09 2464.74 113.11 o
4 5 12 12080.89 12216.48 675.33 o
5 5 12 3245.97 3361.45 269.18 o
0 6 12 2796.78 2566.18 135.72 o
1 6 12 10075.74 8886.88 228.17 o
2 6 12 2640.26 2453.68 96.66 o
3 6 12 8766.68 8043.74 229.20 o
4 6 12 2769.67 2844.63 148.31 o
5 6 12 6847.03 6972.99 402.04 o
6 6 12 2006.27 2770.44 424.67 o
0 7 12 4561.41 4010.13 173.79 o
1 7 12 2951.15 2840.13 119.91 o
2 7 12 11268.87 10226.49 429.94 o
3 7 12 3699.53 3504.22 151.77 o
4 7 12 5096.93 4736.54 240.06 o
5 7 12 1435.54 1464.37 231.54 o
0 8 12 1635.37 1507.65 124.65 o
1 8 12 5843.02 5326.82 193.46 o
2 8 12 1926.06 1847.28 128.05 o
3 8 12 6533.53 5748.48 273.58 o
1 1 13 1018.73 1126.99 76.19 o
1 2 13 30.34 38.00 12.47 o
2 2 13 870.47 810.21 85.19 o
1 3 13 1329.80 1311.07 94.94 o
2 3 13 12.53 36.63 8.07 o
3 3 13 8.42 21.32 26.58 o
1 4 13 60.08 47.54 8.28 o
2 4 13 20.01 21.44 12.84 o
3 4 13 30.06 28.91 15.09 o
4 4 13 1349.03 1517.93 250.14 o
1 5 13 17.95 16.09 9.34 o
2 5 13 1.24 16.19 18.34 o
3 5 13 100.45 111.68 26.29 o
4 5 13 1.66 6.67 16.37 o
5 5 13 214.35 273.69 63.59 o
1 6 13 50.01 39.47 18.07 o
2 6 13 188.32 161.94 24.13 o
3 6 13 14.96 29.75 15.07 o
4 6 13 180.46 196.65 31.73 o
5 6 13 2.01 3.03 45.50 o
6 6 13 801.00 1049.53 256.82 o
1 7 13 94.80 49.13 13.12 o
2 7 13 0.53 6.85 16.56 o
3 7 13 60.42 9.84 23.27 o
4 7 13 1.64 -25.13 25.13 o
1 8 13 13.96 2.07 20.01 o
2 8 13 81.25 94.41 29.23 o
0 0 14 1904.45 3046.78 402.42 o
0 1 14 37351.66 46561.58 1176.12 o
1 1 14 7595.42 9821.81 351.21 o
0 2 14 2164.64 2365.49 144.22 o
1 2 14 27284.54 28088.80 1141.13 o
2 2 14 3248.95 3079.83 252.32 o
0 3 14 19526.14 17913.04 1245.04 o
1 3 14 3665.40 3745.24 203.14 o
2 3 14 33349.89 31359.38 2344.96 o
3 3 14 4081.69 3965.82 658.46 o
0 4 14 4526.50 4036.71 218.97 o
1 4 14 25217.42 22669.84 1740.32 o
2 4 14 2823.64 2454.64 194.30 o
3 4 14 17177.38 15938.20 1553.10 o
4 4 14 1804.24 1869.07 314.07 o
0 5 14 29454.82 21198.55 608.94 o
1 5 14 1900.55 1738.98 84.26 o
2 5 14 12623.61 11055.68 638.88 o
3 5 14 2100.31 2320.43 242.29 o
4 5 14 17837.29 18403.77 1854.07 o
5 5 14 2347.53 2994.05 1036.39 o
0 6 14 3156.65 2828.57 199.65 o
1 6 14 16066.24 13916.54 601.66 o
2 6 14 2549.77 2370.28 140.48 o
3 6 14 13895.69 13192.31 761.27 o
4 6 14 1660.13 1861.27 153.40 o
5 6 14 10597.21 14198.02 962.58 o
0 7 14 8510.41 7147.70 309.62 o
1 7 14 1138.56 959.95 94.38 o
2 7 14 15938.55 12078.37 521.31 o
3 7 14 1179.73 980.71 157.78 o
1 1 15 1752.12 2287.33 109.80 o
1 2 15 0.67 9.65 8.60 o
2 2 15 41.77 9.61 14.40 o
1 3 15 173.10 122.46 18.78 o
2 3 15 0.50 9.67 8.45 o
3 3 15 770.65 639.04 75.26 o
1 4 15 2.02 0.30 18.25 o
2 4 15 485.37 419.41 51.76 o
3 4 15 0.28 -3.14 27.78 o
4 4 15 112.41 142.01 44.95 o
1 5 15 31.31 23.17 10.21 o
2 5 15 0.00 15.97 13.85 o
3 5 15 10.25 5.23 15.80 o
4 5 15 0.26 -6.51 19.54 o
1 6 15 0.87 26.61 19.89 o
2 6 15 199.77 195.88 34.56 o
3 6 15 1.32 21.33 30.72 o
4 6 15 546.99 428.71 127.40 o
1 7 15 29.51 -40.44 56.62 o
2 7 15 0.00 1.58 73.81 o
3 7 15 39.57 66.73 64.71 o
0 0 16 1170.57 1943.55 206.78 o
0 1 16 13427.76 18148.30 344.89 o
1 1 16 79.61 175.49 31.53 o
0 2 16 634.08 783.13 64.12 o
1 2 16 9065.99 10643.03 352.20 o
2 2 16 397.13 510.70 63.53 o
0 3 16 5921.85 6314.01 472.10 o
1 3 16 402.39 390.92 36.73 o
2 3 16 13167.61 13517.60 959.96 o
3 3 16 149.64 137.99 29.47 o
0 4 16 74.98 58.47 36.17 o
1 4 16 9345.00 9084.10 597.63 o
2 4 16 258.89 244.25 33.53 o
3 4 16 6016.69 6104.06 750.95 o
4 4 16 417.70 405.14 196.15 o
0 5 16 12516.25 12768.41 630.44 o
1 5 16 446.63 369.00 49.54 o
2 5 16 4113.16 3907.68 329.39 o
3 5 16 175.66 245.15 41.67 o
4 5 16 7442.01 5607.62 515.67 o
0 6 16 95.69 80.41 36.44 o
1 6 16 6208.02 5304.56 546.00 o
2 6 16 129.58 148.62 42.52 o
3 6 16 5507.88 4086.91 414.56 o
1 7 16 209.08 80.89 20.22 o
1 1 17 591.46 777.73 67.78 o
1 2 17 5.53 1.05 13.10 o
2 2 17 233.63 211.47 35.91 o
1 3 17 485.89 500.64 43.08 o
2 3 17 2.38 -3.29 12.75 o
3 3 17 47.05 47.60 41.95 o
1 4 17 11.84 4.12 16.80 o
2 4 17 107.54 97.59 17.10 o
3 4 17 5.46 14.51 14.40 o
4 4 17 284.19 121.33 48.53 o
1 5 17 44.76 21.93 19.36 o
2 5 17 0.29 19.54 24.54 o
3 5 17 1.41 -10.44 32.73 o
1 6 17 9.52 64.71 48.53 o
0 0 18 65.64 89.74 45.50 o
0 1 18 7810.24 10578.04 279.03 o
1 1 18 1.60 61.73 27.28 o
0 2 18 111.29 160.60 35.66 o
1 2 18 5272.48 6676.91 163.26 o
2 2 18 1.66 44.26 28.88 o
0 3 18 3454.54 4123.16 395.76 o
1 3 18 12.30 23.58 16.11 o
2 3 18 7885.80 8533.42 456.17 o
3 3 18 0.59 -13.79 27.22 o
0 4 18 18.75 46.36 35.81 o
1 4 18 5596.36 5143.58 474.46 o
2 4 18 10.58 36.20 15.56 o
3 4 18 3650.63 3392.28 279.55 o
4 4 18 29.66 14.16 26.29 o
0 5 18 7677.49 6145.76 1685.52 o
1 5 18 7.47 71.93 167.84 o
2 5 18 2518.57 1945.40 167.53 o
1 1 19 553.50 820.25 79.66 o
1 2 19 18.21 42.99 14.99 o
2 2 19 17.98 17.56 23.06 o
1 3 19 195.92 263.75 32.43 o
2 3 19 9.12 4.16 14.15 o
3 3 19 22.46 -34.38 86.96 o
1 4 19 41.89 26.03 29.15 o
2 4 19 12.27 8.52 12.02 o
0 0 20 1271.05 1850.33 311.42 o
0 1 20 14118.78 20933.16 527.23 o
1 1 20 199.33 273.88 59.32 o
0 2 20 333.03 498.18 83.47 o
1 2 20 10992.01 14105.46 451.52 o
2 2 20 912.29 1207.89 116.49 o
0 3 20 8446.18 8878.44 450.65 o
1 3 20 119.16 67.19 34.24 o
2 3 20 12752.32 15426.68 2291.18 o
1 1 21 219.59 333.67 129.42 o
