#------------------------------------------------------------------------------
#$Date: 2019-11-24 09:31:59 +0200 (Sun, 24 Nov 2019) $
#$Revision: 237472 $
#$URL: file:///home/coder/svn-repositories/cod/cif/7/23/71/7237189.cif $
#------------------------------------------------------------------------------
#
# This file is available in the Crystallography Open Database (COD),
# http://www.crystallography.net/
#
# All data on this site have been placed in the public domain by the
# contributors.
#
data_7237189
loop_
_publ_author_name
'Dalinger, Igor L.'
'Serushkina, Olga V.'
'Muravyev, Nikita V.'
'Meerov, Dmitry B.'
'Miroshnichenko, Evgeniy A.'
'Kon'kova, Tatyana S.'
'Suponitsky, Kyrill Yu.'
'Vener, Mikhail V.'
'Sheremetev, Aleksei B.'
_publ_section_title
;
 Azasydnone -- novel &#x201C;green&#x201D; building block for designing
 high energetic compounds
;
_journal_issue                   38
_journal_name_full               'Journal of Materials Chemistry A'
_journal_page_first              18669
_journal_paper_doi               10.1039/C8TA06895J
_journal_volume                  6
_journal_year                    2018
_chemical_formula_moiety         'C6 H4 N4 O2'
_chemical_formula_sum            'C6 H4 N4 O2'
_chemical_formula_weight         164.13
_space_group_crystal_system      triclinic
_space_group_IT_number           2
_space_group_name_Hall           '-P 1'
_space_group_name_H-M_alt        'P -1'
_atom_sites_solution_hydrogens   geom
_atom_sites_solution_primary     direct
_atom_sites_solution_secondary   difmap
_audit_creation_method           SHELXL-2014/6
_audit_update_record
;
2018-07-05 deposited with the CCDC.
2018-09-06 downloaded from the CCDC.
;
_cell_angle_alpha                98.1710(10)
_cell_angle_beta                 94.5500(10)
_cell_angle_gamma                92.6580(10)
_cell_formula_units_Z            4
_cell_length_a                   3.7040(2)
_cell_length_b                   10.7498(5)
_cell_length_c                   17.5309(9)
_cell_measurement_reflns_used    4663
_cell_measurement_temperature    100(2)
_cell_measurement_theta_max      31.09
_cell_measurement_theta_min      2.36
_cell_volume                     687.59(6)
_computing_cell_refinement       'SAINT (Bruker, 2009)'
_computing_data_collection       'APEX (Bruker, 2009)'
_computing_data_reduction        'SAINT (Bruker, 2009)'
_computing_molecular_graphics    'SHELXL-2014/6 (Sheldrick, 2014)'
_computing_publication_material
'SHELXL-2014/6 (Sheldrick, 2014) and PLATON (Spek, 2009)'
_computing_structure_refinement  'SHELXL-2014/6 (Sheldrick, 2014)'
_computing_structure_solution    'SHELXL-2014/6 (Sheldrick, 2014)'
_diffrn_ambient_temperature      100(2)
_diffrn_measured_fraction_theta_full 0.999
_diffrn_measured_fraction_theta_max 0.998
_diffrn_measurement_device_type  'Bruker APEX-II CCD'
_diffrn_measurement_method       '\f and \w scans'
_diffrn_radiation_type           MoK\a
_diffrn_radiation_wavelength     0.71073
_diffrn_reflns_av_R_equivalents  0.0194
_diffrn_reflns_av_unetI/netI     0.0252
_diffrn_reflns_Laue_measured_fraction_full 0.999
_diffrn_reflns_Laue_measured_fraction_max 0.998
_diffrn_reflns_limit_h_max       5
_diffrn_reflns_limit_h_min       -5
_diffrn_reflns_limit_k_max       15
_diffrn_reflns_limit_k_min       -15
_diffrn_reflns_limit_l_max       25
_diffrn_reflns_limit_l_min       -25
_diffrn_reflns_number            10802
_diffrn_reflns_point_group_measured_fraction_full 0.999
_diffrn_reflns_point_group_measured_fraction_max 0.998
_diffrn_reflns_theta_full        25.242
_diffrn_reflns_theta_max         31.118
_diffrn_reflns_theta_min         2.098
_diffrn_source                   'sealed tube'
_exptl_absorpt_coefficient_mu    0.125
_exptl_absorpt_correction_type   none
_exptl_crystal_colour            yellow
_exptl_crystal_density_diffrn    1.586
_exptl_crystal_description       needle
_exptl_crystal_F_000             336
_exptl_crystal_size_max          0.22
_exptl_crystal_size_mid          0.06
_exptl_crystal_size_min          0.04
_refine_diff_density_max         0.455
_refine_diff_density_min         -0.231
_refine_diff_density_rms         0.053
_refine_ls_extinction_method     none
_refine_ls_goodness_of_fit_ref   1.030
_refine_ls_hydrogen_treatment    constr
_refine_ls_matrix_type           full
_refine_ls_number_parameters     217
_refine_ls_number_reflns         4436
_refine_ls_number_restraints     0
_refine_ls_restrained_S_all      1.030
_refine_ls_R_factor_all          0.0469
_refine_ls_R_factor_gt           0.0377
_refine_ls_shift/su_max          0.001
_refine_ls_shift/su_mean         0.000
_refine_ls_structure_factor_coef Fsqd
_refine_ls_weighting_details
'w=1/[\s^2^(Fo^2^)+(0.0609P)^2^+0.1243P] where P=(Fo^2^+2Fc^2^)/3'
_refine_ls_weighting_scheme      calc
_refine_ls_wR_factor_gt          0.1003
_refine_ls_wR_factor_ref         0.1080
_reflns_Friedel_coverage         0.000
_reflns_number_gt                3670
_reflns_number_total             4436
_reflns_threshold_expression     'I > 2\s(I)'
_cod_data_source_file            c8ta06895j3.cif
_cod_data_source_block           sh369
_cod_database_code               7237189
_shelx_space_group_comment
;
The symmetry employed for this shelxl refinement is uniquely defined
by the following loop, which should always be used as a source of
symmetry information in preference to the above space-group names.
They are only intended as comments.
;
_shelxl_version_number           2014/6
_shelx_res_file
;
TITL sh369 in P-1
CELL 0.71073   3.7040  10.7498  17.5309  98.171  94.550  92.658
ZERR    4.00   0.0002   0.0005   0.0009   0.001   0.001   0.001
LATT  1
SFAC C H N O
UNIT 24 16 16 8
TEMP -173.000

ACTA
CONF
HTAB

L.S. 6
BOND $H
FMAP 2
PLAN 10

OMIT  0  0  1

WGHT    0.060900    0.124300
FVAR       0.52562
O1    4    0.089956    0.941550    0.415593    11.00000    0.02929    0.01963 =
         0.01815    0.00318    0.00445   -0.00575
O2    4    0.107467    0.939608    0.292020    11.00000    0.04013    0.02387 =
         0.01518   -0.00255   -0.00319   -0.00490
N1    3    0.697613    1.361930    0.538610    11.00000    0.02446    0.01795 =
         0.01722    0.00096   -0.00013   -0.00513
N2    3    0.558852    1.319740    0.593108    11.00000    0.02142    0.01733 =
         0.01676   -0.00207   -0.00173   -0.00192
N3    3    0.449888    1.293440    0.647295    11.00000    0.03198    0.02746 =
         0.01714   -0.00118    0.00095   -0.00470
N4    3    0.172444    0.990520    0.359403    11.00000    0.01732    0.01681 =
         0.01491    0.00088   -0.00014   -0.00018
C1    1    0.602037    1.293313    0.463400    11.00000    0.01453    0.01586 =
         0.01576    0.00160    0.00058    0.00024
C2    1    0.426945    1.173741    0.450207    11.00000    0.01477    0.01505 =
         0.01292    0.00256    0.00080    0.00044
AFIX  43
H2    2    0.358404    1.132577    0.491796    11.00000   -1.20000
AFIX   0
C3    1    0.356465    1.117023    0.373760    11.00000    0.01406    0.01453 =
         0.01399    0.00172    0.00057    0.00007
C4    1    0.448739    1.173350    0.311011    11.00000    0.01793    0.02167 =
         0.01379    0.00386    0.00168    0.00146
AFIX  43
H4    2    0.394159    1.131942    0.259514    11.00000   -1.20000
AFIX   0
C5    1    0.624502    1.292940    0.326194    11.00000    0.01882    0.02090 =
         0.02018    0.00830    0.00451    0.00092
AFIX  43
H5    2    0.691235    1.333975    0.284418    11.00000   -1.20000
AFIX   0
C6    1    0.703099    1.352731    0.401666    11.00000    0.01657    0.01632 =
         0.02119    0.00537    0.00243   -0.00020
AFIX  43
H6    2    0.825243    1.433819    0.411368    11.00000   -1.20000
AFIX   0
O1'   4    0.412081    0.696956   -0.134196    11.00000    0.03461    0.02281 =
         0.01461    0.00004   -0.00076   -0.00351
O2'   4    0.767797    0.866185   -0.103405    11.00000    0.03127    0.02228 =
         0.02154    0.00694    0.00739   -0.00381
N1'   3    0.179632    0.546453    0.110746    11.00000    0.02378    0.01662 =
         0.01459    0.00281    0.00352   -0.00282
N2'   3    0.129595    0.541129    0.179728    11.00000    0.02109    0.01617 =
         0.01856    0.00207    0.00217   -0.00387
N3'   3    0.065243    0.522946    0.239073    11.00000    0.04246    0.02526 =
         0.02016    0.00291    0.00623   -0.01216
N4'   3    0.576036    0.779000   -0.086326    11.00000    0.01968    0.01637 =
         0.01452    0.00282    0.00255    0.00203
C1'   1    0.348131    0.660357    0.094350    11.00000    0.01384    0.01444 =
         0.01443    0.00273    0.00117    0.00036
C2'   1    0.377934    0.665514    0.016165    11.00000    0.01548    0.01411 =
         0.01313    0.00095    0.00070    0.00083
AFIX  43
H2'   2    0.289533    0.597166   -0.022244    11.00000   -1.20000
AFIX   0
C3'   1    0.540767    0.773610   -0.003779    11.00000    0.01412    0.01564 =
         0.01229    0.00229    0.00082    0.00144
C4'   1    0.672856    0.876293    0.050434    11.00000    0.01554    0.01456 =
         0.01626    0.00221    0.00044   -0.00026
AFIX  43
H4'   2    0.782648    0.949189    0.034883    11.00000   -1.20000
AFIX   0
C5'   1    0.638869    0.868658    0.127903    11.00000    0.01711    0.01576 =
         0.01536   -0.00001   -0.00065   -0.00095
AFIX  43
H5'   2    0.726294    0.937499    0.166052    11.00000   -1.20000
AFIX   0
C6'   1    0.478309    0.761453    0.150617    11.00000    0.01696    0.01708 =
         0.01270    0.00166    0.00055    0.00075
AFIX  43
H6'   2    0.457490    0.757099    0.203849    11.00000   -1.20000

AFIX   0
HKLF 4

REM  sh369 in P-1
REM R1 =  0.0377 for    3670 Fo > 4sig(Fo)  and  0.0469 for all    4436 data
REM    217 parameters refined using      0 restraints

END

WGHT      0.0609      0.1243

REM Instructions for potential hydrogen bonds
EQIV $1 -x, -y+2, -z+1
HTAB C2 O1_$1
EQIV $2 -x, -y+1, -z
HTAB C2' N1'_$2
EQIV $3 -x+2, -y+2, -z
HTAB C4' O2'_$3

REM Highest difference peak  0.455,  deepest hole -0.231,  1-sigma level  0.053
Q1    1   0.5002  1.2341  0.4548  11.00000  0.05    0.46
Q2    1   0.3880  1.1473  0.4122  11.00000  0.05    0.44
Q3    1   0.5505  0.8143  0.1377  11.00000  0.05    0.43
Q4    1   0.5968  0.8266  0.0245  11.00000  0.05    0.42
Q5    1   0.3624  0.6628  0.0571  11.00000  0.05    0.41
Q6    1   0.6232  0.8751  0.0886  11.00000  0.05    0.41
Q7    1   0.4400  0.7233  0.0062  11.00000  0.05    0.41
Q8    1   0.5438  1.2343  0.3240  11.00000  0.05    0.39
Q9    1   0.4008  0.7176  0.1201  11.00000  0.05    0.38
Q10   1   0.6594  1.3178  0.3649  11.00000  0.05    0.38
;
_shelx_res_checksum              47123
loop_
_space_group_symop_operation_xyz
'x, y, z'
'-x, -y, -z'
loop_
_atom_site_label
_atom_site_type_symbol
_atom_site_fract_x
_atom_site_fract_y
_atom_site_fract_z
_atom_site_U_iso_or_equiv
_atom_site_adp_type
_atom_site_occupancy
_atom_site_site_symmetry_order
_atom_site_calc_flag
_atom_site_refinement_flags_posn
_atom_site_refinement_flags_adp
O1 O 0.0900(2) 0.94155(7) 0.41559(4) 0.02241(16) Uani 1 1 d . .
O2 O 0.1075(2) 0.93961(8) 0.29202(4) 0.02743(18) Uani 1 1 d . .
N1 N 0.6976(2) 1.36193(8) 0.53861(5) 0.02034(17) Uani 1 1 d . .
N2 N 0.5589(2) 1.31974(8) 0.59311(5) 0.01923(17) Uani 1 1 d . .
N3 N 0.4499(3) 1.29344(9) 0.64730(5) 0.0262(2) Uani 1 1 d . .
N4 N 0.1724(2) 0.99052(8) 0.35940(5) 0.01661(16) Uani 1 1 d . .
C1 C 0.6020(2) 1.29331(9) 0.46340(5) 0.01551(17) Uani 1 1 d . .
C2 C 0.4269(2) 1.17374(8) 0.45021(5) 0.01423(17) Uani 1 1 d . .
H2 H 0.3584 1.1326 0.4918 0.017 Uiso 1 1 calc R U
C3 C 0.3565(2) 1.11702(8) 0.37376(5) 0.01429(17) Uani 1 1 d . .
C4 C 0.4487(3) 1.17335(9) 0.31101(5) 0.01765(18) Uani 1 1 d . .
H4 H 0.3942 1.1319 0.2595 0.021 Uiso 1 1 calc R U
C5 C 0.6245(3) 1.29294(9) 0.32619(6) 0.01931(19) Uani 1 1 d . .
H5 H 0.6912 1.3340 0.2844 0.023 Uiso 1 1 calc R U
C6 C 0.7031(3) 1.35273(9) 0.40167(6) 0.01776(18) Uani 1 1 d . .
H6 H 0.8252 1.4338 0.4114 0.021 Uiso 1 1 calc R U
O1' O 0.4121(2) 0.69696(7) -0.13420(4) 0.02459(17) Uani 1 1 d . .
O2' O 0.7678(2) 0.86619(7) -0.10341(4) 0.02456(17) Uani 1 1 d . .
N1' N 0.1796(2) 0.54645(8) 0.11075(5) 0.01830(17) Uani 1 1 d . .
N2' N 0.1296(2) 0.54113(8) 0.17973(5) 0.01879(17) Uani 1 1 d . .
N3' N 0.0652(3) 0.52295(9) 0.23907(5) 0.0296(2) Uani 1 1 d . .
N4' N 0.5760(2) 0.77900(8) -0.08633(5) 0.01672(16) Uani 1 1 d . .
C1' C 0.3481(2) 0.66036(8) 0.09435(5) 0.01420(17) Uani 1 1 d . .
C2' C 0.3779(2) 0.66551(8) 0.01616(5) 0.01437(17) Uani 1 1 d . .
H2' H 0.2895 0.5972 -0.0222 0.017 Uiso 1 1 calc R U
C3' C 0.5408(2) 0.77361(8) -0.00378(5) 0.01399(17) Uani 1 1 d . .
C4' C 0.6729(2) 0.87629(9) 0.05043(5) 0.01554(17) Uani 1 1 d . .
H4' H 0.7826 0.9492 0.0349 0.019 Uiso 1 1 calc R U
C5' C 0.6389(3) 0.86866(9) 0.12790(5) 0.01647(18) Uani 1 1 d . .
H5' H 0.7263 0.9375 0.1661 0.020 Uiso 1 1 calc R U
C6' C 0.4783(3) 0.76145(9) 0.15062(5) 0.01568(17) Uani 1 1 d . .
H6' H 0.4575 0.7571 0.2038 0.019 Uiso 1 1 calc R U
loop_
_atom_site_aniso_label
_atom_site_aniso_U_11
_atom_site_aniso_U_22
_atom_site_aniso_U_33
_atom_site_aniso_U_23
_atom_site_aniso_U_13
_atom_site_aniso_U_12
O1 0.0293(4) 0.0196(3) 0.0181(3) 0.0032(3) 0.0044(3) -0.0057(3)
O2 0.0401(5) 0.0239(4) 0.0152(3) -0.0025(3) -0.0032(3) -0.0049(3)
N1 0.0245(4) 0.0180(4) 0.0172(4) 0.0010(3) -0.0001(3) -0.0051(3)
N2 0.0214(4) 0.0173(4) 0.0168(4) -0.0021(3) -0.0017(3) -0.0019(3)
N3 0.0320(5) 0.0275(5) 0.0171(4) -0.0012(3) 0.0009(3) -0.0047(4)
N4 0.0173(4) 0.0168(4) 0.0149(4) 0.0009(3) -0.0001(3) -0.0002(3)
C1 0.0145(4) 0.0159(4) 0.0158(4) 0.0016(3) 0.0006(3) 0.0002(3)
C2 0.0148(4) 0.0150(4) 0.0129(4) 0.0026(3) 0.0008(3) 0.0004(3)
C3 0.0141(4) 0.0145(4) 0.0140(4) 0.0017(3) 0.0006(3) 0.0001(3)
C4 0.0179(4) 0.0217(4) 0.0138(4) 0.0039(3) 0.0017(3) 0.0015(3)
C5 0.0188(4) 0.0209(4) 0.0202(4) 0.0083(3) 0.0045(3) 0.0009(3)
C6 0.0166(4) 0.0163(4) 0.0212(4) 0.0054(3) 0.0024(3) -0.0002(3)
O1' 0.0346(4) 0.0228(4) 0.0146(3) 0.0000(3) -0.0008(3) -0.0035(3)
O2' 0.0313(4) 0.0223(4) 0.0215(4) 0.0069(3) 0.0074(3) -0.0038(3)
N1' 0.0238(4) 0.0166(4) 0.0146(4) 0.0028(3) 0.0035(3) -0.0028(3)
N2' 0.0211(4) 0.0162(4) 0.0186(4) 0.0021(3) 0.0022(3) -0.0039(3)
N3' 0.0425(6) 0.0253(5) 0.0202(4) 0.0029(3) 0.0062(4) -0.0122(4)
N4' 0.0197(4) 0.0164(4) 0.0145(3) 0.0028(3) 0.0026(3) 0.0020(3)
C1' 0.0138(4) 0.0144(4) 0.0144(4) 0.0027(3) 0.0012(3) 0.0004(3)
C2' 0.0155(4) 0.0141(4) 0.0131(4) 0.0009(3) 0.0007(3) 0.0008(3)
C3' 0.0141(4) 0.0156(4) 0.0123(4) 0.0023(3) 0.0008(3) 0.0014(3)
C4' 0.0155(4) 0.0146(4) 0.0163(4) 0.0022(3) 0.0004(3) -0.0003(3)
C5' 0.0171(4) 0.0158(4) 0.0154(4) 0.0000(3) -0.0006(3) -0.0009(3)
C6' 0.0170(4) 0.0171(4) 0.0127(4) 0.0017(3) 0.0005(3) 0.0007(3)
loop_
_atom_type_symbol
_atom_type_description
_atom_type_scat_dispersion_real
_atom_type_scat_dispersion_imag
_atom_type_scat_source
C C 0.0033 0.0016 'International Tables Vol C Tables 4.2.6.8 and 6.1.1.4'
H H 0.0000 0.0000 'International Tables Vol C Tables 4.2.6.8 and 6.1.1.4'
N N 0.0061 0.0033 'International Tables Vol C Tables 4.2.6.8 and 6.1.1.4'
O O 0.0106 0.0060 'International Tables Vol C Tables 4.2.6.8 and 6.1.1.4'
loop_
_geom_angle_atom_site_label_1
_geom_angle_atom_site_label_2
_geom_angle_atom_site_label_3
_geom_angle
N2 N1 C1 115.96(8)
N3 N2 N1 172.35(10)
O2 N4 O1 123.51(8)
O2 N4 C3 118.25(8)
O1 N4 C3 118.24(8)
C2 C1 C6 120.78(8)
C2 C1 N1 123.62(8)
C6 C1 N1 115.58(8)
C3 C2 C1 117.37(8)
C3 C2 H2 121.3
C1 C2 H2 121.3
C4 C3 C2 123.57(9)
C4 C3 N4 118.77(8)
C2 C3 N4 117.66(8)
C3 C4 C5 117.64(9)
C3 C4 H4 121.2
C5 C4 H4 121.2
C6 C5 C4 120.77(9)
C6 C5 H5 119.6
C4 C5 H5 119.6
C5 C6 C1 119.87(9)
C5 C6 H6 120.1
C1 C6 H6 120.1
N2' N1' C1' 116.70(8)
N3' N2' N1' 171.99(10)
O1' N4' O2' 123.81(8)
O1' N4' C3' 118.22(8)
O2' N4' C3' 117.97(8)
C2' C1' C6' 120.80(8)
C2' C1' N1' 114.87(8)
C6' C1' N1' 124.33(8)
C3' C2' C1' 117.82(8)
C3' C2' H2' 121.1
C1' C2' H2' 121.1
C2' C3' C4' 123.12(8)
C2' C3' N4' 118.01(8)
C4' C3' N4' 118.87(8)
C5' C4' C3' 117.82(8)
C5' C4' H4' 121.1
C3' C4' H4' 121.1
C4' C5' C6' 121.00(8)
C4' C5' H5' 119.5
C6' C5' H5' 119.5
C5' C6' C1' 119.45(8)
C5' C6' H6' 120.3
C1' C6' H6' 120.3
loop_
_geom_bond_atom_site_label_1
_geom_bond_atom_site_label_2
_geom_bond_distance
O1 N4 1.2333(11)
O2 N4 1.2295(10)
N1 N2 1.2498(12)
N1 C1 1.4259(12)
N2 N3 1.1278(13)
N4 C3 1.4720(12)
C1 C2 1.3931(12)
C1 C6 1.3993(13)
C2 C3 1.3905(12)
C2 H2 0.9500
C3 C4 1.3868(13)
C4 C5 1.3946(14)
C4 H4 0.9500
C5 C6 1.3886(14)
C5 H5 0.9500
C6 H6 0.9500
O1' N4' 1.2288(11)
O2' N4' 1.2346(11)
N1' N2' 1.2467(11)
N1' C1' 1.4245(12)
N2' N3' 1.1270(12)
N4' C3' 1.4723(12)
C1' C2' 1.3925(12)
C1' C6' 1.3992(12)
C2' C3' 1.3857(13)
C2' H2' 0.9500
C3' C4' 1.3925(12)
C4' C5' 1.3874(13)
C4' H4' 0.9500
C5' C6' 1.3946(13)
C5' H5' 0.9500
C6' H6' 0.9500
loop_
_geom_torsion_atom_site_label_1
_geom_torsion_atom_site_label_2
_geom_torsion_atom_site_label_3
_geom_torsion_atom_site_label_4
_geom_torsion
N2 N1 C1 C2 -12.56(14)
N2 N1 C1 C6 168.83(9)
C6 C1 C2 C3 -0.29(14)
N1 C1 C2 C3 -178.83(9)
C1 C2 C3 C4 -0.43(14)
C1 C2 C3 N4 179.83(8)
O2 N4 C3 C4 -0.02(13)
O1 N4 C3 C4 -179.64(9)
O2 N4 C3 C2 179.73(9)
O1 N4 C3 C2 0.11(13)
C2 C3 C4 C5 0.58(15)
N4 C3 C4 C5 -179.68(8)
C3 C4 C5 C6 -0.01(14)
C4 C5 C6 C1 -0.68(15)
C2 C1 C6 C5 0.83(14)
N1 C1 C6 C5 179.49(9)
N2' N1' C1' C2' -176.07(8)
N2' N1' C1' C6' 4.08(14)
C6' C1' C2' C3' 0.12(13)
N1' C1' C2' C3' -179.74(8)
C1' C2' C3' C4' -0.28(14)
C1' C2' C3' N4' 179.42(8)
O1' N4' C3' C2' 10.99(13)
O2' N4' C3' C2' -169.31(9)
O1' N4' C3' C4' -169.29(9)
O2' N4' C3' C4' 10.41(13)
C2' C3' C4' C5' 0.16(14)
N4' C3' C4' C5' -179.55(8)
C3' C4' C5' C6' 0.14(14)
C4' C5' C6' C1' -0.30(14)
C2' C1' C6' C5' 0.16(14)
N1' C1' C6' C5' 180.00(9)
