#------------------------------------------------------------------------------
#$Date: 2019-11-24 16:24:26 +0200 (Sun, 24 Nov 2019) $
#$Revision: 238552 $
#$URL: file:///home/coder/svn-repositories/cod/cif/7/23/77/7237720.cif $
#------------------------------------------------------------------------------
#
# This file is available in the Crystallography Open Database (COD),
# http://www.crystallography.net/
#
# All data on this site have been placed in the public domain by the
# contributors.
#
data_7237720
loop_
_publ_author_name
'Yu, Changjiang'
'Hao, Erhong'
'Fang, Xingbao'
'Wu, Qinghua'
'Wang, Long'
'Li, Jiahua'
'Xu, Linli'
'Jiao, Lijuan'
'Wong, Wai-Yeung'
_publ_section_title
;
 AIE-active difluoroboronated acylhydrozone dyes (BOAHY) emitting across
 the entire visible region and their photo-switching properties
;
_journal_issue                   11
_journal_name_full               'Journal of Materials Chemistry C'
_journal_page_first              3269
_journal_paper_doi               10.1039/C9TC00316A
_journal_volume                  7
_journal_year                    2019
_chemical_formula_moiety         'C15 H13 B F2 N2 O2'
_chemical_formula_sum            'C15 H13 B F2 N2 O2'
_chemical_formula_weight         302.08
_chemical_name_systematic        3
_space_group_crystal_system      triclinic
_space_group_IT_number           2
_space_group_name_Hall           '-P 1'
_space_group_name_H-M_alt        'P -1'
_atom_sites_solution_hydrogens   geom
_atom_sites_solution_primary     direct
_audit_creation_date             2018-05-28
_audit_creation_method
;
Olex2 1.2
(compiled 2015.01.26 svn.r3150 for OlexSys, GUI svn.r1)
;
_audit_update_record
;
2018-10-17 deposited with the CCDC.
2019-02-06 downloaded from the CCDC.
;
_cell_angle_alpha                82.101(3)
_cell_angle_beta                 84.055(3)
_cell_angle_gamma                70.628(3)
_cell_formula_units_Z            2
_cell_length_a                   8.1278(7)
_cell_length_b                   9.0511(7)
_cell_length_c                   10.3004(8)
_cell_measurement_reflns_used    9898
_cell_measurement_temperature    293(2)
_cell_measurement_theta_max      27.68
_cell_measurement_theta_min      2.95
_cell_volume                     706.71(10)
_computing_molecular_graphics    'Olex2 (Dolomanov et al., 2009)'
_computing_publication_material  'Olex2 (Dolomanov et al., 2009)'
_computing_structure_refinement  'ShelXL (Sheldrick, 2008)'
_computing_structure_solution    'ShelXT (Sheldrick, 2015)'
_diffrn_ambient_temperature      293(2)
_diffrn_detector                 'Bruker APEX2 area detector'
_diffrn_detector_area_resol_mean 7.9
_diffrn_detector_type            'CCD area detector'
_diffrn_measured_fraction_theta_full 0.975
_diffrn_measured_fraction_theta_max 0.970
_diffrn_measurement_device       'three-circle diffractometer'
_diffrn_measurement_device_type  'Bruker SMART APEX2 area detector'
_diffrn_measurement_method       '\w and \f scans'
_diffrn_radiation_monochromator  'mirror optics'
_diffrn_radiation_probe          x-ray
_diffrn_radiation_type           MoK\a
_diffrn_radiation_wavelength     0.71073
_diffrn_reflns_av_R_equivalents  0.0173
_diffrn_reflns_av_unetI/netI     0.0128
_diffrn_reflns_Laue_measured_fraction_full 0.975
_diffrn_reflns_Laue_measured_fraction_max 0.970
_diffrn_reflns_limit_h_max       10
_diffrn_reflns_limit_h_min       -10
_diffrn_reflns_limit_k_max       11
_diffrn_reflns_limit_k_min       -11
_diffrn_reflns_limit_l_max       13
_diffrn_reflns_limit_l_min       -13
_diffrn_reflns_number            18925
_diffrn_reflns_point_group_measured_fraction_full 0.975
_diffrn_reflns_point_group_measured_fraction_max 0.970
_diffrn_reflns_theta_full        25.242
_diffrn_reflns_theta_max         27.791
_diffrn_reflns_theta_min         2.951
_diffrn_source                   'microfocus sealed X-ray tube'
_diffrn_source_type              'Incoatec I\ms'
_diffrn_standards_number         0
_exptl_absorpt_coefficient_mu    0.112
_exptl_absorpt_correction_T_max  0.7456
_exptl_absorpt_correction_T_min  0.6950
_exptl_absorpt_correction_type   multi-scan
_exptl_absorpt_process_details
;
SADABS-2014/5 (Bruker,2014/5) was used for absorption correction.
wR2(int) was 0.0581 before and 0.0421 after correction.
The Ratio of minimum to maximum transmission is 0.9321.
The \l/2 correction factor is Not present.
;
_exptl_crystal_colour            'metallic yellowish'
_exptl_crystal_colour_lustre     metallic
_exptl_crystal_colour_modifier   yellowish
_exptl_crystal_density_diffrn    1.420
_exptl_crystal_description       cube
_exptl_crystal_F_000             312
_refine_diff_density_max         0.199
_refine_diff_density_min         -0.244
_refine_diff_density_rms         0.030
_refine_ls_extinction_method     none
_refine_ls_goodness_of_fit_ref   1.070
_refine_ls_hydrogen_treatment    constr
_refine_ls_matrix_type           full
_refine_ls_number_parameters     200
_refine_ls_number_reflns         3248
_refine_ls_number_restraints     0
_refine_ls_restrained_S_all      1.070
_refine_ls_R_factor_all          0.0514
_refine_ls_R_factor_gt           0.0435
_refine_ls_shift/su_max          0.000
_refine_ls_shift/su_mean         0.000
_refine_ls_structure_factor_coef Fsqd
_refine_ls_weighting_details
'w=1/[\s^2^(Fo^2^)+(0.0500P)^2^+0.1680P] where P=(Fo^2^+2Fc^2^)/3'
_refine_ls_weighting_scheme      calc
_refine_ls_wR_factor_gt          0.1087
_refine_ls_wR_factor_ref         0.1165
_reflns_Friedel_coverage         0.000
_reflns_number_gt                2788
_reflns_number_total             3248
_reflns_threshold_expression     'I > 2\s(I)'
_cod_data_source_file            c9tc00316a2.cif
_cod_data_source_block           mo_20180526a_0m
_cod_database_code               7237720
_shelx_space_group_comment
;
The symmetry employed for this shelxl refinement is uniquely defined
by the following loop, which should always be used as a source of
symmetry information in preference to the above space-group names.
They are only intended as comments.
;
_olex2_refinement_description
;
1. Fixed Uiso
 At 1.2 times of:
  All C(H) groups
 At 1.5 times of:
  All C(H,H,H) groups
2.a Aromatic/amide H refined with riding coordinates:
 C00A(H00A), C00B(H00B), C00D(H00D), C00E(H00E), C00F(H00F), C00G(H00G),
 C00H(H00H), C00I(H00I), C00J(H00J), C00K(H00K)
2.b Idealised Me refined as rotating group:
 C00L(H00C,H00L,H00M)
;
_shelx_res_file
;
    mo_20180526a_0m.res created by SHELXL-2014/7

TITL mo_20180526a_0m_a.res in P-1
REM Old TITL mo_20180526a_0m in P-1 #2
REM SHELXT solution in P-1
REM R1 0.183, Rweak 0.005, Alpha 0.084, Orientation as input
REM Formula found by SHELXT: C15 B N3 O F2
CELL 0.71073 8.1278 9.0511 10.3004 82.101 84.055 70.628
ZERR 2 0.0007 0.0007 0.0008 0.003 0.003 0.003
LATT 1
SFAC C H B F N O
UNIT 30 26 2 4 4 4

L.S. 4 0 0
PLAN  2
TEMP 20(2)
BOND $H
LIST 6
fmap 2 53
acta
REM <olex2.extras>
REM <HklSrc "%.\\mo_20180526a_0m.hkl">
REM </olex2.extras>

WGHT    0.050000    0.168000
FVAR       3.32976
O001  6    0.327031    0.223242    0.608752    11.00000    0.06192    0.03847 =
         0.04425   -0.00110    0.00967   -0.00745
F002  4    0.277324    0.212660    0.838670    11.00000    0.10454    0.06535 =
         0.04335    0.00636    0.00110    0.00264
F003  4    0.077306    0.176452    0.720654    11.00000    0.09153    0.05455 =
         0.09643   -0.01421    0.03272   -0.03660
N004  5    0.114555    0.435029    0.690122    11.00000    0.04649    0.04114 =
         0.03770   -0.00378    0.00330   -0.01418
O005  6    0.728891    0.352221    0.067912    11.00000    0.06883    0.06866 =
         0.04780   -0.00926    0.01811   -0.02502
N006  5    0.188206    0.486741    0.571460    11.00000    0.04186    0.04075 =
         0.03694   -0.00338    0.00320   -0.01350
C007  1    0.418754    0.358070    0.414329    11.00000    0.03922    0.03997 =
         0.03607   -0.00567   -0.00252   -0.01323
C008  1    0.306399    0.358791    0.534349    11.00000    0.04095    0.03839 =
         0.03697   -0.00471   -0.00228   -0.01284
C009  1   -0.093199    0.694138    0.745290    11.00000    0.03837    0.04501 =
         0.04216   -0.01100    0.00034   -0.01319
C00A  1    0.404941    0.495595    0.329198    11.00000    0.04630    0.03923 =
         0.04408   -0.00494   -0.00014   -0.01192
AFIX  43
H00A  2    0.324434    0.590989    0.349690    11.00000   -1.20000
AFIX   0
C00B  1   -0.065450    0.796456    0.637625    11.00000    0.04277    0.04624 =
         0.05226   -0.00517    0.00569   -0.01166
AFIX  43
H00B  2    0.016166    0.758480    0.569807    11.00000   -1.20000
AFIX   0
C00C  1    0.631412    0.347297    0.183647    11.00000    0.04485    0.05436 =
         0.03797   -0.00771    0.00221   -0.02112
C00D  1   -0.004694    0.526142    0.762451    11.00000    0.04878    0.04478 =
         0.03830   -0.00461    0.00498   -0.01555
AFIX  43
H00D  2   -0.039930    0.474607    0.839199    11.00000   -1.20000
AFIX   0
C00E  1    0.540801    0.217123    0.382161    11.00000    0.04903    0.03972 =
         0.04333   -0.00247    0.00010   -0.01117
AFIX  43
H00E  2    0.550780    0.125352    0.438402    11.00000   -1.20000
AFIX   0
C00F  1    0.510444    0.489865    0.215069    11.00000    0.05466    0.04411 =
         0.04449    0.00048    0.00036   -0.01772
AFIX  43
H00F  2    0.500922    0.581500    0.158749    11.00000   -1.20000
AFIX   0
C00G  1   -0.217746    0.753832    0.846314    11.00000    0.05031    0.05764 =
         0.04500   -0.01323    0.00469   -0.01517
AFIX  43
H00G  2   -0.237485    0.686262    0.918264    11.00000   -1.20000
AFIX   0
C00H  1    0.647998    0.210630    0.267850    11.00000    0.04664    0.04505 =
         0.04664   -0.00946    0.00373   -0.01078
AFIX  43
H00H  2    0.730034    0.115708    0.247930    11.00000   -1.20000
AFIX   0
C00I  1   -0.310778    0.912489    0.838939    11.00000    0.05079    0.06367 =
         0.06424   -0.02644    0.00802   -0.00696
AFIX  43
H00I  2   -0.393093    0.951722    0.905998    11.00000   -1.20000
AFIX   0
C00J  1   -0.160459    0.954865    0.632722    11.00000    0.05173    0.04659 =
         0.07417    0.00022    0.00403   -0.01012
AFIX  43
H00J  2   -0.142397    1.023661    0.561145    11.00000   -1.20000
AFIX   0
C00K  1   -0.282341    1.012318    0.733287    11.00000    0.05118    0.04717 =
         0.08403   -0.01699   -0.00060   -0.00464
AFIX  43
H00K  2   -0.345137    1.119287    0.728942    11.00000   -1.20000
AFIX   0
C00L  1    0.831418    0.205550    0.023440    11.00000    0.08038    0.08679 =
         0.06162   -0.03038    0.02924   -0.03629
AFIX 137
H00C  2    0.882452    0.223638   -0.063089    11.00000   -1.50000
H00L  2    0.758615    0.141458    0.021149    11.00000   -1.50000
H00M  2    0.922426    0.152504    0.082227    11.00000   -1.50000
AFIX   0
B00M  3    0.199775    0.249556    0.721930    11.00000    0.06584    0.03933 =
         0.04460   -0.00217    0.01169   -0.01218
HKLF 4

REM  mo_20180526a_0m_a.res in P-1
REM R1 =  0.0435 for    2788 Fo > 4sig(Fo)  and  0.0514 for all    3248 data
REM    200 parameters refined using      0 restraints

END

WGHT      0.0488      0.1710

REM Highest difference peak  0.199,  deepest hole -0.244,  1-sigma level  0.030
Q1    1   0.5346  0.4163  0.1808  11.00000  0.05    0.20
Q2    1   0.3406  0.3633  0.4635  11.00000  0.05    0.19
;
_shelx_res_checksum              62989
_shelx_shelxl_version_number     2014/7
_olex2_submission_special_instructions 'No special instructions were received'
loop_
_space_group_symop_operation_xyz
'x, y, z'
'-x, -y, -z'
loop_
_atom_site_label
_atom_site_type_symbol
_atom_site_fract_x
_atom_site_fract_y
_atom_site_fract_z
_atom_site_U_iso_or_equiv
_atom_site_adp_type
_atom_site_occupancy
_atom_site_site_symmetry_order
_atom_site_calc_flag
_atom_site_refinement_flags_posn
O001 O 0.32703(13) 0.22324(10) 0.60875(9) 0.0517(3) Uani 1 1 d .
F002 F 0.27732(15) 0.21266(12) 0.83867(9) 0.0802(3) Uani 1 1 d .
F003 F 0.07731(14) 0.17645(11) 0.72065(11) 0.0798(3) Uani 1 1 d .
N004 N 0.11455(14) 0.43503(12) 0.69012(10) 0.0423(2) Uani 1 1 d .
O005 O 0.72889(15) 0.35222(14) 0.06791(10) 0.0624(3) Uani 1 1 d .
N006 N 0.18821(13) 0.48674(12) 0.57146(9) 0.0403(2) Uani 1 1 d .
C007 C 0.41875(15) 0.35807(14) 0.41433(11) 0.0381(3) Uani 1 1 d .
C008 C 0.30640(15) 0.35879(14) 0.53435(11) 0.0387(3) Uani 1 1 d .
C009 C -0.09320(15) 0.69414(15) 0.74529(12) 0.0415(3) Uani 1 1 d .
C00A C 0.40494(17) 0.49559(15) 0.32920(12) 0.0438(3) Uani 1 1 d .
H00A H 0.3244 0.5910 0.3497 0.053 Uiso 1 1 calc R
C00B C -0.06545(17) 0.79646(16) 0.63762(14) 0.0484(3) Uani 1 1 d .
H00B H 0.0162 0.7585 0.5698 0.058 Uiso 1 1 calc R
C00C C 0.63141(16) 0.34730(16) 0.18365(12) 0.0445(3) Uani 1 1 d .
C00D C -0.00469(17) 0.52614(15) 0.76245(12) 0.0444(3) Uani 1 1 d .
H00D H -0.0399 0.4746 0.8392 0.053 Uiso 1 1 calc R
C00E C 0.54080(17) 0.21712(15) 0.38216(12) 0.0452(3) Uani 1 1 d .
H00E H 0.5508 0.1254 0.4384 0.054 Uiso 1 1 calc R
C00F C 0.51044(18) 0.48987(16) 0.21507(13) 0.0481(3) Uani 1 1 d .
H00F H 0.5009 0.5815 0.1587 0.058 Uiso 1 1 calc R
C00G C -0.21775(18) 0.75383(18) 0.84631(13) 0.0514(3) Uani 1 1 d .
H00G H -0.2375 0.6863 0.9183 0.062 Uiso 1 1 calc R
C00H C 0.64800(17) 0.21063(16) 0.26785(13) 0.0472(3) Uani 1 1 d .
H00H H 0.7300 0.1157 0.2479 0.057 Uiso 1 1 calc R
C00I C -0.3108(2) 0.9125(2) 0.83894(16) 0.0614(4) Uani 1 1 d .
H00I H -0.3931 0.9517 0.9060 0.074 Uiso 1 1 calc R
C00J C -0.1605(2) 0.95487(18) 0.63272(17) 0.0602(4) Uani 1 1 d .
H00J H -0.1424 1.0237 0.5611 0.072 Uiso 1 1 calc R
C00K C -0.2823(2) 1.01232(18) 0.73329(18) 0.0629(4) Uani 1 1 d .
H00K H -0.3451 1.1193 0.7289 0.075 Uiso 1 1 calc R
C00L C 0.8314(3) 0.2055(2) 0.02344(18) 0.0742(5) Uani 1 1 d .
H00C H 0.8825 0.2236 -0.0631 0.111 Uiso 1 1 calc GR
H00L H 0.7586 0.1415 0.0211 0.111 Uiso 1 1 calc GR
H00M H 0.9224 0.1525 0.0822 0.111 Uiso 1 1 calc GR
B00M B 0.1998(2) 0.24956(18) 0.72193(15) 0.0525(4) Uani 1 1 d .
loop_
_atom_site_aniso_label
_atom_site_aniso_U_11
_atom_site_aniso_U_22
_atom_site_aniso_U_33
_atom_site_aniso_U_23
_atom_site_aniso_U_13
_atom_site_aniso_U_12
O001 0.0619(6) 0.0385(5) 0.0442(5) -0.0011(4) 0.0097(4) -0.0075(4)
F002 0.1045(8) 0.0654(6) 0.0433(5) 0.0064(4) 0.0011(5) 0.0026(5)
F003 0.0915(7) 0.0546(5) 0.0964(8) -0.0142(5) 0.0327(6) -0.0366(5)
N004 0.0465(5) 0.0411(5) 0.0377(5) -0.0038(4) 0.0033(4) -0.0142(4)
O005 0.0688(7) 0.0687(7) 0.0478(5) -0.0093(5) 0.0181(5) -0.0250(5)
N006 0.0419(5) 0.0407(5) 0.0369(5) -0.0034(4) 0.0032(4) -0.0135(4)
C007 0.0392(6) 0.0400(6) 0.0361(5) -0.0057(4) -0.0025(4) -0.0132(5)
C008 0.0410(6) 0.0384(6) 0.0370(6) -0.0047(4) -0.0023(4) -0.0128(5)
C009 0.0384(6) 0.0450(6) 0.0422(6) -0.0110(5) 0.0003(4) -0.0132(5)
C00A 0.0463(6) 0.0392(6) 0.0441(6) -0.0049(5) -0.0001(5) -0.0119(5)
C00B 0.0428(6) 0.0462(7) 0.0523(7) -0.0052(5) 0.0057(5) -0.0117(5)
C00C 0.0448(6) 0.0544(7) 0.0380(6) -0.0077(5) 0.0022(5) -0.0211(6)
C00D 0.0488(7) 0.0448(7) 0.0383(6) -0.0046(5) 0.0050(5) -0.0156(5)
C00E 0.0490(7) 0.0397(6) 0.0433(6) -0.0025(5) 0.0001(5) -0.0112(5)
C00F 0.0547(7) 0.0441(7) 0.0445(7) 0.0005(5) 0.0004(5) -0.0177(6)
C00G 0.0503(7) 0.0576(8) 0.0450(7) -0.0132(6) 0.0047(5) -0.0152(6)
C00H 0.0466(7) 0.0450(7) 0.0466(7) -0.0095(5) 0.0037(5) -0.0108(5)
C00I 0.0508(8) 0.0637(9) 0.0642(9) -0.0264(7) 0.0080(6) -0.0070(7)
C00J 0.0517(8) 0.0466(7) 0.0742(10) 0.0002(7) 0.0040(7) -0.0101(6)
C00K 0.0512(8) 0.0472(8) 0.0840(11) -0.0170(7) -0.0006(7) -0.0046(6)
C00L 0.0804(11) 0.0868(12) 0.0616(9) -0.0304(9) 0.0292(8) -0.0363(10)
B00M 0.0658(9) 0.0393(7) 0.0446(8) -0.0022(6) 0.0117(7) -0.0122(7)
loop_
_atom_type_symbol
_atom_type_description
_atom_type_scat_dispersion_real
_atom_type_scat_dispersion_imag
_atom_type_scat_source
C C 0.0033 0.0016 'International Tables Vol C Tables 4.2.6.8 and 6.1.1.4'
H H 0.0000 0.0000 'International Tables Vol C Tables 4.2.6.8 and 6.1.1.4'
B B 0.0013 0.0007 'International Tables Vol C Tables 4.2.6.8 and 6.1.1.4'
F F 0.0171 0.0103 'International Tables Vol C Tables 4.2.6.8 and 6.1.1.4'
N N 0.0061 0.0033 'International Tables Vol C Tables 4.2.6.8 and 6.1.1.4'
O O 0.0106 0.0060 'International Tables Vol C Tables 4.2.6.8 and 6.1.1.4'
loop_
_geom_angle_atom_site_label_1
_geom_angle_atom_site_label_2
_geom_angle_atom_site_label_3
_geom_angle
C008 O001 B00M 108.90(10)
N006 N004 B00M 110.06(9)
C00D N004 N006 124.25(11)
C00D N004 B00M 125.69(11)
C00C O005 C00L 117.12(12)
C008 N006 N004 104.05(9)
C00A C007 C008 121.67(11)
C00E C007 C008 119.38(11)
C00E C007 C00A 118.94(11)
O001 C008 C007 117.77(10)
N006 C008 O001 119.17(10)
N006 C008 C007 123.05(11)
C00B C009 C00D 125.13(11)
C00B C009 C00G 119.42(12)
C00G C009 C00D 115.44(12)
C007 C00A H00A 120.0
C00F C00A C007 120.10(12)
C00F C00A H00A 120.0
C009 C00B H00B 120.4
C00J C00B C009 119.30(13)
C00J C00B H00B 120.4
O005 C00C C00F 116.33(12)
O005 C00C C00H 123.46(12)
C00H C00C C00F 120.21(11)
N004 C00D C009 131.37(12)
N004 C00D H00D 114.3
C009 C00D H00D 114.3
C007 C00E H00E 119.4
C00H C00E C007 121.27(12)
C00H C00E H00E 119.4
C00A C00F C00C 120.29(12)
C00A C00F H00F 119.9
C00C C00F H00F 119.9
C009 C00G H00G 120.0
C00I C00G C009 120.08(14)
C00I C00G H00G 120.0
C00C C00H C00E 119.18(12)
C00C C00H H00H 120.4
C00E C00H H00H 120.4
C00G C00I H00I 119.9
C00K C00I C00G 120.18(14)
C00K C00I H00I 119.9
C00B C00J H00J 119.7
C00B C00J C00K 120.70(15)
C00K C00J H00J 119.7
C00I C00K C00J 120.31(14)
C00I C00K H00K 119.8
C00J C00K H00K 119.8
O005 C00L H00C 109.5
O005 C00L H00L 109.5
O005 C00L H00M 109.5
H00C C00L H00L 109.5
H00C C00L H00M 109.5
H00L C00L H00M 109.5
O001 B00M N004 97.72(10)
F002 B00M O001 112.58(14)
F002 B00M F003 111.50(13)
F002 B00M N004 111.03(12)
F003 B00M O001 112.89(12)
F003 B00M N004 110.38(13)
loop_
_geom_bond_atom_site_label_1
_geom_bond_atom_site_label_2
_geom_bond_distance
O001 C008 1.3238(15)
O001 B00M 1.4658(17)
F002 B00M 1.364(2)
F003 B00M 1.368(2)
N004 N006 1.3959(13)
N004 C00D 1.2898(16)
N004 B00M 1.5905(18)
O005 C00C 1.3653(15)
O005 C00L 1.422(2)
N006 C008 1.3106(15)
C007 C008 1.4583(16)
C007 C00A 1.3995(17)
C007 C00E 1.3892(17)
C009 C00B 1.3939(18)
C009 C00D 1.4449(18)
C009 C00G 1.4046(17)
C00A H00A 0.9300
C00A C00F 1.3778(18)
C00B H00B 0.9300
C00B C00J 1.381(2)
C00C C00F 1.3942(19)
C00C C00H 1.3854(19)
C00D H00D 0.9300
C00E H00E 0.9300
C00E C00H 1.3862(17)
C00F H00F 0.9300
C00G H00G 0.9300
C00G C00I 1.379(2)
C00H H00H 0.9300
C00I H00I 0.9300
C00I C00K 1.368(2)
C00J H00J 0.9300
C00J C00K 1.385(2)
C00K H00K 0.9300
C00L H00C 0.9600
C00L H00L 0.9600
C00L H00M 0.9600
