#------------------------------------------------------------------------------
#$Date: 2019-11-24 10:29:40 +0200 (Sun, 24 Nov 2019) $
#$Revision: 237638 $
#$URL: file:///home/coder/svn-repositories/cod/cif/7/23/73/7237392.cif $
#------------------------------------------------------------------------------
#
# This file is available in the Crystallography Open Database (COD),
# http://www.crystallography.net/
#
# All data on this site have been placed in the public domain by the
# contributors.
#
data_7237392
loop_
_publ_author_name
'Paliwoda, Damian'
'Szafra\'nski, Marek'
'Hanfland, Michael'
'Katrusiak, Andrzej'
_publ_section_title
;
 A giant 2-dimensional dielectric response in a compressed hydrogen-bonded
 hybrid organic--inorganic salt
;
_journal_issue                   28
_journal_name_full               'Journal of Materials Chemistry C'
_journal_page_first              7689
_journal_paper_doi               10.1039/C8TC02464B
_journal_volume                  6
_journal_year                    2018
_chemical_formula_moiety         'C4 H5 N2 Au Cl4'
_chemical_formula_sum            'C4 H5 Au Cl4 N2'
_chemical_formula_weight         419.87
_chemical_name_common            'pyrazinium tetrachloroaurate'
_chemical_name_systematic
; 
pyrazinium tetrachloroaurate 
;
_space_group_IT_number           138
_space_group_name_Hall           '-P 4ac 2ac'
_space_group_name_H-M_alt        'P 42/n c m :2'
_symmetry_cell_setting           tetragonal
_symmetry_space_group_name_Hall  '-P 4ac 2ac'
_symmetry_space_group_name_H-M   'P 42/n c m :2'
_atom_sites_solution_hydrogens   geom
_atom_sites_solution_primary     direct
_atom_sites_solution_secondary   difmap
_audit_creation_method           SHELXL-97
_audit_update_record
;
2017-04-07 deposited with the CCDC.
2018-06-28 downloaded from the CCDC.
;
_cell_angle_alpha                90.00
_cell_angle_beta                 90.00
_cell_angle_gamma                90.00
_cell_formula_units_Z            4
_cell_length_a                   7.2677(3)
_cell_length_b                   7.2677(3)
_cell_length_c                   14.46(2)
_cell_measurement_reflns_used    1264
_cell_measurement_temperature    296(2)
_cell_measurement_theta_max      35.50
_cell_measurement_theta_min      4.21
_cell_volume                     763.8(11)
_computing_cell_refinement       'CrysAlisRED (Oxford Diffraction, 2004)'
_computing_data_collection       'CrysAlisCCD (Oxford Diffraction, 2004)'
_computing_data_reduction        'CrysAlisRED (Oxford Diffraction, 2004)'
_computing_molecular_graphics    'SHELXTL (Sheldrick, 1990)'
_computing_publication_material  'SHELXL--97 (Sheldrick, 1997)'
_computing_structure_refinement  'SHELXL--97 (Sheldrick, 1997)'
_computing_structure_solution    'SHELXS--97 (Sheldrick, 1997)'
_diffrn_ambient_environment      'diamond-anvil cell'
_diffrn_ambient_pressure         9230000
_diffrn_ambient_temperature      296(2)
_diffrn_measured_fraction_theta_full 0.267
_diffrn_measured_fraction_theta_max 0.267
_diffrn_measurement_device_type  Serial
_diffrn_measurement_method       \w/2\q
_diffrn_radiation_monochromator  Si(111)
_diffrn_radiation_source         synchrotron
_diffrn_radiation_type           synchrotron
_diffrn_radiation_wavelength     0.41438
_diffrn_reflns_av_R_equivalents  0.0458
_diffrn_reflns_av_sigmaI/netI    0.0438
_diffrn_reflns_limit_h_max       11
_diffrn_reflns_limit_h_min       -11
_diffrn_reflns_limit_k_max       11
_diffrn_reflns_limit_k_min       -11
_diffrn_reflns_limit_l_max       6
_diffrn_reflns_limit_l_min       -6
_diffrn_reflns_number            1264
_diffrn_reflns_theta_full        35.50
_diffrn_reflns_theta_max         35.50
_diffrn_reflns_theta_min         4.21
_diffrn_standards_decay_%        0
_diffrn_standards_interval_count 0
_diffrn_standards_number         0
_exptl_absorpt_coefficient_mu    20.576
_exptl_crystal_colour            orange
_exptl_crystal_density_diffrn    3.650
_exptl_crystal_density_method    'not measured'
_exptl_crystal_description       plate
_exptl_crystal_F_000             760
_exptl_crystal_size_max          0.05
_exptl_crystal_size_mid          0.04
_exptl_crystal_size_min          0.02
_refine_diff_density_max         1.281
_refine_diff_density_min         -0.886
_refine_diff_density_rms         0.200
_refine_ls_extinction_method     none
_refine_ls_goodness_of_fit_ref   1.235
_refine_ls_hydrogen_treatment    constr
_refine_ls_matrix_type           full
_refine_ls_number_parameters     33
_refine_ls_number_reflns         255
_refine_ls_number_restraints     52
_refine_ls_restrained_S_all      1.126
_refine_ls_R_factor_all          0.0924
_refine_ls_R_factor_gt           0.0726
_refine_ls_shift/su_max          0.000
_refine_ls_shift/su_mean         0.000
_refine_ls_structure_factor_coef Fsqd
_refine_ls_weighting_details
'calc w=1/[\s^2^(Fo^2^)+(0.0859P)^2^+11.6766P] where P=(Fo^2^+2Fc^2^)/3'
_refine_ls_weighting_scheme      calc
_refine_ls_wR_factor_gt          0.1855
_refine_ls_wR_factor_ref         0.1986
_reflns_number_gt                197
_reflns_number_total             255
_reflns_threshold_expression     >2sigma(I)
_cod_data_source_file            c8tc02464b2.cif
_cod_data_source_block           pyrazinium_tetrachloroaurate_92_30kbar
_cod_original_cell_volume        764.0(11)
_cod_original_sg_symbol_H-M      'P 42/n c m'
_cod_database_code               7237392
loop_
_symmetry_equiv_pos_as_xyz
'x, y, z'
'-x+1/2, -y+1/2, z'
'-y+1/2, x, z+1/2'
'y, -x+1/2, z+1/2'
'-x, y+1/2, -z+1/2'
'x+1/2, -y, -z+1/2'
'y+1/2, x+1/2, -z'
'-y, -x, -z'
'-x, -y, -z'
'x-1/2, y-1/2, -z'
'y-1/2, -x, -z-1/2'
'-y, x-1/2, -z-1/2'
'x, -y-1/2, z-1/2'
'-x-1/2, y, z-1/2'
'-y-1/2, -x-1/2, z'
'y, x, z'
loop_
_atom_site_label
_atom_site_type_symbol
_atom_site_fract_x
_atom_site_fract_y
_atom_site_fract_z
_atom_site_U_iso_or_equiv
_atom_site_adp_type
_atom_site_occupancy
_atom_site_symmetry_multiplicity
_atom_site_calc_flag
_atom_site_refinement_flags
Au1 Au 0.2500 0.2500 0.2287(3) 0.040(2) Uani 1 4 d SU
Cl3 Cl 0.2500 0.2500 0.373(2) 0.043(3) Uani 1 4 d SU
Cl4 Cl 0.2500 0.2500 0.089(3) 0.048(3) Uani 1 4 d SU
N1 N 0.8778(5) 0.1222(5) 0.0000 0.051(5) Uani 1 2 d SDU
H1A H 0.9614 0.0386 0.0000 0.061 Uiso 0.50 2 calc SPR
C1 C 0.8180(15) 0.1819(15) 0.0814(7) 0.050(5) Uani 1 1 d DU
H1 H 0.8649 0.1350 0.1364 0.060 Uiso 1 1 calc R
Cl1 Cl 0.4699(7) 0.0301(7) 0.2198(10) 0.056(3) Uani 1 2 d SU
loop_
_atom_site_aniso_label
_atom_site_aniso_U_11
_atom_site_aniso_U_22
_atom_site_aniso_U_33
_atom_site_aniso_U_23
_atom_site_aniso_U_13
_atom_site_aniso_U_12
Au1 0.0352(6) 0.0352(6) 0.050(7) 0.000 0.000 0.0011(3)
Cl3 0.0385(19) 0.0385(19) 0.050(7) 0.000 0.000 0.003(2)
Cl4 0.047(2) 0.047(2) 0.051(7) 0.000 0.000 -0.001(3)
N1 0.050(5) 0.050(5) 0.051(9) -0.001(5) -0.001(5) 0.007(6)
C1 0.051(6) 0.048(5) 0.051(9) 0.000(6) -0.001(6) 0.003(6)
Cl1 0.0548(19) 0.0548(19) 0.057(9) -0.003(3) 0.003(3) 0.013(2)
loop_
_atom_type_symbol
_atom_type_description
_atom_type_scat_dispersion_real
_atom_type_scat_dispersion_imag
_atom_type_scat_source
C C 0.0033 0.0016 'International Tables Vol C Tables 4.2.6.8 and 6.1.1.4'
H H 0.0000 0.0000 'International Tables Vol C Tables 4.2.6.8 and 6.1.1.4'
N N 0.0061 0.0033 'International Tables Vol C Tables 4.2.6.8 and 6.1.1.4'
Cl Cl 0.1484 0.1585 'International Tables Vol C Tables 4.2.6.8 and 6.1.1.4'
Au Au -2.0133 8.8022 'International Tables Vol C Tables 4.2.6.8 and 6.1.1.4'
loop_
_geom_angle_atom_site_label_1
_geom_angle_atom_site_label_2
_geom_angle_atom_site_label_3
_geom_angle
_geom_angle_site_symmetry_1
_geom_angle_site_symmetry_3
Cl4 Au1 Cl3 180.000(3) . .
Cl4 Au1 Cl1 86.7(4) . 2
Cl3 Au1 Cl1 93.3(4) . 2
Cl4 Au1 Cl1 86.7(4) . .
Cl3 Au1 Cl1 93.3(4) . .
Cl1 Au1 Cl1 173.5(8) 2 .
C1 N1 C1 124.9(7) 8_665 .
C1 C1 N1 117.5(4) 2_655 .
loop_
_geom_bond_atom_site_label_1
_geom_bond_atom_site_label_2
_geom_bond_distance
_geom_bond_site_symmetry_2
Au1 Cl4 2.02(4) .
Au1 Cl3 2.08(3) .
Au1 Cl1 2.264(7) 2
Au1 Cl1 2.264(7) .
N1 C1 1.327(9) 8_665
N1 C1 1.327(9) .
C1 C1 1.399(9) 2_655
loop_
_refln_index_h
_refln_index_k
_refln_index_l
_refln_F_squared_calc
_refln_F_squared_meas
_refln_F_squared_sigma
_refln_observed_status
3 5 0 23971.53 23360.75 371.82 o
5 5 0 17092.91 16637.88 331.42 o
0 6 0 18750.07 17816.55 281.29 o
2 6 0 23253.43 23401.75 386.58 o
4 6 0 13376.96 13423.63 312.03 o
6 6 0 7185.02 7830.36 449.35 o
1 7 0 15840.53 15705.07 272.22 o
3 7 0 14395.74 15089.40 274.86 o
5 7 0 4751.88 4620.75 191.77 o
0 8 0 8607.70 8012.75 206.09 o
2 8 0 7017.35 6782.32 192.61 o
4 8 0 4534.17 4734.63 224.42 o
1 9 0 5354.83 6125.95 167.79 o
3 9 0 3278.80 3915.96 182.16 o
5 9 0 2439.69 2816.81 242.10 o
0 10 0 2551.18 4789.08 573.80 o
2 10 0 1933.29 2408.32 153.91 o
4 10 0 1694.33 2488.47 226.82 o
3 11 0 994.19 986.94 146.83 o
1 1 1 450.59 195.85 15.72 o
1 2 1 1171.54 1907.41 40.10 o
2 2 1 3991.28 5856.93 91.58 o
1 3 1 1707.21 2510.07 52.84 o
2 3 1 545.38 629.65 30.15 o
3 3 1 683.12 638.29 39.67 o
1 4 1 1465.31 1442.99 41.77 o
2 4 1 216.40 208.44 17.27 o
3 4 1 598.28 644.61 35.25 o
4 4 1 312.59 305.70 34.75 o
1 5 1 27.56 45.20 7.95 o
2 5 1 87.86 69.96 10.86 o
3 5 1 63.23 71.02 14.58 o
4 5 1 271.47 230.33 18.29 o
5 5 1 79.78 37.30 14.30 o
1 6 1 669.76 584.74 27.31 o
2 6 1 2.57 26.98 17.35 o
3 6 1 470.81 413.27 33.09 o
4 6 1 10.22 16.31 6.63 o
5 6 1 65.97 51.40 10.92 o
6 6 1 55.94 35.43 25.89 o
1 7 1 2.92 92.07 55.30 o
2 7 1 30.98 31.57 10.66 o
3 7 1 1.59 25.67 9.81 o
4 7 1 10.82 42.23 19.78 o
5 7 1 2.79 91.33 35.39 o
6 7 1 35.97 46.42 18.40 o
1 8 1 223.44 201.99 20.00 o
2 8 1 2.27 11.02 6.09 o
3 8 1 78.95 69.72 14.95 o
4 8 1 0.67 32.49 27.68 o
5 8 1 52.60 89.57 31.61 o
1 9 1 0.47 801.22 139.90 o
2 9 1 0.02 4.73 6.39 o
3 9 1 2.59 50.11 40.37 o
4 9 1 7.55 23.63 16.13 o
1 10 1 27.58 12.49 8.45 o
2 10 1 0.15 12.99 10.96 o
3 10 1 24.29 61.73 20.43 o
4 10 1 7.17 37.60 18.21 o
5 10 1 0.18 28.49 19.23 o
2 11 1 0.41 35.39 24.26 o
3 11 1 1.22 67.59 61.24 o
4 11 1 1.55 36.98 52.87 o
0 2 2 16684.74 18803.13 299.19 o
1 2 2 3005.08 3586.75 82.89 o
0 3 2 1531.32 1675.01 76.95 o
2 3 2 3760.52 3975.72 83.12 o
3 3 2 33777.88 32591.57 414.40 o
1 4 2 2273.07 2378.92 55.73 o
2 4 2 16053.26 15265.03 159.45 o
3 4 2 878.32 914.80 37.78 o
4 4 2 15738.12 13929.97 211.35 o
0 5 2 2429.71 2385.60 88.57 o
1 5 2 17093.88 14990.49 153.46 o
2 5 2 519.52 555.38 33.05 o
3 5 2 11812.70 10845.67 156.95 o
4 5 2 1056.25 1089.45 36.57 o
5 5 2 10128.05 10051.70 178.43 o
0 6 2 11109.49 10358.28 203.15 o
1 6 2 725.45 801.78 37.63 o
2 6 2 13449.81 11935.74 148.97 o
3 6 2 732.53 756.19 44.17 o
4 6 2 6364.14 5791.80 136.13 o
5 6 2 210.86 177.14 19.35 o
6 6 2 3078.87 3071.19 144.09 o
0 7 2 201.19 173.22 28.12 o
1 7 2 6561.31 5756.03 111.02 o
2 7 2 719.76 649.34 33.48 o
3 7 2 6104.87 5750.03 131.25 o
4 7 2 146.44 96.13 19.90 o
5 7 2 2284.26 2161.97 105.66 o
6 7 2 162.34 168.11 46.60 o
0 8 2 4557.02 4481.22 178.26 o
1 8 2 279.18 244.00 23.24 o
2 8 2 4191.65 3922.72 125.45 o
3 8 2 169.28 136.02 20.59 o
4 8 2 2676.94 2764.72 103.72 o
5 8 2 121.73 115.65 28.58 o
6 8 2 1379.88 1110.84 158.92 o
0 9 2 235.65 175.74 38.55 o
1 9 2 2513.65 2608.98 92.08 o
2 9 2 67.10 48.56 27.09 o
3 9 2 1400.75 1219.32 90.71 o
4 9 2 114.52 107.12 20.87 o
5 9 2 1446.40 2090.07 187.38 o
0 10 2 1549.14 2066.80 181.27 o
1 10 2 70.90 71.64 26.85 o
2 10 2 1090.39 1137.54 137.64 o
3 10 2 53.96 36.64 19.05 o
4 10 2 884.23 1040.15 92.10 o
5 10 2 31.66 89.10 63.99 o
2 11 2 42.16 68.68 39.84 o
3 11 2 621.80 576.08 97.49 o
4 11 2 17.10 129.04 47.60 o
2 2 3 378.74 309.15 68.65 o
1 3 3 433.15 219.36 33.16 o
2 3 3 321.17 318.32 32.34 o
3 3 3 622.43 473.65 44.57 o
1 4 3 900.14 862.81 47.76 o
2 4 3 17.95 14.25 5.08 o
3 4 3 407.90 342.94 22.93 o
4 4 3 53.55 47.09 15.53 o
1 5 3 32.34 21.47 5.31 o
2 5 3 63.17 24.78 7.01 o
3 5 3 128.85 72.58 12.49 o
4 5 3 162.79 141.23 15.36 o
5 5 3 24.29 12.11 11.48 o
1 6 3 449.30 351.94 26.49 o
2 6 3 123.20 47.62 12.70 o
3 6 3 288.12 225.10 28.87 o
4 6 3 48.86 17.49 7.57 o
5 6 3 55.00 55.97 18.78 o
6 6 3 3.69 24.05 25.96 o
1 7 3 20.85 10.26 4.38 o
2 7 3 18.33 17.26 9.17 o
3 7 3 0.87 61.53 37.98 o
4 7 3 11.72 22.96 9.36 o
5 7 3 6.93 31.49 22.19 o
6 7 3 18.73 13.60 17.69 o
1 8 3 143.90 130.87 19.41 o
2 8 3 10.74 34.30 12.37 o
3 8 3 59.44 73.81 25.48 o
4 8 3 11.30 128.42 54.08 o
5 8 3 30.13 11.96 15.57 o
1 9 3 0.20 22.86 15.72 o
2 9 3 0.23 28.52 23.26 o
3 9 3 5.81 97.96 48.62 o
4 9 3 3.13 20.36 14.16 o
1 10 3 18.85 137.79 57.16 o
2 10 3 0.11 25.53 16.17 o
3 10 3 15.42 62.69 22.21 o
4 10 3 2.67 20.77 49.58 o
5 10 3 0.45 24.16 22.35 o
1 11 3 2.17 6.14 12.82 o
2 11 3 0.07 20.02 29.66 o
3 11 3 0.75 53.30 40.58 o
4 11 3 0.36 52.34 69.61 o
3 3 4 10123.93 11070.04 408.53 o
0 4 4 14238.94 14635.60 546.89 o
1 4 4 4903.17 5053.13 227.43 o
2 4 4 5924.43 4422.32 187.55 o
3 4 4 1878.51 2067.15 97.41 o
4 4 4 9148.82 10235.33 279.44 o
0 5 4 5866.94 6163.60 283.20 o
1 5 4 7849.93 8664.25 289.54 o
2 5 4 1117.32 1293.13 99.30 o
3 5 4 3780.08 4260.19 167.14 o
4 5 4 2750.22 3180.46 108.22 o
5 5 4 3898.42 4334.25 188.82 o
0 6 4 4693.52 5022.16 201.22 o
1 6 4 1739.03 1864.40 95.65 o
2 6 4 5839.37 6534.81 217.06 o
3 6 4 1899.33 2053.64 119.17 o
4 6 4 2465.96 2467.36 115.02 o
5 6 4 585.60 517.08 41.53 o
6 6 4 1229.85 1326.31 88.32 o
0 7 4 523.09 456.06 59.69 o
1 7 4 2133.10 2312.65 94.76 o
2 7 4 2004.38 1993.40 101.89 o
3 7 4 2976.40 3424.53 139.88 o
4 7 4 417.76 369.05 43.00 o
5 7 4 1168.44 1132.96 75.52 o
6 7 4 510.12 736.95 65.37 o
0 8 4 2594.69 3232.57 158.88 o
1 8 4 775.22 779.13 54.55 o
2 8 4 1766.06 1808.77 73.99 o
3 8 4 500.55 288.55 38.57 o
4 8 4 879.34 928.03 102.67 o
5 8 4 394.80 386.92 70.74 o
0 9 4 744.55 911.35 94.60 o
1 9 4 973.08 1082.39 69.10 o
2 9 4 221.14 103.97 36.11 o
3 9 4 693.96 565.95 100.72 o
4 9 4 371.76 334.89 77.20 o
5 9 4 690.01 828.79 200.40 o
0 10 4 665.70 703.14 98.79 o
1 10 4 232.95 172.49 40.68 o
2 10 4 479.53 433.08 99.65 o
3 10 4 188.77 140.80 51.32 o
4 10 4 417.68 305.17 155.90 o
5 10 4 117.81 166.23 62.51 o
2 11 4 150.57 87.64 43.49 o
3 11 4 260.54 214.71 80.19 o
4 11 4 66.10 0.42 27.02 o
4 4 5 17.82 66.11 55.52 o
1 5 5 656.03 512.99 119.51 o
2 5 5 25.31 10.20 14.40 o
3 5 5 10.34 27.23 22.35 o
4 5 5 62.94 141.28 39.01 o
5 5 5 12.19 36.07 19.97 o
1 6 5 165.30 94.19 40.98 o
2 6 5 34.54 59.53 34.03 o
3 6 5 112.16 110.72 32.35 o
4 6 5 184.20 74.28 27.35 o
5 6 5 23.55 23.28 15.14 o
6 6 5 57.94 87.72 43.93 o
2 7 5 6.72 29.31 16.81 o
3 7 5 4.81 17.91 18.96 o
4 7 5 5.80 26.29 42.33 o
5 7 5 2.30 5.19 5.93 o
6 7 5 8.42 82.85 62.72 o
1 8 5 56.74 83.66 23.34 o
2 8 5 8.73 51.76 19.70 o
3 8 5 23.95 14.83 14.41 o
4 8 5 30.65 26.42 59.49 o
5 8 5 12.37 0.42 34.43 o
1 9 5 15.32 37.71 22.28 o
2 9 5 0.15 19.81 17.38 o
2 10 5 18.84 5.85 12.29 o
3 10 5 5.85 27.55 23.20 o
4 10 5 2.72 0.64 43.33 o
5 10 5 0.34 75.96 47.99 o
5 6 6 2295.98 1932.99 325.15 o
6 6 6 2121.61 2285.57 223.02 o
0 7 6 2626.77 1971.55 267.20 o
1 7 6 5195.32 3896.67 265.52 o
2 7 6 5659.11 5248.73 320.76 o
3 7 6 3181.09 3557.71 230.51 o
4 7 6 1763.29 1999.94 209.76 o
5 7 6 1124.94 1306.22 245.53 o
6 7 6 1525.95 1374.03 108.50 o
0 8 6 1586.84 1203.23 237.21 o
1 8 6 2608.76 2380.83 245.59 o
2 8 6 1689.65 1863.53 209.66 o
3 8 6 1744.67 2084.24 231.14 o
4 8 6 1551.65 1479.32 280.23 o
5 8 6 1218.62 1304.73 227.04 o
6 8 6 830.97 659.41 122.58 o
1 9 6 1574.46 1506.23 316.67 o
2 9 6 880.76 357.36 171.00 o
3 9 6 837.61 764.29 233.51 o
4 9 6 1071.31 1360.66 287.43 o
5 9 6 546.29 324.94 115.90 o
3 10 6 579.73 769.59 254.48 o
4 10 6 418.70 451.44 163.79 o
