#------------------------------------------------------------------------------
#$Date: 2019-11-24 11:34:57 +0200 (Sun, 24 Nov 2019) $
#$Revision: 237813 $
#$URL: file:///home/coder/svn-repositories/cod/cif/7/23/76/7237622.cif $
#------------------------------------------------------------------------------
#
# This file is available in the Crystallography Open Database (COD),
# http://www.crystallography.net/
#
# All data on this site have been placed in the public domain by the
# contributors.
#
data_7237622
loop_
_publ_author_name
'Szklarz, Przemys\/law'
'G\;agor, Anna'
'Jakubas, Ryszard'
'Zieli\'nski, Piotr'
'Piecha-Bisiorek, Anna'
'Cichos, Jakub'
'Karbowiak, Miros\/law'
'Bator, Gra\.zyna'
'Ci\.zman, Agnieszka'
_publ_section_title
;
 Lead-free hybrid ferroelectric material based on formamidine:
 [NH2CHNH2]3Bi2I9
;
_journal_issue                   10
_journal_name_full               'Journal of Materials Chemistry C'
_journal_page_first              3003
_journal_paper_doi               10.1039/C8TC06458J
_journal_volume                  7
_journal_year                    2019
_chemical_formula_sum            'C3 H15 Bi2 I9 N6'
_chemical_formula_weight         1695.27
_space_group_crystal_system      hexagonal
_space_group_IT_number           186
_space_group_name_Hall           'P 6c -2c'
_space_group_name_H-M_alt        'P 63 m c'
_atom_sites_solution_hydrogens   difmap
_audit_creation_method           SHELXL-2014/7
_audit_update_record
;
2018-07-14 deposited with the CCDC.
2019-02-04 downloaded from the CCDC.
;
_cell_angle_alpha                90
_cell_angle_beta                 90
_cell_angle_gamma                120
_cell_formula_units_Z            2
_cell_length_a                   8.7119(2)
_cell_length_b                   8.7119(2)
_cell_length_c                   22.0141(9)
_cell_measurement_reflns_used    4165
_cell_measurement_temperature    219.8(4)
_cell_measurement_theta_max      25.5570
_cell_measurement_theta_min      2.8970
_cell_volume                     1446.96(8)
_computing_cell_refinement       'CrysAlisPro 1.171.38.43 (Rigaku OD, 2015)'
_computing_data_collection       'CrysAlisPro 1.171.38.43 (Rigaku OD, 2015)'
_computing_data_reduction        'CrysAlisPro 1.171.38.43 (Rigaku OD, 2015)'
_computing_structure_refinement  'SHELXL-2014/7 (Sheldrick, 2014)'
_diffrn_ambient_environment      N~2~
_diffrn_ambient_temperature      219.8(4)
_diffrn_detector                 'CCD plate'
_diffrn_detector_area_resol_mean 10.6249
_diffrn_detector_type            Atlas
_diffrn_measured_fraction_theta_full 0.991
_diffrn_measured_fraction_theta_max 0.991
_diffrn_measurement_device       'four-circle diffractometer'
_diffrn_measurement_device_type  'Xcalibur, Atlas'
_diffrn_radiation_monochromator  graphite
_diffrn_radiation_probe          x-ray
_diffrn_radiation_type           'Mo K\a'
_diffrn_radiation_wavelength     0.71073
_diffrn_reflns_av_R_equivalents  0.0400
_diffrn_reflns_av_unetI/netI     0.0186
_diffrn_reflns_Laue_measured_fraction_full 0.991
_diffrn_reflns_Laue_measured_fraction_max 0.991
_diffrn_reflns_limit_h_max       10
_diffrn_reflns_limit_h_min       -10
_diffrn_reflns_limit_k_max       10
_diffrn_reflns_limit_k_min       -8
_diffrn_reflns_limit_l_max       26
_diffrn_reflns_limit_l_min       -26
_diffrn_reflns_number            10697
_diffrn_reflns_point_group_measured_fraction_full 0.992
_diffrn_reflns_point_group_measured_fraction_max 0.992
_diffrn_reflns_theta_full        25.651
_diffrn_reflns_theta_max         25.651
_diffrn_reflns_theta_min         3.274
_diffrn_source                   'fine-focus sealed X-ray tube'
_diffrn_source_type              'Enhance (Mo) X-ray Source'
_exptl_absorpt_coefficient_mu    21.746
_exptl_absorpt_correction_T_max  1.00000
_exptl_absorpt_correction_T_min  0.62476
_exptl_absorpt_correction_type   multi-scan
_exptl_absorpt_process_details
;
CrysAlisPro 1.171.38.43 (Rigaku Oxford Diffraction, 2015)
Empirical absorption correction using spherical harmonics,
 implemented in SCALE3 ABSPACK scaling algorithm.
;
_exptl_crystal_colour            red
_exptl_crystal_density_diffrn    3.891
_exptl_crystal_description       prism
_exptl_crystal_F_000             1436
_exptl_crystal_size_max          0.15
_exptl_crystal_size_mid          0.11
_exptl_crystal_size_min          0.10
_refine_diff_density_max         0.909
_refine_diff_density_min         -0.553
_refine_diff_density_rms         0.116
_refine_ls_abs_structure_details
;
 Refined as an inversion twin.
;
_refine_ls_abs_structure_Flack   0.50(4)
_refine_ls_extinction_coef       0.0016(2)
_refine_ls_extinction_expression Fc^*^=kFc[1+0.001xFc^2^\l^3^/sin(2\q)]^-1/4^
_refine_ls_extinction_method     'SHELXL-2014/7 (Sheldrick 2014'
_refine_ls_goodness_of_fit_ref   1.257
_refine_ls_hydrogen_treatment    noref
_refine_ls_matrix_type           full
_refine_ls_number_parameters     43
_refine_ls_number_reflns         1114
_refine_ls_number_restraints     8
_refine_ls_restrained_S_all      1.252
_refine_ls_R_factor_all          0.0406
_refine_ls_R_factor_gt           0.0340
_refine_ls_shift/su_max          0.048
_refine_ls_shift/su_mean         0.014
_refine_ls_structure_factor_coef Fsqd
_refine_ls_weighting_details
'w=1/[\s^2^(Fo^2^)+(0.0352P)^2^+4.0862P] where P=(Fo^2^+2Fc^2^)/3'
_refine_ls_weighting_scheme      calc
_refine_ls_wR_factor_gt          0.0851
_refine_ls_wR_factor_ref         0.0877
_reflns_Friedel_coverage         0.944
_reflns_Friedel_fraction_full    0.993
_reflns_Friedel_fraction_max     0.993
_reflns_number_gt                995
_reflns_number_total             1114
_reflns_threshold_expression     'I > 2\s(I)'
_cod_data_source_file            c8tc06458j2.cif
_cod_data_source_block           P63mc
_cod_original_cell_volume        1446.96(9)
_cod_database_code               7237622
_shelx_shelxl_version_number     2014/7
_shelx_space_group_comment
;
The symmetry employed for this shelxl refinement is uniquely defined
by the following loop, which should always be used as a source of
symmetry information in preference to the above space-group names.
They are only intended as comments.
;
_shelx_res_file
;

    220K.res created by SHELXL-2014/7


TITL p63mc in P6(3)mc
CELL 0.71073   8.7119   8.7119  22.0141  90.000  90.000 120.000
ZERR    2.00   0.0002   0.0002   0.0009   0.000   0.000   0.000
LATT -1
SYMM -Y, X-Y, Z
SYMM -X+Y, -X, Z
SYMM -X, -Y, 0.5+Z
SYMM Y, -X+Y, 0.5+Z
SYMM X-Y, X, 0.5+Z
SYMM -Y, -X, Z
SYMM -X+Y, Y, Z
SYMM X, X-Y, Z
SYMM Y, X, 0.5+Z
SYMM X-Y, -Y, 0.5+Z
SYMM -X, -X+Y, 0.5+Z
SFAC N c I BI H
UNIT 12 6 18 4 30
eqiv $5 x, x-y, z
L.S. 10
BOND
FMAP 2
shel 10 0.82
PLAN 40
twin
omit 0 1 0
omit 0 1 1
omit 0 1 -1
omit 0   6  -1
omit 0   6   1
omit 0   2  -1
omit 0   2   1
bond $h
htab 0.5

eqiv $1   -y+1, x-y+1, z
eqiv $2   -x+y, -x+1, z
eqiv $3   -y, x-y, z
eqiv $4   -x+y, -x, z
eqiv $5   x, x-y, z
eqiv $6   -y+1, x-y, z
eqiv $7   -x+y+1, -x+1, z
eqiv $8   -y+1, -x+1, z
eqiv $9   -x+y+1, y, z
free C1 N3_$4
free C1 N3_$3
free C1 N2_$3
free C1 N2_$4
free N2 N3_$3
free N2 N2_$4
free N2 N2_$3
free N3 N2_$4
free N3 N3_$4
free N3 N3_$3
free C6 N7_$7
free C6  N7_$8
free C6  N7_$6
free C6 N7_$9
free N7 N7_$9
free C4 N5_$7
free C4 N5_$6
free C4 N5_$9
free C4 N5_$8
free N5 N5_$8
free n5 N5_$9
free n7 N7_$8

HTAB C1 I2_$2
HTAB N2 I3_$6
HTAB N2 I1_$4
EQIV $10 x-1, y-1, z
HTAB N3 I2_$10
HTAB N3 I2_$6
HTAB N3 I3_$10
HTAB N7 I2
EQIV $11 -x+1, -y+1, z-1/2
HTAB N7 I1_$11
HTAB C4 I3
HTAB C4 I3_$6
EQIV $12 x+1, y, z
HTAB N5 I1_$12
HTAB N5 I3_$6
acta 56
WGHT    0.035200    4.086200
EXTI    0.001601
BASF   0.50181
FVAR       0.93747
MOLE   1
BI1   4    0.333333    0.666667    0.141582    10.16667    0.05414    0.05414 =
         0.05865    0.00000    0.00000    0.02707
BI2   4    0.333333    0.666667    0.331163    10.16667    0.05633    0.05633 =
         0.05213    0.00000    0.00000    0.02817
I2    3    0.660010    0.830005    0.067513    10.50000    0.10511    0.12732 =
         0.09000    0.01404    0.02807    0.05255
I3    3    0.498051    0.501949    0.235384    10.50000    0.07928    0.07928 =
         0.08695   -0.00118    0.00118    0.06034
I1    3    0.168045    0.336090    0.401954    10.50000    0.11913    0.07270 =
         0.10015    0.04963    0.02481    0.03635
eadp c1 n2 n3
dfix 1.30 0.005 c6 n7 c4 n5 c1 n3 c1 n2
dfix 2.2 0.005 n2 n3
C1    2    0.000000    0.000000    0.216970    10.16667    0.18396
AFIX  43
H1    5    0.008446    0.088246    0.191073    10.16667   -1.20000
AFIX   0

N2    1    0.070560    0.035280    0.270785    10.16667    0.18396
AFIX  93
H2A   5    0.060578   -0.049124    0.293736    10.16667   -1.20000
H2B   5    0.127263    0.143044    0.283466    10.16667   -1.20000
AFIX   0
N3    1   -0.083043   -0.166085    0.201578    10.16667    0.18396
AFIX  93
H3A   5   -0.088672   -0.244782    0.226491    10.16667   -1.20000
H3B   5   -0.132431   -0.197424    0.166468    10.16667   -1.20000
AFIX   0
eadp c6  n7
C6    2    0.666667    0.333333    0.067274    10.16667    0.12673
AFIX  43
H6    5    0.667768    0.333884    0.109518    10.16667   -1.20000
AFIX   0

dfix 2.3 0.001 n7 n7_$5
N7    1    0.665948    0.464972    0.039705    10.33330    0.12673
AFIX  93
H7A   5    0.664931    0.468212    0.000669    10.33330   -1.20000
H7B   5    0.666490    0.548798    0.060508    10.33330   -1.20000
AFIX   0

eadp n5 c4
C4    2    0.666667    0.333333    0.366556    10.16667    0.19599
AFIX  43
H4    5    0.635502    0.317751    0.325683    10.16667   -1.20000
AFIX   0

dfix 2.5 0.005 n5 n5_$5
N5    1    0.678731    0.195966    0.382378    10.33330    0.19599
AFIX  93
H5A   5    0.706703    0.186197    0.419064    10.33330   -1.20000
H5B   5    0.658739    0.114869    0.356158    10.33330   -1.20000

AFIX   0
HKLF 4

REM  p63mc in P6(3)mc
REM R1 =  0.0340 for     995 Fo > 4sig(Fo)  and  0.0405 for all    1114 data
REM     43 parameters refined using      8 restraints

END

WGHT      0.0317      6.4119

REM No hydrogen bonds found for HTAB generation

REM Highest difference peak  0.909,  deepest hole -0.553,  1-sigma level  0.116
Q1    1   0.6667  0.3333  0.3993  10.16667  0.05    0.78
Q2    1   0.0000  0.0000  0.4716  10.16667  0.05    0.77
Q3    1   1.0000  1.0000 -0.0008  10.16667  0.05    0.75
Q4    1   0.6743  0.8372  0.0973  10.50000  0.05    0.74
Q5    1   0.1607  0.3213  0.3746  10.50000  0.05    0.69
Q6    1   0.7068  0.2932  0.4365  10.50000  0.05    0.65
Q7    1   0.7020  0.4040  0.0374  10.50000  0.05    0.61
Q8    1   0.6667  0.3333  0.4377  10.16667  0.05    0.56
Q9    1   0.7091  0.4182  0.1083  10.50000  0.05    0.48
Q10   1   0.3333  0.6667  0.2904  10.16667  0.05    0.45
Q11   1   0.2039  0.4078  0.4132  10.50000  0.05    0.45
Q12   1   0.7019  0.4038  0.3587  10.50000  0.05    0.45
Q13   1   0.0000  0.0000  0.1204  10.16667  0.05    0.43
Q14   1   0.3333  0.6667  0.1824  10.16667  0.05    0.41
Q15   1   0.0000  0.0000  0.3487  10.16667  0.05    0.40
Q16   1   0.5270  0.0539  0.3072  10.50000  0.05    0.40
Q17   1   0.3055  0.1527  0.3119  10.50000  0.05    0.39
Q18   1   0.4555 -0.0891  0.3922  10.50000  0.05    0.38
Q19   1   0.5288  0.4712  0.1625  10.50000  0.05    0.37
Q20   1   0.3333  0.6667  0.2359  10.16667  0.05    0.36
Q21   1  -0.1575 -0.3151  0.1590  10.50000  0.05    0.36
Q22   1   0.5867  0.7934  0.0605  10.50000  0.05    0.35
Q23   1   0.8679  0.1322  0.4623  10.50000  0.05    0.35
Q24   1   0.5211  0.0422  0.4226  10.50000  0.05    0.35
Q25   1   0.8401  0.6802  0.0648  10.50000  0.05    0.33
Q26   1   0.2882  0.5763  0.2235  10.50000  0.05    0.32
Q27   1   0.6383  0.8191  0.0043  10.50000  0.05    0.31
Q28   1   0.1813  0.3627  0.4666  10.50000  0.05    0.31
Q29   1   0.3000  0.4343  0.1843  11.00000  0.05    0.30
Q30   1   0.6667  0.3333  0.1539  10.16667  0.05    0.30
Q31   1   0.6667  0.3333 -0.0330  10.16667  0.05    0.30
Q32   1   0.4455  0.5545  0.0840  10.50000  0.05    0.29
Q33   1   0.6336  0.3664 -0.0177  10.50000  0.05    0.29
Q34   1   0.8478  0.1522  0.4056  10.50000  0.05    0.28
Q35   1   0.3805  0.7611  0.1259  10.50000  0.05    0.28
Q36   1   0.5213  0.0426  0.4661  10.50000  0.05    0.28
Q37   1   0.8684  0.7369  0.0063  10.50000  0.05    0.28
Q38   1   0.5215  0.4785  0.0461  10.50000  0.05    0.28
Q39   1   0.6667  0.3333  0.2333  10.16667  0.05    0.28
Q40   1   0.6906  0.3094  0.5008  10.50000  0.05    0.27
;
_shelx_res_checksum              21248
loop_
_space_group_symop_operation_xyz
'x, y, z'
'-y, x-y, z'
'-x+y, -x, z'
'-x, -y, z+1/2'
'y, -x+y, z+1/2'
'x-y, x, z+1/2'
'-y, -x, z'
'-x+y, y, z'
'x, x-y, z'
'y, x, z+1/2'
'x-y, -y, z+1/2'
'-x, -x+y, z+1/2'
loop_
_atom_site_label
_atom_site_type_symbol
_atom_site_fract_x
_atom_site_fract_y
_atom_site_fract_z
_atom_site_U_iso_or_equiv
_atom_site_adp_type
_atom_site_occupancy
_atom_site_site_symmetry_order
_atom_site_calc_flag
_atom_site_refinement_flags_posn
_atom_site_refinement_flags_adp
_atom_site_refinement_flags_occupancy
Bi1 Bi 0.3333 0.6667 0.14158(13) 0.0556(8) Uani 1 6 d S T P
Bi2 Bi 0.3333 0.6667 0.33116(12) 0.0549(8) Uani 1 6 d S T P
I2 I 0.6600(5) 0.8300(2) 0.0675(2) 0.1099(18) Uani 1 2 d S T P
I3 I 0.49805(8) 0.50195(8) 0.2354(3) 0.0726(4) Uani 1 2 d S T P
I1 I 0.1680(2) 0.3361(4) 0.40195(18) 0.1025(17) Uani 1 2 d S T P
C1 C 0.0000 0.0000 0.217(4) 0.18(3) Uiso 1 6 d DS . P
H1 H 0.0084 0.0882 0.1911 0.221 Uiso 0.1667 1 calc R U P
N2 N 0.071(11) 0.035(6) 0.271(5) 0.18(3) Uiso 0.3333 2 d DS . P
H2A H 0.0606 -0.0491 0.2937 0.221 Uiso 0.3333 2 calc R U P
H2B H 0.1273 0.1430 0.2835 0.221 Uiso 0.1667 1 calc R U P
N3 N -0.0830(10) -0.1661(19) 0.202(4) 0.18(3) Uiso 0.3333 2 d DS . P
H3A H -0.0887 -0.2448 0.2265 0.221 Uiso 0.1667 1 calc R U P
H3B H -0.1324 -0.1974 0.1665 0.221 Uiso 0.1667 1 calc R U P
C6 C 0.6667 0.3333 0.067(2) 0.13(2) Uiso 1 6 d DS . P
H6 H 0.6678 0.3339 0.1095 0.152 Uiso 1 6 calc R U P
N7 N 0.666(4) 0.4650(18) 0.040(2) 0.13(2) Uiso 0.3333 1 d D . P
H7A H 0.6649 0.4682 0.0007 0.152 Uiso 0.3333 1 calc R U P
H7B H 0.6665 0.5488 0.0605 0.152 Uiso 0.3333 1 calc R U P
C4 C 0.6667 0.3333 0.367(3) 0.20(4) Uiso 1 6 d DS . P
H4 H 0.6355 0.3178 0.3257 0.235 Uiso 0.3333 2 calc R U P
N5 N 0.679(8) 0.196(4) 0.382(3) 0.20(4) Uiso 0.3333 1 d D . P
H5A H 0.7067 0.1862 0.4191 0.235 Uiso 0.3333 1 calc R U P
H5B H 0.6587 0.1149 0.3562 0.235 Uiso 0.3333 1 calc R U P
loop_
_atom_site_aniso_label
_atom_site_aniso_U_11
_atom_site_aniso_U_22
_atom_site_aniso_U_33
_atom_site_aniso_U_23
_atom_site_aniso_U_13
_atom_site_aniso_U_12
Bi1 0.0541(12) 0.0541(12) 0.059(2) 0.000 0.000 0.0271(6)
Bi2 0.0563(12) 0.0563(12) 0.0521(19) 0.000 0.000 0.0282(6)
I2 0.105(3) 0.127(3) 0.090(3) 0.0140(11) 0.028(2) 0.0526(16)
I3 0.0793(7) 0.0793(7) 0.0869(9) -0.0012(11) 0.0012(11) 0.0603(7)
I1 0.119(3) 0.073(2) 0.100(3) 0.0496(18) 0.0248(9) 0.0364(11)
loop_
_atom_type_symbol
_atom_type_description
_atom_type_scat_dispersion_real
_atom_type_scat_dispersion_imag
_atom_type_scat_source
N N 0.0061 0.0033 'International Tables Vol C Tables 4.2.6.8 and 6.1.1.4'
C C 0.0033 0.0016 'International Tables Vol C Tables 4.2.6.8 and 6.1.1.4'
I I -0.4742 1.8119 'International Tables Vol C Tables 4.2.6.8 and 6.1.1.4'
Bi Bi -4.1077 10.2566 'International Tables Vol C Tables 4.2.6.8 and 6.1.1.4'
H H 0.0000 0.0000 'International Tables Vol C Tables 4.2.6.8 and 6.1.1.4'
loop_
_geom_angle_atom_site_label_1
_geom_angle_atom_site_label_2
_geom_angle_atom_site_label_3
_geom_angle
_geom_angle_site_symmetry_1
_geom_angle_site_symmetry_3
I2 Bi1 I2 92.48(12) 2_665 3_565
I2 Bi1 I2 92.48(12) 2_665 .
I2 Bi1 I2 92.48(12) 3_565 .
I2 Bi1 I3 91.83(8) 2_665 2_665
I2 Bi1 I3 173.77(15) 3_565 2_665
I2 Bi1 I3 91.82(8) . 2_665
I2 Bi1 I3 91.82(8) 2_665 3_565
I2 Bi1 I3 91.83(8) 3_565 3_565
I2 Bi1 I3 173.77(15) . 3_565
I3 Bi1 I3 83.54(14) 2_665 3_565
I2 Bi1 I3 173.77(15) 2_665 .
I2 Bi1 I3 91.82(8) 3_565 .
I2 Bi1 I3 91.83(8) . .
I3 Bi1 I3 83.54(14) 2_665 .
I3 Bi1 I3 83.54(14) 3_565 .
I1 Bi2 I1 94.52(12) 3_565 2_665
I1 Bi2 I1 94.52(12) 3_565 .
I1 Bi2 I1 94.52(12) 2_665 .
I1 Bi2 I3 91.12(9) 3_565 3_565
I1 Bi2 I3 171.69(14) 2_665 3_565
I1 Bi2 I3 91.11(9) . 3_565
I1 Bi2 I3 91.11(9) 3_565 2_665
I1 Bi2 I3 91.12(9) 2_665 2_665
I1 Bi2 I3 171.69(14) . 2_665
I3 Bi2 I3 82.66(15) 3_565 2_665
I1 Bi2 I3 171.69(14) 3_565 .
I1 Bi2 I3 91.11(9) 2_665 .
I1 Bi2 I3 91.12(9) . .
I3 Bi2 I3 82.66(15) 3_565 .
I3 Bi2 I3 82.66(15) 2_665 .
Bi1 I3 Bi2 80.03(3) . .
N2 C1 N3 115.9(9) . .
N2 C1 H1 122.1 . .
N3 C1 H1 122.1 . .
C1 N2 H2A 120.0 . .
C1 N2 H2B 120.0 . .
H2A N2 H2B 120.0 . .
C1 N3 H3A 120.0 . .
C1 N3 H3B 120.0 . .
H3A N3 H3B 120.0 . .
N7 C6 N7 124.4(12) 9 .
N7 C6 H6 117.8 9 .
N7 C6 H6 117.8 . .
C6 N7 H7A 120.0 . .
C6 N7 H7B 120.0 . .
H7A N7 H7B 120.0 . .
N5 C4 N5 148(2) . 9
N5 C4 H4 106.1 . .
N5 C4 H4 106.1 9 .
C4 N5 H5A 120.0 . .
C4 N5 H5B 120.0 . .
H5A N5 H5B 120.0 . .
loop_
_geom_bond_atom_site_label_1
_geom_bond_atom_site_label_2
_geom_bond_distance
_geom_bond_site_symmetry_2
Bi1 I2 2.955(4) 2_665
Bi1 I2 2.955(4) 3_565
Bi1 I2 2.955(4) .
Bi1 I3 3.231(5) 2_665
Bi1 I3 3.231(5) 3_565
Bi1 I3 3.231(5) .
Bi2 I1 2.941(3) 3_565
Bi2 I1 2.941(3) 2_665
Bi2 I1 2.941(3) .
Bi2 I3 3.259(5) 3_565
Bi2 I3 3.259(5) 2_665
Bi2 I3 3.259(5) .
C1 N2 1.299(7) .
C1 N3 1.298(7) .
C1 H1 0.9300 .
N2 H2A 0.8600 .
N2 H2B 0.8600 .
N3 H3A 0.8600 .
N3 H3B 0.8600 .
C6 N7 1.300(7) 9
C6 N7 1.300(7) .
C6 H6 0.9300 .
N7 H7A 0.8600 .
N7 H7B 0.8600 .
C4 N5 1.300(7) .
C4 N5 1.300(7) 9
C4 H4 0.9300 .
N5 H5A 0.8600 .
N5 H5B 0.8600 .
loop_
_geom_hbond_atom_site_label_D
_geom_hbond_atom_site_label_H
_geom_hbond_atom_site_label_A
_geom_hbond_distance_DH
_geom_hbond_distance_HA
_geom_hbond_distance_DA
_geom_hbond_angle_DHA
_geom_hbond_site_symmetry_A
N2 H2A I1 0.86 2.93 3.70(7) 150.0 3
N3 H3B I2 0.86 2.92 3.69(7) 151.4 1_445
N7 H7B I2 0.86 2.48 3.264(9) 151.3 .
N7 H7A I1 0.86 2.70 3.43(5) 144.5 4_664
C4 H4 I3 0.93 3.14 3.85(5) 134.1 .
C4 H4 I3 0.93 3.14 3.85(5) 134.1 2_655
N5 H5B I3 0.86 2.94 3.64(6) 139.6 2_655
