#------------------------------------------------------------------------------
#$Date: 2019-11-24 10:29:40 +0200 (Sun, 24 Nov 2019) $
#$Revision: 237638 $
#$URL: file:///home/coder/svn-repositories/cod/cif/7/23/73/7237387.cif $
#------------------------------------------------------------------------------
#
# This file is available in the Crystallography Open Database (COD),
# http://www.crystallography.net/
#
# All data on this site have been placed in the public domain by the
# contributors.
#
data_7237387
loop_
_publ_author_name
'Paliwoda, Damian'
'Szafra\'nski, Marek'
'Hanfland, Michael'
'Katrusiak, Andrzej'
_publ_section_title
;
 A giant 2-dimensional dielectric response in a compressed hydrogen-bonded
 hybrid organic--inorganic salt
;
_journal_issue                   28
_journal_name_full               'Journal of Materials Chemistry C'
_journal_page_first              7689
_journal_paper_doi               10.1039/C8TC02464B
_journal_volume                  6
_journal_year                    2018
_chemical_formula_moiety         'C4 H5 N2 Au Cl4'
_chemical_formula_sum            'C4 H5 Au Cl4 N2'
_chemical_formula_weight         419.87
_chemical_name_common            'pyrazinium tetrachloroaurate'
_chemical_name_systematic
; 
pyrazinium tetrachloroaurate 
;
_space_group_IT_number           138
_space_group_name_Hall           '-P 4ac 2ac'
_space_group_name_H-M_alt        'P 42/n c m :2'
_symmetry_cell_setting           tetragonal
_symmetry_space_group_name_Hall  '-P 4ac 2ac'
_symmetry_space_group_name_H-M   'P 42/n c m :2'
_atom_sites_solution_hydrogens   geom
_atom_sites_solution_primary     direct
_atom_sites_solution_secondary   difmap
_audit_creation_method           SHELXL-97
_audit_update_record
;
2017-04-07 deposited with the CCDC.
2018-06-28 downloaded from the CCDC.
;
_cell_angle_alpha                90.00
_cell_angle_beta                 90.00
_cell_angle_gamma                90.00
_cell_formula_units_Z            4
_cell_length_a                   7.86500(10)
_cell_length_b                   7.86500(10)
_cell_length_c                   15.8105(4)
_cell_measurement_reflns_used    5990
_cell_measurement_temperature    220(2)
_cell_measurement_theta_max      29.10
_cell_measurement_theta_min      2.58
_cell_volume                     978.01(3)
_computing_cell_refinement       'CrysAlisRED (Oxford Diffraction, 2004)'
_computing_data_collection       'CrysAlisCCD (Oxford Diffraction, 2004)'
_computing_data_reduction        'CrysAlisRED (Oxford Diffraction, 2004)'
_computing_molecular_graphics    'SHELXTL (Sheldrick, 1990)'
_computing_publication_material  'SHELXL--97 (Sheldrick, 1997)'
_computing_structure_refinement  'SHELXL--97 (Sheldrick, 1997)'
_computing_structure_solution    'SHELXS--97 (Sheldrick, 1997)'
_diffrn_ambient_temperature      220(2)
_diffrn_measured_fraction_theta_full 0.974
_diffrn_measured_fraction_theta_max 0.974
_diffrn_measurement_device_type  'KM-4 CCD'
_diffrn_measurement_method       \w-scans
_diffrn_radiation_monochromator  graphite
_diffrn_radiation_source         'fine-focus sealed tube'
_diffrn_radiation_type           MoK\a
_diffrn_radiation_wavelength     0.71073
_diffrn_reflns_av_R_equivalents  0.0757
_diffrn_reflns_av_sigmaI/netI    0.0290
_diffrn_reflns_limit_h_max       10
_diffrn_reflns_limit_h_min       -9
_diffrn_reflns_limit_k_max       10
_diffrn_reflns_limit_k_min       -10
_diffrn_reflns_limit_l_max       20
_diffrn_reflns_limit_l_min       -21
_diffrn_reflns_number            5990
_diffrn_reflns_theta_full        29.10
_diffrn_reflns_theta_max         29.10
_diffrn_reflns_theta_min         2.58
_diffrn_standards_decay_%        0
_diffrn_standards_interval_count 0
_diffrn_standards_number         0
_exptl_absorpt_coefficient_mu    16.074
_exptl_absorpt_correction_T_max  0.040
_exptl_absorpt_correction_T_min  0.030
_exptl_absorpt_correction_type   numerical
_exptl_absorpt_process_details
; 
 Correction for absorption was made using XEMP (SHELXTL, 
 Sheldrick (1990)).
;
_exptl_crystal_colour            orange
_exptl_crystal_density_diffrn    2.852
_exptl_crystal_density_method    'not measured'
_exptl_crystal_description       plate
_exptl_crystal_F_000             760
_exptl_crystal_size_max          0.50
_exptl_crystal_size_mid          0.20
_exptl_crystal_size_min          0.20
_refine_diff_density_max         3.213
_refine_diff_density_min         -1.460
_refine_diff_density_rms         0.306
_refine_ls_extinction_coef       0.0025(4)
_refine_ls_extinction_expression Fc^*^=kFc[1+0.001xFc^2^\l^3^/sin(2\q)]^-1/4^
_refine_ls_extinction_method     SHELXL
_refine_ls_goodness_of_fit_ref   1.143
_refine_ls_hydrogen_treatment    constr
_refine_ls_matrix_type           full
_refine_ls_number_parameters     34
_refine_ls_number_reflns         704
_refine_ls_number_restraints     0
_refine_ls_restrained_S_all      1.143
_refine_ls_R_factor_all          0.0431
_refine_ls_R_factor_gt           0.0367
_refine_ls_shift/su_max          0.000
_refine_ls_shift/su_mean         0.000
_refine_ls_structure_factor_coef Fsqd
_refine_ls_weighting_details
'calc w=1/[\s^2^(Fo^2^)+(0.0680P)^2^+0.0000P] where P=(Fo^2^+2Fc^2^)/3'
_refine_ls_weighting_scheme      calc
_refine_ls_wR_factor_gt          0.1047
_refine_ls_wR_factor_ref         0.1126
_reflns_number_gt                565
_reflns_number_total             704
_reflns_threshold_expression     >2sigma(I)
_cod_data_source_file            c8tc02464b2.cif
_cod_data_source_block           pyrazinium_tetrachloroaurate_220K
_cod_original_sg_symbol_H-M      'P 42/n c m'
_cod_database_code               7237387
loop_
_symmetry_equiv_pos_as_xyz
'x, y, z'
'-x+1/2, -y+1/2, z'
'-y+1/2, x, z+1/2'
'y, -x+1/2, z+1/2'
'-x, y+1/2, -z+1/2'
'x+1/2, -y, -z+1/2'
'y+1/2, x+1/2, -z'
'-y, -x, -z'
'-x, -y, -z'
'x-1/2, y-1/2, -z'
'y-1/2, -x, -z-1/2'
'-y, x-1/2, -z-1/2'
'x, -y-1/2, z-1/2'
'-x-1/2, y, z-1/2'
'-y-1/2, -x-1/2, z'
'y, x, z'
loop_
_atom_site_label
_atom_site_type_symbol
_atom_site_fract_x
_atom_site_fract_y
_atom_site_fract_z
_atom_site_U_iso_or_equiv
_atom_site_adp_type
_atom_site_occupancy
_atom_site_symmetry_multiplicity
_atom_site_calc_flag
_atom_site_refinement_flags
Au1 Au 1.2500 0.2500 0.26327(3) 0.0240(3) Uani 1 4 d S
Cl1 Cl 1.04494(15) 0.04494(15) 0.26534(11) 0.0400(5) Uani 1 2 d S
Cl2 Cl 1.2500 0.2500 0.4080(3) 0.0335(8) Uani 1 4 d S
Cl3 Cl 1.2500 0.2500 0.1191(3) 0.0342(8) Uani 1 4 d S
N1 N 0.8714(5) 0.1286(5) 0.0000 0.0314(12) Uani 1 2 d S
H1A H 0.9488 0.0512 0.0000 0.038 Uiso 0.50 2 calc SPR
C1 C 0.8129(7) 0.1874(7) 0.0726(3) 0.0349(11) Uani 1 1 d .
H1 H 0.8554 0.1458 0.1234 0.042 Uiso 1 1 calc R
loop_
_atom_site_aniso_label
_atom_site_aniso_U_11
_atom_site_aniso_U_22
_atom_site_aniso_U_33
_atom_site_aniso_U_23
_atom_site_aniso_U_13
_atom_site_aniso_U_12
Au1 0.0235(3) 0.0235(3) 0.0252(4) 0.000 0.000 0.00024(9)
Cl1 0.0399(7) 0.0399(7) 0.0402(10) -0.0001(5) -0.0001(5) -0.0143(7)
Cl2 0.0382(12) 0.0382(12) 0.0243(18) 0.000 0.000 0.0015(7)
Cl3 0.0389(12) 0.0389(12) 0.0249(18) 0.000 0.000 -0.0017(7)
N1 0.0295(17) 0.0295(17) 0.035(3) 0.0012(16) 0.0012(16) 0.004(2)
C1 0.034(2) 0.035(2) 0.036(3) 0.007(2) -0.004(2) 0.005(3)
loop_
_atom_type_symbol
_atom_type_description
_atom_type_scat_dispersion_real
_atom_type_scat_dispersion_imag
_atom_type_scat_source
C C 0.0033 0.0016 'International Tables Vol C Tables 4.2.6.8 and 6.1.1.4'
H H 0.0000 0.0000 'International Tables Vol C Tables 4.2.6.8 and 6.1.1.4'
N N 0.0061 0.0033 'International Tables Vol C Tables 4.2.6.8 and 6.1.1.4'
Cl Cl 0.1484 0.1585 'International Tables Vol C Tables 4.2.6.8 and 6.1.1.4'
Au Au -2.0133 8.8022 'International Tables Vol C Tables 4.2.6.8 and 6.1.1.4'
loop_
_geom_angle_atom_site_label_1
_geom_angle_atom_site_label_2
_geom_angle_atom_site_label_3
_geom_angle
_geom_angle_site_symmetry_1
_geom_angle_site_symmetry_3
Cl2 Au1 Cl3 180.0 . .
Cl2 Au1 Cl1 89.18(4) . 2_755
Cl3 Au1 Cl1 90.82(4) . 2_755
Cl2 Au1 Cl1 89.18(4) . .
Cl3 Au1 Cl1 90.82(4) . .
Cl1 Au1 Cl1 178.36(9) 2_755 .
C1 N1 C1 120.7(6) . 8_665
N1 C1 C1 119.6(3) . 2_655
loop_
_geom_bond_atom_site_label_1
_geom_bond_atom_site_label_2
_geom_bond_distance
_geom_bond_site_symmetry_2
Au1 Cl2 2.288(4) .
Au1 Cl3 2.280(4) .
Au1 Cl1 2.2811(17) 2_755
Au1 Cl1 2.2811(17) .
N1 C1 1.320(6) .
N1 C1 1.320(6) 8_665
C1 C1 1.396(12) 2_655
loop_
_refln_index_h
_refln_index_k
_refln_index_l
_refln_F_squared_calc
_refln_F_squared_meas
_refln_F_squared_sigma
_refln_observed_status
1 1 0 101688.55 118540.95 767.74 o
0 2 0 121434.02 138344.50 950.26 o
2 2 0 193929.44 222949.61 1305.03 o
1 3 0 98779.48 106694.25 1085.16 o
3 3 0 87169.02 89512.29 1486.93 o
0 4 0 82520.87 88557.00 765.76 o
2 4 0 59056.29 60301.13 531.45 o
4 4 0 55752.47 54867.03 1182.44 o
1 5 0 76348.08 79595.38 766.16 o
3 5 0 30122.78 29567.65 475.82 o
5 5 0 36414.91 35793.65 494.56 o
0 6 0 36357.76 36038.73 390.82 o
2 6 0 30694.67 31063.88 472.06 o
4 6 0 29500.00 28940.60 278.33 o
6 6 0 15258.43 15631.87 663.60 o
1 7 0 27999.55 28134.75 500.25 o
3 7 0 32465.33 31954.27 328.38 o
5 7 0 10250.36 10251.69 658.58 o
7 7 0 9328.74 10265.42 549.08 o
0 8 0 13870.83 14275.84 678.15 o
2 8 0 19206.21 19839.53 297.04 o
4 8 0 9542.53 9431.21 398.81 o
6 8 0 9720.86 10119.88 535.76 o
1 9 0 14379.83 15074.05 311.71 o
3 9 0 9547.22 8877.09 1415.79 o
5 9 0 8589.94 9109.19 495.53 o
0 10 0 9917.54 10721.33 489.78 o
2 10 0 5052.05 4587.53 1129.92 o
1 1 1 883.75 929.04 34.24 o
1 2 1 2886.34 2949.57 46.08 o
2 2 1 4904.90 4860.36 171.68 o
1 3 1 1605.91 1642.36 30.80 o
2 3 1 864.57 910.49 19.35 o
3 3 1 1698.48 1719.62 50.90 o
1 4 1 3386.78 3367.05 46.33 o
2 4 1 476.98 485.72 15.45 o
3 4 1 1217.27 1197.27 29.75 o
4 4 1 678.87 691.61 27.19 o
1 5 1 0.01 9.16 3.56 o
2 5 1 65.46 61.93 5.61 o
3 5 1 88.71 73.27 6.64 o
4 5 1 69.56 79.05 7.15 o
5 5 1 258.67 258.06 18.45 o
1 6 1 1607.11 1628.38 33.26 o
2 6 1 3.33 6.71 4.54 o
3 6 1 531.31 537.10 27.33 o
4 6 1 39.53 46.42 8.79 o
5 6 1 16.09 21.78 7.19 o
6 6 1 226.44 280.23 49.94 o
1 7 1 29.17 26.29 4.53 o
2 7 1 13.88 7.87 4.98 o
3 7 1 0.54 11.70 5.95 o
4 7 1 42.37 38.02 13.08 o
5 7 1 30.78 12.96 15.03 o
6 7 1 81.03 109.17 22.92 o
7 7 1 9.17 38.76 34.15 o
1 8 1 343.43 367.18 30.63 o
2 8 1 5.59 14.75 10.74 o
3 8 1 94.47 74.96 13.79 o
4 8 1 5.07 29.97 16.20 o
5 8 1 5.31 1.51 14.93 o
6 8 1 0.17 22.81 16.38 o
1 9 1 5.76 22.72 9.19 o
2 9 1 43.55 27.86 5.95 o
3 9 1 2.90 23.83 14.47 o
4 9 1 120.98 112.44 30.83 o
5 9 1 17.40 47.48 31.60 o
1 10 1 16.35 35.88 15.85 o
2 10 1 4.73 24.59 27.32 o
3 10 1 0.01 -8.47 34.21 o
0 0 2 79517.48 44241.68 1127.41 o
0 1 2 2503.29 2575.29 85.69 o
1 1 2 106251.45 129286.63 2337.68 o
0 2 2 16652.93 17095.62 351.17 o
1 2 2 1264.34 1241.37 23.50 o
2 2 2 72032.09 76925.05 967.09 o
0 3 2 609.68 599.67 22.02 o
1 3 2 38079.62 40232.80 586.89 o
2 3 2 1907.11 1857.14 37.18 o
3 3 2 55057.04 54650.32 930.03 o
0 4 2 61636.62 63277.58 866.19 o
1 4 2 1193.13 1244.55 23.98 o
2 4 2 27575.92 27378.51 503.60 o
3 4 2 620.56 612.05 20.72 o
4 4 2 20265.66 19073.98 441.58 o
0 5 2 1492.45 1519.22 44.11 o
1 5 2 27238.31 27686.72 340.93 o
2 5 2 368.47 362.79 16.34 o
3 5 2 15184.87 14833.29 473.64 o
4 5 2 694.88 696.47 30.91 o
5 5 2 25827.20 26594.74 339.84 o
0 6 2 26225.21 26610.05 452.27 o
1 6 2 589.66 600.35 23.15 o
2 6 2 19093.97 19231.12 274.18 o
3 6 2 494.27 503.65 28.42 o
4 6 2 15746.77 15865.00 383.12 o
5 6 2 346.39 376.17 26.51 o
6 6 2 7127.71 7724.19 293.85 o
0 7 2 230.19 227.30 25.59 o
1 7 2 11842.36 11856.36 206.64 o
2 7 2 590.91 600.94 31.04 o
3 7 2 15643.40 15743.09 592.86 o
4 7 2 247.31 250.42 26.31 o
5 7 2 4965.05 4916.22 146.14 o
6 7 2 167.10 190.49 33.60 o
7 7 2 7922.22 8640.46 553.35 o
0 8 2 7626.62 7906.63 219.99 o
1 8 2 280.44 268.41 26.52 o
2 8 2 13729.33 14743.03 222.55 o
3 8 2 304.01 297.09 30.62 o
4 8 2 6878.80 7036.19 176.66 o
5 8 2 130.07 104.35 20.82 o
6 8 2 4972.25 5044.66 229.93 o
0 9 2 275.69 308.37 42.68 o
1 9 2 7600.77 8004.42 156.08 o
2 9 2 156.55 130.86 25.42 o
3 9 2 4016.39 4080.39 195.74 o
4 9 2 150.40 140.67 30.12 o
5 9 2 5296.94 5402.45 305.74 o
0 10 2 7177.63 8126.43 473.83 o
1 10 2 152.80 181.07 70.49 o
2 10 2 3370.00 3574.03 202.60 o
3 10 2 85.18 48.26 16.81 o
1 1 3 2655.85 3080.70 55.36 o
1 2 3 2241.23 2293.98 43.87 o
2 2 3 751.95 822.29 25.15 o
1 3 3 2.66 10.51 1.79 o
2 3 3 695.22 691.58 19.03 o
3 3 3 557.51 581.54 28.61 o
1 4 3 2827.96 2827.76 46.91 o
2 4 3 147.47 161.83 10.09 o
3 4 3 1020.07 999.26 24.90 o
4 4 3 39.49 47.06 8.40 o
1 5 3 9.94 12.84 3.07 o
2 5 3 60.40 51.84 4.98 o
3 5 3 7.76 5.75 4.72 o
4 5 3 56.96 76.99 9.75 o
5 5 3 21.31 22.39 8.92 o
1 6 3 1372.91 1381.83 37.99 o
2 6 3 248.88 236.78 15.62 o
3 6 3 466.90 484.08 26.34 o
4 6 3 74.66 78.68 9.57 o
5 6 3 13.39 6.08 8.94 o
6 6 3 0.40 -12.36 16.32 o
1 7 3 1.25 3.14 4.37 o
2 7 3 12.90 16.43 4.16 o
3 7 3 49.70 45.78 8.12 o
4 7 3 33.86 31.83 9.28 o
5 7 3 44.16 22.81 8.15 o
6 7 3 72.93 135.31 29.98 o
7 7 3 5.33 68.14 54.80 o
1 8 3 297.79 333.75 29.71 o
2 8 3 2.96 12.75 12.64 o
3 8 3 80.54 92.37 16.96 o
4 8 3 22.98 1.25 13.64 o
5 8 3 3.99 3.87 16.65 o
6 8 3 10.31 25.00 20.20 o
1 9 3 5.73 3.98 9.66 o
2 9 3 37.17 10.98 11.83 o
3 9 3 25.64 10.88 10.53 o
4 9 3 108.52 146.41 33.23 o
5 9 3 10.13 6.27 10.73 o
1 10 3 14.00 19.32 16.24 o
2 10 3 5.15 5.23 19.10 o
3 10 3 0.00 3.59 61.20 o
0 0 4 83306.61 59896.89 1103.94 o
0 1 4 4697.12 5302.61 109.02 o
1 1 4 29475.47 32116.18 482.67 o
0 2 4 6356.94 6271.74 109.77 o
1 2 4 2196.64 2186.10 35.29 o
2 2 4 39973.10 40450.98 1052.83 o
0 3 4 995.79 1019.91 36.23 o
1 3 4 23648.12 24167.63 353.85 o
2 3 4 4406.94 4375.27 93.54 o
3 3 4 24788.68 25196.11 466.79 o
0 4 4 21163.00 21193.32 458.61 o
1 4 4 2571.39 2498.37 46.99 o
2 4 4 13385.98 13020.66 199.44 o
3 4 4 1276.78 1268.01 29.85 o
4 4 4 16897.52 17413.01 554.97 o
0 5 4 3753.95 3600.17 100.36 o
1 5 4 19806.33 19944.34 346.80 o
2 5 4 719.78 707.46 22.11 o
3 5 4 6061.04 5923.88 152.36 o
4 5 4 1734.03 1734.35 55.82 o
5 5 4 13475.73 13719.39 516.40 o
0 6 4 13547.61 13087.20 373.24 o
1 6 4 1360.56 1332.42 35.84 o
2 6 4 10281.02 10519.14 200.00 o
3 6 4 1151.58 1113.35 36.82 o
4 6 4 9851.60 9704.10 258.79 o
5 6 4 846.26 917.64 47.48 o
6 6 4 4398.30 4628.02 192.36 o
0 7 4 473.71 434.31 35.99 o
1 7 4 6095.39 5886.91 184.09 o
2 7 4 1536.52 1506.96 47.93 o
3 7 4 11091.80 11186.67 320.48 o
4 7 4 602.38 600.72 38.28 o
5 7 4 3355.03 3521.29 98.43 o
6 7 4 422.74 427.25 41.58 o
7 7 4 4625.31 5195.19 491.23 o
0 8 4 5794.12 5922.06 302.03 o
1 8 4 683.67 687.24 42.82 o
2 8 4 8450.86 8881.64 363.03 o
3 8 4 781.45 798.61 52.03 o
4 8 4 2951.22 3018.72 119.63 o
5 8 4 312.47 324.23 51.11 o
6 8 4 3309.00 3311.71 228.64 o
0 9 4 731.40 689.17 87.50 o
1 9 4 4213.69 4611.09 161.22 o
2 9 4 385.55 405.98 44.32 o
3 9 4 3082.55 3236.99 185.35 o
4 9 4 393.03 404.13 53.94 o
5 9 4 4022.79 3664.03 515.61 o
0 10 4 4948.81 6109.22 454.26 o
1 10 4 408.75 465.71 62.14 o
2 10 4 2038.07 2250.66 146.26 o
3 10 4 220.05 229.42 92.94 o
1 1 5 755.75 747.47 33.29 o
1 2 5 1418.93 1470.04 30.84 o
2 2 5 377.67 394.60 23.59 o
1 3 5 492.74 495.98 17.59 o
2 3 5 469.53 465.10 16.75 o
3 3 5 282.76 289.53 17.72 o
1 4 5 1936.16 1847.37 41.67 o
2 4 5 581.02 625.16 20.76 o
3 4 5 755.73 717.41 22.12 o
4 4 5 1.12 -1.87 6.80 o
1 5 5 222.07 221.07 11.03 o
2 5 5 43.82 42.27 5.03 o
3 5 5 285.07 281.13 15.37 o
4 5 5 39.06 32.84 8.00 o
5 5 5 3.79 3.10 7.40 o
1 6 5 1019.23 1004.77 30.99 o
2 6 5 62.91 57.46 7.85 o
3 6 5 330.77 326.71 17.92 o
4 6 5 434.11 457.39 21.89 o
5 6 5 13.22 1.73 10.57 o
6 6 5 156.20 145.66 25.51 o
1 7 5 142.54 132.15 11.20 o
2 7 5 11.33 16.96 5.49 o
3 7 5 9.05 17.32 7.64 o
4 7 5 23.32 17.37 7.99 o
5 7 5 3.75 -10.82 10.82 o
6 7 5 58.95 73.07 17.81 o
7 7 5 19.54 49.87 28.39 o
1 8 5 222.99 233.67 27.73 o
2 8 5 49.34 55.33 17.33 o
3 8 5 63.58 51.85 15.20 o
4 8 5 41.99 50.86 15.67 o
5 8 5 4.85 9.26 11.53 o
6 8 5 17.87 33.41 17.92 o
1 9 5 87.61 120.17 28.27 o
2 9 5 25.52 1.46 26.72 o
3 9 5 0.47 -1.63 19.80 o
4 9 5 86.02 102.01 58.68 o
5 9 5 7.65 -5.95 38.58 o
1 10 5 10.99 6.48 17.53 o
2 10 5 61.83 64.45 21.82 o
0 0 6 129134.41 130065.34 2681.92 o
0 1 6 25163.48 24842.27 793.13 o
1 1 6 58781.76 61712.67 1662.12 o
0 2 6 49747.38 53204.70 1138.49 o
1 2 6 15232.82 15160.72 263.45 o
2 2 6 81268.33 87506.90 1239.12 o
0 3 6 9302.98 9053.52 159.11 o
1 3 6 35206.11 35263.47 520.86 o
2 3 6 18339.09 18093.12 280.26 o
3 3 6 48239.39 48116.54 1140.13 o
0 4 6 55871.47 57886.42 1191.81 o
1 4 6 12335.65 11934.62 159.87 o
2 4 6 29849.09 30084.00 503.25 o
3 4 6 7166.74 6919.95 150.87 o
4 4 6 20686.65 19950.17 804.30 o
0 5 6 14049.32 13474.06 363.55 o
1 5 6 31823.98 31590.04 497.17 o
2 5 6 4871.61 4562.46 82.11 o
3 5 6 18798.14 18384.20 237.16 o
4 5 6 6922.75 6489.08 172.94 o
5 5 6 22506.17 22721.09 790.66 o
0 6 6 19689.58 18369.22 666.05 o
1 6 6 6179.29 5736.01 131.52 o
2 6 6 15938.00 15784.89 360.79 o
3 6 6 5097.00 4987.74 82.31 o
4 6 6 15012.46 15478.86 295.72 o
5 6 6 3499.01 3454.90 95.48 o
6 6 6 8520.35 8499.95 264.41 o
0 7 6 2841.79 2474.63 70.95 o
1 7 6 16917.90 16222.53 503.31 o
2 7 6 5677.72 5726.89 131.90 o
3 7 6 16256.92 17657.77 322.39 o
4 7 6 2656.16 2617.82 93.75 o
5 7 6 4860.86 4780.85 125.46 o
6 7 6 1708.98 1711.45 81.52 o
7 7 6 5503.07 5372.30 301.57 o
0 8 6 5381.51 6020.86 291.56 o
1 8 6 2896.85 2937.61 152.53 o
2 8 6 10138.38 11905.11 311.08 o
3 8 6 2930.99 3026.05 123.31 o
4 8 6 6926.27 7319.91 177.62 o
5 8 6 1349.49 1340.21 81.90 o
6 8 6 5696.20 5115.68 419.88 o
0 9 6 2590.11 2811.74 201.04 o
1 9 6 9266.07 10834.48 283.98 o
2 9 6 1612.43 1663.24 105.07 o
3 9 6 4649.12 5082.78 316.09 o
4 9 6 1466.41 1516.30 128.66 o
0 10 6 5154.13 6199.47 494.60 o
1 10 6 1460.62 1555.16 151.67 o
2 10 6 2885.67 3241.29 227.41 o
1 1 7 2741.27 2695.80 79.89 o
1 2 7 744.50 756.26 27.58 o
2 2 7 3.07 6.64 6.21 o
1 3 7 504.06 522.51 20.06 o
2 3 7 270.13 288.35 16.48 o
3 3 7 2.73 12.99 10.15 o
1 4 7 1151.31 1118.67 30.45 o
2 4 7 3.47 11.14 4.09 o
3 4 7 447.36 445.68 20.94 o
4 4 7 1356.48 1422.33 89.95 o
1 5 7 91.76 93.35 6.80 o
2 5 7 25.38 33.56 5.32 o
3 5 7 432.74 476.20 25.95 o
4 5 7 27.20 28.10 7.75 o
5 5 7 130.65 166.63 32.78 o
1 6 7 640.21 628.40 27.55 o
2 6 7 875.20 883.03 34.73 o
3 6 7 211.87 216.72 13.76 o
4 6 7 21.29 29.82 13.07 o
5 6 7 6.71 5.67 7.48 o
6 6 7 107.69 124.85 26.71 o
1 7 7 0.22 -7.66 9.50 o
2 7 7 4.73 21.50 11.50 o
3 7 7 222.20 295.38 34.98 o
4 7 7 18.28 41.18 11.18 o
5 7 7 23.26 23.11 9.76 o
6 7 7 34.77 22.00 23.38 o
7 7 7 2.35 33.35 20.73 o
1 8 7 137.66 131.23 25.10 o
2 8 7 19.40 56.75 14.50 o
3 8 7 42.77 59.83 24.27 o
4 8 7 65.85 77.15 15.94 o
5 8 7 2.48 22.75 33.57 o
6 8 7 56.87 24.34 30.65 o
1 9 7 25.04 77.13 21.90 o
2 9 7 20.01 23.36 34.12 o
3 9 7 118.26 101.69 30.46 o
4 9 7 49.15 54.08 46.87 o
1 10 7 7.07 8.47 3.79 o
0 0 8 63073.55 72637.16 1305.80 o
0 1 8 29129.01 27749.32 1204.90 o
1 1 8 44034.18 43706.69 1489.87 o
0 2 8 17384.96 16950.37 483.74 o
1 2 8 18527.96 18586.20 240.69 o
2 2 8 36983.59 36788.87 767.48 o
0 3 8 11690.29 11245.23 265.62 o
1 3 8 32499.89 33852.15 559.33 o
2 3 8 22704.63 22305.72 415.57 o
3 3 8 26188.13 27310.22 661.71 o
0 4 8 23188.17 22230.24 411.17 o
1 4 8 15735.00 14778.21 305.01 o
2 4 8 18260.43 17296.21 430.65 o
3 4 8 9338.82 9215.74 188.09 o
4 4 8 18732.30 18946.73 664.55 o
0 5 8 17826.22 17461.10 424.82 o
1 5 8 20170.78 19924.98 337.11 o
2 5 8 6390.08 5900.67 164.27 o
3 5 8 8807.38 8665.91 203.56 o
4 5 8 9171.13 9117.02 253.34 o
5 5 8 12370.03 12851.00 666.89 o
0 6 8 16320.38 15705.27 646.16 o
1 6 8 8279.45 8030.69 158.75 o
2 6 8 13009.56 12413.00 279.33 o
3 6 8 6810.41 6773.63 177.40 o
4 6 8 10250.00 10356.61 277.73 o
5 6 8 4726.42 4779.73 162.42 o
6 6 8 4464.21 4473.10 219.74 o
0 7 8 3799.23 3706.29 172.84 o
1 7 8 6316.57 6462.98 209.63 o
2 7 8 7544.35 7680.71 232.29 o
3 7 8 9819.24 10153.39 335.59 o
4 7 8 3624.82 3618.56 108.06 o
5 7 8 4526.01 4604.56 128.27 o
6 7 8 2362.85 2092.43 125.65 o
0 8 8 7863.19 8080.40 368.25 o
1 8 8 3951.18 4037.17 166.22 o
2 8 8 8646.54 9175.32 329.56 o
3 8 8 4008.06 4120.74 136.95 o
4 8 8 3319.54 3440.80 115.90 o
5 8 8 1880.29 1767.43 185.70 o
0 9 8 3571.81 3749.16 196.12 o
1 9 8 3652.30 3824.57 186.79 o
2 9 8 2232.95 2290.25 122.89 o
3 9 8 3227.43 3350.18 309.35 o
1 1 9 1060.27 973.69 58.76 o
1 2 9 336.01 320.37 20.35 o
2 2 9 463.41 470.39 30.06 o
1 3 9 731.07 727.50 28.26 o
2 3 9 136.81 140.06 12.60 o
3 3 9 220.63 220.87 22.40 o
1 4 9 567.05 543.51 22.50 o
2 4 9 421.15 406.70 23.98 o
3 4 9 221.86 203.47 14.79 o
4 4 9 124.24 156.61 32.20 o
1 5 9 157.82 132.44 11.29 o
2 5 9 11.53 12.64 4.11 o
3 5 9 160.99 128.71 18.58 o
4 5 9 16.73 35.23 20.57 o
5 5 9 0.09 31.67 20.48 o
1 6 9 322.77 319.25 17.74 o
2 6 9 0.47 0.61 6.48 o
3 6 9 121.40 106.48 18.95 o
4 6 9 420.80 439.54 34.96 o
5 6 9 2.23 14.15 10.04 o
6 6 9 322.10 341.89 48.36 o
1 7 9 155.62 161.45 19.21 o
2 7 9 3.51 8.98 10.14 o
3 7 9 0.01 14.71 8.67 o
4 7 9 10.27 2.14 12.85 o
5 7 9 8.18 -2.70 7.87 o
6 7 9 15.63 43.83 8.15 o
1 8 9 80.41 70.20 15.19 o
2 8 9 49.25 59.65 18.86 o
3 8 9 16.09 33.27 20.99 o
4 8 9 116.20 106.26 18.71 o
5 8 9 0.54 -31.73 62.92 o
1 9 9 123.25 110.52 23.67 o
2 9 9 9.00 -1.45 14.73 o
3 9 9 7.18 26.68 19.83 o
0 0 10 10605.32 13129.33 522.14 o
0 1 10 11192.25 11710.65 574.07 o
1 1 10 8695.12 8465.38 418.19 o
0 2 10 3787.27 3711.97 126.03 o
1 2 10 6388.10 6279.82 197.13 o
2 2 10 9615.82 9180.75 369.18 o
0 3 10 3428.19 3422.76 102.52 o
1 3 10 4339.52 3800.86 93.34 o
2 3 10 10703.06 10223.12 261.40 o
3 3 10 7632.94 7545.10 356.65 o
0 4 10 8524.40 8115.16 181.37 o
1 4 10 6809.82 6547.53 164.33 o
2 4 10 3860.63 3608.93 82.29 o
3 4 10 3718.51 3858.55 93.82 o
4 4 10 2773.87 2653.94 122.69 o
0 5 10 9618.13 8627.16 205.03 o
1 5 10 4361.01 4106.56 114.26 o
2 5 10 2254.19 2114.27 53.59 o
3 5 10 2760.34 2679.84 80.17 o
4 5 10 4811.44 5148.07 199.55 o
5 5 10 4304.41 4506.23 238.06 o
0 6 10 3426.38 3284.70 150.60 o
1 6 10 3853.06 3754.63 128.98 o
2 6 10 2675.88 2621.94 76.20 o
3 6 10 3379.29 3407.95 176.48 o
4 6 10 2686.31 2764.86 149.46 o
5 6 10 2563.81 2693.58 101.33 o
6 6 10 1583.90 1551.59 110.70 o
0 7 10 1567.87 1466.03 98.70 o
1 7 10 2652.58 2586.52 97.74 o
2 7 10 4364.74 4419.55 130.13 o
3 7 10 2770.93 2748.63 105.68 o
4 7 10 1865.97 1839.42 82.59 o
5 7 10 806.56 760.80 65.84 o
6 7 10 1348.06 1189.91 229.56 o
0 8 10 975.27 1012.34 82.81 o
1 8 10 2101.49 2064.95 113.73 o
2 8 10 2182.00 2187.52 93.40 o
3 8 10 2355.04 2493.59 119.91 o
4 8 10 1527.46 1524.46 152.85 o
0 9 10 2187.95 2590.91 289.68 o
1 9 10 1737.39 2084.74 181.29 o
2 9 10 1254.03 1242.85 105.76 o
3 9 10 802.70 810.67 135.26 o
1 1 11 2068.24 2196.19 123.23 o
1 2 11 125.25 108.99 12.66 o
2 2 11 24.10 52.75 12.93 o
1 3 11 215.18 194.73 17.64 o
2 3 11 47.21 38.56 9.07 o
3 3 11 435.02 458.43 40.52 o
1 4 11 224.46 217.67 18.12 o
2 4 11 278.20 269.97 21.26 o
3 4 11 94.01 86.11 12.14 o
4 4 11 225.89 218.06 26.08 o
1 5 11 2.04 8.86 5.85 o
2 5 11 6.95 -1.56 6.77 o
3 5 11 0.09 -4.27 12.87 o
4 5 11 3.95 4.96 6.47 o
5 5 11 4.91 37.47 24.57 o
1 6 11 137.22 114.48 22.90 o
2 6 11 251.89 212.20 23.61 o
3 6 11 43.77 27.19 13.75 o
4 6 11 326.31 336.16 37.12 o
5 6 11 2.11 1.96 15.49 o
6 6 11 38.75 28.91 54.08 o
1 7 11 20.59 13.87 13.09 o
2 7 11 1.52 15.13 9.45 o
3 7 11 51.79 39.55 14.14 o
4 7 11 2.52 19.05 17.98 o
5 7 11 74.63 66.17 35.57 o
1 8 11 28.69 17.12 11.91 o
2 8 11 43.53 33.46 13.75 o
3 8 11 10.56 13.55 17.02 o
4 8 11 55.80 72.48 14.44 o
1 9 11 44.42 17.94 13.51 o
0 0 12 16057.94 21921.41 685.03 o
0 1 12 18902.99 21894.95 928.74 o
1 1 12 4089.10 4336.21 242.77 o
0 2 12 5564.06 5520.83 314.25 o
1 2 12 12377.20 12266.07 727.44 o
2 2 12 8371.04 7555.49 641.29 o
0 3 12 8019.72 7233.06 294.52 o
1 3 12 4851.01 4581.68 231.47 o
2 3 12 16500.59 14950.61 862.97 o
3 3 12 4419.36 4159.92 427.41 o
0 4 12 4221.69 3769.29 105.96 o
1 4 12 11470.62 10328.30 182.77 o
2 4 12 3625.09 3218.84 106.77 o
3 4 12 7001.59 6631.73 403.04 o
4 4 12 3893.78 4304.42 514.91 o
0 5 12 13956.66 12123.02 252.25 o
1 5 12 4739.72 4119.86 93.22 o
2 5 12 4861.62 4098.20 103.01 o
3 5 12 2063.42 2001.30 98.14 o
4 5 12 7487.51 7971.52 494.73 o
5 5 12 2460.63 2749.77 262.60 o
0 6 12 2377.80 2159.87 147.36 o
1 6 12 6547.83 5994.42 200.73 o
2 6 12 2101.23 1929.29 80.60 o
3 6 12 5534.33 5026.65 156.37 o
4 6 12 2110.89 2112.19 101.81 o
5 6 12 4030.48 4218.97 235.95 o
6 6 12 1255.01 1931.68 335.54 o
0 7 12 3111.56 2758.94 122.83 o
1 7 12 2135.40 1993.53 82.47 o
2 7 12 6398.60 5802.29 177.41 o
3 7 12 2570.28 2376.24 106.77 o
4 7 12 3139.92 3032.29 180.69 o
5 7 12 1006.95 1012.06 212.57 o
0 8 12 1189.77 1060.84 98.54 o
1 8 12 3400.88 3165.46 140.61 o
2 8 12 1381.96 1250.71 99.28 o
3 8 12 3514.21 3089.03 188.41 o
1 1 13 616.17 759.53 57.87 o
1 2 13 33.81 40.48 12.15 o
2 2 13 613.90 508.40 44.22 o
1 3 13 822.54 710.52 36.77 o
2 3 13 13.29 31.31 4.98 o
3 3 13 21.21 28.08 17.31 o
1 4 13 56.25 58.42 9.87 o
2 4 13 6.63 2.55 6.37 o
3 4 13 29.42 21.33 11.51 o
4 4 13 750.55 799.25 133.39 o
1 5 13 4.74 14.49 9.49 o
2 5 13 1.32 -3.74 9.90 o
3 5 13 34.84 45.59 15.31 o
4 5 13 1.10 45.59 20.66 o
5 5 13 147.29 137.41 45.36 o
1 6 13 39.72 25.54 17.72 o
2 6 13 91.64 111.10 21.56 o
3 6 13 9.20 11.41 14.08 o
4 6 13 73.11 51.03 19.86 o
5 6 13 1.31 2.26 34.04 o
6 6 13 340.54 349.61 138.29 o
1 7 13 56.37 45.35 8.49 o
2 7 13 0.56 10.92 9.15 o
3 7 13 35.14 22.82 18.24 o
4 7 13 0.91 1.07 29.41 o
5 7 13 0.13 -0.54 30.65 o
1 8 13 8.15 -8.80 16.18 o
2 8 13 34.85 17.63 24.54 o
3 8 13 3.54 -11.72 30.47 o
0 0 14 2364.35 3821.45 459.61 o
0 1 14 28136.19 35558.07 832.49 o
1 1 14 7205.83 9045.77 373.98 o
0 2 14 2244.13 2433.47 128.81 o
1 2 14 20478.49 21478.54 1033.30 o
2 2 14 3388.69 3074.33 254.11 o
0 3 14 14665.17 13434.13 997.84 o
1 3 14 3442.59 3383.83 212.55 o
2 3 14 23169.03 20524.21 1437.67 o
3 3 14 3689.46 3541.05 644.94 o
0 4 14 4184.23 3513.43 232.64 o
1 4 14 17521.52 15964.91 1286.97 o
2 4 14 2607.75 2292.47 201.32 o
3 4 14 11625.36 10981.64 1125.97 o
4 4 14 1587.43 1878.86 236.91 o
0 5 14 18796.22 16520.30 1308.01 o
1 5 14 1751.26 1586.95 82.24 o
2 5 14 8671.08 7654.03 392.24 o
3 5 14 1734.02 1778.74 175.04 o
4 5 14 10566.55 11173.10 1034.45 o
5 5 14 1830.62 2040.94 739.79 o
0 6 14 2587.16 2209.11 157.17 o
1 6 14 9977.77 8730.57 325.66 o
2 6 14 2003.45 1889.24 119.66 o
3 6 14 8368.13 7593.27 342.87 o
4 6 14 1288.78 1558.49 130.74 o
5 6 14 5864.61 8169.53 689.01 o
0 7 14 5395.69 4502.20 205.32 o
1 7 14 924.13 842.20 78.59 o
2 7 14 8648.71 6971.70 476.51 o
3 7 14 954.07 787.08 100.13 o
1 8 14 4994.03 4978.26 384.46 o
1 1 15 1077.86 1414.31 81.09 o
1 2 15 2.93 18.00 11.90 o
2 2 15 49.71 50.66 14.73 o
1 3 15 60.57 45.72 8.56 o
2 3 15 1.41 16.17 8.84 o
3 3 15 454.73 346.75 63.11 o
1 4 15 7.41 -2.37 8.78 o
2 4 15 292.50 261.84 28.13 o
3 4 15 1.43 3.49 22.09 o
4 4 15 40.84 36.47 17.17 o
1 5 15 11.69 10.87 7.88 o
2 5 15 0.21 9.21 18.44 o
3 5 15 17.35 7.24 13.43 o
4 5 15 0.25 -2.73 10.24 o
1 6 15 3.02 23.21 13.99 o
2 6 15 99.77 91.24 23.84 o
3 6 15 2.69 4.46 13.99 o
4 6 15 220.24 97.54 50.12 o
1 7 15 13.31 -5.59 13.52 o
2 7 15 0.02 -22.87 22.87 o
3 7 15 26.55 -15.32 47.77 o
0 0 16 1480.08 2067.78 200.52 o
0 1 16 9850.88 13440.06 311.51 o
1 1 16 164.19 230.43 35.41 o
0 2 16 647.22 815.02 61.01 o
1 2 16 6756.86 7873.77 288.13 o
2 2 16 554.95 649.55 68.22 o
0 3 16 4627.79 4852.51 349.79 o
1 3 16 483.14 446.99 40.12 o
2 3 16 8933.57 9553.03 707.44 o
3 3 16 265.00 259.47 45.22 o
0 4 16 147.88 112.45 39.26 o
1 4 16 6425.23 6254.85 418.65 o
2 4 16 283.49 272.43 31.06 o
3 4 16 4157.89 4237.01 519.55 o
4 4 16 423.28 265.52 66.92 o
0 5 16 7777.14 6012.41 526.00 o
1 5 16 520.43 402.68 39.01 o
2 5 16 3032.81 2869.60 245.70 o
3 5 16 191.49 178.43 30.00 o
4 5 16 4439.96 3421.23 381.66 o
0 6 16 122.23 102.20 36.58 o
1 6 16 3935.64 3554.02 345.89 o
2 6 16 151.61 158.50 41.56 o
3 6 16 3379.18 2552.45 309.55 o
1 7 16 220.95 116.11 46.34 o
1 1 17 280.75 454.27 47.76 o
1 2 17 0.50 10.53 16.01 o
2 2 17 159.64 156.53 28.91 o
1 3 17 258.38 242.41 25.53 o
2 3 17 0.14 -2.24 12.21 o
3 3 17 5.74 3.75 22.18 o
1 4 17 1.25 5.23 9.83 o
2 4 17 35.26 15.97 11.54 o
3 4 17 0.36 3.58 10.41 o
4 4 17 139.80 41.83 53.73 o
1 5 17 14.39 7.91 11.06 o
2 5 17 0.14 1.03 16.73 o
3 5 17 2.87 23.71 57.69 o
1 6 17 0.64 -10.64 10.64 o
2 6 17 7.41 -5.77 29.02 o
0 0 18 1.59 56.82 41.22 o
0 1 18 4906.75 7012.65 282.34 o
1 1 18 23.65 63.89 13.88 o
0 2 18 104.39 122.37 24.12 o
1 2 18 3388.73 4335.55 122.89 o
2 2 18 24.75 33.27 17.76 o
0 3 18 2296.48 2654.14 230.44 o
1 3 18 2.41 11.09 13.23 o
2 3 18 4631.37 5164.28 269.79 o
3 3 18 18.88 39.05 29.72 o
0 4 18 80.75 90.72 23.70 o
1 4 18 3371.85 3445.03 233.48 o
2 4 18 35.51 1.17 13.69 o
3 4 18 2222.46 2234.67 209.43 o
4 4 18 1.10 -8.47 46.51 o
0 5 18 4189.38 3549.05 920.32 o
1 5 18 2.45 -38.05 38.05 o
2 5 18 1618.05 1238.42 108.67 o
3 5 18 55.30 157.20 86.71 o
1 1 19 267.53 472.30 57.46 o
1 2 19 4.29 5.22 11.89 o
2 2 19 3.85 -5.81 21.56 o
1 3 19 70.66 59.99 20.81 o
2 3 19 2.49 3.88 20.45 o
3 3 19 9.78 -13.42 53.00 o
1 4 19 8.63 25.32 24.31 o
2 4 19 5.81 -26.77 26.77 o
3 4 19 2.98 13.91 67.60 o
1 5 19 2.59 21.81 34.79 o
0 0 20 303.92 554.80 159.93 o
0 1 20 8489.77 12151.54 441.23 o
1 1 20 26.81 60.90 24.52 o
0 2 20 91.81 70.03 60.92 o
1 2 20 6614.39 8668.35 269.19 o
2 2 20 219.82 306.95 58.51 o
0 3 20 5143.81 5348.80 329.20 o
1 3 20 10.31 32.37 14.17 o
2 3 20 7074.98 8732.86 397.56 o
1 1 21 85.13 140.08 82.39 o
1 2 21 6.73 28.48 19.65 o
