#------------------------------------------------------------------------------
#$Date: 2019-11-24 10:29:40 +0200 (Sun, 24 Nov 2019) $
#$Revision: 237638 $
#$URL: file:///home/coder/svn-repositories/cod/cif/7/23/73/7237390.cif $
#------------------------------------------------------------------------------
#
# This file is available in the Crystallography Open Database (COD),
# http://www.crystallography.net/
#
# All data on this site have been placed in the public domain by the
# contributors.
#
data_7237390
loop_
_publ_author_name
'Paliwoda, Damian'
'Szafra\'nski, Marek'
'Hanfland, Michael'
'Katrusiak, Andrzej'
_publ_section_title
;
 A giant 2-dimensional dielectric response in a compressed hydrogen-bonded
 hybrid organic--inorganic salt
;
_journal_issue                   28
_journal_name_full               'Journal of Materials Chemistry C'
_journal_page_first              7689
_journal_paper_doi               10.1039/C8TC02464B
_journal_volume                  6
_journal_year                    2018
_chemical_formula_moiety         'C4 H5 N2 Au Cl4'
_chemical_formula_sum            'C4 H5 Au Cl4 N2'
_chemical_formula_weight         419.87
_chemical_name_common            'pyrazinium tetrachloroaurate'
_chemical_name_systematic
; 
pyrazinium tetrachloroaurate 
;
_space_group_IT_number           138
_space_group_name_Hall           '-P 4ac 2ac'
_space_group_name_H-M_alt        'P 42/n c m :2'
_symmetry_cell_setting           tetragonal
_symmetry_space_group_name_Hall  '-P 4ac 2ac'
_symmetry_space_group_name_H-M   'P 42/n c m :2'
_atom_sites_solution_hydrogens   geom
_atom_sites_solution_primary     direct
_atom_sites_solution_secondary   difmap
_audit_creation_method           SHELXL-97
_audit_update_record
;
2017-04-07 deposited with the CCDC.
2018-06-28 downloaded from the CCDC.
;
_cell_angle_alpha                90.00
_cell_angle_beta                 90.00
_cell_angle_gamma                90.00
_cell_formula_units_Z            4
_cell_length_a                   7.56550(10)
_cell_length_b                   7.56550(10)
_cell_length_c                   15.147(6)
_cell_measurement_reflns_used    1429
_cell_measurement_temperature    296(2)
_cell_measurement_theta_max      36.58
_cell_measurement_theta_min      4.04
_cell_volume                     867.0(3)
_computing_cell_refinement       'CrysAlisRED (Oxford Diffraction, 2004)'
_computing_data_collection       'CrysAlisCCD (Oxford Diffraction, 2004)'
_computing_data_reduction        'CrysAlisRED (Oxford Diffraction, 2004)'
_computing_molecular_graphics    'SHELXTL (Sheldrick, 1990)'
_computing_publication_material  'SHELXL--97 (Sheldrick, 1997)'
_computing_structure_refinement  'SHELXL--97 (Sheldrick, 1997)'
_computing_structure_solution    'SHELXS--97 (Sheldrick, 1997)'
_diffrn_ambient_environment      'diamond-anvil cell'
_diffrn_ambient_pressure         2770000
_diffrn_ambient_temperature      296(2)
_diffrn_measured_fraction_theta_full 0.249
_diffrn_measured_fraction_theta_max 0.249
_diffrn_measurement_device_type  Serial
_diffrn_measurement_method       \w/2\q
_diffrn_radiation_monochromator  Si(111)
_diffrn_radiation_source         synchrotron
_diffrn_radiation_type           synchrotron
_diffrn_radiation_wavelength     0.41438
_diffrn_reflns_av_R_equivalents  0.0327
_diffrn_reflns_av_sigmaI/netI    0.0346
_diffrn_reflns_limit_h_max       12
_diffrn_reflns_limit_h_min       -12
_diffrn_reflns_limit_k_max       11
_diffrn_reflns_limit_k_min       -12
_diffrn_reflns_limit_l_max       6
_diffrn_reflns_limit_l_min       -6
_diffrn_reflns_number            1429
_diffrn_reflns_theta_full        36.58
_diffrn_reflns_theta_max         36.58
_diffrn_reflns_theta_min         4.04
_diffrn_standards_decay_%        0
_diffrn_standards_interval_count 0
_diffrn_standards_number         0
_exptl_absorpt_coefficient_mu    18.132
_exptl_crystal_colour            orange
_exptl_crystal_density_diffrn    3.217
_exptl_crystal_density_method    'not measured'
_exptl_crystal_description       plate
_exptl_crystal_F_000             760
_exptl_crystal_size_max          0.05
_exptl_crystal_size_mid          0.04
_exptl_crystal_size_min          0.02
_refine_diff_density_max         0.987
_refine_diff_density_min         -0.702
_refine_diff_density_rms         0.158
_refine_ls_extinction_method     none
_refine_ls_goodness_of_fit_ref   1.231
_refine_ls_hydrogen_treatment    constr
_refine_ls_matrix_type           full
_refine_ls_number_parameters     33
_refine_ls_number_reflns         291
_refine_ls_number_restraints     52
_refine_ls_restrained_S_all      1.134
_refine_ls_R_factor_all          0.0605
_refine_ls_R_factor_gt           0.0485
_refine_ls_shift/su_max          0.000
_refine_ls_shift/su_mean         0.000
_refine_ls_structure_factor_coef Fsqd
_refine_ls_weighting_details
'calc w=1/[\s^2^(Fo^2^)+(0.0323P)^2^+12.2654P] where P=(Fo^2^+2Fc^2^)/3'
_refine_ls_weighting_scheme      calc
_refine_ls_wR_factor_gt          0.1097
_refine_ls_wR_factor_ref         0.1176
_reflns_number_gt                229
_reflns_number_total             291
_reflns_threshold_expression     >2sigma(I)
_cod_data_source_file            c8tc02464b2.cif
_cod_data_source_block           pyrazinium_tetrachloroaurate_27_70kbar
_cod_original_sg_symbol_H-M      'P 42/n c m'
_cod_database_code               7237390
loop_
_symmetry_equiv_pos_as_xyz
'x, y, z'
'-x+1/2, -y+1/2, z'
'-y+1/2, x, z+1/2'
'y, -x+1/2, z+1/2'
'-x, y+1/2, -z+1/2'
'x+1/2, -y, -z+1/2'
'y+1/2, x+1/2, -z'
'-y, -x, -z'
'-x, -y, -z'
'x-1/2, y-1/2, -z'
'y-1/2, -x, -z-1/2'
'-y, x-1/2, -z-1/2'
'x, -y-1/2, z-1/2'
'-x-1/2, y, z-1/2'
'-y-1/2, -x-1/2, z'
'y, x, z'
loop_
_atom_site_label
_atom_site_type_symbol
_atom_site_fract_x
_atom_site_fract_y
_atom_site_fract_z
_atom_site_U_iso_or_equiv
_atom_site_adp_type
_atom_site_occupancy
_atom_site_symmetry_multiplicity
_atom_site_calc_flag
_atom_site_refinement_flags
Au1 Au 0.2500 0.2500 0.23232(17) 0.0268(16) Uani 1 4 d SU
Cl3 Cl 0.2500 0.2500 0.3794(15) 0.035(2) Uani 1 4 d SU
Cl4 Cl 0.2500 0.2500 0.0871(16) 0.035(2) Uani 1 4 d SU
N1 N 0.8729(4) 0.1271(4) 0.0000 0.036(4) Uani 1 2 d SDU
H1A H 0.9533 0.0467 0.0000 0.043 Uiso 0.50 2 calc SPR
C1 C 0.8150(10) 0.1840(10) 0.0776(6) 0.037(3) Uani 1 1 d DU
H1 H 0.8591 0.1380 0.1301 0.044 Uiso 1 1 calc R
Cl1 Cl 0.4619(4) 0.0381(4) 0.2280(7) 0.045(3) Uani 1 2 d SU
loop_
_atom_site_aniso_label
_atom_site_aniso_U_11
_atom_site_aniso_U_22
_atom_site_aniso_U_33
_atom_site_aniso_U_23
_atom_site_aniso_U_13
_atom_site_aniso_U_12
Au1 0.0259(3) 0.0259(3) 0.029(5) 0.000 0.000 0.0010(3)
Cl3 0.0354(12) 0.0354(12) 0.034(6) 0.000 0.000 0.0018(18)
Cl4 0.0374(13) 0.0374(13) 0.032(6) 0.000 0.000 -0.0020(19)
N1 0.035(3) 0.035(3) 0.038(9) -0.002(4) -0.002(4) 0.005(4)
C1 0.038(4) 0.035(4) 0.038(9) -0.003(6) -0.001(6) 0.003(4)
Cl1 0.0435(12) 0.0435(12) 0.049(8) 0.0018(18) -0.0018(18) 0.0154(16)
loop_
_atom_type_symbol
_atom_type_description
_atom_type_scat_dispersion_real
_atom_type_scat_dispersion_imag
_atom_type_scat_source
C C 0.0033 0.0016 'International Tables Vol C Tables 4.2.6.8 and 6.1.1.4'
H H 0.0000 0.0000 'International Tables Vol C Tables 4.2.6.8 and 6.1.1.4'
N N 0.0061 0.0033 'International Tables Vol C Tables 4.2.6.8 and 6.1.1.4'
Cl Cl 0.1484 0.1585 'International Tables Vol C Tables 4.2.6.8 and 6.1.1.4'
Au Au -2.0133 8.8022 'International Tables Vol C Tables 4.2.6.8 and 6.1.1.4'
loop_
_geom_angle_atom_site_label_1
_geom_angle_atom_site_label_2
_geom_angle_atom_site_label_3
_geom_angle
_geom_angle_site_symmetry_1
_geom_angle_site_symmetry_3
Cl4 Au1 Cl3 180.000(2) . .
Cl4 Au1 Cl1 88.4(3) . 2
Cl3 Au1 Cl1 91.6(3) . 2
Cl4 Au1 Cl1 88.4(3) . .
Cl3 Au1 Cl1 91.6(3) . .
Cl1 Au1 Cl1 176.7(5) 2 .
C1 N1 C1 124.9(7) 8_665 .
C1 C1 N1 117.6(4) 2_655 .
loop_
_geom_bond_atom_site_label_1
_geom_bond_atom_site_label_2
_geom_bond_distance
_geom_bond_site_symmetry_2
Au1 Cl4 2.20(2) .
Au1 Cl3 2.23(2) .
Au1 Cl1 2.268(4) 2
Au1 Cl1 2.268(4) .
N1 C1 1.327(8) 8_665
N1 C1 1.327(8) .
C1 C1 1.402(8) 2_655
loop_
_refln_index_h
_refln_index_k
_refln_index_l
_refln_F_squared_calc
_refln_F_squared_meas
_refln_F_squared_sigma
_refln_observed_status
4 6 0 23961.47 23978.75 368.53 o
6 6 0 12329.07 13164.15 430.46 o
1 7 0 24326.52 22936.03 498.71 o
5 7 0 8155.12 8090.42 181.39 o
7 7 0 7218.43 9395.87 615.87 o
0 8 0 12973.74 12628.00 184.77 o
2 8 0 14328.37 13494.74 206.08 o
4 8 0 7860.98 7942.98 155.34 o
6 8 0 7835.31 8372.40 534.64 o
1 9 0 11228.82 11456.99 183.90 o
3 9 0 7016.13 6964.59 165.40 o
5 9 0 6518.91 6861.97 220.94 o
0 10 0 6830.80 6129.87 452.96 o
2 10 0 4042.20 3929.54 133.14 o
4 10 0 4777.64 5004.14 191.81 o
3 11 0 3118.22 3109.46 120.08 o
5 11 0 1471.05 1345.05 161.93 o
4 12 0 1284.57 1318.98 132.43 o
1 1 1 660.54 362.77 17.85 o
1 2 1 2030.26 2574.01 34.98 o
2 2 1 4635.03 6063.37 72.74 o
1 3 1 1736.96 2483.97 39.07 o
2 3 1 818.93 884.46 27.82 o
3 3 1 1276.40 1175.96 38.28 o
1 4 1 2558.23 2465.41 40.11 o
2 4 1 384.01 340.93 16.62 o
3 4 1 1019.29 1085.58 32.78 o
4 4 1 538.64 574.51 29.27 o
1 5 1 5.41 11.40 4.81 o
2 5 1 104.43 76.46 8.67 o
3 5 1 79.92 66.36 8.48 o
4 5 1 272.51 272.40 15.36 o
5 5 1 181.25 147.92 21.26 o
1 6 1 1278.80 1104.91 28.84 o
2 6 1 3.54 18.79 17.26 o
3 6 1 684.62 674.86 31.51 o
4 6 1 20.52 18.95 5.76 o
5 6 1 57.44 49.13 9.79 o
6 6 1 163.30 103.30 16.07 o
1 7 1 18.17 32.29 6.49 o
2 7 1 12.04 16.78 5.74 o
3 7 1 1.77 11.78 4.76 o
4 7 1 0.25 8.82 7.49 o
5 7 1 13.43 20.52 7.57 o
6 7 1 2.43 10.69 23.14 o
7 7 1 5.91 1167.62 207.98 o
1 8 1 401.65 353.23 18.98 o
2 8 1 8.31 12.53 9.81 o
3 8 1 122.05 92.37 12.04 o
4 8 1 3.21 35.47 12.09 o
5 8 1 26.12 16.42 17.59 o
6 8 1 2.93 4.56 7.52 o
1 9 1 2.24 9.78 4.75 o
2 9 1 7.95 12.56 7.60 o
3 9 1 5.99 25.67 9.26 o
4 9 1 2.96 4.68 10.09 o
5 9 1 11.83 17.83 17.85 o
6 9 1 45.51 8.66 15.43 o
1 10 1 44.30 130.47 126.88 o
2 10 1 1.50 41.18 27.32 o
3 10 1 21.33 16.58 6.58 o
4 10 1 18.63 31.99 20.29 o
5 10 1 5.03 38.36 16.57 o
2 11 1 1.88 20.44 12.66 o
3 11 1 2.64 16.57 5.40 o
4 11 1 25.91 23.33 26.75 o
5 11 1 21.93 46.17 21.68 o
3 12 1 0.89 9.04 19.60 o
4 12 1 5.06 2.89 9.35 o
0 2 2 15767.37 16193.55 221.84 o
1 2 2 2180.55 2474.75 46.62 o
0 3 2 1073.22 1157.17 43.85 o
2 3 2 3038.03 3566.02 60.26 o
1 4 2 1950.95 2160.61 37.29 o
2 4 2 21940.79 22912.50 222.44 o
3 4 2 872.48 994.80 29.63 o
4 4 2 18760.94 18297.09 177.27 o
0 5 2 2241.99 2397.07 66.55 o
1 5 2 22686.04 22020.12 156.06 o
2 5 2 514.18 525.24 24.90 o
3 5 2 14332.10 14321.89 133.90 o
4 5 2 1096.23 1128.45 29.95 o
5 5 2 19121.83 19800.31 208.33 o
0 6 2 18917.75 17740.00 215.75 o
1 6 2 817.57 835.36 28.88 o
2 6 2 17473.65 16473.99 137.70 o
3 6 2 805.15 838.74 35.09 o
4 6 2 11706.15 11806.68 146.86 o
5 6 2 364.31 363.43 21.75 o
6 6 2 5212.88 5286.20 142.01 o
0 7 2 271.23 252.23 25.41 o
1 7 2 9775.58 9158.97 102.89 o
2 7 2 859.22 814.63 29.65 o
3 7 2 11705.95 11421.99 138.82 o
4 7 2 257.46 223.31 24.98 o
5 7 2 3761.09 3669.54 88.11 o
6 7 2 244.86 173.84 23.44 o
0 8 2 6847.08 6520.41 133.66 o
1 8 2 395.02 361.80 20.53 o
2 8 2 9299.47 8829.49 107.42 o
3 8 2 319.45 284.01 22.50 o
4 8 2 5022.41 5210.82 107.75 o
5 8 2 194.78 202.43 40.79 o
6 8 2 3690.44 3738.93 164.13 o
0 9 2 375.87 331.64 29.60 o
1 9 2 5502.46 5277.20 93.24 o
2 9 2 149.42 39.62 11.40 o
3 9 2 2770.97 2724.19 79.96 o
4 9 2 201.69 206.49 31.70 o
5 9 2 3873.63 4467.16 122.68 o
6 9 2 111.19 45.06 27.89 o
0 10 2 4456.54 4746.02 235.31 o
1 10 2 161.48 123.41 19.84 o
2 10 2 2430.09 2421.25 103.45 o
3 10 2 110.38 44.24 14.12 o
4 10 2 2828.34 3095.39 107.22 o
5 10 2 109.31 85.13 29.56 o
1 11 2 1703.15 1562.15 217.06 o
2 11 2 103.02 102.07 25.28 o
3 11 2 2000.24 2186.69 102.72 o
4 11 2 66.22 72.04 24.72 o
5 11 2 1025.16 1353.64 107.33 o
3 12 2 53.61 37.09 22.13 o
4 12 2 605.91 324.48 58.07 o
2 2 3 536.62 404.86 56.84 o
1 3 3 92.32 6.56 10.60 o
2 3 3 598.37 575.67 29.53 o
3 3 3 579.85 441.68 34.44 o
1 4 3 1957.29 1810.30 46.65 o
2 4 3 82.26 51.49 8.48 o
3 4 3 759.40 725.03 31.65 o
4 4 3 61.78 36.00 7.93 o
1 5 3 1.18 10.05 5.17 o
2 5 3 84.25 51.27 8.11 o
3 5 3 57.56 28.43 6.85 o
4 5 3 209.33 141.34 17.42 o
5 5 3 11.26 15.08 13.61 o
1 6 3 983.61 875.14 31.64 o
2 6 3 212.58 175.02 13.26 o
3 6 3 553.95 497.97 28.22 o
4 6 3 88.21 34.10 9.76 o
5 6 3 39.38 47.20 6.68 o
6 6 3 1.27 19.44 14.14 o
1 7 3 9.60 12.56 6.30 o
2 7 3 8.47 6.35 2.52 o
3 7 3 28.74 20.65 7.72 o
4 7 3 0.15 15.95 5.02 o
5 7 3 33.61 25.14 6.50 o
6 7 3 1.61 26.97 6.11 o
7 7 3 0.74 6.91 7.29 o
1 8 3 318.60 277.66 19.46 o
2 8 3 11.98 15.77 6.82 o
3 8 3 86.20 74.92 11.25 o
4 8 3 21.53 14.15 12.51 o
5 8 3 24.72 22.56 9.15 o
6 8 3 29.00 58.64 39.13 o
1 9 3 2.11 26.30 13.17 o
2 9 3 5.43 17.41 8.90 o
3 9 3 22.20 29.94 17.20 o
4 9 3 3.71 6.17 6.81 o
5 9 3 16.68 42.62 19.18 o
1 10 3 31.61 23.81 10.63 o
2 10 3 1.93 13.70 15.03 o
3 10 3 20.48 20.22 12.40 o
4 10 3 6.96 49.82 28.50 o
5 10 3 6.08 37.92 19.54 o
1 11 3 14.22 14.27 2.19 o
2 11 3 2.38 46.82 34.00 o
3 11 3 1.77 13.31 14.22 o
4 11 3 18.44 1577.03 219.68 o
5 11 3 0.31 1.06 17.48 o
3 12 3 1.39 23.07 36.93 o
3 3 4 18172.83 17535.90 492.47 o
0 4 4 19727.67 19807.38 483.35 o
1 4 4 4380.82 4711.61 150.83 o
2 4 4 10149.84 9392.73 232.40 o
3 4 4 1906.42 1990.21 70.87 o
4 4 4 14227.72 14932.76 215.75 o
0 5 4 5864.00 5881.66 195.79 o
1 5 4 14436.51 13902.26 256.78 o
2 5 4 1151.27 1212.66 67.47 o
3 5 4 5495.30 5663.16 114.64 o
4 5 4 2913.63 3057.13 68.67 o
5 5 4 9191.15 9805.52 175.09 o
0 6 4 9466.68 8807.26 188.08 o
1 6 4 1941.06 1862.89 68.03 o
2 6 4 9188.40 9385.96 169.41 o
3 6 4 2012.75 2020.65 74.62 o
4 6 4 6461.25 6185.64 98.13 o
5 6 4 934.28 942.30 41.39 o
6 6 4 2720.13 2955.27 86.92 o
0 7 4 660.84 626.59 44.69 o
1 7 4 4322.32 4082.08 81.69 o
2 7 4 2407.95 2442.40 62.74 o
3 7 4 7398.68 7856.42 156.69 o
4 7 4 683.66 647.67 38.98 o
5 7 4 2440.44 2528.64 78.97 o
6 7 4 692.82 692.09 45.31 o
7 7 4 3118.84 4115.23 224.39 o
0 8 4 4937.67 5151.65 137.57 o
1 8 4 1015.34 1035.65 42.64 o
2 8 4 5203.86 4807.43 97.19 o
3 8 4 852.74 763.68 37.68 o
4 8 4 1950.61 1946.56 90.09 o
5 8 4 538.19 486.11 45.22 o
6 8 4 2147.06 2679.94 123.87 o
0 9 4 1108.04 1082.60 66.03 o
1 9 4 2713.32 2738.15 72.48 o
2 9 4 415.47 298.00 27.21 o
3 9 4 1896.82 1574.26 132.41 o
4 9 4 584.20 615.86 85.82 o
5 9 4 2591.69 3183.70 158.38 o
6 9 4 335.49 341.56 66.49 o
0 10 4 2683.01 2757.06 118.27 o
1 10 4 461.62 362.71 34.88 o
2 10 4 1327.59 1298.78 80.65 o
3 10 4 323.97 171.45 35.47 o
4 10 4 1650.96 1881.76 156.09 o
5 10 4 333.74 311.00 58.25 o
1 11 4 1163.75 1293.68 109.12 o
2 11 4 306.09 114.89 46.58 o
3 11 4 1124.77 1218.21 105.10 o
4 11 4 201.14 63.90 32.99 o
5 11 4 533.57 797.86 119.15 o
3 12 4 173.82 133.21 62.01 o
4 4 5 5.26 23.86 23.02 o
1 5 5 440.21 479.25 96.66 o
2 5 5 50.40 38.15 18.98 o
3 5 5 129.18 87.34 27.59 o
4 5 5 113.22 64.47 40.68 o
5 5 5 2.98 19.06 39.48 o
1 6 5 585.43 496.48 53.70 o
2 6 5 52.75 15.24 7.16 o
3 6 5 312.62 317.76 38.28 o
4 6 5 432.16 370.67 42.46 o
5 6 5 27.22 15.90 10.03 o
6 6 5 147.39 125.86 25.90 o
1 7 5 38.46 20.10 7.53 o
2 7 5 3.18 22.95 19.33 o
4 7 5 0.09 15.71 8.21 o
5 7 5 0.25 8.59 8.59 o
6 7 5 0.33 12.70 44.60 o
1 8 5 187.59 119.20 17.63 o
2 8 5 39.15 13.56 7.05 o
3 8 5 54.89 32.92 12.66 o
4 8 5 67.86 22.82 22.15 o
5 8 5 9.74 11.78 14.36 o
6 8 5 55.28 20.06 12.39 o
1 9 5 67.78 23.46 7.55 o
2 9 5 3.41 10.71 8.59 o
3 9 5 2.48 36.70 42.10 o
4 9 5 2.82 5.37 7.82 o
5 9 5 38.28 25.84 24.70 o
6 9 5 21.22 32.52 22.26 o
1 10 5 20.21 25.40 8.63 o
2 10 5 63.96 47.11 21.59 o
3 10 5 8.46 23.94 17.02 o
4 10 5 2.74 20.78 12.89 o
2 11 5 0.99 18.16 22.95 o
3 11 5 60.59 45.82 23.25 o
4 11 5 12.54 25.76 31.61 o
4 6 6 9776.56 10011.29 548.25 o
5 6 6 3973.28 4023.55 188.98 o
6 6 6 5690.13 5607.01 213.68 o
0 7 6 3760.62 3991.60 323.02 o
1 7 6 12113.06 11926.45 735.86 o
2 7 6 8008.89 8350.38 694.98 o
3 7 6 9968.10 10057.59 281.05 o
4 7 6 3096.81 3199.65 158.12 o
5 7 6 3032.86 2901.37 151.71 o
6 7 6 2494.44 2356.90 106.59 o
7 7 6 3073.64 3393.35 180.85 o
0 8 6 3862.26 3676.48 325.45 o
1 8 6 4031.85 3780.29 279.48 o
2 8 6 5769.71 5590.94 222.27 o
3 8 6 3267.42 3296.97 199.15 o
4 8 6 4494.62 4686.15 237.73 o
5 8 6 2017.07 2022.07 155.57 o
6 8 6 3536.71 3788.03 232.67 o
0 9 6 3515.39 3303.84 329.40 o
1 9 6 5611.04 5776.59 280.64 o
2 9 6 1774.23 1612.53 147.25 o
3 9 6 2747.11 1663.84 583.01 o
4 9 6 1992.11 2373.30 247.95 o
5 9 6 2398.85 2577.25 227.05 o
6 9 6 1125.46 1088.06 129.18 o
2 10 6 1826.69 1777.49 240.27 o
3 10 6 1168.20 1146.42 185.03 o
4 10 6 2125.62 2286.98 244.91 o
5 10 6 1026.13 1158.04 155.62 o
4 11 6 658.42 820.74 143.77 o
