#------------------------------------------------------------------------------
#$Date: 2019-11-24 10:29:40 +0200 (Sun, 24 Nov 2019) $
#$Revision: 237638 $
#$URL: file:///home/coder/svn-repositories/cod/cif/7/23/73/7237376.cif $
#------------------------------------------------------------------------------
#
# This file is available in the Crystallography Open Database (COD),
# http://www.crystallography.net/
#
# All data on this site have been placed in the public domain by the
# contributors.
#
data_7237376
loop_
_publ_author_name
'Paliwoda, Damian'
'Szafra\'nski, Marek'
'Hanfland, Michael'
'Katrusiak, Andrzej'
_publ_section_title
;
 A giant 2-dimensional dielectric response in a compressed hydrogen-bonded
 hybrid organic--inorganic salt
;
_journal_issue                   28
_journal_name_full               'Journal of Materials Chemistry C'
_journal_page_first              7689
_journal_paper_doi               10.1039/C8TC02464B
_journal_volume                  6
_journal_year                    2018
_chemical_formula_moiety         'C4 H5 N2 Au Cl4'
_chemical_formula_sum            'C4 H5 Au Cl4 N2'
_chemical_formula_weight         419.87
_chemical_name_common            'pyrazinium tetrachloroaurate'
_chemical_name_systematic
; 
pyrazinium tetrachloroaurate 
;
_space_group_IT_number           138
_space_group_name_Hall           '-P 4ac 2ac'
_space_group_name_H-M_alt        'P 42/n c m :2'
_symmetry_cell_setting           tetragonal
_symmetry_space_group_name_Hall  '-P 4ac 2ac'
_symmetry_space_group_name_H-M   'P 42/n c m :2'
_atom_sites_solution_hydrogens   geom
_atom_sites_solution_primary     direct
_atom_sites_solution_secondary   difmap
_audit_creation_method           SHELXL-97
_audit_update_record
;
2017-04-07 deposited with the CCDC.
2018-06-28 downloaded from the CCDC.
;
_cell_angle_alpha                90.00
_cell_angle_beta                 90.00
_cell_angle_gamma                90.00
_cell_formula_units_Z            4
_cell_length_a                   7.84680(10)
_cell_length_b                   7.84680(10)
_cell_length_c                   15.7718(4)
_cell_measurement_reflns_used    5842
_cell_measurement_temperature    160(2)
_cell_measurement_theta_max      29.03
_cell_measurement_theta_min      2.58
_cell_volume                     971.11(3)
_computing_cell_refinement       'CrysAlisRED (Oxford Diffraction, 2004)'
_computing_data_collection       'CrysAlisCCD (Oxford Diffraction, 2004)'
_computing_data_reduction        'CrysAlisRED (Oxford Diffraction, 2004)'
_computing_molecular_graphics    'SHELXTL (Sheldrick, 1990)'
_computing_publication_material  'SHELXL--97 (Sheldrick, 1997)'
_computing_structure_refinement  'SHELXL--97 (Sheldrick, 1997)'
_computing_structure_solution    'SHELXS--97 (Sheldrick, 1997)'
_diffrn_ambient_temperature      160(2)
_diffrn_measured_fraction_theta_full 0.980
_diffrn_measured_fraction_theta_max 0.980
_diffrn_measurement_device_type  'KM-4 CCD'
_diffrn_measurement_method       \w-scans
_diffrn_radiation_monochromator  graphite
_diffrn_radiation_source         'fine-focus sealed tube'
_diffrn_radiation_type           MoK\a
_diffrn_radiation_wavelength     0.71073
_diffrn_reflns_av_R_equivalents  0.0750
_diffrn_reflns_av_sigmaI/netI    0.0324
_diffrn_reflns_limit_h_max       9
_diffrn_reflns_limit_h_min       -10
_diffrn_reflns_limit_k_max       10
_diffrn_reflns_limit_k_min       -10
_diffrn_reflns_limit_l_max       21
_diffrn_reflns_limit_l_min       -20
_diffrn_reflns_number            5842
_diffrn_reflns_theta_full        29.03
_diffrn_reflns_theta_max         29.03
_diffrn_reflns_theta_min         2.58
_diffrn_standards_decay_%        0
_diffrn_standards_interval_count 0
_diffrn_standards_number         0
_exptl_absorpt_coefficient_mu    16.188
_exptl_absorpt_correction_T_max  0.039
_exptl_absorpt_correction_T_min  0.029
_exptl_absorpt_correction_type   numerical
_exptl_absorpt_process_details
; 
 Correction for absorption was made using XEMP (SHELXTL, 
 Sheldrick (1990)).
;
_exptl_crystal_colour            orange
_exptl_crystal_density_diffrn    2.872
_exptl_crystal_density_method    'not measured'
_exptl_crystal_description       plate
_exptl_crystal_F_000             760
_exptl_crystal_size_max          0.50
_exptl_crystal_size_mid          0.20
_exptl_crystal_size_min          0.20
_refine_diff_density_max         3.649
_refine_diff_density_min         -2.085
_refine_diff_density_rms         0.364
_refine_ls_extinction_coef       0.0024(4)
_refine_ls_extinction_expression Fc^*^=kFc[1+0.001xFc^2^\l^3^/sin(2\q)]^-1/4^
_refine_ls_extinction_method     SHELXL
_refine_ls_goodness_of_fit_ref   1.138
_refine_ls_hydrogen_treatment    constr
_refine_ls_matrix_type           full
_refine_ls_number_parameters     34
_refine_ls_number_reflns         699
_refine_ls_number_restraints     0
_refine_ls_restrained_S_all      1.138
_refine_ls_R_factor_all          0.0441
_refine_ls_R_factor_gt           0.0388
_refine_ls_shift/su_max          0.000
_refine_ls_shift/su_mean         0.000
_refine_ls_structure_factor_coef Fsqd
_refine_ls_weighting_details
'calc w=1/[\s^2^(Fo^2^)+(0.0756P)^2^+0.0499P] where P=(Fo^2^+2Fc^2^)/3'
_refine_ls_weighting_scheme      calc
_refine_ls_wR_factor_gt          0.1110
_refine_ls_wR_factor_ref         0.1199
_reflns_number_gt                584
_reflns_number_total             699
_reflns_threshold_expression     >2sigma(I)
_cod_data_source_file            c8tc02464b2.cif
_cod_data_source_block           pyrazinium_tetrachloroaurate_160K
_cod_original_sg_symbol_H-M      'P 42/n c m'
_cod_database_code               7237376
loop_
_symmetry_equiv_pos_as_xyz
'x, y, z'
'-x+1/2, -y+1/2, z'
'-y+1/2, x, z+1/2'
'y, -x+1/2, z+1/2'
'-x, y+1/2, -z+1/2'
'x+1/2, -y, -z+1/2'
'y+1/2, x+1/2, -z'
'-y, -x, -z'
'-x, -y, -z'
'x-1/2, y-1/2, -z'
'y-1/2, -x, -z-1/2'
'-y, x-1/2, -z-1/2'
'x, -y-1/2, z-1/2'
'-x-1/2, y, z-1/2'
'-y-1/2, -x-1/2, z'
'y, x, z'
loop_
_atom_site_label
_atom_site_type_symbol
_atom_site_fract_x
_atom_site_fract_y
_atom_site_fract_z
_atom_site_U_iso_or_equiv
_atom_site_adp_type
_atom_site_occupancy
_atom_site_symmetry_multiplicity
_atom_site_calc_flag
_atom_site_refinement_flags
Au1 Au 1.2500 0.2500 0.26362(3) 0.0135(3) Uani 1 4 d S
Cl1 Cl 1.04408(15) 0.04408(15) 0.26594(10) 0.0263(5) Uani 1 2 d S
Cl2 Cl 1.2500 0.2500 0.4087(3) 0.0199(8) Uani 1 4 d S
Cl3 Cl 1.2500 0.2500 0.1191(3) 0.0207(8) Uani 1 4 d S
N1 N 0.8725(4) 0.1275(4) 0.0000 0.0187(11) Uani 1 2 d S
H1A H 0.9500 0.0500 0.0000 0.022 Uiso 0.50 2 calc SPR
C1 C 0.8133(6) 0.1877(6) 0.0731(3) 0.0214(10) Uani 1 1 d .
H1 H 0.8562 0.1466 0.1241 0.026 Uiso 1 1 calc R
loop_
_atom_site_aniso_label
_atom_site_aniso_U_11
_atom_site_aniso_U_22
_atom_site_aniso_U_33
_atom_site_aniso_U_23
_atom_site_aniso_U_13
_atom_site_aniso_U_12
Au1 0.0130(3) 0.0130(3) 0.0146(5) 0.000 0.000 0.00003(9)
Cl1 0.0264(7) 0.0264(7) 0.0262(10) 0.0000(5) 0.0000(5) -0.0098(7)
Cl2 0.0234(11) 0.0234(11) 0.0131(18) 0.000 0.000 0.0015(7)
Cl3 0.0245(12) 0.0245(12) 0.0133(18) 0.000 0.000 -0.0019(6)
N1 0.0162(16) 0.0162(16) 0.024(3) 0.0014(16) 0.0014(16) 0.0065(19)
C1 0.022(2) 0.022(2) 0.020(2) 0.002(2) -0.005(2) 0.006(3)
loop_
_atom_type_symbol
_atom_type_description
_atom_type_scat_dispersion_real
_atom_type_scat_dispersion_imag
_atom_type_scat_source
C C 0.0033 0.0016 'International Tables Vol C Tables 4.2.6.8 and 6.1.1.4'
H H 0.0000 0.0000 'International Tables Vol C Tables 4.2.6.8 and 6.1.1.4'
N N 0.0061 0.0033 'International Tables Vol C Tables 4.2.6.8 and 6.1.1.4'
Cl Cl 0.1484 0.1585 'International Tables Vol C Tables 4.2.6.8 and 6.1.1.4'
Au Au -2.0133 8.8022 'International Tables Vol C Tables 4.2.6.8 and 6.1.1.4'
loop_
_geom_angle_atom_site_label_1
_geom_angle_atom_site_label_2
_geom_angle_atom_site_label_3
_geom_angle
_geom_angle_site_symmetry_1
_geom_angle_site_symmetry_3
Cl2 Au1 Cl3 180.000(1) . .
Cl2 Au1 Cl1 89.08(4) . 2_755
Cl3 Au1 Cl1 90.92(4) . 2_755
Cl2 Au1 Cl1 89.08(4) . .
Cl3 Au1 Cl1 90.92(4) . .
Cl1 Au1 Cl1 178.16(8) 2_755 .
C1 N1 C1 120.2(6) . 8_665
N1 C1 C1 119.9(3) . 2_655
loop_
_geom_bond_atom_site_label_1
_geom_bond_atom_site_label_2
_geom_bond_distance
_geom_bond_site_symmetry_2
Au1 Cl2 2.288(4) .
Au1 Cl3 2.280(4) .
Au1 Cl1 2.2854(16) 2_755
Au1 Cl1 2.2854(16) .
N1 C1 1.329(5) .
N1 C1 1.329(5) 8_665
C1 C1 1.394(11) 2_655
loop_
_refln_index_h
_refln_index_k
_refln_index_l
_refln_F_squared_calc
_refln_F_squared_meas
_refln_F_squared_sigma
_refln_observed_status
1 1 0 103369.70 116246.91 757.42 o
0 2 0 123938.53 141486.67 2939.62 o
2 2 0 206542.56 236150.02 3739.24 o
1 3 0 106464.49 113720.76 1161.40 o
3 3 0 98905.13 101692.37 1448.37 o
0 4 0 93397.52 98388.26 1193.69 o
2 4 0 67039.22 67996.21 857.56 o
4 4 0 71931.52 71331.51 1494.25 o
1 5 0 91882.21 95968.48 1319.60 o
3 5 0 38276.81 37246.98 650.59 o
5 5 0 52394.07 51846.21 672.61 o
0 6 0 46512.57 47481.03 676.59 o
2 6 0 41711.71 41594.29 663.94 o
4 6 0 41475.18 40732.04 431.21 o
6 6 0 26076.45 27255.58 1010.18 o
1 7 0 39918.99 40309.61 594.91 o
3 7 0 49368.37 48955.52 703.59 o
5 7 0 17264.09 16616.75 582.56 o
7 7 0 18952.31 20679.63 967.39 o
0 8 0 21979.24 22571.66 1558.17 o
2 8 0 30819.53 32946.91 678.24 o
4 8 0 17002.42 16412.97 635.70 o
6 8 0 19514.42 20034.81 930.24 o
1 9 0 25830.15 27853.48 1182.21 o
3 9 0 18149.23 16591.97 2974.68 o
5 9 0 18309.46 19121.26 903.06 o
0 10 0 20234.62 22071.39 874.39 o
2 10 0 10269.49 9167.24 2377.27 o
1 1 1 887.10 930.20 32.15 o
1 2 1 2896.00 2908.87 49.48 o
2 2 1 5241.75 5243.14 89.11 o
1 3 1 1753.90 1768.22 32.03 o
2 3 1 927.25 944.93 20.45 o
3 3 1 1869.24 2015.90 58.13 o
1 4 1 3838.81 3823.40 47.50 o
2 4 1 524.79 551.01 17.46 o
3 4 1 1444.78 1444.90 33.68 o
4 4 1 847.06 855.56 32.72 o
1 5 1 0.47 6.24 2.50 o
2 5 1 66.76 75.20 6.99 o
3 5 1 109.44 121.11 9.52 o
4 5 1 109.11 94.19 13.61 o
5 5 1 376.76 388.13 25.18 o
1 6 1 2212.09 2259.18 42.85 o
2 6 1 5.28 7.35 5.63 o
3 6 1 848.03 867.72 38.98 o
4 6 1 62.44 54.77 12.95 o
5 6 1 36.15 25.94 10.54 o
6 6 1 420.87 456.82 62.67 o
1 7 1 42.30 38.38 6.52 o
2 7 1 21.14 21.60 9.41 o
3 7 1 0.46 -3.09 16.75 o
4 7 1 76.02 67.63 22.32 o
5 7 1 64.05 29.65 16.12 o
6 7 1 105.00 140.25 34.57 o
7 7 1 13.60 78.92 59.40 o
1 8 1 659.24 753.77 51.08 o
2 8 1 6.67 0.31 11.61 o
3 8 1 212.69 151.36 55.27 o
4 8 1 14.62 12.01 36.17 o
5 8 1 0.00 -3.93 34.74 o
6 8 1 1.10 49.12 35.06 o
1 9 1 13.59 56.68 19.27 o
2 9 1 93.26 58.64 26.50 o
3 9 1 3.57 51.87 23.11 o
4 9 1 230.66 267.50 69.14 o
5 9 1 43.39 44.53 32.75 o
1 10 1 53.33 -4.93 18.49 o
2 10 1 13.21 11.18 24.18 o
3 10 1 5.52 4.93 22.60 o
0 0 2 79845.63 44760.34 1464.42 o
0 1 2 2652.19 2653.94 103.88 o
1 1 2 107447.68 128289.55 2244.88 o
0 2 2 16962.92 16791.07 390.43 o
1 2 2 1388.11 1301.74 28.33 o
2 2 2 76941.55 80481.61 981.01 o
0 3 2 668.21 664.69 24.23 o
1 3 2 40462.67 42080.06 629.07 o
2 3 2 2195.88 2128.67 35.22 o
3 3 2 62232.25 61377.17 1290.38 o
0 4 2 69501.37 70548.20 608.46 o
1 4 2 1414.90 1443.18 27.27 o
2 4 2 30423.57 30061.62 561.26 o
3 4 2 774.34 735.06 24.20 o
4 4 2 25660.22 23373.48 755.46 o
0 5 2 1890.06 1888.39 52.85 o
1 5 2 32333.31 32735.05 434.61 o
2 5 2 453.27 462.49 20.07 o
3 5 2 18859.54 18914.33 394.65 o
4 5 2 977.84 988.63 37.15 o
5 5 2 35984.40 37449.73 449.07 o
0 6 2 32446.54 34121.75 315.83 o
1 6 2 799.53 817.01 29.75 o
2 6 2 25199.29 25519.18 328.03 o
3 6 2 704.21 712.63 34.08 o
4 6 2 21470.33 21948.98 460.33 o
5 6 2 544.03 513.92 31.84 o
6 6 2 11962.75 12727.42 502.43 o
0 7 2 317.68 324.03 35.60 o
1 7 2 16404.14 16403.83 206.75 o
2 7 2 918.78 924.28 43.86 o
3 7 2 22808.35 24035.18 432.45 o
4 7 2 381.02 374.96 37.35 o
5 7 2 7612.28 7481.74 212.21 o
6 7 2 322.12 349.15 54.88 o
7 7 2 15618.98 17009.24 961.39 o
0 8 2 11415.93 11835.08 301.74 o
1 8 2 453.08 469.85 41.32 o
2 8 2 21380.18 22910.69 332.00 o
3 8 2 529.74 488.47 45.86 o
4 8 2 11915.21 11826.73 328.26 o
5 8 2 248.23 242.44 44.20 o
6 8 2 9233.87 8907.02 466.68 o
0 9 2 520.22 534.73 65.28 o
1 9 2 12884.34 13853.61 246.48 o
2 9 2 275.03 246.68 41.36 o
3 9 2 6991.22 7151.47 250.81 o
4 9 2 320.06 310.63 55.91 o
5 9 2 10877.39 10653.17 652.25 o
0 10 2 14274.63 16837.68 846.24 o
1 10 2 319.73 368.79 84.53 o
2 10 2 6506.84 6333.25 541.37 o
3 10 2 180.78 179.18 37.11 o
1 1 3 2879.13 3222.93 58.02 o
1 2 3 2270.30 2302.26 34.09 o
2 2 3 772.01 818.34 26.18 o
1 3 3 0.10 10.71 2.57 o
2 3 3 746.00 774.26 21.23 o
3 3 3 641.86 693.62 33.49 o
1 4 3 3255.55 3272.75 57.30 o
2 4 3 158.58 169.63 10.06 o
3 4 3 1220.77 1233.02 29.86 o
4 4 3 68.93 65.70 13.50 o
1 5 3 11.33 17.10 3.10 o
2 5 3 66.62 68.10 6.52 o
3 5 3 21.67 19.55 5.91 o
4 5 3 87.61 84.71 11.42 o
5 5 3 43.46 57.16 15.90 o
1 6 3 1906.62 1925.74 49.25 o
2 6 3 358.07 364.89 21.63 o
3 6 3 758.16 769.05 37.18 o
4 6 3 130.20 103.62 13.38 o
5 6 3 30.86 43.67 9.63 o
6 6 3 0.94 43.17 26.25 o
1 7 3 2.11 3.90 7.71 o
2 7 3 21.06 20.44 7.47 o
3 7 3 62.79 50.90 10.89 o
4 7 3 58.17 25.05 16.18 o
5 7 3 78.91 86.00 23.74 o
6 7 3 99.27 143.19 35.36 o
7 7 3 11.37 111.44 81.28 o
1 8 3 578.45 612.04 46.88 o
2 8 3 9.45 21.15 16.65 o
3 8 3 182.67 181.66 20.40 o
4 8 3 34.93 21.50 14.38 o
5 8 3 0.08 29.84 9.14 o
6 8 3 25.90 80.01 51.71 o
1 9 3 9.57 9.70 7.43 o
2 9 3 78.77 43.41 26.68 o
3 9 3 63.86 43.99 15.50 o
4 9 3 215.12 287.92 54.71 o
5 9 3 22.19 -12.61 78.92 o
1 10 3 46.13 58.16 42.13 o
2 10 3 15.85 12.00 15.88 o
3 10 3 5.48 -71.92 92.00 o
0 0 4 84679.63 63611.12 1081.20 o
0 1 4 5125.19 5564.99 97.93 o
1 1 4 30837.75 32655.06 723.66 o
0 2 4 6375.29 6286.15 76.05 o
1 2 4 2431.96 2473.93 37.68 o
2 2 4 43248.29 43506.80 857.26 o
0 3 4 1134.39 1134.92 35.96 o
1 3 4 25679.20 25778.48 400.74 o
2 3 4 5184.81 5087.96 99.76 o
3 3 4 27974.57 28369.57 623.55 o
0 4 4 24226.20 23999.40 528.66 o
1 4 4 3017.14 2925.19 61.32 o
2 4 4 14910.79 14336.22 210.49 o
3 4 4 1568.44 1592.81 36.30 o
4 4 4 21736.79 22407.68 389.80 o
0 5 4 4851.09 4678.25 110.49 o
1 5 4 23338.85 23798.20 410.28 o
2 5 4 881.05 852.07 26.48 o
3 5 4 7309.12 7236.85 140.57 o
4 5 4 2442.57 2532.81 75.61 o
5 5 4 18967.29 19655.82 721.81 o
0 6 4 17062.98 16500.05 527.90 o
1 6 4 1804.12 1769.15 45.58 o
2 6 4 13774.52 13831.05 287.41 o
3 6 4 1588.01 1619.36 49.90 o
4 6 4 13052.23 13212.44 257.91 o
5 6 4 1281.94 1369.65 73.29 o
6 6 4 6988.50 7286.86 284.47 o
0 7 4 622.82 633.26 49.43 o
1 7 4 8077.72 7736.65 215.15 o
2 7 4 2390.84 2416.30 77.68 o
3 7 4 16259.90 16968.04 388.77 o
4 7 4 897.67 936.45 55.78 o
5 7 4 5238.49 5219.30 139.22 o
6 7 4 787.74 835.81 71.58 o
7 7 4 8971.49 10487.69 860.68 o
0 8 4 8775.20 8773.75 575.72 o
1 8 4 1062.92 1049.02 61.78 o
2 8 4 12973.91 14786.41 361.21 o
3 8 4 1315.08 1370.24 83.53 o
4 8 4 4794.17 4984.12 184.96 o
5 8 4 555.27 494.68 71.81 o
6 8 4 6002.96 5837.33 376.61 o
0 9 4 1343.44 1385.30 148.90 o
1 9 4 6986.09 7561.79 235.84 o
2 9 4 634.78 652.91 70.59 o
3 9 4 5375.24 5456.71 516.72 o
4 9 4 809.39 804.76 94.78 o
5 9 4 8085.94 6639.43 866.33 o
0 10 4 9535.34 11374.77 773.30 o
1 10 4 825.80 969.09 110.18 o
2 10 4 3696.37 3953.51 241.69 o
3 10 4 437.46 404.53 100.93 o
1 1 5 905.08 880.43 39.26 o
1 2 5 1470.52 1557.93 34.02 o
2 2 5 409.79 435.15 26.09 o
1 3 5 606.24 596.38 19.77 o
2 3 5 519.81 524.82 18.93 o
3 3 5 435.99 398.03 22.59 o
1 4 5 2261.31 2190.65 51.72 o
2 4 5 796.30 806.30 24.80 o
3 4 5 935.10 889.73 23.28 o
4 4 5 0.51 -0.37 11.46 o
1 5 5 330.66 324.03 14.36 o
2 5 5 44.85 31.72 5.59 o
3 5 5 363.50 346.93 18.82 o
4 5 5 64.76 63.13 9.03 o
5 5 5 10.67 -1.86 12.85 o
1 6 5 1464.62 1464.29 41.54 o
2 6 5 92.15 82.82 10.60 o
3 6 5 529.26 551.66 26.81 o
4 6 5 711.14 718.55 31.26 o
5 6 5 32.52 39.32 15.13 o
6 6 5 313.52 374.51 52.47 o
1 7 5 206.93 176.38 16.46 o
2 7 5 15.34 15.82 7.22 o
3 7 5 13.44 3.41 12.33 o
4 7 5 47.21 47.07 12.11 o
5 7 5 0.54 -0.86 8.66 o
6 7 5 80.07 122.99 31.06 o
7 7 5 37.32 98.88 49.80 o
1 8 5 433.32 511.51 52.67 o
2 8 5 80.22 103.28 21.74 o
3 8 5 159.99 167.29 32.31 o
4 8 5 99.82 123.17 32.24 o
5 8 5 0.81 40.29 17.13 o
6 8 5 57.17 -3.32 44.33 o
1 9 5 196.91 225.52 39.42 o
2 9 5 60.70 34.36 18.97 o
3 9 5 0.05 32.64 70.05 o
4 9 5 162.14 160.71 111.56 o
5 9 5 21.13 -52.07 52.07 o
1 10 5 38.80 76.62 43.88 o
2 10 5 155.11 168.44 62.08 o
0 0 6 136266.25 139561.64 1953.79 o
0 1 6 28332.70 28076.54 926.28 o
1 1 6 62189.22 63084.96 1992.39 o
0 2 6 54086.64 56935.99 1098.96 o
1 2 6 17725.71 17509.59 303.19 o
2 2 6 91266.06 97926.13 1216.76 o
0 3 6 10925.70 10728.48 146.45 o
1 3 6 39492.05 39511.74 516.44 o
2 3 6 22466.71 22260.82 343.75 o
3 3 6 57724.46 58113.48 1434.87 o
0 4 6 66436.12 68600.73 1283.59 o
1 4 6 15664.96 15009.09 183.57 o
2 4 6 35357.29 35632.45 531.02 o
3 4 6 9574.75 9262.25 177.84 o
4 4 6 27737.16 26604.90 1210.56 o
0 5 6 18783.83 18476.56 519.64 o
1 5 6 40386.35 40058.79 624.08 o
2 5 6 6461.83 6106.88 107.49 o
3 5 6 25234.71 24374.50 332.98 o
4 5 6 10412.84 9899.87 229.11 o
5 5 6 33559.63 34552.88 1339.66 o
0 6 6 25903.70 25016.11 916.12 o
1 6 6 9068.33 8332.71 179.78 o
2 6 6 22353.54 23121.77 289.57 o
3 6 6 7832.75 7646.79 115.95 o
4 6 6 22230.45 23381.85 383.76 o
5 6 6 5942.32 5994.64 147.35 o
6 6 6 15522.76 15425.75 595.36 o
0 7 6 4259.00 3793.56 130.55 o
1 7 6 25630.08 24274.36 852.68 o
2 7 6 9382.88 9672.06 231.69 o
3 7 6 25672.18 27439.03 609.81 o
4 7 6 4467.28 4595.55 145.93 o
5 7 6 8228.04 8309.21 193.00 o
6 7 6 3537.74 3497.06 142.27 o
7 7 6 11593.15 11329.66 549.96 o
0 8 6 8627.36 9426.14 428.11 o
1 8 6 5069.37 5150.58 180.67 o
2 8 6 16918.71 19764.44 473.82 o
3 8 6 5511.98 5928.97 205.95 o
4 8 6 13077.76 13240.95 289.61 o
5 8 6 2811.76 2777.01 186.80 o
6 8 6 11890.92 11238.46 1082.79 o
0 9 6 5271.68 5536.70 340.27 o
1 9 6 17378.70 19871.53 444.85 o
2 9 6 3120.19 3348.14 222.62 o
3 9 6 9040.28 9762.16 451.98 o
4 9 6 3333.16 3144.64 294.97 o
0 10 6 11022.10 12920.66 901.29 o
1 10 6 3264.72 3712.11 293.87 o
2 10 6 6152.97 6230.16 399.10 o
1 1 7 3289.31 3240.63 92.56 o
1 2 7 790.60 820.44 30.17 o
2 2 7 5.12 19.76 9.07 o
1 3 7 692.61 712.48 24.99 o
2 3 7 305.74 315.84 18.50 o
3 3 7 7.82 8.71 6.59 o
1 4 7 1402.77 1395.72 36.79 o
2 4 7 4.40 13.49 6.25 o
3 4 7 554.59 561.82 24.96 o
4 4 7 2013.98 2231.82 126.47 o
1 5 7 108.69 110.07 10.18 o
2 5 7 31.23 21.66 5.27 o
3 5 7 736.22 761.94 36.84 o
4 5 7 43.75 28.41 11.00 o
5 5 7 175.32 194.17 44.37 o
1 6 7 921.07 997.86 38.72 o
2 6 7 1351.96 1355.02 48.69 o
3 6 7 381.85 363.17 20.35 o
4 6 7 48.18 32.52 16.96 o
5 6 7 13.82 15.53 8.35 o
6 6 7 211.94 289.95 53.73 o
1 7 7 1.09 31.11 12.29 o
2 7 7 10.06 36.57 16.66 o
3 7 7 349.97 425.76 50.13 o
4 7 7 29.35 40.79 16.78 o
5 7 7 32.25 52.93 14.34 o
6 7 7 49.41 36.20 12.94 o
7 7 7 6.14 -21.67 23.09 o
1 8 7 291.13 320.70 50.51 o
2 8 7 45.21 109.75 31.81 o
3 8 7 89.97 112.60 28.06 o
4 8 7 125.55 131.19 23.89 o
5 8 7 0.22 26.75 48.79 o
6 8 7 160.08 171.53 68.80 o
1 9 7 54.24 73.26 29.28 o
2 9 7 41.00 27.53 31.22 o
3 9 7 271.86 276.95 60.57 o
4 9 7 107.78 169.40 74.69 o
1 10 7 23.03 -2.36 22.38 o
0 0 8 67676.34 80635.87 1446.94 o
0 1 8 33865.26 32919.45 1559.59 o
1 1 8 48141.27 47401.40 1494.14 o
0 2 8 18753.48 18180.11 618.56 o
1 2 8 22014.54 22047.47 325.50 o
2 2 8 42039.94 41511.70 895.13 o
0 3 8 14296.29 13418.50 261.12 o
1 3 8 37759.51 39014.70 604.20 o
2 3 8 28916.90 28342.70 573.54 o
3 3 8 31769.78 33331.27 722.20 o
0 4 8 27844.82 26655.49 485.10 o
1 4 8 20279.54 19152.00 369.82 o
2 4 8 22138.43 21736.67 518.94 o
3 4 8 12738.79 13061.66 205.21 o
4 4 8 25907.19 26453.51 973.48 o
0 5 8 25074.24 24470.98 619.90 o
1 5 8 25941.85 25957.83 459.98 o
2 5 8 8864.17 8229.39 198.90 o
3 5 8 11804.19 11785.43 270.94 o
4 5 8 14339.09 14597.01 289.18 o
5 5 8 18902.83 19664.11 1166.86 o
0 6 8 22448.20 21616.89 862.18 o
1 6 8 12328.62 11945.83 242.89 o
2 6 8 18888.47 17907.39 420.29 o
3 6 8 10662.53 10829.59 304.72 o
4 6 8 15381.86 15343.96 395.63 o
5 6 8 8249.44 8191.43 303.96 o
6 6 8 7991.15 8124.22 312.48 o
0 7 8 5921.56 5722.43 386.14 o
1 7 8 9374.06 9338.63 252.45 o
2 7 8 13034.51 13547.66 388.10 o
3 7 8 15821.16 17355.27 350.66 o
4 7 8 6373.51 6241.39 191.81 o
5 7 8 8119.24 7879.38 291.14 o
6 7 8 5081.96 4475.72 227.48 o
0 8 8 13457.75 13278.48 757.66 o
1 8 8 7134.68 7165.86 215.81 o
2 8 8 14905.44 15814.93 472.60 o
3 8 8 7747.23 8154.49 220.95 o
4 8 8 6186.42 6635.81 198.01 o
5 8 8 3983.75 3808.24 513.13 o
0 9 8 7446.74 7667.40 540.74 o
1 9 8 6788.05 7197.75 269.74 o
2 9 8 4435.75 4611.88 213.03 o
3 9 8 6441.50 6622.09 646.16 o
1 1 9 1378.30 1212.87 69.11 o
1 2 9 368.91 377.18 23.87 o
2 2 9 611.11 592.72 39.57 o
1 3 9 1045.29 1015.25 36.33 o
2 3 9 163.77 166.67 13.40 o
3 3 9 354.24 324.59 31.20 o
1 4 9 700.70 716.69 28.45 o
2 4 9 606.83 574.60 30.06 o
3 4 9 290.18 306.07 21.50 o
4 4 9 198.83 144.80 37.90 o
1 5 9 265.11 257.90 16.23 o
2 5 9 11.11 4.96 8.27 o
3 5 9 198.01 177.84 22.14 o
4 5 9 31.20 46.31 27.07 o
5 5 9 1.12 3.39 24.37 o
1 6 9 492.16 505.60 26.09 o
2 6 9 0.59 0.10 6.78 o
3 6 9 207.46 194.87 29.17 o
4 6 9 786.82 815.64 56.31 o
5 6 9 6.03 5.25 16.37 o
6 6 9 690.15 766.62 90.95 o
1 7 9 256.10 262.39 28.22 o
2 7 9 4.54 24.14 17.30 o
3 7 9 0.35 26.61 17.11 o
4 7 9 23.29 17.82 13.81 o
5 7 9 6.58 5.96 18.35 o
6 7 9 18.89 42.99 103.78 o
1 8 9 167.76 155.22 27.49 o
2 8 9 102.52 117.59 17.08 o
3 8 9 42.92 77.83 18.23 o
4 8 9 262.62 257.18 47.17 o
5 8 9 0.24 5.89 110.96 o
1 9 9 289.93 235.33 50.18 o
2 9 9 22.75 25.32 20.78 o
3 9 9 15.13 16.49 15.08 o
0 0 10 11490.53 15031.74 604.46 o
0 1 10 13698.17 14645.00 714.06 o
1 1 10 9877.24 9562.65 433.13 o
0 2 10 4275.12 4285.88 168.76 o
1 2 10 7923.64 7800.99 269.68 o
2 2 10 11318.60 10750.29 490.64 o
0 3 10 4222.14 4129.46 121.50 o
1 3 10 4999.92 4339.45 138.06 o
2 3 10 14185.86 13547.35 310.58 o
3 3 10 9470.92 9350.09 522.21 o
0 4 10 10762.50 10115.22 211.87 o
1 4 10 9091.06 8699.12 191.42 o
2 4 10 4698.82 4378.09 96.15 o
3 4 10 5121.23 5158.50 114.24 o
4 4 10 3738.32 3712.66 274.68 o
0 5 10 13988.78 12722.98 309.00 o
1 5 10 5530.22 5075.16 142.72 o
2 5 10 3015.82 2878.58 82.53 o
3 5 10 3738.55 3654.27 113.25 o
4 5 10 7614.96 8011.13 285.08 o
5 5 10 6550.29 7163.79 354.06 o
0 6 10 4636.05 4293.67 195.29 o
1 6 10 5775.99 5665.51 155.89 o
2 6 10 3830.40 3732.26 125.82 o
3 6 10 5289.34 5196.88 165.95 o
4 6 10 3922.28 4138.60 188.08 o
5 6 10 4398.06 4590.41 159.27 o
6 6 10 2795.12 2772.38 180.49 o
0 7 10 2298.33 2144.05 141.01 o
1 7 10 3962.68 3762.92 161.72 o
2 7 10 7641.36 7831.15 200.49 o
3 7 10 4327.41 4389.59 160.01 o
4 7 10 3109.25 3036.87 128.92 o
5 7 10 1299.90 1192.86 100.69 o
6 7 10 2801.28 2718.34 746.85 o
0 8 10 1510.81 1462.55 122.18 o
1 8 10 3674.55 3650.48 156.43 o
2 8 10 3627.04 3637.63 156.17 o
3 8 10 4487.79 4918.13 207.76 o
4 8 10 2832.61 2516.08 238.44 o
0 9 10 4556.62 5267.18 501.59 o
1 9 10 3187.15 3570.03 291.98 o
2 9 10 2351.72 2424.40 185.73 o
1 1 11 2868.61 2985.41 181.67 o
1 2 11 139.20 117.94 14.33 o
2 2 11 36.30 16.51 12.60 o
1 3 11 341.45 339.13 23.52 o
2 3 11 55.90 42.22 13.48 o
3 3 11 750.10 756.65 59.14 o
1 4 11 282.20 277.91 22.80 o
2 4 11 454.89 421.83 28.23 o
3 4 11 125.78 100.80 13.52 o
4 4 11 370.89 315.26 36.40 o
1 5 11 9.30 9.01 9.27 o
2 5 11 7.78 -0.32 9.99 o
3 5 11 3.71 6.23 9.71 o
4 5 11 7.45 0.17 14.83 o
5 5 11 22.33 -8.47 32.58 o
1 6 11 214.85 194.30 24.40 o
2 6 11 439.59 411.15 39.29 o
3 6 11 73.29 70.36 17.04 o
4 6 11 679.54 708.94 66.95 o
5 6 11 5.95 33.64 15.25 o
6 6 11 96.49 98.96 45.24 o
1 7 11 32.10 21.72 11.09 o
2 7 11 1.61 -0.02 12.61 o
3 7 11 88.48 79.84 22.20 o
4 7 11 6.19 10.33 19.59 o
5 7 11 125.35 102.64 85.70 o
1 8 11 58.32 41.83 27.03 o
2 8 11 98.88 114.04 32.95 o
3 8 11 31.20 1.20 30.61 o
4 8 11 137.95 64.95 25.29 o
1 9 11 118.26 212.74 71.90 o
0 0 12 19545.15 27024.15 1041.04 o
0 1 12 25414.61 30244.56 1128.84 o
1 1 12 4633.52 5052.57 296.92 o
0 2 12 6988.43 7079.60 378.60 o
1 2 12 17064.99 17028.22 973.00 o
2 2 12 10542.75 9470.70 933.71 o
0 3 12 11067.47 10175.16 508.98 o
1 3 12 6142.89 5885.79 338.78 o
2 3 12 24074.79 20182.64 323.27 o
3 3 12 5768.42 5442.79 432.77 o
0 4 12 5429.73 4955.73 196.05 o
1 4 12 17234.17 15544.44 204.17 o
2 4 12 4811.17 4374.88 134.91 o
3 4 12 10949.23 9491.54 200.06 o
4 4 12 5871.41 6448.69 827.84 o
0 5 12 22160.76 19156.11 373.21 o
1 5 12 6789.34 5932.88 144.39 o
2 5 12 7463.64 6404.53 169.39 o
3 5 12 3066.38 2951.70 117.03 o
4 5 12 13234.85 13614.82 667.16 o
5 5 12 3985.84 4256.16 397.04 o
0 6 12 3385.68 3096.63 156.49 o
1 6 12 11256.28 9873.97 250.45 o
2 6 12 3212.32 2993.79 121.12 o
3 6 12 9921.94 9065.34 302.51 o
4 6 12 3418.63 3578.15 160.84 o
5 6 12 7931.42 8403.08 445.88 o
6 6 12 2475.21 3493.15 558.84 o
0 7 12 5327.94 4788.17 214.58 o
1 7 12 3610.26 3400.74 129.32 o
2 7 12 12395.53 11366.15 329.54 o
3 7 12 4537.86 4270.53 191.68 o
4 7 12 6077.35 5879.64 310.57 o
5 7 12 1929.09 1830.91 301.86 o
0 8 12 2104.89 1996.89 187.10 o
1 8 12 6879.36 6345.06 245.37 o
2 8 12 2446.58 2213.95 161.59 o
3 8 12 7663.47 6860.70 349.25 o
1 1 13 944.64 1084.82 77.66 o
1 2 13 34.96 36.99 13.22 o
2 2 13 956.75 843.17 104.28 o
1 3 13 1371.51 1354.57 71.72 o
2 3 13 14.24 43.16 15.18 o
3 3 13 24.82 21.15 21.34 o
1 4 13 68.42 63.56 11.79 o
2 4 13 11.65 8.09 10.80 o
3 4 13 34.76 30.71 12.66 o
4 4 13 1401.23 1490.83 249.77 o
1 5 13 13.71 -1.53 16.68 o
2 5 13 2.57 1.33 13.40 o
3 5 13 102.04 81.15 28.79 o
4 5 13 1.26 56.57 24.96 o
5 5 13 273.38 399.36 80.92 o
1 6 13 51.99 50.18 12.53 o
2 6 13 182.98 108.51 18.01 o
3 6 13 21.03 40.29 25.53 o
4 6 13 166.38 199.01 32.25 o
5 6 13 2.03 48.52 37.36 o
6 6 13 856.90 1293.27 349.77 o
1 7 13 103.32 77.99 15.67 o
2 7 13 2.66 18.18 15.02 o
3 7 13 71.47 89.83 31.97 o
4 7 13 0.28 -30.33 58.04 o
1 8 13 20.00 36.20 21.74 o
2 8 13 86.37 67.52 31.91 o
3 8 13 4.17 -33.93 59.84 o
0 0 14 2307.02 4074.65 499.58 o
0 1 14 40469.24 52601.37 1345.72 o
1 1 14 9228.04 11573.21 494.96 o
0 2 14 2650.43 2973.78 160.23 o
1 2 14 30029.36 30753.91 1353.12 o
2 2 14 4046.23 3754.23 320.83 o
0 3 14 22122.48 20241.91 1426.26 o
1 3 14 4467.70 4455.96 257.71 o
2 3 14 36634.08 32858.49 2601.00 o
3 3 14 5042.35 4866.25 780.20 o
0 4 14 5707.41 5188.92 314.73 o
1 4 14 27953.45 23534.69 1632.67 o
2 4 14 3590.33 2966.21 240.67 o
3 4 14 19622.25 17144.72 1684.11 o
4 4 14 2320.73 2524.75 504.56 o
0 5 14 32937.30 29249.62 2315.84 o
1 5 14 2380.26 2192.15 108.17 o
2 5 14 14976.85 12615.68 653.62 o
3 5 14 2703.84 2701.43 321.71 o
4 5 14 20522.76 21550.87 2066.12 o
5 5 14 3091.55 3805.71 1378.50 o
0 6 14 4111.74 3538.46 217.60 o
1 6 14 18380.70 15862.96 671.95 o
2 6 14 3303.44 2867.71 178.59 o
3 6 14 16291.62 15322.97 700.28 o
4 6 14 2202.55 2559.96 256.83 o
5 6 14 12780.04 17024.46 1247.61 o
0 7 14 10576.08 8419.29 363.64 o
1 7 14 1507.82 1304.25 127.52 o
2 7 14 18575.90 15085.22 1287.41 o
3 7 14 1607.32 1591.16 227.94 o
1 1 15 1801.31 2419.03 121.57 o
1 2 15 1.28 26.52 8.72 o
2 2 15 79.51 57.72 34.93 o
1 3 15 129.25 90.68 25.28 o
2 3 15 0.99 22.80 13.35 o
3 3 15 877.73 757.12 180.25 o
1 4 15 4.22 -13.16 13.16 o
2 4 15 548.06 494.78 57.00 o
3 4 15 0.56 -14.28 18.52 o
4 4 15 85.46 211.61 84.07 o
1 5 15 31.13 46.99 21.33 o
2 5 15 0.00 -2.80 16.92 o
3 5 15 19.34 37.79 28.81 o
4 5 15 0.81 59.41 21.72 o
1 6 15 2.46 8.04 23.83 o
2 6 15 209.42 123.49 38.19 o
3 6 15 1.74 8.75 46.99 o
4 6 15 569.13 299.53 142.81 o
1 7 15 26.64 -49.95 73.27 o
2 7 15 0.38 -5.51 21.67 o
3 7 15 49.18 -21.44 65.26 o
0 0 16 1745.58 2617.70 261.87 o
0 1 16 15067.54 20854.52 538.01 o
1 1 16 131.22 262.48 46.33 o
0 2 16 871.80 1106.33 84.81 o
1 2 16 10455.93 12451.68 402.48 o
2 2 16 617.16 697.14 82.96 o
0 3 16 7108.12 7557.60 608.87 o
1 3 16 595.68 528.01 47.86 o
2 3 16 14922.96 16011.34 1135.50 o
3 3 16 265.76 187.84 38.56 o
0 4 16 130.91 136.18 31.91 o
1 4 16 10894.67 10786.83 734.85 o
2 4 16 372.68 347.07 55.91 o
3 4 16 7267.93 7433.16 867.47 o
4 4 16 631.80 685.30 156.99 o
0 5 16 14230.82 14197.01 751.70 o
1 5 16 704.98 559.13 55.74 o
2 5 16 5201.37 4724.23 487.82 o
3 5 16 268.91 291.78 54.12 o
4 5 16 8935.39 7086.46 678.14 o
0 6 16 148.27 119.53 75.98 o
1 6 16 7582.16 6467.00 445.89 o
2 6 16 209.00 166.06 50.98 o
3 6 16 6815.15 4879.08 532.19 o
1 7 16 344.49 214.19 92.13 o
1 1 17 550.12 849.55 80.34 o
1 2 17 3.85 12.45 13.56 o
2 2 17 277.58 287.13 47.37 o
1 3 17 511.98 540.89 46.18 o
2 3 17 1.35 -1.93 10.32 o
3 3 17 29.43 11.71 40.86 o
1 4 17 9.38 22.26 12.19 o
2 4 17 92.97 67.78 20.76 o
3 4 17 3.48 -8.63 19.54 o
4 4 17 293.29 46.65 34.40 o
1 5 17 43.78 31.28 16.87 o
2 5 17 0.56 -7.24 24.24 o
3 5 17 3.33 7.37 38.52 o
1 6 17 6.57 13.66 41.46 o
2 6 17 17.13 -37.93 66.20 o
0 0 18 25.11 75.27 41.97 o
0 1 18 8600.46 12253.36 378.87 o
1 1 18 3.23 42.82 20.06 o
0 2 18 168.36 181.94 40.06 o
1 2 18 6010.87 7800.80 208.84 o
2 2 18 5.48 54.78 21.59 o
0 3 18 4016.59 4686.13 428.00 o
1 3 18 3.52 33.62 19.46 o
2 3 18 8790.10 10179.98 549.93 o
3 3 18 4.89 58.94 45.57 o
0 4 18 68.20 73.50 49.08 o
1 4 18 6512.80 5844.48 415.60 o
2 4 18 32.02 51.69 19.19 o
3 4 18 4399.99 4253.39 306.76 o
4 4 18 15.66 38.64 61.02 o
0 5 18 8639.71 7680.36 1775.88 o
1 5 18 1.07 6.65 70.44 o
2 5 18 3108.99 2513.41 223.98 o
3 5 18 94.49 66.91 84.35 o
1 1 19 558.08 1023.39 102.89 o
1 2 19 15.65 26.31 12.06 o
2 2 19 15.44 50.70 34.88 o
1 3 19 190.32 254.27 34.54 o
2 3 19 9.33 -13.66 43.80 o
3 3 19 16.18 -0.06 34.75 o
1 4 19 33.25 29.55 24.89 o
2 4 19 7.73 -8.86 29.40 o
3 4 19 14.15 -82.46 82.93 o
0 0 20 1179.09 1531.85 326.27 o
0 1 20 16891.63 25402.01 678.39 o
1 1 20 134.27 209.42 55.17 o
0 2 20 346.13 389.60 82.31 o
1 2 20 13371.20 17084.88 414.82 o
2 2 20 853.84 1141.03 132.20 o
0 3 20 10719.95 11543.42 606.87 o
1 3 20 79.02 58.37 37.78 o
2 3 20 15464.84 17823.22 2141.94 o
1 1 21 215.46 388.54 143.49 o
