#------------------------------------------------------------------------------
#$Date: 2019-11-24 10:29:40 +0200 (Sun, 24 Nov 2019) $
#$Revision: 237638 $
#$URL: file:///home/coder/svn-repositories/cod/cif/7/23/73/7237391.cif $
#------------------------------------------------------------------------------
#
# This file is available in the Crystallography Open Database (COD),
# http://www.crystallography.net/
#
# All data on this site have been placed in the public domain by the
# contributors.
#
data_7237391
loop_
_publ_author_name
'Paliwoda, Damian'
'Szafra\'nski, Marek'
'Hanfland, Michael'
'Katrusiak, Andrzej'
_publ_section_title
;
 A giant 2-dimensional dielectric response in a compressed hydrogen-bonded
 hybrid organic--inorganic salt
;
_journal_issue                   28
_journal_name_full               'Journal of Materials Chemistry C'
_journal_page_first              7689
_journal_paper_doi               10.1039/C8TC02464B
_journal_volume                  6
_journal_year                    2018
_chemical_formula_moiety         'C4 H5 N2 Au Cl4'
_chemical_formula_sum            'C4 H5 Au Cl4 N2'
_chemical_formula_weight         419.87
_chemical_name_common            'pyrazinium tetrachloroaurate'
_chemical_name_systematic
; 
pyrazinium tetrachloroaurate 
;
_space_group_IT_number           138
_space_group_name_Hall           '-P 4ac 2ac'
_space_group_name_H-M_alt        'P 42/n c m :2'
_symmetry_cell_setting           tetragonal
_symmetry_space_group_name_Hall  '-P 4ac 2ac'
_symmetry_space_group_name_H-M   'P 42/n c m :2'
_atom_sites_solution_hydrogens   geom
_atom_sites_solution_primary     direct
_atom_sites_solution_secondary   difmap
_audit_creation_method           SHELXL-97
_audit_update_record
;
2017-04-07 deposited with the CCDC.
2018-06-28 downloaded from the CCDC.
;
_cell_angle_alpha                90.00
_cell_angle_beta                 90.00
_cell_angle_gamma                90.00
_cell_formula_units_Z            4
_cell_length_a                   7.1172(7)
_cell_length_b                   7.1172(7)
_cell_length_c                   14.30(3)
_cell_measurement_reflns_used    1685
_cell_measurement_temperature    296(2)
_cell_measurement_theta_max      39.20
_cell_measurement_theta_min      4.05
_cell_volume                     724.4(15)
_computing_cell_refinement       'CrysAlisRED (Oxford Diffraction, 2004)'
_computing_data_collection       'CrysAlisCCD (Oxford Diffraction, 2004)'
_computing_data_reduction        'CrysAlisRED (Oxford Diffraction, 2004)'
_computing_molecular_graphics    'SHELXTL (Sheldrick, 1990)'
_computing_publication_material  'SHELXL--97 (Sheldrick, 1997)'
_computing_structure_refinement  'SHELXL--97 (Sheldrick, 1997)'
_computing_structure_solution    'SHELXS--97 (Sheldrick, 1997)'
_diffrn_ambient_environment      'diamond-anvil cell'
_diffrn_ambient_pressure         12675000
_diffrn_ambient_temperature      296(2)
_diffrn_measured_fraction_theta_full 0.252
_diffrn_measured_fraction_theta_max 0.252
_diffrn_measurement_device_type  Serial
_diffrn_measurement_method       \w/2\q
_diffrn_radiation_monochromator  Si(111)
_diffrn_radiation_source         synchrotron
_diffrn_radiation_type           synchrotron
_diffrn_radiation_wavelength     0.41438
_diffrn_reflns_av_R_equivalents  0.0433
_diffrn_reflns_av_sigmaI/netI    0.0891
_diffrn_reflns_limit_h_max       12
_diffrn_reflns_limit_h_min       -11
_diffrn_reflns_limit_k_max       11
_diffrn_reflns_limit_k_min       -12
_diffrn_reflns_limit_l_max       6
_diffrn_reflns_limit_l_min       -6
_diffrn_reflns_number            1685
_diffrn_reflns_theta_full        39.20
_diffrn_reflns_theta_max         39.20
_diffrn_reflns_theta_min         4.05
_diffrn_standards_decay_%        0
_diffrn_standards_interval_count 0
_diffrn_standards_number         0
_exptl_absorpt_coefficient_mu    21.696
_exptl_crystal_colour            orange
_exptl_crystal_density_diffrn    3.849
_exptl_crystal_density_method    'not measured'
_exptl_crystal_description       plate
_exptl_crystal_F_000             760
_exptl_crystal_size_max          0.05
_exptl_crystal_size_mid          0.04
_exptl_crystal_size_min          0.02
_refine_diff_density_max         1.519
_refine_diff_density_min         -0.676
_refine_diff_density_rms         0.288
_refine_ls_extinction_method     none
_refine_ls_goodness_of_fit_ref   1.037
_refine_ls_hydrogen_treatment    constr
_refine_ls_matrix_type           full
_refine_ls_number_parameters     33
_refine_ls_number_reflns         292
_refine_ls_number_restraints     52
_refine_ls_restrained_S_all      0.957
_refine_ls_R_factor_all          0.1457
_refine_ls_R_factor_gt           0.0822
_refine_ls_shift/su_max          0.000
_refine_ls_shift/su_mean         0.000
_refine_ls_structure_factor_coef Fsqd
_refine_ls_weighting_details
'calc w=1/[\s^2^(Fo^2^)+(0.1225P)^2^+13.9344P] where P=(Fo^2^+2Fc^2^)/3'
_refine_ls_weighting_scheme      calc
_refine_ls_wR_factor_gt          0.2267
_refine_ls_wR_factor_ref         0.3053
_reflns_number_gt                120
_reflns_number_total             292
_reflns_threshold_expression     >2sigma(I)
_cod_data_source_file            c8tc02464b2.cif
_cod_data_source_block           pyrazinium_tetrachloroaurate_126_75kbar
_cod_original_cell_volume        724.6(14)
_cod_original_sg_symbol_H-M      'P 42/n c m'
_cod_database_code               7237391
loop_
_symmetry_equiv_pos_as_xyz
'x, y, z'
'-x+1/2, -y+1/2, z'
'-y+1/2, x, z+1/2'
'y, -x+1/2, z+1/2'
'-x, y+1/2, -z+1/2'
'x+1/2, -y, -z+1/2'
'y+1/2, x+1/2, -z'
'-y, -x, -z'
'-x, -y, -z'
'x-1/2, y-1/2, -z'
'y-1/2, -x, -z-1/2'
'-y, x-1/2, -z-1/2'
'x, -y-1/2, z-1/2'
'-x-1/2, y, z-1/2'
'-y-1/2, -x-1/2, z'
'y, x, z'
loop_
_atom_site_label
_atom_site_type_symbol
_atom_site_fract_x
_atom_site_fract_y
_atom_site_fract_z
_atom_site_U_iso_or_equiv
_atom_site_adp_type
_atom_site_occupancy
_atom_site_symmetry_multiplicity
_atom_site_calc_flag
_atom_site_refinement_flags
Au1 Au 0.2500 0.2500 0.2293(8) 0.082(3) Uani 1 4 d SU
Cl3 Cl 0.2500 0.2500 0.385(5) 0.090(4) Uani 1 4 d SU
Cl4 Cl 0.2500 0.2500 0.078(6) 0.100(5) Uani 1 4 d SU
N1 N 0.8804(5) 0.1196(5) 0.0000 0.117(8) Uani 1 2 d SDU
H1A H 0.9659 0.0341 0.0000 0.140 Uiso 0.50 2 calc SPR
C1 C 0.818(3) 0.179(3) 0.0824(7) 0.116(8) Uani 1 1 d DU
H1 H 0.8634 0.1291 0.1380 0.139 Uiso 1 1 calc R
Cl1 Cl 0.4733(11) 0.0267(11) 0.2186(15) 0.102(4) Uani 1 2 d SU
loop_
_atom_site_aniso_label
_atom_site_aniso_U_11
_atom_site_aniso_U_22
_atom_site_aniso_U_33
_atom_site_aniso_U_23
_atom_site_aniso_U_13
_atom_site_aniso_U_12
Au1 0.0782(11) 0.0782(11) 0.090(7) 0.000 0.000 0.0001(8)
Cl3 0.089(4) 0.089(4) 0.091(8) 0.000 0.000 0.003(5)
Cl4 0.102(5) 0.102(5) 0.095(8) 0.000 0.000 -0.004(5)
N1 0.117(8) 0.117(8) 0.117(12) 0.000(6) 0.000(6) 0.008(7)
C1 0.115(9) 0.117(9) 0.116(12) 0.000(7) 0.000(7) 0.007(7)
Cl1 0.102(4) 0.102(4) 0.103(10) -0.006(4) 0.006(4) 0.009(4)
loop_
_atom_type_symbol
_atom_type_description
_atom_type_scat_dispersion_real
_atom_type_scat_dispersion_imag
_atom_type_scat_source
C C 0.0033 0.0016 'International Tables Vol C Tables 4.2.6.8 and 6.1.1.4'
H H 0.0000 0.0000 'International Tables Vol C Tables 4.2.6.8 and 6.1.1.4'
N N 0.0061 0.0033 'International Tables Vol C Tables 4.2.6.8 and 6.1.1.4'
Cl Cl 0.1484 0.1585 'International Tables Vol C Tables 4.2.6.8 and 6.1.1.4'
Au Au -2.0133 8.8022 'International Tables Vol C Tables 4.2.6.8 and 6.1.1.4'
loop_
_geom_angle_atom_site_label_1
_geom_angle_atom_site_label_2
_geom_angle_atom_site_label_3
_geom_angle
_geom_angle_site_symmetry_1
_geom_angle_site_symmetry_3
Cl4 Au1 Cl3 180.000(6) . .
Cl4 Au1 Cl1 86.1(6) . 2
Cl3 Au1 Cl1 93.9(6) . 2
Cl4 Au1 Cl1 86.1(6) . .
Cl3 Au1 Cl1 93.9(6) . .
Cl1 Au1 Cl1 172.2(12) 2 .
C1 N1 C1 124.8(8) 8_665 .
C1 C1 N1 117.6(4) 2_655 .
loop_
_geom_bond_atom_site_label_1
_geom_bond_atom_site_label_2
_geom_bond_distance
_geom_bond_site_symmetry_2
Au1 Cl4 2.16(8) .
Au1 Cl3 2.23(6) .
Au1 Cl1 2.253(11) 2
Au1 Cl1 2.253(11) .
N1 C1 1.329(9) 8_665
N1 C1 1.329(9) .
C1 C1 1.395(9) 2_655
loop_
_refln_index_h
_refln_index_k
_refln_index_l
_refln_F_squared_calc
_refln_F_squared_meas
_refln_F_squared_sigma
_refln_observed_status
1 1 0 92932.12 152384.77 15655.29 o
0 2 0 84658.78 97082.98 7120.25 o
2 2 0 128333.01 130983.85 13470.29 o
1 3 0 64549.33 59160.58 3516.50 o
3 3 0 29982.79 25229.24 2098.38 o
0 4 0 42031.37 39236.09 2856.78 o
2 4 0 17695.35 16236.78 968.21 o
4 4 0 12788.14 14232.15 1158.68 o
1 5 0 18318.65 17397.33 984.11 o
3 5 0 7163.33 7292.38 437.04 o
5 5 0 2704.22 3350.41 352.01 o
0 6 0 5025.89 4651.23 340.14 o
2 6 0 5678.00 6477.69 387.94 o
4 6 0 1859.36 2371.80 155.33 o
6 6 0 529.76 734.00 98.20 o
1 7 0 2466.64 3281.53 200.23 o
3 7 0 1606.87 2389.07 148.09 o
5 7 0 344.82 172.92 82.54 o
7 7 0 85.98 0.00 15.63 o
0 8 0 893.88 1361.22 131.89 o
2 8 0 580.83 702.72 50.91 o
4 8 0 272.28 140.57 127.71 o
6 8 0 74.21 0.00 11.05 o
1 9 0 257.92 133.20 97.11 o
3 9 0 123.84 143.74 46.11 o
5 9 0 50.43 56.60 47.82 o
0 10 0 66.80 0.00 11.05 o
2 10 0 48.85 98.32 25.13 o
4 10 0 23.84 155.31 46.92 o
1 11 0 14.35 0.00 15.63 o
3 11 0 9.05 41.37 35.26 o
4 12 0 1.04 0.00 11.05 o
1 1 1 373.75 97.69 8.72 o
1 2 1 775.68 977.67 42.62 o
2 2 1 2528.41 2691.99 157.07 o
1 3 1 1005.45 1084.99 46.54 o
2 3 1 237.98 227.60 13.04 o
3 3 1 176.69 170.16 15.32 o
1 4 1 569.24 493.46 21.06 o
2 4 1 66.36 59.40 8.44 o
3 4 1 219.79 174.80 13.29 o
4 4 1 62.92 36.13 9.55 o
1 5 1 15.11 11.47 6.54 o
2 5 1 29.75 28.88 11.20 o
3 5 1 10.69 33.78 12.05 o
4 5 1 38.33 44.44 7.63 o
5 5 1 2.68 -17.97 17.97 o
1 6 1 145.49 112.87 10.62 o
2 6 1 0.00 5.99 10.67 o
3 6 1 60.40 54.63 14.43 o
4 6 1 0.87 -10.48 12.78 o
5 6 1 10.24 34.87 19.89 o
6 6 1 1.79 2.58 40.63 o
1 7 1 0.03 2.09 8.66 o
2 7 1 2.59 6.86 12.88 o
3 7 1 0.34 21.57 25.67 o
4 7 1 2.29 9.07 14.45 o
5 7 1 0.00 3.88 12.49 o
6 7 1 0.83 -1.52 6.36 o
7 7 1 0.02 0.00 11.05 o
1 8 1 15.72 25.94 15.46 o
2 8 1 0.02 -13.85 13.85 o
3 8 1 6.41 2.55 10.73 o
4 8 1 0.09 -1.42 7.12 o
5 8 1 1.18 7.45 12.43 o
6 8 1 0.03 0.00 7.82 o
1 9 1 0.00 -6.71 15.14 o
2 9 1 0.05 0.48 7.75 o
3 9 1 0.05 -20.91 20.91 o
4 9 1 0.08 -3.91 19.78 o
5 9 1 0.05 -3.96 13.68 o
6 9 1 0.01 0.00 11.05 o
1 10 1 0.68 1.28 7.42 o
2 10 1 0.01 -8.38 22.24 o
3 10 1 0.30 14.33 20.44 o
4 10 1 0.02 7.65 21.81 o
5 10 1 0.03 -1.18 7.77 o
1 11 1 0.00 0.00 11.05 o
2 11 1 0.00 1.72 8.77 o
3 11 1 0.00 -16.52 18.87 o
4 11 1 0.00 -20.89 33.02 o
3 12 1 0.00 0.00 11.05 o
4 12 1 0.00 0.00 11.05 o
0 2 2 12082.78 12482.79 1285.36 o
1 2 2 2100.49 2038.75 119.69 o
2 2 2 45619.30 40665.64 2945.87 o
0 3 2 846.29 903.47 67.40 o
1 3 2 20800.67 19888.06 911.81 o
2 3 2 1935.52 1714.63 85.17 o
3 3 2 15401.46 13568.03 885.21 o
0 4 2 26654.08 23783.94 1415.82 o
1 4 2 1053.63 983.65 44.10 o
2 4 2 6774.46 6319.04 278.81 o
3 4 2 302.57 291.66 16.55 o
4 4 2 5097.26 5138.43 294.15 o
0 5 2 824.68 832.47 53.44 o
1 5 2 6345.49 5720.40 235.62 o
2 5 2 149.83 144.04 11.10 o
3 5 2 3357.34 3746.74 165.88 o
4 5 2 206.03 203.83 15.69 o
5 5 2 1474.32 1943.68 116.06 o
0 6 2 2620.93 2880.12 176.42 o
1 6 2 162.04 179.98 15.12 o
2 6 2 3118.82 3635.63 143.00 o
3 6 2 125.83 146.05 15.98 o
4 6 2 898.27 1136.31 57.35 o
5 6 2 20.99 -6.93 9.16 o
6 6 2 260.27 371.19 47.28 o
0 7 2 31.40 51.61 23.77 o
1 7 2 1096.34 1206.24 55.42 o
2 7 2 93.88 136.61 13.61 o
3 7 2 732.73 1020.28 52.22 o
4 7 2 12.53 11.48 17.37 o
5 7 2 179.73 206.68 27.83 o
6 7 2 7.27 -1.16 6.28 o
7 7 2 57.87 0.00 11.05 o
0 8 2 483.89 836.85 82.00 o
1 8 2 23.24 53.23 12.49 o
2 8 2 329.12 416.21 38.53 o
3 8 2 11.12 12.70 11.26 o
4 8 2 158.05 106.93 42.14 o
5 8 2 4.92 9.36 17.13 o
6 8 2 38.50 -1.74 7.70 o
0 9 2 12.18 55.13 20.90 o
1 9 2 134.51 97.16 31.26 o
2 9 2 3.15 8.04 9.53 o
3 9 2 64.58 20.77 15.83 o
4 9 2 3.39 15.42 21.21 o
5 9 2 31.37 27.00 17.13 o
6 9 2 0.51 0.00 11.05 o
0 10 2 40.73 0.00 7.82 o
1 10 2 1.78 9.90 13.98 o
2 10 2 29.09 77.58 38.62 o
3 10 2 1.10 31.62 31.11 o
4 10 2 13.81 45.62 29.64 o
5 10 2 0.37 -3.47 10.94 o
1 11 2 8.51 0.00 11.05 o
2 11 2 0.50 6.35 8.77 o
3 11 2 5.93 -10.86 20.16 o
4 11 2 0.13 32.59 28.49 o
3 12 2 0.06 0.00 15.63 o
2 2 3 201.93 118.79 29.70 o
1 3 3 363.66 137.16 18.62 o
2 3 3 127.18 136.92 13.66 o
3 3 3 289.07 229.52 23.95 o
1 4 3 331.47 292.14 19.88 o
2 4 3 3.16 -3.61 10.34 o
3 4 3 115.46 114.92 10.98 o
4 4 3 13.69 -0.58 14.54 o
1 5 3 22.93 16.15 8.90 o
2 5 3 19.67 8.61 11.52 o
3 5 3 35.91 38.50 11.86 o
4 5 3 23.11 2.03 13.55 o
5 5 3 4.81 -5.64 15.47 o
1 6 3 80.06 49.21 11.14 o
2 6 3 16.03 23.23 10.00 o
3 6 3 39.55 61.70 16.81 o
4 6 3 4.60 3.46 10.23 o
5 6 3 5.77 -13.38 13.38 o
6 6 3 0.59 21.62 22.73 o
1 7 3 3.15 -7.22 13.09 o
2 7 3 1.42 3.25 8.63 o
3 7 3 0.20 -10.50 19.57 o
4 7 3 1.61 -0.32 16.88 o
5 7 3 0.06 0.37 9.55 o
6 7 3 0.55 -4.02 6.29 o
7 7 3 0.01 0.00 11.05 o
1 8 3 9.60 25.43 14.87 o
2 8 3 0.58 -12.64 15.23 o
3 8 3 3.59 12.94 14.21 o
4 8 3 0.49 8.79 11.83 o
5 8 3 0.80 -9.67 10.65 o
6 8 3 0.13 0.00 7.82 o
1 9 3 0.02 6.65 9.90 o
2 9 3 0.04 -3.28 7.88 o
3 9 3 0.05 -5.88 14.56 o
4 9 3 0.06 6.53 32.48 o
5 9 3 0.02 1.27 13.93 o
6 9 3 0.01 0.00 15.63 o
1 10 3 0.42 4.12 13.57 o
2 10 3 0.00 -24.87 35.56 o
3 10 3 0.19 -11.57 36.67 o
4 10 3 0.02 -10.47 21.63 o
5 10 3 0.02 0.00 15.63 o
1 11 3 0.01 0.00 11.05 o
2 11 3 0.00 0.93 8.87 o
3 11 3 0.00 -11.21 15.17 o
4 11 3 0.00 0.00 11.05 o
3 3 4 5520.43 5537.07 574.16 o
0 4 4 8805.64 8069.78 1178.50 o
1 4 4 2596.87 2539.25 220.95 o
2 4 4 3220.10 2678.75 202.64 o
3 4 4 845.94 881.50 59.52 o
4 4 4 3046.23 3626.65 283.94 o
0 5 4 2288.71 2443.19 259.17 o
1 5 4 3233.71 3223.82 274.64 o
2 5 4 478.00 511.37 45.79 o
3 5 4 1424.31 1605.98 108.03 o
4 5 4 630.94 625.33 37.00 o
5 5 4 677.33 907.73 73.73 o
0 6 4 1333.94 1410.72 123.58 o
1 6 4 495.04 541.99 37.47 o
2 6 4 1541.27 2054.12 136.86 o
3 6 4 391.28 469.23 39.61 o
4 6 4 414.03 414.94 33.52 o
5 6 4 76.92 66.99 15.40 o
6 6 4 129.34 77.54 20.85 o
0 7 4 114.70 61.54 23.52 o
1 7 4 473.65 467.96 29.21 o
2 7 4 300.03 357.40 33.08 o
3 7 4 389.75 416.22 38.71 o
4 7 4 50.40 57.26 21.10 o
5 7 4 102.40 48.25 24.40 o
6 7 4 27.29 1.63 7.18 o
7 7 4 27.96 0.00 11.05 o
0 8 4 281.43 451.77 43.34 o
1 8 4 85.50 157.55 20.57 o
2 8 4 161.08 209.44 25.11 o
3 8 4 42.05 8.88 13.49 o
4 8 4 73.27 7.38 10.67 o
5 8 4 18.59 4.74 8.70 o
6 8 4 20.24 0.00 11.05 o
0 9 4 42.11 89.87 31.52 o
1 9 4 66.06 15.75 24.25 o
2 9 4 13.30 -0.29 13.60 o
3 9 4 35.70 11.12 14.67 o
4 9 4 12.96 -41.51 48.15 o
5 9 4 16.25 3.26 10.78 o
0 10 4 20.34 0.95 10.84 o
1 10 4 7.44 22.12 26.08 o
2 10 4 15.48 -34.72 88.92 o
3 10 4 4.55 32.73 53.15 o
4 10 4 7.41 -8.91 15.06 o
5 10 4 1.50 0.00 15.63 o
2 11 4 1.95 -48.45 79.71 o
3 11 4 3.06 10.05 35.17 o
4 11 4 0.59 385.84 735.39 o
4 4 5 1.04 -17.19 56.27 o
1 5 5 201.63 160.99 56.27 o
2 5 5 6.44 -4.88 36.03 o
3 5 5 1.49 30.81 39.43 o
4 5 5 5.71 70.43 42.64 o
5 5 5 2.51 6.18 26.08 o
1 6 5 24.60 212.52 50.83 o
2 6 5 1.71 25.05 34.27 o
3 6 5 8.95 40.51 41.51 o
4 6 5 11.52 11.20 30.20 o
5 6 5 2.70 27.00 24.30 o
6 6 5 2.18 0.22 13.63 o
1 7 5 1.49 -24.06 38.45 o
2 7 5 0.45 50.20 34.04 o
3 7 5 0.76 -9.33 35.60 o
4 7 5 0.80 111.23 108.74 o
5 7 5 0.23 42.13 125.41 o
6 7 5 0.14 0.00 9.02 o
1 8 5 2.61 -7.89 24.65 o
2 8 5 0.38 -16.13 31.58 o
3 8 5 1.48 5.32 21.21 o
4 8 5 0.82 3.03 10.78 o
5 8 5 0.19 -3.99 10.88 o
1 9 5 0.10 2.10 13.28 o
2 9 5 0.03 2.46 13.37 o
3 9 5 0.07 4.93 62.69 o
4 9 5 0.02 28.64 63.43 o
5 9 5 0.05 5.21 15.18 o
1 10 5 0.15 10.00 25.01 o
2 10 5 0.10 -1.71 15.37 o
3 10 5 0.05 181.63 93.78 o
4 10 5 0.04 -5.89 17.97 o
3 11 5 0.02 0.00 15.63 o
6 6 6 134.47 29.09 52.36 o
0 7 6 378.16 492.35 104.72 o
1 7 6 675.30 958.38 114.54 o
2 7 6 632.97 1169.80 136.46 o
3 7 6 328.31 397.89 82.06 o
4 7 6 137.37 50.77 65.77 o
5 7 6 86.48 28.71 70.34 o
6 7 6 55.89 54.97 96.12 o
0 8 6 185.94 295.41 100.03 o
1 8 6 196.15 300.84 72.32 o
2 8 6 135.45 20.84 65.65 o
3 8 6 98.62 7.09 19.72 o
4 8 6 74.51 8.50 24.23 o
5 8 6 39.06 50.02 62.52 o
0 9 6 83.79 0.00 15.63 o
1 9 6 63.00 11.58 46.89 o
2 9 6 33.47 57.83 100.03 o
3 9 6 31.12 68.77 84.40 o
4 9 6 25.18 109.41 84.40 o
1 10 6 15.15 0.00 15.63 o
2 10 6 12.56 0.00 15.63 o
3 10 6 9.11 120.35 107.85 o
