#------------------------------------------------------------------------------
#$Date: 2019-11-24 09:30:18 +0200 (Sun, 24 Nov 2019) $
#$Revision: 237469 $
#$URL: file:///home/coder/svn-repositories/cod/cif/7/23/71/7237172.cif $
#------------------------------------------------------------------------------
#
# This file is available in the Crystallography Open Database (COD),
# http://www.crystallography.net/
#
# All data on this site have been placed in the public domain by the
# contributors.
#
data_7237172
loop_
_publ_author_name
'Szimhardt, Norbert'
'Wurzenberger, Maximilian H. H.'
'Zeisel, Lukas'
'Gruhne, Michael S.'
'Lommel, Marcus'
'Stierstorfer, J\"org'
_publ_section_title
;
 Maximization of the energy capability level in transition metal complexes
 through application of 1-amino- and 2-amino-5H-tetrazole ligands
;
_journal_issue                   33
_journal_name_full               'Journal of Materials Chemistry A'
_journal_page_first              16257
_journal_paper_doi               10.1039/C8TA06326E
_journal_volume                  6
_journal_year                    2018
_chemical_formula_moiety         'C2 H6 Cl2 Cu N10'
_chemical_formula_sum            'C2 H6 Cl2 Cu N10'
_chemical_formula_weight         304.61
_chemical_name_common
'dichlorido bis(2-aminotetrazolyl) copper(II)'
_chemical_name_systematic
;
dichlorido bis(2-aminotetrazolyl) copper(II)
;
_space_group_IT_number           14
_space_group_name_Hall           '-P 2ybc'
_space_group_name_H-M_alt        'P 1 21/c 1'
_symmetry_cell_setting           monoclinic
_symmetry_Int_Tables_number      14
_symmetry_space_group_name_Hall  '-P 2ybc'
_symmetry_space_group_name_H-M   'P 1 21/c 1'
_atom_sites_solution_hydrogens   difmap
_audit_creation_date
;
'Fri Dec 02 12:09:50 2016'
;
_audit_creation_method           SHELXL-2013
_audit_update_record
;
2018-04-04 deposited with the CCDC.
2018-08-03 downloaded from the CCDC.
;
_cell_angle_alpha                90
_cell_angle_beta                 91.579(6)
_cell_angle_gamma                90
_cell_formula_units_Z            2
_cell_length_a                   6.8468(5)
_cell_length_b                   3.6679(2)
_cell_length_c                   18.5122(12)
_cell_measurement_reflns_used    1367
_cell_measurement_temperature    173(2)
_cell_measurement_theta_max      32.0220
_cell_measurement_theta_min      5.2430
_cell_volume                     464.73(5)
_computing_cell_refinement
;
CrysAlisPro, Agilent Technologies,
Version 1.171.37.33 (release 27-03-2014 CrysAlis171 .NET)
(compiled Mar 27 2014,17:12:48)
;
_computing_data_collection
;
CrysAlisPro, Agilent Technologies,
Version 1.171.37.33 (release 27-03-2014 CrysAlis171 .NET)
(compiled Mar 27 2014,17:12:48)
;
_computing_data_reduction
;
CrysAlisPro, Agilent Technologies,
Version 1.171.37.33 (release 27-03-2014 CrysAlis171 .NET)
(compiled Mar 27 2014,17:12:48)
;
_computing_structure_refinement  'SHELXL-2013 (Sheldrick, 2013)'
_diffrn_ambient_temperature      173(2)
_diffrn_detector                 'CCD plate'
_diffrn_detector_area_resol_mean 15.9809
_diffrn_detector_type            Sapphire3
_diffrn_measured_fraction_theta_full 0.995
_diffrn_measured_fraction_theta_max 0.996
_diffrn_measurement_details
;
#__ type_ start__ end____ width___ exp.time_
  1 omega   20.00   96.00   1.0000    6.0000
omega____ theta____ kappa____ phi______ frames
    -       29.7932   57.0000   60.0000 76

#__ type_ start__ end____ width___ exp.time_
  2 omega   12.00  100.00   1.0000    6.0000
omega____ theta____ kappa____ phi______ frames
    -       29.7932   57.0000  -90.0000 88

#__ type_ start__ end____ width___ exp.time_
  3 omega  -37.00   77.00   1.0000    6.0000
omega____ theta____ kappa____ phi______ frames
    -       29.7932   19.0000 -120.0000 114

#__ type_ start__ end____ width___ exp.time_
  4 omega  -87.00  -12.00   1.0000    6.0000
omega____ theta____ kappa____ phi______ frames
    -      -28.6994  129.0000  -87.0000 75

#__ type_ start__ end____ width___ exp.time_
  5 omega -111.00  -78.00   1.0000    6.0000
omega____ theta____ kappa____ phi______ frames
    -      -28.6994  179.0000   60.0000 33

#__ type_ start__ end____ width___ exp.time_
  6 omega  -97.00  -71.00   1.0000    6.0000
omega____ theta____ kappa____ phi______ frames
    -      -28.6994 -179.0000  -30.0000 26

;
_diffrn_measurement_device       'four-circle diffractometer'
_diffrn_measurement_device_type  'Xcalibur, Sapphire3'
_diffrn_measurement_method       '\w scans'
_diffrn_orient_matrix_UB_11      0.0753711000
_diffrn_orient_matrix_UB_12      -0.0699876000
_diffrn_orient_matrix_UB_13      -0.0215762000
_diffrn_orient_matrix_UB_21      -0.0572293000
_diffrn_orient_matrix_UB_22      0.0380366000
_diffrn_orient_matrix_UB_23      -0.0316346000
_diffrn_orient_matrix_UB_31      0.0423490000
_diffrn_orient_matrix_UB_32      0.1761106000
_diffrn_orient_matrix_UB_33      -0.0017523000
_diffrn_radiation_monochromator  graphite
_diffrn_radiation_probe          x-ray
_diffrn_radiation_type           MoK\a
_diffrn_radiation_wavelength     0.71073
_diffrn_reflns_av_R_equivalents  0.0314
_diffrn_reflns_av_sigmaI/netI    0.0575
_diffrn_reflns_av_unetI/netI     0.0316
_diffrn_reflns_Laue_measured_fraction_full 0.995
_diffrn_reflns_Laue_measured_fraction_max 0.996
_diffrn_reflns_limit_h_max       8
_diffrn_reflns_limit_h_min       -8
_diffrn_reflns_limit_k_max       4
_diffrn_reflns_limit_k_min       -4
_diffrn_reflns_limit_l_max       22
_diffrn_reflns_limit_l_min       -22
_diffrn_reflns_number            2907
_diffrn_reflns_point_group_measured_fraction_full 0.995
_diffrn_reflns_point_group_measured_fraction_max 0.996
_diffrn_reflns_theta_full        25.242
_diffrn_reflns_theta_max         25.991
_diffrn_reflns_theta_min         4.405
_diffrn_source                   'Enhance (Mo) X-ray Source'
_exptl_absorpt_coefficient_mu    2.909
_exptl_absorpt_correction_T_max  0.99999
_exptl_absorpt_correction_T_min  0.92278
_exptl_absorpt_correction_type   multi-scan
_exptl_absorpt_process_details
;
CrysAlisPro, Agilent Technologies,
Version 1.171.37.33 (release 27-03-2014 CrysAlis171 .NET)
(compiled Mar 27 2014,17:12:48)
Empirical absorption correction using spherical harmonics,
 implemented in SCALE3 ABSPACK scaling algorithm.
;
_exptl_crystal_colour            green
_exptl_crystal_density_diffrn    2.177
_exptl_crystal_description       block
_exptl_crystal_F_000             302
_exptl_crystal_size_max          0.340
_exptl_crystal_size_mid          0.170
_exptl_crystal_size_min          0.120
_refine_diff_density_max         0.398
_refine_diff_density_min         -0.435
_refine_diff_density_rms         0.084
_refine_ls_extinction_method     none
_refine_ls_goodness_of_fit_ref   1.067
_refine_ls_hydrogen_treatment    refall
_refine_ls_matrix_type           full
_refine_ls_number_parameters     82
_refine_ls_number_reflns         920
_refine_ls_number_restraints     0
_refine_ls_restrained_S_all      1.067
_refine_ls_R_factor_all          0.0285
_refine_ls_R_factor_gt           0.0246
_refine_ls_shift/su_max          0.000
_refine_ls_shift/su_mean         0.000
_refine_ls_structure_factor_coef Fsqd
_refine_ls_weighting_details
'w=1/[\s^2^(Fo^2^)+(0.0277P)^2^+0.1545P] where P=(Fo^2^+2Fc^2^)/3'
_refine_ls_weighting_scheme      calc
_refine_ls_wR_factor_gt          0.0572
_refine_ls_wR_factor_ref         0.0596
_reflns_Friedel_coverage         0.000
_reflns_number_gt                831
_reflns_number_total             920
_reflns_threshold_expression     'I > 2\s(I)'
_cod_data_source_file            c8ta06326e2.cif
_cod_data_source_block           lx582
_cod_original_sg_symbol_Hall     ' -P 2ybc'
_cod_database_code               7237172
_shelx_space_group_comment
;
The symmetry employed for this shelxl refinement is uniquely defined
by the following loop, which should always be used as a source of
symmetry information in preference to the above space-group names.
They are only intended as comments.
;
_shelx_estimated_absorpt_t_min   0.438
_shelx_estimated_absorpt_t_max   0.722
_shelxl_version_number           2013-4
_shelx_res_file
;
TITL v1 in P2(1)/c
CELL  0.71073   6.8468   3.6679  18.5122   90.000   91.579   90.000
ZERR     2.00   0.0005   0.0002   0.0012    0.000    0.006    0.000
LATT   1
SYMM  - X, 1/2 + Y, 1/2 - Z
SFAC  C    CL   CU   N    H
UNIT  4    4    2    20   12
MERG   2
OMIT    -2.00  52.00
EQIV $1 -x+2, y+1/2, -z+1/2
EQIV $2 x, -y+3/2, z+1/2
EQIV $3 -x+1, y-1/2, -z+1/2
HTAB N5 N3_$1
HTAB N5 Cl1_$2
HTAB N5 N1_$3
FMAP   2
PLAN   20
SIZE     0.120   0.170   0.340
ACTA
BOND   $H
CONF
L.S.   5
TEMP  -100.00
WGHT    0.027700    0.154500
FVAR       0.80097
CU01  3    1.000000    1.000000    0.000000    10.50000    0.01321    0.01598 =
         0.00877    0.00197    0.00326    0.00399
CL1   2    0.784723    0.401167   -0.053854    11.00000    0.01583    0.01797 =
         0.01178    0.00189    0.00140    0.00453
N1    4    0.610189    1.140919    0.169590    11.00000    0.01409    0.02194 =
         0.01681    0.00108    0.00360    0.00419
N2    4    0.765078    0.973994    0.199013    11.00000    0.01107    0.01633 =
         0.01001   -0.00001    0.00198    0.00083
N3    4    0.900470    0.887348    0.153859    11.00000    0.01469    0.01798 =
         0.01051   -0.00052    0.00305    0.00178
N4    4    0.834285    1.008920    0.090035    11.00000    0.01379    0.01232 =
         0.01056   -0.00095    0.00082    0.00126
N5    4    0.788496    0.875699    0.271503    11.00000    0.01936    0.03042 =
         0.00803    0.00167    0.00168   -0.00270
C1    1    0.657978    1.155744    0.100844    11.00000    0.01445    0.02001 =
         0.01481    0.00464    0.00221    0.00354
H1    5    0.584975    1.255023    0.068952    11.00000    0.01900
H5B   5    0.838441    1.041024    0.288650    11.00000    0.02717
H5A   5    0.668150    0.810362    0.290098    11.00000    0.02294
HKLF    4

REM  v1 in P2(1)/c
REM R1 =  0.0246 for     831 Fo > 4sig(Fo)  and  0.0285 for all     920 data
REM     82 parameters refined using      0 restraints

END

WGHT      0.0277      0.1545

REM Highest difference peak  0.398,  deepest hole -0.435,  1-sigma level  0.084
Q1    1   0.7837  0.6246 -0.0544  11.00000  0.05    0.40
Q2    1   1.0026  0.7375  0.0034  11.00000  0.05    0.35
Q3    1   0.8483  0.2910 -0.0255  11.00000  0.05    0.30
Q4    1   0.8849  0.0927 -0.0574  11.00000  0.05    0.29
Q5    1   0.8996  1.0451  0.0631  11.00000  0.05    0.28
Q6    1   0.6142  1.0553  0.1392  11.00000  0.05    0.27
Q7    1   0.8735  0.9745  0.1189  11.00000  0.05    0.27
Q8    1   0.9374  1.4023  0.0755  11.00000  0.05    0.26
Q9    1   0.7458  0.2362 -0.0824  11.00000  0.05    0.25
Q10   1   0.7671  0.9966  0.2200  11.00000  0.05    0.23
Q11   1   0.5200  1.0559  0.1684  11.00000  0.05    0.23
Q12   1   0.8175  0.1363 -0.0052  11.00000  0.05    0.22
Q13   1   1.0970  1.0739  0.1790  11.00000  0.05    0.22
Q14   1   0.6965  0.4832  0.2613  11.00000  0.05    0.22
Q15   1   0.8471  0.5976  0.2797  11.00000  0.05    0.21
Q16   1   0.9777  0.7444  0.1766  11.00000  0.05    0.21
Q17   1   0.7454  1.0521  0.0860  11.00000  0.05    0.21
Q18   1   0.5175  1.1375  0.0453  11.00000  0.05    0.21
Q19   1   0.8209  1.1699  0.1003  11.00000  0.05    0.20
Q20   1   0.4170  1.1652  0.1057  11.00000  0.05    0.20
;
_shelx_res_checksum              53237
loop_
_space_group_symop_operation_xyz
'x, y, z'
'-x, y+1/2, -z+1/2'
'-x, -y, -z'
'x, -y-1/2, z-1/2'
loop_
_atom_site_label
_atom_site_type_symbol
_atom_site_fract_x
_atom_site_fract_y
_atom_site_fract_z
_atom_site_U_iso_or_equiv
_atom_site_adp_type
_atom_site_occupancy
_atom_site_site_symmetry_order
_atom_site_calc_flag
_atom_site_refinement_flags_posn
_atom_site_refinement_flags_occupancy
Cu01 Cu 1.0000 1.0000 0.0000 0.01260(15) Uani 1 2 d S P
Cl1 Cl 0.78472(9) 0.40117(16) -0.05385(3) 0.01517(17) Uani 1 1 d . .
N1 N 0.6102(3) 1.1409(6) 0.16959(11) 0.0176(5) Uani 1 1 d . .
N2 N 0.7651(3) 0.9740(5) 0.19901(10) 0.0124(4) Uani 1 1 d . .
N3 N 0.9005(3) 0.8873(6) 0.15386(10) 0.0143(4) Uani 1 1 d . .
N4 N 0.8343(3) 1.0089(5) 0.09004(10) 0.0122(4) Uani 1 1 d . .
N5 N 0.7885(4) 0.8757(7) 0.27150(11) 0.0192(5) Uani 1 1 d . .
C1 C 0.6580(4) 1.1557(7) 0.10084(13) 0.0164(5) Uani 1 1 d . .
H1 H 0.585(4) 1.255(8) 0.0690(14) 0.019(7) Uiso 1 1 d . .
H5B H 0.838(5) 1.041(8) 0.2887(18) 0.027(10) Uiso 1 1 d . .
H5A H 0.668(4) 0.810(8) 0.2901(14) 0.023(8) Uiso 1 1 d . .
loop_
_atom_site_aniso_label
_atom_site_aniso_U_11
_atom_site_aniso_U_22
_atom_site_aniso_U_33
_atom_site_aniso_U_23
_atom_site_aniso_U_13
_atom_site_aniso_U_12
Cu01 0.0132(2) 0.0160(2) 0.0088(2) 0.00197(15) 0.00326(16) 0.00399(16)
Cl1 0.0158(3) 0.0180(3) 0.0118(3) 0.0019(2) 0.0014(2) 0.0045(2)
N1 0.0141(11) 0.0219(11) 0.0168(11) 0.0011(8) 0.0036(8) 0.0042(9)
N2 0.0111(10) 0.0163(11) 0.0100(10) 0.0000(7) 0.0020(8) 0.0008(8)
N3 0.0147(11) 0.0180(11) 0.0105(10) -0.0005(8) 0.0031(8) 0.0018(9)
N4 0.0138(11) 0.0123(10) 0.0106(10) -0.0010(7) 0.0008(8) 0.0013(8)
N5 0.0194(13) 0.0304(14) 0.0080(11) 0.0017(9) 0.0017(9) -0.0027(11)
C1 0.0145(13) 0.0200(13) 0.0148(13) 0.0046(10) 0.0022(10) 0.0035(11)
loop_
_atom_type_symbol
_atom_type_description
_atom_type_scat_dispersion_real
_atom_type_scat_dispersion_imag
_atom_type_scat_source
C C 0.0033 0.0016 'International Tables Vol C Tables 4.2.6.8 and 6.1.1.4'
Cl Cl 0.1484 0.1585 'International Tables Vol C Tables 4.2.6.8 and 6.1.1.4'
Cu Cu 0.3201 1.2651 'International Tables Vol C Tables 4.2.6.8 and 6.1.1.4'
N N 0.0061 0.0033 'International Tables Vol C Tables 4.2.6.8 and 6.1.1.4'
H H 0.0000 0.0000 'International Tables Vol C Tables 4.2.6.8 and 6.1.1.4'
loop_
_geom_angle_atom_site_label_1
_geom_angle_atom_site_label_2
_geom_angle_atom_site_label_3
_geom_angle
_geom_angle_site_symmetry_1
_geom_angle_site_symmetry_3
N4 Cu01 N4 180.0 . 3_775
N4 Cu01 Cl1 88.83(6) . 1_565
N4 Cu01 Cl1 91.17(6) 3_775 1_565
N4 Cu01 Cl1 91.17(6) . 3_765
N4 Cu01 Cl1 88.83(6) 3_775 3_765
Cl1 Cu01 Cl1 180.00(2) 1_565 3_765
C1 N1 N2 101.39(19) . .
N3 N2 N1 115.02(18) . .
N3 N2 N5 119.3(2) . .
N1 N2 N5 125.7(2) . .
N2 N3 N4 104.87(19) . .
N3 N4 C1 106.73(19) . .
N3 N4 Cu01 122.41(15) . .
C1 N4 Cu01 130.58(17) . .
N2 N5 H5B 104(2) . .
N2 N5 H5A 110.0(17) . .
H5B N5 H5A 116(3) . .
N1 C1 N4 112.0(2) . .
N1 C1 H1 122.1(18) . .
N4 C1 H1 125.9(18) . .
loop_
_geom_bond_atom_site_label_1
_geom_bond_atom_site_label_2
_geom_bond_distance
_geom_bond_site_symmetry_2
Cu01 N4 2.0422(19) .
Cu01 N4 2.0422(19) 3_775
Cu01 Cl1 2.2915(6) 1_565
Cu01 Cl1 2.2915(6) 3_765
Cl1 Cu01 2.2914(6) 1_545
N1 C1 1.324(3) .
N1 N2 1.328(3) .
N2 N3 1.305(3) .
N2 N5 1.395(3) .
N3 N4 1.331(3) .
N4 C1 1.342(3) .
N5 H5B 0.76(3) .
N5 H5A 0.93(3) .
C1 H1 0.85(3) .
loop_
_geom_hbond_atom_site_label_D
_geom_hbond_atom_site_label_H
_geom_hbond_atom_site_label_A
_geom_hbond_distance_DH
_geom_hbond_distance_HA
_geom_hbond_distance_DA
_geom_hbond_angle_DHA
_geom_hbond_site_symmetry_A
N5 H5B N3 0.76(3) 2.42(3) 3.131(3) 157(3) 2_755
N5 H5B Cl1 0.76(3) 2.96(3) 3.336(2) 114(3) 4_576
N5 H5A N1 0.93(3) 2.16(3) 3.090(3) 178(3) 2_645
loop_
_geom_torsion_atom_site_label_1
_geom_torsion_atom_site_label_2
_geom_torsion_atom_site_label_3
_geom_torsion_atom_site_label_4
_geom_torsion
C1 N1 N2 N3 -0.2(3)
C1 N1 N2 N5 -177.5(2)
N1 N2 N3 N4 1.1(3)
N5 N2 N3 N4 178.6(2)
N2 N3 N4 C1 -1.5(2)
N2 N3 N4 Cu01 173.02(14)
N2 N1 C1 N4 -0.8(3)
N3 N4 C1 N1 1.5(3)
Cu01 N4 C1 N1 -172.39(16)
