#------------------------------------------------------------------------------
#$Date: 2019-11-24 09:53:36 +0200 (Sun, 24 Nov 2019) $
#$Revision: 237540 $
#$URL: file:///home/coder/svn-repositories/cod/cif/7/23/72/7237268.cif $
#------------------------------------------------------------------------------
#
# This file is available in the Crystallography Open Database (COD),
# http://www.crystallography.net/
#
# All data on this site have been placed in the public domain by the
# contributors.
#
data_7237268
loop_
_publ_author_name
'Zhang, Jun'
'Huang, Yike'
'Yue, Dan'
'Cui, Yuanjing'
'Yang, Yu'
'Qian, Guodong'
_publ_section_title
;
 A luminescent turn-up metal--organic framework sensor for tryptophan
 based on singlet--singlet F\"orster energy transfer
;
_journal_issue                   31
_journal_name_full               'Journal of Materials Chemistry B'
_journal_page_first              5174
_journal_paper_doi               10.1039/C8TB01592A
_journal_volume                  6
_journal_year                    2018
_chemical_formula_sum            'C13 H0 N O5 Zn'
_chemical_formula_weight         315.51
_space_group_crystal_system      monoclinic
_space_group_IT_number           14
_space_group_name_Hall           '-P 2yn'
_space_group_name_H-M_alt        'P 1 21/n 1'
_audit_creation_method           SHELXL-2013
_audit_update_record
;
2017-08-06 deposited with the CCDC.
2018-07-17 downloaded from the CCDC.
;
_cell_angle_alpha                90
_cell_angle_beta                 100.155(2)
_cell_angle_gamma                90
_cell_formula_units_Z            4
_cell_length_a                   6.4995(2)
_cell_length_b                   18.1405(5)
_cell_length_c                   10.6050(3)
_cell_measurement_reflns_used    9988
_cell_measurement_temperature    293(2)
_cell_measurement_theta_max      25.9975
_cell_measurement_theta_min      2.251
_cell_volume                     1230.79(6)
_computing_cell_refinement       'Bruker SMART'
_computing_data_collection       'Bruker SMART'
_computing_data_reduction        'Bruker SAINT'
_computing_molecular_graphics    'Bruker SHELXTL'
_computing_publication_material  'Bruker SHELXTL'
_computing_structure_refinement  'SHELXL-2013 (Sheldrick, 2013)'
_computing_structure_solution    'Bruker SHELXTL'
_diffrn_ambient_temperature      293(2)
_diffrn_measured_fraction_theta_full 1.000
_diffrn_measured_fraction_theta_max 0.997
_diffrn_measurement_device_type  'CCD area detector'
_diffrn_measurement_method       'phi and omega scans'
_diffrn_radiation_type           MoK\a
_diffrn_radiation_wavelength     0.71073
_diffrn_reflns_av_R_equivalents  0.0275
_diffrn_reflns_av_unetI/netI     0.0137
_diffrn_reflns_Laue_measured_fraction_full 1.000
_diffrn_reflns_Laue_measured_fraction_max 0.997
_diffrn_reflns_limit_h_max       8
_diffrn_reflns_limit_h_min       -8
_diffrn_reflns_limit_k_max       22
_diffrn_reflns_limit_k_min       -22
_diffrn_reflns_limit_l_max       13
_diffrn_reflns_limit_l_min       -12
_diffrn_reflns_number            25915
_diffrn_reflns_point_group_measured_fraction_full 1.000
_diffrn_reflns_point_group_measured_fraction_max 0.997
_diffrn_reflns_theta_full        25.242
_diffrn_reflns_theta_max         26.091
_diffrn_reflns_theta_min         2.245
_exptl_absorpt_coefficient_mu    2.012
_exptl_crystal_colour            Yellow
_exptl_crystal_density_diffrn    1.703
_exptl_crystal_description       Prism
_exptl_crystal_F_000             620
_refine_diff_density_max         0.764
_refine_diff_density_min         -0.252
_refine_diff_density_rms         0.102
_refine_ls_extinction_method     none
_refine_ls_goodness_of_fit_ref   1.212
_refine_ls_hydrogen_treatment    undef
_refine_ls_matrix_type           full
_refine_ls_number_parameters     181
_refine_ls_number_reflns         2422
_refine_ls_number_restraints     0
_refine_ls_restrained_S_all      1.212
_refine_ls_R_factor_all          0.0412
_refine_ls_R_factor_gt           0.0359
_refine_ls_shift/su_max          0.000
_refine_ls_shift/su_mean         0.000
_refine_ls_structure_factor_coef Fsqd
_refine_ls_weighting_details
;
 w=1/[\s^2^(Fo^2^)+(0.1000P)^2^]
 where P=(Fo^2^+2Fc^2^)/3
;
_refine_ls_weighting_scheme      calc
_refine_ls_wR_factor_gt          0.1340
_refine_ls_wR_factor_ref         0.1387
_reflns_Friedel_coverage         0.000
_reflns_number_gt                2146
_reflns_number_total             2422
_reflns_threshold_expression     'I > 2\s(I)'
_cod_data_source_file            c8tb01592a2.cif
_cod_data_source_block           ZJU-108
_cod_original_sg_symbol_H-M      'P 21/n'
_cod_database_code               7237268
_shelx_space_group_comment
;
The symmetry employed for this shelxl refinement is uniquely defined
by the following loop, which should always be used as a source of
symmetry information in preference to the above space-group names.
They are only intended as comments.
;
_shelxl_version_number           2013-2
_shelx_res_file
;
TITL HYK in  P21/n
CELL  0.71073    6.4995   18.1405   10.6050    90.000   100.155    90.000
ZERR        4    0.0002    0.0005    0.0003     0.000     0.002     0.000
LATT   1
SYMM     0.50000 - X ,    0.50000 + Y ,    0.50000 - Z
SFAC  C  H  N  O Zn
UNIT    52    0   4  20   4
LIST 6 ! automatically inserted. Change 6 to 4 for CHECKCIF!!
L.S. 5
FMAP 2
PLAN -20
ACTA
BOND $H
CONF
WGHT    0.100000
FVAR       0.15265
ZN1   5    1.140716    0.055255    0.192392    11.00000    0.01955    0.01875 =
         0.02849   -0.00047   -0.00001    0.00006
O2    4    0.962636    0.140958    0.146700    11.00000    0.02235    0.02340 =
         0.05113    0.00341   -0.00008    0.00685
O4    4    1.261707    0.039143    0.034798    11.00000    0.03633    0.03450 =
         0.03095   -0.00270    0.00891    0.00765
O5    4    0.536162    0.483532    0.238679    11.00000    0.04721    0.02518 =
         0.05497   -0.00898    0.00623    0.00500
O14   4    0.654303    0.097390    0.049548    11.00000    0.02869    0.02544 =
         0.04710   -0.01050    0.00377    0.00171
O17   4    0.237648    0.426566    0.238884    11.00000    0.04501    0.04217 =
         0.06690   -0.01300    0.01672    0.01156
N3    3   -0.121737    0.398873   -0.180757    11.00000    0.02248    0.02605 =
         0.03022    0.00488   -0.00006    0.00366
C1    1    0.055188    0.438143   -0.145323    11.00000    0.03015    0.02319 =
         0.03507    0.00266   -0.00317   -0.00010
C2    1    0.224048    0.411691   -0.061514    11.00000    0.02766    0.02738 =
         0.03602    0.00184   -0.00375   -0.00411
C3    1   -0.128931    0.330436   -0.131866    11.00000    0.02440    0.02584 =
         0.04306    0.00600    0.00072   -0.00224
C7    1    0.767223    0.146832    0.105479    11.00000    0.02685    0.02283 =
         0.02621    0.00437    0.00660    0.00552
C9A   1    0.483039    0.242647    0.060514    11.00000    0.02250    0.02206 =
         0.02619    0.00017    0.00228    0.00125
C10   1    0.034949    0.300462   -0.045364    11.00000    0.02543    0.02459 =
         0.03975    0.00549    0.00334    0.00112
C11   1    0.677319    0.220823    0.126900    11.00000    0.03007    0.01851 =
         0.02344   -0.00126    0.00354    0.00485
C12   1    0.402633    0.312277    0.079878    11.00000    0.02306    0.02148 =
         0.02537    0.00146    0.00073    0.00398
C13   1    0.214694    0.341139   -0.007539    11.00000    0.02636    0.02193 =
         0.02358    0.00112    0.00067    0.00691
C14   1    0.513852    0.357857    0.175464    11.00000    0.03480    0.02223 =
         0.02648    0.00106   -0.00197    0.00812
C15   1    0.710308    0.337327    0.238347    11.00000    0.03432    0.02589 =
         0.03379   -0.00567   -0.00582    0.00549
C16   1    0.418493    0.426663    0.218762    11.00000    0.04304    0.02663 =
         0.02535   -0.00261   -0.00259    0.01227
C18   1    0.792704    0.269764    0.214527    11.00000    0.03028    0.02897 =
         0.03382   -0.00318   -0.00612    0.00795
HKLF 4

REM  HYK in  P21/n
REM R1 =  0.0359 for    2146 Fo > 4sig(Fo)  and  0.0412 for all    2422 data
REM    181 parameters refined using      0 restraints

END

WGHT      0.0779      1.5017

REM Highest difference peak  0.764,  deepest hole -0.252,  1-sigma level  0.102
Q1    1   0.4117  0.2111 -0.0031  11.00000  0.05    0.76
Q2    1  -0.2500  0.3037 -0.1544  11.00000  0.05    0.76
Q3    1   0.3405  0.4397 -0.0439  11.00000  0.05    0.76
Q4    1   0.9256  0.2573  0.2494  11.00000  0.05    0.75
Q5    1   0.0622  0.4833 -0.1845  11.00000  0.05    0.75
Q6    1   0.0255  0.2534 -0.0140  11.00000  0.05    0.70
Q7    1   0.7799  0.3676  0.2915  11.00000  0.05    0.68
Q8    1   1.2872 -0.0002  0.0108  11.00000  0.05    0.61
Q9    1   1.3788  0.0587  0.0287  11.00000  0.05    0.60
Q10   1   0.7195  0.2401  0.1784  11.00000  0.05    0.41
Q11   1   1.2620  0.0516 -0.0054  11.00000  0.05    0.39
Q12   1   1.2575  0.0411  0.0878  11.00000  0.05    0.36
Q13   1   0.2199  0.3839 -0.0407  11.00000  0.05    0.34
Q14   1   0.0415  0.4198 -0.1783  11.00000  0.05    0.33
Q15   1   0.8678  0.1391  0.1189  11.00000  0.05    0.33
Q16   1   0.4981  0.3775  0.1628  11.00000  0.05    0.33
Q17   1   0.4408  0.2621  0.0627  11.00000  0.05    0.32
Q18   1   0.5802  0.1024  0.0294  11.00000  0.05    0.32
Q19   1  -0.0225  0.3042 -0.0816  11.00000  0.05    0.32
Q20   1   0.7128  0.1846  0.1146  11.00000  0.05    0.31
;
_shelx_res_checksum              27286
loop_
_space_group_symop_operation_xyz
'x, y, z'
'-x+1/2, y+1/2, -z+1/2'
'-x, -y, -z'
'x-1/2, -y-1/2, z-1/2'
loop_
_atom_site_label
_atom_site_type_symbol
_atom_site_fract_x
_atom_site_fract_y
_atom_site_fract_z
_atom_site_U_iso_or_equiv
_atom_site_adp_type
_atom_site_occupancy
_atom_site_site_symmetry_order
_atom_site_calc_flag
Zn1 Zn 1.14072(5) 0.05526(2) 0.19239(3) 0.02278(19) Uani 1 1 d
O2 O 0.9626(3) 0.14096(12) 0.1467(2) 0.0331(5) Uani 1 1 d
O4 O 1.2617(4) 0.03914(13) 0.0348(2) 0.0336(5) Uani 1 1 d
O5 O 0.5362(4) 0.48353(12) 0.2387(2) 0.0428(6) Uani 1 1 d
O14 O 0.6543(3) 0.09739(11) 0.0495(2) 0.0341(6) Uani 1 1 d
O17 O 0.2376(5) 0.42657(14) 0.2389(3) 0.0505(7) Uani 1 1 d
N3 N -0.1217(4) 0.39887(15) -0.1808(2) 0.0268(6) Uani 1 1 d
C1 C 0.0552(6) 0.43814(16) -0.1453(4) 0.0306(8) Uani 1 1 d
C2 C 0.2240(5) 0.41169(17) -0.0615(3) 0.0315(7) Uani 1 1 d
C3 C -0.1289(5) 0.33044(16) -0.1319(3) 0.0317(7) Uani 1 1 d
C7 C 0.7672(5) 0.14683(16) 0.1055(3) 0.0251(6) Uani 1 1 d
C9A C 0.4830(4) 0.24265(15) 0.0605(3) 0.0238(6) Uani 1 1 d
C10 C 0.0349(5) 0.30046(16) -0.0454(3) 0.0302(7) Uani 1 1 d
C11 C 0.6773(5) 0.22082(15) 0.1269(3) 0.0242(6) Uani 1 1 d
C12 C 0.4026(4) 0.31228(15) 0.0799(3) 0.0237(6) Uani 1 1 d
C13 C 0.2147(5) 0.34114(16) -0.0075(3) 0.0244(6) Uani 1 1 d
C14 C 0.5139(5) 0.35786(16) 0.1755(3) 0.0287(7) Uani 1 1 d
C15 C 0.7103(6) 0.33733(17) 0.2383(3) 0.0328(7) Uani 1 1 d
C16 C 0.4185(6) 0.42666(17) 0.2188(3) 0.0327(8) Uani 1 1 d
C18 C 0.7927(5) 0.26976(17) 0.2145(3) 0.0325(7) Uani 1 1 d
loop_
_atom_site_aniso_label
_atom_site_aniso_U_11
_atom_site_aniso_U_22
_atom_site_aniso_U_33
_atom_site_aniso_U_23
_atom_site_aniso_U_13
_atom_site_aniso_U_12
Zn1 0.0196(3) 0.0188(3) 0.0285(3) -0.00047(12) -0.00001(17) 0.00006(11)
O2 0.0223(11) 0.0234(11) 0.0511(15) 0.0034(10) -0.0001(10) 0.0068(9)
O4 0.0363(13) 0.0345(11) 0.0309(12) -0.0027(10) 0.0089(10) 0.0076(10)
O5 0.0472(15) 0.0252(12) 0.0550(16) -0.0090(11) 0.0062(13) 0.0050(11)
O14 0.0287(12) 0.0254(11) 0.0471(14) -0.0105(10) 0.0038(10) 0.0017(9)
O17 0.0450(17) 0.0422(14) 0.0669(19) -0.0130(14) 0.0167(15) 0.0116(13)
N3 0.0225(13) 0.0260(14) 0.0302(14) 0.0049(10) -0.0001(11) 0.0037(10)
C1 0.0301(18) 0.0232(15) 0.0351(18) 0.0027(12) -0.0032(15) -0.0001(12)
C2 0.0277(17) 0.0274(16) 0.0360(17) 0.0018(14) -0.0038(13) -0.0041(13)
C3 0.0244(16) 0.0258(15) 0.043(2) 0.0060(14) 0.0007(14) -0.0022(12)
C7 0.0269(16) 0.0228(14) 0.0262(15) 0.0044(12) 0.0066(12) 0.0055(12)
C9A 0.0225(15) 0.0221(13) 0.0262(16) 0.0002(11) 0.0023(12) 0.0013(11)
C10 0.0254(16) 0.0246(15) 0.0398(18) 0.0055(13) 0.0033(13) 0.0011(12)
C11 0.0301(16) 0.0185(13) 0.0234(14) -0.0013(11) 0.0035(12) 0.0048(12)
C12 0.0231(15) 0.0215(13) 0.0254(15) 0.0015(11) 0.0007(12) 0.0040(11)
C13 0.0264(16) 0.0219(14) 0.0236(14) 0.0011(11) 0.0007(12) 0.0069(12)
C14 0.0348(17) 0.0222(15) 0.0265(15) 0.0011(12) -0.0020(13) 0.0081(13)
C15 0.0343(18) 0.0259(15) 0.0338(17) -0.0057(13) -0.0058(14) 0.0055(13)
C16 0.043(2) 0.0266(16) 0.0254(16) -0.0026(13) -0.0026(14) 0.0123(15)
C18 0.0303(17) 0.0290(16) 0.0338(18) -0.0032(13) -0.0061(14) 0.0079(13)
loop_
_atom_type_symbol
_atom_type_description
_atom_type_scat_dispersion_real
_atom_type_scat_dispersion_imag
_atom_type_scat_source
C C 0.0033 0.0016 'International Tables Vol C Tables 4.2.6.8 and 6.1.1.4'
H H 0.0000 0.0000 'International Tables Vol C Tables 4.2.6.8 and 6.1.1.4'
N N 0.0061 0.0033 'International Tables Vol C Tables 4.2.6.8 and 6.1.1.4'
O O 0.0106 0.0060 'International Tables Vol C Tables 4.2.6.8 and 6.1.1.4'
Zn Zn 0.2839 1.4301 'International Tables Vol C Tables 4.2.6.8 and 6.1.1.4'
loop_
_geom_angle_atom_site_label_1
_geom_angle_atom_site_label_2
_geom_angle_atom_site_label_3
_geom_angle
_geom_angle_site_symmetry_1
_geom_angle_site_symmetry_3
O2 Zn1 O5 105.11(10) . 2_645
O2 Zn1 O4 102.34(10) . .
O5 Zn1 O4 124.06(11) 2_645 .
O2 Zn1 N3 100.72(10) . 4_766
O5 Zn1 N3 116.78(10) 2_645 4_766
O4 Zn1 N3 104.40(10) . 4_766
O2 Zn1 C16 134.02(11) . 2_645
O5 Zn1 C16 29.02(12) 2_645 2_645
O4 Zn1 C16 106.35(11) . 2_645
N3 Zn1 C16 105.88(11) 4_766 2_645
C7 O2 Zn1 131.7(2) . .
C16 O5 Zn1 102.9(2) . 2_655
C1 N3 C3 117.7(3) . .
C1 N3 Zn1 118.5(2) . 4_465
C3 N3 Zn1 123.8(2) . 4_465
N3 C1 C2 122.8(3) . .
C1 C2 C13 119.6(3) . .
N3 C3 C10 122.7(3) . .
O14 C7 O2 125.0(3) . .
O14 C7 C11 120.4(3) . .
O2 C7 C11 114.6(3) . .
C11 C9A C12 120.9(3) . .
C13 C10 C3 119.6(3) . .
C9A C11 C18 119.1(3) . .
C9A C11 C7 121.5(3) . .
C18 C11 C7 119.4(3) . .
C9A C12 C14 118.7(3) . .
C9A C12 C13 120.9(3) . .
C14 C12 C13 120.2(2) . .
C10 C13 C2 117.6(3) . .
C10 C13 C12 123.5(3) . .
C2 C13 C12 118.8(3) . .
C15 C14 C12 120.2(3) . .
C15 C14 C16 118.2(3) . .
C12 C14 C16 121.5(3) . .
C18 C15 C14 120.4(3) . .
O17 C16 O5 122.3(3) . .
O17 C16 C14 120.7(3) . .
O5 C16 C14 117.0(3) . .
O17 C16 Zn1 74.25(19) . 2_655
O5 C16 Zn1 48.04(16) . 2_655
C14 C16 Zn1 164.5(3) . 2_655
C15 C18 C11 120.3(3) . .
loop_
_geom_bond_atom_site_label_1
_geom_bond_atom_site_label_2
_geom_bond_distance
_geom_bond_site_symmetry_2
Zn1 O2 1.948(2) .
Zn1 O5 1.961(2) 2_645
Zn1 O4 1.990(2) .
Zn1 N3 2.038(2) 4_766
Zn1 C16 2.570(3) 2_645
O2 C7 1.273(4) .
O5 C16 1.279(4) .
O5 Zn1 1.961(2) 2_655
O14 C7 1.242(4) .
O17 C16 1.231(5) .
N3 C1 1.349(4) .
N3 C3 1.349(4) .
N3 Zn1 2.038(2) 4_465
C1 C2 1.371(5) .
C2 C13 1.408(4) .
C3 C10 1.388(4) .
C7 C11 1.497(4) .
C9A C11 1.390(4) .
C9A C12 1.396(4) .
C10 C13 1.380(4) .
C11 C18 1.403(4) .
C12 C14 1.405(4) .
C12 C13 1.492(4) .
C14 C15 1.383(5) .
C14 C16 1.501(4) .
C15 C18 1.379(5) .
C16 Zn1 2.570(3) 2_655
loop_
_geom_torsion_atom_site_label_1
_geom_torsion_atom_site_label_2
_geom_torsion_atom_site_label_3
_geom_torsion_atom_site_label_4
_geom_torsion
_geom_torsion_site_symmetry_1
_geom_torsion_site_symmetry_4
C3 N3 C1 C2 -0.8(5) . .
Zn1 N3 C1 C2 -179.4(3) 4_465 .
N3 C1 C2 C13 -1.0(6) . .
C1 N3 C3 C10 1.6(5) . .
Zn1 N3 C3 C10 -179.9(3) 4_465 .
Zn1 O2 C7 O14 -22.6(5) . .
Zn1 O2 C7 C11 158.6(2) . .
N3 C3 C10 C13 -0.6(5) . .
C12 C9A C11 C18 0.1(5) . .
C12 C9A C11 C7 -178.9(3) . .
O14 C7 C11 C9A -15.6(4) . .
O2 C7 C11 C9A 163.3(3) . .
O14 C7 C11 C18 165.4(3) . .
O2 C7 C11 C18 -15.8(4) . .
C11 C9A C12 C14 -5.1(5) . .
C11 C9A C12 C13 168.6(3) . .
C3 C10 C13 C2 -1.2(5) . .
C3 C10 C13 C12 -176.9(3) . .
C1 C2 C13 C10 1.9(5) . .
C1 C2 C13 C12 177.9(3) . .
C9A C12 C13 C10 46.9(5) . .
C14 C12 C13 C10 -139.5(3) . .
C9A C12 C13 C2 -128.8(3) . .
C14 C12 C13 C2 44.8(4) . .
C9A C12 C14 C15 7.4(5) . .
C13 C12 C14 C15 -166.4(3) . .
C9A C12 C14 C16 -168.2(3) . .
C13 C12 C14 C16 18.1(5) . .
C12 C14 C15 C18 -4.6(5) . .
C16 C14 C15 C18 171.1(3) . .
Zn1 O5 C16 O17 2.1(4) 2_655 .
Zn1 O5 C16 C14 -174.9(2) 2_655 .
C15 C14 C16 O17 -131.6(4) . .
C12 C14 C16 O17 44.0(5) . .
C15 C14 C16 O5 45.5(5) . .
C12 C14 C16 O5 -138.9(3) . .
C15 C14 C16 Zn1 31.1(11) . 2_655
C12 C14 C16 Zn1 -153.3(7) . 2_655
C14 C15 C18 C11 -0.5(6) . .
C9A C11 C18 C15 2.8(5) . .
C7 C11 C18 C15 -178.2(3) . .
