#------------------------------------------------------------------------------
#$Date: 2019-11-24 10:29:40 +0200 (Sun, 24 Nov 2019) $
#$Revision: 237638 $
#$URL: file:///home/coder/svn-repositories/cod/cif/7/23/73/7237381.cif $
#------------------------------------------------------------------------------
#
# This file is available in the Crystallography Open Database (COD),
# http://www.crystallography.net/
#
# All data on this site have been placed in the public domain by the
# contributors.
#
data_7237381
loop_
_publ_author_name
'Paliwoda, Damian'
'Szafra\'nski, Marek'
'Hanfland, Michael'
'Katrusiak, Andrzej'
_publ_section_title
;
 A giant 2-dimensional dielectric response in a compressed hydrogen-bonded
 hybrid organic--inorganic salt
;
_journal_issue                   28
_journal_name_full               'Journal of Materials Chemistry C'
_journal_page_first              7689
_journal_paper_doi               10.1039/C8TC02464B
_journal_volume                  6
_journal_year                    2018
_chemical_formula_moiety         'C4 H5 N2 Au Cl4'
_chemical_formula_sum            'C4 H5 Au Cl4 N2'
_chemical_formula_weight         419.87
_chemical_name_common            'pyrazinium tetrachloroaurate'
_chemical_name_systematic
; 
pyrazinium tetrachloroaurate 
;
_space_group_IT_number           138
_space_group_name_Hall           '-P 4ac 2ac'
_space_group_name_H-M_alt        'P 42/n c m :2'
_symmetry_cell_setting           tetragonal
_symmetry_space_group_name_Hall  '-P 4ac 2ac'
_symmetry_space_group_name_H-M   'P 42/n c m :2'
_atom_sites_solution_hydrogens   geom
_atom_sites_solution_primary     direct
_atom_sites_solution_secondary   difmap
_audit_creation_method           SHELXL-97
_audit_update_record
;
2017-04-07 deposited with the CCDC.
2018-06-28 downloaded from the CCDC.
;
_cell_angle_alpha                90.00
_cell_angle_beta                 90.00
_cell_angle_gamma                90.00
_cell_formula_units_Z            4
_cell_length_a                   7.2305(4)
_cell_length_b                   7.2305(4)
_cell_length_c                   14.50(3)
_cell_measurement_reflns_used    1252
_cell_measurement_temperature    296(2)
_cell_measurement_theta_max      36.03
_cell_measurement_theta_min      4.23
_cell_volume                     758.1(16)
_computing_cell_refinement       'CrysAlisRED (Oxford Diffraction, 2004)'
_computing_data_collection       'CrysAlisCCD (Oxford Diffraction, 2004)'
_computing_data_reduction        'CrysAlisRED (Oxford Diffraction, 2004)'
_computing_molecular_graphics    'SHELXTL (Sheldrick, 1990)'
_computing_publication_material  'SHELXL--97 (Sheldrick, 1997)'
_computing_structure_refinement  'SHELXL--97 (Sheldrick, 1997)'
_computing_structure_solution    'SHELXS--97 (Sheldrick, 1997)'
_diffrn_ambient_environment      'diamond-anvil cell'
_diffrn_ambient_pressure         9685000
_diffrn_ambient_temperature      296(2)
_diffrn_measured_fraction_theta_full 0.259
_diffrn_measured_fraction_theta_max 0.259
_diffrn_measurement_device_type  Serial
_diffrn_measurement_method       \w/2\q
_diffrn_radiation_monochromator  Si(111)
_diffrn_radiation_source         synchrotron
_diffrn_radiation_type           synchrotron
_diffrn_radiation_wavelength     0.41438
_diffrn_reflns_av_R_equivalents  0.0510
_diffrn_reflns_av_sigmaI/netI    0.0482
_diffrn_reflns_limit_h_max       11
_diffrn_reflns_limit_h_min       -11
_diffrn_reflns_limit_k_max       11
_diffrn_reflns_limit_k_min       -11
_diffrn_reflns_limit_l_max       6
_diffrn_reflns_limit_l_min       -6
_diffrn_reflns_number            1252
_diffrn_reflns_theta_full        36.03
_diffrn_reflns_theta_max         36.03
_diffrn_reflns_theta_min         4.23
_diffrn_standards_decay_%        0
_diffrn_standards_interval_count 0
_diffrn_standards_number         0
_exptl_absorpt_coefficient_mu    20.740
_exptl_crystal_colour            orange
_exptl_crystal_density_diffrn    3.679
_exptl_crystal_density_method    'not measured'
_exptl_crystal_description       plate
_exptl_crystal_F_000             760
_exptl_crystal_size_max          0.05
_exptl_crystal_size_mid          0.04
_exptl_crystal_size_min          0.02
_refine_diff_density_max         1.093
_refine_diff_density_min         -0.659
_refine_diff_density_rms         0.211
_refine_ls_extinction_method     none
_refine_ls_goodness_of_fit_ref   1.226
_refine_ls_hydrogen_treatment    constr
_refine_ls_matrix_type           full
_refine_ls_number_parameters     33
_refine_ls_number_reflns         254
_refine_ls_number_restraints     52
_refine_ls_restrained_S_all      1.114
_refine_ls_R_factor_all          0.1045
_refine_ls_R_factor_gt           0.0767
_refine_ls_shift/su_max          0.000
_refine_ls_shift/su_mean         0.000
_refine_ls_structure_factor_coef Fsqd
_refine_ls_weighting_details
'calc w=1/[\s^2^(Fo^2^)+(0.0522P)^2^+29.2231P] where P=(Fo^2^+2Fc^2^)/3'
_refine_ls_weighting_scheme      calc
_refine_ls_wR_factor_gt          0.1669
_refine_ls_wR_factor_ref         0.1940
_reflns_number_gt                195
_reflns_number_total             254
_reflns_threshold_expression     >2sigma(I)
_cod_data_source_file            c8tc02464b2.cif
_cod_data_source_block           pyrazinium_tetrachloroaurate_96_85kbar
_cod_original_cell_volume        758.0(13)
_cod_original_sg_symbol_H-M      'P 42/n c m'
_cod_database_code               7237381
loop_
_symmetry_equiv_pos_as_xyz
'x, y, z'
'-x+1/2, -y+1/2, z'
'-y+1/2, x, z+1/2'
'y, -x+1/2, z+1/2'
'-x, y+1/2, -z+1/2'
'x+1/2, -y, -z+1/2'
'y+1/2, x+1/2, -z'
'-y, -x, -z'
'-x, -y, -z'
'x-1/2, y-1/2, -z'
'y-1/2, -x, -z-1/2'
'-y, x-1/2, -z-1/2'
'x, -y-1/2, z-1/2'
'-x-1/2, y, z-1/2'
'-y-1/2, -x-1/2, z'
'y, x, z'
loop_
_atom_site_label
_atom_site_type_symbol
_atom_site_fract_x
_atom_site_fract_y
_atom_site_fract_z
_atom_site_U_iso_or_equiv
_atom_site_adp_type
_atom_site_occupancy
_atom_site_symmetry_multiplicity
_atom_site_calc_flag
_atom_site_refinement_flags
Au1 Au 0.2500 0.2500 0.2285(4) 0.039(2) Uani 1 4 d SU
Cl3 Cl 0.2500 0.2500 0.377(3) 0.045(3) Uani 1 4 d SU
Cl4 Cl 0.2500 0.2500 0.083(3) 0.050(3) Uani 1 4 d SU
N1 N 0.8786(5) 0.1214(5) 0.0000 0.046(5) Uani 1 2 d SDU
H1A H 0.9627 0.0373 0.0000 0.056 Uiso 0.50 2 calc SPR
C1 C 0.8174(17) 0.1807(16) 0.0812(7) 0.044(5) Uani 1 1 d DU
H1 H 0.8627 0.1318 0.1361 0.053 Uiso 1 1 calc R
Cl1 Cl 0.4708(8) 0.0292(8) 0.2194(14) 0.058(3) Uani 1 2 d SU
loop_
_atom_site_aniso_label
_atom_site_aniso_U_11
_atom_site_aniso_U_22
_atom_site_aniso_U_33
_atom_site_aniso_U_23
_atom_site_aniso_U_13
_atom_site_aniso_U_12
Au1 0.0379(7) 0.0379(7) 0.042(6) 0.000 0.000 0.0010(5)
Cl3 0.044(2) 0.044(2) 0.046(7) 0.000 0.000 0.002(3)
Cl4 0.051(3) 0.051(3) 0.047(7) 0.000 0.000 0.000(4)
N1 0.046(5) 0.046(5) 0.048(9) -0.001(5) -0.001(5) 0.007(6)
C1 0.043(6) 0.043(6) 0.046(9) -0.001(7) -0.001(7) -0.001(6)
Cl1 0.058(2) 0.058(2) 0.057(9) -0.004(3) 0.004(3) 0.013(3)
loop_
_atom_type_symbol
_atom_type_description
_atom_type_scat_dispersion_real
_atom_type_scat_dispersion_imag
_atom_type_scat_source
C C 0.0033 0.0016 'International Tables Vol C Tables 4.2.6.8 and 6.1.1.4'
H H 0.0000 0.0000 'International Tables Vol C Tables 4.2.6.8 and 6.1.1.4'
N N 0.0061 0.0033 'International Tables Vol C Tables 4.2.6.8 and 6.1.1.4'
Cl Cl 0.1484 0.1585 'International Tables Vol C Tables 4.2.6.8 and 6.1.1.4'
Au Au -2.0133 8.8022 'International Tables Vol C Tables 4.2.6.8 and 6.1.1.4'
loop_
_geom_angle_atom_site_label_1
_geom_angle_atom_site_label_2
_geom_angle_atom_site_label_3
_geom_angle
_geom_angle_site_symmetry_1
_geom_angle_site_symmetry_3
Cl4 Au1 Cl3 180.000(3) . .
Cl4 Au1 Cl1 86.7(5) . 2
Cl3 Au1 Cl1 93.3(5) . 2
Cl4 Au1 Cl1 86.7(5) . .
Cl3 Au1 Cl1 93.3(5) . .
Cl1 Au1 Cl1 173.3(10) 2 .
C1 N1 C1 124.8(7) 8_665 .
C1 C1 N1 117.6(4) 2_655 .
loop_
_geom_bond_atom_site_label_1
_geom_bond_atom_site_label_2
_geom_bond_distance
_geom_bond_site_symmetry_2
Au1 Cl4 2.10(4) .
Au1 Cl3 2.15(4) .
Au1 Cl1 2.262(8) 2
Au1 Cl1 2.262(8) .
N1 C1 1.329(9) 8_665
N1 C1 1.329(9) .
C1 C1 1.398(9) 2_655
loop_
_refln_index_h
_refln_index_k
_refln_index_l
_refln_F_squared_calc
_refln_F_squared_meas
_refln_F_squared_sigma
_refln_observed_status
3 5 0 21722.69 21036.29 329.03 o
5 5 0 14259.32 14844.65 303.49 o
0 6 0 16338.50 15420.28 249.29 o
2 6 0 20719.98 21085.66 298.85 o
4 6 0 11511.08 11564.24 275.59 o
6 6 0 6152.62 6445.67 390.47 o
1 7 0 14070.04 13342.73 238.14 o
3 7 0 12318.62 13142.64 247.28 o
5 7 0 3854.28 4015.85 175.58 o
0 8 0 7143.55 7010.47 192.30 o
2 8 0 5529.59 5788.35 222.66 o
4 8 0 3600.19 3949.48 199.05 o
1 9 0 4362.34 5369.28 218.35 o
3 9 0 2662.92 3279.93 149.54 o
5 9 0 1784.92 2021.73 203.69 o
0 10 0 1847.08 44.49 175.01 o
2 10 0 1434.63 1922.87 144.25 o
4 10 0 1211.81 1526.79 187.09 o
3 11 0 689.37 627.89 118.93 o
1 1 1 471.99 191.34 15.47 o
1 2 1 1095.83 1673.35 34.99 o
2 2 1 4102.29 5122.52 79.33 o
1 3 1 1757.14 2241.93 46.62 o
2 3 1 504.22 554.47 26.08 o
3 3 1 739.78 549.70 33.19 o
1 4 1 1287.56 1281.19 36.90 o
2 4 1 225.34 199.63 15.82 o
3 4 1 555.61 553.86 30.12 o
4 4 1 330.95 238.90 23.31 o
1 5 1 30.13 24.11 6.52 o
2 5 1 77.70 36.11 10.54 o
3 5 1 72.68 70.19 12.17 o
4 5 1 237.90 216.93 17.00 o
5 5 1 110.23 59.99 28.03 o
1 6 1 585.55 517.41 25.22 o
2 6 1 5.43 44.57 17.19 o
3 6 1 382.32 344.95 28.37 o
4 6 1 15.88 93.71 39.63 o
5 6 1 64.14 58.60 17.77 o
6 6 1 66.34 56.66 60.75 o
1 7 1 3.60 19.80 9.13 o
2 7 1 28.47 27.86 8.57 o
3 7 1 1.68 31.80 20.90 o
4 7 1 11.19 48.24 17.07 o
5 7 1 6.92 49.47 17.62 o
6 7 1 29.16 46.27 25.76 o
1 8 1 176.48 130.86 18.38 o
2 8 1 3.16 15.67 9.09 o
3 8 1 69.15 56.30 15.24 o
4 8 1 0.06 21.96 18.36 o
5 8 1 38.40 45.72 18.25 o
1 9 1 0.28 6.38 17.79 o
2 9 1 0.10 34.32 11.61 o
3 9 1 3.22 25.51 16.81 o
4 9 1 6.39 21.89 12.68 o
5 9 1 7.49 42.92 21.26 o
1 10 1 20.85 41.92 15.44 o
2 10 1 0.01 9.76 17.42 o
3 10 1 17.40 49.59 15.77 o
4 10 1 11.15 30.23 16.34 o
5 10 1 0.40 18.94 13.53 o
2 11 1 0.27 40.93 24.76 o
3 11 1 2.62 40.70 22.29 o
4 11 1 0.55 36.34 28.71 o
0 2 2 15295.30 18262.25 283.78 o
1 2 2 2967.52 3577.08 83.29 o
0 3 2 1415.48 1539.94 81.48 o
2 3 2 3557.17 3711.27 77.81 o
3 3 2 31410.09 30060.40 426.16 o
1 4 2 2235.65 2296.36 52.63 o
2 4 2 14455.47 14458.69 150.55 o
3 4 2 850.55 850.70 34.89 o
4 4 2 13931.18 13135.32 192.24 o
0 5 2 2255.44 2107.25 78.58 o
1 5 2 15257.46 13632.26 138.30 o
2 5 2 484.97 498.96 29.81 o
3 5 2 10821.62 9863.04 142.29 o
4 5 2 968.83 979.65 33.49 o
5 5 2 8721.42 9007.17 167.04 o
0 6 2 9821.48 9282.90 202.45 o
1 6 2 680.83 624.42 32.39 o
2 6 2 12095.02 10825.94 138.39 o
3 6 2 693.61 655.04 39.07 o
4 6 2 5359.14 5274.98 126.98 o
5 6 2 195.45 158.66 19.02 o
6 6 2 2496.28 2602.84 128.66 o
0 7 2 198.18 147.45 26.68 o
1 7 2 5627.82 5093.01 100.52 o
2 7 2 650.80 596.06 34.10 o
3 7 2 4976.47 5211.24 121.72 o
4 7 2 130.26 86.86 14.33 o
5 7 2 1916.93 2009.58 134.64 o
6 7 2 142.11 1677.79 248.26 o
0 8 2 3891.71 4071.12 137.30 o
1 8 2 246.11 240.86 22.03 o
2 8 2 3487.95 3442.28 111.48 o
3 8 2 152.17 99.23 19.71 o
4 8 2 2244.99 2459.22 96.70 o
5 8 2 113.24 100.53 22.48 o
6 8 2 1005.83 983.65 139.86 o
0 9 2 213.69 161.55 27.30 o
1 9 2 1967.96 2143.42 109.82 o
2 9 2 63.70 71.26 24.48 o
3 9 2 1084.20 1020.51 87.50 o
4 9 2 97.02 92.62 30.65 o
5 9 2 1086.73 1156.41 181.24 o
0 10 2 1201.52 1365.89 133.88 o
1 10 2 57.90 79.33 32.78 o
2 10 2 864.69 932.60 90.96 o
3 10 2 46.77 34.98 19.59 o
4 10 2 644.41 852.74 71.81 o
3 11 2 448.99 487.00 98.94 o
4 11 2 14.06 204.37 50.58 o
2 2 3 404.94 311.62 72.50 o
1 3 3 442.11 216.88 33.94 o
2 3 3 282.77 327.86 32.42 o
3 3 3 617.57 419.11 40.56 o
1 4 3 817.39 808.22 44.53 o
2 4 3 12.92 8.03 5.92 o
3 4 3 351.80 322.00 22.43 o
4 4 3 40.38 30.88 12.51 o
1 5 3 28.49 21.39 8.13 o
2 5 3 66.17 35.56 9.15 o
3 5 3 137.97 73.09 13.58 o
4 5 3 137.23 77.68 14.64 o
5 5 3 29.81 23.01 8.73 o
1 6 3 369.56 269.05 23.06 o
2 6 3 118.36 39.84 7.02 o
3 6 3 259.01 196.72 24.58 o
4 6 3 44.95 26.21 7.60 o
5 6 3 45.69 39.12 10.76 o
6 6 3 0.39 18.68 20.20 o
1 7 3 23.81 39.25 11.01 o
2 7 3 13.72 15.55 5.63 o
3 7 3 0.56 29.98 12.47 o
4 7 3 13.98 23.44 6.65 o
5 7 3 6.02 62.15 34.00 o
6 7 3 15.55 1.14 3.75 o
1 8 3 116.93 73.82 19.99 o
2 8 3 10.53 19.70 15.25 o
3 8 3 44.39 42.91 22.85 o
4 8 3 6.92 25.18 15.53 o
5 8 3 26.68 62.92 21.71 o
1 9 3 0.96 20.96 20.27 o
2 9 3 0.39 43.51 23.82 o
3 9 3 5.03 20.68 15.12 o
4 9 3 2.61 45.56 23.55 o
5 9 3 6.27 9.91 19.67 o
1 10 3 14.21 44.17 25.03 o
2 10 3 0.69 38.50 18.08 o
3 10 3 11.39 16.88 17.21 o
4 10 3 1.68 81.53 68.51 o
2 11 3 0.14 144.58 82.78 o
3 11 3 0.51 13.85 53.51 o
4 11 3 0.18 173.23 122.97 o
3 3 4 10372.75 10956.71 335.53 o
0 4 4 14797.54 16594.60 602.26 o
1 4 4 4980.45 5402.17 227.89 o
2 4 4 6278.17 5903.77 255.62 o
3 4 4 1939.01 2107.72 98.54 o
4 4 4 9236.01 9440.75 257.84 o
0 5 4 5833.81 5952.75 267.82 o
1 5 4 7919.69 7876.93 268.93 o
2 5 4 1201.24 1137.58 91.80 o
3 5 4 3956.72 3739.73 149.07 o
4 5 4 2658.16 2709.49 103.80 o
5 5 4 3736.20 3963.08 176.91 o
0 6 4 4815.37 4697.07 193.00 o
1 6 4 1713.40 1733.40 90.31 o
2 6 4 5872.40 5930.15 198.66 o
3 6 4 1825.36 1887.60 110.83 o
4 6 4 2309.18 2209.68 85.59 o
5 6 4 547.80 422.37 38.34 o
6 6 4 1128.17 1365.14 116.53 o
0 7 4 530.27 548.62 70.51 o
1 7 4 2033.05 2170.35 87.33 o
2 7 4 1863.78 1900.73 92.84 o
3 7 4 2810.49 3017.05 151.83 o
4 7 4 403.83 291.25 36.76 o
5 7 4 1178.07 1048.41 71.12 o
6 7 4 457.60 560.88 98.98 o
0 8 4 2591.23 2991.75 190.53 o
1 8 4 733.61 716.99 52.98 o
2 8 4 1647.91 1679.94 76.95 o
3 8 4 451.63 477.66 189.77 o
4 8 4 798.75 836.11 101.32 o
5 8 4 346.05 393.10 56.28 o
0 9 4 636.05 659.63 82.46 o
1 9 4 853.18 948.59 68.75 o
2 9 4 199.44 89.85 20.24 o
3 9 4 638.84 597.46 99.43 o
4 9 4 322.31 266.30 65.09 o
5 9 4 579.30 707.20 121.33 o
0 10 4 564.64 650.21 93.71 o
1 10 4 204.13 209.14 80.23 o
2 10 4 432.16 401.06 70.98 o
3 10 4 161.67 147.28 51.38 o
4 10 4 353.60 311.42 89.38 o
5 10 4 90.88 122.97 56.66 o
2 11 4 118.67 1.15 43.96 o
3 11 4 200.38 51.83 72.19 o
4 11 4 52.16 64.74 59.07 o
4 4 5 33.93 24.03 32.74 o
1 5 5 694.78 372.58 111.53 o
2 5 5 20.75 6.92 14.16 o
3 5 5 17.90 47.00 46.06 o
4 5 5 57.26 139.50 36.89 o
5 5 5 19.66 68.12 43.40 o
1 6 5 136.78 64.97 27.74 o
2 6 5 46.14 32.17 21.42 o
3 6 5 91.71 89.54 34.90 o
4 6 5 157.22 81.07 28.11 o
5 6 5 19.06 14.20 22.24 o
6 6 5 45.06 25.31 16.99 o
1 7 5 0.70 20.80 14.93 o
2 7 5 7.33 17.14 12.68 o
3 7 5 6.84 1.05 13.95 o
4 7 5 4.30 61.07 49.42 o
6 7 5 8.27 29.29 33.30 o
1 8 5 43.44 43.88 37.63 o
2 8 5 2.56 31.46 33.21 o
4 8 5 28.73 174.17 97.89 o
1 9 5 16.15 111.00 110.48 o
2 9 5 0.11 22.06 23.67 o
3 9 5 12.09 2.20 78.80 o
4 9 5 1.99 55.71 64.21 o
1 10 5 5.74 169.14 87.72 o
2 10 5 24.57 2751.08 426.09 o
3 10 5 4.65 31.58 53.83 o
4 10 5 0.34 5.14 47.32 o
4 11 5 0.07 1861.65 331.77 o
5 6 6 2192.35 1914.63 375.20 o
6 6 6 2078.88 2555.29 274.37 o
0 7 6 2700.48 2307.57 350.55 o
1 7 6 5299.70 4755.10 341.97 o
2 7 6 5394.01 5303.44 350.46 o
3 7 6 2965.96 2835.73 195.58 o
4 7 6 1691.51 1739.10 181.44 o
5 7 6 994.09 1563.72 585.26 o
6 7 6 1354.29 1632.15 175.17 o
0 8 6 1384.63 1375.43 292.11 o
1 8 6 2458.08 2398.60 273.73 o
2 8 6 1495.70 1449.46 176.77 o
3 8 6 1593.74 1606.25 189.62 o
4 8 6 1452.95 1041.78 239.43 o
5 8 6 1074.38 1607.21 278.57 o
6 8 6 733.20 954.17 165.04 o
1 9 6 1470.55 1243.55 274.37 o
2 9 6 796.69 383.18 161.06 o
3 9 6 761.66 856.17 220.97 o
4 9 6 911.57 1486.13 315.40 o
5 9 6 444.04 742.43 192.64 o
3 10 6 484.32 625.97 203.03 o
4 10 6 325.60 452.32 182.25 o
