#------------------------------------------------------------------------------
#$Date: 2019-11-24 10:29:40 +0200 (Sun, 24 Nov 2019) $
#$Revision: 237638 $
#$URL: file:///home/coder/svn-repositories/cod/cif/7/23/73/7237385.cif $
#------------------------------------------------------------------------------
#
# This file is available in the Crystallography Open Database (COD),
# http://www.crystallography.net/
#
# All data on this site have been placed in the public domain by the
# contributors.
#
data_7237385
loop_
_publ_author_name
'Paliwoda, Damian'
'Szafra\'nski, Marek'
'Hanfland, Michael'
'Katrusiak, Andrzej'
_publ_section_title
;
 A giant 2-dimensional dielectric response in a compressed hydrogen-bonded
 hybrid organic--inorganic salt
;
_journal_issue                   28
_journal_name_full               'Journal of Materials Chemistry C'
_journal_page_first              7689
_journal_paper_doi               10.1039/C8TC02464B
_journal_volume                  6
_journal_year                    2018
_chemical_formula_moiety         'C4 H5 N2 Au Cl4'
_chemical_formula_sum            'C4 H5 Au Cl4 N2'
_chemical_formula_weight         419.87
_chemical_name_common            'pyrazinium tetrachloroaurate'
_chemical_name_systematic
; 
pyrazinium tetrachloroaurate 
;
_space_group_IT_number           138
_space_group_name_Hall           '-P 4ac 2ac'
_space_group_name_H-M_alt        'P 42/n c m :2'
_symmetry_cell_setting           tetragonal
_symmetry_space_group_name_Hall  '-P 4ac 2ac'
_symmetry_space_group_name_H-M   'P 42/n c m :2'
_atom_sites_solution_hydrogens   geom
_atom_sites_solution_primary     direct
_atom_sites_solution_secondary   difmap
_audit_creation_method           SHELXL-97
_audit_update_record
;
2017-04-07 deposited with the CCDC.
2018-06-28 downloaded from the CCDC.
;
_cell_angle_alpha                90.00
_cell_angle_beta                 90.00
_cell_angle_gamma                90.00
_cell_formula_units_Z            4
_cell_length_a                   7.89140(10)
_cell_length_b                   7.89140(10)
_cell_length_c                   15.8623(3)
_cell_measurement_reflns_used    14347
_cell_measurement_temperature    296(2)
_cell_measurement_theta_max      34.79
_cell_measurement_theta_min      2.57
_cell_volume                     987.81(3)
_computing_cell_refinement       'CrysAlisRED (Oxford Diffraction, 2004)'
_computing_data_collection       'CrysAlisCCD (Oxford Diffraction, 2004)'
_computing_data_reduction        'CrysAlisRED (Oxford Diffraction, 2004)'
_computing_molecular_graphics    'SHELXTL (Sheldrick, 1990)'
_computing_publication_material  'SHELXL--97 (Sheldrick, 1997)'
_computing_structure_refinement  'SHELXL--97 (Sheldrick, 1997)'
_computing_structure_solution    'SHELXS--97 (Sheldrick, 1997)'
_diffrn_ambient_temperature      296(2)
_diffrn_measured_fraction_theta_full 0.986
_diffrn_measured_fraction_theta_max 0.986
_diffrn_measurement_device_type  'KM-4 CCD'
_diffrn_measurement_method       \w-scans
_diffrn_radiation_monochromator  graphite
_diffrn_radiation_source         'fine-focus sealed tube'
_diffrn_radiation_type           MoK\a
_diffrn_radiation_wavelength     0.71073
_diffrn_reflns_av_R_equivalents  0.0586
_diffrn_reflns_av_sigmaI/netI    0.0217
_diffrn_reflns_limit_h_max       12
_diffrn_reflns_limit_h_min       -12
_diffrn_reflns_limit_k_max       12
_diffrn_reflns_limit_k_min       -12
_diffrn_reflns_limit_l_max       24
_diffrn_reflns_limit_l_min       -23
_diffrn_reflns_number            14347
_diffrn_reflns_theta_full        34.79
_diffrn_reflns_theta_max         34.79
_diffrn_reflns_theta_min         2.57
_diffrn_standards_decay_%        0
_diffrn_standards_interval_count 0
_diffrn_standards_number         0
_exptl_absorpt_coefficient_mu    15.914
_exptl_absorpt_correction_T_max  0.041
_exptl_absorpt_correction_T_min  0.031
_exptl_absorpt_correction_type   numerical
_exptl_absorpt_process_details
; 
 Correction for absorption was made using XEMP (SHELXTL, 
 Sheldrick (1990)).
;
_exptl_crystal_colour            orange
_exptl_crystal_density_diffrn    2.823
_exptl_crystal_density_method    'not measured'
_exptl_crystal_description       plate
_exptl_crystal_F_000             760
_exptl_crystal_size_max          0.50
_exptl_crystal_size_mid          0.20
_exptl_crystal_size_min          0.20
_refine_diff_density_max         5.083
_refine_diff_density_min         -2.307
_refine_diff_density_rms         0.238
_refine_ls_extinction_method     none
_refine_ls_goodness_of_fit_ref   1.061
_refine_ls_hydrogen_treatment    constr
_refine_ls_matrix_type           full
_refine_ls_number_parameters     33
_refine_ls_number_reflns         1145
_refine_ls_number_restraints     0
_refine_ls_restrained_S_all      1.061
_refine_ls_R_factor_all          0.0478
_refine_ls_R_factor_gt           0.0333
_refine_ls_shift/su_max          0.000
_refine_ls_shift/su_mean         0.000
_refine_ls_structure_factor_coef Fsqd
_refine_ls_weighting_details
'calc w=1/[\s^2^(Fo^2^)+(0.0559P)^2^+1.1700P] where P=(Fo^2^+2Fc^2^)/3'
_refine_ls_weighting_scheme      calc
_refine_ls_wR_factor_gt          0.0895
_refine_ls_wR_factor_ref         0.1002
_reflns_number_gt                811
_reflns_number_total             1145
_reflns_threshold_expression     >2sigma(I)
_cod_data_source_file            c8tc02464b2.cif
_cod_data_source_block           pyrazinium_tetrachloroaurate_296K
_cod_original_sg_symbol_H-M      'P 42/n c m'
_cod_database_code               7237385
loop_
_symmetry_equiv_pos_as_xyz
'x, y, z'
'-x+1/2, -y+1/2, z'
'-y+1/2, x, z+1/2'
'y, -x+1/2, z+1/2'
'-x, y+1/2, -z+1/2'
'x+1/2, -y, -z+1/2'
'y+1/2, x+1/2, -z'
'-y, -x, -z'
'-x, -y, -z'
'x-1/2, y-1/2, -z'
'y-1/2, -x, -z-1/2'
'-y, x-1/2, -z-1/2'
'x, -y-1/2, z-1/2'
'-x-1/2, y, z-1/2'
'-y-1/2, -x-1/2, z'
'y, x, z'
loop_
_atom_site_label
_atom_site_type_symbol
_atom_site_fract_x
_atom_site_fract_y
_atom_site_fract_z
_atom_site_U_iso_or_equiv
_atom_site_adp_type
_atom_site_occupancy
_atom_site_symmetry_multiplicity
_atom_site_calc_flag
_atom_site_refinement_flags
Au1 Au 1.2500 0.2500 0.26286(2) 0.02303(12) Uani 1 4 d S
Cl1 Cl 1.04552(15) 0.04552(15) 0.26482(10) 0.0426(4) Uani 1 2 d S
Cl2 Cl 1.2500 0.2500 0.40701(18) 0.0347(5) Uani 1 4 d S
Cl3 Cl 1.2500 0.2500 0.11899(18) 0.0365(5) Uani 1 4 d S
N1 N 0.8712(4) 0.1288(4) 0.0000 0.0316(10) Uani 1 2 d S
H1A H 0.9482 0.0518 0.0000 0.038 Uiso 0.50 2 calc SPR
C1 C 0.8130(6) 0.1875(6) 0.0721(3) 0.0351(9) Uani 1 1 d .
H1 H 0.8555 0.1463 0.1228 0.042 Uiso 1 1 calc R
loop_
_atom_site_aniso_label
_atom_site_aniso_U_11
_atom_site_aniso_U_22
_atom_site_aniso_U_33
_atom_site_aniso_U_23
_atom_site_aniso_U_13
_atom_site_aniso_U_12
Au1 0.02275(13) 0.02275(13) 0.0236(2) 0.000 0.000 0.00014(9)
Cl1 0.0433(6) 0.0433(6) 0.0411(8) 0.0002(4) 0.0002(4) -0.0187(7)
Cl2 0.0400(7) 0.0400(7) 0.0242(10) 0.000 0.000 0.0013(8)
Cl3 0.0426(8) 0.0426(8) 0.0244(11) 0.000 0.000 -0.0024(8)
N1 0.0264(15) 0.0264(15) 0.042(3) 0.0016(16) 0.0016(16) 0.0080(19)
C1 0.0326(19) 0.035(2) 0.038(2) 0.004(2) -0.004(2) 0.008(2)
loop_
_atom_type_symbol
_atom_type_description
_atom_type_scat_dispersion_real
_atom_type_scat_dispersion_imag
_atom_type_scat_source
C C 0.0033 0.0016 'International Tables Vol C Tables 4.2.6.8 and 6.1.1.4'
H H 0.0000 0.0000 'International Tables Vol C Tables 4.2.6.8 and 6.1.1.4'
N N 0.0061 0.0033 'International Tables Vol C Tables 4.2.6.8 and 6.1.1.4'
Cl Cl 0.1484 0.1585 'International Tables Vol C Tables 4.2.6.8 and 6.1.1.4'
Au Au -2.0133 8.8022 'International Tables Vol C Tables 4.2.6.8 and 6.1.1.4'
loop_
_geom_angle_atom_site_label_1
_geom_angle_atom_site_label_2
_geom_angle_atom_site_label_3
_geom_angle
_geom_angle_site_symmetry_1
_geom_angle_site_symmetry_3
Cl2 Au1 Cl3 180.0 . .
Cl2 Au1 Cl1 89.22(4) . 2_755
Cl3 Au1 Cl1 90.78(4) . 2_755
Cl2 Au1 Cl1 89.22(4) . .
Cl3 Au1 Cl1 90.78(4) . .
Cl1 Au1 Cl1 178.44(8) 2_755 .
C1 N1 C1 120.6(6) . 8_665
N1 C1 C1 119.7(3) . 2_655
loop_
_geom_bond_atom_site_label_1
_geom_bond_atom_site_label_2
_geom_bond_distance
_geom_bond_site_symmetry_2
Au1 Cl2 2.287(3) .
Au1 Cl3 2.282(3) .
Au1 Cl1 2.2823(16) 2_755
Au1 Cl1 2.2823(16) .
N1 C1 1.316(5) .
N1 C1 1.316(5) 8_665
C1 C1 1.401(10) 2_655
loop_
_refln_index_h
_refln_index_k
_refln_index_l
_refln_F_squared_calc
_refln_F_squared_meas
_refln_F_squared_sigma
_refln_observed_status
1 1 0 101564.97 95492.56 983.56 o
0 2 0 122317.17 114196.78 906.61 o
2 2 0 192698.83 180342.05 2086.05 o
1 3 0 99233.20 96084.95 503.18 o
3 3 0 87603.79 85574.24 887.34 o
0 4 0 81734.28 80643.81 815.88 o
2 4 0 59934.96 58863.96 469.42 o
4 4 0 54971.14 54370.68 514.19 o
1 5 0 76875.63 75930.96 485.09 o
3 5 0 30504.94 30461.14 249.53 o
5 5 0 36541.06 38302.88 519.75 o
0 6 0 36702.23 36522.75 446.68 o
2 6 0 30558.51 31635.49 333.20 o
4 6 0 30320.05 31108.42 369.23 o
6 6 0 14909.39 15646.22 315.87 o
1 7 0 28326.54 27323.34 373.02 o
3 7 0 32655.42 33937.66 388.55 o
5 7 0 10789.50 11296.60 220.44 o
7 7 0 9354.49 10486.29 329.99 o
0 8 0 14243.71 14240.20 312.02 o
2 8 0 19416.88 20040.82 366.40 o
4 8 0 9524.98 9913.60 238.27 o
6 8 0 10076.16 10702.16 217.39 o
8 8 0 6051.24 6591.15 328.67 o
1 9 0 14601.08 14986.09 257.89 o
3 9 0 9918.33 10043.33 211.80 o
5 9 0 8667.38 9473.48 271.07 o
7 9 0 3030.63 3483.46 168.34 o
0 10 0 9923.66 10456.02 321.15 o
2 10 0 5294.52 5552.07 207.43 o
4 10 0 6648.21 7370.17 222.60 o
6 10 0 4294.66 4862.17 184.81 o
1 11 0 5461.79 5711.89 227.20 o
3 11 0 4438.75 4794.49 190.10 o
5 11 0 2608.37 2839.24 138.23 o
0 12 0 2234.47 2387.02 300.13 o
2 12 0 3458.68 3661.69 221.25 o
1 1 1 895.29 1028.38 23.95 o
1 2 1 2932.85 3151.00 31.89 o
2 2 1 4950.54 5101.63 80.84 o
1 3 1 1614.73 1691.55 24.34 o
2 3 1 902.60 971.57 23.22 o
3 3 1 1753.11 1813.47 42.12 o
1 4 1 3350.99 3439.06 46.06 o
2 4 1 506.74 545.79 19.10 o
3 4 1 1177.24 1208.90 32.73 o
4 4 1 659.90 686.98 31.08 o
1 5 1 0.07 9.33 5.99 o
2 5 1 70.34 64.00 8.94 o
3 5 1 81.01 81.34 9.33 o
4 5 1 73.17 73.11 11.91 o
5 5 1 259.55 276.59 30.99 o
1 6 1 1478.94 1455.35 35.18 o
2 6 1 4.32 8.72 10.68 o
3 6 1 482.06 506.49 26.19 o
4 6 1 42.93 62.95 21.06 o
5 6 1 6.75 34.56 11.29 o
6 6 1 238.87 281.69 36.15 o
1 7 1 32.21 35.25 9.62 o
2 7 1 9.45 12.28 13.38 o
3 7 1 0.46 21.04 16.26 o
4 7 1 42.92 30.15 10.62 o
5 7 1 36.41 26.19 14.82 o
6 7 1 83.75 90.61 15.16 o
7 7 1 7.93 18.68 25.74 o
1 8 1 288.57 295.37 21.49 o
2 8 1 5.25 17.61 12.20 o
3 8 1 61.21 57.89 14.80 o
4 8 1 7.89 42.48 12.34 o
5 8 1 11.59 34.55 11.38 o
6 8 1 0.13 16.88 12.83 o
7 8 1 69.47 62.23 14.32 o
8 8 1 3.92 -1.46 23.85 o
1 9 1 5.73 51.24 14.02 o
2 9 1 38.89 12.57 21.70 o
3 9 1 1.33 27.26 13.32 o
4 9 1 105.26 140.33 20.71 o
5 9 1 17.74 44.50 16.29 o
6 9 1 107.13 111.85 20.12 o
7 9 1 26.86 30.09 14.44 o
8 9 1 58.32 28.66 19.99 o
1 10 1 9.69 16.65 16.13 o
2 10 1 7.19 26.02 15.38 o
3 10 1 0.93 -12.61 18.87 o
4 10 1 14.23 52.36 17.95 o
5 10 1 20.23 36.77 15.28 o
6 10 1 41.43 38.70 15.10 o
7 10 1 33.18 50.21 38.72 o
1 11 1 0.00 26.04 24.81 o
2 11 1 22.92 4.57 15.59 o
3 11 1 2.27 34.17 14.53 o
4 11 1 52.18 57.55 18.02 o
5 11 1 43.71 47.21 18.98 o
6 11 1 44.30 22.54 47.09 o
1 12 1 4.06 29.25 36.28 o
2 12 1 2.94 54.09 18.91 o
3 12 1 6.84 1.74 32.05 o
4 12 1 15.68 29.16 24.30 o
0 0 2 80001.86 57385.30 687.09 o
0 1 2 2380.18 2418.49 23.30 o
1 1 2 107368.19 104040.96 861.21 o
0 2 2 16998.62 17274.78 89.96 o
1 2 2 1210.43 1270.89 15.00 o
2 2 2 72367.09 72359.15 696.50 o
0 3 2 593.85 641.72 19.77 o
1 3 2 38773.53 39785.52 234.34 o
2 3 2 1839.69 1844.14 26.79 o
3 3 2 55659.64 56753.29 320.53 o
0 4 2 62161.42 62310.48 346.12 o
1 4 2 1169.48 1207.16 26.31 o
2 4 2 28911.12 29263.57 218.31 o
3 4 2 618.98 625.70 22.22 o
4 4 2 20280.33 20365.88 173.17 o
0 5 2 1437.70 1449.73 46.48 o
1 5 2 27810.18 28025.39 184.21 o
2 5 2 381.03 379.67 16.51 o
3 5 2 15955.48 16309.05 119.82 o
4 5 2 686.09 682.72 25.74 o
5 5 2 26369.67 27552.01 308.10 o
0 6 2 27361.93 27736.89 229.28 o
1 6 2 595.33 630.60 26.80 o
2 6 2 19432.48 19929.29 175.36 o
3 6 2 506.59 523.66 24.82 o
4 6 2 16846.60 17506.70 175.06 o
5 6 2 361.64 394.40 26.73 o
6 6 2 7481.50 8097.48 184.66 o
0 7 2 248.60 228.15 23.83 o
1 7 2 12449.17 12610.09 133.42 o
2 7 2 575.64 595.69 30.32 o
3 7 2 16192.17 17091.01 158.12 o
4 7 2 268.89 245.92 21.34 o
5 7 2 5356.58 5588.77 107.51 o
6 7 2 173.29 198.04 20.56 o
7 7 2 8157.77 8749.05 211.16 o
0 8 2 8120.18 8176.00 165.36 o
1 8 2 300.09 237.83 18.90 o
2 8 2 14363.03 15104.26 157.38 o
3 8 2 314.87 316.91 24.57 o
4 8 2 7340.07 7683.96 124.19 o
5 8 2 140.47 126.51 15.36 o
6 8 2 5447.34 5962.91 124.29 o
7 8 2 160.09 164.75 19.87 o
8 8 2 2287.92 2649.18 138.00 o
0 9 2 272.34 255.45 26.44 o
1 9 2 8079.78 8395.79 121.12 o
2 9 2 172.52 128.67 22.61 o
3 9 2 4311.74 4541.11 104.15 o
4 9 2 154.92 173.39 22.56 o
5 9 2 5571.43 6187.37 135.72 o
6 9 2 134.22 160.34 21.42 o
7 9 2 3229.69 3529.79 114.43 o
8 9 2 45.31 26.48 21.97 o
0 10 2 7432.56 7943.50 206.31 o
1 10 2 165.23 148.67 24.14 o
2 10 2 3809.44 3937.57 111.39 o
3 10 2 96.17 81.47 21.21 o
4 10 2 4558.78 4909.95 125.14 o
5 10 2 127.37 125.32 21.29 o
6 10 2 2247.43 2492.64 92.75 o
7 10 2 40.18 54.45 36.57 o
0 11 2 100.05 53.97 42.17 o
1 11 2 2941.76 3149.69 125.10 o
2 11 2 88.74 61.82 27.19 o
3 11 2 3199.02 3392.74 112.88 o
4 11 2 85.97 72.07 27.96 o
5 11 2 2344.73 2545.27 91.90 o
6 11 2 40.23 -14.01 60.89 o
0 12 2 1972.57 2048.07 252.97 o
1 12 2 57.04 37.11 33.24 o
2 12 2 2449.42 2755.24 134.21 o
3 12 2 66.49 84.71 32.82 o
1 1 3 2533.92 2894.81 31.14 o
1 2 3 2294.59 2441.30 22.78 o
2 2 3 778.48 832.99 24.05 o
1 3 3 8.15 23.33 4.40 o
2 3 3 719.88 736.07 16.46 o
3 3 3 536.19 591.58 25.85 o
1 4 3 2797.58 2858.70 39.28 o
2 4 3 147.89 163.36 9.90 o
3 4 3 1007.78 1054.01 25.63 o
4 4 3 39.17 30.41 20.95 o
1 5 3 11.88 16.40 5.30 o
2 5 3 67.14 67.96 7.76 o
3 5 3 5.95 8.21 8.27 o
4 5 3 56.44 70.70 9.47 o
5 5 3 16.74 19.30 14.78 o
1 6 3 1279.97 1284.54 36.08 o
2 6 3 250.41 274.88 15.84 o
3 6 3 412.67 425.00 21.04 o
4 6 3 66.61 52.82 11.93 o
5 6 3 7.13 13.57 8.89 o
6 6 3 3.18 -9.50 24.12 o
1 7 3 2.02 8.35 10.73 o
2 7 3 9.33 3.80 7.25 o
3 7 3 51.22 58.08 11.79 o
4 7 3 31.79 31.66 11.25 o
5 7 3 59.42 42.92 12.77 o
6 7 3 80.49 88.79 15.48 o
7 7 3 5.55 29.28 17.24 o
1 8 3 248.20 244.15 16.86 o
2 8 3 2.13 11.67 17.12 o
3 8 3 55.29 40.38 14.27 o
4 8 3 14.25 36.86 15.87 o
5 8 3 10.33 -9.35 12.79 o
6 8 3 9.40 7.37 15.00 o
7 8 3 58.38 36.02 22.45 o
8 8 3 7.53 1.38 15.22 o
1 9 3 3.81 13.23 10.08 o
2 9 3 31.39 21.58 21.27 o
3 9 3 29.79 30.10 16.04 o
4 9 3 100.59 108.64 26.11 o
5 9 3 8.22 19.28 18.56 o
6 9 3 85.14 85.92 18.27 o
7 9 3 7.77 28.78 13.17 o
8 9 3 54.56 102.76 22.52 o
1 10 3 8.17 -9.65 17.63 o
2 10 3 8.23 20.35 13.78 o
3 10 3 0.63 7.16 20.54 o
4 10 3 0.21 12.53 24.56 o
5 10 3 18.16 5.85 16.66 o
6 10 3 27.35 15.10 22.50 o
7 10 3 29.38 29.98 65.60 o
1 11 3 21.15 11.88 25.39 o
2 11 3 23.28 23.93 23.02 o
3 11 3 0.00 27.90 27.74 o
4 11 3 40.45 16.76 12.46 o
5 11 3 7.00 -2.84 16.41 o
1 12 3 3.05 -22.60 22.60 o
2 12 3 0.07 35.53 17.96 o
3 12 3 7.02 -6.57 35.20 o
0 0 4 84220.56 84913.84 1397.10 o
0 1 4 4475.99 4597.92 41.77 o
1 1 4 29538.82 29462.59 122.93 o
0 2 4 6671.07 6523.97 55.33 o
1 2 4 2086.29 2169.70 21.39 o
2 2 4 40351.51 40295.25 250.47 o
0 3 4 971.03 1009.15 25.34 o
1 3 4 24126.29 24542.53 104.52 o
2 3 4 4227.59 4365.06 46.79 o
3 3 4 25460.62 25650.54 201.54 o
0 4 4 21548.75 21708.67 158.01 o
1 4 4 2475.31 2561.42 37.50 o
2 4 4 14315.57 14328.21 94.87 o
3 4 4 1244.75 1282.30 34.05 o
4 4 4 17317.00 17151.39 256.46 o
0 5 4 3589.71 3595.54 72.12 o
1 5 4 20567.24 20851.17 136.63 o
2 5 4 743.86 758.29 22.99 o
3 5 4 6490.28 6642.97 75.21 o
4 5 4 1677.30 1574.35 38.84 o
5 5 4 14083.98 14703.79 244.77 o
0 6 4 14391.67 14439.08 174.78 o
1 6 4 1318.99 1344.69 36.29 o
2 6 4 10816.85 11146.42 101.96 o
3 6 4 1137.90 1162.12 32.39 o
4 6 4 10885.48 11122.95 153.31 o
5 6 4 856.52 876.27 43.80 o
6 6 4 4576.88 4881.30 153.66 o
0 7 4 519.57 540.88 32.43 o
1 7 4 6596.50 6719.91 91.99 o
2 7 4 1477.64 1477.11 40.22 o
3 7 4 11710.43 12395.52 137.39 o
4 7 4 641.87 653.19 32.93 o
5 7 4 3917.14 4072.15 91.79 o
6 7 4 418.42 439.45 37.49 o
7 7 4 5012.44 5547.23 188.29 o
0 8 4 6436.53 6520.19 130.23 o
1 8 4 684.16 712.31 30.41 o
2 8 4 9096.68 9493.54 131.18 o
3 8 4 771.99 794.80 41.59 o
4 8 4 3203.53 3465.41 98.29 o
5 8 4 325.74 311.66 28.66 o
6 8 4 3716.72 3967.10 110.35 o
7 8 4 429.96 464.23 40.08 o
8 8 4 2415.16 2758.61 132.57 o
0 9 4 720.41 683.93 48.89 o
1 9 4 4635.05 4895.01 98.12 o
2 9 4 422.30 394.19 28.10 o
3 9 4 3550.99 3745.84 99.18 o
4 9 4 384.85 421.42 35.07 o
5 9 4 4407.61 4679.75 118.97 o
6 9 4 359.42 339.45 34.07 o
7 9 4 1733.20 1913.77 85.85 o
8 9 4 118.19 102.43 29.16 o
0 10 4 5292.66 5585.26 163.90 o
1 10 4 411.74 327.31 29.65 o
2 10 4 2362.34 2428.49 84.43 o
3 10 4 237.66 193.95 18.79 o
4 10 4 3022.89 3321.59 103.93 o
5 10 4 354.68 354.42 35.74 o
6 10 4 1832.12 2098.20 92.22 o
7 10 4 102.83 64.15 52.70 o
0 11 4 264.23 162.95 48.13 o
1 11 4 2360.44 2423.47 98.26 o
2 11 4 229.41 166.23 27.35 o
3 11 4 2117.16 2229.32 92.24 o
4 11 4 228.00 231.13 26.87 o
5 11 4 1396.85 1546.20 92.81 o
0 12 4 1027.02 1122.11 146.37 o
1 12 4 156.32 84.81 50.67 o
2 12 4 1790.98 1987.31 145.08 o
3 12 4 190.52 121.05 73.90 o
1 1 5 692.37 697.39 17.93 o
1 2 5 1465.27 1522.42 19.89 o
2 2 5 362.51 396.84 16.80 o
1 3 5 451.01 470.35 13.66 o
2 3 5 493.70 506.80 15.11 o
3 3 5 239.93 256.20 20.12 o
1 4 5 1932.91 1931.94 31.43 o
2 4 5 555.96 597.57 19.14 o
3 4 5 751.29 738.21 23.97 o
4 4 5 0.18 22.44 12.47 o
1 5 5 198.56 197.52 10.56 o
2 5 5 48.35 40.69 6.20 o
3 5 5 321.56 316.72 17.44 o
4 5 5 40.58 43.92 6.75 o
5 5 5 1.45 9.44 17.39 o
1 6 5 957.80 963.73 29.44 o
2 6 5 77.34 70.32 10.03 o
3 6 5 296.16 305.02 20.11 o
4 6 5 416.75 453.72 28.54 o
5 6 5 7.62 3.35 8.95 o
6 6 5 152.91 157.14 32.84 o
1 7 5 149.65 145.50 11.80 o
2 7 5 8.06 11.03 7.06 o
3 7 5 7.71 16.10 8.51 o
4 7 5 23.51 24.15 10.21 o
5 7 5 1.79 14.12 9.87 o
6 7 5 62.71 90.28 18.19 o
7 7 5 29.43 64.60 31.78 o
1 8 5 188.00 162.40 14.69 o
2 8 5 49.71 52.47 16.06 o
3 8 5 45.46 42.94 13.08 o
4 8 5 43.30 60.94 18.52 o
5 8 5 11.19 8.78 20.65 o
6 8 5 9.76 1.51 17.31 o
7 8 5 39.38 57.37 17.43 o
8 8 5 0.67 13.93 24.97 o
1 9 5 79.08 87.26 14.52 o
2 9 5 23.17 20.68 19.71 o
3 9 5 0.04 2.71 20.28 o
4 9 5 75.16 98.59 19.05 o
5 9 5 11.71 44.00 23.89 o
6 9 5 65.74 68.73 19.15 o
7 9 5 0.11 -10.92 12.82 o
8 9 5 42.82 -5.76 47.09 o
1 10 5 7.16 -4.13 22.59 o
2 10 5 67.49 58.12 16.74 o
3 10 5 1.21 11.97 21.09 o
4 10 5 1.08 9.75 23.51 o
5 10 5 10.68 14.11 17.59 o
6 10 5 1.29 -3.51 12.36 o
7 10 5 25.62 -7.70 35.83 o
1 11 5 0.05 -1.50 25.98 o
2 11 5 15.49 16.24 23.19 o
3 11 5 54.74 63.61 26.19 o
4 11 5 32.63 69.99 28.13 o
5 11 5 0.05 3.28 22.68 o
1 12 5 3.15 -44.76 44.76 o
2 12 5 6.07 -0.91 32.84 o
3 12 5 3.49 45.17 64.61 o
0 0 6 131917.28 166443.50 4669.12 o
0 1 6 23799.98 22843.39 169.81 o
1 1 6 60192.24 57947.48 699.57 o
0 2 6 50691.35 51173.89 337.89 o
1 2 6 14393.06 14266.23 77.14 o
2 2 6 82585.58 81449.99 691.91 o
0 3 6 8753.88 8553.11 91.89 o
1 3 6 36326.32 35399.41 182.06 o
2 3 6 17321.37 16720.93 156.37 o
3 3 6 49409.28 47723.01 542.99 o
0 4 6 56751.63 56505.60 319.57 o
1 4 6 11759.02 11208.96 76.50 o
2 4 6 31043.43 31498.07 292.62 o
3 4 6 6807.63 6657.90 78.04 o
4 4 6 20783.37 21463.63 205.51 o
0 5 6 13123.87 12446.55 182.12 o
1 5 6 32774.13 31869.55 178.55 o
2 5 6 4670.40 4618.72 62.88 o
3 5 6 19736.78 19235.33 209.39 o
4 5 6 6495.18 6403.65 83.88 o
5 5 6 23263.46 23830.85 268.10 o
0 6 6 20549.94 20229.66 218.23 o
1 6 6 5883.49 5704.04 73.83 o
2 6 6 16216.76 15848.54 140.73 o
3 6 6 4889.43 4824.51 77.09 o
4 6 6 15804.40 15950.01 294.19 o
5 6 6 3375.60 3435.01 78.85 o
6 6 6 8827.03 9130.85 206.65 o
0 7 6 2788.21 2691.13 73.51 o
1 7 6 17636.79 17189.70 151.05 o
2 7 6 5257.95 5256.83 79.92 o
3 7 6 16916.61 17078.91 214.78 o
4 7 6 2610.43 2573.09 72.07 o
5 7 6 5181.80 5220.12 122.29 o
6 7 6 1603.13 1618.96 78.53 o
7 7 6 5636.23 5949.87 221.84 o
0 8 6 5694.39 5654.29 122.23 o
1 8 6 2794.39 2782.59 65.44 o
2 8 6 10576.83 10583.13 152.01 o
3 8 6 2793.06 2868.31 85.07 o
4 8 6 7299.62 7245.91 135.52 o
5 8 6 1310.99 1330.70 60.04 o
6 8 6 6170.87 6446.60 156.90 o
7 8 6 1310.47 1366.18 74.60 o
8 8 6 2853.43 3103.25 159.89 o
0 9 6 2416.44 2467.25 102.00 o
1 9 6 9754.80 9673.89 141.85 o
2 9 6 1608.10 1632.29 64.63 o
3 9 6 4890.95 5017.36 119.34 o
4 9 6 1368.62 1383.99 67.53 o
5 9 6 4327.00 4579.46 135.69 o
6 9 6 1102.71 1100.00 67.83 o
7 9 6 2192.93 2317.55 98.62 o
8 9 6 381.74 369.20 79.55 o
0 10 6 5322.45 5435.23 187.61 o
1 10 6 1402.54 1375.72 69.32 o
2 10 6 3206.60 3266.61 101.94 o
3 10 6 854.95 883.84 55.11 o
4 10 6 4174.22 4324.80 130.79 o
5 10 6 1024.57 1086.80 66.84 o
6 10 6 2434.33 2508.41 105.09 o
7 10 6 338.93 381.85 124.43 o
0 11 6 837.64 776.62 110.46 o
1 11 6 2968.23 2912.76 120.79 o
2 11 6 740.92 717.47 54.50 o
3 11 6 2807.82 2911.58 113.95 o
4 11 6 687.55 666.81 53.56 o
5 11 6 1832.33 2055.88 150.24 o
0 12 6 1798.30 1758.06 279.29 o
1 12 6 470.78 525.88 101.72 o
2 12 6 2111.20 2274.05 466.82 o
1 1 7 2560.56 2597.98 55.19 o
1 2 7 776.91 799.68 18.36 o
2 2 7 2.30 8.98 5.55 o
1 3 7 447.00 467.15 13.38 o
2 3 7 290.25 287.79 13.66 o
3 3 7 0.04 3.78 6.07 o
1 4 7 1180.18 1187.04 26.11 o
2 4 7 4.74 5.73 4.95 o
3 4 7 440.35 438.73 17.78 o
4 4 7 1330.37 1356.68 42.90 o
1 5 7 107.63 95.62 8.31 o
2 5 7 29.58 24.13 7.59 o
3 5 7 417.60 409.49 15.42 o
4 5 7 29.88 38.06 16.86 o
5 5 7 169.49 186.81 34.35 o
1 6 7 602.16 610.83 26.17 o
2 6 7 865.54 864.04 30.23 o
3 6 7 205.79 214.69 15.94 o
4 6 7 13.38 47.80 11.79 o
5 6 7 2.54 10.77 12.00 o
6 6 7 76.73 97.78 29.51 o
1 7 7 0.89 2.64 11.51 o
2 7 7 3.41 8.05 7.51 o
3 7 7 246.18 253.85 19.56 o
4 7 7 17.60 26.39 11.16 o
5 7 7 31.99 45.50 13.70 o
6 7 7 36.63 39.04 20.95 o
7 7 7 2.63 40.02 23.64 o
1 8 7 121.30 110.59 17.67 o
2 8 7 14.51 33.01 15.47 o
3 8 7 27.20 18.71 14.91 o
4 8 7 47.64 89.02 16.63 o
5 8 7 4.18 6.57 25.79 o
6 8 7 58.54 69.92 26.71 o
7 8 7 31.13 51.92 21.65 o
8 8 7 0.90 -22.06 22.09 o
1 9 7 20.59 36.41 15.02 o
2 9 7 17.69 13.50 14.17 o
3 9 7 114.82 93.14 18.37 o
4 9 7 45.27 51.97 22.98 o
5 9 7 0.11 46.66 28.61 o
6 9 7 44.76 56.64 19.83 o
7 9 7 0.05 8.65 22.42 o
8 9 7 25.83 61.17 64.37 o
1 10 7 4.23 46.21 19.88 o
2 10 7 28.29 16.02 18.29 o
3 10 7 0.35 14.28 14.63 o
4 10 7 50.01 96.88 19.10 o
5 10 7 9.04 3.93 20.98 o
6 10 7 1.32 17.56 25.27 o
1 11 7 73.13 39.20 27.22 o
2 11 7 10.68 12.48 26.89 o
3 11 7 11.99 34.03 27.42 o
4 11 7 22.28 45.94 20.12 o
1 12 7 1.44 -40.88 40.88 o
0 0 8 66497.91 78927.84 1416.16 o
0 1 8 28367.89 26947.61 502.82 o
1 1 8 46897.32 44007.05 518.95 o
0 2 8 18783.46 17557.54 164.46 o
1 2 8 18033.86 17412.19 159.96 o
2 2 8 39067.93 36853.91 643.15 o
0 3 8 11557.53 11247.86 140.49 o
1 3 8 34510.11 33854.68 298.16 o
2 3 8 22137.79 22188.36 270.77 o
3 3 8 27919.47 28187.84 422.27 o
0 4 8 24640.53 24375.09 274.43 o
1 4 8 15369.74 14972.54 159.14 o
2 4 8 19734.88 19030.06 221.77 o
3 4 8 9188.96 9092.91 151.33 o
4 4 8 19707.36 19277.81 393.17 o
0 5 8 17276.94 16764.37 275.61 o
1 5 8 21497.56 21361.80 235.79 o
2 5 8 6473.29 6380.17 111.38 o
3 5 8 9478.70 9345.39 154.92 o
4 5 8 8957.75 8525.63 118.29 o
5 5 8 13046.64 12885.71 237.25 o
0 6 8 17429.59 17175.94 224.18 o
1 6 8 8141.60 7773.78 102.76 o
2 6 8 13865.75 13647.77 155.56 o
3 6 8 6750.38 6549.71 130.31 o
4 6 8 11308.95 11080.31 169.93 o
5 6 8 4739.23 4626.63 124.91 o
6 6 8 4700.47 4815.50 191.40 o
0 7 8 3932.64 3659.06 104.57 o
1 7 8 6847.99 6759.43 107.48 o
2 7 8 7288.99 7221.63 145.27 o
3 7 8 10391.20 10336.32 158.10 o
4 7 8 3756.30 3515.47 93.60 o
5 7 8 4997.26 4898.72 129.11 o
6 7 8 2339.59 2312.39 97.07 o
7 7 8 4841.54 4967.00 210.36 o
0 8 8 8535.82 8240.53 176.68 o
1 8 8 3987.37 3905.51 87.59 o
2 8 8 9307.52 9265.98 163.20 o
3 8 8 3972.05 3954.63 101.18 o
4 8 8 3578.08 3718.56 99.22 o
5 8 8 1910.31 1855.93 80.01 o
6 8 8 2975.42 3090.31 107.49 o
7 8 8 1879.65 1907.14 87.55 o
8 8 8 1778.01 1863.88 127.70 o
0 9 8 3468.59 3373.48 127.78 o
1 9 8 3951.98 3984.94 104.16 o
2 9 8 2329.85 2287.66 86.05 o
3 9 8 3573.27 3598.60 110.17 o
4 9 8 1973.77 1928.30 89.63 o
5 9 8 4017.79 4206.44 136.87 o
6 9 8 1604.12 1599.21 83.25 o
7 9 8 1757.61 1814.36 91.62 o
0 10 8 4817.25 4801.37 240.13 o
1 10 8 2013.66 1928.26 85.22 o
2 10 8 2582.32 2515.25 98.27 o
3 10 8 1281.28 1261.59 75.05 o
4 10 8 2475.03 2619.51 107.02 o
5 10 8 1495.35 1461.90 79.31 o
6 10 8 1408.40 1570.68 107.36 o
0 11 8 1244.50 1145.17 120.61 o
1 11 8 2021.29 2067.20 118.39 o
2 11 8 1090.89 1001.36 78.79 o
3 11 8 1803.17 1902.78 100.45 o
4 11 8 992.90 1064.15 106.13 o
1 1 9 994.95 924.24 42.68 o
1 2 9 361.89 362.47 14.99 o
2 2 9 436.04 480.20 29.02 o
1 3 9 659.18 656.97 21.30 o
2 3 9 152.67 161.26 14.96 o
3 3 9 189.34 188.17 15.56 o
1 4 9 587.72 561.01 18.53 o
2 4 9 400.31 387.41 19.95 o
3 4 9 231.68 215.55 17.34 o
4 4 9 92.64 67.29 13.43 o
1 5 9 137.07 142.78 10.73 o
2 5 9 12.22 11.05 8.32 o
3 5 9 204.23 175.39 19.47 o
4 5 9 19.77 20.46 16.14 o
5 5 9 0.31 23.57 25.55 o
1 6 9 319.67 292.14 18.67 o
2 6 9 2.35 -2.57 10.20 o
3 6 9 113.17 69.89 18.95 o
4 6 9 410.29 403.24 28.37 o
5 6 9 1.10 21.56 16.38 o
6 6 9 290.36 344.17 47.24 o
1 7 9 165.14 117.92 22.17 o
2 7 9 2.09 2.72 18.13 o
3 7 9 0.02 7.42 14.08 o
4 7 9 11.38 3.05 12.90 o
5 7 9 10.47 5.94 19.17 o
6 7 9 16.58 22.11 16.78 o
7 7 9 22.91 44.72 31.57 o
1 8 9 72.19 50.82 19.41 o
2 8 9 51.77 40.60 19.56 o
3 8 9 11.47 20.35 16.76 o
4 8 9 106.42 95.57 26.72 o
5 8 9 1.89 -9.85 27.78 o
6 8 9 9.07 -0.09 22.60 o
7 8 9 18.00 -7.78 15.70 o
8 8 9 5.15 22.72 22.86 o
1 9 9 105.28 84.05 21.86 o
2 9 9 8.15 -9.87 17.71 o
3 9 9 5.29 0.38 19.76 o
4 9 9 24.49 22.01 23.90 o
5 9 9 11.58 20.23 19.71 o
6 9 9 27.43 35.64 36.75 o
7 9 9 1.15 30.01 23.23 o
1 10 9 1.94 -3.82 21.05 o
2 10 9 70.86 17.62 17.47 o
3 10 9 0.01 16.07 18.62 o
4 10 9 0.91 8.68 22.70 o
5 10 9 6.30 32.88 19.05 o
6 10 9 0.03 0.20 56.46 o
1 11 9 2.79 -25.64 31.04 o
2 11 9 5.36 1.88 43.77 o
3 11 9 48.38 20.48 31.72 o
4 11 9 11.99 54.58 37.13 o
0 0 10 12120.93 15089.82 412.21 o
0 1 10 11217.84 11671.31 294.43 o
1 1 10 9341.84 9017.19 437.03 o
0 2 10 4314.37 4081.28 103.13 o
1 2 10 6496.63 6278.24 149.94 o
2 2 10 10725.01 10203.57 281.03 o
0 3 10 3579.10 3256.39 78.51 o
1 3 10 4865.43 4573.96 63.12 o
2 3 10 10776.10 10686.26 179.98 o
3 3 10 8347.92 8122.59 222.65 o
0 4 10 9383.06 9342.24 154.85 o
1 4 10 6991.55 6701.52 115.98 o
2 4 10 4490.25 4539.76 84.15 o
3 4 10 3905.51 3893.16 78.47 o
4 4 10 3148.58 3004.36 108.40 o
0 5 10 9647.79 9544.54 182.33 o
1 5 10 4936.18 4958.09 97.03 o
2 5 10 2492.72 2409.06 57.44 o
3 5 10 3208.04 3159.64 75.47 o
4 5 10 4936.90 4875.35 116.61 o
5 5 10 4891.79 4832.23 171.34 o
0 6 10 3978.93 3976.97 104.99 o
1 6 10 4013.64 4019.47 105.43 o
2 6 10 3031.31 2998.12 71.35 o
3 6 10 3593.12 3586.46 98.47 o
4 6 10 3146.51 3109.13 92.27 o
5 6 10 2774.46 2761.90 88.91 o
6 6 10 1840.23 1726.69 105.74 o
0 7 10 1834.39 1728.00 86.57 o
1 7 10 3082.19 2963.78 74.83 o
2 7 10 4443.62 4331.39 101.97 o
3 7 10 3253.60 3148.36 90.60 o
4 7 10 2108.51 1977.27 75.01 o
5 7 10 1008.38 1017.87 60.51 o
6 7 10 1439.96 1451.08 71.16 o
7 7 10 1524.40 1613.68 112.62 o
0 8 10 1190.88 1224.64 90.59 o
1 8 10 2269.65 2177.07 84.78 o
2 8 10 2517.84 2472.36 83.04 o
3 8 10 2493.17 2395.62 91.53 o
4 8 10 1777.35 1673.25 75.76 o
5 8 10 1178.60 1211.12 68.78 o
6 8 10 1449.24 1486.86 83.10 o
7 8 10 1418.07 1364.48 78.60 o
8 8 10 634.72 664.85 103.34 o
0 9 10 2290.52 2231.78 164.65 o
1 9 10 2075.93 2031.63 84.61 o
2 9 10 1457.59 1398.71 72.69 o
3 9 10 987.39 909.85 63.51 o
4 9 10 1334.86 1287.52 74.45 o
5 9 10 1090.65 1208.63 72.96 o
6 9 10 1195.24 1123.50 71.02 o
7 9 10 708.01 665.25 111.99 o
0 10 10 1458.87 1512.39 176.99 o
1 10 10 1412.02 1285.20 83.41 o
2 10 10 869.51 826.43 64.24 o
3 10 10 851.05 828.69 66.76 o
4 10 10 1114.60 1044.12 77.20 o
5 10 10 1154.86 1063.68 88.09 o
0 11 10 901.33 591.46 94.99 o
1 11 10 708.81 575.36 93.79 o
2 11 10 807.26 736.29 93.16 o
3 11 10 766.59 802.04 129.32 o
1 1 11 1931.35 2046.01 112.37 o
1 2 11 141.41 115.71 11.33 o
2 2 11 20.60 21.72 11.01 o
1 3 11 191.11 165.72 10.82 o
2 3 11 53.92 53.43 7.92 o
3 3 11 363.76 345.58 27.90 o
1 4 11 246.84 202.26 17.62 o
2 4 11 257.01 260.10 17.62 o
3 4 11 103.25 118.18 13.91 o
4 4 11 225.69 169.20 41.19 o
1 5 11 0.52 2.35 7.39 o
2 5 11 9.12 14.68 11.09 o
3 5 11 0.04 1.50 12.44 o
4 5 11 4.58 8.00 8.99 o
5 5 11 0.14 22.48 19.33 o
1 6 11 142.57 130.78 14.65 o
2 6 11 244.36 245.33 21.99 o
3 6 11 43.55 21.75 17.51 o
4 6 11 279.89 244.01 26.91 o
5 6 11 1.64 11.36 15.29 o
6 6 11 31.50 -12.17 17.86 o
1 7 11 18.45 16.11 15.23 o
2 7 11 1.02 -3.47 20.83 o
3 7 11 62.55 37.70 17.39 o
4 7 11 2.52 -5.01 22.19 o
5 7 11 80.78 60.20 19.20 o
6 7 11 11.75 9.40 24.21 o
7 7 11 0.20 32.06 23.82 o
1 8 11 26.23 13.17 16.68 o
2 8 11 35.73 17.39 14.11 o
3 8 11 9.56 17.04 19.62 o
4 8 11 46.79 16.03 16.71 o
5 8 11 1.99 9.03 21.24 o
6 8 11 41.81 54.35 22.44 o
7 8 11 5.51 17.96 21.67 o
1 9 11 38.70 23.01 25.08 o
2 9 11 4.20 -25.23 25.23 o
3 9 11 64.39 24.13 21.60 o
4 9 11 11.87 7.50 23.06 o
5 9 11 11.35 46.93 36.00 o
6 9 11 8.51 47.86 20.49 o
7 9 11 4.92 37.16 92.62 o
1 10 11 1.44 -2.96 33.71 o
2 10 11 0.69 -11.17 24.09 o
3 10 11 0.45 -12.98 21.92 o
4 10 11 5.83 -17.54 17.54 o
5 10 11 1.11 -11.42 28.06 o
1 11 11 38.39 -7.09 47.42 o
2 11 11 2.77 10.59 49.80 o
0 0 12 17204.06 22449.97 622.52 o
0 1 12 18565.35 20938.16 361.21 o
1 1 12 4891.98 5018.07 223.80 o
0 2 12 6024.02 5932.02 202.81 o
1 2 12 12208.33 11080.32 361.01 o
2 2 12 9240.71 8760.08 337.22 o
0 3 12 7967.59 7198.29 214.33 o
1 3 12 5521.97 5087.18 126.88 o
2 3 12 16238.30 15832.93 361.94 o
3 3 12 5177.04 4828.98 138.09 o
0 4 12 4885.62 4663.84 111.22 o
1 4 12 11442.95 10404.51 152.42 o
2 4 12 4132.08 4142.24 94.49 o
3 4 12 7022.78 6898.42 167.63 o
4 4 12 4322.58 4082.58 136.82 o
0 5 12 13602.96 13165.61 305.66 o
1 5 12 5358.03 4983.90 100.37 o
2 5 12 4971.40 4932.72 112.73 o
3 5 12 2423.08 2265.03 69.20 o
4 5 12 7426.10 7242.17 137.26 o
5 5 12 2904.95 2867.97 140.13 o
0 6 12 2806.97 2713.79 86.87 o
1 6 12 6610.20 6163.59 108.34 o
2 6 12 2473.58 2395.15 69.15 o
3 6 12 5632.34 5395.86 142.43 o
4 6 12 2527.64 2431.65 81.88 o
5 6 12 4140.19 3946.66 116.48 o
6 6 12 1432.80 1282.98 95.09 o
0 7 12 3272.55 2952.26 159.88 o
1 7 12 2471.03 2330.27 73.96 o
2 7 12 6268.48 6075.14 135.25 o
3 7 12 2941.41 2798.46 92.87 o
4 7 12 3314.02 3105.73 100.33 o
5 7 12 1224.28 1187.28 66.82 o
6 7 12 2169.90 2148.52 93.35 o
7 7 12 909.63 902.46 92.00 o
0 8 12 1448.95 1323.51 120.26 o
1 8 12 3521.12 3219.79 105.07 o
2 8 12 1684.23 1614.09 81.41 o
3 8 12 3576.82 3357.68 114.04 o
4 8 12 879.73 796.95 54.92 o
5 8 12 1789.28 1655.38 82.32 o
6 8 12 1050.79 1063.32 67.84 o
7 8 12 1821.42 1904.08 104.93 o
0 9 12 3182.38 2936.30 201.07 o
1 9 12 1448.74 1329.54 90.06 o
2 9 12 2158.88 1971.53 96.38 o
3 9 12 1162.09 1103.25 77.55 o
4 9 12 1873.72 1837.24 97.99 o
5 9 12 942.88 892.28 62.48 o
6 9 12 1568.94 1443.34 129.68 o
0 10 12 957.28 815.49 126.39 o
1 10 12 1917.12 1732.43 129.59 o
2 10 12 584.74 416.37 51.23 o
3 10 12 1252.37 1057.70 87.77 o
4 10 12 703.58 517.33 83.11 o
1 11 12 678.59 356.76 142.07 o
1 1 13 600.28 679.56 38.82 o
1 2 13 42.20 25.60 8.56 o
2 2 13 550.39 518.71 60.50 o
1 3 13 745.98 622.37 29.34 o
2 3 13 17.22 19.08 9.44 o
3 3 13 26.04 21.42 20.32 o
1 4 13 69.77 46.76 10.97 o
2 4 13 6.74 5.30 10.94 o
3 4 13 35.12 19.01 17.45 o
4 4 13 674.64 637.60 55.34 o
1 5 13 1.72 15.24 11.92 o
2 5 13 2.24 6.93 12.85 o
3 5 13 24.49 21.43 11.98 o
4 5 13 1.53 22.92 14.35 o
5 5 13 160.56 113.23 29.54 o
1 6 13 44.53 51.41 14.19 o
2 6 13 84.57 74.36 20.53 o
3 6 13 12.24 48.29 16.82 o
4 6 13 70.98 42.80 20.12 o
5 6 13 0.97 6.33 14.99 o
6 6 13 295.66 259.56 61.07 o
1 7 13 55.21 38.09 16.32 o
2 7 13 0.76 18.17 19.91 o
3 7 13 41.30 44.47 15.69 o
4 7 13 0.59 47.95 17.58 o
5 7 13 0.02 23.10 23.03 o
6 7 13 3.67 41.32 24.54 o
7 7 13 13.15 14.53 38.15 o
1 8 13 9.84 -4.69 20.58 o
2 8 13 34.00 36.99 22.79 o
3 8 13 2.29 47.86 21.98 o
4 8 13 65.52 58.62 16.42 o
5 8 13 0.96 43.30 18.00 o
6 8 13 26.36 69.65 28.08 o
7 8 13 1.18 153.85 72.81 o
1 9 13 61.29 19.23 31.51 o
2 9 13 0.49 -22.69 22.69 o
3 9 13 23.69 2.63 26.44 o
4 9 13 4.82 61.63 44.07 o
5 9 13 0.11 7.78 29.50 o
1 10 13 0.38 -17.94 24.64 o
2 10 13 9.51 -11.66 50.45 o
3 10 13 0.05 45.20 28.37 o
4 10 13 18.84 26.75 47.14 o
0 0 14 3533.58 4564.64 220.89 o
0 1 14 28566.51 33337.17 448.22 o
1 1 14 8451.33 10063.86 270.71 o
0 2 14 2931.39 3021.81 99.26 o
1 2 14 20832.02 21611.31 704.03 o
2 2 14 4418.83 4468.24 269.74 o
0 3 14 15112.89 13311.29 488.70 o
1 3 14 4323.96 3949.51 152.94 o
2 3 14 23476.63 22666.13 814.78 o
3 3 14 4494.94 4340.31 156.11 o
0 4 14 5030.51 4448.97 158.10 o
1 4 14 17778.10 15858.67 335.43 o
2 4 14 3255.67 3177.53 113.45 o
3 4 14 11877.15 11275.22 359.09 o
4 4 14 2084.35 2003.81 101.51 o
0 5 14 18962.56 17129.76 534.29 o
1 5 14 2323.57 2176.66 66.90 o
2 5 14 9069.62 8442.15 256.86 o
3 5 14 2137.62 2104.63 74.56 o
4 5 14 10702.68 9919.65 241.95 o
5 5 14 2229.67 2166.24 110.81 o
0 6 14 3120.08 2904.31 123.33 o
1 6 14 10128.21 8960.71 195.66 o
2 6 14 2431.22 2358.97 88.69 o
3 6 14 8572.62 8167.77 218.32 o
4 6 14 1655.15 1619.32 73.50 o
5 6 14 6052.96 5581.83 154.52 o
6 6 14 817.09 934.73 90.05 o
0 7 14 5733.43 5059.69 213.89 o
1 7 14 1205.50 1181.39 72.61 o
2 7 14 8696.23 8386.80 309.87 o
3 7 14 1257.13 1227.77 69.68 o
4 7 14 4936.92 4390.71 155.83 o
5 7 14 800.44 699.87 52.34 o
6 7 14 3120.79 2953.89 118.32 o
7 7 14 861.22 903.68 95.73 o
0 8 14 1258.14 1132.26 165.91 o
1 8 14 5171.75 4351.31 167.43 o
2 8 14 1507.52 1506.70 78.06 o
3 8 14 4939.22 4669.32 149.19 o
4 8 14 949.20 879.99 67.05 o
5 8 14 2657.67 2451.10 115.57 o
6 8 14 453.76 348.88 47.74 o
0 9 14 4263.56 3159.82 284.79 o
1 9 14 694.15 622.37 66.78 o
2 9 14 3128.17 2993.91 139.07 o
3 9 14 468.57 349.58 45.74 o
4 9 14 2597.97 2398.10 117.04 o
5 9 14 533.23 538.02 94.11 o
0 10 14 727.06 506.30 118.06 o
1 10 14 2580.81 2449.77 355.18 o
2 10 14 527.53 381.25 82.14 o
3 10 14 1741.13 1527.91 217.17 o
1 1 15 1006.27 1247.87 56.80 o
1 2 15 5.48 22.08 11.26 o
2 2 15 39.35 31.19 23.81 o
1 3 15 57.92 32.19 16.76 o
2 3 15 2.95 15.89 17.03 o
3 3 15 394.37 359.86 39.34 o
1 4 15 12.67 -12.11 13.47 o
2 4 15 280.16 218.02 31.21 o
3 4 15 3.14 -11.41 16.80 o
4 4 15 36.64 -5.80 15.85 o
1 5 15 9.80 -5.92 13.27 o
2 5 15 0.24 2.17 17.72 o
3 5 15 24.47 11.01 16.22 o
4 5 15 0.82 9.59 14.89 o
5 5 15 9.42 -22.39 28.33 o
1 6 15 6.07 -10.59 15.32 o
2 6 15 84.40 80.58 22.09 o
3 6 15 3.62 17.37 21.55 o
4 6 15 213.25 180.40 22.17 o
5 6 15 0.05 16.33 18.94 o
6 6 15 19.46 19.13 23.48 o
1 7 15 14.91 -8.46 22.53 o
2 7 15 0.02 9.69 16.68 o
3 7 15 26.03 17.84 23.27 o
4 7 15 0.44 1.26 21.58 o
5 7 15 44.99 24.69 25.89 o
6 7 15 0.11 9.13 30.28 o
7 7 15 0.13 -17.72 62.32 o
1 8 15 1.39 -31.59 31.59 o
2 8 15 14.75 4.09 25.14 o
3 8 15 0.21 1.00 22.75 o
4 8 15 41.48 24.00 19.55 o
5 8 15 0.06 -19.30 19.30 o
6 8 15 13.95 46.06 49.03 o
1 9 15 30.46 34.56 37.42 o
2 9 15 0.49 -11.52 30.89 o
3 9 15 19.06 0.77 37.21 o
4 9 15 0.20 25.90 42.58 o
1 10 15 0.04 132.35 132.35 o
0 0 16 1973.68 2636.96 170.00 o
0 1 16 10719.63 13014.08 189.52 o
1 1 16 330.34 381.33 32.31 o
0 2 16 883.50 1014.87 54.47 o
1 2 16 7478.42 8284.17 178.00 o
2 2 16 868.99 1016.82 74.36 o
0 3 16 5228.80 5350.22 193.86 o
1 3 16 670.77 664.13 38.83 o
2 3 16 9688.45 10022.69 479.56 o
3 3 16 451.25 350.11 72.39 o
0 4 16 323.83 346.28 42.77 o
1 4 16 7117.52 6720.27 244.64 o
2 4 16 439.25 385.81 63.02 o
3 4 16 4684.15 4619.61 228.42 o
4 4 16 570.80 509.79 54.51 o
0 5 16 8353.68 7530.47 336.57 o
1 5 16 701.84 617.39 39.81 o
2 5 16 3520.51 3357.06 143.93 o
3 5 16 297.30 218.65 35.07 o
4 5 16 4883.24 4648.59 160.39 o
5 5 16 214.83 144.71 43.09 o
0 6 16 221.38 168.20 33.96 o
1 6 16 4405.43 4100.88 124.33 o
2 6 16 251.93 210.46 29.52 o
3 6 16 3822.54 3525.30 120.56 o
4 6 16 291.45 213.91 27.56 o
5 6 16 2886.84 2498.63 107.04 o
6 6 16 205.67 107.74 53.82 o
0 7 16 2446.84 2187.59 194.03 o
1 7 16 323.79 202.11 35.05 o
2 7 16 4181.03 4057.07 194.72 o
3 7 16 320.47 278.32 38.90 o
4 7 16 2390.73 2047.70 108.99 o
5 7 16 162.02 136.63 28.36 o
6 7 16 1615.40 1385.44 105.49 o
0 8 16 196.05 195.19 73.07 o
1 8 16 2493.91 2497.70 138.13 o
2 8 16 158.92 106.56 31.67 o
3 8 16 2495.57 2419.37 148.69 o
4 8 16 98.21 41.49 17.37 o
5 8 16 1366.24 1115.82 117.86 o
0 9 16 2249.99 1706.59 214.19 o
1 9 16 155.28 60.97 24.44 o
2 9 16 1612.83 1571.89 121.02 o
3 9 16 162.14 238.73 74.41 o
4 9 16 1390.79 1057.70 228.41 o
1 1 17 285.03 374.13 36.18 o
1 2 17 0.02 15.64 9.42 o
2 2 17 139.41 143.21 29.06 o
1 3 17 233.94 246.97 23.17 o
2 3 17 0.00 0.36 21.30 o
3 3 17 4.20 8.64 37.44 o
1 4 17 0.08 17.42 13.75 o
2 4 17 31.59 27.54 23.30 o
3 4 17 0.00 -31.61 31.61 o
4 4 17 137.83 84.34 54.07 o
1 5 17 9.26 -12.40 26.36 o
2 5 17 0.03 42.95 24.50 o
3 5 17 3.28 6.62 30.55 o
4 5 17 0.03 -17.40 17.40 o
5 5 17 13.04 -25.79 25.79 o
1 6 17 0.02 -7.21 23.94 o
2 6 17 10.50 -3.86 19.24 o
3 6 17 0.00 -24.59 24.59 o
4 6 17 80.41 -8.35 28.47 o
5 6 17 0.00 -23.06 23.06 o
6 6 17 90.84 15.87 48.07 o
1 7 17 37.34 -18.09 18.09 o
2 7 17 0.00 -1.10 28.24 o
3 7 17 2.41 -18.58 18.58 o
4 7 17 0.01 -27.16 27.88 o
5 7 17 4.59 -11.29 28.79 o
6 7 17 0.06 -75.41 78.64 o
1 8 17 0.01 -17.03 41.95 o
2 8 17 21.44 -3.19 24.91 o
3 8 17 0.01 -12.25 24.58 o
4 8 17 22.44 -52.61 52.61 o
5 8 17 0.00 -37.73 61.46 o
1 9 17 25.13 97.73 62.82 o
2 9 17 0.01 31.33 69.48 o
0 0 18 19.34 77.16 33.37 o
0 1 18 5316.33 6457.29 129.20 o
1 1 18 66.81 70.10 15.96 o
0 2 18 135.69 184.18 29.14 o
1 2 18 3735.60 4293.09 97.59 o
2 2 18 68.04 94.93 24.15 o
0 3 18 2588.70 2689.76 113.00 o
1 3 18 23.31 38.74 15.08 o
2 3 18 5036.55 5374.65 242.32 o
3 3 18 55.36 24.61 45.86 o
0 4 18 127.76 174.78 33.57 o
1 4 18 3751.02 3918.80 130.07 o
2 4 18 65.00 50.09 25.60 o
3 4 18 2521.13 2703.73 161.37 o
4 4 18 10.18 49.47 20.51 o
0 5 18 4530.80 4515.83 236.38 o
1 5 18 21.74 17.87 20.63 o
2 5 18 1890.80 1876.02 106.61 o
3 5 18 85.81 102.97 41.46 o
4 5 18 2728.74 2627.12 173.33 o
5 5 18 43.72 27.20 59.69 o
0 6 18 33.04 -8.44 23.13 o
1 6 18 2444.20 2343.32 128.63 o
2 6 18 29.79 37.80 22.47 o
3 6 18 2199.44 2089.52 180.75 o
4 6 18 18.53 -4.49 30.54 o
5 6 18 1716.96 1496.23 140.70 o
6 6 18 25.81 8.00 58.60 o
0 7 18 1419.51 1603.62 167.71 o
1 7 18 64.58 105.60 28.33 o
2 7 18 2410.58 2472.35 137.08 o
3 7 18 20.74 39.31 30.92 o
4 7 18 1408.89 1234.60 109.41 o
5 7 18 16.69 -73.53 73.53 o
0 8 18 4.50 44.99 45.99 o
1 8 18 1493.51 1512.77 105.16 o
2 8 18 10.60 14.86 25.45 o
3 8 18 1509.21 906.77 164.17 o
1 1 19 254.07 361.21 36.20 o
1 2 19 2.52 29.29 13.46 o
2 2 19 5.65 4.64 13.92 o
1 3 19 70.11 103.94 17.66 o
2 3 19 1.67 23.27 20.07 o
3 3 19 7.47 10.80 29.66 o
1 4 19 4.87 17.50 17.99 o
2 4 19 6.98 -3.29 18.20 o
3 4 19 1.47 43.47 25.83 o
4 4 19 141.15 130.18 50.85 o
1 5 19 2.12 -10.57 28.37 o
2 5 19 0.00 -6.90 18.86 o
3 5 19 18.33 -7.29 19.01 o
4 5 19 0.55 -6.06 34.98 o
5 5 19 15.42 94.96 105.57 o
1 6 19 2.46 -25.92 25.92 o
2 6 19 87.16 92.87 26.49 o
3 6 19 1.37 4.46 53.99 o
4 6 19 13.76 -19.16 30.08 o
5 6 19 0.05 -48.20 48.20 o
1 7 19 0.94 -6.09 30.64 o
2 7 19 0.00 -2.99 36.55 o
3 7 19 29.70 -9.32 44.10 o
4 7 19 0.53 -65.12 65.12 o
1 8 19 0.88 14.86 117.49 o
0 0 20 144.26 175.98 58.87 o
0 1 20 9256.35 11461.10 222.80 o
1 1 20 0.92 24.15 19.54 o
0 2 20 31.01 93.79 27.93 o
1 2 20 7240.13 8494.94 157.83 o
2 2 20 92.58 143.32 34.99 o
0 3 20 5715.57 6212.62 189.38 o
1 3 20 0.77 49.82 19.69 o
2 3 20 7719.58 8535.22 211.45 o
3 3 20 32.46 18.10 25.80 o
0 4 20 61.91 62.89 45.92 o
1 4 20 6179.25 6970.44 148.95 o
2 4 20 7.25 29.13 30.41 o
3 4 20 4470.29 4885.10 191.74 o
4 4 20 0.38 12.85 49.06 o
0 5 20 6275.94 6498.38 207.08 o
1 5 20 17.28 16.69 18.39 o
2 5 20 3657.60 3833.58 178.65 o
3 5 20 11.51 19.70 26.14 o
4 5 20 3883.84 4246.24 299.66 o
5 5 20 28.79 15.89 39.13 o
0 6 20 0.61 7.67 35.24 o
1 6 20 3803.65 4092.95 171.90 o
2 6 20 0.33 34.86 25.32 o
3 6 20 3222.17 3227.76 230.60 o
4 6 20 4.81 -33.65 47.72 o
0 7 20 2386.77 2580.57 205.06 o
1 7 20 34.13 46.03 35.30 o
2 7 20 3147.95 3159.36 257.26 o
3 7 20 17.06 -24.58 85.76 o
1 1 21 91.26 85.16 30.00 o
1 2 21 4.88 62.18 13.37 o
2 2 21 5.72 54.28 26.95 o
1 3 21 28.36 56.76 19.01 o
2 3 21 1.94 60.82 21.87 o
3 3 21 36.67 34.75 30.21 o
1 4 21 9.57 27.45 22.13 o
2 4 21 49.31 69.69 31.32 o
3 4 21 3.56 4.95 23.48 o
4 4 21 0.91 -18.46 47.78 o
1 5 21 12.01 1.13 27.81 o
2 5 21 0.35 14.71 22.05 o
3 5 21 23.72 -4.67 29.08 o
4 5 21 0.16 -16.66 24.25 o
5 5 21 0.85 -94.62 94.62 o
1 6 21 5.39 43.00 24.58 o
2 6 21 0.55 -6.72 36.67 o
3 6 21 1.86 6.91 27.99 o
1 7 21 13.25 11.38 226.83 o
0 0 22 300.13 158.08 75.47 o
0 1 22 4992.87 6403.48 247.25 o
1 1 22 296.75 405.58 65.78 o
0 2 22 59.81 109.17 39.80 o
1 2 22 4004.48 4808.54 139.49 o
2 2 22 208.91 275.16 45.07 o
0 3 22 3213.80 3741.84 197.51 o
1 3 22 219.03 244.41 26.14 o
2 3 22 4177.40 4924.27 133.45 o
3 3 22 180.59 226.44 38.45 o
0 4 22 146.11 88.22 33.63 o
1 4 22 3418.75 4048.14 133.13 o
2 4 22 124.82 111.84 20.61 o
3 4 22 2541.77 2836.49 111.31 o
4 4 22 160.02 131.76 46.80 o
0 5 22 3436.48 3962.38 177.31 o
1 5 22 136.50 78.23 20.52 o
2 5 22 2109.26 2378.03 122.51 o
3 5 22 46.46 46.03 39.05 o
0 6 22 158.38 62.83 39.12 o
1 6 22 2141.72 2240.48 259.09 o
1 1 23 49.17 142.19 50.35 o
1 2 23 5.27 32.79 22.35 o
2 2 23 0.89 50.12 40.33 o
1 3 23 13.35 78.16 23.84 o
2 3 23 2.05 32.60 18.96 o
3 3 23 1.20 -16.51 16.51 o
1 4 23 8.64 -10.44 22.22 o
2 4 23 1.01 -5.04 23.53 o
3 4 23 4.71 39.96 26.99 o
1 5 23 0.63 -20.58 70.89 o
2 5 23 0.29 41.00 121.49 o
0 0 24 225.27 480.25 175.23 o
0 1 24 1119.29 1428.11 135.84 o
1 1 24 165.39 114.70 61.46 o
0 2 24 76.17 66.66 34.50 o
1 2 24 889.77 1223.72 91.82 o
2 2 24 197.36 201.97 80.89 o
0 3 24 717.70 870.26 122.44 o
1 3 24 100.71 118.86 41.91 o
2 3 24 1034.45 1386.60 133.16 o
0 4 24 177.19 289.07 84.09 o
1 4 24 846.74 1078.85 231.84 o
