#------------------------------------------------------------------------------
#$Date: 2019-11-24 10:29:40 +0200 (Sun, 24 Nov 2019) $
#$Revision: 237638 $
#$URL: file:///home/coder/svn-repositories/cod/cif/7/23/73/7237377.cif $
#------------------------------------------------------------------------------
#
# This file is available in the Crystallography Open Database (COD),
# http://www.crystallography.net/
#
# All data on this site have been placed in the public domain by the
# contributors.
#
data_7237377
loop_
_publ_author_name
'Paliwoda, Damian'
'Szafra\'nski, Marek'
'Hanfland, Michael'
'Katrusiak, Andrzej'
_publ_section_title
;
 A giant 2-dimensional dielectric response in a compressed hydrogen-bonded
 hybrid organic--inorganic salt
;
_journal_issue                   28
_journal_name_full               'Journal of Materials Chemistry C'
_journal_page_first              7689
_journal_paper_doi               10.1039/C8TC02464B
_journal_volume                  6
_journal_year                    2018
_chemical_formula_moiety         'C4 H5 N2 Au Cl4'
_chemical_formula_sum            'C4 H5 Au Cl4 N2'
_chemical_formula_weight         419.87
_chemical_name_common            'pyrazinium tetrachloroaurate'
_chemical_name_systematic
; 
pyrazinium tetrachloroaurate 
;
_space_group_IT_number           138
_space_group_name_Hall           '-P 4ac 2ac'
_space_group_name_H-M_alt        'P 42/n c m :2'
_symmetry_cell_setting           tetragonal
_symmetry_space_group_name_Hall  '-P 4ac 2ac'
_symmetry_space_group_name_H-M   'P 42/n c m :2'
_atom_sites_solution_hydrogens   geom
_atom_sites_solution_primary     direct
_atom_sites_solution_secondary   difmap
_audit_creation_method           SHELXL-97
_audit_update_record
;
2017-04-07 deposited with the CCDC.
2018-06-28 downloaded from the CCDC.
;
_cell_angle_alpha                90.00
_cell_angle_beta                 90.00
_cell_angle_gamma                90.00
_cell_formula_units_Z            4
_cell_length_a                   7.91480(10)
_cell_length_b                   7.91480(10)
_cell_length_c                   15.873(9)
_cell_measurement_reflns_used    1606
_cell_measurement_temperature    296(2)
_cell_measurement_theta_max      37.28
_cell_measurement_theta_min      3.86
_cell_volume                     994.3(6)
_computing_cell_refinement       'CrysAlisRED (Oxford Diffraction, 2004)'
_computing_data_collection       'CrysAlisCCD (Oxford Diffraction, 2004)'
_computing_data_reduction        'CrysAlisRED (Oxford Diffraction, 2004)'
_computing_molecular_graphics    'SHELXTL (Sheldrick, 1990)'
_computing_publication_material  'SHELXL--97 (Sheldrick, 1997)'
_computing_structure_refinement  'SHELXL--97 (Sheldrick, 1997)'
_computing_structure_solution    'SHELXS--97 (Sheldrick, 1997)'
_diffrn_ambient_environment      'diamond-anvil cell'
_diffrn_ambient_temperature      296(2)
_diffrn_measured_fraction_theta_full 0.230
_diffrn_measured_fraction_theta_max 0.230
_diffrn_measurement_device_type  Serial
_diffrn_measurement_method       \w/2\q
_diffrn_radiation_monochromator  Si(111)
_diffrn_radiation_source         synchrotron
_diffrn_radiation_type           synchrotron
_diffrn_radiation_wavelength     0.41438
_diffrn_reflns_av_R_equivalents  0.0301
_diffrn_reflns_av_sigmaI/netI    0.0317
_diffrn_reflns_limit_h_max       13
_diffrn_reflns_limit_h_min       -12
_diffrn_reflns_limit_k_max       13
_diffrn_reflns_limit_k_min       -13
_diffrn_reflns_limit_l_max       7
_diffrn_reflns_limit_l_min       -6
_diffrn_reflns_number            1606
_diffrn_reflns_theta_full        37.28
_diffrn_reflns_theta_max         37.28
_diffrn_reflns_theta_min         3.86
_diffrn_standards_decay_%        0
_diffrn_standards_interval_count 0
_diffrn_standards_number         0
_exptl_absorpt_coefficient_mu    15.810
_exptl_crystal_colour            orange
_exptl_crystal_density_diffrn    2.805
_exptl_crystal_density_method    'not measured'
_exptl_crystal_description       plate
_exptl_crystal_F_000             760
_exptl_crystal_size_max          0.05
_exptl_crystal_size_mid          0.04
_exptl_crystal_size_min          0.02
_refine_diff_density_max         0.717
_refine_diff_density_min         -0.680
_refine_diff_density_rms         0.126
_refine_ls_extinction_coef       0.0033(7)
_refine_ls_extinction_expression Fc^*^=kFc[1+0.001xFc^2^\l^3^/sin(2\q)]^-1/4^
_refine_ls_extinction_method     SHELXL
_refine_ls_goodness_of_fit_ref   1.157
_refine_ls_hydrogen_treatment    constr
_refine_ls_matrix_type           full
_refine_ls_number_parameters     34
_refine_ls_number_reflns         322
_refine_ls_number_restraints     51
_refine_ls_restrained_S_all      1.085
_refine_ls_R_factor_all          0.0729
_refine_ls_R_factor_gt           0.0435
_refine_ls_shift/su_max          0.000
_refine_ls_shift/su_mean         0.000
_refine_ls_structure_factor_coef Fsqd
_refine_ls_weighting_details
'calc w=1/[\s^2^(Fo^2^)+(0.0171P)^2^+9.2275P] where P=(Fo^2^+2Fc^2^)/3'
_refine_ls_weighting_scheme      calc
_refine_ls_wR_factor_gt          0.0758
_refine_ls_wR_factor_ref         0.0892
_reflns_number_gt                206
_reflns_number_total             322
_reflns_threshold_expression     >2sigma(I)
_cod_data_source_file            c8tc02464b2.cif
_cod_data_source_block           pyrazinium_tetrachloroaurate_ambient_pressure
_cod_original_cell_volume        994.3(5)
_cod_original_sg_symbol_H-M      'P 42/n c m'
_cod_database_code               7237377
loop_
_symmetry_equiv_pos_as_xyz
'x, y, z'
'-x+1/2, -y+1/2, z'
'-y+1/2, x, z+1/2'
'y, -x+1/2, z+1/2'
'-x, y+1/2, -z+1/2'
'x+1/2, -y, -z+1/2'
'y+1/2, x+1/2, -z'
'-y, -x, -z'
'-x, -y, -z'
'x-1/2, y-1/2, -z'
'y-1/2, -x, -z-1/2'
'-y, x-1/2, -z-1/2'
'x, -y-1/2, z-1/2'
'-x-1/2, y, z-1/2'
'-y-1/2, -x-1/2, z'
'y, x, z'
loop_
_atom_site_label
_atom_site_type_symbol
_atom_site_fract_x
_atom_site_fract_y
_atom_site_fract_z
_atom_site_U_iso_or_equiv
_atom_site_adp_type
_atom_site_occupancy
_atom_site_symmetry_multiplicity
_atom_site_calc_flag
_atom_site_refinement_flags
Au1 Au 0.2500 0.2500 0.2386(2) 0.0416(17) Uani 1 4 d SU
Cl3 Cl 0.2500 0.2500 0.3820(18) 0.058(3) Uani 1 4 d SU
Cl4 Cl 0.2500 0.2500 0.0966(18) 0.058(3) Uani 1 4 d SU
N1 N 0.8709(14) 0.1291(14) 0.0000 0.055(4) Uani 1 2 d SDU
H1A H 0.9477 0.0523 0.0000 0.066 Uiso 0.50 2 calc SPR
C1 C 0.8116(11) 0.1868(11) 0.0730(8) 0.058(4) Uani 1 1 d DU
H1 H 0.8519 0.1433 0.1236 0.070 Uiso 1 1 calc R
Cl1 Cl 0.4528(4) 0.0472(4) 0.2360(8) 0.067(3) Uani 1 2 d SU
loop_
_atom_site_aniso_label
_atom_site_aniso_U_11
_atom_site_aniso_U_22
_atom_site_aniso_U_33
_atom_site_aniso_U_23
_atom_site_aniso_U_13
_atom_site_aniso_U_12
Au1 0.0384(4) 0.0384(4) 0.048(5) 0.000 0.000 -0.0004(3)
Cl3 0.0595(17) 0.0595(17) 0.056(7) 0.000 0.000 0.006(3)
Cl4 0.0607(18) 0.0607(18) 0.054(7) 0.000 0.000 -0.003(3)
N1 0.054(4) 0.054(4) 0.057(9) 0.001(5) 0.001(5) 0.009(5)
C1 0.058(5) 0.059(5) 0.058(9) 0.001(6) 0.002(6) 0.005(5)
Cl1 0.0649(15) 0.0649(15) 0.072(9) 0.002(2) -0.002(2) 0.0240(19)
loop_
_atom_type_symbol
_atom_type_description
_atom_type_scat_dispersion_real
_atom_type_scat_dispersion_imag
_atom_type_scat_source
C C 0.0033 0.0016 'International Tables Vol C Tables 4.2.6.8 and 6.1.1.4'
H H 0.0000 0.0000 'International Tables Vol C Tables 4.2.6.8 and 6.1.1.4'
N N 0.0061 0.0033 'International Tables Vol C Tables 4.2.6.8 and 6.1.1.4'
Cl Cl 0.1484 0.1585 'International Tables Vol C Tables 4.2.6.8 and 6.1.1.4'
Au Au -2.0133 8.8022 'International Tables Vol C Tables 4.2.6.8 and 6.1.1.4'
loop_
_geom_angle_atom_site_label_1
_geom_angle_atom_site_label_2
_geom_angle_atom_site_label_3
_geom_angle
_geom_angle_site_symmetry_1
_geom_angle_site_symmetry_3
Cl4 Au1 Cl3 180.000(2) . .
Cl4 Au1 Cl1 89.0(3) . 2
Cl3 Au1 Cl1 91.0(3) . 2
Cl4 Au1 Cl1 89.0(3) . .
Cl3 Au1 Cl1 91.0(3) . .
Cl1 Au1 Cl1 177.9(6) 2 .
C1 N1 C1 121.1(16) 8_665 .
C1 C1 N1 119.4(8) 2_655 .
loop_
_geom_bond_atom_site_label_1
_geom_bond_atom_site_label_2
_geom_bond_distance
_geom_bond_site_symmetry_2
Au1 Cl4 2.25(3) .
Au1 Cl3 2.28(3) .
Au1 Cl1 2.270(4) 2
Au1 Cl1 2.270(4) .
N1 C1 1.331(8) 8_665
N1 C1 1.331(8) .
C1 C1 1.398(9) 2_655
loop_
_refln_index_h
_refln_index_k
_refln_index_l
_refln_F_squared_calc
_refln_F_squared_meas
_refln_F_squared_sigma
_refln_observed_status
3 3 0 73605.80 70337.84 1422.94 o
0 4 0 68890.87 69300.60 666.54 o
2 4 0 50738.29 49013.56 415.14 o
4 4 0 38238.28 37442.55 667.06 o
1 5 0 58321.28 60353.84 432.79 o
3 5 0 21719.53 20318.77 282.55 o
5 5 0 22006.88 22255.21 723.38 o
0 6 0 26604.77 25904.52 390.20 o
2 6 0 20236.92 19917.27 227.42 o
4 6 0 18423.40 17741.19 343.32 o
6 6 0 7080.06 6808.69 450.49 o
1 7 0 16947.10 17194.15 278.08 o
3 7 0 17676.34 18713.98 339.31 o
5 7 0 5312.76 5371.00 200.72 o
7 7 0 3493.34 3668.51 513.68 o
0 8 0 7558.91 7733.93 238.71 o
2 8 0 9975.84 10256.15 261.44 o
4 8 0 4441.11 4391.65 201.19 o
6 8 0 3572.42 3526.81 492.93 o
1 9 0 6308.98 7029.50 185.97 o
3 9 0 4001.72 4341.86 179.69 o
5 9 0 2892.89 3031.94 244.25 o
0 10 0 3585.86 4401.13 246.44 o
2 10 0 1992.18 2112.66 152.33 o
4 10 0 2018.62 2155.75 149.08 o
1 11 0 1579.17 2058.29 179.04 o
3 11 0 1214.51 1500.30 134.25 o
2 12 0 752.18 914.53 215.69 o
4 12 0 494.88 714.74 165.20 o
3 13 0 262.18 182.53 72.62 o
1 1 1 874.51 719.33 37.26 o
1 2 1 2923.01 2845.88 51.44 o
2 2 1 4358.98 4343.94 137.74 o
1 3 1 1327.30 1249.93 34.75 o
2 3 1 802.63 728.49 33.18 o
3 3 1 1266.26 1210.62 63.65 o
1 4 1 2744.72 2473.11 53.22 o
2 4 1 395.19 359.83 23.73 o
3 4 1 850.84 812.27 42.70 o
4 4 1 427.48 353.60 37.96 o
1 5 1 0.02 2.31 2.02 o
2 5 1 46.95 26.49 7.29 o
3 5 1 36.67 20.97 9.00 o
4 5 1 30.33 21.66 8.55 o
5 5 1 102.00 82.71 20.00 o
1 6 1 877.31 867.76 35.85 o
2 6 1 0.55 9.48 6.54 o
3 6 1 219.64 184.45 20.31 o
4 6 1 26.35 25.87 11.15 o
5 6 1 0.08 21.23 16.36 o
6 6 1 93.73 45.33 25.93 o
1 7 1 16.44 13.84 5.45 o
2 7 1 6.64 3.63 6.58 o
3 7 1 0.61 33.34 10.51 o
4 7 1 27.38 36.27 13.05 o
5 7 1 7.00 39.12 25.46 o
6 7 1 48.39 42.05 23.69 o
1 8 1 97.03 62.53 10.12 o
2 8 1 1.14 15.56 12.89 o
3 8 1 12.84 14.45 8.31 o
4 8 1 5.35 48.80 21.46 o
5 8 1 13.92 20.36 13.39 o
6 8 1 0.43 3.08 10.24 o
1 9 1 1.02 38.89 18.09 o
2 9 1 14.90 1.72 13.58 o
3 9 1 1.20 43.07 22.69 o
4 9 1 40.02 22.54 14.00 o
5 9 1 3.97 1.38 31.72 o
1 10 1 0.78 46.87 24.38 o
2 10 1 1.57 27.56 17.66 o
3 10 1 2.24 27.37 12.85 o
4 10 1 1.27 29.51 28.12 o
5 10 1 7.14 38.49 62.80 o
1 11 1 0.04 30.85 23.75 o
2 11 1 5.79 51.77 28.62 o
3 11 1 0.63 0.85 23.26 o
4 11 1 9.35 31.38 20.87 o
1 12 1 1.14 2.55 7.64 o
2 12 1 0.20 513.80 979.16 o
3 12 1 1.48 75.15 21.80 o
4 12 1 0.90 22.63 19.03 o
2 13 1 0.52 85.51 48.21 o
3 13 1 1.04 86.86 48.82 o
1 2 2 908.62 1076.09 45.43 o
2 2 2 65735.86 68393.88 827.42 o
0 3 2 389.25 480.88 34.60 o
1 3 2 35497.00 34901.42 271.45 o
2 3 2 1278.32 1430.53 54.89 o
3 3 2 46814.02 46896.25 403.28 o
0 4 2 51085.69 51268.57 354.33 o
1 4 2 786.78 883.46 34.23 o
2 4 2 24828.37 24160.62 234.92 o
3 4 2 360.17 456.90 31.99 o
4 4 2 14520.89 14171.17 199.27 o
0 5 2 855.36 989.90 52.73 o
1 5 2 22192.80 21950.19 181.68 o
2 5 2 207.55 188.32 22.23 o
3 5 2 11611.22 11525.46 183.19 o
4 5 2 339.67 329.59 24.44 o
5 5 2 15741.03 15997.68 296.94 o
0 6 2 19488.61 19531.66 258.53 o
1 6 2 308.31 365.94 26.04 o
2 6 2 12672.63 13044.64 143.12 o
3 6 2 242.59 200.29 24.92 o
4 6 2 10481.19 10582.00 191.72 o
5 6 2 144.42 91.49 22.62 o
6 6 2 3745.96 3523.48 139.75 o
0 7 2 114.50 111.83 20.96 o
1 7 2 7848.00 7956.75 133.19 o
2 7 2 248.02 244.89 20.41 o
3 7 2 9257.18 9375.98 144.16 o
4 7 2 104.47 43.00 16.49 o
5 7 2 2830.75 2618.18 98.86 o
6 7 2 50.33 4.95 7.52 o
7 7 2 2858.10 2834.24 315.89 o
0 8 2 4471.02 4666.12 145.61 o
1 8 2 111.90 69.46 13.76 o
2 8 2 7291.89 7815.54 144.85 o
3 8 2 109.02 69.48 13.38 o
4 8 2 3297.41 3375.61 124.62 o
5 8 2 40.98 37.62 18.70 o
6 8 2 2085.31 1994.41 153.23 o
0 9 2 89.67 57.83 21.95 o
1 9 2 3630.31 3989.09 105.43 o
2 9 2 55.89 33.47 10.31 o
3 9 2 1953.64 1933.50 98.99 o
4 9 2 39.37 24.65 14.63 o
5 9 2 1904.73 1943.20 113.90 o
0 10 2 2679.54 3024.07 147.53 o
1 10 2 40.99 45.97 15.27 o
2 10 2 1447.62 1492.07 76.34 o
3 10 2 23.26 39.00 32.88 o
4 10 2 1428.53 1580.75 110.87 o
5 10 2 26.52 75.07 41.02 o
0 11 2 22.57 34.70 30.91 o
1 11 2 938.44 914.65 73.23 o
2 11 2 18.20 45.29 15.01 o
3 11 2 866.97 792.73 163.06 o
4 11 2 15.63 0.85 47.16 o
5 11 2 560.20 392.18 126.50 o
0 12 2 495.66 332.31 98.36 o
1 12 2 9.48 0.85 30.87 o
2 12 2 554.33 316.48 82.95 o
3 12 2 10.18 118.42 81.62 o
4 12 2 307.44 245.11 75.09 o
3 13 2 228.54 59.45 97.18 o
2 2 3 627.73 598.81 113.70 o
1 3 3 9.90 10.60 7.36 o
2 3 3 602.73 512.37 39.17 o
3 3 3 361.52 357.77 49.11 o
1 4 3 2215.97 1996.37 85.22 o
2 4 3 86.34 30.86 11.82 o
3 4 3 720.76 634.44 41.06 o
4 4 3 32.88 26.57 25.79 o
1 5 3 7.92 15.48 9.66 o
2 5 3 50.73 25.73 8.99 o
3 5 3 1.02 18.69 8.85 o
4 5 3 16.49 11.65 9.58 o
5 5 3 7.06 16.56 9.06 o
1 6 3 729.65 702.88 37.25 o
2 6 3 135.56 79.79 14.01 o
3 6 3 178.57 94.82 19.82 o
4 6 3 25.08 18.85 12.88 o
5 6 3 0.56 2.06 19.41 o
6 6 3 0.05 1.48 25.80 o
1 7 3 0.25 19.38 11.14 o
2 7 3 10.01 15.61 8.47 o
3 7 3 17.08 21.79 12.32 o
4 7 3 15.70 30.89 16.25 o
5 7 3 27.81 24.53 14.12 o
6 7 3 50.20 17.53 14.88 o
7 7 3 1.96 1.48 49.90 o
1 8 3 81.33 53.51 8.91 o
2 8 3 0.71 25.09 21.01 o
3 8 3 11.31 15.52 7.97 o
4 8 3 5.69 20.58 6.78 o
5 8 3 14.28 46.72 27.50 o
6 8 3 1.52 58.15 64.28 o
1 9 3 1.12 20.33 12.42 o
2 9 3 9.93 17.86 11.52 o
3 9 3 10.37 33.73 18.27 o
4 9 3 41.11 31.92 20.77 o
5 9 3 0.59 11.72 12.54 o
1 10 3 0.71 32.65 15.98 o
2 10 3 0.87 21.38 18.65 o
4 10 3 0.02 21.57 33.83 o
5 10 3 5.12 94.90 38.74 o
1 11 3 3.40 23.51 39.44 o
2 11 3 5.51 1.19 13.53 o
3 11 3 0.01 59.61 23.67 o
4 11 3 6.71 9.74 15.41 o
1 12 3 1.12 2.54 34.26 o
2 12 3 0.00 59.63 76.97 o
3 12 3 0.96 33.20 43.35 o
2 13 3 0.42 24.11 43.35 o
3 3 4 20784.85 20985.75 516.96 o
2 4 4 12089.54 11817.02 406.90 o
3 4 4 779.39 870.14 73.61 o
4 4 4 11444.25 11812.84 368.95 o
0 5 4 2277.89 2518.39 143.33 o
1 5 4 15222.50 16030.51 338.29 o
2 5 4 471.82 550.12 51.31 o
3 5 4 4695.27 4708.19 143.55 o
4 5 4 895.67 1021.53 59.94 o
5 5 4 8378.74 8303.11 227.11 o
0 6 4 10208.10 10278.02 317.01 o
1 6 4 726.55 855.93 56.43 o
2 6 4 6888.19 7239.06 155.92 o
3 6 4 603.52 705.48 41.65 o
4 6 4 6534.79 6781.88 176.56 o
5 6 4 390.20 367.67 35.50 o
6 6 4 2204.09 1982.36 121.90 o
0 7 4 283.05 286.97 45.68 o
1 7 4 4092.62 4450.03 136.20 o
2 7 4 691.02 767.36 49.31 o
3 7 4 6304.39 6640.87 140.00 o
4 7 4 291.36 190.46 37.70 o
5 7 4 1972.80 1843.26 87.83 o
6 7 4 145.74 37.70 9.29 o
7 7 4 1781.17 1797.15 136.99 o
0 8 4 3271.76 3704.20 182.41 o
1 8 4 304.98 276.19 30.60 o
2 8 4 4520.80 4927.47 148.41 o
3 8 4 303.76 260.07 27.30 o
4 8 4 1544.80 1328.61 83.38 o
5 8 4 113.42 24.88 8.42 o
6 8 4 1364.20 1386.15 101.51 o
7 8 4 116.65 75.92 31.72 o
0 9 4 248.18 130.77 29.75 o
1 9 4 2112.16 2215.03 103.34 o
2 9 4 156.54 127.89 26.03 o
3 9 4 1487.23 1550.06 86.25 o
4 9 4 119.57 60.51 19.35 o
5 9 4 1415.85 1592.74 116.40 o
6 9 4 97.51 66.61 37.64 o
0 10 4 1834.84 2037.56 137.17 o
1 10 4 129.36 72.29 18.40 o
2 10 4 896.14 753.34 69.92 o
3 10 4 69.87 30.54 22.42 o
4 10 4 930.71 840.98 106.44 o
5 10 4 81.18 35.72 38.70 o
0 11 4 64.45 75.21 43.14 o
1 11 4 710.01 580.66 72.51 o
2 11 4 53.84 22.14 24.93 o
3 11 4 584.82 348.92 84.03 o
4 11 4 50.58 55.07 29.85 o
1 12 4 32.15 96.22 65.98 o
2 12 4 392.90 126.46 144.46 o
3 12 4 33.61 106.29 60.69 o
4 12 4 264.46 136.20 84.39 o
2 13 4 17.53 29.39 39.54 o
3 13 4 152.61 852.25 241.93 o
3 5 5 179.69 104.95 38.49 o
4 5 5 9.58 39.54 56.25 o
5 5 5 0.18 17.97 17.02 o
1 6 5 526.72 533.59 126.10 o
2 6 5 41.49 50.86 37.38 o
3 6 5 107.82 94.89 31.33 o
4 6 5 193.76 119.80 39.58 o
5 6 5 1.00 10.58 18.59 o
6 6 5 38.82 13.29 24.18 o
1 7 5 60.77 38.70 30.16 o
2 7 5 5.70 9.32 11.38 o
3 7 5 0.27 22.66 19.48 o
4 7 5 12.65 10.76 10.25 o
5 7 5 0.47 37.21 27.29 o
6 7 5 38.91 20.06 17.40 o
1 8 5 51.31 15.16 13.18 o
2 8 5 18.34 19.91 21.85 o
3 8 5 11.91 20.19 20.77 o
4 8 5 11.37 14.07 26.94 o
5 8 5 13.84 18.90 19.78 o
6 8 5 3.86 62.38 76.13 o
1 9 5 23.08 2.54 5.56 o
2 9 5 8.36 39.94 21.87 o
3 9 5 0.09 12.71 12.82 o
4 9 5 28.73 11.10 10.26 o
5 9 5 4.48 16.33 15.86 o
6 9 5 14.18 69.15 35.95 o
1 10 5 0.62 49.60 36.15 o
2 10 5 11.97 10.01 14.63 o
3 10 5 2.61 1.06 45.46 o
4 10 5 0.02 1.48 41.45 o
1 11 5 0.00 49.69 73.38 o
2 11 5 4.20 174.26 60.60 o
3 11 5 7.88 50.75 54.56 o
1 12 5 0.81 6.56 32.56 o
2 12 5 0.45 127.75 67.17 o
4 6 6 8752.03 9594.28 706.68 o
5 6 6 1277.95 1843.83 238.49 o
6 6 6 3827.72 4143.41 540.44 o
2 7 6 2084.47 2810.19 344.47 o
3 7 6 8378.20 9159.38 668.12 o
4 7 6 978.64 963.38 174.45 o
5 7 6 2427.55 2345.21 173.51 o
6 7 6 469.79 402.32 52.27 o
7 7 6 1855.53 1432.62 125.77 o
0 8 6 2955.89 3105.04 309.70 o
1 8 6 1018.26 1246.11 135.77 o
2 8 6 4945.23 4897.41 251.38 o
3 8 6 933.16 867.09 96.32 o
4 8 6 2901.10 2686.34 162.51 o
5 8 6 380.39 341.83 148.06 o
6 8 6 1960.20 2050.61 209.21 o
0 9 6 743.27 622.46 139.64 o
1 9 6 3685.47 3845.16 243.87 o
2 9 6 499.57 538.08 74.13 o
3 9 6 1883.95 1813.68 123.08 o
4 9 6 350.30 257.84 109.88 o
5 9 6 1363.79 1356.31 204.04 o
0 10 6 1784.33 1808.14 251.32 o
1 10 6 350.87 260.92 53.63 o
2 10 6 1100.32 1055.03 107.73 o
3 10 6 210.18 123.36 49.04 o
4 10 6 1130.38 984.78 180.83 o
5 10 6 209.70 196.89 85.44 o
0 11 6 184.59 53.08 57.10 o
1 11 6 808.31 550.15 124.51 o
2 11 6 151.14 99.51 52.56 o
3 11 6 678.62 520.77 133.06 o
2 12 6 417.50 119.93 60.07 o
1 10 7 0.14 20.72 31.51 o
