#------------------------------------------------------------------------------
#$Date: 2019-11-24 10:29:40 +0200 (Sun, 24 Nov 2019) $
#$Revision: 237638 $
#$URL: file:///home/coder/svn-repositories/cod/cif/7/23/73/7237394.cif $
#------------------------------------------------------------------------------
#
# This file is available in the Crystallography Open Database (COD),
# http://www.crystallography.net/
#
# All data on this site have been placed in the public domain by the
# contributors.
#
data_7237394
loop_
_publ_author_name
'Paliwoda, Damian'
'Szafra\'nski, Marek'
'Hanfland, Michael'
'Katrusiak, Andrzej'
_publ_section_title
;
 A giant 2-dimensional dielectric response in a compressed hydrogen-bonded
 hybrid organic--inorganic salt
;
_journal_issue                   28
_journal_name_full               'Journal of Materials Chemistry C'
_journal_page_first              7689
_journal_paper_doi               10.1039/C8TC02464B
_journal_volume                  6
_journal_year                    2018
_chemical_formula_moiety         'C4 H5 N2 Au Cl4'
_chemical_formula_sum            'C4 H5 Au Cl4 N2'
_chemical_formula_weight         419.87
_chemical_name_common            'pyrazinium tetrachloroaurate'
_chemical_name_systematic
; 
pyrazinium tetrachloroaurate 
;
_space_group_IT_number           138
_space_group_name_Hall           '-P 4ac 2ac'
_space_group_name_H-M_alt        'P 42/n c m :2'
_symmetry_cell_setting           tetragonal
_symmetry_space_group_name_Hall  '-P 4ac 2ac'
_symmetry_space_group_name_H-M   'P 42/n c m :2'
_atom_sites_solution_hydrogens   geom
_atom_sites_solution_primary     direct
_atom_sites_solution_secondary   difmap
_audit_creation_method           SHELXL-97
_audit_update_record
;
2017-04-07 deposited with the CCDC.
2018-06-28 downloaded from the CCDC.
;
_cell_angle_alpha                90.00
_cell_angle_beta                 90.00
_cell_angle_gamma                90.00
_cell_formula_units_Z            4
_cell_length_a                   7.87450(10)
_cell_length_b                   7.87450(10)
_cell_length_c                   15.8305(4)
_cell_measurement_reflns_used    6025
_cell_measurement_temperature    250(2)
_cell_measurement_theta_max      29.10
_cell_measurement_theta_min      2.57
_cell_volume                     981.61(3)
_computing_cell_refinement       'CrysAlisRED (Oxford Diffraction, 2004)'
_computing_data_collection       'CrysAlisCCD (Oxford Diffraction, 2004)'
_computing_data_reduction        'CrysAlisRED (Oxford Diffraction, 2004)'
_computing_molecular_graphics    'SHELXTL (Sheldrick, 1990)'
_computing_publication_material  'SHELXL--97 (Sheldrick, 1997)'
_computing_structure_refinement  'SHELXL--97 (Sheldrick, 1997)'
_computing_structure_solution    'SHELXS--97 (Sheldrick, 1997)'
_diffrn_ambient_temperature      250(2)
_diffrn_measured_fraction_theta_full 0.970
_diffrn_measured_fraction_theta_max 0.970
_diffrn_measurement_device_type  'KM-4 CCD'
_diffrn_measurement_method       \w-scans
_diffrn_radiation_monochromator  graphite
_diffrn_radiation_source         'fine-focus sealed tube'
_diffrn_radiation_type           MoK\a
_diffrn_radiation_wavelength     0.71073
_diffrn_reflns_av_R_equivalents  0.0759
_diffrn_reflns_av_sigmaI/netI    0.0294
_diffrn_reflns_limit_h_max       10
_diffrn_reflns_limit_h_min       -9
_diffrn_reflns_limit_k_max       10
_diffrn_reflns_limit_k_min       -10
_diffrn_reflns_limit_l_max       21
_diffrn_reflns_limit_l_min       -21
_diffrn_reflns_number            6025
_diffrn_reflns_theta_full        29.10
_diffrn_reflns_theta_max         29.10
_diffrn_reflns_theta_min         2.57
_diffrn_standards_decay_%        0
_diffrn_standards_interval_count 0
_diffrn_standards_number         0
_exptl_absorpt_coefficient_mu    16.015
_exptl_absorpt_correction_T_max  0.041
_exptl_absorpt_correction_T_min  0.030
_exptl_absorpt_correction_type   numerical
_exptl_absorpt_process_details
; 
 Correction for absorption was made using XEMP (SHELXTL, 
 Sheldrick (1990)).
;
_exptl_crystal_colour            orange
_exptl_crystal_density_diffrn    2.841
_exptl_crystal_density_method    'not measured'
_exptl_crystal_description       plate
_exptl_crystal_F_000             760
_exptl_crystal_size_max          0.50
_exptl_crystal_size_mid          0.20
_exptl_crystal_size_min          0.20
_refine_diff_density_max         2.943
_refine_diff_density_min         -1.429
_refine_diff_density_rms         0.291
_refine_ls_extinction_coef       0.0025(4)
_refine_ls_extinction_expression Fc^*^=kFc[1+0.001xFc^2^\l^3^/sin(2\q)]^-1/4^
_refine_ls_extinction_method     SHELXL
_refine_ls_goodness_of_fit_ref   1.110
_refine_ls_hydrogen_treatment    constr
_refine_ls_matrix_type           full
_refine_ls_number_parameters     34
_refine_ls_number_reflns         706
_refine_ls_number_restraints     0
_refine_ls_restrained_S_all      1.110
_refine_ls_R_factor_all          0.0447
_refine_ls_R_factor_gt           0.0370
_refine_ls_shift/su_max          0.000
_refine_ls_shift/su_mean         0.000
_refine_ls_structure_factor_coef Fsqd
_refine_ls_weighting_details
'calc w=1/[\s^2^(Fo^2^)+(0.0679P)^2^+0.0000P] where P=(Fo^2^+2Fc^2^)/3'
_refine_ls_weighting_scheme      calc
_refine_ls_wR_factor_gt          0.1026
_refine_ls_wR_factor_ref         0.1117
_reflns_number_gt                554
_reflns_number_total             706
_reflns_threshold_expression     >2sigma(I)
_cod_data_source_file            c8tc02464b2.cif
_cod_data_source_block           pyrazinium_tetrachloroaurate_250K
_cod_original_sg_symbol_H-M      'P 42/n c m'
_cod_database_code               7237394
loop_
_symmetry_equiv_pos_as_xyz
'x, y, z'
'-x+1/2, -y+1/2, z'
'-y+1/2, x, z+1/2'
'y, -x+1/2, z+1/2'
'-x, y+1/2, -z+1/2'
'x+1/2, -y, -z+1/2'
'y+1/2, x+1/2, -z'
'-y, -x, -z'
'-x, -y, -z'
'x-1/2, y-1/2, -z'
'y-1/2, -x, -z-1/2'
'-y, x-1/2, -z-1/2'
'x, -y-1/2, z-1/2'
'-x-1/2, y, z-1/2'
'-y-1/2, -x-1/2, z'
'y, x, z'
loop_
_atom_site_label
_atom_site_type_symbol
_atom_site_fract_x
_atom_site_fract_y
_atom_site_fract_z
_atom_site_U_iso_or_equiv
_atom_site_adp_type
_atom_site_occupancy
_atom_site_symmetry_multiplicity
_atom_site_calc_flag
_atom_site_refinement_flags
Au1 Au 1.2500 0.2500 0.26308(3) 0.0267(3) Uani 1 4 d S
Cl1 Cl 1.04520(16) 0.04520(16) 0.26514(11) 0.0449(5) Uani 1 2 d S
Cl2 Cl 1.2500 0.2500 0.4075(3) 0.0372(8) Uani 1 4 d S
Cl3 Cl 1.2500 0.2500 0.1188(3) 0.0384(8) Uani 1 4 d S
N1 N 0.8714(5) 0.1286(5) 0.0000 0.0353(12) Uani 1 2 d S
H1A H 0.9486 0.0514 0.0000 0.042 Uiso 0.50 2 calc SPR
C1 C 0.8124(7) 0.1873(7) 0.0725(3) 0.0381(11) Uani 1 1 d .
H1 H 0.8540 0.1450 0.1233 0.046 Uiso 1 1 calc R
loop_
_atom_site_aniso_label
_atom_site_aniso_U_11
_atom_site_aniso_U_22
_atom_site_aniso_U_33
_atom_site_aniso_U_23
_atom_site_aniso_U_13
_atom_site_aniso_U_12
Au1 0.0260(3) 0.0260(3) 0.0280(4) 0.000 0.000 0.00018(9)
Cl1 0.0453(8) 0.0453(8) 0.0441(11) -0.0002(5) -0.0002(5) -0.0166(8)
Cl2 0.0418(12) 0.0418(12) 0.0281(19) 0.000 0.000 0.0024(8)
Cl3 0.0439(13) 0.0439(13) 0.0272(18) 0.000 0.000 -0.0044(8)
N1 0.0317(18) 0.0317(18) 0.042(3) 0.0018(18) 0.0018(18) 0.008(2)
C1 0.036(2) 0.038(2) 0.040(3) 0.008(2) -0.004(2) 0.005(3)
loop_
_atom_type_symbol
_atom_type_description
_atom_type_scat_dispersion_real
_atom_type_scat_dispersion_imag
_atom_type_scat_source
C C 0.0033 0.0016 'International Tables Vol C Tables 4.2.6.8 and 6.1.1.4'
H H 0.0000 0.0000 'International Tables Vol C Tables 4.2.6.8 and 6.1.1.4'
N N 0.0061 0.0033 'International Tables Vol C Tables 4.2.6.8 and 6.1.1.4'
Cl Cl 0.1484 0.1585 'International Tables Vol C Tables 4.2.6.8 and 6.1.1.4'
Au Au -2.0133 8.8022 'International Tables Vol C Tables 4.2.6.8 and 6.1.1.4'
loop_
_geom_angle_atom_site_label_1
_geom_angle_atom_site_label_2
_geom_angle_atom_site_label_3
_geom_angle
_geom_angle_site_symmetry_1
_geom_angle_site_symmetry_3
Cl2 Au1 Cl3 180.0 . .
Cl2 Au1 Cl1 89.18(5) . 2_755
Cl3 Au1 Cl1 90.82(5) . 2_755
Cl2 Au1 Cl1 89.18(5) . .
Cl3 Au1 Cl1 90.82(5) . .
Cl1 Au1 Cl1 178.36(9) 2_755 .
C1 N1 C1 120.6(6) . 8_665
N1 C1 C1 119.7(3) . 2_655
loop_
_geom_bond_atom_site_label_1
_geom_bond_atom_site_label_2
_geom_bond_distance
_geom_bond_site_symmetry_2
Au1 Cl2 2.287(4) .
Au1 Cl3 2.284(4) .
Au1 Cl1 2.2809(18) 2_755
Au1 Cl1 2.2809(18) .
N1 C1 1.321(6) .
N1 C1 1.321(6) 8_665
C1 C1 1.393(13) 2_655
loop_
_refln_index_h
_refln_index_k
_refln_index_l
_refln_F_squared_calc
_refln_F_squared_meas
_refln_F_squared_sigma
_refln_observed_status
1 1 0 101209.96 116618.88 722.71 o
0 2 0 121074.80 136367.00 642.64 o
2 2 0 190358.48 217395.02 869.70 o
1 3 0 97064.98 104398.42 1174.56 o
3 3 0 84234.13 87428.84 897.89 o
0 4 0 79828.95 84713.25 596.88 o
2 4 0 57501.04 59410.59 811.21 o
4 4 0 52250.03 50813.19 1098.16 o
1 5 0 72704.25 75588.53 973.13 o
3 5 0 28410.85 28061.98 470.03 o
5 5 0 33056.48 32701.52 510.97 o
0 6 0 34176.46 34753.36 329.83 o
2 6 0 28572.71 28390.88 364.61 o
4 6 0 27201.14 27022.15 247.33 o
6 6 0 13154.23 13649.94 554.55 o
1 7 0 25658.33 25801.04 515.89 o
3 7 0 29026.22 28875.17 277.32 o
5 7 0 9244.85 8991.98 382.21 o
7 7 0 7789.49 8165.79 513.63 o
0 8 0 12499.71 12743.37 538.07 o
2 8 0 16946.03 17940.04 227.47 o
4 8 0 8250.78 8037.95 386.65 o
6 8 0 8196.13 8577.29 516.90 o
1 9 0 12455.31 12958.58 297.54 o
3 9 0 8282.33 7333.47 1476.56 o
5 9 0 7059.54 7431.89 472.26 o
0 10 0 8150.48 9076.84 474.70 o
2 10 0 4264.90 4179.82 1370.60 o
1 1 1 875.19 936.62 34.06 o
1 2 1 2859.40 2986.68 46.77 o
2 2 1 4873.90 4743.78 178.38 o
1 3 1 1562.90 1584.66 25.79 o
2 3 1 863.23 888.97 20.30 o
3 3 1 1604.72 1677.72 53.50 o
1 4 1 3250.87 3239.74 42.15 o
2 4 1 487.47 487.83 17.02 o
3 4 1 1109.15 1114.89 30.83 o
4 4 1 639.36 633.05 27.47 o
1 5 1 0.01 7.85 2.34 o
2 5 1 63.10 67.48 6.71 o
3 5 1 67.86 70.56 6.65 o
4 5 1 69.41 73.07 7.50 o
5 5 1 211.78 227.42 18.97 o
1 6 1 1400.39 1451.27 33.30 o
2 6 1 2.18 2.46 4.20 o
3 6 1 468.61 414.90 24.74 o
4 6 1 45.83 45.67 8.38 o
5 6 1 7.73 -0.93 4.60 o
6 6 1 224.72 204.85 38.23 o
1 7 1 29.74 28.82 5.74 o
2 7 1 9.26 6.64 4.54 o
3 7 1 1.00 15.86 5.77 o
4 7 1 37.90 26.02 7.75 o
5 7 1 25.83 -3.97 14.83 o
6 7 1 63.23 108.63 29.28 o
7 7 1 5.37 39.61 31.19 o
1 8 1 273.03 312.63 30.33 o
2 8 1 3.61 10.69 11.10 o
3 8 1 60.71 27.00 18.72 o
4 8 1 9.87 8.38 21.07 o
5 8 1 5.39 0.42 12.66 o
6 8 1 0.24 20.53 21.14 o
1 9 1 3.76 33.96 15.24 o
2 9 1 34.16 11.12 18.90 o
3 9 1 2.54 3.47 14.75 o
4 9 1 86.39 99.35 39.25 o
5 9 1 15.02 33.63 28.34 o
1 10 1 9.74 18.66 6.39 o
2 10 1 5.07 -21.01 28.30 o
3 10 1 0.12 -15.08 15.08 o
0 0 2 79532.52 43050.35 1645.53 o
0 1 2 2445.52 2500.82 75.76 o
1 1 2 105923.59 128758.41 1843.71 o
0 2 2 16666.69 16984.96 365.34 o
1 2 2 1214.52 1227.50 22.32 o
2 2 2 70898.26 75434.02 943.20 o
0 3 2 612.05 613.38 23.74 o
1 3 2 37600.28 39598.64 610.80 o
2 3 2 1844.88 1776.21 34.02 o
3 3 2 53256.12 54877.96 729.15 o
0 4 2 59772.38 61774.41 1049.07 o
1 4 2 1132.60 1195.60 25.01 o
2 4 2 27093.71 26939.86 489.59 o
3 4 2 590.85 570.80 21.18 o
4 4 2 18983.68 18455.45 384.81 o
0 5 2 1415.60 1425.84 41.43 o
1 5 2 26163.73 26697.61 348.89 o
2 5 2 365.78 357.57 17.31 o
3 5 2 14697.10 14670.91 507.51 o
4 5 2 648.08 632.53 28.14 o
5 5 2 23577.60 24223.57 340.23 o
0 6 2 24923.49 25167.92 397.92 o
1 6 2 553.34 571.82 24.05 o
2 6 2 17758.87 17982.17 268.22 o
3 6 2 462.12 443.94 26.07 o
4 6 2 14691.90 14957.39 345.79 o
5 6 2 316.55 320.85 22.35 o
6 6 2 6405.61 6932.69 315.03 o
0 7 2 223.50 240.08 29.33 o
1 7 2 11058.54 11066.57 201.98 o
2 7 2 534.83 513.31 30.35 o
3 7 2 14233.19 14197.62 527.22 o
4 7 2 233.74 236.36 27.42 o
5 7 2 4521.32 4430.25 146.89 o
6 7 2 148.82 178.51 33.05 o
7 7 2 6600.36 7146.91 528.98 o
0 8 2 7027.85 7290.80 213.79 o
1 8 2 262.66 250.08 27.55 o
2 8 2 12282.24 13174.30 371.75 o
3 8 2 270.81 267.87 30.82 o
4 8 2 6109.25 6072.69 185.63 o
5 8 2 116.63 101.58 19.91 o
6 8 2 4316.27 4420.98 227.97 o
0 9 2 236.72 224.90 38.52 o
1 9 2 6678.55 7150.01 153.64 o
2 9 2 142.39 129.30 24.99 o
3 9 2 3523.41 3614.27 228.20 o
4 9 2 130.41 156.87 39.39 o
5 9 2 4431.75 4555.15 296.68 o
0 10 2 6006.97 7203.79 472.72 o
1 10 2 135.51 161.81 51.47 o
2 10 2 2990.20 3157.07 201.79 o
3 10 2 76.69 89.21 26.60 o
1 1 3 2589.92 3024.39 57.41 o
1 2 3 2234.09 2282.27 34.74 o
2 2 3 741.51 790.17 26.13 o
1 3 3 5.31 7.43 2.45 o
2 3 3 681.21 701.69 20.42 o
3 3 3 531.55 554.49 29.16 o
1 4 3 2666.92 2715.69 45.29 o
2 4 3 133.56 141.55 9.55 o
3 4 3 966.00 953.18 25.80 o
4 4 3 45.15 48.17 12.38 o
1 5 3 8.81 7.49 3.58 o
2 5 3 58.89 52.64 6.41 o
3 5 3 5.77 8.38 7.70 o
4 5 3 50.56 56.37 10.55 o
5 5 3 18.05 33.91 12.35 o
1 6 3 1218.73 1232.87 38.31 o
2 6 3 234.88 229.39 16.34 o
3 6 3 379.49 398.01 25.32 o
4 6 3 55.35 40.37 10.50 o
5 6 3 10.18 8.42 8.31 o
6 6 3 0.47 26.61 18.23 o
1 7 3 1.42 5.15 5.33 o
2 7 3 8.94 12.82 6.47 o
3 7 3 39.88 35.47 5.80 o
4 7 3 27.61 29.28 10.48 o
5 7 3 50.01 42.99 12.37 o
6 7 3 63.88 75.03 26.09 o
7 7 3 5.20 114.75 84.00 o
1 8 3 228.06 261.36 28.33 o
2 8 3 1.50 13.46 7.72 o
3 8 3 60.24 69.62 12.99 o
4 8 3 16.41 -7.24 13.00 o
5 8 3 6.91 23.18 12.81 o
6 8 3 6.40 2.54 26.62 o
1 9 3 3.85 22.40 11.72 o
2 9 3 27.83 5.63 13.12 o
3 9 3 24.59 34.96 19.26 o
4 9 3 81.78 84.82 23.92 o
5 9 3 5.39 23.22 39.19 o
1 10 3 8.81 23.08 12.65 o
2 10 3 4.17 -20.14 20.14 o
3 10 3 0.28 -2.61 10.49 o
0 0 4 82832.65 60300.98 1689.15 o
0 1 4 4573.53 5013.75 85.06 o
1 1 4 29238.29 32089.24 334.23 o
0 2 4 6376.59 6385.36 122.26 o
1 2 4 2138.73 2117.71 32.27 o
2 2 4 38983.60 39303.64 1057.82 o
0 3 4 955.60 956.12 33.98 o
1 3 4 23354.47 23834.41 366.43 o
2 3 4 4184.82 4172.00 88.86 o
3 3 4 24139.70 24471.48 511.81 o
0 4 4 20467.43 20418.18 420.53 o
1 4 4 2473.05 2364.75 44.27 o
2 4 4 13203.30 12961.91 219.35 o
3 4 4 1206.50 1183.92 30.55 o
4 4 4 15914.27 16340.35 478.10 o
0 5 4 3443.52 3355.19 83.21 o
1 5 4 19057.49 19310.45 342.72 o
2 5 4 684.64 671.27 22.55 o
3 5 4 5881.41 5764.70 147.70 o
4 5 4 1570.68 1619.73 57.12 o
5 5 4 12406.48 12893.66 252.00 o
0 6 4 12924.25 12573.86 319.37 o
1 6 4 1260.35 1224.84 36.47 o
2 6 4 9738.78 9832.03 178.70 o
3 6 4 1061.76 1054.94 37.95 o
4 6 4 9316.99 9312.09 208.00 o
5 6 4 754.13 790.51 46.55 o
6 6 4 3867.23 4058.51 190.70 o
0 7 4 450.16 466.34 40.93 o
1 7 4 5752.09 5612.69 189.35 o
2 7 4 1347.31 1285.75 50.16 o
3 7 4 10058.42 10338.58 292.23 o
4 7 4 544.59 568.74 39.51 o
5 7 4 3175.19 3313.41 105.35 o
6 7 4 358.27 389.46 43.62 o
7 7 4 3962.64 4296.27 471.30 o
0 8 4 5404.11 5552.70 426.46 o
1 8 4 605.25 611.22 42.84 o
2 8 4 7641.71 7863.93 333.37 o
3 8 4 672.06 709.05 51.84 o
4 8 4 2659.03 2701.92 124.75 o
5 8 4 275.06 243.87 48.96 o
6 8 4 2889.30 2744.91 220.88 o
0 9 4 624.98 671.15 92.98 o
1 9 4 3763.58 4043.37 135.90 o
2 9 4 344.85 327.30 43.37 o
3 9 4 2787.41 2986.78 159.55 o
4 9 4 321.38 295.20 50.10 o
5 9 4 3384.05 3176.38 514.61 o
0 10 4 4189.75 5022.96 434.36 o
1 10 4 331.61 288.15 69.31 o
2 10 4 1817.75 1944.79 138.76 o
3 10 4 187.62 210.13 52.19 o
1 1 5 713.00 685.66 33.93 o
1 2 5 1409.43 1457.97 34.99 o
2 2 5 347.80 373.58 24.71 o
1 3 5 471.66 487.65 18.59 o
2 3 5 452.87 456.83 17.72 o
3 3 5 238.88 234.31 17.09 o
1 4 5 1819.62 1747.34 36.64 o
2 4 5 554.36 564.74 21.22 o
3 4 5 712.30 690.28 20.16 o
4 4 5 0.65 8.90 6.15 o
1 5 5 190.62 190.67 10.90 o
2 5 5 46.65 37.92 4.97 o
3 5 5 264.76 254.97 15.61 o
4 5 5 31.31 18.86 6.70 o
5 5 5 1.39 -3.88 3.88 o
1 6 5 889.93 911.30 31.53 o
2 6 5 70.74 64.60 8.02 o
3 6 5 273.88 286.77 17.91 o
4 6 5 407.87 423.78 24.82 o
5 6 5 10.29 21.86 8.03 o
6 6 5 107.41 80.81 31.64 o
1 7 5 123.78 117.53 11.49 o
2 7 5 10.72 6.41 3.77 o
3 7 5 4.91 0.07 6.30 o
4 7 5 15.45 11.25 5.21 o
5 7 5 1.11 -1.75 11.49 o
6 7 5 54.34 49.48 14.30 o
7 7 5 21.56 64.09 40.57 o
1 8 5 173.81 198.33 28.45 o
2 8 5 46.96 32.26 17.02 o
3 8 5 44.11 29.06 9.20 o
4 8 5 29.81 56.58 12.78 o
5 8 5 7.00 6.14 13.00 o
6 8 5 16.87 9.98 44.72 o
1 9 5 69.17 108.23 29.01 o
2 9 5 16.89 -19.00 23.79 o
3 9 5 0.04 -2.15 16.97 o
4 9 5 69.06 120.05 63.27 o
5 9 5 10.48 -80.66 111.59 o
1 10 5 6.90 -17.38 17.38 o
2 10 5 47.08 79.20 38.91 o
0 0 6 128063.90 126355.98 2321.29 o
0 1 6 24030.06 23917.44 792.80 o
1 1 6 58078.22 60277.31 1590.41 o
0 2 6 49083.18 52271.17 1120.21 o
1 2 6 14419.80 14409.55 243.18 o
2 2 6 79328.16 85632.85 1246.67 o
0 3 6 8768.33 8493.80 181.53 o
1 3 6 34369.69 34127.37 483.80 o
2 3 6 17109.63 16854.78 259.87 o
3 3 6 46058.64 45474.65 1142.80 o
0 4 6 53635.59 55400.49 1140.75 o
1 4 6 11417.69 11160.87 172.14 o
2 4 6 28923.74 28728.93 486.94 o
3 4 6 6536.72 6317.64 136.04 o
4 4 6 19266.68 18487.28 730.59 o
0 5 6 12785.99 12393.05 339.33 o
1 5 6 30131.21 29930.50 462.49 o
2 5 6 4473.31 4165.70 67.37 o
3 5 6 17751.54 17032.80 239.25 o
4 5 6 6106.79 5717.82 173.31 o
5 5 6 20258.00 20605.13 785.23 o
0 6 6 18481.14 16998.78 570.38 o
1 6 6 5479.92 5111.11 136.57 o
2 6 6 14647.12 14466.69 332.33 o
3 6 6 4505.78 4354.05 80.60 o
4 6 6 13752.98 14098.55 264.62 o
5 6 6 2997.72 2965.05 93.87 o
6 6 6 7506.23 7453.54 268.13 o
0 7 6 2547.10 2338.24 108.08 o
1 7 6 15453.22 14700.71 543.29 o
2 7 6 4865.22 4832.22 161.69 o
3 7 6 14576.56 15558.65 368.23 o
4 7 6 2294.52 2344.28 94.64 o
5 7 6 4321.62 4351.53 123.23 o
6 7 6 1395.07 1415.63 78.58 o
7 7 6 4510.38 4620.26 295.09 o
0 8 6 4861.69 5402.12 290.99 o
1 8 6 2474.61 2523.06 116.85 o
2 8 6 8912.73 10287.65 301.62 o
3 8 6 2430.80 2689.39 123.62 o
4 8 6 6003.38 6113.98 171.10 o
5 8 6 1111.05 1122.89 79.67 o
6 8 6 4816.80 4290.87 388.68 o
0 9 6 2095.50 2316.79 193.65 o
1 9 6 7994.92 9048.41 259.48 o
2 9 6 1345.69 1516.73 106.40 o
3 9 6 3994.79 4402.95 259.06 o
4 9 6 1165.89 1254.87 124.50 o
0 10 6 4227.26 4750.04 464.65 o
1 10 6 1168.12 1271.83 145.42 o
2 10 6 2475.69 2595.89 217.90 o
1 1 7 2577.72 2606.10 83.47 o
1 2 7 725.31 725.10 28.79 o
2 2 7 2.46 1.69 14.09 o
1 3 7 458.97 469.97 20.41 o
2 3 7 267.54 263.25 16.49 o
3 3 7 0.48 7.48 6.59 o
1 4 7 1092.71 1080.86 31.91 o
2 4 7 3.84 1.25 3.63 o
3 4 7 396.56 389.72 20.77 o
4 4 7 1228.89 1306.55 92.39 o
1 5 7 89.10 77.64 6.85 o
2 5 7 22.70 12.38 5.75 o
3 5 7 395.21 412.44 25.66 o
4 5 7 28.18 35.10 6.85 o
5 5 7 141.52 164.12 34.44 o
1 6 7 550.32 576.67 28.23 o
2 6 7 766.31 748.86 34.16 o
3 6 7 183.73 183.41 13.34 o
4 6 7 14.43 28.28 9.95 o
5 6 7 2.72 26.30 10.32 o
6 6 7 79.01 66.73 24.50 o
1 7 7 0.53 2.93 7.04 o
2 7 7 2.32 2.58 10.76 o
3 7 7 199.59 257.28 34.77 o
4 7 7 18.16 13.29 6.54 o
5 7 7 21.07 44.10 13.49 o
6 7 7 25.51 48.88 14.65 o
7 7 7 0.60 55.88 44.11 o
1 8 7 105.88 73.61 24.95 o
2 8 7 15.22 55.13 19.57 o
3 8 7 27.83 32.74 15.30 o
4 8 7 43.03 43.78 12.01 o
5 8 7 2.33 -11.62 34.31 o
6 8 7 43.28 102.28 52.37 o
1 9 7 18.08 38.09 29.83 o
2 9 7 16.88 30.49 25.00 o
3 9 7 93.80 66.99 37.56 o
4 9 7 32.77 74.51 49.56 o
1 10 7 4.08 -18.80 26.18 o
2 10 7 20.27 35.15 7.91 o
0 0 8 62339.48 71046.83 1309.79 o
0 1 8 27573.19 26741.51 1277.76 o
1 1 8 43582.96 43339.93 1513.98 o
0 2 8 17320.32 16819.93 464.39 o
1 2 8 17402.10 17414.08 224.30 o
2 2 8 35963.28 35654.79 721.57 o
0 3 8 10969.95 10668.12 208.48 o
1 3 8 31638.21 32919.64 490.73 o
2 3 8 21042.42 20733.80 353.31 o
3 3 8 25225.23 26387.36 627.00 o
0 4 8 22336.77 21227.49 412.35 o
1 4 8 14525.99 13744.91 278.20 o
2 4 8 17617.48 16677.14 464.27 o
3 4 8 8505.90 8479.35 158.13 o
4 4 8 17310.52 17775.32 729.86 o
0 5 8 16067.53 15830.74 442.44 o
1 5 8 19047.16 18873.84 318.27 o
2 5 8 5861.44 5430.21 143.79 o
3 5 8 8304.00 8106.35 238.76 o
4 5 8 8092.40 8090.78 220.57 o
5 5 8 11180.45 11392.62 545.15 o
0 6 8 15199.27 14539.74 521.20 o
1 6 8 7394.07 7121.65 139.68 o
2 6 8 12007.09 11463.52 275.22 o
3 6 8 6028.63 5906.34 135.50 o
4 6 8 9360.98 9434.01 215.83 o
5 6 8 4061.16 4118.56 123.52 o
6 6 8 3811.43 3926.34 178.05 o
0 7 8 3404.77 3209.46 152.18 o
1 7 8 5771.12 6041.16 158.08 o
2 7 8 6458.34 6558.90 224.41 o
3 7 8 8682.51 9112.14 241.78 o
4 7 8 3151.33 3075.93 103.96 o
5 7 8 4040.29 3980.79 135.94 o
6 7 8 1944.48 1734.46 122.01 o
0 8 8 6996.50 7067.43 319.46 o
1 8 8 3398.33 3475.24 142.43 o
2 8 8 7583.28 7839.75 274.27 o
3 8 8 3347.29 3429.34 120.96 o
4 8 8 2873.91 3043.67 115.83 o
5 8 8 1566.54 1378.88 155.04 o
0 9 8 2925.52 3014.51 182.04 o
1 9 8 3140.59 3281.89 131.25 o
2 9 8 1884.36 1927.31 120.02 o
3 9 8 2770.32 2962.05 254.23 o
1 1 9 995.92 842.65 53.45 o
1 2 9 325.67 327.38 22.56 o
2 2 9 420.57 439.92 30.81 o
1 3 9 645.03 653.39 28.47 o
2 3 9 137.66 144.85 13.33 o
3 3 9 204.61 170.25 20.42 o
1 4 9 531.66 516.16 23.20 o
2 4 9 364.47 339.08 22.58 o
3 4 9 194.58 195.46 18.20 o
4 4 9 100.11 116.99 27.50 o
1 5 9 136.77 125.22 10.93 o
2 5 9 8.98 3.52 5.43 o
3 5 9 171.13 174.08 18.18 o
4 5 9 18.35 28.15 16.53 o
5 5 9 0.02 12.74 25.00 o
1 6 9 274.31 273.88 17.27 o
2 6 9 0.39 8.65 6.16 o
3 6 9 105.47 107.79 18.53 o
4 6 9 331.17 327.16 32.59 o
5 6 9 0.52 -0.45 10.11 o
6 6 9 265.45 305.65 51.45 o
1 7 9 136.22 117.66 18.96 o
2 7 9 1.89 12.67 11.90 o
3 7 9 0.02 14.61 8.85 o
4 7 9 11.15 8.38 17.01 o
5 7 9 9.60 3.96 13.53 o
6 7 9 10.30 17.37 19.33 o
1 8 9 63.27 59.55 18.28 o
2 8 9 35.98 40.56 12.18 o
3 8 9 8.85 34.16 14.55 o
4 8 9 103.39 107.53 21.16 o
5 8 9 0.45 -48.85 111.41 o
1 9 9 89.10 105.57 29.41 o
2 9 9 7.44 26.96 20.88 o
3 9 9 4.92 20.74 46.22 o
0 0 10 10568.61 13446.24 554.65 o
0 1 10 10561.88 10903.78 476.03 o
1 1 10 8434.16 8240.32 339.29 o
0 2 10 3729.66 3791.17 132.91 o
1 2 10 6034.56 5909.67 184.13 o
2 2 10 9313.79 8963.66 382.22 o
0 3 10 3247.60 3208.71 94.21 o
1 3 10 4251.73 3726.78 92.74 o
2 3 10 9896.48 9491.36 246.20 o
3 3 10 7238.11 7217.90 403.25 o
0 4 10 8044.12 7775.12 215.87 o
1 4 10 6340.84 6059.45 161.17 o
2 4 10 3747.57 3582.05 82.08 o
3 4 10 3443.65 3496.61 104.79 o
4 4 10 2609.40 2476.62 114.76 o
0 5 10 8658.97 8022.71 246.60 o
1 5 10 4176.57 3908.10 102.52 o
2 5 10 2124.34 1994.59 70.88 o
3 5 10 2628.77 2614.96 82.84 o
4 5 10 4267.53 4468.30 178.32 o
5 5 10 3863.76 4202.18 257.29 o
0 6 10 3221.74 3148.53 115.21 o
1 6 10 3480.89 3340.66 106.41 o
2 6 10 2456.75 2401.76 77.00 o
3 6 10 3053.17 2930.21 110.14 o
4 6 10 2490.42 2614.34 113.68 o
5 6 10 2248.39 2278.46 99.39 o
6 6 10 1432.42 1342.65 109.39 o
0 7 10 1473.87 1363.52 101.07 o
1 7 10 2451.77 2365.94 90.22 o
2 7 10 3759.79 3760.40 146.81 o
3 7 10 2519.20 2620.42 109.15 o
4 7 10 1662.07 1682.66 83.86 o
5 7 10 734.54 719.30 62.27 o
6 7 10 1130.68 1050.94 324.16 o
0 8 10 908.77 869.74 82.50 o
1 8 10 1842.35 1802.90 101.41 o
2 8 10 1939.73 2007.67 94.71 o
3 8 10 1995.10 2177.18 112.87 o
4 8 10 1340.25 1343.29 152.50 o
5 8 10 903.35 1057.19 276.03 o
0 9 10 1820.56 2122.69 276.53 o
1 9 10 1513.60 1764.86 177.29 o
2 9 10 1098.44 1093.07 106.16 o
3 9 10 707.36 672.43 141.17 o
1 1 11 1862.36 1896.95 100.91 o
1 2 11 123.43 97.71 14.17 o
2 2 11 19.54 20.51 11.15 o
1 3 11 190.08 165.75 13.81 o
2 3 11 42.38 29.42 7.57 o
3 3 11 354.20 330.75 38.55 o
1 4 11 208.25 207.73 18.10 o
2 4 11 237.99 228.28 19.99 o
3 4 11 89.15 96.08 12.45 o
4 4 11 194.88 185.41 26.26 o
1 5 11 1.30 1.46 7.24 o
2 5 11 8.57 -3.52 4.88 o
3 5 11 0.00 -1.71 11.37 o
4 5 11 1.99 3.29 13.04 o
5 5 11 1.61 -8.24 21.35 o
1 6 11 118.45 116.87 14.13 o
2 6 11 205.08 182.89 23.06 o
3 6 11 34.11 10.43 17.76 o
4 6 11 261.08 281.44 37.00 o
5 6 11 2.06 2.69 13.44 o
6 6 11 24.34 64.46 19.87 o
1 7 11 16.57 15.21 14.25 o
2 7 11 1.88 -2.57 11.32 o
3 7 11 42.60 16.81 15.32 o
4 7 11 0.99 -5.76 12.74 o
5 7 11 67.49 68.80 41.44 o
1 8 11 20.88 2.08 16.80 o
2 8 11 34.46 38.28 15.34 o
3 8 11 7.97 8.10 15.45 o
4 8 11 34.49 -2.71 21.43 o
1 9 11 31.23 28.94 21.00 o
0 0 12 15240.24 20861.01 696.29 o
0 1 12 17424.45 20419.05 853.56 o
1 1 12 4059.58 4355.87 211.59 o
0 2 12 5315.62 5305.36 332.23 o
1 2 12 11328.44 11138.95 619.09 o
2 2 12 7953.49 7139.41 628.57 o
0 3 12 7384.99 6716.27 292.81 o
1 3 12 4619.32 4174.09 204.22 o
2 3 12 14878.76 13514.33 803.65 o
3 3 12 4223.41 3973.84 270.93 o
0 4 12 4066.18 3681.66 113.09 o
1 4 12 10275.53 9234.21 164.60 o
2 4 12 3462.30 3121.39 118.49 o
3 4 12 6213.21 5896.36 312.26 o
4 4 12 3546.79 3973.36 462.18 o
0 5 12 12248.84 10880.59 242.02 o
1 5 12 4370.78 3827.67 94.99 o
2 5 12 4380.06 3790.19 104.55 o
3 5 12 1919.71 1869.75 121.97 o
4 5 12 6428.98 6728.23 453.89 o
5 5 12 2240.50 2230.38 154.41 o
0 6 12 2240.75 2028.36 114.42 o
1 6 12 5676.58 5073.01 157.00 o
2 6 12 1954.96 1783.70 81.97 o
3 6 12 4756.21 4334.10 154.16 o
4 6 12 1926.17 2085.32 104.91 o
5 6 12 3368.67 3473.41 193.30 o
6 6 12 1065.20 1485.46 312.99 o
0 7 12 2731.91 2427.04 123.00 o
1 7 12 1926.85 1773.51 85.88 o
2 7 12 5328.83 4924.97 160.21 o
3 7 12 2257.09 2092.89 106.15 o
4 7 12 2669.85 2633.37 178.98 o
5 7 12 906.76 995.71 175.69 o
0 8 12 1064.20 1020.52 103.22 o
1 8 12 2849.73 2754.51 139.84 o
2 8 12 1228.81 1092.98 99.29 o
3 8 12 2850.65 2569.37 182.04 o
1 1 13 554.96 686.69 59.18 o
1 2 13 34.40 44.05 10.79 o
2 2 13 511.85 430.73 40.32 o
1 3 13 704.44 642.86 49.46 o
2 3 13 12.75 25.05 12.64 o
3 3 13 21.80 40.02 24.58 o
1 4 13 51.38 49.39 9.00 o
2 4 13 6.34 9.77 7.35 o
3 4 13 29.62 26.99 9.45 o
4 4 13 588.03 710.67 121.29 o
1 5 13 2.28 5.86 10.45 o
2 5 13 1.20 9.35 17.54 o
3 5 13 28.25 45.24 20.21 o
4 5 13 0.71 25.19 23.07 o
5 5 13 136.10 207.45 57.09 o
1 6 13 36.21 29.69 7.84 o
2 6 13 71.80 59.77 17.77 o
3 6 13 5.95 12.54 19.72 o
4 6 13 59.38 12.05 14.00 o
5 6 13 1.45 11.13 32.40 o
6 6 13 243.79 327.26 138.85 o
1 7 13 43.14 22.84 11.67 o
2 7 13 0.52 -3.86 9.37 o
3 7 13 35.35 18.50 19.92 o
4 7 13 0.72 5.54 13.53 o
5 7 13 0.50 75.92 83.12 o
1 8 13 5.89 0.49 24.36 o
2 8 13 27.73 5.52 15.07 o
3 8 13 3.09 16.17 44.28 o
0 0 14 2609.30 4114.80 310.74 o
0 1 14 25349.68 32465.58 750.98 o
1 1 14 6989.00 8878.25 333.65 o
0 2 14 2310.01 2522.23 136.09 o
1 2 14 18367.55 19275.05 873.58 o
2 2 14 3417.57 3162.05 249.56 o
0 3 14 13074.75 12105.83 958.80 o
1 3 14 3413.97 3368.03 194.36 o
2 3 14 20364.35 18048.09 1267.55 o
3 3 14 3544.57 3447.67 588.34 o
0 4 14 3974.21 3339.06 148.90 o
1 4 14 15383.05 13847.17 1089.27 o
2 4 14 2530.26 2199.35 199.38 o
3 4 14 10072.03 9476.56 894.13 o
4 4 14 1531.92 1776.50 312.10 o
0 5 14 16075.26 13239.24 873.08 o
1 5 14 1737.07 1505.26 78.39 o
2 5 14 7510.83 6704.52 398.79 o
3 5 14 1635.88 1695.34 148.46 o
4 5 14 8810.97 9433.08 975.71 o
5 5 14 1648.51 1798.01 623.64 o
0 6 14 2393.77 1981.48 147.00 o
1 6 14 8427.75 7469.88 321.81 o
2 6 14 1825.61 1738.98 140.58 o
3 6 14 7015.22 6718.47 434.01 o
4 6 14 1185.58 1398.89 230.52 o
5 6 14 4769.70 6564.19 652.24 o
0 7 14 4561.01 3940.19 199.08 o
1 7 14 863.09 678.51 65.71 o
2 7 14 7012.04 5826.27 341.20 o
3 7 14 885.38 863.53 112.24 o
1 8 14 4036.44 3770.92 354.69 o
1 1 15 917.33 1133.03 76.78 o
1 2 15 3.16 15.13 7.47 o
2 2 15 38.83 49.42 11.78 o
1 3 15 50.98 41.10 10.48 o
2 3 15 2.01 4.06 11.19 o
3 3 15 361.02 289.39 65.17 o
1 4 15 9.05 3.29 9.14 o
2 4 15 241.68 171.17 30.49 o
3 4 15 0.83 -7.83 15.14 o
4 4 15 32.37 9.74 35.69 o
1 5 15 9.32 -5.06 16.04 o
2 5 15 0.08 7.65 16.05 o
3 5 15 16.97 2.63 18.33 o
4 5 15 0.68 -5.12 14.89 o
1 6 15 2.59 13.83 13.86 o
2 6 15 74.27 54.54 30.63 o
3 6 15 3.74 33.34 33.91 o
4 6 15 168.01 195.96 98.60 o
1 7 15 10.68 -44.29 60.10 o
2 7 15 0.00 -15.64 15.64 o
3 7 15 20.43 23.02 18.80 o
0 0 16 1462.10 2340.99 225.71 o
0 1 16 8784.51 11915.52 286.77 o
1 1 16 210.26 310.86 42.64 o
0 2 16 651.34 822.18 66.63 o
1 2 16 6016.52 7121.35 251.80 o
2 2 16 582.23 694.09 66.84 o
0 3 16 4142.11 4382.47 301.48 o
1 3 16 490.81 480.34 36.25 o
2 3 16 7790.56 8232.42 596.60 o
3 3 16 297.28 225.93 41.46 o
0 4 16 181.94 182.25 61.14 o
1 4 16 5608.79 5543.29 398.56 o
2 4 16 295.28 264.80 32.12 o
3 4 16 3606.44 3798.58 505.01 o
4 4 16 397.23 362.09 80.57 o
0 5 16 6596.09 5227.84 609.33 o
1 5 16 502.21 411.71 41.23 o
2 5 16 2661.59 2532.90 192.29 o
3 5 16 193.31 156.96 30.17 o
4 5 16 3705.94 2880.34 366.80 o
0 6 16 133.08 65.78 30.82 o
1 6 16 3337.61 2531.07 260.48 o
2 6 16 156.34 114.49 33.70 o
3 6 16 2837.64 1987.97 291.64 o
1 7 16 211.88 135.68 60.11 o
1 1 17 240.50 377.60 45.52 o
1 2 17 0.18 18.40 12.69 o
2 2 17 126.39 72.09 28.93 o
1 3 17 204.72 211.12 26.53 o
2 3 17 0.02 0.99 12.88 o
3 3 17 4.43 -5.24 22.25 o
1 4 17 0.48 -0.19 7.49 o
2 4 17 26.10 7.53 16.54 o
3 4 17 0.17 3.51 14.16 o
4 4 17 109.00 76.45 62.56 o
1 5 17 9.62 28.19 14.42 o
2 5 17 0.13 -14.74 14.74 o
3 5 17 3.23 0.92 21.18 o
1 6 17 0.28 33.04 43.58 o
2 6 17 6.83 21.77 41.16 o
0 0 18 3.09 45.41 36.83 o
0 1 18 4249.37 6016.10 252.06 o
1 1 18 26.59 52.33 19.32 o
0 2 18 93.07 129.58 28.73 o
1 2 18 2934.73 3797.07 116.78 o
2 2 18 30.63 63.40 20.14 o
0 3 18 2006.34 2209.95 219.69 o
1 3 18 4.85 -8.47 10.23 o
2 3 18 3930.92 4426.75 243.08 o
3 3 18 21.69 -1.21 15.95 o
0 4 18 75.61 57.03 32.68 o
1 4 18 2860.15 2937.39 189.53 o
2 4 18 36.75 31.37 18.80 o
3 4 18 1882.33 1818.11 173.45 o
4 4 18 1.83 -4.57 21.09 o
0 5 18 3477.55 3054.45 995.67 o
1 5 18 5.14 6.81 34.25 o
2 5 18 1393.44 998.53 105.02 o
3 5 18 48.72 103.16 81.37 o
1 1 19 211.71 347.12 53.41 o
1 2 19 2.62 26.96 10.01 o
2 2 19 3.83 30.80 23.59 o
1 3 19 56.09 57.30 17.58 o
2 3 19 2.08 -13.28 16.13 o
3 3 19 6.34 19.05 20.23 o
1 4 19 5.87 -6.72 16.03 o
2 4 19 4.84 -10.53 27.94 o
3 4 19 1.26 -38.66 38.66 o
1 5 19 1.87 -12.65 29.52 o
0 0 20 188.92 191.92 123.38 o
0 1 20 7114.41 10353.89 372.98 o
1 1 20 8.56 65.27 27.08 o
0 2 20 50.15 73.54 26.66 o
1 2 20 5521.76 7262.53 199.90 o
2 2 20 129.16 138.76 32.95 o
0 3 20 4278.69 4609.49 325.07 o
1 3 20 2.67 -1.45 20.73 o
2 3 20 5785.82 6890.07 403.81 o
1 1 21 68.63 103.51 65.38 o
1 2 21 4.56 84.70 51.83 o
