#------------------------------------------------------------------------------
#$Date: 2019-11-24 17:23:39 +0200 (Sun, 24 Nov 2019) $
#$Revision: 238807 $
#$URL: file:///home/coder/svn-repositories/cod/cif/7/23/79/7237974.cif $
#------------------------------------------------------------------------------
#
# This file is available in the Crystallography Open Database (COD),
# http://www.crystallography.net/
#
# All data on this site have been placed in the public domain by the
# contributors.
#
data_7237974
loop_
_publ_author_name
'Tani, Yosuke'
'Terasaki, Morihisa'
'Komura, Mao'
'Ogawa, Takuji'
_publ_section_title
;
 Room-temperature phosphorescence-to-phosphorescence mechanochromism of a
 metal-free organic 1,2-diketone
;
_journal_issue                   38
_journal_name_full               'Journal of Materials Chemistry C'
_journal_page_first              11926
_journal_paper_doi               10.1039/C9TC04176A
_journal_volume                  7
_journal_year                    2019
_chemical_formula_sum            'C10 H4 Br2 O2 S2'
_chemical_formula_weight         380.07
_space_group_crystal_system      monoclinic
_space_group_IT_number           14
_space_group_name_Hall           '-P 2ybc'
_space_group_name_H-M_alt        'P 1 21/c 1'
_atom_sites_solution_hydrogens   geom
_audit_creation_method           SHELXL-2018/3
_audit_update_record
;
2019-03-29 deposited with the CCDC.	2019-09-09 downloaded from the CCDC.
;
_cell_angle_alpha                90
_cell_angle_beta                 98.117(7)
_cell_angle_gamma                90
_cell_formula_units_Z            2
_cell_length_a                   3.8748(3)
_cell_length_b                   13.0602(10)
_cell_length_c                   11.0151(10)
_cell_measurement_reflns_used    4280
_cell_measurement_temperature    123(2)
_cell_measurement_theta_max      54.85
_cell_measurement_theta_min      4.87
_cell_volume                     551.84(8)
_computing_cell_refinement       'Rigaku RAPID AUTO'
_computing_data_collection       'Rigaku RAPID AUTO'
_computing_data_reduction        'Rigaku RAPID AUTO'
_computing_molecular_graphics    'Yadokari-XG (Wakita, Nemoto et al., 2009)'
_computing_publication_material  'Yadokari-XG (Wakita, Nemoto et al., 2009)'
_computing_structure_refinement  'SHELXL-2018/3 (Sheldrick, 2018)'
_computing_structure_solution    Yadokari-SG
_diffrn_ambient_temperature      123(2)
_diffrn_measured_fraction_theta_full 0.999
_diffrn_measured_fraction_theta_max 0.999
_diffrn_measurement_device_type  'Rigaku VariMax RAPID?U'
_diffrn_measurement_method       'profile data from \w-scans'
_diffrn_radiation_type           MoK\a
_diffrn_radiation_wavelength     0.71075
_diffrn_reflns_av_R_equivalents  0.0449
_diffrn_reflns_av_unetI/netI     0.0440
_diffrn_reflns_Laue_measured_fraction_full 0.999
_diffrn_reflns_Laue_measured_fraction_max 0.999
_diffrn_reflns_limit_h_max       5
_diffrn_reflns_limit_h_min       -5
_diffrn_reflns_limit_k_max       16
_diffrn_reflns_limit_k_min       -16
_diffrn_reflns_limit_l_max       14
_diffrn_reflns_limit_l_min       -14
_diffrn_reflns_number            4774
_diffrn_reflns_point_group_measured_fraction_full 0.999
_diffrn_reflns_point_group_measured_fraction_max 0.999
_diffrn_reflns_theta_full        25.242
_diffrn_reflns_theta_max         27.423
_diffrn_reflns_theta_min         2.433
_diffrn_source                   'Rotating anode X-ray tube'
_exptl_absorpt_coefficient_mu    7.700
_exptl_absorpt_correction_T_max  0.8657
_exptl_absorpt_correction_T_min  0.5005
_exptl_absorpt_correction_type   multi-scan
_exptl_absorpt_process_details   'Jacobson, R. (1998) Private communication'
_exptl_crystal_colour            orange
_exptl_crystal_density_diffrn    2.287
_exptl_crystal_description       needle
_exptl_crystal_F_000             364
_exptl_crystal_size_max          0.140
_exptl_crystal_size_mid          0.110
_exptl_crystal_size_min          0.070
_refine_diff_density_max         0.685
_refine_diff_density_min         -0.371
_refine_diff_density_rms         0.115
_refine_ls_extinction_method     none
_refine_ls_goodness_of_fit_ref   1.001
_refine_ls_hydrogen_treatment    constr
_refine_ls_matrix_type           full
_refine_ls_number_parameters     73
_refine_ls_number_reflns         1250
_refine_ls_number_restraints     0
_refine_ls_restrained_S_all      1.001
_refine_ls_R_factor_all          0.0352
_refine_ls_R_factor_gt           0.0248
_refine_ls_shift/su_max          0.001
_refine_ls_shift/su_mean         0.000
_refine_ls_structure_factor_coef Fsqd
_refine_ls_weighting_details
'w=1/[\s^2^(Fo^2^)+(0.0247P)^2^] where P=(Fo^2^+2Fc^2^)/3'
_refine_ls_weighting_scheme      calc
_refine_ls_wR_factor_gt          0.0521
_refine_ls_wR_factor_ref         0.0534
_reflns_Friedel_coverage         0.000
_reflns_number_gt                1040
_reflns_number_total             1250
_reflns_threshold_expression     'I > 2\s(I)'
_cod_data_source_file            c9tc04176a2.cif
_cod_data_source_block           Tn2
_cod_original_sg_symbol_H-M      'P 21/c'
_cod_database_code               7237974
_shelx_shelxl_version_number     2018/3
_shelx_space_group_comment
;
The symmetry employed for this shelxl refinement is uniquely defined
by the following loop, which should always be used as a source of
symmetry information in preference to the above space-group names.
They are only intended as comments.
;
_shelx_estimated_absorpt_t_min   0.412
_shelx_estimated_absorpt_t_max   0.615
_shelx_res_file
;
TITL mt145
    ydkr.res
    created by SHELXL-2018/3 at 15:10:59 on 29-Oct-2018
REM  Yadorkari-X generated
CELL 0.71075 3.8748 13.0602 11.0151 90.0000 98.1168 90.0000
ZERR 2.0 0.0003 0.0010 0.0010 0.0000 0.0069 0.0000
LATT 1
SYMM -X, 1/2+Y, 1/2-Z
REM  SPGR P21/c monoclinic
SFAC C H O S Br
UNIT 20 8 4 4 4
SIZE 0.14 0.11 0.07
TEMP -150.0
L.S. 10
FMAP 2
PLAN -50
ACTA
CONF
LIST 4
WPDB -1
BOND $H

WGHT    0.024700
FVAR       5.10892
C1    1    0.540205    0.299940    0.651002    11.00000    0.01878    0.01233 =
         0.02330   -0.00291    0.00321   -0.00008
AFIX  43
H1    2    0.490495    0.371200    0.648470    11.00000   -1.20000
AFIX   0
C2    1    0.729199    0.252844    0.748382    11.00000    0.01668    0.01660 =
         0.01483   -0.00374    0.00204   -0.00246
AFIX  43
H2    2    0.826211    0.286918    0.821498    11.00000   -1.20000
AFIX   0
C3    1    0.763394    0.147547    0.727571    11.00000    0.01239    0.01705 =
         0.01260    0.00139   -0.00080   -0.00184
C4    1    0.601557    0.114119    0.613864    11.00000    0.01485    0.01439 =
         0.01203    0.00090   -0.00127   -0.00063
C5    1    0.612100    0.011766    0.562354    11.00000    0.02352    0.01242 =
         0.01346    0.00023   -0.00350    0.00031
S1    4    0.401363    0.218066    0.533799    11.00000    0.01994    0.01232 =
         0.01397    0.00067   -0.00128    0.00155
BR1   5    0.997529    0.063118    0.851491    11.00000    0.01949    0.01835 =
         0.01417    0.00165   -0.00379   -0.00091
O1    3    0.795844   -0.056301    0.613478    11.00000    0.04934    0.01750 =
         0.02497   -0.00569   -0.01919    0.01133

HKLF 4 1 1 0 0 0 1 0 0 0 1




REM  mt145
REM wR2 = 0.0534, GooF = S = 1.001, Restrained GooF = 1.001 for all data
REM R1 = 0.0248 for 1040 Fo > 4sig(Fo) and 0.0352 for all 1250 data
REM 73 parameters refined using 0 restraints

END

WGHT      0.0247      0.0000

REM Highest difference peak  0.685,  deepest hole -0.371,  1-sigma level  0.115
Q1    1   0.9241  0.0978  0.7825  11.00000  0.05    0.68
Q2    1   0.5000  0.0000  0.5000  10.50000  0.05    0.65
Q3    1   1.0844  0.0672  0.9292  11.00000  0.05    0.62
Q4    1   0.9487  0.0200  0.7868  11.00000  0.05    0.58
Q5    1   1.2005  0.0932  0.8373  11.00000  0.05    0.50
Q6    1   0.7899  0.0963  0.8642  11.00000  0.05    0.46
Q7    1   0.7943  0.0284  0.8651  11.00000  0.05    0.43
Q8    1   0.8226  0.0724  0.8716  11.00000  0.05    0.42
Q9    1   0.4794  0.2562  0.5988  11.00000  0.05    0.41
Q10   1   0.4933  0.1481  0.5837  11.00000  0.05    0.41
Q11   1   0.6427  0.0709  0.5807  11.00000  0.05    0.40
Q12   1   1.1747  0.0108  0.8346  11.00000  0.05    0.40
Q13   1   0.6139  0.1197  0.6754  11.00000  0.05    0.39
Q14   1   0.2887  0.2149  0.4609  11.00000  0.05    0.37
Q15   1   0.1783  0.2097  0.5544  11.00000  0.05    0.36
Q16   1   0.8717 -0.0224  0.6949  11.00000  0.05    0.35
Q17   1   0.8237 -0.0470  0.5754  11.00000  0.05    0.34
Q18   1   1.1300  0.1361  0.8835  11.00000  0.05    0.32
Q19   1   0.9997  0.0102  0.9178  11.00000  0.05    0.32
Q20   1   0.8404  0.2633  0.7595  11.00000  0.05    0.30
Q21   1   0.7861  0.1976  0.7470  11.00000  0.05    0.30
Q22   1   0.6742  0.2640  0.6841  11.00000  0.05    0.29
Q23   1   0.8792  0.3625  0.6592  11.00000  0.05    0.28
Q24   1   0.7754 -0.0977  0.5501  11.00000  0.05    0.28
Q25   1   0.4383  0.0279  0.5845  11.00000  0.05    0.27
Q26   1   0.6667 -0.0214  0.5972  11.00000  0.05    0.24
Q27   1   0.6237  0.2058  0.7577  11.00000  0.05    0.24
Q28   1   0.8448  0.4191  0.7069  11.00000  0.05    0.24
Q29   1   0.2347  0.3928  0.5875  11.00000  0.05    0.23
Q30   1   0.7797  0.4377  0.6196  11.00000  0.05    0.23
Q31   1   0.9801  0.1017  0.5759  11.00000  0.05    0.23
Q32   1   0.4960  0.3454  0.6199  11.00000  0.05    0.22
Q33   1   0.6042  0.2392  0.5032  11.00000  0.05    0.22
Q34   1   0.8527  0.1537  0.7149  11.00000  0.05    0.22
Q35   1   0.4815  0.4391  0.5784  11.00000  0.05    0.21
Q36   1   0.2143  0.3108  0.4197  11.00000  0.05    0.21
Q37   1   0.1690  0.3445  0.4942  11.00000  0.05    0.21
Q38   1   1.1698 -0.0408  0.7604  11.00000  0.05    0.20
Q39   1   0.8715  0.3422  0.7815  11.00000  0.05    0.20
Q40   1   0.8664  0.2913  0.6663  11.00000  0.05    0.20
Q41   1   0.6079  0.1908  0.5082  11.00000  0.05    0.20
Q42   1   0.4588  0.2488  0.7762  11.00000  0.05    0.19
Q43   1   0.2312  0.4337  0.7186  11.00000  0.05    0.19
Q44   1   0.6076  0.4494  0.6789  11.00000  0.05    0.18
Q45   1   1.2815 -0.0029  0.9383  11.00000  0.05    0.18
Q46   1   0.2538  0.0285  0.5128  11.00000  0.05    0.18
Q47   1   0.8978  0.2317  0.5099  11.00000  0.05    0.18
Q48   1   0.6327  0.1842  0.9040  11.00000  0.05    0.17
Q49   1   0.7666  0.0638  0.4569  11.00000  0.05    0.17
Q50   1   0.9052  0.3197  0.8443  11.00000  0.05    0.17
;
_shelx_res_checksum              94369
loop_
_space_group_symop_operation_xyz
'x, y, z'
'-x, y+1/2, -z+1/2'
'-x, -y, -z'
'x, -y-1/2, z-1/2'
loop_
_atom_site_label
_atom_site_type_symbol
_atom_site_fract_x
_atom_site_fract_y
_atom_site_fract_z
_atom_site_U_iso_or_equiv
_atom_site_adp_type
_atom_site_occupancy
_atom_site_site_symmetry_order
_atom_site_calc_flag
_atom_site_refinement_flags_posn
_atom_site_refinement_flags_adp
C1 C 0.5402(7) 0.2999(2) 0.6510(2) 0.0181(6) Uani 1 1 d . .
H1 H 0.490495 0.371200 0.648470 0.022 Uiso 1 1 calc R U
C2 C 0.7292(7) 0.25284(19) 0.7484(2) 0.0161(5) Uani 1 1 d . .
H2 H 0.826211 0.286918 0.821498 0.019 Uiso 1 1 calc R U
C3 C 0.7634(7) 0.14755(19) 0.7276(2) 0.0143(5) Uani 1 1 d . .
C4 C 0.6016(7) 0.1141(2) 0.6139(2) 0.0141(5) Uani 1 1 d . .
C5 C 0.6121(7) 0.01177(19) 0.5624(2) 0.0171(6) Uani 1 1 d . .
S1 S 0.40136(18) 0.21807(5) 0.53380(6) 0.01576(16) Uani 1 1 d . .
Br1 Br 0.99753(7) 0.06312(2) 0.85149(2) 0.01793(10) Uani 1 1 d . .
O1 O 0.7958(6) -0.05630(14) 0.61348(19) 0.0330(6) Uani 1 1 d . .
loop_
_atom_site_aniso_label
_atom_site_aniso_U_11
_atom_site_aniso_U_22
_atom_site_aniso_U_33
_atom_site_aniso_U_23
_atom_site_aniso_U_13
_atom_site_aniso_U_12
C1 0.0188(14) 0.0123(12) 0.0233(13) -0.0029(10) 0.0032(11) -0.0001(11)
C2 0.0167(13) 0.0166(13) 0.0148(12) -0.0037(9) 0.0020(10) -0.0025(11)
C3 0.0124(13) 0.0171(13) 0.0126(12) 0.0014(9) -0.0008(10) -0.0018(10)
C4 0.0148(14) 0.0144(13) 0.0120(11) 0.0009(10) -0.0013(10) -0.0006(10)
C5 0.0235(14) 0.0124(12) 0.0135(12) 0.0002(10) -0.0035(11) 0.0003(12)
S1 0.0199(3) 0.0123(3) 0.0140(3) 0.0007(2) -0.0013(3) 0.0016(3)
Br1 0.01949(15) 0.01835(16) 0.01417(14) 0.00165(10) -0.00379(10) -0.00091(11)
O1 0.0493(15) 0.0175(10) 0.0250(11) -0.0057(8) -0.0192(10) 0.0113(10)
loop_
_atom_type_symbol
_atom_type_description
_atom_type_scat_dispersion_real
_atom_type_scat_dispersion_imag
_atom_type_scat_source
C C 0.0033 0.0016 'International Tables Vol C Tables 4.2.6.8 and 6.1.1.4'
H H 0.0000 0.0000 'International Tables Vol C Tables 4.2.6.8 and 6.1.1.4'
O O 0.0106 0.0060 'International Tables Vol C Tables 4.2.6.8 and 6.1.1.4'
S S 0.1246 0.1234 'International Tables Vol C Tables 4.2.6.8 and 6.1.1.4'
Br Br -0.2901 2.4595 'International Tables Vol C Tables 4.2.6.8 and 6.1.1.4'
loop_
_geom_angle_atom_site_label_1
_geom_angle_atom_site_label_2
_geom_angle_atom_site_label_3
_geom_angle
_geom_angle_site_symmetry_3
C2 C1 S1 113.1(2) .
C2 C1 H1 123.5 .
S1 C1 H1 123.5 .
C1 C2 C3 111.6(2) .
C1 C2 H2 124.2 .
C3 C2 H2 124.2 .
C4 C3 C2 114.5(2) .
C4 C3 Br1 125.37(18) .
C2 C3 Br1 120.12(17) .
C3 C4 C5 127.3(2) .
C3 C4 S1 108.89(18) .
C5 C4 S1 123.65(17) .
O1 C5 C4 122.3(2) .
O1 C5 C5 118.7(3) 3_656
C4 C5 C5 119.0(3) 3_656
C1 S1 C4 92.01(12) .
loop_
_geom_bond_atom_site_label_1
_geom_bond_atom_site_label_2
_geom_bond_distance
_geom_bond_site_symmetry_2
C1 C2 1.358(3) .
C1 S1 1.704(3) .
C1 H1 0.9500 .
C2 C3 1.404(4) .
C2 H2 0.9500 .
C3 C4 1.390(3) .
C3 Br1 1.885(2) .
C4 C5 1.455(3) .
C4 S1 1.740(2) .
C5 O1 1.225(3) .
C5 C5 1.549(5) 3_656
loop_
_geom_torsion_atom_site_label_1
_geom_torsion_atom_site_label_2
_geom_torsion_atom_site_label_3
_geom_torsion_atom_site_label_4
_geom_torsion
_geom_torsion_site_symmetry_4
S1 C1 C2 C3 0.1(3) .
C1 C2 C3 C4 0.3(4) .
C1 C2 C3 Br1 -177.3(2) .
C2 C3 C4 C5 175.2(3) .
Br1 C3 C4 C5 -7.4(4) .
C2 C3 C4 S1 -0.5(3) .
Br1 C3 C4 S1 176.87(16) .
C3 C4 C5 O1 -5.9(5) .
S1 C4 C5 O1 169.2(3) .
C3 C4 C5 C5 175.1(3) 3_656
S1 C4 C5 C5 -9.8(5) 3_656
C2 C1 S1 C4 -0.4(3) .
C3 C4 S1 C1 0.5(2) .
C5 C4 S1 C1 -175.4(2) .
