#------------------------------------------------------------------------------
#$Date: 2019-11-24 10:29:40 +0200 (Sun, 24 Nov 2019) $
#$Revision: 237638 $
#$URL: file:///home/coder/svn-repositories/cod/cif/7/23/73/7237384.cif $
#------------------------------------------------------------------------------
#
# This file is available in the Crystallography Open Database (COD),
# http://www.crystallography.net/
#
# All data on this site have been placed in the public domain by the
# contributors.
#
data_7237384
loop_
_publ_author_name
'Paliwoda, Damian'
'Szafra\'nski, Marek'
'Hanfland, Michael'
'Katrusiak, Andrzej'
_publ_section_title
;
 A giant 2-dimensional dielectric response in a compressed hydrogen-bonded
 hybrid organic--inorganic salt
;
_journal_issue                   28
_journal_name_full               'Journal of Materials Chemistry C'
_journal_page_first              7689
_journal_paper_doi               10.1039/C8TC02464B
_journal_volume                  6
_journal_year                    2018
_chemical_formula_moiety         'C4 H5 N2 Au Cl4'
_chemical_formula_sum            'C4 H5 Au Cl4 N2'
_chemical_formula_weight         419.87
_chemical_name_common            'pyrazinium tetrachloroaurate'
_chemical_name_systematic
; 
pyrazinium tetrachloroaurate 
;
_space_group_IT_number           138
_space_group_name_Hall           '-P 4ac 2ac'
_space_group_name_H-M_alt        'P 42/n c m :2'
_symmetry_cell_setting           tetragonal
_symmetry_space_group_name_Hall  '-P 4ac 2ac'
_symmetry_space_group_name_H-M   'P 42/n c m :2'
_atom_sites_solution_hydrogens   geom
_atom_sites_solution_primary     direct
_atom_sites_solution_secondary   difmap
_audit_creation_method           SHELXL-97
_audit_update_record
;
2017-04-07 deposited with the CCDC.
2018-06-28 downloaded from the CCDC.
;
_cell_angle_alpha                90.00
_cell_angle_beta                 90.00
_cell_angle_gamma                90.00
_cell_formula_units_Z            4
_cell_length_a                   7.88180(10)
_cell_length_b                   7.88180(10)
_cell_length_c                   15.8455(4)
_cell_measurement_reflns_used    6067
_cell_measurement_temperature    275(2)
_cell_measurement_theta_max      29.09
_cell_measurement_theta_min      2.57
_cell_volume                     984.37(3)
_computing_cell_refinement       'CrysAlisRED (Oxford Diffraction, 2004)'
_computing_data_collection       'CrysAlisCCD (Oxford Diffraction, 2004)'
_computing_data_reduction        'CrysAlisRED (Oxford Diffraction, 2004)'
_computing_molecular_graphics    'SHELXTL (Sheldrick, 1990)'
_computing_publication_material  'SHELXL--97 (Sheldrick, 1997)'
_computing_structure_refinement  'SHELXL--97 (Sheldrick, 1997)'
_computing_structure_solution    'SHELXS--97 (Sheldrick, 1997)'
_diffrn_ambient_temperature      275(2)
_diffrn_measured_fraction_theta_full 0.971
_diffrn_measured_fraction_theta_max 0.971
_diffrn_measurement_device_type  'KM-4 CCD'
_diffrn_measurement_method       \w-scans
_diffrn_radiation_monochromator  graphite
_diffrn_radiation_source         'fine-focus sealed tube'
_diffrn_radiation_type           MoK\a
_diffrn_radiation_wavelength     0.71073
_diffrn_reflns_av_R_equivalents  0.0788
_diffrn_reflns_av_sigmaI/netI    0.0306
_diffrn_reflns_limit_h_max       10
_diffrn_reflns_limit_h_min       -9
_diffrn_reflns_limit_k_max       10
_diffrn_reflns_limit_k_min       -10
_diffrn_reflns_limit_l_max       21
_diffrn_reflns_limit_l_min       -21
_diffrn_reflns_number            6067
_diffrn_reflns_theta_full        29.09
_diffrn_reflns_theta_max         29.09
_diffrn_reflns_theta_min         2.57
_diffrn_standards_decay_%        0
_diffrn_standards_interval_count 0
_diffrn_standards_number         0
_exptl_absorpt_coefficient_mu    15.970
_exptl_absorpt_correction_T_max  0.041
_exptl_absorpt_correction_T_min  0.030
_exptl_absorpt_correction_type   numerical
_exptl_absorpt_process_details
; 
 Correction for absorption was made using XEMP (SHELXTL, 
 Sheldrick (1990)).
;
_exptl_crystal_colour            orange
_exptl_crystal_density_diffrn    2.833
_exptl_crystal_density_method    'not measured'
_exptl_crystal_description       plate
_exptl_crystal_F_000             760
_exptl_crystal_size_max          0.50
_exptl_crystal_size_mid          0.20
_exptl_crystal_size_min          0.20
_refine_diff_density_max         2.738
_refine_diff_density_min         -1.251
_refine_diff_density_rms         0.279
_refine_ls_extinction_coef       0.0026(4)
_refine_ls_extinction_expression Fc^*^=kFc[1+0.001xFc^2^\l^3^/sin(2\q)]^-1/4^
_refine_ls_extinction_method     SHELXL
_refine_ls_goodness_of_fit_ref   1.075
_refine_ls_hydrogen_treatment    constr
_refine_ls_matrix_type           full
_refine_ls_number_parameters     34
_refine_ls_number_reflns         709
_refine_ls_number_restraints     0
_refine_ls_restrained_S_all      1.075
_refine_ls_R_factor_all          0.0449
_refine_ls_R_factor_gt           0.0361
_refine_ls_shift/su_max          0.000
_refine_ls_shift/su_mean         0.000
_refine_ls_structure_factor_coef Fsqd
_refine_ls_weighting_details
'calc w=1/[\s^2^(Fo^2^)+(0.0661P)^2^+0.0000P] where P=(Fo^2^+2Fc^2^)/3'
_refine_ls_weighting_scheme      calc
_refine_ls_wR_factor_gt          0.0975
_refine_ls_wR_factor_ref         0.1080
_reflns_number_gt                538
_reflns_number_total             709
_reflns_threshold_expression     >2sigma(I)
_cod_data_source_file            c8tc02464b2.cif
_cod_data_source_block           pyrazinium_tetrachloroaurate_275K
_cod_original_sg_symbol_H-M      'P 42/n c m'
_cod_database_code               7237384
loop_
_symmetry_equiv_pos_as_xyz
'x, y, z'
'-x+1/2, -y+1/2, z'
'-y+1/2, x, z+1/2'
'y, -x+1/2, z+1/2'
'-x, y+1/2, -z+1/2'
'x+1/2, -y, -z+1/2'
'y+1/2, x+1/2, -z'
'-y, -x, -z'
'-x, -y, -z'
'x-1/2, y-1/2, -z'
'y-1/2, -x, -z-1/2'
'-y, x-1/2, -z-1/2'
'x, -y-1/2, z-1/2'
'-x-1/2, y, z-1/2'
'-y-1/2, -x-1/2, z'
'y, x, z'
loop_
_atom_site_label
_atom_site_type_symbol
_atom_site_fract_x
_atom_site_fract_y
_atom_site_fract_z
_atom_site_U_iso_or_equiv
_atom_site_adp_type
_atom_site_occupancy
_atom_site_symmetry_multiplicity
_atom_site_calc_flag
_atom_site_refinement_flags
Au1 Au 1.2500 0.2500 0.26290(3) 0.0290(3) Uani 1 4 d S
Cl1 Cl 1.04581(17) 0.04581(17) 0.26492(11) 0.0494(6) Uani 1 2 d S
Cl2 Cl 1.2500 0.2500 0.4071(3) 0.0409(8) Uani 1 4 d S
Cl3 Cl 1.2500 0.2500 0.1188(3) 0.0418(8) Uani 1 4 d S
N1 N 0.8709(5) 0.1291(5) 0.0000 0.0386(12) Uani 1 2 d S
H1A H 0.9480 0.0520 0.0000 0.046 Uiso 0.50 2 calc SPR
C1 C 0.8130(8) 0.1875(8) 0.0722(3) 0.0424(12) Uani 1 1 d .
H1 H 0.8556 0.1460 0.1229 0.051 Uiso 1 1 calc R
loop_
_atom_site_aniso_label
_atom_site_aniso_U_11
_atom_site_aniso_U_22
_atom_site_aniso_U_33
_atom_site_aniso_U_23
_atom_site_aniso_U_13
_atom_site_aniso_U_12
Au1 0.0283(3) 0.0283(3) 0.0303(4) 0.000 0.000 0.00020(10)
Cl1 0.0490(8) 0.0490(8) 0.0501(11) -0.0002(5) -0.0002(5) -0.0192(9)
Cl2 0.0463(12) 0.0463(12) 0.0302(18) 0.000 0.000 0.0012(8)
Cl3 0.0477(13) 0.0477(13) 0.0299(18) 0.000 0.000 -0.0036(8)
N1 0.0309(17) 0.0309(17) 0.054(3) 0.0024(19) 0.0024(19) 0.007(2)
C1 0.042(3) 0.042(3) 0.043(3) 0.005(3) -0.004(3) 0.007(4)
loop_
_atom_type_symbol
_atom_type_description
_atom_type_scat_dispersion_real
_atom_type_scat_dispersion_imag
_atom_type_scat_source
C C 0.0033 0.0016 'International Tables Vol C Tables 4.2.6.8 and 6.1.1.4'
H H 0.0000 0.0000 'International Tables Vol C Tables 4.2.6.8 and 6.1.1.4'
N N 0.0061 0.0033 'International Tables Vol C Tables 4.2.6.8 and 6.1.1.4'
Cl Cl 0.1484 0.1585 'International Tables Vol C Tables 4.2.6.8 and 6.1.1.4'
Au Au -2.0133 8.8022 'International Tables Vol C Tables 4.2.6.8 and 6.1.1.4'
loop_
_geom_angle_atom_site_label_1
_geom_angle_atom_site_label_2
_geom_angle_atom_site_label_3
_geom_angle
_geom_angle_site_symmetry_1
_geom_angle_site_symmetry_3
Cl2 Au1 Cl3 180.0 . .
Cl2 Au1 Cl1 89.19(5) . 2_755
Cl3 Au1 Cl1 90.81(5) . 2_755
Cl2 Au1 Cl1 89.19(5) . .
Cl3 Au1 Cl1 90.81(5) . .
Cl1 Au1 Cl1 178.39(9) 2_755 .
C1 N1 C1 121.0(7) . 8_665
N1 C1 C1 119.5(3) . 2_655
loop_
_geom_bond_atom_site_label_1
_geom_bond_atom_site_label_2
_geom_bond_distance
_geom_bond_site_symmetry_2
Au1 Cl2 2.284(4) .
Au1 Cl3 2.283(4) .
Au1 Cl1 2.2762(19) 2_755
Au1 Cl1 2.2762(19) .
N1 C1 1.315(6) .
N1 C1 1.315(6) 8_665
C1 C1 1.399(14) 2_655
loop_
_refln_index_h
_refln_index_k
_refln_index_l
_refln_F_squared_calc
_refln_F_squared_meas
_refln_F_squared_sigma
_refln_observed_status
1 1 0 100900.28 117851.95 3427.92 o
0 2 0 120657.80 136108.13 648.75 o
2 2 0 186644.03 211806.25 1085.70 o
1 3 0 95642.17 102313.91 1175.39 o
3 3 0 82236.73 82111.36 1059.67 o
0 4 0 76819.01 80983.34 389.58 o
2 4 0 55989.80 57689.12 920.99 o
4 4 0 48850.95 47482.67 978.85 o
1 5 0 69951.80 71877.79 975.95 o
3 5 0 26837.84 26403.86 511.98 o
5 5 0 30472.79 30119.04 383.85 o
0 6 0 32507.91 32862.73 554.05 o
2 6 0 26440.58 26608.03 524.24 o
4 6 0 25317.42 24872.29 282.48 o
6 6 0 11446.89 11451.42 611.90 o
1 7 0 23461.52 23323.43 571.94 o
3 7 0 26418.56 26124.86 266.54 o
5 7 0 8321.19 8248.18 367.25 o
7 7 0 6635.62 7037.57 479.37 o
0 8 0 11450.05 11610.55 500.37 o
2 8 0 15371.07 15670.50 229.59 o
4 8 0 7116.13 7022.13 420.40 o
6 8 0 6942.46 7502.55 487.03 o
1 9 0 10731.12 11722.43 285.95 o
3 9 0 7174.75 6539.97 1185.34 o
5 9 0 5972.13 6252.51 436.22 o
0 10 0 7015.34 7923.52 450.49 o
2 10 0 3682.58 3367.93 667.08 o
1 1 1 876.90 947.29 27.55 o
1 2 1 2901.03 2885.05 47.42 o
2 2 1 4795.18 4774.27 124.49 o
1 3 1 1544.67 1570.43 27.96 o
2 3 1 869.84 879.08 20.27 o
3 3 1 1606.08 1612.30 52.69 o
1 4 1 3156.58 3145.23 47.12 o
2 4 1 464.11 484.17 16.61 o
3 4 1 1062.90 1076.70 26.63 o
4 4 1 569.97 577.62 26.58 o
1 5 1 0.00 4.36 3.00 o
2 5 1 59.70 58.26 5.87 o
3 5 1 59.90 58.57 5.96 o
4 5 1 61.37 67.21 7.29 o
5 5 1 196.67 182.26 17.01 o
1 6 1 1278.49 1352.94 32.45 o
2 6 1 5.18 8.48 2.93 o
3 6 1 399.53 423.73 26.14 o
4 6 1 31.28 31.01 8.32 o
5 6 1 3.52 9.27 5.45 o
6 6 1 186.19 195.28 39.63 o
1 7 1 30.19 27.24 5.55 o
2 7 1 8.09 6.00 5.06 o
3 7 1 1.36 16.71 10.88 o
4 7 1 38.27 39.48 8.09 o
5 7 1 24.76 26.20 17.77 o
6 7 1 64.80 101.93 26.27 o
7 7 1 6.25 37.30 30.24 o
1 8 1 220.28 224.13 24.53 o
2 8 1 4.55 6.03 10.36 o
3 8 1 41.60 28.02 8.49 o
4 8 1 6.34 5.02 10.65 o
5 8 1 9.93 37.49 19.53 o
6 8 1 0.01 1.07 15.76 o
1 9 1 4.39 0.75 15.80 o
2 9 1 29.59 13.34 13.23 o
3 9 1 0.83 5.35 12.54 o
4 9 1 76.32 112.36 37.03 o
5 9 1 11.05 34.36 42.08 o
1 10 1 5.47 -1.41 16.89 o
2 10 1 6.96 -2.81 37.34 o
3 10 1 0.86 25.94 16.92 o
4 10 1 6.52 37.62 47.75 o
0 0 2 79570.36 43625.98 2317.62 o
0 1 2 2373.67 2430.48 75.54 o
1 1 2 105974.66 127194.41 1632.23 o
0 2 2 16734.68 16970.88 361.27 o
1 2 2 1186.07 1161.49 23.89 o
2 2 2 69768.08 73769.79 919.45 o
0 3 2 564.55 559.25 22.86 o
1 3 2 37121.84 39150.86 611.07 o
2 3 2 1745.89 1719.16 32.00 o
3 3 2 51970.53 53134.82 765.09 o
0 4 2 58199.88 59221.61 887.73 o
1 4 2 1090.36 1133.04 24.55 o
2 4 2 26960.06 26582.00 486.97 o
3 4 2 556.01 549.61 21.02 o
4 4 2 17824.01 17674.63 360.95 o
0 5 2 1308.75 1301.52 39.91 o
1 5 2 25224.92 25684.38 325.13 o
2 5 2 336.70 334.59 16.75 o
3 5 2 14070.17 14116.86 453.08 o
4 5 2 579.93 578.50 29.13 o
5 5 2 22036.37 22197.55 309.31 o
0 6 2 24028.78 24193.87 340.12 o
1 6 2 504.74 511.37 22.90 o
2 6 2 16617.11 16845.04 260.26 o
3 6 2 420.44 423.06 25.68 o
4 6 2 13946.54 14003.14 284.60 o
5 6 2 283.75 303.80 22.28 o
6 6 2 5754.34 6508.30 294.78 o
0 7 2 207.97 209.44 27.41 o
1 7 2 10433.59 10379.19 178.66 o
2 7 2 470.04 466.84 28.55 o
3 7 2 13149.87 13085.32 549.67 o
4 7 2 206.86 207.73 25.36 o
5 7 2 4100.49 3920.96 132.91 o
6 7 2 121.49 144.92 31.85 o
7 7 2 5646.47 6122.66 340.18 o
0 8 2 6322.51 6914.18 210.77 o
1 8 2 225.68 234.04 26.40 o
2 8 2 11176.06 11994.11 299.51 o
3 8 2 233.90 216.81 23.80 o
4 8 2 5502.82 5462.43 164.44 o
5 8 2 98.16 76.54 23.80 o
6 8 2 3834.12 3914.14 215.62 o
0 9 2 201.48 194.16 34.97 o
1 9 2 6078.83 6397.15 147.07 o
2 9 2 125.45 103.91 23.08 o
3 9 2 3130.13 3309.09 167.00 o
4 9 2 104.81 61.82 21.13 o
5 9 2 3740.35 3856.77 272.88 o
0 10 2 5122.85 5853.22 430.00 o
1 10 2 109.56 101.51 37.93 o
2 10 2 2605.69 2715.75 188.40 o
3 10 2 61.73 65.07 22.79 o
1 1 3 2491.19 2859.16 97.72 o
1 2 3 2249.74 2272.78 35.00 o
2 2 3 739.35 798.24 26.67 o
1 3 3 8.23 12.75 2.67 o
2 3 3 666.70 690.76 20.44 o
3 3 3 505.87 519.76 28.91 o
1 4 3 2601.21 2593.15 51.11 o
2 4 3 136.85 143.49 10.17 o
3 4 3 914.16 886.73 25.20 o
4 4 3 38.39 33.56 8.21 o
1 5 3 10.71 12.77 3.11 o
2 5 3 63.52 68.21 7.53 o
3 5 3 4.74 7.65 6.44 o
4 5 3 39.70 37.92 8.47 o
5 5 3 13.21 19.10 10.43 o
1 6 3 1096.82 1098.44 36.51 o
2 6 3 225.83 215.37 16.26 o
3 6 3 329.32 340.80 23.45 o
4 6 3 49.42 46.94 12.81 o
5 6 3 5.47 -0.65 6.03 o
6 6 3 1.89 10.42 15.34 o
1 7 3 1.86 1.35 7.72 o
2 7 3 9.58 15.02 6.39 o
3 7 3 44.13 32.90 8.53 o
4 7 3 23.85 31.29 11.31 o
5 7 3 47.55 26.77 13.23 o
6 7 3 68.32 87.15 25.31 o
7 7 3 5.26 37.62 73.68 o
1 8 3 182.90 217.87 26.00 o
2 8 3 1.06 8.05 10.29 o
3 8 3 41.14 49.50 15.29 o
4 8 3 12.33 -11.15 16.71 o
5 8 3 10.99 9.29 13.19 o
6 8 3 6.38 12.57 36.58 o
1 9 3 2.75 -6.73 8.44 o
2 9 3 23.13 28.53 9.71 o
3 9 3 22.48 -2.08 15.62 o
4 9 3 75.00 114.33 30.93 o
5 9 3 4.78 47.73 36.94 o
1 10 3 5.18 11.67 18.82 o
2 10 3 6.06 13.55 21.74 o
3 10 3 1.28 4.46 34.95 o
0 0 4 82192.10 61190.66 1031.52 o
0 1 4 4456.89 4888.36 103.36 o
1 1 4 28884.15 31187.42 303.15 o
0 2 4 6530.15 6364.37 140.67 o
1 2 4 2042.25 2028.34 32.25 o
2 2 4 38276.29 38843.00 1016.85 o
0 3 4 947.18 938.46 28.11 o
1 3 4 22840.13 23459.03 383.62 o
2 3 4 4028.75 3947.30 83.49 o
3 3 4 23538.49 23553.01 545.86 o
0 4 4 19808.67 19732.02 467.87 o
1 4 4 2328.59 2259.06 40.09 o
2 4 4 13170.72 12784.42 226.05 o
3 4 4 1139.09 1135.60 30.16 o
4 4 4 15071.70 15283.36 445.05 o
0 5 4 3253.35 3117.78 87.09 o
1 5 4 18494.55 18661.52 346.68 o
2 5 4 673.04 646.34 22.28 o
3 5 4 5638.53 5593.44 135.44 o
4 5 4 1447.40 1445.61 55.06 o
5 5 4 11516.25 11946.39 315.37 o
0 6 4 12442.01 12023.22 356.77 o
1 6 4 1170.10 1114.22 35.09 o
2 6 4 9119.57 9245.00 195.98 o
3 6 4 971.54 946.73 36.47 o
4 6 4 8954.10 8678.21 206.55 o
5 6 4 691.41 781.36 46.87 o
6 6 4 3489.21 3606.32 181.36 o
0 7 4 430.74 401.53 37.39 o
1 7 4 5444.25 5367.47 171.07 o
2 7 4 1208.46 1196.53 45.86 o
3 7 4 9347.88 9477.64 293.33 o
4 7 4 515.46 527.70 38.75 o
5 7 4 2962.14 3101.70 96.59 o
6 7 4 309.83 333.34 40.84 o
7 7 4 3432.32 3834.82 449.71 o
0 8 4 5014.98 5113.43 337.14 o
1 8 4 554.40 569.75 42.00 o
2 8 4 7021.21 7562.55 251.47 o
3 8 4 600.17 612.84 48.57 o
4 8 4 2358.42 2466.23 112.07 o
5 8 4 236.65 236.69 39.59 o
6 8 4 2551.07 2462.79 208.65 o
0 9 4 531.21 582.24 88.10 o
1 9 4 3391.84 3712.29 131.14 o
2 9 4 311.45 317.37 43.70 o
3 9 4 2548.96 2526.68 143.17 o
4 9 4 271.27 260.32 45.97 o
5 9 4 2957.77 2243.34 432.87 o
0 10 4 3642.45 4449.71 413.09 o
1 10 4 290.84 244.07 64.48 o
2 10 4 1608.21 1786.79 135.40 o
3 10 4 163.39 221.73 49.41 o
1 1 5 681.19 668.05 34.09 o
1 2 5 1404.85 1479.19 33.26 o
2 2 5 337.13 349.53 22.30 o
1 3 5 424.68 452.54 18.25 o
2 3 5 453.14 448.77 17.75 o
3 3 5 203.28 209.41 16.54 o
1 4 5 1740.79 1688.66 37.39 o
2 4 5 494.60 517.92 20.41 o
3 4 5 668.71 637.74 19.70 o
4 4 5 0.06 5.54 7.25 o
1 5 5 167.53 172.31 10.48 o
2 5 5 40.84 39.29 6.84 o
3 5 5 266.39 262.95 15.97 o
4 5 5 29.37 30.45 8.16 o
5 5 5 0.37 -0.83 6.06 o
1 6 5 803.22 763.74 28.85 o
2 6 5 64.30 60.94 8.03 o
3 6 5 226.87 233.67 16.24 o
4 6 5 337.94 356.35 23.05 o
5 6 5 5.57 0.84 10.27 o
6 6 5 114.87 131.32 31.26 o
1 7 5 122.76 117.12 12.12 o
2 7 5 7.84 18.27 6.51 o
3 7 5 5.45 18.62 10.69 o
4 7 5 18.44 15.35 11.09 o
5 7 5 1.10 9.28 9.32 o
6 7 5 50.63 83.17 20.94 o
7 7 5 22.08 84.57 41.96 o
1 8 5 137.06 145.44 24.91 o
2 8 5 40.51 40.33 14.93 o
3 8 5 31.17 7.80 19.37 o
4 8 5 29.21 40.05 23.94 o
5 8 5 10.67 16.82 13.29 o
6 8 5 7.12 11.95 15.62 o
1 9 5 56.98 62.31 29.11 o
2 9 5 15.53 -12.69 23.30 o
3 9 5 0.01 32.13 21.22 o
4 9 5 56.37 87.75 37.18 o
5 9 5 7.38 -56.34 130.54 o
1 10 5 3.92 25.70 18.45 o
2 10 5 43.73 45.62 18.89 o
3 10 5 1.15 15.46 19.75 o
0 0 6 127175.91 127578.24 1721.44 o
0 1 6 22951.50 23127.08 781.56 o
1 1 6 57468.86 59516.94 1537.07 o
0 2 6 48450.58 51622.21 1008.78 o
1 2 6 13708.24 13867.92 243.57 o
2 2 6 76935.80 82138.70 1272.93 o
0 3 6 8218.76 8057.67 179.38 o
1 3 6 33815.64 33256.09 494.41 o
2 3 6 16008.52 15880.08 245.58 o
3 3 6 44520.89 43383.96 1187.28 o
0 4 6 51290.94 52700.61 1097.95 o
1 4 6 10726.25 10399.75 147.94 o
2 4 6 28026.11 27656.68 488.72 o
3 4 6 6052.06 5863.37 151.18 o
4 4 6 17773.50 17389.38 676.61 o
0 5 6 11648.68 11302.68 297.02 o
1 5 6 28660.38 28184.34 426.50 o
2 5 6 4107.60 3865.47 65.51 o
3 5 6 16772.88 16093.26 255.41 o
4 5 6 5434.76 4582.10 182.07 o
5 5 6 18689.93 18792.72 749.90 o
0 6 6 17573.62 16031.15 492.24 o
1 6 6 4986.59 4623.25 133.67 o
2 6 6 13521.52 13454.49 332.54 o
3 6 6 4048.59 3947.72 77.33 o
4 6 6 12649.40 12925.79 276.85 o
5 6 6 2652.71 2634.26 88.75 o
6 6 6 6506.09 6405.91 217.44 o
0 7 6 2306.09 2062.54 91.57 o
1 7 6 14073.13 13346.00 527.18 o
2 7 6 4225.16 4176.67 162.54 o
3 7 6 13150.49 14003.89 355.04 o
4 7 6 2022.64 2000.30 88.13 o
5 7 6 3865.84 3890.63 117.35 o
6 7 6 1147.59 1166.35 72.60 o
7 7 6 3828.60 3734.47 268.33 o
0 8 6 4399.33 4872.79 280.77 o
1 8 6 2148.68 2155.17 108.37 o
2 8 6 8031.63 9123.27 286.53 o
3 8 6 2092.92 2233.30 113.45 o
4 8 6 5271.29 5416.73 162.78 o
5 8 6 931.98 917.65 72.28 o
6 8 6 4096.21 3828.40 440.90 o
0 9 6 1757.37 1992.46 181.78 o
1 9 6 6932.29 7923.40 246.04 o
2 9 6 1166.28 1307.61 99.97 o
3 9 6 3400.81 3775.28 242.86 o
4 9 6 941.01 883.23 105.64 o
0 10 6 3589.62 4303.29 447.32 o
1 10 6 954.23 1097.91 137.93 o
2 10 6 2142.23 2349.23 208.98 o
1 1 7 2362.00 2478.48 82.29 o
1 2 7 711.87 706.96 28.75 o
2 2 7 3.29 8.97 9.37 o
1 3 7 409.25 413.23 19.17 o
2 3 7 258.80 267.72 16.95 o
3 3 7 0.03 7.28 10.48 o
1 4 7 1040.03 1023.63 31.45 o
2 4 7 3.00 4.56 4.48 o
3 4 7 362.39 354.51 19.83 o
4 4 7 1087.60 1228.29 80.69 o
1 5 7 91.08 86.43 8.87 o
2 5 7 23.23 21.12 6.23 o
3 5 7 330.29 365.62 24.47 o
4 5 7 23.14 30.67 8.22 o
5 5 7 131.34 116.75 28.58 o
1 6 7 480.70 492.86 26.32 o
2 6 7 689.28 677.94 32.43 o
3 6 7 159.83 163.72 12.70 o
4 6 7 13.05 4.11 8.82 o
5 6 7 0.83 25.12 12.44 o
6 6 7 52.09 38.55 30.05 o
1 7 7 0.51 11.11 13.71 o
2 7 7 2.46 4.65 11.20 o
3 7 7 188.88 218.99 32.73 o
4 7 7 15.67 1.27 11.76 o
5 7 7 24.05 27.92 10.65 o
6 7 7 26.13 57.92 20.27 o
7 7 7 1.56 -23.87 24.56 o
1 8 7 84.03 91.03 53.27 o
2 8 7 10.86 22.16 17.26 o
3 8 7 17.10 9.85 12.98 o
4 8 7 33.62 56.12 17.43 o
5 8 7 3.20 -10.93 18.68 o
6 8 7 37.94 42.60 38.47 o
1 9 7 15.03 27.88 24.70 o
2 9 7 13.72 43.84 16.85 o
3 9 7 74.98 44.53 46.35 o
4 9 7 29.47 74.03 43.63 o
1 10 7 2.18 -11.16 11.16 o
2 10 7 17.33 59.77 43.63 o
0 0 8 61137.66 71876.70 2535.98 o
0 1 8 26393.93 26370.37 1357.58 o
1 1 8 43518.07 43342.74 1556.18 o
0 2 8 17445.93 16724.53 459.04 o
1 2 8 16542.93 16590.01 236.39 o
2 2 8 35163.45 34878.00 721.06 o
0 3 8 10475.72 9944.56 192.48 o
1 3 8 30911.20 31942.45 495.37 o
2 3 8 19699.80 19516.94 376.46 o
3 3 8 24431.40 25283.22 633.81 o
0 4 8 21660.40 20390.59 394.22 o
1 4 8 13494.86 12814.93 258.88 o
2 4 8 17250.30 16141.22 468.06 o
3 4 8 7840.90 7841.80 153.38 o
4 4 8 16237.94 16572.88 902.79 o
0 5 8 14676.67 14361.50 378.05 o
1 5 8 18246.30 17774.46 340.28 o
2 5 8 5463.59 5109.96 123.44 o
3 5 8 7887.59 7710.23 184.04 o
4 5 8 7196.36 7248.29 167.36 o
5 5 8 10155.95 10605.41 507.02 o
0 6 8 14296.06 13681.83 542.97 o
1 6 8 6654.70 6458.39 171.18 o
2 6 8 11116.19 10569.73 272.90 o
3 6 8 5342.16 5237.46 121.57 o
4 6 8 8776.03 8836.57 185.29 o
5 6 8 3551.12 3492.84 109.58 o
6 6 8 3419.87 3431.84 181.11 o
0 7 8 3089.68 3013.26 151.21 o
1 7 8 5411.90 5539.24 159.96 o
2 7 8 5596.80 5671.86 181.42 o
3 7 8 7883.35 8240.43 204.13 o
4 7 8 2790.23 2706.54 98.57 o
5 7 8 3594.16 3684.77 114.50 o
6 7 8 1600.08 1507.88 115.62 o
0 8 8 6262.01 6258.70 452.16 o
1 8 8 2936.38 3006.38 117.43 o
2 8 8 6766.68 7163.72 251.07 o
3 8 8 2845.83 2958.25 113.31 o
4 8 8 2519.13 2722.35 110.79 o
5 8 8 1289.81 1139.22 141.71 o
0 9 8 2418.83 2464.28 170.35 o
1 9 8 2783.36 3029.50 127.60 o
2 9 8 1611.91 1658.65 112.18 o
3 9 8 2445.30 2508.72 191.38 o
1 1 9 906.58 785.66 52.13 o
1 2 9 317.46 310.80 21.24 o
2 2 9 366.49 387.29 28.98 o
1 3 9 553.05 570.80 27.16 o
2 3 9 129.57 154.06 13.26 o
3 3 9 162.06 151.07 18.56 o
1 4 9 487.67 498.35 23.33 o
2 4 9 329.22 321.70 22.19 o
3 4 9 184.40 197.66 16.53 o
4 4 9 82.64 77.84 25.13 o
1 5 9 107.77 99.93 9.53 o
2 5 9 8.99 8.37 5.88 o
3 5 9 164.68 168.86 18.97 o
4 5 9 13.75 24.32 17.15 o
5 5 9 0.33 20.74 17.67 o
1 6 9 241.32 234.55 16.00 o
2 6 9 0.88 6.87 8.98 o
3 6 9 82.06 81.15 17.04 o
4 6 9 292.12 279.74 27.96 o
5 6 9 0.41 -11.39 11.39 o
6 6 9 211.01 217.56 41.42 o
1 7 9 125.27 114.53 17.97 o
2 7 9 2.08 1.41 7.86 o
3 7 9 0.01 13.49 16.18 o
4 7 9 9.01 4.93 11.26 o
5 7 9 8.44 14.77 13.51 o
6 7 9 11.85 17.87 25.87 o
1 8 9 48.65 31.69 11.40 o
2 8 9 34.87 48.75 15.46 o
3 8 9 6.22 25.47 14.14 o
4 8 9 74.86 92.73 26.09 o
5 8 9 1.77 -41.22 41.22 o
1 9 9 69.49 32.99 25.45 o
2 9 9 5.40 11.91 15.09 o
3 9 9 4.22 0.86 25.76 o
0 0 10 10666.82 13630.36 568.17 o
0 1 10 10024.17 10663.34 484.16 o
1 1 10 8163.93 8288.24 388.07 o
0 2 10 3794.37 3764.53 169.55 o
1 2 10 5756.93 5595.91 165.42 o
2 2 10 9077.97 8773.98 386.52 o
0 3 10 3145.92 3026.16 87.58 o
1 3 10 4199.43 3729.68 98.38 o
2 3 10 9200.38 8711.21 250.92 o
3 3 10 6910.93 6816.44 344.30 o
0 4 10 7681.31 7245.62 126.45 o
1 4 10 5914.50 5698.81 146.09 o
2 4 10 3737.38 3457.41 90.36 o
3 4 10 3232.93 3240.11 109.18 o
4 4 10 2490.38 2399.02 113.28 o
0 5 10 7877.53 7223.70 170.02 o
1 5 10 4004.67 3743.31 114.16 o
2 5 10 2044.37 1868.92 53.80 o
3 5 10 2518.65 2497.77 81.53 o
4 5 10 3809.05 3961.38 204.58 o
5 5 10 3607.34 3865.25 224.28 o
0 6 10 3133.25 2954.84 97.55 o
1 6 10 3169.34 3021.63 115.76 o
2 6 10 2324.12 2319.95 76.23 o
3 6 10 2759.11 2715.46 120.85 o
4 6 10 2334.67 2428.37 110.34 o
5 6 10 2018.32 2066.68 95.09 o
6 6 10 1268.70 1285.94 108.64 o
0 7 10 1402.17 1389.18 103.96 o
1 7 10 2282.57 2247.91 88.36 o
2 7 10 3273.69 3263.10 122.35 o
3 7 10 2338.39 2371.58 115.65 o
4 7 10 1513.63 1501.62 80.19 o
5 7 10 704.20 700.96 61.91 o
6 7 10 952.19 915.54 315.44 o
0 8 10 855.12 756.97 76.35 o
1 8 10 1631.95 1638.89 91.44 o
2 8 10 1766.87 1849.80 91.86 o
3 8 10 1732.10 1816.59 103.48 o
4 8 10 1194.85 1276.49 150.60 o
5 8 10 773.38 981.86 268.23 o
0 9 10 1520.03 1832.56 260.62 o
1 9 10 1371.09 1520.21 166.61 o
2 9 10 973.34 953.17 100.19 o
3 9 10 644.48 563.57 125.09 o
1 1 11 1606.90 1803.88 91.40 o
1 2 11 117.02 108.75 14.07 o
2 2 11 14.03 5.73 9.24 o
1 3 11 155.75 139.95 12.64 o
2 3 11 40.51 40.60 7.96 o
3 3 11 287.36 303.23 35.33 o
1 4 11 191.41 170.22 14.21 o
2 4 11 205.48 178.66 15.54 o
3 4 11 79.20 77.46 10.43 o
4 4 11 170.36 128.67 31.54 o
1 5 11 0.48 4.37 7.49 o
2 5 11 7.19 -3.42 5.48 o
3 5 11 0.45 -8.57 13.97 o
4 5 11 1.94 0.64 15.48 o
5 5 11 0.14 -10.70 18.86 o
1 6 11 102.95 83.66 16.22 o
2 6 11 176.90 138.96 21.29 o
3 6 11 26.74 25.34 15.65 o
4 6 11 196.15 215.24 31.25 o
5 6 11 1.13 -16.59 16.59 o
6 6 11 21.35 32.95 79.87 o
1 7 11 14.53 9.42 13.62 o
2 7 11 1.00 -12.25 12.25 o
3 7 11 42.04 29.07 19.20 o
4 7 11 1.49 -4.47 17.21 o
5 7 11 56.05 16.91 122.04 o
1 8 11 14.95 8.92 6.77 o
2 8 11 23.28 12.89 10.30 o
3 8 11 6.18 -4.82 13.55 o
4 8 11 30.50 56.45 26.08 o
1 9 11 24.22 20.04 34.52 o
0 0 12 14438.31 19368.82 851.19 o
0 1 12 15992.50 18929.84 854.87 o
1 1 12 4119.71 4243.33 225.42 o
0 2 12 5180.65 5140.55 297.60 o
1 2 12 10436.76 10305.14 598.91 o
2 2 12 7585.81 6838.90 636.20 o
0 3 12 6798.71 6138.08 277.58 o
1 3 12 4475.59 4077.60 224.69 o
2 3 12 13352.41 12029.05 669.45 o
3 3 12 4121.46 3736.85 323.19 o
0 4 12 3929.55 3436.08 144.98 o
1 4 12 9316.59 8350.87 173.56 o
2 4 12 3309.52 2973.04 110.14 o
3 4 12 5607.98 5339.13 335.66 o
4 4 12 3219.58 3603.09 540.41 o
0 5 12 10678.51 9367.17 279.58 o
1 5 12 4113.56 3605.02 86.71 o
2 5 12 3964.30 3511.33 100.29 o
3 5 12 1838.68 1785.76 114.89 o
4 5 12 5537.91 5855.61 354.82 o
5 5 12 2043.34 2182.64 165.09 o
0 6 12 2107.18 1960.79 113.57 o
1 6 12 5028.58 4545.67 175.88 o
2 6 12 1804.93 1683.89 85.40 o
3 6 12 4149.32 3867.73 154.06 o
4 6 12 1779.09 1760.97 96.65 o
5 6 12 2896.30 3046.20 180.74 o
6 6 12 938.70 1348.69 297.65 o
0 7 12 2433.36 2138.91 116.29 o
1 7 12 1756.68 1639.52 80.47 o
2 7 12 4466.35 4114.71 172.96 o
3 7 12 2001.91 1968.21 102.67 o
4 7 12 2308.67 2293.59 167.05 o
5 7 12 802.86 907.47 169.40 o
0 8 12 972.94 931.58 115.14 o
1 8 12 2421.22 2281.92 127.79 o
2 8 12 1118.68 1094.84 100.74 o
3 8 12 2387.12 2102.37 167.01 o
1 1 13 472.59 615.51 56.74 o
1 2 13 32.32 16.36 8.14 o
2 2 13 420.83 412.67 43.34 o
1 3 13 567.04 547.36 38.28 o
2 3 13 12.44 8.38 10.41 o
3 3 13 23.82 20.55 19.21 o
1 4 13 48.89 45.00 7.06 o
2 4 13 4.24 2.20 9.20 o
3 4 13 24.59 30.16 12.11 o
4 4 13 484.40 556.88 101.06 o
1 5 13 0.53 -5.86 9.99 o
2 5 13 1.27 1.89 14.35 o
3 5 13 19.13 40.81 20.31 o
4 5 13 0.71 28.12 17.35 o
5 5 13 111.96 71.40 38.45 o
1 6 13 28.99 35.78 9.33 o
2 6 13 60.47 26.03 15.91 o
3 6 13 6.66 13.13 15.18 o
4 6 13 47.65 52.79 20.03 o
5 6 13 0.52 -13.42 17.62 o
6 6 13 175.53 286.69 154.77 o
1 7 13 36.41 7.31 13.63 o
2 7 13 0.70 -1.29 19.15 o
3 7 13 28.57 0.44 26.71 o
4 7 13 0.52 -12.61 27.04 o
5 7 13 0.02 52.04 92.41 o
1 8 13 5.41 -18.92 28.21 o
2 8 13 21.80 17.11 16.08 o
3 8 13 1.13 9.10 58.23 o
0 0 14 2846.59 4315.29 396.37 o
0 1 14 23186.36 29896.01 766.46 o
1 1 14 6813.44 8525.70 359.08 o
0 2 14 2377.11 2406.79 131.94 o
1 2 14 16793.05 17587.85 871.59 o
2 2 14 3428.04 2958.33 263.06 o
0 3 14 12078.92 11156.99 893.87 o
1 3 14 3429.64 3315.39 208.28 o
2 3 14 18164.53 16148.87 1244.56 o
3 3 14 3391.89 3217.52 528.85 o
0 4 14 3769.03 3515.25 180.89 o
1 4 14 13657.04 12583.04 1013.38 o
2 4 14 2487.28 2070.55 162.86 o
3 4 14 8932.79 8449.76 926.16 o
4 4 14 1521.42 1667.65 360.12 o
0 5 14 14008.17 12478.33 1069.23 o
1 5 14 1727.04 1636.67 106.27 o
2 5 14 6759.06 5951.73 340.29 o
3 5 14 1533.94 1584.72 164.38 o
4 5 14 7490.04 8185.96 772.34 o
5 5 14 1494.11 1406.59 224.52 o
0 6 14 2235.28 1846.75 189.47 o
1 6 14 7247.96 6351.03 256.73 o
2 6 14 1701.67 1524.87 110.56 o
3 6 14 5960.03 5645.15 237.13 o
4 6 14 1111.22 1194.92 133.99 o
5 6 14 3985.22 5532.18 611.30 o
0 7 14 3990.15 3307.47 210.93 o
1 7 14 818.21 624.47 63.86 o
2 7 14 5816.12 4803.11 408.26 o
3 7 14 828.80 868.88 114.90 o
1 8 14 3345.51 3052.40 323.69 o
1 1 15 722.01 1047.53 74.75 o
1 2 15 3.54 11.44 10.69 o
2 2 15 27.69 23.71 17.49 o
1 3 15 38.55 26.63 8.29 o
2 3 15 1.89 5.53 9.40 o
3 3 15 273.50 166.99 40.63 o
1 4 15 8.53 14.05 11.75 o
2 4 15 198.82 168.07 29.46 o
3 4 15 1.34 4.04 18.56 o
4 4 15 21.87 -6.49 34.60 o
1 5 15 6.87 -2.41 11.20 o
2 5 15 0.11 19.55 10.53 o
3 5 15 19.16 14.44 23.99 o
4 5 15 0.43 25.18 18.78 o
1 6 15 3.06 25.63 18.06 o
2 6 15 50.87 27.38 7.60 o
3 6 15 2.32 47.37 34.61 o
4 6 15 128.55 28.86 19.07 o
1 7 15 9.85 -14.08 39.50 o
2 7 15 0.01 -10.09 31.29 o
3 7 15 16.06 55.48 37.44 o
0 0 16 1407.38 2043.77 227.12 o
0 1 16 8007.65 11135.03 345.05 o
1 1 16 245.29 384.51 48.23 o
0 2 16 656.96 780.23 64.22 o
1 2 16 5555.37 6542.55 251.92 o
2 2 16 611.86 716.90 76.91 o
0 3 16 3885.76 3887.09 314.21 o
1 3 16 471.73 450.42 40.10 o
2 3 16 6902.29 7260.42 549.57 o
3 3 16 320.52 232.03 41.04 o
0 4 16 228.28 150.75 82.56 o
1 4 16 5031.34 4976.25 328.68 o
2 4 16 306.36 255.73 44.35 o
3 4 16 3256.98 3340.96 424.32 o
4 4 16 365.27 446.48 91.13 o
0 5 16 5673.26 5113.09 650.85 o
1 5 16 472.52 402.99 42.63 o
2 5 16 2443.08 2238.13 204.85 o
3 5 16 202.24 174.45 32.19 o
4 5 16 3159.30 2333.84 338.12 o
0 6 16 145.97 116.10 28.00 o
1 6 16 2923.99 2406.31 249.30 o
2 6 16 160.46 130.07 41.71 o
3 6 16 2450.47 1717.94 273.48 o
1 7 16 206.15 104.10 48.79 o
1 1 17 189.62 294.48 44.02 o
1 2 17 0.03 5.23 10.54 o
2 2 17 88.20 65.36 33.20 o
1 3 17 144.46 158.42 19.04 o
2 3 17 0.00 11.92 11.41 o
3 3 17 2.67 9.12 29.61 o
1 4 17 0.14 1.65 7.47 o
2 4 17 18.63 5.19 15.76 o
3 4 17 0.01 3.98 13.25 o
4 4 17 84.97 36.59 54.62 o
1 5 17 4.92 12.66 7.49 o
2 5 17 0.08 -5.63 22.58 o
3 5 17 2.51 30.75 26.79 o
1 6 17 0.04 -13.05 23.02 o
2 6 17 7.02 45.96 22.22 o
0 0 18 13.58 68.56 40.90 o
0 1 18 3696.52 5198.44 217.05 o
1 1 18 33.67 89.75 26.44 o
0 2 18 88.47 159.41 27.47 o
1 2 18 2600.91 3298.09 109.92 o
2 2 18 39.90 24.51 22.29 o
0 3 18 1806.25 2027.86 231.23 o
1 3 18 12.29 5.45 15.31 o
2 3 18 3332.15 3752.30 201.24 o
3 3 18 28.64 12.16 23.99 o
0 4 18 69.61 64.60 23.55 o
1 4 18 2475.56 2507.81 185.55 o
2 4 18 38.23 10.65 14.26 o
3 4 18 1646.07 1531.54 151.97 o
4 4 18 5.56 -30.06 51.01 o
0 5 18 2865.73 2523.70 549.42 o
1 5 18 11.66 7.25 45.69 o
2 5 18 1235.42 982.96 103.46 o
3 5 18 45.38 36.59 40.71 o
1 1 19 144.88 282.73 48.22 o
1 2 19 1.57 7.11 11.58 o
2 2 19 5.12 23.63 13.60 o
1 3 19 42.33 42.71 11.31 o
2 3 19 1.20 -13.40 21.59 o
3 3 19 2.51 -33.69 33.69 o
1 4 19 3.01 25.74 19.45 o
2 4 19 3.01 -20.65 29.71 o
3 4 19 0.85 -2.27 26.01 o
1 5 19 1.44 -2.06 48.78 o
0 0 20 114.32 199.60 115.43 o
0 1 20 6091.84 8845.05 396.60 o
1 1 20 0.57 13.99 17.36 o
0 2 20 25.86 62.32 35.04 o
1 2 20 4749.03 6146.43 168.08 o
2 2 20 65.31 79.78 26.68 o
0 3 20 3739.17 4103.33 311.14 o
1 3 20 0.39 20.10 29.19 o
2 3 20 4826.48 5858.61 297.83 o
1 4 20 3846.54 4298.55 464.40 o
1 1 21 50.03 180.01 99.28 o
1 2 21 2.67 -24.42 25.88 o
