#------------------------------------------------------------------------------
#$Date: 2019-11-24 10:29:40 +0200 (Sun, 24 Nov 2019) $
#$Revision: 237638 $
#$URL: file:///home/coder/svn-repositories/cod/cif/7/23/73/7237379.cif $
#------------------------------------------------------------------------------
#
# This file is available in the Crystallography Open Database (COD),
# http://www.crystallography.net/
#
# All data on this site have been placed in the public domain by the
# contributors.
#
data_7237379
loop_
_publ_author_name
'Paliwoda, Damian'
'Szafra\'nski, Marek'
'Hanfland, Michael'
'Katrusiak, Andrzej'
_publ_section_title
;
 A giant 2-dimensional dielectric response in a compressed hydrogen-bonded
 hybrid organic--inorganic salt
;
_journal_issue                   28
_journal_name_full               'Journal of Materials Chemistry C'
_journal_page_first              7689
_journal_paper_doi               10.1039/C8TC02464B
_journal_volume                  6
_journal_year                    2018
_chemical_formula_moiety         'C4 H5 N2 Au Cl4'
_chemical_formula_sum            'C4 H5 Au Cl4 N2'
_chemical_formula_weight         419.87
_chemical_name_common            'pyrazinium tetrachloroaurate'
_chemical_name_systematic
; 
pyrazinium tetrachloroaurate 
;
_space_group_IT_number           138
_space_group_name_Hall           '-P 4ac 2ac'
_space_group_name_H-M_alt        'P 42/n c m :2'
_symmetry_cell_setting           tetragonal
_symmetry_space_group_name_Hall  '-P 4ac 2ac'
_symmetry_space_group_name_H-M   'P 42/n c m :2'
_atom_sites_solution_hydrogens   geom
_atom_sites_solution_primary     direct
_atom_sites_solution_secondary   difmap
_audit_creation_method           SHELXL-97
_audit_update_record
;
2017-04-07 deposited with the CCDC.
2018-06-28 downloaded from the CCDC.
;
_cell_angle_alpha                90.00
_cell_angle_beta                 90.00
_cell_angle_gamma                90.00
_cell_formula_units_Z            4
_cell_length_a                   7.7706(3)
_cell_length_b                   7.7706(3)
_cell_length_c                   15.666(12)
_cell_measurement_reflns_used    1570
_cell_measurement_temperature    296(2)
_cell_measurement_theta_max      36.51
_cell_measurement_theta_min      3.93
_cell_volume                     945.9(7)
_computing_cell_refinement       'CrysAlisRED (Oxford Diffraction, 2004)'
_computing_data_collection       'CrysAlisCCD (Oxford Diffraction, 2004)'
_computing_data_reduction        'CrysAlisRED (Oxford Diffraction, 2004)'
_computing_molecular_graphics    'SHELXTL (Sheldrick, 1990)'
_computing_publication_material  'SHELXL--97 (Sheldrick, 1997)'
_computing_structure_refinement  'SHELXL--97 (Sheldrick, 1997)'
_computing_structure_solution    'SHELXS--97 (Sheldrick, 1997)'
_diffrn_ambient_environment      'diamond-anvil cell'
_diffrn_ambient_pressure         580000
_diffrn_ambient_temperature      296(2)
_diffrn_measured_fraction_theta_full 0.254
_diffrn_measured_fraction_theta_max 0.254
_diffrn_measurement_device_type  Serial
_diffrn_measurement_method       \w/2\q
_diffrn_radiation_monochromator  Si(111)
_diffrn_radiation_source         synchrotron
_diffrn_radiation_type           synchrotron
_diffrn_radiation_wavelength     0.41438
_diffrn_reflns_av_R_equivalents  0.0324
_diffrn_reflns_av_sigmaI/netI    0.0313
_diffrn_reflns_limit_h_max       12
_diffrn_reflns_limit_h_min       -12
_diffrn_reflns_limit_k_max       11
_diffrn_reflns_limit_k_min       -12
_diffrn_reflns_limit_l_max       7
_diffrn_reflns_limit_l_min       -6
_diffrn_reflns_number            1570
_diffrn_reflns_theta_full        36.51
_diffrn_reflns_theta_max         36.51
_diffrn_reflns_theta_min         3.93
_diffrn_standards_decay_%        0
_diffrn_standards_interval_count 0
_diffrn_standards_number         0
_exptl_absorpt_coefficient_mu    16.618
_exptl_crystal_colour            orange
_exptl_crystal_density_diffrn    2.948
_exptl_crystal_density_method    'not measured'
_exptl_crystal_description       plate
_exptl_crystal_F_000             760
_exptl_crystal_size_max          0.05
_exptl_crystal_size_mid          0.04
_exptl_crystal_size_min          0.02
_refine_diff_density_max         0.700
_refine_diff_density_min         -0.640
_refine_diff_density_rms         0.108
_refine_ls_extinction_method     none
_refine_ls_goodness_of_fit_ref   1.119
_refine_ls_hydrogen_treatment    constr
_refine_ls_matrix_type           full
_refine_ls_number_parameters     33
_refine_ls_number_reflns         320
_refine_ls_number_restraints     52
_refine_ls_restrained_S_all      1.043
_refine_ls_R_factor_all          0.0640
_refine_ls_R_factor_gt           0.0474
_refine_ls_shift/su_max          0.000
_refine_ls_shift/su_mean         0.000
_refine_ls_structure_factor_coef Fsqd
_refine_ls_weighting_details
'calc w=1/[\s^2^(Fo^2^)+(0.0000P)^2^+12.1693P] where P=(Fo^2^+2Fc^2^)/3'
_refine_ls_weighting_scheme      calc
_refine_ls_wR_factor_gt          0.0773
_refine_ls_wR_factor_ref         0.0865
_reflns_number_gt                240
_reflns_number_total             320
_reflns_threshold_expression     >2sigma(I)
_cod_data_source_file            c8tc02464b2.cif
_cod_data_source_block           pyrazinium_tetrachloroaurate_5_80kbar
_cod_original_cell_volume        946.0(7)
_cod_original_sg_symbol_H-M      'P 42/n c m'
_cod_database_code               7237379
loop_
_symmetry_equiv_pos_as_xyz
'x, y, z'
'-x+1/2, -y+1/2, z'
'-y+1/2, x, z+1/2'
'y, -x+1/2, z+1/2'
'-x, y+1/2, -z+1/2'
'x+1/2, -y, -z+1/2'
'y+1/2, x+1/2, -z'
'-y, -x, -z'
'-x, -y, -z'
'x-1/2, y-1/2, -z'
'y-1/2, -x, -z-1/2'
'-y, x-1/2, -z-1/2'
'x, -y-1/2, z-1/2'
'-x-1/2, y, z-1/2'
'-y-1/2, -x-1/2, z'
'y, x, z'
loop_
_atom_site_label
_atom_site_type_symbol
_atom_site_fract_x
_atom_site_fract_y
_atom_site_fract_z
_atom_site_U_iso_or_equiv
_atom_site_adp_type
_atom_site_occupancy
_atom_site_symmetry_multiplicity
_atom_site_calc_flag
_atom_site_refinement_flags
Au1 Au 0.2500 0.2500 0.23569(15) 0.0326(13) Uani 1 4 d SU
Cl3 Cl 0.2500 0.2500 0.3834(12) 0.043(2) Uani 1 4 d SU
Cl4 Cl 0.2500 0.2500 0.0893(12) 0.043(2) Uani 1 4 d SU
N1 N 0.8700(4) 0.1300(4) 0.0000 0.042(3) Uani 1 2 d SDU
H1A H 0.9482 0.0518 0.0000 0.050 Uiso 0.50 2 calc SPR
C1 C 0.8130(9) 0.1859(9) 0.0751(6) 0.042(3) Uani 1 1 d DU
H1 H 0.8555 0.1410 0.1260 0.050 Uiso 1 1 calc R
Cl1 Cl 0.4567(3) 0.0433(3) 0.2331(7) 0.053(3) Uani 1 2 d SU
loop_
_atom_site_aniso_label
_atom_site_aniso_U_11
_atom_site_aniso_U_22
_atom_site_aniso_U_33
_atom_site_aniso_U_23
_atom_site_aniso_U_13
_atom_site_aniso_U_12
Au1 0.0316(3) 0.0316(3) 0.035(4) 0.000 0.000 -0.0001(2)
Cl3 0.0453(12) 0.0453(12) 0.039(6) 0.000 0.000 0.0060(19)
Cl4 0.0464(12) 0.0464(12) 0.037(6) 0.000 0.000 -0.0044(19)
N1 0.041(3) 0.041(3) 0.042(9) -0.001(4) -0.001(4) 0.010(4)
C1 0.044(4) 0.041(3) 0.041(9) -0.001(6) 0.000(6) 0.005(3)
Cl1 0.0522(11) 0.0522(11) 0.056(8) 0.0026(18) -0.0026(18) 0.0171(14)
loop_
_atom_type_symbol
_atom_type_description
_atom_type_scat_dispersion_real
_atom_type_scat_dispersion_imag
_atom_type_scat_source
C C 0.0033 0.0016 'International Tables Vol C Tables 4.2.6.8 and 6.1.1.4'
H H 0.0000 0.0000 'International Tables Vol C Tables 4.2.6.8 and 6.1.1.4'
N N 0.0061 0.0033 'International Tables Vol C Tables 4.2.6.8 and 6.1.1.4'
Cl Cl 0.1484 0.1585 'International Tables Vol C Tables 4.2.6.8 and 6.1.1.4'
Au Au -2.0133 8.8022 'International Tables Vol C Tables 4.2.6.8 and 6.1.1.4'
loop_
_geom_angle_atom_site_label_1
_geom_angle_atom_site_label_2
_geom_angle_atom_site_label_3
_geom_angle
_geom_angle_site_symmetry_1
_geom_angle_site_symmetry_3
Cl4 Au1 Cl3 180.000(1) . .
Cl4 Au1 Cl1 89.0(3) . 2
Cl3 Au1 Cl1 91.0(3) . 2
Cl4 Au1 Cl1 89.0(3) . .
Cl3 Au1 Cl1 91.0(3) . .
Cl1 Au1 Cl1 178.0(5) 2 .
C1 N1 C1 124.5(7) 8_665 .
C1 C1 N1 117.8(3) 2_655 .
loop_
_geom_bond_atom_site_label_1
_geom_bond_atom_site_label_2
_geom_bond_distance
_geom_bond_site_symmetry_2
Au1 Cl4 2.293(18) .
Au1 Cl3 2.314(18) .
Au1 Cl1 2.272(3) 2
Au1 Cl1 2.272(3) .
N1 C1 1.331(8) 8_665
N1 C1 1.331(8) .
C1 C1 1.397(8) 2_655
loop_
_refln_index_h
_refln_index_k
_refln_index_l
_refln_F_squared_calc
_refln_F_squared_meas
_refln_F_squared_sigma
_refln_observed_status
3 5 0 25433.09 24115.29 450.17 o
5 5 0 26357.60 27090.56 842.37 o
0 6 0 28250.09 27314.46 482.35 o
2 6 0 24890.06 25469.02 381.37 o
4 6 0 21966.72 22259.76 279.39 o
6 6 0 9793.88 10182.30 381.34 o
1 7 0 21174.24 20704.96 237.18 o
3 7 0 22411.72 23870.14 398.08 o
5 7 0 6811.74 7063.54 172.09 o
7 7 0 5370.28 5685.70 415.08 o
0 8 0 9926.66 9941.96 180.51 o
2 8 0 12598.06 12675.08 206.04 o
4 8 0 6124.67 6378.24 203.28 o
6 8 0 5597.67 5991.06 358.11 o
1 9 0 8923.23 8709.78 170.40 o
3 9 0 5656.51 5603.23 154.04 o
5 9 0 4651.80 5034.19 191.37 o
0 10 0 5350.63 4937.50 276.48 o
2 10 0 2889.69 2682.04 116.82 o
4 10 0 3301.23 3323.34 161.92 o
1 11 0 2532.08 2347.46 262.27 o
3 11 0 2104.05 1926.97 102.43 o
5 11 0 1070.41 761.09 93.85 o
4 12 0 877.24 852.35 158.00 o
1 1 1 765.09 562.21 22.32 o
1 2 1 2570.51 2737.52 35.94 o
2 2 1 4648.75 4914.74 63.16 o
1 3 1 1535.65 1750.51 33.22 o
2 3 1 807.28 809.19 24.69 o
3 3 1 1371.03 1220.87 39.55 o
1 4 1 2794.79 2661.72 41.16 o
2 4 1 484.50 362.53 17.64 o
3 4 1 1002.28 921.83 30.50 o
4 4 1 558.50 490.94 28.23 o
1 5 1 0.06 8.91 2.99 o
2 5 1 72.22 40.89 6.32 o
3 5 1 53.29 32.71 7.68 o
4 5 1 92.56 73.80 7.97 o
5 5 1 121.96 107.75 17.10 o
1 6 1 1162.75 1045.45 28.75 o
2 6 1 0.20 17.68 5.85 o
3 6 1 410.30 443.58 23.39 o
4 6 1 35.88 17.44 5.80 o
5 6 1 16.42 32.53 9.47 o
6 6 1 165.13 110.18 19.96 o
1 7 1 23.53 17.33 7.87 o
2 7 1 0.91 9.11 4.89 o
3 7 1 3.16 7.27 2.64 o
4 7 1 11.58 5.69 2.78 o
5 7 1 8.78 10.02 7.40 o
6 7 1 23.20 26.25 13.68 o
7 7 1 1.49 69.93 52.40 o
1 8 1 222.52 156.45 14.09 o
2 8 1 3.72 8.48 5.03 o
3 8 1 58.14 34.15 9.45 o
4 8 1 9.99 30.89 15.82 o
5 8 1 0.70 10.11 4.02 o
6 8 1 0.82 19.43 6.98 o
1 9 1 0.69 20.13 11.82 o
2 9 1 14.93 14.41 9.40 o
3 9 1 5.37 17.61 28.11 o
4 9 1 34.68 27.00 7.87 o
5 9 1 10.04 15.89 5.82 o
6 9 1 39.42 40.49 20.66 o
1 10 1 11.35 30.71 16.43 o
2 10 1 2.18 11.41 8.61 o
3 10 1 0.19 20.18 13.36 o
4 10 1 4.34 24.78 6.80 o
5 10 1 5.37 8.93 9.01 o
6 10 1 5.98 18.44 14.28 o
1 11 1 0.35 9.65 12.95 o
2 11 1 7.13 3.31 17.78 o
3 11 1 2.66 26.20 34.22 o
4 11 1 18.04 28.00 11.76 o
5 11 1 18.84 982.39 166.26 o
3 12 1 1.37 48.83 45.34 o
4 12 1 3.22 6.77 11.45 o
5 12 1 2.99 0.91 6.81 o
0 2 2 15378.76 14899.54 193.06 o
1 2 2 1406.03 1578.75 38.46 o
0 3 2 659.25 719.26 36.32 o
2 3 2 1960.80 2184.99 47.23 o
1 4 2 1240.03 1358.25 29.09 o
2 4 2 23398.97 23640.66 211.42 o
3 4 2 576.93 642.71 23.67 o
4 4 2 16427.51 15835.84 166.86 o
0 5 2 1394.54 1555.12 52.30 o
1 5 2 22310.52 22110.95 150.96 o
2 5 2 334.69 369.50 20.96 o
3 5 2 12618.11 12412.88 124.89 o
4 5 2 619.47 616.83 22.96 o
5 5 2 18049.02 18098.57 190.08 o
0 6 2 19952.82 20200.44 205.96 o
1 6 2 520.03 557.45 21.99 o
2 6 2 14797.65 14410.69 119.18 o
3 6 2 450.31 461.43 26.06 o
4 6 2 11132.45 11843.18 148.95 o
5 6 2 241.91 265.90 25.39 o
6 6 2 4512.80 4843.94 130.33 o
0 7 2 179.80 192.31 20.84 o
1 7 2 8634.32 8749.80 99.48 o
2 7 2 471.62 486.35 22.63 o
3 7 2 10766.00 10933.94 138.03 o
4 7 2 171.28 113.86 13.72 o
5 7 2 3215.14 3263.95 84.22 o
6 7 2 116.00 59.90 12.11 o
7 7 2 4205.32 5035.30 280.35 o
0 8 2 5469.21 5544.22 123.53 o
1 8 2 221.08 186.05 14.85 o
2 8 2 8608.10 8807.51 105.03 o
3 8 2 199.82 176.15 18.25 o
4 8 2 4135.85 4318.83 94.14 o
5 8 2 91.98 67.46 13.28 o
6 8 2 2855.66 2902.25 138.40 o
0 9 2 187.74 101.14 20.67 o
1 9 2 4568.17 4595.30 92.75 o
2 9 2 95.70 48.01 16.67 o
3 9 2 2319.73 2297.05 75.15 o
4 9 2 94.16 86.12 14.86 o
5 9 2 2800.81 3218.23 110.16 o
6 9 2 62.45 31.93 14.52 o
0 10 2 3673.22 3776.50 111.84 o
1 10 2 88.68 54.21 10.62 o
2 10 2 1901.01 1881.11 93.04 o
3 10 2 52.83 32.44 9.70 o
4 10 2 2139.29 2225.70 85.38 o
5 10 2 58.27 25.19 14.04 o
6 10 2 875.83 599.78 99.16 o
1 11 2 1311.26 1189.32 78.30 o
2 11 2 45.62 35.86 12.67 o
3 11 2 1346.50 1337.05 83.17 o
4 11 2 35.31 39.04 37.27 o
5 11 2 821.13 1035.31 134.24 o
2 12 2 931.05 852.14 94.14 o
3 12 2 25.61 11.14 17.79 o
4 12 2 450.05 277.05 47.77 o
2 2 3 591.30 556.34 70.43 o
1 3 3 1.38 1.72 3.11 o
2 3 3 609.77 567.07 31.32 o
3 3 3 493.19 364.80 33.78 o
1 4 3 2247.39 2063.18 54.12 o
2 4 3 101.12 83.97 10.99 o
3 4 3 827.36 733.50 34.61 o
4 4 3 55.94 28.65 8.52 o
1 5 3 0.79 13.63 4.91 o
2 5 3 68.79 44.24 6.93 o
3 5 3 9.94 9.47 6.06 o
4 5 3 63.95 40.20 6.98 o
5 5 3 9.49 25.25 28.15 o
1 6 3 961.99 867.56 31.02 o
2 6 3 185.70 135.53 11.86 o
3 6 3 334.62 304.42 21.97 o
4 6 3 38.04 13.60 8.72 o
5 6 3 15.83 25.41 4.72 o
6 6 3 0.43 27.13 12.32 o
1 7 3 2.18 10.11 5.22 o
2 7 3 2.07 9.84 6.05 o
3 7 3 24.15 11.05 4.11 o
4 7 3 5.98 15.18 7.66 o
5 7 3 42.74 19.93 10.54 o
6 7 3 26.10 21.77 7.18 o
7 7 3 2.77 37.57 14.99 o
1 8 3 183.84 141.94 13.57 o
2 8 3 1.26 14.04 6.04 o
3 8 3 47.98 26.61 7.82 o
4 8 3 13.06 19.43 5.90 o
5 8 3 0.91 60.39 28.68 o
6 8 3 8.01 20.72 12.88 o
1 9 3 2.66 19.30 8.73 o
2 9 3 9.77 10.30 17.21 o
3 9 3 19.48 36.57 24.02 o
4 9 3 37.85 24.57 16.32 o
5 9 3 1.65 32.80 23.03 o
6 9 3 26.95 9.02 6.35 o
1 10 3 8.77 24.05 12.14 o
2 10 3 1.21 25.84 13.28 o
3 10 3 0.21 20.94 10.99 o
4 10 3 0.75 29.54 19.39 o
5 10 3 4.62 15.45 9.31 o
1 11 3 9.52 8.38 9.05 o
2 11 3 8.05 61.82 33.19 o
3 11 3 0.00 19.77 22.84 o
4 11 3 11.76 25.02 23.52 o
5 11 3 0.38 22.17 29.07 o
2 12 3 0.12 11.16 9.90 o
3 12 3 1.37 8.25 14.95 o
4 12 3 1.33 8.01 12.03 o
3 3 4 21064.51 20027.33 499.79 o
0 4 4 19401.09 19486.77 468.89 o
1 4 4 2808.46 3079.96 107.43 o
2 4 4 11582.68 10909.27 178.21 o
3 4 4 1295.06 1392.49 69.52 o
4 4 4 13423.57 13836.35 205.30 o
0 5 4 3776.19 4003.14 161.44 o
1 5 4 15847.61 15712.79 268.32 o
2 5 4 782.26 815.94 52.56 o
3 5 4 5114.51 4992.86 115.63 o
4 5 4 1676.47 1728.95 53.11 o
5 5 4 9359.56 9541.75 188.83 o
0 6 4 10395.74 10266.26 216.39 o
1 6 4 1248.84 1254.88 52.00 o
2 6 4 8286.44 8303.56 155.47 o
3 6 4 1131.38 1132.81 59.57 o
4 6 4 7007.79 6909.82 109.69 o
5 6 4 643.74 594.00 31.02 o
6 6 4 2553.03 2764.47 94.06 o
0 7 4 459.15 418.30 35.18 o
1 7 4 4395.15 4240.81 78.60 o
2 7 4 1354.96 1357.79 45.58 o
3 7 4 7215.28 7651.05 154.22 o
4 7 4 473.76 438.06 31.88 o
5 7 4 2252.29 2364.23 82.33 o
6 7 4 332.20 241.43 20.68 o
7 7 4 2593.21 2823.21 130.52 o
0 8 4 4115.36 4292.85 120.36 o
1 8 4 571.66 560.68 29.85 o
2 8 4 5308.12 5230.62 85.01 o
3 8 4 543.81 456.15 28.60 o
4 8 4 1794.42 1853.10 75.52 o
5 8 4 254.97 152.99 22.94 o
6 8 4 1761.67 2197.62 103.63 o
7 8 4 235.52 208.37 50.66 o
0 9 4 559.61 555.47 44.33 o
1 9 4 2496.98 2566.60 67.73 o
2 9 4 274.47 213.96 16.87 o
3 9 4 1775.28 1489.97 91.81 o
4 9 4 277.93 205.24 36.26 o
5 9 4 2085.66 2531.54 113.44 o
6 9 4 193.07 105.72 45.47 o
0 10 4 2502.62 2609.73 128.01 o
1 10 4 257.49 205.26 20.26 o
2 10 4 1114.90 1107.61 60.46 o
3 10 4 155.16 32.19 23.84 o
4 10 4 1306.28 1586.89 109.94 o
5 10 4 180.62 150.56 36.28 o
0 11 4 133.60 41.61 26.33 o
1 11 4 964.71 1001.81 93.33 o
2 11 4 135.57 104.76 25.34 o
3 11 4 876.73 939.43 83.81 o
4 11 4 108.88 104.10 32.58 o
5 11 4 478.02 226.97 74.16 o
2 12 4 626.00 483.68 107.80 o
3 12 4 84.32 48.82 28.15 o
4 12 4 391.85 268.83 88.20 o
4 4 5 9.06 5.90 17.11 o
1 5 5 207.60 310.44 73.50 o
2 5 5 49.63 36.81 19.37 o
3 5 5 183.69 219.53 44.16 o
4 5 5 32.64 8.65 6.26 o
5 5 5 1.47 106.56 39.60 o
1 6 5 671.98 619.44 59.84 o
2 6 5 59.31 49.48 22.60 o
3 6 5 200.58 122.96 24.29 o
4 6 5 358.77 273.99 34.96 o
5 6 5 16.64 20.73 10.97 o
6 6 5 73.01 11.43 7.39 o
1 7 5 68.61 27.90 11.74 o
2 7 5 2.70 36.64 13.76 o
3 7 5 1.41 5.71 7.56 o
4 7 5 3.11 26.47 15.12 o
5 7 5 0.03 7.64 3.82 o
6 7 5 25.42 18.53 9.94 o
7 7 5 30.73 26.24 15.86 o
1 8 5 118.54 79.12 13.45 o
2 8 5 38.08 13.53 5.76 o
3 8 5 41.41 30.35 8.67 o
4 8 5 28.78 6.77 10.34 o
5 8 5 3.50 537.58 137.86 o
6 8 5 16.06 74.72 44.18 o
1 9 5 44.73 24.07 8.24 o
2 9 5 6.81 10.90 7.72 o
3 9 5 1.05 20.18 20.60 o
4 9 5 29.35 18.87 11.55 o
5 9 5 21.51 43.48 17.94 o
6 9 5 16.86 84.21 41.94 o
1 10 5 7.05 19.06 25.45 o
2 10 5 31.75 8.46 6.31 o
3 10 5 0.15 55.56 46.84 o
4 10 5 0.01 6.06 19.93 o
5 10 5 1.31 30.25 24.90 o
1 11 5 0.01 23.17 13.79 o
2 11 5 5.39 14.39 11.11 o
3 11 5 32.25 48.50 18.19 o
5 11 5 0.38 38.12 36.96 o
4 6 6 10259.16 11468.40 557.92 o
5 6 6 2537.40 2789.05 208.58 o
6 6 6 5324.80 5118.10 193.10 o
0 7 6 2364.03 2535.48 239.85 o
1 7 6 11949.38 12990.82 384.64 o
2 7 6 4534.21 5102.44 192.74 o
3 7 6 10606.18 11142.45 286.16 o
4 7 6 1947.08 2004.61 120.76 o
5 7 6 2996.99 2828.87 127.12 o
6 7 6 1217.06 1115.06 63.54 o
7 7 6 2686.87 2636.72 166.26 o
0 8 6 3642.46 3699.42 314.59 o
1 8 6 2251.12 2227.66 172.66 o
2 8 6 6061.51 5938.39 224.74 o
3 8 6 1975.68 1954.32 130.59 o
4 8 6 4057.87 4159.78 182.85 o
5 8 6 975.80 941.01 103.40 o
6 8 6 3079.62 3045.65 223.82 o
0 9 6 1799.53 1753.41 231.87 o
1 9 6 5287.29 5173.80 223.68 o
2 9 6 1058.06 920.91 109.14 o
3 9 6 2570.97 1903.82 308.49 o
4 9 6 945.28 916.39 109.40 o
5 9 6 2044.77 2284.84 226.39 o
6 9 6 602.52 660.99 111.04 o
1 10 6 867.88 1002.87 94.57 o
2 10 6 1560.13 1117.84 192.51 o
3 10 6 551.28 532.84 131.72 o
4 10 6 1833.76 1813.79 166.70 o
5 10 6 532.39 433.76 103.40 o
3 11 6 1123.36 759.48 166.85 o
4 11 6 330.73 121.83 65.53 o
5 11 6 648.13 512.41 119.34 o
3 9 7 63.93 47.25 28.90 o
3 10 7 0.01 11.71 17.11 o
4 10 7 30.04 12.29 34.55 o
