#------------------------------------------------------------------------------
#$Date: 2019-11-24 10:29:40 +0200 (Sun, 24 Nov 2019) $
#$Revision: 237638 $
#$URL: file:///home/coder/svn-repositories/cod/cif/7/23/73/7237380.cif $
#------------------------------------------------------------------------------
#
# This file is available in the Crystallography Open Database (COD),
# http://www.crystallography.net/
#
# All data on this site have been placed in the public domain by the
# contributors.
#
data_7237380
loop_
_publ_author_name
'Paliwoda, Damian'
'Szafra\'nski, Marek'
'Hanfland, Michael'
'Katrusiak, Andrzej'
_publ_section_title
;
 A giant 2-dimensional dielectric response in a compressed hydrogen-bonded
 hybrid organic--inorganic salt
;
_journal_issue                   28
_journal_name_full               'Journal of Materials Chemistry C'
_journal_page_first              7689
_journal_paper_doi               10.1039/C8TC02464B
_journal_volume                  6
_journal_year                    2018
_chemical_formula_moiety         'C4 H5 N2 Au Cl4'
_chemical_formula_sum            'C4 H5 Au Cl4 N2'
_chemical_formula_weight         419.87
_chemical_name_common            'pyrazinium tetrachloroaurate'
_chemical_name_systematic
; 
pyrazinium tetrachloroaurate 
;
_space_group_IT_number           138
_space_group_name_Hall           '-P 4ac 2ac'
_space_group_name_H-M_alt        'P 42/n c m :2'
_symmetry_cell_setting           tetragonal
_symmetry_space_group_name_Hall  '-P 4ac 2ac'
_symmetry_space_group_name_H-M   'P 42/n c m :2'
_atom_sites_solution_hydrogens   geom
_atom_sites_solution_primary     direct
_atom_sites_solution_secondary   difmap
_audit_creation_method           SHELXL-97
_audit_update_record
;
2017-04-07 deposited with the CCDC.
2018-06-28 downloaded from the CCDC.
;
_cell_angle_alpha                90.00
_cell_angle_beta                 90.00
_cell_angle_gamma                90.00
_cell_formula_units_Z            4
_cell_length_a                   7.6937(2)
_cell_length_b                   7.6937(2)
_cell_length_c                   15.371(9)
_cell_measurement_reflns_used    1475
_cell_measurement_temperature    296(2)
_cell_measurement_theta_max      35.88
_cell_measurement_theta_min      3.97
_cell_volume                     909.9(5)
_computing_cell_refinement       'CrysAlisRED (Oxford Diffraction, 2004)'
_computing_data_collection       'CrysAlisCCD (Oxford Diffraction, 2004)'
_computing_data_reduction        'CrysAlisRED (Oxford Diffraction, 2004)'
_computing_molecular_graphics    'SHELXTL (Sheldrick, 1990)'
_computing_publication_material  'SHELXL--97 (Sheldrick, 1997)'
_computing_structure_refinement  'SHELXL--97 (Sheldrick, 1997)'
_computing_structure_solution    'SHELXS--97 (Sheldrick, 1997)'
_diffrn_ambient_environment      'diamond-anvil cell'
_diffrn_ambient_pressure         1230000
_diffrn_ambient_temperature      296(2)
_diffrn_measured_fraction_theta_full 0.258
_diffrn_measured_fraction_theta_max 0.258
_diffrn_measurement_device_type  Serial
_diffrn_measurement_method       \w/2\q
_diffrn_radiation_monochromator  Si(111)
_diffrn_radiation_source         synchrotron
_diffrn_radiation_type           synchrotron
_diffrn_radiation_wavelength     0.41438
_diffrn_reflns_av_R_equivalents  0.0356
_diffrn_reflns_av_sigmaI/netI    0.0340
_diffrn_reflns_limit_h_max       12
_diffrn_reflns_limit_h_min       -12
_diffrn_reflns_limit_k_max       11
_diffrn_reflns_limit_k_min       -12
_diffrn_reflns_limit_l_max       7
_diffrn_reflns_limit_l_min       -6
_diffrn_reflns_number            1475
_diffrn_reflns_theta_full        35.88
_diffrn_reflns_theta_max         35.88
_diffrn_reflns_theta_min         3.97
_diffrn_standards_decay_%        0
_diffrn_standards_interval_count 0
_diffrn_standards_number         0
_exptl_absorpt_coefficient_mu    17.278
_exptl_crystal_colour            orange
_exptl_crystal_density_diffrn    3.065
_exptl_crystal_density_method    'not measured'
_exptl_crystal_description       plate
_exptl_crystal_F_000             760
_exptl_crystal_size_max          0.05
_exptl_crystal_size_mid          0.04
_exptl_crystal_size_min          0.02
_refine_diff_density_max         0.605
_refine_diff_density_min         -0.499
_refine_diff_density_rms         0.103
_refine_ls_extinction_method     none
_refine_ls_goodness_of_fit_ref   1.110
_refine_ls_hydrogen_treatment    constr
_refine_ls_matrix_type           full
_refine_ls_number_parameters     33
_refine_ls_number_reflns         298
_refine_ls_number_restraints     52
_refine_ls_restrained_S_all      1.024
_refine_ls_R_factor_all          0.0526
_refine_ls_R_factor_gt           0.0410
_refine_ls_shift/su_max          0.000
_refine_ls_shift/su_mean         0.000
_refine_ls_structure_factor_coef Fsqd
_refine_ls_weighting_details
'calc w=1/[\s^2^(Fo^2^)+(0.0130P)^2^+8.9916P] where P=(Fo^2^+2Fc^2^)/3'
_refine_ls_weighting_scheme      calc
_refine_ls_wR_factor_gt          0.0768
_refine_ls_wR_factor_ref         0.0830
_reflns_number_gt                241
_reflns_number_total             298
_reflns_threshold_expression     >2sigma(I)
_cod_data_source_file            c8tc02464b2.cif
_cod_data_source_block           pyrazinium_tetrachloroaurate_12_30kbar
_cod_original_cell_volume        909.8(6)
_cod_original_sg_symbol_H-M      'P 42/n c m'
_cod_database_code               7237380
loop_
_symmetry_equiv_pos_as_xyz
'x, y, z'
'-x+1/2, -y+1/2, z'
'-y+1/2, x, z+1/2'
'y, -x+1/2, z+1/2'
'-x, y+1/2, -z+1/2'
'x+1/2, -y, -z+1/2'
'y+1/2, x+1/2, -z'
'-y, -x, -z'
'-x, -y, -z'
'x-1/2, y-1/2, -z'
'y-1/2, -x, -z-1/2'
'-y, x-1/2, -z-1/2'
'x, -y-1/2, z-1/2'
'-x-1/2, y, z-1/2'
'-y-1/2, -x-1/2, z'
'y, x, z'
loop_
_atom_site_label
_atom_site_type_symbol
_atom_site_fract_x
_atom_site_fract_y
_atom_site_fract_z
_atom_site_U_iso_or_equiv
_atom_site_adp_type
_atom_site_occupancy
_atom_site_symmetry_multiplicity
_atom_site_calc_flag
_atom_site_refinement_flags
Au1 Au 0.2500 0.2500 0.23398(12) 0.0304(13) Uani 1 4 d SU
Cl3 Cl 0.2500 0.2500 0.3826(11) 0.0390(19) Uani 1 4 d SU
Cl4 Cl 0.2500 0.2500 0.0869(12) 0.039(2) Uani 1 4 d SU
N1 N 0.8710(4) 0.1290(4) 0.0000 0.038(3) Uani 1 2 d SDU
H1A H 0.9500 0.0500 0.0000 0.045 Uiso 0.50 2 calc SPR
C1 C 0.8136(8) 0.1848(8) 0.0765(6) 0.038(3) Uani 1 1 d DU
H1 H 0.8562 0.1390 0.1282 0.046 Uiso 1 1 calc R
Cl1 Cl 0.4597(3) 0.0403(3) 0.2309(5) 0.046(2) Uani 1 2 d SU
loop_
_atom_site_aniso_label
_atom_site_aniso_U_11
_atom_site_aniso_U_22
_atom_site_aniso_U_33
_atom_site_aniso_U_23
_atom_site_aniso_U_13
_atom_site_aniso_U_12
Au1 0.0259(3) 0.0259(3) 0.039(4) 0.000 0.000 0.00087(19)
Cl3 0.0388(10) 0.0388(10) 0.039(6) 0.000 0.000 0.0038(14)
Cl4 0.0405(10) 0.0405(10) 0.037(6) 0.000 0.000 -0.0014(15)
N1 0.036(2) 0.036(2) 0.040(9) 0.000(4) 0.000(4) 0.006(3)
C1 0.038(3) 0.036(3) 0.039(9) 0.000(5) 0.000(5) 0.004(3)
Cl1 0.0445(9) 0.0445(9) 0.049(8) 0.0017(14) -0.0017(14) 0.0157(12)
loop_
_atom_type_symbol
_atom_type_description
_atom_type_scat_dispersion_real
_atom_type_scat_dispersion_imag
_atom_type_scat_source
C C 0.0033 0.0016 'International Tables Vol C Tables 4.2.6.8 and 6.1.1.4'
H H 0.0000 0.0000 'International Tables Vol C Tables 4.2.6.8 and 6.1.1.4'
N N 0.0061 0.0033 'International Tables Vol C Tables 4.2.6.8 and 6.1.1.4'
Cl Cl 0.1484 0.1585 'International Tables Vol C Tables 4.2.6.8 and 6.1.1.4'
Au Au -2.0133 8.8022 'International Tables Vol C Tables 4.2.6.8 and 6.1.1.4'
loop_
_geom_angle_atom_site_label_1
_geom_angle_atom_site_label_2
_geom_angle_atom_site_label_3
_geom_angle
_geom_angle_site_symmetry_1
_geom_angle_site_symmetry_3
Cl4 Au1 Cl3 180.000(1) . .
Cl4 Au1 Cl1 88.8(2) . 2
Cl3 Au1 Cl1 91.2(2) . 2
Cl4 Au1 Cl1 88.8(2) . .
Cl3 Au1 Cl1 91.2(2) . .
Cl1 Au1 Cl1 177.6(4) 2 .
C1 N1 C1 124.7(7) 8_665 .
C1 C1 N1 117.6(3) 2_655 .
loop_
_geom_bond_atom_site_label_1
_geom_bond_atom_site_label_2
_geom_bond_distance
_geom_bond_site_symmetry_2
Au1 Cl4 2.261(18) .
Au1 Cl3 2.284(17) .
Au1 Cl1 2.282(3) 2
Au1 Cl1 2.282(3) .
N1 C1 1.327(8) 8_665
N1 C1 1.327(8) .
C1 C1 1.401(8) 2_655
loop_
_refln_index_h
_refln_index_k
_refln_index_l
_refln_F_squared_calc
_refln_F_squared_meas
_refln_F_squared_sigma
_refln_observed_status
4 6 0 25201.99 24444.23 541.77 o
6 6 0 12600.37 12751.33 590.66 o
5 7 0 8428.91 8451.93 168.87 o
7 7 0 7584.50 7724.31 455.83 o
0 8 0 12815.46 13228.43 211.34 o
2 8 0 15255.23 14844.92 215.69 o
4 8 0 8059.41 7944.30 156.65 o
6 8 0 8004.94 8295.82 380.09 o
1 9 0 11672.87 11875.08 172.94 o
3 9 0 7369.15 7507.44 158.31 o
5 9 0 6803.71 7282.90 202.43 o
0 10 0 7345.82 6815.47 282.77 o
2 10 0 4136.59 3970.84 148.73 o
4 10 0 4965.22 5253.90 177.02 o
1 11 0 3710.93 3254.71 281.64 o
3 11 0 3298.59 3163.69 128.65 o
5 11 0 1646.37 1358.42 148.06 o
4 12 0 1411.24 1330.15 240.17 o
1 1 1 720.79 444.15 17.18 o
1 2 1 2270.14 2617.94 39.37 o
2 2 1 4672.27 5433.48 61.57 o
1 3 1 1668.41 2141.65 33.65 o
2 3 1 870.32 888.39 24.08 o
3 3 1 1411.25 1326.15 39.66 o
1 4 1 2805.38 2785.56 38.69 o
2 4 1 444.27 382.10 17.13 o
3 4 1 1037.20 1080.43 30.75 o
4 4 1 574.95 607.44 27.51 o
1 5 1 1.05 11.03 6.55 o
2 5 1 84.21 64.91 8.16 o
3 5 1 80.35 57.24 9.50 o
4 5 1 226.54 191.27 11.59 o
5 5 1 175.59 169.65 21.97 o
1 6 1 1331.27 1260.51 28.35 o
2 6 1 1.77 12.07 5.92 o
3 6 1 654.39 609.36 26.50 o
4 6 1 25.22 18.15 5.10 o
5 6 1 31.09 27.50 10.29 o
6 6 1 170.02 100.29 21.10 o
1 7 1 21.24 17.03 6.07 o
2 7 1 4.50 14.33 7.08 o
3 7 1 1.86 15.23 7.45 o
4 7 1 7.69 9.39 10.21 o
5 7 1 14.33 12.58 5.07 o
6 7 1 0.45 11.06 12.88 o
1 8 1 378.62 341.50 18.19 o
2 8 1 8.05 12.13 2.84 o
3 8 1 96.44 78.58 11.35 o
4 8 1 4.57 17.09 9.22 o
5 8 1 12.73 14.60 7.21 o
6 8 1 0.54 6.35 8.39 o
1 9 1 1.75 15.06 4.11 o
2 9 1 16.53 19.77 8.67 o
3 9 1 6.02 1.91 2.81 o
4 9 1 11.78 20.67 7.74 o
5 9 1 10.55 30.25 12.25 o
6 9 1 68.43 66.97 81.17 o
1 10 1 31.55 17.39 5.75 o
2 10 1 1.63 14.19 7.18 o
3 10 1 13.07 20.94 9.92 o
4 10 1 13.52 22.83 18.01 o
5 10 1 10.71 28.35 19.01 o
1 11 1 0.65 39.28 109.93 o
2 11 1 4.36 15.63 7.79 o
3 11 1 2.39 6.60 6.63 o
4 11 1 35.78 32.59 13.97 o
5 11 1 22.22 34.43 20.58 o
4 12 1 5.29 151.62 54.81 o
0 2 2 14995.55 14247.44 168.35 o
1 2 2 1774.76 1829.06 39.95 o
0 3 2 846.15 911.66 39.10 o
2 3 2 2490.39 2803.69 48.44 o
1 4 2 1617.88 1767.02 31.36 o
3 4 2 748.52 864.99 25.49 o
4 4 2 18765.59 18423.62 193.49 o
0 5 2 1855.32 2054.70 56.62 o
1 5 2 23408.75 22531.17 596.54 o
2 5 2 437.34 500.97 22.43 o
3 5 2 14211.37 14538.59 124.58 o
4 5 2 896.13 926.23 24.97 o
5 5 2 20516.83 20591.27 293.63 o
0 6 2 20574.66 20320.29 265.54 o
1 6 2 701.53 735.70 24.19 o
2 6 2 17466.97 17165.01 151.47 o
3 6 2 660.63 706.77 29.82 o
4 6 2 12499.91 12938.49 141.73 o
5 6 2 336.33 342.92 23.74 o
6 6 2 5528.33 5830.56 133.50 o
0 7 2 246.28 225.94 22.92 o
1 7 2 10041.43 9966.94 100.01 o
2 7 2 715.15 742.15 27.02 o
3 7 2 12601.36 12614.77 141.45 o
4 7 2 237.60 218.45 17.15 o
5 7 2 3985.33 3973.47 85.44 o
6 7 2 200.42 140.98 18.19 o
7 7 2 6039.99 6870.56 303.62 o
0 8 2 6945.22 6705.43 126.72 o
1 8 2 331.74 323.77 18.65 o
2 8 2 10171.44 10246.14 104.84 o
3 8 2 292.98 233.88 18.89 o
4 8 2 5283.51 5449.03 95.90 o
5 8 2 161.72 74.24 23.16 o
6 8 2 3987.20 4244.74 136.48 o
0 9 2 321.92 266.49 36.39 o
1 9 2 5908.54 5807.90 94.07 o
2 9 2 143.45 85.03 12.89 o
3 9 2 3009.77 2915.79 80.52 o
4 9 2 167.97 138.00 17.87 o
5 9 2 4109.05 4630.28 119.40 o
6 9 2 104.33 256.48 332.62 o
0 10 2 4933.30 5176.71 116.28 o
1 10 2 144.28 85.99 14.63 o
2 10 2 2600.81 2505.67 95.38 o
3 10 2 94.80 50.80 12.85 o
4 10 2 3125.76 3322.91 98.86 o
5 10 2 104.60 81.06 19.99 o
6 10 2 1294.41 1156.94 125.29 o
1 11 2 1909.40 2009.65 95.61 o
2 11 2 89.69 52.51 15.18 o
3 11 2 2143.06 2202.99 92.49 o
4 11 2 63.48 37.95 22.04 o
5 11 2 1198.47 1111.94 108.05 o
2 12 2 1518.48 1614.51 166.38 o
3 12 2 51.03 43.25 20.36 o
4 12 2 717.02 584.89 65.46 o
2 2 3 576.64 511.96 55.23 o
1 3 3 28.07 3.48 2.86 o
2 3 3 631.05 595.24 30.35 o
3 3 3 551.62 434.02 34.51 o
1 4 3 2213.72 2081.57 47.16 o
2 4 3 101.32 54.01 6.45 o
3 4 3 847.01 826.28 32.62 o
4 4 3 55.69 47.82 10.39 o
1 5 3 0.00 9.84 5.44 o
2 5 3 86.39 61.64 8.89 o
3 5 3 30.39 8.55 3.72 o
4 5 3 153.54 97.15 11.11 o
5 5 3 9.22 3.70 4.94 o
1 6 3 1076.89 1015.29 31.93 o
2 6 3 208.77 177.06 12.79 o
3 6 3 525.79 459.38 26.97 o
4 6 3 68.98 43.79 6.94 o
5 6 3 31.33 21.83 4.55 o
6 6 3 0.97 4.54 9.23 o
1 7 3 5.65 6.87 2.65 o
2 7 3 0.95 15.47 5.90 o
3 7 3 34.08 29.79 9.08 o
4 7 3 1.75 13.45 10.40 o
5 7 3 36.47 11.68 5.63 o
6 7 3 2.69 10.75 5.69 o
7 7 3 0.11 320.58 93.88 o
1 8 3 307.92 240.86 17.21 o
2 8 3 5.71 13.60 9.28 o
3 8 3 79.55 35.88 10.38 o
4 8 3 20.89 40.18 11.04 o
5 8 3 8.27 20.43 7.68 o
6 8 3 22.29 24.90 10.30 o
7 8 3 28.65 12.81 10.79 o
1 9 3 3.73 7.92 3.85 o
2 9 3 9.36 62.19 45.89 o
3 9 3 20.92 2.40 6.82 o
4 9 3 17.59 20.15 13.37 o
5 9 3 10.06 9.40 13.51 o
6 9 3 43.80 15.74 20.27 o
1 10 3 25.54 11.91 4.90 o
2 10 3 1.67 5.67 5.50 o
3 10 3 9.96 64.84 23.46 o
4 10 3 4.19 0.98 18.53 o
1 11 3 14.41 13.51 9.31 o
2 11 3 5.33 39.84 28.90 o
3 11 3 0.80 42.29 21.49 o
4 11 3 23.71 45.21 38.24 o
5 11 3 0.48 18.46 4.60 o
2 12 3 0.58 3.06 17.06 o
3 12 3 1.90 24.88 16.18 o
1 4 4 3632.61 3853.92 106.51 o
2 4 4 11016.02 9739.04 217.61 o
3 4 4 1666.86 1704.07 56.88 o
4 4 4 14864.85 15197.36 192.71 o
0 5 4 5026.42 5425.87 175.31 o
1 5 4 15982.98 16043.13 308.80 o
2 5 4 1020.87 1073.90 55.51 o
3 5 4 5687.38 5589.98 103.54 o
4 5 4 2438.78 2535.25 58.80 o
5 5 4 10307.57 10502.05 180.06 o
0 6 4 10486.62 10950.53 200.74 o
1 6 4 1692.27 1703.61 60.31 o
2 6 4 9521.94 9803.29 160.14 o
3 6 4 1675.43 1668.26 73.28 o
4 6 4 7488.04 7146.34 122.80 o
5 6 4 890.94 830.22 37.34 o
6 6 4 3109.08 3121.72 127.30 o
0 7 4 610.67 570.10 39.28 o
1 7 4 4856.52 4710.38 79.25 o
2 7 4 2047.34 2006.57 54.46 o
3 7 4 8281.00 8624.29 149.94 o
4 7 4 658.97 655.65 37.74 o
5 7 4 2651.88 2629.41 79.03 o
6 7 4 585.85 562.61 33.47 o
7 7 4 3536.27 4390.97 214.92 o
0 8 4 5141.06 5311.06 129.80 o
1 8 4 892.37 867.10 36.24 o
2 8 4 6052.86 5899.82 95.59 o
3 8 4 804.81 679.50 40.12 o
4 8 4 2228.40 2080.39 86.97 o
5 8 4 449.98 407.19 47.26 o
6 8 4 2429.84 2832.86 146.83 o
7 8 4 397.23 256.50 55.86 o
0 9 4 934.78 886.15 55.19 o
1 9 4 3097.74 3107.12 71.85 o
2 9 4 401.24 319.55 28.46 o
3 9 4 2170.33 1910.37 104.76 o
4 9 4 506.84 394.87 47.41 o
5 9 4 2942.67 3372.73 121.39 o
6 9 4 331.80 308.77 44.42 o
0 10 4 3228.85 3271.69 115.85 o
1 10 4 439.96 377.72 26.87 o
2 10 4 1507.82 1468.46 80.13 o
3 10 4 284.69 169.39 31.91 o
4 10 4 1890.00 2092.91 113.46 o
5 10 4 320.75 281.36 116.20 o
0 11 4 221.73 128.36 40.74 o
1 11 4 1344.20 1283.82 127.66 o
2 11 4 266.41 159.58 32.09 o
3 11 4 1313.18 1303.81 163.86 o
4 11 4 200.07 104.20 32.96 o
5 11 4 682.66 858.09 112.48 o
3 12 4 169.25 109.55 48.12 o
4 4 5 4.70 9.40 11.00 o
1 5 5 325.41 377.61 72.22 o
2 5 5 50.76 28.21 13.77 o
3 5 5 163.08 90.32 23.36 o
4 5 5 98.41 110.81 21.01 o
5 5 5 3.02 9.51 45.41 o
1 6 5 715.86 648.39 56.36 o
2 6 5 56.71 38.91 13.89 o
3 6 5 320.49 300.36 33.89 o
4 6 5 441.91 347.15 36.47 o
5 6 5 22.84 19.89 9.23 o
6 6 5 120.48 120.44 23.60 o
1 7 5 60.20 20.49 11.13 o
2 7 5 0.99 12.69 5.92 o
3 7 5 2.60 21.41 12.83 o
4 7 5 2.40 0.49 3.34 o
5 7 5 0.59 7.52 4.65 o
6 7 5 2.12 16.23 13.35 o
7 7 5 48.05 41.37 17.76 o
1 8 5 194.43 139.99 16.75 o
2 8 5 47.46 3.42 15.70 o
3 8 5 59.95 25.12 14.44 o
4 8 5 49.90 14.61 9.91 o
5 8 5 2.86 27.23 43.32 o
6 8 5 40.07 40.95 21.52 o
1 9 5 64.07 29.70 12.33 o
2 9 5 8.08 14.66 7.06 o
3 9 5 0.83 75.84 47.50 o
4 9 5 10.19 20.08 8.99 o
5 9 5 33.59 37.29 20.87 o
6 9 5 32.19 12.12 10.59 o
1 10 5 17.68 31.37 10.19 o
2 10 5 52.58 25.69 12.46 o
3 10 5 4.39 29.68 19.55 o
4 10 5 1.23 5.17 13.18 o
2 11 5 3.14 2.58 83.43 o
4 11 5 17.52 16.44 16.92 o
4 6 6 10706.88 11039.41 511.19 o
5 6 6 3500.17 3566.67 210.53 o
6 6 6 6054.98 6631.45 528.71 o
0 7 6 3159.75 3120.51 240.34 o
1 7 6 12824.14 12470.06 343.21 o
2 7 6 6641.42 6931.02 207.33 o
3 7 6 11319.86 11668.06 275.27 o
4 7 6 2707.10 2971.35 142.04 o
5 7 6 3318.94 3123.16 130.36 o
6 7 6 2025.92 1883.48 116.75 o
7 7 6 3462.36 3291.28 171.19 o
0 8 6 4126.84 3792.86 296.06 o
1 8 6 3355.90 3113.71 190.74 o
2 8 6 6563.89 6473.65 221.80 o
3 8 6 2883.33 2949.42 152.29 o
4 8 6 4779.06 4980.63 198.01 o
5 8 6 1638.33 1590.78 133.04 o
6 8 6 3912.72 4129.52 241.39 o
0 9 6 2946.72 2728.48 279.14 o
1 9 6 6234.53 5901.76 224.73 o
2 9 6 1568.84 1574.02 137.54 o
3 9 6 3029.62 3052.88 280.67 o
4 9 6 1632.14 1596.65 145.75 o
5 9 6 2689.22 3050.72 247.66 o
6 9 6 1007.19 981.57 123.06 o
1 10 6 1418.89 1668.90 233.17 o
2 10 6 1957.49 2086.56 252.04 o
3 10 6 966.88 900.79 166.10 o
4 10 6 2426.43 2778.83 281.30 o
5 10 6 935.59 1072.18 153.85 o
4 11 6 592.23 598.81 125.64 o
2 10 7 11.77 86.22 58.64 o
3 10 7 3.77 21.94 32.25 o
