#------------------------------------------------------------------------------
#$Date: 2019-11-24 10:29:40 +0200 (Sun, 24 Nov 2019) $
#$Revision: 237638 $
#$URL: file:///home/coder/svn-repositories/cod/cif/7/23/73/7237388.cif $
#------------------------------------------------------------------------------
#
# This file is available in the Crystallography Open Database (COD),
# http://www.crystallography.net/
#
# All data on this site have been placed in the public domain by the
# contributors.
#
data_7237388
loop_
_publ_author_name
'Paliwoda, Damian'
'Szafra\'nski, Marek'
'Hanfland, Michael'
'Katrusiak, Andrzej'
_publ_section_title
;
 A giant 2-dimensional dielectric response in a compressed hydrogen-bonded
 hybrid organic--inorganic salt
;
_journal_issue                   28
_journal_name_full               'Journal of Materials Chemistry C'
_journal_page_first              7689
_journal_paper_doi               10.1039/C8TC02464B
_journal_volume                  6
_journal_year                    2018
_chemical_formula_moiety         'C4 H5 N2 Au Cl4'
_chemical_formula_sum            'C4 H5 Au Cl4 N2'
_chemical_formula_weight         419.87
_chemical_name_common            'pyrazinium tetrachloroaurate'
_chemical_name_systematic
; 
pyrazinium tetrachloroaurate 
;
_space_group_IT_number           138
_space_group_name_Hall           '-P 4ac 2ac'
_space_group_name_H-M_alt        'P 42/n c m :2'
_symmetry_cell_setting           tetragonal
_symmetry_space_group_name_Hall  '-P 4ac 2ac'
_symmetry_space_group_name_H-M   'P 42/n c m :2'
_atom_sites_solution_hydrogens   geom
_atom_sites_solution_primary     direct
_atom_sites_solution_secondary   difmap
_audit_creation_method           SHELXL-97
_audit_update_record
;
2017-04-07 deposited with the CCDC.
2018-06-28 downloaded from the CCDC.
;
_cell_angle_alpha                90.00
_cell_angle_beta                 90.00
_cell_angle_gamma                90.00
_cell_formula_units_Z            4
_cell_length_a                   7.1293(6)
_cell_length_b                   7.1293(6)
_cell_length_c                   14.38(3)
_cell_measurement_reflns_used    1135
_cell_measurement_temperature    296(2)
_cell_measurement_theta_max      36.02
_cell_measurement_theta_min      4.28
_cell_volume                     730.9(15)
_computing_cell_refinement       'CrysAlisRED (Oxford Diffraction, 2004)'
_computing_data_collection       'CrysAlisCCD (Oxford Diffraction, 2004)'
_computing_data_reduction        'CrysAlisRED (Oxford Diffraction, 2004)'
_computing_molecular_graphics    'SHELXTL (Sheldrick, 1990)'
_computing_publication_material  'SHELXL--97 (Sheldrick, 1997)'
_computing_structure_refinement  'SHELXL--97 (Sheldrick, 1997)'
_computing_structure_solution    'SHELXS--97 (Sheldrick, 1997)'
_diffrn_ambient_environment      'diamond-anvil cell'
_diffrn_ambient_pressure         11980000
_diffrn_ambient_temperature      296(2)
_diffrn_measured_fraction_theta_full 0.263
_diffrn_measured_fraction_theta_max 0.263
_diffrn_measurement_device_type  Serial
_diffrn_measurement_method       \w/2\q
_diffrn_radiation_monochromator  Si(111)
_diffrn_radiation_source         synchrotron
_diffrn_radiation_type           synchrotron
_diffrn_radiation_wavelength     0.41438
_diffrn_reflns_av_R_equivalents  0.0596
_diffrn_reflns_av_sigmaI/netI    0.0481
_diffrn_reflns_limit_h_max       11
_diffrn_reflns_limit_h_min       -11
_diffrn_reflns_limit_k_max       11
_diffrn_reflns_limit_k_min       -11
_diffrn_reflns_limit_l_max       6
_diffrn_reflns_limit_l_min       -6
_diffrn_reflns_number            1135
_diffrn_reflns_theta_full        36.02
_diffrn_reflns_theta_max         36.02
_diffrn_reflns_theta_min         4.28
_diffrn_standards_decay_%        0
_diffrn_standards_interval_count 0
_diffrn_standards_number         0
_exptl_absorpt_coefficient_mu    21.510
_exptl_crystal_colour            orange
_exptl_crystal_density_diffrn    3.816
_exptl_crystal_density_method    'not measured'
_exptl_crystal_description       plate
_exptl_crystal_F_000             760
_exptl_crystal_size_max          0.05
_exptl_crystal_size_mid          0.04
_exptl_crystal_size_min          0.02
_refine_diff_density_max         0.813
_refine_diff_density_min         -0.726
_refine_diff_density_rms         0.144
_refine_ls_extinction_method     none
_refine_ls_goodness_of_fit_ref   1.177
_refine_ls_hydrogen_treatment    constr
_refine_ls_matrix_type           full
_refine_ls_number_parameters     33
_refine_ls_number_reflns         251
_refine_ls_number_restraints     52
_refine_ls_restrained_S_all      1.076
_refine_ls_R_factor_all          0.1273
_refine_ls_R_factor_gt           0.0865
_refine_ls_shift/su_max          0.000
_refine_ls_shift/su_mean         0.000
_refine_ls_structure_factor_coef Fsqd
_refine_ls_weighting_details
'calc w=1/[\s^2^(Fo^2^)+(0.0752P)^2^+10.6428P] where P=(Fo^2^+2Fc^2^)/3'
_refine_ls_weighting_scheme      calc
_refine_ls_wR_factor_gt          0.1933
_refine_ls_wR_factor_ref         0.2170
_reflns_number_gt                166
_reflns_number_total             251
_reflns_threshold_expression     >2sigma(I)
_cod_data_source_file            c8tc02464b2.cif
_cod_data_source_block           pyrazinium_tetrachloroaurate_119_80kbar
_cod_original_cell_volume        730.8(14)
_cod_original_sg_symbol_H-M      'P 42/n c m'
_cod_database_code               7237388
loop_
_symmetry_equiv_pos_as_xyz
'x, y, z'
'-x+1/2, -y+1/2, z'
'-y+1/2, x, z+1/2'
'y, -x+1/2, z+1/2'
'-x, y+1/2, -z+1/2'
'x+1/2, -y, -z+1/2'
'y+1/2, x+1/2, -z'
'-y, -x, -z'
'-x, -y, -z'
'x-1/2, y-1/2, -z'
'y-1/2, -x, -z-1/2'
'-y, x-1/2, -z-1/2'
'x, -y-1/2, z-1/2'
'-x-1/2, y, z-1/2'
'-y-1/2, -x-1/2, z'
'y, x, z'
loop_
_atom_site_label
_atom_site_type_symbol
_atom_site_fract_x
_atom_site_fract_y
_atom_site_fract_z
_atom_site_U_iso_or_equiv
_atom_site_adp_type
_atom_site_occupancy
_atom_site_symmetry_multiplicity
_atom_site_calc_flag
_atom_site_refinement_flags
Au1 Au 0.2500 0.2500 0.2285(5) 0.065(2) Uani 1 4 d SU
Cl3 Cl 0.2500 0.2500 0.380(3) 0.071(3) Uani 1 4 d SU
Cl4 Cl 0.2500 0.2500 0.077(4) 0.082(4) Uani 1 4 d SU
N1 N 0.8802(5) 0.1198(5) 0.0000 0.086(6) Uani 1 2 d SDU
H1A H 0.9655 0.0345 0.0000 0.103 Uiso 0.50 2 calc SPR
C1 C 0.818(2) 0.179(2) 0.0819(7) 0.085(6) Uani 1 1 d DU
H1 H 0.8622 0.1285 0.1372 0.102 Uiso 1 1 calc R
Cl1 Cl 0.4728(9) 0.0272(9) 0.2190(12) 0.081(4) Uani 1 2 d SU
loop_
_atom_site_aniso_label
_atom_site_aniso_U_11
_atom_site_aniso_U_22
_atom_site_aniso_U_33
_atom_site_aniso_U_23
_atom_site_aniso_U_13
_atom_site_aniso_U_12
Au1 0.0630(9) 0.0630(9) 0.070(7) 0.000 0.000 0.0007(6)
Cl3 0.070(3) 0.070(3) 0.073(7) 0.000 0.000 0.003(4)
Cl4 0.085(4) 0.085(4) 0.076(7) 0.000 0.000 -0.005(4)
N1 0.086(6) 0.086(6) 0.085(10) 0.000(5) 0.000(5) 0.017(6)
C1 0.083(7) 0.086(7) 0.085(10) 0.000(7) 0.001(7) 0.010(7)
Cl1 0.082(3) 0.082(3) 0.080(10) -0.005(3) 0.005(3) 0.007(3)
loop_
_atom_type_symbol
_atom_type_description
_atom_type_scat_dispersion_real
_atom_type_scat_dispersion_imag
_atom_type_scat_source
C C 0.0033 0.0016 'International Tables Vol C Tables 4.2.6.8 and 6.1.1.4'
H H 0.0000 0.0000 'International Tables Vol C Tables 4.2.6.8 and 6.1.1.4'
N N 0.0061 0.0033 'International Tables Vol C Tables 4.2.6.8 and 6.1.1.4'
Cl Cl 0.1484 0.1585 'International Tables Vol C Tables 4.2.6.8 and 6.1.1.4'
Au Au -2.0133 8.8022 'International Tables Vol C Tables 4.2.6.8 and 6.1.1.4'
loop_
_geom_angle_atom_site_label_1
_geom_angle_atom_site_label_2
_geom_angle_atom_site_label_3
_geom_angle
_geom_angle_site_symmetry_1
_geom_angle_site_symmetry_3
Cl4 Au1 Cl3 180.000(4) . .
Cl4 Au1 Cl1 86.5(5) . 2
Cl3 Au1 Cl1 93.5(5) . 2
Cl4 Au1 Cl1 86.5(5) . .
Cl3 Au1 Cl1 93.5(5) . .
Cl1 Au1 Cl1 173.0(10) 2 .
C1 N1 C1 124.8(7) 8_665 .
C1 C1 N1 117.6(4) 2_655 .
loop_
_geom_bond_atom_site_label_1
_geom_bond_atom_site_label_2
_geom_bond_distance
_geom_bond_site_symmetry_2
Au1 Cl4 2.18(5) .
Au1 Cl3 2.18(4) .
Au1 Cl1 2.251(8) 2
Au1 Cl1 2.251(8) .
N1 C1 1.329(9) 8_665
N1 C1 1.329(9) .
C1 C1 1.394(9) 2_655
loop_
_refln_index_h
_refln_index_k
_refln_index_l
_refln_F_squared_calc
_refln_F_squared_meas
_refln_F_squared_sigma
_refln_observed_status
2 4 0 22509.63 22255.25 306.32 o
4 4 0 19545.60 19275.92 707.47 o
1 5 0 26112.85 23555.16 286.95 o
3 5 0 10777.25 10454.80 224.34 o
5 5 0 5189.34 5673.28 344.78 o
0 6 0 7647.37 6997.90 161.35 o
2 6 0 9339.99 9447.23 198.62 o
4 6 0 3520.69 3852.09 157.11 o
6 6 0 1329.94 1483.07 187.37 o
1 7 0 4692.63 4956.11 141.56 o
3 7 0 3469.83 3941.60 130.22 o
5 7 0 846.42 791.91 93.58 o
0 8 0 1963.01 2191.85 103.07 o
2 8 0 1323.42 1308.67 76.18 o
4 8 0 732.95 822.72 91.72 o
1 9 0 742.39 1048.49 104.64 o
3 9 0 381.87 387.50 56.08 o
5 9 0 187.00 110.89 40.73 o
2 10 0 174.60 181.32 30.85 o
4 10 0 105.36 67.16 30.48 o
3 11 0 44.97 92.06 32.91 o
1 1 1 402.22 118.66 11.66 o
1 2 1 861.71 1222.09 29.87 o
2 2 1 3094.34 3345.64 94.80 o
1 3 1 1263.55 1456.50 38.59 o
2 3 1 313.25 335.95 20.76 o
3 3 1 287.48 215.83 21.74 o
1 4 1 780.09 697.46 27.40 o
2 4 1 110.45 74.47 10.26 o
3 4 1 303.44 253.59 20.48 o
4 4 1 116.00 72.53 10.89 o
1 5 1 20.71 8.84 3.39 o
2 5 1 35.98 29.86 19.87 o
3 5 1 20.22 20.29 8.91 o
4 5 1 79.42 70.26 9.22 o
5 5 1 10.40 77.70 45.11 o
1 6 1 259.70 157.69 14.56 o
2 6 1 0.08 18.34 14.86 o
3 6 1 131.11 111.17 15.79 o
4 6 1 3.71 11.75 7.56 o
5 6 1 19.40 26.28 13.33 o
6 6 1 7.24 29.25 27.68 o
1 7 1 0.23 9.23 5.06 o
2 7 1 6.54 27.76 14.45 o
3 7 1 0.50 37.30 16.04 o
4 7 1 3.03 21.16 25.19 o
5 7 1 0.10 25.90 14.29 o
1 8 1 45.31 34.35 10.86 o
2 8 1 0.04 33.54 14.83 o
3 8 1 17.11 15.04 7.20 o
4 8 1 0.37 15.13 17.26 o
5 8 1 5.71 27.16 17.12 o
1 9 1 0.02 18.06 6.02 o
2 9 1 0.02 20.08 10.12 o
3 9 1 0.21 4.50 11.39 o
4 9 1 0.51 1.99 26.63 o
5 9 1 0.61 30.52 30.36 o
1 10 1 3.04 31.44 59.72 o
3 10 1 1.96 33.25 9.35 o
4 10 1 0.28 28.11 17.67 o
5 10 1 0.10 3.90 18.99 o
2 11 1 0.01 10.37 15.10 o
3 11 1 0.06 29.64 28.92 o
4 11 1 0.01 743.28 160.75 o
0 2 2 12971.87 14493.34 384.83 o
1 2 2 2410.25 2569.01 78.74 o
0 3 2 991.46 1102.36 52.12 o
1 3 2 23835.89 26402.29 361.74 o
2 3 2 2375.63 2279.16 59.68 o
3 3 2 20013.62 18652.55 271.97 o
1 4 2 1371.98 1292.77 38.98 o
2 4 2 8778.73 8644.42 117.44 o
3 4 2 430.90 426.34 25.34 o
4 4 2 7600.11 7057.40 209.33 o
0 5 2 1174.18 1121.93 57.76 o
1 5 2 8800.11 7810.27 114.68 o
2 5 2 213.18 191.54 15.15 o
3 5 2 5121.15 5444.20 105.07 o
4 5 2 348.75 274.43 22.82 o
5 5 2 2828.21 2968.95 144.68 o
0 6 2 4179.24 4254.75 124.74 o
1 6 2 260.62 235.70 18.94 o
2 6 2 5224.98 5007.49 129.01 o
3 6 2 220.93 189.93 20.64 o
4 6 2 1714.66 1812.73 73.03 o
5 6 2 43.35 32.08 10.85 o
6 6 2 641.44 617.30 57.35 o
0 7 2 53.93 77.39 17.87 o
1 7 2 2010.92 1990.88 61.74 o
2 7 2 187.04 176.86 17.24 o
3 7 2 1504.10 1693.82 65.27 o
4 7 2 25.28 23.12 14.98 o
5 7 2 418.74 346.37 33.70 o
6 7 2 19.91 32.40 36.54 o
0 8 2 1063.30 1370.77 76.84 o
1 8 2 49.10 66.29 9.93 o
2 8 2 778.54 817.81 68.65 o
3 8 2 26.43 43.14 15.01 o
4 8 2 434.32 447.18 40.67 o
5 8 2 13.95 30.33 12.39 o
6 8 2 123.45 154.45 58.31 o
0 9 2 34.39 69.15 16.56 o
1 9 2 365.53 367.88 39.19 o
2 9 2 7.79 35.17 18.79 o
3 9 2 183.02 110.50 24.96 o
4 9 2 10.88 53.40 13.82 o
5 9 2 122.11 186.76 42.73 o
1 10 2 5.56 51.08 22.85 o
2 10 2 103.56 163.44 35.85 o
3 10 2 3.78 20.63 17.52 o
4 10 2 55.48 40.50 22.96 o
5 10 2 1.61 10.45 20.74 o
2 11 2 2.25 46.28 35.67 o
3 11 2 30.25 31.98 18.62 o
4 11 2 0.59 98.68 38.73 o
2 2 3 265.96 191.52 55.08 o
1 3 3 401.88 184.92 28.10 o
2 3 3 174.77 193.36 22.45 o
3 3 3 385.78 295.27 33.84 o
1 4 3 487.98 446.70 31.95 o
2 4 3 5.85 13.56 5.33 o
3 4 3 162.60 123.92 16.83 o
4 4 3 29.21 21.93 10.85 o
1 5 3 29.05 14.94 4.88 o
2 5 3 27.44 19.42 7.68 o
3 5 3 75.17 61.61 12.25 o
4 5 3 49.32 13.81 6.62 o
5 5 3 11.92 38.70 14.24 o
1 6 3 147.29 81.74 12.07 o
2 6 3 37.71 13.56 5.32 o
3 6 3 93.74 78.33 16.48 o
4 6 3 13.78 15.72 21.23 o
5 6 3 10.88 12.86 10.58 o
6 6 3 0.75 5.86 6.08 o
1 7 3 8.42 42.17 20.87 o
2 7 3 3.34 11.74 8.35 o
3 7 3 0.46 38.40 24.83 o
4 7 3 2.60 35.00 20.52 o
5 7 3 0.35 46.37 22.61 o
6 7 3 2.58 29.94 18.36 o
1 8 3 29.50 31.88 9.57 o
2 8 3 2.24 39.27 15.37 o
3 8 3 9.56 8.41 11.62 o
4 8 3 1.03 54.58 37.99 o
5 8 3 4.11 62.88 22.89 o
6 8 3 0.56 33.01 36.91 o
1 9 3 0.12 37.93 17.45 o
2 9 3 0.03 9.12 10.01 o
3 9 3 0.32 2.15 13.89 o
4 9 3 0.33 47.22 22.46 o
5 9 3 0.21 14.43 18.41 o
1 10 3 1.97 36.20 48.86 o
2 10 3 0.00 15.01 5.23 o
3 10 3 1.23 81.99 45.21 o
4 10 3 0.11 10.78 15.43 o
2 11 3 0.01 41.60 25.62 o
3 11 3 0.03 8.13 14.76 o
4 11 3 0.01 20.49 12.44 o
3 3 4 7021.73 7851.88 271.78 o
0 4 4 10921.45 12477.94 531.69 o
1 4 4 3281.99 3759.26 154.60 o
2 4 4 4103.96 3865.19 137.95 o
3 4 4 1170.25 1300.53 71.41 o
4 4 4 4790.76 5414.47 187.14 o
0 5 4 3321.03 3736.93 202.54 o
1 5 4 4498.62 4746.48 198.09 o
2 5 4 675.61 717.75 65.21 o
3 5 4 1999.18 2126.48 108.81 o
4 5 4 1100.76 1083.62 59.07 o
5 5 4 1295.27 1383.56 150.00 o
0 6 4 2114.77 2135.03 125.32 o
1 6 4 804.35 814.87 57.45 o
2 6 4 2628.64 2941.32 134.03 o
3 6 4 702.23 757.40 66.77 o
4 6 4 747.32 703.05 59.88 o
5 6 4 166.03 91.14 23.57 o
6 6 4 287.93 186.46 30.37 o
0 7 4 197.86 136.76 33.18 o
1 7 4 795.53 771.78 48.47 o
2 7 4 618.95 581.16 48.63 o
3 7 4 813.03 779.88 90.66 o
4 7 4 110.67 86.17 17.98 o
5 7 4 250.54 136.49 21.10 o
6 7 4 81.91 82.60 17.62 o
0 8 4 647.63 740.53 80.34 o
1 8 4 197.71 160.70 20.12 o
2 8 4 365.39 297.03 35.67 o
3 8 4 107.63 55.43 17.91 o
4 8 4 177.91 195.02 45.25 o
5 8 4 56.78 91.86 35.70 o
0 9 4 122.96 155.68 38.92 o
1 9 4 170.76 145.12 22.54 o
2 9 4 35.83 49.03 18.86 o
3 9 4 103.43 89.55 31.80 o
4 9 4 46.24 49.54 42.26 o
5 9 4 60.20 102.27 53.42 o
0 10 4 67.30 165.46 44.86 o
1 10 4 27.28 29.03 29.28 o
2 10 4 51.53 52.79 34.70 o
3 10 4 17.77 17.39 18.88 o
4 10 4 29.66 71.97 25.01 o
2 11 4 9.82 18.66 34.84 o
3 11 4 14.43 57.40 54.25 o
4 4 5 8.97 42.63 36.91 o
1 5 5 353.22 433.81 110.98 o
2 5 5 9.44 21.38 31.85 o
3 5 5 0.20 14.61 19.30 o
4 5 5 13.98 81.95 48.61 o
5 5 5 5.71 13.33 12.26 o
1 6 5 52.62 360.81 73.53 o
2 6 5 9.25 38.16 41.56 o
3 6 5 22.83 39.97 18.79 o
4 6 5 35.92 47.40 23.60 o
5 6 5 6.16 30.89 12.03 o
6 6 5 8.61 56.82 60.14 o
1 7 5 2.16 11.80 12.84 o
2 7 5 1.42 11.95 15.48 o
3 7 5 1.71 44.36 24.18 o
4 7 5 1.41 4.33 17.42 o
5 7 5 2.45 55.46 271.23 o
1 8 5 8.77 27.72 11.77 o
2 8 5 1.25 21.01 20.50 o
3 8 5 4.71 30.61 18.33 o
4 8 5 3.90 120.94 84.85 o
1 9 5 0.82 39.58 22.58 o
2 9 5 0.04 56.04 40.88 o
3 9 5 0.97 69.34 70.75 o
5 9 5 0.49 14.10 18.75 o
1 10 5 0.75 70.09 59.72 o
2 10 5 0.85 25.22 47.36 o
3 10 5 0.40 26.29 18.99 o
5 6 6 544.32 643.08 192.85 o
6 6 6 366.87 281.93 66.27 o
0 7 6 848.52 568.93 163.07 o
1 7 6 1396.19 1635.94 188.91 o
2 7 6 1551.16 1978.87 211.83 o
3 7 6 708.90 849.04 135.30 o
4 7 6 380.30 240.63 69.55 o
5 7 6 196.44 90.41 46.37 o
6 7 6 201.49 163.57 64.86 o
0 8 6 375.44 261.36 130.23 o
1 8 6 547.70 444.82 117.11 o
2 8 6 309.97 204.46 93.81 o
3 8 6 308.55 296.53 108.49 o
4 8 6 220.86 148.81 76.73 o
5 8 6 146.11 132.55 69.26 o
1 9 6 190.89 152.04 91.32 o
2 9 6 116.37 122.26 83.69 o
3 9 6 92.65 81.12 60.14 o
5 9 6 41.27 6.97 23.31 o
4 10 6 23.90 9.21 20.82 o
