#------------------------------------------------------------------------------
#$Date: 2019-11-24 16:05:55 +0200 (Sun, 24 Nov 2019) $
#$Revision: 238474 $
#$URL: file:///home/coder/svn-repositories/cod/cif/7/23/76/7237654.cif $
#------------------------------------------------------------------------------
#
# This file is available in the Crystallography Open Database (COD),
# http://www.crystallography.net/
#
# All data on this site have been placed in the public domain by the
# contributors.
#
data_7237654
loop_
_publ_author_name
'Liu, Yingle'
'Zhao, Gang'
'Tang, Yongxing'
'Zhang, Jichuan'
'Hu, Lu'
'Imler, Gregory H.'
'Parrish, Damon A.'
'Shreeve, Jean'ne M.'
_publ_section_title
;
 Multipurpose [1,2,4]triazolo[4,3-b][1,2,4,5] tetrazine-based energetic
 materials
;
_journal_issue                   13
_journal_name_full               'Journal of Materials Chemistry A'
_journal_page_first              7875
_journal_paper_doi               10.1039/C9TA01717H
_journal_volume                  7
_journal_year                    2019
_chemical_formula_moiety         'C3 N11 O2, H4 N O'
_chemical_formula_sum            'C3 H4 N12 O3'
_chemical_formula_weight         256.18
_space_group_crystal_system      monoclinic
_space_group_IT_number           4
_space_group_name_Hall           'P 2yb'
_space_group_name_H-M_alt        'P 1 21 1'
_atom_sites_solution_hydrogens   mixed
_audit_creation_method           SHELXL-2014/7
_audit_update_record
;
2018-12-12 deposited with the CCDC.	2019-03-08 downloaded from the CCDC.
;
_cell_angle_alpha                90
_cell_angle_beta                 98.872(5)
_cell_angle_gamma                90
_cell_formula_units_Z            2
_cell_length_a                   7.7496(12)
_cell_length_b                   4.9302(8)
_cell_length_c                   12.611(2)
_cell_measurement_reflns_used    1461
_cell_measurement_temperature    296(2)
_cell_measurement_theta_max      23.01
_cell_measurement_theta_min      3.27
_cell_volume                     476.06(13)
_computing_cell_refinement       'Bruker APEX3 v2015.5-2 (Bruker, 2015)'
_computing_data_collection       'Bruker APEX3 v2015.5-2 (Bruker, 2015)'
_computing_data_reduction
;
Bruker SAINT v8.34A (Bruker, 2013), Bruker XPREP v2014/2 (Bruker, 2014)
;
_computing_molecular_graphics    'Bruker SHELXTL v2014/7 (Bruker, 2014)'
_computing_publication_material  'Bruker SHELXTL v2014/7 (Bruker, 2014)'
_computing_structure_refinement  'SHELXL-2014/7 (Sheldrick, 2014)'
_computing_structure_solution    'Bruker SHELXTL v2014/7 (Bruker, 2014)'
_diffrn_ambient_temperature      296(2)
_diffrn_measured_fraction_theta_full 0.984
_diffrn_measured_fraction_theta_max 0.962
_diffrn_measurement_device_type  'Bruker SMART APEX II CCD'
_diffrn_measurement_method       '\w scans'
_diffrn_radiation_monochromator  graphite
_diffrn_radiation_source         'fine focus sealed tube'
_diffrn_radiation_type           MoK\a
_diffrn_radiation_wavelength     0.71073
_diffrn_reflns_av_R_equivalents  0.0275
_diffrn_reflns_av_unetI/netI     0.0439
_diffrn_reflns_Laue_measured_fraction_full 0.984
_diffrn_reflns_Laue_measured_fraction_max 0.962
_diffrn_reflns_limit_h_max       10
_diffrn_reflns_limit_h_min       -8
_diffrn_reflns_limit_k_max       6
_diffrn_reflns_limit_k_min       -6
_diffrn_reflns_limit_l_max       17
_diffrn_reflns_limit_l_min       -17
_diffrn_reflns_number            5552
_diffrn_reflns_point_group_measured_fraction_full 0.991
_diffrn_reflns_point_group_measured_fraction_max 0.946
_diffrn_reflns_theta_full        25.242
_diffrn_reflns_theta_max         29.983
_diffrn_reflns_theta_min         2.900
_exptl_absorpt_coefficient_mu    0.155
_exptl_absorpt_correction_T_max  0.7460
_exptl_absorpt_correction_T_min  0.6819
_exptl_absorpt_correction_type   multi-scan
_exptl_absorpt_process_details   'SADABS v2014/5 (Bruker, 2008)'
_exptl_crystal_colour            'clear orange'
_exptl_crystal_density_diffrn    1.787
_exptl_crystal_description       needle
_exptl_crystal_F_000             260
_exptl_crystal_size_max          0.592
_exptl_crystal_size_mid          0.076
_exptl_crystal_size_min          0.030
_refine_diff_density_max         0.272
_refine_diff_density_min         -0.175
_refine_diff_density_rms         0.041
_refine_ls_abs_structure_details
;
 Flack x determined using 663 quotients [(I+)-(I-)]/[(I+)+(I-)]
 (Parsons, Flack and Wagner, Acta Cryst. B69 (2013) 249-259).
;
_refine_ls_abs_structure_Flack   0.4(9)
_refine_ls_extinction_method     none
_refine_ls_goodness_of_fit_ref   1.005
_refine_ls_hydrogen_treatment    mixed
_refine_ls_matrix_type           full
_refine_ls_number_parameters     167
_refine_ls_number_reflns         2604
_refine_ls_number_restraints     2
_refine_ls_restrained_S_all      1.005
_refine_ls_R_factor_all          0.0682
_refine_ls_R_factor_gt           0.0401
_refine_ls_shift/su_max          0.000
_refine_ls_shift/su_mean         0.000
_refine_ls_structure_factor_coef Fsqd
_refine_ls_weighting_details
'w=1/[\s^2^(Fo^2^)+(0.0447P)^2^] where P=(Fo^2^+2Fc^2^)/3'
_refine_ls_weighting_scheme      calc
_refine_ls_wR_factor_gt          0.0788
_refine_ls_wR_factor_ref         0.0898
_reflns_Friedel_coverage         0.774
_reflns_Friedel_fraction_full    1.000
_reflns_Friedel_fraction_max     0.925
_reflns_number_gt                1866
_reflns_number_total             2604
_reflns_threshold_expression     'I > 2\s(I)'
_cod_data_source_file            c9ta01717h2.cif
_cod_data_source_block           shrv747
_cod_original_cell_volume        476.05(13)
_cod_original_sg_symbol_H-M      'P 21'
_cod_database_code               7237654
_shelx_shelxl_version_number     2014/7
_shelx_space_group_comment
;
The symmetry employed for this shelxl refinement is uniquely defined
by the following loop, which should always be used as a source of
symmetry information in preference to the above space-group names.
They are only intended as comments.
;
_shelx_estimated_absorpt_t_min   0.914
_shelx_estimated_absorpt_t_max   0.995
_shelx_res_file
;

    shrv747.res created by SHELXL-2014/7


TITL shrv747 in P2(1)
CELL 0.71073   7.74960   4.93020  12.61060  90.0000  98.8720  90.0000
ZERR    2.00   0.00120   0.00080   0.00200   0.0000   0.0050   0.0000
LATT -1
SYMM -X, 1/2+Y, -Z
SFAC C  H  N  O
UNIT 6  8  24  6
L.S. 10
ACTA
CONF
SIZE 0.592 0.076 0.030
BOND $H
FMAP 2
PLAN 20
TEMP 23.000
DFIX 0.82 0.01 O17 H17
HTAB
HTAB N18 O1
EQIV $1 -x+1, y-1/2, -z+1
HTAB N18 O1_$1
EQIV $2 -x+1, y+1/2, -z+1
HTAB N18 O2_$2
HTAB N18 O2_$1
EQIV $3 x-1, y, z
HTAB N18 N6_$3
EQIV $4 x-1, y+1, z
HTAB N18 N7_$4
HTAB O17 N4
HTAB O17 N15
WGHT    0.044700
FVAR       0.38308
O1    4    0.546167    1.063866    0.442872    11.00000    0.05385    0.02966 =
         0.04379   -0.00583    0.01621    0.00274
O2    4    0.791819    0.844304    0.481885    11.00000    0.03941    0.05168 =
         0.04663   -0.01133   -0.00942   -0.00338
N3    3    0.646804    0.874237    0.425157    11.00000    0.03365    0.02823 =
         0.03205   -0.00009    0.00879   -0.00489
N4    3    0.587990    0.714986    0.342872    11.00000    0.02662    0.02789 =
         0.03219   -0.00352    0.00435    0.00202
C5    1    0.698636    0.517454    0.318085    11.00000    0.02525    0.02759 =
         0.03016    0.00258    0.00557    0.00022
N6    3    0.866245    0.451964    0.351342    11.00000    0.02869    0.03642 =
         0.05014   -0.00186    0.00356    0.00473
N7    3    0.909383    0.233375    0.292821    11.00000    0.03044    0.04189 =
         0.05678   -0.00125    0.00704    0.01006
C8    1    0.767508    0.170973    0.224841    11.00000    0.03675    0.02930 =
         0.04006    0.00329    0.01509    0.01068
N9    3    0.746135   -0.031846    0.150355    11.00000    0.05624    0.03691 =
         0.04326   -0.00164    0.01772    0.00765
N10   3    0.591172   -0.062580    0.097414    11.00000    0.06173    0.03859 =
         0.03738   -0.00563    0.01152    0.00308
C11   1    0.458690    0.108287    0.119692    11.00000    0.04660    0.03347 =
         0.02702    0.00382    0.00516   -0.00407
N12   3    0.299482    0.031453    0.060288    11.00000    0.05197    0.04856 =
         0.03830    0.00025   -0.00110   -0.01168
N13   3    0.179210    0.194292    0.071709    11.00000    0.04754    0.06403 =
         0.03391    0.00449   -0.00221   -0.01959
N14   3    0.062088    0.325157    0.074366    11.00000    0.05045    0.09430 =
         0.06466    0.00270   -0.00160   -0.00042
N15   3    0.468862    0.314954    0.185024    11.00000    0.03240    0.03326 =
         0.02820    0.00103    0.00205    0.00019
N16   3    0.634691    0.340889    0.238157    11.00000    0.02614    0.02769 =
         0.02795    0.00003    0.00566    0.00270
O17   4    0.220188    0.749642    0.284339    11.00000    0.04350    0.09542 =
         0.05104   -0.01321    0.01126    0.00996
H17   2    0.324915    0.705982    0.296990    11.00000   -1.50000
N18   3    0.178270    0.835601    0.382324    11.00000    0.03778    0.04168 =
         0.04272   -0.00278    0.00205    0.00752
AFIX 137
H18A  2    0.274064    0.896376    0.423548    11.00000   -1.50000
H18B  2    0.134318    0.697215    0.414786    11.00000   -1.50000
H18C  2    0.099613    0.968199    0.371317    11.00000   -1.50000

AFIX   0
HKLF 4

REM  shrv747 in P2(1)
REM R1 =  0.0401 for    1866 Fo > 4sig(Fo)  and  0.0682 for all    2604 data
REM    167 parameters refined using      2 restraints

END

WGHT      0.0450      0.0000

REM Instructions for potential hydrogen bonds
HTAB O17 N4
HTAB N18 O1
HTAB N18 O1_$1
HTAB N18 O2_$2
HTAB N18 O2_$1
HTAB N18 N6_$3
HTAB N18 N7_$4

REM Highest difference peak  0.272,  deepest hole -0.175,  1-sigma level  0.041
Q1    1   0.1628  0.9642  0.2819  11.00000  0.05    0.27
Q2    1   0.3762  0.4102  0.2022  11.00000  0.05    0.16
Q3    1   0.6171  1.2857  0.3879  11.00000  0.05    0.16
Q4    1   0.2803  0.3046  0.2791  11.00000  0.05    0.15
Q5    1   0.0411  1.0351  0.2780  11.00000  0.05    0.15
Q6    1   0.2390 -0.2129  0.0994  11.00000  0.05    0.15
Q7    1   0.8263  1.1266  0.4402  11.00000  0.05    0.14
Q8    1   0.5486 -0.1757  0.1015  11.00000  0.05    0.14
Q9    1   0.2571 -0.1706  0.0220  11.00000  0.05    0.14
Q10   1   0.7046  0.2524  0.2276  11.00000  0.05    0.14
Q11   1   0.5252 -0.0028  0.1045  11.00000  0.05    0.13
Q12   1   0.8664 -0.1272  0.1531  11.00000  0.05    0.13
Q13   1   0.7943 -0.2422  0.1716  11.00000  0.05    0.13
Q14   1   0.3269 -0.1973 -0.0493  11.00000  0.05    0.13
Q15   1   0.4624  1.0757  0.3819  11.00000  0.05    0.13
Q16   1   0.8059  0.1658  0.2844  11.00000  0.05    0.13
Q17   1   0.2685  1.1318  0.3446  11.00000  0.05    0.12
Q18   1   0.1755  1.1488  0.3072  11.00000  0.05    0.12
Q19   1   0.2857  0.1463  0.2472  11.00000  0.05    0.12
Q20   1   0.2786  0.9887  0.3339  11.00000  0.05    0.11
;
_shelx_res_checksum              70941
loop_
_space_group_symop_operation_xyz
'x, y, z'
'-x, y+1/2, -z'
loop_
_atom_site_label
_atom_site_type_symbol
_atom_site_fract_x
_atom_site_fract_y
_atom_site_fract_z
_atom_site_U_iso_or_equiv
_atom_site_adp_type
_atom_site_occupancy
_atom_site_site_symmetry_order
_atom_site_calc_flag
_atom_site_refinement_flags_posn
_atom_site_refinement_flags_adp
O1 O 0.5462(3) 1.0639(4) 0.44287(16) 0.0415(5) Uani 1 1 d . .
O2 O 0.7918(3) 0.8443(5) 0.48188(16) 0.0476(5) Uani 1 1 d . .
N3 N 0.6468(3) 0.8742(4) 0.42516(16) 0.0309(5) Uani 1 1 d . .
N4 N 0.5880(3) 0.7150(4) 0.34287(17) 0.0289(5) Uani 1 1 d . .
C5 C 0.6986(3) 0.5175(5) 0.3181(2) 0.0275(5) Uani 1 1 d . .
N6 N 0.8662(3) 0.4520(5) 0.35134(19) 0.0387(6) Uani 1 1 d . .
N7 N 0.9094(3) 0.2334(5) 0.2928(2) 0.0430(6) Uani 1 1 d . .
C8 C 0.7675(4) 0.1710(5) 0.2248(2) 0.0344(6) Uani 1 1 d . .
N9 N 0.7461(4) -0.0318(5) 0.1504(2) 0.0444(6) Uani 1 1 d . .
N10 N 0.5912(4) -0.0626(5) 0.09741(19) 0.0455(6) Uani 1 1 d . .
C11 C 0.4587(4) 0.1083(5) 0.1197(2) 0.0358(7) Uani 1 1 d . .
N12 N 0.2995(4) 0.0315(5) 0.0603(2) 0.0471(7) Uani 1 1 d . .
N13 N 0.1792(4) 0.1943(7) 0.0717(2) 0.0494(7) Uani 1 1 d . .
N14 N 0.0621(5) 0.3252(9) 0.0744(3) 0.0709(9) Uani 1 1 d . .
N15 N 0.4689(3) 0.3150(5) 0.18502(16) 0.0316(5) Uani 1 1 d . .
N16 N 0.6347(3) 0.3409(4) 0.23816(15) 0.0271(5) Uani 1 1 d . .
O17 O 0.2202(3) 0.7496(6) 0.28434(18) 0.0629(7) Uani 1 1 d D .
H17 H 0.325(2) 0.706(10) 0.297(4) 0.094 Uiso 1 1 d D U
N18 N 0.1783(3) 0.8356(5) 0.38232(18) 0.0412(6) Uani 1 1 d . .
H18A H 0.2741 0.8964 0.4235 0.062 Uiso 1 1 calc R U
H18B H 0.1343 0.6972 0.4148 0.062 Uiso 1 1 calc R U
H18C H 0.0996 0.9682 0.3713 0.062 Uiso 1 1 calc R U
loop_
_atom_site_aniso_label
_atom_site_aniso_U_11
_atom_site_aniso_U_22
_atom_site_aniso_U_33
_atom_site_aniso_U_23
_atom_site_aniso_U_13
_atom_site_aniso_U_12
O1 0.0539(13) 0.0297(10) 0.0438(11) -0.0058(8) 0.0162(10) 0.0027(10)
O2 0.0394(12) 0.0517(12) 0.0466(11) -0.0113(10) -0.0094(9) -0.0034(11)
N3 0.0337(13) 0.0282(13) 0.0320(11) -0.0001(9) 0.0088(10) -0.0049(10)
N4 0.0266(11) 0.0279(11) 0.0322(11) -0.0035(8) 0.0044(9) 0.0020(10)
C5 0.0252(13) 0.0276(13) 0.0302(13) 0.0026(10) 0.0056(10) 0.0002(10)
N6 0.0287(12) 0.0364(12) 0.0501(14) -0.0019(11) 0.0036(10) 0.0047(11)
N7 0.0304(13) 0.0419(14) 0.0568(15) -0.0012(12) 0.0070(11) 0.0101(11)
C8 0.0367(16) 0.0293(14) 0.0401(15) 0.0033(11) 0.0151(13) 0.0107(12)
N9 0.0562(18) 0.0369(13) 0.0433(14) -0.0016(11) 0.0177(12) 0.0077(12)
N10 0.0617(18) 0.0386(13) 0.0374(13) -0.0056(11) 0.0115(13) 0.0031(13)
C11 0.0466(18) 0.0335(15) 0.0270(13) 0.0038(11) 0.0052(12) -0.0041(12)
N12 0.0520(17) 0.0486(17) 0.0383(14) 0.0003(12) -0.0011(12) -0.0117(14)
N13 0.0475(17) 0.0640(18) 0.0339(14) 0.0045(13) -0.0022(13) -0.0196(17)
N14 0.0505(19) 0.094(2) 0.0647(19) 0.003(2) -0.0016(15) 0.000(2)
N15 0.0324(12) 0.0333(12) 0.0282(10) 0.0010(9) 0.0021(9) 0.0002(10)
N16 0.0261(11) 0.0277(10) 0.0279(10) 0.0000(9) 0.0057(8) 0.0027(9)
O17 0.0435(13) 0.095(2) 0.0510(13) -0.0132(13) 0.0113(11) 0.0100(14)
N18 0.0378(13) 0.0417(13) 0.0427(13) -0.0028(11) 0.0020(10) 0.0075(12)
loop_
_atom_type_symbol
_atom_type_description
_atom_type_scat_dispersion_real
_atom_type_scat_dispersion_imag
_atom_type_scat_source
C C 0.0033 0.0016 'International Tables Vol C Tables 4.2.6.8 and 6.1.1.4'
H H 0.0000 0.0000 'International Tables Vol C Tables 4.2.6.8 and 6.1.1.4'
N N 0.0061 0.0033 'International Tables Vol C Tables 4.2.6.8 and 6.1.1.4'
O O 0.0106 0.0060 'International Tables Vol C Tables 4.2.6.8 and 6.1.1.4'
loop_
_geom_angle_atom_site_label_1
_geom_angle_atom_site_label_2
_geom_angle_atom_site_label_3
_geom_angle
O2 N3 O1 121.0(2)
O2 N3 N4 123.4(2)
O1 N3 N4 115.5(2)
N3 N4 C5 116.7(2)
N6 C5 N4 135.4(2)
N6 C5 N16 107.5(2)
N4 C5 N16 117.0(2)
C5 N6 N7 108.9(2)
C8 N7 N6 106.5(2)
N7 C8 N16 110.3(2)
N7 C8 N9 128.1(3)
N16 C8 N9 121.6(3)
N10 N9 C8 116.5(3)
N9 N10 C11 118.8(2)
N15 C11 N10 128.8(3)
N15 C11 N12 120.9(3)
N10 C11 N12 110.3(2)
N13 N12 C11 112.1(2)
N14 N13 N12 173.2(4)
C11 N15 N16 110.2(2)
C8 N16 N15 123.9(2)
C8 N16 C5 106.8(2)
N15 N16 C5 129.1(2)
N18 O17 H17 105(3)
O17 N18 H18A 109.5
O17 N18 H18B 109.5
H18A N18 H18B 109.5
O17 N18 H18C 109.5
H18A N18 H18C 109.5
H18B N18 H18C 109.5
loop_
_geom_bond_atom_site_label_1
_geom_bond_atom_site_label_2
_geom_bond_distance
O1 N3 1.259(3)
O2 N3 1.244(3)
N3 N4 1.325(3)
N4 C5 1.365(3)
C5 N6 1.341(3)
C5 N16 1.366(3)
N6 N7 1.376(4)
N7 C8 1.322(4)
C8 N16 1.357(3)
C8 N9 1.364(4)
N9 N10 1.290(4)
N10 C11 1.390(4)
C11 N15 1.305(3)
C11 N12 1.393(4)
N12 N13 1.255(4)
N13 N14 1.118(5)
N15 N16 1.361(3)
O17 N18 1.391(3)
O17 H17 0.831(14)
N18 H18A 0.8900
N18 H18B 0.8900
N18 H18C 0.8900
loop_
_geom_hbond_atom_site_label_D
_geom_hbond_atom_site_label_H
_geom_hbond_atom_site_label_A
_geom_hbond_distance_DH
_geom_hbond_distance_HA
_geom_hbond_distance_DA
_geom_hbond_angle_DHA
_geom_hbond_site_symmetry_A
N18 H18A O1 0.89 2.24 3.051(3) 150.8 .
N18 H18A O1 0.89 2.60 3.124(3) 118.8 2_646
N18 H18A O2 0.89 2.60 3.026(3) 110.4 2_656
N18 H18B O2 0.89 2.20 2.955(3) 142.9 2_646
N18 H18B N6 0.89 2.43 3.047(4) 126.8 1_455
N18 H18C N7 0.89 2.10 2.956(3) 160.9 1_465
O17 H17 N4 0.831(14) 2.03(2) 2.837(3) 163(5) .
O17 H17 N15 0.831(14) 2.73(4) 3.259(3) 123(4) .
loop_
_geom_torsion_atom_site_label_1
_geom_torsion_atom_site_label_2
_geom_torsion_atom_site_label_3
_geom_torsion_atom_site_label_4
_geom_torsion
O2 N3 N4 C5 -3.1(3)
O1 N3 N4 C5 176.3(2)
N3 N4 C5 N6 -7.2(4)
N3 N4 C5 N16 175.6(2)
N4 C5 N6 N7 -177.5(3)
N16 C5 N6 N7 -0.1(3)
C5 N6 N7 C8 0.3(3)
N6 N7 C8 N16 -0.3(3)
N6 N7 C8 N9 -179.9(3)
N7 C8 N9 N10 175.9(3)
N16 C8 N9 N10 -3.6(4)
C8 N9 N10 C11 -0.4(4)
N9 N10 C11 N15 4.3(4)
N9 N10 C11 N12 -175.7(2)
N15 C11 N12 N13 5.4(4)
N10 C11 N12 N13 -174.6(2)
N10 C11 N15 N16 -3.5(4)
N12 C11 N15 N16 176.6(2)
N7 C8 N16 N15 -175.1(2)
N9 C8 N16 N15 4.5(4)
N7 C8 N16 C5 0.3(3)
N9 C8 N16 C5 179.9(2)
C11 N15 N16 C8 -0.9(3)
C11 N15 N16 C5 -175.3(2)
N6 C5 N16 C8 -0.1(3)
N4 C5 N16 C8 177.8(2)
N6 C5 N16 N15 175.0(2)
N4 C5 N16 N15 -7.1(4)
