#------------------------------------------------------------------------------
#$Date: 2019-11-24 10:29:40 +0200 (Sun, 24 Nov 2019) $
#$Revision: 237638 $
#$URL: file:///home/coder/svn-repositories/cod/cif/7/23/73/7237386.cif $
#------------------------------------------------------------------------------
#
# This file is available in the Crystallography Open Database (COD),
# http://www.crystallography.net/
#
# All data on this site have been placed in the public domain by the
# contributors.
#
data_7237386
loop_
_publ_author_name
'Paliwoda, Damian'
'Szafra\'nski, Marek'
'Hanfland, Michael'
'Katrusiak, Andrzej'
_publ_section_title
;
 A giant 2-dimensional dielectric response in a compressed hydrogen-bonded
 hybrid organic--inorganic salt
;
_journal_issue                   28
_journal_name_full               'Journal of Materials Chemistry C'
_journal_page_first              7689
_journal_paper_doi               10.1039/C8TC02464B
_journal_volume                  6
_journal_year                    2018
_chemical_formula_moiety         'C4 H5 N2 Au Cl4'
_chemical_formula_sum            'C4 H5 Au Cl4 N2'
_chemical_formula_weight         419.87
_chemical_name_common            'pyrazinium tetrachloroaurate'
_chemical_name_systematic
; 
pyrazinium tetrachloroaurate 
;
_space_group_IT_number           138
_space_group_name_Hall           '-P 4ac 2ac'
_space_group_name_H-M_alt        'P 42/n c m :2'
_symmetry_cell_setting           tetragonal
_symmetry_space_group_name_Hall  '-P 4ac 2ac'
_symmetry_space_group_name_H-M   'P 42/n c m :2'
_atom_sites_solution_hydrogens   geom
_atom_sites_solution_primary     direct
_atom_sites_solution_secondary   difmap
_audit_creation_method           SHELXL-97
_audit_update_record
;
2017-04-07 deposited with the CCDC.
2018-06-28 downloaded from the CCDC.
;
_cell_angle_alpha                90.00
_cell_angle_beta                 90.00
_cell_angle_gamma                90.00
_cell_formula_units_Z            4
_cell_length_a                   7.85600(10)
_cell_length_b                   7.85600(10)
_cell_length_c                   15.7916(4)
_cell_measurement_reflns_used    5963
_cell_measurement_temperature    190(2)
_cell_measurement_theta_max      28.99
_cell_measurement_theta_min      2.58
_cell_volume                     974.61(3)
_computing_cell_refinement       'CrysAlisRED (Oxford Diffraction, 2004)'
_computing_data_collection       'CrysAlisCCD (Oxford Diffraction, 2004)'
_computing_data_reduction        'CrysAlisRED (Oxford Diffraction, 2004)'
_computing_molecular_graphics    'SHELXTL (Sheldrick, 1990)'
_computing_publication_material  'SHELXL--97 (Sheldrick, 1997)'
_computing_structure_refinement  'SHELXL--97 (Sheldrick, 1997)'
_computing_structure_solution    'SHELXS--97 (Sheldrick, 1997)'
_diffrn_ambient_temperature      190(2)
_diffrn_measured_fraction_theta_full 0.982
_diffrn_measured_fraction_theta_max 0.982
_diffrn_measurement_device_type  'KM-4 CCD'
_diffrn_measurement_method       \w-scans
_diffrn_radiation_monochromator  graphite
_diffrn_radiation_source         'fine-focus sealed tube'
_diffrn_radiation_type           MoK\a
_diffrn_radiation_wavelength     0.71073
_diffrn_reflns_av_R_equivalents  0.0759
_diffrn_reflns_av_sigmaI/netI    0.0291
_diffrn_reflns_limit_h_max       10
_diffrn_reflns_limit_h_min       -9
_diffrn_reflns_limit_k_max       10
_diffrn_reflns_limit_k_min       -10
_diffrn_reflns_limit_l_max       21
_diffrn_reflns_limit_l_min       -20
_diffrn_reflns_number            5963
_diffrn_reflns_theta_full        28.99
_diffrn_reflns_theta_max         28.99
_diffrn_reflns_theta_min         2.58
_diffrn_standards_decay_%        0
_diffrn_standards_interval_count 0
_diffrn_standards_number         0
_exptl_absorpt_coefficient_mu    16.130
_exptl_absorpt_correction_T_max  0.040
_exptl_absorpt_correction_T_min  0.029
_exptl_absorpt_correction_type   numerical
_exptl_absorpt_process_details
; 
 Correction for absorption was made using XEMP (SHELXTL, 
 Sheldrick (1990)).
;
_exptl_crystal_colour            orange
_exptl_crystal_density_diffrn    2.861
_exptl_crystal_density_method    'not measured'
_exptl_crystal_description       plate
_exptl_crystal_F_000             760
_exptl_crystal_size_max          0.50
_exptl_crystal_size_mid          0.20
_exptl_crystal_size_min          0.20
_refine_diff_density_max         3.456
_refine_diff_density_min         -1.817
_refine_diff_density_rms         0.320
_refine_ls_extinction_coef       0.0024(4)
_refine_ls_extinction_expression Fc^*^=kFc[1+0.001xFc^2^\l^3^/sin(2\q)]^-1/4^
_refine_ls_extinction_method     SHELXL
_refine_ls_goodness_of_fit_ref   1.132
_refine_ls_hydrogen_treatment    constr
_refine_ls_matrix_type           full
_refine_ls_number_parameters     34
_refine_ls_number_reflns         700
_refine_ls_number_restraints     0
_refine_ls_restrained_S_all      1.132
_refine_ls_R_factor_all          0.0428
_refine_ls_R_factor_gt           0.0375
_refine_ls_shift/su_max          0.000
_refine_ls_shift/su_mean         0.000
_refine_ls_structure_factor_coef Fsqd
_refine_ls_weighting_details
'calc w=1/[\s^2^(Fo^2^)+(0.0722P)^2^+0.0589P] where P=(Fo^2^+2Fc^2^)/3'
_refine_ls_weighting_scheme      calc
_refine_ls_wR_factor_gt          0.1086
_refine_ls_wR_factor_ref         0.1159
_reflns_number_gt                576
_reflns_number_total             700
_reflns_threshold_expression     >2sigma(I)
_cod_data_source_file            c8tc02464b2.cif
_cod_data_source_block           pyrazinium_tetrachloroaurate_190K
_cod_original_sg_symbol_H-M      'P 42/n c m'
_cod_database_code               7237386
loop_
_symmetry_equiv_pos_as_xyz
'x, y, z'
'-x+1/2, -y+1/2, z'
'-y+1/2, x, z+1/2'
'y, -x+1/2, z+1/2'
'-x, y+1/2, -z+1/2'
'x+1/2, -y, -z+1/2'
'y+1/2, x+1/2, -z'
'-y, -x, -z'
'-x, -y, -z'
'x-1/2, y-1/2, -z'
'y-1/2, -x, -z-1/2'
'-y, x-1/2, -z-1/2'
'x, -y-1/2, z-1/2'
'-x-1/2, y, z-1/2'
'-y-1/2, -x-1/2, z'
'y, x, z'
loop_
_atom_site_label
_atom_site_type_symbol
_atom_site_fract_x
_atom_site_fract_y
_atom_site_fract_z
_atom_site_U_iso_or_equiv
_atom_site_adp_type
_atom_site_occupancy
_atom_site_symmetry_multiplicity
_atom_site_calc_flag
_atom_site_refinement_flags
Au1 Au 1.2500 0.2500 0.26349(3) 0.0217(3) Uani 1 4 d S
Cl1 Cl 1.04441(15) 0.04441(15) 0.26567(11) 0.0360(5) Uani 1 2 d S
Cl2 Cl 1.2500 0.2500 0.4085(3) 0.0294(8) Uani 1 4 d S
Cl3 Cl 1.2500 0.2500 0.1187(3) 0.0303(8) Uani 1 4 d S
N1 N 0.8717(4) 0.1283(4) 0.0000 0.0287(11) Uani 1 2 d S
H1A H 0.9492 0.0508 0.0000 0.034 Uiso 0.50 2 calc SPR
C1 C 0.8119(7) 0.1890(7) 0.0726(3) 0.0306(10) Uani 1 1 d .
H1 H 0.8545 0.1483 0.1237 0.037 Uiso 1 1 calc R
loop_
_atom_site_aniso_label
_atom_site_aniso_U_11
_atom_site_aniso_U_22
_atom_site_aniso_U_33
_atom_site_aniso_U_23
_atom_site_aniso_U_13
_atom_site_aniso_U_12
Au1 0.0212(3) 0.0212(3) 0.0227(4) 0.000 0.000 0.00009(9)
Cl1 0.0363(7) 0.0363(7) 0.0353(10) 0.0001(5) 0.0001(5) -0.0114(7)
Cl2 0.0336(11) 0.0336(11) 0.0212(18) 0.000 0.000 0.0006(7)
Cl3 0.0347(12) 0.0347(12) 0.0214(17) 0.000 0.000 -0.0018(7)
N1 0.0233(16) 0.0233(16) 0.040(3) 0.0011(16) 0.0011(16) 0.003(2)
C1 0.031(2) 0.033(2) 0.028(2) 0.004(2) -0.005(2) 0.005(3)
loop_
_atom_type_symbol
_atom_type_description
_atom_type_scat_dispersion_real
_atom_type_scat_dispersion_imag
_atom_type_scat_source
C C 0.0033 0.0016 'International Tables Vol C Tables 4.2.6.8 and 6.1.1.4'
H H 0.0000 0.0000 'International Tables Vol C Tables 4.2.6.8 and 6.1.1.4'
N N 0.0061 0.0033 'International Tables Vol C Tables 4.2.6.8 and 6.1.1.4'
Cl Cl 0.1484 0.1585 'International Tables Vol C Tables 4.2.6.8 and 6.1.1.4'
Au Au -2.0133 8.8022 'International Tables Vol C Tables 4.2.6.8 and 6.1.1.4'
loop_
_geom_angle_atom_site_label_1
_geom_angle_atom_site_label_2
_geom_angle_atom_site_label_3
_geom_angle
_geom_angle_site_symmetry_1
_geom_angle_site_symmetry_3
Cl2 Au1 Cl3 180.0 . .
Cl2 Au1 Cl1 89.14(4) . 2_755
Cl3 Au1 Cl1 90.86(4) . 2_755
Cl2 Au1 Cl1 89.14(4) . .
Cl3 Au1 Cl1 90.86(4) . .
Cl1 Au1 Cl1 178.28(9) 2_755 .
C1 N1 C1 119.4(6) . 8_665
N1 C1 C1 120.3(3) . 2_655
loop_
_geom_bond_atom_site_label_1
_geom_bond_atom_site_label_2
_geom_bond_distance
_geom_bond_site_symmetry_2
Au1 Cl2 2.290(4) .
Au1 Cl3 2.287(4) .
Au1 Cl1 2.2844(17) 2_755
Au1 Cl1 2.2844(17) .
N1 C1 1.328(6) .
N1 C1 1.328(6) 8_665
C1 C1 1.365(12) 2_655
loop_
_refln_index_h
_refln_index_k
_refln_index_l
_refln_F_squared_calc
_refln_F_squared_meas
_refln_F_squared_sigma
_refln_observed_status
1 1 0 101654.91 116906.48 999.64 o
0 2 0 122552.66 137741.19 1063.14 o
2 2 0 198370.19 224910.23 1665.62 o
1 3 0 99788.28 108035.67 1170.65 o
3 3 0 89128.15 91682.74 846.71 o
0 4 0 85882.48 91061.45 1022.59 o
2 4 0 60870.50 61972.45 647.83 o
4 4 0 60005.81 58535.84 1197.72 o
1 5 0 79302.88 82025.20 558.54 o
3 5 0 31768.39 31016.79 447.05 o
5 5 0 39556.94 39109.52 549.16 o
0 6 0 38587.16 38920.20 428.18 o
2 6 0 33320.55 33364.80 552.91 o
4 6 0 31502.23 31446.91 298.75 o
6 6 0 17420.08 17793.48 583.00 o
1 7 0 30250.12 31093.74 531.51 o
3 7 0 35906.24 35755.55 440.46 o
5 7 0 11709.78 11480.97 585.26 o
7 7 0 11060.93 11434.31 585.56 o
0 8 0 15648.64 16003.08 819.88 o
2 8 0 21300.84 22648.48 504.25 o
4 8 0 10809.66 10580.48 428.39 o
6 8 0 11214.80 11612.47 578.87 o
1 9 0 16411.68 17467.71 342.67 o
3 9 0 11220.66 10462.61 1815.48 o
5 9 0 10402.74 10771.47 546.68 o
0 10 0 11636.94 12803.28 545.61 o
2 10 0 5891.91 5244.95 1335.26 o
1 1 1 852.07 943.84 37.66 o
1 2 1 2843.46 2957.32 44.46 o
2 2 1 4884.15 4964.34 186.43 o
1 3 1 1619.61 1681.85 28.70 o
2 3 1 871.74 910.34 19.44 o
3 3 1 1718.20 1822.97 52.63 o
1 4 1 3480.78 3531.71 53.97 o
2 4 1 467.39 501.75 15.70 o
3 4 1 1243.24 1273.59 27.95 o
4 4 1 720.19 738.80 28.16 o
1 5 1 0.26 4.14 3.52 o
2 5 1 58.77 55.43 4.61 o
3 5 1 97.14 93.60 6.96 o
4 5 1 83.88 84.64 11.69 o
5 5 1 313.73 274.54 19.14 o
1 6 1 1744.91 1808.61 35.15 o
2 6 1 5.28 7.19 4.32 o
3 6 1 626.51 622.41 29.42 o
4 6 1 47.69 48.80 7.47 o
5 6 1 20.58 19.42 6.89 o
6 6 1 296.08 312.91 45.51 o
1 7 1 31.58 36.59 5.00 o
2 7 1 14.69 20.68 5.66 o
3 7 1 0.23 16.41 8.56 o
4 7 1 52.33 51.71 18.89 o
5 7 1 50.97 49.87 20.05 o
6 7 1 70.19 96.32 23.52 o
7 7 1 18.35 40.13 40.32 o
1 8 1 423.99 457.68 35.00 o
2 8 1 4.42 17.81 7.17 o
3 8 1 123.06 152.70 23.66 o
4 8 1 8.36 43.07 17.34 o
5 8 1 0.54 23.30 18.17 o
6 8 1 0.02 25.87 10.65 o
1 9 1 10.54 19.43 8.90 o
2 9 1 55.34 45.57 11.42 o
3 9 1 0.75 12.04 13.96 o
4 9 1 130.14 187.76 45.12 o
5 9 1 18.50 78.28 36.35 o
1 10 1 24.92 -23.94 23.94 o
2 10 1 11.13 -0.62 32.45 o
3 10 1 1.20 13.84 15.61 o
0 0 2 79228.70 44390.59 1502.32 o
0 1 2 2580.17 2658.46 77.10 o
1 1 2 106338.02 128712.73 2407.43 o
0 2 2 16358.78 16998.85 367.79 o
1 2 2 1322.80 1271.91 28.09 o
2 2 2 72629.41 77745.62 900.26 o
0 3 2 629.48 633.07 22.94 o
1 3 2 38623.89 40805.97 647.20 o
2 3 2 2002.39 1952.38 37.77 o
3 3 2 56622.91 56079.74 986.09 o
0 4 2 63058.19 65169.12 819.75 o
1 4 2 1270.03 1285.30 24.57 o
2 4 2 27529.73 27512.92 533.09 o
3 4 2 669.54 631.89 21.00 o
4 4 2 21324.18 20153.93 499.41 o
0 5 2 1603.22 1592.27 45.29 o
1 5 2 28188.46 28641.90 380.86 o
2 5 2 389.27 380.91 16.86 o
3 5 2 15878.08 15560.93 504.84 o
4 5 2 766.99 778.04 29.94 o
5 5 2 27628.88 28252.77 352.34 o
0 6 2 26971.13 27782.44 379.94 o
1 6 2 650.90 644.24 24.09 o
2 6 2 20306.17 20464.12 282.08 o
3 6 2 547.82 533.52 26.64 o
4 6 2 16514.09 16984.22 405.24 o
5 6 2 390.68 406.56 26.07 o
6 6 2 8067.95 8095.16 276.95 o
0 7 2 247.07 241.90 27.02 o
1 7 2 12699.17 12689.62 261.33 o
2 7 2 667.64 678.59 33.49 o
3 7 2 16706.81 17152.90 596.90 o
4 7 2 273.26 231.60 24.71 o
5 7 2 5297.66 5273.53 152.01 o
6 7 2 200.95 224.21 38.02 o
7 7 2 9177.96 9786.95 592.23 o
0 8 2 8162.49 8617.19 225.53 o
1 8 2 321.84 347.72 30.93 o
2 8 2 14955.18 16171.80 323.77 o
3 8 2 354.84 377.65 35.48 o
4 8 2 7901.99 7863.58 207.41 o
5 8 2 154.54 146.48 27.34 o
6 8 2 5607.50 5599.70 242.65 o
0 9 2 324.75 355.61 45.19 o
1 9 2 8459.53 9018.83 167.71 o
2 9 2 177.24 155.44 25.25 o
3 9 2 4414.77 4470.75 169.21 o
4 9 2 185.17 199.44 38.25 o
5 9 2 6057.96 6227.66 482.96 o
0 10 2 8325.08 9653.33 521.00 o
1 10 2 186.15 192.26 48.01 o
2 10 2 3850.31 3921.06 212.01 o
3 10 2 103.25 55.76 32.30 o
1 1 3 2744.35 3083.51 107.13 o
1 2 3 2219.66 2252.15 37.60 o
2 2 3 750.23 798.36 25.01 o
1 3 3 0.84 14.31 2.62 o
2 3 3 688.64 713.93 19.61 o
3 3 3 590.74 591.59 28.95 o
1 4 3 2907.29 2967.56 48.32 o
2 4 3 149.29 144.33 9.48 o
3 4 3 1062.41 1063.15 25.83 o
4 4 3 42.81 29.40 10.24 o
1 5 3 11.09 15.90 3.19 o
2 5 3 59.83 56.36 4.11 o
3 5 3 12.72 10.99 5.17 o
4 5 3 62.06 73.26 8.75 o
5 5 3 33.35 28.27 14.10 o
1 6 3 1501.84 1505.68 39.86 o
2 6 3 284.20 272.80 16.84 o
3 6 3 539.47 538.10 26.59 o
4 6 3 91.36 86.50 11.64 o
5 6 3 20.81 28.88 8.39 o
6 6 3 1.90 18.90 13.18 o
1 7 3 1.99 11.34 5.68 o
2 7 3 15.90 14.95 7.24 o
3 7 3 53.68 50.12 9.59 o
4 7 3 36.12 32.90 9.41 o
5 7 3 51.73 36.50 16.74 o
6 7 3 71.36 109.35 27.93 o
7 7 3 9.66 74.71 62.84 o
1 8 3 365.97 401.01 32.94 o
2 8 3 4.58 20.29 10.00 o
3 8 3 109.54 99.51 18.85 o
4 8 3 25.10 17.32 9.08 o
5 8 3 0.66 7.02 7.13 o
6 8 3 15.16 53.52 17.45 o
1 9 3 5.13 6.91 12.29 o
2 9 3 43.58 18.09 12.12 o
3 9 3 34.82 38.04 16.98 o
4 9 3 127.03 132.42 32.87 o
5 9 3 13.64 35.25 6.73 o
1 10 3 21.66 21.23 43.84 o
2 10 3 10.71 -5.04 11.32 o
3 10 3 1.03 -2.71 8.98 o
0 0 4 83445.43 61811.67 1072.82 o
0 1 4 4953.32 5304.03 88.02 o
1 1 4 29869.85 32460.41 550.28 o
0 2 4 6262.45 6344.38 92.24 o
1 2 4 2322.61 2311.18 42.78 o
2 2 4 40733.80 41269.13 1088.88 o
0 3 4 1070.71 1070.93 43.35 o
1 3 4 24093.58 24434.26 363.99 o
2 3 4 4693.69 4573.03 97.02 o
3 3 4 25256.62 25598.14 486.78 o
0 4 4 21709.97 21755.67 438.63 o
1 4 4 2704.15 2622.00 55.74 o
2 4 4 13412.94 13048.95 208.34 o
3 4 4 1364.68 1373.81 31.40 o
4 4 4 18045.57 18560.59 219.77 o
0 5 4 4105.58 3909.05 93.71 o
1 5 4 20466.19 20627.35 380.87 o
2 5 4 770.27 726.49 22.62 o
3 5 4 6232.09 6091.57 155.03 o
4 5 4 1912.14 1925.23 58.85 o
5 5 4 14276.41 15249.72 365.99 o
0 6 4 13970.57 13559.63 336.84 o
1 6 4 1459.27 1405.09 36.89 o
2 6 4 10915.75 11010.92 211.76 o
3 6 4 1240.98 1232.67 39.63 o
4 6 4 10167.29 10235.03 228.15 o
5 6 4 931.01 1002.14 50.00 o
6 6 4 4919.37 4981.98 200.40 o
0 7 4 508.61 510.88 39.80 o
1 7 4 6368.12 6198.09 189.82 o
2 7 4 1747.74 1691.79 53.10 o
3 7 4 11966.92 12280.12 356.12 o
4 7 4 654.27 676.84 40.87 o
5 7 4 3613.73 3815.14 104.52 o
6 7 4 496.26 515.15 46.76 o
7 7 4 5225.76 5703.47 516.60 o
0 8 4 6330.76 6385.97 357.59 o
1 8 4 749.53 753.09 45.03 o
2 8 4 9093.96 9678.93 384.45 o
3 8 4 881.26 920.90 56.22 o
4 8 4 3203.62 3168.29 129.18 o
5 8 4 354.91 317.01 40.85 o
6 8 4 3659.61 3537.13 236.33 o
0 9 4 856.23 947.59 103.68 o
1 9 4 4563.64 4978.14 142.68 o
2 9 4 425.69 412.76 46.00 o
3 9 4 3427.07 3634.72 277.41 o
4 9 4 474.05 517.52 62.38 o
5 9 4 4656.63 3908.69 531.28 o
0 10 4 5652.11 7052.09 493.84 o
1 10 4 478.45 553.17 66.20 o
2 10 4 2268.35 2451.37 146.88 o
3 10 4 253.46 259.37 103.92 o
1 1 5 821.04 807.11 38.02 o
1 2 5 1407.17 1466.71 31.92 o
2 2 5 401.38 420.71 24.97 o
1 3 5 542.49 528.06 17.87 o
2 3 5 474.37 472.87 17.01 o
3 3 5 320.99 320.13 18.74 o
1 4 5 2002.46 1978.69 43.80 o
2 4 5 624.95 660.00 20.87 o
3 4 5 783.02 745.26 19.82 o
4 4 5 2.17 2.64 5.09 o
1 5 5 258.55 236.11 11.28 o
2 5 5 39.80 26.58 4.66 o
3 5 5 294.81 297.80 15.75 o
4 5 5 47.67 35.08 10.07 o
5 5 5 7.25 -1.24 14.83 o
1 6 5 1123.56 1132.00 33.11 o
2 6 5 73.80 73.39 7.67 o
3 6 5 384.00 391.32 20.18 o
4 6 5 500.87 521.37 23.68 o
5 6 5 18.49 15.26 12.31 o
6 6 5 190.34 238.02 39.52 o
1 7 5 161.52 155.79 13.06 o
2 7 5 10.90 5.31 4.88 o
3 7 5 16.23 13.68 10.97 o
4 7 5 30.44 17.90 7.05 o
5 7 5 3.41 9.12 9.94 o
6 7 5 52.47 52.22 16.32 o
7 7 5 19.78 53.16 36.98 o
1 8 5 272.41 313.00 34.38 o
2 8 5 59.47 41.65 17.22 o
3 8 5 89.91 97.43 19.21 o
4 8 5 44.76 81.77 21.26 o
5 8 5 1.54 2.96 16.17 o
6 8 5 27.78 10.87 11.94 o
1 9 5 108.65 134.00 28.21 o
2 9 5 34.60 12.14 12.41 o
3 9 5 0.67 3.19 13.67 o
4 9 5 90.26 165.06 60.78 o
5 9 5 5.33 -100.29 169.81 o
1 10 5 17.82 -4.38 10.66 o
2 10 5 80.35 46.84 16.73 o
0 0 6 131737.02 132111.22 1911.87 o
0 1 6 26418.52 25899.30 829.35 o
1 1 6 59218.62 59884.07 2002.06 o
0 2 6 51084.34 53805.11 1043.92 o
1 2 6 16148.95 15965.36 286.82 o
2 2 6 84138.06 90597.19 1444.30 o
0 3 6 9815.48 9663.58 165.60 o
1 3 6 35951.03 36213.88 527.22 o
2 3 6 19599.14 19222.83 309.23 o
3 3 6 50053.64 50543.94 1239.79 o
0 4 6 58786.37 60369.68 1159.19 o
1 4 6 13357.29 12769.97 173.52 o
2 4 6 31079.66 30869.11 498.50 o
3 4 6 7844.86 7469.82 167.96 o
4 4 6 22378.05 21530.32 941.62 o
0 5 6 15286.20 14804.87 409.25 o
1 5 6 33338.43 33323.79 534.61 o
2 5 6 5250.07 4914.83 76.28 o
3 5 6 20093.07 19531.26 267.57 o
4 5 6 7767.84 7254.11 171.70 o
5 5 6 24797.17 24973.96 1022.59 o
0 6 6 21020.57 19603.74 652.51 o
1 6 6 6944.23 6429.69 165.23 o
2 6 6 17480.72 17029.46 357.61 o
3 6 6 5744.20 5589.86 88.27 o
4 6 6 16185.42 16867.19 276.33 o
5 6 6 4017.71 3999.07 107.42 o
6 6 6 9753.42 9822.09 435.73 o
0 7 6 3125.62 2797.06 165.84 o
1 7 6 18592.18 17971.36 544.69 o
2 7 6 6513.86 6721.36 144.59 o
3 7 6 17990.29 18693.67 284.70 o
4 7 6 3003.95 3016.53 100.97 o
5 7 6 5528.69 5503.38 135.03 o
6 7 6 2077.30 2001.05 88.67 o
7 7 6 6649.30 6258.39 328.86 o
0 8 6 5965.93 6339.31 299.72 o
1 8 6 3357.06 3380.80 131.24 o
2 8 6 11309.90 13135.31 329.11 o
3 8 6 3466.69 3748.86 137.93 o
4 8 6 8069.20 8472.47 193.04 o
5 8 6 1634.29 1552.88 95.74 o
6 8 6 6619.86 6102.83 596.28 o
0 9 6 3131.86 3511.77 224.42 o
1 9 6 10777.76 12346.18 291.16 o
2 9 6 1884.48 2010.63 115.05 o
3 9 6 5435.72 5898.07 288.75 o
4 9 6 1821.83 1917.86 144.44 o
0 10 6 6058.81 7250.16 540.78 o
1 10 6 1776.67 2000.22 174.85 o
2 10 6 3364.36 3634.98 242.43 o
1 1 7 2918.42 2860.42 86.91 o
1 2 7 739.48 765.66 27.74 o
2 2 7 4.33 12.17 13.33 o
1 3 7 574.81 593.15 21.35 o
2 3 7 276.65 297.76 17.03 o
3 3 7 6.48 8.09 6.14 o
1 4 7 1206.07 1212.01 31.85 o
2 4 7 2.11 7.08 4.71 o
3 4 7 455.41 451.02 20.51 o
4 4 7 1489.06 1627.95 96.52 o
1 5 7 90.94 92.48 8.33 o
2 5 7 24.55 15.40 6.18 o
3 5 7 526.49 541.16 27.36 o
4 5 7 33.68 47.78 10.08 o
5 5 7 142.55 181.93 32.62 o
1 6 7 693.91 721.22 29.73 o
2 6 7 993.54 996.05 36.96 o
3 6 7 266.95 266.27 15.26 o
4 6 7 24.35 26.53 12.69 o
5 6 7 7.39 -7.46 7.46 o
6 6 7 135.21 121.23 34.43 o
1 7 7 1.05 1.43 5.39 o
2 7 7 6.04 9.20 11.67 o
3 7 7 271.32 295.09 34.85 o
4 7 7 20.66 13.66 6.45 o
5 7 7 13.80 14.25 9.57 o
6 7 7 29.94 47.49 19.17 o
7 7 7 2.14 2.78 27.81 o
1 8 7 178.54 204.83 37.24 o
2 8 7 20.18 32.35 18.95 o
3 8 7 50.07 33.43 10.76 o
4 8 7 90.65 105.21 17.50 o
5 8 7 0.03 -33.63 61.50 o
6 8 7 71.31 -24.29 31.70 o
1 9 7 33.04 59.93 11.55 o
2 9 7 23.69 26.10 16.89 o
3 9 7 127.63 99.08 27.31 o
4 9 7 55.88 83.79 53.02 o
1 10 7 10.30 5.38 17.06 o
0 0 8 62391.10 73134.45 1338.31 o
0 1 8 30408.26 29097.29 1314.79 o
1 1 8 44736.43 43832.41 1464.35 o
0 2 8 17058.49 16921.34 463.41 o
1 2 8 19380.35 19456.39 279.37 o
2 2 8 37354.17 37193.99 706.97 o
0 3 8 12313.75 11723.07 232.81 o
1 3 8 33316.22 34601.87 550.40 o
2 3 8 24282.43 23784.41 426.55 o
3 3 8 27119.26 28472.31 673.03 o
0 4 8 23746.44 22881.98 483.65 o
1 4 8 16754.15 15961.98 311.43 o
2 4 8 18483.57 17841.17 499.29 o
3 4 8 10098.39 10028.57 204.70 o
4 4 8 20005.45 21684.66 566.50 o
0 5 8 19631.34 19085.49 451.66 o
1 5 8 21171.12 20986.51 370.51 o
2 5 8 6915.69 6374.07 153.42 o
3 5 8 9285.27 9177.95 223.50 o
4 5 8 10307.19 10352.95 285.32 o
5 5 8 13298.77 13909.31 660.85 o
0 6 8 17095.74 16642.61 626.53 o
1 6 8 9139.54 8910.00 185.73 o
2 6 8 13974.88 13503.94 307.80 o
3 6 8 7585.95 7584.90 182.48 o
4 6 8 11005.34 11091.82 306.53 o
5 6 8 5401.12 5238.42 159.63 o
6 6 8 5161.58 5076.83 231.93 o
0 7 8 4196.15 3968.21 219.70 o
1 7 8 6786.39 6953.19 196.95 o
2 7 8 8723.22 8883.73 257.79 o
3 7 8 10747.65 11460.87 403.54 o
4 7 8 4122.52 4071.42 113.23 o
5 7 8 5011.62 5128.20 136.51 o
6 7 8 2880.42 2609.29 140.94 o
0 8 8 8839.68 9007.58 508.39 o
1 8 8 4566.05 4648.99 189.37 o
2 8 8 9649.42 10233.74 345.98 o
3 8 8 4717.84 4909.72 179.85 o
4 8 8 3794.75 4030.96 135.62 o
5 8 8 2249.86 2071.10 352.83 o
0 9 8 4285.86 4470.20 235.30 o
1 9 8 4050.23 4437.13 169.49 o
2 9 8 2594.96 2677.29 132.32 o
3 9 8 3676.23 4022.06 453.48 o
1 1 9 1211.36 1025.26 57.47 o
1 2 9 336.55 321.26 20.69 o
2 2 9 474.65 511.21 31.86 o
1 3 9 818.13 807.99 29.98 o
2 3 9 138.86 146.86 11.67 o
3 3 9 270.57 227.98 23.45 o
1 4 9 586.32 582.57 23.37 o
2 4 9 477.22 443.02 24.79 o
3 4 9 236.56 221.24 16.24 o
4 4 9 140.95 156.02 29.37 o
1 5 9 187.52 159.83 11.08 o
2 5 9 10.48 10.17 6.09 o
3 5 9 156.51 150.76 18.45 o
4 5 9 19.81 24.17 20.27 o
5 5 9 0.45 35.01 16.19 o
1 6 9 362.62 357.81 18.82 o
2 6 9 0.69 1.20 7.16 o
3 6 9 138.01 123.11 15.80 o
4 6 9 526.49 488.63 37.86 o
5 6 9 4.16 8.69 10.46 o
6 6 9 374.16 372.12 51.41 o
1 7 9 176.07 180.39 22.00 o
2 7 9 3.40 3.85 6.72 o
3 7 9 0.53 0.05 13.04 o
4 7 9 12.36 2.53 12.32 o
5 7 9 7.69 5.21 9.39 o
6 7 9 14.16 4.44 35.89 o
1 8 9 98.78 123.26 17.88 o
2 8 9 66.00 61.59 18.97 o
3 8 9 24.64 62.65 17.41 o
4 8 9 125.96 152.38 27.64 o
5 8 9 0.03 -19.84 49.50 o
1 9 9 154.10 176.65 36.71 o
2 9 9 11.35 18.54 9.61 o
3 9 9 9.72 -17.06 18.54 o
0 0 10 10700.11 13352.36 529.70 o
0 1 10 11892.67 12471.93 551.77 o
1 1 10 8501.68 8601.91 358.97 o
0 2 10 3735.97 3736.02 138.70 o
1 2 10 6773.99 6752.78 206.91 o
2 2 10 9712.32 9373.47 372.42 o
0 3 10 3592.64 3484.35 120.39 o
1 3 10 4298.77 3809.03 92.69 o
2 3 10 11567.83 11099.40 287.94 o
3 3 10 7688.62 7752.15 447.57 o
0 4 10 8674.51 8296.81 156.25 o
1 4 10 7317.07 6988.40 171.82 o
2 4 10 3820.67 3648.06 79.56 o
3 4 10 4004.89 3984.92 93.84 o
4 4 10 2879.15 2854.03 190.66 o
0 5 10 10652.85 9934.17 322.10 o
1 5 10 4412.62 4114.58 128.28 o
2 5 10 2376.42 2229.78 73.94 o
3 5 10 2809.28 2783.27 86.67 o
4 5 10 5388.37 5613.56 252.33 o
5 5 10 4566.88 4902.22 273.41 o
0 6 10 3467.31 3384.65 90.29 o
1 6 10 4225.31 4102.34 130.81 o
2 6 10 2796.41 2766.78 78.69 o
3 6 10 3719.45 3753.48 172.97 o
4 6 10 2738.92 2699.19 110.31 o
5 6 10 2872.95 2937.91 105.85 o
6 6 10 1709.92 1763.24 117.44 o
0 7 10 1671.89 1618.87 137.97 o
1 7 10 2780.60 2728.77 95.91 o
2 7 10 5037.25 5076.41 168.44 o
3 7 10 2924.62 3080.60 113.03 o
4 7 10 2046.47 2012.99 98.86 o
5 7 10 844.43 798.56 67.26 o
6 7 10 1599.60 1534.36 246.67 o
0 8 10 998.31 938.28 88.24 o
1 8 10 2349.44 2308.29 102.73 o
2 8 10 2304.44 2318.02 96.82 o
3 8 10 2717.33 2948.72 132.00 o
4 8 10 1685.82 1568.19 155.76 o
0 9 10 2618.30 3128.52 320.04 o
1 9 10 1920.14 2253.17 189.94 o
2 9 10 1410.53 1393.69 113.52 o
1 1 11 2275.37 2418.40 124.85 o
1 2 11 123.88 104.76 13.88 o
2 2 11 16.79 36.66 12.21 o
1 3 11 275.91 257.89 17.98 o
2 3 11 47.69 33.38 12.69 o
3 3 11 511.87 523.72 51.66 o
1 4 11 230.36 191.98 16.35 o
2 4 11 316.99 302.41 21.34 o
3 4 11 98.84 104.04 13.91 o
4 4 11 263.78 265.88 55.92 o
1 5 11 5.15 2.16 6.72 o
2 5 11 6.44 3.40 9.07 o
3 5 11 0.78 -9.57 9.57 o
4 5 11 5.08 6.81 15.45 o
5 5 11 11.60 0.10 19.34 o
1 6 11 152.60 138.91 16.82 o
2 6 11 287.64 236.69 27.95 o
3 6 11 49.82 44.30 16.31 o
4 6 11 401.32 424.28 42.76 o
5 6 11 3.38 0.30 15.01 o
6 6 11 50.99 42.72 57.66 o
1 7 11 23.56 -6.69 11.05 o
2 7 11 1.27 11.14 20.20 o
3 7 11 53.87 40.75 17.13 o
4 7 11 3.35 -5.90 12.43 o
5 7 11 79.67 97.56 54.59 o
1 8 11 34.94 31.59 15.99 o
2 8 11 54.58 50.67 18.64 o
3 8 11 16.11 23.71 8.03 o
4 8 11 72.75 31.31 33.51 o
1 9 11 56.87 100.78 33.52 o
0 0 12 16417.84 22703.14 701.06 o
0 1 12 20906.50 24075.26 964.02 o
1 1 12 4110.41 4304.64 175.73 o
0 2 12 5845.99 5793.62 321.58 o
1 2 12 13785.66 13365.71 719.35 o
2 2 12 8785.19 7897.22 652.95 o
0 3 12 8838.01 8172.86 350.48 o
1 3 12 4918.59 4749.36 239.53 o
2 3 12 18537.23 16713.11 929.86 o
3 3 12 4565.38 4209.47 373.40 o
0 4 12 4526.45 3973.82 159.36 o
1 4 12 13024.56 11358.23 174.68 o
2 4 12 3810.98 3400.16 118.53 o
3 4 12 7994.59 7348.58 433.17 o
4 4 12 4200.39 4627.65 631.69 o
0 5 12 15953.80 13773.73 251.03 o
1 5 12 4974.09 4387.25 144.51 o
2 5 12 5427.64 4616.49 110.37 o
3 5 12 2228.58 2153.30 91.20 o
4 5 12 8762.24 9096.83 541.90 o
5 5 12 2686.98 3020.01 254.10 o
0 6 12 2518.80 2321.00 143.98 o
1 6 12 7659.02 6748.74 233.06 o
2 6 12 2279.18 2065.75 83.73 o
3 6 12 6495.94 5938.41 171.10 o
4 6 12 2264.15 2377.45 116.98 o
5 6 12 4794.97 4948.89 262.75 o
6 6 12 1442.07 1916.24 328.19 o
0 7 12 3526.08 3280.76 134.67 o
1 7 12 2366.10 2203.00 86.82 o
2 7 12 7648.39 7037.21 212.17 o
3 7 12 2871.19 2711.40 114.68 o
4 7 12 3658.28 3588.49 196.75 o
5 7 12 1142.47 1205.31 275.27 o
0 8 12 1314.78 1104.19 100.63 o
1 8 12 4078.40 3705.70 165.18 o
2 8 12 1509.08 1446.55 106.13 o
3 8 12 4303.43 3816.58 211.21 o
1 1 13 752.78 876.00 62.55 o
1 2 13 31.02 33.13 8.83 o
2 2 13 652.05 591.78 47.40 o
1 3 13 952.24 935.02 63.08 o
2 3 13 12.70 32.31 8.86 o
3 3 13 16.89 19.55 23.32 o
1 4 13 57.37 37.52 8.55 o
2 4 13 8.73 1.63 4.86 o
3 4 13 26.60 31.16 6.31 o
4 4 13 919.19 966.40 132.95 o
1 5 13 6.05 8.20 8.01 o
2 5 13 1.68 -5.37 18.31 o
3 5 13 64.60 50.85 18.63 o
4 5 13 1.34 30.26 16.60 o
5 5 13 179.35 179.73 57.37 o
1 6 13 38.38 39.45 17.12 o
2 6 13 124.71 122.90 21.91 o
3 6 13 14.21 16.77 14.39 o
4 6 13 86.70 61.62 22.73 o
5 6 13 0.96 -25.08 26.86 o
6 6 13 446.04 771.92 209.71 o
1 7 13 58.11 24.35 7.42 o
2 7 13 1.01 12.46 20.81 o
3 7 13 48.38 35.24 14.50 o
4 7 13 0.48 22.25 30.93 o
1 8 13 11.42 16.84 28.32 o
2 8 13 40.99 37.65 22.79 o
3 8 13 2.56 18.35 48.57 o
0 0 14 2186.11 3337.88 260.82 o
0 1 14 30997.80 39177.84 901.80 o
1 1 14 7474.56 9260.80 329.98 o
0 2 14 2150.05 2416.25 145.35 o
1 2 14 22545.79 23194.22 984.50 o
2 2 14 3273.18 3097.67 262.56 o
0 3 14 16276.95 15078.95 1022.92 o
1 3 14 3651.56 3512.47 203.72 o
2 3 14 26192.57 23352.21 1769.20 o
3 3 14 3821.12 3671.36 593.16 o
0 4 14 4185.12 3687.52 256.00 o
1 4 14 19655.83 17885.38 1419.68 o
2 4 14 2649.46 2354.85 183.45 o
3 4 14 13220.13 12240.47 1240.04 o
4 4 14 1698.56 1890.70 345.99 o
0 5 14 21901.00 16186.21 742.73 o
1 5 14 1826.65 1695.18 105.95 o
2 5 14 9917.39 8627.33 501.84 o
3 5 14 1834.50 1934.13 207.35 o
4 5 14 12550.36 13326.66 1188.60 o
5 5 14 1948.52 2275.01 858.19 o
0 6 14 2761.78 2291.11 137.95 o
1 6 14 11591.76 9891.25 341.17 o
2 6 14 2195.55 2012.38 124.52 o
3 6 14 9825.08 9338.58 564.83 o
4 6 14 1405.50 1646.25 135.26 o
5 6 14 7074.15 9618.54 755.03 o
0 7 14 6314.94 5257.59 286.69 o
1 7 14 963.19 879.55 84.04 o
2 7 14 10568.51 8063.32 569.80 o
3 7 14 1003.83 845.65 131.31 o
1 1 15 1246.06 1603.85 86.29 o
1 2 15 1.87 18.78 7.69 o
2 2 15 44.32 59.99 18.98 o
1 3 15 90.24 89.63 11.39 o
2 3 15 1.10 4.79 11.29 o
3 3 15 557.94 337.10 87.77 o
1 4 15 4.71 -7.39 7.39 o
2 4 15 366.18 291.98 30.73 o
3 4 15 1.11 -12.06 17.65 o
4 4 15 41.40 69.14 41.80 o
1 5 15 21.16 6.08 14.27 o
2 5 15 0.03 18.23 21.67 o
3 5 15 20.96 -10.18 15.42 o
4 5 15 0.45 15.78 17.80 o
1 6 15 2.68 7.97 13.30 o
2 6 15 102.73 65.03 26.44 o
3 6 15 1.55 13.94 20.28 o
4 6 15 316.29 306.30 106.61 o
1 7 15 18.47 -2.97 22.25 o
2 7 15 0.05 -24.42 27.99 o
3 7 15 24.38 13.53 13.35 o
0 0 16 1347.21 2033.92 197.15 o
0 1 16 10709.92 14824.73 362.67 o
1 1 16 115.79 207.49 38.33 o
0 2 16 654.49 820.79 61.86 o
1 2 16 7307.35 8554.38 320.94 o
2 2 16 505.50 581.24 64.94 o
0 3 16 4903.13 5203.99 387.40 o
1 3 16 411.35 396.14 31.77 o
2 3 16 9951.01 10715.06 757.51 o
3 3 16 217.86 237.78 53.85 o
0 4 16 129.74 75.91 28.96 o
1 4 16 7144.13 7142.65 489.87 o
2 4 16 261.24 275.15 35.79 o
3 4 16 4608.37 4787.53 544.37 o
4 4 16 388.08 435.30 103.57 o
0 5 16 8894.56 8124.37 583.16 o
1 5 16 477.76 366.90 36.11 o
2 5 16 3279.92 3086.19 250.23 o
3 5 16 189.29 203.93 36.75 o
4 5 16 5149.15 4248.01 430.14 o
0 6 16 97.90 149.41 59.32 o
1 6 16 4484.80 3325.10 303.17 o
2 6 16 131.16 39.03 18.63 o
3 6 16 3889.51 2750.86 322.47 o
1 7 16 227.16 172.61 58.59 o
1 1 17 374.63 497.35 50.38 o
1 2 17 1.54 2.53 11.67 o
2 2 17 165.99 160.10 28.37 o
1 3 17 310.04 341.67 31.53 o
2 3 17 0.54 4.15 4.51 o
3 3 17 13.69 3.35 20.97 o
1 4 17 3.41 7.89 12.50 o
2 4 17 46.23 26.36 13.41 o
3 4 17 1.16 -4.13 11.54 o
4 4 17 184.64 162.97 71.19 o
1 5 17 18.41 0.98 11.39 o
2 5 17 0.15 12.72 13.61 o
3 5 17 0.88 21.12 21.80 o
1 6 17 2.03 25.58 37.45 o
2 6 17 14.74 54.13 30.96 o
0 0 18 4.95 112.24 50.94 o
0 1 18 5700.65 7758.67 227.80 o
1 1 18 4.15 53.80 20.20 o
0 2 18 101.92 131.97 26.61 o
1 2 18 3920.49 5008.47 129.19 o
2 2 18 8.65 29.46 21.92 o
0 3 18 2608.87 2904.10 216.84 o
1 3 18 0.94 0.55 11.52 o
2 3 18 5471.08 6152.21 339.36 o
3 3 18 4.20 8.21 26.29 o
0 4 18 47.01 47.23 24.99 o
1 4 18 3986.76 3857.21 247.79 o
2 4 18 24.46 18.54 19.85 o
3 4 18 2611.86 2426.46 180.30 o
4 4 18 2.51 70.26 68.59 o
0 5 18 5026.22 4281.23 1004.17 o
1 5 18 0.53 -48.27 48.27 o
2 5 18 1848.26 1592.49 143.89 o
3 5 18 45.42 70.63 62.85 o
1 1 19 322.06 488.65 58.27 o
1 2 19 7.54 7.89 11.56 o
2 2 19 12.40 16.34 15.19 o
1 3 19 111.09 144.05 23.44 o
2 3 19 4.02 0.31 12.56 o
3 3 19 8.53 28.39 71.00 o
1 4 19 14.99 5.41 14.80 o
2 4 19 5.64 11.57 12.12 o
3 4 19 5.89 -27.99 58.40 o
0 0 20 616.26 810.75 195.83 o
0 1 20 10194.77 14290.22 547.66 o
1 1 20 43.23 96.59 29.13 o
0 2 20 172.07 205.91 48.03 o
1 2 20 7931.08 9992.29 258.01 o
2 2 20 398.31 528.70 72.65 o
0 3 20 6215.56 6587.85 368.89 o
1 3 20 28.67 38.03 16.88 o
2 3 20 8707.90 10604.89 509.76 o
1 1 21 127.19 159.07 72.49 o
1 2 21 11.04 60.62 53.76 o
