#------------------------------------------------------------------------------
#$Date: 2019-11-24 10:29:40 +0200 (Sun, 24 Nov 2019) $
#$Revision: 237638 $
#$URL: file:///home/coder/svn-repositories/cod/cif/7/23/73/7237378.cif $
#------------------------------------------------------------------------------
#
# This file is available in the Crystallography Open Database (COD),
# http://www.crystallography.net/
#
# All data on this site have been placed in the public domain by the
# contributors.
#
data_7237378
loop_
_publ_author_name
'Paliwoda, Damian'
'Szafra\'nski, Marek'
'Hanfland, Michael'
'Katrusiak, Andrzej'
_publ_section_title
;
 A giant 2-dimensional dielectric response in a compressed hydrogen-bonded
 hybrid organic--inorganic salt
;
_journal_issue                   28
_journal_name_full               'Journal of Materials Chemistry C'
_journal_page_first              7689
_journal_paper_doi               10.1039/C8TC02464B
_journal_volume                  6
_journal_year                    2018
_chemical_formula_moiety         'C4 H5 N2 Au Cl4'
_chemical_formula_sum            'C4 H5 Au Cl4 N2'
_chemical_formula_weight         419.87
_chemical_name_common            'pyrazinium tetrachloroaurate'
_chemical_name_systematic
; 
pyrazinium tetrachloroaurate 
;
_space_group_IT_number           138
_space_group_name_Hall           '-P 4ac 2ac'
_space_group_name_H-M_alt        'P 42/n c m :2'
_symmetry_cell_setting           tetragonal
_symmetry_space_group_name_Hall  '-P 4ac 2ac'
_symmetry_space_group_name_H-M   'P 42/n c m :2'
_atom_sites_solution_hydrogens   geom
_atom_sites_solution_primary     direct
_atom_sites_solution_secondary   difmap
_audit_creation_method           SHELXL-97
_audit_update_record
;
2017-04-07 deposited with the CCDC.
2018-06-28 downloaded from the CCDC.
;
_cell_angle_alpha                90.00
_cell_angle_beta                 90.00
_cell_angle_gamma                90.00
_cell_formula_units_Z            4
_cell_length_a                   7.62920(10)
_cell_length_b                   7.62920(10)
_cell_length_c                   15.259(6)
_cell_measurement_reflns_used    1454
_cell_measurement_temperature    296(2)
_cell_measurement_theta_max      36.39
_cell_measurement_theta_min      4.01
_cell_volume                     888.1(3)
_computing_cell_refinement       'CrysAlisRED (Oxford Diffraction, 2004)'
_computing_data_collection       'CrysAlisCCD (Oxford Diffraction, 2004)'
_computing_data_reduction        'CrysAlisRED (Oxford Diffraction, 2004)'
_computing_molecular_graphics    'SHELXTL (Sheldrick, 1990)'
_computing_publication_material  'SHELXL--97 (Sheldrick, 1997)'
_computing_structure_refinement  'SHELXL--97 (Sheldrick, 1997)'
_computing_structure_solution    'SHELXS--97 (Sheldrick, 1997)'
_diffrn_ambient_environment      'diamond-anvil cell'
_diffrn_ambient_pressure         2010000
_diffrn_ambient_temperature      296(2)
_diffrn_measured_fraction_theta_full 0.249
_diffrn_measured_fraction_theta_max 0.249
_diffrn_measurement_device_type  Serial
_diffrn_measurement_method       \w/2\q
_diffrn_radiation_monochromator  Si(111)
_diffrn_radiation_source         synchrotron
_diffrn_radiation_type           synchrotron
_diffrn_radiation_wavelength     0.41438
_diffrn_reflns_av_R_equivalents  0.0320
_diffrn_reflns_av_sigmaI/netI    0.0309
_diffrn_reflns_limit_h_max       12
_diffrn_reflns_limit_h_min       -12
_diffrn_reflns_limit_k_max       12
_diffrn_reflns_limit_k_min       -11
_diffrn_reflns_limit_l_max       7
_diffrn_reflns_limit_l_min       -6
_diffrn_reflns_number            1454
_diffrn_reflns_theta_full        36.39
_diffrn_reflns_theta_max         36.39
_diffrn_reflns_theta_min         4.01
_diffrn_standards_decay_%        0
_diffrn_standards_interval_count 0
_diffrn_standards_number         0
_exptl_absorpt_coefficient_mu    17.700
_exptl_crystal_colour            orange
_exptl_crystal_density_diffrn    3.140
_exptl_crystal_density_method    'not measured'
_exptl_crystal_description       plate
_exptl_crystal_F_000             760
_exptl_crystal_size_max          0.05
_exptl_crystal_size_mid          0.04
_exptl_crystal_size_min          0.02
_refine_diff_density_max         0.957
_refine_diff_density_min         -0.640
_refine_diff_density_rms         0.152
_refine_ls_extinction_method     none
_refine_ls_goodness_of_fit_ref   1.150
_refine_ls_hydrogen_treatment    constr
_refine_ls_matrix_type           full
_refine_ls_number_parameters     33
_refine_ls_number_reflns         295
_refine_ls_number_restraints     52
_refine_ls_restrained_S_all      1.063
_refine_ls_R_factor_all          0.0606
_refine_ls_R_factor_gt           0.0499
_refine_ls_shift/su_max          0.000
_refine_ls_shift/su_mean         0.000
_refine_ls_structure_factor_coef Fsqd
_refine_ls_weighting_details
'calc w=1/[\s^2^(Fo^2^)+(0.0453P)^2^+10.9791P] where P=(Fo^2^+2Fc^2^)/3'
_refine_ls_weighting_scheme      calc
_refine_ls_wR_factor_gt          0.1112
_refine_ls_wR_factor_ref         0.1191
_reflns_number_gt                242
_reflns_number_total             295
_reflns_threshold_expression     >2sigma(I)
_cod_data_source_file            c8tc02464b2.cif
_cod_data_source_block           pyrazinium_tetrachloroaurate_20_10kbar
_cod_original_cell_volume        888.1(4)
_cod_original_sg_symbol_H-M      'P 42/n c m'
_cod_database_code               7237378
loop_
_symmetry_equiv_pos_as_xyz
'x, y, z'
'-x+1/2, -y+1/2, z'
'-y+1/2, x, z+1/2'
'y, -x+1/2, z+1/2'
'-x, y+1/2, -z+1/2'
'x+1/2, -y, -z+1/2'
'y+1/2, x+1/2, -z'
'-y, -x, -z'
'-x, -y, -z'
'x-1/2, y-1/2, -z'
'y-1/2, -x, -z-1/2'
'-y, x-1/2, -z-1/2'
'x, -y-1/2, z-1/2'
'-x-1/2, y, z-1/2'
'-y-1/2, -x-1/2, z'
'y, x, z'
loop_
_atom_site_label
_atom_site_type_symbol
_atom_site_fract_x
_atom_site_fract_y
_atom_site_fract_z
_atom_site_U_iso_or_equiv
_atom_site_adp_type
_atom_site_occupancy
_atom_site_symmetry_multiplicity
_atom_site_calc_flag
_atom_site_refinement_flags
Au1 Au 0.2500 0.2500 0.23332(16) 0.0264(17) Uani 1 4 d SU
Cl3 Cl 0.2500 0.2500 0.3791(16) 0.036(2) Uani 1 4 d SU
Cl4 Cl 0.2500 0.2500 0.0897(17) 0.037(2) Uani 1 4 d SU
N1 N 0.8719(4) 0.1281(4) 0.0000 0.035(3) Uani 1 2 d SDU
H1A H 0.9516 0.0484 0.0000 0.042 Uiso 0.50 2 calc SPR
C1 C 0.8145(9) 0.1845(9) 0.0772(6) 0.039(3) Uani 1 1 d DU
H1 H 0.8581 0.1389 0.1293 0.047 Uiso 1 1 calc R
Cl1 Cl 0.4604(4) 0.0396(4) 0.2297(6) 0.046(3) Uani 1 2 d SU
loop_
_atom_site_aniso_label
_atom_site_aniso_U_11
_atom_site_aniso_U_22
_atom_site_aniso_U_33
_atom_site_aniso_U_23
_atom_site_aniso_U_13
_atom_site_aniso_U_12
Au1 0.0258(3) 0.0258(3) 0.028(5) 0.000 0.000 0.0011(2)
Cl3 0.0367(12) 0.0367(12) 0.036(6) 0.000 0.000 0.0040(17)
Cl4 0.0388(13) 0.0388(13) 0.033(6) 0.000 0.000 -0.0025(18)
N1 0.033(3) 0.033(3) 0.038(9) 0.002(4) 0.002(4) 0.003(4)
C1 0.039(4) 0.038(4) 0.040(9) -0.002(6) 0.003(6) 0.002(4)
Cl1 0.0435(12) 0.0435(12) 0.051(8) 0.0027(17) -0.0027(17) 0.0158(15)
loop_
_atom_type_symbol
_atom_type_description
_atom_type_scat_dispersion_real
_atom_type_scat_dispersion_imag
_atom_type_scat_source
C C 0.0033 0.0016 'International Tables Vol C Tables 4.2.6.8 and 6.1.1.4'
H H 0.0000 0.0000 'International Tables Vol C Tables 4.2.6.8 and 6.1.1.4'
N N 0.0061 0.0033 'International Tables Vol C Tables 4.2.6.8 and 6.1.1.4'
Cl Cl 0.1484 0.1585 'International Tables Vol C Tables 4.2.6.8 and 6.1.1.4'
Au Au -2.0133 8.8022 'International Tables Vol C Tables 4.2.6.8 and 6.1.1.4'
loop_
_geom_angle_atom_site_label_1
_geom_angle_atom_site_label_2
_geom_angle_atom_site_label_3
_geom_angle
_geom_angle_site_symmetry_1
_geom_angle_site_symmetry_3
Cl4 Au1 Cl3 180.000(2) . .
Cl4 Au1 Cl1 88.6(2) . 2
Cl3 Au1 Cl1 91.4(2) . 2
Cl4 Au1 Cl1 88.6(2) . .
Cl3 Au1 Cl1 91.4(2) . .
Cl1 Au1 Cl1 177.2(5) 2 .
C1 N1 C1 124.9(7) 8_665 .
C1 C1 N1 117.6(3) 2_655 .
loop_
_geom_bond_atom_site_label_1
_geom_bond_atom_site_label_2
_geom_bond_distance
_geom_bond_site_symmetry_2
Au1 Cl4 2.19(3) .
Au1 Cl3 2.22(2) .
Au1 Cl1 2.270(4) 2
Au1 Cl1 2.270(4) .
N1 C1 1.328(8) 8_665
N1 C1 1.328(8) .
C1 C1 1.402(8) 2_655
loop_
_refln_index_h
_refln_index_k
_refln_index_l
_refln_F_squared_calc
_refln_F_squared_meas
_refln_F_squared_sigma
_refln_observed_status
4 6 0 24926.47 24033.25 454.11 o
6 6 0 12531.62 12424.82 370.11 o
1 7 0 24550.75 22508.64 272.37 o
5 7 0 8328.89 8400.12 162.97 o
7 7 0 7524.47 7447.32 450.09 o
0 8 0 13043.80 12940.92 185.48 o
2 8 0 15076.20 14505.46 189.95 o
4 8 0 7916.39 8155.77 150.97 o
6 8 0 7974.55 8445.92 453.72 o
1 9 0 11447.93 11931.68 194.53 o
3 9 0 7245.34 7383.84 151.74 o
5 9 0 6835.06 7508.57 204.26 o
0 10 0 7259.91 7429.99 660.95 o
2 10 0 4126.76 4141.57 120.46 o
4 10 0 4923.60 4806.12 207.87 o
3 11 0 3245.29 3499.07 115.11 o
5 11 0 1599.01 1636.07 158.46 o
4 12 0 1375.51 1260.83 163.39 o
1 1 1 701.63 415.20 16.35 o
1 2 1 2181.89 2763.43 31.28 o
2 2 1 4691.56 5944.94 64.72 o
1 3 1 1682.40 2417.67 33.25 o
2 3 1 863.79 912.13 22.59 o
3 3 1 1328.58 1233.40 34.17 o
1 4 1 2753.87 2659.25 35.76 o
2 4 1 413.87 359.80 14.93 o
3 4 1 1016.36 1064.45 30.53 o
4 4 1 571.64 579.58 25.37 o
1 5 1 4.60 12.82 3.35 o
2 5 1 90.72 79.16 9.03 o
3 5 1 68.25 69.04 8.46 o
4 5 1 255.55 226.02 12.93 o
5 5 1 171.04 158.98 19.33 o
1 6 1 1314.16 1174.41 25.98 o
2 6 1 3.87 20.40 13.36 o
3 6 1 692.82 647.21 27.02 o
4 6 1 24.18 12.15 12.66 o
5 6 1 33.88 30.20 9.14 o
6 6 1 186.24 118.47 22.78 o
1 7 1 23.11 17.48 4.49 o
2 7 1 8.04 29.93 6.31 o
3 7 1 4.25 19.17 6.03 o
4 7 1 5.06 27.68 10.43 o
5 7 1 11.47 26.61 20.45 o
6 7 1 0.41 72.29 31.84 o
1 8 1 395.97 336.61 19.11 o
2 8 1 7.68 17.15 6.75 o
3 8 1 99.08 97.42 24.65 o
4 8 1 4.54 21.61 11.25 o
5 8 1 20.44 12.26 8.71 o
6 8 1 0.48 33.93 16.88 o
1 9 1 2.37 36.92 13.20 o
2 9 1 14.56 14.48 5.98 o
3 9 1 6.24 15.79 8.97 o
4 9 1 7.20 13.67 8.53 o
5 9 1 12.96 97.27 25.07 o
6 9 1 67.89 53.27 24.66 o
1 10 1 34.86 36.92 15.16 o
2 10 1 3.44 12.75 7.92 o
3 10 1 17.97 26.37 10.32 o
4 10 1 12.61 14.46 19.62 o
5 10 1 11.80 33.62 26.79 o
2 11 1 3.32 14.81 22.38 o
4 11 1 35.84 46.28 20.33 o
5 11 1 22.25 42.46 37.31 o
4 12 1 3.35 29.86 25.89 o
0 2 2 16304.37 17578.50 225.68 o
1 2 2 1979.14 2296.20 51.94 o
0 3 2 997.09 1109.35 38.67 o
2 3 2 2779.37 3099.96 51.43 o
1 4 2 1766.20 1997.02 30.85 o
2 4 2 23269.52 24280.93 186.10 o
3 4 2 805.78 915.63 24.18 o
4 4 2 18992.06 18080.62 152.73 o
0 5 2 2053.62 2239.55 54.53 o
1 5 2 23722.65 22903.86 171.57 o
2 5 2 488.47 509.51 20.87 o
3 5 2 14613.42 14485.13 115.44 o
4 5 2 1001.53 994.05 24.41 o
5 5 2 20481.87 20053.78 179.80 o
0 6 2 20324.60 19187.69 190.79 o
1 6 2 754.05 784.80 22.79 o
2 6 2 17754.95 16704.04 118.43 o
3 6 2 721.46 766.38 29.02 o
4 6 2 12500.51 12232.31 129.15 o
5 6 2 346.95 346.85 18.43 o
6 6 2 5458.99 5502.28 124.32 o
0 7 2 262.72 235.21 24.87 o
1 7 2 10230.11 9598.14 91.34 o
2 7 2 792.55 815.04 26.06 o
3 7 2 12482.54 12081.75 123.96 o
4 7 2 251.56 249.81 20.68 o
5 7 2 3944.37 3708.46 76.94 o
6 7 2 222.33 209.66 21.60 o
7 7 2 6052.19 7271.27 750.43 o
0 8 2 6914.38 6739.46 119.51 o
1 8 2 358.41 331.28 17.58 o
2 8 2 10023.94 9424.16 98.24 o
3 8 2 303.61 266.88 18.68 o
4 8 2 5303.14 5366.06 113.74 o
5 8 2 175.83 121.34 15.82 o
6 8 2 3980.08 4189.55 157.95 o
0 9 2 353.89 296.27 32.11 o
1 9 2 5920.99 5668.20 86.96 o
2 9 2 147.43 105.30 15.68 o
3 9 2 2954.53 2789.06 71.00 o
4 9 2 183.09 143.62 28.39 o
5 9 2 4051.40 4451.68 140.35 o
6 9 2 108.58 105.43 36.72 o
0 10 2 4828.26 5390.10 213.16 o
1 10 2 151.09 84.56 13.00 o
2 10 2 2552.80 2462.43 94.02 o
3 10 2 102.94 58.21 15.09 o
4 10 2 3081.45 3167.82 94.83 o
5 10 2 107.83 64.37 18.66 o
1 11 2 1848.95 1968.27 110.07 o
2 11 2 95.47 17.47 14.77 o
3 11 2 2135.82 2459.82 97.53 o
4 11 2 64.24 72.39 100.19 o
5 11 2 1141.77 1364.45 95.67 o
3 12 2 53.03 23.04 28.88 o
4 12 2 674.40 418.52 52.50 o
2 2 3 554.67 432.76 49.88 o
1 3 3 51.96 11.73 6.25 o
2 3 3 638.65 589.16 29.47 o
3 3 3 570.41 424.12 29.12 o
1 4 3 2118.23 1980.12 42.38 o
2 4 3 85.84 63.51 8.16 o
3 4 3 810.66 791.25 28.38 o
4 4 3 57.27 42.42 8.79 o
1 5 3 0.08 9.83 4.35 o
2 5 3 78.89 66.67 7.44 o
3 5 3 40.59 13.97 4.73 o
4 5 3 185.44 126.88 12.56 o
5 5 3 13.52 18.87 6.55 o
1 6 3 1042.20 967.57 28.65 o
2 6 3 223.98 168.04 13.01 o
3 6 3 546.37 473.18 23.93 o
4 6 3 75.99 45.03 8.42 o
5 6 3 30.05 22.73 5.80 o
6 6 3 0.78 7.77 25.57 o
1 7 3 7.70 8.52 4.63 o
2 7 3 3.36 21.65 5.97 o
3 7 3 32.72 24.26 6.70 o
4 7 3 2.22 12.46 6.64 o
5 7 3 40.05 21.48 6.09 o
6 7 3 0.26 19.69 9.55 o
7 7 3 0.07 701.46 156.10 o
1 8 3 319.09 252.57 16.48 o
2 8 3 8.35 16.06 7.93 o
3 8 3 77.14 68.71 9.89 o
4 8 3 24.01 25.55 9.17 o
5 8 3 13.70 32.71 14.70 o
6 8 3 25.49 19.92 7.14 o
1 9 3 2.15 19.60 7.24 o
2 9 3 9.22 28.73 18.87 o
3 9 3 24.79 136.00 41.75 o
4 9 3 9.67 13.41 17.38 o
5 9 3 13.55 19.11 8.73 o
6 9 3 49.18 51.69 30.73 o
1 10 3 27.39 28.49 10.46 o
2 10 3 2.68 58.23 39.16 o
3 10 3 13.47 16.73 15.70 o
4 10 3 5.64 16.15 12.56 o
5 10 3 9.10 5.99 17.10 o
1 11 3 16.30 31.66 16.17 o
2 11 3 3.32 37.35 25.85 o
3 11 3 0.67 13.35 9.38 o
4 11 3 26.10 47.08 21.84 o
5 11 3 0.29 2.13 16.94 o
2 12 3 0.73 101.65 43.26 o
3 12 3 1.94 16.32 18.14 o
4 12 3 1.25 30.34 25.45 o
3 3 4 19276.87 18270.88 423.38 o
0 4 4 19952.03 19699.16 408.96 o
1 4 4 3977.36 4299.12 107.61 o
2 4 4 10718.64 9707.75 328.03 o
3 4 4 1786.06 1864.79 57.58 o
4 4 4 14542.93 15074.06 185.71 o
0 5 4 5410.72 5732.68 166.13 o
1 5 4 15328.05 15631.40 237.18 o
2 5 4 1076.84 1163.31 56.84 o
3 5 4 5557.33 5681.23 98.07 o
4 5 4 2646.33 2764.96 55.90 o
5 5 4 9875.97 10210.15 151.19 o
0 6 4 10142.43 10143.50 184.18 o
1 6 4 1801.64 1871.51 59.33 o
2 6 4 9271.25 9695.52 148.59 o
3 6 4 1852.25 1954.75 67.01 o
4 6 4 7074.09 6714.04 91.15 o
5 6 4 918.39 926.20 34.90 o
6 6 4 2935.32 3008.39 76.76 o
0 7 4 636.31 619.11 38.65 o
1 7 4 4602.41 4532.40 72.56 o
2 7 4 2211.45 2176.35 50.52 o
3 7 4 8019.72 8388.84 129.55 o
4 7 4 666.37 630.73 33.17 o
5 7 4 2558.02 2652.94 70.23 o
6 7 4 635.51 577.18 30.81 o
7 7 4 3347.50 4087.07 182.26 o
0 8 4 5050.01 5405.56 120.71 o
1 8 4 961.80 928.28 34.62 o
2 8 4 5722.72 5607.75 94.33 o
3 8 4 830.71 730.74 35.17 o
4 8 4 2059.92 2086.04 81.30 o
5 8 4 494.54 456.17 43.97 o
6 8 4 2332.53 2638.83 95.82 o
0 9 4 1005.02 1043.68 55.72 o
1 9 4 2942.26 3029.84 66.19 o
2 9 4 407.22 316.78 41.54 o
3 9 4 2066.39 2036.07 97.87 o
4 9 4 550.14 444.99 48.42 o
5 9 4 2831.81 3376.65 112.68 o
6 9 4 338.40 371.14 59.96 o
0 10 4 3014.11 3188.41 110.75 o
1 10 4 461.13 376.42 30.91 o
2 10 4 1423.56 1456.08 73.76 o
3 10 4 302.83 162.01 29.60 o
4 10 4 1805.83 2094.60 107.24 o
5 10 4 327.81 218.00 83.21 o
0 11 4 223.09 80.53 33.96 o
1 11 4 1288.90 1287.36 95.88 o
2 11 4 287.17 180.56 32.09 o
3 11 4 1231.63 1119.30 89.15 o
4 11 4 206.21 133.68 71.94 o
5 11 4 618.66 608.95 101.02 o
3 12 4 173.68 70.45 41.61 o
4 4 5 5.01 7.96 19.38 o
1 5 5 371.84 414.40 70.13 o
2 5 5 51.05 36.12 26.32 o
3 5 5 133.20 63.66 22.89 o
4 5 5 101.41 101.04 17.36 o
5 5 5 0.28 70.77 26.81 o
1 6 5 668.64 550.40 48.32 o
2 6 5 61.18 44.70 14.24 o
3 6 5 314.47 317.34 32.98 o
4 6 5 448.14 351.36 34.84 o
5 6 5 21.82 29.57 7.14 o
6 6 5 131.55 125.56 23.21 o
1 7 5 47.81 24.44 8.53 o
2 7 5 2.24 30.26 29.23 o
3 7 5 1.11 16.16 11.16 o
4 7 5 1.62 6.99 8.44 o
5 7 5 0.03 16.69 14.27 o
6 7 5 1.00 19.88 11.53 o
1 8 5 185.37 135.00 16.56 o
2 8 5 46.01 14.58 12.28 o
3 8 5 58.69 53.88 20.13 o
4 8 5 51.03 23.40 11.02 o
5 8 5 4.71 48.22 38.30 o
6 8 5 56.87 91.80 44.13 o
1 9 5 72.09 35.56 8.20 o
2 9 5 7.60 35.62 18.12 o
3 9 5 2.44 55.79 37.67 o
4 9 5 7.14 26.42 12.27 o
5 9 5 38.32 47.83 26.87 o
1 10 5 17.66 22.36 8.94 o
2 10 5 59.39 89.84 28.86 o
3 10 5 5.43 30.86 24.01 o
5 10 5 4.29 12.37 30.42 o
2 11 5 2.74 182.89 56.73 o
3 11 5 63.69 21.78 26.24 o
4 11 5 16.87 57.36 39.00 o
5 11 5 0.15 41.13 37.51 o
4 6 6 10593.74 9530.33 432.76 o
5 6 6 3717.75 3636.35 285.96 o
6 6 6 5949.29 6564.05 554.93 o
0 7 6 3404.08 3439.04 243.72 o
1 7 6 12657.09 11302.43 324.49 o
2 7 6 7244.84 7118.18 245.49 o
3 7 6 10854.63 10985.51 245.45 o
4 7 6 2907.36 3060.01 150.32 o
5 7 6 3266.10 3220.76 176.29 o
6 7 6 2260.78 2369.78 98.42 o
7 7 6 3438.80 3546.29 172.17 o
0 8 6 4081.00 3794.89 275.71 o
1 8 6 3678.21 3497.89 187.44 o
2 8 6 6438.23 6176.88 237.05 o
3 8 6 3084.84 3151.10 142.51 o
4 8 6 4776.89 4993.95 207.16 o
5 8 6 1830.05 1915.97 136.20 o
6 8 6 3810.06 4817.45 253.81 o
0 9 6 3262.82 3127.48 270.75 o
1 9 6 6068.48 6364.87 211.07 o
2 9 6 1682.14 1608.29 125.82 o
3 9 6 2959.19 1906.45 577.19 o
4 9 6 1799.11 1919.19 188.25 o
5 9 6 2630.95 3150.17 239.86 o
6 9 6 1081.66 1290.15 142.07 o
2 10 6 1948.71 1945.83 213.38 o
3 10 6 1079.95 1019.17 153.34 o
4 10 6 2351.86 2649.25 246.40 o
5 10 6 1009.39 1159.59 157.44 o
4 11 6 631.69 330.79 96.84 o
2 10 7 12.97 9.69 29.16 o
