#------------------------------------------------------------------------------
#$Date: 2019-11-24 10:29:40 +0200 (Sun, 24 Nov 2019) $
#$Revision: 237638 $
#$URL: file:///home/coder/svn-repositories/cod/cif/7/23/73/7237389.cif $
#------------------------------------------------------------------------------
#
# This file is available in the Crystallography Open Database (COD),
# http://www.crystallography.net/
#
# All data on this site have been placed in the public domain by the
# contributors.
#
data_7237389
loop_
_publ_author_name
'Paliwoda, Damian'
'Szafra\'nski, Marek'
'Hanfland, Michael'
'Katrusiak, Andrzej'
_publ_section_title
;
 A giant 2-dimensional dielectric response in a compressed hydrogen-bonded
 hybrid organic--inorganic salt
;
_journal_issue                   28
_journal_name_full               'Journal of Materials Chemistry C'
_journal_page_first              7689
_journal_paper_doi               10.1039/C8TC02464B
_journal_volume                  6
_journal_year                    2018
_chemical_formula_moiety         'C4 H5 N2 Au Cl4'
_chemical_formula_sum            'C4 H5 Au Cl4 N2'
_chemical_formula_weight         419.87
_chemical_name_common            'pyrazinium tetrachloroaurate'
_chemical_name_systematic
; 
pyrazinium tetrachloroaurate 
;
_space_group_IT_number           138
_space_group_name_Hall           '-P 4ac 2ac'
_space_group_name_H-M_alt        'P 42/n c m :2'
_symmetry_cell_setting           tetragonal
_symmetry_space_group_name_Hall  '-P 4ac 2ac'
_symmetry_space_group_name_H-M   'P 42/n c m :2'
_atom_sites_solution_hydrogens   geom
_atom_sites_solution_primary     direct
_atom_sites_solution_secondary   difmap
_audit_creation_method           SHELXL-97
_audit_update_record
;
2017-04-07 deposited with the CCDC.
2018-06-28 downloaded from the CCDC.
;
_cell_angle_alpha                90.00
_cell_angle_beta                 90.00
_cell_angle_gamma                90.00
_cell_formula_units_Z            4
_cell_length_a                   7.4964(2)
_cell_length_b                   7.4964(2)
_cell_length_c                   15.034(8)
_cell_measurement_reflns_used    1393
_cell_measurement_temperature    296(2)
_cell_measurement_theta_max      37.14
_cell_measurement_theta_min      4.08
_cell_volume                     844.9(5)
_computing_cell_refinement       'CrysAlisRED (Oxford Diffraction, 2004)'
_computing_data_collection       'CrysAlisCCD (Oxford Diffraction, 2004)'
_computing_data_reduction        'CrysAlisRED (Oxford Diffraction, 2004)'
_computing_molecular_graphics    'SHELXTL (Sheldrick, 1990)'
_computing_publication_material  'SHELXL--97 (Sheldrick, 1997)'
_computing_structure_refinement  'SHELXL--97 (Sheldrick, 1997)'
_computing_structure_solution    'SHELXS--97 (Sheldrick, 1997)'
_diffrn_ambient_environment      'diamond-anvil cell'
_diffrn_ambient_pressure         4035000
_diffrn_ambient_temperature      296(2)
_diffrn_measured_fraction_theta_full 0.237
_diffrn_measured_fraction_theta_max 0.237
_diffrn_measurement_device_type  Serial
_diffrn_measurement_method       \w/2\q
_diffrn_radiation_monochromator  Si(111)
_diffrn_radiation_source         synchrotron
_diffrn_radiation_type           synchrotron
_diffrn_radiation_wavelength     0.41438
_diffrn_reflns_av_R_equivalents  0.0310
_diffrn_reflns_av_sigmaI/netI    0.0334
_diffrn_reflns_limit_h_max       11
_diffrn_reflns_limit_h_min       -12
_diffrn_reflns_limit_k_max       12
_diffrn_reflns_limit_k_min       -12
_diffrn_reflns_limit_l_max       6
_diffrn_reflns_limit_l_min       -6
_diffrn_reflns_number            1393
_diffrn_reflns_theta_full        37.14
_diffrn_reflns_theta_max         37.14
_diffrn_reflns_theta_min         4.08
_diffrn_standards_decay_%        0
_diffrn_standards_interval_count 0
_diffrn_standards_number         0
_exptl_absorpt_coefficient_mu    18.607
_exptl_crystal_colour            orange
_exptl_crystal_density_diffrn    3.301
_exptl_crystal_density_method    'not measured'
_exptl_crystal_description       plate
_exptl_crystal_F_000             760
_exptl_crystal_size_max          0.05
_exptl_crystal_size_mid          0.04
_exptl_crystal_size_min          0.02
_refine_diff_density_max         0.997
_refine_diff_density_min         -0.821
_refine_diff_density_rms         0.156
_refine_ls_extinction_method     none
_refine_ls_goodness_of_fit_ref   1.247
_refine_ls_hydrogen_treatment    constr
_refine_ls_matrix_type           full
_refine_ls_number_parameters     33
_refine_ls_number_reflns         280
_refine_ls_number_restraints     52
_refine_ls_restrained_S_all      1.145
_refine_ls_R_factor_all          0.0619
_refine_ls_R_factor_gt           0.0512
_refine_ls_shift/su_max          0.000
_refine_ls_shift/su_mean         0.000
_refine_ls_structure_factor_coef Fsqd
_refine_ls_weighting_details
'calc w=1/[\s^2^(Fo^2^)+(0.0347P)^2^+13.6130P] where P=(Fo^2^+2Fc^2^)/3'
_refine_ls_weighting_scheme      calc
_refine_ls_wR_factor_gt          0.1145
_refine_ls_wR_factor_ref         0.1204
_reflns_number_gt                231
_reflns_number_total             280
_reflns_threshold_expression     >2sigma(I)
_cod_data_source_file            c8tc02464b2.cif
_cod_data_source_block           pyrazinium_tetrachloroaurate_40_35kbar
_cod_original_cell_volume        844.9(4)
_cod_original_sg_symbol_H-M      'P 42/n c m'
_cod_database_code               7237389
loop_
_symmetry_equiv_pos_as_xyz
'x, y, z'
'-x+1/2, -y+1/2, z'
'-y+1/2, x, z+1/2'
'y, -x+1/2, z+1/2'
'-x, y+1/2, -z+1/2'
'x+1/2, -y, -z+1/2'
'y+1/2, x+1/2, -z'
'-y, -x, -z'
'-x, -y, -z'
'x-1/2, y-1/2, -z'
'y-1/2, -x, -z-1/2'
'-y, x-1/2, -z-1/2'
'x, -y-1/2, z-1/2'
'-x-1/2, y, z-1/2'
'-y-1/2, -x-1/2, z'
'y, x, z'
loop_
_atom_site_label
_atom_site_type_symbol
_atom_site_fract_x
_atom_site_fract_y
_atom_site_fract_z
_atom_site_U_iso_or_equiv
_atom_site_adp_type
_atom_site_occupancy
_atom_site_symmetry_multiplicity
_atom_site_calc_flag
_atom_site_refinement_flags
Au1 Au 0.2500 0.2500 0.23125(18) 0.0275(17) Uani 1 4 d SU
Cl3 Cl 0.2500 0.2500 0.3787(16) 0.035(2) Uani 1 4 d SU
Cl4 Cl 0.2500 0.2500 0.0860(17) 0.036(2) Uani 1 4 d SU
N1 N 0.8740(4) 0.1260(4) 0.0000 0.033(4) Uani 1 2 d SDU
H1A H 0.9551 0.0449 0.0000 0.040 Uiso 0.50 2 calc SPR
C1 C 0.8153(10) 0.1831(10) 0.0783(6) 0.036(3) Uani 1 1 d DU
H1 H 0.8592 0.1360 0.1312 0.043 Uiso 1 1 calc R
Cl1 Cl 0.4637(4) 0.0363(4) 0.2261(7) 0.045(3) Uani 1 2 d SU
loop_
_atom_site_aniso_label
_atom_site_aniso_U_11
_atom_site_aniso_U_22
_atom_site_aniso_U_33
_atom_site_aniso_U_23
_atom_site_aniso_U_13
_atom_site_aniso_U_12
Au1 0.0248(4) 0.0248(4) 0.033(5) 0.000 0.000 0.0016(3)
Cl3 0.0337(12) 0.0337(12) 0.037(6) 0.000 0.000 0.0049(18)
Cl4 0.0358(13) 0.0358(13) 0.035(6) 0.000 0.000 -0.0024(19)
N1 0.032(3) 0.032(3) 0.036(9) 0.000(4) 0.000(4) 0.004(4)
C1 0.035(4) 0.035(4) 0.037(9) -0.002(6) 0.000(6) 0.002(4)
Cl1 0.0429(12) 0.0429(12) 0.048(9) 0.0017(19) -0.0017(19) 0.0163(16)
loop_
_atom_type_symbol
_atom_type_description
_atom_type_scat_dispersion_real
_atom_type_scat_dispersion_imag
_atom_type_scat_source
C C 0.0033 0.0016 'International Tables Vol C Tables 4.2.6.8 and 6.1.1.4'
H H 0.0000 0.0000 'International Tables Vol C Tables 4.2.6.8 and 6.1.1.4'
N N 0.0061 0.0033 'International Tables Vol C Tables 4.2.6.8 and 6.1.1.4'
Cl Cl 0.1484 0.1585 'International Tables Vol C Tables 4.2.6.8 and 6.1.1.4'
Au Au -2.0133 8.8022 'International Tables Vol C Tables 4.2.6.8 and 6.1.1.4'
loop_
_geom_angle_atom_site_label_1
_geom_angle_atom_site_label_2
_geom_angle_atom_site_label_3
_geom_angle
_geom_angle_site_symmetry_1
_geom_angle_site_symmetry_3
Cl4 Au1 Cl3 180.000(2) . .
Cl4 Au1 Cl1 88.0(3) . 2
Cl3 Au1 Cl1 92.0(3) . 2
Cl4 Au1 Cl1 88.0(3) . .
Cl3 Au1 Cl1 92.0(3) . .
Cl1 Au1 Cl1 176.1(6) 2 .
C1 N1 C1 124.9(7) 8_665 .
C1 C1 N1 117.5(4) 2_655 .
loop_
_geom_bond_atom_site_label_1
_geom_bond_atom_site_label_2
_geom_bond_distance
_geom_bond_site_symmetry_2
Au1 Cl4 2.18(2) .
Au1 Cl3 2.22(2) .
Au1 Cl1 2.267(4) 2
Au1 Cl1 2.267(4) .
N1 C1 1.328(8) 8_665
N1 C1 1.328(8) .
C1 C1 1.402(8) 2_655
loop_
_refln_index_h
_refln_index_k
_refln_index_l
_refln_F_squared_calc
_refln_F_squared_meas
_refln_F_squared_sigma
_refln_observed_status
4 6 0 23924.75 24022.37 307.83 o
6 6 0 12788.17 13547.41 411.87 o
1 7 0 24746.99 24128.08 477.26 o
3 7 0 26211.30 26124.00 811.06 o
5 7 0 8479.84 8433.10 176.97 o
0 8 0 13789.26 13525.02 362.14 o
2 8 0 14265.95 13744.39 191.58 o
4 8 0 8165.56 8403.98 154.89 o
6 8 0 8257.67 8651.12 501.42 o
1 9 0 11476.22 11866.68 170.02 o
3 9 0 7245.35 7367.25 210.91 o
5 9 0 6809.30 6992.76 209.58 o
0 10 0 6868.45 6259.68 419.11 o
2 10 0 4323.62 4320.90 123.19 o
4 10 0 5007.48 5108.15 178.05 o
3 11 0 3268.59 3506.30 116.21 o
5 11 0 1522.96 1475.63 173.41 o
4 12 0 1356.57 1420.33 143.52 o
1 1 1 614.52 327.08 15.10 o
1 2 1 1818.15 2428.21 31.26 o
2 2 1 4674.81 6130.73 70.07 o
1 3 1 1776.51 2612.63 37.01 o
2 3 1 843.11 868.07 23.95 o
3 3 1 1173.20 1114.37 34.26 o
1 4 1 2416.28 2371.22 36.30 o
2 4 1 375.16 313.48 14.66 o
3 4 1 931.73 1012.96 29.66 o
4 4 1 563.26 578.02 26.59 o
1 5 1 13.22 23.55 5.01 o
2 5 1 99.31 71.14 7.49 o
3 5 1 71.83 70.47 8.50 o
4 5 1 388.57 339.94 15.82 o
5 5 1 171.61 115.68 22.15 o
1 6 1 1204.84 1094.46 26.63 o
2 6 1 4.03 28.68 15.27 o
3 6 1 785.38 713.06 29.99 o
4 6 1 26.19 18.24 9.77 o
5 6 1 54.96 33.70 8.06 o
6 6 1 187.55 122.81 20.80 o
1 7 1 18.04 13.06 5.84 o
2 7 1 34.48 19.64 5.78 o
3 7 1 4.56 15.56 7.78 o
4 7 1 0.30 16.31 9.15 o
5 7 1 8.30 19.98 12.21 o
6 7 1 27.81 42.36 20.00 o
1 8 1 437.25 415.25 18.75 o
2 8 1 6.45 23.82 6.43 o
3 8 1 116.37 116.10 12.70 o
4 8 1 4.08 10.24 10.86 o
5 8 1 66.14 19.14 10.98 o
6 8 1 2.63 45.74 22.60 o
1 9 1 2.18 14.41 9.71 o
2 9 1 6.48 21.70 6.42 o
3 9 1 8.21 9.96 9.33 o
4 9 1 1.79 26.86 12.04 o
5 9 1 18.24 39.14 18.21 o
1 10 1 49.34 47.19 12.22 o
2 10 1 2.64 25.90 10.01 o
3 10 1 42.38 41.98 14.05 o
4 10 1 18.90 9.79 10.21 o
5 10 1 8.34 21.32 10.64 o
2 11 1 0.14 60.09 26.38 o
3 11 1 3.48 3.86 13.90 o
4 11 1 27.74 10.95 24.07 o
5 11 1 26.10 119.65 54.92 o
3 12 1 1.56 39.96 25.23 o
0 2 2 15679.90 16776.54 190.62 o
1 2 2 2448.70 2765.74 58.83 o
0 3 2 1204.25 1346.98 44.21 o
2 3 2 3378.97 3834.62 56.63 o
1 4 2 2202.25 2417.77 38.51 o
2 4 2 21144.25 22014.38 166.21 o
3 4 2 958.15 1050.46 27.94 o
4 4 2 18990.82 18437.98 172.60 o
0 5 2 2495.68 2623.09 63.04 o
1 5 2 22230.39 21286.43 134.34 o
2 5 2 570.78 595.85 24.47 o
3 5 2 14756.35 14504.75 123.76 o
4 5 2 1259.82 1243.16 27.85 o
5 5 2 18652.42 18449.20 248.37 o
0 6 2 18063.38 17250.68 198.07 o
1 6 2 903.10 926.95 28.08 o
2 6 2 17951.67 16788.62 134.80 o
3 6 2 932.71 968.06 34.99 o
4 6 2 11518.20 11353.49 131.55 o
5 6 2 387.88 363.50 19.47 o
6 6 2 5233.62 5376.90 130.00 o
0 7 2 307.62 310.98 24.96 o
1 7 2 9930.10 9456.77 95.97 o
2 7 2 989.77 957.60 29.61 o
3 7 2 11429.46 11030.99 125.56 o
4 7 2 276.56 239.33 19.73 o
5 7 2 3881.27 3602.69 77.65 o
6 7 2 291.43 214.84 25.21 o
0 8 2 7129.21 6959.34 126.51 o
1 8 2 444.88 445.06 21.20 o
2 8 2 9074.36 8744.74 125.69 o
3 8 2 343.99 322.80 21.98 o
4 8 2 5170.18 5331.69 101.09 o
5 8 2 237.78 183.97 26.94 o
6 8 2 3789.07 3892.71 157.65 o
0 9 2 450.60 386.22 30.07 o
1 9 2 5560.08 5381.27 86.40 o
2 9 2 167.30 74.50 15.05 o
3 9 2 2831.96 2543.88 77.10 o
4 9 2 236.49 228.70 26.51 o
5 9 2 3980.13 4558.04 109.95 o
6 9 2 119.13 83.62 36.26 o
0 10 2 4406.07 4594.81 239.77 o
1 10 2 176.25 107.41 21.98 o
2 10 2 2535.72 2383.43 95.20 o
3 10 2 132.90 81.74 20.80 o
4 10 2 2874.17 3028.88 98.53 o
5 10 2 121.12 103.20 20.78 o
1 11 2 1734.96 1991.08 158.06 o
2 11 2 124.38 79.06 31.66 o
3 11 2 2108.12 2216.25 93.81 o
4 11 2 72.65 70.01 29.95 o
5 11 2 1031.33 1628.91 211.91 o
3 12 2 60.41 27.77 20.60 o
4 12 2 618.14 357.66 53.97 o
2 2 3 528.40 443.48 57.78 o
1 3 3 153.32 71.42 13.02 o
2 3 3 571.82 544.41 26.83 o
3 3 3 645.31 451.57 31.77 o
1 4 3 1781.55 1650.37 41.35 o
2 4 3 63.81 50.52 7.46 o
3 4 3 709.57 703.75 24.32 o
4 4 3 61.79 29.78 7.91 o
1 5 3 4.49 7.69 4.21 o
2 5 3 93.73 83.16 9.51 o
3 5 3 76.82 20.41 7.62 o
4 5 3 256.43 197.98 13.36 o
5 5 3 18.17 7.00 10.53 o
1 6 3 905.37 791.51 27.35 o
2 6 3 224.01 154.67 12.18 o
3 6 3 593.30 512.74 26.29 o
4 6 3 89.70 57.44 10.03 o
5 6 3 48.86 45.43 8.17 o
6 6 3 1.91 14.26 10.05 o
1 7 3 14.75 14.64 7.91 o
2 7 3 16.67 14.28 7.89 o
3 7 3 23.81 19.27 6.35 o
4 7 3 1.61 30.58 8.46 o
5 7 3 35.80 26.81 7.20 o
6 7 3 12.38 21.58 5.22 o
7 7 3 1.58 22.29 13.81 o
1 8 3 333.83 258.27 18.08 o
2 8 3 14.69 26.28 9.79 o
3 8 3 87.91 69.21 12.18 o
4 8 3 27.07 52.64 22.06 o
5 8 3 45.25 32.11 10.15 o
6 8 3 30.97 35.79 21.99 o
1 9 3 0.65 33.26 12.56 o
2 9 3 2.56 36.28 19.36 o
3 9 3 24.10 45.77 16.49 o
4 9 3 0.25 30.49 22.53 o
5 9 3 22.22 29.83 14.29 o
1 10 3 37.72 64.65 22.98 o
2 10 3 2.16 15.61 13.11 o
3 10 3 30.16 30.47 13.24 o
4 10 3 8.27 10.92 9.48 o
5 10 3 5.44 9.75 9.42 o
2 11 3 0.37 29.68 16.90 o
3 11 3 1.94 45.35 17.06 o
4 12 3 1.88 803.50 147.18 o
3 3 4 16744.75 16672.75 339.50 o
0 4 4 19247.25 19205.46 429.67 o
1 4 4 4849.97 5186.89 129.23 o
2 4 4 9552.46 8950.57 208.09 o
3 4 4 2066.20 2317.49 71.83 o
4 4 4 14068.63 15010.63 203.22 o
0 5 4 6514.47 6697.29 198.36 o
1 5 4 13609.68 13606.50 250.68 o
2 5 4 1268.40 1424.87 68.81 o
3 5 4 5536.49 5752.12 107.24 o
4 5 4 3314.69 3423.73 67.09 o
5 5 4 8631.38 9011.89 177.81 o
0 6 4 8912.71 8608.63 180.14 o
1 6 4 2111.59 2077.76 67.25 o
2 6 4 9176.39 9640.27 159.02 o
3 6 4 2327.09 2301.93 76.89 o
4 6 4 6037.91 5649.35 86.09 o
5 6 4 982.42 948.09 37.45 o
6 6 4 2654.31 2780.82 75.46 o
0 7 4 719.71 693.28 43.84 o
1 7 4 4159.31 3937.44 74.24 o
2 7 4 2720.61 2565.42 72.36 o
3 7 4 7090.02 7254.58 139.03 o
4 7 4 726.26 658.01 36.29 o
5 7 4 2459.35 2454.81 71.34 o
6 7 4 827.70 817.68 65.10 o
7 7 4 3031.36 4607.86 236.21 o
0 8 4 5093.77 5346.40 142.49 o
1 8 4 1174.30 1163.65 42.83 o
2 8 4 4888.02 4526.65 80.28 o
3 8 4 907.88 779.94 35.98 o
4 8 4 1905.36 1928.58 82.77 o
5 8 4 646.46 580.36 68.94 o
6 8 4 2143.23 2559.13 148.09 o
0 9 4 1244.84 1266.56 67.87 o
1 9 4 2626.92 2736.97 69.20 o
2 9 4 441.93 272.97 24.42 o
3 9 4 1869.87 1646.26 123.33 o
4 9 4 695.41 628.79 55.99 o
5 9 4 2566.72 3060.49 164.10 o
0 10 4 2523.86 2737.68 111.83 o
1 10 4 526.55 441.85 50.46 o
2 10 4 1355.05 1346.75 76.18 o
3 10 4 386.66 204.42 49.98 o
4 10 4 1643.43 1882.85 120.77 o
5 10 4 355.85 917.47 866.72 o
1 11 4 1163.52 1270.52 104.20 o
2 11 4 358.61 254.49 39.66 o
3 11 4 1111.96 1099.51 128.90 o
4 11 4 224.44 200.33 65.65 o
5 11 4 509.57 687.71 107.15 o
4 4 5 15.04 53.69 39.26 o
1 5 5 530.90 575.63 88.40 o
2 5 5 51.38 26.96 25.69 o
3 5 5 83.35 26.40 11.84 o
4 5 5 130.51 91.22 18.53 o
5 5 5 0.25 4.23 12.61 o
1 6 5 517.14 421.31 45.32 o
2 6 5 70.75 59.46 19.24 o
3 6 5 300.01 318.24 36.14 o
4 6 5 477.17 368.72 38.98 o
5 6 5 32.47 23.98 8.49 o
6 6 5 129.19 121.53 25.20 o
1 7 5 20.61 21.45 29.39 o
2 7 5 9.58 39.51 15.87 o
3 7 5 0.59 13.36 16.86 o
4 7 5 0.75 18.54 10.10 o
5 7 5 0.90 144.18 437.54 o
6 7 5 4.51 8.08 11.42 o
1 8 5 175.10 79.95 14.47 o
2 8 5 43.19 15.04 10.04 o
3 8 5 58.97 15.80 11.26 o
4 8 5 56.55 10.97 8.63 o
5 8 5 17.76 104.83 53.77 o
6 8 5 92.82 96.35 37.95 o
1 9 5 72.87 39.19 23.41 o
2 9 5 2.00 30.55 30.70 o
3 9 5 8.41 31.62 12.00 o
4 9 5 0.19 3.32 7.95 o
5 9 5 56.46 27.00 26.69 o
1 10 5 21.95 25.57 13.02 o
2 10 5 66.39 45.82 39.65 o
3 10 5 12.87 20.59 15.56 o
5 10 5 2.01 37.10 33.32 o
3 11 5 75.41 89.02 48.37 o
4 6 6 9048.41 8143.54 425.66 o
5 6 6 4168.12 3984.16 279.33 o
6 6 6 5398.07 5867.31 303.16 o
0 7 6 4014.70 3920.22 280.18 o
1 7 6 11510.12 10518.14 403.18 o
2 7 6 8800.83 8532.68 512.72 o
3 7 6 9005.29 8611.47 233.25 o
4 7 6 3293.65 3121.99 140.59 o
5 7 6 2852.77 2629.28 130.46 o
6 7 6 2870.42 3481.82 132.67 o
7 7 6 2896.13 3901.86 187.07 o
0 8 6 3630.78 3494.79 290.82 o
1 8 6 4458.53 4283.40 312.19 o
2 8 6 5227.38 4706.73 187.34 o
3 8 6 3472.86 3158.17 471.68 o
4 8 6 4335.58 4341.10 262.43 o
5 8 6 2340.49 2447.52 161.52 o
6 8 6 3370.32 4694.64 262.82 o
0 9 6 3963.34 3775.43 325.69 o
1 9 6 5271.17 5118.37 245.78 o
2 9 6 1909.13 1651.90 191.39 o
3 9 6 2598.00 1632.03 375.41 o
4 9 6 2260.21 2438.42 219.93 o
5 9 6 2255.50 3163.32 244.23 o
2 10 6 1769.65 1557.94 199.41 o
3 10 6 1353.50 1041.71 152.89 o
4 10 6 1993.23 2318.47 225.87 o
5 10 6 1118.96 1774.09 203.81 o
4 11 6 717.13 606.56 122.89 o
