#------------------------------------------------------------------------------
#$Date: 2019-11-24 09:31:59 +0200 (Sun, 24 Nov 2019) $
#$Revision: 237472 $
#$URL: file:///home/coder/svn-repositories/cod/cif/7/23/71/7237194.cif $
#------------------------------------------------------------------------------
#
# This file is available in the Crystallography Open Database (COD),
# http://www.crystallography.net/
#
# All data on this site have been placed in the public domain by the
# contributors.
#
data_7237194
loop_
_publ_author_name
'Dalinger, Igor L.'
'Serushkina, Olga V.'
'Muravyev, Nikita V.'
'Meerov, Dmitry B.'
'Miroshnichenko, Evgeniy A.'
'Kon'kova, Tatyana S.'
'Suponitsky, Kyrill Yu.'
'Vener, Mikhail V.'
'Sheremetev, Aleksei B.'
_publ_section_title
;
 Azasydnone -- novel &#x201C;green&#x201D; building block for designing
 high energetic compounds
;
_journal_issue                   38
_journal_name_full               'Journal of Materials Chemistry A'
_journal_page_first              18669
_journal_paper_doi               10.1039/C8TA06895J
_journal_volume                  6
_journal_year                    2018
_chemical_formula_moiety         'C6 H3 N5 O4'
_chemical_formula_sum            'C6 H3 N5 O4'
_chemical_formula_weight         209.13
_space_group_crystal_system      orthorhombic
_space_group_IT_number           33
_space_group_name_Hall           'P 2c -2n'
_space_group_name_H-M_alt        'P n a 21'
_atom_sites_solution_hydrogens   difmap
_atom_sites_solution_primary     direct
_atom_sites_solution_secondary   difmap
_audit_creation_method           SHELXL-2014/6
_audit_update_record
;
2018-07-05 deposited with the CCDC.
2018-09-06 downloaded from the CCDC.
;
_cell_angle_alpha                90
_cell_angle_beta                 90
_cell_angle_gamma                90
_cell_formula_units_Z            4
_cell_length_a                   9.7268(6)
_cell_length_b                   8.3199(5)
_cell_length_c                   9.8210(6)
_cell_measurement_reflns_used    3266
_cell_measurement_temperature    100(2)
_cell_measurement_theta_max      29.20
_cell_measurement_theta_min      3.21
_cell_volume                     794.77(8)
_computing_cell_refinement       'SAINT (Bruker, 2009)'
_computing_data_collection       'APEX (Bruker, 2009)'
_computing_data_reduction        'SAINT (Bruker, 2009)'
_computing_molecular_graphics    'SHELXL-2014/6 (Sheldrick, 2014)'
_computing_publication_material
'SHELXL-2014/6 (Sheldrick, 2014) and PLATON (Spek, 2009)'
_computing_structure_refinement  'SHELXL-2014/6 (Sheldrick, 2014)'
_computing_structure_solution    'SHELXL-2014/6 (Sheldrick, 2014)'
_diffrn_ambient_temperature      100(2)
_diffrn_measured_fraction_theta_full 1.000
_diffrn_measured_fraction_theta_max 0.999
_diffrn_measurement_device_type  'Bruker APEX-II CCD'
_diffrn_measurement_method       '\f and \w scans'
_diffrn_radiation_type           MoK\a
_diffrn_radiation_wavelength     0.71073
_diffrn_reflns_av_R_equivalents  0.0263
_diffrn_reflns_av_unetI/netI     0.0239
_diffrn_reflns_Laue_measured_fraction_full 1.000
_diffrn_reflns_Laue_measured_fraction_max 0.999
_diffrn_reflns_limit_h_max       10
_diffrn_reflns_limit_h_min       -13
_diffrn_reflns_limit_k_max       11
_diffrn_reflns_limit_k_min       -11
_diffrn_reflns_limit_l_max       13
_diffrn_reflns_limit_l_min       -13
_diffrn_reflns_number            7840
_diffrn_reflns_point_group_measured_fraction_full 1.000
_diffrn_reflns_point_group_measured_fraction_max 0.998
_diffrn_reflns_theta_full        25.242
_diffrn_reflns_theta_max         29.196
_diffrn_reflns_theta_min         3.209
_diffrn_source                   'sealed tube'
_exptl_absorpt_coefficient_mu    0.150
_exptl_absorpt_correction_type   none
_exptl_crystal_colour            yellow
_exptl_crystal_density_diffrn    1.748
_exptl_crystal_description       prizm
_exptl_crystal_F_000             424
_exptl_crystal_size_max          0.28
_exptl_crystal_size_mid          0.25
_exptl_crystal_size_min          0.19
_refine_diff_density_max         0.264
_refine_diff_density_min         -0.173
_refine_diff_density_rms         0.039
_refine_ls_abs_structure_details
;
 Flack x determined using 887 quotients [(I+)-(I-)]/[(I+)+(I-)]
 (Parsons, Flack and Wagner, Acta Cryst. B69 (2013) 249-259).
;
_refine_ls_abs_structure_Flack   -0.4(5)
_refine_ls_extinction_method     none
_refine_ls_goodness_of_fit_ref   1.043
_refine_ls_hydrogen_treatment    refall
_refine_ls_matrix_type           full
_refine_ls_number_parameters     148
_refine_ls_number_reflns         2149
_refine_ls_number_restraints     1
_refine_ls_restrained_S_all      1.042
_refine_ls_R_factor_all          0.0317
_refine_ls_R_factor_gt           0.0280
_refine_ls_shift/su_max          0.000
_refine_ls_shift/su_mean         0.000
_refine_ls_structure_factor_coef Fsqd
_refine_ls_weighting_details
'w=1/[\s^2^(Fo^2^)+(0.0307P)^2^+0.1593P] where P=(Fo^2^+2Fc^2^)/3'
_refine_ls_weighting_scheme      calc
_refine_ls_wR_factor_gt          0.0648
_refine_ls_wR_factor_ref         0.0668
_reflns_Friedel_coverage         0.892
_reflns_Friedel_fraction_full    1.000
_reflns_Friedel_fraction_max     0.996
_reflns_number_gt                1984
_reflns_number_total             2149
_reflns_threshold_expression     'I > 2\s(I)'
_cod_data_source_file            c8ta06895j3.cif
_cod_data_source_block           sh371
_cod_database_code               7237194
_shelx_space_group_comment
;
The symmetry employed for this shelxl refinement is uniquely defined
by the following loop, which should always be used as a source of
symmetry information in preference to the above space-group names.
They are only intended as comments.
;
_shelxl_version_number           2014/6
_shelx_res_file
;
TITL sh4 in Pna2(1)
CELL 0.71073 9.7268 8.3199 9.821 90 90 90
ZERR 4 0.0006 0.0005 0.0006 0 0 0
LATT -1
SYMM -X,-Y,0.5+Z
SYMM 0.5+X,0.5-Y,+Z
SYMM 0.5-X,0.5+Y,0.5+Z
SFAC C H N O
UNIT 24 12 20 16
TEMP -173.000

ACTA
CONF
HTAB

L.S. 6
BOND $H
FMAP 2
PLAN  10

WGHT    0.030700    0.159300
FVAR       0.22202
O1    4    0.827074    0.093967    0.258797    11.00000    0.02394    0.01893 =
         0.02780   -0.00366    0.00655    0.00291
O2    4    0.644285    0.063593    0.383051    11.00000    0.02373    0.01774 =
         0.02924    0.00034    0.00460   -0.00492
O3    4    0.406029    0.517586    0.558564    11.00000    0.02347    0.03133 =
         0.03164   -0.00684    0.01199   -0.00415
O4    4    0.493232    0.756474    0.543038    11.00000    0.02572    0.02195 =
         0.02092   -0.00516   -0.00218    0.00699
N1    3    0.904827    0.697538    0.248610    11.00000    0.02130    0.01608 =
         0.02366    0.00106    0.00387   -0.00114
N2    3    1.000769    0.641642    0.178800    11.00000    0.02192    0.01684 =
         0.01577    0.00392   -0.00238   -0.00265
N3    3    1.092406    0.611574    0.113531    11.00000    0.02243    0.02904 =
         0.02138    0.00339    0.00284   -0.00210
N4    3    0.731752    0.147129    0.326474    11.00000    0.01852    0.01542 =
         0.01836   -0.00136   -0.00171   -0.00082
N5    3    0.494393    0.611608    0.518869    11.00000    0.01813    0.02356 =
         0.01547   -0.00325   -0.00003    0.00190
C1    1    0.810841    0.585247    0.304792    11.00000    0.01578    0.01716 =
         0.01482    0.00121   -0.00187   -0.00154
C2    1    0.820635    0.419357    0.284830    11.00000    0.01439    0.01674 =
         0.01412   -0.00148   -0.00136    0.00090
C3    1    0.721475    0.323127    0.343529    11.00000    0.01714    0.01280 =
         0.01518   -0.00063   -0.00355    0.00113
C4    1    0.612908    0.381491    0.418878    11.00000    0.01577    0.01841 =
         0.01417    0.00033   -0.00131   -0.00240
C5    1    0.608382    0.546453    0.437090    11.00000    0.01429    0.01869 =
         0.01379   -0.00231   -0.00193    0.00195
C6    1    0.704975    0.650577    0.383290    11.00000    0.01958    0.01519 =
         0.01597   -0.00181   -0.00306    0.00107
H2    2    0.890612    0.373716    0.233554    11.00000    0.01527
H6    2    0.696950    0.757186    0.396644    11.00000    0.01547
H4    2    0.547189    0.310885    0.457666    11.00000    0.02954
HKLF 4

REM  sh4 in Pna2(1)
REM R1 =  0.0280 for    1984 Fo > 4sig(Fo)  and  0.0317 for all    2149 data
REM    148 parameters refined using      1 restraints

END

WGHT      0.0307      0.1593

REM Instructions for potential hydrogen bonds
EQIV $1 -x+3/2, y-1/2, z-1/2
HTAB C2 O4_$1
EQIV $2 x, y+1, z
HTAB C6 O2_$2
EQIV $3 -x+3/2, y-1/2, z+1/2
HTAB C4 N2_$3
HTAB C4 N3_$3

REM Highest difference peak  0.264,  deepest hole -0.173,  1-sigma level  0.039
Q1    1   0.8182  0.5028  0.3003  11.00000  0.05    0.26
Q2    1   0.6631  0.5971  0.4281  11.00000  0.05    0.23
Q3    1   0.6134  0.4633  0.4232  11.00000  0.05    0.22
Q4    1   0.6822  0.3497  0.4032  11.00000  0.05    0.20
Q5    1   0.7306  0.2422  0.3438  11.00000  0.05    0.19
Q6    1   0.7417  0.6146  0.3264  11.00000  0.05    0.18
Q7    1   0.7819  0.3770  0.3345  11.00000  0.05    0.18
Q8    1   0.5566  0.5756  0.4725  11.00000  0.05    0.18
Q9    1   0.8807  0.7889  0.2446  11.00000  0.05    0.15
Q10   1   0.6979  0.3577  0.1813  11.00000  0.05    0.14
;
_shelx_res_checksum              30123
loop_
_space_group_symop_operation_xyz
'x, y, z'
'-x, -y, z+1/2'
'x+1/2, -y+1/2, z'
'-x+1/2, y+1/2, z+1/2'
loop_
_atom_site_label
_atom_site_type_symbol
_atom_site_fract_x
_atom_site_fract_y
_atom_site_fract_z
_atom_site_U_iso_or_equiv
_atom_site_adp_type
_atom_site_occupancy
_atom_site_site_symmetry_order
_atom_site_calc_flag
O1 O 0.82707(15) 0.09397(17) 0.25880(16) 0.0236(3) Uani 1 1 d
O2 O 0.64428(15) 0.06359(16) 0.38305(17) 0.0236(3) Uani 1 1 d
O3 O 0.40603(16) 0.5176(2) 0.55856(16) 0.0288(4) Uani 1 1 d
O4 O 0.49323(15) 0.75647(17) 0.54304(15) 0.0229(3) Uani 1 1 d
N1 N 0.90483(18) 0.6975(2) 0.24861(18) 0.0203(3) Uani 1 1 d
N2 N 1.00077(18) 0.64164(19) 0.17880(17) 0.0182(3) Uani 1 1 d
N3 N 1.09241(19) 0.6116(2) 0.11353(18) 0.0243(4) Uani 1 1 d
N4 N 0.73175(17) 0.14713(19) 0.32647(17) 0.0174(3) Uani 1 1 d
N5 N 0.49439(17) 0.6116(2) 0.51887(16) 0.0190(3) Uani 1 1 d
C1 C 0.81084(19) 0.5852(2) 0.30479(18) 0.0159(4) Uani 1 1 d
C2 C 0.82064(19) 0.4194(2) 0.28483(18) 0.0151(4) Uani 1 1 d
C3 C 0.7215(2) 0.3231(2) 0.34353(18) 0.0150(4) Uani 1 1 d
C4 C 0.6129(2) 0.3815(2) 0.41888(18) 0.0161(4) Uani 1 1 d
C5 C 0.6084(2) 0.5465(2) 0.43709(19) 0.0156(3) Uani 1 1 d
C6 C 0.70498(19) 0.6506(2) 0.3833(2) 0.0169(4) Uani 1 1 d
H2 H 0.891(2) 0.374(3) 0.234(2) 0.015(6) Uiso 1 1 d
H6 H 0.697(2) 0.757(3) 0.397(2) 0.015(5) Uiso 1 1 d
H4 H 0.547(3) 0.311(3) 0.458(3) 0.030(7) Uiso 1 1 d
loop_
_atom_site_aniso_label
_atom_site_aniso_U_11
_atom_site_aniso_U_22
_atom_site_aniso_U_33
_atom_site_aniso_U_23
_atom_site_aniso_U_13
_atom_site_aniso_U_12
O1 0.0239(8) 0.0189(7) 0.0278(8) -0.0037(6) 0.0065(6) 0.0029(6)
O2 0.0237(7) 0.0177(6) 0.0292(7) 0.0003(6) 0.0046(6) -0.0049(6)
O3 0.0235(9) 0.0313(8) 0.0316(8) -0.0068(7) 0.0120(7) -0.0042(6)
O4 0.0257(7) 0.0219(7) 0.0209(7) -0.0052(6) -0.0022(6) 0.0070(6)
N1 0.0213(8) 0.0161(7) 0.0237(8) 0.0011(6) 0.0039(7) -0.0011(6)
N2 0.0219(9) 0.0168(7) 0.0158(7) 0.0039(6) -0.0024(6) -0.0026(6)
N3 0.0224(9) 0.0290(9) 0.0214(8) 0.0034(7) 0.0028(7) -0.0021(8)
N4 0.0185(8) 0.0154(7) 0.0184(7) -0.0014(6) -0.0017(6) -0.0008(6)
N5 0.0181(8) 0.0236(9) 0.0155(8) -0.0033(6) 0.0000(7) 0.0019(6)
C1 0.0158(9) 0.0172(8) 0.0148(8) 0.0012(7) -0.0019(7) -0.0015(7)
C2 0.0144(9) 0.0167(8) 0.0141(8) -0.0015(7) -0.0014(7) 0.0009(7)
C3 0.0171(9) 0.0128(7) 0.0152(8) -0.0006(6) -0.0036(7) 0.0011(7)
C4 0.0158(9) 0.0184(8) 0.0142(8) 0.0003(6) -0.0013(7) -0.0024(7)
C5 0.0143(8) 0.0187(8) 0.0138(8) -0.0023(6) -0.0019(6) 0.0019(7)
C6 0.0196(9) 0.0152(8) 0.0160(8) -0.0018(7) -0.0031(8) 0.0011(6)
loop_
_atom_type_symbol
_atom_type_description
_atom_type_scat_dispersion_real
_atom_type_scat_dispersion_imag
_atom_type_scat_source
C C 0.0033 0.0016 'International Tables Vol C Tables 4.2.6.8 and 6.1.1.4'
H H 0.0000 0.0000 'International Tables Vol C Tables 4.2.6.8 and 6.1.1.4'
N N 0.0061 0.0033 'International Tables Vol C Tables 4.2.6.8 and 6.1.1.4'
O O 0.0106 0.0060 'International Tables Vol C Tables 4.2.6.8 and 6.1.1.4'
loop_
_geom_angle_atom_site_label_1
_geom_angle_atom_site_label_2
_geom_angle_atom_site_label_3
_geom_angle
N2 N1 C1 116.75(16)
N3 N2 N1 170.94(19)
O1 N4 O2 124.39(16)
O1 N4 C3 118.11(16)
O2 N4 C3 117.49(16)
O3 N5 O4 123.93(17)
O3 N5 C5 117.81(16)
O4 N5 C5 118.26(16)
C6 C1 C2 120.81(17)
C6 C1 N1 115.69(16)
C2 C1 N1 123.50(17)
C3 C2 C1 117.83(17)
C3 C2 H2 120.1(14)
C1 C2 H2 122.0(14)
C4 C3 C2 123.76(16)
C4 C3 N4 117.52(17)
C2 C3 N4 118.72(17)
C3 C4 C5 116.30(17)
C3 C4 H4 120.9(17)
C5 C4 H4 122.7(17)
C6 C5 C4 123.36(18)
C6 C5 N5 119.30(17)
C4 C5 N5 117.34(17)
C5 C6 C1 117.91(17)
C5 C6 H6 120.2(16)
C1 C6 H6 121.9(16)
loop_
_geom_bond_atom_site_label_1
_geom_bond_atom_site_label_2
_geom_bond_distance
O1 N4 1.224(2)
O2 N4 1.231(2)
O3 N5 1.226(2)
O4 N5 1.228(2)
N1 N2 1.248(2)
N1 C1 1.419(2)
N2 N3 1.126(2)
N4 C3 1.477(2)
N5 C5 1.472(2)
C1 C6 1.396(3)
C1 C2 1.397(3)
C2 C3 1.380(3)
C2 H2 0.93(2)
C3 C4 1.378(3)
C4 C5 1.385(3)
C4 H4 0.95(3)
C5 C6 1.383(3)
C6 H6 0.90(2)
loop_
_geom_torsion_atom_site_label_1
_geom_torsion_atom_site_label_2
_geom_torsion_atom_site_label_3
_geom_torsion_atom_site_label_4
_geom_torsion
N2 N1 C1 C6 179.56(18)
N2 N1 C1 C2 -0.4(3)
C6 C1 C2 C3 0.9(3)
N1 C1 C2 C3 -179.12(17)
C1 C2 C3 C4 0.9(3)
C1 C2 C3 N4 -178.55(16)
O1 N4 C3 C4 179.39(17)
O2 N4 C3 C4 -1.5(3)
O1 N4 C3 C2 -1.2(3)
O2 N4 C3 C2 177.97(17)
C2 C3 C4 C5 -1.5(3)
N4 C3 C4 C5 177.89(16)
C3 C4 C5 C6 0.5(3)
C3 C4 C5 N5 -179.17(16)
O3 N5 C5 C6 175.85(17)
O4 N5 C5 C6 -4.0(2)
O3 N5 C5 C4 -4.5(3)
O4 N5 C5 C4 175.68(17)
C4 C5 C6 C1 1.1(3)
N5 C5 C6 C1 -179.22(17)
C2 C1 C6 C5 -1.8(3)
N1 C1 C6 C5 178.18(17)
