#------------------------------------------------------------------------------
#$Date: 2019-11-24 10:29:40 +0200 (Sun, 24 Nov 2019) $
#$Revision: 237638 $
#$URL: file:///home/coder/svn-repositories/cod/cif/7/23/73/7237393.cif $
#------------------------------------------------------------------------------
#
# This file is available in the Crystallography Open Database (COD),
# http://www.crystallography.net/
#
# All data on this site have been placed in the public domain by the
# contributors.
#
data_7237393
loop_
_publ_author_name
'Paliwoda, Damian'
'Szafra\'nski, Marek'
'Hanfland, Michael'
'Katrusiak, Andrzej'
_publ_section_title
;
 A giant 2-dimensional dielectric response in a compressed hydrogen-bonded
 hybrid organic--inorganic salt
;
_journal_issue                   28
_journal_name_full               'Journal of Materials Chemistry C'
_journal_page_first              7689
_journal_paper_doi               10.1039/C8TC02464B
_journal_volume                  6
_journal_year                    2018
_chemical_formula_moiety         'C4 H5 N2 Au Cl4'
_chemical_formula_sum            'C4 H5 Au Cl4 N2'
_chemical_formula_weight         419.87
_chemical_name_common            'pyrazinium tetrachloroaurate'
_chemical_name_systematic
; 
pyrazinium tetrachloroaurate 
;
_space_group_IT_number           138
_space_group_name_Hall           '-P 4ac 2ac'
_space_group_name_H-M_alt        'P 42/n c m :2'
_symmetry_cell_setting           tetragonal
_symmetry_space_group_name_Hall  '-P 4ac 2ac'
_symmetry_space_group_name_H-M   'P 42/n c m :2'
_atom_sites_solution_hydrogens   geom
_atom_sites_solution_primary     direct
_atom_sites_solution_secondary   difmap
_audit_creation_method           SHELXL-97
_audit_update_record
;
2017-04-07 deposited with the CCDC.
2018-06-28 downloaded from the CCDC.
;
_cell_angle_alpha                90.00
_cell_angle_beta                 90.00
_cell_angle_gamma                90.00
_cell_formula_units_Z            4
_cell_length_a                   7.38700(10)
_cell_length_b                   7.38700(10)
_cell_length_c                   14.791(8)
_cell_measurement_reflns_used    1375
_cell_measurement_temperature    296(2)
_cell_measurement_theta_max      37.62
_cell_measurement_theta_min      4.14
_cell_volume                     807.1(4)
_computing_cell_refinement       'CrysAlisRED (Oxford Diffraction, 2004)'
_computing_data_collection       'CrysAlisCCD (Oxford Diffraction, 2004)'
_computing_data_reduction        'CrysAlisRED (Oxford Diffraction, 2004)'
_computing_molecular_graphics    'SHELXTL (Sheldrick, 1990)'
_computing_publication_material  'SHELXL--97 (Sheldrick, 1997)'
_computing_structure_refinement  'SHELXL--97 (Sheldrick, 1997)'
_computing_structure_solution    'SHELXS--97 (Sheldrick, 1997)'
_diffrn_ambient_environment      'diamond-anvil cell'
_diffrn_ambient_pressure         6165000
_diffrn_ambient_temperature      296(2)
_diffrn_measured_fraction_theta_full 0.235
_diffrn_measured_fraction_theta_max 0.235
_diffrn_measurement_device_type  Serial
_diffrn_measurement_method       \w/2\q
_diffrn_radiation_monochromator  Si(111)
_diffrn_radiation_source         synchrotron
_diffrn_radiation_type           synchrotron
_diffrn_radiation_wavelength     0.41438
_diffrn_reflns_av_R_equivalents  0.0373
_diffrn_reflns_av_sigmaI/netI    0.0389
_diffrn_reflns_limit_h_max       11
_diffrn_reflns_limit_h_min       -12
_diffrn_reflns_limit_k_max       12
_diffrn_reflns_limit_k_min       -12
_diffrn_reflns_limit_l_max       6
_diffrn_reflns_limit_l_min       -6
_diffrn_reflns_number            1375
_diffrn_reflns_theta_full        37.62
_diffrn_reflns_theta_max         37.62
_diffrn_reflns_theta_min         4.14
_diffrn_standards_decay_%        0
_diffrn_standards_interval_count 0
_diffrn_standards_number         0
_exptl_absorpt_coefficient_mu    19.478
_exptl_crystal_colour            orange
_exptl_crystal_density_diffrn    3.455
_exptl_crystal_density_method    'not measured'
_exptl_crystal_description       plate
_exptl_crystal_F_000             760
_exptl_crystal_size_max          0.05
_exptl_crystal_size_mid          0.04
_exptl_crystal_size_min          0.02
_refine_diff_density_max         1.084
_refine_diff_density_min         -0.771
_refine_diff_density_rms         0.181
_refine_ls_extinction_method     none
_refine_ls_goodness_of_fit_ref   1.269
_refine_ls_hydrogen_treatment    constr
_refine_ls_matrix_type           full
_refine_ls_number_parameters     33
_refine_ls_number_reflns         274
_refine_ls_number_restraints     52
_refine_ls_restrained_S_all      1.166
_refine_ls_R_factor_all          0.0663
_refine_ls_R_factor_gt           0.0543
_refine_ls_shift/su_max          0.000
_refine_ls_shift/su_mean         0.000
_refine_ls_structure_factor_coef Fsqd
_refine_ls_weighting_details
'calc w=1/[\s^2^(Fo^2^)+(0.0469P)^2^+13.7154P] where P=(Fo^2^+2Fc^2^)/3'
_refine_ls_weighting_scheme      calc
_refine_ls_wR_factor_gt          0.1311
_refine_ls_wR_factor_ref         0.1376
_reflns_number_gt                229
_reflns_number_total             274
_reflns_threshold_expression     >2sigma(I)
_cod_data_source_file            c8tc02464b2.cif
_cod_data_source_block           pyrazinium_tetrachloroaurate_61_65kbar
_cod_original_sg_symbol_H-M      'P 42/n c m'
_cod_database_code               7237393
loop_
_symmetry_equiv_pos_as_xyz
'x, y, z'
'-x+1/2, -y+1/2, z'
'-y+1/2, x, z+1/2'
'y, -x+1/2, z+1/2'
'-x, y+1/2, -z+1/2'
'x+1/2, -y, -z+1/2'
'y+1/2, x+1/2, -z'
'-y, -x, -z'
'-x, -y, -z'
'x-1/2, y-1/2, -z'
'y-1/2, -x, -z-1/2'
'-y, x-1/2, -z-1/2'
'x, -y-1/2, z-1/2'
'-x-1/2, y, z-1/2'
'-y-1/2, -x-1/2, z'
'y, x, z'
loop_
_atom_site_label
_atom_site_type_symbol
_atom_site_fract_x
_atom_site_fract_y
_atom_site_fract_z
_atom_site_U_iso_or_equiv
_atom_site_adp_type
_atom_site_occupancy
_atom_site_symmetry_multiplicity
_atom_site_calc_flag
_atom_site_refinement_flags
Au1 Au 0.2500 0.2500 0.2295(2) 0.0288(18) Uani 1 4 d SU
Cl3 Cl 0.2500 0.2500 0.3758(18) 0.035(2) Uani 1 4 d SU
Cl4 Cl 0.2500 0.2500 0.085(2) 0.036(2) Uani 1 4 d SU
N1 N 0.8757(4) 0.1243(4) 0.0000 0.031(4) Uani 1 2 d SDU
H1A H 0.9581 0.0419 0.0000 0.037 Uiso 0.50 2 calc SPR
C1 C 0.8166(11) 0.1825(10) 0.0796(7) 0.031(3) Uani 1 1 d DU
H1 H 0.8620 0.1355 0.1334 0.037 Uiso 1 1 calc R
Cl1 Cl 0.4665(5) 0.0335(5) 0.2232(8) 0.045(3) Uani 1 2 d SU
loop_
_atom_site_aniso_label
_atom_site_aniso_U_11
_atom_site_aniso_U_22
_atom_site_aniso_U_33
_atom_site_aniso_U_23
_atom_site_aniso_U_13
_atom_site_aniso_U_12
Au1 0.0232(4) 0.0232(4) 0.040(5) 0.000 0.000 0.0012(3)
Cl3 0.0312(13) 0.0312(13) 0.041(6) 0.000 0.000 0.0008(18)
Cl4 0.0350(15) 0.0350(15) 0.039(7) 0.000 0.000 -0.0012(19)
N1 0.030(3) 0.030(3) 0.032(9) -0.002(4) -0.002(4) 0.004(4)
C1 0.031(4) 0.030(4) 0.031(9) -0.002(6) -0.002(6) 0.003(4)
Cl1 0.0426(14) 0.0426(14) 0.050(9) 0.002(2) -0.002(2) 0.0157(18)
loop_
_atom_type_symbol
_atom_type_description
_atom_type_scat_dispersion_real
_atom_type_scat_dispersion_imag
_atom_type_scat_source
C C 0.0033 0.0016 'International Tables Vol C Tables 4.2.6.8 and 6.1.1.4'
H H 0.0000 0.0000 'International Tables Vol C Tables 4.2.6.8 and 6.1.1.4'
N N 0.0061 0.0033 'International Tables Vol C Tables 4.2.6.8 and 6.1.1.4'
Cl Cl 0.1484 0.1585 'International Tables Vol C Tables 4.2.6.8 and 6.1.1.4'
Au Au -2.0133 8.8022 'International Tables Vol C Tables 4.2.6.8 and 6.1.1.4'
loop_
_geom_angle_atom_site_label_1
_geom_angle_atom_site_label_2
_geom_angle_atom_site_label_3
_geom_angle
_geom_angle_site_symmetry_1
_geom_angle_site_symmetry_3
Cl4 Au1 Cl3 180.000(2) . .
Cl4 Au1 Cl1 87.7(3) . 2
Cl3 Au1 Cl1 92.3(3) . 2
Cl4 Au1 Cl1 87.7(3) . .
Cl3 Au1 Cl1 92.3(3) . .
Cl1 Au1 Cl1 175.3(6) 2 .
C1 N1 C1 125.0(7) 8_665 .
C1 C1 N1 117.5(4) 2_655 .
loop_
_geom_bond_atom_site_label_1
_geom_bond_atom_site_label_2
_geom_bond_distance
_geom_bond_site_symmetry_2
Au1 Cl4 2.13(3) .
Au1 Cl3 2.16(3) .
Au1 Cl1 2.263(5) 2
Au1 Cl1 2.263(5) .
N1 C1 1.328(8) 8_665
N1 C1 1.328(8) .
C1 C1 1.401(8) 2_655
loop_
_refln_index_h
_refln_index_k
_refln_index_l
_refln_F_squared_calc
_refln_F_squared_meas
_refln_F_squared_sigma
_refln_observed_status
5 5 0 28171.78 30319.27 1075.17 o
0 6 0 27151.84 25753.35 589.37 o
4 6 0 23342.50 24236.33 461.48 o
6 6 0 13717.83 14632.30 517.34 o
1 7 0 25599.22 23785.88 447.79 o
3 7 0 26172.01 27197.35 531.09 o
5 7 0 8990.82 9079.10 230.34 o
0 8 0 14723.46 14079.23 454.12 o
2 8 0 13852.45 13128.78 230.69 o
4 8 0 8827.88 9119.17 271.68 o
6 8 0 8669.67 9010.08 686.37 o
1 9 0 11898.66 11898.66 220.37 o
3 9 0 7648.72 7786.47 209.62 o
5 9 0 6871.16 7595.16 287.67 o
0 10 0 6774.90 6149.29 557.57 o
2 10 0 4756.58 4904.86 189.96 o
4 10 0 5235.16 5661.31 239.79 o
3 11 0 3404.20 3912.17 183.91 o
5 11 0 1607.19 1471.91 204.15 o
4 12 0 1477.73 3070.32 362.68 o
1 1 1 556.62 280.15 17.37 o
1 2 1 1562.25 2289.34 37.55 o
2 2 1 4589.29 6543.66 82.95 o
1 3 1 1903.97 2901.76 48.34 o
2 3 1 729.39 851.24 29.41 o
3 3 1 1119.42 1007.88 39.00 o
1 4 1 2070.60 2163.72 43.53 o
2 4 1 337.39 330.90 18.75 o
3 4 1 918.97 1037.17 37.10 o
4 4 1 518.95 564.92 32.47 o
1 5 1 21.23 24.33 5.91 o
2 5 1 125.15 79.81 10.48 o
3 5 1 104.42 82.10 11.75 o
4 5 1 385.20 383.55 20.96 o
5 5 1 207.18 122.39 26.07 o
1 6 1 1120.90 1015.87 31.28 o
2 6 1 7.54 11.34 7.19 o
3 6 1 735.25 744.43 37.87 o
4 6 1 21.88 21.41 8.33 o
5 6 1 108.86 82.45 13.68 o
6 6 1 154.40 131.18 24.57 o
1 7 1 10.23 36.56 10.12 o
2 7 1 40.53 16.22 5.63 o
3 7 1 2.46 15.13 8.80 o
4 7 1 11.04 23.09 9.35 o
5 7 1 14.43 18.28 6.27 o
6 7 1 41.96 44.67 15.11 o
1 8 1 427.19 435.29 22.73 o
2 8 1 8.29 15.26 13.74 o
3 8 1 156.56 141.56 17.22 o
4 8 1 0.36 8.73 7.68 o
5 8 1 78.71 53.40 21.57 o
6 8 1 12.02 56.99 46.14 o
1 9 1 2.00 8.49 3.24 o
2 9 1 0.55 11.16 11.75 o
3 9 1 6.85 12.49 15.64 o
4 9 1 5.67 31.58 10.54 o
1 10 1 64.52 53.77 13.95 o
2 10 1 0.51 25.19 15.50 o
3 10 1 48.95 30.64 11.14 o
4 10 1 36.13 32.22 15.60 o
5 10 1 0.57 38.02 23.66 o
2 11 1 0.11 12.32 9.64 o
3 11 1 5.69 51.83 47.77 o
4 11 1 11.40 99.78 60.17 o
5 11 1 26.32 2.12 19.76 o
3 12 1 0.08 52.81 24.17 o
4 12 1 7.08 1062.91 185.44 o
0 2 2 16012.02 17282.01 229.94 o
1 2 2 2945.51 3434.99 86.66 o
0 3 2 1531.76 1749.19 71.05 o
2 3 2 3953.02 4525.08 76.94 o
1 4 2 2584.54 2882.57 51.93 o
2 4 2 20309.38 20926.93 182.52 o
3 4 2 1126.49 1257.22 37.99 o
4 4 2 19821.93 19528.20 217.33 o
0 5 2 2921.86 3067.78 85.91 o
1 5 2 21828.27 21130.23 172.22 o
2 5 2 697.07 718.90 33.10 o
3 5 2 15542.35 15158.25 156.34 o
4 5 2 1520.33 1488.53 36.69 o
5 5 2 17866.71 17861.77 217.48 o
0 6 2 17148.61 16182.85 221.06 o
1 6 2 1046.30 1066.08 38.51 o
2 6 2 18919.65 17470.76 176.21 o
3 6 2 1138.54 1200.21 48.36 o
4 6 2 11202.85 10745.30 158.53 o
5 6 2 430.01 435.27 27.26 o
6 6 2 5553.54 5552.70 169.51 o
0 7 2 367.90 344.82 32.74 o
1 7 2 10232.67 9229.19 119.96 o
2 7 2 1184.67 1115.80 38.39 o
3 7 2 11066.95 10395.37 150.59 o
4 7 2 311.96 286.91 23.96 o
5 7 2 4281.12 3847.93 99.53 o
6 7 2 379.62 241.55 42.20 o
0 8 2 7812.76 7302.73 162.99 o
1 8 2 541.33 501.98 27.69 o
2 8 2 8829.59 8005.81 149.17 o
3 8 2 382.53 345.00 27.35 o
4 8 2 5547.14 5337.00 124.90 o
5 8 2 311.10 289.57 32.66 o
6 8 2 3783.32 3900.34 213.30 o
0 9 2 538.11 512.19 41.99 o
1 9 2 5615.16 5318.13 104.69 o
2 9 2 189.31 110.13 22.00 o
3 9 2 3064.89 2683.32 109.99 o
4 9 2 305.02 288.24 30.51 o
5 9 2 4140.44 4762.42 150.74 o
6 9 2 132.10 146.01 62.02 o
0 10 2 4393.07 4637.40 408.29 o
1 10 2 209.46 165.44 26.16 o
2 10 2 2803.34 2545.40 123.51 o
3 10 2 171.17 59.61 17.99 o
4 10 2 2883.64 3092.75 121.34 o
5 10 2 131.91 161.22 40.37 o
1 11 2 1845.59 1710.11 159.86 o
2 11 2 156.67 149.41 38.92 o
3 11 2 2251.53 2403.29 143.35 o
4 11 2 82.76 36.63 19.63 o
3 12 2 69.90 54.52 34.41 o
4 12 2 676.86 1910.11 224.70 o
2 2 3 522.74 399.12 68.64 o
1 3 3 290.21 173.62 24.99 o
2 3 3 490.44 481.19 30.92 o
3 3 3 705.52 513.47 40.70 o
1 4 3 1477.15 1388.07 50.36 o
2 4 3 42.16 15.91 3.80 o
3 4 3 621.27 629.06 28.56 o
4 4 3 49.57 11.97 6.66 o
1 5 3 15.66 6.74 3.80 o
2 5 3 93.84 50.88 8.89 o
3 5 3 140.35 71.13 10.08 o
4 5 3 274.43 256.45 18.92 o
5 5 3 25.61 31.39 11.85 o
1 6 3 790.58 716.55 33.00 o
2 6 3 204.91 136.14 13.89 o
3 6 3 557.07 501.57 33.70 o
4 6 3 94.03 32.61 10.33 o
5 6 3 67.69 60.66 9.22 o
6 6 3 0.52 66.92 55.14 o
1 7 3 30.05 31.03 10.52 o
2 7 3 28.20 16.98 7.29 o
3 7 3 14.87 36.18 10.83 o
4 7 3 8.17 22.96 8.00 o
5 7 3 21.49 32.17 14.42 o
6 7 3 29.67 29.81 38.35 o
1 8 3 311.50 263.43 27.83 o
2 8 3 20.01 26.64 12.26 o
3 8 3 101.86 71.92 11.75 o
4 8 3 21.92 33.23 14.35 o
5 8 3 65.18 61.76 15.23 o
6 8 3 34.53 336.60 744.47 o
1 9 3 0.05 16.22 20.63 o
2 9 3 0.42 34.19 8.12 o
3 9 3 17.40 26.16 20.00 o
4 9 3 3.25 24.00 26.64 o
5 9 3 30.04 63.76 25.30 o
1 10 3 43.42 337.87 434.41 o
3 10 3 39.29 31.73 22.55 o
4 10 3 10.52 89.16 41.61 o
1 11 3 10.75 9.35 12.62 o
2 11 3 0.04 14.51 35.73 o
3 11 3 2.89 46.56 33.38 o
4 11 3 8.52 12.09 15.44 o
3 3 4 14562.39 14624.29 333.94 o
0 4 4 17988.73 18863.93 549.71 o
1 4 4 5586.79 5877.66 168.67 o
2 4 4 8560.82 7830.51 250.53 o
3 4 4 2357.95 2578.48 93.38 o
4 4 4 13559.65 14582.97 245.27 o
0 5 4 7223.99 7161.93 240.74 o
1 5 4 12086.58 11757.03 272.40 o
2 5 4 1487.60 1525.62 88.34 o
3 5 4 5441.28 5574.26 153.81 o
4 5 4 3926.51 3929.65 95.81 o
5 5 4 7724.06 8105.49 211.38 o
0 6 4 8122.84 7566.98 193.29 o
1 6 4 2451.54 2408.26 87.51 o
2 6 4 9067.87 9609.21 213.60 o
3 6 4 2808.41 2859.76 100.32 o
4 6 4 5286.57 4961.04 101.34 o
5 6 4 1073.96 1015.08 47.06 o
6 6 4 2587.43 2811.18 99.84 o
0 7 4 847.01 817.51 64.16 o
1 7 4 3821.31 3769.90 92.37 o
2 7 4 3189.83 3016.66 113.52 o
3 7 4 6423.03 6738.69 169.24 o
4 7 4 815.10 745.65 51.69 o
5 7 4 2554.24 2671.06 92.40 o
6 7 4 1081.88 1207.12 83.86 o
7 7 4 2862.85 3319.82 228.06 o
0 8 4 5254.12 5455.42 170.35 o
1 8 4 1418.13 1338.51 57.63 o
2 8 4 4406.38 4057.12 93.96 o
3 8 4 1019.57 950.25 51.17 o
4 8 4 1906.38 2116.27 110.00 o
5 8 4 864.52 938.63 71.31 o
6 8 4 2011.10 2877.69 162.96 o
0 9 4 1537.24 1557.55 95.17 o
1 9 4 2444.92 2616.05 86.39 o
2 9 4 515.16 361.78 34.20 o
3 9 4 1849.27 1772.90 121.03 o
4 9 4 884.05 861.67 84.26 o
5 9 4 2436.20 3097.32 390.25 o
0 10 4 2282.70 2602.27 259.33 o
1 10 4 612.25 508.83 58.19 o
2 10 4 1407.60 1433.34 103.30 o
3 10 4 514.74 443.71 74.18 o
4 10 4 1577.79 1760.08 169.21 o
5 10 4 404.61 581.56 117.07 o
1 11 4 1160.84 1277.20 163.56 o
2 11 4 470.27 459.21 136.97 o
3 11 4 1073.95 1161.30 413.90 o
4 11 4 257.16 180.07 72.39 o
4 4 5 26.97 55.05 48.79 o
1 5 5 756.25 701.90 130.66 o
2 5 5 42.37 6.00 7.43 o
3 5 5 72.23 40.54 21.06 o
4 5 5 128.25 91.31 23.71 o
5 5 5 13.01 23.37 12.70 o
1 6 5 382.43 293.52 59.47 o
2 6 5 78.38 80.35 30.29 o
3 6 5 260.83 205.01 34.95 o
4 6 5 388.12 296.88 43.86 o
5 6 5 33.78 21.67 9.13 o
6 6 5 152.24 120.34 49.20 o
1 7 5 6.03 18.37 9.88 o
2 7 5 10.72 6.91 12.06 o
3 7 5 9.16 48.50 19.65 o
4 7 5 3.17 19.69 16.27 o
6 7 5 12.73 33.61 16.24 o
1 8 5 153.42 109.85 20.19 o
2 8 5 22.77 28.95 18.83 o
3 8 5 47.75 31.07 14.72 o
4 8 5 78.17 95.52 36.02 o
5 8 5 26.34 44.90 20.69 o
6 8 5 74.03 24.35 12.62 o
1 9 5 57.82 59.59 20.08 o
3 9 5 14.54 59.11 43.67 o
4 9 5 1.15 30.27 14.61 o
5 9 5 44.04 21.61 15.00 o
1 10 5 21.27 36.91 24.99 o
2 10 5 87.44 32.50 19.49 o
3 10 5 16.56 99.07 57.87 o
5 10 5 0.67 51.79 38.20 o
4 11 5 5.12 32.64 38.38 o
4 6 6 7550.58 7437.52 556.51 o
5 6 6 4477.60 4192.84 223.48 o
6 6 6 4883.34 5082.22 321.79 o
0 7 6 4561.88 3989.34 362.95 o
1 7 6 10286.34 9460.91 394.67 o
2 7 6 9864.55 9085.35 380.70 o
3 7 6 7324.28 7017.25 255.74 o
4 7 6 3576.44 3414.41 222.96 o
5 7 6 2411.34 2187.90 101.81 o
6 7 6 3441.04 4497.21 194.12 o
0 8 6 2959.24 2819.33 322.45 o
1 8 6 5090.59 4724.41 295.23 o
2 8 6 4156.05 3602.69 195.45 o
3 8 6 3749.33 3433.98 286.46 o
4 8 6 3906.53 3802.13 318.92 o
5 8 6 2842.65 3227.53 289.37 o
6 8 6 2951.27 4514.53 316.90 o
0 9 6 4505.44 3957.22 411.12 o
1 9 6 4581.07 4480.91 416.59 o
2 9 6 2124.15 1912.75 259.99 o
3 9 6 2283.12 2085.76 266.70 o
4 9 6 2718.34 3167.81 308.25 o
5 9 6 1853.10 2677.29 270.76 o
2 10 6 1580.70 1378.39 230.26 o
3 10 6 1639.75 1491.93 225.41 o
4 10 6 1684.23 2056.12 252.93 o
4 11 6 805.86 684.17 139.74 o
