#------------------------------------------------------------------------------
#$Date: 2019-11-24 10:29:40 +0200 (Sun, 24 Nov 2019) $
#$Revision: 237638 $
#$URL: file:///home/coder/svn-repositories/cod/cif/7/23/73/7237383.cif $
#------------------------------------------------------------------------------
#
# This file is available in the Crystallography Open Database (COD),
# http://www.crystallography.net/
#
# All data on this site have been placed in the public domain by the
# contributors.
#
data_7237383
loop_
_publ_author_name
'Paliwoda, Damian'
'Szafra\'nski, Marek'
'Hanfland, Michael'
'Katrusiak, Andrzej'
_publ_section_title
;
 A giant 2-dimensional dielectric response in a compressed hydrogen-bonded
 hybrid organic--inorganic salt
;
_journal_issue                   28
_journal_name_full               'Journal of Materials Chemistry C'
_journal_page_first              7689
_journal_paper_doi               10.1039/C8TC02464B
_journal_volume                  6
_journal_year                    2018
_chemical_formula_moiety         'C4 H5 N2 Au Cl4'
_chemical_formula_sum            'C4 H5 Au Cl4 N2'
_chemical_formula_weight         419.87
_chemical_name_common            'pyrazinium tetrachloroaurate'
_chemical_name_systematic
; 
pyrazinium tetrachloroaurate 
;
_space_group_IT_number           138
_space_group_name_Hall           '-P 4ac 2ac'
_space_group_name_H-M_alt        'P 42/n c m :2'
_symmetry_cell_setting           tetragonal
_symmetry_space_group_name_Hall  '-P 4ac 2ac'
_symmetry_space_group_name_H-M   'P 42/n c m :2'
_atom_sites_solution_hydrogens   geom
_atom_sites_solution_primary     direct
_atom_sites_solution_secondary   difmap
_audit_creation_method           SHELXL-97
_audit_update_record
;
2017-04-07 deposited with the CCDC.
2018-06-28 downloaded from the CCDC.
;
_cell_angle_alpha                90.00
_cell_angle_beta                 90.00
_cell_angle_gamma                90.00
_cell_formula_units_Z            4
_cell_length_a                   7.1959(5)
_cell_length_b                   7.1959(5)
_cell_length_c                   14.39(3)
_cell_measurement_reflns_used    1234
_cell_measurement_temperature    296(2)
_cell_measurement_theta_max      35.90
_cell_measurement_theta_min      4.25
_cell_volume                     745.1(16)
_computing_cell_refinement       'CrysAlisRED (Oxford Diffraction, 2004)'
_computing_data_collection       'CrysAlisCCD (Oxford Diffraction, 2004)'
_computing_data_reduction        'CrysAlisRED (Oxford Diffraction, 2004)'
_computing_molecular_graphics    'SHELXTL (Sheldrick, 1990)'
_computing_publication_material  'SHELXL--97 (Sheldrick, 1997)'
_computing_structure_refinement  'SHELXL--97 (Sheldrick, 1997)'
_computing_structure_solution    'SHELXS--97 (Sheldrick, 1997)'
_diffrn_ambient_environment      'diamond-anvil cell'
_diffrn_ambient_pressure         10665000
_diffrn_ambient_temperature      296(2)
_diffrn_measured_fraction_theta_full 0.263
_diffrn_measured_fraction_theta_max 0.263
_diffrn_measurement_device_type  Serial
_diffrn_measurement_method       \w/2\q
_diffrn_radiation_monochromator  Si(111)
_diffrn_radiation_source         synchrotron
_diffrn_radiation_type           synchrotron
_diffrn_radiation_wavelength     0.41438
_diffrn_reflns_av_R_equivalents  0.0542
_diffrn_reflns_av_sigmaI/netI    0.0440
_diffrn_reflns_limit_h_max       11
_diffrn_reflns_limit_h_min       -11
_diffrn_reflns_limit_k_max       11
_diffrn_reflns_limit_k_min       -11
_diffrn_reflns_limit_l_max       6
_diffrn_reflns_limit_l_min       -6
_diffrn_reflns_number            1234
_diffrn_reflns_theta_full        35.90
_diffrn_reflns_theta_max         35.90
_diffrn_reflns_theta_min         4.25
_diffrn_standards_decay_%        0
_diffrn_standards_interval_count 0
_diffrn_standards_number         0
_exptl_absorpt_coefficient_mu    21.098
_exptl_crystal_colour            orange
_exptl_crystal_density_diffrn    3.743
_exptl_crystal_density_method    'not measured'
_exptl_crystal_description       plate
_exptl_crystal_F_000             760
_exptl_crystal_size_max          0.05
_exptl_crystal_size_mid          0.04
_exptl_crystal_size_min          0.02
_refine_diff_density_max         0.855
_refine_diff_density_min         -0.776
_refine_diff_density_rms         0.163
_refine_ls_extinction_method     none
_refine_ls_goodness_of_fit_ref   1.187
_refine_ls_hydrogen_treatment    constr
_refine_ls_matrix_type           full
_refine_ls_number_parameters     33
_refine_ls_number_reflns         252
_refine_ls_number_restraints     52
_refine_ls_restrained_S_all      1.083
_refine_ls_R_factor_all          0.1003
_refine_ls_R_factor_gt           0.0698
_refine_ls_shift/su_max          0.000
_refine_ls_shift/su_mean         0.000
_refine_ls_structure_factor_coef Fsqd
_refine_ls_weighting_details
'calc w=1/[\s^2^(Fo^2^)+(0.0731P)^2^+8.7517P] where P=(Fo^2^+2Fc^2^)/3'
_refine_ls_weighting_scheme      calc
_refine_ls_wR_factor_gt          0.1664
_refine_ls_wR_factor_ref         0.1853
_reflns_number_gt                185
_reflns_number_total             252
_reflns_threshold_expression     >2sigma(I)
_cod_data_source_file            c8tc02464b2.cif
_cod_data_source_block           pyrazinium_tetrachloroaurate_106_55kbar
_cod_original_cell_volume        745.1(14)
_cod_original_sg_symbol_H-M      'P 42/n c m'
_cod_database_code               7237383
loop_
_symmetry_equiv_pos_as_xyz
'x, y, z'
'-x+1/2, -y+1/2, z'
'-y+1/2, x, z+1/2'
'y, -x+1/2, z+1/2'
'-x, y+1/2, -z+1/2'
'x+1/2, -y, -z+1/2'
'y+1/2, x+1/2, -z'
'-y, -x, -z'
'-x, -y, -z'
'x-1/2, y-1/2, -z'
'y-1/2, -x, -z-1/2'
'-y, x-1/2, -z-1/2'
'x, -y-1/2, z-1/2'
'-x-1/2, y, z-1/2'
'-y-1/2, -x-1/2, z'
'y, x, z'
loop_
_atom_site_label
_atom_site_type_symbol
_atom_site_fract_x
_atom_site_fract_y
_atom_site_fract_z
_atom_site_U_iso_or_equiv
_atom_site_adp_type
_atom_site_occupancy
_atom_site_symmetry_multiplicity
_atom_site_calc_flag
_atom_site_refinement_flags
Au1 Au 0.2500 0.2500 0.2288(4) 0.050(2) Uani 1 4 d SU
Cl3 Cl 0.2500 0.2500 0.378(2) 0.053(3) Uani 1 4 d SU
Cl4 Cl 0.2500 0.2500 0.083(3) 0.060(3) Uani 1 4 d SU
N1 N 0.8790(5) 0.1210(5) 0.0000 0.064(5) Uani 1 2 d SDU
H1A H 0.9635 0.0365 0.0000 0.076 Uiso 0.50 2 calc SPR
C1 C 0.8182(15) 0.1810(15) 0.0818(7) 0.061(5) Uani 1 1 d DU
H1 H 0.8647 0.1328 0.1371 0.074 Uiso 1 1 calc R
Cl1 Cl 0.4717(7) 0.0283(7) 0.2194(11) 0.068(3) Uani 1 2 d SU
loop_
_atom_site_aniso_label
_atom_site_aniso_U_11
_atom_site_aniso_U_22
_atom_site_aniso_U_33
_atom_site_aniso_U_23
_atom_site_aniso_U_13
_atom_site_aniso_U_12
Au1 0.0489(7) 0.0489(7) 0.053(6) 0.000 0.000 0.0011(4)
Cl3 0.0510(19) 0.0510(19) 0.058(7) 0.000 0.000 0.002(2)
Cl4 0.061(2) 0.061(2) 0.059(7) 0.000 0.000 0.000(3)
N1 0.064(5) 0.064(5) 0.064(9) 0.000(5) 0.000(5) 0.014(5)
C1 0.059(5) 0.062(6) 0.063(9) -0.002(7) 0.001(7) 0.007(6)
Cl1 0.069(2) 0.069(2) 0.067(9) -0.004(3) 0.004(3) 0.012(3)
loop_
_atom_type_symbol
_atom_type_description
_atom_type_scat_dispersion_real
_atom_type_scat_dispersion_imag
_atom_type_scat_source
C C 0.0033 0.0016 'International Tables Vol C Tables 4.2.6.8 and 6.1.1.4'
H H 0.0000 0.0000 'International Tables Vol C Tables 4.2.6.8 and 6.1.1.4'
N N 0.0061 0.0033 'International Tables Vol C Tables 4.2.6.8 and 6.1.1.4'
Cl Cl 0.1484 0.1585 'International Tables Vol C Tables 4.2.6.8 and 6.1.1.4'
Au Au -2.0133 8.8022 'International Tables Vol C Tables 4.2.6.8 and 6.1.1.4'
loop_
_geom_angle_atom_site_label_1
_geom_angle_atom_site_label_2
_geom_angle_atom_site_label_3
_geom_angle
_geom_angle_site_symmetry_1
_geom_angle_site_symmetry_3
Cl4 Au1 Cl3 180.000(3) . .
Cl4 Au1 Cl1 86.5(4) . 2
Cl3 Au1 Cl1 93.5(4) . 2
Cl4 Au1 Cl1 86.5(4) . .
Cl3 Au1 Cl1 93.5(4) . .
Cl1 Au1 Cl1 173.1(8) 2 .
C1 N1 C1 124.9(7) 8_665 .
C1 C1 N1 117.6(4) 2_655 .
loop_
_geom_bond_atom_site_label_1
_geom_bond_atom_site_label_2
_geom_bond_distance
_geom_bond_site_symmetry_2
Au1 Cl4 2.10(4) .
Au1 Cl3 2.14(3) .
Au1 Cl1 2.260(7) 2
Au1 Cl1 2.260(7) .
N1 C1 1.328(9) 8_665
N1 C1 1.328(9) .
C1 C1 1.397(9) 2_655
loop_
_refln_index_h
_refln_index_k
_refln_index_l
_refln_F_squared_calc
_refln_F_squared_meas
_refln_F_squared_sigma
_refln_observed_status
2 4 0 30009.42 29543.61 365.58 o
4 4 0 29600.89 30248.60 955.19 o
3 5 0 16779.37 15644.59 219.77 o
5 5 0 9724.08 9370.15 205.77 o
0 6 0 12236.43 10451.29 190.13 o
2 6 0 15222.79 14698.12 238.62 o
4 6 0 7227.41 6955.57 202.00 o
6 6 0 3291.75 3860.04 292.03 o
1 7 0 9173.89 8803.14 182.25 o
3 7 0 7444.35 7780.08 179.63 o
5 7 0 2169.99 2136.99 123.87 o
0 8 0 4322.32 4472.33 146.12 o
2 8 0 3188.98 3224.85 120.31 o
4 8 0 1941.63 2145.66 133.93 o
1 9 0 2165.82 2616.19 103.66 o
3 9 0 1232.13 1544.33 92.78 o
5 9 0 715.80 858.87 108.20 o
2 10 0 631.48 841.26 68.38 o
4 10 0 471.24 817.62 116.70 o
3 11 0 229.98 220.47 60.62 o
1 1 1 434.04 153.51 13.31 o
1 2 1 978.07 1453.53 31.82 o
2 2 1 3576.31 4235.85 125.59 o
1 3 1 1543.03 1877.93 41.84 o
2 3 1 426.94 456.58 23.01 o
3 3 1 510.93 377.71 27.13 o
1 4 1 1064.94 983.19 31.13 o
2 4 1 166.08 128.55 12.29 o
3 4 1 415.98 382.20 20.62 o
4 4 1 190.52 148.32 17.31 o
1 5 1 21.85 26.92 4.73 o
2 5 1 57.41 34.75 8.81 o
3 5 1 46.06 53.46 9.19 o
4 5 1 166.60 149.91 13.08 o
5 5 1 44.08 36.18 18.99 o
1 6 1 405.84 322.24 20.06 o
2 6 1 1.52 24.40 9.91 o
3 6 1 261.43 220.27 21.72 o
4 6 1 7.20 9.01 2.68 o
5 6 1 35.36 25.31 10.59 o
6 6 1 20.81 0.71 40.49 o
1 7 1 0.88 16.11 8.37 o
2 7 1 18.28 36.43 22.74 o
3 7 1 0.30 56.38 42.92 o
4 7 1 6.34 53.13 34.29 o
5 7 1 1.68 167.28 178.11 o
6 7 1 15.77 136.88 67.07 o
1 8 1 101.27 89.46 14.66 o
2 8 1 0.67 20.71 12.69 o
3 8 1 34.83 28.43 8.69 o
4 8 1 0.27 14.25 8.62 o
5 8 1 20.65 10.34 12.94 o
1 9 1 0.14 12.58 14.26 o
2 9 1 0.06 16.66 9.17 o
3 9 1 0.70 41.79 21.51 o
4 9 1 3.11 27.28 11.19 o
5 9 1 2.43 11.30 7.39 o
1 10 1 8.71 18.55 5.89 o
2 10 1 0.01 33.08 14.53 o
3 10 1 7.84 25.61 11.17 o
4 10 1 2.70 76.57 32.21 o
5 10 1 0.11 32.87 26.55 o
2 11 1 0.11 50.55 43.43 o
3 11 1 0.53 64.52 66.66 o
4 11 1 0.16 38.41 49.57 o
0 2 2 14625.35 16714.33 359.19 o
1 2 2 2650.61 3117.38 78.80 o
0 3 2 1254.39 1352.97 57.10 o
1 3 2 28225.12 31064.33 745.87 o
2 3 2 2989.38 2974.26 66.71 o
3 3 2 25826.12 24488.80 302.81 o
1 4 2 1751.99 1787.46 44.18 o
2 4 2 11850.45 11538.09 127.63 o
3 4 2 607.52 623.19 28.16 o
4 4 2 10859.77 10139.68 165.91 o
0 5 2 1697.12 1603.96 66.06 o
1 5 2 12131.50 10831.27 109.81 o
2 5 2 340.99 362.84 24.00 o
3 5 2 7919.01 7722.82 120.02 o
4 5 2 616.90 577.72 23.02 o
5 5 2 5307.70 5614.56 118.34 o
0 6 2 6849.49 6576.18 145.28 o
1 6 2 427.78 414.83 24.62 o
2 6 2 8430.59 8122.99 127.21 o
3 6 2 408.39 426.06 29.35 o
4 6 2 3338.02 3339.55 94.57 o
5 6 2 93.40 51.10 14.31 o
6 6 2 1410.04 1440.99 100.91 o
0 7 2 109.80 92.11 19.88 o
1 7 2 3636.52 3234.34 74.96 o
2 7 2 372.60 423.81 30.64 o
3 7 2 2985.38 3235.06 88.38 o
4 7 2 60.50 40.24 10.83 o
5 7 2 989.69 968.61 54.75 o
6 7 2 57.79 55.16 20.21 o
0 8 2 2234.80 2439.62 105.06 o
1 8 2 116.26 104.14 13.97 o
2 8 2 1836.29 1954.23 78.14 o
3 8 2 64.85 32.99 13.87 o
4 8 2 1096.97 1357.82 64.83 o
5 8 2 42.75 38.38 13.58 o
6 8 2 413.14 208.34 62.39 o
0 9 2 91.70 81.09 19.66 o
1 9 2 954.26 926.86 67.02 o
2 9 2 23.24 23.04 17.74 o
3 9 2 506.88 418.35 45.80 o
4 9 2 35.13 48.19 12.82 o
5 9 2 433.26 704.44 76.00 o
1 10 2 19.19 21.74 28.69 o
2 10 2 346.53 311.18 60.50 o
3 10 2 14.51 25.52 13.98 o
4 10 2 223.47 271.62 42.64 o
2 11 2 9.54 53.07 25.04 o
3 11 2 142.26 108.31 30.01 o
4 11 2 3.03 71.55 37.17 o
2 2 3 337.02 223.56 53.66 o
1 3 3 424.37 228.28 31.98 o
2 3 3 239.67 254.49 26.38 o
3 3 3 482.29 372.06 30.07 o
1 4 3 650.34 635.03 37.79 o
2 4 3 8.02 15.69 6.57 o
3 4 3 263.72 232.16 18.13 o
4 4 3 37.44 24.30 12.08 o
1 5 3 30.15 19.60 7.23 o
2 5 3 45.11 25.31 5.97 o
3 5 3 110.80 54.85 12.06 o
4 5 3 96.19 86.83 11.56 o
5 5 3 17.11 4.44 3.86 o
1 6 3 253.78 176.66 16.79 o
2 6 3 69.24 29.48 8.13 o
3 6 3 166.73 101.91 19.28 o
4 6 3 26.88 18.94 11.34 o
5 6 3 26.51 48.94 11.03 o
6 6 3 0.50 28.25 17.44 o
1 7 3 15.72 21.66 7.77 o
2 7 3 9.43 18.54 9.08 o
3 7 3 0.03 11.37 7.04 o
4 7 3 6.68 32.72 9.65 o
5 7 3 2.44 54.83 60.16 o
6 7 3 8.63 43.97 29.72 o
1 8 3 64.36 55.58 10.66 o
2 8 3 5.54 16.52 8.92 o
3 8 3 24.40 32.10 11.92 o
4 8 3 2.14 17.37 18.23 o
5 8 3 12.11 14.57 48.24 o
1 9 3 0.35 5.05 17.93 o
2 9 3 0.11 31.70 15.76 o
3 9 3 1.77 9.07 17.46 o
4 9 3 1.71 25.03 15.74 o
1 10 3 6.24 18.45 18.65 o
2 10 3 0.09 25.10 9.61 o
3 10 3 4.27 52.80 51.30 o
4 10 3 0.58 90.06 29.62 o
2 11 3 0.10 17.80 10.82 o
3 11 3 0.20 40.15 16.64 o
4 11 3 0.07 26.90 19.16 o
3 3 4 8479.97 9316.41 482.62 o
0 4 4 12711.76 14142.99 551.68 o
1 4 4 4062.07 4534.03 168.71 o
2 4 4 5074.96 4753.27 218.73 o
3 4 4 1474.03 1722.93 82.85 o
4 4 4 6779.04 7265.49 218.95 o
0 5 4 4365.78 4913.09 269.43 o
1 5 4 5960.69 6470.95 229.13 o
2 5 4 862.00 948.70 77.48 o
3 5 4 2790.47 2915.84 124.75 o
4 5 4 1743.14 1781.83 90.15 o
5 5 4 2260.63 2542.02 232.34 o
0 6 4 3251.20 3229.02 146.08 o
1 6 4 1178.78 1251.71 70.02 o
2 6 4 4037.59 4404.08 159.74 o
3 6 4 1171.68 1331.14 85.01 o
4 6 4 1361.91 1260.63 104.80 o
5 6 4 300.55 212.60 24.70 o
6 6 4 571.09 580.79 49.08 o
0 7 4 314.89 261.45 50.14 o
1 7 4 1279.49 1344.77 61.63 o
2 7 4 1098.41 1178.88 61.62 o
3 7 4 1556.25 1920.53 108.55 o
4 7 4 209.44 129.21 22.56 o
5 7 4 573.06 504.26 37.98 o
6 7 4 207.48 180.75 27.45 o
0 8 4 1353.13 1547.55 99.77 o
1 8 4 396.22 359.70 32.14 o
2 8 4 813.42 828.87 63.82 o
3 8 4 224.74 113.45 35.02 o
4 8 4 384.91 422.17 58.34 o
5 8 4 152.57 104.87 31.77 o
0 9 4 296.21 236.22 37.58 o
1 9 4 401.74 341.29 33.41 o
2 9 4 87.19 31.51 12.02 o
3 9 4 275.80 269.79 59.31 o
4 9 4 132.13 197.64 53.66 o
5 9 4 205.87 228.22 58.51 o
0 10 4 210.93 208.36 93.58 o
1 10 4 79.23 73.95 38.76 o
2 10 4 156.99 143.75 34.98 o
3 10 4 59.03 94.14 35.15 o
4 10 4 112.30 102.01 39.27 o
5 10 4 28.51 58.74 38.27 o
2 11 4 38.71 168.47 72.71 o
3 11 4 61.51 28.30 37.38 o
4 11 4 14.64 95.76 44.50 o
4 4 5 25.58 40.76 29.37 o
1 5 5 520.15 306.68 112.40 o
2 5 5 14.13 29.19 26.61 o
3 5 5 4.84 3.82 15.57 o
4 5 5 37.66 63.68 31.92 o
5 5 5 10.70 31.35 16.59 o
1 6 5 89.33 144.84 124.23 o
2 6 5 26.44 29.88 17.85 o
3 6 5 58.26 95.66 32.09 o
4 6 5 79.84 38.76 23.64 o
5 6 5 10.05 38.10 19.23 o
6 6 5 24.44 34.09 21.27 o
1 7 5 1.24 24.94 13.87 o
2 7 5 4.57 18.22 11.12 o
3 7 5 3.36 52.09 40.08 o
5 7 5 3.58 7.64 17.50 o
6 7 5 4.06 272.61 612.60 o
1 8 5 23.19 30.45 17.44 o
2 8 5 2.26 148.18 86.68 o
3 8 5 9.12 25.05 24.23 o
4 8 5 13.44 6.23 18.87 o
1 9 5 4.40 18.50 7.05 o
2 9 5 0.07 12.04 8.13 o
4 9 5 0.86 63.28 43.43 o
1 10 5 2.22 52.42 41.03 o
2 10 5 5.75 87.66 62.65 o
3 10 5 1.99 4.23 19.57 o
4 10 5 0.45 55.09 32.66 o
5 6 6 1203.84 1091.71 242.16 o
0 7 6 1643.93 1626.75 261.91 o
1 7 6 3135.22 3033.21 251.01 o
2 7 6 3159.44 3395.09 259.69 o
3 7 6 1712.71 2031.08 154.31 o
4 7 6 899.53 897.62 151.65 o
5 7 6 533.79 327.95 87.66 o
6 7 6 615.78 476.28 59.10 o
0 8 6 854.73 522.67 165.09 o
1 8 6 1307.43 1442.47 180.47 o
2 8 6 824.96 899.53 157.97 o
3 8 6 794.54 565.03 133.76 o
4 8 6 689.60 616.47 134.83 o
5 8 6 473.54 382.41 106.62 o
1 9 6 647.69 602.86 167.13 o
2 9 6 359.70 271.44 110.98 o
3 9 6 324.72 240.29 103.23 o
4 9 6 373.93 269.75 104.04 o
5 9 6 171.71 111.78 61.67 o
3 10 6 180.82 172.12 82.77 o
4 10 6 119.31 175.94 84.99 o
