#------------------------------------------------------------------------------
#$Date: 2019-11-24 09:31:59 +0200 (Sun, 24 Nov 2019) $
#$Revision: 237472 $
#$URL: file:///home/coder/svn-repositories/cod/cif/7/23/71/7237187.cif $
#------------------------------------------------------------------------------
#
# This file is available in the Crystallography Open Database (COD),
# http://www.crystallography.net/
#
# All data on this site have been placed in the public domain by the
# contributors.
#
data_7237187
loop_
_publ_author_name
'Dalinger, Igor L.'
'Serushkina, Olga V.'
'Muravyev, Nikita V.'
'Meerov, Dmitry B.'
'Miroshnichenko, Evgeniy A.'
'Kon'kova, Tatyana S.'
'Suponitsky, Kyrill Yu.'
'Vener, Mikhail V.'
'Sheremetev, Aleksei B.'
_publ_section_title
;
 Azasydnone -- novel &#x201C;green&#x201D; building block for designing
 high energetic compounds
;
_journal_issue                   38
_journal_name_full               'Journal of Materials Chemistry A'
_journal_page_first              18669
_journal_paper_doi               10.1039/C8TA06895J
_journal_volume                  6
_journal_year                    2018
_chemical_formula_moiety         'C7 H4 N4 O4'
_chemical_formula_sum            'C7 H4 N4 O4'
_chemical_formula_weight         208.14
_space_group_crystal_system      monoclinic
_space_group_IT_number           14
_space_group_name_Hall           '-P 2ybc'
_space_group_name_H-M_alt        'P 1 21/c 1'
_atom_sites_solution_hydrogens   geom
_atom_sites_solution_primary     direct
_atom_sites_solution_secondary   difmap
_audit_creation_method           SHELXL-2014/6
_audit_update_record
;
2018-07-05 deposited with the CCDC.
2018-09-06 downloaded from the CCDC.
;
_cell_angle_alpha                90
_cell_angle_beta                 110.626(4)
_cell_angle_gamma                90
_cell_formula_units_Z            4
_cell_length_a                   12.608(3)
_cell_length_b                   5.6499(11)
_cell_length_c                   12.102(2)
_cell_measurement_reflns_used    1921
_cell_measurement_temperature    100(2)
_cell_measurement_theta_max      29.65
_cell_measurement_theta_min      3.40
_cell_volume                     806.8(3)
_computing_cell_refinement       'SAINT (Bruker, 2009)'
_computing_data_collection       'APEX (Bruker, 2009)'
_computing_data_reduction        'SAINT (Bruker, 2009)'
_computing_molecular_graphics    'SHELXL-2014/6 (Sheldrick, 2014)'
_computing_publication_material
'SHELXL-2014/6 (Sheldrick, 2014) and PLATON (Spek, 2009)'
_computing_structure_refinement  'SHELXL-2014/6 (Sheldrick, 2014)'
_computing_structure_solution    'SHELXL-2014/6 (Sheldrick, 2014)'
_diffrn_ambient_temperature      100(2)
_diffrn_measured_fraction_theta_full 0.999
_diffrn_measured_fraction_theta_max 0.997
_diffrn_measurement_device_type  'Bruker APEX-II CCD'
_diffrn_measurement_method       '\f and \w scans'
_diffrn_radiation_type           MoK\a
_diffrn_radiation_wavelength     0.71073
_diffrn_reflns_av_R_equivalents  0.0642
_diffrn_reflns_av_unetI/netI     0.0452
_diffrn_reflns_Laue_measured_fraction_full 0.999
_diffrn_reflns_Laue_measured_fraction_max 0.997
_diffrn_reflns_limit_h_max       17
_diffrn_reflns_limit_h_min       -17
_diffrn_reflns_limit_k_max       7
_diffrn_reflns_limit_k_min       -7
_diffrn_reflns_limit_l_max       16
_diffrn_reflns_limit_l_min       -17
_diffrn_reflns_number            13624
_diffrn_reflns_point_group_measured_fraction_full 0.999
_diffrn_reflns_point_group_measured_fraction_max 0.997
_diffrn_reflns_theta_full        25.242
_diffrn_reflns_theta_max         30.032
_diffrn_reflns_theta_min         3.398
_diffrn_source                   'sealed tube'
_exptl_absorpt_coefficient_mu    0.144
_exptl_absorpt_correction_type   none
_exptl_crystal_colour            colorless
_exptl_crystal_density_diffrn    1.714
_exptl_crystal_description       prizm
_exptl_crystal_F_000             424
_exptl_crystal_size_max          0.26
_exptl_crystal_size_mid          0.20
_exptl_crystal_size_min          0.16
_refine_diff_density_max         0.304
_refine_diff_density_min         -0.224
_refine_diff_density_rms         0.054
_refine_ls_extinction_method     none
_refine_ls_goodness_of_fit_ref   1.015
_refine_ls_hydrogen_treatment    constr
_refine_ls_matrix_type           full
_refine_ls_number_parameters     136
_refine_ls_number_reflns         2354
_refine_ls_number_restraints     0
_refine_ls_restrained_S_all      1.015
_refine_ls_R_factor_all          0.0711
_refine_ls_R_factor_gt           0.0418
_refine_ls_shift/su_max          0.001
_refine_ls_shift/su_mean         0.000
_refine_ls_structure_factor_coef Fsqd
_refine_ls_weighting_details
'w=1/[\s^2^(Fo^2^)+(0.0434P)^2^+0.1712P] where P=(Fo^2^+2Fc^2^)/3'
_refine_ls_weighting_scheme      calc
_refine_ls_wR_factor_gt          0.0921
_refine_ls_wR_factor_ref         0.1062
_reflns_Friedel_coverage         0.000
_reflns_number_gt                1631
_reflns_number_total             2354
_reflns_threshold_expression     'I > 2\s(I)'
_cod_data_source_file            c8ta06895j3.cif
_cod_data_source_block           sh323
_cod_original_sg_symbol_H-M      'P 21/c'
_cod_database_code               7237187
_shelx_space_group_comment
;
The symmetry employed for this shelxl refinement is uniquely defined
by the following loop, which should always be used as a source of
symmetry information in preference to the above space-group names.
They are only intended as comments.
;
_shelxl_version_number           2014/6
_shelx_res_file
;
TITL sh323 in P2(1)/c
CELL 0.71073  12.6082   5.6499  12.1019  90.000 110.626  90.000
ZERR    4.00   0.0025   0.0011   0.0022   0.000   0.004   0.000
LATT  1
SYMM -X, 0.5+Y, 0.5-Z
SFAC C H N O
UNIT 28 16 16 16
TEMP -173.000

ACTA
CONF
HTAB

L.S. 6
BOND $H
FMAP 2
PLAN 10

WGHT    0.043400    0.171200
FVAR       0.70139
O1    4    0.603436    0.100779    0.829077    11.00000    0.03328    0.02198 =
         0.02637    0.00284    0.00503   -0.00077
O2    4    0.416385    0.103739    0.808116    11.00000    0.03716    0.03047 =
         0.02312    0.00368    0.00841    0.01155
O3    4    0.896507   -1.069278    1.238069    11.00000    0.04006    0.03641 =
         0.04029    0.01648    0.01910    0.01075
O4    4    0.999501   -1.023660    1.131104    11.00000    0.03103    0.03429 =
         0.03283   -0.00358    0.01236    0.00988
N1    3    0.692449   -0.044367    0.882005    11.00000    0.03009    0.02179 =
         0.02445    0.00221    0.00513   -0.00369
N2    3    0.649481   -0.205308    0.928923    11.00000    0.02581    0.01896 =
         0.01688   -0.00121    0.00650   -0.00104
N3    3    0.541170   -0.189830    0.915691    11.00000    0.02590    0.02430 =
         0.02121    0.00187    0.00839    0.00491
N4    3    0.921253   -0.966010    1.162083    11.00000    0.02616    0.02251 =
         0.02318   -0.00268    0.00556    0.00189
C1    1    0.506358    0.008257    0.848961    11.00000    0.03421    0.02137 =
         0.01889   -0.00265    0.00915    0.00122
C2    1    0.719968   -0.398642    0.990783    11.00000    0.02147    0.01897 =
         0.01818   -0.00145    0.00415   -0.00081
C3    1    0.811938   -0.458209    0.960217    11.00000    0.02364    0.02583 =
         0.02115    0.00088    0.00936   -0.00415
AFIX  43
H3A   2    0.828695   -0.372645    0.900796    11.00000   -1.20000
AFIX   0
C4    1    0.879102   -0.644895    1.017870    11.00000    0.02183    0.02613 =
         0.02473   -0.00380    0.01001   -0.00175
AFIX  43
H4A   2    0.942979   -0.691931    0.998877    11.00000   -1.20000
AFIX   0
C5    1    0.851085   -0.761378    1.103757    11.00000    0.02123    0.02060 =
         0.01861   -0.00279    0.00447    0.00032
C6    1    0.759318   -0.702761    1.134206    11.00000    0.03047    0.02660 =
         0.02151    0.00269    0.01220    0.00375
AFIX  43
H6A   2    0.742768   -0.788569    1.193684    11.00000   -1.20000
AFIX   0
C7    1    0.691364   -0.515648    1.076256    11.00000    0.02737    0.02480 =
         0.02353    0.00121    0.01283    0.00494
AFIX  43
H7A   2    0.627140   -0.469504    1.094836    11.00000   -1.20000

AFIX   0
HKLF 4

REM  sh323 in P2(1)/c
REM R1 =  0.0418 for    1631 Fo > 4sig(Fo)  and  0.0711 for all    2354 data
REM    136 parameters refined using      0 restraints

END

WGHT      0.0434      0.1712

REM Instructions for potential hydrogen bonds
EQIV $1 x, -y-3/2, z-1/2
HTAB C3 O3_$1
EQIV $2 -x+2, -y-2, -z+2
HTAB C4 O4_$2
EQIV $3 -x+1, -y, -z+2
HTAB C7 O2_$3

REM Highest difference peak  0.304,  deepest hole -0.224,  1-sigma level  0.054
Q1    1   0.8867 -0.8438  1.1359  11.00000  0.05    0.30
Q2    1   0.7963 -0.7561  1.1031  11.00000  0.05    0.29
Q3    1   0.6994 -0.4914  1.0159  11.00000  0.05    0.28
Q4    1   0.7780 -0.4093  0.9943  11.00000  0.05    0.27
Q5    1   0.7425 -0.5963  1.1100  11.00000  0.05    0.25
Q6    1   0.6851 -0.3084  0.9573  11.00000  0.05    0.24
Q7    1   0.8657 -0.5116  1.0130  11.00000  0.05    0.24
Q8    1   1.0471 -1.1196  1.1778  11.00000  0.05    0.22
Q9    1   0.8619 -0.7132  1.0569  11.00000  0.05    0.22
Q10   1   0.3682  0.0608  0.8321  11.00000  0.05    0.21
;
_shelx_res_checksum              19480
loop_
_space_group_symop_operation_xyz
'x, y, z'
'-x, y+1/2, -z+1/2'
'-x, -y, -z'
'x, -y-1/2, z-1/2'
loop_
_atom_site_label
_atom_site_type_symbol
_atom_site_fract_x
_atom_site_fract_y
_atom_site_fract_z
_atom_site_U_iso_or_equiv
_atom_site_adp_type
_atom_site_occupancy
_atom_site_site_symmetry_order
_atom_site_calc_flag
_atom_site_refinement_flags_posn
_atom_site_refinement_flags_adp
O1 O 0.60344(9) 0.10078(19) 0.82908(10) 0.0287(3) Uani 1 1 d . .
O2 O 0.41639(10) 0.1037(2) 0.80812(9) 0.0308(3) Uani 1 1 d . .
O3 O 0.89651(10) -1.0693(2) 1.23807(11) 0.0376(3) Uani 1 1 d . .
O4 O 0.99950(10) -1.0237(2) 1.13110(10) 0.0324(3) Uani 1 1 d . .
N1 N 0.69245(11) -0.0444(2) 0.88201(12) 0.0266(3) Uani 1 1 d . .
N2 N 0.64948(10) -0.2053(2) 0.92892(10) 0.0208(3) Uani 1 1 d . .
N3 N 0.54117(11) -0.1898(2) 0.91569(11) 0.0238(3) Uani 1 1 d . .
N4 N 0.92125(11) -0.9660(2) 1.16208(11) 0.0248(3) Uani 1 1 d . .
C1 C 0.50636(14) 0.0083(3) 0.84896(13) 0.0249(3) Uani 1 1 d . .
C2 C 0.71997(12) -0.3986(2) 0.99078(12) 0.0203(3) Uani 1 1 d . .
C3 C 0.81194(12) -0.4582(3) 0.96022(13) 0.0231(3) Uani 1 1 d . .
H3A H 0.8287 -0.3726 0.9008 0.028 Uiso 1 1 calc R U
C4 C 0.87910(12) -0.6449(3) 1.01787(13) 0.0237(3) Uani 1 1 d . .
H4A H 0.9430 -0.6919 0.9989 0.028 Uiso 1 1 calc R U
C5 C 0.85108(12) -0.7614(3) 1.10376(12) 0.0208(3) Uani 1 1 d . .
C6 C 0.75932(13) -0.7028(3) 1.13421(13) 0.0254(3) Uani 1 1 d . .
H6A H 0.7428 -0.7886 1.1937 0.030 Uiso 1 1 calc R U
C7 C 0.69136(13) -0.5156(3) 1.07626(13) 0.0242(3) Uani 1 1 d . .
H7A H 0.6271 -0.4695 1.0948 0.029 Uiso 1 1 calc R U
loop_
_atom_site_aniso_label
_atom_site_aniso_U_11
_atom_site_aniso_U_22
_atom_site_aniso_U_33
_atom_site_aniso_U_23
_atom_site_aniso_U_13
_atom_site_aniso_U_12
O1 0.0333(7) 0.0220(5) 0.0264(6) 0.0028(4) 0.0050(5) -0.0008(4)
O2 0.0372(7) 0.0305(6) 0.0231(6) 0.0037(5) 0.0084(5) 0.0116(5)
O3 0.0401(7) 0.0364(7) 0.0403(7) 0.0165(6) 0.0191(6) 0.0107(5)
O4 0.0310(6) 0.0343(6) 0.0328(6) -0.0036(5) 0.0124(5) 0.0099(5)
N1 0.0301(7) 0.0218(6) 0.0245(7) 0.0022(5) 0.0051(5) -0.0037(5)
N2 0.0258(6) 0.0190(6) 0.0169(6) -0.0012(5) 0.0065(5) -0.0010(5)
N3 0.0259(7) 0.0243(6) 0.0212(6) 0.0019(5) 0.0084(5) 0.0049(5)
N4 0.0262(7) 0.0225(6) 0.0232(6) -0.0027(5) 0.0056(5) 0.0019(5)
C1 0.0342(9) 0.0214(7) 0.0189(7) -0.0027(6) 0.0091(6) 0.0012(6)
C2 0.0215(7) 0.0190(6) 0.0182(7) -0.0015(5) 0.0041(5) -0.0008(5)
C3 0.0236(7) 0.0258(7) 0.0212(7) 0.0009(6) 0.0094(6) -0.0042(6)
C4 0.0218(7) 0.0261(8) 0.0247(7) -0.0038(6) 0.0100(6) -0.0017(6)
C5 0.0212(7) 0.0206(7) 0.0186(7) -0.0028(5) 0.0045(5) 0.0003(5)
C6 0.0305(8) 0.0266(8) 0.0215(7) 0.0027(6) 0.0122(6) 0.0037(6)
C7 0.0274(8) 0.0248(7) 0.0235(7) 0.0012(6) 0.0128(6) 0.0049(6)
loop_
_atom_type_symbol
_atom_type_description
_atom_type_scat_dispersion_real
_atom_type_scat_dispersion_imag
_atom_type_scat_source
C C 0.0033 0.0016 'International Tables Vol C Tables 4.2.6.8 and 6.1.1.4'
H H 0.0000 0.0000 'International Tables Vol C Tables 4.2.6.8 and 6.1.1.4'
N N 0.0061 0.0033 'International Tables Vol C Tables 4.2.6.8 and 6.1.1.4'
O O 0.0106 0.0060 'International Tables Vol C Tables 4.2.6.8 and 6.1.1.4'
loop_
_geom_angle_atom_site_label_1
_geom_angle_atom_site_label_2
_geom_angle_atom_site_label_3
_geom_angle
N1 O1 C1 108.38(11)
N2 N1 O1 103.22(12)
N1 N2 N3 118.51(12)
N1 N2 C2 119.09(12)
N3 N2 C2 122.38(12)
N2 N3 C1 103.31(12)
O4 N4 O3 123.72(13)
O4 N4 C5 118.48(13)
O3 N4 C5 117.79(13)
O2 C1 N3 132.72(16)
O2 C1 O1 120.70(14)
N3 C1 O1 106.57(13)
C3 C2 C7 123.50(14)
C3 C2 N2 118.00(13)
C7 C2 N2 118.50(13)
C2 C3 C4 118.44(13)
C2 C3 H3A 120.8
C4 C3 H3A 120.8
C5 C4 C3 118.19(14)
C5 C4 H4A 120.9
C3 C4 H4A 120.9
C6 C5 C4 123.49(14)
C6 C5 N4 118.72(13)
C4 C5 N4 117.74(13)
C5 C6 C7 118.52(14)
C5 C6 H6A 120.7
C7 C6 H6A 120.7
C2 C7 C6 117.85(14)
C2 C7 H7A 121.1
C6 C7 H7A 121.1
loop_
_geom_bond_atom_site_label_1
_geom_bond_atom_site_label_2
_geom_bond_distance
O1 N1 1.3549(17)
O1 C1 1.4272(19)
O2 C1 1.1946(19)
O3 N4 1.2188(17)
O4 N4 1.2168(16)
N1 N2 1.2882(17)
N2 N3 1.3206(17)
N2 C2 1.4404(18)
N3 C1 1.359(2)
N4 C5 1.4757(19)
C2 C3 1.377(2)
C2 C7 1.378(2)
C3 C4 1.378(2)
C3 H3A 0.9500
C4 C5 1.377(2)
C4 H4A 0.9500
C5 C6 1.373(2)
C6 C7 1.386(2)
C6 H6A 0.9500
C7 H7A 0.9500
loop_
_geom_torsion_atom_site_label_1
_geom_torsion_atom_site_label_2
_geom_torsion_atom_site_label_3
_geom_torsion_atom_site_label_4
_geom_torsion
C1 O1 N1 N2 -0.44(14)
O1 N1 N2 N3 -0.30(16)
O1 N1 N2 C2 177.94(11)
N1 N2 N3 C1 0.92(16)
C2 N2 N3 C1 -177.25(12)
N2 N3 C1 O2 178.03(17)
N2 N3 C1 O1 -1.08(14)
N1 O1 C1 O2 -178.25(13)
N1 O1 C1 N3 0.99(15)
N1 N2 C2 C3 -25.12(19)
N3 N2 C2 C3 153.05(13)
N1 N2 C2 C7 155.57(14)
N3 N2 C2 C7 -26.3(2)
C7 C2 C3 C4 0.1(2)
N2 C2 C3 C4 -179.20(13)
C2 C3 C4 C5 -0.4(2)
C3 C4 C5 C6 0.6(2)
C3 C4 C5 N4 177.98(13)
O4 N4 C5 C6 176.81(14)
O3 N4 C5 C6 -2.5(2)
O4 N4 C5 C4 -0.7(2)
O3 N4 C5 C4 -179.97(14)
C4 C5 C6 C7 -0.4(2)
N4 C5 C6 C7 -177.77(13)
C3 C2 C7 C6 0.1(2)
N2 C2 C7 C6 179.37(13)
C5 C6 C7 C2 0.1(2)
