#------------------------------------------------------------------------------
#$Date: 2019-11-24 17:14:01 +0200 (Sun, 24 Nov 2019) $
#$Revision: 238761 $
#$URL: file:///home/coder/svn-repositories/cod/cif/7/23/79/7237937.cif $
#------------------------------------------------------------------------------
#
# This file is available in the Crystallography Open Database (COD),
# http://www.crystallography.net/
#
# All data on this site have been placed in the public domain by the
# contributors.
#
data_7237937
loop_
_publ_author_name
'Tu, Jin'
'Fan, Yunhao'
'Wang, Jiaqiang'
'Li, Xiaoyu'
'Liu, Fan'
'Han, Mengmeng'
'Wang, Can'
'Li, Qianqian'
'Li, Zhen'
_publ_section_title
;
 Halogen-substituted triphenylamine derivatives with intense
 mechanoluminescence properties
;
_journal_issue                   39
_journal_name_full               'Journal of Materials Chemistry C'
_journal_page_first              12256
_journal_paper_doi               10.1039/C9TC03515J
_journal_volume                  7
_journal_year                    2019
_chemical_formula_moiety         'C19 H13 Br2 N O'
_chemical_formula_sum            'C19 H13 Br2 N O'
_chemical_formula_weight         431.12
_space_group_crystal_system      monoclinic
_space_group_IT_number           7
_space_group_name_Hall           'P -2yc'
_space_group_name_H-M_alt        'P 1 c 1'
_atom_sites_solution_hydrogens   geom
_audit_creation_method           SHELXL-2014/7
_audit_update_record
;
2018-12-07 deposited with the CCDC.	2019-08-31 downloaded from the CCDC.
;
_cell_angle_alpha                90
_cell_angle_beta                 107.570(8)
_cell_angle_gamma                90
_cell_formula_units_Z            2
_cell_length_a                   9.244(4)
_cell_length_b                   8.389(4)
_cell_length_c                   11.306(5)
_cell_measurement_reflns_used    996
_cell_measurement_temperature    296(2)
_cell_measurement_theta_max      22.30
_cell_measurement_theta_min      2.31
_cell_volume                     835.9(7)
_computing_cell_refinement       'Bruker SAINT'
_computing_data_collection       'Bruker APEX2'
_computing_data_reduction        'Bruker SAINT'
_computing_molecular_graphics    'Bruker SHELXTL'
_computing_publication_material  'Bruker SHELXTL'
_computing_structure_refinement  'SHELXL-2014/7 (Sheldrick, 2014)'
_computing_structure_solution    'SHELXS-97 (Sheldrick, 2008)'
_diffrn_ambient_temperature      296(2)
_diffrn_measured_fraction_theta_full 0.998
_diffrn_measured_fraction_theta_max 0.998
_diffrn_measurement_device_type  'Bruker APEX-II CCD'
_diffrn_measurement_method       '\f and \w scans'
_diffrn_radiation_type           MoK\a
_diffrn_radiation_wavelength     0.71073
_diffrn_reflns_av_R_equivalents  0.0795
_diffrn_reflns_av_unetI/netI     0.1146
_diffrn_reflns_Laue_measured_fraction_full 0.998
_diffrn_reflns_Laue_measured_fraction_max 0.998
_diffrn_reflns_limit_h_max       10
_diffrn_reflns_limit_h_min       -10
_diffrn_reflns_limit_k_max       9
_diffrn_reflns_limit_k_min       -9
_diffrn_reflns_limit_l_max       10
_diffrn_reflns_limit_l_min       -13
_diffrn_reflns_number            5366
_diffrn_reflns_point_group_measured_fraction_full 0.921
_diffrn_reflns_point_group_measured_fraction_max 0.921
_diffrn_reflns_theta_full        24.403
_diffrn_reflns_theta_max         24.403
_diffrn_reflns_theta_min         2.311
_exptl_absorpt_coefficient_mu    4.852
_exptl_absorpt_correction_type   none
_exptl_crystal_colour            colorless
_exptl_crystal_density_diffrn    1.713
_exptl_crystal_description       block
_exptl_crystal_F_000             424
_exptl_crystal_size_max          0.150
_exptl_crystal_size_mid          0.120
_exptl_crystal_size_min          0.100
_refine_diff_density_max         0.488
_refine_diff_density_min         -0.477
_refine_diff_density_rms         0.085
_refine_ls_abs_structure_details
; 
 Flack x determined using 507 quotients [(I+)-(I-)]/[(I+)+(I-)] 
 (Parsons, Flack and Wagner, Acta Cryst. B69 (2013) 249-259). 
;
_refine_ls_abs_structure_Flack   0.04(2)
_refine_ls_extinction_method     none
_refine_ls_goodness_of_fit_ref   0.959
_refine_ls_hydrogen_treatment    constr
_refine_ls_matrix_type           full
_refine_ls_number_parameters     182
_refine_ls_number_reflns         2547
_refine_ls_number_restraints     12
_refine_ls_restrained_S_all      0.961
_refine_ls_R_factor_all          0.1002
_refine_ls_R_factor_gt           0.0582
_refine_ls_shift/su_max          0.035
_refine_ls_shift/su_mean         0.002
_refine_ls_structure_factor_coef Fsqd
_refine_ls_weighting_details
'w=1/[\s^2^(Fo^2^)+(0.0611P)^2^+0.7115P] where P=(Fo^2^+2Fc^2^)/3'
_refine_ls_weighting_scheme      calc
_refine_ls_wR_factor_gt          0.1391
_refine_ls_wR_factor_ref         0.1605
_reflns_Friedel_coverage         0.840
_reflns_Friedel_fraction_full    0.844
_reflns_Friedel_fraction_max     0.844
_reflns_number_gt                1637
_reflns_number_total             2547
_reflns_threshold_expression     'I > 2\s(I)'
_cod_data_source_file            c9tc03515j4.cif
_cod_data_source_block           T
_cod_original_cell_volume        835.9(6)
_cod_original_sg_symbol_H-M      'P c'
_cod_database_code               7237937
_shelx_shelxl_version_number     2014/7
_shelx_space_group_comment
; 
The symmetry employed for this shelxl refinement is uniquely defined 
by the following loop, which should always be used as a source of 
symmetry information in preference to the above space-group names. 
They are only intended as comments. 
;
_shelx_estimated_absorpt_t_min   0.530
_shelx_estimated_absorpt_t_max   0.643
_shelx_res_file
; 
  
    T.res created by SHELXL-2014/7 
  
TITL T in Pc 
CELL 0.71073   9.2442   8.3893  11.3061  90.000 107.570  90.000 
ZERR    2.00   0.0041   0.0037   0.0049   0.000   0.008   0.000 
LATT -1 
SYMM X, -Y, 0.5+Z 
SFAC C  H  O  Br N 
UNIT 38  26  2  4  2 
OMIT 4 2 0 
OMIT -3 51 
L.S. 5 
ACTA 
BOND  $H 
FMAP 2 
PLAN 60 
HTAB C17 O1_$7 
EQIV $7 x-1, -y+2, z-1/2 
HTAB C11 O1'_$6 
EQIV $6 x, y, z-1 
HTAB C8 Br1_$5 
EQIV $5 x, -y+2, z-1/2 
HTAB C6 Br2_$4 
EQIV $4 x+1, -y+1, z+1/2 
HTAB C5 Br2_$3 
EQIV $3 x+1, y, z+1 
HTAB C3 Br1'_$2 
HTAB C3 O1_$2 
EQIV $2 x-1, -y+2, z+1/2 
HTAB C2 Br1'_$1 
EQIV $1 x-1, y, z 
CONF 
SIZE 0.15 0.12 0.10 
EADP BR1 C19' 
EADP BR1' C19 
EADP O1 O1' 
SADI 0.01 C11 C19 C9 C19 
SADI 0.01 C3 C19' C5 C19' 
FREE O1'  C4 
DFIX 1.39 0.01 C10 C19 C4 C19' 
DFIX 1.25 0.01 C19 O1 C19' O1' 
FLAT 0.01 C1 > C6 C19' 
TEMP 23 
WGHT    0.061100    0.711480 
FVAR       0.16375   0.71202 
PART 1 
BR1   4    0.537177    0.752721    1.483176    21.00000    0.13471    0.13954 = 
         0.04218   -0.03104    0.04646   -0.07935 
O1    3    1.137838    1.073827    0.869100    21.00000    0.07308    0.13012 = 
         0.08319   -0.00407    0.02642   -0.03720 
C19   1    1.043936    0.971697    0.824930    21.00000    0.03089    0.11499 = 
         0.05623    0.00835    0.02471   -0.02205 
AFIX  43 
H19   2    1.055598    0.923392    0.754333    21.00000   -1.20000 
PART 0 
AFIX   0 
BR2   4   -0.001773    0.489466    0.549027    11.00000    0.05943    0.13681 = 
         0.06286   -0.01952    0.01191   -0.03059 
AFIX  66 
C1    1    0.535502    0.755014    1.070939    11.00000    0.04260    0.05049 = 
         0.02458   -0.00400    0.01570    0.00311 
C2    1    0.409764    0.814164    1.099756    11.00000    0.05482    0.07115 = 
         0.04475   -0.01119    0.01856    0.00831 
AFIX  43 
H2    2    0.327167    0.853220    1.037167    11.00000   -1.20000 
AFIX  65 
C3    1    0.407477    0.814940    1.222119    11.00000    0.07973    0.04988 = 
         0.05745   -0.00051    0.04986   -0.00820 
AFIX  43 
H3    2    0.323349    0.854515    1.241399    11.00000   -1.20000 
AFIX  65 
C4    1    0.530928    0.756566    1.315666    11.00000    0.07494    0.05831 = 
         0.04149   -0.01855    0.03183   -0.01628 
C5    1    0.656667    0.697416    1.286851    11.00000    0.08066    0.06418 = 
         0.02525    0.02184    0.00150   -0.00862 
AFIX  43 
H5    2    0.739264    0.658361    1.349440    11.00000   -1.20000 
AFIX  65 
C6    1    0.658956    0.696639    1.164488    11.00000    0.05452    0.06225 = 
         0.03863   -0.00665    0.01498    0.01701 
AFIX  43 
H6    2    0.743084    0.657064    1.145208    11.00000   -1.20000 
AFIX   0 
N1    5    0.538254    0.757314    0.948563    11.00000    0.04731    0.07017 = 
         0.02867    0.00204    0.01615    0.00191 
AFIX  66 
C7    1    0.671318    0.802238    0.921077    11.00000    0.04303    0.05978 = 
         0.03472    0.00814    0.01653    0.01110 
C8    1    0.758590    0.924986    0.989428    11.00000    0.07340    0.05816 = 
         0.02939   -0.01567    0.01971   -0.00965 
AFIX  43 
H8    2    0.732832    0.969789    1.055581    11.00000   -1.20000 
AFIX  65 
C9    1    0.884361    0.980770    0.958906    11.00000    0.04860    0.06648 = 
         0.05467   -0.00017    0.00190   -0.00342 
AFIX  43 
H9    2    0.942751    1.062897    1.004638    11.00000   -1.20000 
AFIX  65 
C10   1    0.922861    0.913807    0.860033    11.00000    0.04619    0.07326 = 
         0.03490   -0.00404    0.01563   -0.00586 
C11   1    0.835590    0.791059    0.791681    11.00000    0.04572    0.06950 = 
         0.03060   -0.00241    0.00989    0.01798 
AFIX  43 
H11   2    0.861349    0.746256    0.725528    11.00000   -1.20000 
AFIX  65 
C12   1    0.709818    0.735273    0.822201    11.00000    0.04418    0.07392 = 
         0.02555   -0.01240    0.00988    0.00394 
AFIX  43 
H12   2    0.651428    0.653146    0.776469    11.00000   -1.20000 
PART 2 
AFIX   0 
BR1'  4    1.081893    1.010221    0.824865   -21.00000    0.03089    0.11499 = 
         0.05623    0.00835    0.02471   -0.02205 
PART 0 
AFIX  66 
C13   1    0.410058    0.698214    0.854588    11.00000    0.04241    0.04701 = 
         0.03669    0.00490    0.01353    0.01004 
C14   1    0.322154    0.578588    0.883296    11.00000    0.05946    0.06237 = 
         0.03603    0.00487    0.01490    0.00555 
AFIX  43 
H14   2    0.346983    0.538466    0.963622    11.00000   -1.20000 
AFIX  65 
C15   1    0.197140    0.518929    0.791948    11.00000    0.04812    0.05974 = 
         0.06020    0.00599    0.03096    0.00415 
AFIX  43 
H15   2    0.138327    0.438891    0.811156    11.00000   -1.20000 
AFIX  65 
C16   1    0.160029    0.578896    0.671892    11.00000    0.05326    0.07770 = 
         0.04096   -0.00674    0.02063    0.00853 
C17   1    0.247932    0.698522    0.643183    11.00000    0.04406    0.05695 = 
         0.03680    0.00906    0.00606    0.01129 
AFIX  43 
H17   2    0.223102    0.738643    0.562857    11.00000   -1.20000 
AFIX  65 
C18   1    0.372946    0.758183    0.734530    11.00000    0.04770    0.04225 = 
         0.04083    0.00606    0.02048    0.00315 
AFIX  43 
H18   2    0.431759    0.838221    0.715321    11.00000   -1.20000 
PART 2 
AFIX   0 
O1'   3    0.635101    0.720571    1.527201   -21.00000    0.07308    0.13012 = 
         0.08319   -0.00407    0.02642   -0.03720 
C19'  1    0.526745    0.758268    1.437442   -21.00000    0.13471    0.13954 = 
         0.04218   -0.03104    0.04646   -0.07935 
AFIX  43 
H19'  2    0.437169    0.789606    1.452077   -21.00000   -1.20000 
PART 
AFIX   0 
HKLF 4 
  
REM  T in Pc 
REM R1 =  0.0582 for    1637 Fo > 4sig(Fo)  and  0.1002 for all    2547 data 
REM    182 parameters refined using     12 restraints 
  
END 
  
WGHT      0.0606      0.0000 
  
REM Highest difference peak  0.488,  deepest hole -0.477,  1-sigma level  0.085 
Q1    1   0.4799  0.8309  1.4219  11.00000  0.05    0.49 
Q2    1   0.5855  0.7201  1.4815  11.00000  0.05    0.41 
Q3    1   1.0162  1.0904  0.7884  11.00000  0.05    0.39 
Q4    1   0.0618  0.4044  0.6160  11.00000  0.05    0.36 
Q5    1  -0.0477  0.3659  0.4863  11.00000  0.05    0.31 
Q6    1   0.5145  0.6562  1.4435  11.00000  0.05    0.29 
Q7    1   0.0419  0.5935  0.6111  11.00000  0.05    0.28 
Q8    1   1.0067  0.9773  1.0232  11.00000  0.05    0.28 
Q9    1   0.4800  0.7503  1.4938  11.00000  0.05    0.27 
Q10   1   0.7738  0.4851  1.1478  11.00000  0.05    0.27 
Q11   1   0.6739  0.7469  1.2535  11.00000  0.05    0.27 
Q12   1   0.8344  0.8654  0.7846  11.00000  0.05    0.26 
Q13   1   0.8436  0.9964  0.7856  11.00000  0.05    0.26 
Q14   1   1.1435  1.0352  0.7999  11.00000  0.05    0.26 
Q15   1   0.4527  0.8044  1.1372  11.00000  0.05    0.26 
Q16   1   0.5558  0.5615  1.4419  11.00000  0.05    0.26 
Q17   1   1.1341  1.0422  0.8959  11.00000  0.05    0.25 
Q18   1   0.5321  0.8259  1.1767  11.00000  0.05    0.25 
Q19   1   0.4368  0.9517  1.2769  11.00000  0.05    0.25 
Q20   1  -0.0253  0.2998  0.6995  11.00000  0.05    0.25 
Q21   1   0.2489  0.7326  0.6741  11.00000  0.05    0.24 
Q22   1  -0.0765  0.4808  0.6563  11.00000  0.05    0.24 
Q23   1   0.1794  0.7396  0.5706  11.00000  0.05    0.23 
Q24   1   0.2453  0.6010  0.6705  11.00000  0.05    0.23 
Q25   1   0.5033  0.6648  0.9238  11.00000  0.05    0.22 
Q26   1   0.7555  0.7689  0.8430  11.00000  0.05    0.22 
Q27   1   0.9708  0.8093  0.7615  11.00000  0.05    0.22 
Q28   1   0.4332  0.7473  0.6014  11.00000  0.05    0.21 
Q29   1   0.7840  0.8463  0.9929  11.00000  0.05    0.21 
Q30   1   0.9020  0.4919  1.3343  11.00000  0.05    0.21 
Q31   1   1.0722  0.9487  0.8375  11.00000  0.05    0.21 
Q32   1   0.4169  0.7269  1.0837  11.00000  0.05    0.21 
Q33   1  -0.0861  0.4728  0.3607  11.00000  0.05    0.21 
Q34   1  -0.0588  0.5951  0.4522  11.00000  0.05    0.21 
Q35   1   0.9820  0.7971  1.0554  11.00000  0.05    0.21 
Q36   1  -0.0435  0.7005  0.5660  11.00000  0.05    0.20 
Q37   1   0.5591  0.9891  1.3272  11.00000  0.05    0.20 
Q38   1   0.7243  0.7526  1.5595  11.00000  0.05    0.20 
Q39   1   0.9087  0.8068  0.8387  11.00000  0.05    0.20 
Q40   1  -0.0948  0.4864  0.4477  11.00000  0.05    0.20 
Q41   1   1.1614  0.9790  0.7388  11.00000  0.05    0.20 
Q42   1   0.2614  0.4925  0.7982  11.00000  0.05    0.20 
Q43   1   0.7206  0.7188  1.4891  11.00000  0.05    0.20 
Q44   1   0.3564  0.7904  1.4896  11.00000  0.05    0.19 
Q45   1   0.1251  0.4992  0.6158  11.00000  0.05    0.19 
Q46   1   0.8390  0.9330  1.1383  11.00000  0.05    0.19 
Q47   1   0.9412  1.2739  1.0149  11.00000  0.05    0.19 
Q48   1   1.0074  1.0795  1.0978  11.00000  0.05    0.19 
Q49   1   1.1471  1.2264  0.8963  11.00000  0.05    0.19 
Q50   1   0.3483  0.9717  1.4370  11.00000  0.05    0.19 
Q51   1   1.1543  1.2233  0.8454  11.00000  0.05    0.19 
Q52   1   0.4392  0.7817  1.2334  11.00000  0.05    0.19 
Q53   1   0.1070  0.7007  0.6197  11.00000  0.05    0.18 
Q54   1   0.2194  0.8929  0.6541  11.00000  0.05    0.18 
Q55   1   0.3799  0.9632  1.0758  11.00000  0.05    0.18 
Q56   1   0.8143  0.7319  0.9089  11.00000  0.05    0.18 
Q57   1   0.1813  0.9830  1.0267  11.00000  0.05    0.18 
Q58   1   0.6103  0.5266  1.5221  11.00000  0.05    0.18 
Q59   1   0.7641  0.5806  1.5418  11.00000  0.05    0.17 
Q60   1   0.7958  0.6763  1.3396  11.00000  0.05    0.17 
;
_shelx_res_checksum              64069
loop_
_space_group_symop_operation_xyz
'x, y, z'
'x, -y, z+1/2'
loop_
_atom_site_label
_atom_site_type_symbol
_atom_site_fract_x
_atom_site_fract_y
_atom_site_fract_z
_atom_site_U_iso_or_equiv
_atom_site_adp_type
_atom_site_occupancy
_atom_site_site_symmetry_order
_atom_site_calc_flag
_atom_site_refinement_flags_posn
_atom_site_refinement_flags_adp
_atom_site_refinement_flags_occupancy
_atom_site_disorder_assembly
_atom_site_disorder_group
Br1 Br 0.5372(4) 0.7527(5) 1.4832(3) 0.1011(15) Uani 0.712(8) 1 d . . P A 1
O1 O 1.138(2) 1.074(2) 0.869(2) 0.095(6) Uani 0.712(8) 1 d D . P A 1
C19 C 1.044(3) 0.972(4) 0.825(3) 0.065(3) Uani 0.712(8) 1 d D . P A 1
H19 H 1.0556 0.9234 0.7543 0.078 Uiso 0.712(8) 1 calc R U P A 1
Br2 Br -0.0018(2) 0.4895(3) 0.54903(19) 0.0878(8) Uani 1 1 d . . . . .
C1 C 0.5355(9) 0.7550(10) 1.0709(5) 0.038(3) Uani 1 1 d G . . . .
C2 C 0.4098(8) 0.8142(10) 1.0998(7) 0.056(4) Uani 1 1 d G . . . .
H2 H 0.3272 0.8532 1.0372 0.067 Uiso 1 1 calc R U . . .
C3 C 0.4075(9) 0.8149(11) 1.2221(7) 0.056(4) Uani 1 1 d DG . . . .
H3 H 0.3233 0.8545 1.2414 0.067 Uiso 1 1 calc R U . . .
C4 C 0.5309(10) 0.7566(11) 1.3157(6) 0.055(4) Uani 1 1 d DG . . . .
C5 C 0.6567(9) 0.6974(10) 1.2869(6) 0.060(4) Uani 1 1 d DG . . . .
H5 H 0.7393 0.6584 1.3494 0.072 Uiso 1 1 calc R U . . .
C6 C 0.6590(8) 0.6966(10) 1.1645(7) 0.052(3) Uani 1 1 d G . . . .
H6 H 0.7431 0.6571 1.1452 0.062 Uiso 1 1 calc R U . . .
N1 N 0.5383(13) 0.7573(14) 0.9486(9) 0.048(3) Uani 1 1 d . . . . .
C7 C 0.6713(8) 0.8022(10) 0.9211(7) 0.045(3) Uani 1 1 d G . . . .
C8 C 0.7586(9) 0.9250(10) 0.9894(6) 0.053(4) Uani 1 1 d G . . . .
H8 H 0.7328 0.9698 1.0556 0.063 Uiso 1 1 calc R U . . .
C9 C 0.8844(9) 0.9808(9) 0.9589(8) 0.060(4) Uani 1 1 d DG . . . .
H9 H 0.9428 1.0629 1.0046 0.072 Uiso 1 1 calc R U . . .
C10 C 0.9229(8) 0.9138(10) 0.8600(8) 0.051(3) Uani 1 1 d DG . . . .
C11 C 0.8356(9) 0.7911(10) 0.7917(6) 0.049(3) Uani 1 1 d DG . . . .
H11 H 0.8613 0.7463 0.7255 0.059 Uiso 1 1 calc R U . . .
C12 C 0.7098(8) 0.7353(9) 0.8222(7) 0.048(3) Uani 1 1 d G . . . .
H12 H 0.6514 0.6531 0.7765 0.058 Uiso 1 1 calc R U . . .
Br1' Br 1.0819(7) 1.0102(10) 0.8249(7) 0.065(3) Uani 0.288(8) 1 d . . P A 2
C13 C 0.4101(8) 0.6982(9) 0.8546(6) 0.042(3) Uani 1 1 d G . . . .
C14 C 0.3222(9) 0.5786(10) 0.8833(6) 0.053(3) Uani 1 1 d G . . . .
H14 H 0.3470 0.5385 0.9636 0.063 Uiso 1 1 calc R U . . .
C15 C 0.1971(9) 0.5189(9) 0.7919(8) 0.053(4) Uani 1 1 d G . . . .
H15 H 0.1383 0.4389 0.8112 0.063 Uiso 1 1 calc R U . . .
C16 C 0.1600(8) 0.5789(10) 0.6719(7) 0.056(4) Uani 1 1 d G . . . .
C17 C 0.2479(9) 0.6985(10) 0.6432(6) 0.047(3) Uani 1 1 d G . . . .
H17 H 0.2231 0.7386 0.5629 0.057 Uiso 1 1 calc R U . . .
C18 C 0.3729(8) 0.7582(8) 0.7345(7) 0.042(3) Uani 1 1 d G . . . .
H18 H 0.4318 0.8382 0.7153 0.050 Uiso 1 1 calc R U . . .
O1' O 0.635(4) 0.721(6) 1.527(4) 0.095(6) Uani 0.288(8) 1 d D . P A 2
C19' C 0.527(2) 0.758(2) 1.4374(14) 0.1011(15) Uani 0.288(8) 1 d D . P A 2
H19' H 0.4372 0.7896 1.4521 0.121 Uiso 0.288(8) 1 calc R U P A 2
loop_
_atom_site_aniso_label
_atom_site_aniso_U_11
_atom_site_aniso_U_22
_atom_site_aniso_U_33
_atom_site_aniso_U_23
_atom_site_aniso_U_13
_atom_site_aniso_U_12
Br1 0.135(3) 0.140(3) 0.0422(16) -0.0310(15) 0.0465(16) -0.079(2)
O1 0.073(14) 0.130(17) 0.083(13) -0.004(12) 0.026(11) -0.037(11)
C19 0.031(5) 0.115(8) 0.056(3) 0.008(3) 0.025(3) -0.022(3)
Br2 0.0594(9) 0.1368(18) 0.0629(10) -0.0195(11) 0.0119(7) -0.0306(11)
C1 0.043(7) 0.050(7) 0.025(6) -0.004(6) 0.016(6) 0.003(6)
C2 0.055(9) 0.071(10) 0.045(9) -0.011(7) 0.019(7) 0.008(7)
C3 0.080(11) 0.050(9) 0.057(9) -0.001(7) 0.050(9) -0.008(8)
C4 0.075(12) 0.058(9) 0.041(8) -0.019(7) 0.032(8) -0.016(7)
C5 0.081(11) 0.064(10) 0.025(7) 0.022(7) 0.001(7) -0.009(8)
C6 0.055(8) 0.062(9) 0.039(7) -0.007(7) 0.015(6) 0.017(7)
N1 0.047(6) 0.070(7) 0.029(6) 0.002(6) 0.016(5) 0.002(5)
C7 0.043(7) 0.060(9) 0.035(7) 0.008(6) 0.017(5) 0.011(6)
C8 0.073(10) 0.058(9) 0.029(7) -0.016(7) 0.020(7) -0.010(8)
C9 0.049(8) 0.066(10) 0.055(9) 0.000(7) 0.002(7) -0.003(7)
C10 0.046(8) 0.073(10) 0.035(7) -0.004(7) 0.016(6) -0.006(7)
C11 0.046(7) 0.070(9) 0.031(6) -0.002(6) 0.010(6) 0.018(6)
C12 0.044(7) 0.074(9) 0.026(6) -0.012(6) 0.010(6) 0.004(6)
Br1' 0.031(5) 0.115(8) 0.056(3) 0.008(3) 0.025(3) -0.022(3)
C13 0.042(7) 0.047(8) 0.037(7) 0.005(6) 0.014(6) 0.010(6)
C14 0.059(8) 0.062(9) 0.036(7) 0.005(7) 0.015(6) 0.006(7)
C15 0.048(8) 0.060(9) 0.060(9) 0.006(7) 0.031(7) 0.004(6)
C16 0.053(8) 0.078(10) 0.041(8) -0.007(8) 0.021(6) 0.009(8)
C17 0.044(7) 0.057(9) 0.037(7) 0.009(6) 0.006(6) 0.011(6)
C18 0.048(7) 0.042(8) 0.041(8) 0.006(6) 0.020(6) 0.003(6)
O1' 0.073(14) 0.130(17) 0.083(13) -0.004(12) 0.026(11) -0.037(11)
C19' 0.135(3) 0.140(3) 0.0422(16) -0.0310(15) 0.0465(16) -0.079(2)
loop_
_atom_type_symbol
_atom_type_description
_atom_type_scat_dispersion_real
_atom_type_scat_dispersion_imag
_atom_type_scat_source
C C 0.0033 0.0016 'International Tables Vol C Tables 4.2.6.8 and 6.1.1.4'
H H 0.0000 0.0000 'International Tables Vol C Tables 4.2.6.8 and 6.1.1.4'
O O 0.0106 0.0060 'International Tables Vol C Tables 4.2.6.8 and 6.1.1.4'
Br Br -0.2901 2.4595 'International Tables Vol C Tables 4.2.6.8 and 6.1.1.4'
N N 0.0061 0.0033 'International Tables Vol C Tables 4.2.6.8 and 6.1.1.4'
loop_
_geom_angle_atom_site_label_1
_geom_angle_atom_site_label_2
_geom_angle_atom_site_label_3
_geom_angle
O1 C19 C10 132.0(16)
O1 C19 H19 114.0
C10 C19 H19 114.0
C2 C1 C6 120.0
C2 C1 N1 119.7(7)
C6 C1 N1 120.3(7)
C3 C2 C1 120.0
C3 C2 H2 120.0
C1 C2 H2 120.0
C4 C3 C2 120.0
C4 C3 H3 120.0
C2 C3 H3 120.0
C19' C4 C3 119.2(6)
C19' C4 C5 120.8(6)
C3 C4 C5 120.0
C3 C4 Br1 122.8(5)
C5 C4 Br1 117.2(5)
C6 C5 C4 120.0
C6 C5 H5 120.0
C4 C5 H5 120.0
C5 C6 C1 120.0
C5 C6 H6 120.0
C1 C6 H6 120.0
C1 N1 C7 120.2(9)
C1 N1 C13 118.5(9)
C7 N1 C13 121.0(8)
C8 C7 C12 120.0
C8 C7 N1 118.3(6)
C12 C7 N1 121.5(6)
C9 C8 C7 120.0
C9 C8 H8 120.0
C7 C8 H8 120.0
C8 C9 C10 120.0
C8 C9 H9 120.0
C10 C9 H9 120.0
C19 C10 C9 121.0(6)
C19 C10 C11 119.0(6)
C9 C10 C11 120.0
C9 C10 Br1' 114.5(5)
C11 C10 Br1' 125.3(5)
C12 C11 C10 120.0
C12 C11 H11 120.0
C10 C11 H11 120.0
C11 C12 C7 120.0
C11 C12 H12 120.0
C7 C12 H12 120.0
C14 C13 C18 120.0
C14 C13 N1 119.5(6)
C18 C13 N1 120.5(6)
C13 C14 C15 120.0
C13 C14 H14 120.0
C15 C14 H14 120.0
C14 C15 C16 120.0
C14 C15 H15 120.0
C16 C15 H15 120.0
C17 C16 C15 120.0
C17 C16 Br2 120.7(4)
C15 C16 Br2 119.2(5)
C16 C17 C18 120.0
C16 C17 H17 120.0
C18 C17 H17 120.0
C17 C18 C13 120.0
C17 C18 H18 120.0
C13 C18 H18 120.0
O1' C19' C4 124(3)
O1' C19' H19' 118.1
C4 C19' H19' 118.2
loop_
_geom_bond_atom_site_label_1
_geom_bond_atom_site_label_2
_geom_bond_distance
Br1 C4 1.878(6)
O1 C19 1.215(13)
C19 C10 1.384(13)
C19 H19 0.9300
Br2 C16 1.864(6)
C1 C2 1.3900
C1 C6 1.3900
C1 N1 1.392(12)
C2 C3 1.3900
C2 H2 0.9300
C3 C4 1.3900
C3 H3 0.9300
C4 C19' 1.389(14)
C4 C5 1.3900
C5 C6 1.3900
C5 H5 0.9300
C6 H6 0.9300
N1 C7 1.408(13)
N1 C13 1.421(12)
C7 C8 1.3900
C7 C12 1.3900
C8 C9 1.3900
C8 H8 0.9300
C9 C10 1.3900
C9 H9 0.9300
C10 C11 1.3900
C10 Br1' 1.824(8)
C11 C12 1.3900
C11 H11 0.9300
C12 H12 0.9300
C13 C14 1.3900
C13 C18 1.3900
C14 C15 1.3900
C14 H14 0.9300
C15 C16 1.3900
C15 H15 0.9300
C16 C17 1.3900
C17 C18 1.3900
C17 H17 0.9300
C18 H18 0.9300
O1' C19' 1.233(14)
C19' H19' 0.9300
loop_
_geom_hbond_atom_site_label_D
_geom_hbond_atom_site_label_H
_geom_hbond_atom_site_label_A
_geom_hbond_distance_DH
_geom_hbond_distance_HA
_geom_hbond_distance_DA
_geom_hbond_angle_DHA
_geom_hbond_site_symmetry_A
C17 H17 O1 0.93 2.62 3.52(2) 163.3 2_474
C11 H11 O1' 0.93 2.57 3.06(4) 113.4 1_554
C8 H8 Br1 0.93 2.91 3.379(8) 112.7 2_574
C6 H6 Br2 0.93 3.13 4.056(7) 172.9 2_665
C5 H5 Br2 0.93 3.09 4.019(7) 173.3 1_656
C3 H3 Br1' 0.93 2.90 3.830(9) 174.2 2_475
C3 H3 O1 0.93 2.62 3.51(2) 160.5 2_475
C2 H2 Br1' 0.93 3.06 3.983(11) 173.2 1_455
loop_
_geom_torsion_atom_site_label_1
_geom_torsion_atom_site_label_2
_geom_torsion_atom_site_label_3
_geom_torsion_atom_site_label_4
_geom_torsion
C6 C1 C2 C3 0.0
N1 C1 C2 C3 -178.8(9)
C1 C2 C3 C4 0.0
C2 C3 C4 C19' 180.0(4)
C2 C3 C4 C5 0.0
C2 C3 C4 Br1 -179.9(7)
C19' C4 C5 C6 -180.0(4)
C3 C4 C5 C6 0.0
Br1 C4 C5 C6 179.9(6)
C4 C5 C6 C1 0.0
C2 C1 C6 C5 0.0
N1 C1 C6 C5 178.8(9)
C2 C1 N1 C7 137.7(8)
C6 C1 N1 C7 -41.1(13)
C2 C1 N1 C13 -48.6(12)
C6 C1 N1 C13 132.6(8)
C1 N1 C7 C8 -38.0(12)
C13 N1 C7 C8 148.4(8)
C1 N1 C7 C12 146.9(8)
C13 N1 C7 C12 -26.6(13)
C12 C7 C8 C9 0.0
N1 C7 C8 C9 -175.2(8)
C7 C8 C9 C10 0.0
O1 C19 C10 C9 4(6)
O1 C19 C10 C11 -178(4)
C8 C9 C10 C19 177(2)
C8 C9 C10 C11 0.0
C8 C9 C10 Br1' 175.6(7)
C19 C10 C11 C12 -177(2)
C9 C10 C11 C12 0.0
Br1' C10 C11 C12 -175.1(8)
C10 C11 C12 C7 0.0
C8 C7 C12 C11 0.0
N1 C7 C12 C11 175.0(9)
C1 N1 C13 C14 -29.8(12)
C7 N1 C13 C14 143.9(8)
C1 N1 C13 C18 150.7(8)
C7 N1 C13 C18 -35.6(13)
C18 C13 C14 C15 0.0
N1 C13 C14 C15 -179.5(8)
C13 C14 C15 C16 0.0
C14 C15 C16 C17 0.0
C14 C15 C16 Br2 176.7(6)
C15 C16 C17 C18 0.0
Br2 C16 C17 C18 -176.7(6)
C16 C17 C18 C13 0.0
C14 C13 C18 C17 0.0
N1 C13 C18 C17 179.5(8)
C3 C4 C19' O1' -174(3)
C5 C4 C19' O1' 6(3)
