#------------------------------------------------------------------------------
#$Date: 2019-11-28 16:11:22 +0200 (Thu, 28 Nov 2019) $
#$Revision: 244087 $
#$URL: file:///home/coder/svn-repositories/cod/cif/7/23/81/7238173.cif $
#------------------------------------------------------------------------------
#
# This file is available in the Crystallography Open Database (COD),
# http://www.crystallography.net/
#
# All data on this site have been placed in the public domain by the
# contributors.
#
data_7238173
loop_
_publ_author_name
'Behrnd, Norwid-Rasmus'
'Labat, Ga\"el'
'Venugopalan, Paloth'
'Hulliger, J\"urg'
'B\"urgi, Hans-Beat'
_publ_section_title
;
 Influence of the solvent of crystallization on the orientational disorder
 of (trans)-4-chloro-4&#x2032;-nitrostilbene
;
_journal_issue                   12
_journal_name_full               CrystEngComm
_journal_page_first              4101
_journal_paper_doi               10.1039/b926652f
_journal_volume                  12
_journal_year                    2010
_chemical_formula_moiety         'C14 H10 Cl N O2'
_chemical_formula_sum            'C14 H10 Cl N O2'
_chemical_formula_weight         259.68
_space_group_IT_number           4
_space_group_name_Hall           'P 2ybc'
_space_group_name_H-M_alt        'P 1 21 1 (a,b,c-1/4)'
_symmetry_cell_setting           monoclinic
_symmetry_space_group_name_Hall  'P 2ybc'
_symmetry_space_group_name_H-M   'P 1 21 1 (a,b,c-1/4)'
_atom_sites_solution_hydrogens   geom
_atom_sites_solution_primary     direct
_atom_sites_solution_secondary   difmap
_audit_creation_method           SHELXL-97
_cell_angle_alpha                90.00
_cell_angle_beta                 93.175(3)
_cell_angle_gamma                90.00
_cell_formula_units_Z            2
_cell_length_a                   3.9236(3)
_cell_length_b                   12.9740(8)
_cell_length_c                   12.2406(7)
_cell_measurement_reflns_used    3480
_cell_measurement_temperature    293(2)
_cell_measurement_theta_max      22.987
_cell_measurement_theta_min      3.1405
_cell_volume                     622.15(7)
_computing_cell_refinement       'SAINT (Bruker, 2003)'
_computing_data_collection       'SMART (Bruker, 1997)'
_computing_data_reduction        'SHELXTL (Bruker, 2000)'
_computing_molecular_graphics    'PLATON (Spek, 2003)'
_computing_publication_material  SHELXL-97
_computing_structure_refinement  'SHELXL-97 (Sheldrick, 1997)'
_computing_structure_solution    'SHELXS-97 (Sheldrick, 1990)'
_diffrn_ambient_temperature      293(2)
_diffrn_measured_fraction_theta_full 0.899
_diffrn_measured_fraction_theta_max 0.899
_diffrn_measurement_device_type  'Bruker SMART 1K'
_diffrn_measurement_method       'omega scan method'
_diffrn_radiation_monochromator  graphite
_diffrn_radiation_source         'fine-focus sealed tube'
_diffrn_radiation_type           MoK\a
_diffrn_radiation_wavelength     0.71073
_diffrn_reflns_av_R_equivalents  0.0144
_diffrn_reflns_av_sigmaI/netI    0.0382
_diffrn_reflns_limit_h_max       4
_diffrn_reflns_limit_h_min       -4
_diffrn_reflns_limit_k_max       16
_diffrn_reflns_limit_k_min       -15
_diffrn_reflns_limit_l_max       12
_diffrn_reflns_limit_l_min       -15
_diffrn_reflns_number            3452
_diffrn_reflns_theta_full        27.82
_diffrn_reflns_theta_max         27.82
_diffrn_reflns_theta_min         2.29
_diffrn_standards_decay_%        0
_diffrn_standards_interval_time  0
_diffrn_standards_number         0
_exptl_absorpt_coefficient_mu    0.299
_exptl_absorpt_correction_T_max  1
_exptl_absorpt_correction_T_min  0.753678
_exptl_absorpt_correction_type   multi-scan
_exptl_absorpt_process_details   'SADABS (Bruker, 2004)'
_exptl_crystal_colour            yellow
_exptl_crystal_density_diffrn    1.386
_exptl_crystal_density_method    'not measured'
_exptl_crystal_description       'prismatic rod'
_exptl_crystal_F_000             268
_exptl_crystal_size_max          0.30
_exptl_crystal_size_mid          0.20
_exptl_crystal_size_min          0.10
_refine_diff_density_max         0.109
_refine_diff_density_min         -0.102
_refine_diff_density_rms         0.026
_refine_ls_abs_structure_details 'Flack H D (1983), Acta Cryst. A39, 876-881'
_refine_ls_abs_structure_Flack   0.5(2)
_refine_ls_extinction_method     none
_refine_ls_goodness_of_fit_ref   1.021
_refine_ls_hydrogen_treatment    constr
_refine_ls_matrix_type           full
_refine_ls_number_parameters     101
_refine_ls_number_reflns         2482
_refine_ls_number_restraints     1
_refine_ls_restrained_S_all      1.021
_refine_ls_R_factor_all          0.1202
_refine_ls_R_factor_gt           0.0531
_refine_ls_shift/su_max          0.000
_refine_ls_shift/su_mean         0.000
_refine_ls_structure_factor_coef Fsqd
_refine_ls_weighting_details
'calc w=1/[\s^2^(Fo^2^)+(0.0335P)^2^+0.1171P] where P=(Fo^2^+2Fc^2^)/3'
_refine_ls_weighting_scheme      calc
_refine_ls_wR_factor_gt          0.1060
_refine_ls_wR_factor_ref         0.1255
_reflns_number_gt                1215
_reflns_number_total             2482
_reflns_threshold_expression     I>2sigma(I)
_cod_data_source_file            b926652f.txt
_cod_data_source_block           CNS-TolI-small-P21
_cod_original_sg_symbol_Hall     P2yb
_cod_original_sg_symbol_H-M      P21
_cod_database_code               7238173
loop_
_symmetry_equiv_pos_as_xyz
'x, y, z'
'-x, y+1/2, -z+1/2'
loop_
_atom_site_label
_atom_site_type_symbol
_atom_site_fract_x
_atom_site_fract_y
_atom_site_fract_z
_atom_site_U_iso_or_equiv
_atom_site_adp_type
_atom_site_occupancy
_atom_site_symmetry_multiplicity
_atom_site_calc_flag
_atom_site_refinement_flags
Cl1 Cl 0.3677(9) -0.46073(13) -0.1750(3) 0.1103(12) Uani 0.408(2) 1 d P
N11 N 0.373(2) -0.4153(4) -0.1729(8) 0.0846(18) Uani 0.592(2) 1 d P
O11 O 0.3094(16) -0.4972(4) -0.1239(4) 0.128(2) Uani 0.592(2) 1 d P
O12 O 0.5003(9) -0.4133(2) -0.2576(3) 0.1116(11) Uani 0.592(2) 1 d P
C1 C 0.2606(4) -0.32920(15) -0.12317(16) 0.0723(5) Uani 1 1 d .
C2 C 0.3154(5) -0.23907(17) -0.17913(15) 0.0808(6) Uani 1 1 d .
H2A H 0.4142 -0.2405 -0.2465 0.097 Uiso 1 1 calc R
C3 C 0.2226(4) -0.14770(15) -0.13427(15) 0.0758(5) Uani 1 1 d .
H3A H 0.2566 -0.0869 -0.1724 0.091 Uiso 1 1 calc R
C4 C 0.0781(4) -0.14291(14) -0.03286(14) 0.0647(5) Uani 1 1 d .
C5 C 0.0286(4) -0.23589(14) 0.02063(15) 0.0729(5) Uani 1 1 d .
H5A H -0.0694 -0.2349 0.0881 0.088 Uiso 1 1 calc R
C6 C 0.1192(4) -0.32911(14) -0.02243(15) 0.0765(6) Uani 1 1 d .
H6A H 0.0863 -0.3903 0.0152 0.092 Uiso 1 1 calc R
C7 C -0.0232(4) -0.04640(11) 0.01817(15) 0.0729(5) Uani 1 1 d .
H7A H -0.1324 -0.0521 0.0834 0.087 Uiso 1 1 calc R
Cl11 Cl -0.3677(9) 0.46073(13) 0.1750(3) 0.1103(12) Uani 0.592(2) 1 d P
N1 N -0.373(2) 0.4153(4) 0.1729(8) 0.0846(18) Uani 0.408(2) 1 d P
O1 O -0.3094(16) 0.4972(4) 0.1239(4) 0.128(2) Uani 0.408(2) 1 d P
O2 O -0.5003(9) 0.4133(2) 0.2576(3) 0.1116(11) Uani 0.408(2) 1 d P
C11 C -0.2606(4) 0.32920(15) 0.12317(16) 0.0723(5) Uani 1 1 d .
C12 C -0.3154(5) 0.23907(17) 0.17913(15) 0.0808(6) Uani 1 1 d .
H12A H -0.4142 0.2405 0.2465 0.097 Uiso 1 1 calc R
C13 C -0.2226(4) 0.14770(15) 0.13427(15) 0.0758(5) Uani 1 1 d .
H13A H -0.2566 0.0869 0.1724 0.091 Uiso 1 1 calc R
C14 C -0.0781(4) 0.14291(14) 0.03286(14) 0.0647(5) Uani 1 1 d .
C15 C -0.0286(4) 0.23589(14) -0.02063(15) 0.0729(5) Uani 1 1 d .
H15A H 0.0694 0.2349 -0.0881 0.088 Uiso 1 1 calc R
C16 C -0.1192(4) 0.32911(14) 0.02243(15) 0.0765(6) Uani 1 1 d .
H16A H -0.0863 0.3903 -0.0152 0.092 Uiso 1 1 calc R
C17 C 0.0232(4) 0.04640(11) -0.01817(15) 0.0729(5) Uani 1 1 d .
H17A H 0.1324 0.0521 -0.0834 0.087 Uiso 1 1 calc R
loop_
_atom_site_aniso_label
_atom_site_aniso_U_11
_atom_site_aniso_U_22
_atom_site_aniso_U_33
_atom_site_aniso_U_23
_atom_site_aniso_U_13
_atom_site_aniso_U_12
Cl1 0.1113(15) 0.090(2) 0.130(2) -0.044(2) 0.0103(15) 0.014(2)
N11 0.085(3) 0.063(4) 0.105(5) 0.002(4) -0.008(3) -0.006(4)
O11 0.167(4) 0.077(3) 0.144(4) 0.010(2) 0.049(3) 0.010(2)
O12 0.152(3) 0.092(2) 0.094(2) -0.0257(19) 0.037(2) 0.016(2)
C1 0.0585(12) 0.0816(14) 0.0762(13) -0.0150(11) -0.0013(10) 0.0059(10)
C2 0.0710(13) 0.1058(15) 0.0662(13) -0.0033(12) 0.0110(10) -0.0004(12)
C3 0.0687(12) 0.0852(13) 0.0740(13) 0.0092(11) 0.0076(10) -0.0028(10)
C4 0.0521(10) 0.0779(12) 0.0638(12) -0.0062(10) 0.0011(9) -0.0014(9)
C5 0.0687(12) 0.0861(13) 0.0648(11) 0.0019(11) 0.0106(9) -0.0019(11)
C6 0.0740(13) 0.0777(13) 0.0781(14) 0.0021(11) 0.0057(11) 0.0030(10)
C7 0.0646(11) 0.0818(13) 0.0725(12) 0.0051(10) 0.0056(9) -0.0021(11)
Cl11 0.1113(15) 0.090(2) 0.130(2) -0.044(2) 0.0103(15) 0.014(2)
N1 0.085(3) 0.063(4) 0.105(5) 0.002(4) -0.008(3) -0.006(4)
O1 0.167(4) 0.077(3) 0.144(4) 0.010(2) 0.049(3) 0.010(2)
O2 0.152(3) 0.092(2) 0.094(2) -0.0257(19) 0.037(2) 0.016(2)
C11 0.0585(12) 0.0816(14) 0.0762(13) -0.0150(11) -0.0013(10) 0.0059(10)
C12 0.0710(13) 0.1058(15) 0.0662(13) -0.0033(12) 0.0110(10) -0.0004(12)
C13 0.0687(12) 0.0852(13) 0.0740(13) 0.0092(11) 0.0076(10) -0.0028(10)
C14 0.0521(10) 0.0779(12) 0.0638(12) -0.0062(10) 0.0011(9) -0.0014(9)
C15 0.0687(12) 0.0861(13) 0.0648(11) 0.0019(11) 0.0106(9) -0.0019(11)
C16 0.0740(13) 0.0777(13) 0.0781(14) 0.0021(11) 0.0057(11) 0.0030(10)
C17 0.0646(11) 0.0818(13) 0.0725(12) 0.0051(10) 0.0056(9) -0.0021(11)
loop_
_atom_type_symbol
_atom_type_description
_atom_type_scat_dispersion_real
_atom_type_scat_dispersion_imag
_atom_type_scat_source
C C 0.0033 0.0016 'International Tables Vol C Tables 4.2.6.8 and 6.1.1.4'
H H 0.0000 0.0000 'International Tables Vol C Tables 4.2.6.8 and 6.1.1.4'
N N 0.0061 0.0033 'International Tables Vol C Tables 4.2.6.8 and 6.1.1.4'
O O 0.0106 0.0060 'International Tables Vol C Tables 4.2.6.8 and 6.1.1.4'
Cl Cl 0.1484 0.1585 'International Tables Vol C Tables 4.2.6.8 and 6.1.1.4'
loop_
_geom_angle_atom_site_label_1
_geom_angle_atom_site_label_2
_geom_angle_atom_site_label_3
_geom_angle
N11 Cl1 O11 123.3(15)
N11 Cl1 O12 63.3(12)
O11 Cl1 O12 170.9(6)
N11 Cl1 C1 23.9(11)
O11 Cl1 C1 100.8(5)
O12 Cl1 C1 86.55(18)
Cl1 N11 O12 90.0(12)
Cl1 N11 O11 33.5(10)
O12 N11 O11 123.1(6)
Cl1 N11 C1 146.0(16)
O12 N11 C1 122.9(7)
O11 N11 C1 113.9(7)
Cl1 O11 N11 23.2(5)
N11 O12 Cl1 26.7(3)
N11 C1 C2 114.3(4)
N11 C1 C6 124.0(4)
C2 C1 C6 121.67(19)
N11 C1 Cl1 10.1(5)
C2 C1 Cl1 124.01(19)
C6 C1 Cl1 114.3(2)
C3 C2 C1 118.98(18)
C3 C2 H2A 120.5
C1 C2 H2A 120.5
C2 C3 C4 121.86(19)
C2 C3 H3A 119.1
C4 C3 H3A 119.1
C5 C4 C3 117.04(18)
C5 C4 C7 119.50(16)
C3 C4 C7 123.46(18)
C6 C5 C4 122.47(17)
C6 C5 H5A 118.8
C4 C5 H5A 118.8
C5 C6 C1 117.97(19)
C5 C6 H6A 121.0
C1 C6 H6A 121.0
C17 C7 C4 126.8(2)
C17 C7 H7A 116.6
C4 C7 H7A 116.6
N1 Cl11 O1 123.3(15)
N1 Cl11 O2 63.3(12)
O1 Cl11 O2 170.9(6)
N1 Cl11 C11 23.9(11)
O1 Cl11 C11 100.8(5)
O2 Cl11 C11 86.55(18)
Cl11 N1 O2 90.0(12)
Cl11 N1 O1 33.5(10)
O2 N1 O1 123.1(6)
Cl11 N1 C11 146.0(16)
O2 N1 C11 122.9(7)
O1 N1 C11 113.9(7)
Cl11 O1 N1 23.2(5)
N1 O2 Cl11 26.7(3)
N1 C11 C12 114.3(4)
N1 C11 C16 124.0(4)
C12 C11 C16 121.67(19)
N1 C11 Cl11 10.1(5)
C12 C11 Cl11 124.01(19)
C16 C11 Cl11 114.3(2)
C13 C12 C11 118.98(18)
C13 C12 H12A 120.5
C11 C12 H12A 120.5
C12 C13 C14 121.86(19)
C12 C13 H13A 119.1
C14 C13 H13A 119.1
C15 C14 C13 117.04(18)
C15 C14 C17 119.50(16)
C13 C14 C17 123.46(18)
C16 C15 C14 122.47(17)
C16 C15 H15A 118.8
C14 C15 H15A 118.8
C15 C16 C11 117.97(19)
C15 C16 H16A 121.0
C11 C16 H16A 121.0
C7 C17 C14 126.8(2)
C7 C17 H17A 116.6
C14 C17 H17A 116.6
loop_
_geom_bond_atom_site_label_1
_geom_bond_atom_site_label_2
_geom_bond_distance
Cl1 N11 0.591(6)
Cl1 O11 0.827(4)
Cl1 O12 1.315(5)
Cl1 C1 1.877(2)
N11 O12 1.175(10)
N11 O11 1.254(11)
N11 C1 1.357(6)
C1 C2 1.378(2)
C1 C6 1.380(2)
C2 C3 1.364(2)
C2 H2A 0.9300
C3 C4 1.394(2)
C3 H3A 0.9300
C4 C5 1.391(2)
C4 C7 1.464(2)
C5 C6 1.374(2)
C5 H5A 0.9300
C6 H6A 0.9300
C7 C17 1.300(3)
C7 H7A 0.9300
Cl11 N1 0.591(6)
Cl11 O1 0.827(4)
Cl11 O2 1.315(5)
Cl11 C11 1.877(2)
N1 O2 1.175(10)
N1 O1 1.254(11)
N1 C11 1.357(6)
C11 C12 1.378(2)
C11 C16 1.380(2)
C12 C13 1.364(2)
C12 H12A 0.9300
C13 C14 1.394(2)
C13 H13A 0.9300
C14 C15 1.391(2)
C14 C17 1.464(2)
C15 C16 1.374(2)
C15 H15A 0.9300
C16 H16A 0.9300
C17 H17A 0.9300
loop_
_geom_torsion_atom_site_label_1
_geom_torsion_atom_site_label_2
_geom_torsion_atom_site_label_3
_geom_torsion_atom_site_label_4
_geom_torsion
O11 Cl1 N11 O12 172.8(9)
C1 Cl1 N11 O12 -166(3)
O12 Cl1 N11 O11 -172.8(9)
C1 Cl1 N11 O11 21(4)
O11 Cl1 N11 C1 -21(4)
O12 Cl1 N11 C1 166(3)
O12 Cl1 O11 N11 135(5)
C1 Cl1 O11 N11 -8.7(15)
O12 N11 O11 Cl1 -8.6(11)
C1 N11 O11 Cl1 167(2)
O11 N11 O12 Cl1 4.7(6)
C1 N11 O12 Cl1 -171(2)
O11 Cl1 O12 N11 -139(5)
C1 Cl1 O12 N11 5.7(13)
Cl1 N11 C1 C2 -164(3)
O12 N11 C1 C2 -1.4(10)
O11 N11 C1 C2 -177.1(7)
Cl1 N11 C1 C6 19(3)
O12 N11 C1 C6 -178.1(6)
O11 N11 C1 C6 6.2(11)
O12 N11 C1 Cl1 163(4)
O11 N11 C1 Cl1 -13(2)
O11 Cl1 C1 N11 162(3)
O12 Cl1 C1 N11 -13(3)
N11 Cl1 C1 C2 17(3)
O11 Cl1 C1 C2 179.1(6)
O12 Cl1 C1 C2 4.5(3)
N11 Cl1 C1 C6 -163(3)
O11 Cl1 C1 C6 -0.9(6)
O12 Cl1 C1 C6 -175.5(2)
N11 C1 C2 C3 -177.7(5)
C6 C1 C2 C3 -1.0(3)
Cl1 C1 C2 C3 179.0(2)
C1 C2 C3 C4 0.9(3)
C2 C3 C4 C5 -0.7(3)
C2 C3 C4 C7 179.70(17)
C3 C4 C5 C6 0.6(3)
C7 C4 C5 C6 -179.73(16)
C4 C5 C6 C1 -0.8(3)
N11 C1 C6 C5 177.4(5)
C2 C1 C6 C5 0.9(3)
Cl1 C1 C6 C5 -179.05(19)
C5 C4 C7 C17 175.9(2)
C3 C4 C7 C17 -4.5(4)
O1 Cl11 N1 O2 -172.8(9)
C11 Cl11 N1 O2 166(3)
O2 Cl11 N1 O1 172.8(9)
C11 Cl11 N1 O1 -21(4)
O1 Cl11 N1 C11 21(4)
O2 Cl11 N1 C11 -166(3)
O2 Cl11 O1 N1 -135(5)
C11 Cl11 O1 N1 8.7(15)
O2 N1 O1 Cl11 8.6(11)
C11 N1 O1 Cl11 -167(2)
O1 N1 O2 Cl11 -4.7(6)
C11 N1 O2 Cl11 171(2)
O1 Cl11 O2 N1 139(5)
C11 Cl11 O2 N1 -5.7(13)
Cl11 N1 C11 C12 164(3)
O2 N1 C11 C12 1.4(10)
O1 N1 C11 C12 177.1(7)
Cl11 N1 C11 C16 -19(3)
O2 N1 C11 C16 178.1(6)
O1 N1 C11 C16 -6.2(11)
O2 N1 C11 Cl11 -163(4)
O1 N1 C11 Cl11 13(2)
O1 Cl11 C11 N1 -162(3)
O2 Cl11 C11 N1 13(3)
N1 Cl11 C11 C12 -17(3)
O1 Cl11 C11 C12 -179.1(6)
O2 Cl11 C11 C12 -4.5(3)
N1 Cl11 C11 C16 163(3)
O1 Cl11 C11 C16 0.9(6)
O2 Cl11 C11 C16 175.5(2)
N1 C11 C12 C13 177.7(5)
C16 C11 C12 C13 1.0(3)
Cl11 C11 C12 C13 -179.0(2)
C11 C12 C13 C14 -0.9(3)
C12 C13 C14 C15 0.7(3)
C12 C13 C14 C17 -179.70(17)
C13 C14 C15 C16 -0.6(3)
C17 C14 C15 C16 179.73(16)
C14 C15 C16 C11 0.8(3)
N1 C11 C16 C15 -177.4(5)
C12 C11 C16 C15 -0.9(3)
Cl11 C11 C16 C15 179.05(19)
C4 C7 C17 C14 180.0
C15 C14 C17 C7 -175.9(2)
C13 C14 C17 C7 4.5(4)
