#------------------------------------------------------------------------------
#$Date: 2019-11-28 16:11:22 +0200 (Thu, 28 Nov 2019) $
#$Revision: 244087 $
#$URL: file:///home/coder/svn-repositories/cod/cif/7/23/81/7238189.cif $
#------------------------------------------------------------------------------
#
# This file is available in the Crystallography Open Database (COD),
# http://www.crystallography.net/
#
# All data on this site have been placed in the public domain by the
# contributors.
#
data_7238189
loop_
_publ_author_name
'Behrnd, Norwid-Rasmus'
'Labat, Ga\"el'
'Venugopalan, Paloth'
'Hulliger, J\"urg'
'B\"urgi, Hans-Beat'
_publ_section_title
;
 Influence of the solvent of crystallization on the orientational disorder
 of (trans)-4-chloro-4&#x2032;-nitrostilbene
;
_journal_issue                   12
_journal_name_full               CrystEngComm
_journal_page_first              4101
_journal_paper_doi               10.1039/b926652f
_journal_volume                  12
_journal_year                    2010
_chemical_formula_moiety         'C14 H10 Cl N O2'
_chemical_formula_sum            'C14 H10 Cl N O2'
_chemical_formula_weight         259.68
_space_group_IT_number           4
_space_group_name_Hall           'P 2ybc'
_space_group_name_H-M_alt        'P 1 21 1 (a,b,c-1/4)'
_symmetry_cell_setting           monoclinic
_symmetry_space_group_name_Hall  'P 2ybc'
_symmetry_space_group_name_H-M   'P 1 21 1 (a,b,c-1/4)'
_atom_sites_solution_hydrogens   geom
_atom_sites_solution_primary     direct
_atom_sites_solution_secondary   difmap
_audit_creation_method           SHELXL-97
_cell_angle_alpha                90.00
_cell_angle_beta                 93.149(3)
_cell_angle_gamma                90.00
_cell_formula_units_Z            2
_cell_length_a                   3.9221(4)
_cell_length_b                   12.9733(12)
_cell_length_c                   12.2509(12)
_cell_measurement_reflns_used    3496
_cell_measurement_temperature    293(2)
_cell_measurement_theta_max      19.487
_cell_measurement_theta_min      3.140
_cell_volume                     622.42(11)
_computing_cell_refinement       'SAINT (Bruker, 2003)'
_computing_data_collection       'SMART (Bruker, 1997)'
_computing_data_reduction        'SHELXTL (Bruker, 2000)'
_computing_molecular_graphics    'PLATON (Spek, 2003)'
_computing_publication_material  SHELXL-97
_computing_structure_refinement  'SHELXL-97 (Sheldrick, 1997)'
_computing_structure_solution    'SHELXS-97 (Sheldrick, 1990)'
_diffrn_ambient_temperature      293(2)
_diffrn_measured_fraction_theta_full 0.877
_diffrn_measured_fraction_theta_max 0.877
_diffrn_measurement_device_type  'Bruker SMART 1K'
_diffrn_measurement_method       'omega scan method'
_diffrn_radiation_monochromator  graphite
_diffrn_radiation_source         'fine-focus sealed tube'
_diffrn_radiation_type           MoK\a
_diffrn_radiation_wavelength     0.71073
_diffrn_reflns_av_R_equivalents  0.0266
_diffrn_reflns_av_sigmaI/netI    0.0518
_diffrn_reflns_limit_h_max       4
_diffrn_reflns_limit_h_min       -5
_diffrn_reflns_limit_k_max       16
_diffrn_reflns_limit_k_min       -13
_diffrn_reflns_limit_l_max       14
_diffrn_reflns_limit_l_min       -15
_diffrn_reflns_number            3478
_diffrn_reflns_theta_full        27.81
_diffrn_reflns_theta_max         27.81
_diffrn_reflns_theta_min         2.29
_diffrn_standards_decay_%        0
_diffrn_standards_interval_time  0
_diffrn_standards_number         0
_exptl_absorpt_coefficient_mu    0.299
_exptl_absorpt_correction_T_max  1
_exptl_absorpt_correction_T_min  0.079036
_exptl_absorpt_correction_type   multi-scan
_exptl_absorpt_process_details   'SADABS (Bruker, 2004)'
_exptl_crystal_colour            yellow
_exptl_crystal_density_diffrn    1.386
_exptl_crystal_density_method    'not measured'
_exptl_crystal_description       'prismatic rod'
_exptl_crystal_F_000             268
_exptl_crystal_size_max          0.30
_exptl_crystal_size_mid          0.20
_exptl_crystal_size_min          0.10
_refine_diff_density_max         0.096
_refine_diff_density_min         -0.094
_refine_diff_density_rms         0.025
_refine_ls_abs_structure_details 'Flack H D (1983), Acta Cryst. A39, 876-881'
_refine_ls_abs_structure_Flack   -10(10)
_refine_ls_extinction_method     none
_refine_ls_goodness_of_fit_ref   0.941
_refine_ls_hydrogen_treatment    constr
_refine_ls_matrix_type           full
_refine_ls_number_parameters     101
_refine_ls_number_reflns         2315
_refine_ls_number_restraints     1
_refine_ls_restrained_S_all      0.941
_refine_ls_R_factor_all          0.1610
_refine_ls_R_factor_gt           0.0493
_refine_ls_shift/su_max          0.001
_refine_ls_shift/su_mean         0.000
_refine_ls_structure_factor_coef Fsqd
_refine_ls_weighting_details
'calc w=1/[\s^2^(Fo^2^)+(0.0500P)^2^+0.0000P] where P=(Fo^2^+2Fc^2^)/3'
_refine_ls_weighting_scheme      calc
_refine_ls_wR_factor_gt          0.0987
_refine_ls_wR_factor_ref         0.1333
_reflns_number_gt                900
_reflns_number_total             2315
_reflns_threshold_expression     I>2sigma(I)
_cod_data_source_file            b926652f.txt
_cod_data_source_block           CNS-MeCNII-small-P21/c
_cod_original_sg_symbol_H-M      P21/c
_cod_database_code               7238189
loop_
_symmetry_equiv_pos_as_xyz
'x, y, z'
'-x, y+1/2, -z+1/2'
loop_
_atom_site_label
_atom_site_type_symbol
_atom_site_fract_x
_atom_site_fract_y
_atom_site_fract_z
_atom_site_U_iso_or_equiv
_atom_site_adp_type
_atom_site_occupancy
_atom_site_symmetry_multiplicity
_atom_site_calc_flag
_atom_site_refinement_flags
Cl1 Cl 0.3703(13) -0.46107(13) -0.1746(5) 0.1140(19) Uani 0.50 1 d P
N11 N 0.365(3) -0.4160(6) -0.1745(12) 0.080(2) Uani 0.50 1 d P
O11 O 0.3165(19) -0.4977(5) -0.1234(5) 0.131(3) Uani 0.50 1 d P
O12 O 0.5006(9) -0.4124(3) -0.2572(3) 0.1156(13) Uani 0.50 1 d P
C1 C 0.2612(5) -0.32924(17) -0.12288(19) 0.0738(6) Uani 1 1 d .
C2 C 0.3139(5) -0.23872(19) -0.17898(15) 0.0821(6) Uani 1 1 d .
H2A H 0.4104 -0.2400 -0.2466 0.099 Uiso 1 1 calc R
C3 C 0.2224(5) -0.14746(15) -0.13380(17) 0.0759(6) Uani 1 1 d .
H3A H 0.2574 -0.0865 -0.1715 0.091 Uiso 1 1 calc R
C4 C 0.0787(4) -0.14344(15) -0.03309(15) 0.0658(5) Uani 1 1 d .
C5 C 0.0279(4) -0.23597(15) 0.02047(15) 0.0724(6) Uani 1 1 d .
H5A H -0.0706 -0.2350 0.0878 0.087 Uiso 1 1 calc R
C6 C 0.1188(5) -0.32915(14) -0.02297(17) 0.0782(6) Uani 1 1 d .
H6A H 0.0848 -0.3904 0.0143 0.094 Uiso 1 1 calc R
C7 C -0.0232(5) -0.04662(11) 0.01805(16) 0.0738(6) Uani 1 1 d .
H7A H -0.1326 -0.0524 0.0832 0.089 Uiso 1 1 calc R
Cl11 Cl -0.3703(13) 0.46107(13) 0.1746(5) 0.1140(19) Uani 0.50 1 d P
N1 N -0.365(3) 0.4160(6) 0.1745(12) 0.080(2) Uani 0.50 1 d P
O1 O -0.3165(19) 0.4977(5) 0.1234(5) 0.131(3) Uani 0.50 1 d P
O2 O -0.5006(9) 0.4124(3) 0.2572(3) 0.1156(13) Uani 0.50 1 d P
C11 C -0.2612(5) 0.32924(17) 0.12288(19) 0.0738(6) Uani 1 1 d .
C12 C -0.3139(5) 0.23872(19) 0.17898(15) 0.0821(6) Uani 1 1 d .
H12A H -0.4104 0.2400 0.2466 0.099 Uiso 1 1 calc R
C13 C -0.2224(5) 0.14746(15) 0.13380(17) 0.0759(6) Uani 1 1 d .
H13A H -0.2574 0.0865 0.1715 0.091 Uiso 1 1 calc R
C14 C -0.0787(4) 0.14344(15) 0.03309(15) 0.0658(5) Uani 1 1 d .
C15 C -0.0279(4) 0.23597(15) -0.02047(15) 0.0724(6) Uani 1 1 d .
H15A H 0.0706 0.2350 -0.0878 0.087 Uiso 1 1 calc R
C16 C -0.1188(5) 0.32915(14) 0.02297(17) 0.0782(6) Uani 1 1 d .
H16A H -0.0848 0.3904 -0.0143 0.094 Uiso 1 1 calc R
C17 C 0.0232(5) 0.04662(11) -0.01805(16) 0.0738(6) Uani 1 1 d .
H17A H 0.1326 0.0524 -0.0832 0.089 Uiso 1 1 calc R
loop_
_atom_site_aniso_label
_atom_site_aniso_U_11
_atom_site_aniso_U_22
_atom_site_aniso_U_33
_atom_site_aniso_U_23
_atom_site_aniso_U_13
_atom_site_aniso_U_12
Cl1 0.1191(17) 0.085(4) 0.137(3) -0.040(4) 0.002(2) 0.023(3)
N11 0.072(3) 0.059(5) 0.106(6) 0.008(6) -0.003(3) 0.006(5)
O11 0.164(4) 0.072(3) 0.160(6) 0.013(3) 0.037(3) 0.011(3)
O12 0.156(3) 0.093(2) 0.101(3) -0.020(2) 0.035(2) 0.016(2)
C1 0.0580(14) 0.0868(17) 0.0760(16) -0.0153(13) -0.0009(11) 0.0068(12)
C2 0.0685(14) 0.1123(17) 0.0660(14) -0.0020(13) 0.0073(11) -0.0017(13)
C3 0.0703(14) 0.0798(14) 0.0781(16) 0.0050(12) 0.0088(11) -0.0014(11)
C4 0.0524(12) 0.0798(13) 0.0648(14) -0.0040(12) 0.0008(10) 0.0004(10)
C5 0.0697(13) 0.0840(14) 0.0642(13) 0.0033(12) 0.0090(10) -0.0002(12)
C6 0.0746(15) 0.0768(15) 0.0834(17) 0.0020(12) 0.0046(12) 0.0022(11)
C7 0.0623(12) 0.0833(14) 0.0757(14) 0.0074(12) 0.0051(10) -0.0064(12)
Cl11 0.1191(17) 0.085(4) 0.137(3) -0.040(4) 0.002(2) 0.023(3)
N1 0.072(3) 0.059(5) 0.106(6) 0.008(6) -0.003(3) 0.006(5)
O1 0.164(4) 0.072(3) 0.160(6) 0.013(3) 0.037(3) 0.011(3)
O2 0.156(3) 0.093(2) 0.101(3) -0.020(2) 0.035(2) 0.016(2)
C11 0.0580(14) 0.0868(17) 0.0760(16) -0.0153(13) -0.0009(11) 0.0068(12)
C12 0.0685(14) 0.1123(17) 0.0660(14) -0.0020(13) 0.0073(11) -0.0017(13)
C13 0.0703(14) 0.0798(14) 0.0781(16) 0.0050(12) 0.0088(11) -0.0014(11)
C14 0.0524(12) 0.0798(13) 0.0648(14) -0.0040(12) 0.0008(10) 0.0004(10)
C15 0.0697(13) 0.0840(14) 0.0642(13) 0.0033(12) 0.0090(10) -0.0002(12)
C16 0.0746(15) 0.0768(15) 0.0834(17) 0.0020(12) 0.0046(12) 0.0022(11)
C17 0.0623(12) 0.0833(14) 0.0757(14) 0.0074(12) 0.0051(10) -0.0064(12)
loop_
_atom_type_symbol
_atom_type_description
_atom_type_scat_dispersion_real
_atom_type_scat_dispersion_imag
_atom_type_scat_source
C C 0.0033 0.0016 'International Tables Vol C Tables 4.2.6.8 and 6.1.1.4'
H H 0.0000 0.0000 'International Tables Vol C Tables 4.2.6.8 and 6.1.1.4'
N N 0.0061 0.0033 'International Tables Vol C Tables 4.2.6.8 and 6.1.1.4'
O O 0.0106 0.0060 'International Tables Vol C Tables 4.2.6.8 and 6.1.1.4'
Cl Cl 0.1484 0.1585 'International Tables Vol C Tables 4.2.6.8 and 6.1.1.4'
loop_
_geom_angle_atom_site_label_1
_geom_angle_atom_site_label_2
_geom_angle_atom_site_label_3
_geom_angle
N11 Cl1 O11 124(2)
N11 Cl1 O12 62.6(18)
O11 Cl1 O12 170.5(8)
N11 Cl1 C1 23.3(17)
O11 Cl1 C1 101.3(8)
O12 Cl1 C1 85.9(2)
Cl1 N11 O12 91.1(18)
Cl1 N11 O11 32.9(16)
O12 N11 O11 123.7(7)
Cl1 N11 C1 147(2)
O12 N11 C1 122.0(9)
O11 N11 C1 114.2(10)
Cl1 O11 N11 22.7(8)
N11 O12 Cl1 26.3(4)
N11 C1 C6 124.1(6)
N11 C1 C2 114.5(6)
C6 C1 C2 121.5(2)
N11 C1 Cl1 9.8(7)
C6 C1 Cl1 114.3(3)
C2 C1 Cl1 124.2(3)
C3 C2 C1 119.09(19)
C3 C2 H2A 120.5
C1 C2 H2A 120.5
C2 C3 C4 121.6(2)
C2 C3 H3A 119.2
C4 C3 H3A 119.2
C3 C4 C5 117.68(19)
C3 C4 C7 123.1(2)
C5 C4 C7 119.25(18)
C6 C5 C4 122.02(18)
C6 C5 H5A 119.0
C4 C5 H5A 119.0
C1 C6 C5 118.2(2)
C1 C6 H6A 120.9
C5 C6 H6A 120.9
C17 C7 C4 127.0(3)
C17 C7 H7A 116.5
C4 C7 H7A 116.5
N1 Cl11 O1 124(2)
N1 Cl11 O2 62.6(18)
O1 Cl11 O2 170.5(8)
N1 Cl11 C11 23.3(17)
O1 Cl11 C11 101.3(8)
O2 Cl11 C11 85.9(2)
Cl11 N1 O2 91.1(18)
Cl11 N1 O1 32.9(16)
O2 N1 O1 123.7(7)
Cl11 N1 C11 147(2)
O2 N1 C11 122.0(9)
O1 N1 C11 114.2(10)
Cl11 O1 N1 22.7(8)
N1 O2 Cl11 26.3(4)
N1 C11 C16 124.1(6)
N1 C11 C12 114.5(6)
C16 C11 C12 121.5(2)
N1 C11 Cl11 9.8(7)
C16 C11 Cl11 114.3(3)
C12 C11 Cl11 124.2(3)
C13 C12 C11 119.09(19)
C13 C12 H12A 120.5
C11 C12 H12A 120.5
C12 C13 C14 121.6(2)
C12 C13 H13A 119.2
C14 C13 H13A 119.2
C13 C14 C15 117.68(19)
C13 C14 C17 123.1(2)
C15 C14 C17 119.25(18)
C16 C15 C14 122.02(18)
C16 C15 H15A 119.0
C14 C15 H15A 119.0
C11 C16 C15 118.2(2)
C11 C16 H16A 120.9
C15 C16 H16A 120.9
C7 C17 C14 127.0(3)
C7 C17 H17A 116.5
C14 C17 H17A 116.5
loop_
_geom_bond_atom_site_label_1
_geom_bond_atom_site_label_2
_geom_bond_distance
Cl1 N11 0.585(8)
Cl1 O11 0.824(6)
Cl1 O12 1.319(6)
Cl1 C1 1.881(3)
N11 O12 1.171(14)
N11 O11 1.251(16)
N11 C1 1.364(8)
C1 C6 1.373(2)
C1 C2 1.382(2)
C2 C3 1.363(2)
C2 H2A 0.9300
C3 C4 1.385(2)
C3 H3A 0.9300
C4 C5 1.388(2)
C4 C7 1.469(2)
C5 C6 1.376(2)
C5 H5A 0.9300
C6 H6A 0.9300
C7 C17 1.304(3)
C7 H7A 0.9300
Cl11 N1 0.585(8)
Cl11 O1 0.824(6)
Cl11 O2 1.319(6)
Cl11 C11 1.881(3)
N1 O2 1.171(14)
N1 O1 1.251(16)
N1 C11 1.364(8)
C11 C16 1.373(2)
C11 C12 1.382(2)
C12 C13 1.363(2)
C12 H12A 0.9300
C13 C14 1.385(2)
C13 H13A 0.9300
C14 C15 1.388(2)
C14 C17 1.469(2)
C15 C16 1.376(2)
C15 H15A 0.9300
C16 H16A 0.9300
C17 H17A 0.9300
loop_
_geom_torsion_atom_site_label_1
_geom_torsion_atom_site_label_2
_geom_torsion_atom_site_label_3
_geom_torsion_atom_site_label_4
_geom_torsion
O11 Cl1 N11 O12 172.5(12)
C1 Cl1 N11 O12 -178(4)
O12 Cl1 N11 O11 -172.5(12)
C1 Cl1 N11 O11 10(5)
O11 Cl1 N11 C1 -10(5)
O12 Cl1 N11 C1 178(4)
O12 Cl1 O11 N11 135(6)
C1 Cl1 O11 N11 -3.9(19)
O12 N11 O11 Cl1 -9.1(14)
C1 N11 O11 Cl1 174(3)
O11 N11 O12 Cl1 4.9(8)
C1 N11 O12 Cl1 -179(3)
O11 Cl1 O12 N11 -139(6)
C1 Cl1 O12 N11 0.9(16)
Cl1 N11 C1 C6 6(4)
O12 N11 C1 C6 -176.1(7)
O11 N11 C1 C6 0.7(13)
Cl1 N11 C1 C2 -174(3)
O12 N11 C1 C2 3.2(12)
O11 N11 C1 C2 -180.0(8)
O12 N11 C1 Cl1 177(5)
O11 N11 C1 Cl1 -6(3)
O11 Cl1 C1 N11 172(4)
O12 Cl1 C1 N11 -2(4)
N11 Cl1 C1 C6 -174(4)
O11 Cl1 C1 C6 -2.3(8)
O12 Cl1 C1 C6 -176.1(3)
N11 Cl1 C1 C2 6(4)
O11 Cl1 C1 C2 178.2(7)
O12 Cl1 C1 C2 4.4(4)
N11 C1 C2 C3 -179.3(5)
C6 C1 C2 C3 0.1(3)
Cl1 C1 C2 C3 179.5(2)
C1 C2 C3 C4 0.1(3)
C2 C3 C4 C5 -0.5(3)
C2 C3 C4 C7 -179.95(18)
C3 C4 C5 C6 0.7(3)
C7 C4 C5 C6 -179.79(17)
N11 C1 C6 C5 179.5(6)
C2 C1 C6 C5 0.2(3)
Cl1 C1 C6 C5 -179.3(2)
C4 C5 C6 C1 -0.6(3)
C3 C4 C7 C17 -4.5(4)
C5 C4 C7 C17 176.0(2)
O1 Cl11 N1 O2 -172.5(12)
C11 Cl11 N1 O2 178(4)
O2 Cl11 N1 O1 172.5(12)
C11 Cl11 N1 O1 -10(5)
O1 Cl11 N1 C11 10(5)
O2 Cl11 N1 C11 -178(4)
O2 Cl11 O1 N1 -135(6)
C11 Cl11 O1 N1 3.9(19)
O2 N1 O1 Cl11 9.1(14)
C11 N1 O1 Cl11 -174(3)
O1 N1 O2 Cl11 -4.9(8)
C11 N1 O2 Cl11 179(3)
O1 Cl11 O2 N1 139(6)
C11 Cl11 O2 N1 -0.9(16)
Cl11 N1 C11 C16 -6(4)
O2 N1 C11 C16 176.1(7)
O1 N1 C11 C16 -0.7(13)
Cl11 N1 C11 C12 174(3)
O2 N1 C11 C12 -3.2(12)
O1 N1 C11 C12 180.0(8)
O2 N1 C11 Cl11 -177(5)
O1 N1 C11 Cl11 6(3)
O1 Cl11 C11 N1 -172(4)
O2 Cl11 C11 N1 2(4)
N1 Cl11 C11 C16 174(4)
O1 Cl11 C11 C16 2.3(8)
O2 Cl11 C11 C16 176.1(3)
N1 Cl11 C11 C12 -6(4)
O1 Cl11 C11 C12 -178.2(7)
O2 Cl11 C11 C12 -4.4(4)
N1 C11 C12 C13 179.3(5)
C16 C11 C12 C13 -0.1(3)
Cl11 C11 C12 C13 -179.5(2)
C11 C12 C13 C14 -0.1(3)
C12 C13 C14 C15 0.5(3)
C12 C13 C14 C17 179.95(18)
C13 C14 C15 C16 -0.7(3)
C17 C14 C15 C16 179.79(17)
N1 C11 C16 C15 -179.5(6)
C12 C11 C16 C15 -0.2(3)
Cl11 C11 C16 C15 179.3(2)
C14 C15 C16 C11 0.6(3)
C4 C7 C17 C14 180.0
C13 C14 C17 C7 4.5(4)
C15 C14 C17 C7 -176.0(2)
