#------------------------------------------------------------------------------
#$Date: 2019-11-28 16:11:22 +0200 (Thu, 28 Nov 2019) $
#$Revision: 244087 $
#$URL: file:///home/coder/svn-repositories/cod/cif/7/23/81/7238170.cif $
#------------------------------------------------------------------------------
#
# This file is available in the Crystallography Open Database (COD),
# http://www.crystallography.net/
#
# All data on this site have been placed in the public domain by the
# contributors.
#
data_7238170
loop_
_publ_author_name
'Behrnd, Norwid-Rasmus'
'Labat, Ga\"el'
'Venugopalan, Paloth'
'Hulliger, J\"urg'
'B\"urgi, Hans-Beat'
_publ_section_title
;
 Influence of the solvent of crystallization on the orientational disorder
 of (trans)-4-chloro-4&#x2032;-nitrostilbene
;
_journal_issue                   12
_journal_name_full               CrystEngComm
_journal_page_first              4101
_journal_paper_doi               10.1039/b926652f
_journal_volume                  12
_journal_year                    2010
_chemical_formula_moiety         'C14 H10 Cl N O2'
_chemical_formula_sum            'C14 H10 Cl N O2'
_chemical_formula_weight         259.68
_space_group_IT_number           4
_space_group_name_Hall           'P 2ybc'
_space_group_name_H-M_alt        'P 1 21 1 (a,b,c-1/4)'
_symmetry_cell_setting           monoclinic
_symmetry_space_group_name_Hall  'P 2ybc'
_symmetry_space_group_name_H-M   'P 1 21 1 (a,b,c-1/4)'
_atom_sites_solution_hydrogens   geom
_atom_sites_solution_primary     direct
_atom_sites_solution_secondary   difmap
_audit_creation_method           SHELXL-97
_cell_angle_alpha                90.00
_cell_angle_beta                 93.254(3)
_cell_angle_gamma                90.00
_cell_formula_units_Z            2
_cell_length_a                   3.9182(2)
_cell_length_b                   12.9555(8)
_cell_length_c                   12.2381(7)
_cell_measurement_reflns_used    3482
_cell_measurement_temperature    293(2)
_cell_measurement_theta_max      23.011
_cell_measurement_theta_min      3.145
_cell_volume                     620.23(6)
_computing_cell_refinement       'SAINT (Bruker, 2003)'
_computing_data_collection       'SMART (Bruker, 1997)'
_computing_data_reduction        'SHELXTL (Bruker, 2000)'
_computing_molecular_graphics    'PLATON (Spek, 2003)'
_computing_publication_material  SHELXL-97
_computing_structure_refinement  'SHELXL-97 (Sheldrick, 1997)'
_computing_structure_solution    'SHELXS-97 (Sheldrick, 1990)'
_diffrn_ambient_temperature      293(2)
_diffrn_measured_fraction_theta_full 0.864
_diffrn_measured_fraction_theta_max 0.864
_diffrn_measurement_device_type  'Bruker SMART 1K'
_diffrn_measurement_method       'omega scan method'
_diffrn_radiation_monochromator  graphite
_diffrn_radiation_source         'fine-focus sealed tube'
_diffrn_radiation_type           MoK\a
_diffrn_radiation_wavelength     0.71073
_diffrn_reflns_av_R_equivalents  0.0292
_diffrn_reflns_av_sigmaI/netI    0.0624
_diffrn_reflns_limit_h_max       4
_diffrn_reflns_limit_h_min       -5
_diffrn_reflns_limit_k_max       16
_diffrn_reflns_limit_k_min       -16
_diffrn_reflns_limit_l_max       15
_diffrn_reflns_limit_l_min       -7
_diffrn_reflns_number            3447
_diffrn_reflns_theta_full        27.84
_diffrn_reflns_theta_max         27.84
_diffrn_reflns_theta_min         2.29
_diffrn_standards_decay_%        0
_diffrn_standards_interval_time  0
_diffrn_standards_number         0
_exptl_absorpt_coefficient_mu    0.300
_exptl_absorpt_correction_T_max  1
_exptl_absorpt_correction_T_min  0.117740
_exptl_absorpt_correction_type   multi-scan
_exptl_absorpt_process_details   'SADABS (Bruker, 2004)'
_exptl_crystal_colour            yellow
_exptl_crystal_density_diffrn    1.390
_exptl_crystal_density_method    'not measured'
_exptl_crystal_description       'prismatic rod'
_exptl_crystal_F_000             268
_exptl_crystal_size_max          0.30
_exptl_crystal_size_mid          0.20
_exptl_crystal_size_min          0.10
_refine_diff_density_max         0.190
_refine_diff_density_min         -0.182
_refine_diff_density_rms         0.045
_refine_ls_abs_structure_details 'Flack H D (1983), Acta Cryst. A39, 876-881'
_refine_ls_abs_structure_Flack   10(10)
_refine_ls_extinction_method     none
_refine_ls_goodness_of_fit_ref   1.071
_refine_ls_hydrogen_treatment    constr
_refine_ls_matrix_type           full
_refine_ls_number_parameters     101
_refine_ls_number_reflns         2541
_refine_ls_number_restraints     1
_refine_ls_restrained_S_all      1.071
_refine_ls_R_factor_all          0.1507
_refine_ls_R_factor_gt           0.0750
_refine_ls_shift/su_max          0.000
_refine_ls_shift/su_mean         0.000
_refine_ls_structure_factor_coef Fsqd
_refine_ls_weighting_details
'calc w=1/[\s^2^(Fo^2^)+(0.0999P)^2^+0.1114P] where P=(Fo^2^+2Fc^2^)/3'
_refine_ls_weighting_scheme      calc
_refine_ls_wR_factor_gt          0.2164
_refine_ls_wR_factor_ref         0.2512
_reflns_number_gt                1202
_reflns_number_total             2541
_reflns_threshold_expression     I>2sigma(I)
_cod_data_source_file            b926652f.txt
_cod_data_source_block           CNS-ClTol-small-P21_c
_cod_original_sg_symbol_Hall     P2ybc
_cod_original_sg_symbol_H-M      P21/c
_cod_database_code               7238170
loop_
_symmetry_equiv_pos_as_xyz
'x, y, z'
'-x, y+1/2, -z+1/2'
loop_
_atom_site_label
_atom_site_type_symbol
_atom_site_fract_x
_atom_site_fract_y
_atom_site_fract_z
_atom_site_U_iso_or_equiv
_atom_site_adp_type
_atom_site_occupancy
_atom_site_symmetry_multiplicity
_atom_site_calc_flag
_atom_site_refinement_flags
Cl1 Cl 0.371(2) -0.4615(2) -0.1752(7) 0.133(3) Uani 0.50 1 d P
N11 N 0.360(3) -0.4205(9) -0.1716(11) 0.081(2) Uani 0.50 1 d P
O11 O 0.308(3) -0.4948(9) -0.1225(7) 0.148(3) Uani 0.50 1 d P
O12 O 0.4992(14) -0.4115(4) -0.2587(4) 0.1211(19) Uani 0.50 1 d P
C1 C 0.2604(6) -0.3291(2) -0.1235(2) 0.0767(8) Uani 1 1 d .
C2 C 0.3157(6) -0.2394(2) -0.1791(2) 0.0830(8) Uani 1 1 d .
H2A H 0.4154 -0.2409 -0.2463 0.100 Uiso 1 1 calc R
C3 C 0.2220(6) -0.1473(2) -0.1343(2) 0.0787(8) Uani 1 1 d .
H3A H 0.2550 -0.0864 -0.1725 0.094 Uiso 1 1 calc R
C4 C 0.0782(6) -0.14308(19) -0.0327(2) 0.0690(7) Uani 1 1 d .
C5 C 0.0285(6) -0.23609(19) 0.0203(2) 0.0756(8) Uani 1 1 d .
H5A H -0.0696 -0.2352 0.0878 0.091 Uiso 1 1 calc R
C6 C 0.1191(7) -0.3301(2) -0.0230(2) 0.0822(8) Uani 1 1 d .
H6A H 0.0858 -0.3916 0.0141 0.099 Uiso 1 1 calc R
C7 C -0.0241(6) -0.04658(17) 0.0185(2) 0.0773(7) Uani 1 1 d .
H7A H -0.1341 -0.0522 0.0836 0.093 Uiso 1 1 calc R
Cl11 Cl -0.371(2) 0.4615(2) 0.1752(7) 0.133(3) Uani 0.50 1 d P
N1 N -0.360(3) 0.4205(9) 0.1716(11) 0.081(2) Uani 0.50 1 d P
O1 O -0.308(3) 0.4948(9) 0.1225(7) 0.148(3) Uani 0.50 1 d P
O2 O -0.4992(14) 0.4115(4) 0.2587(4) 0.1211(19) Uani 0.50 1 d P
C11 C -0.2604(6) 0.3291(2) 0.1235(2) 0.0767(8) Uani 1 1 d .
C12 C -0.3157(6) 0.2394(2) 0.1791(2) 0.0830(8) Uani 1 1 d .
H12A H -0.4154 0.2409 0.2463 0.100 Uiso 1 1 calc R
C13 C -0.2220(6) 0.1473(2) 0.1343(2) 0.0787(8) Uani 1 1 d .
H13A H -0.2550 0.0864 0.1725 0.094 Uiso 1 1 calc R
C14 C -0.0782(6) 0.14308(19) 0.0327(2) 0.0690(7) Uani 1 1 d .
C15 C -0.0285(6) 0.23609(19) -0.0203(2) 0.0756(8) Uani 1 1 d .
H15A H 0.0696 0.2352 -0.0878 0.091 Uiso 1 1 calc R
C16 C -0.1191(7) 0.3301(2) 0.0230(2) 0.0822(8) Uani 1 1 d .
H16A H -0.0858 0.3916 -0.0141 0.099 Uiso 1 1 calc R
C17 C 0.0241(6) 0.04658(17) -0.0185(2) 0.0773(7) Uani 1 1 d .
H17A H 0.1341 0.0522 -0.0836 0.093 Uiso 1 1 calc R
loop_
_atom_site_aniso_label
_atom_site_aniso_U_11
_atom_site_aniso_U_22
_atom_site_aniso_U_33
_atom_site_aniso_U_23
_atom_site_aniso_U_13
_atom_site_aniso_U_12
Cl1 0.129(2) 0.112(5) 0.156(5) -0.066(5) 0.004(3) 0.032(3)
N11 0.081(4) 0.087(7) 0.074(6) -0.004(5) 0.007(4) 0.005(5)
O11 0.208(7) 0.084(4) 0.158(7) -0.006(5) 0.053(5) 0.017(4)
O12 0.166(5) 0.092(3) 0.108(4) -0.034(3) 0.035(3) 0.020(3)
C1 0.0705(16) 0.0817(19) 0.0777(18) -0.0168(15) 0.0040(13) 0.0040(13)
C2 0.0784(17) 0.100(2) 0.0723(18) -0.0062(15) 0.0156(14) -0.0004(14)
C3 0.0810(17) 0.0768(17) 0.0792(18) 0.0086(14) 0.0116(13) -0.0019(13)
C4 0.0608(14) 0.0753(16) 0.0708(17) -0.0041(13) 0.0032(12) -0.0006(11)
C5 0.0811(17) 0.0774(17) 0.0694(16) 0.0016(13) 0.0132(12) 0.0004(13)
C6 0.0853(18) 0.0761(18) 0.085(2) 0.0034(14) 0.0059(15) 0.0062(14)
C7 0.0723(16) 0.0813(17) 0.0789(17) 0.0065(14) 0.0085(13) -0.0029(14)
Cl11 0.129(2) 0.112(5) 0.156(5) -0.066(5) 0.004(3) 0.032(3)
N1 0.081(4) 0.087(7) 0.074(6) -0.004(5) 0.007(4) 0.005(5)
O1 0.208(7) 0.084(4) 0.158(7) -0.006(5) 0.053(5) 0.017(4)
O2 0.166(5) 0.092(3) 0.108(4) -0.034(3) 0.035(3) 0.020(3)
C11 0.0705(16) 0.0817(19) 0.0777(18) -0.0168(15) 0.0040(13) 0.0040(13)
C12 0.0784(17) 0.100(2) 0.0723(18) -0.0062(15) 0.0156(14) -0.0004(14)
C13 0.0810(17) 0.0768(17) 0.0792(18) 0.0086(14) 0.0116(13) -0.0019(13)
C14 0.0608(14) 0.0753(16) 0.0708(17) -0.0041(13) 0.0032(12) -0.0006(11)
C15 0.0811(17) 0.0774(17) 0.0694(16) 0.0016(13) 0.0132(12) 0.0004(13)
C16 0.0853(18) 0.0761(18) 0.085(2) 0.0034(14) 0.0059(15) 0.0062(14)
C17 0.0723(16) 0.0813(17) 0.0789(17) 0.0065(14) 0.0085(13) -0.0029(14)
loop_
_atom_type_symbol
_atom_type_description
_atom_type_scat_dispersion_real
_atom_type_scat_dispersion_imag
_atom_type_scat_source
C C 0.0033 0.0016 'International Tables Vol C Tables 4.2.6.8 and 6.1.1.4'
H H 0.0000 0.0000 'International Tables Vol C Tables 4.2.6.8 and 6.1.1.4'
N N 0.0061 0.0033 'International Tables Vol C Tables 4.2.6.8 and 6.1.1.4'
O O 0.0106 0.0060 'International Tables Vol C Tables 4.2.6.8 and 6.1.1.4'
Cl Cl 0.1484 0.1585 'International Tables Vol C Tables 4.2.6.8 and 6.1.1.4'
loop_
_geom_angle_atom_site_label_1
_geom_angle_atom_site_label_2
_geom_angle_atom_site_label_3
_geom_angle
N11 Cl1 O11 115(3)
N11 Cl1 O12 67(2)
O11 Cl1 O12 175.0(13)
N11 Cl1 C1 18(2)
O11 Cl1 C1 97.4(12)
O12 Cl1 C1 85.3(3)
Cl1 N11 O11 40(2)
Cl1 N11 O12 89(2)
O11 N11 O12 128.8(10)
Cl1 N11 C1 155(3)
O11 N11 C1 115.3(8)
O12 N11 C1 115.8(10)
Cl1 O11 N11 24.7(9)
N11 O12 Cl1 23.7(5)
C2 C1 C6 122.4(3)
C2 C1 N11 117.1(6)
C6 C1 N11 120.5(6)
C2 C1 Cl1 123.9(3)
C6 C1 Cl1 113.7(4)
N11 C1 Cl1 6.8(8)
C1 C2 C3 119.0(2)
C1 C2 H2A 120.5
C3 C2 H2A 120.5
C2 C3 C4 121.5(3)
C2 C3 H3A 119.3
C4 C3 H3A 119.3
C5 C4 C3 117.2(2)
C5 C4 C7 119.5(2)
C3 C4 C7 123.3(2)
C6 C5 C4 122.6(2)
C6 C5 H5A 118.7
C4 C5 H5A 118.7
C1 C6 C5 117.3(3)
C1 C6 H6A 121.3
C5 C6 H6A 121.3
C17 C7 C4 126.3(3)
C17 C7 H7A 116.8
C4 C7 H7A 116.8
N1 Cl11 O1 115(3)
N1 Cl11 O2 67(2)
O1 Cl11 O2 175.0(13)
N1 Cl11 C11 18(2)
O1 Cl11 C11 97.4(12)
O2 Cl11 C11 85.3(3)
Cl11 N1 O1 40(2)
Cl11 N1 O2 89(2)
O1 N1 O2 128.8(10)
Cl11 N1 C11 155(3)
O1 N1 C11 115.3(8)
O2 N1 C11 115.8(10)
Cl11 O1 N1 24.7(9)
N1 O2 Cl11 23.7(5)
C12 C11 C16 122.4(3)
C12 C11 N1 117.1(6)
C16 C11 N1 120.5(6)
C12 C11 Cl11 123.9(3)
C16 C11 Cl11 113.7(4)
N1 C11 Cl11 6.8(8)
C11 C12 C13 119.0(2)
C11 C12 H12A 120.5
C13 C12 H12A 120.5
C12 C13 C14 121.5(3)
C12 C13 H13A 119.3
C14 C13 H13A 119.3
C15 C14 C13 117.2(2)
C15 C14 C17 119.5(2)
C13 C14 C17 123.3(2)
C16 C15 C14 122.6(2)
C16 C15 H15A 118.7
C14 C15 H15A 118.7
C11 C16 C15 117.3(3)
C11 C16 H16A 121.3
C15 C16 H16A 121.3
C7 C17 C14 126.3(3)
C7 C17 H17A 116.8
C14 C17 H17A 116.8
loop_
_geom_bond_atom_site_label_1
_geom_bond_atom_site_label_2
_geom_bond_distance
Cl1 N11 0.536(11)
Cl1 O11 0.825(9)
Cl1 O12 1.332(8)
Cl1 C1 1.888(4)
N11 O11 1.16(2)
N11 O12 1.231(15)
N11 C1 1.388(9)
C1 C2 1.371(4)
C1 C6 1.376(4)
C2 C3 1.371(4)
C2 H2A 0.9300
C3 C4 1.395(3)
C3 H3A 0.9300
C4 C5 1.388(3)
C4 C7 1.465(3)
C5 C6 1.383(3)
C5 H5A 0.9300
C6 H6A 0.9300
C7 C17 1.306(4)
C7 H7A 0.9300
Cl11 N1 0.536(11)
Cl11 O1 0.825(9)
Cl11 O2 1.332(8)
Cl11 C11 1.888(4)
N1 O1 1.16(2)
N1 O2 1.231(15)
N1 C11 1.388(9)
C11 C12 1.371(4)
C11 C16 1.376(4)
C12 C13 1.371(4)
C12 H12A 0.9300
C13 C14 1.395(3)
C13 H13A 0.9300
C14 C15 1.388(3)
C14 C17 1.465(3)
C15 C16 1.383(3)
C15 H15A 0.9300
C16 H16A 0.9300
C17 H17A 0.9300
loop_
_geom_torsion_atom_site_label_1
_geom_torsion_atom_site_label_2
_geom_torsion_atom_site_label_3
_geom_torsion_atom_site_label_4
_geom_torsion
O12 Cl1 N11 O11 -175.4(16)
C1 Cl1 N11 O11 8(8)
O11 Cl1 N11 O12 175.4(16)
C1 Cl1 N11 O12 -177(7)
O11 Cl1 N11 C1 -8(8)
O12 Cl1 N11 C1 177(7)
O12 Cl1 O11 N11 121(16)
C1 Cl1 O11 N11 -2(3)
O12 N11 O11 Cl1 -6(2)
C1 N11 O11 Cl1 176(4)
O11 N11 O12 Cl1 3.8(14)
C1 N11 O12 Cl1 -179(3)
O11 Cl1 O12 N11 -123(16)
C1 Cl1 O12 N11 1(2)
Cl1 N11 C1 C2 -174(7)
O11 N11 C1 C2 -179.8(10)
O12 N11 C1 C2 2.3(13)
Cl1 N11 C1 C6 7(7)
O11 N11 C1 C6 1.4(15)
O12 N11 C1 C6 -176.5(7)
O11 N11 C1 Cl1 -5(6)
O12 N11 C1 Cl1 177(8)
N11 Cl1 C1 C2 6(7)
O11 Cl1 C1 C2 179.1(10)
O12 Cl1 C1 C2 3.3(6)
N11 Cl1 C1 C6 -174(7)
O11 Cl1 C1 C6 -0.5(12)
O12 Cl1 C1 C6 -176.3(4)
O11 Cl1 C1 N11 173(8)
O12 Cl1 C1 N11 -3(7)
C6 C1 C2 C3 -1.1(4)
N11 C1 C2 C3 -179.9(7)
Cl1 C1 C2 C3 179.3(3)
C1 C2 C3 C4 1.2(4)
C2 C3 C4 C5 -1.1(4)
C2 C3 C4 C7 179.7(2)
C3 C4 C5 C6 0.8(4)
C7 C4 C5 C6 -180.0(2)
C2 C1 C6 C5 0.8(4)
N11 C1 C6 C5 179.5(7)
Cl1 C1 C6 C5 -179.6(3)
C4 C5 C6 C1 -0.7(4)
C5 C4 C7 C17 175.9(3)
C3 C4 C7 C17 -4.9(5)
O2 Cl11 N1 O1 175.4(16)
C11 Cl11 N1 O1 -8(8)
O1 Cl11 N1 O2 -175.4(16)
C11 Cl11 N1 O2 177(7)
O1 Cl11 N1 C11 8(8)
O2 Cl11 N1 C11 -177(7)
O2 Cl11 O1 N1 -121(16)
C11 Cl11 O1 N1 2(3)
O2 N1 O1 Cl11 6(2)
C11 N1 O1 Cl11 -176(4)
O1 N1 O2 Cl11 -3.8(14)
C11 N1 O2 Cl11 179(3)
O1 Cl11 O2 N1 123(16)
C11 Cl11 O2 N1 -1(2)
Cl11 N1 C11 C12 174(7)
O1 N1 C11 C12 179.8(10)
O2 N1 C11 C12 -2.3(13)
Cl11 N1 C11 C16 -7(7)
O1 N1 C11 C16 -1.4(15)
O2 N1 C11 C16 176.5(7)
O1 N1 C11 Cl11 5(6)
O2 N1 C11 Cl11 -177(8)
N1 Cl11 C11 C12 -6(7)
O1 Cl11 C11 C12 -179.1(10)
O2 Cl11 C11 C12 -3.3(6)
N1 Cl11 C11 C16 174(7)
O1 Cl11 C11 C16 0.5(12)
O2 Cl11 C11 C16 176.3(4)
O1 Cl11 C11 N1 -173(8)
O2 Cl11 C11 N1 3(7)
C16 C11 C12 C13 1.1(4)
N1 C11 C12 C13 179.9(7)
Cl11 C11 C12 C13 -179.3(3)
C11 C12 C13 C14 -1.2(4)
C12 C13 C14 C15 1.1(4)
C12 C13 C14 C17 -179.7(2)
C13 C14 C15 C16 -0.8(4)
C17 C14 C15 C16 180.0(2)
C12 C11 C16 C15 -0.8(4)
N1 C11 C16 C15 -179.5(7)
Cl11 C11 C16 C15 179.6(3)
C14 C15 C16 C11 0.7(4)
C4 C7 C17 C14 180.0
C15 C14 C17 C7 -175.9(3)
C13 C14 C17 C7 4.9(5)
