#------------------------------------------------------------------------------
#$Date: 2019-11-28 16:11:22 +0200 (Thu, 28 Nov 2019) $
#$Revision: 244087 $
#$URL: file:///home/coder/svn-repositories/cod/cif/7/23/81/7238162.cif $
#------------------------------------------------------------------------------
#
# This file is available in the Crystallography Open Database (COD),
# http://www.crystallography.net/
#
# All data on this site have been placed in the public domain by the
# contributors.
#
data_7238162
loop_
_publ_author_name
'Behrnd, Norwid-Rasmus'
'Labat, Ga\"el'
'Venugopalan, Paloth'
'Hulliger, J\"urg'
'B\"urgi, Hans-Beat'
_publ_section_title
;
 Influence of the solvent of crystallization on the orientational disorder
 of (trans)-4-chloro-4&#x2032;-nitrostilbene
;
_journal_issue                   12
_journal_name_full               CrystEngComm
_journal_page_first              4101
_journal_paper_doi               10.1039/b926652f
_journal_volume                  12
_journal_year                    2010
_chemical_formula_moiety         'C14 H10 Cl N O2'
_chemical_formula_sum            'C14 H10 Cl N O2'
_chemical_formula_weight         259.68
_space_group_IT_number           4
_space_group_name_Hall           'P 2ybc'
_space_group_name_H-M_alt        'P 1 21 1 (a,b,c-1/4)'
_symmetry_cell_setting           monoclinic
_symmetry_space_group_name_Hall  'P 2ybc'
_symmetry_space_group_name_H-M   'P 1 21 1 (a,b,c-1/4)'
_atom_sites_solution_hydrogens   geom
_atom_sites_solution_primary     direct
_atom_sites_solution_secondary   difmap
_audit_creation_method           SHELXL-97
_cell_angle_alpha                90.00
_cell_angle_beta                 93.153(3)
_cell_angle_gamma                90.00
_cell_formula_units_Z            2
_cell_length_a                   3.9200(3)
_cell_length_b                   12.9790(10)
_cell_length_c                   12.2368(9)
_cell_measurement_reflns_used    3492
_cell_measurement_temperature    293(2)
_cell_measurement_theta_max      25.132
_cell_measurement_theta_min      3.139
_cell_volume                     621.64(8)
_computing_cell_refinement       'SAINT (Bruker, 2003)'
_computing_data_collection       'SMART (Bruker, 1997)'
_computing_data_reduction        'SHELXTL (Bruker, 2000)'
_computing_molecular_graphics    'PLATON (Spek, 2003)'
_computing_publication_material  SHELXL-97
_computing_structure_refinement  'SHELXL-97 (Sheldrick, 1997)'
_computing_structure_solution    'SHELXS-97 (Sheldrick, 1990)'
_diffrn_ambient_temperature      293(2)
_diffrn_measured_fraction_theta_full 0.871
_diffrn_measured_fraction_theta_max 0.871
_diffrn_measurement_device_type  'Bruker SMART 1K'
_diffrn_measurement_method       'omega scan method'
_diffrn_radiation_monochromator  graphite
_diffrn_radiation_source         'fine-focus sealed tube'
_diffrn_radiation_type           MoK\a
_diffrn_radiation_wavelength     0.71073
_diffrn_reflns_av_R_equivalents  0.0162
_diffrn_reflns_av_sigmaI/netI    0.0493
_diffrn_reflns_limit_h_max       5
_diffrn_reflns_limit_h_min       -4
_diffrn_reflns_limit_k_max       16
_diffrn_reflns_limit_k_min       -16
_diffrn_reflns_limit_l_max       15
_diffrn_reflns_limit_l_min       -12
_diffrn_reflns_number            3459
_diffrn_reflns_theta_full        27.78
_diffrn_reflns_theta_max         27.78
_diffrn_reflns_theta_min         2.29
_diffrn_standards_decay_%        0
_diffrn_standards_interval_time  0
_diffrn_standards_number         0
_exptl_absorpt_coefficient_mu    0.299
_exptl_absorpt_correction_T_max  1
_exptl_absorpt_correction_T_min  0.475985
_exptl_absorpt_correction_type   multi-scan
_exptl_absorpt_process_details   'SADABS (Bruker, 2004)'
_exptl_crystal_colour            yellow
_exptl_crystal_density_diffrn    1.387
_exptl_crystal_density_method    'not measured'
_exptl_crystal_description       'prismatic rod'
_exptl_crystal_F_000             268
_exptl_crystal_size_max          0.18
_exptl_crystal_size_mid          0.12
_exptl_crystal_size_min          0.08
_refine_diff_density_max         0.117
_refine_diff_density_min         -0.099
_refine_diff_density_rms         0.031
_refine_ls_abs_structure_details 'Flack H D (1983), Acta Cryst. A39, 876-881'
_refine_ls_abs_structure_Flack   -10(10)
_refine_ls_extinction_method     none
_refine_ls_goodness_of_fit_ref   1.120
_refine_ls_hydrogen_treatment    constr
_refine_ls_matrix_type           full
_refine_ls_number_parameters     101
_refine_ls_number_reflns         2463
_refine_ls_number_restraints     1
_refine_ls_restrained_S_all      1.120
_refine_ls_R_factor_all          0.1675
_refine_ls_R_factor_gt           0.0722
_refine_ls_shift/su_max          0.000
_refine_ls_shift/su_mean         0.000
_refine_ls_structure_factor_coef Fsqd
_refine_ls_weighting_details
'calc w=1/[\s^2^(Fo^2^)+(0.0344P)^2^+0.3558P] where P=(Fo^2^+2Fc^2^)/3'
_refine_ls_weighting_scheme      calc
_refine_ls_wR_factor_gt          0.1523
_refine_ls_wR_factor_ref         0.1794
_reflns_number_gt                1060
_reflns_number_total             2463
_reflns_threshold_expression     I>2sigma(I)
_cod_data_source_file            b926652f.txt
_cod_data_source_block           CNS-ClBzI-small-P21_c
_cod_original_sg_symbol_Hall     P2ybc
_cod_original_sg_symbol_H-M      P21/c
_cod_database_code               7238162
loop_
_symmetry_equiv_pos_as_xyz
'x, y, z'
'-x, y+1/2, -z+1/2'
loop_
_atom_site_label
_atom_site_type_symbol
_atom_site_fract_x
_atom_site_fract_y
_atom_site_fract_z
_atom_site_U_iso_or_equiv
_atom_site_adp_type
_atom_site_occupancy
_atom_site_symmetry_multiplicity
_atom_site_calc_flag
_atom_site_refinement_flags
Cl1 Cl 0.376(2) -0.4600(3) -0.1755(9) 0.126(3) Uani 0.50 1 d P
N11 N 0.352(5) -0.4213(11) -0.1713(16) 0.079(3) Uani 0.50 1 d P
O11 O 0.309(3) -0.4958(10) -0.1230(8) 0.141(4) Uani 0.50 1 d P
O12 O 0.5011(15) -0.4128(4) -0.2586(5) 0.114(2) Uani 0.50 1 d P
C1 C 0.2613(7) -0.3286(2) -0.1238(3) 0.0709(8) Uani 1 1 d .
C2 C 0.3159(7) -0.2385(3) -0.1788(2) 0.0823(9) Uani 1 1 d .
H2A H 0.4153 -0.2398 -0.2461 0.099 Uiso 1 1 calc R
C3 C 0.2236(7) -0.1474(2) -0.1344(2) 0.0763(9) Uani 1 1 d .
H3A H 0.2572 -0.0865 -0.1724 0.092 Uiso 1 1 calc R
C4 C 0.0784(6) -0.1437(2) -0.0322(2) 0.0670(8) Uani 1 1 d .
C5 C 0.0287(7) -0.2353(2) 0.0205(2) 0.0738(8) Uani 1 1 d .
H5A H -0.0694 -0.2341 0.0880 0.089 Uiso 1 1 calc R
C6 C 0.1188(7) -0.3298(2) -0.0227(2) 0.0772(9) Uani 1 1 d .
H6A H 0.0849 -0.3911 0.0145 0.093 Uiso 1 1 calc R
C7 C -0.0243(7) -0.04656(18) 0.0186(2) 0.0752(8) Uani 1 1 d .
H7A H -0.1349 -0.0519 0.0837 0.090 Uiso 1 1 calc R
Cl11 Cl -0.376(2) 0.4600(3) 0.1755(9) 0.126(3) Uani 0.50 1 d P
N1 N -0.352(5) 0.4213(11) 0.1713(16) 0.079(3) Uani 0.50 1 d P
O1 O -0.309(3) 0.4958(10) 0.1230(8) 0.141(4) Uani 0.50 1 d P
O2 O -0.5011(15) 0.4128(4) 0.2586(5) 0.114(2) Uani 0.50 1 d P
C11 C -0.2613(7) 0.3286(2) 0.1238(3) 0.0709(8) Uani 1 1 d .
C12 C -0.3159(7) 0.2385(3) 0.1788(2) 0.0823(9) Uani 1 1 d .
H12A H -0.4153 0.2398 0.2461 0.099 Uiso 1 1 calc R
C13 C -0.2236(7) 0.1474(2) 0.1344(2) 0.0763(9) Uani 1 1 d .
H13A H -0.2572 0.0865 0.1724 0.092 Uiso 1 1 calc R
C14 C -0.0784(6) 0.1437(2) 0.0322(2) 0.0670(8) Uani 1 1 d .
C15 C -0.0287(7) 0.2353(2) -0.0205(2) 0.0738(8) Uani 1 1 d .
H15A H 0.0694 0.2341 -0.0880 0.089 Uiso 1 1 calc R
C16 C -0.1188(7) 0.3298(2) 0.0227(2) 0.0772(9) Uani 1 1 d .
H16A H -0.0849 0.3911 -0.0145 0.093 Uiso 1 1 calc R
C17 C 0.0243(7) 0.04656(18) -0.0186(2) 0.0752(8) Uani 1 1 d .
H17A H 0.1349 0.0519 -0.0837 0.090 Uiso 1 1 calc R
loop_
_atom_site_aniso_label
_atom_site_aniso_U_11
_atom_site_aniso_U_22
_atom_site_aniso_U_33
_atom_site_aniso_U_23
_atom_site_aniso_U_13
_atom_site_aniso_U_12
Cl1 0.120(3) 0.114(7) 0.144(5) -0.064(5) 0.002(3) 0.034(4)
N11 0.069(5) 0.081(8) 0.089(9) 0.002(8) 0.020(5) 0.019(7)
O11 0.187(8) 0.089(6) 0.151(8) -0.005(5) 0.045(6) 0.011(5)
O12 0.155(5) 0.096(4) 0.094(4) -0.025(3) 0.036(4) 0.016(3)
C1 0.0638(19) 0.075(2) 0.074(2) -0.0134(17) -0.0012(16) 0.0055(16)
C2 0.073(2) 0.110(3) 0.064(2) -0.0038(19) 0.0108(16) 0.0002(19)
C3 0.075(2) 0.081(2) 0.075(2) 0.0060(17) 0.0117(17) -0.0024(17)
C4 0.0532(17) 0.079(2) 0.069(2) -0.0063(17) 0.0014(14) -0.0013(14)
C5 0.074(2) 0.086(2) 0.0623(18) 0.0000(17) 0.0125(15) -0.0075(17)
C6 0.081(2) 0.072(2) 0.079(2) 0.0018(17) 0.0037(17) 0.0041(16)
C7 0.0696(19) 0.078(2) 0.078(2) 0.0062(17) 0.0055(15) -0.0025(17)
Cl11 0.120(3) 0.114(7) 0.144(5) -0.064(5) 0.002(3) 0.034(4)
N1 0.069(5) 0.081(8) 0.089(9) 0.002(8) 0.020(5) 0.019(7)
O1 0.187(8) 0.089(6) 0.151(8) -0.005(5) 0.045(6) 0.011(5)
O2 0.155(5) 0.096(4) 0.094(4) -0.025(3) 0.036(4) 0.016(3)
C11 0.0638(19) 0.075(2) 0.074(2) -0.0134(17) -0.0012(16) 0.0055(16)
C12 0.073(2) 0.110(3) 0.064(2) -0.0038(19) 0.0108(16) 0.0002(19)
C13 0.075(2) 0.081(2) 0.075(2) 0.0060(17) 0.0117(17) -0.0024(17)
C14 0.0532(17) 0.079(2) 0.069(2) -0.0063(17) 0.0014(14) -0.0013(14)
C15 0.074(2) 0.086(2) 0.0623(18) 0.0000(17) 0.0125(15) -0.0075(17)
C16 0.081(2) 0.072(2) 0.079(2) 0.0018(17) 0.0037(17) 0.0041(16)
C17 0.0696(19) 0.078(2) 0.078(2) 0.0062(17) 0.0055(15) -0.0025(17)
loop_
_atom_type_symbol
_atom_type_description
_atom_type_scat_dispersion_real
_atom_type_scat_dispersion_imag
_atom_type_scat_source
C C 0.0033 0.0016 'International Tables Vol C Tables 4.2.6.8 and 6.1.1.4'
H H 0.0000 0.0000 'International Tables Vol C Tables 4.2.6.8 and 6.1.1.4'
N N 0.0061 0.0033 'International Tables Vol C Tables 4.2.6.8 and 6.1.1.4'
O O 0.0106 0.0060 'International Tables Vol C Tables 4.2.6.8 and 6.1.1.4'
Cl Cl 0.1484 0.1585 'International Tables Vol C Tables 4.2.6.8 and 6.1.1.4'
loop_
_geom_angle_atom_site_label_1
_geom_angle_atom_site_label_2
_geom_angle_atom_site_label_3
_geom_angle
N11 Cl1 O11 113(4)
N11 Cl1 O12 72(3)
O11 Cl1 O12 174.1(13)
N11 Cl1 C1 15(3)
O11 Cl1 C1 98.7(14)
O12 Cl1 C1 86.8(4)
Cl1 N11 O11 43(3)
Cl1 N11 O12 84(3)
O11 N11 O12 127.0(12)
Cl1 N11 C1 160(4)
O11 N11 C1 117.7(11)
O12 N11 C1 115.0(12)
Cl1 O11 N11 24.3(10)
N11 O12 Cl1 23.1(6)
C2 C1 N11 118.8(8)
C2 C1 C6 121.9(3)
N11 C1 C6 119.2(8)
C2 C1 Cl1 124.1(4)
N11 C1 Cl1 5.4(11)
C6 C1 Cl1 114.0(4)
C3 C2 C1 119.5(3)
C3 C2 H2A 120.2
C1 C2 H2A 120.2
C2 C3 C4 121.1(3)
C2 C3 H3A 119.4
C4 C3 H3A 119.4
C5 C4 C3 117.6(3)
C5 C4 C7 119.7(3)
C3 C4 C7 122.7(3)
C4 C5 C6 122.7(3)
C4 C5 H5A 118.6
C6 C5 H5A 118.6
C1 C6 C5 117.0(3)
C1 C6 H6A 121.5
C5 C6 H6A 121.5
C17 C7 C4 126.6(4)
C17 C7 H7A 116.7
C4 C7 H7A 116.7
N1 Cl11 O1 113(4)
N1 Cl11 O2 72(3)
O1 Cl11 O2 174.1(13)
N1 Cl11 C11 15(3)
O1 Cl11 C11 98.7(14)
O2 Cl11 C11 86.8(4)
Cl11 N1 O1 43(3)
Cl11 N1 O2 84(3)
O1 N1 O2 127.0(12)
Cl11 N1 C11 160(4)
O1 N1 C11 117.7(11)
O2 N1 C11 115.0(12)
Cl11 O1 N1 24.3(10)
N1 O2 Cl11 23.1(6)
C12 C11 N1 118.8(8)
C12 C11 C16 121.9(3)
N1 C11 C16 119.2(8)
C12 C11 Cl11 124.1(4)
N1 C11 Cl11 5.4(11)
C16 C11 Cl11 114.0(4)
C13 C12 C11 119.5(3)
C13 C12 H12A 120.2
C11 C12 H12A 120.2
C12 C13 C14 121.1(3)
C12 C13 H13A 119.4
C14 C13 H13A 119.4
C15 C14 C13 117.6(3)
C15 C14 C17 119.7(3)
C13 C14 C17 122.7(3)
C14 C15 C16 122.7(3)
C14 C15 H15A 118.6
C16 C15 H15A 118.6
C11 C16 C15 117.0(3)
C11 C16 H16A 121.5
C15 C16 H16A 121.5
C7 C17 C14 126.6(4)
C7 C17 H17A 116.7
C14 C17 H17A 116.7
loop_
_geom_bond_atom_site_label_1
_geom_bond_atom_site_label_2
_geom_bond_distance
Cl1 N11 0.515(14)
Cl1 O11 0.847(12)
Cl1 O12 1.305(10)
Cl1 C1 1.883(5)
N11 O11 1.15(2)
N11 O12 1.250(18)
N11 C1 1.391(12)
C1 C2 1.372(4)
C1 C6 1.385(4)
C2 C3 1.359(4)
C2 H2A 0.9300
C3 C4 1.403(4)
C3 H3A 0.9300
C4 C5 1.372(3)
C4 C7 1.471(3)
C5 C6 1.389(3)
C5 H5A 0.9300
C6 H6A 0.9300
C7 C17 1.309(5)
C7 H7A 0.9300
Cl11 N1 0.515(14)
Cl11 O1 0.847(12)
Cl11 O2 1.305(10)
Cl11 C11 1.883(5)
N1 O1 1.15(2)
N1 O2 1.250(18)
N1 C11 1.391(12)
C11 C12 1.372(4)
C11 C16 1.385(4)
C12 C13 1.359(4)
C12 H12A 0.9300
C13 C14 1.403(4)
C13 H13A 0.9300
C14 C15 1.372(3)
C14 C17 1.471(3)
C15 C16 1.389(3)
C15 H15A 0.9300
C16 H16A 0.9300
C17 H17A 0.9300
loop_
_geom_torsion_atom_site_label_1
_geom_torsion_atom_site_label_2
_geom_torsion_atom_site_label_3
_geom_torsion_atom_site_label_4
_geom_torsion
O12 Cl1 N11 O11 -178(2)
C1 Cl1 N11 O11 -11(14)
O11 Cl1 N11 O12 178(2)
C1 Cl1 N11 O12 166(12)
O11 Cl1 N11 C1 11(14)
O12 Cl1 N11 C1 -166(12)
O12 Cl1 O11 N11 160(19)
C1 Cl1 O11 N11 3(4)
O12 N11 O11 Cl1 -3(3)
C1 N11 O11 Cl1 -176(5)
O11 N11 O12 Cl1 1.8(17)
C1 N11 O12 Cl1 175(5)
O11 Cl1 O12 N11 -161(18)
C1 Cl1 O12 N11 -3(3)
Cl1 N11 C1 C2 170(11)
O11 N11 C1 C2 178.8(14)
O12 N11 C1 C2 5.0(19)
Cl1 N11 C1 C6 -10(12)
O11 N11 C1 C6 -1(2)
O12 N11 C1 C6 -175.1(10)
O11 N11 C1 Cl1 9(10)
O12 N11 C1 Cl1 -165(13)
N11 Cl1 C1 C2 -11(12)
O11 Cl1 C1 C2 -179.8(11)
O12 Cl1 C1 C2 2.4(8)
O11 Cl1 C1 N11 -169(13)
O12 Cl1 C1 N11 13(11)
N11 Cl1 C1 C6 170(12)
O11 Cl1 C1 C6 1.1(14)
O12 Cl1 C1 C6 -176.6(5)
N11 C1 C2 C3 178.9(10)
C6 C1 C2 C3 -1.0(4)
Cl1 C1 C2 C3 -180.0(4)
C1 C2 C3 C4 1.1(4)
C2 C3 C4 C5 -0.9(4)
C2 C3 C4 C7 179.9(3)
C3 C4 C5 C6 0.6(4)
C7 C4 C5 C6 179.9(3)
C2 C1 C6 C5 0.7(4)
N11 C1 C6 C5 -179.2(10)
Cl1 C1 C6 C5 179.8(4)
C4 C5 C6 C1 -0.6(4)
C5 C4 C7 C17 175.8(4)
C3 C4 C7 C17 -5.0(5)
O2 Cl11 N1 O1 178(2)
C11 Cl11 N1 O1 11(14)
O1 Cl11 N1 O2 -178(2)
C11 Cl11 N1 O2 -166(12)
O1 Cl11 N1 C11 -11(14)
O2 Cl11 N1 C11 166(12)
O2 Cl11 O1 N1 -160(19)
C11 Cl11 O1 N1 -3(4)
O2 N1 O1 Cl11 3(3)
C11 N1 O1 Cl11 176(5)
O1 N1 O2 Cl11 -1.8(17)
C11 N1 O2 Cl11 -175(5)
O1 Cl11 O2 N1 161(18)
C11 Cl11 O2 N1 3(3)
Cl11 N1 C11 C12 -170(11)
O1 N1 C11 C12 -178.8(14)
O2 N1 C11 C12 -5.0(19)
Cl11 N1 C11 C16 10(12)
O1 N1 C11 C16 1(2)
O2 N1 C11 C16 175.1(10)
O1 N1 C11 Cl11 -9(10)
O2 N1 C11 Cl11 165(13)
N1 Cl11 C11 C12 11(12)
O1 Cl11 C11 C12 179.8(11)
O2 Cl11 C11 C12 -2.4(8)
O1 Cl11 C11 N1 169(13)
O2 Cl11 C11 N1 -13(11)
N1 Cl11 C11 C16 -170(12)
O1 Cl11 C11 C16 -1.1(14)
O2 Cl11 C11 C16 176.6(5)
N1 C11 C12 C13 -178.9(10)
C16 C11 C12 C13 1.0(4)
Cl11 C11 C12 C13 180.0(4)
C11 C12 C13 C14 -1.1(4)
C12 C13 C14 C15 0.9(4)
C12 C13 C14 C17 -179.9(3)
C13 C14 C15 C16 -0.6(4)
C17 C14 C15 C16 -179.9(3)
C12 C11 C16 C15 -0.7(4)
N1 C11 C16 C15 179.2(10)
Cl11 C11 C16 C15 -179.8(4)
C14 C15 C16 C11 0.6(4)
C4 C7 C17 C14 180.0
C15 C14 C17 C7 -175.8(4)
C13 C14 C17 C7 5.0(5)
