#------------------------------------------------------------------------------
#$Date: 2019-11-28 16:15:34 +0200 (Thu, 28 Nov 2019) $
#$Revision: 244091 $
#$URL: file:///home/coder/svn-repositories/cod/cif/7/23/82/7238222.cif $
#------------------------------------------------------------------------------
#
# This file is available in the Crystallography Open Database (COD),
# http://www.crystallography.net/
#
# All data on this site have been placed in the public domain by the
# contributors.
#
data_7238222
loop_
_publ_author_name
'Nayak, Susanta K.'
'Sathishkumar, Ranganathan'
'Row, T. N. Guru'
_publ_section_title
;
 Directing role of functional groups in selective generation of
 C--H&#x22EF;\p interactions: In situ cryo-crystallographic studies on
 benzyl derivatives
;
_journal_issue                   10
_journal_name_full               CrystEngComm
_journal_page_first              3112
_journal_paper_doi               10.1039/c001190h
_journal_volume                  12
_journal_year                    2010
_chemical_compound_source        'see text'
_chemical_formula_moiety         'C7 H8 S'
_chemical_formula_sum            'C7 H8 S'
_chemical_formula_weight         124.20
_chemical_name_common            Phenylmethanethiol
_chemical_name_systematic
;
Phenylmethanethiol
;
_space_group_IT_number           14
_space_group_name_Hall           '-P 2yn'
_space_group_name_H-M_alt        'P 1 21/n 1'
_symmetry_cell_setting           monoclinic
_symmetry_Int_Tables_number      14
_symmetry_space_group_name_Hall  '-P 2yn'
_symmetry_space_group_name_H-M   'P 1 21/n 1'
_atom_sites_solution_hydrogens   geom
_atom_sites_solution_primary     direct
_atom_sites_solution_secondary   difmap
_cell_angle_alpha                90
_cell_angle_beta                 100.668(2)
_cell_angle_gamma                90
_cell_formula_units_Z            4
_cell_length_a                   5.5515(7)
_cell_length_b                   14.8529(19)
_cell_length_c                   8.0053(10)
_cell_measurement_reflns_used    450
_cell_measurement_temperature    150(2)
_cell_measurement_theta_max      27.98
_cell_measurement_theta_min      0.98
_cell_volume                     648.68(14)
_computing_cell_refinement       SMART
_computing_data_collection       'SMART (Bruker, 1998)'
_computing_data_reduction        'SAINT (Bruker, 1998)'
_computing_molecular_graphics
'Ortep-3 for Windows (Farrugia, 1997) and CAMERON (Watkin et al., 1993)'
_computing_publication_material  'PLATON (Spek, 2003)'
_computing_structure_refinement  'SHELXL-97 (Sheldrick, 1997)'
_computing_structure_solution    'SHELXTL V6.14 (Bruker, 2000)'
_diffrn_ambient_temperature      150(2)
_diffrn_measured_fraction_theta_full 1.000
_diffrn_measured_fraction_theta_max 1.000
_diffrn_measurement_device_type  'Bruker SMART CCD area detector'
_diffrn_measurement_method       '\f and \w scans'
_diffrn_radiation_monochromator  graphite
_diffrn_radiation_source         'fine-focus sealed tube'
_diffrn_radiation_type           MoK\a
_diffrn_radiation_wavelength     0.71073
_diffrn_reflns_av_R_equivalents  0.0219
_diffrn_reflns_av_sigmaI/netI    0.0159
_diffrn_reflns_limit_h_max       6
_diffrn_reflns_limit_h_min       -6
_diffrn_reflns_limit_k_max       18
_diffrn_reflns_limit_k_min       -18
_diffrn_reflns_limit_l_max       9
_diffrn_reflns_limit_l_min       -9
_diffrn_reflns_number            6142
_diffrn_reflns_reduction_process
;
;
_diffrn_reflns_theta_full        26.00
_diffrn_reflns_theta_max         26.00
_diffrn_reflns_theta_min         2.74
_exptl_absorpt_coefficient_mu    0.381
_exptl_absorpt_correction_T_max  0.9009
_exptl_absorpt_correction_T_min  0.8879
_exptl_absorpt_correction_type   multi-scan
_exptl_absorpt_process_details   'SADABS, (Sheldrick, 1996)'
_exptl_crystal_colour            colorless
_exptl_crystal_density_diffrn    1.272
_exptl_crystal_density_method    'not measured'
_exptl_crystal_description       plate
_exptl_crystal_F_000             264
_exptl_crystal_size_max          0.32
_exptl_crystal_size_mid          0.30
_exptl_crystal_size_min          0.30
_refine_diff_density_max         0.259
_refine_diff_density_min         -0.144
_refine_diff_density_rms         0.039
_refine_ls_goodness_of_fit_ref   1.105
_refine_ls_hydrogen_treatment    mixed
_refine_ls_matrix_type           full
_refine_ls_number_parameters     77
_refine_ls_number_reflns         1270
_refine_ls_number_restraints     0
_refine_ls_restrained_S_all      1.105
_refine_ls_R_factor_all          0.0279
_refine_ls_R_factor_gt           0.0272
_refine_ls_shift/su_max          0.001
_refine_ls_shift/su_mean         0.000
_refine_ls_structure_factor_coef Fsqd
_refine_ls_weighting_details
'calc w=1/[\s^2^(Fo^2^)+(0.0398P)^2^+0.1739P] where P=(Fo^2^+2Fc^2^)/3'
_refine_ls_weighting_scheme      calc
_refine_ls_wR_factor_gt          0.0748
_refine_ls_wR_factor_ref         0.0753
_reflns_number_gt                1229
_reflns_number_total             1270
_reflns_threshold_expression     I>2\s(I)
_cod_data_source_file            c001190h.txt
_cod_data_source_block           g
_cod_depositor_comments
;
The following automatic conversions were performed:

data item '_symmetry_cell_setting' value 'Monoclinic' was changed to
'monoclinic' in accordance with the
/home/saulius/struct/COD-crude-data/automatic-downloads/DataCite-retrospective/RSC/depositions/lib/dictionaries/cif_core.dic
dictionary named 'cif_core.dic' version 2.4.2 last updated on
2011-04-26.

Automatic conversion script
Id: cif_fix_values 6909 2019-04-08 15:41:33Z antanas 
;
_cod_original_sg_symbol_H-M      'P 21/n'
_cod_database_code               7238222
loop_
_symmetry_equiv_pos_site_id
_symmetry_equiv_pos_as_xyz
1 x,y,z
2 1/2-x,1/2+y,1/2-z
3 -x,-y,-z
4 1/2+x,1/2-y,1/2+z
loop_
_atom_site_label
_atom_site_type_symbol
_atom_site_fract_x
_atom_site_fract_y
_atom_site_fract_z
_atom_site_U_iso_or_equiv
_atom_site_adp_type
_atom_site_occupancy
_atom_site_symmetry_multiplicity
_atom_site_calc_flag
_atom_site_refinement_flags
H1S H 1.001(3) 0.5198(12) 1.177(2) 0.053(5) Uiso 1 1 d .
S1 S 1.07447(6) 0.59518(2) 1.22863(4) 0.03124(14) Uani 1 1 d .
C6 C 0.5275(2) 0.60210(8) 0.86913(17) 0.0260(3) Uani 1 1 d .
H6 H 0.4223 0.5824 0.9395 0.031 Uiso 1 1 calc R
C1 C 0.7426(2) 0.64719(8) 0.93913(15) 0.0228(3) Uani 1 1 d .
C5 C 0.4684(2) 0.58620(8) 0.69545(17) 0.0287(3) Uani 1 1 d .
H5 H 0.3244 0.5559 0.6503 0.034 Uiso 1 1 calc R
C4 C 0.6231(2) 0.61525(8) 0.58926(16) 0.0283(3) Uani 1 1 d .
H4 H 0.5846 0.6039 0.4731 0.034 Uiso 1 1 calc R
C3 C 0.8367(2) 0.66158(8) 0.65732(16) 0.0275(3) Uani 1 1 d .
H3 H 0.9400 0.6820 0.5863 0.033 Uiso 1 1 calc R
C7 C 0.8100(2) 0.66145(9) 1.12823(16) 0.0280(3) Uani 1 1 d .
H7A H 0.6706 0.6458 1.1797 0.034 Uiso 1 1 calc R
H7B H 0.8452 0.7248 1.1503 0.034 Uiso 1 1 calc R
C2 C 0.8957(2) 0.67729(8) 0.83081(15) 0.0251(3) Uani 1 1 d .
H2 H 1.0389 0.7082 0.8755 0.030 Uiso 1 1 calc R
loop_
_atom_site_aniso_label
_atom_site_aniso_U_11
_atom_site_aniso_U_22
_atom_site_aniso_U_33
_atom_site_aniso_U_23
_atom_site_aniso_U_13
_atom_site_aniso_U_12
S1 0.0319(2) 0.0359(2) 0.0242(2) 0.00155(12) 0.00054(14) 0.00453(12)
C6 0.0229(6) 0.0252(6) 0.0312(7) 0.0045(5) 0.0082(5) 0.0018(4)
C1 0.0233(6) 0.0211(6) 0.0241(6) 0.0011(4) 0.0050(4) 0.0055(4)
C5 0.0238(6) 0.0270(6) 0.0334(7) -0.0006(5) 0.0005(5) -0.0007(5)
C4 0.0315(6) 0.0287(6) 0.0229(6) -0.0004(5) 0.0007(5) 0.0031(5)
C3 0.0281(6) 0.0297(6) 0.0257(6) 0.0038(5) 0.0080(5) 0.0009(5)
C7 0.0298(6) 0.0304(6) 0.0248(6) -0.0006(5) 0.0072(5) 0.0055(5)
C2 0.0227(6) 0.0255(6) 0.0269(6) 0.0003(5) 0.0043(5) -0.0016(4)
loop_
_atom_type_symbol
_atom_type_description
_atom_type_scat_dispersion_real
_atom_type_scat_dispersion_imag
_atom_type_scat_source
Cl Cl 0.1484 0.1585 'International Tables Vol C Tables 4.2.6.8 and 6.1.1.4'
H H 0.0000 0.0000 'International Tables Vol C Tables 4.2.6.8 and 6.1.1.4'
C C 0.0033 0.0016 'International Tables Vol C Tables 4.2.6.8 and 6.1.1.4'
loop_
_geom_angle_atom_site_label_1
_geom_angle_atom_site_label_2
_geom_angle_atom_site_label_3
_geom_angle
C7 S1 H1S 98.7(8)
C5 C6 C1 120.70(11)
C5 C6 H6 119.7
C1 C6 H6 119.7
C6 C1 C2 118.66(11)
C6 C1 C7 120.47(11)
C2 C1 C7 120.86(11)
C4 C5 C6 120.23(11)
C4 C5 H5 119.9
C6 C5 H5 119.9
C5 C4 C3 119.61(12)
C5 C4 H4 120.2
C3 C4 H4 120.2
C2 C3 C4 120.11(11)
C2 C3 H3 119.9
C4 C3 H3 119.9
C1 C7 S1 113.38(8)
C1 C7 H7A 108.9
S1 C7 H7A 108.9
C1 C7 H7B 108.9
S1 C7 H7B 108.9
H7A C7 H7B 107.7
C3 C2 C1 120.67(11)
C3 C2 H2 119.7
C1 C2 H2 119.7
loop_
_geom_bond_atom_site_label_1
_geom_bond_atom_site_label_2
_geom_bond_distance
S1 C7 1.8258(13)
S1 H1S 1.238(18)
C6 C5 1.3884(19)
C6 C1 1.3932(18)
C6 H6 0.9300
C1 C2 1.3956(17)
C1 C7 1.5056(17)
C5 C4 1.3847(19)
C5 H5 0.9300
C4 C3 1.3916(18)
C4 H4 0.9300
C3 C2 1.3865(17)
C3 H3 0.9300
C7 H7A 0.9700
C7 H7B 0.9700
C2 H2 0.9300
loop_
_geom_torsion_atom_site_label_1
_geom_torsion_atom_site_label_2
_geom_torsion_atom_site_label_3
_geom_torsion_atom_site_label_4
_geom_torsion
C5 C6 C1 C2 0.96(17)
C5 C6 C1 C7 -177.90(11)
C1 C6 C5 C4 -0.11(18)
C6 C5 C4 C3 -0.87(18)
C5 C4 C3 C2 0.97(18)
C6 C1 C7 S1 110.44(11)
C2 C1 C7 S1 -68.40(13)
C4 C3 C2 C1 -0.11(18)
C6 C1 C2 C3 -0.85(17)
C7 C1 C2 C3 178.00(11)
