#------------------------------------------------------------------------------
#$Date: 2019-11-28 16:11:22 +0200 (Thu, 28 Nov 2019) $
#$Revision: 244087 $
#$URL: file:///home/coder/svn-repositories/cod/cif/7/23/81/7238187.cif $
#------------------------------------------------------------------------------
#
# This file is available in the Crystallography Open Database (COD),
# http://www.crystallography.net/
#
# All data on this site have been placed in the public domain by the
# contributors.
#
data_7238187
loop_
_publ_author_name
'Behrnd, Norwid-Rasmus'
'Labat, Ga\"el'
'Venugopalan, Paloth'
'Hulliger, J\"urg'
'B\"urgi, Hans-Beat'
_publ_section_title
;
 Influence of the solvent of crystallization on the orientational disorder
 of (trans)-4-chloro-4&#x2032;-nitrostilbene
;
_journal_issue                   12
_journal_name_full               CrystEngComm
_journal_page_first              4101
_journal_paper_doi               10.1039/b926652f
_journal_volume                  12
_journal_year                    2010
_chemical_formula_moiety         'C14 H10 Cl N O2'
_chemical_formula_sum            'C14 H10 Cl N O2'
_chemical_formula_weight         259.68
_space_group_IT_number           4
_space_group_name_Hall           'P 2ybc'
_space_group_name_H-M_alt        'P 1 21 1 (a,b,c-1/4)'
_symmetry_cell_setting           monoclinic
_symmetry_space_group_name_Hall  'P 2ybc'
_symmetry_space_group_name_H-M   'P 1 21 1 (a,b,c-1/4)'
_atom_sites_solution_hydrogens   geom
_atom_sites_solution_primary     direct
_atom_sites_solution_secondary   difmap
_audit_creation_method           SHELXL-97
_cell_angle_alpha                90.00
_cell_angle_beta                 93.153(3)
_cell_angle_gamma                90.00
_cell_formula_units_Z            2
_cell_length_a                   3.9216(3)
_cell_length_b                   12.9663(10)
_cell_length_c                   12.2348(9)
_cell_measurement_reflns_used    3495
_cell_measurement_temperature    293(2)
_cell_measurement_theta_max      20.826
_cell_measurement_theta_min      3.142
_cell_volume                     621.18(8)
_computing_cell_refinement       'SAINT (Bruker, 2003)'
_computing_data_collection       'SMART (Bruker, 1997)'
_computing_data_reduction        'SHELXTL (Bruker, 2000)'
_computing_molecular_graphics    'PLATON (Spek, 2003)'
_computing_publication_material  SHELXL-97
_computing_structure_refinement  'SHELXL-97 (Sheldrick, 1997)'
_computing_structure_solution    'SHELXS-97 (Sheldrick, 1990)'
_diffrn_ambient_temperature      293(2)
_diffrn_measured_fraction_theta_full 0.879
_diffrn_measured_fraction_theta_max 0.879
_diffrn_measurement_device_type  'Bruker SMART 1K'
_diffrn_measurement_method       'omega scan method'
_diffrn_radiation_monochromator  graphite
_diffrn_radiation_source         'fine-focus sealed tube'
_diffrn_radiation_type           MoK\a
_diffrn_radiation_wavelength     0.71073
_diffrn_reflns_av_R_equivalents  0.0247
_diffrn_reflns_av_sigmaI/netI    0.0755
_diffrn_reflns_limit_h_max       5
_diffrn_reflns_limit_h_min       -5
_diffrn_reflns_limit_k_max       16
_diffrn_reflns_limit_k_min       -16
_diffrn_reflns_limit_l_max       16
_diffrn_reflns_limit_l_min       -8
_diffrn_reflns_number            3475
_diffrn_reflns_theta_full        27.79
_diffrn_reflns_theta_max         27.79
_diffrn_reflns_theta_min         2.29
_diffrn_standards_decay_%        0
_diffrn_standards_interval_time  0
_diffrn_standards_number         0
_exptl_absorpt_coefficient_mu    0.299
_exptl_absorpt_correction_T_max  1
_exptl_absorpt_correction_T_min  0.210189
_exptl_absorpt_correction_type   multi-scan
_exptl_absorpt_process_details   'SADABS (Bruker, 2004)'
_exptl_crystal_colour            yellow
_exptl_crystal_density_diffrn    1.388
_exptl_crystal_density_method    'not measured'
_exptl_crystal_description       'prismatic rod'
_exptl_crystal_F_000             268
_exptl_crystal_size_max          0.30
_exptl_crystal_size_mid          0.20
_exptl_crystal_size_min          0.10
_refine_diff_density_max         0.188
_refine_diff_density_min         -0.186
_refine_diff_density_rms         0.044
_refine_ls_abs_structure_details 'Flack H D (1983), Acta Cryst. A39, 876-881'
_refine_ls_abs_structure_Flack   10(10)
_refine_ls_extinction_method     none
_refine_ls_goodness_of_fit_ref   0.940
_refine_ls_hydrogen_treatment    constr
_refine_ls_matrix_type           full
_refine_ls_number_parameters     101
_refine_ls_number_reflns         2540
_refine_ls_number_restraints     1
_refine_ls_restrained_S_all      0.939
_refine_ls_R_factor_all          0.1832
_refine_ls_R_factor_gt           0.0706
_refine_ls_shift/su_max          0.000
_refine_ls_shift/su_mean         0.000
_refine_ls_structure_factor_coef Fsqd
_refine_ls_weighting_details
'calc w=1/[\s^2^(Fo^2^)+(0.0949P)^2^+0.0000P] where P=(Fo^2^+2Fc^2^)/3'
_refine_ls_weighting_scheme      calc
_refine_ls_wR_factor_gt          0.1595
_refine_ls_wR_factor_ref         0.2167
_reflns_number_gt                998
_reflns_number_total             2540
_reflns_threshold_expression     I>2sigma(I)
_cod_data_source_file            b926652f.txt
_cod_data_source_block           CNS-MeCNI-small-P21/c
_cod_original_sg_symbol_H-M      P21/c
_cod_database_code               7238187
loop_
_symmetry_equiv_pos_as_xyz
'x, y, z'
'-x, y+1/2, -z+1/2'
loop_
_atom_site_label
_atom_site_type_symbol
_atom_site_fract_x
_atom_site_fract_y
_atom_site_fract_z
_atom_site_U_iso_or_equiv
_atom_site_adp_type
_atom_site_occupancy
_atom_site_symmetry_multiplicity
_atom_site_calc_flag
_atom_site_refinement_flags
Cl1 Cl 0.3660(18) -0.4607(2) -0.1748(7) 0.124(3) Uani 0.50 1 d P
N11 N 0.372(4) -0.4189(10) -0.1718(13) 0.093(3) Uani 0.50 1 d P
O11 O 0.308(3) -0.4961(7) -0.1227(7) 0.145(4) Uani 0.50 1 d P
O12 O 0.4945(13) -0.4130(3) -0.2573(4) 0.1185(16) Uani 0.50 1 d P
C1 C 0.2594(6) -0.3288(2) -0.1229(2) 0.0779(8) Uani 1 1 d .
C2 C 0.3147(6) -0.2390(2) -0.17932(19) 0.0840(8) Uani 1 1 d .
H2A H 0.4125 -0.2405 -0.2468 0.101 Uiso 1 1 calc R
C3 C 0.2224(6) -0.14729(19) -0.1338(2) 0.0788(7) Uani 1 1 d .
H3A H 0.2570 -0.0862 -0.1715 0.095 Uiso 1 1 calc R
C4 C 0.0784(5) -0.14335(18) -0.03273(19) 0.0686(7) Uani 1 1 d .
C5 C 0.0272(6) -0.23637(18) 0.02053(19) 0.0758(7) Uani 1 1 d .
H5A H -0.0728 -0.2356 0.0877 0.091 Uiso 1 1 calc R
C6 C 0.1191(6) -0.32917(18) -0.0228(2) 0.0802(8) Uani 1 1 d .
H6A H 0.0872 -0.3905 0.0147 0.096 Uiso 1 1 calc R
C7 C -0.0236(6) -0.04676(15) 0.0183(2) 0.0764(7) Uani 1 1 d .
H7A H -0.1333 -0.0525 0.0835 0.092 Uiso 1 1 calc R
Cl11 Cl -0.3660(18) 0.4607(2) 0.1748(7) 0.124(3) Uani 0.50 1 d P
N1 N -0.372(4) 0.4189(10) 0.1718(13) 0.093(3) Uani 0.50 1 d P
O1 O -0.308(3) 0.4961(7) 0.1227(7) 0.145(4) Uani 0.50 1 d P
O2 O -0.4945(13) 0.4130(3) 0.2573(4) 0.1185(16) Uani 0.50 1 d P
C11 C -0.2594(6) 0.3288(2) 0.1229(2) 0.0779(8) Uani 1 1 d .
C12 C -0.3147(6) 0.2390(2) 0.17932(19) 0.0840(8) Uani 1 1 d .
H12A H -0.4125 0.2405 0.2468 0.101 Uiso 1 1 calc R
C13 C -0.2224(6) 0.14729(19) 0.1338(2) 0.0788(7) Uani 1 1 d .
H13A H -0.2570 0.0862 0.1715 0.095 Uiso 1 1 calc R
C14 C -0.0784(5) 0.14335(18) 0.03273(19) 0.0686(7) Uani 1 1 d .
C15 C -0.0272(6) 0.23637(18) -0.02053(19) 0.0758(7) Uani 1 1 d .
H15A H 0.0728 0.2356 -0.0877 0.091 Uiso 1 1 calc R
C16 C -0.1191(6) 0.32917(18) 0.0228(2) 0.0802(8) Uani 1 1 d .
H16A H -0.0872 0.3905 -0.0147 0.096 Uiso 1 1 calc R
C17 C 0.0236(6) 0.04676(15) -0.0183(2) 0.0764(7) Uani 1 1 d .
H17A H 0.1333 0.0525 -0.0835 0.092 Uiso 1 1 calc R
loop_
_atom_site_aniso_label
_atom_site_aniso_U_11
_atom_site_aniso_U_22
_atom_site_aniso_U_33
_atom_site_aniso_U_23
_atom_site_aniso_U_13
_atom_site_aniso_U_12
Cl1 0.120(3) 0.103(5) 0.149(5) -0.056(5) 0.013(3) 0.018(3)
N11 0.094(5) 0.098(8) 0.085(8) 0.012(7) -0.008(5) -0.016(7)
O11 0.186(6) 0.077(4) 0.178(7) 0.003(4) 0.049(4) 0.016(4)
O12 0.160(4) 0.092(3) 0.106(4) -0.028(3) 0.037(3) 0.020(3)
C1 0.0693(17) 0.0805(19) 0.084(2) -0.0182(15) 0.0027(13) 0.0067(13)
C2 0.0759(17) 0.103(2) 0.0741(18) -0.0030(15) 0.0138(14) -0.0027(14)
C3 0.0790(16) 0.0820(17) 0.0763(18) 0.0041(14) 0.0115(13) -0.0024(13)
C4 0.0605(14) 0.0758(15) 0.0699(16) -0.0040(13) 0.0058(11) -0.0012(11)
C5 0.0791(16) 0.0788(16) 0.0707(16) 0.0044(14) 0.0143(12) 0.0000(13)
C6 0.0819(17) 0.0730(17) 0.086(2) 0.0023(14) 0.0103(14) 0.0034(13)
C7 0.0714(15) 0.0772(15) 0.0809(17) 0.0033(13) 0.0070(12) -0.0019(13)
Cl11 0.120(3) 0.103(5) 0.149(5) -0.056(5) 0.013(3) 0.018(3)
N1 0.094(5) 0.098(8) 0.085(8) 0.012(7) -0.008(5) -0.016(7)
O1 0.186(6) 0.077(4) 0.178(7) 0.003(4) 0.049(4) 0.016(4)
O2 0.160(4) 0.092(3) 0.106(4) -0.028(3) 0.037(3) 0.020(3)
C11 0.0693(17) 0.0805(19) 0.084(2) -0.0182(15) 0.0027(13) 0.0067(13)
C12 0.0759(17) 0.103(2) 0.0741(18) -0.0030(15) 0.0138(14) -0.0027(14)
C13 0.0790(16) 0.0820(17) 0.0763(18) 0.0041(14) 0.0115(13) -0.0024(13)
C14 0.0605(14) 0.0758(15) 0.0699(16) -0.0040(13) 0.0058(11) -0.0012(11)
C15 0.0791(16) 0.0788(16) 0.0707(16) 0.0044(14) 0.0143(12) 0.0000(13)
C16 0.0819(17) 0.0730(17) 0.086(2) 0.0023(14) 0.0103(14) 0.0034(13)
C17 0.0714(15) 0.0772(15) 0.0809(17) 0.0033(13) 0.0070(12) -0.0019(13)
loop_
_atom_type_symbol
_atom_type_description
_atom_type_scat_dispersion_real
_atom_type_scat_dispersion_imag
_atom_type_scat_source
C C 0.0033 0.0016 'International Tables Vol C Tables 4.2.6.8 and 6.1.1.4'
H H 0.0000 0.0000 'International Tables Vol C Tables 4.2.6.8 and 6.1.1.4'
N N 0.0061 0.0033 'International Tables Vol C Tables 4.2.6.8 and 6.1.1.4'
O O 0.0106 0.0060 'International Tables Vol C Tables 4.2.6.8 and 6.1.1.4'
Cl Cl 0.1484 0.1585 'International Tables Vol C Tables 4.2.6.8 and 6.1.1.4'
loop_
_geom_angle_atom_site_label_1
_geom_angle_atom_site_label_2
_geom_angle_atom_site_label_3
_geom_angle
N11 Cl1 O11 121(3)
N11 Cl1 O12 64(2)
O11 Cl1 O12 172.1(10)
N11 Cl1 C1 23(2)
O11 Cl1 C1 99.7(10)
O12 Cl1 C1 86.2(3)
Cl1 N11 O12 91(2)
Cl1 N11 O11 36(2)
O12 N11 O11 127.2(11)
Cl1 N11 C1 148(3)
O12 N11 C1 118.7(12)
O11 N11 C1 113.9(12)
Cl1 O11 N11 22.9(10)
N11 O12 Cl1 24.5(6)
C6 C1 C2 122.2(3)
C6 C1 N11 122.2(8)
C2 C1 N11 115.6(8)
C6 C1 Cl1 114.0(3)
C2 C1 Cl1 123.8(3)
N11 C1 Cl1 8.7(9)
C3 C2 C1 118.5(2)
C3 C2 H2A 120.7
C1 C2 H2A 120.7
C2 C3 C4 121.6(3)
C2 C3 H3A 119.2
C4 C3 H3A 119.2
C3 C4 C5 117.5(2)
C3 C4 C7 123.0(3)
C5 C4 C7 119.5(2)
C6 C5 C4 122.2(2)
C6 C5 H5A 118.9
C4 C5 H5A 118.9
C5 C6 C1 118.0(2)
C5 C6 H6A 121.0
C1 C6 H6A 121.0
C17 C7 C4 126.8(3)
C17 C7 H7A 116.6
C4 C7 H7A 116.6
N1 Cl11 O1 121(3)
N1 Cl11 O2 64(2)
O1 Cl11 O2 172.1(10)
N1 Cl11 C11 23(2)
O1 Cl11 C11 99.7(10)
O2 Cl11 C11 86.2(3)
Cl11 N1 O2 91(2)
Cl11 N1 O1 36(2)
O2 N1 O1 127.2(11)
Cl11 N1 C11 148(3)
O2 N1 C11 118.7(12)
O1 N1 C11 113.9(12)
Cl11 O1 N1 22.9(10)
N1 O2 Cl11 24.5(6)
C16 C11 C12 122.2(3)
C16 C11 N1 122.2(8)
C12 C11 N1 115.6(8)
C16 C11 Cl11 114.0(3)
C12 C11 Cl11 123.8(3)
N1 C11 Cl11 8.7(9)
C13 C12 C11 118.5(2)
C13 C12 H12A 120.7
C11 C12 H12A 120.7
C12 C13 C14 121.6(3)
C12 C13 H13A 119.2
C14 C13 H13A 119.2
C13 C14 C15 117.5(2)
C13 C14 C17 123.0(3)
C15 C14 C17 119.5(2)
C16 C15 C14 122.2(2)
C16 C15 H15A 118.9
C14 C15 H15A 118.9
C15 C16 C11 118.0(2)
C15 C16 H16A 121.0
C11 C16 H16A 121.0
C7 C17 C14 126.8(3)
C7 C17 H17A 116.6
C14 C17 H17A 116.6
loop_
_geom_bond_atom_site_label_1
_geom_bond_atom_site_label_2
_geom_bond_distance
Cl1 N11 0.543(13)
Cl1 O11 0.827(8)
Cl1 O12 1.308(8)
Cl1 C1 1.879(4)
N11 O12 1.178(18)
N11 O11 1.20(2)
N11 C1 1.395(11)
C1 C6 1.370(3)
C1 C2 1.378(3)
C2 C3 1.370(3)
C2 H2A 0.9300
C3 C4 1.388(3)
C3 H3A 0.9300
C4 C5 1.391(3)
C4 C7 1.465(3)
C5 C6 1.371(3)
C5 H5A 0.9300
C6 H6A 0.9300
C7 C17 1.309(4)
C7 H7A 0.9300
Cl11 N1 0.543(13)
Cl11 O1 0.827(8)
Cl11 O2 1.308(8)
Cl11 C11 1.879(4)
N1 O2 1.178(18)
N1 O1 1.20(2)
N1 C11 1.395(11)
C11 C16 1.370(3)
C11 C12 1.378(3)
C12 C13 1.370(3)
C12 H12A 0.9300
C13 C14 1.388(3)
C13 H13A 0.9300
C14 C15 1.391(3)
C14 C17 1.465(3)
C15 C16 1.371(3)
C15 H15A 0.9300
C16 H16A 0.9300
C17 H17A 0.9300
loop_
_geom_torsion_atom_site_label_1
_geom_torsion_atom_site_label_2
_geom_torsion_atom_site_label_3
_geom_torsion_atom_site_label_4
_geom_torsion
O11 Cl1 N11 O12 173.1(16)
C1 Cl1 N11 O12 -162(6)
O12 Cl1 N11 O11 -173.1(16)
C1 Cl1 N11 O11 25(7)
O11 Cl1 N11 C1 -25(7)
O12 Cl1 N11 C1 162(6)
O12 Cl1 O11 N11 128(11)
C1 Cl1 O11 N11 -10(3)
O12 N11 O11 Cl1 -9(2)
C1 N11 O11 Cl1 166(4)
O11 N11 O12 Cl1 5.1(12)
C1 N11 O12 Cl1 -169(3)
O11 Cl1 O12 N11 -131(10)
C1 Cl1 O12 N11 7(2)
Cl1 N11 C1 C6 22(6)
O12 N11 C1 C6 -178.9(9)
O11 N11 C1 C6 5.8(17)
Cl1 N11 C1 C2 -162(5)
O12 N11 C1 C2 -2.1(15)
O11 N11 C1 C2 -177.3(10)
O12 N11 C1 Cl1 159(7)
O11 N11 C1 Cl1 -16(5)
N11 Cl1 C1 C6 -160(6)
O11 Cl1 C1 C6 -1.5(11)
O12 Cl1 C1 C6 -176.2(4)
N11 Cl1 C1 C2 20(6)
O11 Cl1 C1 C2 178.6(9)
O12 Cl1 C1 C2 4.0(6)
O11 Cl1 C1 N11 159(6)
O12 Cl1 C1 N11 -16(5)
C6 C1 C2 C3 -0.7(4)
N11 C1 C2 C3 -177.5(7)
Cl1 C1 C2 C3 179.2(3)
C1 C2 C3 C4 0.5(4)
C2 C3 C4 C5 -0.7(3)
C2 C3 C4 C7 -179.9(2)
C3 C4 C5 C6 1.2(3)
C7 C4 C5 C6 -179.6(2)
C4 C5 C6 C1 -1.3(3)
C2 C1 C6 C5 1.1(4)
N11 C1 C6 C5 177.7(8)
Cl1 C1 C6 C5 -178.8(3)
C3 C4 C7 C17 -4.7(4)
C5 C4 C7 C17 176.1(3)
O1 Cl11 N1 O2 -173.1(16)
C11 Cl11 N1 O2 162(6)
O2 Cl11 N1 O1 173.1(16)
C11 Cl11 N1 O1 -25(7)
O1 Cl11 N1 C11 25(7)
O2 Cl11 N1 C11 -162(6)
O2 Cl11 O1 N1 -128(11)
C11 Cl11 O1 N1 10(3)
O2 N1 O1 Cl11 9(2)
C11 N1 O1 Cl11 -166(4)
O1 N1 O2 Cl11 -5.1(12)
C11 N1 O2 Cl11 169(3)
O1 Cl11 O2 N1 131(10)
C11 Cl11 O2 N1 -7(2)
Cl11 N1 C11 C16 -22(6)
O2 N1 C11 C16 178.9(9)
O1 N1 C11 C16 -5.8(17)
Cl11 N1 C11 C12 162(5)
O2 N1 C11 C12 2.1(15)
O1 N1 C11 C12 177.3(10)
O2 N1 C11 Cl11 -159(7)
O1 N1 C11 Cl11 16(5)
N1 Cl11 C11 C16 160(6)
O1 Cl11 C11 C16 1.5(11)
O2 Cl11 C11 C16 176.2(4)
N1 Cl11 C11 C12 -20(6)
O1 Cl11 C11 C12 -178.6(9)
O2 Cl11 C11 C12 -4.0(6)
O1 Cl11 C11 N1 -159(6)
O2 Cl11 C11 N1 16(5)
C16 C11 C12 C13 0.7(4)
N1 C11 C12 C13 177.5(7)
Cl11 C11 C12 C13 -179.2(3)
C11 C12 C13 C14 -0.5(4)
C12 C13 C14 C15 0.7(3)
C12 C13 C14 C17 179.9(2)
C13 C14 C15 C16 -1.2(3)
C17 C14 C15 C16 179.6(2)
C14 C15 C16 C11 1.3(3)
C12 C11 C16 C15 -1.1(4)
N1 C11 C16 C15 -177.7(8)
Cl11 C11 C16 C15 178.8(3)
C4 C7 C17 C14 180.0
C13 C14 C17 C7 4.7(4)
C15 C14 C17 C7 -176.1(3)
