#------------------------------------------------------------------------------
#$Date: 2019-11-28 16:11:22 +0200 (Thu, 28 Nov 2019) $
#$Revision: 244087 $
#$URL: file:///home/coder/svn-repositories/cod/cif/7/23/81/7238163.cif $
#------------------------------------------------------------------------------
#
# This file is available in the Crystallography Open Database (COD),
# http://www.crystallography.net/
#
# All data on this site have been placed in the public domain by the
# contributors.
#
data_7238163
loop_
_publ_author_name
'Behrnd, Norwid-Rasmus'
'Labat, Ga\"el'
'Venugopalan, Paloth'
'Hulliger, J\"urg'
'B\"urgi, Hans-Beat'
_publ_section_title
;
 Influence of the solvent of crystallization on the orientational disorder
 of (trans)-4-chloro-4&#x2032;-nitrostilbene
;
_journal_issue                   12
_journal_name_full               CrystEngComm
_journal_page_first              4101
_journal_paper_doi               10.1039/b926652f
_journal_volume                  12
_journal_year                    2010
_chemical_formula_moiety         'C14 H10 Cl N O2'
_chemical_formula_sum            'C14 H10 Cl N O2'
_chemical_formula_weight         259.68
_space_group_IT_number           4
_space_group_name_Hall           'P 2ybc'
_space_group_name_H-M_alt        'P 1 21 1 (a,b,c-1/4)'
_symmetry_cell_setting           monoclinic
_symmetry_space_group_name_Hall  'P 2ybc'
_symmetry_space_group_name_H-M   'P 1 21 1 (a,b,c-1/4)'
_atom_sites_solution_hydrogens   geom
_atom_sites_solution_primary     direct
_atom_sites_solution_secondary   difmap
_audit_creation_method           SHELXL-97
_cell_angle_alpha                90.00
_cell_angle_beta                 93.153(3)
_cell_angle_gamma                90.00
_cell_formula_units_Z            2
_cell_length_a                   3.9200(3)
_cell_length_b                   12.9790(10)
_cell_length_c                   12.2368(9)
_cell_measurement_reflns_used    3492
_cell_measurement_temperature    293(2)
_cell_measurement_theta_max      25.132
_cell_measurement_theta_min      3.139
_cell_volume                     621.64(8)
_computing_cell_refinement       'SAINT (Bruker, 2003)'
_computing_data_collection       'SMART (Bruker, 1997)'
_computing_data_reduction        'SHELXTL (Bruker, 2000)'
_computing_molecular_graphics    'PLATON (Spek, 2003)'
_computing_publication_material  SHELXL-97
_computing_structure_refinement  'SHELXL-97 (Sheldrick, 1997)'
_computing_structure_solution    'SHELXS-97 (Sheldrick, 1990)'
_diffrn_ambient_temperature      293(2)
_diffrn_measured_fraction_theta_full 0.910
_diffrn_measured_fraction_theta_max 0.910
_diffrn_measurement_device_type  'Bruker SMART 1K'
_diffrn_measurement_method       'omega scan method'
_diffrn_radiation_monochromator  graphite
_diffrn_radiation_source         'fine-focus sealed tube'
_diffrn_radiation_type           MoK\a
_diffrn_radiation_wavelength     0.71073
_diffrn_reflns_av_R_equivalents  0.0162
_diffrn_reflns_av_sigmaI/netI    0.0493
_diffrn_reflns_limit_h_max       4
_diffrn_reflns_limit_h_min       -5
_diffrn_reflns_limit_k_max       16
_diffrn_reflns_limit_k_min       -16
_diffrn_reflns_limit_l_max       12
_diffrn_reflns_limit_l_min       -15
_diffrn_reflns_number            3459
_diffrn_reflns_theta_full        27.78
_diffrn_reflns_theta_max         27.78
_diffrn_reflns_theta_min         2.29
_diffrn_standards_decay_%        0
_diffrn_standards_interval_time  0
_diffrn_standards_number         0
_exptl_absorpt_coefficient_mu    0.299
_exptl_absorpt_correction_T_max  1
_exptl_absorpt_correction_T_min  0.475985
_exptl_absorpt_correction_type   multi-scan
_exptl_absorpt_process_details   'SADABS (Bruker, 2004)'
_exptl_crystal_colour            yellow
_exptl_crystal_density_diffrn    1.387
_exptl_crystal_density_method    'not measured'
_exptl_crystal_description       'prismatic rod'
_exptl_crystal_F_000             268
_exptl_crystal_size_max          0.18
_exptl_crystal_size_mid          0.12
_exptl_crystal_size_min          0.08
_refine_diff_density_max         0.139
_refine_diff_density_min         -0.100
_refine_diff_density_rms         0.031
_refine_ls_abs_structure_details 'Flack H D (1983), Acta Cryst. A39, 876-881'
_refine_ls_abs_structure_Flack   0.4(3)
_refine_ls_extinction_method     none
_refine_ls_goodness_of_fit_ref   0.918
_refine_ls_hydrogen_treatment    constr
_refine_ls_matrix_type           full
_refine_ls_number_parameters     101
_refine_ls_number_reflns         2463
_refine_ls_number_restraints     1
_refine_ls_restrained_S_all      0.918
_refine_ls_R_factor_all          0.1534
_refine_ls_R_factor_gt           0.0586
_refine_ls_shift/su_max          0.000
_refine_ls_shift/su_mean         0.000
_refine_ls_structure_factor_coef Fsqd
_refine_ls_weighting_details
'calc w=1/[\s^2^(Fo^2^)+(0.0344P)^2^+0.3558P] where P=(Fo^2^+2Fc^2^)/3'
_refine_ls_weighting_scheme      calc
_refine_ls_wR_factor_gt          0.1106
_refine_ls_wR_factor_ref         0.1467
_reflns_number_gt                1060
_reflns_number_total             2463
_reflns_threshold_expression     I>2sigma(I)
_cod_data_source_file            b926652f.txt
_cod_data_source_block           CNS-ClBzI-small-P21
_cod_original_sg_symbol_Hall     P2yb
_cod_original_sg_symbol_H-M      P21
_cod_database_code               7238163
loop_
_symmetry_equiv_pos_as_xyz
'x, y, z'
'-x, y+1/2, -z+1/2'
loop_
_atom_site_label
_atom_site_type_symbol
_atom_site_fract_x
_atom_site_fract_y
_atom_site_fract_z
_atom_site_U_iso_or_equiv
_atom_site_adp_type
_atom_site_occupancy
_atom_site_symmetry_multiplicity
_atom_site_calc_flag
_atom_site_refinement_flags
Cl1 Cl 0.3648(12) -0.4593(2) -0.1758(4) 0.1150(17) Uani 0.360(4) 1 d P
N11 N 0.380(3) -0.4174(7) -0.1710(10) 0.092(3) Uani 0.640(4) 1 d P
O11 O 0.308(2) -0.4980(4) -0.1248(5) 0.127(3) Uani 0.640(4) 1 d P
O12 O 0.5017(12) -0.4132(3) -0.2587(4) 0.1103(15) Uani 0.640(4) 1 d P
C1 C 0.2620(6) -0.3288(2) -0.1236(2) 0.0724(7) Uani 1 1 d .
C2 C 0.3163(6) -0.2386(2) -0.1792(2) 0.0796(7) Uani 1 1 d .
H2A H 0.4150 -0.2399 -0.2466 0.096 Uiso 1 1 calc R
C3 C 0.2236(6) -0.14724(19) -0.1343(2) 0.0775(7) Uani 1 1 d .
H3A H 0.2577 -0.0864 -0.1723 0.093 Uiso 1 1 calc R
C4 C 0.0785(5) -0.14304(19) -0.03262(19) 0.0654(6) Uani 1 1 d .
C5 C 0.0289(6) -0.23572(18) 0.0206(2) 0.0737(7) Uani 1 1 d .
H5A H -0.0691 -0.2347 0.0881 0.088 Uiso 1 1 calc R
C6 C 0.1195(6) -0.32956(18) -0.0228(2) 0.0774(8) Uani 1 1 d .
H6A H 0.0859 -0.3909 0.0145 0.093 Uiso 1 1 calc R
C7 C -0.0240(6) -0.04633(15) 0.0182(2) 0.0743(7) Uani 1 1 d .
H7A H -0.1347 -0.0519 0.0833 0.089 Uiso 1 1 calc R
Cl11 Cl -0.3648(12) 0.4593(2) 0.1758(4) 0.1150(17) Uani 0.640(4) 1 d P
N1 N -0.380(3) 0.4174(7) 0.1710(10) 0.092(3) Uani 0.360(4) 1 d P
O1 O -0.308(2) 0.4980(4) 0.1248(5) 0.127(3) Uani 0.360(4) 1 d P
O2 O -0.5017(12) 0.4132(3) 0.2587(4) 0.1103(15) Uani 0.360(4) 1 d P
C11 C -0.2620(6) 0.3288(2) 0.1236(2) 0.0724(7) Uani 1 1 d .
C12 C -0.3163(6) 0.2386(2) 0.1792(2) 0.0796(7) Uani 1 1 d .
H12A H -0.4150 0.2399 0.2466 0.096 Uiso 1 1 calc R
C13 C -0.2236(6) 0.14724(19) 0.1343(2) 0.0775(7) Uani 1 1 d .
H13A H -0.2577 0.0864 0.1723 0.093 Uiso 1 1 calc R
C14 C -0.0785(5) 0.14304(19) 0.03262(19) 0.0654(6) Uani 1 1 d .
C15 C -0.0289(6) 0.23572(18) -0.0206(2) 0.0737(7) Uani 1 1 d .
H15A H 0.0691 0.2347 -0.0881 0.088 Uiso 1 1 calc R
C16 C -0.1195(6) 0.32956(18) 0.0228(2) 0.0774(8) Uani 1 1 d .
H16A H -0.0859 0.3909 -0.0145 0.093 Uiso 1 1 calc R
C17 C 0.0240(6) 0.04633(15) -0.0182(2) 0.0743(7) Uani 1 1 d .
H17A H 0.1347 0.0519 -0.0833 0.089 Uiso 1 1 calc R
loop_
_atom_site_aniso_label
_atom_site_aniso_U_11
_atom_site_aniso_U_22
_atom_site_aniso_U_33
_atom_site_aniso_U_23
_atom_site_aniso_U_13
_atom_site_aniso_U_12
Cl1 0.111(2) 0.098(3) 0.137(3) -0.051(3) 0.0104(19) 0.011(3)
N11 0.095(5) 0.073(6) 0.106(7) -0.011(5) -0.009(4) -0.016(5)
O11 0.175(5) 0.066(3) 0.145(5) 0.008(3) 0.049(4) 0.011(3)
O12 0.150(4) 0.091(3) 0.093(3) -0.022(3) 0.041(3) 0.016(3)
C1 0.0618(16) 0.0795(18) 0.0752(18) -0.0156(15) -0.0014(13) 0.0046(14)
C2 0.0737(17) 0.103(2) 0.0632(17) -0.0022(16) 0.0111(13) -0.0015(16)
C3 0.0743(17) 0.0812(18) 0.0774(19) 0.0068(15) 0.0086(14) -0.0044(14)
C4 0.0533(14) 0.0779(16) 0.0648(17) -0.0046(14) 0.0020(12) -0.0007(12)
C5 0.0733(17) 0.0845(18) 0.0642(16) 0.0001(15) 0.0115(13) -0.0045(14)
C6 0.0800(18) 0.0756(18) 0.077(2) 0.0022(14) 0.0050(15) 0.0024(14)
C7 0.0690(15) 0.0791(17) 0.0751(17) 0.0059(15) 0.0067(13) -0.0025(15)
Cl11 0.111(2) 0.098(3) 0.137(3) -0.051(3) 0.0104(19) 0.011(3)
N1 0.095(5) 0.073(6) 0.106(7) -0.011(5) -0.009(4) -0.016(5)
O1 0.175(5) 0.066(3) 0.145(5) 0.008(3) 0.049(4) 0.011(3)
O2 0.150(4) 0.091(3) 0.093(3) -0.022(3) 0.041(3) 0.016(3)
C11 0.0618(16) 0.0795(18) 0.0752(18) -0.0156(15) -0.0014(13) 0.0046(14)
C12 0.0737(17) 0.103(2) 0.0632(17) -0.0022(16) 0.0111(13) -0.0015(16)
C13 0.0743(17) 0.0812(18) 0.0774(19) 0.0068(15) 0.0086(14) -0.0044(14)
C14 0.0533(14) 0.0779(16) 0.0648(17) -0.0046(14) 0.0020(12) -0.0007(12)
C15 0.0733(17) 0.0845(18) 0.0642(16) 0.0001(15) 0.0115(13) -0.0045(14)
C16 0.0800(18) 0.0756(18) 0.077(2) 0.0022(14) 0.0050(15) 0.0024(14)
C17 0.0690(15) 0.0791(17) 0.0751(17) 0.0059(15) 0.0067(13) -0.0025(15)
loop_
_atom_type_symbol
_atom_type_description
_atom_type_scat_dispersion_real
_atom_type_scat_dispersion_imag
_atom_type_scat_source
C C 0.0033 0.0016 'International Tables Vol C Tables 4.2.6.8 and 6.1.1.4'
H H 0.0000 0.0000 'International Tables Vol C Tables 4.2.6.8 and 6.1.1.4'
N N 0.0061 0.0033 'International Tables Vol C Tables 4.2.6.8 and 6.1.1.4'
O O 0.0106 0.0060 'International Tables Vol C Tables 4.2.6.8 and 6.1.1.4'
Cl Cl 0.1484 0.1585 'International Tables Vol C Tables 4.2.6.8 and 6.1.1.4'
loop_
_geom_angle_atom_site_label_1
_geom_angle_atom_site_label_2
_geom_angle_atom_site_label_3
_geom_angle
N11 Cl1 O11 123(2)
N11 Cl1 O12 65.5(16)
O11 Cl1 O12 168.2(7)
N11 Cl1 C1 24.3(15)
O11 Cl1 C1 102.5(6)
O12 Cl1 C1 87.4(3)
Cl1 N11 O11 35.0(14)
Cl1 N11 O12 89.8(16)
O11 N11 O12 124.3(8)
Cl1 N11 C1 146(2)
O11 N11 C1 115.1(9)
O12 N11 C1 119.8(9)
Cl1 O11 N11 22.1(6)
N11 O12 Cl1 24.7(4)
C2 C1 N11 115.9(6)
C2 C1 C6 121.9(2)
N11 C1 C6 122.1(6)
C2 C1 Cl1 124.2(3)
N11 C1 Cl1 9.4(6)
C6 C1 Cl1 113.9(3)
C3 C2 C1 119.2(2)
C3 C2 H2A 120.4
C1 C2 H2A 120.4
C2 C3 C4 121.5(2)
C2 C3 H3A 119.2
C4 C3 H3A 119.2
C5 C4 C3 117.3(2)
C5 C4 C7 119.6(2)
C3 C4 C7 123.1(2)
C4 C5 C6 122.6(2)
C4 C5 H5A 118.7
C6 C5 H5A 118.7
C1 C6 C5 117.5(2)
C1 C6 H6A 121.3
C5 C6 H6A 121.3
C17 C7 C4 126.7(3)
C17 C7 H7A 116.6
C4 C7 H7A 116.7
N1 Cl11 O1 123(2)
N1 Cl11 O2 65.5(16)
O1 Cl11 O2 168.2(7)
N1 Cl11 C11 24.3(15)
O1 Cl11 C11 102.5(6)
O2 Cl11 C11 87.4(3)
Cl11 N1 O1 35.0(14)
Cl11 N1 O2 89.8(16)
O1 N1 O2 124.3(8)
Cl11 N1 C11 146(2)
O1 N1 C11 115.1(9)
O2 N1 C11 119.8(9)
Cl11 O1 N1 22.1(6)
N1 O2 Cl11 24.7(4)
C12 C11 N1 115.9(6)
C12 C11 C16 121.9(2)
N1 C11 C16 122.1(6)
C12 C11 Cl11 124.2(3)
N1 C11 Cl11 9.4(6)
C16 C11 Cl11 113.9(3)
C13 C12 C11 119.2(2)
C13 C12 H12A 120.4
C11 C12 H12A 120.4
C12 C13 C14 121.5(2)
C12 C13 H13A 119.2
C14 C13 H13A 119.2
C15 C14 C13 117.3(2)
C15 C14 C17 119.6(2)
C13 C14 C17 123.1(2)
C14 C15 C16 122.6(2)
C14 C15 H15A 118.7
C16 C15 H15A 118.7
C11 C16 C15 117.5(2)
C11 C16 H16A 121.3
C15 C16 H16A 121.3
C7 C17 C14 126.7(3)
C7 C17 H17A 116.6
C14 C17 H17A 116.7
loop_
_geom_bond_atom_site_label_1
_geom_bond_atom_site_label_2
_geom_bond_distance
Cl1 N11 0.550(9)
Cl1 O11 0.840(6)
Cl1 O12 1.317(6)
Cl1 C1 1.862(3)
N11 O11 1.229(14)
N11 O12 1.198(12)
N11 C1 1.379(9)
C1 C2 1.377(3)
C1 C6 1.382(3)
C2 C3 1.364(3)
C2 H2A 0.9300
C3 C4 1.398(3)
C3 H3A 0.9300
C4 C5 1.386(3)
C4 C7 1.467(3)
C5 C6 1.383(3)
C5 H5A 0.9300
C6 H6A 0.9300
C7 C17 1.300(4)
C7 H7A 0.9300
Cl11 N1 0.550(9)
Cl11 O1 0.840(6)
Cl11 O2 1.317(6)
Cl11 C11 1.862(3)
N1 O1 1.229(14)
N1 O2 1.198(12)
N1 C11 1.379(9)
C11 C12 1.377(3)
C11 C16 1.382(3)
C12 C13 1.364(3)
C12 H12A 0.9300
C13 C14 1.398(3)
C13 H13A 0.9300
C14 C15 1.386(3)
C14 C17 1.467(3)
C15 C16 1.383(3)
C15 H15A 0.9300
C16 H16A 0.9300
C17 H17A 0.9300
loop_
_geom_torsion_atom_site_label_1
_geom_torsion_atom_site_label_2
_geom_torsion_atom_site_label_3
_geom_torsion_atom_site_label_4
_geom_torsion
O12 Cl1 N11 O11 -170.5(12)
C1 Cl1 N11 O11 37(5)
O11 Cl1 N11 O12 170.5(12)
C1 Cl1 N11 O12 -153(5)
O11 Cl1 N11 C1 -37(5)
O12 Cl1 N11 C1 153(5)
O12 Cl1 O11 N11 133(6)
C1 Cl1 O11 N11 -15(2)
O12 N11 O11 Cl1 -11.5(15)
C1 N11 O11 Cl1 159(3)
O11 N11 O12 Cl1 6.6(9)
C1 N11 O12 Cl1 -163(3)
O11 Cl1 O12 N11 -137(5)
C1 Cl1 O12 N11 10.8(19)
Cl1 N11 C1 C2 -153(4)
O11 N11 C1 C2 -175.0(9)
O12 N11 C1 C2 -4.4(14)
Cl1 N11 C1 C6 32(5)
O11 N11 C1 C6 9.4(15)
O12 N11 C1 C6 180.0(8)
O11 N11 C1 Cl1 -22(4)
O12 N11 C1 Cl1 148(5)
N11 Cl1 C1 C2 30(5)
O11 Cl1 C1 C2 179.0(7)
O12 Cl1 C1 C2 5.3(5)
O11 Cl1 C1 N11 149(5)
O12 Cl1 C1 N11 -24(4)
N11 Cl1 C1 C6 -151(4)
O11 Cl1 C1 C6 -1.8(8)
O12 Cl1 C1 C6 -175.4(3)
N11 C1 C2 C3 -176.4(7)
C6 C1 C2 C3 -0.8(4)
Cl1 C1 C2 C3 178.4(3)
C1 C2 C3 C4 0.8(4)
C2 C3 C4 C5 -0.7(4)
C2 C3 C4 C7 179.9(2)
C3 C4 C5 C6 0.6(3)
C7 C4 C5 C6 180.0(2)
C2 C1 C6 C5 0.6(4)
N11 C1 C6 C5 176.0(7)
Cl1 C1 C6 C5 -178.6(3)
C4 C5 C6 C1 -0.5(4)
C5 C4 C7 C17 175.7(3)
C3 C4 C7 C17 -4.9(5)
O2 Cl11 N1 O1 170.5(12)
C11 Cl11 N1 O1 -37(5)
O1 Cl11 N1 O2 -170.5(12)
C11 Cl11 N1 O2 153(5)
O1 Cl11 N1 C11 37(5)
O2 Cl11 N1 C11 -153(5)
O2 Cl11 O1 N1 -133(6)
C11 Cl11 O1 N1 15(2)
O2 N1 O1 Cl11 11.5(15)
C11 N1 O1 Cl11 -159(3)
O1 N1 O2 Cl11 -6.6(9)
C11 N1 O2 Cl11 163(3)
O1 Cl11 O2 N1 137(5)
C11 Cl11 O2 N1 -10.8(19)
Cl11 N1 C11 C12 153(4)
O1 N1 C11 C12 175.0(9)
O2 N1 C11 C12 4.4(14)
Cl11 N1 C11 C16 -32(5)
O1 N1 C11 C16 -9.4(15)
O2 N1 C11 C16 -180.0(8)
O1 N1 C11 Cl11 22(4)
O2 N1 C11 Cl11 -148(5)
N1 Cl11 C11 C12 -30(5)
O1 Cl11 C11 C12 -179.0(7)
O2 Cl11 C11 C12 -5.3(5)
O1 Cl11 C11 N1 -149(5)
O2 Cl11 C11 N1 24(4)
N1 Cl11 C11 C16 151(4)
O1 Cl11 C11 C16 1.8(8)
O2 Cl11 C11 C16 175.4(3)
N1 C11 C12 C13 176.4(7)
C16 C11 C12 C13 0.8(4)
Cl11 C11 C12 C13 -178.4(3)
C11 C12 C13 C14 -0.8(4)
C12 C13 C14 C15 0.7(4)
C12 C13 C14 C17 -179.9(2)
C13 C14 C15 C16 -0.6(3)
C17 C14 C15 C16 -180.0(2)
C12 C11 C16 C15 -0.6(4)
N1 C11 C16 C15 -176.0(7)
Cl11 C11 C16 C15 178.6(3)
C14 C15 C16 C11 0.5(4)
C4 C7 C17 C14 180.0
C15 C14 C17 C7 -175.7(3)
C13 C14 C17 C7 4.9(5)
