#------------------------------------------------------------------------------
#$Date: 2019-11-28 16:11:22 +0200 (Thu, 28 Nov 2019) $
#$Revision: 244087 $
#$URL: file:///home/coder/svn-repositories/cod/cif/7/23/81/7238172.cif $
#------------------------------------------------------------------------------
#
# This file is available in the Crystallography Open Database (COD),
# http://www.crystallography.net/
#
# All data on this site have been placed in the public domain by the
# contributors.
#
data_7238172
loop_
_publ_author_name
'Behrnd, Norwid-Rasmus'
'Labat, Ga\"el'
'Venugopalan, Paloth'
'Hulliger, J\"urg'
'B\"urgi, Hans-Beat'
_publ_section_title
;
 Influence of the solvent of crystallization on the orientational disorder
 of (trans)-4-chloro-4&#x2032;-nitrostilbene
;
_journal_issue                   12
_journal_name_full               CrystEngComm
_journal_page_first              4101
_journal_paper_doi               10.1039/b926652f
_journal_volume                  12
_journal_year                    2010
_chemical_formula_moiety         'C14 H10 Cl N O2'
_chemical_formula_sum            'C14 H10 Cl N O2'
_chemical_formula_weight         259.68
_space_group_IT_number           4
_space_group_name_Hall           'P 2ybc'
_space_group_name_H-M_alt        'P 1 21 1 (a,b,c-1/4)'
_symmetry_cell_setting           monoclinic
_symmetry_space_group_name_Hall  'P 2ybc'
_symmetry_space_group_name_H-M   'P 1 21 1 (a,b,c-1/4)'
_atom_sites_solution_hydrogens   geom
_atom_sites_solution_primary     direct
_atom_sites_solution_secondary   difmap
_audit_creation_method           SHELXL-97
_cell_angle_alpha                90.00
_cell_angle_beta                 93.175(3)
_cell_angle_gamma                90.00
_cell_formula_units_Z            2
_cell_length_a                   3.9236(3)
_cell_length_b                   12.9740(8)
_cell_length_c                   12.2406(7)
_cell_measurement_reflns_used    3480
_cell_measurement_temperature    293(2)
_cell_measurement_theta_max      22.987
_cell_measurement_theta_min      3.1405
_cell_volume                     622.15(7)
_computing_cell_refinement       'SAINT (Bruker, 2003)'
_computing_data_collection       'SMART (Bruker, 1997)'
_computing_data_reduction        'SHELXTL (Bruker, 2000)'
_computing_molecular_graphics    'PLATON (Spek, 2003)'
_computing_publication_material  SHELXL-97
_computing_structure_refinement  'SHELXL-97 (Sheldrick, 1997)'
_computing_structure_solution    'SHELXS-97 (Sheldrick, 1990)'
_diffrn_ambient_temperature      293(2)
_diffrn_measured_fraction_theta_full 0.863
_diffrn_measured_fraction_theta_max 0.863
_diffrn_measurement_device_type  'Bruker SMART 1K'
_diffrn_measurement_method       'omega scan method'
_diffrn_radiation_monochromator  graphite
_diffrn_radiation_source         'fine-focus sealed tube'
_diffrn_radiation_type           MoK\a
_diffrn_radiation_wavelength     0.71073
_diffrn_reflns_av_R_equivalents  0.0144
_diffrn_reflns_av_sigmaI/netI    0.0382
_diffrn_reflns_limit_h_max       4
_diffrn_reflns_limit_h_min       -4
_diffrn_reflns_limit_k_max       16
_diffrn_reflns_limit_k_min       -15
_diffrn_reflns_limit_l_max       12
_diffrn_reflns_limit_l_min       -15
_diffrn_reflns_number            3452
_diffrn_reflns_theta_full        27.82
_diffrn_reflns_theta_max         27.82
_diffrn_reflns_theta_min         2.29
_diffrn_standards_decay_%        0
_diffrn_standards_interval_time  0
_diffrn_standards_number         0
_exptl_absorpt_coefficient_mu    0.299
_exptl_absorpt_correction_T_max  1
_exptl_absorpt_correction_T_min  0.753678
_exptl_absorpt_correction_type   multi-scan
_exptl_absorpt_process_details   'SADABS (Bruker, 2004)'
_exptl_crystal_colour            yellow
_exptl_crystal_density_diffrn    1.386
_exptl_crystal_density_method    'not measured'
_exptl_crystal_description       'prismatic rod'
_exptl_crystal_F_000             268
_exptl_crystal_size_max          0.30
_exptl_crystal_size_mid          0.20
_exptl_crystal_size_min          0.10
_refine_diff_density_max         0.109
_refine_diff_density_min         -0.101
_refine_diff_density_rms         0.025
_refine_ls_abs_structure_details 'Flack H D (1983), Acta Cryst. A39, 876-881'
_refine_ls_abs_structure_Flack   10(10)
_refine_ls_extinction_method     none
_refine_ls_goodness_of_fit_ref   1.168
_refine_ls_hydrogen_treatment    constr
_refine_ls_matrix_type           full
_refine_ls_number_parameters     101
_refine_ls_number_reflns         2482
_refine_ls_number_restraints     1
_refine_ls_restrained_S_all      1.168
_refine_ls_R_factor_all          0.1271
_refine_ls_R_factor_gt           0.0601
_refine_ls_shift/su_max          0.000
_refine_ls_shift/su_mean         0.000
_refine_ls_structure_factor_coef Fsqd
_refine_ls_weighting_details
'calc w=1/[\s^2^(Fo^2^)+(0.0335P)^2^+0.1171P] where P=(Fo^2^+2Fc^2^)/3'
_refine_ls_weighting_scheme      calc
_refine_ls_wR_factor_gt          0.1277
_refine_ls_wR_factor_ref         0.1438
_reflns_number_gt                1215
_reflns_number_total             2482
_reflns_threshold_expression     I>2sigma(I)
_cod_data_source_file            b926652f.txt
_cod_data_source_block           CNS-TolI-small-P21_c
_cod_original_sg_symbol_Hall     P2ybc
_cod_original_sg_symbol_H-M      P21/c
_cod_database_code               7238172
loop_
_symmetry_equiv_pos_as_xyz
'x, y, z'
'-x, y+1/2, -z+1/2'
loop_
_atom_site_label
_atom_site_type_symbol
_atom_site_fract_x
_atom_site_fract_y
_atom_site_fract_z
_atom_site_U_iso_or_equiv
_atom_site_adp_type
_atom_site_occupancy
_atom_site_symmetry_multiplicity
_atom_site_calc_flag
_atom_site_refinement_flags
Cl1 Cl 0.3683(13) -0.46092(14) -0.1748(5) 0.1123(17) Uani 0.50 1 d P
N11 N 0.369(3) -0.4160(6) -0.1728(11) 0.082(2) Uani 0.50 1 d P
O11 O 0.310(2) -0.4971(5) -0.1233(5) 0.132(3) Uani 0.50 1 d P
O12 O 0.5000(10) -0.4128(3) -0.2573(3) 0.1125(13) Uani 0.50 1 d P
C1 C 0.2601(5) -0.32906(17) -0.12309(18) 0.0717(6) Uani 1 1 d .
C2 C 0.3153(5) -0.23917(19) -0.17883(16) 0.0819(6) Uani 1 1 d .
H2A H 0.4145 -0.2408 -0.2461 0.098 Uiso 1 1 calc R
C3 C 0.2228(5) -0.14756(16) -0.13438(17) 0.0749(6) Uani 1 1 d .
H3A H 0.2568 -0.0868 -0.1726 0.090 Uiso 1 1 calc R
C4 C 0.0780(5) -0.14318(15) -0.03270(16) 0.0654(5) Uani 1 1 d .
C5 C 0.0284(5) -0.23586(15) 0.02065(16) 0.0727(6) Uani 1 1 d .
H5A H -0.0698 -0.2348 0.0881 0.087 Uiso 1 1 calc R
C6 C 0.1189(5) -0.32937(15) -0.02243(17) 0.0767(6) Uani 1 1 d .
H6A H 0.0859 -0.3906 0.0151 0.092 Uiso 1 1 calc R
C7 C -0.0233(5) -0.04638(13) 0.01827(17) 0.0736(6) Uani 1 1 d .
H7A H -0.1324 -0.0519 0.0836 0.088 Uiso 1 1 calc R
Cl11 Cl -0.3683(13) 0.46092(14) 0.1748(5) 0.1123(17) Uani 0.50 1 d P
N1 N -0.369(3) 0.4160(6) 0.1728(11) 0.082(2) Uani 0.50 1 d P
O1 O -0.310(2) 0.4971(5) 0.1233(5) 0.132(3) Uani 0.50 1 d P
O2 O -0.5000(10) 0.4128(3) 0.2573(3) 0.1125(13) Uani 0.50 1 d P
C11 C -0.2601(5) 0.32906(17) 0.12309(18) 0.0717(6) Uani 1 1 d .
C12 C -0.3153(5) 0.23917(19) 0.17883(16) 0.0819(6) Uani 1 1 d .
H12A H -0.4145 0.2408 0.2461 0.098 Uiso 1 1 calc R
C13 C -0.2228(5) 0.14756(16) 0.13438(17) 0.0749(6) Uani 1 1 d .
H13A H -0.2568 0.0868 0.1726 0.090 Uiso 1 1 calc R
C14 C -0.0780(5) 0.14318(15) 0.03270(16) 0.0654(5) Uani 1 1 d .
C15 C -0.0284(5) 0.23586(15) -0.02065(16) 0.0727(6) Uani 1 1 d .
H15A H 0.0698 0.2348 -0.0881 0.087 Uiso 1 1 calc R
C16 C -0.1189(5) 0.32937(15) 0.02243(17) 0.0767(6) Uani 1 1 d .
H16A H -0.0859 0.3906 -0.0151 0.092 Uiso 1 1 calc R
C17 C 0.0233(5) 0.04638(13) -0.01827(17) 0.0736(6) Uani 1 1 d .
H17A H 0.1324 0.0519 -0.0836 0.088 Uiso 1 1 calc R
loop_
_atom_site_aniso_label
_atom_site_aniso_U_11
_atom_site_aniso_U_22
_atom_site_aniso_U_33
_atom_site_aniso_U_23
_atom_site_aniso_U_13
_atom_site_aniso_U_12
Cl1 0.1139(18) 0.092(4) 0.132(3) -0.046(3) 0.0085(19) 0.018(3)
N11 0.081(4) 0.066(5) 0.100(6) 0.005(5) -0.001(4) -0.003(5)
O11 0.174(5) 0.080(3) 0.147(5) 0.007(3) 0.047(4) 0.012(3)
O12 0.152(3) 0.094(2) 0.095(3) -0.028(2) 0.034(2) 0.018(2)
C1 0.0598(13) 0.0792(15) 0.0756(15) -0.0151(12) -0.0008(11) 0.0060(12)
C2 0.0710(14) 0.1083(17) 0.0670(14) -0.0037(13) 0.0099(11) -0.0002(13)
C3 0.0693(14) 0.0834(14) 0.0727(15) 0.0082(12) 0.0094(11) -0.0016(12)
C4 0.0521(11) 0.0776(13) 0.0660(14) -0.0062(11) 0.0001(10) -0.0018(10)
C5 0.0692(13) 0.0853(15) 0.0644(13) 0.0014(12) 0.0105(10) -0.0026(12)
C6 0.0739(14) 0.0773(15) 0.0790(16) 0.0019(12) 0.0051(12) 0.0041(12)
C7 0.0647(13) 0.0831(14) 0.0731(14) 0.0054(12) 0.0061(10) -0.0022(12)
Cl11 0.1139(18) 0.092(4) 0.132(3) -0.046(3) 0.0085(19) 0.018(3)
N1 0.081(4) 0.066(5) 0.100(6) 0.005(5) -0.001(4) -0.003(5)
O1 0.174(5) 0.080(3) 0.147(5) 0.007(3) 0.047(4) 0.012(3)
O2 0.152(3) 0.094(2) 0.095(3) -0.028(2) 0.034(2) 0.018(2)
C11 0.0598(13) 0.0792(15) 0.0756(15) -0.0151(12) -0.0008(11) 0.0060(12)
C12 0.0710(14) 0.1083(17) 0.0670(14) -0.0037(13) 0.0099(11) -0.0002(13)
C13 0.0693(14) 0.0834(14) 0.0727(15) 0.0082(12) 0.0094(11) -0.0016(12)
C14 0.0521(11) 0.0776(13) 0.0660(14) -0.0062(11) 0.0001(10) -0.0018(10)
C15 0.0692(13) 0.0853(15) 0.0644(13) 0.0014(12) 0.0105(10) -0.0026(12)
C16 0.0739(14) 0.0773(15) 0.0790(16) 0.0019(12) 0.0051(12) 0.0041(12)
C17 0.0647(13) 0.0831(14) 0.0731(14) 0.0054(12) 0.0061(10) -0.0022(12)
loop_
_atom_type_symbol
_atom_type_description
_atom_type_scat_dispersion_real
_atom_type_scat_dispersion_imag
_atom_type_scat_source
C C 0.0033 0.0016 'International Tables Vol C Tables 4.2.6.8 and 6.1.1.4'
H H 0.0000 0.0000 'International Tables Vol C Tables 4.2.6.8 and 6.1.1.4'
N N 0.0061 0.0033 'International Tables Vol C Tables 4.2.6.8 and 6.1.1.4'
O O 0.0106 0.0060 'International Tables Vol C Tables 4.2.6.8 and 6.1.1.4'
Cl Cl 0.1484 0.1585 'International Tables Vol C Tables 4.2.6.8 and 6.1.1.4'
loop_
_geom_angle_atom_site_label_1
_geom_angle_atom_site_label_2
_geom_angle_atom_site_label_3
_geom_angle
N11 Cl1 O11 122(2)
N11 Cl1 O12 63.7(17)
O11 Cl1 O12 171.3(8)
N11 Cl1 C1 22.9(16)
O11 Cl1 C1 100.6(8)
O12 Cl1 C1 86.1(2)
Cl1 N11 O12 90.1(17)
Cl1 N11 O11 34.2(15)
O12 N11 O11 124.0(7)
Cl1 N11 C1 148(2)
O12 N11 C1 121.7(9)
O11 N11 C1 114.3(9)
Cl1 O11 N11 23.3(7)
N11 O12 Cl1 26.3(3)
N11 C1 C2 114.8(6)
N11 C1 C6 123.3(6)
C2 C1 C6 121.9(2)
N11 C1 Cl1 9.6(7)
C2 C1 Cl1 124.1(2)
C6 C1 Cl1 114.0(3)
C3 C2 C1 119.2(2)
C3 C2 H2A 120.4
C1 C2 H2A 120.4
C2 C3 C4 121.4(2)
C2 C3 H3A 119.3
C4 C3 H3A 119.3
C5 C4 C3 117.3(2)
C5 C4 C7 119.56(18)
C3 C4 C7 123.1(2)
C6 C5 C4 122.5(2)
C6 C5 H5A 118.7
C4 C5 H5A 118.7
C5 C6 C1 117.7(2)
C5 C6 H6A 121.2
C1 C6 H6A 121.2
C17 C7 C4 126.8(3)
C17 C7 H7A 116.6
C4 C7 H7A 116.6
N1 Cl11 O1 122(2)
N1 Cl11 O2 63.7(17)
O1 Cl11 O2 171.3(8)
N1 Cl11 C11 22.9(16)
O1 Cl11 C11 100.6(8)
O2 Cl11 C11 86.1(2)
Cl11 N1 O2 90.1(17)
Cl11 N1 O1 34.2(15)
O2 N1 O1 124.0(7)
Cl11 N1 C11 148(2)
O2 N1 C11 121.7(9)
O1 N1 C11 114.3(9)
Cl11 O1 N1 23.3(7)
N1 O2 Cl11 26.3(3)
N1 C11 C12 114.8(6)
N1 C11 C16 123.3(6)
C12 C11 C16 121.9(2)
N1 C11 Cl11 9.6(7)
C12 C11 Cl11 124.1(2)
C16 C11 Cl11 114.0(3)
C13 C12 C11 119.2(2)
C13 C12 H12A 120.4
C11 C12 H12A 120.4
C12 C13 C14 121.4(2)
C12 C13 H13A 119.3
C14 C13 H13A 119.3
C15 C14 C13 117.3(2)
C15 C14 C17 119.56(18)
C13 C14 C17 123.1(2)
C16 C15 C14 122.5(2)
C16 C15 H15A 118.7
C14 C15 H15A 118.7
C15 C16 C11 117.7(2)
C15 C16 H16A 121.2
C11 C16 H16A 121.2
C7 C17 C14 126.8(3)
C7 C17 H17A 116.6
C14 C17 H17A 116.6
loop_
_geom_bond_atom_site_label_1
_geom_bond_atom_site_label_2
_geom_bond_distance
Cl1 N11 0.583(7)
Cl1 O11 0.828(5)
Cl1 O12 1.317(6)
Cl1 C1 1.881(3)
N11 O12 1.180(14)
N11 O11 1.243(15)
N11 C1 1.362(7)
C1 C2 1.374(3)
C1 C6 1.379(3)
C2 C3 1.365(3)
C2 H2A 0.9300
C3 C4 1.398(3)
C3 H3A 0.9300
C4 C5 1.387(2)
C4 C7 1.467(2)
C5 C6 1.377(2)
C5 H5A 0.9300
C6 H6A 0.9300
C7 C17 1.300(3)
C7 H7A 0.9300
Cl11 N1 0.583(7)
Cl11 O1 0.828(5)
Cl11 O2 1.317(6)
Cl11 C11 1.881(3)
N1 O2 1.180(14)
N1 O1 1.243(15)
N1 C11 1.362(7)
C11 C12 1.374(3)
C11 C16 1.379(3)
C12 C13 1.365(3)
C12 H12A 0.9300
C13 C14 1.398(3)
C13 H13A 0.9300
C14 C15 1.387(2)
C14 C17 1.467(2)
C15 C16 1.377(2)
C15 H15A 0.9300
C16 H16A 0.9300
C17 H17A 0.9300
loop_
_geom_torsion_atom_site_label_1
_geom_torsion_atom_site_label_2
_geom_torsion_atom_site_label_3
_geom_torsion_atom_site_label_4
_geom_torsion
O11 Cl1 N11 O12 173.0(11)
C1 Cl1 N11 O12 -169(4)
O12 Cl1 N11 O11 -173.0(11)
C1 Cl1 N11 O11 18(5)
O11 Cl1 N11 C1 -18(5)
O12 Cl1 N11 C1 169(4)
O12 Cl1 O11 N11 133(7)
C1 Cl1 O11 N11 -7.0(19)
O12 N11 O11 Cl1 -8.5(14)
C1 N11 O11 Cl1 169(3)
O11 N11 O12 Cl1 4.8(8)
C1 N11 O12 Cl1 -173(3)
O11 Cl1 O12 N11 -137(6)
C1 Cl1 O12 N11 4.3(16)
Cl1 N11 C1 C2 -167(4)
O12 N11 C1 C2 -0.2(13)
O11 N11 C1 C2 -178.2(9)
Cl1 N11 C1 C6 16(4)
O12 N11 C1 C6 -177.3(7)
O11 N11 C1 C6 4.6(14)
O12 N11 C1 Cl1 167(5)
O11 N11 C1 Cl1 -11(3)
O11 Cl1 C1 N11 165(4)
O12 Cl1 C1 N11 -10(4)
N11 Cl1 C1 C2 14(4)
O11 Cl1 C1 C2 178.7(7)
O12 Cl1 C1 C2 4.2(4)
N11 Cl1 C1 C6 -166(4)
O11 Cl1 C1 C6 -1.2(8)
O12 Cl1 C1 C6 -175.6(3)
N11 C1 C2 C3 -178.3(6)
C6 C1 C2 C3 -1.1(3)
Cl1 C1 C2 C3 179.1(3)
C1 C2 C3 C4 1.0(3)
C2 C3 C4 C5 -0.8(3)
C2 C3 C4 C7 179.7(2)
C3 C4 C5 C6 0.7(3)
C7 C4 C5 C6 -179.75(18)
C4 C5 C6 C1 -0.8(3)
N11 C1 C6 C5 178.0(6)
C2 C1 C6 C5 1.0(3)
Cl1 C1 C6 C5 -179.2(2)
C5 C4 C7 C17 175.9(3)
C3 C4 C7 C17 -4.5(4)
O1 Cl11 N1 O2 -173.0(11)
C11 Cl11 N1 O2 169(4)
O2 Cl11 N1 O1 173.0(11)
C11 Cl11 N1 O1 -18(5)
O1 Cl11 N1 C11 18(5)
O2 Cl11 N1 C11 -169(4)
O2 Cl11 O1 N1 -133(7)
C11 Cl11 O1 N1 7.0(19)
O2 N1 O1 Cl11 8.5(14)
C11 N1 O1 Cl11 -169(3)
O1 N1 O2 Cl11 -4.8(8)
C11 N1 O2 Cl11 173(3)
O1 Cl11 O2 N1 137(6)
C11 Cl11 O2 N1 -4.3(16)
Cl11 N1 C11 C12 167(4)
O2 N1 C11 C12 0.2(13)
O1 N1 C11 C12 178.2(9)
Cl11 N1 C11 C16 -16(4)
O2 N1 C11 C16 177.3(7)
O1 N1 C11 C16 -4.6(14)
O2 N1 C11 Cl11 -167(5)
O1 N1 C11 Cl11 11(3)
O1 Cl11 C11 N1 -165(4)
O2 Cl11 C11 N1 10(4)
N1 Cl11 C11 C12 -14(4)
O1 Cl11 C11 C12 -178.7(7)
O2 Cl11 C11 C12 -4.2(4)
N1 Cl11 C11 C16 166(4)
O1 Cl11 C11 C16 1.2(8)
O2 Cl11 C11 C16 175.6(3)
N1 C11 C12 C13 178.3(6)
C16 C11 C12 C13 1.1(3)
Cl11 C11 C12 C13 -179.1(3)
C11 C12 C13 C14 -1.0(3)
C12 C13 C14 C15 0.8(3)
C12 C13 C14 C17 -179.7(2)
C13 C14 C15 C16 -0.7(3)
C17 C14 C15 C16 179.75(18)
C14 C15 C16 C11 0.8(3)
N1 C11 C16 C15 -178.0(6)
C12 C11 C16 C15 -1.0(3)
Cl11 C11 C16 C15 179.2(2)
C4 C7 C17 C14 180.0
C15 C14 C17 C7 -175.9(3)
C13 C14 C17 C7 4.5(4)
