#------------------------------------------------------------------------------
#$Date: 2019-11-28 16:11:22 +0200 (Thu, 28 Nov 2019) $
#$Revision: 244087 $
#$URL: file:///home/coder/svn-repositories/cod/cif/7/23/81/7238192.cif $
#------------------------------------------------------------------------------
#
# This file is available in the Crystallography Open Database (COD),
# http://www.crystallography.net/
#
# All data on this site have been placed in the public domain by the
# contributors.
#
data_7238192
loop_
_publ_author_name
'Behrnd, Norwid-Rasmus'
'Labat, Ga\"el'
'Venugopalan, Paloth'
'Hulliger, J\"urg'
'B\"urgi, Hans-Beat'
_publ_section_title
;
 Influence of the solvent of crystallization on the orientational disorder
 of (trans)-4-chloro-4&#x2032;-nitrostilbene
;
_journal_issue                   12
_journal_name_full               CrystEngComm
_journal_page_first              4101
_journal_paper_doi               10.1039/b926652f
_journal_volume                  12
_journal_year                    2010
_chemical_formula_moiety         'C14 H10 Cl N O2'
_chemical_formula_sum            'C14 H10 Cl N O2'
_chemical_formula_weight         259.68
_space_group_IT_number           4
_space_group_name_Hall           'P 2ybc'
_space_group_name_H-M_alt        'P 1 21 1 (a,b,c-1/4)'
_symmetry_cell_setting           monoclinic
_symmetry_space_group_name_Hall  'P 2ybc'
_symmetry_space_group_name_H-M   'P 1 21 1 (a,b,c-1/4)'
_atom_sites_solution_hydrogens   geom
_atom_sites_solution_primary     direct
_atom_sites_solution_secondary   difmap
_audit_creation_method           SHELXL-97
_cell_angle_alpha                90.00
_cell_angle_beta                 93.138(2)
_cell_angle_gamma                90.00
_cell_formula_units_Z            2
_cell_length_a                   3.9208(2)
_cell_length_b                   12.9696(7)
_cell_length_c                   12.2508(7)
_cell_measurement_reflns_used    3460
_cell_measurement_temperature    293(2)
_cell_measurement_theta_max      23.005
_cell_measurement_theta_min      3.1415
_cell_volume                     622.03(6)
_computing_cell_refinement       'SAINT (Bruker, 2003)'
_computing_data_collection       'SMART (Bruker, 1997)'
_computing_data_reduction        'SHELXTL (Bruker, 2000)'
_computing_molecular_graphics    'PLATON (Spek, 2003)'
_computing_publication_material  SHELXL-97
_computing_structure_refinement  'SHELXL-97 (Sheldrick, 1997)'
_computing_structure_solution    'SHELXS-97 (Sheldrick, 1990)'
_diffrn_ambient_temperature      293(2)
_diffrn_measured_fraction_theta_full 0.915
_diffrn_measured_fraction_theta_max 0.915
_diffrn_measurement_device_type  'Bruker SMART 1K'
_diffrn_measurement_method       'omega scan method'
_diffrn_radiation_monochromator  graphite
_diffrn_radiation_source         'fine-focus sealed tube'
_diffrn_radiation_type           MoK\a
_diffrn_radiation_wavelength     0.71073
_diffrn_reflns_av_R_equivalents  0.0167
_diffrn_reflns_av_sigmaI/netI    0.0318
_diffrn_reflns_limit_h_max       3
_diffrn_reflns_limit_h_min       -5
_diffrn_reflns_limit_k_max       14
_diffrn_reflns_limit_k_min       -16
_diffrn_reflns_limit_l_max       15
_diffrn_reflns_limit_l_min       -16
_diffrn_reflns_number            3447
_diffrn_reflns_theta_full        27.75
_diffrn_reflns_theta_max         27.75
_diffrn_reflns_theta_min         2.29
_diffrn_standards_decay_%        0
_diffrn_standards_interval_time  0
_diffrn_standards_number         0
_exptl_absorpt_coefficient_mu    0.299
_exptl_absorpt_correction_T_max  1
_exptl_absorpt_correction_T_min  0.725572
_exptl_absorpt_correction_type   multi-scan
_exptl_absorpt_process_details   'SADABS (Bruker, 2004)'
_exptl_crystal_colour            yellow
_exptl_crystal_density_diffrn    1.386
_exptl_crystal_density_method    'not measured'
_exptl_crystal_description       'prismatic rod'
_exptl_crystal_F_000             268
_exptl_crystal_size_max          0.30
_exptl_crystal_size_mid          0.20
_exptl_crystal_size_min          0.10
_refine_diff_density_max         0.101
_refine_diff_density_min         -0.088
_refine_diff_density_rms         0.023
_refine_ls_abs_structure_details 'Flack H D (1983), Acta Cryst. A39, 876-881'
_refine_ls_abs_structure_Flack   0.3(4)
_refine_ls_extinction_method     none
_refine_ls_goodness_of_fit_ref   1.001
_refine_ls_hydrogen_treatment    constr
_refine_ls_matrix_type           full
_refine_ls_number_parameters     101
_refine_ls_number_reflns         2286
_refine_ls_number_restraints     1
_refine_ls_restrained_S_all      1.001
_refine_ls_R_factor_all          0.1068
_refine_ls_R_factor_gt           0.0446
_refine_ls_shift/su_max          0.001
_refine_ls_shift/su_mean         0.000
_refine_ls_structure_factor_coef Fsqd
_refine_ls_weighting_details
'calc w=1/[\s^2^(Fo^2^)+(0.0395P)^2^+0.0491P] where P=(Fo^2^+2Fc^2^)/3'
_refine_ls_weighting_scheme      calc
_refine_ls_wR_factor_gt          0.0955
_refine_ls_wR_factor_ref         0.1203
_reflns_number_gt                1159
_reflns_number_total             2286
_reflns_threshold_expression     I>2sigma(I)
_cod_data_source_file            b926652f.txt
_cod_data_source_block           CNS-DMFI-small-P21
_cod_original_sg_symbol_Hall     P2yb
_cod_original_sg_symbol_H-M      P21
_cod_database_code               7238192
loop_
_symmetry_equiv_pos_as_xyz
'x, y, z'
'-x, y+1/2, -z+1/2'
loop_
_atom_site_label
_atom_site_type_symbol
_atom_site_fract_x
_atom_site_fract_y
_atom_site_fract_z
_atom_site_U_iso_or_equiv
_atom_site_adp_type
_atom_site_occupancy
_atom_site_symmetry_multiplicity
_atom_site_calc_flag
_atom_site_refinement_flags
Cl1 Cl 0.3704(9) -0.46128(11) -0.1755(3) 0.1178(13) Uani 0.466(3) 1 d P
N11 N 0.365(2) -0.4161(4) -0.1725(6) 0.0791(13) Uani 0.534(3) 1 d P
O11 O 0.3125(15) -0.4971(4) -0.1235(4) 0.1364(19) Uani 0.534(3) 1 d P
O12 O 0.4982(7) -0.4126(2) -0.2582(2) 0.1150(10) Uani 0.534(3) 1 d P
C1 C 0.2609(3) -0.32956(13) -0.12300(13) 0.0742(4) Uani 1 1 d .
C2 C 0.3145(4) -0.23937(15) -0.17902(12) 0.0823(5) Uani 1 1 d .
H2A H 0.4123 -0.2409 -0.2465 0.099 Uiso 1 1 calc R
C3 C 0.2222(4) -0.14766(13) -0.13424(12) 0.0779(5) Uani 1 1 d .
H3A H 0.2565 -0.0868 -0.1723 0.093 Uiso 1 1 calc R
C4 C 0.0785(3) -0.14327(12) -0.03314(11) 0.0667(4) Uani 1 1 d .
C5 C 0.0279(3) -0.23613(12) 0.02036(12) 0.0745(4) Uani 1 1 d .
H5A H -0.0709 -0.2352 0.0877 0.089 Uiso 1 1 calc R
C6 C 0.1193(4) -0.32931(12) -0.02300(13) 0.0785(5) Uani 1 1 d .
H6A H 0.0859 -0.3905 0.0145 0.094 Uiso 1 1 calc R
C7 C -0.0237(4) -0.04648(10) 0.01803(13) 0.0744(4) Uani 1 1 d .
H7A H -0.1340 -0.0522 0.0831 0.089 Uiso 1 1 calc R
Cl11 Cl -0.3704(9) 0.46128(11) 0.1755(3) 0.1178(13) Uani 0.534(3) 1 d P
N1 N -0.365(2) 0.4161(4) 0.1725(6) 0.0791(13) Uani 0.466(3) 1 d P
O1 O -0.3125(15) 0.4971(4) 0.1235(4) 0.1364(19) Uani 0.466(3) 1 d P
O2 O -0.4982(7) 0.4126(2) 0.2582(2) 0.1150(10) Uani 0.466(3) 1 d P
C11 C -0.2609(3) 0.32956(13) 0.12300(13) 0.0742(4) Uani 1 1 d .
C12 C -0.3145(4) 0.23937(15) 0.17902(12) 0.0823(5) Uani 1 1 d .
H12A H -0.4123 0.2409 0.2465 0.099 Uiso 1 1 calc R
C13 C -0.2222(4) 0.14766(13) 0.13424(12) 0.0779(5) Uani 1 1 d .
H13A H -0.2565 0.0868 0.1723 0.093 Uiso 1 1 calc R
C14 C -0.0785(3) 0.14327(12) 0.03314(11) 0.0667(4) Uani 1 1 d .
C15 C -0.0279(3) 0.23613(12) -0.02036(12) 0.0745(4) Uani 1 1 d .
H15A H 0.0709 0.2352 -0.0877 0.089 Uiso 1 1 calc R
C16 C -0.1193(4) 0.32931(12) 0.02300(13) 0.0785(5) Uani 1 1 d .
H16A H -0.0859 0.3905 -0.0145 0.094 Uiso 1 1 calc R
C17 C 0.0237(4) 0.04648(10) -0.01803(13) 0.0744(4) Uani 1 1 d .
H17A H 0.1340 0.0522 -0.0831 0.089 Uiso 1 1 calc R
loop_
_atom_site_aniso_label
_atom_site_aniso_U_11
_atom_site_aniso_U_22
_atom_site_aniso_U_33
_atom_site_aniso_U_23
_atom_site_aniso_U_13
_atom_site_aniso_U_12
Cl1 0.1165(12) 0.091(2) 0.146(2) -0.050(2) 0.0052(13) 0.0224(18)
N11 0.079(2) 0.062(4) 0.096(4) -0.005(3) -0.002(2) 0.005(3)
O11 0.167(3) 0.081(3) 0.165(4) 0.009(2) 0.039(3) 0.010(2)
O12 0.154(3) 0.0916(19) 0.103(2) -0.0232(16) 0.0389(18) 0.0141(17)
C1 0.0589(9) 0.0855(12) 0.0778(11) -0.0135(9) -0.0004(8) 0.0054(8)
C2 0.0702(10) 0.1078(14) 0.0697(10) -0.0054(9) 0.0103(8) 0.0003(9)
C3 0.0712(10) 0.0861(11) 0.0767(11) 0.0080(9) 0.0077(8) -0.0028(8)
C4 0.0540(8) 0.0779(10) 0.0681(10) -0.0032(8) 0.0019(7) -0.0010(7)
C5 0.0709(9) 0.0838(11) 0.0695(10) 0.0012(9) 0.0101(7) -0.0007(8)
C6 0.0761(10) 0.0780(11) 0.0817(12) 0.0027(9) 0.0054(8) 0.0026(8)
C7 0.0639(9) 0.0852(11) 0.0744(10) 0.0052(8) 0.0057(7) -0.0038(9)
Cl11 0.1165(12) 0.091(2) 0.146(2) -0.050(2) 0.0052(13) 0.0224(18)
N1 0.079(2) 0.062(4) 0.096(4) -0.005(3) -0.002(2) 0.005(3)
O1 0.167(3) 0.081(3) 0.165(4) 0.009(2) 0.039(3) 0.010(2)
O2 0.154(3) 0.0916(19) 0.103(2) -0.0232(16) 0.0389(18) 0.0141(17)
C11 0.0589(9) 0.0855(12) 0.0778(11) -0.0135(9) -0.0004(8) 0.0054(8)
C12 0.0702(10) 0.1078(14) 0.0697(10) -0.0054(9) 0.0103(8) 0.0003(9)
C13 0.0712(10) 0.0861(11) 0.0767(11) 0.0080(9) 0.0077(8) -0.0028(8)
C14 0.0540(8) 0.0779(10) 0.0681(10) -0.0032(8) 0.0019(7) -0.0010(7)
C15 0.0709(9) 0.0838(11) 0.0695(10) 0.0012(9) 0.0101(7) -0.0007(8)
C16 0.0761(10) 0.0780(11) 0.0817(12) 0.0027(9) 0.0054(8) 0.0026(8)
C17 0.0639(9) 0.0852(11) 0.0744(10) 0.0052(8) 0.0057(7) -0.0038(9)
loop_
_atom_type_symbol
_atom_type_description
_atom_type_scat_dispersion_real
_atom_type_scat_dispersion_imag
_atom_type_scat_source
C C 0.0033 0.0016 'International Tables Vol C Tables 4.2.6.8 and 6.1.1.4'
H H 0.0000 0.0000 'International Tables Vol C Tables 4.2.6.8 and 6.1.1.4'
N N 0.0061 0.0033 'International Tables Vol C Tables 4.2.6.8 and 6.1.1.4'
O O 0.0106 0.0060 'International Tables Vol C Tables 4.2.6.8 and 6.1.1.4'
Cl Cl 0.1484 0.1585 'International Tables Vol C Tables 4.2.6.8 and 6.1.1.4'
loop_
_geom_angle_atom_site_label_1
_geom_angle_atom_site_label_2
_geom_angle_atom_site_label_3
_geom_angle
N11 Cl1 O11 119.8(15)
N11 Cl1 O12 65.6(11)
O11 Cl1 O12 172.3(6)
N11 Cl1 C1 20.6(10)
O11 Cl1 C1 99.7(6)
O12 Cl1 C1 86.06(16)
Cl1 N11 O12 87.9(10)
Cl1 N11 O11 35.8(10)
O12 N11 O11 123.4(5)
Cl1 N11 C1 150.6(15)
O12 N11 C1 121.2(6)
O11 N11 C1 115.4(6)
Cl1 O11 N11 24.4(5)
N11 O12 Cl1 26.5(2)
N11 C1 C6 123.4(4)
N11 C1 C2 115.1(4)
C6 C1 C2 121.51(15)
N11 C1 Cl1 8.8(5)
C6 C1 Cl1 114.71(19)
C2 C1 Cl1 123.78(17)
C3 C2 C1 119.20(14)
C3 C2 H2A 120.4
C1 C2 H2A 120.4
C2 C3 C4 121.50(16)
C2 C3 H3A 119.3
C4 C3 H3A 119.3
C5 C4 C3 117.39(15)
C5 C4 C7 119.32(13)
C3 C4 C7 123.29(15)
C6 C5 C4 122.15(14)
C6 C5 H5A 118.9
C4 C5 H5A 118.9
C1 C6 C5 118.26(15)
C1 C6 H6A 120.9
C5 C6 H6A 120.9
C17 C7 C4 126.85(19)
C17 C7 H7A 116.6
C4 C7 H7A 116.6
N1 Cl11 O1 119.8(15)
N1 Cl11 O2 65.6(11)
O1 Cl11 O2 172.3(6)
N1 Cl11 C11 20.6(10)
O1 Cl11 C11 99.7(6)
O2 Cl11 C11 86.06(16)
Cl11 N1 O2 87.9(10)
Cl11 N1 O1 35.8(10)
O2 N1 O1 123.4(5)
Cl11 N1 C11 150.6(15)
O2 N1 C11 121.2(6)
O1 N1 C11 115.4(6)
Cl11 O1 N1 24.4(5)
N1 O2 Cl11 26.5(2)
N1 C11 C16 123.4(4)
N1 C11 C12 115.1(4)
C16 C11 C12 121.51(15)
N1 C11 Cl11 8.8(5)
C16 C11 Cl11 114.71(19)
C12 C11 Cl11 123.78(17)
C13 C12 C11 119.20(14)
C13 C12 H12A 120.4
C11 C12 H12A 120.4
C12 C13 C14 121.50(16)
C12 C13 H13A 119.3
C14 C13 H13A 119.3
C15 C14 C13 117.39(15)
C15 C14 C17 119.32(13)
C13 C14 C17 123.29(15)
C16 C15 C14 122.15(14)
C16 C15 H15A 118.9
C14 C15 H15A 118.9
C11 C16 C15 118.26(15)
C11 C16 H16A 120.9
C15 C16 H16A 120.9
C7 C17 C14 126.85(19)
C7 C17 H17A 116.6
C14 C17 H17A 116.6
loop_
_geom_bond_atom_site_label_1
_geom_bond_atom_site_label_2
_geom_bond_distance
Cl1 N11 0.588(5)
Cl1 O11 0.830(4)
Cl1 O12 1.316(4)
Cl1 C1 1.883(2)
N11 O12 1.200(8)
N11 O11 1.232(11)
N11 C1 1.349(5)
C1 C6 1.373(2)
C1 C2 1.378(2)
C2 C3 1.367(2)
C2 H2A 0.9300
C3 C4 1.3896(19)
C3 H3A 0.9300
C4 C5 1.3905(18)
C4 C7 1.4688(19)
C5 C6 1.3754(18)
C5 H5A 0.9300
C6 H6A 0.9300
C7 C17 1.301(2)
C7 H7A 0.9300
Cl11 N1 0.588(5)
Cl11 O1 0.830(4)
Cl11 O2 1.316(4)
Cl11 C11 1.883(2)
N1 O2 1.200(8)
N1 O1 1.232(11)
N1 C11 1.349(5)
C11 C16 1.373(2)
C11 C12 1.378(2)
C12 C13 1.367(2)
C12 H12A 0.9300
C13 C14 1.3896(19)
C13 H13A 0.9300
C14 C15 1.3905(18)
C14 C17 1.4688(19)
C15 C16 1.3754(18)
C15 H15A 0.9300
C16 H16A 0.9300
C17 H17A 0.9300
loop_
_geom_torsion_atom_site_label_1
_geom_torsion_atom_site_label_2
_geom_torsion_atom_site_label_3
_geom_torsion_atom_site_label_4
_geom_torsion
O11 Cl1 N11 O12 173.9(8)
C1 Cl1 N11 O12 -172(3)
O12 Cl1 N11 O11 -173.9(8)
C1 Cl1 N11 O11 14(3)
O11 Cl1 N11 C1 -14(3)
O12 Cl1 N11 C1 172(3)
O12 Cl1 O11 N11 134(5)
C1 Cl1 O11 N11 -4.9(12)
O12 N11 O11 Cl1 -7.3(10)
C1 N11 O11 Cl1 172.6(19)
O11 N11 O12 Cl1 4.3(6)
C1 N11 O12 Cl1 -175.6(17)
O11 Cl1 O12 N11 -136(5)
C1 Cl1 O12 N11 2.7(10)
Cl1 N11 C1 C6 12(3)
O12 N11 C1 C6 -177.4(5)
O11 N11 C1 C6 2.7(9)
Cl1 N11 C1 C2 -170(3)
O12 N11 C1 C2 1.0(8)
O11 N11 C1 C2 -178.9(6)
O12 N11 C1 Cl1 171(3)
O11 N11 C1 Cl1 -9(2)
O11 Cl1 C1 N11 168(3)
O12 Cl1 C1 N11 -7(3)
N11 Cl1 C1 C6 -169(3)
O11 Cl1 C1 C6 -1.5(6)
O12 Cl1 C1 C6 -176.40(19)
N11 Cl1 C1 C2 11(3)
O11 Cl1 C1 C2 178.8(5)
O12 Cl1 C1 C2 3.9(3)
N11 C1 C2 C3 -178.9(4)
C6 C1 C2 C3 -0.5(2)
Cl1 C1 C2 C3 179.25(18)
C1 C2 C3 C4 0.6(2)
C2 C3 C4 C5 -0.8(2)
C2 C3 C4 C7 179.90(14)
C3 C4 C5 C6 0.9(2)
C7 C4 C5 C6 -179.75(13)
N11 C1 C6 C5 178.9(4)
C2 C1 C6 C5 0.6(2)
Cl1 C1 C6 C5 -179.17(17)
C4 C5 C6 C1 -0.8(2)
C5 C4 C7 C17 175.76(19)
C3 C4 C7 C17 -4.9(3)
O1 Cl11 N1 O2 -173.9(8)
C11 Cl11 N1 O2 172(3)
O2 Cl11 N1 O1 173.9(8)
C11 Cl11 N1 O1 -14(3)
O1 Cl11 N1 C11 14(3)
O2 Cl11 N1 C11 -172(3)
O2 Cl11 O1 N1 -134(5)
C11 Cl11 O1 N1 4.9(12)
O2 N1 O1 Cl11 7.3(10)
C11 N1 O1 Cl11 -172.6(19)
O1 N1 O2 Cl11 -4.3(6)
C11 N1 O2 Cl11 175.6(17)
O1 Cl11 O2 N1 136(5)
C11 Cl11 O2 N1 -2.7(10)
Cl11 N1 C11 C16 -12(3)
O2 N1 C11 C16 177.4(5)
O1 N1 C11 C16 -2.7(9)
Cl11 N1 C11 C12 170(3)
O2 N1 C11 C12 -1.0(8)
O1 N1 C11 C12 178.9(6)
O2 N1 C11 Cl11 -171(3)
O1 N1 C11 Cl11 9(2)
O1 Cl11 C11 N1 -168(3)
O2 Cl11 C11 N1 7(3)
N1 Cl11 C11 C16 169(3)
O1 Cl11 C11 C16 1.5(6)
O2 Cl11 C11 C16 176.40(19)
N1 Cl11 C11 C12 -11(3)
O1 Cl11 C11 C12 -178.8(5)
O2 Cl11 C11 C12 -3.9(3)
N1 C11 C12 C13 178.9(4)
C16 C11 C12 C13 0.5(2)
Cl11 C11 C12 C13 -179.25(18)
C11 C12 C13 C14 -0.6(2)
C12 C13 C14 C15 0.8(2)
C12 C13 C14 C17 -179.90(14)
C13 C14 C15 C16 -0.9(2)
C17 C14 C15 C16 179.75(13)
N1 C11 C16 C15 -178.9(4)
C12 C11 C16 C15 -0.6(2)
Cl11 C11 C16 C15 179.17(17)
C14 C15 C16 C11 0.8(2)
C4 C7 C17 C14 180.0
C15 C14 C17 C7 -175.76(19)
C13 C14 C17 C7 4.9(3)
