#------------------------------------------------------------------------------
#$Date: 2019-11-28 16:11:22 +0200 (Thu, 28 Nov 2019) $
#$Revision: 244087 $
#$URL: file:///home/coder/svn-repositories/cod/cif/7/23/82/7238203.cif $
#------------------------------------------------------------------------------
#
# This file is available in the Crystallography Open Database (COD),
# http://www.crystallography.net/
#
# All data on this site have been placed in the public domain by the
# contributors.
#
data_7238203
loop_
_publ_author_name
'Behrnd, Norwid-Rasmus'
'Labat, Ga\"el'
'Venugopalan, Paloth'
'Hulliger, J\"urg'
'B\"urgi, Hans-Beat'
_publ_section_title
;
 Influence of the solvent of crystallization on the orientational disorder
 of (trans)-4-chloro-4&#x2032;-nitrostilbene
;
_journal_issue                   12
_journal_name_full               CrystEngComm
_journal_page_first              4101
_journal_paper_doi               10.1039/b926652f
_journal_volume                  12
_journal_year                    2010
_chemical_formula_moiety         'C14 H10 Cl N O2'
_chemical_formula_sum            'C14 H10 Cl N O2'
_chemical_formula_weight         259.68
_space_group_IT_number           4
_space_group_name_Hall           'P 2ybc'
_space_group_name_H-M_alt        'P 1 21 1 (a,b,c-1/4)'
_symmetry_cell_setting           monoclinic
_symmetry_space_group_name_Hall  'P 2ybc'
_symmetry_space_group_name_H-M   'P 1 21 1 (a,b,c-1/4)'
_atom_sites_solution_hydrogens   geom
_atom_sites_solution_primary     direct
_atom_sites_solution_secondary   difmap
_audit_creation_method           SHELXL-97
_cell_angle_alpha                90.00
_cell_angle_beta                 93.236(3)
_cell_angle_gamma                90.00
_cell_formula_units_Z            2
_cell_length_a                   3.9239(3)
_cell_length_b                   12.9707(9)
_cell_length_c                   12.2375(8)
_cell_measurement_reflns_used    3493
_cell_measurement_temperature    293(2)
_cell_measurement_theta_max      22.9775
_cell_measurement_theta_min      3.141
_cell_volume                     621.84(8)
_computing_cell_refinement       'SAINT (Bruker, 2003)'
_computing_data_collection       'SMART (Bruker, 1997)'
_computing_data_reduction        'SHELXTL (Bruker, 2000)'
_computing_molecular_graphics    'PLATON (Spek, 2003)'
_computing_publication_material  SHELXL-97
_computing_structure_refinement  'SHELXL-97 (Sheldrick, 1997)'
_computing_structure_solution    'SHELXS-97 (Sheldrick, 1990)'
_diffrn_ambient_temperature      293(2)
_diffrn_measured_fraction_theta_full 0.921
_diffrn_measured_fraction_theta_max 0.921
_diffrn_measurement_device_type  'Bruker SMART 1K'
_diffrn_measurement_method       'omega scan method'
_diffrn_radiation_monochromator  graphite
_diffrn_radiation_source         'fine-focus sealed tube'
_diffrn_radiation_type           MoK\a
_diffrn_radiation_wavelength     0.71073
_diffrn_reflns_av_R_equivalents  0.0100
_diffrn_reflns_av_sigmaI/netI    0.0310
_diffrn_reflns_limit_h_max       5
_diffrn_reflns_limit_h_min       -4
_diffrn_reflns_limit_k_max       15
_diffrn_reflns_limit_k_min       -16
_diffrn_reflns_limit_l_max       12
_diffrn_reflns_limit_l_min       -15
_diffrn_reflns_number            3481
_diffrn_reflns_theta_full        27.79
_diffrn_reflns_theta_max         27.79
_diffrn_reflns_theta_min         2.29
_diffrn_standards_decay_%        0
_diffrn_standards_interval_time  0
_diffrn_standards_number         0
_exptl_absorpt_coefficient_mu    0.299
_exptl_absorpt_correction_T_max  1
_exptl_absorpt_correction_T_min  0.497814
_exptl_absorpt_correction_type   multi-scan
_exptl_absorpt_process_details   'SADABS (Bruker, 2004)'
_exptl_crystal_colour            yellow
_exptl_crystal_density_diffrn    1.387
_exptl_crystal_density_method    'not measured'
_exptl_crystal_description       'prismatic rod'
_exptl_crystal_F_000             268
_exptl_crystal_size_max          0.30
_exptl_crystal_size_mid          0.20
_exptl_crystal_size_min          0.10
_refine_diff_density_max         0.097
_refine_diff_density_min         -0.099
_refine_diff_density_rms         0.023
_refine_ls_abs_structure_details 'Flack H D (1983), Acta Cryst. A39, 876-881'
_refine_ls_abs_structure_Flack   0.5(2)
_refine_ls_extinction_method     none
_refine_ls_goodness_of_fit_ref   0.932
_refine_ls_hydrogen_treatment    constr
_refine_ls_matrix_type           full
_refine_ls_number_parameters     101
_refine_ls_number_reflns         2510
_refine_ls_number_restraints     1
_refine_ls_restrained_S_all      0.932
_refine_ls_R_factor_all          0.1110
_refine_ls_R_factor_gt           0.0499
_refine_ls_shift/su_max          0.000
_refine_ls_shift/su_mean         0.000
_refine_ls_structure_factor_coef Fsqd
_refine_ls_weighting_details
'calc w=1/[\s^2^(Fo^2^)+(0.0222P)^2^+0.2256P] where P=(Fo^2^+2Fc^2^)/3'
_refine_ls_weighting_scheme      calc
_refine_ls_wR_factor_gt          0.0887
_refine_ls_wR_factor_ref         0.1104
_reflns_number_gt                1326
_reflns_number_total             2510
_reflns_threshold_expression     I>2sigma(I)
_cod_data_source_file            b926652f.txt
_cod_data_source_block           CNS-MeOH-small-P21
_cod_original_sg_symbol_Hall     'P 2yb'
_cod_original_sg_symbol_H-M      P21
_cod_database_code               7238203
loop_
_symmetry_equiv_pos_as_xyz
'x, y, z'
'-x, y+1/2, -z+1/2'
loop_
_atom_site_label
_atom_site_type_symbol
_atom_site_fract_x
_atom_site_fract_y
_atom_site_fract_z
_atom_site_U_iso_or_equiv
_atom_site_adp_type
_atom_site_occupancy
_atom_site_symmetry_multiplicity
_atom_site_calc_flag
_atom_site_refinement_flags
Cl1 Cl 0.3672(8) -0.46022(13) -0.1750(3) 0.1122(12) Uani 0.388(2) 1 d P
N11 N 0.371(2) -0.4154(4) -0.1745(8) 0.0888(18) Uani 0.612(2) 1 d P
O11 O 0.3142(15) -0.4973(3) -0.1237(4) 0.1236(19) Uani 0.612(2) 1 d P
O12 O 0.5000(9) -0.4129(2) -0.2585(3) 0.1144(11) Uani 0.612(2) 1 d P
C1 C 0.2616(4) -0.32922(15) -0.12324(16) 0.0740(5) Uani 1 1 d .
C2 C 0.3154(4) -0.23904(16) -0.17935(15) 0.0814(5) Uani 1 1 d .
H2A H 0.4134 -0.2404 -0.2468 0.098 Uiso 1 1 calc R
C3 C 0.2223(4) -0.14768(14) -0.13430(15) 0.0775(5) Uani 1 1 d .
H3A H 0.2559 -0.0868 -0.1724 0.093 Uiso 1 1 calc R
C4 C 0.0784(4) -0.14298(13) -0.03282(13) 0.0665(5) Uani 1 1 d .
C5 C 0.0288(4) -0.23573(14) 0.02071(15) 0.0742(5) Uani 1 1 d .
H5A H -0.0688 -0.2348 0.0882 0.089 Uiso 1 1 calc R
C6 C 0.1192(4) -0.32915(14) -0.02283(15) 0.0784(5) Uani 1 1 d .
H6A H 0.0852 -0.3904 0.0145 0.094 Uiso 1 1 calc R
C7 C -0.0237(4) -0.04635(11) 0.01829(15) 0.0734(5) Uani 1 1 d .
H7A H -0.1335 -0.0520 0.0834 0.088 Uiso 1 1 calc R
Cl11 Cl -0.3672(8) 0.46022(13) 0.1750(3) 0.1122(12) Uani 0.612(2) 1 d P
N1 N -0.371(2) 0.4154(4) 0.1745(8) 0.0888(18) Uani 0.388(2) 1 d P
O1 O -0.3142(15) 0.4973(3) 0.1237(4) 0.1236(19) Uani 0.388(2) 1 d P
O2 O -0.5000(9) 0.4129(2) 0.2585(3) 0.1144(11) Uani 0.388(2) 1 d P
C11 C -0.2616(4) 0.32922(15) 0.12324(16) 0.0740(5) Uani 1 1 d .
C12 C -0.3154(4) 0.23904(16) 0.17935(15) 0.0814(5) Uani 1 1 d .
H12A H -0.4134 0.2404 0.2468 0.098 Uiso 1 1 calc R
C13 C -0.2223(4) 0.14768(14) 0.13430(15) 0.0775(5) Uani 1 1 d .
H13A H -0.2559 0.0868 0.1724 0.093 Uiso 1 1 calc R
C14 C -0.0784(4) 0.14298(13) 0.03282(13) 0.0665(5) Uani 1 1 d .
C15 C -0.0288(4) 0.23573(14) -0.02071(15) 0.0742(5) Uani 1 1 d .
H15A H 0.0688 0.2348 -0.0882 0.089 Uiso 1 1 calc R
C16 C -0.1192(4) 0.32915(14) 0.02283(15) 0.0784(5) Uani 1 1 d .
H16A H -0.0852 0.3904 -0.0145 0.094 Uiso 1 1 calc R
C17 C 0.0237(4) 0.04635(11) -0.01829(15) 0.0734(5) Uani 1 1 d .
H17A H 0.1335 0.0520 -0.0834 0.088 Uiso 1 1 calc R
loop_
_atom_site_aniso_label
_atom_site_aniso_U_11
_atom_site_aniso_U_22
_atom_site_aniso_U_33
_atom_site_aniso_U_23
_atom_site_aniso_U_13
_atom_site_aniso_U_12
Cl1 0.1150(14) 0.091(2) 0.131(2) -0.039(2) 0.0099(14) 0.0179(19)
N11 0.085(3) 0.063(4) 0.116(5) 0.008(4) -0.014(3) -0.005(4)
O11 0.165(4) 0.071(3) 0.138(4) 0.010(2) 0.039(3) 0.013(2)
O12 0.155(3) 0.093(2) 0.098(2) -0.0262(19) 0.038(2) 0.0151(19)
C1 0.0607(11) 0.0822(14) 0.0785(13) -0.0145(11) -0.0012(9) 0.0057(10)
C2 0.0708(12) 0.1065(15) 0.0676(12) -0.0035(11) 0.0111(10) -0.0007(11)
C3 0.0696(11) 0.0864(13) 0.0768(13) 0.0085(11) 0.0078(10) -0.0030(10)
C4 0.0535(9) 0.0791(12) 0.0668(12) -0.0047(9) 0.0025(8) 0.0012(8)
C5 0.0711(11) 0.0852(13) 0.0669(11) 0.0025(10) 0.0094(9) -0.0012(10)
C6 0.0755(12) 0.0781(13) 0.0817(14) 0.0031(10) 0.0052(10) 0.0014(10)
C7 0.0636(10) 0.0836(13) 0.0730(12) 0.0048(10) 0.0050(9) -0.0029(10)
Cl11 0.1150(14) 0.091(2) 0.131(2) -0.039(2) 0.0099(14) 0.0179(19)
N1 0.085(3) 0.063(4) 0.116(5) 0.008(4) -0.014(3) -0.005(4)
O1 0.165(4) 0.071(3) 0.138(4) 0.010(2) 0.039(3) 0.013(2)
O2 0.155(3) 0.093(2) 0.098(2) -0.0262(19) 0.038(2) 0.0151(19)
C11 0.0607(11) 0.0822(14) 0.0785(13) -0.0145(11) -0.0012(9) 0.0057(10)
C12 0.0708(12) 0.1065(15) 0.0676(12) -0.0035(11) 0.0111(10) -0.0007(11)
C13 0.0696(11) 0.0864(13) 0.0768(13) 0.0085(11) 0.0078(10) -0.0030(10)
C14 0.0535(9) 0.0791(12) 0.0668(12) -0.0047(9) 0.0025(8) 0.0012(8)
C15 0.0711(11) 0.0852(13) 0.0669(11) 0.0025(10) 0.0094(9) -0.0012(10)
C16 0.0755(12) 0.0781(13) 0.0817(14) 0.0031(10) 0.0052(10) 0.0014(10)
C17 0.0636(10) 0.0836(13) 0.0730(12) 0.0048(10) 0.0050(9) -0.0029(10)
loop_
_atom_type_symbol
_atom_type_description
_atom_type_scat_dispersion_real
_atom_type_scat_dispersion_imag
_atom_type_scat_source
C C 0.0033 0.0016 'International Tables Vol C Tables 4.2.6.8 and 6.1.1.4'
H H 0.0000 0.0000 'International Tables Vol C Tables 4.2.6.8 and 6.1.1.4'
N N 0.0061 0.0033 'International Tables Vol C Tables 4.2.6.8 and 6.1.1.4'
O O 0.0106 0.0060 'International Tables Vol C Tables 4.2.6.8 and 6.1.1.4'
Cl Cl 0.1484 0.1585 'International Tables Vol C Tables 4.2.6.8 and 6.1.1.4'
loop_
_geom_angle_atom_site_label_1
_geom_angle_atom_site_label_2
_geom_angle_atom_site_label_3
_geom_angle
N11 Cl1 O11 125.5(14)
N11 Cl1 O12 62.2(11)
O11 Cl1 O12 169.4(5)
N11 Cl1 C1 25.0(11)
O11 Cl1 C1 101.6(5)
O12 Cl1 C1 86.81(18)
Cl1 N11 O12 91.8(12)
Cl1 N11 O11 32.4(10)
O12 N11 O11 123.8(6)
Cl1 N11 C1 144.7(15)
O12 N11 C1 122.9(6)
O11 N11 C1 113.3(7)
Cl1 O11 N11 22.1(5)
N11 O12 Cl1 26.0(3)
N11 C1 C2 113.9(4)
N11 C1 C6 124.4(4)
C2 C1 C6 121.64(18)
N11 C1 Cl1 10.4(4)
C2 C1 Cl1 124.04(19)
C6 C1 Cl1 114.32(19)
C3 C2 C1 118.91(17)
C3 C2 H2A 120.5
C1 C2 H2A 120.5
C2 C3 C4 121.91(18)
C2 C3 H3A 119.0
C4 C3 H3A 119.0
C5 C4 C3 117.19(17)
C5 C4 C7 119.35(16)
C3 C4 C7 123.46(18)
C4 C5 C6 122.22(17)
C4 C5 H5A 118.9
C6 C5 H5A 118.9
C1 C6 C5 118.13(18)
C1 C6 H6A 120.9
C5 C6 H6A 120.9
C17 C7 C4 126.6(2)
C17 C7 H7A 116.7
C4 C7 H7A 116.7
N1 Cl11 O1 125.5(14)
N1 Cl11 O2 62.2(11)
O1 Cl11 O2 169.4(5)
N1 Cl11 C11 25.0(11)
O1 Cl11 C11 101.6(5)
O2 Cl11 C11 86.81(18)
Cl11 N1 O2 91.8(12)
Cl11 N1 O1 32.4(10)
O2 N1 O1 123.8(6)
Cl11 N1 C11 144.7(15)
O2 N1 C11 122.9(6)
O1 N1 C11 113.3(7)
Cl11 O1 N1 22.1(5)
N1 O2 Cl11 26.0(3)
N1 C11 C12 113.9(4)
N1 C11 C16 124.4(4)
C12 C11 C16 121.64(18)
N1 C11 Cl11 10.4(4)
C12 C11 Cl11 124.04(19)
C16 C11 Cl11 114.32(19)
C13 C12 C11 118.91(17)
C13 C12 H12A 120.5
C11 C12 H12A 120.5
C12 C13 C14 121.91(18)
C12 C13 H13A 119.0
C14 C13 H13A 119.0
C15 C14 C13 117.19(17)
C15 C14 C17 119.35(16)
C13 C14 C17 123.46(18)
C14 C15 C16 122.22(17)
C14 C15 H15A 118.9
C16 C15 H15A 118.9
C11 C16 C15 118.13(18)
C11 C16 H16A 120.9
C15 C16 H16A 120.9
C7 C17 C14 126.6(2)
C7 C17 H17A 116.7
C14 C17 H17A 116.7
loop_
_geom_bond_atom_site_label_1
_geom_bond_atom_site_label_2
_geom_bond_distance
Cl1 N11 0.581(6)
Cl1 O11 0.826(4)
Cl1 O12 1.324(4)
Cl1 C1 1.868(2)
N11 O12 1.171(9)
N11 O11 1.256(10)
N11 C1 1.364(6)
C1 C2 1.378(2)
C1 C6 1.378(2)
C2 C3 1.365(2)
C2 H2A 0.9300
C3 C4 1.394(2)
C3 H3A 0.9300
C4 C5 1.389(2)
C4 C7 1.467(2)
C5 C6 1.378(2)
C5 H5A 0.9300
C6 H6A 0.9300
C7 C17 1.300(3)
C7 H7A 0.9300
Cl11 N1 0.581(6)
Cl11 O1 0.826(4)
Cl11 O2 1.324(4)
Cl11 C11 1.868(2)
N1 O2 1.171(9)
N1 O1 1.256(10)
N1 C11 1.364(6)
C11 C12 1.378(2)
C11 C16 1.378(2)
C12 C13 1.365(2)
C12 H12A 0.9300
C13 C14 1.394(2)
C13 H13A 0.9300
C14 C15 1.389(2)
C14 C17 1.467(2)
C15 C16 1.378(2)
C15 H15A 0.9300
C16 H16A 0.9300
C17 H17A 0.9300
loop_
_geom_torsion_atom_site_label_1
_geom_torsion_atom_site_label_2
_geom_torsion_atom_site_label_3
_geom_torsion_atom_site_label_4
_geom_torsion
O11 Cl1 N11 O12 171.4(8)
C1 Cl1 N11 O12 -170(3)
O12 Cl1 N11 O11 -171.4(8)
C1 Cl1 N11 O11 19(3)
O11 Cl1 N11 C1 -19(3)
O12 Cl1 N11 C1 170(3)
O12 Cl1 O11 N11 134(4)
C1 Cl1 O11 N11 -7.9(14)
O12 N11 O11 Cl1 -10.4(10)
C1 N11 O11 Cl1 168(2)
O11 N11 O12 Cl1 5.5(6)
C1 N11 O12 Cl1 -173.1(19)
O11 Cl1 O12 N11 -138(4)
C1 Cl1 O12 N11 4.2(12)
Cl1 N11 C1 C2 -168(2)
O12 N11 C1 C2 0.2(10)
O11 N11 C1 C2 -178.6(6)
Cl1 N11 C1 C6 14(3)
O12 N11 C1 C6 -177.8(6)
O11 N11 C1 C6 3.4(10)
O12 N11 C1 Cl1 168(3)
O11 N11 C1 Cl1 -11(2)
O11 Cl1 C1 N11 165(3)
O12 Cl1 C1 N11 -9(3)
N11 Cl1 C1 C2 13(3)
O11 Cl1 C1 C2 178.0(5)
O12 Cl1 C1 C2 4.6(3)
N11 Cl1 C1 C6 -167(3)
O11 Cl1 C1 C6 -2.6(6)
O12 Cl1 C1 C6 -176.1(2)
N11 C1 C2 C3 -178.6(4)
C6 C1 C2 C3 -0.5(3)
Cl1 C1 C2 C3 178.81(19)
C1 C2 C3 C4 0.7(3)
C2 C3 C4 C5 -0.8(2)
C2 C3 C4 C7 179.82(16)
C3 C4 C5 C6 0.6(2)
C7 C4 C5 C6 -179.97(16)
N11 C1 C6 C5 178.2(5)
C2 C1 C6 C5 0.3(3)
Cl1 C1 C6 C5 -179.05(18)
C4 C5 C6 C1 -0.4(3)
C5 C4 C7 C17 175.8(2)
C3 C4 C7 C17 -4.9(3)
O1 Cl11 N1 O2 -171.4(8)
C11 Cl11 N1 O2 170(3)
O2 Cl11 N1 O1 171.4(8)
C11 Cl11 N1 O1 -19(3)
O1 Cl11 N1 C11 19(3)
O2 Cl11 N1 C11 -170(3)
O2 Cl11 O1 N1 -134(4)
C11 Cl11 O1 N1 7.9(14)
O2 N1 O1 Cl11 10.4(10)
C11 N1 O1 Cl11 -168(2)
O1 N1 O2 Cl11 -5.5(6)
C11 N1 O2 Cl11 173.1(19)
O1 Cl11 O2 N1 138(4)
C11 Cl11 O2 N1 -4.2(12)
Cl11 N1 C11 C12 168(2)
O2 N1 C11 C12 -0.2(10)
O1 N1 C11 C12 178.6(6)
Cl11 N1 C11 C16 -14(3)
O2 N1 C11 C16 177.8(6)
O1 N1 C11 C16 -3.4(10)
O2 N1 C11 Cl11 -168(3)
O1 N1 C11 Cl11 11(2)
O1 Cl11 C11 N1 -165(3)
O2 Cl11 C11 N1 9(3)
N1 Cl11 C11 C12 -13(3)
O1 Cl11 C11 C12 -178.0(5)
O2 Cl11 C11 C12 -4.6(3)
N1 Cl11 C11 C16 167(3)
O1 Cl11 C11 C16 2.6(6)
O2 Cl11 C11 C16 176.1(2)
N1 C11 C12 C13 178.6(4)
C16 C11 C12 C13 0.5(3)
Cl11 C11 C12 C13 -178.81(19)
C11 C12 C13 C14 -0.7(3)
C12 C13 C14 C15 0.8(2)
C12 C13 C14 C17 -179.82(16)
C13 C14 C15 C16 -0.6(2)
C17 C14 C15 C16 179.97(16)
N1 C11 C16 C15 -178.2(5)
C12 C11 C16 C15 -0.3(3)
Cl11 C11 C16 C15 179.05(18)
C14 C15 C16 C11 0.4(3)
C4 C7 C17 C14 180.0
C15 C14 C17 C7 -175.8(2)
C13 C14 C17 C7 4.9(3)
