#------------------------------------------------------------------------------
#$Date: 2019-11-28 16:11:22 +0200 (Thu, 28 Nov 2019) $
#$Revision: 244087 $
#$URL: file:///home/coder/svn-repositories/cod/cif/7/23/81/7238171.cif $
#------------------------------------------------------------------------------
#
# This file is available in the Crystallography Open Database (COD),
# http://www.crystallography.net/
#
# All data on this site have been placed in the public domain by the
# contributors.
#
data_7238171
loop_
_publ_author_name
'Behrnd, Norwid-Rasmus'
'Labat, Ga\"el'
'Venugopalan, Paloth'
'Hulliger, J\"urg'
'B\"urgi, Hans-Beat'
_publ_section_title
;
 Influence of the solvent of crystallization on the orientational disorder
 of (trans)-4-chloro-4&#x2032;-nitrostilbene
;
_journal_issue                   12
_journal_name_full               CrystEngComm
_journal_page_first              4101
_journal_paper_doi               10.1039/b926652f
_journal_volume                  12
_journal_year                    2010
_chemical_formula_moiety         'C14 H10 Cl N O2'
_chemical_formula_sum            'C14 H10 Cl N O2'
_chemical_formula_weight         259.68
_space_group_IT_number           4
_space_group_name_Hall           'P 2ybc'
_space_group_name_H-M_alt        'P 1 21 1 (a,b,c-1/4)'
_symmetry_cell_setting           monoclinic
_symmetry_space_group_name_Hall  'P 2ybc'
_symmetry_space_group_name_H-M   'P 1 21 1 (a,b,c-1/4)'
_atom_sites_solution_hydrogens   geom
_atom_sites_solution_primary     direct
_atom_sites_solution_secondary   difmap
_audit_creation_method           SHELXL-97
_cell_angle_alpha                90.00
_cell_angle_beta                 93.254(3)
_cell_angle_gamma                90.00
_cell_formula_units_Z            2
_cell_length_a                   3.9182(2)
_cell_length_b                   12.9555(8)
_cell_length_c                   12.2381(7)
_cell_measurement_reflns_used    3482
_cell_measurement_temperature    293(2)
_cell_measurement_theta_max      23.011
_cell_measurement_theta_min      3.145
_cell_volume                     620.23(6)
_computing_cell_refinement       'SAINT (Bruker, 2003)'
_computing_data_collection       'SMART (Bruker, 1997)'
_computing_data_reduction        'SHELXTL (Bruker, 2000)'
_computing_molecular_graphics    'PLATON (Spek, 2003)'
_computing_publication_material  SHELXL-97
_computing_structure_refinement  'SHELXL-97 (Sheldrick, 1997)'
_computing_structure_solution    'SHELXS-97 (Sheldrick, 1990)'
_diffrn_ambient_temperature      293(2)
_diffrn_measured_fraction_theta_full 0.900
_diffrn_measured_fraction_theta_max 0.900
_diffrn_measurement_device_type  'Bruker SMART 1K'
_diffrn_measurement_method       'omega scan method'
_diffrn_radiation_monochromator  graphite
_diffrn_radiation_source         'fine-focus sealed tube'
_diffrn_radiation_type           MoK\a
_diffrn_radiation_wavelength     0.71073
_diffrn_reflns_av_R_equivalents  0.0292
_diffrn_reflns_av_sigmaI/netI    0.0624
_diffrn_reflns_limit_h_max       5
_diffrn_reflns_limit_h_min       -4
_diffrn_reflns_limit_k_max       16
_diffrn_reflns_limit_k_min       -16
_diffrn_reflns_limit_l_max       7
_diffrn_reflns_limit_l_min       -15
_diffrn_reflns_number            3447
_diffrn_reflns_theta_full        27.84
_diffrn_reflns_theta_max         27.84
_diffrn_reflns_theta_min         2.29
_diffrn_standards_decay_%        0
_diffrn_standards_interval_time  0
_diffrn_standards_number         0
_exptl_absorpt_coefficient_mu    0.300
_exptl_absorpt_correction_T_max  1
_exptl_absorpt_correction_T_min  0.117740
_exptl_absorpt_correction_type   multi-scan
_exptl_absorpt_process_details   'SADABS (Bruker, 2004)'
_exptl_crystal_colour            yellow
_exptl_crystal_density_diffrn    1.390
_exptl_crystal_density_method    'not measured'
_exptl_crystal_description       'prismatic rod'
_exptl_crystal_F_000             268
_exptl_crystal_size_max          0.30
_exptl_crystal_size_mid          0.20
_exptl_crystal_size_min          0.10
_refine_diff_density_max         0.195
_refine_diff_density_min         -0.183
_refine_diff_density_rms         0.045
_refine_ls_abs_structure_details 'Flack H D (1983), Acta Cryst. A39, 876-881'
_refine_ls_abs_structure_Flack   0.2(3)
_refine_ls_extinction_method     none
_refine_ls_goodness_of_fit_ref   0.945
_refine_ls_hydrogen_treatment    constr
_refine_ls_matrix_type           full
_refine_ls_number_parameters     101
_refine_ls_number_reflns         2541
_refine_ls_number_restraints     1
_refine_ls_restrained_S_all      0.944
_refine_ls_R_factor_all          0.1446
_refine_ls_R_factor_gt           0.0685
_refine_ls_shift/su_max          0.000
_refine_ls_shift/su_mean         0.000
_refine_ls_structure_factor_coef Fsqd
_refine_ls_weighting_details
'calc w=1/[\s^2^(Fo^2^)+(0.0999P)^2^+0.1114P] where P=(Fo^2^+2Fc^2^)/3'
_refine_ls_weighting_scheme      calc
_refine_ls_wR_factor_gt          0.1777
_refine_ls_wR_factor_ref         0.2215
_reflns_number_gt                1202
_reflns_number_total             2541
_reflns_threshold_expression     I>2sigma(I)
_cod_data_source_file            b926652f.txt
_cod_data_source_block           CNS-ClTol-small-P21
_cod_original_sg_symbol_Hall     P2yb
_cod_original_sg_symbol_H-M      P21
_cod_database_code               7238171
loop_
_symmetry_equiv_pos_as_xyz
'x, y, z'
'-x, y+1/2, -z+1/2'
loop_
_atom_site_label
_atom_site_type_symbol
_atom_site_fract_x
_atom_site_fract_y
_atom_site_fract_z
_atom_site_U_iso_or_equiv
_atom_site_adp_type
_atom_site_occupancy
_atom_site_symmetry_multiplicity
_atom_site_calc_flag
_atom_site_refinement_flags
Cl1 Cl 0.3671(11) -0.46097(17) -0.1742(4) 0.1196(17) Uani 0.406(3) 1 d P
N11 N 0.371(3) -0.4164(6) -0.1741(9) 0.090(2) Uani 0.594(3) 1 d P
O11 O 0.308(2) -0.4979(5) -0.1237(5) 0.136(3) Uani 0.594(3) 1 d P
O12 O 0.4980(11) -0.4138(3) -0.2581(3) 0.1169(15) Uani 0.594(3) 1 d P
C1 C 0.2608(6) -0.32939(19) -0.1234(2) 0.0766(7) Uani 1 1 d .
C2 C 0.3160(5) -0.2387(2) -0.17945(18) 0.0824(7) Uani 1 1 d .
H2A H 0.4155 -0.2398 -0.2466 0.099 Uiso 1 1 calc R
C3 C 0.2215(6) -0.14782(18) -0.1341(2) 0.0797(7) Uani 1 1 d .
H3A H 0.2541 -0.0869 -0.1723 0.096 Uiso 1 1 calc R
C4 C 0.0783(5) -0.14265(17) -0.03286(17) 0.0679(6) Uani 1 1 d .
C5 C 0.0285(5) -0.23601(17) 0.02062(19) 0.0757(7) Uani 1 1 d .
H5A H -0.0696 -0.2352 0.0880 0.091 Uiso 1 1 calc R
C6 C 0.1196(6) -0.32906(18) -0.0229(2) 0.0813(7) Uani 1 1 d .
H6A H 0.0868 -0.3904 0.0146 0.098 Uiso 1 1 calc R
C7 C -0.0240(5) -0.04653(15) 0.01842(19) 0.0753(7) Uani 1 1 d .
H7A H -0.1339 -0.0522 0.0836 0.090 Uiso 1 1 calc R
Cl11 Cl -0.3671(11) 0.46097(17) 0.1742(4) 0.1196(17) Uani 0.594(3) 1 d P
N1 N -0.371(3) 0.4164(6) 0.1741(9) 0.090(2) Uani 0.406(3) 1 d P
O1 O -0.308(2) 0.4979(5) 0.1237(5) 0.136(3) Uani 0.406(3) 1 d P
O2 O -0.4980(11) 0.4138(3) 0.2581(3) 0.1169(15) Uani 0.406(3) 1 d P
C11 C -0.2608(6) 0.32939(19) 0.1234(2) 0.0766(7) Uani 1 1 d .
C12 C -0.3160(5) 0.2387(2) 0.17945(18) 0.0824(7) Uani 1 1 d .
H12A H -0.4155 0.2398 0.2466 0.099 Uiso 1 1 calc R
C13 C -0.2215(6) 0.14782(18) 0.1341(2) 0.0797(7) Uani 1 1 d .
H13A H -0.2541 0.0869 0.1723 0.096 Uiso 1 1 calc R
C14 C -0.0783(5) 0.14265(17) 0.03286(17) 0.0679(6) Uani 1 1 d .
C15 C -0.0285(5) 0.23601(17) -0.02062(19) 0.0757(7) Uani 1 1 d .
H15A H 0.0696 0.2352 -0.0880 0.091 Uiso 1 1 calc R
C16 C -0.1196(6) 0.32906(18) 0.0229(2) 0.0813(7) Uani 1 1 d .
H16A H -0.0868 0.3904 -0.0146 0.098 Uiso 1 1 calc R
C17 C 0.0240(5) 0.04653(15) -0.01842(19) 0.0753(7) Uani 1 1 d .
H17A H 0.1339 0.0522 -0.0836 0.090 Uiso 1 1 calc R
loop_
_atom_site_aniso_label
_atom_site_aniso_U_11
_atom_site_aniso_U_22
_atom_site_aniso_U_33
_atom_site_aniso_U_23
_atom_site_aniso_U_13
_atom_site_aniso_U_12
Cl1 0.1229(19) 0.095(3) 0.141(3) -0.047(3) 0.011(2) 0.018(2)
N11 0.098(4) 0.070(5) 0.100(6) 0.005(5) -0.011(4) -0.011(5)
O11 0.188(5) 0.077(3) 0.147(5) 0.011(3) 0.052(4) 0.012(3)
O12 0.166(4) 0.087(3) 0.101(3) -0.030(2) 0.036(3) 0.019(2)
C1 0.0699(15) 0.0801(17) 0.0797(16) -0.0159(13) 0.0033(12) 0.0034(12)
C2 0.0766(16) 0.100(2) 0.0722(16) -0.0042(13) 0.0161(12) -0.0003(13)
C3 0.0793(15) 0.0793(16) 0.0809(17) 0.0095(13) 0.0099(12) -0.0031(12)
C4 0.0609(12) 0.0770(15) 0.0658(14) -0.0056(11) 0.0045(10) 0.0004(10)
C5 0.0802(15) 0.0791(16) 0.0690(14) 0.0047(12) 0.0140(11) -0.0019(12)
C6 0.0862(16) 0.0734(16) 0.0845(18) 0.0012(13) 0.0072(13) 0.0046(12)
C7 0.0721(14) 0.0773(15) 0.0771(15) 0.0062(12) 0.0085(11) -0.0029(12)
Cl11 0.1229(19) 0.095(3) 0.141(3) -0.047(3) 0.011(2) 0.018(2)
N1 0.098(4) 0.070(5) 0.100(6) 0.005(5) -0.011(4) -0.011(5)
O1 0.188(5) 0.077(3) 0.147(5) 0.011(3) 0.052(4) 0.012(3)
O2 0.166(4) 0.087(3) 0.101(3) -0.030(2) 0.036(3) 0.019(2)
C11 0.0699(15) 0.0801(17) 0.0797(16) -0.0159(13) 0.0033(12) 0.0034(12)
C12 0.0766(16) 0.100(2) 0.0722(16) -0.0042(13) 0.0161(12) -0.0003(13)
C13 0.0793(15) 0.0793(16) 0.0809(17) 0.0095(13) 0.0099(12) -0.0031(12)
C14 0.0609(12) 0.0770(15) 0.0658(14) -0.0056(11) 0.0045(10) 0.0004(10)
C15 0.0802(15) 0.0791(16) 0.0690(14) 0.0047(12) 0.0140(11) -0.0019(12)
C16 0.0862(16) 0.0734(16) 0.0845(18) 0.0012(13) 0.0072(13) 0.0046(12)
C17 0.0721(14) 0.0773(15) 0.0771(15) 0.0062(12) 0.0085(11) -0.0029(12)
loop_
_atom_type_symbol
_atom_type_description
_atom_type_scat_dispersion_real
_atom_type_scat_dispersion_imag
_atom_type_scat_source
C C 0.0033 0.0016 'International Tables Vol C Tables 4.2.6.8 and 6.1.1.4'
H H 0.0000 0.0000 'International Tables Vol C Tables 4.2.6.8 and 6.1.1.4'
N N 0.0061 0.0033 'International Tables Vol C Tables 4.2.6.8 and 6.1.1.4'
O O 0.0106 0.0060 'International Tables Vol C Tables 4.2.6.8 and 6.1.1.4'
Cl Cl 0.1484 0.1585 'International Tables Vol C Tables 4.2.6.8 and 6.1.1.4'
loop_
_geom_angle_atom_site_label_1
_geom_angle_atom_site_label_2
_geom_angle_atom_site_label_3
_geom_angle
N11 Cl1 O11 126.0(19)
N11 Cl1 O12 61.8(15)
O11 Cl1 O12 170.7(7)
N11 Cl1 C1 25.1(14)
O11 Cl1 C1 101.7(7)
O12 Cl1 C1 86.6(2)
Cl1 N11 O11 32.1(13)
Cl1 N11 O12 92.3(15)
O11 N11 O12 124.3(7)
Cl1 N11 C1 144.6(19)
O11 N11 C1 113.2(9)
O12 N11 C1 122.4(8)
Cl1 O11 N11 21.9(7)
N11 O12 Cl1 25.8(4)
C2 C1 C6 121.5(2)
C2 C1 N11 114.4(5)
C6 C1 N11 124.1(5)
C2 C1 Cl1 124.5(2)
C6 C1 Cl1 114.1(2)
N11 C1 Cl1 10.3(6)
C1 C2 C3 118.6(2)
C1 C2 H2A 120.7
C3 C2 H2A 120.7
C2 C3 C4 122.5(2)
C2 C3 H3A 118.7
C4 C3 H3A 118.7
C5 C4 C3 116.8(2)
C5 C4 C7 119.3(2)
C3 C4 C7 123.9(2)
C6 C5 C4 122.2(2)
C6 C5 H5A 118.9
C4 C5 H5A 118.9
C1 C6 C5 118.4(2)
C1 C6 H6A 120.8
C5 C6 H6A 120.8
C17 C7 C4 126.2(3)
C17 C7 H7A 116.9
C4 C7 H7A 116.9
N1 Cl11 O1 126.0(19)
N1 Cl11 O2 61.8(15)
O1 Cl11 O2 170.7(7)
N1 Cl11 C11 25.1(14)
O1 Cl11 C11 101.7(7)
O2 Cl11 C11 86.6(2)
Cl11 N1 O1 32.1(13)
Cl11 N1 O2 92.3(15)
O1 N1 O2 124.3(7)
Cl11 N1 C11 144.6(19)
O1 N1 C11 113.2(9)
O2 N1 C11 122.4(8)
Cl11 O1 N1 21.9(7)
N1 O2 Cl11 25.8(4)
C12 C11 C16 121.5(2)
C12 C11 N1 114.4(5)
C16 C11 N1 124.1(5)
C12 C11 Cl11 124.5(2)
C16 C11 Cl11 114.1(2)
N1 C11 Cl11 10.3(6)
C11 C12 C13 118.6(2)
C11 C12 H12A 120.7
C13 C12 H12A 120.7
C12 C13 C14 122.5(2)
C12 C13 H13A 118.7
C14 C13 H13A 118.7
C15 C14 C13 116.8(2)
C15 C14 C17 119.3(2)
C13 C14 C17 123.9(2)
C16 C15 C14 122.2(2)
C16 C15 H15A 118.9
C14 C15 H15A 118.9
C11 C16 C15 118.4(2)
C11 C16 H16A 120.8
C15 C16 H16A 120.8
C7 C17 C14 126.2(3)
C7 C17 H17A 116.9
C14 C17 H17A 116.9
loop_
_geom_bond_atom_site_label_1
_geom_bond_atom_site_label_2
_geom_bond_distance
Cl1 N11 0.578(8)
Cl1 O11 0.825(5)
Cl1 O12 1.324(6)
Cl1 C1 1.869(3)
N11 O11 1.255(13)
N11 O12 1.168(12)
N11 C1 1.368(8)
C1 C2 1.384(3)
C1 C6 1.377(3)
C2 C3 1.361(3)
C2 H2A 0.9300
C3 C4 1.391(3)
C3 H3A 0.9300
C4 C5 1.394(3)
C4 C7 1.461(3)
C5 C6 1.373(3)
C5 H5A 0.9300
C6 H6A 0.9300
C7 C17 1.305(4)
C7 H7A 0.9300
Cl11 N1 0.578(8)
Cl11 O1 0.825(5)
Cl11 O2 1.324(6)
Cl11 C11 1.869(3)
N1 O1 1.255(13)
N1 O2 1.168(12)
N1 C11 1.368(8)
C11 C12 1.384(3)
C11 C16 1.377(3)
C12 C13 1.361(3)
C12 H12A 0.9300
C13 C14 1.391(3)
C13 H13A 0.9300
C14 C15 1.394(3)
C14 C17 1.461(3)
C15 C16 1.373(3)
C15 H15A 0.9300
C16 H16A 0.9300
C17 H17A 0.9300
loop_
_geom_torsion_atom_site_label_1
_geom_torsion_atom_site_label_2
_geom_torsion_atom_site_label_3
_geom_torsion_atom_site_label_4
_geom_torsion
O12 Cl1 N11 O11 -174.2(12)
C1 Cl1 N11 O11 16(4)
O11 Cl1 N11 O12 174.2(11)
C1 Cl1 N11 O12 -170(4)
O11 Cl1 N11 C1 -16(4)
O12 Cl1 N11 C1 170(4)
O12 Cl1 O11 N11 146(7)
C1 Cl1 O11 N11 -6.8(19)
O12 N11 O11 Cl1 -7.1(14)
C1 N11 O11 Cl1 170(3)
O11 N11 O12 Cl1 3.8(8)
C1 N11 O12 Cl1 -173(2)
O11 Cl1 O12 N11 -149(6)
C1 Cl1 O12 N11 4.3(15)
Cl1 N11 C1 C2 -169(3)
O11 N11 C1 C2 -177.7(8)
O12 N11 C1 C2 -0.6(12)
Cl1 N11 C1 C6 14(4)
O11 N11 C1 C6 5.0(13)
O12 N11 C1 C6 -177.8(7)
O11 N11 C1 Cl1 -9(3)
O12 N11 C1 Cl1 168(4)
N11 Cl1 C1 C2 13(3)
O11 Cl1 C1 C2 179.5(7)
O12 Cl1 C1 C2 3.7(4)
N11 Cl1 C1 C6 -167(3)
O11 Cl1 C1 C6 -0.3(8)
O12 Cl1 C1 C6 -176.1(3)
O11 Cl1 C1 N11 167(4)
O12 Cl1 C1 N11 -9(3)
C6 C1 C2 C3 -1.2(4)
N11 C1 C2 C3 -178.6(5)
Cl1 C1 C2 C3 178.9(3)
C1 C2 C3 C4 1.3(4)
C2 C3 C4 C5 -1.1(3)
C2 C3 C4 C7 179.6(2)
C3 C4 C5 C6 0.9(3)
C7 C4 C5 C6 -179.8(2)
C2 C1 C6 C5 1.0(4)
N11 C1 C6 C5 178.1(6)
Cl1 C1 C6 C5 -179.2(2)
C4 C5 C6 C1 -0.8(3)
C5 C4 C7 C17 175.8(3)
C3 C4 C7 C17 -5.0(4)
O2 Cl11 N1 O1 174.2(12)
C11 Cl11 N1 O1 -16(4)
O1 Cl11 N1 O2 -174.2(11)
C11 Cl11 N1 O2 170(4)
O1 Cl11 N1 C11 16(4)
O2 Cl11 N1 C11 -170(4)
O2 Cl11 O1 N1 -146(7)
C11 Cl11 O1 N1 6.8(19)
O2 N1 O1 Cl11 7.1(14)
C11 N1 O1 Cl11 -170(3)
O1 N1 O2 Cl11 -3.8(8)
C11 N1 O2 Cl11 173(2)
O1 Cl11 O2 N1 149(6)
C11 Cl11 O2 N1 -4.3(15)
Cl11 N1 C11 C12 169(3)
O1 N1 C11 C12 177.7(8)
O2 N1 C11 C12 0.6(12)
Cl11 N1 C11 C16 -14(4)
O1 N1 C11 C16 -5.0(13)
O2 N1 C11 C16 177.8(7)
O1 N1 C11 Cl11 9(3)
O2 N1 C11 Cl11 -168(4)
N1 Cl11 C11 C12 -13(3)
O1 Cl11 C11 C12 -179.5(7)
O2 Cl11 C11 C12 -3.7(4)
N1 Cl11 C11 C16 167(3)
O1 Cl11 C11 C16 0.3(8)
O2 Cl11 C11 C16 176.1(3)
O1 Cl11 C11 N1 -167(4)
O2 Cl11 C11 N1 9(3)
C16 C11 C12 C13 1.2(4)
N1 C11 C12 C13 178.6(5)
Cl11 C11 C12 C13 -178.9(3)
C11 C12 C13 C14 -1.3(4)
C12 C13 C14 C15 1.1(3)
C12 C13 C14 C17 -179.6(2)
C13 C14 C15 C16 -0.9(3)
C17 C14 C15 C16 179.8(2)
C12 C11 C16 C15 -1.0(4)
N1 C11 C16 C15 -178.1(6)
Cl11 C11 C16 C15 179.2(2)
C14 C15 C16 C11 0.8(3)
C4 C7 C17 C14 180.0
C15 C14 C17 C7 -175.8(3)
C13 C14 C17 C7 5.0(4)
