#------------------------------------------------------------------------------
#$Date: 2019-11-28 16:11:22 +0200 (Thu, 28 Nov 2019) $
#$Revision: 244087 $
#$URL: file:///home/coder/svn-repositories/cod/cif/7/23/81/7238198.cif $
#------------------------------------------------------------------------------
#
# This file is available in the Crystallography Open Database (COD),
# http://www.crystallography.net/
#
# All data on this site have been placed in the public domain by the
# contributors.
#
data_7238198
loop_
_publ_author_name
'Behrnd, Norwid-Rasmus'
'Labat, Ga\"el'
'Venugopalan, Paloth'
'Hulliger, J\"urg'
'B\"urgi, Hans-Beat'
_publ_section_title
;
 Influence of the solvent of crystallization on the orientational disorder
 of (trans)-4-chloro-4&#x2032;-nitrostilbene
;
_journal_issue                   12
_journal_name_full               CrystEngComm
_journal_page_first              4101
_journal_paper_doi               10.1039/b926652f
_journal_volume                  12
_journal_year                    2010
_chemical_formula_moiety         'C14 H10 Cl N O2'
_chemical_formula_sum            'C14 H10 Cl N O2'
_chemical_formula_weight         259.68
_space_group_IT_number           4
_space_group_name_Hall           'P 2ybc'
_space_group_name_H-M_alt        'P 1 21 1 (a,b,c-1/4)'
_symmetry_cell_setting           monoclinic
_symmetry_space_group_name_Hall  'P 2ybc'
_symmetry_space_group_name_H-M   'P 1 21 1 (a,b,c-1/4)'
_atom_sites_solution_hydrogens   geom
_atom_sites_solution_primary     direct
_atom_sites_solution_secondary   difmap
_audit_creation_method           SHELXL-97
_cell_angle_alpha                90.0000(10)
_cell_angle_beta                 93.1510(10)
_cell_angle_gamma                90.0000(10)
_cell_formula_units_Z            2
_cell_length_a                   3.91730(10)
_cell_length_b                   12.9563(3)
_cell_length_c                   12.2343(3)
_cell_measurement_reflns_used    6660
_cell_measurement_temperature    293(2)
_cell_measurement_theta_max      26.2435
_cell_measurement_theta_min      3.1445
_cell_volume                     620.00(3)
_computing_cell_refinement       'SAINT (Bruker, 2003)'
_computing_data_reduction        'SHELXTL (Bruker, 2000)'
_computing_molecular_graphics    'PLATON (Spek, 2003)'
_computing_publication_material  SHELXL-97
_computing_structure_refinement  'SHELXL-97 (Sheldrick, 1997)'
_computing_structure_solution    'SHELXS-97 (Sheldrick, 1990)'
_diffrn_ambient_temperature      293(2)
_diffrn_measured_fraction_theta_full 0.936
_diffrn_measured_fraction_theta_max 0.936
_diffrn_measurement_device_type  'Bruker SMART 1K'
_diffrn_measurement_method       'omega scan method'
_diffrn_radiation_monochromator  graphite
_diffrn_radiation_source         'fine-focus sealed tube'
_diffrn_radiation_type           MoK\a
_diffrn_radiation_wavelength     0.71073
_diffrn_reflns_av_R_equivalents  0.0178
_diffrn_reflns_av_sigmaI/netI    0.0163
_diffrn_reflns_limit_h_max       5
_diffrn_reflns_limit_h_min       -5
_diffrn_reflns_limit_k_max       16
_diffrn_reflns_limit_k_min       -16
_diffrn_reflns_limit_l_max       16
_diffrn_reflns_limit_l_min       -15
_diffrn_reflns_number            6625
_diffrn_reflns_theta_full        27.81
_diffrn_reflns_theta_max         27.81
_diffrn_reflns_theta_min         2.29
_diffrn_standards_decay_%        0
_diffrn_standards_interval_time  0
_diffrn_standards_number         0
_exptl_absorpt_coefficient_mu    0.300
_exptl_absorpt_correction_T_max  1
_exptl_absorpt_correction_T_min  0.901005
_exptl_absorpt_correction_type   multi-scan
_exptl_absorpt_process_details   'SADABS (Bruker, 2004)'
_exptl_crystal_colour            yellow
_exptl_crystal_density_diffrn    1.391
_exptl_crystal_density_method    'not measured'
_exptl_crystal_description       'prismatic rod'
_exptl_crystal_F_000             268
_exptl_crystal_size_max          0.30
_exptl_crystal_size_mid          0.20
_exptl_crystal_size_min          0.10
_refine_diff_density_max         0.097
_refine_diff_density_min         -0.143
_refine_diff_density_rms         0.037
_refine_ls_abs_structure_details 'Flack H D (1983), Acta Cryst. A39, 876-881'
_refine_ls_abs_structure_Flack   0.6(2)
_refine_ls_extinction_coef       0.017(3)
_refine_ls_extinction_expression Fc^*^=kFc[1+0.001xFc^2^\l^3^/sin(2\q)]^-1/4^
_refine_ls_extinction_method     SHELXL
_refine_ls_goodness_of_fit_ref   1.017
_refine_ls_hydrogen_treatment    constr
_refine_ls_matrix_type           full
_refine_ls_number_parameters     102
_refine_ls_number_reflns         2669
_refine_ls_number_restraints     1
_refine_ls_restrained_S_all      1.017
_refine_ls_R_factor_all          0.0607
_refine_ls_R_factor_gt           0.0431
_refine_ls_shift/su_max          0.000
_refine_ls_shift/su_mean         0.000
_refine_ls_structure_factor_coef Fsqd
_refine_ls_weighting_details
'calc w=1/[\s^2^(Fo^2^)+(0.0479P)^2^+0.0667P] where P=(Fo^2^+2Fc^2^)/3'
_refine_ls_weighting_scheme      calc
_refine_ls_wR_factor_gt          0.1082
_refine_ls_wR_factor_ref         0.1192
_reflns_number_gt                1932
_reflns_number_total             2669
_reflns_threshold_expression     I>2sigma(I)
_cod_data_source_file            b926652f.txt
_cod_data_source_block           CNS-DMSOII-small-P21
_cod_original_sg_symbol_H-M      P21/c
_cod_database_code               7238198
loop_
_symmetry_equiv_pos_as_xyz
'x, y, z'
'-x, y+1/2, -z+1/2'
loop_
_atom_site_label
_atom_site_type_symbol
_atom_site_fract_x
_atom_site_fract_y
_atom_site_fract_z
_atom_site_U_iso_or_equiv
_atom_site_adp_type
_atom_site_occupancy
_atom_site_symmetry_multiplicity
_atom_site_calc_flag
_atom_site_refinement_flags
Cl1 Cl 0.3708(5) -0.46091(7) -0.17576(17) 0.1134(6) Uani 0.4604(16) 1 d P
N11 N 0.3620(10) -0.4156(2) -0.1721(3) 0.0819(8) Uani 0.5396(16) 1 d P
O11 O 0.3163(9) -0.4973(2) -0.1232(2) 0.1298(11) Uani 0.5396(16) 1 d P
O12 O 0.4983(6) -0.41279(15) -0.25813(16) 0.1135(7) Uani 0.5396(16) 1 d P
C1 C 0.2614(3) -0.32956(9) -0.12304(9) 0.0745(3) Uani 1 1 d .
C2 C 0.3149(3) -0.23910(10) -0.17931(9) 0.0802(3) Uani 1 1 d .
H2A H 0.4123 -0.2406 -0.2469 0.096 Uiso 1 1 calc R
C3 C 0.2229(3) -0.14740(9) -0.13428(9) 0.0763(3) Uani 1 1 d .
H3A H 0.2578 -0.0864 -0.1721 0.092 Uiso 1 1 calc R
C4 C 0.0780(2) -0.14334(8) -0.03289(8) 0.0657(3) Uani 1 1 d .
C5 C 0.0281(2) -0.23613(8) 0.02066(8) 0.0725(3) Uani 1 1 d .
H5A H -0.0702 -0.2352 0.0881 0.087 Uiso 1 1 calc R
C6 C 0.1188(3) -0.32924(8) -0.02265(9) 0.0765(3) Uani 1 1 d .
H6A H 0.0849 -0.3905 0.0148 0.092 Uiso 1 1 calc R
C7 C -0.0242(2) -0.04664(7) 0.01841(9) 0.0715(3) Uani 1 1 d .
H7A H -0.1344 -0.0522 0.0836 0.086 Uiso 1 1 calc R
Cl11 Cl -0.3708(5) 0.46091(7) 0.17576(17) 0.1134(6) Uani 0.5396(16) 1 d P
N1 N -0.3620(10) 0.4156(2) 0.1721(3) 0.0819(8) Uani 0.4604(16) 1 d P
O1 O -0.3163(9) 0.4973(2) 0.1232(2) 0.1298(11) Uani 0.4604(16) 1 d P
O2 O -0.4983(6) 0.41279(15) 0.25813(16) 0.1135(7) Uani 0.4604(16) 1 d P
C11 C -0.2614(3) 0.32956(9) 0.12304(9) 0.0745(3) Uani 1 1 d .
C12 C -0.3149(3) 0.23910(10) 0.17931(9) 0.0802(3) Uani 1 1 d .
H12A H -0.4123 0.2406 0.2469 0.096 Uiso 1 1 calc R
C13 C -0.2229(3) 0.14740(9) 0.13428(9) 0.0763(3) Uani 1 1 d .
H13A H -0.2578 0.0864 0.1721 0.092 Uiso 1 1 calc R
C14 C -0.0780(2) 0.14334(8) 0.03289(8) 0.0657(3) Uani 1 1 d .
C15 C -0.0281(2) 0.23613(8) -0.02066(8) 0.0725(3) Uani 1 1 d .
H15A H 0.0702 0.2352 -0.0881 0.087 Uiso 1 1 calc R
C16 C -0.1188(3) 0.32924(8) 0.02265(9) 0.0765(3) Uani 1 1 d .
H16A H -0.0849 0.3905 -0.0148 0.092 Uiso 1 1 calc R
C17 C 0.0242(2) 0.04664(7) -0.01841(9) 0.0715(3) Uani 1 1 d .
H17A H 0.1344 0.0522 -0.0836 0.086 Uiso 1 1 calc R
loop_
_atom_site_aniso_label
_atom_site_aniso_U_11
_atom_site_aniso_U_22
_atom_site_aniso_U_33
_atom_site_aniso_U_23
_atom_site_aniso_U_13
_atom_site_aniso_U_12
Cl1 0.1122(7) 0.0943(12) 0.1333(11) -0.0464(12) 0.0035(7) 0.0250(9)
N11 0.0786(15) 0.069(2) 0.097(2) -0.0051(18) -0.0019(14) 0.0080(17)
O11 0.168(2) 0.0788(15) 0.146(2) 0.0100(14) 0.0400(18) 0.0141(14)
O12 0.1513(18) 0.0941(13) 0.0981(13) -0.0250(11) 0.0330(12) 0.0199(12)
C1 0.0583(6) 0.0889(8) 0.0759(7) -0.0144(6) -0.0011(5) 0.0056(5)
C2 0.0686(6) 0.1077(9) 0.0648(6) -0.0034(6) 0.0094(5) -0.0006(6)
C3 0.0694(6) 0.0861(7) 0.0737(7) 0.0077(5) 0.0072(5) -0.0040(5)
C4 0.0516(5) 0.0792(6) 0.0660(6) -0.0023(5) 0.0011(4) -0.0017(4)
C5 0.0675(6) 0.0852(7) 0.0654(6) 0.0020(5) 0.0089(5) 0.0000(5)
C6 0.0732(6) 0.0786(7) 0.0778(7) 0.0025(5) 0.0047(5) 0.0018(5)
C7 0.0609(6) 0.0833(7) 0.0708(6) 0.0031(5) 0.0068(5) -0.0027(5)
Cl11 0.1122(7) 0.0943(12) 0.1333(11) -0.0464(12) 0.0035(7) 0.0250(9)
N1 0.0786(15) 0.069(2) 0.097(2) -0.0051(18) -0.0019(14) 0.0080(17)
O1 0.168(2) 0.0788(15) 0.146(2) 0.0100(14) 0.0400(18) 0.0141(14)
O2 0.1513(18) 0.0941(13) 0.0981(13) -0.0250(11) 0.0330(12) 0.0199(12)
C11 0.0583(6) 0.0889(8) 0.0759(7) -0.0144(6) -0.0011(5) 0.0056(5)
C12 0.0686(6) 0.1077(9) 0.0648(6) -0.0034(6) 0.0094(5) -0.0006(6)
C13 0.0694(6) 0.0861(7) 0.0737(7) 0.0077(5) 0.0072(5) -0.0040(5)
C14 0.0516(5) 0.0792(6) 0.0660(6) -0.0023(5) 0.0011(4) -0.0017(4)
C15 0.0675(6) 0.0852(7) 0.0654(6) 0.0020(5) 0.0089(5) 0.0000(5)
C16 0.0732(6) 0.0786(7) 0.0778(7) 0.0025(5) 0.0047(5) 0.0018(5)
C17 0.0609(6) 0.0833(7) 0.0708(6) 0.0031(5) 0.0068(5) -0.0027(5)
loop_
_atom_type_symbol
_atom_type_description
_atom_type_scat_dispersion_real
_atom_type_scat_dispersion_imag
_atom_type_scat_source
C C 0.0033 0.0016 'International Tables Vol C Tables 4.2.6.8 and 6.1.1.4'
H H 0.0000 0.0000 'International Tables Vol C Tables 4.2.6.8 and 6.1.1.4'
N N 0.0061 0.0033 'International Tables Vol C Tables 4.2.6.8 and 6.1.1.4'
O O 0.0106 0.0060 'International Tables Vol C Tables 4.2.6.8 and 6.1.1.4'
Cl Cl 0.1484 0.1585 'International Tables Vol C Tables 4.2.6.8 and 6.1.1.4'
loop_
_geom_angle_atom_site_label_1
_geom_angle_atom_site_label_2
_geom_angle_atom_site_label_3
_geom_angle
N11 Cl1 O11 119.0(8)
N11 Cl1 O12 67.0(6)
O11 Cl1 O12 171.2(3)
N11 Cl1 C1 19.4(5)
O11 Cl1 C1 100.0(3)
O12 Cl1 C1 86.36(11)
Cl1 N11 O12 86.2(5)
Cl1 N11 O11 36.3(5)
O12 N11 O11 122.1(3)
Cl1 N11 C1 152.2(8)
O12 N11 C1 121.5(3)
O11 N11 C1 116.3(3)
Cl1 O11 N11 24.7(3)
N11 O12 Cl1 26.79(14)
N11 C1 C6 123.2(2)
N11 C1 C2 115.3(2)
C6 C1 C2 121.48(10)
N11 C1 Cl1 8.4(2)
C6 C1 Cl1 114.87(11)
C2 C1 Cl1 123.65(11)
C3 C2 C1 119.09(10)
C3 C2 H2A 120.5
C1 C2 H2A 120.5
C2 C3 C4 121.42(11)
C2 C3 H3A 119.3
C4 C3 H3A 119.3
C5 C4 C3 117.54(10)
C5 C4 C7 119.27(9)
C3 C4 C7 123.19(10)
C6 C5 C4 122.20(10)
C6 C5 H5A 118.9
C4 C5 H5A 118.9
C5 C6 C1 118.26(10)
C5 C6 H6A 120.9
C1 C6 H6A 120.9
C17 C7 C4 126.44(13)
C17 C7 H7A 116.8
C4 C7 H7A 116.8
N1 Cl11 O1 119.0(8)
N1 Cl11 O2 67.0(6)
O1 Cl11 O2 171.2(3)
N1 Cl11 C11 19.4(5)
O1 Cl11 C11 100.0(3)
O2 Cl11 C11 86.36(11)
Cl11 N1 O2 86.2(5)
Cl11 N1 O1 36.3(5)
O2 N1 O1 122.1(3)
Cl11 N1 C11 152.2(8)
O2 N1 C11 121.5(3)
O1 N1 C11 116.3(3)
Cl11 O1 N1 24.7(3)
N1 O2 Cl11 26.79(14)
N1 C11 C16 123.2(2)
N1 C11 C12 115.3(2)
C16 C11 C12 121.48(10)
N1 C11 Cl11 8.4(2)
C16 C11 Cl11 114.87(11)
C12 C11 Cl11 123.65(11)
C13 C12 C11 119.09(10)
C13 C12 H12A 120.5
C11 C12 H12A 120.5
C12 C13 C14 121.42(11)
C12 C13 H13A 119.3
C14 C13 H13A 119.3
C15 C14 C13 117.54(10)
C15 C14 C17 119.27(9)
C13 C14 C17 123.19(10)
C16 C15 C14 122.20(10)
C16 C15 H15A 118.9
C14 C15 H15A 118.9
C15 C16 C11 118.26(10)
C15 C16 H16A 120.9
C11 C16 H16A 120.9
C7 C17 C14 126.44(13)
C7 C17 H17A 116.8
C14 C17 H17A 116.8
loop_
_geom_bond_atom_site_label_1
_geom_bond_atom_site_label_2
_geom_bond_distance
Cl1 N11 0.590(3)
Cl1 O11 0.835(3)
Cl1 O12 1.307(3)
Cl1 C1 1.8779(14)
N11 O12 1.206(5)
N11 O11 1.234(5)
N11 C1 1.335(3)
C1 C6 1.3768(15)
C1 C2 1.3811(16)
C2 C3 1.3662(16)
C2 H2A 0.9300
C3 C4 1.3932(15)
C3 H3A 0.9300
C4 C5 1.3881(14)
C4 C7 1.4669(14)
C5 C6 1.3723(14)
C5 H5A 0.9300
C6 H6A 0.9300
C7 C17 1.3072(19)
C7 H7A 0.9300
Cl11 N1 0.590(3)
Cl11 O1 0.835(3)
Cl11 O2 1.307(3)
Cl11 C11 1.8779(14)
N1 O2 1.206(5)
N1 O1 1.234(5)
N1 C11 1.335(3)
C11 C16 1.3768(15)
C11 C12 1.3811(16)
C12 C13 1.3662(16)
C12 H12A 0.9300
C13 C14 1.3932(15)
C13 H13A 0.9300
C14 C15 1.3881(14)
C14 C17 1.4669(14)
C15 C16 1.3723(14)
C15 H15A 0.9300
C16 H16A 0.9300
C17 H17A 0.9300
loop_
_geom_torsion_atom_site_label_1
_geom_torsion_atom_site_label_2
_geom_torsion_atom_site_label_3
_geom_torsion_atom_site_label_4
_geom_torsion
O11 Cl1 N11 O12 172.9(4)
C1 Cl1 N11 O12 -174.6(16)
O12 Cl1 N11 O11 -172.9(4)
C1 Cl1 N11 O11 12.5(18)
O11 Cl1 N11 C1 -12.5(18)
O12 Cl1 N11 C1 174.6(16)
O12 Cl1 O11 N11 132(3)
C1 Cl1 O11 N11 -4.2(6)
O12 N11 O11 Cl1 -8.4(5)
C1 N11 O11 Cl1 173.5(9)
O11 N11 O12 Cl1 5.0(3)
C1 N11 O12 Cl1 -177.1(8)
O11 Cl1 O12 N11 -135(2)
C1 Cl1 O12 N11 1.8(5)
Cl1 N11 C1 C6 9.2(16)
O12 N11 C1 C6 -177.1(3)
O11 N11 C1 C6 1.0(5)
Cl1 N11 C1 C2 -171.8(14)
O12 N11 C1 C2 2.0(4)
O11 N11 C1 C2 -180.0(3)
O12 N11 C1 Cl1 173.7(18)
O11 N11 C1 Cl1 -8.2(12)
O11 Cl1 C1 N11 168.9(16)
O12 Cl1 C1 N11 -4.9(14)
N11 Cl1 C1 C6 -171.5(15)
O11 Cl1 C1 C6 -2.6(3)
O12 Cl1 C1 C6 -176.45(13)
N11 Cl1 C1 C2 8.9(15)
O11 Cl1 C1 C2 177.9(3)
O12 Cl1 C1 C2 4.00(17)
N11 C1 C2 C3 -179.3(2)
C6 C1 C2 C3 -0.23(16)
Cl1 C1 C2 C3 179.29(10)
C1 C2 C3 C4 0.27(16)
C2 C3 C4 C5 -0.43(15)
C2 C3 C4 C7 179.97(9)
C3 C4 C5 C6 0.56(15)
C7 C4 C5 C6 -179.82(9)
C4 C5 C6 C1 -0.53(16)
N11 C1 C6 C5 179.3(2)
C2 C1 C6 C5 0.36(16)
Cl1 C1 C6 C5 -179.21(10)
C5 C4 C7 C17 175.69(13)
C3 C4 C7 C17 -4.71(19)
O1 Cl11 N1 O2 -172.9(4)
C11 Cl11 N1 O2 174.6(16)
O2 Cl11 N1 O1 172.9(4)
C11 Cl11 N1 O1 -12.5(18)
O1 Cl11 N1 C11 12.5(18)
O2 Cl11 N1 C11 -174.6(16)
O2 Cl11 O1 N1 -132(3)
C11 Cl11 O1 N1 4.2(6)
O2 N1 O1 Cl11 8.4(5)
C11 N1 O1 Cl11 -173.5(9)
O1 N1 O2 Cl11 -5.0(3)
C11 N1 O2 Cl11 177.1(8)
O1 Cl11 O2 N1 135(2)
C11 Cl11 O2 N1 -1.8(5)
Cl11 N1 C11 C16 -9.2(16)
O2 N1 C11 C16 177.1(3)
O1 N1 C11 C16 -1.0(5)
Cl11 N1 C11 C12 171.8(14)
O2 N1 C11 C12 -2.0(4)
O1 N1 C11 C12 180.0(3)
O2 N1 C11 Cl11 -173.7(18)
O1 N1 C11 Cl11 8.2(12)
O1 Cl11 C11 N1 -168.9(16)
O2 Cl11 C11 N1 4.9(14)
N1 Cl11 C11 C16 171.5(15)
O1 Cl11 C11 C16 2.6(3)
O2 Cl11 C11 C16 176.45(13)
N1 Cl11 C11 C12 -8.9(15)
O1 Cl11 C11 C12 -177.9(3)
O2 Cl11 C11 C12 -4.00(17)
N1 C11 C12 C13 179.3(2)
C16 C11 C12 C13 0.23(16)
Cl11 C11 C12 C13 -179.29(10)
C11 C12 C13 C14 -0.27(16)
C12 C13 C14 C15 0.43(15)
C12 C13 C14 C17 -179.97(9)
C13 C14 C15 C16 -0.56(15)
C17 C14 C15 C16 179.82(9)
C14 C15 C16 C11 0.53(16)
N1 C11 C16 C15 -179.3(2)
C12 C11 C16 C15 -0.36(16)
Cl11 C11 C16 C15 179.21(10)
C4 C7 C17 C14 180.0
C15 C14 C17 C7 -175.69(13)
C13 C14 C17 C7 4.71(19)
