#------------------------------------------------------------------------------
#$Date: 2019-11-28 16:11:22 +0200 (Thu, 28 Nov 2019) $
#$Revision: 244087 $
#$URL: file:///home/coder/svn-repositories/cod/cif/7/23/82/7238201.cif $
#------------------------------------------------------------------------------
#
# This file is available in the Crystallography Open Database (COD),
# http://www.crystallography.net/
#
# All data on this site have been placed in the public domain by the
# contributors.
#
data_7238201
loop_
_publ_author_name
'Behrnd, Norwid-Rasmus'
'Labat, Ga\"el'
'Venugopalan, Paloth'
'Hulliger, J\"urg'
'B\"urgi, Hans-Beat'
_publ_section_title
;
 Influence of the solvent of crystallization on the orientational disorder
 of (trans)-4-chloro-4&#x2032;-nitrostilbene
;
_journal_issue                   12
_journal_name_full               CrystEngComm
_journal_page_first              4101
_journal_paper_doi               10.1039/b926652f
_journal_volume                  12
_journal_year                    2010
_chemical_formula_moiety         'C14 H10 Cl N O2'
_chemical_formula_sum            'C14 H10 Cl N O2'
_chemical_formula_weight         259.68
_space_group_IT_number           4
_space_group_name_Hall           'P 2ybc'
_space_group_name_H-M_alt        'P 1 21 1 (a,b,c-1/4)'
_symmetry_cell_setting           monoclinic
_symmetry_space_group_name_Hall  'P 2ybc'
_symmetry_space_group_name_H-M   'P 1 21 1 (a,b,c-1/4)'
_atom_sites_solution_hydrogens   geom
_atom_sites_solution_primary     direct
_atom_sites_solution_secondary   difmap
_audit_creation_method           SHELXL-97
_cell_angle_alpha                90.00
_cell_angle_beta                 93.1916(12)
_cell_angle_gamma                90.00
_cell_formula_units_Z            2
_cell_length_a                   3.91514(5)
_cell_length_b                   12.96036(16)
_cell_length_c                   12.22634(16)
_cell_measurement_reflns_used    5653
_cell_measurement_temperature    293(2)
_cell_measurement_theta_max      31.8015
_cell_measurement_theta_min      4.7099
_cell_volume                     619.422(14)
_computing_cell_refinement       'SAINT (Bruker, 2003)'
_computing_data_collection       'SMART (Bruker, 1997)'
_computing_data_reduction        'SHELXTL (Bruker, 2000)'
_computing_molecular_graphics    'PLATON (Spek, 2003)'
_computing_publication_material  SHELXL-97
_computing_structure_refinement  'SHELXL-97 (Sheldrick, 1997)'
_computing_structure_solution    'SHELXS-97 (Sheldrick, 1990)'
_diffrn_ambient_temperature      293(2)
_diffrn_detector_area_resol_mean 8.2896
_diffrn_measured_fraction_theta_full 0.989
_diffrn_measured_fraction_theta_max 0.989
_diffrn_measurement_device_type  'Kuma 6-circle'
_diffrn_measurement_method       'omega scan method'
_diffrn_radiation_monochromator  synchrotron
_diffrn_radiation_source         synchrotron
_diffrn_radiation_type           synchrotron
_diffrn_radiation_wavelength     0.7100
_diffrn_reflns_av_R_equivalents  0.0321
_diffrn_reflns_av_sigmaI/netI    0.0333
_diffrn_reflns_limit_h_max       4
_diffrn_reflns_limit_h_min       -4
_diffrn_reflns_limit_k_max       16
_diffrn_reflns_limit_k_min       -16
_diffrn_reflns_limit_l_max       15
_diffrn_reflns_limit_l_min       -15
_diffrn_reflns_number            8011
_diffrn_reflns_theta_full        26.41
_diffrn_reflns_theta_max         26.41
_diffrn_reflns_theta_min         4.59
_diffrn_standards_decay_%        0
_diffrn_standards_interval_time  0
_exptl_absorpt_coefficient_mu    0.300
_exptl_absorpt_correction_T_max  1
_exptl_absorpt_correction_T_min  0.865659
_exptl_absorpt_correction_type   multi-scan
_exptl_absorpt_process_details   'SADABS (Bruker, 2004)'
_exptl_crystal_colour            yellow
_exptl_crystal_density_diffrn    1.392
_exptl_crystal_density_method    'not measured'
_exptl_crystal_description       'prismatic rod'
_exptl_crystal_F_000             268
_exptl_crystal_size_max          0.30
_exptl_crystal_size_mid          0.20
_exptl_crystal_size_min          0.10
_refine_diff_density_max         0.117
_refine_diff_density_min         -0.118
_refine_diff_density_rms         0.022
_refine_ls_abs_structure_details 'Flack H D (1983), Acta Cryst. A39, 876-881'
_refine_ls_abs_structure_Flack   0.44(19)
_refine_ls_extinction_method     none
_refine_ls_goodness_of_fit_ref   0.949
_refine_ls_hydrogen_treatment    constr
_refine_ls_matrix_type           full
_refine_ls_number_parameters     101
_refine_ls_number_reflns         2474
_refine_ls_number_restraints     1
_refine_ls_restrained_S_all      0.948
_refine_ls_R_factor_all          0.0506
_refine_ls_R_factor_gt           0.0435
_refine_ls_shift/su_max          0.000
_refine_ls_shift/su_mean         0.000
_refine_ls_structure_factor_coef Fsqd
_refine_ls_weighting_details
'calc w=1/[\s^2^(Fo^2^)+(0.0522P)^2^+0.0968P] where P=(Fo^2^+2Fc^2^)/3'
_refine_ls_weighting_scheme      calc
_refine_ls_wR_factor_gt          0.1220
_refine_ls_wR_factor_ref         0.1275
_reflns_number_gt                2006
_reflns_number_total             2474
_reflns_threshold_expression     I>2sigma(I)
_cod_data_source_file            b926652f.txt
_cod_data_source_block           CNS-EtOH-small-P21
_cod_original_sg_symbol_Hall     'P 2yb'
_cod_original_sg_symbol_H-M      P21
_cod_database_code               7238201
loop_
_symmetry_equiv_pos_as_xyz
'x, y, z'
'-x, y+1/2, -z+1/2'
loop_
_atom_site_label
_atom_site_type_symbol
_atom_site_fract_x
_atom_site_fract_y
_atom_site_fract_z
_atom_site_U_iso_or_equiv
_atom_site_adp_type
_atom_site_occupancy
_atom_site_symmetry_multiplicity
_atom_site_calc_flag
_atom_site_refinement_flags
Cl1 Cl 0.3711(5) -0.46062(8) -0.17616(17) 0.1141(6) Uani 0.4326(15) 1 d P
N11 N 0.3617(10) -0.4166(3) -0.1715(3) 0.0826(8) Uani 0.5674(15) 1 d P
O11 O 0.3169(9) -0.4971(2) -0.1239(3) 0.1280(11) Uani 0.5674(15) 1 d P
O12 O 0.4997(6) -0.41204(16) -0.25861(17) 0.1129(7) Uani 0.5674(15) 1 d P
C1 C 0.2615(3) -0.32942(9) -0.12301(10) 0.0753(3) Uani 1 1 d .
C2 C 0.3157(3) -0.23911(11) -0.17937(9) 0.0801(3) Uani 1 1 d .
H2A H 0.4138 -0.2405 -0.2469 0.096 Uiso 1 1 calc R
C3 C 0.2227(3) -0.14746(9) -0.13415(9) 0.0767(3) Uani 1 1 d .
H3A H 0.2571 -0.0864 -0.1720 0.092 Uiso 1 1 calc R
C4 C 0.0779(2) -0.14348(8) -0.03286(8) 0.0666(3) Uani 1 1 d .
C5 C 0.0277(3) -0.23617(9) 0.02095(9) 0.0730(3) Uani 1 1 d .
H5A H -0.0706 -0.2352 0.0885 0.088 Uiso 1 1 calc R
C6 C 0.1188(3) -0.32945(9) -0.02255(10) 0.0771(3) Uani 1 1 d .
H6A H 0.0849 -0.3908 0.0148 0.092 Uiso 1 1 calc R
C7 C -0.0245(3) -0.04673(8) 0.01859(9) 0.0715(3) Uani 1 1 d .
H7 H -0.1345 -0.0523 0.0838 0.086 Uiso 1 1 calc R
Cl11 Cl -0.3711(5) 0.46062(8) 0.17616(17) 0.1141(6) Uani 0.5674(15) 1 d P
N1 N -0.3617(10) 0.4166(3) 0.1715(3) 0.0826(8) Uani 0.4326(15) 1 d P
O1 O -0.3169(9) 0.4971(2) 0.1239(3) 0.1280(11) Uani 0.4326(15) 1 d P
O2 O -0.4997(6) 0.41204(16) 0.25861(17) 0.1129(7) Uani 0.4326(15) 1 d P
C11 C -0.2615(3) 0.32942(9) 0.12301(10) 0.0753(3) Uani 1 1 d .
C12 C -0.3157(3) 0.23911(11) 0.17937(9) 0.0801(3) Uani 1 1 d .
H12A H -0.4138 0.2405 0.2469 0.096 Uiso 1 1 calc R
C13 C -0.2227(3) 0.14746(9) 0.13415(9) 0.0767(3) Uani 1 1 d .
H13A H -0.2571 0.0864 0.1720 0.092 Uiso 1 1 calc R
C14 C -0.0779(2) 0.14348(8) 0.03286(8) 0.0666(3) Uani 1 1 d .
C15 C -0.0277(3) 0.23617(9) -0.02095(9) 0.0730(3) Uani 1 1 d .
H15A H 0.0706 0.2352 -0.0885 0.088 Uiso 1 1 calc R
C16 C -0.1188(3) 0.32945(9) 0.02255(10) 0.0771(3) Uani 1 1 d .
H16A H -0.0849 0.3908 -0.0148 0.092 Uiso 1 1 calc R
C17 C 0.0245(3) 0.04673(8) -0.01859(9) 0.0715(3) Uani 1 1 d .
H17 H 0.1345 0.0523 -0.0838 0.086 Uiso 1 1 calc R
loop_
_atom_site_aniso_label
_atom_site_aniso_U_11
_atom_site_aniso_U_22
_atom_site_aniso_U_33
_atom_site_aniso_U_23
_atom_site_aniso_U_13
_atom_site_aniso_U_12
Cl1 0.1131(7) 0.0956(12) 0.1333(11) -0.0470(11) 0.0044(7) 0.0239(9)
N11 0.0789(15) 0.076(2) 0.093(2) -0.0074(18) -0.0001(13) 0.0077(17)
O11 0.170(2) 0.0756(15) 0.142(2) 0.0059(14) 0.0418(18) 0.0185(14)
O12 0.1532(19) 0.0898(13) 0.0987(13) -0.0229(11) 0.0352(13) 0.0188(12)
C1 0.0607(6) 0.0885(8) 0.0762(7) -0.0146(6) 0.0003(5) 0.0055(5)
C2 0.0695(7) 0.1057(9) 0.0658(6) -0.0035(6) 0.0107(5) -0.0014(6)
C3 0.0717(6) 0.0851(7) 0.0740(7) 0.0072(5) 0.0091(5) -0.0040(5)
C4 0.0543(5) 0.0782(7) 0.0673(6) -0.0024(5) 0.0020(4) -0.0017(4)
C5 0.0703(6) 0.0830(7) 0.0664(6) 0.0012(5) 0.0103(5) 0.0003(5)
C6 0.0749(7) 0.0775(7) 0.0790(7) 0.0027(5) 0.0055(5) 0.0012(5)
C7 0.0631(6) 0.0816(7) 0.0702(6) 0.0026(5) 0.0076(5) -0.0024(5)
Cl11 0.1131(7) 0.0956(12) 0.1333(11) -0.0470(11) 0.0044(7) 0.0239(9)
N1 0.0789(15) 0.076(2) 0.093(2) -0.0074(18) -0.0001(13) 0.0077(17)
O1 0.170(2) 0.0756(15) 0.142(2) 0.0059(14) 0.0418(18) 0.0185(14)
O2 0.1532(19) 0.0898(13) 0.0987(13) -0.0229(11) 0.0352(13) 0.0188(12)
C11 0.0607(6) 0.0885(8) 0.0762(7) -0.0146(6) 0.0003(5) 0.0055(5)
C12 0.0695(7) 0.1057(9) 0.0658(6) -0.0035(6) 0.0107(5) -0.0014(6)
C13 0.0717(6) 0.0851(7) 0.0740(7) 0.0072(5) 0.0091(5) -0.0040(5)
C14 0.0543(5) 0.0782(7) 0.0673(6) -0.0024(5) 0.0020(4) -0.0017(4)
C15 0.0703(6) 0.0830(7) 0.0664(6) 0.0012(5) 0.0103(5) 0.0003(5)
C16 0.0749(7) 0.0775(7) 0.0790(7) 0.0027(5) 0.0055(5) 0.0012(5)
C17 0.0631(6) 0.0816(7) 0.0702(6) 0.0026(5) 0.0076(5) -0.0024(5)
loop_
_atom_type_symbol
_atom_type_description
_atom_type_scat_dispersion_real
_atom_type_scat_dispersion_imag
_atom_type_scat_source
C C 0.0033 0.0016 'International Tables Vol C Tables 4.2.6.8 and 6.1.1.4'
H H 0.0000 0.0000 'International Tables Vol C Tables 4.2.6.8 and 6.1.1.4'
N N 0.0061 0.0033 'International Tables Vol C Tables 4.2.6.8 and 6.1.1.4'
O O 0.0106 0.0060 'International Tables Vol C Tables 4.2.6.8 and 6.1.1.4'
Cl Cl 0.1484 0.1585 'International Tables Vol C Tables 4.2.6.8 and 6.1.1.4'
loop_
_geom_angle_atom_site_label_1
_geom_angle_atom_site_label_2
_geom_angle_atom_site_label_3
_geom_angle
N11 Cl1 O11 117.9(8)
N11 Cl1 O12 68.2(6)
O11 Cl1 O12 171.1(3)
N11 Cl1 C1 18.2(6)
O11 Cl1 C1 100.1(3)
O12 Cl1 C1 86.34(11)
Cl1 N11 O11 37.4(6)
Cl1 N11 O12 85.9(6)
O11 N11 O12 123.0(3)
Cl1 N11 C1 154.1(8)
O11 N11 C1 117.2(3)
O12 N11 C1 119.8(3)
Cl1 O11 N11 24.8(3)
N11 O12 Cl1 25.87(15)
N11 C1 C6 122.4(2)
N11 C1 C2 115.8(2)
C6 C1 C2 121.77(11)
N11 C1 Cl1 7.7(2)
C6 C1 Cl1 114.83(12)
C2 C1 Cl1 123.39(11)
C3 C2 C1 118.85(10)
C3 C2 H2A 120.6
C1 C2 H2A 120.6
C2 C3 C4 121.52(11)
C2 C3 H3A 119.2
C4 C3 H3A 119.2
C5 C4 C3 117.70(10)
C5 C4 C7 119.10(10)
C3 C4 C7 123.19(10)
C6 C5 C4 122.03(10)
C6 C5 H5A 119.0
C4 C5 H5A 119.0
C5 C6 C1 118.12(11)
C5 C6 H6A 120.9
C1 C6 H6A 120.9
C17 C7 C4 126.26(13)
C17 C7 H7 116.9
C4 C7 H7 116.9
N1 Cl11 O1 117.9(8)
N1 Cl11 O2 68.2(6)
O1 Cl11 O2 171.1(3)
N1 Cl11 C11 18.2(6)
O1 Cl11 C11 100.1(3)
O2 Cl11 C11 86.34(11)
Cl11 N1 O1 37.4(6)
Cl11 N1 O2 85.9(6)
O1 N1 O2 123.0(3)
Cl11 N1 C11 154.1(8)
O1 N1 C11 117.2(3)
O2 N1 C11 119.8(3)
Cl11 O1 N1 24.8(3)
N1 O2 Cl11 25.87(15)
N1 C11 C16 122.4(2)
N1 C11 C12 115.8(2)
C16 C11 C12 121.77(11)
N1 C11 Cl11 7.7(2)
C16 C11 Cl11 114.83(12)
C12 C11 Cl11 123.39(11)
C13 C12 C11 118.85(10)
C13 C12 H12A 120.6
C11 C12 H12A 120.6
C12 C13 C14 121.52(11)
C12 C13 H13A 119.2
C14 C13 H13A 119.2
C15 C14 C13 117.70(10)
C15 C14 C17 119.10(10)
C13 C14 C17 123.19(10)
C16 C15 C14 122.03(10)
C16 C15 H15A 119.0
C14 C15 H15A 119.0
C15 C16 C11 118.12(11)
C15 C16 H16A 120.9
C11 C16 H16A 120.9
C7 C17 C14 126.26(13)
C7 C17 H17 116.9
C14 C17 H17 116.9
loop_
_geom_bond_atom_site_label_1
_geom_bond_atom_site_label_2
_geom_bond_distance
Cl1 N11 0.574(3)
Cl1 O11 0.832(3)
Cl1 O12 1.313(3)
Cl1 C1 1.8786(15)
N11 O11 1.212(6)
N11 O12 1.222(5)
N11 C1 1.345(3)
C1 C6 1.3775(16)
C1 C2 1.3806(17)
C2 C3 1.3680(17)
C2 H2A 0.9300
C3 C4 1.3913(16)
C3 H3A 0.9300
C4 C5 1.3890(15)
C4 C7 1.4685(15)
C5 C6 1.3757(15)
C5 H5A 0.9300
C6 H6A 0.9300
C7 C17 1.312(2)
C7 H7 0.9300
Cl11 N1 0.574(3)
Cl11 O1 0.832(3)
Cl11 O2 1.313(3)
Cl11 C11 1.8786(15)
N1 O1 1.212(6)
N1 O2 1.222(5)
N1 C11 1.345(3)
C11 C16 1.3775(16)
C11 C12 1.3806(17)
C12 C13 1.3680(17)
C12 H12A 0.9300
C13 C14 1.3913(16)
C13 H13A 0.9300
C14 C15 1.3890(15)
C14 C17 1.4685(15)
C15 C16 1.3757(15)
C15 H15A 0.9300
C16 H16A 0.9300
C17 H17 0.9300
loop_
_geom_torsion_atom_site_label_1
_geom_torsion_atom_site_label_2
_geom_torsion_atom_site_label_3
_geom_torsion_atom_site_label_4
_geom_torsion
O12 Cl1 N11 O11 -172.8(4)
C1 Cl1 N11 O11 13.5(19)
O11 Cl1 N11 O12 172.8(4)
C1 Cl1 N11 O12 -173.7(17)
O11 Cl1 N11 C1 -13.5(19)
O12 Cl1 N11 C1 173.7(17)
O12 Cl1 O11 N11 131(3)
C1 Cl1 O11 N11 -4.3(6)
O12 N11 O11 Cl1 -8.6(5)
C1 N11 O11 Cl1 173.4(10)
O11 N11 O12 Cl1 5.2(3)
C1 N11 O12 Cl1 -176.8(8)
O11 Cl1 O12 N11 -134(3)
C1 Cl1 O12 N11 2.0(5)
Cl1 N11 C1 C6 10.2(17)
O11 N11 C1 C6 1.1(5)
O12 N11 C1 C6 -177.0(2)
Cl1 N11 C1 C2 -170.8(16)
O11 N11 C1 C2 -180.0(3)
O12 N11 C1 C2 2.0(4)
O11 N11 C1 Cl1 -9.2(13)
O12 N11 C1 Cl1 172.7(19)
O11 Cl1 C1 N11 167.9(18)
O12 Cl1 C1 N11 -5.9(16)
N11 Cl1 C1 C6 -170.5(16)
O11 Cl1 C1 C6 -2.6(3)
O12 Cl1 C1 C6 -176.35(14)
N11 Cl1 C1 C2 10.0(17)
O11 Cl1 C1 C2 177.8(3)
O12 Cl1 C1 C2 4.09(18)
N11 C1 C2 C3 -179.4(2)
C6 C1 C2 C3 -0.40(17)
Cl1 C1 C2 C3 179.14(11)
C1 C2 C3 C4 0.46(17)
C2 C3 C4 C5 -0.52(16)
C2 C3 C4 C7 179.82(10)
C3 C4 C5 C6 0.53(16)
C7 C4 C5 C6 -179.80(10)
C4 C5 C6 C1 -0.48(17)
N11 C1 C6 C5 179.3(2)
C2 C1 C6 C5 0.41(17)
Cl1 C1 C6 C5 -179.17(10)
C5 C4 C7 C17 175.71(13)
C3 C4 C7 C17 -4.6(2)
O2 Cl11 N1 O1 172.8(4)
C11 Cl11 N1 O1 -13.5(19)
O1 Cl11 N1 O2 -172.8(4)
C11 Cl11 N1 O2 173.7(17)
O1 Cl11 N1 C11 13.5(19)
O2 Cl11 N1 C11 -173.7(17)
O2 Cl11 O1 N1 -131(3)
C11 Cl11 O1 N1 4.3(6)
O2 N1 O1 Cl11 8.6(5)
C11 N1 O1 Cl11 -173.4(10)
O1 N1 O2 Cl11 -5.2(3)
C11 N1 O2 Cl11 176.8(8)
O1 Cl11 O2 N1 134(3)
C11 Cl11 O2 N1 -2.0(5)
Cl11 N1 C11 C16 -10.2(17)
O1 N1 C11 C16 -1.1(5)
O2 N1 C11 C16 177.0(2)
Cl11 N1 C11 C12 170.8(16)
O1 N1 C11 C12 180.0(3)
O2 N1 C11 C12 -2.0(4)
O1 N1 C11 Cl11 9.2(13)
O2 N1 C11 Cl11 -172.7(19)
O1 Cl11 C11 N1 -167.9(18)
O2 Cl11 C11 N1 5.9(16)
N1 Cl11 C11 C16 170.5(16)
O1 Cl11 C11 C16 2.6(3)
O2 Cl11 C11 C16 176.35(14)
N1 Cl11 C11 C12 -10.0(17)
O1 Cl11 C11 C12 -177.8(3)
O2 Cl11 C11 C12 -4.09(18)
N1 C11 C12 C13 179.4(2)
C16 C11 C12 C13 0.40(17)
Cl11 C11 C12 C13 -179.14(11)
C11 C12 C13 C14 -0.46(17)
C12 C13 C14 C15 0.52(16)
C12 C13 C14 C17 -179.82(10)
C13 C14 C15 C16 -0.53(16)
C17 C14 C15 C16 179.80(10)
C14 C15 C16 C11 0.48(17)
N1 C11 C16 C15 -179.3(2)
C12 C11 C16 C15 -0.41(17)
Cl11 C11 C16 C15 179.17(10)
C4 C7 C17 C14 180.0
C15 C14 C17 C7 -175.71(13)
C13 C14 C17 C7 4.6(2)
