#------------------------------------------------------------------------------
#$Date: 2019-11-28 16:11:22 +0200 (Thu, 28 Nov 2019) $
#$Revision: 244087 $
#$URL: file:///home/coder/svn-repositories/cod/cif/7/23/81/7238185.cif $
#------------------------------------------------------------------------------
#
# This file is available in the Crystallography Open Database (COD),
# http://www.crystallography.net/
#
# All data on this site have been placed in the public domain by the
# contributors.
#
data_7238185
loop_
_publ_author_name
'Behrnd, Norwid-Rasmus'
'Labat, Ga\"el'
'Venugopalan, Paloth'
'Hulliger, J\"urg'
'B\"urgi, Hans-Beat'
_publ_section_title
;
 Influence of the solvent of crystallization on the orientational disorder
 of (trans)-4-chloro-4&#x2032;-nitrostilbene
;
_journal_issue                   12
_journal_name_full               CrystEngComm
_journal_page_first              4101
_journal_paper_doi               10.1039/b926652f
_journal_volume                  12
_journal_year                    2010
_chemical_formula_moiety         'C14 H10 Cl N O2'
_chemical_formula_sum            'C14 H10 Cl N O2'
_chemical_formula_weight         259.68
_space_group_IT_number           4
_space_group_name_Hall           'P 2ybc'
_space_group_name_H-M_alt        'P 1 21 1 (a,b,c-1/4)'
_symmetry_cell_setting           monoclinic
_symmetry_space_group_name_Hall  'P 2ybc'
_symmetry_space_group_name_H-M   'P 1 21 1 (a,b,c-1/4)'
_atom_sites_solution_hydrogens   geom
_atom_sites_solution_primary     direct
_atom_sites_solution_secondary   difmap
_audit_creation_method           SHELXL-97
_cell_angle_alpha                90.00
_cell_angle_beta                 93.200(2)
_cell_angle_gamma                90.00
_cell_formula_units_Z            2
_cell_length_a                   3.9227(2)
_cell_length_b                   12.9764(7)
_cell_length_c                   12.2535(6)
_cell_measurement_reflns_used    3440
_cell_measurement_temperature    293(2)
_cell_measurement_theta_max      22.987
_cell_measurement_theta_min      3.1395
_cell_volume                     622.76(6)
_computing_cell_refinement       'SAINT (Bruker, 2003)'
_computing_data_collection       'SMART (Bruker, 1997)'
_computing_data_reduction        'SHELXTL (Bruker, 2000)'
_computing_molecular_graphics    'PLATON (Spek, 2003)'
_computing_publication_material  SHELXL-97
_computing_structure_refinement  'SHELXL-97 (Sheldrick, 1997)'
_computing_structure_solution    'SHELXS-97 (Sheldrick, 1990)'
_diffrn_ambient_temperature      293(2)
_diffrn_measured_fraction_theta_full 0.904
_diffrn_measured_fraction_theta_max 0.904
_diffrn_measurement_device_type  'Bruker SMART 1K'
_diffrn_measurement_method       'omega scan method'
_diffrn_radiation_monochromator  graphite
_diffrn_radiation_source         'fine-focus sealed tube'
_diffrn_radiation_type           MoK\a
_diffrn_radiation_wavelength     0.71073
_diffrn_reflns_av_R_equivalents  0.0319
_diffrn_reflns_av_sigmaI/netI    0.0521
_diffrn_reflns_limit_h_max       3
_diffrn_reflns_limit_h_min       -5
_diffrn_reflns_limit_k_max       13
_diffrn_reflns_limit_k_min       -16
_diffrn_reflns_limit_l_max       15
_diffrn_reflns_limit_l_min       -15
_diffrn_reflns_number            3420
_diffrn_reflns_theta_full        27.80
_diffrn_reflns_theta_max         27.80
_diffrn_reflns_theta_min         2.29
_diffrn_standards_decay_%        0
_diffrn_standards_interval_time  0
_diffrn_standards_number         0
_exptl_absorpt_coefficient_mu    0.299
_exptl_absorpt_correction_T_max  1
_exptl_absorpt_correction_T_min  0.102711
_exptl_absorpt_correction_type   multi-scan
_exptl_absorpt_process_details   'SADABS (Bruker, 2004)'
_exptl_crystal_colour            yellow
_exptl_crystal_density_diffrn    1.385
_exptl_crystal_density_method    'not measured'
_exptl_crystal_description       'prismatic rod'
_exptl_crystal_F_000             268
_exptl_crystal_size_max          0.30
_exptl_crystal_size_mid          0.20
_exptl_crystal_size_min          0.10
_refine_diff_density_max         0.239
_refine_diff_density_min         -0.205
_refine_diff_density_rms         0.055
_refine_ls_abs_structure_details 'Flack H D (1983), Acta Cryst. A39, 876-881'
_refine_ls_abs_structure_Flack   0.4(2)
_refine_ls_extinction_method     none
_refine_ls_goodness_of_fit_ref   0.890
_refine_ls_hydrogen_treatment    constr
_refine_ls_matrix_type           full
_refine_ls_number_parameters     101
_refine_ls_number_reflns         2164
_refine_ls_number_restraints     1
_refine_ls_restrained_S_all      0.890
_refine_ls_R_factor_all          0.1239
_refine_ls_R_factor_gt           0.0669
_refine_ls_shift/su_max          0.000
_refine_ls_shift/su_mean         0.000
_refine_ls_structure_factor_coef Fsqd
_refine_ls_weighting_details
'calc w=1/[\s^2^(Fo^2^)+(0.1102P)^2^+0.1649P] where P=(Fo^2^+2Fc^2^)/3'
_refine_ls_weighting_scheme      calc
_refine_ls_wR_factor_gt          0.1727
_refine_ls_wR_factor_ref         0.2176
_reflns_number_gt                1111
_reflns_number_total             2164
_reflns_threshold_expression     I>2sigma(I)
_cod_data_source_file            b926652f.txt
_cod_data_source_block           CNS-EtOAc-small-P21
_cod_original_sg_symbol_Hall     P2yb
_cod_original_sg_symbol_H-M      P21
_cod_database_code               7238185
loop_
_symmetry_equiv_pos_as_xyz
'x, y, z'
'-x, y+1/2, -z+1/2'
loop_
_atom_site_label
_atom_site_type_symbol
_atom_site_fract_x
_atom_site_fract_y
_atom_site_fract_z
_atom_site_U_iso_or_equiv
_atom_site_adp_type
_atom_site_occupancy
_atom_site_symmetry_multiplicity
_atom_site_calc_flag
_atom_site_refinement_flags
Cl1 Cl 0.3669(10) -0.46023(19) -0.1752(3) 0.1191(15) Uani 0.377(3) 1 d P
N11 N 0.372(2) -0.4172(6) -0.1736(8) 0.088(2) Uani 0.623(3) 1 d P
O11 O 0.3097(19) -0.4986(4) -0.1241(5) 0.129(2) Uani 0.623(3) 1 d P
O12 O 0.5018(12) -0.4134(3) -0.2588(4) 0.1145(14) Uani 0.623(3) 1 d P
C1 C 0.2615(5) -0.32926(19) -0.1230(2) 0.0751(7) Uani 1 1 d .
C2 C 0.3166(6) -0.2388(2) -0.17954(19) 0.0823(8) Uani 1 1 d .
H2A H 0.4157 -0.2400 -0.2467 0.099 Uiso 1 1 calc R
C3 C 0.2214(6) -0.1476(2) -0.1340(2) 0.0793(7) Uani 1 1 d .
H3A H 0.2534 -0.0866 -0.1720 0.095 Uiso 1 1 calc R
C4 C 0.0796(5) -0.14300(18) -0.03356(18) 0.0683(6) Uani 1 1 d .
C5 C 0.0285(6) -0.23603(19) 0.02052(19) 0.0759(7) Uani 1 1 d .
H5A H -0.0704 -0.2352 0.0878 0.091 Uiso 1 1 calc R
C6 C 0.1213(6) -0.32916(19) -0.0235(2) 0.0802(7) Uani 1 1 d .
H6A H 0.0890 -0.3905 0.0138 0.096 Uiso 1 1 calc R
C7 C -0.0246(6) -0.04665(17) 0.0189(2) 0.0744(7) Uani 1 1 d .
H7A H -0.1341 -0.0524 0.0840 0.089 Uiso 1 1 calc R
Cl11 Cl -0.3669(10) 0.46023(19) 0.1752(3) 0.1191(15) Uani 0.623(3) 1 d P
N1 N -0.372(2) 0.4172(6) 0.1736(8) 0.088(2) Uani 0.377(3) 1 d P
O1 O -0.3097(19) 0.4986(4) 0.1241(5) 0.129(2) Uani 0.377(3) 1 d P
O2 O -0.5018(12) 0.4134(3) 0.2588(4) 0.1145(14) Uani 0.377(3) 1 d P
C11 C -0.2615(5) 0.32926(19) 0.1230(2) 0.0751(7) Uani 1 1 d .
C12 C -0.3166(6) 0.2388(2) 0.17954(19) 0.0823(8) Uani 1 1 d .
H12A H -0.4157 0.2400 0.2467 0.099 Uiso 1 1 calc R
C13 C -0.2214(6) 0.1476(2) 0.1340(2) 0.0793(7) Uani 1 1 d .
H13A H -0.2534 0.0866 0.1720 0.095 Uiso 1 1 calc R
C14 C -0.0796(5) 0.14300(18) 0.03356(18) 0.0683(6) Uani 1 1 d .
C15 C -0.0285(6) 0.23603(19) -0.02052(19) 0.0759(7) Uani 1 1 d .
H15A H 0.0704 0.2352 -0.0878 0.091 Uiso 1 1 calc R
C16 C -0.1213(6) 0.32916(19) 0.0235(2) 0.0802(7) Uani 1 1 d .
H16A H -0.0890 0.3905 -0.0138 0.096 Uiso 1 1 calc R
C17 C 0.0246(6) 0.04665(17) -0.0189(2) 0.0744(7) Uani 1 1 d .
H17A H 0.1341 0.0524 -0.0840 0.089 Uiso 1 1 calc R
loop_
_atom_site_aniso_label
_atom_site_aniso_U_11
_atom_site_aniso_U_22
_atom_site_aniso_U_33
_atom_site_aniso_U_23
_atom_site_aniso_U_13
_atom_site_aniso_U_12
Cl1 0.1278(19) 0.084(2) 0.145(3) -0.046(2) 0.0024(18) 0.018(2)
N11 0.093(4) 0.062(5) 0.105(5) -0.007(4) -0.017(3) -0.003(4)
O11 0.185(5) 0.058(3) 0.146(5) 0.011(3) 0.036(4) 0.016(3)
O12 0.163(4) 0.079(3) 0.103(3) -0.027(2) 0.029(3) 0.017(2)
C1 0.0683(14) 0.0737(17) 0.0823(16) -0.0142(13) -0.0037(11) 0.0049(11)
C2 0.0817(16) 0.096(2) 0.0694(16) -0.0035(13) 0.0089(12) 0.0003(13)
C3 0.0796(15) 0.0730(17) 0.0851(17) 0.0095(13) 0.0025(12) -0.0041(11)
C4 0.0640(12) 0.0708(15) 0.0694(14) -0.0048(12) -0.0020(10) 0.0012(10)
C5 0.0834(15) 0.0747(17) 0.0698(14) 0.0042(12) 0.0066(11) -0.0020(12)
C6 0.0866(16) 0.0668(17) 0.0867(18) -0.0001(13) 0.0008(13) 0.0031(12)
C7 0.0743(13) 0.0734(16) 0.0755(15) 0.0045(12) 0.0032(11) -0.0033(12)
Cl11 0.1278(19) 0.084(2) 0.145(3) -0.046(2) 0.0024(18) 0.018(2)
N1 0.093(4) 0.062(5) 0.105(5) -0.007(4) -0.017(3) -0.003(4)
O1 0.185(5) 0.058(3) 0.146(5) 0.011(3) 0.036(4) 0.016(3)
O2 0.163(4) 0.079(3) 0.103(3) -0.027(2) 0.029(3) 0.017(2)
C11 0.0683(14) 0.0737(17) 0.0823(16) -0.0142(13) -0.0037(11) 0.0049(11)
C12 0.0817(16) 0.096(2) 0.0694(16) -0.0035(13) 0.0089(12) 0.0003(13)
C13 0.0796(15) 0.0730(17) 0.0851(17) 0.0095(13) 0.0025(12) -0.0041(11)
C14 0.0640(12) 0.0708(15) 0.0694(14) -0.0048(12) -0.0020(10) 0.0012(10)
C15 0.0834(15) 0.0747(17) 0.0698(14) 0.0042(12) 0.0066(11) -0.0020(12)
C16 0.0866(16) 0.0668(17) 0.0867(18) -0.0001(13) 0.0008(13) 0.0031(12)
C17 0.0743(13) 0.0734(16) 0.0755(15) 0.0045(12) 0.0032(11) -0.0033(12)
loop_
_atom_type_symbol
_atom_type_description
_atom_type_scat_dispersion_real
_atom_type_scat_dispersion_imag
_atom_type_scat_source
C C 0.0033 0.0016 'International Tables Vol C Tables 4.2.6.8 and 6.1.1.4'
H H 0.0000 0.0000 'International Tables Vol C Tables 4.2.6.8 and 6.1.1.4'
N N 0.0061 0.0033 'International Tables Vol C Tables 4.2.6.8 and 6.1.1.4'
O O 0.0106 0.0060 'International Tables Vol C Tables 4.2.6.8 and 6.1.1.4'
Cl Cl 0.1484 0.1585 'International Tables Vol C Tables 4.2.6.8 and 6.1.1.4'
loop_
_geom_angle_atom_site_label_1
_geom_angle_atom_site_label_2
_geom_angle_atom_site_label_3
_geom_angle
N11 Cl1 O11 125.2(16)
N11 Cl1 O12 63.5(13)
O11 Cl1 O12 169.1(6)
N11 Cl1 C1 24.3(12)
O11 Cl1 C1 102.1(6)
O12 Cl1 C1 87.3(3)
Cl1 N11 O12 91.6(13)
Cl1 N11 O11 33.3(11)
O12 N11 O11 124.6(7)
Cl1 N11 C1 146.1(17)
O12 N11 C1 121.4(7)
O11 N11 C1 114.0(8)
Cl1 O11 N11 21.4(5)
N11 O12 Cl1 24.9(4)
C6 C1 C2 121.8(2)
C6 C1 N11 123.6(5)
C2 C1 N11 114.5(5)
C6 C1 Cl1 114.4(2)
C2 C1 Cl1 123.7(2)
N11 C1 Cl1 9.6(5)
C3 C2 C1 118.3(2)
C3 C2 H2A 120.8
C1 C2 H2A 120.8
C2 C3 C4 122.2(3)
C2 C3 H3A 118.9
C4 C3 H3A 118.9
C3 C4 C5 117.5(2)
C3 C4 C7 124.1(2)
C5 C4 C7 118.4(2)
C4 C5 C6 121.5(2)
C4 C5 H5A 119.2
C6 C5 H5A 119.2
C1 C6 C5 118.6(2)
C1 C6 H6A 120.7
C5 C6 H6A 120.7
C17 C7 C4 125.3(3)
C17 C7 H7A 117.3
C4 C7 H7A 117.3
N1 Cl11 O1 125.2(16)
N1 Cl11 O2 63.5(13)
O1 Cl11 O2 169.1(6)
N1 Cl11 C11 24.3(12)
O1 Cl11 C11 102.1(6)
O2 Cl11 C11 87.3(3)
Cl11 N1 O2 91.6(13)
Cl11 N1 O1 33.3(11)
O2 N1 O1 124.6(7)
Cl11 N1 C11 146.1(17)
O2 N1 C11 121.4(7)
O1 N1 C11 114.0(8)
Cl11 O1 N1 21.4(5)
N1 O2 Cl11 24.9(4)
C16 C11 C12 121.8(2)
C16 C11 N1 123.6(5)
C12 C11 N1 114.5(5)
C16 C11 Cl11 114.4(2)
C12 C11 Cl11 123.7(2)
N1 C11 Cl11 9.6(5)
C13 C12 C11 118.3(2)
C13 C12 H12A 120.8
C11 C12 H12A 120.8
C12 C13 C14 122.2(3)
C12 C13 H13A 118.9
C14 C13 H13A 118.9
C13 C14 C15 117.5(2)
C13 C14 C17 124.1(2)
C15 C14 C17 118.4(2)
C14 C15 C16 121.5(2)
C14 C15 H15A 119.2
C16 C15 H15A 119.2
C11 C16 C15 118.6(2)
C11 C16 H16A 120.7
C15 C16 H16A 120.7
C7 C17 C14 125.3(3)
C7 C17 H17A 117.3
C14 C17 H17A 117.3
loop_
_geom_bond_atom_site_label_1
_geom_bond_atom_site_label_2
_geom_bond_distance
Cl1 N11 0.559(7)
Cl1 O11 0.840(5)
Cl1 O12 1.327(6)
Cl1 C1 1.870(3)
N11 O12 1.188(10)
N11 O11 1.248(11)
N11 C1 1.380(8)
C1 C6 1.365(3)
C1 C2 1.386(4)
C2 C3 1.370(4)
C2 H2A 0.9300
C3 C4 1.380(3)
C3 H3A 0.9300
C4 C5 1.397(3)
C4 C7 1.474(3)
C5 C6 1.381(3)
C5 H5A 0.9300
C6 H6A 0.9300
C7 C17 1.314(4)
C7 H7A 0.9300
Cl11 N1 0.559(7)
Cl11 O1 0.840(5)
Cl11 O2 1.327(6)
Cl11 C11 1.870(3)
N1 O2 1.188(10)
N1 O1 1.248(11)
N1 C11 1.380(8)
C11 C16 1.365(3)
C11 C12 1.386(4)
C12 C13 1.370(4)
C12 H12A 0.9300
C13 C14 1.380(3)
C13 H13A 0.9300
C14 C15 1.397(3)
C14 C17 1.474(3)
C15 C16 1.381(3)
C15 H15A 0.9300
C16 H16A 0.9300
C17 H17A 0.9300
loop_
_geom_torsion_atom_site_label_1
_geom_torsion_atom_site_label_2
_geom_torsion_atom_site_label_3
_geom_torsion_atom_site_label_4
_geom_torsion
O11 Cl1 N11 O12 172.3(10)
C1 Cl1 N11 O12 -167(3)
O12 Cl1 N11 O11 -172.3(10)
C1 Cl1 N11 O11 20(4)
O11 Cl1 N11 C1 -20(4)
O12 Cl1 N11 C1 167(3)
O12 Cl1 O11 N11 141(5)
C1 Cl1 O11 N11 -8.4(16)
O12 N11 O11 Cl1 -9.4(12)
C1 N11 O11 Cl1 168(2)
O11 N11 O12 Cl1 5.2(7)
C1 N11 O12 Cl1 -172(2)
O11 Cl1 O12 N11 -145(5)
C1 Cl1 O12 N11 5.2(13)
Cl1 N11 C1 C6 17(3)
O12 N11 C1 C6 -177.7(6)
O11 N11 C1 C6 5.0(11)
Cl1 N11 C1 C2 -165(3)
O12 N11 C1 C2 -0.2(10)
O11 N11 C1 C2 -177.5(7)
O12 N11 C1 Cl1 165(4)
O11 N11 C1 Cl1 -12(2)
N11 Cl1 C1 C6 -164(3)
O11 Cl1 C1 C6 -1.3(7)
O12 Cl1 C1 C6 -175.7(3)
N11 Cl1 C1 C2 16(3)
O11 Cl1 C1 C2 179.1(6)
O12 Cl1 C1 C2 4.7(4)
O11 Cl1 C1 N11 163(3)
O12 Cl1 C1 N11 -11(3)
C6 C1 C2 C3 -1.0(4)
N11 C1 C2 C3 -178.6(5)
Cl1 C1 C2 C3 178.5(2)
C1 C2 C3 C4 1.2(3)
C2 C3 C4 C5 -1.3(3)
C2 C3 C4 C7 179.6(2)
C3 C4 C5 C6 1.1(3)
C7 C4 C5 C6 -179.7(2)
C2 C1 C6 C5 0.9(4)
N11 C1 C6 C5 178.2(5)
Cl1 C1 C6 C5 -178.7(2)
C4 C5 C6 C1 -1.0(3)
C3 C4 C7 C17 -4.9(4)
C5 C4 C7 C17 176.0(3)
O1 Cl11 N1 O2 -172.3(10)
C11 Cl11 N1 O2 167(3)
O2 Cl11 N1 O1 172.3(10)
C11 Cl11 N1 O1 -20(4)
O1 Cl11 N1 C11 20(4)
O2 Cl11 N1 C11 -167(3)
O2 Cl11 O1 N1 -141(5)
C11 Cl11 O1 N1 8.4(16)
O2 N1 O1 Cl11 9.4(12)
C11 N1 O1 Cl11 -168(2)
O1 N1 O2 Cl11 -5.2(7)
C11 N1 O2 Cl11 172(2)
O1 Cl11 O2 N1 145(5)
C11 Cl11 O2 N1 -5.2(13)
Cl11 N1 C11 C16 -17(3)
O2 N1 C11 C16 177.7(6)
O1 N1 C11 C16 -5.0(11)
Cl11 N1 C11 C12 165(3)
O2 N1 C11 C12 0.2(10)
O1 N1 C11 C12 177.5(7)
O2 N1 C11 Cl11 -165(4)
O1 N1 C11 Cl11 12(2)
N1 Cl11 C11 C16 164(3)
O1 Cl11 C11 C16 1.3(7)
O2 Cl11 C11 C16 175.7(3)
N1 Cl11 C11 C12 -16(3)
O1 Cl11 C11 C12 -179.1(6)
O2 Cl11 C11 C12 -4.7(4)
O1 Cl11 C11 N1 -163(3)
O2 Cl11 C11 N1 11(3)
C16 C11 C12 C13 1.0(4)
N1 C11 C12 C13 178.6(5)
Cl11 C11 C12 C13 -178.5(2)
C11 C12 C13 C14 -1.2(3)
C12 C13 C14 C15 1.3(3)
C12 C13 C14 C17 -179.6(2)
C13 C14 C15 C16 -1.1(3)
C17 C14 C15 C16 179.7(2)
C12 C11 C16 C15 -0.9(4)
N1 C11 C16 C15 -178.2(5)
Cl11 C11 C16 C15 178.7(2)
C14 C15 C16 C11 1.0(3)
C4 C7 C17 C14 180.0
C13 C14 C17 C7 4.9(4)
C15 C14 C17 C7 -176.0(3)
