#------------------------------------------------------------------------------
#$Date: 2019-11-28 20:16:29 +0200 (Thu, 28 Nov 2019) $
#$Revision: 244501 $
#$URL: file:///home/coder/svn-repositories/cod/cif/7/23/89/7238992.cif $
#------------------------------------------------------------------------------
#
# This file is available in the Crystallography Open Database (COD),
# http://www.crystallography.net/
#
# All data on this site have been placed in the public domain by the
# contributors.
#
data_7238992
loop_
_publ_author_name
'Basu, Arghya'
'Thiyagarajan, Durairaj'
'Kar, Chirantan'
'Ramesh, Aiyagari'
'Das, Gopal'
_publ_section_title
;
 Synthesis, crystal structure and bio-macromolecular interaction studies
 of pyridine-based thiosemicarbazone and its Ni(ii) and Cu(ii) complexes
;
_journal_issue                   33
_journal_name_full               'RSC Advances'
_journal_page_first              14088
_journal_paper_doi               10.1039/c3ra40904j
_journal_volume                  3
_journal_year                    2013
_chemical_formula_sum            'C17 H14 N4 S'
_chemical_formula_weight         306.39
_space_group_IT_number           4
_space_group_name_Hall           'P 2yb'
_space_group_name_H-M_alt        'P 1 21 1'
_symmetry_cell_setting           monoclinic
_symmetry_space_group_name_H-M   'P 1 21 1'
_atom_sites_solution_hydrogens   geom
_atom_sites_solution_primary     direct
_atom_sites_solution_secondary   difmap
_audit_creation_method           SHELXL-97
_cell_angle_alpha                90.00
_cell_angle_beta                 108.293(2)
_cell_angle_gamma                90.00
_cell_formula_units_Z            2
_cell_length_a                   9.5334(4)
_cell_length_b                   6.4275(2)
_cell_length_c                   13.0570(5)
_cell_measurement_reflns_used    5095
_cell_measurement_temperature    298(2)
_cell_measurement_theta_max      28.25
_cell_measurement_theta_min      2.33
_cell_volume                     759.65(5)
_computing_cell_refinement       'Bruker SMART'
_computing_data_collection       'Bruker SMART'
_computing_data_reduction        'Bruker SAINT'
_computing_molecular_graphics    'Bruker SHELXTL'
_computing_publication_material  'Bruker SHELXTL'
_computing_structure_refinement  'SHELXL-97 (Sheldrick, 1997)'
_computing_structure_solution    'SHELXS-97 (Sheldrick, 1990)'
_diffrn_ambient_temperature      298(2)
_diffrn_measured_fraction_theta_full 0.980
_diffrn_measured_fraction_theta_max 0.980
_diffrn_measurement_device_type  'CCD area detector'
_diffrn_measurement_method       'phi and omega scans'
_diffrn_radiation_monochromator  graphite
_diffrn_radiation_source         'fine-focus sealed tube'
_diffrn_radiation_type           MoK\a
_diffrn_radiation_wavelength     0.71073
_diffrn_reflns_av_R_equivalents  0.0786
_diffrn_reflns_av_sigmaI/netI    0.0508
_diffrn_reflns_limit_h_max       12
_diffrn_reflns_limit_h_min       -12
_diffrn_reflns_limit_k_max       8
_diffrn_reflns_limit_k_min       -8
_diffrn_reflns_limit_l_max       17
_diffrn_reflns_limit_l_min       -16
_diffrn_reflns_number            8994
_diffrn_reflns_theta_full        28.39
_diffrn_reflns_theta_max         28.39
_diffrn_reflns_theta_min         1.64
_exptl_absorpt_coefficient_mu    0.214
_exptl_absorpt_correction_T_max  0.954
_exptl_absorpt_correction_T_min  0.942
_exptl_absorpt_correction_type   multi-scan
_exptl_absorpt_process_details   SADBAS
_exptl_crystal_colour            yellow
_exptl_crystal_density_diffrn    1.339
_exptl_crystal_density_method    'not measured'
_exptl_crystal_description       block
_exptl_crystal_F_000             320.0
_exptl_crystal_size_max          0.28
_exptl_crystal_size_mid          0.26
_exptl_crystal_size_min          0.22
_refine_diff_density_max         0.303
_refine_diff_density_min         -0.229
_refine_diff_density_rms         0.043
_refine_ls_abs_structure_details 'Flack H D (1983), Acta Cryst. A39, 876-881'
_refine_ls_abs_structure_Flack   -0.15(7)
_refine_ls_extinction_method     none
_refine_ls_goodness_of_fit_ref   0.909
_refine_ls_matrix_type           full
_refine_ls_number_parameters     207
_refine_ls_number_reflns         3313
_refine_ls_number_restraints     1
_refine_ls_restrained_S_all      0.909
_refine_ls_R_factor_all          0.0479
_refine_ls_R_factor_gt           0.0444
_refine_ls_shift/su_max          0.000
_refine_ls_shift/su_mean         0.000
_refine_ls_structure_factor_coef Fsqd
_refine_ls_weighting_details
'calc w=1/[\s^2^(Fo^2^)+(0.1000P)^2^+0.0000P] where P=(Fo^2^+2Fc^2^)/3'
_refine_ls_weighting_scheme      calc
_refine_ls_wR_factor_gt          0.1197
_refine_ls_wR_factor_ref         0.1237
_reflns_number_gt                2999
_reflns_number_total             3313
_reflns_threshold_expression     >2sigma(I)
_cod_data_source_file            c3ra40904j.txt
_cod_data_source_block           LH
_cod_depositor_comments
;
The following automatic conversions were performed:

data item '_symmetry_cell_setting' value 'Monoclinic' was changed to
'monoclinic' in accordance with the
/home/saulius/struct/COD-crude-data/automatic-downloads/DataCite-retrospective/RSC/depositions/lib/dictionaries/cif_core.dic
dictionary named 'cif_core.dic' version 2.4.2 last updated on
2011-04-26.

Automatic conversion script
Id: cif_fix_values 6909 2019-04-08 15:41:33Z antanas 
;
_cod_original_sg_symbol_H-M      ' P 21'
_cod_database_code               7238992
loop_
_symmetry_equiv_pos_as_xyz
'x, y, z'
'-x, y+1/2, -z'
loop_
_atom_site_label
_atom_site_type_symbol
_atom_site_fract_x
_atom_site_fract_y
_atom_site_fract_z
_atom_site_U_iso_or_equiv
_atom_site_adp_type
_atom_site_occupancy
_atom_site_symmetry_multiplicity
_atom_site_calc_flag
_atom_site_refinement_flags
S1 S 0.24386(6) 1.00184(9) 0.80265(4) 0.05517(18) Uani 1 1 d .
C1 C 0.3735(2) 1.0183(3) 0.61242(14) 0.0405(4) Uani 1 1 d .
C8 C 0.1584(3) 0.8057(4) 0.50504(18) 0.0502(5) Uani 1 1 d .
H8 H 0.1824 0.6992 0.5558 0.060 Uiso 1 1 calc R
C2 C 0.4559(2) 1.1952(4) 0.62281(17) 0.0502(5) Uani 1 1 d .
H2 H 0.5371 1.2140 0.6841 0.060 Uiso 1 1 calc R
C3 C 0.4204(3) 1.3483(3) 0.54327(18) 0.0532(5) Uani 1 1 d .
H3 H 0.4785 1.4672 0.5514 0.064 Uiso 1 1 calc R
C4 C 0.3005(3) 1.3244(3) 0.45333(17) 0.0496(5) Uani 1 1 d .
H4 H 0.2775 1.4274 0.4006 0.059 Uiso 1 1 calc R
C5 C 0.0827(2) 1.1194(4) 0.34938(18) 0.0550(5) Uani 1 1 d .
H5 H 0.0563 1.2226 0.2969 0.066 Uiso 1 1 calc R
C6 C -0.0021(3) 0.9467(5) 0.3386(2) 0.0642(7) Uani 1 1 d .
H6 H -0.0867 0.9331 0.2794 0.077 Uiso 1 1 calc R
C7 C 0.0367(3) 0.7889(5) 0.4160(2) 0.0624(6) Uani 1 1 d .
H7 H -0.0215 0.6700 0.4067 0.075 Uiso 1 1 calc R
C9 C 0.2483(2) 0.9868(3) 0.51996(14) 0.0377(4) Uani 1 1 d .
C10 C 0.2113(2) 1.1447(3) 0.43963(15) 0.0409(4) Uani 1 1 d .
C13 C 0.6878(2) 0.2609(3) 0.90540(14) 0.0364(4) Uani 1 1 d .
C12 C 0.5697(2) 0.4087(3) 0.90353(15) 0.0403(4) Uani 1 1 d .
H12 H 0.5206 0.3952 0.9545 0.048 Uiso 1 1 calc R
C11 C 0.3666(2) 0.8410(3) 0.77744(14) 0.0400(4) Uani 1 1 d .
C14 C 0.7820(2) 0.2837(3) 0.84291(16) 0.0450(4) Uani 1 1 d .
H14 H 0.7751 0.3994 0.7989 0.054 Uiso 1 1 calc R
C17 C 0.7986(3) -0.0464(4) 0.97591(18) 0.0566(6) Uani 1 1 d .
H17 H 0.8055 -0.1593 1.0218 0.068 Uiso 1 1 calc R
C15 C 0.8850(2) 0.1310(4) 0.84812(18) 0.0537(5) Uani 1 1 d .
H15 H 0.9482 0.1419 0.8067 0.064 Uiso 1 1 calc R
C16 C 0.8944(3) -0.0376(4) 0.91464(19) 0.0592(6) Uani 1 1 d .
H16 H 0.9628 -0.1429 0.9186 0.071 Uiso 1 1 calc R
N3 N 0.53220(17) 0.5555(3) 0.83424(12) 0.0384(3) Uani 1 1 d .
N4 N 0.69745(19) 0.0987(3) 0.97203(14) 0.0454(4) Uani 1 1 d .
N2 N 0.41989(19) 0.6798(3) 0.84469(13) 0.0431(4) Uani 1 1 d .
N1 N 0.4185(2) 0.8600(3) 0.69286(13) 0.0501(5) Uani 1 1 d .
H2N H 0.389(2) 0.664(4) 0.8960(19) 0.039(6) Uiso 1 1 d .
H1N H 0.474(4) 0.758(6) 0.692(3) 0.101(13) Uiso 1 1 d .
loop_
_atom_site_aniso_label
_atom_site_aniso_U_11
_atom_site_aniso_U_22
_atom_site_aniso_U_33
_atom_site_aniso_U_23
_atom_site_aniso_U_13
_atom_site_aniso_U_12
S1 0.0549(3) 0.0667(3) 0.0478(3) 0.0080(2) 0.0216(2) 0.0272(3)
C1 0.0436(10) 0.0467(9) 0.0341(8) 0.0030(8) 0.0164(7) 0.0101(8)
C8 0.0541(12) 0.0499(10) 0.0528(11) -0.0003(9) 0.0256(9) -0.0048(9)
C2 0.0507(12) 0.0592(12) 0.0401(10) -0.0105(9) 0.0136(8) -0.0045(10)
C3 0.0633(14) 0.0456(11) 0.0563(12) -0.0071(10) 0.0267(10) -0.0111(10)
C4 0.0629(13) 0.0429(9) 0.0478(10) 0.0066(9) 0.0245(10) 0.0047(9)
C5 0.0514(12) 0.0715(14) 0.0396(10) 0.0057(10) 0.0107(9) 0.0119(11)
C6 0.0416(11) 0.095(2) 0.0522(12) -0.0143(13) 0.0093(9) -0.0010(12)
C7 0.0513(12) 0.0750(16) 0.0661(14) -0.0172(13) 0.0259(11) -0.0208(12)
C9 0.0395(9) 0.0407(9) 0.0370(8) 0.0035(7) 0.0180(7) 0.0058(7)
C10 0.0431(10) 0.0472(10) 0.0350(8) 0.0038(8) 0.0159(7) 0.0074(8)
C13 0.0342(9) 0.0438(9) 0.0305(8) 0.0001(7) 0.0092(6) 0.0035(7)
C12 0.0411(9) 0.0469(9) 0.0352(8) 0.0032(8) 0.0150(7) 0.0062(8)
C11 0.0374(9) 0.0501(10) 0.0307(8) 0.0011(8) 0.0081(6) 0.0081(8)
C14 0.0373(9) 0.0574(12) 0.0405(9) 0.0076(8) 0.0125(7) 0.0025(8)
C17 0.0636(13) 0.0558(13) 0.0521(12) 0.0125(10) 0.0206(10) 0.0186(11)
C15 0.0429(11) 0.0736(15) 0.0484(11) 0.0011(11) 0.0200(9) 0.0104(10)
C16 0.0540(12) 0.0655(15) 0.0602(13) 0.0012(10) 0.0207(10) 0.0215(11)
N3 0.0372(8) 0.0440(8) 0.0343(7) 0.0009(6) 0.0115(6) 0.0074(6)
N4 0.0469(9) 0.0497(9) 0.0430(9) 0.0078(7) 0.0189(7) 0.0085(7)
N2 0.0470(9) 0.0511(9) 0.0347(7) 0.0066(7) 0.0180(7) 0.0151(7)
N1 0.0580(11) 0.0590(11) 0.0380(8) 0.0107(8) 0.0221(7) 0.0243(9)
loop_
_atom_type_symbol
_atom_type_description
_atom_type_scat_dispersion_real
_atom_type_scat_dispersion_imag
_atom_type_scat_source
C C 0.0033 0.0016 'International Tables Vol C Tables 4.2.6.8 and 6.1.1.4'
H H 0.0000 0.0000 'International Tables Vol C Tables 4.2.6.8 and 6.1.1.4'
N N 0.0061 0.0033 'International Tables Vol C Tables 4.2.6.8 and 6.1.1.4'
S S 0.1246 0.1234 'International Tables Vol C Tables 4.2.6.8 and 6.1.1.4'
loop_
_geom_angle_atom_site_label_1
_geom_angle_atom_site_label_2
_geom_angle_atom_site_label_3
_geom_angle
C2 C1 C9 120.45(18)
C2 C1 N1 119.36(18)
C9 C1 N1 120.12(19)
C7 C8 C9 119.7(2)
C1 C2 C3 121.14(18)
C4 C3 C2 120.2(2)
C3 C4 C10 120.6(2)
C6 C5 C10 120.8(2)
C5 C6 C7 120.4(2)
C8 C7 C6 121.3(2)
C1 C9 C10 118.22(18)
C1 C9 C8 122.84(18)
C10 C9 C8 118.94(17)
C4 C10 C5 121.91(18)
C4 C10 C9 119.35(18)
C5 C10 C9 118.71(18)
N4 C13 C14 122.30(17)
N4 C13 C12 114.18(16)
C14 C13 C12 123.52(17)
N3 C12 C13 122.18(17)
N2 C11 N1 116.23(17)
N2 C11 S1 119.40(14)
N1 C11 S1 124.37(15)
C15 C14 C13 118.42(18)
N4 C17 C16 123.2(2)
C16 C15 C14 119.86(19)
C15 C16 C17 118.1(2)
C12 N3 N2 114.33(15)
C17 N4 C13 118.06(16)
C11 N2 N3 121.77(16)
C11 N1 C1 124.32(16)
loop_
_geom_bond_atom_site_label_1
_geom_bond_atom_site_label_2
_geom_bond_distance
S1 C11 1.6699(19)
C1 C2 1.364(3)
C1 C9 1.421(3)
C1 N1 1.428(2)
C8 C7 1.364(3)
C8 C9 1.422(3)
C2 C3 1.393(3)
C3 C4 1.366(3)
C4 C10 1.412(3)
C5 C6 1.354(4)
C5 C10 1.418(3)
C6 C7 1.397(4)
C9 C10 1.422(3)
C13 N4 1.342(2)
C13 C14 1.397(3)
C13 C12 1.468(2)
C12 N3 1.278(2)
C11 N2 1.350(2)
C11 N1 1.350(2)
C14 C15 1.375(3)
C17 N4 1.331(3)
C17 C16 1.391(3)
C15 C16 1.374(3)
N3 N2 1.377(2)
