#------------------------------------------------------------------------------
#$Date: 2019-11-28 16:11:22 +0200 (Thu, 28 Nov 2019) $
#$Revision: 244087 $
#$URL: file:///home/coder/svn-repositories/cod/cif/7/23/81/7238181.cif $
#------------------------------------------------------------------------------
#
# This file is available in the Crystallography Open Database (COD),
# http://www.crystallography.net/
#
# All data on this site have been placed in the public domain by the
# contributors.
#
data_7238181
loop_
_publ_author_name
'Behrnd, Norwid-Rasmus'
'Labat, Ga\"el'
'Venugopalan, Paloth'
'Hulliger, J\"urg'
'B\"urgi, Hans-Beat'
_publ_section_title
;
 Influence of the solvent of crystallization on the orientational disorder
 of (trans)-4-chloro-4&#x2032;-nitrostilbene
;
_journal_issue                   12
_journal_name_full               CrystEngComm
_journal_page_first              4101
_journal_paper_doi               10.1039/b926652f
_journal_volume                  12
_journal_year                    2010
_chemical_formula_moiety         'C14 H10 Cl N O2'
_chemical_formula_sum            'C14 H10 Cl N O2'
_chemical_formula_weight         259.68
_space_group_IT_number           4
_space_group_name_Hall           'P 2ybc'
_space_group_name_H-M_alt        'P 1 21 1 (a,b,c-1/4)'
_symmetry_cell_setting           monoclinic
_symmetry_space_group_name_Hall  'P 2ybc'
_symmetry_space_group_name_H-M   'P 1 21 1 (a,b,c-1/4)'
_atom_sites_solution_hydrogens   geom
_atom_sites_solution_primary     direct
_atom_sites_solution_secondary   difmap
_audit_creation_method           SHELXL-97
_cell_angle_alpha                90.00
_cell_angle_beta                 92.999(2)
_cell_angle_gamma                90.00
_cell_formula_units_Z            2
_cell_length_a                   3.91649(10)
_cell_length_b                   12.9357(3)
_cell_length_c                   12.3004(3)
_cell_measurement_reflns_used    5704
_cell_measurement_temperature    293(2)
_cell_measurement_theta_max      31.7955
_cell_measurement_theta_min      4.7197
_cell_volume                     622.32(3)
_computing_cell_refinement       'SAINT (Bruker, 2003)'
_computing_data_collection       'SMART (Bruker, 1997)'
_computing_data_reduction        'SHELXTL (Bruker, 2000)'
_computing_molecular_graphics    'PLATON (Spek, 2003)'
_computing_publication_material  SHELXL-97
_computing_structure_refinement  'SHELXL-97 (Sheldrick, 1997)'
_computing_structure_solution    'SHELXS-97 (Sheldrick, 1990)'
_diffrn_ambient_temperature      293(2)
_diffrn_detector_area_resol_mean 8.2896
_diffrn_measured_fraction_theta_full 0.993
_diffrn_measured_fraction_theta_max 0.993
_diffrn_measurement_device_type  'Kuma 6-circle'
_diffrn_measurement_method       'omega scan method'
_diffrn_radiation_monochromator  synchrotron
_diffrn_radiation_source         synchrotron
_diffrn_radiation_type           synchrotron
_diffrn_radiation_wavelength     0.7100
_diffrn_reflns_av_R_equivalents  0.0407
_diffrn_reflns_av_sigmaI/netI    0.0421
_diffrn_reflns_limit_h_max       4
_diffrn_reflns_limit_h_min       -4
_diffrn_reflns_limit_k_max       15
_diffrn_reflns_limit_k_min       -16
_diffrn_reflns_limit_l_max       15
_diffrn_reflns_limit_l_min       -15
_diffrn_reflns_number            8093
_diffrn_reflns_theta_full        26.42
_diffrn_reflns_theta_max         26.42
_diffrn_reflns_theta_min         3.56
_diffrn_standards_decay_%        0
_diffrn_standards_interval_time  0
_exptl_absorpt_coefficient_mu    0.299
_exptl_absorpt_correction_T_max  1
_exptl_absorpt_correction_T_min  0.871457
_exptl_absorpt_correction_type   multi-scan
_exptl_absorpt_process_details   'SADABS (Bruker, 2004)'
_exptl_crystal_colour            yellow
_exptl_crystal_density_diffrn    1.386
_exptl_crystal_density_method    'not measured'
_exptl_crystal_description       'prismatic rod'
_exptl_crystal_F_000             268
_exptl_crystal_size_max          0.30
_exptl_crystal_size_mid          0.20
_exptl_crystal_size_min          0.10
_refine_diff_density_max         0.174
_refine_diff_density_min         -0.153
_refine_diff_density_rms         0.034
_refine_ls_abs_structure_details 'Flack H D (1983), Acta Cryst. A39, 876-881'
_refine_ls_abs_structure_Flack   0.1(2)
_refine_ls_extinction_method     none
_refine_ls_goodness_of_fit_ref   1.025
_refine_ls_hydrogen_treatment    constr
_refine_ls_matrix_type           full
_refine_ls_number_parameters     101
_refine_ls_number_reflns         2494
_refine_ls_number_restraints     1
_refine_ls_restrained_S_all      1.025
_refine_ls_R_factor_all          0.0718
_refine_ls_R_factor_gt           0.0550
_refine_ls_shift/su_max          0.000
_refine_ls_shift/su_mean         0.000
_refine_ls_structure_factor_coef Fsqd
_refine_ls_weighting_details
'calc w=1/[\s^2^(Fo^2^)+(0.1173P)^2^+0.0134P] where P=(Fo^2^+2Fc^2^)/3'
_refine_ls_weighting_scheme      calc
_refine_ls_wR_factor_gt          0.1777
_refine_ls_wR_factor_ref         0.2016
_reflns_number_gt                1669
_reflns_number_total             2494
_reflns_threshold_expression     I>2sigma(I)
_cod_data_source_file            b926652f.txt
_cod_data_source_block           CNS-NO2BzII-small-P21
_cod_original_sg_symbol_Hall     P2yb
_cod_original_sg_symbol_H-M      P21
_cod_database_code               7238181
loop_
_symmetry_equiv_pos_as_xyz
'x, y, z'
'-x, y+1/2, -z+1/2'
loop_
_atom_site_label
_atom_site_type_symbol
_atom_site_fract_x
_atom_site_fract_y
_atom_site_fract_z
_atom_site_U_iso_or_equiv
_atom_site_adp_type
_atom_site_occupancy
_atom_site_symmetry_multiplicity
_atom_site_calc_flag
_atom_site_refinement_flags
Cl1 Cl 0.3725(10) -0.4614(2) -0.1773(3) 0.1360(7) Uani 0.479(2) 1 d P
N11 N 0.3633(18) -0.4155(5) -0.1715(5) 0.0930(9) Uani 0.521(2) 1 d P
O11 O 0.3115(17) -0.4979(4) -0.1250(4) 0.1491(14) Uani 0.521(2) 1 d P
O12 O 0.5029(12) -0.4107(3) -0.2611(3) 0.1241(8) Uani 0.521(2) 1 d P
C1 C 0.2612(6) -0.3292(2) -0.12345(18) 0.0867(4) Uani 1 1 d .
C2 C 0.3136(6) -0.2383(2) -0.17921(18) 0.0922(4) Uani 1 1 d .
H2A H 0.4101 -0.2392 -0.2467 0.111 Uiso 1 1 calc R
C3 C 0.2212(3) -0.14773(10) -0.13350(11) 0.0914(4) Uani 1 1 d .
H3A H 0.2553 -0.0863 -0.1707 0.110 Uiso 1 1 calc R
C4 C 0.0774(3) -0.14418(8) -0.03289(10) 0.0809(4) Uani 1 1 d .
C5 C 0.0273(3) -0.23776(9) 0.02099(9) 0.0866(4) Uani 1 1 d .
H5A H -0.0702 -0.2372 0.0883 0.104 Uiso 1 1 calc R
C6 C 0.1193(3) -0.33085(9) -0.02354(10) 0.0881(4) Uani 1 1 d .
H6A H 0.0865 -0.3928 0.0128 0.106 Uiso 1 1 calc R
C7 C -0.0245(2) -0.04736(6) 0.01819(7) 0.0890(4) Uani 1 1 d .
H7 H -0.1352 -0.0532 0.0830 0.107 Uiso 1 1 calc R
Cl11 Cl -0.3715(2) 0.46139(6) 0.17685(7) 0.1360(7) Uani 0.521(2) 1 d PR
N1 N -0.3627(2) 0.41508(6) 0.17161(7) 0.0930(9) Uani 0.479(2) 1 d PR
O1 O -0.3195(2) 0.49906(6) 0.12473(7) 0.1491(14) Uani 0.479(2) 1 d PR
O2 O -0.5030(2) 0.41051(6) 0.26119(7) 0.1241(8) Uani 0.479(2) 1 d PR
C11 C -0.2624(2) 0.32905(6) 0.12347(7) 0.0867(4) Uani 1 1 d R
C12 C -0.3142(2) 0.23855(6) 0.17891(7) 0.0922(4) Uani 1 1 d R
H12A H -0.4111 0.2395 0.2463 0.111 Uiso 1 1 calc R
C13 C -0.2212(3) 0.14773(10) 0.13350(11) 0.0914(4) Uani 1 1 d .
H13A H -0.2549 0.0864 0.1708 0.110 Uiso 1 1 calc R
C14 C -0.0774(3) 0.14418(8) 0.03289(10) 0.0809(4) Uani 1 1 d .
C15 C -0.0273(3) 0.23776(9) -0.02099(9) 0.0866(4) Uani 1 1 d .
H15A H 0.0702 0.2372 -0.0883 0.104 Uiso 1 1 calc R
C16 C -0.1193(3) 0.33085(9) 0.02354(10) 0.0881(4) Uani 1 1 d .
H16A H -0.0859 0.3928 -0.0127 0.106 Uiso 1 1 calc R
C17 C 0.0245(2) 0.04736(6) -0.01819(7) 0.0890(4) Uani 1 1 d .
H17 H 0.1352 0.0532 -0.0830 0.107 Uiso 1 1 calc R
loop_
_atom_site_aniso_label
_atom_site_aniso_U_11
_atom_site_aniso_U_22
_atom_site_aniso_U_33
_atom_site_aniso_U_23
_atom_site_aniso_U_13
_atom_site_aniso_U_12
Cl1 0.1262(8) 0.1222(13) 0.1595(13) -0.0600(12) 0.0055(8) 0.0261(9)
N11 0.0867(16) 0.094(2) 0.098(2) -0.0178(15) -0.0009(13) 0.0109(16)
O11 0.184(3) 0.0895(16) 0.178(3) 0.0152(16) 0.050(2) 0.0152(15)
O12 0.1564(19) 0.1154(16) 0.1041(13) -0.0240(11) 0.0412(13) 0.0212(12)
C1 0.0700(7) 0.1011(9) 0.0888(8) -0.0136(6) 0.0018(5) 0.0056(5)
C2 0.0801(8) 0.1146(10) 0.0825(8) 0.0012(6) 0.0107(6) -0.0022(6)
C3 0.0844(8) 0.0974(8) 0.0929(8) 0.0096(6) 0.0094(6) -0.0046(6)
C4 0.0667(6) 0.0874(7) 0.0885(7) -0.0042(5) 0.0025(5) -0.0016(5)
C5 0.0784(7) 0.1012(9) 0.0811(7) 0.0001(5) 0.0118(6) 0.0010(5)
C6 0.0846(8) 0.0864(8) 0.0937(8) 0.0025(5) 0.0077(6) 0.0010(5)
C7 0.0764(7) 0.1000(9) 0.0913(8) 0.0038(6) 0.0098(6) -0.0042(6)
Cl11 0.1262(8) 0.1222(13) 0.1595(13) -0.0600(12) 0.0055(8) 0.0261(9)
N1 0.0867(16) 0.094(2) 0.098(2) -0.0178(15) -0.0009(13) 0.0109(16)
O1 0.184(3) 0.0895(16) 0.178(3) 0.0152(16) 0.050(2) 0.0152(15)
O2 0.1564(19) 0.1154(16) 0.1041(13) -0.0240(11) 0.0412(13) 0.0212(12)
C11 0.0700(7) 0.1011(9) 0.0888(8) -0.0136(6) 0.0018(5) 0.0056(5)
C12 0.0801(8) 0.1146(10) 0.0825(8) 0.0012(6) 0.0107(6) -0.0022(6)
C13 0.0844(8) 0.0974(8) 0.0929(8) 0.0096(6) 0.0094(6) -0.0046(6)
C14 0.0667(6) 0.0874(7) 0.0885(7) -0.0042(5) 0.0025(5) -0.0016(5)
C15 0.0784(7) 0.1012(9) 0.0811(7) 0.0001(5) 0.0118(6) 0.0010(5)
C16 0.0846(8) 0.0864(8) 0.0937(8) 0.0025(5) 0.0077(6) 0.0010(5)
C17 0.0764(7) 0.1000(9) 0.0913(8) 0.0038(6) 0.0098(6) -0.0042(6)
loop_
_atom_type_symbol
_atom_type_description
_atom_type_scat_dispersion_real
_atom_type_scat_dispersion_imag
_atom_type_scat_source
C C 0.0033 0.0016 'International Tables Vol C Tables 4.2.6.8 and 6.1.1.4'
H H 0.0000 0.0000 'International Tables Vol C Tables 4.2.6.8 and 6.1.1.4'
N N 0.0061 0.0033 'International Tables Vol C Tables 4.2.6.8 and 6.1.1.4'
O O 0.0106 0.0060 'International Tables Vol C Tables 4.2.6.8 and 6.1.1.4'
Cl Cl 0.1484 0.1585 'International Tables Vol C Tables 4.2.6.8 and 6.1.1.4'
loop_
_geom_angle_atom_site_label_1
_geom_angle_atom_site_label_2
_geom_angle_atom_site_label_3
_geom_angle
N11 Cl1 O11 116.3(13)
N11 Cl1 O12 68.7(11)
O11 Cl1 O12 173.1(6)
N11 Cl1 C1 17.6(9)
O11 Cl1 C1 99.2(6)
O12 Cl1 C1 86.1(3)
Cl1 N11 O11 37.9(10)
Cl1 N11 O12 85.0(10)
O11 N11 O12 122.7(6)
Cl1 N11 C1 154.6(14)
O11 N11 C1 117.3(6)
O12 N11 C1 120.1(6)
Cl1 O11 N11 25.9(4)
N11 O12 Cl1 26.3(3)
N11 C1 C2 115.9(4)
N11 C1 C6 121.8(4)
C2 C1 C6 122.3(2)
N11 C1 Cl1 7.8(4)
C2 C1 Cl1 123.5(2)
C6 C1 Cl1 114.2(2)
C3 C2 C1 118.63(18)
C3 C2 H2A 120.7
C1 C2 H2A 120.7
C2 C3 C4 121.86(14)
C2 C3 H3A 119.1
C4 C3 H3A 119.1
C3 C4 C5 117.88(10)
C3 C4 C7 122.90(11)
C5 C4 C7 119.22(10)
C6 C5 C4 121.44(11)
C6 C5 H5A 119.3
C4 C5 H5A 119.3
C5 C6 C1 117.88(14)
C5 C6 H6A 121.1
C1 C6 H6A 121.1
C17 C7 C4 126.81(10)
C17 C7 H7 116.6
C4 C7 H7 116.6
N1 Cl11 O1 118.5
N1 Cl11 O2 68.0
O1 Cl11 O2 170.4
N1 Cl11 C11 18.0
O1 Cl11 C11 101.1
O2 Cl11 C11 85.9
Cl11 N1 O1 36.3
Cl11 N1 O2 85.6
O1 N1 O2 121.5
Cl11 N1 C11 153.9
O1 N1 C11 118.3
O2 N1 C11 120.2
Cl11 O1 N1 25.2
N1 O2 Cl11 26.4
N1 C11 C12 115.9
N1 C11 C16 121.8
C12 C11 C16 122.3
N1 C11 Cl11 8.1
C12 C11 Cl11 123.8
C16 C11 Cl11 113.9
C13 C12 C11 118.86(6)
C13 C12 H12A 120.6
C11 C12 H12A 120.6
C12 C13 C14 121.71(11)
C12 C13 H13A 119.1
C14 C13 H13A 119.1
C13 C14 C15 117.88(10)
C13 C14 C17 122.90(11)
C15 C14 C17 119.22(10)
C16 C15 C14 121.44(11)
C16 C15 H15A 119.3
C14 C15 H15A 119.3
C15 C16 C11 117.83(9)
C15 C16 H16A 121.1
C11 C16 H16A 121.1
C7 C17 C14 126.81(10)
C7 C17 H17 116.6
C14 C17 H17 116.6
loop_
_geom_bond_atom_site_label_1
_geom_bond_atom_site_label_2
_geom_bond_distance
Cl1 N11 0.599(6)
Cl1 O11 0.842(5)
Cl1 O12 1.345(6)
Cl1 C1 1.894(3)
N11 O11 1.231(10)
N11 O12 1.257(8)
N11 C1 1.335(6)
C1 C2 1.381(3)
C1 C6 1.375(3)
C2 C3 1.357(3)
C2 H2A 0.9300
C3 C4 1.3870(18)
C3 H3A 0.9300
C4 C5 1.3989(16)
C4 C7 1.4659(14)
C5 C6 1.3786(17)
C5 H5A 0.9300
C6 H6A 0.9300
C7 C17 1.3218(16)
C7 H7 0.9300
Cl11 N1 0.6038
Cl11 O1 0.8387
Cl11 O2 1.3530
Cl11 C11 1.8905
N1 O1 1.2456
N1 O2 1.2582
N1 C11 1.3295
C11 C12 1.3752
C11 C16 1.3775(15)
C12 C13 1.3587(14)
C12 H12A 0.9300
C13 C14 1.3870(18)
C13 H13A 0.9300
C14 C15 1.3989(16)
C14 C17 1.4659(14)
C15 C16 1.3786(17)
C15 H15A 0.9300
C16 H16A 0.9300
C17 H17 0.9300
loop_
_geom_torsion_atom_site_label_1
_geom_torsion_atom_site_label_2
_geom_torsion_atom_site_label_3
_geom_torsion_atom_site_label_4
_geom_torsion
O12 Cl1 N11 O11 -174.7(8)
C1 Cl1 N11 O11 15(3)
O11 Cl1 N11 O12 174.7(8)
C1 Cl1 N11 O12 -171(3)
O11 Cl1 N11 C1 -15(3)
O12 Cl1 N11 C1 171(3)
O12 Cl1 O11 N11 134(6)
C1 Cl1 O11 N11 -4.4(11)
O12 N11 O11 Cl1 -6.3(10)
C1 N11 O11 Cl1 173.0(17)
O11 N11 O12 Cl1 3.9(6)
C1 N11 O12 Cl1 -175.4(15)
O11 Cl1 O12 N11 -136(6)
C1 Cl1 O12 N11 2.8(9)
Cl1 N11 C1 C2 -168(3)
O11 N11 C1 C2 -178.1(6)
O12 N11 C1 C2 1.2(8)
Cl1 N11 C1 C6 13(3)
O11 N11 C1 C6 3.2(9)
O12 N11 C1 C6 -177.5(4)
O11 N11 C1 Cl1 -10(2)
O12 N11 C1 Cl1 169(3)
O11 Cl1 C1 N11 167(3)
O12 Cl1 C1 N11 -9(3)
N11 Cl1 C1 C2 13(3)
O11 Cl1 C1 C2 179.6(6)
O12 Cl1 C1 C2 4.2(3)
N11 Cl1 C1 C6 -168(3)
O11 Cl1 C1 C6 -1.0(6)
O12 Cl1 C1 C6 -176.4(3)
N11 C1 C2 C3 -178.7(4)
C6 C1 C2 C3 0.0(3)
Cl1 C1 C2 C3 179.34(19)
C1 C2 C3 C4 0.1(3)
C2 C3 C4 C5 -0.3(2)
C2 C3 C4 C7 -179.99(14)
C3 C4 C5 C6 0.43(19)
C7 C4 C5 C6 -179.89(10)
C4 C5 C6 C1 -0.3(2)
N11 C1 C6 C5 178.8(4)
C2 C1 C6 C5 0.1(3)
Cl1 C1 C6 C5 -179.30(16)
C3 C4 C7 C17 -4.94(19)
C5 C4 C7 C17 175.40(11)
O2 Cl11 N1 O1 172.2
C11 Cl11 N1 O1 -15.7
O1 Cl11 N1 O2 -172.2
C11 Cl11 N1 O2 172.0
O1 Cl11 N1 C11 15.7
O2 Cl11 N1 C11 -172.0
O2 Cl11 O1 N1 -131.0
C11 Cl11 O1 N1 4.9
O2 N1 O1 Cl11 9.1
C11 N1 O1 Cl11 -172.2
O1 N1 O2 Cl11 -5.4
C11 N1 O2 Cl11 176.0
O1 Cl11 O2 N1 134.3
C11 Cl11 O2 N1 -2.5
Cl11 N1 C11 C12 169.1
O1 N1 C11 C12 179.6
O2 N1 C11 C12 -1.7
Cl11 N1 C11 C16 -11.59(7)
O1 N1 C11 C16 -1.09(7)
O2 N1 C11 C16 177.60(7)
O1 N1 C11 Cl11 10.5
O2 N1 C11 Cl11 -170.8
O1 Cl11 C11 N1 -165.9
O2 Cl11 C11 N1 7.4
N1 Cl11 C11 C12 -11.8
O1 Cl11 C11 C12 -177.7
O2 Cl11 C11 C12 -4.4
N1 Cl11 C11 C16 169.24(7)
O1 Cl11 C11 C16 3.30(7)
O2 Cl11 C11 C16 176.63(7)
N1 C11 C12 C13 179.19(7)
C16 C11 C12 C13 -0.06(10)
Cl11 C11 C12 C13 -178.98(7)
C11 C12 C13 C14 -0.26(15)
C12 C13 C14 C15 0.50(19)
C12 C13 C14 C17 -179.84(8)
C13 C14 C15 C16 -0.43(19)
C17 C14 C15 C16 179.89(10)
C14 C15 C16 C11 0.13(18)
N1 C11 C16 C15 -179.09(8)
C12 C11 C16 C15 0.13(14)
Cl11 C11 C16 C15 179.14(9)
C4 C7 C17 C14 180.0
C13 C14 C17 C7 4.94(19)
C15 C14 C17 C7 -175.40(11)
