#------------------------------------------------------------------------------
#$Date: 2019-11-28 16:11:22 +0200 (Thu, 28 Nov 2019) $
#$Revision: 244087 $
#$URL: file:///home/coder/svn-repositories/cod/cif/7/23/82/7238200.cif $
#------------------------------------------------------------------------------
#
# This file is available in the Crystallography Open Database (COD),
# http://www.crystallography.net/
#
# All data on this site have been placed in the public domain by the
# contributors.
#
data_7238200
loop_
_publ_author_name
'Behrnd, Norwid-Rasmus'
'Labat, Ga\"el'
'Venugopalan, Paloth'
'Hulliger, J\"urg'
'B\"urgi, Hans-Beat'
_publ_section_title
;
 Influence of the solvent of crystallization on the orientational disorder
 of (trans)-4-chloro-4&#x2032;-nitrostilbene
;
_journal_issue                   12
_journal_name_full               CrystEngComm
_journal_page_first              4101
_journal_paper_doi               10.1039/b926652f
_journal_volume                  12
_journal_year                    2010
_chemical_formula_moiety         'C14 H10 Cl N O2'
_chemical_formula_sum            'C14 H10 Cl N O2'
_chemical_formula_weight         259.68
_space_group_IT_number           4
_space_group_name_Hall           'P 2ybc'
_space_group_name_H-M_alt        'P 1 21 1 (a,b,c-1/4)'
_symmetry_cell_setting           monoclinic
_symmetry_space_group_name_Hall  'P 2ybc'
_symmetry_space_group_name_H-M   'P 1 21 1 (a,b,c-1/4)'
_atom_sites_solution_hydrogens   geom
_atom_sites_solution_primary     direct
_atom_sites_solution_secondary   difmap
_audit_creation_method           SHELXL-97
_cell_angle_alpha                90.00
_cell_angle_beta                 93.1916(12)
_cell_angle_gamma                90.00
_cell_formula_units_Z            2
_cell_length_a                   3.91514(5)
_cell_length_b                   12.96036(16)
_cell_length_c                   12.22634(16)
_cell_measurement_reflns_used    5653
_cell_measurement_temperature    293(2)
_cell_measurement_theta_max      31.8015
_cell_measurement_theta_min      4.7099
_cell_volume                     619.422(14)
_computing_cell_refinement       'SAINT (Bruker, 2003)'
_computing_data_collection       'SMART (Bruker, 1997)'
_computing_data_reduction        'SHELXTL (Bruker, 2000)'
_computing_molecular_graphics    'PLATON (Spek, 2003)'
_computing_publication_material  SHELXL-97
_computing_structure_refinement  'SHELXL-97 (Sheldrick, 1997)'
_computing_structure_solution    'SHELXS-97 (Sheldrick, 1990)'
_diffrn_ambient_temperature      293(2)
_diffrn_detector_area_resol_mean 8.2896
_diffrn_measured_fraction_theta_full 0.946
_diffrn_measured_fraction_theta_max 0.946
_diffrn_measurement_device_type  'Kuma 6-circle'
_diffrn_measurement_method       'omega scan method'
_diffrn_radiation_monochromator  synchrotron
_diffrn_radiation_source         synchrotron
_diffrn_radiation_type           synchrotron
_diffrn_radiation_wavelength     0.7100
_diffrn_reflns_av_R_equivalents  0.0321
_diffrn_reflns_av_sigmaI/netI    0.0333
_diffrn_reflns_limit_h_max       4
_diffrn_reflns_limit_h_min       -4
_diffrn_reflns_limit_k_max       16
_diffrn_reflns_limit_k_min       -16
_diffrn_reflns_limit_l_max       15
_diffrn_reflns_limit_l_min       -15
_diffrn_reflns_number            8011
_diffrn_reflns_theta_full        26.41
_diffrn_reflns_theta_max         26.41
_diffrn_reflns_theta_min         4.59
_diffrn_standards_decay_%        0
_diffrn_standards_interval_time  0
_exptl_absorpt_coefficient_mu    0.300
_exptl_absorpt_correction_T_max  1
_exptl_absorpt_correction_T_min  0.865659
_exptl_absorpt_correction_type   multi-scan
_exptl_absorpt_process_details   'SADABS (Bruker, 2004)'
_exptl_crystal_colour            yellow
_exptl_crystal_density_diffrn    1.392
_exptl_crystal_density_method    'not measured'
_exptl_crystal_description       'prismatic rod'
_exptl_crystal_F_000             268
_exptl_crystal_size_max          0.30
_exptl_crystal_size_mid          0.20
_exptl_crystal_size_min          0.10
_refine_diff_density_max         0.114
_refine_diff_density_min         -0.109
_refine_diff_density_rms         0.021
_refine_ls_abs_structure_details 'Flack H D (1983), Acta Cryst. A39, 876-881'
_refine_ls_abs_structure_Flack   10(10)
_refine_ls_extinction_method     none
_refine_ls_goodness_of_fit_ref   1.138
_refine_ls_hydrogen_treatment    constr
_refine_ls_matrix_type           full
_refine_ls_number_parameters     101
_refine_ls_number_reflns         2474
_refine_ls_number_restraints     1
_refine_ls_restrained_S_all      1.138
_refine_ls_R_factor_all          0.0555
_refine_ls_R_factor_gt           0.0480
_refine_ls_shift/su_max          0.000
_refine_ls_shift/su_mean         0.000
_refine_ls_structure_factor_coef Fsqd
_refine_ls_weighting_details
'calc w=1/[\s^2^(Fo^2^)+(0.0522P)^2^+0.0968P] where P=(Fo^2^+2Fc^2^)/3'
_refine_ls_weighting_scheme      calc
_refine_ls_wR_factor_gt          0.1487
_refine_ls_wR_factor_ref         0.1532
_reflns_number_gt                2006
_reflns_number_total             2474
_reflns_threshold_expression     I>2sigma(I)
_cod_data_source_file            b926652f.txt
_cod_data_source_block           CNS-EtOH-small-P21/c
_cod_original_sg_symbol_H-M      P21/c
_cod_database_code               7238200
loop_
_symmetry_equiv_pos_as_xyz
'x, y, z'
'-x, y+1/2, -z+1/2'
loop_
_atom_site_label
_atom_site_type_symbol
_atom_site_fract_x
_atom_site_fract_y
_atom_site_fract_z
_atom_site_U_iso_or_equiv
_atom_site_adp_type
_atom_site_occupancy
_atom_site_symmetry_multiplicity
_atom_site_calc_flag
_atom_site_refinement_flags
Cl1 Cl 0.3708(6) -0.46093(9) -0.1758(2) 0.1139(8) Uani 0.50 1 d P
N11 N 0.3617(12) -0.4169(3) -0.1720(4) 0.0806(9) Uani 0.50 1 d P
O11 O 0.3170(12) -0.4973(3) -0.1234(3) 0.1299(14) Uani 0.50 1 d P
O12 O 0.4996(7) -0.41139(19) -0.2586(2) 0.1142(8) Uani 0.50 1 d P
C1 C 0.2613(3) -0.32937(11) -0.12295(11) 0.0753(4) Uani 1 1 d .
C2 C 0.3157(3) -0.23937(12) -0.17922(10) 0.0801(4) Uani 1 1 d .
H2A H 0.4138 -0.2410 -0.2467 0.096 Uiso 1 1 calc R
C3 C 0.2230(3) -0.14731(11) -0.13416(11) 0.0762(4) Uani 1 1 d .
H3A H 0.2576 -0.0863 -0.1720 0.091 Uiso 1 1 calc R
C4 C 0.0779(3) -0.14357(9) -0.03277(10) 0.0667(3) Uani 1 1 d .
C5 C 0.0278(3) -0.23627(10) 0.02088(10) 0.0729(4) Uani 1 1 d .
H5A H -0.0703 -0.2352 0.0884 0.087 Uiso 1 1 calc R
C6 C 0.1186(3) -0.32979(11) -0.02266(11) 0.0776(4) Uani 1 1 d .
H6A H 0.0846 -0.3912 0.0146 0.093 Uiso 1 1 calc R
C7 C -0.0244(3) -0.04665(9) 0.01847(11) 0.0721(4) Uani 1 1 d .
H7 H -0.1349 -0.0522 0.0836 0.087 Uiso 1 1 calc R
Cl11 Cl -0.3708(6) 0.46093(9) 0.1758(2) 0.1139(8) Uani 0.50 1 d P
N1 N -0.3617(12) 0.4169(3) 0.1720(4) 0.0806(9) Uani 0.50 1 d P
O1 O -0.3170(12) 0.4973(3) 0.1234(3) 0.1299(14) Uani 0.50 1 d P
O2 O -0.4996(7) 0.41139(19) 0.2586(2) 0.1142(8) Uani 0.50 1 d P
C11 C -0.2613(3) 0.32937(11) 0.12295(11) 0.0753(4) Uani 1 1 d .
C12 C -0.3157(3) 0.23937(12) 0.17922(10) 0.0801(4) Uani 1 1 d .
H12A H -0.4138 0.2410 0.2467 0.096 Uiso 1 1 calc R
C13 C -0.2230(3) 0.14731(11) 0.13416(11) 0.0762(4) Uani 1 1 d .
H13A H -0.2576 0.0863 0.1720 0.091 Uiso 1 1 calc R
C14 C -0.0779(3) 0.14357(9) 0.03277(10) 0.0667(3) Uani 1 1 d .
C15 C -0.0278(3) 0.23627(10) -0.02088(10) 0.0729(4) Uani 1 1 d .
H15A H 0.0703 0.2352 -0.0884 0.087 Uiso 1 1 calc R
C16 C -0.1186(3) 0.32979(11) 0.02266(11) 0.0776(4) Uani 1 1 d .
H16A H -0.0846 0.3912 -0.0146 0.093 Uiso 1 1 calc R
C17 C 0.0244(3) 0.04665(9) -0.01847(11) 0.0721(4) Uani 1 1 d .
H17 H 0.1349 0.0522 -0.0836 0.087 Uiso 1 1 calc R
loop_
_atom_site_aniso_label
_atom_site_aniso_U_11
_atom_site_aniso_U_22
_atom_site_aniso_U_33
_atom_site_aniso_U_23
_atom_site_aniso_U_13
_atom_site_aniso_U_12
Cl1 0.1140(8) 0.0938(15) 0.1337(13) -0.0460(14) 0.0047(8) 0.0242(11)
N11 0.0779(17) 0.073(3) 0.091(2) -0.007(2) 0.0017(15) 0.008(2)
O11 0.176(3) 0.0735(18) 0.144(3) 0.0048(17) 0.042(2) 0.0194(17)
O12 0.153(2) 0.0902(15) 0.1027(16) -0.0252(13) 0.0322(15) 0.0191(14)
C1 0.0611(7) 0.0883(9) 0.0761(8) -0.0156(7) 0.0001(6) 0.0055(6)
C2 0.0699(8) 0.1055(11) 0.0657(8) -0.0039(7) 0.0104(6) -0.0019(7)
C3 0.0723(8) 0.0840(9) 0.0731(8) 0.0065(6) 0.0099(6) -0.0034(6)
C4 0.0545(6) 0.0777(8) 0.0679(7) -0.0021(6) 0.0019(5) -0.0019(5)
C5 0.0708(7) 0.0823(8) 0.0663(7) 0.0001(6) 0.0099(6) 0.0007(6)
C6 0.0747(8) 0.0787(8) 0.0794(8) 0.0036(6) 0.0051(6) 0.0018(6)
C7 0.0632(7) 0.0827(8) 0.0710(7) 0.0029(6) 0.0080(5) -0.0026(6)
Cl11 0.1140(8) 0.0938(15) 0.1337(13) -0.0460(14) 0.0047(8) 0.0242(11)
N1 0.0779(17) 0.073(3) 0.091(2) -0.007(2) 0.0017(15) 0.008(2)
O1 0.176(3) 0.0735(18) 0.144(3) 0.0048(17) 0.042(2) 0.0194(17)
O2 0.153(2) 0.0902(15) 0.1027(16) -0.0252(13) 0.0322(15) 0.0191(14)
C11 0.0611(7) 0.0883(9) 0.0761(8) -0.0156(7) 0.0001(6) 0.0055(6)
C12 0.0699(8) 0.1055(11) 0.0657(8) -0.0039(7) 0.0104(6) -0.0019(7)
C13 0.0723(8) 0.0840(9) 0.0731(8) 0.0065(6) 0.0099(6) -0.0034(6)
C14 0.0545(6) 0.0777(8) 0.0679(7) -0.0021(6) 0.0019(5) -0.0019(5)
C15 0.0708(7) 0.0823(8) 0.0663(7) 0.0001(6) 0.0099(6) 0.0007(6)
C16 0.0747(8) 0.0787(8) 0.0794(8) 0.0036(6) 0.0051(6) 0.0018(6)
C17 0.0632(7) 0.0827(8) 0.0710(7) 0.0029(6) 0.0080(5) -0.0026(6)
loop_
_atom_type_symbol
_atom_type_description
_atom_type_scat_dispersion_real
_atom_type_scat_dispersion_imag
_atom_type_scat_source
C C 0.0033 0.0016 'International Tables Vol C Tables 4.2.6.8 and 6.1.1.4'
H H 0.0000 0.0000 'International Tables Vol C Tables 4.2.6.8 and 6.1.1.4'
N N 0.0061 0.0033 'International Tables Vol C Tables 4.2.6.8 and 6.1.1.4'
O O 0.0106 0.0060 'International Tables Vol C Tables 4.2.6.8 and 6.1.1.4'
Cl Cl 0.1484 0.1585 'International Tables Vol C Tables 4.2.6.8 and 6.1.1.4'
loop_
_geom_angle_atom_site_label_1
_geom_angle_atom_site_label_2
_geom_angle_atom_site_label_3
_geom_angle
N11 Cl1 O11 118.8(10)
N11 Cl1 O12 66.8(7)
O11 Cl1 O12 171.3(4)
N11 Cl1 C1 19.0(7)
O11 Cl1 C1 100.2(4)
O12 Cl1 C1 85.80(13)
Cl1 N11 O12 87.5(7)
Cl1 N11 O11 36.8(7)
O12 N11 O11 123.9(4)
Cl1 N11 C1 153.0(10)
O12 N11 C1 119.4(4)
O11 N11 C1 116.6(4)
Cl1 O11 N11 24.4(3)
N11 O12 Cl1 25.69(17)
N11 C1 C6 122.3(3)
N11 C1 C2 115.6(3)
C6 C1 C2 122.05(13)
N11 C1 Cl1 8.0(3)
C6 C1 Cl1 114.47(14)
C2 C1 Cl1 123.48(13)
C3 C2 C1 118.98(12)
C3 C2 H2A 120.5
C1 C2 H2A 120.5
C2 C3 C4 121.19(13)
C2 C3 H3A 119.4
C4 C3 H3A 119.4
C5 C4 C3 117.77(12)
C5 C4 C7 119.30(11)
C3 C4 C7 122.93(12)
C6 C5 C4 122.16(12)
C6 C5 H5A 118.9
C4 C5 H5A 118.9
C5 C6 C1 117.85(13)
C5 C6 H6A 121.1
C1 C6 H6A 121.1
C17 C7 C4 126.46(16)
C17 C7 H7 116.8
C4 C7 H7 116.8
N1 Cl11 O1 118.8(10)
N1 Cl11 O2 66.8(7)
O1 Cl11 O2 171.3(4)
N1 Cl11 C11 19.0(7)
O1 Cl11 C11 100.2(4)
O2 Cl11 C11 85.80(13)
Cl11 N1 O2 87.5(7)
Cl11 N1 O1 36.8(7)
O2 N1 O1 123.9(4)
Cl11 N1 C11 153.0(10)
O2 N1 C11 119.4(4)
O1 N1 C11 116.6(4)
Cl11 O1 N1 24.4(3)
N1 O2 Cl11 25.69(17)
N1 C11 C16 122.3(3)
N1 C11 C12 115.6(3)
C16 C11 C12 122.05(13)
N1 C11 Cl11 8.0(3)
C16 C11 Cl11 114.47(14)
C12 C11 Cl11 123.48(13)
C13 C12 C11 118.98(12)
C13 C12 H12A 120.5
C11 C12 H12A 120.5
C12 C13 C14 121.19(13)
C12 C13 H13A 119.4
C14 C13 H13A 119.4
C15 C14 C13 117.77(12)
C15 C14 C17 119.30(11)
C13 C14 C17 122.93(12)
C16 C15 C14 122.16(12)
C16 C15 H15A 118.9
C14 C15 H15A 118.9
C15 C16 C11 117.85(13)
C15 C16 H16A 121.1
C11 C16 H16A 121.1
C7 C17 C14 126.46(16)
C7 C17 H17 116.8
C14 C17 H17 116.8
loop_
_geom_bond_atom_site_label_1
_geom_bond_atom_site_label_2
_geom_bond_distance
Cl1 N11 0.574(4)
Cl1 O11 0.831(3)
Cl1 O12 1.322(3)
Cl1 C1 1.8813(18)
N11 O12 1.217(6)
N11 O11 1.217(7)
N11 C1 1.352(4)
C1 C6 1.3754(19)
C1 C2 1.377(2)
C2 C3 1.372(2)
C2 H2A 0.9300
C3 C4 1.3929(18)
C3 H3A 0.9300
C4 C5 1.3879(17)
C4 C7 1.4692(18)
C5 C6 1.3785(18)
C5 H5A 0.9300
C6 H6A 0.9300
C7 C17 1.309(2)
C7 H7 0.9300
Cl11 N1 0.574(4)
Cl11 O1 0.831(3)
Cl11 O2 1.322(3)
Cl11 C11 1.8813(18)
N1 O2 1.217(6)
N1 O1 1.217(7)
N1 C11 1.352(4)
C11 C16 1.3754(19)
C11 C12 1.377(2)
C12 C13 1.372(2)
C12 H12A 0.9300
C13 C14 1.3929(18)
C13 H13A 0.9300
C14 C15 1.3879(17)
C14 C17 1.4692(18)
C15 C16 1.3785(18)
C15 H15A 0.9300
C16 H16A 0.9300
C17 H17 0.9300
loop_
_geom_torsion_atom_site_label_1
_geom_torsion_atom_site_label_2
_geom_torsion_atom_site_label_3
_geom_torsion_atom_site_label_4
_geom_torsion
O11 Cl1 N11 O12 172.7(5)
C1 Cl1 N11 O12 -175(2)
O12 Cl1 N11 O11 -172.7(5)
C1 Cl1 N11 O11 12(2)
O11 Cl1 N11 C1 -12(2)
O12 Cl1 N11 C1 175(2)
O12 Cl1 O11 N11 129(3)
C1 Cl1 O11 N11 -4.1(8)
O12 N11 O11 Cl1 -8.8(7)
C1 N11 O11 Cl1 173.7(11)
O11 N11 O12 Cl1 5.3(4)
C1 N11 O12 Cl1 -177.4(10)
O11 Cl1 O12 N11 -132(3)
C1 Cl1 O12 N11 1.7(6)
Cl1 N11 C1 C6 9(2)
O12 N11 C1 C6 -176.9(3)
O11 N11 C1 C6 0.7(6)
Cl1 N11 C1 C2 -172.0(18)
O12 N11 C1 C2 2.2(5)
O11 N11 C1 C2 179.7(4)
O12 N11 C1 Cl1 174(2)
O11 N11 C1 Cl1 -8.3(15)
O11 Cl1 C1 N11 169(2)
O12 Cl1 C1 N11 -4.7(18)
N11 Cl1 C1 C6 -171.7(19)
O11 Cl1 C1 C6 -2.8(4)
O12 Cl1 C1 C6 -176.40(17)
N11 Cl1 C1 C2 8.7(19)
O11 Cl1 C1 C2 177.6(4)
O12 Cl1 C1 C2 4.0(2)
N11 C1 C2 C3 -179.5(2)
C6 C1 C2 C3 -0.4(2)
Cl1 C1 C2 C3 179.20(12)
C1 C2 C3 C4 0.4(2)
C2 C3 C4 C5 -0.48(19)
C2 C3 C4 C7 179.89(11)
C3 C4 C5 C6 0.46(19)
C7 C4 C5 C6 -179.89(11)
C4 C5 C6 C1 -0.4(2)
N11 C1 C6 C5 179.4(3)
C2 C1 C6 C5 0.3(2)
Cl1 C1 C6 C5 -179.26(12)
C5 C4 C7 C17 175.65(16)
C3 C4 C7 C17 -4.7(2)
O1 Cl11 N1 O2 -172.7(5)
C11 Cl11 N1 O2 175(2)
O2 Cl11 N1 O1 172.7(5)
C11 Cl11 N1 O1 -12(2)
O1 Cl11 N1 C11 12(2)
O2 Cl11 N1 C11 -175(2)
O2 Cl11 O1 N1 -129(3)
C11 Cl11 O1 N1 4.1(8)
O2 N1 O1 Cl11 8.8(7)
C11 N1 O1 Cl11 -173.7(11)
O1 N1 O2 Cl11 -5.3(4)
C11 N1 O2 Cl11 177.4(10)
O1 Cl11 O2 N1 132(3)
C11 Cl11 O2 N1 -1.7(6)
Cl11 N1 C11 C16 -9(2)
O2 N1 C11 C16 176.9(3)
O1 N1 C11 C16 -0.7(6)
Cl11 N1 C11 C12 172.0(18)
O2 N1 C11 C12 -2.2(5)
O1 N1 C11 C12 -179.7(4)
O2 N1 C11 Cl11 -174(2)
O1 N1 C11 Cl11 8.3(15)
O1 Cl11 C11 N1 -169(2)
O2 Cl11 C11 N1 4.7(18)
N1 Cl11 C11 C16 171.7(19)
O1 Cl11 C11 C16 2.8(4)
O2 Cl11 C11 C16 176.40(17)
N1 Cl11 C11 C12 -8.7(19)
O1 Cl11 C11 C12 -177.6(4)
O2 Cl11 C11 C12 -4.0(2)
N1 C11 C12 C13 179.5(2)
C16 C11 C12 C13 0.4(2)
Cl11 C11 C12 C13 -179.20(12)
C11 C12 C13 C14 -0.4(2)
C12 C13 C14 C15 0.48(19)
C12 C13 C14 C17 -179.89(11)
C13 C14 C15 C16 -0.46(19)
C17 C14 C15 C16 179.89(11)
C14 C15 C16 C11 0.4(2)
N1 C11 C16 C15 -179.4(3)
C12 C11 C16 C15 -0.3(2)
Cl11 C11 C16 C15 179.26(12)
C4 C7 C17 C14 180.0
C15 C14 C17 C7 -175.65(16)
C13 C14 C17 C7 4.7(2)
