#------------------------------------------------------------------------------
#$Date: 2019-11-28 16:11:22 +0200 (Thu, 28 Nov 2019) $
#$Revision: 244087 $
#$URL: file:///home/coder/svn-repositories/cod/cif/7/23/81/7238167.cif $
#------------------------------------------------------------------------------
#
# This file is available in the Crystallography Open Database (COD),
# http://www.crystallography.net/
#
# All data on this site have been placed in the public domain by the
# contributors.
#
data_7238167
loop_
_publ_author_name
'Behrnd, Norwid-Rasmus'
'Labat, Ga\"el'
'Venugopalan, Paloth'
'Hulliger, J\"urg'
'B\"urgi, Hans-Beat'
_publ_section_title
;
 Influence of the solvent of crystallization on the orientational disorder
 of (trans)-4-chloro-4&#x2032;-nitrostilbene
;
_journal_issue                   12
_journal_name_full               CrystEngComm
_journal_page_first              4101
_journal_paper_doi               10.1039/b926652f
_journal_volume                  12
_journal_year                    2010
_chemical_formula_moiety         'C14 H10 Cl N O2'
_chemical_formula_sum            'C14 H10 Cl N O2'
_chemical_formula_weight         259.68
_space_group_IT_number           4
_space_group_name_Hall           'P 2ybc'
_space_group_name_H-M_alt        'P 1 21 1 (a,b,c-1/4)'
_symmetry_cell_setting           monoclinic
_symmetry_space_group_name_Hall  'P 2ybc'
_symmetry_space_group_name_H-M   'P 1 21 1 (a,b,c-1/4)'
_atom_sites_solution_hydrogens   geom
_atom_sites_solution_primary     direct
_atom_sites_solution_secondary   difmap
_audit_creation_method           SHELXL-97
_cell_angle_alpha                90.00
_cell_angle_beta                 93.238(2)
_cell_angle_gamma                90.00
_cell_formula_units_Z            2
_cell_length_a                   3.9164(2)
_cell_length_b                   12.9581(6)
_cell_length_c                   12.2370(5)
_cell_measurement_reflns_used    3467
_cell_measurement_temperature    293(2)
_cell_measurement_theta_max      24.3905
_cell_measurement_theta_min      3.144
_cell_volume                     620.03(5)
_computing_cell_refinement       'SAINT (Bruker, 2003)'
_computing_data_collection       'SMART (Bruker, 1997)'
_computing_data_reduction        'SHELXTL (Bruker, 2000)'
_computing_molecular_graphics    'PLATON (Spek, 2003)'
_computing_publication_material  SHELXL-97
_computing_structure_refinement  'SHELXL-97 (Sheldrick, 1997)'
_computing_structure_solution    'SHELXS-97 (Sheldrick, 1990)'
_diffrn_ambient_temperature      293(2)
_diffrn_measured_fraction_theta_full 0.901
_diffrn_measured_fraction_theta_max 0.901
_diffrn_measurement_device_type  'Bruker SMART 1K'
_diffrn_measurement_method       'omega scan method'
_diffrn_radiation_monochromator  graphite
_diffrn_radiation_source         'fine-focus sealed tube'
_diffrn_radiation_type           MoK\a
_diffrn_radiation_wavelength     0.71073
_diffrn_reflns_av_R_equivalents  0.0121
_diffrn_reflns_av_sigmaI/netI    0.0246
_diffrn_reflns_limit_h_max       5
_diffrn_reflns_limit_h_min       -5
_diffrn_reflns_limit_k_max       15
_diffrn_reflns_limit_k_min       -16
_diffrn_reflns_limit_l_max       13
_diffrn_reflns_limit_l_min       -15
_diffrn_reflns_number            3459
_diffrn_reflns_theta_full        27.87
_diffrn_reflns_theta_max         27.87
_diffrn_reflns_theta_min         2.29
_diffrn_standards_decay_%        0
_diffrn_standards_interval_time  0
_diffrn_standards_number         0
_exptl_absorpt_coefficient_mu    0.300
_exptl_absorpt_correction_T_max  1
_exptl_absorpt_correction_T_min  0.571507
_exptl_absorpt_correction_type   multi-scan
_exptl_absorpt_process_details   'SADABS (Bruker, 2004)'
_exptl_crystal_colour            yellow
_exptl_crystal_density_diffrn    1.391
_exptl_crystal_density_method    'not measured'
_exptl_crystal_description       'prismatic rod'
_exptl_crystal_F_000             268
_exptl_crystal_size_max          0.30
_exptl_crystal_size_mid          0.20
_exptl_crystal_size_min          0.10
_refine_diff_density_max         0.092
_refine_diff_density_min         -0.102
_refine_diff_density_rms         0.022
_refine_ls_abs_structure_details 'Flack H D (1983), Acta Cryst. A39, 876-881'
_refine_ls_abs_structure_Flack   0.5(2)
_refine_ls_extinction_method     none
_refine_ls_goodness_of_fit_ref   0.978
_refine_ls_hydrogen_treatment    constr
_refine_ls_matrix_type           full
_refine_ls_number_parameters     101
_refine_ls_number_reflns         2308
_refine_ls_number_restraints     1
_refine_ls_restrained_S_all      0.978
_refine_ls_R_factor_all          0.0898
_refine_ls_R_factor_gt           0.0478
_refine_ls_shift/su_max          0.000
_refine_ls_shift/su_mean         0.000
_refine_ls_structure_factor_coef Fsqd
_refine_ls_weighting_details
'calc w=1/[\s^2^(Fo^2^)+(0.0145P)^2^+0.1786P] where P=(Fo^2^+2Fc^2^)/3'
_refine_ls_weighting_scheme      calc
_refine_ls_wR_factor_gt          0.0777
_refine_ls_wR_factor_ref         0.0903
_reflns_number_gt                1403
_reflns_number_total             2308
_reflns_threshold_expression     I>2sigma(I)
_cod_data_source_file            b926652f.txt
_cod_data_source_block           CNS-ClBzIII-small-P21
_cod_original_sg_symbol_Hall     P2yb
_cod_original_sg_symbol_H-M      P21
_cod_database_code               7238167
loop_
_symmetry_equiv_pos_as_xyz
'x, y, z'
'-x, y+1/2, -z+1/2'
loop_
_atom_site_label
_atom_site_type_symbol
_atom_site_fract_x
_atom_site_fract_y
_atom_site_fract_z
_atom_site_U_iso_or_equiv
_atom_site_adp_type
_atom_site_occupancy
_atom_site_symmetry_multiplicity
_atom_site_calc_flag
_atom_site_refinement_flags
Cl1 Cl 0.3702(8) -0.45988(12) -0.1752(3) 0.1112(11) Uani 0.408(2) 1 d P
N11 N 0.365(2) -0.4149(4) -0.1735(7) 0.0889(16) Uani 0.592(2) 1 d P
O11 O 0.3121(13) -0.4978(3) -0.1239(3) 0.1218(17) Uani 0.592(2) 1 d P
O12 O 0.5021(7) -0.4132(2) -0.2585(2) 0.1090(9) Uani 0.592(2) 1 d P
C1 C 0.2613(4) -0.32914(13) -0.12322(13) 0.0710(4) Uani 1 1 d .
C2 C 0.3155(4) -0.23921(14) -0.17921(12) 0.0793(5) Uani 1 1 d .
H2A H 0.4138 -0.2406 -0.2466 0.095 Uiso 1 1 calc R
C3 C 0.2224(4) -0.14756(12) -0.13409(13) 0.0755(4) Uani 1 1 d .
H3A H 0.2565 -0.0866 -0.1720 0.091 Uiso 1 1 calc R
C4 C 0.0780(3) -0.14315(11) -0.03306(11) 0.0636(4) Uani 1 1 d .
C5 C 0.0288(4) -0.23588(12) 0.02050(12) 0.0717(4) Uani 1 1 d .
H5A H -0.0689 -0.2349 0.0880 0.086 Uiso 1 1 calc R
C6 C 0.1199(4) -0.32925(12) -0.02300(13) 0.0758(4) Uani 1 1 d .
H6A H 0.0866 -0.3906 0.0144 0.091 Uiso 1 1 calc R
C7 C -0.0236(4) -0.04631(10) 0.01824(13) 0.0709(4) Uani 1 1 d .
H7 H -0.1328 -0.0519 0.0835 0.085 Uiso 1 1 calc R
Cl11 Cl -0.3702(8) 0.45988(12) 0.1752(3) 0.1112(11) Uani 0.592(2) 1 d P
N1 N -0.365(2) 0.4149(4) 0.1735(7) 0.0889(16) Uani 0.408(2) 1 d P
O1 O -0.3121(13) 0.4978(3) 0.1239(3) 0.1218(17) Uani 0.408(2) 1 d P
O2 O -0.5021(7) 0.4132(2) 0.2585(2) 0.1090(9) Uani 0.408(2) 1 d P
C11 C -0.2613(4) 0.32914(13) 0.12322(13) 0.0710(4) Uani 1 1 d .
C12 C -0.3155(4) 0.23921(14) 0.17921(12) 0.0793(5) Uani 1 1 d .
H12A H -0.4138 0.2406 0.2466 0.095 Uiso 1 1 calc R
C13 C -0.2224(4) 0.14756(12) 0.13409(13) 0.0755(4) Uani 1 1 d .
H13A H -0.2565 0.0866 0.1720 0.091 Uiso 1 1 calc R
C14 C -0.0780(3) 0.14315(11) 0.03306(11) 0.0636(4) Uani 1 1 d .
C15 C -0.0288(4) 0.23588(12) -0.02050(12) 0.0717(4) Uani 1 1 d .
H15A H 0.0689 0.2349 -0.0880 0.086 Uiso 1 1 calc R
C16 C -0.1199(4) 0.32925(12) 0.02300(13) 0.0758(4) Uani 1 1 d .
H16A H -0.0866 0.3906 -0.0144 0.091 Uiso 1 1 calc R
C17 C 0.0236(4) 0.04631(10) -0.01824(13) 0.0709(4) Uani 1 1 d .
H17 H 0.1328 0.0519 -0.0835 0.085 Uiso 1 1 calc R
loop_
_atom_site_aniso_label
_atom_site_aniso_U_11
_atom_site_aniso_U_22
_atom_site_aniso_U_33
_atom_site_aniso_U_23
_atom_site_aniso_U_13
_atom_site_aniso_U_12
Cl1 0.1103(11) 0.092(2) 0.1309(19) -0.044(2) 0.0059(12) 0.0209(17)
N11 0.083(3) 0.065(4) 0.117(4) -0.002(4) -0.010(3) 0.005(3)
O11 0.163(3) 0.067(2) 0.138(4) 0.0076(19) 0.041(2) 0.0115(19)
O12 0.147(2) 0.0900(19) 0.0938(19) -0.0274(16) 0.0374(18) 0.0164(16)
C1 0.0577(9) 0.0796(12) 0.0750(11) -0.0150(9) -0.0024(8) 0.0057(8)
C2 0.0694(10) 0.1039(13) 0.0652(10) -0.0035(10) 0.0095(8) -0.0006(9)
C3 0.0681(10) 0.0814(11) 0.0773(11) 0.0096(9) 0.0066(8) -0.0043(8)
C4 0.0513(8) 0.0747(10) 0.0644(10) -0.0042(8) 0.0002(7) -0.0009(7)
C5 0.0682(10) 0.0828(11) 0.0644(9) 0.0011(9) 0.0082(8) -0.0014(8)
C6 0.0747(10) 0.0752(11) 0.0774(11) 0.0027(9) 0.0040(9) 0.0020(8)
C7 0.0626(9) 0.0798(11) 0.0704(10) 0.0041(8) 0.0052(7) -0.0023(8)
Cl11 0.1103(11) 0.092(2) 0.1309(19) -0.044(2) 0.0059(12) 0.0209(17)
N1 0.083(3) 0.065(4) 0.117(4) -0.002(4) -0.010(3) 0.005(3)
O1 0.163(3) 0.067(2) 0.138(4) 0.0076(19) 0.041(2) 0.0115(19)
O2 0.147(2) 0.0900(19) 0.0938(19) -0.0274(16) 0.0374(18) 0.0164(16)
C11 0.0577(9) 0.0796(12) 0.0750(11) -0.0150(9) -0.0024(8) 0.0057(8)
C12 0.0694(10) 0.1039(13) 0.0652(10) -0.0035(10) 0.0095(8) -0.0006(9)
C13 0.0681(10) 0.0814(11) 0.0773(11) 0.0096(9) 0.0066(8) -0.0043(8)
C14 0.0513(8) 0.0747(10) 0.0644(10) -0.0042(8) 0.0002(7) -0.0009(7)
C15 0.0682(10) 0.0828(11) 0.0644(9) 0.0011(9) 0.0082(8) -0.0014(8)
C16 0.0747(10) 0.0752(11) 0.0774(11) 0.0027(9) 0.0040(9) 0.0020(8)
C17 0.0626(9) 0.0798(11) 0.0704(10) 0.0041(8) 0.0052(7) -0.0023(8)
loop_
_atom_type_symbol
_atom_type_description
_atom_type_scat_dispersion_real
_atom_type_scat_dispersion_imag
_atom_type_scat_source
C C 0.0033 0.0016 'International Tables Vol C Tables 4.2.6.8 and 6.1.1.4'
H H 0.0000 0.0000 'International Tables Vol C Tables 4.2.6.8 and 6.1.1.4'
N N 0.0061 0.0033 'International Tables Vol C Tables 4.2.6.8 and 6.1.1.4'
O O 0.0106 0.0060 'International Tables Vol C Tables 4.2.6.8 and 6.1.1.4'
Cl Cl 0.1484 0.1585 'International Tables Vol C Tables 4.2.6.8 and 6.1.1.4'
loop_
_geom_angle_atom_site_label_1
_geom_angle_atom_site_label_2
_geom_angle_atom_site_label_3
_geom_angle
N11 Cl1 O11 123.1(14)
N11 Cl1 O12 65.5(11)
O11 Cl1 O12 169.8(5)
N11 Cl1 C1 22.0(11)
O11 Cl1 C1 101.5(4)
O12 Cl1 C1 87.36(16)
Cl1 N11 O12 88.2(11)
Cl1 N11 O11 34.0(10)
O12 N11 O11 122.0(5)
Cl1 N11 C1 148.7(15)
O12 N11 C1 122.9(6)
O11 N11 C1 115.0(7)
Cl1 O11 N11 22.9(5)
N11 O12 Cl1 26.3(2)
N11 C1 C6 123.7(4)
N11 C1 C2 114.5(4)
C6 C1 C2 121.82(16)
N11 C1 Cl1 9.3(5)
C6 C1 Cl1 114.49(18)
C2 C1 Cl1 123.69(17)
C3 C2 C1 118.86(15)
C3 C2 H2A 120.6
C1 C2 H2A 120.6
C2 C3 C4 121.75(15)
C2 C3 H3A 119.1
C4 C3 H3A 119.1
C5 C4 C3 117.33(15)
C5 C4 C7 119.34(13)
C3 C4 C7 123.33(15)
C6 C5 C4 122.17(15)
C6 C5 H5A 118.9
C4 C5 H5A 118.9
C1 C6 C5 118.06(16)
C1 C6 H6A 121.0
C5 C6 H6A 121.0
C17 C7 C4 126.61(19)
C17 C7 H7 116.7
C4 C7 H7 116.7
N1 Cl11 O1 123.1(14)
N1 Cl11 O2 65.5(11)
O1 Cl11 O2 169.8(5)
N1 Cl11 C11 22.0(11)
O1 Cl11 C11 101.5(4)
O2 Cl11 C11 87.36(16)
Cl11 N1 O2 88.2(11)
Cl11 N1 O1 34.0(10)
O2 N1 O1 122.0(5)
Cl11 N1 C11 148.7(15)
O2 N1 C11 122.9(6)
O1 N1 C11 115.0(7)
Cl11 O1 N1 22.9(5)
N1 O2 Cl11 26.3(2)
N1 C11 C16 123.7(4)
N1 C11 C12 114.5(4)
C16 C11 C12 121.82(16)
N1 C11 Cl11 9.3(5)
C16 C11 Cl11 114.49(18)
C12 C11 Cl11 123.69(17)
C13 C12 C11 118.86(15)
C13 C12 H12A 120.6
C11 C12 H12A 120.6
C12 C13 C14 121.75(15)
C12 C13 H13A 119.1
C14 C13 H13A 119.1
C15 C14 C13 117.33(15)
C15 C14 C17 119.34(13)
C13 C14 C17 123.33(15)
C16 C15 C14 122.17(15)
C16 C15 H15A 118.9
C14 C15 H15A 118.9
C11 C16 C15 118.06(16)
C11 C16 H16A 121.0
C15 C16 H16A 121.0
C7 C17 C14 126.61(19)
C7 C17 H17 116.7
C14 C17 H17 116.7
loop_
_geom_bond_atom_site_label_1
_geom_bond_atom_site_label_2
_geom_bond_distance
Cl1 N11 0.583(5)
Cl1 O11 0.839(4)
Cl1 O12 1.315(4)
Cl1 C1 1.868(2)
N11 O12 1.197(9)
N11 O11 1.256(9)
N11 C1 1.345(5)
C1 C6 1.374(2)
C1 C2 1.374(2)
C2 C3 1.368(2)
C2 H2A 0.9300
C3 C4 1.3893(19)
C3 H3A 0.9300
C4 C5 1.3874(19)
C4 C7 1.4680(19)
C5 C6 1.3770(18)
C5 H5A 0.9300
C6 H6A 0.9300
C7 C17 1.297(2)
C7 H7 0.9300
Cl11 N1 0.583(5)
Cl11 O1 0.839(4)
Cl11 O2 1.315(4)
Cl11 C11 1.868(2)
N1 O2 1.197(9)
N1 O1 1.256(9)
N1 C11 1.345(5)
C11 C16 1.374(2)
C11 C12 1.374(2)
C12 C13 1.368(2)
C12 H12A 0.9300
C13 C14 1.3893(19)
C13 H13A 0.9300
C14 C15 1.3874(19)
C14 C17 1.4680(19)
C15 C16 1.3770(18)
C15 H15A 0.9300
C16 H16A 0.9300
C17 H17 0.9300
loop_
_geom_torsion_atom_site_label_1
_geom_torsion_atom_site_label_2
_geom_torsion_atom_site_label_3
_geom_torsion_atom_site_label_4
_geom_torsion
O11 Cl1 N11 O12 173.7(7)
C1 Cl1 N11 O12 -175(3)
O12 Cl1 N11 O11 -173.7(7)
C1 Cl1 N11 O11 11(3)
O11 Cl1 N11 C1 -11(3)
O12 Cl1 N11 C1 175(3)
O12 Cl1 O11 N11 145(4)
C1 Cl1 O11 N11 -4.2(12)
O12 N11 O11 Cl1 -7.5(9)
C1 N11 O11 Cl1 173.6(18)
O11 N11 O12 Cl1 4.2(5)
C1 N11 O12 Cl1 -177.0(17)
O11 Cl1 O12 N11 -149(4)
C1 Cl1 O12 N11 1.8(10)
Cl1 N11 C1 C6 9(3)
O12 N11 C1 C6 -176.5(5)
O11 N11 C1 C6 2.5(9)
Cl1 N11 C1 C2 -172(2)
O12 N11 C1 C2 2.1(9)
O11 N11 C1 C2 -179.0(6)
O12 N11 C1 Cl1 174(3)
O11 N11 C1 Cl1 -7(2)
O11 Cl1 C1 N11 170(3)
O12 Cl1 C1 N11 -4(3)
N11 Cl1 C1 C6 -171(3)
O11 Cl1 C1 C6 -1.0(5)
O12 Cl1 C1 C6 -175.90(18)
N11 Cl1 C1 C2 9(3)
O11 Cl1 C1 C2 179.1(4)
O12 Cl1 C1 C2 4.2(3)
N11 C1 C2 C3 -179.2(4)
C6 C1 C2 C3 -0.7(2)
Cl1 C1 C2 C3 179.22(16)
C1 C2 C3 C4 0.6(2)
C2 C3 C4 C5 -0.5(2)
C2 C3 C4 C7 179.67(13)
C3 C4 C5 C6 0.4(2)
C7 C4 C5 C6 -179.72(13)
N11 C1 C6 C5 179.1(4)
C2 C1 C6 C5 0.6(2)
Cl1 C1 C6 C5 -179.28(15)
C4 C5 C6 C1 -0.5(2)
C5 C4 C7 C17 175.74(19)
C3 C4 C7 C17 -4.4(3)
O1 Cl11 N1 O2 -173.7(7)
C11 Cl11 N1 O2 175(3)
O2 Cl11 N1 O1 173.7(7)
C11 Cl11 N1 O1 -11(3)
O1 Cl11 N1 C11 11(3)
O2 Cl11 N1 C11 -175(3)
O2 Cl11 O1 N1 -145(4)
C11 Cl11 O1 N1 4.2(12)
O2 N1 O1 Cl11 7.5(9)
C11 N1 O1 Cl11 -173.6(18)
O1 N1 O2 Cl11 -4.2(5)
C11 N1 O2 Cl11 177.0(17)
O1 Cl11 O2 N1 149(4)
C11 Cl11 O2 N1 -1.8(10)
Cl11 N1 C11 C16 -9(3)
O2 N1 C11 C16 176.5(5)
O1 N1 C11 C16 -2.5(9)
Cl11 N1 C11 C12 172(2)
O2 N1 C11 C12 -2.1(9)
O1 N1 C11 C12 179.0(6)
O2 N1 C11 Cl11 -174(3)
O1 N1 C11 Cl11 7(2)
O1 Cl11 C11 N1 -170(3)
O2 Cl11 C11 N1 4(3)
N1 Cl11 C11 C16 171(3)
O1 Cl11 C11 C16 1.0(5)
O2 Cl11 C11 C16 175.90(18)
N1 Cl11 C11 C12 -9(3)
O1 Cl11 C11 C12 -179.1(4)
O2 Cl11 C11 C12 -4.2(3)
N1 C11 C12 C13 179.2(4)
C16 C11 C12 C13 0.7(2)
Cl11 C11 C12 C13 -179.22(16)
C11 C12 C13 C14 -0.6(2)
C12 C13 C14 C15 0.5(2)
C12 C13 C14 C17 -179.67(13)
C13 C14 C15 C16 -0.4(2)
C17 C14 C15 C16 179.72(13)
N1 C11 C16 C15 -179.1(4)
C12 C11 C16 C15 -0.6(2)
Cl11 C11 C16 C15 179.28(15)
C14 C15 C16 C11 0.5(2)
C4 C7 C17 C14 180.0
C15 C14 C17 C7 -175.74(19)
C13 C14 C17 C7 4.4(3)
