#------------------------------------------------------------------------------
#$Date: 2019-11-28 16:11:22 +0200 (Thu, 28 Nov 2019) $
#$Revision: 244087 $
#$URL: file:///home/coder/svn-repositories/cod/cif/7/23/81/7238168.cif $
#------------------------------------------------------------------------------
#
# This file is available in the Crystallography Open Database (COD),
# http://www.crystallography.net/
#
# All data on this site have been placed in the public domain by the
# contributors.
#
data_7238168
loop_
_publ_author_name
'Behrnd, Norwid-Rasmus'
'Labat, Ga\"el'
'Venugopalan, Paloth'
'Hulliger, J\"urg'
'B\"urgi, Hans-Beat'
_publ_section_title
;
 Influence of the solvent of crystallization on the orientational disorder
 of (trans)-4-chloro-4&#x2032;-nitrostilbene
;
_journal_issue                   12
_journal_name_full               CrystEngComm
_journal_page_first              4101
_journal_paper_doi               10.1039/b926652f
_journal_volume                  12
_journal_year                    2010
_chemical_formula_moiety         'C14 H10 Cl N O2'
_chemical_formula_sum            'C14 H10 Cl N O2'
_chemical_formula_weight         259.68
_space_group_IT_number           4
_space_group_name_Hall           'P 2ybc'
_space_group_name_H-M_alt        'P 1 21 1 (a,b,c-1/4)'
_symmetry_cell_setting           monoclinic
_symmetry_space_group_name_Hall  'P 2ybc'
_symmetry_space_group_name_H-M   'P 1 21 1 (a,b,c-1/4)'
_atom_sites_solution_hydrogens   geom
_atom_sites_solution_primary     direct
_atom_sites_solution_secondary   difmap
_audit_creation_method           SHELXL-97
_cell_angle_alpha                90.00
_cell_angle_beta                 93.352(2)
_cell_angle_gamma                90.00
_cell_formula_units_Z            2
_cell_length_a                   3.9100(2)
_cell_length_b                   12.9349(7)
_cell_length_c                   12.2210(6)
_cell_measurement_reflns_used    3454
_cell_measurement_temperature    293(2)
_cell_measurement_theta_max      24.4535
_cell_measurement_theta_min      3.150
_cell_volume                     617.03(6)
_computing_cell_refinement       'SAINT (Bruker, 2003)'
_computing_data_collection       'SMART (Bruker, 1997)'
_computing_data_reduction        'SHELXTL (Bruker, 2000)'
_computing_molecular_graphics    'PLATON (Spek, 2003)'
_computing_publication_material  SHELXL-97
_computing_structure_refinement  'SHELXL-97 (Sheldrick, 1997)'
_computing_structure_solution    'SHELXS-97 (Sheldrick, 1990)'
_diffrn_ambient_temperature      293(2)
_diffrn_measured_fraction_theta_full 0.879
_diffrn_measured_fraction_theta_max 0.879
_diffrn_measurement_device_type  'Bruker SMART 1K'
_diffrn_measurement_method       'omega scan method'
_diffrn_radiation_monochromator  graphite
_diffrn_radiation_source         'fine-focus sealed tube'
_diffrn_radiation_type           MoK\a
_diffrn_radiation_wavelength     0.71073
_diffrn_reflns_av_R_equivalents  0.0125
_diffrn_reflns_av_sigmaI/netI    0.0289
_diffrn_reflns_limit_h_max       5
_diffrn_reflns_limit_h_min       -5
_diffrn_reflns_limit_k_max       15
_diffrn_reflns_limit_k_min       -16
_diffrn_reflns_limit_l_max       13
_diffrn_reflns_limit_l_min       -15
_diffrn_reflns_number            3444
_diffrn_reflns_theta_full        27.75
_diffrn_reflns_theta_max         27.75
_diffrn_reflns_theta_min         2.29
_diffrn_standards_decay_%        0
_diffrn_standards_interval_time  0
_diffrn_standards_number         0
_exptl_absorpt_coefficient_mu    0.301
_exptl_absorpt_correction_T_max  1
_exptl_absorpt_correction_T_min  0.664592
_exptl_absorpt_correction_type   multi-scan
_exptl_absorpt_process_details   'SADABS (Bruker, 2004)'
_exptl_crystal_colour            yellow
_exptl_crystal_density_diffrn    1.398
_exptl_crystal_density_method    'not measured'
_exptl_crystal_description       'prismatic rod'
_exptl_crystal_F_000             268
_exptl_crystal_size_max          0.30
_exptl_crystal_size_mid          0.20
_exptl_crystal_size_min          0.10
_refine_diff_density_max         0.084
_refine_diff_density_min         -0.113
_refine_diff_density_rms         0.023
_refine_ls_abs_structure_details 'Flack H D (1983), Acta Cryst. A39, 876-881'
_refine_ls_abs_structure_Flack   -10(10)
_refine_ls_extinction_method     none
_refine_ls_goodness_of_fit_ref   1.180
_refine_ls_hydrogen_treatment    constr
_refine_ls_matrix_type           full
_refine_ls_number_parameters     101
_refine_ls_number_reflns         2304
_refine_ls_number_restraints     1
_refine_ls_restrained_S_all      1.180
_refine_ls_R_factor_all          0.1046
_refine_ls_R_factor_gt           0.0539
_refine_ls_shift/su_max          0.001
_refine_ls_shift/su_mean         0.000
_refine_ls_structure_factor_coef Fsqd
_refine_ls_weighting_details
'calc w=1/[\s^2^(Fo^2^)+(0.0256P)^2^+0.1186P] where P=(Fo^2^+2Fc^2^)/3'
_refine_ls_weighting_scheme      calc
_refine_ls_wR_factor_gt          0.1092
_refine_ls_wR_factor_ref         0.1222
_reflns_number_gt                1308
_reflns_number_total             2304
_reflns_threshold_expression     I>2sigma(I)
_cod_data_source_file            b926652f.txt
_cod_data_source_block           CNS-ClBzIV-small-P21_c
_cod_original_sg_symbol_Hall     P2ybc
_cod_original_sg_symbol_H-M      P21/c
_cod_database_code               7238168
loop_
_symmetry_equiv_pos_as_xyz
'x, y, z'
'-x, y+1/2, -z+1/2'
loop_
_atom_site_label
_atom_site_type_symbol
_atom_site_fract_x
_atom_site_fract_y
_atom_site_fract_z
_atom_site_U_iso_or_equiv
_atom_site_adp_type
_atom_site_occupancy
_atom_site_symmetry_multiplicity
_atom_site_calc_flag
_atom_site_refinement_flags
Cl1 Cl 0.3716(12) -0.46044(14) -0.1747(4) 0.1147(17) Uani 0.50 1 d P
N11 N 0.359(3) -0.4167(6) -0.1737(10) 0.0816(19) Uani 0.50 1 d P
O11 O 0.3137(17) -0.4982(5) -0.1233(4) 0.130(2) Uani 0.50 1 d P
O12 O 0.5006(9) -0.4124(2) -0.2585(3) 0.1098(11) Uani 0.50 1 d P
C1 C 0.2609(4) -0.32909(14) -0.12340(16) 0.0703(5) Uani 1 1 d .
C2 C 0.3153(4) -0.23905(17) -0.17892(14) 0.0805(5) Uani 1 1 d .
H2A H 0.4144 -0.2405 -0.2463 0.097 Uiso 1 1 calc R
C3 C 0.2225(4) -0.14726(14) -0.13421(15) 0.0736(5) Uani 1 1 d .
H3A H 0.2564 -0.0862 -0.1722 0.088 Uiso 1 1 calc R
C4 C 0.0782(4) -0.14334(13) -0.03282(14) 0.0648(5) Uani 1 1 d .
C5 C 0.0290(4) -0.23594(13) 0.02063(14) 0.0715(5) Uani 1 1 d .
H5A H -0.0684 -0.2350 0.0882 0.086 Uiso 1 1 calc R
C6 C 0.1198(4) -0.32952(13) -0.02307(15) 0.0760(5) Uani 1 1 d .
H6A H 0.0865 -0.3911 0.0142 0.091 Uiso 1 1 calc R
C7 C -0.0234(4) -0.04645(11) 0.01832(15) 0.0716(5) Uani 1 1 d .
H7 H -0.1326 -0.0521 0.0836 0.086 Uiso 1 1 calc R
Cl11 Cl -0.3716(12) 0.46044(14) 0.1747(4) 0.1147(17) Uani 0.50 1 d P
N1 N -0.359(3) 0.4167(6) 0.1737(10) 0.0816(19) Uani 0.50 1 d P
O1 O -0.3137(17) 0.4982(5) 0.1233(4) 0.130(2) Uani 0.50 1 d P
O2 O -0.5006(9) 0.4124(2) 0.2585(3) 0.1098(11) Uani 0.50 1 d P
C11 C -0.2609(4) 0.32909(14) 0.12340(16) 0.0703(5) Uani 1 1 d .
C12 C -0.3153(4) 0.23905(17) 0.17892(14) 0.0805(5) Uani 1 1 d .
H12A H -0.4144 0.2405 0.2463 0.097 Uiso 1 1 calc R
C13 C -0.2225(4) 0.14726(14) 0.13421(15) 0.0736(5) Uani 1 1 d .
H13A H -0.2564 0.0862 0.1722 0.088 Uiso 1 1 calc R
C14 C -0.0782(4) 0.14334(13) 0.03282(14) 0.0648(5) Uani 1 1 d .
C15 C -0.0290(4) 0.23594(13) -0.02063(14) 0.0715(5) Uani 1 1 d .
H15A H 0.0684 0.2350 -0.0882 0.086 Uiso 1 1 calc R
C16 C -0.1198(4) 0.32952(13) 0.02307(15) 0.0760(5) Uani 1 1 d .
H16A H -0.0865 0.3911 -0.0142 0.091 Uiso 1 1 calc R
C17 C 0.0234(4) 0.04645(11) -0.01832(15) 0.0716(5) Uani 1 1 d .
H17 H 0.1326 0.0521 -0.0836 0.086 Uiso 1 1 calc R
loop_
_atom_site_aniso_label
_atom_site_aniso_U_11
_atom_site_aniso_U_22
_atom_site_aniso_U_33
_atom_site_aniso_U_23
_atom_site_aniso_U_13
_atom_site_aniso_U_12
Cl1 0.1146(14) 0.092(3) 0.137(3) -0.047(3) 0.0005(17) 0.027(2)
N11 0.076(3) 0.068(5) 0.101(5) 0.003(5) 0.002(3) 0.012(4)
O11 0.176(4) 0.070(3) 0.149(5) 0.005(3) 0.037(3) 0.013(2)
O12 0.150(3) 0.087(2) 0.096(2) -0.0257(19) 0.032(2) 0.0157(19)
C1 0.0594(11) 0.0772(13) 0.0738(13) -0.0163(10) -0.0011(9) 0.0049(9)
C2 0.0691(12) 0.1053(15) 0.0676(12) -0.0042(11) 0.0085(10) -0.0006(11)
C3 0.0694(12) 0.0778(13) 0.0742(13) 0.0086(10) 0.0087(10) -0.0025(9)
C4 0.0522(10) 0.0751(12) 0.0665(12) -0.0051(10) -0.0005(8) -0.0012(8)
C5 0.0697(11) 0.0814(13) 0.0638(11) 0.0013(10) 0.0076(9) -0.0026(10)
C6 0.0760(12) 0.0737(13) 0.0780(13) 0.0009(10) 0.0027(10) 0.0045(9)
C7 0.0634(11) 0.0797(12) 0.0718(12) 0.0044(10) 0.0051(9) -0.0023(10)
Cl11 0.1146(14) 0.092(3) 0.137(3) -0.047(3) 0.0005(17) 0.027(2)
N1 0.076(3) 0.068(5) 0.101(5) 0.003(5) 0.002(3) 0.012(4)
O1 0.176(4) 0.070(3) 0.149(5) 0.005(3) 0.037(3) 0.013(2)
O2 0.150(3) 0.087(2) 0.096(2) -0.0257(19) 0.032(2) 0.0157(19)
C11 0.0594(11) 0.0772(13) 0.0738(13) -0.0163(10) -0.0011(9) 0.0049(9)
C12 0.0691(12) 0.1053(15) 0.0676(12) -0.0042(11) 0.0085(10) -0.0006(11)
C13 0.0694(12) 0.0778(13) 0.0742(13) 0.0086(10) 0.0087(10) -0.0025(9)
C14 0.0522(10) 0.0751(12) 0.0665(12) -0.0051(10) -0.0005(8) -0.0012(8)
C15 0.0697(11) 0.0814(13) 0.0638(11) 0.0013(10) 0.0076(9) -0.0026(10)
C16 0.0760(12) 0.0737(13) 0.0780(13) 0.0009(10) 0.0027(10) 0.0045(9)
C17 0.0634(11) 0.0797(12) 0.0718(12) 0.0044(10) 0.0051(9) -0.0023(10)
loop_
_atom_type_symbol
_atom_type_description
_atom_type_scat_dispersion_real
_atom_type_scat_dispersion_imag
_atom_type_scat_source
C C 0.0033 0.0016 'International Tables Vol C Tables 4.2.6.8 and 6.1.1.4'
H H 0.0000 0.0000 'International Tables Vol C Tables 4.2.6.8 and 6.1.1.4'
N N 0.0061 0.0033 'International Tables Vol C Tables 4.2.6.8 and 6.1.1.4'
O O 0.0106 0.0060 'International Tables Vol C Tables 4.2.6.8 and 6.1.1.4'
Cl Cl 0.1484 0.1585 'International Tables Vol C Tables 4.2.6.8 and 6.1.1.4'
loop_
_geom_angle_atom_site_label_1
_geom_angle_atom_site_label_2
_geom_angle_atom_site_label_3
_geom_angle
N11 Cl1 O11 122(2)
N11 Cl1 O12 65.6(17)
O11 Cl1 O12 170.7(7)
N11 Cl1 C1 20.9(16)
O11 Cl1 C1 101.6(7)
O12 Cl1 C1 86.50(19)
Cl1 N11 O12 89.0(16)
Cl1 N11 O11 34.8(15)
O12 N11 O11 123.5(6)
Cl1 N11 C1 150(2)
O12 N11 C1 120.6(8)
O11 N11 C1 115.7(9)
Cl1 O11 N11 22.8(7)
N11 O12 Cl1 25.5(3)
N11 C1 C2 115.4(6)
N11 C1 C6 122.7(5)
C2 C1 C6 121.82(18)
N11 C1 Cl1 8.6(7)
C2 C1 Cl1 124.1(2)
C6 C1 Cl1 114.1(2)
C3 C2 C1 119.23(18)
C3 C2 H2A 120.4
C1 C2 H2A 120.4
C2 C3 C4 121.27(18)
C2 C3 H3A 119.4
C4 C3 H3A 119.4
C5 C4 C3 117.62(17)
C5 C4 C7 119.37(16)
C3 C4 C7 123.01(17)
C6 C5 C4 122.12(17)
C6 C5 H5A 118.9
C4 C5 H5A 118.9
C1 C6 C5 117.93(18)
C1 C6 H6A 121.0
C5 C6 H6A 121.0
C17 C7 C4 126.6(2)
C17 C7 H7 116.7
C4 C7 H7 116.7
N1 Cl11 O1 122(2)
N1 Cl11 O2 65.6(17)
O1 Cl11 O2 170.7(7)
N1 Cl11 C11 20.9(16)
O1 Cl11 C11 101.6(7)
O2 Cl11 C11 86.50(19)
Cl11 N1 O2 89.0(16)
Cl11 N1 O1 34.8(15)
O2 N1 O1 123.5(6)
Cl11 N1 C11 150(2)
O2 N1 C11 120.6(8)
O1 N1 C11 115.7(9)
Cl11 O1 N1 22.8(7)
N1 O2 Cl11 25.5(3)
N1 C11 C12 115.4(6)
N1 C11 C16 122.7(5)
C12 C11 C16 121.82(18)
N1 C11 Cl11 8.6(7)
C12 C11 Cl11 124.1(2)
C16 C11 Cl11 114.1(2)
C13 C12 C11 119.23(18)
C13 C12 H12A 120.4
C11 C12 H12A 120.4
C12 C13 C14 121.27(18)
C12 C13 H13A 119.4
C14 C13 H13A 119.4
C15 C14 C13 117.62(17)
C15 C14 C17 119.37(16)
C13 C14 C17 123.01(17)
C16 C15 C14 122.12(17)
C16 C15 H15A 118.9
C14 C15 H15A 118.9
C11 C16 C15 117.93(18)
C11 C16 H16A 121.0
C15 C16 H16A 121.0
C7 C17 C14 126.6(2)
C7 C17 H17 116.7
C14 C17 H17 116.7
loop_
_geom_bond_atom_site_label_1
_geom_bond_atom_site_label_2
_geom_bond_distance
Cl1 N11 0.569(7)
Cl1 O11 0.837(5)
Cl1 O12 1.322(6)
Cl1 C1 1.870(3)
N11 O12 1.204(13)
N11 O11 1.239(14)
N11 C1 1.355(6)
C1 C2 1.371(2)
C1 C6 1.374(2)
C2 C3 1.365(2)
C2 H2A 0.9300
C3 C4 1.392(2)
C3 H3A 0.9300
C4 C5 1.383(2)
C4 C7 1.466(2)
C5 C6 1.378(2)
C5 H5A 0.9300
C6 H6A 0.9300
C7 C17 1.299(3)
C7 H7 0.9300
Cl11 N1 0.569(7)
Cl11 O1 0.837(5)
Cl11 O2 1.322(6)
Cl11 C11 1.870(3)
N1 O2 1.204(13)
N1 O1 1.239(14)
N1 C11 1.355(6)
C11 C12 1.371(2)
C11 C16 1.374(2)
C12 C13 1.365(2)
C12 H12A 0.9300
C13 C14 1.392(2)
C13 H13A 0.9300
C14 C15 1.383(2)
C14 C17 1.466(2)
C15 C16 1.378(2)
C15 H15A 0.9300
C16 H16A 0.9300
C17 H17 0.9300
loop_
_geom_torsion_atom_site_label_1
_geom_torsion_atom_site_label_2
_geom_torsion_atom_site_label_3
_geom_torsion_atom_site_label_4
_geom_torsion
O11 Cl1 N11 O12 174.8(10)
C1 Cl1 N11 O12 178(4)
O12 Cl1 N11 O11 -174.8(10)
C1 Cl1 N11 O11 3(4)
O11 Cl1 N11 C1 -3(4)
O12 Cl1 N11 C1 -178(4)
O12 Cl1 O11 N11 149(6)
C1 Cl1 O11 N11 -1.1(16)
O12 N11 O11 Cl1 -6.3(12)
C1 N11 O11 Cl1 178(2)
O11 N11 O12 Cl1 3.6(7)
C1 N11 O12 Cl1 179(2)
O11 Cl1 O12 N11 -152(5)
C1 Cl1 O12 N11 -0.8(14)
Cl1 N11 C1 C2 -179(3)
O12 N11 C1 C2 3.8(10)
O11 N11 C1 C2 179.3(7)
Cl1 N11 C1 C6 2(4)
O12 N11 C1 C6 -175.5(6)
O11 N11 C1 C6 0.0(12)
O12 N11 C1 Cl1 -177(4)
O11 N11 C1 Cl1 -2(3)
O11 Cl1 C1 N11 177(4)
O12 Cl1 C1 N11 2(3)
N11 Cl1 C1 C2 1(4)
O11 Cl1 C1 C2 178.7(6)
O12 Cl1 C1 C2 3.3(4)
N11 Cl1 C1 C6 -178(4)
O11 Cl1 C1 C6 -0.8(7)
O12 Cl1 C1 C6 -176.2(2)
N11 C1 C2 C3 179.7(5)
C6 C1 C2 C3 -0.9(3)
Cl1 C1 C2 C3 179.5(2)
C1 C2 C3 C4 0.9(3)
C2 C3 C4 C5 -0.6(2)
C2 C3 C4 C7 179.70(16)
C3 C4 C5 C6 0.4(2)
C7 C4 C5 C6 -179.88(15)
N11 C1 C6 C5 180.0(5)
C2 C1 C6 C5 0.7(3)
Cl1 C1 C6 C5 -179.70(19)
C4 C5 C6 C1 -0.5(2)
C5 C4 C7 C17 175.8(2)
C3 C4 C7 C17 -4.5(3)
O1 Cl11 N1 O2 -174.8(10)
C11 Cl11 N1 O2 -178(4)
O2 Cl11 N1 O1 174.8(10)
C11 Cl11 N1 O1 -3(4)
O1 Cl11 N1 C11 3(4)
O2 Cl11 N1 C11 178(4)
O2 Cl11 O1 N1 -149(6)
C11 Cl11 O1 N1 1.1(16)
O2 N1 O1 Cl11 6.3(12)
C11 N1 O1 Cl11 -178(2)
O1 N1 O2 Cl11 -3.6(7)
C11 N1 O2 Cl11 -179(2)
O1 Cl11 O2 N1 152(5)
C11 Cl11 O2 N1 0.8(14)
Cl11 N1 C11 C12 179(3)
O2 N1 C11 C12 -3.8(10)
O1 N1 C11 C12 -179.3(7)
Cl11 N1 C11 C16 -2(4)
O2 N1 C11 C16 175.5(6)
O1 N1 C11 C16 0.0(12)
O2 N1 C11 Cl11 177(4)
O1 N1 C11 Cl11 2(3)
O1 Cl11 C11 N1 -177(4)
O2 Cl11 C11 N1 -2(3)
N1 Cl11 C11 C12 -1(4)
O1 Cl11 C11 C12 -178.7(6)
O2 Cl11 C11 C12 -3.3(4)
N1 Cl11 C11 C16 178(4)
O1 Cl11 C11 C16 0.8(7)
O2 Cl11 C11 C16 176.2(2)
N1 C11 C12 C13 -179.7(5)
C16 C11 C12 C13 0.9(3)
Cl11 C11 C12 C13 -179.5(2)
C11 C12 C13 C14 -0.9(3)
C12 C13 C14 C15 0.6(2)
C12 C13 C14 C17 -179.70(16)
C13 C14 C15 C16 -0.4(2)
C17 C14 C15 C16 179.88(15)
N1 C11 C16 C15 180.0(5)
C12 C11 C16 C15 -0.7(3)
Cl11 C11 C16 C15 179.70(19)
C14 C15 C16 C11 0.5(2)
C4 C7 C17 C14 180.0
C15 C14 C17 C7 -175.8(2)
C13 C14 C17 C7 4.5(3)
