#------------------------------------------------------------------------------
#$Date: 2019-11-28 16:11:22 +0200 (Thu, 28 Nov 2019) $
#$Revision: 244087 $
#$URL: file:///home/coder/svn-repositories/cod/cif/7/23/82/7238202.cif $
#------------------------------------------------------------------------------
#
# This file is available in the Crystallography Open Database (COD),
# http://www.crystallography.net/
#
# All data on this site have been placed in the public domain by the
# contributors.
#
data_7238202
loop_
_publ_author_name
'Behrnd, Norwid-Rasmus'
'Labat, Ga\"el'
'Venugopalan, Paloth'
'Hulliger, J\"urg'
'B\"urgi, Hans-Beat'
_publ_section_title
;
 Influence of the solvent of crystallization on the orientational disorder
 of (trans)-4-chloro-4&#x2032;-nitrostilbene
;
_journal_issue                   12
_journal_name_full               CrystEngComm
_journal_page_first              4101
_journal_paper_doi               10.1039/b926652f
_journal_volume                  12
_journal_year                    2010
_chemical_formula_moiety         'C14 H10 Cl N O2'
_chemical_formula_sum            'C14 H10 Cl N O2'
_chemical_formula_weight         259.68
_space_group_IT_number           4
_space_group_name_Hall           'P 2ybc'
_space_group_name_H-M_alt        'P 1 21 1 (a,b,c-1/4)'
_symmetry_cell_setting           monoclinic
_symmetry_space_group_name_Hall  'P 2ybc'
_symmetry_space_group_name_H-M   'P 1 21 1 (a,b,c-1/4)'
_atom_sites_solution_hydrogens   geom
_atom_sites_solution_primary     direct
_atom_sites_solution_secondary   difmap
_audit_creation_method           SHELXL-97
_cell_angle_alpha                90.00
_cell_angle_beta                 93.236(3)
_cell_angle_gamma                90.00
_cell_formula_units_Z            2
_cell_length_a                   3.9239(3)
_cell_length_b                   12.9707(9)
_cell_length_c                   12.2375(8)
_cell_measurement_reflns_used    3493
_cell_measurement_temperature    293(2)
_cell_measurement_theta_max      22.9775
_cell_measurement_theta_min      3.141
_cell_volume                     621.84(8)
_computing_cell_refinement       'SAINT (Bruker, 2003)'
_computing_data_collection       'SMART (Bruker, 1997)'
_computing_data_reduction        'SHELXTL (Bruker, 2000)'
_computing_molecular_graphics    'PLATON (Spek, 2003)'
_computing_publication_material  SHELXL-97
_computing_structure_refinement  'SHELXL-97 (Sheldrick, 1997)'
_computing_structure_solution    'SHELXS-97 (Sheldrick, 1990)'
_diffrn_ambient_temperature      293(2)
_diffrn_measured_fraction_theta_full 0.884
_diffrn_measured_fraction_theta_max 0.884
_diffrn_measurement_device_type  'Bruker SMART 1K'
_diffrn_measurement_method       'omega scan method'
_diffrn_radiation_monochromator  graphite
_diffrn_radiation_source         'fine-focus sealed tube'
_diffrn_radiation_type           MoK\a
_diffrn_radiation_wavelength     0.71073
_diffrn_reflns_av_R_equivalents  0.0100
_diffrn_reflns_av_sigmaI/netI    0.0310
_diffrn_reflns_limit_h_max       5
_diffrn_reflns_limit_h_min       -4
_diffrn_reflns_limit_k_max       15
_diffrn_reflns_limit_k_min       -16
_diffrn_reflns_limit_l_max       12
_diffrn_reflns_limit_l_min       -15
_diffrn_reflns_number            3481
_diffrn_reflns_theta_full        27.79
_diffrn_reflns_theta_max         27.79
_diffrn_reflns_theta_min         2.29
_diffrn_standards_decay_%        0
_diffrn_standards_interval_time  0
_diffrn_standards_number         0
_exptl_absorpt_coefficient_mu    0.299
_exptl_absorpt_correction_T_max  1
_exptl_absorpt_correction_T_min  0.497814
_exptl_absorpt_correction_type   multi-scan
_exptl_absorpt_process_details   'SADABS (Bruker, 2004)'
_exptl_crystal_colour            yellow
_exptl_crystal_density_diffrn    1.387
_exptl_crystal_density_method    'not measured'
_exptl_crystal_description       'prismatic rod'
_exptl_crystal_F_000             268
_exptl_crystal_size_max          0.30
_exptl_crystal_size_mid          0.20
_exptl_crystal_size_min          0.10
_refine_diff_density_max         0.104
_refine_diff_density_min         -0.092
_refine_diff_density_rms         0.024
_refine_ls_abs_structure_details 'Flack H D (1983), Acta Cryst. A39, 876-881'
_refine_ls_abs_structure_Flack   10(10)
_refine_ls_extinction_method     none
_refine_ls_goodness_of_fit_ref   1.153
_refine_ls_hydrogen_treatment    constr
_refine_ls_matrix_type           full
_refine_ls_number_parameters     101
_refine_ls_number_reflns         2510
_refine_ls_number_restraints     1
_refine_ls_restrained_S_all      1.152
_refine_ls_R_factor_all          0.1213
_refine_ls_R_factor_gt           0.0603
_refine_ls_shift/su_max          0.000
_refine_ls_shift/su_mean         0.000
_refine_ls_structure_factor_coef Fsqd
_refine_ls_weighting_details
'calc w=1/[\s^2^(Fo^2^)+(0.0222P)^2^+0.2256P] where P=(Fo^2^+2Fc^2^)/3'
_refine_ls_weighting_scheme      calc
_refine_ls_wR_factor_gt          0.1208
_refine_ls_wR_factor_ref         0.1367
_reflns_number_gt                1326
_reflns_number_total             2510
_reflns_threshold_expression     I>2sigma(I)
_cod_data_source_file            b926652f.txt
_cod_data_source_block           CNS-MeOH-small-P21/c
_cod_original_sg_symbol_H-M      P21/c
_cod_database_code               7238202
loop_
_symmetry_equiv_pos_as_xyz
'x, y, z'
'-x, y+1/2, -z+1/2'
loop_
_atom_site_label
_atom_site_type_symbol
_atom_site_fract_x
_atom_site_fract_y
_atom_site_fract_z
_atom_site_U_iso_or_equiv
_atom_site_adp_type
_atom_site_occupancy
_atom_site_symmetry_multiplicity
_atom_site_calc_flag
_atom_site_refinement_flags
Cl1 Cl 0.3690(14) -0.46069(16) -0.1749(5) 0.116(2) Uani 0.50 1 d P
N11 N 0.364(3) -0.4168(6) -0.1742(12) 0.082(2) Uani 0.50 1 d P
O11 O 0.316(2) -0.4969(6) -0.1225(5) 0.131(3) Uani 0.50 1 d P
O12 O 0.4993(11) -0.4123(3) -0.2582(3) 0.1156(13) Uani 0.50 1 d P
C1 C 0.2611(5) -0.32911(17) -0.12314(19) 0.0733(6) Uani 1 1 d .
C2 C 0.3154(5) -0.2392(2) -0.17905(18) 0.0827(7) Uani 1 1 d .
H2A H 0.4140 -0.2407 -0.2464 0.099 Uiso 1 1 calc R
C3 C 0.2225(5) -0.14755(17) -0.13442(17) 0.0761(6) Uani 1 1 d .
H3A H 0.2559 -0.0867 -0.1725 0.091 Uiso 1 1 calc R
C4 C 0.0783(5) -0.14338(16) -0.03251(17) 0.0672(6) Uani 1 1 d .
C5 C 0.0287(5) -0.23560(16) 0.02063(17) 0.0738(6) Uani 1 1 d .
H5A H -0.0689 -0.2346 0.0881 0.089 Uiso 1 1 calc R
C6 C 0.1189(5) -0.32943(17) -0.02287(19) 0.0785(6) Uani 1 1 d .
H6A H 0.0847 -0.3907 0.0144 0.094 Uiso 1 1 calc R
C7 C -0.0237(5) -0.04636(14) 0.01829(18) 0.0742(6) Uani 1 1 d .
H7A H -0.1337 -0.0518 0.0834 0.089 Uiso 1 1 calc R
Cl11 Cl -0.3690(14) 0.46069(16) 0.1749(5) 0.116(2) Uani 0.50 1 d P
N1 N -0.364(3) 0.4168(6) 0.1742(12) 0.082(2) Uani 0.50 1 d P
O1 O -0.316(2) 0.4969(6) 0.1225(5) 0.131(3) Uani 0.50 1 d P
O2 O -0.4993(11) 0.4123(3) 0.2582(3) 0.1156(13) Uani 0.50 1 d P
C11 C -0.2611(5) 0.32911(17) 0.12314(19) 0.0733(6) Uani 1 1 d .
C12 C -0.3154(5) 0.2392(2) 0.17905(18) 0.0827(7) Uani 1 1 d .
H12A H -0.4140 0.2407 0.2464 0.099 Uiso 1 1 calc R
C13 C -0.2225(5) 0.14755(17) 0.13442(17) 0.0761(6) Uani 1 1 d .
H13A H -0.2559 0.0867 0.1725 0.091 Uiso 1 1 calc R
C14 C -0.0783(5) 0.14338(16) 0.03251(17) 0.0672(6) Uani 1 1 d .
C15 C -0.0287(5) 0.23560(16) -0.02063(17) 0.0738(6) Uani 1 1 d .
H15A H 0.0689 0.2346 -0.0881 0.089 Uiso 1 1 calc R
C16 C -0.1189(5) 0.32943(17) 0.02287(19) 0.0785(6) Uani 1 1 d .
H16A H -0.0847 0.3907 -0.0144 0.094 Uiso 1 1 calc R
C17 C 0.0237(5) 0.04636(14) -0.01829(18) 0.0742(6) Uani 1 1 d .
H17A H 0.1337 0.0518 -0.0834 0.089 Uiso 1 1 calc R
loop_
_atom_site_aniso_label
_atom_site_aniso_U_11
_atom_site_aniso_U_22
_atom_site_aniso_U_33
_atom_site_aniso_U_23
_atom_site_aniso_U_13
_atom_site_aniso_U_12
Cl1 0.1194(18) 0.094(4) 0.133(3) -0.044(4) 0.006(2) 0.025(3)
N11 0.076(4) 0.066(6) 0.104(7) 0.007(6) -0.001(4) 0.004(5)
O11 0.175(5) 0.078(4) 0.141(6) 0.006(3) 0.034(4) 0.016(3)
O12 0.154(4) 0.095(3) 0.101(3) -0.030(2) 0.032(3) 0.016(2)
C1 0.0622(13) 0.0795(16) 0.0778(16) -0.0148(13) -0.0012(11) 0.0059(12)
C2 0.0709(14) 0.1101(19) 0.0679(15) -0.0042(14) 0.0104(12) -0.0007(13)
C3 0.0705(14) 0.0845(15) 0.0741(15) 0.0073(12) 0.0099(11) -0.0017(12)
C4 0.0530(11) 0.0792(14) 0.0692(14) -0.0046(12) 0.0020(10) 0.0006(10)
C5 0.0713(14) 0.0848(15) 0.0660(14) 0.0021(12) 0.0092(11) -0.0023(12)
C6 0.0755(14) 0.0766(15) 0.0834(17) 0.0030(12) 0.0043(12) 0.0031(12)
C7 0.0637(12) 0.0845(15) 0.0746(14) 0.0054(12) 0.0051(10) -0.0030(12)
Cl11 0.1194(18) 0.094(4) 0.133(3) -0.044(4) 0.006(2) 0.025(3)
N1 0.076(4) 0.066(6) 0.104(7) 0.007(6) -0.001(4) 0.004(5)
O1 0.175(5) 0.078(4) 0.141(6) 0.006(3) 0.034(4) 0.016(3)
O2 0.154(4) 0.095(3) 0.101(3) -0.030(2) 0.032(3) 0.016(2)
C11 0.0622(13) 0.0795(16) 0.0778(16) -0.0148(13) -0.0012(11) 0.0059(12)
C12 0.0709(14) 0.1101(19) 0.0679(15) -0.0042(14) 0.0104(12) -0.0007(13)
C13 0.0705(14) 0.0845(15) 0.0741(15) 0.0073(12) 0.0099(11) -0.0017(12)
C14 0.0530(11) 0.0792(14) 0.0692(14) -0.0046(12) 0.0020(10) 0.0006(10)
C15 0.0713(14) 0.0848(15) 0.0660(14) 0.0021(12) 0.0092(11) -0.0023(12)
C16 0.0755(14) 0.0766(15) 0.0834(17) 0.0030(12) 0.0043(12) 0.0031(12)
C17 0.0637(12) 0.0845(15) 0.0746(14) 0.0054(12) 0.0051(10) -0.0030(12)
loop_
_atom_type_symbol
_atom_type_description
_atom_type_scat_dispersion_real
_atom_type_scat_dispersion_imag
_atom_type_scat_source
C C 0.0033 0.0016 'International Tables Vol C Tables 4.2.6.8 and 6.1.1.4'
H H 0.0000 0.0000 'International Tables Vol C Tables 4.2.6.8 and 6.1.1.4'
N N 0.0061 0.0033 'International Tables Vol C Tables 4.2.6.8 and 6.1.1.4'
O O 0.0106 0.0060 'International Tables Vol C Tables 4.2.6.8 and 6.1.1.4'
Cl Cl 0.1484 0.1585 'International Tables Vol C Tables 4.2.6.8 and 6.1.1.4'
loop_
_geom_angle_atom_site_label_1
_geom_angle_atom_site_label_2
_geom_angle_atom_site_label_3
_geom_angle
N11 Cl1 O11 123(2)
N11 Cl1 O12 63.6(19)
O11 Cl1 O12 170.5(8)
N11 Cl1 C1 22.6(18)
O11 Cl1 C1 100.5(8)
O12 Cl1 C1 86.2(2)
Cl1 N11 O12 90.9(18)
Cl1 N11 O11 34.4(17)
O12 N11 O11 125.0(8)
Cl1 N11 C1 148(3)
O12 N11 C1 120.9(9)
O11 N11 C1 114.1(10)
Cl1 O11 N11 22.8(8)
N11 O12 Cl1 25.5(4)
N11 C1 C2 114.8(6)
N11 C1 C6 123.3(6)
C2 C1 C6 121.9(2)
N11 C1 Cl1 9.2(8)
C2 C1 Cl1 124.0(3)
C6 C1 Cl1 114.1(3)
C3 C2 C1 119.1(2)
C3 C2 H2A 120.4
C1 C2 H2A 120.4
C2 C3 C4 121.4(2)
C2 C3 H3A 119.3
C4 C3 H3A 119.3
C5 C4 C3 117.5(2)
C5 C4 C7 119.59(19)
C3 C4 C7 122.9(2)
C4 C5 C6 122.4(2)
C4 C5 H5A 118.8
C6 C5 H5A 118.8
C1 C6 C5 117.8(2)
C1 C6 H6A 121.1
C5 C6 H6A 121.1
C17 C7 C4 126.8(3)
C17 C7 H7A 116.6
C4 C7 H7A 116.6
N1 Cl11 O1 123(2)
N1 Cl11 O2 63.6(19)
O1 Cl11 O2 170.5(8)
N1 Cl11 C11 22.6(18)
O1 Cl11 C11 100.5(8)
O2 Cl11 C11 86.2(2)
Cl11 N1 O2 90.9(18)
Cl11 N1 O1 34.4(17)
O2 N1 O1 125.0(8)
Cl11 N1 C11 148(3)
O2 N1 C11 120.9(9)
O1 N1 C11 114.1(10)
Cl11 O1 N1 22.8(8)
N1 O2 Cl11 25.5(4)
N1 C11 C12 114.8(6)
N1 C11 C16 123.3(6)
C12 C11 C16 121.9(2)
N1 C11 Cl11 9.2(8)
C12 C11 Cl11 124.0(3)
C16 C11 Cl11 114.1(3)
C13 C12 C11 119.1(2)
C13 C12 H12A 120.4
C11 C12 H12A 120.4
C12 C13 C14 121.4(2)
C12 C13 H13A 119.3
C14 C13 H13A 119.3
C15 C14 C13 117.5(2)
C15 C14 C17 119.59(19)
C13 C14 C17 122.9(2)
C14 C15 C16 122.4(2)
C14 C15 H15A 118.8
C16 C15 H15A 118.8
C11 C16 C15 117.8(2)
C11 C16 H16A 121.1
C15 C16 H16A 121.1
C7 C17 C14 126.8(3)
C7 C17 H17A 116.6
C14 C17 H17A 116.6
loop_
_geom_bond_atom_site_label_1
_geom_bond_atom_site_label_2
_geom_bond_distance
Cl1 N11 0.570(8)
Cl1 O11 0.831(6)
Cl1 O12 1.323(7)
Cl1 C1 1.877(3)
N11 O12 1.185(15)
N11 O11 1.236(17)
N11 C1 1.369(8)
C1 C2 1.375(3)
C1 C6 1.376(3)
C2 C3 1.366(3)
C2 H2A 0.9300
C3 C4 1.399(3)
C3 H3A 0.9300
C4 C5 1.380(3)
C4 C7 1.469(3)
C5 C6 1.382(3)
C5 H5A 0.9300
C6 H6A 0.9300
C7 C17 1.300(3)
C7 H7A 0.9300
Cl11 N1 0.570(8)
Cl11 O1 0.831(6)
Cl11 O2 1.323(7)
Cl11 C11 1.877(3)
N1 O2 1.185(15)
N1 O1 1.236(17)
N1 C11 1.369(8)
C11 C12 1.375(3)
C11 C16 1.376(3)
C12 C13 1.366(3)
C12 H12A 0.9300
C13 C14 1.399(3)
C13 H13A 0.9300
C14 C15 1.380(3)
C14 C17 1.469(3)
C15 C16 1.382(3)
C15 H15A 0.9300
C16 H16A 0.9300
C17 H17A 0.9300
loop_
_geom_torsion_atom_site_label_1
_geom_torsion_atom_site_label_2
_geom_torsion_atom_site_label_3
_geom_torsion_atom_site_label_4
_geom_torsion
O11 Cl1 N11 O12 171.9(12)
C1 Cl1 N11 O12 -177(4)
O12 Cl1 N11 O11 -171.9(12)
C1 Cl1 N11 O11 12(5)
O11 Cl1 N11 C1 -12(5)
O12 Cl1 N11 C1 177(4)
O12 Cl1 O11 N11 130(7)
C1 Cl1 O11 N11 -4(2)
O12 N11 O11 Cl1 -9.9(15)
C1 N11 O11 Cl1 173(3)
O11 N11 O12 Cl1 5.6(9)
C1 N11 O12 Cl1 -178(3)
O11 Cl1 O12 N11 -134(6)
C1 Cl1 O12 N11 1.3(17)
Cl1 N11 C1 C2 -174(4)
O12 N11 C1 C2 2.5(13)
O11 N11 C1 C2 179.4(9)
Cl1 N11 C1 C6 7(5)
O12 N11 C1 C6 -176.5(7)
O11 N11 C1 C6 0.3(14)
O12 N11 C1 Cl1 176(5)
O11 N11 C1 Cl1 -7(3)
O11 Cl1 C1 N11 170(5)
O12 Cl1 C1 N11 -3(4)
N11 Cl1 C1 C2 7(4)
O11 Cl1 C1 C2 177.3(7)
O12 Cl1 C1 C2 4.0(4)
N11 Cl1 C1 C6 -173(4)
O11 Cl1 C1 C6 -3.0(8)
O12 Cl1 C1 C6 -176.2(3)
N11 C1 C2 C3 -179.7(6)
C6 C1 C2 C3 -0.7(3)
Cl1 C1 C2 C3 179.0(3)
C1 C2 C3 C4 0.9(3)
C2 C3 C4 C5 -0.9(3)
C2 C3 C4 C7 179.80(19)
C3 C4 C5 C6 0.6(3)
C7 C4 C5 C6 179.94(19)
N11 C1 C6 C5 179.3(6)
C2 C1 C6 C5 0.4(3)
Cl1 C1 C6 C5 -179.4(2)
C4 C5 C6 C1 -0.4(3)
C5 C4 C7 C17 175.8(3)
C3 C4 C7 C17 -4.9(4)
O1 Cl11 N1 O2 -171.9(12)
C11 Cl11 N1 O2 177(4)
O2 Cl11 N1 O1 171.9(12)
C11 Cl11 N1 O1 -12(5)
O1 Cl11 N1 C11 12(5)
O2 Cl11 N1 C11 -177(4)
O2 Cl11 O1 N1 -130(7)
C11 Cl11 O1 N1 4(2)
O2 N1 O1 Cl11 9.9(15)
C11 N1 O1 Cl11 -173(3)
O1 N1 O2 Cl11 -5.6(9)
C11 N1 O2 Cl11 178(3)
O1 Cl11 O2 N1 134(6)
C11 Cl11 O2 N1 -1.3(17)
Cl11 N1 C11 C12 174(4)
O2 N1 C11 C12 -2.5(13)
O1 N1 C11 C12 -179.4(9)
Cl11 N1 C11 C16 -7(5)
O2 N1 C11 C16 176.5(7)
O1 N1 C11 C16 -0.3(14)
O2 N1 C11 Cl11 -176(5)
O1 N1 C11 Cl11 7(3)
O1 Cl11 C11 N1 -170(5)
O2 Cl11 C11 N1 3(4)
N1 Cl11 C11 C12 -7(4)
O1 Cl11 C11 C12 -177.3(7)
O2 Cl11 C11 C12 -4.0(4)
N1 Cl11 C11 C16 173(4)
O1 Cl11 C11 C16 3.0(8)
O2 Cl11 C11 C16 176.2(3)
N1 C11 C12 C13 179.7(6)
C16 C11 C12 C13 0.7(3)
Cl11 C11 C12 C13 -179.0(3)
C11 C12 C13 C14 -0.9(3)
C12 C13 C14 C15 0.9(3)
C12 C13 C14 C17 -179.80(19)
C13 C14 C15 C16 -0.6(3)
C17 C14 C15 C16 -179.94(19)
N1 C11 C16 C15 -179.3(6)
C12 C11 C16 C15 -0.4(3)
Cl11 C11 C16 C15 179.4(2)
C14 C15 C16 C11 0.4(3)
C4 C7 C17 C14 180.0
C15 C14 C17 C7 -175.8(3)
C13 C14 C17 C7 4.9(4)
