#------------------------------------------------------------------------------
#$Date: 2019-11-28 16:11:22 +0200 (Thu, 28 Nov 2019) $
#$Revision: 244087 $
#$URL: file:///home/coder/svn-repositories/cod/cif/7/23/81/7238196.cif $
#------------------------------------------------------------------------------
#
# This file is available in the Crystallography Open Database (COD),
# http://www.crystallography.net/
#
# All data on this site have been placed in the public domain by the
# contributors.
#
data_7238196
loop_
_publ_author_name
'Behrnd, Norwid-Rasmus'
'Labat, Ga\"el'
'Venugopalan, Paloth'
'Hulliger, J\"urg'
'B\"urgi, Hans-Beat'
_publ_section_title
;
 Influence of the solvent of crystallization on the orientational disorder
 of (trans)-4-chloro-4&#x2032;-nitrostilbene
;
_journal_issue                   12
_journal_name_full               CrystEngComm
_journal_page_first              4101
_journal_paper_doi               10.1039/b926652f
_journal_volume                  12
_journal_year                    2010
_chemical_formula_moiety         'C14 H10 Cl N O2'
_chemical_formula_sum            'C14 H10 Cl N O2'
_chemical_formula_weight         259.68
_space_group_IT_number           4
_space_group_name_Hall           'P 2ybc'
_space_group_name_H-M_alt        'P 1 21 1 (a,b,c-1/4)'
_symmetry_cell_setting           monoclinic
_symmetry_space_group_name_Hall  'P 2ybc'
_symmetry_space_group_name_H-M   'P 1 21 1 (a,b,c-1/4)'
_atom_sites_solution_hydrogens   geom
_atom_sites_solution_primary     direct
_atom_sites_solution_secondary   difmap
_audit_creation_method           SHELXL-97
_cell_angle_alpha                90.000(2)
_cell_angle_beta                 93.188(2)
_cell_angle_gamma                90.000(2)
_cell_formula_units_Z            2
_cell_length_a                   3.91920(10)
_cell_length_b                   12.9630(4)
_cell_length_c                   12.2399(4)
_cell_measurement_reflns_used    3483
_cell_measurement_temperature    293(2)
_cell_measurement_theta_max      26.239
_cell_measurement_theta_min      3.143
_cell_volume                     620.88(3)
_computing_cell_refinement       'SAINT (Bruker, 2003)'
_computing_data_collection       'SMART (Bruker, 1997)'
_computing_data_reduction        'SHELXTL (Bruker, 2000)'
_computing_molecular_graphics    'PLATON (Spek, 2003)'
_computing_publication_material  SHELXL-97
_computing_structure_refinement  'SHELXL-97 (Sheldrick, 1997)'
_computing_structure_solution    'SHELXS-97 (Sheldrick, 1990)'
_diffrn_ambient_temperature      293(2)
_diffrn_measured_fraction_theta_full 0.911
_diffrn_measured_fraction_theta_max 0.911
_diffrn_measurement_device_type  'Bruker SMART 1K'
_diffrn_measurement_method       'omega scan method'
_diffrn_radiation_monochromator  graphite
_diffrn_radiation_source         'fine-focus sealed tube'
_diffrn_radiation_type           MoK\a
_diffrn_radiation_wavelength     0.71073
_diffrn_reflns_av_R_equivalents  0.0184
_diffrn_reflns_av_sigmaI/netI    0.0201
_diffrn_reflns_limit_h_max       4
_diffrn_reflns_limit_h_min       -5
_diffrn_reflns_limit_k_max       12
_diffrn_reflns_limit_k_min       -16
_diffrn_reflns_limit_l_max       16
_diffrn_reflns_limit_l_min       -15
_diffrn_reflns_number            3467
_diffrn_reflns_theta_full        27.80
_diffrn_reflns_theta_max         27.80
_diffrn_reflns_theta_min         2.29
_diffrn_standards_decay_%        0
_diffrn_standards_interval_time  0
_diffrn_standards_number         0
_exptl_absorpt_coefficient_mu    0.300
_exptl_absorpt_correction_T_max  1
_exptl_absorpt_correction_T_min  0.812887
_exptl_absorpt_correction_type   multi-scan
_exptl_absorpt_process_details   'SADABS (Bruker, 2004)'
_exptl_crystal_colour            yellow
_exptl_crystal_density_diffrn    1.389
_exptl_crystal_density_method    'not measured'
_exptl_crystal_description       'prismatic rod'
_exptl_crystal_F_000             268
_exptl_crystal_size_max          0.30
_exptl_crystal_size_mid          0.20
_exptl_crystal_size_min          0.10
_refine_diff_density_max         0.084
_refine_diff_density_min         -0.124
_refine_diff_density_rms         0.035
_refine_ls_abs_structure_details 'Flack H D (1983), Acta Cryst. A39, 876-881'
_refine_ls_abs_structure_Flack   0.0(3)
_refine_ls_extinction_coef       0.022(4)
_refine_ls_extinction_expression Fc^*^=kFc[1+0.001xFc^2^\l^3^/sin(2\q)]^-1/4^
_refine_ls_extinction_method     SHELXL
_refine_ls_goodness_of_fit_ref   1.036
_refine_ls_hydrogen_treatment    constr
_refine_ls_matrix_type           full
_refine_ls_number_parameters     102
_refine_ls_number_reflns         1974
_refine_ls_number_restraints     1
_refine_ls_restrained_S_all      1.036
_refine_ls_R_factor_all          0.0600
_refine_ls_R_factor_gt           0.0408
_refine_ls_shift/su_max          0.000
_refine_ls_shift/su_mean         0.000
_refine_ls_structure_factor_coef Fsqd
_refine_ls_weighting_details
'calc w=1/[\s^2^(Fo^2^)+(0.0476P)^2^+0.0577P] where P=(Fo^2^+2Fc^2^)/3'
_refine_ls_weighting_scheme      calc
_refine_ls_wR_factor_gt          0.1041
_refine_ls_wR_factor_ref         0.1168
_reflns_number_gt                1393
_reflns_number_total             1974
_reflns_threshold_expression     I>2sigma(I)
_cod_data_source_file            b926652f.txt
_cod_data_source_block           CNS-DMSOI-small-P21
_cod_original_sg_symbol_Hall     'P 2yb'
_cod_original_sg_symbol_H-M      P21
_cod_database_code               7238196
loop_
_symmetry_equiv_pos_as_xyz
'x, y, z'
'-x, y+1/2, -z+1/2'
loop_
_atom_site_label
_atom_site_type_symbol
_atom_site_fract_x
_atom_site_fract_y
_atom_site_fract_z
_atom_site_U_iso_or_equiv
_atom_site_adp_type
_atom_site_occupancy
_atom_site_symmetry_multiplicity
_atom_site_calc_flag
_atom_site_refinement_flags
Cl1 Cl 0.3706(6) -0.46093(9) -0.1755(2) 0.1125(7) Uani 0.4634(18) 1 d P
N11 N 0.3629(14) -0.4151(3) -0.1725(4) 0.0828(10) Uani 0.5366(18) 1 d P
O11 O 0.3160(11) -0.4977(3) -0.1233(3) 0.1301(13) Uani 0.5366(18) 1 d P
O12 O 0.4983(6) -0.41286(18) -0.25803(18) 0.1132(8) Uani 0.5366(18) 1 d P
C1 C 0.2615(3) -0.32958(11) -0.12304(10) 0.0746(4) Uani 1 1 d .
C2 C 0.3147(3) -0.23918(13) -0.17920(9) 0.0805(4) Uani 1 1 d .
H2A H 0.4118 -0.2406 -0.2468 0.097 Uiso 1 1 calc R
C3 C 0.2228(3) -0.14754(11) -0.13425(10) 0.0765(4) Uani 1 1 d .
H3A H 0.2575 -0.0866 -0.1721 0.092 Uiso 1 1 calc R
C4 C 0.0781(3) -0.14333(9) -0.03285(9) 0.0659(3) Uani 1 1 d .
C5 C 0.0283(3) -0.23616(10) 0.02061(9) 0.0728(4) Uani 1 1 d .
H5A H -0.0698 -0.2352 0.0881 0.087 Uiso 1 1 calc R
C6 C 0.1188(3) -0.32918(10) -0.02261(10) 0.0768(4) Uani 1 1 d .
H6A H 0.0847 -0.3904 0.0149 0.092 Uiso 1 1 calc R
C7 C -0.0243(3) -0.04663(9) 0.01842(10) 0.0721(4) Uani 1 1 d .
H7A H -0.1345 -0.0522 0.0835 0.087 Uiso 1 1 calc R
Cl11 Cl -0.3706(6) 0.46093(9) 0.1755(2) 0.1125(7) Uani 0.5366(18) 1 d P
N1 N -0.3629(14) 0.4151(3) 0.1725(4) 0.0828(10) Uani 0.4634(18) 1 d P
O1 O -0.3160(11) 0.4977(3) 0.1233(3) 0.1301(13) Uani 0.4634(18) 1 d P
O2 O -0.4983(6) 0.41286(18) 0.25803(18) 0.1132(8) Uani 0.4634(18) 1 d P
C11 C -0.2615(3) 0.32958(11) 0.12304(10) 0.0746(4) Uani 1 1 d .
C12 C -0.3147(3) 0.23918(13) 0.17920(9) 0.0805(4) Uani 1 1 d .
H12A H -0.4118 0.2406 0.2468 0.097 Uiso 1 1 calc R
C13 C -0.2228(3) 0.14754(11) 0.13425(10) 0.0765(4) Uani 1 1 d .
H13A H -0.2575 0.0866 0.1721 0.092 Uiso 1 1 calc R
C14 C -0.0781(3) 0.14333(9) 0.03285(9) 0.0659(3) Uani 1 1 d .
C15 C -0.0283(3) 0.23616(10) -0.02061(9) 0.0728(4) Uani 1 1 d .
H15A H 0.0698 0.2352 -0.0881 0.087 Uiso 1 1 calc R
C16 C -0.1188(3) 0.32918(10) 0.02261(10) 0.0768(4) Uani 1 1 d .
H16A H -0.0847 0.3904 -0.0149 0.092 Uiso 1 1 calc R
C17 C 0.0243(3) 0.04663(9) -0.01842(10) 0.0721(4) Uani 1 1 d .
H17A H 0.1345 0.0522 -0.0835 0.087 Uiso 1 1 calc R
loop_
_atom_site_aniso_label
_atom_site_aniso_U_11
_atom_site_aniso_U_22
_atom_site_aniso_U_33
_atom_site_aniso_U_23
_atom_site_aniso_U_13
_atom_site_aniso_U_12
Cl1 0.1121(9) 0.0921(15) 0.1331(14) -0.0446(14) 0.0042(8) 0.0235(12)
N11 0.0803(18) 0.067(3) 0.100(3) -0.003(2) -0.0036(17) 0.007(2)
O11 0.169(3) 0.078(2) 0.147(3) 0.0116(17) 0.040(2) 0.0132(17)
O12 0.150(2) 0.0935(17) 0.0985(14) -0.0254(13) 0.0335(14) 0.0191(14)
C1 0.0590(7) 0.0880(10) 0.0764(8) -0.0148(7) -0.0014(5) 0.0059(6)
C2 0.0695(7) 0.1068(12) 0.0658(7) -0.0031(7) 0.0092(6) -0.0002(7)
C3 0.0700(7) 0.0855(10) 0.0745(7) 0.0078(6) 0.0067(6) -0.0036(6)
C4 0.0522(6) 0.0787(8) 0.0665(7) -0.0032(6) 0.0009(5) -0.0011(5)
C5 0.0690(7) 0.0837(9) 0.0663(7) 0.0020(6) 0.0085(5) -0.0002(6)
C6 0.0733(7) 0.0782(9) 0.0791(8) 0.0023(6) 0.0050(6) 0.0017(6)
C7 0.0617(6) 0.0839(9) 0.0711(7) 0.0039(6) 0.0064(5) -0.0030(6)
Cl11 0.1121(9) 0.0921(15) 0.1331(14) -0.0446(14) 0.0042(8) 0.0235(12)
N1 0.0803(18) 0.067(3) 0.100(3) -0.003(2) -0.0036(17) 0.007(2)
O1 0.169(3) 0.078(2) 0.147(3) 0.0116(17) 0.040(2) 0.0132(17)
O2 0.150(2) 0.0935(17) 0.0985(14) -0.0254(13) 0.0335(14) 0.0191(14)
C11 0.0590(7) 0.0880(10) 0.0764(8) -0.0148(7) -0.0014(5) 0.0059(6)
C12 0.0695(7) 0.1068(12) 0.0658(7) -0.0031(7) 0.0092(6) -0.0002(7)
C13 0.0700(7) 0.0855(10) 0.0745(7) 0.0078(6) 0.0067(6) -0.0036(6)
C14 0.0522(6) 0.0787(8) 0.0665(7) -0.0032(6) 0.0009(5) -0.0011(5)
C15 0.0690(7) 0.0837(9) 0.0663(7) 0.0020(6) 0.0085(5) -0.0002(6)
C16 0.0733(7) 0.0782(9) 0.0791(8) 0.0023(6) 0.0050(6) 0.0017(6)
C17 0.0617(6) 0.0839(9) 0.0711(7) 0.0039(6) 0.0064(5) -0.0030(6)
loop_
_atom_type_symbol
_atom_type_description
_atom_type_scat_dispersion_real
_atom_type_scat_dispersion_imag
_atom_type_scat_source
C C 0.0033 0.0016 'International Tables Vol C Tables 4.2.6.8 and 6.1.1.4'
H H 0.0000 0.0000 'International Tables Vol C Tables 4.2.6.8 and 6.1.1.4'
N N 0.0061 0.0033 'International Tables Vol C Tables 4.2.6.8 and 6.1.1.4'
O O 0.0106 0.0060 'International Tables Vol C Tables 4.2.6.8 and 6.1.1.4'
Cl Cl 0.1484 0.1585 'International Tables Vol C Tables 4.2.6.8 and 6.1.1.4'
loop_
_geom_angle_atom_site_label_1
_geom_angle_atom_site_label_2
_geom_angle_atom_site_label_3
_geom_angle
N11 Cl1 O11 120.3(10)
N11 Cl1 O12 66.2(7)
O11 Cl1 O12 170.9(4)
N11 Cl1 C1 20.2(7)
O11 Cl1 C1 100.6(4)
O12 Cl1 C1 86.35(13)
Cl1 N11 O12 86.7(7)
Cl1 N11 O11 35.3(7)
O12 N11 O11 121.7(4)
Cl1 N11 C1 150.9(10)
O12 N11 C1 122.2(4)
O11 N11 C1 116.1(4)
Cl1 O11 N11 24.4(3)
N11 O12 Cl1 27.06(17)
N11 C1 C6 123.6(3)
N11 C1 C2 115.0(3)
C6 C1 C2 121.39(13)
N11 C1 Cl1 8.9(3)
C6 C1 Cl1 114.83(14)
C2 C1 Cl1 123.78(13)
C3 C2 C1 119.16(12)
C3 C2 H2A 120.4
C1 C2 H2A 120.4
C2 C3 C4 121.47(13)
C2 C3 H3A 119.3
C4 C3 H3A 119.3
C5 C4 C3 117.42(12)
C5 C4 C7 119.32(11)
C3 C4 C7 123.27(12)
C6 C5 C4 122.29(11)
C6 C5 H5A 118.9
C4 C5 H5A 118.9
C5 C6 C1 118.27(13)
C5 C6 H6A 120.9
C1 C6 H6A 120.9
C17 C7 C4 126.40(15)
C17 C7 H7A 116.8
C4 C7 H7A 116.8
N1 Cl11 O1 120.3(10)
N1 Cl11 O2 66.2(7)
O1 Cl11 O2 170.9(4)
N1 Cl11 C11 20.2(7)
O1 Cl11 C11 100.6(4)
O2 Cl11 C11 86.35(13)
Cl11 N1 O2 86.7(7)
Cl11 N1 O1 35.3(7)
O2 N1 O1 121.7(4)
Cl11 N1 C11 150.9(10)
O2 N1 C11 122.2(4)
O1 N1 C11 116.1(4)
Cl11 O1 N1 24.4(3)
N1 O2 Cl11 27.06(17)
N1 C11 C16 123.6(3)
N1 C11 C12 115.0(3)
C16 C11 C12 121.39(13)
N1 C11 Cl11 8.9(3)
C16 C11 Cl11 114.83(14)
C12 C11 Cl11 123.78(13)
C13 C12 C11 119.16(12)
C13 C12 H12A 120.4
C11 C12 H12A 120.4
C12 C13 C14 121.47(13)
C12 C13 H13A 119.3
C14 C13 H13A 119.3
C15 C14 C13 117.42(12)
C15 C14 C17 119.32(11)
C13 C14 C17 123.27(12)
C16 C15 C14 122.29(11)
C16 C15 H15A 118.9
C14 C15 H15A 118.9
C15 C16 C11 118.27(13)
C15 C16 H16A 120.9
C11 C16 H16A 120.9
C7 C17 C14 126.40(15)
C7 C17 H17A 116.8
C14 C17 H17A 116.8
loop_
_geom_bond_atom_site_label_1
_geom_bond_atom_site_label_2
_geom_bond_distance
Cl1 N11 0.597(4)
Cl1 O11 0.835(3)
Cl1 O12 1.310(3)
Cl1 C1 1.8776(18)
N11 O12 1.201(6)
N11 O11 1.248(7)
N11 C1 1.333(4)
C1 C6 1.3787(18)
C1 C2 1.3802(19)
C2 C3 1.3659(19)
C2 H2A 0.9300
C3 C4 1.3940(17)
C3 H3A 0.9300
C4 C5 1.3887(17)
C4 C7 1.4678(17)
C5 C6 1.3713(17)
C5 H5A 0.9300
C6 H6A 0.9300
C7 C17 1.308(2)
C7 H7A 0.9300
Cl11 N1 0.597(4)
Cl11 O1 0.835(3)
Cl11 O2 1.310(3)
Cl11 C11 1.8776(18)
N1 O2 1.201(6)
N1 O1 1.248(7)
N1 C11 1.333(4)
C11 C16 1.3787(18)
C11 C12 1.3802(19)
C12 C13 1.3659(19)
C12 H12A 0.9300
C13 C14 1.3940(17)
C13 H13A 0.9300
C14 C15 1.3887(17)
C14 C17 1.4678(17)
C15 C16 1.3713(17)
C15 H15A 0.9300
C16 H16A 0.9300
C17 H17A 0.9300
loop_
_geom_torsion_atom_site_label_1
_geom_torsion_atom_site_label_2
_geom_torsion_atom_site_label_3
_geom_torsion_atom_site_label_4
_geom_torsion
O11 Cl1 N11 O12 172.9(5)
C1 Cl1 N11 O12 -175(2)
O12 Cl1 N11 O11 -172.9(5)
C1 Cl1 N11 O11 12(2)
O11 Cl1 N11 C1 -12(2)
O12 Cl1 N11 C1 175(2)
O12 Cl1 O11 N11 135(3)
C1 Cl1 O11 N11 -4.3(8)
O12 N11 O11 Cl1 -8.3(6)
C1 N11 O11 Cl1 173.3(12)
O11 N11 O12 Cl1 4.8(4)
C1 N11 O12 Cl1 -176.9(11)
O11 Cl1 O12 N11 -138(3)
C1 Cl1 O12 N11 1.9(7)
Cl1 N11 C1 C6 9(2)
O12 N11 C1 C6 -177.1(3)
O11 N11 C1 C6 1.3(6)
Cl1 N11 C1 C2 -171.8(18)
O12 N11 C1 C2 1.9(6)
O11 N11 C1 C2 -179.7(4)
O12 N11 C1 Cl1 174(2)
O11 N11 C1 Cl1 -8.0(15)
O11 Cl1 C1 N11 169(2)
O12 Cl1 C1 N11 -4.9(18)
N11 Cl1 C1 C6 -171.5(19)
O11 Cl1 C1 C6 -2.4(4)
O12 Cl1 C1 C6 -176.46(15)
N11 Cl1 C1 C2 9.0(19)
O11 Cl1 C1 C2 178.1(3)
O12 Cl1 C1 C2 4.1(2)
N11 C1 C2 C3 -179.2(3)
C6 C1 C2 C3 -0.17(18)
Cl1 C1 C2 C3 179.29(12)
C1 C2 C3 C4 0.27(18)
C2 C3 C4 C5 -0.47(17)
C2 C3 C4 C7 -179.99(10)
C3 C4 C5 C6 0.59(17)
C7 C4 C5 C6 -179.87(10)
C4 C5 C6 C1 -0.49(17)
N11 C1 C6 C5 179.2(3)
C2 C1 C6 C5 0.27(18)
Cl1 C1 C6 C5 -179.23(12)
C5 C4 C7 C17 175.69(14)
C3 C4 C7 C17 -4.8(2)
O1 Cl11 N1 O2 -172.9(5)
C11 Cl11 N1 O2 175(2)
O2 Cl11 N1 O1 172.9(5)
C11 Cl11 N1 O1 -12(2)
O1 Cl11 N1 C11 12(2)
O2 Cl11 N1 C11 -175(2)
O2 Cl11 O1 N1 -135(3)
C11 Cl11 O1 N1 4.3(8)
O2 N1 O1 Cl11 8.3(6)
C11 N1 O1 Cl11 -173.3(12)
O1 N1 O2 Cl11 -4.8(4)
C11 N1 O2 Cl11 176.9(11)
O1 Cl11 O2 N1 138(3)
C11 Cl11 O2 N1 -1.9(7)
Cl11 N1 C11 C16 -9(2)
O2 N1 C11 C16 177.1(3)
O1 N1 C11 C16 -1.3(6)
Cl11 N1 C11 C12 171.8(18)
O2 N1 C11 C12 -1.9(6)
O1 N1 C11 C12 179.7(4)
O2 N1 C11 Cl11 -174(2)
O1 N1 C11 Cl11 8.0(15)
O1 Cl11 C11 N1 -169(2)
O2 Cl11 C11 N1 4.9(18)
N1 Cl11 C11 C16 171.5(19)
O1 Cl11 C11 C16 2.4(4)
O2 Cl11 C11 C16 176.46(15)
N1 Cl11 C11 C12 -9.0(19)
O1 Cl11 C11 C12 -178.1(3)
O2 Cl11 C11 C12 -4.1(2)
N1 C11 C12 C13 179.2(3)
C16 C11 C12 C13 0.17(18)
Cl11 C11 C12 C13 -179.29(12)
C11 C12 C13 C14 -0.27(18)
C12 C13 C14 C15 0.47(17)
C12 C13 C14 C17 179.99(10)
C13 C14 C15 C16 -0.59(17)
C17 C14 C15 C16 179.87(10)
C14 C15 C16 C11 0.49(17)
N1 C11 C16 C15 -179.2(3)
C12 C11 C16 C15 -0.27(18)
Cl11 C11 C16 C15 179.23(12)
C4 C7 C17 C14 180.0
C15 C14 C17 C7 -175.69(14)
C13 C14 C17 C7 4.8(2)
