#------------------------------------------------------------------------------
#$Date: 2019-11-28 16:11:22 +0200 (Thu, 28 Nov 2019) $
#$Revision: 244087 $
#$URL: file:///home/coder/svn-repositories/cod/cif/7/23/81/7238178.cif $
#------------------------------------------------------------------------------
#
# This file is available in the Crystallography Open Database (COD),
# http://www.crystallography.net/
#
# All data on this site have been placed in the public domain by the
# contributors.
#
data_7238178
loop_
_publ_author_name
'Behrnd, Norwid-Rasmus'
'Labat, Ga\"el'
'Venugopalan, Paloth'
'Hulliger, J\"urg'
'B\"urgi, Hans-Beat'
_publ_section_title
;
 Influence of the solvent of crystallization on the orientational disorder
 of (trans)-4-chloro-4&#x2032;-nitrostilbene
;
_journal_issue                   12
_journal_name_full               CrystEngComm
_journal_page_first              4101
_journal_paper_doi               10.1039/b926652f
_journal_volume                  12
_journal_year                    2010
_chemical_formula_moiety         'C14 H10 Cl N O2'
_chemical_formula_sum            'C14 H10 Cl N O2'
_chemical_formula_weight         259.68
_space_group_IT_number           4
_space_group_name_Hall           'P 2ybc'
_space_group_name_H-M_alt        'P 1 21 1 (a,b,c-1/4)'
_symmetry_cell_setting           monoclinic
_symmetry_space_group_name_Hall  'P 2ybc'
_symmetry_space_group_name_H-M   'P 1 21 1 (a,b,c-1/4)'
_atom_sites_solution_hydrogens   geom
_atom_sites_solution_primary     direct
_atom_sites_solution_secondary   difmap
_audit_creation_method           SHELXL-97
_cell_angle_alpha                90.00
_cell_angle_beta                 92.957(2)
_cell_angle_gamma                90.00
_cell_formula_units_Z            2
_cell_length_a                   3.9220(2)
_cell_length_b                   12.9245(7)
_cell_length_c                   12.3038(7)
_cell_measurement_reflns_used    3497
_cell_measurement_temperature    293(2)
_cell_measurement_theta_max      23.0145
_cell_measurement_theta_min      2.287
_cell_volume                     622.85(6)
_computing_cell_refinement       'SAINT (Bruker, 2003)'
_computing_data_collection       'SMART (Bruker, 1997)'
_computing_data_reduction        'SHELXTL (Bruker, 2000)'
_computing_molecular_graphics    'PLATON (Spek, 2003)'
_computing_publication_material  SHELXL-97
_computing_structure_refinement  'SHELXL-97 (Sheldrick, 1997)'
_computing_structure_solution    'SHELXS-97 (Sheldrick, 1990)'
_diffrn_ambient_temperature      293(2)
_diffrn_measured_fraction_theta_full 0.878
_diffrn_measured_fraction_theta_max 0.878
_diffrn_measurement_device_type  'Bruker SMART 1K'
_diffrn_measurement_method       'omega scan method'
_diffrn_radiation_monochromator  graphite
_diffrn_radiation_source         'fine-focus sealed tube'
_diffrn_radiation_type           MoK\a
_diffrn_radiation_wavelength     0.71073
_diffrn_reflns_av_R_equivalents  0.0178
_diffrn_reflns_av_sigmaI/netI    0.0300
_diffrn_reflns_limit_h_max       4
_diffrn_reflns_limit_h_min       -5
_diffrn_reflns_limit_k_max       15
_diffrn_reflns_limit_k_min       -16
_diffrn_reflns_limit_l_max       15
_diffrn_reflns_limit_l_min       -14
_diffrn_reflns_number            3484
_diffrn_reflns_theta_full        27.83
_diffrn_reflns_theta_max         27.83
_diffrn_reflns_theta_min         2.29
_diffrn_standards_decay_%        0
_diffrn_standards_interval_time  0
_diffrn_standards_number         0
_exptl_absorpt_coefficient_mu    0.299
_exptl_absorpt_correction_T_max  1
_exptl_absorpt_correction_T_min  0.605731
_exptl_absorpt_correction_type   multi-scan
_exptl_absorpt_process_details   'SADABS (Bruker, 2004)'
_exptl_crystal_colour            yellow
_exptl_crystal_density_diffrn    1.385
_exptl_crystal_density_method    'not measured'
_exptl_crystal_description       'prismatic rod'
_exptl_crystal_F_000             268
_exptl_crystal_size_max          0.30
_exptl_crystal_size_mid          0.20
_exptl_crystal_size_min          0.10
_refine_diff_density_max         0.171
_refine_diff_density_min         -0.139
_refine_diff_density_rms         0.035
_refine_ls_abs_structure_details 'Flack H D (1983), Acta Cryst. A39, 876-881'
_refine_ls_abs_structure_Flack   -10(10)
_refine_ls_extinction_method     none
_refine_ls_goodness_of_fit_ref   1.052
_refine_ls_hydrogen_treatment    constr
_refine_ls_matrix_type           full
_refine_ls_number_parameters     101
_refine_ls_number_reflns         2158
_refine_ls_number_restraints     1
_refine_ls_restrained_S_all      1.052
_refine_ls_R_factor_all          0.1093
_refine_ls_R_factor_gt           0.0552
_refine_ls_shift/su_max          0.000
_refine_ls_shift/su_mean         0.000
_refine_ls_structure_factor_coef Fsqd
_refine_ls_weighting_details
'calc w=1/[\s^2^(Fo^2^)+(0.0824P)^2^+0.0374P] where P=(Fo^2^+2Fc^2^)/3'
_refine_ls_weighting_scheme      calc
_refine_ls_wR_factor_gt          0.1541
_refine_ls_wR_factor_ref         0.1858
_reflns_number_gt                1124
_reflns_number_total             2158
_reflns_threshold_expression     I>2sigma(I)
_cod_data_source_file            b926652f.txt
_cod_data_source_block           CNS-NO2BzI-small-P21_c
_cod_original_sg_symbol_Hall     P2ybc
_cod_original_sg_symbol_H-M      P21/c
_cod_database_code               7238178
loop_
_symmetry_equiv_pos_as_xyz
'x, y, z'
'-x, y+1/2, -z+1/2'
loop_
_atom_site_label
_atom_site_type_symbol
_atom_site_fract_x
_atom_site_fract_y
_atom_site_fract_z
_atom_site_U_iso_or_equiv
_atom_site_adp_type
_atom_site_occupancy
_atom_site_symmetry_multiplicity
_atom_site_calc_flag
_atom_site_refinement_flags
Cl1 Cl 0.3740(12) -0.46135(16) -0.1771(4) 0.1402(18) Uani 0.50 1 d P
N11 N 0.365(2) -0.4138(5) -0.1721(6) 0.0879(15) Uani 0.50 1 d P
O11 O 0.320(2) -0.4987(7) -0.1291(5) 0.152(3) Uani 0.50 1 d P
O12 O 0.5052(9) -0.4076(3) -0.2625(3) 0.1239(12) Uani 0.50 1 d P
C1 C 0.2614(4) -0.32881(16) -0.12380(16) 0.0815(6) Uani 1 1 d .
C2 C 0.3130(4) -0.2377(2) -0.17815(14) 0.0919(6) Uani 1 1 d .
H2A H 0.4115 -0.2382 -0.2453 0.110 Uiso 1 1 calc R
C3 C 0.2200(5) -0.14761(17) -0.13341(16) 0.0908(6) Uani 1 1 d .
H3A H 0.2523 -0.0862 -0.1709 0.109 Uiso 1 1 calc R
C4 C 0.0771(4) -0.14431(14) -0.03284(15) 0.0775(5) Uani 1 1 d .
C5 C 0.0272(4) -0.23764(16) 0.02102(14) 0.0835(6) Uani 1 1 d .
H5A H -0.0706 -0.2371 0.0883 0.100 Uiso 1 1 calc R
C6 C 0.1204(5) -0.33073(14) -0.02363(16) 0.0856(6) Uani 1 1 d .
H6A H 0.0889 -0.3928 0.0128 0.103 Uiso 1 1 calc R
C7 C -0.0236(5) -0.04756(15) 0.01830(16) 0.0921(6) Uani 1 1 d .
H7A H -0.1324 -0.0534 0.0834 0.111 Uiso 1 1 calc R
Cl11 Cl -0.3740(12) 0.46135(16) 0.1771(4) 0.1402(18) Uani 0.50 1 d P
N1 N -0.365(2) 0.4138(5) 0.1721(6) 0.0879(15) Uani 0.50 1 d P
O1 O -0.320(2) 0.4987(7) 0.1291(5) 0.152(3) Uani 0.50 1 d P
O2 O -0.5052(9) 0.4076(3) 0.2625(3) 0.1239(12) Uani 0.50 1 d P
C11 C -0.2614(4) 0.32881(16) 0.12380(16) 0.0815(6) Uani 1 1 d .
C12 C -0.3130(4) 0.2377(2) 0.17815(14) 0.0919(6) Uani 1 1 d .
H12A H -0.4115 0.2382 0.2453 0.110 Uiso 1 1 calc R
C13 C -0.2200(5) 0.14761(17) 0.13341(16) 0.0908(6) Uani 1 1 d .
H13A H -0.2523 0.0862 0.1709 0.109 Uiso 1 1 calc R
C14 C -0.0771(4) 0.14431(14) 0.03284(15) 0.0775(5) Uani 1 1 d .
C15 C -0.0272(4) 0.23764(16) -0.02102(14) 0.0835(6) Uani 1 1 d .
H15A H 0.0706 0.2371 -0.0883 0.100 Uiso 1 1 calc R
C16 C -0.1204(5) 0.33073(14) 0.02363(16) 0.0856(6) Uani 1 1 d .
H16A H -0.0889 0.3928 -0.0128 0.103 Uiso 1 1 calc R
C17 C 0.0236(5) 0.04756(15) -0.01830(16) 0.0921(6) Uani 1 1 d .
H17A H 0.1324 0.0534 -0.0834 0.111 Uiso 1 1 calc R
loop_
_atom_site_aniso_label
_atom_site_aniso_U_11
_atom_site_aniso_U_22
_atom_site_aniso_U_33
_atom_site_aniso_U_23
_atom_site_aniso_U_13
_atom_site_aniso_U_12
Cl1 0.1234(15) 0.127(4) 0.170(3) -0.070(3) 0.0007(16) 0.029(2)
N11 0.081(3) 0.088(5) 0.095(4) -0.016(4) 0.004(2) 0.010(4)
O11 0.174(4) 0.096(3) 0.190(6) 0.006(3) 0.046(3) 0.014(3)
O12 0.150(3) 0.127(3) 0.098(2) -0.0250(19) 0.0392(19) 0.023(2)
C1 0.0610(10) 0.0988(15) 0.0844(13) -0.0122(11) -0.0003(8) 0.0042(10)
C2 0.0745(12) 0.1226(18) 0.0795(13) 0.0019(12) 0.0110(9) -0.0024(12)
C3 0.0788(12) 0.1011(15) 0.0929(14) 0.0135(11) 0.0091(10) -0.0038(11)
C4 0.0605(9) 0.0846(13) 0.0870(13) -0.0073(10) 0.0011(8) -0.0001(9)
C5 0.0727(11) 0.1031(15) 0.0755(11) -0.0027(11) 0.0107(8) 0.0005(10)
C6 0.0780(11) 0.0915(14) 0.0876(13) 0.0054(10) 0.0061(9) 0.0005(10)
C7 0.0740(11) 0.1103(16) 0.0926(13) 0.0102(11) 0.0102(9) -0.0070(12)
Cl11 0.1234(15) 0.127(4) 0.170(3) -0.070(3) 0.0007(16) 0.029(2)
N1 0.081(3) 0.088(5) 0.095(4) -0.016(4) 0.004(2) 0.010(4)
O1 0.174(4) 0.096(3) 0.190(6) 0.006(3) 0.046(3) 0.014(3)
O2 0.150(3) 0.127(3) 0.098(2) -0.0250(19) 0.0392(19) 0.023(2)
C11 0.0610(10) 0.0988(15) 0.0844(13) -0.0122(11) -0.0003(8) 0.0042(10)
C12 0.0745(12) 0.1226(18) 0.0795(13) 0.0019(12) 0.0110(9) -0.0024(12)
C13 0.0788(12) 0.1011(15) 0.0929(14) 0.0135(11) 0.0091(10) -0.0038(11)
C14 0.0605(9) 0.0846(13) 0.0870(13) -0.0073(10) 0.0011(8) -0.0001(9)
C15 0.0727(11) 0.1031(15) 0.0755(11) -0.0027(11) 0.0107(8) 0.0005(10)
C16 0.0780(11) 0.0915(14) 0.0876(13) 0.0054(10) 0.0061(9) 0.0005(10)
C17 0.0740(11) 0.1103(16) 0.0926(13) 0.0102(11) 0.0102(9) -0.0070(12)
loop_
_atom_type_symbol
_atom_type_description
_atom_type_scat_dispersion_real
_atom_type_scat_dispersion_imag
_atom_type_scat_source
C C 0.0033 0.0016 'International Tables Vol C Tables 4.2.6.8 and 6.1.1.4'
H H 0.0000 0.0000 'International Tables Vol C Tables 4.2.6.8 and 6.1.1.4'
N N 0.0061 0.0033 'International Tables Vol C Tables 4.2.6.8 and 6.1.1.4'
O O 0.0106 0.0060 'International Tables Vol C Tables 4.2.6.8 and 6.1.1.4'
Cl Cl 0.1484 0.1585 'International Tables Vol C Tables 4.2.6.8 and 6.1.1.4'
loop_
_geom_angle_atom_site_label_1
_geom_angle_atom_site_label_2
_geom_angle_atom_site_label_3
_geom_angle
N11 Cl1 O11 120.5(19)
N11 Cl1 O12 66.6(12)
O11 Cl1 O12 171.4(9)
N11 Cl1 C1 18.5(11)
O11 Cl1 C1 102.4(9)
O12 Cl1 C1 84.9(2)
Cl1 N11 O11 33.9(12)
Cl1 N11 O12 86.9(11)
O11 N11 O12 120.6(6)
Cl1 N11 C1 152.9(16)
O11 N11 C1 119.5(6)
O12 N11 C1 119.9(7)
Cl1 O11 N11 25.6(6)
N11 O12 Cl1 26.6(3)
N11 C1 C2 115.9(4)
N11 C1 C6 122.3(4)
C2 C1 C6 121.80(19)
N11 C1 Cl1 8.6(5)
C2 C1 Cl1 124.3(2)
C6 C1 Cl1 113.9(2)
C3 C2 C1 119.48(19)
C3 C2 H2A 120.3
C1 C2 H2A 120.3
C2 C3 C4 121.5(2)
C2 C3 H3A 119.2
C4 C3 H3A 119.2
C3 C4 C5 118.09(18)
C3 C4 C7 122.8(2)
C5 C4 C7 119.15(18)
C6 C5 C4 121.23(17)
C6 C5 H5A 119.4
C4 C5 H5A 119.4
C1 C6 C5 117.87(18)
C1 C6 H6A 121.1
C5 C6 H6A 121.1
C17 C7 C4 126.9(3)
C17 C7 H7A 116.5
C4 C7 H7A 116.5
N1 Cl11 O1 120.5(19)
N1 Cl11 O2 66.6(12)
O1 Cl11 O2 171.4(9)
N1 Cl11 C11 18.5(11)
O1 Cl11 C11 102.4(9)
O2 Cl11 C11 84.9(2)
Cl11 N1 O1 33.9(12)
Cl11 N1 O2 86.9(11)
O1 N1 O2 120.6(6)
Cl11 N1 C11 152.9(16)
O1 N1 C11 119.5(6)
O2 N1 C11 119.9(7)
Cl11 O1 N1 25.6(6)
N1 O2 Cl11 26.6(3)
N1 C11 C12 115.9(4)
N1 C11 C16 122.3(4)
C12 C11 C16 121.80(19)
N1 C11 Cl11 8.6(5)
C12 C11 Cl11 124.3(2)
C16 C11 Cl11 113.9(2)
C13 C12 C11 119.48(19)
C13 C12 H12A 120.3
C11 C12 H12A 120.3
C12 C13 C14 121.5(2)
C12 C13 H13A 119.2
C14 C13 H13A 119.2
C13 C14 C15 118.09(18)
C13 C14 C17 122.8(2)
C15 C14 C17 119.15(18)
C16 C15 C14 121.23(17)
C16 C15 H15A 119.4
C14 C15 H15A 119.4
C11 C16 C15 117.87(18)
C11 C16 H16A 121.1
C15 C16 H16A 121.1
C7 C17 C14 126.9(3)
C7 C17 H17A 116.5
C14 C17 H17A 116.5
loop_
_geom_bond_atom_site_label_1
_geom_bond_atom_site_label_2
_geom_bond_distance
Cl1 N11 0.619(6)
Cl1 O11 0.799(6)
Cl1 O12 1.381(5)
Cl1 C1 1.894(3)
N11 O11 1.234(14)
N11 O12 1.269(9)
N11 C1 1.322(5)
C1 C2 1.375(3)
C1 C6 1.377(3)
C2 C3 1.346(3)
C2 H2A 0.9300
C3 C4 1.385(3)
C3 H3A 0.9300
C4 C5 1.395(3)
C4 C7 1.463(3)
C5 C6 1.380(2)
C5 H5A 0.9300
C6 H6A 0.9300
C7 C17 1.326(3)
C7 H7A 0.9300
Cl11 N1 0.619(6)
Cl11 O1 0.799(6)
Cl11 O2 1.381(5)
Cl11 C11 1.894(3)
N1 O1 1.234(14)
N1 O2 1.269(9)
N1 C11 1.322(5)
C11 C12 1.375(3)
C11 C16 1.377(3)
C12 C13 1.346(3)
C12 H12A 0.9300
C13 C14 1.385(3)
C13 H13A 0.9300
C14 C15 1.395(3)
C14 C17 1.463(3)
C15 C16 1.380(2)
C15 H15A 0.9300
C16 H16A 0.9300
C17 H17A 0.9300
loop_
_geom_torsion_atom_site_label_1
_geom_torsion_atom_site_label_2
_geom_torsion_atom_site_label_3
_geom_torsion_atom_site_label_4
_geom_torsion
O12 Cl1 N11 O11 -174.5(11)
C1 Cl1 N11 O11 14(4)
O11 Cl1 N11 O12 174.5(11)
C1 Cl1 N11 O12 -171(3)
O11 Cl1 N11 C1 -14(4)
O12 Cl1 N11 C1 171(3)
O12 Cl1 O11 N11 144(7)
C1 Cl1 O11 N11 -4.5(13)
O12 N11 O11 Cl1 -6.4(13)
C1 N11 O11 Cl1 173(2)
O11 N11 O12 Cl1 3.6(7)
C1 N11 O12 Cl1 -175.5(17)
O11 Cl1 O12 N11 -146(6)
C1 Cl1 O12 N11 2.7(10)
Cl1 N11 C1 C2 -169(3)
O11 N11 C1 C2 -178.4(7)
O12 N11 C1 C2 0.7(8)
Cl1 N11 C1 C6 12(3)
O11 N11 C1 C6 3.5(10)
O12 N11 C1 C6 -177.3(4)
O11 N11 C1 Cl1 -9(3)
O12 N11 C1 Cl1 170(4)
O11 Cl1 C1 N11 168(4)
O12 Cl1 C1 N11 -8(3)
N11 Cl1 C1 C2 11(3)
O11 Cl1 C1 C2 179.1(7)
O12 Cl1 C1 C2 3.6(3)
N11 Cl1 C1 C6 -168(3)
O11 Cl1 C1 C6 -0.8(8)
O12 Cl1 C1 C6 -176.3(2)
N11 C1 C2 C3 -178.9(4)
C6 C1 C2 C3 -0.9(3)
Cl1 C1 C2 C3 179.2(2)
C1 C2 C3 C4 0.9(3)
C2 C3 C4 C5 -0.8(3)
C2 C3 C4 C7 179.42(16)
C3 C4 C5 C6 0.7(3)
C7 C4 C5 C6 -179.55(16)
N11 C1 C6 C5 178.6(4)
C2 C1 C6 C5 0.7(3)
Cl1 C1 C6 C5 -179.37(19)
C4 C5 C6 C1 -0.6(3)
C3 C4 C7 C17 -4.5(4)
C5 C4 C7 C17 175.8(2)
O2 Cl11 N1 O1 174.5(11)
C11 Cl11 N1 O1 -14(4)
O1 Cl11 N1 O2 -174.5(11)
C11 Cl11 N1 O2 171(3)
O1 Cl11 N1 C11 14(4)
O2 Cl11 N1 C11 -171(3)
O2 Cl11 O1 N1 -144(7)
C11 Cl11 O1 N1 4.5(13)
O2 N1 O1 Cl11 6.4(13)
C11 N1 O1 Cl11 -173(2)
O1 N1 O2 Cl11 -3.6(7)
C11 N1 O2 Cl11 175.5(17)
O1 Cl11 O2 N1 146(6)
C11 Cl11 O2 N1 -2.7(10)
Cl11 N1 C11 C12 169(3)
O1 N1 C11 C12 178.4(7)
O2 N1 C11 C12 -0.7(8)
Cl11 N1 C11 C16 -12(3)
O1 N1 C11 C16 -3.5(10)
O2 N1 C11 C16 177.3(4)
O1 N1 C11 Cl11 9(3)
O2 N1 C11 Cl11 -170(4)
O1 Cl11 C11 N1 -168(4)
O2 Cl11 C11 N1 8(3)
N1 Cl11 C11 C12 -11(3)
O1 Cl11 C11 C12 -179.1(7)
O2 Cl11 C11 C12 -3.6(3)
N1 Cl11 C11 C16 168(3)
O1 Cl11 C11 C16 0.8(8)
O2 Cl11 C11 C16 176.3(2)
N1 C11 C12 C13 178.9(4)
C16 C11 C12 C13 0.9(3)
Cl11 C11 C12 C13 -179.2(2)
C11 C12 C13 C14 -0.9(3)
C12 C13 C14 C15 0.8(3)
C12 C13 C14 C17 -179.42(16)
C13 C14 C15 C16 -0.7(3)
C17 C14 C15 C16 179.55(16)
N1 C11 C16 C15 -178.6(4)
C12 C11 C16 C15 -0.7(3)
Cl11 C11 C16 C15 179.37(19)
C14 C15 C16 C11 0.6(3)
C4 C7 C17 C14 180.0
C13 C14 C17 C7 4.5(4)
C15 C14 C17 C7 -175.8(2)
