#------------------------------------------------------------------------------
#$Date: 2019-11-28 16:11:22 +0200 (Thu, 28 Nov 2019) $
#$Revision: 244087 $
#$URL: file:///home/coder/svn-repositories/cod/cif/7/23/81/7238176.cif $
#------------------------------------------------------------------------------
#
# This file is available in the Crystallography Open Database (COD),
# http://www.crystallography.net/
#
# All data on this site have been placed in the public domain by the
# contributors.
#
data_7238176
loop_
_publ_author_name
'Behrnd, Norwid-Rasmus'
'Labat, Ga\"el'
'Venugopalan, Paloth'
'Hulliger, J\"urg'
'B\"urgi, Hans-Beat'
_publ_section_title
;
 Influence of the solvent of crystallization on the orientational disorder
 of (trans)-4-chloro-4&#x2032;-nitrostilbene
;
_journal_issue                   12
_journal_name_full               CrystEngComm
_journal_page_first              4101
_journal_paper_doi               10.1039/b926652f
_journal_volume                  12
_journal_year                    2010
_chemical_formula_moiety         'C14 H10 Cl N O2'
_chemical_formula_sum            'C14 H10 Cl N O2'
_chemical_formula_weight         259.68
_space_group_IT_number           4
_space_group_name_Hall           'P 2ybc'
_space_group_name_H-M_alt        'P 1 21 1 (a,b,c-1/4)'
_symmetry_cell_setting           monoclinic
_symmetry_space_group_name_Hall  'P 2ybc'
_symmetry_space_group_name_H-M   'P 1 21 1 (a,b,c-1/4)'
_atom_sites_solution_hydrogens   geom
_atom_sites_solution_primary     direct
_atom_sites_solution_secondary   difmap
_audit_creation_method           SHELXL-97
_cell_angle_alpha                90.00
_cell_angle_beta                 93.192(2)
_cell_angle_gamma                90.00
_cell_formula_units_Z            2
_cell_length_a                   3.9239(2)
_cell_length_b                   12.9733(6)
_cell_length_c                   12.2398(6)
_cell_measurement_reflns_used    3468
_cell_measurement_temperature    293(2)
_cell_measurement_theta_max      24.1575
_cell_measurement_theta_min      3.1405
_cell_volume                     622.11(5)
_computing_cell_refinement       'SAINT (Bruker, 2003)'
_computing_data_collection       'SMART (Bruker, 1997)'
_computing_data_reduction        'SHELXTL (Bruker, 2000)'
_computing_molecular_graphics    'PLATON (Spek, 2003)'
_computing_publication_material  SHELXL-97
_computing_structure_refinement  'SHELXL-97 (Sheldrick, 1997)'
_computing_structure_solution    'SHELXS-97 (Sheldrick, 1990)'
_diffrn_ambient_temperature      293(2)
_diffrn_measured_fraction_theta_full 0.917
_diffrn_measured_fraction_theta_max 0.917
_diffrn_measurement_device_type  'Bruker SMART 1K'
_diffrn_measurement_method       'omega scan method'
_diffrn_radiation_monochromator  graphite
_diffrn_radiation_source         'fine-focus sealed tube'
_diffrn_radiation_type           MoK\a
_diffrn_radiation_wavelength     0.71073
_diffrn_reflns_av_R_equivalents  0.0195
_diffrn_reflns_av_sigmaI/netI    0.0305
_diffrn_reflns_limit_h_max       5
_diffrn_reflns_limit_h_min       -4
_diffrn_reflns_limit_k_max       15
_diffrn_reflns_limit_k_min       -16
_diffrn_reflns_limit_l_max       16
_diffrn_reflns_limit_l_min       -11
_diffrn_reflns_number            3445
_diffrn_reflns_theta_full        27.73
_diffrn_reflns_theta_max         27.73
_diffrn_reflns_theta_min         2.29
_diffrn_standards_decay_%        0
_diffrn_standards_interval_time  0
_diffrn_standards_number         0
_exptl_absorpt_coefficient_mu    0.299
_exptl_absorpt_correction_T_max  1
_exptl_absorpt_correction_T_min  0.721818
_exptl_absorpt_correction_type   multi-scan
_exptl_absorpt_process_details   'SADABS (Bruker, 2004)'
_exptl_crystal_colour            yellow
_exptl_crystal_density_diffrn    1.386
_exptl_crystal_density_method    'not measured'
_exptl_crystal_description       'prismatic rod'
_exptl_crystal_F_000             268
_exptl_crystal_size_max          0.30
_exptl_crystal_size_mid          0.20
_exptl_crystal_size_min          0.10
_refine_diff_density_max         0.101
_refine_diff_density_min         -0.118
_refine_diff_density_rms         0.027
_refine_ls_abs_structure_details 'Flack H D (1983), Acta Cryst. A39, 876-881'
_refine_ls_abs_structure_Flack   0.3(2)
_refine_ls_extinction_method     none
_refine_ls_goodness_of_fit_ref   0.991
_refine_ls_hydrogen_treatment    constr
_refine_ls_matrix_type           full
_refine_ls_number_parameters     101
_refine_ls_number_reflns         2455
_refine_ls_number_restraints     1
_refine_ls_restrained_S_all      0.991
_refine_ls_R_factor_all          0.0879
_refine_ls_R_factor_gt           0.0494
_refine_ls_shift/su_max          0.000
_refine_ls_shift/su_mean         0.000
_refine_ls_structure_factor_coef Fsqd
_refine_ls_weighting_details
'calc w=1/[\s^2^(Fo^2^)+(0.0374P)^2^+0.1584P] where P=(Fo^2^+2Fc^2^)/3'
_refine_ls_weighting_scheme      calc
_refine_ls_wR_factor_gt          0.1116
_refine_ls_wR_factor_ref         0.1278
_reflns_number_gt                1478
_reflns_number_total             2455
_reflns_threshold_expression     I>2sigma(I)
_cod_data_source_file            b926652f.txt
_cod_data_source_block           CNS-TolII-small-P21
_cod_original_sg_symbol_Hall     P2yb
_cod_original_sg_symbol_H-M      P21
_cod_database_code               7238176
loop_
_symmetry_equiv_pos_as_xyz
'x, y, z'
'-x, y+1/2, -z+1/2'
loop_
_atom_site_label
_atom_site_type_symbol
_atom_site_fract_x
_atom_site_fract_y
_atom_site_fract_z
_atom_site_U_iso_or_equiv
_atom_site_adp_type
_atom_site_occupancy
_atom_site_symmetry_multiplicity
_atom_site_calc_flag
_atom_site_refinement_flags
Cl1 Cl 0.3689(8) -0.46046(12) -0.1754(3) 0.1134(11) Uani 0.403(2) 1 d P
N11 N 0.367(2) -0.4160(4) -0.1722(6) 0.0859(15) Uani 0.597(2) 1 d P
O11 O 0.3129(14) -0.4971(3) -0.1231(4) 0.1291(18) Uani 0.597(2) 1 d P
O12 O 0.5007(8) -0.4131(2) -0.2578(2) 0.1136(10) Uani 0.597(2) 1 d P
C1 C 0.2612(4) -0.32914(13) -0.12285(14) 0.0725(5) Uani 1 1 d .
C2 C 0.3155(4) -0.23910(15) -0.17913(13) 0.0804(5) Uani 1 1 d .
H2A H 0.4136 -0.2406 -0.2466 0.097 Uiso 1 1 calc R
C3 C 0.2224(4) -0.14752(13) -0.13398(13) 0.0766(5) Uani 1 1 d .
H3A H 0.2563 -0.0866 -0.1719 0.092 Uiso 1 1 calc R
C4 C 0.0784(4) -0.14332(12) -0.03292(12) 0.0652(4) Uani 1 1 d .
C5 C 0.0284(4) -0.23606(12) 0.02091(13) 0.0729(5) Uani 1 1 d .
H5A H -0.0694 -0.2351 0.0884 0.087 Uiso 1 1 calc R
C6 C 0.1195(4) -0.32930(12) -0.02277(14) 0.0768(5) Uani 1 1 d .
H6A H 0.0859 -0.3906 0.0145 0.092 Uiso 1 1 calc R
C7 C -0.0237(4) -0.04645(11) 0.01823(14) 0.0724(4) Uani 1 1 d .
H7A H -0.1336 -0.0521 0.0834 0.087 Uiso 1 1 calc R
Cl11 Cl -0.3689(8) 0.46046(12) 0.1754(3) 0.1134(11) Uani 0.597(2) 1 d P
N1 N -0.367(2) 0.4160(4) 0.1722(6) 0.0859(15) Uani 0.403(2) 1 d P
O1 O -0.3129(14) 0.4971(3) 0.1231(4) 0.1291(18) Uani 0.403(2) 1 d P
O2 O -0.5007(8) 0.4131(2) 0.2578(2) 0.1136(10) Uani 0.403(2) 1 d P
C11 C -0.2612(4) 0.32914(13) 0.12285(14) 0.0725(5) Uani 1 1 d .
C12 C -0.3155(4) 0.23910(15) 0.17913(13) 0.0804(5) Uani 1 1 d .
H12A H -0.4136 0.2406 0.2466 0.097 Uiso 1 1 calc R
C13 C -0.2224(4) 0.14752(13) 0.13398(13) 0.0766(5) Uani 1 1 d .
H13A H -0.2563 0.0866 0.1719 0.092 Uiso 1 1 calc R
C14 C -0.0784(4) 0.14332(12) 0.03292(12) 0.0652(4) Uani 1 1 d .
C15 C -0.0284(4) 0.23606(12) -0.02091(13) 0.0729(5) Uani 1 1 d .
H15A H 0.0694 0.2351 -0.0884 0.087 Uiso 1 1 calc R
C16 C -0.1195(4) 0.32930(12) 0.02277(14) 0.0768(5) Uani 1 1 d .
H16A H -0.0859 0.3906 -0.0145 0.092 Uiso 1 1 calc R
C17 C 0.0237(4) 0.04645(11) -0.01823(14) 0.0724(4) Uani 1 1 d .
H17A H 0.1336 0.0521 -0.0834 0.087 Uiso 1 1 calc R
loop_
_atom_site_aniso_label
_atom_site_aniso_U_11
_atom_site_aniso_U_22
_atom_site_aniso_U_33
_atom_site_aniso_U_23
_atom_site_aniso_U_13
_atom_site_aniso_U_12
Cl1 0.1130(12) 0.094(2) 0.1334(19) -0.046(2) 0.0072(12) 0.0203(17)
N11 0.083(3) 0.070(4) 0.104(4) -0.002(3) -0.009(3) 0.001(3)
O11 0.170(4) 0.074(2) 0.147(4) 0.007(2) 0.042(3) 0.016(2)
O12 0.153(3) 0.0915(19) 0.100(2) -0.0258(17) 0.0345(19) 0.0185(18)
C1 0.0585(9) 0.0829(12) 0.0755(11) -0.0168(9) -0.0027(8) 0.0045(8)
C2 0.0701(11) 0.1058(14) 0.0660(10) -0.0027(10) 0.0099(8) 0.0000(10)
C3 0.0707(10) 0.0833(11) 0.0763(11) 0.0074(9) 0.0071(9) -0.0035(9)
C4 0.0522(8) 0.0785(10) 0.0645(10) -0.0044(8) 0.0004(7) 0.0005(7)
C5 0.0708(10) 0.0837(11) 0.0647(9) 0.0024(9) 0.0079(8) -0.0013(9)
C6 0.0747(11) 0.0773(11) 0.0783(12) 0.0024(9) 0.0045(9) 0.0029(9)
C7 0.0623(9) 0.0831(11) 0.0721(10) 0.0043(9) 0.0056(8) -0.0034(9)
Cl11 0.1130(12) 0.094(2) 0.1334(19) -0.046(2) 0.0072(12) 0.0203(17)
N1 0.083(3) 0.070(4) 0.104(4) -0.002(3) -0.009(3) 0.001(3)
O1 0.170(4) 0.074(2) 0.147(4) 0.007(2) 0.042(3) 0.016(2)
O2 0.153(3) 0.0915(19) 0.100(2) -0.0258(17) 0.0345(19) 0.0185(18)
C11 0.0585(9) 0.0829(12) 0.0755(11) -0.0168(9) -0.0027(8) 0.0045(8)
C12 0.0701(11) 0.1058(14) 0.0660(10) -0.0027(10) 0.0099(8) 0.0000(10)
C13 0.0707(10) 0.0833(11) 0.0763(11) 0.0074(9) 0.0071(9) -0.0035(9)
C14 0.0522(8) 0.0785(10) 0.0645(10) -0.0044(8) 0.0004(7) 0.0005(7)
C15 0.0708(10) 0.0837(11) 0.0647(9) 0.0024(9) 0.0079(8) -0.0013(9)
C16 0.0747(11) 0.0773(11) 0.0783(12) 0.0024(9) 0.0045(9) 0.0029(9)
C17 0.0623(9) 0.0831(11) 0.0721(10) 0.0043(9) 0.0056(8) -0.0034(9)
loop_
_atom_type_symbol
_atom_type_description
_atom_type_scat_dispersion_real
_atom_type_scat_dispersion_imag
_atom_type_scat_source
C C 0.0033 0.0016 'International Tables Vol C Tables 4.2.6.8 and 6.1.1.4'
H H 0.0000 0.0000 'International Tables Vol C Tables 4.2.6.8 and 6.1.1.4'
N N 0.0061 0.0033 'International Tables Vol C Tables 4.2.6.8 and 6.1.1.4'
O O 0.0106 0.0060 'International Tables Vol C Tables 4.2.6.8 and 6.1.1.4'
Cl Cl 0.1484 0.1585 'International Tables Vol C Tables 4.2.6.8 and 6.1.1.4'
loop_
_geom_angle_atom_site_label_1
_geom_angle_atom_site_label_2
_geom_angle_atom_site_label_3
_geom_angle
N11 Cl1 O11 120.7(13)
N11 Cl1 O12 65.9(10)
O11 Cl1 O12 170.5(5)
N11 Cl1 C1 21.1(10)
O11 Cl1 C1 100.4(5)
O12 Cl1 C1 86.81(17)
Cl1 N11 O12 87.9(10)
Cl1 N11 O11 35.6(9)
O12 N11 O11 123.1(5)
Cl1 N11 C1 150.0(14)
O12 N11 C1 121.6(6)
O11 N11 C1 115.3(6)
Cl1 O11 N11 23.7(4)
N11 O12 Cl1 26.2(2)
N11 C1 C6 123.1(4)
N11 C1 C2 115.0(4)
C6 C1 C2 121.91(16)
N11 C1 Cl1 8.9(4)
C6 C1 Cl1 114.47(18)
C2 C1 Cl1 123.62(17)
C3 C2 C1 118.79(16)
C3 C2 H2A 120.6
C1 C2 H2A 120.6
C2 C3 C4 121.64(17)
C2 C3 H3A 119.2
C4 C3 H3A 119.2
C5 C4 C3 117.57(16)
C5 C4 C7 119.27(14)
C3 C4 C7 123.15(16)
C6 C5 C4 121.95(15)
C6 C5 H5A 119.0
C4 C5 H5A 119.0
C1 C6 C5 118.13(16)
C1 C6 H6A 120.9
C5 C6 H6A 120.9
C17 C7 C4 126.7(2)
C17 C7 H7A 116.6
C4 C7 H7A 116.6
N1 Cl11 O1 120.7(13)
N1 Cl11 O2 65.9(10)
O1 Cl11 O2 170.5(5)
N1 Cl11 C11 21.1(10)
O1 Cl11 C11 100.4(5)
O2 Cl11 C11 86.81(17)
Cl11 N1 O2 87.9(10)
Cl11 N1 O1 35.6(9)
O2 N1 O1 123.1(5)
Cl11 N1 C11 150.0(14)
O2 N1 C11 121.6(6)
O1 N1 C11 115.3(6)
Cl11 O1 N1 23.7(4)
N1 O2 Cl11 26.2(2)
N1 C11 C16 123.1(4)
N1 C11 C12 115.0(4)
C16 C11 C12 121.91(16)
N1 C11 Cl11 8.9(4)
C16 C11 Cl11 114.47(18)
C12 C11 Cl11 123.62(17)
C13 C12 C11 118.79(16)
C13 C12 H12A 120.6
C11 C12 H12A 120.6
C12 C13 C14 121.64(17)
C12 C13 H13A 119.2
C14 C13 H13A 119.2
C15 C14 C13 117.57(16)
C15 C14 C17 119.27(14)
C13 C14 C17 123.15(16)
C16 C15 C14 121.95(15)
C16 C15 H15A 119.0
C14 C15 H15A 119.0
C11 C16 C15 118.13(16)
C11 C16 H16A 120.9
C15 C16 H16A 120.9
C7 C17 C14 126.7(2)
C7 C17 H17A 116.6
C14 C17 H17A 116.6
loop_
_geom_bond_atom_site_label_1
_geom_bond_atom_site_label_2
_geom_bond_distance
Cl1 N11 0.578(5)
Cl1 O11 0.836(4)
Cl1 O12 1.311(4)
Cl1 C1 1.877(2)
N11 O12 1.198(8)
N11 O11 1.236(9)
N11 C1 1.354(5)
C1 C6 1.373(2)
C1 C2 1.379(2)
C2 C3 1.369(2)
C2 H2A 0.9300
C3 C4 1.389(2)
C3 H3A 0.9300
C4 C5 1.391(2)
C4 C7 1.470(2)
C5 C6 1.378(2)
C5 H5A 0.9300
C6 H6A 0.9300
C7 C17 1.302(3)
C7 H7A 0.9300
Cl11 N1 0.578(5)
Cl11 O1 0.836(4)
Cl11 O2 1.311(4)
Cl11 C11 1.877(2)
N1 O2 1.198(8)
N1 O1 1.236(9)
N1 C11 1.354(5)
C11 C16 1.373(2)
C11 C12 1.379(2)
C12 C13 1.369(2)
C12 H12A 0.9300
C13 C14 1.389(2)
C13 H13A 0.9300
C14 C15 1.391(2)
C14 C17 1.470(2)
C15 C16 1.378(2)
C15 H15A 0.9300
C16 H16A 0.9300
C17 H17A 0.9300
loop_
_geom_torsion_atom_site_label_1
_geom_torsion_atom_site_label_2
_geom_torsion_atom_site_label_3
_geom_torsion_atom_site_label_4
_geom_torsion
O11 Cl1 N11 O12 172.3(7)
C1 Cl1 N11 O12 -170(3)
O12 Cl1 N11 O11 -172.3(7)
C1 Cl1 N11 O11 17(3)
O11 Cl1 N11 C1 -17(3)
O12 Cl1 N11 C1 170(3)
O12 Cl1 O11 N11 132(4)
C1 Cl1 O11 N11 -6.3(12)
O12 N11 O11 Cl1 -9.2(9)
C1 N11 O11 Cl1 170.5(18)
O11 N11 O12 Cl1 5.3(5)
C1 N11 O12 Cl1 -174.3(16)
O11 Cl1 O12 N11 -136(4)
C1 Cl1 O12 N11 3.5(10)
Cl1 N11 C1 C6 14(3)
O12 N11 C1 C6 -177.3(5)
O11 N11 C1 C6 3.1(9)
Cl1 N11 C1 C2 -168(3)
O12 N11 C1 C2 0.9(8)
O11 N11 C1 C2 -178.7(6)
O12 N11 C1 Cl1 169(3)
O11 N11 C1 Cl1 -11(2)
O11 Cl1 C1 N11 165(3)
O12 Cl1 C1 N11 -9(3)
N11 Cl1 C1 C6 -167(3)
O11 Cl1 C1 C6 -2.1(6)
O12 Cl1 C1 C6 -175.9(2)
N11 Cl1 C1 C2 13(3)
O11 Cl1 C1 C2 178.3(5)
O12 Cl1 C1 C2 4.6(3)
N11 C1 C2 C3 -178.8(4)
C6 C1 C2 C3 -0.6(2)
Cl1 C1 C2 C3 178.97(18)
C1 C2 C3 C4 0.6(2)
C2 C3 C4 C5 -0.6(2)
C2 C3 C4 C7 179.81(15)
C3 C4 C5 C6 0.5(2)
C7 C4 C5 C6 -179.86(14)
N11 C1 C6 C5 178.5(4)
C2 C1 C6 C5 0.5(2)
Cl1 C1 C6 C5 -179.08(16)
C4 C5 C6 C1 -0.5(2)
C5 C4 C7 C17 175.7(2)
C3 C4 C7 C17 -4.7(3)
O1 Cl11 N1 O2 -172.3(7)
C11 Cl11 N1 O2 170(3)
O2 Cl11 N1 O1 172.3(7)
C11 Cl11 N1 O1 -17(3)
O1 Cl11 N1 C11 17(3)
O2 Cl11 N1 C11 -170(3)
O2 Cl11 O1 N1 -132(4)
C11 Cl11 O1 N1 6.3(12)
O2 N1 O1 Cl11 9.2(9)
C11 N1 O1 Cl11 -170.5(18)
O1 N1 O2 Cl11 -5.3(5)
C11 N1 O2 Cl11 174.3(16)
O1 Cl11 O2 N1 136(4)
C11 Cl11 O2 N1 -3.5(10)
Cl11 N1 C11 C16 -14(3)
O2 N1 C11 C16 177.3(5)
O1 N1 C11 C16 -3.1(9)
Cl11 N1 C11 C12 168(3)
O2 N1 C11 C12 -0.9(8)
O1 N1 C11 C12 178.7(6)
O2 N1 C11 Cl11 -169(3)
O1 N1 C11 Cl11 11(2)
O1 Cl11 C11 N1 -165(3)
O2 Cl11 C11 N1 9(3)
N1 Cl11 C11 C16 167(3)
O1 Cl11 C11 C16 2.1(6)
O2 Cl11 C11 C16 175.9(2)
N1 Cl11 C11 C12 -13(3)
O1 Cl11 C11 C12 -178.3(5)
O2 Cl11 C11 C12 -4.6(3)
N1 C11 C12 C13 178.8(4)
C16 C11 C12 C13 0.6(2)
Cl11 C11 C12 C13 -178.97(18)
C11 C12 C13 C14 -0.6(2)
C12 C13 C14 C15 0.6(2)
C12 C13 C14 C17 -179.81(15)
C13 C14 C15 C16 -0.5(2)
C17 C14 C15 C16 179.86(14)
N1 C11 C16 C15 -178.5(4)
C12 C11 C16 C15 -0.5(2)
Cl11 C11 C16 C15 179.08(16)
C14 C15 C16 C11 0.5(2)
C4 C7 C17 C14 180.0
C15 C14 C17 C7 -175.7(2)
C13 C14 C17 C7 4.7(3)
