#------------------------------------------------------------------------------
#$Date: 2019-12-03 07:27:02 +0200 (Tue, 03 Dec 2019) $
#$Revision: 244878 $
#$URL: file:///home/coder/svn-repositories/cod/cif/7/23/96/7239617.cif $
#------------------------------------------------------------------------------
#
# This file is available in the Crystallography Open Database (COD),
# http://www.crystallography.net/
#
# All data on this site have been placed in the public domain by the
# contributors.
#
data_7239617
loop_
_publ_author_name
'Horiuchi, Sachio'
'Ishibashi, Shoji'
'Kobayashi, Kensuke'
'Kumai, Reiji'
_publ_section_title
;
 Coexistence of normal and inverse deuterium isotope effects in a
 phase-transition sequence of organic ferroelectrics
;
_journal_issue                   68
_journal_name_full               'RSC Advances'
_journal_page_first              39662
_journal_paper_doi               10.1039/C9RA06489C
_journal_volume                  9
_journal_year                    2019
_chemical_formula_moiety         'C16 H10 I2 N2 O4'
_chemical_formula_sum            'C16 H10 I2 N2 O4'
_chemical_formula_weight         548.07
_space_group_crystal_system      triclinic
_space_group_IT_number           2
_space_group_name_Hall           '-P 1'
_space_group_name_H-M_alt        'P -1'
_atom_sites_solution_hydrogens   geom
_atom_sites_solution_primary     direct
_atom_sites_solution_secondary   difmap
_audit_update_record
;
2019-11-12 deposited with the CCDC.	2019-11-22 downloaded from the CCDC.
;
_cell_angle_alpha                102.877(3)
_cell_angle_beta                 100.665(2)
_cell_angle_gamma                107.8887(17)
_cell_formula_units_Z            2
_cell_length_a                   8.4976(15)
_cell_length_b                   9.6911(17)
_cell_length_c                   11.242(2)
_cell_measurement_reflns_used    3094
_cell_measurement_temperature    295
_cell_measurement_theta_max      27.49
_cell_measurement_theta_min      3.38
_cell_volume                     826.2(3)
_computing_cell_refinement       'CrystalClear-SM Expert 2.1 b29'
_computing_data_collection
'CrystalClear-SM Expert 2.1 b29 (Rigaku, 2013)'
_computing_data_reduction        'CrystalClear-SM Expert 2.1 b29'
_computing_molecular_graphics    'CrystalStructure 4.3'
_computing_publication_material  'CrystalStructure 4.3 (Rigaku, 2018)'
_computing_structure_refinement  'SHELXL Version 2018/3 (Sheldrick, 2008)'
_computing_structure_solution    'SIR2002 (Burla, et al., 2003)'
_diffrn_ambient_temperature      295
_diffrn_detector_area_resol_mean 5.811
_diffrn_measured_fraction_theta_full 0.993
_diffrn_measured_fraction_theta_max 0.992
_diffrn_measurement_device_type  'Rigaku XtaLAB P100'
_diffrn_measurement_method       \w
_diffrn_radiation_type           'Mo K\a'
_diffrn_radiation_wavelength     0.71075
_diffrn_reflns_av_R_equivalents  0.0299
_diffrn_reflns_av_unetI/netI     0.0273
_diffrn_reflns_Laue_measured_fraction_full 0.993
_diffrn_reflns_Laue_measured_fraction_max 0.992
_diffrn_reflns_limit_h_max       11
_diffrn_reflns_limit_h_min       -11
_diffrn_reflns_limit_k_max       12
_diffrn_reflns_limit_k_min       -12
_diffrn_reflns_limit_l_max       14
_diffrn_reflns_limit_l_min       -14
_diffrn_reflns_number            12892
_diffrn_reflns_point_group_measured_fraction_full 0.993
_diffrn_reflns_point_group_measured_fraction_max 0.992
_diffrn_reflns_theta_full        25.242
_diffrn_reflns_theta_max         27.483
_diffrn_reflns_theta_min         3.384
_diffrn_standards_number         0
_exptl_absorpt_coefficient_mu    3.831
_exptl_absorpt_correction_T_max  1.000
_exptl_absorpt_correction_T_min  1.000
_exptl_absorpt_correction_type   numerical
_exptl_absorpt_process_details   'NUMABS (Rigaku, 1999)'
_exptl_crystal_colour            black
_exptl_crystal_density_diffrn    2.203
_exptl_crystal_density_method    'not measured'
_exptl_crystal_description       block
_exptl_crystal_F_000             516.00
_exptl_crystal_size_max          0.280
_exptl_crystal_size_mid          0.280
_exptl_crystal_size_min          0.160
_refine_diff_density_max         0.97
_refine_diff_density_min         -1.11
_refine_ls_extinction_coef       0.0441(12)
_refine_ls_extinction_method     SHELXL
_refine_ls_goodness_of_fit_ref   1.069
_refine_ls_hydrogen_treatment    mixed
_refine_ls_number_parameters     226
_refine_ls_number_reflns         3754
_refine_ls_number_restraints     0
_refine_ls_R_factor_all          0.0295
_refine_ls_R_factor_gt           0.0274
_refine_ls_shift/su_max          0.001
_refine_ls_structure_factor_coef Fsqd
_refine_ls_weighting_details
'w = 1/[\s^2^(Fo^2^)+(0.0392P)^2^+0.0321P] where P=(Fo^2^+2Fc^2^)/3'
_refine_ls_weighting_scheme      calc
_refine_ls_wR_factor_gt          0.0678
_refine_ls_wR_factor_ref         0.0705
_reflns_Friedel_coverage         0.000
_reflns_number_gt                3418
_reflns_number_total             3754
_reflns_threshold_expression     F^2^>2.0\s(F^2^)
_cod_data_source_file            c9ra06489c2.cif
_cod_data_source_block           H22bpy-Hia
_cod_original_cell_volume        826.2(2)
_cod_database_code               7239617
_shelx_res_file
;
TITL bp22hia
    shelxl.res
    created by SHELXL-2018/3 at 09:27:22 on 12-Nov-2019
CELL  0.71075 8.49760 9.69110 11.24170 102.87710 100.66510 107.88870
ZERR  2 0.00147 0.00169 0.00195 0.00270 0.00220 0.00170
LATT 1
SFAC C H I N O
UNIT 32 20 4 4 8
L.S. 20
FMAP 2
PLAN 8
WPDB -2
HTAB
BOND $H
CONF
LIST 4
TEMP 22.0
ACTA
SIZE 0.160 0.280 0.280
WGHT    0.039200    0.032100
EXTI    0.044090
FVAR       1.78197
I1    3   -0.260182   -0.282646    0.104510    11.00000    0.04521    0.03705 =
         0.05550    0.01686    0.02090    0.01396
I2    3    1.285095    0.793718    0.922414    11.00000    0.04749    0.04221 =
         0.05281    0.02123    0.02377    0.01505
O1    5    0.067443    0.024280    0.252826    11.00000    0.04776    0.04577 =
         0.02757    0.00803    0.00325    0.00701
O2    5    0.255321    0.236566    0.169294    11.00000    0.05166    0.04790 =
         0.03697    0.00569   -0.00378   -0.00915
O3    5    0.949727    0.499766    0.758575    11.00000    0.05492    0.05854 =
         0.02644    0.01678    0.00681    0.01179
O4    5    0.735355    0.272297    0.814005    11.00000    0.04707    0.04521 =
         0.02875    0.00617    0.00266    0.00216
N1    4    0.283937    0.256892    0.444305    11.00000    0.03159    0.04054 =
         0.02877    0.00697    0.00498    0.00759
N2    4    0.683489    0.216071    0.567248    11.00000    0.03555    0.04195 =
         0.03034    0.00547    0.00266    0.00938
C1    1   -0.102272   -0.115802    0.045459    11.00000    0.03142    0.02704 =
         0.03403    0.00825    0.00681    0.01070
C2    1    0.028873    0.004991    0.130917    11.00000    0.03154    0.03148 =
         0.03582    0.00895    0.00599    0.01314
C3    1    0.140298    0.131071    0.087864    11.00000    0.03285    0.03243 =
         0.03273    0.00526    0.00340    0.01116
C4    1    1.117309    0.622483    0.970327    11.00000    0.03451    0.03242 =
         0.03041    0.01161    0.01166    0.01386
C5    1    0.978570    0.505307    0.871359    11.00000    0.03650    0.03659 =
         0.02772    0.01076    0.00932    0.01727
C6    1    0.858711    0.377123    0.906202    11.00000    0.03590    0.03430 =
         0.02910    0.00840    0.00984    0.01480
C7    1    0.185289    0.336175    0.476863    11.00000    0.03671    0.05176 =
         0.04544    0.00935    0.00900    0.01248
AFIX  43
H1    2    0.077857    0.311740    0.421850    11.00000   -1.20000
AFIX   0
C8    1    0.237311    0.451672    0.588162    11.00000    0.04446    0.04384 =
         0.05531    0.01190    0.02229    0.01632
AFIX  43
H2    2    0.164805    0.501785    0.610437    11.00000   -1.20000
AFIX   0
C9    1    0.400484    0.491639    0.666397    11.00000    0.05075    0.03658 =
         0.03508    0.00124    0.01127    0.00860
AFIX  43
H3    2    0.439881    0.570674    0.741771    11.00000   -1.20000
AFIX   0
C10   1    0.504835    0.413810    0.632263    11.00000    0.03910    0.03465 =
         0.02928    0.00446    0.00498    0.00839
AFIX  43
H4    2    0.615468    0.440901    0.683481    11.00000   -1.20000
AFIX   0
C11   1    0.442115    0.294827    0.520590    11.00000    0.03528    0.03088 =
         0.02419    0.00894    0.00806    0.00588
C12   1    0.785061    0.139776    0.534459    11.00000    0.04110    0.05707 =
         0.04272    0.01144    0.00938    0.01980
AFIX  43
H5    2    0.880008    0.148840    0.596410    11.00000   -1.20000
AFIX   0
C13   1    0.754347    0.049549    0.413857    11.00000    0.04698    0.04604 =
         0.05372    0.01781    0.02502    0.01908
AFIX  43
H6    2    0.827530   -0.000739    0.393665    11.00000   -1.20000
AFIX   0
C14   1    0.612218    0.035183    0.323184    11.00000    0.05127    0.04451 =
         0.03371    0.00472    0.01516    0.01358
AFIX  43
H7    2    0.586112   -0.027623    0.240934    11.00000   -1.20000
AFIX   0
C15   1    0.508816    0.114536    0.355125    11.00000    0.04523    0.04861 =
         0.02755    0.00546    0.00744    0.01603
AFIX  43
H8    2    0.413939    0.107252    0.294053    11.00000   -1.20000
AFIX   0
C16   1    0.546795    0.204832    0.478171    11.00000    0.03351    0.02894 =
         0.02570    0.00867    0.00853    0.00468
H9    2    0.179019    0.136001    0.287792    11.00000    0.07938
H10   2    0.758179    0.308042    0.717857    11.00000    0.08598
HKLF 4




REM  bp22hia
REM wR2 = 0.0705, GooF = S = 1.069, Restrained GooF = 1.069 for all data
REM R1 = 0.0274 for 3418 Fo > 4sig(Fo) and 0.0295 for all 3754 data
REM 226 parameters refined using 0 restraints

END

WGHT      0.0392      0.0321

REM Instructions for potential hydrogen bonds
HTAB C10 O3
HTAB C15 O2
HTAB O1 O2
HTAB O1 N1
HTAB O4 O3
HTAB O4 N2

REM Highest difference peak  0.967,  deepest hole -1.113,  1-sigma level  0.104
Q1    1   1.2358  0.7707  0.8601  11.00000  0.05    0.97
Q2    1  -0.3048 -0.3183  0.0357  11.00000  0.05    0.78
Q3    1   1.2942  0.8389  0.9571  11.00000  0.05    0.45
Q4    1   1.1219  0.6223  1.0243  11.00000  0.05    0.39
Q5    1   0.1269  0.1190  0.0308  11.00000  0.05    0.39
Q6    1  -0.0483 -0.0614  0.0964  11.00000  0.05    0.38
Q7    1   0.8018  0.3614  0.7034  11.00000  0.05    0.37
Q8    1  -0.2197 -0.2029  0.2204  11.00000  0.05    0.37
;
_shelx_res_checksum              11176
loop_
_symmetry_equiv_pos_site_id
_symmetry_equiv_pos_as_xyz
1 +X,+Y,+Z
2 -X,-Y,-Z
loop_
_atom_site_label
_atom_site_type_symbol
_atom_site_fract_x
_atom_site_fract_y
_atom_site_fract_z
_atom_site_U_iso_or_equiv
_atom_site_adp_type
_atom_site_occupancy
_atom_site_site_symmetry_order
_atom_site_calc_flag
_atom_site_refinement_flags_posn
_atom_site_refinement_flags_adp
I1 I -0.26018(2) -0.28265(2) 0.10451(2) 0.04461(11) Uani 1 1 d . .
I2 I 1.28509(2) 0.79372(2) 0.92241(2) 0.04514(10) Uani 1 1 d . .
O1 O 0.0674(3) 0.0243(2) 0.25283(16) 0.0444(4) Uani 1 1 d . .
O2 O 0.2553(3) 0.2366(2) 0.16929(18) 0.0557(6) Uani 1 1 d . .
O3 O 0.9497(3) 0.4998(2) 0.75857(16) 0.0487(5) Uani 1 1 d . .
O4 O 0.7354(2) 0.2723(2) 0.81401(16) 0.0459(5) Uani 1 1 d . .
N1 N 0.2839(2) 0.2569(2) 0.44431(18) 0.0361(5) Uani 1 1 d . .
N2 N 0.6835(3) 0.2161(2) 0.56725(19) 0.0390(5) Uani 1 1 d . .
C1 C -0.1023(3) -0.1158(3) 0.0455(2) 0.0313(5) Uani 1 1 d . .
C2 C 0.0289(3) 0.0050(3) 0.1309(2) 0.0332(5) Uani 1 1 d . .
C3 C 0.1403(3) 0.1311(3) 0.0879(2) 0.0344(5) Uani 1 1 d . .
C4 C 1.1173(3) 0.6225(3) 0.9703(2) 0.0312(5) Uani 1 1 d . .
C5 C 0.9786(3) 0.5053(3) 0.8714(2) 0.0323(5) Uani 1 1 d . .
C6 C 0.8587(3) 0.3771(3) 0.9062(2) 0.0326(5) Uani 1 1 d . .
C7 C 0.1853(4) 0.3362(3) 0.4769(3) 0.0468(6) Uani 1 1 d . .
H1 H 0.077857 0.311740 0.421850 0.056 Uiso 1 1 calc R U
C8 C 0.2373(3) 0.4517(3) 0.5882(2) 0.0471(8) Uani 1 1 d . .
H2 H 0.164805 0.501785 0.610437 0.056 Uiso 1 1 calc R U
C9 C 0.4005(4) 0.4916(3) 0.6664(3) 0.0443(6) Uani 1 1 d . .
H3 H 0.439881 0.570674 0.741771 0.053 Uiso 1 1 calc R U
C10 C 0.5048(3) 0.4138(3) 0.6323(2) 0.0371(5) Uani 1 1 d . .
H4 H 0.615468 0.440901 0.683481 0.045 Uiso 1 1 calc R U
C11 C 0.4421(3) 0.2948(3) 0.5206(2) 0.0315(5) Uani 1 1 d . .
C12 C 0.7851(4) 0.1398(3) 0.5345(3) 0.0474(6) Uani 1 1 d . .
H5 H 0.880008 0.148840 0.596410 0.057 Uiso 1 1 calc R U
C13 C 0.7543(4) 0.0495(3) 0.4139(3) 0.0463(7) Uani 1 1 d . .
H6 H 0.827530 -0.000739 0.393665 0.056 Uiso 1 1 calc R U
C14 C 0.6122(4) 0.0352(3) 0.3232(3) 0.0448(6) Uani 1 1 d . .
H7 H 0.586112 -0.027623 0.240934 0.054 Uiso 1 1 calc R U
C15 C 0.5088(3) 0.1145(3) 0.3551(2) 0.0421(6) Uani 1 1 d . .
H8 H 0.413939 0.107252 0.294053 0.051 Uiso 1 1 calc R U
C16 C 0.5468(3) 0.2048(3) 0.4782(2) 0.0309(5) Uani 1 1 d . .
H9 H 0.179(4) 0.136(4) 0.288(3) 0.079(11) Uiso 1 1 d . .
H10 H 0.758(4) 0.308(4) 0.718(4) 0.086(12) Uiso 1 1 d . .
loop_
_atom_site_aniso_label
_atom_site_aniso_U_11
_atom_site_aniso_U_22
_atom_site_aniso_U_33
_atom_site_aniso_U_23
_atom_site_aniso_U_13
_atom_site_aniso_U_12
I1 0.04521(15) 0.03705(13) 0.05550(16) 0.01686(9) 0.02090(10) 0.01396(9)
I2 0.04749(15) 0.04221(14) 0.05281(16) 0.02123(9) 0.02377(10) 0.01505(10)
O1 0.0478(11) 0.0458(11) 0.0276(9) 0.0080(8) 0.0032(7) 0.0070(9)
O2 0.0517(12) 0.0479(12) 0.0370(10) 0.0057(9) -0.0038(9) -0.0091(9)
O3 0.0549(12) 0.0585(12) 0.0264(9) 0.0168(8) 0.0068(8) 0.0118(9)
O4 0.0471(11) 0.0452(11) 0.0287(9) 0.0062(8) 0.0027(8) 0.0022(9)
N1 0.0316(11) 0.0405(11) 0.0288(10) 0.0070(8) 0.0050(8) 0.0076(9)
N2 0.0355(11) 0.0420(11) 0.0303(11) 0.0055(9) 0.0027(9) 0.0094(9)
C1 0.0314(12) 0.0270(11) 0.0340(12) 0.0083(9) 0.0068(9) 0.0107(9)
C2 0.0315(12) 0.0315(12) 0.0358(12) 0.0090(9) 0.0060(9) 0.0131(10)
C3 0.0329(12) 0.0324(12) 0.0327(12) 0.0053(10) 0.0034(10) 0.0112(10)
C4 0.0345(12) 0.0324(12) 0.0304(12) 0.0116(9) 0.0117(9) 0.0139(10)
C5 0.0365(13) 0.0366(12) 0.0277(11) 0.0108(9) 0.0093(9) 0.0173(10)
C6 0.0359(12) 0.0343(12) 0.0291(12) 0.0084(9) 0.0098(9) 0.0148(10)
C7 0.0367(14) 0.0518(16) 0.0454(15) 0.0093(12) 0.0090(11) 0.0125(12)
C8 0.0445(18) 0.0438(17) 0.0553(19) 0.0119(14) 0.0223(15) 0.0163(14)
C9 0.0507(16) 0.0366(13) 0.0351(13) 0.0012(10) 0.0113(12) 0.0086(12)
C10 0.0391(13) 0.0346(12) 0.0293(12) 0.0045(9) 0.0050(10) 0.0084(10)
C11 0.0353(12) 0.0309(11) 0.0242(11) 0.0089(9) 0.0081(9) 0.0059(9)
C12 0.0411(15) 0.0571(17) 0.0427(15) 0.0114(13) 0.0094(12) 0.0198(13)
C13 0.0470(17) 0.0460(17) 0.0537(18) 0.0178(14) 0.0250(14) 0.0191(14)
C14 0.0513(16) 0.0445(14) 0.0337(13) 0.0047(11) 0.0152(12) 0.0136(12)
C15 0.0452(15) 0.0486(15) 0.0275(12) 0.0055(11) 0.0074(10) 0.0160(12)
C16 0.0335(12) 0.0289(11) 0.0257(11) 0.0087(9) 0.0085(9) 0.0047(9)
loop_
_atom_type_symbol
_atom_type_description
_atom_type_scat_dispersion_real
_atom_type_scat_dispersion_imag
_atom_type_scat_source
C C 0.0033 0.0016
;
International Tables for Crystallography
(Vol. C, Tables 4.2.6.8 and 6.1.1.4)
;
H H 0.0000 0.0000
;
International Tables for Crystallography
(Vol. C, Table 6.1.1.4)
;
I I -0.4742 1.8119
;
International Tables for Crystallography
(Vol. C, Tables 4.2.6.8 and 6.1.1.4)
;
N N 0.0061 0.0033
;
International Tables for Crystallography
(Vol. C, Tables 4.2.6.8 and 6.1.1.4)
;
O O 0.0106 0.0060
;
International Tables for Crystallography
(Vol. C, Tables 4.2.6.8 and 6.1.1.4)
;
loop_
_geom_angle_atom_site_label_1
_geom_angle_atom_site_label_2
_geom_angle_atom_site_label_3
_geom_angle
_geom_angle_site_symmetry_1
_geom_angle_site_symmetry_3
C2 O1 H9 100.9(17) . .
C6 O4 H10 104.5(17) . .
C11 N1 C7 119.4(2) . .
C16 N2 C12 119.1(2) . .
C2 C1 C3 121.5(2) . 2
C2 C1 I1 120.70(18) . .
C3 C1 I1 117.79(17) 2 .
O1 C2 C1 123.7(2) . .
O1 C2 C3 115.7(2) . .
C1 C2 C3 120.6(2) . .
O2 C3 C1 124.8(2) . 2
O2 C3 C2 117.4(2) . .
C1 C3 C2 117.9(2) 2 .
C6 C4 C5 121.5(2) 2_767 .
C6 C4 I2 120.00(18) 2_767 .
C5 C4 I2 118.51(16) . .
O3 C5 C4 124.4(2) . .
O3 C5 C6 117.2(2) . .
C4 C5 C6 118.42(19) . .
O4 C6 C4 123.2(2) . 2_767
O4 C6 C5 116.7(2) . .
C4 C6 C5 120.1(2) 2_767 .
N1 C7 C8 122.4(3) . .
N1 C7 H1 118.8 . .
C8 C7 H1 118.8 . .
C7 C8 C9 118.2(3) . .
C7 C8 H2 120.9 . .
C9 C8 H2 120.9 . .
C10 C9 C8 119.8(2) . .
C10 C9 H3 120.1 . .
C8 C9 H3 120.1 . .
C9 C10 C11 119.0(2) . .
C9 C10 H4 120.5 . .
C11 C10 H4 120.5 . .
N1 C11 C10 121.1(2) . .
N1 C11 C16 116.9(2) . .
C10 C11 C16 122.0(2) . .
N2 C12 C13 122.7(3) . .
N2 C12 H5 118.6 . .
C13 C12 H5 118.6 . .
C12 C13 C14 118.2(3) . .
C12 C13 H6 120.9 . .
C14 C13 H6 120.9 . .
C13 C14 C15 119.6(2) . .
C13 C14 H7 120.2 . .
C15 C14 H7 120.2 . .
C14 C15 C16 119.7(2) . .
C14 C15 H8 120.2 . .
C16 C15 H8 120.2 . .
N2 C16 C15 120.7(2) . .
N2 C16 C11 116.2(2) . .
C15 C16 C11 123.1(2) . .
loop_
_geom_bond_atom_site_label_1
_geom_bond_atom_site_label_2
_geom_bond_distance
_geom_bond_site_symmetry_2
I1 C1 2.081(2) .
I2 C4 2.075(2) .
O1 C2 1.305(3) .
O1 H9 1.13(3) .
O2 C3 1.215(3) .
O3 C5 1.232(3) .
O4 C6 1.296(3) .
O4 H10 1.24(4) .
N1 C11 1.344(3) .
N1 C7 1.346(3) .
N2 C16 1.344(3) .
N2 C12 1.348(3) .
C1 C2 1.355(3) .
C1 C3 1.437(3) 2
C2 C3 1.532(4) .
C4 C6 1.364(3) 2_767
C4 C5 1.430(3) .
C5 C6 1.524(4) .
C7 C8 1.371(4) .
C7 H1 0.9300 .
C8 C9 1.383(4) .
C8 H2 0.9300 .
C9 C10 1.382(4) .
C9 H3 0.9300 .
C10 C11 1.385(3) .
C10 H4 0.9300 .
C11 C16 1.492(4) .
C12 C13 1.368(4) .
C12 H5 0.9300 .
C13 C14 1.377(4) .
C13 H6 0.9300 .
C14 C15 1.379(4) .
C14 H7 0.9300 .
C15 C16 1.380(3) .
C15 H8 0.9300 .
loop_
_geom_hbond_atom_site_label_D
_geom_hbond_atom_site_label_H
_geom_hbond_atom_site_label_A
_geom_hbond_distance_DA
_geom_hbond_distance_DH
_geom_hbond_distance_HA
_geom_hbond_angle_DHA
_geom_hbond_publ_flag
O1 H9 O2 2.657(3) 1.13(3) 1.91(4) 120(2) no
O1 H9 N1 2.631(2) 1.13(3) 1.77(3) 130(3) no
O4 H10 O3 2.671(3) 1.24(4) 1.95(3) 112.0(19) no
O4 H10 N2 2.629(3) 1.24(4) 1.63(4) 133(2) no
loop_
_geom_torsion_atom_site_label_1
_geom_torsion_atom_site_label_2
_geom_torsion_atom_site_label_3
_geom_torsion_atom_site_label_4
_geom_torsion
_geom_torsion_site_symmetry_1
_geom_torsion_site_symmetry_4
C3 C1 C2 O1 179.5(2) 2 .
I1 C1 C2 O1 1.3(3) . .
C3 C1 C2 C3 0.7(4) 2 .
I1 C1 C2 C3 -177.43(16) . .
O1 C2 C3 O2 0.8(3) . .
C1 C2 C3 O2 179.7(3) . .
O1 C2 C3 C1 -179.6(2) . 2
C1 C2 C3 C1 -0.7(4) . 2
C6 C4 C5 O3 179.3(2) 2_767 .
I2 C4 C5 O3 -1.1(3) . .
C6 C4 C5 C6 -1.4(4) 2_767 .
I2 C4 C5 C6 178.19(15) . .
O3 C5 C6 O4 -0.1(3) . .
C4 C5 C6 O4 -179.4(2) . .
O3 C5 C6 C4 -179.3(2) . 2_767
C4 C5 C6 C4 1.4(4) . 2_767
C11 N1 C7 C8 -2.5(4) . .
N1 C7 C8 C9 3.0(4) . .
C7 C8 C9 C10 -1.1(4) . .
C8 C9 C10 C11 -1.1(4) . .
C7 N1 C11 C10 0.2(3) . .
C7 N1 C11 C16 -178.8(2) . .
C9 C10 C11 N1 1.6(4) . .
C9 C10 C11 C16 -179.5(2) . .
C16 N2 C12 C13 -0.6(4) . .
N2 C12 C13 C14 -0.9(4) . .
C12 C13 C14 C15 1.8(4) . .
C13 C14 C15 C16 -1.4(4) . .
C12 N2 C16 C15 1.1(4) . .
C12 N2 C16 C11 -178.8(2) . .
C14 C15 C16 N2 -0.1(4) . .
C14 C15 C16 C11 179.8(3) . .
N1 C11 C16 N2 -163.58(17) . .
C10 C11 C16 N2 17.4(4) . .
N1 C11 C16 C15 16.6(4) . .
C10 C11 C16 C15 -162.4(2) . .
