#------------------------------------------------------------------------------
#$Date: 2019-12-03 07:27:02 +0200 (Tue, 03 Dec 2019) $
#$Revision: 244878 $
#$URL: file:///home/coder/svn-repositories/cod/cif/7/23/96/7239615.cif $
#------------------------------------------------------------------------------
#
# This file is available in the Crystallography Open Database (COD),
# http://www.crystallography.net/
#
# All data on this site have been placed in the public domain by the
# contributors.
#
data_7239615
loop_
_publ_author_name
'Horiuchi, Sachio'
'Ishibashi, Shoji'
'Kobayashi, Kensuke'
'Kumai, Reiji'
_publ_section_title
;
 Coexistence of normal and inverse deuterium isotope effects in a
 phase-transition sequence of organic ferroelectrics
;
_journal_issue                   68
_journal_name_full               'RSC Advances'
_journal_page_first              39662
_journal_paper_doi               10.1039/C9RA06489C
_journal_volume                  9
_journal_year                    2019
_chemical_formula_moiety         'C16 H10 I2 N2 O4'
_chemical_formula_sum            'C16 H10 I2 N2 O4'
_chemical_formula_weight         548.07
_space_group_crystal_system      triclinic
_space_group_IT_number           2
_space_group_name_Hall           '-P 1'
_space_group_name_H-M_alt        'P -1'
_atom_sites_solution_hydrogens   geom
_atom_sites_solution_primary     direct
_atom_sites_solution_secondary   difmap
_audit_update_record
;
2019-10-24 deposited with the CCDC.	2019-11-22 downloaded from the CCDC.
;
_cell_angle_alpha                102.1304(9)
_cell_angle_beta                 101.7257(10)
_cell_angle_gamma                104.5226(11)
_cell_formula_units_Z            1
_cell_length_a                   4.8002(3)
_cell_length_b                   8.5129(5)
_cell_length_c                   11.2407(7)
_cell_measurement_reflns_used    4465
_cell_measurement_temperature    375
_cell_measurement_theta_max      38.70
_cell_measurement_theta_min      1.86
_cell_volume                     418.54(4)
_computing_cell_refinement       PROCESS-AUTO
_computing_data_collection       PROCESS-AUTO
_computing_data_reduction        PROCESS-AUTO
_computing_molecular_graphics    'CrystalStructure 4.3'
_computing_publication_material  'CrystalStructure 4.3 (Rigaku, 2019)'
_computing_structure_refinement  'SHELXL Version 2018/3 (Sheldrick, 2008)'
_computing_structure_solution    'SIR2004 (Burla, et al., 2005)'
_diffrn_ambient_temperature      375
_diffrn_measured_fraction_theta_full 0.744
_diffrn_measured_fraction_theta_max 0.668
_diffrn_measurement_device_type  'IPDSC (Rigaku)'
_diffrn_radiation_type           synchrotron
_diffrn_radiation_wavelength     0.68750
_diffrn_reflns_av_R_equivalents  0.0242
_diffrn_reflns_av_unetI/netI     0.0220
_diffrn_reflns_Laue_measured_fraction_full 0.744
_diffrn_reflns_Laue_measured_fraction_max 0.668
_diffrn_reflns_limit_h_max       5
_diffrn_reflns_limit_h_min       -5
_diffrn_reflns_limit_k_max       12
_diffrn_reflns_limit_k_min       -11
_diffrn_reflns_limit_l_max       16
_diffrn_reflns_limit_l_min       -15
_diffrn_reflns_number            3497
_diffrn_reflns_point_group_measured_fraction_full 0.744
_diffrn_reflns_point_group_measured_fraction_max 0.668
_diffrn_reflns_theta_full        24.362
_diffrn_reflns_theta_max         29.998
_diffrn_reflns_theta_min         1.862
_diffrn_standards_number         0
_exptl_absorpt_coefficient_mu    3.412
_exptl_absorpt_correction_T_max  1.000
_exptl_absorpt_correction_T_min  0.702
_exptl_absorpt_correction_type   multi-scan
_exptl_absorpt_process_details   'CrystalClear (Rigaku, ????)'
_exptl_crystal_colour            red
_exptl_crystal_density_diffrn    2.174
_exptl_crystal_density_method    'not measured'
_exptl_crystal_description       plate
_exptl_crystal_F_000             258.00
_exptl_crystal_size_max          0.100
_exptl_crystal_size_mid          0.100
_exptl_crystal_size_min          0.100
_refine_diff_density_max         0.83
_refine_diff_density_min         -0.77
_refine_ls_extinction_coef       0.266(13)
_refine_ls_extinction_method     SHELXL
_refine_ls_goodness_of_fit_ref   1.090
_refine_ls_hydrogen_treatment    refxyz
_refine_ls_number_parameters     130
_refine_ls_number_reflns         1798
_refine_ls_number_restraints     0
_refine_ls_R_factor_all          0.0424
_refine_ls_R_factor_gt           0.0400
_refine_ls_shift/su_max          0.000
_refine_ls_structure_factor_coef Fsqd
_refine_ls_weighting_details
'w = 1/[\s^2^(Fo^2^)+(0.0611P)^2^+0.1931P] where P=(Fo^2^+2Fc^2^)/3'
_refine_ls_weighting_scheme      calc
_refine_ls_wR_factor_gt          0.1066
_refine_ls_wR_factor_ref         0.1094
_reflns_Friedel_coverage         0.000
_reflns_number_gt                1672
_reflns_number_total             1798
_reflns_threshold_expression     F^2^>2.0\s(F^2^)
_cod_data_source_file            c9ra06489c2.cif
_cod_data_source_block           375K_D22bpy-Dia
_cod_database_code               7239615
_shelx_res_file
;
TITL 375K
    shelxl.res
    created by SHELXL-2018/3 at 14:39:58 on 22-Oct-2019
CELL  0.68750 4.80020 8.51290 11.24070 102.13040 101.72570 104.52260
ZERR  1 0.00030 0.00050 0.00070 0.00090 0.00100 0.00110
LATT 1
SFAC C H N O I
UNIT 16 10 2 4 2
SHEL 99999.000000 0.687500
OMIT    1  -3   2
OMIT    1  -1   2
OMIT   -1   1   2
OMIT    0   2   0
OMIT   -4   1   4
OMIT   -1   0   2
OMIT    4   0   2
L.S. 10
FMAP 2
PLAN 30
WPDB -2
HTAB
BOND $H
CONF
LIST 4
TEMP 23.0
ACTA
SIZE 0.100 0.100 0.100
WGHT    0.061100    0.193100
EXTI    0.265713
FVAR       3.87315
I1    5    0.107955    0.273714    0.411916    11.00000    0.06947    0.07660 =
         0.09406    0.04106    0.03178    0.03203
O1    4    0.476640    0.257466    0.678992    11.00000    0.10721    0.07218 =
         0.05713    0.00078    0.02079    0.03833
O2    4    0.781515    0.057150    0.745956    11.00000    0.08683    0.07723 =
         0.04616    0.01125    0.00708    0.02928
N1    3    0.707477    0.300988    0.940853    11.00000    0.09244    0.06213 =
         0.04395    0.00169    0.02261    0.00843
C1    1    0.881746    0.448753    1.021520    11.00000    0.05970    0.05343 =
         0.03660    0.01005    0.01218    0.02260
C2    1    0.486698    0.202686    0.974218    11.00000    0.09454    0.06327 =
         0.06635    0.00866    0.02832    0.00821
C3    1    0.433791    0.245618    1.090058    11.00000    0.07884    0.06962 =
         0.07080    0.02936    0.03002    0.02582
C4    1    0.607702    0.396951    1.172935    11.00000    0.08922    0.08267 =
         0.05170    0.01758    0.03075    0.02882
C5    1    0.832334    0.499723    1.138464    11.00000    0.07592    0.07038 =
         0.04507    0.00425    0.02285    0.01850
C6    1    0.334200    0.109305    0.463442    11.00000    0.04975    0.05585 =
         0.05152    0.01570    0.01674    0.01560
C7    1    0.480914    0.139155    0.591400    11.00000    0.05932    0.05647 =
         0.04358    0.00605    0.01492    0.01171
C8    1    0.654200    0.024617    0.629068    11.00000    0.05106    0.05736 =
         0.04512    0.00825    0.01470    0.00934
H1    2    0.367701    0.103895    0.904047    11.00000    0.06942
H2    2    0.254093    0.175778    1.111152    11.00000    0.09350
H3    2    0.538204    0.431287    1.247808    11.00000    0.09563
H4    2    0.958242    0.600284    1.203310    11.00000    0.07350
H5    2    0.638042    0.216716    0.782576    11.00000    0.07075
HKLF 4




REM  375K
REM wR2 = 0.1094, GooF = S = 1.090, Restrained GooF = 1.090 for all data
REM R1 = 0.0400 for 1672 Fo > 4sig(Fo) and 0.0424 for all 1798 data
REM 130 parameters refined using 0 restraints

END

WGHT      0.0611      0.1950

REM Instructions for potential hydrogen bonds
HTAB O1 O2
HTAB O1 N1

REM Highest difference peak  0.830,  deepest hole -0.773,  1-sigma level  0.128
Q1    1   0.2283  0.3608  0.4383  11.00000  0.05    0.83
Q2    1   0.0261  0.3324  0.4453  11.00000  0.05    0.55
Q3    1   0.0334  0.1581  0.3780  11.00000  0.05    0.49
Q4    1   0.2309  0.4752  0.4769  11.00000  0.05    0.41
Q5    1   0.2460  0.5490  0.4964  11.00000  0.05    0.38
Q6    1  -0.0595  0.1348  0.3156  11.00000  0.05    0.35
Q7    1   0.7063  0.2819  0.8905  11.00000  0.05    0.32
Q8    1   0.3398  0.1847  0.8431  11.00000  0.05    0.30
Q9    1   0.3241  0.1920  0.3793  11.00000  0.05    0.29
Q10   1   0.5271  0.2662  0.9357  11.00000  0.05    0.28
Q11   1   0.6558  0.4531  1.4237  11.00000  0.05    0.26
Q12   1   0.7223  0.4496  0.6326  11.00000  0.05    0.25
Q13   1   0.1590  0.1380  0.9958  11.00000  0.05    0.24
Q14   1   0.4589  0.2183  0.3368  11.00000  0.05    0.23
Q15   1   0.2218  0.0335  0.4010  11.00000  0.05    0.23
Q16   1   0.8332  0.3430  0.9872  11.00000  0.05    0.22
Q17   1   0.9007  0.7234  1.2129  11.00000  0.05    0.21
Q18   1   0.5466  0.2972  0.6239  11.00000  0.05    0.21
Q19   1   1.0565  0.6412  1.1689  11.00000  0.05    0.21
Q20   1  -0.2894  0.1790  0.3796  11.00000  0.05    0.20
Q21   1   0.5034  0.4215  1.3553  11.00000  0.05    0.20
Q22   1   0.4295 -0.1230  0.6181  11.00000  0.05    0.20
Q23   1   0.4447  0.4934  1.3860  11.00000  0.05    0.20
Q24   1   0.6561  0.0759  0.8794  11.00000  0.05    0.19
Q25   1  -0.1625  0.2580  0.4239  11.00000  0.05    0.19
Q26   1   0.3946  0.0574  0.7376  11.00000  0.05    0.19
Q27   1   0.4739  0.0606  0.9568  11.00000  0.05    0.19
Q28   1   0.9955  0.1886  0.7582  11.00000  0.05    0.19
Q29   1   0.7768  0.1217  0.7238  11.00000  0.05    0.19
Q30   1   0.3545  0.0746  0.4012  11.00000  0.05    0.18
;
_shelx_res_checksum              97751
loop_
_symmetry_equiv_pos_site_id
_symmetry_equiv_pos_as_xyz
1 +X,+Y,+Z
2 -X,-Y,-Z
loop_
_atom_site_label
_atom_site_type_symbol
_atom_site_fract_x
_atom_site_fract_y
_atom_site_fract_z
_atom_site_U_iso_or_equiv
_atom_site_adp_type
_atom_site_occupancy
_atom_site_site_symmetry_order
_atom_site_calc_flag
I1 I 0.10796(8) 0.27371(4) 0.41192(3) 0.0739(3) Uani 1 1 d
O1 O 0.4766(11) 0.2575(4) 0.6790(3) 0.0797(12) Uani 1 1 d
O2 O 0.7815(9) 0.0572(4) 0.7460(2) 0.0719(10) Uani 1 1 d
N1 N 0.7075(10) 0.3010(4) 0.9409(3) 0.0705(12) Uani 1 1 d
C1 C 0.8817(9) 0.4488(4) 1.0215(2) 0.0494(10) Uani 1 1 d
C2 C 0.4867(14) 0.2027(6) 0.9742(4) 0.0783(17) Uani 1 1 d
C3 C 0.4338(14) 0.2456(6) 1.0901(4) 0.0694(15) Uani 1 1 d
C4 C 0.6077(14) 0.3970(6) 1.1729(3) 0.0724(15) Uani 1 1 d
C5 C 0.8323(12) 0.4997(5) 1.1385(3) 0.0654(13) Uani 1 1 d
C6 C 0.3342(9) 0.1093(4) 0.4634(3) 0.0519(10) Uani 1 1 d
C7 C 0.4809(10) 0.1392(4) 0.5914(3) 0.0554(11) Uani 1 1 d
C8 C 0.6542(9) 0.0246(4) 0.6291(3) 0.0533(11) Uani 1 1 d
H1 H 0.368(14) 0.104(6) 0.904(5) 0.069(14) Uiso 1 1 d
H2 H 0.254(19) 0.176(9) 1.111(7) 0.093(19) Uiso 1 1 d
H3 H 0.538(18) 0.431(8) 1.248(6) 0.096(19) Uiso 1 1 d
H4 H 0.958(14) 0.600(7) 1.203(5) 0.074(15) Uiso 1 1 d
H5 H 0.638(15) 0.217(7) 0.783(5) 0.071(15) Uiso 1 1 d
loop_
_atom_site_aniso_label
_atom_site_aniso_U_11
_atom_site_aniso_U_22
_atom_site_aniso_U_33
_atom_site_aniso_U_23
_atom_site_aniso_U_13
_atom_site_aniso_U_12
I1 0.0695(4) 0.0766(3) 0.0941(3) 0.04106(17) 0.03178(18) 0.0320(2)
O1 0.107(3) 0.0722(16) 0.0571(13) 0.0008(12) 0.0208(15) 0.038(2)
O2 0.087(3) 0.0772(17) 0.0462(10) 0.0112(10) 0.0071(11) 0.0293(18)
N1 0.092(3) 0.0621(16) 0.0439(11) 0.0017(11) 0.0226(13) 0.0084(18)
C1 0.060(2) 0.0534(13) 0.0366(10) 0.0101(9) 0.0122(10) 0.0226(16)
C2 0.095(4) 0.063(2) 0.066(2) 0.0087(16) 0.028(2) 0.008(2)
C3 0.079(4) 0.070(2) 0.071(2) 0.0294(17) 0.030(2) 0.026(3)
C4 0.089(4) 0.083(2) 0.0517(15) 0.0176(15) 0.0308(17) 0.029(3)
C5 0.076(3) 0.070(2) 0.0451(13) 0.0042(13) 0.0228(14) 0.018(2)
C6 0.050(2) 0.0558(15) 0.0515(13) 0.0157(11) 0.0167(12) 0.0156(17)
C7 0.059(2) 0.0565(15) 0.0436(12) 0.0061(11) 0.0149(12) 0.0117(17)
C8 0.051(2) 0.0574(15) 0.0451(12) 0.0082(11) 0.0147(11) 0.0093(17)
loop_
_atom_type_symbol
_atom_type_description
_atom_type_scat_dispersion_real
_atom_type_scat_dispersion_imag
_atom_type_scat_source
C C 0.0019 0.0015
;
International Tables for Crystallography
(Vol. C, Tables 4.2.6.8 and 6.1.1.4)
;
H H 0.0000 0.0000
;
International Tables for Crystallography
(Vol. C, Table 6.1.1.4)
;
N N 0.0056 0.0031
;
International Tables for Crystallography
(Vol. C, Tables 4.2.6.8 and 6.1.1.4)
;
O O 0.0100 0.0057
;
International Tables for Crystallography
(Vol. C, Tables 4.2.6.8 and 6.1.1.4)
;
I I -0.4915 1.7168
;
International Tables for Crystallography
(Vol. C, Tables 4.2.6.8 and 6.1.1.4)
;
loop_
_geom_angle_atom_site_label_1
_geom_angle_atom_site_label_2
_geom_angle_atom_site_label_3
_geom_angle
_geom_angle_site_symmetry_1
_geom_angle_site_symmetry_3
C7 O1 H5 98(2) . .
C1 N1 C2 119.9(3) . .
N1 C1 C5 119.6(3) . .
N1 C1 C1 117.1(3) . 2_767
C5 C1 C1 123.3(3) . 2_767
N1 C2 C3 122.7(4) . .
N1 C2 H1 111(3) . .
C3 C2 H1 126(3) . .
C4 C3 C2 118.1(4) . .
C4 C3 H2 120(4) . .
C2 C3 H2 122(4) . .
C3 C4 C5 119.5(4) . .
C3 C4 H3 115(4) . .
C5 C4 H3 125(4) . .
C1 C5 C4 120.2(3) . .
C1 C5 H4 124(3) . .
C4 C5 H4 116(3) . .
C8 C6 C7 121.3(4) 2_656 .
C8 C6 I1 119.8(3) 2_656 .
C7 C6 I1 118.9(3) . .
O1 C7 C6 124.0(5) . .
O1 C7 C8 116.7(3) . .
C6 C7 C8 119.3(3) . .
O2 C8 C6 123.9(4) . 2_656
O2 C8 C7 116.7(3) . .
C6 C8 C7 119.4(3) 2_656 .
loop_
_geom_bond_atom_site_label_1
_geom_bond_atom_site_label_2
_geom_bond_distance
_geom_bond_site_symmetry_2
I1 C6 2.079(5) .
O1 C7 1.259(5) .
O1 H5 1.42(7) .
O2 C8 1.270(4) .
N1 C1 1.337(4) .
N1 C2 1.346(6) .
C1 C5 1.382(4) .
C1 C1 1.479(7) 2_767
C2 C3 1.369(6) .
C2 H1 0.98(5) .
C3 C4 1.365(7) .
C3 H2 1.02(8) .
C4 C5 1.385(6) .
C4 H3 0.98(7) .
C5 H4 0.96(5) .
C6 C8 1.393(5) 2_656
C6 C7 1.405(5) .
C7 C8 1.503(7) .
loop_
_geom_torsion_atom_site_label_1
_geom_torsion_atom_site_label_2
_geom_torsion_atom_site_label_3
_geom_torsion_atom_site_label_4
_geom_torsion
_geom_torsion_site_symmetry_1
_geom_torsion_site_symmetry_4
C2 N1 C1 C5 -0.4(7) . .
C2 N1 C1 C1 -179.5(6) . 2_767
C1 N1 C2 C3 -1.3(9) . .
N1 C2 C3 C4 2.0(10) . .
C2 C3 C4 C5 -1.0(9) . .
N1 C1 C5 C4 1.3(8) . .
C1 C1 C5 C4 -179.7(6) 2_767 .
C3 C4 C5 C1 -0.6(9) . .
C8 C6 C7 O1 -179.6(4) 2_656 .
I1 C6 C7 O1 2.4(5) . .
C8 C6 C7 C8 0.1(6) 2_656 .
I1 C6 C7 C8 -177.9(2) . .
O1 C7 C8 O2 -0.1(5) . .
C6 C7 C8 O2 -179.8(3) . .
O1 C7 C8 C6 179.6(4) . 2_656
C6 C7 C8 C6 -0.1(5) . 2_656
