#------------------------------------------------------------------------------
#$Date: 2020-10-06 11:07:39 +0300 (Tue, 06 Oct 2020) $
#$Revision: 257485 $
#$URL: file:///home/coder/svn-repositories/cod/cif/7/23/98/7239850.cif $
#------------------------------------------------------------------------------
#
# This file is available in the Crystallography Open Database (COD),
# http://www.crystallography.net/
#
# All data on this site have been placed in the public domain by the
# contributors.
#
data_7239850
loop_
_publ_author_name
'Abdallah, Ahmad'
'Puget, Marin'
'Daiguebonne, Carole'
'Suffren, Yan'
'Calvez, Guillaume'
'Bernot, Kevin'
'Guillou, Olivier'
_publ_section_title
;
 A new series of lanthanide-based complexes with a
 bis(hydroxy)benzoxaborolone ligand: synthesis, crystal structure, and
 magnetic and optical properties
;
_journal_issue                   11
_journal_name_full               CrystEngComm
_journal_page_first              2020
_journal_page_last               2030
_journal_paper_doi               10.1039/C9CE01592B
_journal_volume                  22
_journal_year                    2020
_chemical_absolute_configuration unk
_chemical_formula_sum            'C7 H6 B Na O5'
_chemical_formula_weight         203.92
_space_group_IT_number           19
_space_group_name_Hall           'P 2ac 2ab'
_space_group_name_H-M_alt        'P 21 21 21'
_symmetry_cell_setting           orthorhombic
_symmetry_Int_Tables_number      19
_symmetry_space_group_name_Hall  'P 2ac 2ab'
_symmetry_space_group_name_H-M   'P 21 21 21'
_atom_sites_solution_hydrogens   geom
_audit_conform_dict_location     ftp://ftp.iucr.org/pub/cif_core.dic
_audit_conform_dict_name         cif_core.dic
_audit_conform_dict_version      2.4.3
_audit_creation_date             2018-04-23T16:56:21-00:00
_audit_creation_method           'WinGX routine CIF_UPDATE'
_audit_update_record
;
2019-07-25 deposited with the CCDC.	2020-01-27 downloaded from the CCDC.
;
_cell_angle_alpha                90
_cell_angle_beta                 90
_cell_angle_gamma                90
_cell_formula_units_Z            4
_cell_length_a                   4.5881(13)
_cell_length_b                   6.5905(16)
_cell_length_c                   29.664(8)
_cell_measurement_reflns_used    2715
_cell_measurement_temperature    150(2)
_cell_measurement_theta_max      27.43
_cell_measurement_theta_min      2.75
_cell_measurement_wavelength     0.71073
_cell_volume                     897.0(4)
_computing_cell_refinement       'APEX3 (Bruker, 2015); SAINT (Bruker, 2014)'
_computing_data_collection       'SAINT (Bruker, 2014)'
_computing_data_reduction        'SAINT (Bruker, 2014)'
_computing_molecular_graphics    'Ortep for Windows (Farrugia, 2012)'
_computing_publication_material  'WinGX publication routines (Farrugia, 2012)'
_computing_structure_refinement  'SHELXL-2017/1 (Sheldrick, 2017)'
_diffrn_ambient_temperature      150(2)
_diffrn_detector                 'CCD plate'
_diffrn_measured_fraction_theta_full 0.996
_diffrn_measured_fraction_theta_max 0.99
_diffrn_measurement_device_type  'D8 VENTURE Bruker AXS'
_diffrn_measurement_method       'CCD rotation images, thick slices'
_diffrn_orient_matrix_UB_11      -0.04774
_diffrn_orient_matrix_UB_12      0.087696
_diffrn_orient_matrix_UB_13      -0.026501
_diffrn_orient_matrix_UB_21      0.097699
_diffrn_orient_matrix_UB_22      -0.099541
_diffrn_orient_matrix_UB_23      -0.02047
_diffrn_orient_matrix_UB_31      -0.188894
_diffrn_orient_matrix_UB_32      -0.073648
_diffrn_orient_matrix_UB_33      -0.00389
_diffrn_radiation_monochromator  'multilayer monochromator'
_diffrn_radiation_probe          x-ray
_diffrn_radiation_type           MoK\a
_diffrn_radiation_wavelength     0.71073
_diffrn_reflns_av_R_equivalents  0.0391
_diffrn_reflns_av_unetI/netI     0.0623
_diffrn_reflns_Laue_measured_fraction_full 0.996
_diffrn_reflns_Laue_measured_fraction_max 0.99
_diffrn_reflns_limit_h_max       5
_diffrn_reflns_limit_h_min       -5
_diffrn_reflns_limit_k_max       8
_diffrn_reflns_limit_k_min       -8
_diffrn_reflns_limit_l_max       37
_diffrn_reflns_limit_l_min       0
_diffrn_reflns_number            3153
_diffrn_reflns_point_group_measured_fraction_full 0.916
_diffrn_reflns_point_group_measured_fraction_max 0.906
_diffrn_reflns_reduction_process
;
        Scaled and merged with Sortav
        R.H. Blessing, (1987) Cryst. Rev. 1, 3-58
        R.H. Blessing, (1989) J. Appl. Cryst. 22, 396-397
;
_diffrn_reflns_theta_full        25.242
_diffrn_reflns_theta_max         27.482
_diffrn_reflns_theta_min         2.747
_diffrn_source                   'Enraf Nonius FR590'
_diffrn_standards_number         0
_exptl_absorpt_coefficient_mu    0.165
_exptl_absorpt_correction_type   none
_exptl_crystal_colour            colourless
_exptl_crystal_density_diffrn    1.51
_exptl_crystal_density_method    'not measured'
_exptl_crystal_description       board
_exptl_crystal_F_000             416
_exptl_crystal_size_max          0.700
_exptl_crystal_size_mid          0.110
_exptl_crystal_size_min          0.060
_refine_diff_density_max         0.616
_refine_diff_density_min         -0.383
_refine_diff_density_rms         0.084
_refine_ls_abs_structure_details
;
 Flack x determined using 509 quotients [(I+)-(I-)]/[(I+)+(I-)]
 (Parsons, Flack and Wagner, Acta Cryst. B69 (2013) 249-259).
;
_refine_ls_abs_structure_Flack   0.0(4)
_refine_ls_extinction_method     none
_refine_ls_goodness_of_fit_ref   1.022
_refine_ls_hydrogen_treatment    constr
_refine_ls_matrix_type           full
_refine_ls_number_constraints    0
_refine_ls_number_parameters     127
_refine_ls_number_reflns         1866
_refine_ls_number_restraints     0
_refine_ls_restrained_S_all      1.022
_refine_ls_R_factor_all          0.0539
_refine_ls_R_factor_gt           0.0487
_refine_ls_shift/su_max          0
_refine_ls_shift/su_mean         0
_refine_ls_structure_factor_coef Fsqd
_refine_ls_weighting_details
'w=1/[\s^2^(Fo^2^)+(0.0756P)^2^+0.9520P] where P=(Fo^2^+2Fc^2^)/3'
_refine_ls_weighting_scheme      calc
_refine_ls_wR_factor_gt          0.1378
_refine_ls_wR_factor_ref         0.1404
_reflns_Friedel_coverage         0.501
_reflns_Friedel_fraction_full    0.787
_reflns_Friedel_fraction_max     0.774
_reflns_number_gt                1710
_reflns_number_total             1866
_reflns_threshold_expression     'I > 2\s(I)'
_iucr_refine_instructions_details
;
TITL shelxt_a.res in P2(1)2(1)2(1)
    shelx.res
    created by SHELXL-2017/1 at 16:56:12 on 23-Apr-2018
CELL  0.71073   4.5881   6.5905  29.6640   90.000   90.000   90.000
ZERR     4.00   0.0013   0.0016   0.0080    0.000    0.000    0.000
LATT  -1
SYMM  1/2 - X, - Y, 1/2 + Z
SYMM  - X, 1/2 + Y, 1/2 - Z
SYMM  1/2 + X, 1/2 - Y, - Z
SFAC  C    H    B    NA   O
UNIT  28 24 4 4 20
MERG   2
FMAP   2
acta
PLAN   20
BOND   $H
LIST   4
L.S.  10
TEMP  -123.00
WGHT    0.075600    0.952000
FVAR       1.14190
NA01  4    0.443134    0.497366    0.502343    11.00000    0.01764    0.00956 =
         0.01550   -0.00082    0.00104   -0.00101
O002  5    0.204706    0.396216    0.427604    11.00000    0.00999    0.01016 =
         0.01226    0.00018    0.00032    0.00147
O003  5    0.269710    0.026376    0.433766    11.00000    0.01458    0.00879 =
         0.01694    0.00070    0.00086   -0.00367
O004  5    0.649530    0.238898    0.456624    11.00000    0.01157    0.01150 =
         0.01315    0.00003    0.00025    0.00054
O005  5    0.681741    0.745115    0.459549    11.00000    0.01865    0.00965 =
         0.02021    0.00031    0.00025   -0.00059
O006  5    0.060653    0.668588    0.387704    11.00000    0.02331    0.01070 =
         0.01978   -0.00025   -0.00365    0.00484
C007  1    0.205118    0.513148    0.390852    11.00000    0.01208    0.01206 =
         0.01384   -0.00112   -0.00385   -0.00493
C008  1    0.526642    0.247848    0.370782    11.00000    0.01202    0.01394 =
         0.01349   -0.00251   -0.00114   -0.00216
C009  1    0.402485    0.426544    0.355870    11.00000    0.01460    0.01652 =
         0.01278   -0.00059    0.00005   -0.00386
C00A  1    0.708203    0.142569    0.341281    11.00000    0.01801    0.02698 =
         0.01549   -0.00502    0.00126    0.00326
AFIX  43
H00A  2    0.795705    0.018404    0.350307    11.00000   -1.20000
AFIX   0
C00B  1    0.448855    0.508962    0.313262    11.00000    0.02833    0.02460 =
         0.01731    0.00616    0.00189   -0.00134
AFIX  43
H00B  2    0.359834    0.632584    0.304223    11.00000   -1.20000
AFIX   0
C00C  1    0.760577    0.221567    0.298152    11.00000    0.02327    0.03793 =
         0.01915   -0.00725    0.00490    0.00123
AFIX  43
H00C  2    0.885784    0.150598    0.278102    11.00000   -1.20000
AFIX   0
C00D  1    0.633364    0.400446    0.284391    11.00000    0.02310    0.04156 =
         0.01366    0.00417    0.00528   -0.00247
AFIX  43
H00D  2    0.671230    0.450824    0.254962    11.00000   -1.20000
AFIX   0
B00E  3    0.427704    0.210586    0.422671    11.00000    0.00898    0.00768 =
         0.01284    0.00024   -0.00132    0.00140
HKLF    4
 
 
 
 
REM  shelxt_a.res in P2(1)2(1)2(1)
REM R1 =  0.0487 for    1710 Fo > 4sig(Fo)  and  0.0539 for all    1866 data
REM    127 parameters refined using      0 restraints
 
END
 
WGHT      0.0473      0.7310
 
REM Highest difference peak  0.616,  deepest hole -0.383,  1-sigma level  0.084
Q1    1   0.7969  0.7230  0.4373  11.00000  0.05    0.62
Q2    1   0.8390  0.2881  0.4462  11.00000  0.05    0.60
Q3    1   0.5403  0.8435  0.4478  11.00000  0.05    0.47
Q4    1   0.1767 -0.0168  0.4092  11.00000  0.05    0.46
Q5    1   0.0170  0.4067  0.4334  11.00000  0.05    0.29
Q6    1   0.0846  0.0638  0.4406  11.00000  0.05    0.28
Q7    1   0.2214  0.4392  0.3617  11.00000  0.05    0.27
Q8    1   0.5676  0.1717  0.3527  11.00000  0.05    0.26
Q9    1   0.9236  0.8385  0.4370  11.00000  0.05    0.25
Q10   1  -0.0420  0.4576  0.4439  11.00000  0.05    0.24
Q11   1   0.8044  0.8738  0.4490  11.00000  0.05    0.24
Q12   1   0.3335  0.4924  0.3730  11.00000  0.05    0.24
Q13   1   1.0821  0.1756  0.3390  11.00000  0.05    0.24
Q14   1   0.7118  0.2453  0.3647  11.00000  0.05    0.23
Q15   1  -0.1987  0.6505  0.3475  11.00000  0.05    0.22
Q16   1   0.3015  0.8387  0.3531  11.00000  0.05    0.22
Q17   1   0.9940  0.2023  0.2921  11.00000  0.05    0.22
Q18   1   0.6208  0.6853  0.4611  11.00000  0.05    0.22
Q19   1   0.2045 -0.0015  0.4433  11.00000  0.05    0.21
Q20   1   0.6285  0.4720  0.2986  11.00000  0.05    0.21
;
_cod_data_source_file            c9ce01592b2.cif
_cod_data_source_block           shelx_CCDC1
_cod_depositor_comments
;Adding full bibliography for 7239849--7239850.cif.

 Adding full bibliography for 7239849--7239850.cif.
;
_cod_database_code               7239850
loop_
_symmetry_equiv_pos_as_xyz
'x, y, z'
'-x+1/2, -y, z+1/2'
'-x, y+1/2, -z+1/2'
'x+1/2, -y+1/2, -z'
loop_
_atom_site_label
_atom_site_type_symbol
_atom_site_fract_x
_atom_site_fract_y
_atom_site_fract_z
_atom_site_U_iso_or_equiv
_atom_site_adp_type
_atom_site_occupancy
_atom_site_site_symmetry_order
_atom_site_calc_flag
_atom_site_refinement_flags_posn
_atom_site_refinement_flags_adp
Na01 Na 0.4431(4) 0.4974(2) 0.50234(4) 0.0142(3) Uani 1 1 d . .
O002 O 0.2047(6) 0.3962(4) 0.42760(7) 0.0108(5) Uani 1 1 d . .
O003 O 0.2697(6) 0.0264(4) 0.43377(8) 0.0134(6) Uani 1 1 d . .
O004 O 0.6495(6) 0.2389(4) 0.45662(8) 0.0121(6) Uani 1 1 d . .
O005 O 0.6817(6) 0.7451(4) 0.45955(9) 0.0162(6) Uani 1 1 d . .
O006 O 0.0607(7) 0.6686(4) 0.38770(8) 0.0179(6) Uani 1 1 d . .
C007 C 0.2051(8) 0.5131(5) 0.39085(11) 0.0127(7) Uani 1 1 d . .
C008 C 0.5266(9) 0.2478(5) 0.37078(11) 0.0131(7) Uani 1 1 d . .
C009 C 0.4025(9) 0.4265(6) 0.35587(11) 0.0146(8) Uani 1 1 d . .
C00A C 0.7082(10) 0.1426(6) 0.34128(12) 0.0202(9) Uani 1 1 d . .
H00A H 0.795705 0.018404 0.350307 0.024 Uiso 1 1 calc R U
C00B C 0.4489(10) 0.5090(7) 0.31326(12) 0.0234(8) Uani 1 1 d . .
H00B H 0.359834 0.632584 0.304223 0.028 Uiso 1 1 calc R U
C00C C 0.7606(11) 0.2216(7) 0.29815(14) 0.0268(10) Uani 1 1 d . .
H00C H 0.885784 0.150598 0.278102 0.032 Uiso 1 1 calc R U
C00D C 0.6334(10) 0.4004(8) 0.28439(13) 0.0261(10) Uani 1 1 d . .
H00D H 0.67123 0.450824 0.254962 0.031 Uiso 1 1 calc R U
B00E B 0.4277(10) 0.2106(6) 0.42267(12) 0.0098(7) Uani 1 1 d . .
loop_
_atom_site_aniso_label
_atom_site_aniso_U_11
_atom_site_aniso_U_22
_atom_site_aniso_U_33
_atom_site_aniso_U_23
_atom_site_aniso_U_13
_atom_site_aniso_U_12
Na01 0.0176(8) 0.0096(6) 0.0155(6) -0.0008(5) 0.0010(5) -0.0010(7)
O002 0.0100(13) 0.0102(11) 0.0123(11) 0.0002(9) 0.0003(9) 0.0015(11)
O003 0.0146(14) 0.0088(11) 0.0169(11) 0.0007(9) 0.0009(9) -0.0037(11)
O004 0.0116(14) 0.0115(12) 0.0131(11) 0.0000(9) 0.0003(10) 0.0005(11)
O005 0.0187(15) 0.0096(12) 0.0202(12) 0.0003(9) 0.0003(11) -0.0006(12)
O006 0.0233(15) 0.0107(12) 0.0198(12) -0.0002(9) -0.0037(12) 0.0048(12)
C007 0.0121(17) 0.0121(14) 0.0138(14) -0.0011(13) -0.0039(13) -0.0049(17)
C008 0.0120(18) 0.0139(17) 0.0135(15) -0.0025(12) -0.0011(13) -0.0022(16)
C009 0.015(2) 0.0165(17) 0.0128(15) -0.0006(13) 0.0001(13) -0.0039(15)
C00A 0.018(2) 0.0270(19) 0.0155(17) -0.0050(14) 0.0013(15) 0.0033(19)
C00B 0.028(2) 0.0246(19) 0.0173(16) 0.0062(15) 0.0019(15) -0.001(2)
C00C 0.023(2) 0.038(2) 0.0192(19) -0.0072(17) 0.0049(16) 0.001(2)
C00D 0.023(3) 0.042(3) 0.0137(17) 0.0042(16) 0.0053(15) -0.002(2)
B00E 0.0090(18) 0.0077(15) 0.0128(16) 0.0002(12) -0.0013(14) 0.0014(16)
loop_
_atom_type_symbol
_atom_type_description
_atom_type_scat_dispersion_real
_atom_type_scat_dispersion_imag
_atom_type_scat_source
C C 0.0033 0.0016 'International Tables Vol C Tables 4.2.6.8 and 6.1.1.4'
H H 0 0 'International Tables Vol C Tables 4.2.6.8 and 6.1.1.4'
B B 0.0013 0.0007 'International Tables Vol C Tables 4.2.6.8 and 6.1.1.4'
Na Na 0.0362 0.0249 'International Tables Vol C Tables 4.2.6.8 and 6.1.1.4'
O O 0.0106 0.006 'International Tables Vol C Tables 4.2.6.8 and 6.1.1.4'
loop_
_geom_angle_atom_site_label_1
_geom_angle_atom_site_label_2
_geom_angle_atom_site_label_3
_geom_angle
_geom_angle_site_symmetry_1
_geom_angle_site_symmetry_3
O005 Na01 O005 89.76(8) . 4_466
O005 Na01 O004 90.24(10) . .
O005 Na01 O004 171.81(11) 4_466 .
O005 Na01 O004 173.61(12) . 4_456
O005 Na01 O004 86.47(10) 4_466 4_456
O004 Na01 O004 92.77(8) . 4_456
O005 Na01 O003 100.38(11) . 4_556
O005 Na01 O003 89.20(10) 4_466 4_556
O004 Na01 O003 98.85(10) . 4_556
O004 Na01 O003 84.73(9) 4_456 4_556
O005 Na01 O002 84.94(9) . .
O005 Na01 O002 112.58(11) 4_466 .
O004 Na01 O002 59.27(9) . .
O004 Na01 O002 91.75(10) 4_456 .
O003 Na01 O002 157.73(10) 4_556 .
O005 Na01 B00E 91.32(11) . .
O005 Na01 B00E 144.01(13) 4_466 .
O004 Na01 B00E 27.80(10) . .
O004 Na01 B00E 88.72(10) 4_456 .
O003 Na01 B00E 125.83(11) 4_556 .
O002 Na01 B00E 31.94(10) . .
O005 Na01 Na01 145.13(9) . 4_456
O005 Na01 Na01 108.15(8) 4_466 4_456
O004 Na01 Na01 67.86(8) . 4_456
O004 Na01 Na01 33.04(6) 4_456 4_456
O003 Na01 Na01 109.29(8) 4_556 4_456
O002 Na01 Na01 60.75(6) . 4_456
B00E Na01 Na01 56.56(9) . 4_456
O005 Na01 Na01 106.40(8) . 4_556
O005 Na01 Na01 153.45(9) 4_466 4_556
O004 Na01 Na01 33.32(6) . 4_556
O004 Na01 Na01 79.02(8) 4_456 4_556
O003 Na01 Na01 67.58(6) 4_556 4_556
O002 Na01 Na01 90.16(8) . 4_556
B00E Na01 Na01 58.39(9) . 4_556
Na01 Na01 Na01 70.21(5) 4_456 4_556
O005 Na01 Na01 70.87(9) . 4_466
O005 Na01 Na01 30.52(7) 4_466 4_466
O004 Na01 Na01 142.84(8) . 4_466
O004 Na01 Na01 103.53(7) 4_456 4_466
O003 Na01 Na01 115.53(8) 4_556 4_466
O002 Na01 Na01 86.69(7) . 4_466
B00E Na01 Na01 118.28(9) . 4_466
Na01 Na01 Na01 110.21(2) 4_456 4_466
Na01 Na01 Na01 175.99(7) 4_556 4_466
O005 Na01 Na01 30.89(7) . 4_566
O005 Na01 Na01 73.35(9) 4_466 4_566
O004 Na01 Na01 110.16(8) . 4_566
O004 Na01 Na01 150.76(9) 4_456 4_566
O003 Na01 Na01 74.29(7) 4_556 4_566
O002 Na01 Na01 115.26(8) . 4_566
B00E Na01 Na01 120.02(9) . 4_566
Na01 Na01 Na01 175.99(7) 4_456 4_566
Na01 Na01 Na01 110.21(2) 4_556 4_566
Na01 Na01 Na01 69.08(5) 4_466 4_566
C007 O002 B00E 111.4(3) . .
C007 O002 Na01 123.8(2) . .
B00E O002 Na01 90.29(17) . .
B00E O003 Na01 122.7(2) . 4_456
B00E O004 Na01 102.1(2) . .
B00E O004 Na01 131.9(2) . 4_556
Na01 O004 Na01 113.64(10) . 4_556
Na01 O005 Na01 118.59(11) . 4_566
O006 C007 O002 123.0(3) . .
O006 C007 C009 126.6(3) . .
O002 C007 C009 110.4(3) . .
C009 C008 C00A 118.0(3) . .
C009 C008 B00E 108.5(3) . .
C00A C008 B00E 133.4(3) . .
C008 C009 C00B 124.1(4) . .
C008 C009 C007 110.7(3) . .
C00B C009 C007 125.1(4) . .
C008 C00A C00C 119.4(4) . .
C008 C00A H00A 120.3 . .
C00C C00A H00A 120.3 . .
C009 C00B C00D 116.6(4) . .
C009 C00B H00B 121.7 . .
C00D C00B H00B 121.7 . .
C00D C00C C00A 121.0(4) . .
C00D C00C H00C 119.5 . .
C00A C00C H00C 119.5 . .
C00C C00D C00B 120.8(4) . .
C00C C00D H00D 119.6 . .
C00B C00D H00D 119.6 . .
O004 B00E O003 107.6(3) . .
O004 B00E O002 106.7(3) . .
O003 B00E O002 107.4(3) . .
O004 B00E C008 116.4(3) . .
O003 B00E C008 118.8(3) . .
O002 B00E C008 98.6(3) . .
O004 B00E Na01 50.08(16) . .
O003 B00E Na01 110.9(2) . .
O002 B00E Na01 57.77(14) . .
C008 B00E Na01 129.7(2) . .
loop_
_geom_bond_atom_site_label_1
_geom_bond_atom_site_label_2
_geom_bond_distance
_geom_bond_site_symmetry_2
Na01 O005 2.340(3) .
Na01 O005 2.366(3) 4_466
Na01 O004 2.374(3) .
Na01 O004 2.392(3) 4_456
Na01 O003 2.421(3) 4_556
Na01 O002 2.561(3) .
Na01 B00E 3.027(4) .
Na01 Na01 3.989(2) 4_456
Na01 Na01 3.989(2) 4_556
Na01 Na01 4.046(2) 4_466
Na01 Na01 4.046(2) 4_566
O002 C007 1.335(4) .
O002 B00E 1.602(5) .
O003 B00E 1.452(5) .
O004 B00E 1.444(5) .
O006 C007 1.224(5) .
C007 C009 1.491(5) .
C008 C009 1.381(5) .
C008 C00A 1.393(5) .
C008 B00E 1.623(5) .
C009 C00B 1.392(5) .
C00A C00C 1.402(6) .
C00A H00A 0.95 .
C00B C00D 1.401(6) .
C00B H00B 0.95 .
C00C C00D 1.377(7) .
C00C H00C 0.95 .
C00D H00D 0.95 .
