#------------------------------------------------------------------------------
#$Date: 2019-12-03 07:27:02 +0200 (Tue, 03 Dec 2019) $
#$Revision: 244878 $
#$URL: file:///home/coder/svn-repositories/cod/cif/7/23/96/7239612.cif $
#------------------------------------------------------------------------------
#
# This file is available in the Crystallography Open Database (COD),
# http://www.crystallography.net/
#
# All data on this site have been placed in the public domain by the
# contributors.
#
data_7239612
loop_
_publ_author_name
'Horiuchi, Sachio'
'Ishibashi, Shoji'
'Kobayashi, Kensuke'
'Kumai, Reiji'
_publ_section_title
;
 Coexistence of normal and inverse deuterium isotope effects in a
 phase-transition sequence of organic ferroelectrics
;
_journal_issue                   68
_journal_name_full               'RSC Advances'
_journal_page_first              39662
_journal_paper_doi               10.1039/C9RA06489C
_journal_volume                  9
_journal_year                    2019
_chemical_formula_moiety         'C16 H10 I2 N2 O4'
_chemical_formula_sum            'C16 H10 I2 N2 O4'
_chemical_formula_weight         548.07
_space_group_crystal_system      triclinic
_space_group_IT_number           2
_space_group_name_Hall           '-P 1'
_space_group_name_H-M_alt        'P -1'
_atom_sites_solution_hydrogens   geom
_atom_sites_solution_primary     direct
_atom_sites_solution_secondary   difmap
_audit_update_record
;
2019-11-12 deposited with the CCDC.	2019-11-22 downloaded from the CCDC.
;
_cell_angle_alpha                102.807(3)
_cell_angle_beta                 100.659(2)
_cell_angle_gamma                107.876(3)
_cell_formula_units_Z            2
_cell_length_a                   8.5223(19)
_cell_length_b                   9.665(2)
_cell_length_c                   11.255(3)
_cell_measurement_reflns_used    3161
_cell_measurement_temperature    295
_cell_measurement_theta_max      27.50
_cell_measurement_theta_min      3.40
_cell_volume                     827.8(3)
_computing_cell_refinement       'CrystalClear-SM Expert 2.1 b29'
_computing_data_collection
'CrystalClear-SM Expert 2.1 b29 (Rigaku, 2013)'
_computing_data_reduction        'CrystalClear-SM Expert 2.1 b29'
_computing_molecular_graphics    'CrystalStructure 4.3'
_computing_publication_material  'CrystalStructure 4.3 (Rigaku, 2018)'
_computing_structure_refinement  'SHELXL Version 2018/3 (Sheldrick, 2008)'
_computing_structure_solution    'Il Milione (Burla, et al., 2007)'
_diffrn_ambient_temperature      295
_diffrn_detector_area_resol_mean 5.814
_diffrn_measured_fraction_theta_full 0.991
_diffrn_measured_fraction_theta_max 0.992
_diffrn_measurement_device_type  'Rigaku XtaLAB P200'
_diffrn_measurement_method       \w
_diffrn_radiation_type           'Mo K\a'
_diffrn_radiation_wavelength     0.71075
_diffrn_reflns_av_R_equivalents  0.0242
_diffrn_reflns_av_unetI/netI     0.0269
_diffrn_reflns_Laue_measured_fraction_full 0.991
_diffrn_reflns_Laue_measured_fraction_max 0.992
_diffrn_reflns_limit_h_max       11
_diffrn_reflns_limit_h_min       -11
_diffrn_reflns_limit_k_max       12
_diffrn_reflns_limit_k_min       -12
_diffrn_reflns_limit_l_max       14
_diffrn_reflns_limit_l_min       -14
_diffrn_reflns_number            12790
_diffrn_reflns_point_group_measured_fraction_full 0.991
_diffrn_reflns_point_group_measured_fraction_max 0.992
_diffrn_reflns_theta_full        25.242
_diffrn_reflns_theta_max         27.478
_diffrn_reflns_theta_min         3.383
_diffrn_standards_number         0
_exptl_absorpt_coefficient_mu    3.824
_exptl_absorpt_correction_T_max  0.542
_exptl_absorpt_correction_T_min  0.250
_exptl_absorpt_correction_type   numerical
_exptl_absorpt_process_details   'NUMABS (Rigaku, 1999)'
_exptl_crystal_colour            black
_exptl_crystal_density_diffrn    2.199
_exptl_crystal_density_method    'not measured'
_exptl_crystal_description       prism
_exptl_crystal_F_000             516.00
_exptl_crystal_size_max          0.390
_exptl_crystal_size_mid          0.350
_exptl_crystal_size_min          0.160
_refine_diff_density_max         0.88
_refine_diff_density_min         -0.93
_refine_ls_extinction_coef       0.0171(6)
_refine_ls_extinction_method     SHELXL
_refine_ls_goodness_of_fit_ref   1.098
_refine_ls_hydrogen_treatment    mixed
_refine_ls_number_parameters     226
_refine_ls_number_reflns         3762
_refine_ls_number_restraints     0
_refine_ls_R_factor_all          0.0292
_refine_ls_R_factor_gt           0.0266
_refine_ls_shift/su_max          0.001
_refine_ls_structure_factor_coef Fsqd
_refine_ls_weighting_details
'w = 1/[\s^2^(Fo^2^)+(0.0319P)^2^] where P=(Fo^2^+2Fc^2^)/3'
_refine_ls_weighting_scheme      calc
_refine_ls_wR_factor_gt          0.0639
_refine_ls_wR_factor_ref         0.0660
_reflns_Friedel_coverage         0.000
_reflns_number_gt                3387
_reflns_number_total             3762
_reflns_threshold_expression     F^2^>2.0\s(F^2^)
_cod_data_source_file            c9ra06489c2.cif
_cod_data_source_block           D22bpy-Dia
_cod_database_code               7239612
_shelx_res_file
;
TITL bp22dia1
    shelxl.res
    created by SHELXL-2018/3 at 09:33:54 on 12-Nov-2019
CELL  0.71075 8.52230 9.66500 11.25500 102.80700 100.65900 107.87600
ZERR  2 0.00190 0.00200 0.00300 0.00300 0.00200 0.00300
LATT 1
SFAC C H I N O
UNIT 32 20 4 4 8
L.S. 10
FMAP 2
PLAN 8
WPDB -2
HTAB
BOND $H
CONF
LIST 4
TEMP 22.0
ACTA
SIZE 0.390 0.350 0.160
WGHT    0.031900
EXTI    0.017104
FVAR       0.46966
I1    3   -0.261913   -0.283656    0.103014    11.00000    0.04572    0.03750 =
         0.05721    0.01689    0.02137    0.01411
I2    3    1.284782    0.793879    0.921969    11.00000    0.04838    0.04281 =
         0.05429    0.02139    0.02453    0.01553
O1    5    0.065998    0.022796    0.251876    11.00000    0.04718    0.04619 =
         0.02995    0.00829    0.00421    0.00713
O2    5    0.255398    0.235395    0.169748    11.00000    0.05115    0.04679 =
         0.03771    0.00503   -0.00302   -0.00882
O3    5    0.950121    0.499356    0.758768    11.00000    0.05433    0.05917 =
         0.02569    0.01618    0.00587    0.01084
O4    5    0.736496    0.272041    0.814919    11.00000    0.04693    0.04551 =
         0.03063    0.00668    0.00273    0.00211
N1    4    0.285769    0.257382    0.445193    11.00000    0.03375    0.04152 =
         0.02795    0.00601    0.00505    0.00678
N2    4    0.684200    0.217075    0.565857    11.00000    0.03714    0.04319 =
         0.03036    0.00342    0.00380    0.01017
C1    1   -0.102669   -0.116097    0.044815    11.00000    0.03357    0.02840 =
         0.03598    0.00872    0.00837    0.01177
C2    1    0.028368    0.004269    0.130620    11.00000    0.03318    0.03247 =
         0.03617    0.00807    0.00712    0.01415
C3    1    0.139587    0.129975    0.088036    11.00000    0.03310    0.03327 =
         0.03404    0.00400    0.00302    0.01154
C4    1    1.116591    0.622163    0.970232    11.00000    0.03382    0.03411 =
         0.03071    0.01165    0.01104    0.01357
C5    1    0.978624    0.504932    0.871302    11.00000    0.03708    0.03867 =
         0.02589    0.01027    0.00939    0.01857
C6    1    0.859968    0.377773    0.906476    11.00000    0.03600    0.03427 =
         0.02954    0.00795    0.00900    0.01545
C7    1    0.187528    0.337263    0.477855    11.00000    0.03514    0.05435 =
         0.04604    0.00990    0.00853    0.01173
AFIX  43
H1    2    0.080846    0.313520    0.422667    11.00000   -1.20000
AFIX   0
C8    1    0.238628    0.451652    0.588816    11.00000    0.04510    0.04643 =
         0.05231    0.01168    0.01959    0.01867
AFIX  43
H2    2    0.166037    0.501573    0.611012    11.00000   -1.20000
AFIX   0
C9    1    0.401274    0.491695    0.667673    11.00000    0.05109    0.03582 =
         0.03515    0.00206    0.01082    0.00871
AFIX  43
H3    2    0.440323    0.570245    0.743275    11.00000   -1.20000
AFIX   0
C10   1    0.504950    0.413232    0.632456    11.00000    0.04098    0.03434 =
         0.02822    0.00366    0.00397    0.00961
AFIX  43
H4    2    0.615206    0.439987    0.683473    11.00000   -1.20000
AFIX   0
C11   1    0.443036    0.294559    0.520597    11.00000    0.03590    0.03217 =
         0.02369    0.00879    0.00772    0.00770
C12   1    0.785474    0.140527    0.532693    11.00000    0.04319    0.05687 =
         0.04607    0.01238    0.01034    0.01925
AFIX  43
H5    2    0.880789    0.150166    0.594219    11.00000   -1.20000
AFIX   0
C13   1    0.754097    0.049595    0.412801    11.00000    0.04790    0.04476 =
         0.05349    0.01584    0.02397    0.01928
AFIX  43
H6    2    0.827851    0.000150    0.392481    11.00000   -1.20000
AFIX   0
C14   1    0.610725    0.032708    0.322573    11.00000    0.05038    0.04543 =
         0.03527    0.00493    0.01594    0.01248
AFIX  43
H7    2    0.583557   -0.031576    0.240867    11.00000   -1.20000
AFIX   0
C15   1    0.507550    0.112757    0.355165    11.00000    0.04622    0.05015 =
         0.02610    0.00407    0.00539    0.01702
AFIX  43
H8    2    0.412004    0.104847    0.294774    11.00000   -1.20000
AFIX   0
C16   1    0.547503    0.204686    0.478257    11.00000    0.03358    0.02974 =
         0.02656    0.00869    0.00882    0.00537
H9    2    0.180954    0.145397    0.291998    11.00000    0.08005
H10   2    0.762222    0.307437    0.717957    11.00000    0.07143
HKLF 4




REM  bp22dia1
REM wR2 = 0.0660, GooF = S = 1.098, Restrained GooF = 1.098 for all data
REM R1 = 0.0266 for 3387 Fo > 4sig(Fo) and 0.0292 for all 3762 data
REM 226 parameters refined using 0 restraints

END

WGHT      0.0319      0.0000

REM Instructions for potential hydrogen bonds
HTAB C15 O2
HTAB O1 O2
HTAB O1 N1
HTAB O4 O3
HTAB O4 N2

REM Highest difference peak  0.875,  deepest hole -0.928,  1-sigma level  0.087
Q1    1   1.2383  0.7802  0.8625  11.00000  0.05    0.88
Q2    1  -0.3039 -0.3206  0.0380  11.00000  0.05    0.76
Q3    1   1.3224  0.8423  0.9420  11.00000  0.05    0.51
Q4    1   1.3106  0.7390  0.9404  11.00000  0.05    0.51
Q5    1   1.1248  0.6175  1.0276  11.00000  0.05    0.38
Q6    1  -0.1669 -0.1690  0.1985  11.00000  0.05    0.38
Q7    1   0.8036  0.3615  0.6996  11.00000  0.05    0.38
Q8    1   0.0761  0.0555  0.1066  11.00000  0.05    0.37
;
_shelx_res_checksum              67762
loop_
_symmetry_equiv_pos_site_id
_symmetry_equiv_pos_as_xyz
1 +X,+Y,+Z
2 -X,-Y,-Z
loop_
_atom_site_label
_atom_site_type_symbol
_atom_site_fract_x
_atom_site_fract_y
_atom_site_fract_z
_atom_site_U_iso_or_equiv
_atom_site_adp_type
_atom_site_occupancy
_atom_site_site_symmetry_order
_atom_site_calc_flag
_atom_site_refinement_flags_posn
_atom_site_refinement_flags_adp
I1 I -0.26191(2) -0.28366(2) 0.10301(2) 0.04552(10) Uani 1 1 d . .
I2 I 1.28478(3) 0.79388(2) 0.92197(2) 0.04603(10) Uani 1 1 d . .
O1 O 0.0660(3) 0.0228(2) 0.25188(16) 0.0450(5) Uani 1 1 d . .
O2 O 0.2554(3) 0.2354(2) 0.16975(18) 0.0552(6) Uani 1 1 d . .
O3 O 0.9501(3) 0.4994(2) 0.75877(16) 0.0489(5) Uani 1 1 d . .
O4 O 0.7365(3) 0.2720(2) 0.81492(16) 0.0466(5) Uani 1 1 d . .
N1 N 0.2858(3) 0.2574(2) 0.44519(19) 0.0373(5) Uani 1 1 d . .
N2 N 0.6842(3) 0.2171(2) 0.56586(19) 0.0401(5) Uani 1 1 d . .
C1 C -0.1027(3) -0.1161(3) 0.0448(2) 0.0328(5) Uani 1 1 d . .
C2 C 0.0284(3) 0.0043(3) 0.1306(2) 0.0341(5) Uani 1 1 d . .
C3 C 0.1396(3) 0.1300(3) 0.0880(2) 0.0355(6) Uani 1 1 d . .
C4 C 1.1166(3) 0.6222(3) 0.9702(2) 0.0319(5) Uani 1 1 d . .
C5 C 0.9786(3) 0.5049(3) 0.8713(2) 0.0325(5) Uani 1 1 d . .
C6 C 0.8600(3) 0.3778(3) 0.9065(2) 0.0329(5) Uani 1 1 d . .
C7 C 0.1875(4) 0.3373(3) 0.4779(3) 0.0475(7) Uani 1 1 d . .
H1 H 0.080846 0.313520 0.422667 0.057 Uiso 1 1 calc R U
C8 C 0.2386(4) 0.4517(3) 0.5888(2) 0.0471(8) Uani 1 1 d . .
H2 H 0.166037 0.501573 0.611012 0.056 Uiso 1 1 calc R U
C9 C 0.4013(4) 0.4917(3) 0.6677(3) 0.0440(7) Uani 1 1 d . .
H3 H 0.440323 0.570245 0.743275 0.053 Uiso 1 1 calc R U
C10 C 0.5050(3) 0.4132(3) 0.6325(2) 0.0373(6) Uani 1 1 d . .
H4 H 0.615206 0.439987 0.683473 0.045 Uiso 1 1 calc R U
C11 C 0.4430(3) 0.2946(3) 0.5206(2) 0.0317(5) Uani 1 1 d . .
C12 C 0.7855(4) 0.1405(3) 0.5327(3) 0.0492(7) Uani 1 1 d . .
H5 H 0.880789 0.150166 0.594219 0.059 Uiso 1 1 calc R U
C13 C 0.7541(4) 0.0496(3) 0.4128(3) 0.0464(7) Uani 1 1 d . .
H6 H 0.827851 0.000150 0.392481 0.056 Uiso 1 1 calc R U
C14 C 0.6107(4) 0.0327(3) 0.3226(3) 0.0455(7) Uani 1 1 d . .
H7 H 0.583557 -0.031576 0.240867 0.055 Uiso 1 1 calc R U
C15 C 0.5076(4) 0.1128(3) 0.3552(2) 0.0428(6) Uani 1 1 d . .
H8 H 0.412004 0.104847 0.294774 0.051 Uiso 1 1 calc R U
C16 C 0.5475(3) 0.2047(3) 0.4783(2) 0.0313(5) Uani 1 1 d . .
H9 H 0.181(4) 0.145(4) 0.292(3) 0.080(11) Uiso 1 1 d . .
H10 H 0.762(4) 0.307(3) 0.718(3) 0.071(10) Uiso 1 1 d . .
loop_
_atom_site_aniso_label
_atom_site_aniso_U_11
_atom_site_aniso_U_22
_atom_site_aniso_U_33
_atom_site_aniso_U_23
_atom_site_aniso_U_13
_atom_site_aniso_U_12
I1 0.04572(15) 0.03750(14) 0.05721(15) 0.01689(10) 0.02137(10) 0.01411(10)
I2 0.04838(15) 0.04281(14) 0.05429(15) 0.02139(10) 0.02453(10) 0.01553(10)
O1 0.0472(12) 0.0462(12) 0.0299(9) 0.0083(8) 0.0042(8) 0.0071(9)
O2 0.0512(13) 0.0468(12) 0.0377(11) 0.0050(9) -0.0030(9) -0.0088(10)
O3 0.0543(12) 0.0592(13) 0.0257(9) 0.0162(9) 0.0059(8) 0.0108(10)
O4 0.0469(12) 0.0455(12) 0.0306(10) 0.0067(8) 0.0027(8) 0.0021(9)
N1 0.0337(12) 0.0415(12) 0.0280(10) 0.0060(9) 0.0050(8) 0.0068(10)
N2 0.0371(12) 0.0432(13) 0.0304(11) 0.0034(9) 0.0038(9) 0.0102(10)
C1 0.0336(13) 0.0284(13) 0.0360(13) 0.0087(10) 0.0084(10) 0.0118(11)
C2 0.0332(13) 0.0325(13) 0.0362(13) 0.0081(11) 0.0071(10) 0.0141(11)
C3 0.0331(14) 0.0333(14) 0.0340(13) 0.0040(11) 0.0030(10) 0.0115(11)
C4 0.0338(13) 0.0341(13) 0.0307(12) 0.0116(10) 0.0110(10) 0.0136(11)
C5 0.0371(14) 0.0387(14) 0.0259(12) 0.0103(10) 0.0094(10) 0.0186(12)
C6 0.0360(14) 0.0343(14) 0.0295(12) 0.0079(10) 0.0090(10) 0.0155(11)
C7 0.0351(15) 0.0543(18) 0.0460(16) 0.0099(13) 0.0085(12) 0.0117(14)
C8 0.0451(18) 0.0464(18) 0.0523(19) 0.0117(15) 0.0196(14) 0.0187(15)
C9 0.0511(17) 0.0358(15) 0.0352(14) 0.0021(11) 0.0108(12) 0.0087(13)
C10 0.0410(15) 0.0343(14) 0.0282(12) 0.0037(10) 0.0040(10) 0.0096(12)
C11 0.0359(14) 0.0322(13) 0.0237(11) 0.0088(10) 0.0077(9) 0.0077(11)
C12 0.0432(17) 0.0569(19) 0.0461(16) 0.0124(14) 0.0103(12) 0.0193(15)
C13 0.0479(18) 0.0448(18) 0.0535(18) 0.0158(14) 0.0240(14) 0.0193(15)
C14 0.0504(18) 0.0454(17) 0.0353(14) 0.0049(12) 0.0159(12) 0.0125(14)
C15 0.0462(16) 0.0501(16) 0.0261(13) 0.0041(11) 0.0054(11) 0.0170(13)
C16 0.0336(13) 0.0297(12) 0.0266(11) 0.0087(10) 0.0088(9) 0.0054(10)
loop_
_atom_type_symbol
_atom_type_description
_atom_type_scat_dispersion_real
_atom_type_scat_dispersion_imag
_atom_type_scat_source
C C 0.0033 0.0016
;
International Tables for Crystallography
(Vol. C, Tables 4.2.6.8 and 6.1.1.4)
;
H H 0.0000 0.0000
;
International Tables for Crystallography
(Vol. C, Table 6.1.1.4)
;
I I -0.4742 1.8119
;
International Tables for Crystallography
(Vol. C, Tables 4.2.6.8 and 6.1.1.4)
;
N N 0.0061 0.0033
;
International Tables for Crystallography
(Vol. C, Tables 4.2.6.8 and 6.1.1.4)
;
O O 0.0106 0.0060
;
International Tables for Crystallography
(Vol. C, Tables 4.2.6.8 and 6.1.1.4)
;
loop_
_geom_angle_atom_site_label_1
_geom_angle_atom_site_label_2
_geom_angle_atom_site_label_3
_geom_angle
_geom_angle_site_symmetry_1
_geom_angle_site_symmetry_3
C2 O1 H9 101.8(15) . .
C6 O4 H10 103.7(15) . .
C11 N1 C7 119.6(2) . .
C16 N2 C12 119.1(2) . .
C2 C1 C3 121.4(2) . 2
C2 C1 I1 120.69(19) . .
C3 C1 I1 117.92(18) 2 .
O1 C2 C1 123.7(2) . .
O1 C2 C3 115.8(2) . .
C1 C2 C3 120.4(2) . .
O2 C3 C1 124.4(3) . 2
O2 C3 C2 117.4(2) . .
C1 C3 C2 118.2(2) 2 .
C6 C4 C5 121.5(2) 2_767 .
C6 C4 I2 120.15(19) 2_767 .
C5 C4 I2 118.35(17) . .
O3 C5 C4 124.5(2) . .
O3 C5 C6 117.4(2) . .
C4 C5 C6 118.1(2) . .
O4 C6 C4 122.6(2) . 2_767
O4 C6 C5 117.0(2) . .
C4 C6 C5 120.4(2) 2_767 .
N1 C7 C8 122.5(3) . .
N1 C7 H1 118.7 . .
C8 C7 H1 118.7 . .
C7 C8 C9 118.5(3) . .
C7 C8 H2 120.8 . .
C9 C8 H2 120.8 . .
C10 C9 C8 119.2(3) . .
C10 C9 H3 120.4 . .
C8 C9 H3 120.4 . .
C9 C10 C11 119.5(3) . .
C9 C10 H4 120.3 . .
C11 C10 H4 120.3 . .
N1 C11 C10 120.7(2) . .
N1 C11 C16 117.3(2) . .
C10 C11 C16 122.0(2) . .
N2 C12 C13 122.8(3) . .
N2 C12 H5 118.6 . .
C13 C12 H5 118.6 . .
C12 C13 C14 118.5(3) . .
C12 C13 H6 120.8 . .
C14 C13 H6 120.8 . .
C13 C14 C15 119.1(3) . .
C13 C14 H7 120.5 . .
C15 C14 H7 120.5 . .
C14 C15 C16 119.6(3) . .
C14 C15 H8 120.2 . .
C16 C15 H8 120.2 . .
N2 C16 C15 120.8(2) . .
N2 C16 C11 116.4(2) . .
C15 C16 C11 122.8(2) . .
loop_
_geom_bond_atom_site_label_1
_geom_bond_atom_site_label_2
_geom_bond_distance
_geom_bond_site_symmetry_2
I1 C1 2.084(3) .
I2 C4 2.081(3) .
O1 C2 1.301(3) .
O1 H9 1.21(3) .
O2 C3 1.220(3) .
O3 C5 1.230(3) .
O4 C6 1.298(3) .
O4 H10 1.25(3) .
N1 C11 1.339(3) .
N1 C7 1.348(4) .
N2 C16 1.334(3) .
N2 C12 1.349(3) .
C1 C2 1.356(3) .
C1 C3 1.437(3) 2
C2 C3 1.524(4) .
C4 C6 1.365(3) 2_767
C4 C5 1.430(3) .
C5 C6 1.513(4) .
C7 C8 1.365(4) .
C7 H1 0.9300 .
C8 C9 1.386(4) .
C8 H2 0.9300 .
C9 C10 1.386(4) .
C9 H3 0.9300 .
C10 C11 1.386(3) .
C10 H4 0.9300 .
C11 C16 1.491(4) .
C12 C13 1.364(4) .
C12 H5 0.9300 .
C13 C14 1.377(4) .
C13 H6 0.9300 .
C14 C15 1.385(4) .
C14 H7 0.9300 .
C15 C16 1.385(3) .
C15 H8 0.9300 .
loop_
_geom_hbond_atom_site_label_D
_geom_hbond_atom_site_label_H
_geom_hbond_atom_site_label_A
_geom_hbond_distance_DA
_geom_hbond_distance_DH
_geom_hbond_distance_HA
_geom_hbond_angle_DHA
_geom_hbond_publ_flag
O1 H9 O2 2.653(3) 1.21(3) 1.89(4) 116(2) no
O1 H9 N1 2.661(2) 1.21(3) 1.72(3) 130(3) no
O4 H10 O3 2.670(3) 1.25(4) 1.93(3) 112.1(17) no
O4 H10 N2 2.659(3) 1.25(4) 1.64(3) 133(2) no
loop_
_geom_torsion_atom_site_label_1
_geom_torsion_atom_site_label_2
_geom_torsion_atom_site_label_3
_geom_torsion_atom_site_label_4
_geom_torsion
_geom_torsion_site_symmetry_1
_geom_torsion_site_symmetry_4
C3 C1 C2 O1 179.3(2) 2 .
I1 C1 C2 O1 1.3(4) . .
C3 C1 C2 C3 0.7(4) 2 .
I1 C1 C2 C3 -177.33(17) . .
O1 C2 C3 O2 1.2(4) . .
C1 C2 C3 O2 179.9(3) . .
O1 C2 C3 C1 -179.4(2) . 2
C1 C2 C3 C1 -0.7(4) . 2
C6 C4 C5 O3 179.4(2) 2_767 .
I2 C4 C5 O3 -1.2(3) . .
C6 C4 C5 C6 -1.2(4) 2_767 .
I2 C4 C5 C6 178.16(16) . .
O3 C5 C6 O4 0.0(3) . .
C4 C5 C6 O4 -179.5(2) . .
O3 C5 C6 C4 -179.4(2) . 2_767
C4 C5 C6 C4 1.2(4) . 2_767
C11 N1 C7 C8 -3.1(4) . .
N1 C7 C8 C9 3.2(4) . .
C7 C8 C9 C10 -1.0(4) . .
C8 C9 C10 C11 -1.3(4) . .
C7 N1 C11 C10 0.7(4) . .
C7 N1 C11 C16 -178.6(2) . .
C9 C10 C11 N1 1.4(4) . .
C9 C10 C11 C16 -179.3(3) . .
C16 N2 C12 C13 -0.3(4) . .
N2 C12 C13 C14 -1.5(4) . .
C12 C13 C14 C15 2.5(4) . .
C13 C14 C15 C16 -1.8(4) . .
C12 N2 C16 C15 1.0(4) . .
C12 N2 C16 C11 -178.8(2) . .
C14 C15 C16 N2 0.0(4) . .
C14 C15 C16 C11 179.9(3) . .
N1 C11 C16 N2 -164.45(18) . .
C10 C11 C16 N2 16.3(4) . .
N1 C11 C16 C15 15.7(4) . .
C10 C11 C16 C15 -163.6(2) . .
