#------------------------------------------------------------------------------
#$Date: 2019-12-03 07:27:02 +0200 (Tue, 03 Dec 2019) $
#$Revision: 244878 $
#$URL: file:///home/coder/svn-repositories/cod/cif/7/23/96/7239610.cif $
#------------------------------------------------------------------------------
#
# This file is available in the Crystallography Open Database (COD),
# http://www.crystallography.net/
#
# All data on this site have been placed in the public domain by the
# contributors.
#
data_7239610
loop_
_publ_author_name
'Horiuchi, Sachio'
'Ishibashi, Shoji'
'Kobayashi, Kensuke'
'Kumai, Reiji'
_publ_section_title
;
 Coexistence of normal and inverse deuterium isotope effects in a
 phase-transition sequence of organic ferroelectrics
;
_journal_issue                   68
_journal_name_full               'RSC Advances'
_journal_page_first              39662
_journal_paper_doi               10.1039/C9RA06489C
_journal_volume                  9
_journal_year                    2019
_chemical_formula_moiety         'C18 H14 Br2 N2 O4'
_chemical_formula_sum            'C18 H14 Br2 N2 O4'
_chemical_formula_weight         482.13
_space_group_crystal_system      triclinic
_space_group_IT_number           2
_space_group_name_Hall           '-P 1'
_space_group_name_H-M_alt        'P -1'
_atom_sites_solution_hydrogens   geom
_atom_sites_solution_primary     direct
_atom_sites_solution_secondary   difmap
_audit_update_record
;
2019-11-12 deposited with the CCDC.	2019-11-22 downloaded from the CCDC.
;
_cell_angle_alpha                97.0170(16)
_cell_angle_beta                 104.879(3)
_cell_angle_gamma                115.300(3)
_cell_formula_units_Z            2
_cell_length_a                   8.824(2)
_cell_length_b                   9.767(2)
_cell_length_c                   12.010(3)
_cell_measurement_reflns_used    2643
_cell_measurement_temperature    295
_cell_measurement_theta_max      27.49
_cell_measurement_theta_min      3.02
_cell_volume                     872.0(3)
_computing_cell_refinement       'CrystalClear-SM Expert 2.1 b29'
_computing_data_collection
'CrystalClear-SM Expert 2.1 b29 (Rigaku, 2013)'
_computing_data_reduction        'CrystalClear-SM Expert 2.1 b29'
_computing_molecular_graphics    'CrystalStructure 4.3'
_computing_publication_material  'CrystalStructure 4.3 (Rigaku, 2018)'
_computing_structure_refinement  'SHELXL Version 2018/3 (Sheldrick, 2008)'
_computing_structure_solution    'SIR92 (Altomare, et al., 1994)'
_diffrn_ambient_temperature      295
_diffrn_detector_area_resol_mean 5.811
_diffrn_measured_fraction_theta_full 0.993
_diffrn_measured_fraction_theta_max 0.992
_diffrn_measurement_device_type  'Rigaku XtaLAB P100'
_diffrn_measurement_method       \w
_diffrn_radiation_type           'Mo K\a'
_diffrn_radiation_wavelength     0.71075
_diffrn_reflns_av_R_equivalents  0.0305
_diffrn_reflns_av_unetI/netI     0.0326
_diffrn_reflns_Laue_measured_fraction_full 0.993
_diffrn_reflns_Laue_measured_fraction_max 0.992
_diffrn_reflns_limit_h_max       11
_diffrn_reflns_limit_h_min       -11
_diffrn_reflns_limit_k_max       12
_diffrn_reflns_limit_k_min       -12
_diffrn_reflns_limit_l_max       15
_diffrn_reflns_limit_l_min       -15
_diffrn_reflns_number            13980
_diffrn_reflns_point_group_measured_fraction_full 0.993
_diffrn_reflns_point_group_measured_fraction_max 0.992
_diffrn_reflns_theta_full        25.242
_diffrn_reflns_theta_max         27.521
_diffrn_reflns_theta_min         3.019
_diffrn_standards_number         0
_exptl_absorpt_coefficient_mu    4.689
_exptl_absorpt_correction_T_max  1.000
_exptl_absorpt_correction_T_min  1.000
_exptl_absorpt_correction_type   numerical
_exptl_absorpt_process_details   'NUMABS (Rigaku, 1999)'
_exptl_crystal_colour            red
_exptl_crystal_density_diffrn    1.836
_exptl_crystal_density_method    'not measured'
_exptl_crystal_description       platelet
_exptl_crystal_F_000             476.00
_exptl_crystal_size_max          0.400
_exptl_crystal_size_mid          0.280
_exptl_crystal_size_min          0.050
_refine_diff_density_max         0.57
_refine_diff_density_min         -0.69
_refine_ls_extinction_coef       0.0103(10)
_refine_ls_extinction_method     SHELXL
_refine_ls_goodness_of_fit_ref   1.046
_refine_ls_hydrogen_treatment    mixed
_refine_ls_number_parameters     246
_refine_ls_number_reflns         3983
_refine_ls_number_restraints     0
_refine_ls_R_factor_all          0.0472
_refine_ls_R_factor_gt           0.0338
_refine_ls_shift/su_max          0.001
_refine_ls_structure_factor_coef Fsqd
_refine_ls_weighting_details
'w = 1/[\s^2^(Fo^2^)+(0.0447P)^2^] where P=(Fo^2^+2Fc^2^)/3'
_refine_ls_weighting_scheme      calc
_refine_ls_wR_factor_gt          0.0863
_refine_ls_wR_factor_ref         0.0956
_reflns_Friedel_coverage         0.000
_reflns_number_gt                2997
_reflns_number_total             3983
_reflns_threshold_expression     F^2^>2.0\s(F^2^)
_cod_data_source_file            c9ra06489c2.cif
_cod_data_source_block           D55dmbp-Dba
_cod_original_cell_volume        872.0(4)
_cod_database_code               7239610
_shelx_res_file
;
TITL dm55dba1
    shelxl.res
    created by SHELXL-2018/3 at 09:13:11 on 12-Nov-2019
CELL  0.71075 8.82440 9.76690 12.01020 97.01700 104.87900 115.30000
ZERR  2 0.00229 0.00244 0.00278 0.00160 0.00290 0.00340
LATT 1
SFAC C H BR N O
UNIT 36 28 4 4 8
L.S. 10
FMAP 2
PLAN 8
WPDB -2
HTAB
BOND $H
CONF
LIST 4
TEMP 22.0
ACTA
SIZE 0.050 0.280 0.400
WGHT    0.044700
EXTI    0.010280
FVAR       1.41840
BR1   3   -0.256942   -0.321450    0.064818    11.00000    0.05326    0.03704 =
         0.05667    0.01699    0.02907    0.01431
BR2   3    1.275641    0.825799    0.948356    11.00000    0.04565    0.03662 =
         0.04497    0.01394    0.01767    0.01153
O1    5    0.120575   -0.047167    0.217235    11.00000    0.04506    0.05202 =
         0.03330    0.01825    0.01018    0.02087
O2    5    0.317978    0.209338    0.161146    11.00000    0.04475    0.04276 =
         0.04013    0.00459    0.00296    0.00546
O3    5    0.899535    0.557532    0.789313    11.00000    0.04410    0.05404 =
         0.02974    0.01715    0.00444    0.01519
O4    5    0.676641    0.297779    0.830745    11.00000    0.03641    0.03752 =
         0.03198    0.00580   -0.00087    0.00914
N1    4    0.473230    0.122641    0.365138    11.00000    0.03604    0.04178 =
         0.02855    0.00285    0.00618    0.01979
N2    4    0.504717    0.347287    0.640199    11.00000    0.03038    0.03925 =
         0.02619    0.00558    0.00620    0.01547
C1    1   -0.108684   -0.137575    0.031394    11.00000    0.03474    0.02820 =
         0.03428    0.00636    0.01357    0.01364
C2    1    0.056274   -0.031511    0.113251    11.00000    0.03629    0.03437 =
         0.03150    0.00816    0.01424    0.01920
C3    1    0.172488    0.115476    0.083372    11.00000    0.03096    0.03325 =
         0.03125    0.00179    0.00950    0.01425
C4    1    1.120557    0.642225    0.979215    11.00000    0.03196    0.02833 =
         0.02872    0.00612    0.00976    0.01351
C5    1    0.951064    0.537397    0.887824    11.00000    0.03403    0.03339 =
         0.02715    0.00553    0.00846    0.01774
C6    1    0.827915    0.388486    0.913928    11.00000    0.03031    0.03069 =
         0.02995    0.00299    0.00860    0.01589
C7    1    0.558134    0.059029    0.319556    11.00000    0.04326    0.03966 =
         0.03357    0.00296    0.01137    0.01957
AFIX  43
H1    2    0.506458    0.003610    0.239350    11.00000   -1.20000
AFIX   0
C8    1    0.719054    0.070974    0.385119    11.00000    0.03705    0.03149 =
         0.04211    0.00869    0.01932    0.01493
C9    1    0.789409    0.152227    0.504311    11.00000    0.03317    0.05619 =
         0.03999    0.00704    0.00859    0.02417
AFIX  43
H2    2    0.894767    0.159689    0.553098    11.00000   -1.20000
AFIX   0
C10   1    0.705030    0.222667    0.552018    11.00000    0.03290    0.04817 =
         0.03287    0.00158    0.00742    0.01932
AFIX  43
H3    2    0.754889    0.279596    0.631789    11.00000   -1.20000
AFIX   0
C11   1    0.545728    0.207485    0.479774    11.00000    0.03038    0.03067 =
         0.02797    0.00670    0.01077    0.01173
C12   1    0.428186    0.421765    0.684305    11.00000    0.03573    0.03461 =
         0.03111    0.00579    0.01271    0.01350
AFIX  43
H4    2    0.469119    0.463726    0.766522    11.00000   -1.20000
AFIX   0
C13   1    0.290445    0.439572    0.613325    11.00000    0.03355    0.03000 =
         0.03928    0.00959    0.01749    0.01361
C14   1    0.235075    0.376827    0.491234    11.00000    0.03531    0.04503 =
         0.03963    0.01211    0.00979    0.02156
AFIX  43
H5    2    0.143746    0.386796    0.439975    11.00000   -1.20000
AFIX   0
C15   1    0.314278    0.299307    0.444560    11.00000    0.03361    0.03754 =
         0.02814    0.00503    0.00780    0.01555
AFIX  43
H6    2    0.276713    0.257478    0.362564    11.00000   -1.20000
AFIX   0
C16   1    0.449996    0.285118    0.521777    11.00000    0.02650    0.02715 =
         0.02687    0.00590    0.00883    0.00877
C17   1    0.809119   -0.002188    0.327192    11.00000    0.05072    0.04916 =
         0.06239    0.00361    0.02566    0.02599
AFIX 137
H7A   2    0.721763   -0.085683    0.257718    11.00000   -1.20000
H8B   2    0.865378   -0.043444    0.382820    11.00000   -1.20000
H9C   2    0.897549    0.075988    0.304164    11.00000   -1.20000
AFIX   0
C18   1    0.208262    0.523062    0.670130    11.00000    0.05266    0.04426 =
         0.05860    0.01035    0.02641    0.02757
AFIX 137
H10A  2    0.299396    0.608166    0.737427    11.00000   -1.20000
H11B  2    0.119418    0.450566    0.696325    11.00000   -1.20000
H12C  2    0.153722    0.563537    0.612754    11.00000   -1.20000
AFIX   0
H13   2    0.316469    0.071740    0.282758    11.00000    0.16833
H14   2    0.621585    0.345398    0.727841    11.00000    0.15369
HKLF 4




REM  dm55dba1
REM wR2 = 0.0956, GooF = S = 1.046, Restrained GooF = 1.046 for all data
REM R1 = 0.0338 for 2997 Fo > 4sig(Fo) and 0.0472 for all 3983 data
REM 246 parameters refined using 0 restraints

END

WGHT      0.0447      0.0000

REM Instructions for potential hydrogen bonds
EQIV $3 -x+1, -y, -z+1
HTAB C7 O4_$3
HTAB C10 O4
HTAB C15 O2
HTAB N1 O1
HTAB N1 O2
HTAB O4 N2
HTAB N2 O3
HTAB N2 O4

REM Highest difference peak  0.568,  deepest hole -0.686,  1-sigma level  0.073
Q1    1   1.1943  0.8042  0.8936  11.00000  0.05    0.57
Q2    1   1.3278  0.7824  0.9451  11.00000  0.05    0.46
Q3    1   0.1909  0.0220  0.1638  11.00000  0.05    0.37
Q4    1  -0.0442 -0.0769  0.0738  11.00000  0.05    0.34
Q5    1   0.6643  0.3475  0.7947  11.00000  0.05    0.33
Q6    1   0.7747  0.4733  0.8129  11.00000  0.05    0.32
Q7    1   1.0442  0.6030  0.9379  11.00000  0.05    0.31
Q8    1   0.9377  0.0397  0.3704  11.00000  0.05    0.30
;
_shelx_res_checksum              62190
loop_
_symmetry_equiv_pos_site_id
_symmetry_equiv_pos_as_xyz
1 +X,+Y,+Z
2 -X,-Y,-Z
loop_
_atom_site_label
_atom_site_type_symbol
_atom_site_fract_x
_atom_site_fract_y
_atom_site_fract_z
_atom_site_U_iso_or_equiv
_atom_site_adp_type
_atom_site_occupancy
_atom_site_site_symmetry_order
_atom_site_calc_flag
_atom_site_refinement_flags_posn
_atom_site_refinement_flags_adp
Br1 Br -0.25694(4) -0.32145(3) 0.06482(3) 0.04915(13) Uani 1 1 d . .
Br2 Br 1.27564(3) 0.82580(3) 0.94836(2) 0.04479(13) Uani 1 1 d . .
O1 O 0.1206(2) -0.0472(2) 0.21723(15) 0.0444(4) Uani 1 1 d . .
O2 O 0.3180(3) 0.2093(2) 0.16115(17) 0.0517(5) Uani 1 1 d . .
O3 O 0.8995(2) 0.5575(2) 0.78931(14) 0.0470(5) Uani 1 1 d . .
O4 O 0.6766(2) 0.2978(2) 0.83074(15) 0.0417(4) Uani 1 1 d . .
N1 N 0.4732(3) 0.1226(2) 0.36514(17) 0.0367(5) Uani 1 1 d . .
N2 N 0.5047(3) 0.3473(2) 0.64020(17) 0.0335(4) Uani 1 1 d . .
C1 C -0.1087(3) -0.1376(3) 0.0314(2) 0.0328(5) Uani 1 1 d . .
C2 C 0.0563(3) -0.0315(3) 0.1133(2) 0.0327(5) Uani 1 1 d . .
C3 C 0.1725(3) 0.1155(3) 0.0834(2) 0.0332(5) Uani 1 1 d . .
C4 C 1.1206(3) 0.6422(3) 0.9792(2) 0.0303(5) Uani 1 1 d . .
C5 C 0.9511(3) 0.5374(3) 0.88782(19) 0.0316(5) Uani 1 1 d . .
C6 C 0.8279(3) 0.3885(3) 0.91393(19) 0.0307(5) Uani 1 1 d . .
C7 C 0.5581(3) 0.0590(3) 0.3196(2) 0.0400(6) Uani 1 1 d . .
H1 H 0.506458 0.003610 0.239350 0.048 Uiso 1 1 calc R U
C8 C 0.7191(3) 0.0710(3) 0.3851(2) 0.0363(6) Uani 1 1 d . .
C9 C 0.7894(4) 0.1522(3) 0.5043(2) 0.0435(6) Uani 1 1 d . .
H2 H 0.894767 0.159689 0.553098 0.052 Uiso 1 1 calc R U
C10 C 0.7050(3) 0.2227(3) 0.5520(2) 0.0398(6) Uani 1 1 d . .
H3 H 0.754889 0.279596 0.631789 0.048 Uiso 1 1 calc R U
C11 C 0.5457(3) 0.2075(3) 0.47977(19) 0.0307(5) Uani 1 1 d . .
C12 C 0.4282(3) 0.4218(3) 0.6843(2) 0.0351(5) Uani 1 1 d . .
H4 H 0.469119 0.463726 0.766522 0.042 Uiso 1 1 calc R U
C13 C 0.2904(3) 0.4396(3) 0.6133(2) 0.0338(5) Uani 1 1 d . .
C14 C 0.2351(3) 0.3768(3) 0.4912(2) 0.0397(6) Uani 1 1 d . .
H5 H 0.143746 0.386796 0.439975 0.048 Uiso 1 1 calc R U
C15 C 0.3143(3) 0.2993(3) 0.4446(2) 0.0346(5) Uani 1 1 d . .
H6 H 0.276713 0.257478 0.362564 0.042 Uiso 1 1 calc R U
C16 C 0.4500(3) 0.2851(3) 0.52178(19) 0.0286(5) Uani 1 1 d . .
C17 C 0.8091(4) -0.0022(3) 0.3272(3) 0.0531(7) Uani 1 1 d . .
H7A H 0.721763 -0.085683 0.257718 0.064 Uiso 1 1 calc R U
H8B H 0.865378 -0.043444 0.382820 0.064 Uiso 1 1 calc R U
H9C H 0.897549 0.075988 0.304164 0.064 Uiso 1 1 calc R U
C18 C 0.2083(4) 0.5231(3) 0.6701(3) 0.0489(7) Uani 1 1 d . .
H10A H 0.299396 0.608166 0.737427 0.059 Uiso 1 1 calc R U
H11B H 0.119418 0.450566 0.696325 0.059 Uiso 1 1 calc R U
H12C H 0.153722 0.563537 0.612754 0.059 Uiso 1 1 calc R U
H13 H 0.316(7) 0.072(5) 0.283(4) 0.168(18) Uiso 1 1 d . .
H14 H 0.622(6) 0.345(5) 0.728(4) 0.154(17) Uiso 1 1 d . .
loop_
_atom_site_aniso_label
_atom_site_aniso_U_11
_atom_site_aniso_U_22
_atom_site_aniso_U_33
_atom_site_aniso_U_23
_atom_site_aniso_U_13
_atom_site_aniso_U_12
Br1 0.0533(2) 0.03704(19) 0.0567(2) 0.01699(14) 0.02907(16) 0.01431(15)
Br2 0.0456(2) 0.03662(18) 0.04497(19) 0.01394(13) 0.01767(14) 0.01153(14)
O1 0.0451(10) 0.0520(11) 0.0333(9) 0.0182(8) 0.0102(8) 0.0209(9)
O2 0.0447(11) 0.0428(11) 0.0401(10) 0.0046(9) 0.0030(9) 0.0055(9)
O3 0.0441(11) 0.0540(12) 0.0297(9) 0.0171(8) 0.0044(8) 0.0152(9)
O4 0.0364(10) 0.0375(10) 0.0320(9) 0.0058(8) -0.0009(8) 0.0091(8)
N1 0.0360(11) 0.0418(12) 0.0286(10) 0.0029(9) 0.0062(9) 0.0198(10)
N2 0.0304(10) 0.0392(11) 0.0262(9) 0.0056(9) 0.0062(9) 0.0155(9)
C1 0.0347(13) 0.0282(12) 0.0343(12) 0.0064(10) 0.0136(11) 0.0136(10)
C2 0.0363(13) 0.0344(13) 0.0315(12) 0.0082(10) 0.0142(11) 0.0192(11)
C3 0.0310(12) 0.0332(13) 0.0312(12) 0.0018(10) 0.0095(11) 0.0143(11)
C4 0.0320(12) 0.0283(12) 0.0287(11) 0.0061(10) 0.0098(10) 0.0135(10)
C5 0.0340(12) 0.0334(13) 0.0272(11) 0.0055(10) 0.0085(10) 0.0177(11)
C6 0.0303(12) 0.0307(12) 0.0299(11) 0.0030(10) 0.0086(10) 0.0159(10)
C7 0.0433(14) 0.0397(14) 0.0336(12) 0.0030(11) 0.0114(12) 0.0196(12)
C8 0.0370(13) 0.0315(13) 0.0421(14) 0.0087(11) 0.0193(12) 0.0149(11)
C9 0.0332(13) 0.0562(17) 0.0400(14) 0.0070(12) 0.0086(12) 0.0242(13)
C10 0.0329(13) 0.0482(15) 0.0329(12) 0.0016(11) 0.0074(11) 0.0193(12)
C11 0.0304(12) 0.0307(12) 0.0280(11) 0.0067(10) 0.0108(10) 0.0117(10)
C12 0.0357(13) 0.0346(13) 0.0311(12) 0.0058(10) 0.0127(11) 0.0135(11)
C13 0.0336(13) 0.0300(13) 0.0393(13) 0.0096(10) 0.0175(11) 0.0136(11)
C14 0.0353(13) 0.0450(15) 0.0396(13) 0.0121(12) 0.0098(12) 0.0216(12)
C15 0.0336(12) 0.0375(13) 0.0281(11) 0.0050(10) 0.0078(10) 0.0156(11)
C16 0.0265(11) 0.0271(11) 0.0269(11) 0.0059(9) 0.0088(10) 0.0088(10)
C17 0.0507(17) 0.0492(17) 0.0624(19) 0.0036(15) 0.0257(16) 0.0260(15)
C18 0.0527(17) 0.0443(16) 0.0586(17) 0.0104(14) 0.0264(15) 0.0276(14)
loop_
_atom_type_symbol
_atom_type_description
_atom_type_scat_dispersion_real
_atom_type_scat_dispersion_imag
_atom_type_scat_source
C C 0.0033 0.0016
;
International Tables for Crystallography
(Vol. C, Tables 4.2.6.8 and 6.1.1.4)
;
H H 0.0000 0.0000
;
International Tables for Crystallography
(Vol. C, Table 6.1.1.4)
;
Br Br -0.2901 2.4595
;
International Tables for Crystallography
(Vol. C, Tables 4.2.6.8 and 6.1.1.4)
;
N N 0.0061 0.0033
;
International Tables for Crystallography
(Vol. C, Tables 4.2.6.8 and 6.1.1.4)
;
O O 0.0106 0.0060
;
International Tables for Crystallography
(Vol. C, Tables 4.2.6.8 and 6.1.1.4)
;
loop_
_geom_angle_atom_site_label_1
_geom_angle_atom_site_label_2
_geom_angle_atom_site_label_3
_geom_angle
_geom_angle_site_symmetry_1
_geom_angle_site_symmetry_3
C6 O4 H14 120.6(18) . .
C7 N1 C11 120.2(2) . .
C7 N1 H13 106.8(17) . .
C11 N1 H13 132.7(17) . .
C12 N2 C16 120.5(2) . .
C12 N2 H14 108.1(17) . .
C16 N2 H14 131.4(17) . .
C2 C1 C3 121.7(2) . 2
C2 C1 Br1 120.97(18) . .
C3 C1 Br1 117.34(18) 2 .
O1 C2 C1 124.0(2) . .
O1 C2 C3 116.4(2) . .
C1 C2 C3 119.6(2) . .
O2 C3 C1 124.1(2) . 2
O2 C3 C2 117.2(2) . .
C1 C3 C2 118.7(2) 2 .
C6 C4 C5 121.9(2) 2_767 .
C6 C4 Br2 119.57(18) 2_767 .
C5 C4 Br2 118.55(17) . .
O3 C5 C4 124.6(2) . .
O3 C5 C6 117.6(2) . .
C4 C5 C6 117.8(2) . .
O4 C6 C4 123.4(2) . 2_767
O4 C6 C5 116.3(2) . .
C4 C6 C5 120.3(2) 2_767 .
N1 C7 C8 123.5(2) . .
N1 C7 H1 118.3 . .
C8 C7 H1 118.3 . .
C9 C8 C7 116.2(2) . .
C9 C8 C17 123.1(2) . .
C7 C8 C17 120.7(2) . .
C8 C9 C10 120.8(2) . .
C8 C9 H2 119.6 . .
C10 C9 H2 119.6 . .
C11 C10 C9 119.3(2) . .
C11 C10 H3 120.3 . .
C9 C10 H3 120.3 . .
N1 C11 C10 119.9(2) . .
N1 C11 C16 117.1(2) . .
C10 C11 C16 123.0(2) . .
N2 C12 C13 123.0(2) . .
N2 C12 H4 118.5 . .
C13 C12 H4 118.5 . .
C12 C13 C14 116.5(2) . .
C12 C13 C18 119.9(2) . .
C14 C13 C18 123.5(2) . .
C13 C14 C15 120.8(2) . .
C13 C14 H5 119.6 . .
C15 C14 H5 119.6 . .
C16 C15 C14 119.1(2) . .
C16 C15 H6 120.5 . .
C14 C15 H6 120.5 . .
N2 C16 C15 120.1(2) . .
N2 C16 C11 117.0(2) . .
C15 C16 C11 122.9(2) . .
C8 C17 H7A 109.5 . .
C8 C17 H8B 109.5 . .
H7A C17 H8B 109.5 . .
C8 C17 H9C 109.5 . .
H7A C17 H9C 109.5 . .
H8B C17 H9C 109.5 . .
C13 C18 H10A 109.5 . .
C13 C18 H11B 109.5 . .
H10A C18 H11B 109.5 . .
C13 C18 H12C 109.5 . .
H10A C18 H12C 109.5 . .
H11B C18 H12C 109.5 . .
loop_
_geom_bond_atom_site_label_1
_geom_bond_atom_site_label_2
_geom_bond_distance
_geom_bond_site_symmetry_2
Br1 C1 1.880(2) .
Br2 C4 1.884(2) .
O1 C2 1.289(3) .
O2 C3 1.237(3) .
O3 C5 1.226(3) .
O4 C6 1.286(3) .
O4 H14 1.42(5) .
N1 C7 1.331(3) .
N1 C11 1.344(3) .
N1 H13 1.31(5) .
N2 C12 1.332(3) .
N2 C16 1.346(3) .
N2 H14 1.28(5) .
C1 C2 1.373(3) .
C1 C3 1.429(3) 2
C2 C3 1.516(3) .
C4 C6 1.362(3) 2_767
C4 C5 1.437(3) .
C5 C6 1.526(3) .
C7 C8 1.383(4) .
C7 H1 0.9300 .
C8 C9 1.382(4) .
C8 C17 1.508(3) .
C9 C10 1.384(4) .
C9 H2 0.9300 .
C10 C11 1.384(3) .
C10 H3 0.9300 .
C11 C16 1.489(4) .
C12 C13 1.385(3) .
C12 H4 0.9300 .
C13 C14 1.386(3) .
C13 C18 1.510(3) .
C14 C15 1.388(4) .
C14 H5 0.9300 .
C15 C16 1.384(3) .
C15 H6 0.9300 .
C17 H7A 0.9600 .
C17 H8B 0.9600 .
C17 H9C 0.9600 .
C18 H10A 0.9600 .
C18 H11B 0.9600 .
C18 H12C 0.9600 .
loop_
_geom_hbond_atom_site_label_D
_geom_hbond_atom_site_label_H
_geom_hbond_atom_site_label_A
_geom_hbond_distance_DA
_geom_hbond_distance_DH
_geom_hbond_distance_HA
_geom_hbond_angle_DHA
_geom_hbond_publ_flag
O4 H14 O3 2.664(3) 1.42(5) 2.28(4) 89.0(18) no
N1 H13 O1 2.760(2) 1.31(5) 1.52(4) 153(4) no
N1 H13 O2 2.893(3) 1.31(5) 2.10(5) 114(3) no
N2 H14 O3 3.057(2) 1.28(5) 2.28(4) 115(3) no
loop_
_geom_torsion_atom_site_label_1
_geom_torsion_atom_site_label_2
_geom_torsion_atom_site_label_3
_geom_torsion_atom_site_label_4
_geom_torsion
_geom_torsion_site_symmetry_1
_geom_torsion_site_symmetry_4
C3 C1 C2 O1 -179.1(2) 2 .
Br1 C1 C2 O1 -1.0(3) . .
C3 C1 C2 C3 1.8(4) 2 .
Br1 C1 C2 C3 179.94(16) . .
O1 C2 C3 O2 -0.9(3) . .
C1 C2 C3 O2 178.2(2) . .
O1 C2 C3 C1 179.1(2) . 2
C1 C2 C3 C1 -1.7(4) . 2
C6 C4 C5 O3 -178.4(2) 2_767 .
Br2 C4 C5 O3 0.9(3) . .
C6 C4 C5 C6 0.1(4) 2_767 .
Br2 C4 C5 C6 179.42(15) . .
O3 C5 C6 O4 -1.9(3) . .
C4 C5 C6 O4 179.4(2) . .
O3 C5 C6 C4 178.5(2) . 2_767
C4 C5 C6 C4 -0.1(4) . 2_767
C11 N1 C7 C8 1.9(4) . .
N1 C7 C8 C9 1.0(4) . .
N1 C7 C8 C17 -179.1(2) . .
C7 C8 C9 C10 -2.8(4) . .
C17 C8 C9 C10 177.4(2) . .
C8 C9 C10 C11 1.8(4) . .
C7 N1 C11 C10 -3.0(4) . .
C7 N1 C11 C16 175.4(2) . .
C9 C10 C11 N1 1.2(4) . .
C9 C10 C11 C16 -177.1(2) . .
C16 N2 C12 C13 0.2(4) . .
N2 C12 C13 C14 -0.7(3) . .
N2 C12 C13 C18 178.9(2) . .
C12 C13 C14 C15 0.6(4) . .
C18 C13 C14 C15 -179.0(2) . .
C13 C14 C15 C16 0.1(4) . .
C12 N2 C16 C15 0.5(3) . .
C12 N2 C16 C11 178.5(2) . .
C14 C15 C16 N2 -0.6(4) . .
C14 C15 C16 C11 -178.5(2) . .
N1 C11 C16 N2 169.06(16) . .
C10 C11 C16 N2 -12.6(4) . .
N1 C11 C16 C15 -13.1(4) . .
C10 C11 C16 C15 165.27(19) . .
