#------------------------------------------------------------------------------
#$Date: 2020-10-06 14:12:58 +0300 (Tue, 06 Oct 2020) $
#$Revision: 257970 $
#$URL: file:///home/coder/svn-repositories/cod/cif/7/23/98/7239875.cif $
#------------------------------------------------------------------------------
#
# This file is available in the Crystallography Open Database (COD),
# http://www.crystallography.net/
#
# All data on this site have been placed in the public domain by the
# contributors.
#
data_7239875
loop_
_publ_author_name
'Hamdi, Intissar'
'Bkhairia, Intidhar'
'Roodt, Andreas'
'Roisnel, Thierry'
'Nasri, Moncef'
'Na\"ili, Houcine'
_publ_section_title
;
 Synthesis, intermolecular interactions and biological activities of two
 new organic--inorganic hybrids C6H10N2,2Br and C6H10N2,2Cl&#x00B7;H2O
;
_journal_issue                   10
_journal_name_full               'RSC Advances'
_journal_page_first              5864
_journal_page_last               5873
_journal_paper_doi               10.1039/C9RA09294C
_journal_volume                  10
_journal_year                    2020
_chemical_formula_sum            'C6 H10 Br2 N2'
_chemical_formula_weight         269.98
_space_group_crystal_system      triclinic
_space_group_IT_number           2
_space_group_name_Hall           '-P 1'
_space_group_name_H-M_alt        'P -1'
_atom_sites_solution_hydrogens   geom
_audit_creation_method           SHELXL-2016/6
_audit_update_record
;
2019-05-27 deposited with the CCDC.	2020-01-17 downloaded from the CCDC.
;
_cell_angle_alpha                76.320(4)
_cell_angle_beta                 80.652(4)
_cell_angle_gamma                82.187(5)
_cell_formula_units_Z            2
_cell_length_a                   6.6560(9)
_cell_length_b                   7.7563(10)
_cell_length_c                   9.1524(12)
_cell_measurement_reflns_used    8571
_cell_measurement_temperature    293(2)
_cell_measurement_theta_max      28.4
_cell_measurement_theta_min      1.2
_cell_volume                     450.65(10)
_computing_structure_refinement  'SHELXL-2016/6 (Sheldrick, 2016)'
_diffrn_ambient_temperature      293(2)
_diffrn_measured_fraction_theta_full 0.998
_diffrn_measured_fraction_theta_max 0.999
_diffrn_measurement_device_type  'D8 VENTURE Bruker AXS'
_diffrn_measurement_method       'rotation images'
_diffrn_radiation_type           MoK\a
_diffrn_radiation_wavelength     0.71073
_diffrn_reflns_av_R_equivalents  0.0408
_diffrn_reflns_av_unetI/netI     0.0304
_diffrn_reflns_Laue_measured_fraction_full 0.998
_diffrn_reflns_Laue_measured_fraction_max 0.999
_diffrn_reflns_limit_h_max       8
_diffrn_reflns_limit_h_min       -8
_diffrn_reflns_limit_k_max       10
_diffrn_reflns_limit_k_min       -10
_diffrn_reflns_limit_l_max       11
_diffrn_reflns_limit_l_min       -11
_diffrn_reflns_number            10622
_diffrn_reflns_point_group_measured_fraction_full 0.998
_diffrn_reflns_point_group_measured_fraction_max 0.999
_diffrn_reflns_theta_full        25.242
_diffrn_reflns_theta_max         27.460
_diffrn_reflns_theta_min         3.118
_exptl_absorpt_coefficient_mu    8.927
_exptl_absorpt_correction_T_max  0.240
_exptl_absorpt_correction_T_min  0.130
_exptl_absorpt_correction_type   multi-scan
_exptl_crystal_colour            colourless
_exptl_crystal_density_diffrn    1.990
_exptl_crystal_description       prism
_exptl_crystal_F_000             260
_exptl_crystal_size_max          0.33
_exptl_crystal_size_mid          0.27
_exptl_crystal_size_min          0.16
_refine_diff_density_max         0.650
_refine_diff_density_min         -0.749
_refine_diff_density_rms         0.131
_refine_ls_extinction_coef       0.073(3)
_refine_ls_extinction_expression Fc^*^=kFc[1+0.001xFc^2^\l^3^/sin(2\q)]^-1/4^
_refine_ls_extinction_method     'SHELXL-2016/6 (Sheldrick 2016)'
_refine_ls_goodness_of_fit_ref   1.053
_refine_ls_hydrogen_treatment    constr
_refine_ls_matrix_type           full
_refine_ls_number_parameters     92
_refine_ls_number_reflns         2065
_refine_ls_number_restraints     0
_refine_ls_restrained_S_all      1.053
_refine_ls_R_factor_all          0.0224
_refine_ls_R_factor_gt           0.0204
_refine_ls_shift/su_max          0.001
_refine_ls_shift/su_mean         0.000
_refine_ls_structure_factor_coef Fsqd
_refine_ls_weighting_details
'w=1/[\s^2^(Fo^2^)+(0.0234P)^2^+0.2778P] where P=(Fo^2^+2Fc^2^)/3'
_refine_ls_weighting_scheme      calc
_refine_ls_wR_factor_gt          0.0506
_refine_ls_wR_factor_ref         0.0515
_reflns_Friedel_coverage         0.000
_reflns_number_gt                1928
_reflns_number_total             2065
_reflns_threshold_expression     'I > 2\s(I)'
_cod_data_source_file            c9ra09294c2.cif
_cod_data_source_block           shelxl_CCDC1
_cod_depositor_comments
'Adding full bibliography for 7239874--7239875.cif.'
_cod_database_code               7239875
_shelx_shelxl_version_number     2016/6
_shelx_space_group_comment
;
The symmetry employed for this shelxl refinement is uniquely defined
by the following loop, which should always be used as a source of
symmetry information in preference to the above space-group names.
They are only intended as comments.
;
_shelx_estimated_absorpt_t_min   0.811
_shelx_estimated_absorpt_t_max   0.902
_shelx_res_file
;
TITL import in P -1
    shelxl.res
    created by SHELXL-2016/6 at 12:55:51 on 23-Aug-2017
CELL  0.71073   6.6560   7.7563   9.1524   76.320   80.652   82.187
ZERR     2.00   0.0009   0.0010   0.0012    0.004    0.004    0.005
LATT   1
SFAC  C    H    N    BR
UNIT  12   20   4    4
MERG   2
ACTA
PLAN   25
BOND   $H
EQIV $1 -x+2, -y+1, -z+1
HTAB N1 Br2_$1
EQIV $2 -x+2, -y, -z+1
HTAB N2 Br1_$2
EQIV $3 x+1, y, z
HTAB N2 Br1_$3
HTAB N2 Br2
EQIV $4 -x+2, -y+1, -z+2
HTAB C2 Br2_$4
EQIV $5 x-1, y, z
HTAB C1 Br2_$5
EQIV $6 x, y-1, z
HTAB C6 Br2_$6
EQIV $7 -x+2, -y+1, -z+1
HTAB C6 Br2_$7
FMAP   2
L.S.   4
WGHT    0.023400    0.277800
EXTI    0.073417
FVAR       0.81164
BR1   4    0.628122   -0.087657    0.767955    11.00000    0.01892    0.01998 =
         0.01353   -0.00534   -0.00624    0.00123
BR2   4    1.252180    0.609151    0.622842    11.00000    0.01716    0.01457 =
         0.00805   -0.00405   -0.00163   -0.00086
N1    3    0.845817    0.313749    0.723421    11.00000    0.01338    0.01720 =
         0.00776   -0.00262   -0.00342   -0.00132
AFIX  43
H1A   2    0.806539    0.326461    0.636153    11.00000   -1.20000
AFIX   0
N2    3    1.326265    0.195790    0.562306    11.00000    0.01742    0.01543 =
         0.01154   -0.00481   -0.00010    0.00034
AFIX  33
H2A   2    1.388432    0.142494    0.488583    11.00000   -1.50000
H2B   2    1.302714    0.312367    0.524809    11.00000   -1.50000
H2C   2    1.405892    0.177510    0.634919    11.00000   -1.50000
AFIX   0
C2    1    0.789968    0.380956    0.964370    11.00000    0.01779    0.02865 =
         0.01206   -0.00836    0.00152    0.00081
AFIX  43
H2    2    0.711584    0.438868    1.035732    11.00000   -1.20000
AFIX   0
C5    1    1.017957    0.207205    0.752352    11.00000    0.01293    0.01114 =
         0.01091   -0.00330   -0.00057   -0.00351
C4    1    1.082610    0.185816    0.892366    11.00000    0.01592    0.01406 =
         0.01303    0.00075   -0.00441   -0.00185
AFIX  43
H4    2    1.202170    0.113944    0.914899    11.00000   -1.20000
AFIX   0
C3    1    0.966788    0.272963    0.998705    11.00000    0.02046    0.02251 =
         0.00769   -0.00180   -0.00314   -0.00345
AFIX  43
H3    2    1.008204    0.258715    1.093494    11.00000   -1.20000
AFIX   0
C1    1    0.731545    0.401592    0.823254    11.00000    0.01444    0.02514 =
         0.01463   -0.00592   -0.00149    0.00351
AFIX  43
H1    2    0.614533    0.475353    0.797324    11.00000   -1.20000
AFIX   0
C6    1    1.127999    0.120335    0.627040    11.00000    0.01526    0.01793 =
         0.01597   -0.00883   -0.00228   -0.00095
AFIX  23
H6A   2    1.153626   -0.007052    0.666400    11.00000   -1.20000
H6B   2    1.042188    0.138601    0.547475    11.00000   -1.20000
AFIX   0
HKLF    4




REM  import in P -1
REM R1 =  0.0204 for    1928 Fo > 4sig(Fo)  and  0.0224 for all    2065 data
REM     92 parameters refined using      0 restraints

END

WGHT      0.0234      0.2777

REM Highest difference peak  0.650,  deepest hole -0.749,  1-sigma level  0.131
Q1    1   1.3343  0.3040  0.5831  11.00000  0.05    0.65
Q2    1   1.4307  0.1045  0.6215  11.00000  0.05    0.61
Q3    1   1.1008  0.7168  0.5356  11.00000  0.05    0.54
Q4    1   1.2482  0.5004  0.6213  11.00000  0.05    0.47
Q5    1   0.7701  0.3915  0.8935  11.00000  0.05    0.46
Q6    1   0.8641  0.3115  0.9728  11.00000  0.05    0.45
Q7    1   0.7948  0.3730  0.7766  11.00000  0.05    0.45
Q8    1   0.9940  0.2177  0.9308  11.00000  0.05    0.43
Q9    1   0.6033 -0.2030  0.7701  11.00000  0.05    0.41
Q10   1   1.4091  0.5379  0.5472  11.00000  0.05    0.38
Q11   1   1.4106  0.0149  0.7589  11.00000  0.05    0.37
Q12   1   1.3995  0.6703  0.6404  11.00000  0.05    0.36
Q13   1   1.3422  0.2036  0.4690  11.00000  0.05    0.35
Q14   1   1.2641  0.7194  0.6229  11.00000  0.05    0.34
Q15   1   0.4888  0.0186  0.8367  11.00000  0.05    0.34
Q16   1   1.3393  0.6412  0.7427  11.00000  0.05    0.33
Q17   1   1.4913 -0.0041  0.6604  11.00000  0.05    0.33
Q18   1   1.4027  0.1276  0.8023  11.00000  0.05    0.33
Q19   1   1.4636  0.1201  0.3527  11.00000  0.05    0.33
Q20   1   0.9852  0.2208  0.4002  11.00000  0.05    0.32
Q21   1   0.9186  0.2629  0.7408  11.00000  0.05    0.32
Q22   1   1.1277  0.5844  0.5196  11.00000  0.05    0.31
Q23   1   1.2525  0.5118  0.5185  11.00000  0.05    0.31
Q24   1   0.6287  0.0258  0.7655  11.00000  0.05    0.30
Q25   1   0.7646 -0.1645  0.8565  11.00000  0.05    0.30
;
_shelx_res_checksum              65325
loop_
_space_group_symop_operation_xyz
'x, y, z'
'-x, -y, -z'
loop_
_atom_site_label
_atom_site_type_symbol
_atom_site_fract_x
_atom_site_fract_y
_atom_site_fract_z
_atom_site_U_iso_or_equiv
_atom_site_adp_type
_atom_site_occupancy
_atom_site_site_symmetry_order
_atom_site_calc_flag
_atom_site_refinement_flags_posn
_atom_site_refinement_flags_adp
Br1 Br 0.62812(3) -0.08766(3) 0.76796(2) 0.01704(9) Uani 1 1 d . .
Br2 Br 1.25218(3) 0.60915(2) 0.62284(2) 0.01308(9) Uani 1 1 d . .
N1 N 0.8458(2) 0.3137(2) 0.72342(18) 0.0126(3) Uani 1 1 d . .
H1A H 0.806539 0.326461 0.636153 0.015 Uiso 1 1 calc R U
N2 N 1.3263(3) 0.1958(2) 0.56231(19) 0.0149(3) Uani 1 1 d . .
H2A H 1.388432 0.142494 0.488583 0.022 Uiso 1 1 calc R U
H2B H 1.302714 0.312367 0.524809 0.022 Uiso 1 1 calc R U
H2C H 1.405892 0.177510 0.634919 0.022 Uiso 1 1 calc R U
C2 C 0.7900(3) 0.3810(3) 0.9644(2) 0.0195(4) Uani 1 1 d . .
H2 H 0.711584 0.438868 1.035732 0.023 Uiso 1 1 calc R U
C5 C 1.0180(3) 0.2072(2) 0.7524(2) 0.0114(4) Uani 1 1 d . .
C4 C 1.0826(3) 0.1858(3) 0.8924(2) 0.0147(4) Uani 1 1 d . .
H4 H 1.202170 0.113944 0.914899 0.018 Uiso 1 1 calc R U
C3 C 0.9668(3) 0.2730(3) 0.9987(2) 0.0169(4) Uani 1 1 d . .
H3 H 1.008204 0.258715 1.093494 0.020 Uiso 1 1 calc R U
C1 C 0.7315(3) 0.4016(3) 0.8233(2) 0.0184(4) Uani 1 1 d . .
H1 H 0.614533 0.475353 0.797324 0.022 Uiso 1 1 calc R U
C6 C 1.1280(3) 0.1203(3) 0.6270(2) 0.0156(4) Uani 1 1 d . .
H6A H 1.153626 -0.007052 0.666400 0.019 Uiso 1 1 calc R U
H6B H 1.042188 0.138601 0.547475 0.019 Uiso 1 1 calc R U
loop_
_atom_site_aniso_label
_atom_site_aniso_U_11
_atom_site_aniso_U_22
_atom_site_aniso_U_33
_atom_site_aniso_U_23
_atom_site_aniso_U_13
_atom_site_aniso_U_12
Br1 0.01892(13) 0.01998(13) 0.01353(12) -0.00534(8) -0.00624(8) 0.00123(8)
Br2 0.01716(12) 0.01457(12) 0.00805(12) -0.00405(7) -0.00163(7) -0.00086(7)
N1 0.0134(8) 0.0172(8) 0.0078(7) -0.0026(6) -0.0034(6) -0.0013(6)
N2 0.0174(8) 0.0154(8) 0.0115(8) -0.0048(6) -0.0001(6) 0.0003(6)
C2 0.0178(10) 0.0286(11) 0.0121(9) -0.0084(8) 0.0015(8) 0.0008(8)
C5 0.0129(9) 0.0111(8) 0.0109(9) -0.0033(7) -0.0006(7) -0.0035(7)
C4 0.0159(9) 0.0141(9) 0.0130(9) 0.0008(7) -0.0044(7) -0.0018(7)
C3 0.0205(10) 0.0225(10) 0.0077(9) -0.0018(8) -0.0031(7) -0.0035(8)
C1 0.0144(9) 0.0251(11) 0.0146(10) -0.0059(8) -0.0015(7) 0.0035(8)
C6 0.0153(9) 0.0179(9) 0.0160(10) -0.0088(8) -0.0023(8) -0.0009(8)
loop_
_atom_type_symbol
_atom_type_description
_atom_type_scat_dispersion_real
_atom_type_scat_dispersion_imag
_atom_type_scat_source
C C 0.0033 0.0016 'International Tables Vol C Tables 4.2.6.8 and 6.1.1.4'
H H 0.0000 0.0000 'International Tables Vol C Tables 4.2.6.8 and 6.1.1.4'
N N 0.0061 0.0033 'International Tables Vol C Tables 4.2.6.8 and 6.1.1.4'
Br Br -0.2901 2.4595 'International Tables Vol C Tables 4.2.6.8 and 6.1.1.4'
loop_
_geom_angle_atom_site_label_1
_geom_angle_atom_site_label_2
_geom_angle_atom_site_label_3
_geom_angle
C5 N1 C1 123.64(17)
C5 N1 H1A 118.2
C1 N1 H1A 118.2
C6 N2 H2A 109.5
C6 N2 H2B 109.5
H2A N2 H2B 109.5
C6 N2 H2C 109.5
H2A N2 H2C 109.5
H2B N2 H2C 109.5
C1 C2 C3 119.14(19)
C1 C2 H2 120.4
C3 C2 H2 120.4
N1 C5 C4 118.67(17)
N1 C5 C6 116.61(17)
C4 C5 C6 124.72(18)
C5 C4 C3 119.14(19)
C5 C4 H4 120.4
C3 C4 H4 120.4
C2 C3 C4 120.28(19)
C2 C3 H3 119.9
C4 C3 H3 119.9
N1 C1 C2 119.11(19)
N1 C1 H1 120.4
C2 C1 H1 120.4
N2 C6 C5 111.10(16)
N2 C6 H6A 109.4
C5 C6 H6A 109.4
N2 C6 H6B 109.4
C5 C6 H6B 109.4
H6A C6 H6B 108.0
loop_
_geom_bond_atom_site_label_1
_geom_bond_atom_site_label_2
_geom_bond_distance
N1 C5 1.343(3)
N1 C1 1.344(3)
N1 H1A 0.8600
N2 C6 1.492(3)
N2 H2A 0.8900
N2 H2B 0.8900
N2 H2C 0.8900
C2 C1 1.376(3)
C2 C3 1.383(3)
C2 H2 0.9300
C5 C4 1.383(3)
C5 C6 1.505(3)
C4 C3 1.387(3)
C4 H4 0.9300
C3 H3 0.9300
C1 H1 0.9300
C6 H6A 0.9700
C6 H6B 0.9700
loop_
_geom_hbond_atom_site_label_D
_geom_hbond_atom_site_label_H
_geom_hbond_atom_site_label_A
_geom_hbond_distance_DH
_geom_hbond_distance_HA
_geom_hbond_distance_DA
_geom_hbond_angle_DHA
_geom_hbond_site_symmetry_A
N1 H1A Br2 0.86 2.39 3.2397(17) 170.0 2_766
N2 H2A Br1 0.89 2.50 3.2808(17) 146.0 2_756
N2 H2C Br1 0.89 2.54 3.2378(18) 135.3 1_655
N2 H2B Br2 0.89 2.62 3.3393(17) 138.0 .
C2 H2 Br2 0.93 3.10 3.761(2) 129.2 2_767
C1 H1 Br2 0.93 3.04 3.904(2) 155.7 1_455
C6 H6A Br2 0.97 3.07 3.947(2) 151.8 1_545
C6 H6B Br2 0.97 2.93 3.769(2) 144.9 2_766
