#------------------------------------------------------------------------------
#$Date: 2019-11-28 21:59:20 +0200 (Thu, 28 Nov 2019) $
#$Revision: 244742 $
#$URL: file:///home/coder/svn-repositories/cod/cif/7/23/95/7239517.cif $
#------------------------------------------------------------------------------
#
# This file is available in the Crystallography Open Database (COD),
# http://www.crystallography.net/
#
# All data on this site have been placed in the public domain by the
# contributors.
#
data_7239517
loop_
_publ_author_name
'Lin, Qiu-Han'
'Li, Yu-Chuan'
'Qi, Cai'
'Liu, Wei'
'Wang, Yuan'
'Pang, Si-Ping'
_publ_section_title
;
 Nitrogen-rich salts based on 5-hydrazino-1H-tetrazole: a new family of
 high-density energetic materials
;
_journal_issue                   23
_journal_name_full               'Journal of Materials Chemistry A'
_journal_page_first              6776
_journal_paper_doi               10.1039/c3ta10503b
_journal_volume                  1
_journal_year                    2013
_chemical_formula_sum            'C H5 Cl N6'
_chemical_formula_weight         136.56
_space_group_IT_number           14
_space_group_name_Hall           '-P 2yn'
_space_group_name_H-M_alt        'P 1 21/n 1'
_symmetry_cell_setting           monoclinic
_symmetry_space_group_name_H-M   'P 1 21/n 1'
_atom_sites_solution_hydrogens   difmap
_atom_sites_solution_primary     direct
_atom_sites_solution_secondary   difmap
_audit_creation_method           SHELXL-97
_cell_angle_alpha                90.00
_cell_angle_beta                 107.152(6)
_cell_angle_gamma                90.00
_cell_formula_units_Z            4
_cell_length_a                   4.838(2)
_cell_length_b                   23.956(10)
_cell_length_c                   4.936(2)
_cell_measurement_reflns_used    1854
_cell_measurement_temperature    153(2)
_cell_measurement_theta_max      30.996
_cell_measurement_theta_min      3.402
_cell_volume                     546.6(4)
_computing_cell_refinement       'CrystalClear (Rigaku Inc., 2008)'
_computing_data_collection       'CrystalClear (Rigaku Inc., 2008)'
_computing_data_reduction        'CrystalClear (Rigaku Inc., 2008)'
_computing_structure_refinement  'SHELXL-97 (Sheldrick, 1997)'
_computing_structure_solution    'SHELXS-97 (Sheldrick, 1990)'
_diffrn_ambient_temperature      153(2)
_diffrn_detector_area_resol_mean 28.5714
_diffrn_measured_fraction_theta_full 0.985
_diffrn_measured_fraction_theta_max 0.985
_diffrn_measurement_device_type  AFC10/Saturn724+
_diffrn_measurement_method       'phi and omega scans'
_diffrn_radiation_monochromator  graphite
_diffrn_radiation_source         'Rotating Anode'
_diffrn_radiation_type           MoK\a
_diffrn_radiation_wavelength     0.71073
_diffrn_reflns_av_R_equivalents  0.0315
_diffrn_reflns_av_sigmaI/netI    0.0352
_diffrn_reflns_limit_h_max       7
_diffrn_reflns_limit_h_min       -6
_diffrn_reflns_limit_k_max       34
_diffrn_reflns_limit_k_min       -33
_diffrn_reflns_limit_l_max       7
_diffrn_reflns_limit_l_min       -6
_diffrn_reflns_number            5721
_diffrn_reflns_theta_full        30.97
_diffrn_reflns_theta_max         30.97
_diffrn_reflns_theta_min         3.40
_diffrn_standards_decay_%        0
_diffrn_standards_interval_count 0
_diffrn_standards_interval_time  0
_diffrn_standards_number         0
_exptl_absorpt_coefficient_mu    0.593
_exptl_absorpt_correction_T_max  0.9464
_exptl_absorpt_correction_T_min  0.8225
_exptl_absorpt_correction_type   Multi-scans
_exptl_crystal_colour            Colorless
_exptl_crystal_density_diffrn    1.659
_exptl_crystal_density_method    'not measured'
_exptl_crystal_description       Platelet
_exptl_crystal_F_000             280
_exptl_crystal_size_max          0.34
_exptl_crystal_size_mid          0.29
_exptl_crystal_size_min          0.09
_refine_diff_density_max         0.361
_refine_diff_density_min         -0.254
_refine_diff_density_rms         0.068
_refine_ls_extinction_method     none
_refine_ls_goodness_of_fit_ref   1.002
_refine_ls_hydrogen_treatment    X,Y,Z,Ueq
_refine_ls_matrix_type           full
_refine_ls_number_parameters     93
_refine_ls_number_reflns         1708
_refine_ls_number_restraints     0
_refine_ls_restrained_S_all      1.002
_refine_ls_R_factor_all          0.0436
_refine_ls_R_factor_gt           0.0334
_refine_ls_shift/su_max          0.002
_refine_ls_shift/su_mean         0.000
_refine_ls_structure_factor_coef Fsqd
_refine_ls_weighting_details
'calc w=1/[\s^2^(Fo^2^)+(0.0409P)^2^+0.1860P] where P=(Fo^2^+2Fc^2^)/3'
_refine_ls_weighting_scheme      calc
_refine_ls_wR_factor_gt          0.0770
_refine_ls_wR_factor_ref         0.0832
_reflns_number_gt                1431
_reflns_number_total             1708
_reflns_threshold_expression     >2sigma(I)
_cod_data_source_file            c3ta10503b.txt
_cod_data_source_block           bo1433
_cod_depositor_comments
;
The following automatic conversions were performed:

data item '_symmetry_cell_setting' value 'Monoclinic' was changed to
'monoclinic' in accordance with the
/home/saulius/struct/COD-crude-data/automatic-downloads/DataCite-retrospective/RSC/depositions/lib/dictionaries/cif_core.dic
dictionary named 'cif_core.dic' version 2.4.2 last updated on
2011-04-26.

Automatic conversion script
Id: cif_fix_values 6909 2019-04-08 15:41:33Z antanas 
;
_cod_original_sg_symbol_H-M      P2(1)/n
_cod_database_code               7239517
loop_
_symmetry_equiv_pos_as_xyz
'x, y, z'
'-x+1/2, y+1/2, -z+1/2'
'-x, -y, -z'
'x-1/2, -y-1/2, z-1/2'
loop_
_atom_site_label
_atom_site_type_symbol
_atom_site_fract_x
_atom_site_fract_y
_atom_site_fract_z
_atom_site_U_iso_or_equiv
_atom_site_adp_type
_atom_site_occupancy
_atom_site_symmetry_multiplicity
_atom_site_calc_flag
Cl1 Cl -0.07624(7) 0.698023(14) 0.16520(7) 0.01848(11) Uani 1 1 d
N1 N 0.7174(3) 0.55107(5) 0.9090(3) 0.0158(2) Uani 1 1 d
N2 N 0.8417(3) 0.52756(5) 0.7244(3) 0.0184(3) Uani 1 1 d
N3 N 0.7379(3) 0.55340(5) 0.4879(3) 0.0188(3) Uani 1 1 d
N4 N 0.5447(3) 0.59376(5) 0.5071(3) 0.0177(3) Uani 1 1 d
N5 N 0.3554(3) 0.62059(5) 0.8872(3) 0.0155(2) Uani 1 1 d
N6 N 0.2993(3) 0.67611(5) 0.7804(3) 0.0160(2) Uani 1 1 d
C1 C 0.5368(3) 0.59108(5) 0.7721(3) 0.0139(3) Uani 1 1 d
H6A H 0.446(5) 0.6971(8) 0.817(5) 0.028(5) Uiso 1 1 d
H5N H 0.404(4) 0.6203(7) 1.074(4) 0.023(5) Uiso 1 1 d
H6B H 0.205(5) 0.6780(9) 0.592(5) 0.030(5) Uiso 1 1 d
H1N H 0.770(5) 0.5433(8) 1.080(5) 0.032(6) Uiso 1 1 d
H6C H 0.185(5) 0.6911(8) 0.867(5) 0.029(5) Uiso 1 1 d
loop_
_atom_site_aniso_label
_atom_site_aniso_U_11
_atom_site_aniso_U_22
_atom_site_aniso_U_33
_atom_site_aniso_U_23
_atom_site_aniso_U_13
_atom_site_aniso_U_12
Cl1 0.01578(17) 0.02180(18) 0.01520(18) -0.00230(12) 0.00043(12) 0.00306(11)
N1 0.0216(6) 0.0165(5) 0.0094(5) 0.0019(4) 0.0047(4) 0.0044(4)
N2 0.0244(6) 0.0193(5) 0.0121(5) 0.0015(4) 0.0063(5) 0.0047(4)
N3 0.0246(6) 0.0196(6) 0.0127(6) 0.0023(5) 0.0061(5) 0.0066(5)
N4 0.0227(6) 0.0191(6) 0.0119(6) 0.0021(4) 0.0059(5) 0.0056(4)
N5 0.0206(6) 0.0142(5) 0.0124(6) 0.0010(4) 0.0059(4) 0.0021(4)
N6 0.0169(6) 0.0152(5) 0.0145(6) 0.0011(4) 0.0024(5) 0.0034(4)
C1 0.0161(6) 0.0134(6) 0.0118(6) 0.0005(5) 0.0033(5) 0.0002(4)
loop_
_atom_type_symbol
_atom_type_description
_atom_type_scat_dispersion_real
_atom_type_scat_dispersion_imag
_atom_type_scat_source
C C 0.0033 0.0016 'International Tables Vol C Tables 4.2.6.8 and 6.1.1.4'
H H 0.0000 0.0000 'International Tables Vol C Tables 4.2.6.8 and 6.1.1.4'
N N 0.0061 0.0033 'International Tables Vol C Tables 4.2.6.8 and 6.1.1.4'
Cl Cl 0.1484 0.1585 'International Tables Vol C Tables 4.2.6.8 and 6.1.1.4'
loop_
_geom_angle_atom_site_label_1
_geom_angle_atom_site_label_2
_geom_angle_atom_site_label_3
_geom_angle
C1 N1 N2 108.13(12)
C1 N1 H1N 129.4(14)
N2 N1 H1N 122.0(15)
N3 N2 N1 106.20(12)
N2 N3 N4 111.69(12)
C1 N4 N3 104.70(11)
C1 N5 N6 113.72(11)
C1 N5 H5N 114.9(13)
N6 N5 H5N 110.9(12)
N5 N6 H6A 114.8(14)
N5 N6 H6B 114.0(13)
H6A N6 H6B 109.0(19)
N5 N6 H6C 106.3(13)
H6A N6 H6C 105.3(19)
H6B N6 H6C 106.6(19)
N4 C1 N1 109.27(12)
N4 C1 N5 126.35(13)
N1 C1 N5 124.14(12)
loop_
_geom_bond_atom_site_label_1
_geom_bond_atom_site_label_2
_geom_bond_distance
N1 C1 1.3380(18)
N1 N2 1.3537(17)
N1 H1N 0.83(2)
N2 N3 1.2853(17)
N3 N4 1.3675(17)
N4 C1 1.3213(19)
N5 C1 1.3736(18)
N5 N6 1.4269(17)
N5 H5N 0.88(2)
N6 H6A 0.85(2)
N6 H6B 0.91(2)
N6 H6C 0.87(2)
loop_
_geom_torsion_atom_site_label_1
_geom_torsion_atom_site_label_2
_geom_torsion_atom_site_label_3
_geom_torsion_atom_site_label_4
_geom_torsion
C1 N1 N2 N3 0.43(16)
N1 N2 N3 N4 -0.34(16)
N2 N3 N4 C1 0.12(17)
N3 N4 C1 N1 0.16(16)
N3 N4 C1 N5 -174.39(13)
N2 N1 C1 N4 -0.37(16)
N2 N1 C1 N5 174.32(13)
N6 N5 C1 N4 -36.66(19)
N6 N5 C1 N1 149.57(13)
