#------------------------------------------------------------------------------
#$Date: 2019-12-03 07:27:02 +0200 (Tue, 03 Dec 2019) $
#$Revision: 244878 $
#$URL: file:///home/coder/svn-repositories/cod/cif/7/23/96/7239614.cif $
#------------------------------------------------------------------------------
#
# This file is available in the Crystallography Open Database (COD),
# http://www.crystallography.net/
#
# All data on this site have been placed in the public domain by the
# contributors.
#
data_7239614
loop_
_publ_author_name
'Horiuchi, Sachio'
'Ishibashi, Shoji'
'Kobayashi, Kensuke'
'Kumai, Reiji'
_publ_section_title
;
 Coexistence of normal and inverse deuterium isotope effects in a
 phase-transition sequence of organic ferroelectrics
;
_journal_issue                   68
_journal_name_full               'RSC Advances'
_journal_page_first              39662
_journal_paper_doi               10.1039/C9RA06489C
_journal_volume                  9
_journal_year                    2019
_chemical_formula_moiety         'C16 H10 I2 N2 O4'
_chemical_formula_sum            'C16 H10 I2 N2 O4'
_chemical_formula_weight         548.07
_space_group_crystal_system      triclinic
_space_group_IT_number           2
_space_group_name_Hall           '-P 1'
_space_group_name_H-M_alt        'P -1'
_atom_sites_solution_hydrogens   geom
_atom_sites_solution_primary     direct
_atom_sites_solution_secondary   difmap
_audit_update_record
;
2019-10-24 deposited with the CCDC.	2019-11-22 downloaded from the CCDC.
;
_cell_angle_alpha                102.8436(7)
_cell_angle_beta                 100.6667(7)
_cell_angle_gamma                107.8250(7)
_cell_formula_units_Z            2
_cell_length_a                   8.5359(2)
_cell_length_b                   9.6656(2)
_cell_length_c                   11.2585(7)
_cell_measurement_reflns_used    18896
_cell_measurement_temperature    296
_cell_measurement_theta_max      45.77
_cell_measurement_theta_min      1.87
_cell_volume                     829.48(6)
_computing_cell_refinement       PROCESS-AUTO
_computing_data_collection       PROCESS-AUTO
_computing_data_reduction        PROCESS-AUTO
_computing_molecular_graphics    'CrystalStructure 4.3'
_computing_publication_material  'CrystalStructure 4.3 (Rigaku, 2019)'
_computing_structure_refinement  'SHELXL Version 2018/3 (Sheldrick, 2008)'
_computing_structure_solution    'SIR2004 (Burla, et al., 2005)'
_diffrn_ambient_temperature      296
_diffrn_measured_fraction_theta_full 0.724
_diffrn_measured_fraction_theta_max 0.569
_diffrn_measurement_device_type  'IPDSC (Rigaku)'
_diffrn_radiation_type           synchrotron
_diffrn_radiation_wavelength     0.68750
_diffrn_reflns_av_R_equivalents  0.0157
_diffrn_reflns_av_unetI/netI     0.0095
_diffrn_reflns_Laue_measured_fraction_full 0.724
_diffrn_reflns_Laue_measured_fraction_max 0.569
_diffrn_reflns_limit_h_max       14
_diffrn_reflns_limit_h_min       -14
_diffrn_reflns_limit_k_max       10
_diffrn_reflns_limit_k_min       -8
_diffrn_reflns_limit_l_max       18
_diffrn_reflns_limit_l_min       -18
_diffrn_reflns_number            15309
_diffrn_reflns_point_group_measured_fraction_full 0.724
_diffrn_reflns_point_group_measured_fraction_max 0.569
_diffrn_reflns_theta_full        24.362
_diffrn_reflns_theta_max         34.996
_diffrn_reflns_theta_min         2.520
_diffrn_standards_number         0
_exptl_absorpt_coefficient_mu    3.443
_exptl_absorpt_correction_T_max  1.000
_exptl_absorpt_correction_T_min  0.657
_exptl_absorpt_correction_type   numerical
_exptl_absorpt_process_details   'NUMABS (Rigaku, 1999)'
_exptl_crystal_colour            red
_exptl_crystal_density_diffrn    2.194
_exptl_crystal_density_method    'not measured'
_exptl_crystal_description       plate
_exptl_crystal_F_000             516.00
_exptl_crystal_size_max          0.100
_exptl_crystal_size_mid          0.100
_exptl_crystal_size_min          0.100
_refine_diff_density_max         0.82
_refine_diff_density_min         -1.19
_refine_ls_extinction_method     none
_refine_ls_goodness_of_fit_ref   1.044
_refine_ls_hydrogen_treatment    constr
_refine_ls_number_parameters     217
_refine_ls_number_reflns         4586
_refine_ls_number_restraints     0
_refine_ls_R_factor_all          0.0311
_refine_ls_R_factor_gt           0.0280
_refine_ls_shift/su_max          0.001
_refine_ls_structure_factor_coef Fsqd
_refine_ls_weighting_details
'w = 1/[\s^2^(Fo^2^)+(0.0456P)^2^+0.2959P] where P=(Fo^2^+2Fc^2^)/3'
_refine_ls_weighting_scheme      calc
_refine_ls_wR_factor_gt          0.0790
_refine_ls_wR_factor_ref         0.0814
_reflns_Friedel_coverage         0.000
_reflns_number_gt                4090
_reflns_number_total             4586
_reflns_threshold_expression     F^2^>2.0\s(F^2^)
_cod_data_source_file            c9ra06489c2.cif
_cod_data_source_block           anrt_D22bpy-Dia
_cod_database_code               7239614
_shelx_res_file
;
TITL anrt
    shelxl.res
    created by SHELXL-2018/3 at 17:10:20 on 22-Oct-2019
CELL  0.68750 8.53590 9.66560 11.25850 102.84360 100.66670 107.82500
ZERR  2 0.00020 0.00020 0.00070 0.00070 0.00070 0.00070
LATT 1
SFAC C H N O I
UNIT 32 20 4 8 4
SHEL 99999.000000 0.599310
OMIT    4  -6   2
OMIT   -3   2   1
OMIT     0   0   1
L.S. 10
FMAP 2
PLAN 30
WPDB -2
HTAB
BOND $H
CONF
LIST 4
TEMP 23.0
ACTA
SIZE 0.100 0.100 0.100
WGHT    0.045600    0.295900
FVAR       0.58350
I1    5    1.284584    0.293653    0.922027    11.00000    0.05460    0.04633 =
         0.05604    0.02101    0.02456    0.01737
I2    5    1.261911    0.783550    0.897055    11.00000    0.05183    0.04123 =
         0.05921    0.01606    0.02121    0.01601
O1    4    0.950216   -0.000697    0.758531    11.00000    0.05958    0.06055 =
         0.03003    0.01715    0.00753    0.01334
O2    4    1.263597    0.228369    1.184828    11.00000    0.05496    0.04845 =
         0.03233    0.00770    0.00338    0.00271
AFIX  83
H9    2    1.259616    0.210528    1.252314    11.00000   -1.20000
AFIX   0
O3    4    1.255165    0.735678    1.170462    11.00000    0.05633    0.04823 =
         0.04174    0.00498   -0.00392   -0.00623
O4    4    0.935182    0.478464    0.748383    11.00000    0.05158    0.05031 =
         0.03394    0.00757    0.00381    0.00861
AFIX  83
H10   2    0.853248    0.399188    0.711213    11.00000   -1.20000
AFIX   0
N1    3    0.315328    0.283520    0.434338    11.00000    0.04381    0.04636 =
         0.03158    0.00383    0.00358    0.01315
N2    3    0.714400    0.242266    0.554365    11.00000    0.04035    0.04098 =
         0.03134    0.00389    0.00457    0.00920
C1    1    0.453241    0.294774    0.521580    11.00000    0.03857    0.03607 =
         0.02742    0.00831    0.00746    0.00740
C2    1    0.213862    0.358744    0.466739    11.00000    0.04778    0.05903 =
         0.04610    0.00985    0.00898    0.02179
AFIX  43
H1    2    0.118120    0.348051    0.405246    11.00000   -1.20000
AFIX   0
C3    1    0.245951    0.451445    0.587807    11.00000    0.05349    0.05081 =
         0.05037    0.01388    0.02241    0.02006
AFIX  43
H2    2    0.172908    0.501485    0.608437    11.00000   -1.20000
AFIX   0
C4    1    0.390221    0.467538    0.677468    11.00000    0.05757    0.05062 =
         0.03792    0.00506    0.01701    0.01480
AFIX  43
H3    2    0.417726    0.531636    0.759301    11.00000   -1.20000
AFIX   0
C5    1    0.492896    0.388263    0.645038    11.00000    0.05362    0.04908 =
         0.03050    0.00412    0.00702    0.01833
AFIX  43
H4    2    0.588719    0.397057    0.705473    11.00000   -1.20000
AFIX   0
C6    1    0.556026    0.205777    0.479154    11.00000    0.03894    0.03753 =
         0.02720    0.00705    0.00637    0.00761
C7    1    0.812662    0.163088    0.521841    11.00000    0.04233    0.05539 =
         0.04903    0.00698    0.00911    0.01414
AFIX  43
H5    2    0.919598    0.187499    0.576690    11.00000   -1.20000
AFIX   0
C8    1    0.760607    0.046895    0.410014    11.00000    0.05174    0.04858 =
         0.05223    0.00925    0.01912    0.01844
AFIX  43
H6    2    0.832608   -0.003507    0.387581    11.00000   -1.20000
AFIX   0
C9    1    0.598127    0.007511    0.332178    11.00000    0.05621    0.03723 =
         0.04005    0.00315    0.01359    0.00950
AFIX  43
H7    2    0.558803   -0.071026    0.256538    11.00000   -1.20000
AFIX   0
C10   1    0.494792    0.085241    0.367277    11.00000    0.04699    0.03461 =
         0.03320    0.00346    0.00487    0.00884
AFIX  43
H8    2    0.384367    0.057369    0.316437    11.00000   -1.20000
AFIX   0
C11   1    0.978602    0.004086    0.871031    11.00000    0.04346    0.03911 =
         0.02995    0.00991    0.00879    0.01810
C12   1    1.116824    0.122909    0.970052    11.00000    0.04269    0.03511 =
         0.03221    0.01089    0.01128    0.01560
C13   1    1.139732    0.121384    1.093463    11.00000    0.04553    0.03539 =
         0.03018    0.00824    0.00842    0.01660
C14   1    1.139097    0.628730    1.088086    11.00000    0.04056    0.03449 =
         0.03641    0.00495    0.00178    0.01201
C15   1    1.103008    0.617241    0.955226    11.00000    0.03914    0.03038 =
         0.03692    0.00679    0.00555    0.01217
C16   1    0.971476    0.495074    0.869203    11.00000    0.04038    0.03116 =
         0.03895    0.00648    0.00544    0.01441
HKLF 4




REM  anrt
REM wR2 = 0.0814, GooF = S = 1.044, Restrained GooF = 1.044 for all data
REM R1 = 0.0280 for 4090 Fo > 4sig(Fo) and 0.0311 for all 4586 data
REM 217 parameters refined using 0 restraints

END

WGHT      0.0454      0.2927

REM Instructions for potential hydrogen bonds
EQIV $1 -x+2, -y, -z+2
HTAB O2 O1_$1
EQIV $3 x+1, y, z+1
HTAB O2 N1_$3
EQIV $2 -x+2, -y+1, -z+2
HTAB O4 O3_$2
HTAB O4 N2
HTAB C5 O3_$2

REM Highest difference peak  0.815,  deepest hole -1.190,  1-sigma level  0.090
Q1    1   1.2415  0.2797  0.8746  11.00000  0.05    0.82
Q2    1   1.3039  0.8103  0.9471  11.00000  0.05    0.77
Q3    1   0.7572  0.3017  0.6086  11.00000  0.05    0.28
Q4    1   1.0318  0.5507  0.9154  11.00000  0.05    0.24
Q5    1   0.5073  0.2532  0.5012  11.00000  0.05    0.22
Q6    1   1.1213  0.1165  1.0342  11.00000  0.05    0.22
Q7    1   1.4245  0.2230  1.1267  11.00000  0.05    0.22
Q8    1   0.6239  0.2172  0.5132  11.00000  0.05    0.21
Q9    1   0.2638  0.4800  0.8563  11.00000  0.05    0.21
Q10   1   1.0789  0.7605  0.9201  11.00000  0.05    0.21
Q11   1   0.3932  0.2992  0.4888  11.00000  0.05    0.20
Q12   1   1.0453  0.0640  0.9099  11.00000  0.05    0.20
Q13   1   1.0085  0.7188  0.9950  11.00000  0.05    0.19
Q14   1   0.9123 -0.0441  0.8826  11.00000  0.05    0.19
Q15   1   1.4636  0.3048  0.9216  11.00000  0.05    0.19
Q16   1   1.2710  0.8854  0.7864  11.00000  0.05    0.19
Q17   1   0.9104  0.0284  0.7892  11.00000  0.05    0.19
Q18   1   1.2490  0.8645  0.8146  11.00000  0.05    0.19
Q19   1   1.3210  0.6125  0.9756  11.00000  0.05    0.19
Q20   1   0.2841  0.2499  0.3878  11.00000  0.05    0.18
Q21   1   1.3150  1.0177  0.9064  11.00000  0.05    0.18
Q22   1   0.9934  0.2066  0.9871  11.00000  0.05    0.18
Q23   1   1.0422  0.7474  0.9492  11.00000  0.05    0.18
Q24   1   0.9079  0.4441  0.8792  11.00000  0.05    0.18
Q25   1   1.0099  0.7408  0.8729  11.00000  0.05    0.17
Q26   1   1.1234  0.8834  0.8527  11.00000  0.05    0.17
Q27   1   1.3532  0.5834  1.0605  11.00000  0.05    0.17
Q28   1   0.4461  0.2743  0.5438  11.00000  0.05    0.17
Q29   1   0.8253  0.1311  0.2709  11.00000  0.05    0.17
Q30   1   0.2742  0.3844  0.7985  11.00000  0.05    0.17
;
_shelx_res_checksum              35431
loop_
_symmetry_equiv_pos_site_id
_symmetry_equiv_pos_as_xyz
1 +X,+Y,+Z
2 -X,-Y,-Z
loop_
_atom_site_label
_atom_site_type_symbol
_atom_site_fract_x
_atom_site_fract_y
_atom_site_fract_z
_atom_site_U_iso_or_equiv
_atom_site_adp_type
_atom_site_occupancy
_atom_site_site_symmetry_order
_atom_site_calc_flag
_atom_site_refinement_flags_posn
_atom_site_refinement_flags_adp
I1 I 1.28458(2) 0.29365(2) 0.92203(2) 0.05019(9) Uani 1 1 d . .
I2 I 1.26191(2) 0.78355(2) 0.89706(2) 0.04990(9) Uani 1 1 d . .
O1 O 0.9502(2) -0.0007(3) 0.75853(13) 0.0522(6) Uani 1 1 d . .
O2 O 1.2636(2) 0.2284(3) 1.18483(13) 0.0512(6) Uani 1 1 d . .
H9 H 1.259616 0.210528 1.252314 0.061 Uiso 1 1 calc R U
O3 O 1.2552(2) 0.7357(3) 1.17046(15) 0.0589(7) Uani 1 1 d . .
O4 O 0.9352(2) 0.4785(3) 0.74838(13) 0.0497(6) Uani 1 1 d . .
H10 H 0.853248 0.399188 0.711213 0.060 Uiso 1 1 calc R U
N1 N 0.3153(2) 0.2835(3) 0.43434(15) 0.0437(6) Uani 1 1 d . .
N2 N 0.7144(2) 0.2423(3) 0.55437(14) 0.0409(6) Uani 1 1 d . .
C1 C 0.4532(2) 0.2948(3) 0.52158(15) 0.0359(7) Uani 1 1 d . .
C2 C 0.2139(3) 0.3587(4) 0.4667(2) 0.0519(9) Uani 1 1 d . .
H1 H 0.118120 0.348051 0.405246 0.062 Uiso 1 1 calc R U
C3 C 0.2460(3) 0.4514(4) 0.5878(2) 0.0503(10) Uani 1 1 d . .
H2 H 0.172908 0.501485 0.608437 0.060 Uiso 1 1 calc R U
C4 C 0.3902(3) 0.4675(4) 0.6775(2) 0.0507(9) Uani 1 1 d . .
H3 H 0.417726 0.531636 0.759301 0.061 Uiso 1 1 calc R U
C5 C 0.4929(3) 0.3883(4) 0.64504(17) 0.0465(8) Uani 1 1 d . .
H4 H 0.588719 0.397057 0.705473 0.056 Uiso 1 1 calc R U
C6 C 0.5560(2) 0.2058(3) 0.47915(15) 0.0369(7) Uani 1 1 d . .
C7 C 0.8127(3) 0.1631(4) 0.5218(2) 0.0518(9) Uani 1 1 d . .
H5 H 0.919598 0.187499 0.576690 0.062 Uiso 1 1 calc R U
C8 C 0.7606(3) 0.0469(4) 0.4100(2) 0.0511(10) Uani 1 1 d . .
H6 H 0.832608 -0.003507 0.387581 0.061 Uiso 1 1 calc R U
C9 C 0.5981(3) 0.0075(4) 0.3322(2) 0.0477(8) Uani 1 1 d . .
H7 H 0.558803 -0.071026 0.256538 0.057 Uiso 1 1 calc R U
C10 C 0.4948(3) 0.0852(3) 0.36728(17) 0.0418(7) Uani 1 1 d . .
H8 H 0.384367 0.057369 0.316437 0.050 Uiso 1 1 calc R U
C11 C 0.9786(2) 0.0041(3) 0.87103(16) 0.0370(7) Uani 1 1 d . .
C12 C 1.1168(2) 0.1229(3) 0.97005(16) 0.0360(7) Uani 1 1 d . .
C13 C 1.1397(3) 0.1214(3) 1.09346(16) 0.0371(7) Uani 1 1 d . .
C14 C 1.1391(2) 0.6287(3) 1.08809(18) 0.0398(7) Uani 1 1 d . .
C15 C 1.1030(2) 0.6172(3) 0.95523(17) 0.0368(7) Uani 1 1 d . .
C16 C 0.9715(2) 0.4951(3) 0.86920(18) 0.0379(7) Uani 1 1 d . .
loop_
_atom_site_aniso_label
_atom_site_aniso_U_11
_atom_site_aniso_U_22
_atom_site_aniso_U_33
_atom_site_aniso_U_23
_atom_site_aniso_U_13
_atom_site_aniso_U_12
I1 0.05460(9) 0.0463(2) 0.05604(9) 0.02101(8) 0.02456(6) 0.01737(8)
I2 0.05183(9) 0.0412(2) 0.05921(9) 0.01606(8) 0.02121(6) 0.01601(8)
O1 0.0596(9) 0.0606(18) 0.0300(5) 0.0171(7) 0.0075(5) 0.0133(9)
O2 0.0550(8) 0.0485(17) 0.0323(6) 0.0077(7) 0.0034(5) 0.0027(8)
O3 0.0563(9) 0.0482(18) 0.0417(7) 0.0050(8) -0.0039(6) -0.0062(8)
O4 0.0516(8) 0.0503(17) 0.0339(6) 0.0076(7) 0.0038(5) 0.0086(8)
N1 0.0438(7) 0.0464(18) 0.0316(6) 0.0038(7) 0.0036(5) 0.0132(8)
N2 0.0403(7) 0.0410(17) 0.0313(6) 0.0039(7) 0.0046(5) 0.0092(7)
C1 0.0386(7) 0.036(2) 0.0274(6) 0.0083(7) 0.0075(5) 0.0074(8)
C2 0.0478(10) 0.059(3) 0.0461(10) 0.0099(11) 0.0090(8) 0.0218(11)
C3 0.0535(11) 0.051(3) 0.0504(11) 0.0139(12) 0.0224(9) 0.0201(12)
C4 0.0576(12) 0.051(2) 0.0379(8) 0.0051(10) 0.0170(8) 0.0148(11)
C5 0.0536(10) 0.049(2) 0.0305(7) 0.0041(9) 0.0070(7) 0.0183(10)
C6 0.0389(7) 0.0375(19) 0.0272(6) 0.0070(7) 0.0064(5) 0.0076(8)
C7 0.0423(9) 0.055(2) 0.0490(10) 0.0070(11) 0.0091(8) 0.0141(10)
C8 0.0517(11) 0.049(3) 0.0522(12) 0.0092(13) 0.0191(9) 0.0184(12)
C9 0.0562(11) 0.037(2) 0.0401(8) 0.0032(10) 0.0136(8) 0.0095(10)
C10 0.0470(9) 0.035(2) 0.0332(7) 0.0035(8) 0.0049(6) 0.0088(9)
C11 0.0435(8) 0.039(2) 0.0300(6) 0.0099(8) 0.0088(6) 0.0181(9)
C12 0.0427(8) 0.035(2) 0.0322(7) 0.0109(8) 0.0113(6) 0.0156(9)
C13 0.0455(8) 0.035(2) 0.0302(6) 0.0082(8) 0.0084(6) 0.0166(9)
C14 0.0406(8) 0.034(2) 0.0364(7) 0.0049(9) 0.0018(6) 0.0120(8)
C15 0.0391(8) 0.030(2) 0.0369(7) 0.0068(8) 0.0056(6) 0.0122(8)
C16 0.0404(8) 0.031(2) 0.0389(8) 0.0065(9) 0.0054(6) 0.0144(8)
loop_
_atom_type_symbol
_atom_type_description
_atom_type_scat_dispersion_real
_atom_type_scat_dispersion_imag
_atom_type_scat_source
C C 0.0019 0.0015
;
International Tables for Crystallography
(Vol. C, Tables 4.2.6.8 and 6.1.1.4)
;
H H 0.0000 0.0000
;
International Tables for Crystallography
(Vol. C, Table 6.1.1.4)
;
N N 0.0056 0.0031
;
International Tables for Crystallography
(Vol. C, Tables 4.2.6.8 and 6.1.1.4)
;
O O 0.0100 0.0057
;
International Tables for Crystallography
(Vol. C, Tables 4.2.6.8 and 6.1.1.4)
;
I I -0.4915 1.7168
;
International Tables for Crystallography
(Vol. C, Tables 4.2.6.8 and 6.1.1.4)
;
loop_
_geom_angle_atom_site_label_1
_geom_angle_atom_site_label_2
_geom_angle_atom_site_label_3
_geom_angle
_geom_angle_site_symmetry_3
C13 O2 H9 109.5 .
C16 O4 H10 109.5 .
C2 N1 C1 120.14(18) .
C7 N2 C6 120.24(18) .
N1 C1 C5 119.7(2) .
N1 C1 C6 116.84(16) .
C5 C1 C6 123.43(18) .
N1 C2 C3 122.5(2) .
N1 C2 H1 118.7 .
C3 C2 H1 118.7 .
C2 C3 C4 117.9(2) .
C2 C3 H2 121.1 .
C4 C3 H2 121.1 .
C5 C4 C3 119.7(2) .
C5 C4 H3 120.2 .
C3 C4 H3 120.2 .
C4 C5 C1 120.0(2) .
C4 C5 H4 120.0 .
C1 C5 H4 120.0 .
N2 C6 C10 119.6(2) .
N2 C6 C1 117.58(17) .
C10 C6 C1 122.80(18) .
N2 C7 C8 122.4(2) .
N2 C7 H5 118.8 .
C8 C7 H5 118.8 .
C7 C8 C9 118.1(2) .
C7 C8 H6 121.0 .
C9 C8 H6 121.0 .
C10 C9 C8 119.7(2) .
C10 C9 H7 120.2 .
C8 C9 H7 120.2 .
C9 C10 C6 119.96(19) .
C9 C10 H8 120.0 .
C6 C10 H8 120.0 .
O1 C11 C12 123.9(3) .
O1 C11 C13 117.8(2) 2_757
C12 C11 C13 118.30(17) 2_757
C13 C12 C11 120.6(2) .
C13 C12 I1 120.61(17) .
C11 C12 I1 118.74(15) .
O2 C13 C12 121.7(3) .
O2 C13 C11 117.26(18) 2_757
C12 C13 C11 121.07(19) 2_757
O3 C14 C15 123.6(3) .
O3 C14 C16 117.3(2) 2_767
C15 C14 C16 119.10(19) 2_767
C16 C15 C14 120.3(2) .
C16 C15 I2 120.99(17) .
C14 C15 I2 118.68(16) .
O4 C16 C15 122.6(3) .
O4 C16 C14 116.75(19) 2_767
C15 C16 C14 120.64(19) 2_767
loop_
_geom_bond_atom_site_label_1
_geom_bond_atom_site_label_2
_geom_bond_distance
_geom_bond_site_symmetry_2
I1 C12 2.074(3) .
I2 C15 2.077(3) .
O1 C11 1.232(2) .
O2 C13 1.304(3) .
O2 H9 0.8200 .
O3 C14 1.232(3) .
O4 C16 1.299(2) .
O4 H10 0.8200 .
N1 C2 1.340(3) .
N1 C1 1.345(3) .
N2 C7 1.344(3) .
N2 C6 1.349(2) .
C1 C5 1.394(2) .
C1 C6 1.474(4) .
C2 C3 1.380(3) .
C2 H1 0.9300 .
C3 C4 1.383(4) .
C3 H2 0.9300 .
C4 C5 1.376(4) .
C4 H3 0.9300 .
C5 H4 0.9300 .
C6 C10 1.396(3) .
C7 C8 1.379(3) .
C7 H5 0.9300 .
C8 C9 1.384(3) .
C8 H6 0.9300 .
C9 C10 1.379(4) .
C9 H7 0.9300 .
C10 H8 0.9300 .
C11 C12 1.438(3) .
C11 C13 1.505(4) 2_757
C12 C13 1.371(3) .
C14 C15 1.442(3) .
C14 C16 1.512(4) 2_767
C15 C16 1.368(3) .
loop_
_geom_torsion_atom_site_label_1
_geom_torsion_atom_site_label_2
_geom_torsion_atom_site_label_3
_geom_torsion_atom_site_label_4
_geom_torsion
_geom_torsion_site_symmetry_1
_geom_torsion_site_symmetry_4
C2 N1 C1 C5 -1.7(4) . .
C2 N1 C1 C6 178.6(3) . .
C1 N1 C2 C3 1.0(5) . .
N1 C2 C3 C4 0.9(5) . .
C2 C3 C4 C5 -2.0(5) . .
C3 C4 C5 C1 1.4(5) . .
N1 C1 C5 C4 0.6(4) . .
C6 C1 C5 C4 -179.8(3) . .
C7 N2 C6 C10 0.0(4) . .
C7 N2 C6 C1 178.7(3) . .
N1 C1 C6 N2 164.4(2) . .
C5 C1 C6 N2 -15.2(4) . .
N1 C1 C6 C10 -17.0(4) . .
C5 C1 C6 C10 163.4(2) . .
C6 N2 C7 C8 2.5(5) . .
N2 C7 C8 C9 -2.8(5) . .
C7 C8 C9 C10 0.6(5) . .
C8 C9 C10 C6 1.8(5) . .
N2 C6 C10 C9 -2.1(4) . .
C1 C6 C10 C9 179.3(3) . .
O1 C11 C12 C13 179.5(2) . .
C13 C11 C12 C13 0.0(4) 2_757 .
O1 C11 C12 I1 -2.1(3) . .
C13 C11 C12 I1 178.48(16) 2_757 .
C11 C12 C13 O2 -179.6(2) . .
I1 C12 C13 O2 2.0(3) . .
C11 C12 C13 C11 0.0(4) . 2_757
I1 C12 C13 C11 -178.45(16) . 2_757
O3 C14 C15 C16 -179.8(3) . .
C16 C14 C15 C16 -0.6(4) 2_767 .
O3 C14 C15 I2 3.2(3) . .
C16 C14 C15 I2 -177.56(16) 2_767 .
C14 C15 C16 O4 -179.1(2) . .
I2 C15 C16 O4 -2.2(3) . .
C14 C15 C16 C14 0.6(4) . 2_767
I2 C15 C16 C14 177.50(16) . 2_767
