#------------------------------------------------------------------------------
#$Date: 2020-03-06 04:58:33 +0200 (Fri, 06 Mar 2020) $
#$Revision: 249106 $
#$URL: file:///home/coder/svn-repositories/cod/cif/7/24/00/7240056.cif $
#------------------------------------------------------------------------------
#
# This file is available in the Crystallography Open Database (COD),
# http://www.crystallography.net/
#
# All data on this site have been placed in the public domain by the
# contributors.
#
data_7240056
loop_
_publ_author_name
'Odounga Odounga, Jean-Eudes'
'B\'athori, Nikoletta B.'
_publ_section_title
;
 Systematic comparison of racemic and enantiopure multicomponent crystals
 of phenylsuccinic acid---the role of chirality
;
_journal_name_full               CrystEngComm
_journal_paper_doi               10.1039/D0CE00072H
_journal_year                    2020
_chemical_formula_sum            'C15 H15 N3 O5'
_chemical_formula_weight         317.30
_chemical_melting_point          398.42
_space_group_crystal_system      triclinic
_space_group_IT_number           2
_space_group_name_Hall           '-P 1'
_space_group_name_H-M_alt        'P -1'
_atom_sites_solution_hydrogens   mixed
_audit_creation_method           SHELXL-2016/4
_audit_update_record
;
2020-01-09 deposited with the CCDC.	2020-02-14 downloaded from the CCDC.
;
_cell_angle_alpha                99.36(3)
_cell_angle_beta                 99.28(3)
_cell_angle_gamma                97.44(3)
_cell_formula_units_Z            2
_cell_length_a                   5.7726(12)
_cell_length_b                   7.9815(16)
_cell_length_c                   16.594(3)
_cell_measurement_reflns_used    3777
_cell_measurement_temperature    173(2)
_cell_measurement_theta_max      26.05
_cell_measurement_theta_min      2.62
_cell_volume                     734.9(3)
_computing_structure_refinement  'SHELXL-2016/4 (Sheldrick, 2016)'
_diffrn_ambient_temperature      173(2)
_diffrn_measured_fraction_theta_full 0.999
_diffrn_measured_fraction_theta_max 0.998
_diffrn_measurement_device_type  Bruker
_diffrn_radiation_type           MoK\a
_diffrn_radiation_wavelength     0.71073
_diffrn_reflns_av_R_equivalents  0.0416
_diffrn_reflns_av_unetI/netI     0.0331
_diffrn_reflns_Laue_measured_fraction_full 0.999
_diffrn_reflns_Laue_measured_fraction_max 0.998
_diffrn_reflns_limit_h_max       7
_diffrn_reflns_limit_h_min       -7
_diffrn_reflns_limit_k_max       10
_diffrn_reflns_limit_k_min       -10
_diffrn_reflns_limit_l_max       22
_diffrn_reflns_limit_l_min       -22
_diffrn_reflns_number            19165
_diffrn_reflns_point_group_measured_fraction_full 0.999
_diffrn_reflns_point_group_measured_fraction_max 0.998
_diffrn_reflns_theta_full        25.242
_diffrn_reflns_theta_max         28.353
_diffrn_reflns_theta_min         1.266
_exptl_absorpt_coefficient_mu    0.110
_exptl_absorpt_correction_T_max  1.000
_exptl_absorpt_correction_T_min  0.933
_exptl_absorpt_correction_type   multi-scan
_exptl_absorpt_process_details   SADABS
_exptl_crystal_colour            colorless
_exptl_crystal_density_diffrn    1.434
_exptl_crystal_description       plates
_exptl_crystal_F_000             332
_exptl_crystal_recrystallization_method
'Re-crystallisation from solvent: methanol'
_exptl_crystal_size_max          0.900
_exptl_crystal_size_mid          0.220
_exptl_crystal_size_min          0.040
_refine_diff_density_max         0.274
_refine_diff_density_min         -0.210
_refine_diff_density_rms         0.045
_refine_ls_extinction_method     none
_refine_ls_goodness_of_fit_ref   1.040
_refine_ls_hydrogen_treatment    noref
_refine_ls_matrix_type           full
_refine_ls_number_parameters     224
_refine_ls_number_reflns         3666
_refine_ls_number_restraints     0
_refine_ls_restrained_S_all      1.040
_refine_ls_R_factor_all          0.0553
_refine_ls_R_factor_gt           0.0403
_refine_ls_shift/su_max          0.001
_refine_ls_shift/su_mean         0.000
_refine_ls_structure_factor_coef Fsqd
_refine_ls_weighting_details
'w=1/[\s^2^(Fo^2^)+(0.0396P)^2^+0.1576P] where P=(Fo^2^+2Fc^2^)/3'
_refine_ls_weighting_scheme      calc
_refine_ls_wR_factor_gt          0.0898
_refine_ls_wR_factor_ref         0.0971
_reflns_Friedel_coverage         0.000
_reflns_number_gt                2858
_reflns_number_total             3666
_reflns_threshold_expression     'I > 2\s(I)'
_cod_data_source_file            d0ce00072h2.cif
_cod_data_source_block           racpsa-pca
_cod_database_code               7240056
_shelx_shelxl_version_number     2016/4
_shelx_space_group_comment
;
The symmetry employed for this shelxl refinement is uniquely defined
by the following loop, which should always be used as a source of
symmetry information in preference to the above space-group names.
They are only intended as comments.
;
_shelx_estimated_absorpt_t_min   0.908
_shelx_estimated_absorpt_t_max   0.996
_shelx_res_file
;
TITL pmin1 in P-1
 C:\Students\EUDES_~1\RAEACC~1\pmin1.res created by SHELXL-2016/4 at 17:21:52 on 12-Feb-2019
CELL 0.71073 5.7726 7.9815 16.5940 99.356 99.279 97.439
ZERR 2.0000 0.0012 0.0016 0.0033 0.030 0.030 0.030
LATT 1
SFAC C H N O
UNIT 30 30 6 10
OMIT 0 -1 2
OMIT -1 1 3
ACTA
FMAP 2 1 53
GRID
PLAN 20 0 0
HTAB 2.0
MERG 2
SIZE 0.04 0.9 0.22
TEMP -100
L.S. 20
WGHT    0.039600    0.157600
FVAR       0.28359
C1    1    0.126240    0.670144    0.633322    11.00000    0.02185    0.02035 =
         0.01988    0.00262    0.00364    0.00497
AFIX  13
H1    2   -0.002608    0.727821    0.607403    11.00000   -1.20000
AFIX   0
C2    1    0.009355    0.502471    0.653703    11.00000    0.01960    0.02165 =
         0.01618    0.00143    0.00046    0.00317
C3    1   -0.182418    0.504218    0.695256    11.00000    0.02006    0.02640 =
         0.02275   -0.00060    0.00181    0.00578
AFIX  43
H3    2   -0.239233    0.609152    0.710586    11.00000   -1.20000
AFIX   0
C4    1   -0.290924    0.353452    0.714377    11.00000    0.02093    0.03694 =
         0.02498    0.00173    0.00621   -0.00033
AFIX  43
H4    2   -0.421276    0.356250    0.742696    11.00000   -1.20000
AFIX   0
C5    1   -0.210692    0.199455    0.692521    11.00000    0.03293    0.02633 =
         0.02638    0.00419    0.00593   -0.00312
AFIX  43
H5    2   -0.285543    0.096705    0.705583    11.00000   -1.20000
AFIX   0
C6    1   -0.020850    0.196475    0.651552    11.00000    0.03847    0.02199 =
         0.02894    0.00290    0.00937    0.00726
AFIX  43
H6    2    0.034959    0.091071    0.636365    11.00000   -1.20000
AFIX   0
H17A  2    0.666771    0.975443    0.841879    11.00000    0.05226
H17B  2    0.856498    1.095998    0.909009    11.00000    0.04010
H14   2    0.209126    0.931959    0.805256    11.00000    0.06985
H11   2    0.621480    0.889387    0.491950    11.00000    0.06128
C7    1    0.089584    0.346925    0.632297    11.00000    0.02728    0.02398 =
         0.02184    0.00201    0.00815    0.00586
AFIX  43
H7    2    0.220624    0.343364    0.604349    11.00000   -1.20000
AFIX   0
C8    1    0.296576    0.642848    0.572765    11.00000    0.02518    0.02018 =
         0.01956    0.00174    0.00444    0.00396
AFIX  23
H8B   2    0.432648    0.595044    0.599535    11.00000   -1.20000
H8A   2    0.213482    0.557175    0.523153    11.00000   -1.20000
AFIX   0
C9    1    0.389125    0.804820    0.545530    11.00000    0.02705    0.02520 =
         0.01846    0.00271    0.00546    0.00508
O10   4    0.296137    0.933813    0.552302    11.00000    0.03704    0.02616 =
         0.03652    0.00996    0.01815    0.01103
O11   4    0.579198    0.791886    0.511817    11.00000    0.03985    0.02960 =
         0.04536    0.01497    0.02543    0.01252
C12   1    0.258472    0.790050    0.713353    11.00000    0.02504    0.01834 =
         0.02219    0.00374    0.00604    0.00455
O13   4    0.473244    0.815816    0.733544    11.00000    0.02517    0.03353 =
         0.02925   -0.00539    0.00271    0.00566
O14   4    0.115449    0.861148    0.758100    11.00000    0.02627    0.03341 =
         0.03172   -0.01134    0.00767    0.00330
O15   4    0.326253    1.069728    0.896570    11.00000    0.02999    0.03593 =
         0.03199   -0.00931    0.00444   -0.00091
C16   1    0.542793    1.117665    0.923178    11.00000    0.02935    0.02478 =
         0.02298    0.00209    0.00543    0.00200
N17   3    0.711504    1.056031    0.887664    11.00000    0.03238    0.03654 =
         0.02772   -0.00746    0.00628    0.00297
C18   1    0.622987    1.252782    1.000313    11.00000    0.02455    0.02407 =
         0.02004    0.00391    0.00423    0.00323
N19   3    0.856503    1.305990    1.025645    11.00000    0.02487    0.03458 =
         0.02268   -0.00065    0.00526    0.00459
C20   1    0.920379    1.429657    1.093299    11.00000    0.02112    0.04058 =
         0.02519   -0.00088    0.00270    0.00232
AFIX  43
H20   2    1.084552    1.471253    1.113926    11.00000   -1.20000
AFIX   0
C21   1    0.753884    1.498892    1.134190    11.00000    0.02664    0.03328 =
         0.01964   -0.00122    0.00159    0.00420
AFIX  43
H21   2    0.807655    1.588100    1.181521    11.00000   -1.20000
AFIX   0
N22   3    0.520880    1.445030    1.109617    11.00000    0.02546    0.03476 =
         0.02490   -0.00079    0.00459    0.00658
C23   1    0.456945    1.319716    1.042155    11.00000    0.02237    0.02972 =
         0.02445    0.00122    0.00339    0.00333
AFIX  43
H23   2    0.293005    1.275653    1.022539    11.00000   -1.20000
AFIX   0
HKLF 4




REM  pmin1 in P-1
REM R1 =  0.0403 for    2858 Fo > 4sig(Fo)  and  0.0553 for all    3666 data
REM    224 parameters refined using      0 restraints

END

WGHT      0.0430      0.1476

REM Instructions for potential hydrogen bonds
HTAB N17 O13
HTAB O14 O15
EQIV $1 -x+1, -y+2, -z+
HTAB O11 O10_$1
EQIV $2 x+1, y,
HTAB C20 N22_$2
EQIV $3 x-1, y,
HTAB C23 N19_$3

REM Highest difference peak  0.274,  deepest hole -0.210,  1-sigma level  0.045
Q1    1   0.3349  0.7210  0.5602  11.00000  0.05    0.27
Q2    1   0.5841  1.1858  0.9631  11.00000  0.05    0.24
Q3    1   0.0721  0.5825  0.6435  11.00000  0.05    0.24
Q4    1   0.2135  0.6603  0.6034  11.00000  0.05    0.21
Q5    1   0.1867  0.7217  0.6743  11.00000  0.05    0.21
Q6    1   0.0824  0.4333  0.6585  11.00000  0.05    0.21
Q7    1  -0.0076  0.2619  0.6225  11.00000  0.05    0.19
Q8    1   0.5403  1.2868  1.0205  11.00000  0.05    0.18
Q9    1   0.9379  1.2206  1.0175  11.00000  0.05    0.18
Q10   1  -0.0718  0.5162  0.6759  11.00000  0.05    0.17
Q11   1   0.4334  1.5141  1.1214  11.00000  0.05    0.16
Q12   1  -0.1894  0.4334  0.7223  11.00000  0.05    0.16
Q13   1  -0.2776  0.4187  0.6814  11.00000  0.05    0.16
Q14   1   0.8450  1.4210  1.1320  11.00000  0.05    0.16
Q15   1   0.5357  0.9115  0.7803  11.00000  0.05    0.16
Q16   1   1.0517  1.0225  0.9817  11.00000  0.05    0.15
Q17   1   0.2852  1.3349  1.0236  11.00000  0.05    0.15
Q18   1   0.8230  1.4883  1.0992  11.00000  0.05    0.15
Q19   1  -0.0266  0.5181  0.6992  11.00000  0.05    0.15
Q20   1   0.2175  0.9208  0.7366  11.00000  0.05    0.14
;
_shelx_res_checksum              5601
loop_
_space_group_symop_operation_xyz
'x, y, z'
'-x, -y, -z'
loop_
_atom_site_label
_atom_site_type_symbol
_atom_site_fract_x
_atom_site_fract_y
_atom_site_fract_z
_atom_site_U_iso_or_equiv
_atom_site_adp_type
_atom_site_occupancy
_atom_site_site_symmetry_order
_atom_site_calc_flag
_atom_site_refinement_flags_posn
_atom_site_refinement_flags_adp
_atom_site_refinement_flags_occupancy
_atom_site_disorder_assembly
_atom_site_disorder_group
C1 C 0.1262(2) 0.67014(15) 0.63332(7) 0.0207(3) Uani 1 1 d . . . . .
H1 H -0.002608 0.727821 0.607403 0.025 Uiso 1 1 calc R U . . .
C2 C 0.0094(2) 0.50247(16) 0.65370(7) 0.0197(3) Uani 1 1 d . . . . .
C3 C -0.1824(2) 0.50422(17) 0.69526(8) 0.0237(3) Uani 1 1 d . . . . .
H3 H -0.239233 0.609152 0.710586 0.028 Uiso 1 1 calc R U . . .
C4 C -0.2909(2) 0.35345(18) 0.71438(8) 0.0283(3) Uani 1 1 d . . . . .
H4 H -0.421276 0.356250 0.742696 0.034 Uiso 1 1 calc R U . . .
C5 C -0.2107(2) 0.19946(18) 0.69252(8) 0.0293(3) Uani 1 1 d . . . . .
H5 H -0.285543 0.096705 0.705583 0.035 Uiso 1 1 calc R U . . .
C6 C -0.0209(3) 0.19648(17) 0.65155(8) 0.0294(3) Uani 1 1 d . . . . .
H6 H 0.034959 0.091071 0.636365 0.035 Uiso 1 1 calc R U . . .
H17A H 0.667(3) 0.975(2) 0.8419(12) 0.052(5) Uiso 1 1 d . . . . .
H17B H 0.856(3) 1.096(2) 0.9090(11) 0.040(5) Uiso 1 1 d . . . . .
H14 H 0.209(4) 0.932(3) 0.8053(14) 0.070(6) Uiso 1 1 d . . . . .
H11 H 0.621(3) 0.889(3) 0.4920(12) 0.061(6) Uiso 1 1 d . . . . .
C7 C 0.0896(2) 0.34693(16) 0.63230(8) 0.0241(3) Uani 1 1 d . . . . .
H7 H 0.220624 0.343364 0.604349 0.029 Uiso 1 1 calc R U . . .
C8 C 0.2966(2) 0.64285(16) 0.57276(7) 0.0218(3) Uani 1 1 d . . . . .
H8B H 0.432648 0.595044 0.599535 0.026 Uiso 1 1 calc R U . . .
H8A H 0.213482 0.557175 0.523153 0.026 Uiso 1 1 calc R U . . .
C9 C 0.3891(2) 0.80482(17) 0.54553(7) 0.0235(3) Uani 1 1 d . . . . .
O10 O 0.29614(17) 0.93381(12) 0.55230(6) 0.0309(2) Uani 1 1 d . . . . .
O11 O 0.57920(18) 0.79189(13) 0.51182(7) 0.0347(3) Uani 1 1 d . . . . .
C12 C 0.2585(2) 0.79005(16) 0.71335(8) 0.0216(3) Uani 1 1 d . . . . .
O13 O 0.47324(16) 0.81582(13) 0.73354(6) 0.0308(2) Uani 1 1 d . . . . .
O14 O 0.11545(17) 0.86115(13) 0.75810(6) 0.0323(2) Uani 1 1 d . . . . .
O15 O 0.32625(17) 1.06973(13) 0.89657(6) 0.0351(2) Uani 1 1 d . . . . .
C16 C 0.5428(2) 1.11766(17) 0.92318(8) 0.0261(3) Uani 1 1 d . . . . .
N17 N 0.7115(2) 1.05603(18) 0.88766(8) 0.0339(3) Uani 1 1 d . . . . .
C18 C 0.6230(2) 1.25278(16) 1.00031(7) 0.0230(3) Uani 1 1 d . . . . .
N19 N 0.8565(2) 1.30599(15) 1.02564(7) 0.0280(3) Uani 1 1 d . . . . .
C20 C 0.9204(2) 1.42966(19) 1.09330(8) 0.0302(3) Uani 1 1 d . . . . .
H20 H 1.084552 1.471253 1.113926 0.036 Uiso 1 1 calc R U . . .
C21 C 0.7539(2) 1.49889(18) 1.13419(8) 0.0276(3) Uani 1 1 d . . . . .
H21 H 0.807655 1.588100 1.181521 0.033 Uiso 1 1 calc R U . . .
N22 N 0.5209(2) 1.44503(15) 1.10962(7) 0.0290(3) Uani 1 1 d . . . . .
C23 C 0.4569(2) 1.31972(17) 1.04216(8) 0.0261(3) Uani 1 1 d . . . . .
H23 H 0.293005 1.275653 1.022539 0.031 Uiso 1 1 calc R U . . .
loop_
_atom_site_aniso_label
_atom_site_aniso_U_11
_atom_site_aniso_U_22
_atom_site_aniso_U_33
_atom_site_aniso_U_23
_atom_site_aniso_U_13
_atom_site_aniso_U_12
C1 0.0219(6) 0.0203(6) 0.0199(6) 0.0026(5) 0.0036(5) 0.0050(5)
C2 0.0196(6) 0.0217(6) 0.0162(5) 0.0014(5) 0.0005(4) 0.0032(5)
C3 0.0201(6) 0.0264(7) 0.0227(6) -0.0006(5) 0.0018(5) 0.0058(5)
C4 0.0209(6) 0.0369(8) 0.0250(7) 0.0017(6) 0.0062(5) -0.0003(6)
C5 0.0329(7) 0.0263(7) 0.0264(7) 0.0042(5) 0.0059(6) -0.0031(6)
C6 0.0385(8) 0.0220(7) 0.0289(7) 0.0029(6) 0.0094(6) 0.0073(6)
C7 0.0273(7) 0.0240(7) 0.0218(6) 0.0020(5) 0.0081(5) 0.0059(5)
C8 0.0252(6) 0.0202(6) 0.0196(6) 0.0017(5) 0.0044(5) 0.0040(5)
C9 0.0270(7) 0.0252(7) 0.0185(6) 0.0027(5) 0.0055(5) 0.0051(5)
O10 0.0370(5) 0.0262(5) 0.0365(5) 0.0100(4) 0.0181(4) 0.0110(4)
O11 0.0398(6) 0.0296(6) 0.0454(6) 0.0150(5) 0.0254(5) 0.0125(5)
C12 0.0250(6) 0.0183(6) 0.0222(6) 0.0037(5) 0.0060(5) 0.0046(5)
O13 0.0252(5) 0.0335(6) 0.0293(5) -0.0054(4) 0.0027(4) 0.0057(4)
O14 0.0263(5) 0.0334(6) 0.0317(5) -0.0113(4) 0.0077(4) 0.0033(4)
O15 0.0300(5) 0.0359(6) 0.0320(5) -0.0093(4) 0.0044(4) -0.0009(4)
C16 0.0294(7) 0.0248(7) 0.0230(6) 0.0021(5) 0.0054(5) 0.0020(5)
N17 0.0324(7) 0.0365(7) 0.0277(6) -0.0075(6) 0.0063(5) 0.0030(6)
C18 0.0246(6) 0.0241(7) 0.0200(6) 0.0039(5) 0.0042(5) 0.0032(5)
N19 0.0249(6) 0.0346(7) 0.0227(5) -0.0007(5) 0.0053(4) 0.0046(5)
C20 0.0211(6) 0.0406(8) 0.0252(7) -0.0009(6) 0.0027(5) 0.0023(6)
C21 0.0266(7) 0.0333(8) 0.0196(6) -0.0012(5) 0.0016(5) 0.0042(6)
N22 0.0255(6) 0.0348(7) 0.0249(6) -0.0008(5) 0.0046(5) 0.0066(5)
C23 0.0224(6) 0.0297(7) 0.0244(6) 0.0012(5) 0.0034(5) 0.0033(5)
loop_
_atom_type_symbol
_atom_type_description
_atom_type_scat_dispersion_real
_atom_type_scat_dispersion_imag
_atom_type_scat_source
C C 0.0033 0.0016 'International Tables Vol C Tables 4.2.6.8 and 6.1.1.4'
H H 0.0000 0.0000 'International Tables Vol C Tables 4.2.6.8 and 6.1.1.4'
N N 0.0061 0.0033 'International Tables Vol C Tables 4.2.6.8 and 6.1.1.4'
O O 0.0106 0.0060 'International Tables Vol C Tables 4.2.6.8 and 6.1.1.4'
loop_
_geom_angle_atom_site_label_1
_geom_angle_atom_site_label_2
_geom_angle_atom_site_label_3
_geom_angle
_geom_angle_site_symmetry_1
_geom_angle_site_symmetry_3
_geom_angle_publ_flag
C8 C1 C12 109.46(10) . . ?
C8 C1 C2 113.45(10) . . ?
C12 C1 C2 109.77(10) . . ?
C7 C2 C3 118.53(12) . . ?
C7 C2 C1 121.90(11) . . ?
C3 C2 C1 119.57(11) . . ?
C4 C3 C2 120.48(12) . . ?
C5 C4 C3 120.57(13) . . ?
C6 C5 C4 119.38(12) . . ?
C5 C6 C7 120.51(13) . . ?
C2 C7 C6 120.53(12) . . ?
C9 C8 C1 113.21(10) . . ?
O10 C9 O11 123.41(12) . . ?
O10 C9 C8 123.73(12) . . ?
O11 C9 C8 112.84(11) . . ?
O13 C12 O14 123.72(12) . . ?
O13 C12 C1 123.10(12) . . ?
O14 C12 C1 113.19(11) . . ?
O15 C16 N17 124.04(13) . . ?
O15 C16 C18 119.25(12) . . ?
N17 C16 C18 116.71(12) . . ?
N19 C18 C23 122.18(12) . . ?
N19 C18 C16 117.82(12) . . ?
C23 C18 C16 119.99(12) . . ?
C20 N19 C18 115.99(12) . . ?
N19 C20 C21 121.78(13) . . ?
N22 C21 C20 122.43(13) . . ?
C21 N22 C23 115.76(12) . . ?
N22 C23 C18 121.84(12) . . ?
loop_
_geom_bond_atom_site_label_1
_geom_bond_atom_site_label_2
_geom_bond_distance
_geom_bond_site_symmetry_2
_geom_bond_publ_flag
C1 C8 1.5255(17) . ?
C1 C12 1.5274(19) . ?
C1 C2 1.5322(17) . ?
C2 C7 1.3930(17) . ?
C2 C3 1.3958(17) . ?
C3 C4 1.3907(19) . ?
C4 C5 1.383(2) . ?
C5 C6 1.380(2) . ?
C6 C7 1.3938(19) . ?
C8 C9 1.5000(17) . ?
C9 O10 1.2189(15) . ?
C9 O11 1.3176(15) . ?
C12 O13 1.2121(16) . ?
C12 O14 1.3180(16) . ?
O15 C16 1.2438(17) . ?
C16 N17 1.3239(18) . ?
C16 C18 1.4988(19) . ?
C18 N19 1.3361(17) . ?
C18 C23 1.3830(18) . ?
N19 C20 1.3351(19) . ?
C20 C21 1.3840(19) . ?
C21 N22 1.3329(18) . ?
N22 C23 1.3405(18) . ?
