#------------------------------------------------------------------------------
#$Date: 2020-07-04 04:34:08 +0300 (Sat, 04 Jul 2020) $
#$Revision: 253704 $
#$URL: file:///home/coder/svn-repositories/cod/cif/7/24/08/7240815.cif $
#------------------------------------------------------------------------------
#
# This file is available in the Crystallography Open Database (COD),
# http://www.crystallography.net/
#
# All data on this site have been placed in the public domain by the
# contributors.
#
data_7240815
loop_
_publ_author_name
'Zhang, Zaixiang'
'SUZUKI, Masahiro'
'YANG, Yu'
'Yoshikawa, Isao'
'Yin, Qiuxiang'
'Houjou, Hirohiko'
_publ_section_title
;
 Seed-triggered solid-to-solid transformation between color polymorphs:
 Striking differences between quasi-isomorphous crystals of
 dichloro-substituted salicylideneaniline regioisomers
;
_journal_name_full               CrystEngComm
_journal_paper_doi               10.1039/D0CE00679C
_journal_year                    2020
_chemical_formula_moiety         'C13 H9 Cl2 N O'
_chemical_formula_sum            'C13 H9 Cl2 N O'
_chemical_formula_weight         266.11
_chemical_melting_point          427
_chemical_name_common
N-(2-Hydroxy-4-chlorobenzylidene)-4-chloroaniline
_chemical_name_systematic        N-(4?-chlorosalicylidene)-4-chloroaniline
_space_group_crystal_system      monoclinic
_space_group_IT_number           14
_space_group_name_Hall           '-P 2ybc'
_space_group_name_H-M_alt        'P 1 21/c 1'
_atom_sites_solution_hydrogens   geom
_atom_sites_solution_primary     direct
_atom_sites_solution_secondary   difmap
_audit_creation_method           SHELXL-2018/1
_audit_update_record
;
2020-05-05 deposited with the CCDC.	2020-07-02 downloaded from the CCDC.
;
_cell_angle_alpha                90
_cell_angle_beta                 93.2393(10)
_cell_angle_gamma                90
_cell_formula_units_Z            2
_cell_length_a                   10.004(6)
_cell_length_b                   4.688(3)
_cell_length_c                   11.919(7)
_cell_measurement_reflns_used    1817
_cell_measurement_temperature    93(2)
_cell_measurement_theta_max      27.50
_cell_measurement_theta_min      3.40
_cell_volume                     558.1(6)
_computing_cell_refinement       'CrystalClear-SM Expert 2.0 r3'
_computing_data_collection
'CrystalClear-SM Expert 2.0 r3 (Rigaku, 2009)'
_computing_data_reduction        'CrystalClear-SM Expert 2.0 r3'
_computing_molecular_graphics    'CrystalStructure 4.2.4'
_computing_publication_material  'CrystalStructure 4.2.4 (Rigaku, 2016)'
_computing_structure_refinement  'SHELXL-2018/1 (Sheldrick, 2018)'
_computing_structure_solution    'SHELXS Version 2013/1 (Sheldrick, 2008)'
_diffrn_ambient_temperature      93(2)
_diffrn_detector_area_resol_mean 7.111
_diffrn_measured_fraction_theta_full 0.998
_diffrn_measured_fraction_theta_max 0.998
_diffrn_measurement_device_type  'VariMax DW with Saturn'
_diffrn_measurement_method       \w
_diffrn_radiation_source         'fine-focus sealed tube'
_diffrn_radiation_type           MoK\a
_diffrn_radiation_wavelength     0.71075
_diffrn_reflns_av_R_equivalents  0.0530
_diffrn_reflns_av_unetI/netI     0.0462
_diffrn_reflns_Laue_measured_fraction_full 0.998
_diffrn_reflns_Laue_measured_fraction_max 0.998
_diffrn_reflns_limit_h_max       12
_diffrn_reflns_limit_h_min       -12
_diffrn_reflns_limit_k_max       6
_diffrn_reflns_limit_k_min       -6
_diffrn_reflns_limit_l_max       15
_diffrn_reflns_limit_l_min       -15
_diffrn_reflns_number            6122
_diffrn_reflns_point_group_measured_fraction_full 0.998
_diffrn_reflns_point_group_measured_fraction_max 0.998
_diffrn_reflns_theta_full        25.242
_diffrn_reflns_theta_max         27.491
_diffrn_reflns_theta_min         2.039
_exptl_absorpt_coefficient_mu    0.560
_exptl_absorpt_correction_T_max  0.975
_exptl_absorpt_correction_T_min  0.862
_exptl_absorpt_correction_type   multi-scan
_exptl_absorpt_process_details   'REQAB (Rigaku, 1998)'
_exptl_crystal_colour            orange
_exptl_crystal_density_diffrn    1.584
_exptl_crystal_description       plate
_exptl_crystal_F_000             272
_exptl_crystal_recrystallization_method
'Re-crystallisation from solvent: acetone'
_exptl_crystal_size_max          0.190
_exptl_crystal_size_mid          0.180
_exptl_crystal_size_min          0.080
_refine_diff_density_max         0.406
_refine_diff_density_min         -0.406
_refine_diff_density_rms         0.085
_refine_ls_extinction_method     none
_refine_ls_goodness_of_fit_ref   1.265
_refine_ls_hydrogen_treatment    constr
_refine_ls_matrix_type           full
_refine_ls_number_parameters     81
_refine_ls_number_reflns         1275
_refine_ls_number_restraints     0
_refine_ls_restrained_S_all      1.265
_refine_ls_R_factor_all          0.0576
_refine_ls_R_factor_gt           0.0504
_refine_ls_shift/su_max          0.000
_refine_ls_shift/su_mean         0.000
_refine_ls_structure_factor_coef Fsqd
_refine_ls_weighting_details
'w=1/[\s^2^(Fo^2^)+1.5632P] where P=(Fo^2^+2Fc^2^)/3'
_refine_ls_weighting_scheme      calc
_refine_ls_wR_factor_gt          0.1187
_refine_ls_wR_factor_ref         0.1208
_reflns_Friedel_coverage         0.000
_reflns_number_gt                1133
_reflns_number_total             1275
_reflns_threshold_expression     'I > 2\s(I)'
_cod_data_source_file            d0ce00679c3.cif
_cod_data_source_block           4CC-o
_cod_original_sg_symbol_H-M      'P 21/c'
_cod_database_code               7240815
_shelx_shelxl_version_number     2018/1
_shelx_space_group_comment
;
The symmetry employed for this shelxl refinement is uniquely defined
by the following loop, which should always be used as a source of
symmetry information in preference to the above space-group names.
They are only intended as comments.
;
_shelx_estimated_absorpt_t_min   0.901
_shelx_estimated_absorpt_t_max   0.957
_shelx_res_file
;
TITL N4CC_orange
    shelxl.res
    created by SHELXL-2018/1 at 13:20:20 on 04-Mar-2019
CELL 0.71075 10.0040 4.6880 11.9190 90.0000 93.2393 90.0000
ZERR 2.0 0.0060 0.0030 0.0070 0.0000 0.0010 0.0000
LATT 1
SYMM -X, 1/2+Y, 1/2-Z
REM  SPGR P21/c monoclinic
SFAC C H Cl N O
UNIT 26.000000 18.000000 4.000000 2.000000 2.000000
SIZE 0.19 0.18 0.08
TEMP -180.0
L.S. 30
FMAP 2
PLAN -20
ACTA
CONF
BOND$H

EADP C7 N1
HTAB O1 N1
LIST 4
WGHT    0.000000    1.563200
FVAR       2.76408
PART -1
O1    5    0.458951    0.260238    0.305234    10.50000    0.02161    0.02483 =
         0.01279    0.00237    0.00413    0.01413
AFIX 147
H1    2    0.496645    0.119548    0.337138    10.50000   -1.50000
PART 0
AFIX   0
C1    1    0.369355    0.365209    0.369848    11.00000    0.01348    0.01230 =
         0.01548    0.00112    0.00206    0.00100
PART 2
AFIX  43
H2    2    0.434210    0.289047    0.322906    10.50000   -1.20000
PART 0
AFIX   0
C2    1    0.278429    0.568418    0.327268    11.00000    0.01666    0.01522 =
         0.01185    0.00019   -0.00040    0.00119
AFIX  43
H3    2    0.281221    0.632022    0.251760    11.00000   -1.20000
AFIX   0
C3    1    0.184003    0.676459    0.396317    11.00000    0.01216    0.01039 =
         0.01924   -0.00125   -0.00419    0.00056
C4    1    0.178069    0.590319    0.507708    11.00000    0.01525    0.02094 =
         0.01807   -0.00399    0.00349    0.00221
AFIX  43
H4    2    0.113159    0.668040    0.554225    11.00000   -1.20000
AFIX   0
C5    1    0.269535    0.387696    0.549137    11.00000    0.01756    0.02131 =
         0.01444    0.00276    0.00017   -0.00166
AFIX  43
H5    2    0.266618    0.326302    0.624918    11.00000   -1.20000
AFIX   0
C6    1    0.365904    0.272211    0.481437    11.00000    0.01261    0.01056 =
         0.01433    0.00250   -0.00138   -0.00207
CL1   3    0.070602    0.926953    0.340580    11.00000    0.01626    0.01547 =
         0.02286   -0.00349   -0.00535    0.00617
PART -1
C7    1    0.460055    0.052806    0.525724    10.50000    0.01315
AFIX  43
H6    2    0.456776   -0.000669    0.602399    10.50000   -1.20000
AFIX   0
N1    4    0.545162   -0.068448    0.467116    10.50000    0.01315
PART 0

HKLF 4




REM  N4CC_orange
REM R1 =  0.0504 for    1133 Fo > 4sig(Fo)  and  0.0576 for all    1275 data
REM     81 parameters refined using      0 restraints

END

WGHT      0.0000      1.5632

REM Highest difference peak  0.406,  deepest hole -0.406,  1-sigma level  0.085
Q1    1   0.3751  0.3457  0.4331  11.00000  0.05    0.41
Q2    1   0.2125  0.5802  0.3595  11.00000  0.05    0.37
Q3    1   0.3044  0.4365  0.3429  11.00000  0.05    0.36
Q4    1   0.1278  0.2467  0.6476  11.00000  0.05    0.31
Q5    1   0.2069  0.9802  0.2210  11.00000  0.05    0.28
Q6    1   0.3326  0.3368  0.5149  11.00000  0.05    0.27
Q7    1   0.4033  0.1658  0.4930  11.00000  0.05    0.27
Q8    1   0.1279  0.6971  0.3754  11.00000  0.05    0.27
Q9    1   0.5566  0.1968  0.5839  11.00000  0.05    0.26
Q10   1   0.2040  0.4259  0.5183  11.00000  0.05    0.26
Q11   1   0.1648  0.7582  0.2354  11.00000  0.05    0.25
Q12   1   0.5985  0.2066  0.4029  11.00000  0.05    0.25
Q13   1   0.2470  0.5632  0.5240  11.00000  0.05    0.24
Q14   1   0.0925  0.5620  0.3039  11.00000  0.05    0.24
Q15   1   0.2704  0.6964  0.3788  11.00000  0.05    0.23
Q16   1   0.2835  0.6143  0.2982  11.00000  0.05    0.23
Q17   1   0.3894 -0.2629  0.4943  11.00000  0.05    0.22
Q18   1   0.5719  0.2541  0.1980  11.00000  0.05    0.22
Q19   1   0.1923  0.6788  0.4480  11.00000  0.05    0.22
Q20   1   0.1045  0.7703  0.5970  11.00000  0.05    0.22
;
_shelx_res_checksum              79099
loop_
_space_group_symop_operation_xyz
'x, y, z'
'-x, y+1/2, -z+1/2'
'-x, -y, -z'
'x, -y-1/2, z-1/2'
loop_
_atom_site_label
_atom_site_type_symbol
_atom_site_fract_x
_atom_site_fract_y
_atom_site_fract_z
_atom_site_U_iso_or_equiv
_atom_site_adp_type
_atom_site_occupancy
_atom_site_site_symmetry_order
_atom_site_calc_flag
_atom_site_refinement_flags_posn
_atom_site_refinement_flags_adp
_atom_site_refinement_flags_occupancy
_atom_site_disorder_assembly
_atom_site_disorder_group
O1 O 0.4590(5) 0.2602(10) 0.3052(4) 0.0196(10) Uani 0.5 1 d . . P A -1
H1 H 0.496645 0.119548 0.337138 0.029 Uiso 0.5 1 calc R U P A -1
C1 C 0.3694(3) 0.3652(6) 0.3698(3) 0.0137(6) Uani 1 1 d . . . . .
H2 H 0.434210 0.289047 0.322906 0.016 Uiso 0.5 1 calc R U P A 2
C2 C 0.2784(3) 0.5684(7) 0.3273(3) 0.0146(6) Uani 1 1 d . . . . .
H3 H 0.281221 0.632022 0.251760 0.018 Uiso 1 1 calc R U . . .
C3 C 0.1840(3) 0.6765(7) 0.3963(3) 0.0141(6) Uani 1 1 d . . . . .
C4 C 0.1781(3) 0.5903(7) 0.5077(3) 0.0180(7) Uani 1 1 d . . . . .
H4 H 0.113159 0.668040 0.554225 0.022 Uiso 1 1 calc R U . . .
C5 C 0.2695(3) 0.3877(7) 0.5491(3) 0.0178(7) Uani 1 1 d . . . . .
H5 H 0.266618 0.326302 0.624918 0.021 Uiso 1 1 calc R U . . .
C6 C 0.3659(3) 0.2722(6) 0.4814(3) 0.0126(6) Uani 1 1 d . . . . .
Cl1 Cl 0.07060(7) 0.92695(16) 0.34058(7) 0.0184(2) Uani 1 1 d . . . . .
C7 C 0.4601(17) 0.053(4) 0.5257(14) 0.0132(8) Uiso 0.5 1 d . . P B -1
H6 H 0.456776 -0.000669 0.602399 0.016 Uiso 0.5 1 calc R U P B -1
N1 N 0.5452(15) -0.068(3) 0.4671(11) 0.0132(8) Uiso 0.5 1 d . . P B -1
loop_
_atom_site_aniso_label
_atom_site_aniso_U_11
_atom_site_aniso_U_22
_atom_site_aniso_U_33
_atom_site_aniso_U_23
_atom_site_aniso_U_13
_atom_site_aniso_U_12
O1 0.022(2) 0.025(3) 0.013(2) 0.0024(19) 0.0041(17) 0.014(2)
C1 0.0135(13) 0.0123(15) 0.0155(15) 0.0011(12) 0.0021(11) 0.0010(11)
C2 0.0167(14) 0.0152(15) 0.0119(14) 0.0002(12) -0.0004(11) 0.0012(12)
C3 0.0122(13) 0.0104(14) 0.0192(16) -0.0012(12) -0.0042(12) 0.0006(11)
C4 0.0152(14) 0.0209(17) 0.0181(16) -0.0040(13) 0.0035(12) 0.0022(13)
C5 0.0176(15) 0.0213(18) 0.0144(15) 0.0028(13) 0.0002(12) -0.0017(13)
C6 0.0126(13) 0.0106(14) 0.0143(15) 0.0025(11) -0.0014(11) -0.0021(11)
Cl1 0.0163(4) 0.0155(4) 0.0229(4) -0.0035(3) -0.0053(3) 0.0062(3)
loop_
_atom_type_symbol
_atom_type_description
_atom_type_scat_dispersion_real
_atom_type_scat_dispersion_imag
_atom_type_scat_source
C C 0.0033 0.0016 'International Tables Vol C Tables 4.2.6.8 and 6.1.1.4'
H H 0.0000 0.0000 'International Tables Vol C Tables 4.2.6.8 and 6.1.1.4'
Cl Cl 0.1484 0.1585 'International Tables Vol C Tables 4.2.6.8 and 6.1.1.4'
N N 0.0061 0.0033 'International Tables Vol C Tables 4.2.6.8 and 6.1.1.4'
O O 0.0106 0.0060 'International Tables Vol C Tables 4.2.6.8 and 6.1.1.4'
loop_
_geom_angle_atom_site_label_1
_geom_angle_atom_site_label_2
_geom_angle_atom_site_label_3
_geom_angle
_geom_angle_site_symmetry_1
_geom_angle_site_symmetry_3
_geom_angle_publ_flag
C1 O1 H1 109.5 . . ?
O1 C1 C2 119.8(3) . . ?
O1 C1 C6 119.7(3) . . ?
C2 C1 C6 120.5(3) . . ?
C2 C1 H2 119.7 . . ?
C6 C1 H2 119.7 . . ?
C3 C2 C1 119.2(3) . . ?
C3 C2 H3 120.4 . . ?
C1 C2 H3 120.4 . . ?
C2 C3 C4 121.9(3) . . ?
C2 C3 Cl1 118.2(2) . . ?
C4 C3 Cl1 119.9(2) . . ?
C5 C4 C3 118.3(3) . . ?
C5 C4 H4 120.8 . . ?
C3 C4 H4 120.8 . . ?
C4 C5 C6 121.3(3) . . ?
C4 C5 H5 119.3 . . ?
C6 C5 H5 119.3 . . ?
C5 C6 C1 118.8(3) . . ?
C5 C6 C7 120.7(7) . . ?
C1 C6 C7 120.5(7) . . ?
N1 C7 C6 123.5(8) . . ?
N1 C7 H6 118.2 . . ?
C6 C7 H6 118.2 . . ?
loop_
_geom_bond_atom_site_label_1
_geom_bond_atom_site_label_2
_geom_bond_distance
_geom_bond_site_symmetry_2
_geom_bond_publ_flag
O1 C1 1.310(5) . ?
O1 H1 0.8400 . ?
C1 C2 1.393(4) . ?
C1 C6 1.402(4) . ?
C1 H2 0.9500 . ?
C2 C3 1.383(4) . ?
C2 H3 0.9500 . ?
C3 C4 1.392(4) . ?
C3 Cl1 1.738(3) . ?
C4 C5 1.390(4) . ?
C4 H4 0.9500 . ?
C5 C6 1.401(4) . ?
C5 H5 0.9500 . ?
C6 C7 1.472(17) . ?
C7 N1 1.266(6) . ?
C7 H6 0.9500 . ?
loop_
_geom_hbond_atom_site_label_D
_geom_hbond_atom_site_label_H
_geom_hbond_atom_site_label_A
_geom_hbond_distance_DH
_geom_hbond_distance_HA
_geom_hbond_distance_DA
_geom_hbond_angle_DHA
_geom_hbond_site_symmetry_A
_geom_hbond_publ_flag
O1^a H1^a N1^a 0.84 1.82 2.579(15) 148.8 . yes
loop_
_geom_torsion_atom_site_label_1
_geom_torsion_atom_site_label_2
_geom_torsion_atom_site_label_3
_geom_torsion_atom_site_label_4
_geom_torsion
_geom_torsion_site_symmetry_1
_geom_torsion_site_symmetry_2
_geom_torsion_site_symmetry_3
_geom_torsion_site_symmetry_4
_geom_torsion_publ_flag
O1 C1 C2 C3 179.7(4) . . . . ?
C6 C1 C2 C3 -0.4(5) . . . . ?
C1 C2 C3 C4 0.7(5) . . . . ?
C1 C2 C3 Cl1 -179.3(2) . . . . ?
C2 C3 C4 C5 -0.6(5) . . . . ?
Cl1 C3 C4 C5 179.4(2) . . . . ?
C3 C4 C5 C6 0.2(5) . . . . ?
C4 C5 C6 C1 0.2(5) . . . . ?
C4 C5 C6 C7 -178.5(8) . . . . ?
O1 C1 C6 C5 179.8(4) . . . . ?
C2 C1 C6 C5 -0.1(4) . . . . ?
O1 C1 C6 C7 -1.4(9) . . . . ?
C2 C1 C6 C7 178.6(8) . . . . ?
C5 C6 C7 N1 176.7(4) . . . . ?
C1 C6 C7 N1 -2.0(11) . . . . ?
