#------------------------------------------------------------------------------
#$Date: 2020-07-17 23:06:49 +0300 (Fri, 17 Jul 2020) $
#$Revision: 254370 $
#$URL: file:///home/coder/svn-repositories/cod/cif/7/24/08/7240884.cif $
#------------------------------------------------------------------------------
#
# This file is available in the Crystallography Open Database (COD),
# http://www.crystallography.net/
#
# All data on this site have been placed in the public domain by the
# contributors.
#
data_7240884
loop_
_publ_author_name
'Pike, Sarah J.'
'Heliot, Armelle'
'Seaton, Colin C.'
_publ_section_title
;
 ortho-Substituent effect on the crystal packing and solid state
 speciation of aromatic C-nitroso compounds
;
_journal_name_full               CrystEngComm
_journal_paper_doi               10.1039/D0CE00728E
_journal_year                    2020
_chemical_formula_moiety         'C10 H7 N O2'
_chemical_formula_sum            'C10 H7 N O2'
_chemical_formula_weight         173.17
_chemical_name_systematic        1-(hydroxyimino)naphthalen-2(1H)-one
_space_group_crystal_system      monoclinic
_space_group_IT_number           14
_space_group_name_Hall           '-P 2yn'
_space_group_name_H-M_alt        'P 1 21/n 1'
_atom_sites_solution_hydrogens   difmap
_atom_sites_solution_primary     dual
_audit_creation_date             2019-08-19
_audit_creation_method
;
Olex2 1.2
(compiled 2018.05.29 svn.r3510 for OlexSys, GUI svn.r5506)
;
_audit_update_record
;
2020-05-13 deposited with the CCDC.	2020-07-09 downloaded from the CCDC.
;
_cell_angle_alpha                90
_cell_angle_beta                 98.193(3)
_cell_angle_gamma                90
_cell_formula_units_Z            4
_cell_length_a                   5.4498(9)
_cell_length_b                   9.1487(16)
_cell_length_c                   15.499(3)
_cell_measurement_reflns_used    3327
_cell_measurement_temperature    150(2)
_cell_measurement_theta_max      36.22
_cell_measurement_theta_min      2.66
_cell_volume                     764.9(2)
_computing_molecular_graphics    'Olex2 (Dolomanov et al., 2009)'
_computing_publication_material  'Olex2 (Dolomanov et al., 2009)'
_computing_structure_refinement  'ShelXL (Sheldrick, 2015)'
_computing_structure_solution    'ShelXT (Sheldrick, 2015)'
_diffrn_ambient_temperature      150.01
_diffrn_measured_fraction_theta_full 0.996
_diffrn_measured_fraction_theta_max 0.979
_diffrn_measurement_device_type  'Bruker APEX-II CCD'
_diffrn_measurement_method       '\f and \w scans'
_diffrn_radiation_type           MoK\a
_diffrn_radiation_wavelength     0.71073
_diffrn_reflns_av_R_equivalents  0.0329
_diffrn_reflns_av_unetI/netI     0.0335
_diffrn_reflns_Laue_measured_fraction_full 0.996
_diffrn_reflns_Laue_measured_fraction_max 0.979
_diffrn_reflns_limit_h_max       9
_diffrn_reflns_limit_h_min       -8
_diffrn_reflns_limit_k_max       15
_diffrn_reflns_limit_k_min       -14
_diffrn_reflns_limit_l_max       25
_diffrn_reflns_limit_l_min       -24
_diffrn_reflns_number            14400
_diffrn_reflns_point_group_measured_fraction_full 0.996
_diffrn_reflns_point_group_measured_fraction_max 0.979
_diffrn_reflns_theta_full        25.242
_diffrn_reflns_theta_max         36.486
_diffrn_reflns_theta_min         2.655
_diffrn_standards_number         0
_exptl_absorpt_coefficient_mu    0.107
_exptl_absorpt_correction_type   none
_exptl_crystal_colour            orange
_exptl_crystal_density_diffrn    1.504
_exptl_crystal_description       Block
_exptl_crystal_F_000             360
_exptl_crystal_size_max          0.66
_exptl_crystal_size_mid          0.23
_exptl_crystal_size_min          0.13
_refine_diff_density_max         0.476
_refine_diff_density_min         -0.241
_refine_diff_density_rms         0.063
_refine_ls_extinction_method     none
_refine_ls_goodness_of_fit_ref   1.018
_refine_ls_hydrogen_treatment    refall
_refine_ls_matrix_type           full
_refine_ls_number_parameters     146
_refine_ls_number_reflns         3666
_refine_ls_number_restraints     0
_refine_ls_restrained_S_all      1.018
_refine_ls_R_factor_all          0.0786
_refine_ls_R_factor_gt           0.0481
_refine_ls_shift/su_max          0.001
_refine_ls_shift/su_mean         0.000
_refine_ls_structure_factor_coef Fsqd
_refine_ls_weighting_details
'w=1/[\s^2^(Fo^2^)+(0.0828P)^2^+0.1045P] where P=(Fo^2^+2Fc^2^)/3'
_refine_ls_weighting_scheme      calc
_refine_ls_wR_factor_gt          0.1272
_refine_ls_wR_factor_ref         0.1497
_reflns_Friedel_coverage         0.000
_reflns_number_gt                2502
_reflns_number_total             3666
_reflns_threshold_expression     'I > 2\s(I)'
_cod_data_source_file            d0ce00728e2.cif
_cod_data_source_block           sp159_0m
_cod_database_code               7240884
_shelx_shelxl_version_number     2014/7
_shelx_space_group_comment
;
The symmetry employed for this shelxl refinement is uniquely defined
by the following loop, which should always be used as a source of
symmetry information in preference to the above space-group names.
They are only intended as comments.
;
_shelx_estimated_absorpt_t_max   0.986
_shelx_estimated_absorpt_t_min   0.933
_olex2_refinement_description
;
;
_shelx_res_file
;
    sp159_0m.res created by SHELXL-2014/7

TITL sp159_0m_a.res in P2(1)/n
REM Old TITL SP159_0m in P2(1)/n
REM SHELXT solution in P2(1)/n
REM R1 0.107, Rweak 0.002, Alpha 0.018, Orientation as input
REM Formula found by SHELXT: C11 O2
CELL 0.71073 5.4498 9.1487 15.4991 90 98.193 90
ZERR 4 0.0009 0.0016 0.0027 0 0.003 0
LATT 1
SYMM 0.5-X,0.5+Y,0.5-Z
SFAC C H N O
UNIT 40 28 4 8

L.S. 4 0 89
PLAN  20
SIZE 0.13 0.23 0.66
TEMP -123.14
HTAB O1 O2
BOND $H
list 4
fmap 2
acta
REM <olex2.extras>
REM <HklSrc "%./SP159_0m.hkl">
REM </olex2.extras>

WGHT    0.082800    0.104500
FVAR       0.84292
O2    4    0.286796    0.908588    0.439254    11.00000    0.03216    0.02994 =
         0.02204    0.00681    0.00193    0.00394
O1    4    0.642633    0.795912    0.378380    11.00000    0.03592    0.03638 =
         0.02136    0.00730    0.01149    0.00061
N1    3    0.694401    0.712780    0.451566    11.00000    0.02637    0.02760 =
         0.01951    0.00213    0.00859   -0.00162
C6    1    0.607334    0.634809    0.589568    11.00000    0.01624    0.01695 =
         0.01635   -0.00117    0.00378   -0.00106
C2    1    0.340412    0.831172    0.505737    11.00000    0.01970    0.01874 =
         0.01885    0.00014    0.00062   -0.00152
C4    1    0.265145    0.756730    0.650009    11.00000    0.01784    0.02084 =
         0.01974   -0.00202    0.00518    0.00160
C10   1    0.519881    0.566669    0.733610    11.00000    0.02200    0.02173 =
         0.01812    0.00100    0.00555    0.00120
C1    1    0.550144    0.726916    0.511807    11.00000    0.01855    0.01878 =
         0.01671   -0.00108    0.00409   -0.00210
C5    1    0.465446    0.651258    0.657905    11.00000    0.01553    0.01717 =
         0.01598   -0.00157    0.00354   -0.00022
C7    1    0.798274    0.531367    0.598249    11.00000    0.01994    0.02280 =
         0.02341    0.00016    0.00815    0.00348
C9    1    0.710530    0.465735    0.741309    11.00000    0.02350    0.02305 =
         0.02095    0.00223    0.00243    0.00235
C3    1    0.204587    0.841974    0.579163    11.00000    0.01915    0.02062 =
         0.02227   -0.00092    0.00268    0.00267
C8    1    0.848961    0.447584    0.672993    11.00000    0.02187    0.02262 =
         0.02644    0.00091    0.00430    0.00509
H4    2    0.173444    0.762564    0.701440    11.00000    0.02268
H10   2    0.423476    0.581305    0.782765    11.00000    0.02698
H9    2    0.745557    0.405369    0.793128    11.00000    0.03029
H8    2    0.982970    0.375954    0.677581    11.00000    0.03063
H7    2    0.898410    0.515902    0.549767    11.00000    0.03378
H3    2    0.070291    0.913274    0.575685    11.00000    0.03366
H1    2    0.506674    0.847726    0.386038    11.00000    0.05995
HKLF 4

REM  sp159_0m_a.res in P2(1)/n
REM R1 =  0.0481 for    2502 Fo > 4sig(Fo)  and  0.0786 for all    3666 data
REM    146 parameters refined using      0 restraints

END

WGHT      0.0828      0.1045

REM Highest difference peak  0.476,  deepest hole -0.241,  1-sigma level  0.063
Q1    1   0.5023  0.6136  0.6978  11.00000  0.05    0.48
Q2    1   0.5382  0.6392  0.6261  11.00000  0.05    0.46
Q3    1   0.4581  0.7780  0.5037  11.00000  0.05    0.44
Q4    1   0.2489  0.7971  0.6137  11.00000  0.05    0.44
Q5    1   0.7852  0.4587  0.7065  11.00000  0.05    0.44
Q6    1   0.5914  0.6836  0.5543  11.00000  0.05    0.44
Q7    1   0.6002  0.5035  0.7328  11.00000  0.05    0.43
Q8    1   0.2741  0.8337  0.5438  11.00000  0.05    0.43
Q9    1   0.6991  0.5844  0.5954  11.00000  0.05    0.43
Q10   1   0.6062  0.7256  0.4774  11.00000  0.05    0.41
Q11   1   0.8327  0.4892  0.6342  11.00000  0.05    0.41
Q12   1   0.3670  0.6963  0.6573  11.00000  0.05    0.35
Q13   1   0.3060  0.8765  0.4771  11.00000  0.05    0.34
Q14   1   0.7924  0.6670  0.4373  11.00000  0.05    0.26
Q15   1   0.3747  0.5458  0.7591  11.00000  0.05    0.18
Q16   1   0.6518  0.7400  0.4203  11.00000  0.05    0.16
Q17   1   0.3429  0.9032  0.4164  11.00000  0.05    0.16
Q18   1   0.8569  0.5353  0.5890  11.00000  0.05    0.16
Q19   1   0.4927  0.5663  0.7730  11.00000  0.05    0.15
Q20   1   0.7699  0.8311  0.3608  11.00000  0.05    0.15
;
_shelx_res_checksum              6251
_olex2_submission_special_instructions 'No special instructions were received'
loop_
_space_group_symop_operation_xyz
'x, y, z'
'-x+1/2, y+1/2, -z+1/2'
'-x, -y, -z'
'x-1/2, -y-1/2, z-1/2'
loop_
_atom_site_label
_atom_site_type_symbol
_atom_site_fract_x
_atom_site_fract_y
_atom_site_fract_z
_atom_site_U_iso_or_equiv
_atom_site_adp_type
_atom_site_occupancy
_atom_site_site_symmetry_order
_atom_site_calc_flag
_atom_site_refinement_flags_posn
_atom_site_refinement_flags_adp
_atom_site_refinement_flags_occupancy
_atom_site_disorder_assembly
_atom_site_disorder_group
O2 O 0.28680(15) 0.90859(9) 0.43925(5) 0.02823(18) Uani 1 1 d . . . . .
O1 O 0.64263(17) 0.79591(10) 0.37838(5) 0.0305(2) Uani 1 1 d . . . . .
N1 N 0.69440(17) 0.71278(10) 0.45157(6) 0.02398(18) Uani 1 1 d . . . . .
C6 C 0.60733(16) 0.63481(10) 0.58957(5) 0.01637(16) Uani 1 1 d . . . . .
C2 C 0.34041(17) 0.83117(10) 0.50574(6) 0.01930(17) Uani 1 1 d . . . . .
C4 C 0.26515(17) 0.75673(11) 0.65001(6) 0.01923(17) Uani 1 1 d . . . . .
C10 C 0.51988(18) 0.56667(11) 0.73361(6) 0.02036(18) Uani 1 1 d . . . . .
C1 C 0.55014(16) 0.72692(10) 0.51181(6) 0.01786(17) Uani 1 1 d . . . . .
C5 C 0.46545(15) 0.65126(10) 0.65791(6) 0.01610(16) Uani 1 1 d . . . . .
C7 C 0.79827(17) 0.53137(11) 0.59825(6) 0.02156(19) Uani 1 1 d . . . . .
C9 C 0.71053(18) 0.46574(11) 0.74131(6) 0.02257(19) Uani 1 1 d . . . . .
C3 C 0.20459(17) 0.84197(11) 0.57916(6) 0.02070(18) Uani 1 1 d . . . . .
C8 C 0.84896(18) 0.44758(12) 0.67299(7) 0.0236(2) Uani 1 1 d . . . . .
H4 H 0.173(2) 0.7626(16) 0.7014(9) 0.023(3) Uiso 1 1 d . . . . .
H10 H 0.423(3) 0.5813(15) 0.7828(9) 0.027(3) Uiso 1 1 d . . . . .
H9 H 0.746(3) 0.4054(17) 0.7931(10) 0.030(4) Uiso 1 1 d . . . . .
H8 H 0.983(3) 0.3760(17) 0.6776(9) 0.031(4) Uiso 1 1 d . . . . .
H7 H 0.898(3) 0.5159(17) 0.5498(10) 0.034(4) Uiso 1 1 d . . . . .
H3 H 0.070(3) 0.9133(17) 0.5757(10) 0.034(4) Uiso 1 1 d . . . . .
H1 H 0.507(4) 0.848(2) 0.3860(13) 0.060(6) Uiso 1 1 d . . . . .
loop_
_atom_site_aniso_label
_atom_site_aniso_U_11
_atom_site_aniso_U_22
_atom_site_aniso_U_33
_atom_site_aniso_U_23
_atom_site_aniso_U_13
_atom_site_aniso_U_12
O2 0.0322(4) 0.0299(4) 0.0220(3) 0.0068(3) 0.0019(3) 0.0039(3)
O1 0.0359(4) 0.0364(4) 0.0214(3) 0.0073(3) 0.0115(3) 0.0006(3)
N1 0.0264(4) 0.0276(4) 0.0195(4) 0.0021(3) 0.0086(3) -0.0016(3)
C6 0.0162(3) 0.0170(4) 0.0163(3) -0.0012(3) 0.0038(3) -0.0011(3)
C2 0.0197(4) 0.0187(4) 0.0188(4) 0.0001(3) 0.0006(3) -0.0015(3)
C4 0.0178(4) 0.0208(4) 0.0197(4) -0.0020(3) 0.0052(3) 0.0016(3)
C10 0.0220(4) 0.0217(4) 0.0181(4) 0.0010(3) 0.0055(3) 0.0012(3)
C1 0.0185(4) 0.0188(4) 0.0167(4) -0.0011(3) 0.0041(3) -0.0021(3)
C5 0.0155(3) 0.0172(4) 0.0160(3) -0.0016(3) 0.0035(3) -0.0002(3)
C7 0.0199(4) 0.0228(4) 0.0234(4) 0.0002(3) 0.0082(3) 0.0035(3)
C9 0.0235(4) 0.0230(4) 0.0209(4) 0.0022(3) 0.0024(3) 0.0023(3)
C3 0.0191(4) 0.0206(4) 0.0223(4) -0.0009(3) 0.0027(3) 0.0027(3)
C8 0.0219(4) 0.0226(4) 0.0264(4) 0.0009(4) 0.0043(3) 0.0051(3)
loop_
_atom_type_symbol
_atom_type_description
_atom_type_scat_dispersion_real
_atom_type_scat_dispersion_imag
_atom_type_scat_source
C C 0.0033 0.0016 'International Tables Vol C Tables 4.2.6.8 and 6.1.1.4'
H H 0.0000 0.0000 'International Tables Vol C Tables 4.2.6.8 and 6.1.1.4'
N N 0.0061 0.0033 'International Tables Vol C Tables 4.2.6.8 and 6.1.1.4'
O O 0.0106 0.0060 'International Tables Vol C Tables 4.2.6.8 and 6.1.1.4'
loop_
_geom_angle_atom_site_label_1
_geom_angle_atom_site_label_2
_geom_angle_atom_site_label_3
_geom_angle
_geom_angle_site_symmetry_1
_geom_angle_site_symmetry_3
_geom_angle_publ_flag
N1 O1 H1 105.1(13) . . ?
C1 N1 O1 117.68(9) . . ?
C5 C6 C1 118.83(8) . . ?
C7 C6 C1 122.39(8) . . ?
C7 C6 C5 118.79(8) . . ?
O2 C2 C1 120.31(8) . . ?
O2 C2 C3 121.60(9) . . ?
C3 C2 C1 118.08(8) . . ?
C5 C4 H4 115.1(8) . . ?
C3 C4 C5 123.21(8) . . ?
C3 C4 H4 121.7(8) . . ?
C5 C10 H10 119.7(8) . . ?
C9 C10 C5 120.52(8) . . ?
C9 C10 H10 119.8(8) . . ?
N1 C1 C6 116.74(8) . . ?
N1 C1 C2 123.67(9) . . ?
C6 C1 C2 119.58(8) . . ?
C6 C5 C4 119.76(8) . . ?
C10 C5 C6 119.88(8) . . ?
C10 C5 C4 120.36(8) . . ?
C6 C7 H7 120.1(9) . . ?
C8 C7 C6 120.82(8) . . ?
C8 C7 H7 119.1(9) . . ?
C10 C9 C8 119.68(9) . . ?
C10 C9 H9 120.5(9) . . ?
C8 C9 H9 119.8(9) . . ?
C2 C3 H3 117.8(9) . . ?
C4 C3 C2 120.50(9) . . ?
C4 C3 H3 121.7(9) . . ?
C7 C8 C9 120.30(9) . . ?
C7 C8 H8 119.4(9) . . ?
C9 C8 H8 120.3(9) . . ?
loop_
_geom_bond_atom_site_label_1
_geom_bond_atom_site_label_2
_geom_bond_distance
_geom_bond_site_symmetry_2
_geom_bond_publ_flag
O2 C2 1.2502(12) . ?
O1 N1 1.3614(12) . ?
O1 H1 0.90(2) . ?
N1 C1 1.3099(12) . ?
C6 C1 1.4672(13) . ?
C6 C5 1.4056(12) . ?
C6 C7 1.3988(13) . ?
C2 C1 1.4814(14) . ?
C2 C3 1.4467(13) . ?
C4 C5 1.4490(13) . ?
C4 C3 1.3489(14) . ?
C4 H4 1.001(13) . ?
C10 C5 1.4016(13) . ?
C10 C9 1.3824(14) . ?
C10 H10 0.994(14) . ?
C7 C8 1.3837(14) . ?
C7 H7 1.000(15) . ?
C9 C8 1.3948(14) . ?
C9 H9 0.971(15) . ?
C3 H3 0.976(16) . ?
C8 H8 0.976(15) . ?
loop_
_geom_hbond_atom_site_label_D
_geom_hbond_atom_site_label_H
_geom_hbond_atom_site_label_A
_geom_hbond_distance_DH
_geom_hbond_distance_HA
_geom_hbond_distance_DA
_geom_hbond_angle_DHA
_geom_hbond_site_symmetry_A
O1 H1 O2 0.90(2) 1.65(2) 2.4970(12) 156.2(19) .
