#------------------------------------------------------------------------------
#$Date: 2020-06-04 04:46:27 +0300 (Thu, 04 Jun 2020) $
#$Revision: 252629 $
#$URL: file:///home/coder/svn-repositories/cod/cif/7/24/06/7240619.cif $
#------------------------------------------------------------------------------
#
# This file is available in the Crystallography Open Database (COD),
# http://www.crystallography.net/
#
# All data on this site have been placed in the public domain by the
# contributors.
#
data_7240619
loop_
_publ_author_name
'Gugin, Nikita'
'Presypkina, Eugenia V.'
'Virovets, Alexander Viktorovich'
'Davydova, Elena I.'
'Timoshkin, Alexey Y.'
_publ_section_title
;
 Structural Variety of Aluminium and Gallium Coordination Polymers Based
 on Bis-pyridylethylene: From Molecular Complexes to Ionic Networks
;
_journal_name_full               CrystEngComm
_journal_paper_doi               10.1039/D0CE00541J
_journal_year                    2020
_chemical_formula_moiety         'C12 H10 Br6 Ga2 N2, C12 H10 N2'
_chemical_formula_sum            'C24 H20 Br6 Ga2 N4'
_chemical_formula_weight         983.34
_chemical_properties_physical    Air-sensitive,Moisture-sensitive
_space_group_crystal_system      triclinic
_space_group_IT_number           2
_space_group_name_Hall           '-P 1'
_space_group_name_H-M_alt        'P -1'
_atom_sites_solution_hydrogens   geom
_audit_creation_method           SHELXL-2014/7
_audit_update_record
;
2020-02-17 deposited with the CCDC.	2020-06-03 downloaded from the CCDC.
;
_cell_angle_alpha                79.201(3)
_cell_angle_beta                 84.350(3)
_cell_angle_gamma                76.670(3)
_cell_formula_units_Z            1
_cell_length_a                   7.5187(3)
_cell_length_b                   8.8335(3)
_cell_length_c                   11.7115(5)
_cell_measurement_reflns_used    5925
_cell_measurement_temperature    123(2)
_cell_measurement_theta_max      74.0630
_cell_measurement_theta_min      5.1990
_cell_volume                     742.23(5)
_computing_cell_refinement       'CrysAlisPro 1.171.38.46 (Rigaku OD, 2015)'
_computing_data_collection       'CrysAlisPro 1.171.38.46 (Rigaku OD, 2015)'
_computing_data_reduction        'CrysAlisPro 1.171.38.46 (Rigaku OD, 2015)'
_computing_structure_refinement  'SHELXL-2014/7 (Sheldrick, 2014)'
_computing_structure_solution    'SHELXT (Sheldrick, 2014)'
_diffrn_ambient_environment      N~2~
_diffrn_ambient_temperature      123(2)
_diffrn_detector                 'CCD plate'
_diffrn_detector_area_resol_mean 4.2047
_diffrn_detector_type            TitanS2
_diffrn_measured_fraction_theta_full 1.000
_diffrn_measured_fraction_theta_max 0.994
_diffrn_measurement_device_type  'Rigaku Oxford Diffraction SuperNova'
_diffrn_measurement_method       '\w scans'
_diffrn_radiation_type           CuK\a
_diffrn_radiation_wavelength     1.54178
_diffrn_reflns_av_R_equivalents  0.0247
_diffrn_reflns_av_unetI/netI     0.0229
_diffrn_reflns_Laue_measured_fraction_full 1.000
_diffrn_reflns_Laue_measured_fraction_max 0.994
_diffrn_reflns_limit_h_max       6
_diffrn_reflns_limit_h_min       -9
_diffrn_reflns_limit_k_max       10
_diffrn_reflns_limit_k_min       -11
_diffrn_reflns_limit_l_max       13
_diffrn_reflns_limit_l_min       -14
_diffrn_reflns_number            8330
_diffrn_reflns_point_group_measured_fraction_full 1.000
_diffrn_reflns_point_group_measured_fraction_max 0.994
_diffrn_reflns_theta_full        67.500
_diffrn_reflns_theta_max         74.008
_diffrn_reflns_theta_min         3.849
_diffrn_source_type              'microfocus SuperNova source'
_exptl_absorpt_coefficient_mu    11.862
_exptl_absorpt_correction_T_max  0.683
_exptl_absorpt_correction_T_min  0.546
_exptl_absorpt_correction_type   gaussian
_exptl_absorpt_process_details
;
CrysAlisPro 1.171.38.46 (Rigaku Oxford Diffraction, 2015)
Numerical absorption correction based on gaussian integration over
			a multifaceted crystal model
Empirical absorption correction using spherical harmonics,
 implemented in SCALE3 ABSPACK scaling algorithm.
;
_exptl_crystal_colour            colourless
_exptl_crystal_density_diffrn    2.200
_exptl_crystal_description       plate
_exptl_crystal_F_000             464
_exptl_crystal_recrystallization_method Sublimation
_exptl_crystal_size_max          0.093
_exptl_crystal_size_mid          0.071
_exptl_crystal_size_min          0.050
_refine_diff_density_max         0.337
_refine_diff_density_min         -0.532
_refine_diff_density_rms         0.084
_refine_ls_extinction_method     none
_refine_ls_goodness_of_fit_ref   0.967
_refine_ls_hydrogen_treatment    constr
_refine_ls_matrix_type           full
_refine_ls_number_parameters     163
_refine_ls_number_reflns         2999
_refine_ls_number_restraints     0
_refine_ls_restrained_S_all      0.967
_refine_ls_R_factor_all          0.0232
_refine_ls_R_factor_gt           0.0198
_refine_ls_shift/su_max          0.002
_refine_ls_shift/su_mean         0.000
_refine_ls_structure_factor_coef Fsqd
_refine_ls_weighting_details
'w=1/[\s^2^(Fo^2^)+(0.0341P)^2^] where P=(Fo^2^+2Fc^2^)/3'
_refine_ls_weighting_scheme      calc
_refine_ls_wR_factor_gt          0.0487
_refine_ls_wR_factor_ref         0.0494
_reflns_Friedel_coverage         0.000
_reflns_number_gt                2660
_reflns_number_total             2999
_reflns_threshold_expression     'I > 2\s(I)'
_cod_data_source_file            d0ce00541j2.cif
_cod_data_source_block           ayt67
_cod_database_code               7240619
_shelx_shelxl_version_number     2014/7
_shelx_space_group_comment
;
The symmetry employed for this shelxl refinement is uniquely defined
by the following loop, which should always be used as a source of
symmetry information in preference to the above space-group names.
They are only intended as comments.
;
_shelx_estimated_absorpt_t_min   0.405
_shelx_estimated_absorpt_t_max   0.588
_shelx_res_file
;

    67.res created by SHELXL-2014/7

TITL ayt67 in P-1   at 123K newGV no err model
CELL 1.54178   7.51873   8.83352  11.71146  79.2007  84.3500  76.6699
ZERR    1.00   0.00026   0.00029   0.00045   0.0030   0.0030   0.0029
LATT  1
SFAC C H N GA BR
UNIT 24 20 4 2 6

TEMP -150

SIZE 0.093 0.071 0.050

L.S. 10
PLAN  10
BOND $H
FMAP 2
ACTA 135
WGHT    0.034100
FVAR       0.17848
BR1   5    0.686638    0.529772    1.127467    11.00000    0.03118    0.02319 =
         0.02174   -0.00637    0.00160   -0.00395
BR2   5    1.077963    0.160183    1.145034    11.00000    0.02359    0.02749 =
         0.02931   -0.00060   -0.00604   -0.00479
BR3   5    0.602853    0.126600    1.089191    11.00000    0.02398    0.02553 =
         0.03156    0.00128    0.00047   -0.01055
GA1   4    0.804684    0.291790    1.065939    11.00000    0.02030    0.01888 =
         0.01640   -0.00098    0.00108   -0.00514
N1    3    0.866049    0.344321    0.896510    11.00000    0.02267    0.01870 =
         0.01878   -0.00309    0.00177   -0.00682
C1    1    0.792818    0.482728    0.831816    11.00000    0.02275    0.01971 =
         0.02106   -0.00257    0.00019   -0.00208
AFIX  43
H1    2    0.708096    0.559593    0.868078    11.00000   -1.20000
AFIX   0
C2    1    0.837045    0.516726    0.713971    11.00000    0.02844    0.02263 =
         0.01983   -0.00128   -0.00150   -0.00284
AFIX  43
H2    2    0.783705    0.615988    0.670183    11.00000   -1.20000
AFIX   0
C3    1    0.960720    0.404318    0.659436    11.00000    0.02392    0.02230 =
         0.01943   -0.00421   -0.00019   -0.00860
C4    1    1.034499    0.260656    0.728086    11.00000    0.03222    0.02111 =
         0.02366   -0.00677    0.00528   -0.00559
AFIX  43
H4    2    1.117927    0.180843    0.693966    11.00000   -1.20000
AFIX   0
C5    1    0.986325    0.234958    0.844861    11.00000    0.03170    0.01895 =
         0.02341   -0.00290    0.00294   -0.00421
AFIX  43
H5    2    1.039087    0.137288    0.890907    11.00000   -1.20000
AFIX   0
C6    1    1.019192    0.430849    0.535206    11.00000    0.02531    0.02592 =
         0.01964   -0.00725    0.00110   -0.00572
AFIX  43
H6    2    1.089238    0.343050    0.503073    11.00000   -1.20000
AFIX   0

N2    3    0.757953   -0.045342    0.525735    11.00000    0.02788    0.02529 =
         0.03678   -0.00630   -0.00528   -0.00213
C7    1    0.641637   -0.003322    0.614195    11.00000    0.02993    0.02590 =
         0.03035    0.00175   -0.00625   -0.00526
AFIX  43
H7    2    0.614143   -0.084568    0.674203    11.00000   -1.20000
AFIX   0
C8    1    0.558835    0.151672    0.623530    11.00000    0.02663    0.02998 =
         0.02332   -0.00106   -0.00057   -0.00451
AFIX  43
H8    2    0.480343    0.174568    0.689651    11.00000   -1.20000
AFIX   0
C9    1    0.591551    0.274001    0.535081    11.00000    0.02454    0.02335 =
         0.02196   -0.00379   -0.00213   -0.00518
C10   1    0.714098    0.230803    0.442606    11.00000    0.03055    0.02494 =
         0.02504   -0.00559    0.00049   -0.00721
AFIX  43
H10   2    0.742717    0.308896    0.380376    11.00000   -1.20000
AFIX   0
C11   1    0.792623    0.073214    0.443209    11.00000    0.03059    0.02968 =
         0.03144   -0.01090    0.00139   -0.00488
AFIX  43
H11   2    0.877428    0.046863    0.380562    11.00000   -1.20000
AFIX   0
C12   1    0.497764    0.437526    0.541713    11.00000    0.02650    0.02715 =
         0.02237   -0.00733    0.00114   -0.00389
AFIX  43
H12   2    0.427537    0.456149    0.611676    11.00000   -1.20000

AFIX   0
HKLF 4

REM  ayt67 in P-1   at 123K newGV no err model
REM R1 =  0.0198 for    2660 Fo > 4sig(Fo)  and  0.0232 for all    2999 data
REM    163 parameters refined using      0 restraints

END

WGHT      0.0341      0.0000

REM Highest difference peak  0.337,  deepest hole -0.532,  1-sigma level  0.084
Q1    1   0.7526  0.4168  1.0593  11.00000  0.05    0.34
Q2    1   0.7689  0.3992  1.1376  11.00000  0.05    0.33
Q3    1   0.5668  0.2112  0.5749  11.00000  0.05    0.33
Q4    1   0.6086  0.3030  1.2125  11.00000  0.05    0.32
Q5    1   1.0790  0.3159  1.1214  11.00000  0.05    0.31
Q6    1   0.7943  0.4202  0.2834  11.00000  0.05    0.30
Q7    1   0.6794  0.2303  1.0643  11.00000  0.05    0.30
Q8    1   0.6987  0.3835  1.1446  11.00000  0.05    0.29
Q9    1   0.6689  0.2596  0.4902  11.00000  0.05    0.29
Q10   1   1.1000  0.1790  1.0630  11.00000  0.05    0.29
;
_shelx_res_checksum              86956
loop_
_space_group_symop_operation_xyz
'x, y, z'
'-x, -y, -z'
loop_
_atom_site_label
_atom_site_type_symbol
_atom_site_fract_x
_atom_site_fract_y
_atom_site_fract_z
_atom_site_U_iso_or_equiv
_atom_site_adp_type
_atom_site_occupancy
_atom_site_site_symmetry_order
_atom_site_calc_flag
_atom_site_refinement_flags_posn
_atom_site_refinement_flags_adp
_atom_site_refinement_flags_occupancy
_atom_site_disorder_assembly
_atom_site_disorder_group
Br1 Br 0.68664(3) 0.52977(3) 1.12747(2) 0.02557(7) Uani 1 1 d . . . . .
Br2 Br 1.07796(3) 0.16018(3) 1.14503(2) 0.02717(7) Uani 1 1 d . . . . .
Br3 Br 0.60285(3) 0.12660(3) 1.08919(2) 0.02712(7) Uani 1 1 d . . . . .
Ga1 Ga 0.80468(3) 0.29179(3) 1.06594(2) 0.01880(7) Uani 1 1 d . . . . .
N1 N 0.8660(2) 0.3443(2) 0.89651(16) 0.0199(3) Uani 1 1 d . . . . .
C1 C 0.7928(3) 0.4827(3) 0.83182(19) 0.0218(4) Uani 1 1 d . . . . .
H1 H 0.7081 0.5596 0.8681 0.026 Uiso 1 1 calc R U . . .
C2 C 0.8370(3) 0.5167(3) 0.7140(2) 0.0244(4) Uani 1 1 d . . . . .
H2 H 0.7837 0.6160 0.6702 0.029 Uiso 1 1 calc R U . . .
C3 C 0.9607(3) 0.4043(3) 0.65944(19) 0.0213(4) Uani 1 1 d . . . . .
C4 C 1.0345(3) 0.2607(3) 0.7281(2) 0.0258(5) Uani 1 1 d . . . . .
H4 H 1.1179 0.1808 0.6940 0.031 Uiso 1 1 calc R U . . .
C5 C 0.9863(3) 0.2350(3) 0.8449(2) 0.0253(4) Uani 1 1 d . . . . .
H5 H 1.0391 0.1373 0.8909 0.030 Uiso 1 1 calc R U . . .
C6 C 1.0192(3) 0.4308(3) 0.5352(2) 0.0233(4) Uani 1 1 d . . . . .
H6 H 1.0892 0.3431 0.5031 0.028 Uiso 1 1 calc R U . . .
N2 N 0.7580(3) -0.0453(3) 0.5257(2) 0.0302(4) Uani 1 1 d . . . . .
C7 C 0.6416(3) -0.0033(3) 0.6142(2) 0.0294(5) Uani 1 1 d . . . . .
H7 H 0.6141 -0.0846 0.6742 0.035 Uiso 1 1 calc R U . . .
C8 C 0.5588(3) 0.1517(3) 0.6235(2) 0.0274(5) Uani 1 1 d . . . . .
H8 H 0.4803 0.1746 0.6897 0.033 Uiso 1 1 calc R U . . .
C9 C 0.5916(3) 0.2740(3) 0.5351(2) 0.0232(4) Uani 1 1 d . . . . .
C10 C 0.7141(3) 0.2308(3) 0.4426(2) 0.0266(5) Uani 1 1 d . . . . .
H10 H 0.7427 0.3089 0.3804 0.032 Uiso 1 1 calc R U . . .
C11 C 0.7926(3) 0.0732(3) 0.4432(2) 0.0303(5) Uani 1 1 d . . . . .
H11 H 0.8774 0.0469 0.3806 0.036 Uiso 1 1 calc R U . . .
C12 C 0.4978(3) 0.4375(3) 0.5417(2) 0.0254(5) Uani 1 1 d . . . . .
H12 H 0.4275 0.4561 0.6117 0.031 Uiso 1 1 calc R U . . .
loop_
_atom_site_aniso_label
_atom_site_aniso_U_11
_atom_site_aniso_U_22
_atom_site_aniso_U_33
_atom_site_aniso_U_23
_atom_site_aniso_U_13
_atom_site_aniso_U_12
Br1 0.03118(12) 0.02319(12) 0.02174(12) -0.00637(9) 0.00160(9) -0.00395(9)
Br2 0.02359(12) 0.02749(13) 0.02931(13) -0.00060(9) -0.00604(9) -0.00479(9)
Br3 0.02398(11) 0.02553(13) 0.03156(13) 0.00128(9) 0.00047(9) -0.01055(9)
Ga1 0.02030(13) 0.01888(13) 0.01640(13) -0.00098(10) 0.00108(9) -0.00514(10)
N1 0.0227(8) 0.0187(9) 0.0188(8) -0.0031(7) 0.0018(7) -0.0068(7)
C1 0.0228(10) 0.0197(10) 0.0211(10) -0.0026(8) 0.0002(8) -0.0021(8)
C2 0.0284(10) 0.0226(11) 0.0198(10) -0.0013(8) -0.0015(8) -0.0028(9)
C3 0.0239(10) 0.0223(11) 0.0194(10) -0.0042(8) -0.0002(8) -0.0086(8)
C4 0.0322(11) 0.0211(11) 0.0237(11) -0.0068(9) 0.0053(9) -0.0056(9)
C5 0.0317(11) 0.0189(10) 0.0234(11) -0.0029(8) 0.0029(9) -0.0042(9)
C6 0.0253(10) 0.0259(11) 0.0196(10) -0.0072(8) 0.0011(8) -0.0057(8)
N2 0.0279(10) 0.0253(10) 0.0368(11) -0.0063(9) -0.0053(8) -0.0021(8)
C7 0.0299(11) 0.0259(12) 0.0303(12) 0.0017(9) -0.0062(9) -0.0053(9)
C8 0.0266(11) 0.0300(12) 0.0233(11) -0.0011(9) -0.0006(9) -0.0045(9)
C9 0.0245(10) 0.0233(11) 0.0220(10) -0.0038(9) -0.0021(8) -0.0052(8)
C10 0.0306(11) 0.0249(12) 0.0250(11) -0.0056(9) 0.0005(9) -0.0072(9)
C11 0.0306(11) 0.0297(12) 0.0314(12) -0.0109(10) 0.0014(9) -0.0049(9)
C12 0.0265(10) 0.0272(12) 0.0224(10) -0.0073(9) 0.0011(8) -0.0039(9)
loop_
_atom_type_symbol
_atom_type_description
_atom_type_scat_dispersion_real
_atom_type_scat_dispersion_imag
_atom_type_scat_source
C C 0.0181 0.0091 'International Tables Vol C Tables 4.2.6.8 and 6.1.1.4'
H H 0.0000 0.0000 'International Tables Vol C Tables 4.2.6.8 and 6.1.1.4'
N N 0.0311 0.0180 'International Tables Vol C Tables 4.2.6.8 and 6.1.1.4'
Ga Ga -1.2846 0.7763 'International Tables Vol C Tables 4.2.6.8 and 6.1.1.4'
Br Br -0.6763 1.2805 'International Tables Vol C Tables 4.2.6.8 and 6.1.1.4'
loop_
_geom_angle_atom_site_label_1
_geom_angle_atom_site_label_2
_geom_angle_atom_site_label_3
_geom_angle
_geom_angle_site_symmetry_1
_geom_angle_site_symmetry_3
_geom_angle_publ_flag
Br2 Ga1 Br1 113.247(14) . . ?
Br3 Ga1 Br1 114.307(14) . . ?
Br3 Ga1 Br2 110.431(14) . . ?
N1 Ga1 Br1 105.84(5) . . ?
N1 Ga1 Br2 104.96(5) . . ?
N1 Ga1 Br3 107.32(5) . . ?
C1 N1 Ga1 122.79(15) . . ?
C1 N1 C5 119.05(19) . . ?
C5 N1 Ga1 118.16(15) . . ?
N1 C1 H1 119.1 . . ?
N1 C1 C2 121.9(2) . . ?
C2 C1 H1 119.1 . . ?
C1 C2 H2 120.2 . . ?
C1 C2 C3 119.6(2) . . ?
C3 C2 H2 120.2 . . ?
C2 C3 C6 123.6(2) . . ?
C4 C3 C2 117.6(2) . . ?
C4 C3 C6 118.7(2) . . ?
C3 C4 H4 120.1 . . ?
C5 C4 C3 119.8(2) . . ?
C5 C4 H4 120.1 . . ?
N1 C5 C4 122.0(2) . . ?
N1 C5 H5 119.0 . . ?
C4 C5 H5 119.0 . . ?
C3 C6 H6 117.8 . . ?
C6 C6 C3 124.5(3) 2_766 . ?
C6 C6 H6 117.8 2_766 . ?
C7 N2 C11 115.9(2) . . ?
N2 C7 H7 118.0 . . ?
N2 C7 C8 124.0(2) . . ?
C8 C7 H7 118.0 . . ?
C7 C8 H8 120.2 . . ?
C7 C8 C9 119.6(2) . . ?
C9 C8 H8 120.2 . . ?
C8 C9 C10 116.7(2) . . ?
C8 C9 C12 119.9(2) . . ?
C10 C9 C12 123.4(2) . . ?
C9 C10 H10 120.5 . . ?
C11 C10 C9 119.1(2) . . ?
C11 C10 H10 120.5 . . ?
N2 C11 C10 124.8(2) . . ?
N2 C11 H11 117.6 . . ?
C10 C11 H11 117.6 . . ?
C9 C12 H12 117.1 . . ?
C12 C12 C9 125.8(3) 2_666 . ?
C12 C12 H12 117.1 2_666 . ?
loop_
_geom_bond_atom_site_label_1
_geom_bond_atom_site_label_2
_geom_bond_distance
_geom_bond_site_symmetry_2
_geom_bond_publ_flag
Br1 Ga1 2.3038(3) . ?
Br2 Ga1 2.3024(3) . ?
Br3 Ga1 2.3015(3) . ?
Ga1 N1 1.9847(18) . ?
N1 C1 1.340(3) . ?
N1 C5 1.351(3) . ?
C1 H1 0.9500 . ?
C1 C2 1.381(3) . ?
C2 H2 0.9500 . ?
C2 C3 1.398(3) . ?
C3 C4 1.395(3) . ?
C3 C6 1.469(3) . ?
C4 H4 0.9500 . ?
C4 C5 1.370(3) . ?
C5 H5 0.9500 . ?
C6 C6 1.328(5) 2_766 ?
C6 H6 0.9500 . ?
N2 C7 1.339(3) . ?
N2 C11 1.340(4) . ?
C7 H7 0.9500 . ?
C7 C8 1.387(4) . ?
C8 H8 0.9500 . ?
C8 C9 1.398(3) . ?
C9 C10 1.401(3) . ?
C9 C12 1.467(3) . ?
C10 H10 0.9500 . ?
C10 C11 1.380(4) . ?
C11 H11 0.9500 . ?
C12 C12 1.334(5) 2_666 ?
C12 H12 0.9500 . ?
