#------------------------------------------------------------------------------
#$Date: 2020-09-10 04:43:01 +0300 (Thu, 10 Sep 2020) $
#$Revision: 256291 $
#$URL: file:///home/coder/svn-repositories/cod/cif/7/24/12/7241200.cif $
#------------------------------------------------------------------------------
#
# This file is available in the Crystallography Open Database (COD),
# http://www.crystallography.net/
#
# All data on this site have been placed in the public domain by the
# contributors.
#
data_7241200
loop_
_publ_author_name
'Rok, Magdalena'
'Moskwa, Marcin'
'Dopieralski, Przemyslaw'
'Medycki, Wojciech'
'Zamponi, Michaela'
'Bator, Grazyna'
_publ_section_title
;
 The influence of structure on the methyl group dynamics of the
 polymorphic complexes: 6,6'-dimethyl-2,2'-dipyridyl with halo derivatives
 of benzoquinone acids
;
_journal_name_full               CrystEngComm
_journal_paper_doi               10.1039/D0CE00973C
_journal_year                    2020
_chemical_formula_moiety         'C12 H13 N2, 0.5(C6 I2 O4), 0.5(C6 H2 I2 O4)'
_chemical_formula_sum            'C18 H14 I2 N2 O4'
_chemical_formula_weight         576.11
_space_group_crystal_system      triclinic
_space_group_IT_number           2
_space_group_name_Hall           '-P 1'
_space_group_name_H-M_alt        'P -1'
_atom_sites_solution_hydrogens   mixed
_atom_sites_solution_primary     direct
_atom_sites_solution_secondary   difmap
_audit_creation_method           SHELXL-2014/7
_audit_update_record
;
2020-06-15 deposited with the CCDC.	2020-09-09 downloaded from the CCDC.
;
_cell_angle_alpha                110.26(2)
_cell_angle_beta                 92.56(2)
_cell_angle_gamma                113.13(2)
_cell_formula_units_Z            2
_cell_length_a                   10.026(2)
_cell_length_b                   10.281(2)
_cell_length_c                   10.526(2)
_cell_measurement_reflns_used    12873
_cell_measurement_temperature    100(2)
_cell_measurement_theta_max      36.8300
_cell_measurement_theta_min      3.3840
_cell_volume                     915.3(4)
_computing_cell_refinement
;
CrysAlisPro, Agilent Technologies,
Version 1.171.37.35 (release 13-08-2014 CrysAlis171 .NET)
(compiled Aug 13 2014,18:06:01)
;
_computing_data_collection
;
CrysAlisPro, Agilent Technologies,
Version 1.171.37.35 (release 13-08-2014 CrysAlis171 .NET)
(compiled Aug 13 2014,18:06:01)
;
_computing_data_reduction
;
CrysAlisPro, Agilent Technologies,
Version 1.171.37.35 (release 13-08-2014 CrysAlis171 .NET)
(compiled Aug 13 2014,18:06:01)
;
_computing_structure_refinement  'SHELXL-2014/7 (Sheldrick, 2014)'
_computing_structure_solution    'SHELXL-2014/7 (Sheldrick, 2014)'
_diffrn_ambient_temperature      100(2)
_diffrn_detector_area_resol_mean 8.3359
_diffrn_measured_fraction_theta_full 0.998
_diffrn_measured_fraction_theta_max 0.998
_diffrn_measurement_device_type  'Xcalibur, Sapphire2, large Be window'
_diffrn_measurement_method       '\w scans'
_diffrn_radiation_type           MoK\a
_diffrn_radiation_wavelength     0.71073
_diffrn_reflns_av_R_equivalents  0.0231
_diffrn_reflns_av_unetI/netI     0.0195
_diffrn_reflns_Laue_measured_fraction_full 0.998
_diffrn_reflns_Laue_measured_fraction_max 0.998
_diffrn_reflns_limit_h_max       12
_diffrn_reflns_limit_h_min       -11
_diffrn_reflns_limit_k_max       10
_diffrn_reflns_limit_k_min       -12
_diffrn_reflns_limit_l_max       12
_diffrn_reflns_limit_l_min       -12
_diffrn_reflns_number            10778
_diffrn_reflns_point_group_measured_fraction_full 0.998
_diffrn_reflns_point_group_measured_fraction_max 0.998
_diffrn_reflns_theta_full        25.499
_diffrn_reflns_theta_max         25.499
_diffrn_reflns_theta_min         3.399
_diffrn_source                   'Enhance (Mo) X-ray Source'
_exptl_absorpt_coefficient_mu    3.462
_exptl_absorpt_correction_T_max  0.711
_exptl_absorpt_correction_T_min  0.555
_exptl_absorpt_correction_type   analytical
_exptl_absorpt_process_details
;
CrysAlisPro, Agilent Technologies,
Version 1.171.37.35 (release 13-08-2014 CrysAlis171 .NET)
(compiled Aug 13 2014,18:06:01)
Analytical numeric absorption correction using a multifaceted crystal
			model based on expressions derived by R.C. Clark & J.S. Reid.
(Clark, R. C. & Reid, J. S. (1995). Acta Cryst. A51, 887-897)
Empirical absorption correction using spherical harmonics,
 implemented in SCALE3 ABSPACK scaling algorithm.
;
_exptl_crystal_colour            red
_exptl_crystal_density_diffrn    2.090
_exptl_crystal_density_meas      ?
_exptl_crystal_description       block
_exptl_crystal_F_000             548
_exptl_crystal_size_max          0.260
_exptl_crystal_size_mid          0.180
_exptl_crystal_size_min          0.150
_refine_diff_density_max         0.834
_refine_diff_density_min         -0.436
_refine_diff_density_rms         0.112
_refine_ls_extinction_method     none
_refine_ls_goodness_of_fit_ref   1.067
_refine_ls_hydrogen_treatment    constr
_refine_ls_matrix_type           full
_refine_ls_number_parameters     237
_refine_ls_number_reflns         3402
_refine_ls_number_restraints     0
_refine_ls_restrained_S_all      1.067
_refine_ls_R_factor_all          0.0205
_refine_ls_R_factor_gt           0.0193
_refine_ls_shift/su_max          0.001
_refine_ls_shift/su_mean         0.000
_refine_ls_structure_factor_coef Fsqd
_refine_ls_weighting_details
'w=1/[\s^2^(Fo^2^)+(0.0327P)^2^+0.6412P] where P=(Fo^2^+2Fc^2^)/3'
_refine_ls_weighting_scheme      calc
_refine_ls_wR_factor_gt          0.0531
_refine_ls_wR_factor_ref         0.0541
_reflns_Friedel_coverage         0.000
_reflns_number_gt                3239
_reflns_number_total             3402
_reflns_threshold_expression     'I > 2\s(I)'
_cod_data_source_file            d0ce00973c2.cif
_cod_data_source_block           3a
_cod_depositor_comments
;
The following automatic conversions were performed:

data item '_exptl_crystal_density_meas' value 'not measured' was
changed to '?' -- the value is perceived as not measured.

Automatic conversion script
Id: cif_fix_values 7556 2019-12-06 15:28:31Z antanas 
;
_cod_original_cell_volume        915(4)
_cod_database_code               7241200
_shelx_shelxl_version_number     2014/7
_shelx_space_group_comment
;
The symmetry employed for this shelxl refinement is uniquely defined
by the following loop, which should always be used as a source of
symmetry information in preference to the above space-group names.
They are only intended as comments.
;
_shelx_estimated_absorpt_t_min   0.466
_shelx_estimated_absorpt_t_max   0.625
_shelx_res_file
;

    3a.res created by SHELXL-2014/7


TITL 3.res in P-1
CELL  0.71073  10.026  10.281  10.526  110.26   92.56  113.13
ZERR    2.000   0.002   0.002   0.002    0.02    0.02    0.02
LATT  1
SFAC C H N O I
UNIT 36 28 4 8 4
L.S. 10
BOND $H
LIST 6
FMAP 2
PLAN 20
ACTA 51
OMIT 0 51
SIZE 0.15 0.18 0.26
TEMP -173
MPLA 6 n21 c22 c23 c24 c25 c26 c27
MPLA 6 n11 c12 c13 c14 c15 c16 c17
MPLA 6 c1a c2a c3a c1a_$2 c2a_$2 c3a_$2 o2a o2a_$2 o3a o3a_$2 i1a i1a_$2
MPLA 6 c1b c2b c3b c1b_$3 c2b_$3 c3b_$3 o2b o2b_$3 o3b o3b_$3 i1b i1b_$3
HTAB 1.9
EQIV $1 x, y, z-1
HTAB C15 I1A_$1
HTAB C23 O3A
HTAB N11 O3A
EQIV $2 -x+1, -y+1, -z+1
HTAB N11 O2A_$2
HTAB O3B O2A
EQIV $3 -x+2, -y+1, -z+2
HTAB O3B O2B_$3

WGHT    0.032700    0.641200
FVAR       3.06287
I1A   5    0.381658    0.150987    0.549567    11.00000    0.01578    0.01314 =
         0.01373    0.00680    0.00423    0.00601
C1A   1    0.450149    0.357555    0.521269    11.00000    0.01303    0.01112 =
         0.01442    0.00676    0.00296    0.00462
O2A   4    0.656052    0.491213    0.709949    11.00000    0.01522    0.01739 =
         0.01347    0.00722   -0.00281    0.00494
C2A   1    0.575781    0.485963    0.613094    11.00000    0.01153    0.01269 =
         0.01329    0.00628    0.00404    0.00633
O3A   4    0.275302    0.243668    0.311856    11.00000    0.01412    0.01275 =
         0.01353    0.00369   -0.00147    0.00241
C3A   1    0.376723    0.357652    0.404651    11.00000    0.00956    0.01243 =
         0.01252    0.00589    0.00316    0.00442
I1B   5    0.762426    0.516764    1.238570    11.00000    0.01323    0.01815 =
         0.01262    0.00761    0.00523    0.00760
C1B   1    0.897886    0.502520    1.094901    11.00000    0.01503    0.01369 =
         0.01410    0.00854    0.00739    0.00813
O2B   4    1.116051    0.625434    1.269174    11.00000    0.01557    0.02501 =
         0.01136    0.00588    0.00204    0.00840
C2B   1    1.057223    0.563827    1.147060    11.00000    0.01546    0.01090 =
         0.01240    0.00475    0.00144    0.00603
O3B   4    0.701048    0.395401    0.905052    11.00000    0.01167    0.02254 =
         0.01298    0.00813    0.00143    0.00726
AFIX   3
H3B   2    0.686292    0.384531    0.816272    11.00000   -1.50000
AFIX   0
C3B   1    0.843636    0.447689    0.958056    11.00000    0.01253    0.01135 =
         0.01465    0.00618    0.00426    0.00583
N11   3    0.123503    0.223413    0.071709    11.00000    0.00996    0.01240 =
         0.01015    0.00327   -0.00078    0.00331
AFIX   3
H11   2    0.180733    0.260719    0.156032    11.00000   -1.20000
AFIX   0
C12   1   -0.026352    0.176638    0.052347    11.00000    0.01170    0.00790 =
         0.01566    0.00608    0.00338    0.00320
C13   1   -0.106686    0.109852   -0.082651    11.00000    0.01026    0.01451 =
         0.01275    0.00497   -0.00042    0.00300
AFIX  43
H13   2   -0.210903    0.077165   -0.099648    11.00000   -1.20000
AFIX   0
C14   1   -0.035731    0.090875   -0.191922    11.00000    0.01487    0.01425 =
         0.01213    0.00511   -0.00142    0.00211
AFIX  43
H14   2   -0.091431    0.043956   -0.284143    11.00000   -1.20000
AFIX   0
C15   1    0.116705    0.139872   -0.168196    11.00000    0.01731    0.01150 =
         0.01157    0.00504    0.00563    0.00638
AFIX  43
H15   2    0.165699    0.126109   -0.243573    11.00000   -1.20000
AFIX   0
C16   1    0.196752    0.209407   -0.032522    11.00000    0.01222    0.00965 =
         0.01460    0.00519    0.00293    0.00386
C17   1    0.361645    0.268634    0.004331    11.00000    0.01058    0.01987 =
         0.01779    0.00571    0.00420    0.00389
AFIX 137
H17A  2    0.406485    0.379692    0.060391    11.00000   -1.50000
H17B  2    0.400636    0.248921   -0.080561    11.00000   -1.50000
H17C  2    0.385721    0.216048    0.057282    11.00000   -1.50000
AFIX   0
N21   3   -0.246563    0.114334    0.140278    11.00000    0.01278    0.01313 =
         0.01368    0.00592    0.00207    0.00532
C22   1   -0.096769    0.196158    0.173706    11.00000    0.01177    0.01176 =
         0.01363    0.00603    0.00190    0.00465
C23   1   -0.018030    0.289198    0.308933    11.00000    0.01370    0.01557 =
         0.01450    0.00567    0.00249    0.00530
AFIX  43
H23   2    0.086216    0.349494    0.328433    11.00000   -1.20000
AFIX   0
C24   1   -0.095764    0.291633    0.414632    11.00000    0.01999    0.01901 =
         0.01083    0.00386    0.00046    0.00799
AFIX  43
H24   2   -0.044908    0.351302    0.508530    11.00000   -1.20000
AFIX   0
C25   1   -0.247615    0.206628    0.382211    11.00000    0.01831    0.01901 =
         0.01361    0.00794    0.00731    0.00963
AFIX  43
H25   2   -0.302391    0.206082    0.453530    11.00000   -1.20000
AFIX   0
C26   1   -0.320332    0.120963    0.242764    11.00000    0.01465    0.01345 =
         0.01434    0.00749    0.00392    0.00717
C27   1   -0.486651    0.033347    0.201688    11.00000    0.01249    0.02306 =
         0.01669    0.00855    0.00477    0.00604
AFIX 137
H27A  2   -0.516114   -0.028303    0.101666    11.00000   -1.50000
H27B  2   -0.530953    0.106083    0.225469    11.00000   -1.50000
H27C  2   -0.521194   -0.034797    0.251179    11.00000   -1.50000

AFIX   0
HKLF 4

REM  3.res in P-1
REM R1 =  0.0193 for    3239 Fo > 4sig(Fo)  and  0.0205 for all    3402 data
REM    237 parameters refined using      0 restraints

END

WGHT      0.0326      0.6616

REM Instructions for potential hydrogen bonds
HTAB O3B O2A
HTAB N11 O2A_$2
HTAB N11 O3A
HTAB C15 I1A_$1
HTAB C23 O3A

REM Highest difference peak  0.834,  deepest hole -0.436,  1-sigma level  0.112
Q1    1   0.4713  0.1824  0.6632  11.00000  0.05    0.83
Q2    1   0.5922  0.5601  0.6045  11.00000  0.05    0.53
Q3    1  -0.0174  0.2041  0.1344  11.00000  0.05    0.52
Q4    1  -0.0832  0.1815  0.0181  11.00000  0.05    0.50
Q5    1   0.4748  0.1471  0.5478  11.00000  0.05    0.46
Q6    1   0.7168  0.5678  1.1832  11.00000  0.05    0.45
Q7    1   0.2607  0.2454 -0.0196  11.00000  0.05    0.44
Q8    1   0.7627  0.4027  0.9322  11.00000  0.05    0.42
Q9    1   0.2907  0.1513  0.5694  11.00000  0.05    0.42
Q10   1   0.8877  0.4491  0.9108  11.00000  0.05    0.42
Q11   1  -0.4129  0.0666  0.2220  11.00000  0.05    0.40
Q12   1   0.0327  0.2187  0.0571  11.00000  0.05    0.40
Q13   1  -0.1520  0.0618 -0.3044  11.00000  0.05    0.39
Q14   1   0.8031  0.4773  1.2828  11.00000  0.05    0.39
Q15   1   0.0000  0.0000 -0.5000  10.50000  0.05    0.38
Q16   1   0.8460  0.5044  1.2386  11.00000  0.05    0.38
Q17   1  -0.1051 -0.1186 -0.3827  11.00000  0.05    0.37
Q18   1  -0.1340  0.1239  0.0767  11.00000  0.05    0.36
Q19   1   0.3027  0.3066  0.3786  11.00000  0.05    0.36
Q20   1   0.7210  0.5224  0.7060  11.00000  0.05    0.36
;
_shelx_res_checksum              80785
loop_
_space_group_symop_operation_xyz
'x, y, z'
'-x, -y, -z'
loop_
_atom_site_label
_atom_site_type_symbol
_atom_site_fract_x
_atom_site_fract_y
_atom_site_fract_z
_atom_site_U_iso_or_equiv
_atom_site_adp_type
_atom_site_occupancy
_atom_site_site_symmetry_order
_atom_site_calc_flag
_atom_site_refinement_flags_posn
_atom_site_refinement_flags_adp
_atom_site_refinement_flags_occupancy
_atom_site_disorder_assembly
_atom_site_disorder_group
I1A I 0.38166(2) 0.15099(2) 0.54957(2) 0.01384(7) Uani 1 1 d . . . . .
C1A C 0.4501(3) 0.3576(3) 0.5213(3) 0.0126(5) Uani 1 1 d . . . . .
O2A O 0.6561(2) 0.4912(2) 0.70995(19) 0.0160(4) Uani 1 1 d . . . . .
C2A C 0.5758(3) 0.4860(3) 0.6131(3) 0.0118(5) Uani 1 1 d . . . . .
O3A O 0.27530(19) 0.2437(2) 0.31186(19) 0.0153(4) Uani 1 1 d . . . . .
C3A C 0.3767(3) 0.3577(3) 0.4047(3) 0.0113(5) Uani 1 1 d . . . . .
I1B I 0.76243(2) 0.51676(2) 1.23857(2) 0.01386(7) Uani 1 1 d . . . . .
C1B C 0.8979(3) 0.5025(3) 1.0949(3) 0.0126(5) Uani 1 1 d . . . . .
O2B O 1.1161(2) 0.6254(2) 1.26917(19) 0.0179(4) Uani 1 1 d . . . . .
C2B C 1.0572(3) 0.5638(3) 1.1471(3) 0.0128(5) Uani 1 1 d . . . . .
O3B O 0.7010(2) 0.3954(2) 0.90505(19) 0.0155(4) Uani 1 1 d . . . . .
H3B H 0.6863 0.3845 0.8163 0.023 Uiso 1 1 d R U . . .
C3B C 0.8436(3) 0.4477(3) 0.9581(3) 0.0123(5) Uani 1 1 d . . . . .
N11 N 0.1235(2) 0.2234(2) 0.0717(2) 0.0118(4) Uani 1 1 d . . . . .
H11 H 0.1807 0.2607 0.1560 0.014 Uiso 1 1 d R U . . .
C12 C -0.0264(3) 0.1766(3) 0.0523(3) 0.0117(5) Uani 1 1 d . . . . .
C13 C -0.1067(3) 0.1099(3) -0.0827(3) 0.0136(5) Uani 1 1 d . . . . .
H13 H -0.2109 0.0772 -0.0996 0.016 Uiso 1 1 calc R U . . .
C14 C -0.0357(3) 0.0909(3) -0.1919(3) 0.0154(5) Uani 1 1 d . . . . .
H14 H -0.0914 0.0440 -0.2841 0.018 Uiso 1 1 calc R U . . .
C15 C 0.1167(3) 0.1399(3) -0.1682(3) 0.0132(5) Uani 1 1 d . . . . .
H15 H 0.1657 0.1261 -0.2436 0.016 Uiso 1 1 calc R U . . .
C16 C 0.1968(3) 0.2094(3) -0.0325(3) 0.0123(5) Uani 1 1 d . . . . .
C17 C 0.3616(3) 0.2686(3) 0.0043(3) 0.0175(6) Uani 1 1 d . . . . .
H17A H 0.4065 0.3797 0.0604 0.026 Uiso 1 1 calc R U . . .
H17B H 0.4006 0.2489 -0.0806 0.026 Uiso 1 1 calc R U . . .
H17C H 0.3857 0.2160 0.0573 0.026 Uiso 1 1 calc R U . . .
N21 N -0.2466(2) 0.1143(2) 0.1403(2) 0.0132(4) Uani 1 1 d . . . . .
C22 C -0.0968(3) 0.1962(3) 0.1737(3) 0.0123(5) Uani 1 1 d . . . . .
C23 C -0.0180(3) 0.2892(3) 0.3089(3) 0.0151(5) Uani 1 1 d . . . . .
H23 H 0.0862 0.3495 0.3284 0.018 Uiso 1 1 calc R U . . .
C24 C -0.0958(3) 0.2916(3) 0.4146(3) 0.0175(6) Uani 1 1 d . . . . .
H24 H -0.0449 0.3513 0.5085 0.021 Uiso 1 1 calc R U . . .
C25 C -0.2476(3) 0.2066(3) 0.3822(3) 0.0159(6) Uani 1 1 d . . . . .
H25 H -0.3024 0.2061 0.4535 0.019 Uiso 1 1 calc R U . . .
C26 C -0.3203(3) 0.1210(3) 0.2428(3) 0.0132(5) Uani 1 1 d . . . . .
C27 C -0.4867(3) 0.0333(3) 0.2017(3) 0.0177(6) Uani 1 1 d . . . . .
H27A H -0.5161 -0.0283 0.1017 0.027 Uiso 1 1 calc R U . . .
H27B H -0.5310 0.1061 0.2255 0.027 Uiso 1 1 calc R U . . .
H27C H -0.5212 -0.0348 0.2512 0.027 Uiso 1 1 calc R U . . .
loop_
_atom_site_aniso_label
_atom_site_aniso_U_11
_atom_site_aniso_U_22
_atom_site_aniso_U_33
_atom_site_aniso_U_23
_atom_site_aniso_U_13
_atom_site_aniso_U_12
I1A 0.01578(10) 0.01314(10) 0.01373(10) 0.00680(7) 0.00423(7) 0.00601(7)
C1A 0.0130(12) 0.0111(12) 0.0144(12) 0.0068(10) 0.0030(10) 0.0046(10)
O2A 0.0152(9) 0.0174(9) 0.0135(9) 0.0072(8) -0.0028(7) 0.0049(8)
C2A 0.0115(12) 0.0127(12) 0.0133(12) 0.0063(10) 0.0040(10) 0.0063(10)
O3A 0.0141(9) 0.0128(9) 0.0135(9) 0.0037(7) -0.0015(7) 0.0024(7)
C3A 0.0096(12) 0.0124(12) 0.0125(12) 0.0059(10) 0.0032(10) 0.0044(10)
I1B 0.01323(10) 0.01815(11) 0.01262(10) 0.00761(8) 0.00523(7) 0.00760(8)
C1B 0.0150(13) 0.0137(12) 0.0141(12) 0.0085(10) 0.0074(10) 0.0081(10)
O2B 0.0156(9) 0.0250(10) 0.0114(9) 0.0059(8) 0.0020(8) 0.0084(8)
C2B 0.0155(13) 0.0109(12) 0.0124(12) 0.0047(10) 0.0014(10) 0.0060(10)
O3B 0.0117(9) 0.0225(10) 0.0130(9) 0.0081(8) 0.0014(7) 0.0073(8)
C3B 0.0125(12) 0.0114(12) 0.0147(13) 0.0062(10) 0.0043(10) 0.0058(10)
N11 0.0100(10) 0.0124(10) 0.0101(10) 0.0033(9) -0.0008(8) 0.0033(8)
C12 0.0117(12) 0.0079(11) 0.0157(13) 0.0061(10) 0.0034(10) 0.0032(10)
C13 0.0103(12) 0.0145(13) 0.0128(12) 0.0050(11) -0.0004(10) 0.0030(10)
C14 0.0149(13) 0.0142(13) 0.0121(13) 0.0051(11) -0.0014(10) 0.0021(10)
C15 0.0173(13) 0.0115(12) 0.0116(12) 0.0050(10) 0.0056(10) 0.0064(10)
C16 0.0122(12) 0.0097(12) 0.0146(13) 0.0052(10) 0.0029(10) 0.0039(10)
C17 0.0106(13) 0.0199(14) 0.0178(13) 0.0057(11) 0.0042(11) 0.0039(11)
N21 0.0128(11) 0.0131(11) 0.0137(11) 0.0059(9) 0.0021(9) 0.0053(9)
C22 0.0118(12) 0.0118(12) 0.0136(13) 0.0060(10) 0.0019(10) 0.0047(10)
C23 0.0137(12) 0.0156(13) 0.0145(13) 0.0057(11) 0.0025(10) 0.0053(11)
C24 0.0200(14) 0.0190(14) 0.0108(13) 0.0039(11) 0.0005(11) 0.0080(11)
C25 0.0183(14) 0.0190(14) 0.0136(13) 0.0079(11) 0.0073(11) 0.0096(11)
C26 0.0147(13) 0.0134(12) 0.0143(13) 0.0075(11) 0.0039(10) 0.0072(10)
C27 0.0125(13) 0.0231(15) 0.0167(14) 0.0086(12) 0.0048(11) 0.0060(11)
loop_
_atom_type_symbol
_atom_type_description
_atom_type_scat_dispersion_real
_atom_type_scat_dispersion_imag
_atom_type_scat_source
C C 0.0033 0.0016 'International Tables Vol C Tables 4.2.6.8 and 6.1.1.4'
H H 0.0000 0.0000 'International Tables Vol C Tables 4.2.6.8 and 6.1.1.4'
N N 0.0061 0.0033 'International Tables Vol C Tables 4.2.6.8 and 6.1.1.4'
O O 0.0106 0.0060 'International Tables Vol C Tables 4.2.6.8 and 6.1.1.4'
I I -0.4742 1.8119 'International Tables Vol C Tables 4.2.6.8 and 6.1.1.4'
loop_
_geom_angle_atom_site_label_1
_geom_angle_atom_site_label_2
_geom_angle_atom_site_label_3
_geom_angle
_geom_angle_site_symmetry_1
_geom_angle_site_symmetry_3
_geom_angle_publ_flag
C2A C1A C3A 122.9(2) . . ?
C2A C1A I1A 118.20(18) . . ?
C3A C1A I1A 118.61(18) . . ?
O2A C2A C1A 127.1(2) . . ?
O2A C2A C3A 114.8(2) . 2_666 ?
C1A C2A C3A 118.1(2) . 2_666 ?
O3A C3A C1A 125.9(2) . . ?
O3A C3A C2A 115.7(2) . 2_666 ?
C1A C3A C2A 118.4(2) . 2_666 ?
C3B C1B C2B 120.1(2) . . ?
C3B C1B I1B 121.68(19) . . ?
C2B C1B I1B 118.09(19) . . ?
O2B C2B C1B 124.1(2) . . ?
O2B C2B C3B 117.8(2) . 2_767 ?
C1B C2B C3B 118.1(2) . 2_767 ?
C3B O3B H3B 111.6 . . ?
O3B C3B C1B 122.9(2) . . ?
O3B C3B C2B 115.5(2) . 2_767 ?
C1B C3B C2B 121.6(2) . 2_767 ?
C16 N11 C12 123.6(2) . . ?
C16 N11 H11 114.2 . . ?
C12 N11 H11 122.1 . . ?
N11 C12 C13 117.8(2) . . ?
N11 C12 C22 119.5(2) . . ?
C13 C12 C22 122.7(2) . . ?
C14 C13 C12 120.2(2) . . ?
C14 C13 H13 119.9 . . ?
C12 C13 H13 119.9 . . ?
C13 C14 C15 120.4(2) . . ?
C13 C14 H14 119.8 . . ?
C15 C14 H14 119.8 . . ?
C14 C15 C16 119.1(2) . . ?
C14 C15 H15 120.5 . . ?
C16 C15 H15 120.5 . . ?
N11 C16 C15 119.0(2) . . ?
N11 C16 C17 117.7(2) . . ?
C15 C16 C17 123.3(2) . . ?
C16 C17 H17A 109.5 . . ?
C16 C17 H17B 109.5 . . ?
H17A C17 H17B 109.5 . . ?
C16 C17 H17C 109.5 . . ?
H17A C17 H17C 109.5 . . ?
H17B C17 H17C 109.5 . . ?
C26 N21 C22 118.1(2) . . ?
N21 C22 C23 123.0(2) . . ?
N21 C22 C12 113.4(2) . . ?
C23 C22 C12 123.5(2) . . ?
C24 C23 C22 118.1(2) . . ?
C24 C23 H23 120.9 . . ?
C22 C23 H23 120.9 . . ?
C25 C24 C23 119.3(3) . . ?
C25 C24 H24 120.3 . . ?
C23 C24 H24 120.3 . . ?
C24 C25 C26 119.2(3) . . ?
C24 C25 H25 120.4 . . ?
C26 C25 H25 120.4 . . ?
N21 C26 C25 122.0(2) . . ?
N21 C26 C27 116.7(2) . . ?
C25 C26 C27 121.3(2) . . ?
C26 C27 H27A 109.5 . . ?
C26 C27 H27B 109.5 . . ?
H27A C27 H27B 109.5 . . ?
C26 C27 H27C 109.5 . . ?
H27A C27 H27C 109.5 . . ?
H27B C27 H27C 109.5 . . ?
loop_
_geom_bond_atom_site_label_1
_geom_bond_atom_site_label_2
_geom_bond_distance
_geom_bond_site_symmetry_2
_geom_bond_publ_flag
I1A C1A 2.093(3) . ?
C1A C2A 1.402(4) . ?
C1A C3A 1.403(4) . ?
O2A C2A 1.243(3) . ?
C2A C3A 1.569(3) 2_666 ?
O3A C3A 1.242(3) . ?
C3A C2A 1.569(3) 2_666 ?
I1B C1B 2.083(3) . ?
C1B C3B 1.347(4) . ?
C1B C2B 1.463(4) . ?
O2B C2B 1.215(3) . ?
C2B C3B 1.525(4) 2_767 ?
O3B C3B 1.327(3) . ?
O3B H3B 0.9000 . ?
C3B C2B 1.525(4) 2_767 ?
N11 C16 1.345(3) . ?
N11 C12 1.366(3) . ?
N11 H11 0.9000 . ?
C12 C13 1.388(4) . ?
C12 C22 1.478(4) . ?
C13 C14 1.376(4) . ?
C13 H13 0.9500 . ?
C14 C15 1.388(4) . ?
C14 H14 0.9500 . ?
C15 C16 1.391(4) . ?
C15 H15 0.9500 . ?
C16 C17 1.498(4) . ?
C17 H17A 0.9800 . ?
C17 H17B 0.9800 . ?
C17 H17C 0.9800 . ?
N21 C26 1.332(3) . ?
N21 C22 1.357(3) . ?
C22 C23 1.388(4) . ?
C23 C24 1.385(4) . ?
C23 H23 0.9500 . ?
C24 C25 1.378(4) . ?
C24 H24 0.9500 . ?
C25 C26 1.402(4) . ?
C25 H25 0.9500 . ?
C26 C27 1.505(4) . ?
C27 H27A 0.9800 . ?
C27 H27B 0.9800 . ?
C27 H27C 0.9800 . ?
loop_
_geom_hbond_atom_site_label_D
_geom_hbond_atom_site_label_H
_geom_hbond_atom_site_label_A
_geom_hbond_distance_DH
_geom_hbond_distance_HA
_geom_hbond_distance_DA
_geom_hbond_angle_DHA
_geom_hbond_site_symmetry_A
C15 H15 I1A 0.95 3.14 4.074(3) 167.6 1_554
C23 H23 O3A 0.95 2.52 3.155(3) 124.7 .
N11 H11 O3A 0.90 1.95 2.791(3) 154.5 .
N11 H11 O2A 0.90 2.28 2.925(3) 128.4 2_666
O3B H3B O2A 0.90 1.90 2.657(3) 139.8 .
O3B H3B O2B 0.90 2.24 2.666(3) 108.8 2_767
