#------------------------------------------------------------------------------
#$Date: 2021-02-05 00:57:58 +0200 (Fri, 05 Feb 2021) $
#$Revision: 261600 $
#$URL: file:///home/coder/svn-repositories/cod/cif/7/24/19/7241950.cif $
#------------------------------------------------------------------------------
#
# This file is available in the Crystallography Open Database (COD),
# http://www.crystallography.net/
#
# All data on this site have been placed in the public domain by the
# contributors.
#
data_7241950
loop_
_publ_author_name
'Funnell, Nicholas P.'
'Allan, David R.'
'Maloney, Andrew G. P.'
'Smith, Ronald I.'
'Wilson, Cameron J. G.'
'Parsons, Simon'
_publ_section_title
;
 Suppression of isotopic polymorphism
;
_journal_issue                   4
_journal_name_full               CrystEngComm
_journal_page_first              769
_journal_page_last               776
_journal_paper_doi               10.1039/D0CE01636E
_journal_volume                  23
_journal_year                    2021
_chemical_compound_source        'Sigma Aldrich'
_chemical_formula_moiety         'C12 H8 Cl5 N1 O1'
_chemical_formula_sum            'C12 H8 Cl5 N O'
_chemical_formula_weight         359.47
_space_group_IT_number           2
_space_group_name_Hall           '-P 1'
_space_group_name_H-M_alt        'P -1'
_symmetry_cell_setting           triclinic
_symmetry_space_group_name_Hall  '-P 1'
_symmetry_space_group_name_H-M   'P -1'
_atom_sites_solution_hydrogens   geom
_atom_sites_solution_primary     geom
_audit_update_record
;
2020-11-10 deposited with the CCDC.	2020-12-21 downloaded from the CCDC.
;
_cell_angle_alpha                100.090(11)
_cell_angle_beta                 117.346(7)
_cell_angle_gamma                104.142(8)
_cell_formula_units_Z            2
_cell_length_a                   7.30140(3)
_cell_length_b                   8.70170(7)
_cell_length_c                   13.23390(7)
_cell_measurement_pressure       0.57
_cell_measurement_reflns_used    1007
_cell_measurement_temperature    293
_cell_measurement_theta_max      22.44
_cell_measurement_theta_min      2.79
_cell_volume                     682.70(9)
_computing_cell_refinement       'I19 - Diamond Light source'
_computing_data_collection       'I19 - Diamond Light source'
_computing_data_reduction        'Apex2 (Bruker AXS, 2006)'
_computing_publication_material  'CRYSTALS (Betteridge et al., 2003)'
_computing_structure_refinement  'CRYSTALS (Betteridge et al., 2003)'
_computing_structure_solution    'User-supplied coordinates'
_diffrn_ambient_temperature      293
_diffrn_measured_fraction_theta_full 0.299
_diffrn_measured_fraction_theta_max 0.285
_diffrn_measurement_device       Area
_diffrn_measurement_device_type  Synchrotron
_diffrn_measurement_method       \w/2\q
_diffrn_radiation_monochromator  'focussing mirrors'
_diffrn_radiation_type           synchrotron
_diffrn_radiation_wavelength     0.68890
_diffrn_reflns_av_R_equivalents  0.000
_diffrn_reflns_av_unetI/netI     0.044
_diffrn_reflns_limit_h_max       6
_diffrn_reflns_limit_h_min       -8
_diffrn_reflns_limit_k_max       7
_diffrn_reflns_limit_k_min       -4
_diffrn_reflns_limit_l_max       12
_diffrn_reflns_limit_l_min       0
_diffrn_reflns_number            560
_diffrn_reflns_theta_full        17.817
_diffrn_reflns_theta_max         22.553
_diffrn_reflns_theta_min         2.789
_diffrn_standards_number         0
_exptl_absorpt_coefficient_mu    0.948
_exptl_absorpt_correction_T_max  0.91
_exptl_absorpt_correction_T_min  0.71
_exptl_absorpt_correction_type   multi-scan
_exptl_absorpt_process_details   'SADABS (Siemens, 1996)'
_exptl_crystal_colour            colourless
_exptl_crystal_density_diffrn    1.749
_exptl_crystal_density_meas      ?
_exptl_crystal_density_method    'not measured'
_exptl_crystal_description       block
_exptl_crystal_F_000             360
_exptl_crystal_size_max          0.200
_exptl_crystal_size_mid          0.200
_exptl_crystal_size_min          0.100
_refine_diff_density_max         0.49
_refine_diff_density_min         -0.56
_refine_ls_extinction_method     None
_refine_ls_goodness_of_fit_ref   1.9981
_refine_ls_hydrogen_treatment    constr
_refine_ls_matrix_type           full
_refine_ls_number_parameters     77
_refine_ls_number_reflns         555
_refine_ls_number_restraints     108
_refine_ls_R_factor_all          0.1378
_refine_ls_R_factor_gt           0.1187
_refine_ls_shift/su_max          0.0000742
_refine_ls_shift/su_mean         0.0000118
_refine_ls_structure_factor_coef Fsqd
_refine_ls_weighting_details
;
 Method= Modified Sheldrick 
 w=1/[\s^2^(F^2^) + ( 0.20P)^2^ + 0.00P] 
 ,where P=(max(Fo^2^,0) + 2Fc^2^)/3 
;
_refine_ls_weighting_scheme      calc
_refine_ls_wR_factor_all         0.4324
_refine_ls_wR_factor_gt          0.4062
_refine_ls_wR_factor_ref         0.4324
_reflns_limit_h_max              6
_reflns_limit_h_min              -8
_reflns_limit_k_max              7
_reflns_limit_k_min              -4
_reflns_limit_l_max              12
_reflns_limit_l_min              0
_reflns_number_gt                432
_reflns_number_total             560
_reflns_threshold_expression     I>2.0\s(I)
_oxford_diffrn_Wilson_B_factor   2.93
_oxford_diffrn_Wilson_scale      0.08
_oxford_refine_ls_r_factor_ref   0.1378
_oxford_refine_ls_scale          4.3(8)
_oxford_reflns_number_all        555
_iucr_refine_instructions_details
;
#
# Punched on 08/10/20 at 15:38:00
#
#LIST     12                                                                    
BLOCK 
CONT SCALE 
CONT CL    (     2 ,X'S,U[ISO])  UNTIL C    (    16 ) 
RIDE O   (   1,X'S) H   (  11,X'S) 
RIDE C   (  11,X'S) H   ( 111,X'S) 
RIDE C   (  12,X'S) H   ( 121,X'S) 
RIDE C   (  14,X'S) H   ( 141,X'S) 
RIDE C   (  15,X'S) H   ( 151,X'S) 
RIDE C   (  16,X'S) H   ( 161,X'S) H   ( 162,X'S) H   ( 163,X'S) 
END                                                                             
#
# Punched on 08/10/20 at 15:38:00
#
#LIST     16                                                                    
NO 
REM   HREST   START (DO NOT REMOVE THIS LINE) 
REM NO H  NO #H U MULT   DIST 
REM C-H 
REM >4           1.5    .96 DISORDER 
REM 1      1     1.2    .93 C C-H (ACETYLENE) 
REM 1      2     1.2    .93 C-C(H)-C 
REM 1      3     1.2    .98 (C)3-C-H 
REM 2      1     1.2    .93 C=C-H(2) 
REM 2      2     1.2    .97 (C)2-C-(H)2 
REM 3      1     1.5    .96 C-C-(H)3 
REM N-H 
REM >4           1.5    .89 DISORDER 
REM 1      1     1.2    .86 N-N/H 
REM 1      2     1.2    .86 (C)2-N-H 
REM 1      3     1.2    .89 (C)3-N-H 
REM 2      1     1.2    .86 C-N-(H)2 
REM 2      2     1.2    .89 (C)2-N-(H)2 
REM 3      1     1.2    .89 C-H-(H)3 
REM O-H 
REM 1      1     1.5    .82 O-H 
REM 
REM DIST      ESD = 0.02 
REM VIB       ESD = 0.002 
REM ANGLE     ESD = 2.0 
REM 
REM TO ACTIVATE THE VIB RESTRAINTS, REMOVE LEADING REM 
REM       H ON O-HETRO ATOM 
DIST 0.82, 0.02 = 
CONT O ( 1) TO H(11) 
REST 0.060, 0.002 = H(11,U[ISO]) 
REM   HREST   END (DO NOT REMOVE THIS LINE) 
DISTANCE 1.409000 , 0.050000 = C(1) TO C(2) 
DISTANCE 1.409000 , 0.050000 = C(1) TO C(6) 
DISTANCE 1.385000 , 0.050000 = C(2) TO C(3) 
DISTANCE 1.385000 , 0.050000 = C(5) TO C(6) 
DISTANCE 1.393000 , 0.050000 = C(3) TO C(4) 
DISTANCE 1.393000 , 0.050000 = C(4) TO C(5) 
DISTANCE 1.332000 , 0.050000 = N(11) TO C(11) 
DISTANCE 1.332000 , 0.050000 = N(11) TO C(15) 
DISTANCE 1.378000 , 0.050000 = C(11) TO C(12) 
DISTANCE 1.378000 , 0.050000 = C(14) TO C(15) 
DISTANCE 1.375000 , 0.050000 = C(12) TO C(13) 
DISTANCE 1.375000 , 0.050000 = C(13) TO C(14) 
DISTANCE 1.517000 , 0.050000 = C(13) TO C(16) 
DISTANCE 1.725000 , 0.050000 = C(2) TO CL(2) 
DISTANCE 1.725000 , 0.050000 = C(3) TO CL(3) 
DISTANCE 1.725000 , 0.050000 = C(4) TO CL(4) 
DISTANCE 1.725000 , 0.050000 = C(5) TO CL(5) 
DISTANCE 1.725000 , 0.050000 = C(6) TO CL(6) 
ANGLE 116.270000 , 1.000000 = C(2) TO C(1) TO C(6) 
ANGLE 122.000000 , 1.000000 = C(1) TO C(2) TO C(3) 
ANGLE 122.000000 , 1.000000 = C(1) TO C(6) TO C(5) 
ANGLE 120.390000 , 1.000000 = C(2) TO C(3) TO C(4) 
ANGLE 120.390000 , 1.000000 = C(6) TO C(5) TO C(4) 
ANGLE 118.930000 , 1.000000 = C(3) TO C(4) TO C(5) 
ANGLE 121.35 , 1.000000 = O(1) TO C(1) TO C(2) 
ANGLE 121.35 , 1.000000 = O(1) TO C(1) TO C(6) 
ANGLE 117.73 , 1.000000 = C(1) TO C(2) TO CL(2) 
ANGLE 117.73 , 1.000000 = C(1) TO C(6) TO CL(6) 
ANGLE 120.27 , 1.000000 = CL(2) TO C(2) TO C(3) 
ANGLE 120.27 , 1.000000 = CL(6) TO C(6) TO C(5) 
ANGLE 120.00 , 1.000000 = C(2) TO C(3) TO CL(3) 
ANGLE 120.00 , 1.000000 = C(6) TO C(5) TO CL(5) 
ANGLE 119.62 , 1.000000 = CL(3) TO C(3) TO C(4) 
ANGLE 119.62 , 1.000000 = CL(5) TO C(5) TO C(4) 
ANGLE 120.53 , 1.000000 = C(3) TO C(4) TO CL(4) 
ANGLE 120.53 , 1.000000 = C(5) TO C(4) TO CL(4) 
ANGLE 117.99 , 1.000000 = C(11) TO N(11) TO C(15) 
ANGLE 122.40 , 1.000000 = N(11) TO C(11) TO C(12) 
ANGLE 122.40 , 1.000000 = N(11) TO C(15) TO C(14) 
ANGLE 119.88 , 1.000000 = C(11) TO C(12) TO C(13) 
ANGLE 119.88 , 1.000000 = C(15) TO C(14) TO C(13) 
ANGLE 117.43 , 1.000000 = C(12) TO C(13) TO C(14) 
ANGLE 121.29 , 1.000000 = C(12) TO C(13) TO C(16) 
ANGLE 121.29 , 1.000000 = C(14) TO C(13) TO C(16) 
PLANAR 0.010000 N(11) C(15) C(14) C(13) C(12) C(11) C(16) 
PLANAR 0.010000 CL(2) CL(3) CL(4) CL(5) CL(6) O(1) C(1) C(2) C(3) C(4) C(5) 
CONT  C(6) 
REM   DELU   START (DO NOT REMOVE THIS LINE) 
VIBR .0, 0.00200 = CL(2) TO C(2) 
VIBR .0, 0.00200 = CL(3) TO C(3) 
VIBR .0, 0.00200 = CL(4) TO C(4) 
VIBR .0, 0.00200 = CL(5) TO C(5) 
VIBR .0, 0.00200 = CL(6) TO C(6) 
VIBR .0, 0.00200 = O(1) TO C(1) 
VIBR .0, 0.00200 = N(11) TO C(15) 
VIBR .0, 0.00200 = N(11) TO C(11) 
VIBR .0, 0.00500 = C(11) TO C(15) 
VIBR .0, 0.00200 = C(1) TO C(2) 
VIBR .0, 0.00200 = C(1) TO C(6) 
VIBR .0, 0.00500 = C(2) TO O(1) 
VIBR .0, 0.00500 = C(6) TO O(1) 
VIBR .0, 0.00500 = C(6) TO C(2) 
VIBR .0, 0.00200 = C(2) TO C(3) 
VIBR .0, 0.00500 = C(1) TO CL(2) 
VIBR .0, 0.00500 = C(3) TO CL(2) 
VIBR .0, 0.00500 = C(3) TO C(1) 
VIBR .0, 0.00200 = C(3) TO C(4) 
VIBR .0, 0.00500 = C(2) TO CL(3) 
VIBR .0, 0.00500 = C(4) TO CL(3) 
VIBR .0, 0.00500 = C(4) TO C(2) 
VIBR .0, 0.00200 = C(4) TO C(5) 
VIBR .0, 0.00500 = C(3) TO CL(4) 
VIBR .0, 0.00500 = C(5) TO CL(4) 
VIBR .0, 0.00500 = C(5) TO C(3) 
VIBR .0, 0.00200 = C(5) TO C(6) 
VIBR .0, 0.00500 = C(4) TO CL(5) 
VIBR .0, 0.00500 = C(6) TO CL(5) 
VIBR .0, 0.00500 = C(6) TO C(4) 
VIBR .0, 0.00500 = C(1) TO CL(6) 
VIBR .0, 0.00500 = C(5) TO CL(6) 
VIBR .0, 0.00500 = C(5) TO C(1) 
VIBR .0, 0.00200 = C(15) TO C(14) 
VIBR .0, 0.00500 = C(14) TO N(11) 
VIBR .0, 0.00200 = C(14) TO C(13) 
VIBR .0, 0.00500 = C(13) TO C(15) 
VIBR .0, 0.00200 = C(13) TO C(12) 
VIBR .0, 0.00200 = C(13) TO C(16) 
VIBR .0, 0.00500 = C(12) TO C(14) 
VIBR .0, 0.00500 = C(16) TO C(14) 
VIBR .0, 0.00500 = C(16) TO C(12) 
VIBR .0, 0.00200 = C(12) TO C(11) 
VIBR .0, 0.00500 = C(11) TO C(13) 
VIBR .0, 0.00500 = N(11) TO C(12) 
REM   DELU   END (DO NOT REMOVE THIS LINE) 
REM   THERMSIM   START (DO NOT REMOVE THIS LINE) 
U(IJ) .0, 0.08000 = CL(2) TO C(2) 
U(IJ) .0, 0.08000 = CL(3) TO C(3) 
U(IJ) .0, 0.08000 = CL(4) TO C(4) 
U(IJ) .0, 0.08000 = CL(5) TO C(5) 
U(IJ) .0, 0.08000 = CL(6) TO C(6) 
U(IJ) .0, 0.08000 = O(1) TO C(1) 
U(IJ) .0, 0.04000 = N(11) TO C(15) 
U(IJ) .0, 0.04000 = N(11) TO C(11) 
U(IJ) .0, 0.04000 = C(1) TO C(2) 
U(IJ) .0, 0.04000 = C(1) TO C(6) 
U(IJ) .0, 0.04000 = C(2) TO C(3) 
U(IJ) .0, 0.04000 = C(3) TO C(4) 
U(IJ) .0, 0.04000 = C(4) TO C(5) 
U(IJ) .0, 0.04000 = C(5) TO C(6) 
U(IJ) .0, 0.04000 = C(15) TO C(14) 
U(IJ) .0, 0.04000 = C(14) TO C(13) 
U(IJ) .0, 0.04000 = C(13) TO C(12) 
U(IJ) .0, 0.08000 = C(13) TO C(16) 
U(IJ) .0, 0.04000 = C(12) TO C(11) 
REM   THERMSIM   END (DO NOT REMOVE THIS LINE) 
END                                                                             
;
_cod_data_source_file            d0ce01636e4.cif
_cod_data_source_block           TH_0p57GPa
_cod_depositor_comments
;
The following automatic conversions were performed:

data item '_exptl_crystal_density_meas' value 'not measured' was
changed to '?' -- the value is perceived as not measured.

Automatic conversion script
Id: cif_fix_values 7556 2019-12-06 15:28:31Z antanas 

 Adding full bibliography for 7241947--7241956.cif.
;
_cod_original_sg_symbol_H-M      'P -1 '
_cod_original_formula_sum        'C12 H8 Cl5 N1 O1'
_cod_database_code               7241950
_oxford_refine_reflns_threshold_expression I>-3.0\s(I)
_oxford_refine_ls_r_factor_all   0.1378
_oxford_refine_ls_wr_factor_all  0.4324
_iucr_refine_reflections_details
; 
 
# Data was input as F-squared 
# punching LIST  6 as LIST  6 with all keys set 
# NBGNXT=    36 
#LIST   6 
READ NCOEF= 8 TYPE=FIX, F'S = FSQ UNIT=DATA, CHECK=NO L30=NO ARCH=NO 
STORE  NCOEF= 6 
OUTPUT INDICES     /FO/        SIGMA(/FO/) RATIO/JCODE CORRECTIONS SERIAL 
CONT 
INPUT  H           K           L           /FO/        SIGMA(/FO/) JCODE 
CONT   CORRECTIONS SERIAL 
FOR (I4,I4,I4,F10.2,F8.2,F4.0,F7.4,F7.0) 
END 
  -8   1   7   1446.65  112.38  0. 1.0000     0. 
  -8   1   8   2536.75  122.60  0. 1.0000     0. 
  -8   2   5    197.79   55.17  0. 1.0000     0. 
  -8   2   6     62.04   40.87  0. 1.0000     0. 
  -8   2   7    770.73   87.86  0. 1.0000     0. 
  -8   2   8    269.00   79.69  0. 1.0000     0. 
  -8   3   5    416.12  112.38  0. 1.0000     0. 
  -8   3   6    990.39  112.38  0. 1.0000     0. 
  -8   3   7   3600.29  143.03  0. 1.0000     0. 
  -8   3   8     87.70   54.15  0. 1.0000     0. 
  -8   4   6   1330.19  163.46  0. 1.0000     0. 
  -7  -2   5    241.62   72.54  0. 1.0000     0. 
  -7  -2   6     96.04  255.41  0. 1.0000     0. 
  -7  -1   3    769.00   61.30  0. 1.0000     0. 
  -7  -1   4   1607.05  347.36  0. 1.0000     0. 
  -7  -1   5    331.73   88.88  0. 1.0000     0. 
  -7  -1   6     46.43  132.81  0. 1.0000     0. 
  -7  -1   7     74.07  173.68  0. 1.0000     0. 
  -7  -1   8   2861.64  194.11  0. 1.0000     0. 
  -7   0   2    666.12  132.81  0. 1.0000     0. 
  -7   0   3   2365.12  183.90  0. 1.0000     0. 
  -7   0   4   5659.94  347.36  0. 1.0000     0. 
  -7   0   6   1053.32  265.63  0. 1.0000     0. 
  -7   0   7    620.14   72.54  0. 1.0000     0. 
  -7   0  10    258.48  112.38  0. 1.0000     0. 
  -7   1   1    324.37  183.90  0. 1.0000     0. 
  -7   1   2    131.28   66.41  0. 1.0000     0. 
  -7   1   4   2890.24  296.28  0. 1.0000     0. 
  -7   1   5    494.48   50.06  0. 1.0000     0. 
  -7   1   6      4.07   66.41  0. 1.0000     0. 
  -7   1   7    266.75   58.23  0. 1.0000     0. 
  -7   1   8   7446.80  255.41  0. 1.0000     0. 
  -7   1  10     -8.17  214.55  0. 1.0000     0. 
  -7   1  11     83.26   65.39  0. 1.0000     0. 
  -7   1  12    493.46  143.03  0. 1.0000     0. 
  -7   2   0    564.97   93.99  0. 1.0000     0. 
  -7   2   1    203.31   93.99  0. 1.0000     0. 
  -7   2   2    502.14  265.63  0. 1.0000     0. 
  -7   2   4    811.29   91.95  0. 1.0000     0. 
  -7   2   5    580.19   54.15  0. 1.0000     0. 
  -7   2   6   1949.31  163.46  0. 1.0000     0. 
  -7   2   7   2451.96   60.28  0. 1.0000     0. 
  -7   2   8    422.25   50.06  0. 1.0000     0. 
  -7   2  10     33.91   37.80  0. 1.0000     0. 
  -7   2  11   1095.21  132.81  0. 1.0000     0. 
  -7   2  12     82.75  234.98  0. 1.0000     0. 
  -7   3   2    452.59  245.20  0. 1.0000     0. 
  -7   3   4   1487.52  234.98  0. 1.0000     0. 
  -7   3   5    242.03   68.45  0. 1.0000     0. 
  -7   3   6     49.94   55.17  0. 1.0000     0. 
  -7   3   7   1044.13  194.11  0. 1.0000     0. 
  -7   3   9     42.40   67.43  0. 1.0000     0. 
  -7   3  10    -11.44   99.10  0. 1.0000     0. 
  -7   3  11    -15.32  214.55  0. 1.0000     0. 
  -7   4   5    392.31  306.49  0. 1.0000     0. 
  -7   4   8    114.32   45.97  0. 1.0000     0. 
  -7   4   9      1.77   55.17  0. 1.0000     0. 
  -7   4  10    111.87   67.43  0. 1.0000     0. 
  -7   5   5     11.24  214.55  0. 1.0000     0. 
  -7   5   6   1792.99  398.44  0. 1.0000     0. 
  -7   5   7   6902.26  153.25  0. 1.0000     0. 
  -7   5   8   -243.46  112.38  0. 1.0000     0. 
  -7   5   9   -315.69  234.98  0. 1.0000     0. 
  -6  -3   2   2192.46  347.36  0. 1.0000     0. 
  -6  -3   3    -13.79  194.11  0. 1.0000     0. 
  -6  -3   4    656.41  112.38  0. 1.0000     0. 
  -6  -2   1   1427.24  367.79  0. 1.0000     0. 
  -6  -2   2    129.14   93.99  0. 1.0000     0. 
  -6  -2   4   4226.56  337.14  0. 1.0000     0. 
  -6  -2   5   2668.55  296.28  0. 1.0000     0. 
  -6  -2   6    429.09  204.33  0. 1.0000     0. 
  -6  -1   2    274.62   64.36  0. 1.0000     0. 
  -6  -1   3   6824.61  265.63  0. 1.0000     0. 
  -6  -1   6    109.32  143.03  0. 1.0000     0. 
  -6  -1   7   2042.28  296.28  0. 1.0000     0. 
  -6   0   1    -33.87  122.60  0. 1.0000     0. 
  -6   0   2   2862.66   89.91  0. 1.0000     0. 
  -6   0   3   1100.32  234.98  0. 1.0000     0. 
  -6   0   4   3173.24  102.16  0. 1.0000     0. 
  -6   0   5   5682.41  122.60  0. 1.0000     0. 
  -6   0   6   1221.89   91.95  0. 1.0000     0. 
  -6   0   7    882.19  194.11  0. 1.0000     0. 
  -6   0   8    342.76  112.38  0. 1.0000     0. 
  -6   0  10   2532.67  306.49  0. 1.0000     0. 
  -6   1   0     70.00   82.75  0. 1.0000     0. 
  -6   1   1   7310.92  572.12  0. 1.0000     0. 
  -6   1   2    830.09   88.88  0. 1.0000     0. 
  -6   1   3   2191.44  122.60  0. 1.0000     0. 
  -6   1   4     27.27   31.67  0. 1.0000     0. 
  -6   1   5   9699.54  204.33  0. 1.0000     0. 
  -6   1   6    371.17   34.74  0. 1.0000     0. 
  -6   1   7    164.18   50.06  0. 1.0000     0. 
  -6   1   8   3021.02  102.16  0. 1.0000     0. 
  -6   1  10    274.82   66.41  0. 1.0000     0. 
  -6   1  11   -172.15  112.38  0. 1.0000     0. 
  -6   2   0  20208.22 1021.65  0. 1.0000     0. 
  -6   2   2    959.33  306.49  0. 1.0000     0. 
  -6   2   3   4352.22  183.90  0. 1.0000     0. 
  -6   2   4  27400.62  572.12  0. 1.0000     0. 
  -6   2   5   6068.59  153.25  0. 1.0000     0. 
  -6   2   6   1575.38   75.60  0. 1.0000     0. 
  -6   2   7   2098.47  122.60  0. 1.0000     0. 
  -6   2   8  37147.16  398.44  0. 1.0000     0. 
  -6   2  10     75.54  100.12  0. 1.0000     0. 
  -6   2  11    228.85  204.33  0. 1.0000     0. 
  -6   3   2   -115.45  194.11  0. 1.0000     0. 
  -6   3   3     32.69  112.38  0. 1.0000     0. 
  -6   3   4   3090.49  183.90  0. 1.0000     0. 
  -6   3   5   2477.50   72.54  0. 1.0000     0. 
  -6   3   6   1773.58   97.06  0. 1.0000     0. 
  -6   3   7   1166.72  102.16  0. 1.0000     0. 
  -6   3   9    121.88   64.36  0. 1.0000     0. 
  -6   3  10    191.05   60.28  0. 1.0000     0. 
  -6   4   3  22425.19 1123.81  0. 1.0000     0. 
  -6   4   4    135.88  194.11  0. 1.0000     0. 
  -6   4   5    701.36  337.14  0. 1.0000     0. 
  -6   4   8   1884.94  224.76  0. 1.0000     0. 
  -6   4   9    360.64   63.34  0. 1.0000     0. 
  -6   5   5    450.55  234.98  0. 1.0000     0. 
  -6   5   6    944.00  265.63  0. 1.0000     0. 
  -6   5   7   1349.60  347.36  0. 1.0000     0. 
  -6   6   7    300.36  245.20  0. 1.0000     0. 
  -5  -4   1    349.10   88.88  0. 1.0000     0. 
  -5  -4   2   -296.28  245.20  0. 1.0000     0. 
  -5  -3   1   1655.07  306.49  0. 1.0000     0. 
  -5  -3   2    245.71  163.46  0. 1.0000     0. 
  -5  -3   3  12402.82  878.62  0. 1.0000     0. 
  -5  -2   2   4017.12  194.11  0. 1.0000     0. 
  -5  -2   3   4031.43  122.60  0. 1.0000     0. 
  -5  -2   4    270.74  183.90  0. 1.0000     0. 
  -5  -2   5    115.45  163.46  0. 1.0000     0. 
  -5  -1   1  19830.21  388.23  0. 1.0000     0. 
  -5  -1   2   6765.36  122.60  0. 1.0000     0. 
  -5  -1   4    929.50  122.60  0. 1.0000     0. 
  -5  -1   5  18726.82  796.89  0. 1.0000     0. 
  -5  -1   6  26930.67 1225.98  0. 1.0000     0. 
  -5  -1   7    271.76  163.46  0. 1.0000     0. 
  -5   0   2   4802.77  122.60  0. 1.0000     0. 
  -5   0   3   2351.84   60.28  0. 1.0000     0. 
  -5   0   4     38.56   33.71  0. 1.0000     0. 
  -5   0   5   5674.24  143.03  0. 1.0000     0. 
  -5   0   6     64.91   35.76  0. 1.0000     0. 
  -5   0   7    248.77  214.55  0. 1.0000     0. 
  -5   0   8    153.25  163.46  0. 1.0000     0. 
  -5   1   0   8681.97  418.88  0. 1.0000     0. 
  -5   1   1  14119.19  275.85  0. 1.0000     0. 
  -5   1   2     64.25   42.91  0. 1.0000     0. 
  -5   1   3    409.17   29.63  0. 1.0000     0. 
  -5   1   4   1486.50  100.12  0. 1.0000     0. 
  -5   1   5  11462.90  245.20  0. 1.0000     0. 
  -5   1   6   2658.33  112.38  0. 1.0000     0. 
  -5   1   7    788.71   82.75  0. 1.0000     0. 
  -5   1   8   7560.20  459.74  0. 1.0000     0. 
  -5   1   9   1007.35   64.36  0. 1.0000     0. 
  -5   1  10    245.20  173.68  0. 1.0000     0. 
  -5   2   1    -40.87   61.30  0. 1.0000     0. 
  -5   2   2    120.55   35.76  0. 1.0000     0. 
  -5   2   3    515.63   45.97  0. 1.0000     0. 
  -5   2   4     93.04   42.91  0. 1.0000     0. 
  -5   2   5   1599.90   91.95  0. 1.0000     0. 
  -5   2   6   2309.95   76.62  0. 1.0000     0. 
  -5   2   7    509.19   34.74  0. 1.0000     0. 
  -5   2   9   2259.89  112.38  0. 1.0000     0. 
  -5   2  10   2452.98  255.41  0. 1.0000     0. 
  -5   3   1  20698.61 1021.65  0. 1.0000     0. 
  -5   3   2   4824.23  367.79  0. 1.0000     0. 
  -5   3   3    647.21   54.15  0. 1.0000     0. 
  -5   3   4   6326.05  306.49  0. 1.0000     0. 
  -5   3   5   1804.23  132.81  0. 1.0000     0. 
  -5   3   6    109.62   29.63  0. 1.0000     0. 
  -5   3   8      7.32   29.63  0. 1.0000     0. 
  -5   3   9    111.87   49.04  0. 1.0000     0. 
  -5   4   3   1823.64  245.20  0. 1.0000     0. 
  -5   4   4  29801.50 1430.31  0. 1.0000     0. 
  -5   4   6    196.16  183.90  0. 1.0000     0. 
  -5   4   7     21.88   44.95  0. 1.0000     0. 
  -5   4   8  15406.47  786.67  0. 1.0000     0. 
  -5   5   5    140.99  194.11  0. 1.0000     0. 
  -5   5   6    324.88  214.55  0. 1.0000     0. 
  -4  -4   1     56.19  101.14  0. 1.0000     0. 
  -4  -3   1    685.53  194.11  0. 1.0000     0. 
  -4  -3   2    598.69  357.58  0. 1.0000     0. 
  -4  -2   1     93.58   45.97  0. 1.0000     0. 
  -4  -2   2  18359.03  551.69  0. 1.0000     0. 
  -4  -2   3   7703.23  234.98  0. 1.0000     0. 
  -4  -1   1   2469.33   63.34  0. 1.0000     0. 
  -4  -1   3   3536.95   84.80  0. 1.0000     0. 
  -4  -1   4   4930.48  101.14  0. 1.0000     0. 
  -4  -1   6   3332.62  255.41  0. 1.0000     0. 
  -4   0   1   4873.27  163.46  0. 1.0000     0. 
  -4   0   2  67449.28 1123.81  0. 1.0000     0. 
  -4   0   3   2587.84   39.84  0. 1.0000     0. 
  -4   0   5   1966.67   52.10  0. 1.0000     0. 
  -4   0   6   3897.59   74.58  0. 1.0000     0. 
  -4   0   8   2120.94  204.33  0. 1.0000     0. 
  -4   1   1  55271.21 2043.30  0. 1.0000     0. 
  -4   1   2  10992.94  183.90  0. 1.0000     0. 
  -4   1   3    552.81   51.08  0. 1.0000     0. 
  -4   1   4    112.18   18.39  0. 1.0000     0. 
  -4   1   5  99999.01 1225.98  0. 1.0000     0. 
  -4   1   8   1195.33  101.14  0. 1.0000     0. 
  -4   1   9   2413.13  194.11  0. 1.0000     0. 
  -4   1  10  20361.46  306.49  0. 1.0000     0. 
  -4   1  11   3514.47  623.21  0. 1.0000     0. 
  -4   2   1  15723.18  367.79  0. 1.0000     0. 
  -4   2   2   8021.99  163.46  0. 1.0000     0. 
  -4   2   3   1535.54   55.17  0. 1.0000     0. 
  -4   2   4    704.73   45.97  0. 1.0000     0. 
  -4   2   5  22752.12  245.20  0. 1.0000     0. 
  -4   2   6   6834.83  143.03  0. 1.0000     0. 
  -4   2   7    444.72   31.67  0. 1.0000     0. 
  -4   2   8    -30.43   56.19  0. 1.0000     0. 
  -4   2  10   2240.48  265.63  0. 1.0000     0. 
  -4   3   2    507.76  163.46  0. 1.0000     0. 
  -4   3   3    -41.89  122.60  0. 1.0000     0. 
  -4   3   4   2570.47  102.16  0. 1.0000     0. 
  -4   3   6     28.29   24.52  0. 1.0000     0. 
  -4   3   7    746.11   50.06  0. 1.0000     0. 
  -4   3   9  10502.55  592.56  0. 1.0000     0. 
  -4   4   3   9785.35  541.47  0. 1.0000     0. 
  -4   4   4    -21.45  143.03  0. 1.0000     0. 
  -4   4   5   9792.50  245.20  0. 1.0000     0. 
  -4   4   6      8.44   40.87  0. 1.0000     0. 
  -4   4   8    721.28  337.14  0. 1.0000     0. 
  -4   5   6    788.71  214.55  0. 1.0000     0. 
  -4   5   7    397.42  326.93  0. 1.0000     0. 
  -3  -3   1    -74.07  163.46  0. 1.0000     0. 
  -3  -2   1    165.61   41.89  0. 1.0000     0. 
  -3  -2   2  20044.75  378.01  0. 1.0000     0. 
  -3  -2   3  52175.61 2145.46  0. 1.0000     0. 
  -3  -1   1    141.19   35.76  0. 1.0000     0. 
  -3  -1   2  12811.48  204.33  0. 1.0000     0. 
  -3  -1   3  10727.31  153.25  0. 1.0000     0. 
  -3  -1   4    576.72   58.23  0. 1.0000     0. 
  -3   0   2  62341.02 2451.96  0. 1.0000     0. 
  -3   0   3   1553.93   43.93  0. 1.0000     0. 
  -3   0   4   3693.26  224.76  0. 1.0000     0. 
  -3   0   5   2057.60   55.17  0. 1.0000     0. 
  -3   0   6    425.01   93.99  0. 1.0000     0. 
  -3   1   0    524.11   42.91  0. 1.0000     0. 
  -3   1   1  30904.88  378.01  0. 1.0000     0. 
  -3   1   2   4053.90  102.16  0. 1.0000     0. 
  -3   1   3  31037.70  694.72  0. 1.0000     0. 
  -3   1   4     10.46   18.39  0. 1.0000     0. 
  -3   1   5  20014.10  326.93  0. 1.0000     0. 
  -3   1   6   2054.54   48.02  0. 1.0000     0. 
  -3   1   7   6637.65  265.63  0. 1.0000     0. 
  -3   1   9    413.26   45.97  0. 1.0000     0. 
  -3   2   2  15907.07  224.76  0. 1.0000     0. 
  -3   2   4   9791.48  183.90  0. 1.0000     0. 
  -3   2   5   2399.85   48.02  0. 1.0000     0. 
  -3   2   6  23957.67  378.01  0. 1.0000     0. 
  -3   2   7   4374.70   82.75  0. 1.0000     0. 
  -3   2   8   4330.77  183.90  0. 1.0000     0. 
  -3   2   9    963.41  224.76  0. 1.0000     0. 
  -3   2  10   5607.83  592.56  0. 1.0000     0. 
  -3   2  11    392.82   93.99  0. 1.0000     0. 
  -3   3   2   2871.86  224.76  0. 1.0000     0. 
  -3   3   3    235.49   37.80  0. 1.0000     0. 
  -3   3   4   3560.45  112.38  0. 1.0000     0. 
  -3   3   5  18256.87  245.20  0. 1.0000     0. 
  -3   3   7   1429.29  122.60  0. 1.0000     0. 
  -3   3   8    162.54   50.06  0. 1.0000     0. 
  -3   3   9     39.24   45.97  0. 1.0000     0. 
  -3   3  11   1439.50  194.11  0. 1.0000     0. 
  -3   3  12    385.16  275.85  0. 1.0000     0. 
  -3   4   4    -25.95   85.82  0. 1.0000     0. 
  -3   4   5   5605.79   83.78  0. 1.0000     0. 
  -3   4   6   5731.45  204.33  0. 1.0000     0. 
  -3   4   8    143.34   44.95  0. 1.0000     0. 
  -3   4  10   2713.50  204.33  0. 1.0000     0. 
  -3   4  11    225.27  102.16  0. 1.0000     0. 
  -3   5   5  11636.58  214.55  0. 1.0000     0. 
  -3   5   6     60.79   79.69  0. 1.0000     0. 
  -3   5   7   2837.12  388.23  0. 1.0000     0. 
  -3   5   8    897.62  204.33  0. 1.0000     0. 
  -3   5  10    898.34  234.98  0. 1.0000     0. 
  -3   6   7  10159.28  796.89  0. 1.0000     0. 
  -3   6   8   7162.78  204.33  0. 1.0000     0. 
  -3   6   9    212.50  459.74  0. 1.0000     0. 
  -2  -1   1  20065.19  469.96  0. 1.0000     0. 
  -2  -1   2  10288.00  132.81  0. 1.0000     0. 
  -2  -1   3    112.38   28.61  0. 1.0000     0. 
  -2   0   1   9738.36  112.38  0. 1.0000     0. 
  -2   0   2  57621.00  674.29  0. 1.0000     0. 
  -2   0   4  39711.50 1634.64  0. 1.0000     0. 
  -2   1   0    679.81  102.16  0. 1.0000     0. 
  -2   1   4   2532.67   45.97  0. 1.0000     0. 
  -2   1   5      0.78   13.28  0. 1.0000     0. 
  -2   1   6    167.24   20.43  0. 1.0000     0. 
  -2   1   7   5766.19  204.33  0. 1.0000     0. 
  -2   1   9    787.69  194.11  0. 1.0000     0. 
  -2   1  10    824.47  224.76  0. 1.0000     0. 
  -2   2   2  18124.05  224.76  0. 1.0000     0. 
  -2   2   3  10584.28  143.03  0. 1.0000     0. 
  -2   2   4    -26.16   53.13  0. 1.0000     0. 
  -2   2   5    800.05   47.00  0. 1.0000     0. 
  -2   2   6  35114.07  378.01  0. 1.0000     0. 
  -2   2   7  27267.81 1123.81  0. 1.0000     0. 
  -2   2   8    891.49   51.08  0. 1.0000     0. 
  -2   2  10    601.75  326.93  0. 1.0000     0. 
  -2   2  11   2163.85  286.06  0. 1.0000     0. 
  -2   2  12    517.98  112.38  0. 1.0000     0. 
  -2   3   4    869.01   71.52  0. 1.0000     0. 
  -2   3   5  11401.60  163.46  0. 1.0000     0. 
  -2   3   7  10584.28  132.81  0. 1.0000     0. 
  -2   3   9   5328.92  173.68  0. 1.0000     0. 
  -2   3  10    150.39  102.16  0. 1.0000     0. 
  -2   3  11   2717.59  153.25  0. 1.0000     0. 
  -2   3  12    644.66  183.90  0. 1.0000     0. 
  -2   4   4   1367.99  163.46  0. 1.0000     0. 
  -2   4   5    -18.05   78.67  0. 1.0000     0. 
  -2   4   6  27758.20  704.94  0. 1.0000     0. 
  -2   4   7     30.65  306.49  0. 1.0000     0. 
  -2   4   8      7.48   45.97  0. 1.0000     0. 
  -2   4   9   3087.42  194.11  0. 1.0000     0. 
  -2   4  10   2068.84  214.55  0. 1.0000     0. 
  -2   4  11   1220.87  173.68  0. 1.0000     0. 
  -2   5   4    347.36  275.85  0. 1.0000     0. 
  -2   5   6   5974.60  439.31  0. 1.0000     0. 
  -2   5   8    530.44  112.38  0. 1.0000     0. 
  -2   5   9    117.59   64.36  0. 1.0000     0. 
  -2   5  10   3036.34  224.76  0. 1.0000     0. 
  -2   6   6   7712.43  633.42  0. 1.0000     0. 
  -2   6   8    -65.98  143.03  0. 1.0000     0. 
  -2   7   7    117.49  265.63  0. 1.0000     0. 
  -1   0   1   5506.69   78.67  0. 1.0000     0. 
  -1   0   2   2433.57   98.08  0. 1.0000     0. 
  -1   0   3  37208.45 1532.47  0. 1.0000     0. 
  -1   1   1  22741.91  367.79  0. 1.0000     0. 
  -1   1   2  50336.64 1634.64  0. 1.0000     0. 
  -1   1   3  27931.88  439.31  0. 1.0000     0. 
  -1   1   4  52584.27  980.78  0. 1.0000     0. 
  -1   1   5   3127.27  163.46  0. 1.0000     0. 
  -1   1   6    136.19   38.82  0. 1.0000     0. 
  -1   1   7  16795.91  847.97  0. 1.0000     0. 
  -1   1   8  10706.88  592.56  0. 1.0000     0. 
  -1   2   2    468.02   45.97  0. 1.0000     0. 
  -1   2   3   6877.74  101.14  0. 1.0000     0. 
  -1   2   4     -9.19   47.00  0. 1.0000     0. 
  -1   2   5   4299.10  102.16  0. 1.0000     0. 
  -1   2   6   2744.15   88.88  0. 1.0000     0. 
  -1   2   7   8310.09  296.28  0. 1.0000     0. 
  -1   2   8   6968.67  245.20  0. 1.0000     0. 
  -1   2   9   2197.57  163.46  0. 1.0000     0. 
  -1   2  10    -32.69  112.38  0. 1.0000     0. 
  -1   3   2  58959.36 2247.63  0. 1.0000     0. 
  -1   3   4   2426.42   52.10  0. 1.0000     0. 
  -1   3   5     16.71   41.89  0. 1.0000     0. 
  -1   3   6     98.99   33.71  0. 1.0000     0. 
  -1   3   7  13598.15  183.90  0. 1.0000     0. 
  -1   3   8   4171.39  122.60  0. 1.0000     0. 
  -1   3   9    120.35   50.06  0. 1.0000     0. 
  -1   3  11     59.59   76.62  0. 1.0000     0. 
  -1   4   3    899.05  275.85  0. 1.0000     0. 
  -1   4   5   2108.68   65.39  0. 1.0000     0. 
  -1   4   7   1176.94  214.55  0. 1.0000     0. 
  -1   4   8    608.39  132.81  0. 1.0000     0. 
  -1   4  10   3589.05  183.90  0. 1.0000     0. 
  -1   5   4   3353.05  378.01  0. 1.0000     0. 
  -1   5   6     98.43   65.39  0. 1.0000     0. 
  -1   5   7    335.31  143.03  0. 1.0000     0. 
  -1   5   8   1636.68  143.03  0. 1.0000     0. 
  -1   5   9   2702.26  112.38  0. 1.0000     0. 
  -1   6   5    307.52  439.31  0. 1.0000     0. 
  -1   6   7    116.26  132.81  0. 1.0000     0. 
   0   0   2  12116.76  643.64  0. 1.0000     0. 
   0   0   3   2268.06  153.25  0. 1.0000     0. 
   0   1   1   1815.47   60.28  0. 1.0000     0. 
   0   1   2    525.13   32.69  0. 1.0000     0. 
   0   1   3  46505.46  541.47  0. 1.0000     0. 
   0   1   4  62208.20  858.19  0. 1.0000     0. 
   0   1   5   1856.34   56.19  0. 1.0000     0. 
   0   1   6   7167.89  143.03  0. 1.0000     0. 
   0   1   7   8131.30  398.44  0. 1.0000     0. 
   0   1   9    861.25  245.20  0. 1.0000     0. 
   0   2   1    692.17   29.63  0. 1.0000     0. 
   0   2   2    885.16   25.54  0. 1.0000     0. 
   0   2   3   1078.86   32.69  0. 1.0000     0. 
   0   2   4  40784.23  602.77  0. 1.0000     0. 
   0   2   5    373.92   58.23  0. 1.0000     0. 
   0   2   6   6066.55  122.60  0. 1.0000     0. 
   0   2   7   1953.39   65.39  0. 1.0000     0. 
   0   2   8   1572.32  214.55  0. 1.0000     0. 
   0   2   9   3185.50  112.38  0. 1.0000     0. 
   0   2  11   2028.99  561.91  0. 1.0000     0. 
   0   3   1    118.51  153.25  0. 1.0000     0. 
   0   3   2  22108.48  296.28  0. 1.0000     0. 
   0   3   3  27666.25  796.89  0. 1.0000     0. 
   0   3   4   8614.54  143.03  0. 1.0000     0. 
   0   3   5     24.00   41.89  0. 1.0000     0. 
   0   3   6     25.36   50.06  0. 1.0000     0. 
   0   3   7   1114.62   67.43  0. 1.0000     0. 
   0   3   8  14813.91  439.31  0. 1.0000     0. 
   0   3  10    424.70   86.84  0. 1.0000     0. 
   0   4   2   1771.54  265.63  0. 1.0000     0. 
   0   4   3   2139.33  326.93  0. 1.0000     0. 
   0   4   4     13.38   38.82  0. 1.0000     0. 
   0   4   6   1130.97   63.34  0. 1.0000     0. 
   0   4   7    116.57   54.15  0. 1.0000     0. 
   0   4   9   1161.61  326.93  0. 1.0000     0. 
   0   5   4   1537.58  378.01  0. 1.0000     0. 
   0   5   6   2342.64  102.16  0. 1.0000     0. 
   0   5   7   4734.32  388.23  0. 1.0000     0. 
   0   5   8   2621.55  234.98  0. 1.0000     0. 
   0   6   6   1601.95 1225.98  0. 1.0000     0. 
   1   0   0  48272.91  827.54  0. 1.0000     0. 
   1   0   1  31824.37  612.99  0. 1.0000     0. 
   1   0   2    770.02   45.97  0. 1.0000     0. 
   1   0   3   2395.77   55.17  0. 1.0000     0. 
   1   0   4   1068.64  214.55  0. 1.0000     0. 
   1   0   5  32621.25 4903.92  0. 1.0000     0. 
   1   1   0  13965.94  153.25  0. 1.0000     0. 
   1   1   1  46505.46  582.34  0. 1.0000     0. 
   1   1   2   2215.96   31.67  0. 1.0000     0. 
   1   1   4   2318.12   64.36  0. 1.0000     0. 
   1   1   5   1398.64   69.47  0. 1.0000     0. 
   1   1   6   2006.52  245.20  0. 1.0000     0. 
   1   1   8    373.92  234.98  0. 1.0000     0. 
   1   1   9   1336.32  286.06  0. 1.0000     0. 
   1   2   1   7231.23  102.16  0. 1.0000     0. 
   1   2   2   8068.98  224.76  0. 1.0000     0. 
   1   2   3   2871.86   67.43  0. 1.0000     0. 
   1   2   4  27727.55  510.82  0. 1.0000     0. 
   1   2   5  38005.34  715.15  0. 1.0000     0. 
   1   2   7    242.64   96.04  0. 1.0000     0. 
   1   2   8   2275.21  408.66  0. 1.0000     0. 
   1   2   9   4026.32  398.44  0. 1.0000     0. 
   1   3   0      9.19   26.56  0. 1.0000     0. 
   1   3   1     32.90   48.02  0. 1.0000     0. 
   1   3   2     66.41   25.54  0. 1.0000     0. 
   1   3   4    -33.39  153.25  0. 1.0000     0. 
   1   3   6    383.53   83.78  0. 1.0000     0. 
   1   3   7   4930.48  153.25  0. 1.0000     0. 
   1   3   8   5416.78  275.85  0. 1.0000     0. 
   1   3   9    -49.91  143.03  0. 1.0000     0. 
   1   4   2   5207.34  122.60  0. 1.0000     0. 
   1   4   3    912.95   65.39  0. 1.0000     0. 
   1   4   4    486.30   58.23  0. 1.0000     0. 
   1   4   5   3282.56  112.38  0. 1.0000     0. 
   1   4   6   1056.39  132.81  0. 1.0000     0. 
   1   4   7    620.35  173.68  0. 1.0000     0. 
   1   4   8    591.53   82.75  0. 1.0000     0. 
   1   5   3   1027.78  408.66  0. 1.0000     0. 
   1   5   4   2003.45   95.01  0. 1.0000     0. 
   1   5   5     -4.09  214.55  0. 1.0000     0. 
   1   5   6   1541.67  296.28  0. 1.0000     0. 
   1   6   4    158.87  234.98  0. 1.0000     0. 
   1   6   5   1109.51  234.98  0. 1.0000     0. 
   2  -1   1  60072.96 2656.29  0. 1.0000     0. 
   2   0   0  19963.02  439.31  0. 1.0000     0. 
   2   0   1    377.29   30.65  0. 1.0000     0. 
   2   0   3   8169.10  122.60  0. 1.0000     0. 
   2   0   4   2951.54  153.25  0. 1.0000     0. 
   2   0   5   5251.28  561.91  0. 1.0000     0. 
   2   1   0  36370.70  459.74  0. 1.0000     0. 
   2   1   2  17490.63  194.11  0. 1.0000     0. 
   2   1   3   1748.04   52.10  0. 1.0000     0. 
   2   1   4     20.77   33.71  0. 1.0000     0. 
   2   1   5   1591.73   82.75  0. 1.0000     0. 
   2   1   6   3682.02  153.25  0. 1.0000     0. 
   2   2   0    309.46   51.08  0. 1.0000     0. 
   2   2   1  22384.33  234.98  0. 1.0000     0. 
   2   2   2    396.60   33.71  0. 1.0000     0. 
   2   2   3   2075.99   51.08  0. 1.0000     0. 
   2   2   4   3379.61   82.75  0. 1.0000     0. 
   2   2   5  10298.22  204.33  0. 1.0000     0. 
   2   2   7    -68.28  234.98  0. 1.0000     0. 
   2   2   8     92.84   93.99  0. 1.0000     0. 
   2   3   0  17408.90  490.39  0. 1.0000     0. 
   2   3   2   4730.23   85.82  0. 1.0000     0. 
   2   3   3   2350.81   87.86  0. 1.0000     0. 
   2   3   4   3507.32   62.32  0. 1.0000     0. 
   2   3   6    548.22   66.41  0. 1.0000     0. 
   2   3   7   4022.23  286.06  0. 1.0000     0. 
   2   4   1   8534.86  245.20  0. 1.0000     0. 
   2   4   2    332.04  122.60  0. 1.0000     0. 
   2   4   3    559.35   76.62  0. 1.0000     0. 
   2   4   4   9118.22  306.49  0. 1.0000     0. 
   2   4   6   2043.30  316.71  0. 1.0000     0. 
   2   5   2     16.35  429.09  0. 1.0000     0. 
   2   5   3     95.01  101.14  0. 1.0000     0. 
   2   5   4    895.37   95.01  0. 1.0000     0. 
   2   5   5    188.49  143.03  0. 1.0000     0. 
   2   6   3    -67.43  245.20  0. 1.0000     0. 
   3  -1   1    342.15   35.76  0. 1.0000     0. 
   3  -1   2   1123.81   72.54  0. 1.0000     0. 
   3   0   0    464.44   34.74  0. 1.0000     0. 
   3   0   1   8262.08  357.58  0. 1.0000     0. 
   3   0   2  30720.98  643.64  0. 1.0000     0. 
   3   0   3   2314.03   72.54  0. 1.0000     0. 
   3   0   4   1857.36   72.54  0. 1.0000     0. 
   3   0   5    159.38   63.34  0. 1.0000     0. 
   3   1   0   7452.93  102.16  0. 1.0000     0. 
   3   1   1  10992.94  316.71  0. 1.0000     0. 
   3   1   2  37484.30  561.91  0. 1.0000     0. 
   3   1   3    386.08   54.15  0. 1.0000     0. 
   3   1   4   7128.04  153.25  0. 1.0000     0. 
   3   1   6   4706.74 1123.81  0. 1.0000     0. 
   3   1   7   3434.78  449.53  0. 1.0000     0. 
   3   2   1   5777.42   87.86  0. 1.0000     0. 
   3   2   2   6413.91  101.14  0. 1.0000     0. 
   3   2   3    -24.58  102.16  0. 1.0000     0. 
   3   2   4    917.44  439.31  0. 1.0000     0. 
   3   2   5   4366.53  153.25  0. 1.0000     0. 
   3   2   6    457.70   97.06  0. 1.0000     0. 
   3   3   0   8242.66  531.26  0. 1.0000     0. 
   3   3   2   4850.79  173.68  0. 1.0000     0. 
   3   3   4    608.70  102.16  0. 1.0000     0. 
   3   3   5   2200.63  337.14  0. 1.0000     0. 
   3   4   0   6234.10  367.79  0. 1.0000     0. 
   3   4   1    391.29  204.33  0. 1.0000     0. 
   3   4   2    574.98  214.55  0. 1.0000     0. 
   3   4   4   1120.75  173.68  0. 1.0000     0. 
   3   5   2    116.47  153.25  0. 1.0000     0. 
   3   5   3   1700.02  153.25  0. 1.0000     0. 
   4  -2   1    576.21  183.90  0. 1.0000     0. 
   4  -1   1    710.97  163.46  0. 1.0000     0. 
   4  -1   2    881.68   93.99  0. 1.0000     0. 
   4  -1   3  15580.15  807.10  0. 1.0000     0. 
   4   0   0   6582.48  163.46  0. 1.0000     0. 
   4   0   1     -1.73   90.93  0. 1.0000     0. 
   4   0   3    -69.58  112.38  0. 1.0000     0. 
   4   0   5    114.94  153.25  0. 1.0000     0. 
   4   1   0   3013.86   58.23  0. 1.0000     0. 
   4   1   2    320.49   87.86  0. 1.0000     0. 
   4   1   4   -143.75  153.25  0. 1.0000     0. 
   4   1   5   1989.15  367.79  0. 1.0000     0. 
   4   1   6    150.18  459.74  0. 1.0000     0. 
   4   2   0    321.82  224.76  0. 1.0000     0. 
   4   2   1   3310.14   72.54  0. 1.0000     0. 
   4   2   3   3580.88   70.49  0. 1.0000     0. 
   4   2   4   2505.08  224.76  0. 1.0000     0. 
   4   2   5    861.76  214.55  0. 1.0000     0. 
   4   3   0   6156.46  132.81  0. 1.0000     0. 
   4   3   1   4509.56  347.36  0. 1.0000     0. 
   4   3   3   2932.13  102.16  0. 1.0000     0. 
   4   4   0     94.90  112.38  0. 1.0000     0. 
   4   4   1   3774.99  143.03  0. 1.0000     0. 
   4   4   2   3563.51  265.63  0. 1.0000     0. 
   5  -2   1    287.08  214.55  0. 1.0000     0. 
   5  -1   1   2776.84  296.28  0. 1.0000     0. 
   5  -1   3    378.01  214.55  0. 1.0000     0. 
   5   0   0   1090.10   68.45  0. 1.0000     0. 
   5   0   1   1076.82  418.88  0. 1.0000     0. 
   5   0   2     70.39   97.06  0. 1.0000     0. 
   5   0   4   1434.40  480.18  0. 1.0000     0. 
   5   1   0   1543.71  439.31  0. 1.0000     0. 
   5   1   1    174.50   84.80  0. 1.0000     0. 
   5   1   3   1317.93  122.60  0. 1.0000     0. 
   5   2   0   3831.18   82.75  0. 1.0000     0. 
   5   2   2   3615.62  326.93  0. 1.0000     0. 
   5   3   0   1434.40  316.71  0. 1.0000     0. 
   5   3   1   1644.85  204.33  0. 1.0000     0. 
   6  -2   1  13853.56  766.24  0. 1.0000     0. 
   6  -1   2    475.07  286.06  0. 1.0000     0. 
   6   0   1    206.37  214.55  0. 1.0000     0. 
   6   0   2   1640.77  132.81  0. 1.0000     0. 
   6   1   0   3659.55  245.20  0. 1.0000     0. 
   6   1   1    -95.71  163.46  0. 1.0000     0. 
-512 
#    560 reflections output 
;
loop_
_symmetry_equiv_pos_as_xyz
x,y,z
-x,-y,-z
loop_
_atom_site_label
_atom_site_type_symbol
_atom_site_fract_x
_atom_site_fract_y
_atom_site_fract_z
_atom_site_U_iso_or_equiv
_atom_site_occupancy
_atom_site_adp_type
_atom_site_refinement_flags_posn
_atom_site_refinement_flags_adp
_atom_site_refinement_flags_occupancy
_atom_site_disorder_assembly
_atom_site_disorder_group
_atom_site_attached_hydrogens
Cl2 Cl 0.0762(8) 0.9323(13) 0.1448(7) 0.0544(19) 1.0000 Uiso D U . . . .
Cl3 Cl -0.3325(8) 0.6664(12) -0.0917(7) 0.0511(19) 1.0000 Uiso D U . . . .
Cl4 Cl -0.4854(8) 0.2892(11) -0.1233(7) 0.0472(19) 1.0000 Uiso D U . . . .
Cl5 Cl -0.2196(8) 0.1776(14) 0.0910(7) 0.057(2) 1.0000 Uiso D U . . . .
Cl6 Cl 0.2044(8) 0.4403(12) 0.3296(7) 0.0554(19) 1.0000 Uiso D U . . . .
O1 O 0.295(2) 0.787(2) 0.3303(14) 0.052(2) 1.0000 Uiso D U . . . .
N11 N 0.6743(18) 0.7844(15) 0.4472(10) 0.048(3) 1.0000 Uiso D U . . . .
C1 C 0.119(2) 0.673(2) 0.2272(14) 0.052(2) 1.0000 Uiso D U . . . .
C2 C -0.0060(19) 0.720(2) 0.1299(12) 0.052(2) 1.0000 Uiso D U . . . .
C3 C -0.188(2) 0.603(2) 0.0247(13) 0.051(2) 1.0000 Uiso D U . . . .
C4 C -0.252(2) 0.4381(18) 0.0124(13) 0.050(2) 1.0000 Uiso D U . . . .
C5 C -0.1355(19) 0.388(2) 0.1060(12) 0.053(2) 1.0000 Uiso D U . . . .
C6 C 0.050(2) 0.504(2) 0.2116(14) 0.053(2) 1.0000 Uiso D U . . . .
C11 C 0.746(2) 0.6727(15) 0.4032(11) 0.048(3) 1.0000 Uiso D U . . . .
C12 C 0.961(2) 0.6798(15) 0.4662(13) 0.049(3) 1.0000 Uiso D U . . . .
C13 C 1.113(2) 0.8042(14) 0.5780(10) 0.050(3) 1.0000 Uiso D U . . . .
C14 C 1.034(2) 0.9178(16) 0.6215(11) 0.048(3) 1.0000 Uiso D U . . . .
C15 C 0.815(2) 0.9017(15) 0.5522(13) 0.048(3) 1.0000 Uiso D U . . . .
C16 C 1.345(3) 0.8163(17) 0.6485(13) 0.051(3) 1.0000 Uiso D U . . . .
H11 H 0.4609 0.7853 0.3818 0.0624 1.0000 Uiso DR . . . . .
H111 H 0.6462 0.5899 0.3283 0.0590 1.0000 Uiso R . . . . .
H121 H 1.0036 0.6014 0.4338 0.0600 1.0000 Uiso R . . . . .
H141 H 1.1284 1.0020 0.6962 0.0589 1.0000 Uiso R . . . . .
H151 H 0.7672 0.9775 0.5817 0.0580 1.0000 Uiso R . . . . .
H161 H 1.4428 0.9329 0.6859 0.0769 1.0000 Uiso R . . . . .
H162 H 1.3625 0.7659 0.7099 0.0771 1.0000 Uiso R . . . . .
H163 H 1.3819 0.7585 0.5956 0.0769 1.0000 Uiso R . . . . .
loop_
_atom_type_symbol
_atom_type_scat_dispersion_real
_atom_type_scat_dispersion_imag
_atom_type_scat_Cromer_Mann_a1
_atom_type_scat_Cromer_Mann_b1
_atom_type_scat_Cromer_Mann_a2
_atom_type_scat_Cromer_Mann_b2
_atom_type_scat_Cromer_Mann_a3
_atom_type_scat_Cromer_Mann_b3
_atom_type_scat_Cromer_Mann_a4
_atom_type_scat_Cromer_Mann_b4
_atom_type_scat_Cromer_Mann_c
_atom_type_scat_source
C 0.0028 0.0015 2.3100 20.8439 1.0200 10.2075 1.5886 0.5687 0.8650 51.6512
0.2156 'International Tables Vol C 4.2.6.8 and 6.1.1.4'
H 0.0000 0.0000 0.4930 10.5109 0.3229 26.1257 0.1402 3.1424 0.0408 57.7998
0.0030 'International Tables Vol C 4.2.6.8 and 6.1.1.4'
N 0.0056 0.0031 12.2126 0.0057 3.1322 9.8933 2.0125 28.9975 1.1663 0.5826
-11.5290 'International Tables Vol C 4.2.6.8 and 6.1.1.4'
O 0.0101 0.0057 3.0485 13.2771 2.2868 5.7011 1.5463 0.3239 0.8670 32.9089
0.2508 'International Tables Vol C 4.2.6.8 and 6.1.1.4'
Cl 0.1420 0.1501 11.4604 0.0104 7.1964 1.1662 6.2556 18.5194 1.6455 47.7784
-9.5574 'International Tables Vol C 4.2.6.8 and 6.1.1.4'
loop_
_geom_angle_atom_site_label_1
_geom_angle_site_symmetry_1
_geom_angle_atom_site_label_2
_geom_angle_site_symmetry_2
_geom_angle_atom_site_label_3
_geom_angle_site_symmetry_3
_geom_angle
_geom_angle_publ_flag
C1 . O1 . H11 . 128.7 no
C11 . N11 . C15 . 118.7(7) yes
O1 . C1 . C2 . 121.9(7) yes
O1 . C1 . C6 . 121.8(7) yes
C2 . C1 . C6 . 116.3(6) yes
Cl2 . C2 . C1 . 117.9(6) yes
Cl2 . C2 . C3 . 120.2(7) yes
C1 . C2 . C3 . 121.9(6) yes
Cl3 . C3 . C2 . 119.9(7) yes
Cl3 . C3 . C4 . 119.5(6) yes
C2 . C3 . C4 . 120.5(6) yes
Cl4 . C4 . C3 . 120.4(7) yes
Cl4 . C4 . C5 . 120.2(7) yes
C3 . C4 . C5 . 119.4(6) yes
Cl5 . C5 . C4 . 119.5(6) yes
Cl5 . C5 . C6 . 120.2(7) yes
C4 . C5 . C6 . 120.3(6) yes
Cl6 . C6 . C1 . 117.8(6) yes
Cl6 . C6 . C5 . 120.7(7) yes
C1 . C6 . C5 . 121.6(6) yes
N11 . C11 . C12 . 122.3(7) yes
N11 . C11 . H111 . 118.8 no
C12 . C11 . H111 . 119.0 no
C11 . C12 . C13 . 119.6(7) yes
C11 . C12 . H121 . 119.9 no
C13 . C12 . H121 . 120.5 no
C12 . C13 . C14 . 116.8(6) yes
C12 . C13 . C16 . 121.4(7) yes
C14 . C13 . C16 . 121.8(7) yes
C13 . C14 . C15 . 119.7(7) yes
C13 . C14 . H141 . 120.0 no
C15 . C14 . H141 . 120.3 no
C14 . C15 . N11 . 122.9(7) yes
C14 . C15 . H151 . 118.4 no
N11 . C15 . H151 . 118.8 no
C13 . C16 . H161 . 109.4 no
C13 . C16 . H162 . 109.5 no
H161 . C16 . H162 . 109.4 no
C13 . C16 . H163 . 109.4 no
H161 . C16 . H163 . 109.5 no
H162 . C16 . H163 . 109.7 no
loop_
_geom_bond_atom_site_label_1
_geom_bond_site_symmetry_1
_geom_bond_atom_site_label_2
_geom_bond_site_symmetry_2
_geom_bond_distance
_geom_bond_publ_flag
Cl2 . C2 . 1.75(2) yes
Cl3 . C3 . 1.69(2) yes
Cl4 . C4 . 1.761(14) yes
Cl5 . C5 . 1.724(19) yes
Cl6 . C6 . 1.73(2) yes
O1 . C1 . 1.336(18) yes
O1 . H11 . 1.091 no
N11 . C11 . 1.376(18) yes
N11 . C15 . 1.307(18) yes
C1 . C2 . 1.39(2) yes
C1 . C6 . 1.38(2) yes
C2 . C3 . 1.368(17) yes
C3 . C4 . 1.35(2) yes
C4 . C5 . 1.36(2) yes
C5 . C6 . 1.380(17) yes
C11 . C12 . 1.377(19) yes
C11 . H111 . 0.928 no
C12 . C13 . 1.392(18) yes
C12 . H121 . 0.932 no
C13 . C14 . 1.428(19) yes
C13 . C16 . 1.47(2) yes
C14 . C15 . 1.379(19) yes
C14 . H141 . 0.929 no
C15 . H151 . 0.928 no
C16 . H161 . 0.963 no
C16 . H162 . 0.963 no
C16 . H163 . 0.963 no
loop_
_geom_hbond_atom_site_label_D
_geom_hbond_site_symmetry_D
_geom_hbond_atom_site_label_H
_geom_hbond_site_symmetry_H
_geom_hbond_atom_site_label_A
_geom_hbond_site_symmetry_A
_geom_hbond_angle_DHA
_geom_hbond_distance_DH
_geom_hbond_distance_HA
_geom_hbond_distance_DA
_geom_hbond_publ_flag
O1 . H11 . N11 . 180 1.09 1.39 2.49(2) yes
O1 . H11 . C11 . 152 1.09 2.44 3.44(2) yes
O1 . H11 . C15 . 150 1.09 2.32 3.31(2) yes
C15 . H151 . O1 2_676 170 0.93 2.42 3.34(2) yes
loop_
_oxford_refln_omitted_index_h
_oxford_refln_omitted_index_k
_oxford_refln_omitted_index_l
_oxford_refln_omitted_flag
_oxford_refln_omitted_details
-3 1 1 x .
-2 -1 1 x .
-5 -3 3 x .
-3 -2 2 x .
1 3 0 x .
