#------------------------------------------------------------------------------
#$Date: 2021-03-05 03:46:14 +0200 (Fri, 05 Mar 2021) $
#$Revision: 262573 $
#$URL: file:///home/coder/svn-repositories/cod/cif/7/24/19/7241918.cif $
#------------------------------------------------------------------------------
#
# This file is available in the Crystallography Open Database (COD),
# http://www.crystallography.net/
#
# All data on this site have been placed in the public domain by the
# contributors.
#
data_7241918
loop_
_publ_author_name
'Jung, Mi-Hee'
_publ_section_title
;
 Exploration of two-dimensional perovskites incorporating methylammonium
 for high performance solar cells
;
_journal_issue                   5
_journal_name_full               CrystEngComm
_journal_page_first              1181
_journal_page_last               1200
_journal_paper_doi               10.1039/D0CE01469A
_journal_volume                  23
_journal_year                    2021
_chemical_formula_sum            'C6 H0 I7 N4 Pb2'
_chemical_formula_weight         1430.78
_space_group_crystal_system      monoclinic
_space_group_IT_number           15
_space_group_name_Hall           '-C 2yc'
_space_group_name_H-M_alt        'C 1 2/c 1'
_audit_creation_method           SHELXL-2017/1
_audit_update_record
;
2018-11-16 deposited with the CCDC.	2020-12-17 downloaded from the CCDC.
;
_cell_angle_alpha                90
_cell_angle_beta                 98.251(6)
_cell_angle_gamma                90
_cell_formula_units_Z            4
_cell_length_a                   45.458(4)
_cell_length_b                   8.9432(8)
_cell_length_c                   8.8219(7)
_cell_measurement_reflns_used    15300
_cell_measurement_temperature    296(2)
_cell_measurement_theta_max      21.261
_cell_measurement_theta_min      2.7165
_cell_volume                     3549.3(5)
_computing_cell_refinement       'Bruker SMART APEXll'
_computing_data_collection       'Bruker SMART APEXll'
_computing_data_reduction        'Bruker SAINT'
_computing_structure_refinement  'SHELXL-2017/1 (Sheldrick, 2017)'
_computing_structure_solution    'SHELXT 2014/5 (Sheldrick, 2014)'
_diffrn_ambient_temperature      296(2)
_diffrn_measured_fraction_theta_full 0.998
_diffrn_measured_fraction_theta_max 0.995
_diffrn_measurement_device_type  'CCD area detector'
_diffrn_measurement_method       'omega scan'
_diffrn_radiation_type           MoK\a
_diffrn_radiation_wavelength     0.71073
_diffrn_reflns_av_R_equivalents  0.0719
_diffrn_reflns_av_unetI/netI     0.0978
_diffrn_reflns_Laue_measured_fraction_full 0.998
_diffrn_reflns_Laue_measured_fraction_max 0.995
_diffrn_reflns_limit_h_max       54
_diffrn_reflns_limit_h_min       -60
_diffrn_reflns_limit_k_max       11
_diffrn_reflns_limit_k_min       -9
_diffrn_reflns_limit_l_max       11
_diffrn_reflns_limit_l_min       -11
_diffrn_reflns_number            14499
_diffrn_reflns_point_group_measured_fraction_full 0.998
_diffrn_reflns_point_group_measured_fraction_max 0.995
_diffrn_reflns_theta_full        25.242
_diffrn_reflns_theta_max         28.303
_diffrn_reflns_theta_min         0.905
_diffrn_source                   'fine-focus sealed tube'
_exptl_absorpt_coefficient_mu    15.415
_exptl_crystal_colour            yellow
_exptl_crystal_density_diffrn    2.678
_exptl_crystal_description       plate
_exptl_crystal_F_000             2396
_exptl_crystal_size_max          0.04
_exptl_crystal_size_mid          0.02
_exptl_crystal_size_min          0.02
_refine_diff_density_max         5.336
_refine_diff_density_min         -2.677
_refine_diff_density_rms         1.025
_refine_ls_extinction_coef       0.00081(12)
_refine_ls_extinction_expression Fc^*^=kFc[1+0.001xFc^2^\l^3^/sin(2\q)]^-1/4^
_refine_ls_extinction_method     'SHELXL-2017/1 (Sheldrick 2017)'
_refine_ls_goodness_of_fit_ref   1.075
_refine_ls_hydrogen_treatment    undef
_refine_ls_matrix_type           full
_refine_ls_number_parameters     73
_refine_ls_number_reflns         4395
_refine_ls_number_restraints     30
_refine_ls_restrained_S_all      1.082
_refine_ls_R_factor_all          0.1560
_refine_ls_R_factor_gt           0.0983
_refine_ls_shift/su_max          2.909
_refine_ls_shift/su_mean         0.190
_refine_ls_structure_factor_coef Fsqd
_refine_ls_weighting_details
'w=1/[\s^2^(Fo^2^)+(0.1817P)^2^+46.7176P] where P=(Fo^2^+2Fc^2^)/3'
_refine_ls_weighting_scheme      calc
_refine_ls_wR_factor_gt          0.2940
_refine_ls_wR_factor_ref         0.3364
_reflns_Friedel_coverage         0.000
_reflns_number_gt                2431
_reflns_number_total             4395
_reflns_threshold_expression     'I > 2\s(I)'
_cod_data_source_file            d0ce01469a2.cif
_cod_data_source_block           ImPbI3_1_a
_cod_depositor_comments
'Adding full bibliography for 7241916--7241921.cif.'
_cod_original_sg_symbol_H-M      'C 2/c'
_cod_database_code               7241918
_shelx_shelxl_version_number     2017/1
_shelx_space_group_comment
;
The symmetry employed for this shelxl refinement is uniquely defined
by the following loop, which should always be used as a source of
symmetry information in preference to the above space-group names.
They are only intended as comments.
;
_shelx_res_file
;
TITL ImPbI3_1_a.res in C2/c
    ImPbI3_1_a.res
    created by SHELXL-2017/1 at 19:26:06 on 15-Nov-2018
REM Old TITL ImPbI3_1 in C2/c
REM SHELXT solution in C2/c
REM R1 0.234,  Rweak 0.016,  Alpha 0.104,  Orientation as input
REM Formula found by SHELXT:  N2 I7 Pb2
CELL  0.71073  45.4576   8.9432   8.8219   90.000   98.251   90.000
ZERR   4.000   0.0043   0.0008   0.0007    0.000    0.006    0.000
LATT  7
SYMM -X, Y, 1/2-Z
SFAC C H N I PB
DISP $C  0.00341  0.00169 11.32113!source kissel
DISP $H -0.00002  0.00000  0.66638!source kissel
DISP $N  0.00664  0.00342 19.38436!source kissel
DISP $I -0.43705  1.84095 7630.74430!source kissel
DISP $Pb -3.41943 10.20082 41609.52882!source kissel
UNIT 24 0 16 28 8
ACTA
TEMP 23.000
L.S. 10
ISOR 0.05 N2 N1 C2 C3 C1
BOND $H
LIST 6
FMAP 2
PLAN 20
WGHT    0.181700   46.717598
EXTI    0.000813
FVAR       0.06458
PB1   5    0.427460    0.251139    0.698386    11.00000    0.05901    0.03171 =
         0.03535    0.00048    0.01120    0.00063
AFIX   3
N1    3    0.300978    0.319044    1.081280    11.00000    0.88187    0.87079 =
         0.91754    0.02632    0.09754   -0.01203
C1    1    0.329025    0.250182    1.126111    11.00000    0.11186    0.14465 =
         0.21862    0.03236    0.01300    0.00096
N2    3    0.336827    0.171772    0.997688    11.00000    1.44573    1.44092 =
         1.43278    0.00322    0.21400    0.00130
C2    1    0.313602    0.192173    0.873486    11.00000    2.00000    2.00000 =
         2.00000   -0.00106    0.51968    0.00973
C3    1    0.291447    0.283193    0.925148    11.00000    2.00000    2.00000 =
         2.00000    0.00392    0.67743    0.01012
AFIX   0
I1    4    0.358349    0.211324    0.665971    11.00000    0.05550    0.08385 =
         0.09324   -0.00068    0.01090    0.00363
I2    4    0.427225    0.541388    0.490093    11.00000    0.12264    0.06279 =
         0.07069    0.04087    0.03601    0.02034
I3    4    0.500000    0.261604    0.750000    10.50000    0.04914    0.07882 =
         0.07520    0.00000    0.00726    0.00000
I4    4    0.432425   -0.041422    0.909463    11.00000    0.09433    0.05458 =
         0.05666    0.02810    0.02033    0.00943
HKLF 4




REM  ImPbI3_1_a.res in C2/c
REM R1 =  0.0983 for    2431 Fo > 4sig(Fo)  and  0.1560 for all    4395 data
REM     73 parameters refined using     30 restraints

END

WGHT      0.1817     46.7115

REM Highest difference peak  5.336,  deepest hole -2.677,  1-sigma level  1.025
Q1    1   0.4272 -0.2512  0.9285  11.00000  0.05    5.34
Q2    1   0.3736  0.1815  1.0913  11.00000  0.05    4.34
Q3    1   0.4280  0.7525  0.4548  11.00000  0.05    4.12
Q4    1   0.3585  0.2980  0.6192  11.00000  0.05    3.74
Q5    1   0.3587  0.2134  0.5894  11.00000  0.05    3.44
Q6    1   0.4324  0.0274  0.9857  11.00000  0.05    3.44
Q7    1   0.2784  0.3219  1.2189  11.00000  0.05    3.25
Q8    1   0.5000  0.2225  0.7500  10.50000  0.05    3.24
Q9    1   0.3589  0.2613  1.1680  11.00000  0.05    3.18
Q10   1   0.4282  0.7550  0.6765  11.00000  0.05    3.14
Q11   1   0.5000 -0.2551  0.7500  10.50000  0.05    2.93
Q12   1   0.2846  0.2211  0.5320  11.00000  0.05    2.83
Q13   1   0.2751  0.0971  0.7295  11.00000  0.05    2.82
Q14   1   0.3581  0.2409  1.3572  11.00000  0.05    2.70
Q15   1   0.2615  0.4272  1.2902  11.00000  0.05    2.70
Q16   1   0.3060  0.3714  1.2085  11.00000  0.05    2.67
Q17   1   0.2842  0.2825  0.4982  11.00000  0.05    2.65
Q18   1   0.2841  0.2450  1.3188  11.00000  0.05    2.63
Q19   1   0.2799  0.0497  0.8339  11.00000  0.05    2.51
Q20   1   0.2886  0.3957  1.2799  11.00000  0.05    2.50
;
_shelx_res_checksum              6175
loop_
_space_group_symop_operation_xyz
'x, y, z'
'-x, y, -z+1/2'
'x+1/2, y+1/2, z'
'-x+1/2, y+1/2, -z+1/2'
'-x, -y, -z'
'x, -y, z-1/2'
'-x+1/2, -y+1/2, -z'
'x+1/2, -y+1/2, z-1/2'
loop_
_atom_site_label
_atom_site_type_symbol
_atom_site_fract_x
_atom_site_fract_y
_atom_site_fract_z
_atom_site_U_iso_or_equiv
_atom_site_adp_type
_atom_site_occupancy
_atom_site_site_symmetry_order
_atom_site_calc_flag
_atom_site_refinement_flags_posn
_atom_site_refinement_flags_adp
_atom_site_refinement_flags_occupancy
_atom_site_disorder_assembly
_atom_site_disorder_group
Pb1 Pb 0.42746(2) 0.25114(8) 0.69839(9) 0.0416(4) Uani 1 1 d . . . . .
N1 N 0.30098(2) 0.31904(8) 1.08128(9) 0.9(2) Uani 1 1 d R U . . .
C1 C 0.32903(2) 0.25018(8) 1.12611(9) 0.16(2) Uani 1 1 d R U . . .
N2 N 0.33683(2) 0.17177(8) 0.99769(9) 1.4(5) Uani 1 1 d R U . . .
C2 C 0.31360(2) 0.19217(8) 0.87349(9) 2.0(9) Uani 1 1 d R U . . .
C3 C 0.29145(2) 0.28319(8) 0.92515(9) 2.0(9) Uani 1 1 d R U . . .
I1 I 0.35835(5) 0.2113(3) 0.6660(3) 0.0775(7) Uani 1 1 d . . . . .
I2 I 0.42723(5) 0.5414(2) 0.4901(2) 0.0832(8) Uani 1 1 d . . . . .
I3 I 0.500000 0.2616(3) 0.750000 0.0679(8) Uani 1 2 d S T P . .
I4 I 0.43243(5) -0.0414(2) 0.9095(2) 0.0676(7) Uani 1 1 d . . . . .
loop_
_atom_site_aniso_label
_atom_site_aniso_U_11
_atom_site_aniso_U_22
_atom_site_aniso_U_33
_atom_site_aniso_U_23
_atom_site_aniso_U_13
_atom_site_aniso_U_12
Pb1 0.0590(7) 0.0317(6) 0.0353(5) 0.0005(3) 0.0112(4) 0.0006(4)
N1 0.9(2) 0.9(2) 0.9(2) 0.03(5) 0.10(6) -0.01(5)
C1 0.11(3) 0.14(4) 0.22(4) 0.03(3) 0.01(3) 0.00(2)
N2 1.4(5) 1.4(5) 1.4(5) 0.00(5) 0.21(9) 0.00(5)
C2 2.0(9) 2.0(9) 2.0(9) 0.00(5) 0.52(14) 0.01(5)
C3 2.0(9) 2.0(9) 2.0(9) 0.00(5) 0.68(14) 0.01(5)
I1 0.0555(12) 0.0839(15) 0.0932(15) -0.0007(12) 0.0109(10) 0.0036(10)
I2 0.1226(19) 0.0628(13) 0.0707(12) 0.0409(10) 0.0360(12) 0.0203(11)
I3 0.0491(15) 0.079(2) 0.0752(18) 0.000 0.0073(13) 0.000
I4 0.0943(15) 0.0546(11) 0.0567(10) 0.0281(8) 0.0203(10) 0.0094(10)
loop_
_atom_type_symbol
_atom_type_description
_atom_type_scat_dispersion_real
_atom_type_scat_dispersion_imag
_atom_type_scat_source
C C 0.0034 0.0017 'International Tables Vol C Tables 4.2.6.8 and 6.1.1.4'
H H 0.0000 0.0000 'International Tables Vol C Tables 4.2.6.8 and 6.1.1.4'
N N 0.0066 0.0034 'International Tables Vol C Tables 4.2.6.8 and 6.1.1.4'
I I -0.4371 1.8409 'International Tables Vol C Tables 4.2.6.8 and 6.1.1.4'
Pb Pb -3.4194 10.2008 'International Tables Vol C Tables 4.2.6.8 and 6.1.1.4'
loop_
_geom_angle_atom_site_label_1
_geom_angle_atom_site_label_2
_geom_angle_atom_site_label_3
_geom_angle
_geom_angle_site_symmetry_1
_geom_angle_site_symmetry_3
_geom_angle_publ_flag
I1 Pb1 I2 91.17(6) . 6_566 ?
I1 Pb1 I2 96.88(7) . . ?
I2 Pb1 I2 89.50(2) 6_566 . ?
I1 Pb1 I4 92.59(6) . 6 ?
I2 Pb1 I4 176.18(6) 6_566 6 ?
I2 Pb1 I4 90.74(5) . 6 ?
I1 Pb1 I4 86.92(6) . . ?
I2 Pb1 I4 90.82(5) 6_566 . ?
I2 Pb1 I4 176.18(6) . . ?
I4 Pb1 I4 88.69(2) 6 . ?
I1 Pb1 I3 174.41(6) . . ?
I2 Pb1 I3 89.49(6) 6_566 . ?
I2 Pb1 I3 88.67(6) . . ?
I4 Pb1 I3 86.71(5) 6 . ?
I4 Pb1 I3 87.52(6) . . ?
C3 N1 C1 108.0 . . ?
N2 C1 N1 108.0 . . ?
C1 N2 C2 108.0 . . ?
C3 C2 N2 108.0 . . ?
C2 C3 N1 108.0 . . ?
Pb1 I2 Pb1 161.04(9) 6_565 . ?
Pb1 I3 Pb1 176.71(10) . 2_656 ?
Pb1 I4 Pb1 159.37(8) 6_556 . ?
loop_
_geom_bond_atom_site_label_1
_geom_bond_atom_site_label_2
_geom_bond_distance
_geom_bond_site_symmetry_2
_geom_bond_publ_flag
Pb1 I1 3.134(2) . ?
Pb1 I2 3.1739(17) 6_566 ?
Pb1 I2 3.1795(18) . ?
Pb1 I4 3.1985(17) 6 ?
Pb1 I4 3.2005(17) . ?
Pb1 I3 3.2647(10) . ?
N1 C3 1.4200 . ?
N1 C1 1.4200 . ?
C1 N2 1.4200 . ?
N2 C2 1.4200 . ?
C2 C3 1.4200 . ?
