#------------------------------------------------------------------------------
#$Date: 2020-08-26 04:27:48 +0300 (Wed, 26 Aug 2020) $
#$Revision: 255644 $
#$URL: file:///home/coder/svn-repositories/cod/cif/7/24/11/7241117.cif $
#------------------------------------------------------------------------------
#
# This file is available in the Crystallography Open Database (COD),
# http://www.crystallography.net/
#
# All data on this site have been placed in the public domain by the
# contributors.
#
data_7241117
loop_
_publ_author_name
'Song, Jiewu'
'Dang, Yangyang'
'Liu, Xiaolong'
'Tao, Xutang'
_publ_section_title
;
 Layered Hybrid Lead Perovskite Single Crystals: Phase Transformations and
 Tunable Optical Properties
;
_journal_name_full               CrystEngComm
_journal_paper_doi               10.1039/D0CE00753F
_journal_year                    2020
_chemical_formula_moiety         'I7 Pb2, C4 N, 1.5(C2), N'
_chemical_formula_sum            'C17 H30 I7 N3 Pb2'
_chemical_formula_weight         1579.12
_chemical_name_systematic        C17H30N3I7Pb2
_space_group_crystal_system      triclinic
_space_group_IT_number           2
_space_group_name_Hall           '-P 1'
_space_group_name_H-M_alt        'P -1'
_atom_sites_solution_primary     direct
_audit_creation_date             2018-01-08
_audit_creation_method
;
Olex2 1.2
(compiled 2016.02.19 svn.r3266 for OlexSys, GUI svn.r5155)
;
_audit_update_record
;
2018-01-10 deposited with the CCDC.	2020-08-20 downloaded from the CCDC.
;
_cell_angle_alpha                97.072(4)
_cell_angle_beta                 93.983(4)
_cell_angle_gamma                90.199(4)
_cell_formula_units_Z            2
_cell_length_a                   8.8092(5)
_cell_length_b                   8.8168(4)
_cell_length_c                   22.8196(12)
_cell_measurement_reflns_used    7002
_cell_measurement_temperature    296.00(10)
_cell_measurement_theta_max      28.8120
_cell_measurement_theta_min      4.1300
_cell_volume                     1754.51(16)
_computing_cell_refinement       'CrysAlisPro 1.171.38.43f (Rigaku OD, 2015)'
_computing_data_collection       'CrysAlisPro 1.171.38.43f (Rigaku OD, 2015)'
_computing_data_reduction        'CrysAlisPro 1.171.38.43f (Rigaku OD, 2015)'
_computing_molecular_graphics    'Olex2 (Dolomanov et al., 2009)'
_computing_publication_material  'Olex2 (Dolomanov et al., 2009)'
_computing_structure_refinement  'ShelXL (Sheldrick, 2015)'
_computing_structure_solution    'ShelXT (Sheldrick, 2015)'
_diffrn_ambient_environment      air
_diffrn_ambient_temperature      296.00(10)
_diffrn_detector                 'CCD plate'
_diffrn_detector_area_resol_mean 5.1975
_diffrn_detector_type            AtlasS2
_diffrn_measured_fraction_theta_full 0.998
_diffrn_measured_fraction_theta_max 0.860
_diffrn_measurement_details
;
List of Runs (angles in degrees, time in seconds):

  # Type    Start    End  Width  t~exp~   \w     \q     \k     \f   Frames
#--------------------------------------------------------------------------
  1  \w    -63.00  35.00   1.00    6.00    --   10.97 -37.00  60.00   98
  2  \w    -61.00  39.00   1.00    6.00    --   10.97 -57.00-180.00  100
  3  \w     34.00  98.00   1.00    6.00    --   10.97-178.00  90.00   64
  4  \w    -13.00  85.00   1.00    6.00    --   10.97  37.00-150.00   98
  5  \w    -20.00  29.00   1.00    6.00    --  -11.59 -99.00-150.00   49
  6  \w    -44.00  35.00   1.00    6.00    --  -11.59  77.00 -30.00   79
;
_diffrn_measurement_device       'four-circle diffractometer'
_diffrn_measurement_device_type  'SuperNova, Dual, Cu at zero, AtlasS2'
_diffrn_measurement_method       '\w scans'
_diffrn_orient_matrix_type
'CrysAlisPro convention (1999,Acta A55,543-557)'
_diffrn_orient_matrix_UB_11      -0.0612121000
_diffrn_orient_matrix_UB_12      -0.0462145000
_diffrn_orient_matrix_UB_13      0.0064849000
_diffrn_orient_matrix_UB_21      0.0035839000
_diffrn_orient_matrix_UB_22      -0.0447712000
_diffrn_orient_matrix_UB_23      -0.0278980000
_diffrn_orient_matrix_UB_31      0.0524954000
_diffrn_orient_matrix_UB_32      -0.0493185000
_diffrn_orient_matrix_UB_33      0.0128667000
_diffrn_radiation_monochromator  mirror
_diffrn_radiation_probe          x-ray
_diffrn_radiation_type           MoK\a
_diffrn_radiation_wavelength     0.71073
_diffrn_reflns_av_R_equivalents  0.0409
_diffrn_reflns_av_unetI/netI     0.0484
_diffrn_reflns_Laue_measured_fraction_full 0.998
_diffrn_reflns_Laue_measured_fraction_max 0.860
_diffrn_reflns_limit_h_max       11
_diffrn_reflns_limit_h_min       -11
_diffrn_reflns_limit_k_max       11
_diffrn_reflns_limit_k_min       -12
_diffrn_reflns_limit_l_max       31
_diffrn_reflns_limit_l_min       -31
_diffrn_reflns_number            23284
_diffrn_reflns_point_group_measured_fraction_full 0.998
_diffrn_reflns_point_group_measured_fraction_max 0.860
_diffrn_reflns_theta_full        26.000
_diffrn_reflns_theta_max         29.557
_diffrn_reflns_theta_min         3.266
_diffrn_source                   'micro-focus sealed X-ray tube'
_diffrn_source_type              'SuperNova (Mo) X-ray Source'
_exptl_absorpt_coefficient_mu    15.752
_exptl_absorpt_correction_T_max  1.00000
_exptl_absorpt_correction_T_min  0.17270
_exptl_absorpt_correction_type   multi-scan
_exptl_absorpt_process_details
;
CrysAlisPro 1.171.38.43f (Rigaku Oxford Diffraction, 2015)
Empirical absorption correction using spherical harmonics,
 implemented in SCALE3 ABSPACK scaling algorithm.
;
_exptl_crystal_colour            'clear brownish brown'
_exptl_crystal_colour_lustre     clear
_exptl_crystal_colour_modifier   brownish
_exptl_crystal_colour_primary    brown
_exptl_crystal_density_diffrn    2.989
_exptl_crystal_description       plate
_exptl_crystal_F_000             1376
_exptl_crystal_size_max          0.2
_exptl_crystal_size_mid          0.15
_exptl_crystal_size_min          0.15
_refine_diff_density_max         2.705
_refine_diff_density_min         -1.896
_refine_diff_density_rms         0.315
_refine_ls_extinction_coef       0.00075(9)
_refine_ls_extinction_expression Fc^*^=kFc[1+0.001xFc^2^\l^3^/sin(2\q)]^-1/4^
_refine_ls_extinction_method     'SHELXL-2014/7 (Sheldrick 2014'
_refine_ls_goodness_of_fit_ref   1.052
_refine_ls_hydrogen_treatment    undef
_refine_ls_matrix_type           full
_refine_ls_number_parameters     164
_refine_ls_number_reflns         8472
_refine_ls_number_restraints     0
_refine_ls_restrained_S_all      1.052
_refine_ls_R_factor_all          0.0747
_refine_ls_R_factor_gt           0.0546
_refine_ls_shift/su_max          0.044
_refine_ls_shift/su_mean         0.005
_refine_ls_structure_factor_coef Fsqd
_refine_ls_weighting_details
'w=1/[\s^2^(Fo^2^)+(0.0754P)^2^+12.8276P] where P=(Fo^2^+2Fc^2^)/3'
_refine_ls_weighting_scheme      calc
_refine_ls_wR_factor_gt          0.1443
_refine_ls_wR_factor_ref         0.1592
_reflns_Friedel_coverage         0.000
_reflns_number_gt                6355
_reflns_number_total             8472
_reflns_threshold_expression     'I > 2\s(I)'
_cod_data_source_file            d0ce00753f2.cif
_cod_data_source_block           x1_CCDC2
_cod_original_cell_volume        1754.52(15)
_cod_database_code               7241117
_chemical_oxdiff_formula         'C1 H1 N1 Pb1 I1'
_shelx_space_group_comment
;
The symmetry employed for this shelxl refinement is uniquely defined
by the following loop, which should always be used as a source of
symmetry information in preference to the above space-group names.
They are only intended as comments.
;
_reflns_odcompleteness_completeness 99.76
_reflns_odcompleteness_iscentric 1
_reflns_odcompleteness_theta     26.32
_olex2_refinement_description
;
;
_shelx_res_file
;
    dang3.res created by SHELXL-2014/7

TITL dang3_a.res in P-1
REM Old TITL DANG3 in P-1 #2
REM SHELXT solution in P-1
REM R1 0.147, Rweak 0.005, Alpha 0.061, Orientation as input
REM Formula found by SHELXT: I7 N Pb2
CELL 0.71073 8.809224 8.816807 22.819639 97.0718 93.9834 90.1985
ZERR 2 0.000458 0.000398 0.001225 0.0041 0.0044 0.004
LATT 1
SFAC C H N I Pb
UNIT 34 60 6 14 4

L.S. 4 0 0
PLAN  20
BOND $H
LIST 6
fmap 2 53
MORE -1
ACTA 52
CONF
REM <olex2.extras>
REM <HklSrc "%.\\DANG3.hkl">
REM </olex2.extras>

WGHT    0.075400   12.827600
EXTI    0.000751
FVAR       0.12341
PB01  5    0.225732    0.204748    0.355083    11.00000    0.02597    0.02740 =
         0.03575    0.00483    0.00134   -0.00034
PB02  5    0.722713    0.701668    0.355049    11.00000    0.02656    0.02707 =
         0.03561    0.00530    0.00206   -0.00024
I003  4   -0.075711    0.005572    0.359710    11.00000    0.03716    0.03874 =
         0.05685    0.00739    0.00307   -0.01666
I004  4    0.422500    0.902780    0.358573    11.00000    0.03981    0.04191 =
         0.06577    0.00695   -0.00050    0.01927
I005  4    0.026479    0.506848    0.358613    11.00000    0.04126    0.04230 =
         0.06567    0.01306    0.00523    0.02022
I006  4    0.747722    0.747444    0.499982    11.00000    0.06101    0.06165 =
         0.02861    0.00409    0.00099   -0.00002
I007  4    0.196900    0.141544    0.216076    11.00000    0.07650    0.04806 =
         0.03227    0.00603    0.00187   -0.00301
I008  4    0.716746    0.660801    0.216031    11.00000    0.04610    0.07659 =
         0.03320    0.00414   -0.00053   -0.00325
I009  4    0.529525    0.399267    0.357387    11.00000    0.04666    0.04444 =
         0.07533    0.00095    0.01338   -0.02366
N00A  3    0.129642    0.743734    0.246476    11.00000    0.04468    0.04942 =
         0.05932   -0.00186    0.00922   -0.00931
C1    1    0.238089    0.621635    0.218341    11.00000    0.05451    0.07582 =
         0.07737    0.00981   -0.00242    0.00490
C0AA  1    0.542508    0.258577    0.098580    11.00000    0.10899    0.07760 =
         0.07684   -0.02688    0.04870   -0.00603
C2    1    0.045139    0.754504    0.094415    11.00000    0.10092    0.08463 =
         0.07400   -0.01869    0.03783   -0.00516
C5    1    0.650632    0.152056    0.116937    11.00000    0.14472    0.13563 =
         0.04262   -0.01243    0.03116    0.07754
C6    1    0.145305    0.652537    0.114175    11.00000    0.14681    0.20949 =
         0.03198   -0.00799    0.00646    0.11192
N7    3    0.238357    0.757334    0.497566    11.00000    0.34817    0.25216 =
         0.15879   -0.11244    0.13265   -0.17048
C8    1    0.216937    0.622270    0.149535    11.00000    0.51477    0.52350 =
         0.10102   -0.02639    0.07205    0.34004
C1AA  1    0.703058    0.164850    0.232613    11.00000    0.37697    0.36453 =
         0.09447    0.02350   -0.00857    0.36336
HKLF 4

REM  dang3_a.res in P-1
REM R1 =  0.0546 for    6355 Fo > 4sig(Fo)  and  0.0747 for all    8472 data
REM    164 parameters refined using      0 restraints

END

WGHT      0.0750     12.8933

REM Highest difference peak  2.705,  deepest hole -1.896,  1-sigma level  0.315
Q1    1   0.7786  0.2379  0.2433  11.00000  0.05    2.71
Q2    1   0.6248  0.1006  0.2418  11.00000  0.05    2.70
Q3    1   0.7038  0.0659  0.1568  11.00000  0.05    2.44
Q4    1   0.3177  0.7420  0.0977  11.00000  0.05    2.32
Q5    1   0.7653  0.1177  0.1561  11.00000  0.05    2.18
Q6    1   0.3179  0.6669  0.4791  11.00000  0.05    2.17
Q7    1   0.8024  0.2368  0.0968  11.00000  0.05    2.13
Q8    1   0.0713  0.4768  0.0999  11.00000  0.05    2.07
Q9    1   0.5611 -0.0057  0.0942  11.00000  0.05    2.00
Q10   1   0.4199  0.2581  0.0615  11.00000  0.05    1.91
Q11   1   0.1306  0.1787  0.3589  11.00000  0.05    1.88
Q12   1   0.6251  0.6699  0.3589  11.00000  0.05    1.88
Q13   1   0.3257  0.8405  0.0605  11.00000  0.05    1.86
Q14   1   0.8176  0.3457  0.0596  11.00000  0.05    1.80
Q15   1   0.4170  0.5185  0.3573  11.00000  0.05    1.75
Q16   1  -0.0696  0.4564  0.0610  11.00000  0.05    1.72
Q17   1   0.0600  0.8755  0.0576  11.00000  0.05    1.72
Q18   1  -0.0914  0.7506  0.0585  11.00000  0.05    1.71
Q19   1   0.3334  0.8314  0.5220  11.00000  0.05    1.69
Q20   1   0.5065  0.3394  0.0613  11.00000  0.05    1.69
;
_shelx_res_checksum              22757
_shelx_shelxl_version_number     2014/7
_olex2_submission_special_instructions 'No special instructions were received'
_oxdiff_exptl_absorpt_empirical_details
;
Empirical correction (ABSPACK) includes:
- Absorption correction using spherical harmonics
- Frame scaling
;
_oxdiff_exptl_absorpt_empirical_full_max 3.025
_oxdiff_exptl_absorpt_empirical_full_min 0.559
loop_
_space_group_symop_operation_xyz
'x, y, z'
'-x, -y, -z'
loop_
_atom_site_label
_atom_site_type_symbol
_atom_site_fract_x
_atom_site_fract_y
_atom_site_fract_z
_atom_site_U_iso_or_equiv
_atom_site_adp_type
_atom_site_occupancy
_atom_site_site_symmetry_order
_atom_site_calc_flag
_atom_site_refinement_flags_posn
_atom_site_refinement_flags_adp
_atom_site_refinement_flags_occupancy
_atom_site_disorder_assembly
_atom_site_disorder_group
Pb01 Pb 0.22573(4) 0.20475(4) 0.35508(2) 0.02967(13) Uani 1 1 d . . . . .
Pb02 Pb 0.72271(4) 0.70167(4) 0.35505(2) 0.02963(13) Uani 1 1 d . . . . .
I003 I -0.07571(9) 0.00557(9) 0.35971(4) 0.0442(2) Uani 1 1 d . . . . .
I004 I 0.42250(9) 0.90278(9) 0.35857(4) 0.0493(2) Uani 1 1 d . . . . .
I005 I 0.02648(9) 0.50685(9) 0.35861(4) 0.0491(2) Uani 1 1 d . . . . .
I006 I 0.74772(9) 0.74744(10) 0.49998(3) 0.0507(2) Uani 1 1 d . . . . .
I007 I 0.19690(12) 0.14154(10) 0.21608(4) 0.0523(2) Uani 1 1 d . . . . .
I008 I 0.71675(10) 0.66080(12) 0.21603(4) 0.0523(2) Uani 1 1 d . . . . .
I009 I 0.52952(10) 0.39927(10) 0.35739(4) 0.0556(3) Uani 1 1 d . . . . .
N00A N 0.1296(12) 0.7437(12) 0.2465(5) 0.052(3) Uani 1 1 d . . . . .
C1 C 0.2381(18) 0.622(2) 0.2183(8) 0.070(4) Uani 1 1 d . . . . .
C0AA C 0.543(2) 0.259(2) 0.0986(8) 0.089(6) Uani 1 1 d . . . . .
C2 C 0.045(2) 0.755(2) 0.0944(8) 0.087(6) Uani 1 1 d . . . . .
C5 C 0.651(3) 0.152(3) 0.1169(7) 0.108(8) Uani 1 1 d . . . . .
C6 C 0.145(3) 0.653(4) 0.1142(8) 0.131(12) Uani 1 1 d . . . . .
N7 N 0.238(4) 0.757(3) 0.4976(10) 0.26(3) Uani 1 1 d . . . . .
C8 C 0.217(8) 0.622(9) 0.1495(17) 0.38(5) Uani 1 1 d . . . . .
C1AA C 0.703(5) 0.165(5) 0.2326(11) 0.28(3) Uani 1 1 d . . . . .
loop_
_atom_site_aniso_label
_atom_site_aniso_U_11
_atom_site_aniso_U_22
_atom_site_aniso_U_33
_atom_site_aniso_U_23
_atom_site_aniso_U_13
_atom_site_aniso_U_12
Pb01 0.0260(2) 0.0274(2) 0.0358(2) 0.00483(17) 0.00134(16) -0.00034(15)
Pb02 0.0266(2) 0.0271(2) 0.0356(2) 0.00530(17) 0.00206(16) -0.00024(15)
I003 0.0372(4) 0.0387(4) 0.0568(5) 0.0074(4) 0.0031(3) -0.0167(3)
I004 0.0398(4) 0.0419(4) 0.0658(6) 0.0069(4) -0.0005(4) 0.0193(3)
I005 0.0413(4) 0.0423(4) 0.0657(6) 0.0131(4) 0.0052(4) 0.0202(3)
I006 0.0610(6) 0.0617(6) 0.0286(4) 0.0041(4) 0.0010(4) 0.0000(5)
I007 0.0765(6) 0.0481(5) 0.0323(4) 0.0060(4) 0.0019(4) -0.0030(4)
I008 0.0461(5) 0.0766(6) 0.0332(4) 0.0041(4) -0.0005(3) -0.0033(4)
I009 0.0467(5) 0.0444(5) 0.0753(6) 0.0010(4) 0.0134(4) -0.0237(4)
N00A 0.045(6) 0.049(6) 0.059(7) -0.002(5) 0.009(5) -0.009(5)
C1 0.055(9) 0.076(11) 0.077(11) 0.010(9) -0.002(8) 0.005(8)
C0AA 0.109(15) 0.078(12) 0.077(12) -0.027(10) 0.049(11) -0.006(11)
C2 0.101(15) 0.085(13) 0.074(12) -0.019(10) 0.038(11) -0.005(11)
C5 0.145(19) 0.136(19) 0.043(9) -0.012(11) 0.031(10) 0.078(16)
C6 0.15(2) 0.21(3) 0.032(10) -0.008(14) 0.006(11) 0.11(2)
N7 0.35(6) 0.25(4) 0.16(3) -0.11(3) 0.13(3) -0.17(4)
C8 0.51(10) 0.52(10) 0.10(3) -0.03(4) 0.07(4) 0.34(9)
C1AA 0.38(5) 0.36(5) 0.094(18) 0.02(2) -0.01(2) 0.36(5)
loop_
_atom_type_symbol
_atom_type_description
_atom_type_scat_dispersion_real
_atom_type_scat_dispersion_imag
_atom_type_scat_source
C C 0.0033 0.0016 'International Tables Vol C Tables 4.2.6.8 and 6.1.1.4'
H H 0.0000 0.0000 'International Tables Vol C Tables 4.2.6.8 and 6.1.1.4'
N N 0.0061 0.0033 'International Tables Vol C Tables 4.2.6.8 and 6.1.1.4'
I I -0.4742 1.8119 'International Tables Vol C Tables 4.2.6.8 and 6.1.1.4'
Pb Pb -3.3944 10.1111 'International Tables Vol C Tables 4.2.6.8 and 6.1.1.4'
loop_
_geom_angle_atom_site_label_1
_geom_angle_atom_site_label_2
_geom_angle_atom_site_label_3
_geom_angle
_geom_angle_site_symmetry_1
_geom_angle_site_symmetry_3
_geom_angle_publ_flag
I003 Pb01 I006 88.29(2) . 2_666 ?
I004 Pb01 I003 89.32(2) 1_545 . ?
I004 Pb01 I005 177.07(3) 1_545 . ?
I004 Pb01 I006 88.76(2) 1_545 2_666 ?
I005 Pb01 I003 89.91(2) . . ?
I005 Pb01 I006 88.40(2) . 2_666 ?
I007 Pb01 I003 89.72(3) . . ?
I007 Pb01 I004 89.19(3) . 1_545 ?
I007 Pb01 I005 93.63(3) . . ?
I007 Pb01 I006 177.16(2) . 2_666 ?
I007 Pb01 I009 93.06(3) . . ?
I009 Pb01 I003 177.01(3) . . ?
I009 Pb01 I004 89.60(3) . 1_545 ?
I009 Pb01 I005 91.03(3) . . ?
I009 Pb01 I006 88.89(3) . 2_666 ?
I003 Pb02 I006 88.28(2) 1_665 . ?
I004 Pb02 I003 89.79(2) . 1_665 ?
I004 Pb02 I006 88.45(2) . . ?
I005 Pb02 I003 89.38(2) 1_655 1_665 ?
I005 Pb02 I004 177.03(3) 1_655 . ?
I005 Pb02 I006 88.67(2) 1_655 . ?
I008 Pb02 I003 89.72(3) . 1_665 ?
I008 Pb02 I004 93.68(3) . . ?
I008 Pb02 I005 89.17(3) . 1_655 ?
I008 Pb02 I006 177.07(2) . . ?
I008 Pb02 I009 93.08(3) . . ?
I009 Pb02 I003 176.98(3) . 1_665 ?
I009 Pb02 I004 91.15(3) . . ?
I009 Pb02 I005 89.53(3) . 1_655 ?
I009 Pb02 I006 88.88(3) . . ?
Pb01 I003 Pb02 156.77(3) . 1_445 ?
Pb01 I004 Pb02 156.43(3) 1_565 . ?
Pb02 I005 Pb01 156.38(3) 1_455 . ?
Pb02 I006 Pb01 179.61(3) . 2_666 ?
Pb02 I009 Pb01 154.98(4) . . ?
N00A C1 C8 107(2) . . ?
C8 C6 C2 147(4) . . ?
C6 C8 C1 146(4) . . ?
loop_
_geom_bond_atom_site_label_1
_geom_bond_atom_site_label_2
_geom_bond_distance
_geom_bond_site_symmetry_2
_geom_bond_publ_flag
Pb01 I003 3.1936(8) . ?
Pb01 I004 3.1881(8) 1_545 ?
Pb01 I005 3.1908(8) . ?
Pb01 I006 3.2741(8) 2_666 ?
Pb01 I007 3.1447(9) . ?
Pb01 I009 3.1674(8) . ?
Pb02 I003 3.1960(8) 1_665 ?
Pb02 I004 3.1893(8) . ?
Pb02 I005 3.1865(8) 1_655 ?
Pb02 I006 3.2740(8) . ?
Pb02 I008 3.1451(9) . ?
Pb02 I009 3.1661(8) . ?
I003 Pb02 3.1960(8) 1_445 ?
I004 Pb01 3.1881(8) 1_565 ?
I005 Pb02 3.1865(8) 1_455 ?
I006 Pb01 3.2741(8) 2_666 ?
N00A C1 1.55(2) . ?
C1 C8 1.57(4) . ?
C0AA C5 1.42(3) . ?
C2 C6 1.36(3) . ?
C6 C8 1.05(5) . ?
loop_
_geom_torsion_atom_site_label_1
_geom_torsion_atom_site_label_2
_geom_torsion_atom_site_label_3
_geom_torsion_atom_site_label_4
_geom_torsion
_geom_torsion_site_symmetry_1
_geom_torsion_site_symmetry_2
_geom_torsion_site_symmetry_3
_geom_torsion_site_symmetry_4
_geom_torsion_publ_flag
N00A C1 C8 C6 -20(16) . . . . ?
C2 C6 C8 C1 36(23) . . . . ?
