#------------------------------------------------------------------------------
#$Date: 2021-02-05 00:58:32 +0200 (Fri, 05 Feb 2021) $
#$Revision: 261602 $
#$URL: file:///home/coder/svn-repositories/cod/cif/7/24/17/7241778.cif $
#------------------------------------------------------------------------------
#
# This file is available in the Crystallography Open Database (COD),
# http://www.crystallography.net/
#
# All data on this site have been placed in the public domain by the
# contributors.
#
data_7241778
loop_
_publ_author_name
'Strothmann, Robert'
'van Terwingen, Steven'
'Kalf, Irmgard'
'Englert, Ulli'
_publ_section_title
;
 Systematic screening for k type phase transitions -- general approach and
 positive example for a binuclear Cu(ii) paddlewheel structure
;
_journal_issue                   4
_journal_name_full               CrystEngComm
_journal_page_first              841
_journal_page_last               849
_journal_paper_doi               10.1039/D0CE01559H
_journal_volume                  23
_journal_year                    2021
_chemical_formula_moiety         'C32 H28 Cu2 I4 O10'
_chemical_formula_sum            'C32 H28 Cu2 I4 O10'
_chemical_formula_weight         1207.22
_space_group_crystal_system      triclinic
_space_group_IT_number           2
_space_group_name_Hall           '-P 1'
_space_group_name_H-M_alt        'P -1'
_atom_sites_solution_hydrogens   mixed
_audit_creation_method           SHELXL-2018/3
_audit_update_record
;
2020-10-21 deposited with the CCDC.	2020-12-07 downloaded from the CCDC.
;
_cell_angle_alpha                91.653(4)
_cell_angle_beta                 103.841(4)
_cell_angle_gamma                99.765(5)
_cell_formula_units_Z            1
_cell_length_a                   6.5823(17)
_cell_length_b                   11.601(3)
_cell_length_c                   13.001(3)
_cell_measurement_reflns_used    1607
_cell_measurement_temperature    240(2)
_cell_measurement_theta_max      24.52
_cell_measurement_theta_min      2.32
_cell_volume                     947.5(4)
_computing_cell_refinement       'SAINT (Bruker, 2009)'
_computing_data_collection       'SMART (Bruker, 2002)'
_computing_data_reduction        'SAINT (Bruker, 2009)'
_computing_molecular_graphics    'PLATON (Spek, 2009)'
_computing_publication_material  'SHELXL-2018/3 (Sheldrick, 2018)'
_computing_structure_refinement  'SHELXL-2018/3 (Sheldrick, 2018)'
_computing_structure_solution    'SHELXL-2018/3 (Sheldrick, 2018)'
_diffrn_ambient_temperature      240(2)
_diffrn_measured_fraction_theta_full 0.999
_diffrn_measured_fraction_theta_max 0.995
_diffrn_measurement_device_type  'Bruker D8 gonimeter with APEX CCD detector'
_diffrn_measurement_method       '\w scans'
_diffrn_radiation_monochromator  'multilayer optics'
_diffrn_radiation_source         'Incoatec microsource'
_diffrn_radiation_type           MoK\a
_diffrn_radiation_wavelength     0.71073
_diffrn_reflns_av_R_equivalents  0.0699
_diffrn_reflns_av_unetI/netI     0.0935
_diffrn_reflns_Laue_measured_fraction_full 0.999
_diffrn_reflns_Laue_measured_fraction_max 0.995
_diffrn_reflns_limit_h_max       8
_diffrn_reflns_limit_h_min       -8
_diffrn_reflns_limit_k_max       15
_diffrn_reflns_limit_k_min       -15
_diffrn_reflns_limit_l_max       17
_diffrn_reflns_limit_l_min       -17
_diffrn_reflns_number            13532
_diffrn_reflns_point_group_measured_fraction_full 0.999
_diffrn_reflns_point_group_measured_fraction_max 0.995
_diffrn_reflns_theta_full        25.242
_diffrn_reflns_theta_max         28.548
_diffrn_reflns_theta_min         2.321
_exptl_absorpt_coefficient_mu    4.432
_exptl_absorpt_correction_T_max  0.8621
_exptl_absorpt_correction_T_min  0.7037
_exptl_absorpt_correction_type   multi-scan
_exptl_absorpt_process_details   'SADABS 2014/5'
_exptl_crystal_colour            blue
_exptl_crystal_density_diffrn    2.116
_exptl_crystal_description       rod
_exptl_crystal_F_000             570
_exptl_crystal_size_max          0.120
_exptl_crystal_size_mid          0.030
_exptl_crystal_size_min          0.030
_refine_diff_density_max         0.958
_refine_diff_density_min         -0.751
_refine_diff_density_rms         0.151
_refine_ls_extinction_method     none
_refine_ls_goodness_of_fit_ref   0.929
_refine_ls_hydrogen_treatment    mixed
_refine_ls_matrix_type           full
_refine_ls_number_parameters     229
_refine_ls_number_reflns         4807
_refine_ls_number_restraints     51
_refine_ls_restrained_S_all      0.926
_refine_ls_R_factor_all          0.1069
_refine_ls_R_factor_gt           0.0464
_refine_ls_shift/su_max          0.001
_refine_ls_shift/su_mean         0.000
_refine_ls_structure_factor_coef Fsqd
_refine_ls_weighting_details
'w=1/[\s^2^(Fo^2^)+(0.0300P)^2^] where P=(Fo^2^+2Fc^2^)/3'
_refine_ls_weighting_scheme      calc
_refine_ls_wR_factor_gt          0.0777
_refine_ls_wR_factor_ref         0.0982
_reflns_Friedel_coverage         0.000
_reflns_number_gt                2584
_reflns_number_total             4807
_reflns_threshold_expression     'I > 2\s(I)'
_cod_data_source_file            d0ce01559h2.cif
_cod_data_source_block           240k
_cod_depositor_comments
'Adding full bibliography for 7241776--7241783.cif.'
_cod_database_code               7241778
_shelx_shelxl_version_number     2018/3
_shelx_space_group_comment
;
The symmetry employed for this shelxl refinement is uniquely defined
by the following loop, which should always be used as a source of
symmetry information in preference to the above space-group names.
They are only intended as comments.
;
_shelx_estimated_absorpt_t_min   0.618
_shelx_estimated_absorpt_t_max   0.879
_shelx_res_file
;
TITL s20_a17 in P-1
    s20_a17.res
    created by SHELXL-2018/3 at 16:22:52 on 16-Jul-2020
CELL 0.71073   6.58230  11.60120  13.00070  91.6531 103.8405  99.7650
ZERR    1.00   0.00170   0.00310   0.00340   0.0043   0.0044   0.0045
SFAC  C   H   CU  I   O
UNIT   32   28   2   4  10
TEMP   -33
SIZE .12 .03 .03
L.S. 15
FMAP 2
PLAN -20
ACTA
CONF
BOND $H
WGHT    0.030000
FVAR       0.35804   0.08688   0.58829
CU1   3    0.666999    0.564846    0.482131    11.00000    0.02632    0.03110 =
         0.02840    0.00299    0.00658    0.00573
I1    4    1.291458    0.315271    1.106182    11.00000    0.05483    0.05325 =
         0.03204    0.00484    0.00027    0.01825
I2    4    0.711506   -0.085488    0.107590    11.00000    0.10000    0.04993 =
         0.08084   -0.01601    0.04354    0.01622
O1    5    0.811926    0.509967    0.616512    11.00000    0.03099    0.06891 =
         0.03499    0.01562    0.00213   -0.00250
O2    5    0.529161    0.402307    0.648198    11.00000    0.03071    0.08000 =
         0.06064    0.04249   -0.00667   -0.00398
O3    5    0.692725    0.420494    0.409992    11.00000    0.04103    0.04091 =
         0.07252   -0.01912    0.02825   -0.00324
O4    5    0.595120    0.689602    0.563137    11.00000    0.07022    0.03251 =
         0.10227   -0.00505    0.06195   -0.00216
C1    1    0.721545    0.443842    0.671917    11.00000    0.02755    0.02754 =
         0.03295    0.00109    0.00497    0.00865
C2    1    0.856074    0.414039    0.774675    11.00000    0.03226    0.02937 =
         0.02957    0.00192    0.00456    0.01129
C3    1    0.761000    0.348495    0.844264    11.00000    0.03572    0.05156 =
         0.03868    0.00938    0.00261    0.00471
AFIX  43
H3    2    0.612760    0.322870    0.826315    11.00000   -1.20000
AFIX   0
C4    1    0.882159    0.320681    0.939450    11.00000    0.04412    0.05035 =
         0.04300    0.01665    0.01533    0.00567
AFIX  43
H4    2    0.818220    0.276370    0.986507    11.00000   -1.20000
AFIX   0
C5    1    1.098577    0.359443    0.963607    11.00000    0.04346    0.04185 =
         0.02718    0.00670    0.00415    0.01343
C6    1    1.195930    0.422591    0.895322    11.00000    0.02729    0.04506 =
         0.03915   -0.00149   -0.00079    0.00488
AFIX  43
H6    2    1.344580    0.446392    0.912844    11.00000   -1.20000
AFIX   0
C7    1    1.073244    0.450950    0.800356    11.00000    0.02979    0.03852 =
         0.03501    0.00452    0.00542    0.00152
AFIX  43
H7    2    1.138180    0.495261    0.753634    11.00000   -1.20000
AFIX   0
C8    1    0.562438    0.326068    0.399432    11.00000    0.03945    0.03685 =
         0.02296    0.00514    0.00478    0.01428
C9    1    0.600565    0.226454    0.333516    11.00000    0.02831    0.03143 =
         0.03356    0.00073    0.00757    0.00893
C10   1    0.779299    0.238798    0.294050    11.00000    0.03489    0.03608 =
         0.04108    0.00356    0.00715    0.00593
AFIX  43
H10   2    0.879441    0.309015    0.309694    11.00000   -1.20000
AFIX   0
C11   1    0.812176    0.148357    0.231494    11.00000    0.04766    0.04258 =
         0.04819    0.00433    0.02176    0.01073
AFIX  43
H11   2    0.935032    0.157008    0.205486    11.00000   -1.20000
AFIX   0
C12   1    0.667397    0.047667    0.207902    11.00000    0.05852    0.03446 =
         0.04784    0.00416    0.01971    0.01758
C13   1    0.485252    0.032868    0.247339    11.00000    0.06023    0.03904 =
         0.06720   -0.00397    0.02310    0.00396
AFIX  43
H13   2    0.384973   -0.037259    0.230865    11.00000   -1.20000
AFIX   0
C14   1    0.454783    0.123191    0.311110    11.00000    0.04977    0.03692 =
         0.05740   -0.00302    0.01980    0.00807
AFIX  43
H14   2    0.334338    0.113865    0.339082    11.00000   -1.20000
AFIX   0
O5    5    0.939345    0.671335    0.450340    11.00000    0.03921    0.03036 =
         0.04554    0.00684    0.01255    0.00857
DFIX O5 H5O .84
H5O   2    1.031212    0.629384    0.452034    11.00000    0.05340
DFIX 1.4 O5 C15A O5 C15B
DFIX 1.5 C15A C16A C15B C16B
PART 1  31.
DELU O5 C15A C16A
SIMU O5 C15A C16A C15B C16B
C15A  1    0.927775    0.785656    0.418819    31.00000    0.07806    0.02985 =
         0.12446    0.01724    0.05045    0.00038
AFIX  23
H15A  2    0.883182    0.828338    0.473242    31.00000   -1.20000
H15B  2    0.815258    0.779696    0.353063    31.00000   -1.20000
AFIX   0
C16A  1    1.122128    0.857113    0.400703    31.00000    0.06373    0.06008 =
         0.08676    0.03092    0.02943   -0.00610
AFIX  33
H16A  2    1.093325    0.933389    0.379506    31.00000   -1.50000
H16B  2    1.234545    0.866895    0.465678    31.00000   -1.50000
H16C  2    1.166345    0.818055    0.345011    31.00000   -1.50000
AFIX   0
PART 2  -31.
C15B  1    0.957128    0.767758    0.389493   -31.00000   21.00000
AFIX  23
H15C  2    0.848618    0.752229    0.321973   -31.00000   -1.20000
H15D  2    1.097383    0.781726    0.373896   -31.00000   -1.20000
AFIX   0
C16B  1    0.928664    0.873012    0.448764   -31.00000   21.30000
AFIX  33
H16D  2    0.941053    0.940112    0.406383   -31.00000   -1.50000
H16E  2    0.789119    0.859072    0.463385   -31.00000   -1.50000
H16F  2    1.037257    0.888494    0.515177   -31.00000   -1.50000

AFIX   0
HKLF 4




REM  s20_a17 in P-1
REM wR2 = 0.0982, GooF = S = 0.929, Restrained GooF = 0.926 for all data
REM R1 = 0.0464 for 2584 Fo > 4sig(Fo) and 0.1069 for all 4807 data
REM 229 parameters refined using 51 restraints

END

WGHT      0.0319      0.0000

REM Highest difference peak  0.958,  deepest hole -0.751,  1-sigma level  0.151
Q1    1   1.2960  0.2272  1.0599  11.00000  0.05    0.96
Q2    1   0.5000  0.5000  0.5000  10.50000  0.05    0.88
Q3    1   0.7881 -0.0199  0.0983  11.00000  0.05    0.81
Q4    1   1.2580  0.9771  0.4807  11.00000  0.05    0.73
Q5    1   0.7486 -0.0012  0.1747  11.00000  0.05    0.65
Q6    1   0.6925  0.0157  0.1346  11.00000  0.05    0.62
Q7    1   0.9190 -0.0015  0.0925  11.00000  0.05    0.58
Q8    1   1.3510  0.3155  1.1334  11.00000  0.05    0.58
Q9    1   1.1252  0.2843  0.8998  11.00000  0.05    0.57
Q10   1   0.6254  0.4414  0.3850  11.00000  0.05    0.57
Q11   1   0.8093  0.8447  0.4065  11.00000  0.05    0.57
Q12   1   1.1558  0.3614  1.0272  11.00000  0.05    0.56
Q13   1   0.9376  0.3101  0.3561  11.00000  0.05    0.56
Q14   1   0.6460  0.6587  0.5227  11.00000  0.05    0.55
Q15   1   0.7129  0.5559  0.4438  11.00000  0.05    0.55
Q16   1   0.7689 -0.1822  0.0855  11.00000  0.05    0.55
Q17   1   0.7886 -0.1322  0.1747  11.00000  0.05    0.55
Q18   1   0.7859  0.9165  0.3949  11.00000  0.05    0.54
Q19   1   1.1964  0.4135  1.1121  11.00000  0.05    0.53
Q20   1   0.6581  0.3607  0.4382  11.00000  0.05    0.52
;
_shelx_res_checksum              35653
loop_
_space_group_symop_operation_xyz
'x, y, z'
'-x, -y, -z'
loop_
_atom_site_label
_atom_site_type_symbol
_atom_site_fract_x
_atom_site_fract_y
_atom_site_fract_z
_atom_site_U_iso_or_equiv
_atom_site_adp_type
_atom_site_occupancy
_atom_site_site_symmetry_order
_atom_site_calc_flag
_atom_site_refinement_flags_posn
_atom_site_refinement_flags_adp
_atom_site_refinement_flags_occupancy
_atom_site_disorder_assembly
_atom_site_disorder_group
Cu1 Cu 0.66700(11) 0.56485(6) 0.48213(5) 0.02856(18) Uani 1 1 d . . . . .
I1 I 1.29146(8) 0.31527(4) 1.10618(3) 0.04746(15) Uani 1 1 d . . . . .
I2 I 0.71151(10) -0.08549(4) 0.10759(5) 0.0734(2) Uani 1 1 d . . . . .
O1 O 0.8119(6) 0.5100(4) 0.6165(3) 0.0472(12) Uani 1 1 d . . . . .
O2 O 0.5292(7) 0.4023(4) 0.6482(4) 0.0612(15) Uani 1 1 d . . . . .
O3 O 0.6927(7) 0.4205(4) 0.4100(4) 0.0508(13) Uani 1 1 d . . . . .
O4 O 0.5951(8) 0.6896(4) 0.5631(4) 0.0629(15) Uani 1 1 d . . . . .
C1 C 0.7215(10) 0.4438(5) 0.6719(5) 0.0294(14) Uani 1 1 d . . . . .
C2 C 0.8561(9) 0.4140(5) 0.7747(4) 0.0303(14) Uani 1 1 d . . . . .
C3 C 0.7610(10) 0.3485(6) 0.8443(5) 0.0434(17) Uani 1 1 d . . . . .
H3 H 0.612760 0.322870 0.826315 0.052 Uiso 1 1 calc R U . . .
C4 C 0.8822(11) 0.3207(6) 0.9394(5) 0.0451(17) Uani 1 1 d . . . . .
H4 H 0.818220 0.276370 0.986507 0.054 Uiso 1 1 calc R U . . .
C5 C 1.0986(10) 0.3594(5) 0.9636(4) 0.0375(15) Uani 1 1 d . . . . .
C6 C 1.1959(10) 0.4226(5) 0.8953(5) 0.0390(16) Uani 1 1 d . . . . .
H6 H 1.344580 0.446392 0.912844 0.047 Uiso 1 1 calc R U . . .
C7 C 1.0732(10) 0.4510(5) 0.8004(5) 0.0354(15) Uani 1 1 d . . . . .
H7 H 1.138180 0.495261 0.753634 0.043 Uiso 1 1 calc R U . . .
C8 C 0.5624(10) 0.3261(5) 0.3994(4) 0.0327(14) Uani 1 1 d . . . . .
C9 C 0.6006(9) 0.2265(5) 0.3335(4) 0.0307(14) Uani 1 1 d . . . . .
C10 C 0.7793(10) 0.2388(5) 0.2941(5) 0.0378(15) Uani 1 1 d . . . . .
H10 H 0.879441 0.309015 0.309694 0.045 Uiso 1 1 calc R U . . .
C11 C 0.8122(11) 0.1484(6) 0.2315(5) 0.0441(17) Uani 1 1 d . . . . .
H11 H 0.935032 0.157008 0.205486 0.053 Uiso 1 1 calc R U . . .
C12 C 0.6674(11) 0.0477(6) 0.2079(5) 0.0447(17) Uani 1 1 d . . . . .
C13 C 0.4853(12) 0.0329(6) 0.2473(6) 0.055(2) Uani 1 1 d . . . . .
H13 H 0.384973 -0.037259 0.230865 0.066 Uiso 1 1 calc R U . . .
C14 C 0.4548(11) 0.1232(5) 0.3111(5) 0.0470(18) Uani 1 1 d . . . . .
H14 H 0.334338 0.113865 0.339082 0.056 Uiso 1 1 calc R U . . .
O5 O 0.9393(7) 0.6713(4) 0.4503(3) 0.0377(10) Uani 1 1 d D U . . .
H5O H 1.031(8) 0.629(5) 0.452(5) 0.05(2) Uiso 1 1 d D . . . .
C15A C 0.928(3) 0.7857(10) 0.4188(17) 0.074(5) Uani 0.588(13) 1 d D U P A 1
H15A H 0.883182 0.828338 0.473242 0.089 Uiso 0.588(13) 1 calc R U P A 1
H15B H 0.815258 0.779696 0.353063 0.089 Uiso 0.588(13) 1 calc R U P A 1
C16A C 1.122(2) 0.8571(11) 0.4007(11) 0.070(5) Uani 0.588(13) 1 d D U P A 1
H16A H 1.093325 0.933389 0.379506 0.105 Uiso 0.588(13) 1 calc R U P A 1
H16B H 1.234545 0.866895 0.465678 0.105 Uiso 0.588(13) 1 calc R U P A 1
H16C H 1.166345 0.818055 0.345011 0.105 Uiso 0.588(13) 1 calc R U P A 1
C15B C 0.957(6) 0.7678(18) 0.389(2) 0.087(6) Uiso 0.412(13) 1 d D U P A 2
H15C H 0.848618 0.752229 0.321973 0.104 Uiso 0.412(13) 1 calc R U P A 2
H15D H 1.097383 0.781726 0.373896 0.104 Uiso 0.412(13) 1 calc R U P A 2
C16B C 0.929(4) 0.873(2) 0.4488(19) 0.113(8) Uiso 0.412(13) 1 d D U P A 2
H16D H 0.941053 0.940112 0.406383 0.169 Uiso 0.412(13) 1 calc R U P A 2
H16E H 0.789119 0.859072 0.463385 0.169 Uiso 0.412(13) 1 calc R U P A 2
H16F H 1.037257 0.888494 0.515177 0.169 Uiso 0.412(13) 1 calc R U P A 2
loop_
_atom_site_aniso_label
_atom_site_aniso_U_11
_atom_site_aniso_U_22
_atom_site_aniso_U_33
_atom_site_aniso_U_23
_atom_site_aniso_U_13
_atom_site_aniso_U_12
Cu1 0.0263(4) 0.0311(4) 0.0284(4) 0.0030(3) 0.0066(3) 0.0057(3)
I1 0.0548(3) 0.0532(3) 0.0320(2) 0.0048(2) 0.0003(2) 0.0183(2)
I2 0.1000(5) 0.0499(3) 0.0808(4) -0.0160(3) 0.0435(4) 0.0162(3)
O1 0.031(3) 0.069(3) 0.035(3) 0.016(2) 0.002(2) -0.003(2)
O2 0.031(3) 0.080(4) 0.061(3) 0.042(3) -0.007(2) -0.004(3)
O3 0.041(3) 0.041(3) 0.073(3) -0.019(2) 0.028(3) -0.003(2)
O4 0.070(4) 0.033(3) 0.102(4) -0.005(3) 0.062(3) -0.002(2)
C1 0.028(4) 0.028(3) 0.033(3) 0.001(3) 0.005(3) 0.009(3)
C2 0.032(4) 0.029(3) 0.030(3) 0.002(3) 0.005(3) 0.011(3)
C3 0.036(4) 0.052(4) 0.039(4) 0.009(3) 0.003(3) 0.005(3)
C4 0.044(4) 0.050(4) 0.043(4) 0.017(3) 0.015(4) 0.006(3)
C5 0.043(4) 0.042(4) 0.027(3) 0.007(3) 0.004(3) 0.013(3)
C6 0.027(4) 0.045(4) 0.039(4) -0.001(3) -0.001(3) 0.005(3)
C7 0.030(4) 0.039(4) 0.035(3) 0.005(3) 0.005(3) 0.002(3)
C8 0.039(4) 0.037(4) 0.023(3) 0.005(3) 0.005(3) 0.014(3)
C9 0.028(3) 0.031(3) 0.034(3) 0.001(3) 0.008(3) 0.009(3)
C10 0.035(4) 0.036(4) 0.041(4) 0.004(3) 0.007(3) 0.006(3)
C11 0.048(4) 0.043(4) 0.048(4) 0.004(3) 0.022(4) 0.011(3)
C12 0.059(5) 0.034(4) 0.048(4) 0.004(3) 0.020(4) 0.018(4)
C13 0.060(5) 0.039(4) 0.067(5) -0.004(4) 0.023(4) 0.004(4)
C14 0.050(5) 0.037(4) 0.057(5) -0.003(3) 0.020(4) 0.008(3)
O5 0.039(3) 0.030(2) 0.046(3) 0.007(2) 0.013(2) 0.009(2)
C15A 0.078(10) 0.030(7) 0.124(13) 0.017(8) 0.050(10) 0.000(7)
C16A 0.064(9) 0.060(9) 0.087(11) 0.031(8) 0.029(8) -0.006(7)
loop_
_atom_type_symbol
_atom_type_description
_atom_type_scat_dispersion_real
_atom_type_scat_dispersion_imag
_atom_type_scat_source
C C 0.0033 0.0016 'International Tables Vol C Tables 4.2.6.8 and 6.1.1.4'
H H 0.0000 0.0000 'International Tables Vol C Tables 4.2.6.8 and 6.1.1.4'
Cu Cu 0.3201 1.2651 'International Tables Vol C Tables 4.2.6.8 and 6.1.1.4'
I I -0.4742 1.8119 'International Tables Vol C Tables 4.2.6.8 and 6.1.1.4'
O O 0.0106 0.0060 'International Tables Vol C Tables 4.2.6.8 and 6.1.1.4'
loop_
_geom_angle_atom_site_label_1
_geom_angle_atom_site_label_2
_geom_angle_atom_site_label_3
_geom_angle
_geom_angle_site_symmetry_1
_geom_angle_site_symmetry_3
_geom_angle_publ_flag
O3 Cu1 O4 168.52(19) . . ?
O3 Cu1 O1 88.67(19) . . ?
O4 Cu1 O1 88.7(2) . . ?
O3 Cu1 O2 89.1(2) . 2_666 ?
O4 Cu1 O2 91.2(2) . 2_666 ?
O1 Cu1 O2 168.22(18) . 2_666 ?
O3 Cu1 O5 96.52(17) . . ?
O4 Cu1 O5 94.89(18) . . ?
O1 Cu1 O5 97.28(17) . . ?
O2 Cu1 O5 94.46(18) 2_666 . ?
O3 Cu1 Cu1 83.17(13) . 2_666 ?
O4 Cu1 Cu1 85.43(14) . 2_666 ?
O1 Cu1 Cu1 83.49(13) . 2_666 ?
O2 Cu1 Cu1 84.75(14) 2_666 2_666 ?
O5 Cu1 Cu1 179.16(12) . 2_666 ?
C1 O1 Cu1 124.4(4) . . ?
C1 O2 Cu1 123.1(4) . 2_666 ?
C8 O3 Cu1 124.5(4) . . ?
C8 O4 Cu1 122.1(4) 2_666 . ?
O2 C1 O1 124.3(5) . . ?
O2 C1 C2 118.4(6) . . ?
O1 C1 C2 117.3(5) . . ?
C7 C2 C3 119.8(5) . . ?
C7 C2 C1 120.3(6) . . ?
C3 C2 C1 119.9(5) . . ?
C4 C3 C2 120.7(6) . . ?
C4 C3 H3 119.6 . . ?
C2 C3 H3 119.6 . . ?
C5 C4 C3 118.3(6) . . ?
C5 C4 H4 120.8 . . ?
C3 C4 H4 120.8 . . ?
C4 C5 C6 121.9(6) . . ?
C4 C5 I1 119.7(5) . . ?
C6 C5 I1 118.3(5) . . ?
C5 C6 C7 119.5(6) . . ?
C5 C6 H6 120.3 . . ?
C7 C6 H6 120.3 . . ?
C2 C7 C6 119.8(6) . . ?
C2 C7 H7 120.1 . . ?
C6 C7 H7 120.1 . . ?
O4 C8 O3 124.8(6) 2_666 . ?
O4 C8 C9 118.6(6) 2_666 . ?
O3 C8 C9 116.6(6) . . ?
C14 C9 C10 119.7(6) . . ?
C14 C9 C8 119.9(6) . . ?
C10 C9 C8 120.4(6) . . ?
C9 C10 C11 120.4(6) . . ?
C9 C10 H10 119.8 . . ?
C11 C10 H10 119.8 . . ?
C12 C11 C10 120.0(6) . . ?
C12 C11 H11 120.0 . . ?
C10 C11 H11 120.0 . . ?
C11 C12 C13 120.7(6) . . ?
C11 C12 I2 119.7(5) . . ?
C13 C12 I2 119.6(5) . . ?
C14 C13 C12 119.1(7) . . ?
C14 C13 H13 120.5 . . ?
C12 C13 H13 120.5 . . ?
C9 C14 C13 120.2(6) . . ?
C9 C14 H14 119.9 . . ?
C13 C14 H14 119.9 . . ?
C15B O5 Cu1 130.9(16) . . ?
C15A O5 Cu1 119.6(7) . . ?
C15B O5 H5O 115(5) . . ?
C15A O5 H5O 132(5) . . ?
Cu1 O5 H5O 108(4) . . ?
O5 C15A C16A 117.6(12) . . ?
O5 C15A H15A 107.9 . . ?
C16A C15A H15A 107.9 . . ?
O5 C15A H15B 107.9 . . ?
C16A C15A H15B 107.9 . . ?
H15A C15A H15B 107.2 . . ?
C15A C16A H16A 109.5 . . ?
C15A C16A H16B 109.5 . . ?
H16A C16A H16B 109.5 . . ?
C15A C16A H16C 109.5 . . ?
H16A C16A H16C 109.5 . . ?
H16B C16A H16C 109.5 . . ?
O5 C15B C16B 109.5(19) . . ?
O5 C15B H15C 109.8 . . ?
C16B C15B H15C 109.8 . . ?
O5 C15B H15D 109.8 . . ?
C16B C15B H15D 109.8 . . ?
H15C C15B H15D 108.2 . . ?
C15B C16B H16D 109.5 . . ?
C15B C16B H16E 109.5 . . ?
H16D C16B H16E 109.5 . . ?
C15B C16B H16F 109.5 . . ?
H16D C16B H16F 109.5 . . ?
H16E C16B H16F 109.5 . . ?
loop_
_geom_bond_atom_site_label_1
_geom_bond_atom_site_label_2
_geom_bond_distance
_geom_bond_site_symmetry_2
_geom_bond_publ_flag
Cu1 O3 1.948(4) . ?
Cu1 O4 1.952(4) . ?
Cu1 O1 1.960(4) . ?
Cu1 O2 1.960(4) 2_666 ?
Cu1 O5 2.132(4) . ?
Cu1 Cu1 2.5923(15) 2_666 ?
I1 C5 2.112(6) . ?
I2 C12 2.095(6) . ?
O1 C1 1.242(7) . ?
O2 C1 1.236(7) . ?
O3 C8 1.253(7) . ?
O4 C8 1.236(7) 2_666 ?
C1 C2 1.501(8) . ?
C2 C7 1.376(8) . ?
C2 C3 1.392(8) . ?
C3 C4 1.382(8) . ?
C3 H3 0.9400 . ?
C4 C5 1.375(8) . ?
C4 H4 0.9400 . ?
C5 C6 1.373(8) . ?
C6 C7 1.386(8) . ?
C6 H6 0.9400 . ?
C7 H7 0.9400 . ?
C8 C9 1.509(8) . ?
C9 C14 1.377(8) . ?
C9 C10 1.380(8) . ?
C10 C11 1.386(8) . ?
C10 H10 0.9400 . ?
C11 C12 1.352(9) . ?
C11 H11 0.9400 . ?
C12 C13 1.400(9) . ?
C13 C14 1.388(8) . ?
C13 H13 0.9400 . ?
C14 H14 0.9400 . ?
O5 C15B 1.393(17) . ?
O5 C15A 1.408(11) . ?
O5 H5O 0.835(19) . ?
C15A C16A 1.475(15) . ?
C15A H15A 0.9800 . ?
C15A H15B 0.9800 . ?
C16A H16A 0.9700 . ?
C16A H16B 0.9700 . ?
C16A H16C 0.9700 . ?
C15B C16B 1.487(18) . ?
C15B H15C 0.9800 . ?
C15B H15D 0.9800 . ?
C16B H16D 0.9700 . ?
C16B H16E 0.9700 . ?
C16B H16F 0.9700 . ?
loop_
_geom_torsion_atom_site_label_1
_geom_torsion_atom_site_label_2
_geom_torsion_atom_site_label_3
_geom_torsion_atom_site_label_4
_geom_torsion
_geom_torsion_site_symmetry_1
_geom_torsion_site_symmetry_2
_geom_torsion_site_symmetry_3
_geom_torsion_site_symmetry_4
_geom_torsion_publ_flag
Cu1 O2 C1 O1 -0.3(9) 2_666 . . . ?
Cu1 O2 C1 C2 179.1(4) 2_666 . . . ?
Cu1 O1 C1 O2 1.5(9) . . . . ?
Cu1 O1 C1 C2 -177.8(4) . . . . ?
O2 C1 C2 C7 175.0(5) . . . . ?
O1 C1 C2 C7 -5.6(8) . . . . ?
O2 C1 C2 C3 -4.8(8) . . . . ?
O1 C1 C2 C3 174.6(5) . . . . ?
C7 C2 C3 C4 0.5(9) . . . . ?
C1 C2 C3 C4 -179.7(5) . . . . ?
C2 C3 C4 C5 0.1(10) . . . . ?
C3 C4 C5 C6 -1.1(10) . . . . ?
C3 C4 C5 I1 -178.3(5) . . . . ?
C4 C5 C6 C7 1.6(9) . . . . ?
I1 C5 C6 C7 178.9(4) . . . . ?
C3 C2 C7 C6 0.0(9) . . . . ?
C1 C2 C7 C6 -179.8(5) . . . . ?
C5 C6 C7 C2 -1.1(9) . . . . ?
Cu1 O3 C8 O4 -3.0(9) . . . 2_666 ?
Cu1 O3 C8 C9 175.3(4) . . . . ?
O4 C8 C9 C14 3.7(9) 2_666 . . . ?
O3 C8 C9 C14 -174.7(6) . . . . ?
O4 C8 C9 C10 -177.3(6) 2_666 . . . ?
O3 C8 C9 C10 4.3(8) . . . . ?
C14 C9 C10 C11 0.5(9) . . . . ?
C8 C9 C10 C11 -178.5(5) . . . . ?
C9 C10 C11 C12 0.7(10) . . . . ?
C10 C11 C12 C13 -0.9(10) . . . . ?
C10 C11 C12 I2 177.2(4) . . . . ?
C11 C12 C13 C14 0.1(11) . . . . ?
I2 C12 C13 C14 -178.1(5) . . . . ?
C10 C9 C14 C13 -1.3(10) . . . . ?
C8 C9 C14 C13 177.7(6) . . . . ?
C12 C13 C14 C9 1.1(10) . . . . ?
Cu1 O5 C15A C16A 178.3(11) . . . . ?
Cu1 O5 C15B C16B 76(3) . . . . ?
