#------------------------------------------------------------------------------
#$Date: 2021-03-05 03:46:14 +0200 (Fri, 05 Mar 2021) $
#$Revision: 262573 $
#$URL: file:///home/coder/svn-repositories/cod/cif/7/24/19/7241921.cif $
#------------------------------------------------------------------------------
#
# This file is available in the Crystallography Open Database (COD),
# http://www.crystallography.net/
#
# All data on this site have been placed in the public domain by the
# contributors.
#
data_7241921
loop_
_publ_author_name
'Jung, Mi-Hee'
_publ_section_title
;
 Exploration of two-dimensional perovskites incorporating methylammonium
 for high performance solar cells
;
_journal_issue                   5
_journal_name_full               CrystEngComm
_journal_page_first              1181
_journal_page_last               1200
_journal_paper_doi               10.1039/D0CE01469A
_journal_volume                  23
_journal_year                    2021
_chemical_formula_sum            'C2 H8 I3 N Pb'
_chemical_formula_weight         633.98
_space_group_crystal_system      orthorhombic
_space_group_IT_number           62
_space_group_name_Hall           '-P 2ac 2n'
_space_group_name_H-M_alt        'P n m a'
_atom_sites_solution_hydrogens   geom
_audit_creation_method           SHELXL-2017/1
_audit_update_record
;
2018-11-16 deposited with the CCDC.	2020-12-17 downloaded from the CCDC.
;
_cell_angle_alpha                90
_cell_angle_beta                 90
_cell_angle_gamma                90
_cell_formula_units_Z            4
_cell_length_a                   8.1520(16)
_cell_length_b                   8.7470(18)
_cell_length_c                   15.148(3)
_cell_measurement_reflns_used    15449
_cell_measurement_temperature    293(2)
_cell_measurement_theta_max      33.749
_cell_measurement_theta_min      0.401
_cell_volume                     1080.1(4)
_computing_cell_refinement       'HKL3000sm (Otwinowski & Minor, 1997)'
_computing_data_collection       'PAL BL2D-SMDC Program (Shin et. al, 2016)'
_computing_data_reduction        'HKL3000sm (Otwinowski & Minor, 1997)'
_computing_structure_refinement  'SHELXL-2017/1 (Sheldrick, 2017)'
_computing_structure_solution    'SHELXT 2014/5 (Sheldrick, 2014)'
_diffrn_ambient_temperature      293(2)
_diffrn_measured_fraction_theta_full 0.988
_diffrn_measured_fraction_theta_max 0.885
_diffrn_measurement_device_type  'Rayonix MX225HS CCD area detector'
_diffrn_measurement_method       'omega scan'
_diffrn_radiation_type           synchrotron
_diffrn_radiation_wavelength     0.71073
_diffrn_reflns_av_R_equivalents  0.1475
_diffrn_reflns_av_unetI/netI     0.0759
_diffrn_reflns_Laue_measured_fraction_full 0.988
_diffrn_reflns_Laue_measured_fraction_max 0.885
_diffrn_reflns_limit_h_max       11
_diffrn_reflns_limit_h_min       -11
_diffrn_reflns_limit_k_max       13
_diffrn_reflns_limit_k_min       -13
_diffrn_reflns_limit_l_max       23
_diffrn_reflns_limit_l_min       -23
_diffrn_reflns_number            10824
_diffrn_reflns_point_group_measured_fraction_full 0.988
_diffrn_reflns_point_group_measured_fraction_max 0.885
_diffrn_reflns_theta_full        25.242
_diffrn_reflns_theta_max         34.099
_diffrn_reflns_theta_min         2.838
_diffrn_source                   'PLSII 2D bending magnet'
_exptl_absorpt_coefficient_mu    23.904
_exptl_absorpt_correction_T_max  1.000
_exptl_absorpt_correction_T_min  0.788
_exptl_absorpt_correction_type   empirical
_exptl_absorpt_process_details   'HKL3000sm Scalepack(Otwinowski et.al,2003)'
_exptl_crystal_colour            yellow
_exptl_crystal_density_diffrn    3.899
_exptl_crystal_description       plate
_exptl_crystal_F_000             1072
_refine_diff_density_max         2.685
_refine_diff_density_min         -2.605
_refine_diff_density_rms         0.377
_refine_ls_extinction_coef       0.026(2)
_refine_ls_extinction_expression Fc^*^=kFc[1+0.001xFc^2^\l^3^/sin(2\q)]^-1/4^
_refine_ls_extinction_method     'SHELXL-2017/1 (Sheldrick 2017)'
_refine_ls_goodness_of_fit_ref   1.138
_refine_ls_hydrogen_treatment    constr
_refine_ls_matrix_type           full
_refine_ls_number_parameters     43
_refine_ls_number_reflns         2070
_refine_ls_number_restraints     2
_refine_ls_restrained_S_all      1.138
_refine_ls_R_factor_all          0.0639
_refine_ls_R_factor_gt           0.0617
_refine_ls_shift/su_max          0.252
_refine_ls_shift/su_mean         0.022
_refine_ls_structure_factor_coef Fsqd
_refine_ls_weighting_details
'w=1/[\s^2^(Fo^2^)+(0.1184P)^2^+1.6134P] where P=(Fo^2^+2Fc^2^)/3'
_refine_ls_weighting_scheme      calc
_refine_ls_wR_factor_gt          0.2007
_refine_ls_wR_factor_ref         0.2039
_reflns_Friedel_coverage         0.000
_reflns_number_gt                1872
_reflns_number_total             2070
_reflns_threshold_expression     'I > 2\s(I)'
_cod_data_source_file            d0ce01469a2.cif
_cod_data_source_block           EAPbI3_1_a
_cod_depositor_comments
'Adding full bibliography for 7241916--7241921.cif.'
_cod_database_code               7241921
_shelx_shelxl_version_number     2017/1
_shelx_space_group_comment
;
The symmetry employed for this shelxl refinement is uniquely defined
by the following loop, which should always be used as a source of
symmetry information in preference to the above space-group names.
They are only intended as comments.
;
_shelx_res_file
;
TITL EAPbI3_1_a.res in Pnma
    EAPbI3_1_a.res
    created by SHELXL-2017/1 at 19:12:59 on 15-Nov-2018
REM Old TITL EAPbI3_1 in Pnma
REM SHELXT solution in Pnma
REM R1 0.196,  Rweak 0.003,  Alpha 0.030,  Orientation as input
REM Formula found by SHELXT:  I3 Pb
CELL  0.71073   8.1520   8.7470  15.1480   90.000   90.000   90.000
ZERR    4.000   0.0016   0.0018   0.0030    0.000    0.000    0.000
LATT  1
SYMM 1/2-X, -Y, 1/2+Z
SYMM -X, 1/2+Y, -Z
SYMM 1/2+X, 1/2-Y, 1/2-Z
SFAC C H N I PB
DISP $C  0.00341  0.00169 11.32113!source kissel
DISP $H -0.00002  0.00000  0.66638!source kissel
DISP $N  0.00664  0.00342 19.38436!source kissel
DISP $I -0.43705  1.84095 7630.74430!source kissel
DISP $Pb -3.41943 10.20082 41609.52882!source kissel
UNIT 8 32 4 12 4
ACTA
L.S. 10
DFIX 1.47 0.01 C1 C2
DFIX 1.47 0.01 C2 N3
BOND $H
LIST 6
FMAP 2
PLAN 40
WGHT    0.118400    1.613400
EXTI    0.026478
FVAR       0.36173
PB01  5    0.511616    0.250000    0.752796    10.50000    0.04496    0.05470 =
         0.05231    0.00000    0.00089    0.00000
C1    1    0.381710   -0.250000    0.629774    10.50000    0.11908    0.19335 =
         0.23694    0.00000   -0.06246    0.00000
AFIX 137
H1A   2    0.313746   -0.200562    0.672943    10.50000   -1.50000
H1AB  2    0.483793   -0.195996    0.624686    10.50000   -1.50000
H1AC  2    0.402522   -0.353442    0.647749    10.50000   -1.50000
AFIX   0
I002  4    0.742309    0.502721    0.671832    11.00000    0.06764    0.06003 =
         0.09001    0.02379    0.00488   -0.00022
C2    1    0.298319   -0.250000    0.544672    10.50000    0.24904    0.34789 =
         0.17859    0.00000    0.07804    0.00000
AFIX  23
H2A   2    0.325881   -0.340361    0.510643    10.50000   -1.20000
H2AB  2    0.325881   -0.159639    0.510643    10.50000   -1.20000
AFIX   0
I003  4    0.289966    0.250000    0.583957    10.50000    0.07544    0.13110 =
         0.04491    0.00000   -0.00434    0.00000
N3    3    0.123978   -0.250000    0.569975    10.50000    0.05696    0.18702 =
         0.29700    0.00000    0.02198    0.00000
AFIX 137
H3A   2    0.112162   -0.297275    0.621612    10.50000   -1.50000
H3B   2    0.065742   -0.298652    0.528980    10.50000   -1.50000
H3C   2    0.088619   -0.154073    0.574631    10.50000   -1.50000
AFIX   0
HKLF 4




REM  EAPbI3_1_a.res in Pnma
REM R1 =  0.0617 for    1872 Fo > 4sig(Fo)  and  0.0639 for all    2070 data
REM     43 parameters refined using      2 restraints

END

WGHT      0.1185      1.6118

REM Highest difference peak  2.685,  deepest hole -2.605,  1-sigma level  0.377
Q1    1   0.4315  0.2500  0.7518  10.50000  0.05    2.68
Q2    1   0.2135  0.2500  0.5790  10.50000  0.05    2.31
Q3    1   0.6468  0.2500  0.7482  10.50000  0.05    1.97
Q4    1   0.5006  0.1862  0.8002  11.00000  0.05    1.56
Q5    1   0.5112  0.1892  0.7096  11.00000  0.05    1.53
Q6    1   0.6592  0.5056  0.6598  11.00000  0.05    1.30
Q7    1   0.2818 -0.2144  0.5731  11.00000  0.05    1.22
Q8    1   0.7256  0.5461  0.6044  11.00000  0.05    1.17
Q9    1   0.7432  0.5718  0.7429  11.00000  0.05    1.12
Q10   1   0.7344  0.4528  0.7179  11.00000  0.05    1.06
Q11   1   0.5984  0.1908  0.7116  11.00000  0.05    1.00
Q12   1   0.2728  0.1697  0.5306  11.00000  0.05    1.00
Q13   1  -0.1443 -0.3467  0.4985  11.00000  0.05    0.97
Q14   1   0.7321  0.4486  0.6448  11.00000  0.05    0.96
Q15   1   0.4851 -0.2500  0.7487  10.50000  0.05    0.93
Q16   1   0.1546 -0.4878  0.6677  11.00000  0.05    0.91
Q17   1   0.6198 -0.1153  0.5306  11.00000  0.05    0.89
Q18   1   0.2639 -0.2500  0.6313  10.50000  0.05    0.88
Q19   1   0.2375 -0.2047  0.6698  11.00000  0.05    0.87
Q20   1   0.3862 -0.2500  0.7496  10.50000  0.05    0.85
Q21   1   0.8884  0.3770  0.6001  11.00000  0.05    0.84
Q22   1   0.8590  0.5910  0.5772  11.00000  0.05    0.83
Q23   1   0.3724 -0.4336  0.5761  11.00000  0.05    0.82
Q24   1   0.4034 -0.5134  0.6700  11.00000  0.05    0.82
Q25   1   0.6121 -0.0959  0.5765  11.00000  0.05    0.80
Q26   1   0.3728 -0.1209  0.4254  11.00000  0.05    0.80
Q27   1   0.1245 -0.0642  0.5720  11.00000  0.05    0.79
Q28   1   0.7348  0.5762  0.5592  11.00000  0.05    0.77
Q29   1   0.8217  0.7500  0.6712  10.50000  0.05    0.75
Q30   1   0.8732  0.5141  0.6775  11.00000  0.05    0.75
Q31   1   0.3176  0.1859  0.7115  11.00000  0.05    0.74
Q32   1   0.6426  0.1427  0.8360  11.00000  0.05    0.73
Q33   1   0.2657 -0.5046  0.6779  11.00000  0.05    0.72
Q34   1   0.1186  0.0685  0.6349  11.00000  0.05    0.71
Q35   1  -0.0198 -0.2500  0.5942  10.50000  0.05    0.70
Q36   1   0.3641 -0.2500  0.3981  10.50000  0.05    0.69
Q37   1   0.7283 -0.2500  0.6614  10.50000  0.05    0.69
Q38   1   0.0959 -0.2500  0.7559  10.50000  0.05    0.68
Q39   1   0.1198 -0.3773  0.4389  11.00000  0.05    0.67
Q40   1   0.3796  0.1458  0.6724  11.00000  0.05    0.67
;
_shelx_res_checksum              23676
loop_
_space_group_symop_operation_xyz
'x, y, z'
'-x+1/2, -y, z+1/2'
'-x, y+1/2, -z'
'x+1/2, -y+1/2, -z+1/2'
'-x, -y, -z'
'x-1/2, y, -z-1/2'
'x, -y-1/2, z'
'-x-1/2, y-1/2, z-1/2'
loop_
_atom_site_label
_atom_site_type_symbol
_atom_site_fract_x
_atom_site_fract_y
_atom_site_fract_z
_atom_site_U_iso_or_equiv
_atom_site_adp_type
_atom_site_occupancy
_atom_site_site_symmetry_order
_atom_site_calc_flag
_atom_site_refinement_flags_posn
_atom_site_refinement_flags_adp
_atom_site_refinement_flags_occupancy
_atom_site_disorder_assembly
_atom_site_disorder_group
Pb01 Pb 0.51162(5) 0.250000 0.75280(2) 0.0507(2) Uani 1 2 d S T P . .
C1 C 0.382(4) -0.250000 0.630(2) 0.183(16) Uani 1 2 d DS T P . .
H1A H 0.313746 -0.200562 0.672943 0.275 Uiso 0.5 1 calc R U P . .
H1AB H 0.483793 -0.195996 0.624686 0.275 Uiso 0.5 1 calc R U P . .
H1AC H 0.402522 -0.353442 0.647749 0.275 Uiso 0.5 1 calc R U P . .
I002 I 0.74231(8) 0.50272(6) 0.67183(6) 0.0726(3) Uani 1 1 d . . . . .
C2 C 0.298(3) -0.250000 0.545(2) 0.26(3) Uani 1 2 d DS T P . .
H2A H 0.325881 -0.340361 0.510643 0.310 Uiso 0.5 1 calc R U P . .
H2AB H 0.325881 -0.159639 0.510643 0.310 Uiso 0.5 1 calc R U P . .
I003 I 0.28997(15) 0.250000 0.58396(5) 0.0838(4) Uani 1 2 d S T P . .
N3 N 0.124(2) -0.250000 0.5700(19) 0.180(14) Uani 1 2 d DS T P . .
H3A H 0.112162 -0.297275 0.621612 0.270 Uiso 0.5 1 calc R U P . .
H3B H 0.065742 -0.298652 0.528980 0.270 Uiso 0.5 1 calc R U P . .
H3C H 0.088619 -0.154073 0.574631 0.270 Uiso 0.5 1 calc R U P . .
loop_
_atom_site_aniso_label
_atom_site_aniso_U_11
_atom_site_aniso_U_22
_atom_site_aniso_U_33
_atom_site_aniso_U_23
_atom_site_aniso_U_13
_atom_site_aniso_U_12
Pb01 0.0450(3) 0.0547(3) 0.0523(3) 0.000 0.00089(11) 0.000
C1 0.12(3) 0.19(3) 0.24(4) 0.000 -0.06(3) 0.000
I002 0.0676(5) 0.0600(5) 0.0900(6) 0.0238(3) 0.0049(2) -0.00022(19)
C2 0.25(7) 0.35(9) 0.18(5) 0.000 0.08(4) 0.000
I003 0.0754(6) 0.1311(10) 0.0449(4) 0.000 -0.0043(3) 0.000
N3 0.057(9) 0.19(2) 0.30(4) 0.000 0.022(13) 0.000
loop_
_atom_type_symbol
_atom_type_description
_atom_type_scat_dispersion_real
_atom_type_scat_dispersion_imag
_atom_type_scat_source
C C 0.0034 0.0017 'International Tables Vol C Tables 4.2.6.8 and 6.1.1.4'
H H 0.0000 0.0000 'International Tables Vol C Tables 4.2.6.8 and 6.1.1.4'
N N 0.0066 0.0034 'International Tables Vol C Tables 4.2.6.8 and 6.1.1.4'
I I -0.4371 1.8409 'International Tables Vol C Tables 4.2.6.8 and 6.1.1.4'
Pb Pb -3.4194 10.2008 'International Tables Vol C Tables 4.2.6.8 and 6.1.1.4'
loop_
_geom_angle_atom_site_label_1
_geom_angle_atom_site_label_2
_geom_angle_atom_site_label_3
_geom_angle
_geom_angle_site_symmetry_1
_geom_angle_site_symmetry_3
_geom_angle_publ_flag
I003 Pb01 I002 91.52(3) . . ?
I003 Pb01 I002 91.52(2) . 7_565 ?
I002 Pb01 I002 89.11(3) . 7_565 ?
I003 Pb01 I002 84.22(2) . 4_456 ?
I002 Pb01 I002 175.04(2) . 4_456 ?
I002 Pb01 I002 93.52(3) 7_565 4_456 ?
I003 Pb01 I002 84.22(2) . 6_557 ?
I002 Pb01 I002 93.52(3) . 6_557 ?
I002 Pb01 I002 175.04(2) 7_565 6_557 ?
I002 Pb01 I002 83.55(3) 4_456 6_557 ?
I003 Pb01 I003 172.70(4) . 6_657 ?
I002 Pb01 I003 83.30(2) . 6_657 ?
I002 Pb01 I003 83.30(2) 7_565 6_657 ?
I002 Pb01 I003 101.17(2) 4_456 6_657 ?
I002 Pb01 I003 101.17(2) 6_557 6_657 ?
C2 C1 H1A 118.3 . . ?
C2 C1 H1AB 118.4 . . ?
H1A C1 H1AB 99.4 . . ?
C2 C1 H1AC 117.9 . . ?
H1A C1 H1AC 99.5 . . ?
H1AB C1 H1AC 99.7 . . ?
Pb01 I002 Pb01 78.086(19) . 6_657 ?
C1 C2 N3 103(2) . . ?
C1 C2 H2A 111.1 . . ?
N3 C2 H2A 111.3 . . ?
C1 C2 H2AB 111.1 . . ?
N3 C2 H2AB 111.3 . . ?
H2A C2 H2AB 109.2 . . ?
Pb01 I003 Pb01 77.78(2) . 6_557 ?
C2 N3 H3A 109.5 . . ?
C2 N3 H3B 109.4 . . ?
H3A N3 H3B 109.5 . . ?
C2 N3 H3C 109.5 . . ?
H3A N3 H3C 109.5 . . ?
H3B N3 H3C 109.5 . . ?
C2 N3 H3A 110(6) . 7 ?
H3A N3 H3A 55.4 . 7 ?
H3B N3 H3A 141.0 . 7 ?
H3C N3 H3A 57.1 . 7 ?
C2 N3 H3B 109(6) . 7 ?
H3A N3 H3B 141.0 . 7 ?
H3B N3 H3B 57.1 . 7 ?
H3C N3 H3B 55.4 . 7 ?
H3A N3 H3B 109.5 7 7 ?
C2 N3 H3C 109.47(12) . 7 ?
H3A N3 H3C 57.1 . 7 ?
H3B N3 H3C 55.4 . 7 ?
H3C N3 H3C 141.0 . 7 ?
H3A N3 H3C 109.5 7 7 ?
H3B N3 H3C 109.5 7 7 ?
loop_
_geom_bond_atom_site_label_1
_geom_bond_atom_site_label_2
_geom_bond_distance
_geom_bond_site_symmetry_2
_geom_bond_publ_flag
Pb01 I003 3.1315(10) . ?
Pb01 I002 3.1508(8) . ?
Pb01 I002 3.1508(7) 7_565 ?
Pb01 I002 3.3181(8) 4_456 ?
Pb01 I002 3.3181(8) 6_557 ?
Pb01 I003 3.3562(11) 6_657 ?
C1 C2 1.457(10) . ?
C1 H1A 1.0449 . ?
C1 H1AB 1.0448 . ?
C1 H1AC 1.0418 . ?
C2 N3 1.472(10) . ?
C2 H2A 0.9700 . ?
C2 H2AB 0.9700 . ?
N3 H3A 0.8900 . ?
N3 H3B 0.8900 . ?
N3 H3C 0.8900 . ?
N3 H3A 0.9(2) 7 ?
N3 H3B 0.9(2) 7 ?
N3 H3C 0.890(5) 7 ?
