#------------------------------------------------------------------------------
#$Date: 2020-09-30 04:27:55 +0300 (Wed, 30 Sep 2020) $
#$Revision: 256843 $
#$URL: file:///home/coder/svn-repositories/cod/cif/7/24/13/7241326.cif $
#------------------------------------------------------------------------------
#
# This file is available in the Crystallography Open Database (COD),
# http://www.crystallography.net/
#
# All data on this site have been placed in the public domain by the
# contributors.
#
data_7241326
loop_
_publ_author_name
'Singha, Soumen'
'Goswami, Somen'
'Dey, Sanjoy Kumar'
'Jana, Rajkumar'
'Ray, Partha Pratim'
'Saha, Indrajit'
'Rizzoli, Corrado'
'Bag, Partha Pratim'
'Kumar, Sanjay'
'SAHA, RAJAT'
_publ_section_title
;
 Synergistic Effect of Various Intermolecular Interactions on
 Self-assembly and Optoelectronic Behaviour in Co-crystals/Salts of
 Tetrabromoterephthalic Acid: A Report on Their Structure, Theoretical
 Study and Hirshfeld Surface Analysis
;
_journal_name_full               CrystEngComm
_journal_paper_doi               10.1039/D0CE01102A
_journal_year                    2020
_chemical_formula_moiety         'C8H2Br4O4, C8Br4O4, 2(C6H7N2O), 2(H2O)'
_chemical_formula_sum            'C28 H20 Br8 N4 O12'
_chemical_formula_weight         1243.76
_space_group_crystal_system      triclinic
_space_group_IT_number           2
_space_group_name_Hall           '-P 1'
_space_group_name_H-M_alt        'P -1'
_atom_sites_solution_hydrogens   geom
_audit_creation_method           SHELXL-2014/7
_audit_update_record
;
2018-05-06 deposited with the CCDC.	2020-09-29 downloaded from the CCDC.
;
_cell_angle_alpha                108.671(2)
_cell_angle_beta                 108.502(2)
_cell_angle_gamma                93.051(2)
_cell_formula_units_Z            1
_cell_length_a                   9.0292(10)
_cell_length_b                   9.4163(11)
_cell_length_c                   12.2764(14)
_cell_measurement_reflns_used    10382
_cell_measurement_temperature    294(2)
_cell_measurement_theta_max      25.495
_cell_measurement_theta_min      1.872
_cell_volume                     923.69(18)
_computing_cell_refinement       'SAINT (Bruker, 2008)'
_computing_data_collection       'APEX2 (Bruker, 2008)'
_computing_data_reduction        'SAINT (Bruker, 2008)'
_computing_structure_refinement  'SHELXL-2014/7 (Sheldrick, 2014)'
_computing_structure_solution    'SHELXT (Sheldrick, 2008)'
_diffrn_ambient_temperature      294(2)
_diffrn_measured_fraction_theta_full 1.000
_diffrn_measured_fraction_theta_max 1.000
_diffrn_measurement_device_type  '\w scan'
_diffrn_radiation_type           MoK\a
_diffrn_radiation_wavelength     0.71073
_diffrn_reflns_av_R_equivalents  0.0425
_diffrn_reflns_av_unetI/netI     0.0474
_diffrn_reflns_Laue_measured_fraction_full 1.000
_diffrn_reflns_Laue_measured_fraction_max 1.000
_diffrn_reflns_limit_h_max       10
_diffrn_reflns_limit_h_min       -10
_diffrn_reflns_limit_k_max       11
_diffrn_reflns_limit_k_min       -11
_diffrn_reflns_limit_l_max       14
_diffrn_reflns_limit_l_min       -14
_diffrn_reflns_number            10382
_diffrn_reflns_point_group_measured_fraction_full 1.000
_diffrn_reflns_point_group_measured_fraction_max 1.000
_diffrn_reflns_theta_full        25.242
_diffrn_reflns_theta_max         25.495
_diffrn_reflns_theta_min         1.872
_diffrn_source                   'Bruker APEX-II CCD'
_exptl_absorpt_coefficient_mu    8.748
_exptl_absorpt_correction_type   multi-scan
_exptl_absorpt_process_details   '(SADABS; Bruker, 2008)'
_exptl_crystal_colour            Colourless
_exptl_crystal_density_diffrn    2.236
_exptl_crystal_description       Needle
_exptl_crystal_F_000             592
_exptl_crystal_size_max          0.280
_exptl_crystal_size_mid          0.260
_exptl_crystal_size_min          0.180
_exptl_transmission_factor_max   0.736
_exptl_transmission_factor_min   0.209
_refine_diff_density_max         0.886
_refine_diff_density_min         -0.749
_refine_diff_density_rms         0.095
_refine_ls_extinction_method     none
_refine_ls_goodness_of_fit_ref   1.059
_refine_ls_hydrogen_treatment    constr
_refine_ls_matrix_type           full
_refine_ls_number_parameters     249
_refine_ls_number_reflns         3443
_refine_ls_number_restraints     0
_refine_ls_restrained_S_all      1.059
_refine_ls_R_factor_all          0.0348
_refine_ls_R_factor_gt           0.0305
_refine_ls_shift/su_max          0.001
_refine_ls_shift/su_mean         0.000
_refine_ls_structure_factor_coef Fsqd
_refine_ls_weighting_details
'w=1/[\s^2^(Fo^2^)+(0.0241P)^2^+0.7208P] where P=(Fo^2^+2Fc^2^)/3'
_refine_ls_weighting_scheme      calc
_refine_ls_wR_factor_gt          0.0762
_refine_ls_wR_factor_ref         0.0785
_reflns_Friedel_coverage         0.000
_reflns_number_gt                3062
_reflns_number_total             3443
_reflns_threshold_expression     'I > 2\s(I)'
_cod_data_source_file            d0ce01102a2.cif
_cod_data_source_block           shelx
_cod_database_code               7241326
_shelx_shelxl_version_number     2014/7
_shelx_space_group_comment
;
The symmetry employed for this shelxl refinement is uniquely defined
by the following loop, which should always be used as a source of
symmetry information in preference to the above space-group names.
They are only intended as comments.
;
_shelx_estimated_absorpt_t_min   0.193
_shelx_estimated_absorpt_t_max   0.302
_shelx_res_file
;

    shelx.res created by SHELXL-2014/7

TITL SK3 - P-1
CELL  0.71073   9.0292   9.4163  12.2764  108.671  108.502   93.051
ZERR     1.00   0.0010   0.0011   0.0014    0.002    0.002    0.002
LATT   1
SFAC  C    H    BR   N    O
UNIT  28 20 8 4 12
MERG   2
OMIT    -4.00  51.00
FMAP   2
PLAN   30
SIZE     0.180   0.260   0.280
ACTA
BOND   $H
L.S.  10
TEMP    21.00
WGHT    0.024100    0.720800
FVAR       0.43633
BR1   3    0.885694    0.607652    0.624215    11.00000    0.02438    0.07389 =
         0.05347    0.01717    0.00777    0.00295
BR2   3    0.641937    0.862527    0.647230    11.00000    0.05853    0.03600 =
         0.06109    0.00635    0.02488   -0.00171
BR3   3    0.869169    0.446691    0.075210    11.00000    0.02642    0.06483 =
         0.04882    0.03452    0.01728    0.02127
BR4   3    0.725897    0.619373   -0.126966    11.00000    0.03370    0.05289 =
         0.04755    0.03151    0.02311    0.01453
O1    5    1.039012    0.904965    0.117221    11.00000    0.03241    0.05720 =
         0.05570    0.02976    0.02306    0.01988
O2    5    0.739134    0.214533    0.564929    11.00000    0.07023    0.08576 =
         0.06298    0.05753    0.03951    0.04807
O3    5    0.766731    0.243440    0.401395    11.00000    0.05311    0.05889 =
         0.04713    0.03523    0.02742    0.03491
AFIX 147
H3O   2    0.739019    0.298852    0.361646    11.00000    0.08830
AFIX   0
O4    5    0.687545    0.399928    0.273144    11.00000    0.05202    0.05221 =
         0.03284    0.02470    0.01517    0.01788
O5    5    0.589298    0.187665    0.105396    11.00000    0.04740    0.03844 =
         0.04717    0.02106    0.01829    0.01964
O1W   5    0.311804    0.787346    0.227304    11.00000    0.03950    0.05595 =
         0.05365    0.02570    0.02455    0.01318
AFIX   3
H1W1  2    0.299054    0.783796    0.294304    11.00000   -1.20000
H2W1  2    0.224754    0.829296    0.194904    11.00000   -1.20000
AFIX   0
N1    4    0.615646    0.842257    0.249038    11.00000    0.03865    0.05081 =
         0.05259    0.02207    0.02377    0.01336
N2    4    0.846305    1.038849    0.068126    11.00000    0.05159    0.06022 =
         0.07282    0.04327    0.03971    0.03253
C1    1    0.702341    0.801648    0.340745    11.00000    0.06378    0.09983 =
         0.06543    0.05491    0.03723    0.02857
AFIX  43
H1    2    0.654113    0.766246    0.385940    11.00000   -1.20000
AFIX   0
C2    1    0.863495    0.812301    0.368309    11.00000    0.06230    0.12258 =
         0.06624    0.06636    0.02901    0.03866
AFIX  43
H2    2    0.925436    0.785027    0.432500    11.00000   -1.20000
AFIX   0
C3    1    0.931521    0.863957    0.299369    11.00000    0.03946    0.08228 =
         0.05632    0.03944    0.02168    0.02521
AFIX  43
H3    2    1.040326    0.871200    0.317069    11.00000   -1.20000
AFIX   0
C4    1    0.840622    0.905098    0.204465    11.00000    0.03296    0.03393 =
         0.03648    0.01276    0.01301    0.01329
C5    1    0.678722    0.893415    0.180865    11.00000    0.03541    0.03722 =
         0.03993    0.01712    0.01393    0.01289
AFIX  43
H5    2    0.614293    0.921088    0.117817    11.00000   -1.20000
AFIX   0
C6    1    0.917113    0.951253    0.126210    11.00000    0.03372    0.03518 =
         0.03751    0.01489    0.01135    0.01038
C7    1    0.711152    0.274798    0.488520    11.00000    0.03747    0.04624 =
         0.03651    0.02405    0.01618    0.01767
C8    1    0.601614    0.392551    0.493619    11.00000    0.03212    0.03999 =
         0.02715    0.01919    0.01203    0.01234
C9    1    0.662857    0.546751    0.553375    11.00000    0.02557    0.04512 =
         0.02834    0.01566    0.00916    0.00476
C10   1    0.561914    0.653233    0.560936    11.00000    0.03323    0.03056 =
         0.02886    0.01200    0.01190    0.00255
C11   1    0.616379    0.326062    0.159471    11.00000    0.02792    0.04201 =
         0.03721    0.02387    0.01763    0.01697
C12   1    0.557746    0.422685    0.080693    11.00000    0.03273    0.03176 =
         0.02692    0.01450    0.01292    0.01381
C13   1    0.656234    0.475503    0.029486    11.00000    0.02327    0.03647 =
         0.02851    0.01417    0.01033    0.01236
C14   1    0.598348    0.551730   -0.051685    11.00000    0.02806    0.03310 =
         0.02759    0.01315    0.01344    0.00833
H1N   2    0.514631    0.831302    0.235990    11.00000    0.06122
H21   2    0.767515    1.073970    0.079596    11.00000    0.05870
H22   2    0.882825    1.055280    0.019831    11.00000    0.05471
HKLF    4

REM  SK3 - P-1
REM R1 =  0.0305 for    3062 Fo > 4sig(Fo)  and  0.0348 for all    3443 data
REM    249 parameters refined using      0 restraints

END

WGHT      0.0241      0.7483

REM Highest difference peak  0.886,  deepest hole -0.749,  1-sigma level  0.095
Q1    1   0.7201  0.8217  0.6601  11.00000  0.05    0.89
Q2    1   0.6468  0.8919  0.5847  11.00000  0.05    0.66
Q3    1   0.9008  0.6344  0.5617  11.00000  0.05    0.62
Q4    1   0.8996  0.4951  0.0176  11.00000  0.05    0.59
Q5    1   0.6462  0.5394 -0.1923  11.00000  0.05    0.56
Q6    1   0.8486  0.4078  0.1303  11.00000  0.05    0.49
Q7    1   0.6849  0.5981 -0.0629  11.00000  0.05    0.47
Q8    1   0.8551  0.5450  0.6525  11.00000  0.05    0.47
Q9    1   0.6260  0.8221  0.7236  11.00000  0.05    0.45
Q10   1   0.7498  0.6710 -0.1810  11.00000  0.05    0.45
Q11   1   0.8047  0.5131  0.5672  11.00000  0.05    0.42
Q12   1   0.9498  0.5417  0.6279  11.00000  0.05    0.41
Q13   1   0.7898  0.3601  0.0077  11.00000  0.05    0.37
Q14   1   0.5664  0.7868  0.5888  11.00000  0.05    0.35
Q15   1   0.6526  0.6837 -0.1547  11.00000  0.05    0.35
Q16   1   0.5865  0.3760  0.1212  11.00000  0.05    0.34
Q17   1   0.6753  0.7991 -0.1955  11.00000  0.05    0.34
Q18   1   0.5425  0.8713  0.7256  11.00000  0.05    0.32
Q19   1   0.7755  0.9577  0.2228  11.00000  0.05    0.30
Q20   1   0.4904  0.4196  0.0629  11.00000  0.05    0.29
Q21   1   0.8175  0.7271 -0.0803  11.00000  0.05    0.29
Q22   1   0.5697  0.0757  0.2876  11.00000  0.05    0.29
Q23   1   0.9308  0.4629 -0.0589  11.00000  0.05    0.28
Q24   1   0.6233  0.4609  0.4936  11.00000  0.05    0.28
Q25   1   0.7295  0.9463  0.7189  11.00000  0.05    0.27
Q26   1   0.7709  0.4936 -0.1809  11.00000  0.05    0.27
Q27   1   0.6898  0.7360 -0.0719  11.00000  0.05    0.27
Q28   1   1.0209  0.5102  0.7027  11.00000  0.05    0.27
Q29   1   0.3678  0.6365  0.1979  11.00000  0.05    0.27
Q30   1   0.5920  0.8566  0.8006  11.00000  0.05    0.27
;
_shelx_res_checksum              50663
loop_
_space_group_symop_operation_xyz
'x, y, z'
'-x, -y, -z'
loop_
_atom_site_label
_atom_site_type_symbol
_atom_site_fract_x
_atom_site_fract_y
_atom_site_fract_z
_atom_site_U_iso_or_equiv
_atom_site_adp_type
_atom_site_occupancy
_atom_site_site_symmetry_order
_atom_site_calc_flag
_atom_site_refinement_flags_posn
_atom_site_refinement_flags_adp
_atom_site_refinement_flags_occupancy
_atom_site_disorder_assembly
_atom_site_disorder_group
Br1 Br 0.88569(4) 0.60765(5) 0.62422(4) 0.05375(14) Uani 1 1 d . . . . .
Br2 Br 0.64194(5) 0.86253(4) 0.64723(4) 0.05414(14) Uani 1 1 d . . . . .
Br3 Br 0.86917(4) 0.44669(5) 0.07521(3) 0.04144(12) Uani 1 1 d . . . . .
Br4 Br 0.72590(4) 0.61937(4) -0.12697(3) 0.03867(12) Uani 1 1 d . . . . .
O1 O 1.0390(3) 0.9050(3) 0.1172(2) 0.0435(6) Uani 1 1 d . . . . .
O2 O 0.7391(4) 0.2145(4) 0.5649(3) 0.0595(8) Uani 1 1 d . . . . .
O3 O 0.7667(3) 0.2434(3) 0.4014(2) 0.0453(6) Uani 1 1 d . . . . .
H3O H 0.7390 0.2989 0.3616 0.088(19) Uiso 1 1 calc R . . . .
O4 O 0.6875(3) 0.3999(3) 0.2731(2) 0.0428(6) Uani 1 1 d . . . . .
O5 O 0.5893(3) 0.1877(3) 0.1054(2) 0.0419(6) Uani 1 1 d . . . . .
O1W O 0.3118(3) 0.7873(3) 0.2273(2) 0.0458(6) Uani 1 1 d . . . . .
H1W1 H 0.2991 0.7838 0.2943 0.055 Uiso 1 1 d R U . . .
H2W1 H 0.2248 0.8293 0.1949 0.055 Uiso 1 1 d R U . . .
N1 N 0.6156(4) 0.8423(4) 0.2490(3) 0.0442(7) Uani 1 1 d . . . . .
N2 N 0.8463(5) 1.0388(4) 0.0681(4) 0.0510(9) Uani 1 1 d . . . . .
C1 C 0.7023(6) 0.8016(6) 0.3407(4) 0.0655(13) Uani 1 1 d . . . . .
H1 H 0.6541 0.7662 0.3859 0.079 Uiso 1 1 calc R U . . .
C2 C 0.8635(6) 0.8123(7) 0.3683(5) 0.0727(15) Uani 1 1 d . . . . .
H2 H 0.9254 0.7850 0.4325 0.087 Uiso 1 1 calc R U . . .
C3 C 0.9315(5) 0.8640(5) 0.2994(4) 0.0537(11) Uani 1 1 d . . . . .
H3 H 1.0403 0.8712 0.3171 0.064 Uiso 1 1 calc R U . . .
C4 C 0.8406(4) 0.9051(4) 0.2045(3) 0.0339(7) Uani 1 1 d . . . . .
C5 C 0.6787(4) 0.8934(4) 0.1809(3) 0.0362(8) Uani 1 1 d . . . . .
H5 H 0.6143 0.9211 0.1178 0.043 Uiso 1 1 calc R U . . .
C6 C 0.9171(4) 0.9513(4) 0.1262(3) 0.0351(7) Uani 1 1 d . . . . .
C7 C 0.7112(4) 0.2748(4) 0.4885(3) 0.0364(8) Uani 1 1 d . . . . .
C8 C 0.6016(4) 0.3926(4) 0.4936(3) 0.0306(7) Uani 1 1 d . . . . .
C9 C 0.6629(4) 0.5468(4) 0.5534(3) 0.0325(7) Uani 1 1 d . . . . .
C10 C 0.5619(4) 0.6532(4) 0.5609(3) 0.0304(7) Uani 1 1 d . . . . .
C11 C 0.6164(4) 0.3261(4) 0.1595(3) 0.0312(7) Uani 1 1 d . . . . .
C12 C 0.5577(4) 0.4227(4) 0.0807(3) 0.0285(7) Uani 1 1 d . . . . .
C13 C 0.6562(4) 0.4755(4) 0.0295(3) 0.0281(7) Uani 1 1 d . . . . .
C14 C 0.5983(4) 0.5517(4) -0.0517(3) 0.0279(7) Uani 1 1 d . . . . .
H1N H 0.515(6) 0.831(5) 0.236(4) 0.061(14) Uiso 1 1 d . . . . .
H21 H 0.768(6) 1.074(5) 0.080(4) 0.059(13) Uiso 1 1 d . . . . .
H22 H 0.883(6) 1.055(5) 0.020(4) 0.055(13) Uiso 1 1 d . . . . .
loop_
_atom_site_aniso_label
_atom_site_aniso_U_11
_atom_site_aniso_U_22
_atom_site_aniso_U_33
_atom_site_aniso_U_23
_atom_site_aniso_U_13
_atom_site_aniso_U_12
Br1 0.0244(2) 0.0739(3) 0.0535(2) 0.0172(2) 0.00777(17) 0.00295(19)
Br2 0.0585(3) 0.0360(2) 0.0611(3) 0.00635(19) 0.0249(2) -0.00171(19)
Br3 0.02642(19) 0.0648(3) 0.0488(2) 0.0345(2) 0.01728(16) 0.02127(17)
Br4 0.0337(2) 0.0529(2) 0.0475(2) 0.03151(18) 0.02311(17) 0.01453(17)
O1 0.0324(14) 0.0572(16) 0.0557(16) 0.0298(14) 0.0231(12) 0.0199(12)
O2 0.070(2) 0.086(2) 0.0630(18) 0.0575(17) 0.0395(16) 0.0481(18)
O3 0.0531(16) 0.0589(17) 0.0471(14) 0.0352(13) 0.0274(13) 0.0349(14)
O4 0.0520(16) 0.0522(16) 0.0328(13) 0.0247(12) 0.0152(12) 0.0179(13)
O5 0.0474(15) 0.0384(15) 0.0472(14) 0.0211(12) 0.0183(12) 0.0196(12)
O1W 0.0395(15) 0.0560(16) 0.0537(15) 0.0257(13) 0.0245(13) 0.0132(13)
N1 0.0387(19) 0.0508(19) 0.0526(19) 0.0221(16) 0.0238(16) 0.0134(16)
N2 0.052(2) 0.060(2) 0.073(2) 0.043(2) 0.040(2) 0.0325(18)
C1 0.064(3) 0.100(4) 0.065(3) 0.055(3) 0.037(2) 0.029(3)
C2 0.062(3) 0.123(5) 0.066(3) 0.066(3) 0.029(2) 0.039(3)
C3 0.039(2) 0.082(3) 0.056(2) 0.039(2) 0.022(2) 0.025(2)
C4 0.0330(18) 0.0339(18) 0.0365(17) 0.0128(15) 0.0130(15) 0.0133(15)
C5 0.0354(19) 0.0372(19) 0.0399(18) 0.0171(16) 0.0139(16) 0.0129(16)
C6 0.0337(19) 0.0352(18) 0.0375(18) 0.0149(15) 0.0113(15) 0.0104(15)
C7 0.0375(19) 0.046(2) 0.0365(18) 0.0241(16) 0.0162(16) 0.0177(17)
C8 0.0321(18) 0.0400(19) 0.0272(15) 0.0192(14) 0.0120(14) 0.0123(15)
C9 0.0256(16) 0.045(2) 0.0283(16) 0.0157(15) 0.0092(13) 0.0048(15)
C10 0.0332(18) 0.0306(17) 0.0289(16) 0.0120(14) 0.0119(14) 0.0026(14)
C11 0.0279(17) 0.042(2) 0.0372(18) 0.0239(16) 0.0176(15) 0.0170(15)
C12 0.0327(18) 0.0318(17) 0.0269(15) 0.0145(14) 0.0129(14) 0.0138(14)
C13 0.0233(15) 0.0365(18) 0.0285(15) 0.0142(14) 0.0103(13) 0.0124(14)
C14 0.0281(16) 0.0331(17) 0.0276(15) 0.0131(14) 0.0134(13) 0.0083(14)
loop_
_atom_type_symbol
_atom_type_description
_atom_type_scat_dispersion_real
_atom_type_scat_dispersion_imag
_atom_type_scat_source
C C 0.0033 0.0016 'International Tables Vol C Tables 4.2.6.8 and 6.1.1.4'
H H 0.0000 0.0000 'International Tables Vol C Tables 4.2.6.8 and 6.1.1.4'
Br Br -0.2901 2.4595 'International Tables Vol C Tables 4.2.6.8 and 6.1.1.4'
N N 0.0061 0.0033 'International Tables Vol C Tables 4.2.6.8 and 6.1.1.4'
O O 0.0106 0.0060 'International Tables Vol C Tables 4.2.6.8 and 6.1.1.4'
loop_
_geom_angle_atom_site_label_1
_geom_angle_atom_site_label_2
_geom_angle_atom_site_label_3
_geom_angle
_geom_angle_site_symmetry_1
_geom_angle_site_symmetry_3
_geom_angle_publ_flag
C7 O3 H3O 109.5 . . ?
H1W1 O1W H2W1 101.8 . . ?
C1 N1 C5 122.6(4) . . ?
C1 N1 H1N 115(3) . . ?
C5 N1 H1N 123(3) . . ?
C6 N2 H21 122(3) . . ?
C6 N2 H22 116(3) . . ?
H21 N2 H22 122(4) . . ?
N1 C1 C2 119.7(4) . . ?
N1 C1 H1 120.1 . . ?
C2 C1 H1 120.1 . . ?
C1 C2 C3 118.9(4) . . ?
C1 C2 H2 120.5 . . ?
C3 C2 H2 120.5 . . ?
C2 C3 C4 120.9(4) . . ?
C2 C3 H3 119.6 . . ?
C4 C3 H3 119.6 . . ?
C3 C4 C5 118.1(3) . . ?
C3 C4 C6 119.4(3) . . ?
C5 C4 C6 122.5(3) . . ?
N1 C5 C4 119.8(3) . . ?
N1 C5 H5 120.1 . . ?
C4 C5 H5 120.1 . . ?
O1 C6 N2 123.3(4) . . ?
O1 C6 C4 119.5(3) . . ?
N2 C6 C4 117.1(3) . . ?
O2 C7 O3 123.6(3) . . ?
O2 C7 C8 119.0(3) . . ?
O3 C7 C8 117.3(3) . . ?
C9 C8 C10 118.9(3) . 2_666 ?
C9 C8 C7 120.8(3) . . ?
C10 C8 C7 120.3(3) 2_666 . ?
C8 C9 C10 120.4(3) . . ?
C8 C9 Br1 118.4(2) . . ?
C10 C9 Br1 121.1(3) . . ?
C9 C10 C8 120.7(3) . 2_666 ?
C9 C10 Br2 121.2(3) . . ?
C8 C10 Br2 118.1(2) 2_666 . ?
O5 C11 O4 128.2(3) . . ?
O5 C11 C12 116.5(3) . . ?
O4 C11 C12 115.3(3) . . ?
C13 C12 C14 119.6(3) . 2_665 ?
C13 C12 C11 120.0(3) . . ?
C14 C12 C11 120.2(3) 2_665 . ?
C12 C13 C14 120.2(3) . . ?
C12 C13 Br3 118.8(2) . . ?
C14 C13 Br3 121.0(2) . . ?
C12 C14 C13 120.2(3) 2_665 . ?
C12 C14 Br4 118.3(2) 2_665 . ?
C13 C14 Br4 121.5(2) . . ?
loop_
_geom_bond_atom_site_label_1
_geom_bond_atom_site_label_2
_geom_bond_distance
_geom_bond_site_symmetry_2
_geom_bond_publ_flag
Br1 C9 1.892(3) . ?
Br2 C10 1.885(3) . ?
Br3 C13 1.885(3) . ?
Br4 C14 1.887(3) . ?
O1 C6 1.229(4) . ?
O2 C7 1.213(4) . ?
O3 C7 1.280(4) . ?
O3 H3O 0.8200 . ?
O4 C11 1.267(4) . ?
O5 C11 1.228(4) . ?
O1W H1W1 0.8765 . ?
O1W H2W1 0.9313 . ?
N1 C1 1.332(5) . ?
N1 C5 1.337(5) . ?
N1 H1N 0.87(5) . ?
N2 C6 1.319(5) . ?
N2 H21 0.83(5) . ?
N2 H22 0.81(5) . ?
C1 C2 1.376(7) . ?
C1 H1 0.9300 . ?
C2 C3 1.375(6) . ?
C2 H2 0.9300 . ?
C3 C4 1.377(5) . ?
C3 H3 0.9300 . ?
C4 C5 1.388(5) . ?
C4 C6 1.498(5) . ?
C5 H5 0.9300 . ?
C7 C8 1.524(4) . ?
C8 C9 1.388(5) . ?
C8 C10 1.391(5) 2_666 ?
C9 C10 1.391(5) . ?
C10 C8 1.391(5) 2_666 ?
C11 C12 1.527(4) . ?
C12 C13 1.393(4) . ?
C12 C14 1.394(4) 2_665 ?
C13 C14 1.396(4) . ?
C14 C12 1.394(4) 2_665 ?
