#------------------------------------------------------------------------------
#$Date: 2021-02-05 00:57:58 +0200 (Fri, 05 Feb 2021) $
#$Revision: 261600 $
#$URL: file:///home/coder/svn-repositories/cod/cif/7/24/19/7241953.cif $
#------------------------------------------------------------------------------
#
# This file is available in the Crystallography Open Database (COD),
# http://www.crystallography.net/
#
# All data on this site have been placed in the public domain by the
# contributors.
#
data_7241953
loop_
_publ_author_name
'Funnell, Nicholas P.'
'Allan, David R.'
'Maloney, Andrew G. P.'
'Smith, Ronald I.'
'Wilson, Cameron J. G.'
'Parsons, Simon'
_publ_section_title
;
 Suppression of isotopic polymorphism
;
_journal_issue                   4
_journal_name_full               CrystEngComm
_journal_page_first              769
_journal_page_last               776
_journal_paper_doi               10.1039/D0CE01636E
_journal_volume                  23
_journal_year                    2021
_chemical_compound_source        'Sigma Aldrich'
_chemical_formula_moiety         'C12 H8 Cl5 N1 O1'
_chemical_formula_sum            'C12 H8 Cl5 N O'
_chemical_formula_weight         359.47
_chemical_name_systematic        '4-methylpyridine pentachlorophenol'
_space_group_IT_number           2
_space_group_name_Hall           '-P 1'
_space_group_name_H-M_alt        'P -1'
_symmetry_cell_setting           triclinic
_symmetry_space_group_name_Hall  '-P 1'
_symmetry_space_group_name_H-M   'P -1'
_atom_sites_solution_hydrogens   geom
_atom_sites_solution_primary     geom
_audit_creation_date             2020-10-08
_audit_creation_method           'CRYSTALS_ver_14.61_build_7795 '
_audit_update_record
;
2020-11-10 deposited with the CCDC.	2020-12-21 downloaded from the CCDC.
;
_cell_angle_alpha                100.541(11)
_cell_angle_beta                 118.408(7)
_cell_angle_gamma                103.460(8)
_cell_formula_units_Z            2
_cell_length_a                   7.39400(3)
_cell_length_b                   8.93630(7)
_cell_length_c                   13.68800(6)
_cell_measurement_pressure       0.0
_cell_measurement_reflns_used    1382
_cell_measurement_temperature    293
_cell_measurement_theta_max      22.50
_cell_measurement_theta_min      2.75
_cell_volume                     726.65(10)
_computing_cell_refinement       'I19 - Diamond Light source'
_computing_data_collection       'I19 - Diamond Light source'
_computing_data_reduction        'Apex2 (Bruker AXS, 2006)'
_computing_publication_material  'CRYSTALS (Betteridge et al., 2003)'
_computing_structure_refinement  'CRYSTALS (Betteridge et al., 2003)'
_computing_structure_solution    'User-supplied coordinates'
_diffrn_ambient_temperature      293
_diffrn_measured_fraction_theta_full 0.257
_diffrn_measured_fraction_theta_max 0.239
_diffrn_measurement_device       Area
_diffrn_measurement_device_type  Synchrotron
_diffrn_measurement_method       \w/2\q
_diffrn_radiation_monochromator  'focussing mirrors'
_diffrn_radiation_type           synchrotron
_diffrn_radiation_wavelength     0.68890
_diffrn_reflns_av_R_equivalents  0.080
_diffrn_reflns_av_unetI/netI     0.122
_diffrn_reflns_limit_h_max       8
_diffrn_reflns_limit_h_min       -8
_diffrn_reflns_limit_k_max       6
_diffrn_reflns_limit_k_min       -7
_diffrn_reflns_limit_l_max       12
_diffrn_reflns_limit_l_min       -13
_diffrn_reflns_number            1244
_diffrn_reflns_theta_full        16.887
_diffrn_reflns_theta_max         22.516
_diffrn_reflns_theta_min         2.746
_diffrn_standards_number         0
_exptl_absorpt_coefficient_mu    0.890
_exptl_absorpt_correction_T_max  0.91
_exptl_absorpt_correction_T_min  0.60
_exptl_absorpt_correction_type   multi-scan
_exptl_absorpt_process_details   'SADABS (Siemens, 1996)'
_exptl_crystal_colour            colourless
_exptl_crystal_density_diffrn    1.643
_exptl_crystal_density_meas      ?
_exptl_crystal_density_method    'not measured'
_exptl_crystal_description       block
_exptl_crystal_F_000             360
_exptl_crystal_size_max          0.200
_exptl_crystal_size_mid          0.200
_exptl_crystal_size_min          0.100
_refine_diff_density_max         0.60
_refine_diff_density_min         -0.60
_refine_ls_extinction_method     None
_refine_ls_goodness_of_fit_ref   1.6344
_refine_ls_hydrogen_treatment    constr
_refine_ls_matrix_type           full
_refine_ls_number_parameters     77
_refine_ls_number_reflns         494
_refine_ls_number_restraints     108
_refine_ls_R_factor_all          0.2496
_refine_ls_R_factor_gt           0.2366
_refine_ls_shift/su_max          0.0002402
_refine_ls_shift/su_mean         0.0000308
_refine_ls_structure_factor_coef Fsqd
_refine_ls_weighting_details
;
 Method, part 1, Chebychev polynomial, (Watkin, 1994, Prince, 1982) 
 [weight] = 1.0/[A~0~*T~0~(x)+A~1~*T~1~(x) ... +A~n-1~]*T~n-1~(x)] 
 where A~i~ are the Chebychev coefficients listed below and x= Fcalc/Fmax 
 Method = Robust Weighting (Prince, 1982) 
 W = [weight] * [1-(deltaF/6*sigmaF)^2^]^2^ 
 A~i~ are: 
 46.9 61.3 35.3 11.2 1.31 
;
_refine_ls_weighting_scheme      calc
_refine_ls_wR_factor_all         0.5572
_refine_ls_wR_factor_gt          0.5524
_refine_ls_wR_factor_ref         0.5572
_reflns_limit_h_max              6
_reflns_limit_h_min              -8
_reflns_limit_k_max              7
_reflns_limit_k_min              -3
_reflns_limit_l_max              13
_reflns_limit_l_min              0
_reflns_number_gt                428
_reflns_number_total             502
_reflns_threshold_expression     I>2.0\s(I)
_oxford_diffrn_Wilson_B_factor   0.68
_oxford_diffrn_Wilson_scale      10.46
_oxford_refine_ls_r_factor_ref   0.2496
_oxford_refine_ls_scale          0.64(3)
_oxford_reflns_number_all        494
_iucr_refine_instructions_details
;
#
# Punched on 08/10/20 at 15:35:49
#
#LIST     12                                                                    
BLOCK 
CONT SCALE 
CONT CL    (     2 ,X'S,U[ISO])  UNTIL C    (    16 ) 
RIDE O   (   1,X'S) H   (  11,X'S) 
RIDE C   (  11,X'S) H   ( 111,X'S) 
RIDE C   (  12,X'S) H   ( 121,X'S) 
RIDE C   (  14,X'S) H   ( 141,X'S) 
RIDE C   (  15,X'S) H   ( 151,X'S) 
RIDE C   (  16,X'S) H   ( 161,X'S) H   ( 162,X'S) H   ( 163,X'S) 
END                                                                             
#
# Punched on 08/10/20 at 15:35:49
#
#LIST     16                                                                    
NO 
REM   HREST   START (DO NOT REMOVE THIS LINE) 
REM NO H  NO #H U MULT   DIST 
REM C-H 
REM >4           1.5    .96 DISORDER 
REM 1      1     1.2    .93 C C-H (ACETYLENE) 
REM 1      2     1.2    .93 C-C(H)-C 
REM 1      3     1.2    .98 (C)3-C-H 
REM 2      1     1.2    .93 C=C-H(2) 
REM 2      2     1.2    .97 (C)2-C-(H)2 
REM 3      1     1.5    .96 C-C-(H)3 
REM N-H 
REM >4           1.5    .89 DISORDER 
REM 1      1     1.2    .86 N-N/H 
REM 1      2     1.2    .86 (C)2-N-H 
REM 1      3     1.2    .89 (C)3-N-H 
REM 2      1     1.2    .86 C-N-(H)2 
REM 2      2     1.2    .89 (C)2-N-(H)2 
REM 3      1     1.2    .89 C-H-(H)3 
REM O-H 
REM 1      1     1.5    .82 O-H 
REM 
REM DIST      ESD = 0.02 
REM VIB       ESD = 0.002 
REM ANGLE     ESD = 2.0 
REM 
REM TO ACTIVATE THE VIB RESTRAINTS, REMOVE LEADING REM 
REM       H ON O-HETRO ATOM 
DIST 0.82, 0.02 = 
CONT O ( 1) TO H(11) 
REST 0.060, 0.002 = H(11,U[ISO]) 
REM   HREST   END (DO NOT REMOVE THIS LINE) 
DISTANCE 1.409000 , 0.050000 = C(1) TO C(2) 
DISTANCE 1.409000 , 0.050000 = C(1) TO C(6) 
DISTANCE 1.385000 , 0.050000 = C(2) TO C(3) 
DISTANCE 1.385000 , 0.050000 = C(5) TO C(6) 
DISTANCE 1.393000 , 0.050000 = C(3) TO C(4) 
DISTANCE 1.393000 , 0.050000 = C(4) TO C(5) 
DISTANCE 1.332000 , 0.050000 = N(11) TO C(11) 
DISTANCE 1.332000 , 0.050000 = N(11) TO C(15) 
DISTANCE 1.378000 , 0.050000 = C(11) TO C(12) 
DISTANCE 1.378000 , 0.050000 = C(14) TO C(15) 
DISTANCE 1.375000 , 0.050000 = C(12) TO C(13) 
DISTANCE 1.375000 , 0.050000 = C(13) TO C(14) 
DISTANCE 1.517000 , 0.050000 = C(13) TO C(16) 
DISTANCE 1.725000 , 0.050000 = C(2) TO CL(2) 
DISTANCE 1.725000 , 0.050000 = C(3) TO CL(3) 
DISTANCE 1.725000 , 0.050000 = C(4) TO CL(4) 
DISTANCE 1.725000 , 0.050000 = C(5) TO CL(5) 
DISTANCE 1.725000 , 0.050000 = C(6) TO CL(6) 
ANGLE 116.270000 , 1.000000 = C(2) TO C(1) TO C(6) 
ANGLE 122.000000 , 1.000000 = C(1) TO C(2) TO C(3) 
ANGLE 122.000000 , 1.000000 = C(1) TO C(6) TO C(5) 
ANGLE 120.390000 , 1.000000 = C(2) TO C(3) TO C(4) 
ANGLE 120.390000 , 1.000000 = C(6) TO C(5) TO C(4) 
ANGLE 118.930000 , 1.000000 = C(3) TO C(4) TO C(5) 
ANGLE 121.35 , 1.000000 = O(1) TO C(1) TO C(2) 
ANGLE 121.35 , 1.000000 = O(1) TO C(1) TO C(6) 
ANGLE 117.73 , 1.000000 = C(1) TO C(2) TO CL(2) 
ANGLE 117.73 , 1.000000 = C(1) TO C(6) TO CL(6) 
ANGLE 120.27 , 1.000000 = CL(2) TO C(2) TO C(3) 
ANGLE 120.27 , 1.000000 = CL(6) TO C(6) TO C(5) 
ANGLE 120.00 , 1.000000 = C(2) TO C(3) TO CL(3) 
ANGLE 120.00 , 1.000000 = C(6) TO C(5) TO CL(5) 
ANGLE 119.62 , 1.000000 = CL(3) TO C(3) TO C(4) 
ANGLE 119.62 , 1.000000 = CL(5) TO C(5) TO C(4) 
ANGLE 120.53 , 1.000000 = C(3) TO C(4) TO CL(4) 
ANGLE 120.53 , 1.000000 = C(5) TO C(4) TO CL(4) 
ANGLE 117.99 , 1.000000 = C(11) TO N(11) TO C(15) 
ANGLE 122.40 , 1.000000 = N(11) TO C(11) TO C(12) 
ANGLE 122.40 , 1.000000 = N(11) TO C(15) TO C(14) 
ANGLE 119.88 , 1.000000 = C(11) TO C(12) TO C(13) 
ANGLE 119.88 , 1.000000 = C(15) TO C(14) TO C(13) 
ANGLE 117.43 , 1.000000 = C(12) TO C(13) TO C(14) 
ANGLE 121.29 , 1.000000 = C(12) TO C(13) TO C(16) 
ANGLE 121.29 , 1.000000 = C(14) TO C(13) TO C(16) 
PLANAR 0.010000 N(11) C(15) C(14) C(13) C(12) C(11) C(16) 
PLANAR 0.010000 CL(2) CL(3) CL(4) CL(5) CL(6) O(1) C(1) C(2) C(3) C(4) C(5) 
CONT  C(6) 
REM   DELU   START (DO NOT REMOVE THIS LINE) 
VIBR .0, 0.00200 = CL(2) TO C(2) 
VIBR .0, 0.00200 = CL(3) TO C(3) 
VIBR .0, 0.00200 = CL(4) TO C(4) 
VIBR .0, 0.00200 = CL(5) TO C(5) 
VIBR .0, 0.00200 = CL(6) TO C(6) 
VIBR .0, 0.00200 = O(1) TO C(1) 
VIBR .0, 0.00200 = N(11) TO C(15) 
VIBR .0, 0.00200 = N(11) TO C(11) 
VIBR .0, 0.00500 = C(11) TO C(15) 
VIBR .0, 0.00200 = C(1) TO C(2) 
VIBR .0, 0.00200 = C(1) TO C(6) 
VIBR .0, 0.00500 = C(2) TO O(1) 
VIBR .0, 0.00500 = C(6) TO O(1) 
VIBR .0, 0.00500 = C(6) TO C(2) 
VIBR .0, 0.00200 = C(2) TO C(3) 
VIBR .0, 0.00500 = C(1) TO CL(2) 
VIBR .0, 0.00500 = C(3) TO CL(2) 
VIBR .0, 0.00500 = C(3) TO C(1) 
VIBR .0, 0.00200 = C(3) TO C(4) 
VIBR .0, 0.00500 = C(2) TO CL(3) 
VIBR .0, 0.00500 = C(4) TO CL(3) 
VIBR .0, 0.00500 = C(4) TO C(2) 
VIBR .0, 0.00200 = C(4) TO C(5) 
VIBR .0, 0.00500 = C(3) TO CL(4) 
VIBR .0, 0.00500 = C(5) TO CL(4) 
VIBR .0, 0.00500 = C(5) TO C(3) 
VIBR .0, 0.00200 = C(5) TO C(6) 
VIBR .0, 0.00500 = C(4) TO CL(5) 
VIBR .0, 0.00500 = C(6) TO CL(5) 
VIBR .0, 0.00500 = C(6) TO C(4) 
VIBR .0, 0.00500 = C(1) TO CL(6) 
VIBR .0, 0.00500 = C(5) TO CL(6) 
VIBR .0, 0.00500 = C(5) TO C(1) 
VIBR .0, 0.00200 = C(15) TO C(14) 
VIBR .0, 0.00500 = C(14) TO N(11) 
VIBR .0, 0.00200 = C(14) TO C(13) 
VIBR .0, 0.00500 = C(13) TO C(15) 
VIBR .0, 0.00200 = C(13) TO C(12) 
VIBR .0, 0.00200 = C(13) TO C(16) 
VIBR .0, 0.00500 = C(12) TO C(14) 
VIBR .0, 0.00500 = C(16) TO C(14) 
VIBR .0, 0.00500 = C(16) TO C(12) 
VIBR .0, 0.00200 = C(12) TO C(11) 
VIBR .0, 0.00500 = C(11) TO C(13) 
VIBR .0, 0.00500 = N(11) TO C(12) 
REM   DELU   END (DO NOT REMOVE THIS LINE) 
REM   THERMSIM   START (DO NOT REMOVE THIS LINE) 
U(IJ) .0, 0.08000 = CL(2) TO C(2) 
U(IJ) .0, 0.08000 = CL(3) TO C(3) 
U(IJ) .0, 0.08000 = CL(4) TO C(4) 
U(IJ) .0, 0.08000 = CL(5) TO C(5) 
U(IJ) .0, 0.08000 = CL(6) TO C(6) 
U(IJ) .0, 0.08000 = O(1) TO C(1) 
U(IJ) .0, 0.04000 = N(11) TO C(15) 
U(IJ) .0, 0.04000 = N(11) TO C(11) 
U(IJ) .0, 0.04000 = C(1) TO C(2) 
U(IJ) .0, 0.04000 = C(1) TO C(6) 
U(IJ) .0, 0.04000 = C(2) TO C(3) 
U(IJ) .0, 0.04000 = C(3) TO C(4) 
U(IJ) .0, 0.04000 = C(4) TO C(5) 
U(IJ) .0, 0.04000 = C(5) TO C(6) 
U(IJ) .0, 0.04000 = C(15) TO C(14) 
U(IJ) .0, 0.04000 = C(14) TO C(13) 
U(IJ) .0, 0.04000 = C(13) TO C(12) 
U(IJ) .0, 0.08000 = C(13) TO C(16) 
U(IJ) .0, 0.04000 = C(12) TO C(11) 
REM   THERMSIM   END (DO NOT REMOVE THIS LINE) 
END                                                                             
;
_cod_data_source_file            d0ce01636e4.cif
_cod_data_source_block           TH_0p0GPa
_cod_depositor_comments
;
The following automatic conversions were performed:

data item '_exptl_crystal_density_meas' value 'not measured' was
changed to '?' -- the value is perceived as not measured.

Automatic conversion script
Id: cif_fix_values 7556 2019-12-06 15:28:31Z antanas 

 Adding full bibliography for 7241947--7241956.cif.
;
_cod_original_sg_symbol_H-M      'P -1 '
_cod_original_formula_sum        'C12 H8 Cl5 N1 O1'
_cod_database_code               7241953
_oxford_refine_reflns_threshold_expression I>-3.0\s(I)
_oxford_refine_ls_r_factor_all   0.2496
_oxford_refine_ls_wr_factor_all  0.5572
_iucr_refine_reflections_details
; 
 
# Data was input as F-squared 
# punching LIST  6 as LIST  6 with all keys set 
# NBGNXT=    36 
#LIST   6 
READ NCOEF= 8 TYPE=FIX, F'S = FSQ UNIT=DATA, CHECK=NO L30=NO ARCH=NO 
STORE  NCOEF= 6 
OUTPUT INDICES     /FO/        SIGMA(/FO/) RATIO/JCODE CORRECTIONS SERIAL 
CONT 
INPUT  H           K           L           /FO/        SIGMA(/FO/) JCODE 
CONT   CORRECTIONS SERIAL 
FOR (I4,I4,I4,F10.2,F8.2,F4.0,F7.4,F7.0) 
END 
  -1   0   1    147.60   18.66  0. 1.0000     0. 
   3   0  -3     10.92    1.50  0. 1.0000     0. 
   3   0  -3      8.18    1.22  0. 1.0000     0. 
  -3   0   3      9.42    1.55  0. 1.0000     0. 
  -3   0   3      6.87    2.63  0. 1.0000     0. 
  -3   0   3      9.49    1.61  0. 1.0000     0. 
   4   0  -4     10.53    1.46  0. 1.0000     0. 
   6   0  -6     19.80    2.56  0. 1.0000     0. 
  -6   0   6      7.58    6.16  0. 1.0000     0. 
  -5  -1   5     51.55    5.00  0. 1.0000     0. 
  -4  -1   4     30.91    3.00  0. 1.0000     0. 
  -3  -1   3     24.15    4.78  0. 1.0000     0. 
   4  -1  -4      5.77    1.62  0. 1.0000     0. 
   4  -1  -4      5.09    1.22  0. 1.0000     0. 
   4  -1  -4      5.25    1.40  0. 1.0000     0. 
  -4   1   4      5.59    3.57  0. 1.0000     0. 
   5  -1  -5    159.68   12.17  0. 1.0000     0. 
  -5   1   5    116.56   19.47  0. 1.0000     0. 
   6  -1  -6     16.85    2.96  0. 1.0000     0. 
   6  -1  -6     16.41    2.40  0. 1.0000     0. 
   6  -1  -6      9.33    2.29  0. 1.0000     0. 
  -6   1   6     11.94    6.43  0. 1.0000     0. 
   7  -1  -7      9.62    2.52  0. 1.0000     0. 
   7  -1  -7     14.97    3.44  0. 1.0000     0. 
  -7   1   7      3.86    6.77  0. 1.0000     0. 
   8  -1  -8     25.86    3.60  0. 1.0000     0. 
  -8   1   8     10.63    7.13  0. 1.0000     0. 
   3  -2  -3     48.83    4.88  0. 1.0000     0. 
   5  -2  -5     37.05    4.05  0. 1.0000     0. 
   5  -2  -5     34.83    3.25  0. 1.0000     0. 
   5  -2  -5     37.91    3.81  0. 1.0000     0. 
   5  -2  -5     40.78    4.77  0. 1.0000     0. 
  -5   2   5     40.16    7.65  0. 1.0000     0. 
  -5   2   5     34.05    3.49  0. 1.0000     0. 
   6  -2  -6     40.85    3.59  0. 1.0000     0. 
   6  -2  -6     37.93    4.47  0. 1.0000     0. 
   6  -2  -6     33.39    5.22  0. 1.0000     0. 
   6  -2  -6     33.16    4.54  0. 1.0000     0. 
  -6   2   6     34.83    8.81  0. 1.0000     0. 
  -6   2   6     44.39    3.86  0. 1.0000     0. 
   7  -2  -7     59.50    4.76  0. 1.0000     0. 
   7  -2  -7     46.52    5.38  0. 1.0000     0. 
   7  -2  -7     55.42    6.70  0. 1.0000     0. 
   7  -2  -7     45.41    5.81  0. 1.0000     0. 
  -7   2   7     51.12    5.11  0. 1.0000     0. 
   8  -2  -8     28.35    4.99  0. 1.0000     0. 
   8  -2  -8     17.07    3.68  0. 1.0000     0. 
  -8   2   8      9.03    8.19  0. 1.0000     0. 
   3  -3  -3     -0.76    1.32  0. 1.0000     0. 
  -3   3   3      0.62    2.68  0. 1.0000     0. 
  -3   3   3      0.31    0.76  0. 1.0000     0. 
   4  -3  -4     70.89    6.59  0. 1.0000     0. 
   4  -3  -4     58.55    6.97  0. 1.0000     0. 
   4  -3  -4     63.01    6.50  0. 1.0000     0. 
   5  -3  -5     40.02    4.93  0. 1.0000     0. 
   5  -3  -5     35.11    4.09  0. 1.0000     0. 
   5  -3  -5     40.80    4.14  0. 1.0000     0. 
   5  -3  -5     35.12    3.24  0. 1.0000     0. 
  -5   3   5     33.83    3.48  0. 1.0000     0. 
  -5   3   5     43.00    8.08  0. 1.0000     0. 
   6  -3  -6     54.27    4.41  0. 1.0000     0. 
  -6   3   6     43.80    4.74  0. 1.0000     0. 
   7  -3  -7     37.30    5.54  0. 1.0000     0. 
   7  -3  -7     40.26    6.37  0. 1.0000     0. 
   7  -3  -7     50.78    4.51  0. 1.0000     0. 
  -7   3   7     57.88    4.85  0. 1.0000     0. 
  -7   3   7     33.47   10.81  0. 1.0000     0. 
  -8   3   8      1.06    8.24  0. 1.0000     0. 
  -3   4   3    132.14   17.73  0. 1.0000     0. 
   4  -4  -4     13.30    2.86  0. 1.0000     0. 
   5  -4  -5     53.15    4.79  0. 1.0000     0. 
   6  -4  -6    121.05   11.30  0. 1.0000     0. 
   6  -4  -6    124.35   13.29  0. 1.0000     0. 
  -6   4   6    130.86   18.61  0. 1.0000     0. 
  -4   5   4   1000.00  125.80  0. 1.0000     0. 
  -5   5   5      3.48    6.46  0. 1.0000     0. 
   6  -5  -6     15.22    3.95  0. 1.0000     0. 
  -6   5   6     18.89    7.98  0. 1.0000     0. 
   7  -5  -7    130.51   11.18  0. 1.0000     0. 
   7  -5  -7    110.88   13.27  0. 1.0000     0. 
  -7   5   7    117.83   19.07  0. 1.0000     0. 
   6  -6  -6     10.90    3.88  0. 1.0000     0. 
   7  -6  -7      3.02    4.11  0. 1.0000     0. 
  -7   6   7      4.02    9.08  0. 1.0000     0. 
  -7   6   8     -1.34    9.06  0. 1.0000     0. 
  -5   6   6     45.83   10.72  0. 1.0000     0. 
  -7   5   8     -1.75    9.00  0. 1.0000     0. 
   7  -5  -8      0.18    3.39  0. 1.0000     0. 
   7  -5  -8     -2.58    3.99  0. 1.0000     0. 
  -6   5   7    103.68   15.66  0. 1.0000     0. 
   6  -5  -7     82.88   10.85  0. 1.0000     0. 
   6  -5  -7    102.26    9.12  0. 1.0000     0. 
  -5   5   6     28.07    7.65  0. 1.0000     0. 
   5  -5  -6     20.54    3.85  0. 1.0000     0. 
   4  -5  -5    225.90   22.97  0. 1.0000     0. 
   4  -4  -5    210.16   22.29  0. 1.0000     0. 
   4  -4  -5    232.51   22.17  0. 1.0000     0. 
  -3   4   4      3.12    1.42  0. 1.0000     0. 
  -3   4   4     11.25    4.16  0. 1.0000     0. 
   3  -4  -4      0.92    1.82  0. 1.0000     0. 
   3  -4  -4      3.00    2.47  0. 1.0000     0. 
  -8   3   9      4.50    7.37  0. 1.0000     0. 
  -7   3   8     12.93    8.25  0. 1.0000     0. 
   7  -3  -8     10.63    2.79  0. 1.0000     0. 
   7  -3  -8     11.74    2.76  0. 1.0000     0. 
   6  -3  -7     82.78    7.42  0. 1.0000     0. 
   4  -3  -5     85.00    7.61  0. 1.0000     0. 
  -3   3   4     51.92    4.81  0. 1.0000     0. 
   3  -3  -4     57.57    5.63  0. 1.0000     0. 
   3  -3  -4     45.85    5.61  0. 1.0000     0. 
  -7   2   8     49.04    4.43  0. 1.0000     0. 
   7  -2  -8     35.47    6.30  0. 1.0000     0. 
   7  -2  -8     44.69    4.13  0. 1.0000     0. 
  -6   2   7     29.56    8.52  0. 1.0000     0. 
   6  -2  -7     35.27    4.26  0. 1.0000     0. 
   6  -2  -7     36.90    5.52  0. 1.0000     0. 
   6  -2  -7     45.46    3.66  0. 1.0000     0. 
  -5   2   6     34.55    3.60  0. 1.0000     0. 
   5  -2  -6     39.91    3.36  0. 1.0000     0. 
  -4   2   5    494.48   62.58  0. 1.0000     0. 
  -3   2   4    287.36   36.44  0. 1.0000     0. 
  -2   2   3     40.38    4.45  0. 1.0000     0. 
  -1   2   2      8.47    0.96  0. 1.0000     0. 
   1  -2  -2      8.18    1.27  0. 1.0000     0. 
   1  -2  -2     10.11    1.56  0. 1.0000     0. 
   0  -2  -1     16.15    2.13  0. 1.0000     0. 
  -4  -2   3     36.33    3.53  0. 1.0000     0. 
  -7   1   8     55.05    6.13  0. 1.0000     0. 
   7  -1  -8     68.99    5.69  0. 1.0000     0. 
   7  -1  -8     67.83    6.62  0. 1.0000     0. 
  -6   1   7      0.80    6.01  0. 1.0000     0. 
   6  -1  -7     14.38    3.09  0. 1.0000     0. 
   6  -1  -7     13.49    2.40  0. 1.0000     0. 
  -5   1   6     40.81    4.41  0. 1.0000     0. 
  -5   1   6     50.05    8.82  0. 1.0000     0. 
   5  -1  -6     49.41    4.09  0. 1.0000     0. 
  -3   1   4      0.04    0.13  0. 1.0000     0. 
  -3   1   4      0.18    2.72  0. 1.0000     0. 
   3  -1  -4      0.54    0.83  0. 1.0000     0. 
   3  -1  -4     -0.30    1.07  0. 1.0000     0. 
   0   1   1     71.68    7.96  0. 1.0000     0. 
   0  -1  -1     70.99    7.95  0. 1.0000     0. 
   0  -1  -1     75.33    7.33  0. 1.0000     0. 
  -1  -1   0    103.11   13.21  0. 1.0000     0. 
   2   1  -1      2.19    0.33  0. 1.0000     0. 
  -2  -1   1      2.37    2.13  0. 1.0000     0. 
   3   1  -2     44.73    5.24  0. 1.0000     0. 
  -3  -1   2     58.61    7.94  0. 1.0000     0. 
  -4  -1   3     31.27    4.48  0. 1.0000     0. 
  -4  -1   3     34.68    3.30  0. 1.0000     0. 
   7   0  -8     -0.48    1.79  0. 1.0000     0. 
  -6   0   7     49.38    4.79  0. 1.0000     0. 
  -4   0   5      7.04    4.30  0. 1.0000     0. 
   4   0  -5     15.43    2.54  0. 1.0000     0. 
   3   0  -4    266.68   26.48  0. 1.0000     0. 
  -1   0   2     14.82    1.64  0. 1.0000     0. 
  -2   0   1    269.50   34.06  0. 1.0000     0. 
   4   0  -3     42.25    4.13  0. 1.0000     0. 
   4   0  -3     40.23    3.06  0. 1.0000     0. 
   4   0  -3     38.06    3.57  0. 1.0000     0. 
  -4   0   3     32.08    3.62  0. 1.0000     0. 
  -4   0   3     40.64    4.28  0. 1.0000     0. 
  -4   0   3     30.50    7.05  0. 1.0000     0. 
   5   0  -4      3.90    1.62  0. 1.0000     0. 
   5   0  -4      4.86    1.93  0. 1.0000     0. 
   5   0  -4      2.91    1.49  0. 1.0000     0. 
   5   0  -4      4.03    0.91  0. 1.0000     0. 
  -5   0   4      3.93    4.98  0. 1.0000     0. 
   6   0  -5    105.36   10.39  0. 1.0000     0. 
   7   0  -6     11.50    2.67  0. 1.0000     0. 
  -7   0   6      6.35    5.07  0. 1.0000     0. 
  -2   1   1    312.76   39.40  0. 1.0000     0. 
   3  -1  -2     78.27    7.76  0. 1.0000     0. 
   3  -1  -2     93.91    9.81  0. 1.0000     0. 
   3  -1  -2     84.12    9.01  0. 1.0000     0. 
   3  -1  -2     96.40    7.72  0. 1.0000     0. 
  -3   1   2     99.59   12.06  0. 1.0000     0. 
   4  -1  -3      5.66    1.40  0. 1.0000     0. 
   4  -1  -3      4.04    0.84  0. 1.0000     0. 
   4  -1  -3      4.83    1.41  0. 1.0000     0. 
   4  -1  -3      4.67    1.29  0. 1.0000     0. 
  -4   1   3      4.79    3.44  0. 1.0000     0. 
   5  -1  -4     30.24    2.60  0. 1.0000     0. 
   5  -1  -4     24.01    3.76  0. 1.0000     0. 
  -5   1   4     30.38    2.80  0. 1.0000     0. 
  -5   1   4     16.31    6.38  0. 1.0000     0. 
   6  -1  -5     73.86    6.33  0. 1.0000     0. 
  -6   1   5     57.02   12.18  0. 1.0000     0. 
   8  -1  -7     21.74    3.49  0. 1.0000     0. 
  -8   1   7      8.56    7.77  0. 1.0000     0. 
  -2   2   1    339.91   42.86  0. 1.0000     0. 
   3  -2  -2    111.33   11.22  0. 1.0000     0. 
   4  -2  -3     27.71    2.50  0. 1.0000     0. 
   4  -2  -3     31.75    3.52  0. 1.0000     0. 
   4  -2  -3     29.61    3.23  0. 1.0000     0. 
   4  -2  -3     28.87    3.19  0. 1.0000     0. 
  -4   2   3     25.59    2.69  0. 1.0000     0. 
   5  -2  -4     51.16    5.05  0. 1.0000     0. 
   5  -2  -4     44.07    4.40  0. 1.0000     0. 
   5  -2  -4     46.45    4.66  0. 1.0000     0. 
   5  -2  -4     41.67    3.83  0. 1.0000     0. 
  -5   2   4     37.69    4.13  0. 1.0000     0. 
   6  -2  -5    153.44   14.95  0. 1.0000     0. 
   6  -2  -5    155.62   12.64  0. 1.0000     0. 
   6  -2  -5    135.51   14.20  0. 1.0000     0. 
  -6   2   5    133.28   20.35  0. 1.0000     0. 
   7  -2  -6     46.67    5.53  0. 1.0000     0. 
   7  -2  -6     46.74    5.15  0. 1.0000     0. 
   7  -2  -6     51.96    6.29  0. 1.0000     0. 
   7  -2  -6     44.67    4.35  0. 1.0000     0. 
  -7   2   6     53.99    4.69  0. 1.0000     0. 
  -7   2   6     33.99    9.99  0. 1.0000     0. 
   8  -2  -7     30.50    4.45  0. 1.0000     0. 
   8  -2  -7     32.03    5.09  0. 1.0000     0. 
  -8   2   7     13.51    9.00  0. 1.0000     0. 
  -3   3   2    104.06    9.13  0. 1.0000     0. 
   4  -3  -3     33.25    2.81  0. 1.0000     0. 
  -4   3   3     29.07    3.01  0. 1.0000     0. 
   5  -3  -4    153.97   17.18  0. 1.0000     0. 
   5  -3  -4    187.27   14.68  0. 1.0000     0. 
   6  -3  -5     21.28    3.58  0. 1.0000     0. 
   6  -3  -5     24.25    4.36  0. 1.0000     0. 
   6  -3  -5     27.51    3.75  0. 1.0000     0. 
  -6   3   5     16.02    6.92  0. 1.0000     0. 
   8  -3  -7     52.73    6.28  0. 1.0000     0. 
   8  -3  -7     44.21    6.63  0. 1.0000     0. 
   8  -3  -7     53.18    7.33  0. 1.0000     0. 
   8  -3  -7     65.03    5.11  0. 1.0000     0. 
  -8   3   7     58.31    5.49  0. 1.0000     0. 
  -8   3   7     36.25   11.68  0. 1.0000     0. 
   6  -4  -5     42.48    5.56  0. 1.0000     0. 
   6  -4  -5     50.74    4.38  0. 1.0000     0. 
  -6   4   5     45.93   10.23  0. 1.0000     0. 
  -6   4   5     48.29    4.71  0. 1.0000     0. 
   7  -4  -6     36.36    4.80  0. 1.0000     0. 
   7  -4  -6     30.15    5.32  0. 1.0000     0. 
  -7   4   6     29.35    9.34  0. 1.0000     0. 
   8  -4  -7     13.08    4.52  0. 1.0000     0. 
   8  -4  -7     16.20    3.75  0. 1.0000     0. 
  -8   4   7     11.75    9.63  0. 1.0000     0. 
  -5   5   4    163.29   22.81  0. 1.0000     0. 
  -7   5   6    107.87   17.43  0. 1.0000     0. 
  -7   6   6     25.74    8.94  0. 1.0000     0. 
  -7   5   9     -3.51    9.01  0. 1.0000     0. 
  -6   5   8     80.51   14.23  0. 1.0000     0. 
  -4   5   6     34.13    7.05  0. 1.0000     0. 
   4  -5  -6     21.72    4.60  0. 1.0000     0. 
   3  -5  -5    272.51   27.49  0. 1.0000     0. 
   2  -5  -4     -2.56    2.64  0. 1.0000     0. 
  -7   4   9      2.18    8.46  0. 1.0000     0. 
   7  -4  -9      3.92    3.99  0. 1.0000     0. 
   7  -4  -9      3.68    2.52  0. 1.0000     0. 
   6  -4  -8     49.23    4.47  0. 1.0000     0. 
  -4   4   6      4.13    4.28  0. 1.0000     0. 
   4  -4  -6      1.30    2.14  0. 1.0000     0. 
   4  -4  -6      1.21    2.72  0. 1.0000     0. 
   4  -4  -6      0.39    1.94  0. 1.0000     0. 
  -2   4   4     24.53    5.11  0. 1.0000     0. 
   2  -4  -4     14.46    3.50  0. 1.0000     0. 
   1  -4  -3     15.52    3.21  0. 1.0000     0. 
  -5   3   7     33.89    2.83  0. 1.0000     0. 
  -5   3   7     19.51    7.60  0. 1.0000     0. 
   5  -3  -7     21.54    3.70  0. 1.0000     0. 
   5  -3  -7     23.01    3.37  0. 1.0000     0. 
  -4   3   6      1.80    3.87  0. 1.0000     0. 
   4  -3  -6     -1.32    2.07  0. 1.0000     0. 
   4  -3  -6     -1.20    1.16  0. 1.0000     0. 
  -3   3   5    421.22   38.82  0. 1.0000     0. 
   3  -3  -5    482.89   44.69  0. 1.0000     0. 
  -2   3   4     27.30    2.64  0. 1.0000     0. 
   2  -3  -4     26.13    3.36  0. 1.0000     0. 
   2  -3  -4     20.30    3.40  0. 1.0000     0. 
  -1  -3  -1      3.48    2.26  0. 1.0000     0. 
  -2  -3   0    380.96   37.99  0. 1.0000     0. 
  -3  -3   1      0.94    2.72  0. 1.0000     0. 
   8  -2 -10     46.10    4.19  0. 1.0000     0. 
  -6   2   8    347.88   45.19  0. 1.0000     0. 
  -5   2   7     11.73    5.58  0. 1.0000     0. 
   5  -2  -7     13.81    2.24  0. 1.0000     0. 
   5  -2  -7      8.89    1.92  0. 1.0000     0. 
   5  -2  -7     13.54    2.96  0. 1.0000     0. 
  -4   2   6    126.51   16.01  0. 1.0000     0. 
   4  -2  -6    120.59   11.94  0. 1.0000     0. 
   4  -2  -6    104.00    9.86  0. 1.0000     0. 
  -3   2   5     72.63    6.42  0. 1.0000     0. 
  -3   2   5     73.61   10.27  0. 1.0000     0. 
  -3   2   5     68.32    8.02  0. 1.0000     0. 
   3  -2  -5     75.42    7.30  0. 1.0000     0. 
   3  -2  -5     76.95    6.23  0. 1.0000     0. 
   3  -2  -5     64.20    6.96  0. 1.0000     0. 
   3  -2  -5     73.03    7.53  0. 1.0000     0. 
  -2   2   4      0.05    0.75  0. 1.0000     0. 
  -2   2   4      0.06    0.52  0. 1.0000     0. 
  -2   2   4      0.19    1.20  0. 1.0000     0. 
  -2   2   4      1.58    1.65  0. 1.0000     0. 
  -2   2   4      0.14    0.26  0. 1.0000     0. 
   2  -2  -4      0.75    1.24  0. 1.0000     0. 
   2  -2  -4      1.07    1.22  0. 1.0000     0. 
   2  -2  -4      0.68    0.60  0. 1.0000     0. 
   2  -2  -4      0.17    0.18  0. 1.0000     0. 
   2  -2  -4      0.83    0.82  0. 1.0000     0. 
  -1   2   3    105.90    9.02  0. 1.0000     0. 
  -1   2   3    107.14   11.47  0. 1.0000     0. 
   1  -2  -3    105.83   10.49  0. 1.0000     0. 
   1  -2  -3     96.11   10.43  0. 1.0000     0. 
   0  -2  -2      7.46    1.51  0. 1.0000     0. 
  -2  -2   0     17.60    1.75  0. 1.0000     0. 
  -5  -2   3     47.05    4.40  0. 1.0000     0. 
  -5  -2   3     38.91    6.04  0. 1.0000     0. 
  -6  -2   4     53.54    5.20  0. 1.0000     0. 
   7  -1  -9     12.41    2.43  0. 1.0000     0. 
  -6   1   8     42.55    8.97  0. 1.0000     0. 
  -6   1   8     50.94    4.80  0. 1.0000     0. 
  -5   1   7     38.15    3.35  0. 1.0000     0. 
   5  -1  -7     30.18    4.63  0. 1.0000     0. 
   5  -1  -7     31.77    3.12  0. 1.0000     0. 
  -3   1   5    335.25   42.60  0. 1.0000     0. 
  -2   1   4     49.17    6.93  0. 1.0000     0. 
   0   1   2     14.24    1.41  0. 1.0000     0. 
   0   1   2     17.77    1.65  0. 1.0000     0. 
   0   1   2     18.88    2.21  0. 1.0000     0. 
   0   1   2     16.77    1.52  0. 1.0000     0. 
   0  -1  -2     16.88    2.07  0. 1.0000     0. 
   3   1  -1      4.75    0.92  0. 1.0000     0. 
  -3  -1   1      3.02    2.06  0. 1.0000     0. 
  -3  -1   1      3.67    3.40  0. 1.0000     0. 
   5   1  -3      7.94    1.50  0. 1.0000     0. 
  -5  -1   3     10.33    3.40  0. 1.0000     0. 
  -5  -1   3     -0.33    5.36  0. 1.0000     0. 
   7   1  -5     -0.13    2.38  0. 1.0000     0. 
  -6   0   8     46.57    4.52  0. 1.0000     0. 
  -5   0   7     37.85    3.67  0. 1.0000     0. 
  -4   0   6     32.92    3.19  0. 1.0000     0. 
  -2   0   0    292.37   33.68  0. 1.0000     0. 
  -2   0   0    241.32   26.34  0. 1.0000     0. 
   5   0  -3     48.22    3.82  0. 1.0000     0. 
   5   0  -3     42.62    4.98  0. 1.0000     0. 
   5   0  -3     54.36    5.14  0. 1.0000     0. 
   5   0  -3     49.89    4.46  0. 1.0000     0. 
  -5   0   3     34.62    8.96  0. 1.0000     0. 
  -5   0   3     42.56    4.48  0. 1.0000     0. 
  -6   0   4     45.15   10.56  0. 1.0000     0. 
  -6   0   4     54.02    5.12  0. 1.0000     0. 
   2  -1   0     12.69    1.18  0. 1.0000     0. 
   3  -1  -1     53.02    4.78  0. 1.0000     0. 
   3  -1  -1     56.69    5.42  0. 1.0000     0. 
   5  -1  -3      5.96    1.91  0. 1.0000     0. 
   5  -1  -3      7.01    1.91  0. 1.0000     0. 
   5  -1  -3      7.74    1.98  0. 1.0000     0. 
   5  -1  -3      5.93    1.22  0. 1.0000     0. 
  -5   1   3      4.78    4.71  0. 1.0000     0. 
   6  -1  -4     15.77    2.99  0. 1.0000     0. 
   6  -1  -4     12.93    2.85  0. 1.0000     0. 
   6  -1  -4     11.91    2.54  0. 1.0000     0. 
  -6   1   4     12.30    6.49  0. 1.0000     0. 
   7  -1  -5      9.33    3.11  0. 1.0000     0. 
   7  -1  -5      9.65    2.48  0. 1.0000     0. 
   7  -1  -5     13.26    2.91  0. 1.0000     0. 
  -7   1   5      5.82    6.75  0. 1.0000     0. 
   8  -1  -6     16.44    3.58  0. 1.0000     0. 
   8  -1  -6     12.60    3.06  0. 1.0000     0. 
  -8   1   6      3.73    7.39  0. 1.0000     0. 
   4  -2  -2    101.53    9.43  0. 1.0000     0. 
   4  -2  -2    115.64   10.54  0. 1.0000     0. 
   5  -2  -3     13.53    2.60  0. 1.0000     0. 
   5  -2  -3     11.30    2.34  0. 1.0000     0. 
   5  -2  -3     17.49    2.56  0. 1.0000     0. 
  -5   2   3     17.27    4.38  0. 1.0000     0. 
   6  -2  -4    454.15   47.76  0. 1.0000     0. 
   6  -2  -4    565.41   42.19  0. 1.0000     0. 
  -6   2   4    490.69   64.08  0. 1.0000     0. 
   7  -2  -5     10.91    3.15  0. 1.0000     0. 
   7  -2  -5      9.24    2.96  0. 1.0000     0. 
   7  -2  -5      5.88    2.68  0. 1.0000     0. 
  -7   2   5      3.35    6.96  0. 1.0000     0. 
   8  -2  -6     13.40    3.51  0. 1.0000     0. 
   8  -2  -6     10.25    2.75  0. 1.0000     0. 
   8  -2  -6     11.88    3.62  0. 1.0000     0. 
  -8   2   6      4.04    4.84  0. 1.0000     0. 
  -4   3   2     30.30    3.03  0. 1.0000     0. 
  -4   3   2     39.41    7.21  0. 1.0000     0. 
  -5   3   3     13.08    5.31  0. 1.0000     0. 
   6  -3  -4    102.36   11.10  0. 1.0000     0. 
   6  -3  -4    100.37   10.41  0. 1.0000     0. 
   6  -3  -4     97.88    9.49  0. 1.0000     0. 
  -6   3   4    119.29   15.72  0. 1.0000     0. 
  -7   3   5      3.87    7.04  0. 1.0000     0. 
   8  -3  -6     14.58    3.30  0. 1.0000     0. 
   8  -3  -6     13.27    3.36  0. 1.0000     0. 
   8  -3  -6     16.63    4.16  0. 1.0000     0. 
  -8   3   6      8.68    8.56  0. 1.0000     0. 
  -5   4   3    141.71   19.96  0. 1.0000     0. 
   6  -4  -4      4.53    3.23  0. 1.0000     0. 
  -6   4   4      2.83    6.39  0. 1.0000     0. 
   7  -4  -5      6.08    3.45  0. 1.0000     0. 
   8  -4  -6     81.25    7.20  0. 1.0000     0. 
   8  -4  -6     87.61    8.15  0. 1.0000     0. 
   8  -4  -6     79.21    9.70  0. 1.0000     0. 
  -8   4   6     76.96   14.79  0. 1.0000     0. 
  -8   4   6     77.22    7.77  0. 1.0000     0. 
   4  -5  -7     37.21    5.36  0. 1.0000     0. 
  -3   5   6      1.79    1.91  0. 1.0000     0. 
   3  -5  -6      2.80    3.30  0. 1.0000     0. 
   2  -5  -5     37.03    5.31  0. 1.0000     0. 
   1  -5  -4     65.53    7.79  0. 1.0000     0. 
  -4   4   7     72.08   11.24  0. 1.0000     0. 
   4  -4  -7     62.43    7.33  0. 1.0000     0. 
  -3   4   6    150.15   13.11  0. 1.0000     0. 
  -3   4   6    176.67   14.77  0. 1.0000     0. 
  -3   4   6    185.59   21.91  0. 1.0000     0. 
   3  -4  -6    158.97   17.11  0. 1.0000     0. 
   3  -4  -6    170.01   14.21  0. 1.0000     0. 
   1  -4  -4     31.07    3.05  0. 1.0000     0. 
  -1  -4  -2     31.76    4.91  0. 1.0000     0. 
  -2  -4  -1     47.22    6.20  0. 1.0000     0. 
  -7   3  10      0.93    7.07  0. 1.0000     0. 
   7  -3 -10      0.73    2.58  0. 1.0000     0. 
   7  -3 -10      3.40    4.17  0. 1.0000     0. 
  -6   3   9      1.13    5.63  0. 1.0000     0. 
  -4   3   7     30.44    2.91  0. 1.0000     0. 
  -4   3   7     31.10    6.42  0. 1.0000     0. 
   4  -3  -7     32.30    3.61  0. 1.0000     0. 
   4  -3  -7     36.77    4.54  0. 1.0000     0. 
   4  -3  -7     28.77    2.74  0. 1.0000     0. 
   4  -3  -7     32.29    3.15  0. 1.0000     0. 
   4  -3  -7     28.47    3.49  0. 1.0000     0. 
   4  -3  -7     28.06    2.94  0. 1.0000     0. 
  -3   3   6    631.89   72.59  0. 1.0000     0. 
  -3   3   6    521.42   62.19  0. 1.0000     0. 
  -2   3   5    235.11   30.44  0. 1.0000     0. 
  -2   3   5    264.24   21.58  0. 1.0000     0. 
  -2   3   5    308.52   24.16  0. 1.0000     0. 
  -2   3   5    313.97   35.31  0. 1.0000     0. 
   2  -3  -5    275.82   27.88  0. 1.0000     0. 
  -1   3   4     86.99   10.57  0. 1.0000     0. 
  -1   3   4     99.12    8.18  0. 1.0000     0. 
   1  -3  -4     90.13    9.69  0. 1.0000     0. 
   1   3   2      1.45    1.35  0. 1.0000     0. 
  -1  -3  -2     -0.56    1.85  0. 1.0000     0. 
  -5   2   8     46.96    4.16  0. 1.0000     0. 
   5  -2  -8     37.47    3.87  0. 1.0000     0. 
   5  -2  -8     46.12    5.80  0. 1.0000     0. 
  -2   2   5     15.11    2.00  0. 1.0000     0. 
  -2   2   5     15.64    3.32  0. 1.0000     0. 
  -2   2   5     22.41    2.92  0. 1.0000     0. 
  -2   2   5     19.39    1.75  0. 1.0000     0. 
   2  -2  -5     18.09    2.05  0. 1.0000     0. 
   2  -2  -5     23.72    2.69  0. 1.0000     0. 
   2  -2  -5     21.61    2.93  0. 1.0000     0. 
  -1   2   4      2.22    0.84  0. 1.0000     0. 
  -1   2   4      2.82    1.58  0. 1.0000     0. 
  -1   2   4      3.55    0.76  0. 1.0000     0. 
   1  -2  -4      3.26    1.72  0. 1.0000     0. 
  -1  -2  -2    188.99   18.99  0. 1.0000     0. 
   2   2   1    387.44   45.79  0. 1.0000     0. 
  -2  -2  -1    456.63   41.88  0. 1.0000     0. 
   5   2  -2     19.19    3.05  0. 1.0000     0. 
  -5  -2   2     27.31    4.41  0. 1.0000     0. 
   6   2  -3     18.48    3.39  0. 1.0000     0. 
   3  -1  -6     14.49    1.33  0. 1.0000     0. 
  -2   1   5      0.03    0.07  0. 1.0000     0. 
  -2   1   5      0.00    0.22  0. 1.0000     0. 
  -2   1   5      0.36    0.60  0. 1.0000     0. 
   2  -1  -5      0.04    0.20  0. 1.0000     0. 
   2  -1  -5     -0.13    0.17  0. 1.0000     0. 
   1   1   2     42.99    3.44  0. 1.0000     0. 
   1   1   2     38.45    3.89  0. 1.0000     0. 
   1   1   2     38.60    3.23  0. 1.0000     0. 
   1   1   2     48.22    4.93  0. 1.0000     0. 
  -1  -1  -2     36.46    5.63  0. 1.0000     0. 
  -1  -1  -2     34.83    4.33  0. 1.0000     0. 
   3   1   0    216.13   17.37  0. 1.0000     0. 
   3   1   0    235.52   24.69  0. 1.0000     0. 
   3   1   0    210.70   18.82  0. 1.0000     0. 
  -3  -1   0    237.31   22.54  0. 1.0000     0. 
  -4  -1   1     38.67    8.46  0. 1.0000     0. 
  -4  -1   1     37.42    4.15  0. 1.0000     0. 
  -4  -1   1     49.19    4.20  0. 1.0000     0. 
   5   1  -2    101.64   11.34  0. 1.0000     0. 
   5   1  -2    120.41    9.20  0. 1.0000     0. 
  -5  -1   2    127.69   12.24  0. 1.0000     0. 
   6   1  -3     10.19    2.82  0. 1.0000     0. 
  -6  -1   3      5.40    5.81  0. 1.0000     0. 
  -7  -1   4     57.03    5.53  0. 1.0000     0. 
  -5   0   8     41.43    4.02  0. 1.0000     0. 
   1   0  -4     43.64    3.91  0. 1.0000     0. 
   1   0   2     16.53    1.48  0. 1.0000     0. 
   1   0   2     17.45    1.54  0. 1.0000     0. 
  -1   0  -2     18.38    2.14  0. 1.0000     0. 
   2   0   1      1.99    0.60  0. 1.0000     0. 
   2   0   1      2.12    0.84  0. 1.0000     0. 
  -2   0  -1      3.10    1.30  0. 1.0000     0. 
  -2   0  -1      2.74    1.86  0. 1.0000     0. 
   3   0   0      1.52    0.76  0. 1.0000     0. 
   3   0   0      2.44    1.87  0. 1.0000     0. 
   3   0   0      0.73    1.02  0. 1.0000     0. 
   3   0   0      2.63    1.16  0. 1.0000     0. 
  -3   0   0      1.58    2.20  0. 1.0000     0. 
  -3   0   0      2.46    1.74  0. 1.0000     0. 
   4   0  -1     83.69    9.44  0. 1.0000     0. 
   4   0  -1     77.12    7.93  0. 1.0000     0. 
   4   0  -1     78.23    6.32  0. 1.0000     0. 
  -4   0   1     75.85   11.74  0. 1.0000     0. 
  -4   0   1     83.43    8.44  0. 1.0000     0. 
   5   0  -2     20.22    2.74  0. 1.0000     0. 
   5   0  -2     22.05    2.85  0. 1.0000     0. 
   5   0  -2     19.26    2.07  0. 1.0000     0. 
   5   0  -2     17.54    3.04  0. 1.0000     0. 
  -5   0   2     16.52    3.24  0. 1.0000     0. 
  -5   0   2     14.25    6.08  0. 1.0000     0. 
   6   0  -3     44.75    4.02  0. 1.0000     0. 
  -7   0   4      8.38    6.51  0. 1.0000     0. 
   3  -1   0      2.55    0.52  0. 1.0000     0. 
  -3   1   0      0.79    0.29  0. 1.0000     0. 
  -3   1   0      1.54    2.43  0. 1.0000     0. 
   5  -1  -2      4.21    1.88  0. 1.0000     0. 
  -5   1   2      2.12    4.53  0. 1.0000     0. 
   6  -1  -3     17.47    2.94  0. 1.0000     0. 
   6  -1  -3     14.61    2.81  0. 1.0000     0. 
   6  -1  -3     19.11    3.40  0. 1.0000     0. 
   7  -1  -4     66.37    6.83  0. 1.0000     0. 
   7  -1  -4     63.41    6.03  0. 1.0000     0. 
   7  -1  -4     62.16    5.54  0. 1.0000     0. 
  -7   1   4     44.17   12.10  0. 1.0000     0. 
   3  -2   0     34.01    3.07  0. 1.0000     0. 
   4  -2  -1    251.23   21.88  0. 1.0000     0. 
   4  -2  -1    207.84   19.67  0. 1.0000     0. 
  -5   2   2      3.23    4.48  0. 1.0000     0. 
   6  -2  -3    146.23   14.83  0. 1.0000     0. 
   6  -2  -3    146.29   12.64  0. 1.0000     0. 
  -6   2   3    139.85   20.19  0. 1.0000     0. 
   7  -3  -4     34.73    4.42  0. 1.0000     0. 
   7  -3  -4     27.60    4.91  0. 1.0000     0. 
   7  -3  -4     25.88    3.99  0. 1.0000     0. 
  -7   3   4     22.81    8.04  0. 1.0000     0. 
  -5   4   2     63.21   11.00  0. 1.0000     0. 
  -6   4   3    906.73  114.38  0. 1.0000     0. 
   7  -4  -4      8.15    3.41  0. 1.0000     0. 
  -7   4   4      4.37    6.85  0. 1.0000     0. 
   8  -4  -5     17.75    4.66  0. 1.0000     0. 
   8  -4  -5     29.30    4.26  0. 1.0000     0. 
  -8   4   5     27.95    9.53  0. 1.0000     0. 
  -3   6   7    253.41   19.56  0. 1.0000     0. 
   3  -6  -7    243.15   25.51  0. 1.0000     0. 
   2  -6  -6    371.75   37.35  0. 1.0000     0. 
  -3   5   7     75.06    7.01  0. 1.0000     0. 
  -3   5   7     70.02    6.19  0. 1.0000     0. 
   3  -5  -7     71.37    8.51  0. 1.0000     0. 
  -2   5   6     99.94    9.00  0. 1.0000     0. 
   2  -5  -6     93.83   10.77  0. 1.0000     0. 
   1  -5  -5    256.63   25.99  0. 1.0000     0. 
   0  -5  -4     55.28    6.93  0. 1.0000     0. 
  -1  -5  -3      4.52    3.27  0. 1.0000     0. 
   4  -4  -8     18.94    3.36  0. 1.0000     0. 
  -3   4   7      4.37    1.90  0. 1.0000     0. 
  -3   4   7      6.19    1.62  0. 1.0000     0. 
   3  -4  -7      6.47    3.06  0. 1.0000     0. 
  -1   4   5     31.57    3.84  0. 1.0000     0. 
   1  -4  -5     36.59    3.37  0. 1.0000     0. 
   0   4   4     29.16    3.35  0. 1.0000     0. 
   0  -4  -4     30.60    2.95  0. 1.0000     0. 
  -1  -4  -3     24.26    2.40  0. 1.0000     0. 
  -2  -4  -2     26.16    4.72  0. 1.0000     0. 
  -3  -4  -1      9.00    3.89  0. 1.0000     0. 
  -7   3  11     61.83    6.00  0. 1.0000     0. 
  -6   3  10     44.25    4.30  0. 1.0000     0. 
  -3   3   7     38.96    3.31  0. 1.0000     0. 
  -3   3   7     39.37    3.74  0. 1.0000     0. 
  -3   3   7     35.41    5.45  0. 1.0000     0. 
   3  -3  -7     35.82    3.67  0. 1.0000     0. 
   3  -3  -7     38.21    4.48  0. 1.0000     0. 
  -2   3   6     68.11    6.43  0. 1.0000     0. 
  -2   3   6     74.27    8.62  0. 1.0000     0. 
  -2   3   6     66.08    5.67  0. 1.0000     0. 
   2  -3  -6     76.15    7.71  0. 1.0000     0. 
  -1   3   5      0.61    1.03  0. 1.0000     0. 
  -1   3   5      1.12    2.35  0. 1.0000     0. 
   1  -3  -5      0.46    2.40  0. 1.0000     0. 
   0   3   4    201.66   15.14  0. 1.0000     0. 
   0   3   4    160.92   19.42  0. 1.0000     0. 
   0   3   4    161.72   13.61  0. 1.0000     0. 
   0  -3  -4    171.89   17.70  0. 1.0000     0. 
   1   3   3    199.53   22.22  0. 1.0000     0. 
  -2  -3  -2     39.94    3.87  0. 1.0000     0. 
  -2  -3  -2     39.79    3.91  0. 1.0000     0. 
   4   3   0    130.42   10.40  0. 1.0000     0. 
  -4  -3   0    128.66   13.89  0. 1.0000     0. 
   5   3  -1     27.38    3.41  0. 1.0000     0. 
  -5  -3   1     27.95    5.79  0. 1.0000     0. 
   7  -2 -11     22.04    3.51  0. 1.0000     0. 
  -5   2   9     40.21    4.25  0. 1.0000     0. 
   5  -2  -9     44.99    3.97  0. 1.0000     0. 
   5  -2  -9     48.58    4.70  0. 1.0000     0. 
   4  -2  -8     14.23    1.36  0. 1.0000     0. 
  -3   2   7     70.36    6.13  0. 1.0000     0. 
   3  -2  -7     63.28    6.47  0. 1.0000     0. 
  -1   2   5    123.09   11.92  0. 1.0000     0. 
  -1   2   5    109.62    9.22  0. 1.0000     0. 
  -1   2   5     90.21    8.24  0. 1.0000     0. 
   1  -2  -5    100.76   10.84  0. 1.0000     0. 
   1   2   3     61.05    6.14  0. 1.0000     0. 
   1   2   3     57.31    5.71  0. 1.0000     0. 
   1   2   3     59.08    5.17  0. 1.0000     0. 
   1   2   3     53.98    4.80  0. 1.0000     0. 
   1   2   3     62.05    7.24  0. 1.0000     0. 
  -1  -2  -3     59.26    6.46  0. 1.0000     0. 
   2   2   2     14.46    1.99  0. 1.0000     0. 
   2   2   2     15.01    3.48  0. 1.0000     0. 
   2   2   2     13.05    2.26  0. 1.0000     0. 
  -2  -2  -2     13.69    3.34  0. 1.0000     0. 
  -2  -2  -2     18.34    1.62  0. 1.0000     0. 
   3   2   1    199.10   16.41  0. 1.0000     0. 
   3   2   1    196.19   23.48  0. 1.0000     0. 
   3   2   1    231.28   20.91  0. 1.0000     0. 
  -3  -2  -1    213.25   21.39  0. 1.0000     0. 
   4   2   0     20.20    2.50  0. 1.0000     0. 
  -4  -2   0     17.95    4.41  0. 1.0000     0. 
   7  -1 -11      0.95    1.96  0. 1.0000     0. 
  -5   1   9     47.20    4.58  0. 1.0000     0. 
   4  -1  -8     17.36    1.61  0. 1.0000     0. 
  -3   1   7     26.79    3.65  0. 1.0000     0. 
   3  -1  -7     35.80    3.15  0. 1.0000     0. 
  -2   1   6      1.58    0.41  0. 1.0000     0. 
   2  -1  -6      2.19    0.34  0. 1.0000     0. 
   2  -1  -6      2.63    0.37  0. 1.0000     0. 
  -2  -1  -2    488.49   45.12  0. 1.0000     0. 
  -2  -1  -2    422.20   57.38  0. 1.0000     0. 
   3   1   1    120.67   12.78  0. 1.0000     0. 
   3   1   1    108.20    8.65  0. 1.0000     0. 
   3   1   1    109.32   10.65  0. 1.0000     0. 
  -3  -1  -1     88.51   15.15  0. 1.0000     0. 
  -3  -1  -1    118.52   11.52  0. 1.0000     0. 
   4   1   0     28.60    5.92  0. 1.0000     0. 
   4   1   0     44.18    4.20  0. 1.0000     0. 
   4   1   0     44.22    3.79  0. 1.0000     0. 
  -4  -1   0     32.07    7.37  0. 1.0000     0. 
  -4  -1   0     33.87    3.66  0. 1.0000     0. 
  -4  -1   0     48.33    5.12  0. 1.0000     0. 
  -4  -1   0     34.86    3.61  0. 1.0000     0. 
   5   1  -1    370.62   28.40  0. 1.0000     0. 
   5   1  -1    367.42   35.05  0. 1.0000     0. 
  -5  -1   1    364.52   36.69  0. 1.0000     0. 
   6   1  -2     12.99    3.31  0. 1.0000     0. 
  -6  -1   2      2.16    5.78  0. 1.0000     0. 
   1   0   3     56.17    4.92  0. 1.0000     0. 
  -1   0  -3     57.33    5.99  0. 1.0000     0. 
   3   0   1    166.42   18.66  0. 1.0000     0. 
   3   0   1    217.37   16.51  0. 1.0000     0. 
   3   0   1    180.30   15.14  0. 1.0000     0. 
   3   0   1    227.65   21.59  0. 1.0000     0. 
  -3   0  -1    184.68   19.59  0. 1.0000     0. 
  -3   0  -1    200.76   25.23  0. 1.0000     0. 
   4   0   0    119.66   10.12  0. 1.0000     0. 
   4   0   0    126.24   13.51  0. 1.0000     0. 
   4   0   0    113.01    9.18  0. 1.0000     0. 
  -4   0   0    115.22   16.21  0. 1.0000     0. 
  -4   0   0    111.32   12.01  0. 1.0000     0. 
   5   0  -1      4.69    1.38  0. 1.0000     0. 
   5   0  -1      5.50    2.11  0. 1.0000     0. 
   5   0  -1      6.87    1.63  0. 1.0000     0. 
   5   0  -1      3.41    2.22  0. 1.0000     0. 
  -5   0   1      6.73    2.57  0. 1.0000     0. 
  -5   0   1      8.50    5.58  0. 1.0000     0. 
   6   0  -2      0.91    2.04  0. 1.0000     0. 
   6   0  -2      2.38    1.92  0. 1.0000     0. 
  -6   0   2     -1.39    5.72  0. 1.0000     0. 
   7   0  -3     42.25    6.03  0. 1.0000     0. 
   7   0  -3     39.55    5.76  0. 1.0000     0. 
   7   0  -3     54.24    4.36  0. 1.0000     0. 
   3  -1   1      8.74    0.93  0. 1.0000     0. 
   4  -1   0     10.07    2.11  0. 1.0000     0. 
   5  -1  -1    244.01   25.07  0. 1.0000     0. 
   5  -1  -1    244.60   19.24  0. 1.0000     0. 
   5  -1  -1    218.60   21.73  0. 1.0000     0. 
   5  -1  -1    211.87   19.43  0. 1.0000     0. 
  -5   1   1    212.08   29.59  0. 1.0000     0. 
   6  -1  -2     52.51    4.71  0. 1.0000     0. 
  -3   2  -1    221.11   28.54  0. 1.0000     0. 
   4  -2   0    144.83   12.51  0. 1.0000     0. 
   7  -2  -3     52.66    6.36  0. 1.0000     0. 
  -5   3   1    738.23   93.23  0. 1.0000     0. 
  -6   3   2      7.71    5.92  0. 1.0000     0. 
   7  -3  -3     65.22    5.85  0. 1.0000     0. 
  -6   4   2     44.92    9.70  0. 1.0000     0. 
   3  -7  -8     -0.61    4.21  0. 1.0000     0. 
   2  -6  -7     17.36    4.64  0. 1.0000     0. 
  -1   6   6      8.85    2.45  0. 1.0000     0. 
   1  -6  -6      4.79    3.88  0. 1.0000     0. 
   3  -5  -8     48.52    6.45  0. 1.0000     0. 
  -2   5   7     30.76    3.61  0. 1.0000     0. 
  -2   5   7     33.73    4.08  0. 1.0000     0. 
   2  -5  -7     38.42    3.45  0. 1.0000     0. 
   2  -5  -7     25.58    5.31  0. 1.0000     0. 
   0   5   5      2.09    2.15  0. 1.0000     0. 
   0  -5  -5      2.13    3.44  0. 1.0000     0. 
  -2  -5  -3      2.09    3.73  0. 1.0000     0. 
   4  -4  -9     52.42    5.13  0. 1.0000     0. 
  -3   4   8     -1.81    3.51  0. 1.0000     0. 
  -3   4   8      0.10    1.62  0. 1.0000     0. 
  -3   4   8      0.83    1.87  0. 1.0000     0. 
   3  -4  -8     -0.86    2.76  0. 1.0000     0. 
  -2   4   7      2.84    3.77  0. 1.0000     0. 
   2  -4  -7      4.07    3.83  0. 1.0000     0. 
  -1   4   6    217.11   17.60  0. 1.0000     0. 
  -1   4   6    194.01   15.72  0. 1.0000     0. 
   1  -4  -6    191.45   20.45  0. 1.0000     0. 
   0   4   5    116.24   10.41  0. 1.0000     0. 
   0   4   5    118.92    9.48  0. 1.0000     0. 
   0   4   5    114.55   13.89  0. 1.0000     0. 
   0  -4  -5    121.58   12.66  0. 1.0000     0. 
  -1  -4  -4     19.63    1.95  0. 1.0000     0. 
   2   4   3      2.24    1.90  0. 1.0000     0. 
  -2  -4  -3      2.28    3.53  0. 1.0000     0. 
   3   4   2      7.48    2.29  0. 1.0000     0. 
  -3  -4  -2      6.59    3.98  0. 1.0000     0. 
   4  -3  -9     73.97    7.23  0. 1.0000     0. 
  -3   3   8      1.28    0.87  0. 1.0000     0. 
  -3   3   8      3.25    1.28  0. 1.0000     0. 
  -3   3   8      3.02    1.30  0. 1.0000     0. 
  -3   3   8      5.96    3.06  0. 1.0000     0. 
   3  -3  -8      3.24    2.33  0. 1.0000     0. 
  -2   3   7    239.86   24.14  0. 1.0000     0. 
  -2   3   7    214.60   18.86  0. 1.0000     0. 
  -2   3   7    199.00   16.90  0. 1.0000     0. 
   2  -3  -7    218.27   21.92  0. 1.0000     0. 
  -1   3   6      4.08    2.99  0. 1.0000     0. 
   0   3   5     10.06    3.42  0. 1.0000     0. 
   0   3   5     10.63    1.75  0. 1.0000     0. 
   0   3   5     12.24    1.81  0. 1.0000     0. 
   0  -3  -5      7.16    2.44  0. 1.0000     0. 
   1   3   4     15.82    4.02  0. 1.0000     0. 
   1   3   4     14.02    2.05  0. 1.0000     0. 
   1   3   4     14.35    1.80  0. 1.0000     0. 
   1   3   4     16.62    2.18  0. 1.0000     0. 
  -1  -3  -4     13.94    3.17  0. 1.0000     0. 
   2   3   3     37.21    3.74  0. 1.0000     0. 
   2   3   3     28.37    6.15  0. 1.0000     0. 
   2   3   3     32.59    4.63  0. 1.0000     0. 
   2   3   3     33.93    4.23  0. 1.0000     0. 
   2   3   3     45.35    4.34  0. 1.0000     0. 
  -2  -3  -3     41.18    5.22  0. 1.0000     0. 
  -2  -3  -3     41.69    3.86  0. 1.0000     0. 
   3   3   2     86.56    8.91  0. 1.0000     0. 
   3   3   2     90.55    7.38  0. 1.0000     0. 
  -3  -3  -2     92.89   10.15  0. 1.0000     0. 
   4   3   1     33.37    3.53  0. 1.0000     0. 
   5   3   0     11.12    2.42  0. 1.0000     0. 
  -5  -3   0     14.22    4.63  0. 1.0000     0. 
  -7   2  12     53.06    5.15  0. 1.0000     0. 
  -6   2  11     54.44    5.28  0. 1.0000     0. 
  -5   2  10     41.89    4.07  0. 1.0000     0. 
   4  -2  -9     63.41    6.20  0. 1.0000     0. 
   3  -2  -8     43.29    4.25  0. 1.0000     0. 
  -2   2   7     90.88   10.02  0. 1.0000     0. 
  -1   2   6     80.89    6.41  0. 1.0000     0. 
  -1   2   6     90.91    9.54  0. 1.0000     0. 
  -1   2   6     71.52    7.07  0. 1.0000     0. 
   1  -2  -6     80.07    8.49  0. 1.0000     0. 
   0   2   5     13.30    1.73  0. 1.0000     0. 
   0   2   5     12.29    1.67  0. 1.0000     0. 
   0   2   5     16.17    3.10  0. 1.0000     0. 
   0   2   5     12.21    2.27  0. 1.0000     0. 
   2   2   3     43.05    4.01  0. 1.0000     0. 
   2   2   3     48.24    4.92  0. 1.0000     0. 
   2   2   3     49.68    3.94  0. 1.0000     0. 
   2   2   3     48.26    6.54  0. 1.0000     0. 
  -2  -2  -3     41.31    4.41  0. 1.0000     0. 
  -2  -2  -3     44.37    5.85  0. 1.0000     0. 
   4   2   1     38.77    3.82  0. 1.0000     0. 
   4   2   1     36.45    4.65  0. 1.0000     0. 
  -4  -2  -1     40.64    3.88  0. 1.0000     0. 
  -4  -2  -1     40.91    5.74  0. 1.0000     0. 
   5   2   0     46.48    5.91  0. 1.0000     0. 
   5   2   0     46.73    4.68  0. 1.0000     0. 
  -5  -2   0     46.04    6.66  0. 1.0000     0. 
  -5  -2   0     55.37    4.93  0. 1.0000     0. 
   6   2  -1     43.06    6.56  0. 1.0000     0. 
  -6  -2   1     59.94    5.39  0. 1.0000     0. 
  -5   1  10     44.68    4.34  0. 1.0000     0. 
  -4   1   9     41.51    4.11  0. 1.0000     0. 
   4  -1  -9     43.29    4.16  0. 1.0000     0. 
  -2   1   7     19.64    2.50  0. 1.0000     0. 
   2  -1  -7     21.71    1.94  0. 1.0000     0. 
   1  -1  -6      0.24    1.53  0. 1.0000     0. 
   0   1   5     34.74    3.12  0. 1.0000     0. 
   0   1   5     37.43    2.93  0. 1.0000     0. 
   0  -1  -5     41.79    4.00  0. 1.0000     0. 
   0  -1  -5     33.50    3.34  0. 1.0000     0. 
   0  -1  -5     28.42    3.34  0. 1.0000     0. 
   1   1   4    118.05   11.75  0. 1.0000     0. 
   1   1   4     98.44    8.90  0. 1.0000     0. 
   1   1   4    108.06    8.69  0. 1.0000     0. 
  -1  -1  -4     99.32   13.36  0. 1.0000     0. 
  -1  -1  -4     91.50   10.64  0. 1.0000     0. 
   2   1   3     35.99    3.13  0. 1.0000     0. 
   2   1   3     39.22    3.61  0. 1.0000     0. 
   2   1   3     33.71    2.88  0. 1.0000     0. 
   2   1   3     39.45    4.94  0. 1.0000     0. 
   2   1   3     27.41    2.90  0. 1.0000     0. 
  -2  -1  -3     28.32    3.19  0. 1.0000     0. 
  -2  -1  -3     35.78    4.42  0. 1.0000     0. 
  -2  -1  -3     35.55    6.08  0. 1.0000     0. 
   3   1   2    602.22   59.37  0. 1.0000     0. 
  -3  -1  -2    578.22   54.28  0. 1.0000     0. 
  -3  -1  -2    461.21   69.08  0. 1.0000     0. 
   4   1   1     16.59    2.54  0. 1.0000     0. 
   4   1   1     19.14    3.10  0. 1.0000     0. 
   4   1   1     22.66    2.42  0. 1.0000     0. 
   4   1   1     17.78    4.57  0. 1.0000     0. 
  -4  -1  -1     24.12    4.75  0. 1.0000     0. 
  -4  -1  -1     12.94    6.44  0. 1.0000     0. 
   5   1   0     40.57    4.99  0. 1.0000     0. 
  -1   0  -4     48.95    5.41  0. 1.0000     0. 
  -2   0  -3    176.30   17.73  0. 1.0000     0. 
   4   0   1      0.89    1.75  0. 1.0000     0. 
   4   0   1     -0.95    3.08  0. 1.0000     0. 
  -4   0  -1     -2.06    3.96  0. 1.0000     0. 
  -3   1  -2     24.22    2.41  0. 1.0000     0. 
   4  -1   1     14.29    3.23  0. 1.0000     0. 
   4  -1   1     14.47    2.36  0. 1.0000     0. 
   4  -1   1      8.92    1.14  0. 1.0000     0. 
  -4   1  -1     15.03    4.77  0. 1.0000     0. 
   5  -1   0    196.81   20.62  0. 1.0000     0. 
   5  -1   0    192.23   15.72  0. 1.0000     0. 
   5  -1   0    179.29   17.73  0. 1.0000     0. 
   5  -1   0    171.84   15.72  0. 1.0000     0. 
  -5   1   0    175.66   24.54  0. 1.0000     0. 
   6  -1  -1     95.07    8.92  0. 1.0000     0. 
   6  -1  -1    101.69   10.23  0. 1.0000     0. 
  -6   1   1     96.67   14.71  0. 1.0000     0. 
   7  -1  -2      0.16    2.60  0. 1.0000     0. 
   7  -1  -2     -1.37    2.52  0. 1.0000     0. 
  -7   1   2      4.11    5.69  0. 1.0000     0. 
  -4   2  -1     33.75    3.33  0. 1.0000     0. 
   5  -2   0     62.03    7.43  0. 1.0000     0. 
  -5   2   0     65.26   10.14  0. 1.0000     0. 
  -5   2   0     49.19    5.22  0. 1.0000     0. 
   7  -2  -2      1.39    2.81  0. 1.0000     0. 
   7  -2  -2     -0.44    2.76  0. 1.0000     0. 
  -7   2   2      2.64    6.48  0. 1.0000     0. 
  -5   3   0    381.01   49.06  0. 1.0000     0. 
   7  -4  -2     -0.42    3.28  0. 1.0000     0. 
  -7   4   2      3.46    6.38  0. 1.0000     0. 
  -3   6   9      4.27    2.88  0. 1.0000     0. 
  -3   6   9     -0.02    2.57  0. 1.0000     0. 
   3  -6  -9      1.06    4.15  0. 1.0000     0. 
  -2   6   8      0.95    2.46  0. 1.0000     0. 
   2  -6  -8      0.30    4.04  0. 1.0000     0. 
  -1   6   7     12.11    2.65  0. 1.0000     0. 
   1  -6  -7      3.13    3.96  0. 1.0000     0. 
   0   6   6     22.08    3.24  0. 1.0000     0. 
   0  -6  -6     14.40    4.63  0. 1.0000     0. 
   1   6   5     11.51    2.71  0. 1.0000     0. 
  -3   5   9     -1.33    2.15  0. 1.0000     0. 
  -3   5   9      1.85    2.49  0. 1.0000     0. 
   3  -5  -9      0.53    3.48  0. 1.0000     0. 
  -2   5   8     19.80    3.26  0. 1.0000     0. 
  -2   5   8     22.21    2.86  0. 1.0000     0. 
  -2   5   8     21.47    3.02  0. 1.0000     0. 
   2  -5  -8     21.78    4.69  0. 1.0000     0. 
   0   5   6     53.53    4.63  0. 1.0000     0. 
   0   5   6     42.63    4.78  0. 1.0000     0. 
   0  -5  -6     51.15    6.19  0. 1.0000     0. 
   0  -5  -6     46.17    4.65  0. 1.0000     0. 
   1   5   5      3.26    2.25  0. 1.0000     0. 
  -1  -5  -5      2.16    3.68  0. 1.0000     0. 
  -2  -5  -4     40.71    6.19  0. 1.0000     0. 
  -3  -5  -3      2.02    3.31  0. 1.0000     0. 
   4  -4 -10     44.30    4.30  0. 1.0000     0. 
   4  -4 -10     41.80    5.75  0. 1.0000     0. 
  -3   4   9     64.37    6.33  0. 1.0000     0. 
  -1   4   7      7.52    2.08  0. 1.0000     0. 
  -1   4   7     11.74    2.20  0. 1.0000     0. 
  -1   4   7     16.82    4.77  0. 1.0000     0. 
   1  -4  -7      9.79    3.55  0. 1.0000     0. 
   0   4   6     30.14    3.92  0. 1.0000     0. 
   0   4   6     41.00    4.27  0. 1.0000     0. 
   0  -4  -6     25.73    5.46  0. 1.0000     0. 
   0  -4  -6     41.60    3.75  0. 1.0000     0. 
   1   4   5     59.82    4.94  0. 1.0000     0. 
   1   4   5     58.67    6.02  0. 1.0000     0. 
   1   4   5     52.91    7.97  0. 1.0000     0. 
  -1  -4  -5     48.78    5.34  0. 1.0000     0. 
  -1  -4  -5     53.63    6.90  0. 1.0000     0. 
  -2  -4  -4     82.60    9.51  0. 1.0000     0. 
   4   4   2     64.62    5.70  0. 1.0000     0. 
  -4  -4  -2     58.89    7.97  0. 1.0000     0. 
   4  -3 -10     40.60    4.00  0. 1.0000     0. 
  -2   3   8      0.93    3.42  0. 1.0000     0. 
  -1   3   7    374.53   33.23  0. 1.0000     0. 
  -1   3   7    392.20   42.17  0. 1.0000     0. 
  -1   3   7    381.72   29.84  0. 1.0000     0. 
   1  -3  -7    396.13   38.53  0. 1.0000     0. 
   2   3   4     93.72   10.52  0. 1.0000     0. 
   2   3   4     85.37    6.68  0. 1.0000     0. 
   2   3   4     85.36    7.06  0. 1.0000     0. 
   2   3   4     65.46    8.72  0. 1.0000     0. 
  -2  -3  -4     82.11    9.12  0. 1.0000     0. 
   4   3   2     22.19    3.00  0. 1.0000     0. 
  -4  -3  -2     25.77    4.98  0. 1.0000     0. 
   5   3   1      2.68    2.28  0. 1.0000     0. 
  -5  -3  -1      2.74    3.84  0. 1.0000     0. 
   4  -2 -10     42.06    4.14  0. 1.0000     0. 
  -3   2   9     21.77    4.46  0. 1.0000     0. 
  -2   2   8     40.24    5.47  0. 1.0000     0. 
  -2   2   8     34.50    3.55  0. 1.0000     0. 
   2  -2  -8     33.24    3.44  0. 1.0000     0. 
   2  -2  -8     36.84    4.52  0. 1.0000     0. 
  -1   2   7    149.48   12.12  0. 1.0000     0. 
  -1   2   7    158.98   13.48  0. 1.0000     0. 
   1  -2  -7    155.33   15.78  0. 1.0000     0. 
   0   2   6    120.05   10.39  0. 1.0000     0. 
   0   2   6    114.90    9.41  0. 1.0000     0. 
   0  -2  -6    121.66   12.37  0. 1.0000     0. 
   2   2   4    103.81    8.37  0. 1.0000     0. 
   2   2   4    110.56    9.02  0. 1.0000     0. 
   2   2   4     90.70   12.32  0. 1.0000     0. 
   2   2   4    103.65   10.59  0. 1.0000     0. 
  -2  -2  -4    104.72   11.21  0. 1.0000     0. 
   6   2   0      7.61    3.70  0. 1.0000     0. 
   4  -1 -10    123.69   12.06  0. 1.0000     0. 
   3  -1  -9     38.43    3.79  0. 1.0000     0. 
   1  -1  -7     99.39    9.70  0. 1.0000     0. 
   1   1   5     93.43    7.36  0. 1.0000     0. 
   1   1   5     77.95    7.51  0. 1.0000     0. 
   1   1   5    100.70   10.22  0. 1.0000     0. 
   1   1   5     77.12    6.87  0. 1.0000     0. 
  -1  -1  -5     84.79    9.12  0. 1.0000     0. 
  -1  -1  -5     86.60   11.43  0. 1.0000     0. 
   2   1   4      5.97    0.94  0. 1.0000     0. 
   2   1   4      4.73    3.16  0. 1.0000     0. 
   2   1   4      5.78    1.38  0. 1.0000     0. 
   2   1   4      4.51    1.39  0. 1.0000     0. 
  -2  -1  -4      6.50    3.50  0. 1.0000     0. 
  -2  -1  -4      5.94    2.55  0. 1.0000     0. 
   3   1   3      8.03    1.60  0. 1.0000     0. 
   3   1   3      5.48    2.08  0. 1.0000     0. 
   3   1   3      5.90    1.62  0. 1.0000     0. 
   3   1   3      7.46    3.54  0. 1.0000     0. 
   3   1   3      4.57    0.79  0. 1.0000     0. 
  -3  -1  -3      5.54    4.26  0. 1.0000     0. 
  -3  -1  -3      6.15    2.94  0. 1.0000     0. 
   4   1   2      8.79    4.06  0. 1.0000     0. 
   4   1   2      8.04    1.91  0. 1.0000     0. 
   4   1   2      7.36    1.76  0. 1.0000     0. 
   4   1   2      5.77    2.59  0. 1.0000     0. 
  -4  -1  -2      1.17    5.07  0. 1.0000     0. 
  -4  -1  -2     10.06    3.45  0. 1.0000     0. 
  -5  -1  -1      0.38    5.66  0. 1.0000     0. 
  -5  -1  -1      1.35    3.15  0. 1.0000     0. 
   6   1   0     54.18    6.81  0. 1.0000     0. 
  -6  -1   0     58.90    5.60  0. 1.0000     0. 
   0   0  -6     24.82    2.46  0. 1.0000     0. 
  -2   0  -4     35.42    3.50  0. 1.0000     0. 
   3   0   3     91.44   10.95  0. 1.0000     0. 
   3   0   3     89.42    8.03  0. 1.0000     0. 
  -3   0  -3     97.38   12.82  0. 1.0000     0. 
  -3   0  -3     85.54    9.69  0. 1.0000     0. 
   4   0   2    332.61   27.33  0. 1.0000     0. 
   4   0   2    302.76   31.00  0. 1.0000     0. 
   4   0   2    338.35   35.69  0. 1.0000     0. 
  -4   0  -2    311.57   41.82  0. 1.0000     0. 
  -4   0  -2    340.86   32.60  0. 1.0000     0. 
   5   0   1     37.91    7.15  0. 1.0000     0. 
   5   0   1     37.43    4.84  0. 1.0000     0. 
  -4   2  -2     47.61    4.66  0. 1.0000     0. 
  -4   2  -2     45.72    9.18  0. 1.0000     0. 
  -5   2  -1      6.15    5.21  0. 1.0000     0. 
   6  -2   0    430.35   35.69  0. 1.0000     0. 
  -6   2   0    416.26   54.41  0. 1.0000     0. 
  -6   3   0     54.97   10.99  0. 1.0000     0. 
   7  -3  -1      0.73    3.19  0. 1.0000     0. 
  -7   3   1      1.47    5.08  0. 1.0000     0. 
  -7   4   1      5.51    6.45  0. 1.0000     0. 
  -2   6   9     12.31    3.04  0. 1.0000     0. 
  -2   6   9      3.87    2.75  0. 1.0000     0. 
   2  -6  -9     13.28    4.44  0. 1.0000     0. 
  -1   6   8     -0.19    2.50  0. 1.0000     0. 
  -1   6   8      1.49    2.60  0. 1.0000     0. 
   1  -6  -8     -2.17    3.12  0. 1.0000     0. 
   0   6   7      2.35    2.58  0. 1.0000     0. 
   0  -6  -7     15.51    4.39  0. 1.0000     0. 
  -3   5  10     27.58    3.71  0. 1.0000     0. 
   3  -5 -10     29.49    5.39  0. 1.0000     0. 
   2  -5  -9      1.99    3.69  0. 1.0000     0. 
   1   5   6     49.71    5.08  0. 1.0000     0. 
   1   5   6     51.64    4.90  0. 1.0000     0. 
  -1  -5  -6     52.48    5.07  0. 1.0000     0. 
   2   5   5      8.26    2.62  0. 1.0000     0. 
  -2  -5  -5     18.42    4.10  0. 1.0000     0. 
  -3   4  10     68.82    6.32  0. 1.0000     0. 
  -3   4  10     54.31    8.90  0. 1.0000     0. 
   3  -4 -10     64.88    7.60  0. 1.0000     0. 
   3  -4 -10     62.28    6.19  0. 1.0000     0. 
  -2   4   9     47.12    4.59  0. 1.0000     0. 
  -2   4   9     51.71    7.89  0. 1.0000     0. 
  -2   4   9     56.19    5.08  0. 1.0000     0. 
   2  -4  -9     50.15    6.23  0. 1.0000     0. 
   2  -4  -9     47.08    4.87  0. 1.0000     0. 
   1  -4  -8     19.03    4.10  0. 1.0000     0. 
   0   4   7     11.26    2.42  0. 1.0000     0. 
   0   4   7     15.92    2.33  0. 1.0000     0. 
   0  -4  -7      8.56    3.70  0. 1.0000     0. 
   1   4   6     12.90    2.15  0. 1.0000     0. 
   1   4   6      7.90    4.45  0. 1.0000     0. 
   1   4   6      9.01    2.20  0. 1.0000     0. 
  -1  -4  -6      4.38    3.47  0. 1.0000     0. 
  -2  -4  -5     30.92    3.06  0. 1.0000     0. 
  -3  -4  -4     13.51    4.30  0. 1.0000     0. 
   4  -3 -11     54.56    5.37  0. 1.0000     0. 
  -2   3   9     90.08    7.88  0. 1.0000     0. 
  -2   3   9     90.80    8.81  0. 1.0000     0. 
  -2   3   9     99.81   11.81  0. 1.0000     0. 
   2  -3  -9    112.20   10.63  0. 1.0000     0. 
  -1   3   8     85.36   11.26  0. 1.0000     0. 
  -1   3   8    112.24   12.48  0. 1.0000     0. 
  -1   3   8     92.38    9.17  0. 1.0000     0. 
  -1   3   8    118.03    8.36  0. 1.0000     0. 
   1  -3  -8    116.97   11.10  0. 1.0000     0. 
   3   3   4     36.45    3.96  0. 1.0000     0. 
   3   3   4     43.37    7.04  0. 1.0000     0. 
  -3  -3  -4     33.66    5.63  0. 1.0000     0. 
   4   3   3     46.93    4.60  0. 1.0000     0. 
  -4  -3  -3     39.83    6.57  0. 1.0000     0. 
  -4  -3  -3     49.63    4.67  0. 1.0000     0. 
   3  -2 -10     62.75    6.15  0. 1.0000     0. 
  -2   2   9     43.91    4.55  0. 1.0000     0. 
  -2   2   9     30.65    6.20  0. 1.0000     0. 
   2  -2  -9     38.51    3.92  0. 1.0000     0. 
  -1   2   8     60.62    6.71  0. 1.0000     0. 
   0   2   7     23.13    2.48  0. 1.0000     0. 
   0   2   7     25.09    2.52  0. 1.0000     0. 
   0   2   7     29.20    5.27  0. 1.0000     0. 
   0  -2  -7     20.37    2.22  0. 1.0000     0. 
   0  -2  -7     23.66    3.47  0. 1.0000     0. 
   1   2   6      8.98    3.87  0. 1.0000     0. 
   2   2   5    205.46   14.48  0. 1.0000     0. 
   2   2   5    169.44   20.68  0. 1.0000     0. 
   2   2   5    182.29   15.82  0. 1.0000     0. 
  -2  -2  -5    173.33   18.80  0. 1.0000     0. 
   4   2   3     84.11    7.17  0. 1.0000     0. 
   4   2   3     80.09   10.98  0. 1.0000     0. 
   4   2   3     76.04    6.94  0. 1.0000     0. 
  -4  -2  -3     90.30    9.46  0. 1.0000     0. 
   5   2   2     46.58    5.07  0. 1.0000     0. 
  -5  -2  -2     63.65    5.43  0. 1.0000     0. 
  -5  -2  -2     42.26    6.90  0. 1.0000     0. 
   3  -1 -10     33.27    3.29  0. 1.0000     0. 
   2  -1  -9     36.69    3.62  0. 1.0000     0. 
   1  -1  -8     78.28    7.66  0. 1.0000     0. 
   0   1   7    214.07   20.17  0. 1.0000     0. 
   0  -1  -7    255.46   23.55  0. 1.0000     0. 
   1   1   6     34.01    3.34  0. 1.0000     0. 
   1   1   6     40.18    5.52  0. 1.0000     0. 
   1   1   6     34.54    3.32  0. 1.0000     0. 
  -1  -1  -6     28.79    4.63  0. 1.0000     0. 
  -1  -1  -6     36.74    3.47  0. 1.0000     0. 
   2   1   5     41.91    6.18  0. 1.0000     0. 
   2   1   5     37.08    3.53  0. 1.0000     0. 
   2   1   5     34.22    3.74  0. 1.0000     0. 
   2   1   5     33.39    3.51  0. 1.0000     0. 
  -2  -1  -5     32.36    5.08  0. 1.0000     0. 
  -2  -1  -5     44.51    3.79  0. 1.0000     0. 
   3   1   4    181.40   18.36  0. 1.0000     0. 
   3   1   4    142.79   13.44  0. 1.0000     0. 
   3   1   4    166.75   13.63  0. 1.0000     0. 
   3   1   4    162.46   12.48  0. 1.0000     0. 
  -3  -1  -4    138.16   21.27  0. 1.0000     0. 
   0   0  -7     36.19    3.57  0. 1.0000     0. 
  -2   0  -5     99.69   10.52  0. 1.0000     0. 
   3   0   4     23.92    3.52  0. 1.0000     0. 
   3   0   4     25.22    5.34  0. 1.0000     0. 
   3   0   4     32.36    2.65  0. 1.0000     0. 
  -3   0  -4     31.42    6.29  0. 1.0000     0. 
  -3   0  -4     23.99    4.36  0. 1.0000     0. 
   4   0   3      1.71    2.22  0. 1.0000     0. 
   4   0   3     -0.30    4.17  0. 1.0000     0. 
  -4   0  -3      1.43    2.80  0. 1.0000     0. 
  -4   0  -3      0.84    4.47  0. 1.0000     0. 
   6  -2   1    347.60   31.86  0. 1.0000     0. 
  -6   2  -1    409.74   48.75  0. 1.0000     0. 
   7  -2   0     23.38    4.10  0. 1.0000     0. 
  -7   2   0     22.82    7.87  0. 1.0000     0. 
  -6   3  -1    284.85   37.35  0. 1.0000     0. 
   7  -3   0      5.89    3.54  0. 1.0000     0. 
  -7   3   0      4.28    6.33  0. 1.0000     0. 
  -3   5  11     40.15    4.67  0. 1.0000     0. 
   3  -5 -11     24.36    5.83  0. 1.0000     0. 
  -2   5  10     29.40    3.89  0. 1.0000     0. 
  -2   5  10     32.37    4.08  0. 1.0000     0. 
   2  -5 -10     33.63    5.39  0. 1.0000     0. 
  -1   5   9     33.36    4.73  0. 1.0000     0. 
  -1   5   9     51.51    5.14  0. 1.0000     0. 
   1  -5  -9     44.80    4.45  0. 1.0000     0. 
   0   5   8     55.83    6.07  0. 1.0000     0. 
   0   5   8     52.54    5.28  0. 1.0000     0. 
   0   5   8     56.42    5.47  0. 1.0000     0. 
   0  -5  -8     57.38    6.86  0. 1.0000     0. 
   0  -5  -8     51.60    5.33  0. 1.0000     0. 
  -3   4  11      1.11    1.48  0. 1.0000     0. 
  -3   4  11      3.81    2.44  0. 1.0000     0. 
  -3   4  11      5.03    4.81  0. 1.0000     0. 
   3  -4 -11      6.52    3.47  0. 1.0000     0. 
   0  -4  -8     44.86    4.42  0. 1.0000     0. 
   1   4   7     21.83    2.80  0. 1.0000     0. 
  -1  -4  -7     19.11    4.46  0. 1.0000     0. 
   2   4   6     44.26    4.71  0. 1.0000     0. 
   2   4   6     39.88    7.98  0. 1.0000     0. 
  -2  -4  -6     53.02    4.79  0. 1.0000     0. 
  -3   3  11     38.59    6.73  0. 1.0000     0. 
   1  -3  -9      4.22    3.06  0. 1.0000     0. 
   0  -3  -8    309.89   31.12  0. 1.0000     0. 
   1   3   7     77.17    9.74  0. 1.0000     0. 
   1   3   7     69.78    7.81  0. 1.0000     0. 
   1   3   7     74.80    6.14  0. 1.0000     0. 
   1   3   7     77.58    6.49  0. 1.0000     0. 
  -1  -3  -7     61.75    6.93  0. 1.0000     0. 
  -1  -3  -7     72.35    8.17  0. 1.0000     0. 
   3   3   5     54.41    4.89  0. 1.0000     0. 
   3   3   5     43.28    8.77  0. 1.0000     0. 
   3   3   5     53.42    4.88  0. 1.0000     0. 
  -3  -3  -5     52.61    5.16  0. 1.0000     0. 
   4   3   4     29.46    4.16  0. 1.0000     0. 
   4   3   4     38.10    3.86  0. 1.0000     0. 
  -4  -3  -4     48.72    4.04  0. 1.0000     0. 
  -4  -3  -4     30.69    5.81  0. 1.0000     0. 
   4  -2 -12     46.59    4.60  0. 1.0000     0. 
  -2   2  10     43.87    7.04  0. 1.0000     0. 
   2  -2 -10     46.88    4.56  0. 1.0000     0. 
  -1   2   9     44.78    4.59  0. 1.0000     0. 
  -1   2   9     45.46    6.93  0. 1.0000     0. 
  -1   2   9     50.36    5.27  0. 1.0000     0. 
   1  -2  -9     46.22    4.63  0. 1.0000     0. 
   1  -2  -9     45.31    5.88  0. 1.0000     0. 
   0   2   8     35.57    4.15  0. 1.0000     0. 
   0   2   8     30.22    6.50  0. 1.0000     0. 
   0  -2  -8     26.45    4.91  0. 1.0000     0. 
   0  -2  -8     41.85    3.64  0. 1.0000     0. 
   3   2   5     52.10    4.79  0. 1.0000     0. 
   3   2   5     53.17    8.42  0. 1.0000     0. 
  -3  -2  -5     57.00    5.20  0. 1.0000     0. 
  -3  -2  -5     43.17    6.51  0. 1.0000     0. 
   4   2   4     23.35    2.59  0. 1.0000     0. 
   4   2   4     15.34    5.74  0. 1.0000     0. 
   4   2   4     23.88    3.06  0. 1.0000     0. 
   4   2   4     19.89    2.24  0. 1.0000     0. 
   2  -1 -10     43.64    4.30  0. 1.0000     0. 
   1  -1  -9     44.45    4.38  0. 1.0000     0. 
   0  -1  -8     63.67    6.25  0. 1.0000     0. 
   1   1   7     46.45    4.57  0. 1.0000     0. 
   1   1   7     50.59    7.08  0. 1.0000     0. 
  -1  -1  -7     50.99    4.84  0. 1.0000     0. 
  -1  -1  -7     48.04    6.01  0. 1.0000     0. 
   2   1   6     83.91    7.43  0. 1.0000     0. 
   2   1   6     93.19   10.68  0. 1.0000     0. 
  -2  -1  -6     77.06    9.25  0. 1.0000     0. 
   3   1   5    170.31   19.56  0. 1.0000     0. 
   4   1   4     13.20    4.92  0. 1.0000     0. 
   5   1   3     53.65    9.22  0. 1.0000     0. 
  -5  -1  -3     65.86    7.22  0. 1.0000     0. 
  -5  -1  -3     55.59    5.67  0. 1.0000     0. 
  -1   0  -7     37.72    3.73  0. 1.0000     0. 
  -2   0  -6     50.79    5.00  0. 1.0000     0. 
  -3   0  -5     19.08    3.68  0. 1.0000     0. 
   6   0   2      6.47    2.62  0. 1.0000     0. 
  -6   0  -2     16.48    7.15  0. 1.0000     0. 
  -4   1  -4     66.99    6.58  0. 1.0000     0. 
   5  -1   3      5.49    4.94  0. 1.0000     0. 
  -5   1  -3      5.52    5.67  0. 1.0000     0. 
   6  -1   2     12.96    3.33  0. 1.0000     0. 
  -6   1  -2      3.34    6.61  0. 1.0000     0. 
   6  -2   2     16.23    4.02  0. 1.0000     0. 
  -6   2  -2     20.13    7.08  0. 1.0000     0. 
   3  -4 -12      2.99    3.50  0. 1.0000     0. 
  -2   4  11     36.60    8.21  0. 1.0000     0. 
  -2   4  11     46.18    5.42  0. 1.0000     0. 
   2  -4 -11     54.40    6.90  0. 1.0000     0. 
   2  -4 -11     57.14    5.13  0. 1.0000     0. 
  -1   4  10     71.07    6.33  0. 1.0000     0. 
  -1   4  10     62.94    9.91  0. 1.0000     0. 
  -1   4  10     61.08    7.30  0. 1.0000     0. 
  -1   4  10     77.03    5.97  0. 1.0000     0. 
   1  -4 -10     73.49    7.90  0. 1.0000     0. 
   1  -4 -10     57.96    6.40  0. 1.0000     0. 
   0   4   9     48.54    5.70  0. 1.0000     0. 
   0  -4  -9     52.46    4.99  0. 1.0000     0. 
   2   3   7     68.93    6.22  0. 1.0000     0. 
   2   3   7     64.95    5.94  0. 1.0000     0. 
   2   3   7     75.47    7.48  0. 1.0000     0. 
   2   3   7     64.90   10.30  0. 1.0000     0. 
  -2  -3  -7     61.24    6.63  0. 1.0000     0. 
   4  -2 -13     38.76    3.85  0. 1.0000     0. 
  -2   2  11     30.92    6.53  0. 1.0000     0. 
   2  -2 -11     43.72    4.09  0. 1.0000     0. 
   1  -2 -10      1.61    2.65  0. 1.0000     0. 
   0   2   9     59.01    5.81  0. 1.0000     0. 
   0  -2  -9     66.50    7.32  0. 1.0000     0. 
   1   2   8     47.05    4.62  0. 1.0000     0. 
   1   2   8     50.37    5.35  0. 1.0000     0. 
   1   2   8     41.62    7.61  0. 1.0000     0. 
  -1  -2  -8     50.27    4.73  0. 1.0000     0. 
  -1  -2  -8     40.25    6.11  0. 1.0000     0. 
  -2  -2  -7     28.53    2.84  0. 1.0000     0. 
   3   2   6     21.04    2.35  0. 1.0000     0. 
   3   2   6     21.32    2.74  0. 1.0000     0. 
   3   2   6     27.23    6.39  0. 1.0000     0. 
  -3  -2  -6     12.38    4.19  0. 1.0000     0. 
   4   2   5      6.80    5.66  0. 1.0000     0. 
   4   2   5     10.61    1.66  0. 1.0000     0. 
  -4  -2  -5     18.42    4.15  0. 1.0000     0. 
   1  -1 -10     56.08    5.52  0. 1.0000     0. 
   0  -1  -9     43.94    4.34  0. 1.0000     0. 
   1   1   8      6.85    4.50  0. 1.0000     0. 
  -1  -1  -8     10.71    3.01  0. 1.0000     0. 
  -2  -1  -7     14.82    3.41  0. 1.0000     0. 
  -3  -1  -6     57.13    5.62  0. 1.0000     0. 
   4   1   5     41.57    8.64  0. 1.0000     0. 
  -4  -1  -5     55.59    5.26  0. 1.0000     0. 
  -1   0  -8     54.57    5.37  0. 1.0000     0. 
  -2   0  -7     50.56    4.99  0. 1.0000     0. 
  -5   0  -4     50.27    4.97  0. 1.0000     0. 
   5  -1   4     17.12    3.54  0. 1.0000     0. 
  -2   3  12     18.04    5.34  0. 1.0000     0. 
   0   3  10      8.29    2.23  0. 1.0000     0. 
   0   3  10     12.71    5.17  0. 1.0000     0. 
   0  -3 -10     11.72    3.74  0. 1.0000     0. 
  -1  -2  -9     81.75    9.14  0. 1.0000     0. 
   0  -1 -10     54.30    5.35  0. 1.0000     0. 
  -1  -1  -9     60.36    5.94  0. 1.0000     0. 
   2   1   8     43.85    7.97  0. 1.0000     0. 
  -2  -1  -8     53.00    5.06  0. 1.0000     0. 
   3   1   7     80.24   12.03  0. 1.0000     0. 
  -3  -1  -7    102.42   10.27  0. 1.0000     0. 
   4   1   6     13.11    6.36  0. 1.0000     0. 
  -4  -1  -6     20.41    4.19  0. 1.0000     0. 
  -2   0  -8     61.38    6.05  0. 1.0000     0. 
   3   0   7     18.61    5.87  0. 1.0000     0. 
   2  -2 -13     46.00    4.56  0. 1.0000     0. 
  -1   2  12     52.06    8.67  0. 1.0000     0. 
   1  -2 -12     61.22    5.83  0. 1.0000     0. 
   0  -2 -11     52.17    5.15  0. 1.0000     0. 
  -1  -2 -10     31.31    4.65  0. 1.0000     0. 
  -1  -1 -10     56.32    5.55  0. 1.0000     0. 
  -3   0  -8     55.97    5.53  0. 1.0000     0. 
-512 
#   1244 reflections output 
;
loop_
_symmetry_equiv_pos_as_xyz
x,y,z
-x,-y,-z
loop_
_atom_site_label
_atom_site_type_symbol
_atom_site_fract_x
_atom_site_fract_y
_atom_site_fract_z
_atom_site_U_iso_or_equiv
_atom_site_occupancy
_atom_site_adp_type
_atom_site_refinement_flags_posn
_atom_site_refinement_flags_adp
_atom_site_refinement_flags_occupancy
_atom_site_disorder_assembly
_atom_site_disorder_group
_atom_site_attached_hydrogens
Cl2 Cl 0.0638(13) 0.919(2) 0.1422(10) 0.055(3) 1.0000 Uiso D U . . . .
Cl3 Cl -0.3362(13) 0.664(2) -0.0924(10) 0.053(3) 1.0000 Uiso D U . . . .
Cl4 Cl -0.4806(13) 0.296(2) -0.1238(10) 0.050(3) 1.0000 Uiso D U . . . .
Cl5 Cl -0.2097(14) 0.189(2) 0.0897(11) 0.057(3) 1.0000 Uiso D U . . . .
Cl6 Cl 0.1995(13) 0.449(2) 0.3276(11) 0.056(3) 1.0000 Uiso D U . . . .
O1 O 0.286(3) 0.785(4) 0.325(2) 0.054(3) 1.0000 Uiso D U . . . .
N11 N 0.671(3) 0.779(2) 0.4466(16) 0.049(4) 1.0000 Uiso D U . . . .
C1 C 0.116(3) 0.675(3) 0.2253(18) 0.054(3) 1.0000 Uiso D U . . . .
C2 C -0.011(2) 0.719(3) 0.1267(15) 0.054(3) 1.0000 Uiso D U . . . .
C3 C -0.190(2) 0.605(2) 0.0223(16) 0.053(3) 1.0000 Uiso D U . . . .
C4 C -0.254(3) 0.441(2) 0.0093(16) 0.053(3) 1.0000 Uiso D U . . . .
C5 C -0.132(2) 0.393(3) 0.1047(15) 0.055(3) 1.0000 Uiso D U . . . .
C6 C 0.048(3) 0.508(2) 0.2098(17) 0.055(3) 1.0000 Uiso D U . . . .
C11 C 0.742(4) 0.671(2) 0.4076(15) 0.049(4) 1.0000 Uiso D U . . . .
C12 C 0.960(4) 0.679(2) 0.4726(19) 0.049(4) 1.0000 Uiso D U . . . .
C13 C 1.110(3) 0.800(2) 0.5797(15) 0.050(4) 1.0000 Uiso D U . . . .
C14 C 1.037(4) 0.910(2) 0.6193(16) 0.049(4) 1.0000 Uiso D U . . . .
C15 C 0.814(4) 0.895(2) 0.5495(19) 0.049(4) 1.0000 Uiso D U . . . .
C16 C 1.344(4) 0.812(3) 0.651(2) 0.050(4) 1.0000 Uiso D U . . . .
H11 H 0.4520 0.7837 0.3783 0.0606 1.0000 Uiso DR . . . . .
H111 H 0.6427 0.5918 0.3328 0.0550 1.0000 Uiso R . . . . .
H121 H 1.0031 0.6041 0.4405 0.0551 1.0000 Uiso R . . . . .
H141 H 1.1326 0.9904 0.6937 0.0549 1.0000 Uiso R . . . . .
H151 H 0.7665 0.9687 0.5791 0.0550 1.0000 Uiso R . . . . .
H161 H 1.4415 0.9248 0.6953 0.0700 1.0000 Uiso R . . . . .
H162 H 1.3560 0.7530 0.7044 0.0700 1.0000 Uiso R . . . . .
H163 H 1.3836 0.7641 0.5987 0.0700 1.0000 Uiso R . . . . .
loop_
_atom_type_symbol
_atom_type_scat_dispersion_real
_atom_type_scat_dispersion_imag
_atom_type_scat_Cromer_Mann_a1
_atom_type_scat_Cromer_Mann_b1
_atom_type_scat_Cromer_Mann_a2
_atom_type_scat_Cromer_Mann_b2
_atom_type_scat_Cromer_Mann_a3
_atom_type_scat_Cromer_Mann_b3
_atom_type_scat_Cromer_Mann_a4
_atom_type_scat_Cromer_Mann_b4
_atom_type_scat_Cromer_Mann_c
_atom_type_scat_source
C 0.0028 0.0015 2.3100 20.8439 1.0200 10.2075 1.5886 0.5687 0.8650 51.6512
0.2156 'International Tables Vol C 4.2.6.8 and 6.1.1.4'
H 0.0000 0.0000 0.4930 10.5109 0.3229 26.1257 0.1402 3.1424 0.0408 57.7998
0.0030 'International Tables Vol C 4.2.6.8 and 6.1.1.4'
N 0.0056 0.0031 12.2126 0.0057 3.1322 9.8933 2.0125 28.9975 1.1663 0.5826
-11.5290 'International Tables Vol C 4.2.6.8 and 6.1.1.4'
O 0.0101 0.0057 3.0485 13.2771 2.2868 5.7011 1.5463 0.3239 0.8670 32.9089
0.2508 'International Tables Vol C 4.2.6.8 and 6.1.1.4'
Cl 0.1420 0.1501 11.4604 0.0104 7.1964 1.1662 6.2556 18.5194 1.6455 47.7784
-9.5574 'International Tables Vol C 4.2.6.8 and 6.1.1.4'
loop_
_geom_angle_atom_site_label_1
_geom_angle_site_symmetry_1
_geom_angle_atom_site_label_2
_geom_angle_site_symmetry_2
_geom_angle_atom_site_label_3
_geom_angle_site_symmetry_3
_geom_angle
_geom_angle_publ_flag
C1 . O1 . H11 . 128.4 no
C11 . N11 . C15 . 117.8(7) yes
O1 . C1 . C2 . 121.8(7) yes
O1 . C1 . C6 . 121.8(7) yes
C2 . C1 . C6 . 116.4(6) yes
C1 . C2 . Cl2 . 117.8(7) yes
C1 . C2 . C3 . 122.0(6) yes
Cl2 . C2 . C3 . 120.2(6) yes
Cl3 . C3 . C2 . 120.1(6) yes
Cl3 . C3 . C4 . 119.4(6) yes
C2 . C3 . C4 . 120.5(6) yes
Cl4 . C4 . C3 . 120.4(7) yes
Cl4 . C4 . C5 . 120.5(7) yes
C3 . C4 . C5 . 119.0(6) yes
Cl5 . C5 . C4 . 119.4(6) yes
Cl5 . C5 . C6 . 120.2(6) yes
C4 . C5 . C6 . 120.3(6) yes
Cl6 . C6 . C1 . 117.8(6) yes
Cl6 . C6 . C5 . 120.5(6) yes
C1 . C6 . C5 . 121.7(6) yes
N11 . C11 . C12 . 122.4(7) yes
N11 . C11 . H111 . 118.0 no
C12 . C11 . H111 . 119.5 no
C11 . C12 . C13 . 120.1(7) yes
C11 . C12 . H121 . 119.3 no
C13 . C12 . H121 . 120.6 no
C12 . C13 . C14 . 117.3(6) yes
C12 . C13 . C16 . 121.2(7) yes
C14 . C13 . C16 . 121.4(7) yes
C13 . C14 . C15 . 120.0(7) yes
C13 . C14 . H141 . 119.5 no
C15 . C14 . H141 . 120.5 no
C14 . C15 . N11 . 122.5(8) yes
C14 . C15 . H151 . 118.6 no
N11 . C15 . H151 . 118.9 no
C13 . C16 . H161 . 110.3 no
C13 . C16 . H162 . 108.5 no
H161 . C16 . H162 . 109.3 no
C13 . C16 . H163 . 109.3 no
H161 . C16 . H163 . 109.8 no
H162 . C16 . H163 . 109.7 no
loop_
_geom_bond_atom_site_label_1
_geom_bond_site_symmetry_1
_geom_bond_atom_site_label_2
_geom_bond_site_symmetry_2
_geom_bond_distance
_geom_bond_publ_flag
Cl2 . C2 . 1.69(3) yes
Cl3 . C3 . 1.69(2) yes
Cl4 . C4 . 1.740(19) yes
Cl5 . C5 . 1.72(3) yes
Cl6 . C6 . 1.73(3) yes
O1 . C1 . 1.31(3) yes
O1 . H11 . 1.091 no
N11 . C11 . 1.34(3) yes
N11 . C15 . 1.31(3) yes
C1 . C2 . 1.42(3) yes
C1 . C6 . 1.40(3) yes
C2 . C3 . 1.37(2) yes
C3 . C4 . 1.38(2) yes
C4 . C5 . 1.40(2) yes
C5 . C6 . 1.38(2) yes
C11 . C12 . 1.40(3) yes
C11 . H111 . 0.929 no
C12 . C13 . 1.36(3) yes
C12 . H121 . 0.930 no
C13 . C14 . 1.37(3) yes
C13 . C16 . 1.49(3) yes
C14 . C15 . 1.41(3) yes
C14 . H141 . 0.930 no
C15 . H151 . 0.930 no
C16 . H161 . 0.962 no
C16 . H162 . 0.961 no
C16 . H163 . 0.960 no
loop_
_geom_hbond_atom_site_label_D
_geom_hbond_site_symmetry_D
_geom_hbond_atom_site_label_H
_geom_hbond_site_symmetry_H
_geom_hbond_atom_site_label_A
_geom_hbond_site_symmetry_A
_geom_hbond_angle_DHA
_geom_hbond_distance_DH
_geom_hbond_distance_HA
_geom_hbond_distance_DA
_geom_hbond_publ_flag
O1 . H11 . N11 . 179 1.09 1.45 2.54(3) yes
O1 . H11 . C11 . 152 1.09 2.47 3.47(3) yes
O1 . H11 . C15 . 152 1.09 2.36 3.36(3) yes
C15 . H151 . O1 2_676 168 0.93 2.56 3.47(3) yes
loop_
_oxford_refln_omitted_index_h
_oxford_refln_omitted_index_k
_oxford_refln_omitted_index_l
_oxford_refln_omitted_flag
_oxford_refln_omitted_details
-2 5 4 x .
-4 1 10 x .
-3 2 2 x .
-2 2 7 x .
-6 4 3 x .
-5 3 1 x .
-4 5 4 x .
-6 4 6 x .
