#------------------------------------------------------------------------------
#$Date: 2020-10-15 04:31:46 +0300 (Thu, 15 Oct 2020) $
#$Revision: 258409 $
#$URL: file:///home/coder/svn-repositories/cod/cif/7/24/14/7241400.cif $
#------------------------------------------------------------------------------
#
# This file is available in the Crystallography Open Database (COD),
# http://www.crystallography.net/
#
# All data on this site have been placed in the public domain by the
# contributors.
#
data_7241400
loop_
_publ_author_name
'Nitti, Andrea'
'Botta, Chiara'
'Forni, Alessandra'
'Cariati, Elena'
'Lucenti, Elena'
'Pasini, Dario'
_publ_section_title
;
 Crystallization-Induced Room-Temperature Phosphorescence in Fumaramides
;
_journal_name_full               CrystEngComm
_journal_paper_doi               10.1039/D0CE01253J
_journal_year                    2020
_chemical_formula_moiety         'C18 H16 Br2 N2 O2'
_chemical_formula_sum            'C18 H16 Br2 N2 O2'
_chemical_formula_weight         452.15
_chemical_name_systematic
'2,3-Dibromo-N,N-dimethyl-N,N-diphenylfumaramide '
_space_group_crystal_system      monoclinic
_space_group_IT_number           14
_space_group_name_Hall           '-P 2ybc'
_space_group_name_H-M_alt        'P 1 21/c 1'
_atom_sites_solution_hydrogens   geom
_atom_sites_solution_primary     direct
_atom_sites_solution_secondary   difmap
_audit_creation_method           SHELXL-2014/7
_audit_update_record
;
2020-10-08 deposited with the CCDC.	2020-10-12 downloaded from the CCDC.
;
_cell_angle_alpha                90
_cell_angle_beta                 102.8517(13)
_cell_angle_gamma                90
_cell_formula_units_Z            2
_cell_length_a                   6.4413(5)
_cell_length_b                   11.5184(10)
_cell_length_c                   12.4869(11)
_cell_measurement_reflns_used    6933
_cell_measurement_temperature    293(2)
_cell_measurement_theta_max      29.193
_cell_measurement_theta_min      2.434
_cell_volume                     903.24(13)
_computing_cell_refinement       'SAINT (Bruker, 1997)'
_computing_data_collection       'SMART (Bruker, 1997)'
_computing_data_reduction        SAINT
_computing_molecular_graphics    'ORTEP III ( Burnett&Johnson, 1996)'
_computing_publication_material  SHELXL-2014/7
_computing_structure_refinement  'SHELXL-2014/7 (Sheldrick, 2014)'
_computing_structure_solution    'SHELXT 2014/4 (Sheldrick, 2014)'
_diffrn_ambient_temperature      293(2)
_diffrn_measured_fraction_theta_full 1.000
_diffrn_measured_fraction_theta_max 0.956
_diffrn_measurement_device_type  'Bruker SMART APEX'
_diffrn_measurement_method       'phi and omega scans'
_diffrn_radiation_monochromator  graphite
_diffrn_radiation_source         'fine-focus sealed tube'
_diffrn_radiation_type           MoK\a
_diffrn_radiation_wavelength     0.71073
_diffrn_reflns_av_R_equivalents  0.0200
_diffrn_reflns_av_unetI/netI     0.0144
_diffrn_reflns_Laue_measured_fraction_full 1.000
_diffrn_reflns_Laue_measured_fraction_max 0.956
_diffrn_reflns_limit_h_max       9
_diffrn_reflns_limit_h_min       -9
_diffrn_reflns_limit_k_max       17
_diffrn_reflns_limit_k_min       -17
_diffrn_reflns_limit_l_max       17
_diffrn_reflns_limit_l_min       -18
_diffrn_reflns_number            18004
_diffrn_reflns_point_group_measured_fraction_full 1.000
_diffrn_reflns_point_group_measured_fraction_max 0.956
_diffrn_reflns_theta_full        25.242
_diffrn_reflns_theta_max         31.891
_diffrn_reflns_theta_min         2.434
_exptl_absorpt_coefficient_mu    4.500
_exptl_absorpt_correction_T_max  0.746
_exptl_absorpt_correction_T_min  0.425
_exptl_absorpt_correction_type   multi-scan
_exptl_absorpt_process_details
;
SADABS, Bruker, 1997
;
_exptl_crystal_colour            colorless
_exptl_crystal_density_diffrn    1.662
_exptl_crystal_density_method    none
_exptl_crystal_description       prism
_exptl_crystal_F_000             448
_exptl_crystal_preparation       Luminescent,Luminescent
_exptl_crystal_recrystallization_method
'Re-crystallisation from solvent: acetonitrile'
_exptl_crystal_size_max          0.450
_exptl_crystal_size_mid          0.170
_exptl_crystal_size_min          0.170
_refine_diff_density_max         0.567
_refine_diff_density_min         -0.481
_refine_diff_density_rms         0.062
_refine_ls_extinction_method     none
_refine_ls_goodness_of_fit_ref   1.048
_refine_ls_hydrogen_treatment    constr
_refine_ls_matrix_type           full
_refine_ls_number_parameters     110
_refine_ls_number_reflns         2979
_refine_ls_number_restraints     0
_refine_ls_restrained_S_all      1.048
_refine_ls_R_factor_all          0.0402
_refine_ls_R_factor_gt           0.0289
_refine_ls_shift/su_max          0.001
_refine_ls_shift/su_mean         0.000
_refine_ls_structure_factor_coef Fsqd
_refine_ls_weighting_details
'w=1/[\s^2^(Fo^2^)+(0.0293P)^2^+0.5247P] where P=(Fo^2^+2Fc^2^)/3'
_refine_ls_weighting_scheme      calc
_refine_ls_wR_factor_gt          0.0669
_refine_ls_wR_factor_ref         0.0713
_reflns_Friedel_coverage         0.000
_reflns_number_gt                2439
_reflns_number_total             2979
_reflns_threshold_expression     'I > 2\s(I)'
_cod_data_source_file            d0ce01253j2.cif
_cod_data_source_block           1
_cod_original_sg_symbol_H-M      'P 21/c'
_cod_database_code               7241400
_shelx_shelxl_version_number     2014/7
_shelx_space_group_comment
;
The symmetry employed for this shelxl refinement is uniquely defined
by the following loop, which should always be used as a source of
symmetry information in preference to the above space-group names.
They are only intended as comments.
;
_shelx_estimated_absorpt_t_min   0.237
_shelx_estimated_absorpt_t_max   0.515
_shelx_res_file
;

    shelx.res created by SHELXL-2014/7


TITL nitti1 in P2(1)/c
CELL 0.71073   6.44130  11.51840  12.48690  90.0000 102.8517  90.0000
ZERR    2.00   0.00050   0.00100   0.00110   0.0000   0.0013   0.0000
LATT  1
SYMM -X, 0.5+Y, 0.5-Z
SFAC C H N O BR
UNIT 36 32 4 4 4
L.S. 10
ACTA
BOND $H
FMAP 2
PLAN 20
TEMP 20.000
WGHT    0.029300    0.524700
FVAR       0.20999
BR1   5    0.748520    0.512580    0.394344    11.00000    0.03494    0.05238 =
         0.03982    0.00747    0.01164    0.00402
O1    4    0.175886    0.502534    0.317224    11.00000    0.04411    0.04616 =
         0.04747   -0.00362   -0.00445   -0.00777
N1    3    0.296524    0.685295    0.359160    11.00000    0.03408    0.03628 =
         0.03544    0.00376   -0.00120    0.00211
C1    1    0.499534    0.521647    0.450740    11.00000    0.02994    0.03274 =
         0.03405   -0.00045    0.00566    0.00044
C2    1    0.307277    0.569186    0.370448    11.00000    0.03204    0.03821 =
         0.02966    0.00151    0.00440    0.00031
C3    1    0.119929    0.736014    0.278352    11.00000    0.04231    0.05311 =
         0.05581    0.01432   -0.00594    0.00516
AFIX 137
H3A   2    0.093524    0.690169    0.212506    11.00000   -1.50000
H3B   2    0.156005    0.813808    0.261710    11.00000   -1.50000
H3C   2   -0.005556    0.737326    0.307845    11.00000   -1.50000
AFIX   0
C4    1    0.445284    0.762590    0.426357    11.00000    0.03894    0.02938 =
         0.04316   -0.00024    0.00100    0.00387
C5    1    0.590911    0.822350    0.380264    11.00000    0.05463    0.05706 =
         0.07802   -0.01669    0.02538   -0.01020
AFIX  43
H5    2    0.593549    0.811891    0.306728    11.00000   -1.20000
AFIX   0
C6    1    0.732825    0.898110    0.445729    11.00000    0.05354    0.06525 =
         0.13220   -0.02510    0.02382   -0.01888
AFIX  43
H6    2    0.830664    0.938991    0.415678    11.00000   -1.20000
AFIX   0
C7    1    0.729545    0.912983    0.554339    11.00000    0.07678    0.04455 =
         0.10100   -0.01066   -0.02985   -0.00415
AFIX  43
H7    2    0.827155    0.962359    0.598139    11.00000   -1.20000
AFIX   0
C8    1    0.584822    0.856000    0.597437    11.00000    0.14015    0.05200 =
         0.04267   -0.00243   -0.01328   -0.01336
AFIX  43
H8    2    0.581773    0.867161    0.670834    11.00000   -1.20000
AFIX   0
C9    1    0.439673    0.780535    0.533265    11.00000    0.09412    0.04637 =
         0.04174    0.00209    0.01103   -0.01578
AFIX  43
H9    2    0.338978    0.742442    0.563518    11.00000   -1.20000
AFIX   0
HKLF 4

REM  nitti1 in P2(1)/c
REM R1 =  0.0289 for    2439 Fo > 4sig(Fo)  and  0.0402 for all    2979 data
REM    110 parameters refined using      0 restraints

END

WGHT      0.0293      0.5245

REM Highest difference peak  0.567,  deepest hole -0.481,  1-sigma level  0.062
Q1    1   0.6699  0.4798  0.3741  11.00000  0.05    0.57
Q2    1   0.6935  0.4599  0.3901  11.00000  0.05    0.51
Q3    1   0.6284  0.7837  0.4315  11.00000  0.05    0.50
Q4    1   0.7507  0.5465  0.4357  11.00000  0.05    0.49
Q5    1   0.7636  0.8601  0.5097  11.00000  0.05    0.49
Q6    1   0.7925  0.5190  0.3753  11.00000  0.05    0.38
Q7    1   0.4291  0.5158  0.4954  11.00000  0.05    0.37
Q8    1   0.8254  0.4776  0.4122  11.00000  0.05    0.37
Q9    1   0.3942  0.5415  0.4132  11.00000  0.05    0.34
Q10   1   0.3309  0.7983  0.5352  11.00000  0.05    0.33
Q11   1   0.4721  0.8767  0.6094  11.00000  0.05    0.33
Q12   1   0.6683  0.9005  0.5905  11.00000  0.05    0.31
Q13   1   0.2947  0.6405  0.3710  11.00000  0.05    0.28
Q14   1   0.2376  0.5191  0.2854  11.00000  0.05    0.27
Q15   1   0.4617  0.7581  0.5482  11.00000  0.05    0.27
Q16   1   0.6809  0.5021  0.4506  11.00000  0.05    0.26
Q17   1   0.7012  0.9382  0.5170  11.00000  0.05    0.24
Q18   1   0.0232  0.6823  0.2613  11.00000  0.05    0.24
Q19   1   0.6813  0.8776  0.4079  11.00000  0.05    0.24
Q20   1   0.6003  0.5192  0.4030  11.00000  0.05    0.22
;
_shelx_res_checksum              47719
loop_
_space_group_symop_operation_xyz
'x, y, z'
'-x, y+1/2, -z+1/2'
'-x, -y, -z'
'x, -y-1/2, z-1/2'
loop_
_atom_site_label
_atom_site_type_symbol
_atom_site_fract_x
_atom_site_fract_y
_atom_site_fract_z
_atom_site_U_iso_or_equiv
_atom_site_adp_type
_atom_site_occupancy
_atom_site_site_symmetry_order
_atom_site_calc_flag
_atom_site_refinement_flags_posn
_atom_site_refinement_flags_adp
_atom_site_refinement_flags_occupancy
_atom_site_disorder_assembly
_atom_site_disorder_group
Br1 Br 0.74852(3) 0.51258(2) 0.39434(2) 0.04186(7) Uani 1 1 d . . . . .
O1 O 0.1759(3) 0.50253(12) 0.31722(13) 0.0482(4) Uani 1 1 d . . . . .
N1 N 0.2965(2) 0.68529(13) 0.35916(12) 0.0367(3) Uani 1 1 d . . . . .
C1 C 0.4995(3) 0.52165(15) 0.45074(14) 0.0325(3) Uani 1 1 d . . . . .
C2 C 0.3073(3) 0.56919(16) 0.37045(14) 0.0337(3) Uani 1 1 d . . . . .
C3 C 0.1199(3) 0.7360(2) 0.27835(19) 0.0530(5) Uani 1 1 d . . . . .
H3A H 0.093524 0.690169 0.212505 0.080 Uiso 1 1 calc R U . . .
H3B H 0.156005 0.813808 0.261710 0.080 Uiso 1 1 calc R U . . .
H3C H -0.005556 0.737326 0.307845 0.080 Uiso 1 1 calc R U . . .
C4 C 0.4453(3) 0.76259(15) 0.42636(16) 0.0384(4) Uani 1 1 d . . . . .
C5 C 0.5909(4) 0.8223(2) 0.3803(2) 0.0616(6) Uani 1 1 d . . . . .
H5 H 0.593549 0.811891 0.306728 0.074 Uiso 1 1 calc R U . . .
C6 C 0.7328(4) 0.8981(3) 0.4457(3) 0.0832(10) Uani 1 1 d . . . . .
H6 H 0.830664 0.938991 0.415678 0.100 Uiso 1 1 calc R U . . .
C7 C 0.7295(5) 0.9130(2) 0.5543(3) 0.0819(10) Uani 1 1 d . . . . .
H7 H 0.827155 0.962359 0.598139 0.098 Uiso 1 1 calc R U . . .
C8 C 0.5848(6) 0.8560(2) 0.5974(2) 0.0835(10) Uani 1 1 d . . . . .
H8 H 0.581773 0.867161 0.670834 0.100 Uiso 1 1 calc R U . . .
C9 C 0.4397(5) 0.7805(2) 0.53327(19) 0.0614(6) Uani 1 1 d . . . . .
H9 H 0.338978 0.742442 0.563518 0.074 Uiso 1 1 calc R U . . .
loop_
_atom_site_aniso_label
_atom_site_aniso_U_11
_atom_site_aniso_U_22
_atom_site_aniso_U_33
_atom_site_aniso_U_23
_atom_site_aniso_U_13
_atom_site_aniso_U_12
Br1 0.03494(10) 0.05238(13) 0.03982(11) 0.00747(8) 0.01164(7) 0.00402(8)
O1 0.0441(8) 0.0462(8) 0.0475(8) -0.0036(6) -0.0045(6) -0.0078(6)
N1 0.0341(7) 0.0363(8) 0.0354(7) 0.0038(6) -0.0012(6) 0.0021(6)
C1 0.0299(7) 0.0327(8) 0.0340(8) -0.0005(6) 0.0057(6) 0.0004(6)
C2 0.0320(8) 0.0382(9) 0.0297(8) 0.0015(6) 0.0044(6) 0.0003(7)
C3 0.0423(10) 0.0531(12) 0.0558(13) 0.0143(10) -0.0059(9) 0.0052(9)
C4 0.0389(9) 0.0294(8) 0.0432(10) -0.0002(7) 0.0010(7) 0.0039(7)
C5 0.0546(13) 0.0571(14) 0.0780(17) -0.0167(12) 0.0254(12) -0.0102(11)
C6 0.0535(15) 0.0652(17) 0.132(3) -0.0251(19) 0.0238(17) -0.0189(13)
C7 0.0768(19) 0.0445(13) 0.101(2) -0.0107(15) -0.0298(17) -0.0042(13)
C8 0.140(3) 0.0520(14) 0.0427(13) -0.0024(11) -0.0133(15) -0.0134(17)
C9 0.0941(19) 0.0464(12) 0.0417(11) 0.0021(9) 0.0110(12) -0.0158(12)
loop_
_atom_type_symbol
_atom_type_description
_atom_type_scat_dispersion_real
_atom_type_scat_dispersion_imag
_atom_type_scat_source
C C 0.0033 0.0016 'International Tables Vol C Tables 4.2.6.8 and 6.1.1.4'
H H 0.0000 0.0000 'International Tables Vol C Tables 4.2.6.8 and 6.1.1.4'
N N 0.0061 0.0033 'International Tables Vol C Tables 4.2.6.8 and 6.1.1.4'
O O 0.0106 0.0060 'International Tables Vol C Tables 4.2.6.8 and 6.1.1.4'
Br Br -0.2901 2.4595 'International Tables Vol C Tables 4.2.6.8 and 6.1.1.4'
loop_
_geom_angle_atom_site_label_1
_geom_angle_atom_site_label_2
_geom_angle_atom_site_label_3
_geom_angle
_geom_angle_site_symmetry_1
_geom_angle_site_symmetry_3
_geom_angle_publ_flag
C2 N1 C4 122.94(14) . . ?
C2 N1 C3 118.89(16) . . ?
C4 N1 C3 118.11(16) . . ?
C1 C1 C2 125.8(2) 3_666 . ?
C1 C1 Br1 119.67(18) 3_666 . ?
C2 C1 Br1 114.21(12) . . ?
O1 C2 N1 123.62(17) . . ?
O1 C2 C1 119.90(16) . . ?
N1 C2 C1 116.43(15) . . ?
N1 C3 H3A 109.5 . . ?
N1 C3 H3B 109.5 . . ?
H3A C3 H3B 109.5 . . ?
N1 C3 H3C 109.5 . . ?
H3A C3 H3C 109.5 . . ?
H3B C3 H3C 109.5 . . ?
C9 C4 C5 120.0(2) . . ?
C9 C4 N1 120.6(2) . . ?
C5 C4 N1 119.38(19) . . ?
C4 C5 C6 119.0(3) . . ?
C4 C5 H5 120.5 . . ?
C6 C5 H5 120.5 . . ?
C7 C6 C5 120.5(3) . . ?
C7 C6 H6 119.8 . . ?
C5 C6 H6 119.8 . . ?
C8 C7 C6 119.9(3) . . ?
C8 C7 H7 120.0 . . ?
C6 C7 H7 120.0 . . ?
C7 C8 C9 120.7(3) . . ?
C7 C8 H8 119.7 . . ?
C9 C8 H8 119.7 . . ?
C4 C9 C8 119.9(3) . . ?
C4 C9 H9 120.0 . . ?
C8 C9 H9 120.0 . . ?
loop_
_geom_bond_atom_site_label_1
_geom_bond_atom_site_label_2
_geom_bond_distance
_geom_bond_site_symmetry_2
_geom_bond_publ_flag
Br1 C1 1.8925(18) . ?
O1 C2 1.224(2) . ?
N1 C2 1.345(2) . ?
N1 C4 1.434(2) . ?
N1 C3 1.464(2) . ?
C1 C1 1.326(4) 3_666 ?
C1 C2 1.512(2) . ?
C3 H3A 0.9600 . ?
C3 H3B 0.9600 . ?
C3 H3C 0.9600 . ?
C4 C9 1.359(3) . ?
C4 C5 1.387(3) . ?
C5 C6 1.390(4) . ?
C5 H5 0.9300 . ?
C6 C7 1.372(5) . ?
C6 H6 0.9300 . ?
C7 C8 1.346(5) . ?
C7 H7 0.9300 . ?
C8 C9 1.392(4) . ?
C8 H8 0.9300 . ?
C9 H9 0.9300 . ?
loop_
_geom_torsion_atom_site_label_1
_geom_torsion_atom_site_label_2
_geom_torsion_atom_site_label_3
_geom_torsion_atom_site_label_4
_geom_torsion
_geom_torsion_site_symmetry_1
_geom_torsion_site_symmetry_2
_geom_torsion_site_symmetry_3
_geom_torsion_site_symmetry_4
_geom_torsion_publ_flag
C4 N1 C2 O1 176.47(19) . . . . ?
C3 N1 C2 O1 -0.6(3) . . . . ?
C4 N1 C2 C1 -6.1(3) . . . . ?
C3 N1 C2 C1 176.79(17) . . . . ?
C1 C1 C2 O1 -76.5(3) 3_666 . . . ?
Br1 C1 C2 O1 97.26(19) . . . . ?
C1 C1 C2 N1 106.0(3) 3_666 . . . ?
Br1 C1 C2 N1 -80.24(18) . . . . ?
C2 N1 C4 C9 -72.6(3) . . . . ?
C3 N1 C4 C9 104.5(2) . . . . ?
C2 N1 C4 C5 109.7(2) . . . . ?
C3 N1 C4 C5 -73.2(3) . . . . ?
C9 C4 C5 C6 1.5(4) . . . . ?
N1 C4 C5 C6 179.3(2) . . . . ?
C4 C5 C6 C7 0.4(4) . . . . ?
C5 C6 C7 C8 -1.6(5) . . . . ?
C6 C7 C8 C9 0.9(5) . . . . ?
C5 C4 C9 C8 -2.1(4) . . . . ?
N1 C4 C9 C8 -179.9(2) . . . . ?
C7 C8 C9 C4 0.9(4) . . . . ?
