#------------------------------------------------------------------------------
#$Date: 2020-09-10 04:43:01 +0300 (Thu, 10 Sep 2020) $
#$Revision: 256291 $
#$URL: file:///home/coder/svn-repositories/cod/cif/7/24/12/7241201.cif $
#------------------------------------------------------------------------------
#
# This file is available in the Crystallography Open Database (COD),
# http://www.crystallography.net/
#
# All data on this site have been placed in the public domain by the
# contributors.
#
data_7241201
loop_
_publ_author_name
'Rok, Magdalena'
'Moskwa, Marcin'
'Dopieralski, Przemyslaw'
'Medycki, Wojciech'
'Zamponi, Michaela'
'Bator, Grazyna'
_publ_section_title
;
 The influence of structure on the methyl group dynamics of the
 polymorphic complexes: 6,6'-dimethyl-2,2'-dipyridyl with halo derivatives
 of benzoquinone acids
;
_journal_name_full               CrystEngComm
_journal_paper_doi               10.1039/D0CE00973C
_journal_year                    2020
_chemical_formula_moiety         'C12 H13 N2, 0.5(C6 Br2 O4)'
_chemical_formula_sum            'C15 H13 Br N2 O2'
_chemical_formula_weight         333.18
_space_group_crystal_system      triclinic
_space_group_IT_number           2
_space_group_name_Hall           '-P 1'
_space_group_name_H-M_alt        'P -1'
_atom_sites_solution_hydrogens   mixed
_atom_sites_solution_primary     direct
_atom_sites_solution_secondary   difmap
_audit_creation_method           SHELXL-2014/7
_audit_update_record
;
2020-06-15 deposited with the CCDC.	2020-09-09 downloaded from the CCDC.
;
_cell_angle_alpha                94.41(4)
_cell_angle_beta                 106.41(5)
_cell_angle_gamma                110.28(3)
_cell_formula_units_Z            2
_cell_length_a                   7.792(4)
_cell_length_b                   9.705(3)
_cell_length_c                   9.938(5)
_cell_measurement_reflns_used    2787
_cell_measurement_temperature    100(2)
_cell_measurement_theta_max      28.5940
_cell_measurement_theta_min      3.4340
_cell_volume                     663.3(6)
_computing_cell_refinement
;
CrysAlisPro, Agilent Technologies,
Version 1.171.37.35 (release 13-08-2014 CrysAlis171 .NET)
(compiled Aug 13 2014,18:06:01)
;
_computing_data_collection
;
CrysAlisPro, Agilent Technologies,
Version 1.171.37.35 (release 13-08-2014 CrysAlis171 .NET)
(compiled Aug 13 2014,18:06:01)
;
_computing_data_reduction
;
CrysAlisPro, Agilent Technologies,
Version 1.171.37.35 (release 13-08-2014 CrysAlis171 .NET)
(compiled Aug 13 2014,18:06:01)
;
_computing_structure_refinement  'SHELXL-2014/7 (Sheldrick, 2014)'
_computing_structure_solution    'SHELXS-2014/7 (Sheldrick, 2014)'
_diffrn_ambient_temperature      100(2)
_diffrn_detector_area_resol_mean 10.3456
_diffrn_measured_fraction_theta_full 0.983
_diffrn_measured_fraction_theta_max 0.983
_diffrn_measurement_device_type  'Xcalibur, Ruby'
_diffrn_measurement_method       '\w scans'
_diffrn_radiation_type           MoK\a
_diffrn_radiation_wavelength     0.71073
_diffrn_reflns_av_R_equivalents  0.0214
_diffrn_reflns_av_unetI/netI     0.0389
_diffrn_reflns_Laue_measured_fraction_full 0.983
_diffrn_reflns_Laue_measured_fraction_max 0.983
_diffrn_reflns_limit_h_max       9
_diffrn_reflns_limit_h_min       -9
_diffrn_reflns_limit_k_max       11
_diffrn_reflns_limit_k_min       -11
_diffrn_reflns_limit_l_max       11
_diffrn_reflns_limit_l_min       -11
_diffrn_reflns_number            3927
_diffrn_reflns_point_group_measured_fraction_full 0.983
_diffrn_reflns_point_group_measured_fraction_max 0.983
_diffrn_reflns_theta_full        25.496
_diffrn_reflns_theta_max         25.496
_diffrn_reflns_theta_min         2.831
_diffrn_source                   'Enhance (Mo) X-ray Source'
_exptl_absorpt_coefficient_mu    3.101
_exptl_absorpt_correction_T_max  0.761
_exptl_absorpt_correction_T_min  0.641
_exptl_absorpt_correction_type   analytical
_exptl_absorpt_process_details
;
CrysAlisPro, Agilent Technologies,
Version 1.171.37.35 (release 13-08-2014 CrysAlis171 .NET)
(compiled Aug 13 2014,18:06:01)
Analytical numeric absorption correction using a multifaceted crystal
			model based on expressions derived by R.C. Clark & J.S. Reid.
(Clark, R. C. & Reid, J. S. (1995). Acta Cryst. A51, 887-897)
Empirical absorption correction using spherical harmonics,
 implemented in SCALE3 ABSPACK scaling algorithm.
;
_exptl_crystal_colour            red
_exptl_crystal_density_diffrn    1.668
_exptl_crystal_density_meas      ?
_exptl_crystal_description       block
_exptl_crystal_F_000             336
_exptl_crystal_size_max          0.250
_exptl_crystal_size_mid          0.140
_exptl_crystal_size_min          0.130
_refine_diff_density_max         0.527
_refine_diff_density_min         -0.368
_refine_diff_density_rms         0.070
_refine_ls_extinction_method     none
_refine_ls_goodness_of_fit_ref   1.047
_refine_ls_hydrogen_treatment    mixed
_refine_ls_matrix_type           full
_refine_ls_number_parameters     186
_refine_ls_number_reflns         2436
_refine_ls_number_restraints     0
_refine_ls_restrained_S_all      1.047
_refine_ls_R_factor_all          0.0295
_refine_ls_R_factor_gt           0.0259
_refine_ls_shift/su_max          0.002
_refine_ls_shift/su_mean         0.000
_refine_ls_structure_factor_coef Fsqd
_refine_ls_weighting_details
'w=1/[\s^2^(Fo^2^)+(0.0148P)^2^+0.4655P] where P=(Fo^2^+2Fc^2^)/3'
_refine_ls_weighting_scheme      calc
_refine_ls_wR_factor_gt          0.0544
_refine_ls_wR_factor_ref         0.0556
_reflns_Friedel_coverage         0.000
_reflns_number_gt                2252
_reflns_number_total             2436
_reflns_threshold_expression     'I > 2\s(I)'
_cod_data_source_file            d0ce00973c2.cif
_cod_data_source_block           2a
_cod_depositor_comments
;
The following automatic conversions were performed:

data item '_exptl_crystal_density_meas' value 'not measured' was
changed to '?' -- the value is perceived as not measured.

Automatic conversion script
Id: cif_fix_values 7556 2019-12-06 15:28:31Z antanas 
;
_cod_original_cell_volume        663(3)
_cod_database_code               7241201
_shelx_shelxl_version_number     2014/7
_shelx_space_group_comment
;
The symmetry employed for this shelxl refinement is uniquely defined
by the following loop, which should always be used as a source of
symmetry information in preference to the above space-group names.
They are only intended as comments.
;
_shelx_estimated_absorpt_t_min   0.511
_shelx_estimated_absorpt_t_max   0.689
_shelx_res_file
;

    2a.res created by SHELXL-2014/7


TITL 2.res in P-1
CELL  0.71073   7.792   9.705   9.938   94.41  106.41  110.28
ZERR    2.000   0.004   0.003   0.005    0.04    0.05    0.03
LATT  1
SFAC C H N O BR
UNIT 30 26 4 4 2
L.S. 10
BOND $H
LIST 6
FMAP 2
PLAN 40
ACTA 51
HTAB
EQIV $1 -x+1, -y, -z+2
HTAB N11 O2_$1
HTAB N11 O3
EQIV $2 x-1, y, z
HTAB C17 Br1_$2
HTAB C23 O2_$1
EQIV $3 x, y, z-1
HTAB C25 Br1_$3
EQIV $4 -x+1, -y+1, -z+1
HTAB C27 O3_$4
EQIV $5 x-1, y, z-1
HTAB C13 Br1_$5
HTAB C15 Br1_$2
HTAB C15 O3_$2
MPLA 6 N11 C12 C13 C14 C15 C16 C17
MPLA 6 N21 C22 C23 C24 C25 C26 C27
MPLA 6 c1 c2 c3 c1_$1 c2_$1 c3_$1 O2 O3 Br1 O2_$1 O3_$1 Br1_$1
MPLA 6 N11 C12 C13 C14 C15 C16
OMIT 0 51
SIZE 0.13 0.14 0.25
TEMP -173
WGHT    0.014800    0.465500
FVAR       4.47250
BR1   5    0.821636    0.353402    1.110798    11.00000    0.01472    0.01174 =
         0.01381    0.00293    0.00432    0.00315
C1    1    0.641742    0.150931    1.045374    11.00000    0.01222    0.00905 =
         0.01194    0.00186    0.00509    0.00153
C2    1    0.661696    0.047342    1.134792    11.00000    0.01191    0.01237 =
         0.01205    0.00140    0.00638    0.00633
O2    4    0.791201    0.074442    1.251066    11.00000    0.01685    0.01833 =
         0.01122    0.00407   -0.00043    0.00705
C3    1    0.491471    0.116104    0.915503    11.00000    0.01095    0.01421 =
         0.01297    0.00399    0.00802    0.00605
O3    4    0.467827    0.205263    0.834676    11.00000    0.01513    0.01591 =
         0.01485    0.00909    0.00331    0.00658
N21   3    0.258667    0.347876    0.399838    11.00000    0.01278    0.01484 =
         0.01034    0.00496    0.00329    0.00593
C22   1    0.222501    0.242617    0.479356    11.00000    0.01152    0.01549 =
         0.00808    0.00143    0.00140    0.00503
C23   1    0.285794    0.124906    0.478247    11.00000    0.01457    0.01300 =
         0.01151    0.00351    0.00258    0.00477
AFIX  43
H23   2    0.258789    0.053362    0.537340    11.00000   -1.20000
AFIX   0
C24   1    0.389461    0.116152    0.387830    11.00000    0.01657    0.01547 =
         0.01688    0.00269    0.00402    0.00878
AFIX  43
H24   2    0.434916    0.037422    0.383372    11.00000   -1.20000
AFIX   0
C25   1    0.426432    0.222927    0.303949    11.00000    0.01565    0.02151 =
         0.01412    0.00466    0.00748    0.00895
AFIX  43
H25   2    0.496619    0.217735    0.240874    11.00000   -1.20000
AFIX   0
C26   1    0.359764    0.338223    0.312811    11.00000    0.01278    0.01502 =
         0.01071    0.00136    0.00253    0.00320
C27   1    0.396841    0.458081    0.224941    11.00000    0.02045    0.02012 =
         0.01870    0.00876    0.01117    0.00752
AFIX 137
H27A  2    0.273729    0.448978    0.155710    11.00000   -1.50000
H27B  2    0.483306    0.446495    0.173923    11.00000   -1.50000
H27C  2    0.457632    0.556820    0.287973    11.00000   -1.50000
AFIX   0
N11   3    0.124537    0.208995    0.691620    11.00000    0.01133    0.01398 =
         0.01152    0.00392    0.00424    0.00657
H11   2    0.220712    0.180629    0.723803    11.00000   -1.20000
C12   1    0.102247    0.258481    0.566923    11.00000    0.01240    0.00838 =
         0.01007    0.00056    0.00213    0.00065
C13   1   -0.035836    0.319996    0.523184    11.00000    0.01509    0.01055 =
         0.01106    0.00333    0.00212    0.00477
AFIX  43
H13   2   -0.055528    0.354221    0.435206    11.00000   -1.20000
AFIX   0
C14   1   -0.144366    0.330973    0.608835    11.00000    0.01224    0.01376 =
         0.01503   -0.00004    0.00161    0.00602
AFIX  43
H14   2   -0.235989    0.376183    0.581210    11.00000   -1.20000
AFIX   0
C15   1   -0.120551    0.276490    0.734822    11.00000    0.01571    0.01334 =
         0.01524    0.00184    0.00729    0.00550
AFIX  43
H15   2   -0.197509    0.281820    0.792535    11.00000   -1.20000
AFIX   0
C16   1    0.017397    0.213934    0.775678    11.00000    0.01644    0.01230 =
         0.01341    0.00198    0.00710    0.00447
C17   1    0.052828    0.148945    0.907768    11.00000    0.02881    0.02679 =
         0.01793    0.01141    0.01339    0.01599
AFIX 137
H17A  2    0.015158    0.040683    0.880795    11.00000   -1.50000
H17B  2   -0.024215    0.168242    0.964089    11.00000   -1.50000
H17C  2    0.190736    0.195362    0.964901    11.00000   -1.50000
AFIX   0
HKLF 4

REM  2.res in P-1
REM R1 =  0.0259 for    2252 Fo > 4sig(Fo)  and  0.0295 for all    2436 data
REM    186 parameters refined using      0 restraints

END

WGHT      0.0147      0.4685

REM Instructions for potential hydrogen bonds
HTAB C23 O2_$1
HTAB C25 Br1_$3
HTAB C27 O3_$4
HTAB N11 O2_$1
HTAB N11 O3
HTAB C13 Br1_$5
HTAB C15 Br1_$2
HTAB C15 O3_$2
HTAB C17 Br1_$2

REM Highest difference peak  0.527,  deepest hole -0.368,  1-sigma level  0.070
Q1    1   0.7219  0.2374  1.0669  11.00000  0.05    0.53
Q2    1   0.8621  0.2944  1.0352  11.00000  0.05    0.39
Q3    1   0.4185  0.0367  0.8905  11.00000  0.05    0.38
Q4    1   0.9134  0.4382  1.1862  11.00000  0.05    0.37
Q5    1   0.7863  0.4121  1.1825  11.00000  0.05    0.34
Q6    1   0.0055  0.2560  0.5367  11.00000  0.05    0.34
Q7    1   0.7906  0.4554  1.0989  11.00000  0.05    0.32
Q8    1   0.3934  0.2746  0.3153  11.00000  0.05    0.32
Q9    1   0.8484  0.4203  1.0298  11.00000  0.05    0.32
Q10   1  -0.0818  0.3443  0.6870  11.00000  0.05    0.30
Q11   1   0.2509  0.2992  0.4445  11.00000  0.05    0.30
Q12   1   0.5720  0.1406  0.9808  11.00000  0.05    0.28
Q13   1   0.2889  0.2034  0.4961  11.00000  0.05    0.28
Q14   1  -0.0852  0.2084  0.7252  11.00000  0.05    0.26
Q15   1   0.3338  0.3604  0.3768  11.00000  0.05    0.25
Q16   1   0.0021  0.2926  0.7797  11.00000  0.05    0.25
Q17   1   0.4116  0.1842  0.3579  11.00000  0.05    0.25
Q18   1   0.2456  0.4192  0.4338  11.00000  0.05    0.24
Q19   1   0.1087  0.2407  0.6215  11.00000  0.05    0.24
Q20   1   0.1751  0.2541  0.5274  11.00000  0.05    0.24
Q21   1   0.2802  0.4547  0.0942  11.00000  0.05    0.23
Q22   1  -0.0710  0.5032  0.7637  11.00000  0.05    0.23
Q23   1   0.3462  0.3840  0.2595  11.00000  0.05    0.23
Q24   1   0.6968  0.0935  1.0734  11.00000  0.05    0.22
Q25   1   0.6248  0.1176  1.0992  11.00000  0.05    0.22
Q26   1   0.0262  0.1961  0.8489  11.00000  0.05    0.22
Q27   1   0.0008  0.4963  0.4000  11.00000  0.05    0.22
Q28   1   0.4007  0.1968  0.8732  11.00000  0.05    0.22
Q29   1   0.8596  0.1611  1.1878  11.00000  0.05    0.21
Q30   1   0.5533  0.5680  0.2806  11.00000  0.05    0.21
Q31   1   0.5766  0.2712  0.8861  11.00000  0.05    0.21
Q32   1   0.4555  0.1581  0.9135  11.00000  0.05    0.21
Q33   1   0.5550  0.2346  1.0833  11.00000  0.05    0.21
Q34   1  -0.1548  0.3746  0.6000  11.00000  0.05    0.21
Q35   1   0.9143  0.2997  1.1168  11.00000  0.05    0.20
Q36   1   0.7021  0.5211  0.2974  11.00000  0.05    0.20
Q37   1   0.5640  0.6754  0.4026  11.00000  0.05    0.20
Q38   1  -0.1269  0.3568  0.8233  11.00000  0.05    0.20
Q39   1   0.5078  0.1565  0.8563  11.00000  0.05    0.20
Q40   1   0.2543  0.4955  0.1970  11.00000  0.05    0.20
;
_shelx_res_checksum              43773
loop_
_space_group_symop_operation_xyz
'x, y, z'
'-x, -y, -z'
loop_
_atom_site_label
_atom_site_type_symbol
_atom_site_fract_x
_atom_site_fract_y
_atom_site_fract_z
_atom_site_U_iso_or_equiv
_atom_site_adp_type
_atom_site_occupancy
_atom_site_site_symmetry_order
_atom_site_calc_flag
_atom_site_refinement_flags_posn
_atom_site_refinement_flags_adp
_atom_site_refinement_flags_occupancy
_atom_site_disorder_assembly
_atom_site_disorder_group
Br1 Br 0.82164(3) 0.35340(3) 1.11080(2) 0.01404(8) Uani 1 1 d . . . . .
C1 C 0.6417(3) 0.1509(3) 1.0454(2) 0.0116(5) Uani 1 1 d . . . . .
C2 C 0.6617(3) 0.0473(3) 1.1348(2) 0.0112(5) Uani 1 1 d . . . . .
O2 O 0.7912(2) 0.07444(18) 1.25107(17) 0.0165(4) Uani 1 1 d . . . . .
C3 C 0.4915(3) 0.1161(3) 0.9155(2) 0.0114(5) Uani 1 1 d . . . . .
O3 O 0.4678(2) 0.20526(18) 0.83468(17) 0.0151(4) Uani 1 1 d . . . . .
N21 N 0.2587(3) 0.3479(2) 0.39984(19) 0.0125(4) Uani 1 1 d . . . . .
C22 C 0.2225(3) 0.2426(3) 0.4794(2) 0.0122(5) Uani 1 1 d . . . . .
C23 C 0.2858(3) 0.1249(3) 0.4782(2) 0.0135(5) Uani 1 1 d . . . . .
H23 H 0.2588 0.0534 0.5373 0.016 Uiso 1 1 calc R U . . .
C24 C 0.3895(3) 0.1162(3) 0.3878(2) 0.0159(5) Uani 1 1 d . . . . .
H24 H 0.4349 0.0374 0.3834 0.019 Uiso 1 1 calc R U . . .
C25 C 0.4264(3) 0.2229(3) 0.3039(3) 0.0159(5) Uani 1 1 d . . . . .
H25 H 0.4966 0.2177 0.2409 0.019 Uiso 1 1 calc R U . . .
C26 C 0.3598(3) 0.3382(3) 0.3128(2) 0.0138(5) Uani 1 1 d . . . . .
C27 C 0.3968(4) 0.4581(3) 0.2249(3) 0.0185(5) Uani 1 1 d . . . . .
H27A H 0.2737 0.4490 0.1557 0.028 Uiso 1 1 calc R U . . .
H27B H 0.4833 0.4465 0.1739 0.028 Uiso 1 1 calc R U . . .
H27C H 0.4576 0.5568 0.2880 0.028 Uiso 1 1 calc R U . . .
N11 N 0.1245(3) 0.2090(2) 0.6916(2) 0.0116(4) Uani 1 1 d . . . . .
H11 H 0.221(4) 0.181(3) 0.724(3) 0.014 Uiso 1 1 d . U . . .
C12 C 0.1022(3) 0.2585(2) 0.5669(2) 0.0117(5) Uani 1 1 d . . . . .
C13 C -0.0358(3) 0.3200(3) 0.5232(2) 0.0127(5) Uani 1 1 d . . . . .
H13 H -0.0555 0.3542 0.4352 0.015 Uiso 1 1 calc R U . . .
C14 C -0.1444(3) 0.3310(3) 0.6088(2) 0.0142(5) Uani 1 1 d . . . . .
H14 H -0.2360 0.3762 0.5812 0.017 Uiso 1 1 calc R U . . .
C15 C -0.1206(3) 0.2765(3) 0.7348(2) 0.0144(5) Uani 1 1 d . . . . .
H15 H -0.1975 0.2818 0.7925 0.017 Uiso 1 1 calc R U . . .
C16 C 0.0174(3) 0.2139(3) 0.7757(2) 0.0139(5) Uani 1 1 d . . . . .
C17 C 0.0528(4) 0.1489(3) 0.9078(3) 0.0213(6) Uani 1 1 d . . . . .
H17A H 0.0152 0.0407 0.8808 0.032 Uiso 1 1 calc R U . . .
H17B H -0.0242 0.1682 0.9641 0.032 Uiso 1 1 calc R U . . .
H17C H 0.1907 0.1954 0.9649 0.032 Uiso 1 1 calc R U . . .
loop_
_atom_site_aniso_label
_atom_site_aniso_U_11
_atom_site_aniso_U_22
_atom_site_aniso_U_33
_atom_site_aniso_U_23
_atom_site_aniso_U_13
_atom_site_aniso_U_12
Br1 0.01472(13) 0.01174(13) 0.01381(13) 0.00293(9) 0.00432(10) 0.00315(10)
C1 0.0122(12) 0.0090(11) 0.0119(12) 0.0019(9) 0.0051(10) 0.0015(9)
C2 0.0119(11) 0.0124(12) 0.0121(11) 0.0014(9) 0.0064(10) 0.0063(10)
O2 0.0169(9) 0.0183(9) 0.0112(8) 0.0041(7) -0.0004(7) 0.0070(8)
C3 0.0109(11) 0.0142(12) 0.0130(12) 0.0040(10) 0.0080(10) 0.0060(10)
O3 0.0151(8) 0.0159(9) 0.0149(8) 0.0091(7) 0.0033(7) 0.0066(7)
N21 0.0128(10) 0.0148(10) 0.0103(10) 0.0050(8) 0.0033(8) 0.0059(8)
C22 0.0115(11) 0.0155(12) 0.0081(11) 0.0014(10) 0.0014(9) 0.0050(10)
C23 0.0146(12) 0.0130(12) 0.0115(11) 0.0035(10) 0.0026(10) 0.0048(10)
C24 0.0166(13) 0.0155(12) 0.0169(13) 0.0027(10) 0.0040(11) 0.0088(11)
C25 0.0157(12) 0.0215(14) 0.0141(12) 0.0047(11) 0.0075(10) 0.0089(11)
C26 0.0128(12) 0.0150(12) 0.0107(11) 0.0014(10) 0.0025(10) 0.0032(10)
C27 0.0205(13) 0.0201(13) 0.0187(13) 0.0088(11) 0.0112(11) 0.0075(11)
N11 0.0113(10) 0.0140(11) 0.0115(10) 0.0039(8) 0.0042(8) 0.0066(9)
C12 0.0124(12) 0.0084(11) 0.0101(11) 0.0006(9) 0.0021(10) 0.0007(10)
C13 0.0151(12) 0.0106(12) 0.0111(11) 0.0033(10) 0.0021(10) 0.0048(10)
C14 0.0122(12) 0.0138(12) 0.0150(12) 0.0000(10) 0.0016(10) 0.0060(10)
C15 0.0157(12) 0.0133(12) 0.0152(12) 0.0018(10) 0.0073(10) 0.0055(10)
C16 0.0164(12) 0.0123(12) 0.0134(12) 0.0020(10) 0.0071(10) 0.0045(10)
C17 0.0288(15) 0.0268(15) 0.0179(13) 0.0114(12) 0.0134(12) 0.0160(12)
loop_
_atom_type_symbol
_atom_type_description
_atom_type_scat_dispersion_real
_atom_type_scat_dispersion_imag
_atom_type_scat_source
C C 0.0033 0.0016 'International Tables Vol C Tables 4.2.6.8 and 6.1.1.4'
H H 0.0000 0.0000 'International Tables Vol C Tables 4.2.6.8 and 6.1.1.4'
N N 0.0061 0.0033 'International Tables Vol C Tables 4.2.6.8 and 6.1.1.4'
O O 0.0106 0.0060 'International Tables Vol C Tables 4.2.6.8 and 6.1.1.4'
Br Br -0.2901 2.4595 'International Tables Vol C Tables 4.2.6.8 and 6.1.1.4'
loop_
_geom_angle_atom_site_label_1
_geom_angle_atom_site_label_2
_geom_angle_atom_site_label_3
_geom_angle
_geom_angle_site_symmetry_1
_geom_angle_site_symmetry_3
_geom_angle_publ_flag
C3 C1 C2 124.0(2) . . ?
C3 C1 Br1 117.86(18) . . ?
C2 C1 Br1 117.99(17) . . ?
O2 C2 C1 125.9(2) . . ?
O2 C2 C3 116.3(2) . 2_657 ?
C1 C2 C3 117.9(2) . 2_657 ?
O3 C3 C1 125.8(2) . . ?
O3 C3 C2 116.1(2) . 2_657 ?
C1 C3 C2 118.1(2) . 2_657 ?
C22 N21 C26 118.1(2) . . ?
N21 C22 C23 123.8(2) . . ?
N21 C22 C12 114.2(2) . . ?
C23 C22 C12 121.9(2) . . ?
C24 C23 C22 117.5(2) . . ?
C24 C23 H23 121.3 . . ?
C22 C23 H23 121.3 . . ?
C23 C24 C25 119.5(2) . . ?
C23 C24 H24 120.3 . . ?
C25 C24 H24 120.3 . . ?
C24 C25 C26 119.4(2) . . ?
C24 C25 H25 120.3 . . ?
C26 C25 H25 120.3 . . ?
N21 C26 C25 121.7(2) . . ?
N21 C26 C27 116.5(2) . . ?
C25 C26 C27 121.7(2) . . ?
C26 C27 H27A 109.5 . . ?
C26 C27 H27B 109.5 . . ?
H27A C27 H27B 109.5 . . ?
C26 C27 H27C 109.5 . . ?
H27A C27 H27C 109.5 . . ?
H27B C27 H27C 109.5 . . ?
C16 N11 C12 123.5(2) . . ?
C16 N11 H11 117.9(17) . . ?
C12 N11 H11 118.4(17) . . ?
N11 C12 C13 118.8(2) . . ?
N11 C12 C22 119.3(2) . . ?
C13 C12 C22 121.9(2) . . ?
C14 C13 C12 119.3(2) . . ?
C14 C13 H13 120.3 . . ?
C12 C13 H13 120.3 . . ?
C13 C14 C15 120.4(2) . . ?
C13 C14 H14 119.8 . . ?
C15 C14 H14 119.8 . . ?
C14 C15 C16 119.2(2) . . ?
C14 C15 H15 120.4 . . ?
C16 C15 H15 120.4 . . ?
N11 C16 C15 118.8(2) . . ?
N11 C16 C17 117.4(2) . . ?
C15 C16 C17 123.8(2) . . ?
C16 C17 H17A 109.5 . . ?
C16 C17 H17B 109.5 . . ?
H17A C17 H17B 109.5 . . ?
C16 C17 H17C 109.5 . . ?
H17A C17 H17C 109.5 . . ?
H17B C17 H17C 109.5 . . ?
loop_
_geom_bond_atom_site_label_1
_geom_bond_atom_site_label_2
_geom_bond_distance
_geom_bond_site_symmetry_2
_geom_bond_publ_flag
Br1 C1 1.905(3) . ?
C1 C3 1.398(3) . ?
C1 C2 1.411(3) . ?
C2 O2 1.238(3) . ?
C2 C3 1.555(3) 2_657 ?
C3 O3 1.250(3) . ?
C3 C2 1.555(3) 2_657 ?
N21 C22 1.341(3) . ?
N21 C26 1.342(3) . ?
C22 C23 1.393(3) . ?
C22 C12 1.483(3) . ?
C23 C24 1.383(3) . ?
C23 H23 0.9500 . ?
C24 C25 1.383(3) . ?
C24 H24 0.9500 . ?
C25 C26 1.394(3) . ?
C25 H25 0.9500 . ?
C26 C27 1.505(3) . ?
C27 H27A 0.9800 . ?
C27 H27B 0.9800 . ?
C27 H27C 0.9800 . ?
N11 C16 1.346(3) . ?
N11 C12 1.351(3) . ?
N11 H11 0.87(3) . ?
C12 C13 1.387(3) . ?
C13 C14 1.381(3) . ?
C13 H13 0.9500 . ?
C14 C15 1.386(3) . ?
C14 H14 0.9500 . ?
C15 C16 1.390(3) . ?
C15 H15 0.9500 . ?
C16 C17 1.497(3) . ?
C17 H17A 0.9800 . ?
C17 H17B 0.9800 . ?
C17 H17C 0.9800 . ?
loop_
_geom_hbond_atom_site_label_D
_geom_hbond_atom_site_label_H
_geom_hbond_atom_site_label_A
_geom_hbond_distance_DH
_geom_hbond_distance_HA
_geom_hbond_distance_DA
_geom_hbond_angle_DHA
_geom_hbond_site_symmetry_A
N11 H11 O2 0.87(3) 2.48(3) 3.099(3) 129(2) 2_657
N11 H11 O3 0.87(3) 1.85(3) 2.665(3) 155(2) .
C17 H17B Br1 0.98 2.98 3.895(3) 155.8 1_455
C23 H23 O2 0.95 2.58 3.500(3) 163.9 2_657
C25 H25 Br1 0.95 3.10 3.973(3) 153.2 1_554
C27 H27C O3 0.98 2.66 3.225(3) 117.2 2_666
C13 H13 Br1 0.95 3.09 4.002(3) 161.1 1_454
C15 H15 Br1 0.95 3.14 3.934(3) 142.7 1_455
C15 H15 O3 0.95 2.62 3.481(3) 151.4 1_455
