#------------------------------------------------------------------------------
#$Date: 2021-09-06 13:22:59 +0300 (Mon, 06 Sep 2021) $
#$Revision: 268643 $
#$URL: file:///home/coder/svn-repositories/cod/cif/7/24/29/7242958.cif $
#------------------------------------------------------------------------------
#
# This file is available in the Crystallography Open Database (COD),
# http://www.crystallography.net/
#
# All data on this site have been placed in the public domain by the
# contributors.
#
data_7242958
loop_
_publ_author_name
'Risti\'c, Predrag'
'Filipovi\'c, Nenad'
'Blagojevi\'c, Vladimir'
'\'Cirkovi\'c, Jovana'
'Holl\'o, Berta Barta'
'\/Doki\'c, Veljko R.'
'Donnard, Morgan'
'Gulea, Mihaela'
'Marjanovi\'c, Ivana'
'Klisuri\'c, Olivera R.'
'Todorovi\'c, Tamara R.'
_publ_section_title
;
 2D and 3D silver-based coordination polymers with
 thiomorpholine-4-carbonitrile and piperazine-1,4-dicarbonitrile:
 structure, intermolecular interactions, photocatalysis, and thermal
 behavior
;
_journal_issue                   27
_journal_name_full               CrystEngComm
_journal_page_first              4799
_journal_page_last               4815
_journal_paper_doi               10.1039/D1CE00394A
_journal_volume                  23
_journal_year                    2021
_chemical_formula_moiety         '2(C5 H8 Ag0.50 N2 S), N O3'
_chemical_formula_sum            'C10 H16 Ag N5 O3 S2'
_chemical_formula_weight         426.27
_space_group_crystal_system      tetragonal
_space_group_IT_number           113
_space_group_name_Hall           'P -4 2ab'
_space_group_name_H-M_alt        'P -4 21 m'
_atom_sites_solution_hydrogens   geom
_audit_creation_method           SHELXL-2018/3
_audit_update_record
;
2021-03-07 deposited with the CCDC.	2021-06-02 downloaded from the CCDC.
;
_cell_angle_alpha                90
_cell_angle_beta                 90
_cell_angle_gamma                90
_cell_formula_units_Z            2
_cell_length_a                   13.1512(5)
_cell_length_b                   13.1512(5)
_cell_length_c                   4.3773(3)
_cell_measurement_reflns_used    535
_cell_measurement_temperature    293(2)
_cell_measurement_theta_max      28.2490
_cell_measurement_theta_min      4.8980
_cell_volume                     757.07(7)
_computing_cell_refinement
;
CrysAlisPro, Agilent Technologies,
Version 1.171.37.35 (release 13-08-2014 CrysAlis171 .NET)
(compiled Aug 13 2014,18:06:01)
;
_computing_data_collection
;
CrysAlisPro, Agilent Technologies,
Version 1.171.37.35 (release 13-08-2014 CrysAlis171 .NET)
(compiled Aug 13 2014,18:06:01)
;
_computing_data_reduction
;
CrysAlisPro, Agilent Technologies,
Version 1.171.37.35 (release 13-08-2014 CrysAlis171 .NET)
(compiled Aug 13 2014,18:06:01)
;
_computing_structure_refinement
'Sheldrick, G. M. (2015). Acta Cryst. C71, 3-8'
_computing_structure_solution
'Sheldrick, G. M. (2015). Acta Cryst. A71, 3-8'
_diffrn_ambient_temperature      293(2)
_diffrn_detector_area_resol_mean 16.3280
_diffrn_measured_fraction_theta_full 0.993
_diffrn_measured_fraction_theta_max 0.913
_diffrn_measurement_device_type  'Xcalibur, Sapphire3, Gemini'
_diffrn_measurement_method       '\w scans'
_diffrn_radiation_type           MoK\a
_diffrn_radiation_wavelength     0.71073
_diffrn_reflns_av_R_equivalents  0.0219
_diffrn_reflns_av_unetI/netI     0.0359
_diffrn_reflns_Laue_measured_fraction_full 0.993
_diffrn_reflns_Laue_measured_fraction_max 0.913
_diffrn_reflns_limit_h_max       16
_diffrn_reflns_limit_h_min       -17
_diffrn_reflns_limit_k_max       8
_diffrn_reflns_limit_k_min       -15
_diffrn_reflns_limit_l_max       5
_diffrn_reflns_limit_l_min       -3
_diffrn_reflns_number            1705
_diffrn_reflns_point_group_measured_fraction_full 0.908
_diffrn_reflns_point_group_measured_fraction_max 0.796
_diffrn_reflns_theta_full        25.000
_diffrn_reflns_theta_max         29.026
_diffrn_reflns_theta_min         3.464
_diffrn_source                   'Enhance (Mo) X-ray Source'
_exptl_absorpt_coefficient_mu    1.623
_exptl_absorpt_correction_T_max  0.963
_exptl_absorpt_correction_T_min  0.858
_exptl_absorpt_correction_type   analytical
_exptl_absorpt_process_details
;
CrysAlisPro, Agilent Technologies,
Version 1.171.37.35 (release 13-08-2014 CrysAlis171 .NET)
(compiled Aug 13 2014,18:06:01)
Analytical numeric absorption correction using a multifaceted crystal
			model based on expressions derived by R.C. Clark & J.S. Reid.
(Clark, R. C. & Reid, J. S. (1995). Acta Cryst. A51, 887-897)
Empirical absorption correction using spherical harmonics,
 implemented in SCALE3 ABSPACK scaling algorithm.
;
_exptl_crystal_colour            colorless
_exptl_crystal_density_diffrn    1.870
_exptl_crystal_description       prism
_exptl_crystal_F_000             428
_exptl_crystal_size_max          0.7242
_exptl_crystal_size_mid          0.1447
_exptl_crystal_size_min          0.1042
_refine_diff_density_max         0.304
_refine_diff_density_min         -0.535
_refine_diff_density_rms         0.071
_refine_ls_abs_structure_details
;
 Flack x determined using 192 quotients [(I+)-(I-)]/[(I+)+(I-)]
 (Parsons, Flack and Wagner, Acta Cryst. B69 (2013) 249-259).
;
_refine_ls_abs_structure_Flack   0.12(4)
_refine_ls_extinction_coef       0.047(3)
_refine_ls_extinction_expression Fc^*^=kFc[1+0.001xFc^2^\l^3^/sin(2\q)]^-1/4^
_refine_ls_extinction_method
'Sheldrick, G. M. (2015). Acta Cryst. C71, 3-8'
_refine_ls_goodness_of_fit_ref   1.044
_refine_ls_hydrogen_treatment    constr
_refine_ls_matrix_type           full
_refine_ls_number_parameters     77
_refine_ls_number_reflns         837
_refine_ls_number_restraints     25
_refine_ls_restrained_S_all      1.041
_refine_ls_R_factor_all          0.0373
_refine_ls_R_factor_gt           0.0284
_refine_ls_shift/su_max          0.000
_refine_ls_shift/su_mean         0.000
_refine_ls_structure_factor_coef Fsqd
_refine_ls_weighting_details
'w=1/[\s^2^(Fo^2^)+(0.0241P)^2^] where P=(Fo^2^+2Fc^2^)/3'
_refine_ls_weighting_scheme      calc
_refine_ls_wR_factor_gt          0.0532
_refine_ls_wR_factor_ref         0.0580
_reflns_Friedel_coverage         0.458
_reflns_Friedel_fraction_full    0.774
_reflns_Friedel_fraction_max     0.622
_reflns_number_gt                730
_reflns_number_total             837
_reflns_threshold_expression     'I > 2\s(I)'
_cod_data_source_file            d1ce00394a2.cif
_cod_data_source_block           shelx
_cod_depositor_comments
'Adding full bibliography for 7242958--7242961.cif.'
_cod_original_cell_volume        757.07(8)
_cod_database_code               7242958
_shelx_shelxl_version_number     2018/3
_shelx_space_group_comment
;
The symmetry employed for this shelxl refinement is uniquely defined
by the following loop, which should always be used as a source of
symmetry information in preference to the above space-group names.
They are only intended as comments.
;
_shelx_res_file
;
TITL shelxt_e.res in P-42(1)m
    shelx.res
    created by SHELXL-2018/3 at 16:05:09 on 24-Oct-2019
CELL  0.71073  13.1512  13.1512   4.3773   90.000   90.000   90.000
ZERR     2.00   0.0005   0.0005   0.0003    0.000    0.000    0.000
LATT  -1
SYMM  - X, - Y,   Z
SYMM    Y, - X, - Z
SYMM  - Y,   X, - Z
SYMM  1/2 - X, 1/2 + Y, - Z
SYMM  1/2 + X, 1/2 - Y, - Z
SYMM  1/2 - Y, 1/2 - X,   Z
SYMM  1/2 + Y, 1/2 + X,   Z
SFAC  C    H    N    S    AG   O
UNIT  20 32 10 4 2 6
MERG   2
EQIV $6 -x+1, -y+1, z
HTAB C2 O1_$6
EQIV $1 y, -x+1, -z+1
HTAB C2 O1_$1
HTAB C2 O2
EQIV $3 -y+1, x, -z+1
HTAB C2 O3_$3
EQIV $7 -x+1, -y+1, z+1
HTAB C2 O1_$7
EQIV $8 -y+1, x, -z+2
HTAB C2 O3_$8
SADI  0.01 N3 O1 N3 O2 N3 O3
SADI 0.01 O1 O2 O1 O3 O2 O3
ISOR 0.01 O1 O2 O3
FLAT  N3 O1 O2 O3
FMAP   2
PLAN   20
ACTA    50.00
BOND   $H
CONF
LIST   6
L.S.  10
WGHT    0.024100
EXTI    0.046802
FVAR      10.28912
AG1   5    0.000000    0.500000    0.257100    10.25000    0.02896    0.02896 =
         0.05517    0.00000    0.00000    0.00355
S1    4    0.380564    0.880564    1.030692    10.50000    0.03343    0.03343 =
         0.03408   -0.00042   -0.00042   -0.01077
N2    3    0.222840    0.722840    0.795430    10.50000    0.02694    0.02694 =
         0.05492   -0.00492   -0.00492   -0.00796
C3    1    0.404151    0.757650    0.858856    11.00000    0.02659    0.02922 =
         0.05309   -0.00075   -0.00476    0.00101
AFIX  23
H3A   2    0.412082    0.765917    0.639947    11.00000   -1.20000
H3B   2    0.467179    0.730166    0.939044    11.00000   -1.20000
AFIX   0
C2    1    0.319040    0.683601    0.920483    11.00000    0.03343    0.02608 =
         0.05082    0.00418   -0.00265   -0.00192
AFIX  23
H2A   2    0.334765    0.618573    0.827190    11.00000   -1.20000
H2B   2    0.312183    0.673272    1.138928    11.00000   -1.20000
AFIX   0
C1    1    0.160614    0.660614    0.660116    10.50000    0.03243    0.03243 =
         0.03708    0.00231    0.00231   -0.00435
N1    3    0.106534    0.606534    0.534452    10.50000    0.04726    0.04726 =
         0.06315   -0.01363   -0.01363   -0.00656
N3    3    0.500000    0.500000    0.500000    10.25000    0.05052    0.05052 =
         0.04709    0.00000    0.00000    0.00000
PART   -1
O1    6    0.540458    0.423112    0.388943    10.25000    0.03305    0.06953 =
         0.09157   -0.02529    0.01011    0.02892
O2    6    0.405396    0.503733    0.514375    10.25000    0.04346    0.06938 =
         0.07897   -0.01957   -0.01353    0.01905
O3    6    0.552156    0.566911    0.620243    10.25000    0.11146    0.10577 =
         0.09795   -0.02013   -0.01347   -0.02718
HKLF    4




REM  shelxt_e.res in P-42(1)m
REM wR2 = 0.0580, GooF = S = 1.044, Restrained GooF = 1.041 for all data
REM R1 = 0.0284 for 730 Fo > 4sig(Fo) and 0.0373 for all 837 data
REM 77 parameters refined using 25 restraints

END

WGHT      0.0241      0.0000

REM Highest difference peak  0.304,  deepest hole -0.535,  1-sigma level  0.071
Q1    1  -0.0442  0.4558  0.2466  10.50000  0.05    0.30
Q2    1   0.3276  0.5003  0.6010  11.00000  0.05    0.27
Q3    1   0.0495  0.4505  0.2880  10.50000  0.05    0.27
Q4    1   0.0257  0.6273  0.7649  11.00000  0.05    0.26
Q5    1   0.5084  0.7236  1.2521  11.00000  0.05    0.25
Q6    1  -0.0002  0.4175  0.4176  11.00000  0.05    0.24
Q7    1   0.0003  0.6428  0.5152  11.00000  0.05    0.22
Q8    1  -0.1182  0.4823  0.2578  11.00000  0.05    0.22
Q9    1   0.4185  0.9185  1.0150  10.50000  0.05    0.21
Q10   1   0.4659  0.6671  1.1589  11.00000  0.05    0.21
Q11   1   0.3898  0.6784  0.7632  11.00000  0.05    0.21
Q12   1   0.3289  0.6707  1.0175  11.00000  0.05    0.21
Q13   1   0.5155  0.7887  0.7384  11.00000  0.05    0.21
Q14   1   0.3296  0.8927  1.2402  11.00000  0.05    0.21
Q15   1   0.4718  0.8411  0.9055  11.00000  0.05    0.21
Q16   1   0.4590  0.7139  0.7935  11.00000  0.05    0.20
Q17   1   0.0738  0.5738  0.6499  10.50000  0.05    0.20
Q18   1   0.4041  0.9041  0.5506  10.50000  0.05    0.20
Q19   1   0.3719  0.6508  1.2553  11.00000  0.05    0.20
Q20   1   0.4030  0.6818  0.4507  11.00000  0.05    0.19
;
_shelx_res_checksum              69572
_shelx_hkl_file
;
   0   0   1 187480. 2885.75   1
   0   0  -2 2199.31 561.637   1
   0   0   2 3633.76 682.637   1
   0   0   3 7523.56 1228.56   1
   0   0   4 64810.4 3628.07   1
   0  -1   1 450126. 4468.25   1
   0   1  -1 452228. 4595.85   1
  -1   0   1 444482. 3800.03   1
   1   0   1 450386. 5073.57   1
   1   0  -1 450031. 3784.20   1
   0   1   1 450979. 4794.89   1
   0   1  -2 493.350 400.682   1
   1   0   2 216.424 525.447   1
   1   0  -2 384.568 333.747   1
  -1   0   2 854.379 486.457   1
   0   1   2 741.103 546.682   1
   0  -1   2 1636.62 573.071   1
   0  -1  -2 219.931 352.718   1
   0   1   3 190620. 5299.21   1
  -1   0   3 191584. 4860.28   1
   1   0   3 197157. 5633.96   1
   0  -1   3 192039. 5194.65   1
   0   1   4 2246.51 997.225   1
  -1   0   4 2463.47 946.757   1
   0  -1   4 2045.40 908.787   1
   1   0   4 1543.55 874.726   1
   1   0   5 1193.30 1036.70   1
   1   1   1 444973. 5259.78   1
  -1  -1   1 439453. 3666.46   1
   1   1  -1 437360. 3776.57   1
   1  -1  -1 436904. 4294.16   1
   1  -1   1 430660. 5034.39   1
  -1   1   2 252439. 4612.66   1
   1   1   2 246457. 5248.52   1
   1   1  -2 257909. 4499.94   1
  -1  -1   2 240595. 4249.02   1
   1  -1  -2 245317. 4555.42   1
   1  -1   2 258209. 5159.27   1
  -1  -1   3 35674.9 2162.46   1
   1   1   3 33262.7 2394.04   1
  -1   1   3 30505.5 2095.58   1
   1  -1   3 30431.0 2214.72   1
  -1  -1   4 69454.7 3530.20   1
   1  -1   4 68977.8 3915.99   1
   1   1   4 72199.4 4057.68   1
   1  -1   5 3084.45 1159.01   1
   1   1   5 3377.11 1397.41   1
   2   0   1 409940. 5399.63   1
   2   0  -1 416981. 3016.04   1
   0  -2   1 420668. 4787.15   1
   0   2  -2 107396. 3242.19   1
  -2   0   2 100112. 2557.47   1
   2   0  -2 103580. 2614.35   1
   0   2   2 105490. 3382.91   1
   0  -2   2 103151. 3072.55   1
   2   0   2 103500. 3534.75   1
   0  -2   3 4342.03 964.188   1
   2   0   3 4642.93 1112.45   1
   0   2   3 3658.57 977.002   1
  -2   0   3 3280.47 805.148   1
   0  -2   4 68012.5 3713.39   1
   2   0   4 66975.0 4050.03   1
   2   0   5-1007.95 1036.60   1
   2  -1   5 12450.1 2154.05   1
   2  -1   4 5807.98 1353.75   1
   1   2   4 5053.58 1351.55   1
  -1  -2   4 5098.89 1128.15   1
   2  -1   3 159898. 5214.82   1
  -1  -2   3 158875. 4416.34   1
   1   2   3 144430. 4993.50   1
   1   2   2 60728.3 2723.80   1
  -1  -2   2 65312.6 2253.61   1
   2   1  -2 68003.9 2082.68   1
   2  -1   2 68201.4 2900.24   1
   1  -2  -2 67976.6 2554.94   1
  -1  -2   1 710835. 5441.49   1
   1   2   1 710691. 7269.93   1
   2  -1   1 719288. 7256.13   1
  -2  -1   0 64131.3 2118.87   2
   2   1   0 60714.6 1356.69   1
  -1  -2   0 64669.9 1731.77   2
   2   1   1 713872. 7273.47   1
   1  -2   1 717591. 7006.89   1
   1  -2   2 67285.7 2724.64   1
   2   1   2 68684.8 3016.94   1
   2  -1  -2 62027.4 2148.56   1
   1   2  -2 63664.5 2323.33   1
  -2  -1   2 62355.4 1934.08   1
   1  -2   3 154203. 4854.42   1
   2   1   3 156395. 5358.03   1
  -2  -1   3 161906. 4132.83   1
   2   1   4 3931.37 1315.56   1
   1  -2   4 3049.63 1050.25   1
  -2  -1   4 3712.15 993.155   1
   1  -2   5 12076.0 2081.63   1
   2   1   5 12294.8 2185.88   1
  -2  -2   0 999999. 8633.58   2
   2  -2   1 36680.7 1790.84   1
   2   2   1 38499.4 1825.94   1
   2  -2  -2 379590. 5752.41   1
  -2  -2   2 375184. 4738.09   1
   2   2   2 386079. 7042.12   1
   2  -2   2 366929. 6727.63   1
   2   2   3 13635.4 1770.42   1
   2  -2   3 14609.9 1737.30   1
  -2  -2   3 13932.6 1291.83   1
  -2  -2   4 67438.0 3325.31   1
   2  -2   4 69907.1 4083.60   1
   2   2   4 68382.8 4268.84   1
   2  -2   5 13295.6 2295.77   1
   3   0   0 304.148 314.848   1
   0   3   0 233.804 188.268   2
   3   0   1 762530. 8005.64   1
   3   0  -2 1247.01 344.663   1
   0  -3   2 1785.53 650.282   1
   3   0   3 75458.7 3837.73   1
   3   0  -3 77170.4 2818.57   1
   0  -3   3 78639.7 3368.66   1
   3   0   4 15940.9 2189.70   1
   0  -3   4 16279.3 1924.39   1
   3   0   5 22149.6 2951.73   1
   3  -1   5 7220.57 1919.88   1
  -1  -3   4 19076.7 2011.37   1
   3  -1   4 15552.2 2181.99   1
  -1  -3   3 2061.21 695.821   1
   3   1  -3 2957.83 639.213   1
   3  -1   3 3279.70 1027.93   1
   3   1  -2 495950. 4835.55   1
   3  -1   2 501044. 8177.35   1
  -1  -3   2 493655. 6466.53   1
   3  -1   1 53073.1 2230.23   1
   3  -1   0 93910.9 2238.18   1
   3   1   0 92081.9 1938.82   1
  -1  -3   0 96399.6 2296.28   2
  -3  -1   0 97425.0 3127.98   2
   1  -3   1 50364.6 2122.37   1
   3   1   1 55468.9 2251.15   1
   3  -1  -2 494406. 5671.93   1
  -3  -1   2 496991. 4654.33   1
   1  -3   2 484844. 7553.21   1
   3   1   2 508974. 8425.63   1
  -3  -1   3 2720.67 603.231   1
   3   1   3 4121.50 1251.52   1
   1  -3   3 3976.58 1047.78   1
   3   1   4 15830.8 2168.95   1
   1  -3   4 17406.3 2062.78   1
   3   1   5 5611.54 1639.89   1
   3  -2   5 16263.1 2424.34   1
   3  -2   4 15405.2 2125.94   1
  -2  -3   4 13324.3 1553.74   1
  -2  -3   3 135073. 3803.62   1
   3  -2   3 119932. 4796.24   1
   2   3   3 136055. 5199.81   1
   3   2  -3 119065. 3383.80   1
   3  -2   2 18663.7 1722.36   1
  -2  -3   2 18281.8 1166.39   1
   2   3   2 16678.5 1689.71   1
   3  -2   1 502091. 6988.39   1
  -2  -3   0 6737.36 858.531   2
  -3  -2   0 7489.52 1056.09   2
   3   2   0 7774.40 686.322   1
   3   2   1 485131. 6775.41   1
   2  -3   1 500236. 6939.44   1
   2  -3   2 16845.8 1573.66   1
  -3  -2   2 16483.7 872.102   1
   3  -2  -2 19473.9 1253.00   1
   3   2   2 17687.8 1778.32   1
   3   2   3 131258. 5208.98   1
  -3  -2   3 129026. 3394.07   1
   2  -3   3 127086. 4783.90   1
   2  -3   4 13180.9 1914.83   1
   3   2   4 15386.4 2138.92   1
   3   2   5 13631.0 2462.62   1
   2  -3   5 13048.7 2166.56   1
  -3  -3   0 457191. 5279.96   1
  -3  -3   0 462349. 7214.06   2
   3  -3   1 59333.1 2601.50   1
   3   3   1 60058.1 2570.89   1
   3  -3  -1 57578.5 1873.28   2
  -3  -3   2 272407. 3774.85   1
   3  -3   2 274255. 6422.77   1
   3   3   2 269130. 6417.86   1
  -3  -3   3 50300.7 2146.56   1
   3  -3   3 54861.0 3358.56   1
   3   3   3 54710.0 3499.64   1
   3  -3   4 56256.1 3848.74   1
   3   3   4 54551.5 3974.58   1
   3  -3   5 2767.95 1419.81   1
   4   0   0 90322.0 2266.12   1
  -4   0   0 89908.8 2232.45   1
   0   4   0 85950.7 2028.22   2
   4   0   1 97996.1 3156.00   1
   4   0  -1 99231.9 1475.03   1
   4   0  -1 102177. 3290.36   2
   4   0   2 683916. 10015.3   1
   0  -4   2 689630. 8786.18   1
   4   0  -2 680315. 5226.09   1
   4   0   3 40556.9 2948.40   1
   4   0  -3 41604.2 1889.35   1
   0  -4   3 42549.2 2593.94   1
   0  -4   4 8755.76 1464.09   1
   4   0   4 11113.4 1918.17   1
   4   0   5 3495.76 1403.22   1
   4  -1   5 23085.4 3073.87   1
   4  -1   4 11338.1 1892.03   1
  -1  -4   4 10293.1 1488.27   1
  -1  -4   3 29007.9 2040.41   1
   4  -1   3 27055.3 2461.71   1
   4   1  -3 24801.0 1378.87   1
   4  -1   2 5020.85 1069.07   1
  -1  -4   2 5111.97 879.860   1
   4   1  -2 5351.60 394.553   1
   4  -1   1 702689. 8543.72   1
   1   4   0 123859. 3088.73   2
  -4  -1   0 120748. 4026.74   2
   4  -1   0 114728. 2769.79   1
  -1  -4   0 115790. 2651.77   2
  -4  -1   0 118933. 2562.22   1
   4   1   0 116494. 2503.36   1
   4  -1  -1 711490. 8197.33   2
   4   1   1 709073. 8393.62   1
   1  -4   2 6098.42 1059.66   1
   4  -1  -2 5817.74 626.169   1
   4   1   2 4931.10 1130.59   1
   4  -1  -3 27281.7 1634.58   1
   1  -4   3 27911.6 2216.72   1
   4   1   3 30008.8 2651.38   1
   1  -4   4 10133.4 1655.01   1
   4   1   4 12533.9 2067.93   1
   4   1   5 23324.3 3068.23   1
   4  -2   5 3068.03 1499.58   1
   4  -2   4 17298.2 2277.56   1
  -2  -4   4 21615.4 1985.13   1
   4  -2   3 8345.41 1576.54   1
  -2  -4   3 9593.61 1175.05   1
   4  -2   2 211083. 5727.79   1
  -2  -4   2 201197. 4078.97   1
   4  -2   1 2282.39 802.613   1
  -4  -2   0 598035. 9041.49   2
  -4  -2   0 598673. 5871.16   1
   4   2   0 609460. 5956.89   1
  -2  -4   0 598393. 7343.35   2
   4   2   1 2598.62 819.590   1
   4  -2  -1 2271.92 519.423   2
   4   2   2 204364. 5727.62   1
   2  -4   2 203037. 5432.62   1
   4  -2  -2 203087. 4019.23   1
   2  -4   3 8867.34 1453.29   1
  -4  -2   3 8790.04 832.442   1
   4   2   3 11319.8 1844.31   1
   2  -4   4 17771.0 2255.22   1
   4   2   4 18404.9 2376.94   1
   2  -4   5 3078.49 1334.47   1
   4   2   5 1154.36 1415.95   1
   4  -3   5 4294.06 1474.86   1
   4  -3   4 3802.22 1388.60   1
   4  -3   3 173130. 6134.42   1
   3   4   3 171297. 6276.51   1
  -3  -4   3 175191. 4104.07   1
   4  -3   2 6833.27 1277.44   1
  -3  -4   2 6861.79 764.134   1
   3  -4  -1 313614. 3856.57   2
   4  -3   1 318078. 6303.62   1
  -3  -4   0 89658.7 3273.61   2
  -4  -3   0 89515.4 3581.41   2
  -4  -3   0 86615.4 2480.82   1
   3  -4   1 309349. 6331.70   1
   4  -3  -1 317104. 4908.13   2
   4   3   1 317999. 6021.98   1
  -4  -3   2 6641.42 479.868   1
   4   3   2 7524.08 1306.21   1
   3  -4   2 6302.43 1185.72   1
   3  -4   3 171020. 5992.19   1
   4   3   3 169433. 6221.83   1
  -4  -3   3 172952. 3416.73   1
   4   3   4 5726.69 1782.66   1
   3  -4   4 2771.06 1224.10   1
   3  -4   5 2878.98 1623.31   1
  -4  -4   0 952401. 8712.40   1
  -4  -4   0 937591. 11784.3   2
   4  -4  -1 35704.2 1581.48   2
   4  -4   1 33512.5 2247.49   1
  -4  -4   2 80576.3 2013.55   1
   4   4   2 84518.0 3906.10   1
   4   4   3 49935.6 3567.20   1
   4  -4   3 51322.4 3510.37   1
  -4  -4   3 47811.9 1872.13   1
   4  -4   4 130256. 6136.07   1
   4  -4   5 1593.88 1261.05   1
   5   0   0 692.709 449.470   1
   0   5   0 247.347 301.855   2
  -5   0   0 726.093 414.035   1
   5   0   1 233588. 5198.45   1
   5   0  -1 234158. 2706.76   1
   5   0   2 692.299 720.266   1
   5   0  -2 1092.06 206.525   1
   0  -5   2 1627.37 673.342   1
   5   0  -3 35300.6 1508.99   1
   5   0   3 32865.9 2773.77   1
   0  -5   3 36617.1 2492.78   1
   5   0   4 16696.0 2416.36   1
   0  -5   4 15907.3 1989.02   1
   5   0   5 36444.6 3770.32   1
   5  -1   5 1630.30 1442.16   1
  -1  -5   4 7820.81 1375.10   1
   5  -1   4 7354.73 1913.87   1
   5  -1   3 804.355 908.572   1
  -1  -5   3 655.823 668.450   1
  -1  -5   2 569364. 8098.16   1
   5  -1   2 571604. 9755.21   1
   5  -1   1 42238.2 2312.68   1
   5   1   0 60120.0 2022.90   1
  -5  -1   0 55315.6 3087.38   2
  -1   5   0 61098.5 1509.47   2
  -5  -1   0 63414.7 2097.57   1
   1   5   0 61119.1 2372.42   2
   5  -1   0 61120.1 2259.14   1
   5  -1  -1 44992.2 2303.67   2
   5   1   1 41934.3 2248.99   1
   5  -1  -2 563371. 5391.73   1
   5   1   2 572093. 9675.93   1
   1  -5   2 556774. 9008.64   1
   5  -1  -3 240.037 270.581   1
   1  -5   3 125.544 703.984   1
   5   1   4 7295.64 1776.20   1
   1  -5   4 7175.90 1563.24   1
   5   1   5 4704.11 1743.02   1
   5  -2   5 8849.93 2214.75   1
   5  -2   4 6052.13 1611.76   1
  -2  -5   3 88231.2 3375.75   1
   5  -2   3 101472. 4851.08   1
   5  -2   2 31461.8 2452.08   1
  -2  -5   2 27302.3 1707.86   1
   5  -2   1 639131. 9096.51   1
   5  -2   0 201.493 517.041   1
  -5  -2   0 143.422 279.792   1
  -5  -2   0 918.862 778.694   2
   2   5   0-80.8008 412.100   2
   5   2   0 588.717 384.455   1
  -2  -5   0 76.4207 403.384   2
   5  -2  -1 653876. 8487.66   2
   5   2   1 643669. 8758.25   1
   2  -5   2 26103.9 2126.97   1
   5   2   2 23639.9 2124.97   1
   5   2   3 91347.0 4683.30   1
   2  -5   3 100868. 4509.81   1
   2  -5   4 9025.31 1745.44   1
   5   2   4 10241.4 2024.79   1
   5   2   5 9359.44 2052.42   1
   2  -5   5 6347.98 1717.75   1
   5  -3   5-208.710 1131.76   1
   5  -3   4 47481.0 3823.89   1
  -3  -5   3 25930.7 1730.73   1
   5  -3   3 21342.7 2410.32   1
   5  -3   2 64308.4 3506.86   1
  -3  -5   2 55469.5 2221.34   1
   3  -5  -1 64609.5 1515.02   2
   5  -3   1 59492.0 2935.99   1
   5   3   0 887827. 8551.33   1
  -5  -3   0 888766. 12353.7   2
  -5  -3   0 903767. 8256.47   1
  -3  -5   0 882796. 10628.9   2
  -5  -3   1 66171.7 1484.38   1
   5  -3  -1 63515.9 2570.65   2
   5   3   1 65022.7 2879.20   1
   5   3   2 53172.3 3136.09   1
   3  -5   2 63176.5 3371.76   1
   3  -5   3 24480.5 2459.74   1
   5   3   3 27815.4 2714.62   1
   3  -5   4 42993.7 3516.97   1
   5   3   4 40441.3 3633.13   1
   3  -5   5-331.032 1060.11   1
   5   3   5 617.003 1227.29   1
   5  -4   5 894.352 1004.94   1
   5  -4   4-453.499 1178.24   1
   5  -4   3 154861. 6254.46   1
  -4  -5   3 163201. 3763.96   1
   5  -4   2 40770.6 2911.71   1
  -4  -5   2 39649.7 1730.15   1
   5  -4   1 110992. 4186.83   1
  -5  -4   0 2577.97 593.902   1
  -5  -4   0 888.595 746.959   2
  -4  -5   0 2742.58 859.938   2
   4  -5   1 116815. 4373.87   1
   5   4   1 110360. 3951.22   1
  -5  -4   1 109143. 2442.19   1
   4  -5   2 38521.7 2783.72   1
  -5  -4   2 37095.9 1019.60   1
   5   4   2 41616.1 2914.11   1
   4  -5   3 161647. 6266.96   1
   5   4   3 160974. 6400.96   1
   4  -5   4 760.468 1148.82   1
   5   4   4-129.541 1227.25   1
   4  -5   5-1123.10 1262.21   1
  -5  -5   0 566256. 10181.9   2
   5  -5   1 9688.66 1446.00   1
   5  -5   2 81109.2 4153.98   1
  -5  -5   2 75347.0 2044.86   1
   5  -5   3 13425.8 2130.20   1
   5  -5   4 64634.9 4651.77   1
   5  -5   5 4339.49 1565.78   1
   0   6   0 218430. 4001.73   2
  -6   0   0 218865. 4275.87   1
   6   0   0 213416. 4308.76   1
  -6   0   0 222506. 6430.81   2
   6   0  -1 1989.61 365.405   1
   6   0   1 1126.71 706.580   1
   6   0   2 166196. 5501.66   1
   0  -6   2 165592. 5053.13   1
   0  -6   3 13297.6 1657.52   1
   6   0   3 9234.28 1727.53   1
   0  -6   4 23065.9 2426.11   1
   6   0   4 20626.2 2650.02   1
   6   0   5 4790.78 1666.61   1
   6  -1   5 17412.9 2881.17   1
   6  -1   4 6951.48 1704.17   1
  -1  -6   4 9771.90 1687.25   1
   6  -1   3 82101.9 4476.60   1
  -1  -6   3 74404.4 3521.11   1
  -1  -6   2 12496.8 1419.71   1
   6  -1   2 13261.7 1763.83   1
   6  -1   1 333260. 6790.56   1
   6   1  -1 336265. 3201.76   1
   6   1   0 77671.1 2540.77   1
  -6  -1   0 82872.8 4059.92   2
  -1   6   0 86822.9 2044.89   2
  -6  -1   0 83374.4 2601.47   1
   1   6   0 85352.0 3032.71   2
   6  -1   0 84910.6 2871.05   1
   6   1   1 358074. 6754.82   1
   6  -1  -1 353061. 4613.70   1
   6   1   2 12517.2 1619.29   1
   1  -6   2 12322.3 1528.73   1
   6  -1  -2 12554.7 826.700   1
   1  -6   3 87868.4 4219.98   1
   6   1   3 76072.2 4342.47   1
   6   1   4 7228.27 1733.29   1
   1  -6   4 3030.56 1161.88   1
   6   1   5 17578.1 2832.50   1
   6  -2   5 3805.84 1610.44   1
   6  -2   4 40373.2 3626.02   1
   6  -2   3 7367.32 1587.91   1
  -2  -6   3 9005.74 1241.32   1
   6  -2   2 242096. 6819.80   1
  -2  -6   2 234521. 5481.52   1
   6  -2   1 16915.2 1668.67   1
  -6  -2   0 259104. 7167.62   2
  -6  -2   0 266864. 4678.66   1
   6   2   0 269987. 4771.07   1
   6  -2   0 264503. 5318.92   1
   6   2   1 14791.9 1510.67   1
  -6  -2   1 13300.1 635.546   1
   2  -6   2 230140. 6458.28   1
   6   2   2 238051. 6661.18   1
   6   2   3 5003.60 1319.03   1
   2  -6   3 7395.57 1472.04   1
   2  -6   4 45667.2 3617.52   1
   6   2   4 40003.7 3727.56   1
   6   2   5 1465.57 1307.22   1
   6  -3   5 1371.26 1301.65   1
   6  -3   4 6652.21 1768.90   1
   6  -3   3 112863. 5434.89   1
  -3  -6   3 109756. 3723.54   1
   6  -3   2 47998.3 3179.35   1
   6  -3   1 410193. 8015.29   1
   6   3   0 813.351 492.021   1
  -6  -3   0-987.167 427.156   1
  -3  -6   0 344.482 466.104   2
  -6  -3   0 1121.26 886.912   2
   6  -3   0 515.701 576.907   1
  -6  -3   1 423801. 4069.74   1
   6   3   1 421783. 7615.60   1
   3  -6   2 45328.7 3045.98   1
   6   3   2 42996.3 2968.78   1
   3  -6   3 118546. 5349.43   1
   6   3   3 107783. 5269.21   1
   6   3   4 8465.11 1967.43   1
   3  -6   4 6555.94 1748.09   1
   3  -6   5 3518.30 1478.01   1
   6   3   5 5074.31 1919.13   1
   6  -4   5-2932.66 1635.72   1
   6  -4   4 41137.9 3820.19   1
   6  -4   3 10039.4 1864.43   1
  -4  -6   3 10168.9 1121.29   1
   6  -4   2 70161.2 3929.05   1
   6  -4   1 1158.39 783.382   1
  -6  -4   0 237465. 7015.72   2
  -4  -6   0 238737. 6226.50   2
  -6  -4   1 2230.98 410.242   1
   6   4   1 1210.12 657.554   1
   4  -6   2 70428.4 3909.93   1
   6   4   2 74364.0 3909.92   1
   4  -6   3 7512.32 1665.04   1
   6   4   3 8394.63 1767.61   1
   4  -6   4 45117.8 3879.81   1
   6   4   4 44493.8 3994.64   1
   4  -6   5 19.8192 1076.93   1
   6  -5   5 4786.12 1610.02   1
   6  -5   4 2302.15 1366.11   1
   6  -5   3 92999.2 5133.15   1
   5  -6  -2 29254.6 1851.12   2
   6  -5   2 29533.7 2691.80   1
   6  -5   1 293377. 7378.42   1
  -5  -6   0 941.375 783.349   2
  -6  -5   0 2301.42 980.267   2
   5  -6   1 298825. 7663.88   1
  -6  -5   1 295146. 4776.50   1
  -6  -5   2 29955.7 1042.26   1
   6   5   2 29332.0 2659.86   1
  -6  -5   2 30983.5 1054.40   1
   5  -6   2 29916.7 2711.30   1
   5  -6   3 88713.3 5030.10   1
   6   5   3 93449.0 5195.21   1
   5  -6   4 2502.40 1484.82   1
   5  -6   5 6845.92 1916.44   1
  -6  -6   0 669095. 12037.8   2
   6  -6   1 3023.31 946.966   1
  -6  -6   1 4160.59 649.131   1
   6  -6   2 132600. 5664.55   1
   6  -6  -2 137568. 4311.85   2
   6  -6   3 18507.8 2557.85   1
   6  -6   4 20283.6 2844.78   1
   6  -6   5 6887.01 2044.62   1
   0   7   0 31.2903 294.741   2
  -7   0   0 156.975 379.502   1
  -7   0   0 186.165 750.322   2
   7   0   0-24.0910 451.894   1
   7   0   1 227495. 5799.49   1
   7   0  -1 225422. 3566.18   1
   0  -7  -1 234802. 3908.93   2
  -7   0   1 238422. 7015.84   2
   7   0   2 251.124 838.755   1
   0  -7   2 1486.32 809.105   1
   0  -7   3 125050. 5014.08   1
   7   0   3 120256. 5595.46   1
   7   0   4 945.444 1158.65   1
   0  -7   4 3761.03 1311.61   1
   7   0   5 4457.22 1822.48   1
   7  -1   5 4673.88 1789.28   1
   7  -1   4 49772.1 4177.93   1
   7  -1   3 34694.8 3125.01   1
  -1  -7   3 35687.6 2613.72   1
   7  -1   2 98163.6 4506.99   1
   7  -1   1 7512.75 1249.45   1
   1  -7  -1 6001.85 432.585   2
  -7   1   1 7889.43 1354.63   2
   7   1  -1 6609.16 583.190   1
   7   1   0 454150. 6578.19   1
   7  -1   0 456776. 7111.20   1
  -7   1   0 435561. 9481.17   2
  -7  -1   0 460738. 10179.0   2
   1   7   0 460306. 7479.68   2
  -7  -1   0 452332. 6494.80   1
  -1   7   0 453034. 5193.67   2
   7   1   1 7289.65 1178.99   1
  -1  -7  -1 9476.89 1001.39   2
   7  -1  -1 7389.14 772.032   1
   7  -1  -2 105441. 2236.17   1
   7   1   2 100824. 4479.79   1
   7   1   3 35405.1 3167.96   1
   1  -7   3 38391.5 2954.32   1
   1  -7   4 51213.0 3748.70   1
   7   1   4 56007.3 4437.55   1
   7   1   5 3199.85 1595.33   1
   7  -2   5 4161.20 1704.12   1
   7  -2   4 1783.08 1321.89   1
   7  -2   3 88756.9 4912.02   1
  -2  -7   3 83063.1 3707.38   1
   7  -2   2 20497.2 2222.00   1
   7  -2   1 313739. 7147.64   1
  -2   7   0 132538. 2296.65   2
   7  -2   0 126667. 3923.12   1
  -7   2   0 131560. 5073.53   2
  -7  -2   0 138521. 3652.72   1
  -7  -2   0 132067. 5554.44   2
   7   2   0 138200. 3698.80   1
  -2  -7  -1 307356. 6249.57   2
   7  -2  -1 317130. 5468.41   1
  -7  -2   1 326102. 3699.93   1
   7   2   1 315625. 6826.09   1
   2  -7   2 16211.5 1982.97   1
   7   2   2 16692.0 1986.82   1
   2  -7   3 78721.1 4334.87   1
   7   2   3 78479.1 4604.80   1
   2  -7   4 2823.05 1441.94   1
   7   2   4 2143.07 1215.18   1
   7   2   5 7450.59 1927.16   1
   7  -3   5-2365.50 1603.62   1
   7  -3   4 19027.5 2670.78   1
  -3  -7   3 1524.72 700.739   1
   7  -3   3 591.958 1162.84   1
   7  -3   2 254378. 7440.07   1
   7  -3   1 5295.15 1141.36   1
  -7  -3   0 212589. 7090.84   2
  -3  -7   0 208906. 5408.46   2
   7  -3   0 210413. 5384.74   1
   7   3   0 209961. 4669.33   1
  -7  -3   1 5652.99 554.112   1
  -3  -7  -1 6611.72 1075.47   2
   7   3   1 4452.07 1012.27   1
   3  -7   2 229528. 7047.75   1
   7   3   2 230057. 6985.41   1
   3  -7   3 1922.96 1107.56   1
   7   3   3 949.526 1010.93   1
   3  -7   4 19464.6 2549.14   1
   7   3   4 16574.5 2512.64   1
   3  -7   5 857.933 1141.92   1
   7   3   5 2545.99 1557.73   1
   7  -4   5 10592.1 2556.80   1
   7  -4   4 3022.74 1610.07   1
   7  -4   3 45735.9 3724.92   1
   7  -4   2-702.958 964.589   1
   4  -7  -2 517.746 298.051   2
   7  -4   1 319243. 7669.21   1
  -4  -7   0 631.784 588.386   2
  -7  -4   0 1431.32 852.966   2
   7  -4   0 1587.09 763.116   1
  -7  -4   1 318277. 4321.13   1
  -4  -7  -1 314443. 7658.48   2
   7   4   1 324774. 7288.36   1
   7   4   2 387.657 832.909   1
   4  -7   2-241.895 850.685   1
   4  -7   3 47200.1 3695.51   1
   7   4   3 50406.8 3869.17   1
   4  -7   4 5983.86 1704.42   1
   7   4   4 3637.93 1479.52   1
   4  -7   5 11010.8 2334.47   1
   7  -5   4 8880.66 2033.84   1
   7  -5   3 10412.8 2044.30   1
   7  -5   2 169969. 6471.51   1
   7  -5   1 55798.0 3425.34   1
  -7  -5   0 121658. 5452.71   2
  -5  -7   0 127077. 5083.99   2
  -5  -7  -1 58663.1 3581.28   2
  -7  -5   1 59354.7 2148.11   1
   5  -7   2 176951. 6625.33   1
   7   5   2 167683. 6263.08   1
   5  -7   3 5740.06 1564.64   1
   7   5   3 9493.39 1869.51   1
   5  -7   4 9487.59 2101.01   1
   5  -7   5 2380.41 1502.36   1
   7  -6   4 2662.56 1455.07   1
   7  -6   3 54161.8 4219.97   1
   7  -6   2 15413.8 2130.97   1
  -7  -6  -1 219111. 7657.59   2
   7  -6   1 213156. 6878.26   1
  -7  -6   0 40406.3 3241.75   2
  -6  -7   0 33572.9 2797.63   2
  -6  -7  -1 194711. 6921.49   2
   6  -7   1 209194. 6992.21   1
  -7  -6   1 204402. 4578.95   1
   6  -7   2 11991.4 2044.99   1
   6  -7   3 39455.8 3700.05   1
   6  -7   4 4988.42 1747.45   1
  -7  -7   0 264998. 8288.79   2
  -7   7   0 271040. 5967.21   2
  -7  -7  -1 14659.7 2120.21   2
   7  -7   1 18558.3 2278.31   1
   7  -7   2 117864. 5790.59   1
   7  -7   3 5438.02 1682.76   1
   7  -7   4 17635.4 2860.53   1
   8   0   0 549214. 7973.58   1
   0   8   0 560902. 7522.02   2
   8   0  -1 8860.69 826.075   1
  -8   0   1 9352.50 1696.95   2
   0  -8  -1 9462.56 771.991   2
   8   0   1 10537.1 1439.31   1
   8   0   2 24728.3 2421.12   1
   8   0   3 3526.08 1469.17   1
   0  -8   3 5765.34 1363.27   1
   0  -8   4 74556.3 4454.84   1
   8   0   4 70960.7 5147.64   1
   8  -1   4 3237.60 1608.28   1
   8  -1   3 90536.7 5071.34   1
  -1  -8   3 96076.6 4428.57   1
   8  -1   2 3445.97 1192.85   1
   8  -1   1 226322. 6233.49   1
  -8   1   1 230625. 7278.32   2
   8   1  -1 232390. 3670.03   1
   8  -1   0 2585.59 734.086   1
   8   1   0 2388.63 685.547   1
  -1   8   0 2773.75 496.572   2
  -8   1   0 3640.90 1178.27   2
  -8  -1   0 3669.68 1292.52   2
  -1  -8  -1 235652. 4673.54   2
   8  -1  -1 234999. 4448.73   1
  -8  -1   1 230081. 7680.64   2
   8   1   1 229402. 6064.89   1
   8   1   2 2326.13 1018.57   1
   8  -1  -2 4304.14 466.290   1
   1  -8   3 99186.0 4896.38   1
   8   1   3 89456.2 5101.17   1
   8   1   4-161.126 1433.83   1
   1  -8   4 3137.49 1415.30   1
   8  -2   4 24531.4 3076.41   1
  -2  -8   3 593.823 742.358   1
   8  -2   3-612.755 1137.39   1
   8  -2   2 66824.1 3983.10   1
   8  -2   1 2774.13 930.969   1
   8   2  -1 2617.82 450.092   1
  -8   2   1 4772.37 1176.13   2
  -8   2   0 418144. 9562.54   2
  -2   8   0 394740. 4288.02   2
   8   2   0 413845. 6842.88   1
  -8  -2   0 408786. 10282.5   2
   8  -2   0 407269. 7473.84   1
   8  -2  -1 5123.27 800.799   1
   8   2   1 3378.72 910.865   1
  -2  -8  -1 4064.97 790.567   2
  -8  -2   1 3086.22 1180.48   2
   2  -8   2 65441.8 3945.16   1
   8   2   2 70410.6 3987.48   1
   8   2   3 258.926 951.588   1
   2  -8   3 806.369 1108.36   1
   2  -8   4 25271.3 2828.41   1
   8   2   4 33253.4 3640.74   1
   8  -3   4 6487.11 1869.24   1
   8  -3   3 33602.9 3325.77   1
  -3  -8   3 35581.8 2468.10   1
   8  -3   2 2096.66 1077.30   1
   8  -3   1 217229. 6490.17   1
   8  -3   0-156.464 578.343   1
   8   3   0 123.434 523.157   1
  -3   8   0 780.295 180.559   2
  -8   3   0 1243.00 745.271   2
  -8  -3   0 802.434 768.144   2
   8   3   1 226003. 6212.38   1
  -3  -8  -1 221377. 5898.68   2
  -8  -3   1 213934. 3469.89   1
   8  -3  -1 213396. 5192.89   1
   8   3   2 1378.47 1081.32   1
   3  -8   2 1472.77 935.247   1
   3  -8   3 34801.3 3238.44   1
   8   3   3 32209.4 3161.32   1
   3  -8   4 9592.51 1974.46   1
   8   3   4 3960.43 1458.32   1
   8  -4   4 6024.97 1884.10   1
   8  -4   3 7456.67 1853.24   1
   8  -4   2 272636. 8212.51   1
   8  -4   1 54949.1 3403.30   1
  -4  -8   0 32806.0 2446.77   2
  -8  -4   0 35261.9 3130.27   2
   8  -4   0 34522.0 2473.41   1
  -8   4   0 35843.8 2690.23   2
  -8  -4   1 54806.7 1927.14   1
  -4  -8  -1 57412.4 3293.67   2
   8   4   1 50679.8 3042.48   1
   4  -8   2 251241. 8075.73   1
   8   4   2 263239. 7755.84   1
   4  -8   3 6243.00 1639.75   1
   8   4   3 5171.80 1717.47   1
   4  -8   4 3917.32 1505.78   1
   8   4   4 6041.40 1838.59   1
   4  -8   5 4287.98 1601.73   1
   8  -5   4 10363.0 2236.89   1
   8  -5   3 30762.7 3252.51   1
   8  -5   2 392.334 910.359   1
   8  -5   1 147876. 5723.23   1
   8  -5   0 5910.85 1245.06   1
  -8   5   0 9186.18 1340.45   2
  -5  -8   0 9568.24 1468.56   2
  -8  -5   0 8906.85 1660.91   2
  -8  -5   1 139213. 3367.11   1
  -5  -8  -1 146273. 5633.88   2
   5  -8   2 619.113 1042.18   1
   8   5   2-216.523 852.202   1
   5  -8   3 27193.2 3055.95   1
   8   5   3 29229.3 3192.77   1
   5  -8   4 7069.03 2014.46   1
   8   5   4 10920.6 2425.19   1
   5  -8   5 14639.7 2671.73   1
   8  -6   4 24941.0 3403.54   1
   8  -6   3 667.368 1064.89   1
   8  -6   2 123607. 5923.97   1
  -8  -6  -1 38801.1 3459.10   2
   8  -6   1 40390.8 3195.03   1
  -6  -8   0 39459.6 3138.67   2
  -8  -6   0 41703.4 3449.68   2
  -6   8   0 41063.3 1892.67   2
  -8   6   0 42020.0 2736.51   2
  -6  -8  -1 44664.4 3362.56   2
   6  -8   2 127085. 6044.84   1
   6  -8   3 1440.30 1164.06   1
   6  -8   4 19542.8 3040.82   1
   8  -7   4-895.922 1285.76   1
   8  -7   3 62063.2 4868.57   1
   8  -7   2 7459.97 1718.50   1
  -8  -7  -1 136157. 6431.39   2
   8  -7   1 117571. 5542.38   1
  -7  -8   0 364.179 700.936   2
  -8  -7   0 793.117 827.250   2
  -7   8   0 713.631 418.351   2
  -8   7   0 590.404 567.853   2
  -7  -8  -1 124280. 5916.12   2
   7  -8   1 123746. 5757.18   1
   7  -8   2 11523.1 2031.13   1
   7  -8   3 58415.4 4630.39   1
   7  -8   4 1547.86 1680.88   1
  -8   8   0 453578. 7864.11   2
  -8  -8   0 463516. 11699.6   2
   8  -8   1 47554.8 3751.56   1
  -8  -8  -1 42629.2 3669.73   2
   8  -8   2 4115.19 1429.49   1
   8  -8   3 12963.7 2458.14   1
   8  -8   4 28904.4 3725.09   1
  -9   0   0 211.485 775.298   2
   9   0   0 92.1959 622.311   1
   9   0   1 140621. 5063.35   1
   9   0  -1 143767. 3422.23   1
   9   0   2 16204.4 2111.47   1
   0  -9   3 72374.9 4298.37   1
   9   0   3 75532.9 4809.69   1
   9   0   4-79.4846 1180.75   1
   9  -1   4 32611.9 3620.36   1
   9  -1   3 20434.3 2718.25   1
  -1  -9   3 16538.6 2084.26   1
   9  -1   2 49190.3 3507.75   1
   9  -1   1 33985.5 2619.90   1
  -9   1   1 33089.2 3035.56   2
   9   1  -1 33699.0 1602.02   1
   9  -1   0 457113. 8041.61   1
  -9   1   0 455449. 10820.7   2
  -9  -1   0 446679. 11323.0   2
   9   1   0 452281. 7576.53   1
  -1  -9  -1 32927.6 1804.66   2
  -9  -1   1 33025.1 3224.60   2
   9  -1  -1 34703.2 1872.58   1
   9   1   1 32626.9 2492.02   1
   9  -1  -2 47067.7 1481.69   1
   9   1   2 53329.4 3591.45   1
   9   1   3 15385.0 2440.44   1
   1  -9   3 18080.4 2371.03   1
   1  -9   4 26723.2 3029.74   1
   9   1   4 34009.9 3694.48   1
   9  -2   4-1023.82 1420.19   1
   9  -2   3 67552.8 4607.60   1
  -2  -9   3 61992.1 3667.91   1
   9  -2   2 6548.50 1500.53   1
   9  -2   1 219417. 6535.05   1
  -9   2   1 203132. 7207.78   2
   9   2  -1 207169. 3795.62   1
   9  -2   0 18812.0 1763.65   1
  -9  -2   0 18543.2 2465.53   2
  -9   2   0 22694.4 2442.07   2
   9   2   0 20907.3 1731.53   1
  -9  -2   1 206948. 7902.68   2
   9  -2  -1 205864. 4810.80   1
  -2  -9  -1 199312. 5045.68   2
   9   2   1 199061. 6016.27   1
   9   2   2 8988.69 1679.70   1
   9  -2  -2 9761.67 938.750   1
   2  -9   3 64685.1 4366.38   1
   9   2   3 72854.9 4776.46   1
   2  -9   4-349.073 1080.86   1
   9   2   4 1337.39 1347.87   1
   9  -3   4 4572.89 1705.45   1
  -3  -9   3 2263.26 930.187   1
   9  -3   3 1508.69 1319.68   1
   9  -3   2 241465. 7892.21   1
  -9   3   1 49886.7 3441.52   2
   9  -3   1 40314.9 2974.00   1
  -9  -3   0 29385.1 3025.98   2
   9  -3   0 23647.7 2059.03   1
  -9   3   0 22020.5 2360.42   2
   9   3   0 25238.2 1868.01   1
  -9  -3   1 43659.5 3741.40   2
  -9  -3   1 44804.7 1756.59   1
   9  -3  -1 44654.8 2464.47   1
   9   3   1 49284.3 3149.36   1
  -3  -9  -1 47748.4 2751.72   2
   3  -9   2 253358. 8308.88   1
   9   3   2 243313. 7724.57   1
   3  -9   3 1802.10 1063.89   1
   9   3   3 1565.15 1243.03   1
   3  -9   4 6194.70 1970.08   1
   9   3   4 3282.80 1429.11   1
   9  -4   4 9989.73 2190.91   1
   9  -4   3 12593.4 2200.03   1
   9  -4   2 5045.15 1601.04   1
   9  -4   1 140286. 5577.83   1
   9  -4   0 9420.39 1451.12   1
  -9  -4   0 10098.6 1922.84   2
  -9   4   0 7514.28 1406.23   2
   9   4   0 11129.7 1329.07   1
  -4  -9  -1 141833. 5162.10   2
   9  -4  -1 132412. 4601.99   1
   9   4   1 133811. 5087.66   1
   4  -9   2 2052.01 1229.71   1
   9   4   2 785.667 944.777   1
   4  -9   3 7887.30 1761.08   1
   9   4   3 6417.44 1597.54   1
   4  -9   4 6489.99 1800.91   1
   9   4   4 9905.02 2287.49   1
   9  -5   4 2472.41 1357.62   1
   9  -5   3 3395.52 1557.89   1
   9  -5   2 211116. 7777.19   1
  -9  -5  -1 399.439 843.495   2
   9  -5   1 2206.83 1069.21   1
  -9   5   0 47157.4 3156.23   2
   9  -5   0 49669.9 3274.26   1
  -9  -5   0 48299.0 3877.62   2
  -5  -9  -1 1294.78 813.302   2
   9   5   1-374.156 813.190   1
   9   5   2 203563. 7335.81   1
   5  -9   2 210249. 7904.32   1
   9   5   3 4878.53 1767.77   1
   5  -9   3 3676.76 1588.79   1
   5  -9   4 4942.09 1923.79   1
   9   5   4 2563.72 1373.46   1
   9  -6   4 2480.18 1670.39   1
   9  -6   3 34166.8 3712.37   1
   9  -6   2 9581.59 1999.99   1
  -9  -6  -1 146528. 6994.44   2
   9  -6   1 150170. 6238.88   1
  -9  -6   0 28879.0 3057.01   2
  -9   6   0 26606.6 2348.37   2
  -6  -9   0 24012.2 2503.19   2
   9  -6   0 27734.7 2635.83   1
  -6  -9  -1 142745. 6034.18   2
   6  -9   2 10868.3 1958.42   1
   6  -9   3 39053.8 3899.75   1
   6  -9   4 3691.60 1678.02   1
   9  -7   4 23648.4 3492.33   1
   9  -7   3 14418.3 2613.67   1
   9  -7   2 22645.6 2837.49   1
   9  -7   1 10315.8 1918.85   1
  -9  -7  -1 9619.50 1989.75   2
  -9  -7   0 72751.3 4855.08   2
  -9   7   0 73433.0 3715.03   2
  -7  -9   0 73036.5 4537.55   2
   9  -7   0 67829.1 4269.85   1
  -7  -9  -1 13280.1 2025.47   2
   7  -9   1 11926.7 2037.00   1
   7  -9   2 30217.2 3229.35   1
   7  -9   3 8653.14 1991.19   1
   7  -9   4 23953.6 3545.61   1
   9  -8   3 50214.5 4597.23   1
   9  -8   2 2005.77 1181.66   1
  -9  -8  -1 74677.1 5097.68   2
   9  -8   1 71947.1 4692.79   1
  -8  -9   0 9159.01 1812.55   2
  -9  -8   0 10907.8 1987.03   2
  -9   8   0 11171.5 1426.61   2
  -8  -9  -1 71518.9 4800.10   2
   8  -9   1 66798.3 4591.46   1
   8  -9   2 5500.68 1801.16   1
  -8  -9  -2 721.949 798.944   2
   8  -9   3 38042.1 4102.34   1
  -9  -9   0 224008. 8797.51   2
   9  -9   1 8124.36 1767.07   1
  -9  -9  -1 10619.8 2019.79   2
   9  -9   2 37117.3 3727.53   1
  -9  -9  -2 37996.3 4031.94   2
   9  -9   3 4773.97 1843.73   1
  10   0   0 331676. 7011.49   1
 -10   0   0 335753. 10053.7   2
 -10   0   1 2651.97 1250.20   2
  10   0  -1 1621.98 497.546   1
  10   0   1 2397.01 1010.15   1
  10   0   2 14047.4 2044.17   1
  10   0   3 780.641 1326.95   1
   0 -10   3 257.566 1019.40   1
  10   0   4 31764.6 3755.65   1
  10  -1   4 948.569 1572.97   1
  -1 -10   3 70267.5 4338.73   1
  10  -1   3 75129.5 5013.13   1
  10  -1   2 20182.0 2442.71   1
  10  -1   1 126296. 5128.48   1
  10   1  -1 125507. 3229.02   1
  10   1   0 6695.13 1105.11   1
 -10  -1   0 8370.02 1845.31   2
 -10   1   0 8324.87 1698.35   2
  10  -1   0 8066.48 1246.33   1
  10  -1  -1 130214. 3769.03   1
 -10  -1   1 115106. 6209.97   2
  10   1   1 122785. 4930.24   1
  10   1   2 22616.0 2455.83   1
   1 -10   3 82029.0 5006.87   1
  10   1   3 76005.0 5059.56   1
  10   1   4 120.292 1317.09   1
   1 -10   4 469.633 907.210   1
  10  -2   4 28347.2 3507.04   1
  10  -2   3 4263.38 1659.20   1
  -2 -10   3 2717.32 887.384   1
  10  -2   2 58625.4 4018.39   1
  10  -2   1 21455.4 2279.73   1
 -10   2   1 21192.4 2512.66   2
  10   2  -1 21130.5 1317.02   1
 -10  -2   0 102806. 5796.70   2
 -10   2   0 109349. 5521.75   2
  10  -2   0 107294. 4241.94   1
  10   2   0 108049. 3982.49   1
 -10  -2   1 26520.2 3070.59   2
  -2 -10  -1 24048.8 1798.18   2
  10  -2  -1 24552.3 1798.43   1
  10   2   1 22581.2 2225.96   1
  10   2   2 65058.8 4174.66   1
  10   2   3 3355.64 1381.00   1
   2 -10   3 3823.17 1621.00   1
   2 -10   4 24203.0 3077.54   1
  10   2   4 32373.0 3733.32   1
  10  -3   4 1164.21 1317.82   1
  10  -3   3 39449.1 3787.76   1
  10  -3   2 5887.41 1593.90   1
  10  -3   1 139097. 5630.60   1
 -10   3   1 138690. 6084.74   2
  10  -3   0 61637.4 3384.09   1
 -10  -3   0 54680.3 4288.18   2
 -10   3   0 61556.7 4006.30   2
  10   3   0 62628.3 3044.40   1
  -3 -10  -1 144094. 4780.02   2
  10  -3  -1 135971. 4438.34   1
 -10  -3   1 133213. 6830.13   2
  10   3   1 133156. 5246.49   1
  10   3   2 4222.36 1466.92   1
   3 -10   2 3481.56 1281.83   1
  10  -3  -2 4405.74 796.723   1
   3 -10   3 35967.2 3549.69   1
  10   3   3 39057.6 3718.49   1
   3 -10   4 536.617 1039.76   1
  10   3   4 1737.11 1190.89   1
  10  -4   4 5341.55 1801.06   1
  10  -4   3 3531.31 1637.55   1
  10  -4   2 138780. 6378.15   1
  10  -4   1 4533.33 1235.25   1
 -10  -4  -1 4279.13 1504.77   2
 -10  -4   0 159678. 7286.96   2
  10  -4   0 163084. 5728.68   1
 -10   4   0 169329. 6446.46   2
  10   4   0 173369. 5221.65   1
  -4 -10  -1 4056.79 978.132   2
  10   4   1 6453.74 1301.19   1
  10  -4  -1 5339.67 1065.80   1
  10  -4  -2 140371. 4519.40   1
   4 -10   2 140410. 6631.28   1
  10   4   2 142051. 6138.87   1
   4 -10   3 5597.31 1764.05   1
  10   4   3 2175.38 1114.10   1
  10   4   4 3588.92 1566.96   1
   4 -10   4 5601.22 1860.94   1
  10  -5   4 1907.58 1234.83   1
  10  -5   3 23717.6 3026.51   1
  10  -5   2 2211.64 1167.95   1
  10  -5   1 163717. 6500.37   1
 -10  -5  -1 160969. 7601.42   2
 -10  -5   0 39793.3 3748.32   2
 -10   5   0 33813.7 2861.39   2
  10  -5   0 38259.9 2994.72   1
  10  -5  -1 162620. 5582.96   1
  10   5   1 168238. 6177.24   1
  -5 -10  -1 163671. 6029.45   2
   5 -10   2-131.774 1114.72   1
  -5 -10  -2 724.483 676.729   2
  10   5   2 1563.46 951.048   1
   5 -10   3 23776.2 3097.43   1
  10   5   3 15734.6 2520.69   1
   5 -10   4 1384.65 1483.89   1
  10   5   4 2262.42 1530.66   1
  10  -6   3 6079.78 1765.82   1
  10  -6   2 49052.8 4054.13   1
  10  -6   1 4128.97 1357.52   1
 -10  -6  -1 4930.97 1526.48   2
 -10  -6   0 116117. 6296.34   2
 -10   6   0 122838. 5242.60   2
  10  -6   0 116339. 5344.71   1
  10  -6  -1 4981.28 1203.45   1
  -6 -10  -1 3189.80 1072.73   2
  -6 -10  -2 49255.8 3961.10   2
   6 -10   2 44017.8 3932.25   1
   6 -10   3 8923.58 2064.34   1
   6 -10   4 17645.2 3192.74   1
  10  -7   3 36195.9 4063.96   1
  10  -7   2 16981.5 2531.06   1
 -10  -7  -1 116696. 6562.41   2
  10  -7   1 113596. 5885.75   1
 -10   7   0 14102.9 1808.58   2
 -10  -7   0 14413.6 2346.53   2
  10  -7   0 13226.2 2005.43   1
  -7 -10  -1 116736. 5832.36   2
  -7 -10  -2 17543.0 2515.34   2
   7 -10   2 16750.4 2668.98   1
   7 -10   3 36908.6 3944.41   1
  10  -8   3 1631.74 1349.12   1
  10  -8   2 29126.0 3425.84   1
 -10  -8  -2 30319.0 3762.16   2
  10  -8   1 6170.37 1618.28   1
 -10  -8  -1 10942.7 2149.70   2
  -8 -10   0 172806. 7356.03   2
 -10  -8   0 187762. 8212.44   2
  10  -8   0 184342. 7443.86   1
   8 -10   1 7106.72 1695.94   1
  -8 -10  -1 9543.20 1857.52   2
  -8 -10  -2 30488.2 3476.53   2
   8 -10   2 28366.9 3348.80   1
   8 -10   3-293.273 1180.04   1
  10  -9   3 33002.3 4043.03   1
 -10  -9  -2 3658.88 1571.19   2
  10  -9   2 5267.63 1800.13   1
 -10  -9  -1 45119.2 4231.66   2
  10  -9   1 45376.5 3988.87   1
 -10  -9   0 1877.50 1088.41   2
  -9 -10   0 1135.18 938.356   2
  10  -9   0 345.214 1019.68   1
  -9 -10  -1 43715.6 4026.95   2
   9 -10   1 42820.3 3933.11   1
   9 -10   2 8029.97 2064.91   1
  -9 -10  -2 5424.75 1797.20   2
   9 -10   3 31242.8 3964.32   1
 -10 -10   0 61611.9 4913.66   2
  10 -10   0 56585.8 4575.72   1
  10 -10   1 11517.3 2153.10   1
 -10 -10  -1 13190.5 2346.03   2
  10 -10   2 24471.9 3318.59   1
 -10 -10  -2 28121.5 3581.93   2
  11   0   0-242.465 562.125   1
 -11   0   0 172.474 909.113   2
  11   0   1 163712. 5963.71   1
  11   0  -1 166410. 4133.86   1
  11   0   2 2858.57 1250.67   1
   0 -11   3 28076.8 3061.25   1
  11   0   3 33018.4 3527.21   1
  11   0   4 34.0640 1511.89   1
  11  -1   4 12079.1 2445.12   1
  -1 -11   3 1755.99 1187.28   1
  11  -1   3 1378.76 1392.61   1
  11  -1   2 107943. 5531.05   1
 -11   1   1 11410.5 2088.80   2
  11  -1   1 11163.7 1708.39   1
  11   1  -1 10809.0 1055.64   1
  11  -1   0 45687.0 2844.33   1
 -11  -1   0 44217.7 3955.01   2
 -11   1   0 44320.7 3795.84   2
  11   1   0 43551.2 2674.62   1
  11  -1  -1 12648.4 1292.38   1
 -11  -1   1 10025.1 2092.12   2
  11   1   1 12226.3 1743.74   1
  11   1   2 107181. 5492.59   1
  11   1   3 2216.84 1517.58   1
   1 -11   3 923.714 807.848   1
  11   1   4 11582.5 2460.18   1
  11  -2   4 3947.94 1548.63   1
  11  -2   3 51020.1 4375.14   1
  -2 -11   3 49491.5 3756.32   1
  11  -2   2 22121.3 2661.19   1
  11  -2   1 88508.6 4579.72   1
 -11   2   1 87286.2 5295.05   2
  11   2  -1 86653.9 2745.03   1
  11  -2   0 17510.0 1872.40   1
 -11  -2   0 22352.3 2969.22   2
 -11   2   0 16703.1 2342.10   2
  11   2   0 19238.8 1855.42   1
  11  -2  -1 86332.7 3474.94   1
 -11  -2   1 81118.1 5577.65   2
  11   2   1 79594.1 4196.60   1
  11   2   2 17908.5 2404.82   1
   2 -11   3 55016.3 4455.33   1
  11   2   3 50511.7 4348.07   1
   2 -11   4 3636.54 1563.92   1
  11   2   4 352.203 1222.81   1
  11  -3   3 6086.80 1680.50   1
  11  -3   2 61999.4 4366.68   1
  11  -3   1 32250.7 2900.46   1
 -11   3   1 32949.4 3193.73   2
 -11  -3  -1 35063.6 3785.32   2
  11  -3   0 191585. 6178.29   1
 -11  -3   0 190003. 8310.53   2
 -11   3   0 204573. 7663.31   2
  11   3   0 197575. 5615.60   1
 -11  -3   1 27577.5 3325.53   2
  11  -3  -1 28633.4 2155.56   1
  11   3   1 30176.9 2690.41   1
  -3 -11  -1 29702.9 2299.34   2
  -3 -11  -2 59843.1 3428.05   2
  11   3   2 67583.3 4462.22   1
   3 -11   3 8009.44 2093.67   1
  11   3   3 7123.72 1870.19   1
   3 -11   4 12367.7 2586.03   1
  11  -4   3 31027.4 3558.49   1
  11  -4   2 1652.87 1333.05   1
  11  -4   1 140899. 6066.66   1
 -11  -4  -1 157621. 7906.56   2
 -11  -4   0 8702.22 1901.08   2
 -11   4   0 6740.47 1498.46   2
  11   4   0 7176.35 1236.73   1
  11  -4   0 7500.97 1492.02   1
  11  -4  -1 158986. 5310.10   1
  -4 -11  -1 148503. 5415.29   2
  11   4   1 152779. 5901.52   1
  -4 -11  -2 69.4905 524.720   2
  11   4   2 331.687 844.363   1
   4 -11   2 372.943 1041.19   1
   4 -11   3 32145.9 3673.57   1
  11   4   3 28177.7 3282.72   1
   4 -11   4 361.469 1149.19   1
  11  -5   3 11078.6 2392.41   1
  11  -5   2 49144.5 4075.02   1
  11  -5   1 6465.06 1549.87   1
 -11  -5  -1 5461.80 1816.18   2
 -11  -5   0 58620.1 4758.63   2
 -11   5   0 58389.6 3950.42   2
  11  -5   0 64998.8 3944.16   1
  -5 -11  -1 5283.62 1211.75   2
  11   5   1 3531.14 1240.90   1
  11  -5  -1 7479.82 1347.05   1
  -5 -11  -2 56634.7 3905.54   2
   5 -11   2 55635.0 4475.93   1
   5 -11   3 4682.50 1661.28   1
  11   5   3 4923.96 1788.62   1
   5 -11   4 11761.7 2502.12   1
  11  -6   3 36715.5 4076.54   1
  11  -6   2 8525.02 1924.93   1
  11  -6   1 71605.6 4710.59   1
 -11  -6  -1 70363.7 5293.69   2
 -11  -6   0 22182.1 3007.12   2
 -11   6   0 23636.3 2473.60   2
  11  -6   0 20134.2 2374.70   1
  -6 -11  -1 78752.2 4553.05   2
  11  -6  -1 83056.5 4324.46   1
  -6 -11  -2 9440.33 1740.94   2
   6 -11   2 5922.70 1655.76   1
   6 -11   3 36958.6 4054.46   1
  11  -7   3 1315.94 1395.19   1
  11  -7   2 75061.5 5336.93   1
 -11  -7  -1 1204.51 1163.54   2
  11  -7   1-64.9564 965.886   1
 -11  -7   0 81113.9 5613.95   2
 -11   7   0 82133.2 4405.11   2
  11  -7   0 82187.0 4858.53   1
  -7 -11  -1 312.683 637.869   2
  11  -7  -1 1081.92 857.459   1
  -7 -11  -2 62106.4 4604.24   2
   7 -11   2 62375.6 4857.69   1
   7 -11   3 5715.67 1955.05   1
  11  -8   3 10811.9 2376.92   1
  11  -8   2 576.322 826.508   1
 -11  -8  -2 2138.42 1357.54   2
 -11  -8  -1 75449.9 5563.60   2
  11  -8   1 79653.7 5280.54   1
  11  -8   0 1298.13 1057.52   1
 -11  -8   0 2195.94 1251.73   2
  -8 -11  -1 82253.4 5288.97   2
   8 -11   1 71456.9 5005.67   1
  11  -8  -1 80116.1 4817.17   1
  -8 -11  -2 637.409 993.817   2
   8 -11   2-759.066 1006.39   1
   8 -11   3 10858.2 2626.92   1
  11  -9   2 35714.6 3910.31   1
 -11  -9  -2 35541.3 4134.76   2
  11  -9   1 3644.68 1445.83   1
 -11  -9  -1-1113.09 957.261   2
 -11  -9   0 28194.1 3446.28   2
  11  -9   0 35423.7 3606.56   1
   9 -11   1 565.515 910.790   1
  -9 -11  -1 1205.10 955.284   2
  -9 -11  -2 34292.2 3842.50   2
   9 -11   2 36872.1 3992.94   1
  -9 -11  -3 1108.00 660.522   2
 -11 -10  -3 11565.9 1959.44   2
 -11 -10  -2 10801.9 2387.95   2
  11 -10   2 9790.60 2186.47   1
 -11 -10  -1 49689.7 4683.23   2
  11 -10   1 46381.8 4400.86   1
 -11 -10   0 3202.28 1419.13   2
  11 -10   0 5200.48 1673.96   1
 -10 -11  -1 51518.6 4685.95   2
  10 -11   1 47686.6 4353.51   1
  10 -11   2 12040.5 2570.35   1
 -10 -11  -2 13940.4 2617.30   2
 -10 -11  -3 9791.45 1724.27   2
  11 -11   0 9594.59 2260.46   1
 -11 -11  -1 4837.12 1731.07   2
  11 -11   1 4000.19 1606.12   1
 -11 -11  -2 49101.6 4888.29   2
  12   0   0 84528.0 3917.59   1
 -12   0   0 84420.8 5517.91   2
  12   0   1 24904.6 2526.91   1
 -12   0   1 22799.0 3070.31   2
  12   0   2 109646. 5766.62   1
  12   0   3 2845.60 1411.15   1
   0 -12   3 5966.66 1753.21   1
  12  -1   3 9839.58 2171.91   1
  -1 -12   3 13944.1 2290.11   1
  12  -1   2 4545.76 1559.91   1
  12  -1   1 104406. 5050.61   1
 -12   1   1 95930.9 5976.30   2
 -12  -1   0 15632.4 2502.04   2
 -12   1   0 12036.9 2167.10   2
  12  -1   0 10384.0 1503.98   1
  12   1   0 15823.4 1731.12   1
  12  -1  -1 98287.2 3585.01   1
 -12  -1   1 100630. 6411.50   2
  12   1   1 102555. 4945.53   1
  12   1   2 3774.27 1369.32   1
   1 -12   3 13124.7 2391.95   1
  12   1   3 12798.1 2433.63   1
  12  -2   3 2601.12 1274.99   1
  12  -2   2 54446.4 4183.40   1
 -12   2   1 9076.05 1934.16   2
 -12  -2  -1 9631.56 2148.33   2
  12  -2   1 8130.66 1545.48   1
  12  -2   0 85309.4 4141.34   1
 -12  -2   0 89185.8 5850.66   2
 -12   2   0 88079.9 5402.81   2
  12   2   0 87698.4 3930.68   1
  12  -2  -1 8221.78 1216.99   1
  12   2   1 9654.68 1605.98   1
 -12  -2   1 9130.70 2166.08   2
  12   2   2 55050.4 4172.75   1
  12   2   3-632.849 1143.17   1
   2 -12   3 470.822 892.659   1
   2 -12   4 14858.8 2749.66   1
  12  -3   3 40036.9 4087.54   1
  12  -3   2 10685.6 2158.81   1
  12  -3   1 72212.9 4419.63   1
 -12   3   1 75131.7 5015.80   2
 -12  -3  -1 70481.0 5541.64   2
  12  -3   0 9902.92 1603.01   1
 -12  -3   0 7670.26 1964.75   2
 -12   3   0 7210.76 1665.41   2
  12   3   0 7718.76 1232.44   1
 -12  -3   1 78883.1 5815.08   2
  12  -3  -1 83318.7 3816.33   1
  12   3   1 74043.8 4279.31   1
  12   3   2 7263.63 1771.28   1
   3 -12   3 35788.6 3841.35   1
  12   3   3 49985.5 4396.96   1
   3 -12   4 186.650 1279.59   1
  12  -4   3 8001.93 2057.19   1
  12  -4   2 5839.92 1647.05   1
  12  -4   1 9379.61 1774.06   1
 -12  -4  -1 10166.6 2236.87   2
  12  -4   0 170584. 6330.76   1
 -12  -4   0 172410. 8261.05   2
 -12   4   0 172468. 7192.15   2
  12   4   0 168671. 5523.55   1
  -4 -12  -1 12100.5 1656.32   2
  12  -4  -1 8639.80 1366.03   1
  12   4   1 8713.51 1617.78   1
   4 -12   2 5525.67 1808.21   1
  12   4   2 4451.45 1451.02   1
   4 -12   3 11093.3 2567.91   1
  12   4   3 8838.85 2167.69   1
   4 -12   4 19080.9 3209.37   1
  12  -5   3 51856.8 4714.90   1
  12  -5   2 5929.70 1683.20   1
  12  -5   1 48807.7 3883.10   1
 -12  -5  -1 55768.2 4948.34   2
 -12  -5   0 1365.35 1023.47   2
 -12   5   0 63.0726 648.560   2
  12  -5   0-13.3687 673.780   1
  12  -5  -1 46875.2 3188.15   1
  12   5   1 51910.0 3755.00   1
  -5 -12  -1 52856.6 3563.03   2
  12   5   2 10568.3 2004.36   1
   5 -12   2 8425.36 2076.41   1
   5 -12   3 45170.6 4439.96   1
  12   5   3 40337.8 4163.07   1
  12  -6   3 7990.66 2233.36   1
  12  -6   2 18340.1 2791.79   1
  12  -6   1 1115.07 1133.15   1
 -12  -6  -1 2635.63 1568.09   2
 -12  -6   0 124158. 7140.76   2
 -12   6   0 119681. 5777.31   2
  12  -6   0 126867. 5899.93   1
  -6 -12  -1 1301.50 729.248   2
  12  -6  -1 3167.04 947.143   1
   6 -12   2 16328.1 2657.31   1
   6 -12   3 6267.30 1895.87   1
  12  -7   2 1558.61 1292.20   1
 -12  -7  -2-1271.40 1257.42   2
  12  -7   1 50762.8 4237.41   1
 -12  -7  -1 42419.0 4318.11   2
  12  -7   0 1475.33 1033.48   1
 -12  -7   0 3061.77 1390.39   2
  -7 -12  -1 37285.1 3398.24   2
  12  -7  -1 42255.9 3329.98   1
   7 -12   2 240.075 1130.01   1
  -7 -12  -2-410.736 563.529   2
   7 -12   3 13731.0 2709.94   1
  12  -8   2 68449.2 5471.63   1
 -12  -8  -2 68175.4 5876.72   2
 -12  -8  -1 20009.5 3144.02   2
  12  -8   1 24068.9 3122.52   1
 -12  -8   0 16054.3 2780.98   2
  12  -8   0 16801.6 2492.46   1
  -8 -12  -1 26713.9 3131.40   2
   8 -12   1 23406.9 3049.06   1
  12  -8  -1 19901.9 2463.71   1
  -8 -12  -2 74330.0 5190.01   2
   8 -12   2 62222.8 5147.62   1
  12  -9   2 6394.31 2080.22   1
 -12  -9  -2 6018.90 2021.59   2
 -12  -9  -1 79769.3 6035.32   2
  12  -9   1 80619.1 5652.22   1
 -12  -9   0 6016.66 1927.72   2
  12  -9   0 4024.62 1368.66   1
  -9 -12  -1 79884.2 5557.56   2
  12  -9  -1 75730.9 4963.72   1
   9 -12   1 81157.6 5649.84   1
   9 -12   2 1248.44 1329.12   1
  -9 -12  -2 3628.13 1256.13   2
 -12 -10  -2 29865.8 3955.00   2
  12 -10   1-77.3807 1049.83   1
 -12 -10  -1 1626.17 1192.30   2
 -12 -10   0 19068.1 3113.70   2
  12 -10   0 24319.7 3243.06   1
 -10 -12  -1 1690.73 1197.28   2
  12 -10  -1 917.805 1097.90   1
  10 -12   1 998.626 1019.59   1
 -10 -12  -2 32708.8 3789.33   2
 -12 -11  -2 1939.37 1187.77   2
  12 -11   1 22077.1 3214.92   1
 -12 -11  -1 26906.4 3749.07   2
  11 -12   0 2046.82 1317.23   1
  12 -11   0 2143.05 1419.03   1
  11 -12   1 23655.4 3320.78   1
  12 -11  -1 29798.2 3574.65   1
 -11 -12  -1 26413.3 3598.13   2
 -11 -12  -2 3701.20 1427.99   2
  12 -12   0 84260.2 6345.73   1
 -12 -12  -1 4838.37 1684.94   2
  13   0   0 133.357 574.491   1
 -13   0   0 1525.29 1120.43   2
 -13   0   1 67044.6 5314.58   2
 -13   0  -1 74875.6 5695.81   2
  13   0   1 67238.5 4187.78   1
  13   0   2 1522.74 1056.60   1
  13   0   3 1823.57 1474.05   1
   0 -13   3 3852.82 1612.93   1
  13  -1   3 7096.51 1946.36   1
  -1 -13   3 5567.46 1708.36   1
  13  -1   2 106472. 5892.41   1
 -13   1   1 7724.85 1915.41   2
  13  -1   1 7639.35 1542.34   1
 -13  -1  -1 4808.69 1624.35   2
  13  -1   0 39154.1 2873.42   1
 -13  -1   0 40943.1 4073.12   2
 -13   1   0 33165.8 3571.76   2
  13   1   0 38606.1 2746.55   1
  13   1   1 9505.33 1725.21   1
 -13  -1   1 5934.80 1777.17   2
  13   1   2 106523. 5905.78   1
  13   1   3 2229.05 1437.21   1
   1 -13   3 5701.63 1827.17   1
  13  -2   3 27924.5 3560.97   1
  13  -2   2 313.638 1033.63   1
  13  -2   1 91986.2 5021.73   1
 -13   2   1 84475.1 5650.60   2
 -13  -2  -1 93081.6 6507.60   2
 -13  -2   0 5021.22 1701.73   2
 -13   2   0 2269.26 1103.51   2
  13  -2   0 1751.86 780.930   1
  13   2   0 3014.30 888.313   1
 -13  -2   1 95856.6 6597.58   2
  13   2   1 91502.8 4894.96   1
  13   2   2 1539.97 1164.66   1
  13   2   3 26519.3 3384.77   1
   2 -13   3 25528.4 3354.68   1
  13  -3   3 3634.57 1528.09   1
  13  -3   2 20797.7 2865.41   1
 -13   3   1 2278.43 1281.84   2
 -13  -3  -1 2100.12 1337.63   2
  13  -3   1 3831.54 1289.15   1
  13  -3   0 59003.0 3728.22   1
 -13  -3   0 62287.2 5167.86   2
 -13   3   0 53694.2 4343.04   2
  13   3   0 53007.2 3124.54   1
 -13  -3   1 2696.19 1444.87   2
  13   3   1 1667.30 936.867   1
  13   3   2 18554.7 2629.99   1
   3 -13   3 4068.61 1589.00   1
  13   3   3 3517.33 1386.20   1
   3 -13   4 20106.5 3347.11   1
  13  -4   3 27548.5 3507.35   1
  13  -4   2 10249.2 2028.26   1
  13  -4   1 34718.6 3317.33   1
 -13  -4  -1 29937.5 3853.43   2
  13  -4   0 113.558 568.169   1
 -13  -4   0 1413.39 1199.84   2
 -13   4   0 812.472 957.216   2
  13   4   0 1019.25 648.311   1
  13   4   1 39699.3 3287.77   1
  13   4   2 8923.12 1845.27   1
   4 -13   3 30414.9 3888.34   1
  13   4   3 28905.2 3548.11   1
  13  -5   2 10835.5 2291.72   1
  13  -5   1 13656.0 2175.14   1
 -13  -5  -1 7201.16 2138.24   2
 -13  -5   0 166596. 8575.97   2
  13  -5   0 154852. 6472.96   1
 -13   5   0 155069. 7061.83   2
  13   5   1 11779.3 1934.64   1
  13  -5  -1 14249.4 1869.32   1
   5 -13   2 7277.63 1977.75   1
  13   5   2 11590.4 2253.76   1
   5 -13   3 6932.99 2079.55   1
  13   5   3 5779.08 1882.51   1
  13  -6   2-571.939 1175.91   1
 -13  -6  -2-1535.98 1383.93   2
  13  -6   1 32619.8 3430.84   1
 -13  -6  -1 39133.8 4363.64   2
 -13  -6   0 4809.90 1717.32   2
  13  -6   0 3659.02 1214.13   1
  13  -6  -1 36734.2 3071.92   1
   6 -13   2 1004.08 1117.13   1
  13  -7   2 46227.5 4520.04   1
 -13  -7  -2 44290.7 4968.71   2
  13  -7   1 8920.41 2041.62   1
 -13  -7  -1 7336.54 2040.98   2
 -13  -7   0 9535.09 2227.08   2
  13  -7   0 8194.42 1767.94   1
  -7 -13  -1 7846.78 1644.42   2
  13  -7  -1 9473.82 1783.22   1
   7 -13   2 42938.5 4433.35   1
  13  -8   2 4603.24 1752.15   1
 -13  -8  -2 1945.92 1239.20   2
 -13  -8  -1 49623.8 4965.15   2
  13  -8   1 45206.7 4282.68   1
  13  -8   0 3063.88 1247.99   1
 -13  -8   0 607.853 843.962   2
  -8 -13  -1 41001.1 3841.84   2
  13  -8  -1 45698.8 3726.49   1
   8 -13   2 4091.57 2004.13   1
 -13  -9  -2 50238.0 5303.04   2
 -13  -9  -1 3369.32 1530.08   2
  13  -9   1 6709.23 1906.61   1
  13  -9   0 8401.23 1872.78   1
 -13  -9   0 7194.68 1988.77   2
  13  -9  -1 4483.39 1358.47   1
  -9 -13  -1 5373.54 1486.85   2
 -13 -10  -1 34490.7 4280.67   2
  13 -10   1 38055.4 4193.73   1
 -13 -10   0 415.432 1054.07   2
  13 -10   0 1907.48 1318.03   1
 -10 -13  -1 33100.8 3797.64   2
  13 -10  -1 26188.3 3197.82   1
  13 -11   0 51896.9 4777.05   1
  13 -11  -1 4608.30 1894.77   1
 -11 -13  -1 3420.85 1366.35   2
  14   0   0 4455.64 1064.94   1
 -14   0   0 1880.09 1186.27   2
 -14   0   1 22340.3 3269.42   2
  14   0   1 17093.7 2251.72   1
 -14   0  -1 17148.6 2971.99   2
  14   0   2 72645.4 5032.23   1
  14   0   3 164.997 1304.56   1
   0 -14   3 698.346 1020.14   1
  14  -1   3 19293.1 3045.67   1
  14  -1   2-425.172 956.103   1
  14  -1   1 46643.9 3680.75   1
 -14   1   1 42717.5 4298.89   2
 -14  -1  -1 47120.0 4856.03   2
  14   1   0 7849.48 1333.84   1
  14  -1   0 6075.52 1249.76   1
 -14  -1   0 7918.33 2053.75   2
 -14   1   0 8634.22 1983.93   2
 -14  -1   1 45491.6 4656.96   2
 -14   1  -1 48603.0 4687.74   2
  14   1   1 46746.5 3680.63   1
  14   1   2 1143.70 1247.57   1
  14   1   3 14728.4 2767.98   1
   1 -14   3 15986.6 2775.13   1
  14  -2   2 22874.0 2920.45   1
 -14   2   1 5254.08 1759.53   2
  14  -2   1 4614.16 1332.44   1
 -14  -2  -1 6298.70 2159.13   2
  14  -2   0 68243.5 4045.50   1
 -14  -2   0 71594.6 5677.19   2
 -14   2   0 66704.9 5092.86   2
  14   2   1 5954.36 1433.27   1
 -14   2  -1 6458.72 1776.49   2
  14   2   2 17598.3 2582.33   1
   2 -14   3 3547.74 1581.10   1
  14   2   3 5420.44 1792.72   1
  14  -3   2 4900.86 1779.96   1
  14  -3   1 62282.3 4363.12   1
 -14  -3  -1 49577.6 4988.64   2
 -14  -3   0 9264.42 2263.30   2
 -14   3   0 9642.01 1997.96   2
  14  -3   0 9355.94 1659.01   1
 -14   3  -1 59118.4 5086.80   2
  14   3   1 53288.8 3865.98   1
  14   3   2 7391.47 1798.56   1
   3 -14   3 18941.2 3331.82   1
  14  -4   2 15524.4 2573.85   1
 -14  -4  -1 2484.72 1451.83   2
  14  -4   1 2186.48 1168.86   1
  14  -4   0 112275. 5474.80   1
 -14  -4   0 122309. 7574.82   2
 -14   4   0 123927. 6694.81   2
 -14   4  -1 2716.70 1308.54   2
  14   4   1 2261.54 1053.16   1
  14   4   2 12466.9 2296.22   1
   4 -14   3 2222.97 1503.94   1
 -14  -5  -2 2365.04 1588.74   2
  14  -5   2 2239.65 1200.84   1
  14  -5   1 39122.3 3681.65   1
 -14  -5  -1 45465.3 4901.79   2
  14  -5   0 7168.46 1580.89   1
 -14  -5   0 7475.63 2150.94   2
 -14   5   0 6961.39 1704.88   2
 -14   5  -1 40368.9 4191.10   2
  14   5   1 40874.9 3521.26   1
   5 -14   2 1252.85 1269.51   1
  14   5   2-55.8427 1079.90   1
  14  -6   2 27373.7 3604.06   1
 -14  -6  -2 36326.3 4682.32   2
  14  -6   1 6804.24 1792.15   1
 -14  -6  -1 8660.81 2400.58   2
  14  -6   0 38068.4 3455.33   1
 -14  -6   0 29969.7 3931.35   2
 -14   6  -1 3116.09 1471.64   2
   6 -14   2 22053.1 3348.92   1
  14  -7   2 6366.08 1908.74   1
  14  -7   1 61723.2 4928.92   1
 -14  -7  -1 58232.0 5514.74   2
 -14  -7   0-859.504 976.938   2
  14  -7   0-2075.80 1079.22   1
  14  -8   1-2283.89 1374.98   1
 -14  -8  -1 1157.06 1033.71   2
 -14  -8   0 29648.8 3941.04   2
  14  -8   0 22762.8 2891.96   1
  14  -9   1 19859.3 3156.93   1
  14  -9   0 2666.72 1169.19   1
 -14  -9   0-127.365 928.798   2
  14 -10   0 17508.2 2794.53   1
 -15   0   0-69.9213 1039.73   2
 -15   0  -1 32900.5 4051.14   2
  15   0   1 33622.6 3219.45   1
  15   0   2 6686.01 1708.19   1
  15  -1   2 20605.5 2875.73   1
  15  -1   1 1602.02 904.562   1
 -15  -1  -1 758.156 1076.36   2
 -15  -1   0 35614.5 4052.30   2
 -15   1   0 25478.5 3383.58   2
  15   1   1 60.5730 768.285   1
 -15   1  -1 1487.74 1326.46   2
  15   1   2 17606.9 2644.08   1
   1 -15   3 2365.86 1579.69   1
  15  -2   2 6538.70 1756.28   1
  15  -2   1 44414.5 3736.08   1
 -15  -2  -1 39904.8 4601.22   2
 -15   2   0 24442.3 3277.90   2
 -15  -2   0 18559.7 3067.60   2
 -15   2  -1 56380.2 5163.89   2
  15   2   1 49498.9 3911.93   1
  15   2   2 3099.24 1474.69   1
   2 -15   3 11564.2 2599.54   1
  15  -3   2 28139.7 3373.93   1
 -15  -3  -2 26644.9 4092.21   2
 -15  -3  -1 1562.40 1339.78   2
  15  -3   1 2138.92 1070.89   1
 -15  -3   0 52342.1 5145.08   2
 -15   3   0 56694.2 4808.63   2
 -15   3  -1 989.043 1129.77   2
  15   3   1 2279.31 1127.87   1
  15   3   2 24621.8 3214.68   1
  15  -4   2-614.086 1289.81   1
 -15  -4  -1 29716.0 4143.96   2
  15  -4   1 27724.6 3121.27   1
 -15  -4   0-1641.90 1148.78   2
 -15   4   0-914.349 1023.34   2
  15  -4   0-1553.64 860.555   1
 -15   4  -1 27955.6 3724.71   2
  15   4   1 27840.1 2959.64   1
  15   4   2-317.772 677.804   1
  15  -5   2 22848.3 3256.67   1
 -15  -5  -1 2090.58 1475.07   2
  15  -5   1-242.676 804.013   1
  15  -5   0 27225.3 2925.59   1
 -15   5   0 30150.5 3475.19   2
 -15   5  -1 1644.23 1297.98   2
  15   5   2 24569.2 3288.83   1
  15  -6   1 47577.5 4298.80   1
 -15  -6  -1 54975.3 5563.98   2
  15  -6   0 3715.37 1194.96   1
 -15  -6   0 5834.35 1998.83   2
  15  -7   1 3331.57 1323.48   1
  15  -7   0 26574.7 3097.96   1
  15  -8   1 22779.8 3328.57   1
  15  -8   0-1660.05 1138.14   1
  15  -9   0 21094.1 3015.72   1
 -16   0   0 56430.4 5246.40   2
  16   0   1 8457.16 1834.18   1
 -16   0  -1 6652.48 2161.79   2
  16   0   2 612.634 747.401   1
  16  -1   2 20.8344 685.297   1
 -16  -1  -1 38896.6 4713.69   2
  16  -1   1 36798.7 3491.38   1
 -16  -1   0 1871.83 1413.98   2
 -16   1   0 318.396 837.368   2
 -16   1  -1 37429.9 4386.10   2
  16   1   1 36879.8 3498.83   1
  16   1   2-365.616 978.612   1
  16  -2   2 23544.1 3195.84   1
  16  -2   1 239.425 787.676   1
 -16  -2  -1 523.324 1179.89   2
 -16  -2   0 53412.3 5288.42   2
 -16   2   0 53471.5 4943.47   2
 -16   2  -1-1193.63 1221.45   2
  16   2   2 28914.1 3453.56   1
  16  -3   1 17117.8 2472.62   1
 -16  -3  -1 23358.5 3844.20   2
 -16  -3   0 3344.06 1637.00   2
 -16   3   0 1839.64 1132.74   2
 -16   3  -1 18154.0 3094.20   2
  16   3   2 2021.89 1133.01   1
  16  -4   1 14920.8 2460.86   1
 -16  -4   0 3136.23 1881.30   2
 -16   4   0 1100.52 1223.79   2
 -16   4  -1 15505.2 2993.41   2
  16   4   2 36114.3 3832.40   1
  16  -5   1 34336.9 3624.17   1
 -16   5  -1 31970.7 4073.81   2
  16  -6   1-707.025 982.662   1
 -17   0   0 1259.66 1120.69   2
 -17   1   0 40297.7 4520.79   2
 -17   2   0 3992.23 1591.56   2
 -17   2  -1 25700.8 3835.78   2
 -17   3   0 19490.1 3267.54   2
 -17   3  -1 2099.22 1498.94   2
 -17   4  -1 13569.5 2824.95   2
   0   0   0    0.00    0.00   0
TITL AME142_1_ABS in P4(1)2(1)2
REM P4(1)2(1)2 (#92 in standard setting)
CELL 0.71073  13.151215  13.151215   4.377267  90.0000  90.0000  90.0000
ZERR    4.00   0.000451   0.000451   0.000346   0.0000   0.0000   0.0000
LATT -1
SYMM -x,-y, z+1/2
SYMM -y+1/2, x+1/2, z+1/4
SYMM  y+1/2,-x+1/2, z+3/4
SYMM -x+1/2, y+1/2,-z+1/4
SYMM  x+1/2,-y+1/2,-z+3/4
SYMM  y, x,-z
SYMM -y,-x,-z+1/2
SFAC C H N O S
UNIT 20.00 32.00 8.00 8.00 4.00
TREF
HKLF 4
END
;
_shelx_hkl_checksum              30794
loop_
_space_group_symop_operation_xyz
'x, y, z'
'-x, -y, z'
'y, -x, -z'
'-y, x, -z'
'-x+1/2, y+1/2, -z'
'x+1/2, -y+1/2, -z'
'-y+1/2, -x+1/2, z'
'y+1/2, x+1/2, z'
loop_
_atom_site_label
_atom_site_type_symbol
_atom_site_fract_x
_atom_site_fract_y
_atom_site_fract_z
_atom_site_U_iso_or_equiv
_atom_site_adp_type
_atom_site_occupancy
_atom_site_site_symmetry_order
_atom_site_calc_flag
_atom_site_refinement_flags_posn
_atom_site_refinement_flags_adp
_atom_site_refinement_flags_occupancy
_atom_site_disorder_assembly
_atom_site_disorder_group
Ag1 Ag 0.000000 0.500000 0.25710(17) 0.0377(3) Uani 1 4 d S T P . .
S1 S 0.38056(8) 0.88056(8) 1.0307(4) 0.0337(4) Uani 1 2 d S T P . .
N2 N 0.2228(2) 0.7228(2) 0.7954(14) 0.0363(13) Uani 1 2 d S T P . .
C3 C 0.4042(3) 0.7577(3) 0.8589(10) 0.0363(11) Uani 1 1 d . . . . .
H3A H 0.412082 0.765917 0.639947 0.044 Uiso 1 1 calc R U . . .
H3B H 0.467179 0.730166 0.939044 0.044 Uiso 1 1 calc R U . . .
C2 C 0.3190(3) 0.6836(3) 0.9205(11) 0.0368(12) Uani 1 1 d . . . . .
H2A H 0.334765 0.618573 0.827190 0.044 Uiso 1 1 calc R U . . .
H2B H 0.312183 0.673272 1.138928 0.044 Uiso 1 1 calc R U . . .
C1 C 0.1606(3) 0.6606(3) 0.6601(13) 0.0340(15) Uani 1 2 d S T P . .
N1 N 0.1065(3) 0.6065(3) 0.5345(14) 0.0526(15) Uani 1 2 d S T P . .
N3 N 0.500000 0.500000 0.500000 0.0494(18) Uani 1 4 d DS T P . .
O1 O 0.540(2) 0.423(2) 0.389(8) 0.065(8) Uani 0.25 1 d D U P A -1
O2 O 0.4054(8) 0.504(3) 0.514(7) 0.064(7) Uani 0.25 1 d D U P A -1
O3 O 0.552(2) 0.567(3) 0.620(10) 0.105(14) Uani 0.25 1 d D U P A -1
loop_
_atom_site_aniso_label
_atom_site_aniso_U_11
_atom_site_aniso_U_22
_atom_site_aniso_U_33
_atom_site_aniso_U_23
_atom_site_aniso_U_13
_atom_site_aniso_U_12
Ag1 0.0290(3) 0.0290(3) 0.0552(4) 0.000 0.000 0.0035(3)
S1 0.0334(5) 0.0334(5) 0.0341(8) -0.0004(5) -0.0004(5) -0.0108(7)
N2 0.0269(14) 0.0269(14) 0.055(4) -0.0049(19) -0.0049(19) -0.008(2)
C3 0.027(2) 0.029(2) 0.053(3) -0.001(2) -0.0048(19) 0.0010(17)
C2 0.033(2) 0.026(2) 0.051(3) 0.004(2) -0.003(2) -0.0019(17)
C1 0.0324(18) 0.0324(18) 0.037(4) 0.0023(19) 0.0023(19) -0.004(3)
N1 0.0473(19) 0.0473(19) 0.063(4) -0.014(2) -0.014(2) -0.007(3)
N3 0.051(3) 0.051(3) 0.047(5) 0.000 0.000 0.000
O1 0.033(9) 0.070(14) 0.092(18) -0.025(13) 0.010(11) 0.029(10)
O2 0.043(9) 0.069(14) 0.079(15) -0.020(13) -0.014(11) 0.019(12)
O3 0.11(2) 0.11(2) 0.10(2) -0.020(16) -0.013(17) -0.027(16)
loop_
_atom_type_symbol
_atom_type_description
_atom_type_scat_dispersion_real
_atom_type_scat_dispersion_imag
_atom_type_scat_source
C C 0.0033 0.0016 'International Tables Vol C Tables 4.2.6.8 and 6.1.1.4'
H H 0.0000 0.0000 'International Tables Vol C Tables 4.2.6.8 and 6.1.1.4'
N N 0.0061 0.0033 'International Tables Vol C Tables 4.2.6.8 and 6.1.1.4'
S S 0.1246 0.1234 'International Tables Vol C Tables 4.2.6.8 and 6.1.1.4'
Ag Ag -0.8971 1.1015 'International Tables Vol C Tables 4.2.6.8 and 6.1.1.4'
O O 0.0106 0.0060 'International Tables Vol C Tables 4.2.6.8 and 6.1.1.4'
loop_
_geom_angle_atom_site_label_1
_geom_angle_atom_site_label_2
_geom_angle_atom_site_label_3
_geom_angle
_geom_angle_site_symmetry_1
_geom_angle_site_symmetry_3
_geom_angle_publ_flag
N1 Ag1 N1 117.0(3) . 2_565 ?
N1 Ag1 S1 104.94(7) . 3_466 ?
N1 Ag1 S1 104.93(7) 2_565 3_466 ?
N1 Ag1 S1 104.94(7) . 4_656 ?
N1 Ag1 S1 104.93(7) 2_565 4_656 ?
S1 Ag1 S1 120.88(7) 3_466 4_656 ?
C3 S1 C3 97.7(3) 8_455 . ?
C3 S1 Ag1 103.82(15) 8_455 3_566 ?
C3 S1 Ag1 103.82(15) . 3_566 ?
C1 N2 C2 119.3(2) . 8_455 ?
C1 N2 C2 119.3(2) . . ?
C2 N2 C2 117.7(5) 8_455 . ?
C2 C3 S1 112.0(3) . . ?
C2 C3 H3A 109.2 . . ?
S1 C3 H3A 109.2 . . ?
C2 C3 H3B 109.2 . . ?
S1 C3 H3B 109.2 . . ?
H3A C3 H3B 107.9 . . ?
N2 C2 C3 110.2(3) . . ?
N2 C2 H2A 109.6 . . ?
C3 C2 H2A 109.6 . . ?
N2 C2 H2B 109.6 . . ?
C3 C2 H2B 109.6 . . ?
H2A C2 H2B 108.1 . . ?
N1 C1 N2 178.4(7) . . ?
C1 N1 Ag1 177.2(6) . . ?
O3 N3 O3 100.5(17) . 4_656 ?
O3 N3 O1 126.3(12) . 3_566 ?
O3 N3 O1 79.9(14) 4_656 3_566 ?
O3 N3 O1 120.6(9) . . ?
O3 N3 O1 126.3(12) 4_656 . ?
O1 N3 O1 98.8(14) 3_566 . ?
O3 N3 O1 79.9(14) . 2_665 ?
O3 N3 O1 22.3(10) 4_656 2_665 ?
O1 N3 O1 98.8(14) 3_566 2_665 ?
O1 N3 O1 134(4) . 2_665 ?
O3 N3 O2 120.3(9) . . ?
O3 N3 O2 44.6(15) 4_656 . ?
O1 N3 O2 35.4(14) 3_566 . ?
O1 N3 O2 118.6(8) . . ?
O1 N3 O2 63.9(15) 2_665 . ?
loop_
_geom_bond_atom_site_label_1
_geom_bond_atom_site_label_2
_geom_bond_distance
_geom_bond_site_symmetry_2
_geom_bond_publ_flag
Ag1 N1 2.324(6) . ?
Ag1 N1 2.324(6) 2_565 ?
Ag1 S1 2.5537(15) 3_466 ?
Ag1 S1 2.5537(15) 4_656 ?
S1 C3 1.810(4) 8_455 ?
S1 C3 1.810(4) . ?
N2 C1 1.300(7) . ?
N2 C2 1.472(4) 8_455 ?
N2 C2 1.472(4) . ?
C3 C2 1.508(5) . ?
C3 H3A 0.9700 . ?
C3 H3B 0.9700 . ?
C2 H2A 0.9700 . ?
C2 H2B 0.9700 . ?
C1 N1 1.146(7) . ?
N3 O3 1.234(10) . ?
N3 O3 1.234(10) 4_656 ?
N3 O1 1.242(10) 3_566 ?
N3 O1 1.242(10) . ?
N3 O1 1.242(10) 2_665 ?
N3 O2 1.247(10) . ?
loop_
_geom_hbond_atom_site_label_D
_geom_hbond_atom_site_label_H
_geom_hbond_atom_site_label_A
_geom_hbond_distance_DH
_geom_hbond_distance_HA
_geom_hbond_distance_DA
_geom_hbond_angle_DHA
_geom_hbond_site_symmetry_A
_geom_hbond_publ_flag
C2 H2A O1 0.97 2.58 3.29(3) 129.4 2_665 yes
C2 H2A O1 0.97 2.57 3.52(3) 165.4 3_566 yes
C2 H2A O2 0.97 2.24 3.17(2) 160.1 . yes
C2 H2A O3 0.97 2.50 3.29(4) 138.3 4_656 yes
C2 H2B O1 0.97 2.56 3.10(2) 114.8 2_666 yes
C2 H2B O3 0.97 2.49 3.05(2) 116.6 4_657 yes
loop_
_geom_torsion_atom_site_label_1
_geom_torsion_atom_site_label_2
_geom_torsion_atom_site_label_3
_geom_torsion_atom_site_label_4
_geom_torsion
_geom_torsion_site_symmetry_1
_geom_torsion_site_symmetry_2
_geom_torsion_site_symmetry_3
_geom_torsion_site_symmetry_4
_geom_torsion_publ_flag
C3 S1 C3 C2 -54.9(4) 8_455 . . . ?
Ag1 S1 C3 C2 -161.3(3) 3_566 . . . ?
C1 N2 C2 C3 139.6(5) . . . . ?
C2 N2 C2 C3 -62.1(6) 8_455 . . . ?
S1 C3 C2 N2 60.0(4) . . . . ?
loop_
_topol_link.node_label_1
_topol_link.node_label_2
_topol_link.site_symmetry_symop_1
_topol_link.site_symmetry_translation_1_x
_topol_link.site_symmetry_translation_1_y
_topol_link.site_symmetry_translation_1_z
_topol_link.site_symmetry_symop_2
_topol_link.site_symmetry_translation_2_x
_topol_link.site_symmetry_translation_2_y
_topol_link.site_symmetry_translation_2_z
_topol_link.distance
_topol_link.type
H1A C1 1 0 0 0 1 0 0 0 0.970 V
H1B C1 1 0 0 0 1 0 0 0 0.970 V
H2A C2 1 0 0 0 1 0 0 0 0.970 V
H2B C2 1 0 0 0 1 0 0 -1 0.970 V
C1 C2 1 0 0 0 1 0 0 0 1.509 V
C1 S1 1 0 0 0 1 0 0 1 1.809 V
C2 N2 1 0 0 0 1 0 0 0 1.472 V
C3 N2 1 0 0 0 1 0 0 0 1.300 V
C3 N3 1 0 0 0 1 0 0 0 1.147 V
N3 Ag1 1 0 0 0 1 0 0 0 2.323 V
N5 O11 1 0 0 0 1 0 0 0 1.240 V
N5 O12 1 0 0 0 1 0 0 0 1.247 V
N5 O13 1 0 0 0 1 0 0 0 1.233 V
O11 O12 1 0 0 0 2 1 1 0 1.318 V
O11 O12 1 0 0 0 4 1 0 1 0.754 V
O11 O13 1 0 0 0 2 1 1 0 1.582 V
O11 O13 1 0 0 0 3 0 1 1 0.486 V
O12 O13 1 0 0 0 2 1 1 0 1.184 V
O12 O13 1 0 0 0 4 1 0 1 0.935 V
S1 Ag1 1 0 0 0 3 0 1 0 2.554 V
