#------------------------------------------------------------------------------
#$Date: 2021-03-05 03:49:13 +0200 (Fri, 05 Mar 2021) $
#$Revision: 262590 $
#$URL: file:///home/coder/svn-repositories/cod/cif/7/24/21/7242142.cif $
#------------------------------------------------------------------------------
#
# This file is available in the Crystallography Open Database (COD),
# http://www.crystallography.net/
#
# All data on this site have been placed in the public domain by the
# contributors.
#
data_7242142
loop_
_publ_author_name
'Feng, Zhicun'
'Zhang, Yu'
'Li, Yanan'
'Xu, Kangzhen'
_publ_section_title
;
 Adjacent N\\rightarrow O and C--NH2 groups --- a highly efficient
 amphoteric structure for energetic materials resulting from
 tautomerization proved by crystal engineering
;
_journal_issue                   7
_journal_name_full               CrystEngComm
_journal_page_first              1544
_journal_page_last               1549
_journal_paper_doi               10.1039/D0CE01427C
_journal_volume                  23
_journal_year                    2021
_chemical_formula_sum            'C3 H10 N8 O9'
_chemical_formula_weight         302.19
_chemical_name_systematic
'2,4,6-triamino-1,3-dihydroxy-1,3,5-triazine-1,3-diium dinitrate monohydrate'
_space_group_crystal_system      triclinic
_space_group_IT_number           2
_space_group_name_Hall           '-P 1'
_space_group_name_H-M_alt        'P -1'
_atom_sites_solution_hydrogens   difmap
_audit_creation_method           SHELXL-2013
_audit_update_record
;
2020-02-08 deposited with the CCDC.	2021-01-19 downloaded from the CCDC.
;
_cell_angle_alpha                114.164(6)
_cell_angle_beta                 94.456(6)
_cell_angle_gamma                107.497(7)
_cell_formula_units_Z            2
_cell_length_a                   7.448(3)
_cell_length_b                   8.709(4)
_cell_length_c                   10.072(4)
_cell_measurement_reflns_used    2,968
_cell_measurement_temperature    296(2)
_cell_measurement_theta_max      26.088
_cell_measurement_theta_min      2.278
_cell_volume                     553.2(4)
_computing_structure_refinement  'SHELXL-2013 (Sheldrick, 2013)'
_diffrn_ambient_temperature      296(2)
_diffrn_measured_fraction_theta_full 0.986
_diffrn_measured_fraction_theta_max 0.971
_diffrn_measurement_device_type  'Bruker Smart Apex CCD area detector'
_diffrn_measurement_method       'phi and omega scans'
_diffrn_radiation_type           MoK\a
_diffrn_radiation_wavelength     0.71073
_diffrn_reflns_av_R_equivalents  0.0283
_diffrn_reflns_av_unetI/netI     0.0762
_diffrn_reflns_Laue_measured_fraction_full 0.986
_diffrn_reflns_Laue_measured_fraction_max 0.971
_diffrn_reflns_limit_h_max       9
_diffrn_reflns_limit_h_min       -8
_diffrn_reflns_limit_k_max       10
_diffrn_reflns_limit_k_min       -9
_diffrn_reflns_limit_l_max       11
_diffrn_reflns_limit_l_min       -12
_diffrn_reflns_number            2968
_diffrn_reflns_point_group_measured_fraction_full 0.986
_diffrn_reflns_point_group_measured_fraction_max 0.971
_diffrn_reflns_theta_full        25.242
_diffrn_reflns_theta_max         26.088
_diffrn_reflns_theta_min         2.278
_diffrn_source                   'fine-focus sealed tube'
_exptl_absorpt_coefficient_mu    0.177
_exptl_absorpt_correction_T_max  0.964
_exptl_absorpt_correction_T_min  0.932
_exptl_absorpt_correction_type   multi-scan
_exptl_absorpt_process_details   SADABS
_exptl_crystal_colour            colorless
_exptl_crystal_density_diffrn    1.814
_exptl_crystal_density_method    'not measured'
_exptl_crystal_description       block
_exptl_crystal_F_000             312
_exptl_crystal_size_max          0.530
_exptl_crystal_size_mid          0.330
_exptl_crystal_size_min          0.210
_refine_diff_density_max         0.640
_refine_diff_density_min         -0.302
_refine_diff_density_rms         0.070
_refine_ls_extinction_method     none
_refine_ls_goodness_of_fit_ref   1.002
_refine_ls_hydrogen_treatment    refxyz
_refine_ls_matrix_type           full
_refine_ls_number_parameters     211
_refine_ls_number_reflns         2131
_refine_ls_number_restraints     11
_refine_ls_restrained_S_all      1.001
_refine_ls_R_factor_all          0.1059
_refine_ls_R_factor_gt           0.0591
_refine_ls_shift/su_max          0.000
_refine_ls_shift/su_mean         0.000
_refine_ls_structure_factor_coef Fsqd
_refine_ls_weighting_details
;
 w=1/[\s^2^(Fo^2^)+(0.0838P)^2^]
 where P=(Fo^2^+2Fc^2^)/3
;
_refine_ls_weighting_scheme      calc
_refine_ls_wR_factor_gt          0.1427
_refine_ls_wR_factor_ref         0.1732
_reflns_Friedel_coverage         0.000
_reflns_number_gt                1275
_reflns_number_total             2131
_reflns_threshold_expression     'I > 2\s(I)'
_cod_data_source_file            d0ce01427c2.cif
_cod_data_source_block           1_a_CCDC4
_cod_depositor_comments
'Adding full bibliography for 7242134--7242143.cif.'
_cod_original_cell_volume        553.1(4)
_cod_database_code               7242142
_shelx_space_group_comment
;
The symmetry employed for this shelxl refinement is uniquely defined
by the following loop, which should always be used as a source of
symmetry information in preference to the above space-group names.
They are only intended as comments.
;
_shelx_estimated_absorpt_t_min   0.912
_shelx_estimated_absorpt_t_max   0.964
_shelxl_version_number           2013-2
_shelx_res_file
;
TITL 1_a.res in P-1
REM Old TITL Q in P-1
REM SHELXT solution in P-1: R1 0.202, Rweak 0.015, Alpha 0.043
REM <I/s>   0.000 for    0 systematic absences,  Orientation as input
REM Formula found by SHELXT:  C12 N O7
CELL  0.71073   7.4477   8.7087  10.0718  114.164   94.456  107.497
ZERR   2.000   0.0029   0.0035   0.0039    0.006    0.006    0.007
LATT  1
SFAC C H N O
UNIT 6 20 16 18
TEMP 23.000
L.S. 10
BOND
DFIX 0.88 N1 H1 N3 H3 N3 H4 N2 H2 N1 H7 N2 H8
DFIX 0.84 O1 H6 O2 H5 O9 H10 O9 H11
DFIX 1.39 H10 H11
CONF
OMIT 1   0   4
OMIT -6  -3   4
OMIT 0   0   2
OMIT -1   2   4
OMIT 1  -8   9
HTAB O1 O9
HTAB N1 O5
HTAB N1 N7
EQIV $1 -x, -y+1, -z+1
HTAB N1 O8_$1
HTAB O2 N8
HTAB O2 O8
HTAB O2 O7
EQIV $2 -x+1, -y+2, -z+1
HTAB N2 O6_$2
HTAB N2 N8_$2
HTAB N2 O7_$2
EQIV $3 x+1, y+1, z+1
HTAB N2 O3_$3
HTAB N2 O4_$3
EQIV $4 -x+1, -y+1, -z+2
HTAB N3 O9_$4
EQIV $5 x, y, z+1
HTAB N3 O7_$5
HTAB N3 O4_$5
EQIV $6 -x, -y, -z+1
HTAB O9 O3_$6
HTAB O9 N6_$4
EQIV $7 x, y-1, z
HTAB O9 N8_$7
HTAB O9 O8_$7
SIZE 0.53 0.33 0.21
ACTA
LIST 6
FMAP 2
PLAN 20
WGHT    0.083800
FVAR       0.72081
O1    4    0.094595    0.365131    0.774688    11.00000    0.03857    0.03780 =
         0.04414    0.02209    0.00424    0.00546
H6    2    0.146588    0.295878    0.793895    11.00000   -1.20000
N1    3    0.165842    0.409133    0.535467    11.00000    0.03134    0.02993 =
         0.02410    0.01093    0.00204    0.00031
H7    2    0.174543    0.425564    0.456041    11.00000   -1.20000
H1    2    0.079170    0.313025    0.531947    11.00000   -1.20000
C1    1    0.280116    0.523470    0.664750    11.00000    0.02267    0.02594 =
         0.02819    0.01481    0.00258    0.00642
O2    4    0.469707    0.688019    0.560781    11.00000    0.03624    0.03963 =
         0.03491    0.02549    0.00878    0.00893
H5    2    0.401063    0.740572    0.546305    11.00000   -1.20000
N2    3    0.686993    0.931759    0.831972    11.00000    0.04091    0.03099 =
         0.03777    0.01762   -0.00521   -0.00177
H8    2    0.704025    0.944689    0.751208    11.00000   -1.20000
H2    2    0.771690    1.010580    0.915914    11.00000   -1.20000
C2    1    0.545178    0.794479    0.823177    11.00000    0.03113    0.02553 =
         0.03221    0.01024    0.00139    0.00899
N3    3    0.325348    0.601389    1.040401    11.00000    0.04177    0.03739 =
         0.02314    0.01175   -0.00142    0.00078
H4    2    0.390732    0.686260    1.127157    11.00000   -1.20000
H3    2    0.226788    0.509075    1.030609    11.00000   -1.20000
O3    4   -0.088792    0.206587    0.194828    11.00000    0.04591    0.05462 =
         0.08018    0.03740    0.02590    0.01023
C3    1    0.366862    0.629361    0.927279    11.00000    0.03383    0.02995 =
         0.02750    0.01246    0.00486    0.01196
O4    4    0.035462    0.266835    0.028989    11.00000    0.06454    0.06592 =
         0.02544    0.01645    0.00134    0.00913
N4    3    0.256784    0.501849    0.787819    11.00000    0.03120    0.02496 =
         0.02532    0.01396    0.00267    0.00258
O5    4    0.195081    0.414132    0.257645    11.00000    0.04447    0.04002 =
         0.03085    0.01112   -0.00316    0.00004
N5    3    0.427844    0.670442    0.685191    11.00000    0.02918    0.03019 =
         0.02521    0.01618    0.00428    0.00763
N6    3    0.512255    0.773647    0.943911    11.00000    0.03541    0.02821 =
         0.03134    0.01382    0.00216    0.00491
O6    4    0.186435    0.988347    0.407186    11.00000    0.04394    0.05203 =
         0.06789    0.04396    0.00906    0.01309
N8    3    0.266208    0.891697    0.424729    11.00000    0.03070    0.02775 =
         0.03167    0.01197    0.00101   -0.00207
O8    4    0.223767    0.835804    0.522667    11.00000    0.03555    0.03675 =
         0.03476    0.02310    0.00915    0.00574
O9    4    0.245737    0.145315    0.773361    11.00000    0.06827    0.04120 =
         0.02806    0.01349    0.00833    0.02210
H11   2    0.254266    0.123272    0.846485    11.00000   -1.20000
H10   2    0.218923    0.051520    0.692134    11.00000   -1.20000
N7    3    0.047496    0.295313    0.160755    11.00000    0.03832    0.03259 =
         0.03498    0.01637    0.01086    0.01280
O7    4    0.385352    0.848056    0.355271    11.00000    0.03807    0.05036 =
         0.03098    0.01046    0.01272    0.00629
HKLF 4

REM  1_a.res in P-1
REM R1 =  0.0591 for    1275 Fo > 4sig(Fo)  and  0.1059 for all    2131 data
REM    211 parameters refined using     11 restraints

END

WGHT      0.0838      0.0000

REM Highest difference peak  0.640,  deepest hole -0.302,  1-sigma level  0.070
Q1    1   0.5756  0.9006  1.0777  11.00000  0.05    0.64
Q2    1   0.4180  0.9189  0.8753  11.00000  0.05    0.28
Q3    1   0.2815  0.3984  0.1540  11.00000  0.05    0.27
Q4    1   0.0308  0.0199  0.8403  11.00000  0.05    0.25
Q5    1   0.9148  0.8766  0.6943  11.00000  0.05    0.25
Q6    1   0.1501  0.9018  0.2734  11.00000  0.05    0.24
Q7    1   0.2604  0.7503  0.2452  11.00000  0.05    0.24
Q8    1   0.2977  0.2985  0.2461  11.00000  0.05    0.23
Q9    1   0.0787  0.6204  1.0566  11.00000  0.05    0.22
Q10   1   0.1608  1.0540  0.3782  11.00000  0.05    0.22
Q11   1   0.3519  0.8825  0.2474  11.00000  0.05    0.22
Q12   1   0.4588  0.5869  1.0704  11.00000  0.05    0.22
Q13   1   0.1980  0.7209  0.5138  11.00000  0.05    0.21
Q14   1   0.1412  0.5900  1.1898  11.00000  0.05    0.20
Q15   1   0.4749  0.8729  0.5618  11.00000  0.05    0.20
Q16   1   0.5726  0.7402  1.2011  11.00000  0.05    0.20
Q17   1   0.1376  0.2144  0.7578  11.00000  0.05    0.20
Q18   1   0.4648  0.5451  1.1794  11.00000  0.05    0.19
Q19   1   0.0602  0.3387  0.8815  11.00000  0.05    0.19
Q20   1  -0.0622  0.4285  0.3263  11.00000  0.05    0.19
;
_shelx_res_checksum              77362
loop_
_space_group_symop_operation_xyz
'x, y, z'
'-x, -y, -z'
loop_
_atom_site_label
_atom_site_type_symbol
_atom_site_fract_x
_atom_site_fract_y
_atom_site_fract_z
_atom_site_U_iso_or_equiv
_atom_site_adp_type
_atom_site_occupancy
_atom_site_site_symmetry_order
_atom_site_calc_flag
_atom_site_refinement_flags_posn
_atom_site_refinement_flags_adp
_atom_site_refinement_flags_occupancy
_atom_site_disorder_assembly
_atom_site_disorder_group
O1 O 0.0946(4) 0.3651(4) 0.7747(3) 0.0414(8) Uani 1 1 d D . . . .
H6 H 0.147(6) 0.296(5) 0.794(5) 0.050 Uiso 1 1 d D U . . .
N1 N 0.1658(5) 0.4091(4) 0.5355(3) 0.0320(8) Uani 1 1 d D . . . .
H7 H 0.175(5) 0.426(5) 0.456(3) 0.038 Uiso 1 1 d D U . . .
H1 H 0.079(5) 0.313(4) 0.532(4) 0.038 Uiso 1 1 d D U . . .
C1 C 0.2801(5) 0.5235(5) 0.6647(4) 0.0255(8) Uani 1 1 d . . . . .
O2 O 0.4697(4) 0.6880(4) 0.5608(3) 0.0351(7) Uani 1 1 d D . . . .
H5 H 0.401(5) 0.741(5) 0.546(5) 0.042 Uiso 1 1 d D U . . .
N2 N 0.6870(5) 0.9318(5) 0.8320(4) 0.0405(9) Uani 1 1 d D . . . .
H8 H 0.704(6) 0.945(6) 0.751(3) 0.049 Uiso 1 1 d D U . . .
H2 H 0.772(5) 1.011(5) 0.916(3) 0.049 Uiso 1 1 d D U . . .
C2 C 0.5452(5) 0.7945(5) 0.8232(4) 0.0314(9) Uani 1 1 d . . . . .
N3 N 0.3253(5) 0.6014(5) 1.0404(4) 0.0389(9) Uani 1 1 d D . . . .
H4 H 0.391(5) 0.686(4) 1.127(3) 0.047 Uiso 1 1 d D U . . .
H3 H 0.227(4) 0.509(4) 1.031(5) 0.047 Uiso 1 1 d D U . . .
O3 O -0.0888(4) 0.2066(5) 0.1948(4) 0.0592(10) Uani 1 1 d . . . . .
C3 C 0.3669(5) 0.6294(5) 0.9273(4) 0.0307(9) Uani 1 1 d . . . . .
O4 O 0.0355(5) 0.2668(5) 0.0290(3) 0.0578(9) Uani 1 1 d . . . . .
N4 N 0.2568(4) 0.5018(4) 0.7878(3) 0.0284(8) Uani 1 1 d . . . . .
O5 O 0.1951(4) 0.4141(4) 0.2576(3) 0.0449(8) Uani 1 1 d . . . . .
N5 N 0.4278(4) 0.6704(4) 0.6852(3) 0.0278(7) Uani 1 1 d . . . . .
N6 N 0.5123(4) 0.7736(4) 0.9439(3) 0.0336(8) Uani 1 1 d . . . . .
O6 O 0.1864(4) 0.9883(4) 0.4072(4) 0.0500(9) Uani 1 1 d . . . . .
N8 N 0.2662(5) 0.8917(5) 0.4247(4) 0.0342(8) Uani 1 1 d . . . . .
O8 O 0.2238(4) 0.8358(4) 0.5227(3) 0.0351(7) Uani 1 1 d . . . . .
O9 O 0.2457(5) 0.1453(4) 0.7734(3) 0.0463(8) Uani 1 1 d D . . . .
H11 H 0.254(6) 0.123(6) 0.846(3) 0.056 Uiso 1 1 d D U . . .
H10 H 0.219(7) 0.052(4) 0.692(3) 0.056 Uiso 1 1 d D U . . .
N7 N 0.0475(5) 0.2953(5) 0.1608(4) 0.0348(8) Uani 1 1 d . . . . .
O7 O 0.3854(4) 0.8481(4) 0.3553(3) 0.0449(8) Uani 1 1 d . . . . .
loop_
_atom_site_aniso_label
_atom_site_aniso_U_11
_atom_site_aniso_U_22
_atom_site_aniso_U_33
_atom_site_aniso_U_23
_atom_site_aniso_U_13
_atom_site_aniso_U_12
O1 0.0386(17) 0.0378(18) 0.0441(18) 0.0221(15) 0.0042(13) 0.0055(14)
N1 0.0313(18) 0.0299(19) 0.0241(17) 0.0109(16) 0.0020(15) 0.0003(15)
C1 0.0227(19) 0.026(2) 0.028(2) 0.0148(17) 0.0026(16) 0.0064(17)
O2 0.0362(17) 0.0396(17) 0.0349(15) 0.0255(14) 0.0088(13) 0.0089(13)
N2 0.041(2) 0.031(2) 0.038(2) 0.0176(17) -0.0052(17) -0.0018(17)
C2 0.031(2) 0.026(2) 0.032(2) 0.0102(18) 0.0014(17) 0.0090(18)
N3 0.042(2) 0.037(2) 0.0231(18) 0.0118(16) -0.0014(16) 0.0008(17)
O3 0.0459(19) 0.055(2) 0.080(2) 0.037(2) 0.0259(18) 0.0102(17)
C3 0.034(2) 0.030(2) 0.028(2) 0.0125(18) 0.0049(17) 0.0120(19)
O4 0.065(2) 0.066(2) 0.0254(16) 0.0164(16) 0.0013(14) 0.0091(18)
N4 0.0312(18) 0.0250(17) 0.0253(17) 0.0140(14) 0.0027(14) 0.0026(14)
O5 0.0445(18) 0.0400(18) 0.0309(16) 0.0111(14) -0.0032(14) 0.0000(15)
N5 0.0292(17) 0.0302(18) 0.0252(16) 0.0162(14) 0.0043(13) 0.0076(15)
N6 0.0354(19) 0.0282(18) 0.0313(18) 0.0138(15) 0.0022(14) 0.0049(15)
O6 0.0439(18) 0.052(2) 0.068(2) 0.0440(19) 0.0091(16) 0.0131(16)
N8 0.0307(18) 0.0278(19) 0.0317(19) 0.0120(16) 0.0010(15) -0.0021(16)
O8 0.0355(15) 0.0367(16) 0.0348(15) 0.0231(13) 0.0092(12) 0.0057(13)
O9 0.068(2) 0.0412(18) 0.0281(16) 0.0135(14) 0.0083(16) 0.0221(17)
N7 0.038(2) 0.0326(19) 0.035(2) 0.0164(17) 0.0109(16) 0.0128(17)
O7 0.0381(17) 0.050(2) 0.0310(16) 0.0105(14) 0.0127(13) 0.0063(15)
loop_
_atom_type_symbol
_atom_type_description
_atom_type_scat_dispersion_real
_atom_type_scat_dispersion_imag
_atom_type_scat_source
C C 0.0033 0.0016 'International Tables Vol C Tables 4.2.6.8 and 6.1.1.4'
H H 0.0000 0.0000 'International Tables Vol C Tables 4.2.6.8 and 6.1.1.4'
N N 0.0061 0.0033 'International Tables Vol C Tables 4.2.6.8 and 6.1.1.4'
O O 0.0106 0.0060 'International Tables Vol C Tables 4.2.6.8 and 6.1.1.4'
loop_
_geom_angle_atom_site_label_1
_geom_angle_atom_site_label_2
_geom_angle_atom_site_label_3
_geom_angle
_geom_angle_site_symmetry_1
_geom_angle_site_symmetry_3
_geom_angle_publ_flag
N1 C1 N5 122.6(3) . . ?
N1 C1 N4 121.6(3) . . ?
N5 C1 N4 115.8(3) . . ?
N2 C2 N6 121.7(4) . . ?
N2 C2 N5 118.2(3) . . ?
N6 C2 N5 120.2(3) . . ?
N3 C3 N6 122.0(3) . . ?
N3 C3 N4 117.5(3) . . ?
N6 C3 N4 120.4(3) . . ?
C1 N4 C3 122.1(3) . . ?
C1 N4 O1 117.4(3) . . ?
C3 N4 O1 119.3(3) . . ?
C1 N5 C2 122.5(3) . . ?
C1 N5 O2 117.8(3) . . ?
C2 N5 O2 119.6(3) . . ?
C3 N6 C2 118.8(3) . . ?
O6 N8 O7 123.2(3) . . ?
O6 N8 O8 117.9(3) . . ?
O7 N8 O8 118.9(3) . . ?
O4 N7 O3 119.5(4) . . ?
O4 N7 O5 119.5(3) . . ?
O3 N7 O5 121.0(3) . . ?
loop_
_geom_bond_atom_site_label_1
_geom_bond_atom_site_label_2
_geom_bond_distance
_geom_bond_site_symmetry_2
_geom_bond_publ_flag
O1 N4 1.370(4) . ?
N1 C1 1.292(5) . ?
C1 N5 1.339(4) . ?
C1 N4 1.344(4) . ?
O2 N5 1.371(4) . ?
N2 C2 1.301(5) . ?
C2 N6 1.331(5) . ?
C2 N5 1.370(5) . ?
N3 C3 1.300(5) . ?
O3 N7 1.243(4) . ?
C3 N6 1.327(5) . ?
C3 N4 1.369(5) . ?
O4 N7 1.237(4) . ?
O5 N7 1.247(4) . ?
O6 N8 1.224(4) . ?
N8 O7 1.226(4) . ?
N8 O8 1.288(4) . ?
loop_
_geom_hbond_atom_site_label_D
_geom_hbond_atom_site_label_H
_geom_hbond_atom_site_label_A
_geom_hbond_distance_DH
_geom_hbond_distance_HA
_geom_hbond_distance_DA
_geom_hbond_angle_DHA
_geom_hbond_site_symmetry_A
O1 H6 O9 0.881(19) 1.64(2) 2.492(4) 162(4) .
N1 H7 O5 0.872(19) 1.98(2) 2.840(4) 169(4) .
N1 H7 N7 0.872(19) 2.68(3) 3.449(5) 148(3) .
N1 H1 O8 0.875(19) 2.13(3) 2.882(4) 144(3) 2_566
O2 H5 N8 0.822(19) 2.48(2) 3.256(5) 157(4) .
O2 H5 O8 0.822(19) 1.81(2) 2.621(4) 172(4) .
O2 H5 O7 0.822(19) 2.47(3) 3.051(4) 129(3) .
N2 H8 O6 0.879(19) 2.06(2) 2.916(5) 166(4) 2_676
N2 H8 N8 0.879(19) 2.68(3) 3.499(5) 156(4) 2_676
N2 H8 O7 0.879(19) 2.65(3) 3.309(5) 132(3) 2_676
N2 H2 O3 0.87(2) 2.54(2) 3.371(5) 159(4) 1_666
N2 H2 O4 0.87(2) 2.25(3) 3.016(5) 146(4) 1_666
N3 H4 O9 0.86(2) 2.54(3) 3.167(5) 130(3) 2_667
N3 H4 O7 0.86(2) 2.16(3) 2.915(5) 147(4) 1_556
N3 H3 O4 0.874(19) 2.15(2) 3.011(5) 167(4) 1_556
O9 H11 O3 0.836(18) 2.60(4) 3.093(4) 119(3) 2_556
O9 H11 N6 0.836(18) 2.29(3) 2.941(4) 135(4) 2_667
O9 H10 N8 0.840(19) 2.59(2) 3.342(5) 150(4) 1_545
O9 H10 O8 0.840(19) 1.97(2) 2.787(4) 165(5) 1_545
loop_
_geom_torsion_atom_site_label_1
_geom_torsion_atom_site_label_2
_geom_torsion_atom_site_label_3
_geom_torsion_atom_site_label_4
_geom_torsion
_geom_torsion_site_symmetry_1
_geom_torsion_site_symmetry_2
_geom_torsion_site_symmetry_3
_geom_torsion_site_symmetry_4
_geom_torsion_publ_flag
N1 C1 N4 C3 -174.6(4) . . . . ?
N5 C1 N4 C3 5.2(5) . . . . ?
N1 C1 N4 O1 -7.1(5) . . . . ?
N5 C1 N4 O1 172.6(3) . . . . ?
N3 C3 N4 C1 175.8(4) . . . . ?
N6 C3 N4 C1 -5.4(6) . . . . ?
N3 C3 N4 O1 8.6(5) . . . . ?
N6 C3 N4 O1 -172.7(3) . . . . ?
N1 C1 N5 C2 177.9(4) . . . . ?
N4 C1 N5 C2 -1.8(5) . . . . ?
N1 C1 N5 O2 -7.0(5) . . . . ?
N4 C1 N5 O2 173.2(3) . . . . ?
N2 C2 N5 C1 179.0(4) . . . . ?
N6 C2 N5 C1 -1.4(6) . . . . ?
N2 C2 N5 O2 4.0(5) . . . . ?
N6 C2 N5 O2 -176.4(3) . . . . ?
N3 C3 N6 C2 -179.3(4) . . . . ?
N4 C3 N6 C2 1.9(6) . . . . ?
N2 C2 N6 C3 -179.1(4) . . . . ?
N5 C2 N6 C3 1.3(6) . . . . ?
