#------------------------------------------------------------------------------
#$Date: 2021-09-06 13:32:23 +0300 (Mon, 06 Sep 2021) $
#$Revision: 268688 $
#$URL: file:///home/coder/svn-repositories/cod/cif/7/24/27/7242768.cif $
#------------------------------------------------------------------------------
#
# This file is available in the Crystallography Open Database (COD),
# http://www.crystallography.net/
#
# All data on this site have been placed in the public domain by the
# contributors.
#
data_7242768
loop_
_publ_author_name
'Rather, Sumair A.'
'Saha, Binoy K.'
_publ_section_title
;
 Understanding the elastic bending mechanism in a 9,10-anthraquinone
 crystal through thermal expansion study
;
_journal_issue                   34
_journal_name_full               CrystEngComm
_journal_page_first              5768
_journal_page_last               5773
_journal_paper_doi               10.1039/D1CE00467K
_journal_volume                  23
_journal_year                    2021
_chemical_formula_moiety         'C14 H8 O2'
_chemical_formula_sum            'C14 H8 O2'
_chemical_formula_weight         208.20
_chemical_name_common            Anthraquinone
_chemical_name_systematic        9,10-Anthracenedione
_space_group_crystal_system      monoclinic
_space_group_IT_number           14
_space_group_name_Hall           '-P 2ybc'
_space_group_name_H-M_alt        'P 1 21/c 1'
_atom_sites_solution_hydrogens   geom
_audit_creation_date             2021-03-31
_audit_creation_method
;
Olex2 1.3-alpha
(compiled 2019.09.11 svn.r3662 for OlexSys, GUI svn.r5938)
;
_audit_update_record
;
2021-04-06 deposited with the CCDC.	2021-05-03 downloaded from the CCDC.
;
_cell_angle_alpha                90
_cell_angle_beta                 102.719(13)
_cell_angle_gamma                90
_cell_formula_units_Z            2
_cell_length_a                   7.8868(10)
_cell_length_b                   3.9718(5)
_cell_length_c                   15.822(2)
_cell_measurement_reflns_used    378
_cell_measurement_temperature    283
_cell_measurement_theta_max      29.0606
_cell_measurement_theta_min      3.2018
_cell_volume                     483.46(11)
_computing_cell_refinement
;
CrysAlisPro, Agilent Technologies,
Version 1.171.36.21 (release 14-08-2012 CrysAlis171 .NET)
(compiled Sep 14 2012,17:21:16)
;
_computing_data_collection
;
CrysAlisPro, Agilent Technologies,
Version 1.171.36.21 (release 14-08-2012 CrysAlis171 .NET)
(compiled Sep 14 2012,17:21:16)
;
_computing_data_reduction
;
CrysAlisPro, Agilent Technologies,
Version 1.171.36.21 (release 14-08-2012 CrysAlis171 .NET)
(compiled Sep 14 2012,17:21:16)
;
_computing_molecular_graphics    'Olex2 1.3-alpha (Dolomanov et al., 2009)'
_computing_publication_material  'Olex2 1.3-alpha (Dolomanov et al., 2009)'
_computing_structure_refinement  'ShelXL 2018/3 (Sheldrick, 2015)'
_computing_structure_solution    'ShelXS n/a (Sheldrick, 2008)'
_diffrn_ambient_temperature      283
_diffrn_detector_area_resol_mean 15.9821
_diffrn_measured_fraction_theta_full 0.978
_diffrn_measured_fraction_theta_max 0.830
_diffrn_measurement_details
;
#__ type_ start__ end____ width___ exp.time_
  1 omega   35.00   96.00   1.0000    2.0000
omega____ theta____ kappa____ phi______ frames
    -       19.6835  178.0000   60.0000 61

#__ type_ start__ end____ width___ exp.time_
  2 omega    6.00   92.00   1.0000    2.0000
omega____ theta____ kappa____ phi______ frames
    -       19.6835   37.0000   90.0000 86

#__ type_ start__ end____ width___ exp.time_
  3 omega   -1.00   86.00   1.0000    2.0000
omega____ theta____ kappa____ phi______ frames
    -       19.6835   57.0000 -180.0000 87
;
_diffrn_measurement_device_type  'Xcalibur, Eos'
_diffrn_measurement_method       '\w scans'
_diffrn_radiation_type           MoK\a
_diffrn_radiation_wavelength     0.71073
_diffrn_reflns_av_R_equivalents  0.0337
_diffrn_reflns_av_unetI/netI     0.0614
_diffrn_reflns_Laue_measured_fraction_full 0.978
_diffrn_reflns_Laue_measured_fraction_max 0.830
_diffrn_reflns_limit_h_max       10
_diffrn_reflns_limit_h_min       -8
_diffrn_reflns_limit_k_max       5
_diffrn_reflns_limit_k_min       -4
_diffrn_reflns_limit_l_max       13
_diffrn_reflns_limit_l_min       -21
_diffrn_reflns_number            2223
_diffrn_reflns_point_group_measured_fraction_full 0.978
_diffrn_reflns_point_group_measured_fraction_max 0.830
_diffrn_reflns_theta_full        25.000
_diffrn_reflns_theta_max         29.125
_diffrn_reflns_theta_min         3.302
_exptl_absorpt_coefficient_mu    0.096
_exptl_absorpt_correction_T_max  1.00000
_exptl_absorpt_correction_T_min  0.67357
_exptl_absorpt_correction_type   multi-scan
_exptl_absorpt_process_details
;
CrysAlisPro, Agilent Technologies,
Version 1.171.36.21 (release 14-08-2012 CrysAlis171 .NET)
(compiled Sep 14 2012,17:21:16)
Empirical absorption correction using spherical harmonics,
 implemented in SCALE3 ABSPACK scaling algorithm.
;
_exptl_crystal_colour            yellow
_exptl_crystal_colour_primary    yellow
_exptl_crystal_density_diffrn    1.430
_exptl_crystal_description       block
_exptl_crystal_F_000             216
_exptl_crystal_size_max          0.62
_exptl_crystal_size_mid          0.26
_exptl_crystal_size_min          0.16
_refine_diff_density_max         0.153
_refine_diff_density_min         -0.167
_refine_diff_density_rms         0.043
_refine_ls_extinction_method     none
_refine_ls_goodness_of_fit_ref   1.005
_refine_ls_hydrogen_treatment    constr
_refine_ls_matrix_type           full
_refine_ls_number_parameters     73
_refine_ls_number_reflns         1086
_refine_ls_number_restraints     0
_refine_ls_restrained_S_all      1.005
_refine_ls_R_factor_all          0.1200
_refine_ls_R_factor_gt           0.0572
_refine_ls_shift/su_max          0.000
_refine_ls_shift/su_mean         0.000
_refine_ls_structure_factor_coef Fsqd
_refine_ls_weighting_details
'w=1/[\s^2^(Fo^2^)+(0.0649P)^2^] where P=(Fo^2^+2Fc^2^)/3'
_refine_ls_weighting_scheme      calc
_refine_ls_wR_factor_gt          0.1209
_refine_ls_wR_factor_ref         0.1616
_reflns_Friedel_coverage         0.000
_reflns_number_gt                569
_reflns_number_total             1086
_reflns_threshold_expression     'I > 2\s(I)'
_cod_data_source_file            d1ce00467k2.cif
_cod_data_source_block           anthraquinone-283k
_cod_depositor_comments
'Adding full bibliography for 7242759--7242768.cif.'
_cod_original_cell_volume        483.47(11)
_cod_database_code               7242768
_shelx_shelxl_version_number     2018/3
_shelx_space_group_comment
;
The symmetry employed for this shelxl refinement is uniquely defined
by the following loop, which should always be used as a source of
symmetry information in preference to the above space-group names.
They are only intended as comments.
;
_olex2_refinement_description
;
1. Fixed Uiso
 At 1.2 times of:
  All C(H) groups
2.a Aromatic/amide H refined with riding coordinates:
 C5(H5), C3(H3), C6(H6), C4(H4)
;
_shelx_res_file
;
TITL BKS-SS-DI-ANTH-283-SS in P21/c #14
    anthraquinone-283k.res
    created by SHELXL-2018/3 at 17:43:29 on 31-Mar-2021
REM reset to P21/c #14
CELL 0.71073 7.886785 3.971824 15.822407 90 102.719 90
ZERR 2 0.000964 0.00051 0.00233 0 0.0128 0
LATT 1
SYMM -X,0.5+Y,0.5-Z
SFAC C H O
UNIT 28 16 4

L.S. 4
PLAN  5
CONF
BOND $H
HTAB
MORE -1
fmap 2
acta 50
REM <olex2.extras>
REM <HklSrc "%.\\Anthraquinone-283K.hkl">
REM </olex2.extras>

WGHT    0.064900
FVAR      13.72832
C2    1    0.436897    0.653180    0.415458    11.00000    0.04291    0.04630 =
         0.04344   -0.00343    0.00774   -0.00363
C7    1    0.326520    0.639455    0.473489    11.00000    0.03818    0.04554 =
         0.04623   -0.00534    0.00594   -0.00304
C1    1    0.615646    0.513255    0.439269    11.00000    0.04303    0.05734 =
         0.04576   -0.00458    0.01394   -0.00350
C5    1    0.101807    0.913735    0.367675    11.00000    0.04748    0.06079 =
         0.06759   -0.00698   -0.00325    0.00409
AFIX  43
H5    2   -0.009908    1.002121    0.351950    11.00000   -1.20000
AFIX   0
O1    3    0.712462    0.521699    0.388574    11.00000    0.06053    0.11797 =
         0.06175    0.01512    0.03010    0.01205
C3    1    0.376888    0.797834    0.333638    11.00000    0.06131    0.05904 =
         0.04626    0.00175    0.01219   -0.00139
AFIX  43
H3    2    0.449516    0.808145    0.294693    11.00000   -1.20000
AFIX   0
C6    1    0.159117    0.770336    0.448685    11.00000    0.04345    0.05775 =
         0.06347   -0.00461    0.01278   -0.00100
AFIX  43
H6    2    0.085034    0.761314    0.486946    11.00000   -1.20000
AFIX   0
C4    1    0.209854    0.925476    0.310560    11.00000    0.06671    0.05842 =
         0.05141   -0.00154   -0.00050    0.00442
AFIX  43
H4    2    0.170503    1.019887    0.255972    11.00000   -1.20000
AFIX   0
HKLF 4




REM  BKS-SS-DI-ANTH-283-SS in P21/c #14
REM wR2 = 0.1616, GooF = S = 1.005, Restrained GooF = 1.005 for all data
REM R1 = 0.0572 for 569 Fo > 4sig(Fo) and 0.1200 for all 1086 data
REM 73 parameters refined using 0 restraints

END

WGHT      0.0649      0.0000

REM No hydrogen bonds found for HTAB generation

REM Highest difference peak  0.153,  deepest hole -0.167,  1-sigma level  0.043
Q1    1   0.1103  0.8798  0.5577  11.00000  0.05    0.15
Q2    1   0.4004  1.1823  0.3412  11.00000  0.05    0.13
Q3    1   0.4600  0.9911  0.5216  11.00000  0.05    0.13
Q4    1   0.4805  0.9351  0.5024  11.00000  0.05    0.13
Q5    1   0.2164  1.1667  0.5011  11.00000  0.05    0.12
;
_shelx_res_checksum              39555
_shelx_hkl_file
;
   0   0  -3-28.8364 106.498   2
   0   0   3 23.3659 77.7398   2
   0   0  -4 207144. 3121.16   2
   0   0   4 206190. 2989.75   2
   0   0   5-239.081 145.268   2
   0   0  -5-47.0114 157.511   2
   0   0   6 1200.01 305.187   2
   0   0  -6 939.067 330.592   2
   0   0  -7 15.9051 195.889   2
   0   0  -8 21979.0 1516.38   2
   0   0  -9 0.74155 185.975   2
   0   0 -10 685.504 394.355   2
   0   0 -11 255.113 335.952   2
   0   0 -12 780.704 345.908   2
   0   0 -13 165.319 334.961   2
   0   0 -14 4335.51 934.483   2
   0   0 -15-138.991 260.077   2
   0   0 -16 1555.01 639.783   2
   0   0 -17-577.756 640.510   2
   0   0 -18 869.187 593.232   2
   0   0 -19 22.2896 449.519   2
   0   0 -20 1.09874 401.924   2
   0   1   0-197.415 139.075   1
   0   1  -1 166047. 2551.18   1
   0   1   1 164556. 2289.63   3
   0   1   1 162721. 2640.37   1
   0   1  -1 163834. 2299.84   2
   0   1   2 569688. 3266.59   2
   0   1   2 569394. 4262.91   3
   0  -1  -2 571779. 4202.71   3
   0   1   2 580197. 5098.27   1
   0   1  -2 576494. 4913.77   2
   0   1  -2 569953. 4646.05   1
   0   1   3 178381. 2915.34   1
   0   1  -3 181438. 3140.47   2
   0   1   3 183844. 2590.80   3
   0   1   3 185215. 2010.91   2
   0  -1  -3 186653. 2566.61   3
   0  -1   3 187650. 3125.96   2
   0   1  -3 185895. 2541.85   1
   0   1   4 26510.0 901.607   2
   0  -1  -4 26360.4 1070.99   3
   0   1  -4 29113.0 1398.27   2
   0  -1   4 27008.0 1306.31   2
   0   1   4 27325.4 1094.60   3
   0   1  -4 26259.4 936.122   1
   0   1   4 26516.5 1138.26   1
   0  -1  -4 24353.2 961.206   2
   0   1   5 142448. 2742.04   3
   0   1   5 141168. 2392.18   2
   0  -1   5 138306. 3217.24   2
   0   1   5 139266. 2660.19   1
   0  -1  -5 141846. 2718.75   3
   0   1  -5 144515. 3384.08   2
   0   1  -5 138247. 2123.60   1
   0  -1  -5 137770. 2573.28   2
   0   1   6 44928.5 1536.55   1
   0  -1  -6 44497.4 1634.23   2
   0   1   6 44824.4 1526.20   2
   0   1   6 44894.4 1716.73   3
   0   1  -6 43880.5 1127.59   1
   0  -1  -6 46832.3 1763.41   3
   0  -1  -7 25927.0 1408.41   2
   0   1  -7 22083.9 779.246   1
   0   1   7 24682.4 1231.69   2
   0  -1  -7 26158.4 1427.18   3
   0   1  -7 23668.7 1596.72   2
   0   1   7 24793.2 1172.98   1
   0  -1  -8 14559.3 1176.07   2
   0   1   8 15886.2 963.445   1
   0   1  -8 15105.8 1369.14   2
   0   1  -9 6111.63 926.198   2
   0  -1  -9 6502.10 825.656   2
   0   1   9 5698.03 590.500   1
   0   1  10 2586.65 419.697   1
   0  -1 -10 2415.39 565.721   2
   0   1 -10 2300.09 614.746   2
   0   1  11-138.662 139.294   1
   0  -1 -11 178.367 320.837   2
   0   1 -11 314.324 526.302   2
   0  -1 -12 1441.95 512.755   2
   0   1 -12 1232.68 519.475   2
   0  -1 -13-70.0432 357.047   2
   0   1 -13 208.350 276.761   2
   0   1 -14 840.452 429.746   2
   0  -1 -14 981.190 458.657   2
   0   1 -15 1217.12 613.276   2
   0  -1 -15 1388.94 623.667   2
   0   1 -16-438.904 625.508   2
   0  -1 -16-260.921 288.774   2
   0   1 -17-399.533 393.770   2
   0  -1 -17 333.358 420.964   2
   0   1 -18-317.335 365.972   2
   0  -1 -18-2442.12 827.529   2
   0   1 -19 459.124 684.447   2
   0  -1 -19 201.953 289.048   2
   0  -1 -20 670.758 543.965   2
   0   2   0 11543.8 727.956   2
   0   2   1 14291.1 1002.13   3
   0   2  -1 15785.7 926.787   2
   0   2   2 2935.83 434.694   3
   0   2  -2 2940.40 437.681   2
   0   2  -3 30493.3 1531.17   2
   0   2   3 29285.3 1363.72   3
   0   2  -4 19689.6 1347.37   2
   0   2   4 20331.8 761.749   2
   0   2   4 22704.1 1233.11   3
   0   2  -5 62128.7 2536.88   2
   0   2   5 68897.2 2242.14   3
   0  -2  -5 65091.9 2111.76   3
   0   2   5 64078.2 1433.12   2
   0  -2  -6 7421.60 746.722   3
   0   2   6 8226.40 848.141   3
   0   2  -6 5849.26 840.178   2
   0   2   6 7013.88 525.760   2
   0  -2  -7 5314.65 664.016   3
   0   2   7 5165.84 700.780   3
   0   2  -7 4042.98 558.020   1
   0   2  -7 4468.34 781.602   2
   0   2   7 4769.59 488.277   2
   0   2  -8 5303.33 881.752   2
   0   2   8 5326.96 565.478   2
   0   2  -8 4537.10 580.909   1
   0   2   8 5171.15 761.488   3
   0  -2  -9 38.9823 145.725   2
   0   2  -9-273.687 179.637   1
   0   2   9-257.729 270.630   3
   0  -2 -10 2076.26 498.349   2
   0   2 -10 3641.64 869.406   2
   0  -2 -11 869.337 362.602   2
   0   2 -11 414.811 280.573   2
   0  -2 -12 2285.77 628.234   2
   0   2 -12 4164.80 973.959   2
   0   2 -13 2847.48 789.978   2
   0  -2 -13 3015.75 696.793   2
   0   2 -14 554.344 495.412   2
   0  -2 -14-22.0678 309.225   2
   0   2 -15 5543.50 1273.94   2
   0  -2 -15 2688.90 725.543   2
   0   2 -16 5337.64 1218.08   2
   0   2 -17-306.034 592.606   2
   0   3   0-154.664 146.768   2
   0   3   0 49.2501 98.5743   3
   0   3   1 108.228 135.320   3
   0   3   1 163.817 89.9924   2
   0   3  -1 205.508 141.352   2
   0   3   2 6769.71 537.535   2
   0   3  -2 6921.34 793.693   2
   0   3   2 6556.28 826.617   3
   0   3   3 3822.01 624.107   3
   0   3   3 4625.94 376.988   2
   0   3  -3 4300.19 659.669   2
   0   3   4 471.535 104.822   2
   0   3  -4 789.157 346.195   2
   0   3   4 757.441 314.195   3
   0   3  -5 1046.32 433.111   2
   0   3   5 595.409 302.228   3
   0   3   6 709.288 289.516   3
   0   3  -6 547.386 294.559   2
   0   3  -7 101.561 297.809   2
   0   3   7-114.500 163.735   3
   0   3   8 1150.33 368.076   3
   0   3  -8 1265.16 422.042   2
   0   3   9 2839.58 596.643   3
   0   3  -9 1725.91 649.038   2
   0   3 -10 607.186 437.488   2
   0   3 -11 804.264 439.250   2
   0   3 -12 1470.23 624.843   2
   0   3 -13 77.6193 374.857   2
   0   3 -14 484.068 518.381   2
   0   3 -15 246.950 411.263   2
   0   4   0 106.588 242.177   3
   0   4  -1 389.481 366.605   3
   0   4   1 631.352 369.415   3
   0   4   2 278.901 276.399   3
   0   4  -2-172.515 312.212   3
   0   4  -5 22.1953 188.671   2
   0   4  -6-197.297 407.167   2
   0   4  -7 471.589 384.231   2
   0   4  -8 522.280 300.286   2
   0   4  -9 62.5369 418.104   2
   0   4 -10 1289.86 680.377   2
   0   4 -11 212.750 373.521   2
   0   4 -12 63.2442 442.804   2
   0   4 -13 610.089 495.905   2
   1   0 -20 3150.05 885.458   2
   1   0 -19 176.038 456.753   2
   1   0 -18 1466.09 787.497   2
   1   0 -17 38.9916 337.710   2
   1   0 -16-660.386 572.498   2
   1   0 -15-104.578 336.808   2
   1   0 -14 1295.90 506.131   2
   1   0 -13 45.9824 437.662   2
   1   0 -12 27770.5 2143.40   2
   1   0 -11 147.741 293.861   2
   1   0 -10 190.925 253.595   2
   1   0  -9-253.601 332.788   2
   1   0  -8 20624.8 1467.71   2
   1   0  -8 19065.7 621.331   1
   1   0  -7 136.925 72.1425   1
   1   0  -7-3.47854 193.872   2
   1   0  -6 85781.4 2557.80   2
   1   0  -6 84633.8 1354.02   1
  -1   0   6 85044.7 2373.20   2
  -1   0   5-60.3245 114.635   2
   1   0  -5-163.943 98.7643   1
   1   0  -5-10.1384 231.281   2
  -1   0   4 91886.4 2098.53   2
   1   0  -4 93854.0 2186.00   2
   1   0  -4 90051.1 1518.04   1
  -1   0   3-58.5270 172.032   2
   1   0  -3 314.972 161.207   2
  -1   0   2 300515. 3174.07   2
  -1   0  -1 77.4217 74.3181   3
  -1   0  -2 11953.7 697.872   3
   1   0   2 11218.4 661.286   3
  -1   0  -3 119.174 114.865   2
  -1   0  -3-34.5166 140.972   3
   1   0   3-81.6429 132.746   3
  -1   0  -4 39163.3 1457.45   2
  -1   0  -4 40039.8 1642.01   3
  -1   0  -5-103.983 151.615   2
  -1   0  -5-104.830 264.850   3
  -1   0  -6 281397. 4694.11   2
   1   0   6 288322. 4517.27   2
  -1   0  -7-224.872 311.011   2
  -1   0  -8 188860. 4487.44   2
  -1   0  -9-124.515 196.290   2
   1   0  10 7473.01 425.350   1
  -1   0 -10 8160.95 1065.02   2
  -1   0 -11-93.5309 347.194   2
   1   0  11-17.5392 31.0652   1
  -1   0 -12 5839.49 1020.95   2
  -1   0 -13-308.982 311.148   2
  -1   0 -14 1859.48 682.231   2
  -1   0 -15-624.516 615.498   2
  -1   0 -16 6360.28 1298.88   2
  -1   0 -17 103.686 391.183   2
  -1   0 -18 464.643 491.710   2
  -1   0 -19-465.713 506.436   2
   1  -1 -21 378.230 602.452   2
   1  -1 -20 1431.64 743.742   2
   1   1 -19 692.925 504.029   2
   1  -1 -19 2170.34 853.898   2
   1  -1 -18 43.4642 309.737   2
   1   1 -18-133.883 329.861   2
   1   1 -17 736.928 450.211   2
   1  -1 -17 69.5744 384.090   2
   1   1 -16 69.0137 472.562   2
   1  -1 -16 288.469 341.193   2
   1  -1 -15 18593.0 2047.13   2
   1   1 -15 22001.6 2309.17   2
   1  -1 -14 20847.3 1997.18   2
   1   1 -14 21361.3 2195.52   2
   1   1 -13 1633.80 698.445   2
   1  -1 -13 2479.76 705.122   2
   1   1 -12 3050.84 796.602   2
   1  -1 -12 2661.54 667.007   2
   1   1 -11 2843.44 747.011   2
   1  -1 -11 3210.19 757.561   2
  -1   1  11 3055.76 525.220   1
   1  -1 -10 487.206 318.715   2
   1   1 -10 824.097 340.953   2
  -1   1  10 377.515 207.996   1
   1  -1  -9 3567.54 649.912   2
   1  -1  -9 4050.83 621.952   3
   1   1  -9 3458.14 264.385   1
  -1   1   9 3287.10 494.138   1
   1   1  -9 3344.78 688.090   2
   1   1  -8 8012.95 460.447   1
   1  -1  -8 8564.22 813.750   3
  -1   1   8 7753.59 712.895   1
   1   1  -8 6719.90 880.765   2
   1  -1  -8 7519.94 866.946   2
   1   1  -7 1562.86 381.927   2
   1  -1  -7 2095.82 358.985   3
  -1   1   7 1529.09 367.060   2
  -1   1   7 2002.26 361.673   1
   1  -1  -7 1394.30 340.135   2
   1  -1  -7 1868.59 369.682   1
  -1   1   6 16280.0 975.465   1
   1  -1  -6 17735.1 894.222   3
   1  -1  -6 17048.1 1012.78   1
   1   1  -6 13789.5 1104.92   2
  -1   1   6 16020.3 1020.41   2
   1  -1  -6 13696.0 1060.89   2
  -1   1   5 450.909 197.076   1
   1  -1  -5 71.2633 73.1476   3
   1  -1  -5 209.456 150.524   1
  -1  -1   5 161.047 130.994   2
  -1   1   5 93.7304 114.263   2
   1   1  -5-40.4132 197.141   2
  -1  -1   4 4515.19 522.928   2
   1   1  -4 3711.90 496.426   2
   1  -1  -4 3480.72 280.960   3
   1  -1  -4 4441.41 508.430   1
  -1   1   4 4551.57 496.154   2
  -1   1   4 4382.62 494.828   1
   1   1  -3 69533.4 1883.69   2
  -1  -1   3 73341.6 1933.67   2
  -1   1   3 73482.1 1956.10   1
   1  -1  -3 72517.9 1990.01   1
   1  -1  -2 431.618 219.253   1
   1   1  -2 624.468 215.778   2
  -1   1   2 126.013 116.843   1
  -1  -1   2 215.384 111.612   2
  -1   1   1 1354.87 294.414   1
   1  -1  -1 803.056 246.948   1
  -1  -1   1 1013.78 180.363   2
   1   1  -1 1030.00 178.489   2
  -1   1   0 459835. 4690.57   1
  -1  -1   0 457202. 2673.83   2
   1   1   0 453519. 4900.20   3
   1  -1   0 460444. 4779.84   1
   1   1   0 458751. 2804.08   2
   1  -1   1 985155. 6898.97   1
   1   1   1 995037. 7204.94   3
  -1   1  -1 992487. 6815.11   1
  -1  -1  -2 93841.1 2210.62   3
  -1   1  -2 94119.7 2087.65   1
   1  -1   2 97572.9 2128.98   1
   1   1   2 93689.4 2287.65   3
  -1   1  -3 30848.8 1206.00   1
  -1   1  -3 30499.1 1461.21   2
   1   1   3 29217.4 1342.50   3
  -1  -1  -3 31508.8 1346.35   3
  -1  -1  -3 29059.7 785.075   2
   1  -1   3 30039.4 1158.35   1
   1   1   4 186.197 142.703   3
  -1  -1  -4 345.648 192.125   3
  -1  -1  -4 534.288 150.635   2
  -1   1  -4 463.296 189.112   2
  -1   1  -4 538.484 222.231   1
   1  -1   4 760.246 190.777   1
   1  -1   5 103587. 2033.27   1
  -1   1  -5 99744.7 3026.25   2
  -1  -1  -5 105393. 2815.50   3
   1   1   5 103962. 2801.72   3
  -1  -1  -5 105794. 2191.56   2
   1  -1   6 25461.0 973.819   1
  -1   1  -6 24472.1 1595.67   2
   1   1   6 26012.6 1495.16   3
  -1  -1  -6 25692.0 1220.38   2
   1   1   6 24831.5 1146.57   2
  -1   1  -7 15084.3 1362.77   2
  -1  -1  -7 16716.0 1110.36   2
   1   1   7 16172.7 1286.92   3
   1   1   7 15695.6 1007.82   2
   1  -1   7 16936.4 745.791   1
   1   1   8 18265.2 1442.66   3
   1  -1   8 20332.0 786.066   1
  -1  -1  -8 18736.6 1274.00   2
  -1   1  -8 20129.5 1637.62   2
  -1  -1  -9 6190.53 813.297   2
  -1   1  -9 5795.18 951.588   2
  -1   1 -10 19546.0 1805.73   2
  -1  -1 -10 19436.2 1510.89   2
  -1   1 -11-45.5679 309.470   2
  -1  -1 -11-398.019 406.763   2
  -1   1 -12-33.8799 407.684   2
  -1  -1 -12 650.714 396.804   2
  -1   1 -13 2144.24 789.658   2
  -1  -1 -13 2159.64 618.799   2
  -1  -1 -14 1912.25 675.621   2
  -1   1 -14 3196.37 875.647   2
  -1  -1 -15 1051.86 456.585   2
  -1   1 -15 2299.55 854.237   2
  -1  -1 -16 348.822 462.263   2
  -1   1 -16-135.105 532.415   2
  -1   1 -17-2217.32 872.399   2
  -1  -1 -17-887.329 700.551   2
  -1   1 -18 186.957 463.933   2
  -1  -1 -18 123.484 372.538   2
  -1  -1 -19 105.907 410.436   2
   1   2 -18 618.574 496.240   2
   1   2 -17 6926.45 1508.04   2
   1  -2 -16 5930.65 1134.68   2
   1   2 -16 9746.70 1694.21   2
   1   2 -15 3545.92 1044.57   2
   1  -2 -15 2501.02 736.127   2
   1   2 -14 201.024 419.442   2
   1  -2 -14 494.478 375.760   2
   1   2 -13-5.26964 335.316   2
   1  -2 -13 985.289 468.186   2
   1   2 -12 599.993 465.441   2
   1   2 -11 1544.34 565.206   2
   1   2 -10 685.330 205.113   1
   1   2 -10 327.329 294.449   2
   1   2  -9 2244.01 659.070   2
   1  -2  -9 1871.44 380.733   3
   1   2  -9 1538.61 346.486   1
   1   2  -8 5143.94 853.282   2
   1  -2  -8 5280.87 580.198   3
   1   2  -8 4772.88 596.916   1
   1   2  -7 2093.77 566.943   2
   1  -2  -7 2297.86 356.358   3
  -1   2   7 2788.07 457.862   2
  -1   2   7 2345.20 376.962   3
  -1   2   6 18410.0 1129.44   2
   1   2  -6 16526.5 1348.97   2
  -1   2   6 18428.1 955.886   3
   1  -2  -6 17099.9 897.469   3
   1   2  -5 4282.23 633.917   2
  -1   2   5 2751.35 439.790   2
   1  -2  -5 4371.76 708.837   1
  -1   2   5 5146.74 478.686   3
  -1   2   4 19549.6 897.125   3
   1   2  -4 21726.8 1311.67   2
   1  -2  -4 20739.8 1477.34   1
  -1   2   3 1774.31 273.527   3
   1  -2  -3 1676.41 426.887   1
   1   2  -3 1865.33 355.440   2
  -1  -2   3 1991.14 376.133   2
  -1   2   2 4187.00 436.647   3
   1   2  -2 5392.57 541.240   2
   1  -2  -2 5227.59 734.183   1
   1  -2  -1 14231.3 1219.58   1
   1   2  -1 16333.3 827.439   2
   1  -2   0 372.138 215.015   1
   1   2   0 90.4877 151.172   3
   1   2   0 258.894 116.837   2
   1  -2   1 6554.86 783.399   1
   1   2   1 8090.58 842.632   3
   1   2   2 163248. 3747.73   3
   1  -2   2 153939. 3726.51   1
  -1   2  -2 161257. 3646.29   2
  -1   2  -3 176819. 4152.52   2
   1   2   3 188894. 4063.89   3
   1  -2   3 184390. 4005.27   1
   1  -2   4 82601.8 2623.74   1
  -1   2  -4 81897.1 2954.16   2
   1   2   4 81940.2 2746.57   3
   1   2   5 4376.90 664.109   3
   1  -2   5 4433.42 606.661   1
  -1   2  -5 3833.37 663.690   2
   1   2   6 5194.13 779.350   3
  -1   2  -6 5434.68 882.351   2
   1  -2   6 5718.08 679.362   1
  -1  -2  -7 410.598 200.527   2
  -1   2  -7 461.928 288.555   2
   1   2   7 597.927 259.870   3
   1   2   8-90.1737 237.839   3
  -1  -2  -8 238.090 192.609   2
  -1   2  -8 132.873 270.706   2
  -1   2  -9 288.337 251.931   2
  -1  -2  -9 185.580 181.190   2
   1   2   9 90.1790 232.452   3
   1   2  10 957.999 442.334   3
  -1   2 -10 1711.17 620.784   2
  -1  -2 -10 1095.71 359.693   2
  -1  -2 -11-659.877 337.722   2
  -1   2 -11-305.120 482.535   2
  -1  -2 -12 3798.43 704.588   2
  -1   2 -12 3664.89 935.653   2
  -1   2 -13-118.739 448.258   2
  -1  -2 -13-400.611 277.664   2
  -1   2 -14-599.908 463.520   2
  -1   2 -15 67.7645 434.139   2
  -1   2 -16 627.960 461.044   2
  -1   2 -17-365.698 516.970   2
   1   3 -16 699.331 530.752   2
   1   3 -15 242.093 591.569   2
   1   3 -14-1.89781 575.892   2
   1   3 -13-186.651 494.017   2
   1   3 -12-360.761 645.925   2
   1   3 -11 4257.47 1009.55   2
   1   3 -10 2279.68 778.681   2
   1   3  -9 3661.83 857.895   2
   1   3  -8 1014.21 493.431   2
   1   3  -7 1553.41 508.283   2
   1   3  -6 255.132 202.255   2
  -1   3   6-3.53863 187.066   3
   1   3  -5 2304.21 525.613   2
  -1   3   5 1591.18 340.055   3
   1   3  -4 10427.2 1026.14   2
  -1   3   4 10453.9 846.382   3
   1   3  -3 23285.9 1437.92   2
  -1   3   3 22742.9 1287.84   3
  -1   3   2 299.877 220.999   3
   1   3  -2 510.160 203.286   2
   1   3  -1 3535.25 718.742   3
   1   3  -1 4300.10 500.625   2
  -1   3   1 3834.90 606.759   3
   1   3   0 518.988 164.229   2
   1   3   0 349.330 183.838   3
  -1   3   0 178.019 106.078   2
   1   3   1 142.765 77.9716   2
  -1   3  -1 304.667 196.342   2
   1   3   1 216.166 250.080   3
  -1   3  -2 5109.21 784.704   2
   1   3   2 5764.05 874.806   3
  -1   3  -3 922.033 334.545   2
   1   3   3 1066.25 424.354   3
  -1   3  -4 9281.08 1097.29   2
   1   3   4 10265.9 1145.03   3
   1   3   5 8677.14 1062.25   3
  -1   3  -5 9957.10 1250.31   2
   1   3   6 15351.5 1424.65   3
  -1   3  -6 14218.5 1515.21   2
   1   3   7 347.269 239.973   3
  -1   3  -7 795.626 474.767   2
  -1   3  -8 56.4960 254.147   2
   1   3   8-280.917 341.583   3
   1   3   9 1229.04 461.524   3
  -1   3  -9 1481.04 556.208   2
  -1   3 -10 837.407 485.219   2
   1   3  10 1206.16 476.713   3
  -1   3 -11 449.315 316.663   2
   1   3  11 210.919 208.929   3
  -1   3 -12-44.0533 482.441   2
  -1   3 -13 142.811 524.514   2
  -1   3 -14-56.2847 443.613   2
  -1   3 -15 1714.37 864.208   2
   1   4 -13-1722.51 787.091   2
   1   4 -12 1492.96 649.156   2
   1   4 -11-1633.99 678.408   2
   1   4 -10 1000.12 539.460   2
   1   4  -9 543.887 372.101   2
   1   4  -8 263.525 340.884   2
   1   4  -3 1299.77 532.330   3
   1   4  -2 3174.66 865.597   3
   1   4  -1 3628.36 848.769   3
   1   4   0-1074.91 475.565   3
  -1   4   0-319.920 352.309   3
  -1   4  -1-217.141 221.621   3
   1   4   1-42.7935 256.278   3
   1   4   2 44.9172 251.243   3
  -1   4  -3 32.5680 164.875   2
   1   4   3 305.503 191.105   3
  -1   4  -4-333.219 336.396   2
   1   4   4-141.801 332.823   3
  -1   4  -5 2857.58 746.414   2
  -1   4  -6-6.49187 284.746   2
  -1   4  -7 47.5904 434.536   2
  -1   4  -8-47.6647 204.136   2
  -1   4  -9 286.856 368.256   2
  -1   4 -10 304.328 466.488   2
  -1   4 -11 198.195 299.443   2
  -1   4 -12 47.3407 457.845   2
   1   5  -7 231.328 431.415   3
   1   5  -6-1616.50 810.728   3
   1   5  -5 956.675 585.248   3
   2   0 -20 818.151 670.613   2
   2   0 -19-886.216 717.329   2
   2   0 -18 2212.76 897.306   2
   2   0 -17-213.043 405.525   2
   2   0 -16-436.494 510.458   2
   2   0 -15-314.697 517.801   2
   2   0 -14 134837. 5372.58   2
   2   0 -13-73.9781 409.497   2
   2   0 -12 52724.1 1313.40   1
   2   0 -12 56891.3 3149.36   2
   2   0 -11-109.770 71.3234   1
   2   0 -11 400.263 403.019   2
   2   0 -10 28277.6 1997.43   2
   2   0 -10 29035.2 1119.35   1
   2   0  -9-14.6587 90.7540   1
   2   0  -9-245.096 297.510   2
   2   0  -8 927.634 393.543   2
   2   0  -8 905.974 237.593   1
   2   0  -7 191.123 212.290   2
   2   0  -7-40.1956 135.746   1
   2   0  -6 1448.62 402.326   2
   2   0  -5 122.916 244.843   2
  -2   0   5 188.901 138.356   2
   2   0  -4 71215.8 2252.94   2
  -2   0   4 82044.4 2320.94   2
  -2   0   3-655.469 240.294   2
  -2   0   2 113608. 2089.42   3
   2   0  -2 110929. 2098.07   3
   2   0  -1 335.880 166.197   3
  -2   0   1 152.092 118.870   3
   2   0   0 163017. 2721.50   3
  -2   0   0 165823. 2720.67   3
   2   0   1-213.480 152.031   3
  -2   0  -1-31.3515 145.014   3
   2   0   2 68278.4 1976.88   3
  -2   0  -2 65515.6 1988.10   3
  -2   0  -3 56.3401 146.638   3
   2   0   3 66.9491 150.954   3
   2   0   4 30072.6 1568.96   3
  -2   0  -5 388.925 232.788   2
   2   0   5-289.033 206.851   3
  -2   0  -6 10799.2 1029.85   2
  -2   0  -7-1.35388 169.780   2
  -2   0  -8 3155.48 595.007   2
  -2   0  -9-186.474 300.401   2
  -2   0 -10 120.888 262.368   2
  -2   0 -11-255.354 280.751   2
  -2   0 -12 128.880 302.480   2
  -2   0 -13 21.8143 257.987   2
  -2   0 -14 6888.47 1226.84   2
  -2   0 -15-672.255 607.331   2
  -2   0 -16 1938.56 663.919   2
  -2   0 -17-14.4680 388.324   2
  -2   0 -18 597.815 489.087   2
  -2   0 -19 791.705 655.120   2
   2  -1 -21-575.802 571.951   2
   2  -1 -20-16.4669 507.445   2
   2   1 -19 3448.17 1146.26   2
   2  -1 -19 5097.93 1343.57   2
   2  -1 -18 651.993 418.895   2
   2   1 -18 17.3745 504.686   2
   2   1 -17 828.498 546.648   2
   2  -1 -17 1353.88 715.132   2
   2   1 -16 10131.0 1639.45   2
   2  -1 -16 8802.30 1535.66   2
   2  -1 -15 8620.73 1452.53   2
   2   1 -15 9179.89 1531.75   2
   2   1 -14 3631.96 913.382   2
   2  -1 -14 3685.44 931.888   2
   2  -1 -13 10376.5 1422.45   2
   2   1 -13 7725.28 1237.03   2
   2   1 -12 26883.1 2250.41   2
   2  -1 -12 31187.9 2309.48   2
   2  -1 -11 18773.5 1716.11   2
   2   1 -11 17443.9 1735.93   2
   2  -1 -11 18683.8 1242.54   1
   2  -1 -10 7714.06 845.297   3
   2  -1 -10 7298.47 1011.90   2
   2  -1 -10 7452.23 772.695   1
   2   1 -10 6678.36 1005.06   2
   2   1  -9 6743.14 974.331   2
   2  -1  -9 8306.74 790.949   3
   2  -1  -9 8473.13 1033.17   2
   2  -1  -9 7548.33 777.391   1
   2  -1  -8 7398.52 907.470   2
   2   1  -8 7013.50 918.104   2
   2  -1  -8 9312.00 842.830   1
   2  -1  -8 8505.54 709.279   3
   2  -1  -7 27761.6 1125.81   3
   2   1  -7 22488.2 1571.19   2
   2  -1  -7 24280.8 1354.86   1
  -2   1   6 52062.2 1970.13   1
   2   1  -6 47147.8 2107.99   2
   2  -1  -6 51256.8 1283.91   3
   2  -1  -6 53779.8 1988.31   1
  -2   1   5 24439.1 1454.03   2
  -2   1   5 21188.4 1294.88   1
   2   1  -5 20622.6 1276.58   2
  -2  -1   5 21657.8 1282.60   2
   2  -1  -5 21076.3 1227.52   1
   2  -1  -4 448.733 253.980   1
  -2   1   4 631.242 284.298   1
   2   1  -4 308.373 232.951   2
  -2  -1   4 231.715 140.255   2
  -2   1   3 6403.06 679.017   1
  -2  -1   3 6074.75 572.028   2
   2   1  -3 6026.92 602.803   2
   2  -1  -3 5111.36 591.488   1
  -2   1   2 3833.17 500.787   1
   2   1  -2 3540.24 541.701   3
   2   1  -2 3184.94 429.302   2
  -2   1   2 2417.13 208.560   3
  -2  -1   2 3154.09 383.833   2
   2  -1  -2 3517.83 490.607   1
  -2  -1   1 6575.40 528.810   2
  -2   1   1 5796.83 426.323   3
   2   1  -1 6954.19 732.166   3
  -2   1   1 8059.31 758.982   1
   2  -1  -1 6415.71 669.869   1
   2  -1   0 5318.61 593.978   1
  -2   1   0 6635.78 686.263   1
  -2   1   0 6072.30 506.236   3
  -2  -1   0 5061.43 451.450   2
   2   1   0 4746.92 619.474   3
  -2  -1   0 5140.72 586.774   3
   2   1   1 40433.7 1771.91   3
   2  -1   1 41454.9 1656.31   1
  -2   1  -1 42819.2 1556.22   3
  -2  -1  -1 44075.8 1738.94   3
   2  -1   2 5392.21 607.628   1
   2   1   2 4389.95 610.145   3
  -2   1  -2 5669.36 625.374   3
  -2  -1  -2 4593.77 585.872   3
   2   1   3 4419.85 688.265   3
  -2   1  -3 4807.38 619.010   3
   2  -1   3 4396.34 527.557   1
  -2  -1  -4 163.452 99.9630   2
   2  -1   4-215.843 194.367   1
   2  -1   5 41123.2 1566.83   1
  -2  -1  -5 39701.6 1469.33   2
   2   1   5 35988.0 1922.80   3
  -2   1  -5 38993.8 2072.35   2
   2   1   6 802.223 327.775   3
   2  -1   6 1067.57 258.501   1
  -2   1  -6 853.724 386.085   2
  -2  -1  -6 719.605 228.251   2
   2   1   7 22996.1 1670.98   3
  -2   1  -7 24909.0 1838.69   2
   2  -1   7 22632.7 1123.92   1
  -2  -1  -7 24944.8 1385.38   2
  -2  -1  -8 7741.77 821.513   2
  -2   1  -8 7302.36 1029.26   2
   2   1   8 8158.67 1071.71   3
   2  -1   8 8213.74 644.388   1
  -2  -1  -9 24910.1 1626.91   2
  -2   1  -9 30042.9 2214.42   2
   2   1   9 24893.0 1918.24   3
   2  -1   9 25589.6 1087.58   1
   2  -1  10 124.126 111.391   1
  -2  -1 -10-48.9564 264.789   2
  -2   1 -10 12.9726 225.148   2
  -2   1 -11 211.259 345.446   2
  -2  -1 -11-266.299 271.403   2
  -2  -1 -12 3327.02 704.951   2
  -2   1 -12 4337.67 953.814   2
  -2  -1 -13-55.8967 357.685   2
  -2   1 -13-125.004 419.860   2
  -2   1 -14 256.605 388.663   2
  -2  -1 -14-557.878 448.347   2
  -2   1 -15 144.456 478.794   2
  -2  -1 -15 69.6027 278.407   2
  -2   1 -16 2172.35 862.904   2
  -2  -1 -16 1360.25 557.782   2
  -2   1 -17 2047.89 839.073   2
  -2  -1 -17 34.3968 480.459   2
  -2  -1 -18 329.932 395.022   2
  -2   1 -18 472.180 578.995   2
   2   2 -18 1156.03 689.088   2
   2   2 -17 1789.90 801.754   2
   2   2 -16 30.7596 339.169   2
   2   2 -15 1189.83 736.052   2
   2   2 -14 758.166 529.637   2
   2   2 -13 49.4984 381.277   2
   2   2 -12 237.452 328.091   2
   2   2 -11 945.173 472.806   2
   2  -2 -10 3550.27 664.233   1
   2   2 -10 4055.17 853.397   2
   2   2  -9 26408.2 2016.35   2
   2  -2  -9 23719.0 1767.35   1
   2  -2  -9 22671.6 978.826   3
   2  -2  -8 1131.30 187.609   3
   2  -2  -8 1580.88 464.265   1
   2   2  -8 1335.14 486.767   2
   2  -2  -7 316.895 212.819   1
   2   2  -7-230.622 276.606   2
   2   2  -6 6023.23 806.864   2
   2  -2  -6 5096.63 798.491   1
   2  -2  -5 414.033 189.330   1
   2   2  -5 516.904 246.240   2
   2  -2  -4 19165.3 1468.95   1
   2   2  -4 18857.4 1254.25   2
  -2  -2   4 17936.4 1201.40   2
  -2   2   3 1976.02 208.200   3
   2  -2  -3 2993.59 579.843   1
   2   2  -3 3238.51 466.946   2
  -2  -2   3 3627.17 494.291   2
   2   2  -2 29806.7 1295.61   2
   2   2  -2 31970.5 1929.14   3
   2  -2  -2 27944.1 1747.49   1
  -2  -2   2 29304.5 1239.76   2
   2   2  -1 24244.0 1080.45   2
  -2  -2   1 23290.0 957.760   2
   2  -2  -1 20600.7 1493.80   1
   2   2  -1 22821.6 1623.48   3
   2  -2   0 13517.6 1176.61   1
   2   2   0 15807.0 1342.98   3
   2   2   1 56840.5 2529.19   3
   2  -2   1 55374.1 2378.23   1
   2   2   2 79667.5 3018.57   3
   2  -2   2 84371.0 2872.33   1
   2  -2   3 690.486 304.692   1
   2   2   3 168.562 201.640   3
   2   2   4 1152.25 449.797   3
   2  -2   4 1077.05 332.430   1
  -2   2  -4 1295.96 415.425   2
   2   2   5 275.638 231.437   3
   2  -2   5 386.040 166.268   1
  -2   2  -5 337.304 233.742   2
  -2   2  -6 68.1722 163.226   2
   2   2   6 31.0883 192.750   3
  -2  -2  -6 234.584 100.097   2
   2   2   7-205.382 315.611   3
   2  -2   7-68.7792 221.082   1
  -2   2  -7-137.081 186.447   2
  -2  -2  -7 229.052 129.888   2
   2   2   8 342.580 289.135   3
   2  -2   8 420.425 187.475   1
  -2   2  -8-53.5191 287.172   2
  -2  -2  -8 270.266 159.726   2
   2  -2   9 5055.27 649.867   1
  -2   2  -9 4923.76 931.089   2
   2   2   9 5060.99 936.531   3
  -2  -2  -9 4382.90 570.258   2
   2  -2  10 14079.7 1070.39   1
  -2  -2 -10 10894.0 1005.87   2
  -2   2 -10 14782.1 1784.88   2
   2   2  10 15443.0 1704.98   3
  -2   2 -11 3387.98 919.354   2
  -2  -2 -11 1950.79 453.021   2
   2   2  11 3561.28 866.422   3
  -2   2 -12 149.592 306.006   2
  -2   2 -13 2077.34 834.662   2
  -2   2 -14 363.833 340.604   2
  -2   2 -15 206.274 434.108   2
  -2   2 -16-260.432 760.112   2
   2   3 -16 1139.90 652.486   2
   2   3 -15-102.291 485.956   2
   2   3 -14 126.941 388.640   2
   2   3 -13 12.8119 500.223   2
   2   3 -12 632.030 343.971   2
   2   3 -11 2163.64 707.838   2
   2   3 -10 347.522 485.162   2
   2   3  -9-275.174 380.248   2
   2   3  -8 6.90058 214.974   2
   2   3  -7 1013.34 397.446   2
   2   3  -6 711.100 379.727   2
   2  -3  -5 2076.42 635.335   1
   2   3  -5 2672.54 543.739   2
   2   3  -4 2088.63 473.233   2
   2  -3  -4 1803.81 578.118   1
  -2   3   4 1213.11 237.731   3
   2   3  -3 14402.9 1072.70   2
  -2   3   3 11523.1 774.370   3
   2  -3  -3 12893.6 1478.73   1
   2   3  -3 11408.7 1364.37   3
  -2   3   2 14049.1 972.763   3
   2   3  -2 13006.8 934.633   2
   2   3  -2 12929.8 1436.65   3
   2  -3  -2 13739.7 1501.34   1
   2  -3  -1 2108.85 636.682   1
   2   3  -1 2266.21 628.102   3
   2   3  -1 2294.08 365.539   2
   2   3   0 1361.24 496.275   3
   2  -3   0 854.786 356.615   1
   2  -3   1 26.6167 237.876   1
   2   3   1-214.682 286.339   3
   2   3   2 5134.33 904.519   3
  -2   3  -2 6357.76 912.978   2
   2  -3   2 6463.61 1009.30   1
   2   3   3 28831.3 2078.17   3
  -2   3  -3 25545.5 1954.41   2
   2  -3   3 26699.2 2011.23   1
  -2   3  -4 21773.6 1814.77   2
   2  -3   4 20447.0 1715.13   1
   2   3   4 18159.1 1682.23   3
  -2   3  -5 45469.1 2737.33   2
   2  -3   5 40720.7 2421.50   1
   2   3   5 40672.9 2520.74   3
  -2   3  -6 4685.98 927.622   2
   2   3   6 5328.04 944.434   3
   2  -3   6 3915.06 781.288   1
   2   3   7 330.100 291.183   3
  -2   3  -7 705.671 442.904   2
   2   3   8 346.152 363.330   3
  -2   3  -8-192.438 225.700   2
  -2   3  -9 873.792 519.954   2
   2   3   9 535.306 324.124   3
  -2   3 -10-810.371 618.177   2
   2   3  10 97.8892 319.453   3
  -2   3 -11-314.487 429.611   2
   2   3  11-62.9545 242.819   3
  -2   3 -12 2898.27 909.098   2
   2   3  12 3238.86 866.507   3
  -2   3 -13 772.079 358.133   2
  -2   3 -14-639.169 450.724   2
   2   4 -14-531.005 472.992   2
   2   4 -13-35.5975 676.541   2
   2   4 -12 1931.60 804.455   2
   2   4 -11-472.536 530.945   2
   2   4  -5 861.502 420.485   3
   2   4  -4 2945.25 846.855   3
   2   4  -3 837.550 435.841   3
   2   4  -2 1584.29 643.114   3
   2   4  -1 195.981 236.131   3
   2   4   0 42.1771 217.980   3
   2   4   1-118.295 313.213   3
  -2   4  -1 20.1960 168.219   2
   2   4   2 269.733 215.031   3
  -2   4  -2 1311.98 438.631   2
   2   4   3 11148.2 1501.86   3
  -2   4  -3 10242.0 1376.71   2
  -2   4  -4 15053.2 1680.24   2
   2   4   4 14373.8 1670.08   3
  -2   4  -5 265.320 317.929   2
   2   4   5 529.773 427.415   3
   2   4   6 8050.99 1252.21   3
  -2   4  -6 8171.92 1356.71   2
  -2   4  -7 5255.81 1094.80   2
  -2   4  -8-90.9281 345.440   2
  -2   4  -9-241.301 401.011   2
  -2   4 -10 257.890 267.152   2
  -2   4 -11 250.239 404.584   2
   2   5  -6-1225.54 694.028   3
   2   5  -5-634.906 523.436   3
   2   5  -4 247.775 339.298   3
   2   5  -3-1309.84 697.048   3
   2   5  -2 126.263 384.277   3
   3   0 -20 698.127 462.789   2
   3   0 -19-959.971 746.117   2
   3   0 -18 3270.92 1007.33   2
   3   0 -17 269.484 367.742   2
   3   0 -16 1113.40 596.321   2
   3   0 -15-929.701 631.702   2
   3   0 -14 23293.8 2277.99   2
   3   0 -13-23.1092 140.728   1
   3   0 -13-18.0858 495.738   2
   3   0 -12 2981.39 458.963   1
   3   0 -12 2189.98 676.142   2
   3   0 -11-165.860 167.349   1
   3   0 -11-484.512 536.180   2
   3   0 -10 3498.24 522.636   1
   3   0 -10 4264.78 866.308   2
   3   0  -9 176.976 205.865   1
   3   0  -9 561.041 426.354   2
   3   0  -8 66132.1 2904.24   2
   3   0  -7-333.113 240.955   2
   3   0  -4 20748.5 1112.46   3
   3   0  -3 31.5456 149.389   3
  -3   0   2 86127.4 2232.48   3
   3   0  -2 86030.1 2318.34   3
  -3   0   1 49.6173 113.679   3
   3   0  -1 453.534 219.719   3
   3   0   0 18096.5 1121.64   3
  -3   0   0 18056.3 1093.19   3
  -3   0  -1-7.05569 150.394   3
   3   0   1-192.377 161.878   3
   3   0   2 278259. 4781.73   3
   3   0   3-320.854 258.009   3
   3   0   4 135.792 220.789   3
   3   0   5-87.6973 265.653   3
  -3   0  -6 37969.4 2094.14   2
   3   0   6 34525.9 2051.03   3
   3   0   7-264.405 267.365   3
  -3   0  -7-263.402 292.041   2
  -3   0  -8 1901.47 543.431   2
  -3   0  -9 164.528 214.098   2
  -3   0 -10 822.209 443.066   2
  -3   0 -11 19.4000 246.488   2
  -3   0 -12 625.539 275.364   2
  -3   0 -13 167.010 290.204   2
  -3   0 -14 26.8902 280.617   2
  -3   0 -15-234.790 311.455   2
  -3   0 -16 146.592 390.433   2
  -3   0 -17-538.371 476.094   2
  -3   0 -18-209.369 353.364   2
   3  -1 -20-318.143 598.390   2
   3  -1 -19 96.8559 627.094   2
   3   1 -19 545.323 406.190   2
   3   1 -18 253.691 339.301   2
   3  -1 -18-267.262 601.273   2
   3   1 -17 1835.69 813.620   2
   3  -1 -17 1020.57 620.776   2
   3  -1 -16 1561.49 656.356   2
   3   1 -16 1463.34 794.018   2
   3  -1 -15 1097.83 657.719   2
   3   1 -15-67.8463 358.718   2
   3  -1 -14 7208.03 1271.33   2
   3  -1 -14 6790.32 858.721   1
   3   1 -14 7792.97 1379.58   2
   3   1 -13 33320.6 1600.27   1
   3  -1 -13 36449.3 1984.37   1
   3  -1 -13 40908.8 2827.38   2
   3   1 -13 35185.0 2744.04   2
   3  -1 -12 14392.6 1225.45   1
   3  -1 -12 14210.5 1643.72   2
   3   1 -12 15413.6 1728.25   2
   3   1 -11 20284.0 1905.86   2
   3  -1 -11 21678.3 1483.98   1
   3  -1 -10 2148.10 466.311   1
   3   1 -10 1650.41 574.727   2
   3   1  -9 24937.5 1907.97   2
   3  -1  -9 26331.8 1576.91   1
   3  -1  -8 10024.1 979.174   1
   3   1  -8 10754.2 1190.48   2
   3   1  -7 12815.6 1257.15   2
   3  -1  -7 12254.6 1040.58   1
   3   1  -6 5207.65 788.483   2
   3  -1  -6 4296.35 342.215   3
   3  -1  -6 5275.00 699.973   1
   3  -1  -5 983.362 154.091   3
   3   1  -5 1264.43 359.214   2
   3  -1  -5 1150.41 330.368   1
   3  -1  -4 71792.1 2508.74   1
   3   1  -4 69990.3 2736.80   3
   3  -1  -4 63739.8 1263.39   3
   3  -1  -3-124.462 254.603   1
  -3  -1   3 1.46029 147.809   2
  -3   1   3 69.1887 61.6744   3
   3   1  -3-37.8065 263.948   3
   3  -1  -3 148.328 101.666   3
   3  -1  -2 192.066 121.717   3
  -3   1   2 4.94901 98.1210   3
   3   1  -2-329.964 251.539   3
   3  -1  -2 206.635 232.969   1
  -3  -1   2 126.406 133.334   2
   3  -1  -1 52349.0 2200.49   1
  -3  -1   1 57259.7 1866.53   2
   3  -1  -1 58981.5 1707.55   3
   3   1  -1 52837.1 2305.26   3
  -3   1   1 56525.5 1683.50   3
   3  -1   0 86698.1 2787.16   1
  -3   1   0 90511.0 2345.84   3
   3   1   0 86208.4 2960.40   3
   3  -1   1 123202. 3351.65   1
  -3   1  -1 125306. 2971.55   3
   3   1   1 120212. 3500.85   3
   3  -1   2 7105.76 804.364   1
   3   1   2 7368.79 899.423   3
   3   1   3-129.120 281.664   3
   3  -1   3-469.626 300.270   1
   3   1   4 2837.02 619.406   3
   3  -1   4 3790.93 588.476   1
   3   1   5 972.764 351.399   3
   3  -1   5 333.654 259.365   1
  -3  -1  -5 452.632 195.328   2
   3  -1   6 221.130 213.202   1
   3   1   6-330.520 330.273   3
  -3  -1  -6-54.7003 200.084   2
   3  -1   7 5527.92 693.268   1
  -3  -1  -7 5082.87 665.996   2
  -3   1  -7 5603.84 921.735   2
   3   1   7 4726.89 890.087   3
   3  -1   8 3279.07 541.937   1
  -3  -1  -8 3327.05 565.257   2
  -3   1  -8 3192.40 748.594   2
   3   1   8 2654.00 668.345   3
   3  -1   9 6563.17 705.570   1
  -3   1  -9 5152.65 1009.02   2
  -3  -1  -9 6097.67 850.089   2
   3   1   9 5742.89 981.939   3
  -3  -1 -10 1326.90 406.872   2
   3  -1  10 1233.51 289.503   1
  -3   1 -10 563.477 381.389   2
   3   1  10 1683.84 570.159   3
  -3  -1 -11 1316.92 439.852   2
  -3   1 -11 1726.87 670.676   2
  -3  -1 -12-53.8886 192.670   2
  -3   1 -12 307.454 359.691   2
  -3  -1 -13 36.2472 302.825   2
  -3   1 -13 743.735 509.596   2
  -3  -1 -14 2538.56 688.862   2
  -3   1 -14 3036.11 964.181   2
  -3   1 -15 216.559 440.692   2
  -3  -1 -15 584.767 378.910   2
  -3  -1 -16-284.217 331.647   2
  -3   1 -16 405.211 458.843   2
  -3   1 -17-1876.23 863.559   2
   3   2 -18 1442.42 702.057   2
   3   2 -17 943.014 535.478   2
   3   2 -16 695.626 497.412   2
   3   2 -15 219.758 327.585   2
   3   2 -14 446.949 430.447   2
   3  -2 -13 354.815 229.902   1
   3   2 -13 104.100 299.191   2
   3  -2 -12 8128.09 1114.08   1
   3   2 -12 7353.48 1240.75   2
   3   2 -11 30016.4 2415.40   2
   3  -2 -11 30801.1 2143.32   1
   3  -2 -10 22137.0 1776.30   1
   3   2 -10 24959.5 2118.87   2
   3   2  -9 6217.41 978.501   2
   3  -2  -9 7385.93 1021.40   1
   3   2  -8 2.81136 241.630   2
   3  -2  -8 473.727 235.617   1
   3  -2  -7 900.634 324.820   1
   3   2  -7 1007.88 453.905   2
   3  -2  -6 948.565 363.777   1
   3   2  -6 560.133 345.829   2
   3  -2  -5 307.089 207.158   1
   3   2  -5 599.682 224.946   2
   3   2  -4 334.787 180.072   3
   3   2  -4 928.592 373.358   2
   3  -2  -4 509.863 325.101   1
  -3  -2   3 3637.75 511.857   2
   3   2  -3 4228.52 600.183   2
   3   2  -3 4128.46 804.075   3
   3  -2  -3 3421.20 647.513   1
  -3  -2   2 44084.7 1625.30   2
   3   2  -2 47072.8 2555.84   3
   3  -2  -2 42590.5 2304.53   1
   3  -2  -1 3292.54 642.912   1
   3   2  -1 4048.76 775.566   3
  -3  -2   1 4422.88 466.383   2
  -3   2   1 2465.96 361.132   3
  -3  -2   0 10858.5 667.341   2
  -3   2   0 9838.10 823.590   3
   3   2   0 9798.31 1189.58   3
   3  -2   0 9498.21 1069.13   1
   3   2   1 620.533 338.753   3
  -3  -2  -1 1189.08 207.737   2
   3  -2   1 1161.22 381.580   1
   3   2   2 8874.15 1133.90   3
   3  -2   2 7634.82 941.291   1
  -3  -2  -2 6005.03 437.694   2
   3   2   3 84.7352 292.058   3
  -3  -2  -3 184.831 77.5738   2
  -3  -2  -3 375.820 130.751   2
   3  -2   3 260.209 205.216   1
   3   2   4 410.576 338.210   3
  -3  -2  -4 513.171 128.201   2
   3  -2   4 544.709 307.333   1
   3   2   5 4873.99 886.767   3
  -3  -2  -5 4820.49 415.815   2
   3  -2   5 5335.56 773.342   1
  -3  -2  -6 53407.1 1539.00   2
  -3   2  -6 51292.8 2963.75   2
   3   2   6 56518.7 3011.31   3
   3  -2   6 51126.5 2340.24   1
   3   2   7 30130.9 2263.73   3
  -3  -2  -7 28745.2 1250.07   2
  -3   2  -7 31990.1 2429.27   2
   3  -2   7 28691.0 1700.06   1
  -3  -2  -8 1776.54 363.400   2
  -3   2  -8 1664.73 638.777   2
   3  -2   8 1496.28 389.266   1
   3   2   8 1297.42 563.493   3
  -3  -2  -9 1055.23 334.416   2
  -3   2  -9 1083.47 461.960   2
   3  -2   9 820.024 301.090   1
   3   2   9 1427.80 602.281   3
   3   2  10 3922.80 932.225   3
  -3   2 -10 4118.44 1029.22   2
  -3   2 -11-411.937 346.417   2
   3   2  11 243.424 251.523   3
  -3   2 -12-353.115 503.479   2
   3   2  12-48.1583 257.218   3
  -3   2 -13-482.892 618.799   2
  -3   2 -14-65.7090 586.426   2
  -3   2 -15-965.188 835.185   2
   3   3 -16-278.590 479.141   2
   3   3 -15 18.0670 383.360   2
   3   3 -14-1354.72 674.023   2
   3   3 -13 878.217 564.421   2
   3   3 -12 745.299 375.479   2
   3   3 -11 373.891 480.865   2
   3  -3 -10 813.527 448.158   1
   3   3 -10 1568.15 609.037   2
   3  -3  -9 2515.98 763.776   1
   3   3  -9 3998.15 897.167   2
   3  -3  -8 7693.91 1234.86   1
   3   3  -8 7814.07 1184.07   2
   3  -3  -7 870.113 442.179   1
   3   3  -7 1052.37 396.411   2
   3  -3  -6-85.8928 298.991   1
   3   3  -6 285.634 263.301   2
   3  -3  -5 746.612 401.081   1
   3   3  -5 908.144 454.499   3
   3   3  -5 551.488 314.519   2
   3  -3  -4 2544.07 668.696   1
   3   3  -4 1401.33 532.033   3
   3   3  -4 2258.86 491.252   2
   3  -3  -3 502.613 279.983   1
   3   3  -3 556.872 383.953   3
   3   3  -3 277.471 207.030   2
   3   3  -2-375.018 345.208   3
   3  -3  -2 25.0104 310.040   1
   3   3  -1-47.0689 268.322   3
   3  -3  -1 104.752 199.548   1
   3   3   0-62.1198 257.833   3
   3  -3   0 12.4296 227.011   1
   3   3   1-11.8206 235.757   3
   3  -3   1 615.432 199.786   1
   3   3   2 452.841 281.766   3
   3  -3   2 1167.04 434.375   1
   3  -3   3 15364.6 1567.25   1
   3   3   3 16042.2 1733.16   3
  -3   3  -4 20116.0 1927.86   2
   3  -3   4 20960.0 1817.74   1
   3   3   4 20436.1 2004.94   3
  -3   3  -5 14265.3 1700.08   2
   3  -3   5 12231.2 1380.04   1
   3   3   5 14360.2 1712.76   3
   3   3   6 5904.74 1089.63   3
   3  -3   6 3733.55 786.983   1
  -3   3  -6 6072.62 1146.96   2
   3   3   7-248.289 273.079   3
   3  -3   7-8.87186 244.883   1
  -3   3  -7-437.864 367.102   2
   3   3   8 1685.51 597.734   3
   3  -3   8 1218.36 421.964   1
  -3   3  -8 2004.51 665.187   2
  -3   3  -9 937.371 513.415   2
   3   3   9 457.680 270.225   3
  -3   3 -10 221.309 462.808   2
   3   3  10 1484.38 628.885   3
   3   3  11 3555.82 903.217   3
  -3   3 -11 3338.81 1024.12   2
  -3   3 -12 312.189 463.333   2
   3   3  12-770.468 645.115   3
  -3   3 -13 918.713 544.447   2
   3   3  13 2070.06 829.667   3
   3   4  -7-59.9826 203.850   3
   3   4  -6 66.5874 313.627   3
   3   4  -5-64.7929 329.602   3
   3   4  -4-75.8550 394.819   3
   3   4  -3 177.820 252.384   3
   3   4  -2 407.461 292.200   3
   3  -4  -2-94.2721 233.575   1
   3   4  -1-149.901 330.426   3
   3  -4  -1 44.9796 217.269   1
   3   4   0 586.558 518.722   3
   3  -4   0 104.774 241.189   1
   3   4   1 1166.20 554.038   3
  -3   4  -1 2223.38 592.846   2
   3  -4   1 1587.09 636.371   1
   3   4   2 4672.42 1044.02   3
  -3   4  -2 4124.37 842.821   2
   3   4   3 204.794 419.314   3
  -3   4  -3-215.624 370.541   2
  -3   4  -4 6947.40 1226.94   2
   3   4   4 5432.50 1093.25   3
   3   4   5 6117.26 1187.28   3
  -3   4  -5 7316.56 1288.72   2
  -3   4  -6 14.0730 319.834   2
   3   4   6-25.1708 306.082   3
   3   4   7-533.194 455.830   3
  -3   4  -7-421.377 576.029   2
  -3   4  -8-680.748 481.313   2
  -3   4  -9-62.7616 399.328   2
  -3   4 -10 291.954 427.647   2
   3   5  -4-1031.61 633.735   3
   3   5  -3-214.507 425.894   3
   3   5  -2 1182.51 670.829   3
   3   5  -1 1556.95 724.230   3
   3   5   0 1031.32 703.549   3
   4   0 -19-42.5217 416.154   2
   4   0 -18 2785.41 1069.00   2
   4   0 -17-443.825 617.487   2
   4   0 -16 3805.86 1047.66   2
   4   0 -15 502.036 345.714   2
   4   0 -14 6711.49 1344.14   2
   4   0 -14 8044.11 903.338   1
   4   0 -13-603.631 355.117   1
   4   0 -13-17.6683 380.443   2
   4   0 -12 442.557 242.383   1
   4   0 -12 332.598 351.845   2
   4   0 -11 154.502 228.708   1
   4   0 -11-110.564 380.696   2
   4   0 -10 13005.9 1316.30   1
   4   0 -10 15139.3 1567.61   2
   4   0  -7 95.1181 149.877   3
   4   0  -6 14174.0 1099.54   3
   4   0  -5 101.760 134.669   3
   4   0  -4 193.420 153.654   3
   4   0  -3 243.660 211.038   3
   4   0  -2 14619.3 1130.75   3
   4   0  -1 36.3383 155.587   3
   4   0   0 85894.7 2892.01   3
   4   0   1 71.5528 185.792   3
   4   0   2 150752. 4048.44   3
   4   0   3-5.67416 192.840   3
   4   0   4 477.746 304.289   3
   4   0   5-448.163 378.950   3
   4   0   6 633.841 377.985   3
  -4   0  -7 55.3884 219.260   2
   4   0   7 232.622 234.218   3
  -4   0  -8 37534.7 2445.85   2
  -4   0  -9-15.7364 285.318   2
  -4   0 -10 64929.5 3437.09   2
  -4   0 -11 89.8361 198.517   2
  -4   0 -12 1106.20 577.995   2
  -4   0 -13 428.111 332.176   2
  -4   0 -14 513.263 440.702   2
  -4   0 -15-1305.10 645.105   2
  -4   0 -16-1987.93 811.038   2
  -4   0 -17 986.990 544.182   2
   4   1 -19-500.759 720.584   2
   4   1 -18 189.247 499.919   2
   4   1 -17 663.008 415.803   2
   4   1 -16 155.672 358.424   2
   4   1 -15 2051.22 810.769   2
   4  -1 -14 176.621 171.032   1
   4   1 -14-187.513 395.380   2
   4  -1 -13 70.0233 144.506   1
   4   1 -13 681.480 395.394   2
   4   1 -12-173.871 383.029   2
   4  -1 -12-248.760 266.431   1
   4  -1 -11 799.149 334.635   1
   4   1 -11 277.364 323.288   2
   4  -1 -10 143.559 204.793   1
   4   1 -10 547.706 414.776   2
   4  -1  -9 10210.7 1072.97   1
   4   1  -9 10792.4 1292.46   2
   4  -1  -9 8737.57 700.670   3
   4  -1  -8 9.87009 76.7481   3
   4  -1  -8 397.839 342.213   1
   4  -1  -7 10725.2 1093.13   1
   4   1  -7 12113.6 1286.14   2
   4  -1  -7 9932.40 669.183   3
   4  -1  -6 9187.30 1031.88   1
   4  -1  -6 8557.50 612.287   3
   4   1  -6 8115.52 1047.63   3
   4  -1  -5 57761.0 2548.00   1
   4  -1  -5 59403.0 1615.87   3
   4   1  -5 55954.6 2668.42   3
   4  -1  -4 3683.07 680.460   1
   4   1  -4 3884.35 702.359   3
   4  -1  -4 3371.74 401.743   3
   4   1  -3 1406.50 448.638   3
  -4   1   3 1396.80 278.496   3
   4  -1  -3 1210.60 425.860   1
   4  -1  -3 1776.13 327.848   3
   4  -1  -2 20185.3 1544.21   1
   4  -1  -2 20108.1 1113.79   3
   4   1  -2 19026.5 1523.60   3
   4  -1  -1 1036.29 526.395   1
  -4   1   1 1218.14 301.890   3
   4   1  -1 510.830 191.723   3
   4  -1  -1 1269.85 321.471   3
   4  -1   0 11329.3 1160.78   1
   4  -1   0 12425.8 1021.12   3
  -4   1   0 12327.6 1016.54   3
   4   1   0 13855.7 1319.19   3
   4   1   1 1454.21 444.754   3
   4  -1   1 1884.00 533.070   1
   4  -1   1 1602.29 413.445   3
   4  -1   2 22442.4 1629.41   1
   4   1   2 21677.2 1715.56   3
   4  -1   3 63374.8 2719.31   1
   4   1   3 58012.4 2893.06   3
   4   1   4 6468.79 998.197   3
   4  -1   4 7724.44 975.399   1
   4   1   5 169.362 220.982   3
   4  -1   5-283.529 376.249   1
   4  -1   6 13788.4 1267.78   1
  -4  -1  -6 12897.7 1167.47   2
   4   1   6 10647.4 1352.89   3
   4  -1   7 71428.9 2842.55   1
  -4  -1  -7 69283.8 2824.57   2
   4   1   7 70674.3 3460.75   3
   4  -1   8 36684.9 2005.56   1
  -4  -1  -8 33726.4 2009.74   2
  -4   1  -8 34423.1 2544.92   2
   4   1   8 32905.3 2474.77   3
   4   1   9 5226.81 1054.38   3
   4  -1   9 4906.62 715.109   1
  -4  -1  -9 4243.37 760.743   2
  -4   1  -9 4345.37 987.624   2
   4  -1  10 183.193 174.702   1
  -4  -1 -10 641.918 401.014   2
   4   1  10 398.136 439.138   3
  -4  -1 -11 34.9000 212.799   2
  -4   1 -11 92.8700 296.289   2
   4   1  11 39.4431 237.584   3
  -4  -1 -12 2518.09 670.053   2
  -4   1 -12 3161.08 943.601   2
  -4  -1 -13 135.518 326.960   2
  -4   1 -13 671.559 557.318   2
  -4  -1 -14-11.6433 275.668   2
  -4   1 -14 590.092 544.397   2
  -4  -1 -15 265.198 339.051   2
  -4   1 -15 576.212 430.170   2
  -4   1 -16 766.703 328.411   2
   4   2 -17-196.492 740.359   2
   4   2 -16 941.075 515.435   2
   4   2 -15 366.218 323.727   2
   4  -2 -15-68.3698 226.432   1
   4  -2 -14 3449.24 763.396   1
   4   2 -14 4698.16 1181.97   2
   4  -2 -13 2266.57 652.153   1
   4   2 -13 3640.54 960.900   2
   4  -2 -12 5579.61 981.736   1
   4   2 -12 6247.70 1197.34   2
   4  -2 -11 2389.42 613.549   1
   4   2 -11 1548.20 551.566   2
   4  -2 -10 5791.05 942.211   1
   4   2 -10 5206.10 1010.21   2
   4  -2  -9 163.630 226.199   1
   4   2  -9 98.6252 246.035   2
   4   2  -8 810.451 449.671   2
   4  -2  -8 574.659 352.958   1
   4   2  -7 183.687 289.065   2
   4  -2  -7 431.236 366.234   1
   4   2  -6 26.7541 187.746   3
   4   2  -6-406.722 352.328   2
   4  -2  -6-522.802 353.752   1
   4   2  -5 6357.06 1062.47   3
   4  -2  -5 9038.45 1140.74   1
   4   2  -4 12146.6 1444.59   3
   4  -2  -4 10941.9 1263.32   1
   4   2  -3 11738.3 1390.04   3
   4  -2  -3 11110.9 1265.12   1
   4  -2  -2 660.736 227.547   1
  -4   2   2 784.945 219.485   3
   4   2  -2 802.385 421.614   3
  -4  -2   2 763.409 256.136   2
  -4   2   1 3356.95 483.089   3
   4  -2  -1 3515.84 711.840   1
   4   2  -1 4476.68 888.479   3
  -4  -2   1 3938.38 543.355   2
   4   2   0 5750.06 1036.92   3
   4  -2   0 4667.68 830.218   1
  -4  -2   0 5678.23 610.700   2
   4  -2   1 1447.23 476.376   1
   4   2   1 1718.00 574.370   3
  -4  -2  -1 1501.35 304.451   2
   4   2   2 908.914 487.665   3
   4  -2   2 1471.79 468.617   1
  -4  -2  -2 1451.81 334.617   2
   4   2   3 18.7602 255.721   3
   4  -2   3 212.764 251.136   1
   4  -2   4 1589.19 457.241   1
   4   2   4 1208.42 490.470   3
  -4  -2  -5 43696.2 1582.91   2
   4   2   5 42152.6 2852.66   3
   4  -2   5 39304.4 2255.70   1
   4   2   6 6057.37 1075.91   3
  -4  -2  -6 6862.02 662.135   2
   4  -2   6 6612.76 918.921   1
   4   2   7 2558.61 734.490   3
   4  -2   7 2545.44 591.523   1
  -4  -2  -7 2606.93 418.288   2
  -4   2  -7 2852.50 751.910   2
  -4   2  -8 145.519 374.209   2
   4  -2   8 4.31550 193.846   1
   4   2   8 360.170 300.666   3
  -4   2  -9 2695.14 794.446   2
   4  -2   9 2383.37 540.812   1
   4   2   9 1995.61 613.737   3
  -4   2 -10 123.244 232.175   2
   4   2  10-121.904 513.185   3
  -4   2 -11-433.360 472.984   2
   4   2  11-11.7541 273.245   3
  -4   2 -12 1042.26 655.243   2
   4   2  12 514.341 495.151   3
  -4   2 -13 1495.80 630.658   2
  -4   2 -14-133.424 455.809   2
   4   3 -16 716.649 627.925   2
   4   3 -15-40.1545 566.387   2
   4   3 -14-731.565 568.926   2
   4   3 -13-221.993 476.176   2
   4  -3 -13 280.132 345.859   1
   4  -3 -12 603.544 491.569   1
   4   3 -12-48.4097 275.608   2
   4  -3 -11 1781.82 694.330   1
   4   3 -11 2331.45 727.123   2
   4  -3 -10 4545.81 975.626   1
   4   3 -10 6375.91 1197.89   2
   4   3  -9 27774.5 2304.01   2
   4  -3  -9 21812.4 2141.96   1
   4  -3  -8 76.8027 303.763   1
   4   3  -8-10.8269 436.567   2
   4  -3  -7 3699.47 892.311   1
   4   3  -7 4601.44 1009.95   3
   4   3  -7 5768.45 983.328   2
   4   3  -6 783.887 415.958   3
   4  -3  -6 2223.13 708.749   1
   4   3  -6 2200.95 527.770   2
   4   3  -5 28.1420 238.258   3
   4  -3  -5-388.479 510.686   1
   4   3  -4 427.111 374.960   3
   4  -3  -4 266.345 194.210   1
   4   3  -3 544.421 376.010   3
   4  -3  -3 148.661 182.399   1
   4   3  -2 5166.43 1090.21   3
   4  -3  -2 6185.13 1033.64   1
   4   3  -1 2141.43 717.072   3
   4  -3  -1 1655.05 541.650   1
   4   3   0 1516.54 672.263   3
   4  -3   0 1011.87 388.500   1
   4   3   1 836.718 393.158   3
   4  -3   1 1135.24 449.006   1
   4   3   2 820.039 528.126   3
   4  -3   2 990.017 477.742   1
   4   3   3 1310.93 598.541   3
   4  -3   3 507.983 278.487   1
   4   3   4 410.662 425.809   3
   4  -3   4 869.316 395.191   1
   4   3   5 648.007 484.231   3
   4  -3   5 135.449 152.618   1
  -4   3  -5 198.398 251.782   2
   4   3   6 1877.79 695.140   3
   4  -3   6 1167.50 464.985   1
  -4   3  -6 968.149 515.913   2
   4   3   7 100.749 331.570   3
   4  -3   7-126.799 302.680   1
  -4   3  -7 335.145 266.800   2
   4   3   8 398.101 361.690   3
   4  -3   8 782.882 387.712   1
  -4   3  -8 623.205 309.313   2
  -4   3  -9-1615.71 683.190   2
   4   3   9-128.239 414.059   3
  -4   3 -10 1011.69 663.524   2
   4   3  10-274.151 290.095   3
  -4   3 -11 743.299 577.783   2
   4   3  11 805.208 462.412   3
   4   3  12 2857.68 981.073   3
   4   3  13 725.024 432.220   3
   4   4 -10 1943.72 787.153   3
   4   4  -9 22.1764 238.488   3
   4   4  -8 6313.02 1371.12   3
   4  -4  -8 3015.44 828.166   1
   4  -4  -7 2156.91 782.326   1
   4   4  -7 2711.78 797.880   3
   4  -4  -6 1022.35 621.222   1
   4   4  -6 677.429 527.788   3
   4  -4  -5-91.3877 411.414   1
   4   4  -5 125.585 208.177   3
   4  -4  -4-902.102 602.204   1
   4   4  -4 153.940 341.776   3
   4  -4  -3 414.655 410.997   1
   4   4  -3-456.550 536.640   3
   4  -4  -2-62.9701 269.162   1
   4   4  -2-221.816 445.606   3
   4  -4  -1-12.2899 291.159   1
   4   4  -1 287.682 373.067   3
   4   4   0-31.4187 323.767   3
   4  -4   0 573.596 449.736   1
   4   4   1-184.297 382.519   3
   4  -4   1 357.324 298.572   1
   4   4   2 733.826 511.231   3
   4  -4   2 212.376 318.246   1
  -4   4  -2 255.590 252.777   2
   4   4   3 312.238 319.779   3
   4  -4   3 1224.93 512.967   1
  -4   4  -3 970.366 436.668   2
   4   4   4-59.0727 304.152   3
  -4   4  -4-677.059 441.799   2
   4   4   5 523.609 402.555   3
   4  -4   5-84.0790 269.786   1
  -4   4  -5-555.399 411.195   2
   4   4   6-781.456 713.186   3
   4  -4   6 613.947 367.016   1
  -4   4  -6 28.2066 427.194   2
   4   4   7 110.990 223.082   3
  -4   4  -7-894.996 525.508   2
   4   4   8-2387.06 823.738   3
  -4   4  -8-907.141 551.325   2
   5   0 -19-685.866 760.160   2
   5   0 -18-410.919 660.449   2
   5   0 -17 627.152 673.320   2
   5   0 -14 2893.68 674.874   1
   5   0 -13-49.7709 325.569   1
   5   0 -12 21615.6 1805.80   1
   5   0 -11 132.936 295.675   1
   5   0 -10-99.3701 113.131   3
   5   0  -9-304.016 305.037   3
   5   0  -8 19976.8 1467.37   3
   5   0  -7 86.4966 124.511   3
   5   0  -6 686.518 278.572   3
   5   0  -5 146.737 189.152   3
   5   0  -4 12282.2 1172.85   3
   5   0  -3-240.688 253.589   3
   5   0  -2 139.647 270.593   3
   5   0  -1-249.815 208.046   3
   5   0   0 163.166 234.028   3
   5   0   1 276.310 379.203   3
   5   0   2 12387.3 1305.15   3
   5   0   3 231.846 223.973   3
   5   0   4 3379.45 705.810   3
   5   0   5 209.379 276.936   3
   5   0   6 1478.06 555.044   3
   5   0   7-14.6324 347.767   3
  -5   0  -8 100514. 4281.30   2
   5   0   8 104618. 4568.23   3
  -5   0  -9-116.253 238.577   2
  -5   0 -10 4407.52 940.391   2
  -5   0 -11 143.957 322.467   2
  -5   0 -12 1881.99 598.537   2
  -5   0 -13 682.575 423.543   2
  -5   0 -14 288.581 355.224   2
  -5   0 -15 740.568 566.227   2
  -5   0 -16 1318.95 752.763   2
   5   1 -18 2500.70 931.876   2
   5   1 -17 245.386 355.816   2
   5   1 -16 1027.08 648.002   2
   5  -1 -15 1993.07 616.526   1
   5   1 -15 3336.51 959.061   2
   5   1 -14 2658.31 874.843   2
   5  -1 -14 2466.46 644.428   1
   5   1 -13 14605.6 1839.66   2
   5  -1 -13 14960.5 1505.65   1
   5  -1 -12 836.727 349.356   1
   5  -1 -12 389.927 159.939   3
   5   1 -12 509.888 465.226   2
   5  -1 -11 1383.44 505.306   1
   5  -1 -11 691.275 233.150   3
   5   1 -11 672.383 459.682   2
   5  -1 -10 9.39663 136.639   3
   5  -1 -10 440.944 323.362   1
   5  -1  -9 1904.97 353.365   3
   5   1  -9 2286.65 615.070   3
   5  -1  -9 3037.49 683.494   1
   5  -1  -8 172.236 271.404   1
   5  -1  -8 8.92230 155.683   3
   5   1  -8 418.539 280.212   3
   5  -1  -7 2405.50 397.103   3
   5  -1  -7 3125.25 709.665   1
   5   1  -7 2141.58 582.887   3
   5  -1  -6 1790.98 339.563   3
   5  -1  -6 2096.09 539.734   1
   5   1  -6 1476.71 495.635   3
   5  -1  -5 9043.76 1163.20   1
   5   1  -5 6938.80 982.744   3
   5  -1  -5 7990.13 747.887   3
  -5   1   4 8425.22 738.436   3
   5  -1  -4 10012.6 868.707   3
   5   1  -4 8714.48 1129.18   3
   5  -1  -4 8760.09 1086.25   1
   5  -1  -3 1390.64 537.278   1
   5   1  -3 1010.52 406.041   3
  -5   1   3 926.809 240.637   3
   5  -1  -3 1327.56 346.648   3
   5   1  -2 275.396 282.977   3
   5  -1  -2 904.155 473.951   1
   5  -1  -2 655.128 226.463   3
   5  -1  -1 1179.27 514.965   1
   5   1  -1 619.819 368.402   3
   5  -1  -1 1102.45 357.646   3
   5  -1   0 9599.26 1160.73   1
   5  -1   0 8974.79 971.663   3
   5   1   0 11310.7 1323.85   3
   5   1   1 174.180 331.932   3
   5  -1   1-844.599 470.903   1
   5  -1   1-263.949 309.779   3
   5   1   2 7596.13 1139.82   3
   5  -1   2 7838.49 987.284   3
   5  -1   2 8731.93 1116.81   1
   5   1   3 8129.66 1176.85   3
   5  -1   3 7698.68 1046.25   1
   5   1   4-293.188 367.327   3
   5  -1   4 382.892 391.133   1
   5   1   5 1584.00 587.703   3
   5  -1   5 1730.46 539.380   1
   5  -1   6 8529.35 1086.93   1
   5   1   6 9761.02 1379.72   3
  -5  -1  -7 714.502 261.365   2
   5  -1   7 917.085 417.352   1
   5   1   7 1465.50 621.615   3
  -5  -1  -8 966.055 357.739   2
  -5   1  -8 1054.02 468.906   2
   5  -1   8 618.359 326.888   1
   5   1   8 1040.13 516.574   3
   5  -1   9 3736.50 766.608   1
  -5  -1  -9 3779.28 775.171   2
  -5   1  -9 2824.80 779.699   2
   5   1   9 4366.55 1049.56   3
  -5  -1 -10 17280.7 1704.62   2
  -5   1 -10 18891.1 2086.48   2
   5   1  10 20213.5 2213.28   3
  -5   1 -11 9759.83 1590.87   2
  -5  -1 -11 10690.1 1400.16   2
   5   1  11 12994.8 1836.90   3
  -5  -1 -12 811.611 473.536   2
  -5   1 -12 1236.57 586.366   2
  -5  -1 -13 372.939 282.728   2
  -5   1 -13 612.860 411.329   2
  -5   1 -14 825.677 594.235   2
   5   2 -17-304.850 415.975   2
   5   2 -16 2665.92 1025.79   2
   5  -2 -15 235.412 301.223   1
   5   2 -15 386.452 534.922   2
   5  -2 -14 3459.41 770.054   1
   5   2 -14 4298.01 1100.01   2
   5  -2 -13-240.021 407.300   1
   5   2 -13 179.070 361.902   2
   5  -2 -12 1537.95 543.071   1
   5   2 -12 2168.82 706.138   2
   5   2 -11 37.5805 272.929   2
   5  -2 -11-200.400 313.980   1
   5   2 -10-266.344 432.229   2
   5  -2 -10-900.352 497.411   1
   5   2  -9 1131.52 572.525   3
   5   2  -9 798.716 492.553   2
   5  -2  -9 870.885 439.739   1
   5   2  -8 23313.8 2184.45   3
   5  -2  -8 25382.2 2073.38   1
   5   2  -7 16387.9 1811.40   3
   5  -2  -7 18498.8 1749.38   1
   5   2  -6 9659.30 1336.58   3
   5  -2  -6 10413.8 1329.20   1
   5   2  -5 7012.53 1199.28   3
   5  -2  -5 7921.45 1143.89   1
   5  -2  -4 5428.09 983.646   1
   5   2  -4 5834.05 1055.35   3
   5   2  -3-122.429 471.164   3
   5  -2  -3-632.427 365.593   1
   5   2  -2 608.426 476.814   3
   5  -2  -2 427.190 339.825   1
   5   2  -1 18.3340 349.870   3
   5  -2  -1 298.122 329.020   1
   5   2   0 1785.66 685.571   3
   5  -2   0 1516.77 546.468   1
   5   2   1 511.433 281.675   3
   5  -2   1-525.919 434.181   1
   5   2   2 1963.87 622.361   3
   5  -2   2 3283.24 776.435   1
   5   2   3 3752.35 950.426   3
   5  -2   3 5152.03 931.004   1
   5   2   4 11313.2 1570.85   3
   5  -2   4 9369.23 1215.28   1
   5   2   5 1220.14 596.848   3
   5  -2   5 1284.27 457.575   1
  -5  -2  -5 926.854 277.159   2
   5   2   6 3552.47 978.778   3
   5  -2   6 3562.85 764.526   1
   5   2   7 1783.99 632.658   3
   5  -2   7 1770.39 533.236   1
   5  -2   8 133.825 250.838   1
  -5   2  -8 306.238 331.200   2
   5   2   8-150.228 358.683   3
  -5   2  -9 640.183 415.199   2
   5   2   9 1100.32 589.457   3
  -5   2 -10 347.632 399.379   2
   5   2  10 1136.23 561.612   3
  -5   2 -11 1994.41 731.875   2
   5   2  11 841.909 548.980   3
  -5   2 -12 1083.05 611.299   2
   5   2  12 397.860 263.051   3
   5   2  13 5148.10 1346.13   3
   5  -3 -15 95.5996 360.285   1
   5   3 -15 494.999 454.030   2
   5  -3 -14 421.526 387.091   1
   5   3 -14-832.084 565.249   2
   5  -3 -13 1274.67 549.745   1
   5   3 -13 1262.10 655.606   2
   5  -3 -12-394.854 318.655   1
   5   3 -12-1167.65 605.889   2
   5  -3 -11 1346.14 566.917   1
   5   3 -11 1442.54 682.628   3
   5   3 -11 916.384 541.489   2
   5   3 -10 3261.07 945.677   3
   5  -3 -10 3190.02 819.949   1
   5   3 -10 2925.99 776.377   2
   5   3  -9 13610.8 1657.82   2
   5  -3  -9 10156.7 1537.32   1
   5   3  -9 10457.6 1644.45   3
   5   3  -8 6608.28 1266.73   3
   5  -3  -8 7129.21 1215.67   1
   5   3  -7 502.602 312.854   3
   5  -3  -7 360.644 342.427   1
   5   3  -6 303.903 310.772   3
   5  -3  -6 1321.18 571.453   1
   5   3  -5 779.679 458.125   3
   5  -3  -5 725.309 387.047   1
   5   3  -4 378.715 344.944   3
   5  -3  -4 672.458 516.004   1
   5   3  -3 2691.29 749.663   3
   5  -3  -3 3754.87 915.430   1
   5   3  -2 1106.80 598.091   3
   5  -3  -2 534.478 343.116   1
   5   3  -1 4792.74 1083.92   3
   5  -3  -1 3291.43 852.312   1
   5   3   0 1531.29 743.447   3
   5  -3   0 1034.70 421.767   1
   5   3   1 546.196 395.466   3
   5  -3   1-138.830 310.369   1
   5   3   2 1852.63 735.867   3
   5  -3   2 1447.75 538.448   1
   5   3   3 153.581 310.128   3
   5  -3   3 10.5009 353.892   1
   5   3   4-175.179 352.742   3
   5  -3   4-432.045 485.632   1
   5   3   5 2774.03 866.225   3
   5  -3   5 2679.16 691.283   1
   5   3   6 1276.30 494.043   3
   5  -3   6 1187.17 454.591   1
  -5   3  -6 2206.63 733.526   2
   5   3   7-51.4746 455.086   3
   5  -3   7 440.159 370.167   1
  -5   3  -7 732.193 500.809   2
   5   3   8 8.15601 455.541   3
  -5   3  -8 80.4587 190.714   2
  -5   3  -9-990.424 562.828   2
   5   3   9 17.5819 318.328   3
   5   3  10 1169.39 605.589   3
   5   3  11 1238.65 665.980   3
   5  -4  -9 893.608 595.307   1
   5  -4  -8 982.610 550.405   1
   5   4  -8 1301.59 646.211   3
   5  -4  -7-538.501 462.046   1
   5   4  -7 234.668 379.647   3
   5  -4  -6 116.229 245.494   1
   5   4  -6-373.282 238.274   3
   5  -4  -5 9.12535 333.693   1
   5   4  -5 13.1528 363.587   3
   5   4  -4 150.649 312.901   3
   5  -4  -4 231.589 336.249   1
   5   4  -3 678.794 574.289   3
   5  -4  -3 883.217 543.737   1
   5   4  -2 3211.32 1060.13   3
   5  -4  -2 1948.15 800.508   1
   5   4  -1-57.4094 321.289   3
   5  -4  -1-553.567 587.272   1
   5   4   0 292.171 362.929   3
   5  -4   0 2243.42 833.949   1
   5   4   1 627.306 509.190   3
   5  -4   1 184.112 269.573   1
   5   4   2 734.197 613.356   3
   5  -4   2-413.602 410.747   1
   5   4   3-151.521 437.726   3
   5  -4   3-1002.55 530.470   1
  -5   4  -3-372.689 301.734   2
   5   4   4-950.884 761.492   3
   5  -4   4-455.573 443.448   1
  -5   4  -4 572.720 274.731   2
   5   4   5 796.643 608.661   3
   5  -4   5 465.045 366.727   1
  -5   4  -5 399.012 384.171   2
   5   4   6 206.575 319.354   3
   5  -4   6 304.688 443.570   1
  -5   4  -6 72.9077 390.266   2
   5   4   7 501.525 409.990   3
   6   0 -14 2325.12 645.707   1
   6   0 -14 1499.45 412.850   3
   6   0 -13-254.506 298.112   1
   6   0 -13 124.292 167.432   3
   6   0 -12 28836.6 2330.80   1
   6   0 -12 21336.4 1748.88   3
   6   0 -11-249.926 260.688   3
   6   0 -11-592.475 542.570   1
   6   0 -10 6222.18 900.913   3
   6   0  -9 2.55967 199.625   3
   6   0  -8-89.7615 235.140   3
   6   0  -7 88.6804 203.490   3
   6   0  -6 25434.9 1834.41   3
   6   0  -5-7.40631 275.654   3
   6   0  -4 112249. 3891.90   3
   6   0  -3 304.589 250.520   3
   6   0  -2 2499.91 601.559   3
   6   0  -1 198.740 323.977   3
   6   0   0 377.021 385.000   3
   6   0   1-425.288 352.924   3
   6   0   2 7434.28 1132.93   3
   6   0   3-65.1223 324.399   3
   6   0   4 1026.38 554.509   3
   6   0   5-317.271 407.580   3
   6   0   6 169.790 407.974   3
   6   0   7-55.5143 269.427   3
  -6   0  -8 182.062 253.923   2
   6   0   8 541.169 420.370   3
  -6   0  -9 220.602 232.234   2
  -6   0 -10 1514.96 577.223   2
  -6   0 -11 85.7629 268.448   2
  -6   0 -12 614.399 477.028   2
  -6   0 -13 168.033 436.973   2
  -6   0 -14 1560.10 730.761   2
   6  -1 -15-62.2723 186.242   1
   6  -1 -14 2553.53 700.161   1
   6  -1 -13 1860.48 646.861   1
   6   1 -13 812.542 305.207   3
   6   1 -12 841.677 412.575   3
   6  -1 -12 750.109 387.530   1
   6   1 -11 12562.4 1526.36   3
   6  -1 -11 14476.5 1585.11   1
   6  -1 -10 1861.77 435.345   3
   6   1 -10 686.472 481.674   3
   6  -1 -10 1864.05 577.575   1
   6  -1  -9 1878.08 618.950   1
   6  -1  -9 1521.82 363.952   3
   6   1  -9 1692.18 565.257   3
   6  -1  -8 5006.95 663.609   3
   6  -1  -8 5266.23 1010.02   1
   6   1  -8 4554.13 857.197   3
   6  -1  -7 47663.4 2840.82   1
   6  -1  -7 51333.8 2109.28   3
   6   1  -7 46329.3 2876.43   3
   6  -1  -6 34246.9 2418.96   1
   6  -1  -6 35450.6 1791.71   3
   6   1  -6 33961.8 2416.54   3
   6  -1  -5 23678.7 1994.08   1
   6  -1  -5 24287.0 1511.68   3
   6   1  -5 24775.9 2050.31   3
   6  -1  -4 1318.36 393.037   3
   6   1  -4 2008.14 567.875   3
   6  -1  -4 1826.46 584.690   1
   6   1  -3 736.379 519.487   3
   6  -1  -3 461.600 394.132   1
   6  -1  -3 42.9646 179.728   3
   6  -1  -2 11357.3 1329.97   1
   6  -1  -2 9763.45 1046.22   3
   6   1  -2 10359.2 1423.76   3
   6   1  -1-40.8914 257.161   3
   6  -1  -1 385.448 487.502   1
   6  -1  -1 642.385 313.531   3
   6   1   0 405.335 412.521   3
   6  -1   0 386.295 376.830   1
   6  -1   0 9.37938 272.579   3
   6   1   1-378.308 430.362   3
   6  -1   1 43.4908 243.970   3
   6  -1   1 324.168 508.834   1
   6   1   2 2722.11 825.308   3
   6  -1   2 2256.98 692.194   1
   6  -1   2 1920.45 569.260   3
   6   1   3-300.060 417.638   3
   6  -1   3 746.607 508.984   1
   6  -1   3-236.846 370.917   3
   6   1   4 2929.00 833.520   3
   6  -1   4 2975.09 738.477   1
   6  -1   5 990.375 559.435   1
   6   1   5 2136.42 690.240   3
   6  -1   6 694.282 305.048   1
   6   1   6-91.2413 485.000   3
   6  -1   7 878.363 483.851   1
   6   1   7 951.271 563.287   3
  -6  -1  -8 4336.79 871.990   2
   6  -1   8 6025.75 998.028   1
   6   1   8 5356.37 1152.22   3
   6  -1   9 5914.73 1007.89   1
  -6  -1  -9 6003.75 1065.48   2
  -6   1  -9 5956.39 1195.33   2
   6   1   9 6467.63 1303.82   3
  -6  -1 -10 640.680 407.549   2
  -6   1 -10 823.783 540.144   2
   6   1  10-131.659 445.096   3
  -6  -1 -11-751.359 440.124   2
  -6   1 -11 698.423 504.530   2
   6   1  11-555.963 484.873   3
  -6   1 -12-63.1895 443.212   2
  -6   1 -13 490.272 474.751   2
   6   2 -16-201.509 579.547   2
   6   2 -15 478.624 472.003   2
   6  -2 -15 296.544 295.377   1
   6  -2 -14 53.6588 370.439   1
   6   2 -13 643.048 377.698   3
   6  -2 -13-64.1487 435.703   1
   6   2 -12 708.746 444.233   3
   6  -2 -12 891.784 439.415   1
   6   2 -11 434.202 493.207   3
   6  -2 -11-739.247 498.445   1
   6  -2 -10-446.850 384.868   1
   6   2 -10 55.4646 313.886   3
   6   2  -9 13129.4 1718.34   3
   6  -2  -9 14829.9 1683.61   1
   6  -2  -8 8221.78 1279.85   1
   6   2  -8 6810.00 1245.54   3
   6  -2  -7 6412.43 1120.55   1
   6   2  -7 6737.85 1195.93   3
   6  -2  -6 1412.08 584.444   1
   6   2  -6 1828.52 541.984   3
   6   2  -5 1988.21 714.947   3
   6  -2  -5 2590.00 698.467   1
   6   2  -4-388.642 466.454   3
   6  -2  -4-445.271 382.579   1
   6   2  -3-33.6658 307.566   3
   6  -2  -3 64.3747 345.550   1
   6   2  -2 2523.03 804.714   3
   6  -2  -2 3076.03 722.193   1
   6   2  -1 595.548 564.896   3
   6  -2  -1 615.347 281.381   1
   6   2   0 3364.88 922.293   3
   6  -2   0 3241.85 797.041   1
   6   2   1 1501.00 594.404   3
   6  -2   1 469.515 350.429   1
   6   2   2 1818.88 730.707   3
   6  -2   2 1055.42 471.165   1
   6   2   3 1005.38 629.711   3
   6  -2   3 120.305 301.870   1
   6   2   4 200.588 315.722   3
   6  -2   4 373.730 411.512   1
   6   2   5-139.871 334.303   3
   6  -2   5 144.558 256.251   1
   6   2   6-272.558 488.255   3
   6  -2   6 234.128 359.494   1
   6  -2   7 595.501 418.236   1
   6   2   7-325.361 440.690   3
   6  -2   8 245.951 297.600   1
  -6   2  -8-304.056 333.266   2
   6   2   8-75.2933 314.273   3
  -6   2  -9 852.095 484.670   2
   6   2   9 458.104 382.714   3
  -6   2 -10 2650.13 884.665   2
   6   2  10 2593.11 904.125   3
   6   2  11 6254.99 1463.42   3
   6  -3 -15 550.589 620.680   1
   6   3 -15-1497.53 762.187   2
   6  -3 -14-19.2010 337.130   1
   6  -3 -13 576.328 488.943   1
   6   3 -12-14.4476 298.519   3
   6  -3 -12 795.744 498.049   1
   6   3 -11-110.238 307.614   3
   6  -3 -11-1242.89 579.709   1
   6   3 -10 512.089 354.240   3
   6  -3 -10 57.3596 367.921   1
   6   3  -9-546.654 692.150   3
   6  -3  -9-630.177 422.671   1
   6   3  -8 156.443 271.705   3
   6  -3  -8 922.448 532.947   1
   6   3  -7 506.813 455.019   3
   6  -3  -7-225.286 211.611   1
   6   3  -6 198.508 373.715   3
   6  -3  -6 268.163 330.055   1
   6   3  -5 164.183 395.158   3
   6  -3  -5-604.951 516.208   1
   6   3  -4 152.130 303.260   3
   6  -3  -4 902.455 530.646   1
   6   3  -3 775.641 381.867   3
   6  -3  -3 506.564 521.466   1
   6   3  -2 2854.38 983.111   3
   6  -3  -2 2617.15 809.855   1
   6   3  -1 270.350 470.215   3
   6  -3  -1 2087.13 793.612   1
   6   3   0-175.135 394.161   3
   6  -3   0-176.663 407.002   1
   6   3   1 213.650 307.097   3
   6  -3   1-107.624 316.331   1
   6   3   2 1371.06 632.178   3
   6  -3   2 513.002 383.934   1
   6   3   3-5.85258 603.073   3
   6  -3   3 150.313 455.861   1
   6   3   4 1657.89 678.579   3
   6  -3   4 1169.24 538.690   1
   6   3   5 2502.66 869.261   3
   6  -3   5 2708.84 782.840   1
   6   3   6 276.591 334.992   3
  -6   3  -6-216.115 301.616   2
   6  -3   6-251.539 434.555   1
   6   3   7 1202.56 638.078   3
   6  -3   7 856.191 430.954   1
  -6   3  -7 1804.96 690.869   2
   6   3   8 968.567 572.411   3
   6   4  -4-232.684 294.542   3
   6   4  -3-26.1193 302.483   3
   6   4  -2-612.737 523.779   3
   6   4  -1-184.209 497.056   3
   6  -4  -1 799.067 573.534   1
   6   4   0-77.5928 476.261   3
   6  -4   0-347.647 397.710   1
   6   4   1-44.7320 511.019   3
   6  -4   1-286.143 351.403   1
   6  -4   2-361.256 408.101   1
   6  -4   3-478.326 526.259   1
   7   0 -14 709.194 472.626   1
   7   0 -13-13.1749 286.302   3
   7   0 -13-994.976 591.805   1
   7   0 -12-150.212 255.497   3
   7   0 -12-481.853 522.129   1
   7   0 -11-40.2620 431.098   1
   7   0 -11 617.754 291.622   3
   7   0 -10 2178.14 598.998   3
   7   0  -9-434.591 356.466   3
   7   0  -8 623.800 247.957   3
   7   0  -7-115.390 202.721   3
   7   0  -6 81132.5 3625.03   3
   7   0  -5-417.313 442.582   3
   7   0  -4 53716.3 2961.33   3
   7   0  -3 314.889 263.246   3
   7   0  -2 3023.73 744.090   3
   7   0  -1 386.196 407.353   3
   7   0   0 1781.79 609.300   3
   7   0   1-108.329 285.508   3
   7   0   2 4583.83 948.869   3
   7   0   3 369.295 465.992   3
   7   0   4 5719.91 1114.27   3
   7   0   5 1071.77 620.576   3
   7   0   6 893.686 516.677   3
   7   0   7-342.133 325.190   3
   7   0   8-193.390 403.966   3
  -7   0  -9-255.859 448.339   2
  -7   0 -10-554.104 528.374   2
  -7   0 -11-27.0614 302.128   2
  -7   0 -12 658.801 483.026   2
   7   1 -18-2195.50 806.167   3
   7   1 -17 1011.69 598.301   3
   7   1 -16-1077.10 541.717   3
   7  -1 -15 421.474 298.390   1
   7   1 -15 540.192 297.061   3
   7  -1 -14 771.456 309.302   1
   7   1 -14-200.085 308.337   3
   7   1 -13 227.220 190.180   3
   7  -1 -13 90.3414 287.946   1
   7   1 -12 702.210 398.168   3
   7  -1 -12 2025.09 672.848   1
   7   1 -11 2596.57 783.074   3
   7  -1 -11 5210.24 1021.52   1
   7  -1 -10-294.686 378.067   1
   7   1 -10 108.686 246.553   3
   7  -1  -9 1784.16 684.088   1
   7   1  -9 1028.91 452.941   3
   7  -1  -8 4741.98 743.946   3
   7   1  -8 4017.46 873.097   3
   7  -1  -8 4470.32 958.218   1
   7  -1  -7 558.657 233.589   3
   7   1  -7-117.590 307.107   3
   7  -1  -7 1025.20 499.187   1
   7  -1  -6 113.440 164.072   3
   7   1  -6 471.620 384.001   3
   7  -1  -6 109.070 332.212   1
   7  -1  -5 6367.32 1171.57   1
   7   1  -5 7595.96 1229.18   3
   7  -1  -5 7661.46 959.689   3
   7  -1  -4 22493.1 2047.71   1
   7  -1  -4 24644.5 1784.67   3
   7   1  -4 24732.9 2238.37   3
   7  -1  -3 27278.3 2302.26   1
   7  -1  -3 27526.4 1930.00   3
   7   1  -3 28408.9 2440.00   3
   7  -1  -2 10437.4 1383.49   1
   7  -1  -2 12136.4 1310.10   3
   7   1  -2 11003.5 1532.07   3
   7   1  -1-264.184 381.075   3
   7  -1  -1 370.383 254.396   3
   7  -1  -1-506.388 541.942   1
   7   1   0 761.460 551.252   3
   7  -1   0 2440.70 777.545   1
   7  -1   0 1885.04 590.480   3
   7   1   1 8156.74 1378.29   3
   7  -1   1 6448.55 1102.33   1
   7  -1   1 6167.05 1044.49   3
   7   1   2 2341.01 771.691   3
   7  -1   2 2193.85 568.241   1
   7  -1   2 2179.73 696.388   3
   7  -1   3-377.349 460.430   1
   7   1   3-257.833 434.144   3
   7  -1   3-193.734 311.846   3
   7   1   4 234.363 394.617   3
   7  -1   4 351.765 405.110   1
   7  -1   5-564.588 452.566   1
   7   1   5 69.8971 366.659   3
   7  -1   6 561.711 322.317   1
   7   1   6 1767.08 778.420   3
   7   1   7 796.236 564.070   3
   7  -1   7-576.422 613.910   1
  -7  -1  -8 198.581 158.752   2
   7   1   8 331.938 246.234   3
  -7  -1  -9 2561.31 781.635   2
  -7   1  -9 2074.58 751.241   2
   7   1   9 1906.64 817.350   3
  -7   1 -10-526.768 424.556   2
   7   1  10 525.767 550.886   3
   7   2 -16 481.947 226.416   3
   7   2 -15 979.574 607.237   3
   7  -2 -15 260.152 239.168   1
   7   2 -14 318.159 539.418   3
   7  -2 -14 361.822 373.727   1
   7   2 -13 718.049 462.114   3
   7  -2 -13 657.323 386.339   1
   7  -2 -12 242.963 524.890   1
   7   2 -12-328.665 472.336   3
   7  -2 -11-176.482 283.439   1
   7   2 -11 232.120 398.807   3
   7  -2 -10 5352.04 1064.44   1
   7   2 -10 4118.69 1044.77   3
   7  -2  -9 1484.71 591.233   1
   7   2  -9 234.605 360.731   3
   7  -2  -8 4755.29 1036.83   1
   7   2  -8 2374.79 760.032   3
   7   2  -7-527.393 446.821   3
   7  -2  -7-643.898 502.461   1
   7   2  -6 262.427 267.078   3
   7  -2  -6-100.824 304.134   1
   7   2  -5 672.199 507.757   3
   7  -2  -5 1204.76 584.366   1
   7   2  -4 1045.64 460.486   3
   7  -2  -4 841.999 505.340   1
   7   2  -3 839.041 495.638   3
   7  -2  -3 1391.11 577.164   1
   7   2  -2 1341.88 635.858   3
   7  -2  -2 1265.85 528.367   1
   7  -2  -1 15508.2 1789.73   1
   7   2  -1 16273.3 2102.13   3
   7   2   0 1862.99 743.504   3
   7  -2   0 2219.93 723.426   1
   7   2   1 880.065 575.858   3
   7  -2   1 1005.07 460.895   1
   7   2   2 1164.37 649.648   3
   7  -2   2 1240.85 493.993   1
   7   2   3 574.339 458.361   3
   7  -2   3 157.775 302.539   1
   7   2   4 508.491 424.068   3
   7  -2   4 1103.59 474.898   1
   7   2   5 868.146 754.102   3
   7  -2   5 31.1585 377.014   1
   7  -2   6 482.750 309.500   1
   7   2   6 1135.35 660.398   3
   7  -2   7 1676.91 581.378   1
   7   2   7 2510.70 921.958   3
  -7   2  -8 889.582 551.633   2
   7   2   8 1116.14 482.229   3
   7  -3 -12 152.102 387.348   1
   7  -3 -11-81.3894 298.948   1
   7   3 -10 151.807 416.206   3
   7  -3 -10 517.722 456.214   1
   7   3  -9 546.645 289.859   3
   7  -3  -9 1363.67 622.372   1
   7   3  -8-309.266 568.698   3
   7  -3  -8 143.441 245.806   1
   7   3  -7-294.504 426.272   3
   7  -3  -7-6.18545 450.468   1
   7   3  -6 909.487 704.721   3
   7  -3  -6 322.520 434.138   1
   7   3  -5-109.382 485.604   3
   7  -3  -5-282.740 392.469   1
   7   3  -4 485.764 659.968   3
   7  -3  -4-180.045 561.598   1
   7   3  -3 256.241 291.562   3
   7  -3  -3-886.872 592.730   1
   7   3  -2 1117.22 636.176   3
   7  -3  -2-188.776 424.743   1
   7   3  -1 70.5542 519.627   3
   7  -3  -1 49.2448 330.199   1
   7   3   0-475.036 753.534   3
   7  -3   0 484.994 441.215   1
   7   3   1 954.634 534.345   3
   7  -3   1 1380.66 736.036   1
   7   3   2 1442.73 843.171   3
   7  -3   2 2164.37 800.672   1
   7   3   3-496.315 494.431   3
   7  -3   3 807.310 512.884   1
   7   3   4 805.200 590.277   3
   7  -3   4-678.445 567.662   1
   7  -3   5 896.011 481.048   1
   7  -3   6 2136.17 782.826   1
   8   0 -14-543.907 620.835   1
   8   0 -13 360.324 491.245   1
   8   0 -12 3269.85 1005.61   1
   8   0 -11-330.482 306.995   3
   8   0 -11-1256.89 781.002   1
   8   0 -10 790.443 465.830   3
   8   0  -9-211.971 281.427   3
   8   0  -8 2416.80 682.870   3
   8   0  -7 336.113 285.149   3
   8   0  -6-10.1026 245.945   3
   8   0  -5 129.239 319.082   3
   8   0  -4 635.870 397.744   3
   8   0  -3-404.033 490.678   3
   8   0  -2 2063.36 734.964   3
   8   0  -1 100.784 303.898   3
   8   0   0 348.987 479.020   3
   8   0   1-63.5626 318.262   3
   8   0   2 8202.00 1396.87   3
   8   0   3-404.803 526.985   3
   8   0   4 817.874 531.766   3
   8   0   5 242.186 417.538   3
   8   0   6 2206.72 838.291   3
   8   0   7 853.116 550.426   3
  -8   0  -9-1070.44 569.520   2
  -8   0 -10 3643.84 1064.85   2
   8   1 -16-10.4718 383.693   3
   8  -1 -15 676.762 607.268   1
   8   1 -15 103.046 224.293   3
   8   1 -14-388.911 426.569   3
   8  -1 -14-507.695 444.561   1
   8   1 -13-392.543 304.146   3
   8  -1 -13-309.847 551.314   1
   8   1 -12 1135.50 524.592   3
   8  -1 -12 109.511 248.057   1
   8  -1 -11-1374.38 614.471   1
   8   1 -11-73.3114 383.342   3
   8  -1 -10 1526.64 591.673   1
   8   1 -10 1494.11 565.645   3
   8   1  -9 706.551 426.805   3
   8  -1  -9 1828.30 748.129   1
   8   1  -8 787.715 525.248   3
   8  -1  -8-589.387 666.564   1
   8   1  -7 2242.11 784.746   3
   8  -1  -7 4434.76 1042.21   1
   8   1  -6 1479.96 640.101   3
   8  -1  -6 2597.92 780.102   1
   8   1  -5 3283.70 914.432   3
   8  -1  -5 2731.33 922.943   1
   8  -1  -5 3687.88 730.748   3
   8   1  -4 1579.49 643.108   3
   8  -1  -4 1733.57 793.028   1
   8  -1  -4 2585.51 606.912   3
   8   1  -3 3530.76 842.726   3
   8  -1  -3 2819.15 818.024   1
   8  -1  -3 3073.29 667.185   3
   8   1  -2 233.084 330.465   3
   8  -1  -2-34.1302 220.782   3
   8  -1  -2-581.689 623.937   1
   8   1  -1-22.5853 416.677   3
   8  -1  -1 552.967 370.422   3
   8   1   0 778.303 561.858   3
   8  -1   0 1310.70 659.791   1
   8  -1   0-418.928 575.599   3
   8   1   1-381.522 513.280   3
   8  -1   1 52.5264 414.069   1
   8  -1   1-130.458 248.741   3
   8   1   2-112.868 323.742   3
   8  -1   2 833.153 528.277   1
   8  -1   2 654.930 467.836   3
   8   1   3 1325.75 656.208   3
   8  -1   3 614.447 452.418   1
   8  -1   4 2037.17 532.190   1
   8   1   4 3080.26 952.522   3
   8  -1   5 840.287 429.452   1
   8   1   5 689.819 460.249   3
   8  -1   6-957.468 598.419   1
   8   1   6-806.186 714.406   3
   8  -1   7 1914.40 715.001   1
   8   1   7 509.596 492.437   3
   8  -2 -15-1602.48 717.626   1
   8   2 -14 1184.42 864.600   3
   8  -2 -14 1253.05 548.083   1
   8  -2 -13 1091.49 529.045   1
   8   2 -13 171.847 256.155   3
   8  -2 -12 96.6436 568.908   1
   8   2 -12 270.080 220.865   3
   8  -2 -11-436.315 333.896   1
   8   2 -11-149.001 518.609   3
   8  -2 -10 280.959 516.118   1
   8   2 -10 143.044 332.628   3
   8  -2  -9 285.809 309.056   1
   8   2  -9 459.751 431.908   3
   8   2  -8 784.121 536.459   3
   8  -2  -8 821.615 397.114   1
   8   2  -7 338.067 490.690   3
   8  -2  -7-526.002 508.627   1
   8   2  -6 796.967 370.951   3
   8  -2  -6 868.013 533.185   1
   8   2  -5 234.469 299.732   3
   8  -2  -5 134.334 308.637   1
   8   2  -4 1330.34 670.553   3
   8  -2  -4 2124.17 699.492   1
   8   2  -3 6298.16 1386.60   3
   8  -2  -3 7320.65 1319.35   1
   8   2  -2 13325.5 2031.41   3
   8  -2  -2 10288.4 1573.84   1
   8   2  -1 909.345 638.093   3
   8  -2  -1 1269.53 542.632   1
   8   2   0-64.9906 450.142   3
   8  -2   0 355.190 397.198   1
   8   2   1 384.603 346.163   3
   8  -2   1-1169.62 627.335   1
   8   2   2 345.383 370.084   3
   8  -2   2-20.9470 401.011   1
   8   2   3-86.2050 302.792   3
   8  -2   3 4.67946 229.175   1
   8   2   4 275.390 310.109   3
   8  -2   4-161.155 426.236   1
   8  -2   5-69.1691 400.956   1
   8  -2   6 2596.93 841.117   1
   9   0 -14-732.694 549.805   1
   9   0 -13-897.910 743.975   1
   9   0 -12 60.2145 434.084   1
   9   0 -11-185.899 509.491   1
   9   0  -8 244.630 322.493   3
   9   0  -7 421.069 495.547   3
   9   0  -6 2639.63 812.408   3
   9   0  -5-590.839 659.354   3
   9   0  -4-432.360 443.621   3
   9   0  -3 315.777 421.407   3
   9   0  -2 6.52507 479.303   3
   9   0  -1-347.697 553.770   3
   9   0   0-1017.75 658.832   3
   9   0   1-423.788 510.472   3
   9   0   2 216.605 328.877   3
   9   0   3-374.764 613.091   3
   9   0   4-328.936 411.721   3
   9   0   5-234.984 362.666   3
   9  -1 -15-1025.51 592.672   1
   9  -1 -14 1059.29 523.162   1
   9   1 -13 98.1478 379.886   3
   9  -1 -13 2047.24 821.507   1
   9   1 -12-657.577 501.555   3
   9  -1 -12 1291.47 687.514   1
   9  -1 -11 922.904 480.472   1
   9   1 -11 610.850 542.329   3
   9  -1 -10-29.9295 403.272   1
   9   1 -10-279.625 237.920   3
   9   1  -9-535.960 444.951   3
   9  -1  -9 348.060 448.762   1
   9   1  -8 349.145 331.394   3
   9  -1  -8 1112.32 694.500   1
   9   1  -7 813.719 372.080   3
   9  -1  -7 1604.04 838.599   1
   9   1  -6-304.866 298.153   3
   9  -1  -6 472.992 441.516   1
   9   1  -5 4387.22 1102.68   3
   9  -1  -5 3809.94 1111.41   1
   9   1  -4-246.008 383.092   3
   9  -1  -4 162.515 573.829   1
   9   1  -3 1895.42 758.404   3
   9  -1  -3 1300.35 685.282   1
   9   1  -2-313.969 592.178   3
   9  -1  -2 619.326 532.169   1
   9  -1  -2-195.076 263.718   3
   9   1  -1 839.926 436.329   3
   9  -1  -1 1445.94 832.160   1
   9  -1  -1 1547.41 596.473   3
   9   1   0-168.346 405.249   3
   9  -1   0 313.372 393.898   1
   9  -1   0-393.589 480.366   3
   9   1   1 313.585 493.790   3
   9  -1   1-293.397 527.460   1
   9  -1   1-253.934 271.778   3
   9   1   2 166.634 400.946   3
   9  -1   2 216.203 613.236   1
   9  -1   2-20.6385 405.058   3
   9  -1   3 615.253 442.155   1
   9   1   3 149.302 333.214   3
   9  -1   4-346.930 597.383   1
   9  -1   5-2072.62 797.369   1
   9  -1   6-1419.15 693.898   1
   9   2 -10 830.383 700.898   3
   9   2  -9 269.948 297.429   3
   9   2  -8-1445.29 740.695   3
   9   2  -7-575.517 571.810   3
   9   2  -6 2565.51 991.664   3
   9  -2  -6 2476.76 876.805   1
   9   2  -5 1735.98 818.531   3
   9  -2  -5 873.025 558.934   1
   9   2  -4-446.064 560.932   3
   9  -2  -4 710.231 691.440   1
   9   2  -3-29.2304 387.953   3
   9  -2  -3-188.803 411.929   1
   9   2  -2-227.927 491.057   3
   9  -2  -2 506.044 408.251   1
   9   2  -1 689.206 540.698   3
   9  -2  -1 291.860 336.511   1
  10   0  -5-118.004 263.053   3
  10   0  -4 7856.40 1439.70   3
  10   0  -3 93.6134 375.818   3
  10   0  -2 3151.73 790.082   3
  10   0  -1-108.850 324.193   3
  10   0   0 64.0397 317.999   3
  10   0   1-48.8638 505.817   3
  10   0   2 81.1801 461.429   3
  10   1 -11-378.042 436.275   3
  10   1 -10 978.033 660.431   3
  10   1  -9 517.369 497.615   3
  10   1  -8 263.130 503.968   3
  10   1  -7-361.357 433.538   3
  10   1  -6 954.574 401.867   3
  10   1  -5 1666.52 776.248   3
  10   1  -4 1220.50 723.701   3
  10   1  -3 542.502 413.658   3
  10   1  -2 599.183 450.120   3
   0   0   0    0.00    0.00   0
TITL BKS-SS-DI-ANTH-283-SS in P2(1)/c
REM P2(1)/c (#14 in standard setting)
CELL 0.71073   7.886785   3.971824  15.822407  90.0000 102.7190  90.0000
ZERR    2.00   0.000964   0.000510   0.002330   0.0000   0.0128   0.0000
LATT  1
SYMM -x, y+1/2,-z+1/2
SFAC C H O
UNIT 24.00 16.00 4.00
TREF
HKLF 4
END
;
_shelx_hkl_checksum              76994
_olex2_submission_special_instructions 'No special instructions were received'
loop_
_space_group_symop_operation_xyz
'x, y, z'
'-x, y+1/2, -z+1/2'
'-x, -y, -z'
'x, -y-1/2, z-1/2'
loop_
_atom_site_label
_atom_site_type_symbol
_atom_site_fract_x
_atom_site_fract_y
_atom_site_fract_z
_atom_site_U_iso_or_equiv
_atom_site_adp_type
_atom_site_occupancy
_atom_site_site_symmetry_order
_atom_site_calc_flag
_atom_site_refinement_flags_posn
_atom_site_refinement_flags_adp
_atom_site_refinement_flags_occupancy
_atom_site_disorder_assembly
_atom_site_disorder_group
C2 C 0.4369(3) 0.6532(5) 0.41546(14) 0.0445(6) Uani 1 1 d . . . . .
C7 C 0.3265(3) 0.6395(5) 0.47349(14) 0.0438(6) Uani 1 1 d . . . . .
C1 C 0.6156(3) 0.5133(5) 0.43927(15) 0.0481(6) Uani 1 1 d . . . . .
C5 C 0.1018(3) 0.9137(6) 0.36767(17) 0.0611(7) Uani 1 1 d . . . . .
H5 H -0.009908 1.002121 0.351950 0.073 Uiso 1 1 calc R U . . .
O1 O 0.7125(2) 0.5217(5) 0.38857(12) 0.0775(7) Uani 1 1 d . . . . .
C3 C 0.3769(3) 0.7978(6) 0.33364(15) 0.0555(7) Uani 1 1 d . . . . .
H3 H 0.449516 0.808145 0.294693 0.067 Uiso 1 1 calc R U . . .
C6 C 0.1591(3) 0.7703(6) 0.44868(16) 0.0547(7) Uani 1 1 d . . . . .
H6 H 0.085034 0.761314 0.486946 0.066 Uiso 1 1 calc R U . . .
C4 C 0.2099(3) 0.9255(6) 0.31056(17) 0.0609(7) Uani 1 1 d . . . . .
H4 H 0.170503 1.019887 0.255972 0.073 Uiso 1 1 calc R U . . .
loop_
_atom_site_aniso_label
_atom_site_aniso_U_11
_atom_site_aniso_U_22
_atom_site_aniso_U_33
_atom_site_aniso_U_23
_atom_site_aniso_U_13
_atom_site_aniso_U_12
C2 0.0429(13) 0.0463(13) 0.0434(13) -0.0034(10) 0.0077(10) -0.0036(10)
C7 0.0382(13) 0.0455(14) 0.0462(14) -0.0053(11) 0.0059(10) -0.0030(10)
C1 0.0430(14) 0.0573(15) 0.0458(15) -0.0046(11) 0.0139(11) -0.0035(11)
C5 0.0475(15) 0.0608(17) 0.0676(19) -0.0070(13) -0.0032(13) 0.0041(12)
O1 0.0605(12) 0.1180(17) 0.0617(13) 0.0151(11) 0.0301(10) 0.0121(11)
C3 0.0613(17) 0.0590(15) 0.0463(15) 0.0017(12) 0.0122(12) -0.0014(12)
C6 0.0434(14) 0.0578(15) 0.0635(17) -0.0046(13) 0.0128(12) -0.0010(11)
C4 0.0667(19) 0.0584(16) 0.0514(16) -0.0015(12) -0.0005(13) 0.0044(13)
loop_
_atom_type_symbol
_atom_type_description
_atom_type_scat_dispersion_real
_atom_type_scat_dispersion_imag
_atom_type_scat_source
C C 0.0033 0.0016 'International Tables Vol C Tables 4.2.6.8 and 6.1.1.4'
H H 0.0000 0.0000 'International Tables Vol C Tables 4.2.6.8 and 6.1.1.4'
O O 0.0106 0.0060 'International Tables Vol C Tables 4.2.6.8 and 6.1.1.4'
loop_
_geom_angle_atom_site_label_1
_geom_angle_atom_site_label_2
_geom_angle_atom_site_label_3
_geom_angle
_geom_angle_site_symmetry_1
_geom_angle_site_symmetry_3
_geom_angle_publ_flag
C7 C2 C1 120.8(2) . . ?
C7 C2 C3 119.4(2) . . ?
C3 C2 C1 119.8(2) . . ?
C2 C7 C1 121.2(2) . 3_666 ?
C6 C7 C2 119.3(2) . . ?
C6 C7 C1 119.5(2) . 3_666 ?
C7 C1 C2 117.97(18) 3_666 . ?
O1 C1 C2 121.2(2) . . ?
O1 C1 C7 120.8(2) . 3_666 ?
C6 C5 H5 120.0 . . ?
C4 C5 H5 120.0 . . ?
C4 C5 C6 120.0(2) . . ?
C2 C3 H3 119.9 . . ?
C4 C3 C2 120.2(2) . . ?
C4 C3 H3 119.9 . . ?
C7 C6 H6 119.7 . . ?
C5 C6 C7 120.7(2) . . ?
C5 C6 H6 119.7 . . ?
C5 C4 C3 120.5(2) . . ?
C5 C4 H4 119.8 . . ?
C3 C4 H4 119.8 . . ?
loop_
_geom_bond_atom_site_label_1
_geom_bond_atom_site_label_2
_geom_bond_distance
_geom_bond_site_symmetry_2
_geom_bond_publ_flag
C2 C7 1.399(3) . ?
C2 C1 1.485(3) . ?
C2 C3 1.400(3) . ?
C7 C1 1.485(3) 3_666 ?
C7 C6 1.393(3) . ?
C1 O1 1.224(2) . ?
C5 H5 0.9300 . ?
C5 C6 1.384(3) . ?
C5 C4 1.373(3) . ?
C3 H3 0.9300 . ?
C3 C4 1.383(3) . ?
C6 H6 0.9300 . ?
C4 H4 0.9300 . ?
loop_
_geom_torsion_atom_site_label_1
_geom_torsion_atom_site_label_2
_geom_torsion_atom_site_label_3
_geom_torsion_atom_site_label_4
_geom_torsion
_geom_torsion_site_symmetry_1
_geom_torsion_site_symmetry_2
_geom_torsion_site_symmetry_3
_geom_torsion_site_symmetry_4
_geom_torsion_publ_flag
C2 C7 C6 C5 -0.2(3) . . . . ?
C2 C3 C4 C5 0.4(4) . . . . ?
C7 C2 C1 C7 -0.3(3) . . . 3_666 ?
C7 C2 C1 O1 179.4(2) . . . . ?
C7 C2 C3 C4 -0.1(3) . . . . ?
C1 C2 C7 C1 0.3(3) . . . 3_666 ?
C1 C2 C7 C6 -179.40(18) . . . . ?
C1 C2 C3 C4 179.29(19) . . . . ?
C1 C7 C6 C5 -179.92(19) 3_666 . . . ?
C3 C2 C7 C1 179.67(19) . . . 3_666 ?
C3 C2 C7 C6 -0.1(3) . . . . ?
C3 C2 C1 C7 -179.66(19) . . . 3_666 ?
C3 C2 C1 O1 0.0(3) . . . . ?
C6 C5 C4 C3 -0.7(4) . . . . ?
C4 C5 C6 C7 0.5(4) . . . . ?
