#------------------------------------------------------------------------------
#$Date: 2021-09-06 13:32:23 +0300 (Mon, 06 Sep 2021) $
#$Revision: 268688 $
#$URL: file:///home/coder/svn-repositories/cod/cif/7/24/27/7242767.cif $
#------------------------------------------------------------------------------
#
# This file is available in the Crystallography Open Database (COD),
# http://www.crystallography.net/
#
# All data on this site have been placed in the public domain by the
# contributors.
#
data_7242767
loop_
_publ_author_name
'Rather, Sumair A.'
'Saha, Binoy K.'
_publ_section_title
;
 Understanding the elastic bending mechanism in a 9,10-anthraquinone
 crystal through thermal expansion study
;
_journal_issue                   34
_journal_name_full               CrystEngComm
_journal_page_first              5768
_journal_page_last               5773
_journal_paper_doi               10.1039/D1CE00467K
_journal_volume                  23
_journal_year                    2021
_chemical_formula_moiety         'C14 H8 O2'
_chemical_formula_sum            'C14 H8 O2'
_chemical_formula_weight         208.20
_chemical_name_common            AnthraQuinone
_chemical_name_systematic        9,10-Anthracenedione
_space_group_crystal_system      monoclinic
_space_group_IT_number           14
_space_group_name_Hall           '-P 2ybc'
_space_group_name_H-M_alt        'P 1 21/c 1'
_atom_sites_solution_hydrogens   geom
_atom_sites_solution_primary     dual
_audit_creation_date             2021-03-31
_audit_creation_method
;
Olex2 1.3-alpha
(compiled 2019.09.11 svn.r3662 for OlexSys, GUI svn.r5938)
;
_audit_update_record
;
2021-04-06 deposited with the CCDC.	2021-05-03 downloaded from the CCDC.
;
_cell_angle_alpha                90
_cell_angle_beta                 102.653(10)
_cell_angle_gamma                90
_cell_formula_units_Z            2
_cell_length_a                   7.8758(8)
_cell_length_b                   3.9534(5)
_cell_length_c                   15.7573(16)
_cell_measurement_reflns_used    454
_cell_measurement_temperature    253
_cell_measurement_theta_max      29.1730
_cell_measurement_theta_min      3.3060
_cell_volume                     478.71(9)
_computing_cell_refinement
;
CrysAlisPro, Agilent Technologies,
Version 1.171.36.21 (release 14-08-2012 CrysAlis171 .NET)
(compiled Sep 14 2012,17:21:16)
;
_computing_data_collection
;
CrysAlisPro, Agilent Technologies,
Version 1.171.36.21 (release 14-08-2012 CrysAlis171 .NET)
(compiled Sep 14 2012,17:21:16)
;
_computing_data_reduction
;
CrysAlisPro, Agilent Technologies,
Version 1.171.36.21 (release 14-08-2012 CrysAlis171 .NET)
(compiled Sep 14 2012,17:21:16)
;
_computing_molecular_graphics    'Olex2 1.3-alpha (Dolomanov et al., 2009)'
_computing_publication_material  'Olex2 1.3-alpha (Dolomanov et al., 2009)'
_computing_structure_refinement  'ShelXL 2018/3 (Sheldrick, 2015)'
_computing_structure_solution    'SHELXT 2018/2 (Sheldrick, 2018)'
_diffrn_ambient_temperature      253
_diffrn_detector_area_resol_mean 15.9821
_diffrn_measured_fraction_theta_full 0.986
_diffrn_measured_fraction_theta_max 0.820
_diffrn_measurement_details
;
#__ type_ start__ end____ width___ exp.time_
  1 omega  -93.00  -35.00   1.0000    3.0000
omega____ theta____ kappa____ phi______ frames
    -      -16.8710 -178.0000  -30.0000 58

#__ type_ start__ end____ width___ exp.time_
  2 omega  -48.00   40.00   1.0000    3.0000
omega____ theta____ kappa____ phi______ frames
    -       19.6835  -57.0000 -180.0000 88

#__ type_ start__ end____ width___ exp.time_
  3 omega   -1.00   86.00   1.0000    3.0000
omega____ theta____ kappa____ phi______ frames
    -       19.6835   57.0000  -30.0000 87
;
_diffrn_measurement_device_type  'Xcalibur, Eos'
_diffrn_measurement_method       '\w scans'
_diffrn_radiation_type           MoK\a
_diffrn_radiation_wavelength     0.71073
_diffrn_reflns_av_R_equivalents  0.0264
_diffrn_reflns_av_unetI/netI     0.0534
_diffrn_reflns_Laue_measured_fraction_full 0.986
_diffrn_reflns_Laue_measured_fraction_max 0.820
_diffrn_reflns_limit_h_max       5
_diffrn_reflns_limit_h_min       -10
_diffrn_reflns_limit_k_max       5
_diffrn_reflns_limit_k_min       -5
_diffrn_reflns_limit_l_max       21
_diffrn_reflns_limit_l_min       -20
_diffrn_reflns_number            2125
_diffrn_reflns_point_group_measured_fraction_full 0.986
_diffrn_reflns_point_group_measured_fraction_max 0.820
_diffrn_reflns_theta_full        25.000
_diffrn_reflns_theta_max         29.237
_diffrn_reflns_theta_min         3.313
_exptl_absorpt_coefficient_mu    0.097
_exptl_absorpt_correction_T_max  1.00000
_exptl_absorpt_correction_T_min  0.05642
_exptl_absorpt_correction_type   multi-scan
_exptl_absorpt_process_details
;
CrysAlisPro, Agilent Technologies,
Version 1.171.36.21 (release 14-08-2012 CrysAlis171 .NET)
(compiled Sep 14 2012,17:21:16)
Empirical absorption correction using spherical harmonics,
 implemented in SCALE3 ABSPACK scaling algorithm.
;
_exptl_crystal_colour            yellow
_exptl_crystal_colour_primary    yellow
_exptl_crystal_density_diffrn    1.444
_exptl_crystal_description       block
_exptl_crystal_F_000             216
_exptl_crystal_size_max          0.62
_exptl_crystal_size_mid          0.26
_exptl_crystal_size_min          0.16
_refine_diff_density_max         0.171
_refine_diff_density_min         -0.227
_refine_diff_density_rms         0.048
_refine_ls_extinction_method     none
_refine_ls_goodness_of_fit_ref   1.022
_refine_ls_hydrogen_treatment    constr
_refine_ls_matrix_type           full
_refine_ls_number_parameters     73
_refine_ls_number_reflns         1072
_refine_ls_number_restraints     0
_refine_ls_restrained_S_all      1.022
_refine_ls_R_factor_all          0.0956
_refine_ls_R_factor_gt           0.0551
_refine_ls_shift/su_max          0.000
_refine_ls_shift/su_mean         0.000
_refine_ls_structure_factor_coef Fsqd
_refine_ls_weighting_details
'w=1/[\s^2^(Fo^2^)+(0.0658P)^2^] where P=(Fo^2^+2Fc^2^)/3'
_refine_ls_weighting_scheme      calc
_refine_ls_wR_factor_gt          0.1230
_refine_ls_wR_factor_ref         0.1554
_reflns_Friedel_coverage         0.000
_reflns_number_gt                654
_reflns_number_total             1072
_reflns_threshold_expression     'I > 2\s(I)'
_cod_data_source_file            d1ce00467k2.cif
_cod_data_source_block           anthraquinone-253k
_cod_depositor_comments
'Adding full bibliography for 7242759--7242768.cif.'
_cod_database_code               7242767
_shelx_shelxl_version_number     2018/3
_shelx_space_group_comment
;
The symmetry employed for this shelxl refinement is uniquely defined
by the following loop, which should always be used as a source of
symmetry information in preference to the above space-group names.
They are only intended as comments.
;
_olex2_refinement_description
;
1. Fixed Uiso
 At 1.2 times of:
  All C(H) groups
2.a Aromatic/amide H refined with riding coordinates:
 C5(H5), C3(H3), C6(H6), C4(H4)
;
_shelx_res_file
;
TITL anthraquinone-253k_a.res in P2(1)/c
    anthraquinone-253k.res
    created by SHELXL-2018/3 at 17:40:11 on 31-Mar-2021
REM Old TITL
REM SHELXT solution in P2(1)/c: R1 0.176, Rweak 0.408, Alpha 0.026
REM <I/s> 0.280 for 135 systematic absences, Orientation as input
REM Formula found by SHELXT: C7 O
CELL 0.71073 7.8758 3.9534 15.7573 90 102.653 90
ZERR 2 0.0008 0.0005 0.0016 0 0.01 0
LATT 1
SYMM -X,0.5+Y,0.5-Z
SFAC C H O
UNIT 28 16 4

L.S. 4
PLAN  5
CONF
list 4
MORE -1
BOND $H
fmap 2
acta 50
REM <olex2.extras>
REM <HklSrc "%.\\Anthraquinone-253K.hkl">
REM </olex2.extras>

WGHT    0.065800
FVAR       1.36589
C2    1    0.436684    0.652954    0.415364    11.00000    0.03627    0.03933 =
         0.03903   -0.00431    0.00717   -0.00262
C7    1    0.326024    0.639746    0.473671    11.00000    0.03200    0.03934 =
         0.04209   -0.00436    0.00733   -0.00228
C1    1    0.615419    0.512942    0.438780    11.00000    0.03668    0.04874 =
         0.03934   -0.00399    0.01347   -0.00341
C5    1    0.100838    0.913959    0.368119    11.00000    0.03947    0.05178 =
         0.06171   -0.00433   -0.00277    0.00337
AFIX  43
H5    2   -0.011250    1.001650    0.352490    11.00000   -1.20000
AFIX   0
O1    3    0.711993    0.522295    0.387921    11.00000    0.05180    0.10217 =
         0.05384    0.01084    0.02711    0.00988
C3    1    0.375602    0.797388    0.333432    11.00000    0.05319    0.05067 =
         0.03980   -0.00145    0.00970    0.00027
AFIX  43
H3    2    0.447890    0.806406    0.294065    11.00000   -1.20000
AFIX   0
C6    1    0.158498    0.771142    0.449175    11.00000    0.03699    0.04954 =
         0.05283   -0.00364    0.00993    0.00125
AFIX  43
H6    2    0.084715    0.762570    0.487831    11.00000   -1.20000
AFIX   0
C4    1    0.208815    0.927039    0.310273    11.00000    0.05862    0.05086 =
         0.04144    0.00102   -0.00190    0.00407
AFIX  43
H4    2    0.169536    1.023104    0.255619    11.00000   -1.20000
AFIX   0
HKLF 4




REM  anthraquinone-253k_a.res in P2(1)/c
REM wR2 = 0.1554, GooF = S = 1.022, Restrained GooF = 1.022 for all data
REM R1 = 0.0551 for 654 Fo > 4sig(Fo) and 0.0956 for all 1072 data
REM 73 parameters refined using 0 restraints

END

WGHT      0.0658      0.0000

REM Highest difference peak  0.171,  deepest hole -0.227,  1-sigma level  0.048
Q1    1   0.4835  1.0061  0.4446  11.00000  0.05    0.17
Q2    1   0.4774  0.8009  0.2810  11.00000  0.05    0.15
Q3    1   0.5322  0.6186  0.4383  11.00000  0.05    0.14
Q4    1   0.0869  0.7840  0.5143  11.00000  0.05    0.13
Q5    1   0.4380  0.9111  0.5094  11.00000  0.05    0.13
;
_shelx_res_checksum              25353
_shelx_hkl_file
;
   0   0   3   -0.17    0.62
   0   0  -3    0.13    0.57
   0   0   4 2096.76   26.13
   0   0  -4 2097.61   25.84
   0   0   5    0.52    0.79
   0   0  -5    0.03    0.81
   0   0  -6    8.66    2.29
   0   0   6    6.43    2.01
   0   0   7    0.43    1.18
   0   0  -7    0.32    0.93
   0   0   8  238.31   12.71
   0   0  -8  239.94   13.20
   0   0  -9   -0.48    1.47
   0   0 -10    3.84    2.19
   0   0 -11   -0.59    1.85
   0   0 -12   14.53    4.03
   0   0 -13   -2.27    2.14
   0   0 -14   49.10    7.85
   0   0 -15   -0.52    1.32
   0   0 -16   11.02    3.53
   0   0 -17   -0.66    1.81
   0   0 -18    3.45    2.06
   0  -1   0    0.21    0.64
   0   1   0    0.39    0.62
   0   1   0    1.51    1.05
   0   1  -1 1645.02   17.52
   0   1  -1 1671.35   18.15
   0   1   1 1656.20   23.13
   0  -1   1 1658.84   17.91
   0   1  -1 1666.03   25.79
   0  -1   1 1608.60   25.69
   0  -1  -1 1636.25   23.64
   0   1   2 5724.45   47.79
   0  -1  -2 5713.86   49.35
   0   1  -2 5730.27   26.13
   0   1  -2 5723.04   29.05
   0   1  -2 5781.88   50.52
   0  -1   2 5707.81   50.72
   0   1  -3 1681.31   16.21
   0   1   3 1745.05   28.66
   0  -1  -3 1718.10   29.87
   0  -1   3 1696.62   28.93
   0  -1   3 1697.48   14.36
   0  -1  -4  264.13   12.54
   0  -1   4  237.59    6.26
   0  -1   4  249.91   11.97
   0   1   4  277.83   12.29
   0   1  -5 1380.28   15.40
   0  -1   5 1394.45   17.40
   0  -1   5 1337.07   29.50
   0   1  -6  472.16   10.65
   0  -1  -6  415.19   18.02
   0  -1   6  480.14   12.01
   0  -1   6  438.00   18.19
   0   1  -7  259.15    9.15
   0  -1   7  269.17   15.30
   0  -1  -7  235.73   14.46
   0  -1   8  160.66    8.20
   0   1  -8  184.37    8.50
   0  -1  -8  182.67   13.39
   0  -1   8  202.34   14.28
   0  -1  -9   68.64    8.85
   0   1  -9   67.07    5.64
   0  -1   9   53.77    5.38
   0  -1  10   16.34    3.55
   0   1 -10   19.84    3.16
   0  -1 -10   21.37    5.23
   0  -1  11   -0.43    1.66
   0   1 -11    0.16    0.58
   0   1 -12    9.12    2.31
   0  -1 -12   21.06    5.74
   0   1 -13   -0.11    1.01
   0  -1 -13   -0.57    3.25
   0  -1 -14    7.68    4.10
   0   1 -14    5.39    1.68
   0  -1 -15   10.01    4.72
   0  -1 -16    5.58    3.83
   0  -1 -17   -4.46    3.68
   0  -1  18    2.50    2.31
   0  -1 -18    3.60    2.44
   0  -1 -19   -8.92    4.76
   0  -1 -20   -6.01    3.21
   0   2   0  143.25    8.84
   0  -2   0  133.50    8.76
   0   2  -1  165.98    8.83
   0   2  -1  153.66    8.41
   0   2   1  160.21   10.04
   0  -2  -1  163.03   10.43
   0   2  -2   34.64    3.73
   0   2  -2   38.70    4.06
   0  -2  -2   35.85    5.13
   0  -2   2   32.89    5.33
   0   2  -3  333.11   10.51
   0   2  -3  318.30    9.78
   0  -2   3  349.76   17.52
   0  -2  -3  303.01   15.66
   0   2  -4  212.46    6.58
   0  -2  -4  225.69   14.25
   0   2  -4  213.70    7.47
   0  -2   5  684.09   25.66
   0  -2  -5  632.43   25.02
   0  -2   6   96.09   10.13
   0  -2  -6   76.89    9.31
   0  -2   7   49.98    7.77
   0  -2  -7   52.84    8.04
   0  -2   8   37.98    2.86
   0  -2  -8   58.08    8.84
   0  -2   8   65.04    8.79
   0  -2   9   -0.25    0.35
   0  -2   9   -1.39    2.99
   0  -2  -9    0.41    1.76
   0  -2  10   57.02    9.42
   0  -2 -10   32.00    6.98
   0  -2 -11    2.49    2.16
   0  -2  11    6.33    4.02
   0  -2 -12   32.01    7.40
   0  -2  12   37.11    7.87
   0  -2 -13   40.32    9.07
   0  -2  13   51.61    9.81
   0  -2 -14    8.38    5.17
   0  -2  14    7.56    5.93
   0  -2 -15   58.07   11.56
   0  -2  15   69.09   12.12
   0  -2 -16   47.66   10.84
   0  -2  16   82.24   13.49
   0  -2 -17   -5.37    5.73
   0  -2  17   -0.21    2.87
   0  -2 -18   -0.20    2.94
   0   3   0   -0.24    1.41
   0  -3  -1    3.84    2.36
   0   3  -1    2.97    1.42
   0  -3  -2   81.70   10.07
   0   3  -2   86.62    7.82
   0  -3  -3   42.61    7.54
   0   3  -3   57.32    6.00
   0   3  -4    6.40    1.82
   0  -3   4    9.26    3.36
   0  -3  -4    5.41    2.13
   0  -3   5    9.46    3.88
   0   3  -5    2.07    0.72
   0  -3  -5    9.56    3.43
   0  -3  -6    7.59    3.16
   0  -3   6   12.55    4.24
   0  -3  -7   -3.31    2.88
   0  -3   7    5.05    3.40
   0  -3   8   18.85    5.60
   0  -3  -8   18.10    5.98
   0  -3  -9   26.42    7.29
   0  -3   9   37.59    7.86
   0  -3 -10    3.05    2.52
   0  -3  10    8.60    4.13
   0  -3 -11    7.51    4.07
   0  -3  11   15.23    5.61
   0  -3 -12   24.46    7.78
   0  -3  12   22.27    6.76
   0  -3  13    2.66    2.47
   0  -3 -13    0.67    2.98
   0  -3 -14    1.54    2.17
   0  -3  14    3.79    2.66
   0  -3 -15    0.06    3.31
   0  -3  15    8.82    6.32
   0   4   0    1.25    1.70
   0   4   1    3.19    2.17
   0   4   2    2.70    1.44
   0   4   3    0.00    1.07
   0  -4  -5    0.00    2.48
   0  -4  -6    6.89    3.01
   0  -4   7    5.26    1.97
   0  -4  -7   -1.49    2.92
   0  -4   8   17.29    6.64
   0  -4  -8   12.77    5.73
   0  -4   9   -1.38    3.47
   0  -4  -9   -6.96    5.03
   0  -4 -10    9.99    5.07
   0  -4  10   22.85    7.42
   0  -4  11   20.69    7.24
   0  -4 -11    9.94    5.53
   0   5   7   -2.42    2.70
   1   0 -17   -0.72    1.75
   1   0 -16   -1.63    2.64
   1   0 -15    0.55    1.95
   1   0 -14   12.63    4.08
   1   0 -13   -1.47    2.72
   1   0 -12  297.04   18.75
   1   0 -11   -0.07    1.04
   1   0 -10    2.14    1.67
   1   0  -9   -0.10    0.96
  -1   0   8  216.81   11.38
   1   0  -8  215.71   11.94
  -1   0   7    1.20    1.25
   1   0  -7   -0.43    0.92
   1   0  -6  883.64   20.91
  -1   0   6  913.62   20.29
  -1   0   5   -0.03    0.79
   1   0  -5    0.33    0.63
  -1   0   4  904.39   16.99
  -1   0   3   -0.34    0.56
   1   0  -2 2902.18   25.64
  -1   0  -2  115.58    6.24
  -1   0  -3    0.80    1.38
   1   0   3   -0.36    1.11
   1   0   4  367.76   13.51
  -1   0  -4  348.72   12.68
   1   0   5    0.00    1.07
  -1   0  -5   -1.08    1.69
  -1   0  -6 3129.84   44.82
   1   0   6 3170.32   45.07
  -1   0  -7    2.14    2.30
  -1   0  -8 1984.94   41.16
  -1   0  -9    0.77    2.31
  -1   0 -10  100.92   10.33
  -1   0 -11   -3.22    3.25
  -1   0 -12   63.70    9.33
  -1   0 -13   -0.83    2.09
  -1   0 -14   21.53    5.67
  -1   0 -15    0.40    1.37
  -1   0 -16   47.23    8.42
  -1   0 -17   -2.37    2.06
  -1  -1  19   11.84    4.48
   1  -1 -19    7.20    3.42
  -1  -1  18    4.29    3.51
   1  -1 -18    0.87    1.61
   1  -1 -17    0.44    2.27
   1  -1 -16    7.32    4.32
   1  -1 -15  288.27   23.74
   1  -1 -14  235.52   20.63
   1  -1 -13   22.22    6.34
  -1  -1  12   17.97    3.55
   1  -1 -12   29.47    6.23
   1  -1 -11   42.75    7.63
  -1  -1  11   46.94    5.39
  -1  -1  10   11.27    2.53
   1  -1 -10    8.32    3.28
  -1  -1   9   43.50    7.14
   1  -1  -9   43.42    6.72
  -1  -1   9   42.21    4.14
  -1  -1   8   88.78    9.21
   1  -1  -8   71.82    8.14
  -1  -1   8   82.42    5.17
   1  -1  -7   17.24    3.89
  -1  -1   7   18.67    4.29
  -1  -1   7   21.79    2.47
  -1  -1   6  162.75    5.19
  -1  -1   6  174.56   11.53
  -1  -1   6  150.54    5.36
   1  -1  -6  150.07   10.65
   1  -1  -5    5.59    1.78
  -1  -1   5    0.38    1.65
   1   1  -4   45.17    5.14
  -1  -1   4   47.53    5.16
   1  -1  -4   46.25    5.30
  -1   1   4   50.38    5.27
  -1   1   3  749.85   18.95
  -1  -1   3  742.39   19.57
   1  -1  -3  716.04   19.89
   1   1  -3  723.47   19.49
  -1  -1   2    3.28    0.96
   1   1  -2    3.83    2.39
  -1   1   2    4.88    1.61
  -1  -1   2    7.01    2.20
  -1   1   2    4.48    1.36
  -1  -1   1    9.93    2.24
  -1   1   1   12.11    2.21
  -1   1   1   11.63    2.27
  -1  -1   1    9.48    1.71
   1   1  -1    9.68    2.32
   1   1  -1    7.56    1.78
  -1   1   0 4687.47   42.18
   1  -1   0 4659.95   40.89
   1   1   0 4627.30   41.37
  -1  -1   0 4660.64   41.30
  -1   1   0 4639.60   41.64
   1   1   0 4653.15   45.95
  -1   1  -1 9963.16   62.29
   1  -1   1 9999.00   57.01
  -1  -1  -1 9975.94   67.53
   1  -1   1 9944.90   63.48
   1   1   1 9990.46   65.87
  -1   1  -2  930.37   19.83
   1  -1   2  964.65   17.36
   1   1   2  971.80   21.97
  -1   1  -2  948.23   18.08
   1  -1   2  921.06   20.14
  -1  -1  -2  982.60   23.01
   1  -1   3  296.30   10.01
   1   1   3  286.59   12.67
  -1   1  -3  298.56   10.87
  -1  -1  -3  294.64   13.55
   1  -1   3  256.74   11.05
  -1   1  -3  287.34   11.75
   1  -1   4    6.62    2.29
   1  -1   4    9.93    1.90
  -1  -1  -4    9.17    3.05
  -1   1  -4    6.30    1.95
   1  -1   5 1037.12   26.01
  -1  -1  -5 1049.73   29.30
   1  -1   5 1115.51   21.40
  -1   1  -5 1075.83   20.99
   1  -1   6  242.52   13.63
  -1  -1  -6  254.13   15.25
   1  -1   6  263.90   11.25
  -1   1  -6  264.40   10.86
  -1   1  -7  173.55    9.42
   1  -1   7  177.16   12.68
   1  -1   7  176.90   10.13
  -1  -1  -7  167.51   12.88
   1  -1   8  226.59   12.26
  -1  -1  -8  221.06   15.64
  -1   1  -8  227.15   11.64
  -1   1  -9   56.76    6.17
  -1  -1  -9   46.72    7.48
  -1  -1 -10  221.69   17.34
  -1   1 -10  219.17   12.47
  -1   1 -11   -1.85    1.61
  -1  -1 -11    4.54    3.76
  -1   1 -12    4.94    1.96
  -1  -1 -12    9.96    4.73
  -1  -1 -13   28.26    6.75
  -1   1 -13   22.05    4.19
  -1  -1 -14   27.85    7.65
  -1   1 -14   19.52    3.81
  -1  -1 -15   18.11    6.08
  -1  -1 -16   -3.47    3.42
  -1  -1 -17    0.10    1.77
   1  -1  18    4.68    3.23
  -1  -1 -18    3.32    3.47
  -1  -1 -19   -1.68    4.11
   1  -2 -18   13.36    7.07
   1  -2 -17   56.87   12.24
  -1  -2  17  102.35   14.97
   1  -2 -16  102.08   16.49
  -1  -2  16  134.50   17.29
   1  -2 -15   26.79    7.69
  -1  -2  15   51.61   10.40
  -1  -2  14    7.69    3.63
   1  -2 -14    5.47    3.49
  -1  -2  13   15.28    5.77
   1  -2 -13    6.56    3.97
   1  -2 -12    5.76    2.89
  -1  -2  12   14.68    5.23
   1  -2 -11   22.80    6.10
  -1  -2  11   24.01    5.96
   1  -2 -10    6.22    3.03
  -1  -2  10   18.72    5.98
   1  -2  -9   15.62    4.75
  -1  -2   9   19.37    5.47
  -1  -2   8   70.06    9.47
   1  -2  -8   64.06    9.22
   1  -2  -7   20.55    4.86
  -1  -2   7   25.86    5.68
   1  -2  -6  153.10   13.16
  -1  -2   6  186.23   14.18
  -1  -2   5   44.72    6.74
   1  -2  -5   40.47    6.26
   1  -2  -4  204.83   13.99
  -1  -2   4  210.45   14.17
  -1  -2   3   21.06    2.59
  -1  -2   3   21.53    4.40
   1   2  -3   15.41    2.57
  -1  -2   2   53.89    6.95
  -1   2   2   57.59    6.50
  -1  -2   2   61.83    5.05
   1   2  -2   50.40    4.97
   1   2  -1  168.99    9.99
  -1  -2   1  183.81    9.76
  -1   2   1  165.36   10.54
  -1   2   0    1.89    0.89
   1   2   0    4.22    1.49
  -1   2   0    2.19    1.22
  -1  -2   0    4.07    2.14
  -1   2  -1   83.01    6.48
  -1   2  -1   85.42    7.02
  -1  -2  -1   82.73    7.55
  -1   2  -2 1719.58   30.29
   1  -2   2 1717.67   37.99
  -1   2  -2 1729.72   28.20
  -1  -2  -2 1676.49   36.85
  -1  -2  -3 2013.35   43.22
  -1   2  -3 2089.67   32.16
  -1   2  -3 2068.72   29.26
   1  -2   3 2140.01   43.17
  -1   2  -4  908.66   20.72
  -1  -2  -4  881.20   29.90
   1  -2   4  924.81   28.88
   1  -2   4  914.84   20.41
   1  -2   5   49.37    7.04
  -1   2  -5   58.34    5.72
   1  -2   5   45.97    4.52
  -1  -2  -5   40.53    6.68
   1  -2   6   70.79    8.71
   1  -2   6   67.70    5.43
  -1  -2  -6   69.85    9.40
  -1   2  -7    6.01    1.84
   1  -2   7   12.39    2.41
   1  -2   7    9.25    3.31
  -1  -2  -7   10.89    3.80
   1  -2   8    1.72    2.98
  -1   2  -8    2.32    1.00
   1  -2   8    2.07    0.83
  -1  -2  -8    4.76    3.15
  -1  -2  -9    0.44    2.38
   1  -2   9    4.94    2.83
   1  -2   9    7.21    1.90
  -1   2  -9    3.25    0.91
  -1  -2 -10   14.31    5.04
   1  -2  10   21.51    6.15
   1  -2  11   -0.51    2.20
  -1  -2 -11   -4.01    3.24
   1  -2  12   56.54   10.07
  -1  -2 -12   53.24   10.37
  -1  -2 -13    0.81    1.59
   1  -2  13    7.44    4.32
  -1  -2 -14    3.18    2.03
   1  -2  14    7.57    4.92
  -1  -2 -15   -3.99    4.23
   1  -2  15   -3.59    4.97
  -1  -2 -16   -1.93    4.27
   1  -2  16    4.21    4.04
  -1  -2 -17   -3.11    5.31
   1  -2  17    9.86    6.17
   1  -3 -15   -3.20    4.58
  -1  -3  15    1.85    3.25
  -1  -3  14   -1.96    3.42
   1  -3 -14    0.66    2.21
  -1  -3  13   -0.06    2.68
   1  -3 -13   -1.07    3.47
  -1  -3  12    6.74    4.35
   1  -3 -12   -1.41    2.44
   1  -3 -11   44.98    9.81
  -1  -3  11   62.45   10.94
   1  -3 -10   31.36    7.95
  -1  -3  10   53.25   10.26
  -1  -3   9   32.40    7.32
   1  -3  -9   25.27    6.73
  -1  -3   8   12.51    5.13
   1  -3  -8   11.59    4.55
   1  -3  -7   17.19    5.46
  -1  -3   7   15.73    5.38
  -1  -3   6    4.58    3.45
   1  -3  -6   -0.17    1.61
  -1  -3   5   15.78    4.72
  -1  -3   4  112.13   12.29
  -1   3   4  104.25   11.64
   1   3  -4   86.49    6.34
   1   3  -3  233.54   11.67
  -1   3   3  246.43   17.06
  -1   3   2    4.28    2.61
  -1  -3   2    2.75    1.57
  -1   3   1   48.94    7.05
  -1  -3   1   47.53    6.43
  -1   3   0    3.09    1.76
  -1  -3   0   -0.20    1.40
  -1   3  -1    5.97    2.18
  -1  -3  -1    5.89    2.74
  -1   3  -2   72.05    7.70
  -1  -3  -2   61.40    8.39
  -1  -3  -3   16.43    4.68
  -1   3  -3   18.99    4.00
   1  -3   4  113.28   12.18
  -1  -3  -4  108.06   11.84
  -1   3  -4  122.43    9.19
  -1  -3  -5   94.84   11.73
  -1   3  -5  103.36    7.82
   1  -3   5  101.27   11.91
   1  -3   6  159.33   15.33
  -1  -3  -6  147.44   15.16
   1  -3   7    0.56    2.07
  -1  -3  -7   -1.12    1.57
   1  -3   8    0.54    2.09
  -1  -3  -8    0.94    2.57
  -1  -3  -9   15.03    5.50
   1  -3   9   12.00    4.46
  -1  -3 -10   17.94    6.58
   1  -3  10   15.24    5.67
  -1  -3 -11   11.94    5.69
   1  -3  11    5.91    4.50
  -1  -3 -12    6.35    3.69
   1  -3  12    3.08    3.90
   1  -3  13   -5.86    4.70
  -1  -3 -13    9.28    5.51
   1  -3  14   -3.40    5.53
  -1  -3 -14   -0.70    3.69
   1  -3  15    4.68    3.06
  -1  -4  11   -6.06    5.23
  -1  -4  10   13.69    6.06
  -1  -4   9   32.74    8.75
  -1   4   9   12.96    4.93
  -1   4   8   -1.41    3.41
  -1  -4   8    1.50    1.77
  -1  -4   7   -4.59    4.14
  -1   4   7    0.23    2.63
  -1   4   6    2.79    2.72
  -1   4   5   34.22    7.73
  -1   4   4   26.23    6.81
  -1   4   3    8.01    3.77
  -1   4   2   45.15    8.44
  -1   4   1   33.05    6.82
   1   4   0    3.46    1.77
  -1   4   0    2.80    1.96
  -1  -4  -1   -0.58    1.38
  -1  -4  -2   -1.42    1.47
  -1  -4  -3    0.36    1.30
  -1  -4  -4   -2.95    2.68
  -1  -4  -5   20.42    6.20
  -1  -4  -6   -1.14    3.44
  -1  -4  -7    6.06    3.04
   1  -4   7    8.56    4.56
  -1  -4  -8    0.15    1.62
   1  -4   8    0.41    2.53
   1  -4   9   -0.29    2.46
  -1  -4  -9    8.32    4.74
   1  -4  10   -0.87    2.19
  -1  -4 -10   -2.16    3.27
   1  -4  11    3.82    3.15
  -1  -4 -11   -0.06    4.13
  -1   5   7    0.31    2.98
  -1   5   6   -5.47    3.69
  -2   0   8    6.10    1.90
  -2   0   7    0.17    0.67
  -2   0   7   -0.04    1.16
  -2   0   6   23.68    3.44
  -2   0   6   25.38    3.83
  -2   0   5    0.11    0.77
  -2   0   4  766.24   18.12
   2   0  -4  762.74   18.65
   2   0  -3   -0.50    1.15
  -2   0   3   -0.26    0.90
  -2   0   2 1054.96   20.44
   2   0  -2 1068.23   20.14
  -2   0   1    1.85    1.51
   2   0  -1    0.80    0.91
   2   0   0 1761.99   27.51
  -2   0   0 1688.17   28.03
   2   0   1   -1.20    1.21
  -2   0  -1    1.59    1.82
   2   0   2  802.88   21.35
   2   0   3   -1.49    1.81
  -2   0  -3    0.36    1.57
   2   0   4  337.14   15.45
  -2   0  -4  311.27   14.66
  -2   0  -5   -3.59    2.41
  -2   0  -6  127.15   10.10
  -2   0  -7   -4.03    2.59
  -2   0  -8   32.41    5.86
  -2   0  -9   -0.14    2.64
  -2   0 -10    0.28    1.27
  -2   0 -11   -2.70    1.82
  -2   0 -12    1.58    2.66
  -2   0 -13    1.07    2.07
  -2   0 -14  104.73   13.00
  -2   0 -15   -3.94    3.84
  -2   0 -16   13.87    4.92
  -2   0 -17    0.38    2.61
  -2  -1  19   82.86   13.21
  -2  -1  18   -1.71    3.52
  -2  -1  17   17.55    7.58
  -2  -1  16  138.70   16.26
  -2  -1  15  115.40   14.55
  -2  -1  15   83.52    8.70
  -2  -1  14   38.43    8.40
  -2  -1  14   33.89    5.11
  -2  -1  13   97.62    8.46
  -2  -1  13  116.74   13.27
  -2  -1  12  301.72   13.77
  -2  -1  12  320.53   14.47
  -2  -1  12  298.29   20.61
  -2  -1  11  233.15   16.92
  -2  -1  11  246.99   11.96
  -2  -1  11  241.40   11.72
  -2  -1  10   96.38    6.90
  -2  -1  10   87.12    9.76
  -2  -1  10   95.71    6.95
  -2  -1   9   83.09    9.18
  -2  -1   9   99.33    6.50
  -2  -1   9   91.49    6.17
  -2  -1   8   91.68    5.56
  -2  -1   8   92.89    5.77
  -2  -1   8   90.09    9.30
  -2  -1   7  261.19    8.48
  -2  -1   7  278.61   15.43
  -2  -1   7  269.45    9.25
  -2  -1   6  506.99   11.37
  -2   1   6  486.28   20.42
  -2  -1   6  505.25   19.61
  -2   1   5  232.73   13.33
   2   1  -5  224.27    7.41
  -2  -1   5  231.02    7.55
  -2  -1   5  226.22   12.25
  -2  -1   4    2.80    1.22
  -2  -1   4    3.55    1.05
   2   1  -4    3.34    0.90
   2   1  -4    3.85    1.85
  -2   1   4    1.92    1.44
   2   1  -3   53.99    5.47
  -2   1   3   54.76    6.01
  -2  -1   3   48.04    5.12
   2   1  -3   47.32    4.10
   2  -1  -2   35.69    4.67
   2   1  -2   36.81    4.54
  -2   1   2   35.92    4.59
  -2  -1   2   31.28    4.19
  -2  -1   2   24.11    3.58
   2   1  -2   33.99    3.78
   2   1  -1   71.35    5.86
  -2   1   1   74.82    5.12
  -2  -1   1   65.34    5.65
  -2   1   1   77.24    6.64
   2  -1  -1   71.50    6.34
   2   1  -1   68.52    5.79
   2  -1   0   58.38    5.49
  -2  -1   0   63.67    5.93
   2   1   0   57.70    5.44
  -2   1   0   56.15    4.31
  -2   1   0   59.67    5.83
   2  -1   1  433.97   13.11
  -2  -1  -1  428.60   16.44
  -2   1  -1  416.09   12.15
   2   1   1  452.28   16.34
  -2   1  -1  430.09   15.56
   2  -1   1  413.80   14.47
   2  -1   2   49.63    4.60
  -2   1  -2   50.33    4.48
  -2   1  -2   44.07    5.18
  -2  -1  -2   54.08    6.25
   2   1   2   56.79    6.07
   2  -1   2   54.01    5.28
  -2  -1  -3   47.81    6.00
   2  -1   3   53.57    5.06
   2  -1   3   55.32    5.65
  -2   1  -3   59.97    6.65
  -2  -1  -4    0.51    2.12
   2  -1   4    1.99    1.47
   2  -1   4    0.41    0.99
  -2   1  -4   -1.56    1.89
   2  -1   5  394.86   15.98
  -2   1  -5  457.95   17.89
   2  -1   5  429.61   16.41
  -2  -1  -5  419.79   20.03
  -2  -1  -6    6.10    3.70
   2  -1   6   10.93    3.11
  -2   1  -6    7.68    2.55
  -2  -1  -7  278.96   17.85
  -2   1  -7  314.60   15.69
   2  -1   7  315.09   17.04
  -2  -1  -8   95.73   10.83
  -2   1  -8   89.80    8.56
  -2   1  -9  281.41   15.83
  -2  -1  -9  280.85   19.41
  -2  -1 -10   -1.02    1.76
  -2   1 -10   -0.97    1.24
  -2   1 -11   -1.24    1.34
  -2  -1 -11    1.72    2.10
  -2   1 -12   44.89    6.60
  -2  -1 -12   50.21    9.57
  -2   1 -13    0.24    1.78
  -2  -1 -13    1.17    2.29
  -2   1 -14    3.31    2.07
  -2  -1 -14    1.02    2.76
  -2  -1 -15   -0.23    1.86
  -2  -1 -16   13.89    5.59
  -2  -1 -17   18.59    6.74
   2  -1  17   18.71    4.64
   2  -1  18   -1.72    1.70
  -2  -1 -18   -0.16    1.41
  -2  -2  18   11.73    5.70
  -2  -2  17   66.38   12.37
  -2  -2  16   10.44    5.83
  -2  -2  15   -4.58    4.87
  -2  -2  14    8.82    3.48
  -2  -2  13   11.81    4.82
  -2  -2  12   -0.44    2.33
  -2  -2  11   10.80    3.99
  -2  -2  10   42.56    8.13
  -2  -2   9  343.36   21.48
  -2  -2   8   17.87    4.16
  -2  -2   7    2.31    2.02
  -2   2   7    0.85    1.62
  -2  -2   6   76.10    9.05
  -2   2   6   64.73    8.82
  -2  -2   5   10.64    1.72
  -2  -2   5    5.12    2.32
  -2   2   5    7.15    2.77
  -2  -2   4  199.51   13.99
  -2   2   4  230.68   15.33
  -2  -2   4  228.14    8.99
  -2  -2   3   41.24    4.30
   2   2  -3   37.53    4.34
  -2   2   3   37.31    5.87
  -2  -2   3   40.63    6.30
  -2   2   2  314.05   16.36
  -2  -2   2  352.06   13.75
  -2  -2   1  245.25   12.40
   2   2  -1  251.61   13.37
  -2   2   1  240.13   13.79
  -2   2   0  137.27   10.11
  -2  -2   0  156.87   10.60
  -2  -2  -1  586.97   22.06
  -2   2  -1  608.01   21.23
  -2   2  -2 1000.01   27.15
   2  -2   2 1007.20   28.63
  -2  -2  -2  946.26   29.74
  -2  -2  -3    8.44    3.43
  -2   2  -3    6.97    2.42
   2  -2   3    5.64    2.48
  -2  -2  -4   12.56    4.05
  -2   2  -4   10.74    2.90
   2  -2   4   13.03    3.35
  -2   2  -5    8.01    3.04
  -2  -2  -5    0.87    2.28
   2  -2   5    7.96    3.18
   2  -2   6   10.16    3.27
  -2   2  -6    7.21    2.73
  -2  -2  -6    6.58    2.92
  -2  -2  -7    0.08    2.68
   2  -2   7    0.70    1.81
  -2   2  -7    2.04    1.97
  -2  -2  -8    4.69    3.67
  -2   2  -8    5.21    2.56
   2  -2   8    9.85    4.03
  -2  -2  -9   48.51    9.27
   2  -2   9   50.55    8.02
  -2   2  -9   55.30    6.05
   2  -2  10  176.23   16.17
  -2  -2 -10  178.90   18.40
  -2  -2 -11   29.45    7.63
   2  -2  11   35.44    7.87
  -2  -2 -12   -0.01    3.21
   2  -2  12   -5.70    4.63
  -2  -2 -13    4.79    2.38
   2  -2  13   13.22    5.36
  -2  -2 -14    3.25    2.73
   2  -2  14   15.57    6.54
   2  -2  15    3.21    3.47
  -2  -2 -15    0.91    2.73
  -2  -2 -16   -2.44    3.53
   2  -2  16    3.65    3.52
   2  -2  17    8.46    5.24
  -2  -3  15   -5.72    4.69
  -2  -3  14   -1.23    2.88
  -2  -3  13   -3.38    4.58
  -2  -3  12   20.05    6.39
  -2  -3  11   12.84    5.67
  -2  -3  10    1.92    1.96
  -2   3  10    0.90    1.58
  -2   3   9    2.39    1.31
  -2  -3   9    5.05    2.23
  -2   3   8    6.56    3.28
  -2  -3   8    6.04    3.35
  -2   3   7    6.44    3.01
  -2  -3   7   11.35    4.41
  -2   3   6   10.16    3.76
  -2  -3   6    4.18    2.27
  -2   3   5   22.80    5.60
  -2  -3   5   12.72    2.26
  -2  -3   5   14.56    4.53
  -2   3   4   25.62    5.91
  -2  -3   4   20.82    5.35
  -2  -3   4   20.92    3.32
  -2  -3   3  154.87   10.16
  -2   3   3  148.90   13.72
  -2  -3   2  151.40   11.19
  -2   3   2  154.76   13.34
  -2   3   1   31.68    6.13
  -2  -3   1   33.91    5.58
  -2   3   0   21.23    4.72
  -2  -3   0   19.21    4.79
  -2   3  -1    2.98    2.03
  -2  -3  -1   -0.26    1.39
  -2  -3  -2   67.37    8.88
  -2   3  -2   74.98    8.89
  -2  -3  -3  350.60   21.32
  -2   3  -3  376.10   19.21
   2  -3   4  266.21   18.61
  -2   3  -4  257.94   15.18
  -2  -3  -4  257.83   19.13
  -2   3  -5  504.99   20.98
   2  -3   5  541.91   27.32
  -2  -3  -5  547.34   29.30
   2  -3   6   58.56    9.17
  -2   3  -6   52.73    7.10
  -2  -3  -6   50.11    9.48
   2  -3   7    5.10    3.99
  -2  -3  -7    3.93    3.37
   2  -3   8   -1.16    2.89
  -2  -3  -8   -2.65    3.16
   2  -3   9    6.88    3.46
  -2  -3  -9    1.25    2.49
   2  -3  10   -3.69    3.56
  -2  -3 -10    3.03    2.31
  -2  -3 -11   -0.47    3.24
   2  -3  11    2.44    3.03
   2  -3  12   39.11    8.91
  -2  -3 -12   28.34    8.18
   2  -3  13   12.85    5.65
  -2  -3 -13   12.07    5.83
   2  -3  14    0.70    2.15
  -2  -4  11   -4.96    4.34
  -2   4  11   -2.29    4.06
  -2   4  10   -5.68    4.01
  -2  -4  10   -1.70    3.44
  -2   4   9   -0.34    2.38
  -2  -4   9   -0.83    2.49
  -2  -4   8    3.14    3.30
  -2   4   8    1.30    1.74
  -2   4   7    2.03    2.35
  -2  -4   7   -2.15    3.85
  -2   4   6    6.01    3.06
  -2   4   5   13.00    4.77
  -2   4   4   33.38    7.82
  -2   4   3   10.08    3.79
  -2   4   2   12.26    4.25
  -2   4   1    3.12    2.24
  -2  -4   1    2.97    2.21
  -2   4   0    2.10    1.23
  -2  -4   0   -0.91    1.89
  -2   4  -1    1.44    2.15
  -2  -4  -1   -0.65    1.36
  -2  -4  -2   18.41    5.35
  -2  -4  -3  121.70   14.34
  -2  -4  -4  186.70   18.07
  -2  -4  -5    1.16    1.94
  -2  -4  -6   89.10   13.62
   2  -4   7   81.66   11.82
  -2  -4  -7   63.31   11.56
   2  -4   8    3.14    3.56
  -2  -4  -8    3.31    2.90
   2  -4   9   -1.87    2.09
  -2  -4  -9    0.27    4.53
   2  -4  10   -0.50    1.63
  -2  -4 -10    3.50    3.63
   2  -4  11    1.48    1.72
  -2   5   7    1.45    2.50
  -2   5   6   -4.36    3.31
  -2  -5  -6    0.14    3.69
  -3   0  18   39.39    9.13
  -3   0  17    1.06    2.57
  -3   0  16    0.95    1.45
  -3   0  15    2.37    2.42
  -3   0  14  199.60   16.20
  -3   0  13    0.47    2.07
  -3   0  12   19.54    4.65
  -3   0  11   -0.56    1.51
  -3   0  10   52.81    6.84
  -3   0   9   -0.55    1.12
  -3   0   8  689.66   22.64
  -3   0   7   -0.33    1.02
  -3   0   6 2646.21   40.68
   3   0  -6 2490.50   41.35
  -3   0   5   -0.98    0.89
   3   0  -5    0.11    1.11
  -3   0   4  221.72   11.54
   3   0  -4  226.20   11.84
  -3   0   3    0.75    1.68
   3   0  -3   -0.94    1.47
  -3   0   3   -0.42    0.96
  -3   0   2  878.07   11.57
   3   0  -2  853.99   22.80
  -3   0   2  898.37   23.25
  -3   0   1   -0.85    1.44
   3   0  -1    2.18    1.29
  -3   0   0  214.31   12.17
   3   0   0  221.23   11.98
  -3   0  -1   -0.14    1.61
  -3   0  -2 2907.58   48.99
  -3   0  -3   -0.47    1.71
  -3   0  -4    2.45    1.75
  -3   0  -5   -2.19    2.76
  -3   0  -6  409.59   21.16
  -3   0  -7   -0.20    2.08
  -3   0  -8   31.69    6.19
  -3   0  -9    1.91    2.34
  -3   0 -10   24.63    6.65
  -3   0 -11   -0.13    1.69
  -3   0 -12   10.43    4.79
  -3   0 -13   -1.57    2.70
  -3   0 -14    9.23    4.63
  -3   0 -15   -0.96    1.55
  -3   0 -16   16.69    5.88
  -3   0 -17   -7.25    4.11
  -3   1  21  -65.46   33.74
  -3   1  20   10.73    9.35
  -3   1  19   15.07    8.64
  -3  -1  19    4.71    4.82
  -3   1  18    1.39    4.66
  -3  -1  18    0.61    3.95
  -3   1  17   18.39    7.14
  -3  -1  17   16.29    7.51
  -3   1  16    7.84    4.35
  -3  -1  16   14.83    6.51
  -3   1  15   11.85    4.60
  -3  -1  15   18.58    6.42
  -3   1  14   88.85   12.15
  -3  -1  14   86.52    8.25
  -3  -1  14   94.13   12.81
  -3  -1  13  384.74   17.16
  -3  -1  13  424.62   25.53
  -3   1  13  421.63   24.70
  -3  -1  12  165.37   10.78
  -3  -1  12  168.80   15.33
  -3   1  12  165.74   14.99
  -3  -1  11  215.92   11.38
  -3  -1  11  228.83   11.84
  -3   1  11  228.88   16.99
  -3  -1  11  256.73   17.89
  -3  -1  10   17.16    3.29
  -3  -1  10   20.55    5.10
  -3  -1  10   16.29    2.97
  -3   1  10   18.81    4.48
  -3  -1   9  309.67   18.20
  -3  -1   9  304.54   12.88
  -3  -1   9  292.89   12.27
  -3   1   9  288.43   18.02
  -3  -1   8  145.58   11.60
  -3  -1   8  124.68    7.66
  -3   1   8  115.97   11.04
  -3  -1   7  134.97    7.89
  -3  -1   7  127.56   10.53
  -3   1   7  126.96   11.38
  -3  -1   6   59.97    6.68
  -3  -1   6   64.69    5.49
  -3   1   6   72.01    8.27
   3   1  -6   62.73    5.48
  -3   1   5   18.75    4.21
  -3  -1   5   17.86    3.10
  -3  -1   5   14.44    3.37
   3   1  -5   14.48    2.58
   3   1  -4  770.32   22.16
  -3   1   4  756.25   25.30
  -3  -1   4  796.36   21.98
  -3  -1   4  817.38   20.62
   3   1  -4  792.05   19.71
  -3   1   3    0.37    1.16
   3   1  -3    1.19    1.28
  -3  -1   3    1.70    1.27
  -3  -1   3   -0.65    1.05
   3   1  -3    2.01    1.77
   3   1  -2   -0.02    0.95
  -3   1   2   -0.86    0.99
   3   1  -2    0.50    0.89
  -3  -1   2    1.07    1.14
  -3   1   1  574.53   13.24
   3   1  -1  588.74   17.70
  -3  -1   1  563.67   19.36
  -3   1   1  554.74   20.98
   3   1   0  896.07   21.39
  -3  -1   0  899.67   25.54
  -3   1   0  886.59   26.57
  -3   1   0  908.37   16.30
   3  -1   1 1285.07   21.79
  -3  -1  -1 1208.92   31.44
  -3   1  -1 1198.36   30.64
  -3   1  -2   59.92    7.08
   3  -1   2   70.20    5.37
  -3  -1  -2   66.23    7.59
  -3   1  -3    5.55    3.11
  -3  -1  -3    0.85    2.27
   3  -1   3    4.01    1.42
  -3   1  -4   32.36    6.18
  -3  -1  -4   35.12    6.28
   3  -1   4   32.08    4.23
  -3  -1  -5   14.77    4.29
   3  -1   5    7.88    2.37
  -3  -1  -6   -3.58    3.41
   3  -1   6   -0.59    2.36
  -3   1  -6   -1.60    1.90
  -3  -1  -7   56.99    8.85
  -3   1  -7   78.59    9.25
   3  -1   7   68.89    7.97
  -3  -1  -8   29.67    6.65
  -3   1  -8   31.44    6.32
   3  -1   8   38.65    7.19
   3  -1   9   80.14   10.73
  -3  -1  -9   58.07    9.49
  -3   1  -9   70.62    9.36
  -3  -1 -10    9.98    4.42
  -3   1 -10   17.45    4.92
  -3   1 -11   26.46    6.01
  -3  -1 -11   14.85    6.02
  -3   1 -12   -0.02    1.81
  -3  -1 -12   -2.04    3.68
  -3  -1 -13    1.64    3.70
  -3   1 -13   -1.24    2.40
  -3  -1 -14   32.69    8.67
  -3   1 -14   29.36    6.18
  -3  -1 -15    5.08    4.50
   3  -1  15    2.48    2.10
  -3  -1 -16    7.36    4.76
   3  -1  16   -0.83    2.32
  -3  -1 -17  -10.98    5.72
   3  -1  17    0.91    1.62
  -3   2  18   13.24    6.03
  -3  -2  18   19.17    8.34
  -3   2  17   -1.28    4.18
  -3  -2  17    4.80    4.05
  -3   2  16    7.67    4.17
  -3  -2  16   11.01    5.21
  -3   2  15    5.00    2.97
  -3  -2  15    0.16    3.94
  -3  -2  14    2.24    2.33
  -3   2  14    2.36    2.32
  -3   2  13    0.08    2.30
  -3  -2  13   -3.30    3.33
  -3  -2  12  116.65   13.59
  -3   2  12  115.03   14.23
  -3  -2  11  367.32   24.07
  -3   2  11  371.74   24.76
  -3  -2  10  324.86   21.87
  -3   2  10  279.00   21.13
  -3  -2   9  106.07   12.20
  -3  -2   9   66.97    3.71
  -3   2   9   81.93   11.15
  -3   2   8    5.77    3.15
  -3  -2   8    5.97    3.55
  -3  -2   8    3.70    1.48
  -3   2   7   12.79    4.47
  -3  -2   7   13.48    2.60
  -3  -2   7   10.90    3.81
  -3  -2   6    6.34    3.15
   3   2  -6    2.10    0.81
  -3   2   6    5.86    2.61
  -3  -2   6    4.47    1.77
   3   2  -5    4.96    1.54
  -3   2   5    8.71    3.46
  -3  -2   5    5.20    2.00
  -3  -2   5    8.96    3.24
   3   2  -4    3.09    1.60
  -3   2   4    6.41    2.71
  -3  -2   4    4.95    2.47
  -3  -2   4    9.78    2.74
  -3   2   3   48.72    7.12
  -3  -2   3   41.03    6.31
  -3  -2   3   47.17    5.63
   3   2  -3   42.87    5.75
  -3  -2   2  470.01   18.51
   3   2  -2  488.63   19.27
  -3   2   2  431.67   20.55
  -3  -2   1   42.74    5.86
  -3   2   1   43.60    6.48
  -3  -2   0  120.51   10.32
  -3   2   0  105.21   10.15
  -3   2  -1   13.73    3.77
  -3  -2  -1   17.44    4.43
   3  -2   2  101.82    9.26
  -3  -2  -2   96.06   10.17
  -3   2  -2   91.83    9.48
  -3   2  -3    1.58    1.79
   3  -2   3    0.19    1.02
  -3   2  -4    9.97    3.28
  -3  -2  -4   12.75    4.37
   3  -2   4    8.57    2.79
  -3  -2  -5   72.49    9.86
   3  -2   5   62.10    7.61
  -3   2  -5   65.12    8.43
   3  -2   6  636.66   25.79
  -3  -2  -6  652.87   31.91
  -3   2  -6  703.64   28.77
  -3  -2  -7  342.34   24.13
   3  -2   7  335.69   19.20
  -3   2  -7  329.48   19.66
  -3  -2  -8   17.55    5.49
   3  -2   8   16.73    4.62
  -3   2  -8   14.06    4.34
  -3  -2  -9   11.98    5.77
   3  -2   9    8.23    3.07
  -3   2  -9   10.23    3.93
  -3  -2 -10   52.46   10.60
   3  -2  10   56.63    9.02
   3  -2  11   -5.18    4.07
  -3  -2 -11    0.73    3.16
  -3  -2 -12    2.10    2.12
   3  -2  12    9.70    4.67
  -3  -2 -13    0.69    2.11
   3  -2  13    6.98    5.35
  -3  -2 -14   -1.49    1.92
   3  -2  14   -3.56    5.21
  -3  -2 -15   -5.18    3.66
   3  -2  15   -1.89    5.55
   3  -2  16   -0.15    3.12
  -3   3  15   19.69    7.05
  -3  -3  15   25.01    6.80
  -3   3  14    1.74    1.84
  -3  -3  14    2.28    3.65
  -3   3  13   -0.04    1.95
  -3  -3  13   -4.65    3.77
  -3   3  12    9.20    4.52
  -3  -3  12    6.88    2.75
  -3  -3  11   -0.20    2.80
  -3   3  11    3.37    1.96
  -3  -3  10   21.63    6.29
  -3   3  10   17.46    6.10
  -3   3   9   31.53    7.96
  -3  -3   9   53.42    9.76
  -3  -3   8  139.15   15.42
  -3   3   8  120.39   15.11
  -3  -3   7   17.07    5.47
  -3   3   7   18.04    6.05
  -3  -3   6    0.31    2.44
  -3   3   6   -0.76    1.98
  -3   3   5    8.66    3.34
  -3  -3   5    2.95    2.69
  -3  -3   5    9.35    2.23
  -3   3   4   33.06    6.85
  -3  -3   4   33.33    4.76
  -3  -3   3    6.92    2.54
  -3   3   3    0.54    1.83
  -3   3   2   -1.49    2.29
  -3  -3   2    3.03    1.83
  -3  -3   1    1.35    1.32
  -3   3   1   -0.90    1.79
  -3  -3   0    0.36    1.61
  -3   3   0    1.09    1.25
  -3   3  -1    7.92    2.96
  -3  -3  -1    7.03    3.26
  -3  -3  -2   12.63    4.07
  -3   3  -2   13.39    3.98
  -3  -3  -3  215.53   17.55
  -3   3  -3  202.92   15.80
   3  -3   4  305.60   19.66
  -3  -3  -4  277.56   20.86
  -3   3  -4  294.39   18.38
   3  -3   5  181.53   15.46
  -3  -3  -5  178.77   17.37
  -3   3  -5  181.48   14.27
  -3  -3  -6   75.11   11.67
   3  -3   6   58.71    9.23
  -3   3  -6   73.92    9.55
  -3  -3  -7   -3.99    3.61
   3  -3   7   -0.06    1.57
  -3  -3  -8   22.56    7.23
   3  -3   8   28.51    6.64
  -3  -3  -9    1.46    1.85
   3  -3   9    6.03    2.88
   3  -3  10   12.36    5.00
  -3  -3 -10   13.39    5.76
   3  -3  11   36.57    8.63
  -3  -3 -11   17.30    6.60
   3  -3  12   -2.51    2.23
  -3  -3 -12    3.16    3.10
   3  -3  13   12.96    5.62
   3  -3  14    8.61    5.00
  -3   4  11   -0.13    3.01
  -3  -4  11    0.76    2.69
  -3  -4  10    2.69    2.84
  -3   4  10    1.06    2.08
  -3  -4   9   26.02    7.74
  -3   4   9   12.32    5.19
  -3   4   8    5.11    3.32
  -3  -4   8   11.88    4.67
  -3   4   7    1.83    2.54
  -3   4   6    3.13    2.17
  -3   4   5    7.21    3.97
  -3   4   4   -1.38    1.91
  -3   4   3   12.15    4.44
  -3   4   2   -3.66    3.00
  -3   4   1    7.36    4.13
  -3   4   0    3.03    2.65
  -3  -4   0   -0.90    1.82
  -3   4  -1   28.70    7.10
  -3  -4  -1   21.28    6.17
  -3  -4  -2   48.01    9.13
  -3  -4  -3    5.91    3.63
  -3  -4  -4   78.85   12.68
  -3  -4  -5   81.78   12.98
  -3  -4  -6    2.24    2.42
  -3  -4  -7    1.64    2.34
   3  -4   8    9.42    4.80
  -3  -4  -8    6.00    4.11
   3  -4   9   -1.40    1.62
  -3  -4  -9   -4.84    4.38
   3  -4  10   12.51    5.98
  -3   5   6  -12.70    5.54
  -4   0  18   17.09    5.41
  -4   0  17   -2.36    2.69
  -4   0  16   38.74    7.79
  -4   0  15   -0.88    2.15
  -4   0  14   77.26   10.19
  -4   0  13   -0.60    1.01
  -4   0  12    2.34    1.83
  -4   0  11    0.29    1.85
  -4   0  10  142.89   11.94
  -4   0   9    0.55    0.95
  -4   0   8  106.72    9.60
  -4   0   7   -0.50    0.98
  -4   0   6  115.02    9.88
  -4   0   5    0.37    1.13
  -4   0   5    0.55    1.30
  -4   0   4    2.03    2.10
  -4   0   4   -0.09    0.84
  -4   0   3    1.34    1.92
  -4   0   3   -1.00    0.83
  -4   0   2  124.29   10.37
  -4   0   1    2.19    2.03
  -4   0   0  999.90   31.08
  -4   0  -1   -2.15    2.68
  -4   0  -2 1571.37   41.50
  -4   0  -3   -1.50    1.84
  -4   0  -4    6.68    3.01
  -4   0  -5    3.48    2.35
  -4   0  -6    8.95    3.44
  -4   0  -7    0.07    2.18
  -4   0  -8  468.23   26.82
  -4   0  -9   -1.77    2.76
  -4   0 -10  761.82   36.83
  -4   0 -11    0.83    3.03
  -4   0 -12   13.30    4.82
  -4   0 -13   -3.20    2.97
  -4   0 -14   -0.71    3.77
  -4   0 -15    4.43    4.28
  -4   0 -16    2.37    3.29
  -4   0 -17    4.49    4.50
  -4   1  21    7.35    7.72
  -4   1  20   -9.86    7.56
  -4   1  19    9.78    5.83
  -4  -1  19   -2.37    5.95
  -4   1  18    1.31    1.58
  -4  -1  18    6.21    3.88
  -4   1  17    1.16    1.83
  -4  -1  17   12.39    5.76
  -4   1  16   10.13    4.80
  -4  -1  16    7.20    4.84
  -4   1  15   28.67    7.18
  -4  -1  15   36.64    8.87
  -4  -1  14    4.58    1.56
  -4   1  14    6.29    3.54
  -4  -1  14    3.08    2.86
  -4  -1  13    8.23    2.62
  -4   1  13    9.77    3.64
  -4  -1  13    4.57    3.51
  -4  -1  12    1.10    1.11
  -4   1  12    1.49    2.17
  -4  -1  12    4.85    3.71
  -4  -1  11    7.98    2.49
  -4   1  11    6.02    3.48
  -4  -1  11    9.56    4.22
  -4  -1  10    0.55    1.41
  -4   1  10   -2.04    1.93
  -4  -1  10    0.43    2.03
  -4  -1   9  142.43   12.12
  -4  -1   9  145.96   10.20
  -4   1   9  139.65   13.14
  -4  -1   8    0.57    1.25
  -4   1   8    0.12    1.15
  -4  -1   7  118.81    9.91
  -4  -1   7  132.65    9.63
  -4   1   7  136.72   12.40
   4   1  -7  117.63    8.81
  -4  -1   6   91.20    8.29
  -4  -1   6  109.80    8.83
  -4   1   6   90.13    9.79
  -4  -1   5  605.65   20.47
  -4  -1   5  669.93   22.27
  -4   1   5  602.29   24.87
  -4  -1   4   31.86    5.06
  -4   1   4   32.97    5.93
  -4  -1   4   33.56    4.64
   4   1  -4   36.50    4.94
  -4  -1   3   16.30    3.83
  -4   1   3   19.06    4.62
   4   1  -3   19.85    3.62
  -4  -1   3   13.96    2.88
   4   1  -2  230.91   11.80
  -4   1   2  220.45    7.71
  -4   1   2  222.52   15.07
  -4   1   1   12.21    3.65
   4   1  -1    9.48    2.39
  -4   1   1    9.58    1.58
   4   1   0  109.09    7.57
  -4  -1   0  103.73    9.96
  -4   1   0  110.96   10.64
   4   1   1   17.53    3.05
  -4   1  -1   17.08    4.10
  -4  -1  -1   11.55    3.17
   4  -1   2  234.48    9.47
  -4  -1  -2  239.06   16.27
  -4   1  -2  241.33   16.21
  -4  -1  -3  699.26   28.92
  -4   1  -3  689.19   28.38
   4  -1   3  662.99   17.57
  -4  -1  -4   71.53    9.98
  -4   1  -4   68.66    9.47
   4  -1   4   58.52    5.64
  -4  -1  -5   -0.94    2.28
   4  -1   5    1.00    1.28
   4  -1   6  141.82   10.37
  -4  -1  -6  146.44   14.81
  -4   1  -6  161.10   14.33
   4  -1   7  810.48   26.87
  -4  -1  -7  837.34   36.14
  -4   1  -7  870.90   35.60
  -4  -1  -8  397.41   25.66
  -4   1  -8  422.77   25.63
   4  -1   8  432.59   21.94
  -4  -1  -9   56.41   10.91
   4  -1   9   66.38    9.56
  -4   1  -9   57.00    9.84
  -4  -1 -10   17.95    6.83
  -4   1 -10    8.55    4.78
   4  -1  10    5.27    3.39
  -4  -1 -11   -1.42    3.80
  -4   1 -11    7.20    4.30
   4  -1  11   -1.85    4.10
  -4  -1 -12   19.72    6.42
  -4   1 -12   39.08    8.34
   4  -1  12   49.58   10.33
  -4  -1 -13    0.14    3.37
  -4   1 -13    1.87    2.58
   4  -1  13    4.31    3.22
   4  -1  14   -6.43    6.01
  -4  -1 -14    6.59    5.00
  -4  -1 -15   11.19    6.01
   4  -1  15    9.93    4.41
  -4  -1 -16   14.69    7.21
   4  -1  16    7.09    3.53
  -4   2  18    3.21    3.61
  -4  -2  17    0.81    2.64
  -4   2  17    3.98    3.50
  -4  -2  16   28.42    8.07
  -4   2  16   18.86    6.78
  -4  -2  15    2.41    2.12
  -4   2  15    5.69    3.53
  -4  -2  14   61.44   10.61
  -4   2  14   49.78   10.00
  -4  -2  13   60.07   10.03
  -4   2  13   43.30    8.92
  -4  -2  12  104.37   13.25
  -4   2  12   93.14   12.95
  -4  -2  11   32.58    6.99
  -4   2  11   26.34    6.71
  -4  -2  10   70.54   10.38
  -4   2  10   56.62    9.96
  -4   2   9    2.89    1.61
  -4  -2   9    2.48    2.90
  -4  -2   9   -0.63    1.52
  -4   2   8    5.71    3.59
  -4  -2   8    6.89    2.39
  -4  -2   8    2.02    2.30
  -4  -2   7    0.45    1.65
  -4   2   7    2.04    1.39
  -4  -2   7    3.79    1.57
   4   2  -6    1.10    1.10
  -4   2   6   -1.09    3.07
  -4  -2   6   -2.34    1.63
  -4  -2   6   -0.36    2.05
  -4  -2   5   86.70    9.61
  -4  -2   5   92.60    8.56
   4   2  -5   97.39    8.21
  -4   2   5   96.41   11.29
  -4  -2   4  137.26   11.65
  -4  -2   4  146.87   11.27
  -4   2   4  148.13   13.60
  -4  -2   3  144.31   11.29
  -4   2   3  131.88   12.67
  -4   2   2    9.59    3.84
  -4  -2   2    6.77    2.70
  -4   2   1   37.70    6.89
  -4  -2   1   50.13    7.08
  -4  -2   0   71.86    8.58
  -4   2   0   71.57    9.42
  -4   2  -1   11.80    3.48
  -4  -2  -1   21.49    5.17
  -4   2  -2   12.87    4.32
  -4  -2  -2   16.10    5.15
  -4   2  -3   -1.54    2.39
  -4  -2  -3    4.52    3.55
   4  -2   3    1.97    1.90
  -4   2  -4   25.83    5.82
  -4  -2  -4   18.63    5.22
   4  -2   4   22.83    4.52
   4  -2   5  506.51   21.74
  -4  -2  -5  520.26   28.86
  -4   2  -5  522.56   26.44
   4  -2   6   82.20    9.02
  -4  -2  -6   86.46   12.49
  -4   2  -6   93.92   11.71
  -4  -2  -7   24.59    7.12
  -4   2  -7   22.57    5.25
   4  -2   7   22.06    4.69
  -4  -2  -8    3.30    3.63
   4  -2   8   -1.27    2.15
  -4   2  -8    4.64    3.11
  -4  -2  -9   29.87    8.67
   4  -2   9   31.81    6.28
  -4   2  -9   48.82    8.23
  -4  -2 -10   -1.15    3.00
   4  -2  10    0.29    2.08
   4  -2  11   -1.10    3.28
  -4  -2 -11    9.31    5.42
   4  -2  12   16.66    5.34
  -4  -2 -12   13.91    6.37
   4  -2  13   14.10    5.43
  -4  -2 -13   14.19    6.45
   4  -2  14   31.61    8.74
  -4  -2 -14   10.91    5.29
  -4   3  15   12.03    6.20
  -4  -3  15   20.31    6.71
  -4   3  14    3.39    1.93
  -4  -3  14    0.82    3.35
  -4   3  13    6.69    3.72
  -4  -3  13    8.01    3.51
  -4  -3  12    3.70    3.25
  -4   3  12    0.90    2.31
  -4   3  11   43.84    9.84
  -4  -3  11   52.25   10.56
  -4  -3  10  114.58   14.76
  -4   3  10  100.82   15.06
  -4  -3   9  342.24   24.48
  -4   3   9  334.18   26.28
  -4  -3   8   13.64    5.06
  -4   3   8    7.59    3.59
  -4  -3   7   72.61   10.57
  -4   3   7   59.47   10.58
  -4   3   6   20.96    6.07
  -4  -3   6   32.22    6.81
  -4  -3   5   -1.17    1.74
  -4   3   5   -3.50    3.59
  -4   3   4    0.04    1.65
  -4  -3   4    1.96    1.99
  -4  -3   3    7.06    3.35
  -4   3   3    0.69    1.31
  -4  -3   2   65.67    9.15
  -4   3   2   68.23    9.82
  -4  -3   1   20.36    5.55
  -4   3   1   23.55    5.78
  -4  -3   0    7.97    3.36
  -4   3   0   12.55    4.49
  -4   3  -1   20.11    5.80
  -4  -3  -1   14.09    3.97
  -4   3  -2   10.84    4.37
  -4  -3  -2   16.52    4.39
  -4   3  -3    3.89    3.05
  -4  -3  -3    3.68    1.61
  -4   3  -4    7.88    3.95
  -4  -3  -4    5.09    2.95
  -4   3  -5    1.66    1.86
  -4  -3  -5    0.85    3.21
   4  -3   5    2.62    2.25
  -4   3  -6   18.90    5.33
  -4  -3  -6   15.98    5.47
   4  -3   6   14.56    4.42
  -4  -3  -7    0.42    3.13
   4  -3   7   -0.26    1.95
  -4  -3  -8    5.99    4.04
   4  -3   8    5.26    2.18
  -4  -3  -9   -0.12    2.61
   4  -3   9    2.66    1.56
  -4  -3 -10    1.46    2.41
   4  -3  10    1.96    3.04
  -4  -3 -11   15.00    6.89
   4  -3  11   12.52    4.65
  -4   4  10   55.42   12.09
  -4  -4  10   90.21   14.72
  -4  -4   9    1.72    2.14
  -4   4   9   10.10    5.70
  -4   4   8  103.16   15.71
  -4   4   7   37.26    9.29
  -4   4   6    8.38    3.80
  -4   4   5    0.80    2.71
  -4   4   4   -0.49    1.89
  -4   4   3   -0.06    3.03
  -4   4   2   -3.44    3.10
  -4   4   1    5.85    3.68
  -4   4   0   13.88    5.22
  -4  -4   0    5.81    3.25
  -4   4  -1    7.61    4.41
  -4  -4  -1    1.97    1.36
  -4  -4  -2    6.74    4.09
  -4  -4  -3   10.72    4.45
  -4  -4  -4    1.22    1.90
  -4  -4  -5   -1.68    2.99
  -4  -4  -6   -2.18    3.31
  -4  -4  -7    1.93    2.00
  -4  -4  -8   -5.76    5.32
  -5   0  17    0.73    1.35
  -5   0  16   12.63    3.69
  -5   0  15    1.66    1.94
  -5   0  14   29.98    6.36
  -5   0  13   -0.36    2.26
  -5   0  12  239.17   17.43
  -5   0  11    0.75    1.57
  -5   0  10    0.74    1.45
  -5   0   9   -0.55    1.57
  -5   0   8  266.24   17.08
  -5   0   7   -1.70    2.56
  -5   0   7   -0.28    1.62
  -5   0   6    6.06    2.54
  -5   0   6   11.48    2.37
  -5   0   5    0.23    1.02
  -5   0   5   -0.45    1.54
  -5   0   4  139.16    6.08
  -5   0   4  124.20   11.31
  -5   0   3    0.57    1.69
  -5   0   2    5.96    3.46
  -5   0   1    1.99    2.76
  -5   0   0   -1.76    2.93
  -5   0  -1    3.97    3.94
  -5   0  -2  128.44   12.79
  -5   0  -3    1.10    3.12
  -5   0  -4   49.56    8.54
  -5   0  -5    2.35    2.15
  -5   0  -6   18.84    5.91
  -5   0  -7   -1.75    3.39
  -5   0  -8 1362.25   50.58
  -5   0  -9   -1.93    4.46
  -5   0 -10   78.89   12.77
  -5   0 -11    4.60    3.48
  -5   0 -12   32.17    8.52
  -5   0 -13    2.16    3.42
  -5   0 -14    1.83    3.43
  -5   0 -15    1.50    4.23
  -5   0 -16   33.93    9.37
  -5   1  20  -11.74    6.66
  -5   1  19   -1.30    4.35
  -5  -1  19   12.29    7.83
  -5   1  18   19.31    7.06
  -5  -1  18   32.85    9.73
  -5   1  17    0.40    3.12
  -5  -1  17    0.01    4.03
  -5   1  16    0.64    1.43
  -5  -1  16    5.76    3.80
  -5   1  15   27.54    7.03
  -5  -1  15   38.40    8.89
  -5   1  14   32.44    7.55
  -5  -1  14   36.85    7.91
  -5  -1  13  184.83   16.61
  -5  -1  13  149.94   12.26
  -5   1  13  154.56   15.87
  -5   1  12    6.21    3.26
  -5  -1  12    4.21    2.68
  -5  -1  12    6.28    2.69
  -5  -1  11   11.94    3.51
  -5   1  11   10.48    4.07
  -5  -1  11   17.21    5.33
  -5  -1  10    4.10    2.30
  -5   1  10    5.53    2.31
  -5  -1  10    0.33    2.78
  -5  -1   9   33.98    6.38
  -5  -1   9   23.95    5.05
  -5   1   9   25.72    6.15
  -5  -1   8    0.29    1.37
  -5  -1   8    1.39    1.64
  -5   1   8    0.27    1.98
  -5  -1   7   30.17    5.54
  -5   1   7   31.49    6.34
  -5  -1   7   33.88    5.35
  -5  -1   6   23.39    5.11
  -5   1   6   19.42    5.14
  -5  -1   6   22.30    4.32
  -5  -1   5   84.76    7.71
  -5  -1   5   97.59    9.94
  -5   1   5   86.69   10.61
  -5  -1   4   85.52    7.33
  -5  -1   4  102.82   10.39
  -5   1   4   99.75   11.05
  -5  -1   3   15.60    4.26
  -5   1   3   10.15    1.50
  -5   1   3   13.22    4.28
   5   1  -3   10.29    2.28
  -5   1   2    5.76    2.76
   5   1  -2   12.01    2.99
  -5   1   1   18.58    5.06
   5   1  -1   15.64    3.03
   5   1   0   97.23    7.46
  -5  -1   0  115.51   11.69
  -5   1   0  109.66   11.92
  -5   1  -1   -2.51    2.74
  -5  -1  -1    2.65    3.22
   5   1   1    0.21    0.86
   5  -1   2   73.66    4.64
  -5  -1  -2   78.98    9.97
  -5   1  -2   94.21   11.44
   5  -1   3   81.82    5.66
  -5  -1  -3   90.15   11.25
  -5   1  -3   85.49   11.23
  -5   1  -4   -1.55    2.04
   5  -1   4    1.40    1.33
  -5  -1  -4   -0.65    3.74
  -5  -1  -5   14.80    6.18
   5  -1   5   16.06    3.20
   5  -1   6   96.63    8.24
  -5  -1  -6  116.71   14.21
  -5   1  -6   97.28   12.33
  -5  -1  -7    9.18    4.80
   5  -1   7    4.98    2.22
  -5   1  -7    3.39    3.39
  -5  -1  -8   15.13    6.14
   5  -1   8   17.44    4.21
  -5   1  -8   15.54    5.75
  -5  -1  -9   48.28   10.39
  -5   1  -9   62.99   11.67
   5  -1   9   58.29    8.31
  -5  -1 -10  249.31   23.55
  -5   1 -10  276.11   23.63
   5  -1  10  284.74   20.11
  -5  -1 -11  152.39   19.16
  -5   1 -11  173.43   19.27
   5  -1  11  172.16   17.08
  -5  -1 -12   10.40    5.54
  -5   1 -12   13.54    6.10
  -5  -1 -13   14.50    6.29
  -5   1 -13   16.97    5.60
  -5  -1 -14   10.17    4.70
  -5  -2  17    1.10    2.77
  -5   2  17    2.15    3.36
  -5  -2  16   30.49    7.95
  -5   2  16   29.02    8.11
  -5  -2  15    5.87    3.82
  -5   2  15   -0.07    1.71
  -5  -2  14   61.39   10.91
  -5   2  14   44.40    9.35
  -5  -2  13    0.61    2.67
  -5   2  13    0.09    2.31
  -5   2  12   28.39    7.65
  -5  -2  12   23.12    6.20
  -5   2  11   -0.87    2.02
  -5  -2  11    1.93    2.81
  -5   2  10    0.63    3.24
  -5  -2  10   -0.09    2.88
  -5   2   9   12.54    4.88
  -5  -2   9   17.79    4.62
  -5  -2   8  350.37   21.34
  -5  -2   8  351.50   18.69
  -5   2   8  338.37   23.80
  -5  -2   7  232.74   16.84
  -5  -2   7  242.09   15.68
  -5   2   7  237.07   19.41
  -5  -2   6  125.56   12.15
  -5  -2   6  111.85   10.39
  -5   2   6  114.20   13.40
  -5  -2   5   75.17    9.13
  -5  -2   5   76.66    8.86
  -5   2   5   66.35   10.02
  -5  -2   4   77.82    9.43
  -5   2   4   71.04   10.29
  -5   2   3    1.73    2.12
  -5  -2   3   -3.41    2.28
  -5   2   3   -1.05    1.23
  -5   2   2    6.79    3.18
  -5   2   2    6.77    2.62
  -5  -2   2    9.67    3.73
  -5   2   1   -1.72    2.61
  -5  -2   1   -0.35    2.21
  -5   2   1   -0.22    1.84
  -5   2   0   22.12    5.30
  -5  -2   0   15.81    4.68
  -5   2   0   12.47    3.13
  -5   2  -1   10.65    4.36
  -5  -2  -1    6.21    3.34
  -5   2  -2   34.84    7.41
  -5  -2  -2   36.66    7.56
  -5   2  -3   55.52    9.48
  -5  -2  -3   51.86    8.89
   5  -2   4  127.41   10.20
  -5  -2  -4  133.95   15.05
  -5   2  -4  130.62   14.48
  -5   2  -5   15.10    5.13
  -5  -2  -5   14.58    5.30
   5  -2   5   12.07    3.11
   5  -2   6   38.57    6.20
  -5  -2  -6   45.36    9.07
  -5   2  -6   50.55    9.12
  -5  -2  -7   23.21    6.90
   5  -2   7   14.74    4.00
  -5   2  -7   23.85    6.94
  -5  -2  -8    7.24    4.80
  -5   2  -8   -3.03    3.26
  -5  -2  -9   15.09    6.05
  -5   2  -9   11.57    5.44
  -5  -2 -10    6.62    5.11
  -5  -2 -11   22.02    7.51
  -5  -2 -12  -10.03    6.63
  -5  -3  15   -4.00    4.85
  -5  -3  14    0.99    2.90
  -5   3  14   -1.19    3.01
  -5  -3  13   14.17    5.76
  -5   3  13    4.14    3.93
  -5   3  12   -2.43    4.74
  -5  -3  12   -2.23    2.59
  -5   3  11   22.90    7.37
  -5  -3  11   43.77    8.94
  -5   3  10   60.63   11.84
  -5  -3  10   58.70   10.52
  -5  -3   9  184.15   17.71
  -5   3   9  169.80   19.82
  -5  -3   8   90.89   12.20
  -5   3   8   80.25   12.68
  -5  -3   7   19.17    5.96
  -5   3   7   14.24    4.68
  -5   3   6   11.61    4.75
  -5   3   5    3.68    3.20
  -5  -3   5    4.76    2.15
  -5   3   4    5.20    3.00
  -5  -3   4    6.34    2.82
  -5   3   3   41.05    8.58
  -5  -3   3   49.22    8.82
  -5   3   2   11.35    4.34
  -5  -3   2   12.39    4.15
  -5   3   1   43.85    8.72
  -5  -3   1   49.88    9.33
  -5   3   0   15.20    5.03
  -5  -3   0   17.35    5.09
  -5   3  -1   -1.51    3.08
  -5  -3  -1   -3.28    3.11
  -5   3  -2   19.66    5.89
  -5  -3  -2   18.83    5.92
  -5   3  -3   -6.27    4.51
  -5  -3  -3    0.25    2.40
  -5   3  -4    9.68    5.22
  -5  -3  -4    3.24    2.21
  -5   3  -5   30.25    7.34
  -5  -3  -5   27.85    6.97
  -5   3  -6   33.03    7.67
  -5  -3  -6   24.44    7.59
  -5  -3  -7   -0.48    3.20
  -5  -3  -8    0.53    2.63
  -5  -3  -9    2.08    3.54
  -5   4   9   12.30    5.31
  -5   4   8    9.39    4.59
  -5   4   7   -2.30    3.84
  -5   4   6   -4.60    4.58
  -5   4   5    0.97    2.09
  -5   4   4    0.13    1.65
  -5   4   3    6.57    2.94
  -5   4   2   25.88    7.11
  -5   4   1    2.10    2.47
  -5  -4   0    6.39    2.60
  -5   4   0   11.73    5.69
  -5  -4  -1   17.10    6.29
  -5   4  -1   15.02    5.25
  -5  -4  -2   -1.44    2.89
  -5  -4  -3    2.46    2.58
  -5  -4  -4    0.28    2.03
  -5  -4  -5    5.10    5.42
  -5  -4  -6    1.60    4.05
  -6   0  19  -19.10   10.73
  -6   0  17    2.53    2.28
  -6   0  16   26.08    6.54
  -6   0  15    1.02    1.87
  -6   0  14   27.96    6.69
  -6   0  13   -0.32    1.74
  -6   0  12  390.31   22.04
  -6   0  12  335.17   22.33
  -6   0  11   -2.68    3.08
  -6   0  11   -1.81    2.77
  -6   0  10   79.99   10.46
  -6   0  10  103.61   10.24
  -6   0   9   -1.46    2.44
  -6   0   9   -3.74    2.18
  -6   0   8    1.41    1.95
  -6   0   8    0.03    1.38
  -6   0   7    1.72    1.76
  -6   0   7   -2.37    2.29
  -6   0   6  332.10   12.08
  -6   0   6  290.50   19.22
  -6   0   5   -2.54    2.53
  -6   0   5   -0.36    0.46
  -6   0   4 1266.34   41.65
  -6   0   3    1.99    2.95
  -6   0   2   12.69    4.22
  -6   0   1   -1.94    2.62
  -6   0   0   -2.31    3.42
  -6   0  -1    2.10    2.76
  -6   0  -3    4.78    3.86
  -6   0  -4   11.71    4.86
  -6   0  -5    0.93    2.92
  -6   0  -6   -1.02    3.10
  -6   0  -7   -0.41    3.08
  -6   0  -8    7.63    5.12
  -6   0  -9    3.07    4.77
  -6   0 -10   23.50    8.41
  -6   0 -11   -6.67    5.10
  -6   0 -12   15.62    6.81
  -6   0 -13   -6.38    5.40
  -6   0 -14   15.95    7.21
  -6   1  19    5.02    4.36
  -6  -1  19   16.68    6.81
  -6   1  18    1.66    1.68
  -6  -1  18    7.16    5.64
  -6   1  17    0.80    1.64
  -6  -1  17    0.01    3.50
  -6   1  16   -0.09    1.52
  -6  -1  16    4.97    2.91
  -6   1  15    1.12    1.71
  -6  -1  15   -0.56    4.30
  -6   1  14   26.04    6.68
  -6  -1  14   32.19    7.69
  -6  -1  13   12.80    3.84
  -6   1  13    8.41    3.58
  -6  -1  13   17.71    5.43
  -6  -1  12   13.86    4.14
  -6  -1  12    8.64    3.73
  -6   1  12   12.86    5.08
  -6  -1  11  181.39   15.00
  -6  -1  11  175.13   14.49
  -6   1  11  178.46   16.72
  -6  -1  10   18.84    4.75
  -6  -1  10   19.50    4.51
  -6   1  10   18.15    4.82
  -6  -1   9   26.29    5.61
  -6   1   9   20.64    5.71
  -6  -1   9   31.24    5.79
  -6  -1   8   68.91    8.19
  -6  -1   8   74.29    9.62
  -6   1   8   63.55    9.97
  -6  -1   7  623.55   23.00
  -6  -1   7  629.13   28.01
  -6   1   7  572.96   29.43
  -6  -1   6  421.03   18.17
  -6  -1   6  442.53   23.89
  -6   1   6  413.86   24.91
  -6  -1   5  242.67   18.12
  -6   1   5  254.22   19.59
  -6  -1   4   10.73    4.21
  -6   1   4   11.20    4.52
  -6   1   3    7.99    3.34
  -6  -1   3   11.22    4.22
  -6   1   2  111.43   13.11
  -6   1   1    1.15    2.82
  -6   1   0    3.66    3.33
  -6  -1   0    4.39    3.02
  -6   1  -1    0.62    2.21
  -6  -1  -1   -1.28    2.79
  -6   1  -2   30.15    7.81
  -6  -1  -2   39.67    7.97
  -6   1  -3    4.87    3.05
  -6  -1  -3    7.17    4.53
  -6  -1  -4   31.42    7.96
  -6   1  -4   39.49    8.67
  -6  -1  -5   12.41    5.45
  -6  -1  -6    1.36    2.53
  -6   1  -6    6.20    2.99
  -6  -1  -7    8.81    5.14
  -6   1  -7    5.42    4.35
  -6   1  -8   68.99   11.86
  -6  -1  -8   85.42   14.01
  -6  -1  -9   80.42   13.83
  -6   1  -9   89.32   14.04
  -6  -1 -10   11.67    6.20
  -6   1 -10    5.66    3.75
  -6  -1 -11    2.07    3.67
  -6   1 -11   -0.28    3.92
  -6  -1 -12   -1.85    5.45
  -6   1 -12    6.58    3.90
  -6   1 -13    8.76    2.42
  -6  -2  17   12.88    5.89
  -6   2  16    4.30    3.76
  -6  -2  16    0.49    2.30
  -6   2  15    3.75    3.62
  -6  -2  15    1.34    2.78
  -6   2  14    1.69    1.89
  -6  -2  14    5.34    3.44
  -6   2  13   -1.67    3.29
  -6  -2  13    0.90    2.23
  -6   2  12    8.39    4.07
  -6  -2  12    8.39    3.95
  -6   2  11   -2.73    4.76
  -6  -2  11   -0.39    2.33
  -6  -2  10    4.46    2.54
  -6   2  10    6.40    4.24
  -6  -2   9  200.80   16.35
  -6   2   9  184.25   18.84
  -6  -2   8   93.41   10.86
  -6  -2   8   90.41   10.67
  -6   2   8   91.14   13.10
  -6  -2   7   72.86    9.59
  -6  -2   7   81.22   10.01
  -6   2   7   66.76   10.88
  -6   2   6   18.84    6.18
  -6  -2   6   21.24    5.23
  -6   2   5   36.12    8.06
  -6  -2   5   31.65    6.42
  -6   2   4    2.79    2.78
  -6  -2   4   -0.25    2.21
  -6   2   3    1.26    2.23
  -6  -2   3    2.30    2.80
  -6   2   2   27.40    7.36
  -6  -2   2   27.44    6.65
  -6   2   1   10.04    3.70
  -6  -2   1    9.37    4.71
  -6   2   0   29.26    7.16
  -6  -2   0   43.77    8.35
  -6   2  -1    3.19    2.70
  -6  -2  -1   14.04    5.41
  -6   2  -2   13.52    4.28
  -6  -2  -2   14.60    5.62
  -6   2  -3    7.71    4.71
  -6  -2  -3   -0.54    3.58
  -6   2  -4    1.33    2.54
  -6  -2  -4   -6.53    5.07
  -6   2  -5   -2.78    3.98
  -6  -2  -5    4.32    2.27
  -6  -2  -6   -1.71    2.67
  -6  -2  -7   -0.27    4.42
  -6   2  -7    1.32    2.25
  -6  -2  -8    8.05    5.69
  -6   2  -8    2.69    2.00
  -6  -2  -9   22.82    8.18
  -6   2  -9   20.21    6.35
  -6  -2 -10   34.09    9.23
  -6  -3  14    1.17    2.39
  -6  -3  13    7.96    4.37
  -6   3  12    0.58    2.70
  -6  -3  12   -0.08    2.65
  -6  -3  11    2.29    1.72
  -6   3  11   -4.18    3.97
  -6   3  10    6.44    3.67
  -6  -3  10   11.75    4.97
  -6  -3   9   -3.38    3.39
  -6   3   9    0.99    1.62
  -6   3   8   -3.32    2.33
  -6   3   7    3.44    3.39
  -6   3   6   -0.63    2.04
  -6   3   5   -0.53    3.18
  -6  -3   5    0.00    2.91
  -6   3   4    0.29    2.66
  -6  -3   4    4.61    3.88
  -6   3   3   15.46    5.87
  -6  -3   3   22.88    6.71
  -6   3   2   29.69    7.60
  -6  -3   2   33.57    7.73
  -6   3   1   11.39    5.17
  -6  -3   1   18.55    6.16
  -6   3   0    1.57    2.25
  -6  -3   0   -0.04    2.26
  -6   3  -1   -0.08    2.91
  -6  -3  -1   -5.38    3.48
  -6   3  -2   13.88    5.14
  -6  -3  -2   15.40    5.80
  -6   3  -3    8.57    5.07
  -6  -3  -3    0.07    2.78
  -6   3  -4   19.81    7.20
  -6  -3  -4   25.07    7.38
  -6   3  -5   41.52    9.50
  -6  -3  -5   37.36    9.05
  -6  -3  -6    4.66    4.10
  -6   3  -6   11.92    6.20
  -6  -3  -7   11.29    5.08
  -6   4   6   -4.36    3.64
  -6   4   5    5.06    2.58
  -6   4   4   -2.27    1.93
  -6   4   3   -1.80    3.77
  -6   4   2    1.53    3.41
  -6   4   1    1.78    2.34
  -6   4   0    2.81    3.13
  -6  -4  -1   -0.29    2.32
  -6   4  -1    4.77    3.91
  -6  -4  -2   -1.74    3.87
  -6  -4  -3    7.31    3.85
  -6  -4  -4   30.22    9.51
  -7   0  16   13.51    5.66
  -7   0  15   -1.92    3.74
  -7   0  14    5.30    4.42
  -7   0  13   -3.60    2.99
  -7   0  13    2.38    3.58
  -7   0  12    1.98    2.44
  -7   0  12    6.21    2.69
  -7   0  11   -2.51    3.21
  -7   0  10   33.58    7.53
  -7   0   9   -3.22    3.75
  -7   0   8   13.23    4.91
  -7   0   7   -3.34    4.56
  -7   0   6  981.45   39.24
  -7   0   5    1.82    2.98
  -7   0   4  528.52   29.58
  -7   0   3    6.93    4.63
  -7   0   2   56.56    9.88
  -7   0   1    0.51    2.52
  -7   0   0   19.75    6.29
  -7   0  -1   -2.95    3.64
  -7   0  -3    3.44    3.52
  -7   0  -4   67.21   12.02
  -7   0  -5   -3.77    3.03
  -7   0  -6    8.62    5.10
  -7   0  -7    0.57    2.84
  -7   0  -8    7.93    3.97
  -7   0  -9   -4.50    5.19
  -7   0 -10   -4.54    4.66
  -7   0 -11   -2.82    5.20
  -7   1  18    4.77    2.51
  -7  -1  18   16.62    5.73
  -7   1  17   -8.92    4.75
  -7  -1  17   -1.96    5.27
  -7  -1  16    1.59    4.35
  -7   1  16   -0.66    2.11
  -7  -1  15   13.16    5.10
  -7   1  15    6.08    3.95
  -7  -1  14    4.04    2.81
  -7   1  14   -1.34    2.86
  -7  -1  13    7.79    4.14
  -7   1  13    3.91    2.90
  -7  -1  12   15.90    4.87
  -7   1  12   25.63    6.89
  -7  -1  12   16.19    4.40
  -7  -1  11   51.90    8.77
  -7   1  11   39.85    8.85
  -7  -1  11   42.60    7.30
  -7  -1  10   -0.61    2.89
  -7   1  10    2.05    2.29
  -7  -1  10    3.48    2.03
  -7  -1   9   18.85    4.54
  -7  -1   9   20.05    5.83
  -7   1   9   14.34    5.19
  -7   1   8   50.19    9.16
  -7  -1   8   53.54    6.76
  -7  -1   7   10.67    3.91
  -7   1   7    5.65    3.65
  -7  -1   7    7.24    2.32
  -7  -1   6    1.75    2.96
  -7   1   6    7.13    4.29
  -7  -1   5   90.45   12.11
  -7   1   5   94.69   12.96
  -7  -1   4  292.80   22.19
  -7   1   4  315.44   23.59
  -7   1   3  334.35   24.48
  -7   1   2  121.76   15.01
  -7   1   1    4.22    3.27
  -7  -1   1    0.93    2.79
  -7   1   0   20.15    6.68
  -7  -1   0   13.24    5.37
  -7  -1  -1   83.96   12.60
  -7   1  -1   86.67   13.11
  -7   1  -2   26.04    7.58
  -7  -1  -2   20.36    6.22
  -7  -1  -3   -3.61    2.86
  -7   1  -3   -0.75    2.89
  -7  -1  -4    9.90    5.08
  -7  -1  -5   -5.03    5.83
  -7   1  -5   -2.83    2.55
  -7  -1  -6   20.03    7.89
  -7   1  -6   16.70    6.54
  -7  -1  -7    5.91    4.62
  -7   1  -7    5.60    3.72
  -7  -1  -8    4.73    3.54
  -7   1  -8    5.24    3.72
  -7  -1  -9   28.69    7.91
  -7   1  -9   20.62    6.79
  -7  -1 -10   -0.33    4.37
  -7   1 -10    0.63    5.36
  -7   1 -11    1.75    4.66
  -7   1 -12    0.61    2.57
  -7  -2  17   11.99    5.42
  -7  -2  16    4.28    4.18
  -7  -2  15   -0.48    2.76
  -7   2  14    4.44    3.33
  -7  -2  14    6.77    3.93
  -7  -2  13    1.17    2.18
  -7   2  13    9.17    5.28
  -7   2  12   10.28    5.17
  -7  -2  12   10.63    4.02
  -7   2  11   -3.51    2.81
  -7  -2  11   -1.34    3.38
  -7   2  10   75.09   12.83
  -7  -2  10   70.77   10.11
  -7   2   9   20.17    7.06
  -7  -2   9   20.65    5.48
  -7   2   8   65.59   11.91
  -7  -2   8   53.42    8.42
  -7  -2   8   66.21   10.12
  -7   2   7    0.95    1.96
  -7  -2   7   -5.31    3.64
  -7   2   6   -0.40    2.05
  -7  -2   6    7.41    4.21
  -7   2   5   14.38    5.57
  -7  -2   5   10.05    4.35
  -7   2   4   12.14    5.53
  -7  -2   4    9.36    3.85
  -7   2   3   26.25    8.22
  -7  -2   3   10.13    4.13
  -7   2   2   14.65    5.19
  -7  -2   2   31.08    7.96
  -7  -2   1  182.51   18.22
  -7   2   1  194.82   20.20
  -7   2   0    8.89    4.31
  -7  -2   0    3.24    2.81
  -7   2  -1   11.56    6.66
  -7  -2  -1   -4.43    4.18
  -7   2  -2    2.29    3.01
  -7  -2  -2    8.95    3.55
  -7   2  -3    3.02    2.90
  -7  -2  -3    0.15    2.70
  -7   2  -4    7.31    5.24
  -7  -2  -4   19.48    7.03
  -7  -2  -5   -1.76    3.57
  -7   2  -5    3.99    3.33
  -7  -2  -6    5.97    3.59
  -7  -2  -7   20.70    7.22
  -7   2  -7   24.81    7.62
  -7  -2  -8   11.05    6.92
  -7   2  -8   21.79    6.71
  -7  -3  14    6.47    4.59
  -7  -3  13   -0.99    4.68
  -7  -3  12    8.12    3.63
  -7  -3  11    0.30    2.57
  -7   3  10    1.41    3.89
  -7   3   9   18.17    7.49
  -7   3   8   10.71    5.84
  -7   3   7   13.12    5.44
  -7   3   6   13.94    6.04
  -7   3   5   -3.86    4.49
  -7   3   4    7.53    3.97
  -7  -3   4   -1.17    2.60
  -7   3   3    2.49    2.99
  -7  -3   3   -1.63    3.15
  -7   3   2   -1.64    2.74
  -7  -3   2   11.09    4.77
  -7   3   1   -0.84    3.78
  -7  -3   1   -2.24    3.32
  -7   3   0    3.17    3.56
  -7  -3   0    0.24    3.02
  -7   3  -1    6.37    4.59
  -7  -3  -1    2.89    2.00
  -7   3  -2   -2.70    4.53
  -7  -3  -2    5.14    4.73
  -7   3  -3   -1.44    3.56
  -7  -3  -3    3.04    1.99
  -7   3  -4    5.27    4.15
  -7  -3  -4   10.62    5.36
  -7   3  -5   11.10    4.82
  -7  -3  -5    7.04    4.78
  -7   3  -6   16.00    6.70
  -8   0  15    0.96    3.44
  -8   0  14    3.07    2.62
  -8   0  13    0.22    3.32
  -8   0  12   49.53   10.10
  -8   0  11   -1.88    3.90
  -8   0  10    9.07    3.63
  -8   0   9   -1.33    2.48
  -8   0   8   36.36    7.79
  -8   0   7    3.58    2.52
  -8   0   6   11.57    4.90
  -8   0   5    1.02    3.13
  -8   0   4   12.26    4.89
  -8   0   3   -0.48    2.32
  -8   0   2   24.00    6.99
  -8   0   1    0.03    3.84
  -8   0   0    7.43    4.41
  -8   0  -2  121.76   16.05
  -8   0  -3   -8.02    6.03
  -8   0  -4   -6.93    4.35
  -8   0  -5    0.24    3.51
  -8   0  -6   24.94    8.08
  -8   0  -7   -4.15    4.55
  -8   0  -8    1.62    3.42
  -8   1  16   -0.42    3.28
  -8   1  15    2.75    4.02
  -8   1  14   -0.42    2.90
  -8   1  13    2.66    3.38
  -8   1  12    6.42    4.66
  -8  -1  11   -0.31    2.42
  -8   1  11   -0.90    2.99
  -8  -1  10   27.90    7.04
  -8   1  10   28.93    7.56
  -8  -1   9   18.72    5.43
  -8   1   9    9.70    2.63
  -8  -1   8    8.23    4.01
  -8   1   8    1.28    2.29
  -8  -1   7   45.82    9.40
  -8   1   7   37.55    8.86
  -8  -1   6   32.87    8.26
  -8   1   6   27.28    7.33
  -8   1   5   54.62   10.86
  -8  -1   5   47.96    9.42
  -8   1   4   36.55    9.09
  -8   1   3   44.59    9.62
  -8   1   2    1.30    2.61
  -8  -1   2    2.20    2.57
  -8   1   1   11.49    6.07
  -8  -1   1   10.43    5.21
  -8   1   0    3.96    3.10
  -8  -1   0    2.77    2.98
  -8   1  -1    2.99    4.33
  -8  -1  -1   -1.46    3.95
  -8   1  -2    6.27    5.08
  -8  -1  -2    8.50    4.97
  -8  -1  -3    0.58    3.59
  -8   1  -3   12.52    6.15
  -8  -1  -4   35.84    9.35
  -8  -1  -5    2.02    3.63
  -8   1  -5    8.84    5.29
  -8  -1  -6   -0.60    5.04
  -8   1  -6    2.36    3.49
  -8  -1  -7   10.32    5.34
  -8   1  -7   -7.26    5.23
  -8   1  -8   21.74    8.00
  -8   2  12    0.58    3.39
  -8   2  11   -5.40    5.09
  -8   2  10    6.70    4.39
  -8   2   9   -3.94    3.03
  -8  -2   9    1.56    1.97
  -8   2   8    6.12    5.21
  -8  -2   8    8.45    4.18
  -8   2   7    0.59    2.91
  -8  -2   7   -0.34    2.42
  -8   2   6   11.59    5.65
  -8  -2   6    8.33    4.23
  -8   2   5    9.98    5.92
  -8  -2   5    8.12    4.30
  -8   2   4   37.32   10.05
  -8  -2   4   28.29    8.08
  -8  -2   3  101.68   14.73
  -8   2   3   90.56   14.97
  -8  -2   2  148.18   17.87
  -8   2   2  148.23   18.96
  -8   2   1   16.71    7.37
  -8  -2   1   20.27    7.07
  -8   2   0    1.30    2.72
  -8  -2   0    6.62    4.17
  -8   2  -1    7.44    5.36
  -8  -2  -1    1.86    4.13
  -8   2  -2   -0.29    2.40
  -8  -2  -2    2.71    3.74
  -8   2  -3    4.45    4.72
  -8  -2  -3   -1.76    3.89
  -8  -2  -4   14.95    7.98
  -8   2  -4   10.83    7.00
  -8  -2  -5   -4.87    6.93
  -8   2  -6   22.78    7.80
  -8   2  -7    5.24    4.28
  -8   3   4    3.51    2.97
  -8  -3   4    6.07    5.28
  -8   3   3    3.53    2.26
  -8  -3   3    9.23    4.01
  -8   3   2   12.64    6.03
  -8  -3   2   13.52    6.55
  -8   3   1   15.72    6.44
  -8  -3   1   24.39    8.08
  -8   3   0   38.72   10.15
  -8  -3   0   61.02   12.24
  -8   3  -1   37.35   10.76
  -8  -3  -1   21.30    7.35
  -8  -3  -2   10.53    5.79
  -9   0  14    7.38    5.25
  -9   0  13    4.58    4.70
  -9   0  12    6.35    4.52
  -9   0  11   -1.73    2.76
  -9   0  10   18.00    4.82
  -9   0   9   -1.68    3.24
  -9   0   8   16.43    6.50
  -9   0   7    3.30    3.21
  -9   0   6   29.30    7.88
  -9   0   5    0.91    2.40
  -9   0   4    6.08    4.06
  -9   0   3   -1.86    2.59
  -9   0   2    0.28    2.75
  -9   0   1    4.66    3.65
  -9   0  -1   -1.86    4.41
  -9   0  -2   12.52    6.32
  -9   0  -3    6.38    4.55
  -9   0  -4   -2.60    4.13
  -9   1  13   -0.82    4.26
  -9   1  12   10.56    5.34
  -9   1  11    6.22    2.57
  -9  -1  10    6.01    4.30
  -9   1  10    3.11    2.79
  -9  -1   9   -1.08    3.24
  -9   1   9    0.22    2.66
  -9  -1   8    9.35    5.00
  -9   1   8   17.10    6.62
  -9   1   7   13.62    4.99
  -9  -1   7   10.37    5.33
  -9   1   6   -8.22    5.33
  -9  -1   6   -2.91    2.59
  -9   1   5   68.22   12.82
  -9   1   4    3.87    2.40
  -9   1   3    4.90    2.73
  -9  -1   3   29.12    8.77
  -9   1   2   -2.84    3.39
  -9  -1   2    0.39    3.00
  -9   1   1   13.49    4.85
  -9  -1   1   14.36    6.02
  -9   1   0    3.06    3.93
  -9  -1   0   -1.58    3.06
  -9  -1  -1    1.34    3.04
  -9   1  -1   -2.28    3.35
  -9  -1  -2    1.98    4.86
  -9   1  -2    9.18    6.11
  -9  -1  -3    1.03    4.86
  -9  -2   8    0.73    4.68
  -9  -2   7   10.64    5.28
  -9  -2   6   51.84   11.68
  -9   2   5   22.00    7.54
  -9  -2   5   21.93    7.20
  -9   2   4    5.09    2.77
  -9  -2   4   12.00    6.70
  -9   2   3   -4.12    2.56
  -9  -2   3    1.25    4.55
  -9   2   2    0.53    2.48
  -9  -2   2    2.74    3.72
  -9  -2   1   -6.67    5.76
  -9  -2   0    0.75    3.47
 -10   0  11    0.74    4.59
 -10   0  10    1.67    4.91
 -10   0   9    4.96    4.40
 -10   0   8   29.86    8.89
 -10   0   7    0.60    3.27
 -10   0   6    2.12    3.90
 -10   0   5   -3.55    6.04
 -10   0   4   96.28   15.85
 -10   0   3   -7.55    5.39
 -10  -1   9   -4.66    4.11
 -10  -1   8   -3.03    3.45
   0   0   0    0.00    0.00

_computing_structure_solution     'SHELXT 2018/2 (Sheldrick, 2018)'
;
_shelx_hkl_checksum              95491
_olex2_submission_special_instructions 'No special instructions were received'
loop_
_space_group_symop_operation_xyz
'x, y, z'
'-x, y+1/2, -z+1/2'
'-x, -y, -z'
'x, -y-1/2, z-1/2'
loop_
_atom_site_label
_atom_site_type_symbol
_atom_site_fract_x
_atom_site_fract_y
_atom_site_fract_z
_atom_site_U_iso_or_equiv
_atom_site_adp_type
_atom_site_occupancy
_atom_site_site_symmetry_order
_atom_site_calc_flag
_atom_site_refinement_flags_posn
_atom_site_refinement_flags_adp
_atom_site_refinement_flags_occupancy
_atom_site_disorder_assembly
_atom_site_disorder_group
C2 C 0.4367(3) 0.6530(5) 0.41536(13) 0.0384(5) Uani 1 1 d . . . . .
C7 C 0.3260(2) 0.6397(5) 0.47367(13) 0.0379(5) Uani 1 1 d . . . . .
C1 C 0.6154(3) 0.5129(5) 0.43878(13) 0.0408(6) Uani 1 1 d . . . . .
C5 C 0.1008(3) 0.9140(5) 0.36812(16) 0.0531(6) Uani 1 1 d . . . . .
H5 H -0.011250 1.001650 0.352490 0.064 Uiso 1 1 calc R U . . .
O1 O 0.7120(2) 0.5223(4) 0.38792(10) 0.0669(6) Uani 1 1 d . . . . .
C3 C 0.3756(3) 0.7974(5) 0.33343(14) 0.0480(6) Uani 1 1 d . . . . .
H3 H 0.447890 0.806406 0.294065 0.058 Uiso 1 1 calc R U . . .
C6 C 0.1585(3) 0.7711(5) 0.44917(14) 0.0464(6) Uani 1 1 d . . . . .
H6 H 0.084715 0.762570 0.487831 0.056 Uiso 1 1 calc R U . . .
C4 C 0.2088(3) 0.9270(5) 0.31027(15) 0.0523(6) Uani 1 1 d . . . . .
H4 H 0.169536 1.023104 0.255619 0.063 Uiso 1 1 calc R U . . .
loop_
_atom_site_aniso_label
_atom_site_aniso_U_11
_atom_site_aniso_U_22
_atom_site_aniso_U_33
_atom_site_aniso_U_23
_atom_site_aniso_U_13
_atom_site_aniso_U_12
C2 0.0363(12) 0.0393(12) 0.0390(11) -0.0043(9) 0.0072(9) -0.0026(8)
C7 0.0320(12) 0.0393(12) 0.0421(12) -0.0044(9) 0.0073(9) -0.0023(8)
C1 0.0367(12) 0.0487(13) 0.0393(13) -0.0040(9) 0.0135(10) -0.0034(9)
C5 0.0395(13) 0.0518(14) 0.0617(16) -0.0043(12) -0.0028(11) 0.0034(10)
O1 0.0518(11) 0.1022(15) 0.0538(11) 0.0108(9) 0.0271(9) 0.0099(9)
C3 0.0532(15) 0.0507(13) 0.0398(12) -0.0015(11) 0.0097(10) 0.0003(11)
C6 0.0370(13) 0.0495(14) 0.0528(14) -0.0036(11) 0.0099(10) 0.0012(10)
C4 0.0586(16) 0.0509(14) 0.0414(13) 0.0010(10) -0.0019(11) 0.0041(11)
loop_
_atom_type_symbol
_atom_type_description
_atom_type_scat_dispersion_real
_atom_type_scat_dispersion_imag
_atom_type_scat_source
C C 0.0033 0.0016 'International Tables Vol C Tables 4.2.6.8 and 6.1.1.4'
H H 0.0000 0.0000 'International Tables Vol C Tables 4.2.6.8 and 6.1.1.4'
O O 0.0106 0.0060 'International Tables Vol C Tables 4.2.6.8 and 6.1.1.4'
loop_
_geom_angle_atom_site_label_1
_geom_angle_atom_site_label_2
_geom_angle_atom_site_label_3
_geom_angle
_geom_angle_site_symmetry_1
_geom_angle_site_symmetry_3
_geom_angle_publ_flag
C7 C2 C1 121.13(18) . . ?
C3 C2 C7 118.96(19) . . ?
C3 C2 C1 119.91(18) . . ?
C2 C7 C1 120.95(18) . 3_666 ?
C6 C7 C2 119.5(2) . . ?
C6 C7 C1 119.50(18) . 3_666 ?
C2 C1 C7 117.92(16) . 3_666 ?
O1 C1 C2 121.32(19) . . ?
O1 C1 C7 120.76(19) . 3_666 ?
C6 C5 H5 119.9 . . ?
C4 C5 H5 119.9 . . ?
C4 C5 C6 120.2(2) . . ?
C2 C3 H3 119.7 . . ?
C4 C3 C2 120.7(2) . . ?
C4 C3 H3 119.7 . . ?
C7 C6 H6 119.7 . . ?
C5 C6 C7 120.6(2) . . ?
C5 C6 H6 119.7 . . ?
C5 C4 C3 120.0(2) . . ?
C5 C4 H4 120.0 . . ?
C3 C4 H4 120.0 . . ?
loop_
_geom_bond_atom_site_label_1
_geom_bond_atom_site_label_2
_geom_bond_distance
_geom_bond_site_symmetry_2
_geom_bond_publ_flag
C2 C7 1.399(3) . ?
C2 C1 1.482(3) . ?
C2 C3 1.397(3) . ?
C7 C1 1.484(3) 3_666 ?
C7 C6 1.392(3) . ?
C1 O1 1.220(2) . ?
C5 H5 0.9300 . ?
C5 C6 1.379(3) . ?
C5 C4 1.377(3) . ?
C3 H3 0.9300 . ?
C3 C4 1.383(3) . ?
C6 H6 0.9300 . ?
C4 H4 0.9300 . ?
loop_
_geom_torsion_atom_site_label_1
_geom_torsion_atom_site_label_2
_geom_torsion_atom_site_label_3
_geom_torsion_atom_site_label_4
_geom_torsion
_geom_torsion_site_symmetry_1
_geom_torsion_site_symmetry_2
_geom_torsion_site_symmetry_3
_geom_torsion_site_symmetry_4
_geom_torsion_publ_flag
C2 C7 C6 C5 0.0(3) . . . . ?
C2 C3 C4 C5 -0.1(3) . . . . ?
C7 C2 C1 C7 -0.4(3) . . . 3_666 ?
C7 C2 C1 O1 179.59(19) . . . . ?
C7 C2 C3 C4 0.3(3) . . . . ?
C1 C2 C7 C1 0.4(3) . . . 3_666 ?
C1 C2 C7 C6 -179.45(17) . . . . ?
C1 C2 C3 C4 179.54(18) . . . . ?
C1 C7 C6 C5 -179.90(18) 3_666 . . . ?
C3 C2 C7 C1 179.64(17) . . . 3_666 ?
C3 C2 C7 C6 -0.2(3) . . . . ?
C3 C2 C1 C7 -179.62(17) . . . 3_666 ?
C3 C2 C1 O1 0.4(3) . . . . ?
C6 C5 C4 C3 -0.1(3) . . . . ?
C4 C5 C6 C7 0.2(3) . . . . ?
