#------------------------------------------------------------------------------
#$Date: 2021-09-06 13:22:59 +0300 (Mon, 06 Sep 2021) $
#$Revision: 268643 $
#$URL: file:///home/coder/svn-repositories/cod/cif/7/24/29/7242959.cif $
#------------------------------------------------------------------------------
#
# This file is available in the Crystallography Open Database (COD),
# http://www.crystallography.net/
#
# All data on this site have been placed in the public domain by the
# contributors.
#
data_7242959
loop_
_publ_author_name
'Risti\'c, Predrag'
'Filipovi\'c, Nenad'
'Blagojevi\'c, Vladimir'
'\'Cirkovi\'c, Jovana'
'Holl\'o, Berta Barta'
'\/Doki\'c, Veljko R.'
'Donnard, Morgan'
'Gulea, Mihaela'
'Marjanovi\'c, Ivana'
'Klisuri\'c, Olivera R.'
'Todorovi\'c, Tamara R.'
_publ_section_title
;
 2D and 3D silver-based coordination polymers with
 thiomorpholine-4-carbonitrile and piperazine-1,4-dicarbonitrile:
 structure, intermolecular interactions, photocatalysis, and thermal
 behavior
;
_journal_issue                   27
_journal_name_full               CrystEngComm
_journal_page_first              4799
_journal_page_last               4815
_journal_paper_doi               10.1039/D1CE00394A
_journal_volume                  23
_journal_year                    2021
_chemical_formula_moiety         '2(C5 H8 Ag0.50 N2 S), Cl O4'
_chemical_formula_sum            'C10 H16 Ag Cl N4 O4 S2'
_chemical_formula_weight         463.71
_space_group_crystal_system      tetragonal
_space_group_IT_number           113
_space_group_name_Hall           'P -4 2ab'
_space_group_name_H-M_alt        'P -4 21 m'
_atom_sites_solution_hydrogens   geom
_audit_creation_method           SHELXL-2018/3
_audit_update_record
;
2021-03-07 deposited with the CCDC.	2021-06-02 downloaded from the CCDC.
;
_cell_angle_alpha                90
_cell_angle_beta                 90
_cell_angle_gamma                90
_cell_formula_units_Z            2
_cell_length_a                   13.1198(3)
_cell_length_b                   13.1198(3)
_cell_length_c                   4.6860(2)
_cell_measurement_reflns_used    673
_cell_measurement_temperature    293(2)
_cell_measurement_theta_max      70.2660
_cell_measurement_theta_min      4.7670
_cell_volume                     806.60(4)
_computing_cell_refinement       'CrysAlisPro 1.171.38.41 (Rigaku OD, 2015)'
_computing_data_collection       'CrysAlisPro 1.171.38.41 (Rigaku OD, 2015)'
_computing_data_reduction        'CrysAlisPro 1.171.38.41 (Rigaku OD, 2015)'
_computing_structure_refinement
'Sheldrick, G. M. (2015). Acta Cryst. C71, 3-8'
_computing_structure_solution
'Sheldrick GM (2015) Acta Crystallogr A 71:3--8'
_diffrn_ambient_temperature      293(2)
_diffrn_detector_area_resol_mean 16.3280
_diffrn_measured_fraction_theta_full 0.998
_diffrn_measured_fraction_theta_max 0.974
_diffrn_measurement_device_type  'Xcalibur, Sapphire3, Gemini'
_diffrn_measurement_method       '\w scans'
_diffrn_radiation_type           CuK\a
_diffrn_radiation_wavelength     1.54184
_diffrn_reflns_av_R_equivalents  0.0262
_diffrn_reflns_av_unetI/netI     0.0382
_diffrn_reflns_Laue_measured_fraction_full 0.998
_diffrn_reflns_Laue_measured_fraction_max 0.974
_diffrn_reflns_limit_h_max       13
_diffrn_reflns_limit_h_min       -15
_diffrn_reflns_limit_k_max       14
_diffrn_reflns_limit_k_min       -10
_diffrn_reflns_limit_l_max       5
_diffrn_reflns_limit_l_min       -3
_diffrn_reflns_number            1213
_diffrn_reflns_point_group_measured_fraction_full 0.873
_diffrn_reflns_point_group_measured_fraction_max 0.844
_diffrn_reflns_theta_full        67.684
_diffrn_reflns_theta_max         71.667
_diffrn_reflns_theta_min         4.767
_diffrn_source                   'fine-focus sealed X-ray tube'
_exptl_absorpt_coefficient_mu    14.182
_exptl_absorpt_correction_T_max  0.462
_exptl_absorpt_correction_T_min  0.160
_exptl_absorpt_correction_type   analytical
_exptl_absorpt_process_details
;
CrysAlisPro 1.171.38.41 (Rigaku Oxford Diffraction, 2015)
Analytical numeric absorption correction using a multifaceted crystal
			model based on expressions derived by R.C. Clark & J.S. Reid.
(Clark, R. C. & Reid, J. S. (1995). Acta Cryst. A51, 887-897)
Empirical absorption correction using spherical harmonics,
 implemented in SCALE3 ABSPACK scaling algorithm.
;
_exptl_crystal_colour            colourless
_exptl_crystal_density_diffrn    1.909
_exptl_crystal_description       prism
_exptl_crystal_F_000             464
_exptl_crystal_size_max          0.292
_exptl_crystal_size_mid          0.077
_exptl_crystal_size_min          0.066
_refine_diff_density_max         0.321
_refine_diff_density_min         -0.363
_refine_diff_density_rms         0.064
_refine_ls_abs_structure_details
;
 Refined as an inversion twin.
;
_refine_ls_abs_structure_Flack   0.35(3)
_refine_ls_extinction_coef       0.0058(6)
_refine_ls_extinction_expression Fc^*^=kFc[1+0.001xFc^2^\l^3^/sin(2\q)]^-1/4^
_refine_ls_extinction_method
'Sheldrick, G. M. (2015). Acta Cryst. C71, 3-8'
_refine_ls_goodness_of_fit_ref   1.038
_refine_ls_hydrogen_treatment    constr
_refine_ls_matrix_type           full
_refine_ls_number_parameters     60
_refine_ls_number_reflns         710
_refine_ls_number_restraints     0
_refine_ls_restrained_S_all      1.038
_refine_ls_R_factor_all          0.0295
_refine_ls_R_factor_gt           0.0260
_refine_ls_shift/su_max          0.000
_refine_ls_shift/su_mean         0.000
_refine_ls_structure_factor_coef Fsqd
_refine_ls_weighting_details
'w=1/[\s^2^(Fo^2^)+(0.0322P)^2^] where P=(Fo^2^+2Fc^2^)/3'
_refine_ls_weighting_scheme      calc
_refine_ls_wR_factor_gt          0.0639
_refine_ls_wR_factor_ref         0.0666
_reflns_Friedel_coverage         0.434
_reflns_Friedel_fraction_full    0.679
_reflns_Friedel_fraction_max     0.646
_reflns_number_gt                654
_reflns_number_total             710
_reflns_threshold_expression     'I > 2\s(I)'
_cod_data_source_file            d1ce00394a2.cif
_cod_data_source_block           shelx_CCDC1
_cod_depositor_comments
'Adding full bibliography for 7242958--7242961.cif.'
_cod_original_cell_volume        806.60(5)
_cod_database_code               7242959
_shelx_shelxl_version_number     2018/3
_shelx_space_group_comment
;
The symmetry employed for this shelxl refinement is uniquely defined
by the following loop, which should always be used as a source of
symmetry information in preference to the above space-group names.
They are only intended as comments.
;
_oxdiff_exptl_absorpt_empirical_full_min 0.902
_oxdiff_exptl_absorpt_empirical_full_max 1.096
_oxdiff_exptl_absorpt_empirical_details
;
Empirical correction (ABSPACK) includes:
- Absorption correction using spherical harmonics
- Frame scaling
;
_shelx_res_file
;
TITL shelxt_b.res in P-42(1)m
    shelx.res
    created by SHELXL-2018/3 at 14:05:54 on 24-Oct-2019
CELL  1.54184  13.1198  13.1198   4.6860   90.000   90.000   90.000
ZERR     2.00   0.0003   0.0003   0.0002    0.000    0.000    0.000
LATT  -1
SYMM  - X, - Y,   Z
SYMM    Y, - X, - Z
SYMM  - Y,   X, - Z
SYMM  1/2 - X, 1/2 + Y, - Z
SYMM  1/2 + X, 1/2 - Y, - Z
SYMM  1/2 - Y, 1/2 - X,   Z
SYMM  1/2 + Y, 1/2 + X,   Z
SFAC  C    H    N    O    S    CL   AG
UNIT  20 32 8 8 4 2 2
MERG   2
HTAB C2 O1
EQIV $9 -y+1, x, -z+1
HTAB C2 O1_$9
TWIN
FMAP   2
PLAN   20
ACTA
BOND   $H
CONF
LIST   6
L.S.  10
WGHT    0.032200
EXTI    0.005772
BASF   0.35114
FVAR       8.04120
AG1   7    1.000000    0.500000    1.254708    10.25000    0.03271    0.03271 =
         0.06592    0.00000    0.00000    0.00197
CL1   6    0.500000    0.500000    0.000000    10.25000    0.03145    0.03145 =
         0.03065    0.00000    0.00000    0.00000
S1    5    0.622969    0.122969    0.500933    10.50000    0.03750    0.03750 =
         0.03899   -0.00120   -0.00120   -0.00900
O1    4    0.550330    0.426456    0.174977    11.00000    0.06205    0.05872 =
         0.05724    0.01713   -0.00915    0.01621
N2    3    0.779271    0.279271    0.741992    10.50000    0.02895    0.02895 =
         0.05111   -0.00548   -0.00548    0.00135
C2    1    0.684398    0.319121    0.617628    11.00000    0.03299    0.02292 =
         0.06480    0.00631   -0.00541    0.00289
AFIX  23
H2A   2    0.693271    0.329437    0.414164    11.00000   -1.20000
H2B   2    0.667901    0.384306    0.703693    11.00000   -1.20000
AFIX   0
C1    1    0.841754    0.341754    0.867171    10.50000    0.03690    0.03690 =
         0.04932   -0.00081   -0.00081   -0.00475
C3    1    0.598356    0.244400    0.669529    11.00000    0.02487    0.03547 =
         0.06756    0.00416   -0.00296    0.00560
AFIX  23
H3A   2    0.535366    0.272553    0.595138    11.00000   -1.20000
H3B   2    0.589940    0.234355    0.873251    11.00000   -1.20000
AFIX   0
N1    3    0.895755    0.395755    0.982293    10.50000    0.05791    0.05791 =
         0.10064   -0.02378   -0.02378   -0.00466
HKLF    4




REM  shelxt_b.res in P-42(1)m
REM wR2 = 0.0666, GooF = S = 1.038, Restrained GooF = 1.038 for all data
REM R1 = 0.0260 for 654 Fo > 4sig(Fo) and 0.0295 for all 710 data
REM 60 parameters refined using 0 restraints

END

WGHT      0.0322      0.0000

REM Highest difference peak  0.321,  deepest hole -0.363,  1-sigma level  0.064
Q1    1   0.9977  0.4515  1.0943  11.00000  0.05    0.32
Q2    1   0.9983  0.4525  1.3920  11.00000  0.05    0.30
Q3    1   0.6060  0.1813  0.5976  11.00000  0.05    0.28
Q4    1   0.5882  0.0882  0.7525  10.50000  0.05    0.25
Q5    1   0.5878  0.0878  0.6661  10.50000  0.05    0.24
Q6    1   0.9022  0.4247  1.1978  11.00000  0.05    0.21
Q7    1   0.7277  0.2975  0.7371  11.00000  0.05    0.18
Q8    1   0.5389  0.3638  0.3305  11.00000  0.05    0.18
Q9    1   0.7165  0.0877  0.2503  11.00000  0.05    0.18
Q10   1   0.5131  0.2039  0.5033  11.00000  0.05    0.18
Q11   1   0.4993  0.1565  0.7003  11.00000  0.05    0.17
Q12   1   0.5050  0.2659  0.3846  11.00000  0.05    0.17
Q13   1   0.6964  0.3750  0.9230  11.00000  0.05    0.16
Q14   1   0.6364  0.0705  0.3827  11.00000  0.05    0.15
Q15   1   0.8222  0.4037  1.0186  11.00000  0.05    0.15
Q16   1   0.6360  0.2788  0.6591  11.00000  0.05    0.15
Q17   1   0.7016  0.4943  0.7326  11.00000  0.05    0.15
Q18   1   0.6937  0.3736  0.5616  11.00000  0.05    0.14
Q19   1   0.7716  0.2716  0.2437  10.50000  0.05    0.14
Q20   1   0.6373  0.4616  0.6952  11.00000  0.05    0.14
;
_shelx_res_checksum              57763
_shelx_hkl_file
;
   0   0   1 33009.1 1505.77   2
   0   0   2 68772.2 3426.16   6
   0   0   3 3062.88 938.579   6
   0   0   4 98632.8 3919.46   3
   0   0   5 114.330 428.911   3
   1   0   0 756.096 107.296   2
  -1   0   1 380253. 10888.8   6
   0  -1   1 391149. 10683.6   2
  -1   0   2 24561.4 1931.30   6
   0  -1   2 23542.6 1995.07   6
   0  -1   2 27134.8 1835.69   2
   0   1   2 25386.3 1917.46   6
   1   0   2 25882.5 1971.66   6
   0   1   3 85514.9 4966.07   6
   1   0   3 84119.9 4935.47   6
  -1   0   4 1441.61 496.196   3
   0  -1   4 567.937 340.616   3
   0   1   4 1197.85 498.026   3
   1   0   4 1003.14 365.095   3
   1   0   5 7180.87 981.001   3
   0  -1   5 6988.14 941.524   3
   1  -1   0 173624. 5027.57   1
  -1  -1   1 413906. 11144.8   2
  -1   1   1 416586. 11421.6   6
  -1   1   2 103325. 4429.00   6
   1  -1   2 100450. 4358.76   2
   1  -1   2 104467. 4547.89   6
   1  -1   3 3422.20 970.103   6
   1   1   3 4258.57 1147.09   6
  -1   1   3 6876.17 1305.86   6
  -1  -1   4 31669.8 1875.47   3
   1   1   4 31727.7 1902.85   3
  -1   1   4 30569.3 1894.91   3
   1  -1   4 32158.1 1936.91   3
   1  -1   5 20391.2 1585.93   3
   1   1   5 18747.3 1524.02   3
   2  -1   0 41504.3 1658.12   2
  -2   1   1 509836. 14063.5   6
  -1  -2   1 526185. 14102.8   2
   2  -1   2 27020.6 2067.71   6
   2  -1   2 24989.7 1999.04   2
  -1  -2   2 31635.1 1914.75   2
  -2   1   2 26749.0 2006.29   6
   2  -1   3 97012.1 5405.83   6
   1   2   3 94608.4 5469.92   6
   1   2   4 6707.03 837.637   3
  -1  -2   4 7468.04 862.718   3
  -2   1   4 7504.76 906.845   3
  -1  -2   5 11172.2 1102.21   3
   2  -1   5 10708.3 1202.35   3
   2   0   0 368779. 9710.76   2
   0  -2   1 271480. 8206.76   7
   0  -2   2 65552.2 3189.65   2
   2   0   2 62993.5 3335.13   6
   2   0   3-132.309 634.432   6
   0   2   3-576.415 632.427   6
   0   2   4 61169.6 2899.66   3
  -2   0   4 63214.1 2906.84   3
   0  -2   4 65928.0 2931.59   3
   2   0   4 63843.4 2930.58   3
   2   0   5 3639.94 725.514   3
   0  -2   5 2813.90 623.239   3
   1  -2   0 41204.6 2096.73   1
   1  -2   1 515302. 14254.3   7
  -2  -1   1 516749. 13425.4   2
  -1   2   2 26662.7 1960.65   6
   1  -2   2 27604.4 2017.89   2
   1  -2   2 21732.1 1968.33   6
   2   1   3 94982.6 5461.79   6
  -1   2   3 102657. 5435.97   6
  -1   2   4 7819.84 953.446   3
   1  -2   4 6777.96 874.984   3
  -2  -1   4 7181.80 890.066   3
   2   1   4 6619.60 826.806   3
   1  -2   5 10132.2 1095.93   3
   2   1   5 10103.6 1058.56   3
   2  -2   0 979840. 26261.6   2
   2  -2   0 999999. 26159.8   1
  -2   2   1 85308.0 3015.89   6
  -2  -2   1 92294.8 2928.78   2
   2  -2   1 85856.7 3628.45   2
  -2  -2   1 89530.6 3688.36   7
   2  -2   2 245633. 8519.14   6
   2  -2   2 236194. 8516.89   2
  -2   2   2 249386. 8199.52   6
   2   2   3 4858.45 1306.42   6
  -2  -2   4 59859.4 2708.39   3
   2   2   4 57010.8 2705.68   3
   2  -2   5 4840.95 844.273   3
   3  -2   0 3382.16 560.222   2
   3  -2   1 290118. 9605.98   2
  -2  -3   1 320237. 9163.17   2
  -2  -3   1 316403. 9934.56   7
   3  -2   2 24157.4 2134.14   2
   3  -2   2 25028.0 2045.26   6
   2   3   3 88571.5 5541.24   6
  -2  -3   4 14186.7 1161.20   3
   2   3   4 12177.9 1133.68   3
   3  -2   5 9730.45 1197.38   3
   3  -1   0 7567.66 670.678   2
   3  -1   1 94418.2 3784.91   2
  -1  -3   1 96392.0 4081.81   7
   3  -1   2 399333. 12727.1   6
  -1  -3   2 427381. 12453.2   2
   3  -1   2 398932. 12964.4   2
   3  -1   3 8654.34 1521.56   6
   1   3   3 9511.22 1685.41   6
  -1  -3   4 824.406 339.082   3
   1   3   4 1770.00 503.408   3
  -1  -3   5 2017.43 549.218   3
   3  -1   5 604.661 513.110   3
   3   0   0 11.9670 159.212   2
   3   0   1 387028. 11260.7   2
   0  -3   1 401575. 11521.7   2
   0  -3   1 370384. 11502.5   7
   0  -3   2 533.037 372.250   2
   3   0   3 70556.2 4599.63   6
   0   3   3 76409.3 4747.65   6
   0   3   4 994.875 417.156   3
  -3   0   4 911.760 447.089   3
   3   0   4 406.742 367.609   3
   0  -3   4 884.596 313.461   3
   3   0   5 6067.22 866.305   3
   0  -3   5 8057.51 913.393   3
  -3  -1   0 8391.45 669.671   7
   1  -3   0 7887.35 1100.19   1
   1  -3   1 98031.9 4106.54   2
   1  -3   1 99257.4 3877.64   7
   1  -3   2 394499. 12538.1   2
  -1   3   3 10415.3 1608.08   6
   3   1   3 12743.9 1829.87   6
   3   1   4 393.483 357.745   3
  -3  -1   4 1150.59 478.147   3
   3   1   5 547.072 418.826   3
   1  -3   5 419.213 383.831   3
   2  -3   0 2354.56 592.425   1
   2  -3   1 326435. 9545.90   7
  -3  -2   1 314624. 9993.05   7
  -3  -2   1 325175. 8459.00   2
   2  -3   1 315381. 10175.2   2
  -2   3   2 24728.2 1846.48   6
   2  -3   2 23029.1 2087.50   2
  -2   3   3 108177. 5402.70   6
   2  -3   3 98490.2 5664.38   2
   3   2   4 12561.5 1116.47   3
  -3  -2   4 12677.3 1114.86   3
   3   2   5 9880.47 999.625   3
   2  -3   5 10080.7 1087.59   3
   3  -3   0 216253. 7093.52   2
   3  -3   0 212136. 6942.45   1
  -3  -3   1 102851. 4642.36   7
   3  -3   1 98996.2 4567.27   2
  -3   3   1 112873. 3503.55   6
  -3  -3   1 115144. 3741.93   2
  -3   3   2 208538. 6958.65   6
   3  -3   2 183849. 7625.57   2
   3  -3   3 45638.5 3790.61   2
   3   3   4 23181.8 1570.15   4
   3   3   4 23597.3 1564.46   3
   3  -3   5 22024.5 1704.23   3
   4  -3   0 61908.9 2983.16   2
  -3  -4   1 287724. 9911.76   7
   4  -3   1 267748. 9371.08   2
   4  -3   2 5174.80 942.865   6
   4  -3   2 4841.99 1040.92   2
   4  -3   3 76758.5 5186.26   2
   3   4   4 1180.99 405.799   4
   3   4   4 177.600 343.709   3
   4  -3   5 8051.85 1104.59   3
   4  -2   0 583056. 16202.8   2
  -2  -4   1 50341.1 3233.04   7
   4  -2   1 46752.2 2698.21   2
   4  -2   1 50987.9 2312.97   6
   4  -2  -1 49898.0 2233.33   2
  -2  -4   1 52158.8 2921.09   2
   4  -2   2 71313.2 3698.71   6
   4  -2   2 62888.1 3799.29   2
   4  -2   3 25964.0 2586.86   6
   2   4   4 32947.1 1927.27   3
   4  -2   5 1836.86 577.837   3
   4  -1   0 68242.2 2653.40   2
  -1  -4   1 439777. 14338.4   7
   4  -1  -1 458436. 12087.5   2
  -1  -4   1 464954. 14071.2   2
   4  -1   1 462392. 13473.4   2
   4  -1   2 8229.86 1273.43   2
  -1  -4   2 10388.0 1280.96   2
   4  -1   2 9194.72 1215.09   6
   4  -1   3 51206.2 3883.23   6
   1   4   3 52983.0 4111.51   6
  -1  -4   4 92.6621 323.362   3
   1   4   4 804.504 419.380   3
   4  -1   5 3032.37 681.172   3
   4   0   0 114476. 3670.96   2
   0  -4   1 100783. 4746.25   7
   4   0   1 110177. 4220.58   2
   0  -4   1 102044. 4665.28   2
   0  -4   2 422873. 13511.7   2
   4   0   3 93005.0 5516.00   6
   0   4   3 103309. 5725.40   6
   0  -4   4 17073.9 1317.19   3
   4   0   4 20801.9 1489.92   4
   0  -4   5 16418.1 1209.45   3
   4   0   5 14571.0 1232.90   3
  -4  -1   0 72618.4 2546.22   7
   1  -4   0 58897.2 3528.84   1
   1  -4   1 462367. 14178.9   7
   1  -4   1 470881. 14370.2   2
   1  -4   2 8115.90 1309.63   2
   1  -4   3 54720.6 4105.41   2
  -1   4   3 58838.2 4008.48   6
   4   1   3 54645.5 4146.12   6
   4   1   4 1018.75 389.394   3
   4   1   4 550.249 297.177   4
   1  -4   5 2467.79 543.907   3
   4   1   5 3448.22 587.858   3
   2  -4   0 572503. 16885.3   1
   2  -4   1 47745.9 2653.26   7
   2  -4   1 47576.7 3019.98   2
   2  -4   2 67918.1 4037.46   2
  -2   4   2 66833.0 3350.74   6
   4   2   3 25881.2 2828.16   6
   2  -4   3 25460.6 2850.20   2
   4   2   4 33657.4 1921.90   3
   4   2   4 36217.3 2017.92   4
   2  -4   5 1547.85 527.623   3
   4   2   5 1381.51 421.928   3
   3  -4   0 57229.8 3045.48   1
   3  -4   0 61239.6 3187.26   2
   3  -4   1 288959. 10123.6   2
  -4  -3   1 274018. 9659.58   7
   3  -4   1 306469. 9083.98   7
   3  -4   2 3372.98 790.419   2
   3  -4   3 71166.8 5076.08   2
   4   3   4 694.275 340.453   4
   4   3   4 374.740 313.728   3
   3  -4   5 8853.45 1030.62   3
   4  -4   0 830993. 23351.0   2
  -4  -4   1 32398.2 2587.31   7
   4  -4  -1 36284.1 2430.95   1
   4  -4   1 34838.2 2691.98   2
   4  -4   2 77217.6 4624.84   2
   4   4   3 11268.3 1014.01   4
   4   4   4 134876. 4752.61   3
   4   4   4 133254. 4827.51   4
   4  -4   5-55.6821 397.444   3
   5  -4   0 1921.43 650.440   2
   5  -4   1 87730.7 4704.19   2
   5  -4  -1 89334.1 3960.51   2
  -4  -5   1 86770.6 4838.88   7
   5  -4   2 1495.88 642.329   2
   4   5   3 46617.3 2308.91   4
   5  -4   4 822.750 407.240   4
   4   5   4 397.363 305.655   4
   5  -4   5 4780.67 911.573   3
   5  -3   0 500449. 14721.9   2
  -3  -5   1 175480. 7385.01   2
  -3  -5   1 156839. 7108.95   7
   5  -3   1 157155. 6446.16   2
   5  -3   2 130117. 5526.56   6
   5  -3   2 115611. 5974.51   2
   3   5   3 24001.9 1529.72   4
   3   5   4 14443.5 1188.66   4
   5  -3   4 10230.8 1120.90   4
   5  -3   5 5565.91 858.974   3
   5  -2   0 7023.75 841.384   2
   5  -2   1 408993. 11479.9   6
  -2  -5   1 384572. 13676.7   7
   5  -2   1 380188. 12259.5   2
  -2  -5   1 400659. 13921.5   2
   5  -2   2 32633.9 2426.06   6
   5  -2   2 32454.4 2696.64   2
   5  -2   3 84191.3 5163.85   6
   5  -2   4 14940.4 1308.00   4
   2   5   4 16232.5 1256.37   4
   5  -2   5 8058.46 937.090   3
   5  -1   0 27987.2 1537.15   2
   5  -1   1 4493.25 816.172   2
  -1  -5   1 5929.11 1402.60   7
  -1  -5   1 4599.61 1141.31   2
   5  -1   2 497470. 15419.4   6
   5  -1   2 479312. 15938.8   2
   1   5   3 5501.46 1336.98   6
   5  -1   3 10551.2 1711.07   6
   5  -1   4 1539.90 474.187   4
   5  -1   5 2244.56 533.622   3
   5   0   0-15.2634 196.919   2
   0  -5   0 209.667 581.043   1
   0  -5   1 71084.7 4484.69   7
   5   0   1 68565.8 3320.10   2
   0  -5   1 70063.7 4166.57   2
   0  -5   2 616.380 625.131   2
   0   5   3 41322.7 3565.72   6
   5   0   3 41514.0 3527.05   6
   0  -5   4 351.866 330.907   3
   5   0   4 1075.83 475.001   4
   5   0   5 7011.49 813.047   3
   0  -5   5 5742.56 668.660   3
   1  -5   0 26324.9 2312.76   1
   1  -5   1 4801.49 1172.55   2
   1  -5   1 4634.48 1138.58   7
   1  -5   2 502454. 16703.1   2
   5   1   3 3340.34 1081.88   6
   5   1   4 1587.15 430.088   3
   5   1   4 1779.25 497.986   4
   1  -5   5 2423.99 457.508   3
   5   1   5 1331.40 433.476   3
  -5  -2   0 7069.08 807.292   7
   2  -5   0 4718.17 959.548   1
   2  -5   1 422377. 13568.0   7
   2  -5   1 395276. 13434.6   2
   2  -5   2 27481.8 2718.16   2
   2  -5   3 81927.9 5635.61   2
   5   2   3 82042.3 5453.71   6
   5   2   4 13638.0 1147.97   3
   5   2   4 14191.6 1214.95   4
   5   2   5 7760.08 751.460   3
   2  -5   5 8317.41 850.446   3
   3  -5   0 481825. 15051.8   2
   3  -5   0 481199. 14895.9   1
  -5  -3   0 489938. 14221.7   7
   3  -5   1 173707. 6476.02   7
   3  -5   1 154614. 6909.23   2
   3  -5   2 119058. 6303.52   2
   5   3   3 22018.8 1450.95   4
   5   3   4 11203.5 1011.62   3
   5   3   4 12583.1 1145.06   4
   3  -5   5 5977.94 770.897   3
  -5  -4   0 1085.46 569.009   7
   4  -5   0 1906.37 652.664   2
   4  -5  -1 93142.7 4552.63   1
   4  -5   1 81296.7 4717.15   2
  -5  -4   1 93073.9 4767.87   7
   4  -5   2 1666.74 939.802   2
   5   4   3 46302.2 2296.92   4
   5   4   4 372.606 339.041   4
   4  -5   5 5283.64 768.869   3
   5  -5   0 211919. 7936.31   2
  -5  -5   1 13017.3 1755.91   7
   5  -5  -1 13097.0 1458.47   2
   5  -5   1 14517.0 1880.77   2
   5  -5   2 114495. 6400.82   2
   5   5   3 28587.7 1744.92   4
   5   5   4 31440.7 1838.65   4
   5  -5   5 10228.8 945.017   3
  -5  -6   0 3551.39 1003.87   1
   6  -5   0 2575.91 749.926   2
   6  -5   1 222526. 8946.21   2
  -5  -6   1 207496. 8961.66   7
   6  -5   2 28191.9 3015.62   2
   5   6   3 69806.3 3048.71   4
   5   6   4 3639.04 602.820   4
   6  -5   4 4682.96 844.189   4
   6  -5   5 4637.51 602.663   3
   6  -4   0 262742. 9119.91   2
  -4  -6   1 23210.1 2528.44   7
   6  -4   1 24742.7 2328.42   2
   6  -4   2 14579.7 2043.82   2
   4   6   3 18453.3 1374.14   4
   4   6   4 45288.9 2289.71   4
   6  -4   4 47538.6 2552.11   4
   6  -4   5 1868.02 491.350   3
   6  -3   0 6389.07 957.563   2
  -3  -6   1 312111. 11878.7   7
   6  -3   1 314732. 10775.3   2
   6  -3   2 47637.2 3631.39   2
   3   6   3 54850.8 2572.96   4
   3   6   4 5604.06 734.980   4
   6  -3   4 5590.25 808.663   4
   6  -3   5 5053.93 726.923   3
   6  -2   0 226032. 7357.82   2
   6  -2   1 19094.1 1772.75   2
  -2  -6   1 19822.7 2499.44   2
  -2  -6   1 20505.8 2431.01   7
   6  -2   2 66703.9 4240.27   2
   2   6   3 28228.5 1698.24   4
   6  -2   4 65317.9 3072.43   4
   2   6   4 69043.1 2960.76   4
   6  -2   5 366.848 318.591   3
   6  -1   0 44119.5 2145.97   2
  -1  -6   0 39950.6 3241.53   1
  -1  -6   1 231390. 10317.0   7
   6  -1   1 254687. 8504.52   2
  -1  -6   1 237775. 9926.61   2
   6  -1   2 4389.71 860.433   6
   1   6   3 69673.0 2959.80   4
   6  -1   4 11078.1 1123.68   4
   6  -1   5 11856.6 983.711   3
   0  -6   0 178065. 7774.61   1
   0  -6   1 616.994 1124.27   7
   0  -6   1 5.18035 591.654   2
   0  -6   2 21834.4 2662.42   2
   6   0   3 16527.9 1248.92   4
   0   6   3 17773.7 1295.78   4
   6   0   4 24575.3 1662.82   4
   6   0   5 2008.32 416.114   3
   1  -6   0 42789.3 3161.67   1
   1  -6   1 262263. 11411.7   7
   1  -6   1 254015. 9926.36   2
   1  -6   2 5680.28 1462.94   2
   6   1   3 70024.8 2976.40   4
   6   1   4 12775.0 1149.06   4
   6   1   4 11095.4 1036.99   3
   6   1   5 11095.7 872.662   3
   2  -6   0 200900. 8005.67   1
   2  -6   1 19911.9 2263.22   7
   2  -6   1 17981.0 2100.31   2
   2  -6   2 68867.3 4999.97   2
   6   2   3 28846.0 1741.02   4
   6   2   4 63445.6 2737.63   3
   6   2   4 64148.4 2911.54   4
   2  -6   5-665.099 286.998   3
   3  -6   0 5081.12 1081.46   2
  -6  -3   0 5033.52 801.180   7
   3  -6   0 5169.39 1053.98   1
   3  -6   1 328844. 12354.7   2
   3  -6   1 369724. 12060.8   7
   3  -6   2 51266.2 4342.69   2
   6   3   3 60317.4 2737.80   4
   6   3   4 5179.96 783.419   4
   6   3   5 5013.55 548.398   4
   3  -6   5 5861.72 623.831   3
  -6  -4   0 265413. 8890.75   7
   4  -6   0 244755. 9446.87   2
   4  -6   1 27134.1 2642.17   2
   4  -6  -1 26976.3 2461.75   1
   4  -6   2 14666.9 2218.85   2
   6   4   3 19778.9 1411.94   4
   6   4   4 45043.6 2283.19   4
   4  -6   5 1810.47 403.329   3
  -6  -5   0 3472.86 850.665   7
   5  -6   0 1301.02 512.661   2
   5  -6  -1 236769. 8763.95   2
  -6  -5   1 232572. 9159.49   7
   5  -6   2 29381.8 3146.36   2
   6   5   3 64754.2 2906.99   4
   6   5   4 3934.39 653.825   4
   5  -6   5 5002.70 544.235   3
   6  -6   0 578238. 18222.9   2
  -6  -6   0 582121. 18227.2   7
   6  -6   1 14238.2 1973.78   2
  -6  -6   1 15036.2 2075.97   7
   6   6   2 58056.2 2575.08   4
   6   6   3 19970.4 1460.04   4
   6  -6   4 13163.1 1261.22   4
   6   6   4 13105.9 1109.15   4
  -6  -7   0 20125.8 2240.11   7
   7  -6   0 20525.1 2209.92   2
   7  -6   1 115208. 6258.89   2
  -6  -7   1 122694. 6611.96   7
   6   7   2 11264.4 1034.17   4
   6   7   3 36496.5 2033.55   4
   7  -6   4 3649.35 647.869   4
   6   7   4 4109.24 601.263   4
   7  -5   0 17625.7 1897.08   2
  -5  -7   0 14135.7 1890.20   1
  -5  -7   1 24932.8 2714.07   7
   7  -5   1 25920.2 2628.47   2
   5   7   2 169312. 5617.54   4
   5   7   3 250.228 318.242   4
   7  -5   4 461.980 386.225   4
   5   7   4 231.389 284.690   4
  -4  -7   0 3194.19 1004.89   1
   7  -4   0 3456.90 795.070   2
  -4  -7   1 158819. 7786.99   7
   7  -4   1 162885. 7120.82   2
   7  -4   2 3475.28 1114.41   2
   4   7   3 43066.5 2252.38   4
   4   7   4 75.1204 327.849   4
   7  -4   4-196.441 351.775   4
   7  -4   5 4716.38 530.705   3
  -3  -7   0 68236.4 4467.32   1
   7  -3   1 4855.19 1012.11   2
  -3  -7   1 6413.33 1494.61   7
   7  -3   2 283070. 11204.9   2
   3   7   3 127.810 285.045   4
   3   7   4 2253.17 500.621   4
   7  -3   4 1809.27 537.190   4
   7  -3   5-45.3557 279.963   3
  -2  -7   0 95907.5 5418.08   1
  -2  -7   1 161059. 8105.17   7
  -2  -7   1 162885. 8022.50   2
   7  -2   1 166493. 6703.33   2
   7  -2   2 5808.89 1243.57   2
   2   7   3 47001.4 2339.52   4
   7  -2   4 1947.40 525.228   4
   2   7   4 2304.14 494.740   4
   7  -2   5 8115.36 737.302   3
  -1  -7   0 319510. 11945.3   1
   7  -1   1 40726.1 2717.75   2
  -1  -7   1 35600.5 3658.33   7
  -1  -7   1 41304.0 3642.30   2
   7  -1   3 53161.2 2528.86   4
   1   7   3 54343.0 2556.69   4
   7  -1   4 7781.49 941.009   4
   7  -1   5 5654.78 600.791   3
   0  -7   0-454.702 643.819   1
   0  -7   1 167470. 8697.28   7
   0  -7   1 148916. 7497.58   2
   0  -7   2 2850.18 1601.44   2
   0   7   3 70118.9 2974.37   4
   7   0   3 64002.3 2885.29   4
   7   0   4 2804.97 597.771   4
   7   0   5 8996.04 711.045   3
   1  -7   0 315409. 11749.6   1
   1  -7   1 35657.1 3216.03   2
   1  -7   1 35261.1 3697.84   7
   1  -7   2 145298. 8790.91   2
   7   1   3 52057.8 2512.27   4
   7   1   4 6617.46 852.773   4
   7   1   4 7362.01 791.982   3
   7   1   5 5107.51 553.577   4
   2  -7   0 97735.4 5282.29   1
   2  -7   0 95818.8 5307.24   2
   2  -7   1 166745. 7835.29   2
   2  -7   1 180258. 8274.20   7
   2  -7   2 5162.18 1559.96   2
   7   2   3 49648.6 2446.84   4
   7   2   4 3172.19 618.471   4
   7   2   5 5440.75 548.348   4
   3  -7   0 70111.8 4292.13   1
   3  -7   0 72169.1 4426.68   2
   3  -7  -1 5269.52 1231.92   1
   3  -7   1 6519.98 1422.01   2
   3  -7   2 299405. 12890.1   2
   7   3   3 324.396 339.940   4
   7   3   4 1601.79 505.417   4
   4  -7   0 3224.31 999.798   2
   4  -7   1 164305. 7800.48   2
   4  -7  -1 162611. 7265.56   1
   4  -7   2 4358.78 1314.50   2
   7   4   3 45479.4 2320.71   4
   7   4   4 355.255 348.953   4
   5  -7   0 14957.1 1908.36   2
   5  -7  -1 15689.9 1933.39   2
   5  -7   1 27490.0 2822.04   2
   7   5   2 176660. 5776.16   4
   7   5   3 330.763 340.022   4
   7   5   4 1073.86 397.929   4
   6  -7   0 17589.1 2115.36   2
   6  -7   1 112896. 6352.06   2
   7   6   2 12247.4 1046.65   4
   7   6   3 38866.7 2112.59   4
   7   6   4 4153.38 626.751   4
   6  -7   4 5054.66 789.303   4
   7  -7   0 111759. 5946.82   2
  -7  -7  -1 57194.4 2441.42   5
  -7  -7   1 56327.7 2445.06   5
   7   7   2 94995.5 3677.40   4
   7   7   3 6341.50 806.017   4
   7  -7   4 7963.94 827.918   4
   7   7   4 8130.21 784.482   4
  -7  -8   0 653.788 301.161   5
  -7  -8  -1 77975.0 3104.87   5
  -7  -8   1 82204.8 3173.11   5
   7   8   2 888.278 392.399   4
   7   8   3 21510.7 1447.63   4
   8  -7   4-75.1515 270.662   4
   7   8   4 85.2232 239.369   4
  -6  -8   0 93764.5 3461.47   5
  -6  -8   0 95301.5 5539.06   7
  -6  -8  -1 43529.4 2066.42   5
   6   8   1 45760.0 2148.46   4
   6   8   2 31658.5 1831.42   4
  -8   6  -2 32120.9 1785.14   5
   6   8   3 211.714 321.659   4
   6   8   4 25886.0 1438.61   4
   8  -6   4 29370.2 1573.48   4
  -5  -8   0 9692.30 1617.50   7
   8  -5   1 86445.1 5042.89   2
  -5  -8   1 77619.8 5317.34   7
   5   8   2 698.112 308.074   4
  -8   5  -2 523.652 244.222   5
   5   8   3 36783.3 2041.45   4
   5   8   4 149.349 288.282   4
   8  -5   4 627.244 341.615   4
  -4  -8   0 67552.3 4514.17   1
   8  -4   1 76070.3 4514.48   2
  -4  -8   1 68756.4 5014.47   7
  -8   4  -2 119504. 4211.40   5
   4   8   2 116243. 4299.88   4
   4   8   3 40906.1 2183.24   4
   8  -4   4 3314.71 599.145   4
   4   8   4 3399.35 561.633   4
  -3  -8   0 4412.91 1253.63   1
   8  -3   1 112731. 5613.80   2
  -3  -8   1 120793. 6860.47   7
   3   8   2 481.357 353.331   4
  -8   3  -2 1334.60 395.660   5
   3   8   3 39450.1 2126.02   4
   3   8   4 1355.50 407.206   4
   8  -3   4 844.776 379.299   4
  -2  -8   0 252382. 10318.2   1
   8  -2   1 112.364 286.354   2
  -2  -8   1 739.847 700.175   2
   2   8   2 18863.4 1320.71   4
   2   8   3 23726.5 1569.74   4
   2   8   4 26598.9 1550.36   4
   8  -2   4 25580.0 1677.34   4
  -1  -8   0 104.740 435.082   1
  -1  -8   1 180615. 9146.37   7
  -1  -8   1 189887. 8936.01   2
  -1  -8   2 323.364 1091.71   7
   1   8   3 38370.2 2076.69   4
   8  -1   3 37984.8 2092.26   4
   8  -1   4 1865.75 462.146   4
   0  -8   0 334376. 12591.8   1
   0  -8   1 5913.03 1465.00   7
   0  -8   1 5321.98 1434.69   2
   8   0   3 538.428 331.796   4
   0   8   3 1386.60 406.384   4
   8   0   4 108749. 3829.06   3
   8   0   4 101869. 3982.12   4
   1  -8   0-125.027 588.519   1
   1  -8   1 183045. 8749.22   2
   1  -8   1 194502. 9147.62   7
   1  -8   2 2549.71 1387.81   2
   8   1   3 36897.4 2051.63   4
   8   1   4 2526.99 573.582   4
   2  -8   0 266593. 10634.4   1
   2  -8   0 261811. 10604.0   2
   2  -8   1 1008.63 596.162   2
   2  -8   1 536.503 604.741   7
   2  -8   2 17373.9 2840.35   2
   8   2   3 25540.6 1658.89   4
   8   2   4 24151.7 1559.25   4
   3  -8   0 7260.69 1363.69   2
   3  -8   0 5246.97 1234.22   1
   3  -8   1 120740. 6714.39   2
   3  -8  -1 125517. 6605.12   1
   8   3   2 1055.64 319.721   4
   8   3   3 40628.1 2167.87   4
   8   3   4 1005.63 409.186   4
   4  -8   0 60749.3 4250.59   2
   4  -8  -1 73072.8 4714.59   2
   4  -8  -1 68863.0 4473.54   1
   4  -8   1 67300.5 4846.47   2
   8   4   2 117317. 4222.52   4
   8   4   3 41654.6 2200.73   4
   8   4   4 3633.77 608.247   4
   5  -8   0 10785.6 1734.77   2
   5  -8   1 87232.2 5607.45   2
   5  -8  -1 80511.8 4982.51   2
   8   5   2 1148.70 405.969   4
   8   5   3 34754.6 1956.79   4
   8   5   4 234.542 459.680   4
  -8  -6   0 96171.1 3543.98   5
   6  -8   0 99780.3 5730.12   2
  -8  -6  -1 39929.3 1974.94   5
  -8  -6   1 43014.7 2024.78   5
   8   6   2 32819.4 1840.58   4
   8   6   3 265.772 310.260   4
   8   6   4 25944.1 1443.72   4
  -8  -7   0 473.679 240.863   5
  -8  -7   1 81100.2 3175.53   5
  -8  -7  -1 80040.3 3153.88   5
   8   7   2 318.086 289.528   4
   8   7   3 21814.9 1450.10   4
   8   7   4-22.0520 283.389   4
   7  -8   4-169.448 199.284   4
  -8  -8   0 355390. 10309.2   5
  -8  -8   1 12011.0 1021.73   5
  -8  -8  -1 12941.8 1049.93   5
   8   8   2 689.389 257.632   4
   8   8   3 335.453 289.743   4
   8   8   4 30539.6 1379.00   4
  -8  -9   0 6841.41 768.917   5
  -8  -9  -1 48022.8 2216.44   5
   8   9   2 820.069 366.008   4
  -9   8  -2 734.055 319.190   5
  -9   8  -3 15717.8 998.787   5
   8   9   3 16469.2 1113.33   4
  -9   7   0 12543.7 1015.70   5
  -7  -9   0 10935.6 967.603   5
  -7  -9  -1 34312.8 1793.75   5
  -9   7  -2 25970.4 1585.60   5
   7   9   2 28746.9 1664.04   4
   7   9   3 5791.66 705.308   4
   9  -7   4 7811.15 608.521   4
  -9   6   0 27786.4 1563.59   5
  -9   6  -1 70622.8 2919.65   5
   6   9   1 73030.6 2980.51   4
   6   9   2 3045.47 561.820   4
  -9   6  -2 3408.10 582.832   5
   6   9   3 24396.5 1536.82   4
   9  -6   4 2300.40 423.600   4
   6   9   4 2224.00 411.154   4
  -9   5   0 13961.1 1048.40   5
  -9   5  -1 9986.64 922.717   5
   5   9   1 11320.9 990.192   4
  -9   5  -2 167589. 5533.84   5
   5   9   2 165150. 5621.88   4
   5   9   3 1455.51 447.311   4
   9  -5   4 919.089 332.423   4
   5   9   4 429.091 269.530   4
  -4  -9   0-1613.67 807.009   1
  -9   4  -1 65367.7 2734.69   5
   4   9   1 66324.1 2812.94   4
   4   9   2 3872.88 655.343   4
  -9   4  -2 3350.88 568.831   5
   4   9   3 21735.3 1494.37   4
   9  -4   4 678.828 340.829   4
   4   9   4 843.861 334.340   4
  -3  -9   0 4016.89 1138.72   1
  -3  -9   1 9305.59 1770.58   7
  -9   3  -2 183521. 5907.52   5
   3   9   2 175987. 5954.53   4
   3   9   3 3054.31 587.634   4
   9  -3   4-1.68065 319.585   4
  -2  -9   0 12062.2 1884.16   1
  -2  -9   1 140829. 7829.87   7
  -9   2  -2 14314.0 1120.52   5
   2   9   2 12492.9 1111.71   4
   2   9   3 44050.3 2235.37   4
   9  -2   3 41085.3 2214.64   4
   9  -2   4 4955.00 709.680   4
  -1  -9   0 253875. 10583.1   1
  -1  -9   1 35345.2 3510.29   2
  -1  -9   1 34468.7 3525.07   7
  -9   1  -2 88242.1 3400.34   5
   1   9   2 88565.7 3559.09   4
   1   9   3 17179.7 1335.93   4
   9  -1   3 18352.1 1396.51   4
   9  -1   4 11771.0 1049.41   4
   0  -9   0-905.268 650.184   1
   0  -9  -1 116883. 6945.26   1
   0  -9   1 130629. 7245.17   2
   0  -9   1 121254. 6970.03   7
   9   0   2 856.288 320.826   4
  -9   0  -2 37.9837 220.359   5
   9   0   3 14079.0 1200.73   4
   9   0   4-165.541 333.980   4
   1  -9   0 262734. 10839.4   2
   1  -9   0 229800. 10258.2   1
   1  -9  -1 37241.6 3591.82   1
   1  -9   1 34628.8 3585.52   2
   1  -9   1 37523.7 3535.56   7
  -9  -1  -2 96610.9 3632.15   5
   9   1   2 94062.9 3595.01   4
   9   1   3 16562.6 1310.46   4
   9   1   4 11535.8 1011.77   4
   2  -9   0 16252.6 2276.11   2
   2  -9   0 15759.7 2244.96   1
   2  -9   1 128057. 7261.03   2
   2  -9  -1 133059. 7234.08   1
  -9  -2  -2 13109.2 1085.92   5
   9   2   2 13092.0 1089.38   4
   9   2   3 44442.1 2289.94   4
   9   2   4 3206.31 591.738   4
   3  -9   0 5568.54 1376.50   2
   3  -9  -1 10873.3 1818.48   1
   3  -9  -1 11457.6 1891.30   2
   3  -9   1 8547.33 1821.38   2
  -9  -3  -2 192927. 6206.36   5
   9   3   2 195574. 6254.60   4
   9   3   3 2886.77 578.009   4
   9   3   4 473.598 297.833   4
   4  -9   0 2492.68 953.138   2
  -9  -4   1 65386.1 2708.65   5
  -9  -4  -1 66657.1 2770.04   5
   9   4   2 4424.86 650.957   4
  -9  -4  -2 3688.56 578.522   5
   9   4   3 25738.6 1629.84   4
   9   4   4 458.599 270.022   4
  -9  -5   0 15862.4 1144.51   5
  -9  -5   1 10137.3 907.033   5
  -9  -5  -1 11377.9 1002.90   5
  -9  -5  -2 170144. 5513.66   5
   9   5   2 168260. 5617.58   4
   9   5   3 2029.24 489.528   4
   9   5   4 399.803 267.918   4
  -9  -6   0 30465.3 1684.15   5
  -9  -6  -1 73600.5 2955.17   5
  -9  -6   1 70331.9 2902.22   5
   9   6   2 4756.16 653.510   4
  -9  -6  -2 4766.14 609.541   5
   9   6   3 24007.1 1495.74   4
   9   6   4 1746.44 400.377   4
  -9  -7   0 12180.2 1019.53   5
  -9  -7   1 34353.9 1827.23   5
  -9  -7  -1 34979.4 1837.36   5
   9   7   2 28880.2 1673.30   4
  -9  -7  -2 31742.5 1650.45   5
   9   7   3 5911.17 707.879   4
   9   7   4 6861.51 585.096   4
  -9  -8   0 4677.70 639.572   5
  -9  -8   1 50612.0 2294.54   5
  -9  -8  -1 49563.0 2283.88   5
   9   8   2 602.714 313.610   4
  -9  -8  -2 576.565 285.268   5
   9   8   3 13239.6 979.717   4
  -9  -9   0 60788.7 2588.46   5
  -9  -9  -1 12788.7 1017.66   5
  -9   9  -2 31184.4 1646.93   5
   9   9   2 29799.2 1558.01   4
   9   9   3 4794.36 527.765   4
 -10   9   0 2995.68 496.942   5
 -10   9  -1 27702.3 1535.05   5
 -10   9  -2 4612.24 550.608   5
 -10   8   0 106829. 3796.07   5
 -10   8  -1 8903.50 871.509   5
 -10   8  -2 12990.2 1023.84   5
   8  10   2 13966.1 1021.33   4
 -10   7   0 4446.89 623.435   5
 -10   7  -1 72886.3 2976.44   5
 -10   7  -2 8090.11 821.662   5
   7  10   2 9088.55 876.899   4
   7  10   3 17384.1 1133.62   4
 -10   6   0 125038. 4339.53   5
 -10   6  -1 560.297 282.663   5
 -10   6  -2 15873.2 1187.09   5
   6  10   2 16062.6 1222.69   4
   6  10   3 2449.36 482.498   4
 -10   5   0 12152.5 994.791   5
 -10   5  -1 91643.0 3503.78   5
 -10   5  -2 4569.45 651.087   5
   5  10   2 5156.58 700.678   4
   5  10   3 18196.1 1285.82   4
  10  -5   4 3508.62 439.686   4
 -10   4   0 180726. 5791.85   5
 -10   4  -1 11899.6 1027.79   5
 -10   4  -2 44413.7 2179.13   5
   4  10   2 42577.4 2208.85   4
   4  10   3 8101.65 887.104   4
  10  -4   4 12965.2 920.261   4
 -10   3   0 40428.7 1988.87   5
 -10   3  -1 78489.5 3138.60   5
 -10   3  -2 3531.95 602.320   5
   3  10   2 3449.56 600.133   4
   3  10   3 37287.3 2024.54   4
  10  -3   3 41874.7 2130.98   4
  10  -3   4 5322.83 626.369   4
 -10   2   0 84103.5 3238.08   5
 -10   2  -1 22657.7 1443.94   5
 -10   2  -2 19022.4 1345.42   5
   2  10   2 19078.7 1410.98   4
  10  -2   3 3316.20 636.431   4
  10  -2   4 22581.3 1346.36   4
  -1 -10   0 8864.43 1826.68   2
 -10   1   0 10444.6 925.871   5
 -10   1  -1 73674.7 3006.65   5
 -10   1  -2 17291.9 1275.04   5
  10  -1   3 35136.2 1969.23   4
  10  -1   4 1153.13 370.034   4
   0 -10   0 192015. 9231.82   2
 -10   0   0 197225. 6197.32   5
 -10   0  -1 313.843 238.921   5
  10   0   2 8260.77 861.482   4
 -10   0  -2 7128.00 786.975   5
  10   0   3 20454.6 1450.85   4
  10   0   4 30625.2 1634.73   4
 -10  -1   0 10419.6 925.852   5
 -10  -1  -1 74760.5 3062.89   5
 -10  -1  -2 17807.2 1316.80   5
  10   1   2 16642.1 1243.77   4
  10   1   3 32946.7 1878.48   4
  10   1   4 1000.32 367.002   4
 -10  -2   0 85859.6 3348.65   5
 -10  -2   1 24174.2 1461.26   5
 -10  -2  -1 22888.5 1495.63   5
 -10  -2  -2 16602.5 1255.40   5
  10   2   2 19061.9 1311.13   4
  10   2   3 3838.33 625.760   4
  10   2   4 23242.5 1341.29   4
 -10  -3   0 42366.6 2087.37   5
 -10  -3   1 79155.5 3079.40   5
 -10  -3  -1 75431.9 3131.95   5
  10   3   2 3962.60 586.175   4
 -10  -3  -2 4689.58 642.082   5
  10   3   3 40921.0 2092.29   4
  10   3   4 4417.32 559.592   4
 -10  -4   0 178802. 5796.84   5
 -10  -4   1 12199.7 1022.39   5
 -10  -4  -1 15502.9 1170.71   5
 -10  -4  -2 48139.9 2247.53   5
  10   4   2 47932.2 2263.87   4
  10   4   3 8987.65 883.545   4
  10   4   4 12600.2 890.566   4
 -10  -5   0 13024.6 1053.25   5
 -10  -5  -1 97120.4 3661.30   5
 -10  -5   1 97275.0 3625.12   5
  10   5   2 6044.83 710.436   4
 -10  -5  -2 4671.09 616.258   5
  10   5   3 19584.0 1304.95   4
  10   5   4 3262.42 427.227   4
 -10  -6   0 117672. 4184.80   5
 -10  -6   1 697.495 288.521   5
 -10  -6  -1 513.361 336.045   5
  10   6   2 16948.7 1186.40   4
 -10  -6  -2 16264.7 1141.82   5
  10   6   3 2558.29 489.963   4
 -10  -7   0 4685.28 629.276   5
 -10  -7   1 80973.3 3148.60   5
 -10  -7  -1 80641.5 3175.25   5
  10   7   2 9660.18 844.907   4
 -10  -7  -2 8518.55 788.119   5
  10   7   3 18139.0 1128.90   4
 -10  -8   0 106070. 3850.52   5
 -10  -8  -1 9482.53 891.956   5
 -10  -8  -2 13454.4 935.656   5
  10   8   3 2594.10 392.232   4
 -10  -9   0 2758.26 497.072   5
  -9  10   0 2086.08 426.320   5
  -9  10  -1 27187.7 1512.46   5
 -10  -9  -1 26250.0 1467.24   5
  -9  10  -2 4749.96 578.350   5
 -10  10   0 43140.4 1876.96   5
 -10  10  -1 10476.9 847.771   5
 -10  10  -2 6683.87 613.508   5
 -11  10   0 2301.61 367.602   5
 -11  10  -1 20094.1 1102.32   5
 -11  10  -2 5772.47 507.760   5
 -11   9   0 7895.44 712.168   5
 -11   9  -1 459.066 280.606   5
 -11   9  -2 39270.3 1679.23   5
 -11   8   0 3684.21 521.438   5
 -11   8  -1 33335.8 1702.75   5
 -11   8  -2 1660.26 396.587   5
  11  -8   3 12582.1 764.392   4
 -11   7   0 15680.3 1112.30   5
 -11   7  -1 2717.71 522.330   5
 -11   7  -2 60567.7 2488.26   5
  11  -7   3-11.5648 200.488   4
 -11   6   0 14347.1 1083.28   5
 -11   6  -1 33659.5 1800.81   5
 -11   6  -2 2854.92 495.194   5
  11  -6   3 16917.2 1081.50   4
 -11   5   0 13514.5 1062.63   5
 -11   5  -1 21015.8 1391.87   5
 -11   5  -2 32095.6 1753.34   5
  11  -5   3 8316.81 784.293   4
 -11   4   0 3866.28 583.413   5
 -11   4  -1 84295.6 3328.57   5
 -11   4  -2 544.106 323.222   5
  11  -4   3 21837.6 1360.12   4
 -11   3   0 93826.4 3561.72   5
 -11   3  -1 41981.8 2110.87   5
 -11   3  -2 55730.9 2533.75   5
  11  -3   3 3310.59 531.476   4
  11  -3   4 4134.55 466.975   4
 -11   2   0 5236.79 690.927   5
 -11   2  -1 54200.5 2517.28   5
 -11   2  -2 12792.5 1110.79   5
  11  -2   2 13027.8 1078.80   4
  11  -2   3 30784.1 1725.46   4
  11  -2   4 2193.51 374.479   4
 -11   1   0 13930.4 1115.52   5
 -11   1  -1 796.959 356.494   5
 -11   1  -2 112054. 4155.03   5
  11  -1   2 113139. 4096.35   4
  11  -1   3 536.018 373.947   4
  11  -1   4 1011.46 293.276   4
 -11   0   0 516.042 378.689   5
 -11   0  -1 122937. 4441.78   5
  11   0   2-81.8286 298.724   4
 -11   0  -2-278.564 345.325   5
  11   0   3 32268.7 1783.88   4
  11   0   4 220.059 241.589   4
 -11  -1   0 12454.7 1067.80   5
 -11  -1  -1 734.375 394.215   5
 -11  -1  -2 109004. 4104.97   5
  11   1   2 113654. 4070.58   4
  11   1   3 263.208 278.390   4
  11   1   4 454.499 246.380   4
 -11  -2   0 4850.08 693.677   5
 -11  -2   1 59969.5 2530.48   5
 -11  -2  -1 51322.4 2501.52   5
 -11  -2  -2 12944.4 1085.00   5
  11   2   2 12981.9 1046.98   4
  11   2   3 29454.5 1647.93   4
  11   2   4 2110.29 368.382   4
 -11  -3   0 97083.7 3697.01   5
 -11  -3   1 44398.1 2100.11   5
 -11  -3  -1 40607.1 2129.96   5
 -11  -3  -2 64710.9 2721.97   5
  11   3   2 63248.1 2673.71   4
  11   3   3 4426.39 624.361   4
  11   3   4 3625.51 421.712   4
 -11  -4   0 4235.75 622.666   5
 -11  -4   1 86398.5 3281.79   5
 -11  -4  -1 81635.8 3303.41   5
  11   4   2-161.322 235.279   4
 -11  -4  -2 439.570 246.764   5
  11   4   3 20818.4 1286.67   4
 -11  -5   0 15371.9 1161.72   5
 -11  -5  -1 22002.0 1429.94   5
 -11  -5   1 21520.2 1364.31   5
 -11  -5  -2 33214.1 1718.44   5
  11   5   3 7846.24 732.011   4
 -11  -6   0 13889.7 1087.59   5
 -11  -6  -1 36481.3 1879.44   5
 -11  -6   1 36358.0 1837.25   5
 -11  -6  -2 3013.38 485.780   5
  11   6   3 20974.5 1164.07   4
 -11  -7   0 15099.1 1134.50   5
 -11  -7   1 2630.16 490.726   5
 -11  -7  -1 2227.37 472.067   5
 -11  -7  -2 64738.0 2490.26   5
  11   7   3 180.141 190.850   4
 -11  -8   0 4100.93 576.472   5
 -11  -8  -1 34341.4 1724.08   5
  -8  11  -2 2385.07 437.836   5
  -9  11   0 6859.96 662.473   5
  -9  11  -1 497.799 261.660   5
  -9  11  -2 39752.3 1689.31   5
 -10  11   0 2004.31 332.242   5
 -10  11  -1 20635.4 1118.55   5
 -10  11  -2 5362.12 479.182   5
 -11  11   0 6119.67 486.119   5
 -11  11  -1 892.846 231.451   5
 -12  10   0 25679.1 1107.58   5
 -12  10  -1 959.625 231.700   5
 -12   9   0 3319.29 420.206   5
 -12   9  -1 38900.5 1649.36   5
 -12   9  -2 555.511 212.270   5
 -12   8   0 18894.3 1109.83   5
 -12   8  -1 19948.6 1174.24   5
 -12   8  -2 28575.5 1343.68   5
 -12   7   0-19.5816 244.725   5
 -12   7  -1 23158.8 1343.38   5
 -12   7  -2 584.689 292.700   5
 -12   6   0 86026.1 3199.50   5
 -12   6  -1 7316.03 776.875   5
 -12   6  -2 8290.97 770.094   5
  12  -6   3 775.583 243.814   4
 -12   5   0-141.467 275.547   5
 -12   5  -1 42702.6 2070.99   5
 -12   5  -2 2713.13 561.203   5
  12  -5   3 14121.3 901.219   4
 -12   4   0 139228. 4727.23   5
 -12   4  -1 2312.61 464.303   5
 -12   4  -2 2775.57 527.556   5
  12  -4   3 2497.30 398.867   4
 -12   3   0 6631.97 780.666   5
 -12   3  -1 37897.9 1982.35   5
  12  -3   2 467.743 308.796   4
 -12   3  -2 1095.41 376.035   5
  12  -3   3 14359.8 991.651   4
 -12   2   0 88763.1 3461.57   5
 -12   2  -1 11242.2 1039.17   5
 -12   2  -2 16551.5 1242.41   5
  12  -2   2 17352.8 1178.84   4
  12  -2   3 2944.50 467.668   4
 -12   1   0 5697.09 737.655   5
 -12   1  -1 43087.4 2207.93   5
  12  -1   2 7147.53 741.022   4
 -12   1  -2 5882.31 753.731   5
  12  -1   3 19765.3 1226.57   4
 -12   0   0 67152.5 2887.70   5
 -12   0  -1 34067.5 1926.00   5
 -12   0  -2 55815.4 2544.96   5
  12   0   2 55797.8 2417.88   4
  12   0   3 31762.8 1619.10   4
 -12  -1   0 6687.95 793.381   5
 -12  -1  -1 41603.8 2169.24   5
  12   1   2 6647.31 701.778   4
 -12  -1  -2 6361.91 769.279   5
  12   1   3 20612.9 1241.91   4
 -12  -2   0 88943.6 3479.80   5
 -12  -2   1 13467.2 1059.39   5
 -12  -2  -1 12218.6 1087.79   5
 -12  -2  -2 16756.9 1187.20   5
  12   2   3 4411.45 564.003   4
 -12  -3   0 7592.32 832.633   5
 -12  -3   1 40834.1 1951.04   5
 -12  -3  -1 36018.0 1954.14   5
 -12  -3  -2 485.469 309.876   5
  12   3   3 13573.3 941.689   4
 -12  -4   0 141533. 4802.53   5
 -12  -4   1 3013.65 522.431   5
 -12  -4  -1 3298.44 569.646   5
 -12  -4  -2 1592.89 401.542   5
  12   4   3 1736.54 311.723   4
 -12  -5   0 347.793 309.997   5
 -12  -5  -1 41131.1 2028.83   5
 -12  -5   1 43086.2 1988.14   5
 -12  -5  -2 1550.27 328.645   5
  12   5   3 14517.4 848.191   4
 -12  -6   0 81725.6 3130.06   5
 -12  -6   1 7270.21 725.302   5
 -12  -6  -1 9365.58 859.454   5
 -12  -6  -2 7884.87 693.212   5
 -12  -7   0-15.3282 268.796   5
 -12  -7   1 21715.3 1245.54   5
 -12  -7  -1 23373.2 1335.52   5
 -12  -7  -2 1498.55 300.256   5
 -12  -8   0 17508.7 1113.15   5
 -12  -8  -1 18988.6 1120.93   5
  -8  12  -2 28532.4 1322.18   5
  -9  12   0 3551.94 431.140   5
  -9  12  -1 38027.1 1617.39   5
  -9  12  -2 433.004 188.715   5
 -10  12   0 24471.1 1061.49   5
 -10  12  -1 1226.50 270.722   5
 -13   9  -1 654.090 194.292   5
 -13   8   0 1041.43 261.904   5
 -13   8  -1 14723.4 873.874   5
 -13   7   0 1812.86 367.496   5
 -13   7  -1 657.483 265.417   5
 -13   7  -2 40923.6 1636.71   5
 -13   6   0 7788.58 714.461   5
 -13   6  -1 20052.4 1208.99   5
  13  -6   2 3162.99 388.741   4
 -13   6  -2 2790.04 411.920   5
 -13   5   0 49393.2 2143.40   5
 -13   5  -1 15871.1 1102.02   5
 -13   5  -2 18474.7 1127.90   5
  13  -5   2 19297.0 1031.28   4
 -13   4   0 334.739 284.878   5
 -13   4  -1 28189.3 1573.29   5
  13  -4   2 194.128 193.264   4
 -13   4  -2 335.602 304.247   5
 -13   3   0 12996.8 1045.84   5
 -13   3  -1 13121.8 1064.39   5
 -13   3  -2 20998.3 1309.41   5
  13  -3   2 22932.2 1210.95   4
  13  -3   3 5431.21 495.922   4
 -13   2   0 1820.54 449.556   5
 -13   2  -1 59284.3 2607.84   5
 -13   2  -2 3706.85 573.999   5
  13  -2   3 19034.3 1003.25   4
 -13   1   0 11077.1 1007.55   5
 -13   1  -1 4441.92 687.600   5
 -13   1  -2 86491.5 3274.11   5
  13  -1   3 1851.58 323.811   4
 -13   0   0 189.247 305.224   5
 -13   0  -1 38286.4 2032.24   5
 -13   0  -2-351.789 360.554   5
  13   0   3 14291.4 857.931   4
 -13  -1   0 10664.4 979.238   5
 -13  -1  -1 3647.84 603.941   5
 -13  -1  -2 79630.9 3053.85   5
  13   1   3 1260.50 260.279   4
 -13  -2   0 1463.58 391.024   5
 -13  -2   1 63241.7 2544.63   5
 -13  -2  -1 61196.2 2668.94   5
 -13  -2  -2 7888.53 756.770   5
  13   2   3 19853.5 985.096   4
 -13  -3   0 12734.4 1018.49   5
 -13  -3   1 13643.3 979.032   5
 -13  -3  -1 12876.0 1051.39   5
 -13  -3  -2 21673.9 1244.69   5
 -13  -4   0 1027.64 365.225   5
 -13  -4  -1 26828.0 1528.76   5
 -13  -4   1 29209.6 1492.00   5
 -13  -4  -2 182.082 212.603   5
 -13  -5   0 46793.1 2082.60   5
 -13  -5  -1 15665.4 1088.90   5
 -13  -5   1 16602.4 1044.02   5
 -13  -5  -2 20523.6 1111.59   5
 -13  -6   0 7063.22 702.840   5
 -13  -6   1 22451.8 1184.71   5
 -13  -6  -1 20092.9 1216.69   5
 -13  -6  -2 2678.70 362.746   5
 -13  -7   0 2085.00 401.128   5
 -13  -7  -1 566.181 248.071   5
  -7  13  -2 38917.9 1553.61   5
  -8  13   0 1767.55 304.268   5
  -8  13  -1 14749.8 869.406   5
  -9  13  -1 331.651 172.910   5
 -14   7   0 284.980 184.028   5
 -14   7  -1 33889.8 1392.74   5
 -14   6   0 37290.5 1561.85   5
 -14   6  -1 5437.85 546.817   5
 -14   5   0 5162.72 551.975   5
 -14   5  -1 25367.6 1311.67   5
 -14   5  -2 3629.79 422.622   5
 -14   4   0 80818.9 2926.51   5
 -14   4  -1 3552.61 514.436   5
 -14   4  -2 6676.41 596.417   5
 -14   3   0 8800.82 776.600   5
 -14   3  -1 37775.7 1804.59   5
 -14   3  -2 3599.36 461.794   5
 -14   2   0 76802.7 2917.81   5
 -14   2  -1 1287.06 408.415   5
 -14   2  -2 5041.73 562.563   5
 -14   1   0 8332.31 793.682   5
 -14   1  -1 18697.3 1237.73   5
 -14   1  -2 2740.16 440.223   5
 -14   0   0 22347.5 1343.66   5
 -14   0  -1 13844.1 1052.30   5
 -14   0  -2 17414.2 1065.66   5
 -14  -1   0 7022.07 722.595   5
 -14  -1  -1 18234.2 1207.92   5
 -14  -1  -2 2724.45 431.928   5
 -14  -2   0 70965.8 2752.72   5
 -14  -2  -1 1172.76 385.958   5
 -14  -2  -2 4812.00 525.495   5
 -14  -3   0 7630.23 719.708   5
 -14  -3  -1 36041.6 1717.87   5
 -14  -3  -2 3876.33 445.899   5
 -14  -4   0 74901.6 2770.56   5
 -14  -4  -1 2952.91 451.672   5
 -14  -4  -2 6259.81 530.738   5
 -14  -5   0 5100.41 565.000   5
 -14  -5  -1 21556.8 1180.85   5
 -14  -6   0 35358.5 1543.96   5
 -14  -6  -1 5176.79 526.142   5
  -7  14   0 534.831 211.545   5
  -7  14  -1 30554.5 1290.19   5
 -14  -7  -1 31590.4 1306.60   5
 -15   5  -1 464.699 207.149   5
 -15   4   0 1764.62 275.277   5
 -15   4  -1 15303.3 876.401   5
 -15   3   0 9146.86 671.508   5
 -15   3  -1 656.250 261.109   5
 -15   2   0 8165.23 655.076   5
 -15   2  -1 30795.0 1427.15   5
 -15   1   0 11152.4 781.842   5
 -15   1  -1 9842.49 733.860   5
 -15   0   0-79.9112 198.984   5
 -15   0  -1 24815.3 1265.73   5
 -15  -1   0 10695.1 767.550   5
 -15  -1  -1 9324.44 725.622   5
 -15  -2   0 8106.60 660.214   5
 -15  -2  -1 30849.0 1415.18   5
 -15  -3   0 9338.80 693.933   5
 -15  -3  -1 794.430 274.514   5
 -15  -4   0 1360.63 277.881   5
 -15  -4  -1 15796.0 876.150   5
 -15  -5   0 4385.66 430.298   5
 -15  -5  -1 616.646 211.149   5
   0   0   0    0.00    0.00   0
;
_shelx_hkl_checksum              13393
loop_
_space_group_symop_operation_xyz
'x, y, z'
'-x, -y, z'
'y, -x, -z'
'-y, x, -z'
'-x+1/2, y+1/2, -z'
'x+1/2, -y+1/2, -z'
'-y+1/2, -x+1/2, z'
'y+1/2, x+1/2, z'
loop_
_atom_site_label
_atom_site_type_symbol
_atom_site_fract_x
_atom_site_fract_y
_atom_site_fract_z
_atom_site_U_iso_or_equiv
_atom_site_adp_type
_atom_site_occupancy
_atom_site_site_symmetry_order
_atom_site_calc_flag
_atom_site_refinement_flags_posn
_atom_site_refinement_flags_adp
_atom_site_refinement_flags_occupancy
_atom_site_disorder_assembly
_atom_site_disorder_group
Ag1 Ag 1.000000 0.500000 1.25471(19) 0.0438(3) Uani 1 4 d S T P . .
Cl1 Cl 0.500000 0.500000 0.000000 0.0312(4) Uani 1 4 d S T P . .
S1 S 0.62297(8) 0.12297(8) 0.5009(4) 0.0380(4) Uani 1 2 d S T P . .
O1 O 0.5503(3) 0.4265(3) 0.1750(9) 0.0593(11) Uani 1 1 d . . . . .
N2 N 0.7793(3) 0.2793(3) 0.7420(16) 0.0363(11) Uani 1 2 d S T P . .
C2 C 0.6844(3) 0.3191(3) 0.6176(13) 0.0402(11) Uani 1 1 d . . . . .
H2A H 0.693271 0.329437 0.414164 0.048 Uiso 1 1 calc R U . . .
H2B H 0.667901 0.384306 0.703693 0.048 Uiso 1 1 calc R U . . .
C1 C 0.8418(4) 0.3418(4) 0.8672(17) 0.0410(15) Uani 1 2 d S T P . .
C3 C 0.5984(3) 0.2444(3) 0.6695(12) 0.0426(12) Uani 1 1 d . . . . .
H3A H 0.535366 0.272553 0.595138 0.051 Uiso 1 1 calc R U . . .
H3B H 0.589940 0.234355 0.873251 0.051 Uiso 1 1 calc R U . . .
N1 N 0.8958(4) 0.3958(4) 0.982(2) 0.072(2) Uani 1 2 d S T P . .
loop_
_atom_site_aniso_label
_atom_site_aniso_U_11
_atom_site_aniso_U_22
_atom_site_aniso_U_33
_atom_site_aniso_U_23
_atom_site_aniso_U_13
_atom_site_aniso_U_12
Ag1 0.0327(3) 0.0327(3) 0.0659(5) 0.000 0.000 0.0020(2)
Cl1 0.0315(5) 0.0315(5) 0.0306(8) 0.000 0.000 0.000
S1 0.0375(5) 0.0375(5) 0.0390(7) -0.0012(6) -0.0012(6) -0.0090(6)
O1 0.062(2) 0.059(2) 0.057(3) 0.017(2) -0.009(2) 0.0162(18)
N2 0.0290(13) 0.0290(13) 0.051(3) -0.005(2) -0.005(2) 0.0014(18)
C2 0.033(2) 0.0229(17) 0.065(3) 0.006(2) -0.005(2) 0.0029(17)
C1 0.0369(19) 0.0369(19) 0.049(4) -0.001(2) -0.001(2) -0.005(3)
C3 0.025(2) 0.035(2) 0.068(3) 0.004(2) -0.003(2) 0.0056(15)
N1 0.058(2) 0.058(2) 0.101(6) -0.024(4) -0.024(4) -0.005(3)
loop_
_atom_type_symbol
_atom_type_description
_atom_type_scat_dispersion_real
_atom_type_scat_dispersion_imag
_atom_type_scat_source
C C 0.0181 0.0091 'International Tables Vol C Tables 4.2.6.8 and 6.1.1.4'
H H 0.0000 0.0000 'International Tables Vol C Tables 4.2.6.8 and 6.1.1.4'
N N 0.0311 0.0180 'International Tables Vol C Tables 4.2.6.8 and 6.1.1.4'
O O 0.0492 0.0322 'International Tables Vol C Tables 4.2.6.8 and 6.1.1.4'
S S 0.3331 0.5567 'International Tables Vol C Tables 4.2.6.8 and 6.1.1.4'
Cl Cl 0.3639 0.7018 'International Tables Vol C Tables 4.2.6.8 and 6.1.1.4'
Ag Ag 0.1306 4.2820 'International Tables Vol C Tables 4.2.6.8 and 6.1.1.4'
loop_
_exptl_crystal_face_index_h
_exptl_crystal_face_index_k
_exptl_crystal_face_index_l
_exptl_crystal_face_perp_dist
-1 -1 0 0.0348
1 1 0 0.0308
0 0 1 0.1576
-1 0 -3 0.1285
-4 5 0 0.0410
4 -5 0 0.0279
-6 -4 2 0.1155
5 0 2 0.1400
5 5 -2 0.1019
2 5 2 0.1389
loop_
_geom_angle_atom_site_label_1
_geom_angle_atom_site_label_2
_geom_angle_atom_site_label_3
_geom_angle
_geom_angle_site_symmetry_1
_geom_angle_site_symmetry_3
_geom_angle_publ_flag
N1 Ag1 N1 113.2(5) . 2_765 ?
N1 Ag1 S1 104.30(11) . 3_667 ?
N1 Ag1 S1 104.30(11) 2_765 3_667 ?
N1 Ag1 S1 104.30(11) . 4_657 ?
N1 Ag1 S1 104.30(11) 2_765 4_657 ?
S1 Ag1 S1 126.70(9) 3_667 4_657 ?
O1 Cl1 O1 109.25(17) . 3_565 ?
O1 Cl1 O1 109.9(3) . 2_665 ?
O1 Cl1 O1 109.25(17) 3_565 2_665 ?
O1 Cl1 O1 109.25(17) . 4_655 ?
O1 Cl1 O1 109.9(3) 3_565 4_655 ?
O1 Cl1 O1 109.25(17) 2_665 4_655 ?
C3 S1 C3 97.1(3) 8_545 . ?
C3 S1 Ag1 104.37(17) 8_545 3_567 ?
C3 S1 Ag1 104.36(17) . 3_567 ?
C1 N2 C2 119.3(3) . . ?
C1 N2 C2 119.3(3) . 8_545 ?
C2 N2 C2 116.4(6) . 8_545 ?
N2 C2 C3 109.7(4) . . ?
N2 C2 H2A 109.7 . . ?
C3 C2 H2A 109.7 . . ?
N2 C2 H2B 109.7 . . ?
C3 C2 H2B 109.7 . . ?
H2A C2 H2B 108.2 . . ?
N1 C1 N2 178.5(10) . . ?
C2 C3 S1 111.5(3) . . ?
C2 C3 H3A 109.3 . . ?
S1 C3 H3A 109.3 . . ?
C2 C3 H3B 109.3 . . ?
S1 C3 H3B 109.3 . . ?
H3A C3 H3B 108.0 . . ?
C1 N1 Ag1 174.9(9) . . ?
loop_
_geom_bond_atom_site_label_1
_geom_bond_atom_site_label_2
_geom_bond_distance
_geom_bond_site_symmetry_2
_geom_bond_publ_flag
Ag1 N1 2.317(7) . ?
Ag1 N1 2.318(7) 2_765 ?
Ag1 S1 2.5528(16) 3_667 ?
Ag1 S1 2.5528(16) 4_657 ?
Cl1 O1 1.428(4) . ?
Cl1 O1 1.428(4) 3_565 ?
Cl1 O1 1.428(4) 2_665 ?
Cl1 O1 1.428(4) 4_655 ?
S1 C3 1.807(4) 8_545 ?
S1 C3 1.807(4) . ?
N2 C1 1.299(9) . ?
N2 C2 1.470(5) . ?
N2 C2 1.471(5) 8_545 ?
C2 C3 1.515(6) . ?
C2 H2A 0.9700 . ?
C2 H2B 0.9700 . ?
C1 N1 1.138(10) . ?
C3 H3A 0.9700 . ?
C3 H3B 0.9700 . ?
loop_
_geom_hbond_atom_site_label_D
_geom_hbond_atom_site_label_H
_geom_hbond_atom_site_label_A
_geom_hbond_distance_DH
_geom_hbond_distance_HA
_geom_hbond_distance_DA
_geom_hbond_angle_DHA
_geom_hbond_site_symmetry_A
_geom_hbond_publ_flag
C2 H2A O1 0.97 2.53 3.063(6) 114.6 . yes
C2 H2B O1 0.97 2.57 3.502(7) 161.3 4_656 yes
loop_
_geom_torsion_atom_site_label_1
_geom_torsion_atom_site_label_2
_geom_torsion_atom_site_label_3
_geom_torsion_atom_site_label_4
_geom_torsion
_geom_torsion_site_symmetry_1
_geom_torsion_site_symmetry_2
_geom_torsion_site_symmetry_3
_geom_torsion_site_symmetry_4
_geom_torsion_publ_flag
C1 N2 C2 C3 -141.3(7) . . . . ?
C2 N2 C2 C3 64.0(8) 8_545 . . . ?
N2 C2 C3 S1 -61.7(6) . . . . ?
C3 S1 C3 C2 56.0(5) 8_545 . . . ?
Ag1 S1 C3 C2 162.8(4) 3_567 . . . ?
loop_
_exptl_oxdiff_crystal_face_indexfrac_h
_exptl_oxdiff_crystal_face_indexfrac_k
_exptl_oxdiff_crystal_face_indexfrac_l
_exptl_oxdiff_crystal_face_x
_exptl_oxdiff_crystal_face_y
_exptl_oxdiff_crystal_face_z
-0.9990 -0.9991 -0.0004 -0.1270 0.0948 0.0493
0.9990 0.9991 0.0004 0.1270 -0.0948 -0.0493
-0.0131 -0.0001 0.9992 0.0807 -0.0525 0.3141
-0.9606 0.0008 -2.9980 -0.2562 0.2718 -0.9190
-4.0035 5.0009 -0.0017 0.5074 0.5536 -0.0365
4.0035 -5.0009 0.0017 -0.5074 -0.5536 0.0365
-6.0218 -3.9956 1.9960 -0.3751 0.5024 0.8720
4.9730 -0.0030 2.0005 0.2323 -0.6760 0.5116
5.0211 4.9959 -1.9964 0.4738 -0.3689 -0.8747
1.9694 4.9973 1.9992 0.7538 -0.2365 0.4518
loop_
_topol_link.node_label_1
_topol_link.node_label_2
_topol_link.site_symmetry_symop_1
_topol_link.site_symmetry_translation_1_x
_topol_link.site_symmetry_translation_1_y
_topol_link.site_symmetry_translation_1_z
_topol_link.site_symmetry_symop_2
_topol_link.site_symmetry_translation_2_x
_topol_link.site_symmetry_translation_2_y
_topol_link.site_symmetry_translation_2_z
_topol_link.distance
_topol_link.type
H2A C2 1 0 0 0 1 0 0 0 0.970 V
H2B C2 1 0 0 0 1 0 0 0 0.970 V
H3A C3 1 0 0 0 1 0 0 0 0.970 V
H3B C3 1 0 0 0 1 0 0 0 0.970 V
C2 C3 1 0 0 0 1 0 0 0 1.514 V
C2 N2 1 0 0 0 1 0 0 0 1.471 V
C1 N2 1 0 0 0 1 0 0 0 1.300 V
C1 N1 1 0 0 0 1 0 0 0 1.137 V
C3 S1 1 0 0 0 1 0 0 0 1.807 V
N1 Ag1 1 0 0 0 1 1 0 1 2.318 V
O1 Cl1 1 0 0 0 1 0 0 0 1.428 V
S1 Ag1 1 0 0 0 3 0 0 1 2.553 V
