#------------------------------------------------------------------------------
#$Date: 2021-09-06 13:22:30 +0300 (Mon, 06 Sep 2021) $
#$Revision: 268641 $
#$URL: file:///home/coder/svn-repositories/cod/cif/7/24/29/7242981.cif $
#------------------------------------------------------------------------------
#
# This file is available in the Crystallography Open Database (COD),
# http://www.crystallography.net/
#
# All data on this site have been placed in the public domain by the
# contributors.
#
data_7242981
loop_
_publ_author_name
'Vaganova, Tamara A.'
'Gatilov, Yurij V.'
'Malykhin, Sergey E.'
'Pishchur, Denis P.'
'Sukhov, Maxim'
'Zakharov, Boris A.'
'Boldyreva, Elena V.'
'Malykhin, Evgenij V.'
_publ_section_title
;
 Co-crystals of polyhalogenated diaminobenzonitriles with 18-crown-6:
 effect of fluorine on the stoichiometry and supramolecular structure
;
_journal_issue                   27
_journal_name_full               CrystEngComm
_journal_page_first              4767
_journal_page_last               4781
_journal_paper_doi               10.1039/D1CE00530H
_journal_volume                  23
_journal_year                    2021
_chemical_formula_moiety         'C7 H5 F2 N3'
_chemical_formula_sum            'C7 H5 F2 N3'
_chemical_formula_weight         169.14
_chemical_melting_point          408
_chemical_name_systematic
;
2,4-diamino-3,5-difluorobenzonitrile
;
_space_group_crystal_system      triclinic
_space_group_IT_number           2
_space_group_name_Hall           '-P 1'
_space_group_name_H-M_alt        'P -1'
_atom_sites_solution_hydrogens   mixed
_atom_sites_solution_primary     direct
_atom_sites_solution_secondary   difmap
_audit_creation_method           SHELXL-2018/3
_audit_update_record
;
2021-04-08 deposited with the CCDC.	2021-06-04 downloaded from the CCDC.
;
_cell_angle_alpha                107.270(4)
_cell_angle_beta                 100.818(3)
_cell_angle_gamma                107.844(3)
_cell_formula_units_Z            2
_cell_length_a                   7.1619(5)
_cell_length_b                   7.5769(6)
_cell_length_c                   7.6716(5)
_cell_measurement_reflns_used    3328
_cell_measurement_temperature    296(2)
_cell_measurement_theta_max      29.61
_cell_measurement_theta_min      2.92
_cell_volume                     360.19(5)
_computing_cell_refinement       'Bruker SAINT'
_computing_data_collection       'Bruker APEX2'
_computing_data_reduction        'Bruker SAINT'
_computing_molecular_graphics    'Bruker SHELXTL'
_computing_publication_material  'Bruker SHELXTL'
_computing_structure_refinement  'SHELXL-2018/3 (Sheldrick, 2018)'
_computing_structure_solution    'SHELXT 2014/5 (Sheldrick, 2014)'
_diffrn_ambient_temperature      296(2)
_diffrn_measured_fraction_theta_full 0.999
_diffrn_measured_fraction_theta_max 0.938
_diffrn_measurement_device_type  'Bruker APEX-II CCD'
_diffrn_measurement_method       '\f and \w scans'
_diffrn_radiation_type           MoK\a
_diffrn_radiation_wavelength     0.71073
_diffrn_reflns_av_R_equivalents  0.0229
_diffrn_reflns_av_unetI/netI     0.0198
_diffrn_reflns_Laue_measured_fraction_full 0.999
_diffrn_reflns_Laue_measured_fraction_max 0.938
_diffrn_reflns_limit_h_max       9
_diffrn_reflns_limit_h_min       -9
_diffrn_reflns_limit_k_max       10
_diffrn_reflns_limit_k_min       -10
_diffrn_reflns_limit_l_max       10
_diffrn_reflns_limit_l_min       -10
_diffrn_reflns_number            7318
_diffrn_reflns_point_group_measured_fraction_full 0.999
_diffrn_reflns_point_group_measured_fraction_max 0.938
_diffrn_reflns_theta_full        25.242
_diffrn_reflns_theta_max         29.947
_diffrn_reflns_theta_min         2.921
_diffrn_source                   'sealed tube'
_exptl_absorpt_coefficient_mu    0.136
_exptl_absorpt_correction_T_max  0.7460
_exptl_absorpt_correction_T_min  0.7285
_exptl_absorpt_correction_type   multi-scan
_exptl_absorpt_process_details   SADABS-2008/1
_exptl_crystal_colour            colourless
_exptl_crystal_density_diffrn    1.560
_exptl_crystal_description       plate
_exptl_crystal_F_000             172
_exptl_crystal_size_max          0.620
_exptl_crystal_size_mid          0.360
_exptl_crystal_size_min          0.090
_refine_diff_density_max         0.338
_refine_diff_density_min         -0.195
_refine_diff_density_rms         0.048
_refine_ls_extinction_method     none
_refine_ls_goodness_of_fit_ref   1.087
_refine_ls_hydrogen_treatment    refU
_refine_ls_matrix_type           full
_refine_ls_number_parameters     126
_refine_ls_number_reflns         1963
_refine_ls_number_restraints     4
_refine_ls_restrained_S_all      1.090
_refine_ls_R_factor_all          0.0609
_refine_ls_R_factor_gt           0.0448
_refine_ls_shift/su_max          0.002
_refine_ls_shift/su_mean         0.000
_refine_ls_structure_factor_coef Fsqd
_refine_ls_weighting_details
'w=1/[\s^2^(Fo^2^)+(0.0847P)^2^+0.0541P] where P=(Fo^2^+2Fc^2^)/3'
_refine_ls_weighting_scheme      calc
_refine_ls_wR_factor_gt          0.1338
_refine_ls_wR_factor_ref         0.1506
_reflns_Friedel_coverage         0.000
_reflns_number_gt                1457
_reflns_number_total             1963
_reflns_threshold_expression     'I > 2\s(I)'
_cod_data_source_file            d1ce00530h2.cif
_cod_data_source_block           B-B_Mal
_cod_depositor_comments
'Adding full bibliography for 7242975--7242982.cif.'
_cod_database_code               7242981
_shelx_shelxl_version_number     2018/3
_shelx_space_group_comment
;
The symmetry employed for this shelxl refinement is uniquely defined
by the following loop, which should always be used as a source of
symmetry information in preference to the above space-group names.
They are only intended as comments.
;
_shelx_estimated_absorpt_t_min   0.920
_shelx_estimated_absorpt_t_max   0.988
_shelx_res_file
;
TITL B_a.res in P-1
    B_a.res
    created by SHELXL-2018/3 at 17:37:16 on 03-Dec-2020
CELL  0.71073   7.1619   7.5769   7.6716  107.270  100.818  107.844
ZERR    2.000   0.0005   0.0006   0.0005    0.004    0.003    0.003
LATT 1
SFAC C  H  N  F
UNIT 14 10  6  4
REM Old TITL B in P-1
REM SHELXT solution in P-1
REM R1 0.193,  Rweak 0.007,  Alpha 0.031,  Orientation as input
REM Formula found by SHELXT:  C7 N F4
L.S. 10
ACTA
BOND $H
FMAP 2
PLAN 9
SIZE 0.09 0.36 0.62
TEMP 23.000
dfix 0.90  n2 H2A  n2 H2B  n3 H3A n3 H3B
rem   EXTI    0.000000
WGHT    0.084700    0.054100
FVAR       1.42456
F1    4    0.128006    0.619492    0.225433    11.00000    0.08484    0.04389 =
         0.03648    0.02275    0.01107    0.02489
N3    3   -0.027990    0.207734    0.098265    11.00000    0.05973    0.03804 =
         0.02797    0.00562    0.00028    0.01588
H3A   2   -0.059258    0.269311    0.026393    11.00000    0.06360
H3B   2   -0.099449    0.086512    0.082581    11.00000    0.08904
C1    1    0.340739    0.564345    0.663676    11.00000    0.03083    0.03122 =
         0.02845    0.00667    0.00300    0.01058
N1    3    0.559396    0.789908    1.012281    11.00000    0.07523    0.05154 =
         0.04270    0.00257   -0.01127    0.02039
F2    4    0.078548    0.039180    0.348500    11.00000    0.07473    0.02531 =
         0.04522    0.00851    0.00353    0.01543
N2    3    0.368455    0.862549    0.592365    11.00000    0.06540    0.02631 =
         0.04379    0.01201    0.01135    0.00980
H2A   2    0.405991    0.936626    0.724032    11.00000    0.09311
H2B   2    0.303786    0.916907    0.515345    11.00000    0.09710
C2    1    0.295831    0.658107    0.537957    11.00000    0.03183    0.02692 =
         0.03276    0.00916    0.00989    0.00862
C3    1    0.176035    0.532981    0.350341    11.00000    0.04090    0.03163 =
         0.02903    0.01432    0.01085    0.01545
C4    1    0.095801    0.325560    0.282381    11.00000    0.03383    0.03143 =
         0.02690    0.00727    0.00831    0.01359
C5    1    0.149885    0.242953    0.414795    11.00000    0.03895    0.02473 =
         0.03437    0.00821    0.00683    0.01153
C6    1    0.267358    0.354951    0.600857    11.00000    0.04147    0.03347 =
         0.03244    0.01365    0.00425    0.01704
AFIX  43
H6    2    0.298265    0.293593    0.684601    11.00000    0.03012
AFIX   0
C7    1    0.462346    0.686600    0.858328    11.00000    0.04270    0.03744 =
         0.03591    0.00819   -0.00101    0.01407

HKLF 4




REM  B_a.res in P-1
REM wR2 = 0.1506, GooF = S = 1.087, Restrained GooF = 1.090 for all data
REM R1 = 0.0448 for 1457 Fo > 4sig(Fo) and 0.0609 for all 1963 data
REM 126 parameters refined using 4 restraints

END

WGHT      0.0818      0.0647

REM Highest difference peak  0.338,  deepest hole -0.195,  1-sigma level  0.048
Q1    1   0.1316  0.4248  0.3125  11.00000  0.05    0.34
Q2    1   0.2504  0.5939  0.4492  11.00000  0.05    0.30
Q3    1   0.2892  0.4564  0.6272  11.00000  0.05    0.30
Q4    1   0.3341  0.6144  0.6057  11.00000  0.05    0.29
Q5    1   0.2130  0.3015  0.5025  11.00000  0.05    0.28
Q6    1   0.1519  0.2940  0.3548  11.00000  0.05    0.27
Q7    1   0.3625  0.3116  0.7167  11.00000  0.05    0.23
Q8    1   0.3835  0.6292  0.7542  11.00000  0.05    0.23
Q9    1   0.3347  0.7376  0.5646  11.00000  0.05    0.22
;
_shelx_res_checksum              56768
loop_
_space_group_symop_operation_xyz
'x, y, z'
'-x, -y, -z'
loop_
_atom_site_label
_atom_site_type_symbol
_atom_site_fract_x
_atom_site_fract_y
_atom_site_fract_z
_atom_site_U_iso_or_equiv
_atom_site_adp_type
_atom_site_occupancy
_atom_site_site_symmetry_order
_atom_site_calc_flag
_atom_site_refinement_flags_posn
_atom_site_refinement_flags_adp
_atom_site_refinement_flags_occupancy
_atom_site_disorder_assembly
_atom_site_disorder_group
F1 F 0.12801(17) 0.61949(14) 0.22543(13) 0.0543(3) Uani 1 1 d . . . . .
N3 N -0.0280(2) 0.2077(2) 0.09826(18) 0.0464(3) Uani 1 1 d D . . . .
H3A H -0.059(3) 0.269(3) 0.026(3) 0.064(6) Uiso 1 1 d D . . . .
H3B H -0.099(4) 0.087(3) 0.083(4) 0.089(8) Uiso 1 1 d D . . . .
C1 C 0.34074(19) 0.56434(19) 0.66368(17) 0.0326(3) Uani 1 1 d . . . . .
N1 N 0.5594(3) 0.7899(2) 1.0123(2) 0.0658(5) Uani 1 1 d . . . . .
F2 F 0.07855(16) 0.03918(12) 0.34850(13) 0.0529(3) Uani 1 1 d . . . . .
N2 N 0.3685(2) 0.86255(18) 0.5924(2) 0.0483(4) Uani 1 1 d D . . . .
H2A H 0.406(4) 0.937(4) 0.724(3) 0.093(8) Uiso 1 1 d D . . . .
H2B H 0.304(4) 0.917(4) 0.515(4) 0.097(9) Uiso 1 1 d D . . . .
C2 C 0.29583(19) 0.65811(18) 0.53796(18) 0.0317(3) Uani 1 1 d . . . . .
C3 C 0.1760(2) 0.53298(19) 0.35034(18) 0.0328(3) Uani 1 1 d . . . . .
C4 C 0.09580(19) 0.32556(19) 0.28238(17) 0.0316(3) Uani 1 1 d . . . . .
C5 C 0.1499(2) 0.24295(19) 0.41480(19) 0.0343(3) Uani 1 1 d . . . . .
C6 C 0.2674(2) 0.3550(2) 0.60086(19) 0.0359(3) Uani 1 1 d . . . . .
H6 H 0.298265 0.293593 0.684601 0.030(4) Uiso 1 1 calc R . . . .
C7 C 0.4623(2) 0.6866(2) 0.8583(2) 0.0424(4) Uani 1 1 d . . . . .
loop_
_atom_site_aniso_label
_atom_site_aniso_U_11
_atom_site_aniso_U_22
_atom_site_aniso_U_33
_atom_site_aniso_U_23
_atom_site_aniso_U_13
_atom_site_aniso_U_12
F1 0.0848(7) 0.0439(5) 0.0365(5) 0.0228(4) 0.0111(4) 0.0249(5)
N3 0.0597(8) 0.0380(7) 0.0280(6) 0.0056(5) 0.0003(5) 0.0159(6)
C1 0.0308(6) 0.0312(6) 0.0284(6) 0.0067(5) 0.0030(5) 0.0106(5)
N1 0.0752(10) 0.0515(8) 0.0427(8) 0.0026(7) -0.0113(7) 0.0204(7)
F2 0.0747(7) 0.0253(4) 0.0452(5) 0.0085(4) 0.0035(5) 0.0154(4)
N2 0.0654(9) 0.0263(6) 0.0438(7) 0.0120(5) 0.0114(6) 0.0098(6)
C2 0.0318(6) 0.0269(6) 0.0328(6) 0.0092(5) 0.0099(5) 0.0086(5)
C3 0.0409(7) 0.0316(6) 0.0290(6) 0.0143(5) 0.0108(5) 0.0154(5)
C4 0.0338(6) 0.0314(6) 0.0269(6) 0.0073(5) 0.0083(5) 0.0136(5)
C5 0.0390(7) 0.0247(6) 0.0344(6) 0.0082(5) 0.0068(5) 0.0115(5)
C6 0.0415(7) 0.0335(6) 0.0324(6) 0.0137(5) 0.0042(5) 0.0170(6)
C7 0.0427(8) 0.0374(7) 0.0359(7) 0.0082(6) -0.0010(6) 0.0141(6)
loop_
_atom_type_symbol
_atom_type_description
_atom_type_scat_dispersion_real
_atom_type_scat_dispersion_imag
_atom_type_scat_source
C C 0.0033 0.0016 'International Tables Vol C Tables 4.2.6.8 and 6.1.1.4'
H H 0.0000 0.0000 'International Tables Vol C Tables 4.2.6.8 and 6.1.1.4'
N N 0.0061 0.0033 'International Tables Vol C Tables 4.2.6.8 and 6.1.1.4'
F F 0.0171 0.0103 'International Tables Vol C Tables 4.2.6.8 and 6.1.1.4'
loop_
_geom_angle_atom_site_label_1
_geom_angle_atom_site_label_2
_geom_angle_atom_site_label_3
_geom_angle
_geom_angle_site_symmetry_1
_geom_angle_site_symmetry_3
_geom_angle_publ_flag
C4 N3 H3A 116.4(15) . . ?
C4 N3 H3B 114.1(18) . . ?
H3A N3 H3B 125(2) . . ?
C6 C1 C2 120.96(11) . . ?
C6 C1 C7 120.35(12) . . ?
C2 C1 C7 118.68(12) . . ?
C2 N2 H2A 115.8(17) . . ?
C2 N2 H2B 118.5(18) . . ?
H2A N2 H2B 113(2) . . ?
N2 C2 C3 120.53(12) . . ?
N2 C2 C1 122.85(12) . . ?
C3 C2 C1 116.60(11) . . ?
F1 C3 C4 117.32(11) . . ?
F1 C3 C2 117.98(11) . . ?
C4 C3 C2 124.66(12) . . ?
N3 C4 C3 122.84(12) . . ?
N3 C4 C5 121.70(12) . . ?
C3 C4 C5 115.47(12) . . ?
F2 C5 C6 120.25(12) . . ?
F2 C5 C4 116.27(12) . . ?
C6 C5 C4 123.48(12) . . ?
C5 C6 C1 118.78(12) . . ?
C5 C6 H6 120.6 . . ?
C1 C6 H6 120.6 . . ?
N1 C7 C1 177.60(17) . . ?
loop_
_geom_bond_atom_site_label_1
_geom_bond_atom_site_label_2
_geom_bond_distance
_geom_bond_site_symmetry_2
_geom_bond_publ_flag
F1 C3 1.3615(15) . ?
N3 C4 1.3690(17) . ?
N3 H3A 0.862(16) . ?
N3 H3B 0.862(17) . ?
C1 C6 1.4020(18) . ?
C1 C2 1.4031(18) . ?
C1 C7 1.4292(18) . ?
N1 C7 1.140(2) . ?
F2 C5 1.3625(15) . ?
N2 C2 1.3730(16) . ?
N2 H2A 0.936(17) . ?
N2 H2B 0.944(17) . ?
C2 C3 1.3908(18) . ?
C3 C4 1.3855(18) . ?
C4 C5 1.3972(19) . ?
C5 C6 1.3630(18) . ?
C6 H6 0.9300 . ?
