#------------------------------------------------------------------------------
#$Date: 2021-09-06 13:32:23 +0300 (Mon, 06 Sep 2021) $
#$Revision: 268688 $
#$URL: file:///home/coder/svn-repositories/cod/cif/7/24/27/7242765.cif $
#------------------------------------------------------------------------------
#
# This file is available in the Crystallography Open Database (COD),
# http://www.crystallography.net/
#
# All data on this site have been placed in the public domain by the
# contributors.
#
data_7242765
loop_
_publ_author_name
'Rather, Sumair A.'
'Saha, Binoy K.'
_publ_section_title
;
 Understanding the elastic bending mechanism in a 9,10-anthraquinone
 crystal through thermal expansion study
;
_journal_issue                   34
_journal_name_full               CrystEngComm
_journal_page_first              5768
_journal_page_last               5773
_journal_paper_doi               10.1039/D1CE00467K
_journal_volume                  23
_journal_year                    2021
_chemical_formula_moiety         'C14 H8 O2'
_chemical_formula_sum            'C14 H8 O2'
_chemical_formula_weight         208.20
_chemical_name_common            Anthraquinone
_chemical_name_systematic        9,10-Anthracenedione
_space_group_crystal_system      monoclinic
_space_group_IT_number           14
_space_group_name_Hall           '-P 2ybc'
_space_group_name_H-M_alt        'P 1 21/c 1'
_atom_sites_solution_hydrogens   geom
_audit_creation_date             2021-03-31
_audit_creation_method
;
Olex2 1.3-alpha
(compiled 2019.09.11 svn.r3662 for OlexSys, GUI svn.r5938)
;
_audit_update_record
;
2021-04-06 deposited with the CCDC.	2021-05-03 downloaded from the CCDC.
;
_cell_angle_alpha                90
_cell_angle_beta                 102.664(9)
_cell_angle_gamma                90
_cell_formula_units_Z            2
_cell_length_a                   7.8728(7)
_cell_length_b                   3.9608(5)
_cell_length_c                   15.7845(19)
_cell_measurement_reflns_used    409
_cell_measurement_temperature    268
_cell_measurement_theta_max      28.9223
_cell_measurement_theta_min      3.3035
_cell_volume                     480.23(10)
_computing_cell_refinement
;
CrysAlisPro, Agilent Technologies,
Version 1.171.36.21 (release 14-08-2012 CrysAlis171 .NET)
(compiled Sep 14 2012,17:21:16)
;
_computing_data_collection
;
CrysAlisPro, Agilent Technologies,
Version 1.171.36.21 (release 14-08-2012 CrysAlis171 .NET)
(compiled Sep 14 2012,17:21:16)
;
_computing_data_reduction
;
CrysAlisPro, Agilent Technologies,
Version 1.171.36.21 (release 14-08-2012 CrysAlis171 .NET)
(compiled Sep 14 2012,17:21:16)
;
_computing_molecular_graphics    'Olex2 1.3-alpha (Dolomanov et al., 2009)'
_computing_publication_material  'Olex2 1.3-alpha (Dolomanov et al., 2009)'
_computing_structure_refinement  'ShelXL 2018/3 (Sheldrick, 2015)'
_computing_structure_solution    'ShelXS n/a (Sheldrick, 2008)'
_diffrn_ambient_temperature      268.00(2)
_diffrn_detector_area_resol_mean 15.9821
_diffrn_measured_fraction_theta_full 0.986
_diffrn_measured_fraction_theta_max 0.856
_diffrn_measurement_details
;
#__ type_ start__ end____ width___ exp.time_
  1 omega  -93.00  -35.00   1.0000    3.0000
omega____ theta____ kappa____ phi______ frames
    -      -16.8710 -178.0000  120.0000 58

#__ type_ start__ end____ width___ exp.time_
  2 omega   -1.00   87.00   1.0000    3.0000
omega____ theta____ kappa____ phi______ frames
    -       19.6835   57.0000  120.0000 88

#__ type_ start__ end____ width___ exp.time_
  3 omega  -48.00   40.00   1.0000    3.0000
omega____ theta____ kappa____ phi______ frames
    -       19.6835  -57.0000  -30.0000 88
;
_diffrn_measurement_device_type  'Xcalibur, Eos'
_diffrn_measurement_method       '\w scans'
_diffrn_radiation_type           MoK\a
_diffrn_radiation_wavelength     0.71073
_diffrn_reflns_av_R_equivalents  0.0303
_diffrn_reflns_av_unetI/netI     0.0561
_diffrn_reflns_Laue_measured_fraction_full 0.986
_diffrn_reflns_Laue_measured_fraction_max 0.856
_diffrn_reflns_limit_h_max       10
_diffrn_reflns_limit_h_min       -8
_diffrn_reflns_limit_k_max       5
_diffrn_reflns_limit_k_min       -4
_diffrn_reflns_limit_l_max       15
_diffrn_reflns_limit_l_min       -21
_diffrn_reflns_number            2169
_diffrn_reflns_point_group_measured_fraction_full 0.986
_diffrn_reflns_point_group_measured_fraction_max 0.856
_diffrn_reflns_theta_full        25.000
_diffrn_reflns_theta_max         28.874
_diffrn_reflns_theta_min         3.310
_exptl_absorpt_coefficient_mu    0.096
_exptl_absorpt_correction_T_max  1.00000
_exptl_absorpt_correction_T_min  0.64381
_exptl_absorpt_correction_type   multi-scan
_exptl_absorpt_process_details
;
CrysAlisPro, Agilent Technologies,
Version 1.171.36.21 (release 14-08-2012 CrysAlis171 .NET)
(compiled Sep 14 2012,17:21:16)
Empirical absorption correction using spherical harmonics,
 implemented in SCALE3 ABSPACK scaling algorithm.
;
_exptl_crystal_colour            yellow
_exptl_crystal_colour_primary    yellow
_exptl_crystal_density_diffrn    1.440
_exptl_crystal_description       block
_exptl_crystal_F_000             216
_exptl_crystal_size_max          0.62
_exptl_crystal_size_mid          0.26
_exptl_crystal_size_min          0.16
_refine_diff_density_max         0.162
_refine_diff_density_min         -0.263
_refine_diff_density_rms         0.052
_refine_ls_extinction_method     none
_refine_ls_goodness_of_fit_ref   1.003
_refine_ls_hydrogen_treatment    constr
_refine_ls_matrix_type           full
_refine_ls_number_parameters     73
_refine_ls_number_reflns         1078
_refine_ls_number_restraints     0
_refine_ls_restrained_S_all      1.003
_refine_ls_R_factor_all          0.1077
_refine_ls_R_factor_gt           0.0547
_refine_ls_shift/su_max          0.000
_refine_ls_shift/su_mean         0.000
_refine_ls_structure_factor_coef Fsqd
_refine_ls_weighting_details
'w=1/[\s^2^(Fo^2^)+(0.0684P)^2^] where P=(Fo^2^+2Fc^2^)/3'
_refine_ls_weighting_scheme      calc
_refine_ls_wR_factor_gt          0.1249
_refine_ls_wR_factor_ref         0.1601
_reflns_Friedel_coverage         0.000
_reflns_number_gt                602
_reflns_number_total             1078
_reflns_threshold_expression     'I > 2\s(I)'
_cod_data_source_file            d1ce00467k2.cif
_cod_data_source_block           anthraquinone-268k
_cod_depositor_comments
'Adding full bibliography for 7242759--7242768.cif.'
_cod_database_code               7242765
_shelx_shelxl_version_number     2018/3
_shelx_space_group_comment
;
The symmetry employed for this shelxl refinement is uniquely defined
by the following loop, which should always be used as a source of
symmetry information in preference to the above space-group names.
They are only intended as comments.
;
_shelx_estimated_absorpt_t_max   0.985
_shelx_estimated_absorpt_t_min   0.943
_olex2_refinement_description
;
1. Fixed Uiso
 At 1.2 times of:
  All C(H) groups
2.a Aromatic/amide H refined with riding coordinates:
 C5(H5), C3(H3), C6(H6), C4(H4)
;
_shelx_res_file
;
TITL BKS-SS-DI-ANTH- 268K-SS in P21/c #14
    anthraquinone-268k.res
    created by SHELXL-2018/3 at 17:41:45 on 31-Mar-2021
REM reset to P21/c #14
CELL 0.71073 7.872781 3.960825 15.784544 90 102.6643 90
ZERR 2 0.000718 0.000538 0.00193 0 0.0093 0
LATT 1
SYMM -X,0.5+Y,0.5-Z
SFAC C H O
UNIT 28 16 4

L.S. 4
PLAN  5
SIZE 0.62 0.26 0.16
TEMP -5.15(2)
CONF
BOND $H
HTAB
MORE -1
fmap 2
acta 50
REM <olex2.extras>
REM <HklSrc "%.\\Anthraquinone-268K.hkl">
REM </olex2.extras>

WGHT    0.068400
FVAR      14.00605
C2    1    0.436072    0.653435    0.415082    11.00000    0.03798    0.04359 =
         0.03980   -0.00439    0.00890   -0.00241
C7    1    0.326778    0.639124    0.473540    11.00000    0.03500    0.04393 =
         0.04430   -0.00571    0.00881   -0.00308
C1    1    0.615219    0.513406    0.438982    11.00000    0.03830    0.05491 =
         0.04517   -0.00354    0.01448   -0.00296
C5    1    0.101946    0.913066    0.367974    11.00000    0.04160    0.05545 =
         0.06558   -0.00554   -0.00171    0.00277
AFIX  43
H5    2   -0.010210    1.000395    0.352202    11.00000   -1.20000
AFIX   0
O1    3    0.711997    0.522913    0.388061    11.00000    0.05057    0.10928 =
         0.06101    0.01259    0.02880    0.01123
C3    1    0.376650    0.797392    0.333751    11.00000    0.05628    0.05372 =
         0.04511   -0.00148    0.01185   -0.00222
AFIX  43
H3    2    0.449712    0.807141    0.294822    11.00000   -1.20000
AFIX   0
C6    1    0.158667    0.771552    0.449002    11.00000    0.03813    0.05466 =
         0.05907   -0.00241    0.01054    0.00083
AFIX  43
H6    2    0.084710    0.764163    0.487526    11.00000   -1.20000
AFIX   0
C4    1    0.209648    0.926402    0.310183    11.00000    0.05932    0.05740 =
         0.04935    0.00261   -0.00193    0.00344
AFIX  43
H4    2    0.170368    1.021677    0.255545    11.00000   -1.20000
AFIX   0
HKLF 4




REM  BKS-SS-DI-ANTH- 268K-SS in P21/c #14
REM wR2 = 0.1601, GooF = S = 1.003, Restrained GooF = 1.003 for all data
REM R1 = 0.0547 for 602 Fo > 4sig(Fo) and 0.1077 for all 1078 data
REM 73 parameters refined using 0 restraints

END

WGHT      0.0684      0.0000

REM No hydrogen bonds found for HTAB generation

REM Highest difference peak  0.162,  deepest hole -0.263,  1-sigma level  0.052
Q1    1   0.2047  1.1435  0.2380  11.00000  0.05    0.16
Q2    1   0.1276  1.1430  0.4351  11.00000  0.05    0.16
Q3    1   0.6581  0.3475  0.3019  11.00000  0.05    0.14
Q4    1   0.4867  0.7879  0.2811  11.00000  0.05    0.14
Q5    1   0.2379  0.6930  0.2070  11.00000  0.05    0.13
;
_shelx_res_checksum              56562
_shelx_hkl_file
;
   0   0  -3 17.2949 50.7195   3
   0   0  -4 200792. 2443.70   3
   0   0  -5 12.0246 85.0692   3
   0   0  -6 810.042 206.006   3
   0   0  -7 130.553 119.760   3
   0   0  -7 57.2975 113.025   2
   0   0  -8 22310.4 1193.57   2
   0   0  -8 21443.5 1162.83   3
   0   0  -9 82.7162 157.005   2
   0   0 -10 219.232 128.909   2
   0   0 -11-118.669 193.207   2
   0   0 -12 1081.08 316.303   2
   0   0 -13-63.4112 260.924   2
   0   0 -14 4303.90 740.535   2
   0   0 -15-273.723 263.737   2
   0   0 -16 672.759 231.064   2
   0   0 -17-160.221 275.548   2
   0   0 -20 1547.69 868.189   1
   0   1   0-56.5480 62.2348   1
   0  -1   0-58.9468 64.9776   3
   0   1   0 28.1034 51.9210   3
   0   1  -1 163237. 2311.53   3
   0   1   1 163809. 1790.18   3
   0   1   1 163220. 2527.55   1
   0  -1   1 159623. 2302.60   3
   0  -1  -1 160327. 1757.74   3
   0  -1  -1 160388. 2581.58   1
   0  -1  -2 559797. 5107.21   1
   0   1   2 561546. 3116.58   3
   0   1  -2 567436. 4786.11   3
   0  -1   2 564890. 4775.79   3
   0  -1  -2 565154. 2687.57   3
   0   1  -3 180053. 2939.01   3
   0  -1  -3 181670. 3087.19   1
   0   1   3 185668. 3207.71   1
   0  -1   3 179569. 2925.17   3
   0   1  -4 25626.9 1200.23   3
   0  -1   4 25174.6 1184.86   3
   0  -1  -4 25410.1 1273.94   1
   0   1   4 23481.7 1315.58   1
   0  -1  -5 140566. 3159.28   1
   0  -1  -6 42317.7 866.985   3
   0  -1  -6 41852.3 1973.35   1
   0  -1  -7 23681.8 770.971   3
   0  -1  -7 20789.2 673.380   2
   0  -1  -8 16741.1 743.341   3
   0  -1  -8 16002.4 686.411   2
   0  -1  -8 17228.7 1397.50   1
   0  -1  -9 5860.25 888.575   1
   0  -1  -9 6139.80 505.766   3
   0   1  -9 5871.82 772.950   2
   0  -1  -9 6068.89 477.649   2
   0  -1 -10 1609.60 283.443   3
   0  -1 -10 1647.32 291.235   2
   0  -1 -10 2767.91 772.831   1
   0   1 -10 1556.67 444.149   2
   0   1 -11-40.4222 161.757   2
   0  -1 -11-9.92742 95.7343   3
   0  -1 -11-113.582 144.221   2
   0   1 -12 1244.86 423.291   2
   0  -1 -12 1686.81 350.079   2
   0  -1 -12 628.770 204.633   3
   0  -1 -12 615.509 511.304   1
   0  -1 -13-179.950 192.079   2
   0   1 -13 466.830 308.032   2
   0  -1 -14 696.764 214.097   2
   0   1 -14 1645.66 570.146   2
   0  -1 -14 957.607 575.303   1
   0  -1 -15 1078.62 526.998   1
   0   1 -15 1270.46 472.889   2
   0   1 -16 341.305 349.236   2
   0  -1 -16 1259.35 602.119   1
   0   1 -17-296.708 417.083   2
   0  -1 -17 397.131 469.820   1
   0  -1 -18 79.9901 463.154   1
   0   1 -18 158.538 361.068   2
   0   1 -19-427.608 555.696   2
   0  -1 -19 272.932 373.249   1
   0   1 -20 412.554 273.174   2
   0  -2   0 13223.4 860.675   3
   0   2   0 12240.9 823.048   3
   0   2   1 15615.7 867.069   3
   0  -2   1 16755.9 1022.19   3
   0  -2  -1 15657.6 879.662   3
   0   2  -1 16078.6 1009.87   3
   0  -2  -2 3791.38 401.910   3
   0   2   2 3525.34 394.052   3
   0  -2   2 3257.72 481.794   3
   0   2   2 3577.99 385.778   2
   0  -2  -2 3423.99 550.917   1
   0  -2  -3 33569.5 1770.96   1
   0   2   3 33898.1 1160.58   3
   0   2   3 34127.7 1032.48   2
   0   2   4 22067.8 661.676   2
   0  -2  -4 23654.5 1510.65   1
   0  -2  -5 68744.7 2618.84   1
   0  -2  -6 8630.35 994.363   1
   0  -2  -7 6421.20 899.080   1
   0   2  -7 4370.10 743.520   2
   0  -2  -8 7212.12 1006.37   1
   0   2  -8 4426.79 763.145   2
   0   2  -9 242.962 276.385   2
   0  -2  -9 558.192 323.112   1
   0   2 -10 3741.73 744.518   2
   0  -2 -10 3580.88 784.803   1
   0  -2 -11 332.958 296.298   1
   0   2 -11 795.418 391.446   2
   0   2 -12 2232.56 607.498   2
   0  -2 -12 3355.58 882.370   1
   0  -2 -13 6284.35 1097.36   1
   0   2 -13 3812.77 852.508   2
   0   2 -14 53.5440 273.787   2
   0  -2 -14 231.101 332.384   1
   0  -2 -15 5603.52 1165.05   1
   0   2 -15 5050.01 1042.73   2
   0  -2 -16 7419.03 1335.13   1
   0   2 -16 3089.47 821.829   2
   0  -2 -17 343.871 350.229   1
   0   2 -17-145.077 420.380   2
   0   2 -18-280.196 413.682   2
   0  -2 -18 645.613 502.025   1
   0   3   0-9.33216 162.615   2
   0   3   1 519.721 212.931   2
   0   3  -1 432.017 259.534   2
   0   3  -2 6523.64 860.312   2
   0   3   2 7809.32 758.437   2
   0   3   3 5089.26 579.522   2
   0   3  -3 4709.45 763.121   2
   0  -3  -4 135.394 163.863   1
   0   3   4 449.135 184.903   2
   0   3  -4 518.367 328.956   2
   0   3   5 393.081 120.880   2
   0   3  -5 954.856 412.042   2
   0  -3  -5 445.287 230.399   1
   0   3  -6 1288.90 468.091   2
   0  -3  -6 1003.99 392.797   1
   0  -3  -7 37.2086 182.497   1
   0   3  -7-119.345 298.239   2
   0   3  -8 780.857 348.946   2
   0  -3  -8 1404.77 512.619   1
   0   3  -9 2252.36 663.237   2
   0  -3  -9 2039.98 666.901   1
   0  -3 -10 638.685 386.458   1
   0   3 -10 603.669 431.370   2
   0   3 -11 369.702 213.408   2
   0  -3 -11 1106.24 518.171   1
   0   3 -12 718.087 404.363   2
   0  -3 -12 2199.23 690.155   1
   0   3 -13-201.701 417.345   2
   0  -3 -13-150.776 379.963   1
   0   3 -14-114.913 431.522   2
   0  -3 -14 269.839 234.940   1
   0   3 -15-399.341 484.386   2
   0  -3 -15 1062.09 595.173   1
   0   4   0-202.550 287.217   2
   0   4   1 412.284 262.565   2
   0   4  -1 228.467 196.626   2
   0   4  -2 267.032 337.359   2
   0   4  -3-147.764 257.061   2
   0   4  -4-58.6951 318.273   2
   0   4  -5-89.3290 208.225   2
   0   4  -6 91.6544 279.841   2
   0   4  -7-177.014 326.651   2
   0   4  -8 739.920 591.672   2
   0  -4  -8 1819.70 627.362   1
   0  -4  -9 430.828 355.740   1
   0   4  -9-249.687 342.123   2
   0  -4 -10 592.242 465.610   1
   0   4 -10 996.033 438.542   2
   0   4 -11 273.183 407.609   2
   0  -4 -11 1960.80 679.194   1
   0   5  -5 1016.28 605.039   2
   0   5  -6-512.970 446.244   2
   1   0 -21 523.807 529.843   1
   1   0 -20 6797.94 1421.91   1
   1   0 -19-1085.21 713.447   1
   1   0 -18-386.774 397.091   2
   1   0 -18 320.280 477.104   1
   1   0 -17 312.301 330.589   2
   1   0 -16-193.739 233.743   2
   1   0 -15-91.0761 205.507   2
   1   0 -14 1579.51 482.431   2
   1   0 -13 267.707 346.382   2
   1   0 -12 28674.1 1774.57   2
   1   0 -11 142.035 235.344   2
   1   0 -10 263.614 227.263   2
   1   0  -9-156.148 191.744   2
   1   0  -8 19537.6 1165.90   2
   1   0  -7-76.5913 170.380   2
  -1   0   6 90992.8 2027.38   2
   1   0  -6 86953.6 2174.86   2
   1   0  -5 6.14416 132.841   2
  -1   0   5-138.278 106.015   2
  -1   0   4 93494.9 1785.13   2
   1   0  -4 95791.0 1906.44   2
  -1   0   3 162.371 125.837   2
   1   0  -3 55.3932 156.812   2
  -1   0   2 295030. 2781.28   2
   1   0   2 13855.7 616.979   3
  -1   0  -2 13507.9 630.258   3
   1   0   3-18.6033 60.6425   3
  -1   0  -3 17.9425 65.5163   3
   1   0   4 39356.0 1215.19   3
  -1   0  -4 39078.3 1194.39   3
   1   0   5-92.2738 70.0716   3
  -1   0  -5-40.4262 69.1030   3
   1   0   6 285288. 3727.79   3
  -1   0  -6 281796. 3813.98   3
   1   0   7 85.2068 114.692   3
  -1   0  -7 7.90944 96.5900   3
   1   0   8 194228. 3522.01   3
  -1   0 -12 4671.47 737.976   2
  -1   0 -13-27.8445 175.009   2
  -1   0 -14 1475.98 434.251   2
  -1   0 -15 174.066 280.052   2
  -1   0 -16 4204.70 800.791   2
  -1   0 -17 83.0218 193.871   2
   1  -1 -20 465.022 510.851   1
   1   1 -20-2676.42 896.390   2
   1  -1 -19 2467.54 867.801   1
   1   1 -19 1335.70 526.622   2
   1   1 -18-300.922 498.340   2
   1  -1 -18 486.258 514.746   1
   1  -1 -17-942.007 646.939   1
   1   1 -17 194.205 366.524   2
   1  -1 -16 1580.24 698.911   1
   1   1 -16 1658.59 659.168   2
   1  -1 -15 27509.5 2221.75   1
   1   1 -15 23782.9 2089.35   2
   1  -1 -14 20239.3 1886.93   1
   1   1 -14 21483.9 1891.29   2
   1  -1 -14 16529.5 1128.28   2
   1  -1 -13 2239.81 428.930   2
   1   1 -13 1911.90 596.319   2
   1  -1 -13 2772.15 765.994   1
   1  -1 -12 2748.02 441.428   2
   1   1 -12 2248.81 586.428   2
   1  -1 -12 3412.08 778.121   1
   1  -1 -11 4285.15 505.436   2
   1   1 -11 4114.59 768.482   2
   1  -1 -11 2663.43 435.234   3
   1  -1 -11 4344.08 859.117   1
   1  -1 -10 658.152 230.341   2
   1  -1 -10 780.911 395.674   1
   1   1 -10 460.669 322.037   2
   1  -1  -9 4427.91 738.238   1
   1  -1  -9 4250.34 447.851   2
   1   1  -9 4113.37 665.107   2
   1  -1  -8 8554.24 957.247   1
   1   1  -8 8507.86 928.147   2
   1  -1  -8 7591.11 557.132   2
   1   1  -7 1958.36 448.293   2
   1  -1  -7 1577.48 465.324   1
  -1   1   7 1666.63 223.931   2
   1  -1  -7 1951.54 281.688   2
  -1   1   6 17067.1 649.949   2
   1  -1  -6 16728.7 723.919   2
   1   1  -6 16228.3 1154.17   2
   1  -1  -6 14976.0 1029.48   1
  -1   1   5 112.753 194.168   1
   1   1  -5 492.480 208.941   2
  -1   1   5 275.962 90.3260   2
   1  -1  -5 201.076 177.467   1
   1  -1  -4 4114.54 418.664   3
   1   1  -4 4360.09 559.764   2
   1  -1  -4 4721.93 514.049   1
  -1   1   4 4400.26 359.875   2
  -1   1   4 4043.70 555.294   1
   1  -1  -3 75058.5 1652.16   3
  -1   1   3 76407.1 1637.35   2
   1   1  -3 72600.6 2044.68   2
  -1  -1   3 74034.9 1949.17   2
  -1   1   3 72424.1 1949.47   1
   1  -1  -3 74503.5 1922.12   1
  -1   1   2 133.314 81.5757   1
  -1   1   2 304.205 143.654   3
   1  -1  -2 91.3299 101.347   3
   1  -1  -2 200.110 118.961   1
  -1  -1   2 382.207 148.076   2
   1  -1  -1 901.277 216.521   3
  -1   1   1 1148.06 235.408   3
   1   1  -1 1195.20 255.384   2
   1   1  -1 973.122 201.324   1
  -1  -1   1 924.667 182.194   2
  -1   1   1 774.481 177.990   1
  -1  -1   0 462322. 4237.99   1
  -1  -1   0 466938. 3769.62   2
   1   1   0 466944. 3967.52   2
   1   1   0 467075. 4315.34   1
  -1   1   0 476022. 4424.05   3
   1  -1   0 462846. 4332.81   3
   1   1   1 999999. 6799.67   1
  -1   1  -1 991142. 6794.13   3
  -1  -1  -1 996065. 4987.62   2
   1   1   1 994476. 5274.52   2
   1  -1   1 996847. 6758.78   3
  -1  -1  -1 994273. 6662.98   1
   1   1   2 97481.6 1530.60   2
   1   1   2 95822.7 2320.35   1
   1  -1   2 99699.8 2290.19   3
  -1  -1  -2 95933.5 1414.86   2
  -1   1  -2 93646.8 2163.31   3
   1   1   3 26308.4 1440.95   1
  -1   1  -3 28389.7 1259.47   3
  -1  -1  -3 26555.9 1296.84   1
  -1  -1  -3 26996.1 726.963   2
   1  -1   3 29894.3 1326.02   3
  -1   1  -4 427.614 158.061   3
   1  -1   4 812.084 244.649   3
  -1  -1  -4 225.417 102.150   2
  -1  -1  -4 628.995 223.038   1
  -1  -1  -5 99531.5 2895.13   1
   1  -1   5 94257.7 2588.09   3
   1  -1   6 23113.9 1329.01   3
  -1  -1  -6 27320.1 1690.05   1
  -1  -1  -7 14449.8 662.698   3
   1  -1   7 15869.5 1162.30   3
  -1  -1  -7 16978.2 1393.04   1
  -1  -1  -8 20915.3 1658.53   1
  -1  -1  -8 19849.5 845.451   3
   1  -1   8 19327.6 1341.25   3
  -1  -1  -9 4803.55 443.268   3
  -1  -1  -9 5086.96 944.533   1
  -1  -1  -9 4534.66 447.977   2
   1  -1   9 5315.91 750.858   3
  -1  -1 -10 19371.6 997.045   2
  -1  -1 -10 17583.1 937.927   3
  -1  -1 -10 19960.8 1794.32   1
  -1  -1 -11 171.325 133.875   3
  -1  -1 -11 33.3016 98.5836   2
  -1  -1 -12 515.817 600.751   1
  -1  -1 -12 548.421 184.318   2
  -1   1 -13 2131.14 570.846   2
  -1  -1 -13 2410.18 412.904   2
  -1  -1 -13 1639.00 630.308   1
  -1  -1 -14 4078.65 905.800   1
  -1   1 -14 1832.27 578.550   2
  -1  -1 -15 934.776 707.431   1
  -1   1 -15 1584.00 525.923   2
  -1   1 -16-1345.29 554.743   2
  -1  -1 -16-593.098 542.240   1
  -1  -1 -17 162.109 433.699   1
  -1   1 -17-107.179 274.799   2
  -1   1 -18-179.737 419.438   2
  -1  -1 -18-380.258 470.516   1
  -1   1 -19-204.877 303.938   2
   1  -2 -18 654.367 488.474   1
   1   2 -18 448.512 500.727   2
   1  -2 -17 7099.57 1243.45   1
   1   2 -17 5780.38 1171.76   2
   1  -2 -16 10513.6 1457.90   1
   1   2 -16 9795.10 1561.53   2
   1   2 -15 2985.23 849.630   2
   1  -2 -15 5394.29 1051.08   1
   1   2 -14 430.500 251.482   2
   1  -2 -14 1011.05 527.785   1
   1   2 -13 608.178 422.538   2
   1  -2 -13 189.726 310.479   1
   1  -2 -12 1108.07 479.442   1
   1   2 -12 746.393 325.803   2
   1   2 -11 1400.29 564.872   2
   1  -2 -11 1662.50 554.586   1
   1  -2 -10 1354.32 517.140   1
   1   2 -10 1745.51 581.641   2
   1  -2 -10 791.773 156.118   3
   1  -2 -10 587.443 139.643   3
   1   2  -9 2053.01 568.598   2
   1  -2  -9 2327.89 570.038   1
   1  -2  -9 1089.54 189.068   3
   1  -2  -8 5910.46 882.579   1
   1  -2  -8 3851.04 334.637   3
   1   2  -8 4974.04 796.408   2
   1   2  -7 2121.70 526.729   2
   1  -2  -7 1719.31 492.033   1
   1  -2  -7 2340.73 269.212   3
   1  -2  -6 18136.5 770.098   3
   1  -2  -6 17227.7 1333.05   1
   1   2  -6 15102.7 1307.91   2
  -1   2   5 4401.30 448.042   2
   1  -2  -5 4209.11 656.785   1
   1   2  -5 4593.24 713.824   2
   1  -2  -5 5028.60 432.700   3
  -1   2   4 23670.9 1189.64   3
   1  -2  -4 22373.5 976.094   3
   1   2  -4 19785.7 1377.77   2
   1  -2  -4 20726.7 1386.30   1
   1  -2  -3 2220.13 335.042   3
   1   2  -3 2278.65 441.398   2
  -1   2   3 2584.59 421.832   3
  -1   2   2 5611.59 621.579   3
   1  -2  -2 6034.29 579.231   3
   1   2  -2 5005.17 630.231   2
   1   2  -1 15721.3 970.698   3
  -1   2   1 17965.4 1105.64   3
   1  -2  -1 16574.1 1004.96   3
   1   2  -1 17380.1 1101.30   2
   1   2   0 281.326 126.727   3
   1   2   0 202.612 162.967   2
   1  -2   0 472.156 172.235   3
   1  -2   1 8273.47 778.023   3
   1   2   1 8306.09 598.732   3
   1   2   1 8442.05 678.875   2
  -1  -2  -1 7576.42 809.614   1
  -1  -2  -2 170376. 3870.53   1
   1  -2   2 160879. 3570.96   3
   1   2   2 163954. 2653.90   2
   1   2   2 162673. 2401.67   3
   1   2   3 196965. 2566.75   2
   1  -2   3 189473. 4031.37   3
  -1  -2  -3 201899. 4221.86   1
   1   2   3 189096. 2235.06   3
  -1  -2  -4 92919.9 3014.80   1
   1  -2   4 82640.1 2761.29   3
   1  -2   5 4633.29 706.103   3
  -1  -2  -5 5110.47 763.684   1
  -1  -2  -6 5519.30 794.951   1
   1  -2   6 5962.99 833.324   3
   1  -2   7 1128.58 375.902   3
  -1  -2  -7 814.206 386.638   1
   1  -2   8 374.304 299.877   3
  -1  -2  -8 45.8278 420.120   1
   1  -2   9 732.076 349.324   3
  -1  -2  -9 228.180 306.149   1
  -1  -2 -10 1137.08 534.531   1
  -1  -2 -11-1242.74 561.969   1
  -1  -2 -12 5069.96 1016.97   1
  -1   2 -13 673.361 493.666   2
  -1  -2 -13 6.22504 375.499   1
  -1  -2 -14-141.984 506.590   1
  -1   2 -14-479.229 533.121   2
  -1  -2 -15-614.400 585.304   1
  -1   2 -15-6.37216 292.435   2
  -1   2 -16-256.357 356.113   2
  -1  -2 -16-644.458 660.958   1
  -1  -2 -17 280.616 387.321   1
  -1   2 -17-268.549 502.632   2
  -1   2 -18-182.212 320.264   2
   1  -3 -16 254.804 330.063   1
   1  -3 -15-237.069 247.871   1
   1   3 -15 285.346 385.610   2
   1  -3 -14 117.980 397.361   1
   1   3 -14-16.4928 274.984   2
   1   3 -13-331.226 334.466   2
   1  -3 -13 303.186 311.754   1
   1   3 -12-270.333 384.366   2
   1  -3 -12 152.034 349.521   1
   1   3 -11 5347.39 1060.79   2
   1  -3 -11 5323.75 1018.26   1
   1  -3 -10 3861.40 873.728   1
   1   3 -10 2463.86 683.518   2
   1  -3  -9 2771.84 685.535   1
   1   3  -9 2679.90 758.428   2
   1  -3  -8 1392.02 547.350   1
   1   3  -8 1136.37 478.161   2
   1   3  -7 1335.81 526.914   2
   1  -3  -7 1420.18 514.160   1
   1  -3  -6 53.7091 171.174   1
   1  -3  -6 196.361 105.389   3
  -1   3   5 1219.56 268.123   2
   1   3  -5 1403.12 479.685   2
   1  -3  -5 745.719 227.162   3
   1  -3  -4 10722.9 862.667   3
   1   3  -4 11278.4 1225.68   2
   1   3  -3 23410.8 1712.99   2
   1  -3  -3 23618.3 1348.48   3
   1  -3  -2 253.667 198.704   3
   1   3  -2 125.432 291.445   2
   1   3  -1 4531.62 661.496   2
   1  -3  -1 3649.84 589.985   3
   1   3   0 61.2562 179.556   2
   1  -3   0 97.8477 104.851   3
   1  -3   1 276.090 192.441   3
   1   3   1 836.530 268.703   2
   1  -3   2 5955.17 839.909   3
   1   3   2 7706.00 756.491   2
   1  -3   3 1110.90 404.185   3
   1   3   3 1627.50 332.157   2
  -1  -3  -3 1115.44 438.049   1
  -1  -3  -4 11118.3 1246.30   1
   1   3   4 8907.73 634.555   2
   1  -3   4 10979.8 1188.33   3
  -1  -3  -5 11700.7 1319.35   1
   1  -3   5 9320.07 1146.85   3
  -1  -3  -6 15712.9 1565.90   1
   1  -3   6 14237.4 1475.38   3
  -1  -3  -7 147.697 305.493   1
  -1  -3  -8 113.782 251.734   1
  -1  -3  -9 1079.89 490.053   1
  -1  -3 -10 2364.54 721.419   1
  -1   3 -10 255.970 272.464   2
  -1  -3 -11 40.4883 250.984   1
  -1   3 -11 388.469 443.810   2
  -1   3 -12 83.5263 221.895   2
  -1  -3 -12 748.854 506.782   1
  -1  -3 -13-292.812 400.007   1
  -1   3 -13-215.789 367.667   2
  -1  -3 -14-490.753 659.150   1
  -1   3 -14-247.180 422.529   2
   1   4 -11-271.526 417.737   2
   1  -4 -11-55.4142 338.338   1
   1  -4 -10 751.396 351.068   1
   1   4 -10 1180.11 580.191   2
   1   4  -9 175.404 309.143   2
   1   4  -8 239.526 396.458   2
   1   4  -7 389.366 343.605   2
   1   4  -6 111.164 271.795   2
   1   4  -5 1968.08 594.002   2
   1   4  -4 1491.66 545.196   2
   1   4  -3 753.658 370.991   2
   1   4  -2 5593.23 932.812   2
  -1   4   1 3843.80 745.718   2
   1   4  -1 3870.35 777.585   2
  -1   4   0-40.3120 213.062   2
   1   4   0 131.051 210.851   2
  -1   4  -1-292.641 242.629   2
  -1   4  -2 323.730 259.577   2
  -1   4  -3-422.750 313.854   2
  -1   4  -4 115.582 170.980   2
  -1   4  -5 2276.15 662.608   2
  -1   4  -6 4.69427 175.764   2
  -1  -4  -6 479.530 400.935   1
  -1   4  -7 478.102 258.489   2
  -1  -4  -7 722.502 271.452   1
  -1   4  -8 370.876 412.956   2
  -1  -4  -8-378.128 549.417   1
  -1  -4  -9 124.293 239.031   1
  -1   4  -9-905.068 484.524   2
  -1   4 -10-62.5021 364.831   2
  -1  -4 -10-162.155 333.007   1
  -1   4 -11 731.932 539.029   2
   1   5  -7 458.299 645.204   2
   1   5  -6 117.562 285.709   2
   1   5  -5 94.8424 391.544   2
  -1   5  -4 975.846 603.487   2
  -1   5  -5-619.132 469.895   2
  -1   5  -6-1889.64 766.218   2
   2   0 -20 206.236 507.163   1
   2   0 -19 523.854 580.518   1
   2   0 -18 2435.57 803.159   1
   2   0 -18 1836.46 595.077   2
   2   0 -17 846.996 550.057   1
   2   0 -17 114.012 326.569   2
   2   0 -16-9.78230 292.924   2
   2   0 -16 695.175 607.700   1
   2   0 -15-589.604 331.380   2
   2   0 -15-599.206 597.043   1
   2   0 -14 138893. 4384.65   2
   2   0 -13-454.415 411.388   2
   2   0 -12 57952.0 2613.17   2
   2   0 -11 8.25071 260.728   2
   2   0 -10 27719.4 1673.28   2
   2   0  -9 167.871 197.618   2
   2   0  -8 283.558 195.484   2
  -2   0   7-214.374 170.804   2
   2   0  -7 0.74662 200.616   2
  -2   0   6 1810.30 347.068   2
   2   0  -6 1864.38 327.133   1
   2   0  -6 1517.80 325.934   2
  -2   0   5 305.509 166.796   2
   2   0  -5 148.768 138.817   1
   2   0  -5-75.8085 209.788   2
   2   0  -4 77368.2 1146.47   1
   2   0  -4 78933.2 2098.30   2
  -2   0   4 79773.4 2036.47   2
  -2   0   3-10.9614 159.775   2
   2   0  -3 319.627 257.734   2
  -2   0   2 125532. 2494.63   2
   2   0  -2 124833. 2514.14   2
  -2   0   1 484.777 285.297   2
   2   0  -1-132.917 181.213   2
   2   0   0 194126. 3052.25   3
  -2   0   0 200753. 3263.15   2
  -2   0  -1 176.131 155.965   3
   2   0   1-23.3672 130.447   3
  -2   0  -2 85204.5 2129.75   3
   2   0   2 81347.5 2080.31   3
  -2   0  -3-168.413 168.893   3
   2   0   3 47.9372 96.1452   3
   2   0   4 33591.9 1380.39   3
  -2   0  -4 33327.3 1408.25   3
   2   0   5-193.490 160.814   3
  -2   0  -5-50.8468 122.965   3
  -2   0  -6 13149.1 931.622   3
   2   0   6 13414.5 942.023   3
   2   0   7 60.2005 123.741   3
   2   0   8 3188.14 502.229   3
   2   0   9-139.891 195.922   3
   2   0  10-187.389 149.893   3
   2   0  11-196.892 184.058   3
  -2   0 -15 254.438 244.408   2
  -2   0 -16 1526.71 525.438   2
   2  -1 -21 340.330 383.223   1
   2   1 -21-642.512 549.647   2
   2   1 -20 106.424 373.048   2
   2  -1 -20 1852.95 757.009   1
   2   1 -19 3691.13 941.456   2
   2  -1 -19 4935.42 1077.44   1
   2  -1 -18 743.833 419.329   1
   2   1 -18 434.627 473.155   2
   2   1 -17 528.916 440.509   2
   2  -1 -17 196.381 328.779   1
   2  -1 -16 13455.6 1544.75   1
   2   1 -16 12236.7 1594.34   2
   2   1 -15 9362.14 1404.99   2
   2  -1 -15 7266.19 806.992   2
   2  -1 -15 10315.9 1296.67   1
   2   1 -14 4485.23 968.171   2
   2  -1 -14 3520.01 584.910   2
   2  -1 -14 4189.68 831.527   1
   2  -1 -13 11490.8 1303.72   1
   2  -1 -13 8742.21 869.607   2
   2   1 -13 9595.70 1275.56   2
   2  -1 -12 30716.4 2048.18   1
   2  -1 -12 26258.9 1505.49   2
   2   1 -12 30620.8 2171.52   2
   2  -1 -11 23148.4 1675.38   1
   2  -1 -11 20608.0 1262.87   2
   2   1 -11 20968.8 1747.22   2
   2  -1 -10 8934.26 1007.28   1
   2  -1 -10 8976.62 805.026   2
   2   1 -10 8916.21 1105.07   2
  -2   1  10 8281.17 683.587   2
   2  -1  -9 9242.35 789.884   2
   2   1  -9 7738.08 988.308   2
  -2   1   9 8612.54 675.615   2
   2  -1  -9 8333.14 901.273   1
   2  -1  -8 8345.46 820.540   1
   2   1  -8 9417.41 1022.18   2
   2  -1  -8 9146.90 780.744   2
   2  -1  -7 27109.0 1262.57   2
  -2   1   7 26131.9 1148.27   2
   2   1  -7 28671.8 1704.88   2
   2  -1  -7 26837.4 1410.88   1
  -2   1   6 51888.0 1950.36   1
   2  -1  -6 55429.9 1755.29   2
  -2   1   6 53969.1 1631.60   2
   2   1  -6 49882.9 2200.92   2
   2  -1  -6 51466.3 1797.08   1
   2  -1  -5 22077.2 1122.40   1
   2   1  -5 21955.8 1381.80   2
  -2   1   5 25108.9 1157.57   2
  -2   1   5 23203.5 1236.78   1
   2   1  -4 376.427 191.977   2
   2  -1  -4 296.779 191.059   3
   2  -1  -4 268.034 141.554   1
  -2   1   4 196.927 141.454   1
  -2   1   4 477.119 222.006   2
  -2   1   3 5045.16 486.251   1
   2   1  -3 5448.43 613.609   2
   2   1  -3 4648.08 361.409   1
  -2   1   3 6096.65 632.184   2
  -2  -1   3 5190.68 550.450   2
   2  -1  -3 5412.40 594.076   3
  -2   1   2 2845.35 344.248   1
   2   1  -2 3381.60 507.254   2
   2  -1  -2 3416.19 450.928   3
  -2  -1   2 3786.88 474.754   2
   2   1  -2 3453.55 341.114   1
  -2   1   2 3176.30 516.022   3
  -2  -1   1 7158.38 510.902   1
  -2   1   1 7172.97 729.177   3
   2   1  -1 7790.15 543.020   1
  -2  -1   1 7279.04 612.781   2
   2   1  -1 7449.72 660.663   2
   2  -1  -1 6989.86 672.797   3
   2  -1   0 5591.83 602.360   3
   2   1   0 5477.22 549.130   2
  -2  -1   0 5854.55 516.516   2
   2   1   0 5366.55 512.553   1
  -2   1   0 6643.07 664.737   3
  -2  -1   0 5799.21 503.192   1
   2  -1   1 45667.7 1740.56   3
  -2   1  -1 46036.7 1776.58   3
  -2  -1  -1 44172.9 1395.72   2
   2   1   1 48237.7 1606.80   2
   2   1   1 43477.6 1633.41   1
  -2  -1  -1 42500.9 1495.17   1
  -2  -1  -2 5050.17 597.634   1
   2  -1   2 5392.26 610.906   3
  -2  -1  -2 5709.20 514.720   2
   2   1   2 5491.82 534.119   2
   2  -1   3 4508.12 572.535   3
   2   1   3 5694.70 506.891   3
  -2  -1  -3 5861.39 519.354   2
  -2  -1  -3 5110.58 637.099   1
   2  -1   4 107.919 106.440   3
  -2  -1  -4 2.47817 305.972   1
   2   1   4 335.793 151.171   3
  -2  -1  -4 67.9960 121.422   2
  -2  -1  -5 41520.5 2080.47   1
   2   1   5 50149.7 1350.62   3
  -2  -1  -5 50582.5 1567.10   2
   2  -1   5 41766.7 1949.55   3
   2  -1   6 726.544 256.632   3
   2   1   6 1089.02 204.584   3
  -2  -1  -6 689.150 501.515   1
  -2  -1  -6 739.597 221.289   2
   2   1   7 29653.1 1079.26   3
  -2  -1  -7 28666.2 1170.48   3
   2  -1   7 25460.9 1634.84   3
  -2  -1  -7 27690.0 1985.71   1
   2   1   8 10030.9 653.066   3
  -2  -1  -8 9273.85 698.559   3
   2  -1   8 7668.19 909.456   3
  -2  -1  -8 7971.91 1106.38   1
   2  -1   9 26261.8 1761.16   3
   2   1   9 31502.8 1260.69   3
  -2  -1  -9 26334.9 2024.10   1
  -2  -1  -9 27305.5 1257.86   3
  -2  -1 -10-57.3351 115.204   3
   2  -1  10 191.044 171.740   3
  -2  -1 -10 39.5803 516.834   1
   2  -1  11-110.486 306.223   3
  -2  -1 -11 262.506 614.746   1
   2  -1  12 4792.84 841.494   3
  -2  -1 -12 4962.04 1044.07   1
  -2  -1 -13-28.7338 494.531   1
  -2  -1 -14-285.072 495.066   1
  -2  -1 -15 1071.64 622.213   1
  -2  -1 -16 1134.72 563.644   1
  -2   1 -16 1871.27 640.790   2
  -2   1 -17 1002.31 558.450   2
  -2  -1 -17 2362.12 788.501   1
  -2   1 -18-181.877 312.923   2
  -2   1 -19 191.435 288.087   2
   2   2 -19 499.813 416.091   2
   2  -2 -19 1270.69 598.863   1
   2   2 -18 1192.27 832.965   2
   2  -2 -18 1032.07 592.755   1
   2   2 -17 2354.99 797.686   2
   2  -2 -17 4530.35 998.155   1
   2   2 -16-228.028 417.217   2
   2  -2 -16 109.840 332.269   1
   2   2 -15-320.881 466.635   2
   2  -2 -15-189.765 350.314   1
   2  -2 -14 219.780 243.071   1
   2   2 -14 145.621 386.794   2
   2   2 -13 449.248 281.039   2
   2  -2 -13 1252.22 485.650   1
   2  -2 -12-229.378 165.757   3
   2  -2 -12 18.2180 237.774   1
   2  -2 -11 844.851 250.143   3
   2  -2 -11 1030.43 397.573   1
   2   2 -11 1429.55 582.745   2
   2  -2 -10 3645.54 485.017   3
   2   2 -10 5274.20 1017.51   2
   2  -2 -10 3939.75 730.594   1
   2  -2  -9 30527.1 1919.79   1
   2   2  -9 28887.7 2099.65   2
   2  -2  -9 34967.4 1477.20   3
   2  -2  -8 1888.45 350.551   3
  -2   2   8 1436.95 265.114   2
   2   2  -8 1607.24 559.180   2
   2  -2  -8 1761.45 487.342   1
  -2   2   7 480.893 218.573   2
   2   2  -7 185.330 275.792   2
   2  -2  -7 469.812 294.502   1
   2  -2  -7 281.853 154.249   3
  -2   2   6 6027.67 641.309   2
   2   2  -6 6178.97 903.476   2
   2  -2  -6 7480.19 708.317   3
   2  -2  -6 5508.51 757.884   1
   2  -2  -5 1044.02 329.501   1
   2  -2  -5 1000.79 273.042   3
   2   2  -5 500.103 313.386   2
  -2   2   5 958.536 318.805   2
   2   2  -4 21261.3 1483.07   2
   2  -2  -4 22650.3 1241.18   3
   2   2  -3 3116.59 583.896   2
   2  -2  -3 3999.59 545.083   3
   2   2  -2 30739.9 1683.37   2
   2  -2  -2 34926.8 1605.39   3
   2  -2  -1 25656.1 1416.85   3
   2   2  -1 23712.7 1388.39   2
  -2  -2   0 15609.6 1133.59   1
   2  -2   0 14228.2 1098.53   3
   2   2   0 14385.6 1017.61   2
  -2  -2   0 14305.1 945.540   2
  -2  -2  -1 65863.0 2394.45   1
   2  -2   1 62162.2 2409.96   3
   2   2   1 60781.7 1970.51   2
  -2  -2  -1 60028.0 1808.14   2
  -2  -2  -2 91045.3 2829.34   1
   2   2   2 94313.2 2340.36   2
  -2  -2  -2 89330.0 2080.06   2
   2  -2   2 92735.8 3011.04   3
   2  -2   3 834.816 323.886   3
  -2  -2  -3 513.829 275.856   1
  -2  -2  -3 845.989 198.765   2
   2   2   3 762.329 242.569   2
  -2  -2  -4 1346.62 229.428   2
  -2  -2  -4 1016.67 371.318   1
   2   2   4 924.158 193.721   3
   2   2   4 1400.67 287.528   2
   2  -2   4 1464.70 408.552   3
  -2  -2  -5 252.883 95.7241   2
   2  -2   5 407.474 281.433   3
  -2  -2  -5 37.9061 264.729   1
  -2  -2  -6 600.403 116.246   2
  -2  -2  -6 493.398 348.198   1
   2  -2   6 650.784 306.197   3
  -2  -2  -7-85.3698 313.543   1
  -2  -2  -7 192.199 58.0743   2
   2  -2   7-53.1039 163.121   3
  -2  -2  -8 189.920 347.109   1
   2  -2   8 392.903 295.238   3
   2  -2   9 5328.73 907.473   3
  -2  -2  -9 5289.89 1007.56   1
   2  -2  10 15525.3 1603.76   3
  -2  -2 -10 14704.7 1688.93   1
   2  -2  11 3335.90 781.981   3
  -2  -2 -11 4383.17 955.956   1
  -2  -2 -12 285.754 507.458   1
  -2  -2 -13 554.131 354.757   1
  -2  -2 -14 704.904 526.458   1
  -2   2 -15 329.914 270.092   2
  -2  -2 -15 198.826 433.108   1
  -2  -2 -16 193.133 481.284   1
  -2   2 -16 159.645 333.804   2
  -2   2 -17 40.5495 422.223   2
   2  -3 -16 895.000 494.613   1
   2   3 -15-1033.68 685.676   2
   2  -3 -15-46.7008 299.791   1
   2  -3 -14-30.0341 192.849   1
   2   3 -14 102.958 474.930   2
   2   3 -13-598.721 469.286   2
   2  -3 -13-100.933 343.210   1
   2   3 -12 1751.74 627.092   2
   2  -3 -12 1232.06 461.286   1
   2   3 -11 949.988 464.273   2
   2  -3 -11 1226.67 470.424   1
   2  -3 -10 48.0193 192.125   1
   2   3 -10 648.825 341.211   2
   2   3  -9-57.9469 286.441   2
   2  -3  -9 505.163 300.819   1
   2  -3  -8 1036.91 453.132   1
   2   3  -8 232.373 318.449   2
   2  -3  -7 1035.19 281.585   3
   2   3  -7 105.543 304.694   2
   2  -3  -6 404.566 195.805   3
   2   3  -6-59.3859 257.798   2
   2  -3  -5 2114.74 418.549   3
   2   3  -5 1698.30 566.592   2
   2   3  -4 2206.18 677.360   2
   2  -3  -4 2215.92 455.601   3
   2  -3  -3 13665.9 1150.22   3
   2   3  -3 13827.6 1374.82   2
   2  -3  -2 13777.7 1204.66   3
   2   3  -2 15051.6 1328.63   2
   2   3  -1 3596.41 629.421   2
   2  -3  -1 2877.03 567.866   3
   2  -3   0 1765.57 465.564   3
   2   3   0 1375.89 377.589   2
   2   3   1 189.193 212.781   2
   2  -3   1 75.8096 217.251   3
   2  -3   2 5643.12 857.321   3
  -2  -3  -2 7440.92 995.935   1
   2   3   2 6650.96 717.539   2
   2   3   3 32045.3 1467.44   2
   2  -3   3 32617.0 2108.36   3
  -2  -3  -3 37609.2 2313.68   1
  -2  -3  -4 27064.9 1969.51   1
   2   3   4 22763.7 1171.54   2
   2  -3   4 22494.8 1803.31   3
   2  -3   5 44979.9 2599.04   3
  -2  -3  -5 49598.5 2711.54   1
   2  -3   6 4720.79 887.992   3
  -2  -3  -6 4966.46 908.704   1
  -2  -3  -7 115.057 274.553   1
   2  -3   7 178.070 180.496   3
   2  -3   8-203.714 229.700   3
  -2  -3  -8 337.364 325.887   1
   2  -3   9 912.937 454.936   3
  -2  -3  -9 243.992 387.252   1
  -2  -3 -10-515.812 510.812   1
   2  -3  10 235.238 244.908   3
  -2  -3 -11-618.255 611.676   1
  -2  -3 -12 3132.34 943.459   1
  -2  -3 -13 1102.60 626.782   1
  -2   3 -14 21.6271 244.611   2
   2   4 -11 107.958 458.181   2
   2   4 -10-1085.46 596.878   2
   2   4  -9 475.797 419.107   2
   2   4  -8 292.082 294.945   2
   2   4  -7-177.045 455.985   2
   2   4  -6 393.901 364.261   2
   2   4  -5 684.791 433.522   2
   2   4  -4 3408.75 814.629   2
   2   4  -3 981.995 406.655   2
   2  -4  -3 432.739 278.911   3
   2   4  -2 1311.50 472.679   2
   2  -4  -2 1352.24 458.583   3
   2   4  -1 828.467 383.416   2
   2  -4  -1 571.262 329.443   3
   2  -4   0 255.887 202.874   3
   2  -4   1 149.347 195.955   3
   2  -4   2 175.343 271.824   3
   2  -4   3 11531.9 1451.47   3
   2  -4   4 16066.2 1733.74   3
  -2  -4  -5 899.056 485.738   1
   2  -4   5-27.4672 306.014   3
  -2  -4  -6 7532.91 1245.69   1
   2  -4   6 7699.85 1266.66   3
  -2  -4  -7 6563.49 1231.09   1
  -2  -4  -8-249.433 411.154   1
  -2  -4  -9 79.1078 272.600   1
  -2   4 -10 1098.17 599.913   2
   2   5  -7 116.340 425.620   2
   2   5  -6-56.5682 296.127   2
  -2   5  -4 834.886 578.720   2
  -2   5  -5 202.864 236.318   2
   3   0 -19 161.033 387.160   2
   3   0 -18 1797.84 542.741   2
   3   0 -18 2729.05 815.112   1
   3   0 -17 39.5400 376.308   1
   3   0 -17-762.801 543.970   2
   3   0 -16 707.021 443.416   1
   3   0 -16 10.3979 326.689   2
   3   0 -15-377.919 349.116   1
   3   0 -15-501.260 447.448   2
   3   0 -14 20893.6 1646.22   1
   3   0 -14 19862.7 1734.99   2
   3   0 -13-733.455 513.057   1
   3   0 -13-766.909 500.296   2
   3   0 -12 2174.43 571.864   2
   3   0 -12 2425.05 578.349   1
   3   0 -11 546.970 283.547   2
   3   0 -11-377.044 315.204   1
   3   0 -10 4653.83 767.520   2
   3   0 -10 3310.67 587.736   1
   3   0  -9-306.826 342.527   2
   3   0  -9-88.9798 234.626   1
   3   0  -8 66376.3 1777.05   1
   3   0  -8 66541.0 2609.60   2
   3   0  -7-103.318 137.656   1
   3   0  -7-60.6458 260.519   2
   3   0  -6 271918. 2538.78   1
   3   0  -6 270062. 4869.26   2
   3   0  -5-56.4014 240.670   2
   3   0  -4 25523.0 1464.56   2
  -3   0   3 29.6813 26.0602   1
  -3   0   3 153.055 179.124   2
   3   0  -3-143.263 288.051   2
   3   0  -2 99297.1 2753.16   2
  -3   0   2 105643. 2789.20   2
  -3   0   1-0.20378 190.538   2
  -3   0   0 23727.4 1341.35   2
   3   0   0 22114.1 1268.71   3
   3   0   1 230.260 146.439   3
  -3   0  -1-73.1961 202.555   2
   3   0   2 340209. 5165.24   3
  -3   0  -2 347649. 5115.57   3
   3   0   3 50.5425 171.662   3
   3   0   4 225.489 185.592   3
   3   0   5-6.95978 138.381   3
   3   0   6 43705.3 1953.03   3
   3   0   7-41.0364 178.265   3
   3   0   8 3221.17 570.110   3
   3   0   9 40.3327 99.1794   3
   3   0  10 1625.54 416.938   3
   3   0  11 30.7874 108.327   3
   3   0  12 857.777 334.310   3
   3   0  13 39.5704 145.182   3
   3   1 -21-1226.28 696.894   2
   3   1 -20 1282.80 791.956   2
   3   1 -19 772.244 521.131   2
   3  -1 -19-424.166 540.468   1
   3  -1 -18 298.760 399.281   1
   3   1 -18-740.453 597.409   2
   3   1 -17 728.876 533.720   2
   3  -1 -17 1544.33 563.185   1
   3   1 -16 1314.32 569.386   2
   3  -1 -16 1555.12 564.407   1
   3  -1 -15 209.114 255.116   1
   3  -1 -15 230.643 208.477   2
   3   1 -14 8525.28 1264.64   2
   3  -1 -14 7689.33 916.563   2
   3  -1 -14 9922.46 1179.70   1
   3  -1 -13 36690.6 1984.83   2
   3   1 -13 40069.2 2713.34   2
   3  -1 -13 41077.6 2242.11   1
   3  -1 -12 15107.4 1258.18   2
   3   1 -12 17046.5 1718.43   2
   3  -1 -12 16591.7 1368.39   1
   3  -1 -11 25822.7 1643.95   1
   3  -1 -11 25064.9 1628.41   2
   3   1 -11 24297.7 1945.31   2
   3   1 -10 2171.18 618.344   2
   3  -1 -10 2252.94 506.619   1
   3  -1 -10 1766.87 449.859   2
   3  -1  -9 29761.2 1559.56   1
   3  -1  -9 28985.2 1632.15   2
   3   1  -9 29005.5 2011.90   2
   3  -1  -8 13134.2 1052.09   2
   3  -1  -8 12388.6 935.354   1
   3   1  -8 12099.0 1251.96   2
   3  -1  -7 14544.9 1111.71   2
   3   1  -7 13178.2 1264.00   2
   3  -1  -7 12416.2 910.665   1
   3   1  -6 6430.74 884.816   2
   3  -1  -6 5335.48 554.470   1
   3  -1  -6 6205.10 740.269   2
  -3   1   6 6908.36 700.026   1
   3   1  -5 1573.43 421.833   2
   3   1  -5 1066.61 162.112   1
   3  -1  -5 1421.52 368.766   3
  -3   1   5 1677.90 338.589   1
  -3   1   4 79351.5 2053.17   1
   3   1  -4 75358.5 1313.05   1
   3   1  -4 72851.8 2604.61   2
   3  -1  -4 83291.0 2689.10   3
   3  -1  -3 88.1998 201.192   3
  -3   1   3-31.1837 87.6808   1
   3   1  -3 136.089 117.157   1
   3   1  -3-68.0296 278.670   2
   3  -1  -2 256.493 180.784   3
  -3  -1   2 169.671 110.059   1
   3   1  -2 149.137 246.182   2
  -3  -1   1 54989.1 1512.51   1
   3   1  -1 60134.7 2156.64   2
   3  -1  -1 60049.2 2252.28   3
   3   1   0 103611. 2832.56   2
  -3  -1   0 99550.6 2589.48   2
   3  -1   0 102616. 3010.68   3
   3  -1   1 124668. 3292.47   3
   3   1   1 137571. 3211.60   2
  -3  -1  -1 133653. 3047.25   2
  -3  -1  -1 118420. 2757.46   1
   3  -1   2 7446.60 834.359   3
  -3  -1  -2 6743.57 773.901   1
  -3  -1  -2 8530.43 777.786   2
   3   1   2 8469.36 777.358   3
   3   1   3 374.882 180.515   3
  -3  -1  -3 712.940 319.978   1
   3  -1   3 41.2837 115.412   3
  -3  -1  -3 476.182 222.431   2
  -3  -1  -4 4870.96 759.085   1
  -3  -1  -4 4858.10 615.307   2
   3  -1   4 4575.13 686.745   3
   3   1   4 4991.88 597.930   3
   3   1   5 567.475 206.568   3
  -3  -1  -5 378.845 400.139   1
   3  -1   5 1043.34 348.249   3
  -3  -1  -5 813.876 268.284   2
   3   1   6 106.500 137.611   3
  -3  -1  -6 263.429 217.274   2
   3  -1   6-128.894 113.235   3
   3   1   7 6828.00 679.721   3
   3  -1   7 5919.74 875.685   3
   3   1   8 4009.62 521.438   3
   3  -1   8 3204.14 656.351   3
   3   1   9 6957.78 687.385   3
   3  -1   9 6828.02 980.623   3
   3  -1  10 1354.71 435.314   3
   3   1  10 1179.27 296.073   3
   3  -1  11 1840.06 545.582   3
  -3  -1 -11 1529.40 772.940   1
   3   1  11 1822.56 364.783   3
  -3  -1 -12 993.225 680.655   1
   3  -1  12 244.131 314.534   3
  -3  -1 -13-195.986 555.631   1
   3  -1  13-46.0981 282.824   3
   3  -1  14 2816.39 756.752   3
  -3  -1 -14 3184.84 926.237   1
  -3  -1 -15 529.102 411.101   1
  -3  -1 -16 550.020 530.661   1
  -3   1 -18-18.1634 287.882   2
   3  -2 -19-1328.37 593.831   1
   3   2 -18 1614.35 720.721   2
   3  -2 -18 532.004 274.571   1
   3   2 -17 174.762 399.133   2
   3  -2 -17 383.498 432.700   1
   3   2 -16 1087.95 585.503   2
   3  -2 -16 1218.40 496.943   1
   3   2 -15 360.208 458.939   2
   3  -2 -15 51.7940 190.288   1
   3   2 -14-53.6709 439.261   2
   3  -2 -14 789.383 401.313   1
   3   2 -13-552.380 573.277   2
   3  -2 -13 177.212 178.036   1
   3  -2 -12 10918.1 1271.41   1
   3   2 -12 9556.95 1402.18   2
   3  -2 -12 11192.4 1044.40   3
   3   2 -11 35485.2 2634.60   2
   3  -2 -11 34997.8 1826.96   3
   3  -2 -11 35635.4 2237.96   1
   3  -2 -10 29176.7 1676.00   3
   3   2 -10 26033.0 2172.14   2
   3  -2 -10 25540.4 1807.05   1
   3  -2  -9 8771.75 911.975   3
   3  -2  -9 8458.65 1008.16   1
   3   2  -9 8332.74 1225.74   2
   3  -2  -8 332.393 173.021   1
   3   2  -8 110.372 317.351   2
   3  -2  -8 281.692 209.784   3
   3   2  -7 1377.04 537.306   2
   3  -2  -7 1243.85 360.100   3
   3   2  -6 603.468 517.706   2
   3  -2  -6 324.476 205.073   3
   3   2  -5 514.556 166.404   1
   3   2  -5 920.864 405.057   2
   3  -2  -5 589.789 248.062   3
   3  -2  -4 570.116 235.328   3
   3   2  -4 357.292 170.414   1
   3   2  -3 4358.36 715.530   2
   3  -2  -3 4675.58 675.166   3
   3   2  -2 45893.4 2146.91   2
   3  -2  -2 49745.4 2182.48   3
   3   2  -1 3721.63 611.588   2
  -3  -2   1 4623.99 617.226   1
   3  -2  -1 3517.56 604.481   3
  -3  -2   0 12232.2 1029.89   1
   3  -2   0 13061.4 1158.59   3
   3   2   0 11852.9 1040.46   2
   3   2   1 693.210 257.287   2
   3  -2   1 1144.72 346.902   3
   3  -2   2 9456.54 1046.38   3
   3   2   2 9857.98 923.847   2
  -3  -2  -2 8696.09 757.657   2
  -3  -2  -2 9226.27 948.407   1
   3  -2   3 681.179 339.591   3
  -3  -2  -3 424.555 218.868   1
  -3  -2  -3 655.389 239.428   2
   3   2   3 679.737 292.145   2
   3  -2   4 537.165 285.438   3
  -3  -2  -4 955.852 375.312   1
   3   2   4 455.109 175.400   3
  -3  -2  -4 263.809 138.439   2
  -3  -2  -5 5884.32 920.696   1
  -3  -2  -5 5927.83 568.616   2
   3  -2   5 5941.88 913.802   3
   3   2   5 6568.75 574.868   3
  -3  -2  -6 62685.9 1766.10   2
  -3  -2  -6 63603.6 3023.14   1
   3  -2   6 60004.3 2968.67   3
   3   2   6 59323.3 1496.44   3
   3  -2   7 35450.8 2345.59   3
  -3  -2  -7 35324.1 2430.71   1
   3  -2   8 1400.44 494.302   3
  -3  -2  -8 828.765 486.497   1
  -3  -2  -9-163.746 463.287   1
   3  -2   9 749.228 404.323   3
  -3  -2 -10 4085.76 972.911   1
   3  -2  10 5373.59 988.833   3
  -3  -2 -11-167.825 448.487   1
   3  -2  11 51.7367 163.386   3
  -3  -2 -12 553.765 348.730   1
   3  -2  12 553.967 327.790   3
   3  -2  13 117.705 414.511   3
  -3  -2 -13 729.694 599.007   1
  -3  -2 -14-409.374 507.361   1
  -3  -2 -15 483.393 543.288   1
   3  -3 -17 2172.08 751.085   1
   3  -3 -16 764.606 469.209   1
   3   3 -15 1431.58 824.549   2
   3  -3 -15 785.632 348.161   1
   3   3 -14-1496.51 798.353   2
   3  -3 -14-105.106 314.300   1
   3   3 -13 601.287 331.242   2
   3  -3 -13 58.1751 340.247   1
   3   3 -12 871.655 325.037   2
   3  -3 -12 660.954 404.887   1
   3   3 -11 143.722 315.168   2
   3  -3 -11 287.438 207.268   1
   3   3 -10 1334.36 518.229   2
   3   3  -9 3240.75 861.651   2
   3  -3  -8 10904.8 995.178   3
   3   3  -8 11082.8 1483.58   2
   3   3  -7 1732.55 678.361   2
   3  -3  -7 2326.69 483.464   3
   3   3  -6-291.070 380.582   2
   3  -3  -6 75.0699 139.866   3
   3  -3  -5 603.759 287.685   3
   3   3  -5 888.480 482.381   2
   3  -3  -4 2304.80 522.444   3
   3   3  -4 3194.70 787.613   2
   3   3  -3 266.218 341.882   2
   3  -3  -3 547.051 279.643   3
   3  -3  -2 95.2036 117.438   3
   3   3  -2 79.5709 270.193   2
   3  -3  -1-8.92489 159.712   3
   3   3  -1-154.892 283.260   2
   3   3   0-114.291 273.564   2
   3  -3   0 143.602 168.223   3
   3  -3   1 394.664 260.659   3
  -3  -3  -1 1015.15 389.962   1
   3   3   1 784.326 375.626   2
   3  -3   2 1451.24 503.839   3
   3   3   2 1621.97 397.304   2
  -3  -3  -2 1134.56 438.336   1
   3   3   3 17997.5 1257.15   2
   3  -3   3 19754.8 1753.32   3
  -3  -3  -4 27255.3 2040.69   1
   3  -3   4 25437.9 2049.06   3
  -3  -3  -5 17415.8 1645.59   1
   3  -3   5 13851.1 1552.58   3
  -3  -3  -6 7595.28 1193.94   1
   3  -3   6 5976.40 1035.22   3
   3  -3   7-53.5596 243.767   3
  -3  -3  -7 209.105 270.116   1
  -3  -3  -8 2354.19 635.372   1
   3  -3   8 1734.44 599.543   3
  -3  -3  -9 662.788 254.527   1
   3  -3   9 873.502 481.500   3
  -3  -3 -10 693.375 463.751   1
   3  -3  10 831.243 370.984   3
   3  -3  11 2941.30 866.059   3
  -3  -3 -11 3474.09 1022.85   1
  -3  -3 -12 562.974 457.602   1
   3  -3  12 6.38895 303.988   3
   3   4 -11-1261.21 669.657   2
   3   4 -10-527.391 590.065   2
   3   4  -9 1047.33 596.573   2
   3   4  -8 449.395 361.465   2
   3   4  -7 458.555 333.336   2
   3   4  -6 1055.57 584.051   2
   3   4  -5 488.900 364.172   2
   3   4  -4 339.423 314.780   2
   3  -4  -4 414.017 246.073   3
   3   4  -3 427.447 450.025   2
   3  -4  -3 759.239 397.089   3
   3  -4  -2 38.6381 213.669   3
   3   4  -2 210.197 245.864   2
   3   4  -1 492.180 215.306   2
   3  -4  -1 1010.38 459.732   3
   3  -4   0 121.355 250.546   3
   3  -4   1 1908.56 593.903   3
   3  -4   2 4958.23 955.062   3
   3  -4   3 632.533 389.394   3
  -3  -4  -4 6799.66 1109.32   1
   3  -4   4 6872.48 1221.39   3
  -3  -4  -5 8595.93 1353.28   1
   3  -4   5 6921.94 1217.50   3
  -3  -4  -6 45.3559 238.624   1
   3  -4   6 133.023 266.224   3
  -3  -4  -7 168.759 327.361   1
   3  -4   7-112.386 290.545   3
  -3  -4  -8-445.488 388.886   1
   3  -4   8 188.495 317.394   3
   4   0 -19 1001.88 593.315   2
   4   0 -18 3607.78 882.229   2
   4   0 -17-629.507 568.267   2
   4   0 -16 2878.26 744.541   2
   4   0 -15 506.148 477.598   2
   4   0 -15 145.779 242.069   1
   4   0 -14 7160.08 1077.76   2
   4   0 -14 8566.02 934.690   1
   4   0 -13-240.495 268.005   1
   4   0 -13-22.2553 307.641   2
   4   0 -12 493.643 230.445   1
   4   0 -12 1123.73 507.771   2
   4   0 -11 37.2794 134.134   1
   4   0 -11 335.542 446.789   2
   4   0 -10 16406.3 907.070   1
   4   0 -10 16157.7 1468.17   2
   4   0  -9 70.8494 85.2114   1
   4   0  -9-561.203 473.954   2
   4   0  -8 10747.1 539.357   1
   4   0  -8 11711.2 1179.25   2
   4   0  -7-368.866 416.046   2
   4   0  -6 14796.2 1340.76   2
   4   0  -5-456.890 350.564   2
  -4   0   4 74.9568 45.8783   1
   4   0  -4 39.0708 288.579   2
   4   0  -3-62.8043 245.483   2
   4   0  -2 15163.6 1224.07   2
   4   0  -1-158.025 225.645   3
   4   0   0 101639. 3161.19   3
   4   0   1-138.260 222.172   3
   4   0   2 178615. 4307.10   3
   4   0   3 3.30821 156.946   3
   4   0   4 643.481 199.276   3
   4   0   5-173.646 165.635   3
   4   0   6 364.421 215.553   3
   4   0   7-167.978 233.756   3
   4   0   8 46228.2 2520.51   3
   4   0   9-331.777 281.145   3
   4   0  10 72430.9 3190.63   3
   4   0  11-790.781 354.599   3
   4   0  12 954.550 367.427   3
   4   0  13 145.790 231.545   3
   4   1 -20 616.245 505.109   2
   4   1 -19-458.750 571.133   2
   4   1 -18 397.055 384.108   2
   4   1 -17-139.792 544.165   2
   4  -1 -17 789.599 407.688   1
   4   1 -16 1517.78 833.828   2
   4  -1 -16 833.857 423.736   2
   4  -1 -16 1019.72 414.029   1
   4  -1 -15 2339.74 552.481   1
   4  -1 -15 1417.18 419.270   2
   4   1 -14 541.062 366.820   2
   4  -1 -14 578.698 311.991   1
   4  -1 -14 1452.22 542.711   2
   4  -1 -13 662.055 272.013   1
   4  -1 -13 686.107 387.581   2
   4   1 -12-107.168 349.007   2
   4  -1 -12-148.103 359.273   2
   4  -1 -12-27.6660 138.769   1
   4  -1 -11 425.726 178.587   1
   4  -1 -11 642.892 264.934   2
   4   1 -11 1087.37 602.217   2
   4  -1 -10-73.5415 112.893   1
   4  -1 -10 553.586 410.748   2
   4   1 -10 521.679 394.365   2
   4  -1  -9 11988.4 944.552   1
   4  -1  -9 12348.1 1259.18   2
   4   1  -9 12893.7 1381.44   2
   4   1  -8 265.186 350.924   2
   4  -1  -8 235.665 317.448   2
   4  -1  -7 12394.7 1178.05   2
   4   1  -7 11310.5 1266.98   2
  -4   1   7 13465.8 993.069   1
  -4   1   6 10264.7 827.687   1
   4   1  -6 8900.35 1061.02   2
  -4   1   5 67159.8 2039.33   1
   4   1  -5 60024.1 2705.42   2
   4  -1  -5 60156.1 2654.57   3
  -4   1   4 3916.54 479.020   1
   4  -1  -4 3263.65 647.578   3
   4   1  -4 3203.14 631.241   2
  -4  -1   3 1537.22 203.716   1
   4  -1  -3 1450.79 428.740   3
   4   1  -3 1706.19 457.022   2
   4  -1  -2 22026.2 1530.68   3
   4   1  -2 22328.1 1611.19   2
  -4  -1   2 22974.1 943.280   1
   4  -1  -1 1112.15 375.120   3
   4   1  -1 1368.68 432.277   2
  -4  -1   1 801.800 231.289   1
  -4  -1   0 11815.8 861.620   1
   4   1   0 12336.1 1140.32   2
   4  -1   0 13701.3 1253.36   3
   4  -1   1 2130.89 535.727   3
   4   1   1 2048.64 477.398   2
  -4  -1  -1 1228.34 339.788   1
  -4  -1  -2 23747.7 1510.91   1
   4  -1   2 23892.4 1653.68   3
   4   1   2 24890.4 1541.11   3
  -4  -1  -3 69537.8 2800.30   1
   4  -1   3 68491.2 2930.62   3
   4   1   3 75066.7 2670.25   3
  -4  -1  -4 8789.49 1124.76   1
   4  -1   4 8097.06 994.846   3
   4   1   4 6773.76 800.946   3
   4   1   5 128.791 182.090   3
   4  -1   5 110.203 176.522   3
   4  -1   6 14759.0 1427.49   3
   4   1   6 15445.0 1219.09   3
   4  -1   7 83226.5 3614.67   3
   4   1   7 89040.5 2886.51   3
   4   1   8 42394.0 2012.91   3
   4  -1   8 43481.2 2634.17   3
   4  -1   9 5429.40 954.554   3
   4   1   9 6318.98 787.643   3
   4   1  10 740.934 273.673   3
   4  -1  10 385.651 173.153   3
   4  -1  11-288.229 402.417   3
   4  -1  12 2732.66 744.289   3
  -4  -1 -12 3057.17 964.558   1
  -4  -1 -13 265.685 445.175   1
   4  -1  13 28.7055 229.543   3
   4  -1  14-261.949 314.777   3
  -4  -1 -14 113.541 427.299   1
  -4  -1 -15 447.967 478.309   1
   4  -1  15 817.451 480.901   3
   4   2 -18 1831.15 839.264   2
   4   2 -17 730.698 640.619   2
   4  -2 -17-734.665 419.289   1
   4   2 -16 1432.34 698.027   2
   4  -2 -16 2120.46 622.529   1
   4   2 -15-26.6008 554.315   2
   4  -2 -15-172.605 352.559   1
   4   2 -14 5121.03 1121.12   2
   4  -2 -14 5412.76 904.670   1
   4   2 -13 3693.55 935.905   2
   4  -2 -13 3642.61 699.316   3
   4  -2 -13 3163.06 683.263   1
   4   2 -12 7461.07 1326.04   2
   4  -2 -12 7626.99 1013.85   1
   4  -2 -12 9270.09 1094.61   3
   4  -2 -11 2503.89 568.511   1
   4   2 -11 3279.47 770.036   2
   4  -2 -11 2715.61 605.295   3
   4   2 -10 7246.44 1217.91   2
   4  -2 -10 4900.86 752.336   1
   4  -2 -10 6931.98 937.278   3
   4   2  -9-118.499 451.656   2
   4  -2  -9 342.719 201.255   3
   4   2  -8 703.851 478.988   2
   4  -2  -8 466.851 259.822   3
   4   2  -8 179.033 83.7734   1
   4  -2  -7 189.636 237.174   3
   4   2  -7-88.0216 157.375   1
   4   2  -6-15.0032 99.8972   1
   4  -2  -6-53.3951 163.303   3
   4   2  -5 7255.01 697.785   1
   4  -2  -5 10255.0 1112.35   3
   4   2  -5 10433.6 1270.39   2
   4   2  -4 12931.1 1379.37   2
   4  -2  -4 14844.8 1384.38   3
   4   2  -4 13892.8 960.399   1
   4  -2  -3 14184.8 1343.23   3
   4   2  -3 13992.4 1373.79   2
   4   2  -3 13171.8 999.438   1
  -4  -2   2 819.142 254.110   1
   4  -2  -2 948.446 356.687   3
   4   2  -2 499.367 369.360   2
   4  -2  -1 3820.04 700.631   3
  -4  -2   1 4352.96 616.057   1
   4   2  -1 4218.80 754.171   2
  -4  -2   0 6908.91 790.437   1
   4   2   0 7138.34 910.175   2
   4  -2   0 7118.32 948.404   3
   4  -2   1 1966.90 513.106   3
  -4  -2  -1 1103.16 370.228   1
   4   2   1 1793.11 468.168   2
   4  -2   2 1081.35 362.551   3
  -4  -2  -2 1056.20 396.681   1
   4   2   2 2100.23 508.043   2
   4  -2   3 180.418 191.374   3
  -4  -2  -3 24.9462 212.284   1
   4   2   3 84.7866 213.178   3
  -4  -2  -4 2044.60 620.004   1
   4  -2   4 2095.55 601.812   3
   4   2   4 1853.36 417.789   3
  -4  -2  -5 53357.8 2753.31   1
   4  -2   5 48202.5 2854.30   3
   4  -2   6 8534.21 1197.42   3
  -4  -2  -6 9409.69 1247.40   1
   4  -2   7 2638.60 690.009   3
  -4  -2  -7 2501.41 723.007   1
   4  -2   8 172.326 145.198   3
  -4  -2  -8 55.0969 374.941   1
   4  -2   9 4102.02 903.446   3
  -4  -2  -9 3189.99 882.613   1
  -4  -2 -10-508.134 654.688   1
   4  -2  10 40.0907 144.590   3
   4  -2  11-63.2930 211.883   3
  -4  -2 -11 93.6983 369.587   1
  -4  -2 -12 1269.05 663.003   1
   4  -2  12 1553.76 583.120   3
  -4  -2 -13 1055.43 578.930   1
   4  -2  13 1321.96 617.699   3
  -4  -2 -14 1738.25 734.173   1
   4  -2  14 1634.82 630.923   3
   4  -3 -17 967.004 448.831   1
   4  -3 -16 1348.29 578.020   1
   4   3 -15 495.768 372.370   2
   4  -3 -15 1007.66 414.662   1
   4   3 -14-27.4633 420.495   2
   4  -3 -14-366.919 269.142   1
   4   3 -13 636.582 391.756   2
   4   3 -12-483.670 558.136   2
   4   3 -11 3324.27 960.427   2
   4   3 -10 8723.61 1467.77   2
   4   3  -9 30212.5 2605.22   2
   4  -3  -9 31810.5 1931.96   3
   4   3  -8 676.005 418.765   2
   4  -3  -8 842.176 338.009   3
   4   3  -7 5266.30 989.438   2
   4  -3  -7 6555.34 926.235   3
   4   3  -6 2024.96 665.579   2
   4  -3  -6 2708.78 588.721   3
   4   3  -5-313.162 448.265   2
   4  -3  -5-52.8237 136.147   3
   4   3  -4 735.271 512.589   2
   4  -3  -4 205.587 230.504   3
   4  -3  -3 54.2015 177.417   3
   4   3  -3 128.627 243.045   2
   4   3  -2 5479.85 891.272   2
   4  -3  -2 6515.98 976.571   3
   4  -3  -1 2174.74 578.783   3
   4   3  -1 2122.94 602.237   2
   4  -3   0 886.085 357.383   3
   4   3   0 920.692 389.468   2
  -4  -3   0 1035.73 392.644   1
   4  -3   1 798.107 407.353   3
   4   3   1 1112.10 435.301   2
  -4  -3  -1 799.991 313.760   1
   4  -3   2 869.229 364.610   3
  -4  -3  -2 1049.45 396.518   1
   4   3   2 1448.53 413.375   2
   4  -3   3 779.051 409.278   3
  -4  -3  -3 294.100 214.736   1
   4  -3   4 730.271 406.826   3
  -4  -3  -4 756.591 315.086   1
   4  -3   5-226.924 333.075   3
  -4  -3  -5 115.052 281.296   1
   4  -3   6 1689.10 624.705   3
  -4  -3  -6 1242.62 593.829   1
   4  -3   7-205.964 177.858   3
  -4  -3  -7 454.964 400.828   1
   4  -3   8 847.493 474.508   3
  -4  -3  -8 1262.84 584.655   1
  -4  -3  -9-413.509 430.432   1
   4  -3   9 112.089 189.700   3
  -4  -3 -10 654.030 459.630   1
   4  -3  10 149.298 355.784   3
  -4  -3 -11 1298.05 645.340   1
   4  -3  11 770.396 428.430   3
   4   4 -10 4359.80 1223.78   2
   4   4  -9 421.042 520.160   2
   4   4  -8 9527.96 1621.07   2
   4   4  -7 4567.22 1110.53   2
   4   4  -6 1831.16 690.444   2
   4   4  -5-43.6800 371.697   2
   4  -4  -4-101.872 221.775   3
   4   4  -4 486.386 490.223   2
   4   4  -3-221.197 419.903   2
   4  -4  -3-241.322 294.893   3
   4  -4  -2-38.7043 196.148   3
   4   4  -2-80.7285 317.891   2
   4  -4  -1 689.261 372.621   3
   4  -4   0-44.1157 163.326   3
   4  -4   1-8.79666 263.338   3
   4  -4   2 957.304 455.056   3
   4  -4   3 463.958 402.481   3
   4  -4   4 958.562 515.847   3
  -4  -4  -4 918.563 440.914   1
  -4  -4  -5 590.389 353.567   1
   4  -4   5 414.462 394.857   3
  -4  -4  -6 183.485 276.476   1
   4  -4   6-591.532 504.005   3
  -4  -4  -7 237.412 357.163   1
   4  -4   7-168.996 383.660   3
   5   0 -19 224.721 331.986   2
   5   0 -18 970.857 489.928   2
   5   0 -17 176.743 336.528   2
   5   0 -16 1631.71 687.778   2
   5   0 -15 292.575 322.178   2
   5   0 -14 2610.50 796.271   2
   5   0 -13 108.605 331.026   2
   5   0 -12 25920.8 1138.82   1
   5   0 -12 23319.3 2051.29   2
   5   0 -11 15.3325 54.3336   1
   5   0 -11 93.3782 410.109   2
   5   0 -10 186.503 453.147   2
   5   0  -9-94.0701 428.711   2
   5   0  -8 28997.7 2142.71   2
   5   0  -7 371.898 407.013   2
   5   0  -6 1167.49 510.090   2
   5   0  -5-47.5570 310.255   2
   5   0  -4 14553.7 1388.30   2
   5   0  -3-152.522 330.405   2
   5   0  -2 259.990 254.651   3
   5   0  -1 63.3150 229.798   3
   5   0   0 328.825 305.390   3
   5   0   1-28.1082 211.522   3
   5   0   2 13751.9 1337.96   3
   5   0   3 28.7485 177.814   3
   5   0   4 4705.44 796.753   3
   5   0   5 75.7623 298.429   3
   5   0   6 1435.61 469.943   3
   5   0   7 167.188 150.527   3
   5   0   8 130350. 4480.02   3
   5   0   9 9.98569 316.504   3
   5   0  10 7238.75 1114.93   3
   5   0  11 102.263 174.169   3
   5   0  12 3761.13 822.862   3
   5   1 -20 941.162 741.240   2
   5   1 -19 651.985 389.296   2
   5   1 -18 1446.31 801.936   2
   5   1 -17-177.230 550.871   2
   5   1 -16 627.848 633.954   2
   5  -1 -16 401.985 343.423   2
   5   1 -15 4196.11 1080.38   2
   5  -1 -15 2890.46 686.602   2
   5   1 -14 3635.10 931.072   2
   5  -1 -14 2691.47 698.290   2
   5  -1 -13 17605.3 1297.92   1
   5  -1 -13 14958.0 1533.97   2
   5   1 -13 17800.7 1983.28   2
   5   1 -12 681.658 415.289   2
   5  -1 -12 504.713 262.996   1
   5  -1 -12 30.4875 360.155   2
   5   1 -11 934.939 520.144   2
   5  -1 -11 1285.51 483.834   2
   5  -1 -10 118.546 290.674   2
   5   1 -10 450.962 441.794   2
   5  -1  -9 1673.38 599.606   2
   5   1  -9 2837.84 696.836   2
   5   1  -8 401.667 453.403   2
   5  -1  -7 2419.73 602.110   3
  -5   1   7 3524.45 531.815   1
   5   1  -7 2765.84 730.915   2
  -5   1   6 1861.44 374.182   1
   5  -1  -6 2552.58 635.661   3
   5   1  -6 2018.75 603.293   2
  -5   1   5 7975.49 724.299   1
   5   1  -5 8148.82 1151.29   2
   5  -1  -5 8477.15 1120.26   3
   5   1  -4 9972.54 1230.99   2
   5  -1  -4 11996.1 1280.90   3
  -5  -1   3 1394.94 214.704   1
   5  -1  -3 911.370 353.541   3
   5   1  -3 803.283 362.033   2
  -5  -1   2 991.463 229.750   1
   5  -1  -2 786.742 441.887   3
   5   1  -2 813.429 349.509   2
   5  -1  -1 1752.35 489.722   3
  -5  -1   1 1475.64 355.019   1
   5   1  -1 1261.07 541.031   2
   5   1   0 10391.0 1163.01   2
   5  -1   0 12354.9 1311.71   3
  -5  -1   0 11546.7 934.879   1
   5  -1   1-347.830 328.008   3
   5   1   1-284.765 220.897   3
  -5  -1  -1 422.506 367.547   1
  -5  -1  -2 9929.19 1101.96   1
   5  -1   2 9729.21 1164.92   3
   5   1   2 8314.49 1020.75   3
   5   1   3 10121.7 1119.84   3
  -5  -1  -3 9390.36 1197.92   1
   5  -1   3 8674.44 1112.96   3
   5  -1   4 62.3133 204.825   3
   5   1   4-17.0737 178.408   3
  -5  -1  -4-308.765 588.910   1
   5  -1   5 1488.41 492.683   3
   5   1   5 2221.10 580.847   3
   5  -1   6 10988.5 1340.14   3
   5   1   6 10670.5 1132.89   3
   5  -1   7 291.239 204.607   3
   5   1   7 781.953 311.809   3
   5  -1   8 1486.50 536.847   3
   5   1   8 1477.99 417.256   3
   5  -1   9 6149.81 1122.58   3
   5   1   9 5800.80 864.549   3
   5  -1  10 23063.6 2180.17   3
  -5  -1 -11 12389.6 1622.41   1
   5  -1  11 14435.9 1758.70   3
   5  -1  12 603.784 417.707   3
  -5  -1 -12 1532.49 751.816   1
   5  -1  13 1488.00 579.412   3
  -5  -1 -13-566.694 679.872   1
  -5  -1 -14-650.673 640.604   1
   5  -1  14 1727.15 708.881   3
   5  -1  15 848.116 447.495   3
   5   2 -17 525.326 418.658   2
   5   2 -16 1622.83 406.318   2
   5   2 -15-155.627 460.888   2
   5   2 -14 3813.57 1034.12   2
   5  -2 -14 3669.45 726.466   1
   5  -2 -14 3818.30 804.619   3
   5   2 -13 422.283 644.100   2
   5  -2 -13 363.901 343.476   3
   5   2 -12 2645.50 929.125   2
   5  -2 -12 1569.35 547.688   3
   5   2 -11-246.462 414.719   2
   5  -2 -11 486.638 343.739   3
   5   2 -10-357.887 330.686   2
   5  -2 -10-438.318 307.108   3
   5   2  -9 900.039 542.136   2
   5  -2  -9 1639.75 527.742   3
   5   2  -8 34031.8 2615.65   2
   5  -2  -8 33236.9 2269.23   3
   5   2  -7 21813.9 2053.65   2
   5  -2  -7 22549.6 1832.28   3
   5   2  -6 14286.7 1616.78   2
   5  -2  -6 12795.6 1396.35   3
   5  -2  -5 8148.12 1082.39   3
   5   2  -5 7319.14 1130.55   2
   5  -2  -4 7431.12 1038.06   3
   5   2  -4 7072.61 1090.29   2
   5  -2  -3-183.149 231.530   3
   5   2  -3 36.0128 363.149   2
   5   2  -2 45.3517 327.933   2
   5  -2  -2 808.994 341.588   3
  -5  -2   2 233.554 105.453   1
   5  -2  -1 48.3350 170.638   3
  -5  -2   1-51.2064 130.106   1
   5   2  -1 42.8894 361.274   2
   5  -2   0 1990.66 572.528   3
   5   2   0 1763.17 547.665   2
  -5  -2   0 1633.90 413.794   1
   5  -2   1 502.460 329.880   3
  -5  -2  -1 1004.82 375.666   1
   5   2   1 385.747 301.884   2
   5  -2   2 3063.75 714.279   3
  -5  -2  -2 3459.99 671.019   1
   5   2   2 2249.42 581.804   3
  -5  -2  -3 5890.38 913.786   1
   5  -2   3 5562.20 964.186   3
   5   2   3 4360.37 727.825   3
  -5  -2  -4 14159.6 1453.33   1
   5  -2   4 11841.1 1420.95   3
   5   2   4 13468.0 1237.15   3
   5  -2   5 889.761 443.190   3
   5   2   5 1088.83 332.038   3
  -5  -2  -5 931.538 455.637   1
   5  -2   6 5516.97 1035.15   3
  -5  -2  -6 5904.16 1063.96   1
   5  -2   7 1452.49 519.802   3
  -5  -2  -7 2697.09 781.426   1
   5  -2   8-51.1874 183.443   3
  -5  -2  -8 1365.52 632.342   1
   5  -2   9 1441.54 620.535   3
  -5  -2  -9-41.5387 615.129   1
   5  -2  10 123.235 355.002   3
  -5  -2 -10 235.831 511.603   1
   5  -2  11 2030.12 712.124   3
  -5  -2 -11 2705.68 825.009   1
   5  -2  12 245.061 325.932   3
  -5  -2 -12 1449.33 630.720   1
   5  -2  13 3565.10 999.197   3
   5   3 -14 25.5478 505.138   2
   5   3 -13-284.686 450.476   2
   5   3 -12-93.2659 476.762   2
   5   3 -11 1348.63 622.017   2
   5   3 -10 6005.70 1292.10   2
   5  -3 -10 5172.52 857.889   3
   5   3  -9 15624.9 2008.10   2
   5  -3  -9 16463.5 1562.35   3
   5   3  -8 7860.92 1394.32   2
   5  -3  -8 8876.76 1140.19   3
   5   3  -7 2503.71 772.663   2
   5  -3  -7 1601.75 526.418   3
   5   3  -6 1332.13 552.794   2
   5  -3  -6 1528.28 494.728   3
   5   3  -5 1434.26 656.628   2
   5  -3  -5 397.130 280.881   3
   5  -3  -4 402.133 270.885   3
   5   3  -4 743.597 381.136   2
   5  -3  -3 4855.24 910.447   3
   5   3  -3 4813.86 899.958   2
   5   3  -2 1375.69 556.412   2
   5  -3  -2 2023.64 623.744   3
   5  -3  -1 4196.20 860.259   3
   5   3  -1 3476.45 786.283   2
   5  -3   0 2264.58 627.161   3
  -5  -3   0 1825.18 495.212   1
   5   3   0 931.037 491.392   2
  -5  -3  -1-113.748 137.465   1
   5  -3   1 170.448 278.150   3
   5   3   1-460.954 402.647   2
   5  -3   2 1778.41 660.418   3
  -5  -3  -2 1979.11 538.254   1
   5   3   2 638.739 293.738   2
   5  -3   3 313.572 273.356   3
  -5  -3  -3 296.930 282.582   1
   5  -3   4 298.161 242.510   3
  -5  -3  -4 266.981 274.516   1
   5  -3   5 3234.63 876.449   3
  -5  -3  -5 3081.29 756.582   1
   5  -3   6 2569.13 756.455   3
  -5  -3  -6 2980.93 788.400   1
   5  -3   7 581.473 405.101   3
  -5  -3  -7 572.037 377.316   1
  -5  -3  -8 595.787 594.585   1
   5  -3   8-362.526 366.736   3
   5  -3   9 296.443 273.463   3
  -5  -3  -9-689.610 481.959   1
  -5  -3 -10 29.7091 433.340   1
   5   4  -9 1482.71 760.223   2
   5   4  -8 1562.77 728.303   2
   5   4  -7 201.898 522.252   2
   5   4  -6-308.892 412.538   2
   5   4  -5 133.659 376.216   2
   5  -4  -5-97.1787 308.004   3
   5  -4  -4 429.230 276.375   3
   5   4  -4 379.170 400.725   2
   5  -4  -3 1023.17 485.023   3
   5   4  -3 830.603 403.167   2
   5  -4  -2 2753.43 789.401   3
   5  -4  -1 39.1510 225.775   3
   5  -4   0 1591.19 622.495   3
   5  -4   1 1637.75 577.986   3
   5  -4   2 246.494 261.233   3
   5  -4   3-23.8795 183.164   3
  -5  -4  -3-324.131 427.664   1
   5  -4   4-834.546 480.614   3
  -5  -4  -4-660.903 392.935   1
   5  -4   5-501.171 508.436   3
  -5  -4  -5 140.403 294.306   1
  -5  -4  -6 430.689 386.106   1
   6   0 -19 729.240 617.033   2
   6   0 -18 110.394 462.010   2
   6   0 -17-554.601 605.834   2
   6   0 -16 4408.70 1079.44   2
   6   0 -15 973.991 593.826   2
   6   0 -14 3142.63 908.704   2
   6   0 -13 89.3053 388.384   2
   6   0 -12 37884.5 2813.69   2
   6   0 -11 54.6281 482.085   2
   6   0 -10 7873.46 1196.16   2
   6   0  -9 26.2431 356.771   2
   6   0  -8 751.767 423.776   2
   6   0  -7 186.946 331.468   2
   6   0  -6 32275.5 2283.22   2
  -6   0   5-12.0020 47.6853   1
   6   0  -5 11.2065 287.993   2
   6   0  -3-300.152 309.088   3
   6   0  -2 2247.74 621.453   3
   6   0  -1-98.1692 276.461   3
   6   0   0 118.449 218.222   3
   6   0   1-10.3071 233.586   3
   6   0   2 7599.82 1101.74   3
   6   0   3 1.26362 194.269   3
   6   0   4 1072.75 431.082   3
   6   0   5 479.674 308.922   3
   6   0   6 374.360 274.245   3
   6   0   7-115.003 216.728   3
   6   0   8 816.509 440.406   3
   6   0   9-140.987 305.526   3
   6   0  10 2271.02 661.199   3
   6   0  11-182.566 181.721   3
   6   1 -18 965.378 712.477   2
   6   1 -17 351.346 602.239   2
   6  -1 -16 375.998 400.426   2
   6   1 -16 1149.11 680.812   2
   6  -1 -15 413.610 507.391   2
   6   1 -15 456.006 381.127   2
   6  -1 -14 2908.86 784.437   2
   6   1 -14 2438.45 735.137   2
   6  -1 -13 1199.32 443.437   2
   6   1 -13 1437.35 696.036   2
   6  -1 -12 154.421 319.902   2
   6   1 -12 338.645 434.117   2
   6  -1 -11 18550.7 1785.51   2
   6   1 -11 17974.3 2027.03   2
   6   1 -10 2351.35 738.056   2
   6   1  -9 2188.15 767.510   2
   6  -1  -8 5241.36 1026.81   3
   6   1  -8 6233.59 1156.47   2
   6   1  -7 60875.4 3450.14   2
   6  -1  -7 59936.1 3133.28   3
   6   1  -6 43121.5 2832.73   2
   6  -1  -6 42108.6 2642.06   3
   6   1  -5 26793.1 2173.31   2
   6  -1  -5 25952.1 2057.62   3
   6  -1  -4 1692.50 495.482   3
   6   1  -4 1254.62 502.767   2
   6  -1  -3 904.651 401.039   3
  -6  -1   3 582.997 157.354   1
   6   1  -3 891.898 513.396   2
   6   1  -2 13669.1 1450.58   2
   6  -1  -2 11174.0 1324.72   3
  -6  -1   2 11878.4 792.110   1
   6  -1  -1 806.012 446.822   3
  -6  -1   1 220.774 214.305   1
   6  -1   0 348.020 220.700   3
   6   1   0 149.407 298.548   3
  -6  -1   0 354.113 260.408   1
   6  -1   1 363.893 321.291   3
   6   1   1 127.091 244.724   3
  -6  -1  -1 272.687 473.348   1
   6  -1   2 2282.20 622.111   3
   6   1   2 2388.77 632.678   3
  -6  -1  -2 2916.21 695.633   1
   6  -1   3 5.33645 192.502   3
  -6  -1  -3 147.925 543.802   1
   6   1   3 374.689 193.704   3
   6  -1   4 3042.36 757.919   3
   6   1   4 3479.79 759.163   3
  -6  -1  -4 3078.37 877.211   1
   6  -1   5 908.470 441.913   3
   6   1   5 1824.27 509.976   3
  -6  -1  -5 1330.74 655.975   1
   6  -1   6 641.239 288.022   3
   6   1   6 990.992 400.396   3
  -6  -1  -6 246.015 512.314   1
   6  -1   7 825.417 408.230   3
   6   1   7 580.468 281.782   3
  -6  -1  -7 831.801 639.500   1
  -6  -1  -8 5558.51 1121.93   1
   6  -1   8 7511.71 1307.29   3
   6   1   8 7238.63 1031.96   3
   6  -1   9 7196.00 1310.81   3
  -6  -1  -9 6837.43 1319.66   1
   6  -1  10 562.976 440.468   3
  -6  -1 -10 157.684 437.243   1
   6  -1  11 262.110 302.389   3
  -6  -1 -11-580.036 549.528   1
   6  -1  12 439.048 334.173   3
  -6  -1 -12 242.432 570.200   1
   6  -1  13 844.808 403.624   3
   6  -1  14-1247.75 595.744   3
   6   2 -16-513.231 616.731   2
   6   2 -15-161.339 448.137   2
   6   2 -14 309.903 456.675   2
   6  -2 -14 597.388 363.415   3
   6   2 -13 685.622 416.350   2
   6  -2 -13 59.8866 309.764   3
   6   2 -12 973.143 529.229   2
   6  -2 -12 620.497 391.807   3
   6  -2 -11-431.572 338.485   3
   6   2 -11 335.425 523.838   2
   6  -2 -10 230.735 314.998   3
   6   2 -10 13.3022 539.694   2
   6   2  -9 19659.4 2124.83   2
   6  -2  -9 17789.4 1811.40   3
   6  -2  -8 9451.83 1315.54   3
   6   2  -8 9807.49 1536.03   2
   6  -2  -7 7689.34 1181.61   3
   6   2  -7 8127.22 1301.76   2
   6  -2  -6 2462.28 692.127   3
   6   2  -6 2171.74 748.145   2
   6  -2  -5 2616.07 721.192   3
   6   2  -5 2434.45 732.273   2
   6  -2  -4-63.7790 293.218   3
   6   2  -4 672.909 569.418   2
   6  -2  -3 186.308 206.363   3
   6   2  -3 499.493 400.109   2
   6  -2  -2 3329.48 814.232   3
   6   2  -2 3261.77 716.963   2
  -6  -2   2 2983.43 488.279   1
  -6  -2   1 956.838 326.516   1
   6  -2  -1 951.362 444.184   3
   6   2  -1 1465.72 603.051   2
   6  -2   0 3054.83 736.925   3
   6   2   0 4378.35 858.163   2
  -6  -2   0 4272.94 659.434   1
   6  -2   1 1317.57 505.715   3
  -6  -2  -1 915.070 360.774   1
   6   2   1 399.349 336.050   3
   6  -2   2 1797.99 609.043   3
  -6  -2  -2 1947.13 522.534   1
   6   2   2 1349.27 483.621   3
  -6  -2  -3 167.338 342.347   1
   6  -2   3 523.749 292.828   3
   6   2   3 681.285 348.953   3
   6  -2   4 101.519 165.046   3
   6   2   4 305.028 260.605   3
   6  -2   5 314.176 401.487   3
  -6  -2  -5 396.395 369.936   1
   6  -2   6 426.089 388.810   3
  -6  -2  -6-388.400 375.530   1
   6  -2   7 170.379 387.604   3
  -6  -2  -7 97.0379 337.410   1
   6  -2   8 167.612 293.863   3
  -6  -2  -8 728.165 462.505   1
   6  -2   9 1325.72 603.457   3
  -6  -2  -9 1614.12 612.375   1
   6  -2  10 2732.84 904.931   3
  -6  -2 -10 2588.45 903.935   1
   6  -2  11 4905.65 1201.37   3
  -6  -2 -11 5174.22 1229.75   1
   6   3 -12 808.060 734.685   2
   6   3 -11-59.8050 513.560   2
   6   3 -10 1040.25 686.957   2
   6  -3 -10 1326.80 532.568   3
   6  -3  -9-20.9942 168.474   3
   6   3  -9 898.948 458.298   2
   6  -3  -8-443.208 353.770   3
   6   3  -8 741.368 598.934   2
   6  -3  -7 78.3598 242.870   3
   6   3  -7-60.6976 414.779   2
   6  -3  -6 216.155 258.431   3
   6   3  -6 1069.54 581.638   2
   6  -3  -5-114.284 292.686   3
   6   3  -5-359.633 457.183   2
   6  -3  -4-79.0493 275.448   3
   6   3  -4-1003.32 534.787   2
   6  -3  -3 1566.80 546.371   3
   6   3  -3 834.333 367.205   2
   6  -3  -2 3021.38 772.559   3
   6   3  -2 4131.43 954.953   2
   6  -3  -1 1485.84 539.266   3
   6   3  -1 922.025 447.283   2
   6  -3   0 247.198 235.224   3
   6   3   0-3.10483 340.502   2
   6  -3   1-12.9891 364.323   3
   6   3   1 610.917 363.033   2
  -6  -3  -1 796.745 349.130   1
   6  -3   2 849.560 381.635   3
  -6  -3  -2 1424.35 505.250   1
   6  -3   3-166.026 223.292   3
  -6  -3  -3 83.0731 164.062   1
  -6  -3  -4 1920.34 592.527   1
   6  -3   4 2090.57 736.205   3
   6  -3   5 3976.66 1013.79   3
  -6  -3  -5 3091.73 756.886   1
   6  -3   6 283.893 336.291   3
  -6  -3  -6 185.879 252.742   1
   6  -3   7 976.903 571.025   3
  -6  -3  -7 1493.63 628.013   1
  -6  -3  -8 550.924 538.758   1
  -6  -3  -9 427.234 516.090   1
   6   4  -8 3.95170 588.575   2
   6   4  -7-303.148 468.226   2
   6   4  -6 574.623 509.614   2
   6  -4  -5 313.471 258.311   3
   6   4  -5 1151.93 618.851   2
   6  -4  -4 866.184 454.707   3
   6   4  -4 804.540 577.097   2
   6  -4  -3-1117.59 525.809   3
   6  -4  -2 1042.28 561.889   3
   6  -4  -1 647.340 403.033   3
   6  -4   0 298.575 385.857   3
   6  -4   1 442.571 409.721   3
   7   0 -19 65.0279 630.482   2
   7   0 -18 227.523 348.890   2
   7   0 -17 176.450 571.921   2
   7   0 -16 1010.08 694.979   2
   7   0 -15 333.181 571.273   2
   7   0 -14 213.702 316.140   2
   7   0 -13 16.7501 333.656   2
   7   0 -12-618.763 656.628   2
   7   0 -11 425.873 458.252   2
   7   0 -10 2788.02 811.107   2
   7   0  -9-523.943 478.024   2
   7   0  -8 860.142 458.272   2
   7   0  -7 387.073 419.334   2
   7   0  -5-603.805 484.097   3
   7   0  -4 56266.1 3182.70   3
   7   0  -3 50.9567 329.053   3
   7   0  -2 5013.23 994.190   3
   7   0  -1-57.4846 342.246   3
   7   0   0 2107.84 638.883   3
   7   0   1 519.076 415.077   3
   7   0   2 6695.28 1144.02   3
   7   0   3-290.635 321.962   3
   7   0   4 5711.94 1053.87   3
   7   0   5 199.576 178.099   3
   7   0   6 1282.70 524.217   3
   7   0   7-216.611 375.112   3
   7   0   8 552.969 364.338   3
   7   0   9-336.221 328.476   3
   7   0  10 471.251 365.458   3
   7   1 -17 476.354 631.204   2
   7  -1 -16 176.187 310.069   2
   7   1 -16-147.047 485.167   2
   7  -1 -15 673.878 429.554   2
   7   1 -15 1041.27 683.287   2
   7  -1 -14-83.5020 318.239   2
   7   1 -14-961.954 663.443   2
   7   1 -13 1606.79 773.595   2
   7   1 -12 1438.65 659.145   2
   7   1 -11 5699.75 1261.04   2
   7  -1 -10-60.4006 432.950   3
   7   1 -10 503.729 668.204   2
   7  -1  -9 2454.94 713.608   3
   7   1  -9 2434.36 882.636   2
   7  -1  -8 6426.77 1148.56   3
   7   1  -8 5787.26 1144.53   2
   7  -1  -7 1068.57 486.300   3
   7   1  -7 1133.59 576.967   2
   7  -1  -6 442.472 299.405   3
   7   1  -6 442.868 551.895   2
   7  -1  -5 6775.07 1126.69   3
   7   1  -5 8767.50 1337.90   2
   7   1  -4 24636.3 2197.92   2
   7  -1  -4 26965.0 2244.64   3
   7   1  -3 33462.6 2534.14   2
   7  -1  -3 32137.8 2451.92   3
   7  -1  -2 12583.6 1533.39   3
   7   1  -2 11334.6 1428.16   3
   7  -1  -1 144.303 265.366   3
   7   1  -1 139.165 275.780   3
   7  -1   0 1552.98 573.677   3
   7   1   0 2006.01 592.826   3
  -7  -1   0 2469.12 580.767   1
  -7  -1  -1 7824.48 986.646   1
   7  -1   1 9216.05 1386.12   3
   7   1   1 7631.08 1185.61   3
   7  -1   2 1665.55 563.321   3
   7   1   2 2604.43 729.582   3
  -7  -1  -2 1643.07 598.796   1
   7  -1   3 284.232 308.353   3
   7   1   3-138.255 326.672   3
  -7  -1  -3-175.534 425.642   1
   7  -1   4 1266.24 561.225   3
   7   1   4 432.200 318.274   3
  -7  -1  -4 731.591 479.112   1
   7  -1   5-597.403 461.201   3
   7   1   5-47.4687 307.618   3
  -7  -1  -5 79.3762 504.570   1
   7  -1   6 1264.52 429.460   3
   7   1   6 1257.94 452.332   3
  -7  -1  -6 130.204 441.100   1
   7  -1   7 0.60375 180.144   3
   7   1   7 327.069 257.849   3
  -7  -1  -7 334.477 568.619   1
   7  -1   8 179.796 321.618   3
  -7  -1  -8-1796.94 940.616   1
   7  -1   9 2964.71 882.501   3
  -7  -1  -9 1615.73 752.403   1
   7  -1  10 199.504 298.759   3
  -7  -1 -10 45.1441 480.580   1
   7  -1  11-175.934 455.779   3
  -7  -1 -11 90.0579 451.103   1
   7  -2 -15-691.895 447.783   3
   7  -2 -14 221.422 304.322   3
   7   2 -14 717.632 481.170   2
   7  -2 -13 146.288 255.593   3
   7   2 -13 306.054 577.790   2
   7  -2 -12 508.852 425.850   3
   7   2 -12 335.927 549.978   2
   7  -2 -11 605.796 476.601   3
   7   2 -11 453.078 601.838   2
   7   2 -10 6962.12 1448.35   2
   7  -2 -10 8371.37 1360.15   3
   7  -2  -9 2027.12 735.448   3
   7   2  -9 1614.16 782.871   2
   7  -2  -8 4538.73 996.041   3
   7   2  -8 5022.46 1138.03   2
   7  -2  -7 5.73549 215.623   3
   7   2  -7 1026.64 773.455   2
   7  -2  -6 34.3553 267.806   3
   7   2  -6 744.570 632.480   2
   7  -2  -5 792.677 343.982   3
   7   2  -5-232.690 563.003   2
   7  -2  -4 1524.26 590.823   3
   7   2  -4 1448.25 639.317   2
   7  -2  -3 1153.35 436.221   3
   7   2  -3 203.564 302.165   2
   7  -2  -2 1149.82 487.569   3
   7   2  -2 1895.70 674.768   2
   7   2  -1 17720.6 1844.34   2
   7  -2  -1 16060.6 1788.43   3
   7  -2   0 1485.78 563.222   3
   7   2   0 885.206 373.915   3
   7  -2   1 533.899 315.300   3
   7   2   1 112.086 280.271   3
   7  -2   2 592.739 290.202   3
   7   2   2 649.046 339.510   3
  -7  -2  -3 832.110 454.724   1
   7  -2   3 447.445 261.835   3
   7   2   3 756.887 453.778   3
  -7  -2  -4 1508.22 556.478   1
   7  -2   4 554.555 350.108   3
   7  -2   5 292.666 266.120   3
  -7  -2  -5 834.787 519.093   1
   7  -2   6 1457.58 584.407   3
  -7  -2  -6 593.703 376.574   1
   7  -2   7 1394.24 495.671   3
  -7  -2  -7 2408.04 775.010   1
   7  -2   8 1947.70 716.400   3
  -7  -2  -8 1893.18 671.715   1
  -7  -2  -9 907.046 567.790   1
  -7  -2 -10-505.631 520.043   1
   7  -3 -10 564.108 395.619   3
   7   3 -10-1097.89 696.402   2
   7  -3  -9 2590.43 741.564   3
   7   3  -9 1110.94 689.381   2
   7  -3  -8 857.464 445.387   3
   7   3  -8 951.116 565.552   2
   7  -3  -7 694.299 392.645   3
   7   3  -7 195.809 423.658   2
   7  -3  -6 480.710 339.836   3
   7   3  -6 411.459 343.926   2
   7  -3  -5 135.390 299.165   3
   7   3  -5-30.6112 508.811   2
   7  -3  -4 250.702 260.057   3
   7   3  -4 457.897 358.830   2
   7  -3  -3-527.031 370.698   3
   7   3  -3 507.046 430.461   2
   7  -3  -2-51.8275 196.194   3
   7   3  -2 415.424 402.982   2
   7  -3  -1-276.401 299.067   3
   7   3  -1 371.452 384.095   2
   7  -3   0-115.528 173.609   3
   7   3   0-37.1837 258.583   2
   7  -3   1 410.777 272.612   3
   7  -3   2-230.797 275.692   3
   7  -3   3-427.803 364.822   3
   7  -3   4 755.658 493.090   3
   7  -4  -6-411.790 388.549   3
   7  -4  -5-414.202 517.826   3
   7   4  -5-225.019 434.529   2
   7  -4  -4 652.662 433.026   3
   7  -4  -3 305.574 253.552   3
   8   0 -16 562.328 478.333   2
   8   0 -15-135.286 685.436   2
   8   0 -14 602.454 727.095   2
   8   0 -13-174.189 667.530   2
   8   0 -12 5608.74 1215.44   2
   8   0 -11 42.5225 425.994   2
   8   0 -10 453.193 433.333   2
   8   0  -9 140.985 402.570   2
   8   0  -7 272.207 382.203   3
   8   0  -6 378.920 297.604   3
   8   0  -5-248.708 455.527   3
   8   0  -4 326.918 305.888   3
   8   0  -3 112.649 285.104   3
   8   0  -2 2671.68 743.084   3
   8   0  -1-91.1723 256.499   3
   8   0   0 533.749 327.138   3
   8   0   1 38.9020 229.588   3
   8   0   2 11874.6 1631.55   3
   8   0   3-225.819 167.163   3
   8   0   4-471.500 494.378   3
   8   0   5 128.913 218.632   3
   8   0   6 2970.32 858.618   3
   8   0   7 410.690 337.219   3
   8   0   8-264.888 403.661   3
   8   0   9 503.501 390.247   3
   8  -1 -14-743.132 483.136   3
   8   1 -14 749.868 501.422   2
   8  -1 -13 944.501 597.271   3
   8   1 -13-151.409 448.455   2
   8  -1 -12 694.602 447.291   3
   8   1 -12 292.164 663.001   2
   8  -1 -11 66.0980 274.449   3
   8   1 -11-24.9798 498.017   2
   8  -1 -10 2572.32 805.597   3
   8   1 -10 2979.49 888.148   2
   8  -1  -9 1364.16 605.347   3
   8   1  -9 1660.52 690.009   2
   8  -1  -8 852.885 524.766   3
   8   1  -8-485.371 532.285   2
   8  -1  -7 2679.87 780.632   3
   8   1  -7 3422.85 933.126   2
   8  -1  -6 3098.74 899.380   3
   8   1  -6 3799.17 1046.53   2
   8  -1  -5 3723.32 920.837   3
   8   1  -5 3630.50 856.454   2
   8  -1  -4 1820.56 637.291   3
   8  -1  -3 5244.78 1063.64   3
   8   1  -3 3504.75 848.561   3
   8  -1  -2 263.236 198.133   3
   8   1  -2 73.4919 281.583   3
   8  -1  -1 1154.39 584.939   3
   8   1  -1 562.943 361.874   3
   8  -1   0-365.649 300.512   3
   8   1   0 305.848 375.080   3
   8  -1   1 386.929 375.159   3
   8   1   1 742.934 435.705   3
   8  -1   2 798.155 432.879   3
   8   1   2 567.875 387.494   3
   8  -1   3 844.304 543.510   3
   8   1   3 1170.12 507.568   3
   8  -1   4 3127.92 850.379   3
   8   1   4 3953.15 975.814   3
   8  -1   5 625.900 538.244   3
   8   1   5 505.240 234.503   3
   8  -1   6 31.7473 348.568   3
   8  -1   7 644.542 475.079   3
  -8  -1  -7 1240.73 710.178   1
   8  -1   8 2292.80 757.761   3
  -8  -1  -8 3072.40 1012.52   1
  -8  -1  -9-1433.81 750.914   1
   8  -2 -15-338.316 448.261   3
   8  -2 -14-1279.60 606.919   3
   8  -2 -13 249.649 358.359   3
   8  -2 -12 502.680 450.682   3
   8  -2 -11 325.346 422.044   3
   8   2 -11 155.302 490.492   2
   8  -2 -10-157.487 294.890   3
   8   2 -10 52.6489 419.378   2
   8  -2  -9 330.997 278.514   3
   8   2  -9-276.783 573.609   2
   8  -2  -8 513.597 429.249   3
   8   2  -8 432.102 545.320   2
   8  -2  -7 825.369 465.253   3
   8   2  -7 166.864 449.436   2
   8  -2  -6 1216.52 506.867   3
   8   2  -6-74.7821 570.961   2
   8  -2  -5 75.9846 216.525   3
   8   2  -5 1218.08 676.336   2
   8  -2  -4 2283.18 687.326   3
   8   2  -4 2220.39 680.821   2
   8   2  -3 7289.93 1319.40   2
   8  -2  -3 8704.10 1389.69   3
   8  -2  -2 12793.6 1675.30   3
   8  -2  -1 1520.54 618.101   3
   8   2  -1 1395.76 634.167   3
   8  -2   0 340.864 221.637   3
   8   2   0 101.330 278.772   3
   8  -2   1-356.742 424.296   3
   8   2   1 60.0533 284.194   3
   8  -2   2 598.498 435.582   3
   8  -2   3-275.118 437.046   3
   8  -2   4 480.557 457.860   3
   8  -3 -11-149.024 233.140   3
   8  -3 -10 691.824 474.407   3
   8  -3  -9 2377.56 773.257   3
   8  -3  -8-591.327 408.187   3
   8  -3  -7 3504.42 909.594   3
   8   3  -7 3282.15 1089.71   2
   8  -3  -6-115.124 338.015   3
   8   3  -6 522.833 457.209   2
   8  -3  -5 624.783 447.904   3
   8   3  -5 29.7352 373.456   2
   8  -3  -4 356.682 287.178   3
   8   3  -4 196.790 508.371   2
   8  -3  -3 113.372 228.239   3
   8   3  -3 213.786 343.614   2
   8  -3  -2 93.2381 453.410   3
   8   3  -2 408.269 384.733   2
   9   0 -13 954.642 737.174   2
   9   0 -12-648.484 679.712   2
   9   0  -9-543.169 550.078   3
   9   0  -8 657.628 461.447   3
   9   0  -7-302.870 371.797   3
   9   0  -6 3169.52 932.343   3
   9   0  -5 30.7561 512.636   3
   9   0  -4 558.577 465.756   3
   9   0  -3-71.7882 341.552   3
   9   0  -2 344.514 311.468   3
   9   0  -1-267.276 346.403   3
   9   0   0 69.3603 348.798   3
   9   0   1 2.59794 215.983   3
   9   0   2-456.366 474.985   3
   9   0   3-319.845 415.680   3
   9   0   4-22.7947 191.349   3
   9   0   5-145.345 243.658   3
   9   0   6 282.295 257.761   3
   9   0   7-288.512 392.789   3
   9  -1 -12 121.588 356.219   3
   9  -1 -11-539.346 658.405   3
   9   1 -11 381.301 502.692   2
   9  -1 -10-415.564 519.670   3
   9   1 -10 198.899 373.096   2
   9  -1  -9 7.69163 352.894   3
   9   1  -9 387.544 392.185   2
   9  -1  -8 479.174 407.006   3
   9   1  -8 2659.69 905.709   2
   9  -1  -7 2313.10 801.973   3
   9   1  -7 2370.13 868.921   2
   9  -1  -6 302.327 377.324   3
   9   1  -6-118.110 302.082   3
   9  -1  -5 4824.11 1102.31   3
   9   1  -5 5278.94 1161.29   3
   9  -1  -4 191.156 345.941   3
   9   1  -4 7.74431 389.977   3
   9  -1  -3 1566.06 565.541   3
   9   1  -3 1587.33 630.616   3
   9  -1  -2-56.0356 303.058   3
   9   1  -2 181.619 419.554   3
   9  -1  -1 2256.42 771.387   3
   9   1  -1 1639.99 560.735   3
   9  -1   0 662.088 554.446   3
   9   1   0 52.2293 277.894   3
   9  -1   1-177.474 307.560   3
   9   1   1 163.977 216.971   3
   9  -1   2 106.169 170.498   3
   9   1   2 219.717 299.564   3
   9  -1   3 558.140 403.814   3
   9   1   3 927.604 439.931   3
   9   1   4 258.174 344.390   3
   9  -2  -9 432.357 393.631   3
   9  -2  -8 231.553 377.326   3
   9  -2  -7 704.852 484.122   3
   9   2  -7 2017.30 925.173   2
   9  -2  -6 5353.46 1179.42   3
   9   2  -6 3480.82 934.181   2
   9  -2  -5 1156.03 530.246   3
   9   2  -5 2666.78 814.856   2
   9  -2  -4 221.628 397.326   3
   9  -2  -3-306.094 350.939   3
   9   2  -3-284.757 475.207   3
   9  -2  -2-774.350 499.547   3
   9   2  -2 676.175 483.383   3
   9   2  -1 44.1078 204.612   3
   9   2   0 75.6582 332.980   3
  10   1  -2-16.5391 247.290   3
  10   1  -1-484.001 558.831   3
  10   1   0-468.939 535.091   3
   0   0   0    0.00    0.00   0
TITL BKS-SS-DI-ANTH- 268K-SS in P2(1)/c
REM P2(1)/c (#14 in standard setting)
CELL 0.71073   7.872781   3.960825  15.784544  90.0000 102.6643  90.0000
ZERR    2.00   0.000718   0.000538   0.001930   0.0000   0.0093   0.0000
LATT  1
SYMM -x, y+1/2,-z+1/2
SFAC C H O
UNIT 24.00 16.00 4.00
TREF
HKLF 4
END
;
_shelx_hkl_checksum              84680
_olex2_submission_special_instructions 'No special instructions were received'
loop_
_space_group_symop_operation_xyz
'x, y, z'
'-x, y+1/2, -z+1/2'
'-x, -y, -z'
'x, -y-1/2, z-1/2'
loop_
_atom_site_label
_atom_site_type_symbol
_atom_site_fract_x
_atom_site_fract_y
_atom_site_fract_z
_atom_site_U_iso_or_equiv
_atom_site_adp_type
_atom_site_occupancy
_atom_site_site_symmetry_order
_atom_site_calc_flag
_atom_site_refinement_flags_posn
_atom_site_refinement_flags_adp
_atom_site_refinement_flags_occupancy
_atom_site_disorder_assembly
_atom_site_disorder_group
C2 C 0.4361(3) 0.6534(5) 0.41508(13) 0.0404(5) Uani 1 1 d . . . . .
C7 C 0.3268(3) 0.6391(5) 0.47354(13) 0.0411(6) Uani 1 1 d . . . . .
C1 C 0.6152(3) 0.5134(5) 0.43898(14) 0.0453(6) Uani 1 1 d . . . . .
C5 C 0.1019(3) 0.9131(6) 0.36797(16) 0.0563(7) Uani 1 1 d . . . . .
H5 H -0.010210 1.000395 0.352202 0.068 Uiso 1 1 calc R U . . .
O1 O 0.7120(2) 0.5229(5) 0.38806(11) 0.0711(6) Uani 1 1 d . . . . .
C3 C 0.3767(3) 0.7974(5) 0.33375(14) 0.0516(6) Uani 1 1 d . . . . .
H3 H 0.449712 0.807141 0.294822 0.062 Uiso 1 1 calc R U . . .
C6 C 0.1587(3) 0.7716(6) 0.44900(15) 0.0506(6) Uani 1 1 d . . . . .
H6 H 0.084710 0.764163 0.487526 0.061 Uiso 1 1 calc R U . . .
C4 C 0.2096(3) 0.9264(6) 0.31018(15) 0.0575(7) Uani 1 1 d . . . . .
H4 H 0.170368 1.021677 0.255545 0.069 Uiso 1 1 calc R U . . .
loop_
_atom_site_aniso_label
_atom_site_aniso_U_11
_atom_site_aniso_U_22
_atom_site_aniso_U_33
_atom_site_aniso_U_23
_atom_site_aniso_U_13
_atom_site_aniso_U_12
C2 0.0380(12) 0.0436(12) 0.0398(12) -0.0044(10) 0.0089(9) -0.0024(9)
C7 0.0350(11) 0.0439(13) 0.0443(12) -0.0057(10) 0.0088(9) -0.0031(9)
C1 0.0383(12) 0.0549(14) 0.0452(13) -0.0035(11) 0.0145(10) -0.0030(10)
C5 0.0416(13) 0.0555(15) 0.0656(16) -0.0055(12) -0.0017(12) 0.0028(10)
O1 0.0506(11) 0.1093(16) 0.0610(11) 0.0126(10) 0.0288(9) 0.0112(9)
C3 0.0563(15) 0.0537(14) 0.0451(13) -0.0015(11) 0.0118(11) -0.0022(11)
C6 0.0381(13) 0.0547(14) 0.0591(15) -0.0024(12) 0.0105(11) 0.0008(10)
C4 0.0593(16) 0.0574(15) 0.0494(14) 0.0026(11) -0.0019(12) 0.0034(11)
loop_
_atom_type_symbol
_atom_type_description
_atom_type_scat_dispersion_real
_atom_type_scat_dispersion_imag
_atom_type_scat_source
C C 0.0033 0.0016 'International Tables Vol C Tables 4.2.6.8 and 6.1.1.4'
H H 0.0000 0.0000 'International Tables Vol C Tables 4.2.6.8 and 6.1.1.4'
O O 0.0106 0.0060 'International Tables Vol C Tables 4.2.6.8 and 6.1.1.4'
loop_
_geom_angle_atom_site_label_1
_geom_angle_atom_site_label_2
_geom_angle_atom_site_label_3
_geom_angle
_geom_angle_site_symmetry_1
_geom_angle_site_symmetry_3
_geom_angle_publ_flag
C7 C2 C1 120.42(18) . . ?
C3 C2 C7 119.79(19) . . ?
C3 C2 C1 119.79(19) . . ?
C2 C7 C1 121.58(19) . 3_666 ?
C2 C7 C6 119.1(2) . . ?
C6 C7 C1 119.4(2) . 3_666 ?
C7 C1 C2 118.01(17) 3_666 . ?
O1 C1 C2 121.0(2) . . ?
O1 C1 C7 121.0(2) . 3_666 ?
C6 C5 H5 119.7 . . ?
C4 C5 H5 119.7 . . ?
C4 C5 C6 120.6(2) . . ?
C2 C3 H3 119.7 . . ?
C4 C3 C2 120.5(2) . . ?
C4 C3 H3 119.7 . . ?
C7 C6 H6 119.8 . . ?
C5 C6 C7 120.3(2) . . ?
C5 C6 H6 119.8 . . ?
C5 C4 C3 119.7(2) . . ?
C5 C4 H4 120.2 . . ?
C3 C4 H4 120.2 . . ?
loop_
_geom_bond_atom_site_label_1
_geom_bond_atom_site_label_2
_geom_bond_distance
_geom_bond_site_symmetry_2
_geom_bond_publ_flag
C2 C7 1.394(3) . ?
C2 C1 1.485(3) . ?
C2 C3 1.389(3) . ?
C7 C1 1.484(3) 3_666 ?
C7 C6 1.397(3) . ?
C1 O1 1.223(2) . ?
C5 H5 0.9300 . ?
C5 C6 1.378(3) . ?
C5 C4 1.376(3) . ?
C3 H3 0.9300 . ?
C3 C4 1.383(3) . ?
C6 H6 0.9300 . ?
C4 H4 0.9300 . ?
loop_
_geom_torsion_atom_site_label_1
_geom_torsion_atom_site_label_2
_geom_torsion_atom_site_label_3
_geom_torsion_atom_site_label_4
_geom_torsion
_geom_torsion_site_symmetry_1
_geom_torsion_site_symmetry_2
_geom_torsion_site_symmetry_3
_geom_torsion_site_symmetry_4
_geom_torsion_publ_flag
C2 C7 C6 C5 0.2(3) . . . . ?
C2 C3 C4 C5 0.3(3) . . . . ?
C7 C2 C1 C7 -0.3(3) . . . 3_666 ?
C7 C2 C1 O1 179.61(19) . . . . ?
C7 C2 C3 C4 -0.1(3) . . . . ?
C1 C2 C7 C1 0.3(3) . . . 3_666 ?
C1 C2 C7 C6 -179.69(17) . . . . ?
C1 C2 C3 C4 179.45(18) . . . . ?
C1 C7 C6 C5 -179.74(19) 3_666 . . . ?
C3 C2 C7 C1 179.81(18) . . . 3_666 ?
C3 C2 C7 C6 -0.1(3) . . . . ?
C3 C2 C1 C7 -179.80(18) . . . 3_666 ?
C3 C2 C1 O1 0.1(3) . . . . ?
C6 C5 C4 C3 -0.2(3) . . . . ?
C4 C5 C6 C7 -0.1(3) . . . . ?
