#------------------------------------------------------------------------------
#$Date: 2021-04-05 17:35:07 +0300 (Mon, 05 Apr 2021) $
#$Revision: 263729 $
#$URL: file:///home/coder/svn-repositories/cod/cif/7/24/22/7242246.cif $
#------------------------------------------------------------------------------
#
# This file is available in the Crystallography Open Database (COD),
# http://www.crystallography.net/
#
# All data on this site have been placed in the public domain by the
# contributors.
#
data_7242246
loop_
_publ_author_name
'Cheng, Fu-Hung'
'Liu, Yu-Hsiang'
'Lee, Wei-Te'
'Hu, Ji-Hong'
'Hu, Hui-Ling'
'Mahat Chhetri, Pradhumna'
'Chen, Jhy-Der'
_publ_section_title
;
 Silver(i) coordination polymers based on halogenated cyanoformamidine:
 roles of oxyanions and halogen atoms in the structural diversity
;
_journal_issue                   9
_journal_name_full               CrystEngComm
_journal_page_first              1961
_journal_page_last               1968
_journal_paper_doi               10.1039/D1CE00025J
_journal_volume                  23
_journal_year                    2021
_chemical_formula_sum            'C8 H6 Ag Cl N4 O3'
_chemical_formula_weight         349.49
_space_group_crystal_system      triclinic
_space_group_IT_number           2
_space_group_name_Hall           '-P 1'
_space_group_name_H-M_alt        'P -1'
_atom_sites_solution_hydrogens   geom
_audit_creation_method           SHELXL-2014/7
_audit_update_record
;
2020-07-02 deposited with the CCDC.	2021-02-02 downloaded from the CCDC.
;
_cell_angle_alpha                97.388(3)
_cell_angle_beta                 94.146(3)
_cell_angle_gamma                98.600(2)
_cell_formula_units_Z            2
_cell_length_a                   3.7598(5)
_cell_length_b                   7.1464(10)
_cell_length_c                   20.287(3)
_cell_measurement_reflns_used    5252
_cell_measurement_temperature    296(2)
_cell_measurement_theta_max      28.41
_cell_measurement_theta_min      2.91
_cell_volume                     532.16(13)
_computing_cell_refinement       'Bruker SAINT'
_computing_data_collection       'Bruker APEX2'
_computing_data_reduction        'Bruker SAINT'
_computing_molecular_graphics    'Bruker SHELXTL'
_computing_publication_material  'Bruker SHELXTL'
_computing_structure_refinement  'SHELXL-2014/7 (Sheldrick, 2014)'
_computing_structure_solution    'SHELXS-97 (Sheldrick 2008)'
_diffrn_ambient_temperature      296(2)
_diffrn_measured_fraction_theta_full 0.999
_diffrn_measured_fraction_theta_max 0.997
_diffrn_measurement_device_type  'Bruker APEX-II CCD'
_diffrn_measurement_method       '\f and \w scans'
_diffrn_radiation_type           MoK\a
_diffrn_radiation_wavelength     0.71073
_diffrn_reflns_av_R_equivalents  0.0343
_diffrn_reflns_av_unetI/netI     0.0330
_diffrn_reflns_Laue_measured_fraction_full 0.999
_diffrn_reflns_Laue_measured_fraction_max 0.997
_diffrn_reflns_limit_h_max       3
_diffrn_reflns_limit_h_min       -5
_diffrn_reflns_limit_k_max       9
_diffrn_reflns_limit_k_min       -9
_diffrn_reflns_limit_l_max       27
_diffrn_reflns_limit_l_min       -26
_diffrn_reflns_number            10148
_diffrn_reflns_point_group_measured_fraction_full 0.999
_diffrn_reflns_point_group_measured_fraction_max 0.997
_diffrn_reflns_theta_full        25.242
_diffrn_reflns_theta_max         28.420
_diffrn_reflns_theta_min         2.033
_exptl_absorpt_coefficient_mu    2.146
_exptl_absorpt_correction_T_max  0.7457
_exptl_absorpt_correction_T_min  0.6537
_exptl_absorpt_correction_type   multi-scan
_exptl_absorpt_process_details   'sadabs v2008/1(bruker axs, 2008)'
_exptl_crystal_colour            colourless
_exptl_crystal_density_diffrn    2.181
_exptl_crystal_description       Plate
_exptl_crystal_F_000             340
_exptl_crystal_size_max          0.400
_exptl_crystal_size_mid          0.200
_exptl_crystal_size_min          0.100
_refine_diff_density_max         2.810
_refine_diff_density_min         -1.171
_refine_diff_density_rms         0.174
_refine_ls_extinction_method     none
_refine_ls_goodness_of_fit_ref   1.068
_refine_ls_hydrogen_treatment    constr
_refine_ls_matrix_type           full
_refine_ls_number_parameters     154
_refine_ls_number_reflns         2646
_refine_ls_number_restraints     0
_refine_ls_restrained_S_all      1.068
_refine_ls_R_factor_all          0.0717
_refine_ls_R_factor_gt           0.0573
_refine_ls_shift/su_max          0.001
_refine_ls_shift/su_mean         0.000
_refine_ls_structure_factor_coef Fsqd
_refine_ls_weighting_details
'w=1/[\s^2^(Fo^2^)+(0.0962P)^2^+0.6331P] where P=(Fo^2^+2Fc^2^)/3'
_refine_ls_weighting_scheme      calc
_refine_ls_wR_factor_gt          0.1447
_refine_ls_wR_factor_ref         0.1554
_reflns_Friedel_coverage         0.000
_reflns_number_gt                2112
_reflns_number_total             2646
_reflns_threshold_expression     'I > 2\s(I)'
_cod_data_source_file            d1ce00025j2.cif
_cod_data_source_block           5
_cod_depositor_comments
;
The following automatic conversions were performed:

data item '_exptl_absorpt_correction_type' value 'multi_scan' was
changed to 'multi-scan' in accordance with the
/home/data/users/saulius/crontab/automatic-downloads/rss-feeds/RSC/lib/dictionaries/cif_core.dic
dictionary named 'cif_core.dic' version 2.4.2 last updated on
2011-04-26.

Automatic conversion script
Id: cif_fix_values 7556 2019-12-06 15:28:31Z antanas 

 Adding full bibliography for 7242241--7242246.cif.
;
_cod_database_code               7242246
_shelx_shelxl_version_number     2014/7
_shelx_space_group_comment
; 
The symmetry employed for this shelxl refinement is uniquely defined 
by the following loop, which should always be used as a source of 
symmetry information in preference to the above space-group names. 
They are only intended as comments. 
;
_shelx_estimated_absorpt_t_min   0.481
_shelx_estimated_absorpt_t_max   0.814
_shelx_res_file
; 
  
    12056.res created by SHELXL-2014/7 
  
  
TITL 12056 in P-1 
CELL 0.71073   3.75980   7.14637  20.28710  97.3875  94.1460  98.5997 
ZERR    2.00   0.00050   0.00098   0.00280   0.0027   0.0028   0.0021 
LATT  1 
SFAC C H N O CL AG 
UNIT 16 12 8 6 2 2 
TEMP 23.000 
SIZE 0.10 0.20 0.40 
acta 
L.S. 8 
BOND  $H 
FMAP 2 
PLAN 20 
WGHT    0.096200    0.633100 
FVAR       0.19307 
AG    6    0.829311    0.854972    0.553892    11.00000    0.04610    0.06041 = 
         0.03726   -0.01267   -0.00061    0.01142 
CL    5    0.693807    0.261269   -0.001420    11.00000    0.05419    0.05882 = 
         0.02546    0.00093   -0.00460    0.01236 
O2    4    1.474763    1.145361    0.726354    11.00000    0.07350    0.05885 = 
         0.04224   -0.01488   -0.00460   -0.00043 
O3    4    1.151962    1.125136    0.632474    11.00000    0.07219    0.04343 = 
         0.05429    0.00960   -0.00146    0.02988 
O1    4    1.400872    0.888152    0.654837    11.00000    0.07536    0.03081 = 
         0.04873    0.00357   -0.00394    0.01973 
N1    3    1.270490    0.747087    0.487099    11.00000    0.04407    0.05096 = 
         0.02823   -0.00384   -0.00095    0.01305 
N2    3    1.266913    0.484094    0.395586    11.00000    0.04298    0.03382 = 
         0.02244   -0.00118    0.00022    0.01135 
N3    3    1.191506    0.358659    0.285997    11.00000    0.03925    0.02873 = 
         0.02445    0.00172   -0.00078    0.01223 
AFIX  43 
H3A   2    1.301205    0.269254    0.297805    11.00000   -1.20000 
AFIX   0 
N4    3    1.346231    1.055607    0.672157    11.00000    0.03728    0.02528 = 
         0.03287    0.00303    0.00531    0.00202 
C1    1    1.256675    0.628935    0.442087    11.00000    0.03523    0.03571 = 
         0.02660    0.00142    0.00127    0.00915 
C2    1    1.156607    0.495827    0.333206    11.00000    0.03110    0.02514 = 
         0.02896    0.00294    0.00271    0.00608 
AFIX  43 
H2B   2    1.055019    0.600656    0.322920    11.00000   -1.20000 
AFIX   0 
C3    1    1.067142    0.341361    0.216990    11.00000    0.02902    0.02909 = 
         0.01923   -0.00069    0.00270    0.00395 
C4    1    0.950722    0.492779    0.189040    11.00000    0.04285    0.02542 = 
         0.02962   -0.00040    0.00130    0.01092 
AFIX  43 
H4A   2    0.952101    0.609876    0.215134    11.00000   -1.20000 
AFIX   0 
C5    1    0.833892    0.465521    0.122160    11.00000    0.03777    0.03629 = 
         0.02783    0.00777    0.00408    0.01152 
AFIX  43 
H5A   2    0.750584    0.564147    0.102997    11.00000   -1.20000 
AFIX   0 
C6    1    0.839454    0.291962    0.083094    11.00000    0.02784    0.04223 = 
         0.02524   -0.00048   -0.00039    0.00417 
C7    1    0.956851    0.142601    0.110767    11.00000    0.04646    0.03072 = 
         0.02779   -0.00326    0.00317    0.00822 
AFIX  43 
H7A   2    0.958238    0.026100    0.084492    11.00000   -1.20000 
AFIX   0 
C8    1    1.072769    0.168815    0.178365    11.00000    0.03850    0.02811 = 
         0.03110    0.00280    0.00507    0.00856 
AFIX  43 
H8A   2    1.154252    0.069780    0.197562    11.00000   -1.20000 
  
AFIX   0 
HKLF 4 
  
REM  12056 in P-1 
REM R1 =  0.0573 for    2112 Fo > 4sig(Fo)  and  0.0717 for all    2646 data 
REM    154 parameters refined using      0 restraints 
  
END 
  
WGHT      0.0965      0.6206 
  
REM Highest difference peak  2.810,  deepest hole -1.171,  1-sigma level  0.174 
Q1    1   1.1286  0.8560  0.5531  11.00000  0.05    2.81 
Q2    1   1.3435  0.8541  0.5522  11.00000  0.05    2.66 
Q3    1   0.5369  0.8562  0.5530  11.00000  0.05    2.57 
Q4    1   0.2205  0.2568 -0.0008  11.00000  0.05    1.05 
Q5    1   0.8749  0.9351  0.5341  11.00000  0.05    1.01 
Q6    1   1.0049  0.2639 -0.0007  11.00000  0.05    0.91 
Q7    1   1.0678  1.0648  0.6602  11.00000  0.05    0.48 
Q8    1   0.9929  1.1444  0.7299  11.00000  0.05    0.46 
Q9    1   0.7264  0.4905  0.3304  11.00000  0.05    0.43 
Q10   1   1.7176  1.1069  0.7248  11.00000  0.05    0.43 
Q11   1   0.9428  0.2256  0.1999  11.00000  0.05    0.43 
Q12   1   1.1861  1.1507  0.7197  11.00000  0.05    0.41 
Q13   1   0.8143  1.0489  0.6713  11.00000  0.05    0.41 
Q14   1   1.7332  0.4951  0.3904  11.00000  0.05    0.41 
Q15   1   1.6284  0.8983  0.6574  11.00000  0.05    0.40 
Q16   1   0.8197  0.7431  0.4882  11.00000  0.05    0.39 
Q17   1   1.5836  1.1182  0.6281  11.00000  0.05    0.39 
Q18   1   1.1191  0.1069  0.3440  11.00000  0.05    0.38 
Q19   1   1.2969  0.2803  0.0867  11.00000  0.05    0.38 
Q20   1   1.0565  0.7402  0.4772  11.00000  0.05    0.37 
;
_shelx_res_checksum              17350
loop_
_space_group_symop_operation_xyz
'x, y, z'
'-x, -y, -z'
loop_
_atom_site_label
_atom_site_type_symbol
_atom_site_fract_x
_atom_site_fract_y
_atom_site_fract_z
_atom_site_U_iso_or_equiv
_atom_site_adp_type
_atom_site_occupancy
_atom_site_site_symmetry_order
_atom_site_calc_flag
_atom_site_refinement_flags_posn
_atom_site_refinement_flags_adp
_atom_site_refinement_flags_occupancy
_atom_site_disorder_assembly
_atom_site_disorder_group
Ag Ag 0.82931(12) 0.85497(7) 0.55389(2) 0.0496(2) Uani 1 1 d . . . . .
Cl Cl 0.6938(4) 0.2613(2) -0.00142(6) 0.0467(3) Uani 1 1 d . . . . .
O2 O 1.4748(14) 1.1454(7) 0.7264(2) 0.0618(12) Uani 1 1 d . . . . .
O3 O 1.1520(13) 1.1251(6) 0.6325(2) 0.0546(11) Uani 1 1 d . . . . .
O1 O 1.4009(13) 0.8882(5) 0.6548(2) 0.0511(10) Uani 1 1 d . . . . .
N1 N 1.2705(13) 0.7471(7) 0.4871(2) 0.0416(10) Uani 1 1 d . . . . .
N2 N 1.2669(12) 0.4841(6) 0.39559(19) 0.0331(9) Uani 1 1 d . . . . .
N3 N 1.1915(11) 0.3587(5) 0.28600(18) 0.0305(8) Uani 1 1 d . . . . .
H3A H 1.3012 0.2693 0.2978 0.037 Uiso 1 1 calc R U . . .
N4 N 1.3462(12) 1.0556(5) 0.6722(2) 0.0321(8) Uani 1 1 d . . . . .
C1 C 1.2567(14) 0.6289(7) 0.4421(2) 0.0325(10) Uani 1 1 d . . . . .
C2 C 1.1566(13) 0.4958(6) 0.3332(2) 0.0283(9) Uani 1 1 d . . . . .
H2B H 1.0550 0.6007 0.3229 0.034 Uiso 1 1 calc R U . . .
C3 C 1.0671(12) 0.3414(6) 0.2170(2) 0.0262(8) Uani 1 1 d . . . . .
C4 C 0.9507(14) 0.4928(6) 0.1890(2) 0.0326(10) Uani 1 1 d . . . . .
H4A H 0.9521 0.6099 0.2151 0.039 Uiso 1 1 calc R U . . .
C5 C 0.8339(14) 0.4655(7) 0.1222(2) 0.0330(10) Uani 1 1 d . . . . .
H5A H 0.7506 0.5641 0.1030 0.040 Uiso 1 1 calc R U . . .
C6 C 0.8395(13) 0.2920(7) 0.0831(2) 0.0325(9) Uani 1 1 d . . . . .
C7 C 0.9569(15) 0.1426(7) 0.1108(2) 0.0355(10) Uani 1 1 d . . . . .
H7A H 0.9582 0.0261 0.0845 0.043 Uiso 1 1 calc R U . . .
C8 C 1.0728(14) 0.1688(6) 0.1784(2) 0.0323(10) Uani 1 1 d . . . . .
H8A H 1.1543 0.0698 0.1976 0.039 Uiso 1 1 calc R U . . .
loop_
_atom_site_aniso_label
_atom_site_aniso_U_11
_atom_site_aniso_U_22
_atom_site_aniso_U_33
_atom_site_aniso_U_23
_atom_site_aniso_U_13
_atom_site_aniso_U_12
Ag 0.0461(3) 0.0604(3) 0.0373(3) -0.01267(18) -0.00061(18) 0.0114(2)
Cl 0.0542(8) 0.0588(8) 0.0255(6) 0.0009(5) -0.0046(5) 0.0124(6)
O2 0.073(3) 0.059(3) 0.042(2) -0.0149(19) -0.005(2) 0.000(2)
O3 0.072(3) 0.043(2) 0.054(2) 0.0096(18) -0.001(2) 0.030(2)
O1 0.075(3) 0.0308(18) 0.049(2) 0.0036(16) -0.004(2) 0.0197(18)
N1 0.044(3) 0.051(2) 0.028(2) -0.0038(18) -0.0010(18) 0.013(2)
N2 0.043(2) 0.0338(19) 0.0224(18) -0.0012(14) 0.0002(16) 0.0114(17)
N3 0.039(2) 0.0287(17) 0.0244(18) 0.0017(14) -0.0008(15) 0.0122(16)
N4 0.037(2) 0.0253(17) 0.033(2) 0.0030(14) 0.0053(16) 0.0020(15)
C1 0.035(3) 0.036(2) 0.027(2) 0.0014(18) 0.0013(18) 0.0092(19)
C2 0.031(2) 0.0251(19) 0.029(2) 0.0029(15) 0.0027(17) 0.0061(16)
C3 0.029(2) 0.029(2) 0.0192(18) -0.0007(15) 0.0027(16) 0.0040(16)
C4 0.043(3) 0.025(2) 0.030(2) -0.0004(16) 0.0013(19) 0.0109(18)
C5 0.038(3) 0.036(2) 0.028(2) 0.0078(18) 0.0041(19) 0.0115(19)
C6 0.028(2) 0.042(2) 0.025(2) -0.0005(18) -0.0004(17) 0.0042(19)
C7 0.046(3) 0.031(2) 0.028(2) -0.0033(17) 0.003(2) 0.008(2)
C8 0.039(3) 0.028(2) 0.031(2) 0.0028(17) 0.0051(19) 0.0086(18)
loop_
_atom_type_symbol
_atom_type_description
_atom_type_scat_dispersion_real
_atom_type_scat_dispersion_imag
_atom_type_scat_source
C C 0.0033 0.0016 'International Tables Vol C Tables 4.2.6.8 and 6.1.1.4'
H H 0.0000 0.0000 'International Tables Vol C Tables 4.2.6.8 and 6.1.1.4'
N N 0.0061 0.0033 'International Tables Vol C Tables 4.2.6.8 and 6.1.1.4'
O O 0.0106 0.0060 'International Tables Vol C Tables 4.2.6.8 and 6.1.1.4'
Cl Cl 0.1484 0.1585 'International Tables Vol C Tables 4.2.6.8 and 6.1.1.4'
Ag Ag -0.8971 1.1015 'International Tables Vol C Tables 4.2.6.8 and 6.1.1.4'
loop_
_geom_angle_atom_site_label_1
_geom_angle_atom_site_label_2
_geom_angle_atom_site_label_3
_geom_angle
_geom_angle_site_symmetry_1
_geom_angle_site_symmetry_3
_geom_angle_publ_flag
N1 Ag N1 104.53(17) . 1_455 ?
N1 Ag O3 105.56(17) . . ?
N1 Ag O3 142.12(14) 1_455 . ?
N4 O3 Ag 105.9(3) . . ?
C1 N1 Ag 133.2(4) . . ?
C1 N1 Ag 119.3(4) . 1_655 ?
Ag N1 Ag 104.53(17) . 1_655 ?
C1 N2 C2 119.1(4) . . ?
C2 N3 C3 127.0(4) . . ?
C2 N3 H3A 116.5 . . ?
C3 N3 H3A 116.5 . . ?
O2 N4 O3 121.7(4) . . ?
O2 N4 O1 121.1(5) . . ?
O3 N4 O1 117.2(4) . . ?
N1 C1 N2 172.8(5) . . ?
N3 C2 N2 119.4(4) . . ?
N3 C2 H2B 120.3 . . ?
N2 C2 H2B 120.3 . . ?
C8 C3 C4 120.9(4) . . ?
C8 C3 N3 117.1(4) . . ?
C4 C3 N3 122.0(4) . . ?
C5 C4 C3 118.7(4) . . ?
C5 C4 H4A 120.6 . . ?
C3 C4 H4A 120.6 . . ?
C4 C5 C6 120.5(4) . . ?
C4 C5 H5A 119.8 . . ?
C6 C5 H5A 119.8 . . ?
C7 C6 C5 120.7(4) . . ?
C7 C6 Cl 119.6(4) . . ?
C5 C6 Cl 119.7(4) . . ?
C6 C7 C8 119.1(4) . . ?
C6 C7 H7A 120.5 . . ?
C8 C7 H7A 120.5 . . ?
C3 C8 C7 120.0(4) . . ?
C3 C8 H8A 120.0 . . ?
C7 C8 H8A 120.0 . . ?
loop_
_geom_bond_atom_site_label_1
_geom_bond_atom_site_label_2
_geom_bond_distance
_geom_bond_site_symmetry_2
_geom_bond_publ_flag
Ag N1 2.371(5) . ?
Ag N1 2.383(5) 1_455 ?
Ag O3 2.443(5) . ?
Cl C6 1.738(5) . ?
O2 N4 1.226(6) . ?
O3 N4 1.247(5) . ?
O1 N4 1.254(5) . ?
N1 C1 1.154(6) . ?
N1 Ag 2.383(5) 1_655 ?
N2 C1 1.315(6) . ?
N2 C2 1.320(6) . ?
N3 C2 1.308(6) . ?
N3 C3 1.427(5) . ?
N3 H3A 0.8600 . ?
C2 H2B 0.9300 . ?
C3 C8 1.377(6) . ?
C3 C4 1.396(6) . ?
C4 C5 1.376(7) . ?
C4 H4A 0.9300 . ?
C5 C6 1.387(7) . ?
C5 H5A 0.9300 . ?
C6 C7 1.381(7) . ?
C7 C8 1.389(7) . ?
C7 H7A 0.9300 . ?
C8 H8A 0.9300 . ?
